&CONTROL
calculation = 'relax'
prefix = 'scf'
pseudo_dir = '/vol0403/data/hp230205/u10028/POT_HYBRID_KKJUS_GBRV'
outdir = './data'
tprnfor = .true.
nstep = 50
disk_io = 'non'
/
&SYSTEM
ibrav = 0
ecutwfc = 50.0
ecutrho = 400
occupations = 'smearing'
smearing = 'mp'
degauss = 0.01
assume_isolated = 'esm'
esm_bc = 'bc1'
input_dft = 'BEEF-VDW'
nosym = .true.
nspin = 1
ntyp = 6
nat = 18
/
&ELECTRONS
electron_maxstep = 200
mixing_beta = 0.1
conv_thr = 1e-06
/
&IONS
ion_dynamics = 'bfgs'
upscale = 1.0
/
&CELL
/

K_POINTS {automatic}
9 9 2 0  0  0

ATOMIC_SPECIES
C 12.01 C.pbe-n-rrkjus_psl.1.0.0.UPF
Hf 178.4 Hf.pbe-spn-rrkjus_psl.1.0.0.UPF
In 114.8 In.pbe-dn-rrkjus_psl.1.0.0.UPF
Li 6.941 Li.pbe-sl-rrkjus_psl.1.0.0.UPF
O 15.99 O.pbe-n-rrkjus_psl.1.0.0.UPF
Pd 106.4 Pd.pbe-n-rrkjus_psl.1.0.0.UPF


CELL_PARAMETERS {angstrom}
6.51419000 0.00000000 0.00000000
0.00000000 6.51419000 0.00000000
0.00000000 0.00000000 24.88560000

ATOMIC_POSITIONS {angstrom}
Li 4.82929476 1.57219976 0.89588160
Li 4.88564250 4.88564250 -2.4427705000000017 0 0 0
Li 1.62854750 1.62854750 -2.4427705000000017 0 0 0
Li 1.68548152 4.94251138 0.89538389
Hf 0.00006514 0.00071656 2.43455825
Hf 0.00000000 3.25709500 -0.8142568300000015 0 0 0
Hf 3.25709500 0.00000000 -0.8142568300000015 0 0 0
Hf 3.25768128 3.25689957 2.43455825
In 0.00026057 3.25657386 2.46093698
In 0.00000000 0.00000000 -0.8142568300000015 0 0 0
In 3.25709500 3.25709500 -0.8142568300000015 0 0 0
In 3.25787670 0.00006514 2.80585140
Pd 1.67251828 1.58444643 0.86577002
Pd 1.62854750 4.88564250 -2.4427705000000017 0 0 0
Pd 4.88564250 1.62854750 -2.4427705000000017 0 0 0
Pd 4.84225799 4.92896186 0.86577002
C 6.51308259 3.25813727 4.82606441
O 0.00032571 3.25689957 5.97652570
