&CONTROL
calculation = 'relax'
prefix = 'scf'
pseudo_dir = '/vol0403/data/hp230205/u10028/POT_HYBRID_KKJUS_GBRV'
outdir = './data'
tprnfor = .true.
nstep = 50
disk_io = 'non'
/
&SYSTEM
ibrav = 0
ecutwfc = 50.0
ecutrho = 400
occupations = 'smearing'
smearing = 'mp'
degauss = 0.01
assume_isolated = 'esm'
esm_bc = 'bc1'
input_dft = 'BEEF-VDW'
nosym = .true.
nspin = 1
ntyp = 6
nat = 18
/
&ELECTRONS
electron_maxstep = 200
mixing_beta = 0.1
conv_thr = 1e-06
/
&IONS
ion_dynamics = 'bfgs'
upscale = 1.0
/
&CELL
/

K_POINTS {automatic}
8 8 1 0 0 0

ATOMIC_SPECIES
C 12.01 C.pbe-n-rrkjus_psl.1.0.0.UPF
Ga 69.72 Ga.pbe-dnl-rrkjus_psl.1.0.0.UPF
Ge 72.64 Ge.pbe-dn-rrkjus_psl.1.0.0.UPF
Li 6.941 Li.pbe-sl-rrkjus_psl.1.0.0.UPF
O 15.99 O.pbe-n-rrkjus_psl.1.0.0.UPF
Pd 106.4 Pd.pbe-n-rrkjus_psl.1.0.0.UPF


CELL_PARAMETERS {angstrom}
6.27488000 0.00000000 0.00000000
0.00000000 6.27488000 0.00000000
0.00000000 0.00000000 24.70620000

ATOMIC_POSITIONS {angstrom}
Li 4.65125480 1.62362520 0.81530460
Li 4.70616000 4.70616000 -2.35301849 0 0 0
Li 1.56872000 1.56872000 -2.35301849 0 0 0
Li 1.62368795 4.65125480 0.81530460
Ga 0.00112948 0.00006275 2.14672172
Ga 0.00000000 3.13744000 -0.7844218499999975 0 0 0
Ga 3.13744000 0.00000000 -0.7844218499999975 0 0 0
Ga 3.13674976 3.13787924 2.57685666
Ge 0.00006275 3.13687526 2.46592582
Ge 0.00000000 0.00000000 -0.7844218499999975 0 0 0
Ge 3.13744000 3.13744000 -0.7844218499999975 0 0 0
Ge 3.13693801 0.00138047 2.46617288
Pd 1.60034540 1.59946691 0.76712751
Pd 1.56872000 4.70616000 -2.35301849 0 0 0
Pd 4.70616000 1.56872000 -2.35301849 0 0 0
Pd 4.67528759 4.67522484 0.76613926
C 6.27481725 6.27481725 4.36262080
O 6.27444076 6.27387602 5.50478842
