&CONTROL
calculation = 'relax'
prefix = 'scf'
pseudo_dir = '/vol0004/mdt0/data/hp150275/u10028/POT_KKJUS'
outdir = './data'
tprnfor = .true.
nstep = 50
disk_io = 'non'
/
&SYSTEM
ibrav = 0
ecutwfc = 50.0
ecutrho = 400
occupations = 'smearing'
smearing = 'mp'
degauss = 0.01
assume_isolated = 'esm'
esm_bc = 'bc1'
input_dft = 'BEEF-VDW'
nosym = .true.
nspin = 1
ntyp = 3
nat = 17
/
&ELECTRONS
electron_maxstep = 200
mixing_beta = 0.1
conv_thr = 1e-06
/
&IONS
ion_dynamics = 'bfgs'
upscale = 1.0
/
&CELL
/

K_POINTS {automatic}
8 11 2 0  0  0

ATOMIC_SPECIES
C 12.01 C.pbe-n-rrkjus_psl.1.0.0.UPF
V 50.94 V.pbe-spnl-rrkjus_psl.1.0.0.UPF
Zn 65.40 Zn.pbe-dnl-rrkjus_psl.1.0.0.UPF

CELL_PARAMETERS {angstrom}
7.64728000 0.00000000 0.00000000
0.00000000 5.40744000 0.00000000
0.00000000 0.00000000 24.05560000

ATOMIC_POSITIONS {angstrom}
V 0.00000000 0.00000000 -2.0278870799999993 0 0 0
V 0.00000000 2.70372000 0.60668223
V 3.82364000 0.00000000 -2.0278870799999993 0 0 0
V 3.82364000 2.70372000 0.85926603
Zn 0.00000000 2.70372000 -2.0278870799999993 0 0 0
Zn 1.91182000 4.05558000 -0.6759623599999998 0 0 0
Zn 1.91182000 1.35186000 -0.6759623599999998 0 0 0
Zn 0.00000000 0.00000000 0.45344806
Zn 1.71513196 1.35807856 2.22514300
Zn 1.71513196 4.04936144 2.22514300
Zn 3.82364000 2.70372000 -2.0278870799999993 0 0 0
Zn 5.73546000 4.05558000 -0.6759623599999998 0 0 0
Zn 5.73546000 1.35186000 -0.6759623599999998 0 0 0
Zn 3.82364000 0.00000000 1.04665916
Zn 5.93214804 1.35807856 2.22538356
Zn 5.93214804 4.04936144 2.22514300
C 0.00000000 0.00000000 2.47075068
