&CONTROL
calculation = 'relax'
prefix = 'scf'
pseudo_dir = '/vol0004/mdt0/data/hp150275/u10028/POT_KKJUS'
outdir = './data'
tprnfor = .true.
nstep = 50
disk_io = 'non'
/
&SYSTEM
ibrav = 0
ecutwfc = 50.0
ecutrho = 400
occupations = 'smearing'
smearing = 'mp'
degauss = 0.01
assume_isolated = 'esm'
esm_bc = 'bc1'
input_dft = 'BEEF-VDW'
nosym = .true.
nspin = 1
ntyp = 4
nat = 18
/
&ELECTRONS
electron_maxstep = 200
mixing_beta = 0.1
conv_thr = 1e-06
/
&IONS
ion_dynamics = 'bfgs'
upscale = 1.0
/
&CELL
/

K_POINTS {automatic}
8 8 1 0 0 0

ATOMIC_SPECIES
Au 196.9 Au.pbe-n-rrkjus_psl.1.0.0.UPF
C 12.01 C.pbe-n-rrkjus_psl.1.0.0.UPF
Li 6.941 Li.pbe-sl-rrkjus_psl.1.0.0.UPF
O 15.99 O.pbe-n-rrkjus_psl.1.0.0.UPF

CELL_PARAMETERS {angstrom}
6.35005000 0.00000000 0.00000000
0.00000000 6.35005000 0.00000000
0.00000000 0.00000000 24.76250000

ATOMIC_POSITIONS {angstrom}
Li 1.58852851 1.58694100 0.78571413
Li 4.76253750 4.76253750 -2.381162 0 0 0
Li 4.76133099 1.58700450 0.78596175
Li 1.58751250 4.76253750 -2.381162 0 0 0
Li 4.76133099 4.76317251 0.78596175
Li 1.58751250 1.58751250 -2.381162 0 0 0
Li 1.58852851 4.76317251 0.78596175
Li 4.76253750 1.58751250 -2.381162 0 0 0
Li 0.00000000 0.00000000 -0.7936381299999979 0 0 0
Li 3.17477100 0.00012700 2.62234875
Li 0.00019050 3.17489800 2.68177875
Li 3.17502500 3.17502500 -0.7936381299999979 0 0 0
Au 6.34884349 6.34966900 2.19940525
Au 3.17546950 3.17566001 2.22986313
Au 3.17502500 0.00000000 -0.7936381299999979 0 0 0
Au 0.00000000 3.17502500 -0.7936381299999979 0 0 0
C 6.34947850 3.17527900 4.78238163
O 6.34884349 3.17553300 5.92244712
