&CONTROL
calculation = 'relax'
prefix = 'scf'
pseudo_dir = '/vol0403/data/hp230205/u10028/POT_HYBRID_KKJUS_GBRV'
outdir = './data'
tprnfor = .true.
nstep = 50
disk_io = 'non'
/
&SYSTEM
ibrav = 0
ecutwfc = 50.0
ecutrho = 400
occupations = 'smearing'
smearing = 'mp'
degauss = 0.01
assume_isolated = 'esm'
esm_bc = 'bc1'
input_dft = 'BEEF-VDW'
nosym = .true.
nspin = 1
ntyp = 5
nat = 17
/
&ELECTRONS
electron_maxstep = 200
mixing_beta = 0.1
conv_thr = 1e-06
/
&IONS
ion_dynamics = 'bfgs'
upscale = 1.0
/
&CELL
/

K_POINTS {automatic}
6 6 1 0 0 0

ATOMIC_SPECIES
C 12.01 C.pbe-n-rrkjus_psl.1.0.0.UPF
In 114.8 In.pbe-dn-rrkjus_psl.1.0.0.UPF
Pd 106.4 Pd.pbe-n-rrkjus_psl.1.0.0.UPF
Sc 44.95 Sc.pbe-spn-rrkjus_psl.1.0.0.UPF
Y 88.90 Y.pbe-spn-rrkjus_psl.1.0.0.UPF


CELL_PARAMETERS {angstrom}
6.06590000 0.00000000 0.00000000
0.00000000 10.11530000 0.00000000
0.00000000 0.00000000 24.38870000

ATOMIC_POSITIONS {angstrom}
Y 0.86778765 2.52953307 0.80824152
Y 3.35092448 2.52882500 -2.194251340000001 0 0 0
Y 1.30283400 7.58617154 0.67264035
Y 3.35092448 7.58647500 -2.194251340000001 0 0 0
Sc 3.32908724 0.53904434 2.23741934
Sc 5.26689965 0.00000000 -0.7314171099999989 0 0 0
Sc 3.32932987 4.52740597 2.23619990
Sc 5.26689965 5.05765000 -0.7314171099999989 0 0 0
In 0.24579027 9.87303856 2.41570074
In 2.23394965 0.00000000 -0.7314171099999989 0 0 0
In 0.24585093 5.30132758 2.41521296
In 2.23394965 5.05765000 -0.7314171099999989 0 0 0
Pd 4.03430877 2.53175844 0.33900293
Pd 0.31797448 2.52882500 -2.194251340000001 0 0 0
Pd 4.33851366 7.58283349 0.43265554
Pd 0.31797448 7.58647500 -2.194251340000001 0 0 0
C 2.75082499 2.53074691 2.15669274
