&CONTROL
calculation = 'relax'
prefix = 'scf'
pseudo_dir = '/vol0403/data/hp230205/u10028/POT_HYBRID_KKJUS_GBRV'
outdir = './data'
tprnfor = .true.
nstep = 50
disk_io = 'non'
/
&SYSTEM
ibrav = 0
ecutwfc = 50.0
ecutrho = 400
occupations = 'smearing'
smearing = 'mp'
degauss = 0.01
assume_isolated = 'esm'
esm_bc = 'bc1'
input_dft = 'BEEF-VDW'
nosym = .true.
nspin = 1
ntyp = 5
nat = 33
/
&ELECTRONS
electron_maxstep = 200
mixing_beta = 0.1
conv_thr = 1e-06
/
&IONS
ion_dynamics = 'bfgs'
upscale = 1.0
/
&CELL
/

K_POINTS {automatic}
6 6 1 0 0 0

ATOMIC_SPECIES
C 12.01 C.pbe-n-rrkjus_psl.1.0.0.UPF
In 114.8 In.pbe-dn-rrkjus_psl.1.0.0.UPF
Li 6.941 Li.pbe-sl-rrkjus_psl.1.0.0.UPF
Pt 195.0 Pt.pbe-n-rrkjus_psl.1.0.0.UPF
Y 88.90 Y.pbe-spn-rrkjus_psl.1.0.0.UPF


CELL_PARAMETERS {angstrom}
6.80323000 0.00000000 0.00000000
0.00000000 9.62122000 0.00000000
0.00000000 0.00000000 27.21590000

ATOMIC_POSITIONS {angstrom}
Li 5.10242250 0.00000000 -1.2026706200000028 0 0 0
Li 5.10242250 4.81061000 -1.2026706200000028 0 0 0
Li 1.70080750 2.40530500 -3.6080118600000013 0 0 0
Li 1.70080750 7.21591500 -3.6080118600000013 0 0 0
Li 3.63625840 5.16390120 5.17374259
Li 3.63605431 9.26802501 5.17455907
Li 1.71570657 7.21591500 1.13571951
Li 1.38847121 2.40530500 1.66833467
Y 0.00000000 2.40530500 -1.2026706200000028 0 0 0
Y 0.00000000 7.21591500 -1.2026706200000028 0 0 0
Y 3.40161500 4.81061000 -3.6080118600000013 0 0 0
Y 3.40161500 0.00000000 -3.6080118600000013 0 0 0
Y 6.57960783 7.21591500 3.51139542
Y 5.84125328 2.40520879 3.64502549
Y 3.41386081 0.05580308 1.32895240
Y 3.41386081 4.75490314 1.32922456
In 0.00000000 0.00000000 -3.6080118600000013 0 0 0
In 0.00000000 4.81061000 -3.6080118600000013 0 0 0
In 3.40161500 7.21591500 -1.2026706200000028 0 0 0
In 3.40161500 2.40530500 -1.2026706200000028 0 0 0
In 6.74104848 4.84168654 1.22199391
In 6.74104848 9.59014346 1.22199391
In 3.05587485 2.40540121 5.18381247
In 3.15064385 7.21610742 3.51792723
Pt 1.70080750 0.00000000 -1.2026706200000028 0 0 0
Pt 1.70080750 4.81061000 -1.2026706200000028 0 0 0
Pt 5.10242250 2.40530500 -3.6080118600000013 0 0 0
Pt 5.10242250 7.21591500 -3.6080118600000013 0 0 0
Pt 1.64617756 4.43740288 3.48200225
Pt 1.64624560 0.37320712 3.48200225
Pt 5.05126221 7.21591500 1.14987178
Pt 5.12038303 2.40530500 0.98548774
C 1.25315497 2.40530500 3.86710723
