&CONTROL
calculation = 'relax'
prefix = 'scf'
pseudo_dir = '/vol0004/mdt0/data/hp150275/u10028/POT_HYBRID_KKJUS_GBRV'
outdir = './data'
tprnfor = .true.
nstep = 50
disk_io = 'non'
/
&SYSTEM
ibrav = 0
ecutwfc = 50.0
ecutrho = 400
occupations = 'smearing'
smearing = 'mp'
degauss = 0.01
assume_isolated = 'esm'
esm_bc = 'bc1'
input_dft = 'BEEF-VDW'
nosym = .true.
nspin = 2
ntyp = 4
nat = 18
starting_magnetization(1) = 0.0
starting_magnetization(2) = 0.1
starting_magnetization(3) = 0.01
starting_magnetization(4) = 0.0
/
&ELECTRONS
electron_maxstep = 200
mixing_beta = 0.1
conv_thr = 1e-06
/
&IONS
ion_dynamics = 'bfgs'
upscale = 1.0
/
&CELL
/

K_POINTS {automatic}
10 10 2 0  0  0

ATOMIC_SPECIES
C 12.01 C.pbe-n-rrkjus_psl.1.0.0.UPF
Fe 55.84 fe_pbe_v1.5.uspp.F.UPF
Ni 58.69 ni_pbe_v1.4.uspp.F.UPF
O 15.99 O.pbe-n-rrkjus_psl.1.0.0.UPF

CELL_PARAMETERS {angstrom}
5.07706000 0.00000000 0.00000000
-0.00000000 5.07706000 0.00000000
0.00000000 0.00000000 25.39280000

ATOMIC_POSITIONS {angstrom}
Fe 1.26926500 1.26926500 24.47154922
Fe 1.26926500 1.26926500 2.67411577
Fe 1.26926500 3.80779500 24.47154922
Fe 1.26926500 3.80779500 2.67411577
Fe 3.80779500 1.26926500 24.47154922
Fe 3.80779500 1.26926500 2.67411577
Fe 3.80779500 3.80779500 24.47154922
Fe 3.80779500 3.80779500 2.67411577
Ni 0.00000000 0.00000000 22.67399290
Ni 0.00000000 0.00000000 0.87655946
Ni 0.00000000 2.53853000 22.67399290
Ni 0.00000000 2.53853000 0.87655946
Ni 2.53853000 0.00000000 22.67399290
Ni 2.53853000 -0.00000000 0.87655946
Ni 2.53853000 2.53853000 22.67399290
Ni 2.53853000 2.53853000 0.87655946
C 1.26926500 1.26926500 4.57400506
O 1.26926500 1.26926500 5.72404498
