&CONTROL
calculation = 'relax'
prefix = 'scf'
pseudo_dir = '/vol0004/mdt0/data/hp150275/u10028/POT_KKJUS'
outdir = './data'
tprnfor = .true.
nstep = 50
disk_io = 'non'
/
&SYSTEM
ibrav = 0
ecutwfc = 50.0
ecutrho = 400
occupations = 'smearing'
smearing = 'mp'
degauss = 0.01
assume_isolated = 'esm'
esm_bc = 'bc1'
input_dft = 'BEEF-VDW'
nosym = .true.
nspin = 1
ntyp = 4
nat = 33
/
&ELECTRONS
electron_maxstep = 200
mixing_beta = 0.1
conv_thr = 1e-06
/
&IONS
ion_dynamics = 'bfgs'
upscale = 1.0
/
&CELL
/

K_POINTS {automatic}
8 6 1 0 0 0

ATOMIC_SPECIES
C 12.01 C.pbe-n-rrkjus_psl.1.0.0.UPF
Cu 63.54 Cu.pbe-dn-rrkjus_psl.1.0.0.UPF
In 114.8 In.pbe-dn-rrkjus_psl.1.0.0.UPF
Zr 91.22 Zr.pbe-spn-rrkjus_psl.1.0.0.UPF

CELL_PARAMETERS {angstrom}
6.47982000 0.00000000 0.00000000
0.00000000 9.16384000 0.00000000
0.00000000 0.00000000 26.87290000

ATOMIC_POSITIONS {angstrom}
Zr 0.00000000 0.00000000 -3.436506450000003 0 0 0
Zr 3.23991000 2.29096000 -1.1455917299999996 0 0 0
Zr 3.23991000 6.87288000 -1.1455917299999996 0 0 0
Zr 0.00000000 4.58192000 -3.436506450000003 0 0 0
Zr 0.01172847 4.63846089 1.21519254
Zr 3.05983580 6.87288000 3.28359965
Zr 3.33283062 2.29096000 3.20244349
Zr 0.01172847 9.10729911 1.21519254
In 0.00000000 6.87288000 -1.1455917299999996 0 0 0
In 3.23991000 0.00000000 -3.436506450000003 0 0 0
In 0.00000000 2.29096000 -1.1455917299999996 0 0 0
In 3.23991000 4.58192000 -3.436506450000003 0 0 0
In 5.86021961 2.29096000 4.50658533
In 3.22656157 4.56744113 1.12086866
In 0.03985089 6.87288000 3.64718999
In 3.22656157 0.01447887 1.12086866
Cu 1.61995500 0.00000000 -1.1455917299999996 0 0 0
Cu 4.85986500 4.58192000 -1.1455917299999996 0 0 0
Cu 4.85986500 0.00000000 -1.1455917299999996 0 0 0
Cu 1.61995500 4.58192000 -1.1455917299999996 0 0 0
Cu 4.85986500 6.87288000 -3.436506450000003 0 0 0
Cu 1.61995500 2.29096000 -3.436506450000003 0 0 0
Cu 1.61995500 6.87288000 -3.436506450000003 0 0 0
Cu 4.85986500 2.29096000 -3.436506450000003 0 0 0
Cu 1.45705233 4.31681011 3.66250754
Cu 4.79513160 9.06413742 3.46606664
Cu 4.79513160 4.68162258 3.46606664
Cu 1.45705233 0.26510989 3.66250754
Cu 5.05263965 2.29096000 1.09883288
Cu 1.59176778 6.87288000 1.07330363
Cu 1.46372654 2.29096000 1.18536362
Cu 4.85429235 6.87288000 1.17730175
C 1.49573685 2.29096000 4.10161073
