&CONTROL
calculation = 'relax'
prefix = 'scf'
pseudo_dir = '/vol0004/mdt0/data/hp150275/u10028/POT_KKJUS'
outdir = './data'
tprnfor = .true.
nstep = 50
disk_io = 'non'
/
&SYSTEM
ibrav = 0
ecutwfc = 50.0
ecutrho = 400
occupations = 'smearing'
smearing = 'mp'
degauss = 0.01
assume_isolated = 'esm'
esm_bc = 'bc1'
input_dft = 'BEEF-VDW'
nosym = .true.
nspin = 1
ntyp = 4
nat = 33
/
&ELECTRONS
electron_maxstep = 200
mixing_beta = 0.1
conv_thr = 1e-06
/
&IONS
ion_dynamics = 'bfgs'
upscale = 1.0
/
&CELL
/

K_POINTS {automatic}
9 6 2 0  0  0

ATOMIC_SPECIES
Al 26.98 Al.pbe-nl-rrkjus_psl.1.0.0.UPF
C 12.01 C.pbe-n-rrkjus_psl.1.0.0.UPF
Li 6.941 Li.pbe-sl-rrkjus_psl.1.0.0.UPF
Pd 106.4 Pd.pbe-n-rrkjus_psl.1.0.0.UPF

CELL_PARAMETERS {angstrom}
6.13337000 0.00000000 0.00000000
0.00000000 8.67390000 0.00000000
0.00000000 0.00000000 26.50540000

ATOMIC_POSITIONS {angstrom}
Li 0.00000000 6.50542500 -1.08433591 0 0 0
Li 3.06668500 0.00000000 -3.2527426900000016 0 0 0
Li 0.00000000 2.16847500 -1.08433591 0 0 0
Li 3.06668500 4.33695000 -3.2527426900000016 0 0 0
Li 1.53334250 0.00000000 -1.08433591 0 0 0
Li 1.53334250 4.33695000 -1.08433591 0 0 0
Li 4.60002750 6.50542500 -3.2527426900000016 0 0 0
Li 4.60002750 2.16847500 -3.2527426900000016 0 0 0
Li 6.12778863 2.16847500 3.84619859
Li 3.06030630 4.26460967 1.07983000
Li 0.02612816 6.50542500 3.35346321
Li 3.06030630 0.07234033 1.07956494
Li 1.67349000 4.20597411 3.35505353
Li 1.67342867 0.13106263 3.35505353
Li 4.66792391 2.16847500 1.19724892
Li 4.65669984 6.50533826 0.99315734
Al 0.00000000 0.00000000 -3.2527426900000016 0 0 0
Al 3.06668500 2.16847500 -1.08433591 0 0 0
Al 3.06668500 6.50542500 -1.08433591 0 0 0
Al 0.00000000 4.33695000 -3.2527426900000016 0 0 0
Al 0.04084824 4.39046796 1.04510792
Al 3.21548056 6.50542500 3.08920437
Al 3.59403215 2.16847500 3.71314149
Al 0.04078691 8.62029530 1.04510792
Pd 1.53334250 2.16847500 -3.2527426900000016 0 0 0
Pd 1.53334250 6.50542500 -3.2527426900000016 0 0 0
Pd 4.60002750 4.33695000 -1.08433591 0 0 0
Pd 4.60002750 0.00000000 -1.08433591 0 0 0
Pd 1.56149467 6.50542500 1.12647950
Pd 1.44465397 2.16847500 1.08804667
Pd 4.64995313 8.60615684 3.07886726
Pd 4.64989180 4.40477990 3.07886726
C 1.82118155 2.16856174 3.10961353
