&CONTROL
calculation = 'relax'
prefix = 'scf'
pseudo_dir = '/vol0004/mdt0/data/hp150275/u10028/POT_KKJUS'
outdir = './data'
tprnfor = .true.
nstep = 50
disk_io = 'non'
/
&SYSTEM
ibrav = 0
ecutwfc = 50.0
ecutrho = 400
occupations = 'smearing'
smearing = 'mp'
degauss = 0.01
assume_isolated = 'esm'
esm_bc = 'bc1'
input_dft = 'BEEF-VDW'
nosym = .true.
nspin = 1
ntyp = 3
nat = 33
/
&ELECTRONS
electron_maxstep = 200
mixing_beta = 0.1
conv_thr = 1e-06
/
&IONS
ion_dynamics = 'bfgs'
upscale = 1.0
/
&CELL
/

K_POINTS {automatic}
7 7 2 0  0  0

ATOMIC_SPECIES
C 12.01 C.pbe-n-rrkjus_psl.1.0.0.UPF
Ca 40.07 Ca.pbe-spn-rrkjus_psl.1.0.0.UPF
Pb 207.2 Pb.pbe-dn-rrkjus_psl.1.0.0.UPF

CELL_PARAMETERS {angstrom}
10.21910000 0.00000000 0.00000000
0.00000000 10.21910000 0.00000000
0.00000000 0.00000000 27.66430000

ATOMIC_POSITIONS {angstrom}
Ca 0.00275916 2.58543230 1.35167770
Ca 2.55651225 10.21899781 1.26259865
Ca 2.55416185 2.46157681 4.13359971
Ca 0.00000000 2.55477500 -3.832058840000002 0 0 0
Ca 2.55477500 0.00000000 -3.832058840000002 0 0 0
Ca 2.55477500 2.55477500 -1.2772607300000018 0 0 0
Ca 0.00265697 7.63387208 1.35223098
Ca 2.55354871 5.10985657 1.42083845
Ca 2.55365090 7.75752319 4.13442964
Ca 0.00000000 7.66432500 -3.832058840000002 0 0 0
Ca 2.55477500 5.10955000 -3.832058840000002 0 0 0
Ca 2.55477500 7.66432500 -1.2772607300000018 0 0 0
Ca 5.10781275 2.58635202 1.35195434
Ca 7.66606225 0.00000000 1.48695613
Ca 7.66452938 2.97324715 4.16043408
Ca 5.10955000 2.55477500 -3.832058840000002 0 0 0
Ca 7.66432500 0.00000000 -3.832058840000002 0 0 0
Ca 7.66432500 2.55477500 -1.2772607300000018 0 0 0
Ca 5.10781275 7.63264579 1.35167770
Ca 7.66432500 5.10985657 1.26481180
Ca 7.66452938 7.24585285 4.16071072
Ca 5.10955000 7.66432500 -3.832058840000002 0 0 0
Ca 7.66432500 5.10955000 -3.832058840000002 0 0 0
Ca 7.66432500 7.66432500 -1.2772607300000018 0 0 0
Pb 0.13601622 10.21879343 3.78973246
Pb 0.00000000 0.00000000 -1.2772607300000018 0 0 0
Pb 0.01880314 5.10965219 3.59663564
Pb 0.00000000 5.10955000 -1.2772607300000018 0 0 0
Pb 4.99151939 0.00020438 3.78834924
Pb 5.10955000 0.00000000 -1.2772607300000018 0 0 0
Pb 5.09003152 5.10944781 3.59718893
Pb 5.10955000 5.10955000 -1.2772607300000018 0 0 0
C 2.56908174 10.21889562 3.70203663
