&CONTROL
calculation = 'relax'
prefix = 'scf'
pseudo_dir = '/vol0004/mdt0/data/hp150275/u10028/POT_KKJUS'
outdir = './data'
tprnfor = .true.
nstep = 50
disk_io = 'non'
/
&SYSTEM
ibrav = 0
ecutwfc = 50.0
ecutrho = 400
occupations = 'smearing'
smearing = 'mp'
degauss = 0.01
assume_isolated = 'esm'
esm_bc = 'bc1'
input_dft = 'BEEF-VDW'
nosym = .true.
nspin = 1
ntyp = 5
nat = 34
/
&ELECTRONS
electron_maxstep = 200
mixing_beta = 0.1
conv_thr = 1e-06
/
&IONS
ion_dynamics = 'bfgs'
upscale = 1.0
/
&CELL
/

K_POINTS {automatic}
9 6 2 0  0  0

ATOMIC_SPECIES
C 12.01 C.pbe-n-rrkjus_psl.1.0.0.UPF
Ga 69.72 Ga.pbe-dnl-rrkjus_psl.1.0.0.UPF
Li 6.941 Li.pbe-sl-rrkjus_psl.1.0.0.UPF
Mg 24.30 Mg.pbe-spnl-rrkjus_psl.1.0.0.UPF
O 15.99 O.pbe-n-rrkjus_psl.1.0.0.UPF

CELL_PARAMETERS {angstrom}
6.69031000 0.00000000 0.00000000
0.00000000 9.46152000 0.00000000
0.00000000 0.00000000 27.09610000

ATOMIC_POSITIONS {angstrom}
Li 0.00000000 0.00000000 -3.547963329999998 0 0 0
Li 3.34515500 2.36538000 -1.1827447599999985 0 0 0
Li 3.34515500 7.09614000 -1.1827447599999985 0 0 0
Li 0.00000000 4.73076000 -3.547963329999998 0 0 0
Li 0.04268418 4.73076000 1.34125695
Li 3.38128267 7.06879621 3.76310637
Li 3.38121577 2.39281841 3.76283541
Li 6.65210833 0.00000000 1.28245841
Mg 1.67257750 0.00000000 -1.1827447599999985 0 0 0
Mg 5.01773250 4.73076000 -1.1827447599999985 0 0 0
Mg 5.01773250 0.00000000 -1.1827447599999985 0 0 0
Mg 1.67257750 4.73076000 -1.1827447599999985 0 0 0
Mg 5.01773250 7.09614000 -3.547963329999998 0 0 0
Mg 1.67257750 2.36538000 -3.547963329999998 0 0 0
Mg 1.67257750 7.09614000 -3.547963329999998 0 0 0
Mg 5.01773250 2.36538000 -3.547963329999998 0 0 0
Mg 1.61457251 4.73085462 3.82271779
Mg 5.08965333 0.00009462 3.74278429
Mg 5.07741007 4.73076000 3.75010024
Mg 1.58219141 0.00000000 3.71541723
Mg 5.01826772 2.39442687 1.24614964
Mg 1.68160942 7.10531767 1.26674267
Mg 1.68160942 2.35620233 1.26674267
Mg 5.01826772 7.06709313 1.24614964
Ga 0.00000000 7.09614000 -1.1827447599999985 0 0 0
Ga 3.34515500 0.00000000 -3.547963329999998 0 0 0
Ga 0.00000000 2.36538000 -1.1827447599999985 0 0 0
Ga 3.34515500 4.73076000 -3.547963329999998 0 0 0
Ga 6.66890101 2.38997995 3.58914941
Ga 3.31638667 4.73076000 1.29600646
Ga 6.66890101 7.07163466 3.58914941
Ga 3.37338811 0.00000000 1.29519358
C 1.68709547 0.00000000 5.96818699
O 1.77547447 0.00000000 7.11164241
