&CONTROL
calculation = 'relax'
prefix = 'scf'
pseudo_dir = '/vol0004/mdt0/data/hp150275/u10028/POT_KKJUS'
outdir = './data'
tprnfor = .true.
nstep = 50
disk_io = 'non'
/
&SYSTEM
ibrav = 0
ecutwfc = 50.0
ecutrho = 400
occupations = 'smearing'
smearing = 'mp'
degauss = 0.01
assume_isolated = 'esm'
esm_bc = 'bc1'
input_dft = 'BEEF-VDW'
nosym = .true.
nspin = 1
ntyp = 3
nat = 33
/
&ELECTRONS
electron_maxstep = 200
mixing_beta = 0.1
conv_thr = 1e-06
/
&IONS
ion_dynamics = 'bfgs'
upscale = 1.0
/
&CELL
/

K_POINTS {automatic}
8 6 1 0 0 0

ATOMIC_SPECIES
C 12.01 C.pbe-n-rrkjus_psl.1.0.0.UPF
In 114.8 In.pbe-dn-rrkjus_psl.1.0.0.UPF
Sb 121.7 Sb.pbe-n-rrkjus_psl.1.0.0.UPF

CELL_PARAMETERS {angstrom}
7.67805000 0.00000000 0.00000000
0.00000000 10.85840000 0.00000000
0.00000000 0.00000000 28.14380000

ATOMIC_POSITIONS {angstrom}
In 0.00000000 0.00000000 -4.071844979999998 0 0 0
In 0.00000000 2.71460000 -1.3573754699999974 0 0 0
In 0.20976433 10.40234720 1.43477092
In 7.41277337 1.95407766 5.38419038
In 0.00000000 5.42920000 -4.071844979999998 0 0 0
In 0.00000000 8.14380000 -1.3573754699999974 0 0 0
In 7.44694069 5.08053678 1.47501656
In 0.17413817 7.17067019 4.22916883
In 3.83902500 0.00000000 -4.071844979999998 0 0 0
In 3.83902500 2.71460000 -1.3573754699999974 0 0 0
In 3.62941424 10.40234720 1.43477092
In 4.10414807 1.95472917 5.38419038
In 3.83902500 5.42920000 -4.071844979999998 0 0 0
In 3.83902500 8.14380000 -1.3573754699999974 0 0 0
In 4.07021109 5.08021102 1.47473512
In 3.66488683 7.17045302 4.22916883
Sb 1.91951250 2.71460000 -4.071844979999998 0 0 0
Sb 1.91951250 0.00000000 -1.3573754699999974 0 0 0
Sb 1.91958928 2.87660733 1.38354921
Sb 1.91958928 0.05385766 4.00570705
Sb 1.91951250 8.14380000 -4.071844979999998 0 0 0
Sb 1.91951250 5.42920000 -1.3573754699999974 0 0 0
Sb 1.91951250 7.34516468 1.25662067
Sb 1.91920538 3.98459846 4.46501387
Sb 5.75853750 2.71460000 -4.071844979999998 0 0 0
Sb 5.75853750 0.00000000 -1.3573754699999974 0 0 0
Sb 5.75861428 1.84093314 0.99657196
Sb 5.75838394 9.43920712 4.12081520
Sb 5.75853750 8.14380000 -4.071844979999998 0 0 0
Sb 5.75853750 5.42920000 -1.3573754699999974 0 0 0
Sb 5.75846072 8.16204211 1.53214847
Sb 5.75869106 4.68311934 3.97671894
C 1.91943572 2.11456482 3.40821418
