&CONTROL
calculation = 'relax'
prefix = 'scf'
pseudo_dir = '/vol0403/data/hp230205/u10028/POT_HYBRID_KKJUS_GBRV'
outdir = './data'
tprnfor = .true.
nstep = 50
disk_io = 'non'
/
&SYSTEM
ibrav = 0
ecutwfc = 50.0
ecutrho = 400
occupations = 'smearing'
smearing = 'mp'
degauss = 0.01
assume_isolated = 'esm'
esm_bc = 'bc1'
input_dft = 'BEEF-VDW'
nosym = .true.
nspin = 1
ntyp = 6
nat = 18
/
&ELECTRONS
electron_maxstep = 200
mixing_beta = 0.1
conv_thr = 1e-06
/
&IONS
ion_dynamics = 'bfgs'
upscale = 1.0
/
&CELL
/

K_POINTS {automatic}
8 11 2 0  0  0

ATOMIC_SPECIES
C 12.01 C.pbe-n-rrkjus_psl.1.0.0.UPF
Ge 72.64 Ge.pbe-dn-rrkjus_psl.1.0.0.UPF
In 114.8 In.pbe-dn-rrkjus_psl.1.0.0.UPF
Li 6.941 Li.pbe-sl-rrkjus_psl.1.0.0.UPF
Mg 24.30 Mg.pbe-spnl-rrkjus_psl.1.0.0.UPF
O 15.99 O.pbe-n-rrkjus_psl.1.0.0.UPF


CELL_PARAMETERS {angstrom}
8.41850000 0.00000000 0.00000000
0.00000000 6.06838000 0.00000000
0.00000000 0.00000000 24.54770000

ATOMIC_POSITIONS {angstrom}
Li 0.00000000 3.17121402 2.49723752
Li 0.00000000 5.94792266 -0.7580329799999994 0 0 0
Li 4.20925000 3.09893961 2.61433005
Li 4.20925000 5.94792266 -0.7580329799999994 0 0 0
Mg 2.12457684 1.64883953 0.87807123
Mg 2.10462500 4.37062933 -2.2738534500000007 0 0 0
Mg 6.29392315 1.64865748 0.87807123
Mg 6.31387500 4.37062933 -2.2738534500000007 0 0 0
In 2.17710829 4.68855176 1.19964610
In 2.10462500 1.33643933 -2.2738534500000007 0 0 0
In 6.24164427 4.68873381 1.19964610
In 6.31387500 1.33643933 -2.2738534500000007 0 0 0
Ge 8.41841581 0.15450095 2.16952573
Ge 0.00000000 2.91373266 -0.7580329799999994 0 0 0
Ge 4.20916581 0.22185997 2.31632097
Ge 4.20925000 2.91373266 -0.7580329799999994 0 0 0
C 8.41841581 3.06750541 4.60711234
O 0.00000000 3.02005067 5.74416180
