&CONTROL
calculation = 'relax'
prefix = 'scf'
pseudo_dir = '/vol0403/data/hp230205/u10028/POT_HYBRID_KKJUS_GBRV'
outdir = './data'
tprnfor = .true.
nstep = 50
disk_io = 'non'
/
&SYSTEM
ibrav = 0
ecutwfc = 50.0
ecutrho = 400
occupations = 'smearing'
smearing = 'mp'
degauss = 0.01
assume_isolated = 'esm'
esm_bc = 'bc1'
input_dft = 'BEEF-VDW'
nosym = .true.
nspin = 1
ntyp = 5
nat = 17
/
&ELECTRONS
electron_maxstep = 200
mixing_beta = 0.1
conv_thr = 1e-06
/
&IONS
ion_dynamics = 'bfgs'
upscale = 1.0
/
&CELL
/

K_POINTS {automatic}
8 11 2 0  0  0

ATOMIC_SPECIES
C 12.01 C.pbe-n-rrkjus_psl.1.0.0.UPF
Ge 72.64 Ge.pbe-dn-rrkjus_psl.1.0.0.UPF
Li 6.941 Li.pbe-sl-rrkjus_psl.1.0.0.UPF
Sn 118.7 Sn.pbe-dn-rrkjus_psl.1.0.0.UPF
Y 88.90 Y.pbe-spn-rrkjus_psl.1.0.0.UPF


CELL_PARAMETERS {angstrom}
8.60818000 0.00000000 0.00000000
0.00000000 6.35836000 0.00000000
0.00000000 0.00000000 24.74450000

ATOMIC_POSITIONS {angstrom}
Li 8.53664602 3.54720188 2.55016817
Li 0.00000000 6.03828016 -0.7908342199999971 0 0 0
Li 4.37562398 3.54726546 2.55016817
Li 4.30409000 6.03828016 -0.7908342199999971 0 0 0
Y 2.15204500 1.69749137 0.75470725
Y 2.15204500 4.28865024 -2.3722552199999996 0 0 0
Y 6.45613500 1.29106500 0.91554650
Y 6.45613500 4.28865024 -2.3722552199999996 0 0 0
Sn 2.15204500 4.82713974 1.06673540
Sn 2.15204500 1.10947024 -2.3722552199999996 0 0 0
Sn 6.45613500 4.41537235 0.78514299
Sn 6.45613500 1.10947024 -2.3722552199999996 0 0 0
Ge 0.26186084 0.16690695 2.68700525
Ge 0.00000000 2.85910016 -0.7908342199999971 0 0 0
Ge 4.04222916 0.16690695 2.68700525
Ge 4.30409000 2.85910016 -0.7908342199999971 0 0 0
C 2.15204500 0.39987726 2.75826942
