&CONTROL
calculation = 'relax'
prefix = 'scf'
pseudo_dir = '/vol0004/mdt0/data/hp150275/u10028/POT_HYBRID_KKJUS_GBRV'
outdir = './data'
tprnfor = .true.
nstep = 50
disk_io = 'non'
/
&SYSTEM
ibrav = 0
ecutwfc = 50.0
ecutrho = 400
occupations = 'smearing'
smearing = 'mp'
degauss = 0.01
assume_isolated = 'esm'
esm_bc = 'bc1'
input_dft = 'BEEF-VDW'
nosym = .true.
nspin = 2
ntyp = 4
nat = 33
starting_magnetization(1) = 0.0
starting_magnetization(2) = 0.001
starting_magnetization(3) = 0.0
starting_magnetization(4) = 0.0
/
&ELECTRONS
electron_maxstep = 300
mixing_beta = 0.1
conv_thr = 1e-06
/
&IONS
ion_dynamics = 'bfgs'
upscale = 1.0
/
&CELL
/

K_POINTS {automatic}
9 6 2 0  0  0

ATOMIC_SPECIES
C 12.01 C.pbe-n-rrkjus_psl.1.0.0.UPF
Ni 58.69 ni_pbe_v1.4.uspp.F.UPF
Sn 118.7 Sn.pbe-dn-rrkjus_psl.1.0.0.UPF
Zr 91.22 Zr.pbe-spn-rrkjus_psl.1.0.0.UPF

CELL_PARAMETERS {angstrom}
6.34024000 0.00000000 0.00000000
0.00000000 8.96645000 0.00000000
0.00000000 0.00000000 26.72480000

ATOMIC_POSITIONS {angstrom}
Zr 0.00000000 0.00000000 -3.362514339999997 0 0 0
Zr 3.17012000 2.24161250 -1.1208381099999976 0 0 0
Zr 3.17012000 6.72483750 -1.1208381099999976 0 0 0
Zr 0.00000000 4.48322500 -3.362514339999997 0 0 0
Zr 0.00000000 4.48331466 1.10694122
Zr 3.17012000 6.70681494 3.33525504
Zr 3.17012000 2.25972473 3.33552229
Zr 0.00000000 8.96636034 1.20769371
Ni 1.58506000 0.00000000 -1.1208381099999976 0 0 0
Ni 4.75518000 4.48322500 -1.1208381099999976 0 0 0
Ni 4.75518000 0.00000000 -1.1208381099999976 0 0 0
Ni 1.58506000 4.48322500 -1.1208381099999976 0 0 0
Ni 4.75518000 6.72483750 -3.362514339999997 0 0 0
Ni 1.58506000 2.24161250 -3.362514339999997 0 0 0
Ni 1.58506000 6.72483750 -3.362514339999997 0 0 0
Ni 4.75518000 2.24161250 -3.362514339999997 0 0 0
Ni 1.74109331 4.48322500 3.18826864
Ni 4.53904122 0.00017933 3.39271336
Ni 4.59914669 4.48322500 3.18826864
Ni 1.80119878 0.00017933 3.39271336
Ni 4.80900864 2.26896017 1.18471038
Ni 1.53142157 6.69740016 1.18471038
Ni 1.53123136 2.26896017 1.18471038
Ni 4.80881843 6.69740016 1.18471038
Sn 0.00000000 6.72483750 -1.1208381099999976 0 0 0
Sn 3.17012000 0.00000000 -3.362514339999997 0 0 0
Sn 0.00000000 2.24161250 -1.1208381099999976 0 0 0
Sn 3.17012000 4.48322500 -3.362514339999997 0 0 0
Sn 0.00000000 2.42506607 3.66878054
Sn 3.17012000 4.48304567 1.01794763
Sn 0.00000000 6.54138393 3.66878054
Sn 3.17012000 0.00008966 1.08983734
C 0.00000000 0.00000000 3.57470925
