&CONTROL
calculation = 'relax'
prefix = 'scf'
pseudo_dir = '/vol0004/mdt0/data/hp150275/u10028/POT_HYBRID_KKJUS_GBRV'
outdir = './data'
tprnfor = .true.
nstep = 50
disk_io = 'non'
/
&SYSTEM
ibrav = 0
ecutwfc = 50.0
ecutrho = 400
occupations = 'smearing'
smearing = 'mp'
degauss = 0.01
assume_isolated = 'esm'
esm_bc = 'bc1'
input_dft = 'BEEF-VDW'
nosym = .true.
nspin = 2
ntyp = 5
nat = 34
starting_magnetization(1) = 0.0
starting_magnetization(2) = 0.1
starting_magnetization(3) = 0.0
starting_magnetization(4) = 0.0
starting_magnetization(5) = 0.0
/
&ELECTRONS
electron_maxstep = 200
mixing_beta = 0.1
conv_thr = 1e-06
/
&IONS
ion_dynamics = 'bfgs'
upscale = 1.0
/
&CELL
/

K_POINTS {automatic}
9 6 2 0  0  0

ATOMIC_SPECIES
C 12.01 C.pbe-n-rrkjus_psl.1.0.0.UPF
Fe 55.84 fe_pbe_v1.5.uspp.F.UPF
O 15.99 O.pbe-n-rrkjus_psl.1.0.0.UPF
Si 28.08 Si.pbe-nl-rrkjus_psl.1.0.0.UPF
V 50.94 V.pbe-spnl-rrkjus_psl.1.0.0.UPF

CELL_PARAMETERS {angstrom}
5.64262000 0.00000000 0.00000000
0.00000000 7.97986000 0.00000000
0.00000000 0.00000000 25.98490000

ATOMIC_POSITIONS {angstrom}
V 0.00000000 0.00000000 22.99247892
V 2.82131000 1.99496500 24.98733969
V 2.82131000 5.98489500 24.98733969
V 0.00000000 3.98993000 22.99247892
V 5.64256357 3.99655328 1.05420739
V 2.82131000 5.98497480 3.00827187
V 2.82131000 1.99488520 3.03997345
V 5.64256357 7.97323672 1.05420739
Fe 1.41065500 0.00000000 24.98733969
Fe 4.23196500 3.98993000 24.98733969
Fe 4.23196500 0.00000000 24.98733969
Fe 1.41065500 3.98993000 24.98733969
Fe 4.23196500 5.98489500 22.99247892
Fe 1.41065500 1.99496500 22.99247892
Fe 1.41065500 5.98489500 22.99247892
Fe 4.23196500 1.99496500 22.99247892
Fe 1.37409082 3.99822905 2.90459212
Fe 4.26852918 7.97156095 2.90459212
Fe 4.26852918 3.99822905 2.90459212
Fe 1.37409082 7.97156095 2.90459212
Fe 4.22920012 1.99504480 0.95364583
Fe 1.42859853 5.98481520 0.98768605
Fe 1.41341988 1.99504480 0.95364583
Fe 4.21402147 5.98481520 0.98742620
Si 0.00000000 5.98489500 24.98733969
Si 2.82131000 0.00000000 22.99247892
Si 0.00000000 1.99496500 24.98733969
Si 2.82131000 3.98993000 22.99247892
Si 0.00000000 1.99496500 2.99424003
Si 2.82131000 3.97835920 1.01704899
Si 0.00000000 5.98489500 3.05270605
Si 2.82131000 0.01157080 1.01704899
C 2.82131000 1.99496500 5.03873196
O 2.82131000 1.99496500 6.19350092
