&CONTROL
calculation = 'relax'
prefix = 'scf'
pseudo_dir = '/vol0403/data/hp230205/u10028/POT_HYBRID_KKJUS_GBRV'
outdir = './data'
tprnfor = .true.
nstep = 70
disk_io = 'non'
/
&SYSTEM
ibrav = 0
ecutwfc = 50.0
ecutrho = 400
occupations = 'smearing'
smearing = 'mp'
degauss = 0.01
assume_isolated = 'esm'
esm_bc = 'bc1'
input_dft = 'BEEF-VDW'
nosym = .true.
nspin = 1
ntyp = 5
nat = 33
/
&ELECTRONS
electron_maxstep = 200
mixing_beta = 0.1
conv_thr = 1e-06
/
&IONS
ion_dynamics = 'bfgs'
upscale = 1.0
/
&CELL
/

K_POINTS {automatic}
9 6 2 0  0  0

ATOMIC_SPECIES
Al 26.98 Al.pbe-nl-rrkjus_psl.1.0.0.UPF
C 12.01 C.pbe-n-rrkjus_psl.1.0.0.UPF
Li 6.941 Li.pbe-sl-rrkjus_psl.1.0.0.UPF
Pd 106.4 Pd.pbe-n-rrkjus_psl.1.0.0.UPF
Sn 118.7 Sn.pbe-dn-rrkjus_psl.1.0.0.UPF


CELL_PARAMETERS {angstrom}
6.48942000 0.00000000 0.00000000
-0.00000000 9.17742000 0.00000000
0.00000000 0.00000000 26.88310000

ATOMIC_POSITIONS {angstrom}
Li 4.86706500 0.00000000 -1.1471018799999975 0 0 0
Li 4.86706500 4.58871000 -1.1471018799999975 0 0 0
Li 1.62235500 2.29435500 -3.4415744599999982 0 0 0
Li 1.62235500 6.88306500 -3.4415744599999982 0 0 0
Li 4.75083949 4.40525337 3.81498072
Li 4.75064481 0.18308953 3.81498072
Li 1.56940133 6.88315677 1.15570447
Li 1.31462670 2.29435500 1.33178877
Al 0.00000000 0.00000000 -3.4415744599999982 0 0 0
Al 0.00000000 4.58871000 -3.4415744599999982 0 0 0
Al 3.24471000 6.88306500 -1.1471018799999975 0 0 0
Al 3.24471000 2.29435500 -1.1471018799999975 0 0 0
Al 6.35093578 4.66121162 1.24253688
Al 6.35093578 9.10501016 1.24280571
Al 2.93996684 2.29435500 3.37329139
Al 3.11498649 6.88297323 3.39345371
Sn 0.00000000 2.29435500 -1.1471018799999975 0 0 0
Sn 0.00000000 6.88306500 -1.1471018799999975 0 0 0
Sn 3.24471000 4.58871000 -3.4415744599999982 0 0 0
Sn 3.24471000 0.00000000 -3.4415744599999982 0 0 0
Sn 6.30388748 6.88297323 3.55717179
Sn 0.27138754 2.29435500 4.48732705
Sn 3.25593670 0.04386807 1.16108109
Sn 3.25606649 4.54493371 1.16108109
Pd 1.62235500 0.00000000 -1.1471018799999975 0 0 0
Pd 1.62235500 4.58871000 -1.1471018799999975 0 0 0
Pd 4.86706500 2.29435500 -3.4415744599999982 0 0 0
Pd 4.86706500 6.88306500 -3.4415744599999982 0 0 0
Pd 1.52112005 4.61082758 3.20822915
Pd 1.52112005 9.15521064 3.20822915
Pd 4.80463678 6.88315677 0.95596304
Pd 4.97699577 2.29435500 1.21054599
C 4.81806988 2.29417145 3.60206657
