&CONTROL
calculation = 'relax'
prefix = 'scf'
pseudo_dir = '/vol0403/data/hp230205/u10028/POT_HYBRID_KKJUS_GBRV'
outdir = './data'
tprnfor = .true.
nstep = 50
disk_io = 'non'
/
&SYSTEM
ibrav = 0
ecutwfc = 50.0
ecutrho = 400
occupations = 'smearing'
smearing = 'mp'
degauss = 0.01
assume_isolated = 'esm'
esm_bc = 'bc1'
input_dft = 'BEEF-VDW'
nosym = .true.
nspin = 1
ntyp = 5
nat = 33
/
&ELECTRONS
electron_maxstep = 200
mixing_beta = 0.1
conv_thr = 1e-06
/
&IONS
ion_dynamics = 'bfgs'
upscale = 1.0
/
&CELL
/

K_POINTS {automatic}
6 6 1 0 0 0

ATOMIC_SPECIES
C 12.01 C.pbe-n-rrkjus_psl.1.0.0.UPF
Ge 72.64 Ge.pbe-dn-rrkjus_psl.1.0.0.UPF
Li 6.941 Li.pbe-sl-rrkjus_psl.1.0.0.UPF
Pb 207.2 Pb.pbe-dn-rrkjus_psl.1.0.0.UPF
Pd 106.4 Pd.pbe-n-rrkjus_psl.1.0.0.UPF


CELL_PARAMETERS {angstrom}
6.74945000 0.00000000 0.00000000
0.00000000 9.54516000 0.00000000
0.00000000 0.00000000 27.15890000

ATOMIC_POSITIONS {angstrom}
Li 1.68736250 0.00000000 -1.1930904799999986 0 0 0
Li 1.68736250 4.77258000 -1.1930904799999986 0 0 0
Li 5.06208750 2.38629000 -3.579543019999999 0 0 0
Li 5.06208750 7.15887000 -3.579543019999999 0 0 0
Li 1.34989000 4.57079532 3.53418766
Li 1.34982251 0.20207104 3.53445925
Li 5.12917703 7.15887000 1.35930294
Li 5.41440879 2.38629000 1.52415747
Ge 0.00000000 0.00000000 -3.579543019999999 0 0 0
Ge 0.00000000 4.77258000 -3.579543019999999 0 0 0
Ge 3.37472500 7.15887000 -1.1930904799999986 0 0 0
Ge 3.37472500 2.38629000 -1.1930904799999986 0 0 0
Ge 6.69066229 4.81524687 1.15642596
Ge 6.69079728 9.50239768 1.15642596
Ge 3.67062089 2.38638545 3.64961298
Ge 3.15280308 7.15877455 3.41523167
Pd 5.06208750 0.00000000 -1.1930904799999986 0 0 0
Pd 5.06208750 4.77258000 -1.1930904799999986 0 0 0
Pd 1.68736250 2.38629000 -3.579543019999999 0 0 0
Pd 1.68736250 7.15887000 -3.579543019999999 0 0 0
Pd 5.20902303 4.51820149 3.26938838
Pd 5.20909052 0.25466487 3.26938838
Pd 1.02760376 7.15887000 1.95109538
Pd 1.41589962 2.38629000 1.45137162
Pb 0.00000000 2.38629000 -1.1930904799999986 0 0 0
Pb 0.00000000 7.15887000 -1.1930904799999986 0 0 0
Pb 3.37472500 4.77258000 -3.579543019999999 0 0 0
Pb 3.37472500 0.00000000 -3.579543019999999 0 0 0
Pb 6.00120597 7.15896545 4.32695595
Pb 6.60561922 2.38638545 4.88670088
Pb 3.19836187 9.42212289 1.21807666
Pb 3.19822688 4.89542621 1.21807666
C 1.79285640 2.38638545 3.55102618
