&CONTROL
calculation = 'relax'
prefix = 'scf'
pseudo_dir = '/vol0004/mdt0/data/hp150275/u10028/POT_KKJUS'
outdir = './data'
tprnfor = .true.
nstep = 50
disk_io = 'non'
/
&SYSTEM
ibrav = 0
ecutwfc = 50.0
ecutrho = 400
occupations = 'smearing'
smearing = 'mp'
degauss = 0.01
assume_isolated = 'esm'
esm_bc = 'bc1'
input_dft = 'BEEF-VDW'
nosym = .true.
nspin = 1
ntyp = 4
nat = 33
/
&ELECTRONS
electron_maxstep = 200
mixing_beta = 0.1
conv_thr = 1e-06
/
&IONS
ion_dynamics = 'bfgs'
upscale = 1.0
/
&CELL
/

K_POINTS {automatic}
8 6 1 0 0 0

ATOMIC_SPECIES
C 12.01 C.pbe-n-rrkjus_psl.1.0.0.UPF
Ga 69.72 Ga.pbe-dnl-rrkjus_psl.1.0.0.UPF
Ni 58.69 Ni.pbe-spn-rrkjus_psl.1.0.0.UPF
Zr 91.22 Zr.pbe-spn-rrkjus_psl.1.0.0.UPF

CELL_PARAMETERS {angstrom}
6.14888000 0.00000000 0.00000000
0.00000000 8.69583000 0.00000000
0.00000000 0.00000000 26.52190000

ATOMIC_POSITIONS {angstrom}
Zr 0.00000000 0.00000000 -3.2608676099999983 0 0 0
Zr 3.07444000 2.17395750 -1.086867459999997 0 0 0
Zr 3.07444000 6.52187250 -1.086867459999997 0 0 0
Zr 0.00000000 4.34791500 -3.2608676099999983 0 0 0
Zr 0.00000000 4.34782804 1.03859760
Zr 3.07444000 6.53352491 3.38923360
Zr 3.07444000 2.16230509 3.38896838
Zr 0.00000000 0.00000000 1.09747622
Ga 0.00000000 6.52187250 -1.086867459999997 0 0 0
Ga 3.07444000 0.00000000 -3.2608676099999983 0 0 0
Ga 0.00000000 2.17395750 -1.086867459999997 0 0 0
Ga 3.07444000 4.34791500 -3.2608676099999983 0 0 0
Ga 0.00000000 2.18308812 3.21578037
Ga 3.07444000 4.34808892 1.15927225
Ga 0.00000000 6.51274188 3.21578037
Ga 3.07444000 8.69565608 1.15635484
Ni 1.53722000 0.00000000 -1.086867459999997 0 0 0
Ni 4.61166000 4.34791500 -1.086867459999997 0 0 0
Ni 4.61166000 0.00000000 -1.086867459999997 0 0 0
Ni 1.53722000 4.34791500 -1.086867459999997 0 0 0
Ni 4.61166000 6.52187250 -3.2608676099999983 0 0 0
Ni 1.53722000 2.17395750 -3.2608676099999983 0 0 0
Ni 1.53722000 6.52187250 -3.2608676099999983 0 0 0
Ni 4.61166000 2.17395750 -3.2608676099999983 0 0 0
Ni 1.37987016 4.34791500 3.14974084
Ni 4.90016545 0.00000000 3.34732900
Ni 4.76900984 4.34791500 3.14974084
Ni 1.24883753 0.00000000 3.34706378
Ni 4.48548498 2.18308812 1.14415477
Ni 1.66339502 6.51274188 1.14441998
Ni 1.66345651 2.18308812 1.14415477
Ni 4.48554647 6.51265492 1.14441998
C 3.07450149 0.00000000 3.77539246
