&CONTROL
calculation = 'relax'
prefix = 'scf'
pseudo_dir = '/vol0004/mdt0/data/hp150275/u10028/POT_KKJUS'
outdir = './data'
tprnfor = .true.
nstep = 50
disk_io = 'non'
/
&SYSTEM
ibrav = 0
ecutwfc = 50.0
ecutrho = 400
occupations = 'smearing'
smearing = 'mp'
degauss = 0.01
assume_isolated = 'esm'
esm_bc = 'bc1'
input_dft = 'BEEF-VDW'
nosym = .true.
nspin = 1
ntyp = 4
nat = 18
/
&ELECTRONS
electron_maxstep = 200
mixing_beta = 0.1
conv_thr = 1e-06
/
&IONS
ion_dynamics = 'bfgs'
upscale = 1.0
/
&CELL
/

K_POINTS {automatic}
6 8 1 0 0 0

ATOMIC_SPECIES
Au 196.9 Au.pbe-n-rrkjus_psl.1.0.0.UPF
C 12.01 C.pbe-n-rrkjus_psl.1.0.0.UPF
O 15.99 O.pbe-n-rrkjus_psl.1.0.0.UPF
Ti 47.86 Ti.pbe-spn-rrkjus_psl.1.0.0.UPF

CELL_PARAMETERS {angstrom}
8.18271000 0.00000000 0.00000000
0.00000000 5.78605000 0.00000000
0.00000000 0.00000000 24.33950000

ATOMIC_POSITIONS {angstrom}
Ti 0.00000000 2.89302500 -2.1698664200000017 0 0 0
Ti 2.04567750 4.33953750 -0.7233699400000013 0 0 0
Ti 2.04567750 1.44651250 -0.7233699400000013 0 0 0
Ti 8.15472513 0.19776719 0.56735375
Ti 2.04567750 1.56692020 2.07542917
Ti 2.04567750 4.60951459 2.17960223
Ti 4.09135500 2.89302500 -2.1698664200000017 0 0 0
Ti 6.13703250 4.33953750 -0.7233699400000013 0 0 0
Ti 6.13703250 1.44651250 -0.7233699400000013 0 0 0
Ti 4.11950352 0.19770933 0.56711035
Ti 6.13686885 1.63646852 1.98634660
Ti 6.13703250 4.60106696 1.88752822
Au 0.00000000 0.00000000 -2.1698664200000017 0 0 0
Au 0.06758918 3.07991442 0.81415628
Au 4.09135500 0.00000000 -2.1698664200000017 0 0 0
Au 4.02368399 3.07985655 0.81269591
C 2.04559567 0.34808877 3.58715551
O 2.04575933 5.03403708 4.20756937
