&CONTROL
calculation = 'relax'
prefix = 'scf'
pseudo_dir = '/vol0403/data/hp230205/u10028/POT_HYBRID_KKJUS_GBRV'
outdir = './data'
tprnfor = .true.
nstep = 50
disk_io = 'non'
/
&SYSTEM
ibrav = 0
ecutwfc = 50.0
ecutrho = 400
occupations = 'smearing'
smearing = 'mp'
degauss = 0.01
assume_isolated = 'esm'
esm_bc = 'bc1'
input_dft = 'BEEF-VDW'
nosym = .true.
nspin = 1
ntyp = 6
nat = 18
/
&ELECTRONS
electron_maxstep = 200
mixing_beta = 0.1
conv_thr = 1e-06
/
&IONS
ion_dynamics = 'bfgs'
upscale = 1.0
/
&CELL
/

K_POINTS {automatic}
9 9 2 0  0  0

ATOMIC_SPECIES
C 12.01 C.pbe-n-rrkjus_psl.1.0.0.UPF
Li 6.941 Li.pbe-sl-rrkjus_psl.1.0.0.UPF
O 15.99 O.pbe-n-rrkjus_psl.1.0.0.UPF
Pd 106.4 Pd.pbe-n-rrkjus_psl.1.0.0.UPF
Sn 118.7 Sn.pbe-dn-rrkjus_psl.1.0.0.UPF
Y 88.90 Y.pbe-spn-rrkjus_psl.1.0.0.UPF


CELL_PARAMETERS {angstrom}
6.77715000 0.00000000 0.00000000
0.00000000 6.77715000 0.00000000
0.00000000 0.00000000 25.08290000

ATOMIC_POSITIONS {angstrom}
Li 0.00000000 0.00000000 -2.5413994299999985 0 0 0
Li 6.76488336 3.38193339 0.89094461
Li 3.38200116 6.76481559 0.89119544
Li 3.38857500 3.38857500 -2.5413994299999985 0 0 0
Y 1.69428750 1.69428750 -0.8470495299999996 0 0 0
Y 1.68886578 5.07852512 2.65351999
Y 5.07859290 1.68873024 2.65377082
Y 5.08286250 5.08286250 -0.8470495299999996 0 0 0
Sn 5.08286250 1.69428750 -0.8470495299999996 0 0 0
Sn 5.07757632 5.07771187 2.60811994
Sn 1.68622269 1.68635823 2.54240274
Sn 1.69428750 5.08286250 -0.8470495299999996 0 0 0
Pd 0.00000000 3.38857500 -2.5413994299999985 0 0 0
Pd 6.76569662 6.76576439 0.85106280
Pd 3.39657204 3.39663981 0.84880534
Pd 3.38857500 0.00000000 -2.5413994299999985 0 0 0
C 2.45976659 2.45969882 6.21027521
O 1.70411437 1.70492763 6.60006348
