&CONTROL
calculation = 'relax'
prefix = 'scf'
pseudo_dir = '/vol0004/mdt0/data/hp150275/u10028/POT_KKJUS'
outdir = './data'
tprnfor = .true.
nstep = 50
disk_io = 'non'
/
&SYSTEM
ibrav = 0
ecutwfc = 50.0
ecutrho = 400
occupations = 'smearing'
smearing = 'mp'
degauss = 0.01
assume_isolated = 'esm'
esm_bc = 'bc1'
input_dft = 'BEEF-VDW'
nosym = .true.
nspin = 1
ntyp = 3
nat = 16
/
&ELECTRONS
electron_maxstep = 200
mixing_beta = 0.1
conv_thr = 1e-06
/
&IONS
ion_dynamics = 'bfgs'
upscale = 1.0
/
&CELL
/

K_POINTS {automatic}
8 8 1 0 0 0

ATOMIC_SPECIES
Ag 107.8 Ag.pbe-n-rrkjus_psl.1.0.0.UPF
Li 6.941 Li.pbe-sl-rrkjus_psl.1.0.0.UPF
Sb 121.7 Sb.pbe-n-rrkjus_psl.1.0.0.UPF

CELL_PARAMETERS {angstrom}
6.69979000 0.00000000 0.00000000
0.00000000 6.69979000 0.00000000
0.00000000 0.00000000 25.02480000

ATOMIC_POSITIONS {angstrom}
Li 0.00000000 0.00000000 -0.8375800600000005 0 0 0
Li 3.34989500 0.00000000 2.68766352
Li 6.69972300 3.34989500 2.68741327
Li 3.34989500 3.34989500 -0.8375800600000005 0 0 0
Li 1.67668945 1.67682344 0.95544686
Li 1.67494750 5.02484250 -2.51248992 0 0 0
Li 5.02310055 5.02310055 0.95544686
Li 5.02484250 1.67494750 -2.51248992 0 0 0
Ag 1.67494750 1.67494750 -2.51248992 0 0 0
Ag 1.67320555 5.02658445 0.92466636
Ag 5.02484250 5.02484250 -2.51248992 0 0 0
Ag 5.02658445 1.67307156 0.92491661
Sb 0.00006700 6.69972300 2.50398149
Sb 3.34989500 3.34996200 2.49972727
Sb 3.34989500 0.00000000 -0.8375800600000005 0 0 0
Sb 0.00000000 3.34989500 -0.8375800600000005 0 0 0
