&CONTROL
calculation = 'relax'
prefix = 'scf'
pseudo_dir = '/vol0004/mdt0/data/hp150275/u10028/POT_KKJUS'
outdir = './data'
tprnfor = .true.
nstep = 50
disk_io = 'non'
/
&SYSTEM
ibrav = 0
ecutwfc = 50.0
ecutrho = 400
occupations = 'smearing'
smearing = 'mp'
degauss = 0.01
assume_isolated = 'esm'
esm_bc = 'bc1'
input_dft = 'BEEF-VDW'
nosym = .true.
nspin = 1
ntyp = 3
nat = 33
/
&ELECTRONS
electron_maxstep = 200
mixing_beta = 0.1
conv_thr = 1e-06
/
&IONS
ion_dynamics = 'bfgs'
upscale = 1.0
/
&CELL
/

K_POINTS {automatic}
9 6 2 0  0  0

ATOMIC_SPECIES
Be 9.012 Be.pbe-n-rrkjus_psl.1.0.0.UPF
C 12.01 C.pbe-n-rrkjus_psl.1.0.0.UPF
Li 6.941 Li.pbe-sl-rrkjus_psl.1.0.0.UPF

CELL_PARAMETERS {angstrom}
5.62306000 0.00000000 0.00000000
0.00000000 7.95221000 0.00000000
0.00000000 0.00000000 25.96420000

ATOMIC_POSITIONS {angstrom}
Li 0.00000000 0.00000000 -2.9819883700000034 0 0 0
Li 0.00000000 1.98805250 -0.9939095800000004 0 0 0
Li 0.00000000 0.00000000 1.01545986
Li 0.00000000 1.99012007 3.47582745
Li 0.00000000 3.97610500 -2.9819883700000034 0 0 0
Li 0.00000000 5.96415750 -0.9939095800000004 0 0 0
Li 0.00000000 3.97610500 0.67974276
Li 0.00000000 5.96201040 3.47582745
Li 2.81153000 0.00000000 -2.9819883700000034 0 0 0
Li 2.81153000 1.98805250 -0.9939095800000004 0 0 0
Li 2.81153000 0.00000000 0.90796807
Li 2.81153000 2.26749316 3.37300922
Li 2.81153000 3.97610500 -2.9819883700000034 0 0 0
Li 2.81153000 5.96415750 -0.9939095800000004 0 0 0
Li 2.81153000 3.97618452 0.94250046
Li 2.81153000 5.68463732 3.37300922
Be 1.40576500 1.98805250 -2.9819883700000034 0 0 0
Be 1.40576500 0.00000000 -0.9939095800000004 0 0 0
Be 1.36477289 2.07751486 1.21200886
Be 1.62365857 7.95213048 2.91941465
Be 1.40576500 5.96415750 -2.9819883700000034 0 0 0
Be 1.40576500 3.97610500 -0.9939095800000004 0 0 0
Be 1.36466043 5.87469514 1.21226850
Be 1.12927914 3.97610500 2.54734766
Be 4.21729500 1.98805250 -2.9819883700000034 0 0 0
Be 4.21729500 0.00000000 -0.9939095800000004 0 0 0
Be 4.25823088 2.07751486 1.21200886
Be 3.99940143 7.95213048 2.91941465
Be 4.21729500 5.96415750 -2.9819883700000034 0 0 0
Be 4.21729500 3.97610500 -0.9939095800000004 0 0 0
Be 4.25839957 5.87469514 1.21226850
Be 4.49378086 3.97610500 2.54734766
C 0.00000000 7.95213048 3.12089684
