&CONTROL
calculation = 'relax'
prefix = 'scf'
pseudo_dir = '/vol0004/mdt0/data/hp150275/u10028/POT_HYBRID_KKJUS_GBRV'
outdir = './data'
tprnfor = .true.
nstep = 50
disk_io = 'non'
/
&SYSTEM
ibrav = 0
ecutwfc = 50.0
ecutrho = 400
occupations = 'smearing'
smearing = 'mp'
degauss = 0.01
assume_isolated = 'esm'
esm_bc = 'bc1'
input_dft = 'BEEF-VDW'
nosym = .true.
nspin = 2
ntyp = 3
nat = 32
starting_magnetization(1) = 0.1
starting_magnetization(2) = 0.0
starting_magnetization(3) = 0.0
/
&ELECTRONS
electron_maxstep = 200
mixing_beta = 0.1
conv_thr = 1e-06
/
&IONS
ion_dynamics = 'bfgs'
upscale = 1.0
/
&CELL
/

K_POINTS {automatic}
9 6 2 0  0  0

ATOMIC_SPECIES
Co 58.93 co_pbe_v1.2.uspp.F.UPF
Sn 118.7 Sn.pbe-dn-rrkjus_psl.1.0.0.UPF
Ti 47.86 Ti.pbe-spn-rrkjus_psl.1.0.0.UPF

CELL_PARAMETERS {angstrom}
6.11439000 0.00000000 0.00000000
0.00000000 8.64705000 0.00000000
0.00000000 0.00000000 26.48530000

ATOMIC_POSITIONS {angstrom}
Ti 0.00000000 0.00000000 23.24270472
Ti 3.05719500 2.16176250 25.40443491
Ti 3.05719500 6.48528750 25.40443491
Ti 0.00000000 4.32352500 23.24270472
Ti 0.00006114 4.32352500 1.13065746
Ti 3.05719500 6.48528750 3.15201555
Ti 3.05719500 2.16176250 3.15201555
Ti 0.00000000 0.00000000 1.13065746
Co 1.52859750 0.00000000 25.40443491
Co 4.58579250 4.32352500 25.40443491
Co 4.58579250 0.00000000 25.40443491
Co 1.52859750 4.32352500 25.40443491
Co 4.58579250 6.48528750 23.24270472
Co 1.52859750 2.16176250 23.24270472
Co 1.52859750 6.48528750 23.24270472
Co 4.58579250 2.16176250 23.24270472
Co 1.47099995 4.32343853 3.06408436
Co 4.64326777 0.00008647 3.06434921
Co 4.64339005 4.32343853 3.06408436
Co 1.47106109 0.00008647 3.06408436
Co 4.59985560 2.16176250 1.14363525
Co 1.51447326 6.48537397 1.14390011
Co 1.51447326 2.16167603 1.14363525
Co 4.59991674 6.48528750 1.14390011
Sn 0.00000000 6.48528750 25.40443491
Sn 3.05719500 0.00000000 23.24270472
Sn 0.00000000 2.16176250 25.40443491
Sn 3.05719500 4.32352500 23.24270472
Sn 0.00000000 2.16176250 3.52042608
Sn 3.05719500 4.32352500 1.04405053
Sn 0.00000000 6.48528750 3.52042608
Sn 3.05719500 0.00000000 1.04405053
