&CONTROL
calculation = 'relax'
prefix = 'scf'
pseudo_dir = '/vol0403/data/hp230205/u10028/POT_HYBRID_KKJUS_GBRV'
outdir = './data'
tprnfor = .true.
nstep = 70
disk_io = 'non'
/
&SYSTEM
ibrav = 0
ecutwfc = 50.0
ecutrho = 400
occupations = 'smearing'
smearing = 'mp'
degauss = 0.01
assume_isolated = 'esm'
esm_bc = 'bc1'
input_dft = 'BEEF-VDW'
nosym = .true.
nspin = 1
ntyp = 5
nat = 33
/
&ELECTRONS
electron_maxstep = 200
mixing_beta = 0.1
conv_thr = 1e-06
/
&IONS
ion_dynamics = 'bfgs'
upscale = 1.0
/
&CELL
/

K_POINTS {automatic}
9 6 2 0  0  0

ATOMIC_SPECIES
Ag 107.8 Ag.pbe-n-rrkjus_psl.1.0.0.UPF
C 12.01 C.pbe-n-rrkjus_psl.1.0.0.UPF
In 114.8 In.pbe-dn-rrkjus_psl.1.0.0.UPF
Pd 106.4 Pd.pbe-n-rrkjus_psl.1.0.0.UPF
Y 88.90 Y.pbe-spn-rrkjus_psl.1.0.0.UPF


CELL_PARAMETERS {angstrom}
6.92663000 0.00000000 0.00000000
-0.00000000 9.79574000 0.00000000
0.00000000 0.00000000 27.34680000

ATOMIC_POSITIONS {angstrom}
Y 5.19497250 0.00000000 -1.2245897000000028 0 0 0
Y 5.19497250 4.89787000 -1.2245897000000028 0 0 0
Y 1.73165750 2.44893500 -3.6734956400000023 0 0 0
Y 1.73165750 7.34680500 -3.6734956400000023 0 0 0
Y 5.09612949 4.75210939 3.61360615
Y 5.09612949 0.14576061 3.61360615
Y 1.79489763 7.34680500 1.30909132
Y 1.81630092 2.44893500 1.44609878
In 1.73165750 0.00000000 -1.2245897000000028 0 0 0
In 1.73165750 4.89787000 -1.2245897000000028 0 0 0
In 5.19497250 2.44893500 -3.6734956400000023 0 0 0
In 5.19497250 7.34680500 -3.6734956400000023 0 0 0
In 1.62110849 4.98368068 3.77549921
In 1.62103922 9.70992932 3.77549921
In 5.17086783 7.34680500 1.23525496
In 5.20778677 2.44893500 1.23224681
Ag 0.00000000 0.00000000 -3.6734956400000023 0 0 0
Ag 0.00000000 4.89787000 -3.6734956400000023 0 0 0
Ag 3.46331500 7.34680500 -1.2245897000000028 0 0 0
Ag 3.46331500 2.44893500 -1.2245897000000028 0 0 0
Ag 0.02161109 4.91638395 1.21201018
Ag 0.02161109 9.77722605 1.21201018
Ag 3.08158842 2.44893500 4.35798605
Ag 3.31543145 7.34680500 3.99099199
Pd 0.00000000 2.44893500 -1.2245897000000028 0 0 0
Pd 0.00000000 7.34680500 -1.2245897000000028 0 0 0
Pd 3.46331500 4.89787000 -3.6734956400000023 0 0 0
Pd 3.46331500 0.00000000 -3.6734956400000023 0 0 0
Pd 6.89601430 7.34680500 3.44542333
Pd 0.35713704 2.44893500 3.89746594
Pd 3.47204255 9.77115269 1.15376149
Pd 3.47197329 4.92245731 1.15376149
C 5.21194274 2.44893500 3.59501033
