&CONTROL
calculation = 'relax'
prefix = 'scf'
pseudo_dir = '/vol0403/data/hp230205/u10028/POT_HYBRID_KKJUS_GBRV'
outdir = './data'
tprnfor = .true.
nstep = 50
disk_io = 'non'
/
&SYSTEM
ibrav = 0
ecutwfc = 50.0
ecutrho = 400
occupations = 'smearing'
smearing = 'mp'
degauss = 0.01
assume_isolated = 'esm'
esm_bc = 'bc1'
input_dft = 'BEEF-VDW'
nosym = .true.
nspin = 1
ntyp = 6
nat = 34
/
&ELECTRONS
electron_maxstep = 200
mixing_beta = 0.1
conv_thr = 1e-06
/
&IONS
ion_dynamics = 'bfgs'
upscale = 1.0
/
&CELL
/

K_POINTS {automatic}
7 7 2 0  0  0

ATOMIC_SPECIES
C 12.01 C.pbe-n-rrkjus_psl.1.0.0.UPF
Ge 72.64 Ge.pbe-dn-rrkjus_psl.1.0.0.UPF
Li 6.941 Li.pbe-sl-rrkjus_psl.1.0.0.UPF
O 15.99 O.pbe-n-rrkjus_psl.1.0.0.UPF
Pb 207.2 Pb.pbe-dn-rrkjus_psl.1.0.0.UPF
Y 88.90 Y.pbe-spn-rrkjus_psl.1.0.0.UPF


CELL_PARAMETERS {angstrom}
8.55406000 0.00000000 0.00000000
0.00000000 8.65500000 0.00000000
0.00000000 0.00000000 27.39600000

ATOMIC_POSITIONS {angstrom}
Li 2.13851500 0.00000000 -1.2325460400000026 0 0 0
Li 2.12474296 8.65448070 3.71024028
Li 2.13851500 4.32750000 -1.2325460400000026 0 0 0
Li 2.12474296 4.32801930 3.71024028
Li 6.41554500 0.00000000 -1.2325460400000026 0 0 0
Li 6.42923150 8.65448070 3.71024028
Li 6.41554500 4.32750000 -1.2325460400000026 0 0 0
Li 6.42923150 4.32801930 3.71024028
Y 2.13851500 2.16375000 -3.697912080000002 0 0 0
Y 2.15741947 2.16375000 1.26514728
Y 2.13851500 6.49125000 -3.697912080000002 0 0 0
Y 2.14860879 6.49125000 1.26514728
Y 6.41554500 2.16375000 -3.697912080000002 0 0 0
Y 6.39655499 2.16375000 1.26514728
Y 6.41554500 6.49125000 -3.697912080000002 0 0 0
Y 6.40536567 6.49125000 1.26514728
Ge 0.00000000 0.00000000 -3.697912080000002 0 0 0
Ge 0.00000000 0.00043275 1.69115508
Ge 0.00000000 4.32750000 -3.697912080000002 0 0 0
Ge 0.00000000 4.32706725 1.69115508
Ge 4.27703000 0.00000000 -3.697912080000002 0 0 0
Ge 4.27694446 8.65482690 1.79799948
Ge 4.27703000 4.32750000 -3.697912080000002 0 0 0
Ge 4.27703000 4.32767310 1.79799948
Pb 0.00000000 2.16375000 -1.2325460400000026 0 0 0
Pb 0.00000000 2.16375000 3.93598332
Pb 0.00000000 6.49125000 -1.2325460400000026 0 0 0
Pb 0.00000000 6.49125000 3.94885944
Pb 4.27703000 2.16375000 -1.2325460400000026 0 0 0
Pb 4.27703000 2.16375000 4.02228072
Pb 4.27703000 6.49125000 -1.2325460400000026 0 0 0
Pb 4.27703000 6.49125000 4.01515776
C 0.00162527 2.16357690 7.94347020
O 8.55380338 2.16375000 9.07821252
