&CONTROL
calculation = 'relax'
prefix = 'scf'
pseudo_dir = '/vol0004/mdt0/data/hp150275/u10028/POT_KKJUS'
outdir = './data'
tprnfor = .true.
nstep = 50
disk_io = 'non'
/
&SYSTEM
ibrav = 0
ecutwfc = 50.0
ecutrho = 400
occupations = 'smearing'
smearing = 'mp'
degauss = 0.01
assume_isolated = 'esm'
esm_bc = 'bc1'
input_dft = 'BEEF-VDW'
nosym = .true.
nspin = 1
ntyp = 4
nat = 34
/
&ELECTRONS
electron_maxstep = 200
mixing_beta = 0.1
conv_thr = 1e-06
/
&IONS
ion_dynamics = 'bfgs'
upscale = 1.0
/
&CELL
/

K_POINTS {automatic}
8 6 2 0  0  0

ATOMIC_SPECIES
Ag 107.8 Ag.pbe-n-rrkjus_psl.1.0.0.UPF
C 12.01 C.pbe-n-rrkjus_psl.1.0.0.UPF
O 15.99 O.pbe-n-rrkjus_psl.1.0.0.UPF
Y 88.90 Y.pbe-spn-rrkjus_psl.1.0.0.UPF

CELL_PARAMETERS {angstrom}
7.32505000 0.00000000 0.00000000
0.00000000 10.35920000 0.00000000
0.00000000 0.00000000 27.76940000

ATOMIC_POSITIONS {angstrom}
Y 1.83126250 2.58980000 -3.88466137 0 0 0
Y 1.83126250 0.00000000 -1.294887120000002 0 0 0
Y 1.82481646 2.58886767 1.27600393
Y 1.84825662 10.34117499 3.85772505
Y 1.83126250 7.76940000 -3.88466137 0 0 0
Y 1.83126250 5.17960000 -1.294887120000002 0 0 0
Y 1.83631678 7.76826049 1.28877785
Y 1.84935537 5.19627831 3.86105738
Y 5.49378750 2.58980000 -3.88466137 0 0 0
Y 5.49378750 0.00000000 -1.294887120000002 0 0 0
Y 5.50023354 2.58897126 1.27600393
Y 5.47679338 10.34117499 3.85772505
Y 5.49378750 7.76940000 -3.88466137 0 0 0
Y 5.49378750 5.17960000 -1.294887120000002 0 0 0
Y 5.48873322 7.76826049 1.28877785
Y 5.47569463 5.19627831 3.86105738
Ag 0.00000000 0.00000000 -3.88466137 0 0 0
Ag 0.00000000 2.58980000 -1.294887120000002 0 0 0
Ag 0.00000000 10.34065703 1.32848810
Ag 0.00000000 2.58959282 3.78080381
Ag 0.00000000 5.17960000 -3.88466137 0 0 0
Ag 0.00000000 7.76940000 -1.294887120000002 0 0 0
Ag 0.00000000 5.19089153 1.33654122
Ag 0.00000000 7.76836408 3.73331814
Ag 3.66252500 0.00000000 -3.88466137 0 0 0
Ag 3.66252500 2.58980000 -1.294887120000002 0 0 0
Ag 3.66252500 0.00880532 1.32376730
Ag 3.66252500 2.58959282 3.71637880
Ag 3.66252500 5.17960000 -3.88466137 0 0 0
Ag 3.66252500 7.76940000 -1.294887120000002 0 0 0
Ag 3.66252500 5.16893002 1.32404499
Ag 3.66252500 7.76888204 3.74581437
C 0.00000000 2.61911654 5.98763803
O 0.00000000 2.58700302 7.14534431
