&CONTROL
calculation = 'relax'
prefix = 'scf'
pseudo_dir = '/vol0004/mdt0/data/hp150275/u10028/POT_KKJUS'
outdir = './data'
tprnfor = .true.
nstep = 50
disk_io = 'non'
/
&SYSTEM
ibrav = 0
ecutwfc = 50.0
ecutrho = 400
occupations = 'smearing'
smearing = 'mp'
degauss = 0.01
assume_isolated = 'esm'
esm_bc = 'bc1'
input_dft = 'BEEF-VDW'
nosym = .true.
nspin = 1
ntyp = 3
nat = 33
/
&ELECTRONS
electron_maxstep = 200
mixing_beta = 0.1
conv_thr = 1e-06
/
&IONS
ion_dynamics = 'bfgs'
upscale = 1.0
/
&CELL
/

K_POINTS {automatic}
6 6 1 0 0 0

ATOMIC_SPECIES
C 12.01 C.pbe-n-rrkjus_psl.1.0.0.UPF
Nb 92.90 Nb.pbe-spn-rrkjus_psl.1.0.0.UPF
Si 28.08 Si.pbe-nl-rrkjus_psl.1.0.0.UPF

CELL_PARAMETERS {angstrom}
8.14544000 0.00000000 0.00000000
-0.00000000 8.14544000 0.00000000
0.00000000 0.00000000 26.10910000

ATOMIC_POSITIONS {angstrom}
Nb 0.00000000 2.03636000 -1.0182549000000023 0 0 0
Nb 2.03636000 0.00000000 -1.0182549000000023 0 0 0
Nb 2.03636000 2.03636000 -3.054503610000001 0 0 0
Nb 0.00000000 2.03636000 3.05450361
Nb 2.03636000 -0.00000000 3.05450361
Nb 2.03636000 2.03636000 1.01825490
Nb 0.00000000 6.10908000 -1.0182549000000023 0 0 0
Nb 2.03636000 4.07272000 -1.0182549000000023 0 0 0
Nb 2.03636000 6.10908000 -3.054503610000001 0 0 0
Nb 0.00000000 6.10908000 3.05450361
Nb 2.03636000 4.07272000 3.05450361
Nb 2.03636000 6.10908000 1.01825490
Nb 4.07272000 2.03636000 -1.0182549000000023 0 0 0
Nb 6.10908000 0.00000000 -1.0182549000000023 0 0 0
Nb 6.10908000 2.03636000 -3.054503610000001 0 0 0
Nb 4.07272000 2.03636000 3.05450361
Nb 6.10908000 -0.00000000 3.05450361
Nb 6.10908000 2.03636000 1.01825490
Nb 4.07272000 6.10908000 -1.0182549000000023 0 0 0
Nb 6.10908000 4.07272000 -1.0182549000000023 0 0 0
Nb 6.10908000 6.10908000 -3.054503610000001 0 0 0
Nb 4.07272000 6.10908000 3.05450361
Nb 6.10908000 4.07272000 3.05450361
Nb 6.10908000 6.10908000 1.01825490
Si 0.00000000 0.00000000 -3.054503610000001 0 0 0
Si 0.00000000 0.00000000 1.01825490
Si 0.00000000 4.07272000 -3.054503610000001 0 0 0
Si 0.00000000 4.07272000 1.01825490
Si 4.07272000 0.00000000 -3.054503610000001 0 0 0
Si 4.07272000 -0.00000000 1.01825490
Si 4.07272000 4.07272000 -3.054503610000001 0 0 0
Si 4.07272000 4.07272000 1.01825490
C 0.00000000 0.00000000 3.85448643
