&CONTROL
calculation = 'relax'
prefix = 'scf'
pseudo_dir = '/vol0004/mdt0/data/hp150275/u10028/POT_KKJUS'
outdir = './data'
tprnfor = .true.
nstep = 50
disk_io = 'non'
/
&SYSTEM
ibrav = 0
ecutwfc = 50.0
ecutrho = 400
occupations = 'smearing'
smearing = 'mp'
degauss = 0.01
assume_isolated = 'esm'
esm_bc = 'bc1'
input_dft = 'BEEF-VDW'
nosym = .true.
nspin = 1
ntyp = 4
nat = 34
/
&ELECTRONS
electron_maxstep = 200
mixing_beta = 0.1
conv_thr = 1e-06
/
&IONS
ion_dynamics = 'bfgs'
upscale = 1.0
/
&CELL
/

K_POINTS {automatic}
8 6 1 0 0 0

ATOMIC_SPECIES
C 12.01 C.pbe-n-rrkjus_psl.1.0.0.UPF
Cu 63.54 Cu.pbe-dn-rrkjus_psl.1.0.0.UPF
O 15.99 O.pbe-n-rrkjus_psl.1.0.0.UPF
Pd 106.4 Pd.pbe-n-rrkjus_psl.1.0.0.UPF

CELL_PARAMETERS {angstrom}
6.09666000 0.00000000 0.00000000
0.00000000 8.62198000 0.00000000
0.00000000 0.00000000 26.46650000

ATOMIC_POSITIONS {angstrom}
Cu 0.00000000 0.00000000 -3.2331476399999985 0 0 0
Cu 0.00000000 2.15549500 -1.0777158799999995 0 0 0
Cu 0.04292049 0.00000000 1.09571310
Cu 6.07099306 2.16420320 3.19318322
Cu 0.00000000 4.31099000 -3.2331476399999985 0 0 0
Cu 0.00000000 6.46648500 -1.0777158799999995 0 0 0
Cu 6.09288007 4.31099000 1.07533389
Cu 6.07099306 6.45777680 3.19318322
Cu 3.04833000 0.00000000 -3.2331476399999985 0 0 0
Cu 3.04833000 2.15549500 -1.0777158799999995 0 0 0
Cu 3.00553145 0.00000000 1.09703642
Cu 3.07619174 2.16377210 3.19318322
Cu 3.04833000 4.31099000 -3.2331476399999985 0 0 0
Cu 3.04833000 6.46648500 -1.0777158799999995 0 0 0
Cu 3.05308539 4.31099000 1.07559856
Cu 3.07625270 6.45820790 3.19318322
Pd 1.52416500 2.15549500 -3.2331476399999985 0 0 0
Pd 1.52416500 0.00000000 -1.0777158799999995 0 0 0
Pd 1.52440887 2.15661586 1.07242258
Pd 1.52404307 0.00000000 3.35674619
Pd 1.52416500 6.46648500 -3.2331476399999985 0 0 0
Pd 1.52416500 4.31099000 -1.0777158799999995 0 0 0
Pd 1.52440887 6.46536414 1.07242258
Pd 1.52532337 4.31099000 3.20482849
Pd 4.57249500 2.15549500 -3.2331476399999985 0 0 0
Pd 4.57249500 0.00000000 -1.0777158799999995 0 0 0
Pd 4.57273887 2.13816482 1.05469002
Pd 4.57322660 0.00000000 3.18047930
Pd 4.57249500 6.46648500 -3.2331476399999985 0 0 0
Pd 4.57249500 4.31099000 -1.0777158799999995 0 0 0
Pd 4.57273887 6.48381518 1.05469002
Pd 4.57328757 4.31099000 3.19503588
C 1.51434938 0.00000000 5.27530278
O 1.51398358 0.00000000 6.42394888
