&CONTROL
calculation = 'relax'
prefix = 'scf'
pseudo_dir = '/vol0004/mdt0/data/hp150275/u10028/POT_KKJUS'
outdir = './data'
tprnfor = .true.
nstep = 50
disk_io = 'non'
/
&SYSTEM
ibrav = 0
ecutwfc = 50.0
ecutrho = 400
occupations = 'smearing'
smearing = 'mp'
degauss = 0.01
assume_isolated = 'esm'
esm_bc = 'bc1'
input_dft = 'BEEF-VDW'
nosym = .true.
nspin = 1
ntyp = 2
nat = 16
/
&ELECTRONS
electron_maxstep = 200
mixing_beta = 0.1
conv_thr = 1e-06
/
&IONS
ion_dynamics = 'bfgs'
upscale = 1.0
/
&CELL
/

K_POINTS {automatic}
8 11 2 0  0  0

ATOMIC_SPECIES
Al 26.98 Al.pbe-nl-rrkjus_psl.1.0.0.UPF
Li 6.941 Li.pbe-sl-rrkjus_psl.1.0.0.UPF

CELL_PARAMETERS {angstrom}
8.00621000 0.00000000 0.00000000
0.00000000 5.66125000 0.00000000
0.00000000 0.00000000 24.24590000

ATOMIC_POSITIONS {angstrom}
Li 0.00000000 0.00000000 2.27353804
Li 0.00000000 2.83062500 -0.7077378199999984 0 0 0
Li 4.00310500 0.00000000 2.27329558
Li 4.00310500 2.83062500 -0.7077378199999984 0 0 0
Al 0.00000000 2.83062500 2.13606379
Al 2.00155250 4.26818621 0.76132126
Al 2.00155250 1.39306379 0.76132126
Al 0.00000000 0.00000000 -0.7077378199999984 0 0 0
Al 2.00155250 1.41531250 -2.1229709999999997 0 0 0
Al 2.00155250 4.24593750 -2.1229709999999997 0 0 0
Al 4.00310500 2.83062500 2.13606379
Al 6.00465750 4.26818621 0.76132126
Al 6.00465750 1.39306379 0.76132126
Al 4.00310500 0.00000000 -0.7077378199999984 0 0 0
Al 6.00465750 1.41531250 -2.1229709999999997 0 0 0
Al 6.00465750 4.24593750 -2.1229709999999997 0 0 0
