&CONTROL
calculation = 'relax'
prefix = 'scf'
pseudo_dir = '/vol0403/data/hp230205/u10028/POT_HYBRID_KKJUS_GBRV'
outdir = './data'
tprnfor = .true.
nstep = 50
disk_io = 'non'
/
&SYSTEM
ibrav = 0
ecutwfc = 50.0
ecutrho = 400
occupations = 'smearing'
smearing = 'mp'
degauss = 0.01
assume_isolated = 'esm'
esm_bc = 'bc1'
input_dft = 'BEEF-VDW'
nosym = .true.
nspin = 1
ntyp = 6
nat = 34
/
&ELECTRONS
electron_maxstep = 200
mixing_beta = 0.1
conv_thr = 1e-06
/
&IONS
ion_dynamics = 'bfgs'
upscale = 1.0
/
&CELL
/

K_POINTS {automatic}
6 6 1 0 0 0

ATOMIC_SPECIES
Ag 107.8 Ag.pbe-n-rrkjus_psl.1.0.0.UPF
C 12.01 C.pbe-n-rrkjus_psl.1.0.0.UPF
Li 6.941 Li.pbe-sl-rrkjus_psl.1.0.0.UPF
O 15.99 O.pbe-n-rrkjus_psl.1.0.0.UPF
Pb 207.2 Pb.pbe-dn-rrkjus_psl.1.0.0.UPF
Y 88.90 Y.pbe-spn-rrkjus_psl.1.0.0.UPF


CELL_PARAMETERS {angstrom}
7.20907000 0.00000000 0.00000000
0.00000000 10.19520000 0.00000000
0.00000000 0.00000000 27.64640000

ATOMIC_POSITIONS {angstrom}
Li 1.80226750 0.00000000 -1.2744990399999985 0 0 0
Li 1.80226750 5.09760000 -1.2744990399999985 0 0 0
Li 5.40680250 2.54880000 -3.8232206600000005 0 0 0
Li 5.40680250 7.64640000 -3.8232206600000005 0 0 0
Li 1.75699454 5.09770195 3.69687661
Li 1.79750951 10.19499610 3.76488675
Li 5.45358936 7.64558438 1.27588136
Li 5.45358936 2.55043123 1.27781661
Y 5.40680250 0.00000000 -1.2744990399999985 0 0 0
Y 5.40680250 5.09760000 -1.2744990399999985 0 0 0
Y 1.80226750 2.54880000 -3.8232206600000005 0 0 0
Y 1.80226750 7.64640000 -3.8232206600000005 0 0 0
Y 5.51126192 5.09698829 3.81022685
Y 5.50744112 0.00101952 3.81271502
Y 1.76218507 7.64925466 1.32813306
Y 1.76247343 2.54543558 1.32840952
Ag 0.00000000 0.00000000 -3.8232206600000005 0 0 0
Ag 0.00000000 5.09760000 -3.8232206600000005 0 0 0
Ag 3.60453500 7.64640000 -1.2744990399999985 0 0 0
Ag 3.60453500 2.54880000 -1.2744990399999985 0 0 0
Ag 7.19825640 5.09739610 1.26233462
Ag 7.18347780 10.19509805 1.27228733
Ag 3.72060103 2.56837478 3.63771331
Ag 3.72449392 7.62743693 3.63411928
Pb 0.00000000 2.54880000 -1.2744990399999985 0 0 0
Pb 0.00000000 7.64640000 -1.2744990399999985 0 0 0
Pb 3.60453500 5.09760000 -3.8232206600000005 0 0 0
Pb 3.60453500 0.00000000 -3.8232206600000005 0 0 0
Pb 0.12212165 7.64334144 4.09222013
Pb 0.12406809 2.55216442 4.09332598
Pb 3.61650206 10.19509805 1.33034477
Pb 3.62118795 5.09760000 1.31348046
C 2.29161917 0.00000000 5.78307395
O 2.40199003 0.00010195 6.92597613
