&CONTROL
calculation = 'relax'
prefix = 'scf'
pseudo_dir = '/vol0403/data/hp230205/u10028/POT_HYBRID_KKJUS_GBRV'
outdir = './data'
tprnfor = .true.
nstep = 50
disk_io = 'non'
/
&SYSTEM
ibrav = 0
ecutwfc = 50.0
ecutrho = 400
occupations = 'smearing'
smearing = 'mp'
degauss = 0.01
assume_isolated = 'esm'
esm_bc = 'bc1'
input_dft = 'BEEF-VDW'
nosym = .true.
nspin = 1
ntyp = 6
nat = 34
/
&ELECTRONS
electron_maxstep = 200
mixing_beta = 0.1
conv_thr = 1e-06
/
&IONS
ion_dynamics = 'bfgs'
upscale = 1.0
/
&CELL
/

K_POINTS {automatic}
8 6 2 0  0  0

ATOMIC_SPECIES
Ag 107.8 Ag.pbe-n-rrkjus_psl.1.0.0.UPF
C 12.01 C.pbe-n-rrkjus_psl.1.0.0.UPF
Li 6.941 Li.pbe-sl-rrkjus_psl.1.0.0.UPF
O 15.99 O.pbe-n-rrkjus_psl.1.0.0.UPF
Pb 207.2 Pb.pbe-dn-rrkjus_psl.1.0.0.UPF
Y 88.90 Y.pbe-spn-rrkjus_psl.1.0.0.UPF


CELL_PARAMETERS {angstrom}
7.20907000 0.00000000 0.00000000
0.00000000 10.19520000 0.00000000
0.00000000 0.00000000 27.64640000

ATOMIC_POSITIONS {angstrom}
Li 1.80226750 0.00000000 -1.2744990399999985 0 0 0
Li 1.80226750 5.09760000 -1.2744990399999985 0 0 0
Li 5.40680250 2.54880000 -3.8232206600000005 0 0 0
Li 5.40680250 7.64640000 -3.8232206600000005 0 0 0
Li 1.75331791 5.09861952 3.69494136
Li 1.80197914 0.00030586 3.77843349
Li 5.45942871 7.65404640 1.27449904
Li 5.45950080 2.54115360 1.27671075
Y 5.40680250 0.00000000 -1.2744990399999985 0 0 0
Y 5.40680250 5.09760000 -1.2744990399999985 0 0 0
Y 1.80226750 2.54880000 -3.8232206600000005 0 0 0
Y 1.80226750 7.64640000 -3.8232206600000005 0 0 0
Y 5.50909920 5.09749805 3.84367899
Y 5.48581391 0.00234490 3.84174374
Y 1.76485243 7.64262778 1.32398610
Y 1.76456406 2.55185856 1.32453902
Ag 0.00000000 0.00000000 -3.8232206600000005 0 0 0
Ag 0.00000000 5.09760000 -3.8232206600000005 0 0 0
Ag 3.60453500 7.64640000 -1.2744990399999985 0 0 0
Ag 3.60453500 2.54880000 -1.2744990399999985 0 0 0
Ag 7.17143865 5.09760000 1.29882787
Ag 7.18376616 10.19458829 1.30795118
Ag 3.74006552 2.57785632 3.61808437
Ag 3.74338169 7.61907686 3.61559619
Pb 0.00000000 2.54880000 -1.2744990399999985 0 0 0
Pb 0.00000000 7.64640000 -1.2744990399999985 0 0 0
Pb 3.60453500 5.09760000 -3.8232206600000005 0 0 0
Pb 3.60453500 0.00000000 -3.8232206600000005 0 0 0
Pb 0.12075192 7.65098784 4.08530853
Pb 0.12450064 2.54829024 4.08890256
Pb 3.60972553 10.19509805 1.33310941
Pb 3.63546191 5.09739610 1.32177438
C 2.52699531 10.19458829 5.73579861
O 2.76352489 10.19428243 6.86073062
