&CONTROL
calculation = 'relax'
prefix = 'scf'
pseudo_dir = '/vol0004/mdt0/data/hp150275/u10028/POT_HYBRID_KKJUS_GBRV'
outdir = './data'
tprnfor = .true.
nstep = 50
disk_io = 'non'
/
&SYSTEM
ibrav = 0
ecutwfc = 50.0
ecutrho = 400
occupations = 'smearing'
smearing = 'mp'
degauss = 0.01
assume_isolated = 'esm'
esm_bc = 'bc1'
input_dft = 'BEEF-VDW'
nosym = .true.
nspin = 2
ntyp = 5
nat = 34
starting_magnetization(1) = 0.0
starting_magnetization(2) = 0.0
starting_magnetization(3) = 0.0
starting_magnetization(4) = 0.001
starting_magnetization(5) = 0.0
/
&ELECTRONS
electron_maxstep = 300
mixing_beta = 0.1
conv_thr = 1e-06
/
&IONS
ion_dynamics = 'bfgs'
upscale = 1.0
/
&CELL
/

K_POINTS {automatic}
8 6 1 0 0 0

ATOMIC_SPECIES
C 12.01 C.pbe-n-rrkjus_psl.1.0.0.UPF
Ge 72.64 Ge.pbe-dn-rrkjus_psl.1.0.0.UPF
Li 6.941 Li.pbe-sl-rrkjus_psl.1.0.0.UPF
Ni 58.69 ni_pbe_v1.4.uspp.F.UPF
O 15.99 O.pbe-n-rrkjus_psl.1.0.0.UPF

CELL_PARAMETERS {angstrom}
5.71239000 0.00000000 0.00000000
0.00000000 8.07854000 0.00000000
0.00000000 0.00000000 26.05890000

ATOMIC_POSITIONS {angstrom}
Li 0.00000000 0.00000000 -3.0293471200000006 0 0 0
Li 2.85619500 2.01963500 -1.00978237 0 0 0
Li 2.85619500 6.05890500 -1.00978237 0 0 0
Li 0.00000000 4.03927000 -3.0293471200000006 0 0 0
Li 0.00165659 4.03902764 0.86202841
Li 2.86007943 5.88949802 3.53853803
Li 2.86002230 2.18936513 3.53827744
Li 0.00171372 8.07829764 1.02307241
Ni 1.42809750 0.00000000 -1.00978237 0 0 0
Ni 4.28429250 4.03927000 -1.00978237 0 0 0
Ni 4.28429250 0.00000000 -1.00978237 0 0 0
Ni 1.42809750 4.03927000 -1.00978237 0 0 0
Ni 4.28429250 6.05890500 -3.0293471200000006 0 0 0
Ni 1.42809750 2.01963500 -3.0293471200000006 0 0 0
Ni 1.42809750 6.05890500 -3.0293471200000006 0 0 0
Ni 4.28429250 2.01963500 -3.0293471200000006 0 0 0
Ni 1.25906788 4.03943157 2.80941001
Ni 4.20077736 0.00072707 3.01058472
Ni 4.45880601 4.03951236 2.81410061
Ni 1.52943530 0.00056550 3.01293002
Ni 4.26738383 2.00485127 1.03558069
Ni 1.44974746 6.07393108 1.03401715
Ni 1.44980458 2.00404342 1.03401715
Ni 4.26709821 6.07320402 1.03610186
Ge 0.00000000 6.05890500 -1.00978237 0 0 0
Ge 2.85619500 0.00000000 -3.0293471200000006 0 0 0
Ge 0.00000000 2.01963500 -1.00978237 0 0 0
Ge 2.85619500 4.03927000 -3.0293471200000006 0 0 0
Ge 0.00536965 1.98174665 3.05149719
Ge 2.85973668 4.03854293 1.03479892
Ge 0.00531252 6.09703571 3.05306072
Ge 2.85750885 0.00024236 0.95036808
C 2.86259288 8.07837843 4.38206462
O 2.86682005 0.00000000 5.57165341
