&CONTROL
calculation = 'relax'
prefix = 'scf'
pseudo_dir = '/vol0004/mdt0/data/hp150275/u10028/POT_HYBRID_KKJUS_GBRV'
outdir = './data'
tprnfor = .true.
nstep = 50
disk_io = 'non'
/
&SYSTEM
ibrav = 0
ecutwfc = 50.0
ecutrho = 400
occupations = 'smearing'
smearing = 'mp'
degauss = 0.01
assume_isolated = 'esm'
esm_bc = 'bc1'
input_dft = 'BEEF-VDW'
nosym = .true.
nspin = 2
ntyp = 4
nat = 33
starting_magnetization(1) = 0.0
starting_magnetization(2) = 0.0
starting_magnetization(3) = 0.1
starting_magnetization(4) = 0.1
/
&ELECTRONS
electron_maxstep = 300
mixing_beta = 0.1
conv_thr = 1e-06
/
&IONS
ion_dynamics = 'bfgs'
upscale = 1.0
/
&CELL
/

K_POINTS {automatic}
8 6 1 0 0 0

ATOMIC_SPECIES
Al 26.98 Al.pbe-nl-rrkjus_psl.1.0.0.UPF
C 12.01 C.pbe-n-rrkjus_psl.1.0.0.UPF
Co 58.93 co_pbe_v1.2.uspp.F.UPF
Cr 51.99 cr_pbe_v1.5.uspp.F.UPF

CELL_PARAMETERS {angstrom}
5.71826000 0.00000000 0.00000000
0.00000000 8.08683000 0.00000000
0.00000000 0.00000000 26.06510000

ATOMIC_POSITIONS {angstrom}
Al 0.00000000 0.00000000 -3.0326743799999996 0 0 0
Al 2.85913000 2.02170750 -1.010804580000002 0 0 0
Al 2.85913000 6.06512250 -1.010804580000002 0 0 0
Al 0.00000000 4.04341500 -3.0326743799999996 0 0 0
Al 0.00000000 4.04341500 1.02123062
Al 2.85913000 6.07054068 3.08949630
Al 2.85913000 2.01628932 3.08949630
Al 0.00000000 0.00000000 0.92557170
Cr 0.00000000 6.06512250 -1.010804580000002 0 0 0
Cr 2.85913000 0.00000000 -3.0326743799999996 0 0 0
Cr 0.00000000 2.02170750 -1.010804580000002 0 0 0
Cr 2.85913000 4.04341500 -3.0326743799999996 0 0 0
Cr 0.00000000 2.05542958 3.05091996
Cr 2.85913000 4.04341500 1.06058892
Cr 0.00000000 6.03140042 3.05091996
Cr 2.85913000 0.00000000 1.01236848
Co 1.42956500 0.00000000 -1.010804580000002 0 0 0
Co 4.28869500 4.04341500 -1.010804580000002 0 0 0
Co 4.28869500 0.00000000 -1.010804580000002 0 0 0
Co 1.42956500 4.04341500 -1.010804580000002 0 0 0
Co 4.28869500 6.06512250 -3.0326743799999996 0 0 0
Co 1.42956500 2.02170750 -3.0326743799999996 0 0 0
Co 1.42956500 6.06512250 -3.0326743799999996 0 0 0
Co 4.28869500 2.02170750 -3.0326743799999996 0 0 0
Co 1.45238086 4.04341500 2.98054418
Co 4.41947161 0.00000000 3.01990249
Co 4.26587914 4.04341500 2.98054418
Co 1.29878839 0.00000000 3.01990249
Co 4.29012457 2.01022420 1.00767677
Co 1.42824980 6.07660580 1.00793742
Co 1.42813543 2.01022420 1.00767677
Co 4.29001020 6.07660580 1.00793742
C 2.85913000 0.00000000 3.85033657
