&CONTROL
calculation = 'relax'
prefix = 'scf'
pseudo_dir = '/vol0004/mdt0/data/hp150275/u10028/POT_HYBRID_KKJUS_GBRV'
outdir = './data'
tprnfor = .true.
nstep = 50
disk_io = 'non'
/
&SYSTEM
ibrav = 0
ecutwfc = 50.0
ecutrho = 400
occupations = 'smearing'
smearing = 'mp'
degauss = 0.01
assume_isolated = 'esm'
esm_bc = 'bc1'
input_dft = 'BEEF-VDW'
nosym = .true.
nspin = 2
ntyp = 3
nat = 33
starting_magnetization(1) = 0.0
starting_magnetization(2) = 0.001
starting_magnetization(3) = 0.0
/
&ELECTRONS
electron_maxstep = 300
mixing_beta = 0.1
conv_thr = 1e-06
/
&IONS
ion_dynamics = 'bfgs'
upscale = 1.0
/
&CELL
/

K_POINTS {automatic}
9 6 2 0  0  0

ATOMIC_SPECIES
C 12.01 C.pbe-n-rrkjus_psl.1.0.0.UPF
Ni 58.69 ni_pbe_v1.4.uspp.F.UPF
Sn 118.7 Sn.pbe-dn-rrkjus_psl.1.0.0.UPF

CELL_PARAMETERS {angstrom}
5.96895000 0.00000000 0.00000000
0.00000000 8.44136000 0.00000000
0.00000000 0.00000000 26.33100000

ATOMIC_POSITIONS {angstrom}
Ni 1.49223750 0.00000000 -1.0550831699999996 0 0 0
Ni 4.47671250 4.22068000 -1.0550831699999996 0 0 0
Ni 4.47671250 0.00000000 -1.0550831699999996 0 0 0
Ni 1.49223750 4.22068000 -1.0550831699999996 0 0 0
Ni 4.47671250 6.33102000 -3.16551282 0 0 0
Ni 1.49223750 2.11034000 -3.16551282 0 0 0
Ni 1.49223750 6.33102000 -3.16551282 0 0 0
Ni 4.47671250 2.11034000 -3.16551282 0 0 0
Ni 0.00000000 6.33102000 -1.0550831699999996 0 0 0
Ni 2.98447500 0.00000000 -3.16551282 0 0 0
Ni 0.00000000 2.11034000 -1.0550831699999996 0 0 0
Ni 2.98447500 4.22068000 -3.16551282 0 0 0
Ni 1.30821477 4.22025793 3.11917026
Ni 4.72818436 0.00101296 3.27267999
Ni 4.66073523 4.22025793 3.11917026
Ni 1.24076564 0.00101296 3.27267999
Ni 4.38443253 2.12967071 1.10827179
Ni 1.58583064 6.31118280 1.10853510
Ni 1.58451747 2.12967071 1.10827179
Ni 4.38311936 6.31118280 1.10853510
Ni 0.00000000 2.11143738 3.05887227
Ni 2.98447500 4.21983586 1.10221566
Ni 0.00000000 6.33034469 3.05939889
Ni 2.98447500 0.00033765 1.15171794
Sn 0.00000000 0.00000000 -3.16551282 0 0 0
Sn 2.98447500 2.11034000 -1.0550831699999996 0 0 0
Sn 2.98447500 6.33102000 -1.0550831699999996 0 0 0
Sn 0.00000000 4.22068000 -3.16551282 0 0 0
Sn 0.00000000 4.22068000 0.96687432
Sn 2.98447500 6.14944635 3.47016249
Sn 2.98447500 2.29191365 3.46884594
Sn 0.00000000 8.44093793 1.00163124
C 2.98447500 8.44110676 2.99225484
