&CONTROL
calculation = 'relax'
prefix = 'scf'
pseudo_dir = '/vol0004/mdt0/data/hp150275/u10028/POT_KKJUS'
outdir = './data'
tprnfor = .true.
nstep = 50
disk_io = 'non'
/
&SYSTEM
ibrav = 0
ecutwfc = 50.0
ecutrho = 400
occupations = 'smearing'
smearing = 'mp'
degauss = 0.01
assume_isolated = 'esm'
esm_bc = 'bc1'
input_dft = 'BEEF-VDW'
nosym = .true.
nspin = 1
ntyp = 4
nat = 18
/
&ELECTRONS
electron_maxstep = 200
mixing_beta = 0.1
conv_thr = 1e-06
/
&IONS
ion_dynamics = 'bfgs'
upscale = 1.0
/
&CELL
/

K_POINTS {automatic}
6 8 1 0 0 0

ATOMIC_SPECIES
C 12.01 C.pbe-n-rrkjus_psl.1.0.0.UPF
O 15.99 O.pbe-n-rrkjus_psl.1.0.0.UPF
Pd 106.4 Pd.pbe-n-rrkjus_psl.1.0.0.UPF
Y 88.90 Y.pbe-spn-rrkjus_psl.1.0.0.UPF

CELL_PARAMETERS {angstrom}
8.33346000 0.00000000 0.00000000
0.00000000 5.89265000 0.00000000
0.00000000 0.00000000 24.41950000

ATOMIC_POSITIONS {angstrom}
Y 0.00000000 0.00000000 2.07492491
Y 0.00000000 2.94632500 -0.7364921199999976 0 0 0
Y 4.16673000 0.00000000 1.99018925
Y 4.16673000 2.94632500 -0.7364921199999976 0 0 0
Pd 0.00000000 2.94632500 2.35819111
Pd 2.04903114 4.43522088 0.75285318
Pd 2.04903114 1.45742912 0.75285318
Pd 0.00000000 0.00000000 -0.7364921199999976 0 0 0
Pd 2.08336500 1.47316250 -2.209720560000001 0 0 0
Pd 2.08336500 4.41948750 -2.209720560000001 0 0 0
Pd 4.16673000 2.94632500 2.05490093
Pd 6.28442886 4.43522088 0.75285318
Pd 6.28442886 1.45742912 0.75285318
Pd 4.16673000 0.00000000 -0.7364921199999976 0 0 0
Pd 6.25009500 1.47316250 -2.209720560000001 0 0 0
Pd 6.25009500 4.41948750 -2.209720560000001 0 0 0
C 0.00000000 2.94632500 4.31004175
O 0.00000000 2.94632500 5.46874702
