&CONTROL
calculation = 'relax'
prefix = 'scf'
pseudo_dir = '/vol0004/mdt0/data/hp150275/u10028/POT_HYBRID_KKJUS_GBRV'
outdir = './data'
tprnfor = .true.
nstep = 50
disk_io = 'non'
/
&SYSTEM
ibrav = 0
ecutwfc = 50.0
ecutrho = 400
occupations = 'smearing'
smearing = 'mp'
degauss = 0.01
assume_isolated = 'esm'
esm_bc = 'bc1'
input_dft = 'BEEF-VDW'
nosym = .true.
nspin = 2
ntyp = 4
nat = 17
starting_magnetization(1) = 0.0
starting_magnetization(2) = 0.0
starting_magnetization(3) = 0.01
starting_magnetization(4) = 0.0
/
&ELECTRONS
electron_maxstep = 200
mixing_beta = 0.1
conv_thr = 1e-06
/
&IONS
ion_dynamics = 'bfgs'
upscale = 1.0
/
&CELL
/

K_POINTS {automatic}
10 10 2 0  0  0

ATOMIC_SPECIES
Al 26.98 Al.pbe-nl-rrkjus_psl.1.0.0.UPF
C 12.01 C.pbe-n-rrkjus_psl.1.0.0.UPF
Fe 55.84 fe_pbe_v1.5.uspp.F.UPF
Mo 95.94 Mo.pbe-spn-rrkjus_psl.1.0.0.UPF

CELL_PARAMETERS {angstrom}
5.85421000 0.00000000 0.00000000
0.00000000 5.85421000 0.00000000
0.00000000 0.00000000 24.39070000

ATOMIC_POSITIONS {angstrom}
Al 0.00000000 0.00000000 2.19540691
Al 2.92710500 2.92710500 2.19540691
Al 2.92710500 0.00000000 23.65897900
Al 0.00000000 2.92710500 23.65897900
Fe 1.46355250 1.46355250 0.73172100
Fe 4.39065750 4.39065750 22.19529309
Fe 4.39065750 1.46355250 0.73172100
Fe 1.46355250 4.39065750 22.19529309
Fe 4.39065750 4.39065750 0.73172100
Fe 1.46355250 1.46355250 22.19529309
Fe 1.46355250 4.39065750 0.73172100
Fe 4.39065750 1.46355250 22.19529309
Mo 0.00000000 0.00000000 23.65897900
Mo 2.92710500 0.00000000 2.19540691
Mo 0.00000000 2.92710500 2.19540691
Mo 2.92710500 2.92710500 23.65897900
C 1.46355250 1.46355250 2.99542187
