&CONTROL
calculation = 'relax'
prefix = 'scf'
pseudo_dir = '/vol0004/mdt0/data/hp150275/u10028/POT_HYBRID_KKJUS_GBRV'
outdir = './data'
tprnfor = .true.
nstep = 50
disk_io = 'non'
/
&SYSTEM
ibrav = 0
ecutwfc = 50.0
ecutrho = 400
occupations = 'smearing'
smearing = 'mp'
degauss = 0.01
assume_isolated = 'esm'
esm_bc = 'bc1'
input_dft = 'BEEF-VDW'
nosym = .true.
nspin = 2
ntyp = 5
nat = 34
starting_magnetization(1) = 0.0
starting_magnetization(2) = 0.0
starting_magnetization(3) = 0.1
starting_magnetization(4) = 0.0
starting_magnetization(5) = 0.0
/
&ELECTRONS
electron_maxstep = 200
mixing_beta = 0.1
conv_thr = 1e-06
/
&IONS
ion_dynamics = 'bfgs'
upscale = 1.0
/
&CELL
/

K_POINTS {automatic}
9 6 2 0  0  0

ATOMIC_SPECIES
Al 26.98 Al.pbe-nl-rrkjus_psl.1.0.0.UPF
C 12.01 C.pbe-n-rrkjus_psl.1.0.0.UPF
Co 58.93 co_pbe_v1.2.uspp.F.UPF
O 15.99 O.pbe-n-rrkjus_psl.1.0.0.UPF
V 50.94 V.pbe-spnl-rrkjus_psl.1.0.0.UPF

CELL_PARAMETERS {angstrom}
5.76795000 0.00000000 0.00000000
0.00000000 8.15711000 0.00000000
0.00000000 0.00000000 26.11780000

ATOMIC_POSITIONS {angstrom}
Al 0.00000000 0.00000000 23.05888326
Al 2.88397500 2.03927750 25.09816109
Al 2.88397500 6.11783250 25.09816109
Al 0.00000000 4.07855500 23.05888326
Al 5.76743088 4.07855500 1.04262258
Al 2.89354980 6.10967539 3.08895221
Al 2.89354980 2.04743461 3.08895221
Al 5.76287420 0.00000000 1.03217546
V 0.00000000 6.11783250 25.09816109
V 2.88397500 0.00000000 23.05888326
V 0.00000000 2.03927750 25.09816109
V 2.88397500 4.07855500 23.05888326
V 5.74418605 2.05551015 3.05943909
V 2.88137942 4.07863657 1.06847920
V 5.74418605 6.10159985 3.05917791
V 2.89614537 8.15702843 1.04810731
Co 1.44198750 0.00000000 25.09816109
Co 4.32596250 4.07855500 25.09816109
Co 4.32596250 0.00000000 25.09816109
Co 1.44198750 4.07855500 25.09816109
Co 4.32596250 6.11783250 23.05888326
Co 1.44198750 2.03927750 23.05888326
Co 1.44198750 6.11783250 23.05888326
Co 4.32596250 2.03927750 23.05888326
Co 1.43495060 4.07839186 2.99675637
Co 4.34690016 0.00016314 2.98317512
Co 4.34741927 4.07839186 3.00067404
Co 1.44567899 0.00016314 3.17383506
Co 4.33680625 2.03944064 1.02590718
Co 1.43448917 6.12917088 1.02538483
Co 1.43443149 2.02793912 1.02538483
Co 4.33674857 6.11766936 1.02590718
C 1.41453206 0.00000000 4.88846863
O 1.44960119 0.00000000 6.06638141
