&CONTROL
calculation = 'relax'
prefix = 'scf'
pseudo_dir = '/vol0004/mdt0/data/hp150275/u10028/POT_KKJUS'
outdir = './data'
tprnfor = .true.
nstep = 50
disk_io = 'non'
/
&SYSTEM
ibrav = 0
ecutwfc = 50.0
ecutrho = 400
occupations = 'smearing'
smearing = 'mp'
degauss = 0.01
assume_isolated = 'esm'
esm_bc = 'bc1'
input_dft = 'BEEF-VDW'
nosym = .true.
nspin = 1
ntyp = 3
nat = 33
/
&ELECTRONS
electron_maxstep = 200
mixing_beta = 0.1
conv_thr = 1e-06
/
&IONS
ion_dynamics = 'bfgs'
upscale = 1.0
/
&CELL
/

K_POINTS {automatic}
9 6 2 0  0  0

ATOMIC_SPECIES
C 12.01 C.pbe-n-rrkjus_psl.1.0.0.UPF
In 114.8 In.pbe-dn-rrkjus_psl.1.0.0.UPF
Rh 102.9 Rh.pbe-spn-rrkjus_psl.1.0.0.UPF

CELL_PARAMETERS {angstrom}
6.51708000 0.00000000 0.00000000
0.00000000 9.21654000 0.00000000
0.00000000 0.00000000 26.91240000

ATOMIC_POSITIONS {angstrom}
In 0.00000000 0.00000000 -3.4560904100000016 0 0 0
In 0.00000000 2.30413500 -1.152119840000001 0 0 0
In 0.02672003 9.20870594 1.17015115
In 6.22061803 2.30413500 3.49457514
In 0.00000000 4.60827000 -3.4560904100000016 0 0 0
In 0.00000000 6.91240500 -1.152119840000001 0 0 0
In 0.02678520 4.61610406 1.17015115
In 0.07344749 6.91240500 3.67004399
In 3.25854000 0.00000000 -3.4560904100000016 0 0 0
In 3.25854000 2.30413500 -1.152119840000001 0 0 0
In 3.23181997 9.20870594 1.17015115
In 3.55500197 2.30413500 3.49457514
In 3.25854000 4.60827000 -3.4560904100000016 0 0 0
In 3.25854000 6.91240500 -1.152119840000001 0 0 0
In 3.23175480 4.61610406 1.17015115
In 3.18509251 6.91240500 3.67004399
Rh 1.62927000 2.30413500 -3.4560904100000016 0 0 0
Rh 1.62927000 0.00000000 -1.152119840000001 0 0 0
Rh 1.62927000 2.30413500 1.09345081
Rh 1.62927000 0.33861568 3.50103412
Rh 1.62927000 6.91240500 -3.4560904100000016 0 0 0
Rh 1.62927000 4.60827000 -1.152119840000001 0 0 0
Rh 1.62927000 6.91240500 1.17015115
Rh 1.62927000 4.26965432 3.50103412
Rh 4.88781000 2.30413500 -3.4560904100000016 0 0 0
Rh 4.88781000 0.00000000 -1.152119840000001 0 0 0
Rh 4.88781000 2.30413500 1.04420112
Rh 4.88781000 9.07340713 3.30430447
Rh 4.88781000 6.91240500 -3.4560904100000016 0 0 0
Rh 4.88781000 4.60827000 -1.152119840000001 0 0 0
Rh 4.88781000 6.91231283 1.11794110
Rh 4.88781000 4.75140287 3.30430447
C 1.62927000 2.30413500 4.34931296
