&CONTROL
calculation = 'relax'
prefix = 'scf'
pseudo_dir = '/vol0004/mdt0/data/hp150275/u10028/POT_KKJUS'
outdir = './data'
tprnfor = .true.
nstep = 50
disk_io = 'non'
/
&SYSTEM
ibrav = 0
ecutwfc = 50.0
ecutrho = 400
occupations = 'smearing'
smearing = 'mp'
degauss = 0.01
assume_isolated = 'esm'
esm_bc = 'bc1'
input_dft = 'BEEF-VDW'
nosym = .true.
nspin = 1
ntyp = 3
nat = 33
/
&ELECTRONS
electron_maxstep = 200
mixing_beta = 0.1
conv_thr = 1e-06
/
&IONS
ion_dynamics = 'bfgs'
upscale = 1.0
/
&CELL
/

K_POINTS {automatic}
8 8 1 0 0 0

ATOMIC_SPECIES
C 12.01 C.pbe-n-rrkjus_psl.1.0.0.UPF
In 114.8 In.pbe-dn-rrkjus_psl.1.0.0.UPF
Mg 24.30 Mg.pbe-spnl-rrkjus_psl.1.0.0.UPF

CELL_PARAMETERS {angstrom}
9.03947000 0.00000000 0.00000000
-0.00000000 9.03947000 0.00000000
0.00000000 0.00000000 26.77960000

ATOMIC_POSITIONS {angstrom}
Mg 0.00000000 2.25986750 -1.1298313199999974 0 0 0
Mg 2.25986750 0.00000000 -1.1298313199999974 0 0 0
Mg 2.25986750 2.25986750 -3.38976177 0 0 0
Mg 0.00000000 2.25986750 3.38976177
Mg 2.25986750 -0.00000000 3.38976177
Mg 2.25986750 2.25986750 1.12983132
Mg 0.00000000 6.77960250 -1.1298313199999974 0 0 0
Mg 2.25986750 4.51973500 -1.1298313199999974 0 0 0
Mg 2.25986750 6.77960250 -3.38976177 0 0 0
Mg 0.00000000 6.77960250 3.38976177
Mg 2.25986750 4.51973500 3.38976177
Mg 2.25986750 6.77960250 1.12983132
Mg 4.51973500 2.25986750 -1.1298313199999974 0 0 0
Mg 6.77960250 0.00000000 -1.1298313199999974 0 0 0
Mg 6.77960250 2.25986750 -3.38976177 0 0 0
Mg 4.51973500 2.25986750 3.38976177
Mg 6.77960250 -0.00000000 3.38976177
Mg 6.77960250 2.25986750 1.12983132
Mg 4.51973500 6.77960250 -1.1298313199999974 0 0 0
Mg 6.77960250 4.51973500 -1.1298313199999974 0 0 0
Mg 6.77960250 6.77960250 -3.38976177 0 0 0
Mg 4.51973500 6.77960250 3.38976177
Mg 6.77960250 4.51973500 3.38976177
Mg 6.77960250 6.77960250 1.12983132
In 0.00000000 0.00000000 -3.38976177 0 0 0
In 0.00000000 0.00000000 1.12983132
In 0.00000000 4.51973500 -3.38976177 0 0 0
In 0.00000000 4.51973500 1.12983132
In 4.51973500 0.00000000 -3.38976177 0 0 0
In 4.51973500 -0.00000000 1.12983132
In 4.51973500 4.51973500 -3.38976177 0 0 0
In 4.51973500 4.51973500 1.12983132
C 0.00000000 0.00000000 4.18966842
