&CONTROL
calculation = 'relax'
prefix = 'scf'
pseudo_dir = '/vol0004/mdt0/data/hp150275/u10028/POT_KKJUS'
outdir = './data'
tprnfor = .true.
nstep = 50
disk_io = 'non'
/
&SYSTEM
ibrav = 0
ecutwfc = 50.0
ecutrho = 400
occupations = 'smearing'
smearing = 'mp'
degauss = 0.01
assume_isolated = 'esm'
esm_bc = 'bc1'
input_dft = 'BEEF-VDW'
nosym = .true.
nspin = 1
ntyp = 4
nat = 33
/
&ELECTRONS
electron_maxstep = 200
mixing_beta = 0.1
conv_thr = 1e-06
/
&IONS
ion_dynamics = 'bfgs'
upscale = 1.0
/
&CELL
/

K_POINTS {automatic}
9 6 2 0  0  0

ATOMIC_SPECIES
C 12.01 C.pbe-n-rrkjus_psl.1.0.0.UPF
Cu 63.54 Cu.pbe-dn-rrkjus_psl.1.0.0.UPF
In 114.8 In.pbe-dn-rrkjus_psl.1.0.0.UPF
Sc 44.95 Sc.pbe-spn-rrkjus_psl.1.0.0.UPF

CELL_PARAMETERS {angstrom}
6.46446000 0.00000000 0.00000000
0.00000000 9.14213000 0.00000000
0.00000000 0.00000000 26.85660000

ATOMIC_POSITIONS {angstrom}
Sc 0.00000000 0.00000000 -3.4282449899999996 0 0 0
Sc 3.23223000 2.28553250 -1.1427483299999999 0 0 0
Sc 3.23223000 6.85659750 -1.1427483299999999 0 0 0
Sc 0.00000000 4.57106500 -3.4282449899999996 0 0 0
Sc 0.00000000 4.57106500 1.16933636
Sc 3.23223000 7.00725980 3.47255838
Sc 3.23223000 2.13487020 3.47255838
Sc 0.00000000 0.00000000 1.18625602
In 0.00000000 6.85659750 -1.1427483299999999 0 0 0
In 3.23223000 0.00000000 -3.4282449899999996 0 0 0
In 0.00000000 2.28553250 -1.1427483299999999 0 0 0
In 3.23223000 4.57106500 -3.4282449899999996 0 0 0
In 0.00000000 2.40639146 3.45322163
In 3.23223000 4.57106500 1.06808698
In 0.00000000 6.73573854 3.45322163
In 3.23223000 0.00000000 1.17631908
Cu 1.61611500 0.00000000 -1.1427483299999999 0 0 0
Cu 4.84834500 4.57106500 -1.1427483299999999 0 0 0
Cu 4.84834500 0.00000000 -1.1427483299999999 0 0 0
Cu 1.61611500 4.57106500 -1.1427483299999999 0 0 0
Cu 4.84834500 6.85659750 -3.4282449899999996 0 0 0
Cu 1.61611500 2.28553250 -3.4282449899999996 0 0 0
Cu 1.61611500 6.85659750 -3.4282449899999996 0 0 0
Cu 4.84834500 2.28553250 -3.4282449899999996 0 0 0
Cu 1.77895475 4.57106500 3.37372609
Cu 5.18029502 0.00000000 3.63960643
Cu 4.68550525 4.57106500 3.37372609
Cu 1.28410033 0.00000000 3.63960643
Cu 4.83250707 2.30829640 1.14167407
Cu 1.63195293 6.83383360 1.14167407
Cu 1.63195293 2.30829640 1.14167407
Cu 4.83250707 6.83383360 1.14167407
C 3.23223000 0.00000000 3.76798098
