&CONTROL
calculation = 'relax'
prefix = 'scf'
pseudo_dir = '/vol0004/mdt0/data/hp150275/u10028/POT_KKJUS'
outdir = './data'
tprnfor = .true.
nstep = 50
disk_io = 'non'
/
&SYSTEM
ibrav = 0
ecutwfc = 50.0
ecutrho = 400
occupations = 'smearing'
smearing = 'mp'
degauss = 0.01
assume_isolated = 'esm'
esm_bc = 'bc1'
input_dft = 'BEEF-VDW'
nosym = .true.
nspin = 1
ntyp = 4
nat = 18
/
&ELECTRONS
electron_maxstep = 200
mixing_beta = 0.1
conv_thr = 1e-06
/
&IONS
ion_dynamics = 'bfgs'
upscale = 1.0
/
&CELL
/

K_POINTS {automatic}
9 9 2 0  0  0

ATOMIC_SPECIES
C 12.01 C.pbe-n-rrkjus_psl.1.0.0.UPF
Ir 192.2 Ir.pbe-n-rrkjus_psl.0.2.3.UPF
O 15.99 O.pbe-n-rrkjus_psl.1.0.0.UPF
Y 88.90 Y.pbe-spn-rrkjus_psl.1.0.0.UPF

CELL_PARAMETERS {angstrom}
6.88160000 0.00000000 0.00000000
-0.00000000 6.88160000 0.00000000
0.00000000 0.00000000 25.16120000

ATOMIC_POSITIONS {angstrom}
Y 1.72040000 1.72040000 -0.5439851400000002 0 0 0
Y 1.72040000 1.72040000 2.89680896
Y 1.72040000 5.16120000 -0.5439851400000002 0 0 0
Y 1.72040000 5.16120000 2.89680896
Y 5.16120000 1.72040000 -0.5439851400000002 0 0 0
Y 5.16120000 1.72040000 2.89680896
Y 5.16120000 5.16120000 -0.5439851400000002 0 0 0
Y 5.16120000 5.16120000 2.89680896
Ir 0.00000000 0.00000000 -2.2645079999999993 0 0 0
Ir 0.00000000 0.00000000 1.17628610
Ir 0.00000000 3.44080000 -2.2645079999999993 0 0 0
Ir 0.00000000 3.44080000 1.17628610
Ir 3.44080000 0.00000000 -2.2645079999999993 0 0 0
Ir 3.44080000 -0.00000000 1.17628610
Ir 3.44080000 3.44080000 -2.2645079999999993 0 0 0
Ir 3.44080000 3.44080000 1.17628610
C 1.72040000 1.72040000 4.79673117
O 1.72040000 1.72040000 5.94659801
