&CONTROL
calculation = 'relax'
prefix = 'scf'
pseudo_dir = '/vol0004/mdt0/data/hp150275/u10028/POT_KKJUS'
outdir = './data'
tprnfor = .true.
nstep = 50
disk_io = 'non'
/
&SYSTEM
ibrav = 0
ecutwfc = 50.0
ecutrho = 400
occupations = 'smearing'
smearing = 'mp'
degauss = 0.01
assume_isolated = 'esm'
esm_bc = 'bc1'
input_dft = 'BEEF-VDW'
nosym = .true.
nspin = 1
ntyp = 3
nat = 17
/
&ELECTRONS
electron_maxstep = 200
mixing_beta = 0.1
conv_thr = 1e-06
/
&IONS
ion_dynamics = 'bfgs'
upscale = 1.0
/
&CELL
/

K_POINTS {automatic}
8 11 2 0  0  0

ATOMIC_SPECIES
C 12.01 C.pbe-n-rrkjus_psl.1.0.0.UPF
Pt 195.0 Pt.pbe-n-rrkjus_psl.1.0.0.UPF
V 50.94 V.pbe-spnl-rrkjus_psl.1.0.0.UPF

CELL_PARAMETERS {angstrom}
7.87849000 0.00000000 0.00000000
0.00000000 5.57094000 0.00000000
0.00000000 0.00000000 24.17820000

ATOMIC_POSITIONS {angstrom}
V 0.00000000 0.00000000 -2.0889964799999987 0 0 0
V 0.00000000 2.78547000 0.69512325
V 3.93924500 0.00000000 -2.0889964799999987 0 0 0
V 3.93924500 2.78547000 1.03313449
Pt 0.00000000 2.78547000 -2.0889964799999987 0 0 0
Pt 1.96962250 4.17820500 -0.6963321600000008 0 0 0
Pt 1.96962250 1.39273500 -0.6963321600000008 0 0 0
Pt 0.00000000 0.00000000 0.52321625
Pt 1.81228905 1.45524095 2.10833904
Pt 1.81228905 4.11569905 2.10833904
Pt 3.93924500 2.78547000 -2.0889964799999987 0 0 0
Pt 5.90886750 4.17820500 -0.6963321600000008 0 0 0
Pt 5.90886750 1.39273500 -0.6963321600000008 0 0 0
Pt 3.93924500 0.00000000 0.84188492
Pt 6.06620095 1.45524095 2.10833904
Pt 6.06620095 4.11569905 2.10833904
C 0.00000000 2.78547000 2.54668981
