&CONTROL
calculation = 'relax'
prefix = 'scf'
pseudo_dir = '/vol0004/mdt0/data/hp150275/u10028/POT_HYBRID_KKJUS_GBRV'
outdir = './data'
tprnfor = .true.
nstep = 50
disk_io = 'non'
/
&SYSTEM
ibrav = 0
ecutwfc = 50.0
ecutrho = 400
occupations = 'smearing'
smearing = 'mp'
degauss = 0.01
assume_isolated = 'esm'
esm_bc = 'bc1'
input_dft = 'BEEF-VDW'
nosym = .true.
nspin = 2
ntyp = 4
nat = 33
starting_magnetization(1) = 0.0
starting_magnetization(2) = 0.1
starting_magnetization(3) = 0.1
starting_magnetization(4) = 0.0
/
&ELECTRONS
electron_maxstep = 200
mixing_beta = 0.1
conv_thr = 1e-06
/
&IONS
ion_dynamics = 'bfgs'
upscale = 1.0
/
&CELL
/

K_POINTS {automatic}
9 6 2 0  0  0

ATOMIC_SPECIES
C 12.01 C.pbe-n-rrkjus_psl.1.0.0.UPF
Co 58.93 co_pbe_v1.2.uspp.F.UPF
Fe 55.84 fe_pbe_v1.5.uspp.F.UPF
Ga 69.72 Ga.pbe-dnl-rrkjus_psl.1.0.0.UPF

CELL_PARAMETERS {angstrom}
5.74310000 0.00000000 0.00000000
0.00000000 8.12197000 0.00000000
0.00000000 0.00000000 26.09150000

ATOMIC_POSITIONS {angstrom}
Ga 0.00000000 0.00000000 23.04583921
Ga 2.87155000 2.03049250 25.07627973
Ga 2.87155000 6.09147750 25.07627973
Ga 0.00000000 4.06098500 23.04583921
Ga 0.00011486 4.06098500 1.00086994
Ga 2.87143514 6.06102011 3.25569737
Ga 2.87143514 2.06094989 3.25569737
Ga 0.00011486 0.00000000 0.95390524
Fe 0.00000000 6.09147750 25.07627973
Fe 2.87155000 0.00000000 23.04583921
Fe 0.00000000 2.03049250 25.07627973
Fe 2.87155000 4.06098500 23.04583921
Fe 0.00005743 2.10643292 3.00704538
Fe 2.87149257 4.06098500 0.99643439
Fe 0.00005743 6.01553708 3.00704538
Fe 2.87149257 0.00000000 1.01939490
Co 1.43577500 0.00000000 25.07627973
Co 4.30732500 4.06098500 25.07627973
Co 4.30732500 0.00000000 25.07627973
Co 1.43577500 4.06098500 25.07627973
Co 4.30732500 6.09147750 23.04583921
Co 1.43577500 2.03049250 23.04583921
Co 1.43577500 6.09147750 23.04583921
Co 4.30732500 2.03049250 23.04583921
Co 1.48619942 4.06098500 2.97208277
Co 4.42672405 0.00000000 3.04539988
Co 4.25690058 4.06098500 2.97208277
Co 1.31643338 0.00000000 3.04539988
Co 4.29026799 2.01741613 1.06035856
Co 1.45283201 6.10455387 1.06009764
Co 1.45283201 2.01741613 1.06035856
Co 4.29026799 6.10455387 1.06009764
C 2.87155000 0.00000000 3.85841102
