&CONTROL
calculation = 'relax'
prefix = 'scf'
pseudo_dir = '/vol0004/mdt0/data/hp150275/u10028/POT_HYBRID_KKJUS_GBRV'
outdir = './data'
tprnfor = .true.
nstep = 50
disk_io = 'non'
/
&SYSTEM
ibrav = 0
ecutwfc = 50.0
ecutrho = 400
occupations = 'smearing'
smearing = 'mp'
degauss = 0.01
assume_isolated = 'esm'
esm_bc = 'bc1'
input_dft = 'BEEF-VDW'
nosym = .true.
nspin = 2
ntyp = 4
nat = 17
starting_magnetization(1) = 0.1
starting_magnetization(2) = 0.1
starting_magnetization(3) = 0.1
starting_magnetization(4) = 0.1
/
&ELECTRONS
electron_maxstep = 200
mixing_beta = 0.1
conv_thr = 1e-06
/
&IONS
ion_dynamics = 'bfgs'
upscale = 1.0
/
&CELL
/

K_POINTS {automatic}
8 8 1 0 0 0

ATOMIC_SPECIES
C 12.01 C.pbe-n-rrkjus_psl.1.0.0.UPF
Ni 58.69 ni_pbe_v1.4.uspp.F.UPF
Sn 118.7 Sn.pbe-dn-rrkjus_psl.1.0.0.UPF
Zr 91.22 Zr.pbe-spn-rrkjus_psl.1.0.0.UPF

CELL_PARAMETERS {angstrom}
6.34024000 0.00000000 0.00000000
-0.00000000 6.34024000 0.00000000
0.00000000 0.00000000 24.75520000

ATOMIC_POSITIONS {angstrom}
Zr 0.00000000 0.00000000 -2.377489409999999 0 0 0
Zr 3.17012000 3.17012000 -2.377489409999999 0 0 0
Zr 3.17012000 -0.00000000 0.79241395
Zr 0.00000000 3.17012000 0.79241395
Ni 1.58506000 1.58506000 -0.7924139500000003 0 0 0
Ni 4.75518000 4.75518000 2.37748941
Ni 4.75518000 1.58506000 -0.7924139500000003 0 0 0
Ni 1.58506000 4.75518000 2.37748941
Ni 4.75518000 4.75518000 -0.7924139500000003 0 0 0
Ni 1.58506000 1.58506000 2.37748941
Ni 1.58506000 4.75518000 -0.7924139500000003 0 0 0
Ni 4.75518000 1.58506000 2.37748941
Sn 0.00000000 0.00000000 0.79241395
Sn 3.17012000 0.00000000 -2.377489409999999 0 0 0
Sn 0.00000000 3.17012000 -2.377489409999999 0 0 0
Sn 3.17012000 3.17012000 0.79241395
C 0.00000000 3.17012000 3.17757747
