&CONTROL
calculation = 'relax'
prefix = 'scf'
pseudo_dir = '/vol0004/mdt0/data/hp150275/u10028/POT_KKJUS'
outdir = './data'
tprnfor = .true.
nstep = 50
disk_io = 'non'
/
&SYSTEM
ibrav = 0
ecutwfc = 50.0
ecutrho = 400
occupations = 'smearing'
smearing = 'mp'
degauss = 0.01
assume_isolated = 'esm'
esm_bc = 'bc1'
input_dft = 'BEEF-VDW'
nosym = .true.
nspin = 1
ntyp = 3
nat = 33
/
&ELECTRONS
electron_maxstep = 200
mixing_beta = 0.1
conv_thr = 1e-06
/
&IONS
ion_dynamics = 'bfgs'
upscale = 1.0
/
&CELL
/

K_POINTS {automatic}
9 6 2 0  0  0

ATOMIC_SPECIES
Au 196.9 Au.pbe-n-rrkjus_psl.1.0.0.UPF
C 12.01 C.pbe-n-rrkjus_psl.1.0.0.UPF
Ti 47.86 Ti.pbe-spn-rrkjus_psl.1.0.0.UPF

CELL_PARAMETERS {angstrom}
6.57738000 0.00000000 0.00000000
0.00000000 9.30182000 0.00000000
0.00000000 0.00000000 26.97640000

ATOMIC_POSITIONS {angstrom}
Ti 1.64434500 2.32545500 -3.4883182800000014 0 0 0
Ti 1.64434500 0.00000000 -1.1626828400000022 0 0 0
Ti 1.57890007 2.33578002 1.27625348
Ti 1.46129651 4.65100302 3.26819086
Ti 1.64434500 6.97636500 -3.4883182800000014 0 0 0
Ti 1.64434500 4.65091000 -1.1626828400000022 0 0 0
Ti 1.57903162 6.96576093 1.27625348
Ti 1.62724381 0.00018604 3.45972330
Ti 4.93303500 2.32545500 -3.4883182800000014 0 0 0
Ti 4.93303500 0.00000000 -1.1626828400000022 0 0 0
Ti 4.99841416 2.33587304 1.27625348
Ti 5.11608349 4.65100302 3.26819086
Ti 4.93303500 6.97636500 -3.4883182800000014 0 0 0
Ti 4.93303500 4.65091000 -1.1626828400000022 0 0 0
Ti 4.99834838 6.96566791 1.27625348
Ti 4.95013619 0.00018604 3.45972330
Au 0.00000000 0.00000000 -3.4883182800000014 0 0 0
Au 0.00000000 2.32545500 -1.1626828400000022 0 0 0
Au 6.57718268 9.30135491 1.08121411
Au 6.57718268 2.37215014 3.74162668
Au 0.00000000 4.65091000 -3.4883182800000014 0 0 0
Au 0.00000000 6.97636500 -1.1626828400000022 0 0 0
Au 6.57731423 4.65109604 0.91369067
Au 6.57711690 6.92994892 3.74162668
Au 3.28869000 0.00000000 -3.4883182800000014 0 0 0
Au 3.28869000 2.32545500 -1.1626828400000022 0 0 0
Au 3.28882155 9.30144793 1.02564273
Au 3.28888732 2.33094307 3.41494248
Au 3.28869000 4.65091000 -3.4883182800000014 0 0 0
Au 3.28869000 6.97636500 -1.1626828400000022 0 0 0
Au 3.28875577 4.65100302 1.10846028
Au 3.28888732 6.97096994 3.41467271
C 0.00000000 9.30135491 4.42628771
