&CONTROL
calculation = 'relax'
prefix = 'scf'
pseudo_dir = '/vol0004/mdt0/data/hp150275/u10028/POT_KKJUS'
outdir = './data'
tprnfor = .true.
nstep = 50
disk_io = 'non'
/
&SYSTEM
ibrav = 0
ecutwfc = 50.0
ecutrho = 400
occupations = 'smearing'
smearing = 'mp'
degauss = 0.01
assume_isolated = 'esm'
esm_bc = 'bc1'
input_dft = 'BEEF-VDW'
nosym = .true.
nspin = 1
ntyp = 5
nat = 34
/
&ELECTRONS
electron_maxstep = 200
mixing_beta = 0.1
conv_thr = 1e-06
/
&IONS
ion_dynamics = 'bfgs'
upscale = 1.0
/
&CELL
/

K_POINTS {automatic}
9 6 2 0  0  0

ATOMIC_SPECIES
C 12.01 C.pbe-n-rrkjus_psl.1.0.0.UPF
Ga 69.72 Ga.pbe-dnl-rrkjus_psl.1.0.0.UPF
Li 6.941 Li.pbe-sl-rrkjus_psl.1.0.0.UPF
O 15.99 O.pbe-n-rrkjus_psl.1.0.0.UPF
Pt 195.0 Pt.pbe-n-rrkjus_psl.1.0.0.UPF

CELL_PARAMETERS {angstrom}
6.22326000 0.00000000 0.00000000
0.00000000 8.80102000 0.00000000
0.00000000 0.00000000 26.60080000

ATOMIC_POSITIONS {angstrom}
Li 0.00000000 0.00000000 -3.300361259999999 0 0 0
Li 3.11163000 2.20025500 -1.10020909 0 0 0
Li 3.11163000 6.60076500 -1.10020909 0 0 0
Li 0.00000000 4.40051000 -3.300361259999999 0 0 0
Li 0.00006223 4.39047684 1.17761742
Li 3.11163000 6.60076500 4.06008010
Li 3.11163000 2.20025500 4.23325131
Li 0.00006223 0.01003316 1.17761742
Ga 1.55581500 0.00000000 -1.10020909 0 0 0
Ga 4.66744500 4.40051000 -1.10020909 0 0 0
Ga 4.66744500 0.00000000 -1.10020909 0 0 0
Ga 1.55581500 4.40051000 -1.10020909 0 0 0
Ga 4.66744500 6.60076500 -3.300361259999999 0 0 0
Ga 1.55581500 2.20025500 -3.300361259999999 0 0 0
Ga 1.55581500 6.60076500 -3.300361259999999 0 0 0
Ga 4.66744500 2.20025500 -3.300361259999999 0 0 0
Ga 1.51754195 4.39848577 3.56397518
Ga 4.70559358 0.00202423 3.56370918
Ga 4.70546912 4.39857378 3.56370918
Ga 1.51766642 0.00202423 3.56370918
Ga 4.55237692 2.20025500 1.26699610
Ga 1.65383134 6.60076500 1.25156764
Ga 1.67094531 2.20025500 1.26699610
Ga 4.56949089 6.60076500 1.25130163
Pt 0.00000000 6.60076500 -1.10020909 0 0 0
Pt 3.11163000 0.00000000 -3.300361259999999 0 0 0
Pt 0.00000000 2.20025500 -1.10020909 0 0 0
Pt 3.11163000 4.40051000 -3.300361259999999 0 0 0
Pt 0.00000000 2.20025500 3.18810588
Pt 3.11169223 4.40623066 0.99194383
Pt 0.00000000 6.60076500 3.18305173
Pt 3.11163000 8.79529934 0.99194383
C 3.11163000 2.20025500 6.34774890
O 3.11163000 2.20025500 7.48519911
