&CONTROL
calculation = 'relax'
prefix = 'scf'
pseudo_dir = '/vol0403/data/hp230205/u10028/POT_HYBRID_KKJUS_GBRV'
outdir = './data'
tprnfor = .true.
nstep = 50
disk_io = 'non'
/
&SYSTEM
ibrav = 0
ecutwfc = 50.0
ecutrho = 400
occupations = 'smearing'
smearing = 'mp'
degauss = 0.01
assume_isolated = 'esm'
esm_bc = 'bc1'
input_dft = 'BEEF-VDW'
nosym = .true.
nspin = 1
ntyp = 6
nat = 34
/
&ELECTRONS
electron_maxstep = 200
mixing_beta = 0.1
conv_thr = 1e-06
/
&IONS
ion_dynamics = 'bfgs'
upscale = 1.0
/
&CELL
/

K_POINTS {automatic}
8 6 2 0  0  0

ATOMIC_SPECIES
Ag 107.8 Ag.pbe-n-rrkjus_psl.1.0.0.UPF
C 12.01 C.pbe-n-rrkjus_psl.1.0.0.UPF
Li 6.941 Li.pbe-sl-rrkjus_psl.1.0.0.UPF
O 15.99 O.pbe-n-rrkjus_psl.1.0.0.UPF
Sn 118.7 Sn.pbe-dn-rrkjus_psl.1.0.0.UPF
Y 88.90 Y.pbe-spn-rrkjus_psl.1.0.0.UPF


CELL_PARAMETERS {angstrom}
7.11214000 0.00000000 0.00000000
0.00000000 10.05810000 0.00000000
0.00000000 0.00000000 27.54360000

ATOMIC_POSITIONS {angstrom}
Li 1.77803500 0.00000000 -1.2573653399999998 0 0 0
Li 1.77803500 5.02905000 -1.2573653399999998 0 0 0
Li 5.33410500 2.51452500 -3.77182058 0 0 0
Li 5.33410500 7.54357500 -3.77182058 0 0 0
Li 1.71836415 5.02905000 3.68037583
Li 1.75442270 0.00000000 3.69359676
Li 5.36874112 7.56670863 1.25764078
Li 5.36874112 2.49139137 1.25764078
Y 5.33410500 0.00000000 -1.2573653399999998 0 0 0
Y 5.33410500 5.02905000 -1.2573653399999998 0 0 0
Y 1.77803500 2.51452500 -3.77182058 0 0 0
Y 1.77803500 7.54357500 -3.77182058 0 0 0
Y 5.45863857 5.02905000 3.95002768
Y 5.47478313 0.00000000 3.72664908
Y 1.76352623 7.47950490 1.29840530
Y 1.76352623 2.57859510 1.29840530
Ag 0.00000000 0.00000000 -3.77182058 0 0 0
Ag 0.00000000 5.02905000 -3.77182058 0 0 0
Ag 3.55607000 7.54357500 -1.2573653399999998 0 0 0
Ag 3.55607000 2.51452500 -1.2573653399999998 0 0 0
Ag 6.96705234 5.02905000 1.34660660
Ag 0.10234369 0.00000000 1.17859064
Ag 3.60862871 2.52025812 3.63906043
Ag 3.60862871 7.53784188 3.63906043
Sn 0.00000000 2.51452500 -1.2573653399999998 0 0 0
Sn 0.00000000 7.54357500 -1.2573653399999998 0 0 0
Sn 3.55607000 5.02905000 -3.77182058 0 0 0
Sn 3.55607000 0.00000000 -3.77182058 0 0 0
Sn 0.15106185 7.54729650 4.00208508
Sn 0.15099073 2.51080350 4.00208508
Sn 3.51745108 0.00000000 1.30474033
Sn 3.68899590 5.02905000 1.40582534
C 5.37044804 0.00000000 6.18519082
O 5.35252544 0.00000000 7.33375894
