&CONTROL
calculation = 'relax'
prefix = 'scf'
pseudo_dir = '/vol0403/data/hp230205/u10028/POT_HYBRID_KKJUS_GBRV'
outdir = './data'
tprnfor = .true.
nstep = 50
disk_io = 'non'
/
&SYSTEM
ibrav = 0
ecutwfc = 50.0
ecutrho = 400
occupations = 'smearing'
smearing = 'mp'
degauss = 0.01
assume_isolated = 'esm'
esm_bc = 'bc1'
input_dft = 'BEEF-VDW'
nosym = .true.
nspin = 1
ntyp = 6
nat = 18
/
&ELECTRONS
electron_maxstep = 200
mixing_beta = 0.1
conv_thr = 1e-06
/
&IONS
ion_dynamics = 'bfgs'
upscale = 1.0
/
&CELL
/

K_POINTS {automatic}
8 11 2 0  0  0

ATOMIC_SPECIES
Al 26.98 Al.pbe-nl-rrkjus_psl.1.0.0.UPF
C 12.01 C.pbe-n-rrkjus_psl.1.0.0.UPF
Cu 63.54 Cu.pbe-dn-rrkjus_psl.1.0.0.UPF
Ge 72.64 Ge.pbe-dn-rrkjus_psl.1.0.0.UPF
Li 6.941 Li.pbe-sl-rrkjus_psl.1.0.0.UPF
O 15.99 O.pbe-n-rrkjus_psl.1.0.0.UPF


CELL_PARAMETERS {angstrom}
7.61632000 0.00000000 0.00000000
0.00000000 5.50126000 0.00000000
0.00000000 0.00000000 24.12590000

ATOMIC_POSITIONS {angstrom}
Li 0.00000000 2.48491914 2.27024719
Li 0.00000000 5.49713406 -0.6875881499999998 0 0 0
Li 3.80816000 2.56518253 2.31222626
Li 3.80816000 5.49713406 -0.6875881499999998 0 0 0
Al 0.00000000 5.16001684 1.83332714
Al 0.00000000 2.74650406 -0.6875881499999998 0 0 0
Al 3.80816000 5.29248718 2.02512805
Al 3.80816000 2.74650406 -0.6875881499999998 0 0 0
Cu 1.94482731 3.96668352 0.72329448
Cu 1.90408000 1.36909858 -2.0630057100000023 0 0 0
Cu 5.67156885 3.96662851 0.72329448
Cu 5.71224000 1.36909858 -2.0630057100000023 0 0 0
Ge 1.92753827 1.27992315 0.83017222
Ge 1.90408000 4.11972858 -2.0630057100000023 0 0 0
Ge 5.68870557 1.27997816 0.83017222
Ge 5.71224000 4.11972858 -2.0630057100000023 0 0 0
C 7.61624384 5.45070342 3.76557047
O 7.61616767 0.08427930 4.92144234
