&CONTROL
calculation = 'relax'
prefix = 'scf'
pseudo_dir = '/vol0403/data/hp230205/u10028/POT_HYBRID_KKJUS_GBRV'
outdir = './data'
tprnfor = .true.
nstep = 50
disk_io = 'non'
/
&SYSTEM
ibrav = 0
ecutwfc = 50.0
ecutrho = 400
occupations = 'smearing'
smearing = 'mp'
degauss = 0.01
assume_isolated = 'esm'
esm_bc = 'bc1'
input_dft = 'BEEF-VDW'
nosym = .true.
nspin = 1
ntyp = 4
nat = 16
/
&ELECTRONS
electron_maxstep = 200
mixing_beta = 0.1
conv_thr = 1e-06
/
&IONS
ion_dynamics = 'bfgs'
upscale = 1.0
/
&CELL
/

K_POINTS {automatic}
6 6 1 0 0 0

ATOMIC_SPECIES
Al 26.98 Al.pbe-nl-rrkjus_psl.1.0.0.UPF
Ge 72.64 Ge.pbe-dn-rrkjus_psl.1.0.0.UPF
Li 6.941 Li.pbe-sl-rrkjus_psl.1.0.0.UPF
Pd 106.4 Pd.pbe-n-rrkjus_psl.1.0.0.UPF


CELL_PARAMETERS {angstrom}
5.46300000 0.00000000 0.00000000
0.00000000 8.09626000 0.00000000
0.00000000 0.00000000 24.08560000

ATOMIC_POSITIONS {angstrom}
Li 4.00153824 2.02406500 0.73388823
Li 1.05741828 2.02406500 -2.0426997399999998 0 0 0
Li 4.00153824 6.07219500 0.73388823
Li 1.05741828 6.07219500 -2.0426997399999998 0 0 0
Al 5.34702051 0.00000000 1.95695500
Al 2.52592731 0.00000000 -0.6808999100000008 0 0 0
Al 5.34696588 4.04813000 1.95695500
Al 2.52592731 4.04813000 -0.6808999100000008 0 0 0
Ge 1.26293634 2.02406500 0.98943645
Ge 3.78891828 2.02406500 -2.0426997399999998 0 0 0
Ge 1.26288171 6.07211404 0.98943645
Ge 3.78891828 6.07219500 -2.0426997399999998 0 0 0
Pd 2.74553991 0.00000000 1.88253050
Pd 5.25742731 0.00000000 -0.6808999100000008 0 0 0
Pd 2.74559454 4.04813000 1.88253050
Pd 5.25742731 4.04813000 -0.6808999100000008 0 0 0
