&CONTROL
calculation = 'relax'
prefix = 'scf'
pseudo_dir = '/vol0403/data/hp230205/u10028/POT_HYBRID_KKJUS_GBRV'
outdir = './data'
tprnfor = .true.
nstep = 50
disk_io = 'non'
/
&SYSTEM
ibrav = 0
ecutwfc = 50.0
ecutrho = 400
occupations = 'smearing'
smearing = 'mp'
degauss = 0.01
assume_isolated = 'esm'
esm_bc = 'bc1'
input_dft = 'BEEF-VDW'
nosym = .true.
nspin = 2
ntyp = 6
nat = 34
starting_magnetization(1) = 0.0
starting_magnetization(2) = 0.0
starting_magnetization(3) = 0.0
starting_magnetization(4) = 0.001
starting_magnetization(5) = 0.0
starting_magnetization(6) = 0.0
/
&ELECTRONS
electron_maxstep = 200
mixing_beta = 0.1
conv_thr = 1e-06
/
&IONS
ion_dynamics = 'bfgs'
upscale = 1.0
/
&CELL
/

K_POINTS {automatic}
6 6 1 0 0 0

ATOMIC_SPECIES
C 12.01 C.pbe-n-rrkjus_psl.1.0.0.UPF
Ga 69.72 Ga.pbe-dnl-rrkjus_psl.1.0.0.UPF
Li 6.941 Li.pbe-sl-rrkjus_psl.1.0.0.UPF
Ni 58.69 ni_pbe_v1.4.uspp.F.UPF
O 15.99 O.pbe-n-rrkjus_psl.1.0.0.UPF
Pd 106.4 Pd.pbe-n-rrkjus_psl.1.0.0.UPF


CELL_PARAMETERS {angstrom}
5.93220000 0.00000000 0.00000000
0.00000000 8.38940000 0.00000000
0.00000000 0.00000000 26.29200000

ATOMIC_POSITIONS {angstrom}
Li 0.00000000 2.09735000 -1.0487878800000026 0 0 0
Li 0.00000000 6.29205000 -1.0487878800000026 0 0 0
Li 2.96610000 4.19470000 -3.1461007200000033 0 0 0
Li 2.96610000 0.00000000 -3.1461007200000033 0 0 0
Li 0.08115250 6.27938201 3.57071652
Li 0.08103385 2.11018578 3.57097944
Li 2.98247287 0.00016779 1.00829820
Li 2.99789659 4.19461611 0.97280400
Ga 0.00000000 0.00000000 -3.1461007200000033 0 0 0
Ga 0.00000000 4.19470000 -3.1461007200000033 0 0 0
Ga 2.96610000 6.29205000 -1.0487878800000026 0 0 0
Ga 2.96610000 2.09735000 -1.0487878800000026 0 0 0
Ga 0.01975423 4.19495168 1.02591384
Ga 0.00450847 8.38923221 1.02275880
Ga 2.97393050 2.12402829 3.16766016
Ga 2.97452372 6.26520392 3.16792308
Ni 1.48305000 0.00000000 -1.0487878800000026 0 0 0
Ni 1.48305000 4.19470000 -1.0487878800000026 0 0 0
Ni 4.44915000 2.09735000 -3.1461007200000033 0 0 0
Ni 4.44915000 6.29205000 -3.1461007200000033 0 0 0
Ni 1.62221941 4.19470000 2.94049728
Ni 1.54427030 0.00041947 3.13505808
Ni 4.50028556 6.29230168 1.06929564
Ni 4.49987031 2.09709832 1.06903272
Pd 4.44915000 0.00000000 -1.0487878800000026 0 0 0
Pd 4.44915000 4.19470000 -1.0487878800000026 0 0 0
Pd 1.48305000 2.09735000 -3.1461007200000033 0 0 0
Pd 1.48305000 6.29205000 -3.1461007200000033 0 0 0
Pd 4.44523475 4.19453221 3.04435068
Pd 4.41017545 0.00008389 3.03567432
Pd 1.47160085 6.31293961 1.07797200
Pd 1.47201611 2.07646039 1.07744616
C 1.16549933 0.00016779 4.85008524
O 1.05302482 8.38914832 6.00929952
