&CONTROL
calculation = 'relax'
prefix = 'scf'
pseudo_dir = '/vol0403/data/hp230205/u10028/POT_HYBRID_KKJUS_GBRV'
outdir = './data'
tprnfor = .true.
nstep = 50
disk_io = 'non'
/
&SYSTEM
ibrav = 0
ecutwfc = 50.0
ecutrho = 400
occupations = 'smearing'
smearing = 'mp'
degauss = 0.01
assume_isolated = 'esm'
esm_bc = 'bc1'
input_dft = 'BEEF-VDW'
nosym = .true.
nspin = 1
ntyp = 6
nat = 18
/
&ELECTRONS
electron_maxstep = 200
mixing_beta = 0.1
conv_thr = 1e-06
/
&IONS
ion_dynamics = 'bfgs'
upscale = 1.0
/
&CELL
/

K_POINTS {automatic}
6 6 1 0 0 0

ATOMIC_SPECIES
Ag 107.8 Ag.pbe-n-rrkjus_psl.1.0.0.UPF
Al 26.98 Al.pbe-nl-rrkjus_psl.1.0.0.UPF
C 12.01 C.pbe-n-rrkjus_psl.1.0.0.UPF
Ge 72.64 Ge.pbe-dn-rrkjus_psl.1.0.0.UPF
Li 6.941 Li.pbe-sl-rrkjus_psl.1.0.0.UPF
O 15.99 O.pbe-n-rrkjus_psl.1.0.0.UPF


CELL_PARAMETERS {angstrom}
7.71364000 0.00000000 0.00000000
0.00000000 5.86609000 0.00000000
0.00000000 0.00000000 24.39060000

ATOMIC_POSITIONS {angstrom}
Li 2.00739767 1.38422126 0.85684178
Li 1.92841000 4.11934438 -2.1953979100000005 0 0 0
Li 5.70624233 1.38422126 0.85684178
Li 5.78523000 4.11934438 -2.1953979100000005 0 0 0
Al 1.98055421 4.28482678 0.87952504
Al 1.92841000 1.18629938 -2.1953979100000005 0 0 0
Al 5.73308579 4.28482678 0.87952504
Al 5.78523000 1.18629938 -2.1953979100000005 0 0 0
Ag 0.00000000 5.82649389 2.16125107
Ag 0.00000000 2.74621003 -0.7317180000000008 0 0 0
Ag 3.85682000 0.01718764 2.32491199
Ag 3.85682000 2.74621003 -0.7317180000000008 0 0 0
Ge 0.00007714 2.77043699 2.20808102
Ge 0.00000000 5.67925503 -0.7317180000000008 0 0 0
Ge 3.85682000 2.99716136 2.28783828
Ge 3.85682000 5.67925503 -0.7317180000000008 0 0 0
C 0.00000000 2.89978427 4.17152432
O 7.71356286 3.00079834 5.32422407
