&CONTROL
calculation = 'relax'
prefix = 'scf'
pseudo_dir = '/vol0004/mdt0/data/hp150275/u10028/POT_HYBRID_KKJUS_GBRV'
outdir = './data'
tprnfor = .true.
nstep = 50
disk_io = 'non'
/
&SYSTEM
ibrav = 0
ecutwfc = 50.0
ecutrho = 400
occupations = 'smearing'
smearing = 'mp'
degauss = 0.01
assume_isolated = 'esm'
esm_bc = 'bc1'
input_dft = 'BEEF-VDW'
nosym = .true.
nspin = 2
ntyp = 3
nat = 32
starting_magnetization(1) = 0.0
starting_magnetization(2) = 0.1
starting_magnetization(3) = 0.0
/
&ELECTRONS
electron_maxstep = 300
mixing_beta = 0.1
conv_thr = 1e-06
/
&IONS
ion_dynamics = 'bfgs'
upscale = 1.0
/
&CELL
/

K_POINTS {automatic}
8 6 1 0 0 0

ATOMIC_SPECIES
Al 26.98 Al.pbe-nl-rrkjus_psl.1.0.0.UPF
Mn 54.93 mn_pbe_v1.5.uspp.F.UPF
V 50.94 V.pbe-spnl-rrkjus_psl.1.0.0.UPF

CELL_PARAMETERS {angstrom}
5.82937000 0.00000000 0.00000000
0.00000000 8.24397000 0.00000000
0.00000000 0.00000000 26.18300000

ATOMIC_POSITIONS {angstrom}
Mn 1.45734250 0.00000000 -1.0305628800000015 0 0 0
Mn 4.37202750 4.12198500 -1.0305628800000015 0 0 0
Mn 4.37202750 0.00000000 -1.0305628800000015 0 0 0
Mn 1.45734250 4.12198500 -1.0305628800000015 0 0 0
Mn 4.37202750 6.18297750 -3.0914268100000015 0 0 0
Mn 1.45734250 2.06099250 -3.0914268100000015 0 0 0
Mn 1.45734250 6.18297750 -3.0914268100000015 0 0 0
Mn 4.37202750 2.06099250 -3.0914268100000015 0 0 0
Mn 1.43589042 4.12198500 3.12729752
Mn 4.39347958 0.00000000 3.12729752
Mn 4.39347958 4.12198500 3.12729752
Mn 1.43589042 0.00000000 3.12729752
Mn 4.36310856 2.06091006 1.05517490
Mn 1.46626144 6.18297750 1.05543673
Mn 1.46626144 2.06099250 1.05543673
Mn 4.36310856 6.18305994 1.05517490
Al 0.00000000 0.00000000 -3.0914268100000015 0 0 0
Al 2.91468500 2.06099250 -1.0305628800000015 0 0 0
Al 2.91468500 6.18297750 -1.0305628800000015 0 0 0
Al 0.00000000 4.12198500 -3.0914268100000015 0 0 0
Al 0.00000000 4.12198500 1.01668589
Al 2.91468500 6.18297750 3.24145540
Al 2.91468500 2.06099250 3.24145540
Al 0.00000000 0.00000000 1.01668589
V 0.00000000 6.18297750 -1.0305628800000015 0 0 0
V 2.91468500 0.00000000 -3.0914268100000015 0 0 0
V 0.00000000 2.06099250 -1.0305628800000015 0 0 0
V 2.91468500 4.12198500 -3.0914268100000015 0 0 0
V 0.00005829 2.06099250 3.01863807
V 2.91468500 4.12198500 1.05726954
V 0.00000000 6.18289506 3.01889990
V 2.91462671 0.00000000 1.05753137
