&CONTROL
calculation = 'relax'
prefix = 'scf'
pseudo_dir = '/vol0004/mdt0/data/hp150275/u10028/POT_HYBRID_KKJUS_GBRV'
outdir = './data'
tprnfor = .true.
nstep = 50
disk_io = 'non'
/
&SYSTEM
ibrav = 0
ecutwfc = 50.0
ecutrho = 400
occupations = 'smearing'
smearing = 'mp'
degauss = 0.01
assume_isolated = 'esm'
esm_bc = 'bc1'
input_dft = 'BEEF-VDW'
nosym = .true.
nspin = 2
ntyp = 3
nat = 33
starting_magnetization(1) = 0.0
starting_magnetization(2) = 0.001
starting_magnetization(3) = 0.0
/
&ELECTRONS
electron_maxstep = 400
mixing_beta = 0.1
conv_thr = 1e-06
/
&IONS
ion_dynamics = 'bfgs'
upscale = 1.0
/
&CELL
/

K_POINTS {automatic}
6 8 1 0 0 0

ATOMIC_SPECIES
C 12.01 C.pbe-n-rrkjus_psl.1.0.0.UPF
Ni 58.69 ni_pbe_v1.4.uspp.F.UPF
Pt 195.0 Pt.pbe-n-rrkjus_psl.1.0.0.UPF

CELL_PARAMETERS {angstrom}
7.96875000 0.00000000 0.00000000
0.00000000 7.03042000 0.00000000
0.00000000 0.00000000 25.97660000

ATOMIC_POSITIONS {angstrom}
Ni 1.99218750 1.75760500 -2.98834806 0 0 0
Ni 3.98437500 1.75760500 -0.996202610000001 0 0 0
Ni 1.99218750 1.75760500 0.99620261
Ni 3.98437500 1.75760500 2.98834806
Ni 1.99218750 5.27281500 -2.98834806 0 0 0
Ni 3.98437500 5.27281500 -0.996202610000001 0 0 0
Ni 1.99218750 5.27281500 0.99620261
Ni 3.98437500 5.27281500 2.98834806
Ni 5.97656250 1.75760500 -2.98834806 0 0 0
Ni 0.00000000 1.75760500 -0.996202610000001 0 0 0
Ni 5.97656250 1.75760500 0.99620261
Ni 0.00000000 1.75760500 2.98834806
Ni 5.97656250 5.27281500 -2.98834806 0 0 0
Ni 0.00000000 5.27281500 -0.996202610000001 0 0 0
Ni 5.97656250 5.27281500 0.99620261
Ni 0.00000000 5.27281500 2.98834806
Pt 0.00000000 0.00000000 -2.98834806 0 0 0
Pt 1.99218750 0.00000000 -0.996202610000001 0 0 0
Pt 3.98437500 0.00000000 0.99620261
Pt 1.99218750 0.00000000 2.98834806
Pt 0.00000000 3.51521000 -2.98834806 0 0 0
Pt 1.99218750 3.51521000 -0.996202610000001 0 0 0
Pt 3.98437500 3.51521000 0.99620261
Pt 1.99218750 3.51521000 2.98834806
Pt 3.98437500 0.00000000 -2.98834806 0 0 0
Pt 5.97656250 0.00000000 -0.996202610000001 0 0 0
Pt 0.00000000 0.00000000 0.99620261
Pt 5.97656250 0.00000000 2.98834806
Pt 3.98437500 3.51521000 -2.98834806 0 0 0
Pt 5.97656250 3.51521000 -0.996202610000001 0 0 0
Pt 0.00000000 3.51521000 0.99620261
Pt 5.97656250 3.51521000 2.98834806
C 1.99218750 1.75760500 3.78816758
