&CONTROL
calculation = 'relax'
prefix = 'scf'
pseudo_dir = '/vol0403/data/hp230205/u10028/POT_HYBRID_KKJUS_GBRV'
outdir = './data'
tprnfor = .true.
nstep = 50
disk_io = 'non'
/
&SYSTEM
ibrav = 0
ecutwfc = 50.0
ecutrho = 400
occupations = 'smearing'
smearing = 'mp'
degauss = 0.01
assume_isolated = 'esm'
esm_bc = 'bc1'
input_dft = 'BEEF-VDW'
nosym = .true.
nspin = 1
ntyp = 5
nat = 17
/
&ELECTRONS
electron_maxstep = 200
mixing_beta = 0.1
conv_thr = 1e-06
/
&IONS
ion_dynamics = 'bfgs'
upscale = 1.0
/
&CELL
/

K_POINTS {automatic}
11 7 2 0  0  0

ATOMIC_SPECIES
C 12.01 C.pbe-n-rrkjus_psl.1.0.0.UPF
In 114.8 In.pbe-dn-rrkjus_psl.1.0.0.UPF
Pd 106.4 Pd.pbe-n-rrkjus_psl.1.0.0.UPF
Sn 118.7 Sn.pbe-dn-rrkjus_psl.1.0.0.UPF
Y 88.90 Y.pbe-spn-rrkjus_psl.1.0.0.UPF


CELL_PARAMETERS {angstrom}
6.32964000 0.00000000 0.00000000
0.00000000 9.06394000 0.00000000
0.00000000 0.00000000 24.74170000

ATOMIC_POSITIONS {angstrom}
Y 4.67121102 2.26598500 -0.7902499000000027 0 0 0
Y 1.36213853 2.23181395 2.35343050
Y 4.67121102 6.79795500 -0.7902499000000027 0 0 0
Y 1.36213853 6.83221669 2.35343050
In 0.00000000 0.00000000 -2.3707496900000002 0 0 0
In 2.88093565 0.00000000 0.73433366
In 0.00000000 4.53197000 -2.3707496900000002 0 0 0
In 2.83953980 4.53197000 0.68856151
Sn 3.16482000 0.00000000 -2.3707496900000002 0 0 0
Sn 5.93467046 0.00000000 1.00822428
Sn 3.16482000 4.53197000 -2.3707496900000002 0 0 0
Sn 6.07904955 4.53197000 0.95280287
Pd 1.50639102 2.26598500 -0.7902499000000027 0 0 0
Pd 4.43454578 2.34647279 1.91797658
Pd 1.50639102 6.79795500 -0.7902499000000027 0 0 0
Pd 4.43454578 6.71746721 1.91797658
C 1.29656346 0.00000000 2.43557295
