&CONTROL
calculation = 'relax'
prefix = 'scf'
pseudo_dir = '/vol0004/mdt0/data/hp150275/u10028/POT_KKJUS'
outdir = './data'
tprnfor = .true.
nstep = 50
disk_io = 'non'
/
&SYSTEM
ibrav = 0
ecutwfc = 50.0
ecutrho = 400
occupations = 'smearing'
smearing = 'mp'
degauss = 0.01
assume_isolated = 'esm'
esm_bc = 'bc1'
input_dft = 'BEEF-VDW'
nosym = .true.
nspin = 1
ntyp = 5
nat = 34
/
&ELECTRONS
electron_maxstep = 200
mixing_beta = 0.1
conv_thr = 1e-06
/
&IONS
ion_dynamics = 'bfgs'
upscale = 1.0
/
&CELL
/

K_POINTS {automatic}
8 6 1 0 0 0

ATOMIC_SPECIES
C 12.01 C.pbe-n-rrkjus_psl.1.0.0.UPF
Cu 63.54 Cu.pbe-dn-rrkjus_psl.1.0.0.UPF
In 114.8 In.pbe-dn-rrkjus_psl.1.0.0.UPF
O 15.99 O.pbe-n-rrkjus_psl.1.0.0.UPF
Zr 91.22 Zr.pbe-spn-rrkjus_psl.1.0.0.UPF

CELL_PARAMETERS {angstrom}
6.47982000 0.00000000 0.00000000
0.00000000 9.16384000 0.00000000
0.00000000 0.00000000 26.87290000

ATOMIC_POSITIONS {angstrom}
Zr 0.00000000 0.00000000 -3.436506450000003 0 0 0
Zr 3.23991000 2.29096000 -1.1455917299999996 0 0 0
Zr 3.23991000 6.87288000 -1.1455917299999996 0 0 0
Zr 0.00000000 4.58192000 -3.436506450000003 0 0 0
Zr 0.00000000 4.58521898 1.21008669
Zr 3.23991000 6.87288000 3.32498392
Zr 3.23991000 2.29096000 3.34003274
Zr 0.00000000 9.16054102 1.21008669
In 0.00000000 6.87288000 -1.1455917299999996 0 0 0
In 3.23991000 0.00000000 -3.436506450000003 0 0 0
In 0.00000000 2.29096000 -1.1455917299999996 0 0 0
In 3.23991000 4.58192000 -3.436506450000003 0 0 0
In 0.00000000 2.29096000 3.63348481
In 3.23991000 4.57733808 1.11146314
In 0.00000000 6.87288000 3.64127795
In 3.23991000 0.00458192 1.11146314
Cu 1.61995500 0.00000000 -1.1455917299999996 0 0 0
Cu 4.85986500 4.58192000 -1.1455917299999996 0 0 0
Cu 4.85986500 0.00000000 -1.1455917299999996 0 0 0
Cu 1.61995500 4.58192000 -1.1455917299999996 0 0 0
Cu 4.85986500 6.87288000 -3.436506450000003 0 0 0
Cu 1.61995500 2.29096000 -3.436506450000003 0 0 0
Cu 1.61995500 6.87288000 -3.436506450000003 0 0 0
Cu 4.85986500 2.29096000 -3.436506450000003 0 0 0
Cu 1.70613661 4.58521898 3.48971479
Cu 4.77368339 9.16054102 3.48971479
Cu 4.77368339 4.58521898 3.48971479
Cu 1.70613661 9.16054102 3.48971479
Cu 4.92420961 2.29096000 1.13081163
Cu 1.58418639 6.87288000 1.16037182
Cu 1.55561039 2.29096000 1.13081163
Cu 4.89563361 6.87288000 1.16037182
C 3.23991000 2.29096000 5.59413159
O 3.23991000 2.29096000 6.74697900
