&CONTROL
calculation = 'relax'
prefix = 'scf'
pseudo_dir = '/vol0403/data/hp230205/u10028/POT_HYBRID_KKJUS_GBRV'
outdir = './data'
tprnfor = .true.
nstep = 50
disk_io = 'non'
/
&SYSTEM
ibrav = 0
ecutwfc = 50.0
ecutrho = 400
occupations = 'smearing'
smearing = 'mp'
degauss = 0.01
assume_isolated = 'esm'
esm_bc = 'bc1'
input_dft = 'BEEF-VDW'
nosym = .true.
nspin = 1
ntyp = 5
nat = 33
/
&ELECTRONS
electron_maxstep = 200
mixing_beta = 0.1
conv_thr = 1e-06
/
&IONS
ion_dynamics = 'bfgs'
upscale = 1.0
/
&CELL
/

K_POINTS {automatic}
7 7 2 0  0  0

ATOMIC_SPECIES
C 12.01 C.pbe-n-rrkjus_psl.1.0.0.UPF
Ge 72.64 Ge.pbe-dn-rrkjus_psl.1.0.0.UPF
In 114.8 In.pbe-dn-rrkjus_psl.1.0.0.UPF
Li 6.941 Li.pbe-sl-rrkjus_psl.1.0.0.UPF
Mg 24.30 Mg.pbe-spnl-rrkjus_psl.1.0.0.UPF


CELL_PARAMETERS {angstrom}
8.41850000 0.00000000 0.00000000
0.00000000 8.40992000 0.00000000
0.00000000 0.00000000 26.56300000

ATOMIC_POSITIONS {angstrom}
Li 0.00000000 2.10248000 1.30318078
Li 0.00000000 2.10248000 -3.281593019999999 0 0 0
Li 0.00000000 6.30744000 1.03622263
Li 0.00000000 6.30744000 -3.281593019999999 0 0 0
Li 4.20925000 2.10248000 1.22375741
Li 4.20925000 2.10248000 -3.281593019999999 0 0 0
Li 4.20925000 6.30744000 1.11909919
Li 4.20925000 6.30744000 -3.281593019999999 0 0 0
Mg 2.28267628 2.10248000 3.67950676
Mg 2.10462500 2.10248000 -1.0938643399999997 0 0 0
Mg 2.47705944 6.30744000 3.61283363
Mg 2.10462500 6.30744000 -1.0938643399999997 0 0 0
Mg 6.13573954 2.10248000 3.67950676
Mg 6.31387500 2.10248000 -1.0938643399999997 0 0 0
Mg 5.94144056 6.30744000 3.61283363
Mg 6.31387500 6.30744000 -1.0938643399999997 0 0 0
In 2.15454671 8.38435384 1.26997703
In 2.10462500 0.00000000 -3.281593019999999 0 0 0
In 2.15454671 4.23052616 1.26997703
In 2.10462500 4.20496000 -3.281593019999999 0 0 0
In 6.26395330 8.38435384 1.26997703
In 6.31387500 0.00000000 -3.281593019999999 0 0 0
In 6.26395330 4.23052616 1.26997703
In 6.31387500 4.20496000 -3.281593019999999 0 0 0
Ge 0.00000000 0.14507112 3.50950356
Ge 0.00000000 0.00000000 -1.0938643399999997 0 0 0
Ge 0.00000000 4.05988888 3.50950356
Ge 0.00000000 4.20496000 -1.0938643399999997 0 0 0
Ge 4.20925000 0.06181291 3.44043976
Ge 4.20925000 0.00000000 -1.0938643399999997 0 0 0
Ge 4.20925000 4.14314709 3.44043976
Ge 4.20925000 4.20496000 -1.0938643399999997 0 0 0
C 0.00000000 2.10248000 3.63806848
