&CONTROL
calculation = 'relax'
prefix = 'scf'
pseudo_dir = '/vol0403/data/hp230205/u10028/POT_HYBRID_KKJUS_GBRV'
outdir = './data'
tprnfor = .true.
nstep = 50
disk_io = 'non'
/
&SYSTEM
ibrav = 0
ecutwfc = 50.0
ecutrho = 400
occupations = 'smearing'
smearing = 'mp'
degauss = 0.01
assume_isolated = 'esm'
esm_bc = 'bc1'
input_dft = 'BEEF-VDW'
nosym = .true.
nspin = 1
ntyp = 5
nat = 33
/
&ELECTRONS
electron_maxstep = 200
mixing_beta = 0.1
conv_thr = 1e-06
/
&IONS
ion_dynamics = 'bfgs'
upscale = 1.0
/
&CELL
/

K_POINTS {automatic}
9 6 2 0  0  0

ATOMIC_SPECIES
C 12.01 C.pbe-n-rrkjus_psl.1.0.0.UPF
Ge 72.64 Ge.pbe-dn-rrkjus_psl.1.0.0.UPF
Li 6.941 Li.pbe-sl-rrkjus_psl.1.0.0.UPF
Pd 106.4 Pd.pbe-n-rrkjus_psl.1.0.0.UPF
Y 88.90 Y.pbe-spn-rrkjus_psl.1.0.0.UPF


CELL_PARAMETERS {angstrom}
6.55453000 0.00000000 0.00000000
0.00000000 9.26950000 0.00000000
0.00000000 0.00000000 26.95210000

ATOMIC_POSITIONS {angstrom}
Li 4.91589750 0.00000000 -1.1586707800000013 0 0 0
Li 4.91589750 4.63475000 -1.1586707800000013 0 0 0
Li 1.63863250 2.31737500 -3.4760123400000005 0 0 0
Li 1.63863250 6.95212500 -3.4760123400000005 0 0 0
Li 3.61783838 4.35490380 4.99638030
Li 3.61783838 0.27984621 4.99638030
Li 1.43642525 6.95212500 1.35622967
Li 1.41171467 2.31737500 1.34922213
Y 0.00000000 2.31737500 -1.1586707800000013 0 0 0
Y 0.00000000 6.95212500 -1.1586707800000013 0 0 0
Y 3.27726500 4.63475000 -3.4760123400000005 0 0 0
Y 3.27726500 0.00000000 -3.4760123400000005 0 0 0
Y 6.11721176 6.95212500 3.59945296
Y 6.10921523 2.31737500 3.64850578
Y 3.28729343 9.25262951 1.29208367
Y 3.28729343 4.65162049 1.29208367
Ge 0.00000000 0.00000000 -3.4760123400000005 0 0 0
Ge 0.00000000 4.63475000 -3.4760123400000005 0 0 0
Ge 3.27726500 6.95212500 -1.1586707800000013 0 0 0
Ge 3.27726500 2.31737500 -1.1586707800000013 0 0 0
Ge 6.44631471 4.63057873 1.19532564
Ge 6.44631471 0.00417128 1.19532564
Ge 2.89159645 2.31737500 3.43558419
Ge 3.04228510 6.95212500 3.58813307
Pd 1.63863250 0.00000000 -1.1586707800000013 0 0 0
Pd 1.63863250 4.63475000 -1.1586707800000013 0 0 0
Pd 4.91589750 2.31737500 -3.4760123400000005 0 0 0
Pd 4.91589750 6.95212500 -3.4760123400000005 0 0 0
Pd 1.41951456 4.73791954 3.32561962
Pd 1.41951456 9.16633047 3.32561962
Pd 4.93313591 6.95212500 1.11204365
Pd 4.91497987 2.31737500 1.06083466
C 4.20787717 2.31737500 4.80555943
