&CONTROL
calculation = 'relax'
prefix = 'scf'
pseudo_dir = '/vol0004/mdt0/data/hp150275/u10028/POT_KKJUS'
outdir = './data'
tprnfor = .true.
nstep = 50
disk_io = 'non'
/
&SYSTEM
ibrav = 0
ecutwfc = 50.0
ecutrho = 400
occupations = 'smearing'
smearing = 'mp'
degauss = 0.01
assume_isolated = 'esm'
esm_bc = 'bc1'
input_dft = 'BEEF-VDW'
nosym = .true.
nspin = 1
ntyp = 3
nat = 32
/
&ELECTRONS
electron_maxstep = 200
mixing_beta = 0.1
conv_thr = 1e-06
/
&IONS
ion_dynamics = 'bfgs'
upscale = 1.0
/
&CELL
/

K_POINTS {automatic}
9 6 2 0  0  0

ATOMIC_SPECIES
Ge 72.64 Ge.pbe-dn-rrkjus_psl.1.0.0.UPF
Li 6.941 Li.pbe-sl-rrkjus_psl.1.0.0.UPF
Pd 106.4 Pd.pbe-n-rrkjus_psl.1.0.0.UPF

CELL_PARAMETERS {angstrom}
6.13924000 0.00000000 0.00000000
0.00000000 8.68219000 0.00000000
0.00000000 0.00000000 26.51160000

ATOMIC_POSITIONS {angstrom}
Li 0.00000000 0.00000000 -3.2558895999999997 0 0 0
Li 3.06962000 2.17054750 -1.085384900000001 0 0 0
Li 3.06962000 6.51164250 -1.085384900000001 0 0 0
Li 0.00000000 4.34109500 -3.2558895999999997 0 0 0
Li 0.00000000 4.34109500 1.01433382
Li 3.06962000 6.51164250 3.49581958
Li 3.06962000 2.17054750 3.49555446
Li 0.00000000 0.00000000 1.01433382
Ge 0.00000000 6.51164250 -1.085384900000001 0 0 0
Ge 3.06962000 0.00000000 -3.2558895999999997 0 0 0
Ge 0.00000000 2.17054750 -1.085384900000001 0 0 0
Ge 3.06962000 4.34109500 -3.2558895999999997 0 0 0
Ge 0.00000000 2.17054750 3.29486165
Ge 3.06962000 4.34109500 1.11322208
Ge 0.00000000 6.51164250 3.29486165
Ge 3.06962000 0.00000000 1.11322208
Pd 1.53481000 0.00000000 -1.085384900000001 0 0 0
Pd 4.60443000 4.34109500 -1.085384900000001 0 0 0
Pd 4.60443000 0.00000000 -1.085384900000001 0 0 0
Pd 1.53481000 4.34109500 -1.085384900000001 0 0 0
Pd 4.60443000 6.51164250 -3.2558895999999997 0 0 0
Pd 1.53481000 2.17054750 -3.2558895999999997 0 0 0
Pd 1.53481000 6.51164250 -3.2558895999999997 0 0 0
Pd 4.60443000 2.17054750 -3.2558895999999997 0 0 0
Pd 1.43111824 4.34109500 3.08966186
Pd 4.70812176 0.00000000 3.08966186
Pd 4.70812176 4.34109500 3.08966186
Pd 1.43111824 0.00000000 3.08966186
Pd 4.60387747 2.17054750 1.08087793
Pd 1.53542392 6.51164250 1.08087793
Pd 1.53536253 2.17054750 1.08087793
Pd 4.60381608 6.51164250 1.08087793
