&CONTROL
calculation = 'relax'
prefix = 'scf'
pseudo_dir = '/vol0403/data/hp230205/u10028/POT_HYBRID_KKJUS_GBRV'
outdir = './data'
tprnfor = .true.
nstep = 50
disk_io = 'non'
/
&SYSTEM
ibrav = 0
ecutwfc = 50.0
ecutrho = 400
occupations = 'smearing'
smearing = 'mp'
degauss = 0.01
assume_isolated = 'esm'
esm_bc = 'bc1'
input_dft = 'BEEF-VDW'
nosym = .true.
nspin = 1
ntyp = 5
nat = 33
/
&ELECTRONS
electron_maxstep = 200
mixing_beta = 0.1
conv_thr = 1e-06
/
&IONS
ion_dynamics = 'bfgs'
upscale = 1.0
/
&CELL
/

K_POINTS {automatic}
6 6 1 0 0 0

ATOMIC_SPECIES
C 12.01 C.pbe-n-rrkjus_psl.1.0.0.UPF
Cu 63.54 Cu.pbe-dn-rrkjus_psl.1.0.0.UPF
Ga 69.72 Ga.pbe-dnl-rrkjus_psl.1.0.0.UPF
Li 6.941 Li.pbe-sl-rrkjus_psl.1.0.0.UPF
Pd 106.4 Pd.pbe-n-rrkjus_psl.1.0.0.UPF


CELL_PARAMETERS {angstrom}
6.02537000 0.00000000 0.00000000
0.00000000 8.52116000 0.00000000
0.00000000 0.00000000 26.39090000

ATOMIC_POSITIONS {angstrom}
Li 1.50634250 0.00000000 -1.0651367199999981 0 0 0
Li 1.50634250 4.26058000 -1.0651367199999981 0 0 0
Li 4.51902750 2.13029000 -3.195410169999999 0 0 0
Li 4.51902750 6.39087000 -3.195410169999999 0 0 0
Li 1.63221248 4.26058000 3.57649477
Li 1.40493552 0.00000000 4.26714462
Li 4.53270509 6.39214817 1.03584283
Li 4.53270509 2.12901183 1.03584283
Ga 4.51902750 0.00000000 -1.0651367199999981 0 0 0
Ga 4.51902750 4.26058000 -1.0651367199999981 0 0 0
Ga 1.50634250 2.13029000 -3.195410169999999 0 0 0
Ga 1.50634250 6.39087000 -3.195410169999999 0 0 0
Ga 4.48052539 4.26058000 3.22628752
Ga 5.01961524 0.00000000 3.55142341
Ga 1.53261311 6.39726087 1.01763310
Ga 1.53261311 2.12389913 1.01763310
Cu 0.00000000 0.00000000 -3.195410169999999 0 0 0
Cu 0.00000000 4.26058000 -3.195410169999999 0 0 0
Cu 3.01268500 6.39087000 -1.0651367199999981 0 0 0
Cu 3.01268500 2.13029000 -1.0651367199999981 0 0 0
Cu 0.03844186 4.26058000 1.08915244
Cu 0.05025159 0.00000000 1.09179153
Cu 3.05438056 1.96361611 3.10620893
Cu 3.05438056 6.55754389 3.10620893
Pd 0.00000000 2.13029000 -1.0651367199999981 0 0 0
Pd 0.00000000 6.39087000 -1.0651367199999981 0 0 0
Pd 3.01268500 4.26058000 -3.195410169999999 0 0 0
Pd 3.01268500 0.00000000 -3.195410169999999 0 0 0
Pd 0.04133404 6.26833572 3.06688649
Pd 0.04127378 2.25282428 3.06688649
Pd 3.07107084 0.00000000 1.08756899
Pd 2.97623151 4.26058000 1.14932369
C 3.11240487 0.00000000 3.27141596
