&CONTROL
calculation = 'relax'
prefix = 'scf'
pseudo_dir = '/vol0004/mdt0/data/hp150275/u10028/POT_KKJUS'
outdir = './data'
tprnfor = .true.
nstep = 50
disk_io = 'non'
/
&SYSTEM
ibrav = 0
ecutwfc = 50.0
ecutrho = 400
occupations = 'smearing'
smearing = 'mp'
degauss = 0.01
assume_isolated = 'esm'
esm_bc = 'bc1'
input_dft = 'BEEF-VDW'
nosym = .true.
nspin = 1
ntyp = 3
nat = 32
/
&ELECTRONS
electron_maxstep = 200
mixing_beta = 0.1
conv_thr = 1e-06
/
&IONS
ion_dynamics = 'bfgs'
upscale = 1.0
/
&CELL
/

K_POINTS {automatic}
9 6 2 0  0  0

ATOMIC_SPECIES
Ge 72.64 Ge.pbe-dn-rrkjus_psl.1.0.0.UPF
Li 6.941 Li.pbe-sl-rrkjus_psl.1.0.0.UPF
Rh 102.9 Rh.pbe-spn-rrkjus_psl.1.0.0.UPF

CELL_PARAMETERS {angstrom}
5.94410000 0.00000000 0.00000000
0.00000000 8.40623000 0.00000000
0.00000000 0.00000000 26.30470000

ATOMIC_POSITIONS {angstrom}
Li 0.00000000 0.00000000 -3.1523552499999994 0 0 0
Li 2.97205000 2.10155750 -1.0508727700000016 0 0 0
Li 2.97205000 6.30467250 -1.0508727700000016 0 0 0
Li 0.00000000 4.20311500 -3.1523552499999994 0 0 0
Li 0.00000000 4.20311500 1.01772884
Li 2.97205000 6.30484062 3.58480452
Li 2.97205000 2.10138938 3.58480452
Li 0.00000000 0.00000000 1.01746580
Ge 0.00000000 6.30467250 -1.0508727700000016 0 0 0
Ge 2.97205000 0.00000000 -3.1523552499999994 0 0 0
Ge 0.00000000 2.10155750 -1.0508727700000016 0 0 0
Ge 2.97205000 4.20311500 -3.1523552499999994 0 0 0
Ge 0.00000000 2.10223000 3.12526141
Ge 2.97205000 4.20311500 1.03430080
Ge 0.00000000 6.30400000 3.12526141
Ge 2.97205000 0.00000000 1.03430080
Rh 1.48602500 0.00000000 -1.0508727700000016 0 0 0
Rh 4.45807500 4.20311500 -1.0508727700000016 0 0 0
Rh 4.45807500 0.00000000 -1.0508727700000016 0 0 0
Rh 1.48602500 4.20311500 -1.0508727700000016 0 0 0
Rh 4.45807500 6.30467250 -3.1523552499999994 0 0 0
Rh 1.48602500 2.10155750 -3.1523552499999994 0 0 0
Rh 1.48602500 6.30467250 -3.1523552499999994 0 0 0
Rh 4.45807500 2.10155750 -3.1523552499999994 0 0 0
Rh 1.44970655 4.20311500 3.03319496
Rh 4.49492842 0.00000000 3.03293191
Rh 4.49439345 4.20311500 3.03319496
Rh 1.44917158 0.00000000 3.03293191
Rh 4.44006438 2.10147344 1.04087698
Rh 1.50403562 6.30475656 1.04087698
Rh 1.50403562 2.10147344 1.04087698
Rh 4.44006438 6.30475656 1.04087698
