&CONTROL
calculation = 'relax'
prefix = 'scf'
pseudo_dir = '/vol0004/mdt0/data/hp150275/u10028/POT_HYBRID_KKJUS_GBRV'
outdir = './data'
tprnfor = .true.
nstep = 50
disk_io = 'non'
/
&SYSTEM
ibrav = 0
ecutwfc = 50.0
ecutrho = 400
occupations = 'smearing'
smearing = 'mp'
degauss = 0.01
assume_isolated = 'esm'
esm_bc = 'bc1'
input_dft = 'BEEF-VDW'
nosym = .true.
nspin = 2
ntyp = 5
nat = 34
starting_magnetization(1) = 0.0
starting_magnetization(2) = 0.1
starting_magnetization(3) = 0.0
starting_magnetization(4) = 0.1
starting_magnetization(5) = 0.0
/
&ELECTRONS
electron_maxstep = 300
mixing_beta = 0.1
conv_thr = 1e-06
/
&IONS
ion_dynamics = 'bfgs'
upscale = 1.0
/
&CELL
/

K_POINTS {automatic}
9 6 2 0  0  0

ATOMIC_SPECIES
C 12.01 C.pbe-n-rrkjus_psl.1.0.0.UPF
Co 58.93 co_pbe_v1.2.uspp.F.UPF
Ga 69.72 Ga.pbe-dnl-rrkjus_psl.1.0.0.UPF
Mn 54.93 mn_pbe_v1.5.uspp.F.UPF
O 15.99 O.pbe-n-rrkjus_psl.1.0.0.UPF

CELL_PARAMETERS {angstrom}
5.73361000 0.00000000 0.00000000
0.00000000 8.10855000 0.00000000
0.00000000 0.00000000 26.08140000

ATOMIC_POSITIONS {angstrom}
Mn 0.00000000 0.00000000 -3.0408304299999998 0 0 0
Mn 2.86680500 2.02713750 -1.013523199999998 0 0 0
Mn 2.86680500 6.08141250 -1.013523199999998 0 0 0
Mn 0.00000000 4.05427500 -3.0408304299999998 0 0 0
Mn 5.73355266 4.05386957 1.02343414
Mn 2.86669033 6.08019622 3.07525787
Mn 2.86680500 2.02697533 3.07264973
Mn 0.00000000 8.10814457 1.02369495
Ga 0.00000000 6.08141250 -1.013523199999998 0 0 0
Ga 2.86680500 0.00000000 -3.0408304299999998 0 0 0
Ga 0.00000000 2.02713750 -1.013523199999998 0 0 0
Ga 2.86680500 4.05427500 -3.0408304299999998 0 0 0
Ga 5.73343799 2.02608339 3.17045498
Ga 2.86674766 4.05435609 1.02395576
Ga 5.73355266 6.08108816 3.16602115
Ga 2.86680500 8.10773915 1.02317332
Co 1.43340250 0.00000000 -1.013523199999998 0 0 0
Co 4.30020750 4.05427500 -1.013523199999998 0 0 0
Co 4.30020750 0.00000000 -1.013523199999998 0 0 0
Co 1.43340250 4.05427500 -1.013523199999998 0 0 0
Co 4.30020750 6.08141250 -3.0408304299999998 0 0 0
Co 1.43340250 2.02713750 -3.0408304299999998 0 0 0
Co 1.43340250 6.08141250 -3.0408304299999998 0 0 0
Co 4.30020750 2.02713750 -3.0408304299999998 0 0 0
Co 1.36975943 4.05249112 3.01657472
Co 4.36333455 0.00040543 3.01631391
Co 4.36379323 4.05257220 3.01683554
Co 1.37016078 0.00048651 3.01605310
Co 4.31150271 2.02673207 1.03490995
Co 1.42417139 6.08092599 1.03543158
Co 1.42199262 2.02673207 1.03490995
Co 4.30932394 6.08100707 1.03543158
C 0.00063070 2.04830082 7.09544487
O 5.73343799 2.02470494 8.23024658
