&CONTROL
calculation = 'relax'
prefix = 'scf'
pseudo_dir = '/vol0403/data/hp230205/u10028/POT_HYBRID_KKJUS_GBRV'
outdir = './data'
tprnfor = .true.
nstep = 70
disk_io = 'non'
/
&SYSTEM
ibrav = 0
ecutwfc = 50.0
ecutrho = 400
occupations = 'smearing'
smearing = 'mp'
degauss = 0.01
assume_isolated = 'esm'
esm_bc = 'bc1'
input_dft = 'BEEF-VDW'
nosym = .true.
nspin = 1
ntyp = 5
nat = 17
/
&ELECTRONS
electron_maxstep = 200
mixing_beta = 0.1
conv_thr = 1e-06
/
&IONS
ion_dynamics = 'bfgs'
upscale = 1.0
/
&CELL
/

K_POINTS {automatic}
8 10 2 0  0  0

ATOMIC_SPECIES
Au 196.9 Au.pbe-n-rrkjus_psl.1.0.0.UPF
C 12.01 C.pbe-n-rrkjus_psl.1.0.0.UPF
In 114.8 In.pbe-dn-rrkjus_psl.1.0.0.UPF
Li 6.941 Li.pbe-sl-rrkjus_psl.1.0.0.UPF
Pd 106.4 Pd.pbe-n-rrkjus_psl.1.0.0.UPF


CELL_PARAMETERS {angstrom}
7.53916000 0.00000000 0.00000000
-0.00000000 6.08394000 0.00000000
0.00000000 0.00000000 24.55190000

ATOMIC_POSITIONS {angstrom}
Li 1.88479000 1.41530696 0.75865371
Li 1.88479000 4.24598173 -2.275961129999999 0 0 0
Li 5.65437000 1.41530696 0.75865371
Li 5.65437000 4.24598173 -2.275961129999999 0 0 0
In 1.88479000 4.45727696 0.75865371
In 1.88479000 1.20401173 -2.275961129999999 0 0 0
In 5.65437000 4.45727696 0.75865371
In 5.65437000 1.20401173 -2.275961129999999 0 0 0
Pd 0.00000000 3.04197000 2.27596113
Pd 0.00000000 5.87264476 -0.7586537100000008 0 0 0
Pd 3.76958000 3.04197000 2.27596113
Pd 3.76958000 5.87264476 -0.7586537100000008 0 0 0
Au 0.00000000 0.00000000 2.27596113
Au 0.00000000 2.83067476 -0.7586537100000008 0 0 0
Au 3.76958000 -0.00000000 2.27596113
Au 3.76958000 2.83067476 -0.7586537100000008 0 0 0
C 1.88479000 1.41530696 3.07586203
