&CONTROL
calculation = 'relax'
prefix = 'scf'
pseudo_dir = '/vol0004/mdt0/data/hp150275/u10028/POT_KKJUS'
outdir = './data'
tprnfor = .true.
nstep = 50
disk_io = 'non'
/
&SYSTEM
ibrav = 0
ecutwfc = 50.0
ecutrho = 400
occupations = 'smearing'
smearing = 'mp'
degauss = 0.01
assume_isolated = 'esm'
esm_bc = 'bc1'
input_dft = 'BEEF-VDW'
nosym = .true.
nspin = 1
ntyp = 4
nat = 33
/
&ELECTRONS
electron_maxstep = 200
mixing_beta = 0.1
conv_thr = 1e-06
/
&IONS
ion_dynamics = 'bfgs'
upscale = 1.0
/
&CELL
/

K_POINTS {automatic}
9 6 2 0  0  0

ATOMIC_SPECIES
Al 26.98 Al.pbe-nl-rrkjus_psl.1.0.0.UPF
Au 196.9 Au.pbe-n-rrkjus_psl.1.0.0.UPF
C 12.01 C.pbe-n-rrkjus_psl.1.0.0.UPF
Hf 178.4 Hf.pbe-spn-rrkjus_psl.1.0.0.UPF

CELL_PARAMETERS {angstrom}
6.63475000 0.00000000 0.00000000
0.00000000 9.38295000 0.00000000
0.00000000 0.00000000 27.03720000

ATOMIC_POSITIONS {angstrom}
Hf 0.00000000 0.00000000 -3.518621209999999 0 0 0
Hf 3.31737500 2.34573750 -1.17287374 0 0 0
Hf 3.31737500 7.03721250 -1.17287374 0 0 0
Hf 0.00000000 4.69147500 -3.518621209999999 0 0 0
Hf 0.00000000 4.69147500 1.23695190
Hf 3.31710961 7.22731107 3.33666085
Hf 3.31764039 2.15563893 3.33666085
Hf 0.00000000 0.00000000 1.40728626
Al 0.00000000 7.03721250 -1.17287374 0 0 0
Al 3.31737500 0.00000000 -3.518621209999999 0 0 0
Al 0.00000000 2.34573750 -1.17287374 0 0 0
Al 3.31737500 4.69147500 -3.518621209999999 0 0 0
Al 6.63461730 2.47156286 3.54214357
Al 3.31737500 4.69147500 1.13934761
Al 0.00013270 6.91138714 3.54214357
Al 3.31737500 0.00000000 1.22289256
Au 1.65868750 0.00000000 -1.17287374 0 0 0
Au 4.97606250 4.69147500 -1.17287374 0 0 0
Au 4.97606250 0.00000000 -1.17287374 0 0 0
Au 1.65868750 4.69147500 -1.17287374 0 0 0
Au 4.97606250 7.03721250 -3.518621209999999 0 0 0
Au 1.65868750 2.34573750 -3.518621209999999 0 0 0
Au 1.65868750 7.03721250 -3.518621209999999 0 0 0
Au 4.97606250 2.34573750 -3.518621209999999 0 0 0
Au 1.74513829 4.69138117 3.54214357
Au 5.33911602 9.38229319 4.01150936
Au 4.88961171 4.69156883 3.54214357
Au 1.29556763 0.00065681 4.01150936
Au 5.01182380 2.31852695 1.11258078
Au 1.62292620 7.06432923 1.11231041
Au 1.62312524 2.31862077 1.11258078
Au 5.01162476 7.06432923 1.11258078
C 3.31737500 0.00000000 3.30421621
