&CONTROL
calculation = 'relax'
prefix = 'scf'
pseudo_dir = '/vol0004/mdt0/data/hp150275/u10028/POT_KKJUS'
outdir = './data'
tprnfor = .true.
nstep = 50
disk_io = 'non'
/
&SYSTEM
ibrav = 0
ecutwfc = 50.0
ecutrho = 400
occupations = 'smearing'
smearing = 'mp'
degauss = 0.01
assume_isolated = 'esm'
esm_bc = 'bc1'
input_dft = 'BEEF-VDW'
nosym = .true.
nspin = 1
ntyp = 4
nat = 33
/
&ELECTRONS
electron_maxstep = 200
mixing_beta = 0.1
conv_thr = 1e-06
/
&IONS
ion_dynamics = 'bfgs'
upscale = 1.0
/
&CELL
/

K_POINTS {automatic}
9 6 2 0  0  0

ATOMIC_SPECIES
C 12.01 C.pbe-n-rrkjus_psl.1.0.0.UPF
Hf 178.4 Hf.pbe-spn-rrkjus_psl.1.0.0.UPF
In 114.8 In.pbe-dn-rrkjus_psl.1.0.0.UPF
Ni 58.69 Ni.pbe-spn-rrkjus_psl.1.0.0.UPF

CELL_PARAMETERS {angstrom}
6.31539000 0.00000000 0.00000000
0.00000000 8.93131000 0.00000000
0.00000000 0.00000000 26.69850000

ATOMIC_POSITIONS {angstrom}
Hf 0.00000000 0.00000000 -3.349326819999998 0 0 0
Hf 3.15769500 2.23282750 -1.1165312699999994 0 0 0
Hf 3.15769500 6.69848250 -1.1165312699999994 0 0 0
Hf 0.00000000 4.46565500 -3.349326819999998 0 0 0
Hf 6.25476226 4.51102605 1.11466237
Hf 3.20026073 6.69830387 3.28311454
Hf 3.54489156 2.23220231 3.29940063
Hf 6.25444649 8.88540307 1.11466237
In 0.00000000 6.69848250 -1.1165312699999994 0 0 0
In 3.15769500 0.00000000 -3.349326819999998 0 0 0
In 0.00000000 2.23282750 -1.1165312699999994 0 0 0
In 3.15769500 4.46565500 -3.349326819999998 0 0 0
In 6.00833574 2.23291681 4.78383723
In 3.10350895 4.40331446 1.14483168
In 0.13243373 6.69767868 3.53007567
In 3.10369842 0.06180467 1.14456469
Ni 1.57884750 0.00000000 -1.1165312699999994 0 0 0
Ni 4.73654250 4.46565500 -1.1165312699999994 0 0 0
Ni 4.73654250 0.00000000 -1.1165312699999994 0 0 0
Ni 1.57884750 4.46565500 -1.1165312699999994 0 0 0
Ni 4.73654250 6.69848250 -3.349326819999998 0 0 0
Ni 1.57884750 2.23282750 -3.349326819999998 0 0 0
Ni 1.57884750 6.69848250 -3.349326819999998 0 0 0
Ni 4.73654250 2.23282750 -3.349326819999998 0 0 0
Ni 1.27040385 4.15797137 3.24974142
Ni 4.82028457 8.83896025 3.26923132
Ni 4.81971619 4.55720093 3.26843037
Ni 1.27059331 0.30580805 3.24947443
Ni 4.77670838 2.23264887 1.06046442
Ni 1.69587168 6.69839319 1.12587574
Ni 1.31120127 2.23229162 1.41929226
Ni 4.63739088 6.69812525 1.17686988
C 1.48045372 2.23157712 3.40192287
