&CONTROL
calculation = 'relax'
prefix = 'scf'
pseudo_dir = '/vol0403/data/hp230205/u10028/POT_HYBRID_KKJUS_GBRV'
outdir = './data'
tprnfor = .true.
nstep = 50
disk_io = 'non'
/
&SYSTEM
ibrav = 0
ecutwfc = 50.0
ecutrho = 400
occupations = 'smearing'
smearing = 'mp'
degauss = 0.01
assume_isolated = 'esm'
esm_bc = 'bc1'
input_dft = 'BEEF-VDW'
nosym = .true.
nspin = 1
ntyp = 5
nat = 17
/
&ELECTRONS
electron_maxstep = 200
mixing_beta = 0.1
conv_thr = 1e-06
/
&IONS
ion_dynamics = 'bfgs'
upscale = 1.0
/
&CELL
/

K_POINTS {automatic}
10 10 2 0  0  0

ATOMIC_SPECIES
C 12.01 C.pbe-n-rrkjus_psl.1.0.0.UPF
Ga 69.72 Ga.pbe-dnl-rrkjus_psl.1.0.0.UPF
Li 6.941 Li.pbe-sl-rrkjus_psl.1.0.0.UPF
Pd 106.4 Pd.pbe-n-rrkjus_psl.1.0.0.UPF
Sc 44.95 Sc.pbe-spn-rrkjus_psl.1.0.0.UPF


CELL_PARAMETERS {angstrom}
6.35289000 0.00000000 0.00000000
0.00000000 6.35289000 0.00000000
0.00000000 0.00000000 24.76470000

ATOMIC_POSITIONS {angstrom}
Li 4.76466750 1.58822250 -0.7942039300000019 0 0 0
Li 4.80786715 4.72140432 3.07206103
Li 1.54495932 1.63148568 3.07206103
Li 1.58822250 4.76466750 -0.7942039300000019 0 0 0
Sc 0.00000000 3.17644500 -2.38236414 0 0 0
Sc 0.00006353 0.00000000 0.84224745
Sc 3.17638147 3.17631794 0.84224745
Sc 3.17644500 0.00000000 -2.38236414 0 0 0
Ga 0.00000000 0.00000000 -2.38236414 0 0 0
Ga 6.35282647 3.17644500 0.57454104
Ga 3.17644500 0.00000000 1.04333681
Ga 3.17644500 3.17644500 -2.38236414 0 0 0
Pd 1.58822250 1.58822250 -0.7942039300000019 0 0 0
Pd 1.43187788 4.60832288 2.29321122
Pd 4.92101212 1.74450359 2.29345887
Pd 4.76466750 4.76466750 -0.7942039300000019 0 0 0
C 0.00000000 3.17644500 2.69192289
