&CONTROL
calculation = 'relax'
prefix = 'scf'
pseudo_dir = '/vol0004/mdt0/data/hp150275/u10028/POT_HYBRID_KKJUS_GBRV'
outdir = './data'
tprnfor = .true.
nstep = 50
disk_io = 'non'
/
&SYSTEM
ibrav = 0
ecutwfc = 50.0
ecutrho = 400
occupations = 'smearing'
smearing = 'mp'
degauss = 0.01
assume_isolated = 'esm'
esm_bc = 'bc1'
input_dft = 'BEEF-VDW'
nosym = .true.
nspin = 2
ntyp = 3
nat = 17
starting_magnetization(1) = 0.0
starting_magnetization(2) = 0.1
starting_magnetization(3) = 0.0
/
&ELECTRONS
electron_maxstep = 200
mixing_beta = 0.1
conv_thr = 1e-06
/
&IONS
ion_dynamics = 'bfgs'
upscale = 1.0
/
&CELL
/

K_POINTS {automatic}
10 10 2 0  0  0

ATOMIC_SPECIES
C 12.01 C.pbe-n-rrkjus_psl.1.0.0.UPF
Co 58.93 co_pbe_v1.2.uspp.F.UPF
Sc 44.95 Sc.pbe-spn-rrkjus_psl.1.0.0.UPF

CELL_PARAMETERS {angstrom}
6.24301000 0.00000000 0.00000000
0.00000000 6.24301000 0.00000000
0.00000000 0.00000000 24.68230000

ATOMIC_POSITIONS {angstrom}
Sc 0.00000000 0.00000000 22.44608362
Sc 0.00000000 0.00000000 0.88535410
Sc 0.00000000 3.12150500 22.44608362
Sc 0.00000000 3.12150500 0.88535410
Sc 3.12150500 0.00000000 22.44608362
Sc 3.12150500 0.00000000 0.88535410
Sc 3.12150500 3.12150500 22.44608362
Sc 3.12150500 3.12150500 0.88535410
Co 1.56075250 1.56075250 24.00699227
Co 1.56075250 1.56075250 2.44601593
Co 1.56075250 4.68225750 24.00699227
Co 1.56075250 4.68225750 2.44601593
Co 4.68225750 1.56075250 24.00699227
Co 4.68225750 1.56075250 2.44601593
Co 4.68225750 4.68225750 24.00699227
Co 4.68225750 4.68225750 2.44601593
C 0.00000000 0.00000000 3.24621610
