&CONTROL
calculation = 'relax'
prefix = 'scf'
pseudo_dir = '/vol0004/mdt0/data/hp150275/u10028/POT_HYBRID_KKJUS_GBRV'
outdir = './data'
tprnfor = .true.
nstep = 50
disk_io = 'non'
/
&SYSTEM
ibrav = 0
ecutwfc = 50.0
ecutrho = 400
occupations = 'smearing'
smearing = 'mp'
degauss = 0.01
assume_isolated = 'esm'
esm_bc = 'bc1'
input_dft = 'BEEF-VDW'
nosym = .true.
nspin = 2
ntyp = 3
nat = 33
starting_magnetization(1) = 0.0
starting_magnetization(2) = 0.1
starting_magnetization(3) = 0.0
/
&ELECTRONS
electron_maxstep = 200
mixing_beta = 0.1
conv_thr = 1e-06
/
&IONS
ion_dynamics = 'bfgs'
upscale = 1.0
/
&CELL
/

K_POINTS {automatic}
9 6 2 0  0  0

ATOMIC_SPECIES
C 12.01 C.pbe-n-rrkjus_psl.1.0.0.UPF
Co 58.93 co_pbe_v1.2.uspp.F.UPF
Hf 178.4 Hf.pbe-spn-rrkjus_psl.1.0.0.UPF

CELL_PARAMETERS {angstrom}
6.31043000 0.00000000 0.00000000
0.00000000 8.92430000 0.00000000
0.00000000 0.00000000 26.69320000

ATOMIC_POSITIONS {angstrom}
Hf 0.00000000 0.00000000 23.34667352
Hf 0.00000000 2.23107500 25.57769117
Hf 0.00000000 0.00000000 1.12485145
Hf 0.00000000 2.23750050 3.36200854
Hf 0.00000000 4.46215000 23.34667352
Hf 0.00000000 6.69322500 25.57769117
Hf 0.00000000 4.46215000 1.13392714
Hf 0.00000000 6.68679950 3.36200854
Hf 3.15521500 0.00000000 23.34667352
Hf 3.15521500 2.23107500 25.57769117
Hf 3.15521500 0.00000000 1.12218213
Hf 3.15521500 2.23473396 3.35666990
Hf 3.15521500 4.46215000 23.34667352
Hf 3.15521500 6.69322500 25.57769117
Hf 3.15521500 4.46215000 1.13366020
Hf 3.15521500 6.68956604 3.35666990
Co 1.57760750 2.23107500 23.34667352
Co 1.57760750 0.00000000 25.57769117
Co 1.57754440 2.22920090 1.12111440
Co 1.60840240 0.00000000 3.32757431
Co 1.57760750 6.69322500 23.34667352
Co 1.57760750 4.46215000 25.57769117
Co 1.57754440 6.69509910 1.12111440
Co 1.57912200 4.46215000 3.31743090
Co 4.73282250 2.23107500 23.34667352
Co 4.73282250 0.00000000 25.57769117
Co 4.73288560 2.22920090 1.12111440
Co 4.70202760 0.00000000 3.32757431
Co 4.73282250 6.69322500 23.34667352
Co 4.73282250 4.46215000 25.57769117
Co 4.73288560 6.69509910 1.12111440
Co 4.73130800 4.46215000 3.31743090
C 0.00000000 0.00000000 4.13477668
