&CONTROL
calculation = 'relax'
prefix = 'scf'
pseudo_dir = '/vol0004/mdt0/data/hp150275/u10028/POT_HYBRID_KKJUS_GBRV'
outdir = './data'
tprnfor = .true.
nstep = 50
disk_io = 'non'
/
&SYSTEM
ibrav = 0
ecutwfc = 50.0
ecutrho = 400
occupations = 'smearing'
smearing = 'mp'
degauss = 0.01
assume_isolated = 'esm'
esm_bc = 'bc1'
input_dft = 'BEEF-VDW'
nosym = .true.
nspin = 2
ntyp = 5
nat = 34
starting_magnetization(1) = 0.0
starting_magnetization(2) = 0.1
starting_magnetization(3) = 0.0
starting_magnetization(4) = 0.0
starting_magnetization(5) = 0.0
/
&ELECTRONS
electron_maxstep = 200
mixing_beta = 0.1
conv_thr = 1e-06
/
&IONS
ion_dynamics = 'bfgs'
upscale = 1.0
/
&CELL
/

K_POINTS {automatic}
9 6 2 0  0  0

ATOMIC_SPECIES
C 12.01 C.pbe-n-rrkjus_psl.1.0.0.UPF
Co 58.93 co_pbe_v1.2.uspp.F.UPF
O 15.99 O.pbe-n-rrkjus_psl.1.0.0.UPF
Sc 44.95 Sc.pbe-spn-rrkjus_psl.1.0.0.UPF
Sn 118.7 Sn.pbe-dn-rrkjus_psl.1.0.0.UPF

CELL_PARAMETERS {angstrom}
6.22913000 0.00000000 0.00000000
0.00000000 8.80931000 0.00000000
0.00000000 0.00000000 26.60700000

ATOMIC_POSITIONS {angstrom}
Sc 0.00000000 0.00000000 23.30347488
Sc 3.11456500 2.20232750 25.50573627
Sc 3.11456500 6.60698250 25.50573627
Sc 0.00000000 4.40465500 23.30347488
Sc 0.00199332 4.40465500 1.12361361
Sc 3.10565734 6.60125645 3.33013212
Sc 3.10565734 2.20805355 3.33013212
Sc 6.21505217 0.00000000 1.10312622
Co 1.55728250 0.00000000 25.50573627
Co 4.67184750 4.40465500 25.50573627
Co 4.67184750 0.00000000 25.50573627
Co 1.55728250 4.40465500 25.50573627
Co 4.67184750 6.60698250 23.30347488
Co 1.55728250 2.20232750 23.30347488
Co 1.55728250 6.60698250 23.30347488
Co 4.67184750 2.20232750 23.30347488
Co 1.52277312 4.40465500 3.23674155
Co 4.70635688 0.00000000 3.24206295
Co 4.70654375 4.40465500 3.25004505
Co 1.54825026 0.00000000 3.42059592
Co 4.65739592 2.20215131 1.10871369
Co 1.56357392 6.61649655 1.11988863
Co 1.56357392 2.19281345 1.11988863
Co 4.65739592 6.60715869 1.10871369
Sn 0.00000000 6.60698250 25.50573627
Sn 3.11456500 0.00000000 23.30347488
Sn 0.00000000 2.20232750 25.50573627
Sn 3.11456500 4.40465500 23.30347488
Sn 6.22140588 2.21703905 3.33917850
Sn 3.11313230 4.40465500 1.12813680
Sn 6.22140588 6.59227095 3.33917850
Sn 3.11163731 0.00000000 1.11376902
C 1.60636804 0.00000000 5.13541707
O 1.54868630 0.00000000 6.29069301
