&CONTROL
calculation = 'relax'
prefix = 'scf'
pseudo_dir = '/vol0403/data/hp230205/u10028/POT_HYBRID_KKJUS_GBRV'
outdir = './data'
tprnfor = .true.
nstep = 70
disk_io = 'non'
/
&SYSTEM
ibrav = 0
ecutwfc = 50.0
ecutrho = 400
occupations = 'smearing'
smearing = 'mp'
degauss = 0.01
assume_isolated = 'esm'
esm_bc = 'bc1'
input_dft = 'BEEF-VDW'
nosym = .true.
nspin = 1
ntyp = 5
nat = 17
/
&ELECTRONS
electron_maxstep = 200
mixing_beta = 0.1
conv_thr = 1e-06
/
&IONS
ion_dynamics = 'bfgs'
upscale = 1.0
/
&CELL
/

K_POINTS {automatic}
12 7 2 0  0  0

ATOMIC_SPECIES
Au 196.9 Au.pbe-n-rrkjus_psl.1.0.0.UPF
C 12.01 C.pbe-n-rrkjus_psl.1.0.0.UPF
In 114.8 In.pbe-dn-rrkjus_psl.1.0.0.UPF
Li 6.941 Li.pbe-sl-rrkjus_psl.1.0.0.UPF
Pd 106.4 Pd.pbe-n-rrkjus_psl.1.0.0.UPF


CELL_PARAMETERS {angstrom}
5.60636000 0.00000000 0.00000000
-0.00000000 8.89782000 0.00000000
0.00000000 0.00000000 24.18540000

ATOMIC_POSITIONS {angstrom}
Li 2.80318000 0.00000000 -2.0927626600000018 0 0 0
Li 5.06170213 -0.00000000 0.42735602
Li 2.80318000 4.44891000 -2.0927626600000018 0 0 0
Li 4.78385092 4.44891000 0.52143722
In 1.26726161 2.22445500 -0.6975069400000002 0 0 0
In 3.41920684 2.30782757 2.26447900
In 1.26726161 6.67336500 -0.6975069400000002 0 0 0
In 3.41920684 6.58999243 2.26447900
Pd 4.07044161 2.22445500 -0.6975069400000002 0 0 0
Pd 0.51208492 1.86115701 1.98803988
Pd 4.07044161 6.67336500 -0.6975069400000002 0 0 0
Pd 0.51208492 7.03657401 1.98803988
Au 0.00000000 0.00000000 -2.0927626600000018 0 0 0
Au 2.51069620 8.89773102 0.71492042
Au 0.00000000 4.44891000 -2.0927626600000018 0 0 0
Au 1.72143284 4.44891000 1.38558157
C 0.50277836 0.00000000 2.41007511
