&CONTROL
calculation = 'relax'
prefix = 'scf'
pseudo_dir = '/vol0403/data/hp230205/u10028/POT_HYBRID_KKJUS_GBRV'
outdir = './data'
tprnfor = .true.
nstep = 100
disk_io = 'non'
/
&SYSTEM
ibrav = 0
ecutwfc = 50.0
ecutrho = 400
occupations = 'smearing'
smearing = 'mp'
degauss = 0.01
assume_isolated = 'esm'
esm_bc = 'bc1'
input_dft = 'BEEF-VDW'
nosym = .true.
nspin = 1
ntyp = 6
nat = 18
/
&ELECTRONS
electron_maxstep = 200
mixing_beta = 0.1
conv_thr = 1e-06
/
&IONS
ion_dynamics = 'bfgs'
upscale = 1.0
/
&CELL
/

K_POINTS {automatic}
9 9 2 0  0  0

ATOMIC_SPECIES
C 12.01 C.pbe-n-rrkjus_psl.1.0.0.UPF
Ga 69.72 Ga.pbe-dnl-rrkjus_psl.1.0.0.UPF
Li 6.941 Li.pbe-sl-rrkjus_psl.1.0.0.UPF
O 15.99 O.pbe-n-rrkjus_psl.1.0.0.UPF
Pd 106.4 Pd.pbe-n-rrkjus_psl.1.0.0.UPF
Y 88.90 Y.pbe-spn-rrkjus_psl.1.0.0.UPF


CELL_PARAMETERS {angstrom}
6.61884000 0.00000000 0.00000000
-0.00000000 6.61884000 0.00000000
0.00000000 0.00000000 24.96410000

ATOMIC_POSITIONS {angstrom}
Li 4.96413000 1.65471000 -0.8273102699999981 0 0 0
Li 4.93163150 4.98431746 3.08206779
Li 1.68628187 1.63061742 3.09904337
Li 1.65471000 4.96413000 -0.8273102699999981 0 0 0
Y 0.00000000 3.30942000 -2.4821804599999986 0 0 0
Y 6.61579533 6.61579533 0.82531315
Y 3.31180278 3.31173659 0.82131889
Y 3.30942000 0.00000000 -2.4821804599999986 0 0 0
Ga 0.00000000 0.00000000 -2.4821804599999986 0 0 0
Ga 0.00152233 3.30783148 0.89795868
Ga 3.30611058 0.00311085 0.89321550
Ga 3.30942000 3.30942000 -2.4821804599999986 0 0 0
Pd 1.65471000 1.65471000 -0.8273102699999981 0 0 0
Pd 1.65629852 4.96631422 2.29420079
Pd 4.96154865 1.65391574 2.29395115
Pd 4.96413000 4.96413000 -0.8273102699999981 0 0 0
C 1.67125710 1.64054568 5.21300336
O 1.65424668 1.65537188 6.35186560
