&CONTROL
calculation = 'relax'
prefix = 'scf'
pseudo_dir = '/vol0403/data/hp230205/u10028/POT_HYBRID_KKJUS_GBRV'
outdir = './data'
tprnfor = .true.
nstep = 70
disk_io = 'non'
/
&SYSTEM
ibrav = 0
ecutwfc = 50.0
ecutrho = 400
occupations = 'smearing'
smearing = 'mp'
degauss = 0.01
assume_isolated = 'esm'
esm_bc = 'bc1'
input_dft = 'BEEF-VDW'
nosym = .true.
nspin = 1
ntyp = 5
nat = 33
/
&ELECTRONS
electron_maxstep = 200
mixing_beta = 0.1
conv_thr = 1e-06
/
&IONS
ion_dynamics = 'bfgs'
upscale = 1.0
/
&CELL
/

K_POINTS {automatic}
6 6 1 0 0 0

ATOMIC_SPECIES
C 12.01 C.pbe-n-rrkjus_psl.1.0.0.UPF
Cu 63.54 Cu.pbe-dn-rrkjus_psl.1.0.0.UPF
Ge 72.64 Ge.pbe-dn-rrkjus_psl.1.0.0.UPF
Pd 106.4 Pd.pbe-n-rrkjus_psl.1.0.0.UPF
Sc 44.95 Sc.pbe-spn-rrkjus_psl.1.0.0.UPF


CELL_PARAMETERS {angstrom}
6.33395000 0.00000000 0.00000000
-0.00000000 8.95756000 0.00000000
0.00000000 0.00000000 26.71820000

ATOMIC_POSITIONS {angstrom}
Sc 4.75046250 0.00000000 -1.1197597600000009 0 0 0
Sc 4.75046250 4.47878000 -1.1197597600000009 0 0 0
Sc 1.58348750 2.23939000 -3.359012100000001 0 0 0
Sc 1.58348750 6.71817000 -3.359012100000001 0 0 0
Sc 4.40412211 4.47895915 3.53374913
Sc 4.68332263 0.00026873 3.22168056
Sc 1.55397129 6.61309782 1.16197452
Sc 1.55397129 2.34428303 1.16224170
Cu 0.00000000 0.00000000 -3.359012100000001 0 0 0
Cu 0.00000000 4.47878000 -3.359012100000001 0 0 0
Cu 3.16697500 6.71817000 -1.1197597600000009 0 0 0
Cu 3.16697500 2.23939000 -1.1197597600000009 0 0 0
Cu 6.06342700 4.47878000 1.38533867
Cu 0.11369440 8.95747042 1.09036974
Cu 2.72904570 2.07537708 3.71810471
Cu 2.72898236 6.88307868 3.71783753
Ge 1.58348750 0.00000000 -1.1197597600000009 0 0 0
Ge 1.58348750 4.47878000 -1.1197597600000009 0 0 0
Ge 4.75046250 2.23939000 -3.359012100000001 0 0 0
Ge 4.75046250 6.71817000 -3.359012100000001 0 0 0
Ge 1.62396144 4.47895915 3.36836347
Ge 0.83107758 0.00008958 3.98395080
Ge 4.73564106 6.78239571 1.11521767
Ge 4.73576774 2.17516429 1.11521767
Pd 0.00000000 2.23939000 -1.1197597600000009 0 0 0
Pd 0.00000000 6.71817000 -1.1197597600000009 0 0 0
Pd 3.16697500 4.47878000 -3.359012100000001 0 0 0
Pd 3.16697500 0.00000000 -3.359012100000001 0 0 0
Pd 6.22981986 6.56329379 3.30557570
Pd 6.22981986 2.39462451 3.30584289
Pd 2.90018903 8.95747042 1.17853980
Pd 3.23734518 4.47869042 1.07273573
C 2.66937989 0.00062703 3.61550682
