&CONTROL
calculation = 'relax'
prefix = 'scf'
pseudo_dir = '/vol0403/data/hp230205/u10028/POT_HYBRID_KKJUS_GBRV'
outdir = './data'
tprnfor = .true.
nstep = 50
disk_io = 'non'
/
&SYSTEM
ibrav = 0
ecutwfc = 50.0
ecutrho = 400
occupations = 'smearing'
smearing = 'mp'
degauss = 0.01
assume_isolated = 'esm'
esm_bc = 'bc1'
input_dft = 'BEEF-VDW'
nosym = .true.
nspin = 1
ntyp = 6
nat = 34
/
&ELECTRONS
electron_maxstep = 200
mixing_beta = 0.1
conv_thr = 1e-06
/
&IONS
ion_dynamics = 'bfgs'
upscale = 1.0
/
&CELL
/

K_POINTS {automatic}
6 6 1 0 0 0

ATOMIC_SPECIES
C 12.01 C.pbe-n-rrkjus_psl.1.0.0.UPF
Ga 69.72 Ga.pbe-dnl-rrkjus_psl.1.0.0.UPF
In 114.8 In.pbe-dn-rrkjus_psl.1.0.0.UPF
Li 6.941 Li.pbe-sl-rrkjus_psl.1.0.0.UPF
O 15.99 O.pbe-n-rrkjus_psl.1.0.0.UPF
Pd 106.4 Pd.pbe-n-rrkjus_psl.1.0.0.UPF


CELL_PARAMETERS {angstrom}
6.46680000 0.00000000 0.00000000
0.00000000 9.14544000 0.00000000
0.00000000 0.00000000 26.85910000

ATOMIC_POSITIONS {angstrom}
Li 4.85010000 0.00000000 -1.1431233000000027 0 0 0
Li 4.85010000 4.57272000 -1.1431233000000027 0 0 0
Li 1.61670000 2.28636000 -3.4296384800000013 0 0 0
Li 1.61670000 6.85908000 -3.4296384800000013 0 0 0
Li 4.36411998 4.58305435 4.10836794
Li 4.36431398 9.13510565 4.10809935
Li 1.39741081 6.85908000 1.25781165
Li 1.47190835 2.28636000 1.28117907
In 0.00000000 2.28636000 -1.1431233000000027 0 0 0
In 0.00000000 6.85908000 -1.1431233000000027 0 0 0
In 3.23340000 4.57272000 -3.4296384800000013 0 0 0
In 3.23340000 0.00000000 -3.4296384800000013 0 0 0
In 6.15736362 6.85908000 3.74308418
In 6.13104374 2.28645145 3.75973682
In 3.21296491 9.12504567 1.28117907
In 3.21296491 4.59311433 1.28117907
Ga 0.00000000 0.00000000 -3.4296384800000013 0 0 0
Ga 0.00000000 4.57272000 -3.4296384800000013 0 0 0
Ga 3.23340000 6.85908000 -1.1431233000000027 0 0 0
Ga 3.23340000 2.28636000 -1.1431233000000027 0 0 0
Ga 6.26257846 4.53970496 1.36497946
Ga 6.26257846 0.03301504 1.36471087
Ga 2.87294057 2.28636000 3.81775247
Ga 2.87345791 6.85917145 3.75785668
Pd 1.61670000 0.00000000 -1.1431233000000027 0 0 0
Pd 1.61670000 4.57272000 -1.1431233000000027 0 0 0
Pd 4.85010000 2.28636000 -3.4296384800000013 0 0 0
Pd 4.85010000 6.85908000 -3.4296384800000013 0 0 0
Pd 1.44914521 4.56787292 3.37323437
Pd 1.44908054 0.00484708 3.37323437
Pd 4.87208712 6.85917145 1.05556263
Pd 4.78698403 2.28636000 1.04401322
C 5.67248296 2.28636000 7.81411796
O 0.19762541 2.28636000 8.36795261
