&CONTROL
calculation = 'relax'
prefix = 'scf'
pseudo_dir = '/vol0004/mdt0/data/hp150275/u10028/POT_KKJUS'
outdir = './data'
tprnfor = .true.
nstep = 50
disk_io = 'non'
/
&SYSTEM
ibrav = 0
ecutwfc = 50.0
ecutrho = 400
occupations = 'smearing'
smearing = 'mp'
degauss = 0.01
assume_isolated = 'esm'
esm_bc = 'bc1'
input_dft = 'BEEF-VDW'
nosym = .true.
nspin = 1
ntyp = 5
nat = 34
/
&ELECTRONS
electron_maxstep = 200
mixing_beta = 0.1
conv_thr = 1e-06
/
&IONS
ion_dynamics = 'bfgs'
upscale = 1.0
/
&CELL
/

K_POINTS {automatic}
9 6 2 0  0  0

ATOMIC_SPECIES
C 12.01 C.pbe-n-rrkjus_psl.1.0.0.UPF
In 114.8 In.pbe-dn-rrkjus_psl.1.0.0.UPF
O 15.99 O.pbe-n-rrkjus_psl.1.0.0.UPF
Pd 106.4 Pd.pbe-n-rrkjus_psl.1.0.0.UPF
Sc 44.95 Sc.pbe-spn-rrkjus_psl.1.0.0.UPF

CELL_PARAMETERS {angstrom}
6.63475000 0.00000000 0.00000000
0.00000000 9.38295000 0.00000000
0.00000000 0.00000000 27.03720000

ATOMIC_POSITIONS {angstrom}
Sc 0.00000000 0.00000000 -3.518621209999999 0 0 0
Sc 3.31737500 2.34573750 -1.17287374 0 0 0
Sc 3.31737500 7.03721250 -1.17287374 0 0 0
Sc 0.00000000 4.69147500 -3.518621209999999 0 0 0
Sc 0.00000000 4.69016139 1.20694061
Sc 3.31737500 7.03721250 3.40425385
Sc 3.31737500 2.34573750 3.41209464
Sc 0.00000000 0.00131361 1.20694061
In 0.00000000 7.03721250 -1.17287374 0 0 0
In 3.31737500 0.00000000 -3.518621209999999 0 0 0
In 0.00000000 2.34573750 -1.17287374 0 0 0
In 3.31737500 4.69147500 -3.518621209999999 0 0 0
In 0.00000000 2.34573750 3.67354436
In 3.31737500 4.68959841 1.17098113
In 0.00000000 7.03721250 3.67868143
In 3.31737500 0.00187659 1.17098113
Pd 1.65868750 0.00000000 -1.17287374 0 0 0
Pd 4.97606250 4.69147500 -1.17287374 0 0 0
Pd 4.97606250 0.00000000 -1.17287374 0 0 0
Pd 1.65868750 4.69147500 -1.17287374 0 0 0
Pd 4.97606250 7.03721250 -3.518621209999999 0 0 0
Pd 1.65868750 2.34573750 -3.518621209999999 0 0 0
Pd 1.65868750 7.03721250 -3.518621209999999 0 0 0
Pd 4.97606250 2.34573750 -3.518621209999999 0 0 0
Pd 1.60501237 4.70470496 3.39316860
Pd 5.02980398 9.36972004 3.39316860
Pd 5.02980398 4.70470496 3.39316860
Pd 1.60494603 9.36972004 3.39316860
Pd 5.00107551 2.34573750 1.16935890
Pd 1.63997751 7.03721250 1.18855531
Pd 1.63367449 2.34573750 1.16935890
Pd 4.99477250 7.03721250 1.18855531
C 3.31737500 2.34573750 5.75189393
O 3.31737500 2.34573750 6.89691935
