&CONTROL
calculation = 'relax'
prefix = 'scf'
pseudo_dir = '/vol0004/mdt0/data/hp150275/u10028/POT_HYBRID_KKJUS_GBRV'
outdir = './data'
tprnfor = .true.
nstep = 50
disk_io = 'non'
/
&SYSTEM
ibrav = 0
ecutwfc = 50.0
ecutrho = 400
occupations = 'smearing'
smearing = 'mp'
degauss = 0.01
assume_isolated = 'esm'
esm_bc = 'bc1'
input_dft = 'BEEF-VDW'
nosym = .true.
nspin = 2
ntyp = 4
nat = 33
starting_magnetization(1) = 0.0
starting_magnetization(2) = 0.0
starting_magnetization(3) = 0.001
starting_magnetization(4) = 0.0
/
&ELECTRONS
electron_maxstep = 200
mixing_beta = 0.1
conv_thr = 1e-06
/
&IONS
ion_dynamics = 'bfgs'
upscale = 1.0
/
&CELL
/

K_POINTS {automatic}
9 6 2 0  0  0

ATOMIC_SPECIES
Al 26.98 Al.pbe-nl-rrkjus_psl.1.0.0.UPF
C 12.01 C.pbe-n-rrkjus_psl.1.0.0.UPF
Ni 58.69 ni_pbe_v1.4.uspp.F.UPF
Ta 180.9 Ta.pbe-spn-rrkjus_psl.1.0.0.UPF

CELL_PARAMETERS {angstrom}
5.99379000 0.00000000 0.00000000
0.00000000 8.47650000 0.00000000
0.00000000 0.00000000 26.35740000

ATOMIC_POSITIONS {angstrom}
Ta 0.00000000 0.00000000 23.17869756
Ta 2.99689500 2.11912500 25.29783252
Ta 2.99689500 6.35737500 25.29783252
Ta 0.00000000 4.23825000 23.17869756
Ta 5.98479932 4.29648356 1.15208195
Ta 2.73011141 6.35720547 3.14997287
Ta 2.98640587 2.11912500 3.00843364
Ta 5.98455956 8.41869027 1.15234553
Al 0.00000000 6.35737500 25.29783252
Al 2.99689500 0.00000000 23.17869756
Al 0.00000000 2.11912500 25.29783252
Al 2.99689500 4.23825000 23.17869756
Al 5.66916633 2.11904024 3.32155955
Al 2.94822543 4.20790413 1.04322589
Al 5.89878843 6.35745977 3.25355746
Al 2.94846518 0.03017634 1.04322589
Ni 1.49844750 0.00000000 25.29783252
Ni 4.49534250 4.23825000 25.29783252
Ni 4.49534250 0.00000000 25.29783252
Ni 1.49844750 4.23825000 25.29783252
Ni 4.49534250 6.35737500 23.17869756
Ni 1.49844750 2.11912500 23.17869756
Ni 1.49844750 6.35737500 23.17869756
Ni 4.49534250 2.11912500 23.17869756
Ni 1.30161144 4.13670153 3.38402659
Ni 4.33195178 8.39461701 3.06193916
Ni 4.33267104 4.31970917 3.06114844
Ni 1.30191113 0.10163324 3.38455373
Ni 4.65507700 2.11971836 0.92540831
Ni 1.57109223 6.35737500 0.96204510
Ni 1.37659375 2.11895547 0.98260387
Ni 4.34256079 6.35703594 1.20031600
C 1.39889065 2.11946406 4.13046815
