&CONTROL
calculation = 'relax'
prefix = 'scf'
pseudo_dir = '/vol0004/mdt0/data/hp150275/u10028/POT_KKJUS'
outdir = './data'
tprnfor = .true.
nstep = 50
disk_io = 'non'
/
&SYSTEM
ibrav = 0
ecutwfc = 50.0
ecutrho = 400
occupations = 'smearing'
smearing = 'mp'
degauss = 0.01
assume_isolated = 'esm'
esm_bc = 'bc1'
input_dft = 'BEEF-VDW'
nosym = .true.
nspin = 1
ntyp = 4
nat = 33
/
&ELECTRONS
electron_maxstep = 200
mixing_beta = 0.1
conv_thr = 1e-06
/
&IONS
ion_dynamics = 'bfgs'
upscale = 1.0
/
&CELL
/

K_POINTS {automatic}
9 6 2 0  0  0

ATOMIC_SPECIES
C 12.01 C.pbe-n-rrkjus_psl.1.0.0.UPF
Mg 24.30 Mg.pbe-spnl-rrkjus_psl.1.0.0.UPF
Ni 58.69 Ni.pbe-spn-rrkjus_psl.1.0.0.UPF
Sn 118.7 Sn.pbe-dn-rrkjus_psl.1.0.0.UPF

CELL_PARAMETERS {angstrom}
6.22749000 0.00000000 0.00000000
0.00000000 8.80700000 0.00000000
0.00000000 0.00000000 26.60530000

ATOMIC_POSITIONS {angstrom}
Mg 0.00000000 0.00000000 -3.3025158899999987 0 0 0
Mg 3.11374500 2.20175000 -1.1009273099999994 0 0 0
Mg 3.11374500 6.60525000 -1.1009273099999994 0 0 0
Mg 0.00000000 4.40350000 -3.3025158899999987 0 0 0
Mg 0.00000000 4.40341193 1.02270773
Mg 3.11374500 6.51929368 3.50445012
Mg 3.11374500 2.28788246 3.50445012
Mg 0.00006227 8.80691193 1.17834874
Ni 1.55687250 0.00000000 -1.1009273099999994 0 0 0
Ni 4.67061750 4.40350000 -1.1009273099999994 0 0 0
Ni 4.67061750 0.00000000 -1.1009273099999994 0 0 0
Ni 1.55687250 4.40350000 -1.1009273099999994 0 0 0
Ni 4.67061750 6.60525000 -3.3025158899999987 0 0 0
Ni 1.55687250 2.20175000 -3.3025158899999987 0 0 0
Ni 1.55687250 6.60525000 -3.3025158899999987 0 0 0
Ni 4.67061750 2.20175000 -3.3025158899999987 0 0 0
Ni 1.52293268 4.40376421 3.11095773
Ni 4.45414995 8.80691193 3.25196582
Ni 4.70455732 4.40376421 3.11095773
Ni 1.77340233 0.00000000 3.25196582
Ni 4.67858869 2.22852328 1.15573423
Ni 1.54890131 6.57838865 1.15573423
Ni 1.54902586 2.22861135 1.15573423
Ni 4.67871324 6.57838865 1.15573423
Sn 0.00000000 6.60525000 -1.1009273099999994 0 0 0
Sn 3.11374500 0.00000000 -3.3025158899999987 0 0 0
Sn 0.00000000 2.20175000 -1.1009273099999994 0 0 0
Sn 3.11374500 4.40350000 -3.3025158899999987 0 0 0
Sn 0.00000000 2.30549646 3.48502825
Sn 3.11374500 4.40350000 1.06873490
Sn 0.00000000 6.50185582 3.48502825
Sn 3.11374500 8.80691193 1.04745066
C 0.00000000 0.00008807 3.58133943
