&CONTROL
calculation = 'relax'
prefix = 'scf'
pseudo_dir = '/vol0403/data/hp230205/u10028/POT_HYBRID_KKJUS_GBRV'
outdir = './data'
tprnfor = .true.
nstep = 50
disk_io = 'non'
/
&SYSTEM
ibrav = 0
ecutwfc = 50.0
ecutrho = 400
occupations = 'smearing'
smearing = 'mp'
degauss = 0.01
assume_isolated = 'esm'
esm_bc = 'bc1'
input_dft = 'BEEF-VDW'
nosym = .true.
nspin = 1
ntyp = 6
nat = 18
/
&ELECTRONS
electron_maxstep = 200
mixing_beta = 0.1
conv_thr = 1e-06
/
&IONS
ion_dynamics = 'bfgs'
upscale = 1.0
/
&CELL
/

K_POINTS {automatic}
9 9 2 0  0  0

ATOMIC_SPECIES
C 12.01 C.pbe-n-rrkjus_psl.1.0.0.UPF
Ge 72.64 Ge.pbe-dn-rrkjus_psl.1.0.0.UPF
Li 6.941 Li.pbe-sl-rrkjus_psl.1.0.0.UPF
Mg 24.30 Mg.pbe-spnl-rrkjus_psl.1.0.0.UPF
O 15.99 O.pbe-n-rrkjus_psl.1.0.0.UPF
Pd 106.4 Pd.pbe-n-rrkjus_psl.1.0.0.UPF


CELL_PARAMETERS {angstrom}
6.25843000 0.00000000 0.00000000
0.00000000 6.25843000 0.00000000
0.00000000 0.00000000 24.69380000

ATOMIC_POSITIONS {angstrom}
Li 1.56460750 1.56460750 -0.7822995800000001 0 0 0
Li 1.56542110 4.70677745 2.81534014
Li 4.70671487 1.56529593 2.81509320
Li 4.69382250 4.69382250 -0.7822995800000001 0 0 0
Mg 0.00000000 3.12921500 -2.346898750000001 0 0 0
Mg 0.03911519 0.03905260 0.80230156
Mg 3.08878554 3.08884813 0.81217908
Mg 3.12921500 0.00000000 -2.346898750000001 0 0 0
Ge 0.00000000 0.00000000 -2.346898750000001 0 0 0
Ge 0.04800216 3.08309037 0.93145014
Ge 3.08315296 0.04800216 0.93145014
Ge 3.12921500 3.12921500 -2.346898750000001 0 0 0
Pd 4.69382250 1.56460750 -0.7822995800000001 0 0 0
Pd 4.69463610 4.69463610 2.13132188
Pd 1.55985109 1.55985109 2.51308803
Pd 1.56460750 4.69382250 -0.7822995800000001 0 0 0
C 1.55246615 1.55246615 4.46488598
O 1.55478176 1.55478176 5.62401295
