&CONTROL
calculation = 'relax'
prefix = 'scf'
pseudo_dir = '/vol0403/data/hp230205/u10028/POT_HYBRID_KKJUS_GBRV'
outdir = './data'
tprnfor = .true.
nstep = 50
disk_io = 'non'
/
&SYSTEM
ibrav = 0
ecutwfc = 50.0
ecutrho = 400
occupations = 'smearing'
smearing = 'mp'
degauss = 0.01
assume_isolated = 'esm'
esm_bc = 'bc1'
input_dft = 'BEEF-VDW'
nosym = .true.
nspin = 1
ntyp = 6
nat = 18
/
&ELECTRONS
electron_maxstep = 200
mixing_beta = 0.1
conv_thr = 1e-06
/
&IONS
ion_dynamics = 'bfgs'
upscale = 1.0
/
&CELL
/

K_POINTS {automatic}
6 6 1 0 0 0

ATOMIC_SPECIES
C 12.01 C.pbe-n-rrkjus_psl.1.0.0.UPF
Ge 72.64 Ge.pbe-dn-rrkjus_psl.1.0.0.UPF
Li 6.941 Li.pbe-sl-rrkjus_psl.1.0.0.UPF
O 15.99 O.pbe-n-rrkjus_psl.1.0.0.UPF
Pb 207.2 Pb.pbe-dn-rrkjus_psl.1.0.0.UPF
Y 88.90 Y.pbe-spn-rrkjus_psl.1.0.0.UPF


CELL_PARAMETERS {angstrom}
8.55406000 0.00000000 0.00000000
0.00000000 6.56037000 0.00000000
0.00000000 0.00000000 24.87870000

ATOMIC_POSITIONS {angstrom}
Li 2.07093793 5.01081061 1.28000911
Li 2.13851500 1.00170290 -2.4393565299999977 0 0 0
Li 6.48346424 5.01081061 1.28025790
Li 6.41554500 1.00170290 -2.4393565299999977 0 0 0
Y 2.14082460 1.55447967 0.84985639
Y 2.13851500 4.28188790 -2.4393565299999977 0 0 0
Y 6.41332094 1.55467648 0.85035397
Y 6.41554500 4.28188790 -2.4393565299999977 0 0 0
Ge 0.00076987 6.44405464 2.32416815
Ge 0.00000000 2.85461380 -0.8130359199999972 0 0 0
Ge 4.27694446 6.38264958 2.04726822
Ge 4.27703000 2.85461380 -0.8130359199999972 0 0 0
Pb 0.00042770 3.39308897 2.49583118
Pb 0.00000000 6.13479880 -0.8130359199999972 0 0 0
Pb 4.27677338 3.48578700 2.41174118
Pb 4.27703000 6.13479880 -0.8130359199999972 0 0 0
C 0.00034216 6.52022054 4.30774691
O 8.55371784 6.50755902 5.46410888
