&CONTROL
calculation = 'relax'
prefix = 'scf'
pseudo_dir = '/vol0004/mdt0/data/hp150275/u10028/POT_HYBRID_KKJUS_GBRV'
outdir = './data'
tprnfor = .true.
nstep = 50
disk_io = 'non'
/
&SYSTEM
ibrav = 0
ecutwfc = 50.0
ecutrho = 400
occupations = 'smearing'
smearing = 'mp'
degauss = 0.01
assume_isolated = 'esm'
esm_bc = 'bc1'
input_dft = 'BEEF-VDW'
nosym = .true.
nspin = 2
ntyp = 4
nat = 33
starting_magnetization(1) = 0.0
starting_magnetization(2) = 0.0
starting_magnetization(3) = 0.1
starting_magnetization(4) = 0.0
/
&ELECTRONS
electron_maxstep = 200
mixing_beta = 0.1
conv_thr = 1e-06
/
&IONS
ion_dynamics = 'bfgs'
upscale = 1.0
/
&CELL
/

K_POINTS {automatic}
9 6 2 0  0  0

ATOMIC_SPECIES
Al 26.98 Al.pbe-nl-rrkjus_psl.1.0.0.UPF
C 12.01 C.pbe-n-rrkjus_psl.1.0.0.UPF
Mn 54.93 mn_pbe_v1.5.uspp.F.UPF
V 50.94 V.pbe-spnl-rrkjus_psl.1.0.0.UPF

CELL_PARAMETERS {angstrom}
5.82937000 0.00000000 0.00000000
0.00000000 8.24397000 0.00000000
0.00000000 0.00000000 26.18300000

ATOMIC_POSITIONS {angstrom}
Mn 1.45734250 0.00000000 25.15243712
Mn 4.37202750 4.12198500 25.15243712
Mn 4.37202750 0.00000000 25.15243712
Mn 1.45734250 4.12198500 25.15243712
Mn 4.37202750 6.18297750 23.09157319
Mn 1.45734250 2.06099250 23.09157319
Mn 1.45734250 6.18297750 23.09157319
Mn 4.37202750 2.06099250 23.09157319
Mn 1.37433227 4.12198500 3.19039855
Mn 4.15336783 0.00000000 3.04036996
Mn 4.45503773 4.12198500 3.19039855
Mn 1.67600217 0.00000000 3.04036996
Mn 4.35063371 2.05703539 1.08397620
Mn 1.47873629 6.18693461 1.08397620
Mn 1.47873629 2.05703539 1.08397620
Mn 4.35063371 6.18693461 1.08397620
Al 0.00000000 0.00000000 23.09157319
Al 2.91468500 2.06099250 25.15243712
Al 2.91468500 6.18297750 25.15243712
Al 0.00000000 4.12198500 23.09157319
Al 0.00000000 4.12198500 1.04260706
Al 2.91468500 6.11224424 3.29355957
Al 2.91468500 2.13164332 3.29329774
Al 0.00000000 0.00000000 1.04470170
V 0.00000000 6.18297750 25.15243712
V 2.91468500 0.00000000 23.09157319
V 0.00000000 2.06099250 25.15243712
V 2.91468500 4.12198500 23.09157319
V 0.00000000 2.01350723 3.03722800
V 2.91468500 4.12198500 1.07533581
V 0.00000000 6.23038033 3.03722800
V 2.91468500 0.00000000 0.95829780
C 0.00000000 0.00000000 3.72112796
