&CONTROL
calculation = 'relax'
prefix = 'scf'
pseudo_dir = '/vol0004/mdt0/data/hp150275/u10028/POT_KKJUS'
outdir = './data'
tprnfor = .true.
nstep = 50
disk_io = 'non'
/
&SYSTEM
ibrav = 0
ecutwfc = 50.0
ecutrho = 400
occupations = 'smearing'
smearing = 'mp'
degauss = 0.01
assume_isolated = 'esm'
esm_bc = 'bc1'
input_dft = 'BEEF-VDW'
nosym = .true.
nspin = 1
ntyp = 2
nat = 33
/
&ELECTRONS
electron_maxstep = 200
mixing_beta = 0.1
conv_thr = 1e-06
/
&IONS
ion_dynamics = 'bfgs'
upscale = 1.0
/
&CELL
/

K_POINTS {automatic}
7 7 2 0  0  0

ATOMIC_SPECIES
C 12.01 C.pbe-n-rrkjus_psl.1.0.0.UPF
Li 6.941 Li.pbe-sl-rrkjus_psl.1.0.0.UPF

CELL_PARAMETERS {angstrom}
8.54633000 0.00000000 0.00000000
-0.00000000 8.54633000 0.00000000
0.00000000 0.00000000 26.40970000

ATOMIC_POSITIONS {angstrom}
Li 0.00000000 0.00000000 -3.2048170900000024 0 0 0
Li 2.13658250 2.13658250 -3.2048170900000024 0 0 0
Li 2.13658250 0.00000000 -1.0682723600000017 0 0 0
Li 0.00000000 2.13658250 -1.0682723600000017 0 0 0
Li 0.00000000 0.00000000 1.06827237
Li 2.13658250 2.13658250 1.06827237
Li 2.13658250 -0.00000000 3.20481710
Li 0.00000000 2.13658250 3.20481710
Li 0.00000000 4.27316500 -3.2048170900000024 0 0 0
Li 2.13658250 6.40974750 -3.2048170900000024 0 0 0
Li 2.13658250 4.27316500 -1.0682723600000017 0 0 0
Li 0.00000000 6.40974750 -1.0682723600000017 0 0 0
Li 0.00000000 4.27316500 1.06827237
Li 2.13658250 6.40974750 1.06827237
Li 2.13658250 4.27316500 3.20481710
Li 0.00000000 6.40974750 3.20481710
Li 4.27316500 0.00000000 -3.2048170900000024 0 0 0
Li 6.40974750 2.13658250 -3.2048170900000024 0 0 0
Li 6.40974750 0.00000000 -1.0682723600000017 0 0 0
Li 4.27316500 2.13658250 -1.0682723600000017 0 0 0
Li 4.27316500 -0.00000000 1.06827237
Li 6.40974750 2.13658250 1.06827237
Li 6.40974750 -0.00000000 3.20481710
Li 4.27316500 2.13658250 3.20481710
Li 4.27316500 4.27316500 -3.2048170900000024 0 0 0
Li 6.40974750 6.40974750 -3.2048170900000024 0 0 0
Li 6.40974750 4.27316500 -1.0682723600000017 0 0 0
Li 4.27316500 6.40974750 -1.0682723600000017 0 0 0
Li 4.27316500 4.27316500 1.06827237
Li 6.40974750 6.40974750 1.06827237
Li 6.40974750 4.27316500 3.20481710
Li 4.27316500 6.40974750 3.20481710
C 0.00000000 0.00000000 4.00476691
