&CONTROL
calculation = 'relax'
prefix = 'scf'
pseudo_dir = '/vol0403/data/hp230205/u10028/POT_HYBRID_KKJUS_GBRV'
outdir = './data'
tprnfor = .true.
nstep = 50
disk_io = 'non'
/
&SYSTEM
ibrav = 0
ecutwfc = 50.0
ecutrho = 400
occupations = 'smearing'
smearing = 'mp'
degauss = 0.01
assume_isolated = 'esm'
esm_bc = 'bc1'
input_dft = 'BEEF-VDW'
nosym = .true.
nspin = 1
ntyp = 5
nat = 33
/
&ELECTRONS
electron_maxstep = 200
mixing_beta = 0.1
conv_thr = 1e-06
/
&IONS
ion_dynamics = 'bfgs'
upscale = 1.0
/
&CELL
/

K_POINTS {automatic}
6 6 1 0 0 0

ATOMIC_SPECIES
C 12.01 C.pbe-n-rrkjus_psl.1.0.0.UPF
Li 6.941 Li.pbe-sl-rrkjus_psl.1.0.0.UPF
Mg 24.30 Mg.pbe-spnl-rrkjus_psl.1.0.0.UPF
Pd 106.4 Pd.pbe-n-rrkjus_psl.1.0.0.UPF
Sn 118.7 Sn.pbe-dn-rrkjus_psl.1.0.0.UPF


CELL_PARAMETERS {angstrom}
6.52546000 0.00000000 0.00000000
0.00000000 9.22840000 0.00000000
0.00000000 0.00000000 26.92130000

ATOMIC_POSITIONS {angstrom}
Li 0.00000000 0.00000000 -3.4607331200000004 0 0 0
Li 0.00000000 4.61420000 -3.4607331200000004 0 0 0
Li 3.26273000 6.92130000 -1.1535777100000004 0 0 0
Li 3.26273000 2.30710000 -1.1535777100000004 0 0 0
Li 6.44310869 4.61890648 1.21415063
Li 6.44310869 9.22369352 1.21415063
Li 3.43376231 2.30710000 4.38332607
Li 3.23088576 6.92130000 3.78378872
Mg 1.63136500 0.00000000 -1.1535777100000004 0 0 0
Mg 1.63136500 4.61420000 -1.1535777100000004 0 0 0
Mg 4.89409500 2.30710000 -3.4607331200000004 0 0 0
Mg 4.89409500 6.92130000 -3.4607331200000004 0 0 0
Mg 1.59286479 4.50751970 3.53934331
Mg 1.59286479 0.10668030 3.53934331
Mg 4.83621417 6.92130000 1.20607424
Mg 4.78094352 2.30710000 1.27176221
Sn 4.89409500 0.00000000 -1.1535777100000004 0 0 0
Sn 4.89409500 4.61420000 -1.1535777100000004 0 0 0
Sn 1.63136500 2.30710000 -3.4607331200000004 0 0 0
Sn 1.63136500 6.92130000 -3.4607331200000004 0 0 0
Sn 4.81689881 4.70177752 3.68310305
Sn 4.81689881 9.14082248 3.68310305
Sn 1.65407360 6.92130000 1.18722933
Sn 1.71019256 2.30710000 1.18938303
Pd 0.00000000 2.30710000 -1.1535777100000004 0 0 0
Pd 0.00000000 6.92130000 -1.1535777100000004 0 0 0
Pd 3.26273000 4.61420000 -3.4607331200000004 0 0 0
Pd 3.26273000 0.00000000 -3.4607331200000004 0 0 0
Pd 6.52180574 6.92130000 3.29678240
Pd 6.10300172 2.30710000 3.56168799
Pd 3.27140886 9.18816418 1.11319575
Pd 3.27140886 4.65443582 1.11319575
C 1.59717159 2.30710000 3.44673404
