&CONTROL
calculation = 'relax'
prefix = 'scf'
pseudo_dir = '/vol0403/data/hp230205/u10028/POT_HYBRID_KKJUS_GBRV'
outdir = './data'
tprnfor = .true.
nstep = 50
disk_io = 'non'
/
&SYSTEM
ibrav = 0
ecutwfc = 50.0
ecutrho = 400
occupations = 'smearing'
smearing = 'mp'
degauss = 0.01
assume_isolated = 'esm'
esm_bc = 'bc1'
input_dft = 'BEEF-VDW'
nosym = .true.
nspin = 2
ntyp = 6
nat = 34
starting_magnetization(1) = 0.0
starting_magnetization(2) = 0.0
starting_magnetization(3) = 0.0
starting_magnetization(4) = 0.1
starting_magnetization(5) = 0.0
starting_magnetization(6) = 0.0
/
&ELECTRONS
electron_maxstep = 200
mixing_beta = 0.1
conv_thr = 1e-06
/
&IONS
ion_dynamics = 'bfgs'
upscale = 1.0
/
&CELL
/

K_POINTS {automatic}
9 6 2 0  0  0

ATOMIC_SPECIES
Al 26.98 Al.pbe-nl-rrkjus_psl.1.0.0.UPF
C 12.01 C.pbe-n-rrkjus_psl.1.0.0.UPF
Li 6.941 Li.pbe-sl-rrkjus_psl.1.0.0.UPF
Mn 54.93 mn_pbe_v1.5.uspp.F.UPF
O 15.99 O.pbe-n-rrkjus_psl.1.0.0.UPF
Pd 106.4 Pd.pbe-n-rrkjus_psl.1.0.0.UPF


CELL_PARAMETERS {angstrom}
6.10222000 0.00000000 0.00000000
0.00000000 8.62984000 0.00000000
0.00000000 0.00000000 26.47240000

ATOMIC_POSITIONS {angstrom}
Li 0.00000000 2.15746000 -1.0787502999999994 0 0 0
Li 0.00000000 6.47238000 -1.0787502999999994 0 0 0
Li 3.05111000 4.31492000 -3.2362509000000017 0 0 0
Li 3.05111000 0.00000000 -3.2362509000000017 0 0 0
Li 6.06859677 6.57723256 3.70401821
Li 6.06859677 2.05260744 3.70401821
Li 3.02840974 0.00000000 0.95935978
Li 3.04317711 4.31492000 0.96624260
Mn 1.52555500 0.00000000 -1.0787502999999994 0 0 0
Mn 1.52555500 4.31492000 -1.0787502999999994 0 0 0
Mn 4.57666500 2.15746000 -3.2362509000000017 0 0 0
Mn 4.57666500 6.47238000 -3.2362509000000017 0 0 0
Mn 1.57693569 4.31492000 3.14465640
Mn 1.59774426 0.00000000 3.08906436
Mn 4.61047130 6.48075094 1.15816750
Mn 4.61047130 2.14908906 1.15816750
Al 0.00000000 0.00000000 -3.2362509000000017 0 0 0
Al 0.00000000 4.31492000 -3.2362509000000017 0 0 0
Al 3.05111000 6.47238000 -1.0787502999999994 0 0 0
Al 3.05111000 2.15746000 -1.0787502999999994 0 0 0
Al 0.00549200 4.31492000 1.04380673
Al 0.06297491 0.00000000 1.05545459
Al 3.01492384 2.09670593 3.29475490
Al 3.01492384 6.53313407 3.29475490
Pd 4.57666500 0.00000000 -1.0787502999999994 0 0 0
Pd 4.57666500 4.31492000 -1.0787502999999994 0 0 0
Pd 1.52555500 2.15746000 -3.2362509000000017 0 0 0
Pd 1.52555500 6.47238000 -3.2362509000000017 0 0 0
Pd 4.43753438 4.31492000 3.03585483
Pd 4.49574956 0.00000000 2.97788028
Pd 1.51316749 6.46297347 1.08510368
Pd 1.51316749 2.16686653 1.08510368
C 1.49620332 0.00000000 4.89315842
O 1.46605835 0.00000000 6.06959187
