&CONTROL
calculation = 'relax'
prefix = 'scf'
pseudo_dir = '/vol0403/data/hp230205/u10028/POT_HYBRID_KKJUS_GBRV'
outdir = './data'
tprnfor = .true.
nstep = 100
disk_io = 'non'
/
&SYSTEM
ibrav = 0
ecutwfc = 50.0
ecutrho = 400
occupations = 'smearing'
smearing = 'mp'
degauss = 0.01
assume_isolated = 'esm'
esm_bc = 'bc1'
input_dft = 'BEEF-VDW'
nosym = .true.
nspin = 1
ntyp = 5
nat = 17
/
&ELECTRONS
electron_maxstep = 200
mixing_beta = 0.1
conv_thr = 1e-06
/
&IONS
ion_dynamics = 'bfgs'
upscale = 1.0
/
&CELL
/

K_POINTS {automatic}
8 8 1 0 0 0

ATOMIC_SPECIES
C 12.01 C.pbe-n-rrkjus_psl.1.0.0.UPF
Cu 63.54 Cu.pbe-dn-rrkjus_psl.1.0.0.UPF
In 114.8 In.pbe-dn-rrkjus_psl.1.0.0.UPF
Mg 24.30 Mg.pbe-spnl-rrkjus_psl.1.0.0.UPF
Pd 106.4 Pd.pbe-n-rrkjus_psl.1.0.0.UPF


CELL_PARAMETERS {angstrom}
6.45956000 0.00000000 0.00000000
-0.00000000 6.45956000 0.00000000
0.00000000 0.00000000 24.84470000

ATOMIC_POSITIONS {angstrom}
Mg 1.61489000 1.61489000 0.80745275
Mg 1.61489000 4.84467000 -2.4223582499999985 0 0 0
Mg 4.84467000 1.61489000 -2.4223582499999985 0 0 0
Mg 4.84467000 4.84467000 0.80745275
In 4.84467000 1.61489000 0.80745275
In 4.84467000 4.84467000 -2.4223582499999985 0 0 0
In 1.61489000 1.61489000 -2.4223582499999985 0 0 0
In 1.61489000 4.84467000 0.80745275
Cu 0.00000000 0.00000000 2.42235825
Cu 0.00000000 3.22978000 -0.8074527499999995 0 0 0
Cu 3.22978000 0.00000000 -0.8074527499999995 0 0 0
Cu 3.22978000 3.22978000 2.42235825
Pd 0.00000000 3.22978000 2.42235825
Pd 0.00000000 0.00000000 -0.8074527499999995 0 0 0
Pd 3.22978000 3.22978000 -0.8074527499999995 0 0 0
Pd 3.22978000 -0.00000000 2.42235825
C 4.84467000 1.61489000 3.22235759
