&CONTROL
calculation = 'relax'
prefix = 'scf'
pseudo_dir = '/vol0403/data/hp230205/u10028/POT_HYBRID_KKJUS_GBRV'
outdir = './data'
tprnfor = .true.
nstep = 50
disk_io = 'non'
/
&SYSTEM
ibrav = 0
ecutwfc = 50.0
ecutrho = 400
occupations = 'smearing'
smearing = 'mp'
degauss = 0.01
assume_isolated = 'esm'
esm_bc = 'bc1'
input_dft = 'BEEF-VDW'
nosym = .true.
nspin = 1
ntyp = 6
nat = 34
/
&ELECTRONS
electron_maxstep = 200
mixing_beta = 0.1
conv_thr = 1e-06
/
&IONS
ion_dynamics = 'bfgs'
upscale = 1.0
/
&CELL
/

K_POINTS {automatic}
9 6 2 0  0  0

ATOMIC_SPECIES
C 12.01 C.pbe-n-rrkjus_psl.1.0.0.UPF
Ge 72.64 Ge.pbe-dn-rrkjus_psl.1.0.0.UPF
Li 6.941 Li.pbe-sl-rrkjus_psl.1.0.0.UPF
Mg 24.30 Mg.pbe-spnl-rrkjus_psl.1.0.0.UPF
O 15.99 O.pbe-n-rrkjus_psl.1.0.0.UPF
Pd 106.4 Pd.pbe-n-rrkjus_psl.1.0.0.UPF


CELL_PARAMETERS {angstrom}
6.25843000 0.00000000 0.00000000
0.00000000 8.85076000 0.00000000
0.00000000 0.00000000 26.63810000

ATOMIC_POSITIONS {angstrom}
Li 1.56460750 0.00000000 -1.1062802900000008 0 0 0
Li 1.56460750 4.42538000 -1.1062802900000008 0 0 0
Li 4.69382250 2.21269000 -3.3191072600000027 0 0 0
Li 4.69382250 6.63807000 -3.3191072600000027 0 0 0
Li 2.05232695 4.37094783 4.28447200
Li 2.05182628 0.05496322 4.28367286
Li 4.66303102 6.63815851 1.19232136
Li 4.75834691 2.21269000 1.11507087
Mg 0.00000000 2.21269000 -1.1062802900000008 0 0 0
Mg 0.00000000 6.63807000 -1.1062802900000008 0 0 0
Mg 3.12921500 4.42538000 -3.3191072600000027 0 0 0
Mg 3.12921500 0.00000000 -3.3191072600000027 0 0 0
Mg 0.13418074 6.63815851 3.41713547
Mg 6.20410683 2.21295552 3.46801424
Mg 3.01399730 0.03602259 1.21070165
Mg 3.01418506 4.38944591 1.21043526
Ge 0.00000000 0.00000000 -3.3191072600000027 0 0 0
Ge 0.00000000 4.42538000 -3.3191072600000027 0 0 0
Ge 3.12921500 6.63807000 -1.1062802900000008 0 0 0
Ge 3.12921500 2.21269000 -1.1062802900000008 0 0 0
Ge 0.02953979 4.44732988 1.22428708
Ge 0.02935204 8.82881012 1.22455346
Ge 3.22972539 2.21277851 3.31777536
Ge 3.11112814 6.63824702 3.46028919
Pd 4.69382250 0.00000000 -1.1062802900000008 0 0 0
Pd 4.69382250 4.42538000 -1.1062802900000008 0 0 0
Pd 1.56460750 2.21269000 -3.3191072600000027 0 0 0
Pd 1.56460750 6.63807000 -3.3191072600000027 0 0 0
Pd 4.65076450 4.49061010 3.21255486
Pd 4.65070192 8.78570691 3.21255486
Pd 1.56936391 6.63798149 1.02636599
Pd 1.46059239 2.21277851 1.16808069
C 1.04766118 2.21286702 5.39794458
O 1.42310440 2.21277851 6.50236021
