&CONTROL
calculation = 'relax'
prefix = 'scf'
pseudo_dir = '/vol0004/mdt0/data/hp150275/u10028/POT_KKJUS'
outdir = './data'
tprnfor = .true.
nstep = 50
disk_io = 'non'
/
&SYSTEM
ibrav = 0
ecutwfc = 50.0
ecutrho = 400
occupations = 'smearing'
smearing = 'mp'
degauss = 0.01
assume_isolated = 'esm'
esm_bc = 'bc1'
input_dft = 'BEEF-VDW'
nosym = .true.
nspin = 1
ntyp = 2
nat = 32
/
&ELECTRONS
electron_maxstep = 200
mixing_beta = 0.1
conv_thr = 1e-06
/
&IONS
ion_dynamics = 'bfgs'
upscale = 1.0
/
&CELL
/

K_POINTS {automatic}
8 8 1 0 0 0

ATOMIC_SPECIES
Rh 102.9 Rh.pbe-spn-rrkjus_psl.1.0.0.UPF
Zr 91.22 Zr.pbe-spn-rrkjus_psl.1.0.0.UPF

CELL_PARAMETERS {angstrom}
7.95743000 0.00000000 0.00000000
-0.00000000 7.95743000 0.00000000
0.00000000 0.00000000 25.96810000

ATOMIC_POSITIONS {angstrom}
Zr 0.00000000 0.00000000 2.98399437
Zr 0.00000000 0.00000000 -0.9945782299999983 0 0 0
Zr 0.00000000 3.97871500 2.98399437
Zr 0.00000000 3.97871500 -0.9945782299999983 0 0 0
Zr 3.97871500 -0.00000000 2.98399437
Zr 3.97871500 0.00000000 -0.9945782299999983 0 0 0
Zr 3.97871500 3.97871500 2.98399437
Zr 3.97871500 3.97871500 -0.9945782299999983 0 0 0
Rh 0.00000000 1.98935750 0.99457823
Rh 1.98935750 -0.00000000 0.99457823
Rh 1.98935750 1.98935750 2.98399437
Rh 0.00000000 1.98935750 -2.9839943700000013 0 0 0
Rh 1.98935750 0.00000000 -2.9839943700000013 0 0 0
Rh 1.98935750 1.98935750 -0.9945782299999983 0 0 0
Rh 0.00000000 5.96807250 0.99457823
Rh 1.98935750 3.97871500 0.99457823
Rh 1.98935750 5.96807250 2.98399437
Rh 0.00000000 5.96807250 -2.9839943700000013 0 0 0
Rh 1.98935750 3.97871500 -2.9839943700000013 0 0 0
Rh 1.98935750 5.96807250 -0.9945782299999983 0 0 0
Rh 3.97871500 1.98935750 0.99457823
Rh 5.96807250 -0.00000000 0.99457823
Rh 5.96807250 1.98935750 2.98399437
Rh 3.97871500 1.98935750 -2.9839943700000013 0 0 0
Rh 5.96807250 0.00000000 -2.9839943700000013 0 0 0
Rh 5.96807250 1.98935750 -0.9945782299999983 0 0 0
Rh 3.97871500 5.96807250 0.99457823
Rh 5.96807250 3.97871500 0.99457823
Rh 5.96807250 5.96807250 2.98399437
Rh 3.97871500 5.96807250 -2.9839943700000013 0 0 0
Rh 5.96807250 3.97871500 -2.9839943700000013 0 0 0
Rh 5.96807250 5.96807250 -0.9945782299999983 0 0 0
