&CONTROL
calculation = 'relax'
prefix = 'scf'
pseudo_dir = '/vol0004/mdt0/data/hp150275/u10028/POT_KKJUS'
outdir = './data'
tprnfor = .true.
nstep = 50
disk_io = 'non'
/
&SYSTEM
ibrav = 0
ecutwfc = 50.0
ecutrho = 400
occupations = 'smearing'
smearing = 'mp'
degauss = 0.01
assume_isolated = 'esm'
esm_bc = 'bc1'
input_dft = 'BEEF-VDW'
nosym = .true.
nspin = 1
ntyp = 4
nat = 17
/
&ELECTRONS
electron_maxstep = 200
mixing_beta = 0.1
conv_thr = 1e-06
/
&IONS
ion_dynamics = 'bfgs'
upscale = 1.0
/
&CELL
/

K_POINTS {automatic}
10 10 2 0  0  0

ATOMIC_SPECIES
Al 26.98 Al.pbe-nl-rrkjus_psl.1.0.0.UPF
C 12.01 C.pbe-n-rrkjus_psl.1.0.0.UPF
Cu 63.54 Cu.pbe-dn-rrkjus_psl.1.0.0.UPF
Ti 47.86 Ti.pbe-spn-rrkjus_psl.1.0.0.UPF

CELL_PARAMETERS {angstrom}
6.05884000 0.00000000 0.00000000
-0.00000000 6.05884000 0.00000000
0.00000000 0.00000000 24.54410000

ATOMIC_POSITIONS {angstrom}
Ti 0.00000000 0.00000000 2.27204734
Ti 3.02942000 3.02942000 2.27204734
Ti 3.02942000 0.00000000 -0.7574309300000017 0 0 0
Ti 0.00000000 3.02942000 -0.7574309300000017 0 0 0
Al 0.00000000 0.00000000 -0.7574309300000017 0 0 0
Al 3.02942000 -0.00000000 2.27204734
Al 0.00000000 3.02942000 2.27204734
Al 3.02942000 3.02942000 -0.7574309300000017 0 0 0
Cu 1.51471000 1.51471000 0.75743093
Cu 4.54413000 4.54413000 -2.2720473400000003 0 0 0
Cu 4.54413000 1.51471000 0.75743093
Cu 1.51471000 4.54413000 -2.2720473400000003 0 0 0
Cu 4.54413000 4.54413000 0.75743093
Cu 1.51471000 1.51471000 -2.2720473400000003 0 0 0
Cu 1.51471000 4.54413000 0.75743093
Cu 4.54413000 1.51471000 -2.2720473400000003 0 0 0
C 1.51471000 1.51471000 3.07193956
