&CONTROL
calculation = 'relax'
prefix = 'scf'
pseudo_dir = '/vol0004/mdt0/data/hp150275/u10028/POT_KKJUS'
outdir = './data'
tprnfor = .true.
nstep = 50
disk_io = 'non'
/
&SYSTEM
ibrav = 0
ecutwfc = 50.0
ecutrho = 400
occupations = 'smearing'
smearing = 'mp'
degauss = 0.01
assume_isolated = 'esm'
esm_bc = 'bc1'
input_dft = 'BEEF-VDW'
nosym = .true.
nspin = 1
ntyp = 4
nat = 34
/
&ELECTRONS
electron_maxstep = 200
mixing_beta = 0.1
conv_thr = 1e-06
/
&IONS
ion_dynamics = 'bfgs'
upscale = 1.0
/
&CELL
/

K_POINTS {automatic}
8 6 1 0 0 0

ATOMIC_SPECIES
C 12.01 C.pbe-n-rrkjus_psl.1.0.0.UPF
In 114.8 In.pbe-dn-rrkjus_psl.1.0.0.UPF
O 15.99 O.pbe-n-rrkjus_psl.1.0.0.UPF
Y 88.90 Y.pbe-spn-rrkjus_psl.1.0.0.UPF

CELL_PARAMETERS {angstrom}
7.55034000 0.00000000 0.00000000
0.00000000 10.67780000 0.00000000
0.00000000 0.00000000 28.00830000

ATOMIC_POSITIONS {angstrom}
Y 1.88758500 2.66945000 -4.004066569999999 0 0 0
Y 1.88758500 0.00000000 -1.334595499999999 0 0 0
Y 1.88758500 2.67735157 1.32563284
Y 1.88758500 0.00000000 3.99482383
Y 1.88758500 8.00835000 -4.004066569999999 0 0 0
Y 1.88758500 5.33890000 -1.334595499999999 0 0 0
Y 1.88758500 8.00044843 1.32563284
Y 1.88758500 5.33900678 4.07128649
Y 5.66275500 2.66945000 -4.004066569999999 0 0 0
Y 5.66275500 0.00000000 -1.334595499999999 0 0 0
Y 5.66275500 2.67041100 1.34019715
Y 5.66275500 0.00000000 4.06288400
Y 5.66275500 8.00835000 -4.004066569999999 0 0 0
Y 5.66275500 5.33890000 -1.334595499999999 0 0 0
Y 5.66275500 8.00738900 1.34019715
Y 5.66275500 5.33890000 4.02675329
In 0.00000000 0.00000000 -4.004066569999999 0 0 0
In 0.00000000 2.66945000 -1.334595499999999 0 0 0
In 7.54324268 0.00000000 1.36372413
In 7.54777288 2.67938035 4.14298774
In 0.00000000 5.33890000 -4.004066569999999 0 0 0
In 0.00000000 8.00835000 -1.334595499999999 0 0 0
In 0.00490772 5.33890000 1.39089218
In 7.54777288 7.99841965 4.14298774
In 3.77517000 0.00000000 -4.004066569999999 0 0 0
In 3.77517000 2.66945000 -1.334595499999999 0 0 0
In 3.78226732 0.00000000 1.36372413
In 3.77773712 2.67938035 4.14298774
In 3.77517000 5.33890000 -4.004066569999999 0 0 0
In 3.77517000 8.00835000 -1.334595499999999 0 0 0
In 3.77026228 5.33890000 1.39089218
In 3.77773712 7.99841965 4.14298774
C 1.88758500 0.00000000 6.44835091
O 1.88758500 0.00000000 7.59921196
