&CONTROL
calculation = 'relax'
prefix = 'scf'
pseudo_dir = '/vol0004/mdt0/data/hp150275/u10028/POT_HYBRID_KKJUS_GBRV'
outdir = './data'
tprnfor = .true.
nstep = 50
disk_io = 'non'
/
&SYSTEM
ibrav = 0
ecutwfc = 50.0
ecutrho = 400
occupations = 'smearing'
smearing = 'mp'
degauss = 0.01
assume_isolated = 'esm'
esm_bc = 'bc1'
input_dft = 'BEEF-VDW'
nosym = .true.
nspin = 2
ntyp = 4
nat = 33
starting_magnetization(1) = 0.0
starting_magnetization(2) = 0.1
starting_magnetization(3) = 0.0
starting_magnetization(4) = 0.0
/
&ELECTRONS
electron_maxstep = 200
mixing_beta = 0.1
conv_thr = 1e-06
/
&IONS
ion_dynamics = 'bfgs'
upscale = 1.0
/
&CELL
/

K_POINTS {automatic}
9 6 2 0  0  0

ATOMIC_SPECIES
C 12.01 C.pbe-n-rrkjus_psl.1.0.0.UPF
Co 58.93 co_pbe_v1.2.uspp.F.UPF
Ge 72.64 Ge.pbe-dn-rrkjus_psl.1.0.0.UPF
Zn 65.40 Zn.pbe-dnl-rrkjus_psl.1.0.0.UPF

CELL_PARAMETERS {angstrom}
5.75846000 0.00000000 0.00000000
0.00000000 8.14369000 0.00000000
0.00000000 0.00000000 26.10780000

ATOMIC_POSITIONS {angstrom}
Zn 0.00000000 0.00000000 23.05397063
Zn 2.87923000 2.03592250 25.08985688
Zn 2.87923000 6.10776750 25.08985688
Zn 0.00000000 4.07184500 23.05397063
Zn 5.75840242 4.07184500 1.01272156
Zn 2.87928758 6.08447655 3.15408332
Zn 2.87928758 2.05921345 3.15408332
Zn 5.75840242 0.00000000 1.00671677
Co 1.43961500 0.00000000 25.08985688
Co 4.31884500 4.07184500 25.08985688
Co 4.31884500 0.00000000 25.08985688
Co 1.43961500 4.07184500 25.08985688
Co 4.31884500 6.10776750 23.05397063
Co 1.43961500 2.03592250 23.05397063
Co 1.43961500 6.10776750 23.05397063
Co 4.31884500 2.03592250 23.05397063
Co 1.42832842 4.07184500 3.00422455
Co 4.26062697 0.00000000 2.99900299
Co 4.33013158 4.07184500 3.00422455
Co 1.49783303 0.00000000 2.99900299
Co 4.32201215 2.02631295 1.00280060
Co 1.43644785 6.11745849 1.00280060
Co 1.43644785 2.02623151 1.00280060
Co 4.32201215 6.11737705 1.00280060
Ge 0.00000000 6.10776750 25.08985688
Ge 2.87923000 0.00000000 23.05397063
Ge 0.00000000 2.03592250 25.08985688
Ge 2.87923000 4.07184500 23.05397063
Ge 5.75840242 2.12094262 3.06871081
Ge 2.87934517 4.07184500 1.04091799
Ge 5.75840242 6.02274738 3.06871081
Ge 2.87928758 0.00000000 0.95006284
C 0.00000000 0.00000000 3.96133649
