&CONTROL
calculation = 'relax'
prefix = 'scf'
pseudo_dir = '/vol0403/data/hp230205/u10028/POT_HYBRID_KKJUS_GBRV'
outdir = './data'
tprnfor = .true.
nstep = 50
disk_io = 'non'
/
&SYSTEM
ibrav = 0
ecutwfc = 50.0
ecutrho = 400
occupations = 'smearing'
smearing = 'mp'
degauss = 0.01
assume_isolated = 'esm'
esm_bc = 'bc1'
input_dft = 'BEEF-VDW'
nosym = .true.
nspin = 2
ntyp = 6
nat = 18
starting_magnetization(1) = 0.0
starting_magnetization(2) = 0.1
starting_magnetization(3) = 0.0
starting_magnetization(4) = 0.0
starting_magnetization(5) = 0.0
starting_magnetization(6) = 0.0
/
&ELECTRONS
electron_maxstep = 400
mixing_beta = 0.05
conv_thr = 1e-06
/
&IONS
ion_dynamics = 'bfgs'
upscale = 1.0
/
&CELL
/

K_POINTS {automatic}
10 10 2 0  0  0

ATOMIC_SPECIES
C 12.01 C.pbe-n-rrkjus_psl.1.0.0.UPF
Co 58.93 co_pbe_v1.2.uspp.F.UPF
Ge 72.64 Ge.pbe-dn-rrkjus_psl.1.0.0.UPF
Li 6.941 Li.pbe-sl-rrkjus_psl.1.0.0.UPF
O 15.99 O.pbe-n-rrkjus_psl.1.0.0.UPF
Pd 106.4 Pd.pbe-n-rrkjus_psl.1.0.0.UPF


CELL_PARAMETERS {angstrom}
5.88348000 0.00000000 0.00000000
0.00000000 5.88348000 0.00000000
0.00000000 0.00000000 24.41260000

ATOMIC_POSITIONS {angstrom}
Li 4.41261000 1.47087000 23.67704836
Li 4.40837389 4.41672844 2.55331383
Li 1.47410591 1.46769292 2.58065595
Li 1.47087000 4.41261000 23.67704836
Co 0.00000000 0.00000000 22.20618921
Co 5.88153845 2.94368155 0.82758714
Co 2.94168117 0.00005883 0.80830119
Co 2.94174000 2.94174000 22.20618921
Ge 1.47087000 1.47087000 23.67704836
Ge 1.47010515 4.41137447 2.14757642
Ge 4.41390437 1.47163485 2.14757642
Ge 4.41261000 4.41261000 23.67704836
Pd 0.00000000 2.94174000 22.20618921
Pd 0.00223572 0.00235339 0.79194474
Pd 2.93938661 2.93950428 0.79194474
Pd 2.94174000 0.00000000 22.20618921
C 1.47051699 1.47134068 4.70723753
O 1.47151718 1.47028165 5.84681770
