&CONTROL
calculation = 'relax'
prefix = 'scf'
pseudo_dir = '/vol0004/mdt0/data/hp150275/u10028/POT_KKJUS'
outdir = './data'
tprnfor = .true.
nstep = 50
disk_io = 'non'
/
&SYSTEM
ibrav = 0
ecutwfc = 50.0
ecutrho = 400
occupations = 'smearing'
smearing = 'mp'
degauss = 0.01
assume_isolated = 'esm'
esm_bc = 'bc1'
input_dft = 'BEEF-VDW'
nosym = .true.
nspin = 1
ntyp = 3
nat = 33
/
&ELECTRONS
electron_maxstep = 200
mixing_beta = 0.1
conv_thr = 1e-06
/
&IONS
ion_dynamics = 'bfgs'
upscale = 1.0
/
&CELL
/

K_POINTS {automatic}
9 6 2 0  0  0

ATOMIC_SPECIES
C 12.01 C.pbe-n-rrkjus_psl.1.0.0.UPF
Ca 40.07 Ca.pbe-spn-rrkjus_psl.1.0.0.UPF
Pd 106.4 Pd.pbe-n-rrkjus_psl.1.0.0.UPF

CELL_PARAMETERS {angstrom}
7.14855000 0.00000000 0.00000000
0.00000000 10.10960000 0.00000000
0.00000000 0.00000000 27.58220000

ATOMIC_POSITIONS {angstrom}
Ca 0.00000000 0.00000000 -3.791173390000001 0 0 0
Ca 0.00000000 2.52740000 -1.2638163999999996 0 0 0
Ca 7.12567464 4.95117660 1.28891621
Ca 6.97484024 2.53144384 4.27496518
Ca 0.00000000 5.05480000 -3.791173390000001 0 0 0
Ca 0.00000000 7.58220000 -1.2638163999999996 0 0 0
Ca 7.08685801 0.01930934 1.26105818
Ca 7.13303765 7.58958001 3.82923683
Ca 3.57427500 0.00000000 -3.791173390000001 0 0 0
Ca 3.57427500 2.52740000 -1.2638163999999996 0 0 0
Ca 3.59536322 4.95218756 1.28257230
Ca 3.74769882 2.53184822 4.27551682
Ca 3.57427500 5.05480000 -3.791173390000001 0 0 0
Ca 3.57427500 7.58220000 -1.2638163999999996 0 0 0
Ca 3.63496619 0.01698413 1.25940325
Ca 3.58885804 7.59038878 3.83034011
Pd 1.78713750 2.52740000 -3.791173390000001 0 0 0
Pd 1.78713750 0.00000000 -1.2638163999999996 0 0 0
Pd 1.78785236 2.31843457 1.01667989
Pd 1.78592225 4.74746816 3.60940669
Pd 1.78713750 7.58220000 -3.791173390000001 0 0 0
Pd 1.78713750 5.05480000 -1.2638163999999996 0 0 0
Pd 1.78770938 7.55611723 1.41882837
Pd 1.78706601 0.47606106 3.51562721
Pd 5.36141250 2.52740000 -3.791173390000001 0 0 0
Pd 5.36141250 0.00000000 -1.2638163999999996 0 0 0
Pd 5.36162696 2.49737449 1.58046006
Pd 5.36284221 5.12253432 3.66595020
Pd 5.36141250 7.58220000 -3.791173390000001 0 0 0
Pd 5.36141250 5.05480000 -1.2638163999999996 0 0 0
Pd 5.36155547 7.53529146 1.40200323
Pd 5.36198438 10.06137721 3.66926007
C 1.78535036 2.70270046 2.99404781
