&CONTROL
calculation = 'relax'
prefix = 'scf'
pseudo_dir = '/vol0004/mdt0/data/hp150275/u10028/POT_KKJUS'
outdir = './data'
tprnfor = .true.
nstep = 50
disk_io = 'non'
/
&SYSTEM
ibrav = 0
ecutwfc = 50.0
ecutrho = 400
occupations = 'smearing'
smearing = 'mp'
degauss = 0.01
assume_isolated = 'esm'
esm_bc = 'bc1'
input_dft = 'BEEF-VDW'
nosym = .true.
nspin = 1
ntyp = 4
nat = 33
/
&ELECTRONS
electron_maxstep = 200
mixing_beta = 0.1
conv_thr = 1e-06
/
&IONS
ion_dynamics = 'bfgs'
upscale = 1.0
/
&CELL
/

K_POINTS {automatic}
9 6 2 0  0  0

ATOMIC_SPECIES
Ag 107.8 Ag.pbe-n-rrkjus_psl.1.0.0.UPF
C 12.01 C.pbe-n-rrkjus_psl.1.0.0.UPF
In 114.8 In.pbe-dn-rrkjus_psl.1.0.0.UPF
Li 6.941 Li.pbe-sl-rrkjus_psl.1.0.0.UPF

CELL_PARAMETERS {angstrom}
6.74000000 0.00000000 0.00000000
0.00000000 9.53179000 0.00000000
0.00000000 0.00000000 27.14880000

ATOMIC_POSITIONS {angstrom}
Li 0.00000000 0.00000000 -3.574411010000002 0 0 0
Li 3.37000000 2.38294750 -1.1915608300000002 0 0 0
Li 3.37000000 7.14884250 -1.1915608300000002 0 0 0
Li 0.00000000 4.76589500 -3.574411010000002 0 0 0
Li 0.00000000 4.76589500 1.00613453
Li 3.37000000 6.99271178 3.54183245
Li 3.37000000 2.53907822 3.54183245
Li 0.00000000 0.00000000 1.26947789
In 0.00000000 7.14884250 -1.1915608300000002 0 0 0
In 3.37000000 0.00000000 -3.574411010000002 0 0 0
In 0.00000000 2.38294750 -1.1915608300000002 0 0 0
In 3.37000000 4.76589500 -3.574411010000002 0 0 0
In 0.00000000 2.26704093 4.08589440
In 3.37000000 4.76589500 1.21436582
In 0.00000000 7.26484438 4.08589440
In 3.37000000 0.00000000 0.99690394
Ag 1.68500000 0.00000000 -1.1915608300000002 0 0 0
Ag 5.05500000 4.76589500 -1.1915608300000002 0 0 0
Ag 5.05500000 0.00000000 -1.1915608300000002 0 0 0
Ag 1.68500000 4.76589500 -1.1915608300000002 0 0 0
Ag 5.05500000 7.14884250 -3.574411010000002 0 0 0
Ag 1.68500000 2.38294750 -3.574411010000002 0 0 0
Ag 1.68500000 7.14884250 -3.574411010000002 0 0 0
Ag 5.05500000 2.38294750 -3.574411010000002 0 0 0
Ag 1.50841200 4.76589500 3.44979802
Ag 4.77218960 0.00000000 3.36020698
Ag 5.23158800 4.76589500 3.44979802
Ag 1.96781040 0.00000000 3.36020698
Ag 5.15030360 2.41564154 1.30558579
Ag 1.58969640 7.11614846 1.30558579
Ag 1.58969640 2.41564154 1.30558579
Ag 5.15030360 7.11614846 1.30558579
C 0.00000000 0.00000000 4.19910490
