&CONTROL
calculation = 'relax'
prefix = 'scf'
pseudo_dir = '/vol0004/mdt0/data/hp150275/u10028/POT_HYBRID_KKJUS_GBRV'
outdir = './data'
tprnfor = .true.
nstep = 50
disk_io = 'non'
/
&SYSTEM
ibrav = 0
ecutwfc = 50.0
ecutrho = 400
occupations = 'smearing'
smearing = 'mp'
degauss = 0.01
assume_isolated = 'esm'
esm_bc = 'bc1'
input_dft = 'BEEF-VDW'
nosym = .true.
nspin = 2
ntyp = 5
nat = 34
starting_magnetization(1) = 0.0
starting_magnetization(2) = 0.001
starting_magnetization(3) = 0.0
starting_magnetization(4) = 0.0
starting_magnetization(5) = 0.0
/
&ELECTRONS
electron_maxstep = 300
mixing_beta = 0.1
conv_thr = 1e-06
/
&IONS
ion_dynamics = 'bfgs'
upscale = 1.0
/
&CELL
/

K_POINTS {automatic}
8 6 1 0 0 0

ATOMIC_SPECIES
C 12.01 C.pbe-n-rrkjus_psl.1.0.0.UPF
Ni 58.69 ni_pbe_v1.4.uspp.F.UPF
O 15.99 O.pbe-n-rrkjus_psl.1.0.0.UPF
Sc 44.95 Sc.pbe-spn-rrkjus_psl.1.0.0.UPF
Sn 118.7 Sn.pbe-dn-rrkjus_psl.1.0.0.UPF

CELL_PARAMETERS {angstrom}
6.29417000 0.00000000 0.00000000
0.00000000 8.90130000 0.00000000
0.00000000 0.00000000 26.67600000

ATOMIC_POSITIONS {angstrom}
Sc 0.00000000 0.00000000 -3.3379678799999972 0 0 0
Sc 3.14708500 2.22532500 -1.112655959999998 0 0 0
Sc 3.14708500 6.67597500 -1.112655959999998 0 0 0
Sc 0.00000000 4.45065000 -3.3379678799999972 0 0 0
Sc 0.00000000 4.46142057 1.09211544
Sc 3.14708500 6.67606401 3.39638832
Sc 3.14708500 2.22523599 3.39318720
Sc 0.00000000 8.89052943 1.09238220
Ni 1.57354250 0.00000000 -1.112655959999998 0 0 0
Ni 4.72062750 4.45065000 -1.112655959999998 0 0 0
Ni 4.72062750 0.00000000 -1.112655959999998 0 0 0
Ni 1.57354250 4.45065000 -1.112655959999998 0 0 0
Ni 4.72062750 6.67597500 -3.3379678799999972 0 0 0
Ni 1.57354250 2.22532500 -3.3379678799999972 0 0 0
Ni 1.57354250 6.67597500 -3.3379678799999972 0 0 0
Ni 4.72062750 2.22532500 -3.3379678799999972 0 0 0
Ni 1.48492059 4.46150959 3.18538116
Ni 4.80931236 8.89044041 3.18591468
Ni 4.80924941 4.46150959 3.18538116
Ni 1.48485764 8.89044041 3.18591468
Ni 4.70061204 2.22559204 1.15106940
Ni 1.63384065 6.67570796 1.19588508
Ni 1.59355796 2.22559204 1.15106940
Ni 4.66032935 6.67570796 1.19588508
Sn 0.00000000 6.67597500 -1.112655959999998 0 0 0
Sn 3.14708500 0.00000000 -3.3379678799999972 0 0 0
Sn 0.00000000 2.22532500 -1.112655959999998 0 0 0
Sn 3.14708500 4.45065000 -3.3379678799999972 0 0 0
Sn 0.00000000 2.22523599 3.42706572
Sn 3.14708500 4.44237179 1.12412664
Sn 0.00000000 6.67588599 3.46014396
Sn 3.14708500 0.00827821 1.12412664
C 3.14708500 2.22532500 5.74627716
O 3.14708500 2.22532500 6.89014404
