&CONTROL
calculation = 'relax'
prefix = 'scf'
pseudo_dir = '/vol0004/mdt0/data/hp150275/u10028/POT_KKJUS'
outdir = './data'
tprnfor = .true.
nstep = 50
disk_io = 'non'
/
&SYSTEM
ibrav = 0
ecutwfc = 50.0
ecutrho = 400
occupations = 'smearing'
smearing = 'mp'
degauss = 0.01
assume_isolated = 'esm'
esm_bc = 'bc1'
input_dft = 'BEEF-VDW'
nosym = .true.
nspin = 1
ntyp = 3
nat = 32
/
&ELECTRONS
electron_maxstep = 200
mixing_beta = 0.1
conv_thr = 1e-06
/
&IONS
ion_dynamics = 'bfgs'
upscale = 1.0
/
&CELL
/

K_POINTS {automatic}
8 6 1 0 0 0

ATOMIC_SPECIES
Ag 107.8 Ag.pbe-n-rrkjus_psl.1.0.0.UPF
Li 6.941 Li.pbe-sl-rrkjus_psl.1.0.0.UPF
Sn 118.7 Sn.pbe-dn-rrkjus_psl.1.0.0.UPF

CELL_PARAMETERS {angstrom}
6.65960000 0.00000000 0.00000000
0.00000000 9.41809000 0.00000000
0.00000000 0.00000000 27.06360000

ATOMIC_POSITIONS {angstrom}
Li 0.00000000 7.06356750 -1.1772665999999994 0 0 0
Li 3.32980000 0.00000000 -3.5317998000000017 0 0 0
Li 0.00000000 2.35452250 -1.1772665999999994 0 0 0
Li 3.32980000 4.70904500 -3.5317998000000017 0 0 0
Li 1.66490000 0.00000000 -1.1772665999999994 0 0 0
Li 1.66490000 4.70904500 -1.1772665999999994 0 0 0
Li 4.99470000 7.06356750 -3.5317998000000017 0 0 0
Li 4.99470000 2.35452250 -3.5317998000000017 0 0 0
Li 6.55857387 2.35452250 3.43707720
Li 3.26320400 4.70904500 1.05602167
Li 6.55850727 7.06356750 3.43680656
Li 3.26327060 0.00000000 1.05602167
Li 1.83079064 4.70904500 3.59810562
Li 1.83079064 0.00000000 3.59810562
Li 4.90745924 2.35452250 1.23220571
Li 4.90739264 7.06356750 1.23220571
Ag 1.66490000 2.35452250 -3.5317998000000017 0 0 0
Ag 1.66490000 7.06356750 -3.5317998000000017 0 0 0
Ag 4.99470000 4.70904500 -1.1772665999999994 0 0 0
Ag 4.99470000 0.00000000 -1.1772665999999994 0 0 0
Ag 1.75420524 7.06356750 1.26441139
Ag 1.75420524 2.35452250 1.26441139
Ag 4.80809801 0.00000000 3.29255758
Ag 4.80803141 4.70904500 3.29255758
Sn 0.00000000 0.00000000 -3.5317998000000017 0 0 0
Sn 3.32980000 2.35452250 -1.1772665999999994 0 0 0
Sn 3.32980000 7.06356750 -1.1772665999999994 0 0 0
Sn 0.00000000 4.70904500 -3.5317998000000017 0 0 0
Sn 0.06046917 4.70904500 1.23328825
Sn 3.31388356 7.06356750 3.75236814
Sn 3.31388356 2.35452250 3.75236814
Sn 0.06046917 0.00000000 1.23328825
