&CONTROL
calculation = 'relax'
prefix = 'scf'
pseudo_dir = '/vol0403/data/hp230205/u10028/POT_HYBRID_KKJUS_GBRV'
outdir = './data'
tprnfor = .true.
nstep = 50
disk_io = 'non'
/
&SYSTEM
ibrav = 0
ecutwfc = 50.0
ecutrho = 400
occupations = 'smearing'
smearing = 'mp'
degauss = 0.01
assume_isolated = 'esm'
esm_bc = 'bc1'
input_dft = 'BEEF-VDW'
nosym = .true.
nspin = 1
ntyp = 5
nat = 33
/
&ELECTRONS
electron_maxstep = 200
mixing_beta = 0.1
conv_thr = 1e-06
/
&IONS
ion_dynamics = 'bfgs'
upscale = 1.0
/
&CELL
/

K_POINTS {automatic}
7 7 2 0  0  0

ATOMIC_SPECIES
C 12.01 C.pbe-n-rrkjus_psl.1.0.0.UPF
In 114.8 In.pbe-dn-rrkjus_psl.1.0.0.UPF
Li 6.941 Li.pbe-sl-rrkjus_psl.1.0.0.UPF
Pb 207.2 Pb.pbe-dn-rrkjus_psl.1.0.0.UPF
Y 88.90 Y.pbe-spn-rrkjus_psl.1.0.0.UPF


CELL_PARAMETERS {angstrom}
9.42336000 0.00000000 0.00000000
0.00000000 9.00122000 0.00000000
0.00000000 0.00000000 26.99670000

ATOMIC_POSITIONS {angstrom}
Li 0.00000000 2.25030500 -1.165987470000001 0 0 0
Li 0.00000000 2.25030500 3.49823239
Li 0.00000000 6.75091500 -1.165987470000001 0 0 0
Li 0.00000000 6.75091500 3.49823239
Li 4.71168000 2.25030500 -1.165987470000001 0 0 0
Li 4.71168000 2.25030500 3.49823239
Li 4.71168000 6.75091500 -1.165987470000001 0 0 0
Li 4.71168000 6.75091500 3.49823239
Y 2.35584000 2.25030500 -3.498232390000002 0 0 0
Y 2.35584000 2.25030500 1.16598747
Y 2.35584000 6.75091500 -3.498232390000002 0 0 0
Y 2.35584000 6.75091500 1.16598747
Y 7.06752000 2.25030500 -3.498232390000002 0 0 0
Y 7.06752000 2.25030500 1.16598747
Y 7.06752000 6.75091500 -3.498232390000002 0 0 0
Y 7.06752000 6.75091500 1.16598747
In 0.00000000 0.00000000 -3.498232390000002 0 0 0
In 0.00000000 0.00000000 1.16598747
In 0.00000000 4.50061000 -3.498232390000002 0 0 0
In 0.00000000 4.50061000 1.16598747
In 4.71168000 0.00000000 -3.498232390000002 0 0 0
In 4.71168000 0.00000000 1.16598747
In 4.71168000 4.50061000 -3.498232390000002 0 0 0
In 4.71168000 4.50061000 1.16598747
Pb 2.35584000 0.00000000 -1.165987470000001 0 0 0
Pb 2.35584000 0.00000000 3.49823239
Pb 2.35584000 4.50061000 -1.165987470000001 0 0 0
Pb 2.35584000 4.50061000 3.49823239
Pb 7.06752000 0.00000000 -1.165987470000001 0 0 0
Pb 7.06752000 0.00000000 3.49823239
Pb 7.06752000 4.50061000 -1.165987470000001 0 0 0
Pb 7.06752000 4.50061000 3.49823239
C 0.00000000 0.00000000 4.29841457
