&CONTROL
calculation = 'relax'
prefix = 'scf'
pseudo_dir = '/vol0004/mdt0/data/hp150275/u10028/POT_HYBRID_KKJUS_GBRV'
outdir = './data'
tprnfor = .true.
nstep = 50
disk_io = 'non'
/
&SYSTEM
ibrav = 0
ecutwfc = 50.0
ecutrho = 400
occupations = 'smearing'
smearing = 'mp'
degauss = 0.01
assume_isolated = 'esm'
esm_bc = 'bc1'
input_dft = 'BEEF-VDW'
nosym = .true.
nspin = 2
ntyp = 4
nat = 33
starting_magnetization(1) = 0.0
starting_magnetization(2) = 0.0
starting_magnetization(3) = 0.001
starting_magnetization(4) = 0.0
/
&ELECTRONS
electron_maxstep = 300
mixing_beta = 0.1
conv_thr = 1e-06
/
&IONS
ion_dynamics = 'bfgs'
upscale = 1.0
/
&CELL
/

K_POINTS {automatic}
9 6 2 0  0  0

ATOMIC_SPECIES
Al 26.98 Al.pbe-nl-rrkjus_psl.1.0.0.UPF
C 12.01 C.pbe-n-rrkjus_psl.1.0.0.UPF
Ni 58.69 ni_pbe_v1.4.uspp.F.UPF
Ta 180.9 Ta.pbe-spn-rrkjus_psl.1.0.0.UPF

CELL_PARAMETERS {angstrom}
5.99379000 0.00000000 0.00000000
0.00000000 8.47650000 0.00000000
0.00000000 0.00000000 26.35740000

ATOMIC_POSITIONS {angstrom}
Ta 0.00000000 0.00000000 -3.1787024399999986 0 0 0
Ta 2.99689500 2.11912500 -1.0595674799999983 0 0 0
Ta 2.99689500 6.35737500 -1.0595674799999983 0 0 0
Ta 0.00000000 4.23825000 -3.1787024399999986 0 0 0
Ta 0.00000000 4.23825000 1.06035820
Ta 2.99689500 6.45070127 3.25461175
Ta 2.99689500 2.02579874 3.25461175
Ta 0.00000000 0.00000000 1.01660492
Al 0.00000000 6.35737500 -1.0595674799999983 0 0 0
Al 2.99689500 0.00000000 -3.1787024399999986 0 0 0
Al 0.00000000 2.11912500 -1.0595674799999983 0 0 0
Al 2.99689500 4.23825000 -3.1787024399999986 0 0 0
Al 0.00000000 2.17481561 3.15577150
Al 2.99689500 4.23825000 1.06668398
Al 0.00000000 6.30168439 3.15577150
Al 2.99689500 0.00000000 1.09646784
Ni 1.49844750 0.00000000 -1.0595674799999983 0 0 0
Ni 4.49534250 4.23825000 -1.0595674799999983 0 0 0
Ni 4.49534250 0.00000000 -1.0595674799999983 0 0 0
Ni 1.49844750 4.23825000 -1.0595674799999983 0 0 0
Ni 4.49534250 6.35737500 -3.1787024399999986 0 0 0
Ni 1.49844750 2.11912500 -3.1787024399999986 0 0 0
Ni 1.49844750 6.35737500 -3.1787024399999986 0 0 0
Ni 4.49534250 2.11912500 -3.1787024399999986 0 0 0
Ni 1.52943539 4.23825000 3.06589277
Ni 4.75649193 0.00000000 3.12045259
Ni 4.46435461 4.23825000 3.06589277
Ni 1.23735801 0.00000000 3.12045259
Ni 4.40333782 2.12132889 1.10305719
Ni 1.59045218 6.35517111 1.10305719
Ni 1.59045218 2.12132889 1.10305719
Ni 4.40333782 6.35517111 1.10305719
C 2.99689500 0.00000000 3.83131166
