&CONTROL
calculation = 'relax'
prefix = 'scf'
pseudo_dir = '/vol0403/data/hp230205/u10028/POT_HYBRID_KKJUS_GBRV'
outdir = './data'
tprnfor = .true.
nstep = 50
disk_io = 'non'
/
&SYSTEM
ibrav = 0
ecutwfc = 50.0
ecutrho = 400
occupations = 'smearing'
smearing = 'mp'
degauss = 0.01
assume_isolated = 'esm'
esm_bc = 'bc1'
input_dft = 'BEEF-VDW'
nosym = .true.
nspin = 1
ntyp = 6
nat = 18
/
&ELECTRONS
electron_maxstep = 200
mixing_beta = 0.1
conv_thr = 1e-06
/
&IONS
ion_dynamics = 'bfgs'
upscale = 1.0
/
&CELL
/

K_POINTS {automatic}
8 8 1 0 0 0

ATOMIC_SPECIES
Al 26.98 Al.pbe-nl-rrkjus_psl.1.0.0.UPF
C 12.01 C.pbe-n-rrkjus_psl.1.0.0.UPF
Ga 69.72 Ga.pbe-dnl-rrkjus_psl.1.0.0.UPF
Li 6.941 Li.pbe-sl-rrkjus_psl.1.0.0.UPF
O 15.99 O.pbe-n-rrkjus_psl.1.0.0.UPF
Pd 106.4 Pd.pbe-n-rrkjus_psl.1.0.0.UPF


CELL_PARAMETERS {angstrom}
6.14517000 0.00000000 0.00000000
0.00000000 6.14517000 0.00000000
0.00000000 0.00000000 24.60890000

ATOMIC_POSITIONS {angstrom}
Li 4.60887750 1.53629250 -0.7680437699999985 0 0 0
Li 4.60746411 4.60924621 2.74241582
Li 1.53592379 1.53770589 2.74241582
Li 1.53629250 4.60887750 -0.7680437699999985 0 0 0
Al 0.00000000 0.00000000 -2.3043774 0 0 0
Al 6.09914268 3.02668058 0.84310091
Al 3.11848942 0.04602732 0.84310091
Al 3.07258500 3.07258500 -2.3043774 0 0 0
Ga 0.00000000 3.07258500 -2.3043774 0 0 0
Ga 6.08740540 0.05776460 0.84999141
Ga 3.13133283 3.01383717 0.85122185
Ga 3.07258500 0.00000000 -2.3043774 0 0 0
Pd 1.53629250 1.53629250 -0.7680437699999985 0 0 0
Pd 1.53666121 4.60857024 2.02309767
Pd 4.61059815 1.53457185 2.43726546
Pd 4.60887750 4.60887750 -0.7680437699999985 0 0 0
C 4.61428525 1.53094620 4.40499310
O 4.61397799 1.53125346 5.56358011
