&CONTROL
calculation = 'relax'
prefix = 'scf'
pseudo_dir = '/vol0004/mdt0/data/hp150275/u10028/POT_HYBRID_KKJUS_GBRV'
outdir = './data'
tprnfor = .true.
nstep = 50
disk_io = 'non'
/
&SYSTEM
ibrav = 0
ecutwfc = 50.0
ecutrho = 400
occupations = 'smearing'
smearing = 'mp'
degauss = 0.01
assume_isolated = 'esm'
esm_bc = 'bc1'
input_dft = 'BEEF-VDW'
nosym = .true.
nspin = 2
ntyp = 2
nat = 32
starting_magnetization(1) = 0.1
starting_magnetization(2) = 0.1
/
&ELECTRONS
electron_maxstep = 200
mixing_beta = 0.1
conv_thr = 1e-06
/
&IONS
ion_dynamics = 'bfgs'
upscale = 1.0
/
&CELL
/

K_POINTS {automatic}
9 6 2 0  0  0

ATOMIC_SPECIES
Mn 54.93 mn_pbe_v1.5.uspp.F.UPF
V 50.94 V.pbe-spnl-rrkjus_psl.1.0.0.UPF

CELL_PARAMETERS {angstrom}
5.76229000 0.00000000 0.00000000
0.00000000 8.14911000 0.00000000
0.00000000 0.00000000 26.11180000

ATOMIC_POSITIONS {angstrom}
Mn 0.00000000 0.00000000 -3.055863949999999 0 0 0
Mn 0.00000000 2.03727750 -1.0186213199999976 0 0 0
Mn 0.00000000 0.00000000 1.06797262
Mn 0.00000000 2.03727750 3.05508060
Mn 0.00000000 4.07455500 -3.055863949999999 0 0 0
Mn 0.00000000 6.11183250 -1.0186213199999976 0 0 0
Mn 0.00000000 4.07455500 1.06797262
Mn 0.00000000 6.11183250 3.05508060
Mn 2.88114500 0.00000000 -3.055863949999999 0 0 0
Mn 2.88114500 2.03727750 -1.0186213199999976 0 0 0
Mn 2.88114500 0.00000000 1.06797262
Mn 2.88114500 2.03727750 3.05508060
Mn 2.88114500 4.07455500 -3.055863949999999 0 0 0
Mn 2.88114500 6.11183250 -1.0186213199999976 0 0 0
Mn 2.88114500 4.07455500 1.06797262
Mn 2.88114500 6.11183250 3.05508060
V 1.44057250 2.03727750 -3.055863949999999 0 0 0
V 1.44057250 0.00000000 -1.0186213199999976 0 0 0
V 1.44051488 2.03711452 1.06536144
V 1.44051488 4.07463649 3.20783463
V 1.44057250 6.11183250 -3.055863949999999 0 0 0
V 1.44057250 4.07455500 -1.0186213199999976 0 0 0
V 1.44051488 6.11191399 1.06562256
V 1.44051488 8.14902851 3.20783463
V 4.32171750 2.03727750 -3.055863949999999 0 0 0
V 4.32171750 0.00000000 -1.0186213199999976 0 0 0
V 4.32177512 2.03711452 1.06536144
V 4.32177512 4.07463649 3.20783463
V 4.32171750 6.11183250 -3.055863949999999 0 0 0
V 4.32171750 4.07455500 -1.0186213199999976 0 0 0
V 4.32177512 6.11199548 1.06562256
V 4.32171750 8.14902851 3.20783463
