&CONTROL
calculation = 'relax'
prefix = 'scf'
pseudo_dir = '/vol0403/data/hp230205/u10028/POT_HYBRID_KKJUS_GBRV'
outdir = './data'
tprnfor = .true.
nstep = 50
disk_io = 'non'
/
&SYSTEM
ibrav = 0
ecutwfc = 50.0
ecutrho = 400
occupations = 'smearing'
smearing = 'mp'
degauss = 0.01
assume_isolated = 'esm'
esm_bc = 'bc1'
input_dft = 'BEEF-VDW'
nosym = .true.
nspin = 1
ntyp = 5
nat = 33
/
&ELECTRONS
electron_maxstep = 200
mixing_beta = 0.1
conv_thr = 1e-06
/
&IONS
ion_dynamics = 'bfgs'
upscale = 1.0
/
&CELL
/

K_POINTS {automatic}
6 6 1 0 0 0

ATOMIC_SPECIES
C 12.01 C.pbe-n-rrkjus_psl.1.0.0.UPF
Li 6.941 Li.pbe-sl-rrkjus_psl.1.0.0.UPF
Mg 24.30 Mg.pbe-spnl-rrkjus_psl.1.0.0.UPF
Pd 106.4 Pd.pbe-n-rrkjus_psl.1.0.0.UPF
Sb 121.7 Sb.pbe-n-rrkjus_psl.1.0.0.UPF


CELL_PARAMETERS {angstrom}
6.57147000 0.00000000 0.00000000
0.00000000 9.29346000 0.00000000
0.00000000 0.00000000 26.97010000

ATOMIC_POSITIONS {angstrom}
Li 0.00000000 0.00000000 -3.4850763199999975 0 0 0
Li 0.00000000 4.64673000 -3.4850763199999975 0 0 0
Li 3.28573500 6.97009500 -1.161602209999998 0 0 0
Li 3.28573500 2.32336500 -1.161602209999998 0 0 0
Li 6.46396075 4.64663707 1.28997988
Li 6.53598406 0.00009293 1.19855124
Li 3.66504025 2.08238558 4.94901335
Li 3.66497453 7.21098148 4.94847395
Mg 1.64286750 0.00000000 -1.161602209999998 0 0 0
Mg 1.64286750 4.64673000 -1.161602209999998 0 0 0
Mg 4.92860250 2.32336500 -3.4850763199999975 0 0 0
Mg 4.92860250 6.97009500 -3.4850763199999975 0 0 0
Mg 1.71949084 4.64673000 3.43976655
Mg 1.69097066 0.00000000 3.61507220
Mg 4.77233294 6.94853417 1.27730394
Mg 4.77200437 2.34492583 1.27757364
Sb 4.92860250 0.00000000 -1.161602209999998 0 0 0
Sb 4.92860250 4.64673000 -1.161602209999998 0 0 0
Sb 1.64286750 2.32336500 -3.4850763199999975 0 0 0
Sb 1.64286750 6.97009500 -3.4850763199999975 0 0 0
Sb 4.77049293 4.64673000 3.65876377
Sb 5.04794040 0.00000000 3.51932835
Sb 1.66501335 6.97241836 1.21931822
Sb 1.66501335 2.32104164 1.21931822
Pd 0.00000000 2.32336500 -1.161602209999998 0 0 0
Pd 0.00000000 6.97009500 -1.161602209999998 0 0 0
Pd 3.28573500 4.64673000 -3.4850763199999975 0 0 0
Pd 3.28573500 0.00000000 -3.4850763199999975 0 0 0
Pd 6.49530666 6.85857348 3.27821565
Pd 6.49543809 2.43479359 3.27821565
Pd 3.29335791 0.00000000 1.05938553
Pd 3.30038938 4.64673000 1.02783051
C 3.42347301 0.00000000 4.84329056
