&CONTROL
calculation = 'relax'
prefix = 'scf'
pseudo_dir = '/vol0403/data/hp230205/u10028/POT_HYBRID_KKJUS_GBRV'
outdir = './data'
tprnfor = .true.
nstep = 50
disk_io = 'non'
/
&SYSTEM
ibrav = 0
ecutwfc = 50.0
ecutrho = 400
occupations = 'smearing'
smearing = 'mp'
degauss = 0.01
assume_isolated = 'esm'
esm_bc = 'bc1'
input_dft = 'BEEF-VDW'
nosym = .true.
nspin = 1
ntyp = 6
nat = 34
/
&ELECTRONS
electron_maxstep = 200
mixing_beta = 0.1
conv_thr = 1e-06
/
&IONS
ion_dynamics = 'bfgs'
upscale = 1.0
/
&CELL
/

K_POINTS {automatic}
6 6 1 0 0 0

ATOMIC_SPECIES
C 12.01 C.pbe-n-rrkjus_psl.1.0.0.UPF
Ge 72.64 Ge.pbe-dn-rrkjus_psl.1.0.0.UPF
Li 6.941 Li.pbe-sl-rrkjus_psl.1.0.0.UPF
O 15.99 O.pbe-n-rrkjus_psl.1.0.0.UPF
Pb 207.2 Pb.pbe-dn-rrkjus_psl.1.0.0.UPF
Y 88.90 Y.pbe-spn-rrkjus_psl.1.0.0.UPF


CELL_PARAMETERS {angstrom}
8.55406000 0.00000000 0.00000000
0.00000000 8.65500000 0.00000000
0.00000000 0.00000000 27.39600000

ATOMIC_POSITIONS {angstrom}
Li 2.47169564 0.00000000 1.21994388
Li 2.13851500 0.00000000 -3.697912080000002 0 0 0
Li 1.82466654 4.32750000 1.23062832
Li 2.13851500 4.32750000 -3.697912080000002 0 0 0
Li 6.08236436 0.00000000 1.22021784
Li 6.41554500 0.00000000 -3.697912080000002 0 0 0
Li 6.72939346 4.32750000 1.23062832
Li 6.41554500 4.32750000 -3.697912080000002 0 0 0
Y 2.10934566 2.16972195 3.74421132
Y 2.13851500 2.16375000 -1.2325460400000026 0 0 0
Y 2.10934566 6.48519150 3.74421132
Y 2.13851500 6.49125000 -1.2325460400000026 0 0 0
Y 6.44471434 2.16972195 3.74421132
Y 6.41554500 2.16375000 -1.2325460400000026 0 0 0
Y 6.44471434 6.48519150 3.74421132
Y 6.41554500 6.49125000 -1.2325460400000026 0 0 0
Ge 0.00000000 0.00000000 4.61403432
Ge 0.00000000 0.00000000 -1.2325460400000026 0 0 0
Ge 0.00000000 4.32750000 3.38477580
Ge 0.00000000 4.32750000 -1.2325460400000026 0 0 0
Ge 4.27703000 0.00000000 3.41737704
Ge 4.27703000 0.00000000 -1.2325460400000026 0 0 0
Ge 4.27703000 4.32750000 3.92694264
Ge 4.27703000 4.32750000 -1.2325460400000026 0 0 0
Pb 0.00000000 1.84766940 1.31856948
Pb 0.00000000 2.16375000 -3.697912080000002 0 0 0
Pb 0.00000000 6.80733060 1.31856948
Pb 0.00000000 6.49125000 -3.697912080000002 0 0 0
Pb 4.27703000 2.42997780 1.32569244
Pb 4.27703000 2.16375000 -3.697912080000002 0 0 0
Pb 4.27703000 6.22502220 1.32569244
Pb 4.27703000 6.49125000 -3.697912080000002 0 0 0
C 0.00000000 0.00000000 6.54627420
O 0.00000000 0.00000000 7.71252192
