&CONTROL
calculation = 'relax'
prefix = 'scf'
pseudo_dir = '/vol0004/mdt0/data/hp150275/u10028/POT_KKJUS'
outdir = './data'
tprnfor = .true.
nstep = 50
disk_io = 'non'
/
&SYSTEM
ibrav = 0
ecutwfc = 50.0
ecutrho = 400
occupations = 'smearing'
smearing = 'mp'
degauss = 0.01
assume_isolated = 'esm'
esm_bc = 'bc1'
input_dft = 'BEEF-VDW'
nosym = .true.
nspin = 1
ntyp = 4
nat = 34
/
&ELECTRONS
electron_maxstep = 200
mixing_beta = 0.1
conv_thr = 1e-06
/
&IONS
ion_dynamics = 'bfgs'
upscale = 1.0
/
&CELL
/

K_POINTS {automatic}
8 6 1 0 0 0

ATOMIC_SPECIES
C 12.01 C.pbe-n-rrkjus_psl.1.0.0.UPF
O 15.99 O.pbe-n-rrkjus_psl.1.0.0.UPF
Y 88.90 Y.pbe-spn-rrkjus_psl.1.0.0.UPF
Zn 65.40 Zn.pbe-dnl-rrkjus_psl.1.0.0.UPF

CELL_PARAMETERS {angstrom}
7.16718000 0.00000000 0.00000000
0.00000000 10.13590000 0.00000000
0.00000000 0.00000000 27.60190000

ATOMIC_POSITIONS {angstrom}
Y 0.00000000 0.00000000 -3.8010576500000006 0 0 0
Y 0.00000000 2.53397500 -1.2669272100000022 0 0 0
Y 0.00501703 0.00010136 1.21255147
Y 7.16366808 2.53792800 3.75082219
Y 0.00000000 5.06795000 -3.8010576500000006 0 0 0
Y 0.00000000 7.60192500 -1.2669272100000022 0 0 0
Y 7.16416978 5.06795000 1.19902654
Y 7.16345307 7.59776928 3.75054617
Y 3.58359000 0.00000000 -3.8010576500000006 0 0 0
Y 3.58359000 2.53397500 -1.2669272100000022 0 0 0
Y 3.57857297 0.00000000 1.21255147
Y 3.58717359 2.53792800 3.75082219
Y 3.58359000 5.06795000 -3.8010576500000006 0 0 0
Y 3.58359000 7.60192500 -1.2669272100000022 0 0 0
Y 3.58660022 5.06795000 1.19902654
Y 3.58731693 7.59787064 3.75054617
Zn 1.79179500 2.53397500 -3.8010576500000006 0 0 0
Zn 1.79179500 0.00000000 -1.2669272100000022 0 0 0
Zn 1.79186667 2.59124284 1.21503564
Zn 1.79179500 5.06693641 3.71411166
Zn 1.79179500 7.60192500 -3.8010576500000006 0 0 0
Zn 1.79179500 5.06795000 -1.2669272100000022 0 0 0
Zn 1.79179500 7.54455581 1.21475962
Zn 1.79179500 0.00050680 3.64786710
Zn 5.37538500 2.53397500 -3.8010576500000006 0 0 0
Zn 5.37538500 0.00000000 -1.2669272100000022 0 0 0
Zn 5.37538500 2.52171056 1.25588645
Zn 5.37538500 5.06724049 3.67436493
Zn 5.37538500 7.60192500 -3.8010576500000006 0 0 0
Zn 5.37538500 5.06795000 -1.2669272100000022 0 0 0
Zn 5.37538500 7.61418944 1.25533441
Zn 5.37538500 0.00081087 3.71411166
C 1.79179500 0.00000000 5.62333509
O 1.79179500 0.00000000 6.79365565
