&CONTROL
calculation = 'relax'
prefix = 'scf'
pseudo_dir = '/vol0004/mdt0/data/hp150275/u10028/POT_HYBRID_KKJUS_GBRV'
outdir = './data'
tprnfor = .true.
nstep = 70
disk_io = 'non'
/
&SYSTEM
ibrav = 0
ecutwfc = 50.0
ecutrho = 400
occupations = 'smearing'
smearing = 'mp'
degauss = 0.01
assume_isolated = 'esm'
esm_bc = 'bc1'
input_dft = 'BEEF-VDW'
nosym = .true.
nspin = 1
ntyp = 4
nat = 18
/
&ELECTRONS
electron_maxstep = 200
mixing_beta = 0.1
conv_thr = 1e-06
/
&IONS
ion_dynamics = 'bfgs'
upscale = 1.0
/
&CELL
/

K_POINTS {automatic}
8 8 1 0 0 0

ATOMIC_SPECIES
C 12.01 C.pbe-n-rrkjus_psl.1.0.0.UPF
Nb 92.90 Nb.pbe-spn-rrkjus_psl.1.0.0.UPF
O 15.99 O.pbe-n-rrkjus_psl.1.0.0.UPF
Ru 101.0 Ru.pbe-spn-rrkjus_psl.1.0.0.UPF

CELL_PARAMETERS {angstrom}
6.13946000 0.00000000 0.00000000
-0.00000000 6.13946000 0.00000000
0.00000000 0.00000000 25.13280000

ATOMIC_POSITIONS {angstrom}
Nb 1.53486500 1.53486500 -0.8914604199999978 0 0 0
Nb 1.53486500 1.53486500 2.53037030
Nb 1.53486500 4.60459500 -0.8914604199999978 0 0 0
Nb 1.53486500 4.60459500 2.53037030
Nb 4.60459500 1.53486500 -0.8914604199999978 0 0 0
Nb 4.60459500 1.53486500 2.53037030
Nb 4.60459500 4.60459500 -0.8914604199999978 0 0 0
Nb 4.60459500 4.60459500 2.53037030
Ru 0.00000000 0.00000000 -2.602501440000001 0 0 0
Ru 0.00000000 0.00000000 0.81958061
Ru 0.00000000 3.06973000 -2.602501440000001 0 0 0
Ru 0.00000000 3.06973000 0.81958061
Ru 3.06973000 0.00000000 -2.602501440000001 0 0 0
Ru 3.06973000 -0.00000000 0.81958061
Ru 3.06973000 3.06973000 -2.602501440000001 0 0 0
Ru 3.06973000 3.06973000 0.81958061
C 1.53486500 1.53486500 4.43040998
O 1.53486500 1.53486500 5.58048691
