&CONTROL
calculation = 'relax'
prefix = 'scf'
pseudo_dir = '/vol0403/data/hp230205/u10028/POT_HYBRID_KKJUS_GBRV'
outdir = './data'
tprnfor = .true.
nstep = 50
disk_io = 'non'
/
&SYSTEM
ibrav = 0
ecutwfc = 50.0
ecutrho = 400
occupations = 'smearing'
smearing = 'mp'
degauss = 0.01
assume_isolated = 'esm'
esm_bc = 'bc1'
input_dft = 'BEEF-VDW'
nosym = .true.
nspin = 1
ntyp = 5
nat = 17
/
&ELECTRONS
electron_maxstep = 200
mixing_beta = 0.1
conv_thr = 1e-06
/
&IONS
ion_dynamics = 'bfgs'
upscale = 1.0
/
&CELL
/

K_POINTS {automatic}
12 7 2 0  0  0

ATOMIC_SPECIES
C 12.01 C.pbe-n-rrkjus_psl.1.0.0.UPF
Ga 69.72 Ga.pbe-dnl-rrkjus_psl.1.0.0.UPF
Pd 106.4 Pd.pbe-n-rrkjus_psl.1.0.0.UPF
Sc 44.95 Sc.pbe-spn-rrkjus_psl.1.0.0.UPF
Y 88.90 Y.pbe-spn-rrkjus_psl.1.0.0.UPF


CELL_PARAMETERS {angstrom}
5.91305000 0.00000000 0.00000000
0.00000000 9.85606000 0.00000000
0.00000000 0.00000000 24.24990000

ATOMIC_POSITIONS {angstrom}
Y 1.05589334 2.46401500 -0.7083395800000005 0 0 0
Y 3.06154077 2.23565009 2.29307054
Y 1.05589334 7.39204500 -0.7083395800000005 0 0 0
Y 3.06142251 7.62050847 2.29307054
Sc 2.95652500 0.00000000 -2.1250187400000016 0 0 0
Sc 4.98990463 0.00000000 0.80606668
Sc 2.95652500 4.92803000 -2.1250187400000016 0 0 0
Sc 4.72547304 4.92803000 0.60430751
Ga 0.00000000 0.00000000 -2.1250187400000016 0 0 0
Ga 2.10971711 0.00009856 0.59582004
Ga 0.00000000 4.92803000 -2.1250187400000016 0 0 0
Ga 1.81412374 4.92803000 1.04711068
Pd 4.01241834 2.46401500 -0.7083395800000005 0 0 0
Pd 0.05635137 2.81094831 1.79885758
Pd 4.01241834 7.39204500 -0.7083395800000005 0 0 0
Pd 0.05623311 7.04501313 1.79885758
C 3.43140205 0.00000000 2.21571336
