&CONTROL
calculation = 'relax'
prefix = 'scf'
pseudo_dir = '/vol0004/mdt0/data/hp150275/u10028/POT_KKJUS'
outdir = './data'
tprnfor = .true.
nstep = 50
disk_io = 'non'
/
&SYSTEM
ibrav = 0
ecutwfc = 50.0
ecutrho = 400
occupations = 'smearing'
smearing = 'mp'
degauss = 0.01
assume_isolated = 'esm'
esm_bc = 'bc1'
input_dft = 'BEEF-VDW'
nosym = .true.
nspin = 1
ntyp = 4
nat = 34
/
&ELECTRONS
electron_maxstep = 200
mixing_beta = 0.1
conv_thr = 1e-06
/
&IONS
ion_dynamics = 'bfgs'
upscale = 1.0
/
&CELL
/

K_POINTS {automatic}
8 8 1 0 0 0

ATOMIC_SPECIES
C 12.01 C.pbe-n-rrkjus_psl.1.0.0.UPF
In 114.8 In.pbe-dn-rrkjus_psl.1.0.0.UPF
Ni 58.69 Ni.pbe-spn-rrkjus_psl.1.0.0.UPF
O 15.99 O.pbe-n-rrkjus_psl.1.0.0.UPF

CELL_PARAMETERS {angstrom}
7.55564000 0.00000000 0.00000000
-0.00000000 7.55564000 0.00000000
0.00000000 0.00000000 25.66670000

ATOMIC_POSITIONS {angstrom}
In 0.00000000 0.00000000 2.83334701
In 0.00000000 0.00000000 -0.9445345599999975 0 0 0
In 0.00000000 3.77782000 2.83334701
In 0.00000000 3.77782000 -0.9445345599999975 0 0 0
In 3.77782000 -0.00000000 2.83334701
In 3.77782000 0.00000000 -0.9445345599999975 0 0 0
In 3.77782000 3.77782000 2.83334701
In 3.77782000 3.77782000 -0.9445345599999975 0 0 0
Ni 0.00000000 1.88891000 0.94453456
Ni 1.88891000 -0.00000000 0.94453456
Ni 1.88891000 1.88891000 2.83334701
Ni 0.00000000 1.88891000 -2.833347009999997 0 0 0
Ni 1.88891000 0.00000000 -2.833347009999997 0 0 0
Ni 1.88891000 1.88891000 -0.9445345599999975 0 0 0
Ni 0.00000000 5.66673000 0.94453456
Ni 1.88891000 3.77782000 0.94453456
Ni 1.88891000 5.66673000 2.83334701
Ni 0.00000000 5.66673000 -2.833347009999997 0 0 0
Ni 1.88891000 3.77782000 -2.833347009999997 0 0 0
Ni 1.88891000 5.66673000 -0.9445345599999975 0 0 0
Ni 3.77782000 1.88891000 0.94453456
Ni 5.66673000 -0.00000000 0.94453456
Ni 5.66673000 1.88891000 2.83334701
Ni 3.77782000 1.88891000 -2.833347009999997 0 0 0
Ni 5.66673000 0.00000000 -2.833347009999997 0 0 0
Ni 5.66673000 1.88891000 -0.9445345599999975 0 0 0
Ni 3.77782000 5.66673000 0.94453456
Ni 5.66673000 3.77782000 0.94453456
Ni 5.66673000 5.66673000 2.83334701
Ni 3.77782000 5.66673000 -2.833347009999997 0 0 0
Ni 5.66673000 3.77782000 -2.833347009999997 0 0 0
Ni 5.66673000 5.66673000 -0.9445345599999975 0 0 0
C 0.00000000 0.00000000 4.73345281
O 0.00000000 0.00000000 5.88332097
