&CONTROL
calculation = 'relax'
prefix = 'scf'
pseudo_dir = '/vol0403/data/hp230205/u10028/POT_HYBRID_KKJUS_GBRV'
outdir = './data'
tprnfor = .true.
nstep = 50
disk_io = 'non'
/
&SYSTEM
ibrav = 0
ecutwfc = 50.0
ecutrho = 400
occupations = 'smearing'
smearing = 'mp'
degauss = 0.01
assume_isolated = 'esm'
esm_bc = 'bc1'
input_dft = 'BEEF-VDW'
nosym = .true.
nspin = 1
ntyp = 6
nat = 18
/
&ELECTRONS
electron_maxstep = 200
mixing_beta = 0.1
conv_thr = 1e-06
/
&IONS
ion_dynamics = 'bfgs'
upscale = 1.0
/
&CELL
/

K_POINTS {automatic}
10 10 2 0  0  0

ATOMIC_SPECIES
C 12.01 C.pbe-n-rrkjus_psl.1.0.0.UPF
Ge 72.64 Ge.pbe-dn-rrkjus_psl.1.0.0.UPF
Li 6.941 Li.pbe-sl-rrkjus_psl.1.0.0.UPF
O 15.99 O.pbe-n-rrkjus_psl.1.0.0.UPF
Pd 106.4 Pd.pbe-n-rrkjus_psl.1.0.0.UPF
Pt 195.0 Pt.pbe-n-rrkjus_psl.1.0.0.UPF


CELL_PARAMETERS {angstrom}
6.12898000 0.00000000 0.00000000
0.00000000 6.12898000 0.00000000
0.00000000 0.00000000 24.59670000

ATOMIC_POSITIONS {angstrom}
Li 0.00000000 3.06449000 -2.2983156499999993 0 0 0
Li 0.01777404 6.11120596 0.81882414
Li 3.05088366 3.07809634 0.82743299
Li 3.06449000 0.00000000 -2.2983156499999993 0 0 0
Ge 0.00000000 0.00000000 -2.2983156499999993 0 0 0
Ge 0.02279981 3.08637046 0.84858615
Ge 3.04267083 6.10611890 0.84858615
Ge 3.06449000 3.06449000 -2.2983156499999993 0 0 0
Pd 4.59673500 1.53224500 -0.7661872099999982 0 0 0
Pd 4.59655113 4.59685758 2.28946084
Pd 1.53212242 1.53242887 2.28921487
Pd 1.53224500 4.59673500 -0.7661872099999982 0 0 0
Pt 1.53224500 1.53224500 -0.7661872099999982 0 0 0
Pt 1.53138694 4.59765435 2.22550942
Pt 4.59728661 1.53169339 2.28404956
Pt 4.59673500 4.59673500 -0.7661872099999982 0 0 0
C 4.59857369 1.53040631 4.18389867
O 4.59673500 1.53224500 5.33527020
