&CONTROL
calculation = 'relax'
prefix = 'scf'
pseudo_dir = '/vol0004/mdt0/data/hp150275/u10028/POT_KKJUS'
outdir = './data'
tprnfor = .true.
nstep = 50
disk_io = 'non'
/
&SYSTEM
ibrav = 0
ecutwfc = 50.0
ecutrho = 400
occupations = 'smearing'
smearing = 'mp'
degauss = 0.01
assume_isolated = 'esm'
esm_bc = 'bc1'
input_dft = 'BEEF-VDW'
nosym = .true.
nspin = 1
ntyp = 5
nat = 18
/
&ELECTRONS
electron_maxstep = 200
mixing_beta = 0.1
conv_thr = 1e-06
/
&IONS
ion_dynamics = 'bfgs'
upscale = 1.0
/
&CELL
/

K_POINTS {automatic}
9 9 2 0  0  0

ATOMIC_SPECIES
Au 196.9 Au.pbe-n-rrkjus_psl.1.0.0.UPF
C 12.01 C.pbe-n-rrkjus_psl.1.0.0.UPF
Li 6.941 Li.pbe-sl-rrkjus_psl.1.0.0.UPF
O 15.99 O.pbe-n-rrkjus_psl.1.0.0.UPF
Sn 118.7 Sn.pbe-dn-rrkjus_psl.1.0.0.UPF

CELL_PARAMETERS {angstrom}
6.60404000 0.00000000 0.00000000
0.00000000 6.60404000 0.00000000
0.00000000 0.00000000 24.95300000

ATOMIC_POSITIONS {angstrom}
Li 6.57148208 0.03255792 0.80722955
Li 3.30202000 0.00000000 -2.4765852499999994 0 0 0
Li 0.00000000 3.30202000 -2.4765852499999994 0 0 0
Li 3.33457792 3.26946208 0.80722955
Li 1.65101000 1.65101000 2.77726890
Li 1.65101000 4.95303000 -0.8254452400000005 0 0 0
Li 4.95309604 4.95309604 2.77726890
Li 4.95303000 1.65101000 -0.8254452400000005 0 0 0
Sn 0.00000000 0.00000000 -2.4765852499999994 0 0 0
Sn 3.30202000 3.30202000 -2.4765852499999994 0 0 0
Sn 3.36561691 0.06359691 0.90230048
Sn 6.54044309 3.23842309 0.90230048
Au 1.65101000 1.65101000 -0.8254452400000005 0 0 0
Au 1.65101000 4.95303000 2.27546407
Au 4.95303000 4.95303000 -0.8254452400000005 0 0 0
Au 4.95303000 1.65101000 2.54720224
C 4.95303000 1.65101000 4.59334824
O 4.95303000 1.65101000 5.74967026
