&CONTROL
calculation = 'relax'
prefix = 'scf'
pseudo_dir = '/vol0403/data/hp230205/u10028/POT_HYBRID_KKJUS_GBRV'
outdir = './data'
tprnfor = .true.
nstep = 70
disk_io = 'non'
/
&SYSTEM
ibrav = 0
ecutwfc = 50.0
ecutrho = 400
occupations = 'smearing'
smearing = 'mp'
degauss = 0.01
assume_isolated = 'esm'
esm_bc = 'bc1'
input_dft = 'BEEF-VDW'
nosym = .true.
nspin = 1
ntyp = 6
nat = 18
/
&ELECTRONS
electron_maxstep = 200
mixing_beta = 0.1
conv_thr = 1e-06
/
&IONS
ion_dynamics = 'bfgs'
upscale = 1.0
/
&CELL
/

K_POINTS {automatic}
6 6 1 0 0 0

ATOMIC_SPECIES
C 12.01 C.pbe-n-rrkjus_psl.1.0.0.UPF
Ga 69.72 Ga.pbe-dnl-rrkjus_psl.1.0.0.UPF
O 15.99 O.pbe-n-rrkjus_psl.1.0.0.UPF
Pd 106.4 Pd.pbe-n-rrkjus_psl.1.0.0.UPF
Sn 118.7 Sn.pbe-dn-rrkjus_psl.1.0.0.UPF
Y 88.90 Y.pbe-spn-rrkjus_psl.1.0.0.UPF


CELL_PARAMETERS {angstrom}
6.14219000 0.00000000 0.00000000
-0.00000000 8.88338000 0.00000000
0.00000000 0.00000000 24.60430000

ATOMIC_POSITIONS {angstrom}
Y 1.60593700 2.22315468 0.67292760
Y 4.45843146 2.22084500 -2.3022243499999995 0 0 0
Y 1.60605984 6.66058066 0.67317365
Y 4.45843146 6.66253500 -2.3022243499999995 0 0 0
Ga 0.01713671 8.88320233 2.11720001
Ga 2.97226716 0.00000000 -0.7674081199999989 0 0 0
Ga 0.04078414 4.44204534 2.13983597
Ga 2.97226716 4.44169000 -0.7674081199999989 0 0 0
Sn 3.40105345 8.88329117 2.13516115
Sn 6.04336216 -0.00000000 -0.7674081199999989 0 0 0
Sn 3.42758771 4.44160117 2.14746330
Sn 6.04336216 4.44169000 -0.7674081199999989 0 0 0
Pd 4.71007698 2.21773582 0.82645844
Pd 1.38733646 2.22084500 -2.3022243499999995 0 0 0
Pd 4.71026125 6.66564418 0.82670448
Pd 1.38733646 6.66253500 -2.3022243499999995 0 0 0
C 5.68539533 8.88195866 5.54851569
O 0.39844387 0.00017767 6.29574828
