&CONTROL
calculation = 'relax'
prefix = 'scf'
pseudo_dir = '/vol0004/mdt0/data/hp150275/u10028/POT_KKJUS'
outdir = './data'
tprnfor = .true.
nstep = 50
disk_io = 'non'
/
&SYSTEM
ibrav = 0
ecutwfc = 50.0
ecutrho = 400
occupations = 'smearing'
smearing = 'mp'
degauss = 0.01
assume_isolated = 'esm'
esm_bc = 'bc1'
input_dft = 'BEEF-VDW'
nosym = .true.
nspin = 1
ntyp = 4
nat = 33
/
&ELECTRONS
electron_maxstep = 200
mixing_beta = 0.1
conv_thr = 1e-06
/
&IONS
ion_dynamics = 'bfgs'
upscale = 1.0
/
&CELL
/

K_POINTS {automatic}
8 6 1 0 0 0

ATOMIC_SPECIES
C 12.01 C.pbe-n-rrkjus_psl.1.0.0.UPF
Ge 72.64 Ge.pbe-dn-rrkjus_psl.1.0.0.UPF
Li 6.941 Li.pbe-sl-rrkjus_psl.1.0.0.UPF
Ni 58.69 Ni.pbe-spn-rrkjus_psl.1.0.0.UPF

CELL_PARAMETERS {angstrom}
5.73354000 0.00000000 0.00000000
0.00000000 8.10846000 0.00000000
0.00000000 0.00000000 26.08130000

ATOMIC_POSITIONS {angstrom}
Li 0.00000000 0.00000000 -3.04055795 0 0 0
Li 2.86677000 2.02711500 -1.0135193200000003 0 0 0
Li 2.86677000 6.08134500 -1.0135193200000003 0 0 0
Li 0.00000000 4.05423000 -3.04055795 0 0 0
Li 5.73348266 4.05439217 0.87685331
Li 2.86677000 6.00772018 3.55514200
Li 2.86677000 2.10073982 3.55514200
Li 5.73348266 0.00000000 0.92797265
Ni 1.43338500 0.00000000 -1.0135193200000003 0 0 0
Ni 4.30015500 4.05423000 -1.0135193200000003 0 0 0
Ni 4.30015500 0.00000000 -1.0135193200000003 0 0 0
Ni 1.43338500 4.05423000 -1.0135193200000003 0 0 0
Ni 4.30015500 6.08134500 -3.04055795 0 0 0
Ni 1.43338500 2.02711500 -3.04055795 0 0 0
Ni 1.43338500 6.08134500 -3.04055795 0 0 0
Ni 4.30015500 2.02711500 -3.04055795 0 0 0
Ni 1.31900088 4.05423000 2.82251829
Ni 4.53098732 0.00000000 3.02543080
Ni 4.41459646 4.05423000 2.82251829
Ni 1.20266735 0.00008108 3.02490917
Ni 4.28914660 2.00668168 1.05107639
Ni 1.44450807 6.10169723 1.05107639
Ni 1.44439340 2.00668168 1.05107639
Ni 4.28891726 6.10177832 1.05107639
Ge 0.00000000 6.08134500 -1.0135193200000003 0 0 0
Ge 2.86677000 0.00000000 -3.04055795 0 0 0
Ge 0.00000000 2.02711500 -1.0135193200000003 0 0 0
Ge 2.86677000 4.05423000 -3.04055795 0 0 0
Ge 0.00000000 2.08760411 3.08046234
Ge 2.86682734 4.05447325 1.00804224
Ge 0.00000000 6.02085589 3.08020153
Ge 2.86677000 8.10829783 1.02447346
C 2.86677000 0.00000000 3.45603306
