&CONTROL
calculation = 'relax'
prefix = 'scf'
pseudo_dir = '/vol0004/mdt0/data/hp150275/u10028/POT_HYBRID_KKJUS_GBRV'
outdir = './data'
tprnfor = .true.
nstep = 50
disk_io = 'non'
/
&SYSTEM
ibrav = 0
ecutwfc = 50.0
ecutrho = 400
occupations = 'smearing'
smearing = 'mp'
degauss = 0.01
assume_isolated = 'esm'
esm_bc = 'bc1'
input_dft = 'BEEF-VDW'
nosym = .true.
nspin = 2
ntyp = 4
nat = 34
starting_magnetization(1) = 0.1
starting_magnetization(2) = 0.1
starting_magnetization(3) = 0.1
starting_magnetization(4) = 0.1
/
&ELECTRONS
electron_maxstep = 200
mixing_beta = 0.1
conv_thr = 1e-06
/
&IONS
ion_dynamics = 'bfgs'
upscale = 1.0
/
&CELL
/

K_POINTS {automatic}
8 6 1 0 0 0

ATOMIC_SPECIES
C 12.01 C.pbe-n-rrkjus_psl.1.0.0.UPF
Ni 58.69 ni_pbe_v1.4.uspp.F.UPF
O 15.99 O.pbe-n-rrkjus_psl.1.0.0.UPF
Sc 44.95 Sc.pbe-spn-rrkjus_psl.1.0.0.UPF

CELL_PARAMETERS {angstrom}
6.35210000 0.00000000 0.00000000
0.00000000 8.98322000 0.00000000
0.00000000 0.00000000 26.73740000

ATOMIC_POSITIONS {angstrom}
Sc 1.58802500 2.24580500 -3.3686450299999997 0 0 0
Sc 1.58802500 0.00000000 -1.122970800000001 0 0 0
Sc 1.58364205 2.24580500 1.11120634
Sc 1.59945878 8.97693175 3.43655802
Sc 1.58802500 6.73741500 -3.3686450299999997 0 0 0
Sc 1.58802500 4.49161000 -1.122970800000001 0 0 0
Sc 1.58332445 6.73741500 1.11735595
Sc 1.59945878 4.49789825 3.43655802
Sc 4.76407500 2.24580500 -3.3686450299999997 0 0 0
Sc 4.76407500 0.00000000 -1.122970800000001 0 0 0
Sc 4.76845795 2.24580500 1.11120634
Sc 4.75264122 8.97693175 3.43655802
Sc 4.76407500 6.73741500 -3.3686450299999997 0 0 0
Sc 4.76407500 4.49161000 -1.122970800000001 0 0 0
Sc 4.76877555 6.73741500 1.11735595
Sc 4.75264122 4.49789825 3.43655802
Ni 0.00000000 0.00000000 -3.3686450299999997 0 0 0
Ni 0.00000000 2.24580500 -1.122970800000001 0 0 0
Ni 0.00000000 0.05470781 1.27457186
Ni 0.00000000 2.24580500 3.39698667
Ni 0.00000000 4.49161000 -3.3686450299999997 0 0 0
Ni 0.00000000 6.73741500 -1.122970800000001 0 0 0
Ni 0.00000000 4.43690219 1.27457186
Ni 0.00000000 6.73741500 3.15822169
Ni 3.17605000 0.00000000 -3.3686450299999997 0 0 0
Ni 3.17605000 2.24580500 -1.122970800000001 0 0 0
Ni 3.17605000 8.98133352 1.21762120
Ni 3.17605000 2.24580500 3.11383760
Ni 3.17605000 4.49161000 -3.3686450299999997 0 0 0
Ni 3.17605000 6.73741500 -1.122970800000001 0 0 0
Ni 3.17605000 4.49349648 1.21762120
Ni 3.17605000 6.73741500 3.14512036
C 0.00000000 2.24580500 5.16700255
O 0.00000000 2.24580500 6.34291340
