&CONTROL
calculation = 'relax'
prefix = 'scf'
pseudo_dir = '/vol0004/mdt0/data/hp150275/u10028/POT_KKJUS'
outdir = './data'
tprnfor = .true.
nstep = 50
disk_io = 'non'
/
&SYSTEM
ibrav = 0
ecutwfc = 50.0
ecutrho = 400
occupations = 'smearing'
smearing = 'mp'
degauss = 0.01
assume_isolated = 'esm'
esm_bc = 'bc1'
input_dft = 'BEEF-VDW'
nosym = .true.
nspin = 1
ntyp = 3
nat = 33
/
&ELECTRONS
electron_maxstep = 200
mixing_beta = 0.1
conv_thr = 1e-06
/
&IONS
ion_dynamics = 'bfgs'
upscale = 1.0
/
&CELL
/

K_POINTS {automatic}
9 6 2 0  0  0

ATOMIC_SPECIES
C 12.01 C.pbe-n-rrkjus_psl.1.0.0.UPF
Li 6.941 Li.pbe-sl-rrkjus_psl.1.0.0.UPF
Pd 106.4 Pd.pbe-n-rrkjus_psl.1.0.0.UPF

CELL_PARAMETERS {angstrom}
6.21964000 0.00000000 0.00000000
0.00000000 8.79589000 0.00000000
0.00000000 0.00000000 26.59690000

ATOMIC_POSITIONS {angstrom}
Li 1.55491000 0.00000000 -1.099515850000003 0 0 0
Li 4.66473000 4.39794500 -1.099515850000003 0 0 0
Li 4.66473000 0.00000000 -1.099515850000003 0 0 0
Li 1.55491000 4.39794500 -1.099515850000003 0 0 0
Li 4.66473000 6.59691750 -3.2985475400000013 0 0 0
Li 1.55491000 2.19897250 -3.2985475400000013 0 0 0
Li 1.55491000 6.59691750 -3.2985475400000013 0 0 0
Li 4.66473000 2.19897250 -3.2985475400000013 0 0 0
Li 0.00000000 6.59691750 -1.099515850000003 0 0 0
Li 3.10982000 0.00000000 -3.2985475400000013 0 0 0
Li 0.00000000 2.19897250 -1.099515850000003 0 0 0
Li 3.10982000 4.39794500 -3.2985475400000013 0 0 0
Li 1.76861683 4.39794500 3.54696258
Li 4.96893259 0.00000000 3.20200079
Li 4.45102317 4.39794500 3.54696258
Li 1.25070741 0.00000000 3.20200079
Li 4.65403222 2.20099555 1.12558081
Li 1.56560778 6.59489445 1.12558081
Li 1.56560778 2.20099555 1.12558081
Li 4.65403222 6.59489445 1.12558081
Li 0.00000000 2.39547268 3.26689723
Li 3.10982000 4.39794500 1.16388034
Li 0.00000000 6.40041732 3.26689723
Li 3.10982000 0.00000000 1.23941554
Pd 0.00000000 0.00000000 -3.2985475400000013 0 0 0
Pd 3.10982000 2.19897250 -1.099515850000003 0 0 0
Pd 3.10982000 6.59691750 -1.099515850000003 0 0 0
Pd 0.00000000 4.39794500 -3.2985475400000013 0 0 0
Pd 0.00000000 4.39794500 1.39314562
Pd 3.10982000 6.90609303 3.25492862
Pd 3.10982000 1.88979697 3.25492862
Pd 0.00000000 0.00000000 0.99711778
C 3.10982000 0.00000000 3.81106980
