&CONTROL
calculation = 'relax'
prefix = 'scf'
pseudo_dir = '/vol0403/data/hp230205/u10028/POT_HYBRID_KKJUS_GBRV'
outdir = './data'
tprnfor = .true.
nstep = 50
disk_io = 'non'
/
&SYSTEM
ibrav = 0
ecutwfc = 50.0
ecutrho = 400
occupations = 'smearing'
smearing = 'mp'
degauss = 0.01
assume_isolated = 'esm'
esm_bc = 'bc1'
input_dft = 'BEEF-VDW'
nosym = .true.
nspin = 2
ntyp = 5
nat = 17
starting_magnetization(1) = 0.0
starting_magnetization(2) = 0.0
starting_magnetization(3) = 0.0
starting_magnetization(4) = 0.1
starting_magnetization(5) = 0.0
/
&ELECTRONS
electron_maxstep = 400
mixing_beta = 0.05
conv_thr = 1e-06
/
&IONS
ion_dynamics = 'bfgs'
upscale = 1.0
/
&CELL
/

K_POINTS {automatic}
10 10 2 0  0  0

ATOMIC_SPECIES
Al 26.98 Al.pbe-nl-rrkjus_psl.1.0.0.UPF
C 12.01 C.pbe-n-rrkjus_psl.1.0.0.UPF
Li 6.941 Li.pbe-sl-rrkjus_psl.1.0.0.UPF
Mn 54.93 mn_pbe_v1.5.uspp.F.UPF
Pd 106.4 Pd.pbe-n-rrkjus_psl.1.0.0.UPF


CELL_PARAMETERS {angstrom}
6.10222000 0.00000000 0.00000000
0.00000000 6.10222000 0.00000000
0.00000000 0.00000000 24.57670000

ATOMIC_POSITIONS {angstrom}
Li 6.09501938 3.04427551 2.79904036
Li 0.00000000 0.00000000 23.81383923
Li 3.05111000 3.05111000 23.81383923
Li 3.05800551 0.00713960 2.79928613
Mn 1.52524989 1.52451762 0.84691308
Mn 1.52555500 4.57666500 22.28836346
Mn 4.57666500 1.52555500 22.28836346
Mn 4.57770238 4.57697011 0.84691308
Al 5.93477508 0.16744492 2.43358483
Al 0.00000000 3.05111000 23.81383923
Al 3.05111000 0.00000000 23.81383923
Al 3.22166705 2.88049193 2.43211023
Pd 4.57758033 1.52463967 0.57239134
Pd 4.57666500 4.57666500 22.28836346
Pd 1.52555500 1.52555500 22.28836346
Pd 1.52604318 4.57617682 1.07203565
C 4.57861771 1.52360229 2.83516811
