&CONTROL
calculation = 'relax'
prefix = 'scf'
pseudo_dir = '/vol0403/data/hp230205/u10028/POT_HYBRID_KKJUS_GBRV'
outdir = './data'
tprnfor = .true.
nstep = 50
disk_io = 'non'
/
&SYSTEM
ibrav = 0
ecutwfc = 50.0
ecutrho = 400
occupations = 'smearing'
smearing = 'mp'
degauss = 0.01
assume_isolated = 'esm'
esm_bc = 'bc1'
input_dft = 'BEEF-VDW'
nosym = .true.
nspin = 1
ntyp = 5
nat = 33
/
&ELECTRONS
electron_maxstep = 200
mixing_beta = 0.1
conv_thr = 1e-06
/
&IONS
ion_dynamics = 'bfgs'
upscale = 1.0
/
&CELL
/

K_POINTS {automatic}
9 6 2 0  0  0

ATOMIC_SPECIES
Ag 107.8 Ag.pbe-n-rrkjus_psl.1.0.0.UPF
C 12.01 C.pbe-n-rrkjus_psl.1.0.0.UPF
Li 6.941 Li.pbe-sl-rrkjus_psl.1.0.0.UPF
Sn 118.7 Sn.pbe-dn-rrkjus_psl.1.0.0.UPF
Y 88.90 Y.pbe-spn-rrkjus_psl.1.0.0.UPF


CELL_PARAMETERS {angstrom}
7.11214000 0.00000000 0.00000000
0.00000000 10.05810000 0.00000000
0.00000000 0.00000000 27.54360000

ATOMIC_POSITIONS {angstrom}
Li 1.77803500 0.00000000 -1.2573653399999998 0 0 0
Li 1.77803500 5.02905000 -1.2573653399999998 0 0 0
Li 5.33410500 2.51452500 -3.77182058 0 0 0
Li 5.33410500 7.54357500 -3.77182058 0 0 0
Li 1.71310116 5.16694655 3.61454663
Li 1.71487920 9.91296162 3.61867817
Li 5.39854099 7.54578778 1.15600489
Li 5.36767430 2.51633546 1.36120471
Y 5.33410500 0.00000000 -1.2573653399999998 0 0 0
Y 5.33410500 5.02905000 -1.2573653399999998 0 0 0
Y 1.77803500 2.51452500 -3.77182058 0 0 0
Y 1.77803500 7.54357500 -3.77182058 0 0 0
Y 5.41774377 4.76432081 4.06598623
Y 5.41610797 0.26724372 4.06874059
Y 1.76053914 7.54407790 1.27389150
Y 1.80954178 2.51372035 1.19732029
Ag 0.00000000 0.00000000 -3.77182058 0 0 0
Ag 0.00000000 5.02905000 -3.77182058 0 0 0
Ag 3.55607000 7.54357500 -1.2573653399999998 0 0 0
Ag 3.55607000 2.51452500 -1.2573653399999998 0 0 0
Ag 6.97658261 5.02190875 1.40554991
Ag 6.97516018 0.00694009 1.40857970
Ag 3.34896448 2.51613430 3.72830170
Ag 3.89766608 7.54518430 3.46553575
Sn 0.00000000 2.51452500 -1.2573653399999998 0 0 0
Sn 0.00000000 7.54357500 -1.2573653399999998 0 0 0
Sn 3.55607000 5.02905000 -3.77182058 0 0 0
Sn 3.55607000 0.00000000 -3.77182058 0 0 0
Sn 7.03995178 7.54427907 3.83709892
Sn 0.39500826 2.51271454 3.85858292
Sn 3.65827145 10.02792570 1.44053028
Sn 3.65692015 5.06053185 1.43997941
C 5.46546623 2.51663720 4.61961259
