&CONTROL
calculation = 'relax'
prefix = 'scf'
pseudo_dir = '/vol0004/mdt0/data/hp150275/u10028/POT_KKJUS'
outdir = './data'
tprnfor = .true.
nstep = 50
disk_io = 'non'
/
&SYSTEM
ibrav = 0
ecutwfc = 50.0
ecutrho = 400
occupations = 'smearing'
smearing = 'mp'
degauss = 0.01
assume_isolated = 'esm'
esm_bc = 'bc1'
input_dft = 'BEEF-VDW'
nosym = .true.
nspin = 1
ntyp = 3
nat = 33
/
&ELECTRONS
electron_maxstep = 200
mixing_beta = 0.1
conv_thr = 1e-06
/
&IONS
ion_dynamics = 'bfgs'
upscale = 1.0
/
&CELL
/

K_POINTS {automatic}
8 6 1 0 0 0

ATOMIC_SPECIES
Be 9.012 Be.pbe-n-rrkjus_psl.1.0.0.UPF
C 12.01 C.pbe-n-rrkjus_psl.1.0.0.UPF
Pd 106.4 Pd.pbe-n-rrkjus_psl.1.0.0.UPF

CELL_PARAMETERS {angstrom}
5.70199000 0.00000000 0.00000000
0.00000000 8.06383000 0.00000000
0.00000000 0.00000000 26.04790000

ATOMIC_POSITIONS {angstrom}
Be 0.00000000 0.00000000 -3.0239007099999995 0 0 0
Be 0.00000000 2.01595750 -1.0080537299999968 0 0 0
Be 5.69383615 0.01733723 1.03670642
Be 5.50589856 2.01595750 3.16143362
Be 0.00000000 4.03191500 -3.0239007099999995 0 0 0
Be 0.00000000 6.04787250 -1.0080537299999968 0 0 0
Be 5.69383615 4.01457777 1.03670642
Be 0.06180957 6.04787250 2.92517917
Be 2.85099500 0.00000000 -3.0239007099999995 0 0 0
Be 2.85099500 2.01595750 -1.0080537299999968 0 0 0
Be 2.85914885 0.01733723 1.03670642
Be 3.04708644 2.01595750 3.16143362
Be 2.85099500 4.03191500 -3.0239007099999995 0 0 0
Be 2.85099500 6.04787250 -1.0080537299999968 0 0 0
Be 2.85914885 4.01457777 1.03670642
Be 2.78924245 6.04787250 2.92517917
Pd 1.42549750 2.01595750 -3.0239007099999995 0 0 0
Pd 1.42549750 0.00000000 -1.0080537299999968 0 0 0
Pd 1.42549750 2.01595750 0.98825733
Pd 1.42549750 7.99415851 2.96607437
Pd 1.42549750 6.04787250 -3.0239007099999995 0 0 0
Pd 1.42549750 4.03191500 -1.0080537299999968 0 0 0
Pd 1.42549750 6.04787250 0.95569745
Pd 1.42549750 4.10158649 2.96607437
Pd 4.27649250 2.01595750 -3.0239007099999995 0 0 0
Pd 4.27649250 0.00000000 -1.0080537299999968 0 0 0
Pd 4.27649250 2.01595750 1.02159864
Pd 4.27649250 7.95819383 2.97440970
Pd 4.27649250 6.04787250 -3.0239007099999995 0 0 0
Pd 4.27649250 4.03191500 -1.0080537299999968 0 0 0
Pd 4.27649250 6.04787250 0.95022739
Pd 4.27649250 4.13755117 2.97440970
C 1.42549750 2.01595750 3.53235572
