&CONTROL
calculation = 'relax'
prefix = 'scf'
pseudo_dir = '/vol0403/data/hp230205/u10028/POT_HYBRID_KKJUS_GBRV'
outdir = './data'
tprnfor = .true.
nstep = 70
disk_io = 'non'
/
&SYSTEM
ibrav = 0
ecutwfc = 50.0
ecutrho = 400
occupations = 'smearing'
smearing = 'mp'
degauss = 0.01
assume_isolated = 'esm'
esm_bc = 'bc1'
input_dft = 'BEEF-VDW'
nosym = .true.
nspin = 1
ntyp = 5
nat = 33
/
&ELECTRONS
electron_maxstep = 200
mixing_beta = 0.1
conv_thr = 1e-06
/
&IONS
ion_dynamics = 'bfgs'
upscale = 1.0
/
&CELL
/

K_POINTS {automatic}
6 6 1 0 0 0

ATOMIC_SPECIES
Al 26.98 Al.pbe-nl-rrkjus_psl.1.0.0.UPF
C 12.01 C.pbe-n-rrkjus_psl.1.0.0.UPF
Ga 69.72 Ga.pbe-dnl-rrkjus_psl.1.0.0.UPF
Pd 106.4 Pd.pbe-n-rrkjus_psl.1.0.0.UPF
Sc 44.95 Sc.pbe-spn-rrkjus_psl.1.0.0.UPF


CELL_PARAMETERS {angstrom}
6.45143000 0.00000000 0.00000000
-0.00000000 9.12370000 0.00000000
0.00000000 0.00000000 26.84280000

ATOMIC_POSITIONS {angstrom}
Sc 0.00000000 2.28092500 -1.140550570000002 0 0 0
Sc 0.00000000 6.84277500 -1.140550570000002 0 0 0
Sc 3.22571500 4.56185000 -3.4213832900000014 0 0 0
Sc 3.22571500 0.00000000 -3.4213832900000014 0 0 0
Sc 6.32678837 6.84277500 3.46164749
Sc 6.13492284 2.28092500 3.60740389
Sc 3.24061780 0.05538086 1.17383564
Sc 3.24061780 4.50646914 1.17383564
Al 0.00000000 0.00000000 -3.4213832900000014 0 0 0
Al 0.00000000 4.56185000 -3.4213832900000014 0 0 0
Al 3.22571500 6.84277500 -1.140550570000002 0 0 0
Al 3.22571500 2.28092500 -1.140550570000002 0 0 0
Al 6.32885283 4.63365352 1.22188426
Al 6.32885283 9.05180524 1.22188426
Al 3.53351273 2.28092500 3.42728870
Al 3.14184641 6.84277500 3.36689240
Ga 4.83857250 0.00000000 -1.140550570000002 0 0 0
Ga 4.83857250 4.56185000 -1.140550570000002 0 0 0
Ga 1.61285750 2.28092500 -3.4213832900000014 0 0 0
Ga 1.61285750 6.84277500 -3.4213832900000014 0 0 0
Ga 4.59870833 4.66421791 3.97971353
Ga 4.59870833 9.02133209 3.97971353
Ga 1.60969630 6.84286624 1.13894000
Ga 1.35925179 2.28092500 1.22456854
Pd 1.61285750 0.00000000 -1.140550570000002 0 0 0
Pd 1.61285750 4.56185000 -1.140550570000002 0 0 0
Pd 4.83857250 2.28092500 -3.4213832900000014 0 0 0
Pd 4.83857250 6.84277500 -3.4213832900000014 0 0 0
Pd 1.57698755 4.63046022 3.25039465
Pd 1.57698755 9.05499854 3.25039465
Pd 4.76883254 6.84268376 1.12176061
Pd 4.94173087 2.28092500 1.08283855
C 1.67485574 2.28092500 3.27347946
