&CONTROL
calculation = 'relax'
prefix = 'scf'
pseudo_dir = '/vol0004/mdt0/data/hp150275/u10028/POT_HYBRID_KKJUS_GBRV'
outdir = './data'
tprnfor = .true.
nstep = 50
disk_io = 'non'
/
&SYSTEM
ibrav = 0
ecutwfc = 50.0
ecutrho = 400
occupations = 'smearing'
smearing = 'mp'
degauss = 0.01
assume_isolated = 'esm'
esm_bc = 'bc1'
input_dft = 'BEEF-VDW'
nosym = .true.
nspin = 2
ntyp = 5
nat = 18
starting_magnetization(1) = 0.0
starting_magnetization(2) = 0.1
starting_magnetization(3) = 0.0
starting_magnetization(4) = 0.0
starting_magnetization(5) = 0.0
/
&ELECTRONS
electron_maxstep = 300
mixing_beta = 0.1
conv_thr = 1e-06
/
&IONS
ion_dynamics = 'bfgs'
upscale = 1.0
/
&CELL
/

K_POINTS {automatic}
8 8 1 0 0 0

ATOMIC_SPECIES
C 12.01 C.pbe-n-rrkjus_psl.1.0.0.UPF
Co 58.93 co_pbe_v1.2.uspp.F.UPF
O 15.99 O.pbe-n-rrkjus_psl.1.0.0.UPF
Sn 118.7 Sn.pbe-dn-rrkjus_psl.1.0.0.UPF
V 50.94 V.pbe-spnl-rrkjus_psl.1.0.0.UPF

CELL_PARAMETERS {angstrom}
6.04348000 0.00000000 0.00000000
0.00000000 6.04348000 0.00000000
0.00000000 0.00000000 24.53260000

ATOMIC_POSITIONS {angstrom}
V 0.00000000 0.00000000 2.28570234
V 3.02174000 3.02186087 2.26803887
V 3.02174000 0.00000000 -0.7553587499999992 0 0 0
V 0.00000000 3.02174000 -0.7553587499999992 0 0 0
Co 1.51256217 1.50899652 0.74137517
Co 4.53261000 4.53261000 -2.266321589999997 0 0 0
Co 4.53091783 1.50899652 0.74137517
Co 1.51087000 4.53261000 -2.266321589999997 0 0 0
Co 4.53091783 4.53448348 0.74137517
Co 1.51087000 1.51087000 -2.266321589999997 0 0 0
Co 1.51256217 4.53442304 0.74137517
Co 4.53261000 1.51087000 -2.266321589999997 0 0 0
Sn 0.00000000 0.00000000 -0.7553587499999992 0 0 0
Sn 3.02174000 0.00000000 2.33967406
Sn 0.00000000 3.02174000 2.08159111
Sn 3.02174000 3.02174000 -0.7553587499999992 0 0 0
C 0.00000000 3.02174000 4.28265598
O 0.00000000 3.02174000 5.45923948
