&CONTROL
calculation = 'relax'
prefix = 'scf'
pseudo_dir = '/vol0403/data/hp230205/u10028/POT_HYBRID_KKJUS_GBRV'
outdir = './data'
tprnfor = .true.
nstep = 50
disk_io = 'non'
/
&SYSTEM
ibrav = 0
ecutwfc = 50.0
ecutrho = 400
occupations = 'smearing'
smearing = 'mp'
degauss = 0.01
assume_isolated = 'esm'
esm_bc = 'bc1'
input_dft = 'BEEF-VDW'
nosym = .true.
nspin = 1
ntyp = 5
nat = 33
/
&ELECTRONS
electron_maxstep = 200
mixing_beta = 0.1
conv_thr = 1e-06
/
&IONS
ion_dynamics = 'bfgs'
upscale = 1.0
/
&CELL
/

K_POINTS {automatic}
6 7 2 0  0  0

ATOMIC_SPECIES
C 12.01 C.pbe-n-rrkjus_psl.1.0.0.UPF
Ge 72.64 Ge.pbe-dn-rrkjus_psl.1.0.0.UPF
Li 6.941 Li.pbe-sl-rrkjus_psl.1.0.0.UPF
Pb 207.2 Pb.pbe-dn-rrkjus_psl.1.0.0.UPF
Y 88.90 Y.pbe-spn-rrkjus_psl.1.0.0.UPF


CELL_PARAMETERS {angstrom}
9.86128000 0.00000000 0.00000000
0.00000000 8.55406000 0.00000000
0.00000000 0.00000000 26.49120000

ATOMIC_POSITIONS {angstrom}
Li 2.46561584 2.15108947 3.58108042
Li 2.46532000 2.13851500 -1.0819006099999982 0 0 0
Li 2.46522139 6.40297053 3.58081550
Li 2.46532000 6.41554500 -1.0819006099999982 0 0 0
Li 7.39596000 2.51343945 3.54346291
Li 7.39596000 2.13851500 -1.0819006099999982 0 0 0
Li 7.39596000 6.04062055 3.54346291
Li 7.39596000 6.41554500 -1.0819006099999982 0 0 0
Y 9.81473476 2.10883241 1.11872338
Y 0.00000000 2.13851500 -3.2457018200000007 0 0 0
Y 9.81473476 6.44522759 1.11872338
Y 0.00000000 6.41554500 -3.2457018200000007 0 0 0
Y 4.97718524 2.10883241 1.11872338
Y 4.93064000 2.13851500 -3.2457018200000007 0 0 0
Y 4.97718524 6.44522759 1.11872338
Y 4.93064000 6.41554500 -3.2457018200000007 0 0 0
Ge 0.56505134 0.00008554 3.55035062
Ge 0.00000000 0.00000000 -1.0819006099999982 0 0 0
Ge 9.55252332 4.27703000 3.16013525
Ge 0.00000000 4.27703000 -1.0819006099999982 0 0 0
Ge 4.36558866 0.00000000 3.55035062
Ge 4.93064000 0.00000000 -1.0819006099999982 0 0 0
Ge 5.23939668 4.27703000 3.16013525
Ge 4.93064000 4.27703000 -1.0819006099999982 0 0 0
Pb 2.46532000 0.00000000 1.01726208
Pb 2.46532000 0.00000000 -3.2457018200000007 0 0 0
Pb 2.46532000 4.27703000 1.38707923
Pb 2.46532000 4.27703000 -3.2457018200000007 0 0 0
Pb 7.39596000 0.00000000 1.28694250
Pb 7.39596000 0.00000000 -3.2457018200000007 0 0 0
Pb 7.39596000 4.27703000 1.01567261
Pb 7.39596000 4.27703000 -3.2457018200000007 0 0 0
C 2.46532000 0.00000000 3.60598214
