&CONTROL
calculation = 'relax'
prefix = 'scf'
pseudo_dir = '/vol0403/data/hp230205/u10028/POT_HYBRID_KKJUS_GBRV'
outdir = './data'
tprnfor = .true.
nstep = 50
disk_io = 'non'
/
&SYSTEM
ibrav = 0
ecutwfc = 50.0
ecutrho = 400
occupations = 'smearing'
smearing = 'mp'
degauss = 0.01
assume_isolated = 'esm'
esm_bc = 'bc1'
input_dft = 'BEEF-VDW'
nosym = .true.
nspin = 1
ntyp = 5
nat = 33
/
&ELECTRONS
electron_maxstep = 200
mixing_beta = 0.1
conv_thr = 1e-06
/
&IONS
ion_dynamics = 'bfgs'
upscale = 1.0
/
&CELL
/

K_POINTS {automatic}
6 6 1 0 0 0

ATOMIC_SPECIES
C 12.01 C.pbe-n-rrkjus_psl.1.0.0.UPF
Cu 63.54 Cu.pbe-dn-rrkjus_psl.1.0.0.UPF
In 114.8 In.pbe-dn-rrkjus_psl.1.0.0.UPF
Pd 106.4 Pd.pbe-n-rrkjus_psl.1.0.0.UPF
Y 88.90 Y.pbe-spn-rrkjus_psl.1.0.0.UPF


CELL_PARAMETERS {angstrom}
6.76944000 0.00000000 0.00000000
0.00000000 9.57344000 0.00000000
0.00000000 0.00000000 27.18010000

ATOMIC_POSITIONS {angstrom}
Y 5.07708000 0.00000000 -1.1967397999999996 0 0 0
Y 5.07708000 4.78672000 -1.1967397999999996 0 0 0
Y 1.69236000 2.39336000 -3.5899476099999994 0 0 0
Y 1.69236000 7.18008000 -3.5899476099999994 0 0 0
Y 4.77367370 4.78672000 3.73454574
Y 4.83595255 0.00000000 3.57064974
Y 1.72965961 7.07065558 1.33236850
Y 1.72972731 2.50278442 1.33236850
In 1.69236000 0.00000000 -1.1967397999999996 0 0 0
In 1.69236000 4.78672000 -1.1967397999999996 0 0 0
In 5.07708000 2.39336000 -3.5899476099999994 0 0 0
In 5.07708000 7.18008000 -3.5899476099999994 0 0 0
In 1.62859188 4.78672000 3.86229221
In 1.15364796 0.00000000 3.44480587
In 5.08053241 7.22603251 1.21060165
In 5.08060011 2.34740749 1.21060165
Cu 0.00000000 0.00000000 -3.5899476099999994 0 0 0
Cu 0.00000000 4.78672000 -3.5899476099999994 0 0 0
Cu 3.38472000 7.18008000 -1.1967397999999996 0 0 0
Cu 3.38472000 2.39336000 -1.1967397999999996 0 0 0
Cu 6.54753776 4.78672000 1.46283298
Cu 0.03553956 0.00000000 1.05458788
Cu 2.64536176 1.99529636 4.44068474
Cu 2.64536176 7.57814364 4.44068474
Pd 0.00000000 2.39336000 -1.1967397999999996 0 0 0
Pd 0.00000000 7.18008000 -1.1967397999999996 0 0 0
Pd 3.38472000 4.78672000 -3.5899476099999994 0 0 0
Pd 3.38472000 0.00000000 -3.5899476099999994 0 0 0
Pd 6.68306195 7.02020355 3.53015139
Pd 6.68306195 2.55333218 3.53015139
Pd 3.32650282 0.00000000 1.10025045
Pd 3.51428708 4.78672000 1.22174549
C 2.89914807 0.00000000 4.72580399
