&CONTROL
calculation = 'relax'
prefix = 'scf'
pseudo_dir = '/vol0403/data/hp230205/u10028/POT_HYBRID_KKJUS_GBRV'
outdir = './data'
tprnfor = .true.
nstep = 50
disk_io = 'non'
/
&SYSTEM
ibrav = 0
ecutwfc = 50.0
ecutrho = 400
occupations = 'smearing'
smearing = 'mp'
degauss = 0.01
assume_isolated = 'esm'
esm_bc = 'bc1'
input_dft = 'BEEF-VDW'
nosym = .true.
nspin = 1
ntyp = 5
nat = 33
/
&ELECTRONS
electron_maxstep = 200
mixing_beta = 0.1
conv_thr = 1e-06
/
&IONS
ion_dynamics = 'bfgs'
upscale = 1.0
/
&CELL
/

K_POINTS {automatic}
6 6 1 0 0 0

ATOMIC_SPECIES
C 12.01 C.pbe-n-rrkjus_psl.1.0.0.UPF
Cu 63.54 Cu.pbe-dn-rrkjus_psl.1.0.0.UPF
In 114.8 In.pbe-dn-rrkjus_psl.1.0.0.UPF
Pd 106.4 Pd.pbe-n-rrkjus_psl.1.0.0.UPF
Y 88.90 Y.pbe-spn-rrkjus_psl.1.0.0.UPF


CELL_PARAMETERS {angstrom}
6.76944000 0.00000000 0.00000000
0.00000000 9.57344000 0.00000000
0.00000000 0.00000000 27.18010000

ATOMIC_POSITIONS {angstrom}
Y 5.07708000 0.00000000 -1.1967397999999996 0 0 0
Y 5.07708000 4.78672000 -1.1967397999999996 0 0 0
Y 1.69236000 2.39336000 -3.5899476099999994 0 0 0
Y 1.69236000 7.18008000 -3.5899476099999994 0 0 0
Y 4.76947665 4.78672000 3.72910972
Y 4.82837077 0.00000000 3.56983433
Y 1.72972731 7.07122999 1.33128130
Y 1.72979500 2.50221001 1.33128130
In 1.69236000 0.00000000 -1.1967397999999996 0 0 0
In 1.69236000 4.78672000 -1.1967397999999996 0 0 0
In 5.07708000 2.39336000 -3.5899476099999994 0 0 0
In 5.07708000 7.18008000 -3.5899476099999994 0 0 0
In 1.63075810 4.78672000 3.85006117
In 1.14843550 0.00000000 3.44562128
In 5.07809542 7.22842587 1.20978625
In 5.07809542 2.34501413 1.20978625
Cu 0.00000000 0.00000000 -3.5899476099999994 0 0 0
Cu 0.00000000 4.78672000 -3.5899476099999994 0 0 0
Cu 3.38472000 7.18008000 -1.1967397999999996 0 0 0
Cu 3.38472000 2.39336000 -1.1967397999999996 0 0 0
Cu 6.54537154 4.78672000 1.47288962
Cu 0.03953353 0.00000000 1.05377248
Cu 2.64184165 1.99481769 4.43796673
Cu 2.64184165 7.57862231 4.43796673
Pd 0.00000000 2.39336000 -1.1967397999999996 0 0 0
Pd 0.00000000 7.18008000 -1.1967397999999996 0 0 0
Pd 3.38472000 4.78672000 -3.5899476099999994 0 0 0
Pd 3.38472000 0.00000000 -3.5899476099999994 0 0 0
Pd 6.68238500 7.02039502 3.53042319
Pd 6.68245270 2.55323645 3.53042319
Pd 3.32738284 0.00000000 1.10025045
Pd 3.51408400 4.78672000 1.21821208
C 2.89346174 0.00000000 4.72933740
