&CONTROL
calculation = 'relax'
prefix = 'scf'
pseudo_dir = '/vol0004/mdt0/data/hp150275/u10028/POT_HYBRID_KKJUS_GBRV'
outdir = './data'
tprnfor = .true.
nstep = 50
disk_io = 'non'
/
&SYSTEM
ibrav = 0
ecutwfc = 50.0
ecutrho = 400
occupations = 'smearing'
smearing = 'mp'
degauss = 0.01
assume_isolated = 'esm'
esm_bc = 'bc1'
input_dft = 'BEEF-VDW'
nosym = .true.
nspin = 2
ntyp = 4
nat = 33
starting_magnetization(1) = 0.0
starting_magnetization(2) = 0.1
starting_magnetization(3) = 0.0
starting_magnetization(4) = 0.1
/
&ELECTRONS
electron_maxstep = 300
mixing_beta = 0.1
conv_thr = 1e-06
/
&IONS
ion_dynamics = 'bfgs'
upscale = 1.0
/
&CELL
/

K_POINTS {automatic}
9 6 2 0  0  0

ATOMIC_SPECIES
C 12.01 C.pbe-n-rrkjus_psl.1.0.0.UPF
Co 58.93 co_pbe_v1.2.uspp.F.UPF
Ge 72.64 Ge.pbe-dn-rrkjus_psl.1.0.0.UPF
Mn 54.93 mn_pbe_v1.5.uspp.F.UPF

CELL_PARAMETERS {angstrom}
5.75846000 0.00000000 0.00000000
0.00000000 8.14369000 0.00000000
0.00000000 0.00000000 26.10780000

ATOMIC_POSITIONS {angstrom}
Mn 0.00000000 0.00000000 -3.0538293700000025 0 0 0
Mn 2.87923000 2.03592250 -1.0179431200000018 0 0 0
Mn 2.87923000 6.10776750 -1.0179431200000018 0 0 0
Mn 0.00000000 4.07184500 -3.0538293700000025 0 0 0
Mn 0.00742841 4.07990725 1.00880539
Mn 2.79832364 6.10776750 3.13972403
Mn 3.08423118 2.03600394 3.02041138
Mn 0.00748600 8.13554631 1.00880539
Co 1.43961500 0.00000000 -1.0179431200000018 0 0 0
Co 4.31884500 4.07184500 -1.0179431200000018 0 0 0
Co 4.31884500 0.00000000 -1.0179431200000018 0 0 0
Co 1.43961500 4.07184500 -1.0179431200000018 0 0 0
Co 4.31884500 6.10776750 -3.0538293700000025 0 0 0
Co 1.43961500 2.03592250 -3.0538293700000025 0 0 0
Co 1.43961500 6.10776750 -3.0538293700000025 0 0 0
Co 4.31884500 2.03592250 -3.0538293700000025 0 0 0
Co 1.37345029 3.90001314 3.05330721
Co 4.34113024 8.07112972 2.95749158
Co 4.34136058 4.14416097 2.95775266
Co 1.37385339 0.17191330 3.05330721
Co 4.34285778 2.03592250 0.95345686
Co 1.43961500 6.10776750 1.02629762
Co 1.43702369 2.03592250 1.03804613
Co 4.30329716 6.10793037 1.03230241
Ge 0.00000000 6.10776750 -1.0179431200000018 0 0 0
Ge 2.87923000 0.00000000 -3.0538293700000025 0 0 0
Ge 0.00000000 2.03592250 -1.0179431200000018 0 0 0
Ge 2.87923000 4.07184500 -3.0538293700000025 0 0 0
Ge 5.42706063 2.03567819 3.21883066
Ge 2.85999674 4.07062345 1.03491319
Ge 0.06167311 6.10776750 3.09168568
Ge 2.85993916 0.00105868 1.03465211
C 1.49086529 2.03616681 3.76657231
