&CONTROL
calculation = 'relax'
prefix = 'scf'
pseudo_dir = '/vol0004/mdt0/data/hp150275/u10028/POT_KKJUS'
outdir = './data'
tprnfor = .true.
nstep = 50
disk_io = 'non'
/
&SYSTEM
ibrav = 0
ecutwfc = 50.0
ecutrho = 400
occupations = 'smearing'
smearing = 'mp'
degauss = 0.01
assume_isolated = 'esm'
esm_bc = 'bc1'
input_dft = 'BEEF-VDW'
nosym = .true.
nspin = 1
ntyp = 4
nat = 33
/
&ELECTRONS
electron_maxstep = 200
mixing_beta = 0.1
conv_thr = 1e-06
/
&IONS
ion_dynamics = 'bfgs'
upscale = 1.0
/
&CELL
/

K_POINTS {automatic}
8 6 1 0 0 0

ATOMIC_SPECIES
Al 26.98 Al.pbe-nl-rrkjus_psl.1.0.0.UPF
C 12.01 C.pbe-n-rrkjus_psl.1.0.0.UPF
Cu 63.54 Cu.pbe-dn-rrkjus_psl.1.0.0.UPF
Ti 47.86 Ti.pbe-spn-rrkjus_psl.1.0.0.UPF

CELL_PARAMETERS {angstrom}
6.05884000 0.00000000 0.00000000
0.00000000 8.56849000 0.00000000
0.00000000 0.00000000 26.42640000

ATOMIC_POSITIONS {angstrom}
Ti 0.00000000 0.00000000 -3.213185980000002 0 0 0
Ti 3.02942000 2.14212250 -1.0710619900000005 0 0 0
Ti 3.02942000 6.42636750 -1.0710619900000005 0 0 0
Ti 0.00000000 4.28424500 -3.213185980000002 0 0 0
Ti 0.01478357 4.33916902 1.12153642
Ti 2.85274423 6.42636750 3.14500586
Ti 3.14241737 2.14212250 3.03665762
Ti 0.01478357 8.51356598 1.12153642
Al 0.00000000 6.42636750 -1.0710619900000005 0 0 0
Al 3.02942000 0.00000000 -3.213185980000002 0 0 0
Al 0.00000000 2.14212250 -1.0710619900000005 0 0 0
Al 3.02942000 4.28424500 -3.213185980000002 0 0 0
Al 5.66259186 2.14212250 3.53320968
Al 3.01718114 4.27233480 1.07053346
Al 0.06737430 6.42636750 3.24912588
Al 3.01718114 0.01182452 1.07053346
Cu 1.51471000 0.00000000 -1.0710619900000005 0 0 0
Cu 4.54413000 4.28424500 -1.0710619900000005 0 0 0
Cu 4.54413000 0.00000000 -1.0710619900000005 0 0 0
Cu 1.51471000 4.28424500 -1.0710619900000005 0 0 0
Cu 4.54413000 6.42636750 -3.213185980000002 0 0 0
Cu 1.51471000 2.14212250 -3.213185980000002 0 0 0
Cu 1.51471000 6.42636750 -3.213185980000002 0 0 0
Cu 4.54413000 2.14212250 -3.213185980000002 0 0 0
Cu 1.44594217 4.15460375 3.43305362
Cu 4.48269336 8.46395442 3.20525806
Cu 4.48269336 4.38878058 3.20525806
Cu 1.44594217 0.12964125 3.43305362
Cu 4.67239564 2.14203682 0.96218522
Cu 1.53658241 6.42645318 0.98041944
Cu 1.41667797 2.14203682 1.08480372
Cu 4.49953694 6.42645318 1.10356646
C 1.45521219 2.14212250 3.90344354
