&CONTROL
calculation = 'relax'
prefix = 'scf'
pseudo_dir = '/vol0004/mdt0/data/hp150275/u10028/POT_KKJUS'
outdir = './data'
tprnfor = .true.
nstep = 50
disk_io = 'non'
/
&SYSTEM
ibrav = 0
ecutwfc = 50.0
ecutrho = 400
occupations = 'smearing'
smearing = 'mp'
degauss = 0.01
assume_isolated = 'esm'
esm_bc = 'bc1'
input_dft = 'BEEF-VDW'
nosym = .true.
nspin = 1
ntyp = 2
nat = 32
/
&ELECTRONS
electron_maxstep = 200
mixing_beta = 0.1
conv_thr = 1e-06
/
&IONS
ion_dynamics = 'bfgs'
upscale = 1.0
/
&CELL
/

K_POINTS {automatic}
8 6 1 0 0 0

ATOMIC_SPECIES
Be 9.012 Be.pbe-n-rrkjus_psl.1.0.0.UPF
Ti 47.86 Ti.pbe-spn-rrkjus_psl.1.0.0.UPF

CELL_PARAMETERS {angstrom}
5.87849000 0.00000000 0.00000000
0.00000000 8.31345000 0.00000000
0.00000000 0.00000000 26.23510000

ATOMIC_POSITIONS {angstrom}
Ti 1.46962250 2.07836250 -3.1175169300000007 0 0 0
Ti 1.46962250 0.00000000 -1.0391723099999979 0 0 0
Ti 1.46962250 2.07836250 0.99063738
Ti 1.46962250 0.00000000 3.21668561
Ti 1.46962250 6.23508750 -3.1175169300000007 0 0 0
Ti 1.46962250 4.15672500 -1.0391723099999979 0 0 0
Ti 1.46962250 6.23508750 0.99063738
Ti 1.46962250 4.15672500 3.21668561
Ti 4.40886750 2.07836250 -3.1175169300000007 0 0 0
Ti 4.40886750 0.00000000 -1.0391723099999979 0 0 0
Ti 4.40886750 2.07836250 0.99063738
Ti 4.40886750 0.00000000 3.21668561
Ti 4.40886750 6.23508750 -3.1175169300000007 0 0 0
Ti 4.40886750 4.15672500 -1.0391723099999979 0 0 0
Ti 4.40886750 6.23508750 0.99063738
Ti 4.40886750 4.15672500 3.21668561
Be 0.00000000 0.00000000 -3.1175169300000007 0 0 0
Be 0.00000000 2.07836250 -1.0391723099999979 0 0 0
Be 0.00000000 0.00000000 1.13755394
Be 0.00000000 2.07836250 2.97610974
Be 0.00000000 4.15672500 -3.1175169300000007 0 0 0
Be 0.00000000 6.23508750 -1.0391723099999979 0 0 0
Be 0.00000000 4.15672500 1.13755394
Be 0.00000000 6.23508750 2.97610974
Be 2.93924500 0.00000000 -3.1175169300000007 0 0 0
Be 2.93924500 2.07836250 -1.0391723099999979 0 0 0
Be 2.93924500 0.00000000 1.13755394
Be 2.93924500 2.07836250 2.97610974
Be 2.93924500 4.15672500 -3.1175169300000007 0 0 0
Be 2.93924500 6.23508750 -1.0391723099999979 0 0 0
Be 2.93924500 4.15672500 1.13755394
Be 2.93924500 6.23508750 2.97610974
