&CONTROL
calculation = 'relax'
prefix = 'scf'
pseudo_dir = '/vol0004/mdt0/data/hp150275/u10028/POT_HYBRID_KKJUS_GBRV'
outdir = './data'
tprnfor = .true.
nstep = 50
disk_io = 'non'
/
&SYSTEM
ibrav = 0
ecutwfc = 50.0
ecutrho = 400
occupations = 'smearing'
smearing = 'mp'
degauss = 0.01
assume_isolated = 'esm'
esm_bc = 'bc1'
input_dft = 'BEEF-VDW'
nosym = .true.
nspin = 2
ntyp = 3
nat = 33
starting_magnetization(1) = 0.1
starting_magnetization(2) = 0.1
starting_magnetization(3) = 0.1
/
&ELECTRONS
electron_maxstep = 200
mixing_beta = 0.1
conv_thr = 1e-06
/
&IONS
ion_dynamics = 'bfgs'
upscale = 1.0
/
&CELL
/

K_POINTS {automatic}
8 6 1 0 0 0

ATOMIC_SPECIES
C 12.01 C.pbe-n-rrkjus_psl.1.0.0.UPF
Fe 55.84 fe_pbe_v1.5.uspp.F.UPF
Ti 47.86 Ti.pbe-spn-rrkjus_psl.1.0.0.UPF

CELL_PARAMETERS {angstrom}
5.92728000 0.00000000 0.00000000
0.00000000 8.38244000 0.00000000
0.00000000 0.00000000 26.28680000

ATOMIC_POSITIONS {angstrom}
Ti 0.00000000 0.00000000 -3.143375540000001 0 0 0
Ti 0.00000000 2.09561000 -1.0477918499999994 0 0 0
Ti 5.92609454 4.20739811 1.07881027
Ti 5.76825108 2.09561000 3.14232407
Ti 0.00000000 4.19122000 -3.143375540000001 0 0 0
Ti 0.00000000 6.28683000 -1.0477918499999994 0 0 0
Ti 5.92609454 8.36626189 1.07881027
Ti 5.92674654 6.28683000 3.24878561
Ti 2.96364000 0.00000000 -3.143375540000001 0 0 0
Ti 2.96364000 2.09561000 -1.0477918499999994 0 0 0
Ti 2.96482546 4.20739811 1.07881027
Ti 3.12266892 2.09561000 3.14232407
Ti 2.96364000 4.19122000 -3.143375540000001 0 0 0
Ti 2.96364000 6.28683000 -1.0477918499999994 0 0 0
Ti 2.96482546 8.36626189 1.07881027
Ti 2.96417346 6.28683000 3.24878561
Fe 1.48182000 2.09561000 -3.143375540000001 0 0 0
Fe 1.48182000 0.00000000 -1.0477918499999994 0 0 0
Fe 1.48182000 2.09569382 1.02702528
Fe 1.48182000 0.14845301 3.29820480
Fe 1.48182000 6.28683000 -3.143375540000001 0 0 0
Fe 1.48182000 4.19122000 -1.0477918499999994 0 0 0
Fe 1.48182000 6.28674618 1.15109897
Fe 1.48182000 4.04276699 3.29794193
Fe 4.44546000 2.09561000 -3.143375540000001 0 0 0
Fe 4.44546000 0.00000000 -1.0477918499999994 0 0 0
Fe 4.44546000 2.09569382 0.97024579
Fe 4.44546000 8.27271386 3.00510698
Fe 4.44546000 6.28683000 -3.143375540000001 0 0 0
Fe 4.44546000 4.19122000 -1.0477918499999994 0 0 0
Fe 4.44546000 6.28674618 1.04936906
Fe 4.44546000 4.30094614 3.00510698
C 1.48182000 2.09561000 4.16435486
