&CONTROL
calculation = 'relax'
prefix = 'scf'
pseudo_dir = '/vol0403/data/hp230205/u10028/POT_HYBRID_KKJUS_GBRV'
outdir = './data'
tprnfor = .true.
nstep = 50
disk_io = 'non'
/
&SYSTEM
ibrav = 0
ecutwfc = 50.0
ecutrho = 400
occupations = 'smearing'
smearing = 'mp'
degauss = 0.01
assume_isolated = 'esm'
esm_bc = 'bc1'
input_dft = 'BEEF-VDW'
nosym = .true.
nspin = 1
ntyp = 5
nat = 17
/
&ELECTRONS
electron_maxstep = 200
mixing_beta = 0.1
conv_thr = 1e-06
/
&IONS
ion_dynamics = 'bfgs'
upscale = 1.0
/
&CELL
/

K_POINTS {automatic}
8 8 1 0 0 0

ATOMIC_SPECIES
C 12.01 C.pbe-n-rrkjus_psl.1.0.0.UPF
Ge 72.64 Ge.pbe-dn-rrkjus_psl.1.0.0.UPF
Li 6.941 Li.pbe-sl-rrkjus_psl.1.0.0.UPF
Pd 106.4 Pd.pbe-n-rrkjus_psl.1.0.0.UPF
Zn 65.40 Zn.pbe-dnl-rrkjus_psl.1.0.0.UPF


CELL_PARAMETERS {angstrom}
6.18512000 0.00000000 0.00000000
0.00000000 6.18512000 0.00000000
0.00000000 0.00000000 24.63880000

ATOMIC_POSITIONS {angstrom}
Li 4.64224182 1.54287818 0.64602934
Li 4.63884000 4.63884000 -2.3194966299999997 0 0 0
Li 1.54628000 1.54628000 -2.3194966299999997 0 0 0
Li 1.54696036 4.63815964 1.03236572
Zn 6.09203394 3.00182429 2.38035447
Zn 0.00000000 0.00000000 -0.7731655400000008 0 0 0
Zn 3.09256000 3.09256000 -0.7731655400000008 0 0 0
Zn 3.18329571 0.09308606 2.38035447
Ge 6.02758499 0.15753501 2.48506937
Ge 0.00000000 3.09256000 -0.7731655400000008 0 0 0
Ge 3.09256000 0.00000000 -0.7731655400000008 0 0 0
Ge 3.25962009 2.92549991 2.49369295
Pd 1.54665111 1.54856849 0.81061652
Pd 1.54628000 4.63884000 -2.3194966299999997 0 0 0
Pd 4.63884000 1.54628000 -2.3194966299999997 0 0 0
Pd 4.63655151 4.63846889 0.81061652
C 4.64650955 1.53861045 2.85908635
