&CONTROL
calculation = 'relax'
prefix = 'scf'
pseudo_dir = '/vol0004/mdt0/data/hp150275/u10028/POT_KKJUS'
outdir = './data'
tprnfor = .true.
nstep = 50
disk_io = 'non'
/
&SYSTEM
ibrav = 0
ecutwfc = 50.0
ecutrho = 400
occupations = 'smearing'
smearing = 'mp'
degauss = 0.01
assume_isolated = 'esm'
esm_bc = 'bc1'
input_dft = 'BEEF-VDW'
nosym = .true.
nspin = 1
ntyp = 3
nat = 33
/
&ELECTRONS
electron_maxstep = 200
mixing_beta = 0.1
conv_thr = 1e-06
/
&IONS
ion_dynamics = 'bfgs'
upscale = 1.0
/
&CELL
/

K_POINTS {automatic}
8 6 1 0 0 0

ATOMIC_SPECIES
C 12.01 C.pbe-n-rrkjus_psl.1.0.0.UPF
Li 6.941 Li.pbe-sl-rrkjus_psl.1.0.0.UPF
Pb 207.2 Pb.pbe-dn-rrkjus_psl.1.0.0.UPF

CELL_PARAMETERS {angstrom}
7.21597000 0.00000000 0.00000000
0.00000000 10.20490000 0.00000000
0.00000000 0.00000000 27.65370000

ATOMIC_POSITIONS {angstrom}
Li 0.00000000 0.00000000 -3.8267190100000015 0 0 0
Li 0.00000000 2.55122500 -1.2756651800000007 0 0 0
Li 0.08255070 10.15959024 1.29944736
Li 6.96853439 2.56040941 3.92461310
Li 0.00000000 5.10245000 -3.8267190100000015 0 0 0
Li 0.00000000 7.65367500 -1.2756651800000007 0 0 0
Li 0.07345857 5.14622902 1.28949203
Li 0.04365662 7.65796106 3.69232202
Li 3.60798500 0.00000000 -3.8267190100000015 0 0 0
Li 3.60798500 2.55122500 -1.2756651800000007 0 0 0
Li 3.52543430 10.15959024 1.29944736
Li 3.85534845 2.56051146 3.92461310
Li 3.60798500 5.10245000 -3.8267190100000015 0 0 0
Li 3.60798500 7.65367500 -1.2756651800000007 0 0 0
Li 3.53452643 5.14622902 1.28949203
Li 3.56432838 7.65785901 3.69232202
Pb 1.80399250 2.55122500 -3.8267190100000015 0 0 0
Pb 1.80399250 0.00000000 -1.2756651800000007 0 0 0
Pb 1.80399250 2.55244959 1.52980268
Pb 1.80399250 4.83865334 4.28881233
Pb 1.80399250 7.65367500 -3.8267190100000015 0 0 0
Pb 1.80399250 5.10245000 -1.2756651800000007 0 0 0
Pb 1.80399250 7.65030738 1.26902829
Pb 1.80399250 0.28461466 4.28604696
Pb 5.41197750 2.55122500 -3.8267190100000015 0 0 0
Pb 5.41197750 0.00000000 -1.2756651800000007 0 0 0
Pb 5.41197750 2.54938812 1.38047270
Pb 5.41197750 5.19786582 3.70172428
Pb 5.41197750 7.65367500 -3.8267190100000015 0 0 0
Pb 5.41197750 5.10245000 -1.2756651800000007 0 0 0
Pb 5.41197750 7.65428729 1.34231060
Pb 5.41197750 10.11346410 3.70531926
C 1.80399250 2.56265449 3.96083945
