&CONTROL
calculation = 'relax'
prefix = 'scf'
pseudo_dir = '/vol0004/mdt0/data/hp150275/u10028/POT_KKJUS'
outdir = './data'
tprnfor = .true.
nstep = 50
disk_io = 'non'
/
&SYSTEM
ibrav = 0
ecutwfc = 50.0
ecutrho = 400
occupations = 'smearing'
smearing = 'mp'
degauss = 0.01
assume_isolated = 'esm'
esm_bc = 'bc1'
input_dft = 'BEEF-VDW'
nosym = .true.
nspin = 1
ntyp = 2
nat = 32
/
&ELECTRONS
electron_maxstep = 200
mixing_beta = 0.1
conv_thr = 1e-06
/
&IONS
ion_dynamics = 'bfgs'
upscale = 1.0
/
&CELL
/

K_POINTS {automatic}
8 6 1 0 0 0

ATOMIC_SPECIES
Ru 101.0 Ru.pbe-spn-rrkjus_psl.1.0.0.UPF
Ti 47.86 Ti.pbe-spn-rrkjus_psl.1.0.0.UPF

CELL_PARAMETERS {angstrom}
6.18271000 0.00000000 0.00000000
0.00000000 8.74368000 0.00000000
0.00000000 0.00000000 26.55780000

ATOMIC_POSITIONS {angstrom}
Ti 0.00000000 0.00000000 -3.2788259900000014 0 0 0
Ti 0.00000000 2.18592000 -1.0928534700000014 0 0 0
Ti 0.00000000 0.00000000 1.14118867
Ti 0.00000000 2.18592000 3.30352474
Ti 0.00000000 4.37184000 -3.2788259900000014 0 0 0
Ti 0.00000000 6.55776000 -1.0928534700000014 0 0 0
Ti 0.00000000 4.37184000 1.14118867
Ti 0.00000000 6.55776000 3.30352474
Ti 3.09135500 0.00000000 -3.2788259900000014 0 0 0
Ti 3.09135500 2.18592000 -1.0928534700000014 0 0 0
Ti 3.09135500 0.00000000 1.14118867
Ti 3.09135500 2.18592000 3.30352474
Ti 3.09135500 4.37184000 -3.2788259900000014 0 0 0
Ti 3.09135500 6.55776000 -1.0928534700000014 0 0 0
Ti 3.09135500 4.37184000 1.14118867
Ti 3.09135500 6.55776000 3.30352474
Ru 1.54567750 2.18592000 -3.2788259900000014 0 0 0
Ru 1.54567750 0.00000000 -1.0928534700000014 0 0 0
Ru 1.54567750 2.18592000 1.09232231
Ru 1.54561567 0.00000000 3.15745684
Ru 1.54567750 6.55776000 -3.2788259900000014 0 0 0
Ru 1.54567750 4.37184000 -1.0928534700000014 0 0 0
Ru 1.54567750 6.55776000 1.09232231
Ru 1.54561567 4.37184000 3.15745684
Ru 4.63703250 2.18592000 -3.2788259900000014 0 0 0
Ru 4.63703250 0.00000000 -1.0928534700000014 0 0 0
Ru 4.63703250 2.18592000 1.09232231
Ru 4.63709433 0.00000000 3.15745684
Ru 4.63703250 6.55776000 -3.2788259900000014 0 0 0
Ru 4.63703250 4.37184000 -1.0928534700000014 0 0 0
Ru 4.63703250 6.55776000 1.09232231
Ru 4.63709433 4.37184000 3.15745684
