&CONTROL
calculation = 'relax'
prefix = 'scf'
pseudo_dir = '/vol0004/mdt0/data/hp150275/u10028/POT_KKJUS'
outdir = './data'
tprnfor = .true.
nstep = 50
disk_io = 'non'
/
&SYSTEM
ibrav = 0
ecutwfc = 50.0
ecutrho = 400
occupations = 'smearing'
smearing = 'mp'
degauss = 0.01
assume_isolated = 'esm'
esm_bc = 'bc1'
input_dft = 'BEEF-VDW'
nosym = .true.
nspin = 1
ntyp = 3
nat = 33
/
&ELECTRONS
electron_maxstep = 200
mixing_beta = 0.1
conv_thr = 1e-06
/
&IONS
ion_dynamics = 'bfgs'
upscale = 1.0
/
&CELL
/

K_POINTS {automatic}
8 6 1 0 0 0

ATOMIC_SPECIES
C 12.01 C.pbe-n-rrkjus_psl.1.0.0.UPF
Rh 102.9 Rh.pbe-spn-rrkjus_psl.1.0.0.UPF
Ti 47.86 Ti.pbe-spn-rrkjus_psl.1.0.0.UPF

CELL_PARAMETERS {angstrom}
6.24301000 0.00000000 0.00000000
0.00000000 8.82895000 0.00000000
0.00000000 0.00000000 26.62170000

ATOMIC_POSITIONS {angstrom}
Ti 1.56075250 2.20723750 -3.31094083 0 0 0
Ti 1.56075250 0.00000000 -1.1037356799999998 0 0 0
Ti 1.55232444 2.19946802 1.15112231
Ti 1.68324036 0.00000000 3.42860874
Ti 1.56075250 6.62171250 -3.31094083 0 0 0
Ti 1.56075250 4.41447500 -1.1037356799999998 0 0 0
Ti 1.55232444 6.62948198 1.15112231
Ti 1.55494650 4.41447500 3.41157085
Ti 4.68225750 2.20723750 -3.31094083 0 0 0
Ti 4.68225750 0.00000000 -1.1037356799999998 0 0 0
Ti 4.69068556 2.19946802 1.15112231
Ti 4.55976964 0.00000000 3.42860874
Ti 4.68225750 6.62171250 -3.31094083 0 0 0
Ti 4.68225750 4.41447500 -1.1037356799999998 0 0 0
Ti 4.69068556 6.62948198 1.15112231
Ti 4.68806350 4.41447500 3.41157085
Rh 0.00000000 0.00000000 -3.31094083 0 0 0
Rh 0.00000000 2.20723750 -1.1037356799999998 0 0 0
Rh 0.00000000 0.00000000 1.02892870
Rh 0.00000000 2.25438409 3.19353913
Rh 0.00000000 4.41447500 -3.31094083 0 0 0
Rh 0.00000000 6.62171250 -1.1037356799999998 0 0 0
Rh 0.00000000 4.41447500 1.23817527
Rh 0.00000000 6.57456591 3.19353913
Rh 3.12150500 0.00000000 -3.31094083 0 0 0
Rh 3.12150500 2.20723750 -1.1037356799999998 0 0 0
Rh 3.12150500 0.00000000 1.00763135
Rh 3.12150500 2.28210700 3.12325784
Rh 3.12150500 4.41447500 -3.31094083 0 0 0
Rh 3.12150500 6.62171250 -1.1037356799999998 0 0 0
Rh 3.12150500 4.41447500 1.07152343
Rh 3.12150500 6.54684300 3.12325784
C 0.00000000 0.00000000 4.30739106
