&CONTROL
calculation = 'relax'
prefix = 'scf'
pseudo_dir = '/vol0004/mdt0/data/hp150275/u10028/POT_KKJUS'
outdir = './data'
tprnfor = .true.
nstep = 50
disk_io = 'non'
/
&SYSTEM
ibrav = 0
ecutwfc = 50.0
ecutrho = 400
occupations = 'smearing'
smearing = 'mp'
degauss = 0.01
assume_isolated = 'esm'
esm_bc = 'bc1'
input_dft = 'BEEF-VDW'
nosym = .true.
nspin = 1
ntyp = 4
nat = 33
/
&ELECTRONS
electron_maxstep = 200
mixing_beta = 0.1
conv_thr = 1e-06
/
&IONS
ion_dynamics = 'bfgs'
upscale = 1.0
/
&CELL
/

K_POINTS {automatic}
9 6 2 0  0  0

ATOMIC_SPECIES
C 12.01 C.pbe-n-rrkjus_psl.1.0.0.UPF
Li 6.941 Li.pbe-sl-rrkjus_psl.1.0.0.UPF
Pt 195.0 Pt.pbe-n-rrkjus_psl.1.0.0.UPF
Sb 121.7 Sb.pbe-n-rrkjus_psl.1.0.0.UPF

CELL_PARAMETERS {angstrom}
6.40528000 0.00000000 0.00000000
0.00000000 9.05843000 0.00000000
0.00000000 0.00000000 26.79380000

ATOMIC_POSITIONS {angstrom}
Li 0.00000000 6.79382250 -1.1323059900000025 0 0 0
Li 3.20264000 0.00000000 -3.3969179599999997 0 0 0
Li 0.00000000 2.26460750 -1.1323059900000025 0 0 0
Li 3.20264000 4.52921500 -3.3969179599999997 0 0 0
Li 1.60132000 2.26460750 -3.3969179599999997 0 0 0
Li 1.60132000 6.79382250 -3.3969179599999997 0 0 0
Li 4.80396000 4.52921500 -1.1323059900000025 0 0 0
Li 4.80396000 0.00000000 -1.1323059900000025 0 0 0
Li 6.30177068 2.26460750 3.17077829
Li 3.26502743 4.63764441 1.07684282
Li 0.28048721 6.79382250 3.38459282
Li 3.26502743 8.95000059 1.07684282
Li 1.57390540 6.79382250 1.06076654
Li 1.97577267 2.26460750 1.39970811
Li 4.74932296 8.80597156 3.38941570
Li 4.74932296 4.78167344 3.38941570
Sb 0.00000000 0.00000000 -3.3969179599999997 0 0 0
Sb 3.20264000 2.26460750 -1.1323059900000025 0 0 0
Sb 3.20264000 6.79382250 -1.1323059900000025 0 0 0
Sb 0.00000000 4.52921500 -3.3969179599999997 0 0 0
Sb 0.03747089 4.47332449 1.15454484
Sb 2.96494006 6.79382250 3.50328935
Sb 3.83484114 2.26460750 3.98584569
Sb 0.03747089 0.05589051 1.15454484
Pt 1.60132000 0.00000000 -1.1323059900000025 0 0 0
Pt 1.60132000 4.52921500 -1.1323059900000025 0 0 0
Pt 4.80396000 6.79382250 -3.3969179599999997 0 0 0
Pt 4.80396000 2.26460750 -3.3969179599999997 0 0 0
Pt 1.75888989 4.25510691 3.23133228
Pt 1.75888989 0.27410809 3.23133228
Pt 4.75399882 2.26460750 1.06800087
Pt 4.94000815 6.79382250 1.36809143
C 1.75594346 2.26460750 3.67986049
