&CONTROL
calculation = 'relax'
prefix = 'scf'
pseudo_dir = '/vol0403/data/hp230205/u10028/POT_HYBRID_KKJUS_GBRV'
outdir = './data'
tprnfor = .true.
nstep = 50
disk_io = 'non'
/
&SYSTEM
ibrav = 0
ecutwfc = 50.0
ecutrho = 400
occupations = 'smearing'
smearing = 'mp'
degauss = 0.01
assume_isolated = 'esm'
esm_bc = 'bc1'
input_dft = 'BEEF-VDW'
nosym = .true.
nspin = 1
ntyp = 5
nat = 17
/
&ELECTRONS
electron_maxstep = 200
mixing_beta = 0.1
conv_thr = 1e-06
/
&IONS
ion_dynamics = 'bfgs'
upscale = 1.0
/
&CELL
/

K_POINTS {automatic}
6 6 1 0 0 0

ATOMIC_SPECIES
C 12.01 C.pbe-n-rrkjus_psl.1.0.0.UPF
Ge 72.64 Ge.pbe-dn-rrkjus_psl.1.0.0.UPF
In 114.8 In.pbe-dn-rrkjus_psl.1.0.0.UPF
Li 6.941 Li.pbe-sl-rrkjus_psl.1.0.0.UPF
Mg 24.30 Mg.pbe-spnl-rrkjus_psl.1.0.0.UPF


CELL_PARAMETERS {angstrom}
6.07136000 0.00000000 0.00000000
0.00000000 8.40992000 0.00000000
0.00000000 0.00000000 24.55010000

ATOMIC_POSITIONS {angstrom}
Li 4.49480995 2.10248000 -0.7583525900000012 0 0 0
Li 1.40831267 1.46887663 2.48250611
Li 4.49480995 6.30744000 -0.7583525900000012 0 0 0
Li 1.40831267 6.94104337 2.48250611
Mg 1.45912995 2.10248000 -0.7583525900000012 0 0 0
Mg 4.18158849 1.81418794 2.27358476
Mg 1.45912995 6.30744000 -0.7583525900000012 0 0 0
Mg 4.18158849 6.59573206 2.27358476
In 3.03568000 0.00000000 -2.27505777 0 0 0
In 5.89656555 0.00000000 0.61350700
In 3.03568000 4.20496000 -2.27505777 0 0 0
In 5.97682892 4.20496000 1.02840369
Ge 0.00000000 0.00000000 -2.27505777 0 0 0
Ge 2.84601071 0.00000000 0.55483226
Ge 0.00000000 4.20496000 -2.27505777 0 0 0
Ge 2.91789562 4.20496000 1.03012220
C 2.93623112 0.00000000 2.55689292
