&CONTROL
calculation = 'relax'
prefix = 'scf'
pseudo_dir = '/vol0004/mdt0/data/hp150275/u10028/POT_KKJUS'
outdir = './data'
tprnfor = .true.
nstep = 50
disk_io = 'non'
/
&SYSTEM
ibrav = 0
ecutwfc = 50.0
ecutrho = 400
occupations = 'smearing'
smearing = 'mp'
degauss = 0.01
assume_isolated = 'esm'
esm_bc = 'bc1'
input_dft = 'BEEF-VDW'
nosym = .true.
nspin = 1
ntyp = 4
nat = 18
/
&ELECTRONS
electron_maxstep = 200
mixing_beta = 0.1
conv_thr = 1e-06
/
&IONS
ion_dynamics = 'bfgs'
upscale = 1.0
/
&CELL
/

K_POINTS {automatic}
8 8 1 0 0 0

ATOMIC_SPECIES
C 12.01 C.pbe-n-rrkjus_psl.1.0.0.UPF
Cu 63.54 Cu.pbe-dn-rrkjus_psl.1.0.0.UPF
O 15.99 O.pbe-n-rrkjus_psl.1.0.0.UPF
Y 88.90 Y.pbe-spn-rrkjus_psl.1.0.0.UPF

CELL_PARAMETERS {angstrom}
6.99068000 0.00000000 0.00000000
-0.00000000 6.99068000 0.00000000
0.00000000 0.00000000 25.24300000

ATOMIC_POSITIONS {angstrom}
Y 0.00000000 0.00000000 -2.4760858699999986 0 0 0
Y 0.00000000 0.00000000 1.01931234
Y 0.00000000 3.49534000 -2.4760858699999986 0 0 0
Y 0.00000000 3.49534000 1.01931234
Y 3.49534000 0.00000000 -2.4760858699999986 0 0 0
Y 3.49534000 -0.00000000 1.01931234
Y 3.49534000 3.49534000 -2.4760858699999986 0 0 0
Y 3.49534000 3.49534000 1.01931234
Cu 1.74767000 1.74767000 -0.7285129799999979 0 0 0
Cu 1.74767000 1.74767000 2.76688523
Cu 1.74767000 5.24301000 -0.7285129799999979 0 0 0
Cu 1.74767000 5.24301000 2.76688523
Cu 5.24301000 1.74767000 -0.7285129799999979 0 0 0
Cu 5.24301000 1.74767000 2.76688523
Cu 5.24301000 5.24301000 -0.7285129799999979 0 0 0
Cu 5.24301000 5.24301000 2.76688523
C 1.74767000 1.74767000 4.66692584
O 1.74767000 1.74767000 5.81674449
