&CONTROL
calculation = 'relax'
prefix = 'scf'
pseudo_dir = '/vol0403/data/hp230205/u10028/POT_HYBRID_KKJUS_GBRV'
outdir = './data'
tprnfor = .true.
nstep = 50
disk_io = 'non'
/
&SYSTEM
ibrav = 0
ecutwfc = 50.0
ecutrho = 400
occupations = 'smearing'
smearing = 'mp'
degauss = 0.01
assume_isolated = 'esm'
esm_bc = 'bc1'
input_dft = 'BEEF-VDW'
nosym = .true.
nspin = 1
ntyp = 6
nat = 34
/
&ELECTRONS
electron_maxstep = 200
mixing_beta = 0.1
conv_thr = 1e-06
/
&IONS
ion_dynamics = 'bfgs'
upscale = 1.0
/
&CELL
/

K_POINTS {automatic}
9 6 2 0  0  0

ATOMIC_SPECIES
C 12.01 C.pbe-n-rrkjus_psl.1.0.0.UPF
In 114.8 In.pbe-dn-rrkjus_psl.1.0.0.UPF
Li 6.941 Li.pbe-sl-rrkjus_psl.1.0.0.UPF
O 15.99 O.pbe-n-rrkjus_psl.1.0.0.UPF
Pt 195.0 Pt.pbe-n-rrkjus_psl.1.0.0.UPF
Y 88.90 Y.pbe-spn-rrkjus_psl.1.0.0.UPF


CELL_PARAMETERS {angstrom}
6.80323000 0.00000000 0.00000000
0.00000000 9.62122000 0.00000000
0.00000000 0.00000000 27.21590000

ATOMIC_POSITIONS {angstrom}
Li 5.10242250 0.00000000 -1.2026706200000028 0 0 0
Li 5.10242250 4.81061000 -1.2026706200000028 0 0 0
Li 1.70080750 2.40530500 -3.6080118600000013 0 0 0
Li 1.70080750 7.21591500 -3.6080118600000013 0 0 0
Li 3.73408885 4.80185469 5.07032217
Li 3.73422491 0.00885152 5.07032217
Li 1.64270792 7.21591500 1.28703991
Li 1.63760549 2.40530500 1.28431832
Y 0.00000000 2.40530500 -1.2026706200000028 0 0 0
Y 0.00000000 7.21591500 -1.2026706200000028 0 0 0
Y 3.40161500 4.81061000 -3.6080118600000013 0 0 0
Y 3.40161500 0.00000000 -3.6080118600000013 0 0 0
Y 6.48660768 7.21610742 3.56718801
Y 6.49014536 2.40549742 3.61753743
Y 3.47440956 9.61919954 1.39345408
Y 3.47447759 4.81272667 1.39372624
In 0.00000000 0.00000000 -3.6080118600000013 0 0 0
In 0.00000000 4.81061000 -3.6080118600000013 0 0 0
In 3.40161500 7.21591500 -1.2026706200000028 0 0 0
In 3.40161500 2.40530500 -1.2026706200000028 0 0 0
In 6.76451962 4.80079636 1.14715019
In 6.76451962 0.00990986 1.14715019
In 3.15860362 2.40530500 3.73619875
In 3.13526855 7.21601121 3.77783908
Pt 1.70080750 0.00000000 -1.2026706200000028 0 0 0
Pt 1.70080750 4.81061000 -1.2026706200000028 0 0 0
Pt 5.10242250 2.40530500 -3.6080118600000013 0 0 0
Pt 5.10242250 7.21591500 -3.6080118600000013 0 0 0
Pt 1.54827908 4.82533047 3.40688636
Pt 1.54834712 9.60678817 3.40688636
Pt 5.08704720 7.21601121 1.12238372
Pt 5.05411957 2.40540121 1.09571213
C 6.24148730 2.40530500 6.09391217
O 6.21107686 2.40530500 7.25058792
