&CONTROL
calculation = 'relax'
prefix = 'scf'
pseudo_dir = '/vol0004/mdt0/data/hp150275/u10028/POT_KKJUS'
outdir = './data'
tprnfor = .true.
nstep = 50
disk_io = 'non'
/
&SYSTEM
ibrav = 0
ecutwfc = 50.0
ecutrho = 400
occupations = 'smearing'
smearing = 'mp'
degauss = 0.01
assume_isolated = 'esm'
esm_bc = 'bc1'
input_dft = 'BEEF-VDW'
nosym = .true.
nspin = 1
ntyp = 4
nat = 18
/
&ELECTRONS
electron_maxstep = 200
mixing_beta = 0.1
conv_thr = 1e-06
/
&IONS
ion_dynamics = 'bfgs'
upscale = 1.0
/
&CELL
/

K_POINTS {automatic}
8 11 2 0  0  0

ATOMIC_SPECIES
C 12.01 C.pbe-n-rrkjus_psl.1.0.0.UPF
O 15.99 O.pbe-n-rrkjus_psl.1.0.0.UPF
Rh 102.9 Rh.pbe-spn-rrkjus_psl.1.0.0.UPF
V 50.94 V.pbe-spnl-rrkjus_psl.1.0.0.UPF

CELL_PARAMETERS {angstrom}
7.63897000 0.00000000 0.00000000
0.00000000 5.40157000 0.00000000
0.00000000 0.00000000 24.05120000

ATOMIC_POSITIONS {angstrom}
V 0.00000000 0.00000000 1.80672614
V 0.00000000 2.70078500 -0.6751171800000009 0 0 0
V 3.81948500 0.00000000 1.67949530
V 3.81948500 2.70078500 -0.6751171800000009 0 0 0
Rh 0.00000000 2.70078500 1.98855322
Rh 1.88262416 4.06133245 0.76771430
Rh 1.88262416 1.34023755 0.76771430
Rh 0.00000000 0.00000000 -0.6751171800000009 0 0 0
Rh 1.90974250 1.35039250 -2.025592060000001 0 0 0
Rh 1.90974250 4.05117750 -2.025592060000001 0 0 0
Rh 3.81948500 2.70078500 1.90172838
Rh 5.75634584 4.06133245 0.76771430
Rh 5.75634584 1.34023755 0.76771430
Rh 3.81948500 0.00000000 -0.6751171800000009 0 0 0
Rh 5.72922750 1.35039250 -2.025592060000001 0 0 0
Rh 5.72922750 4.05117750 -2.025592060000001 0 0 0
C 0.00000000 0.00000000 3.87176218
O 0.00000000 0.00000000 5.02237158
