&CONTROL
calculation = 'relax'
prefix = 'scf'
pseudo_dir = '/vol0004/mdt0/data/hp150275/u10028/POT_KKJUS'
outdir = './data'
tprnfor = .true.
nstep = 50
disk_io = 'non'
/
&SYSTEM
ibrav = 0
ecutwfc = 50.0
ecutrho = 400
occupations = 'smearing'
smearing = 'mp'
degauss = 0.01
assume_isolated = 'esm'
esm_bc = 'bc1'
input_dft = 'BEEF-VDW'
nosym = .true.
nspin = 1
ntyp = 2
nat = 32
/
&ELECTRONS
electron_maxstep = 200
mixing_beta = 0.1
conv_thr = 1e-06
/
&IONS
ion_dynamics = 'bfgs'
upscale = 1.0
/
&CELL
/

K_POINTS {automatic}
6 6 1 0 0 0

ATOMIC_SPECIES
Al 26.98 Al.pbe-nl-rrkjus_psl.1.0.0.UPF
Li 6.941 Li.pbe-sl-rrkjus_psl.1.0.0.UPF

CELL_PARAMETERS {angstrom}
8.00621000 0.00000000 0.00000000
-0.00000000 8.00621000 0.00000000
0.00000000 0.00000000 26.00470000

ATOMIC_POSITIONS {angstrom}
Li 0.00000000 0.00000000 -3.0022426200000005 0 0 0
Li 0.00000000 0.00000000 1.00066086
Li 0.00000000 4.00310500 -3.0022426200000005 0 0 0
Li 0.00000000 4.00310500 1.00066086
Li 4.00310500 0.00000000 -3.0022426200000005 0 0 0
Li 4.00310500 -0.00000000 1.00066086
Li 4.00310500 4.00310500 -3.0022426200000005 0 0 0
Li 4.00310500 4.00310500 1.00066086
Al 0.00000000 2.00155250 -1.00066086 0 0 0
Al 2.00155250 0.00000000 -1.00066086 0 0 0
Al 2.00155250 2.00155250 -3.0022426200000005 0 0 0
Al 0.00000000 2.00155250 3.00224261
Al 2.00155250 -0.00000000 3.00224261
Al 2.00155250 2.00155250 1.00066086
Al 0.00000000 6.00465750 -1.00066086 0 0 0
Al 2.00155250 4.00310500 -1.00066086 0 0 0
Al 2.00155250 6.00465750 -3.0022426200000005 0 0 0
Al 0.00000000 6.00465750 3.00224261
Al 2.00155250 4.00310500 3.00224261
Al 2.00155250 6.00465750 1.00066086
Al 4.00310500 2.00155250 -1.00066086 0 0 0
Al 6.00465750 0.00000000 -1.00066086 0 0 0
Al 6.00465750 2.00155250 -3.0022426200000005 0 0 0
Al 4.00310500 2.00155250 3.00224261
Al 6.00465750 -0.00000000 3.00224261
Al 6.00465750 2.00155250 1.00066086
Al 4.00310500 6.00465750 -1.00066086 0 0 0
Al 6.00465750 4.00310500 -1.00066086 0 0 0
Al 6.00465750 6.00465750 -3.0022426200000005 0 0 0
Al 4.00310500 6.00465750 3.00224261
Al 6.00465750 4.00310500 3.00224261
Al 6.00465750 6.00465750 1.00066086
