&CONTROL
calculation = 'relax'
prefix = 'scf'
pseudo_dir = '/vol0004/mdt0/data/hp150275/u10028/POT_KKJUS'
outdir = './data'
tprnfor = .true.
nstep = 50
disk_io = 'non'
/
&SYSTEM
ibrav = 0
ecutwfc = 50.0
ecutrho = 400
occupations = 'smearing'
smearing = 'mp'
degauss = 0.01
assume_isolated = 'esm'
esm_bc = 'bc1'
input_dft = 'BEEF-VDW'
nosym = .true.
nspin = 1
ntyp = 3
nat = 32
/
&ELECTRONS
electron_maxstep = 200
mixing_beta = 0.1
conv_thr = 1e-06
/
&IONS
ion_dynamics = 'bfgs'
upscale = 1.0
/
&CELL
/

K_POINTS {automatic}
9 6 2 0  0  0

ATOMIC_SPECIES
Ag 107.8 Ag.pbe-n-rrkjus_psl.1.0.0.UPF
Au 196.9 Au.pbe-n-rrkjus_psl.1.0.0.UPF
Zn 65.40 Zn.pbe-dnl-rrkjus_psl.1.0.0.UPF

CELL_PARAMETERS {angstrom}
6.35005000 0.00000000 0.00000000
0.00000000 8.98033000 0.00000000
0.00000000 0.00000000 26.73520000

ATOMIC_POSITIONS {angstrom}
Zn 1.58751250 0.00000000 -1.1226110499999997 0 0 0
Zn 4.76253750 4.49016500 -1.1226110499999997 0 0 0
Zn 4.76253750 0.00000000 -1.1226110499999997 0 0 0
Zn 1.58751250 4.49016500 -1.1226110499999997 0 0 0
Zn 4.76253750 6.73524750 -3.3675657900000004 0 0 0
Zn 1.58751250 2.24508250 -3.3675657900000004 0 0 0
Zn 1.58751250 6.73524750 -3.3675657900000004 0 0 0
Zn 4.76253750 2.24508250 -3.3675657900000004 0 0 0
Zn 1.53696610 4.49016500 3.64133424
Zn 4.81308390 0.00000000 3.64133424
Zn 4.81302040 4.49016500 3.64133424
Zn 1.53696610 0.00000000 3.64133424
Zn 4.70424404 2.24508250 1.26243614
Zn 1.64580596 6.73524750 1.26243614
Zn 1.64580596 2.24508250 1.26243614
Zn 4.70424404 6.73524750 1.26243614
Ag 0.00000000 0.00000000 -3.3675657900000004 0 0 0
Ag 3.17502500 2.24508250 -1.1226110499999997 0 0 0
Ag 3.17502500 6.73524750 -1.1226110499999997 0 0 0
Ag 0.00000000 4.49016500 -3.3675657900000004 0 0 0
Ag 0.00000000 4.49016500 1.14613802
Ag 3.17502500 6.73524750 3.71378663
Ag 3.17502500 2.24508250 3.71378663
Ag 0.00000000 0.00000000 1.14613802
Au 0.00000000 6.73524750 -1.1226110499999997 0 0 0
Au 3.17502500 0.00000000 -3.3675657900000004 0 0 0
Au 0.00000000 2.24508250 -1.1226110499999997 0 0 0
Au 3.17502500 4.49016500 -3.3675657900000004 0 0 0
Au 0.00000000 2.24508250 3.45873282
Au 3.17502500 4.49016500 1.15308918
Au 0.00000000 6.73524750 3.45873282
Au 3.17502500 0.00000000 1.15308918
