&CONTROL
calculation = 'relax'
prefix = 'scf'
pseudo_dir = '/vol0403/data/hp230205/u10028/POT_HYBRID_KKJUS_GBRV'
outdir = './data'
tprnfor = .true.
nstep = 70
disk_io = 'non'
/
&SYSTEM
ibrav = 0
ecutwfc = 50.0
ecutrho = 400
occupations = 'smearing'
smearing = 'mp'
degauss = 0.01
assume_isolated = 'esm'
esm_bc = 'bc1'
input_dft = 'BEEF-VDW'
nosym = .true.
nspin = 1
ntyp = 6
nat = 34
/
&ELECTRONS
electron_maxstep = 200
mixing_beta = 0.1
conv_thr = 1e-06
/
&IONS
ion_dynamics = 'bfgs'
upscale = 1.0
/
&CELL
/

K_POINTS {automatic}
6 6 1 0 0 0

ATOMIC_SPECIES
Ag 107.8 Ag.pbe-n-rrkjus_psl.1.0.0.UPF
C 12.01 C.pbe-n-rrkjus_psl.1.0.0.UPF
In 114.8 In.pbe-dn-rrkjus_psl.1.0.0.UPF
O 15.99 O.pbe-n-rrkjus_psl.1.0.0.UPF
Pd 106.4 Pd.pbe-n-rrkjus_psl.1.0.0.UPF
Y 88.90 Y.pbe-spn-rrkjus_psl.1.0.0.UPF


CELL_PARAMETERS {angstrom}
6.92663000 0.00000000 0.00000000
-0.00000000 9.79574000 0.00000000
0.00000000 0.00000000 27.34680000

ATOMIC_POSITIONS {angstrom}
Y 5.19497250 0.00000000 -1.2245897000000028 0 0 0
Y 5.19497250 4.89787000 -1.2245897000000028 0 0 0
Y 1.73165750 2.44893500 -3.6734956400000023 0 0 0
Y 1.73165750 7.34680500 -3.6734956400000023 0 0 0
Y 5.19497250 4.89787000 3.67349564
Y 5.19497250 -0.00000000 3.67349564
Y 1.73165750 7.34680500 1.22458970
Y 1.73165750 2.44893500 1.22458970
In 1.73165750 0.00000000 -1.2245897000000028 0 0 0
In 1.73165750 4.89787000 -1.2245897000000028 0 0 0
In 5.19497250 2.44893500 -3.6734956400000023 0 0 0
In 5.19497250 7.34680500 -3.6734956400000023 0 0 0
In 1.73165750 4.89787000 3.67349564
In 1.73165750 -0.00000000 3.67349564
In 5.19497250 7.34680500 1.22458970
In 5.19497250 2.44893500 1.22458970
Ag 0.00000000 0.00000000 -3.6734956400000023 0 0 0
Ag 0.00000000 4.89787000 -3.6734956400000023 0 0 0
Ag 3.46331500 7.34680500 -1.2245897000000028 0 0 0
Ag 3.46331500 2.44893500 -1.2245897000000028 0 0 0
Ag 0.00000000 4.89787000 1.22458970
Ag 0.00000000 0.00000000 1.22458970
Ag 3.46331500 2.44893500 3.67349564
Ag 3.46331500 7.34680500 3.67349564
Pd 0.00000000 2.44893500 -1.2245897000000028 0 0 0
Pd 0.00000000 7.34680500 -1.2245897000000028 0 0 0
Pd 3.46331500 4.89787000 -3.6734956400000023 0 0 0
Pd 3.46331500 0.00000000 -3.6734956400000023 0 0 0
Pd 0.00000000 7.34680500 3.67349564
Pd 0.00000000 2.44893500 3.67349564
Pd 3.46331500 -0.00000000 1.22458970
Pd 3.46331500 4.89787000 1.22458970
C 3.46331500 2.44893500 5.57327784
O 3.46331500 2.44893500 6.72348425
