&CONTROL
calculation = 'relax'
prefix = 'scf'
pseudo_dir = '/vol0004/mdt0/data/hp150275/u10028/POT_KKJUS'
outdir = './data'
tprnfor = .true.
nstep = 50
disk_io = 'non'
/
&SYSTEM
ibrav = 0
ecutwfc = 50.0
ecutrho = 400
occupations = 'smearing'
smearing = 'mp'
degauss = 0.01
assume_isolated = 'esm'
esm_bc = 'bc1'
input_dft = 'BEEF-VDW'
nosym = .true.
nspin = 1
ntyp = 2
nat = 32
/
&ELECTRONS
electron_maxstep = 200
mixing_beta = 0.1
conv_thr = 1e-06
/
&IONS
ion_dynamics = 'bfgs'
upscale = 1.0
/
&CELL
/

K_POINTS {automatic}
9 6 2 0  0  0

ATOMIC_SPECIES
Al 26.98 Al.pbe-nl-rrkjus_psl.1.0.0.UPF
Cu 63.54 Cu.pbe-dn-rrkjus_psl.1.0.0.UPF

CELL_PARAMETERS {angstrom}
5.88044000 0.00000000 0.00000000
0.00000000 8.31620000 0.00000000
0.00000000 0.00000000 26.23710000

ATOMIC_POSITIONS {angstrom}
Al 0.00000000 0.00000000 -3.1185417100000024 0 0 0
Al 2.94022000 2.07905000 -1.0395139000000029 0 0 0
Al 2.94022000 6.23715000 -1.0395139000000029 0 0 0
Al 0.00000000 4.15810000 -3.1185417100000024 0 0 0
Al 0.00000000 4.15810000 1.09802263
Al 2.94022000 6.23715000 3.20591125
Al 2.94022000 2.07905000 3.20591125
Al 0.00000000 0.00000000 1.09802263
Cu 1.47011000 0.00000000 -1.0395139000000029 0 0 0
Cu 4.41033000 4.15810000 -1.0395139000000029 0 0 0
Cu 4.41033000 0.00000000 -1.0395139000000029 0 0 0
Cu 1.47011000 4.15810000 -1.0395139000000029 0 0 0
Cu 4.41033000 6.23715000 -3.1185417100000024 0 0 0
Cu 1.47011000 2.07905000 -3.1185417100000024 0 0 0
Cu 1.47011000 6.23715000 -3.1185417100000024 0 0 0
Cu 4.41033000 2.07905000 -3.1185417100000024 0 0 0
Cu 0.00000000 6.23715000 -1.0395139000000029 0 0 0
Cu 2.94022000 0.00000000 -3.1185417100000024 0 0 0
Cu 0.00000000 2.07905000 -1.0395139000000029 0 0 0
Cu 2.94022000 4.15810000 -3.1185417100000024 0 0 0
Cu 1.52697385 4.15810000 3.12169016
Cu 4.35346615 0.00000000 3.12169016
Cu 4.35346615 4.15810000 3.12169016
Cu 1.52697385 0.00000000 3.12169016
Cu 4.38263313 2.07905000 1.02272216
Cu 1.49780687 6.23715000 1.02272216
Cu 1.49780687 2.07905000 1.02272216
Cu 4.38263313 6.23715000 1.02272216
Cu 0.00000000 2.07905000 3.04980050
Cu 2.94022000 4.15810000 0.98599022
Cu 0.00000000 6.23715000 3.04980050
Cu 2.94022000 0.00000000 0.98599022
