&CONTROL
calculation = 'relax'
prefix = 'scf'
pseudo_dir = '/vol0004/mdt0/data/hp150275/u10028/POT_KKJUS'
outdir = './data'
tprnfor = .true.
nstep = 50
disk_io = 'non'
/
&SYSTEM
ibrav = 0
ecutwfc = 50.0
ecutrho = 400
occupations = 'smearing'
smearing = 'mp'
degauss = 0.01
assume_isolated = 'esm'
esm_bc = 'bc1'
input_dft = 'BEEF-VDW'
nosym = .true.
nspin = 1
ntyp = 3
nat = 33
/
&ELECTRONS
electron_maxstep = 200
mixing_beta = 0.1
conv_thr = 1e-06
/
&IONS
ion_dynamics = 'bfgs'
upscale = 1.0
/
&CELL
/

K_POINTS {automatic}
8 6 1 0 0 0

ATOMIC_SPECIES
Ag 107.8 Ag.pbe-n-rrkjus_psl.1.0.0.UPF
C 12.01 C.pbe-n-rrkjus_psl.1.0.0.UPF
Zn 65.40 Zn.pbe-dnl-rrkjus_psl.1.0.0.UPF

CELL_PARAMETERS {angstrom}
6.41951000 0.00000000 0.00000000
0.00000000 9.07856000 0.00000000
0.00000000 0.00000000 26.80890000

ATOMIC_POSITIONS {angstrom}
Zn 1.60487750 2.26964000 -3.404462210000002 0 0 0
Zn 1.60487750 0.00000000 -1.134820740000002 0 0 0
Zn 1.59563341 2.26401129 1.16725951
Zn 1.94247953 0.00000000 3.85940924
Zn 1.60487750 6.80892000 -3.404462210000002 0 0 0
Zn 1.60487750 4.53928000 -1.134820740000002 0 0 0
Zn 1.59563341 6.81454871 1.16725951
Zn 1.44849824 4.53928000 3.60257998
Zn 4.81463250 2.26964000 -3.404462210000002 0 0 0
Zn 4.81463250 0.00000000 -1.134820740000002 0 0 0
Zn 4.82387659 2.26401129 1.16725951
Zn 4.47703047 0.00000000 3.85940924
Zn 4.81463250 6.80892000 -3.404462210000002 0 0 0
Zn 4.81463250 4.53928000 -1.134820740000002 0 0 0
Zn 4.82387659 6.81454871 1.16725951
Zn 4.97101176 4.53928000 3.60257998
Ag 0.00000000 0.00000000 -3.404462210000002 0 0 0
Ag 0.00000000 2.26964000 -1.134820740000002 0 0 0
Ag 0.00000000 0.00000000 1.27181422
Ag 0.00000000 2.25456959 3.50553176
Ag 0.00000000 4.53928000 -3.404462210000002 0 0 0
Ag 0.00000000 6.80892000 -1.134820740000002 0 0 0
Ag 0.00000000 4.53928000 1.10747566
Ag 0.00000000 6.82399041 3.50553176
Ag 3.20975500 0.00000000 -3.404462210000002 0 0 0
Ag 3.20975500 2.26964000 -1.134820740000002 0 0 0
Ag 3.20975500 0.00000000 1.18361294
Ag 3.20975500 2.44294971 3.43904569
Ag 3.20975500 4.53928000 -3.404462210000002 0 0 0
Ag 3.20975500 6.80892000 -1.134820740000002 0 0 0
Ag 3.20975500 4.53928000 1.18012778
Ag 3.20975500 6.63561029 3.43904569
C 0.00000000 0.00000000 3.68756420
