&CONTROL
calculation = 'relax'
prefix = 'scf'
pseudo_dir = '/vol0403/data/hp230205/u10028/POT_HYBRID_KKJUS_GBRV'
outdir = './data'
tprnfor = .true.
nstep = 50
disk_io = 'non'
/
&SYSTEM
ibrav = 0
ecutwfc = 50.0
ecutrho = 400
occupations = 'smearing'
smearing = 'mp'
degauss = 0.01
assume_isolated = 'esm'
esm_bc = 'bc1'
input_dft = 'BEEF-VDW'
nosym = .true.
nspin = 1
ntyp = 6
nat = 34
/
&ELECTRONS
electron_maxstep = 200
mixing_beta = 0.1
conv_thr = 1e-06
/
&IONS
ion_dynamics = 'bfgs'
upscale = 1.0
/
&CELL
/

K_POINTS {automatic}
7 6 2 0  0  0

ATOMIC_SPECIES
C 12.01 C.pbe-n-rrkjus_psl.1.0.0.UPF
Ge 72.64 Ge.pbe-dn-rrkjus_psl.1.0.0.UPF
Li 6.941 Li.pbe-sl-rrkjus_psl.1.0.0.UPF
O 15.99 O.pbe-n-rrkjus_psl.1.0.0.UPF
Pb 207.2 Pb.pbe-dn-rrkjus_psl.1.0.0.UPF
Y 88.90 Y.pbe-spn-rrkjus_psl.1.0.0.UPF


CELL_PARAMETERS {angstrom}
8.65500000 0.00000000 0.00000000
0.00000000 9.86128000 0.00000000
0.00000000 0.00000000 26.41550000

ATOMIC_POSITIONS {angstrom}
Li 0.00000000 2.46532000 -1.0692994400000018 0 0 0
Li 0.00000000 2.45821988 1.53923119
Li 0.00000000 7.39596000 -1.0692994400000018 0 0 0
Li 8.65465380 7.40493376 3.08850026
Li 4.32750000 2.46532000 -1.0692994400000018 0 0 0
Li 4.32750000 2.51403472 3.09827400
Li 4.32750000 7.39596000 -1.0692994400000018 0 0 0
Li 4.32758655 7.78045131 3.29533363
Y 2.16375000 0.00000000 -1.0692994400000018 0 0 0
Y 1.71784440 0.73022778 3.31091877
Y 2.16375000 4.93064000 -1.0692994400000018 0 0 0
Y 1.73229825 4.30839323 3.18359606
Y 6.49125000 0.00000000 -1.0692994400000018 0 0 0
Y 6.93750180 0.73062224 3.31118292
Y 6.49125000 4.93064000 -1.0692994400000018 0 0 0
Y 6.92244210 4.30888630 3.18333191
Ge 0.00000000 0.00000000 -3.2078983200000017 0 0 0
Ge 8.65491345 9.61277574 1.06612958
Ge 0.00000000 4.93064000 -3.2078983200000017 0 0 0
Ge 0.00000000 5.17589003 1.00220407
Ge 4.32750000 0.00000000 -3.2078983200000017 0 0 0
Ge 4.32758655 0.03234500 1.28405746
Ge 4.32750000 4.93064000 -3.2078983200000017 0 0 0
Ge 4.32767310 4.88192528 1.29726521
Pb 2.16375000 2.46532000 -3.2078983200000017 0 0 0
Pb 2.53176060 2.45624762 0.83288072
Pb 2.16375000 7.39596000 -3.2078983200000017 0 0 0
Pb 2.25462750 7.40799076 1.29726521
Pb 6.49125000 2.46532000 -3.2078983200000017 0 0 0
Pb 6.12297975 2.45595178 0.83288072
Pb 6.49125000 7.39596000 -3.2078983200000017 0 0 0
Pb 6.39993975 7.40769492 1.29700105
C 0.00060585 2.58671236 3.66699971
O 0.00017310 1.37653608 4.51678635
