&CONTROL
calculation = 'relax'
prefix = 'scf'
pseudo_dir = '/vol0004/mdt0/data/hp150275/u10028/POT_HYBRID_KKJUS_GBRV'
outdir = './data'
tprnfor = .true.
nstep = 50
disk_io = 'non'
/
&SYSTEM
ibrav = 0
ecutwfc = 50.0
ecutrho = 400
occupations = 'smearing'
smearing = 'mp'
degauss = 0.01
assume_isolated = 'esm'
esm_bc = 'bc1'
input_dft = 'BEEF-VDW'
nosym = .true.
nspin = 2
ntyp = 5
nat = 34
starting_magnetization(1) = 0.0
starting_magnetization(2) = 0.0
starting_magnetization(3) = 0.0
starting_magnetization(4) = 0.001
starting_magnetization(5) = 0.0
/
&ELECTRONS
electron_maxstep = 200
mixing_beta = 0.1
conv_thr = 1e-06
/
&IONS
ion_dynamics = 'bfgs'
upscale = 1.0
/
&CELL
/

K_POINTS {automatic}
9 6 2 0  0  0

ATOMIC_SPECIES
C 12.01 C.pbe-n-rrkjus_psl.1.0.0.UPF
Ga 69.72 Ga.pbe-dnl-rrkjus_psl.1.0.0.UPF
Nb 92.90 Nb.pbe-spn-rrkjus_psl.1.0.0.UPF
Ni 58.69 ni_pbe_v1.4.uspp.F.UPF
O 15.99 O.pbe-n-rrkjus_psl.1.0.0.UPF

CELL_PARAMETERS {angstrom}
6.00328000 0.00000000 0.00000000
0.00000000 8.48992000 0.00000000
0.00000000 0.00000000 26.36740000

ATOMIC_POSITIONS {angstrom}
Nb 0.00000000 0.00000000 23.18380012
Nb 3.00164000 2.12248000 25.30611215
Nb 3.00164000 6.36744000 25.30611215
Nb 0.00000000 4.24496000 23.18380012
Nb 0.00000000 4.28010827 1.07526257
Nb 3.00164000 6.36701550 3.25901064
Nb 3.00164000 2.12273470 3.11504464
Nb 0.00000000 8.45477173 1.07578992
Ga 0.00000000 6.36744000 25.30611215
Ga 3.00164000 0.00000000 23.18380012
Ga 0.00000000 2.12248000 25.30611215
Ga 3.00164000 4.24496000 23.18380012
Ga 0.00000000 2.12256490 3.24820001
Ga 3.00164000 4.22093353 1.00591631
Ga 0.00000000 6.36794940 3.23686202
Ga 3.00164000 0.02394157 1.00538896
Ni 1.50082000 0.00000000 25.30611215
Ni 4.50246000 4.24496000 25.30611215
Ni 4.50246000 0.00000000 25.30611215
Ni 1.50082000 4.24496000 25.30611215
Ni 4.50246000 6.36744000 23.18380012
Ni 1.50082000 2.12248000 23.18380012
Ni 1.50082000 6.36744000 23.18380012
Ni 4.50246000 2.12248000 23.18380012
Ni 1.56613569 4.26346803 3.03910652
Ni 4.43528330 8.47166667 3.03937020
Ni 4.43714431 4.26346803 3.03910652
Ni 1.56799670 8.47166667 3.03937020
Ni 4.54862522 2.12239510 1.10663978
Ni 1.59717264 6.36744000 1.14882762
Ni 1.45465478 2.12231020 1.10663978
Ni 4.40610736 6.36744000 1.14882762
C 0.00000000 2.12222530 5.32252336
O 0.00000000 2.12222530 6.47319670
