&CONTROL
calculation = 'relax'
prefix = 'scf'
pseudo_dir = '/vol0004/mdt0/data/hp150275/u10028/POT_KKJUS'
outdir = './data'
tprnfor = .true.
nstep = 50
disk_io = 'non'
/
&SYSTEM
ibrav = 0
ecutwfc = 50.0
ecutrho = 400
occupations = 'smearing'
smearing = 'mp'
degauss = 0.01
assume_isolated = 'esm'
esm_bc = 'bc1'
input_dft = 'BEEF-VDW'
nosym = .true.
nspin = 1
ntyp = 5
nat = 34
/
&ELECTRONS
electron_maxstep = 200
mixing_beta = 0.1
conv_thr = 1e-06
/
&IONS
ion_dynamics = 'bfgs'
upscale = 1.0
/
&CELL
/

K_POINTS {automatic}
9 6 2 0  0  0

ATOMIC_SPECIES
Al 26.98 Al.pbe-nl-rrkjus_psl.1.0.0.UPF
C 12.01 C.pbe-n-rrkjus_psl.1.0.0.UPF
Cu 63.54 Cu.pbe-dn-rrkjus_psl.1.0.0.UPF
O 15.99 O.pbe-n-rrkjus_psl.1.0.0.UPF
Zr 91.22 Zr.pbe-spn-rrkjus_psl.1.0.0.UPF

CELL_PARAMETERS {angstrom}
6.27295000 0.00000000 0.00000000
0.00000000 8.87129000 0.00000000
0.00000000 0.00000000 26.65350000

ATOMIC_POSITIONS {angstrom}
Zr 0.00000000 0.00000000 -3.3266233300000003 0 0 0
Zr 3.13647500 2.21782250 -1.108785600000001 0 0 0
Zr 3.13647500 6.65346750 -1.108785600000001 0 0 0
Zr 0.00000000 4.43564500 -3.3266233300000003 0 0 0
Zr 0.00000000 4.43857253 1.11918047
Zr 3.13647500 6.65346750 3.32822255
Zr 3.13647500 2.21782250 3.32129264
Zr 0.00000000 8.86845119 1.11918047
Al 0.00000000 6.65346750 -1.108785600000001 0 0 0
Al 3.13647500 0.00000000 -3.3266233300000003 0 0 0
Al 0.00000000 2.21782250 -1.108785600000001 0 0 0
Al 3.13647500 4.43564500 -3.3266233300000003 0 0 0
Al 0.00000000 2.21782250 3.23226995
Al 3.13647500 4.44735510 1.11838086
Al 0.00000000 6.65346750 3.31916036
Al 3.13647500 8.85957990 1.11838086
Cu 1.56823750 0.00000000 -1.108785600000001 0 0 0
Cu 4.70471250 4.43564500 -1.108785600000001 0 0 0
Cu 4.70471250 0.00000000 -1.108785600000001 0 0 0
Cu 1.56823750 4.43564500 -1.108785600000001 0 0 0
Cu 4.70471250 6.65346750 -3.3266233300000003 0 0 0
Cu 1.56823750 2.21782250 -3.3266233300000003 0 0 0
Cu 1.56823750 6.65346750 -3.3266233300000003 0 0 0
Cu 4.70471250 2.21782250 -3.3266233300000003 0 0 0
Cu 1.58266529 4.45800065 3.30769935
Cu 4.69028471 8.84893435 3.30769935
Cu 4.69028471 4.45800065 3.30769935
Cu 1.58266529 8.84893435 3.30769935
Cu 4.66318557 2.21782250 1.12291195
Cu 1.59063193 6.65346750 1.12157928
Cu 1.60976443 2.21782250 1.12291195
Cu 4.68231807 6.65346750 1.12157928
C 0.00000000 2.21782250 5.19796557
O 0.00000000 2.21782250 6.35632668
