&CONTROL
calculation = 'relax'
prefix = 'scf'
pseudo_dir = '/vol0403/data/hp230205/u10028/POT_HYBRID_KKJUS_GBRV'
outdir = './data'
tprnfor = .true.
nstep = 50
disk_io = 'non'
/
&SYSTEM
ibrav = 0
ecutwfc = 50.0
ecutrho = 400
occupations = 'smearing'
smearing = 'mp'
degauss = 0.01
assume_isolated = 'esm'
esm_bc = 'bc1'
input_dft = 'BEEF-VDW'
nosym = .true.
nspin = 1
ntyp = 5
nat = 33
/
&ELECTRONS
electron_maxstep = 200
mixing_beta = 0.1
conv_thr = 1e-06
/
&IONS
ion_dynamics = 'bfgs'
upscale = 1.0
/
&CELL
/

K_POINTS {automatic}
6 6 1 0 0 0

ATOMIC_SPECIES
C 12.01 C.pbe-n-rrkjus_psl.1.0.0.UPF
Cu 63.54 Cu.pbe-dn-rrkjus_psl.1.0.0.UPF
Ge 72.64 Ge.pbe-dn-rrkjus_psl.1.0.0.UPF
Li 6.941 Li.pbe-sl-rrkjus_psl.1.0.0.UPF
Y 88.90 Y.pbe-spn-rrkjus_psl.1.0.0.UPF


CELL_PARAMETERS {angstrom}
6.66034000 0.00000000 0.00000000
0.00000000 9.41914000 0.00000000
0.00000000 0.00000000 27.06440000

ATOMIC_POSITIONS {angstrom}
Li 4.99525500 0.00000000 -1.1773013999999975 0 0 0
Li 4.99525500 4.70957000 -1.1773013999999975 0 0 0
Li 1.66508500 2.35478500 -3.5321748399999997 0 0 0
Li 1.66508500 7.06435500 -3.5321748399999997 0 0 0
Li 4.98260035 4.72756056 3.44719263
Li 4.98260035 9.40114944 3.44719263
Li 1.60527515 7.06435500 1.26904972
Li 1.61799640 2.35478500 1.20274194
Y 1.66508500 0.00000000 -1.1773013999999975 0 0 0
Y 1.66508500 4.70957000 -1.1773013999999975 0 0 0
Y 4.99525500 2.35478500 -3.5321748399999997 0 0 0
Y 4.99525500 7.06435500 -3.5321748399999997 0 0 0
Y 1.57430457 4.67462499 3.97521907
Y 1.57430457 0.03494501 3.97521907
Y 4.98093527 7.06435500 1.14725992
Y 4.96122066 2.35478500 1.12046616
Cu 0.00000000 0.00000000 -3.5321748399999997 0 0 0
Cu 0.00000000 4.70957000 -3.5321748399999997 0 0 0
Cu 3.33017000 7.06435500 -1.1773013999999975 0 0 0
Cu 3.33017000 2.35478500 -1.1773013999999975 0 0 0
Cu 0.23530981 4.68187773 1.46743177
Cu 0.23530981 0.02769227 1.46743177
Cu 3.20229147 2.35478500 3.31349449
Cu 3.35015102 7.06435500 3.35030208
Ge 0.00000000 2.35478500 -1.1773013999999975 0 0 0
Ge 0.00000000 7.06435500 -1.1773013999999975 0 0 0
Ge 3.33017000 4.70957000 -3.5321748399999997 0 0 0
Ge 3.33017000 0.00000000 -3.5321748399999997 0 0 0
Ge 6.46805598 7.06435500 3.67561616
Ge 6.48630532 2.35478500 3.47317445
Ge 3.15213911 9.40133783 1.48312912
Ge 3.15213911 4.72746637 1.48312912
C 1.51662602 2.35478500 4.41663944
