&CONTROL
calculation = 'relax'
prefix = 'scf'
pseudo_dir = '/vol0004/mdt0/data/hp150275/u10028/POT_HYBRID_KKJUS_GBRV'
outdir = './data'
tprnfor = .true.
nstep = 50
disk_io = 'non'
/
&SYSTEM
ibrav = 0
ecutwfc = 50.0
ecutrho = 400
occupations = 'smearing'
smearing = 'mp'
degauss = 0.01
assume_isolated = 'esm'
esm_bc = 'bc1'
input_dft = 'BEEF-VDW'
nosym = .true.
nspin = 2
ntyp = 5
nat = 34
starting_magnetization(1) = 0.0
starting_magnetization(2) = 0.1
starting_magnetization(3) = 0.0
starting_magnetization(4) = 0.0
starting_magnetization(5) = 0.0
/
&ELECTRONS
electron_maxstep = 200
mixing_beta = 0.1
conv_thr = 1e-06
/
&IONS
ion_dynamics = 'bfgs'
upscale = 1.0
/
&CELL
/

K_POINTS {automatic}
9 6 2 0  0  0

ATOMIC_SPECIES
C 12.01 C.pbe-n-rrkjus_psl.1.0.0.UPF
Co 58.93 co_pbe_v1.2.uspp.F.UPF
Ge 72.64 Ge.pbe-dn-rrkjus_psl.1.0.0.UPF
Li 6.941 Li.pbe-sl-rrkjus_psl.1.0.0.UPF
O 15.99 O.pbe-n-rrkjus_psl.1.0.0.UPF

CELL_PARAMETERS {angstrom}
5.64259000 0.00000000 0.00000000
0.00000000 7.97982000 0.00000000
0.00000000 0.00000000 25.98490000

ATOMIC_POSITIONS {angstrom}
Li 0.00000000 0.00000000 22.99247892
Li 2.82129500 1.99495500 24.98733969
Li 2.82129500 5.98486500 24.98733969
Li 0.00000000 3.98991000 22.99247892
Li 5.62989417 3.98847363 0.80735084
Li 2.84059266 5.79989277 3.65919362
Li 2.84070551 2.17968783 3.65763452
Li 0.02477097 0.00111717 1.00145805
Co 1.41064750 0.00000000 24.98733969
Co 4.23194250 3.98991000 24.98733969
Co 4.23194250 0.00000000 24.98733969
Co 1.41064750 3.98991000 24.98733969
Co 4.23194250 5.98486500 22.99247892
Co 1.41064750 1.99495500 22.99247892
Co 1.41064750 5.98486500 22.99247892
Co 4.23194250 1.99495500 22.99247892
Co 1.20452369 3.98959081 2.76791155
Co 4.17907143 0.00031919 2.92719898
Co 4.51175854 3.99006960 2.78220324
Co 1.53072182 0.00023939 3.03269768
Co 4.21422477 1.99934390 1.06823924
Co 1.42599534 5.97289527 1.04719147
Co 1.42526181 2.00684493 1.04745132
Co 4.21394264 5.98039630 1.06823924
Ge 0.00000000 5.98486500 24.98733969
Ge 2.82129500 0.00000000 22.99247892
Ge 0.00000000 1.99495500 24.98733969
Ge 2.82129500 3.98991000 22.99247892
Ge 0.02454527 1.86073443 3.03997345
Ge 2.83455509 3.99078778 0.97183526
Ge 0.02448884 6.11916537 3.03893405
Ge 2.79804753 7.97902202 0.94351172
C 2.48189321 0.00023939 4.51279758
O 2.92771425 0.00015960 5.62183311
