&CONTROL
calculation = 'relax'
prefix = 'scf'
pseudo_dir = '/vol0403/data/hp230205/u10028/POT_HYBRID_KKJUS_GBRV'
outdir = './data'
tprnfor = .true.
nstep = 50
disk_io = 'non'
/
&SYSTEM
ibrav = 0
ecutwfc = 50.0
ecutrho = 400
occupations = 'smearing'
smearing = 'mp'
degauss = 0.01
assume_isolated = 'esm'
esm_bc = 'bc1'
input_dft = 'BEEF-VDW'
nosym = .true.
nspin = 1
ntyp = 5
nat = 33
/
&ELECTRONS
electron_maxstep = 200
mixing_beta = 0.1
conv_thr = 1e-06
/
&IONS
ion_dynamics = 'bfgs'
upscale = 1.0
/
&CELL
/

K_POINTS {automatic}
6 6 1 0 0 0

ATOMIC_SPECIES
C 12.01 C.pbe-n-rrkjus_psl.1.0.0.UPF
Ge 72.64 Ge.pbe-dn-rrkjus_psl.1.0.0.UPF
Hf 178.4 Hf.pbe-spn-rrkjus_psl.1.0.0.UPF
Li 6.941 Li.pbe-sl-rrkjus_psl.1.0.0.UPF
Pd 106.4 Pd.pbe-n-rrkjus_psl.1.0.0.UPF


CELL_PARAMETERS {angstrom}
6.42607000 0.00000000 0.00000000
0.00000000 9.08784000 0.00000000
0.00000000 0.00000000 26.81590000

ATOMIC_POSITIONS {angstrom}
Li 1.60651750 0.00000000 -1.1359215200000001 0 0 0
Li 1.60651750 4.54392000 -1.1359215200000001 0 0 0
Li 4.81955250 2.27196000 -3.4080327299999986 0 0 0
Li 4.81955250 6.81588000 -3.4080327299999986 0 0 0
Li 1.45910345 4.54382912 3.80946675
Li 1.39143694 0.00018176 4.61501639
Li 4.74886573 6.88831008 1.12894939
Li 4.74873721 2.19943904 1.12894939
Hf 4.81955250 0.00000000 -1.1359215200000001 0 0 0
Hf 4.81955250 4.54392000 -1.1359215200000001 0 0 0
Hf 1.60651750 2.27196000 -3.4080327299999986 0 0 0
Hf 1.60651750 6.81588000 -3.4080327299999986 0 0 0
Hf 4.47061690 4.54401088 3.39060240
Hf 5.23512645 9.08774912 3.26269055
Hf 1.56031406 6.70728031 1.22897270
Hf 1.56024980 2.38074144 1.22897270
Ge 0.00000000 0.00000000 -3.4080327299999986 0 0 0
Ge 0.00000000 4.54392000 -3.4080327299999986 0 0 0
Ge 3.21303500 6.81588000 -1.1359215200000001 0 0 0
Ge 3.21303500 2.27196000 -1.1359215200000001 0 0 0
Ge 6.21889350 4.54392000 1.35849349
Ge 0.16219401 0.00009088 0.95518236
Ge 3.10051451 2.03812988 3.62926391
Ge 3.10025747 7.04961924 3.62953206
Pd 0.00000000 2.27196000 -1.1359215200000001 0 0 0
Pd 0.00000000 6.81588000 -1.1359215200000001 0 0 0
Pd 3.21303500 4.54392000 -3.4080327299999986 0 0 0
Pd 3.21303500 0.00000000 -3.4080327299999986 0 0 0
Pd 6.26092000 6.62403570 3.36432281
Pd 6.26047018 2.46380430 3.36432281
Pd 2.96196845 0.00009088 1.49230483
Pd 3.22563010 4.54401088 1.05413303
C 3.22967852 0.00000000 3.76629315
