&CONTROL
calculation = 'relax'
prefix = 'scf'
pseudo_dir = '/vol0403/data/hp230205/u10028/POT_HYBRID_KKJUS_GBRV'
outdir = './data'
tprnfor = .true.
nstep = 50
disk_io = 'non'
/
&SYSTEM
ibrav = 0
ecutwfc = 50.0
ecutrho = 400
occupations = 'smearing'
smearing = 'mp'
degauss = 0.01
assume_isolated = 'esm'
esm_bc = 'bc1'
input_dft = 'BEEF-VDW'
nosym = .true.
nspin = 2
ntyp = 5
nat = 33
starting_magnetization(1) = 0.0
starting_magnetization(2) = 0.0
starting_magnetization(3) = 0.1
starting_magnetization(4) = 0.0
starting_magnetization(5) = 0.0
/
&ELECTRONS
electron_maxstep = 400
mixing_beta = 0.05
conv_thr = 1e-06
/
&IONS
ion_dynamics = 'bfgs'
upscale = 1.0
/
&CELL
/

K_POINTS {automatic}
6 6 1 0 0 0

ATOMIC_SPECIES
C 12.01 C.pbe-n-rrkjus_psl.1.0.0.UPF
In 114.8 In.pbe-dn-rrkjus_psl.1.0.0.UPF
Mn 54.93 mn_pbe_v1.5.uspp.F.UPF
Pd 106.4 Pd.pbe-n-rrkjus_psl.1.0.0.UPF
Sc 44.95 Sc.pbe-spn-rrkjus_psl.1.0.0.UPF


CELL_PARAMETERS {angstrom}
6.62299000 0.00000000 0.00000000
0.00000000 9.36632000 0.00000000
0.00000000 0.00000000 27.02470000

ATOMIC_POSITIONS {angstrom}
Sc 0.00000000 2.34158000 -1.1707099999999997 0 0 0
Sc 0.00000000 7.02474000 -1.1707099999999997 0 0 0
Sc 3.31149500 4.68316000 -3.5124002599999997 0 0 0
Sc 3.31149500 0.00000000 -3.5124002599999997 0 0 0
Sc 0.00145706 7.23660616 3.62617425
Sc 0.00145706 2.12971384 3.62617425
Sc 3.36911501 0.00000000 1.16125136
Sc 3.33964271 4.68316000 1.19151902
Mn 4.96724250 0.00000000 -1.1707099999999997 0 0 0
Mn 4.96724250 4.68316000 -1.1707099999999997 0 0 0
Mn 1.65574750 2.34158000 -3.5124002599999997 0 0 0
Mn 1.65574750 7.02474000 -3.5124002599999997 0 0 0
Mn 5.01843821 4.68316000 3.64184857
Mn 4.58834124 0.00000000 3.70481612
Mn 1.64779991 7.00291647 1.29340214
Mn 1.64779991 2.36340353 1.29340214
In 0.00000000 0.00000000 -3.5124002599999997 0 0 0
In 0.00000000 4.68316000 -3.5124002599999997 0 0 0
In 3.31149500 7.02474000 -1.1707099999999997 0 0 0
In 3.31149500 2.34158000 -1.1707099999999997 0 0 0
In 6.56444277 4.68316000 1.14287456
In 6.59550459 0.00000000 1.20178841
In 3.31838291 2.44648278 3.66644105
In 3.31838291 6.91993088 3.66644105
Pd 1.65574750 0.00000000 -1.1707099999999997 0 0 0
Pd 1.65574750 4.68316000 -1.1707099999999997 0 0 0
Pd 4.96724250 2.34158000 -3.5124002599999997 0 0 0
Pd 4.96724250 7.02474000 -3.5124002599999997 0 0 0
Pd 1.60110783 4.68316000 3.29485142
Pd 1.87483601 0.00000000 3.35673799
Pd 4.98591933 7.02914217 1.16368358
Pd 4.98591933 2.33717783 1.16368358
C 6.41078940 0.00000000 4.02100511
