&CONTROL
calculation = 'relax'
prefix = 'scf'
pseudo_dir = '/vol0004/mdt0/data/hp150275/u10028/POT_KKJUS'
outdir = './data'
tprnfor = .true.
nstep = 50
disk_io = 'non'
/
&SYSTEM
ibrav = 0
ecutwfc = 50.0
ecutrho = 400
occupations = 'smearing'
smearing = 'mp'
degauss = 0.01
assume_isolated = 'esm'
esm_bc = 'bc1'
input_dft = 'BEEF-VDW'
nosym = .true.
nspin = 1
ntyp = 2
nat = 16
/
&ELECTRONS
electron_maxstep = 200
mixing_beta = 0.1
conv_thr = 1e-06
/
&IONS
ion_dynamics = 'bfgs'
upscale = 1.0
/
&CELL
/

K_POINTS {automatic}
10 10 2 0  0  0

ATOMIC_SPECIES
Ca 40.07 Ca.pbe-spn-rrkjus_psl.1.0.0.UPF
Ni 58.69 Ni.pbe-spn-rrkjus_psl.1.0.0.UPF

CELL_PARAMETERS {angstrom}
6.93038000 0.00000000 0.00000000
0.00000000 6.93038000 0.00000000
0.00000000 0.00000000 25.19780000

ATOMIC_POSITIONS {angstrom}
Ca 0.00000000 0.00000000 -2.7621828400000012 0 0 0
Ca 0.00159399 6.92892462 0.62314159
Ca 0.00000000 3.46519000 -2.7621828400000012 0 0 0
Ca 6.92857810 3.46657608 0.61129863
Ca 3.46519000 0.00000000 -2.7621828400000012 0 0 0
Ca 3.46117038 6.92975627 0.65993038
Ca 3.46519000 3.46519000 -2.7621828400000012 0 0 0
Ca 3.46442766 3.46421975 0.64909533
Ni 1.73259500 1.73259500 -1.0295821099999998 0 0 0
Ni 1.70154690 1.74638646 1.94804192
Ni 1.73259500 5.19778500 -1.0295821099999998 0 0 0
Ni 1.70431905 5.18184513 1.95333346
Ni 5.19778500 1.73259500 -1.0295821099999998 0 0 0
Ni 5.22647677 1.73668392 1.94123851
Ni 5.19778500 5.19778500 -1.0295821099999998 0 0 0
Ni 5.22328880 5.19300304 1.94980576
