&CONTROL
calculation = 'relax'
prefix = 'scf'
pseudo_dir = '/vol0004/mdt0/data/hp150275/u10028/POT_KKJUS'
outdir = './data'
tprnfor = .true.
nstep = 50
disk_io = 'non'
/
&SYSTEM
ibrav = 0
ecutwfc = 50.0
ecutrho = 400
occupations = 'smearing'
smearing = 'mp'
degauss = 0.01
assume_isolated = 'esm'
esm_bc = 'bc1'
input_dft = 'BEEF-VDW'
nosym = .true.
nspin = 1
ntyp = 4
nat = 18
/
&ELECTRONS
electron_maxstep = 200
mixing_beta = 0.1
conv_thr = 1e-06
/
&IONS
ion_dynamics = 'bfgs'
upscale = 1.0
/
&CELL
/

K_POINTS {automatic}
7 11 2 0  0  0

ATOMIC_SPECIES
Al 26.98 Al.pbe-nl-rrkjus_psl.1.0.0.UPF
C 12.01 C.pbe-n-rrkjus_psl.1.0.0.UPF
O 15.99 O.pbe-n-rrkjus_psl.1.0.0.UPF
Zr 91.22 Zr.pbe-spn-rrkjus_psl.1.0.0.UPF

CELL_PARAMETERS {angstrom}
8.76540000 0.00000000 0.00000000
0.00000000 6.19807000 0.00000000
0.00000000 0.00000000 24.64860000

ATOMIC_POSITIONS {angstrom}
Zr 0.00000000 3.09903500 -2.3243629799999965 0 0 0
Zr 2.19135000 4.64855250 -0.7747054999999996 0 0 0
Zr 2.19135000 1.54951750 -0.7747054999999996 0 0 0
Zr 8.75014820 0.12148217 0.62484201
Zr 2.19143765 1.82334823 2.19101405
Zr 2.19143765 4.98541760 2.35813156
Zr 4.38270000 3.09903500 -2.3243629799999965 0 0 0
Zr 6.57405000 4.64855250 -0.7747054999999996 0 0 0
Zr 6.57405000 1.54951750 -0.7747054999999996 0 0 0
Zr 4.39725056 0.12222594 0.62410255
Zr 6.57387469 1.75120270 2.25731879
Zr 6.57413765 4.71710315 2.25534690
Al 0.00000000 0.00000000 -2.3243629799999965 0 0 0
Al 8.67494107 3.18184122 0.70470347
Al 4.38270000 0.00000000 -2.3243629799999965 0 0 0
Al 4.47386016 3.18128339 0.70494996
C 2.19056111 0.50260150 3.81806814
O 2.19135000 5.86752693 4.72267176
