&CONTROL
calculation = 'relax'
prefix = 'scf'
pseudo_dir = '/vol0004/mdt0/data/hp150275/u10028/POT_KKJUS'
outdir = './data'
tprnfor = .true.
nstep = 50
disk_io = 'non'
/
&SYSTEM
ibrav = 0
ecutwfc = 50.0
ecutrho = 400
occupations = 'smearing'
smearing = 'mp'
degauss = 0.01
assume_isolated = 'esm'
esm_bc = 'bc1'
input_dft = 'BEEF-VDW'
nosym = .true.
nspin = 1
ntyp = 5
nat = 34
/
&ELECTRONS
electron_maxstep = 200
mixing_beta = 0.1
conv_thr = 1e-06
/
&IONS
ion_dynamics = 'bfgs'
upscale = 1.0
/
&CELL
/

K_POINTS {automatic}
8 6 1 0 0 0

ATOMIC_SPECIES
C 12.01 C.pbe-n-rrkjus_psl.1.0.0.UPF
Li 6.941 Li.pbe-sl-rrkjus_psl.1.0.0.UPF
Na 22.98 Na.pbe-spnl-rrkjus_psl.1.0.0.UPF
O 15.99 O.pbe-n-rrkjus_psl.1.0.0.UPF
Sb 121.7 Sb.pbe-n-rrkjus_psl.1.0.0.UPF

CELL_PARAMETERS {angstrom}
6.84524000 0.00000000 0.00000000
0.00000000 9.68063000 0.00000000
0.00000000 0.00000000 27.26050000

ATOMIC_POSITIONS {angstrom}
Na 0.00000000 0.00000000 -3.6302807799999997 0 0 0
Na 3.42262000 2.42015750 -1.2100935899999996 0 0 0
Na 3.42262000 7.26047250 -1.2100935899999996 0 0 0
Na 0.00000000 4.84031500 -3.6302807799999997 0 0 0
Na 6.84517155 4.84389683 1.08769395
Na 3.42268845 7.26066611 3.94868343
Na 3.42255155 2.42015750 3.88298562
Na 0.00000000 9.67627372 1.08851177
Li 1.71131000 0.00000000 -1.2100935899999996 0 0 0
Li 5.13393000 4.84031500 -1.2100935899999996 0 0 0
Li 5.13393000 0.00000000 -1.2100935899999996 0 0 0
Li 1.71131000 4.84031500 -1.2100935899999996 0 0 0
Li 5.13393000 7.26047250 -3.6302807799999997 0 0 0
Li 1.71131000 2.42015750 -3.6302807799999997 0 0 0
Li 1.71131000 7.26047250 -3.6302807799999997 0 0 0
Li 5.13393000 2.42015750 -3.6302807799999997 0 0 0
Li 1.39218491 4.83673317 3.54659105
Li 5.45298664 0.00396906 3.54659105
Li 5.45326045 4.83663636 3.54686366
Li 1.39197955 0.00367864 3.54686366
Li 5.08217999 2.42015750 1.30823139
Li 1.76675644 7.26047250 1.34257963
Li 1.76299156 2.42015750 1.30823139
Li 5.07855201 7.26047250 1.34257963
Sb 0.00000000 7.26047250 -1.2100935899999996 0 0 0
Sb 3.42262000 0.00000000 -3.6302807799999997 0 0 0
Sb 0.00000000 2.42015750 -1.2100935899999996 0 0 0
Sb 3.42262000 4.84031500 -3.6302807799999997 0 0 0
Sb 6.84517155 2.42015750 3.60383810
Sb 3.42262000 4.84341280 1.37856348
Sb 0.00000000 7.26056931 3.63682331
Sb 3.42262000 9.67762900 1.37856348
C 3.42255155 2.41996389 6.53897614
O 3.42248310 2.42015750 7.67464857
