&CONTROL
calculation = 'relax'
prefix = 'scf'
pseudo_dir = '/vol0403/data/hp230205/u10028/POT_HYBRID_KKJUS_GBRV'
outdir = './data'
tprnfor = .true.
nstep = 50
disk_io = 'non'
/
&SYSTEM
ibrav = 0
ecutwfc = 50.0
ecutrho = 400
occupations = 'smearing'
smearing = 'mp'
degauss = 0.01
assume_isolated = 'esm'
esm_bc = 'bc1'
input_dft = 'BEEF-VDW'
nosym = .true.
nspin = 1
ntyp = 4
nat = 16
/
&ELECTRONS
electron_maxstep = 200
mixing_beta = 0.1
conv_thr = 1e-06
/
&IONS
ion_dynamics = 'bfgs'
upscale = 1.0
/
&CELL
/

K_POINTS {automatic}
12 8 2 0  0  0

ATOMIC_SPECIES
Ga 69.72 Ga.pbe-dnl-rrkjus_psl.1.0.0.UPF
Ge 72.64 Ge.pbe-dn-rrkjus_psl.1.0.0.UPF
Pd 106.4 Pd.pbe-n-rrkjus_psl.1.0.0.UPF
Sc 44.95 Sc.pbe-spn-rrkjus_psl.1.0.0.UPF


CELL_PARAMETERS {angstrom}
5.63062000 0.00000000 0.00000000
0.00000000 8.58414000 0.00000000
0.00000000 0.00000000 24.22090000

ATOMIC_POSITIONS {angstrom}
Sc 4.13619715 2.14603500 0.81769758
Sc 1.27539174 2.14603500 -2.1103670200000018 0 0 0
Sc 4.13614084 6.43810500 0.81769758
Sc 1.27539174 6.43810500 -2.1103670200000018 0 0 0
Ga 0.05506746 0.00000000 2.10552284
Ga 2.72713449 0.00000000 -0.7033749399999998 0 0 0
Ga 0.05534899 4.29215584 2.10552284
Ga 2.72713449 4.29207000 -0.7033749399999998 0 0 0
Ge 1.26801562 2.14612084 0.91772990
Ge 4.09070174 2.14603500 -2.1103670200000018 0 0 0
Ge 1.26790301 6.43810500 0.91748769
Ge 4.09070174 6.43810500 -2.1103670200000018 0 0 0
Pd 2.86835044 0.00000000 1.93161677
Pd 5.54244449 0.00000000 -0.7033749399999998 0 0 0
Pd 2.86840675 4.29207000 1.93161677
Pd 5.54244449 4.29207000 -0.7033749399999998 0 0 0
