&CONTROL
calculation = 'relax'
prefix = 'scf'
pseudo_dir = '/vol0403/data/hp230205/u10028/POT_HYBRID_KKJUS_GBRV'
outdir = './data'
tprnfor = .true.
nstep = 50
disk_io = 'non'
/
&SYSTEM
ibrav = 0
ecutwfc = 50.0
ecutrho = 400
occupations = 'smearing'
smearing = 'mp'
degauss = 0.01
assume_isolated = 'esm'
esm_bc = 'bc1'
input_dft = 'BEEF-VDW'
nosym = .true.
nspin = 1
ntyp = 6
nat = 18
/
&ELECTRONS
electron_maxstep = 200
mixing_beta = 0.1
conv_thr = 1e-06
/
&IONS
ion_dynamics = 'bfgs'
upscale = 1.0
/
&CELL
/

K_POINTS {automatic}
6 6 1 0 0 0

ATOMIC_SPECIES
C 12.01 C.pbe-n-rrkjus_psl.1.0.0.UPF
Ga 69.72 Ga.pbe-dnl-rrkjus_psl.1.0.0.UPF
O 15.99 O.pbe-n-rrkjus_psl.1.0.0.UPF
Pd 106.4 Pd.pbe-n-rrkjus_psl.1.0.0.UPF
Sc 44.95 Sc.pbe-spn-rrkjus_psl.1.0.0.UPF
Y 88.90 Y.pbe-spn-rrkjus_psl.1.0.0.UPF


CELL_PARAMETERS {angstrom}
5.91305000 0.00000000 0.00000000
0.00000000 9.85606000 0.00000000
0.00000000 0.00000000 24.24990000

ATOMIC_POSITIONS {angstrom}
Y 1.05589334 2.46401500 -0.7083395800000005 0 0 0
Y 3.00270592 2.46411356 2.16915355
Y 1.05589334 7.39204500 -0.7083395800000005 0 0 0
Y 2.98384329 7.39204500 2.13956868
Sc 2.95652500 0.00000000 -2.1250187400000016 0 0 0
Sc 4.71997390 9.84718955 0.56938765
Sc 2.95652500 4.92803000 -2.1250187400000016 0 0 0
Sc 4.72038782 4.93699901 0.56938765
Ga 0.00000000 0.00000000 -2.1250187400000016 0 0 0
Ga 1.68273577 0.01852939 1.09949047
Ga 0.00000000 4.92803000 -2.1250187400000016 0 0 0
Ga 1.68332707 4.90959917 1.09900547
Pd 4.01241834 2.46401500 -0.7083395800000005 0 0 0
Pd 5.86527256 2.46381788 1.88518723
Pd 4.01241834 7.39204500 -0.7083395800000005 0 0 0
Pd 5.86095603 7.39253780 1.73023036
C 5.74996808 2.46391644 3.85379411
O 0.24125244 2.46401500 4.95110208
