&CONTROL
calculation = 'relax'
prefix = 'scf'
pseudo_dir = '/vol0004/mdt0/data/hp150275/u10028/POT_KKJUS'
outdir = './data'
tprnfor = .true.
nstep = 50
disk_io = 'non'
/
&SYSTEM
ibrav = 0
ecutwfc = 50.0
ecutrho = 400
occupations = 'smearing'
smearing = 'mp'
degauss = 0.01
assume_isolated = 'esm'
esm_bc = 'bc1'
input_dft = 'BEEF-VDW'
nosym = .true.
nspin = 1
ntyp = 5
nat = 34
/
&ELECTRONS
electron_maxstep = 200
mixing_beta = 0.1
conv_thr = 1e-06
/
&IONS
ion_dynamics = 'bfgs'
upscale = 1.0
/
&CELL
/

K_POINTS {automatic}
8 6 1 0 0 0

ATOMIC_SPECIES
Au 196.9 Au.pbe-n-rrkjus_psl.1.0.0.UPF
C 12.01 C.pbe-n-rrkjus_psl.1.0.0.UPF
Ga 69.72 Ga.pbe-dnl-rrkjus_psl.1.0.0.UPF
Li 6.941 Li.pbe-sl-rrkjus_psl.1.0.0.UPF
O 15.99 O.pbe-n-rrkjus_psl.1.0.0.UPF

CELL_PARAMETERS {angstrom}
6.29417000 0.00000000 0.00000000
0.00000000 8.90130000 0.00000000
0.00000000 0.00000000 26.67600000

ATOMIC_POSITIONS {angstrom}
Li 0.00000000 6.67597500 -1.112655959999998 0 0 0
Li 3.14708500 0.00000000 -3.3379678799999972 0 0 0
Li 0.00000000 2.22532500 -1.112655959999998 0 0 0
Li 3.14708500 4.45065000 -3.3379678799999972 0 0 0
Li 1.57354250 2.22532500 -3.3379678799999972 0 0 0
Li 1.57354250 6.67597500 -3.3379678799999972 0 0 0
Li 4.72062750 4.45065000 -1.112655959999998 0 0 0
Li 4.72062750 0.00000000 -1.112655959999998 0 0 0
Li 0.17246026 2.22541401 3.50042472
Li 3.22815391 4.36510851 0.96460416
Li 0.10775619 6.67588599 3.33690084
Li 3.22815391 0.08536347 0.96460416
Li 1.67217214 6.67588599 1.12466016
Li 1.47132518 2.22532500 1.07024112
Li 4.60764715 8.85332199 3.24246780
Li 4.60789892 4.49818294 3.24193428
Ga 0.00000000 0.00000000 -3.3379678799999972 0 0 0
Ga 3.14708500 2.22532500 -1.112655959999998 0 0 0
Ga 3.14708500 6.67597500 -1.112655959999998 0 0 0
Ga 0.00000000 4.45065000 -3.3379678799999972 0 0 0
Ga 6.24646019 4.52969354 1.05370200
Ga 3.05632307 6.67544092 3.66848352
Ga 3.01528508 2.22496895 3.22726248
Ga 6.24627137 8.82216744 1.05396876
Au 1.57354250 0.00000000 -1.112655959999998 0 0 0
Au 1.57354250 4.45065000 -1.112655959999998 0 0 0
Au 4.72062750 6.67597500 -3.3379678799999972 0 0 0
Au 4.72062750 2.22532500 -3.3379678799999972 0 0 0
Au 1.68664873 4.51331515 3.06507240
Au 1.68696344 8.83836781 3.06560592
Au 4.83983908 2.22532500 1.22976360
Au 4.59203761 6.67588599 1.20895632
C 3.85115086 2.22639316 5.05990368
O 4.13061200 2.22683822 6.19443396
