&CONTROL
calculation = 'relax'
prefix = 'scf'
pseudo_dir = '/vol0004/mdt0/data/hp150275/u10028/POT_HYBRID_KKJUS_GBRV'
outdir = './data'
tprnfor = .true.
nstep = 50
disk_io = 'non'
/
&SYSTEM
ibrav = 0
ecutwfc = 50.0
ecutrho = 400
occupations = 'smearing'
smearing = 'mp'
degauss = 0.01
assume_isolated = 'esm'
esm_bc = 'bc1'
input_dft = 'BEEF-VDW'
nosym = .true.
nspin = 2
ntyp = 3
nat = 17
starting_magnetization(1) = 0.0
starting_magnetization(2) = 0.1
starting_magnetization(3) = 0.0
/
&ELECTRONS
electron_maxstep = 200
mixing_beta = 0.1
conv_thr = 1e-06
/
&IONS
ion_dynamics = 'bfgs'
upscale = 1.0
/
&CELL
/

K_POINTS {automatic}
8 12 2 0  0  0

ATOMIC_SPECIES
C 12.01 C.pbe-n-rrkjus_psl.1.0.0.UPF
Co 58.93 co_pbe_v1.2.uspp.F.UPF
Ta 180.9 Ta.pbe-spn-rrkjus_psl.1.0.0.UPF

CELL_PARAMETERS {angstrom}
7.30495000 0.00000000 0.00000000
-0.00000000 5.16538000 0.00000000
0.00000000 0.00000000 23.87400000

ATOMIC_POSITIONS {angstrom}
Ta 0.00000000 0.00000000 1.93689762
Ta 0.00000000 2.58269000 -0.6455529599999998 0 0 0
Ta 3.65247500 -0.00000000 1.93689762
Ta 3.65247500 2.58269000 -0.6455529599999998 0 0 0
Co 0.00000000 2.58269000 1.93689762
Co 1.82623750 3.87403500 0.64555296
Co 1.82623750 1.29134500 0.64555296
Co 0.00000000 0.00000000 -0.6455529599999998 0 0 0
Co 1.82623750 1.29134500 -1.9368976199999999 0 0 0
Co 1.82623750 3.87403500 -1.9368976199999999 0 0 0
Co 3.65247500 2.58269000 1.93689762
Co 5.47871250 3.87403500 0.64555296
Co 5.47871250 1.29134500 0.64555296
Co 3.65247500 0.00000000 -0.6455529599999998 0 0 0
Co 5.47871250 1.29134500 -1.9368976199999999 0 0 0
Co 5.47871250 3.87403500 -1.9368976199999999 0 0 0
C 1.82623750 1.29134500 2.73691536
