&CONTROL
calculation = 'relax'
prefix = 'scf'
pseudo_dir = '/vol0004/mdt0/data/hp150275/u10028/POT_KKJUS'
outdir = './data'
tprnfor = .true.
nstep = 50
disk_io = 'non'
/
&SYSTEM
ibrav = 0
ecutwfc = 50.0
ecutrho = 400
occupations = 'smearing'
smearing = 'mp'
degauss = 0.01
assume_isolated = 'esm'
esm_bc = 'bc1'
input_dft = 'BEEF-VDW'
nosym = .true.
nspin = 1
ntyp = 4
nat = 34
/
&ELECTRONS
electron_maxstep = 200
mixing_beta = 0.1
conv_thr = 1e-06
/
&IONS
ion_dynamics = 'bfgs'
upscale = 1.0
/
&CELL
/

K_POINTS {automatic}
6 6 2 0  0  0

ATOMIC_SPECIES
C 12.01 C.pbe-n-rrkjus_psl.1.0.0.UPF
K 39.09 K.pbe-spn-rrkjus_psl.1.0.0.UPF
O 15.99 O.pbe-n-rrkjus_psl.1.0.0.UPF
Pd 106.4 Pd.pbe-n-rrkjus_psl.1.0.0.UPF

CELL_PARAMETERS {angstrom}
11.07580000 0.00000000 0.00000000
0.00000000 11.07580000 0.00000000
0.00000000 0.00000000 28.30690000

ATOMIC_POSITIONS {angstrom}
K 0.00000000 2.76895000 -1.3844904800000002 0 0 0
K 2.76895000 0.00000000 -1.3844904800000002 0 0 0
K 2.76895000 2.76895000 -4.153471440000001 0 0 0
K 0.08229319 2.64080299 4.47249020
K 2.77581700 0.00000000 2.77464234
K 2.75820647 3.71670621 1.91184803
K 0.00000000 8.30685000 -1.3844904800000002 0 0 0
K 2.76895000 5.53790000 -1.3844904800000002 0 0 0
K 2.76895000 8.30685000 -4.153471440000001 0 0 0
K 0.08240395 8.43488625 4.47249020
K 2.77094364 5.53790000 6.18788834
K 2.75809572 7.35909379 1.91184803
K 5.53790000 2.76895000 -1.3844904800000002 0 0 0
K 8.30685000 0.00000000 -1.3844904800000002 0 0 0
K 8.30685000 2.76895000 -4.153471440000001 0 0 0
K 5.46646109 2.66007489 4.45012775
K 8.30596394 0.00000000 4.28170169
K 8.31892262 2.82731947 1.55319960
K 5.53790000 8.30685000 -1.3844904800000002 0 0 0
K 8.30685000 5.53790000 -1.3844904800000002 0 0 0
K 8.30685000 8.30685000 -4.153471440000001 0 0 0
K 5.46657185 8.41583587 4.45012775
K 8.31238790 5.53790000 4.34425994
K 8.31903338 8.24859129 1.55319960
Pd 0.00000000 0.00000000 -4.153471440000001 0 0 0
Pd 10.71129542 11.07568924 1.77484263
Pd 0.00000000 5.53790000 -4.153471440000001 0 0 0
Pd 10.87554954 5.53790000 1.97950152
Pd 5.53790000 0.00000000 -4.153471440000001 0 0 0
Pd 5.91536326 0.00011076 1.76635056
Pd 5.53790000 5.53790000 -4.153471440000001 0 0 0
Pd 5.73504924 5.53801076 1.98176607
C 2.69884019 0.00011076 5.79244095
O 2.73007394 0.00000000 6.94623019
