&CONTROL
calculation = 'relax'
prefix = 'scf'
pseudo_dir = '/vol0403/data/hp230205/u10028/POT_HYBRID_KKJUS_GBRV'
outdir = './data'
tprnfor = .true.
nstep = 50
disk_io = 'non'
/
&SYSTEM
ibrav = 0
ecutwfc = 50.0
ecutrho = 400
occupations = 'smearing'
smearing = 'mp'
degauss = 0.01
assume_isolated = 'esm'
esm_bc = 'bc1'
input_dft = 'BEEF-VDW'
nosym = .true.
nspin = 1
ntyp = 5
nat = 17
/
&ELECTRONS
electron_maxstep = 200
mixing_beta = 0.1
conv_thr = 1e-06
/
&IONS
ion_dynamics = 'bfgs'
upscale = 1.0
/
&CELL
/

K_POINTS {automatic}
8 8 1 0 0 0

ATOMIC_SPECIES
Al 26.98 Al.pbe-nl-rrkjus_psl.1.0.0.UPF
C 12.01 C.pbe-n-rrkjus_psl.1.0.0.UPF
Cu 63.54 Cu.pbe-dn-rrkjus_psl.1.0.0.UPF
Li 6.941 Li.pbe-sl-rrkjus_psl.1.0.0.UPF
Pd 106.4 Pd.pbe-n-rrkjus_psl.1.0.0.UPF


CELL_PARAMETERS {angstrom}
6.00833000 0.00000000 0.00000000
0.00000000 6.00833000 0.00000000
0.00000000 0.00000000 24.50620000

ATOMIC_POSITIONS {angstrom}
Li 6.00502542 3.00668850 2.61750722
Li 0.00000000 0.00000000 -0.7511150300000011 0 0 0
Li 3.00416500 3.00416500 -0.7511150300000011 0 0 0
Li 3.00674858 6.00502542 2.61750722
Al 0.14462050 0.14462050 2.27711610
Al 0.00000000 3.00416500 -0.7511150300000011 0 0 0
Al 3.00416500 0.00000000 -0.7511150300000011 0 0 0
Al 2.85551892 2.85551892 2.27956672
Cu 1.50256317 1.50256317 0.59010930
Cu 1.50208250 4.50624750 -2.253100029999999 0 0 0
Cu 4.50624750 1.50208250 -2.253100029999999 0 0 0
Cu 4.50432483 4.50432483 1.03979807
Pd 4.50570675 1.50280350 0.81434103
Pd 4.50624750 4.50624750 -2.253100029999999 0 0 0
Pd 1.50208250 1.50208250 -2.253100029999999 0 0 0
Pd 1.50280350 4.50570675 0.81434103
C 1.49961908 1.49967917 2.64029799
