&CONTROL
calculation = 'relax'
prefix = 'scf'
pseudo_dir = '/vol0403/data/hp230205/u10028/POT_HYBRID_KKJUS_GBRV'
outdir = './data'
tprnfor = .true.
nstep = 50
disk_io = 'non'
/
&SYSTEM
ibrav = 0
ecutwfc = 50.0
ecutrho = 400
occupations = 'smearing'
smearing = 'mp'
degauss = 0.01
assume_isolated = 'esm'
esm_bc = 'bc1'
input_dft = 'BEEF-VDW'
nosym = .true.
nspin = 1
ntyp = 5
nat = 33
/
&ELECTRONS
electron_maxstep = 200
mixing_beta = 0.1
conv_thr = 1e-06
/
&IONS
ion_dynamics = 'bfgs'
upscale = 1.0
/
&CELL
/

K_POINTS {automatic}
7 8 2 0  0  0

ATOMIC_SPECIES
Al 26.98 Al.pbe-nl-rrkjus_psl.1.0.0.UPF
C 12.01 C.pbe-n-rrkjus_psl.1.0.0.UPF
Ge 72.64 Ge.pbe-dn-rrkjus_psl.1.0.0.UPF
Li 6.941 Li.pbe-sl-rrkjus_psl.1.0.0.UPF
Pd 106.4 Pd.pbe-n-rrkjus_psl.1.0.0.UPF


CELL_PARAMETERS {angstrom}
8.09626000 0.00000000 0.00000000
0.00000000 7.42946000 0.00000000
0.00000000 0.00000000 26.00850000

ATOMIC_POSITIONS {angstrom}
Li 2.02406500 0.00000000 1.00132725
Li 2.02406500 0.00000000 -3.0042418400000024 0 0 0
Li 2.02406500 3.71473000 1.00132725
Li 2.02406500 3.71473000 -3.0042418400000024 0 0 0
Li 6.07219500 0.00000000 1.00132725
Li 6.07219500 0.00000000 -3.0042418400000024 0 0 0
Li 6.07219500 3.71473000 1.00132725
Li 6.07219500 3.71473000 -3.0042418400000024 0 0 0
Al 0.00000000 0.00000000 3.00424184
Al 0.00000000 0.00000000 -1.0013272500000028 0 0 0
Al 0.00000000 3.71473000 3.00424184
Al 0.00000000 3.71473000 -1.0013272500000028 0 0 0
Al 4.04813000 0.00000000 3.00424184
Al 4.04813000 0.00000000 -1.0013272500000028 0 0 0
Al 4.04813000 3.71473000 3.00424184
Al 4.04813000 3.71473000 -1.0013272500000028 0 0 0
Ge 2.02406500 1.85736500 3.00424184
Ge 2.02406500 1.85736500 -1.0013272500000028 0 0 0
Ge 2.02406500 5.57209500 3.00424184
Ge 2.02406500 5.57209500 -1.0013272500000028 0 0 0
Ge 6.07219500 1.85736500 3.00424184
Ge 6.07219500 1.85736500 -1.0013272500000028 0 0 0
Ge 6.07219500 5.57209500 3.00424184
Ge 6.07219500 5.57209500 -1.0013272500000028 0 0 0
Pd 0.00000000 1.85736500 1.00132725
Pd 0.00000000 1.85736500 -3.0042418400000024 0 0 0
Pd 0.00000000 5.57209500 1.00132725
Pd 0.00000000 5.57209500 -3.0042418400000024 0 0 0
Pd 4.04813000 1.85736500 1.00132725
Pd 4.04813000 1.85736500 -3.0042418400000024 0 0 0
Pd 4.04813000 5.57209500 1.00132725
Pd 4.04813000 5.57209500 -3.0042418400000024 0 0 0
C 0.00000000 1.85736500 3.80426330
