&CONTROL
calculation = 'relax'
prefix = 'scf'
pseudo_dir = '/vol0004/mdt0/data/hp150275/u10028/POT_KKJUS'
outdir = './data'
tprnfor = .true.
nstep = 50
disk_io = 'non'
/
&SYSTEM
ibrav = 0
ecutwfc = 50.0
ecutrho = 400
occupations = 'smearing'
smearing = 'mp'
degauss = 0.01
assume_isolated = 'esm'
esm_bc = 'bc1'
input_dft = 'BEEF-VDW'
nosym = .true.
nspin = 1
ntyp = 3
nat = 17
/
&ELECTRONS
electron_maxstep = 200
mixing_beta = 0.1
conv_thr = 1e-06
/
&IONS
ion_dynamics = 'bfgs'
upscale = 1.0
/
&CELL
/

K_POINTS {automatic}
8 11 2 0  0  0

ATOMIC_SPECIES
C 12.01 C.pbe-n-rrkjus_psl.1.0.0.UPF
Ir 192.2 Ir.pbe-n-rrkjus_psl.0.2.3.UPF
V 50.94 V.pbe-spnl-rrkjus_psl.1.0.0.UPF

CELL_PARAMETERS {angstrom}
7.70199000 0.00000000 0.00000000
0.00000000 5.44613000 0.00000000
0.00000000 0.00000000 24.08460000

ATOMIC_POSITIONS {angstrom}
V 0.00000000 0.00000000 -2.0423740799999983 0 0 0
V 0.00000000 2.72306500 0.42991011
V 3.85099500 0.00000000 -2.0423740799999983 0 0 0
V 3.85099500 2.72306500 0.96362485
Ir 0.00000000 2.72306500 -2.0423740799999983 0 0 0
Ir 1.92549750 4.08459750 -0.6808716399999994 0 0 0
Ir 1.92549750 1.36153250 -0.6808716399999994 0 0 0
Ir 0.00000000 0.00000000 0.46531447
Ir 1.66232050 1.39802157 1.99131473
Ir 1.66232050 4.04810843 1.99131473
Ir 3.85099500 2.72306500 -2.0423740799999983 0 0 0
Ir 5.77649250 4.08459750 -0.6808716399999994 0 0 0
Ir 5.77649250 1.36153250 -0.6808716399999994 0 0 0
Ir 3.85099500 0.00000000 0.68617025
Ir 6.03966950 1.39802157 1.99131473
Ir 6.03966950 4.04810843 1.99131473
C 0.00000000 2.72306500 2.52960554
