&CONTROL
calculation = 'relax'
prefix = 'scf'
pseudo_dir = '/vol0004/mdt0/data/hp150275/u10028/POT_HYBRID_KKJUS_GBRV'
outdir = './data'
tprnfor = .true.
nstep = 50
disk_io = 'non'
/
&SYSTEM
ibrav = 0
ecutwfc = 50.0
ecutrho = 400
occupations = 'smearing'
smearing = 'mp'
degauss = 0.01
assume_isolated = 'esm'
esm_bc = 'bc1'
input_dft = 'BEEF-VDW'
nosym = .true.
nspin = 2
ntyp = 4
nat = 33
starting_magnetization(1) = 0.0
starting_magnetization(2) = 0.1
starting_magnetization(3) = 0.1
starting_magnetization(4) = 0.0
/
&ELECTRONS
electron_maxstep = 300
mixing_beta = 0.1
conv_thr = 1e-06
/
&IONS
ion_dynamics = 'bfgs'
upscale = 1.0
/
&CELL
/

K_POINTS {automatic}
9 6 2 0  0  0

ATOMIC_SPECIES
C 12.01 C.pbe-n-rrkjus_psl.1.0.0.UPF
Co 58.93 co_pbe_v1.2.uspp.F.UPF
Fe 55.84 fe_pbe_v1.5.uspp.F.UPF
In 114.8 In.pbe-dn-rrkjus_psl.1.0.0.UPF

CELL_PARAMETERS {angstrom}
6.01864000 0.00000000 0.00000000
0.00000000 8.51164000 0.00000000
0.00000000 0.00000000 26.38370000

ATOMIC_POSITIONS {angstrom}
In 0.00000000 0.00000000 -3.1919000299999993 0 0 0
In 3.00932000 2.12791000 -1.0640546200000003 0 0 0
In 3.00932000 6.38373000 -1.0640546200000003 0 0 0
In 0.00000000 4.25582000 -3.1919000299999993 0 0 0
In 0.00000000 4.25582000 1.00126141
In 3.00938019 6.30201826 3.66759814
In 3.00932000 2.20962174 3.66759814
In 0.00000000 0.00000000 1.01471710
Fe 0.00000000 6.38373000 -1.0640546200000003 0 0 0
Fe 3.00932000 0.00000000 -3.1919000299999993 0 0 0
Fe 0.00000000 2.12791000 -1.0640546200000003 0 0 0
Fe 3.00932000 4.25582000 -3.1919000299999993 0 0 0
Fe 6.01851963 2.10458811 3.09428034
Fe 3.00932000 4.25582000 1.15191234
Fe 6.01857981 6.40705189 3.09428034
Fe 3.00938019 0.00000000 0.98727805
Co 1.50466000 0.00000000 -1.0640546200000003 0 0 0
Co 4.51398000 4.25582000 -1.0640546200000003 0 0 0
Co 4.51398000 0.00000000 -1.0640546200000003 0 0 0
Co 1.50466000 4.25582000 -1.0640546200000003 0 0 0
Co 4.51398000 6.38373000 -3.1919000299999993 0 0 0
Co 1.50466000 2.12791000 -3.1919000299999993 0 0 0
Co 1.50466000 6.38373000 -3.1919000299999993 0 0 0
Co 4.51398000 2.12791000 -3.1919000299999993 0 0 0
Co 1.40944512 4.25582000 3.12910682
Co 4.33685142 0.00000000 3.07739477
Co 4.60919488 4.25582000 3.12910682
Co 1.68190895 0.00000000 3.07739477
Co 4.42556618 2.12195185 1.19650080
Co 1.59307382 6.38960303 1.19650080
Co 1.59307382 2.12203697 1.19650080
Co 4.42556618 6.38960303 1.19650080
C 0.00012037 0.00000000 3.59055773
