&CONTROL
calculation = 'relax'
prefix = 'scf'
pseudo_dir = '/vol0403/data/hp230205/u10028/POT_HYBRID_KKJUS_GBRV'
outdir = './data'
tprnfor = .true.
nstep = 50
disk_io = 'non'
/
&SYSTEM
ibrav = 0
ecutwfc = 50.0
ecutrho = 400
occupations = 'smearing'
smearing = 'mp'
degauss = 0.01
assume_isolated = 'esm'
esm_bc = 'bc1'
input_dft = 'BEEF-VDW'
nosym = .true.
nspin = 1
ntyp = 6
nat = 34
/
&ELECTRONS
electron_maxstep = 200
mixing_beta = 0.1
conv_thr = 1e-06
/
&IONS
ion_dynamics = 'bfgs'
upscale = 1.0
/
&CELL
/

K_POINTS {automatic}
6 7 2 0  0  0

ATOMIC_SPECIES
C 12.01 C.pbe-n-rrkjus_psl.1.0.0.UPF
Ge 72.64 Ge.pbe-dn-rrkjus_psl.1.0.0.UPF
Li 6.941 Li.pbe-sl-rrkjus_psl.1.0.0.UPF
O 15.99 O.pbe-n-rrkjus_psl.1.0.0.UPF
Pb 207.2 Pb.pbe-dn-rrkjus_psl.1.0.0.UPF
Y 88.90 Y.pbe-spn-rrkjus_psl.1.0.0.UPF


CELL_PARAMETERS {angstrom}
9.86128000 0.00000000 0.00000000
0.00000000 8.55406000 0.00000000
0.00000000 0.00000000 26.49120000

ATOMIC_POSITIONS {angstrom}
Li 2.46532000 2.13851500 -3.2457018200000007 0 0 0
Li 2.46561584 2.38085152 1.15501632
Li 2.46532000 6.41554500 -3.2457018200000007 0 0 0
Li 2.46551723 6.17286632 1.15501632
Li 7.39596000 2.13851500 -3.2457018200000007 0 0 0
Li 7.39605861 2.25895616 1.11130584
Li 7.39596000 6.41554500 -3.2457018200000007 0 0 0
Li 7.39605861 6.29484721 1.11130584
Y 0.00000000 2.13851500 -1.0819006099999982 0 0 0
Y 0.00621261 2.20181504 3.19801766
Y 0.00000000 6.41554500 -1.0819006099999982 0 0 0
Y 0.00621261 6.35190279 3.19801766
Y 4.93064000 2.13851500 -1.0819006099999982 0 0 0
Y 4.92482184 2.20207167 3.19801766
Y 4.93064000 6.41554500 -1.0819006099999982 0 0 0
Y 4.92472323 6.35173171 3.19801766
Ge 0.00000000 0.00000000 -3.2457018200000007 0 0 0
Ge 9.85013675 8.55380338 1.18044787
Ge 0.00000000 4.27703000 -3.2457018200000007 0 0 0
Ge 9.81157915 4.27694446 1.13806195
Ge 4.93064000 0.00000000 -3.2457018200000007 0 0 0
Ge 4.94227631 8.55397446 1.18044787
Ge 4.93064000 4.27703000 -3.2457018200000007 0 0 0
Ge 4.98024224 4.27694446 1.13753213
Pb 2.46532000 0.00000000 -1.0819006099999982 0 0 0
Pb 2.46571445 8.55388892 3.27908074
Pb 2.46532000 4.27703000 -1.0819006099999982 0 0 0
Pb 2.46561584 4.27685892 3.74214691
Pb 7.39596000 0.00000000 -1.0819006099999982 0 0 0
Pb 7.39615723 8.55388892 3.33603682
Pb 7.39596000 4.27703000 -1.0819006099999982 0 0 0
Pb 7.39605861 4.27685892 3.62267160
C 2.45624762 0.00675771 7.59661651
O 2.46670058 8.55277689 8.73229426
