&CONTROL
calculation = 'relax'
prefix = 'scf'
pseudo_dir = '/vol0004/mdt0/data/hp150275/u10028/POT_KKJUS'
outdir = './data'
tprnfor = .true.
nstep = 50
disk_io = 'non'
/
&SYSTEM
ibrav = 0
ecutwfc = 50.0
ecutrho = 400
occupations = 'smearing'
smearing = 'mp'
degauss = 0.01
assume_isolated = 'esm'
esm_bc = 'bc1'
input_dft = 'BEEF-VDW'
nosym = .true.
nspin = 1
ntyp = 4
nat = 17
/
&ELECTRONS
electron_maxstep = 200
mixing_beta = 0.1
conv_thr = 1e-06
/
&IONS
ion_dynamics = 'bfgs'
upscale = 1.0
/
&CELL
/

K_POINTS {automatic}
8 8 1 0 0 0

ATOMIC_SPECIES
Au 196.9 Au.pbe-n-rrkjus_psl.1.0.0.UPF
C 12.01 C.pbe-n-rrkjus_psl.1.0.0.UPF
In 114.8 In.pbe-dn-rrkjus_psl.1.0.0.UPF
Ti 47.86 Ti.pbe-spn-rrkjus_psl.1.0.0.UPF

CELL_PARAMETERS {angstrom}
6.72102000 0.00000000 0.00000000
-0.00000000 6.72102000 0.00000000
0.00000000 0.00000000 25.04080000

ATOMIC_POSITIONS {angstrom}
Ti 0.00000000 0.00000000 -2.52035652 0 0 0
Ti 3.36051000 3.36051000 -2.52035652 0 0 0
Ti 3.36051000 -0.00000000 0.84011884
Ti 0.00000000 3.36051000 0.84011884
In 0.00000000 0.00000000 0.84011884
In 3.36051000 0.00000000 -2.52035652 0 0 0
In 0.00000000 3.36051000 -2.52035652 0 0 0
In 3.36051000 3.36051000 0.84011884
Au 1.68025500 1.68025500 -0.8401188400000024 0 0 0
Au 5.04076500 5.04076500 2.52035652
Au 5.04076500 1.68025500 -0.8401188400000024 0 0 0
Au 1.68025500 5.04076500 2.52035652
Au 5.04076500 5.04076500 -0.8401188400000024 0 0 0
Au 1.68025500 1.68025500 2.52035652
Au 1.68025500 5.04076500 -0.8401188400000024 0 0 0
Au 5.04076500 1.68025500 2.52035652
C 0.00000000 0.00000000 3.32041008
