&CONTROL
calculation = 'relax'
prefix = 'scf'
pseudo_dir = '/vol0403/data/hp230205/u10028/POT_HYBRID_KKJUS_GBRV'
outdir = './data'
tprnfor = .true.
nstep = 50
disk_io = 'non'
/
&SYSTEM
ibrav = 0
ecutwfc = 50.0
ecutrho = 400
occupations = 'smearing'
smearing = 'mp'
degauss = 0.01
assume_isolated = 'esm'
esm_bc = 'bc1'
input_dft = 'BEEF-VDW'
nosym = .true.
nspin = 2
ntyp = 5
nat = 33
starting_magnetization(1) = 0.0
starting_magnetization(2) = 0.0
starting_magnetization(3) = 0.0
starting_magnetization(4) = 0.001
starting_magnetization(5) = 0.0
/
&ELECTRONS
electron_maxstep = 400
mixing_beta = 0.05
conv_thr = 1e-06
/
&IONS
ion_dynamics = 'bfgs'
upscale = 1.0
/
&CELL
/

K_POINTS {automatic}
6 6 1 0 0 0

ATOMIC_SPECIES
C 12.01 C.pbe-n-rrkjus_psl.1.0.0.UPF
Ge 72.64 Ge.pbe-dn-rrkjus_psl.1.0.0.UPF
Li 6.941 Li.pbe-sl-rrkjus_psl.1.0.0.UPF
Ni 58.69 ni_pbe_v1.4.uspp.F.UPF
Pd 106.4 Pd.pbe-n-rrkjus_psl.1.0.0.UPF


CELL_PARAMETERS {angstrom}
5.93854000 0.00000000 0.00000000
0.00000000 8.39836000 0.00000000
0.00000000 0.00000000 26.29880000

ATOMIC_POSITIONS {angstrom}
Li 0.00000000 2.09959000 -1.0498480999999984 0 0 0
Li 0.00000000 6.29877000 -1.0498480999999984 0 0 0
Li 2.96927000 4.19918000 -3.1492812999999984 0 0 0
Li 2.96927000 0.00000000 -3.1492812999999984 0 0 0
Li 5.88675593 6.25535048 3.62081878
Li 5.88675593 2.14300952 3.62081878
Li 2.85180568 0.00000000 1.06378646
Li 2.97235804 4.19918000 0.95596138
Ni 4.45390500 0.00000000 -1.0498480999999984 0 0 0
Ni 4.45390500 4.19918000 -1.0498480999999984 0 0 0
Ni 1.48463500 2.09959000 -3.1492812999999984 0 0 0
Ni 1.48463500 6.29877000 -3.1492812999999984 0 0 0
Ni 4.34932731 4.19918000 2.89602386
Ni 4.33495604 0.00000000 3.01252754
Ni 1.47127328 6.30817616 1.04090650
Ni 1.47127328 2.09018384 1.04090650
Ge 0.00000000 0.00000000 -3.1492812999999984 0 0 0
Ge 0.00000000 4.19918000 -3.1492812999999984 0 0 0
Ge 2.96927000 6.29877000 -1.0498480999999984 0 0 0
Ge 2.96927000 2.09959000 -1.0498480999999984 0 0 0
Ge 5.92102131 4.19918000 1.06352347
Ge 0.08462420 0.00000000 1.12216980
Ge 3.03750382 2.16921240 3.19293731
Ge 3.03750382 6.22914760 3.19293731
Pd 1.48463500 0.00000000 -1.0498480999999984 0 0 0
Pd 1.48463500 4.19918000 -1.0498480999999984 0 0 0
Pd 4.45390500 2.09959000 -3.1492812999999984 0 0 0
Pd 4.45390500 6.29877000 -3.1492812999999984 0 0 0
Pd 1.53730985 4.19918000 3.01410547
Pd 1.83708735 0.00000000 3.59504596
Pd 4.46881074 6.34580082 1.05247798
Pd 4.46881074 2.05255918 1.05247798
C 5.89400095 0.00000000 3.71023470
