&CONTROL
calculation = 'relax'
prefix = 'scf'
pseudo_dir = '/vol0403/data/hp230205/u10028/POT_HYBRID_KKJUS_GBRV'
outdir = './data'
tprnfor = .true.
nstep = 50
disk_io = 'non'
/
&SYSTEM
ibrav = 0
ecutwfc = 50.0
ecutrho = 400
occupations = 'smearing'
smearing = 'mp'
degauss = 0.01
assume_isolated = 'esm'
esm_bc = 'bc1'
input_dft = 'BEEF-VDW'
nosym = .true.
nspin = 2
ntyp = 5
nat = 33
starting_magnetization(1) = 0.0
starting_magnetization(2) = 0.0
starting_magnetization(3) = 0.0
starting_magnetization(4) = 0.001
starting_magnetization(5) = 0.0
/
&ELECTRONS
electron_maxstep = 400
mixing_beta = 0.05
conv_thr = 1e-06
/
&IONS
ion_dynamics = 'bfgs'
upscale = 1.0
/
&CELL
/

K_POINTS {automatic}
9 6 2 0  0  0

ATOMIC_SPECIES
C 12.01 C.pbe-n-rrkjus_psl.1.0.0.UPF
Ge 72.64 Ge.pbe-dn-rrkjus_psl.1.0.0.UPF
Li 6.941 Li.pbe-sl-rrkjus_psl.1.0.0.UPF
Ni 58.69 ni_pbe_v1.4.uspp.F.UPF
Pd 106.4 Pd.pbe-n-rrkjus_psl.1.0.0.UPF


CELL_PARAMETERS {angstrom}
5.93854000 0.00000000 0.00000000
0.00000000 8.39836000 0.00000000
0.00000000 0.00000000 26.29880000

ATOMIC_POSITIONS {angstrom}
Li 0.00000000 2.09959000 25.24895190
Li 0.00000000 6.29877000 25.24895190
Li 2.96927000 4.19918000 23.14951870
Li 2.96927000 0.00000000 23.14951870
Li 5.92078377 6.26324494 3.61713695
Li 5.92066499 2.13503108 3.61739994
Li 2.82745766 0.00000000 1.15556927
Li 2.97740580 4.19926398 0.94438991
Ni 4.45390500 0.00000000 25.24895190
Ni 4.45390500 4.19918000 25.24895190
Ni 1.48463500 2.09959000 23.14951870
Ni 1.48463500 6.29877000 23.14951870
Ni 4.32367282 4.19909602 2.88734525
Ni 4.40390249 0.00016797 3.06696606
Ni 1.47151083 6.28734823 1.01802655
Ni 1.47162960 2.11126372 1.01802655
Ge 0.00000000 0.00000000 23.14951870
Ge 0.00000000 4.19918000 23.14951870
Ge 2.96927000 6.29877000 25.24895190
Ge 2.96927000 2.09959000 25.24895190
Ge 5.91163841 4.19926398 1.05694877
Ge 0.10624048 0.00008398 1.13689712
Ge 3.02301379 2.15308755 3.18478468
Ge 3.02331071 6.24518846 3.18478468
Pd 1.48463500 0.00000000 25.24895190
Pd 1.48463500 4.19918000 25.24895190
Pd 4.45390500 2.09959000 23.14951870
Pd 4.45390500 6.29877000 23.14951870
Pd 1.55417530 4.19918000 2.99254045
Pd 1.89237516 8.39819203 3.81253704
Pd 4.47041414 6.36788850 1.05247798
Pd 4.47029537 2.03072345 1.05247798
C 0.00510714 0.00000000 3.82121564
