&CONTROL
calculation = 'relax'
prefix = 'scf'
pseudo_dir = '/vol0004/mdt0/data/hp150275/u10028/POT_KKJUS'
outdir = './data'
tprnfor = .true.
nstep = 50
disk_io = 'non'
/
&SYSTEM
ibrav = 0
ecutwfc = 50.0
ecutrho = 400
occupations = 'smearing'
smearing = 'mp'
degauss = 0.01
assume_isolated = 'esm'
esm_bc = 'bc1'
input_dft = 'BEEF-VDW'
nosym = .true.
nspin = 1
ntyp = 4
nat = 17
/
&ELECTRONS
electron_maxstep = 200
mixing_beta = 0.1
conv_thr = 1e-06
/
&IONS
ion_dynamics = 'bfgs'
upscale = 1.0
/
&CELL
/

K_POINTS {automatic}
9 9 2 0  0  0

ATOMIC_SPECIES
Ag 107.8 Ag.pbe-n-rrkjus_psl.1.0.0.UPF
C 12.01 C.pbe-n-rrkjus_psl.1.0.0.UPF
Li 6.941 Li.pbe-sl-rrkjus_psl.1.0.0.UPF
Sn 118.7 Sn.pbe-dn-rrkjus_psl.1.0.0.UPF

CELL_PARAMETERS {angstrom}
6.65960000 0.00000000 0.00000000
0.00000000 6.65960000 0.00000000
0.00000000 0.00000000 24.99470000

ATOMIC_POSITIONS {angstrom}
Li 0.00006660 0.00000000 0.82257558
Li 3.32980000 0.00000000 -2.4974704200000026 0 0 0
Li 0.00000000 3.32980000 -2.4974704200000026 0 0 0
Li 3.32980000 3.32980000 0.82082595
Li 1.66490000 1.66490000 -0.8325734600000025 0 0 0
Li 1.48908656 4.81582314 2.97186983
Li 4.99470000 4.99470000 -0.8325734600000025 0 0 0
Li 5.17051344 1.84377686 2.97186983
Ag 1.59111163 1.73842198 2.56295654
Ag 1.66490000 4.99470000 -0.8325734600000025 0 0 0
Ag 5.06848837 4.92124461 2.56295654
Ag 4.99470000 1.66490000 -0.8325734600000025 0 0 0
Sn 0.00000000 0.00000000 -2.4974704200000026 0 0 0
Sn 3.32980000 3.32980000 -2.4974704200000026 0 0 0
Sn 3.32980000 0.00000000 1.20849374
Sn 0.00000000 3.32980000 0.61411978
C 0.00000000 3.32980000 2.78016048
