&CONTROL
calculation = 'relax'
prefix = 'scf'
pseudo_dir = '/vol0403/data/hp230205/u10028/POT_HYBRID_KKJUS_GBRV'
outdir = './data'
tprnfor = .true.
nstep = 50
disk_io = 'non'
/
&SYSTEM
ibrav = 0
ecutwfc = 50.0
ecutrho = 400
occupations = 'smearing'
smearing = 'mp'
degauss = 0.01
assume_isolated = 'esm'
esm_bc = 'bc1'
input_dft = 'BEEF-VDW'
nosym = .true.
nspin = 1
ntyp = 4
nat = 32
/
&ELECTRONS
electron_maxstep = 200
mixing_beta = 0.1
conv_thr = 1e-06
/
&IONS
ion_dynamics = 'bfgs'
upscale = 1.0
/
&CELL
/

K_POINTS {automatic}
6 6 1 0 0 0

ATOMIC_SPECIES
Ga 69.72 Ga.pbe-dnl-rrkjus_psl.1.0.0.UPF
Pd 106.4 Pd.pbe-n-rrkjus_psl.1.0.0.UPF
Sc 44.95 Sc.pbe-spn-rrkjus_psl.1.0.0.UPF
Y 88.90 Y.pbe-spn-rrkjus_psl.1.0.0.UPF


CELL_PARAMETERS {angstrom}
7.06732000 0.00000000 0.00000000
0.00000000 9.48206000 0.00000000
0.00000000 0.00000000 27.39200000

ATOMIC_POSITIONS {angstrom}
Y 1.76683000 0.00000000 -1.2320921600000005 0 0 0
Y 1.76683000 0.00000000 3.69600256
Y 1.76683000 4.74103000 -1.2320921600000005 0 0 0
Y 1.76683000 4.74103000 3.69600256
Y 5.30049000 0.00000000 -1.2320921600000005 0 0 0
Y 5.30049000 0.00000000 3.69600256
Y 5.30049000 4.74103000 -1.2320921600000005 0 0 0
Y 5.30049000 4.74103000 3.69600256
Sc 1.76683000 2.37051500 -3.69600256 0 0 0
Sc 1.76683000 2.37051500 1.23209216
Sc 1.76683000 7.11154500 -3.69600256 0 0 0
Sc 1.76683000 7.11154500 1.23209216
Sc 5.30049000 2.37051500 -3.69600256 0 0 0
Sc 5.30049000 2.37051500 1.23209216
Sc 5.30049000 7.11154500 -3.69600256 0 0 0
Sc 5.30049000 7.11154500 1.23209216
Ga 0.00000000 0.00000000 -3.69600256 0 0 0
Ga 0.00000000 0.00000000 1.23209216
Ga 0.00000000 4.74103000 -3.69600256 0 0 0
Ga 0.00000000 4.74103000 1.23209216
Ga 3.53366000 0.00000000 -3.69600256 0 0 0
Ga 3.53366000 0.00000000 1.23209216
Ga 3.53366000 4.74103000 -3.69600256 0 0 0
Ga 3.53366000 4.74103000 1.23209216
Pd 0.00000000 2.37051500 -1.2320921600000005 0 0 0
Pd 0.00000000 2.37051500 3.69600256
Pd 0.00000000 7.11154500 -1.2320921600000005 0 0 0
Pd 0.00000000 7.11154500 3.69600256
Pd 3.53366000 2.37051500 -1.2320921600000005 0 0 0
Pd 3.53366000 2.37051500 3.69600256
Pd 3.53366000 7.11154500 -1.2320921600000005 0 0 0
Pd 3.53366000 7.11154500 3.69600256
