&CONTROL
calculation = 'relax'
prefix = 'scf'
pseudo_dir = '/vol0403/data/hp230205/u10028/POT_HYBRID_KKJUS_GBRV'
outdir = './data'
tprnfor = .true.
nstep = 50
disk_io = 'non'
/
&SYSTEM
ibrav = 0
ecutwfc = 50.0
ecutrho = 400
occupations = 'smearing'
smearing = 'mp'
degauss = 0.01
assume_isolated = 'esm'
esm_bc = 'bc1'
input_dft = 'BEEF-VDW'
nosym = .true.
nspin = 1
ntyp = 6
nat = 34
/
&ELECTRONS
electron_maxstep = 200
mixing_beta = 0.1
conv_thr = 1e-06
/
&IONS
ion_dynamics = 'bfgs'
upscale = 1.0
/
&CELL
/

K_POINTS {automatic}
6 6 1 0 0 0

ATOMIC_SPECIES
Al 26.98 Al.pbe-nl-rrkjus_psl.1.0.0.UPF
C 12.01 C.pbe-n-rrkjus_psl.1.0.0.UPF
Ge 72.64 Ge.pbe-dn-rrkjus_psl.1.0.0.UPF
Li 6.941 Li.pbe-sl-rrkjus_psl.1.0.0.UPF
O 15.99 O.pbe-n-rrkjus_psl.1.0.0.UPF
Pd 106.4 Pd.pbe-n-rrkjus_psl.1.0.0.UPF


CELL_PARAMETERS {angstrom}
7.42946000 0.00000000 0.00000000
0.00000000 8.01128000 0.00000000
0.00000000 0.00000000 26.07220000

ATOMIC_POSITIONS {angstrom}
Li 0.00000000 2.00282000 -1.0121228000000002 0 0 0
Li 0.00000000 2.00282000 3.03610769
Li 0.00000000 6.00846000 -1.0121228000000002 0 0 0
Li 0.00000000 6.00846000 3.03610769
Li 3.71473000 2.00282000 -1.0121228000000002 0 0 0
Li 3.71473000 2.00282000 3.03610769
Li 3.71473000 6.00846000 -1.0121228000000002 0 0 0
Li 3.71473000 6.00846000 3.03610769
Al 0.00000000 0.00000000 -3.036107689999998 0 0 0
Al 0.00000000 0.00000000 1.01212280
Al 0.00000000 4.00564000 -3.036107689999998 0 0 0
Al 0.00000000 4.00564000 1.01212280
Al 3.71473000 0.00000000 -3.036107689999998 0 0 0
Al 3.71473000 0.00000000 1.01212280
Al 3.71473000 4.00564000 -3.036107689999998 0 0 0
Al 3.71473000 4.00564000 1.01212280
Ge 1.85736500 0.00000000 -1.0121228000000002 0 0 0
Ge 1.85736500 0.00000000 3.03610769
Ge 1.85736500 4.00564000 -1.0121228000000002 0 0 0
Ge 1.85736500 4.00564000 3.03610769
Ge 5.57209500 0.00000000 -1.0121228000000002 0 0 0
Ge 5.57209500 0.00000000 3.03610769
Ge 5.57209500 4.00564000 -1.0121228000000002 0 0 0
Ge 5.57209500 4.00564000 3.03610769
Pd 1.85736500 2.00282000 -3.036107689999998 0 0 0
Pd 1.85736500 2.00282000 1.01212280
Pd 1.85736500 6.00846000 -3.036107689999998 0 0 0
Pd 1.85736500 6.00846000 1.01212280
Pd 5.57209500 2.00282000 -3.036107689999998 0 0 0
Pd 5.57209500 2.00282000 1.01212280
Pd 5.57209500 6.00846000 -3.036107689999998 0 0 0
Pd 5.57209500 6.00846000 1.01212280
C 1.85736500 0.00000000 4.93598890
O 1.85736500 0.00000000 6.08603365
