&CONTROL
calculation = 'relax'
prefix = 'scf'
pseudo_dir = '/vol0403/data/hp230205/u10028/POT_HYBRID_KKJUS_GBRV'
outdir = './data'
tprnfor = .true.
nstep = 70
disk_io = 'non'
/
&SYSTEM
ibrav = 0
ecutwfc = 50.0
ecutrho = 400
occupations = 'smearing'
smearing = 'mp'
degauss = 0.01
assume_isolated = 'esm'
esm_bc = 'bc1'
input_dft = 'BEEF-VDW'
nosym = .true.
nspin = 1
ntyp = 5
nat = 33
/
&ELECTRONS
electron_maxstep = 200
mixing_beta = 0.1
conv_thr = 1e-06
/
&IONS
ion_dynamics = 'bfgs'
upscale = 1.0
/
&CELL
/

K_POINTS {automatic}
9 6 2 0  0  0

ATOMIC_SPECIES
Al 26.98 Al.pbe-nl-rrkjus_psl.1.0.0.UPF
C 12.01 C.pbe-n-rrkjus_psl.1.0.0.UPF
Cu 63.54 Cu.pbe-dn-rrkjus_psl.1.0.0.UPF
Pd 106.4 Pd.pbe-n-rrkjus_psl.1.0.0.UPF
Sc 44.95 Sc.pbe-spn-rrkjus_psl.1.0.0.UPF


CELL_PARAMETERS {angstrom}
6.32596000 0.00000000 0.00000000
-0.00000000 8.94626000 0.00000000
0.00000000 0.00000000 26.70970000

ATOMIC_POSITIONS {angstrom}
Sc 0.00000000 2.23656500 -1.1183351400000028 0 0 0
Sc 0.00000000 6.70969500 -1.1183351400000028 0 0 0
Sc 3.16298000 4.47313000 -3.3547383200000027 0 0 0
Sc 3.16298000 0.00000000 -3.3547383200000027 0 0 0
Sc 6.15585494 6.70969500 3.46878874
Sc 0.20344287 2.23656500 3.71905863
Sc 3.16842033 8.93462986 1.09109125
Sc 3.16848359 4.48476014 1.09109125
Al 0.00000000 0.00000000 -3.3547383200000027 0 0 0
Al 0.00000000 4.47313000 -3.3547383200000027 0 0 0
Al 3.16298000 6.70969500 -1.1183351400000028 0 0 0
Al 3.16298000 2.23656500 -1.1183351400000028 0 0 0
Al 6.32077271 4.47080397 1.19766295
Al 6.32077271 0.00232603 1.19766295
Al 2.85914414 2.23656500 3.14880653
Al 3.16734491 6.70969500 3.27914987
Cu 4.74447000 0.00000000 -1.1183351400000028 0 0 0
Cu 4.74447000 4.47313000 -1.1183351400000028 0 0 0
Cu 1.58149000 2.23656500 -3.3547383200000027 0 0 0
Cu 1.58149000 6.70969500 -3.3547383200000027 0 0 0
Cu 4.51053600 4.27667013 3.51179136
Cu 4.51053600 0.19654933 3.51179136
Cu 1.47780752 6.70969500 1.20140231
Cu 1.43042608 2.23656500 1.12955321
Pd 1.58149000 0.00000000 -1.1183351400000028 0 0 0
Pd 1.58149000 4.47313000 -1.1183351400000028 0 0 0
Pd 4.74447000 2.23656500 -3.3547383200000027 0 0 0
Pd 4.74447000 6.70969500 -3.3547383200000027 0 0 0
Pd 1.61539715 4.58361631 3.24709823
Pd 1.61546041 8.83568423 3.24709823
Pd 4.83695554 6.70969500 1.08842028
Pd 4.85074613 2.23656500 1.26149913
C 4.53754785 2.23656500 3.98428595
