&CONTROL
calculation = 'relax'
prefix = 'scf'
pseudo_dir = '/vol0004/mdt0/data/hp150275/u10028/POT_KKJUS'
outdir = './data'
tprnfor = .true.
nstep = 50
disk_io = 'non'
/
&SYSTEM
ibrav = 0
ecutwfc = 50.0
ecutrho = 400
occupations = 'smearing'
smearing = 'mp'
degauss = 0.01
assume_isolated = 'esm'
esm_bc = 'bc1'
input_dft = 'BEEF-VDW'
nosym = .true.
nspin = 1
ntyp = 5
nat = 18
/
&ELECTRONS
electron_maxstep = 200
mixing_beta = 0.1
conv_thr = 1e-06
/
&IONS
ion_dynamics = 'bfgs'
upscale = 1.0
/
&CELL
/

K_POINTS {automatic}
8 8 1 0 0 0

ATOMIC_SPECIES
Al 26.98 Al.pbe-nl-rrkjus_psl.1.0.0.UPF
C 12.01 C.pbe-n-rrkjus_psl.1.0.0.UPF
Ni 58.69 Ni.pbe-spn-rrkjus_psl.1.0.0.UPF
O 15.99 O.pbe-n-rrkjus_psl.1.0.0.UPF
Ta 180.9 Ta.pbe-spn-rrkjus_psl.1.0.0.UPF

CELL_PARAMETERS {angstrom}
6.00328000 0.00000000 0.00000000
0.00000000 6.00328000 0.00000000
0.00000000 0.00000000 24.50250000

ATOMIC_POSITIONS {angstrom}
Ta 0.00000000 0.00006003 2.26231582
Ta 3.00170003 3.00176007 2.22580710
Ta 3.00164000 0.00000000 -0.7505115700000005 0 0 0
Ta 0.00000000 3.00164000 -0.7505115700000005 0 0 0
Al 0.00000000 0.00000000 -0.7505115700000005 0 0 0
Al 3.00157997 0.00000000 2.31009570
Al 0.00000000 3.00164000 2.30985068
Al 3.00164000 3.00164000 -0.7505115700000005 0 0 0
Ni 1.53395811 1.53371797 0.79878150
Ni 4.50246000 4.50246000 -2.251289700000001 0 0 0
Ni 4.46992222 1.53329774 0.79927155
Ni 1.50082000 4.50246000 -2.251289700000001 0 0 0
Ni 4.46968209 4.46974212 0.79927155
Ni 1.50082000 1.50082000 -2.251289700000001 0 0 0
Ni 1.53329774 4.46998226 0.79927155
Ni 4.50246000 1.50082000 -2.251289700000001 0 0 0
C 0.00000000 0.00006003 4.38104700
O 6.00321997 0.00000000 5.54026028
