&CONTROL
calculation = 'relax'
prefix = 'scf'
pseudo_dir = '/vol0004/mdt0/data/hp150275/u10028/POT_KKJUS'
outdir = './data'
tprnfor = .true.
nstep = 50
disk_io = 'non'
/
&SYSTEM
ibrav = 0
ecutwfc = 50.0
ecutrho = 400
occupations = 'smearing'
smearing = 'mp'
degauss = 0.01
assume_isolated = 'esm'
esm_bc = 'bc1'
input_dft = 'BEEF-VDW'
nosym = .true.
nspin = 1
ntyp = 4
nat = 34
/
&ELECTRONS
electron_maxstep = 200
mixing_beta = 0.1
conv_thr = 1e-06
/
&IONS
ion_dynamics = 'bfgs'
upscale = 1.0
/
&CELL
/

K_POINTS {automatic}
8 6 2 0  0  0

ATOMIC_SPECIES
C 12.01 C.pbe-n-rrkjus_psl.1.0.0.UPF
Mg 24.30 Mg.pbe-spnl-rrkjus_psl.1.0.0.UPF
O 15.99 O.pbe-n-rrkjus_psl.1.0.0.UPF
Y 88.90 Y.pbe-spn-rrkjus_psl.1.0.0.UPF

CELL_PARAMETERS {angstrom}
7.58049000 0.00000000 0.00000000
0.00000000 10.72040000 0.00000000
0.00000000 0.00000000 28.04030000

ATOMIC_POSITIONS {angstrom}
Y 0.00000000 0.00000000 -4.020137809999998 0 0 0
Y 0.00000000 2.68010000 -1.3400459399999995 0 0 0
Y 0.01569161 5.36020000 1.36079576
Y 7.56115975 2.67216690 3.91807112
Y 0.00000000 5.36020000 -4.020137809999998 0 0 0
Y 0.00000000 8.04030000 -1.3400459399999995 0 0 0
Y 7.53955535 0.00000000 1.30303274
Y 7.56115975 8.04823310 3.91807112
Y 3.79024500 0.00000000 -4.020137809999998 0 0 0
Y 3.79024500 2.68010000 -1.3400459399999995 0 0 0
Y 3.77455339 5.36020000 1.36079576
Y 3.80957525 2.67216690 3.91807112
Y 3.79024500 5.36020000 -4.020137809999998 0 0 0
Y 3.79024500 8.04030000 -1.3400459399999995 0 0 0
Y 3.83117965 0.00000000 1.30303274
Y 3.80957525 8.04823310 3.91807112
Mg 1.89512250 2.68010000 -4.020137809999998 0 0 0
Mg 1.89512250 0.00000000 -1.3400459399999995 0 0 0
Mg 1.89512250 2.66637789 1.30078952
Mg 1.89512250 5.36030720 4.08967776
Mg 1.89512250 8.04030000 -4.020137809999998 0 0 0
Mg 1.89512250 5.36020000 -1.3400459399999995 0 0 0
Mg 1.89512250 8.05402211 1.30078952
Mg 1.89512250 10.72018559 3.86928100
Mg 5.68536750 2.68010000 -4.020137809999998 0 0 0
Mg 5.68536750 0.00000000 -1.3400459399999995 0 0 0
Mg 5.68536750 2.69146362 1.28957340
Mg 5.68536750 5.36030720 4.06584350
Mg 5.68536750 8.04030000 -4.020137809999998 0 0 0
Mg 5.68536750 5.36020000 -1.3400459399999995 0 0 0
Mg 5.68536750 8.02893638 1.28957340
Mg 5.68536750 10.72018559 4.00976290
C 1.89512250 0.00000000 6.04296505
O 1.89512250 0.00000000 7.20411388
