&CONTROL
calculation = 'relax'
prefix = 'scf'
pseudo_dir = '/vol0004/mdt0/data/hp150275/u10028/POT_KKJUS'
outdir = './data'
tprnfor = .true.
nstep = 50
disk_io = 'non'
/
&SYSTEM
ibrav = 0
ecutwfc = 50.0
ecutrho = 400
occupations = 'smearing'
smearing = 'mp'
degauss = 0.01
assume_isolated = 'esm'
esm_bc = 'bc1'
input_dft = 'BEEF-VDW'
nosym = .true.
nspin = 1
ntyp = 5
nat = 34
/
&ELECTRONS
electron_maxstep = 200
mixing_beta = 0.1
conv_thr = 1e-06
/
&IONS
ion_dynamics = 'bfgs'
upscale = 1.0
/
&CELL
/

K_POINTS {automatic}
8 6 1 0 0 0

ATOMIC_SPECIES
Ag 107.8 Ag.pbe-n-rrkjus_psl.1.0.0.UPF
C 12.01 C.pbe-n-rrkjus_psl.1.0.0.UPF
Li 6.941 Li.pbe-sl-rrkjus_psl.1.0.0.UPF
O 15.99 O.pbe-n-rrkjus_psl.1.0.0.UPF
Sn 118.7 Sn.pbe-dn-rrkjus_psl.1.0.0.UPF

CELL_PARAMETERS {angstrom}
6.77071000 0.00000000 0.00000000
0.00000000 9.57522000 0.00000000
0.00000000 0.00000000 27.18140000

ATOMIC_POSITIONS {angstrom}
Li 0.00000000 0.00000000 -3.5906629400000014 0 0 0
Li 3.38535500 2.39380500 -1.1967970399999999 0 0 0
Li 3.38535500 7.18141500 -1.1967970399999999 0 0 0
Li 0.00000000 4.78761000 -3.5906629400000014 0 0 0
Li 6.76075706 4.78761000 1.17097471
Li 3.39415692 7.18725588 3.48465548
Li 3.39415692 2.38796412 3.48465548
Li 0.04448356 0.00000000 1.10383665
Ag 1.69267750 0.00000000 -1.1967970399999999 0 0 0
Ag 5.07803250 4.78761000 -1.1967970399999999 0 0 0
Ag 5.07803250 0.00000000 -1.1967970399999999 0 0 0
Ag 1.69267750 4.78761000 -1.1967970399999999 0 0 0
Ag 5.07803250 7.18141500 -3.5906629400000014 0 0 0
Ag 1.69267750 2.39380500 -3.5906629400000014 0 0 0
Ag 1.69267750 7.18141500 -3.5906629400000014 0 0 0
Ag 5.07803250 2.39380500 -3.5906629400000014 0 0 0
Ag 1.69491183 4.78761000 3.48057827
Ag 5.28298189 0.00000000 3.36940634
Ag 5.02285121 4.78761000 3.47840376
Ag 1.54900303 0.00000000 3.52325307
Ag 5.19651992 2.38557031 1.30062999
Ag 1.54832596 7.18495783 1.36097270
Ag 1.54825826 2.39035792 1.36097270
Ag 5.19651992 7.18964969 1.30062999
Sn 0.00000000 7.18141500 -1.1967970399999999 0 0 0
Sn 3.38535500 0.00000000 -3.5906629400000014 0 0 0
Sn 0.00000000 2.39380500 -1.1967970399999999 0 0 0
Sn 3.38535500 4.78761000 -3.5906629400000014 0 0 0
Sn 6.71566413 2.47739667 3.87824215
Sn 3.37486040 4.78761000 1.14841415
Sn 6.71559642 7.09782333 3.87824215
Sn 3.35996484 0.00000000 1.22778384
C 2.06296763 0.00000000 5.95870651
O 1.58380448 0.00000000 6.99458966
