&CONTROL
calculation = 'relax'
prefix = 'scf'
pseudo_dir = '/vol0004/mdt0/data/hp150275/u10028/POT_HYBRID_KKJUS_GBRV'
outdir = './data'
tprnfor = .true.
nstep = 50
disk_io = 'non'
/
&SYSTEM
ibrav = 0
ecutwfc = 50.0
ecutrho = 400
occupations = 'smearing'
smearing = 'mp'
degauss = 0.01
assume_isolated = 'esm'
esm_bc = 'bc1'
input_dft = 'BEEF-VDW'
nosym = .true.
nspin = 2
ntyp = 5
nat = 18
starting_magnetization(1) = 0.0
starting_magnetization(2) = 0.0
starting_magnetization(3) = 0.1
starting_magnetization(4) = 0.0
starting_magnetization(5) = 0.0
/
&ELECTRONS
electron_maxstep = 200
mixing_beta = 0.1
conv_thr = 1e-06
/
&IONS
ion_dynamics = 'bfgs'
upscale = 1.0
/
&CELL
/

K_POINTS {automatic}
10 10 2 0  0  0

ATOMIC_SPECIES
Al 26.98 Al.pbe-nl-rrkjus_psl.1.0.0.UPF
C 12.01 C.pbe-n-rrkjus_psl.1.0.0.UPF
Mn 54.93 mn_pbe_v1.5.uspp.F.UPF
O 15.99 O.pbe-n-rrkjus_psl.1.0.0.UPF
V 50.94 V.pbe-spnl-rrkjus_psl.1.0.0.UPF

CELL_PARAMETERS {angstrom}
5.82937000 0.00000000 0.00000000
0.00000000 5.82937000 0.00000000
0.00000000 0.00000000 24.37200000

ATOMIC_POSITIONS {angstrom}
Mn 1.45553540 1.45559369 0.79793928
Mn 4.37202750 4.37202750 22.18607532
Mn 4.37383460 1.45565198 0.79818300
Mn 1.45734250 4.37202750 22.18607532
Mn 4.37383460 4.37371802 0.79793928
Mn 1.45734250 1.45734250 22.18607532
Mn 1.45553540 4.37371802 0.79793928
Mn 4.37202750 1.45734250 22.18607532
Al 0.00000000 0.00000000 2.12962536
Al 2.91468500 2.91468500 2.18494980
Al 2.91468500 0.00000000 23.64327720
Al 0.00000000 2.91468500 23.64327720
V 0.00000000 0.00000000 23.64327720
V 2.91468500 0.00000000 2.02921272
V 5.82931171 2.91474329 2.02896900
V 2.91468500 2.91468500 23.64327720
C 0.00000000 0.00000000 4.11740568
O 0.00000000 0.00000000 5.28189984
