&CONTROL
calculation = 'relax'
prefix = 'scf'
pseudo_dir = '/vol0004/mdt0/data/hp150275/u10028/POT_HYBRID_KKJUS_GBRV'
outdir = './data'
tprnfor = .true.
nstep = 50
disk_io = 'non'
/
&SYSTEM
ibrav = 0
ecutwfc = 50.0
ecutrho = 400
occupations = 'smearing'
smearing = 'mp'
degauss = 0.01
assume_isolated = 'esm'
esm_bc = 'bc1'
input_dft = 'BEEF-VDW'
nosym = .true.
nspin = 2
ntyp = 4
nat = 33
starting_magnetization(1) = 0.0
starting_magnetization(2) = 0.1
starting_magnetization(3) = 0.0
starting_magnetization(4) = 0.0
/
&ELECTRONS
electron_maxstep = 300
mixing_beta = 0.1
conv_thr = 1e-06
/
&IONS
ion_dynamics = 'bfgs'
upscale = 1.0
/
&CELL
/

K_POINTS {automatic}
8 6 1 0 0 0

ATOMIC_SPECIES
C 12.01 C.pbe-n-rrkjus_psl.1.0.0.UPF
Co 58.93 co_pbe_v1.2.uspp.F.UPF
Hf 178.4 Hf.pbe-spn-rrkjus_psl.1.0.0.UPF
Sn 118.7 Sn.pbe-dn-rrkjus_psl.1.0.0.UPF

CELL_PARAMETERS {angstrom}
6.26570000 0.00000000 0.00000000
0.00000000 8.86104000 0.00000000
0.00000000 0.00000000 26.64580000

ATOMIC_POSITIONS {angstrom}
Hf 0.00000000 0.00000000 -3.32299772 0 0 0
Hf 3.13285000 2.21526000 -1.1076659100000015 0 0 0
Hf 3.13285000 6.64578000 -1.1076659100000015 0 0 0
Hf 0.00000000 4.43052000 -3.32299772 0 0 0
Hf 0.00000000 4.43052000 1.11645902
Hf 3.13285000 6.61990576 3.29688483
Hf 3.13285000 2.24113424 3.29688483
Hf 0.00000000 0.00000000 1.18254060
Co 1.56642500 0.00000000 -1.1076659100000015 0 0 0
Co 4.69927500 4.43052000 -1.1076659100000015 0 0 0
Co 4.69927500 0.00000000 -1.1076659100000015 0 0 0
Co 1.56642500 4.43052000 -1.1076659100000015 0 0 0
Co 4.69927500 6.64578000 -3.32299772 0 0 0
Co 1.56642500 2.21526000 -3.32299772 0 0 0
Co 1.56642500 6.64578000 -3.32299772 0 0 0
Co 4.69927500 2.21526000 -3.32299772 0 0 0
Co 1.59825476 4.43052000 3.15965896
Co 4.53680540 0.00000000 3.24545844
Co 4.66744524 4.43052000 3.15965896
Co 1.72889460 0.00000000 3.24545844
Co 4.70554070 2.21339918 1.16202334
Co 1.56015930 6.64772943 1.16202334
Co 1.56015930 2.21331057 1.16202334
Co 4.70554070 6.64764082 1.16202334
Sn 0.00000000 6.64578000 -1.1076659100000015 0 0 0
Sn 3.13285000 0.00000000 -3.32299772 0 0 0
Sn 0.00000000 2.21526000 -1.1076659100000015 0 0 0
Sn 3.13285000 4.43052000 -3.32299772 0 0 0
Sn 0.00000000 2.36979654 3.61370340
Sn 3.13285000 4.43052000 1.06156867
Sn 0.00000000 6.49124346 3.61370340
Sn 3.13285000 0.00000000 1.05304202
C 0.00000000 0.00000000 3.55854659
