&CONTROL
calculation = 'relax'
prefix = 'scf'
pseudo_dir = '/vol0403/data/hp230205/u10028/POT_HYBRID_KKJUS_GBRV'
outdir = './data'
tprnfor = .true.
nstep = 50
disk_io = 'non'
/
&SYSTEM
ibrav = 0
ecutwfc = 50.0
ecutrho = 400
occupations = 'smearing'
smearing = 'mp'
degauss = 0.01
assume_isolated = 'esm'
esm_bc = 'bc1'
input_dft = 'BEEF-VDW'
nosym = .true.
nspin = 1
ntyp = 6
nat = 34
/
&ELECTRONS
electron_maxstep = 200
mixing_beta = 0.1
conv_thr = 1e-06
/
&IONS
ion_dynamics = 'bfgs'
upscale = 1.0
/
&CELL
/

K_POINTS {automatic}
6 6 1 0 0 0

ATOMIC_SPECIES
C 12.01 C.pbe-n-rrkjus_psl.1.0.0.UPF
Ge 72.64 Ge.pbe-dn-rrkjus_psl.1.0.0.UPF
Li 6.941 Li.pbe-sl-rrkjus_psl.1.0.0.UPF
O 15.99 O.pbe-n-rrkjus_psl.1.0.0.UPF
Pb 207.2 Pb.pbe-dn-rrkjus_psl.1.0.0.UPF
Y 88.90 Y.pbe-spn-rrkjus_psl.1.0.0.UPF


CELL_PARAMETERS {angstrom}
9.86128000 0.00000000 0.00000000
0.00000000 8.55406000 0.00000000
0.00000000 0.00000000 26.49120000

ATOMIC_POSITIONS {angstrom}
Li 2.46532000 2.13851500 -3.2457018200000007 0 0 0
Li 2.47103954 2.13851500 1.11236549
Li 2.46532000 6.41554500 -3.2457018200000007 0 0 0
Li 2.48484533 6.41554500 1.10256374
Li 7.39596000 2.13851500 -3.2457018200000007 0 0 0
Li 7.39024046 2.13851500 1.11236549
Li 7.39596000 6.41554500 -3.2457018200000007 0 0 0
Li 7.37643467 6.41554500 1.10256374
Y 0.00000000 2.13851500 -1.0819006099999982 0 0 0
Y 0.00000000 2.13851500 3.17788435
Y 0.00000000 6.41554500 -1.0819006099999982 0 0 0
Y 0.00000000 6.41554500 3.16516858
Y 4.93064000 2.13851500 -1.0819006099999982 0 0 0
Y 4.93064000 2.13851500 3.19192469
Y 4.93064000 6.41554500 -1.0819006099999982 0 0 0
Y 4.93064000 6.41554500 3.19616328
Ge 0.00000000 0.00000000 -3.2457018200000007 0 0 0
Ge 0.00009861 8.54807216 1.14574440
Ge 0.00000000 4.27703000 -3.2457018200000007 0 0 0
Ge 9.86118139 4.28301784 1.14574440
Ge 4.93064000 0.00000000 -3.2457018200000007 0 0 0
Ge 4.93064000 0.00248068 1.15766544
Ge 4.93064000 4.27703000 -3.2457018200000007 0 0 0
Ge 4.93064000 4.27454932 1.15766544
Pb 2.46532000 0.00000000 -1.0819006099999982 0 0 0
Pb 2.47892857 8.54969743 3.45233318
Pb 2.46532000 4.27703000 -1.0819006099999982 0 0 0
Pb 2.47892857 4.28130703 3.45233318
Pb 7.39596000 0.00000000 -1.0819006099999982 0 0 0
Pb 7.38235143 8.54978297 3.45233318
Pb 7.39596000 4.27703000 -1.0819006099999982 0 0 0
Pb 7.38235143 4.28139257 3.45206827
C 0.00000000 2.13851500 5.65242734
O 0.00000000 2.13851500 6.80267525
