&CONTROL
calculation = 'relax'
prefix = 'scf'
pseudo_dir = '/vol0004/mdt0/data/hp150275/u10028/POT_KKJUS'
outdir = './data'
tprnfor = .true.
nstep = 50
disk_io = 'non'
/
&SYSTEM
ibrav = 0
ecutwfc = 50.0
ecutrho = 400
occupations = 'smearing'
smearing = 'mp'
degauss = 0.01
assume_isolated = 'esm'
esm_bc = 'bc1'
input_dft = 'BEEF-VDW'
nosym = .true.
nspin = 1
ntyp = 4
nat = 18
/
&ELECTRONS
electron_maxstep = 200
mixing_beta = 0.1
conv_thr = 1e-06
/
&IONS
ion_dynamics = 'bfgs'
upscale = 1.0
/
&CELL
/

K_POINTS {automatic}
6 8 1 0 0 0

ATOMIC_SPECIES
Au 196.9 Au.pbe-n-rrkjus_psl.1.0.0.UPF
C 12.01 C.pbe-n-rrkjus_psl.1.0.0.UPF
O 15.99 O.pbe-n-rrkjus_psl.1.0.0.UPF
Ti 47.86 Ti.pbe-spn-rrkjus_psl.1.0.0.UPF

CELL_PARAMETERS {angstrom}
8.18271000 0.00000000 0.00000000
0.00000000 5.78605000 0.00000000
0.00000000 0.00000000 24.33950000

ATOMIC_POSITIONS {angstrom}
Ti 0.00008183 2.89302500 2.07250843
Ti 2.04150432 4.31564111 0.67469094
Ti 2.04150432 1.47040889 0.67469094
Ti 0.00000000 0.00000000 -0.7233699400000013 0 0 0
Ti 2.04567750 1.44651250 -2.1698664200000017 0 0 0
Ti 2.04567750 4.33953750 -2.1698664200000017 0 0 0
Ti 4.09127317 2.89302500 2.02042190
Ti 6.14120568 4.31552539 0.67469094
Ti 6.14120568 1.47052461 0.67469094
Ti 4.09135500 0.00000000 -0.7233699400000013 0 0 0
Ti 6.13703250 1.44651250 -2.1698664200000017 0 0 0
Ti 6.13703250 4.33953750 -2.1698664200000017 0 0 0
Au 8.18238269 0.00000000 2.08102725
Au 0.00000000 2.89302500 -0.7233699400000013 0 0 0
Au 4.09160048 0.00000000 2.05303682
Au 4.09135500 2.89302500 -0.7233699400000013 0 0 0
C 0.00000000 2.89302500 4.23434282
O 0.00000000 2.89302500 5.38438419
