&CONTROL
calculation = 'relax'
prefix = 'scf'
pseudo_dir = '/vol0004/mdt0/data/hp150275/u10028/POT_KKJUS'
outdir = './data'
tprnfor = .true.
nstep = 50
disk_io = 'non'
/
&SYSTEM
ibrav = 0
ecutwfc = 50.0
ecutrho = 400
occupations = 'smearing'
smearing = 'mp'
degauss = 0.01
assume_isolated = 'esm'
esm_bc = 'bc1'
input_dft = 'BEEF-VDW'
nosym = .true.
nspin = 1
ntyp = 4
nat = 34
/
&ELECTRONS
electron_maxstep = 200
mixing_beta = 0.1
conv_thr = 1e-06
/
&IONS
ion_dynamics = 'bfgs'
upscale = 1.0
/
&CELL
/

K_POINTS {automatic}
8 6 1 0 0 0

ATOMIC_SPECIES
C 12.01 C.pbe-n-rrkjus_psl.1.0.0.UPF
Ga 69.72 Ga.pbe-dnl-rrkjus_psl.1.0.0.UPF
Ir 192.2 Ir.pbe-n-rrkjus_psl.0.2.3.UPF
O 15.99 O.pbe-n-rrkjus_psl.1.0.0.UPF

CELL_PARAMETERS {angstrom}
6.13393000 0.00000000 0.00000000
0.00000000 8.67469000 0.00000000
0.00000000 0.00000000 26.50600000

ATOMIC_POSITIONS {angstrom}
Ga 0.00000000 0.00000000 -3.253081380000001 0 0 0
Ga 0.00000000 2.16867250 -1.0843604599999992 0 0 0
Ga 0.00000000 0.00303614 1.10079418
Ga 0.00000000 2.16867250 3.48765948
Ga 0.00000000 4.33734500 -3.253081380000001 0 0 0
Ga 0.00000000 6.50601750 -1.0843604599999992 0 0 0
Ga 0.00000000 4.33430886 1.10079418
Ga 0.00000000 6.50601750 3.49561128
Ga 3.06696500 0.00000000 -3.253081380000001 0 0 0
Ga 3.06696500 2.16867250 -1.0843604599999992 0 0 0
Ga 3.06696500 8.67208759 1.10052912
Ga 3.06696500 2.16867250 3.50700886
Ga 3.06696500 4.33734500 -3.253081380000001 0 0 0
Ga 3.06696500 6.50601750 -1.0843604599999992 0 0 0
Ga 3.06696500 4.33994741 1.10052912
Ga 3.06696500 6.50601750 3.48606912
Ir 1.53348250 2.16867250 -3.253081380000001 0 0 0
Ir 1.53348250 4.33734500 -1.0843604599999992 0 0 0
Ir 1.53538402 2.16867250 0.99424006
Ir 1.53427991 4.33534982 3.12797306
Ir 1.53348250 6.50601750 -3.253081380000001 0 0 0
Ir 1.53348250 0.00000000 -1.0843604599999992 0 0 0
Ir 1.53188768 6.50601750 0.99609548
Ir 1.53427991 0.00199518 3.12770800
Ir 4.60044750 2.16867250 -3.253081380000001 0 0 0
Ir 4.60044750 4.33734500 -1.0843604599999992 0 0 0
Ir 4.59854598 2.16867250 0.99424006
Ir 4.59965009 4.33534982 3.12797306
Ir 4.60044750 6.50601750 -3.253081380000001 0 0 0
Ir 4.60044750 0.00000000 -1.0843604599999992 0 0 0
Ir 4.60198098 6.50601750 0.99609548
Ir 4.59965009 0.00199518 3.12797306
C 0.00024536 2.16875925 7.12613810
O 0.00000000 2.16867250 8.26085996
