&CONTROL
calculation = 'relax'
prefix = 'scf'
pseudo_dir = '/vol0004/mdt0/data/hp150275/u10028/POT_KKJUS'
outdir = './data'
tprnfor = .true.
nstep = 50
disk_io = 'non'
/
&SYSTEM
ibrav = 0
ecutwfc = 50.0
ecutrho = 400
occupations = 'smearing'
smearing = 'mp'
degauss = 0.01
assume_isolated = 'esm'
esm_bc = 'bc1'
input_dft = 'BEEF-VDW'
nosym = .true.
nspin = 1
ntyp = 4
nat = 33
/
&ELECTRONS
electron_maxstep = 200
mixing_beta = 0.1
conv_thr = 1e-06
/
&IONS
ion_dynamics = 'bfgs'
upscale = 1.0
/
&CELL
/

K_POINTS {automatic}
9 6 2 0  0  0

ATOMIC_SPECIES
Ag 107.8 Ag.pbe-n-rrkjus_psl.1.0.0.UPF
C 12.01 C.pbe-n-rrkjus_psl.1.0.0.UPF
In 114.8 In.pbe-dn-rrkjus_psl.1.0.0.UPF
Sc 44.95 Sc.pbe-spn-rrkjus_psl.1.0.0.UPF

CELL_PARAMETERS {angstrom}
6.85473000 0.00000000 0.00000000
0.00000000 9.69405000 0.00000000
0.00000000 0.00000000 27.27050000

ATOMIC_POSITIONS {angstrom}
Sc 0.00000000 0.00000000 -3.63515765 0 0 0
Sc 3.42736500 2.42351250 -1.211628319999999 0 0 0
Sc 3.42736500 7.27053750 -1.211628319999999 0 0 0
Sc 0.00000000 4.84702500 -3.63515765 0 0 0
Sc 0.00000000 4.84702500 1.34443565
Sc 3.42736500 7.58229815 3.52089425
Sc 3.42743355 2.11175185 3.52089425
Sc 0.00000000 0.00000000 1.41697518
In 0.00000000 7.27053750 -1.211628319999999 0 0 0
In 3.42736500 0.00000000 -3.63515765 0 0 0
In 0.00000000 2.42351250 -1.211628319999999 0 0 0
In 3.42736500 4.84702500 -3.63515765 0 0 0
In 0.00000000 2.57541826 3.68206291
In 3.42736500 4.84702500 1.14836075
In 0.00000000 7.11863174 3.68206291
In 3.42736500 0.00000000 1.18435782
Ag 1.71368250 0.00000000 -1.211628319999999 0 0 0
Ag 5.14104750 4.84702500 -1.211628319999999 0 0 0
Ag 5.14104750 0.00000000 -1.211628319999999 0 0 0
Ag 1.71368250 4.84702500 -1.211628319999999 0 0 0
Ag 5.14104750 7.27053750 -3.63515765 0 0 0
Ag 1.71368250 2.42351250 -3.63515765 0 0 0
Ag 1.71368250 7.27053750 -3.63515765 0 0 0
Ag 5.14104750 2.42351250 -3.63515765 0 0 0
Ag 1.91103018 4.84702500 3.70687906
Ag 5.51682380 0.00000000 4.20647462
Ag 4.94369982 4.84702500 3.70687906
Ag 1.33790620 0.00000000 4.20647462
Ag 5.16887770 2.44251284 1.17644937
Ag 1.68578375 7.25163410 1.17644937
Ag 1.68585230 2.44241590 1.17644937
Ag 5.16894625 7.25163410 1.17644937
C 3.42736500 0.00000000 3.56970845
