&CONTROL
calculation = 'relax'
prefix = 'scf'
pseudo_dir = '/vol0004/mdt0/data/hp150275/u10028/POT_HYBRID_KKJUS_GBRV'
outdir = './data'
tprnfor = .true.
nstep = 50
disk_io = 'non'
/
&SYSTEM
ibrav = 0
ecutwfc = 50.0
ecutrho = 400
occupations = 'smearing'
smearing = 'mp'
degauss = 0.01
assume_isolated = 'esm'
esm_bc = 'bc1'
input_dft = 'BEEF-VDW'
nosym = .true.
nspin = 2
ntyp = 5
nat = 34
starting_magnetization(1) = 0.0
starting_magnetization(2) = 0.1
starting_magnetization(3) = 0.1
starting_magnetization(4) = 0.0
starting_magnetization(5) = 0.0
/
&ELECTRONS
electron_maxstep = 300
mixing_beta = 0.1
conv_thr = 1e-06
/
&IONS
ion_dynamics = 'bfgs'
upscale = 1.0
/
&CELL
/

K_POINTS {automatic}
9 6 2 0  0  0

ATOMIC_SPECIES
C 12.01 C.pbe-n-rrkjus_psl.1.0.0.UPF
Co 58.93 co_pbe_v1.2.uspp.F.UPF
Mn 54.93 mn_pbe_v1.5.uspp.F.UPF
O 15.99 O.pbe-n-rrkjus_psl.1.0.0.UPF
Sn 118.7 Sn.pbe-dn-rrkjus_psl.1.0.0.UPF

CELL_PARAMETERS {angstrom}
6.01864000 0.00000000 0.00000000
0.00000000 8.51164000 0.00000000
0.00000000 0.00000000 26.38370000

ATOMIC_POSITIONS {angstrom}
Mn 0.00000000 0.00000000 -3.1919000299999993 0 0 0
Mn 3.00932000 2.12791000 -1.0640546200000003 0 0 0
Mn 3.00932000 6.38373000 -1.0640546200000003 0 0 0
Mn 0.00000000 4.25582000 -3.1919000299999993 0 0 0
Mn 0.00000000 4.25369209 1.09861727
Mn 3.00932000 6.38381512 3.12171938
Mn 3.00932000 2.12782488 3.07686709
Mn 0.00000000 0.00212791 1.09861727
Co 1.50466000 0.00000000 -1.0640546200000003 0 0 0
Co 4.51398000 4.25582000 -1.0640546200000003 0 0 0
Co 4.51398000 0.00000000 -1.0640546200000003 0 0 0
Co 1.50466000 4.25582000 -1.0640546200000003 0 0 0
Co 4.51398000 6.38373000 -3.1919000299999993 0 0 0
Co 1.50466000 2.12791000 -3.1919000299999993 0 0 0
Co 1.50466000 6.38373000 -3.1919000299999993 0 0 0
Co 4.51398000 2.12791000 -3.1919000299999993 0 0 0
Co 1.51910474 4.23207252 3.15179680
Co 4.49965564 0.02366236 3.15179680
Co 4.49953526 4.23207252 3.15179680
Co 1.51898436 0.02366236 3.15179680
Co 4.54058239 2.12782488 1.08938297
Co 1.46505735 6.38390023 1.10336633
Co 1.47805761 2.12782488 1.08938297
Co 4.55358265 6.38381512 1.10336633
Sn 0.00000000 6.38373000 -1.0640546200000003 0 0 0
Sn 3.00932000 0.00000000 -3.1919000299999993 0 0 0
Sn 0.00000000 2.12791000 -1.0640546200000003 0 0 0
Sn 3.00932000 4.25582000 -3.1919000299999993 0 0 0
Sn 0.00000000 2.12791000 3.36576861
Sn 3.00932000 4.25828838 1.04136464
Sn 0.00000000 6.38373000 3.39953974
Sn 3.00932000 8.50917162 1.04136464
C 3.00932000 2.12791000 4.93876480
O 3.00932000 2.12791000 6.10070295
