&CONTROL
calculation = 'relax'
prefix = 'scf'
pseudo_dir = '/vol0403/data/hp230205/u10028/POT_HYBRID_KKJUS_GBRV'
outdir = './data'
tprnfor = .true.
nstep = 50
disk_io = 'non'
/
&SYSTEM
ibrav = 0
ecutwfc = 50.0
ecutrho = 400
occupations = 'smearing'
smearing = 'mp'
degauss = 0.01
assume_isolated = 'esm'
esm_bc = 'bc1'
input_dft = 'BEEF-VDW'
nosym = .true.
nspin = 1
ntyp = 6
nat = 34
/
&ELECTRONS
electron_maxstep = 200
mixing_beta = 0.1
conv_thr = 1e-06
/
&IONS
ion_dynamics = 'bfgs'
upscale = 1.0
/
&CELL
/

K_POINTS {automatic}
9 6 2 0  0  0

ATOMIC_SPECIES
C 12.01 C.pbe-n-rrkjus_psl.1.0.0.UPF
Ge 72.64 Ge.pbe-dn-rrkjus_psl.1.0.0.UPF
Li 6.941 Li.pbe-sl-rrkjus_psl.1.0.0.UPF
O 15.99 O.pbe-n-rrkjus_psl.1.0.0.UPF
Pb 207.2 Pb.pbe-dn-rrkjus_psl.1.0.0.UPF
Pd 106.4 Pd.pbe-n-rrkjus_psl.1.0.0.UPF


CELL_PARAMETERS {angstrom}
6.74945000 0.00000000 0.00000000
0.00000000 9.54516000 0.00000000
0.00000000 0.00000000 27.15890000

ATOMIC_POSITIONS {angstrom}
Li 1.68736250 0.00000000 -1.1930904799999986 0 0 0
Li 1.68736250 4.77258000 -1.1930904799999986 0 0 0
Li 5.06208750 2.38629000 -3.579543019999999 0 0 0
Li 5.06208750 7.15887000 -3.579543019999999 0 0 0
Li 2.60312788 4.87032244 4.04233068
Li 2.60326287 9.44751301 4.04178750
Li 5.81249135 7.15887000 1.58879565
Li 5.55243504 2.38629000 1.59449902
Ge 0.00000000 0.00000000 -3.579543019999999 0 0 0
Ge 0.00000000 4.77258000 -3.579543019999999 0 0 0
Ge 3.37472500 7.15887000 -1.1930904799999986 0 0 0
Ge 3.37472500 2.38629000 -1.1930904799999986 0 0 0
Ge 0.60265839 4.79835193 1.84571884
Ge 0.60265839 9.51938807 1.84599043
Ge 4.22522319 2.38629000 4.12570850
Ge 4.04082822 7.15887000 3.72484313
Pd 5.06208750 0.00000000 -1.1930904799999986 0 0 0
Pd 5.06208750 4.77258000 -1.1930904799999986 0 0 0
Pd 1.68736250 2.38629000 -3.579543019999999 0 0 0
Pd 1.68736250 7.15887000 -3.579543019999999 0 0 0
Pd 5.34374205 4.73124946 3.48720276
Pd 5.34367455 0.04113964 3.48720276
Pd 1.94876870 7.15877455 2.12029532
Pd 1.63896894 2.38629000 1.13578520
Pb 0.00000000 2.38629000 -1.1930904799999986 0 0 0
Pb 0.00000000 7.15887000 -1.1930904799999986 0 0 0
Pb 3.37472500 4.77258000 -3.579543019999999 0 0 0
Pb 3.37472500 0.00000000 -3.579543019999999 0 0 0
Pb 0.17109856 7.15877455 4.45894820
Pb 0.68459671 2.38629000 4.02712169
Pb 3.58557782 9.47929840 1.20232450
Pb 3.58557782 4.83834615 1.20232450
C 4.88174220 2.38629000 5.99614194
O 5.05412315 2.38629000 7.14577818
