&CONTROL
calculation = 'relax'
prefix = 'scf'
pseudo_dir = '/vol0403/data/hp230205/u10028/POT_HYBRID_KKJUS_GBRV'
outdir = './data'
tprnfor = .true.
nstep = 50
disk_io = 'non'
/
&SYSTEM
ibrav = 0
ecutwfc = 50.0
ecutrho = 400
occupations = 'smearing'
smearing = 'mp'
degauss = 0.01
assume_isolated = 'esm'
esm_bc = 'bc1'
input_dft = 'BEEF-VDW'
nosym = .true.
nspin = 1
ntyp = 6
nat = 34
/
&ELECTRONS
electron_maxstep = 200
mixing_beta = 0.1
conv_thr = 1e-06
/
&IONS
ion_dynamics = 'bfgs'
upscale = 1.0
/
&CELL
/

K_POINTS {automatic}
6 6 1 0 0 0

ATOMIC_SPECIES
C 12.01 C.pbe-n-rrkjus_psl.1.0.0.UPF
Ge 72.64 Ge.pbe-dn-rrkjus_psl.1.0.0.UPF
Li 6.941 Li.pbe-sl-rrkjus_psl.1.0.0.UPF
O 15.99 O.pbe-n-rrkjus_psl.1.0.0.UPF
Pd 106.4 Pd.pbe-n-rrkjus_psl.1.0.0.UPF
Sc 44.95 Sc.pbe-spn-rrkjus_psl.1.0.0.UPF


CELL_PARAMETERS {angstrom}
6.30999000 0.00000000 0.00000000
0.00000000 8.92368000 0.00000000
0.00000000 0.00000000 26.69280000

ATOMIC_POSITIONS {angstrom}
Li 4.73249250 0.00000000 -1.1154921099999981 0 0 0
Li 4.73249250 4.46184000 -1.1154921099999981 0 0 0
Li 1.57749750 2.23092000 -3.346476339999999 0 0 0
Li 1.57749750 6.69276000 -3.346476339999999 0 0 0
Li 3.65689160 4.46166153 4.65842746
Li 3.73570338 8.92359076 4.60744421
Li 1.53717666 6.68892282 1.18649496
Li 1.53787076 2.23573879 1.18622803
Sc 0.00000000 2.23092000 -1.1154921099999981 0 0 0
Sc 0.00000000 6.69276000 -1.1154921099999981 0 0 0
Sc 3.15499500 4.46184000 -3.346476339999999 0 0 0
Sc 3.15499500 0.00000000 -3.346476339999999 0 0 0
Sc 6.03910213 6.63341753 3.32779138
Sc 6.03916523 2.29053018 3.32752445
Sc 3.17442977 0.00017847 1.29086381
Sc 3.20926091 4.46273237 1.24468526
Ge 0.00000000 0.00000000 -3.346476339999999 0 0 0
Ge 0.00000000 4.46184000 -3.346476339999999 0 0 0
Ge 3.15499500 6.69276000 -1.1154921099999981 0 0 0
Ge 3.15499500 2.23092000 -1.1154921099999981 0 0 0
Ge 6.24089561 4.46201847 1.10481499
Ge 6.30841250 0.00098160 1.12590230
Ge 3.12174135 2.24252078 3.34140470
Ge 3.12180445 6.68106998 3.34113778
Pd 1.57749750 0.00000000 -1.1154921099999981 0 0 0
Pd 1.57749750 4.46184000 -1.1154921099999981 0 0 0
Pd 4.73249250 2.23092000 -3.346476339999999 0 0 0
Pd 4.73249250 6.69276000 -3.346476339999999 0 0 0
Pd 1.42309204 4.46148305 3.21968554
Pd 1.33355329 8.92359076 3.47753798
Pd 4.73097810 6.70766255 1.05062861
Pd 4.72996850 2.21726677 1.05089554
C 0.59989075 8.92341229 5.26915872
O 0.31777110 0.00017847 6.40573814
