&CONTROL
calculation = 'relax'
prefix = 'scf'
pseudo_dir = '/vol0004/mdt0/data/hp150275/u10028/POT_HYBRID_KKJUS_GBRV'
outdir = './data'
tprnfor = .true.
nstep = 70
disk_io = 'non'
/
&SYSTEM
ibrav = 0
ecutwfc = 50.0
ecutrho = 400
occupations = 'smearing'
smearing = 'mp'
degauss = 0.01
assume_isolated = 'esm'
esm_bc = 'bc1'
input_dft = 'BEEF-VDW'
nosym = .true.
nspin = 1
ntyp = 4
nat = 18
/
&ELECTRONS
electron_maxstep = 200
mixing_beta = 0.1
conv_thr = 1e-06
/
&IONS
ion_dynamics = 'bfgs'
upscale = 1.0
/
&CELL
/

K_POINTS {automatic}
8 8 1 0 0 0

ATOMIC_SPECIES
C 12.01 C.pbe-n-rrkjus_psl.1.0.0.UPF
Ca 40.07 Ca.pbe-spn-rrkjus_psl.1.0.0.UPF
O 15.99 O.pbe-n-rrkjus_psl.1.0.0.UPF
Pb 207.2 Pb.pbe-dn-rrkjus_psl.1.0.0.UPF

CELL_PARAMETERS {angstrom}
7.36738000 0.00000000 0.00000000
0.00000000 7.36738000 0.00000000
0.00000000 0.00000000 26.89040000

ATOMIC_POSITIONS {angstrom}
Ca 0.00000000 0.00000000 -4.2212549899999985 0 0 0
Ca 7.33820518 7.35264524 0.32537384
Ca 0.00000000 3.68369000 -4.2212549899999985 0 0 0
Ca 7.34085743 3.71441197 0.46412830
Ca 3.68369000 0.00000000 -4.2212549899999985 0 0 0
Ca 3.70019293 7.34454112 0.12853611
Ca 3.68369000 3.68369000 -4.2212549899999985 0 0 0
Ca 3.71072828 3.71787464 0.28261810
Pb 1.84184500 1.84184500 -1.9245459300000007 0 0 0
Pb 1.95883899 1.76515057 2.29509564
Pb 1.84184500 5.52553500 -1.9245459300000007 0 0 0
Pb 2.09513552 5.71377156 2.84634884
Pb 5.52553500 1.84184500 -1.9245459300000007 0 0 0
Pb 5.25979360 1.61264581 2.84016405
Pb 5.52553500 5.52553500 -1.9245459300000007 0 0 0
Pb 5.36603122 5.67266158 2.61132674
C 1.64624106 1.87337739 5.98203838
O 1.96016512 1.76588731 7.06814164
