&CONTROL
calculation = 'relax'
prefix = 'scf'
pseudo_dir = '/vol0004/mdt0/data/hp150275/u10028/POT_KKJUS'
outdir = './data'
tprnfor = .true.
nstep = 50
disk_io = 'non'
/
&SYSTEM
ibrav = 0
ecutwfc = 50.0
ecutrho = 400
occupations = 'smearing'
smearing = 'mp'
degauss = 0.01
assume_isolated = 'esm'
esm_bc = 'bc1'
input_dft = 'BEEF-VDW'
nosym = .true.
nspin = 1
ntyp = 4
nat = 18
/
&ELECTRONS
electron_maxstep = 200
mixing_beta = 0.1
conv_thr = 1e-06
/
&IONS
ion_dynamics = 'bfgs'
upscale = 1.0
/
&CELL
/

K_POINTS {automatic}
6 8 1 0 0 0

ATOMIC_SPECIES
C 12.01 C.pbe-n-rrkjus_psl.1.0.0.UPF
Nb 92.90 Nb.pbe-spn-rrkjus_psl.1.0.0.UPF
O 15.99 O.pbe-n-rrkjus_psl.1.0.0.UPF
Si 28.08 Si.pbe-nl-rrkjus_psl.1.0.0.UPF

CELL_PARAMETERS {angstrom}
8.14544000 0.00000000 0.00000000
0.00000000 5.75970000 0.00000000
0.00000000 0.00000000 24.31980000

ATOMIC_POSITIONS {angstrom}
Nb 0.00000000 2.87985000 2.04578158
Nb 2.04026981 4.32144531 0.77409923
Nb 2.04026981 1.43825469 0.77409923
Nb 0.00000000 0.00000000 -0.7198660799999992 0 0 0
Nb 2.03636000 1.43992500 -2.159841440000001 0 0 0
Nb 2.03636000 4.31977500 -2.159841440000001 0 0 0
Nb 4.07272000 2.87985000 1.97841573
Nb 6.10517019 4.32144531 0.77409923
Nb 6.10517019 1.43825469 0.77409923
Nb 4.07272000 0.00000000 -0.7198660799999992 0 0 0
Nb 6.10908000 1.43992500 -2.159841440000001 0 0 0
Nb 6.10908000 4.31977500 -2.159841440000001 0 0 0
Si 0.00000000 0.00000000 1.98352289
Si 0.00000000 2.87985000 -0.7198660799999992 0 0 0
Si 4.07272000 0.00000000 1.98546847
Si 4.07272000 2.87985000 -0.7198660799999992 0 0 0
C 0.00000000 2.87985000 4.23018601
O 0.00000000 2.87985000 5.38026935
