&CONTROL
calculation = 'relax'
prefix = 'scf'
pseudo_dir = '/vol0004/mdt0/data/hp150275/u10028/POT_KKJUS'
outdir = './data'
tprnfor = .true.
nstep = 50
disk_io = 'non'
/
&SYSTEM
ibrav = 0
ecutwfc = 50.0
ecutrho = 400
occupations = 'smearing'
smearing = 'mp'
degauss = 0.01
assume_isolated = 'esm'
esm_bc = 'bc1'
input_dft = 'BEEF-VDW'
nosym = .true.
nspin = 1
ntyp = 4
nat = 33
/
&ELECTRONS
electron_maxstep = 200
mixing_beta = 0.1
conv_thr = 1e-06
/
&IONS
ion_dynamics = 'bfgs'
upscale = 1.0
/
&CELL
/

K_POINTS {automatic}
9 6 2 0  0  0

ATOMIC_SPECIES
Al 26.98 Al.pbe-nl-rrkjus_psl.1.0.0.UPF
C 12.01 C.pbe-n-rrkjus_psl.1.0.0.UPF
Ni 58.69 Ni.pbe-spn-rrkjus_psl.1.0.0.UPF
Ti 47.86 Ti.pbe-spn-rrkjus_psl.1.0.0.UPF

CELL_PARAMETERS {angstrom}
5.94410000 0.00000000 0.00000000
0.00000000 8.40623000 0.00000000
0.00000000 0.00000000 26.30470000

ATOMIC_POSITIONS {angstrom}
Ti 0.00000000 0.00000000 -3.1523552499999994 0 0 0
Ti 2.97205000 2.10155750 -1.0508727700000016 0 0 0
Ti 2.97205000 6.30467250 -1.0508727700000016 0 0 0
Ti 0.00000000 4.20311500 -3.1523552499999994 0 0 0
Ti 0.00000000 4.20319906 1.02851377
Ti 2.97205000 6.24397952 3.14577907
Ti 2.97205000 2.16216642 3.14551603
Ti 0.00000000 8.40614594 1.10558654
Al 0.00000000 6.30467250 -1.0508727700000016 0 0 0
Al 2.97205000 0.00000000 -3.1523552499999994 0 0 0
Al 0.00000000 2.10155750 -1.0508727700000016 0 0 0
Al 2.97205000 4.20311500 -3.1523552499999994 0 0 0
Al 0.00000000 2.07095882 3.15472267
Al 2.97205000 4.20303094 1.04271831
Al 0.00000000 6.33518711 3.15445962
Al 2.97205000 0.00008406 1.02009627
Ni 1.48602500 0.00000000 -1.0508727700000016 0 0 0
Ni 4.45807500 4.20311500 -1.0508727700000016 0 0 0
Ni 4.45807500 0.00000000 -1.0508727700000016 0 0 0
Ni 1.48602500 4.20311500 -1.0508727700000016 0 0 0
Ni 4.45807500 6.30467250 -3.1523552499999994 0 0 0
Ni 1.48602500 2.10155750 -3.1523552499999994 0 0 0
Ni 1.48602500 6.30467250 -3.1523552499999994 0 0 0
Ni 4.45807500 2.10155750 -3.1523552499999994 0 0 0
Ni 1.39834952 4.20311500 3.02135784
Ni 4.18773733 8.40606188 3.15840533
Ni 4.54575048 4.20311500 3.02135784
Ni 1.75642211 8.40614594 3.15840533
Ni 4.40576692 2.11921058 1.04850534
Ni 1.53863028 6.28693535 1.04850534
Ni 1.53839252 2.11921058 1.04850534
Ni 4.40546971 6.28693535 1.04850534
C 0.00000000 0.00000000 3.42460889
