&CONTROL
calculation = 'relax'
prefix = 'scf'
pseudo_dir = '/vol0004/mdt0/data/hp150275/u10028/POT_HYBRID_KKJUS_GBRV'
outdir = './data'
tprnfor = .true.
nstep = 50
disk_io = 'non'
/
&SYSTEM
ibrav = 0
ecutwfc = 50.0
ecutrho = 400
occupations = 'smearing'
smearing = 'mp'
degauss = 0.01
assume_isolated = 'esm'
esm_bc = 'bc1'
input_dft = 'BEEF-VDW'
nosym = .true.
nspin = 2
ntyp = 5
nat = 34
starting_magnetization(1) = 0.0
starting_magnetization(2) = 0.1
starting_magnetization(3) = 0.0
starting_magnetization(4) = 0.001
starting_magnetization(5) = 0.0
/
&ELECTRONS
electron_maxstep = 300
mixing_beta = 0.1
conv_thr = 1e-06
/
&IONS
ion_dynamics = 'bfgs'
upscale = 1.0
/
&CELL
/

K_POINTS {automatic}
9 6 2 0  0  0

ATOMIC_SPECIES
C 12.01 C.pbe-n-rrkjus_psl.1.0.0.UPF
Fe 55.84 fe_pbe_v1.5.uspp.F.UPF
Ga 69.72 Ga.pbe-dnl-rrkjus_psl.1.0.0.UPF
Ni 58.69 ni_pbe_v1.4.uspp.F.UPF
O 15.99 O.pbe-n-rrkjus_psl.1.0.0.UPF

CELL_PARAMETERS {angstrom}
5.81401000 0.00000000 0.00000000
0.00000000 8.22225000 0.00000000
0.00000000 0.00000000 26.16670000

ATOMIC_POSITIONS {angstrom}
Ga 0.00000000 0.00000000 -3.0832222599999994 0 0 0
Ga 2.90700500 2.05556250 -1.0278279799999979 0 0 0
Ga 2.90700500 6.16668750 -1.0278279799999979 0 0 0
Ga 0.00000000 4.11112500 -3.0832222599999994 0 0 0
Ga 0.00000000 4.27844779 1.02023963
Ga 2.90717942 6.16619417 3.74785644
Ga 2.90683058 2.05523361 3.30851755
Ga 0.00005814 8.05624277 1.02076297
Fe 1.45350250 0.00000000 -1.0278279799999979 0 0 0
Fe 4.36050750 4.11112500 -1.0278279799999979 0 0 0
Fe 4.36050750 0.00000000 -1.0278279799999979 0 0 0
Fe 1.45350250 4.11112500 -1.0278279799999979 0 0 0
Fe 4.36050750 6.16668750 -3.0832222599999994 0 0 0
Fe 1.45350250 2.05556250 -3.0832222599999994 0 0 0
Fe 1.45350250 6.16668750 -3.0832222599999994 0 0 0
Fe 4.36050750 2.05556250 -3.0832222599999994 0 0 0
Fe 1.61455058 4.17698522 2.97358379
Fe 4.19911058 8.15573200 2.97410712
Fe 4.19957570 4.17673856 2.97358379
Fe 1.61507384 8.15548533 2.97410712
Fe 4.54673024 2.05646695 1.14191479
Fe 1.70577239 6.16718083 1.22119989
Fe 1.26722162 2.05646695 1.14165312
Fe 4.10817947 6.16718084 1.22119989
Ni 0.00000000 6.16668750 -1.0278279799999979 0 0 0
Ni 2.90700500 0.00000000 -3.0832222599999994 0 0 0
Ni 0.00000000 2.05556250 -1.0278279799999979 0 0 0
Ni 2.90700500 4.11112500 -3.0832222599999994 0 0 0
Ni 0.00029070 2.05474028 3.32081590
Ni 2.90700500 3.86190860 0.86533277
Ni 5.81395186 6.16635861 2.95055709
Ni 2.90694686 0.25069640 0.86611777
C 5.81395186 2.05457583 5.09308649
O 5.81383558 2.05523361 6.24860796
