&CONTROL
calculation = 'relax'
prefix = 'scf'
pseudo_dir = '/vol0004/mdt0/data/hp150275/u10028/POT_KKJUS'
outdir = './data'
tprnfor = .true.
nstep = 50
disk_io = 'non'
/
&SYSTEM
ibrav = 0
ecutwfc = 50.0
ecutrho = 400
occupations = 'smearing'
smearing = 'mp'
degauss = 0.01
assume_isolated = 'esm'
esm_bc = 'bc1'
input_dft = 'BEEF-VDW'
nosym = .true.
nspin = 1
ntyp = 3
nat = 18
/
&ELECTRONS
electron_maxstep = 200
mixing_beta = 0.1
conv_thr = 1e-06
/
&IONS
ion_dynamics = 'bfgs'
upscale = 1.0
/
&CELL
/

K_POINTS {automatic}
9 9 2 0  0  0

ATOMIC_SPECIES
C 12.01 C.pbe-n-rrkjus_psl.1.0.0.UPF
O 15.99 O.pbe-n-rrkjus_psl.1.0.0.UPF
Pb 207.2 Pb.pbe-dn-rrkjus_psl.1.0.0.UPF

CELL_PARAMETERS {angstrom}
8.09136000 0.00000000 0.00000000
0.00000000 8.09136000 0.00000000
0.00000000 0.00000000 26.06850000

ATOMIC_POSITIONS {angstrom}
Pb 0.00000000 0.00000000 -3.0343733999999998 0 0 0
Pb 2.02284000 2.02284000 -1.0114577999999987 0 0 0
Pb 7.88956148 7.88931874 1.34539529
Pb 2.02292091 2.02275909 2.62040562
Pb 0.00000000 4.04568000 -3.0343733999999998 0 0 0
Pb 2.02284000 6.06852000 -1.0114577999999987 0 0 0
Pb 7.88988514 4.24764035 1.34513460
Pb 2.02275909 6.06843909 3.19443399
Pb 4.04568000 0.00000000 -3.0343733999999998 0 0 0
Pb 6.06852000 2.02284000 -1.0114577999999987 0 0 0
Pb 4.24723578 7.88923783 1.34487391
Pb 6.06860091 2.02267817 3.19521605
Pb 4.04568000 4.04568000 -3.0343733999999998 0 0 0
Pb 6.06852000 6.06852000 -1.0114577999999987 0 0 0
Pb 4.24747852 4.24764035 1.34565597
Pb 6.06876274 6.06868183 3.61752575
C 2.02186904 2.02373005 6.70977121
O 2.02308274 2.02284000 7.84375096
