&CONTROL
calculation = 'relax'
prefix = 'scf'
pseudo_dir = '/vol0004/mdt0/data/hp150275/u10028/POT_KKJUS'
outdir = './data'
tprnfor = .true.
nstep = 50
disk_io = 'non'
/
&SYSTEM
ibrav = 0
ecutwfc = 50.0
ecutrho = 400
occupations = 'smearing'
smearing = 'mp'
degauss = 0.01
assume_isolated = 'esm'
esm_bc = 'bc1'
input_dft = 'BEEF-VDW'
nosym = .true.
nspin = 1
ntyp = 5
nat = 18
/
&ELECTRONS
electron_maxstep = 200
mixing_beta = 0.1
conv_thr = 1e-06
/
&IONS
ion_dynamics = 'bfgs'
upscale = 1.0
/
&CELL
/

K_POINTS {automatic}
8 8 1 0 0 0

ATOMIC_SPECIES
C 12.01 C.pbe-n-rrkjus_psl.1.0.0.UPF
Li 6.941 Li.pbe-sl-rrkjus_psl.1.0.0.UPF
Mg 24.30 Mg.pbe-spnl-rrkjus_psl.1.0.0.UPF
O 15.99 O.pbe-n-rrkjus_psl.1.0.0.UPF
Pb 207.2 Pb.pbe-dn-rrkjus_psl.1.0.0.UPF

CELL_PARAMETERS {angstrom}
6.88544000 0.00000000 0.00000000
0.00000000 6.88544000 0.00000000
0.00000000 0.00000000 25.16410000

ATOMIC_POSITIONS {angstrom}
Li 1.74022611 1.74084580 0.84954002
Li 5.16408000 5.16408000 -2.5820883000000023 0 0 0
Li 5.14473191 1.74132778 0.85004330
Li 1.72136000 5.16408000 -2.5820883000000023 0 0 0
Li 5.14480077 5.14404337 0.85004330
Li 1.72136000 1.72136000 -2.5820883000000023 0 0 0
Li 1.74022611 5.14445650 0.84954002
Li 5.16408000 1.72136000 -2.5820883000000023 0 0 0
Mg 6.88406291 0.00013771 2.57428743
Mg 3.44327084 3.44244458 2.71495475
Mg 3.44272000 0.00000000 -0.8606122200000001 0 0 0
Mg 0.00000000 3.44272000 -0.8606122200000001 0 0 0
Pb 0.00000000 0.00000000 -0.8606122200000001 0 0 0
Pb 3.44540532 0.00000000 2.63291978
Pb 0.00571492 3.44320198 2.64248214
Pb 3.44272000 3.44272000 -0.8606122200000001 0 0 0
C 6.88475146 6.88530229 4.83402361
O 6.88364979 6.88495802 5.97496390
