&CONTROL
calculation = 'relax'
prefix = 'scf'
pseudo_dir = '/vol0004/mdt0/data/hp150275/u10028/POT_KKJUS'
outdir = './data'
tprnfor = .true.
nstep = 50
disk_io = 'non'
/
&SYSTEM
ibrav = 0
ecutwfc = 50.0
ecutrho = 400
occupations = 'smearing'
smearing = 'mp'
degauss = 0.01
assume_isolated = 'esm'
esm_bc = 'bc1'
input_dft = 'BEEF-VDW'
nosym = .true.
nspin = 1
ntyp = 4
nat = 34
/
&ELECTRONS
electron_maxstep = 200
mixing_beta = 0.1
conv_thr = 1e-06
/
&IONS
ion_dynamics = 'bfgs'
upscale = 1.0
/
&CELL
/

K_POINTS {automatic}
8 8 1 0 0 0

ATOMIC_SPECIES
C 12.01 C.pbe-n-rrkjus_psl.1.0.0.UPF
O 15.99 O.pbe-n-rrkjus_psl.1.0.0.UPF
V 50.94 V.pbe-spnl-rrkjus_psl.1.0.0.UPF
Zn 65.40 Zn.pbe-dnl-rrkjus_psl.1.0.0.UPF

CELL_PARAMETERS {angstrom}
7.64728000 0.00000000 0.00000000
-0.00000000 7.64728000 0.00000000
0.00000000 0.00000000 25.73550000

ATOMIC_POSITIONS {angstrom}
V 0.00000000 0.00000000 2.86770676
V 0.00000000 0.00000000 -0.9558164699999985 0 0 0
V 0.00000000 3.82364000 2.86770676
V 0.00000000 3.82364000 -0.9558164699999985 0 0 0
V 3.82364000 -0.00000000 2.86770676
V 3.82364000 0.00000000 -0.9558164699999985 0 0 0
V 3.82364000 3.82364000 2.86770676
V 3.82364000 3.82364000 -0.9558164699999985 0 0 0
Zn 0.00000000 1.91182000 0.95581647
Zn 1.91182000 -0.00000000 0.95581647
Zn 1.91182000 1.91182000 2.86770676
Zn 0.00000000 1.91182000 -2.867706769999998 0 0 0
Zn 1.91182000 0.00000000 -2.867706769999998 0 0 0
Zn 1.91182000 1.91182000 -0.9558164699999985 0 0 0
Zn 0.00000000 5.73546000 0.95581647
Zn 1.91182000 3.82364000 0.95581647
Zn 1.91182000 5.73546000 2.86770676
Zn 0.00000000 5.73546000 -2.867706769999998 0 0 0
Zn 1.91182000 3.82364000 -2.867706769999998 0 0 0
Zn 1.91182000 5.73546000 -0.9558164699999985 0 0 0
Zn 3.82364000 1.91182000 0.95581647
Zn 5.73546000 -0.00000000 0.95581647
Zn 5.73546000 1.91182000 2.86770676
Zn 3.82364000 1.91182000 -2.867706769999998 0 0 0
Zn 5.73546000 0.00000000 -2.867706769999998 0 0 0
Zn 5.73546000 1.91182000 -0.9558164699999985 0 0 0
Zn 3.82364000 5.73546000 0.95581647
Zn 5.73546000 3.82364000 0.95581647
Zn 5.73546000 5.73546000 2.86770676
Zn 3.82364000 5.73546000 -2.867706769999998 0 0 0
Zn 5.73546000 3.82364000 -2.867706769999998 0 0 0
Zn 5.73546000 5.73546000 -0.9558164699999985 0 0 0
C 0.00000000 0.00000000 4.76775873
O 0.00000000 0.00000000 5.91762087
