&CONTROL
calculation = 'relax'
prefix = 'scf'
pseudo_dir = '/vol0004/mdt0/data/hp150275/u10028/POT_HYBRID_KKJUS_GBRV'
outdir = './data'
tprnfor = .true.
nstep = 50
disk_io = 'non'
/
&SYSTEM
ibrav = 0
ecutwfc = 50.0
ecutrho = 400
occupations = 'smearing'
smearing = 'mp'
degauss = 0.01
assume_isolated = 'esm'
esm_bc = 'bc1'
input_dft = 'BEEF-VDW'
nosym = .true.
nspin = 2
ntyp = 5
nat = 18
starting_magnetization(1) = 0.1
starting_magnetization(2) = 0.1
starting_magnetization(3) = 0.1
starting_magnetization(4) = 0.1
starting_magnetization(5) = 0.1
/
&ELECTRONS
electron_maxstep = 200
mixing_beta = 0.1
conv_thr = 1e-06
/
&IONS
ion_dynamics = 'bfgs'
upscale = 1.0
/
&CELL
/

K_POINTS {automatic}
8 8 1 0 0 0

ATOMIC_SPECIES
C 12.01 C.pbe-n-rrkjus_psl.1.0.0.UPF
Fe 55.84 fe_pbe_v1.5.uspp.F.UPF
Ga 69.72 Ga.pbe-dnl-rrkjus_psl.1.0.0.UPF
Ni 58.69 ni_pbe_v1.4.uspp.F.UPF
O 15.99 O.pbe-n-rrkjus_psl.1.0.0.UPF

CELL_PARAMETERS {angstrom}
5.81401000 0.00000000 0.00000000
-0.00000000 5.81401000 0.00000000
0.00000000 0.00000000 24.36050000

ATOMIC_POSITIONS {angstrom}
Ga 0.00000000 0.00000000 2.18026475
Ga 2.90700500 2.90700500 2.18026475
Ga 2.90700500 0.00000000 -0.7266737199999973 0 0 0
Ga 0.00000000 2.90700500 -0.7266737199999973 0 0 0
Fe 1.45350250 1.45350250 0.72667371
Fe 4.36050750 4.36050750 -2.180264749999999 0 0 0
Fe 4.36050750 1.45350250 0.72667371
Fe 1.45350250 4.36050750 -2.180264749999999 0 0 0
Fe 4.36050750 4.36050750 0.72667371
Fe 1.45350250 1.45350250 -2.180264749999999 0 0 0
Fe 1.45350250 4.36050750 0.72667371
Fe 4.36050750 1.45350250 -2.180264749999999 0 0 0
Ni 0.00000000 0.00000000 -0.7266737199999973 0 0 0
Ni 2.90700500 -0.00000000 2.18026475
Ni 0.00000000 2.90700500 2.18026475
Ni 2.90700500 2.90700500 -0.7266737199999973 0 0 0
C 0.00000000 0.00000000 4.08014014
O 0.00000000 0.00000000 5.23019935
