&CONTROL
calculation = 'relax'
prefix = 'scf'
pseudo_dir = '/vol0004/mdt0/data/hp150275/u10028/POT_KKJUS'
outdir = './data'
tprnfor = .true.
nstep = 50
disk_io = 'non'
/
&SYSTEM
ibrav = 0
ecutwfc = 50.0
ecutrho = 400
occupations = 'smearing'
smearing = 'mp'
degauss = 0.01
assume_isolated = 'esm'
esm_bc = 'bc1'
input_dft = 'BEEF-VDW'
nosym = .true.
nspin = 1
ntyp = 3
nat = 17
/
&ELECTRONS
electron_maxstep = 200
mixing_beta = 0.1
conv_thr = 1e-06
/
&IONS
ion_dynamics = 'bfgs'
upscale = 1.0
/
&CELL
/

K_POINTS {automatic}
6 8 1 0 0 0

ATOMIC_SPECIES
C 12.01 C.pbe-n-rrkjus_psl.1.0.0.UPF
In 114.8 In.pbe-dn-rrkjus_psl.1.0.0.UPF
Mg 24.30 Mg.pbe-spnl-rrkjus_psl.1.0.0.UPF

CELL_PARAMETERS {angstrom}
9.42262000 0.00000000 0.00000000
0.00000000 6.66280000 0.00000000
0.00000000 0.00000000 24.99710000

ATOMIC_POSITIONS {angstrom}
Mg 0.00000000 0.00000000 -2.498460139999999 0 0 0
Mg 0.00000000 3.33140000 0.68367068
Mg 4.71131000 0.00000000 -2.498460139999999 0 0 0
Mg 4.71140423 3.33146663 0.91139427
In 0.00000000 3.33140000 -2.498460139999999 0 0 0
In 2.35565500 4.99710000 -0.8329033700000004 0 0 0
In 2.35565500 1.66570000 -0.8329033700000004 0 0 0
In 0.00000000 0.00006663 0.52093956
In 1.82845941 1.64317974 2.85241908
In 1.82902477 5.01955364 2.85191914
In 4.71131000 3.33140000 -2.498460139999999 0 0 0
In 7.06696500 4.99710000 -0.8329033700000004 0 0 0
In 7.06696500 1.66570000 -0.8329033700000004 0 0 0
In 4.71131000 0.00006663 1.28885048
In 7.59387791 1.64317974 2.85191914
In 7.59397214 5.01955364 2.85241908
C 0.00000000 6.66226698 2.79367590
