&CONTROL
calculation = 'relax'
prefix = 'scf'
pseudo_dir = '/vol0403/data/hp230205/u10028/POT_HYBRID_KKJUS_GBRV'
outdir = './data'
tprnfor = .true.
nstep = 50
disk_io = 'non'
/
&SYSTEM
ibrav = 0
ecutwfc = 50.0
ecutrho = 400
occupations = 'smearing'
smearing = 'mp'
degauss = 0.01
assume_isolated = 'esm'
esm_bc = 'bc1'
input_dft = 'BEEF-VDW'
nosym = .true.
nspin = 1
ntyp = 5
nat = 17
/
&ELECTRONS
electron_maxstep = 200
mixing_beta = 0.1
conv_thr = 1e-06
/
&IONS
ion_dynamics = 'bfgs'
upscale = 1.0
/
&CELL
/

K_POINTS {automatic}
11 8 2 0  0  0

ATOMIC_SPECIES
C 12.01 C.pbe-n-rrkjus_psl.1.0.0.UPF
In 114.8 In.pbe-dn-rrkjus_psl.1.0.0.UPF
Li 6.941 Li.pbe-sl-rrkjus_psl.1.0.0.UPF
Sn 118.7 Sn.pbe-dn-rrkjus_psl.1.0.0.UPF
Y 88.90 Y.pbe-spn-rrkjus_psl.1.0.0.UPF


CELL_PARAMETERS {angstrom}
6.44949000 0.00000000 0.00000000
0.00000000 9.04200000 0.00000000
0.00000000 0.00000000 24.82990000

ATOMIC_POSITIONS {angstrom}
Li 1.64397500 2.26050000 0.66568962
Li 4.57313987 2.26050000 -2.414956069999999 0 0 0
Li 1.64139521 6.78150000 0.83651933
Li 4.57313987 6.78150000 -2.414956069999999 0 0 0
Y 3.36508590 0.44649396 2.53687088
Y 6.27348342 0.00000000 -0.8049853599999999 0 0 0
Y 3.36508590 4.07450604 2.53687088
Y 6.27348342 4.52100000 -0.8049853599999999 0 0 0
In 0.15588417 0.66829422 3.01286007
In 3.04873842 0.00000000 -0.8049853599999999 0 0 0
In 0.15588417 3.85270578 3.01286007
In 3.04873842 4.52100000 -0.8049853599999999 0 0 0
Sn 4.97133139 2.26050000 0.67586988
Sn 1.34839487 2.26050000 -2.414956069999999 0 0 0
Sn 4.79319647 6.78150000 0.97904296
Sn 1.34839487 6.78150000 -2.414956069999999 0 0 0
C 2.01888385 2.26050000 2.77821751
