&CONTROL
calculation = 'relax'
prefix = 'scf'
pseudo_dir = '/vol0004/mdt0/data/hp150275/u10028/POT_KKJUS'
outdir = './data'
tprnfor = .true.
nstep = 50
disk_io = 'non'
/
&SYSTEM
ibrav = 0
ecutwfc = 50.0
ecutrho = 400
occupations = 'smearing'
smearing = 'mp'
degauss = 0.01
assume_isolated = 'esm'
esm_bc = 'bc1'
input_dft = 'BEEF-VDW'
nosym = .true.
nspin = 1
ntyp = 3
nat = 33
/
&ELECTRONS
electron_maxstep = 200
mixing_beta = 0.1
conv_thr = 1e-06
/
&IONS
ion_dynamics = 'bfgs'
upscale = 1.0
/
&CELL
/

K_POINTS {automatic}
8 6 1 0 0 0

ATOMIC_SPECIES
Au 196.9 Au.pbe-n-rrkjus_psl.1.0.0.UPF
C 12.01 C.pbe-n-rrkjus_psl.1.0.0.UPF
Mg 24.30 Mg.pbe-spnl-rrkjus_psl.1.0.0.UPF

CELL_PARAMETERS {angstrom}
6.67495000 0.00000000 0.00000000
0.00000000 9.43980000 0.00000000
0.00000000 0.00000000 27.07990000

ATOMIC_POSITIONS {angstrom}
Mg 1.66873750 2.35995000 -3.5398845299999984 0 0 0
Mg 1.66873750 4.71990000 -1.179871239999997 0 0 0
Mg 1.67414421 2.35995000 1.31093796
Mg 1.67541245 0.10138345 3.56344404
Mg 1.66873750 7.07985000 -3.5398845299999984 0 0 0
Mg 1.66873750 0.00000000 -1.179871239999997 0 0 0
Mg 1.67187473 7.07985000 1.15062495
Mg 1.67541245 4.61851655 3.56344404
Mg 5.00621250 2.35995000 -3.5398845299999984 0 0 0
Mg 5.00621250 4.71990000 -1.179871239999997 0 0 0
Mg 5.00380952 2.35995000 1.20586795
Mg 5.00421001 9.32133051 3.54232172
Mg 5.00621250 7.07985000 -3.5398845299999984 0 0 0
Mg 5.00621250 0.00000000 -1.179871239999997 0 0 0
Mg 5.00274153 7.07985000 1.19963957
Mg 5.00421001 4.83836949 3.54232172
Au 0.00000000 0.00000000 -3.5398845299999984 0 0 0
Au 0.00000000 2.35995000 -1.179871239999997 0 0 0
Au 6.67314776 9.41535092 1.11975386
Au 6.33646329 2.35995000 3.73729700
Au 0.00000000 4.71990000 -3.5398845299999984 0 0 0
Au 0.00000000 7.07985000 -1.179871239999997 0 0 0
Au 6.67314776 4.74434908 1.11975386
Au 0.11060392 7.07985000 3.48355834
Au 3.33747500 0.00000000 -3.5398845299999984 0 0 0
Au 3.33747500 2.35995000 -1.179871239999997 0 0 0
Au 3.34041198 9.41544532 1.11731667
Au 3.68897787 2.35995000 3.74298378
Au 3.33747500 4.71990000 -3.5398845299999984 0 0 0
Au 3.33747500 7.07985000 -1.179871239999997 0 0 0
Au 3.34041198 4.74425468 1.11731667
Au 3.22707133 7.07985000 3.48951591
C 1.67607994 2.35995000 3.66553526
