&CONTROL
calculation = 'relax'
prefix = 'scf'
pseudo_dir = '/vol0403/data/hp230205/u10028/POT_HYBRID_KKJUS_GBRV'
outdir = './data'
tprnfor = .true.
nstep = 50
disk_io = 'non'
/
&SYSTEM
ibrav = 0
ecutwfc = 50.0
ecutrho = 400
occupations = 'smearing'
smearing = 'mp'
degauss = 0.01
assume_isolated = 'esm'
esm_bc = 'bc1'
input_dft = 'BEEF-VDW'
nosym = .true.
nspin = 1
ntyp = 5
nat = 33
/
&ELECTRONS
electron_maxstep = 200
mixing_beta = 0.1
conv_thr = 1e-06
/
&IONS
ion_dynamics = 'bfgs'
upscale = 1.0
/
&CELL
/

K_POINTS {automatic}
6 6 1 0 0 0

ATOMIC_SPECIES
C 12.01 C.pbe-n-rrkjus_psl.1.0.0.UPF
In 114.8 In.pbe-dn-rrkjus_psl.1.0.0.UPF
Pd 106.4 Pd.pbe-n-rrkjus_psl.1.0.0.UPF
Sc 44.95 Sc.pbe-spn-rrkjus_psl.1.0.0.UPF
Y 88.90 Y.pbe-spn-rrkjus_psl.1.0.0.UPF


CELL_PARAMETERS {angstrom}
10.11530000 0.00000000 0.00000000
0.00000000 7.36232000 0.00000000
0.00000000 0.00000000 27.23180000

ATOMIC_POSITIONS {angstrom}
Y 2.53539994 1.92060842 3.46851437
Y 2.52882500 1.84058000 -1.2052794700000007 0 0 0
Y 2.53570340 5.44171158 3.46905900
Y 2.52882500 5.52174000 -1.2052794700000007 0 0 0
Y 7.59213957 1.70128491 3.61910622
Y 7.58647500 1.84058000 -1.2052794700000007 0 0 0
Y 7.59213957 5.66184495 3.61856158
Y 7.58647500 5.52174000 -1.2052794700000007 0 0 0
Sc 10.08960714 1.80825942 1.26273857
Sc 0.00000000 1.84058000 -3.6158384000000012 0 0 0
Sc 10.09082097 5.55361885 1.26246625
Sc 0.00000000 5.52174000 -3.6158384000000012 0 0 0
Sc 5.09315470 1.80347391 1.26600638
Sc 5.05765000 1.84058000 -3.6158384000000012 0 0 0
Sc 5.09315470 5.55862522 1.26655102
Sc 5.05765000 5.52174000 -3.6158384000000012 0 0 0
In 0.17155549 7.36217275 4.50250581
In 0.00000000 0.00000000 -1.2052794700000007 0 0 0
In 10.02982571 3.68093913 3.78739874
In 0.00000000 3.68116000 -1.2052794700000007 0 0 0
In 4.89772711 0.00044174 4.50931376
In 5.05765000 0.00000000 -1.2052794700000007 0 0 0
In 5.16649063 3.68071826 3.78930497
In 5.05765000 3.68116000 -1.2052794700000007 0 0 0
Pd 2.48320500 0.00000000 1.01302296
Pd 2.52882500 0.00000000 -3.6158384000000012 0 0 0
Pd 2.52012584 3.68130725 1.00675965
Pd 2.52882500 3.68116000 -3.6158384000000012 0 0 0
Pd 7.59922028 0.00007362 1.14945428
Pd 7.58647500 0.00000000 -3.6158384000000012 0 0 0
Pd 7.52699704 3.68116000 1.34742946
Pd 7.58647500 3.68116000 -3.6158384000000012 0 0 0
C 2.53762531 0.00014725 4.60789288
