&CONTROL
calculation = 'relax'
prefix = 'scf'
pseudo_dir = '/vol0403/data/hp230205/u10028/POT_HYBRID_KKJUS_GBRV'
outdir = './data'
tprnfor = .true.
nstep = 50
disk_io = 'non'
/
&SYSTEM
ibrav = 0
ecutwfc = 50.0
ecutrho = 400
occupations = 'smearing'
smearing = 'mp'
degauss = 0.01
assume_isolated = 'esm'
esm_bc = 'bc1'
input_dft = 'BEEF-VDW'
nosym = .true.
nspin = 1
ntyp = 5
nat = 33
/
&ELECTRONS
electron_maxstep = 200
mixing_beta = 0.1
conv_thr = 1e-06
/
&IONS
ion_dynamics = 'bfgs'
upscale = 1.0
/
&CELL
/

K_POINTS {automatic}
6 6 1 0 0 0

ATOMIC_SPECIES
C 12.01 C.pbe-n-rrkjus_psl.1.0.0.UPF
Hf 178.4 Hf.pbe-spn-rrkjus_psl.1.0.0.UPF
Li 6.941 Li.pbe-sl-rrkjus_psl.1.0.0.UPF
Pd 106.4 Pd.pbe-n-rrkjus_psl.1.0.0.UPF
Sn 118.7 Sn.pbe-dn-rrkjus_psl.1.0.0.UPF


CELL_PARAMETERS {angstrom}
6.67688000 0.00000000 0.00000000
0.00000000 9.44254000 0.00000000
0.00000000 0.00000000 27.08190000

ATOMIC_POSITIONS {angstrom}
Li 0.00000000 2.36063500 -1.1802291999999994 0 0 0
Li 0.00000000 7.08190500 -1.1802291999999994 0 0 0
Li 3.33844000 4.72127000 -3.5409584200000026 0 0 0
Li 3.33844000 0.00000000 -3.5409584200000026 0 0 0
Li 6.13672041 6.86170497 3.86512877
Li 6.13732133 2.58111831 3.86485795
Li 3.39873223 0.00000000 0.94542913
Li 3.13165703 4.72127000 1.10737889
Hf 0.00000000 0.00000000 -3.5409584200000026 0 0 0
Hf 0.00000000 4.72127000 -3.5409584200000026 0 0 0
Hf 3.33844000 7.08190500 -1.1802291999999994 0 0 0
Hf 3.33844000 2.36063500 -1.1802291999999994 0 0 0
Hf 0.05388242 4.72127000 1.46513079
Hf 0.50797703 0.00000000 1.73053341
Hf 2.65432688 2.07735880 3.15531217
Hf 2.65419334 7.36508677 3.15558299
Sn 1.66922000 0.00000000 -1.1802291999999994 0 0 0
Sn 1.66922000 4.72127000 -1.1802291999999994 0 0 0
Sn 5.00766000 2.36063500 -3.5409584200000026 0 0 0
Sn 5.00766000 7.08190500 -3.5409584200000026 0 0 0
Sn 1.66808493 4.72117557 3.96424852
Sn 0.69686597 0.00000000 4.74745707
Sn 5.05787014 7.12619051 1.27528667
Sn 5.05793691 2.31634949 1.27528667
Pd 5.00766000 0.00000000 -1.1802291999999994 0 0 0
Pd 5.00766000 4.72127000 -1.1802291999999994 0 0 0
Pd 1.66922000 2.36063500 -3.5409584200000026 0 0 0
Pd 1.66922000 7.08190500 -3.5409584200000026 0 0 0
Pd 4.51016567 4.72145885 3.12850109
Pd 4.73898235 0.00000000 3.08435759
Pd 1.46410625 6.97624298 0.84116381
Pd 1.46403948 2.46629702 0.84116381
C 2.34939377 9.44244557 2.94434417
