&CONTROL
calculation = 'relax'
prefix = 'scf'
pseudo_dir = '/vol0004/mdt0/data/hp150275/u10028/POT_KKJUS'
outdir = './data'
tprnfor = .true.
nstep = 50
disk_io = 'non'
/
&SYSTEM
ibrav = 0
ecutwfc = 50.0
ecutrho = 400
occupations = 'smearing'
smearing = 'mp'
degauss = 0.01
assume_isolated = 'esm'
esm_bc = 'bc1'
input_dft = 'BEEF-VDW'
nosym = .true.
nspin = 1
ntyp = 3
nat = 33
/
&ELECTRONS
electron_maxstep = 200
mixing_beta = 0.1
conv_thr = 1e-06
/
&IONS
ion_dynamics = 'bfgs'
upscale = 1.0
/
&CELL
/

K_POINTS {automatic}
9 6 2 0  0  0

ATOMIC_SPECIES
Al 26.98 Al.pbe-nl-rrkjus_psl.1.0.0.UPF
C 12.01 C.pbe-n-rrkjus_psl.1.0.0.UPF
Ni 58.69 Ni.pbe-spn-rrkjus_psl.1.0.0.UPF

CELL_PARAMETERS {angstrom}
5.79956000 0.00000000 0.00000000
0.00000000 8.20182000 0.00000000
0.00000000 0.00000000 26.15140000

ATOMIC_POSITIONS {angstrom}
Al 1.44989000 2.05045500 -3.07566615 0 0 0
Al 1.44989000 0.00000000 -1.0251348799999995 0 0 0
Al 1.42976553 2.05685242 1.03114970
Al 1.69167366 0.00000000 3.12195413
Al 1.44989000 6.15136500 -3.07566615 0 0 0
Al 1.44989000 4.10091000 -1.0251348799999995 0 0 0
Al 1.42976553 6.14496758 1.03114970
Al 1.39798394 4.10091000 3.15202824
Al 4.34967000 2.05045500 -3.07566615 0 0 0
Al 4.34967000 0.00000000 -1.0251348799999995 0 0 0
Al 4.36979447 2.05685242 1.03114970
Al 4.10782835 0.00000000 3.12195413
Al 4.34967000 6.15136500 -3.07566615 0 0 0
Al 4.34967000 4.10091000 -1.0251348799999995 0 0 0
Al 4.36979447 6.14496758 1.03114970
Al 4.40151807 4.10091000 3.15202824
Ni 0.00000000 0.00000000 -3.07566615 0 0 0
Ni 0.00000000 2.05045500 -1.0251348799999995 0 0 0
Ni 0.00000000 0.00000000 1.04919417
Ni 0.00000000 1.89060153 3.09240305
Ni 0.00000000 4.10091000 -3.07566615 0 0 0
Ni 0.00000000 6.15136500 -1.0251348799999995 0 0 0
Ni 0.00000000 4.10091000 1.03271879
Ni 0.00000000 6.31121847 3.09266456
Ni 2.89978000 0.00000000 -3.07566615 0 0 0
Ni 2.89978000 2.05045500 -1.0251348799999995 0 0 0
Ni 2.89978000 0.00000000 0.95295702
Ni 2.89978000 2.14559611 2.93706373
Ni 2.89978000 4.10091000 -3.07566615 0 0 0
Ni 2.89978000 6.15136500 -1.0251348799999995 0 0 0
Ni 2.89978000 4.10091000 1.01441281
Ni 2.89978000 6.05630591 2.93706373
C 0.00000000 0.00000000 3.87511445
