&CONTROL
calculation = 'relax'
prefix = 'scf'
pseudo_dir = '/vol0403/data/hp230205/u10028/POT_HYBRID_KKJUS_GBRV'
outdir = './data'
tprnfor = .true.
nstep = 70
disk_io = 'non'
/
&SYSTEM
ibrav = 0
ecutwfc = 50.0
ecutrho = 400
occupations = 'smearing'
smearing = 'mp'
degauss = 0.01
assume_isolated = 'esm'
esm_bc = 'bc1'
input_dft = 'BEEF-VDW'
nosym = .true.
nspin = 1
ntyp = 6
nat = 34
/
&ELECTRONS
electron_maxstep = 200
mixing_beta = 0.1
conv_thr = 1e-06
/
&IONS
ion_dynamics = 'bfgs'
upscale = 1.0
/
&CELL
/

K_POINTS {automatic}
9 6 2 0  0  0

ATOMIC_SPECIES
C 12.01 C.pbe-n-rrkjus_psl.1.0.0.UPF
Li 6.941 Li.pbe-sl-rrkjus_psl.1.0.0.UPF
O 15.99 O.pbe-n-rrkjus_psl.1.0.0.UPF
Pb 207.2 Pb.pbe-dn-rrkjus_psl.1.0.0.UPF
Pd 106.4 Pd.pbe-n-rrkjus_psl.1.0.0.UPF
Y 88.90 Y.pbe-spn-rrkjus_psl.1.0.0.UPF


CELL_PARAMETERS {angstrom}
6.89083000 0.00000000 0.00000000
-0.00000000 9.74510000 0.00000000
0.00000000 0.00000000 27.30880000

ATOMIC_POSITIONS {angstrom}
Li 0.00000000 0.00000000 -3.6544636200000014 0 0 0
Li 0.00000000 4.87255000 -3.6544636200000014 0 0 0
Li 3.44541500 7.30882500 -1.2182455700000006 0 0 0
Li 3.44541500 2.43627500 -1.2182455700000006 0 0 0
Li 0.01309258 4.87255000 1.27695949
Li 0.03176673 0.00000000 1.29935270
Li 2.13677747 2.44757932 5.00433760
Li 2.13670857 7.29752068 5.00433760
Y 5.16812250 0.00000000 -1.2182455700000006 0 0 0
Y 5.16812250 4.87255000 -1.2182455700000006 0 0 0
Y 1.72270750 2.43627500 -3.6544636200000014 0 0 0
Y 1.72270750 7.30882500 -3.6544636200000014 0 0 0
Y 4.98703149 4.87255000 3.60066528
Y 4.98489533 -0.00000000 3.61104262
Y 1.78892838 7.30609637 1.37772896
Y 1.78892838 2.43890618 1.37772896
Pd 0.00000000 2.43627500 -1.2182455700000006 0 0 0
Pd 0.00000000 7.30882500 -1.2182455700000006 0 0 0
Pd 3.44541500 4.87255000 -3.6544636200000014 0 0 0
Pd 3.44541500 0.00000000 -3.6544636200000014 0 0 0
Pd 6.75053270 7.31632873 3.50535757
Pd 6.75053270 2.42877127 3.50535757
Pd 3.43569893 -0.00000000 1.20896058
Pd 3.45134111 4.87255000 1.19694470
Pb 1.72270750 0.00000000 -1.2182455700000006 0 0 0
Pb 1.72270750 4.87255000 -1.2182455700000006 0 0 0
Pb 5.16812250 2.43627500 -3.6544636200000014 0 0 0
Pb 5.16812250 7.30882500 -3.6544636200000014 0 0 0
Pb 1.64463440 4.87255000 3.76943366
Pb 1.64863108 -0.00000000 3.79155379
Pb 5.14166171 7.31476951 1.18902515
Pb 5.14166171 2.43033049 1.18902515
C 0.39505128 0.00009745 8.22950688
O 1.50860941 0.00009745 8.45589683
