&CONTROL
calculation = 'relax'
prefix = 'scf'
pseudo_dir = '/vol0004/mdt0/data/hp150275/u10028/POT_KKJUS'
outdir = './data'
tprnfor = .true.
nstep = 50
disk_io = 'non'
/
&SYSTEM
ibrav = 0
ecutwfc = 50.0
ecutrho = 400
occupations = 'smearing'
smearing = 'mp'
degauss = 0.01
assume_isolated = 'esm'
esm_bc = 'bc1'
input_dft = 'BEEF-VDW'
nosym = .true.
nspin = 1
ntyp = 5
nat = 18
/
&ELECTRONS
electron_maxstep = 200
mixing_beta = 0.1
conv_thr = 1e-06
/
&IONS
ion_dynamics = 'bfgs'
upscale = 1.0
/
&CELL
/

K_POINTS {automatic}
9 9 2 0  0  0

ATOMIC_SPECIES
C 12.01 C.pbe-n-rrkjus_psl.1.0.0.UPF
Ge 72.64 Ge.pbe-dn-rrkjus_psl.1.0.0.UPF
Li 6.941 Li.pbe-sl-rrkjus_psl.1.0.0.UPF
O 15.99 O.pbe-n-rrkjus_psl.1.0.0.UPF
Zn 65.40 Zn.pbe-dnl-rrkjus_psl.1.0.0.UPF

CELL_PARAMETERS {angstrom}
6.18893000 0.00000000 0.00000000
0.00000000 6.18893000 0.00000000
0.00000000 0.00000000 24.64170000

ATOMIC_POSITIONS {angstrom}
Li 0.00000000 0.00000000 2.81974973
Li 3.09446500 3.09446500 2.79289028
Li 3.09446500 0.00000000 -0.7735029600000018 0 0 0
Li 0.00000000 3.09446500 -0.7735029600000018 0 0 0
Li 1.54723250 1.54723250 -2.320755309999999 0 0 0
Li 1.62013810 4.73013731 0.90361114
Li 4.64169750 4.64169750 -2.320755309999999 0 0 0
Li 4.56879190 1.45885458 0.90361114
Zn 1.70511210 1.38662977 0.94673411
Zn 1.54723250 4.64169750 -2.320755309999999 0 0 0
Zn 4.48381790 4.80230023 0.94673411
Zn 4.64169750 1.54723250 -2.320755309999999 0 0 0
Ge 0.00000000 0.00000000 -0.7735029600000018 0 0 0
Ge 3.09446500 0.00000000 2.56939006
Ge 0.00000000 3.09446500 2.13495689
Ge 3.09446500 3.09446500 -0.7735029600000018 0 0 0
C 0.00000000 3.09446500 4.00797250
O 0.00000000 3.09446500 5.18264234
