&CONTROL
calculation = 'relax'
prefix = 'scf'
pseudo_dir = '/vol0004/mdt0/data/hp150275/u10028/POT_KKJUS'
outdir = './data'
tprnfor = .true.
nstep = 50
disk_io = 'non'
/
&SYSTEM
ibrav = 0
ecutwfc = 50.0
ecutrho = 400
occupations = 'smearing'
smearing = 'mp'
degauss = 0.01
assume_isolated = 'esm'
esm_bc = 'bc1'
input_dft = 'BEEF-VDW'
nosym = .true.
nspin = 1
ntyp = 3
nat = 17
/
&ELECTRONS
electron_maxstep = 200
mixing_beta = 0.1
conv_thr = 1e-06
/
&IONS
ion_dynamics = 'bfgs'
upscale = 1.0
/
&CELL
/

K_POINTS {automatic}
8 8 1 0 0 0

ATOMIC_SPECIES
Ag 107.8 Ag.pbe-n-rrkjus_psl.1.0.0.UPF
C 12.01 C.pbe-n-rrkjus_psl.1.0.0.UPF
Ga 69.72 Ga.pbe-dnl-rrkjus_psl.1.0.0.UPF

CELL_PARAMETERS {angstrom}
6.70510000 0.00000000 0.00000000
-0.00000000 6.70510000 0.00000000
0.00000000 0.00000000 25.02880000

ATOMIC_POSITIONS {angstrom}
Ga 1.67627500 1.67627500 -0.6580071499999995 0 0 0
Ga 1.67627500 1.67627500 2.69435032
Ga 1.67627500 5.02882500 -0.6580071499999995 0 0 0
Ga 1.67627500 5.02882500 2.69435032
Ga 5.02882500 1.67627500 -0.6580071499999995 0 0 0
Ga 5.02882500 1.67627500 2.69435032
Ga 5.02882500 5.02882500 -0.6580071499999995 0 0 0
Ga 5.02882500 5.02882500 2.69435032
Ag 0.00000000 0.00000000 -2.334436180000001 0 0 0
Ag 0.00000000 0.00000000 1.01817158
Ag 0.00000000 3.35255000 -2.334436180000001 0 0 0
Ag 0.00000000 3.35255000 1.01817158
Ag 3.35255000 0.00000000 -2.334436180000001 0 0 0
Ag 3.35255000 -0.00000000 1.01817158
Ag 3.35255000 3.35255000 -2.334436180000001 0 0 0
Ag 3.35255000 3.35255000 1.01817158
C 0.00000000 0.00000000 3.49452106
