&CONTROL
calculation = 'relax'
prefix = 'scf'
pseudo_dir = '/vol0004/mdt0/data/hp150275/u10028/POT_KKJUS'
outdir = './data'
tprnfor = .true.
nstep = 50
disk_io = 'non'
/
&SYSTEM
ibrav = 0
ecutwfc = 50.0
ecutrho = 400
occupations = 'smearing'
smearing = 'mp'
degauss = 0.01
assume_isolated = 'esm'
esm_bc = 'bc1'
input_dft = 'BEEF-VDW'
nosym = .true.
nspin = 1
ntyp = 5
nat = 34
/
&ELECTRONS
electron_maxstep = 200
mixing_beta = 0.1
conv_thr = 1e-06
/
&IONS
ion_dynamics = 'bfgs'
upscale = 1.0
/
&CELL
/

K_POINTS {automatic}
9 6 2 0  0  0

ATOMIC_SPECIES
Ag 107.8 Ag.pbe-n-rrkjus_psl.1.0.0.UPF
Bi 208.9 Bi.pbe-dn-rrkjus_psl.1.0.0.UPF
C 12.01 C.pbe-n-rrkjus_psl.1.0.0.UPF
Li 6.941 Li.pbe-sl-rrkjus_psl.1.0.0.UPF
O 15.99 O.pbe-n-rrkjus_psl.1.0.0.UPF

CELL_PARAMETERS {angstrom}
6.92564000 0.00000000 0.00000000
0.00000000 9.79433000 0.00000000
0.00000000 0.00000000 27.34580000

ATOMIC_POSITIONS {angstrom}
Li 0.00000000 7.34574750 -1.2242714700000015 0 0 0
Li 3.46282000 0.00000000 -3.6728144 0 0 0
Li 0.00000000 2.44858250 -1.2242714700000015 0 0 0
Li 3.46282000 4.89716500 -3.6728144 0 0 0
Li 1.73141000 0.00000000 -1.2242714700000015 0 0 0
Li 1.73141000 4.89716500 -1.2242714700000015 0 0 0
Li 5.19423000 7.34574750 -3.6728144 0 0 0
Li 5.19423000 2.44858250 -3.6728144 0 0 0
Li 6.70561242 2.44868044 3.42642874
Li 3.44896872 4.89716500 1.04105461
Li 6.70554316 7.34564956 3.42642874
Li 3.39328657 0.00000000 0.99484020
Li 2.05608400 4.89706706 3.48850371
Li 2.04597257 0.00000000 3.50764577
Li 5.05453984 2.44172647 1.28853410
Li 5.05447058 7.35250559 1.28853410
Ag 1.73141000 2.44858250 -3.6728144 0 0 0
Ag 1.73141000 7.34574750 -3.6728144 0 0 0
Ag 5.19423000 4.89716500 -1.2242714700000015 0 0 0
Ag 5.19423000 0.00000000 -1.2242714700000015 0 0 0
Ag 1.92553569 7.33575728 1.47886086
Ag 1.92567420 2.45857272 1.47886086
Ag 4.94386811 0.00009794 3.25004833
Ag 4.99414826 4.89716500 3.31978012
Bi 0.00000000 0.00000000 -3.6728144 0 0 0
Bi 3.46282000 2.44858250 -1.2242714700000015 0 0 0
Bi 3.46282000 7.34574750 -1.2242714700000015 0 0 0
Bi 0.00000000 4.89716500 -3.6728144 0 0 0
Bi 0.10305352 4.89706706 1.25134381
Bi 3.53650881 7.33928324 3.99740904
Bi 3.53671658 2.45504676 3.99768250
Bi 0.11718183 0.00000000 1.24724194
C 6.15211527 0.00068560 6.48724413
O 5.38129154 0.00009794 7.32183795
