&CONTROL
calculation = 'relax'
prefix = 'scf'
pseudo_dir = '/vol0004/mdt0/data/hp150275/u10028/POT_KKJUS'
outdir = './data'
tprnfor = .true.
nstep = 50
disk_io = 'non'
/
&SYSTEM
ibrav = 0
ecutwfc = 50.0
ecutrho = 400
occupations = 'smearing'
smearing = 'mp'
degauss = 0.01
assume_isolated = 'esm'
esm_bc = 'bc1'
input_dft = 'BEEF-VDW'
nosym = .true.
nspin = 1
ntyp = 5
nat = 34
/
&ELECTRONS
electron_maxstep = 200
mixing_beta = 0.1
conv_thr = 1e-06
/
&IONS
ion_dynamics = 'bfgs'
upscale = 1.0
/
&CELL
/

K_POINTS {automatic}
9 6 2 0  0  0

ATOMIC_SPECIES
C 12.01 C.pbe-n-rrkjus_psl.1.0.0.UPF
Cu 63.54 Cu.pbe-dn-rrkjus_psl.1.0.0.UPF
Li 6.941 Li.pbe-sl-rrkjus_psl.1.0.0.UPF
O 15.99 O.pbe-n-rrkjus_psl.1.0.0.UPF
Sn 118.7 Sn.pbe-dn-rrkjus_psl.1.0.0.UPF

CELL_PARAMETERS {angstrom}
6.34973000 0.00000000 0.00000000
0.00000000 8.97987000 0.00000000
0.00000000 0.00000000 26.73490000

ATOMIC_POSITIONS {angstrom}
Li 0.00000000 6.73490250 -1.1225984499999981 0 0 0
Li 3.17486500 0.00000000 -3.367528 0 0 0
Li 0.00000000 2.24496750 -1.1225984499999981 0 0 0
Li 3.17486500 4.48993500 -3.367528 0 0 0
Li 1.58743250 0.00000000 -1.1225984499999981 0 0 0
Li 1.58743250 4.48993500 -1.1225984499999981 0 0 0
Li 4.76229750 6.73490250 -3.367528 0 0 0
Li 4.76229750 2.24496750 -3.367528 0 0 0
Li 6.26737400 2.24029797 3.33571347
Li 3.10641491 4.48993500 1.06030613
Li 6.26737400 6.73948223 3.33571347
Li 3.09460441 0.00000000 1.04212640
Li 1.72801552 4.48984520 3.65332408
Li 1.67499528 0.00008980 3.63354026
Li 4.74947105 2.24694307 1.12687603
Li 4.74947105 6.73283713 1.12714338
Cu 1.58743250 2.24496750 -3.367528 0 0 0
Cu 1.58743250 6.73490250 -3.367528 0 0 0
Cu 4.76229750 4.48993500 -1.1225984499999981 0 0 0
Cu 4.76229750 0.00000000 -1.1225984499999981 0 0 0
Cu 1.63994477 6.73975163 1.17392946
Cu 1.63981777 2.24020817 1.17392946
Cu 4.54539072 0.00044899 3.07130531
Cu 4.58679096 4.48948601 3.11274441
Sn 0.00000000 0.00000000 -3.367528 0 0 0
Sn 3.17486500 2.24496750 -1.1225984499999981 0 0 0
Sn 3.17486500 6.73490250 -1.1225984499999981 0 0 0
Sn 0.00000000 4.48993500 -3.367528 0 0 0
Sn 0.07987960 4.48984520 1.23648913
Sn 3.23086962 6.73553109 3.47045737
Sn 3.22921869 2.24415931 3.46992267
Sn 0.05816353 0.00017960 1.19879292
C 1.04014927 8.97978020 5.60684323
O 0.84330764 8.97951081 6.72970903
