&CONTROL
calculation = 'relax'
prefix = 'scf'
pseudo_dir = '/vol0403/data/hp230205/u10028/POT_HYBRID_KKJUS_GBRV'
outdir = './data'
tprnfor = .true.
nstep = 70
disk_io = 'non'
/
&SYSTEM
ibrav = 0
ecutwfc = 50.0
ecutrho = 400
occupations = 'smearing'
smearing = 'mp'
degauss = 0.01
assume_isolated = 'esm'
esm_bc = 'bc1'
input_dft = 'BEEF-VDW'
nosym = .true.
nspin = 1
ntyp = 6
nat = 34
/
&ELECTRONS
electron_maxstep = 200
mixing_beta = 0.1
conv_thr = 1e-06
/
&IONS
ion_dynamics = 'bfgs'
upscale = 1.0
/
&CELL
/

K_POINTS {automatic}
9 6 2 0  0  0

ATOMIC_SPECIES
Ag 107.8 Ag.pbe-n-rrkjus_psl.1.0.0.UPF
C 12.01 C.pbe-n-rrkjus_psl.1.0.0.UPF
In 114.8 In.pbe-dn-rrkjus_psl.1.0.0.UPF
Li 6.941 Li.pbe-sl-rrkjus_psl.1.0.0.UPF
O 15.99 O.pbe-n-rrkjus_psl.1.0.0.UPF
Pd 106.4 Pd.pbe-n-rrkjus_psl.1.0.0.UPF


CELL_PARAMETERS {angstrom}
6.52372000 0.00000000 0.00000000
-0.00000000 9.22594000 0.00000000
0.00000000 0.00000000 26.91950000

ATOMIC_POSITIONS {angstrom}
Li 1.63093000 0.00000000 -1.1532313799999976 0 0 0
Li 1.63093000 4.61297000 -1.1532313799999976 0 0 0
Li 4.89279000 2.30648500 -3.45969414 0 0 0
Li 4.89279000 6.91945500 -3.45969414 0 0 0
Li 1.58767774 4.61297000 3.48903639
Li 1.58963485 -0.00000000 3.49226674
Li 4.89050670 6.92554412 1.11392891
Li 4.89050670 2.30039588 1.11419811
In 4.89279000 0.00000000 -1.1532313799999976 0 0 0
In 4.89279000 4.61297000 -1.1532313799999976 0 0 0
In 1.63093000 2.30648500 -3.45969414 0 0 0
In 1.63093000 6.91945500 -3.45969414 0 0 0
In 5.02332964 4.61297000 3.87021652
In 4.97016132 -0.00000000 3.73319626
In 1.65839486 6.90137216 1.16076884
In 1.65839486 2.32456784 1.16076884
Ag 0.00000000 0.00000000 -3.45969414 0 0 0
Ag 0.00000000 4.61297000 -3.45969414 0 0 0
Ag 3.26186000 6.91945500 -1.1532313799999976 0 0 0
Ag 3.26186000 2.30648500 -1.1532313799999976 0 0 0
Ag 6.45091528 4.61297000 1.23022115
Ag 6.49553753 -0.00000000 1.19576419
Ag 3.36252100 2.33665382 3.42335281
Ag 3.36252100 6.88919392 3.42335281
Pd 0.00000000 2.30648500 -1.1532313799999976 0 0 0
Pd 0.00000000 6.91945500 -1.1532313799999976 0 0 0
Pd 3.26186000 4.61297000 -3.45969414 0 0 0
Pd 3.26186000 0.00000000 -3.45969414 0 0 0
Pd 6.42429851 6.92093115 3.26345098
Pd 6.42429851 2.30500885 3.26345098
Pd 3.29610953 -0.00000000 1.22241449
Pd 3.33916608 4.61297000 1.25229514
C 4.40794713 -0.00000000 7.36436761
O 5.17800704 -0.00000000 8.19914131
