&CONTROL
calculation = 'relax'
prefix = 'scf'
pseudo_dir = '/vol0004/mdt0/data/hp150275/u10028/POT_HYBRID_KKJUS_GBRV'
outdir = './data'
tprnfor = .true.
nstep = 50
disk_io = 'non'
/
&SYSTEM
ibrav = 0
ecutwfc = 50.0
ecutrho = 400
occupations = 'smearing'
smearing = 'mp'
degauss = 0.01
assume_isolated = 'esm'
esm_bc = 'bc1'
input_dft = 'BEEF-VDW'
nosym = .true.
nspin = 2
ntyp = 5
nat = 18
starting_magnetization(1) = 0.1
starting_magnetization(2) = 0.1
starting_magnetization(3) = 0.1
starting_magnetization(4) = 0.1
starting_magnetization(5) = 0.1
/
&ELECTRONS
electron_maxstep = 200
mixing_beta = 0.1
conv_thr = 1e-06
/
&IONS
ion_dynamics = 'bfgs'
upscale = 1.0
/
&CELL
/

K_POINTS {automatic}
8 8 1 0 0 0

ATOMIC_SPECIES
Al 26.98 Al.pbe-nl-rrkjus_psl.1.0.0.UPF
C 12.01 C.pbe-n-rrkjus_psl.1.0.0.UPF
Co 58.93 co_pbe_v1.2.uspp.F.UPF
Mn 54.93 mn_pbe_v1.5.uspp.F.UPF
O 15.99 O.pbe-n-rrkjus_psl.1.0.0.UPF

CELL_PARAMETERS {angstrom}
5.71239000 0.00000000 0.00000000
-0.00000000 5.71239000 0.00000000
0.00000000 0.00000000 24.28430000

ATOMIC_POSITIONS {angstrom}
Mn 0.00000000 0.00000000 -2.142118100000001 0 0 0
Mn 2.85619500 2.85619500 -2.142118100000001 0 0 0
Mn 2.85619500 -0.00000000 0.71395842
Mn 0.00000000 2.85619500 0.71395842
Al 0.00000000 0.00000000 0.71395842
Al 2.85619500 0.00000000 -2.142118100000001 0 0 0
Al 0.00000000 2.85619500 -2.142118100000001 0 0 0
Al 2.85619500 2.85619500 0.71395842
Co 1.42809750 1.42809750 -0.7139584200000009 0 0 0
Co 4.28429250 4.28429250 2.14211810
Co 4.28429250 1.42809750 -0.7139584200000009 0 0 0
Co 1.42809750 4.28429250 2.14211810
Co 4.28429250 4.28429250 -0.7139584200000009 0 0 0
Co 1.42809750 1.42809750 2.14211810
Co 1.42809750 4.28429250 -0.7139584200000009 0 0 0
Co 4.28429250 1.42809750 2.14211810
C 1.42809750 1.42809750 4.04212174
O 1.42809750 1.42809750 5.19222618
