&CONTROL
calculation = 'relax'
prefix = 'scf'
pseudo_dir = '/vol0004/mdt0/data/hp150275/u10028/POT_HYBRID_KKJUS_GBRV'
outdir = './data'
tprnfor = .true.
nstep = 50
disk_io = 'non'
/
&SYSTEM
ibrav = 0
ecutwfc = 50.0
ecutrho = 400
occupations = 'smearing'
smearing = 'mp'
degauss = 0.01
assume_isolated = 'esm'
esm_bc = 'bc1'
input_dft = 'BEEF-VDW'
nosym = .true.
nspin = 2
ntyp = 4
nat = 33
starting_magnetization(1) = 0.0
starting_magnetization(2) = 0.1
starting_magnetization(3) = 0.0
starting_magnetization(4) = 0.001
/
&ELECTRONS
electron_maxstep = 200
mixing_beta = 0.1
conv_thr = 1e-06
/
&IONS
ion_dynamics = 'bfgs'
upscale = 1.0
/
&CELL
/

K_POINTS {automatic}
9 6 2 0  0  0

ATOMIC_SPECIES
C 12.01 C.pbe-n-rrkjus_psl.1.0.0.UPF
Fe 55.84 fe_pbe_v1.5.uspp.F.UPF
Ga 69.72 Ga.pbe-dnl-rrkjus_psl.1.0.0.UPF
Ni 58.69 ni_pbe_v1.4.uspp.F.UPF

CELL_PARAMETERS {angstrom}
5.81401000 0.00000000 0.00000000
0.00000000 8.22225000 0.00000000
0.00000000 0.00000000 26.16670000

ATOMIC_POSITIONS {angstrom}
Ga 0.00000000 0.00000000 23.08347774
Ga 2.90700500 2.05556250 25.13887202
Ga 2.90700500 6.16668750 25.13887202
Ga 0.00000000 4.11112500 23.08347774
Ga 0.02569792 4.18298747 1.05451801
Ga 2.66967711 6.16685195 3.58876290
Ga 3.37212580 2.05556250 3.98728175
Ga 0.02598862 8.15014087 1.05451801
Fe 1.45350250 0.00000000 25.13887202
Fe 4.36050750 4.11112500 25.13887202
Fe 4.36050750 0.00000000 25.13887202
Fe 1.45350250 4.11112500 25.13887202
Fe 4.36050750 6.16668750 23.08347774
Fe 1.45350250 2.05556250 23.08347774
Fe 1.45350250 6.16668750 23.08347774
Fe 4.36050750 2.05556250 23.08347774
Fe 1.64908580 3.93220884 3.06281223
Fe 4.22126196 8.04226495 3.01545051
Fe 4.22120382 4.29135672 3.01571217
Fe 1.64920208 0.17908061 3.06281223
Fe 4.33667006 2.05515139 1.08094638
Fe 1.65548121 6.16644083 1.11627142
Fe 1.46280492 2.05556250 1.29289665
Fe 4.17004053 6.16676972 1.25338493
Ni 0.00000000 6.16668750 25.13887202
Ni 2.90700500 0.00000000 23.08347774
Ni 0.00000000 2.05556250 25.13887202
Ni 2.90700500 4.11112500 23.08347774
Ni 5.51098380 2.05564472 3.11226730
Ni 2.91526089 3.99214904 0.84989442
Ni 0.18005989 6.16685195 2.94323042
Ni 2.91473763 0.11864707 0.84963275
C 1.49879364 2.05564472 3.33887092
