&CONTROL
calculation = 'relax'
prefix = 'scf'
pseudo_dir = '/vol0004/mdt0/data/hp150275/u10028/POT_KKJUS'
outdir = './data'
tprnfor = .true.
nstep = 50
disk_io = 'non'
/
&SYSTEM
ibrav = 0
ecutwfc = 50.0
ecutrho = 400
occupations = 'smearing'
smearing = 'mp'
degauss = 0.01
assume_isolated = 'esm'
esm_bc = 'bc1'
input_dft = 'BEEF-VDW'
nosym = .true.
nspin = 1
ntyp = 5
nat = 34
/
&ELECTRONS
electron_maxstep = 200
mixing_beta = 0.1
conv_thr = 1e-06
/
&IONS
ion_dynamics = 'bfgs'
upscale = 1.0
/
&CELL
/

K_POINTS {automatic}
8 6 1 0 0 0

ATOMIC_SPECIES
C 12.01 C.pbe-n-rrkjus_psl.1.0.0.UPF
Ni 58.69 Ni.pbe-spn-rrkjus_psl.1.0.0.UPF
O 15.99 O.pbe-n-rrkjus_psl.1.0.0.UPF
Sc 44.95 Sc.pbe-spn-rrkjus_psl.1.0.0.UPF
Sn 118.7 Sn.pbe-dn-rrkjus_psl.1.0.0.UPF

CELL_PARAMETERS {angstrom}
6.31539000 0.00000000 0.00000000
0.00000000 8.93131000 0.00000000
0.00000000 0.00000000 26.69850000

ATOMIC_POSITIONS {angstrom}
Sc 0.00000000 0.00000000 -3.349326819999998 0 0 0
Sc 3.15769500 2.23282750 -1.1165312699999994 0 0 0
Sc 3.15769500 6.69848250 -1.1165312699999994 0 0 0
Sc 0.00000000 4.46565500 -3.349326819999998 0 0 0
Sc 6.30541168 4.46574431 1.08689594
Sc 3.16546293 6.67284964 3.40165588
Sc 3.16533662 2.25837105 3.40138890
Sc 0.01199924 0.00017863 1.11172554
Ni 1.57884750 0.00000000 -1.1165312699999994 0 0 0
Ni 4.73654250 4.46565500 -1.1165312699999994 0 0 0
Ni 4.73654250 0.00000000 -1.1165312699999994 0 0 0
Ni 1.57884750 4.46565500 -1.1165312699999994 0 0 0
Ni 4.73654250 6.69848250 -3.349326819999998 0 0 0
Ni 1.57884750 2.23282750 -3.349326819999998 0 0 0
Ni 1.57884750 6.69848250 -3.349326819999998 0 0 0
Ni 4.73654250 2.23282750 -3.349326819999998 0 0 0
Ni 1.48973735 4.46565500 3.18219421
Ni 4.83758874 0.00000000 3.12532641
Ni 4.79830701 4.46565500 3.19928126
Ni 1.58288935 8.93104206 3.49082888
Ni 4.68071445 2.22425344 1.19235501
Ni 1.62255000 6.69696418 1.23347070
Ni 1.62236054 2.23479239 1.23320371
Ni 4.68052499 6.70741381 1.19235501
Sn 0.00000000 6.69848250 -1.1165312699999994 0 0 0
Sn 3.15769500 0.00000000 -3.349326819999998 0 0 0
Sn 0.00000000 2.23282750 -1.1165312699999994 0 0 0
Sn 3.15769500 4.46565500 -3.349326819999998 0 0 0
Sn 6.29164413 2.24256263 3.43209217
Sn 3.15447415 4.46583363 1.11065760
Sn 6.29139152 6.68874737 3.43182519
Sn 3.12434974 0.00017863 1.12774464
C 2.21190219 0.00008931 5.12931582
O 2.51548299 0.00035725 6.25439061
