&CONTROL
calculation = 'relax'
prefix = 'scf'
pseudo_dir = '/vol0403/data/hp230205/u10028/POT_HYBRID_KKJUS_GBRV'
outdir = './data'
tprnfor = .true.
nstep = 50
disk_io = 'non'
/
&SYSTEM
ibrav = 0
ecutwfc = 50.0
ecutrho = 400
occupations = 'smearing'
smearing = 'mp'
degauss = 0.01
assume_isolated = 'esm'
esm_bc = 'bc1'
input_dft = 'BEEF-VDW'
nosym = .true.
nspin = 1
ntyp = 5
nat = 17
/
&ELECTRONS
electron_maxstep = 200
mixing_beta = 0.1
conv_thr = 1e-06
/
&IONS
ion_dynamics = 'bfgs'
upscale = 1.0
/
&CELL
/

K_POINTS {automatic}
12 7 2 0  0  0

ATOMIC_SPECIES
C 12.01 C.pbe-n-rrkjus_psl.1.0.0.UPF
Ge 72.64 Ge.pbe-dn-rrkjus_psl.1.0.0.UPF
Li 6.941 Li.pbe-sl-rrkjus_psl.1.0.0.UPF
Pd 106.4 Pd.pbe-n-rrkjus_psl.1.0.0.UPF
V 50.94 V.pbe-spnl-rrkjus_psl.1.0.0.UPF


CELL_PARAMETERS {angstrom}
5.17268000 0.00000000 0.00000000
0.00000000 9.40562000 0.00000000
0.00000000 0.00000000 23.56350000

ATOMIC_POSITIONS {angstrom}
Li 0.78190231 2.35140500 -0.5938002000000004 0 0 0
Li 2.39008852 2.13093727 2.10704817
Li 0.78190231 7.05421500 -0.5938002000000004 0 0 0
Li 2.39008852 7.27468273 2.10704817
V 2.58634000 0.00000000 -1.7816362300000002 0 0 0
V 3.60732358 0.00000000 0.59380020
V 2.58634000 4.70281000 -1.7816362300000002 0 0 0
V 3.51090482 4.70281000 0.23327865
Ge 0.00000000 0.00000000 -1.7816362300000002 0 0 0
Ge 0.91768516 0.00000000 0.94560325
Ge 0.00000000 4.70281000 -1.7816362300000002 0 0 0
Ge 0.96920505 4.70281000 0.74060081
Pd 3.36824231 2.35140500 -0.5938002000000004 0 0 0
Pd 4.96282437 2.54177475 1.63389309
Pd 3.36824231 7.05421500 -0.5938002000000004 0 0 0
Pd 4.96282437 6.86384525 1.63389309
C 2.52592310 0.00000000 2.02127703
