&CONTROL
calculation = 'relax'
prefix = 'scf'
pseudo_dir = '/vol0004/mdt0/data/hp150275/u10028/POT_HYBRID_KKJUS_GBRV'
outdir = './data'
tprnfor = .true.
nstep = 50
disk_io = 'non'
/
&SYSTEM
ibrav = 0
ecutwfc = 50.0
ecutrho = 400
occupations = 'smearing'
smearing = 'mp'
degauss = 0.01
assume_isolated = 'esm'
esm_bc = 'bc1'
input_dft = 'BEEF-VDW'
nosym = .true.
nspin = 2
ntyp = 5
nat = 34
starting_magnetization(1) = 0.0
starting_magnetization(2) = 0.0
starting_magnetization(3) = 0.0
starting_magnetization(4) = 0.001
starting_magnetization(5) = 0.0
/
&ELECTRONS
electron_maxstep = 200
mixing_beta = 0.1
conv_thr = 1e-06
/
&IONS
ion_dynamics = 'bfgs'
upscale = 1.0
/
&CELL
/

K_POINTS {automatic}
9 6 2 0  0  0

ATOMIC_SPECIES
C 12.01 C.pbe-n-rrkjus_psl.1.0.0.UPF
Hf 178.4 Hf.pbe-spn-rrkjus_psl.1.0.0.UPF
In 114.8 In.pbe-dn-rrkjus_psl.1.0.0.UPF
Ni 58.69 ni_pbe_v1.4.uspp.F.UPF
O 15.99 O.pbe-n-rrkjus_psl.1.0.0.UPF

CELL_PARAMETERS {angstrom}
6.30953000 0.00000000 0.00000000
0.00000000 8.92302000 0.00000000
0.00000000 0.00000000 26.69230000

ATOMIC_POSITIONS {angstrom}
Hf 0.00000000 0.00000000 23.34615327
Hf 3.15476500 2.23075500 25.57682878
Hf 3.15476500 6.69226500 25.57682878
Hf 0.00000000 4.46151000 23.34615327
Hf 0.00000000 4.45990386 1.16458505
Hf 3.15476500 6.69226500 3.29489751
Hf 3.15476500 2.23075500 3.29276213
Hf 0.00000000 0.00160614 1.16458505
In 0.00000000 6.69226500 25.57682878
In 3.15476500 0.00000000 23.34615327
In 0.00000000 2.23075500 25.57682878
In 3.15476500 4.46151000 23.34615327
In 0.00000000 2.23075500 3.55674898
In 3.15476500 4.47061148 1.06609046
In 0.00000000 6.69226500 3.58103897
In 3.15476500 8.91391852 1.06609046
Ni 1.57738250 0.00000000 25.57682878
Ni 4.73214750 4.46151000 25.57682878
Ni 4.73214750 0.00000000 25.57682878
Ni 1.57738250 4.46151000 25.57682878
Ni 4.73214750 6.69226500 23.34615327
Ni 1.57738250 2.23075500 23.34615327
Ni 1.57738250 6.69226500 23.34615327
Ni 4.73214750 2.23075500 23.34615327
Ni 1.60691110 4.46249153 3.22309522
Ni 4.70268199 8.92203847 3.22309522
Ni 4.70261890 4.46249153 3.22309522
Ni 1.60678491 8.92203847 3.22309522
Ni 4.71220939 2.23066577 1.18060043
Ni 1.57145154 6.69235423 1.19528119
Ni 1.59732061 2.23066577 1.18060043
Ni 4.73807846 6.69235423 1.19528119
C 0.00025238 2.23066577 7.56726705
O 0.00000000 2.23084423 8.70249057
