&CONTROL
calculation = 'relax'
prefix = 'scf'
pseudo_dir = '/vol0004/mdt0/data/hp150275/u10028/POT_KKJUS'
outdir = './data'
tprnfor = .true.
nstep = 50
disk_io = 'non'
/
&SYSTEM
ibrav = 0
ecutwfc = 50.0
ecutrho = 400
occupations = 'smearing'
smearing = 'mp'
degauss = 0.01
assume_isolated = 'esm'
esm_bc = 'bc1'
input_dft = 'BEEF-VDW'
nosym = .true.
nspin = 1
ntyp = 5
nat = 18
/
&ELECTRONS
electron_maxstep = 200
mixing_beta = 0.1
conv_thr = 1e-06
/
&IONS
ion_dynamics = 'bfgs'
upscale = 1.0
/
&CELL
/

K_POINTS {automatic}
10 10 2 0  0  0

ATOMIC_SPECIES
C 12.01 C.pbe-n-rrkjus_psl.1.0.0.UPF
Li 6.941 Li.pbe-sl-rrkjus_psl.1.0.0.UPF
Ni 58.69 Ni.pbe-spn-rrkjus_psl.1.0.0.UPF
O 15.99 O.pbe-n-rrkjus_psl.1.0.0.UPF
Sn 118.7 Sn.pbe-dn-rrkjus_psl.1.0.0.UPF

CELL_PARAMETERS {angstrom}
6.05884000 0.00000000 0.00000000
0.00000000 6.05884000 0.00000000
0.00000000 0.00000000 24.54410000

ATOMIC_POSITIONS {angstrom}
Li 6.05859765 0.00163589 2.49932570
Li 3.03160118 3.02923823 2.37758697
Li 3.02942000 0.00000000 -0.7574309300000017 0 0 0
Li 0.00000000 3.02942000 -0.7574309300000017 0 0 0
Ni 1.51240764 1.51143823 0.77706621
Ni 4.54413000 4.54413000 -2.2720473400000003 0 0 0
Ni 4.54219117 1.51119587 0.77657532
Ni 1.51471000 4.54413000 -2.2720473400000003 0 0 0
Ni 4.54691707 4.54219117 0.77559356
Ni 1.51471000 1.51471000 -2.2720473400000003 0 0 0
Ni 1.50822704 4.55012825 0.78467488
Ni 4.54413000 1.51471000 -2.2720473400000003 0 0 0
Sn 0.00000000 0.00000000 -0.7574309300000017 0 0 0
Sn 3.03099530 0.00169648 2.26836572
Sn 6.05690117 3.03178295 2.27106557
Sn 3.02942000 3.02942000 -0.7574309300000017 0 0 0
C 0.00018177 0.00611943 4.63441696
O 0.00042412 0.00569531 5.77399952
