&CONTROL
calculation = 'relax'
prefix = 'scf'
pseudo_dir = '/vol0004/mdt0/data/hp150275/u10028/POT_KKJUS'
outdir = './data'
tprnfor = .true.
nstep = 50
disk_io = 'non'
/
&SYSTEM
ibrav = 0
ecutwfc = 50.0
ecutrho = 400
occupations = 'smearing'
smearing = 'mp'
degauss = 0.01
assume_isolated = 'esm'
esm_bc = 'bc1'
input_dft = 'BEEF-VDW'
nosym = .true.
nspin = 1
ntyp = 2
nat = 16
/
&ELECTRONS
electron_maxstep = 200
mixing_beta = 0.1
conv_thr = 1e-06
/
&IONS
ion_dynamics = 'bfgs'
upscale = 1.0
/
&CELL
/

K_POINTS {automatic}
8 12 2 0  0  0

ATOMIC_SPECIES
Au 196.9 Au.pbe-n-rrkjus_psl.1.0.0.UPF
V 50.94 V.pbe-spnl-rrkjus_psl.1.0.0.UPF

CELL_PARAMETERS {angstrom}
7.78093000 0.00000000 0.00000000
0.00000000 5.50195000 0.00000000
0.00000000 0.00000000 24.12650000

ATOMIC_POSITIONS {angstrom}
V 0.00023343 2.75091998 1.82299834
V 1.94531031 4.13614593 0.63066671
V 1.94531031 1.36569403 0.63042544
V 0.00000000 0.00000000 -0.6878465200000008 0 0 0
V 1.94523250 1.37548750 -2.0632982800000015 0 0 0
V 1.94523250 4.12646250 -2.0632982800000015 0 0 0
V 3.89023157 2.75091998 1.82299834
V 5.83561969 4.13625597 0.63042544
V 5.83561969 1.36563901 0.63042544
V 3.89046500 0.00000000 -0.6878465200000008 0 0 0
V 5.83569750 1.37548750 -2.0632982800000015 0 0 0
V 5.83569750 4.12646250 -2.0632982800000015 0 0 0
Au 7.78077438 5.50189498 2.10479586
Au 0.00000000 2.75097500 -0.6878465200000008 0 0 0
Au 3.89062062 5.50189498 2.10479586
Au 3.89046500 2.75097500 -0.6878465200000008 0 0 0
