&CONTROL
calculation = 'relax'
prefix = 'scf'
pseudo_dir = '/vol0004/mdt0/data/hp150275/u10028/POT_HYBRID_KKJUS_GBRV'
outdir = './data'
tprnfor = .true.
nstep = 50
disk_io = 'non'
/
&SYSTEM
ibrav = 0
ecutwfc = 50.0
ecutrho = 400
occupations = 'smearing'
smearing = 'mp'
degauss = 0.01
assume_isolated = 'esm'
esm_bc = 'bc1'
input_dft = 'BEEF-VDW'
nosym = .true.
nspin = 2
ntyp = 5
nat = 34
starting_magnetization(1) = 0.0
starting_magnetization(2) = 0.1
starting_magnetization(3) = 0.1
starting_magnetization(4) = 0.0
starting_magnetization(5) = 0.0
/
&ELECTRONS
electron_maxstep = 200
mixing_beta = 0.1
conv_thr = 1e-06
/
&IONS
ion_dynamics = 'bfgs'
upscale = 1.0
/
&CELL
/

K_POINTS {automatic}
9 6 2 0  0  0

ATOMIC_SPECIES
C 12.01 C.pbe-n-rrkjus_psl.1.0.0.UPF
Co 58.93 co_pbe_v1.2.uspp.F.UPF
Mn 54.93 mn_pbe_v1.5.uspp.F.UPF
O 15.99 O.pbe-n-rrkjus_psl.1.0.0.UPF
Sb 121.7 Sb.pbe-n-rrkjus_psl.1.0.0.UPF

CELL_PARAMETERS {angstrom}
6.03986000 0.00000000 0.00000000
0.00000000 8.54165000 0.00000000
0.00000000 0.00000000 26.40620000

ATOMIC_POSITIONS {angstrom}
Mn 0.00000000 0.00000000 23.20312794
Mn 3.01993000 2.13541250 25.33859733
Mn 3.01993000 6.40623750 25.33859733
Mn 0.00000000 4.27082500 23.20312794
Mn 0.00585866 4.27091042 1.02878555
Mn 3.03883476 6.30228562 3.21469079
Mn 3.03883476 2.23936438 3.21469079
Mn 6.03943721 8.54156458 1.09876198
Co 1.50996500 0.00000000 25.33859733
Co 4.52989500 4.27082500 25.33859733
Co 4.52989500 0.00000000 25.33859733
Co 1.50996500 4.27082500 25.33859733
Co 4.52989500 6.40623750 23.20312794
Co 1.50996500 2.13541250 23.20312794
Co 1.50996500 6.40623750 23.20312794
Co 4.52989500 2.13541250 23.20312794
Co 1.43549353 4.27091042 3.02641458
Co 4.49927291 8.54156458 3.13203938
Co 4.63166664 4.27091042 3.04305049
Co 1.64719062 8.54156458 3.16214245
Co 4.55997350 2.12798126 1.08951981
Co 1.48882549 6.42545621 1.09084012
Co 1.48888589 2.11619379 1.09110418
Co 4.55997350 6.41366874 1.08925575
Sb 0.00000000 6.40623750 25.33859733
Sb 3.01993000 0.00000000 23.20312794
Sb 0.00000000 2.13541250 25.33859733
Sb 3.01993000 4.27082500 23.20312794
Sb 0.02760216 2.11346046 3.37656079
Sb 3.02524508 4.27091042 1.06337767
Sb 0.02760216 6.42818954 3.37656079
Sb 3.03261371 0.00000000 1.01769495
C 2.73098310 8.54156458 4.57355384
O 3.17237607 8.54156458 5.67231582
