&CONTROL
calculation = 'relax'
prefix = 'scf'
pseudo_dir = '/vol0004/mdt0/data/hp150275/u10028/POT_KKJUS'
outdir = './data'
tprnfor = .true.
nstep = 50
disk_io = 'non'
/
&SYSTEM
ibrav = 0
ecutwfc = 50.0
ecutrho = 400
occupations = 'smearing'
smearing = 'mp'
degauss = 0.01
assume_isolated = 'esm'
esm_bc = 'bc1'
input_dft = 'BEEF-VDW'
nosym = .true.
nspin = 1
ntyp = 5
nat = 34
/
&ELECTRONS
electron_maxstep = 200
mixing_beta = 0.1
conv_thr = 1e-06
/
&IONS
ion_dynamics = 'bfgs'
upscale = 1.0
/
&CELL
/

K_POINTS {automatic}
8 6 1 0 0 0

ATOMIC_SPECIES
C 12.01 C.pbe-n-rrkjus_psl.1.0.0.UPF
Ga 69.72 Ga.pbe-dnl-rrkjus_psl.1.0.0.UPF
Li 6.941 Li.pbe-sl-rrkjus_psl.1.0.0.UPF
Mg 24.30 Mg.pbe-spnl-rrkjus_psl.1.0.0.UPF
O 15.99 O.pbe-n-rrkjus_psl.1.0.0.UPF

CELL_PARAMETERS {angstrom}
6.69031000 0.00000000 0.00000000
0.00000000 9.46152000 0.00000000
0.00000000 0.00000000 27.09610000

ATOMIC_POSITIONS {angstrom}
Li 0.00000000 0.00000000 -3.547963329999998 0 0 0
Li 3.34515500 2.36538000 -1.1827447599999985 0 0 0
Li 3.34515500 7.09614000 -1.1827447599999985 0 0 0
Li 0.00000000 4.73076000 -3.547963329999998 0 0 0
Li 6.68596130 4.72489386 1.27270382
Li 3.33645760 7.09841076 3.93137315
Li 3.35010583 2.36424462 3.90671570
Li 6.68857052 9.44865233 1.27216189
Mg 1.67257750 0.00000000 -1.1827447599999985 0 0 0
Mg 5.01773250 4.73076000 -1.1827447599999985 0 0 0
Mg 5.01773250 0.00000000 -1.1827447599999985 0 0 0
Mg 1.67257750 4.73076000 -1.1827447599999985 0 0 0
Mg 5.01773250 7.09614000 -3.547963329999998 0 0 0
Mg 1.67257750 2.36538000 -3.547963329999998 0 0 0
Mg 1.67257750 7.09614000 -3.547963329999998 0 0 0
Mg 5.01773250 2.36538000 -3.547963329999998 0 0 0
Mg 1.60600892 4.71268850 3.73519739
Mg 5.08135735 9.46076308 3.74061661
Mg 5.07834671 4.72688078 3.73736507
Mg 1.60447014 0.00983998 3.73953276
Mg 5.00502091 2.35677002 1.27839400
Mg 1.67752833 7.08961155 1.28435514
Mg 1.68381722 2.35866232 1.28462610
Mg 5.01224645 7.08762463 1.29031628
Ga 0.00000000 7.09614000 -1.1827447599999985 0 0 0
Ga 3.34515500 0.00000000 -3.547963329999998 0 0 0
Ga 0.00000000 2.36538000 -1.1827447599999985 0 0 0
Ga 3.34515500 4.73076000 -3.547963329999998 0 0 0
Ga 6.68054215 2.36812384 3.63169028
Ga 3.34642616 4.72754308 1.27541343
Ga 0.00401419 7.09765384 3.64279968
Ga 3.34301410 9.45309925 1.27405862
C 0.59483546 2.61156875 7.81912158
O 6.28889140 2.28230785 8.25482687
