&CONTROL
calculation = 'relax'
prefix = 'scf'
pseudo_dir = '/vol0004/mdt0/data/hp150275/u10028/POT_HYBRID_KKJUS_GBRV'
outdir = './data'
tprnfor = .true.
nstep = 50
disk_io = 'non'
/
&SYSTEM
ibrav = 0
ecutwfc = 50.0
ecutrho = 400
occupations = 'smearing'
smearing = 'mp'
degauss = 0.01
assume_isolated = 'esm'
esm_bc = 'bc1'
input_dft = 'BEEF-VDW'
nosym = .true.
nspin = 2
ntyp = 3
nat = 17
starting_magnetization(1) = 0.0
starting_magnetization(2) = 0.0
starting_magnetization(3) = 0.001
/
&ELECTRONS
electron_maxstep = 200
mixing_beta = 0.1
conv_thr = 1e-06
/
&IONS
ion_dynamics = 'bfgs'
upscale = 1.0
/
&CELL
/

K_POINTS {automatic}
8 11 2 0  0  0

ATOMIC_SPECIES
C 12.01 C.pbe-n-rrkjus_psl.1.0.0.UPF
In 114.8 In.pbe-dn-rrkjus_psl.1.0.0.UPF
Ni 58.69 ni_pbe_v1.4.uspp.F.UPF

CELL_PARAMETERS {angstrom}
7.54029000 0.00000000 0.00000000
0.00000000 5.33179000 0.00000000
0.00000000 0.00000000 23.99880000

ATOMIC_POSITIONS {angstrom}
In 7.38993662 5.31419509 2.15197240
In 0.00000000 2.66589500 23.33235332
In 3.92049838 5.31424841 2.15197240
In 3.77014500 2.66589500 23.33235332
Ni 0.07532750 2.64755364 1.95734213
Ni 1.88462008 4.06175762 0.70268486
Ni 1.88477089 1.24571942 0.69260537
Ni 0.00000000 0.00000000 23.33235332
Ni 1.88507250 1.33294750 21.99945997
Ni 1.88507250 3.99884250 21.99945997
Ni 3.69481750 2.64755364 1.95734213
Ni 5.65559451 3.99308417 0.63908804
Ni 5.65574532 1.31087389 0.62756862
Ni 3.77014500 0.00000000 23.33235332
Ni 5.65521750 1.33294750 21.99945997
Ni 5.65521750 3.99884250 21.99945997
C 1.88507250 2.64973968 1.90742462
