&CONTROL
calculation = 'relax'
prefix = 'scf'
pseudo_dir = '/vol0004/mdt0/data/hp150275/u10028/POT_KKJUS'
outdir = './data'
tprnfor = .true.
nstep = 50
disk_io = 'non'
/
&SYSTEM
ibrav = 0
ecutwfc = 50.0
ecutrho = 400
occupations = 'smearing'
smearing = 'mp'
degauss = 0.01
assume_isolated = 'esm'
esm_bc = 'bc1'
input_dft = 'BEEF-VDW'
nosym = .true.
nspin = 1
ntyp = 5
nat = 34
/
&ELECTRONS
electron_maxstep = 200
mixing_beta = 0.1
conv_thr = 1e-06
/
&IONS
ion_dynamics = 'bfgs'
upscale = 1.0
/
&CELL
/

K_POINTS {automatic}
8 6 1 0 0 0

ATOMIC_SPECIES
C 12.01 C.pbe-n-rrkjus_psl.1.0.0.UPF
K 39.09 K.pbe-spn-rrkjus_psl.1.0.0.UPF
Na 22.98 Na.pbe-spnl-rrkjus_psl.1.0.0.UPF
O 15.99 O.pbe-n-rrkjus_psl.1.0.0.UPF
Sb 121.7 Sb.pbe-n-rrkjus_psl.1.0.0.UPF

CELL_PARAMETERS {angstrom}
7.84214000 0.00000000 0.00000000
0.00000000 11.09050000 0.00000000
0.00000000 0.00000000 28.31780000

ATOMIC_POSITIONS {angstrom}
K 0.00000000 0.00000000 -4.1590352899999985 0 0 0
K 3.92107000 2.77262500 -1.3864394899999972 0 0 0
K 3.92107000 8.31787500 -1.3864394899999972 0 0 0
K 0.00000000 5.54525000 -4.1590352899999985 0 0 0
K 0.00000000 5.59914983 1.30941507
K 3.92107000 8.35602632 4.61835000
K 3.92099158 2.80378931 4.50422927
K 0.00000000 11.07131344 1.32159173
Na 1.96053500 0.00000000 -1.3864394899999972 0 0 0
Na 5.88160500 5.54525000 -1.3864394899999972 0 0 0
Na 5.88160500 0.00000000 -1.3864394899999972 0 0 0
Na 1.96053500 5.54525000 -1.3864394899999972 0 0 0
Na 5.88160500 8.31787500 -4.1590352899999985 0 0 0
Na 1.96053500 2.77262500 -4.1590352899999985 0 0 0
Na 1.96053500 8.31787500 -4.1590352899999985 0 0 0
Na 5.88160500 2.77262500 -4.1590352899999985 0 0 0
Na 1.61383399 5.55800408 4.23832513
Na 6.22681600 0.03870585 4.25843076
Na 6.22830601 5.55800408 4.23832513
Na 1.61524558 0.03870585 4.25843076
Na 5.80898678 2.78726446 1.53963879
Na 2.07793184 8.33839243 1.58749587
Na 2.03315322 2.78737537 1.53963879
Na 5.76420816 8.33839243 1.58749587
Sb 0.00000000 8.31787500 -1.3864394899999972 0 0 0
Sb 3.92107000 0.00000000 -4.1590352899999985 0 0 0
Sb 0.00000000 2.77262500 -1.3864394899999972 0 0 0
Sb 3.92107000 5.54525000 -4.1590352899999985 0 0 0
Sb 0.00000000 2.80512016 4.04151642
Sb 3.92107000 5.55589688 1.62968939
Sb 0.00000000 8.34083233 4.04802951
Sb 3.92107000 0.02262462 1.63705202
C 0.00000000 2.02623435 8.22433865
O 0.00007842 3.06164343 8.69554685
