&CONTROL
calculation = 'relax'
prefix = 'scf'
pseudo_dir = '/vol0004/mdt0/data/hp150275/u10028/POT_HYBRID_KKJUS_GBRV'
outdir = './data'
tprnfor = .true.
nstep = 50
disk_io = 'non'
/
&SYSTEM
ibrav = 0
ecutwfc = 50.0
ecutrho = 400
occupations = 'smearing'
smearing = 'mp'
degauss = 0.01
assume_isolated = 'esm'
esm_bc = 'bc1'
input_dft = 'BEEF-VDW'
nosym = .true.
nspin = 2
ntyp = 4
nat = 33
starting_magnetization(1) = 0.0
starting_magnetization(2) = 0.1
starting_magnetization(3) = 0.0
starting_magnetization(4) = 0.0
/
&ELECTRONS
electron_maxstep = 300
mixing_beta = 0.1
conv_thr = 1e-06
/
&IONS
ion_dynamics = 'bfgs'
upscale = 1.0
/
&CELL
/

K_POINTS {automatic}
8 6 1 0 0 0

ATOMIC_SPECIES
C 12.01 C.pbe-n-rrkjus_psl.1.0.0.UPF
Co 58.93 co_pbe_v1.2.uspp.F.UPF
Sn 118.7 Sn.pbe-dn-rrkjus_psl.1.0.0.UPF
Ti 47.86 Ti.pbe-spn-rrkjus_psl.1.0.0.UPF

CELL_PARAMETERS {angstrom}
6.11439000 0.00000000 0.00000000
0.00000000 8.64705000 0.00000000
0.00000000 0.00000000 26.48530000

ATOMIC_POSITIONS {angstrom}
Ti 0.00000000 0.00000000 -3.2425952799999997 0 0 0
Ti 3.05719500 2.16176250 -1.0808650899999996 0 0 0
Ti 3.05719500 6.48528750 -1.0808650899999996 0 0 0
Ti 0.00000000 4.32352500 -3.2425952799999997 0 0 0
Ti 0.00000000 4.32352500 1.14045702
Ti 3.05719500 6.47223045 3.16499335
Ti 3.05719500 2.17481955 3.16499335
Ti 0.00000000 0.00000000 1.18733600
Co 1.52859750 0.00000000 -1.0808650899999996 0 0 0
Co 4.58579250 4.32352500 -1.0808650899999996 0 0 0
Co 4.58579250 0.00000000 -1.0808650899999996 0 0 0
Co 1.52859750 4.32352500 -1.0808650899999996 0 0 0
Co 4.58579250 6.48528750 -3.2425952799999997 0 0 0
Co 1.52859750 2.16176250 -3.2425952799999997 0 0 0
Co 1.52859750 6.48528750 -3.2425952799999997 0 0 0
Co 4.58579250 2.16176250 -3.2425952799999997 0 0 0
Co 1.59328775 4.32352500 3.09930981
Co 4.39520696 0.00000000 3.18406277
Co 4.52110225 4.32352500 3.09930981
Co 1.71918304 0.00000000 3.18406277
Co 4.63122242 2.15994662 1.15740761
Co 1.48322873 6.48710338 1.15740761
Co 1.48322873 2.15994662 1.15740761
Co 4.63116127 6.48710338 1.15740761
Sn 0.00000000 6.48528750 -1.0808650899999996 0 0 0
Sn 3.05719500 0.00000000 -3.2425952799999997 0 0 0
Sn 0.00000000 2.16176250 -1.0808650899999996 0 0 0
Sn 3.05719500 4.32352500 -3.2425952799999997 0 0 0
Sn 0.00000000 2.31464234 3.60915183
Sn 3.05719500 4.32352500 1.01226817
Sn 0.00000000 6.33232119 3.60915183
Sn 3.05719500 0.00000000 1.00617655
C 0.00000000 0.00000000 3.49685416
