&CONTROL
calculation = 'relax'
prefix = 'scf'
pseudo_dir = '/vol0004/mdt0/data/hp150275/u10028/POT_KKJUS'
outdir = './data'
tprnfor = .true.
nstep = 50
disk_io = 'non'
/
&SYSTEM
ibrav = 0
ecutwfc = 50.0
ecutrho = 400
occupations = 'smearing'
smearing = 'mp'
degauss = 0.01
assume_isolated = 'esm'
esm_bc = 'bc1'
input_dft = 'BEEF-VDW'
nosym = .true.
nspin = 1
ntyp = 2
nat = 16
/
&ELECTRONS
electron_maxstep = 200
mixing_beta = 0.1
conv_thr = 1e-06
/
&IONS
ion_dynamics = 'bfgs'
upscale = 1.0
/
&CELL
/

K_POINTS {automatic}
8 11 2 0  0  0

ATOMIC_SPECIES
In 114.8 In.pbe-dn-rrkjus_psl.1.0.0.UPF
Zr 91.22 Zr.pbe-spn-rrkjus_psl.1.0.0.UPF

CELL_PARAMETERS {angstrom}
8.97917000 0.00000000 0.00000000
0.00000000 6.34923000 0.00000000
0.00000000 0.00000000 24.76190000

ATOMIC_POSITIONS {angstrom}
Zr 0.00000000 3.17461500 -2.380856680000001 0 0 0
Zr 2.24479250 4.76192250 -0.793618900000002 0 0 0
Zr 2.24479250 1.58730750 -0.793618900000002 0 0 0
Zr 8.97899042 0.00000000 0.77455223
Zr 2.24479250 1.55892644 2.22683767
Zr 2.24479250 4.79030356 2.22683767
Zr 4.48958500 3.17461500 -2.380856680000001 0 0 0
Zr 6.73437750 4.76192250 -0.793618900000002 0 0 0
Zr 6.73437750 1.58730750 -0.793618900000002 0 0 0
Zr 4.48976458 0.00000000 0.77479985
Zr 6.73437750 1.55968835 2.22659005
Zr 6.73437750 4.78954165 2.22659005
In 0.00000000 0.00000000 -2.380856680000001 0 0 0
In 0.00026938 3.17461500 0.76365700
In 4.48958500 0.00000000 -2.380856680000001 0 0 0
In 4.48922583 3.17461500 0.76365700
