&CONTROL
calculation = 'relax'
prefix = 'scf'
pseudo_dir = '/vol0004/mdt0/data/hp150275/u10028/POT_HYBRID_KKJUS_GBRV'
outdir = './data'
tprnfor = .true.
nstep = 50
disk_io = 'non'
/
&SYSTEM
ibrav = 0
ecutwfc = 50.0
ecutrho = 400
occupations = 'smearing'
smearing = 'mp'
degauss = 0.01
assume_isolated = 'esm'
esm_bc = 'bc1'
input_dft = 'BEEF-VDW'
nosym = .true.
nspin = 2
ntyp = 4
nat = 33
starting_magnetization(1) = 0.0
starting_magnetization(2) = 0.0
starting_magnetization(3) = 0.0
starting_magnetization(4) = 0.001
/
&ELECTRONS
electron_maxstep = 300
mixing_beta = 0.1
conv_thr = 1e-06
/
&IONS
ion_dynamics = 'bfgs'
upscale = 1.0
/
&CELL
/

K_POINTS {automatic}
9 6 2 0  0  0

ATOMIC_SPECIES
Al 26.98 Al.pbe-nl-rrkjus_psl.1.0.0.UPF
C 12.01 C.pbe-n-rrkjus_psl.1.0.0.UPF
Hf 178.4 Hf.pbe-spn-rrkjus_psl.1.0.0.UPF
Ni 58.69 ni_pbe_v1.4.uspp.F.UPF

CELL_PARAMETERS {angstrom}
6.09317000 0.00000000 0.00000000
0.00000000 8.61704000 0.00000000
0.00000000 0.00000000 26.46280000

ATOMIC_POSITIONS {angstrom}
Hf 0.00000000 0.00000000 -3.23137251 0 0 0
Hf 3.04658500 2.15426000 -1.07703596 0 0 0
Hf 3.04658500 6.46278000 -1.07703596 0 0 0
Hf 0.00000000 4.30852000 -3.23137251 0 0 0
Hf 0.00000000 4.30852000 1.05427795
Hf 3.04658500 6.36747554 3.30123430
Hf 3.04658500 2.24956446 3.30123430
Hf 0.00000000 0.00000000 1.10085248
Al 0.00000000 6.46278000 -1.07703596 0 0 0
Al 3.04658500 0.00000000 -3.23137251 0 0 0
Al 0.00000000 2.15426000 -1.07703596 0 0 0
Al 3.04658500 4.30852000 -3.23137251 0 0 0
Al 0.00000000 2.10833118 3.22475681
Al 3.04658500 4.30852000 1.10905595
Al 0.00000000 6.50870882 3.22475681
Al 3.04658500 0.00000000 1.07465431
Ni 1.52329250 0.00000000 -1.07703596 0 0 0
Ni 4.56987750 4.30852000 -1.07703596 0 0 0
Ni 4.56987750 0.00000000 -1.07703596 0 0 0
Ni 1.52329250 4.30852000 -1.07703596 0 0 0
Ni 4.56987750 6.46278000 -3.23137251 0 0 0
Ni 1.52329250 2.15426000 -3.23137251 0 0 0
Ni 1.52329250 6.46278000 -3.23137251 0 0 0
Ni 4.56987750 2.15426000 -3.23137251 0 0 0
Ni 1.38686642 4.30852000 3.15410113
Ni 4.31573138 0.00000000 3.22316904
Ni 4.70630358 4.30852000 3.15410113
Ni 1.77743862 0.00000000 3.22316904
Ni 4.48347635 2.17787069 1.12731528
Ni 1.60969365 6.43916931 1.12731528
Ni 1.60969365 2.17787069 1.12731528
Ni 4.48347635 6.43916931 1.12731528
C 0.00000000 0.00000000 3.50129307
