&CONTROL
calculation = 'relax'
prefix = 'scf'
pseudo_dir = '/vol0004/mdt0/data/hp150275/u10028/POT_KKJUS'
outdir = './data'
tprnfor = .true.
nstep = 50
disk_io = 'non'
/
&SYSTEM
ibrav = 0
ecutwfc = 50.0
ecutrho = 400
occupations = 'smearing'
smearing = 'mp'
degauss = 0.01
assume_isolated = 'esm'
esm_bc = 'bc1'
input_dft = 'BEEF-VDW'
nosym = .true.
nspin = 1
ntyp = 3
nat = 16
/
&ELECTRONS
electron_maxstep = 200
mixing_beta = 0.1
conv_thr = 1e-06
/
&IONS
ion_dynamics = 'bfgs'
upscale = 1.0
/
&CELL
/

K_POINTS {automatic}
8 8 1 0 0 0

ATOMIC_SPECIES
Pd 106.4 Pd.pbe-n-rrkjus_psl.1.0.0.UPF
Sn 118.7 Sn.pbe-dn-rrkjus_psl.1.0.0.UPF
Y 88.90 Y.pbe-spn-rrkjus_psl.1.0.0.UPF

CELL_PARAMETERS {angstrom}
6.84524000 0.00000000 0.00000000
-0.00000000 6.84524000 0.00000000
0.00000000 0.00000000 25.13390000

ATOMIC_POSITIONS {angstrom}
Y 0.00000000 0.00000000 2.56692521
Y 3.42262000 3.42262000 2.56692521
Y 3.42262000 0.00000000 -0.8555579600000023 0 0 0
Y 0.00000000 3.42262000 -0.8555579600000023 0 0 0
Sn 0.00000000 0.00000000 -0.8555579600000023 0 0 0
Sn 3.42262000 -0.00000000 2.56692521
Sn 0.00000000 3.42262000 2.56692521
Sn 3.42262000 3.42262000 -0.8555579600000023 0 0 0
Pd 1.71131000 1.71131000 0.85555796
Pd 5.13393000 5.13393000 -2.566925210000001 0 0 0
Pd 5.13393000 1.71131000 0.85555796
Pd 1.71131000 5.13393000 -2.566925210000001 0 0 0
Pd 5.13393000 5.13393000 0.85555796
Pd 1.71131000 1.71131000 -2.566925210000001 0 0 0
Pd 1.71131000 5.13393000 0.85555796
Pd 5.13393000 1.71131000 -2.566925210000001 0 0 0
