&CONTROL
calculation = 'relax'
prefix = 'scf'
pseudo_dir = '/vol0403/data/hp230205/u10028/POT_HYBRID_KKJUS_GBRV'
outdir = './data'
tprnfor = .true.
nstep = 70
disk_io = 'non'
/
&SYSTEM
ibrav = 0
ecutwfc = 50.0
ecutrho = 400
occupations = 'smearing'
smearing = 'mp'
degauss = 0.01
assume_isolated = 'esm'
esm_bc = 'bc1'
input_dft = 'BEEF-VDW'
nosym = .true.
nspin = 1
ntyp = 5
nat = 33
/
&ELECTRONS
electron_maxstep = 200
mixing_beta = 0.1
conv_thr = 1e-06
/
&IONS
ion_dynamics = 'bfgs'
upscale = 1.0
/
&CELL
/

K_POINTS {automatic}
9 6 2 0  0  0

ATOMIC_SPECIES
C 12.01 C.pbe-n-rrkjus_psl.1.0.0.UPF
Cu 63.54 Cu.pbe-dn-rrkjus_psl.1.0.0.UPF
Ge 72.64 Ge.pbe-dn-rrkjus_psl.1.0.0.UPF
Pd 106.4 Pd.pbe-n-rrkjus_psl.1.0.0.UPF
Y 88.90 Y.pbe-spn-rrkjus_psl.1.0.0.UPF


CELL_PARAMETERS {angstrom}
6.58158000 0.00000000 0.00000000
-0.00000000 9.30776000 0.00000000
0.00000000 0.00000000 26.98080000

ATOMIC_POSITIONS {angstrom}
Y 4.93618500 0.00000000 -1.1634120999999986 0 0 0
Y 4.93618500 4.65388000 -1.1634120999999986 0 0 0
Y 1.64539500 2.32694000 -3.4905060999999975 0 0 0
Y 1.64539500 6.98082000 -3.4905060999999975 0 0 0
Y 4.29125598 4.65388000 3.77029699
Y 4.30257629 -0.00000000 3.40659581
Y 1.59201839 6.90161096 1.29669725
Y 1.59195257 2.40605596 1.29669725
Cu 0.00000000 0.00000000 -3.4905060999999975 0 0 0
Cu 0.00000000 4.65388000 -3.4905060999999975 0 0 0
Cu 3.29079000 6.98082000 -1.1634120999999986 0 0 0
Cu 3.29079000 2.32694000 -1.1634120999999986 0 0 0
Cu 6.11158937 4.65388000 1.64205149
Cu 6.55248942 9.30766692 1.28698416
Cu 2.21180577 2.04538026 4.21359154
Cu 2.21193741 7.26237974 4.21359154
Ge 1.64539500 0.00000000 -1.1634120999999986 0 0 0
Ge 1.64539500 4.65388000 -1.1634120999999986 0 0 0
Ge 4.93618500 2.32694000 -3.4905060999999975 0 0 0
Ge 4.93618500 6.98082000 -3.4905060999999975 0 0 0
Ge 1.38858175 4.65388000 3.46541395
Ge 0.36744961 0.00000000 4.40866272
Ge 4.90005213 7.01358332 1.11241838
Ge 4.90011794 2.29417668 1.11241838
Pd 0.00000000 2.32694000 -1.1634120999999986 0 0 0
Pd 0.00000000 6.98082000 -1.1634120999999986 0 0 0
Pd 3.29079000 4.65388000 -3.4905060999999975 0 0 0
Pd 3.29079000 0.00000000 -3.4905060999999975 0 0 0
Pd 6.20274426 6.92199496 3.39904118
Pd 6.20274426 2.38576504 3.39904118
Pd 3.14283608 9.30766692 0.89765122
Pd 3.34061256 4.65378692 1.14479534
C 2.24787283 -0.00000000 4.37277826
