&CONTROL
calculation = 'relax'
prefix = 'scf'
pseudo_dir = '/vol0403/data/hp230205/u10028/POT_HYBRID_KKJUS_GBRV'
outdir = './data'
tprnfor = .true.
nstep = 50
disk_io = 'non'
/
&SYSTEM
ibrav = 0
ecutwfc = 50.0
ecutrho = 400
occupations = 'smearing'
smearing = 'mp'
degauss = 0.01
assume_isolated = 'esm'
esm_bc = 'bc1'
input_dft = 'BEEF-VDW'
nosym = .true.
nspin = 1
ntyp = 4
nat = 32
/
&ELECTRONS
electron_maxstep = 200
mixing_beta = 0.1
conv_thr = 1e-06
/
&IONS
ion_dynamics = 'bfgs'
upscale = 1.0
/
&CELL
/

K_POINTS {automatic}
7 6 2 0  0  0

ATOMIC_SPECIES
In 114.8 In.pbe-dn-rrkjus_psl.1.0.0.UPF
Pd 106.4 Pd.pbe-n-rrkjus_psl.1.0.0.UPF
Sc 44.95 Sc.pbe-spn-rrkjus_psl.1.0.0.UPF
Y 88.90 Y.pbe-spn-rrkjus_psl.1.0.0.UPF


CELL_PARAMETERS {angstrom}
9.64246000 0.00000000 0.00000000
0.00000000 10.11530000 0.00000000
0.00000000 0.00000000 25.52170000

ATOMIC_POSITIONS {angstrom}
Y 0.00000000 2.52882500 -0.9203124999999979 0 0 0
Y 0.00000000 2.52882500 2.76093751
Y 0.00000000 7.58647500 -0.9203124999999979 0 0 0
Y 0.00000000 7.58647500 2.76093751
Y 4.82123000 2.52882500 -0.9203124999999979 0 0 0
Y 4.82123000 2.52882500 2.76093751
Y 4.82123000 7.58647500 -0.9203124999999979 0 0 0
Y 4.82123000 7.58647500 2.76093751
Sc 2.41061500 0.00000000 -0.9203124999999979 0 0 0
Sc 2.41061500 0.00000000 2.76093751
Sc 2.41061500 5.05765000 -0.9203124999999979 0 0 0
Sc 2.41061500 5.05765000 2.76093751
Sc 7.23184500 0.00000000 -0.9203124999999979 0 0 0
Sc 7.23184500 0.00000000 2.76093751
Sc 7.23184500 5.05765000 -0.9203124999999979 0 0 0
Sc 7.23184500 5.05765000 2.76093751
In 0.00000000 0.00000000 -2.760937509999998 0 0 0
In 0.00000000 0.00000000 0.92031250
In 0.00000000 5.05765000 -2.760937509999998 0 0 0
In 0.00000000 5.05765000 0.92031250
In 4.82123000 0.00000000 -2.760937509999998 0 0 0
In 4.82123000 0.00000000 0.92031250
In 4.82123000 5.05765000 -2.760937509999998 0 0 0
In 4.82123000 5.05765000 0.92031250
Pd 2.41061500 2.52882500 -2.760937509999998 0 0 0
Pd 2.41061500 2.52882500 0.92031250
Pd 2.41061500 7.58647500 -2.760937509999998 0 0 0
Pd 2.41061500 7.58647500 0.92031250
Pd 7.23184500 2.52882500 -2.760937509999998 0 0 0
Pd 7.23184500 2.52882500 0.92031250
Pd 7.23184500 7.58647500 -2.760937509999998 0 0 0
Pd 7.23184500 7.58647500 0.92031250
