&CONTROL
calculation = 'relax'
prefix = 'scf'
pseudo_dir = '/vol0004/mdt0/data/hp150275/u10028/POT_KKJUS'
outdir = './data'
tprnfor = .true.
nstep = 50
disk_io = 'non'
/
&SYSTEM
ibrav = 0
ecutwfc = 50.0
ecutrho = 400
occupations = 'smearing'
smearing = 'mp'
degauss = 0.01
assume_isolated = 'esm'
esm_bc = 'bc1'
input_dft = 'BEEF-VDW'
nosym = .true.
nspin = 1
ntyp = 4
nat = 33
/
&ELECTRONS
electron_maxstep = 200
mixing_beta = 0.1
conv_thr = 1e-06
/
&IONS
ion_dynamics = 'bfgs'
upscale = 1.0
/
&CELL
/

K_POINTS {automatic}
9 6 2 0  0  0

ATOMIC_SPECIES
Ag 107.8 Ag.pbe-n-rrkjus_psl.1.0.0.UPF
C 12.01 C.pbe-n-rrkjus_psl.1.0.0.UPF
Li 6.941 Li.pbe-sl-rrkjus_psl.1.0.0.UPF
Sb 121.7 Sb.pbe-n-rrkjus_psl.1.0.0.UPF

CELL_PARAMETERS {angstrom}
6.69979000 0.00000000 0.00000000
0.00000000 9.47494000 0.00000000
0.00000000 0.00000000 27.10620000

ATOMIC_POSITIONS {angstrom}
Li 0.00000000 7.10620500 -1.1842698800000022 0 0 0
Li 3.34989500 0.00000000 -3.5530807000000024 0 0 0
Li 0.00000000 2.36873500 -1.1842698800000022 0 0 0
Li 3.34989500 4.73747000 -3.5530807000000024 0 0 0
Li 1.67494750 0.00000000 -1.1842698800000022 0 0 0
Li 1.67494750 4.73747000 -1.1842698800000022 0 0 0
Li 5.02484250 7.10620500 -3.5530807000000024 0 0 0
Li 5.02484250 2.36873500 -3.5530807000000024 0 0 0
Li 6.48599970 2.36873500 3.64280222
Li 3.22467592 4.80009935 1.10837252
Li 0.13151688 7.10620500 3.30370366
Li 3.22467592 9.41231065 1.10837252
Li 1.78020120 4.45113731 3.77426729
Li 1.78020120 0.28633269 3.77426729
Li 5.05572853 2.36873500 1.13059960
Li 4.92856652 7.10620500 1.27128078
Ag 1.67494750 2.36873500 -3.5530807000000024 0 0 0
Ag 1.67494750 7.10620500 -3.5530807000000024 0 0 0
Ag 5.02484250 4.73747000 -1.1842698800000022 0 0 0
Ag 5.02484250 0.00000000 -1.1842698800000022 0 0 0
Ag 1.69343892 7.10620500 1.07503189
Ag 1.76459069 2.36873500 1.43364692
Ag 4.82170487 9.27824025 3.29882454
Ag 4.82170487 4.93416975 3.29882454
Sb 0.00000000 0.00000000 -3.5530807000000024 0 0 0
Sb 3.34989500 2.36873500 -1.1842698800000022 0 0 0
Sb 3.34989500 7.10620500 -1.1842698800000022 0 0 0
Sb 0.00000000 4.73747000 -3.5530807000000024 0 0 0
Sb 0.04408462 4.74457621 1.24281927
Sb 3.09476700 7.10620500 3.62382788
Sb 3.77231676 2.36873500 3.87835510
Sb 0.04408462 9.46783380 1.24281927
C 1.70476157 2.36873500 3.91521953
