&CONTROL
calculation = 'relax'
prefix = 'scf'
pseudo_dir = '/vol0403/data/hp230205/u10028/POT_HYBRID_KKJUS_GBRV'
outdir = './data'
tprnfor = .true.
nstep = 50
disk_io = 'non'
/
&SYSTEM
ibrav = 0
ecutwfc = 50.0
ecutrho = 400
occupations = 'smearing'
smearing = 'mp'
degauss = 0.01
assume_isolated = 'esm'
esm_bc = 'bc1'
input_dft = 'BEEF-VDW'
nosym = .true.
nspin = 1
ntyp = 6
nat = 34
/
&ELECTRONS
electron_maxstep = 200
mixing_beta = 0.1
conv_thr = 1e-06
/
&IONS
ion_dynamics = 'bfgs'
upscale = 1.0
/
&CELL
/

K_POINTS {automatic}
6 6 1 0 0 0

ATOMIC_SPECIES
C 12.01 C.pbe-n-rrkjus_psl.1.0.0.UPF
In 114.8 In.pbe-dn-rrkjus_psl.1.0.0.UPF
Li 6.941 Li.pbe-sl-rrkjus_psl.1.0.0.UPF
O 15.99 O.pbe-n-rrkjus_psl.1.0.0.UPF
Pd 106.4 Pd.pbe-n-rrkjus_psl.1.0.0.UPF
Rh 102.9 Rh.pbe-spn-rrkjus_psl.1.0.0.UPF


CELL_PARAMETERS {angstrom}
6.29773000 0.00000000 0.00000000
0.00000000 8.90634000 0.00000000
0.00000000 0.00000000 26.67980000

ATOMIC_POSITIONS {angstrom}
Li 0.00000000 2.22658500 -1.113348049999999 0 0 0
Li 0.00000000 6.67975500 -1.113348049999999 0 0 0
Li 3.14886500 4.45317000 -3.3397773599999994 0 0 0
Li 3.14886500 0.00000000 -3.3397773599999994 0 0 0
Li 6.29672236 6.67975500 3.56602207
Li 6.26983106 2.22658500 3.54201025
Li 3.14143368 8.90580562 1.11975121
Li 3.14143368 4.45370438 1.11975121
In 0.00000000 0.00000000 -3.3397773599999994 0 0 0
In 0.00000000 4.45317000 -3.3397773599999994 0 0 0
In 3.14886500 6.67975500 -1.113348049999999 0 0 0
In 3.14886500 2.22658500 -1.113348049999999 0 0 0
In 6.28683493 4.45317000 1.09600618
In 6.28683493 0.00000000 1.09600618
In 3.09180757 2.22658500 3.54387783
In 3.09445261 6.67975500 3.56148650
Pd 4.72329750 0.00000000 -1.113348049999999 0 0 0
Pd 4.72329750 4.45317000 -1.113348049999999 0 0 0
Pd 1.57443250 2.22658500 -3.3397773599999994 0 0 0
Pd 1.57443250 6.67975500 -3.3397773599999994 0 0 0
Pd 4.68790426 4.45548565 3.27227747
Pd 4.68796723 8.90402435 3.27227747
Pd 1.58715391 6.67975500 1.16884204
Pd 1.58488673 2.22658500 1.16403967
Rh 1.57443250 0.00000000 -1.113348049999999 0 0 0
Rh 1.57443250 4.45317000 -1.113348049999999 0 0 0
Rh 4.72329750 2.22658500 -3.3397773599999994 0 0 0
Rh 4.72329750 6.67975500 -3.3397773599999994 0 0 0
Rh 1.59540394 4.45317000 3.23119058
Rh 1.59540394 0.00000000 3.23119058
Rh 4.69105312 6.67975500 1.21713248
Rh 4.69256458 2.22658500 1.21206331
C 3.58832060 2.22667406 7.30279486
O 2.85381635 2.22658500 8.16855437
