&CONTROL
calculation = 'relax'
prefix = 'scf'
pseudo_dir = '/vol0004/mdt0/data/hp150275/u10028/POT_KKJUS'
outdir = './data'
tprnfor = .true.
nstep = 50
disk_io = 'non'
/
&SYSTEM
ibrav = 0
ecutwfc = 50.0
ecutrho = 400
occupations = 'smearing'
smearing = 'mp'
degauss = 0.01
assume_isolated = 'esm'
esm_bc = 'bc1'
input_dft = 'BEEF-VDW'
nosym = .true.
nspin = 1
ntyp = 1
nat = 16
/
&ELECTRONS
electron_maxstep = 200
mixing_beta = 0.1
conv_thr = 1e-06
/
&IONS
ion_dynamics = 'bfgs'
upscale = 1.0
/
&CELL
/

K_POINTS {automatic}
8 8 1 0 0 0

ATOMIC_SPECIES
Sb 121.7 Sb.pbe-n-rrkjus_psl.1.0.0.UPF

CELL_PARAMETERS {angstrom}
7.62927000 0.00000000 0.00000000
-0.00000000 7.62927000 0.00000000
0.00000000 0.00000000 25.72200000

ATOMIC_POSITIONS {angstrom}
Sb 0.00000000 0.00000000 -2.8610580600000013 0 0 0
Sb 1.90731750 1.90731750 -0.9537717600000022 0 0 0
Sb 0.00000000 0.00000000 0.95377176
Sb 1.90731750 1.90731750 2.86105806
Sb 0.00000000 3.81463500 -2.8610580600000013 0 0 0
Sb 1.90731750 5.72195250 -0.9537717600000022 0 0 0
Sb 0.00000000 3.81463500 0.95377176
Sb 1.90731750 5.72195250 2.86105806
Sb 3.81463500 0.00000000 -2.8610580600000013 0 0 0
Sb 5.72195250 1.90731750 -0.9537717600000022 0 0 0
Sb 3.81463500 -0.00000000 0.95377176
Sb 5.72195250 1.90731750 2.86105806
Sb 3.81463500 3.81463500 -2.8610580600000013 0 0 0
Sb 5.72195250 5.72195250 -0.9537717600000022 0 0 0
Sb 3.81463500 3.81463500 0.95377176
Sb 5.72195250 5.72195250 2.86105806
