&CONTROL
calculation = 'relax'
prefix = 'scf'
pseudo_dir = '/vol0004/mdt0/data/hp150275/u10028/POT_KKJUS'
outdir = './data'
tprnfor = .true.
nstep = 50
disk_io = 'non'
/
&SYSTEM
ibrav = 0
ecutwfc = 50.0
ecutrho = 400
occupations = 'smearing'
smearing = 'mp'
degauss = 0.01
assume_isolated = 'esm'
esm_bc = 'bc1'
input_dft = 'BEEF-VDW'
nosym = .true.
nspin = 1
ntyp = 4
nat = 17
/
&ELECTRONS
electron_maxstep = 200
mixing_beta = 0.1
conv_thr = 1e-06
/
&IONS
ion_dynamics = 'bfgs'
upscale = 1.0
/
&CELL
/

K_POINTS {automatic}
8 8 1 0 0 0

ATOMIC_SPECIES
C 12.01 C.pbe-n-rrkjus_psl.1.0.0.UPF
Ga 69.72 Ga.pbe-dnl-rrkjus_psl.1.0.0.UPF
Ir 192.2 Ir.pbe-n-rrkjus_psl.0.2.3.UPF
Li 6.941 Li.pbe-sl-rrkjus_psl.1.0.0.UPF

CELL_PARAMETERS {angstrom}
5.92875000 0.00000000 0.00000000
0.00000000 5.92875000 0.00000000
0.00000000 0.00000000 24.44660000

ATOMIC_POSITIONS {angstrom}
Li 1.48218750 1.48224679 0.68841626
Li 4.44656250 4.44656250 -2.2231738000000014 0 0 0
Li 4.44656250 1.48212821 0.85856459
Li 1.48218750 4.44656250 -2.2231738000000014 0 0 0
Li 4.44650321 4.44662179 0.78766945
Li 1.48218750 1.48218750 -2.2231738000000014 0 0 0
Li 1.48224679 4.44656250 0.85929799
Li 4.44656250 1.48218750 -2.2231738000000014 0 0 0
Ga 5.79493811 5.79689460 2.44343767
Ga 3.09842404 3.09599325 2.44343767
Ga 2.96437500 0.00000000 -0.7409764500000016 0 0 0
Ga 0.00000000 2.96437500 -0.7409764500000016 0 0 0
Ir 0.00000000 0.00000000 -0.7409764500000016 0 0 0
Ir 2.78200665 0.18337624 2.40945690
Ir 0.18213120 2.78129520 2.40921243
Ir 2.96437500 2.96437500 -0.7409764500000016 0 0 0
C 1.48206893 1.48230608 2.81575939
