&CONTROL
calculation = 'relax'
prefix = 'scf'
pseudo_dir = '/vol0403/data/hp230205/u10028/POT_HYBRID_KKJUS_GBRV'
outdir = './data'
tprnfor = .true.
nstep = 70
disk_io = 'non'
/
&SYSTEM
ibrav = 0
ecutwfc = 50.0
ecutrho = 400
occupations = 'smearing'
smearing = 'mp'
degauss = 0.01
assume_isolated = 'esm'
esm_bc = 'bc1'
input_dft = 'BEEF-VDW'
nosym = .true.
nspin = 1
ntyp = 5
nat = 33
/
&ELECTRONS
electron_maxstep = 200
mixing_beta = 0.1
conv_thr = 1e-06
/
&IONS
ion_dynamics = 'bfgs'
upscale = 1.0
/
&CELL
/

K_POINTS {automatic}
9 6 2 0  0  0

ATOMIC_SPECIES
C 12.01 C.pbe-n-rrkjus_psl.1.0.0.UPF
Cu 63.54 Cu.pbe-dn-rrkjus_psl.1.0.0.UPF
Ge 72.64 Ge.pbe-dn-rrkjus_psl.1.0.0.UPF
Li 6.941 Li.pbe-sl-rrkjus_psl.1.0.0.UPF
Mg 24.30 Mg.pbe-spnl-rrkjus_psl.1.0.0.UPF


CELL_PARAMETERS {angstrom}
6.17522000 0.00000000 0.00000000
-0.00000000 8.73308000 0.00000000
0.00000000 0.00000000 26.54980000

ATOMIC_POSITIONS {angstrom}
Li 0.00000000 2.18327000 -1.091727780000003 0 0 0
Li 0.00000000 6.54981000 -1.091727780000003 0 0 0
Li 3.08761000 4.36654000 -3.2749178299999997 0 0 0
Li 3.08761000 0.00000000 -3.2749178299999997 0 0 0
Li 0.83556902 6.54981000 4.68975667
Li 6.03176964 2.18327000 4.51081102
Li 3.16282418 8.72949944 1.21837032
Li 3.16276243 4.37020789 1.21837032
Mg 4.63141500 0.00000000 -1.091727780000003 0 0 0
Mg 4.63141500 4.36654000 -1.091727780000003 0 0 0
Mg 1.54380500 2.18327000 -3.2749178299999997 0 0 0
Mg 1.54380500 6.54981000 -3.2749178299999997 0 0 0
Mg 4.77992904 4.66852991 3.52581344
Mg 4.77992904 8.43109009 3.52581344
Mg 1.42635232 6.54989733 1.20297144
Mg 1.45228824 2.18327000 1.33147247
Cu 0.00000000 0.00000000 -3.2749178299999997 0 0 0
Cu 0.00000000 4.36654000 -3.2749178299999997 0 0 0
Cu 3.08761000 6.54981000 -1.091727780000003 0 0 0
Cu 3.08761000 2.18327000 -1.091727780000003 0 0 0
Cu 6.14854305 4.36575402 1.04632762
Cu 6.14854305 0.00087331 1.04632762
Cu 3.56606605 2.18327000 3.23615512
Cu 3.00004538 6.54981000 3.27146636
Ge 1.54380500 0.00000000 -1.091727780000003 0 0 0
Ge 1.54380500 4.36654000 -1.091727780000003 0 0 0
Ge 4.63141500 2.18327000 -3.2749178299999997 0 0 0
Ge 4.63141500 6.54981000 -3.2749178299999997 0 0 0
Ge 1.39387066 4.17711949 3.41749026
Ge 1.39387066 0.18942051 3.41749026
Ge 4.68211356 6.54981000 1.20960889
Ge 4.74825016 2.18327000 1.12703901
C 1.70942440 2.18327000 3.68325375
