&CONTROL
calculation = 'relax'
prefix = 'scf'
pseudo_dir = '/vol0004/mdt0/data/hp150275/u10028/POT_HYBRID_KKJUS_GBRV'
outdir = './data'
tprnfor = .true.
nstep = 50
disk_io = 'non'
/
&SYSTEM
ibrav = 0
ecutwfc = 50.0
ecutrho = 400
occupations = 'smearing'
smearing = 'mp'
degauss = 0.01
assume_isolated = 'esm'
esm_bc = 'bc1'
input_dft = 'BEEF-VDW'
nosym = .true.
nspin = 2
ntyp = 4
nat = 17
starting_magnetization(1) = 0.1
starting_magnetization(2) = 0.1
starting_magnetization(3) = 0.1
starting_magnetization(4) = 0.1
/
&ELECTRONS
electron_maxstep = 200
mixing_beta = 0.1
conv_thr = 1e-06
/
&IONS
ion_dynamics = 'bfgs'
upscale = 1.0
/
&CELL
/

K_POINTS {automatic}
8 8 1 0 0 0

ATOMIC_SPECIES
C 12.01 C.pbe-n-rrkjus_psl.1.0.0.UPF
Ga 69.72 Ga.pbe-dnl-rrkjus_psl.1.0.0.UPF
Ni 58.69 ni_pbe_v1.4.uspp.F.UPF
Zr 91.22 Zr.pbe-spn-rrkjus_psl.1.0.0.UPF

CELL_PARAMETERS {angstrom}
6.13924000 0.00000000 0.00000000
-0.00000000 6.13924000 0.00000000
0.00000000 0.00000000 24.60440000

ATOMIC_POSITIONS {angstrom}
Zr 0.00000000 0.00000000 -2.3022337099999994 0 0 0
Zr 3.06962000 3.06962000 -2.3022337099999994 0 0 0
Zr 3.06962000 -0.00000000 0.76741124
Zr 0.00000000 3.06962000 0.76741124
Ga 0.00000000 0.00000000 0.76741124
Ga 3.06962000 0.00000000 -2.3022337099999994 0 0 0
Ga 0.00000000 3.06962000 -2.3022337099999994 0 0 0
Ga 3.06962000 3.06962000 0.76741124
Ni 1.53481000 1.53481000 -0.7674112399999977 0 0 0
Ni 4.60443000 4.60443000 2.30223371
Ni 4.60443000 1.53481000 -0.7674112399999977 0 0 0
Ni 1.53481000 4.60443000 2.30223371
Ni 4.60443000 4.60443000 -0.7674112399999977 0 0 0
Ni 1.53481000 1.53481000 2.30223371
Ni 1.53481000 4.60443000 -0.7674112399999977 0 0 0
Ni 4.60443000 1.53481000 2.30223371
C 0.00000000 0.00000000 3.10212275
