&CONTROL
calculation = 'relax'
prefix = 'scf'
pseudo_dir = '/vol0403/data/hp230205/u10028/POT_HYBRID_KKJUS_GBRV'
outdir = './data'
tprnfor = .true.
nstep = 70
disk_io = 'non'
/
&SYSTEM
ibrav = 0
ecutwfc = 50.0
ecutrho = 400
occupations = 'smearing'
smearing = 'mp'
degauss = 0.01
assume_isolated = 'esm'
esm_bc = 'bc1'
input_dft = 'BEEF-VDW'
nosym = .true.
nspin = 1
ntyp = 6
nat = 34
/
&ELECTRONS
electron_maxstep = 200
mixing_beta = 0.1
conv_thr = 1e-06
/
&IONS
ion_dynamics = 'bfgs'
upscale = 1.0
/
&CELL
/

K_POINTS {automatic}
6 6 1 0 0 0

ATOMIC_SPECIES
C 12.01 C.pbe-n-rrkjus_psl.1.0.0.UPF
Cu 63.54 Cu.pbe-dn-rrkjus_psl.1.0.0.UPF
Ge 72.64 Ge.pbe-dn-rrkjus_psl.1.0.0.UPF
O 15.99 O.pbe-n-rrkjus_psl.1.0.0.UPF
Pd 106.4 Pd.pbe-n-rrkjus_psl.1.0.0.UPF
Y 88.90 Y.pbe-spn-rrkjus_psl.1.0.0.UPF


CELL_PARAMETERS {angstrom}
6.58158000 0.00000000 0.00000000
-0.00000000 9.30776000 0.00000000
0.00000000 0.00000000 26.98080000

ATOMIC_POSITIONS {angstrom}
Y 4.93618500 0.00000000 -1.1634120999999986 0 0 0
Y 4.93618500 4.65388000 -1.1634120999999986 0 0 0
Y 1.64539500 2.32694000 -3.4905060999999975 0 0 0
Y 1.64539500 6.98082000 -3.4905060999999975 0 0 0
Y 4.30310282 4.65388000 3.76948757
Y 4.29092690 -0.00000000 3.79673818
Y 1.53699638 6.97421149 1.25217893
Y 1.53699638 2.33354851 1.25217893
Cu 0.00000000 0.00000000 -3.4905060999999975 0 0 0
Cu 0.00000000 4.65388000 -3.4905060999999975 0 0 0
Cu 3.29079000 6.98082000 -1.1634120999999986 0 0 0
Cu 3.29079000 2.32694000 -1.1634120999999986 0 0 0
Cu 6.12962290 4.65388000 1.59483509
Cu 6.12462090 -0.00000000 1.58377296
Cu 2.20956804 2.32405459 4.11160411
Cu 2.20950222 6.98361233 4.11160411
Ge 1.64539500 0.00000000 -1.1634120999999986 0 0 0
Ge 1.64539500 4.65388000 -1.1634120999999986 0 0 0
Ge 4.93618500 2.32694000 -3.4905060999999975 0 0 0
Ge 4.93618500 6.98082000 -3.4905060999999975 0 0 0
Ge 1.32618837 4.65388000 3.42359371
Ge 1.31111655 -0.00000000 3.38015462
Ge 4.82304764 6.98100616 1.09838837
Ge 4.82304764 2.32684692 1.09838837
Pd 0.00000000 2.32694000 -1.1634120999999986 0 0 0
Pd 0.00000000 6.98082000 -1.1634120999999986 0 0 0
Pd 3.29079000 4.65388000 -3.4905060999999975 0 0 0
Pd 3.29079000 0.00000000 -3.4905060999999975 0 0 0
Pd 6.14436564 6.96322833 3.37745654
Pd 6.14436564 2.34453167 3.37745654
Pd 3.24491639 -0.00000000 1.13130494
Pd 3.26900497 4.65388000 1.15720651
C 3.24978676 -0.00000000 6.04639728
O 2.79342000 -0.00000000 7.10350502
