&CONTROL
calculation = 'relax'
prefix = 'scf'
pseudo_dir = '/vol0004/mdt0/data/hp150275/u10028/POT_HYBRID_KKJUS_GBRV'
outdir = './data'
tprnfor = .true.
nstep = 50
disk_io = 'non'
/
&SYSTEM
ibrav = 0
ecutwfc = 50.0
ecutrho = 400
occupations = 'smearing'
smearing = 'mp'
degauss = 0.01
assume_isolated = 'esm'
esm_bc = 'bc1'
input_dft = 'BEEF-VDW'
nosym = .true.
nspin = 2
ntyp = 5
nat = 34
starting_magnetization(1) = 0.0
starting_magnetization(2) = 0.0
starting_magnetization(3) = 0.1
starting_magnetization(4) = 0.001
starting_magnetization(5) = 0.0
/
&ELECTRONS
electron_maxstep = 300
mixing_beta = 0.1
conv_thr = 1e-06
/
&IONS
ion_dynamics = 'bfgs'
upscale = 1.0
/
&CELL
/

K_POINTS {automatic}
9 6 2 0  0  0

ATOMIC_SPECIES
C 12.01 C.pbe-n-rrkjus_psl.1.0.0.UPF
Ge 72.64 Ge.pbe-dn-rrkjus_psl.1.0.0.UPF
Mn 54.93 mn_pbe_v1.5.uspp.F.UPF
Ni 58.69 ni_pbe_v1.4.uspp.F.UPF
O 15.99 O.pbe-n-rrkjus_psl.1.0.0.UPF

CELL_PARAMETERS {angstrom}
5.84248000 0.00000000 0.00000000
0.00000000 8.26252000 0.00000000
0.00000000 0.00000000 26.19690000

ATOMIC_POSITIONS {angstrom}
Mn 0.00000000 0.00000000 -3.09856933 0 0 0
Mn 2.92124000 2.06563000 -1.0329437699999993 0 0 0
Mn 2.92124000 6.19689000 -1.0329437699999993 0 0 0
Mn 0.00000000 4.13126000 -3.09856933 0 0 0
Mn 0.00000000 4.13002062 0.98369359
Mn 2.92124000 6.19680737 3.26334783
Mn 2.92124000 2.06563000 3.26701540
Mn 0.00000000 0.00115675 0.98395556
Ni 1.46062000 0.00000000 -1.0329437699999993 0 0 0
Ni 4.38186000 4.13126000 -1.0329437699999993 0 0 0
Ni 4.38186000 0.00000000 -1.0329437699999993 0 0 0
Ni 1.46062000 4.13126000 -1.0329437699999993 0 0 0
Ni 4.38186000 6.19689000 -3.09856933 0 0 0
Ni 1.46062000 2.06563000 -3.09856933 0 0 0
Ni 1.46062000 6.19689000 -3.09856933 0 0 0
Ni 4.38186000 2.06563000 -3.09856933 0 0 0
Ni 1.37853316 4.13266463 2.99168598
Ni 4.46377157 8.26103275 2.99194795
Ni 4.46394684 4.13266463 2.99168598
Ni 1.37870843 8.26103275 2.99194795
Ni 4.35305657 2.06587788 1.06228429
Ni 1.48457417 6.19664212 1.06621383
Ni 1.48942343 2.06587788 1.06228429
Ni 4.35790583 6.19655950 1.06621383
Ge 0.00000000 6.19689000 -1.0329437699999993 0 0 0
Ge 2.92124000 0.00000000 -3.09856933 0 0 0
Ge 0.00000000 2.06563000 -1.0329437699999993 0 0 0
Ge 2.92124000 4.13126000 -3.09856933 0 0 0
Ge 0.00000000 2.06571263 3.15515464
Ge 2.92124000 4.13406926 1.06857155
Ge 0.00000000 6.19672475 3.17768397
Ge 2.92124000 8.25971074 1.06857155
C 0.00011685 2.06554737 7.05272942
O 0.00000000 2.06554737 8.18757913
