&CONTROL
calculation = 'relax'
prefix = 'scf'
pseudo_dir = '/vol0004/mdt0/data/hp150275/u10028/POT_KKJUS'
outdir = './data'
tprnfor = .true.
nstep = 50
disk_io = 'non'
/
&SYSTEM
ibrav = 0
ecutwfc = 50.0
ecutrho = 400
occupations = 'smearing'
smearing = 'mp'
degauss = 0.01
assume_isolated = 'esm'
esm_bc = 'bc1'
input_dft = 'BEEF-VDW'
nosym = .true.
nspin = 1
ntyp = 5
nat = 34
/
&ELECTRONS
electron_maxstep = 200
mixing_beta = 0.1
conv_thr = 1e-06
/
&IONS
ion_dynamics = 'bfgs'
upscale = 1.0
/
&CELL
/

K_POINTS {automatic}
8 6 1 0 0 0

ATOMIC_SPECIES
Ag 107.8 Ag.pbe-n-rrkjus_psl.1.0.0.UPF
C 12.01 C.pbe-n-rrkjus_psl.1.0.0.UPF
Li 6.941 Li.pbe-sl-rrkjus_psl.1.0.0.UPF
O 15.99 O.pbe-n-rrkjus_psl.1.0.0.UPF
Sn 118.7 Sn.pbe-dn-rrkjus_psl.1.0.0.UPF

CELL_PARAMETERS {angstrom}
6.65960000 0.00000000 0.00000000
0.00000000 9.41809000 0.00000000
0.00000000 0.00000000 27.06360000

ATOMIC_POSITIONS {angstrom}
Li 0.00000000 7.06356750 -1.1772665999999994 0 0 0
Li 3.32980000 0.00000000 -3.5317998000000017 0 0 0
Li 0.00000000 2.35452250 -1.1772665999999994 0 0 0
Li 3.32980000 4.70904500 -3.5317998000000017 0 0 0
Li 1.66490000 0.00000000 -1.1772665999999994 0 0 0
Li 1.66490000 4.70904500 -1.1772665999999994 0 0 0
Li 4.99470000 7.06356750 -3.5317998000000017 0 0 0
Li 4.99470000 2.35452250 -3.5317998000000017 0 0 0
Li 6.54698616 2.34538695 3.40405961
Li 3.28118492 4.70904500 1.04248987
Li 6.54698616 7.07279723 3.40405961
Li 3.25594504 9.41799582 1.05006768
Li 1.84264472 4.70904500 3.49769966
Li 1.79189857 0.00000000 3.58295000
Li 4.90646030 2.35395741 1.21326119
Li 4.90652690 7.06403840 1.21326119
Ag 1.66490000 2.35452250 -3.5317998000000017 0 0 0
Ag 1.66490000 7.06356750 -3.5317998000000017 0 0 0
Ag 4.99470000 4.70904500 -1.1772665999999994 0 0 0
Ag 4.99470000 0.00000000 -1.1772665999999994 0 0 0
Ag 1.75746844 7.06686383 1.28714482
Ag 1.75746844 2.35113199 1.28741545
Ag 4.76161400 0.00000000 3.26035189
Ag 4.82388126 4.70904500 3.27956705
Sn 0.00000000 0.00000000 -3.5317998000000017 0 0 0
Sn 3.32980000 2.35452250 -1.1772665999999994 0 0 0
Sn 3.32980000 7.06356750 -1.1772665999999994 0 0 0
Sn 0.00000000 4.70904500 -3.5317998000000017 0 0 0
Sn 0.04641741 4.70904500 1.21082546
Sn 3.33859067 7.05612721 3.76725312
Sn 3.33872386 2.36215115 3.76725312
Sn 0.03556226 9.41799582 1.22056836
C 1.33811343 0.00000000 5.60000011
O 1.23995092 9.41799582 6.73964831
