&CONTROL
calculation = 'relax'
prefix = 'scf'
pseudo_dir = '/vol0004/mdt0/data/hp150275/u10028/POT_KKJUS'
outdir = './data'
tprnfor = .true.
nstep = 50
disk_io = 'non'
/
&SYSTEM
ibrav = 0
ecutwfc = 50.0
ecutrho = 400
occupations = 'smearing'
smearing = 'mp'
degauss = 0.01
assume_isolated = 'esm'
esm_bc = 'bc1'
input_dft = 'BEEF-VDW'
nosym = .true.
nspin = 1
ntyp = 4
nat = 33
/
&ELECTRONS
electron_maxstep = 200
mixing_beta = 0.1
conv_thr = 1e-06
/
&IONS
ion_dynamics = 'bfgs'
upscale = 1.0
/
&CELL
/

K_POINTS {automatic}
8 6 1 0 0 0

ATOMIC_SPECIES
C 12.01 C.pbe-n-rrkjus_psl.1.0.0.UPF
Nb 92.90 Nb.pbe-spn-rrkjus_psl.1.0.0.UPF
Ni 58.69 Ni.pbe-spn-rrkjus_psl.1.0.0.UPF
Sn 118.7 Sn.pbe-dn-rrkjus_psl.1.0.0.UPF

CELL_PARAMETERS {angstrom}
6.23466000 0.00000000 0.00000000
0.00000000 8.81715000 0.00000000
0.00000000 0.00000000 26.61290000

ATOMIC_POSITIONS {angstrom}
Nb 0.00000000 0.00000000 -3.306386700000001 0 0 0
Nb 3.11733000 2.20428750 -1.1020401900000003 0 0 0
Nb 3.11733000 6.61286250 -1.1020401900000003 0 0 0
Nb 0.00000000 4.40857500 -3.306386700000001 0 0 0
Nb 6.22268945 4.45125001 1.17788695
Nb 2.99120283 6.61303884 3.10785446
Nb 3.28928192 2.20675630 2.97958028
Nb 6.22325057 8.77315242 1.17762082
Ni 1.55866500 0.00000000 -1.1020401900000003 0 0 0
Ni 4.67599500 4.40857500 -1.1020401900000003 0 0 0
Ni 4.67599500 0.00000000 -1.1020401900000003 0 0 0
Ni 1.55866500 4.40857500 -1.1020401900000003 0 0 0
Ni 4.67599500 6.61286250 -3.306386700000001 0 0 0
Ni 1.55866500 2.20428750 -3.306386700000001 0 0 0
Ni 1.55866500 6.61286250 -3.306386700000001 0 0 0
Ni 4.67599500 2.20428750 -3.306386700000001 0 0 0
Ni 1.45666596 4.12457460 3.27099154
Ni 4.57362188 8.66946274 3.16799962
Ni 4.57779910 4.55714398 3.16720123
Ni 1.46165369 0.29175949 3.27045928
Ni 4.96578200 2.20296493 1.07223374
Ni 1.55723103 6.61136358 1.06478213
Ni 1.36034047 2.20358213 1.19917727
Ni 4.68503526 6.61198079 1.11880632
Sn 0.00000000 6.61286250 -1.1020401900000003 0 0 0
Sn 3.11733000 0.00000000 -3.306386700000001 0 0 0
Sn 0.00000000 2.20428750 -1.1020401900000003 0 0 0
Sn 3.11733000 4.40857500 -3.306386700000001 0 0 0
Sn 5.70583614 2.20014344 4.14096724
Sn 3.09083270 4.37700960 1.03337891
Sn 0.08204813 6.61533130 3.56479796
Sn 3.09058331 0.03103637 1.03337891
C 1.58004988 2.21460357 3.91183017
