&CONTROL
calculation = 'relax'
prefix = 'scf'
pseudo_dir = '/vol0004/mdt0/data/hp150275/u10028/POT_HYBRID_KKJUS_GBRV'
outdir = './data'
tprnfor = .true.
nstep = 50
disk_io = 'non'
/
&SYSTEM
ibrav = 0
ecutwfc = 50.0
ecutrho = 400
occupations = 'smearing'
smearing = 'mp'
degauss = 0.01
assume_isolated = 'esm'
esm_bc = 'bc1'
input_dft = 'BEEF-VDW'
nosym = .true.
nspin = 2
ntyp = 5
nat = 34
starting_magnetization(1) = 0.0
starting_magnetization(2) = 0.1
starting_magnetization(3) = 0.0
starting_magnetization(4) = 0.0
starting_magnetization(5) = 0.0
/
&ELECTRONS
electron_maxstep = 200
mixing_beta = 0.1
conv_thr = 1e-06
/
&IONS
ion_dynamics = 'bfgs'
upscale = 1.0
/
&CELL
/

K_POINTS {automatic}
9 6 2 0  0  0

ATOMIC_SPECIES
C 12.01 C.pbe-n-rrkjus_psl.1.0.0.UPF
Co 58.93 co_pbe_v1.2.uspp.F.UPF
Ge 72.64 Ge.pbe-dn-rrkjus_psl.1.0.0.UPF
Li 6.941 Li.pbe-sl-rrkjus_psl.1.0.0.UPF
O 15.99 O.pbe-n-rrkjus_psl.1.0.0.UPF

CELL_PARAMETERS {angstrom}
5.64259000 0.00000000 0.00000000
0.00000000 7.97982000 0.00000000
0.00000000 0.00000000 25.98490000

ATOMIC_POSITIONS {angstrom}
Li 0.00000000 0.00000000 22.99247892
Li 2.82129500 1.99495500 24.98733969
Li 2.82129500 5.98486500 24.98733969
Li 0.00000000 3.98991000 22.99247892
Li 0.00005643 3.97083823 0.86477747
Li 2.82118215 5.98438621 3.88214406
Li 2.82135143 1.99639137 3.53290700
Li 5.64253357 0.01875258 0.86477747
Co 1.41064750 0.00000000 24.98733969
Co 4.23194250 3.98991000 24.98733969
Co 4.23194250 0.00000000 24.98733969
Co 1.41064750 3.98991000 24.98733969
Co 4.23194250 5.98486500 22.99247892
Co 1.41064750 1.99495500 22.99247892
Co 1.41064750 5.98486500 22.99247892
Co 4.23194250 1.99495500 22.99247892
Co 1.29694931 4.09173250 2.80766844
Co 4.34564069 7.87831669 2.80610935
Co 4.34502000 4.09133351 2.80766844
Co 1.29655433 7.87807729 2.80610935
Co 4.21388621 1.99503480 1.03861645
Co 1.41256598 5.98486500 1.25714946
Co 1.42909877 1.99479540 1.03939600
Co 4.23030615 5.98454581 1.25662976
Ge 0.00000000 5.98486500 24.98733969
Ge 2.82129500 0.00000000 22.99247892
Ge 0.00000000 1.99495500 24.98733969
Ge 2.82129500 3.98991000 22.99247892
Ge 5.64253357 1.99679036 2.97137331
Ge 2.82140785 3.94306846 0.93597610
Ge 5.64196932 5.98478520 3.46664551
Ge 2.82146428 0.04692134 0.93415716
C 2.82129500 1.99559339 5.66548775
O 2.82135143 1.99495500 6.80466576
