&CONTROL
calculation = 'relax'
prefix = 'scf'
pseudo_dir = '/vol0004/mdt0/data/hp150275/u10028/POT_KKJUS'
outdir = './data'
tprnfor = .true.
nstep = 50
disk_io = 'non'
/
&SYSTEM
ibrav = 0
ecutwfc = 50.0
ecutrho = 400
occupations = 'smearing'
smearing = 'mp'
degauss = 0.01
assume_isolated = 'esm'
esm_bc = 'bc1'
input_dft = 'BEEF-VDW'
nosym = .true.
nspin = 1
ntyp = 4
nat = 33
/
&ELECTRONS
electron_maxstep = 200
mixing_beta = 0.1
conv_thr = 1e-06
/
&IONS
ion_dynamics = 'bfgs'
upscale = 1.0
/
&CELL
/

K_POINTS {automatic}
8 6 1 0 0 0

ATOMIC_SPECIES
C 12.01 C.pbe-n-rrkjus_psl.1.0.0.UPF
Ge 72.64 Ge.pbe-dn-rrkjus_psl.1.0.0.UPF
Li 6.941 Li.pbe-sl-rrkjus_psl.1.0.0.UPF
Pd 106.4 Pd.pbe-n-rrkjus_psl.1.0.0.UPF

CELL_PARAMETERS {angstrom}
6.13924000 0.00000000 0.00000000
0.00000000 8.68219000 0.00000000
0.00000000 0.00000000 26.51160000

ATOMIC_POSITIONS {angstrom}
Li 0.00000000 0.00000000 -3.2558895999999997 0 0 0
Li 3.06962000 2.17054750 -1.085384900000001 0 0 0
Li 3.06962000 6.51164250 -1.085384900000001 0 0 0
Li 0.00000000 4.34109500 -3.2558895999999997 0 0 0
Li 6.12892608 4.34283144 1.03554310
Li 2.98004849 6.51164250 3.64110314
Li 3.10663962 2.17054750 4.10479103
Li 6.12892608 8.68045356 1.03554310
Ge 0.00000000 6.51164250 -1.085384900000001 0 0 0
Ge 3.06962000 0.00000000 -3.2558895999999997 0 0 0
Ge 0.00000000 2.17054750 -1.085384900000001 0 0 0
Ge 3.06962000 4.34109500 -3.2558895999999997 0 0 0
Ge 5.54913625 2.17054750 3.58489855
Ge 3.06992696 4.33024226 1.06364539
Ge 0.05095569 6.51164250 3.19756408
Ge 3.06992696 0.01093956 1.06364539
Pd 1.53481000 0.00000000 -1.085384900000001 0 0 0
Pd 4.60443000 4.34109500 -1.085384900000001 0 0 0
Pd 4.60443000 0.00000000 -1.085384900000001 0 0 0
Pd 1.53481000 4.34109500 -1.085384900000001 0 0 0
Pd 4.60443000 6.51164250 -3.2558895999999997 0 0 0
Pd 1.53481000 2.17054750 -3.2558895999999997 0 0 0
Pd 1.53481000 6.51164250 -3.2558895999999997 0 0 0
Pd 4.60443000 2.17054750 -3.2558895999999997 0 0 0
Pd 1.48778342 4.29942049 3.09045721
Pd 4.62923253 8.55777422 3.10609906
Pd 4.62917114 4.46551078 3.10609906
Pd 1.48778342 0.04167451 3.09045721
Pd 4.58902051 2.17054750 1.06788725
Pd 1.56863721 6.51164250 1.10102675
Pd 1.46997963 2.17054750 1.12356161
Pd 4.59644899 6.51164250 1.04959424
C 1.26953344 2.17054750 3.32455464
