&CONTROL
calculation = 'relax'
prefix = 'scf'
pseudo_dir = '/vol0004/mdt0/data/hp150275/u10028/POT_KKJUS'
outdir = './data'
tprnfor = .true.
nstep = 50
disk_io = 'non'
/
&SYSTEM
ibrav = 0
ecutwfc = 50.0
ecutrho = 400
occupations = 'smearing'
smearing = 'mp'
degauss = 0.01
assume_isolated = 'esm'
esm_bc = 'bc1'
input_dft = 'BEEF-VDW'
nosym = .true.
nspin = 1
ntyp = 5
nat = 34
/
&ELECTRONS
electron_maxstep = 200
mixing_beta = 0.1
conv_thr = 1e-06
/
&IONS
ion_dynamics = 'bfgs'
upscale = 1.0
/
&CELL
/

K_POINTS {automatic}
9 6 2 0  0  0

ATOMIC_SPECIES
C 12.01 C.pbe-n-rrkjus_psl.1.0.0.UPF
Ni 58.69 Ni.pbe-spn-rrkjus_psl.1.0.0.UPF
O 15.99 O.pbe-n-rrkjus_psl.1.0.0.UPF
Sn 118.7 Sn.pbe-dn-rrkjus_psl.1.0.0.UPF
Ti 47.86 Ti.pbe-spn-rrkjus_psl.1.0.0.UPF

CELL_PARAMETERS {angstrom}
6.14888000 0.00000000 0.00000000
0.00000000 8.69583000 0.00000000
0.00000000 0.00000000 26.52190000

ATOMIC_POSITIONS {angstrom}
Ti 0.00000000 0.00000000 -3.2608676099999983 0 0 0
Ti 3.07444000 2.17395750 -1.086867459999997 0 0 0
Ti 3.07444000 6.52187250 -1.086867459999997 0 0 0
Ti 0.00000000 4.34791500 -3.2608676099999983 0 0 0
Ti 0.00000000 4.35556733 1.13381123
Ti 3.07444000 6.52169858 3.23116308
Ti 3.07444000 2.17360967 3.26192848
Ti 0.00000000 8.68791679 1.13275035
Ni 1.53722000 0.00000000 -1.086867459999997 0 0 0
Ni 4.61166000 4.34791500 -1.086867459999997 0 0 0
Ni 4.61166000 0.00000000 -1.086867459999997 0 0 0
Ni 1.53722000 4.34791500 -1.086867459999997 0 0 0
Ni 4.61166000 6.52187250 -3.2608676099999983 0 0 0
Ni 1.53722000 2.17395750 -3.2608676099999983 0 0 0
Ni 1.53722000 6.52187250 -3.2608676099999983 0 0 0
Ni 4.61166000 2.17395750 -3.2608676099999983 0 0 0
Ni 1.58198385 4.36113266 3.14629300
Ni 4.56554340 8.68235146 3.14470168
Ni 4.56701913 4.36113266 3.14629300
Ni 1.58339809 8.68226451 3.14496690
Ni 4.70887379 2.17395750 1.14998958
Ni 1.50229436 6.52169858 1.18473327
Ni 1.44000621 2.17387054 1.14998958
Ni 4.64664713 6.52169858 1.18473327
Sn 0.00000000 6.52187250 -1.086867459999997 0 0 0
Sn 3.07444000 0.00000000 -3.2608676099999983 0 0 0
Sn 0.00000000 2.17395750 -1.086867459999997 0 0 0
Sn 3.07444000 4.34791500 -3.2608676099999983 0 0 0
Sn 0.00000000 2.17282704 3.52237354
Sn 3.07444000 4.32556672 1.04204545
Sn 0.00006149 6.52308992 3.53483883
Sn 3.07444000 0.02173958 1.04045414
C 3.07444000 2.17404446 5.38155873
O 3.07444000 2.17413142 6.53340485
