&CONTROL
calculation = 'relax'
prefix = 'scf'
pseudo_dir = '/vol0403/data/hp230205/u10028/POT_HYBRID_KKJUS_GBRV'
outdir = './data'
tprnfor = .true.
nstep = 50
disk_io = 'non'
/
&SYSTEM
ibrav = 0
ecutwfc = 50.0
ecutrho = 400
occupations = 'smearing'
smearing = 'mp'
degauss = 0.01
assume_isolated = 'esm'
esm_bc = 'bc1'
input_dft = 'BEEF-VDW'
nosym = .true.
nspin = 1
ntyp = 5
nat = 33
/
&ELECTRONS
electron_maxstep = 200
mixing_beta = 0.1
conv_thr = 1e-06
/
&IONS
ion_dynamics = 'bfgs'
upscale = 1.0
/
&CELL
/

K_POINTS {automatic}
7 7 2 0  0  0

ATOMIC_SPECIES
C 12.01 C.pbe-n-rrkjus_psl.1.0.0.UPF
Ge 72.64 Ge.pbe-dn-rrkjus_psl.1.0.0.UPF
Li 6.941 Li.pbe-sl-rrkjus_psl.1.0.0.UPF
Sn 118.7 Sn.pbe-dn-rrkjus_psl.1.0.0.UPF
Y 88.90 Y.pbe-spn-rrkjus_psl.1.0.0.UPF


CELL_PARAMETERS {angstrom}
8.52742000 0.00000000 0.00000000
0.00000000 9.43388000 0.00000000
0.00000000 0.00000000 26.45610000

ATOMIC_POSITIONS {angstrom}
Li 2.13185500 2.35847000 -3.22817332 0 0 0
Li 2.04845683 2.37592268 1.10454217
Li 2.13185500 7.07541000 -3.22817332 0 0 0
Li 2.04845683 7.05795732 1.10454217
Li 6.39556500 2.35847000 -3.22817332 0 0 0
Li 6.47896317 2.37592268 1.10454217
Li 6.39556500 7.07541000 -3.22817332 0 0 0
Li 6.47896317 7.05795732 1.10454217
Y 2.13185500 0.00000000 -1.0759695899999997 0 0 0
Y 2.29703113 0.00000000 3.22314666
Y 2.13185500 4.71694000 -1.0759695899999997 0 0 0
Y 2.08265179 4.71694000 3.26283081
Y 6.39556500 0.00000000 -1.0759695899999997 0 0 0
Y 6.23038887 0.00000000 3.22314666
Y 6.39556500 4.71694000 -1.0759695899999997 0 0 0
Y 6.44476821 4.71694000 3.26283081
Sn 0.00000000 2.35847000 -1.0759695899999997 0 0 0
Sn 0.00000000 2.34148902 3.54141355
Sn 0.00000000 7.07541000 -1.0759695899999997 0 0 0
Sn 0.00000000 7.09239098 3.54141355
Sn 4.26371000 2.35847000 -1.0759695899999997 0 0 0
Sn 4.26371000 2.47120487 3.21388703
Sn 4.26371000 7.07541000 -1.0759695899999997 0 0 0
Sn 4.26371000 6.96267513 3.21388703
Ge 0.00000000 0.00000000 -3.22817332 0 0 0
Ge 0.00000000 0.00000000 1.17226979
Ge 0.00000000 4.71694000 -3.22817332 0 0 0
Ge 0.00000000 4.71694000 1.15666069
Ge 4.26371000 0.00000000 -3.22817332 0 0 0
Ge 4.26371000 0.00000000 1.04845524
Ge 4.26371000 4.71694000 -3.22817332 0 0 0
Ge 4.26371000 4.71694000 1.18867257
C 0.00000000 0.00000000 3.27341325
