&CONTROL
calculation = 'relax'
prefix = 'scf'
pseudo_dir = '/vol0403/data/hp230205/u10028/POT_HYBRID_KKJUS_GBRV'
outdir = './data'
tprnfor = .true.
nstep = 50
disk_io = 'non'
/
&SYSTEM
ibrav = 0
ecutwfc = 50.0
ecutrho = 400
occupations = 'smearing'
smearing = 'mp'
degauss = 0.01
assume_isolated = 'esm'
esm_bc = 'bc1'
input_dft = 'BEEF-VDW'
nosym = .true.
nspin = 1
ntyp = 6
nat = 18
/
&ELECTRONS
electron_maxstep = 200
mixing_beta = 0.1
conv_thr = 1e-06
/
&IONS
ion_dynamics = 'bfgs'
upscale = 1.0
/
&CELL
/

K_POINTS {automatic}
6 6 1 0 0 0

ATOMIC_SPECIES
Ag 107.8 Ag.pbe-n-rrkjus_psl.1.0.0.UPF
Al 26.98 Al.pbe-nl-rrkjus_psl.1.0.0.UPF
C 12.01 C.pbe-n-rrkjus_psl.1.0.0.UPF
Li 6.941 Li.pbe-sl-rrkjus_psl.1.0.0.UPF
O 15.99 O.pbe-n-rrkjus_psl.1.0.0.UPF
Sn 118.7 Sn.pbe-dn-rrkjus_psl.1.0.0.UPF


CELL_PARAMETERS {angstrom}
5.91351000 0.00000000 0.00000000
0.00000000 8.66686000 0.00000000
0.00000000 0.00000000 24.43010000

ATOMIC_POSITIONS {angstrom}
Li 2.95675500 0.00000000 -2.2150771700000007 0 0 0
Li 5.77442424 0.01040023 0.70896150
Li 2.95675500 4.33343000 -2.2150771700000007 0 0 0
Li 5.77442424 4.32302977 0.70896150
Al 1.40782933 2.16671500 -0.7382776199999981 0 0 0
Al 4.16618607 2.16671500 2.13494644
Al 1.40782933 6.50014500 -0.7382776199999981 0 0 0
Al 4.17209958 6.50014500 2.07851291
Ag 0.00000000 0.00000000 -2.2150771700000007 0 0 0
Ag 2.86249365 0.01334696 1.00554292
Ag 0.00000000 4.33343000 -2.2150771700000007 0 0 0
Ag 2.86243452 4.32008304 1.00529862
Sn 4.36458433 2.16671500 -0.7382776199999981 0 0 0
Sn 1.23846640 2.16662833 2.14740579
Sn 4.36458433 6.50014500 -0.7382776199999981 0 0 0
Sn 1.25165353 6.50023167 2.19235717
C 4.20829026 2.16671500 4.14505507
O 4.21248885 2.16671500 5.29791149
