&CONTROL
calculation = 'relax'
prefix = 'scf'
pseudo_dir = '/vol0004/mdt0/data/hp150275/u10028/POT_KKJUS'
outdir = './data'
tprnfor = .true.
nstep = 50
disk_io = 'non'
/
&SYSTEM
ibrav = 0
ecutwfc = 50.0
ecutrho = 400
occupations = 'smearing'
smearing = 'mp'
degauss = 0.01
assume_isolated = 'esm'
esm_bc = 'bc1'
input_dft = 'BEEF-VDW'
nosym = .true.
nspin = 1
ntyp = 3
nat = 33
/
&ELECTRONS
electron_maxstep = 200
mixing_beta = 0.1
conv_thr = 1e-06
/
&IONS
ion_dynamics = 'bfgs'
upscale = 1.0
/
&CELL
/

K_POINTS {automatic}
9 6 2 0  0  0

ATOMIC_SPECIES
C 12.01 C.pbe-n-rrkjus_psl.1.0.0.UPF
Hf 178.4 Hf.pbe-spn-rrkjus_psl.1.0.0.UPF
Rh 102.9 Rh.pbe-spn-rrkjus_psl.1.0.0.UPF

CELL_PARAMETERS {angstrom}
6.52860000 0.00000000 0.00000000
0.00000000 9.23283000 0.00000000
0.00000000 0.00000000 26.92460000

ATOMIC_POSITIONS {angstrom}
Hf 0.00000000 0.00000000 -3.462234310000003 0 0 0
Hf 0.00000000 2.30820750 -1.1539883600000032 0 0 0
Hf 0.00326430 0.01708074 1.20110641
Hf 6.49269270 2.30820750 3.60224223
Hf 0.00000000 4.61641500 -3.462234310000003 0 0 0
Hf 0.00000000 6.92462250 -1.1539883600000032 0 0 0
Hf 0.00326430 4.59933426 1.20110641
Hf 0.00032643 6.92462250 3.50881387
Hf 3.26430000 0.00000000 -3.462234310000003 0 0 0
Hf 3.26430000 2.30820750 -1.1539883600000032 0 0 0
Hf 3.26103570 0.01708074 1.20110641
Hf 3.30020730 2.30820750 3.60224223
Hf 3.26430000 4.61641500 -3.462234310000003 0 0 0
Hf 3.26430000 6.92462250 -1.1539883600000032 0 0 0
Hf 3.26103570 4.59933426 1.20110641
Hf 3.26397357 6.92462250 3.50881387
Rh 1.63215000 2.30820750 -3.462234310000003 0 0 0
Rh 1.63215000 0.00000000 -1.1539883600000032 0 0 0
Rh 1.63215000 2.30820750 1.09179253
Rh 1.63215000 9.08556636 3.30930259
Rh 1.63215000 6.92462250 -3.462234310000003 0 0 0
Rh 1.63215000 4.61641500 -1.1539883600000032 0 0 0
Rh 1.63215000 6.92462250 1.22399232
Rh 1.63215000 4.76367864 3.30930259
Rh 4.89645000 2.30820750 -3.462234310000003 0 0 0
Rh 4.89645000 0.00000000 -1.1539883600000032 0 0 0
Rh 4.89645000 2.30820750 1.03605861
Rh 4.89645000 9.16635362 3.25168394
Rh 4.89645000 6.92462250 -3.462234310000003 0 0 0
Rh 4.89645000 4.61641500 -1.1539883600000032 0 0 0
Rh 4.89645000 6.92462250 1.09421574
Rh 4.89645000 4.68289138 3.25141470
C 1.63215000 2.30829983 4.71772841
