&CONTROL
calculation = 'relax'
prefix = 'scf'
pseudo_dir = '/vol0004/mdt0/data/hp150275/u10028/POT_KKJUS'
outdir = './data'
tprnfor = .true.
nstep = 50
disk_io = 'non'
/
&SYSTEM
ibrav = 0
ecutwfc = 50.0
ecutrho = 400
occupations = 'smearing'
smearing = 'mp'
degauss = 0.01
assume_isolated = 'esm'
esm_bc = 'bc1'
input_dft = 'BEEF-VDW'
nosym = .true.
nspin = 1
ntyp = 3
nat = 33
/
&ELECTRONS
electron_maxstep = 200
mixing_beta = 0.1
conv_thr = 1e-06
/
&IONS
ion_dynamics = 'bfgs'
upscale = 1.0
/
&CELL
/

K_POINTS {automatic}
8 6 1 0 0 0

ATOMIC_SPECIES
Al 26.98 Al.pbe-nl-rrkjus_psl.1.0.0.UPF
C 12.01 C.pbe-n-rrkjus_psl.1.0.0.UPF
Sc 44.95 Sc.pbe-spn-rrkjus_psl.1.0.0.UPF

CELL_PARAMETERS {angstrom}
6.75388000 0.00000000 0.00000000
0.00000000 9.55143000 0.00000000
0.00000000 0.00000000 27.16360000

ATOMIC_POSITIONS {angstrom}
Sc 1.68847000 2.38785750 -3.5817923 0 0 0
Sc 1.68847000 0.00000000 -1.1938402199999985 0 0 0
Sc 1.68860508 2.38785750 1.36442763
Sc 1.68934800 4.55412182 3.81648580
Sc 1.68847000 7.16357250 -3.5817923 0 0 0
Sc 1.68847000 4.77571500 -1.1938402199999985 0 0 0
Sc 1.68813231 7.16366801 1.10881815
Sc 1.68928047 0.22159318 3.81648580
Sc 5.06541000 2.38785750 -3.5817923 0 0 0
Sc 5.06541000 0.00000000 -1.1938402199999985 0 0 0
Sc 5.06662570 2.38795301 1.10012580
Sc 5.06723355 5.02729967 3.55815996
Sc 5.06541000 7.16357250 -3.5817923 0 0 0
Sc 5.06541000 4.77571500 -1.1938402199999985 0 0 0
Sc 5.06615293 7.16357250 1.17727042
Sc 5.06723355 9.29965431 3.55815996
Al 0.00000000 0.00000000 -3.5817923 0 0 0
Al 0.00000000 2.38785750 -1.1938402199999985 0 0 0
Al 0.03883481 9.54789597 1.26011940
Al 6.47345890 2.38776199 3.60895590
Al 0.00000000 4.77571500 -3.5817923 0 0 0
Al 0.00000000 7.16357250 -1.1938402199999985 0 0 0
Al 0.03890235 4.77934454 1.26011940
Al 0.23753396 7.16347699 3.55734506
Al 3.37694000 0.00000000 -3.5817923 0 0 0
Al 3.37694000 2.38785750 -1.1938402199999985 0 0 0
Al 3.33911827 9.54770494 1.26039104
Al 3.66242651 2.38776199 3.60651117
Al 3.37694000 4.77571500 -3.5817923 0 0 0
Al 3.37694000 7.16357250 -1.1938402199999985 0 0 0
Al 3.33905073 4.77944006 1.26039104
Al 3.14116205 7.16357250 3.55625851
C 1.69204956 2.38785750 3.75536770
