&CONTROL
calculation = 'relax'
prefix = 'scf'
pseudo_dir = '/vol0004/mdt0/data/hp150275/u10028/POT_KKJUS'
outdir = './data'
tprnfor = .true.
nstep = 50
disk_io = 'non'
/
&SYSTEM
ibrav = 0
ecutwfc = 50.0
ecutrho = 400
occupations = 'smearing'
smearing = 'mp'
degauss = 0.01
assume_isolated = 'esm'
esm_bc = 'bc1'
input_dft = 'BEEF-VDW'
nosym = .true.
nspin = 1
ntyp = 4
nat = 34
/
&ELECTRONS
electron_maxstep = 200
mixing_beta = 0.1
conv_thr = 1e-06
/
&IONS
ion_dynamics = 'bfgs'
upscale = 1.0
/
&CELL
/

K_POINTS {automatic}
8 6 1 0 0 0

ATOMIC_SPECIES
Al 26.98 Al.pbe-nl-rrkjus_psl.1.0.0.UPF
Au 196.9 Au.pbe-n-rrkjus_psl.1.0.0.UPF
C 12.01 C.pbe-n-rrkjus_psl.1.0.0.UPF
O 15.99 O.pbe-n-rrkjus_psl.1.0.0.UPF

CELL_PARAMETERS {angstrom}
6.49845000 0.00000000 0.00000000
0.00000000 9.19019000 0.00000000
0.00000000 0.00000000 26.89260000

ATOMIC_POSITIONS {angstrom}
Al 0.00000000 0.00000000 -3.446286690000001 0 0 0
Al 0.00000000 2.29754750 -1.1488518700000014 0 0 0
Al 6.49325124 0.00000000 1.25749798
Al 6.48811746 2.29524995 3.52857805
Al 0.00000000 4.59509500 -3.446286690000001 0 0 0
Al 0.00000000 6.89264250 -1.1488518700000014 0 0 0
Al 6.45945930 4.59509500 1.33225940
Al 6.48811746 6.89494005 3.52857805
Al 3.24922500 0.00000000 -3.446286690000001 0 0 0
Al 3.24922500 2.29754750 -1.1488518700000014 0 0 0
Al 3.25442376 0.00000000 1.25749798
Al 3.25962252 2.29524995 3.52857805
Al 3.24922500 4.59509500 -3.446286690000001 0 0 0
Al 3.24922500 6.89264250 -1.1488518700000014 0 0 0
Al 3.28821570 4.59509500 1.33225940
Al 3.25962252 6.89494005 3.52857805
Au 1.62461250 2.29754750 -3.446286690000001 0 0 0
Au 1.62461250 0.00000000 -1.1488518700000014 0 0 0
Au 1.62461250 2.38163774 1.10851297
Au 1.62467748 0.00000000 3.44467313
Au 1.62461250 6.89264250 -3.446286690000001 0 0 0
Au 1.62461250 4.59509500 -1.1488518700000014 0 0 0
Au 1.62461250 6.80846036 1.10851297
Au 1.62461250 4.59509500 3.60441518
Au 4.87383750 2.29754750 -3.446286690000001 0 0 0
Au 4.87383750 0.00000000 -1.1488518700000014 0 0 0
Au 4.87383750 2.27705338 1.15611287
Au 4.87390248 0.00000000 3.64179589
Au 4.87383750 6.89264250 -3.446286690000001 0 0 0
Au 4.87383750 4.59509500 -1.1488518700000014 0 0 0
Au 4.87383750 6.91313662 1.15611287
Au 4.87383750 4.59509500 3.67191560
C 1.62474247 0.00000000 7.33710806
O 1.62454752 0.00000000 8.47305148
