&CONTROL
calculation = 'relax'
prefix = 'scf'
pseudo_dir = '/vol0004/mdt0/data/hp150275/u10028/POT_HYBRID_KKJUS_GBRV'
outdir = './data'
tprnfor = .true.
nstep = 50
disk_io = 'non'
/
&SYSTEM
ibrav = 0
ecutwfc = 50.0
ecutrho = 400
occupations = 'smearing'
smearing = 'mp'
degauss = 0.01
assume_isolated = 'esm'
esm_bc = 'bc1'
input_dft = 'BEEF-VDW'
nosym = .true.
nspin = 2
ntyp = 4
nat = 33
starting_magnetization(1) = 0.0
starting_magnetization(2) = 0.1
starting_magnetization(3) = 0.1
starting_magnetization(4) = 0.0
/
&ELECTRONS
electron_maxstep = 300
mixing_beta = 0.1
conv_thr = 1e-06
/
&IONS
ion_dynamics = 'bfgs'
upscale = 1.0
/
&CELL
/

K_POINTS {automatic}
9 6 2 0  0  0

ATOMIC_SPECIES
C 12.01 C.pbe-n-rrkjus_psl.1.0.0.UPF
Co 58.93 co_pbe_v1.2.uspp.F.UPF
Fe 55.84 fe_pbe_v1.5.uspp.F.UPF
Ge 72.64 Ge.pbe-dn-rrkjus_psl.1.0.0.UPF

CELL_PARAMETERS {angstrom}
5.77744000 0.00000000 0.00000000
0.00000000 8.17053000 0.00000000
0.00000000 0.00000000 26.12790000

ATOMIC_POSITIONS {angstrom}
Fe 1.44436000 0.00000000 -1.0213396100000018 0 0 0
Fe 4.33308000 4.08526500 -1.0213396100000018 0 0 0
Fe 4.33308000 0.00000000 -1.0213396100000018 0 0 0
Fe 1.44436000 4.08526500 -1.0213396100000018 0 0 0
Fe 4.33308000 6.12789750 -3.064018830000002 0 0 0
Fe 1.44436000 2.04263250 -3.064018830000002 0 0 0
Fe 1.44436000 6.12789750 -3.064018830000002 0 0 0
Fe 4.33308000 2.04263250 -3.064018830000002 0 0 0
Fe 1.62034082 4.08510159 3.06088349
Fe 4.55695580 8.17044829 2.95558805
Fe 4.15704140 4.08518329 3.06114476
Fe 1.22048420 0.00000000 2.95558805
Fe 4.33995515 2.02302323 1.18333259
Fe 1.43760040 6.14791530 1.18359387
Fe 1.43748485 2.02318664 1.18333259
Fe 4.33983960 6.14799700 1.18359387
Co 0.00000000 0.00000000 -3.064018830000002 0 0 0
Co 2.88872000 2.04263250 -1.0213396100000018 0 0 0
Co 2.88872000 6.12789750 -1.0213396100000018 0 0 0
Co 0.00000000 4.08526500 -3.064018830000002 0 0 0
Co 5.77726668 4.08551012 1.17209759
Co 2.88872000 6.31271489 3.21347042
Co 2.88877777 1.85765170 3.21320914
Co 0.00005777 0.00040853 0.78618851
Ge 0.00000000 6.12789750 -1.0213396100000018 0 0 0
Ge 2.88872000 0.00000000 -3.064018830000002 0 0 0
Ge 0.00000000 2.04263250 -1.0213396100000018 0 0 0
Ge 2.88872000 4.08526500 -3.064018830000002 0 0 0
Ge 5.77738223 2.15563093 3.38486945
Ge 2.88877777 4.08551012 0.94504614
Ge 0.00005777 6.01473566 3.38486945
Ge 2.88872000 0.00024512 0.97300300
C 2.88872000 8.17044829 3.72766749
