&CONTROL
calculation = 'relax'
prefix = 'scf'
pseudo_dir = '/vol0004/mdt0/data/hp150275/u10028/POT_KKJUS'
outdir = './data'
tprnfor = .true.
nstep = 50
disk_io = 'non'
/
&SYSTEM
ibrav = 0
ecutwfc = 50.0
ecutrho = 400
occupations = 'smearing'
smearing = 'mp'
degauss = 0.01
assume_isolated = 'esm'
esm_bc = 'bc1'
input_dft = 'BEEF-VDW'
nosym = .true.
nspin = 1
ntyp = 5
nat = 18
/
&ELECTRONS
electron_maxstep = 200
mixing_beta = 0.1
conv_thr = 1e-06
/
&IONS
ion_dynamics = 'bfgs'
upscale = 1.0
/
&CELL
/

K_POINTS {automatic}
10 10 2 0  0  0

ATOMIC_SPECIES
Al 26.98 Al.pbe-nl-rrkjus_psl.1.0.0.UPF
C 12.01 C.pbe-n-rrkjus_psl.1.0.0.UPF
Li 6.941 Li.pbe-sl-rrkjus_psl.1.0.0.UPF
O 15.99 O.pbe-n-rrkjus_psl.1.0.0.UPF
Rh 102.9 Rh.pbe-spn-rrkjus_psl.1.0.0.UPF

CELL_PARAMETERS {angstrom}
6.01864000 0.00000000 0.00000000
0.00000000 6.01864000 0.00000000
0.00000000 0.00000000 24.51400000

ATOMIC_POSITIONS {angstrom}
Li 0.00000000 0.00000000 -0.7523346599999989 0 0 0
Li 3.00932000 0.00000000 2.57176374
Li 0.00000000 3.00932000 2.63648070
Li 3.00932000 3.00932000 -0.7523346599999989 0 0 0
Li 1.50466000 1.50466000 -2.2570039800000004 0 0 0
Li 1.49382645 4.50729931 0.64447306
Li 4.51398000 4.51398000 -2.2570039800000004 0 0 0
Li 4.52481355 1.51134069 0.64447306
Al 0.00000000 0.00000000 2.14129790
Al 3.00932000 3.00932000 2.13811108
Al 3.00932000 0.00000000 -0.7523346599999989 0 0 0
Al 0.00000000 3.00932000 -0.7523346599999989 0 0 0
Rh 1.51525281 1.49352552 0.87931718
Rh 1.50466000 4.51398000 -2.2570039800000004 0 0 0
Rh 4.50344738 4.52517467 0.87931718
Rh 4.51398000 1.50466000 -2.2570039800000004 0 0 0
C 0.00000000 3.00932000 4.75154862
O 0.00000000 3.00932000 5.89365588
