&CONTROL
calculation = 'relax'
prefix = 'scf'
pseudo_dir = '/vol0004/mdt0/data/hp150275/u10028/POT_HYBRID_KKJUS_GBRV'
outdir = './data'
tprnfor = .true.
nstep = 50
disk_io = 'non'
/
&SYSTEM
ibrav = 0
ecutwfc = 50.0
ecutrho = 400
occupations = 'smearing'
smearing = 'mp'
degauss = 0.01
assume_isolated = 'esm'
esm_bc = 'bc1'
input_dft = 'BEEF-VDW'
nosym = .true.
nspin = 2
ntyp = 4
nat = 33
starting_magnetization(1) = 0.0
starting_magnetization(2) = 0.001
starting_magnetization(3) = 0.0
starting_magnetization(4) = 0.0
/
&ELECTRONS
electron_maxstep = 300
mixing_beta = 0.1
conv_thr = 1e-06
/
&IONS
ion_dynamics = 'bfgs'
upscale = 1.0
/
&CELL
/

K_POINTS {automatic}
9 6 2 0  0  0

ATOMIC_SPECIES
C 12.01 C.pbe-n-rrkjus_psl.1.0.0.UPF
Ni 58.69 ni_pbe_v1.4.uspp.F.UPF
Sb 121.7 Sb.pbe-n-rrkjus_psl.1.0.0.UPF
Ti 47.86 Ti.pbe-spn-rrkjus_psl.1.0.0.UPF

CELL_PARAMETERS {angstrom}
6.14873000 0.00000000 0.00000000
0.00000000 8.69561000 0.00000000
0.00000000 0.00000000 26.52170000

ATOMIC_POSITIONS {angstrom}
Ti 0.00000000 0.00000000 -3.2608430099999985 0 0 0
Ti 3.07436500 2.17390250 -1.086859269999998 0 0 0
Ti 3.07436500 6.52170750 -1.086859269999998 0 0 0
Ti 0.00000000 4.34780500 -3.2608430099999985 0 0 0
Ti 0.00000000 4.34780500 1.12027661
Ti 3.07436500 6.70309792 3.27887777
Ti 3.07436500 1.99259903 3.27914299
Ti 0.00000000 0.00000000 1.08235058
Ni 1.53718250 0.00000000 -1.086859269999998 0 0 0
Ni 4.61154750 4.34780500 -1.086859269999998 0 0 0
Ni 4.61154750 0.00000000 -1.086859269999998 0 0 0
Ni 1.53718250 4.34780500 -1.086859269999998 0 0 0
Ni 4.61154750 6.52170750 -3.2608430099999985 0 0 0
Ni 1.53718250 2.17390250 -3.2608430099999985 0 0 0
Ni 1.53718250 6.52170750 -3.2608430099999985 0 0 0
Ni 4.61154750 2.17390250 -3.2608430099999985 0 0 0
Ni 1.70301375 4.34763109 3.10065195
Ni 4.86561302 0.00008696 3.16828228
Ni 4.44571625 4.34763109 3.10065195
Ni 1.28311698 0.00008696 3.16828228
Ni 4.65526497 2.17155469 1.15767220
Ni 1.49371098 6.52405531 1.15740699
Ni 1.49352652 2.17146773 1.15767220
Ni 4.65501902 6.52405531 1.15740699
Sb 0.00000000 6.52170750 -1.086859269999998 0 0 0
Sb 3.07436500 0.00000000 -3.2608430099999985 0 0 0
Sb 0.00000000 2.17390250 -1.086859269999998 0 0 0
Sb 3.07436500 4.34780500 -3.2608430099999985 0 0 0
Sb 0.00000000 2.30868446 3.48892963
Sb 3.07436500 4.34771804 1.01153764
Sb 0.00000000 6.38701250 3.48839920
Sb 3.07436500 0.00008696 1.02241154
C 3.07436500 8.69552304 3.81779871
