&CONTROL
calculation = 'relax'
prefix = 'scf'
pseudo_dir = '/vol0004/mdt0/data/hp150275/u10028/POT_KKJUS'
outdir = './data'
tprnfor = .true.
nstep = 50
disk_io = 'non'
/
&SYSTEM
ibrav = 0
ecutwfc = 50.0
ecutrho = 400
occupations = 'smearing'
smearing = 'mp'
degauss = 0.01
assume_isolated = 'esm'
esm_bc = 'bc1'
input_dft = 'BEEF-VDW'
nosym = .true.
nspin = 1
ntyp = 5
nat = 18
/
&ELECTRONS
electron_maxstep = 200
mixing_beta = 0.1
conv_thr = 1e-06
/
&IONS
ion_dynamics = 'bfgs'
upscale = 1.0
/
&CELL
/

K_POINTS {automatic}
8 8 1 0 0 0

ATOMIC_SPECIES
Au 196.9 Au.pbe-n-rrkjus_psl.1.0.0.UPF
C 12.01 C.pbe-n-rrkjus_psl.1.0.0.UPF
Li 6.941 Li.pbe-sl-rrkjus_psl.1.0.0.UPF
O 15.99 O.pbe-n-rrkjus_psl.1.0.0.UPF
Sb 121.7 Sb.pbe-n-rrkjus_psl.1.0.0.UPF

CELL_PARAMETERS {angstrom}
6.66546000 0.00000000 0.00000000
0.00000000 6.66546000 0.00000000
0.00000000 0.00000000 24.99910000

ATOMIC_POSITIONS {angstrom}
Li 6.60560417 0.05998914 0.70072477
Li 3.33273000 0.00000000 -2.4996600099999995 0 0 0
Li 0.00000000 3.33273000 -2.4996600099999995 0 0 0
Li 3.39138605 3.27400730 0.67847557
Li 1.67829617 1.67216395 2.65940426
Li 1.66636500 4.99909500 -0.8332199999999972 0 0 0
Li 4.99342936 4.98709717 2.65915427
Li 4.99909500 1.66636500 -0.8332199999999972 0 0 0
Sb 0.00000000 0.00000000 -2.4996600099999995 0 0 0
Sb 3.33273000 3.33273000 -2.4996600099999995 0 0 0
Sb 3.45377475 0.11784533 1.10996004
Sb 6.54761467 3.21161859 1.10996004
Au 1.66636500 1.66636500 -0.8332199999999972 0 0 0
Au 1.67036428 4.99509572 2.06142579
Au 4.99909500 4.99909500 -0.8332199999999972 0 0 0
Au 4.99056321 1.67489679 2.81114879
C 4.98949674 1.67596326 4.83507593
O 4.99662878 1.66889787 5.99003435
