&CONTROL
calculation = 'relax'
prefix = 'scf'
pseudo_dir = '/vol0004/mdt0/data/hp150275/u10028/POT_KKJUS'
outdir = './data'
tprnfor = .true.
nstep = 50
disk_io = 'non'
/
&SYSTEM
ibrav = 0
ecutwfc = 50.0
ecutrho = 400
occupations = 'smearing'
smearing = 'mp'
degauss = 0.01
assume_isolated = 'esm'
esm_bc = 'bc1'
input_dft = 'BEEF-VDW'
nosym = .true.
nspin = 1
ntyp = 4
nat = 34
/
&ELECTRONS
electron_maxstep = 200
mixing_beta = 0.1
conv_thr = 1e-06
/
&IONS
ion_dynamics = 'bfgs'
upscale = 1.0
/
&CELL
/

K_POINTS {automatic}
8 6 1 0 0 0

ATOMIC_SPECIES
C 12.01 C.pbe-n-rrkjus_psl.1.0.0.UPF
K 39.09 K.pbe-spn-rrkjus_psl.1.0.0.UPF
O 15.99 O.pbe-n-rrkjus_psl.1.0.0.UPF
Sb 121.7 Sb.pbe-n-rrkjus_psl.1.0.0.UPF

CELL_PARAMETERS {angstrom}
8.65338000 0.00000000 0.00000000
0.00000000 12.23770000 0.00000000
0.00000000 0.00000000 29.17830000

ATOMIC_POSITIONS {angstrom}
K 2.16334500 0.00000000 -1.5298182699999998 0 0 0
K 6.49003500 6.11885000 -1.5298182699999998 0 0 0
K 6.49003500 0.00000000 -1.5298182699999998 0 0 0
K 2.16334500 6.11885000 -1.5298182699999998 0 0 0
K 6.49003500 9.17827500 -4.589163020000001 0 0 0
K 2.16334500 3.05942500 -4.589163020000001 0 0 0
K 2.16334500 9.17827500 -4.589163020000001 0 0 0
K 6.49003500 3.05942500 -4.589163020000001 0 0 0
K 0.00000000 9.17827500 -1.5298182699999998 0 0 0
K 4.32669000 0.00000000 -4.589163020000001 0 0 0
K 0.00000000 3.05942500 -1.5298182699999998 0 0 0
K 4.32669000 6.11885000 -4.589163020000001 0 0 0
K 2.42909030 6.08140264 5.04667877
K 6.22428970 0.03732499 5.04667877
K 6.22428970 6.08152502 5.04667877
K 2.42909030 0.03732499 5.04697055
K 6.41734661 3.05942500 1.41719003
K 2.17727694 9.17839738 1.45920678
K 2.23594686 3.05942500 1.41719003
K 6.47610306 9.17827500 1.45920678
K 8.65320693 3.05942500 4.06103579
K 4.32660347 6.16890219 1.80847103
K 0.00000000 9.17827500 4.24310839
K 4.32669000 12.18777018 1.80876282
Sb 0.00000000 0.00000000 -4.589163020000001 0 0 0
Sb 4.32669000 3.05942500 -1.5298182699999998 0 0 0
Sb 4.32669000 9.17827500 -1.5298182699999998 0 0 0
Sb 0.00000000 6.11885000 -4.589163020000001 0 0 0
Sb 0.00000000 6.11811574 1.73523350
Sb 4.32669000 9.17827500 4.33122685
Sb 4.32677653 3.05942500 4.30554995
Sb 0.00000000 0.00073426 1.73523350
C 0.00000000 3.05942500 7.09061868
O 0.00000000 3.05942500 8.23440804
