&CONTROL
calculation = 'relax'
prefix = 'scf'
pseudo_dir = '/vol0004/mdt0/data/hp150275/u10028/POT_KKJUS'
outdir = './data'
tprnfor = .true.
nstep = 50
disk_io = 'non'
/
&SYSTEM
ibrav = 0
ecutwfc = 50.0
ecutrho = 400
occupations = 'smearing'
smearing = 'mp'
degauss = 0.01
assume_isolated = 'esm'
esm_bc = 'bc1'
input_dft = 'BEEF-VDW'
nosym = .true.
nspin = 1
ntyp = 4
nat = 33
/
&ELECTRONS
electron_maxstep = 200
mixing_beta = 0.1
conv_thr = 1e-06
/
&IONS
ion_dynamics = 'bfgs'
upscale = 1.0
/
&CELL
/

K_POINTS {automatic}
9 6 2 0  0  0

ATOMIC_SPECIES
Al 26.98 Al.pbe-nl-rrkjus_psl.1.0.0.UPF
C 12.01 C.pbe-n-rrkjus_psl.1.0.0.UPF
Cu 63.54 Cu.pbe-dn-rrkjus_psl.1.0.0.UPF
Hf 178.4 Hf.pbe-spn-rrkjus_psl.1.0.0.UPF

CELL_PARAMETERS {angstrom}
6.21964000 0.00000000 0.00000000
0.00000000 8.79589000 0.00000000
0.00000000 0.00000000 26.59690000

ATOMIC_POSITIONS {angstrom}
Hf 0.00000000 0.00000000 -3.2985475400000013 0 0 0
Hf 3.10982000 2.19897250 -1.099515850000003 0 0 0
Hf 3.10982000 6.59691750 -1.099515850000003 0 0 0
Hf 0.00000000 4.39794500 -3.2985475400000013 0 0 0
Hf 0.00000000 4.39794500 1.41575299
Hf 3.10982000 6.25273432 3.18870234
Hf 3.10982000 2.54315568 3.18870234
Hf 0.00000000 0.00000000 1.21521236
Al 0.00000000 6.59691750 -1.099515850000003 0 0 0
Al 3.10982000 0.00000000 -3.2985475400000013 0 0 0
Al 0.00000000 2.19897250 -1.099515850000003 0 0 0
Al 3.10982000 4.39794500 -3.2985475400000013 0 0 0
Al 0.00000000 2.05164134 3.39004087
Al 3.10982000 4.39794500 0.99100049
Al 0.00000000 6.74424866 3.39004087
Al 3.10982000 0.00000000 1.11254833
Cu 1.55491000 0.00000000 -1.099515850000003 0 0 0
Cu 4.66473000 4.39794500 -1.099515850000003 0 0 0
Cu 4.66473000 0.00000000 -1.099515850000003 0 0 0
Cu 1.55491000 4.39794500 -1.099515850000003 0 0 0
Cu 4.66473000 6.59691750 -3.2985475400000013 0 0 0
Cu 1.55491000 2.19897250 -3.2985475400000013 0 0 0
Cu 1.55491000 6.59691750 -3.2985475400000013 0 0 0
Cu 4.66473000 2.19897250 -3.2985475400000013 0 0 0
Cu 1.25935271 4.39794500 3.92490453
Cu 4.30871781 0.00000000 3.49908816
Cu 4.96028729 4.39794500 3.92490453
Cu 1.91092219 0.00000000 3.49908816
Cu 4.69744531 2.20609717 1.04525817
Cu 1.52219469 6.58979283 1.04525817
Cu 1.52219469 2.20609717 1.04525817
Cu 4.69744531 6.58979283 1.04525817
C 0.00000000 0.00000000 3.44004305
