&CONTROL
calculation = 'relax'
prefix = 'scf'
pseudo_dir = '/vol0004/mdt0/data/hp150275/u10028/POT_KKJUS'
outdir = './data'
tprnfor = .true.
nstep = 50
disk_io = 'non'
/
&SYSTEM
ibrav = 0
ecutwfc = 50.0
ecutrho = 400
occupations = 'smearing'
smearing = 'mp'
degauss = 0.01
assume_isolated = 'esm'
esm_bc = 'bc1'
input_dft = 'BEEF-VDW'
nosym = .true.
nspin = 1
ntyp = 3
nat = 33
/
&ELECTRONS
electron_maxstep = 200
mixing_beta = 0.1
conv_thr = 1e-06
/
&IONS
ion_dynamics = 'bfgs'
upscale = 1.0
/
&CELL
/

K_POINTS {automatic}
9 6 2 0  0  0

ATOMIC_SPECIES
Au 196.9 Au.pbe-n-rrkjus_psl.1.0.0.UPF
C 12.01 C.pbe-n-rrkjus_psl.1.0.0.UPF
Y 88.90 Y.pbe-spn-rrkjus_psl.1.0.0.UPF

CELL_PARAMETERS {angstrom}
7.24612000 0.00000000 0.00000000
0.00000000 10.24760000 0.00000000
0.00000000 0.00000000 27.68570000

ATOMIC_POSITIONS {angstrom}
Y 1.81153000 2.56190000 -3.842775160000002 0 0 0
Y 1.81153000 0.00000000 -1.2810173400000018 0 0 0
Y 1.81442845 2.55882572 1.29153790
Y 2.03043529 0.00000000 3.93469168
Y 1.81153000 7.68570000 -3.842775160000002 0 0 0
Y 1.81153000 5.12380000 -1.2810173400000018 0 0 0
Y 1.81442845 7.68877428 1.29153790
Y 1.75921301 5.12380000 3.79487890
Y 5.43459000 2.56190000 -3.842775160000002 0 0 0
Y 5.43459000 0.00000000 -1.2810173400000018 0 0 0
Y 5.43169155 2.55882572 1.29153790
Y 5.21568471 0.00000000 3.93469168
Y 5.43459000 7.68570000 -3.842775160000002 0 0 0
Y 5.43459000 5.12380000 -1.2810173400000018 0 0 0
Y 5.43169155 7.68877428 1.29153790
Y 5.48690699 5.12380000 3.79487890
Au 0.00000000 0.00000000 -3.842775160000002 0 0 0
Au 0.00000000 2.56190000 -1.2810173400000018 0 0 0
Au 0.00000000 0.00000000 1.20183624
Au 0.00000000 2.47264340 3.78795747
Au 0.00000000 5.12380000 -3.842775160000002 0 0 0
Au 0.00000000 7.68570000 -1.2810173400000018 0 0 0
Au 0.00000000 5.12380000 1.18854710
Au 0.00000000 7.77485412 3.78768062
Au 3.62306000 0.00000000 -3.842775160000002 0 0 0
Au 3.62306000 2.56190000 -1.2810173400000018 0 0 0
Au 3.62306000 0.00000000 1.15310940
Au 3.62306000 2.69727080 3.68302867
Au 3.62306000 5.12380000 -3.842775160000002 0 0 0
Au 3.62306000 7.68570000 -1.2810173400000018 0 0 0
Au 3.62306000 5.12380000 1.37044215
Au 3.62306000 7.55022673 3.68302867
C 0.00000000 0.00051238 4.57118593
