&CONTROL
calculation = 'relax'
prefix = 'scf'
pseudo_dir = '/vol0004/mdt0/data/hp150275/u10028/POT_KKJUS'
outdir = './data'
tprnfor = .true.
nstep = 50
disk_io = 'non'
/
&SYSTEM
ibrav = 0
ecutwfc = 50.0
ecutrho = 400
occupations = 'smearing'
smearing = 'mp'
degauss = 0.01
assume_isolated = 'esm'
esm_bc = 'bc1'
input_dft = 'BEEF-VDW'
nosym = .true.
nspin = 1
ntyp = 4
nat = 18
/
&ELECTRONS
electron_maxstep = 200
mixing_beta = 0.1
conv_thr = 1e-06
/
&IONS
ion_dynamics = 'bfgs'
upscale = 1.0
/
&CELL
/

K_POINTS {automatic}
8 11 2 0  0  0

ATOMIC_SPECIES
C 12.01 C.pbe-n-rrkjus_psl.1.0.0.UPF
In 114.8 In.pbe-dn-rrkjus_psl.1.0.0.UPF
Ni 58.69 Ni.pbe-spn-rrkjus_psl.1.0.0.UPF
O 15.99 O.pbe-n-rrkjus_psl.1.0.0.UPF

CELL_PARAMETERS {angstrom}
7.55564000 0.00000000 0.00000000
0.00000000 5.34265000 0.00000000
0.00000000 0.00000000 24.00700000

ATOMIC_POSITIONS {angstrom}
In 0.00000000 0.00000000 -2.0033841500000023 0 0 0
In 0.00770675 2.68217058 0.75405987
In 3.77782000 0.00000000 -2.0033841500000023 0 0 0
In 3.77011325 2.68185002 0.75405987
Ni 0.00000000 2.67132500 -2.0033841500000023 0 0 0
Ni 1.88891000 4.00698750 -0.667874740000002 0 0 0
Ni 1.88891000 1.33566250 -0.667874740000002 0 0 0
Ni 0.00143557 0.00972362 0.67411656
Ni 1.88906111 1.24996639 1.90591573
Ni 1.88906111 4.16646560 1.83053375
Ni 3.77782000 2.67132500 -2.0033841500000023 0 0 0
Ni 5.66673000 4.00698750 -0.667874740000002 0 0 0
Ni 5.66673000 1.33566250 -0.667874740000002 0 0 0
Ni 3.77615776 0.00967020 0.67387649
Ni 5.66657889 1.22261203 1.80868738
Ni 5.66665444 4.14087431 1.81132815
C 1.88906111 1.31429190 3.66226785
O 1.88906111 1.34228739 4.81796483
