&CONTROL
calculation = 'relax'
prefix = 'scf'
pseudo_dir = '/vol0403/data/hp230205/u10028/POT_HYBRID_KKJUS_GBRV'
outdir = './data'
tprnfor = .true.
nstep = 50
disk_io = 'non'
/
&SYSTEM
ibrav = 0
ecutwfc = 50.0
ecutrho = 400
occupations = 'smearing'
smearing = 'mp'
degauss = 0.01
assume_isolated = 'esm'
esm_bc = 'bc1'
input_dft = 'BEEF-VDW'
nosym = .true.
nspin = 1
ntyp = 6
nat = 34
/
&ELECTRONS
electron_maxstep = 200
mixing_beta = 0.1
conv_thr = 1e-06
/
&IONS
ion_dynamics = 'bfgs'
upscale = 1.0
/
&CELL
/

K_POINTS {automatic}
6 6 1 0 0 0

ATOMIC_SPECIES
C 12.01 C.pbe-n-rrkjus_psl.1.0.0.UPF
Li 6.941 Li.pbe-sl-rrkjus_psl.1.0.0.UPF
Mg 24.30 Mg.pbe-spnl-rrkjus_psl.1.0.0.UPF
O 15.99 O.pbe-n-rrkjus_psl.1.0.0.UPF
Pd 106.4 Pd.pbe-n-rrkjus_psl.1.0.0.UPF
Sb 121.7 Sb.pbe-n-rrkjus_psl.1.0.0.UPF


CELL_PARAMETERS {angstrom}
6.57147000 0.00000000 0.00000000
0.00000000 9.29346000 0.00000000
0.00000000 0.00000000 26.97010000

ATOMIC_POSITIONS {angstrom}
Li 0.00000000 0.00000000 -3.4850763199999975 0 0 0
Li 0.00000000 4.64673000 -3.4850763199999975 0 0 0
Li 3.28573500 6.97009500 -1.161602209999998 0 0 0
Li 3.28573500 2.32336500 -1.161602209999998 0 0 0
Li 6.49918383 4.64691587 1.17913277
Li 6.48958948 0.00000000 1.19477543
Li 3.54110232 2.32931281 4.06736078
Li 3.54024803 6.96414719 4.06682138
Mg 1.64286750 0.00000000 -1.161602209999998 0 0 0
Mg 1.64286750 4.64673000 -1.161602209999998 0 0 0
Mg 4.92860250 2.32336500 -3.4850763199999975 0 0 0
Mg 4.92860250 6.97009500 -3.4850763199999975 0 0 0
Mg 1.55198407 4.64654413 3.44920609
Mg 1.57261849 0.00009293 3.46161233
Mg 4.81616465 6.96897978 1.24440041
Mg 4.81629608 2.32475902 1.24440041
Sb 4.92860250 0.00000000 -1.161602209999998 0 0 0
Sb 4.92860250 4.64673000 -1.161602209999998 0 0 0
Sb 1.64286750 2.32336500 -3.4850763199999975 0 0 0
Sb 1.64286750 6.97009500 -3.4850763199999975 0 0 0
Sb 4.88700509 4.64682293 3.57974137
Sb 4.87241643 9.29336707 3.59484463
Sb 1.65995332 6.97567108 1.23010626
Sb 1.65995332 2.31797479 1.23010626
Pd 0.00000000 2.32336500 -1.161602209999998 0 0 0
Pd 0.00000000 6.97009500 -1.161602209999998 0 0 0
Pd 3.28573500 4.64673000 -3.4850763199999975 0 0 0
Pd 3.28573500 0.00000000 -3.4850763199999975 0 0 0
Pd 6.50555816 6.97920259 3.32487393
Pd 6.50549244 2.31416447 3.32514363
Pd 3.30610656 0.00018587 1.06558865
Pd 3.29861508 4.64682293 1.06154314
C 5.73419901 9.29336707 7.56996767
O 4.72856695 9.29336707 8.09858163
