&CONTROL
calculation = 'relax'
prefix = 'scf'
pseudo_dir = '/vol0004/mdt0/data/hp150275/u10028/POT_KKJUS'
outdir = './data'
tprnfor = .true.
nstep = 50
disk_io = 'non'
/
&SYSTEM
ibrav = 0
ecutwfc = 50.0
ecutrho = 400
occupations = 'smearing'
smearing = 'mp'
degauss = 0.01
assume_isolated = 'esm'
esm_bc = 'bc1'
input_dft = 'BEEF-VDW'
nosym = .true.
nspin = 1
ntyp = 2
nat = 32
/
&ELECTRONS
electron_maxstep = 200
mixing_beta = 0.1
conv_thr = 1e-06
/
&IONS
ion_dynamics = 'bfgs'
upscale = 1.0
/
&CELL
/

K_POINTS {automatic}
9 6 2 0  0  0

ATOMIC_SPECIES
Ag 107.8 Ag.pbe-n-rrkjus_psl.1.0.0.UPF
Y 88.90 Y.pbe-spn-rrkjus_psl.1.0.0.UPF

CELL_PARAMETERS {angstrom}
7.32505000 0.00000000 0.00000000
0.00000000 10.35920000 0.00000000
0.00000000 0.00000000 27.76940000

ATOMIC_POSITIONS {angstrom}
Y 1.83126250 2.58980000 -3.88466137 0 0 0
Y 1.83126250 0.00000000 -1.294887120000002 0 0 0
Y 1.83148225 2.59228621 1.29072171
Y 1.83126250 0.00000000 3.86855511
Y 1.83126250 7.76940000 -3.88466137 0 0 0
Y 1.83126250 5.17960000 -1.294887120000002 0 0 0
Y 1.83133575 7.76701738 1.29044402
Y 1.83126250 5.17960000 3.86966589
Y 5.49378750 2.58980000 -3.88466137 0 0 0
Y 5.49378750 0.00000000 -1.294887120000002 0 0 0
Y 5.49400725 2.59238980 1.29072171
Y 5.49378750 0.00000000 3.86799973
Y 5.49378750 7.76940000 -3.88466137 0 0 0
Y 5.49378750 5.17960000 -1.294887120000002 0 0 0
Y 5.49371425 7.76681020 1.29072171
Y 5.49378750 5.17960000 3.86966589
Ag 0.00000000 0.00000000 -3.88466137 0 0 0
Ag 0.00000000 2.58980000 -1.294887120000002 0 0 0
Ag 0.00000000 10.35909641 1.32543346
Ag 0.00000000 2.59021437 3.73831663
Ag 0.00000000 5.17960000 -3.88466137 0 0 0
Ag 0.00000000 7.76940000 -1.294887120000002 0 0 0
Ag 0.00000000 5.17970359 1.32571116
Ag 0.00000000 7.76898563 3.73803893
Ag 3.66252500 0.00000000 -3.88466137 0 0 0
Ag 3.66252500 2.58980000 -1.294887120000002 0 0 0
Ag 3.66252500 10.35899282 1.32543346
Ag 3.66252500 2.59011078 3.73831663
Ag 3.66252500 5.17960000 -3.88466137 0 0 0
Ag 3.66252500 7.76940000 -1.294887120000002 0 0 0
Ag 3.66245175 5.17970359 1.32571116
Ag 3.66252500 7.76898563 3.73831663
