&CONTROL
calculation = 'relax'
prefix = 'scf'
pseudo_dir = '/vol0004/mdt0/data/hp150275/u10028/POT_KKJUS'
outdir = './data'
tprnfor = .true.
nstep = 50
disk_io = 'non'
/
&SYSTEM
ibrav = 0
ecutwfc = 50.0
ecutrho = 400
occupations = 'smearing'
smearing = 'mp'
degauss = 0.01
assume_isolated = 'esm'
esm_bc = 'bc1'
input_dft = 'BEEF-VDW'
nosym = .true.
nspin = 1
ntyp = 4
nat = 34
/
&ELECTRONS
electron_maxstep = 200
mixing_beta = 0.1
conv_thr = 1e-06
/
&IONS
ion_dynamics = 'bfgs'
upscale = 1.0
/
&CELL
/

K_POINTS {automatic}
8 6 1 0 0 0

ATOMIC_SPECIES
C 12.01 C.pbe-n-rrkjus_psl.1.0.0.UPF
Hf 178.4 Hf.pbe-spn-rrkjus_psl.1.0.0.UPF
O 15.99 O.pbe-n-rrkjus_psl.1.0.0.UPF
Pt 195.0 Pt.pbe-n-rrkjus_psl.1.0.0.UPF

CELL_PARAMETERS {angstrom}
6.65903000 0.00000000 0.00000000
0.00000000 9.41730000 0.00000000
0.00000000 0.00000000 27.06300000

ATOMIC_POSITIONS {angstrom}
Hf 0.00000000 0.00000000 -3.5314508700000005 0 0 0
Hf 0.00000000 2.35432500 -1.1772405 0 0 0
Hf 6.62147307 0.00000000 1.16425026
Hf 6.62167284 2.39773875 3.53496906
Hf 0.00000000 4.70865000 -3.5314508700000005 0 0 0
Hf 0.00000000 7.06297500 -1.1772405 0 0 0
Hf 0.06106331 4.70865000 1.14070545
Hf 6.62173943 7.01956125 3.53496906
Hf 3.32951500 0.00000000 -3.5314508700000005 0 0 0
Hf 3.32951500 2.35432500 -1.1772405 0 0 0
Hf 3.36973554 0.00009417 1.16343837
Hf 3.36707193 2.39632616 3.53632221
Hf 3.32951500 4.70865000 -3.5314508700000005 0 0 0
Hf 3.32951500 7.06297500 -1.1772405 0 0 0
Hf 3.26565490 4.70865000 1.14070545
Hf 3.36707193 7.02097384 3.53659284
Pt 1.66475750 2.35432500 -3.5314508700000005 0 0 0
Pt 1.66475750 0.00000000 -1.1772405 0 0 0
Pt 1.66642226 2.08480187 1.45950759
Pt 1.66249343 0.00000000 3.78421929
Pt 1.66475750 7.06297500 -3.5314508700000005 0 0 0
Pt 1.66475750 4.70865000 -1.1772405 0 0 0
Pt 1.66655544 7.33259230 1.45950759
Pt 1.66489068 4.70865000 3.34661058
Pt 4.99427250 2.35432500 -3.5314508700000005 0 0 0
Pt 4.99427250 0.00000000 -1.1772405 0 0 0
Pt 4.99220820 2.56809771 1.23163713
Pt 4.99640339 0.00000000 3.32550144
Pt 4.99427250 7.06297500 -3.5314508700000005 0 0 0
Pt 4.99427250 4.70865000 -1.1772405 0 0 0
Pt 4.99200843 6.84920229 1.23163713
Pt 4.99254115 4.70865000 3.35851830
C 1.67907441 0.00000000 5.67565236
O 1.68353596 0.00000000 6.83746695
