&CONTROL
calculation = 'relax'
prefix = 'scf'
pseudo_dir = '/vol0004/mdt0/data/hp150275/u10028/POT_KKJUS'
outdir = './data'
tprnfor = .true.
nstep = 50
disk_io = 'non'
/
&SYSTEM
ibrav = 0
ecutwfc = 50.0
ecutrho = 400
occupations = 'smearing'
smearing = 'mp'
degauss = 0.01
assume_isolated = 'esm'
esm_bc = 'bc1'
input_dft = 'BEEF-VDW'
nosym = .true.
nspin = 1
ntyp = 4
nat = 34
/
&ELECTRONS
electron_maxstep = 200
mixing_beta = 0.1
conv_thr = 1e-06
/
&IONS
ion_dynamics = 'bfgs'
upscale = 1.0
/
&CELL
/

K_POINTS {automatic}
8 6 1 0 0 0

ATOMIC_SPECIES
C 12.01 C.pbe-n-rrkjus_psl.1.0.0.UPF
O 15.99 O.pbe-n-rrkjus_psl.1.0.0.UPF
Y 88.90 Y.pbe-spn-rrkjus_psl.1.0.0.UPF
Zn 65.40 Zn.pbe-dnl-rrkjus_psl.1.0.0.UPF

CELL_PARAMETERS {angstrom}
7.16718000 0.00000000 0.00000000
0.00000000 10.13590000 0.00000000
0.00000000 0.00000000 27.60190000

ATOMIC_POSITIONS {angstrom}
Y 0.00000000 0.00000000 -3.8010576500000006 0 0 0
Y 0.00000000 2.53397500 -1.2669272100000022 0 0 0
Y 0.00000000 10.11958120 1.19543829
Y 0.00000000 2.53346821 3.67519298
Y 0.00000000 5.06795000 -3.8010576500000006 0 0 0
Y 0.00000000 7.60192500 -1.2669272100000022 0 0 0
Y 0.00000000 5.08325521 1.19571431
Y 0.00000000 7.60030326 3.70086275
Y 3.58359000 0.00000000 -3.8010576500000006 0 0 0
Y 3.58359000 2.53397500 -1.2669272100000022 0 0 0
Y 3.58359000 10.13194700 1.22607640
Y 3.58359000 2.53235326 3.79746940
Y 3.58359000 5.06795000 -3.8010576500000006 0 0 0
Y 3.58359000 7.60192500 -1.2669272100000022 0 0 0
Y 3.58359000 5.07078805 1.22635242
Y 3.58359000 7.60111413 3.71493972
Zn 1.79179500 2.53397500 -3.8010576500000006 0 0 0
Zn 1.79179500 0.00000000 -1.2669272100000022 0 0 0
Zn 1.83150118 2.53225190 1.22994066
Zn 1.79107828 5.05680051 3.69451432
Zn 1.79179500 7.60192500 -3.8010576500000006 0 0 0
Zn 1.79179500 5.06795000 -1.2669272100000022 0 0 0
Zn 1.80297580 7.60263451 1.25257422
Zn 1.78942983 0.00790600 3.69396228
Zn 5.37538500 2.53397500 -3.8010576500000006 0 0 0
Zn 5.37538500 0.00000000 -1.2669272100000022 0 0 0
Zn 5.33567882 2.53225190 1.22994066
Zn 5.37610172 5.05680051 3.69451432
Zn 5.37538500 7.60192500 -3.8010576500000006 0 0 0
Zn 5.37538500 5.06795000 -1.2669272100000022 0 0 0
Zn 5.36420420 7.60263451 1.25257422
Zn 5.37775017 0.00790600 3.69396228
C 0.00000000 2.54664487 6.12651772
O 0.00000000 2.54816526 7.28000113
