&CONTROL
calculation = 'relax'
prefix = 'scf'
pseudo_dir = '/vol0403/data/hp230205/u10028/POT_HYBRID_KKJUS_GBRV'
outdir = './data'
tprnfor = .true.
nstep = 70
disk_io = 'non'
/
&SYSTEM
ibrav = 0
ecutwfc = 50.0
ecutrho = 400
occupations = 'smearing'
smearing = 'mp'
degauss = 0.01
assume_isolated = 'esm'
esm_bc = 'bc1'
input_dft = 'BEEF-VDW'
nosym = .true.
nspin = 1
ntyp = 5
nat = 33
/
&ELECTRONS
electron_maxstep = 200
mixing_beta = 0.1
conv_thr = 1e-06
/
&IONS
ion_dynamics = 'bfgs'
upscale = 1.0
/
&CELL
/

K_POINTS {automatic}
9 6 2 0  0  0

ATOMIC_SPECIES
Au 196.9 Au.pbe-n-rrkjus_psl.1.0.0.UPF
C 12.01 C.pbe-n-rrkjus_psl.1.0.0.UPF
Cu 63.54 Cu.pbe-dn-rrkjus_psl.1.0.0.UPF
In 114.8 In.pbe-dn-rrkjus_psl.1.0.0.UPF
Li 6.941 Li.pbe-sl-rrkjus_psl.1.0.0.UPF


CELL_PARAMETERS {angstrom}
6.41124000 0.00000000 0.00000000
-0.00000000 9.06686000 0.00000000
0.00000000 0.00000000 26.80010000

ATOMIC_POSITIONS {angstrom}
Li 4.80843000 0.00000000 -1.1333762299999997 0 0 0
Li 4.80843000 4.53343000 -1.1333762299999997 0 0 0
Li 1.60281000 2.26671500 -3.400128689999999 0 0 0
Li 1.60281000 6.80014500 -3.400128689999999 0 0 0
Li 4.16595964 4.53343000 4.17625958
Li 4.86228442 -0.00000000 3.62390952
Li 1.46984088 6.79660892 1.26469672
Li 1.46977677 2.27016041 1.26469672
In 0.00000000 2.26671500 -1.1333762299999997 0 0 0
In 0.00000000 6.80014500 -1.1333762299999997 0 0 0
In 3.20562000 4.53343000 -3.400128689999999 0 0 0
In 3.20562000 0.00000000 -3.400128689999999 0 0 0
In 6.30872427 6.56313728 3.82115826
In 6.30872427 2.50372272 3.82115826
In 3.24203584 -0.00000000 1.02751583
In 3.28274722 4.53343000 1.25799669
Cu 1.60281000 0.00000000 -1.1333762299999997 0 0 0
Cu 1.60281000 4.53343000 -1.1333762299999997 0 0 0
Cu 4.80843000 2.26671500 -3.400128689999999 0 0 0
Cu 4.80843000 6.80014500 -3.400128689999999 0 0 0
Cu 1.63877706 4.53343000 3.36850457
Cu 1.03105562 -0.00000000 3.44917287
Cu 4.85548850 6.77648050 1.19260445
Cu 4.85555261 2.29037950 1.19260445
Au 0.00000000 0.00000000 -3.400128689999999 0 0 0
Au 0.00000000 4.53343000 -3.400128689999999 0 0 0
Au 3.20562000 6.80014500 -1.1333762299999997 0 0 0
Au 3.20562000 2.26671500 -1.1333762299999997 0 0 0
Au 6.38040194 4.53343000 1.12667620
Au 6.31321214 -0.00000000 1.04225589
Au 3.02700285 2.20433500 3.41138473
Au 3.02700285 6.86252500 3.41138473
C 2.89614945 -0.00000000 3.25514015
