&CONTROL
calculation = 'relax'
prefix = 'scf'
pseudo_dir = '/vol0004/mdt0/data/hp150275/u10028/POT_KKJUS'
outdir = './data'
tprnfor = .true.
nstep = 50
disk_io = 'non'
/
&SYSTEM
ibrav = 0
ecutwfc = 50.0
ecutrho = 400
occupations = 'smearing'
smearing = 'mp'
degauss = 0.01
assume_isolated = 'esm'
esm_bc = 'bc1'
input_dft = 'BEEF-VDW'
nosym = .true.
nspin = 1
ntyp = 4
nat = 17
/
&ELECTRONS
electron_maxstep = 200
mixing_beta = 0.1
conv_thr = 1e-06
/
&IONS
ion_dynamics = 'bfgs'
upscale = 1.0
/
&CELL
/

K_POINTS {automatic}
8 8 1 0 0 0

ATOMIC_SPECIES
Ag 107.8 Ag.pbe-n-rrkjus_psl.1.0.0.UPF
C 12.01 C.pbe-n-rrkjus_psl.1.0.0.UPF
Li 6.941 Li.pbe-sl-rrkjus_psl.1.0.0.UPF
Sn 118.7 Sn.pbe-dn-rrkjus_psl.1.0.0.UPF

CELL_PARAMETERS {angstrom}
6.65960000 0.00000000 0.00000000
0.00000000 6.65960000 0.00000000
0.00000000 0.00000000 24.99470000

ATOMIC_POSITIONS {angstrom}
Li 0.00000000 0.00000000 -0.8325734600000025 0 0 0
Li 3.16051297 0.17221726 2.62619313
Li 0.17228385 3.16051297 2.62619313
Li 3.32980000 3.32980000 -0.8325734600000025 0 0 0
Li 1.66716426 1.66723086 0.73784354
Li 1.66490000 4.99470000 -2.4974704200000026 0 0 0
Li 4.99203616 4.99203616 1.03028153
Li 4.99470000 1.66490000 -2.4974704200000026 0 0 0
Ag 1.66490000 1.66490000 -2.4974704200000026 0 0 0
Ag 1.66323510 4.99616511 0.88406254
Ag 4.99470000 4.99470000 -2.4974704200000026 0 0 0
Ag 4.99616511 1.66323510 0.88406254
Sn 0.16469191 0.16469191 2.82865020
Sn 3.18089134 3.18089134 2.82215158
Sn 3.32980000 0.00000000 -0.8325734600000025 0 0 0
Sn 0.00000000 3.32980000 -0.8325734600000025 0 0 0
C 1.67362408 1.67362408 2.82365126
