&CONTROL
calculation = 'relax'
prefix = 'scf'
pseudo_dir = '/vol0004/mdt0/data/hp150275/u10028/POT_KKJUS'
outdir = './data'
tprnfor = .true.
nstep = 50
disk_io = 'non'
/
&SYSTEM
ibrav = 0
ecutwfc = 50.0
ecutrho = 400
occupations = 'smearing'
smearing = 'mp'
degauss = 0.01
assume_isolated = 'esm'
esm_bc = 'bc1'
input_dft = 'BEEF-VDW'
nosym = .true.
nspin = 1
ntyp = 5
nat = 34
/
&ELECTRONS
electron_maxstep = 200
mixing_beta = 0.1
conv_thr = 1e-06
/
&IONS
ion_dynamics = 'bfgs'
upscale = 1.0
/
&CELL
/

K_POINTS {automatic}
9 6 2 0  0  0

ATOMIC_SPECIES
Ag 107.8 Ag.pbe-n-rrkjus_psl.1.0.0.UPF
C 12.01 C.pbe-n-rrkjus_psl.1.0.0.UPF
In 114.8 In.pbe-dn-rrkjus_psl.1.0.0.UPF
Li 6.941 Li.pbe-sl-rrkjus_psl.1.0.0.UPF
O 15.99 O.pbe-n-rrkjus_psl.1.0.0.UPF

CELL_PARAMETERS {angstrom}
6.74000000 0.00000000 0.00000000
0.00000000 9.53179000 0.00000000
0.00000000 0.00000000 27.14880000

ATOMIC_POSITIONS {angstrom}
Li 0.00000000 0.00000000 -3.574411010000002 0 0 0
Li 3.37000000 2.38294750 -1.1915608300000002 0 0 0
Li 3.37000000 7.14884250 -1.1915608300000002 0 0 0
Li 0.00000000 4.76589500 -3.574411010000002 0 0 0
Li 0.00000000 4.76027124 1.00884941
Li 3.37000000 7.14884250 3.47993318
Li 3.37000000 2.38294750 3.56816678
Li 0.00000000 0.00562376 1.00912090
In 0.00000000 7.14884250 -1.1915608300000002 0 0 0
In 3.37000000 0.00000000 -3.574411010000002 0 0 0
In 0.00000000 2.38294750 -1.1915608300000002 0 0 0
In 3.37000000 4.76589500 -3.574411010000002 0 0 0
In 0.00000000 2.38294750 3.94852147
In 3.37000000 4.77542679 1.16061120
In 0.00000000 7.14884250 4.14453581
In 3.37000000 9.52225821 1.16061120
Ag 1.68500000 0.00000000 -1.1915608300000002 0 0 0
Ag 5.05500000 4.76589500 -1.1915608300000002 0 0 0
Ag 5.05500000 0.00000000 -1.1915608300000002 0 0 0
Ag 1.68500000 4.76589500 -1.1915608300000002 0 0 0
Ag 5.05500000 7.14884250 -3.574411010000002 0 0 0
Ag 1.68500000 2.38294750 -3.574411010000002 0 0 0
Ag 1.68500000 7.14884250 -3.574411010000002 0 0 0
Ag 5.05500000 2.38294750 -3.574411010000002 0 0 0
Ag 1.51521940 4.80707233 3.35694912
Ag 5.22478060 9.49061267 3.35694912
Ag 5.22478060 4.80697701 3.35694912
Ag 1.51521940 9.49070799 3.35694912
Ag 5.12752240 2.38294750 1.30911514
Ag 1.57264420 7.14884250 1.31345894
Ag 1.61247760 2.38294750 1.30911514
Ag 5.16735580 7.14884250 1.31345894
C 3.37000000 2.38294750 5.68170086
O 3.37000000 2.38294750 6.82249344
