&CONTROL
calculation = 'relax'
prefix = 'scf'
pseudo_dir = '/vol0004/mdt0/data/hp150275/u10028/POT_HYBRID_KKJUS_GBRV'
outdir = './data'
tprnfor = .true.
nstep = 50
disk_io = 'non'
/
&SYSTEM
ibrav = 0
ecutwfc = 50.0
ecutrho = 400
occupations = 'smearing'
smearing = 'mp'
degauss = 0.01
assume_isolated = 'esm'
esm_bc = 'bc1'
input_dft = 'BEEF-VDW'
nosym = .true.
nspin = 2
ntyp = 4
nat = 34
starting_magnetization(1) = 0.0
starting_magnetization(2) = 0.0
starting_magnetization(3) = 0.1
starting_magnetization(4) = 0.0
/
&ELECTRONS
electron_maxstep = 300
mixing_beta = 0.1
conv_thr = 1e-06
/
&IONS
ion_dynamics = 'bfgs'
upscale = 1.0
/
&CELL
/

K_POINTS {automatic}
8 6 1 0 0 0

ATOMIC_SPECIES
Al 26.98 Al.pbe-nl-rrkjus_psl.1.0.0.UPF
C 12.01 C.pbe-n-rrkjus_psl.1.0.0.UPF
Co 58.93 co_pbe_v1.2.uspp.F.UPF
O 15.99 O.pbe-n-rrkjus_psl.1.0.0.UPF

CELL_PARAMETERS {angstrom}
5.70199000 0.00000000 0.00000000
0.00000000 8.06383000 0.00000000
0.00000000 0.00000000 26.04790000

ATOMIC_POSITIONS {angstrom}
Al 0.00000000 0.00000000 -3.0239007099999995 0 0 0
Al 0.00000000 2.01595750 -1.0080537299999968 0 0 0
Al 5.69491953 0.00000000 1.01691002
Al 0.00011404 2.03273027 3.05333484
Al 0.00000000 4.03191500 -3.0239007099999995 0 0 0
Al 0.00000000 6.04787250 -1.0080537299999968 0 0 0
Al 5.70084960 4.03191500 1.02550582
Al 0.00011404 6.03109973 3.05333484
Al 2.85099500 0.00000000 -3.0239007099999995 0 0 0
Al 2.85099500 2.01595750 -1.0080537299999968 0 0 0
Al 2.85806547 0.00000000 1.01691002
Al 2.85088096 2.03273027 3.05333484
Al 2.85099500 4.03191500 -3.0239007099999995 0 0 0
Al 2.85099500 6.04787250 -1.0080537299999968 0 0 0
Al 2.85213540 4.03191500 1.02550582
Al 2.85088096 6.03109973 3.05333484
Co 1.42549750 2.01595750 -3.0239007099999995 0 0 0
Co 1.42549750 0.00000000 -1.0080537299999968 0 0 0
Co 1.42549750 2.00136197 0.99398786
Co 1.42549750 0.00000000 3.12809231
Co 1.42549750 6.04787250 -3.0239007099999995 0 0 0
Co 1.42549750 4.03191500 -1.0080537299999968 0 0 0
Co 1.42549750 6.06246803 0.99398786
Co 1.42549750 4.03191500 2.98248455
Co 4.27649250 2.01595750 -3.0239007099999995 0 0 0
Co 4.27649250 0.00000000 -1.0080537299999968 0 0 0
Co 4.27649250 2.01466729 0.98591301
Co 4.27649250 0.00000000 2.98691269
Co 4.27649250 6.04787250 -3.0239007099999995 0 0 0
Co 4.27649250 4.03191500 -1.0080537299999968 0 0 0
Co 4.27649250 6.04924335 0.98617349
Co 4.27649250 4.03191500 2.99498754
C 1.42549750 0.00000000 4.87304113
O 1.42549750 0.00000000 6.02826550
