&CONTROL
calculation = 'relax'
prefix = 'scf'
pseudo_dir = '/vol0004/mdt0/data/hp150275/u10028/POT_KKJUS'
outdir = './data'
tprnfor = .true.
nstep = 50
disk_io = 'non'
/
&SYSTEM
ibrav = 0
ecutwfc = 50.0
ecutrho = 400
occupations = 'smearing'
smearing = 'mp'
degauss = 0.01
assume_isolated = 'esm'
esm_bc = 'bc1'
input_dft = 'BEEF-VDW'
nosym = .true.
nspin = 1
ntyp = 4
nat = 33
/
&ELECTRONS
electron_maxstep = 200
mixing_beta = 0.1
conv_thr = 1e-06
/
&IONS
ion_dynamics = 'bfgs'
upscale = 1.0
/
&CELL
/

K_POINTS {automatic}
9 6 2 0  0  0

ATOMIC_SPECIES
Au 196.9 Au.pbe-n-rrkjus_psl.1.0.0.UPF
Bi 208.9 Bi.pbe-dn-rrkjus_psl.1.0.0.UPF
C 12.01 C.pbe-n-rrkjus_psl.1.0.0.UPF
Li 6.941 Li.pbe-sl-rrkjus_psl.1.0.0.UPF

CELL_PARAMETERS {angstrom}
6.87958000 0.00000000 0.00000000
0.00000000 9.72919000 0.00000000
0.00000000 0.00000000 27.29690000

ATOMIC_POSITIONS {angstrom}
Li 0.00000000 7.29689250 -1.21607689 0 0 0
Li 3.43979000 0.00000000 -3.648503650000002 0 0 0
Li 0.00000000 2.43229750 -1.21607689 0 0 0
Li 3.43979000 4.86459500 -3.648503650000002 0 0 0
Li 1.71989500 2.43229750 -3.648503650000002 0 0 0
Li 1.71989500 7.29689250 -3.648503650000002 0 0 0
Li 5.15968500 4.86459500 -1.21607689 0 0 0
Li 5.15968500 0.00000000 -1.21607689 0 0 0
Li 0.08303653 2.12329843 3.72193232
Li 3.45726413 4.86449771 1.18796109
Li 0.08310533 7.60608616 3.72193232
Li 3.53190758 0.00000000 1.34055076
Li 1.91809570 7.30370293 1.53736141
Li 1.91809570 2.42538978 1.53763438
Li 4.98549403 0.00000000 4.06150575
Li 5.32142393 4.86469229 3.49345726
Bi 0.00000000 0.00000000 -3.648503650000002 0 0 0
Bi 3.43979000 2.43229750 -1.21607689 0 0 0
Bi 3.43979000 7.29689250 -1.21607689 0 0 0
Bi 0.00000000 4.86459500 -3.648503650000002 0 0 0
Bi 6.84456294 4.86459500 1.11152977
Bi 3.56878213 7.12410209 4.07979467
Bi 3.56885092 2.60528250 4.07979467
Bi 6.66376758 0.00000000 1.19123672
Au 1.71989500 0.00000000 -1.21607689 0 0 0
Au 1.71989500 4.86459500 -1.21607689 0 0 0
Au 5.15968500 7.29689250 -3.648503650000002 0 0 0
Au 5.15968500 2.43229750 -3.648503650000002 0 0 0
Au 1.78889719 4.86459500 3.32012195
Au 2.11973619 0.00019458 3.68535447
Au 4.91580389 2.51674687 1.47512448
Au 4.91580389 7.21234584 1.47512448
C 0.05565580 0.00009729 3.46998193
