&CONTROL
calculation = 'relax'
prefix = 'scf'
pseudo_dir = '/vol0403/data/hp230205/u10028/POT_HYBRID_KKJUS_GBRV'
outdir = './data'
tprnfor = .true.
nstep = 50
disk_io = 'non'
/
&SYSTEM
ibrav = 0
ecutwfc = 50.0
ecutrho = 400
occupations = 'smearing'
smearing = 'mp'
degauss = 0.01
assume_isolated = 'esm'
esm_bc = 'bc1'
input_dft = 'BEEF-VDW'
nosym = .true.
nspin = 1
ntyp = 5
nat = 33
/
&ELECTRONS
electron_maxstep = 200
mixing_beta = 0.1
conv_thr = 1e-06
/
&IONS
ion_dynamics = 'bfgs'
upscale = 1.0
/
&CELL
/

K_POINTS {automatic}
9 6 2 0  0  0

ATOMIC_SPECIES
C 12.01 C.pbe-n-rrkjus_psl.1.0.0.UPF
Ge 72.64 Ge.pbe-dn-rrkjus_psl.1.0.0.UPF
Li 6.941 Li.pbe-sl-rrkjus_psl.1.0.0.UPF
Pd 106.4 Pd.pbe-n-rrkjus_psl.1.0.0.UPF
Sn 118.7 Sn.pbe-dn-rrkjus_psl.1.0.0.UPF


CELL_PARAMETERS {angstrom}
6.61012000 0.00000000 0.00000000
0.00000000 9.34812000 0.00000000
0.00000000 0.00000000 27.01110000

ATOMIC_POSITIONS {angstrom}
Li 4.95759000 0.00000000 -1.1685001899999996 0 0 0
Li 4.95759000 4.67406000 -1.1685001899999996 0 0 0
Li 1.65253000 2.33703000 -3.505500559999998 0 0 0
Li 1.65253000 7.01109000 -3.505500559999998 0 0 0
Li 4.42534314 4.67406000 3.80964554
Li 5.41395268 9.34802652 4.79960236
Li 1.79649841 7.17468210 1.27978592
Li 1.79656451 2.17343790 1.28005603
Sn 0.00000000 2.33703000 -1.1685001899999996 0 0 0
Sn 0.00000000 7.01109000 -1.1685001899999996 0 0 0
Sn 3.30506000 4.67406000 -3.505500559999998 0 0 0
Sn 3.30506000 0.00000000 -3.505500559999998 0 0 0
Sn 6.36898282 6.99407642 3.42743848
Sn 6.36891672 2.35385662 3.42743848
Sn 3.64971166 0.00000000 1.73411262
Sn 3.23267919 4.67406000 1.20658584
Ge 0.00000000 0.00000000 -3.505500559999998 0 0 0
Ge 0.00000000 4.67406000 -3.505500559999998 0 0 0
Ge 3.30506000 7.01109000 -1.1685001899999996 0 0 0
Ge 3.30506000 2.33703000 -1.1685001899999996 0 0 0
Ge 6.45491438 4.67396652 1.05640412
Ge 6.58169648 0.00000000 1.12042043
Ge 3.25482309 1.90224894 4.19374339
Ge 3.25462478 7.44615150 4.19374339
Pd 1.65253000 0.00000000 -1.1685001899999996 0 0 0
Pd 1.65253000 4.67406000 -1.1685001899999996 0 0 0
Pd 4.95759000 2.33703000 -3.505500559999998 0 0 0
Pd 4.95759000 7.01109000 -3.505500559999998 0 0 0
Pd 1.23384500 4.67387304 3.11275916
Pd 1.30259025 9.34802652 3.31399186
Pd 4.85830600 6.95518824 0.98428448
Pd 4.85823990 2.39293176 0.98428448
C 3.36190703 0.00009348 4.34338488
