&CONTROL
calculation = 'relax'
prefix = 'scf'
pseudo_dir = '/vol0004/mdt0/data/hp150275/u10028/POT_KKJUS'
outdir = './data'
tprnfor = .true.
nstep = 50
disk_io = 'non'
/
&SYSTEM
ibrav = 0
ecutwfc = 50.0
ecutrho = 400
occupations = 'smearing'
smearing = 'mp'
degauss = 0.01
assume_isolated = 'esm'
esm_bc = 'bc1'
input_dft = 'BEEF-VDW'
nosym = .true.
nspin = 1
ntyp = 4
nat = 34
/
&ELECTRONS
electron_maxstep = 200
mixing_beta = 0.1
conv_thr = 1e-06
/
&IONS
ion_dynamics = 'bfgs'
upscale = 1.0
/
&CELL
/

K_POINTS {automatic}
8 6 2 0  0  0

ATOMIC_SPECIES
C 12.01 C.pbe-n-rrkjus_psl.1.0.0.UPF
In 114.8 In.pbe-dn-rrkjus_psl.1.0.0.UPF
O 15.99 O.pbe-n-rrkjus_psl.1.0.0.UPF
Sb 121.7 Sb.pbe-n-rrkjus_psl.1.0.0.UPF

CELL_PARAMETERS {angstrom}
7.67805000 0.00000000 0.00000000
0.00000000 10.85840000 0.00000000
0.00000000 0.00000000 28.14380000

ATOMIC_POSITIONS {angstrom}
In 0.00000000 0.00000000 -4.071844979999998 0 0 0
In 0.00000000 2.71460000 -1.3573754699999974 0 0 0
In 0.00015356 10.85720558 1.45278296
In 0.00000000 2.71329699 3.98431777
In 0.00000000 5.42920000 -4.071844979999998 0 0 0
In 0.00000000 8.14380000 -1.3573754699999974 0 0 0
In 7.67797322 5.43104593 1.45784884
In 0.00000000 8.14510301 4.02456340
In 3.83902500 0.00000000 -4.071844979999998 0 0 0
In 3.83902500 2.71460000 -1.3573754699999974 0 0 0
In 3.83887144 10.85145062 1.60222653
In 3.83902500 2.71394850 4.12194095
In 3.83902500 5.42920000 -4.071844979999998 0 0 0
In 3.83902500 8.14380000 -1.3573754699999974 0 0 0
In 3.83917856 5.43788672 1.60898105
In 3.83910178 8.14597168 4.14952187
Sb 1.91951250 2.71460000 -4.071844979999998 0 0 0
Sb 1.91951250 0.00000000 -1.3573754699999974 0 0 0
Sb 1.91337006 2.72068070 1.10070402
Sb 1.74291735 0.01639618 4.08113244
Sb 1.91951250 8.14380000 -4.071844979999998 0 0 0
Sb 1.91951250 5.42920000 -1.3573754699999974 0 0 0
Sb 1.90576879 8.14032531 1.12490769
Sb 1.74099784 5.41302098 4.08732407
Sb 5.75853750 2.71460000 -4.071844979999998 0 0 0
Sb 5.75853750 0.00000000 -1.3573754699999974 0 0 0
Sb 5.76475672 2.71981203 1.10070402
Sb 5.93513265 0.01628760 4.08113244
Sb 5.75853750 8.14380000 -4.071844979999998 0 0 0
Sb 5.75853750 5.42920000 -1.3573754699999974 0 0 0
Sb 5.77228121 8.14097682 1.12490769
Sb 5.93705216 5.41291240 4.08732407
C 0.00000000 2.69787806 7.57490377
O 7.67797322 2.72154938 8.70769172
