&CONTROL
calculation = 'relax'
prefix = 'scf'
pseudo_dir = '/vol0403/data/hp230205/u10028/POT_HYBRID_KKJUS_GBRV'
outdir = './data'
tprnfor = .true.
nstep = 50
disk_io = 'non'
/
&SYSTEM
ibrav = 0
ecutwfc = 50.0
ecutrho = 400
occupations = 'smearing'
smearing = 'mp'
degauss = 0.01
assume_isolated = 'esm'
esm_bc = 'bc1'
input_dft = 'BEEF-VDW'
nosym = .true.
nspin = 2
ntyp = 4
nat = 16
starting_magnetization(1) = 0.0
starting_magnetization(2) = 0.0
starting_magnetization(3) = 0.001
starting_magnetization(4) = 0.0
/
&ELECTRONS
electron_maxstep = 400
mixing_beta = 0.05
conv_thr = 1e-06
/
&IONS
ion_dynamics = 'bfgs'
upscale = 1.0
/
&CELL
/

K_POINTS {automatic}
10 10 2 0  0  0

ATOMIC_SPECIES
Al 26.98 Al.pbe-nl-rrkjus_psl.1.0.0.UPF
Li 6.941 Li.pbe-sl-rrkjus_psl.1.0.0.UPF
Ni 58.69 ni_pbe_v1.4.uspp.F.UPF
Pd 106.4 Pd.pbe-n-rrkjus_psl.1.0.0.UPF


CELL_PARAMETERS {angstrom}
5.91240000 0.00000000 0.00000000
0.00000000 5.91240000 0.00000000
0.00000000 0.00000000 24.43430000

ATOMIC_POSITIONS {angstrom}
Li 0.00000000 2.95620000 2.49327597
Li 0.00000000 0.00000000 23.69516242
Li 2.95620000 2.95620000 23.69516242
Li 2.95620000 0.00000000 2.49327597
Al 5.91222263 5.91216350 2.10843575
Al 0.00000000 2.95620000 23.69516242
Al 2.95620000 0.00000000 23.69516242
Al 2.95637737 2.95643650 2.10868009
Ni 1.47827737 1.47827737 0.82856711
Ni 1.47810000 4.43430000 22.21713162
Ni 4.43430000 1.47810000 22.21713162
Ni 4.43412263 4.43406350 0.82734540
Pd 4.43418175 1.47815912 0.80730927
Pd 4.43430000 4.43430000 22.21713162
Pd 1.47810000 1.47810000 22.21713162
Pd 1.47821825 4.43424088 0.80730927
