&CONTROL
 calculation = 'relax' 
 prefix = 'scf' 
 pseudo_dir = '/vol0403/data/hp230205/u10028/POT_HYBRID_KKJUS_GBRV' 
 outdir = './data' 
 tprnfor = .true. 
 nstep = 70 
 disk_io = 'non' 
/
&SYSTEM
 ibrav = 0 
 ecutwfc = 50.0 
 ecutrho = 400 
 occupations = 'smearing' 
 smearing = 'mp' 
 degauss = 0.01 
 assume_isolated = 'esm' 
 esm_bc = 'bc1' 
 input_dft = 'BEEF-VDW' 
 nosym = .true. 
 nspin = 1 
 ntyp = 6 
 nat = 34 
/
&ELECTRONS
 electron_maxstep = 200 
 mixing_beta = 0.1 
 conv_thr = 1e-06 
/
&IONS
 ion_dynamics = 'bfgs' 
 upscale = 1.0 
/
&CELL
/
 
K_POINTS {automatic}
9 6 2 0  0  0
 
ATOMIC_SPECIES
Ag 107.8 Ag.pbe-n-rrkjus_psl.1.0.0.UPF
C 12.01 C.pbe-n-rrkjus_psl.1.0.0.UPF
Li 6.941 Li.pbe-sl-rrkjus_psl.1.0.0.UPF
O 15.99 O.pbe-n-rrkjus_psl.1.0.0.UPF
Pd 106.4 Pd.pbe-n-rrkjus_psl.1.0.0.UPF
Sn 118.7 Sn.pbe-dn-rrkjus_psl.1.0.0.UPF
 
 
CELL_PARAMETERS {angstrom}
6.55175000 0.00000000 0.00000000
-0.00000000 9.26558000 0.00000000
0.00000000 0.00000000 26.94920000
 
ATOMIC_POSITIONS {angstrom}
Li 1.63793750 0.00000000 25.79092338
Li 1.63793750 4.63279000 25.79092338
Li 4.91381250 2.31639500 23.47463964
Li 4.91381250 6.94918500 23.47463964
Li 1.58604764 4.63279000 3.51228924
Li 1.59535113 -0.00000000 3.54220285
Li 4.89225724 6.95604153 1.04320353
Li 4.89225724 2.30953847 1.04320353
Ag 0.00000000 0.00000000 23.47463964
Ag 0.00000000 4.63279000 23.47463964
Ag 3.27587500 6.94918500 25.79092338
Ag 3.27587500 2.31639500 25.79092338
Ag 6.44187715 4.63279000 1.26499545
Ag 6.49114631 -0.00000000 1.24693948
Ag 3.41962039 2.35039968 3.35652286
Ag 3.41962039 6.91518032 3.35652286
Sn 4.91381250 0.00000000 25.79092338
Sn 4.91381250 4.63279000 25.79092338
Sn 1.63793750 2.31639500 23.47463964
Sn 1.63793750 6.94918500 23.47463964
Sn 5.03338194 4.63279000 3.86235934
Sn 4.99400592 -0.00000000 3.73758455
Sn 1.64435822 6.94798047 1.15019186
Sn 1.64435822 2.31759953 1.15019186
Pd 0.00000000 2.31639500 25.79092338
Pd 0.00000000 6.94918500 25.79092338
Pd 3.27587500 4.63279000 23.47463964
Pd 3.27587500 0.00000000 23.47463964
Pd 6.39359075 6.93454538 3.20129547
Pd 6.39359075 2.33103462 3.20129547
Pd 3.29310610 -0.00000000 1.30865315
Pd 3.31367860 4.63279000 1.29868195
C 1.65588930 -0.00000000 5.65663708
O 1.64127889 0.00000000 6.79604926
