&CONTROL
calculation = 'relax'
prefix = 'scf'
pseudo_dir = '/vol0403/data/hp230205/u10028/POT_HYBRID_KKJUS_GBRV'
outdir = './data'
tprnfor = .true.
nstep = 50
disk_io = 'non'
/
&SYSTEM
ibrav = 0
ecutwfc = 50.0
ecutrho = 400
occupations = 'smearing'
smearing = 'mp'
degauss = 0.01
assume_isolated = 'esm'
esm_bc = 'bc1'
input_dft = 'BEEF-VDW'
nosym = .true.
nspin = 1
ntyp = 5
nat = 33
/
&ELECTRONS
electron_maxstep = 200
mixing_beta = 0.1
conv_thr = 1e-06
/
&IONS
ion_dynamics = 'bfgs'
upscale = 1.0
/
&CELL
/

K_POINTS {automatic}
9 6 2 0  0  0

ATOMIC_SPECIES
C 12.01 C.pbe-n-rrkjus_psl.1.0.0.UPF
Cu 63.54 Cu.pbe-dn-rrkjus_psl.1.0.0.UPF
In 114.8 In.pbe-dn-rrkjus_psl.1.0.0.UPF
Li 6.941 Li.pbe-sl-rrkjus_psl.1.0.0.UPF
Sn 118.7 Sn.pbe-dn-rrkjus_psl.1.0.0.UPF


CELL_PARAMETERS {angstrom}
6.73938000 0.00000000 0.00000000
0.00000000 9.53092000 0.00000000
0.00000000 0.00000000 27.14820000

ATOMIC_POSITIONS {angstrom}
Li 0.00000000 2.38273000 -1.191263020000001 0 0 0
Li 0.00000000 7.14819000 -1.191263020000001 0 0 0
Li 3.36969000 4.76546000 -3.5740605300000006 0 0 0
Li 3.36969000 0.00000000 -3.5740605300000006 0 0 0
Li 0.39088404 7.14819000 4.01304692
Li 6.43199688 2.38273000 4.22480288
Li 3.19325303 0.07596143 1.28492431
Li 3.19325303 4.68959388 1.28492431
In 1.68484500 0.00000000 -1.191263020000001 0 0 0
In 1.68484500 4.76546000 -1.191263020000001 0 0 0
In 5.05453500 2.38273000 -3.5740605300000006 0 0 0
In 5.05453500 7.14819000 -3.5740605300000006 0 0 0
In 1.89592238 4.64403608 4.40696731
In 1.89585499 0.12142392 4.40696731
In 4.98639987 7.14819000 1.22302641
In 5.04193236 2.38273000 1.17714595
Cu 0.00000000 0.00000000 -3.5740605300000006 0 0 0
Cu 0.00000000 4.76546000 -3.5740605300000006 0 0 0
Cu 3.36969000 7.14819000 -1.191263020000001 0 0 0
Cu 3.36969000 2.38273000 -1.191263020000001 0 0 0
Cu 0.00828944 4.81101780 1.07153945
Cu 0.00828944 9.48545751 1.07153945
Cu 3.65051996 2.38273000 3.42284506
Cu 3.21542559 7.14819000 3.38239424
Sn 5.05453500 0.00000000 -1.191263020000001 0 0 0
Sn 5.05453500 4.76546000 -1.191263020000001 0 0 0
Sn 1.68484500 2.38273000 -3.5740605300000006 0 0 0
Sn 1.68484500 7.14819000 -3.5740605300000006 0 0 0
Sn 5.11181973 4.95379098 3.51161967
Sn 5.11181973 9.34258902 3.51161967
Sn 1.53442204 7.14819000 1.26700649
Sn 1.37281171 2.38273000 1.63296423
C 1.73943398 2.38273000 3.92454379
