&CONTROL
calculation = 'relax'
prefix = 'scf'
pseudo_dir = '/vol0403/data/hp230205/u10028/POT_HYBRID_KKJUS_GBRV'
outdir = './data'
tprnfor = .true.
nstep = 70
disk_io = 'non'
/
&SYSTEM
ibrav = 0
ecutwfc = 50.0
ecutrho = 400
occupations = 'smearing'
smearing = 'mp'
degauss = 0.01
assume_isolated = 'esm'
esm_bc = 'bc1'
input_dft = 'BEEF-VDW'
nosym = .true.
nspin = 1
ntyp = 4
nat = 32
/
&ELECTRONS
electron_maxstep = 200
mixing_beta = 0.1
conv_thr = 1e-06
/
&IONS
ion_dynamics = 'bfgs'
upscale = 1.0
/
&CELL
/

K_POINTS {automatic}
6 6 1 0 0 0

ATOMIC_SPECIES
Cu 63.54 Cu.pbe-dn-rrkjus_psl.1.0.0.UPF
In 114.8 In.pbe-dn-rrkjus_psl.1.0.0.UPF
Mg 24.30 Mg.pbe-spnl-rrkjus_psl.1.0.0.UPF
Pd 106.4 Pd.pbe-n-rrkjus_psl.1.0.0.UPF


CELL_PARAMETERS {angstrom}
6.45956000 0.00000000 0.00000000
-0.00000000 9.13520000 0.00000000
0.00000000 0.00000000 26.85140000

ATOMIC_POSITIONS {angstrom}
Mg 1.61489000 0.00000000 -1.1419900400000031 0 0 0
Mg 1.61489000 4.56760000 -1.1419900400000031 0 0 0
Mg 4.84467000 2.28380000 -3.425701610000001 0 0 0
Mg 4.84467000 6.85140000 -3.425701610000001 0 0 0
Mg 1.58226922 4.56760000 3.54357926
Mg 1.58220463 -0.00000000 3.54357926
Mg 4.85410096 6.85140000 1.12238852
Mg 4.85410096 2.28380000 1.12238852
In 4.84467000 0.00000000 -1.1419900400000031 0 0 0
In 4.84467000 4.56760000 -1.1419900400000031 0 0 0
In 1.61489000 2.28380000 -3.425701610000001 0 0 0
In 1.61489000 6.85140000 -3.425701610000001 0 0 0
In 4.79874253 4.56760000 3.75167761
In 4.79874253 -0.00000000 3.75167761
In 1.61876574 6.85140000 1.17367469
In 1.61876574 2.28380000 1.17367469
Cu 0.00000000 0.00000000 -3.425701610000001 0 0 0
Cu 0.00000000 4.56760000 -3.425701610000001 0 0 0
Cu 3.22978000 6.85140000 -1.1419900400000031 0 0 0
Cu 3.22978000 2.28380000 -1.1419900400000031 0 0 0
Cu 6.42435540 4.56760000 1.25933066
Cu 6.42435540 -0.00000000 1.25933066
Cu 3.30710093 2.28380000 3.36125825
Cu 3.30716553 6.85140000 3.36125825
Pd 0.00000000 2.28380000 -1.1419900400000031 0 0 0
Pd 0.00000000 6.85140000 -1.1419900400000031 0 0 0
Pd 3.22978000 4.56760000 -3.425701610000001 0 0 0
Pd 3.22978000 0.00000000 -3.425701610000001 0 0 0
Pd 6.37267892 6.85140000 3.32796252
Pd 6.37274351 2.28380000 3.32796252
Pd 3.27209012 -0.00000000 1.20509083
Pd 3.27209012 4.56760000 1.20509083
