&CONTROL
calculation = 'relax'
prefix = 'scf'
pseudo_dir = '/vol0403/data/hp230205/u10028/POT_HYBRID_KKJUS_GBRV'
outdir = './data'
tprnfor = .true.
nstep = 50
disk_io = 'non'
/
&SYSTEM
ibrav = 0
ecutwfc = 50.0
ecutrho = 400
occupations = 'smearing'
smearing = 'mp'
degauss = 0.01
assume_isolated = 'esm'
esm_bc = 'bc1'
input_dft = 'BEEF-VDW'
nosym = .true.
nspin = 1
ntyp = 6
nat = 34
/
&ELECTRONS
electron_maxstep = 200
mixing_beta = 0.1
conv_thr = 1e-06
/
&IONS
ion_dynamics = 'bfgs'
upscale = 1.0
/
&CELL
/

K_POINTS {automatic}
9 6 2 0  0  0

ATOMIC_SPECIES
C 12.01 C.pbe-n-rrkjus_psl.1.0.0.UPF
Ge 72.64 Ge.pbe-dn-rrkjus_psl.1.0.0.UPF
Li 6.941 Li.pbe-sl-rrkjus_psl.1.0.0.UPF
O 15.99 O.pbe-n-rrkjus_psl.1.0.0.UPF
Pd 106.4 Pd.pbe-n-rrkjus_psl.1.0.0.UPF
Pt 195.0 Pt.pbe-n-rrkjus_psl.1.0.0.UPF


CELL_PARAMETERS {angstrom}
6.12898000 0.00000000 0.00000000
0.00000000 8.66768000 0.00000000
0.00000000 0.00000000 26.50080000

ATOMIC_POSITIONS {angstrom}
Li 0.00000000 2.16692000 -1.0833527000000025 0 0 0
Li 0.00000000 6.50076000 -1.0833527000000025 0 0 0
Li 3.06449000 4.33384000 -3.250323120000001 0 0 0
Li 3.06449000 0.00000000 -3.250323120000001 0 0 0
Li 0.04088030 6.50076000 3.57283786
Li 0.06104464 2.16692000 3.60516883
Li 3.07889310 0.00095344 1.00199525
Li 3.07889310 4.33288656 1.00199525
Ge 0.00000000 0.00000000 -3.250323120000001 0 0 0
Ge 0.00000000 4.33384000 -3.250323120000001 0 0 0
Ge 3.06449000 6.50076000 -1.0833527000000025 0 0 0
Ge 3.06449000 2.16692000 -1.0833527000000025 0 0 0
Ge 6.11096080 4.33488012 1.12310390
Ge 6.11083822 8.66655320 1.12310390
Ge 3.03690959 2.16683332 3.29484446
Ge 3.02495808 6.50076000 3.30703483
Pd 4.59673500 0.00000000 -1.0833527000000025 0 0 0
Pd 4.59673500 4.33384000 -1.0833527000000025 0 0 0
Pd 1.53224500 2.16692000 -3.250323120000001 0 0 0
Pd 1.53224500 6.50076000 -3.250323120000001 0 0 0
Pd 4.50774221 4.33479344 3.13371960
Pd 4.50768092 8.66672656 3.13398461
Pd 1.51919027 6.50067332 1.04757662
Pd 1.52170315 2.16692000 1.05102173
Pt 1.53224500 0.00000000 -1.0833527000000025 0 0 0
Pt 1.53224500 4.33384000 -1.0833527000000025 0 0 0
Pt 4.59673500 2.16692000 -3.250323120000001 0 0 0
Pt 4.59673500 6.50076000 -3.250323120000001 0 0 0
Pt 1.63999247 4.33427338 3.04812202
Pt 1.63993118 8.66715994 3.04812202
Pt 4.59140279 6.50067332 1.10561338
Pt 4.60133174 2.16692000 1.10269829
C 2.40286661 2.16709335 7.11254971
O 3.40434194 2.16726671 7.64733586
