&CONTROL
calculation = 'relax'
prefix = 'scf'
pseudo_dir = '/vol0004/mdt0/data/hp150275/u10028/POT_KKJUS'
outdir = './data'
tprnfor = .true.
nstep = 50
disk_io = 'non'
/
&SYSTEM
ibrav = 0
ecutwfc = 50.0
ecutrho = 400
occupations = 'smearing'
smearing = 'mp'
degauss = 0.01
assume_isolated = 'esm'
esm_bc = 'bc1'
input_dft = 'BEEF-VDW'
nosym = .true.
nspin = 1
ntyp = 4
nat = 17
/
&ELECTRONS
electron_maxstep = 200
mixing_beta = 0.1
conv_thr = 1e-06
/
&IONS
ion_dynamics = 'bfgs'
upscale = 1.0
/
&CELL
/

K_POINTS {automatic}
10 10 2 0  0  0

ATOMIC_SPECIES
C 12.01 C.pbe-n-rrkjus_psl.1.0.0.UPF
In 114.8 In.pbe-dn-rrkjus_psl.1.0.0.UPF
Li 6.941 Li.pbe-sl-rrkjus_psl.1.0.0.UPF
Pd 106.4 Pd.pbe-n-rrkjus_psl.1.0.0.UPF

CELL_PARAMETERS {angstrom}
6.46446000 0.00000000 0.00000000
0.00000000 6.46446000 0.00000000
0.00000000 0.00000000 24.84830000

ATOMIC_POSITIONS {angstrom}
Li 0.00000000 0.00000000 0.79787891
Li 3.23223000 0.00000000 -2.4242001499999972 0 0 0
Li 0.00000000 3.23223000 -2.4242001499999972 0 0 0
Li 3.23223000 3.23223000 0.79787891
Li 1.54668670 1.68554330 2.62099868
Li 1.61611500 4.84834500 -0.8080667199999993 0 0 0
Li 4.91777330 4.77891670 2.62099868
Li 4.84834500 1.61611500 -0.8080667199999993 0 0 0
In 1.61611500 1.61611500 -0.8080667199999993 0 0 0
In 1.59866096 4.83089096 2.69305875
In 4.84834500 4.84834500 -0.8080667199999993 0 0 0
In 4.86579904 1.63356904 2.69305875
Pd 0.00000000 0.00000000 -2.4242001499999972 0 0 0
Pd 3.23223000 3.23223000 -2.4242001499999972 0 0 0
Pd 3.23223000 0.00000000 1.02449541
Pd 0.00000000 3.23223000 0.65102546
C 0.00000000 3.23223000 2.72759789
