&CONTROL
calculation = 'relax'
prefix = 'scf'
pseudo_dir = '/vol0004/mdt0/data/hp150275/u10028/POT_KKJUS'
outdir = './data'
tprnfor = .true.
nstep = 50
disk_io = 'non'
/
&SYSTEM
ibrav = 0
ecutwfc = 50.0
ecutrho = 400
occupations = 'smearing'
smearing = 'mp'
degauss = 0.01
assume_isolated = 'esm'
esm_bc = 'bc1'
input_dft = 'BEEF-VDW'
nosym = .true.
nspin = 1
ntyp = 3
nat = 17
/
&ELECTRONS
electron_maxstep = 200
mixing_beta = 0.1
conv_thr = 1e-06
/
&IONS
ion_dynamics = 'bfgs'
upscale = 1.0
/
&CELL
/

K_POINTS {automatic}
8 12 2 0  0  0

ATOMIC_SPECIES
C 12.01 C.pbe-n-rrkjus_psl.1.0.0.UPF
Ga 69.72 Ga.pbe-dnl-rrkjus_psl.1.0.0.UPF
Ni 58.69 Ni.pbe-spn-rrkjus_psl.1.0.0.UPF

CELL_PARAMETERS {angstrom}
7.23991000 0.00000000 0.00000000
0.00000000 5.11939000 0.00000000
0.00000000 0.00000000 23.83950000

ATOMIC_POSITIONS {angstrom}
Ga 0.00000000 0.00000000 -1.919794930000002 0 0 0
Ga 0.00050679 2.55979739 0.49037852
Ga 3.61995500 0.00000000 -1.919794930000002 0 0 0
Ga 3.61930341 2.55969500 0.89994113
Ni 0.00000000 2.55969500 -1.919794930000002 0 0 0
Ni 1.80997750 3.83954250 -0.6398521800000019 0 0 0
Ni 1.80997750 1.27984750 -0.6398521800000019 0 0 0
Ni 0.00028960 0.00000000 0.45199692
Ni 1.44291406 1.23264672 1.94554160
Ni 1.44313126 3.88628253 1.94649518
Ni 3.61995500 2.55969500 -1.919794930000002 0 0 0
Ni 5.42993250 3.83954250 -0.6398521800000019 0 0 0
Ni 5.42993250 1.27984750 -0.6398521800000019 0 0 0
Ni 3.61981020 0.00010239 0.84105756
Ni 5.79743033 1.23336344 1.94506480
Ni 5.79728553 3.88597537 1.94530320
C 7.23947561 0.00000000 2.34127730
