&CONTROL
calculation = 'relax'
prefix = 'scf'
pseudo_dir = '/vol0004/mdt0/data/hp150275/u10028/POT_KKJUS'
outdir = './data'
tprnfor = .true.
nstep = 50
disk_io = 'non'
/
&SYSTEM
ibrav = 0
ecutwfc = 50.0
ecutrho = 400
occupations = 'smearing'
smearing = 'mp'
degauss = 0.01
assume_isolated = 'esm'
esm_bc = 'bc1'
input_dft = 'BEEF-VDW'
nosym = .true.
nspin = 1
ntyp = 5
nat = 18
/
&ELECTRONS
electron_maxstep = 200
mixing_beta = 0.1
conv_thr = 1e-06
/
&IONS
ion_dynamics = 'bfgs'
upscale = 1.0
/
&CELL
/

K_POINTS {automatic}
10 10 2 0  0  0

ATOMIC_SPECIES
Al 26.98 Al.pbe-nl-rrkjus_psl.1.0.0.UPF
C 12.01 C.pbe-n-rrkjus_psl.1.0.0.UPF
Li 6.941 Li.pbe-sl-rrkjus_psl.1.0.0.UPF
O 15.99 O.pbe-n-rrkjus_psl.1.0.0.UPF
Pt 195.0 Pt.pbe-n-rrkjus_psl.1.0.0.UPF

CELL_PARAMETERS {angstrom}
6.09904000 0.00000000 0.00000000
-0.00000000 6.09904000 0.00000000
0.00000000 0.00000000 24.57430000

ATOMIC_POSITIONS {angstrom}
Li 0.00000000 0.00000000 2.28713010
Li 3.04952000 3.04952000 2.28713010
Li 3.04952000 0.00000000 -0.7622947900000021 0 0 0
Li 0.00000000 3.04952000 -0.7622947900000021 0 0 0
Al 1.52476000 1.52476000 0.76229479
Al 4.57428000 4.57428000 -2.2871301000000024 0 0 0
Al 4.57428000 1.52476000 0.76229479
Al 1.52476000 4.57428000 -2.2871301000000024 0 0 0
Al 4.57428000 4.57428000 0.76229479
Al 1.52476000 1.52476000 -2.2871301000000024 0 0 0
Al 1.52476000 4.57428000 0.76229479
Al 4.57428000 1.52476000 -2.2871301000000024 0 0 0
Pt 0.00000000 0.00000000 -0.7622947900000021 0 0 0
Pt 3.04952000 -0.00000000 2.28713010
Pt 0.00000000 3.04952000 2.28713010
Pt 3.04952000 3.04952000 -0.7622947900000021 0 0 0
C 0.00000000 3.04952000 4.18721498
O 0.00000000 3.04952000 5.33704647
