&CONTROL
calculation = 'relax'
prefix = 'scf'
pseudo_dir = '/vol0403/data/hp230205/u10028/POT_HYBRID_KKJUS_GBRV'
outdir = './data'
tprnfor = .true.
nstep = 70
disk_io = 'non'
/
&SYSTEM
ibrav = 0
ecutwfc = 50.0
ecutrho = 400
occupations = 'smearing'
smearing = 'mp'
degauss = 0.01
assume_isolated = 'esm'
esm_bc = 'bc1'
input_dft = 'BEEF-VDW'
nosym = .true.
nspin = 1
ntyp = 5
nat = 33
/
&ELECTRONS
electron_maxstep = 200
mixing_beta = 0.1
conv_thr = 1e-06
/
&IONS
ion_dynamics = 'bfgs'
upscale = 1.0
/
&CELL
/

K_POINTS {automatic}
9 6 2 0  0  0

ATOMIC_SPECIES
C 12.01 C.pbe-n-rrkjus_psl.1.0.0.UPF
Cu 63.54 Cu.pbe-dn-rrkjus_psl.1.0.0.UPF
In 114.8 In.pbe-dn-rrkjus_psl.1.0.0.UPF
Li 6.941 Li.pbe-sl-rrkjus_psl.1.0.0.UPF
Pt 195.0 Pt.pbe-n-rrkjus_psl.1.0.0.UPF


CELL_PARAMETERS {angstrom}
6.33470000 0.00000000 0.00000000
-0.00000000 8.95862000 0.00000000
0.00000000 0.00000000 26.71900000

ATOMIC_POSITIONS {angstrom}
Li 4.75102500 0.00000000 -1.1197932900000005 0 0 0
Li 4.75102500 4.47931000 -1.1197932900000005 0 0 0
Li 1.58367500 2.23965500 -3.3593798700000015 0 0 0
Li 1.58367500 6.71896500 -3.3593798700000015 0 0 0
Li 4.50479521 4.47931000 3.50526561
Li 4.19395148 -0.00000000 4.17885160
Li 1.43202228 6.82834975 1.18605641
Li 1.43202228 2.13009108 1.18605641
In 0.00000000 2.23965500 -1.1197932900000005 0 0 0
In 0.00000000 6.71896500 -1.1197932900000005 0 0 0
In 3.16735000 4.47931000 -3.3593798700000015 0 0 0
In 3.16735000 0.00000000 -3.3593798700000015 0 0 0
In 6.18235046 6.70911052 3.66958746
In 6.18241381 2.24950948 3.66958746
In 3.32394378 -0.00000000 1.10162437
In 3.09760495 4.47931000 1.11952610
Cu 0.00000000 0.00000000 -3.3593798700000015 0 0 0
Cu 0.00000000 4.47931000 -3.3593798700000015 0 0 0
Cu 3.16735000 6.71896500 -1.1197932900000005 0 0 0
Cu 3.16735000 2.23965500 -1.1197932900000005 0 0 0
Cu 6.32602146 4.47922041 1.06528653
Cu 6.19996093 -0.00000000 1.15960460
Cu 2.99555294 2.28059589 3.13173399
Cu 2.99555294 6.67802411 3.13173399
Pt 1.58367500 0.00000000 -1.1197932900000005 0 0 0
Pt 1.58367500 4.47931000 -1.1197932900000005 0 0 0
Pt 4.75102500 2.23965500 -3.3593798700000015 0 0 0
Pt 4.75102500 6.71896500 -3.3593798700000015 0 0 0
Pt 1.44849250 4.47931000 3.25971800
Pt 1.70751838 -0.00000000 3.24662569
Pt 4.79796513 6.63349977 1.14063411
Pt 4.79796513 2.32503065 1.14063411
C 6.26166091 -0.00000000 4.00517810
