&CONTROL
calculation = 'relax'
prefix = 'scf'
pseudo_dir = '/vol0403/data/hp230205/u10028/POT_HYBRID_KKJUS_GBRV'
outdir = './data'
tprnfor = .true.
nstep = 50
disk_io = 'non'
/
&SYSTEM
ibrav = 0
ecutwfc = 50.0
ecutrho = 400
occupations = 'smearing'
smearing = 'mp'
degauss = 0.01
assume_isolated = 'esm'
esm_bc = 'bc1'
input_dft = 'BEEF-VDW'
nosym = .true.
nspin = 1
ntyp = 5
nat = 17
/
&ELECTRONS
electron_maxstep = 200
mixing_beta = 0.1
conv_thr = 1e-06
/
&IONS
ion_dynamics = 'bfgs'
upscale = 1.0
/
&CELL
/

K_POINTS {automatic}
11 8 2 0  0  0

ATOMIC_SPECIES
Al 26.98 Al.pbe-nl-rrkjus_psl.1.0.0.UPF
C 12.01 C.pbe-n-rrkjus_psl.1.0.0.UPF
In 114.8 In.pbe-dn-rrkjus_psl.1.0.0.UPF
Pd 106.4 Pd.pbe-n-rrkjus_psl.1.0.0.UPF
Sc 44.95 Sc.pbe-spn-rrkjus_psl.1.0.0.UPF


CELL_PARAMETERS {angstrom}
5.97945000 0.00000000 0.00000000
0.00000000 8.33700000 0.00000000
0.00000000 0.00000000 24.48170000

ATOMIC_POSITIONS {angstrom}
Sc 3.04736690 0.35282184 2.36248405
Sc 5.87164052 0.00000000 -0.7469366700000002 0 0 0
Sc 3.04748649 3.81559479 2.36248405
Sc 5.87164052 4.16850000 -0.7469366700000002 0 0 0
Al 5.85459908 0.65153655 2.44841482
Al 2.88191552 0.00000000 -0.7469366700000002 0 0 0
Al 5.85471867 3.51671334 2.44865963
Al 2.88191552 4.16850000 -0.7469366700000002 0 0 0
In 1.49294908 2.08425000 0.55475532
In 4.32284338 2.08425000 -2.2408099999999997 0 0 0
In 1.46460648 6.25266663 1.02823140
In 4.32284338 6.25275000 -2.2408099999999997 0 0 0
Pd 4.41092068 2.08425000 0.55671386
Pd 1.33311838 2.08425000 -2.2408099999999997 0 0 0
Pd 4.42329814 6.25316685 1.02651768
Pd 1.33311838 6.25275000 -2.2408099999999997 0 0 0
C 4.37875123 2.08416663 2.83498086
