&CONTROL
calculation = 'relax'
prefix = 'scf'
pseudo_dir = '/vol0403/data/hp230205/u10028/POT_HYBRID_KKJUS_GBRV'
outdir = './data'
tprnfor = .true.
nstep = 50
disk_io = 'non'
/
&SYSTEM
ibrav = 0
ecutwfc = 50.0
ecutrho = 400
occupations = 'smearing'
smearing = 'mp'
degauss = 0.01
assume_isolated = 'esm'
esm_bc = 'bc1'
input_dft = 'BEEF-VDW'
nosym = .true.
nspin = 1
ntyp = 5
nat = 17
/
&ELECTRONS
electron_maxstep = 200
mixing_beta = 0.1
conv_thr = 1e-06
/
&IONS
ion_dynamics = 'bfgs'
upscale = 1.0
/
&CELL
/

K_POINTS {automatic}
10 10 2 0  0  0

ATOMIC_SPECIES
C 12.01 C.pbe-n-rrkjus_psl.1.0.0.UPF
In 114.8 In.pbe-dn-rrkjus_psl.1.0.0.UPF
Li 6.941 Li.pbe-sl-rrkjus_psl.1.0.0.UPF
Pd 106.4 Pd.pbe-n-rrkjus_psl.1.0.0.UPF
Rh 102.9 Rh.pbe-spn-rrkjus_psl.1.0.0.UPF


CELL_PARAMETERS {angstrom}
6.29773000 0.00000000 0.00000000
0.00000000 6.29773000 0.00000000
0.00000000 0.00000000 24.72330000

ATOMIC_POSITIONS {angstrom}
Li 6.26347035 3.11995842 2.52326000
Li 0.00000000 0.00000000 -0.7871898699999988 0 0 0
Li 3.14886500 3.14886500 -0.7871898699999988 0 0 0
Li 3.17777158 0.03425965 2.52326000
In 0.00371566 6.29395136 2.49952563
In 0.00000000 3.14886500 -0.7871898699999988 0 0 0
In 3.14886500 0.00000000 -0.7871898699999988 0 0 0
In 3.15075432 3.14703866 2.49878393
Pd 4.72518682 1.57254318 0.72043696
Pd 4.72329750 4.72329750 -2.3615696199999974 0 0 0
Pd 1.57443250 1.57443250 -2.3615696199999974 0 0 0
Pd 1.57562907 4.72210093 0.91228977
Rh 1.57449548 1.57537716 0.84677302
Rh 1.57443250 4.72329750 -2.3615696199999974 0 0 0
Rh 4.72329750 1.57443250 -2.3615696199999974 0 0 0
Rh 4.72235284 4.72323452 0.84652579
C 4.72827271 1.56945729 2.78903547
