&CONTROL
calculation = 'relax'
prefix = 'scf'
pseudo_dir = '/vol0004/mdt0/data/hp150275/u10028/POT_KKJUS'
outdir = './data'
tprnfor = .true.
nstep = 50
disk_io = 'non'
/
&SYSTEM
ibrav = 0
ecutwfc = 50.0
ecutrho = 400
occupations = 'smearing'
smearing = 'mp'
degauss = 0.01
assume_isolated = 'esm'
esm_bc = 'bc1'
input_dft = 'BEEF-VDW'
nosym = .true.
nspin = 1
ntyp = 4
nat = 33
/
&ELECTRONS
electron_maxstep = 200
mixing_beta = 0.1
conv_thr = 1e-06
/
&IONS
ion_dynamics = 'bfgs'
upscale = 1.0
/
&CELL
/

K_POINTS {automatic}
8 6 1 0 0 0

ATOMIC_SPECIES
C 12.01 C.pbe-n-rrkjus_psl.1.0.0.UPF
Cu 63.54 Cu.pbe-dn-rrkjus_psl.1.0.0.UPF
Ge 72.64 Ge.pbe-dn-rrkjus_psl.1.0.0.UPF
Li 6.941 Li.pbe-sl-rrkjus_psl.1.0.0.UPF

CELL_PARAMETERS {angstrom}
5.94410000 0.00000000 0.00000000
0.00000000 8.40623000 0.00000000
0.00000000 0.00000000 26.30470000

ATOMIC_POSITIONS {angstrom}
Li 0.00000000 0.00000000 -3.1523552499999994 0 0 0
Li 2.97205000 2.10155750 -1.0508727700000016 0 0 0
Li 2.97205000 6.30467250 -1.0508727700000016 0 0 0
Li 0.00000000 4.20311500 -3.1523552499999994 0 0 0
Li 5.92656490 4.32937657 0.90645996
Li 2.83581123 6.30467250 3.56639123
Li 2.88841651 2.10155750 3.32964893
Li 5.92662435 8.27996843 0.90645996
Cu 1.48602500 0.00000000 -1.0508727700000016 0 0 0
Cu 4.45807500 4.20311500 -1.0508727700000016 0 0 0
Cu 4.45807500 0.00000000 -1.0508727700000016 0 0 0
Cu 1.48602500 4.20311500 -1.0508727700000016 0 0 0
Cu 4.45807500 6.30467250 -3.1523552499999994 0 0 0
Cu 1.48602500 2.10155750 -3.1523552499999994 0 0 0
Cu 1.48602500 6.30467250 -3.1523552499999994 0 0 0
Cu 4.45807500 2.10155750 -3.1523552499999994 0 0 0
Cu 1.18436192 4.08341028 3.03635152
Cu 4.49403680 8.31132366 2.98742478
Cu 4.49403680 4.29802134 2.98742478
Cu 1.18436192 0.11978878 3.03635152
Cu 4.53516998 2.10155750 1.20528135
Cu 1.57589979 6.30467250 1.24289708
Cu 1.32987349 2.10155750 1.11584537
Cu 4.34567207 6.30467250 1.23316434
Ge 0.00000000 6.30467250 -1.0508727700000016 0 0 0
Ge 2.97205000 0.00000000 -3.1523552499999994 0 0 0
Ge 0.00000000 2.10155750 -1.0508727700000016 0 0 0
Ge 2.97205000 4.20311500 -3.1523552499999994 0 0 0
Ge 5.22712266 2.10155750 4.02067340
Ge 2.96069677 4.14553232 1.05560761
Ge 0.02894777 6.30467250 3.30965735
Ge 2.96069677 0.05758268 1.05560761
C 0.92002780 2.10155750 3.09264358
