&CONTROL
calculation = 'relax'
prefix = 'scf'
pseudo_dir = '/vol0403/data/hp230205/u10028/POT_HYBRID_KKJUS_GBRV'
outdir = './data'
tprnfor = .true.
nstep = 50
disk_io = 'non'
/
&SYSTEM
ibrav = 0
ecutwfc = 50.0
ecutrho = 400
occupations = 'smearing'
smearing = 'mp'
degauss = 0.01
assume_isolated = 'esm'
esm_bc = 'bc1'
input_dft = 'BEEF-VDW'
nosym = .true.
nspin = 1
ntyp = 6
nat = 18
/
&ELECTRONS
electron_maxstep = 200
mixing_beta = 0.1
conv_thr = 1e-06
/
&IONS
ion_dynamics = 'bfgs'
upscale = 1.0
/
&CELL
/

K_POINTS {automatic}
6 6 1 0 0 0

ATOMIC_SPECIES
C 12.01 C.pbe-n-rrkjus_psl.1.0.0.UPF
Ge 72.64 Ge.pbe-dn-rrkjus_psl.1.0.0.UPF
Li 6.941 Li.pbe-sl-rrkjus_psl.1.0.0.UPF
O 15.99 O.pbe-n-rrkjus_psl.1.0.0.UPF
Pd 106.4 Pd.pbe-n-rrkjus_psl.1.0.0.UPF
V 50.94 V.pbe-spnl-rrkjus_psl.1.0.0.UPF


CELL_PARAMETERS {angstrom}
5.68832000 0.00000000 0.00000000
0.00000000 6.38622000 0.00000000
0.00000000 0.00000000 24.77250000

ATOMIC_POSITIONS {angstrom}
Li 1.40598205 4.51684568 1.03301325
Li 1.42208000 1.19147707 -2.3863349199999995 0 0 0
Li 4.28245171 4.51690954 1.03301325
Li 4.26624000 1.19147707 -2.3863349199999995 0 0 0
V 1.38641423 1.45867651 0.76348845
V 1.42208000 4.38458707 -2.3863349199999995 0 0 0
V 4.30190577 1.45874037 0.76324073
V 4.26624000 4.38458707 -2.3863349199999995 0 0 0
Ge 5.68814935 0.02088294 2.41829145
Ge 0.00000000 2.92303676 -0.7954449700000019 0 0 0
Ge 2.84427377 0.00108566 2.39500530
Ge 2.84416000 2.92303676 -0.7954449700000019 0 0 0
Pd 0.00000000 2.62550277 2.81093558
Pd 0.00000000 6.11614676 -0.7954449700000019 0 0 0
Pd 2.84416000 2.69070607 2.52852907
Pd 2.84416000 6.11614676 -0.7954449700000019 0 0 0
C 0.00000000 3.29701380 4.68299340
O 0.00000000 3.53253759 5.80642627
