&CONTROL
calculation = 'relax'
prefix = 'scf'
pseudo_dir = '/vol0403/data/hp230205/u10028/POT_HYBRID_KKJUS_GBRV'
outdir = './data'
tprnfor = .true.
nstep = 50
disk_io = 'non'
/
&SYSTEM
ibrav = 0
ecutwfc = 50.0
ecutrho = 400
occupations = 'smearing'
smearing = 'mp'
degauss = 0.01
assume_isolated = 'esm'
esm_bc = 'bc1'
input_dft = 'BEEF-VDW'
nosym = .true.
nspin = 1
ntyp = 5
nat = 17
/
&ELECTRONS
electron_maxstep = 200
mixing_beta = 0.1
conv_thr = 1e-06
/
&IONS
ion_dynamics = 'bfgs'
upscale = 1.0
/
&CELL
/

K_POINTS {automatic}
11 7 2 0  0  0

ATOMIC_SPECIES
C 12.01 C.pbe-n-rrkjus_psl.1.0.0.UPF
Ge 72.64 Ge.pbe-dn-rrkjus_psl.1.0.0.UPF
In 114.8 In.pbe-dn-rrkjus_psl.1.0.0.UPF
Li 6.941 Li.pbe-sl-rrkjus_psl.1.0.0.UPF
Y 88.90 Y.pbe-spn-rrkjus_psl.1.0.0.UPF


CELL_PARAMETERS {angstrom}
6.03525000 0.00000000 0.00000000
0.00000000 9.31878000 0.00000000
0.00000000 0.00000000 24.52620000

ATOMIC_POSITIONS {angstrom}
Li 4.40718096 2.32969500 0.54521743
Li 1.46493623 2.32969500 -2.263032469999999 0 0 0
Li 4.70031305 6.98908500 1.24323308
Li 1.46493623 6.98908500 -2.263032469999999 0 0 0
Y 2.97290380 0.50265499 2.41484965
Y 6.00597904 0.00000000 -0.7544259099999984 0 0 0
Y 2.97296415 4.15673501 2.41484965
Y 6.00597904 4.65939000 -0.7544259099999984 0 0 0
In 1.32208186 2.32969500 0.57955411
In 4.48256123 2.32969500 -2.263032469999999 0 0 0
In 1.69306868 6.98908500 0.95357866
In 4.48256123 6.98908500 -2.263032469999999 0 0 0
Ge 5.86596124 0.74419777 2.50584185
Ge 2.98835404 0.00000000 -0.7544259099999984 0 0 0
Ge 5.86596124 3.91519223 2.50584185
Ge 2.98835404 4.65939000 -0.7544259099999984 0 0 0
C 4.45202287 2.32969500 2.64613172
