&CONTROL
calculation = 'relax'
prefix = 'scf'
pseudo_dir = '/vol0403/data/hp230205/u10028/POT_HYBRID_KKJUS_GBRV'
outdir = './data'
tprnfor = .true.
nstep = 50
disk_io = 'non'
/
&SYSTEM
ibrav = 0
ecutwfc = 50.0
ecutrho = 400
occupations = 'smearing'
smearing = 'mp'
degauss = 0.01
assume_isolated = 'esm'
esm_bc = 'bc1'
input_dft = 'BEEF-VDW'
nosym = .true.
nspin = 1
ntyp = 6
nat = 34
/
&ELECTRONS
electron_maxstep = 200
mixing_beta = 0.1
conv_thr = 1e-06
/
&IONS
ion_dynamics = 'bfgs'
upscale = 1.0
/
&CELL
/

K_POINTS {automatic}
7 7 2 0  0  0

ATOMIC_SPECIES
C 12.01 C.pbe-n-rrkjus_psl.1.0.0.UPF
Ge 72.64 Ge.pbe-dn-rrkjus_psl.1.0.0.UPF
In 114.8 In.pbe-dn-rrkjus_psl.1.0.0.UPF
Li 6.941 Li.pbe-sl-rrkjus_psl.1.0.0.UPF
O 15.99 O.pbe-n-rrkjus_psl.1.0.0.UPF
Y 88.90 Y.pbe-spn-rrkjus_psl.1.0.0.UPF


CELL_PARAMETERS {angstrom}
8.49364000 0.00000000 0.00000000
0.00000000 8.57642000 0.00000000
0.00000000 0.00000000 26.98910000

ATOMIC_POSITIONS {angstrom}
Li 0.00000000 2.14410500 -1.1648495600000004 0 0 0
Li 0.00000000 2.14410500 3.49454867
Li 0.00000000 6.43231500 -1.1648495600000004 0 0 0
Li 0.00000000 6.43231500 3.49454867
Li 4.24682000 2.14410500 -1.1648495600000004 0 0 0
Li 4.24682000 2.14410500 3.49454867
Li 4.24682000 6.43231500 -1.1648495600000004 0 0 0
Li 4.24682000 6.43231500 3.49454867
Y 2.12341000 2.14410500 -3.4945486700000004 0 0 0
Y 2.12341000 2.14410500 1.16484956
Y 2.12341000 6.43231500 -3.4945486700000004 0 0 0
Y 2.12341000 6.43231500 1.16484956
Y 6.37023000 2.14410500 -3.4945486700000004 0 0 0
Y 6.37023000 2.14410500 1.16484956
Y 6.37023000 6.43231500 -3.4945486700000004 0 0 0
Y 6.37023000 6.43231500 1.16484956
In 2.12341000 0.00000000 -1.1648495600000004 0 0 0
In 2.12341000 0.00000000 3.49454867
In 2.12341000 4.28821000 -1.1648495600000004 0 0 0
In 2.12341000 4.28821000 3.49454867
In 6.37023000 0.00000000 -1.1648495600000004 0 0 0
In 6.37023000 0.00000000 3.49454867
In 6.37023000 4.28821000 -1.1648495600000004 0 0 0
In 6.37023000 4.28821000 3.49454867
Ge 0.00000000 0.00000000 -3.4945486700000004 0 0 0
Ge 0.00000000 0.00000000 1.16484956
Ge 0.00000000 4.28821000 -3.4945486700000004 0 0 0
Ge 0.00000000 4.28821000 1.16484956
Ge 4.24682000 0.00000000 -3.4945486700000004 0 0 0
Ge 4.24682000 0.00000000 1.16484956
Ge 4.24682000 4.28821000 -3.4945486700000004 0 0 0
Ge 4.24682000 4.28821000 1.16484956
C 0.00000000 2.14410500 5.39458131
O 0.00000000 2.14410500 6.54458686
