&CONTROL
calculation = 'relax'
prefix = 'scf'
pseudo_dir = '/vol0004/mdt0/data/hp150275/u10028/POT_HYBRID_KKJUS_GBRV'
outdir = './data'
tprnfor = .true.
nstep = 50
disk_io = 'non'
/
&SYSTEM
ibrav = 0
ecutwfc = 50.0
ecutrho = 400
occupations = 'smearing'
smearing = 'mp'
degauss = 0.01
assume_isolated = 'esm'
esm_bc = 'bc1'
input_dft = 'BEEF-VDW'
nosym = .true.
nspin = 2
ntyp = 4
nat = 33
starting_magnetization(1) = 0.0
starting_magnetization(2) = 0.0
starting_magnetization(3) = 0.0
starting_magnetization(4) = 0.001
/
&ELECTRONS
electron_maxstep = 300
mixing_beta = 0.1
conv_thr = 1e-06
/
&IONS
ion_dynamics = 'bfgs'
upscale = 1.0
/
&CELL
/

K_POINTS {automatic}
8 6 1 0 0 0

ATOMIC_SPECIES
C 12.01 C.pbe-n-rrkjus_psl.1.0.0.UPF
Ge 72.64 Ge.pbe-dn-rrkjus_psl.1.0.0.UPF
Li 6.941 Li.pbe-sl-rrkjus_psl.1.0.0.UPF
Ni 58.69 ni_pbe_v1.4.uspp.F.UPF

CELL_PARAMETERS {angstrom}
5.71239000 0.00000000 0.00000000
0.00000000 8.07854000 0.00000000
0.00000000 0.00000000 26.05890000

ATOMIC_POSITIONS {angstrom}
Li 0.00000000 0.00000000 -3.0293471200000006 0 0 0
Li 2.85619500 2.01963500 -1.00978237 0 0 0
Li 2.85619500 6.05890500 -1.00978237 0 0 0
Li 0.00000000 4.03927000 -3.0293471200000006 0 0 0
Li 0.00000000 4.03918921 0.86333136
Li 2.85619500 5.92730558 3.59195878
Li 2.85619500 2.15115363 3.59169819
Li 0.00000000 0.00008079 1.02880537
Ni 1.42809750 0.00000000 -1.00978237 0 0 0
Ni 4.28429250 4.03927000 -1.00978237 0 0 0
Ni 4.28429250 0.00000000 -1.00978237 0 0 0
Ni 1.42809750 4.03927000 -1.00978237 0 0 0
Ni 4.28429250 6.05890500 -3.0293471200000006 0 0 0
Ni 1.42809750 2.01963500 -3.0293471200000006 0 0 0
Ni 1.42809750 6.05890500 -3.0293471200000006 0 0 0
Ni 4.28429250 2.01963500 -3.0293471200000006 0 0 0
Ni 1.27546244 4.03927000 2.84667424
Ni 4.09287031 8.07837843 2.89957380
Ni 4.43692756 4.03927000 2.84667424
Ni 1.61951969 8.07837843 2.89957380
Ni 4.27001153 2.03070260 1.06554842
Ni 1.44220710 6.04783740 1.06528783
Ni 1.44237847 2.03070260 1.06554842
Ni 4.27018290 6.04783740 1.06528783
Ge 0.00000000 6.05890500 -1.00978237 0 0 0
Ge 2.85619500 0.00000000 -3.0293471200000006 0 0 0
Ge 0.00000000 2.01963500 -1.00978237 0 0 0
Ge 2.85619500 4.03927000 -3.0293471200000006 0 0 0
Ge 0.00000000 2.00557834 3.11351737
Ge 2.85619500 4.03927000 1.03792599
Ge 0.00000000 6.07312323 3.11351737
Ge 2.85619500 0.00008079 0.88443907
C 0.00000000 0.00016157 3.70036380
