&CONTROL
calculation = 'relax'
prefix = 'scf'
pseudo_dir = '/vol0004/mdt0/data/hp150275/u10028/POT_KKJUS'
outdir = './data'
tprnfor = .true.
nstep = 50
disk_io = 'non'
/
&SYSTEM
ibrav = 0
ecutwfc = 50.0
ecutrho = 400
occupations = 'smearing'
smearing = 'mp'
degauss = 0.01
assume_isolated = 'esm'
esm_bc = 'bc1'
input_dft = 'BEEF-VDW'
nosym = .true.
nspin = 1
ntyp = 4
nat = 18
/
&ELECTRONS
electron_maxstep = 200
mixing_beta = 0.1
conv_thr = 1e-06
/
&IONS
ion_dynamics = 'bfgs'
upscale = 1.0
/
&CELL
/

K_POINTS {automatic}
6 8 1 0 0 0

ATOMIC_SPECIES
C 12.01 C.pbe-n-rrkjus_psl.1.0.0.UPF
Ir 192.2 Ir.pbe-n-rrkjus_psl.0.2.3.UPF
O 15.99 O.pbe-n-rrkjus_psl.1.0.0.UPF
V 50.94 V.pbe-spnl-rrkjus_psl.1.0.0.UPF

CELL_PARAMETERS {angstrom}
7.70199000 0.00000000 0.00000000
0.00000000 5.44613000 0.00000000
0.00000000 0.00000000 24.08460000

ATOMIC_POSITIONS {angstrom}
V 0.00000000 0.00000000 1.76684626
V 0.00000000 2.72306500 -0.6808716399999994 0 0 0
V 3.85099500 0.00000000 1.76684626
V 3.85099500 2.72306500 -0.6808716399999994 0 0 0
Ir 7.70183596 2.72306500 2.11318280
Ir 1.91648617 4.08492427 0.75360713
Ir 1.91648617 1.36120573 0.75360713
Ir 0.00000000 0.00000000 -0.6808716399999994 0 0 0
Ir 1.92549750 1.36153250 -2.0423740799999983 0 0 0
Ir 1.92549750 4.08459750 -2.0423740799999983 0 0 0
Ir 3.85107202 2.72306500 1.89449464
Ir 5.78550383 4.08492427 0.75336629
Ir 5.78550383 1.36120573 0.75336629
Ir 3.85099500 0.00000000 -0.6808716399999994 0 0 0
Ir 5.77649250 1.36153250 -2.0423740799999983 0 0 0
Ir 5.77649250 4.08459750 -2.0423740799999983 0 0 0
C 0.00007702 2.72306500 3.99105907
O 0.00000000 2.72306500 5.15579032
