&CONTROL
calculation = 'relax'
prefix = 'scf'
pseudo_dir = '/vol0004/mdt0/data/hp150275/u10028/POT_HYBRID_KKJUS_GBRV'
outdir = './data'
tprnfor = .true.
nstep = 50
disk_io = 'non'
/
&SYSTEM
ibrav = 0
ecutwfc = 50.0
ecutrho = 400
occupations = 'smearing'
smearing = 'mp'
degauss = 0.01
assume_isolated = 'esm'
esm_bc = 'bc1'
input_dft = 'BEEF-VDW'
nosym = .true.
nspin = 2
ntyp = 3
nat = 16
starting_magnetization(1) = 0.1
starting_magnetization(2) = 0.0
starting_magnetization(3) = 0.0
/
&ELECTRONS
electron_maxstep = 300
mixing_beta = 0.1
conv_thr = 1e-06
/
&IONS
ion_dynamics = 'bfgs'
upscale = 1.0
/
&CELL
/

K_POINTS {automatic}
8 8 1 0 0 0

ATOMIC_SPECIES
Co 58.93 co_pbe_v1.2.uspp.F.UPF
Si 28.08 Si.pbe-nl-rrkjus_psl.1.0.0.UPF
V 50.94 V.pbe-spnl-rrkjus_psl.1.0.0.UPF

CELL_PARAMETERS {angstrom}
5.68381000 0.00000000 0.00000000
0.00000000 5.68381000 0.00000000
0.00000000 0.00000000 24.26290000

ATOMIC_POSITIONS {angstrom}
V 0.00000000 0.00000000 2.15867021
V 2.84190500 2.84190500 2.15891284
V 2.84190500 0.00000000 -0.710417709999998 0 0 0
V 0.00000000 2.84190500 -0.710417709999998 0 0 0
Co 1.42100934 1.42100934 0.70653565
Co 4.26285750 4.26285750 -2.1314957699999972 0 0 0
Co 4.26280066 1.42100934 0.70653565
Co 1.42095250 4.26285750 -2.1314957699999972 0 0 0
Co 4.26280066 4.26280066 0.70653565
Co 1.42095250 1.42095250 -2.1314957699999972 0 0 0
Co 1.42100934 4.26280066 0.70653565
Co 4.26285750 1.42095250 -2.1314957699999972 0 0 0
Si 0.00000000 0.00000000 -0.710417709999998 0 0 0
Si 2.84190500 0.00000000 2.12348901
Si 0.00000000 2.84190500 2.12348901
Si 2.84190500 2.84190500 -0.710417709999998 0 0 0
