&CONTROL
calculation = 'relax'
prefix = 'scf'
pseudo_dir = '/vol0004/mdt0/data/hp150275/u10028/POT_KKJUS'
outdir = './data'
tprnfor = .true.
nstep = 50
disk_io = 'non'
/
&SYSTEM
ibrav = 0
ecutwfc = 50.0
ecutrho = 400
occupations = 'smearing'
smearing = 'mp'
degauss = 0.01
assume_isolated = 'esm'
esm_bc = 'bc1'
input_dft = 'BEEF-VDW'
nosym = .true.
nspin = 1
ntyp = 3
nat = 17
/
&ELECTRONS
electron_maxstep = 200
mixing_beta = 0.1
conv_thr = 1e-06
/
&IONS
ion_dynamics = 'bfgs'
upscale = 1.0
/
&CELL
/

K_POINTS {automatic}
8 11 2 0  0  0

ATOMIC_SPECIES
C 12.01 C.pbe-n-rrkjus_psl.1.0.0.UPF
Rh 102.9 Rh.pbe-spn-rrkjus_psl.1.0.0.UPF
V 50.94 V.pbe-spnl-rrkjus_psl.1.0.0.UPF

CELL_PARAMETERS {angstrom}
7.63897000 0.00000000 0.00000000
0.00000000 5.40157000 0.00000000
0.00000000 0.00000000 24.05120000

ATOMIC_POSITIONS {angstrom}
V 0.18937007 0.01296377 1.82548608
V 0.00000000 2.70078500 -0.6751171800000009 0 0 0
V 3.63003854 0.01301778 1.82548608
V 3.81948500 2.70078500 -0.6751171800000009 0 0 0
Rh 0.15881419 2.58902652 1.97652762
Rh 1.90974250 4.03205594 0.59622925
Rh 1.90974250 1.35590210 0.51084749
Rh 0.00000000 0.00000000 -0.6751171800000009 0 0 0
Rh 1.90974250 1.35039250 -2.025592060000001 0 0 0
Rh 1.90974250 4.05117750 -2.025592060000001 0 0 0
Rh 3.66089998 2.58918856 1.97628710
Rh 5.72938028 4.00629045 0.86079245
Rh 5.72922750 1.28508752 0.89542618
Rh 3.81948500 0.00000000 -0.6751171800000009 0 0 0
Rh 5.72922750 1.35039250 -2.025592060000001 0 0 0
Rh 5.72922750 4.05117750 -2.025592060000001 0 0 0
C 1.90997167 1.27876768 2.47390643
