&CONTROL
calculation = 'relax'
prefix = 'scf'
pseudo_dir = '/vol0403/data/hp230205/u10028/POT_HYBRID_KKJUS_GBRV'
outdir = './data'
tprnfor = .true.
nstep = 50
disk_io = 'non'
/
&SYSTEM
ibrav = 0
ecutwfc = 50.0
ecutrho = 400
occupations = 'smearing'
smearing = 'mp'
degauss = 0.01
assume_isolated = 'esm'
esm_bc = 'bc1'
input_dft = 'BEEF-VDW'
nosym = .true.
nspin = 2
ntyp = 5
nat = 33
starting_magnetization(1) = 0.0
starting_magnetization(2) = 0.0
starting_magnetization(3) = 0.0
starting_magnetization(4) = 0.1
starting_magnetization(5) = 0.0
/
&ELECTRONS
electron_maxstep = 200
mixing_beta = 0.1
conv_thr = 1e-06
/
&IONS
ion_dynamics = 'bfgs'
upscale = 1.0
/
&CELL
/

K_POINTS {automatic}
9 6 2 0  0  0

ATOMIC_SPECIES
Al 26.98 Al.pbe-nl-rrkjus_psl.1.0.0.UPF
C 12.01 C.pbe-n-rrkjus_psl.1.0.0.UPF
Li 6.941 Li.pbe-sl-rrkjus_psl.1.0.0.UPF
Mn 54.93 mn_pbe_v1.5.uspp.F.UPF
Pd 106.4 Pd.pbe-n-rrkjus_psl.1.0.0.UPF


CELL_PARAMETERS {angstrom}
6.10222000 0.00000000 0.00000000
0.00000000 8.62984000 0.00000000
0.00000000 0.00000000 26.47240000

ATOMIC_POSITIONS {angstrom}
Li 0.00000000 2.15746000 -1.0787502999999994 0 0 0
Li 0.00000000 6.47238000 -1.0787502999999994 0 0 0
Li 3.05111000 4.31492000 -3.2362509000000017 0 0 0
Li 3.05111000 0.00000000 -3.2362509000000017 0 0 0
Li 6.07512614 6.47246630 3.50362214
Li 5.67482051 2.15763260 4.34862115
Li 3.00595357 0.03745351 1.02792329
Li 3.00601459 4.27746649 1.02818802
Mn 1.52555500 0.00000000 -1.0787502999999994 0 0 0
Mn 1.52555500 4.31492000 -1.0787502999999994 0 0 0
Mn 4.57666500 2.15746000 -3.2362509000000017 0 0 0
Mn 4.57666500 6.47238000 -3.2362509000000017 0 0 0
Mn 1.43078752 4.08096504 3.25981134
Mn 1.43078752 0.23421386 3.25981134
Mn 4.54462835 6.47238000 1.11342914
Mn 4.72232499 2.15737370 1.11078190
Al 0.00000000 0.00000000 -3.2362509000000017 0 0 0
Al 0.00000000 4.31492000 -3.2362509000000017 0 0 0
Al 3.05111000 6.47238000 -1.0787502999999994 0 0 0
Al 3.05111000 2.15746000 -1.0787502999999994 0 0 0
Al 0.03008394 4.38508060 1.04327728
Al 0.03014497 8.55959310 1.04327728
Al 3.30197226 2.15754630 3.25054600
Al 2.94035471 6.47246630 3.23122114
Pd 4.57666500 0.00000000 -1.0787502999999994 0 0 0
Pd 4.57666500 4.31492000 -1.0787502999999994 0 0 0
Pd 1.52555500 2.15746000 -3.2362509000000017 0 0 0
Pd 1.52555500 6.47238000 -3.2362509000000017 0 0 0
Pd 4.49166108 4.38050678 3.01282384
Pd 4.49166108 8.56442581 3.01255912
Pd 1.52335820 6.47229370 1.07213220
Pd 1.48405990 2.15746000 1.07583834
C 1.38367839 2.15754630 3.51950558
