&CONTROL
calculation = 'relax'
prefix = 'scf'
pseudo_dir = '/vol0403/data/hp230205/u10028/POT_HYBRID_KKJUS_GBRV'
outdir = './data'
tprnfor = .true.
nstep = 50
disk_io = 'non'
/
&SYSTEM
ibrav = 0
ecutwfc = 50.0
ecutrho = 400
occupations = 'smearing'
smearing = 'mp'
degauss = 0.01
assume_isolated = 'esm'
esm_bc = 'bc1'
input_dft = 'BEEF-VDW'
nosym = .true.
nspin = 1
ntyp = 6
nat = 34
/
&ELECTRONS
electron_maxstep = 200
mixing_beta = 0.1
conv_thr = 1e-06
/
&IONS
ion_dynamics = 'bfgs'
upscale = 1.0
/
&CELL
/

K_POINTS {automatic}
7 7 2 0  0  0

ATOMIC_SPECIES
C 12.01 C.pbe-n-rrkjus_psl.1.0.0.UPF
Ga 69.72 Ga.pbe-dnl-rrkjus_psl.1.0.0.UPF
In 114.8 In.pbe-dn-rrkjus_psl.1.0.0.UPF
Li 6.941 Li.pbe-sl-rrkjus_psl.1.0.0.UPF
O 15.99 O.pbe-n-rrkjus_psl.1.0.0.UPF
Sc 44.95 Sc.pbe-spn-rrkjus_psl.1.0.0.UPF


CELL_PARAMETERS {angstrom}
8.37318000 0.00000000 0.00000000
0.00000000 8.86716000 0.00000000
0.00000000 0.00000000 26.17340000

ATOMIC_POSITIONS {angstrom}
Li 2.09329500 2.21679000 -3.08662906 0 0 0
Li 2.18230190 2.21634664 1.00767590
Li 2.09329500 6.65037000 -3.08662906 0 0 0
Li 2.11447915 6.65028133 1.03672837
Li 6.27988500 2.21679000 -3.08662906 0 0 0
Li 6.19071063 2.21634664 1.00767590
Li 6.27988500 6.65037000 -3.08662906 0 0 0
Li 6.25844966 6.65028133 1.03672837
Sc 2.09329500 0.00000000 -1.0288763500000009 0 0 0
Sc 2.10836672 8.83851907 3.05391231
Sc 2.09329500 4.43358000 -1.0288763500000009 0 0 0
Sc 2.10828299 4.46239827 3.05338884
Sc 6.27988500 0.00000000 -1.0288763500000009 0 0 0
Sc 6.26481328 8.83851907 3.05417405
Sc 6.27988500 4.43358000 -1.0288763500000009 0 0 0
Sc 6.26481328 4.46222093 3.05338884
In 0.00000000 2.21679000 -1.0288763500000009 0 0 0
In 8.37309627 2.21696734 2.97198957
In 0.00000000 6.65037000 -1.0288763500000009 0 0 0
In 8.37309627 6.65037000 3.28659384
In 4.18659000 2.21679000 -1.0288763500000009 0 0 0
In 4.18642254 2.21696734 3.31931059
In 4.18659000 6.65037000 -1.0288763500000009 0 0 0
In 4.18642254 6.65081336 3.26905766
Ga 0.00000000 0.00000000 -3.08662906 0 0 0
Ga 0.00058612 8.76031072 1.07834408
Ga 0.00000000 4.43358000 -3.08662906 0 0 0
Ga 0.00050239 4.54096131 1.07808235
Ga 4.18659000 0.00000000 -3.08662906 0 0 0
Ga 4.18633880 0.00611834 1.11472511
Ga 4.18659000 4.43358000 -3.08662906 0 0 0
Ga 4.18642254 4.42737299 1.11472511
C 0.00133971 2.21475055 6.19393511
O 8.37292880 2.21723336 7.33064587
