&CONTROL
calculation = 'relax'
prefix = 'scf'
pseudo_dir = '/vol0004/mdt0/data/hp150275/u10028/POT_KKJUS'
outdir = './data'
tprnfor = .true.
nstep = 50
disk_io = 'non'
/
&SYSTEM
ibrav = 0
ecutwfc = 50.0
ecutrho = 400
occupations = 'smearing'
smearing = 'mp'
degauss = 0.01
assume_isolated = 'esm'
esm_bc = 'bc1'
input_dft = 'BEEF-VDW'
nosym = .true.
nspin = 1
ntyp = 3
nat = 32
/
&ELECTRONS
electron_maxstep = 200
mixing_beta = 0.1
conv_thr = 1e-06
/
&IONS
ion_dynamics = 'bfgs'
upscale = 1.0
/
&CELL
/

K_POINTS {automatic}
9 6 2 0  0  0

ATOMIC_SPECIES
Cu 63.54 Cu.pbe-dn-rrkjus_psl.1.0.0.UPF
Ni 58.69 Ni.pbe-spn-rrkjus_psl.1.0.0.UPF
Sn 118.7 Sn.pbe-dn-rrkjus_psl.1.0.0.UPF

CELL_PARAMETERS {angstrom}
6.01864000 0.00000000 0.00000000
0.00000000 8.51164000 0.00000000
0.00000000 0.00000000 26.38370000

ATOMIC_POSITIONS {angstrom}
Cu 0.00000000 0.00000000 -3.1919000299999993 0 0 0
Cu 3.00932000 2.12791000 -1.0640546200000003 0 0 0
Cu 3.00932000 6.38373000 -1.0640546200000003 0 0 0
Cu 0.00000000 4.25582000 -3.1919000299999993 0 0 0
Cu 6.01857981 4.25573488 1.00469130
Cu 3.00932000 6.38304907 3.14704774
Cu 3.00932000 2.12850581 3.14678390
Cu 0.00000000 0.00008512 1.00574664
Ni 1.50466000 0.00000000 -1.0640546200000003 0 0 0
Ni 4.51398000 4.25582000 -1.0640546200000003 0 0 0
Ni 4.51398000 0.00000000 -1.0640546200000003 0 0 0
Ni 1.50466000 4.25582000 -1.0640546200000003 0 0 0
Ni 4.51398000 6.38373000 -3.1919000299999993 0 0 0
Ni 1.50466000 2.12791000 -3.1919000299999993 0 0 0
Ni 1.50466000 6.38373000 -3.1919000299999993 0 0 0
Ni 4.51398000 2.12791000 -3.1919000299999993 0 0 0
Ni 1.43556601 4.25582000 3.06050920
Ni 4.58205082 0.00000000 3.06182839
Ni 4.58307399 4.25582000 3.06050920
Ni 1.43658918 0.00000000 3.06182839
Ni 4.59432884 2.12791000 1.13951200
Ni 1.42431116 6.38364488 1.13977584
Ni 1.42431116 2.12799512 1.13951200
Ni 4.59438903 6.38364488 1.13977584
Sn 0.00000000 6.38373000 -1.0640546200000003 0 0 0
Sn 3.00932000 0.00000000 -3.1919000299999993 0 0 0
Sn 0.00000000 2.12791000 -1.0640546200000003 0 0 0
Sn 3.00932000 4.25582000 -3.1919000299999993 0 0 0
Sn 0.00000000 2.12773977 3.50665757
Sn 3.00932000 4.25582000 1.04189231
Sn 0.00000000 6.38390023 3.50692140
Sn 3.00932000 0.00000000 1.04215615
