&CONTROL
calculation = 'relax'
prefix = 'scf'
pseudo_dir = '/vol0004/mdt0/data/hp150275/u10028/POT_HYBRID_KKJUS_GBRV'
outdir = './data'
tprnfor = .true.
nstep = 50
disk_io = 'non'
/
&SYSTEM
ibrav = 0
ecutwfc = 50.0
ecutrho = 400
occupations = 'smearing'
smearing = 'mp'
degauss = 0.01
assume_isolated = 'esm'
esm_bc = 'bc1'
input_dft = 'BEEF-VDW'
nosym = .true.
nspin = 2
ntyp = 5
nat = 34
starting_magnetization(1) = 0.0
starting_magnetization(2) = 0.0
starting_magnetization(3) = 0.0
starting_magnetization(4) = 0.001
starting_magnetization(5) = 0.0
/
&ELECTRONS
electron_maxstep = 300
mixing_beta = 0.1
conv_thr = 1e-06
/
&IONS
ion_dynamics = 'bfgs'
upscale = 1.0
/
&CELL
/

K_POINTS {automatic}
8 6 1 0 0 0

ATOMIC_SPECIES
C 12.01 C.pbe-n-rrkjus_psl.1.0.0.UPF
In 114.8 In.pbe-dn-rrkjus_psl.1.0.0.UPF
Mg 24.30 Mg.pbe-spnl-rrkjus_psl.1.0.0.UPF
Ni 58.69 ni_pbe_v1.4.uspp.F.UPF
O 15.99 O.pbe-n-rrkjus_psl.1.0.0.UPF

CELL_PARAMETERS {angstrom}
6.23499000 0.00000000 0.00000000
0.00000000 8.81761000 0.00000000
0.00000000 0.00000000 26.61320000

ATOMIC_POSITIONS {angstrom}
Mg 0.00000000 0.00000000 -3.306690100000001 0 0 0
Mg 3.11749500 2.20440250 -1.1023187399999976 0 0 0
Mg 3.11749500 6.61320750 -1.1023187399999976 0 0 0
Mg 0.00000000 4.40880500 -3.306690100000001 0 0 0
Mg 6.21877903 4.40827594 1.00864028
Mg 3.11662210 6.55527580 3.39770724
Mg 3.11637270 2.26277508 3.39770724
Mg 0.03398070 0.00000000 1.05308432
In 0.00000000 6.61320750 -1.1023187399999976 0 0 0
In 3.11749500 0.00000000 -3.306690100000001 0 0 0
In 0.00000000 2.20440250 -1.1023187399999976 0 0 0
In 3.11749500 4.40880500 -3.306690100000001 0 0 0
In 6.20849129 2.21709986 3.46477251
In 3.11761970 4.40854047 1.09087507
In 6.20836659 6.60103920 3.46530477
In 3.09667013 8.81743365 1.09247186
Ni 1.55874750 0.00000000 -1.1023187399999976 0 0 0
Ni 4.67624250 4.40880500 -1.1023187399999976 0 0 0
Ni 4.67624250 0.00000000 -1.1023187399999976 0 0 0
Ni 1.55874750 4.40880500 -1.1023187399999976 0 0 0
Ni 4.67624250 6.61320750 -3.306690100000001 0 0 0
Ni 1.55874750 2.20440250 -3.306690100000001 0 0 0
Ni 1.55874750 6.61320750 -3.306690100000001 0 0 0
Ni 4.67624250 2.20440250 -3.306690100000001 0 0 0
Ni 1.41403338 4.40915770 3.09777648
Ni 4.79202626 0.00052906 3.07542139
Ni 4.79077927 4.40880500 3.11427666
Ni 1.55781225 0.00017635 3.35086801
Ni 4.67830005 2.18553281 1.13851270
Ni 1.53804733 6.61364838 1.16725495
Ni 1.53898258 2.20352074 1.16645656
Ni 4.67886120 6.63154813 1.13851270
C 2.03965228 0.00008818 5.04240300
O 2.23811201 0.00008818 6.18916579
