&CONTROL
calculation = 'relax'
prefix = 'scf'
pseudo_dir = '/vol0004/mdt0/data/hp150275/u10028/POT_KKJUS'
outdir = './data'
tprnfor = .true.
nstep = 50
disk_io = 'non'
/
&SYSTEM
ibrav = 0
ecutwfc = 50.0
ecutrho = 400
occupations = 'smearing'
smearing = 'mp'
degauss = 0.01
assume_isolated = 'esm'
esm_bc = 'bc1'
input_dft = 'BEEF-VDW'
nosym = .true.
nspin = 1
ntyp = 4
nat = 34
/
&ELECTRONS
electron_maxstep = 200
mixing_beta = 0.1
conv_thr = 1e-06
/
&IONS
ion_dynamics = 'bfgs'
upscale = 1.0
/
&CELL
/

K_POINTS {automatic}
8 6 1 0 0 0

ATOMIC_SPECIES
C 12.01 C.pbe-n-rrkjus_psl.1.0.0.UPF
O 15.99 O.pbe-n-rrkjus_psl.1.0.0.UPF
Rh 102.9 Rh.pbe-spn-rrkjus_psl.1.0.0.UPF
Zr 91.22 Zr.pbe-spn-rrkjus_psl.1.0.0.UPF

CELL_PARAMETERS {angstrom}
6.65024000 0.00000000 0.00000000
0.00000000 9.40485000 0.00000000
0.00000000 0.00000000 27.05360000

ATOMIC_POSITIONS {angstrom}
Zr 1.66256000 2.35121250 -3.526707299999998 0 0 0
Zr 1.66256000 0.00000000 -1.1754789199999998 0 0 0
Zr 1.68583584 2.35121250 1.13354584
Zr 1.69195406 9.36845323 3.49965370
Zr 1.66256000 7.05363750 -3.526707299999998 0 0 0
Zr 1.66256000 4.70242500 -1.1754789199999998 0 0 0
Zr 1.64772996 7.05363750 1.13706281
Zr 1.69188756 4.73882177 3.49992423
Zr 4.98768000 2.35121250 -3.526707299999998 0 0 0
Zr 4.98768000 0.00000000 -1.1754789199999998 0 0 0
Zr 4.96440416 2.35121250 1.13354584
Zr 4.95828594 9.36845323 3.49965370
Zr 4.98768000 7.05363750 -3.526707299999998 0 0 0
Zr 4.98768000 4.70242500 -1.1754789199999998 0 0 0
Zr 5.00251004 7.05363750 1.13706281
Zr 4.95835244 4.73882177 3.49992423
Rh 0.00000000 0.00000000 -3.526707299999998 0 0 0
Rh 0.00000000 2.35121250 -1.1754789199999998 0 0 0
Rh 0.00000000 0.11436298 1.32589694
Rh 0.00000000 2.35149465 3.51696800
Rh 0.00000000 4.70242500 -3.526707299999998 0 0 0
Rh 0.00000000 7.05363750 -1.1754789199999998 0 0 0
Rh 0.00000000 4.58806202 1.32589694
Rh 0.00000000 7.05344940 3.27456774
Rh 3.32512000 0.00000000 -3.526707299999998 0 0 0
Rh 3.32512000 2.35121250 -1.1754789199999998 0 0 0
Rh 3.32512000 9.36948776 1.17710214
Rh 3.32512000 2.35121250 3.24453825
Rh 3.32512000 4.70242500 -3.526707299999998 0 0 0
Rh 3.32512000 7.05363750 -1.1754789199999998 0 0 0
Rh 3.32512000 4.73778724 1.17710214
Rh 3.32512000 7.05354345 3.26131148
C 0.00000000 2.35121250 5.38501908
O 0.00000000 2.35111845 6.55292299
