&CONTROL
calculation = 'relax'
prefix = 'scf'
pseudo_dir = '/vol0403/data/hp230205/u10028/POT_HYBRID_KKJUS_GBRV'
outdir = './data'
tprnfor = .true.
nstep = 50
disk_io = 'non'
/
&SYSTEM
ibrav = 0
ecutwfc = 50.0
ecutrho = 400
occupations = 'smearing'
smearing = 'mp'
degauss = 0.01
assume_isolated = 'esm'
esm_bc = 'bc1'
input_dft = 'BEEF-VDW'
nosym = .true.
nspin = 2
ntyp = 6
nat = 34
starting_magnetization(1) = 0.0
starting_magnetization(2) = 0.0
starting_magnetization(3) = 0.1
starting_magnetization(4) = 0.0
starting_magnetization(5) = 0.0
starting_magnetization(6) = 0.0
/
&ELECTRONS
electron_maxstep = 200
mixing_beta = 0.1
conv_thr = 1e-06
/
&IONS
ion_dynamics = 'bfgs'
upscale = 1.0
/
&CELL
/

K_POINTS {automatic}
9 6 2 0  0  0

ATOMIC_SPECIES
C 12.01 C.pbe-n-rrkjus_psl.1.0.0.UPF
Li 6.941 Li.pbe-sl-rrkjus_psl.1.0.0.UPF
Mn 54.93 mn_pbe_v1.5.uspp.F.UPF
O 15.99 O.pbe-n-rrkjus_psl.1.0.0.UPF
Pd 106.4 Pd.pbe-n-rrkjus_psl.1.0.0.UPF
Sb 121.7 Sb.pbe-n-rrkjus_psl.1.0.0.UPF


CELL_PARAMETERS {angstrom}
6.44934000 0.00000000 0.00000000
0.00000000 9.12074000 0.00000000
0.00000000 0.00000000 26.84060000

ATOMIC_POSITIONS {angstrom}
Li 0.00000000 0.00000000 23.42030234
Li 0.00000000 4.56037000 23.42030234
Li 3.22467000 6.84055500 25.70041131
Li 3.22467000 2.28018500 25.70041131
Li 6.36298334 4.56073483 1.11254287
Li 6.36298334 9.12037517 1.11254287
Li 3.11303192 2.28018500 3.83605855
Li 3.13386329 6.84055500 3.68548279
Mn 0.00000000 2.28018500 25.70041131
Mn 0.00000000 6.84055500 25.70041131
Mn 3.22467000 4.56037000 23.42030234
Mn 3.22467000 0.00000000 23.42030234
Mn 6.38549153 6.84055500 3.39989880
Mn 6.31570968 2.28018500 3.32635556
Mn 3.29438737 9.11973672 1.22178411
Mn 3.29438737 4.56137328 1.22178411
Sb 4.83700500 0.00000000 25.70041131
Sb 4.83700500 4.56037000 25.70041131
Sb 1.61233500 2.28018500 23.42030234
Sb 1.61233500 6.84055500 23.42030234
Sb 4.85596606 4.57934114 3.59395634
Sb 4.85590157 9.10176886 3.59395634
Sb 1.66509060 6.84055500 1.19574873
Sb 1.67792479 2.28018500 1.22500498
Pd 1.61233500 0.00000000 25.70041131
Pd 1.61233500 4.56037000 25.70041131
Pd 4.83700500 2.28018500 23.42030234
Pd 4.83700500 6.84055500 23.42030234
Pd 1.40976123 4.55872827 3.14518151
Pd 1.40982572 0.00164173 3.14518151
Pd 4.76541733 6.84055500 1.14045709
Pd 4.75400199 2.28018500 1.04490456
C 2.99597640 2.28018500 5.96586016
O 3.00481200 2.28018500 7.10390160
