&CONTROL
calculation = 'relax'
prefix = 'scf'
pseudo_dir = '/vol0004/mdt0/data/hp150275/u10028/POT_KKJUS'
outdir = './data'
tprnfor = .true.
nstep = 50
disk_io = 'non'
/
&SYSTEM
ibrav = 0
ecutwfc = 50.0
ecutrho = 400
occupations = 'smearing'
smearing = 'mp'
degauss = 0.01
assume_isolated = 'esm'
esm_bc = 'bc1'
input_dft = 'BEEF-VDW'
nosym = .true.
nspin = 1
ntyp = 5
nat = 34
/
&ELECTRONS
electron_maxstep = 200
mixing_beta = 0.1
conv_thr = 1e-06
/
&IONS
ion_dynamics = 'bfgs'
upscale = 1.0
/
&CELL
/

K_POINTS {automatic}
8 6 1 0 0 0

ATOMIC_SPECIES
C 12.01 C.pbe-n-rrkjus_psl.1.0.0.UPF
Ni 58.69 Ni.pbe-spn-rrkjus_psl.1.0.0.UPF
O 15.99 O.pbe-n-rrkjus_psl.1.0.0.UPF
Rh 102.9 Rh.pbe-spn-rrkjus_psl.1.0.0.UPF
Sn 118.7 Sn.pbe-dn-rrkjus_psl.1.0.0.UPF

CELL_PARAMETERS {angstrom}
6.23499000 0.00000000 0.00000000
0.00000000 8.81761000 0.00000000
0.00000000 0.00000000 26.61320000

ATOMIC_POSITIONS {angstrom}
Ni 0.00000000 0.00000000 -3.306690100000001 0 0 0
Ni 3.11749500 2.20440250 -1.1023187399999976 0 0 0
Ni 3.11749500 6.61320750 -1.1023187399999976 0 0 0
Ni 0.00000000 4.40880500 -3.306690100000001 0 0 0
Ni 6.23442885 4.40880500 1.12600449
Ni 3.12535109 6.59751215 3.25931860
Ni 3.12522639 2.22089143 3.26038313
Ni 0.02263301 0.00026453 1.18881164
Sn 0.00000000 6.61320750 -1.1023187399999976 0 0 0
Sn 3.11749500 0.00000000 -3.306690100000001 0 0 0
Sn 0.00000000 2.20440250 -1.1023187399999976 0 0 0
Sn 3.11749500 4.40880500 -3.306690100000001 0 0 0
Sn 6.19701891 2.21542451 3.43682865
Sn 3.10433917 4.40889318 1.02753565
Sn 6.19652011 6.60394901 3.43709478
Sn 3.09922648 0.00000000 1.05893923
Rh 1.55874750 0.00000000 -1.1023187399999976 0 0 0
Rh 4.67624250 4.40880500 -1.1023187399999976 0 0 0
Rh 4.67624250 0.00000000 -1.1023187399999976 0 0 0
Rh 1.55874750 4.40880500 -1.1023187399999976 0 0 0
Rh 4.67624250 6.61320750 -3.306690100000001 0 0 0
Rh 1.55874750 2.20440250 -3.306690100000001 0 0 0
Rh 1.55874750 6.61320750 -3.306690100000001 0 0 0
Rh 4.67624250 2.20440250 -3.306690100000001 0 0 0
Rh 1.57464672 4.40986311 3.17335797
Rh 4.61270795 0.00088176 3.19784211
Rh 4.59924037 4.40951041 3.17176118
Rh 1.59646919 0.00044088 3.41127998
Rh 4.70691865 2.20017005 1.09646384
Rh 1.51647427 6.62960825 1.12041572
Rh 1.51703542 2.18817810 1.12014959
Rh 4.70729275 6.61752813 1.09672997
C 2.22034229 0.00026453 5.16056561
O 2.51101752 8.81752182 6.28257812
