&CONTROL
calculation = 'relax'
prefix = 'scf'
pseudo_dir = '/vol0004/mdt0/data/hp150275/u10028/POT_KKJUS'
outdir = './data'
tprnfor = .true.
nstep = 50
disk_io = 'non'
/
&SYSTEM
ibrav = 0
ecutwfc = 50.0
ecutrho = 400
occupations = 'smearing'
smearing = 'mp'
degauss = 0.01
assume_isolated = 'esm'
esm_bc = 'bc1'
input_dft = 'BEEF-VDW'
nosym = .true.
nspin = 1
ntyp = 5
nat = 34
/
&ELECTRONS
electron_maxstep = 200
mixing_beta = 0.1
conv_thr = 1e-06
/
&IONS
ion_dynamics = 'bfgs'
upscale = 1.0
/
&CELL
/

K_POINTS {automatic}
9 6 2 0  0  0

ATOMIC_SPECIES
C 12.01 C.pbe-n-rrkjus_psl.1.0.0.UPF
Li 6.941 Li.pbe-sl-rrkjus_psl.1.0.0.UPF
O 15.99 O.pbe-n-rrkjus_psl.1.0.0.UPF
Pb 207.2 Pb.pbe-dn-rrkjus_psl.1.0.0.UPF
Pd 106.4 Pd.pbe-n-rrkjus_psl.1.0.0.UPF

CELL_PARAMETERS {angstrom}
6.57920000 0.00000000 0.00000000
0.00000000 9.30439000 0.00000000
0.00000000 0.00000000 26.97830000

ATOMIC_POSITIONS {angstrom}
Li 0.00000000 0.00000000 -3.489103540000002 0 0 0
Li 3.28960000 2.32609750 -1.1630345099999992 0 0 0
Li 3.28960000 6.97829250 -1.1630345099999992 0 0 0
Li 0.00000000 4.65219500 -3.489103540000002 0 0 0
Li 0.00000000 4.64698454 1.05943784
Li 3.28960000 6.97829250 3.43784477
Li 3.28960000 2.32609750 3.45699936
Li 0.00000000 0.00521046 1.05943784
Pd 1.64480000 0.00000000 -1.1630345099999992 0 0 0
Pd 4.93440000 4.65219500 -1.1630345099999992 0 0 0
Pd 4.93440000 0.00000000 -1.1630345099999992 0 0 0
Pd 1.64480000 4.65219500 -1.1630345099999992 0 0 0
Pd 4.93440000 6.97829250 -3.489103540000002 0 0 0
Pd 1.64480000 2.32609750 -3.489103540000002 0 0 0
Pd 1.64480000 6.97829250 -3.489103540000002 0 0 0
Pd 4.93440000 2.32609750 -3.489103540000002 0 0 0
Pd 1.46979328 4.67192031 3.22201837
Pd 5.10947251 9.28466469 3.22201837
Pd 5.10940672 4.67192031 3.22201837
Pd 1.46979328 9.28466469 3.22201837
Pd 5.01413990 2.32609750 1.26123553
Pd 1.54499354 6.97829250 1.27526424
Pd 1.56506010 2.32609750 1.26123553
Pd 5.03420646 6.97829250 1.27526424
Pb 0.00000000 6.97829250 -1.1630345099999992 0 0 0
Pb 3.28960000 0.00000000 -3.489103540000002 0 0 0
Pb 0.00000000 2.32609750 -1.1630345099999992 0 0 0
Pb 3.28960000 4.65219500 -3.489103540000002 0 0 0
Pb 0.00000000 2.32609750 3.79854464
Pb 3.28960000 4.65740546 1.13767491
Pb 0.00000000 6.97819946 3.88379607
Pb 3.28960000 9.29917954 1.13767491
C 3.28960000 2.32609750 5.58019157
O 3.28960000 2.32609750 6.72029453
