&CONTROL
calculation = 'relax'
prefix = 'scf'
pseudo_dir = '/vol0004/mdt0/data/hp150275/u10028/POT_KKJUS'
outdir = './data'
tprnfor = .true.
nstep = 50
disk_io = 'non'
/
&SYSTEM
ibrav = 0
ecutwfc = 50.0
ecutrho = 400
occupations = 'smearing'
smearing = 'mp'
degauss = 0.01
assume_isolated = 'esm'
esm_bc = 'bc1'
input_dft = 'BEEF-VDW'
nosym = .true.
nspin = 1
ntyp = 2
nat = 16
/
&ELECTRONS
electron_maxstep = 200
mixing_beta = 0.1
conv_thr = 1e-06
/
&IONS
ion_dynamics = 'bfgs'
upscale = 1.0
/
&CELL
/

K_POINTS {automatic}
8 11 3 0  0  0

ATOMIC_SPECIES
Sn 118.7 Sn.pbe-dn-rrkjus_psl.1.0.0.UPF
Y 88.90 Y.pbe-spn-rrkjus_psl.1.0.0.UPF

CELL_PARAMETERS {angstrom}
9.50155000 0.00000000 0.00000000
0.00000000 6.71861000 0.00000000
0.00000000 0.00000000 25.03900000

ATOMIC_POSITIONS {angstrom}
Y 0.00000000 0.00000000 -2.5194241800000015 0 0 0
Y 0.00000000 3.35930500 0.77696017
Y 4.75077500 0.00000000 -2.5194241800000015 0 0 0
Y 4.75077500 3.35930500 0.77696017
Sn 0.00000000 3.35930500 -2.5194241800000015 0 0 0
Sn 2.37538750 5.03895750 -0.8398080600000029 0 0 0
Sn 2.37538750 1.67965250 -0.8398080600000029 0 0 0
Sn 9.50145498 0.00000000 0.87386110
Sn 2.37538750 1.53580706 2.45457317
Sn 2.37538750 5.18280294 2.45457317
Sn 4.75077500 3.35930500 -2.5194241800000015 0 0 0
Sn 7.12616250 5.03895750 -0.8398080600000029 0 0 0
Sn 7.12616250 1.67965250 -0.8398080600000029 0 0 0
Sn 4.75087002 0.00000000 0.87386110
Sn 7.12616250 1.53547113 2.45457317
Sn 7.12616250 5.18313887 2.45457317
