&CONTROL
calculation = 'relax'
prefix = 'scf'
pseudo_dir = '/vol0403/data/hp230205/u10028/POT_HYBRID_KKJUS_GBRV'
outdir = './data'
tprnfor = .true.
nstep = 70
disk_io = 'non'
/
&SYSTEM
ibrav = 0
ecutwfc = 50.0
ecutrho = 400
occupations = 'smearing'
smearing = 'mp'
degauss = 0.01
assume_isolated = 'esm'
esm_bc = 'bc1'
input_dft = 'BEEF-VDW'
nosym = .true.
nspin = 1
ntyp = 5
nat = 33
/
&ELECTRONS
electron_maxstep = 200
mixing_beta = 0.1
conv_thr = 1e-06
/
&IONS
ion_dynamics = 'bfgs'
upscale = 1.0
/
&CELL
/

K_POINTS {automatic}
6 6 1 0 0 0

ATOMIC_SPECIES
Ag 107.8 Ag.pbe-n-rrkjus_psl.1.0.0.UPF
C 12.01 C.pbe-n-rrkjus_psl.1.0.0.UPF
Cu 63.54 Cu.pbe-dn-rrkjus_psl.1.0.0.UPF
Li 6.941 Li.pbe-sl-rrkjus_psl.1.0.0.UPF
Sn 118.7 Sn.pbe-dn-rrkjus_psl.1.0.0.UPF


CELL_PARAMETERS {angstrom}
6.43603000 0.00000000 0.00000000
-0.00000000 9.10192000 0.00000000
0.00000000 0.00000000 26.82640000

ATOMIC_POSITIONS {angstrom}
Li 1.60900750 0.00000000 -1.1377076200000005 0 0 0
Li 1.60900750 4.55096000 -1.1377076200000005 0 0 0
Li 4.82702250 2.27548000 -3.4131228699999987 0 0 0
Li 4.82702250 6.82644000 -3.4131228699999987 0 0 0
Li 1.45023064 4.55096000 3.51774583
Li 1.99703575 -0.00000000 4.11597455
Li 4.90959676 6.84728340 1.27854622
Li 4.90959676 2.25463660 1.27854622
Cu 4.82702250 0.00000000 -1.1377076200000005 0 0 0
Cu 4.82702250 4.55096000 -1.1377076200000005 0 0 0
Cu 1.60900750 2.27548000 -3.4131228699999987 0 0 0
Cu 1.60900750 6.82644000 -3.4131228699999987 0 0 0
Cu 4.94686138 4.55096000 3.27335733
Cu 4.58676550 -0.00000000 3.31010950
Cu 1.56794563 6.78411607 1.16828972
Cu 1.56794563 2.31780393 1.16855798
Ag 0.00000000 0.00000000 -3.4131228699999987 0 0 0
Ag 0.00000000 4.55096000 -3.4131228699999987 0 0 0
Ag 3.21801500 6.82644000 -1.1377076200000005 0 0 0
Ag 3.21801500 2.27548000 -1.1377076200000005 0 0 0
Ag 0.02123890 4.55096000 1.04730266
Ag 0.08952518 0.00000000 1.34051521
Ag 3.21981709 2.40299790 3.44129059
Ag 3.21981709 6.69892210 3.44129059
Sn 0.00000000 2.27548000 -1.1377076200000005 0 0 0
Sn 0.00000000 6.82644000 -1.1377076200000005 0 0 0
Sn 3.21801500 4.55096000 -3.4131228699999987 0 0 0
Sn 3.21801500 0.00000000 -3.4131228699999987 0 0 0
Sn 0.05103772 6.92519583 3.87158605
Sn 0.05103772 2.17672417 3.87158605
Sn 3.08787847 -0.00000000 1.19833529
Sn 3.20810351 4.55096000 1.18545862
C 6.37199150 -0.00000000 3.96977067
