&CONTROL
calculation = 'relax'
prefix = 'scf'
pseudo_dir = '/vol0004/mdt0/data/hp150275/u10028/POT_KKJUS'
outdir = './data'
tprnfor = .true.
nstep = 50
disk_io = 'non'
/
&SYSTEM
ibrav = 0
ecutwfc = 50.0
ecutrho = 400
occupations = 'smearing'
smearing = 'mp'
degauss = 0.01
assume_isolated = 'esm'
esm_bc = 'bc1'
input_dft = 'BEEF-VDW'
nosym = .true.
nspin = 1
ntyp = 4
nat = 33
/
&ELECTRONS
electron_maxstep = 200
mixing_beta = 0.1
conv_thr = 1e-06
/
&IONS
ion_dynamics = 'bfgs'
upscale = 1.0
/
&CELL
/

K_POINTS {automatic}
9 6 2 0  0  0

ATOMIC_SPECIES
Al 26.98 Al.pbe-nl-rrkjus_psl.1.0.0.UPF
C 12.01 C.pbe-n-rrkjus_psl.1.0.0.UPF
Pd 106.4 Pd.pbe-n-rrkjus_psl.1.0.0.UPF
Sc 44.95 Sc.pbe-spn-rrkjus_psl.1.0.0.UPF

CELL_PARAMETERS {angstrom}
6.41477000 0.00000000 0.00000000
0.00000000 9.07185000 0.00000000
0.00000000 0.00000000 26.80390000

ATOMIC_POSITIONS {angstrom}
Sc 0.00000000 0.00000000 -3.4019509899999996 0 0 0
Sc 3.20738500 2.26796250 -1.134073009999998 0 0 0
Sc 3.20738500 6.80388750 -1.134073009999998 0 0 0
Sc 0.00000000 4.53592500 -3.4019509899999996 0 0 0
Sc 0.00000000 4.53583428 1.09547539
Sc 3.20738500 6.90866737 3.61959866
Sc 3.20744915 2.16318263 3.61959866
Sc 0.00006415 0.00009072 1.07376423
Al 0.00000000 6.80388750 -1.134073009999998 0 0 0
Al 3.20738500 0.00000000 -3.4019509899999996 0 0 0
Al 0.00000000 2.26796250 -1.134073009999998 0 0 0
Al 3.20738500 4.53592500 -3.4019509899999996 0 0 0
Al 0.00000000 2.31640618 3.27034384
Al 3.20757744 4.53592500 1.24504115
Al 0.00000000 6.75553454 3.27034384
Al 3.20764159 0.00000000 1.36833909
Pd 1.60369250 0.00000000 -1.134073009999998 0 0 0
Pd 4.81107750 4.53592500 -1.134073009999998 0 0 0
Pd 4.81107750 0.00000000 -1.134073009999998 0 0 0
Pd 1.60369250 4.53592500 -1.134073009999998 0 0 0
Pd 4.81107750 6.80388750 -3.4019509899999996 0 0 0
Pd 1.60369250 2.26796250 -3.4019509899999996 0 0 0
Pd 1.60369250 6.80388750 -3.4019509899999996 0 0 0
Pd 4.81107750 2.26796250 -3.4019509899999996 0 0 0
Pd 1.52286640 4.53601572 3.26659129
Pd 5.13175185 0.00000000 3.35450808
Pd 4.89216019 4.53601572 3.26659129
Pd 1.28308230 0.00009072 3.35450808
Pd 4.73365123 2.27032118 1.16034083
Pd 1.68131122 6.80171026 1.16034083
Pd 1.68137536 2.27013974 1.16034083
Pd 4.73371537 6.80161954 1.16007279
C 3.20738500 0.00000000 3.85600905
