&CONTROL
calculation = 'relax'
prefix = 'scf'
pseudo_dir = '/vol0004/mdt0/data/hp150275/u10028/POT_KKJUS'
outdir = './data'
tprnfor = .true.
nstep = 50
disk_io = 'non'
/
&SYSTEM
ibrav = 0
ecutwfc = 50.0
ecutrho = 400
occupations = 'smearing'
smearing = 'mp'
degauss = 0.01
assume_isolated = 'esm'
esm_bc = 'bc1'
input_dft = 'BEEF-VDW'
nosym = .true.
nspin = 1
ntyp = 3
nat = 32
/
&ELECTRONS
electron_maxstep = 200
mixing_beta = 0.1
conv_thr = 1e-06
/
&IONS
ion_dynamics = 'bfgs'
upscale = 1.0
/
&CELL
/

K_POINTS {automatic}
8 6 1 0 0 0

ATOMIC_SPECIES
In 114.8 In.pbe-dn-rrkjus_psl.1.0.0.UPF
Mg 24.30 Mg.pbe-spnl-rrkjus_psl.1.0.0.UPF
Ni 58.69 Ni.pbe-spn-rrkjus_psl.1.0.0.UPF

CELL_PARAMETERS {angstrom}
6.24448000 0.00000000 0.00000000
0.00000000 8.83103000 0.00000000
0.00000000 0.00000000 26.62330000

ATOMIC_POSITIONS {angstrom}
Mg 0.00000000 0.00000000 -3.3116722900000006 0 0 0
Mg 3.12224000 2.20775750 -1.1038020199999998 0 0 0
Mg 3.12224000 6.62327250 -1.1038020199999998 0 0 0
Mg 0.00000000 4.41551500 -3.3116722900000006 0 0 0
Mg 0.00000000 4.41569162 1.02632821
Mg 3.12224000 6.62318419 3.42482131
Mg 3.12224000 2.20775750 3.42508754
Mg 6.24441756 8.83094169 1.02579575
In 0.00000000 6.62327250 -1.1038020199999998 0 0 0
In 3.12224000 0.00000000 -3.3116722900000006 0 0 0
In 0.00000000 2.20775750 -1.1038020199999998 0 0 0
In 3.12224000 4.41551500 -3.3116722900000006 0 0 0
In 0.00000000 2.20775750 3.52652232
In 3.12217756 4.41560331 1.09315270
In 0.00000000 6.62309588 3.52625609
In 3.12230244 0.00000000 1.09315270
Ni 1.56112000 0.00000000 -1.1038020199999998 0 0 0
Ni 4.68336000 4.41551500 -1.1038020199999998 0 0 0
Ni 4.68336000 0.00000000 -1.1038020199999998 0 0 0
Ni 1.56112000 4.41551500 -1.1038020199999998 0 0 0
Ni 4.68336000 6.62327250 -3.3116722900000006 0 0 0
Ni 1.56112000 2.20775750 -3.3116722900000006 0 0 0
Ni 1.56112000 6.62327250 -3.3116722900000006 0 0 0
Ni 4.68336000 2.20775750 -3.3116722900000006 0 0 0
Ni 1.44609668 4.41533838 3.12424425
Ni 4.79888288 0.00008831 3.12424425
Ni 4.79813354 4.41542669 3.12424425
Ni 1.44547223 8.83094169 3.12371179
Ni 4.70040743 2.20784581 1.15199019
Ni 1.54425990 6.62336081 1.15199019
Ni 1.54401012 2.20775750 1.15225642
Ni 4.70034499 6.62327250 1.15199019
