&CONTROL
calculation = 'relax'
prefix = 'scf'
pseudo_dir = '/vol0004/mdt0/data/hp150275/u10028/POT_KKJUS'
outdir = './data'
tprnfor = .true.
nstep = 50
disk_io = 'non'
/
&SYSTEM
ibrav = 0
ecutwfc = 50.0
ecutrho = 400
occupations = 'smearing'
smearing = 'mp'
degauss = 0.01
assume_isolated = 'esm'
esm_bc = 'bc1'
input_dft = 'BEEF-VDW'
nosym = .true.
nspin = 1
ntyp = 5
nat = 18
/
&ELECTRONS
electron_maxstep = 200
mixing_beta = 0.1
conv_thr = 1e-06
/
&IONS
ion_dynamics = 'bfgs'
upscale = 1.0
/
&CELL
/

K_POINTS {automatic}
8 8 1 0 0 0

ATOMIC_SPECIES
C 12.01 C.pbe-n-rrkjus_psl.1.0.0.UPF
O 15.99 O.pbe-n-rrkjus_psl.1.0.0.UPF
Rh 102.9 Rh.pbe-spn-rrkjus_psl.1.0.0.UPF
Sn 118.7 Sn.pbe-dn-rrkjus_psl.1.0.0.UPF
V 50.94 V.pbe-spnl-rrkjus_psl.1.0.0.UPF

CELL_PARAMETERS {angstrom}
6.32488000 0.00000000 0.00000000
-0.00000000 6.32488000 0.00000000
0.00000000 0.00000000 24.74370000

ATOMIC_POSITIONS {angstrom}
V 0.00000000 0.00000000 2.37193108
V 3.16244000 3.16244000 2.37193108
V 3.16244000 0.00000000 -0.7905612099999999 0 0 0
V 0.00000000 3.16244000 -0.7905612099999999 0 0 0
Sn 0.00000000 0.00000000 -0.7905612099999999 0 0 0
Sn 3.16244000 -0.00000000 2.37193108
Sn 0.00000000 3.16244000 2.37193108
Sn 3.16244000 3.16244000 -0.7905612099999999 0 0 0
Rh 1.58122000 1.58122000 0.79056121
Rh 4.74366000 4.74366000 -2.3719310799999995 0 0 0
Rh 4.74366000 1.58122000 0.79056121
Rh 1.58122000 4.74366000 -2.3719310799999995 0 0 0
Rh 4.74366000 4.74366000 0.79056121
Rh 1.58122000 1.58122000 -2.3719310799999995 0 0 0
Rh 1.58122000 4.74366000 0.79056121
Rh 4.74366000 1.58122000 -2.3719310799999995 0 0 0
C 0.00000000 3.16244000 4.27175237
O 0.00000000 3.16244000 5.42183954
