&CONTROL
calculation = 'relax'
prefix = 'scf'
pseudo_dir = '/vol0403/data/hp230205/u10028/POT_HYBRID_KKJUS_GBRV'
outdir = './data'
tprnfor = .true.
nstep = 70
disk_io = 'non'
/
&SYSTEM
ibrav = 0
ecutwfc = 50.0
ecutrho = 400
occupations = 'smearing'
smearing = 'mp'
degauss = 0.01
assume_isolated = 'esm'
esm_bc = 'bc1'
input_dft = 'BEEF-VDW'
nosym = .true.
nspin = 1
ntyp = 5
nat = 33
/
&ELECTRONS
electron_maxstep = 200
mixing_beta = 0.1
conv_thr = 1e-06
/
&IONS
ion_dynamics = 'bfgs'
upscale = 1.0
/
&CELL
/

K_POINTS {automatic}
6 6 1 0 0 0

ATOMIC_SPECIES
C 12.01 C.pbe-n-rrkjus_psl.1.0.0.UPF
Cu 63.54 Cu.pbe-dn-rrkjus_psl.1.0.0.UPF
Li 6.941 Li.pbe-sl-rrkjus_psl.1.0.0.UPF
Pd 106.4 Pd.pbe-n-rrkjus_psl.1.0.0.UPF
Y 88.90 Y.pbe-spn-rrkjus_psl.1.0.0.UPF


CELL_PARAMETERS {angstrom}
6.67076000 0.00000000 0.00000000
-0.00000000 9.43388000 0.00000000
0.00000000 0.00000000 27.07540000

ATOMIC_POSITIONS {angstrom}
Li 1.66769000 0.00000000 -1.1791336699999988 0 0 0
Li 1.66769000 4.71694000 -1.1791336699999988 0 0 0
Li 5.00307000 2.35847000 -3.5376717599999985 0 0 0
Li 5.00307000 7.07541000 -3.5376717599999985 0 0 0
Li 1.88028712 4.71618529 3.65761579
Li 2.42695590 0.00047169 3.99307999
Li 5.18204649 6.99673144 1.23436749
Li 5.18244674 2.43629951 1.23409673
Y 5.00307000 0.00000000 -1.1791336699999988 0 0 0
Y 5.00307000 4.71694000 -1.1791336699999988 0 0 0
Y 1.66769000 2.35847000 -3.5376717599999985 0 0 0
Y 1.66769000 7.07541000 -3.5376717599999985 0 0 0
Y 5.03595685 4.71750603 3.47539834
Y 6.03777158 9.43331397 3.47431533
Y 1.77769083 7.26899322 1.31694746
Y 1.77655680 2.16413207 1.31694746
Cu 0.00000000 0.00000000 -3.5376717599999985 0 0 0
Cu 0.00000000 4.71694000 -3.5376717599999985 0 0 0
Cu 3.33538000 7.07541000 -1.1791336699999988 0 0 0
Cu 3.33538000 2.35847000 -1.1791336699999988 0 0 0
Cu 0.28977781 4.71731736 1.25304951
Cu 6.55101986 9.43208756 0.90350610
Cu 3.74109562 2.21516936 3.50843033
Cu 3.73909440 7.21833328 3.50951335
Pd 0.00000000 2.35847000 -1.1791336699999988 0 0 0
Pd 0.00000000 7.07541000 -1.1791336699999988 0 0 0
Pd 3.33538000 4.71694000 -3.5376717599999985 0 0 0
Pd 3.33538000 0.00000000 -3.5376717599999985 0 0 0
Pd 0.19985597 6.72060177 3.63270642
Pd 0.19772133 2.71261786 3.63135265
Pd 3.77585028 0.00028302 1.62127495
Pd 3.30342706 4.71741169 1.14014509
C 1.41226660 9.43350264 2.20935264
