&CONTROL
calculation = 'relax'
prefix = 'scf'
pseudo_dir = '/vol0403/data/hp230205/u10028/POT_HYBRID_KKJUS_GBRV'
outdir = './data'
tprnfor = .true.
nstep = 50
disk_io = 'non'
/
&SYSTEM
ibrav = 0
ecutwfc = 50.0
ecutrho = 400
occupations = 'smearing'
smearing = 'mp'
degauss = 0.01
assume_isolated = 'esm'
esm_bc = 'bc1'
input_dft = 'BEEF-VDW'
nosym = .true.
nspin = 1
ntyp = 6
nat = 34
/
&ELECTRONS
electron_maxstep = 200
mixing_beta = 0.1
conv_thr = 1e-06
/
&IONS
ion_dynamics = 'bfgs'
upscale = 1.0
/
&CELL
/

K_POINTS {automatic}
9 6 2 0  0  0

ATOMIC_SPECIES
Al 26.98 Al.pbe-nl-rrkjus_psl.1.0.0.UPF
C 12.01 C.pbe-n-rrkjus_psl.1.0.0.UPF
Li 6.941 Li.pbe-sl-rrkjus_psl.1.0.0.UPF
O 15.99 O.pbe-n-rrkjus_psl.1.0.0.UPF
Pd 106.4 Pd.pbe-n-rrkjus_psl.1.0.0.UPF
Ti 47.86 Ti.pbe-spn-rrkjus_psl.1.0.0.UPF


CELL_PARAMETERS {angstrom}
6.17553000 0.00000000 0.00000000
0.00000000 8.73352000 0.00000000
0.00000000 0.00000000 26.55010000

ATOMIC_POSITIONS {angstrom}
Li 4.63164750 0.00000000 -1.09174011 0 0 0
Li 4.63164750 4.36676000 -1.09174011 0 0 0
Li 1.54388250 2.18338000 -3.274954830000002 0 0 0
Li 1.54388250 6.55014000 -3.274954830000002 0 0 0
Li 3.92701953 4.19689304 4.89955545
Li 3.92720479 0.16986696 4.89928995
Li 1.50213592 6.55014000 1.12306923
Li 1.47743380 2.18338000 1.09678463
Ti 0.00000000 2.18338000 -1.09174011 0 0 0
Ti 0.00000000 6.55014000 -1.09174011 0 0 0
Ti 3.08776500 4.36676000 -3.274954830000002 0 0 0
Ti 3.08776500 0.00000000 -3.274954830000002 0 0 0
Ti 5.92684141 6.55014000 3.19795955
Ti 5.90689445 2.18329266 3.25610426
Ti 3.13093195 8.72644585 1.20696755
Ti 3.13093195 4.37383415 1.20696755
Al 0.00000000 0.00000000 -3.274954830000002 0 0 0
Al 0.00000000 4.36676000 -3.274954830000002 0 0 0
Al 3.08776500 6.55014000 -1.09174011 0 0 0
Al 3.08776500 2.18338000 -1.09174011 0 0 0
Al 6.11877688 4.36055920 1.11855571
Al 6.11883863 0.00620080 1.11855571
Al 3.07751362 2.18338000 3.13291180
Al 3.05052655 6.55014000 3.34371959
Pd 1.54388250 0.00000000 -1.09174011 0 0 0
Pd 1.54388250 4.36676000 -1.09174011 0 0 0
Pd 4.63164750 2.18338000 -3.274954830000002 0 0 0
Pd 4.63164750 6.55014000 -3.274954830000002 0 0 0
Pd 1.49904815 4.36536264 3.16264791
Pd 1.49910991 0.00131003 3.16264791
Pd 4.62164314 6.55014000 1.02722337
Pd 4.61577639 2.18338000 0.95580360
C 4.72051338 2.18338000 4.80450610
O 4.11179138 2.18372934 5.90660075
