&CONTROL
calculation = 'relax'
prefix = 'scf'
pseudo_dir = '/vol0403/data/hp230205/u10028/POT_HYBRID_KKJUS_GBRV'
outdir = './data'
tprnfor = .true.
nstep = 50
disk_io = 'non'
/
&SYSTEM
ibrav = 0
ecutwfc = 50.0
ecutrho = 400
occupations = 'smearing'
smearing = 'mp'
degauss = 0.01
assume_isolated = 'esm'
esm_bc = 'bc1'
input_dft = 'BEEF-VDW'
nosym = .true.
nspin = 1
ntyp = 6
nat = 18
/
&ELECTRONS
electron_maxstep = 200
mixing_beta = 0.1
conv_thr = 1e-06
/
&IONS
ion_dynamics = 'bfgs'
upscale = 1.0
/
&CELL
/

K_POINTS {automatic}
6 6 1 0 0 0

ATOMIC_SPECIES
C 12.01 C.pbe-n-rrkjus_psl.1.0.0.UPF
Ge 72.64 Ge.pbe-dn-rrkjus_psl.1.0.0.UPF
In 114.8 In.pbe-dn-rrkjus_psl.1.0.0.UPF
Li 6.941 Li.pbe-sl-rrkjus_psl.1.0.0.UPF
Mg 24.30 Mg.pbe-spnl-rrkjus_psl.1.0.0.UPF
O 15.99 O.pbe-n-rrkjus_psl.1.0.0.UPF


CELL_PARAMETERS {angstrom}
6.07136000 0.00000000 0.00000000
0.00000000 8.40992000 0.00000000
0.00000000 0.00000000 24.55010000

ATOMIC_POSITIONS {angstrom}
Li 4.63803333 2.03393915 1.01661964
Li 1.34170985 2.10248000 -2.27505777 0 0 0
Li 4.63785119 6.37598085 1.01661964
Li 1.34170985 6.30744000 -2.27505777 0 0 0
Mg 1.56282878 2.08423047 0.86637303
Mg 4.37738985 2.10248000 -2.27505777 0 0 0
Mg 1.56288949 6.32568953 0.86686403
Mg 4.37738985 6.30744000 -2.27505777 0 0 0
In 3.07125817 0.00042050 2.58021551
In 5.95393990 0.00000000 -0.7583525900000012 0 0 0
In 3.15929289 4.20470770 2.40689180
In 5.95393990 4.20496000 -0.7583525900000012 0 0 0
Ge 0.00661778 8.40975180 2.30058987
Ge 2.91825990 0.00000000 -0.7583525900000012 0 0 0
Ge 0.11341300 4.20487590 2.09314153
Ge 2.91825990 4.20496000 -0.7583525900000012 0 0 0
C 5.89498699 8.40975180 4.27417241
O 6.02892119 8.40983590 5.42434459
