&CONTROL
calculation = 'relax'
prefix = 'scf'
pseudo_dir = '/vol0403/data/hp230205/u10028/POT_HYBRID_KKJUS_GBRV'
outdir = './data'
tprnfor = .true.
nstep = 50
disk_io = 'non'
/
&SYSTEM
ibrav = 0
ecutwfc = 50.0
ecutrho = 400
occupations = 'smearing'
smearing = 'mp'
degauss = 0.01
assume_isolated = 'esm'
esm_bc = 'bc1'
input_dft = 'BEEF-VDW'
nosym = .true.
nspin = 1
ntyp = 5
nat = 33
/
&ELECTRONS
electron_maxstep = 200
mixing_beta = 0.1
conv_thr = 1e-06
/
&IONS
ion_dynamics = 'bfgs'
upscale = 1.0
/
&CELL
/

K_POINTS {automatic}
9 6 2 0  0  0

ATOMIC_SPECIES
Al 26.98 Al.pbe-nl-rrkjus_psl.1.0.0.UPF
C 12.01 C.pbe-n-rrkjus_psl.1.0.0.UPF
Ga 69.72 Ga.pbe-dnl-rrkjus_psl.1.0.0.UPF
Li 6.941 Li.pbe-sl-rrkjus_psl.1.0.0.UPF
Pd 106.4 Pd.pbe-n-rrkjus_psl.1.0.0.UPF


CELL_PARAMETERS {angstrom}
6.14517000 0.00000000 0.00000000
0.00000000 8.69058000 0.00000000
0.00000000 0.00000000 26.51790000

ATOMIC_POSITIONS {angstrom}
Li 4.60887750 0.00000000 -1.0864383600000025 0 0 0
Li 4.60887750 4.34529000 -1.0864383600000025 0 0 0
Li 1.53629250 2.17264500 -3.2590499100000017 0 0 0
Li 1.53629250 6.51793500 -3.2590499100000017 0 0 0
Li 4.65994386 4.63025412 4.23146130
Li 4.66055838 8.40518135 4.22987023
Li 1.48627082 6.51802191 1.05753385
Li 1.43483574 2.17264500 1.38396920
Al 0.00000000 0.00000000 -3.2590499100000017 0 0 0
Al 0.00000000 4.34529000 -3.2590499100000017 0 0 0
Al 3.07258500 6.51793500 -1.0864383600000025 0 0 0
Al 3.07258500 2.17264500 -1.0864383600000025 0 0 0
Al 6.00413835 4.39847635 1.28956548
Al 6.00419980 8.63739365 1.28956548
Al 3.47054621 2.17255809 3.20574893
Al 2.98821182 6.51776119 3.21476502
Ga 0.00000000 2.17264500 -1.0864383600000025 0 0 0
Ga 0.00000000 6.51793500 -1.0864383600000025 0 0 0
Ga 3.07258500 4.34529000 -3.2590499100000017 0 0 0
Ga 3.07258500 0.00000000 -3.2590499100000017 0 0 0
Ga 0.17181895 6.51767428 3.48949046
Ga 5.92087130 2.17221047 4.01878775
Ga 3.11627716 0.00043453 1.17315190
Ga 3.11609280 4.34485547 1.17288672
Pd 1.53629250 0.00000000 -1.0864383600000025 0 0 0
Pd 1.53629250 4.34529000 -1.0864383600000025 0 0 0
Pd 4.60887750 2.17264500 -3.2590499100000017 0 0 0
Pd 4.60887750 6.51793500 -3.2590499100000017 0 0 0
Pd 1.53770589 4.27159388 3.20230160
Pd 1.53764444 0.07352231 3.20230160
Pd 4.57440310 6.51793500 1.00343734
Pd 4.62510075 2.17264500 0.96472120
C 1.67904480 2.17264500 3.84774729
