&CONTROL
calculation = 'relax'
prefix = 'scf'
pseudo_dir = '/vol0004/mdt0/data/hp150275/u10028/POT_HYBRID_KKJUS_GBRV'
outdir = './data'
tprnfor = .true.
nstep = 50
disk_io = 'non'
/
&SYSTEM
ibrav = 0
ecutwfc = 50.0
ecutrho = 400
occupations = 'smearing'
smearing = 'mp'
degauss = 0.01
assume_isolated = 'esm'
esm_bc = 'bc1'
input_dft = 'BEEF-VDW'
nosym = .true.
nspin = 2
ntyp = 4
nat = 17
starting_magnetization(1) = 0.1
starting_magnetization(2) = 0.1
starting_magnetization(3) = 0.1
starting_magnetization(4) = 0.1
/
&ELECTRONS
electron_maxstep = 200
mixing_beta = 0.1
conv_thr = 1e-06
/
&IONS
ion_dynamics = 'bfgs'
upscale = 1.0
/
&CELL
/

K_POINTS {automatic}
10 10 2 0  0  0

ATOMIC_SPECIES
C 12.01 C.pbe-n-rrkjus_psl.1.0.0.UPF
Co 58.93 co_pbe_v1.2.uspp.F.UPF
Fe 55.84 fe_pbe_v1.5.uspp.F.UPF
Ge 72.64 Ge.pbe-dn-rrkjus_psl.1.0.0.UPF

CELL_PARAMETERS {angstrom}
5.76795000 0.00000000 0.00000000
-0.00000000 5.76795000 0.00000000
0.00000000 0.00000000 24.32600000

ATOMIC_POSITIONS {angstrom}
Fe 0.00000000 0.00000000 2.16306792
Fe 2.88397500 2.88397500 2.16306792
Fe 2.88397500 0.00000000 -0.721022640000001 0 0 0
Fe 0.00000000 2.88397500 -0.721022640000001 0 0 0
Co 1.44198750 1.44198750 0.72102264
Co 4.32596250 4.32596250 -2.1630679199999996 0 0 0
Co 4.32596250 1.44198750 0.72102264
Co 1.44198750 4.32596250 -2.1630679199999996 0 0 0
Co 4.32596250 4.32596250 0.72102264
Co 1.44198750 1.44198750 -2.1630679199999996 0 0 0
Co 1.44198750 4.32596250 0.72102264
Co 4.32596250 1.44198750 -2.1630679199999996 0 0 0
Ge 0.00000000 0.00000000 -0.721022640000001 0 0 0
Ge 2.88397500 -0.00000000 2.16306792
Ge 0.00000000 2.88397500 2.16306792
Ge 2.88397500 2.88397500 -0.721022640000001 0 0 0
C 1.44198750 1.44198750 2.96290680
