&CONTROL
calculation = 'relax'
prefix = 'scf'
pseudo_dir = '/vol0004/mdt0/data/hp150275/u10028/POT_KKJUS'
outdir = './data'
tprnfor = .true.
nstep = 50
disk_io = 'non'
/
&SYSTEM
ibrav = 0
ecutwfc = 50.0
ecutrho = 400
occupations = 'smearing'
smearing = 'mp'
degauss = 0.01
assume_isolated = 'esm'
esm_bc = 'bc1'
input_dft = 'BEEF-VDW'
nosym = .true.
nspin = 1
ntyp = 4
nat = 34
/
&ELECTRONS
electron_maxstep = 200
mixing_beta = 0.1
conv_thr = 1e-06
/
&IONS
ion_dynamics = 'bfgs'
upscale = 1.0
/
&CELL
/

K_POINTS {automatic}
8 6 1 0 0 0

ATOMIC_SPECIES
C 12.01 C.pbe-n-rrkjus_psl.1.0.0.UPF
O 15.99 O.pbe-n-rrkjus_psl.1.0.0.UPF
Ru 101.0 Ru.pbe-spn-rrkjus_psl.1.0.0.UPF
Ta 180.9 Ta.pbe-spn-rrkjus_psl.1.0.0.UPF

CELL_PARAMETERS {angstrom}
6.35210000 0.00000000 0.00000000
0.00000000 8.98322000 0.00000000
0.00000000 0.00000000 26.73740000

ATOMIC_POSITIONS {angstrom}
Ta 1.58802500 2.24580500 -3.3686450299999997 0 0 0
Ta 1.58802500 0.00000000 -1.122970800000001 0 0 0
Ta 1.61965846 2.24562534 1.13286364
Ta 1.62569295 8.94791595 3.39137182
Ta 1.58802500 6.73741500 -3.3686450299999997 0 0 0
Ta 1.58802500 4.49161000 -1.122970800000001 0 0 0
Ta 1.56871462 6.73759466 1.15853154
Ta 1.62569295 4.52691405 3.39137182
Ta 4.76407500 2.24580500 -3.3686450299999997 0 0 0
Ta 4.76407500 0.00000000 -1.122970800000001 0 0 0
Ta 4.73244154 2.24562534 1.13286364
Ta 4.72640705 8.94791595 3.39137182
Ta 4.76407500 6.73741500 -3.3686450299999997 0 0 0
Ta 4.76407500 4.49161000 -1.122970800000001 0 0 0
Ta 4.78338538 6.73759466 1.15853154
Ta 4.72640705 4.52691405 3.39137182
Ru 0.00000000 0.00000000 -3.3686450299999997 0 0 0
Ru 0.00000000 2.24580500 -1.122970800000001 0 0 0
Ru 0.00000000 0.09243733 1.18152571
Ru 0.00000000 2.24571517 3.37720099
Ru 0.00000000 4.49161000 -3.3686450299999997 0 0 0
Ru 0.00000000 6.73741500 -1.122970800000001 0 0 0
Ru 0.00000000 4.39926250 1.18152571
Ru 0.00000000 6.73741500 3.21356811
Ru 3.17605000 0.00000000 -3.3686450299999997 0 0 0
Ru 3.17605000 2.24580500 -1.122970800000001 0 0 0
Ru 3.17605000 8.93992088 1.16575064
Ru 3.17605000 2.24571517 3.19886254
Ru 3.17605000 4.49161000 -3.3686450299999997 0 0 0
Ru 3.17605000 6.73741500 -1.122970800000001 0 0 0
Ru 3.17605000 4.53481929 1.16575064
Ru 3.17605000 6.73750483 3.23923601
C 0.00000000 2.24580500 5.27448690
O 0.00000000 2.24580500 6.43916804
