&CONTROL
calculation = 'relax'
prefix = 'scf'
pseudo_dir = '/vol0004/mdt0/data/hp150275/u10028/POT_KKJUS'
outdir = './data'
tprnfor = .true.
nstep = 50
disk_io = 'non'
/
&SYSTEM
ibrav = 0
ecutwfc = 50.0
ecutrho = 400
occupations = 'smearing'
smearing = 'mp'
degauss = 0.01
assume_isolated = 'esm'
esm_bc = 'bc1'
input_dft = 'BEEF-VDW'
nosym = .true.
nspin = 1
ntyp = 3
nat = 32
/
&ELECTRONS
electron_maxstep = 200
mixing_beta = 0.1
conv_thr = 1e-06
/
&IONS
ion_dynamics = 'bfgs'
upscale = 1.0
/
&CELL
/

K_POINTS {automatic}
9 6 2 0  0  0

ATOMIC_SPECIES
Li 6.941 Li.pbe-sl-rrkjus_psl.1.0.0.UPF
Ni 58.69 Ni.pbe-spn-rrkjus_psl.1.0.0.UPF
Sn 118.7 Sn.pbe-dn-rrkjus_psl.1.0.0.UPF

CELL_PARAMETERS {angstrom}
6.05884000 0.00000000 0.00000000
0.00000000 8.56849000 0.00000000
0.00000000 0.00000000 26.42640000

ATOMIC_POSITIONS {angstrom}
Li 0.00000000 0.00000000 -3.213185980000002 0 0 0
Li 3.02942000 2.14212250 -1.0710619900000005 0 0 0
Li 3.02942000 6.42636750 -1.0710619900000005 0 0 0
Li 0.00000000 4.28424500 -3.213185980000002 0 0 0
Li 0.00000000 4.28424500 0.93073781
Li 3.02942000 6.42636750 3.40002062
Li 3.02942000 2.14203682 3.40002062
Li 0.00000000 0.00000000 0.93073781
Ni 1.51471000 0.00000000 -1.0710619900000005 0 0 0
Ni 4.54413000 4.28424500 -1.0710619900000005 0 0 0
Ni 4.54413000 0.00000000 -1.0710619900000005 0 0 0
Ni 1.51471000 4.28424500 -1.0710619900000005 0 0 0
Ni 4.54413000 6.42636750 -3.213185980000002 0 0 0
Ni 1.51471000 2.14212250 -3.213185980000002 0 0 0
Ni 1.51471000 6.42636750 -3.213185980000002 0 0 0
Ni 4.54413000 2.14212250 -3.213185980000002 0 0 0
Ni 1.31034533 4.28424500 2.95552858
Ni 4.74831291 0.00000000 2.95579284
Ni 4.74843408 4.28424500 2.95552858
Ni 1.31052709 0.00000000 2.95579284
Ni 4.59890191 2.14212250 1.15509794
Ni 1.45975632 6.42636750 1.15509794
Ni 1.45987750 2.14212250 1.15536221
Ni 4.59902309 6.42636750 1.15509794
Sn 0.00000000 6.42636750 -1.0710619900000005 0 0 0
Sn 3.02942000 0.00000000 -3.213185980000002 0 0 0
Sn 0.00000000 2.14212250 -1.0710619900000005 0 0 0
Sn 3.02942000 4.28424500 -3.213185980000002 0 0 0
Sn 6.05877941 2.14212250 3.45366622
Sn 3.02935941 4.28424500 1.06471966
Sn 6.05877941 6.42636750 3.45366622
Sn 3.02935941 8.56840432 1.06498392
