&CONTROL
calculation = 'relax'
prefix = 'scf'
pseudo_dir = '/vol0403/data/hp230205/u10028/POT_HYBRID_KKJUS_GBRV'
outdir = './data'
tprnfor = .true.
nstep = 50
disk_io = 'non'
/
&SYSTEM
ibrav = 0
ecutwfc = 50.0
ecutrho = 400
occupations = 'smearing'
smearing = 'mp'
degauss = 0.01
assume_isolated = 'esm'
esm_bc = 'bc1'
input_dft = 'BEEF-VDW'
nosym = .true.
nspin = 1
ntyp = 6
nat = 34
/
&ELECTRONS
electron_maxstep = 200
mixing_beta = 0.1
conv_thr = 1e-06
/
&IONS
ion_dynamics = 'bfgs'
upscale = 1.0
/
&CELL
/

K_POINTS {automatic}
6 6 1 0 0 0

ATOMIC_SPECIES
C 12.01 C.pbe-n-rrkjus_psl.1.0.0.UPF
In 114.8 In.pbe-dn-rrkjus_psl.1.0.0.UPF
O 15.99 O.pbe-n-rrkjus_psl.1.0.0.UPF
Pd 106.4 Pd.pbe-n-rrkjus_psl.1.0.0.UPF
Sc 44.95 Sc.pbe-spn-rrkjus_psl.1.0.0.UPF
Y 88.90 Y.pbe-spn-rrkjus_psl.1.0.0.UPF


CELL_PARAMETERS {angstrom}
9.64246000 0.00000000 0.00000000
0.00000000 10.11530000 0.00000000
0.00000000 0.00000000 25.52170000

ATOMIC_POSITIONS {angstrom}
Y 9.64236358 2.53034230 0.98590327
Y 0.00000000 2.52882500 -2.760937509999998 0 0 0
Y 9.64236358 7.58485655 0.98615849
Y 0.00000000 7.58647500 -2.760937509999998 0 0 0
Y 4.82132642 2.52882500 0.99151805
Y 4.82123000 2.52882500 -2.760937509999998 0 0 0
Y 4.82123000 7.58637385 0.99126283
Y 4.82123000 7.58647500 -2.760937509999998 0 0 0
Sc 2.41408629 10.11519885 1.00478933
Sc 2.41061500 0.00000000 -2.760937509999998 0 0 0
Sc 2.41302561 5.05754885 1.00938324
Sc 2.41061500 5.05765000 -2.760937509999998 0 0 0
Sc 7.22856656 10.11519885 1.00478933
Sc 7.23184500 0.00000000 -2.760937509999998 0 0 0
Sc 7.22953081 5.05765000 1.00963845
Sc 7.23184500 5.05765000 -2.760937509999998 0 0 0
In 0.00048212 10.11519885 3.02687362
In 0.00000000 0.00000000 -0.9203124999999979 0 0 0
In 0.00038570 5.05744769 3.05954140
In 0.00000000 5.05765000 -0.9203124999999979 0 0 0
In 4.82123000 10.11509769 3.06030705
In 4.82123000 0.00000000 -0.9203124999999979 0 0 0
In 4.82113358 5.05765000 3.05265054
In 4.82123000 5.05765000 -0.9203124999999979 0 0 0
Pd 2.40733656 2.51982238 2.46054710
Pd 2.41061500 2.52882500 -0.9203124999999979 0 0 0
Pd 2.40743299 7.59527531 2.46054710
Pd 2.41061500 7.58647500 -0.9203124999999979 0 0 0
Pd 7.23493059 2.51992354 2.46054710
Pd 7.23184500 2.52882500 -0.9203124999999979 0 0 0
Pd 7.23483416 7.59537646 2.46054710
Pd 7.23184500 7.58647500 -0.9203124999999979 0 0 0
C 9.64178503 0.00262998 6.76427137
O 0.00009642 10.11499654 7.89871093
