&CONTROL
calculation = 'relax'
prefix = 'scf'
pseudo_dir = '/vol0004/mdt0/data/hp150275/u10028/POT_HYBRID_KKJUS_GBRV'
outdir = './data'
tprnfor = .true.
nstep = 50
disk_io = 'non'
/
&SYSTEM
ibrav = 0
ecutwfc = 50.0
ecutrho = 400
occupations = 'smearing'
smearing = 'mp'
degauss = 0.01
assume_isolated = 'esm'
esm_bc = 'bc1'
input_dft = 'BEEF-VDW'
nosym = .true.
nspin = 2
ntyp = 4
nat = 33
starting_magnetization(1) = 0.0
starting_magnetization(2) = 0.0
starting_magnetization(3) = 0.001
starting_magnetization(4) = 0.0
/
&ELECTRONS
electron_maxstep = 200
mixing_beta = 0.1
conv_thr = 1e-06
/
&IONS
ion_dynamics = 'bfgs'
upscale = 1.0
/
&CELL
/

K_POINTS {automatic}
9 6 2 0  0  0

ATOMIC_SPECIES
C 12.01 C.pbe-n-rrkjus_psl.1.0.0.UPF
Ga 69.72 Ga.pbe-dnl-rrkjus_psl.1.0.0.UPF
Ni 58.69 ni_pbe_v1.4.uspp.F.UPF
Ta 180.9 Ta.pbe-spn-rrkjus_psl.1.0.0.UPF

CELL_PARAMETERS {angstrom}
5.98793000 0.00000000 0.00000000
0.00000000 8.46821000 0.00000000
0.00000000 0.00000000 26.35120000

ATOMIC_POSITIONS {angstrom}
Ta 0.00000000 0.00000000 23.17561689
Ta 2.99396500 2.11705250 25.29267230
Ta 2.99396500 6.35115750 25.29267230
Ta 0.00000000 4.23410500 23.17561689
Ta 0.00000000 4.23410500 1.08988563
Ta 2.99396500 6.29416645 3.09652951
Ta 2.99396500 2.17404355 3.09652951
Ta 0.00000000 0.00000000 1.18053376
Ga 0.00000000 6.35115750 25.29267230
Ga 2.99396500 0.00000000 23.17561689
Ga 0.00000000 2.11705250 25.29267230
Ga 2.99396500 4.23410500 23.17561689
Ga 0.00000000 2.19436726 3.40404802
Ga 2.99396500 4.23410500 1.01926442
Ga 0.00000000 6.27384274 3.40404802
Ga 2.99396500 0.00000000 1.05589258
Ni 1.49698250 0.00000000 25.29267230
Ni 4.49094750 4.23410500 25.29267230
Ni 4.49094750 0.00000000 25.29267230
Ni 1.49698250 4.23410500 25.29267230
Ni 4.49094750 6.35115750 23.17561689
Ni 1.49698250 2.11705250 23.17561689
Ni 1.49698250 6.35115750 23.17561689
Ni 4.49094750 2.11705250 23.17561689
Ni 1.51626363 4.23410500 3.13157661
Ni 4.21352670 0.00000000 3.28994732
Ni 4.47166637 4.23410500 3.13157661
Ni 1.77440330 0.00000000 3.28994732
Ni 4.51172562 2.14736869 1.05299395
Ni 1.47620438 6.32084131 1.05299395
Ni 1.47620438 2.14736869 1.05299395
Ni 4.51172562 6.32084131 1.05299395
C 0.00000000 0.00000000 3.39930480
