&CONTROL
calculation = 'relax'
prefix = 'scf'
pseudo_dir = '/vol0403/data/hp230205/u10028/POT_HYBRID_KKJUS_GBRV'
outdir = './data'
tprnfor = .true.
nstep = 50
disk_io = 'non'
/
&SYSTEM
ibrav = 0
ecutwfc = 50.0
ecutrho = 400
occupations = 'smearing'
smearing = 'mp'
degauss = 0.01
assume_isolated = 'esm'
esm_bc = 'bc1'
input_dft = 'BEEF-VDW'
nosym = .true.
nspin = 2
ntyp = 4
nat = 32
starting_magnetization(1) = 0.0
starting_magnetization(2) = 0.1
starting_magnetization(3) = 0.0
starting_magnetization(4) = 0.0
/
&ELECTRONS
electron_maxstep = 200
mixing_beta = 0.1
conv_thr = 1e-06
/
&IONS
ion_dynamics = 'bfgs'
upscale = 1.0
/
&CELL
/

K_POINTS {automatic}
9 6 2 0  0  0

ATOMIC_SPECIES
Al 26.98 Al.pbe-nl-rrkjus_psl.1.0.0.UPF
Co 58.93 co_pbe_v1.2.uspp.F.UPF
Li 6.941 Li.pbe-sl-rrkjus_psl.1.0.0.UPF
Pd 106.4 Pd.pbe-n-rrkjus_psl.1.0.0.UPF


CELL_PARAMETERS {angstrom}
5.87254000 0.00000000 0.00000000
0.00000000 8.30502000 0.00000000
0.00000000 0.00000000 26.22880000

ATOMIC_POSITIONS {angstrom}
Li 0.00000000 2.07625500 -1.0381359000000003 0 0 0
Li 0.00000000 6.22876500 -1.0381359000000003 0 0 0
Li 2.93627000 4.15251000 -3.1144077099999983 0 0 0
Li 2.93627000 0.00000000 -3.1144077099999983 0 0 0
Li 5.83571917 6.22876500 3.53983885
Li 5.83571917 2.07625500 3.53983885
Li 2.90661367 0.00008305 0.98882576
Li 2.90673112 4.15242695 0.98882576
Al 0.00000000 0.00000000 -3.1144077099999983 0 0 0
Al 0.00000000 4.15251000 -3.1144077099999983 0 0 0
Al 2.93627000 6.22876500 -1.0381359000000003 0 0 0
Al 2.93627000 2.07625500 -1.0381359000000003 0 0 0
Al 0.01855723 4.15251000 1.01190710
Al 0.01867468 0.00000000 1.01190710
Al 2.95353527 2.07633805 3.10575221
Al 2.95347654 6.22868195 3.10575221
Co 4.40440500 0.00000000 -1.0381359000000003 0 0 0
Co 4.40440500 4.15251000 -1.0381359000000003 0 0 0
Co 1.46813500 2.07625500 -3.1144077099999983 0 0 0
Co 1.46813500 6.22876500 -3.1144077099999983 0 0 0
Co 4.33234893 4.15242695 2.96857558
Co 4.33223148 0.00008305 2.96857558
Co 1.44129749 6.22868195 1.08482317
Co 1.44129749 2.07633805 1.08482317
Pd 1.46813500 0.00000000 -1.0381359000000003 0 0 0
Pd 1.46813500 4.15251000 -1.0381359000000003 0 0 0
Pd 4.40440500 2.07625500 -3.1144077099999983 0 0 0
Pd 4.40440500 6.22876500 -3.1144077099999983 0 0 0
Pd 1.49086173 4.15242695 3.06798274
Pd 1.49092046 0.00008305 3.06798274
Pd 4.43212339 6.22876500 1.04416853
Pd 4.43218211 2.07625500 1.04416853
