&CONTROL
calculation = 'relax'
prefix = 'scf'
pseudo_dir = '/vol0403/data/hp230205/u10028/POT_HYBRID_KKJUS_GBRV'
outdir = './data'
tprnfor = .true.
nstep = 50
disk_io = 'non'
/
&SYSTEM
ibrav = 0
ecutwfc = 50.0
ecutrho = 400
occupations = 'smearing'
smearing = 'mp'
degauss = 0.01
assume_isolated = 'esm'
esm_bc = 'bc1'
input_dft = 'BEEF-VDW'
nosym = .true.
nspin = 1
ntyp = 6
nat = 18
/
&ELECTRONS
electron_maxstep = 200
mixing_beta = 0.1
conv_thr = 1e-06
/
&IONS
ion_dynamics = 'bfgs'
upscale = 1.0
/
&CELL
/

K_POINTS {automatic}
8 10 2 0  0  0

ATOMIC_SPECIES
C 12.01 C.pbe-n-rrkjus_psl.1.0.0.UPF
Ge 72.64 Ge.pbe-dn-rrkjus_psl.1.0.0.UPF
Li 6.941 Li.pbe-sl-rrkjus_psl.1.0.0.UPF
O 15.99 O.pbe-n-rrkjus_psl.1.0.0.UPF
Sn 118.7 Sn.pbe-dn-rrkjus_psl.1.0.0.UPF
Y 88.90 Y.pbe-spn-rrkjus_psl.1.0.0.UPF


CELL_PARAMETERS {angstrom}
8.60818000 0.00000000 0.00000000
0.00000000 6.35836000 0.00000000
0.00000000 0.00000000 24.74450000

ATOMIC_POSITIONS {angstrom}
Li 8.60766351 3.36179210 2.47816167
Li 0.00000000 6.03828016 -0.7908342199999971 0 0 0
Li 4.30340135 3.61752534 2.83621459
Li 4.30409000 6.03828016 -0.7908342199999971 0 0 0
Y 2.25241638 1.53751503 0.81087727
Y 2.15204500 4.28865024 -2.3722552199999996 0 0 0
Y 6.35455848 1.54069421 0.80988748
Y 6.45613500 4.28865024 -2.3722552199999996 0 0 0
Sn 2.26171321 4.66481081 1.07069452
Sn 2.15204500 1.10947024 -2.3722552199999996 0 0 0
Sn 6.34698328 4.66678191 1.07267407
Sn 6.45613500 1.10947024 -2.3722552199999996 0 0 0
Ge 8.60637228 0.37635133 2.32029176
Ge 0.00000000 2.85910016 -0.7908342199999971 0 0 0
Ge 4.30357351 6.28288627 2.22675755
Ge 4.30409000 2.85910016 -0.7908342199999971 0 0 0
C 8.60576971 5.49273287 3.76141144
O 8.60680269 4.80157914 4.71630170
