&CONTROL
calculation = 'relax'
prefix = 'scf'
pseudo_dir = '/vol0403/data/hp230205/u10028/POT_HYBRID_KKJUS_GBRV'
outdir = './data'
tprnfor = .true.
nstep = 70
disk_io = 'non'
/
&SYSTEM
ibrav = 0
ecutwfc = 50.0
ecutrho = 400
occupations = 'smearing'
smearing = 'mp'
degauss = 0.01
assume_isolated = 'esm'
esm_bc = 'bc1'
input_dft = 'BEEF-VDW'
nosym = .true.
nspin = 1
ntyp = 5
nat = 33
/
&ELECTRONS
electron_maxstep = 200
mixing_beta = 0.1
conv_thr = 1e-06
/
&IONS
ion_dynamics = 'bfgs'
upscale = 1.0
/
&CELL
/

K_POINTS {automatic}
6 6 1 0 0 0

ATOMIC_SPECIES
C 12.01 C.pbe-n-rrkjus_psl.1.0.0.UPF
Li 6.941 Li.pbe-sl-rrkjus_psl.1.0.0.UPF
Pb 207.2 Pb.pbe-dn-rrkjus_psl.1.0.0.UPF
Pd 106.4 Pd.pbe-n-rrkjus_psl.1.0.0.UPF
Y 88.90 Y.pbe-spn-rrkjus_psl.1.0.0.UPF


CELL_PARAMETERS {angstrom}
6.89083000 0.00000000 0.00000000
-0.00000000 9.74510000 0.00000000
0.00000000 0.00000000 27.30880000

ATOMIC_POSITIONS {angstrom}
Li 0.00000000 0.00000000 -3.6544636200000014 0 0 0
Li 0.00000000 4.87255000 -3.6544636200000014 0 0 0
Li 3.44541500 7.30882500 -1.2182455700000006 0 0 0
Li 3.44541500 2.43627500 -1.2182455700000006 0 0 0
Li 0.00000000 4.87255000 1.21824557
Li 0.00000000 0.00000000 1.21824557
Li 3.44541500 2.43627500 3.65446362
Li 3.44541500 7.30882500 3.65446362
Y 5.16812250 0.00000000 -1.2182455700000006 0 0 0
Y 5.16812250 4.87255000 -1.2182455700000006 0 0 0
Y 1.72270750 2.43627500 -3.6544636200000014 0 0 0
Y 1.72270750 7.30882500 -3.6544636200000014 0 0 0
Y 5.16812250 4.87255000 3.65446362
Y 5.16812250 -0.00000000 3.65446362
Y 1.72270750 7.30882500 1.21824557
Y 1.72270750 2.43627500 1.21824557
Pd 0.00000000 2.43627500 -1.2182455700000006 0 0 0
Pd 0.00000000 7.30882500 -1.2182455700000006 0 0 0
Pd 3.44541500 4.87255000 -3.6544636200000014 0 0 0
Pd 3.44541500 0.00000000 -3.6544636200000014 0 0 0
Pd 0.00000000 7.30882500 3.65446362
Pd 0.00000000 2.43627500 3.65446362
Pd 3.44541500 -0.00000000 1.21824557
Pd 3.44541500 4.87255000 1.21824557
Pb 1.72270750 0.00000000 -1.2182455700000006 0 0 0
Pb 1.72270750 4.87255000 -1.2182455700000006 0 0 0
Pb 5.16812250 2.43627500 -3.6544636200000014 0 0 0
Pb 5.16812250 7.30882500 -3.6544636200000014 0 0 0
Pb 1.72270750 4.87255000 3.65446362
Pb 1.72270750 -0.00000000 3.65446362
Pb 5.16812250 7.30882500 1.21824557
Pb 5.16812250 2.43627500 1.21824557
C 0.00000000 0.00000000 4.45433837
