&CONTROL
calculation = 'relax'
prefix = 'scf'
pseudo_dir = '/vol0004/mdt0/data/hp150275/u10028/POT_KKJUS'
outdir = './data'
tprnfor = .true.
nstep = 50
disk_io = 'non'
/
&SYSTEM
ibrav = 0
ecutwfc = 50.0
ecutrho = 400
occupations = 'smearing'
smearing = 'mp'
degauss = 0.01
assume_isolated = 'esm'
esm_bc = 'bc1'
input_dft = 'BEEF-VDW'
nosym = .true.
nspin = 1
ntyp = 4
nat = 34
/
&ELECTRONS
electron_maxstep = 200
mixing_beta = 0.1
conv_thr = 1e-06
/
&IONS
ion_dynamics = 'bfgs'
upscale = 1.0
/
&CELL
/

K_POINTS {automatic}
9 6 2 0  0  0

ATOMIC_SPECIES
C 12.01 C.pbe-n-rrkjus_psl.1.0.0.UPF
Hf 178.4 Hf.pbe-spn-rrkjus_psl.1.0.0.UPF
O 15.99 O.pbe-n-rrkjus_psl.1.0.0.UPF
Rh 102.9 Rh.pbe-spn-rrkjus_psl.1.0.0.UPF

CELL_PARAMETERS {angstrom}
6.52860000 0.00000000 0.00000000
0.00000000 9.23283000 0.00000000
0.00000000 0.00000000 26.92460000

ATOMIC_POSITIONS {angstrom}
Hf 0.00000000 0.00000000 -3.462234310000003 0 0 0
Hf 0.00000000 2.30820750 -1.1539883600000032 0 0 0
Hf 6.50777377 0.00000000 1.15614232
Hf 6.50078816 2.34800100 3.49104364
Hf 0.00000000 4.61641500 -3.462234310000003 0 0 0
Hf 0.00000000 6.92462250 -1.1539883600000032 0 0 0
Hf 0.01135976 4.61641500 1.15560383
Hf 6.50078816 6.88492133 3.49104364
Hf 3.26430000 0.00000000 -3.462234310000003 0 0 0
Hf 3.26430000 2.30820750 -1.1539883600000032 0 0 0
Hf 3.28512623 0.00000000 1.15614232
Hf 3.29211184 2.34800100 3.49104364
Hf 3.26430000 4.61641500 -3.462234310000003 0 0 0
Hf 3.26430000 6.92462250 -1.1539883600000032 0 0 0
Hf 3.25294024 4.61641500 1.15560383
Hf 3.29211184 6.88482900 3.49104364
Rh 1.63215000 2.30820750 -3.462234310000003 0 0 0
Rh 1.63215000 0.00000000 -1.1539883600000032 0 0 0
Rh 1.63215000 2.21329401 1.28645739
Rh 1.63215000 0.00009233 3.51446804
Rh 1.63215000 6.92462250 -3.462234310000003 0 0 0
Rh 1.63215000 4.61641500 -1.1539883600000032 0 0 0
Rh 1.63215000 7.01953599 1.28645739
Rh 1.63215000 4.61623034 3.28183949
Rh 4.89645000 2.30820750 -3.462234310000003 0 0 0
Rh 4.89645000 0.00000000 -1.1539883600000032 0 0 0
Rh 4.89645000 2.33682927 1.15075740
Rh 4.89645000 0.00018466 3.24737601
Rh 4.89645000 6.92462250 -3.462234310000003 0 0 0
Rh 4.89645000 4.61641500 -1.1539883600000032 0 0 0
Rh 4.89645000 6.89600073 1.15048816
Rh 4.89645000 4.61632267 3.25518414
C 1.63215000 0.00000000 5.39945928
O 1.63215000 0.00000000 6.56448673
