&CONTROL
calculation = 'relax'
prefix = 'scf'
pseudo_dir = '/vol0004/mdt0/data/hp150275/u10028/POT_KKJUS'
outdir = './data'
tprnfor = .true.
nstep = 50
disk_io = 'non'
/
&SYSTEM
ibrav = 0
ecutwfc = 50.0
ecutrho = 400
occupations = 'smearing'
smearing = 'mp'
degauss = 0.01
assume_isolated = 'esm'
esm_bc = 'bc1'
input_dft = 'BEEF-VDW'
nosym = .true.
nspin = 1
ntyp = 5
nat = 34
/
&ELECTRONS
electron_maxstep = 200
mixing_beta = 0.1
conv_thr = 1e-06
/
&IONS
ion_dynamics = 'bfgs'
upscale = 1.0
/
&CELL
/

K_POINTS {automatic}
8 6 1 0 0 0

ATOMIC_SPECIES
Ag 107.8 Ag.pbe-n-rrkjus_psl.1.0.0.UPF
Al 26.98 Al.pbe-nl-rrkjus_psl.1.0.0.UPF
C 12.01 C.pbe-n-rrkjus_psl.1.0.0.UPF
Li 6.941 Li.pbe-sl-rrkjus_psl.1.0.0.UPF
O 15.99 O.pbe-n-rrkjus_psl.1.0.0.UPF

CELL_PARAMETERS {angstrom}
6.40528000 0.00000000 0.00000000
0.00000000 9.05843000 0.00000000
0.00000000 0.00000000 26.79380000

ATOMIC_POSITIONS {angstrom}
Li 0.00000000 0.00000000 -3.3969179599999997 0 0 0
Li 3.20264000 2.26460750 -1.1323059900000025 0 0 0
Li 3.20264000 6.79382250 -1.1323059900000025 0 0 0
Li 0.00000000 4.52921500 -3.3969179599999997 0 0 0
Li 6.40355057 4.52921500 1.03772387
Li 3.21493814 6.78041602 3.43898423
Li 3.21487408 2.27801398 3.43898423
Li 0.04368401 0.00000000 1.07148406
Al 0.00000000 6.79382250 -1.1323059900000025 0 0 0
Al 3.20264000 0.00000000 -3.3969179599999997 0 0 0
Al 0.00000000 2.26460750 -1.1323059900000025 0 0 0
Al 3.20264000 4.52921500 -3.3969179599999997 0 0 0
Al 6.37491897 2.29377564 3.37950199
Al 3.19341640 4.52921500 1.15990360
Al 6.37485492 6.76465436 3.37923406
Al 3.18419279 0.00000000 1.17705163
Ag 1.60132000 0.00000000 -1.1323059900000025 0 0 0
Ag 4.80396000 4.52921500 -1.1323059900000025 0 0 0
Ag 4.80396000 0.00000000 -1.1323059900000025 0 0 0
Ag 1.60132000 4.52921500 -1.1323059900000025 0 0 0
Ag 4.80396000 6.79382250 -3.3969179599999997 0 0 0
Ag 1.60132000 2.26460750 -3.3969179599999997 0 0 0
Ag 1.60132000 6.79382250 -3.3969179599999997 0 0 0
Ag 4.80396000 2.26460750 -3.3969179599999997 0 0 0
Ag 1.50018063 4.52921500 3.31680450
Ag 4.93885520 0.00000000 3.26375278
Ag 4.88172010 4.52921500 3.30742667
Ag 1.48525633 9.05824883 3.43041021
Ag 4.78314284 2.26632860 1.10417250
Ag 1.61220898 6.80478320 1.14088000
Ag 1.61220898 2.25364680 1.14088000
Ag 4.78320689 6.79210140 1.10417250
C 1.97987205 9.05824883 5.70707940
O 1.62130447 9.05824883 6.79330005
