&CONTROL
calculation = 'relax'
prefix = 'scf'
pseudo_dir = '/vol0004/mdt0/data/hp150275/u10028/POT_HYBRID_KKJUS_GBRV'
outdir = './data'
tprnfor = .true.
nstep = 50
disk_io = 'non'
/
&SYSTEM
ibrav = 0
ecutwfc = 50.0
ecutrho = 400
occupations = 'smearing'
smearing = 'mp'
degauss = 0.01
assume_isolated = 'esm'
esm_bc = 'bc1'
input_dft = 'BEEF-VDW'
nosym = .true.
nspin = 2
ntyp = 4
nat = 33
starting_magnetization(1) = 0.0
starting_magnetization(2) = 0.001
starting_magnetization(3) = 0.0
starting_magnetization(4) = 0.0
/
&ELECTRONS
electron_maxstep = 300
mixing_beta = 0.1
conv_thr = 1e-06
/
&IONS
ion_dynamics = 'bfgs'
upscale = 1.0
/
&CELL
/

K_POINTS {automatic}
8 6 1 0 0 0

ATOMIC_SPECIES
C 12.01 C.pbe-n-rrkjus_psl.1.0.0.UPF
Ni 58.69 ni_pbe_v1.4.uspp.F.UPF
Sc 44.95 Sc.pbe-spn-rrkjus_psl.1.0.0.UPF
Sn 118.7 Sn.pbe-dn-rrkjus_psl.1.0.0.UPF

CELL_PARAMETERS {angstrom}
6.29417000 0.00000000 0.00000000
0.00000000 8.90130000 0.00000000
0.00000000 0.00000000 26.67600000

ATOMIC_POSITIONS {angstrom}
Sc 0.00000000 0.00000000 -3.3379678799999972 0 0 0
Sc 3.14708500 2.22532500 -1.112655959999998 0 0 0
Sc 3.14708500 6.67597500 -1.112655959999998 0 0 0
Sc 0.00000000 4.45065000 -3.3379678799999972 0 0 0
Sc 6.24457194 4.49453341 1.08597996
Sc 3.18063293 6.67633105 3.32489664
Sc 3.40092888 2.22523599 3.34490364
Sc 6.24469782 8.85714955 1.08678024
Ni 1.57354250 0.00000000 -1.112655959999998 0 0 0
Ni 4.72062750 4.45065000 -1.112655959999998 0 0 0
Ni 4.72062750 0.00000000 -1.112655959999998 0 0 0
Ni 1.57354250 4.45065000 -1.112655959999998 0 0 0
Ni 4.72062750 6.67597500 -3.3379678799999972 0 0 0
Ni 1.57354250 2.22532500 -3.3379678799999972 0 0 0
Ni 1.57354250 6.67597500 -3.3379678799999972 0 0 0
Ni 4.72062750 2.22532500 -3.3379678799999972 0 0 0
Ni 1.21899190 4.14026167 3.23206416
Ni 4.86117632 8.88269628 3.20885604
Ni 4.86149102 4.46889767 3.20885604
Ni 1.22025074 0.30843005 3.23153064
Ni 4.74762949 2.22603710 1.08891432
Ni 1.64630311 6.67526290 1.16947584
Ni 1.41474059 2.22657118 1.39008636
Ni 4.60116415 6.67490684 1.26044100
Sn 0.00000000 6.67597500 -1.112655959999998 0 0 0
Sn 3.14708500 0.00000000 -3.3379678799999972 0 0 0
Sn 0.00000000 2.22532500 -1.112655959999998 0 0 0
Sn 3.14708500 4.45065000 -3.3379678799999972 0 0 0
Sn 5.93955646 2.22550303 4.75979868
Sn 3.11032705 4.41860532 1.16520768
Sn 0.06275287 6.67561895 3.46654620
Sn 3.11038999 0.03142159 1.16467416
C 1.29338899 2.22452388 3.35157264
