&CONTROL
calculation = 'relax'
prefix = 'scf'
pseudo_dir = '/vol0004/mdt0/data/hp150275/u10028/POT_KKJUS'
outdir = './data'
tprnfor = .true.
nstep = 50
disk_io = 'non'
/
&SYSTEM
ibrav = 0
ecutwfc = 50.0
ecutrho = 400
occupations = 'smearing'
smearing = 'mp'
degauss = 0.01
assume_isolated = 'esm'
esm_bc = 'bc1'
input_dft = 'BEEF-VDW'
nosym = .true.
nspin = 1
ntyp = 5
nat = 18
/
&ELECTRONS
electron_maxstep = 200
mixing_beta = 0.1
conv_thr = 1e-06
/
&IONS
ion_dynamics = 'bfgs'
upscale = 1.0
/
&CELL
/

K_POINTS {automatic}
9 9 2 0  0  0

ATOMIC_SPECIES
C 12.01 C.pbe-n-rrkjus_psl.1.0.0.UPF
Ni 58.69 Ni.pbe-spn-rrkjus_psl.1.0.0.UPF
O 15.99 O.pbe-n-rrkjus_psl.1.0.0.UPF
Sc 44.95 Sc.pbe-spn-rrkjus_psl.1.0.0.UPF
Sn 118.7 Sn.pbe-dn-rrkjus_psl.1.0.0.UPF

CELL_PARAMETERS {angstrom}
6.31539000 0.00000000 0.00000000
0.00000000 6.31539000 0.00000000
0.00000000 0.00000000 24.73650000

ATOMIC_POSITIONS {angstrom}
Sc 0.00044208 6.30724315 2.39226691
Sc 3.15851600 3.15213746 2.35590426
Sc 3.15769500 0.00000000 -0.7893417099999986 0 0 0
Sc 0.00000000 3.15769500 -0.7893417099999986 0 0 0
Ni 1.57935273 1.56489049 0.87171426
Ni 4.73654250 4.73654250 -2.3682725100000006 0 0 0
Ni 4.73780558 1.56103810 0.86973534
Ni 1.57884750 4.73654250 -2.3682725100000006 0 0 0
Ni 4.74513143 4.74961536 0.87443527
Ni 1.57884750 1.57884750 -2.3682725100000006 0 0 0
Ni 1.57044803 4.74658397 0.87542473
Ni 4.73654250 1.57884750 -2.3682725100000006 0 0 0
Sn 0.00000000 0.00000000 -0.7893417099999986 0 0 0
Sn 3.15838969 6.31153761 2.46449749
Sn 6.31425323 3.14316960 2.44025573
Sn 3.15769500 3.15769500 -0.7893417099999986 0 0 0
C 0.10862471 3.94888706 6.19352487
O 6.27490835 2.93653004 6.69048115
