&CONTROL
calculation = 'relax'
prefix = 'scf'
pseudo_dir = '/vol0004/mdt0/data/hp150275/u10028/POT_HYBRID_KKJUS_GBRV'
outdir = './data'
tprnfor = .true.
nstep = 50
disk_io = 'non'
/
&SYSTEM
ibrav = 0
ecutwfc = 50.0
ecutrho = 400
occupations = 'smearing'
smearing = 'mp'
degauss = 0.01
assume_isolated = 'esm'
esm_bc = 'bc1'
input_dft = 'BEEF-VDW'
nosym = .true.
nspin = 2
ntyp = 5
nat = 34
starting_magnetization(1) = 0.0
starting_magnetization(2) = 0.1
starting_magnetization(3) = 0.0
starting_magnetization(4) = 0.0
starting_magnetization(5) = 0.0
/
&ELECTRONS
electron_maxstep = 300
mixing_beta = 0.1
conv_thr = 1e-06
/
&IONS
ion_dynamics = 'bfgs'
upscale = 1.0
/
&CELL
/

K_POINTS {automatic}
9 6 2 0  0  0

ATOMIC_SPECIES
C 12.01 C.pbe-n-rrkjus_psl.1.0.0.UPF
Co 58.93 co_pbe_v1.2.uspp.F.UPF
Hf 178.4 Hf.pbe-spn-rrkjus_psl.1.0.0.UPF
O 15.99 O.pbe-n-rrkjus_psl.1.0.0.UPF
Sn 118.7 Sn.pbe-dn-rrkjus_psl.1.0.0.UPF

CELL_PARAMETERS {angstrom}
6.26570000 0.00000000 0.00000000
0.00000000 8.86104000 0.00000000
0.00000000 0.00000000 26.64580000

ATOMIC_POSITIONS {angstrom}
Hf 0.00000000 0.00000000 -3.32299772 0 0 0
Hf 3.13285000 2.21526000 -1.1076659100000015 0 0 0
Hf 3.13285000 6.64578000 -1.1076659100000015 0 0 0
Hf 0.00000000 4.43052000 -3.32299772 0 0 0
Hf 0.00401005 4.43052000 1.13697629
Hf 3.13065700 6.63302010 3.32113251
Hf 3.13065700 2.22801990 3.32139897
Hf 6.25066232 0.00000000 1.11779131
Co 1.56642500 0.00000000 -1.1076659100000015 0 0 0
Co 4.69927500 4.43052000 -1.1076659100000015 0 0 0
Co 4.69927500 0.00000000 -1.1076659100000015 0 0 0
Co 1.56642500 4.43052000 -1.1076659100000015 0 0 0
Co 4.69927500 6.64578000 -3.32299772 0 0 0
Co 1.56642500 2.21526000 -3.32299772 0 0 0
Co 1.56642500 6.64578000 -3.32299772 0 0 0
Co 4.69927500 2.21526000 -3.32299772 0 0 0
Co 1.55865553 4.43043139 3.24119511
Co 4.70391162 0.00008861 3.23853053
Co 4.70221988 4.43043139 3.25798197
Co 1.59029732 0.00000000 3.44343673
Co 4.67947539 2.21304474 1.11965652
Co 1.58114940 6.65667908 1.12685088
Co 1.58121205 2.20436092 1.12685088
Co 4.67953805 6.64799526 1.11965652
Sn 0.00000000 6.64578000 -1.1076659100000015 0 0 0
Sn 3.13285000 0.00000000 -3.32299772 0 0 0
Sn 0.00000000 2.21526000 -1.1076659100000015 0 0 0
Sn 3.13285000 4.43052000 -3.32299772 0 0 0
Sn 6.24803073 2.23661511 3.38881284
Sn 3.13203546 4.43052000 1.13004838
Sn 6.24803073 6.62442489 3.38881284
Sn 3.13115826 0.00000000 1.12125526
C 1.61673857 0.00000000 5.15702813
O 1.55577331 0.00000000 6.30919252
