&CONTROL
calculation = 'relax'
prefix = 'scf'
pseudo_dir = '/vol0004/mdt0/data/hp150275/u10028/POT_KKJUS'
outdir = './data'
tprnfor = .true.
nstep = 50
disk_io = 'non'
/
&SYSTEM
ibrav = 0
ecutwfc = 50.0
ecutrho = 400
occupations = 'smearing'
smearing = 'mp'
degauss = 0.01
assume_isolated = 'esm'
esm_bc = 'bc1'
input_dft = 'BEEF-VDW'
nosym = .true.
nspin = 1
ntyp = 5
nat = 34
/
&ELECTRONS
electron_maxstep = 200
mixing_beta = 0.1
conv_thr = 1e-06
/
&IONS
ion_dynamics = 'bfgs'
upscale = 1.0
/
&CELL
/

K_POINTS {automatic}
8 6 1 0 0 0

ATOMIC_SPECIES
Ag 107.8 Ag.pbe-n-rrkjus_psl.1.0.0.UPF
C 12.01 C.pbe-n-rrkjus_psl.1.0.0.UPF
Ge 72.64 Ge.pbe-dn-rrkjus_psl.1.0.0.UPF
Li 6.941 Li.pbe-sl-rrkjus_psl.1.0.0.UPF
O 15.99 O.pbe-n-rrkjus_psl.1.0.0.UPF

CELL_PARAMETERS {angstrom}
6.51415000 0.00000000 0.00000000
0.00000000 9.21240000 0.00000000
0.00000000 0.00000000 26.90930000

ATOMIC_POSITIONS {angstrom}
Li 0.00000000 0.00000000 -3.4546159300000028 0 0 0
Li 3.25707500 2.30310000 -1.1514489500000025 0 0 0
Li 3.25707500 6.90930000 -1.1514489500000025 0 0 0
Li 0.00000000 4.60620000 -3.4546159300000028 0 0 0
Li 6.51408486 4.64857704 1.08498298
Li 3.25707500 6.90930000 3.58727878
Li 3.25707500 2.30310000 3.54637665
Li 0.00000000 9.17002296 1.08498298
Ag 1.62853750 0.00000000 -1.1514489500000025 0 0 0
Ag 4.88561250 4.60620000 -1.1514489500000025 0 0 0
Ag 4.88561250 0.00000000 -1.1514489500000025 0 0 0
Ag 1.62853750 4.60620000 -1.1514489500000025 0 0 0
Ag 4.88561250 6.90930000 -3.4546159300000028 0 0 0
Ag 1.62853750 2.30310000 -3.4546159300000028 0 0 0
Ag 1.62853750 6.90930000 -3.4546159300000028 0 0 0
Ag 4.88561250 2.30310000 -3.4546159300000028 0 0 0
Ag 1.54808775 4.58666971 3.44950317
Ag 4.96625768 0.01980666 3.44950317
Ag 4.96606225 4.58657759 3.44950317
Ag 1.54789232 0.01971454 3.44950317
Ag 4.83187076 2.30310000 1.10785588
Ag 1.57831340 6.90930000 1.25666431
Ag 1.68221410 2.30310000 1.10785588
Ag 4.93583660 6.90930000 1.25639522
Ge 0.00000000 6.90930000 -1.1514489500000025 0 0 0
Ge 3.25707500 0.00000000 -3.4546159300000028 0 0 0
Ge 0.00000000 2.30310000 -1.1514489500000025 0 0 0
Ge 3.25707500 4.60620000 -3.4546159300000028 0 0 0
Ge 0.00045599 2.30356062 3.92256866
Ge 3.25707500 4.64912978 1.28626454
Ge 0.00000000 6.90930000 3.57328595
Ge 3.25707500 9.16937809 1.28626454
C 0.00032571 2.30328425 5.92327512
O 0.00019542 2.30291575 7.07956774
