&CONTROL
calculation = 'relax'
prefix = 'scf'
pseudo_dir = '/vol0403/data/hp230205/u10028/POT_HYBRID_KKJUS_GBRV'
outdir = './data'
tprnfor = .true.
nstep = 50
disk_io = 'non'
/
&SYSTEM
ibrav = 0
ecutwfc = 50.0
ecutrho = 400
occupations = 'smearing'
smearing = 'mp'
degauss = 0.01
assume_isolated = 'esm'
esm_bc = 'bc1'
input_dft = 'BEEF-VDW'
nosym = .true.
nspin = 1
ntyp = 6
nat = 34
/
&ELECTRONS
electron_maxstep = 200
mixing_beta = 0.1
conv_thr = 1e-06
/
&IONS
ion_dynamics = 'bfgs'
upscale = 1.0
/
&CELL
/

K_POINTS {automatic}
6 6 1 0 0 0

ATOMIC_SPECIES
C 12.01 C.pbe-n-rrkjus_psl.1.0.0.UPF
Cu 63.54 Cu.pbe-dn-rrkjus_psl.1.0.0.UPF
In 114.8 In.pbe-dn-rrkjus_psl.1.0.0.UPF
O 15.99 O.pbe-n-rrkjus_psl.1.0.0.UPF
Sn 118.7 Sn.pbe-dn-rrkjus_psl.1.0.0.UPF
Y 88.90 Y.pbe-spn-rrkjus_psl.1.0.0.UPF


CELL_PARAMETERS {angstrom}
8.82850000 0.00000000 0.00000000
0.00000000 8.84740000 0.00000000
0.00000000 0.00000000 26.85960000

ATOMIC_POSITIONS {angstrom}
Y 2.20818442 8.83713702 1.17295873
Y 2.20712500 0.00000000 -3.4297023200000005 0 0 0
Y 2.20853756 4.43396298 1.17295873
Y 2.20712500 4.42370000 -3.4297023200000005 0 0 0
Y 6.62349384 8.84722305 1.17779346
Y 6.62137500 0.00000000 -3.4297023200000005 0 0 0
Y 6.62314070 4.42387695 1.17779346
Y 6.62137500 4.42370000 -3.4297023200000005 0 0 0
In 2.26044914 2.21176153 3.75658366
In 2.20712500 2.21185000 -1.1431445800000013 0 0 0
In 2.19238140 6.63528458 3.84575753
In 2.20712500 6.63555000 -1.1431445800000013 0 0 0
In 6.59365351 2.21193847 3.78935237
In 6.62137500 2.21185000 -1.1431445800000013 0 0 0
In 6.62322899 6.63555000 3.85650137
In 6.62137500 6.63555000 -1.1431445800000013 0 0 0
Cu 0.00035314 0.01893344 3.16218071
Cu 0.00000000 0.00000000 -1.1431445800000013 0 0 0
Cu 0.00052971 4.40458962 3.16110632
Cu 0.00000000 4.42370000 -1.1431445800000013 0 0 0
Cu 4.41654541 0.03114285 3.16298650
Cu 4.41425000 0.00000000 -1.1431445800000013 0 0 0
Cu 4.41681027 4.39255715 3.16379228
Cu 4.41425000 4.42370000 -1.1431445800000013 0 0 0
Sn 0.01059420 2.21193847 1.36151312
Sn 0.00000000 2.21185000 -3.4297023200000005 0 0 0
Sn 8.82558659 6.63537305 1.40395129
Sn 0.00000000 6.63555000 -3.4297023200000005 0 0 0
Sn 4.41045374 2.21167305 1.31021129
Sn 4.41425000 2.21185000 -3.4297023200000005 0 0 0
Sn 4.41875254 6.63572695 1.41979846
Sn 4.41425000 6.63555000 -3.4297023200000005 0 0 0
C 2.07708119 2.21158458 7.62329167
O 2.27554587 2.21185000 8.74065103
