&CONTROL
calculation = 'relax'
prefix = 'scf'
pseudo_dir = '/vol0004/mdt0/data/hp150275/u10028/POT_HYBRID_KKJUS_GBRV'
outdir = './data'
tprnfor = .true.
nstep = 50
disk_io = 'non'
/
&SYSTEM
ibrav = 0
ecutwfc = 50.0
ecutrho = 400
occupations = 'smearing'
smearing = 'mp'
degauss = 0.01
assume_isolated = 'esm'
esm_bc = 'bc1'
input_dft = 'BEEF-VDW'
nosym = .true.
nspin = 2
ntyp = 5
nat = 34
starting_magnetization(1) = 0.0
starting_magnetization(2) = 0.1
starting_magnetization(3) = 0.0
starting_magnetization(4) = 0.0
starting_magnetization(5) = 0.0
/
&ELECTRONS
electron_maxstep = 300
mixing_beta = 0.1
conv_thr = 1e-06
/
&IONS
ion_dynamics = 'bfgs'
upscale = 1.0
/
&CELL
/

K_POINTS {automatic}
9 6 2 0  0  0

ATOMIC_SPECIES
C 12.01 C.pbe-n-rrkjus_psl.1.0.0.UPF
Mn 54.93 mn_pbe_v1.5.uspp.F.UPF
O 15.99 O.pbe-n-rrkjus_psl.1.0.0.UPF
Sn 118.7 Sn.pbe-dn-rrkjus_psl.1.0.0.UPF
W 183.8 w_pbe_v1.2.uspp.F.UPF

CELL_PARAMETERS {angstrom}
6.10490000 0.00000000 0.00000000
0.00000000 8.63363000 0.00000000
0.00000000 0.00000000 26.47520000

ATOMIC_POSITIONS {angstrom}
Mn 1.52622500 0.00000000 -1.07912915 0 0 0
Mn 4.57867500 4.31681500 -1.07912915 0 0 0
Mn 4.57867500 0.00000000 -1.07912915 0 0 0
Mn 1.52622500 4.31681500 -1.07912915 0 0 0
Mn 4.57867500 6.47522250 -3.2376522100000003 0 0 0
Mn 1.52622500 2.15840750 -3.2376522100000003 0 0 0
Mn 1.52622500 6.47522250 -3.2376522100000003 0 0 0
Mn 4.57867500 2.15840750 -3.2376522100000003 0 0 0
Mn 1.42280799 4.32993812 3.39994518
Mn 4.68209201 8.62050688 3.39994518
Mn 4.68209201 4.32993812 3.39994518
Mn 1.42280799 8.62050688 3.39994518
Mn 4.54430441 2.15840750 1.09289626
Mn 1.62677270 6.47522250 1.20673962
Mn 1.56065664 2.15840750 1.09289626
Mn 4.47812730 6.47522250 1.20673962
Sn 0.00000000 0.00000000 -3.2376522100000003 0 0 0
Sn 3.05245000 2.15840750 -1.07912915 0 0 0
Sn 3.05245000 6.47522250 -1.07912915 0 0 0
Sn 0.00000000 4.31681500 -3.2376522100000003 0 0 0
Sn 0.00006105 4.38527969 1.08124717
Sn 3.05238895 6.47522250 3.88020531
Sn 3.05238895 2.15840750 3.42721464
Sn 0.00006105 8.56516531 1.08124717
W 0.00000000 6.47522250 -1.07912915 0 0 0
W 3.05245000 0.00000000 -3.2376522100000003 0 0 0
W 0.00000000 2.15840750 -1.07912915 0 0 0
W 3.05245000 4.31681500 -3.2376522100000003 0 0 0
W 0.00000000 2.15840750 2.98931483
W 3.05251105 4.28236682 1.16649731
W 6.10483895 6.47522250 3.15902086
W 3.05251105 0.03444818 1.16649731
C 3.05245000 2.15840750 6.63733264
O 3.05245000 2.15840750 7.76755893
