&CONTROL
calculation = 'relax'
prefix = 'scf'
pseudo_dir = '/vol0403/data/hp230205/u10028/POT_HYBRID_KKJUS_GBRV'
outdir = './data'
tprnfor = .true.
nstep = 50
disk_io = 'non'
/
&SYSTEM
ibrav = 0
ecutwfc = 50.0
ecutrho = 400
occupations = 'smearing'
smearing = 'mp'
degauss = 0.01
assume_isolated = 'esm'
esm_bc = 'bc1'
input_dft = 'BEEF-VDW'
nosym = .true.
nspin = 1
ntyp = 5
nat = 17
/
&ELECTRONS
electron_maxstep = 200
mixing_beta = 0.1
conv_thr = 1e-06
/
&IONS
ion_dynamics = 'bfgs'
upscale = 1.0
/
&CELL
/

K_POINTS {automatic}
11 7 2 0  0  0

ATOMIC_SPECIES
C 12.01 C.pbe-n-rrkjus_psl.1.0.0.UPF
In 114.8 In.pbe-dn-rrkjus_psl.1.0.0.UPF
Li 6.941 Li.pbe-sl-rrkjus_psl.1.0.0.UPF
Pb 207.2 Pb.pbe-dn-rrkjus_psl.1.0.0.UPF
Y 88.90 Y.pbe-spn-rrkjus_psl.1.0.0.UPF


CELL_PARAMETERS {angstrom}
6.51578000 0.00000000 0.00000000
0.00000000 9.32892000 0.00000000
0.00000000 0.00000000 24.88170000

ATOMIC_POSITIONS {angstrom}
Li 1.55433932 2.33223000 -0.81363159 0 0 0
Li 3.51760899 1.48992181 2.92459502
Li 1.55433932 6.99669000 -0.81363159 0 0 0
Li 3.51754383 7.83871832 2.92459502
Y 3.25789000 0.00000000 -2.44089477 0 0 0
Y 6.13330371 0.00000000 1.01417809
Y 3.25789000 4.66446000 -2.44089477 0 0 0
Y 5.81461691 4.66436671 1.16346829
In 0.00000000 0.00000000 -2.44089477 0 0 0
In 2.80745413 9.32882671 0.55312019
In 0.00000000 4.66446000 -2.44089477 0 0 0
In 2.49990931 4.66436671 0.98531532
Pb 4.81222932 2.33223000 -0.81363159 0 0 0
Pb 0.76475710 2.24621736 3.06343490
Pb 4.81222932 6.99669000 -0.81363159 0 0 0
Pb 0.76469194 7.08260935 3.06343490
C 1.55459995 0.00000000 2.39461481
