&CONTROL
calculation = 'relax'
prefix = 'scf'
pseudo_dir = '/vol0004/mdt0/data/hp150275/u10028/POT_HYBRID_KKJUS_GBRV'
outdir = './data'
tprnfor = .true.
nstep = 50
disk_io = 'non'
/
&SYSTEM
ibrav = 0
ecutwfc = 50.0
ecutrho = 400
occupations = 'smearing'
smearing = 'mp'
degauss = 0.01
assume_isolated = 'esm'
esm_bc = 'bc1'
input_dft = 'BEEF-VDW'
nosym = .true.
nspin = 2
ntyp = 4
nat = 33
starting_magnetization(1) = 0.0
starting_magnetization(2) = 0.1
starting_magnetization(3) = 0.0
starting_magnetization(4) = 0.0
/
&ELECTRONS
electron_maxstep = 300
mixing_beta = 0.1
conv_thr = 1e-06
/
&IONS
ion_dynamics = 'bfgs'
upscale = 1.0
/
&CELL
/

K_POINTS {automatic}
9 6 2 0  0  0

ATOMIC_SPECIES
C 12.01 C.pbe-n-rrkjus_psl.1.0.0.UPF
Co 58.93 co_pbe_v1.2.uspp.F.UPF
Sn 118.7 Sn.pbe-dn-rrkjus_psl.1.0.0.UPF
V 50.94 V.pbe-spnl-rrkjus_psl.1.0.0.UPF

CELL_PARAMETERS {angstrom}
6.04348000 0.00000000 0.00000000
0.00000000 8.54677000 0.00000000
0.00000000 0.00000000 26.41010000

ATOMIC_POSITIONS {angstrom}
V 0.00000000 0.00000000 -3.2051297400000003 0 0 0
V 3.02174000 2.13669250 -1.068288540000001 0 0 0
V 3.02174000 6.41007750 -1.068288540000001 0 0 0
V 0.00000000 4.27338500 -3.2051297400000003 0 0 0
V 0.00000000 4.27329953 1.24180290
V 3.02174000 6.57682498 3.26402426
V 3.02174000 1.96985955 3.26402426
V 0.00000000 0.00008547 1.10288578
Co 1.51087000 0.00000000 -1.068288540000001 0 0 0
Co 4.53261000 4.27338500 -1.068288540000001 0 0 0
Co 4.53261000 0.00000000 -1.068288540000001 0 0 0
Co 1.51087000 4.27338500 -1.068288540000001 0 0 0
Co 4.53261000 6.41007750 -3.2051297400000003 0 0 0
Co 1.51087000 2.13669250 -3.2051297400000003 0 0 0
Co 1.51087000 6.41007750 -3.2051297400000003 0 0 0
Co 4.53261000 2.13669250 -3.2051297400000003 0 0 0
Co 1.55915741 4.27389781 2.99860275
Co 4.78456268 8.54642813 3.02791796
Co 4.48432259 4.27381234 2.99860275
Co 1.25891732 8.54642813 3.02791796
Co 4.55781131 2.11045392 1.06643984
Co 1.48597086 6.43631608 1.06643984
Co 1.48566869 2.11045392 1.06643984
Co 4.55750914 6.43631608 1.06643984
Sn 0.00000000 6.41007750 -1.068288540000001 0 0 0
Sn 3.02174000 0.00000000 -3.2051297400000003 0 0 0
Sn 0.00000000 2.13669250 -1.068288540000001 0 0 0
Sn 3.02174000 4.27338500 -3.2051297400000003 0 0 0
Sn 0.00000000 2.20147702 3.52970986
Sn 3.02174000 4.27347047 1.06485523
Sn 0.00000000 6.34520752 3.52970986
Sn 3.02174000 8.54668453 1.07726798
C 3.02174000 0.00000000 3.79143396
