&CONTROL
calculation = 'relax'
prefix = 'scf'
pseudo_dir = '/vol0004/mdt0/data/hp150275/u10028/POT_KKJUS'
outdir = './data'
tprnfor = .true.
nstep = 50
disk_io = 'non'
/
&SYSTEM
ibrav = 0
ecutwfc = 50.0
ecutrho = 400
occupations = 'smearing'
smearing = 'mp'
degauss = 0.01
assume_isolated = 'esm'
esm_bc = 'bc1'
input_dft = 'BEEF-VDW'
nosym = .true.
nspin = 1
ntyp = 2
nat = 16
/
&ELECTRONS
electron_maxstep = 200
mixing_beta = 0.1
conv_thr = 1e-06
/
&IONS
ion_dynamics = 'bfgs'
upscale = 1.0
/
&CELL
/

K_POINTS {automatic}
8 8 1 0 0 0

ATOMIC_SPECIES
Ir 192.2 Ir.pbe-n-rrkjus_psl.0.2.3.UPF
Sc 44.95 Sc.pbe-spn-rrkjus_psl.1.0.0.UPF

CELL_PARAMETERS {angstrom}
6.46830000 0.00000000 0.00000000
-0.00000000 6.46830000 0.00000000
0.00000000 0.00000000 24.85120000

ATOMIC_POSITIONS {angstrom}
Sc 0.00000000 0.00000000 -1.9234828799999981 0 0 0
Sc 0.00000000 0.00000000 1.31065229
Sc 0.00000000 3.23415000 -1.9234828799999981 0 0 0
Sc 0.00000000 3.23415000 1.31065229
Sc 3.23415000 0.00000000 -1.9234828799999981 0 0 0
Sc 3.23415000 -0.00000000 1.31065229
Sc 3.23415000 3.23415000 -1.9234828799999981 0 0 0
Sc 3.23415000 3.23415000 1.31065229
Ir 1.61707500 1.61707500 -0.3064152999999976 0 0 0
Ir 1.61707500 1.61707500 2.92771987
Ir 1.61707500 4.85122500 -0.3064152999999976 0 0 0
Ir 1.61707500 4.85122500 2.92771987
Ir 4.85122500 1.61707500 -0.3064152999999976 0 0 0
Ir 4.85122500 1.61707500 2.92771987
Ir 4.85122500 4.85122500 -0.3064152999999976 0 0 0
Ir 4.85122500 4.85122500 2.92771987
