&CONTROL
calculation = 'relax'
prefix = 'scf'
pseudo_dir = '/vol0004/mdt0/data/hp150275/u10028/POT_HYBRID_KKJUS_GBRV'
outdir = './data'
tprnfor = .true.
nstep = 50
disk_io = 'non'
/
&SYSTEM
ibrav = 0
ecutwfc = 50.0
ecutrho = 400
occupations = 'smearing'
smearing = 'mp'
degauss = 0.01
assume_isolated = 'esm'
esm_bc = 'bc1'
input_dft = 'BEEF-VDW'
nosym = .true.
nspin = 2
ntyp = 4
nat = 33
starting_magnetization(1) = 0.0
starting_magnetization(2) = 0.0
starting_magnetization(3) = 0.1
starting_magnetization(4) = 0.0
/
&ELECTRONS
electron_maxstep = 300
mixing_beta = 0.1
conv_thr = 1e-06
/
&IONS
ion_dynamics = 'bfgs'
upscale = 1.0
/
&CELL
/

K_POINTS {automatic}
9 6 2 0  0  0

ATOMIC_SPECIES
Al 26.98 Al.pbe-nl-rrkjus_psl.1.0.0.UPF
C 12.01 C.pbe-n-rrkjus_psl.1.0.0.UPF
Co 58.93 co_pbe_v1.2.uspp.F.UPF
V 50.94 V.pbe-spnl-rrkjus_psl.1.0.0.UPF

CELL_PARAMETERS {angstrom}
5.76795000 0.00000000 0.00000000
0.00000000 8.15711000 0.00000000
0.00000000 0.00000000 26.11780000

ATOMIC_POSITIONS {angstrom}
Al 0.00000000 0.00000000 -3.0589167399999972 0 0 0
Al 2.88397500 2.03927750 -1.0196389099999976 0 0 0
Al 2.88397500 6.11783250 -1.0196389099999976 0 0 0
Al 0.00000000 4.07855500 -3.0589167399999972 0 0 0
Al 0.00000000 4.07855500 1.01963891
Al 2.88397500 6.11783250 3.05891674
Al 2.88397500 2.03927750 3.05891674
Al 0.00000000 0.00000000 1.01963891
V 0.00000000 6.11783250 -1.0196389099999976 0 0 0
V 2.88397500 0.00000000 -3.0589167399999972 0 0 0
V 0.00000000 2.03927750 -1.0196389099999976 0 0 0
V 2.88397500 4.07855500 -3.0589167399999972 0 0 0
V 0.00000000 2.03927750 3.05891674
V 2.88397500 4.07855500 1.01963891
V 0.00000000 6.11783250 3.05891674
V 2.88397500 0.00000000 1.01963891
Co 1.44198750 0.00000000 -1.0196389099999976 0 0 0
Co 4.32596250 4.07855500 -1.0196389099999976 0 0 0
Co 4.32596250 0.00000000 -1.0196389099999976 0 0 0
Co 1.44198750 4.07855500 -1.0196389099999976 0 0 0
Co 4.32596250 6.11783250 -3.0589167399999972 0 0 0
Co 1.44198750 2.03927750 -3.0589167399999972 0 0 0
Co 1.44198750 6.11783250 -3.0589167399999972 0 0 0
Co 4.32596250 2.03927750 -3.0589167399999972 0 0 0
Co 1.44198750 4.07855500 3.05891674
Co 4.32596250 0.00000000 3.05891674
Co 4.32596250 4.07855500 3.05891674
Co 1.44198750 0.00000000 3.05891674
Co 4.32596250 2.03927750 1.01963891
Co 1.44198750 6.11783250 1.01963891
Co 1.44198750 2.03927750 1.01963891
Co 4.32596250 6.11783250 1.01963891
C 0.00000000 0.00000000 3.85890495
