&CONTROL
calculation = 'relax'
prefix = 'scf'
pseudo_dir = '/vol0004/mdt0/data/hp150275/u10028/POT_KKJUS'
outdir = './data'
tprnfor = .true.
nstep = 50
disk_io = 'non'
/
&SYSTEM
ibrav = 0
ecutwfc = 50.0
ecutrho = 400
occupations = 'smearing'
smearing = 'mp'
degauss = 0.01
assume_isolated = 'esm'
esm_bc = 'bc1'
input_dft = 'BEEF-VDW'
nosym = .true.
nspin = 1
ntyp = 5
nat = 34
/
&ELECTRONS
electron_maxstep = 200
mixing_beta = 0.1
conv_thr = 1e-06
/
&IONS
ion_dynamics = 'bfgs'
upscale = 1.0
/
&CELL
/

K_POINTS {automatic}
9 6 2 0  0  0

ATOMIC_SPECIES
Ag 107.8 Ag.pbe-n-rrkjus_psl.1.0.0.UPF
C 12.01 C.pbe-n-rrkjus_psl.1.0.0.UPF
In 114.8 In.pbe-dn-rrkjus_psl.1.0.0.UPF
O 15.99 O.pbe-n-rrkjus_psl.1.0.0.UPF
Sc 44.95 Sc.pbe-spn-rrkjus_psl.1.0.0.UPF

CELL_PARAMETERS {angstrom}
6.85473000 0.00000000 0.00000000
0.00000000 9.69405000 0.00000000
0.00000000 0.00000000 27.27050000

ATOMIC_POSITIONS {angstrom}
Sc 0.00000000 0.00000000 -3.63515765 0 0 0
Sc 3.42736500 2.42351250 -1.211628319999999 0 0 0
Sc 3.42736500 7.27053750 -1.211628319999999 0 0 0
Sc 0.00000000 4.84702500 -3.63515765 0 0 0
Sc 6.81627496 4.84702500 1.31961949
Sc 3.42743355 7.32007410 3.52634836
Sc 3.42757064 2.37407285 3.52634836
Sc 0.04866858 0.00000000 1.27571399
In 0.00000000 7.27053750 -1.211628319999999 0 0 0
In 3.42736500 0.00000000 -3.63515765 0 0 0
In 0.00000000 2.42351250 -1.211628319999999 0 0 0
In 3.42736500 4.84702500 -3.63515765 0 0 0
In 6.81332743 2.53557572 3.68697160
In 3.45080818 4.84692806 1.18299429
In 6.81339598 7.15847428 3.68697160
In 3.38856723 0.00000000 1.30325719
Ag 1.71368250 0.00000000 -1.211628319999999 0 0 0
Ag 5.14104750 4.84702500 -1.211628319999999 0 0 0
Ag 5.14104750 0.00000000 -1.211628319999999 0 0 0
Ag 1.71368250 4.84702500 -1.211628319999999 0 0 0
Ag 5.14104750 7.27053750 -3.63515765 0 0 0
Ag 1.71368250 2.42351250 -3.63515765 0 0 0
Ag 1.71368250 7.27053750 -3.63515765 0 0 0
Ag 5.14104750 2.42351250 -3.63515765 0 0 0
Ag 1.85742619 4.84702500 3.72051431
Ag 5.25168284 0.00000000 3.71860538
Ag 4.95843749 4.84702500 3.79905335
Ag 1.50550435 0.00000000 3.84759484
Ag 5.15461987 2.39956820 1.18135806
Ag 1.69126753 7.22759286 1.19853848
Ag 1.69119899 2.46636020 1.19853848
Ag 5.15461987 7.29438486 1.18135806
C 2.00260937 0.00019388 5.99869188
O 1.83761602 0.00000000 7.13369009
