&CONTROL
calculation = 'relax'
prefix = 'scf'
pseudo_dir = '/vol0403/data/hp230205/u10028/POT_HYBRID_KKJUS_GBRV'
outdir = './data'
tprnfor = .true.
nstep = 50
disk_io = 'non'
/
&SYSTEM
ibrav = 0
ecutwfc = 50.0
ecutrho = 400
occupations = 'smearing'
smearing = 'mp'
degauss = 0.01
assume_isolated = 'esm'
esm_bc = 'bc1'
input_dft = 'BEEF-VDW'
nosym = .true.
nspin = 1
ntyp = 5
nat = 33
/
&ELECTRONS
electron_maxstep = 200
mixing_beta = 0.1
conv_thr = 1e-06
/
&IONS
ion_dynamics = 'bfgs'
upscale = 1.0
/
&CELL
/

K_POINTS {automatic}
6 6 1 0 0 0

ATOMIC_SPECIES
C 12.01 C.pbe-n-rrkjus_psl.1.0.0.UPF
Ge 72.64 Ge.pbe-dn-rrkjus_psl.1.0.0.UPF
Li 6.941 Li.pbe-sl-rrkjus_psl.1.0.0.UPF
Pb 207.2 Pb.pbe-dn-rrkjus_psl.1.0.0.UPF
Y 88.90 Y.pbe-spn-rrkjus_psl.1.0.0.UPF


CELL_PARAMETERS {angstrom}
9.86128000 0.00000000 0.00000000
0.00000000 8.55406000 0.00000000
0.00000000 0.00000000 26.49120000

ATOMIC_POSITIONS {angstrom}
Li 2.46532000 2.13851500 -3.2457018200000007 0 0 0
Li 2.46532000 2.13851500 1.07315851
Li 2.46532000 6.41554500 -3.2457018200000007 0 0 0
Li 2.46532000 6.41554500 1.11951811
Li 7.39596000 2.13851500 -3.2457018200000007 0 0 0
Li 7.39596000 2.13851500 1.10600760
Li 7.39596000 6.41554500 -3.2457018200000007 0 0 0
Li 7.39596000 6.41554500 1.05170064
Y 0.00000000 2.13851500 -1.0819006099999982 0 0 0
Y 0.17000847 2.13851500 3.13549843
Y 0.00000000 6.41554500 -1.0819006099999982 0 0 0
Y 9.77972721 6.41554500 3.16596331
Y 4.93064000 2.13851500 -1.0819006099999982 0 0 0
Y 4.76063153 2.13851500 3.13549843
Y 4.93064000 6.41554500 -1.0819006099999982 0 0 0
Y 5.01229140 6.41554500 3.16596331
Ge 0.00000000 0.00000000 -3.2457018200000007 0 0 0
Ge 9.68150887 8.52420633 1.13806195
Ge 0.00000000 4.27703000 -3.2457018200000007 0 0 0
Ge 9.68150887 4.30688367 1.13806195
Ge 4.93064000 0.00000000 -3.2457018200000007 0 0 0
Ge 5.11041113 8.52420633 1.13806195
Ge 4.93064000 4.27703000 -3.2457018200000007 0 0 0
Ge 5.11041113 4.30688367 1.13806195
Pb 2.46532000 0.00000000 -1.0819006099999982 0 0 0
Pb 2.46532000 8.38186677 3.83830997
Pb 2.46532000 4.27703000 -1.0819006099999982 0 0 0
Pb 2.46532000 4.44922323 3.83830997
Pb 7.39596000 0.00000000 -1.0819006099999982 0 0 0
Pb 7.39596000 0.05286409 3.35802451
Pb 7.39596000 4.27703000 -1.0819006099999982 0 0 0
Pb 7.39596000 4.22416591 3.35802451
C 2.46532000 2.13851500 3.15483701
