&CONTROL
calculation = 'relax'
prefix = 'scf'
pseudo_dir = '/vol0403/data/hp230205/u10028/POT_HYBRID_KKJUS_GBRV'
outdir = './data'
tprnfor = .true.
nstep = 50
disk_io = 'non'
/
&SYSTEM
ibrav = 0
ecutwfc = 50.0
ecutrho = 400
occupations = 'smearing'
smearing = 'mp'
degauss = 0.01
assume_isolated = 'esm'
esm_bc = 'bc1'
input_dft = 'BEEF-VDW'
nosym = .true.
nspin = 1
ntyp = 4
nat = 16
/
&ELECTRONS
electron_maxstep = 200
mixing_beta = 0.1
conv_thr = 1e-06
/
&IONS
ion_dynamics = 'bfgs'
upscale = 1.0
/
&CELL
/

K_POINTS {automatic}
11 8 3 0  0  0

ATOMIC_SPECIES
In 114.8 In.pbe-dn-rrkjus_psl.1.0.0.UPF
Li 6.941 Li.pbe-sl-rrkjus_psl.1.0.0.UPF
Pb 207.2 Pb.pbe-dn-rrkjus_psl.1.0.0.UPF
Y 88.90 Y.pbe-spn-rrkjus_psl.1.0.0.UPF


CELL_PARAMETERS {angstrom}
6.51578000 0.00000000 0.00000000
0.00000000 9.32892000 0.00000000
0.00000000 0.00000000 24.88170000

ATOMIC_POSITIONS {angstrom}
Li 1.55433932 2.33223000 -0.81363159 0 0 0
Li 4.21017125 2.33232329 2.44711519
Li 1.55433932 6.99669000 -0.81363159 0 0 0
Li 4.21010609 6.99659671 2.44736401
Y 3.25789000 0.00000000 -2.44089477 0 0 0
Y 6.12124952 0.00000000 0.89424830
Y 3.25789000 4.66446000 -2.44089477 0 0 0
Y 6.12124952 4.66436671 0.89424830
In 0.00000000 0.00000000 -2.44089477 0 0 0
In 2.81696717 0.00000000 1.04328968
In 0.00000000 4.66446000 -2.44089477 0 0 0
In 2.81690201 4.66446000 1.04328968
Pb 4.81222932 2.33223000 -0.81363159 0 0 0
Pb 1.17961681 2.33232329 2.46876227
Pb 4.81222932 6.99669000 -0.81363159 0 0 0
Pb 1.17961681 6.99659671 2.46851346
