&CONTROL
calculation = 'relax'
prefix = 'scf'
pseudo_dir = '/vol0403/data/hp230205/u10028/POT_HYBRID_KKJUS_GBRV'
outdir = './data'
tprnfor = .true.
nstep = 50
disk_io = 'non'
/
&SYSTEM
ibrav = 0
ecutwfc = 50.0
ecutrho = 400
occupations = 'smearing'
smearing = 'mp'
degauss = 0.01
assume_isolated = 'esm'
esm_bc = 'bc1'
input_dft = 'BEEF-VDW'
nosym = .true.
nspin = 1
ntyp = 6
nat = 34
/
&ELECTRONS
electron_maxstep = 200
mixing_beta = 0.1
conv_thr = 1e-06
/
&IONS
ion_dynamics = 'bfgs'
upscale = 1.0
/
&CELL
/

K_POINTS {automatic}
6 7 2 0  0  0

ATOMIC_SPECIES
C 12.01 C.pbe-n-rrkjus_psl.1.0.0.UPF
Ge 72.64 Ge.pbe-dn-rrkjus_psl.1.0.0.UPF
Li 6.941 Li.pbe-sl-rrkjus_psl.1.0.0.UPF
O 15.99 O.pbe-n-rrkjus_psl.1.0.0.UPF
Sn 118.7 Sn.pbe-dn-rrkjus_psl.1.0.0.UPF
Y 88.90 Y.pbe-spn-rrkjus_psl.1.0.0.UPF


CELL_PARAMETERS {angstrom}
9.43388000 0.00000000 0.00000000
0.00000000 8.60818000 0.00000000
0.00000000 0.00000000 26.39560000

ATOMIC_POSITIONS {angstrom}
Li 2.38743201 0.00000000 1.45677316
Li 2.35847000 0.00000000 -3.1978269400000023 0 0 0
Li 2.41762043 4.30409000 1.27754704
Li 2.35847000 4.30409000 -3.1978269400000023 0 0 0
Li 7.04644799 0.00000000 1.45677316
Li 7.07541000 0.00000000 -3.1978269400000023 0 0 0
Li 7.01625957 4.30409000 1.27754704
Li 7.07541000 4.30409000 -3.1978269400000023 0 0 0
Y 0.00000000 2.20877291 1.03813895
Y 0.00000000 2.15204500 -3.1978269400000023 0 0 0
Y 0.00000000 6.39940709 1.03813895
Y 0.00000000 6.45613500 -3.1978269400000023 0 0 0
Y 4.71694000 2.11942000 0.97426160
Y 4.71694000 2.15204500 -3.1978269400000023 0 0 0
Y 4.71694000 6.48876000 0.97426160
Y 4.71694000 6.45613500 -3.1978269400000023 0 0 0
Sn 2.59016609 2.30423762 3.67901873
Sn 2.35847000 2.15204500 -1.0658543300000005 0 0 0
Sn 2.59016609 6.30394238 3.67901873
Sn 2.35847000 6.45613500 -1.0658543300000005 0 0 0
Sn 6.84371391 2.30415154 3.67901873
Sn 7.07541000 2.15204500 -1.0658543300000005 0 0 0
Sn 6.84380825 6.30394238 3.67901873
Sn 7.07541000 6.45613500 -1.0658543300000005 0 0 0
Ge 0.00000000 0.00000000 2.88926238
Ge 0.00000000 0.00000000 -1.0658543300000005 0 0 0
Ge 0.00000000 4.30409000 3.10174696
Ge 0.00000000 4.30409000 -1.0658543300000005 0 0 0
Ge 4.71694000 0.00000000 3.09989926
Ge 4.71694000 0.00000000 -1.0658543300000005 0 0 0
Ge 4.71694000 4.30409000 2.98692610
Ge 4.71694000 4.30409000 -1.0658543300000005 0 0 0
C 0.00000000 0.00000000 4.79080140
O 0.00000000 0.00000000 5.94851242
