&CONTROL
calculation = 'relax'
prefix = 'scf'
pseudo_dir = '/vol0004/mdt0/data/hp150275/u10028/POT_KKJUS'
outdir = './data'
tprnfor = .true.
nstep = 50
disk_io = 'non'
/
&SYSTEM
ibrav = 0
ecutwfc = 50.0
ecutrho = 400
occupations = 'smearing'
smearing = 'mp'
degauss = 0.01
assume_isolated = 'esm'
esm_bc = 'bc1'
input_dft = 'BEEF-VDW'
nosym = .true.
nspin = 1
ntyp = 2
nat = 16
/
&ELECTRONS
electron_maxstep = 200
mixing_beta = 0.1
conv_thr = 1e-06
/
&IONS
ion_dynamics = 'bfgs'
upscale = 1.0
/
&CELL
/

K_POINTS {automatic}
8 8 1 0 0 0

ATOMIC_SPECIES
Ca 40.07 Ca.pbe-spn-rrkjus_psl.1.0.0.UPF
Pd 106.4 Pd.pbe-n-rrkjus_psl.1.0.0.UPF

CELL_PARAMETERS {angstrom}
7.14855000 0.00000000 0.00000000
-0.00000000 7.14855000 0.00000000
0.00000000 0.00000000 25.36140000

ATOMIC_POSITIONS {angstrom}
Ca 0.00000000 0.00000000 -3.0854679199999993 0 0 0
Ca 0.00000000 0.00000000 0.48896779
Ca 0.00000000 3.57427500 -3.0854679199999993 0 0 0
Ca 0.00000000 3.57427500 0.48896779
Ca 3.57427500 0.00000000 -3.0854679199999993 0 0 0
Ca 3.57427500 -0.00000000 0.48896779
Ca 3.57427500 3.57427500 -3.0854679199999993 0 0 0
Ca 3.57427500 3.57427500 0.48896779
Pd 1.78713750 1.78713750 -1.2982500699999981 0 0 0
Pd 1.78713750 1.78713750 2.27593204
Pd 1.78713750 5.36141250 -1.2982500699999981 0 0 0
Pd 1.78713750 5.36141250 2.27593204
Pd 5.36141250 1.78713750 -1.2982500699999981 0 0 0
Pd 5.36141250 1.78713750 2.27593204
Pd 5.36141250 5.36141250 -1.2982500699999981 0 0 0
Pd 5.36141250 5.36141250 2.27593204
