&CONTROL
calculation = 'relax'
prefix = 'scf'
pseudo_dir = '/vol0004/mdt0/data/hp150275/u10028/POT_KKJUS'
outdir = './data'
tprnfor = .true.
nstep = 50
disk_io = 'non'
/
&SYSTEM
ibrav = 0
ecutwfc = 50.0
ecutrho = 400
occupations = 'smearing'
smearing = 'mp'
degauss = 0.01
assume_isolated = 'esm'
esm_bc = 'bc1'
input_dft = 'BEEF-VDW'
nosym = .true.
nspin = 1
ntyp = 3
nat = 17
/
&ELECTRONS
electron_maxstep = 200
mixing_beta = 0.1
conv_thr = 1e-06
/
&IONS
ion_dynamics = 'bfgs'
upscale = 1.0
/
&CELL
/

K_POINTS {automatic}
6 8 1 0 0 0

ATOMIC_SPECIES
Al 26.98 Al.pbe-nl-rrkjus_psl.1.0.0.UPF
C 12.01 C.pbe-n-rrkjus_psl.1.0.0.UPF
Zr 91.22 Zr.pbe-spn-rrkjus_psl.1.0.0.UPF

CELL_PARAMETERS {angstrom}
8.76540000 0.00000000 0.00000000
0.00000000 6.19807000 0.00000000
0.00000000 0.00000000 24.64860000

ATOMIC_POSITIONS {angstrom}
Zr 0.00000000 3.09903500 -2.3243629799999965 0 0 0
Zr 2.19135000 4.64855250 -0.7747054999999996 0 0 0
Zr 2.19135000 1.54951750 -0.7747054999999996 0 0 0
Zr 0.00008765 0.00000000 0.38254627
Zr 1.68155434 1.53997247 2.38179422
Zr 1.68155434 4.65809753 2.38179422
Zr 4.38270000 3.09903500 -2.3243629799999965 0 0 0
Zr 6.57405000 4.64855250 -0.7747054999999996 0 0 0
Zr 6.57405000 1.54951750 -0.7747054999999996 0 0 0
Zr 4.38261235 0.00000000 0.81907298
Zr 7.08393332 1.53997247 2.38179422
Zr 7.08393332 4.65809753 2.38204070
Al 0.00000000 0.00000000 -2.3243629799999965 0 0 0
Al 0.00000000 3.09903500 0.53906488
Al 4.38270000 0.00000000 -2.3243629799999965 0 0 0
Al 4.38270000 3.09903500 0.84396806
C 0.00000000 0.00000000 2.68250714
