&CONTROL
calculation = 'relax'
prefix = 'scf'
pseudo_dir = '/vol0004/mdt0/data/hp150275/u10028/POT_KKJUS'
outdir = './data'
tprnfor = .true.
nstep = 50
disk_io = 'non'
/
&SYSTEM
ibrav = 0
ecutwfc = 50.0
ecutrho = 400
occupations = 'smearing'
smearing = 'mp'
degauss = 0.01
assume_isolated = 'esm'
esm_bc = 'bc1'
input_dft = 'BEEF-VDW'
nosym = .true.
nspin = 1
ntyp = 4
nat = 18
/
&ELECTRONS
electron_maxstep = 200
mixing_beta = 0.1
conv_thr = 1e-06
/
&IONS
ion_dynamics = 'bfgs'
upscale = 1.0
/
&CELL
/

K_POINTS {automatic}
6 8 1 0 0 0

ATOMIC_SPECIES
C 12.01 C.pbe-n-rrkjus_psl.1.0.0.UPF
O 15.99 O.pbe-n-rrkjus_psl.1.0.0.UPF
Pb 207.2 Pb.pbe-dn-rrkjus_psl.1.0.0.UPF
Pt 195.0 Pt.pbe-n-rrkjus_psl.1.0.0.UPF

CELL_PARAMETERS {angstrom}
8.34058000 0.00000000 0.00000000
0.00000000 5.89768000 0.00000000
0.00000000 0.00000000 24.42330000

ATOMIC_POSITIONS {angstrom}
Pt 0.00000000 2.94884000 1.97096031
Pt 2.08531181 4.48654211 0.85799053
Pt 2.08531181 1.41107892 0.85799053
Pt 0.00000000 0.00000000 -0.7370951900000016 0 0 0
Pt 2.08514500 1.47442000 -2.2115298200000026 0 0 0
Pt 2.08514500 4.42326000 -2.2115298200000026 0 0 0
Pt 4.17029000 2.94884000 1.96949491
Pt 6.25526819 4.48660108 0.85799053
Pt 6.25526819 1.41113789 0.85799053
Pt 4.17029000 0.00000000 -0.7370951900000016 0 0 0
Pt 6.25543500 1.47442000 -2.2115298200000026 0 0 0
Pt 6.25543500 4.42326000 -2.2115298200000026 0 0 0
Pb 0.00000000 0.00000000 2.41399897
Pb 0.00000000 2.94884000 -0.7370951900000016 0 0 0
Pb 4.17029000 0.00000000 2.41717400
Pb 4.17029000 2.94884000 -0.7370951900000016 0 0 0
C 0.00016681 5.89756205 6.33369439
O 0.00000000 0.00000000 7.46815667
