&CONTROL
calculation = 'relax'
prefix = 'scf'
pseudo_dir = '/vol0403/data/hp230205/u10028/POT_HYBRID_KKJUS_GBRV'
outdir = './data'
tprnfor = .true.
nstep = 70
disk_io = 'non'
/
&SYSTEM
ibrav = 0
ecutwfc = 50.0
ecutrho = 400
occupations = 'smearing'
smearing = 'mp'
degauss = 0.01
assume_isolated = 'esm'
esm_bc = 'bc1'
input_dft = 'BEEF-VDW'
nosym = .true.
nspin = 1
ntyp = 5
nat = 33
/
&ELECTRONS
electron_maxstep = 200
mixing_beta = 0.1
conv_thr = 1e-06
/
&IONS
ion_dynamics = 'bfgs'
upscale = 1.0
/
&CELL
/

K_POINTS {automatic}
6 6 1 0 0 0

ATOMIC_SPECIES
C 12.01 C.pbe-n-rrkjus_psl.1.0.0.UPF
Ga 69.72 Ga.pbe-dnl-rrkjus_psl.1.0.0.UPF
Li 6.941 Li.pbe-sl-rrkjus_psl.1.0.0.UPF
Mg 24.30 Mg.pbe-spnl-rrkjus_psl.1.0.0.UPF
Pt 195.0 Pt.pbe-n-rrkjus_psl.1.0.0.UPF


CELL_PARAMETERS {angstrom}
6.26200000 0.00000000 0.00000000
-0.00000000 8.85580000 0.00000000
0.00000000 0.00000000 26.64190000

ATOMIC_POSITIONS {angstrom}
Li 1.56550000 0.00000000 -1.106970950000001 0 0 0
Li 1.56550000 4.42790000 -1.106970950000001 0 0 0
Li 4.69650000 2.21395000 -3.3209128399999983 0 0 0
Li 4.69650000 6.64185000 -3.3209128399999983 0 0 0
Li 1.83946250 4.63813669 3.67525010
Li 1.83939988 8.64556331 3.67525010
Li 4.73407200 6.64185000 1.02065119
Li 4.66663026 2.21395000 1.36193393
Mg 0.00000000 2.21395000 -1.106970950000001 0 0 0
Mg 0.00000000 6.64185000 -1.106970950000001 0 0 0
Mg 3.13100000 4.42790000 -3.3209128399999983 0 0 0
Mg 3.13100000 0.00000000 -3.3209128399999983 0 0 0
Mg 6.09874966 6.64185000 3.35874433
Mg 0.38630278 2.21403856 3.37686083
Mg 3.08891936 8.83994812 1.10963513
Mg 3.08885674 4.44384044 1.10963513
Ga 0.00000000 0.00000000 -3.3209128399999983 0 0 0
Ga 0.00000000 4.42790000 -3.3209128399999983 0 0 0
Ga 3.13100000 6.64185000 -1.106970950000001 0 0 0
Ga 3.13100000 2.21395000 -1.106970950000001 0 0 0
Ga 0.02817900 4.41417351 1.19302428
Ga 0.02817900 0.01372649 1.19302428
Ga 2.80468718 2.21395000 4.32557888
Ga 3.39250112 6.64185000 3.26576410
Pt 4.69650000 0.00000000 -1.106970950000001 0 0 0
Pt 4.69650000 4.42790000 -1.106970950000001 0 0 0
Pt 1.56550000 2.21395000 -3.3209128399999983 0 0 0
Pt 1.56550000 6.64185000 -3.3209128399999983 0 0 0
Pt 4.61941478 4.24989842 3.23139605
Pt 4.61947740 0.17800158 3.23139605
Pt 1.52611202 6.64185000 1.16558312
Pt 1.55435364 2.21395000 0.94152475
C 4.60225690 2.21395000 3.68191058
