&CONTROL
calculation = 'relax'
prefix = 'scf'
pseudo_dir = '/vol0004/mdt0/data/hp150275/u10028/POT_KKJUS'
outdir = './data'
tprnfor = .true.
nstep = 50
disk_io = 'non'
/
&SYSTEM
ibrav = 0
ecutwfc = 50.0
ecutrho = 400
occupations = 'smearing'
smearing = 'mp'
degauss = 0.01
assume_isolated = 'esm'
esm_bc = 'bc1'
input_dft = 'BEEF-VDW'
nosym = .true.
nspin = 1
ntyp = 3
nat = 17
/
&ELECTRONS
electron_maxstep = 200
mixing_beta = 0.1
conv_thr = 1e-06
/
&IONS
ion_dynamics = 'bfgs'
upscale = 1.0
/
&CELL
/

K_POINTS {automatic}
8 8 1 0 0 0

ATOMIC_SPECIES
C 12.01 C.pbe-n-rrkjus_psl.1.0.0.UPF
Sb 121.7 Sb.pbe-n-rrkjus_psl.1.0.0.UPF
Sn 118.7 Sn.pbe-dn-rrkjus_psl.1.0.0.UPF

CELL_PARAMETERS {angstrom}
7.64519000 0.00000000 0.00000000
0.00000000 7.64519000 0.00000000
0.00000000 0.00000000 25.73390000

ATOMIC_POSITIONS {angstrom}
Sn 1.91129750 1.91129750 -0.9434047699999972 0 0 0
Sn 1.64172810 1.64180455 3.46120955
Sn 1.91129750 5.73389250 -0.9434047699999972 0 0 0
Sn 1.64172810 6.00330900 3.46069487
Sn 5.73389250 1.91129750 -0.9434047699999972 0 0 0
Sn 6.00346190 1.64195746 3.46095221
Sn 5.73389250 5.73389250 -0.9434047699999972 0 0 0
Sn 6.00346190 6.00330900 3.46120955
Sb 0.00000000 0.00000000 -2.8549188699999988 0 0 0
Sb 0.00000000 0.00000000 0.76584086
Sb 0.00000000 3.82259500 -2.8549188699999988 0 0 0
Sb 0.00000000 3.82259500 1.84692200
Sb 3.82259500 0.00000000 -2.8549188699999988 0 0 0
Sb 3.82259500 0.00000000 1.84692200
Sb 3.82259500 3.82259500 -2.8549188699999988 0 0 0
Sb 3.82259500 3.82259500 0.41508781
C 0.00000000 0.00000000 3.03891625
