&CONTROL
calculation = 'relax'
prefix = 'scf'
pseudo_dir = '/vol0403/data/hp230205/u10028/POT_HYBRID_KKJUS_GBRV'
outdir = './data'
tprnfor = .true.
nstep = 50
disk_io = 'non'
/
&SYSTEM
ibrav = 0
ecutwfc = 50.0
ecutrho = 400
occupations = 'smearing'
smearing = 'mp'
degauss = 0.01
assume_isolated = 'esm'
esm_bc = 'bc1'
input_dft = 'BEEF-VDW'
nosym = .true.
nspin = 1
ntyp = 5
nat = 17
/
&ELECTRONS
electron_maxstep = 200
mixing_beta = 0.1
conv_thr = 1e-06
/
&IONS
ion_dynamics = 'bfgs'
upscale = 1.0
/
&CELL
/

K_POINTS {automatic}
11 8 2 0  0  0

ATOMIC_SPECIES
Ag 107.8 Ag.pbe-n-rrkjus_psl.1.0.0.UPF
Al 26.98 Al.pbe-nl-rrkjus_psl.1.0.0.UPF
C 12.01 C.pbe-n-rrkjus_psl.1.0.0.UPF
Li 6.941 Li.pbe-sl-rrkjus_psl.1.0.0.UPF
Sn 118.7 Sn.pbe-dn-rrkjus_psl.1.0.0.UPF


CELL_PARAMETERS {angstrom}
5.95223000 0.00000000 0.00000000
0.00000000 8.56020000 0.00000000
0.00000000 0.00000000 24.45610000

ATOMIC_POSITIONS {angstrom}
Li 1.29157439 2.14005000 0.79824710
Li 4.19602454 2.14005000 -2.2279507099999982 0 0 0
Li 1.16550616 6.42015000 0.79042115
Li 4.19602454 6.42015000 -2.2279507099999982 0 0 0
Al 2.55428046 0.24944423 2.52411408
Al 5.77348453 0.00000000 -0.7427317599999981 0 0 0
Al 2.55428046 4.03065577 2.52411408
Al 5.77348453 4.28010000 -0.7427317599999981 0 0 0
Ag 5.93740895 8.43034177 2.10102355
Ag 2.79736953 0.00000000 -0.7427317599999981 0 0 0
Ag 5.93734943 4.40995823 2.10102355
Ag 2.79736953 4.28010000 -0.7427317599999981 0 0 0
Sn 4.36863921 2.14005000 0.72023214
Sn 1.21990954 2.14005000 -2.2279507099999982 0 0 0
Sn 3.98454181 6.42015000 1.35071040
Sn 1.21990954 6.42015000 -2.2279507099999982 0 0 0
C 2.86968913 2.14005000 2.32748704
