&CONTROL
calculation = 'relax'
prefix = 'scf'
pseudo_dir = '/vol0004/mdt0/data/hp150275/u10028/POT_HYBRID_KKJUS_GBRV'
outdir = './data'
tprnfor = .true.
nstep = 50
disk_io = 'non'
/
&SYSTEM
ibrav = 0
ecutwfc = 50.0
ecutrho = 400
occupations = 'smearing'
smearing = 'mp'
degauss = 0.01
assume_isolated = 'esm'
esm_bc = 'bc1'
input_dft = 'BEEF-VDW'
nosym = .true.
nspin = 2
ntyp = 3
nat = 32
starting_magnetization(1) = 0.0
starting_magnetization(2) = 0.001
starting_magnetization(3) = 0.0
/
&ELECTRONS
electron_maxstep = 300
mixing_beta = 0.1
conv_thr = 1e-06
/
&IONS
ion_dynamics = 'bfgs'
upscale = 1.0
/
&CELL
/

K_POINTS {automatic}
8 6 1 0 0 0

ATOMIC_SPECIES
Li 6.941 Li.pbe-sl-rrkjus_psl.1.0.0.UPF
Ni 58.69 ni_pbe_v1.4.uspp.F.UPF
Sn 118.7 Sn.pbe-dn-rrkjus_psl.1.0.0.UPF

CELL_PARAMETERS {angstrom}
6.04935000 0.00000000 0.00000000
0.00000000 8.55507000 0.00000000
0.00000000 0.00000000 26.41630000

ATOMIC_POSITIONS {angstrom}
Li 0.00000000 0.00000000 -3.2082596300000006 0 0 0
Li 3.02467500 2.13876750 -1.0693318199999986 0 0 0
Li 3.02467500 6.41630250 -1.0693318199999986 0 0 0
Li 0.00000000 4.27753500 -3.2082596300000006 0 0 0
Li 0.00000000 4.27762055 0.92985376
Li 3.02467500 6.41630250 3.39766451
Li 3.02467500 2.13876750 3.39766451
Li 0.00000000 8.55498445 0.92985376
Ni 1.51233750 0.00000000 -1.0693318199999986 0 0 0
Ni 4.53701250 4.27753500 -1.0693318199999986 0 0 0
Ni 4.53701250 0.00000000 -1.0693318199999986 0 0 0
Ni 1.51233750 4.27753500 -1.0693318199999986 0 0 0
Ni 4.53701250 6.41630250 -3.2082596300000006 0 0 0
Ni 1.51233750 2.13876750 -3.2082596300000006 0 0 0
Ni 1.51233750 6.41630250 -3.2082596300000006 0 0 0
Ni 4.53701250 2.13876750 -3.2082596300000006 0 0 0
Ni 1.30744602 4.27779165 2.95202153
Ni 4.74184349 8.55481335 2.95228569
Ni 4.74190398 4.27779165 2.95202153
Ni 1.30750651 8.55481335 2.95228569
Ni 4.59423935 2.13893860 1.15782643
Ni 1.45511065 6.41613140 1.15756227
Ni 1.45511065 2.13893860 1.15756227
Ni 4.59423935 6.41613140 1.15756227
Sn 0.00000000 6.41630250 -1.0693318199999986 0 0 0
Sn 3.02467500 0.00000000 -3.2082596300000006 0 0 0
Sn 0.00000000 2.13876750 -1.0693318199999986 0 0 0
Sn 3.02467500 4.27753500 -3.2082596300000006 0 0 0
Sn 0.00000000 2.13876750 3.45604453
Sn 3.02467500 4.27770610 1.06378440
Sn 0.00000000 6.41630250 3.45578037
Sn 3.02467500 8.55489890 1.06378440
