&CONTROL
calculation = 'relax'
prefix = 'scf'
pseudo_dir = '/vol0004/mdt0/data/hp150275/u10028/POT_KKJUS'
outdir = './data'
tprnfor = .true.
nstep = 50
disk_io = 'non'
/
&SYSTEM
ibrav = 0
ecutwfc = 50.0
ecutrho = 400
occupations = 'smearing'
smearing = 'mp'
degauss = 0.01
assume_isolated = 'esm'
esm_bc = 'bc1'
input_dft = 'BEEF-VDW'
nosym = .true.
nspin = 1
ntyp = 5
nat = 34
/
&ELECTRONS
electron_maxstep = 200
mixing_beta = 0.1
conv_thr = 1e-06
/
&IONS
ion_dynamics = 'bfgs'
upscale = 1.0
/
&CELL
/

K_POINTS {automatic}
9 6 2 0  0  0

ATOMIC_SPECIES
Al 26.98 Al.pbe-nl-rrkjus_psl.1.0.0.UPF
C 12.01 C.pbe-n-rrkjus_psl.1.0.0.UPF
Ni 58.69 Ni.pbe-spn-rrkjus_psl.1.0.0.UPF
O 15.99 O.pbe-n-rrkjus_psl.1.0.0.UPF
V 50.94 V.pbe-spnl-rrkjus_psl.1.0.0.UPF

CELL_PARAMETERS {angstrom}
5.81624000 0.00000000 0.00000000
0.00000000 8.22541000 0.00000000
0.00000000 0.00000000 26.16910000

ATOMIC_POSITIONS {angstrom}
Al 0.00000000 0.00000000 -3.0845518200000015 0 0 0
Al 2.90812000 2.05635250 -1.0281839400000017 0 0 0
Al 2.90812000 6.16905750 -1.0281839400000017 0 0 0
Al 0.00000000 4.11270500 -3.0845518200000015 0 0 0
Al 5.81344820 4.11295176 0.97061192
Al 2.92138103 6.12784820 3.14055369
Al 2.92143919 2.09509418 3.14133876
Al 0.03425765 0.00032902 1.04388540
V 0.00000000 6.16905750 -1.0281839400000017 0 0 0
V 2.90812000 0.00000000 -3.0845518200000015 0 0 0
V 0.00000000 2.05635250 -1.0281839400000017 0 0 0
V 2.90812000 4.11270500 -3.0845518200000015 0 0 0
V 5.81589103 2.05413164 3.06544837
V 2.91341278 4.11270500 1.03629636
V 5.81496043 6.16881074 3.06544837
V 2.88095816 0.00000000 1.06822266
Ni 1.45406000 0.00000000 -1.0281839400000017 0 0 0
Ni 4.36218000 4.11270500 -1.0281839400000017 0 0 0
Ni 4.36218000 0.00000000 -1.0281839400000017 0 0 0
Ni 1.45406000 4.11270500 -1.0281839400000017 0 0 0
Ni 4.36218000 6.16905750 -3.0845518200000015 0 0 0
Ni 1.45406000 2.05635250 -3.0845518200000015 0 0 0
Ni 1.45406000 6.16905750 -3.0845518200000015 0 0 0
Ni 4.36218000 2.05635250 -3.0845518200000015 0 0 0
Ni 1.37885602 4.11122443 2.94480882
Ni 4.34699961 8.22475197 2.94533221
Ni 4.44953992 4.11114217 2.96391227
Ni 1.48034940 8.22401168 3.26982905
Ni 4.36660034 2.05001893 1.06220377
Ni 1.45307124 6.16239492 1.07528832
Ni 1.45336205 2.06375537 1.07450325
Ni 4.36689115 6.17662488 1.06115701
C 0.90174985 8.22376492 4.94020270
O 0.63402832 8.22450520 6.07123120
