&CONTROL
calculation = 'relax'
prefix = 'scf'
pseudo_dir = '/vol0004/mdt0/data/hp150275/u10028/POT_KKJUS'
outdir = './data'
tprnfor = .true.
nstep = 50
disk_io = 'non'
/
&SYSTEM
ibrav = 0
ecutwfc = 50.0
ecutrho = 400
occupations = 'smearing'
smearing = 'mp'
degauss = 0.01
assume_isolated = 'esm'
esm_bc = 'bc1'
input_dft = 'BEEF-VDW'
nosym = .true.
nspin = 1
ntyp = 4
nat = 34
/
&ELECTRONS
electron_maxstep = 200
mixing_beta = 0.1
conv_thr = 1e-06
/
&IONS
ion_dynamics = 'bfgs'
upscale = 1.0
/
&CELL
/

K_POINTS {automatic}
9 6 1 0  0  0

ATOMIC_SPECIES
Be 9.012 Be.pbe-n-rrkjus_psl.1.0.0.UPF
C 12.01 C.pbe-n-rrkjus_psl.1.0.0.UPF
Ni 58.69 Ni.pbe-spn-rrkjus_psl.1.0.0.UPF
O 15.99 O.pbe-n-rrkjus_psl.1.0.0.UPF

CELL_PARAMETERS {angstrom}
5.23991000 0.00000000 0.00000000
0.00000000 7.41035000 0.00000000
0.00000000 0.00000000 25.55780000

ATOMIC_POSITIONS {angstrom}
Be 0.00000000 0.00000000 -2.7788995900000018 0 0 0
Be 0.00000000 1.85258750 -0.9262146700000002 0 0 0
Be 0.00927464 0.00000000 0.94231609
Be 5.23393650 1.87733807 2.77276572
Be 0.00000000 3.70517500 -2.7788995900000018 0 0 0
Be 0.00000000 5.55776250 -0.9262146700000002 0 0 0
Be 0.00073359 3.70517500 0.93669337
Be 5.23388410 5.53308603 2.77276572
Be 2.61995500 0.00000000 -2.7788995900000018 0 0 0
Be 2.61995500 1.85258750 -0.9262146700000002 0 0 0
Be 2.61062796 0.00000000 0.94231609
Be 2.62587610 1.87733807 2.77276572
Be 2.61995500 3.70517500 -2.7788995900000018 0 0 0
Be 2.61995500 5.55776250 -0.9262146700000002 0 0 0
Be 2.61927381 3.70517500 0.93669337
Be 2.62598090 5.53308603 2.77276572
Ni 1.30997750 1.85258750 -2.7788995900000018 0 0 0
Ni 1.30997750 0.00000000 -0.9262146700000002 0 0 0
Ni 1.31018710 1.82872617 0.93132623
Ni 1.31002990 3.70517500 2.72369475
Ni 1.30997750 5.55776250 -2.7788995900000018 0 0 0
Ni 1.30997750 3.70517500 -0.9262146700000002 0 0 0
Ni 1.31002990 5.58169793 0.93158181
Ni 1.30982030 0.00000000 2.86630727
Ni 3.92993250 1.85258750 -2.7788995900000018 0 0 0
Ni 3.92993250 0.00000000 -0.9262146700000002 0 0 0
Ni 3.92993250 1.84947515 0.91650271
Ni 3.92998490 3.70510090 2.74899697
Ni 3.92993250 5.55776250 -2.7788995900000018 0 0 0
Ni 3.92993250 3.70517500 -0.9262146700000002 0 0 0
Ni 3.92998490 5.56080074 0.91624713
Ni 3.92977530 0.00014821 2.72982862
C 1.30987270 0.00000000 4.63567376
O 1.30987270 0.00007410 5.78935286
