&CONTROL
calculation = 'relax'
prefix = 'scf'
pseudo_dir = '/vol0004/mdt0/data/hp150275/u10028/POT_HYBRID_KKJUS_GBRV'
outdir = './data'
tprnfor = .true.
nstep = 50
disk_io = 'non'
/
&SYSTEM
ibrav = 0
ecutwfc = 50.0
ecutrho = 400
occupations = 'smearing'
smearing = 'mp'
degauss = 0.01
assume_isolated = 'esm'
esm_bc = 'bc1'
input_dft = 'BEEF-VDW'
nosym = .true.
nspin = 2
ntyp = 5
nat = 34
starting_magnetization(1) = 0.0
starting_magnetization(2) = 0.1
starting_magnetization(3) = 0.1
starting_magnetization(4) = 0.0
starting_magnetization(5) = 0.0
/
&ELECTRONS
electron_maxstep = 200
mixing_beta = 0.1
conv_thr = 1e-06
/
&IONS
ion_dynamics = 'bfgs'
upscale = 1.0
/
&CELL
/

K_POINTS {automatic}
9 6 2 0  0  0

ATOMIC_SPECIES
C 12.01 C.pbe-n-rrkjus_psl.1.0.0.UPF
Co 58.93 co_pbe_v1.2.uspp.F.UPF
Mn 54.93 mn_pbe_v1.5.uspp.F.UPF
O 15.99 O.pbe-n-rrkjus_psl.1.0.0.UPF
Sb 121.7 Sb.pbe-n-rrkjus_psl.1.0.0.UPF

CELL_PARAMETERS {angstrom}
6.03986000 0.00000000 0.00000000
0.00000000 8.54165000 0.00000000
0.00000000 0.00000000 26.40620000

ATOMIC_POSITIONS {angstrom}
Mn 0.00000000 0.00000000 23.20312794
Mn 3.01993000 2.13541250 25.33859733
Mn 3.01993000 6.40623750 25.33859733
Mn 0.00000000 4.27082500 23.20312794
Mn 0.00000000 4.27432708 1.06311361
Mn 3.01993000 6.40623750 3.18775646
Mn 3.01993000 2.13541250 3.13335969
Mn 0.00000000 8.53823334 1.06311361
Co 1.50996500 0.00000000 25.33859733
Co 4.52989500 4.27082500 25.33859733
Co 4.52989500 0.00000000 25.33859733
Co 1.50996500 4.27082500 25.33859733
Co 4.52989500 6.40623750 23.20312794
Co 1.50996500 2.13541250 23.20312794
Co 1.50996500 6.40623750 23.20312794
Co 4.52989500 2.13541250 23.20312794
Co 1.47493381 4.25553545 3.06259108
Co 4.56492619 0.01528955 3.06259108
Co 4.56492619 4.25553545 3.06259108
Co 1.47493381 0.01528955 3.06259108
Co 4.53883399 2.13532708 1.06126518
Co 1.47185348 6.40640833 1.08054170
Co 1.50102601 2.13524167 1.06126518
Co 4.56806692 6.40632292 1.08080577
Sb 0.00000000 6.40623750 25.33859733
Sb 3.01993000 0.00000000 23.20312794
Sb 0.00000000 2.13541250 25.33859733
Sb 3.01993000 4.27082500 23.20312794
Sb 0.00000000 2.13541250 3.32401246
Sb 3.01993000 4.27552291 1.06179330
Sb 0.00000000 6.40623750 3.42039509
Sb 3.01993000 8.53695209 1.06179330
C 3.01993000 2.13541250 5.01216082
O 3.01993000 2.13541250 6.17086488
