&CONTROL
calculation = 'relax'
prefix = 'scf'
pseudo_dir = '/vol0403/data/hp230205/u10028/POT_HYBRID_KKJUS_GBRV'
outdir = './data'
tprnfor = .true.
nstep = 50
disk_io = 'non'
/
&SYSTEM
ibrav = 0
ecutwfc = 50.0
ecutrho = 400
occupations = 'smearing'
smearing = 'mp'
degauss = 0.01
assume_isolated = 'esm'
esm_bc = 'bc1'
input_dft = 'BEEF-VDW'
nosym = .true.
nspin = 1
ntyp = 6
nat = 34
/
&ELECTRONS
electron_maxstep = 200
mixing_beta = 0.1
conv_thr = 1e-06
/
&IONS
ion_dynamics = 'bfgs'
upscale = 1.0
/
&CELL
/

K_POINTS {automatic}
6 6 1 0 0 0

ATOMIC_SPECIES
C 12.01 C.pbe-n-rrkjus_psl.1.0.0.UPF
In 114.8 In.pbe-dn-rrkjus_psl.1.0.0.UPF
Li 6.941 Li.pbe-sl-rrkjus_psl.1.0.0.UPF
Mg 24.30 Mg.pbe-spnl-rrkjus_psl.1.0.0.UPF
O 15.99 O.pbe-n-rrkjus_psl.1.0.0.UPF
Pt 195.0 Pt.pbe-n-rrkjus_psl.1.0.0.UPF


CELL_PARAMETERS {angstrom}
6.50521000 0.00000000 0.00000000
0.00000000 9.19976000 0.00000000
0.00000000 0.00000000 26.89980000

ATOMIC_POSITIONS {angstrom}
Li 1.62630250 0.00000000 -1.1499664499999973 0 0 0
Li 1.62630250 4.59988000 -1.1499664499999973 0 0 0
Li 4.87890750 2.29994000 -3.449899349999999 0 0 0
Li 4.87890750 6.89982000 -3.449899349999999 0 0 0
Li 1.77195415 4.59988000 3.72616030
Li 1.49958101 0.00000000 3.67720266
Li 4.82055577 6.88261645 1.17417627
Li 4.82023051 2.31695956 1.17444527
Mg 0.00000000 2.29994000 -1.1499664499999973 0 0 0
Mg 0.00000000 6.89982000 -1.1499664499999973 0 0 0
Mg 3.25260500 4.59988000 -3.449899349999999 0 0 0
Mg 3.25260500 0.00000000 -3.449899349999999 0 0 0
Mg 6.39162903 6.80147457 3.45635530
Mg 6.39162903 2.39828543 3.45635530
Mg 3.22990182 0.00000000 1.26805657
Mg 3.18130790 4.59988000 1.12118366
In 0.00000000 0.00000000 -3.449899349999999 0 0 0
In 0.00000000 4.59988000 -3.449899349999999 0 0 0
In 3.25260500 6.89982000 -1.1499664499999973 0 0 0
In 3.25260500 2.29994000 -1.1499664499999973 0 0 0
In 0.03168037 4.59969600 1.16879631
In 6.48218156 9.19966800 1.19139214
In 3.22645406 2.29046425 3.61022216
In 3.22638900 6.90911176 3.61022216
Pt 4.87890750 0.00000000 -1.1499664499999973 0 0 0
Pt 4.87890750 4.59988000 -1.1499664499999973 0 0 0
Pt 1.62630250 2.29994000 -3.449899349999999 0 0 0
Pt 1.62630250 6.89982000 -3.449899349999999 0 0 0
Pt 4.75186075 4.59988000 3.24438488
Pt 4.99248847 0.00000000 3.58628134
Pt 1.61966719 6.92171543 1.14512449
Pt 1.61979729 2.27786058 1.14512449
C 5.20481852 0.00000000 5.49024918
O 5.24703733 0.00009200 6.64936156
