&CONTROL
calculation = 'relax'
prefix = 'scf'
pseudo_dir = '/vol0403/data/hp230205/u10028/POT_HYBRID_KKJUS_GBRV'
outdir = './data'
tprnfor = .true.
nstep = 50
disk_io = 'non'
/
&SYSTEM
ibrav = 0
ecutwfc = 50.0
ecutrho = 400
occupations = 'smearing'
smearing = 'mp'
degauss = 0.01
assume_isolated = 'esm'
esm_bc = 'bc1'
input_dft = 'BEEF-VDW'
nosym = .true.
nspin = 1
ntyp = 5
nat = 33
/
&ELECTRONS
electron_maxstep = 200
mixing_beta = 0.1
conv_thr = 1e-06
/
&IONS
ion_dynamics = 'bfgs'
upscale = 1.0
/
&CELL
/

K_POINTS {automatic}
6 6 1 0 0 0

ATOMIC_SPECIES
C 12.01 C.pbe-n-rrkjus_psl.1.0.0.UPF
In 114.8 In.pbe-dn-rrkjus_psl.1.0.0.UPF
Li 6.941 Li.pbe-sl-rrkjus_psl.1.0.0.UPF
Pd 106.4 Pd.pbe-n-rrkjus_psl.1.0.0.UPF
Y 88.90 Y.pbe-spn-rrkjus_psl.1.0.0.UPF


CELL_PARAMETERS {angstrom}
6.81638000 0.00000000 0.00000000
0.00000000 9.63982000 0.00000000
0.00000000 0.00000000 27.22990000

ATOMIC_POSITIONS {angstrom}
Li 5.11228500 0.00000000 -1.2049230699999995 0 0 0
Li 5.11228500 4.81991000 -1.2049230699999995 0 0 0
Li 1.70409500 2.40995500 -3.615041520000002 0 0 0
Li 1.70409500 7.22986500 -3.615041520000002 0 0 0
Li 3.69311468 4.81991000 5.15080788
Li 4.91467814 0.00000000 4.60512069
Li 1.72686171 7.20354829 1.23923275
Li 1.72686171 2.43627171 1.23923275
Y 0.00000000 2.40995500 -1.2049230699999995 0 0 0
Y 0.00000000 7.22986500 -1.2049230699999995 0 0 0
Y 3.40819000 4.81991000 -3.615041520000002 0 0 0
Y 3.40819000 0.00000000 -3.615041520000002 0 0 0
Y 6.51461886 7.03918936 3.54369919
Y 6.51461886 2.60063064 3.54369919
Y 3.50150624 0.00000000 1.40342905
Y 3.52263702 4.81991000 1.43746642
In 0.00000000 0.00000000 -3.615041520000002 0 0 0
In 0.00000000 4.81991000 -3.615041520000002 0 0 0
In 3.40819000 7.22986500 -1.2049230699999995 0 0 0
In 3.40819000 2.40995500 -1.2049230699999995 0 0 0
In 0.04130726 4.81991000 1.11642590
In 6.77009678 0.00000000 1.18804054
In 3.26436438 2.33833114 3.79993255
In 3.26429622 7.30148886 3.79993255
Pd 1.70409500 0.00000000 -1.2049230699999995 0 0 0
Pd 1.70409500 4.81991000 -1.2049230699999995 0 0 0
Pd 5.11228500 2.40995500 -3.615041520000002 0 0 0
Pd 5.11228500 7.22986500 -3.615041520000002 0 0 0
Pd 1.60621178 4.81991000 3.49441307
Pd 1.04795026 0.00000000 3.68338857
Pd 5.10451433 7.21183854 1.12650096
Pd 5.10451433 2.42798146 1.12650096
C 3.03499319 0.00000000 3.72178273
