&CONTROL
calculation = 'relax'
prefix = 'scf'
pseudo_dir = '/vol0004/mdt0/data/hp150275/u10028/POT_KKJUS'
outdir = './data'
tprnfor = .true.
nstep = 50
disk_io = 'non'
/
&SYSTEM
ibrav = 0
ecutwfc = 50.0
ecutrho = 400
occupations = 'smearing'
smearing = 'mp'
degauss = 0.01
assume_isolated = 'esm'
esm_bc = 'bc1'
input_dft = 'BEEF-VDW'
nosym = .true.
nspin = 1
ntyp = 4
nat = 18
/
&ELECTRONS
electron_maxstep = 200
mixing_beta = 0.1
conv_thr = 1e-06
/
&IONS
ion_dynamics = 'bfgs'
upscale = 1.0
/
&CELL
/

K_POINTS {automatic}
8 11 2 0  0  0

ATOMIC_SPECIES
C 12.01 C.pbe-n-rrkjus_psl.1.0.0.UPF
Ir 192.2 Ir.pbe-n-rrkjus_psl.0.2.3.UPF
Nb 92.90 Nb.pbe-spn-rrkjus_psl.1.0.0.UPF
O 15.99 O.pbe-n-rrkjus_psl.1.0.0.UPF

CELL_PARAMETERS {angstrom}
7.87138000 0.00000000 0.00000000
0.00000000 5.56590000 0.00000000
0.00000000 0.00000000 24.17440000

ATOMIC_POSITIONS {angstrom}
Nb 0.00000000 0.00000000 -2.0872177 0 0 0
Nb 0.00157428 2.78105759 0.79171160
Nb 3.93569000 0.00000000 -2.0872177 0 0 0
Nb 3.93411572 2.78105759 0.79171160
Ir 0.00000000 2.78295000 -2.0872177 0 0 0
Ir 1.96784500 4.17442500 -0.6957392299999974 0 0 0
Ir 1.96784500 1.39147500 -0.6957392299999974 0 0 0
Ir 7.86673589 5.56233782 0.56157131
Ir 1.96784500 1.35117788 2.05434051
Ir 1.96784500 4.13930417 1.96030210
Ir 3.93569000 2.78295000 -2.0872177 0 0 0
Ir 5.90353500 4.17442500 -0.6957392299999974 0 0 0
Ir 5.90353500 1.39147500 -0.6957392299999974 0 0 0
Ir 3.94033411 5.56233782 0.56157131
Ir 5.90353500 1.42659583 1.97069709
Ir 5.90353500 4.14737473 1.97238930
C 1.96784500 1.38713360 3.93003221
O 1.96784500 1.41808000 5.08967818
