&CONTROL
calculation = 'relax'
prefix = 'scf'
pseudo_dir = '/vol0004/mdt0/data/hp150275/u10028/POT_KKJUS'
outdir = './data'
tprnfor = .true.
nstep = 50
disk_io = 'non'
/
&SYSTEM
ibrav = 0
ecutwfc = 50.0
ecutrho = 400
occupations = 'smearing'
smearing = 'mp'
degauss = 0.01
assume_isolated = 'esm'
esm_bc = 'bc1'
input_dft = 'BEEF-VDW'
nosym = .true.
nspin = 1
ntyp = 3
nat = 33
/
&ELECTRONS
electron_maxstep = 200
mixing_beta = 0.1
conv_thr = 1e-06
/
&IONS
ion_dynamics = 'bfgs'
upscale = 1.0
/
&CELL
/

K_POINTS {automatic}
8 6 1 0 0 0

ATOMIC_SPECIES
C 12.01 C.pbe-n-rrkjus_psl.1.0.0.UPF
Mg 24.30 Mg.pbe-spnl-rrkjus_psl.1.0.0.UPF
Rh 102.9 Rh.pbe-spn-rrkjus_psl.1.0.0.UPF

CELL_PARAMETERS {angstrom}
6.29180000 0.00000000 0.00000000
0.00000000 8.89794000 0.00000000
0.00000000 0.00000000 26.67350000

ATOMIC_POSITIONS {angstrom}
Mg 0.00000000 0.00000000 -3.3368548500000017 0 0 0
Mg 0.00000000 2.22448500 -1.1122849499999994 0 0 0
Mg 0.00000000 8.89776204 1.05733754
Mg 0.00000000 2.30643503 3.42434393
Mg 0.00000000 4.44897000 -3.3368548500000017 0 0 0
Mg 0.00000000 6.67345500 -1.1122849499999994 0 0 0
Mg 0.00000000 4.44905898 1.08214389
Mg 0.00000000 6.59159395 3.42407720
Mg 3.14590000 0.00000000 -3.3368548500000017 0 0 0
Mg 3.14590000 2.22448500 -1.1122849499999994 0 0 0
Mg 3.14590000 8.89767306 1.01546015
Mg 3.14590000 2.24263680 3.41580841
Mg 3.14590000 4.44897000 -3.3368548500000017 0 0 0
Mg 3.14590000 6.67345500 -1.1122849499999994 0 0 0
Mg 3.14590000 4.44932592 1.04906875
Mg 3.14590000 6.65583708 3.41527494
Rh 1.57295000 2.22448500 -3.3368548500000017 0 0 0
Rh 1.57295000 4.44897000 -1.1122849499999994 0 0 0
Rh 1.56955243 2.21096013 1.15762990
Rh 1.53790467 0.00017796 3.32245116
Rh 1.57295000 6.67345500 -3.3368548500000017 0 0 0
Rh 1.57295000 0.00000000 -1.1122849499999994 0 0 0
Rh 1.56948951 6.68689089 1.15762990
Rh 1.61781053 4.44897000 3.20695491
Rh 4.71885000 2.22448500 -3.3368548500000017 0 0 0
Rh 4.71885000 4.44897000 -1.1122849499999994 0 0 0
Rh 4.72224757 2.21096013 1.15762990
Rh 4.75389533 0.00017796 3.32245116
Rh 4.71885000 6.67345500 -3.3368548500000017 0 0 0
Rh 4.71885000 0.00000000 -1.1122849499999994 0 0 0
Rh 4.72231049 6.68689089 1.15762990
Rh 4.67398947 4.44897000 3.20695491
C 0.00000000 8.89785102 4.30563637
