&CONTROL
calculation = 'relax'
prefix = 'scf'
pseudo_dir = '/vol0004/mdt0/data/hp150275/u10028/POT_KKJUS'
outdir = './data'
tprnfor = .true.
nstep = 50
disk_io = 'non'
/
&SYSTEM
ibrav = 0
ecutwfc = 50.0
ecutrho = 400
occupations = 'smearing'
smearing = 'mp'
degauss = 0.01
assume_isolated = 'esm'
esm_bc = 'bc1'
input_dft = 'BEEF-VDW'
nosym = .true.
nspin = 1
ntyp = 4
nat = 18
/
&ELECTRONS
electron_maxstep = 200
mixing_beta = 0.1
conv_thr = 1e-06
/
&IONS
ion_dynamics = 'bfgs'
upscale = 1.0
/
&CELL
/

K_POINTS {automatic}
8 8 1 0 0 0

ATOMIC_SPECIES
C 12.01 C.pbe-n-rrkjus_psl.1.0.0.UPF
Li 6.941 Li.pbe-sl-rrkjus_psl.1.0.0.UPF
O 15.99 O.pbe-n-rrkjus_psl.1.0.0.UPF
Pb 207.2 Pb.pbe-dn-rrkjus_psl.1.0.0.UPF

CELL_PARAMETERS {angstrom}
7.21597000 0.00000000 0.00000000
-0.00000000 7.21597000 0.00000000
0.00000000 0.00000000 25.41200000

ATOMIC_POSITIONS {angstrom}
Li 0.00000000 0.00000000 -3.5495481600000005 0 0 0
Li 0.00000000 0.00000000 0.05844760
Li 0.00000000 3.60798500 -3.5495481600000005 0 0 0
Li 0.00000000 3.60798500 0.05844760
Li 3.60798500 0.00000000 -3.5495481600000005 0 0 0
Li 3.60798500 -0.00000000 0.05844760
Li 3.60798500 3.60798500 -3.5495481600000005 0 0 0
Li 3.60798500 3.60798500 0.05844760
Pb 1.80399250 1.80399250 -1.7455502799999998 0 0 0
Pb 1.80399250 1.80399250 1.86244548
Pb 1.80399250 5.41197750 -1.7455502799999998 0 0 0
Pb 1.80399250 5.41197750 1.86244548
Pb 5.41197750 1.80399250 -1.7455502799999998 0 0 0
Pb 5.41197750 1.80399250 1.86244548
Pb 5.41197750 5.41197750 -1.7455502799999998 0 0 0
Pb 5.41197750 5.41197750 1.86244548
C 1.80399250 1.80399250 3.76250072
O 1.80399250 1.80399250 4.91239372
