&CONTROL
calculation = 'relax'
prefix = 'scf'
pseudo_dir = '/vol0004/mdt0/data/hp150275/u10028/POT_HYBRID_KKJUS_GBRV'
outdir = './data'
tprnfor = .true.
nstep = 70
disk_io = 'non'
/
&SYSTEM
ibrav = 0
ecutwfc = 50.0
ecutrho = 400
occupations = 'smearing'
smearing = 'mp'
degauss = 0.01
assume_isolated = 'esm'
esm_bc = 'bc1'
input_dft = 'BEEF-VDW'
nosym = .true.
nspin = 1
ntyp = 3
nat = 33
/
&ELECTRONS
electron_maxstep = 200
mixing_beta = 0.1
conv_thr = 1e-06
/
&IONS
ion_dynamics = 'bfgs'
upscale = 1.0
/
&CELL
/

K_POINTS {automatic}
6 8 1 0 0 0

ATOMIC_SPECIES
C 12.01 C.pbe-n-rrkjus_psl.1.0.0.UPF
Ru 101.0 Ru.pbe-spn-rrkjus_psl.1.0.0.UPF
Ta 180.9 Ta.pbe-spn-rrkjus_psl.1.0.0.UPF

CELL_PARAMETERS {angstrom}
8.71119000 0.00000000 0.00000000
0.00000000 6.72556000 0.00000000
0.00000000 0.00000000 26.53340000

ATOMIC_POSITIONS {angstrom}
Ta 2.17779750 1.68139000 -3.266792210000002 0 0 0
Ta 0.00000000 1.68139000 -1.0889307399999986 0 0 0
Ta 2.18041086 1.68266786 1.17436828
Ta 0.04843422 1.68280237 3.29067227
Ta 2.17779750 5.04417000 -3.266792210000002 0 0 0
Ta 0.00000000 5.04417000 -1.0889307399999986 0 0 0
Ta 2.17631660 5.04490981 1.05284531
Ta 8.67155409 5.04578413 3.41537925
Ta 6.53339250 1.68139000 -3.266792210000002 0 0 0
Ta 4.35559500 1.68139000 -1.0889307399999986 0 0 0
Ta 6.53077914 1.68212981 1.13775219
Ta 4.30672522 1.68273511 3.28854960
Ta 6.53339250 5.04417000 -3.266792210000002 0 0 0
Ta 4.35559500 5.04417000 -1.0889307399999986 0 0 0
Ta 6.53443784 5.04457353 1.17304161
Ta 4.39470824 5.04578413 3.41564458
Ru 0.00000000 0.00000000 -3.266792210000002 0 0 0
Ru 2.17779750 0.00000000 -1.0889307399999986 0 0 0
Ru 0.00557516 6.63167118 1.13297618
Ru 2.17736194 6.46877812 3.16171994
Ru 0.00000000 3.36278000 -3.266792210000002 0 0 0
Ru 2.17779750 3.36278000 -1.0889307399999986 0 0 0
Ru 0.00583650 3.45761040 1.13350685
Ru 2.17736194 3.62548037 3.16278128
Ru 4.35559500 0.00000000 -3.266792210000002 0 0 0
Ru 6.53339250 0.00000000 -1.0889307399999986 0 0 0
Ru 4.34967139 6.62568543 1.13324151
Ru 6.53356672 0.01681390 3.17684398
Ru 4.35559500 3.36278000 -3.266792210000002 0 0 0
Ru 6.53339250 3.36278000 -1.0889307399999986 0 0 0
Ru 4.34949717 3.46352889 1.13350685
Ru 6.53347961 3.34798377 3.17710932
C 2.17771039 1.68522357 3.63215713
