&CONTROL
calculation = 'relax'
prefix = 'scf'
pseudo_dir = '/vol0004/mdt0/data/hp150275/u10028/POT_KKJUS'
outdir = './data'
tprnfor = .true.
nstep = 50
disk_io = 'non'
/
&SYSTEM
ibrav = 0
ecutwfc = 50.0
ecutrho = 400
occupations = 'smearing'
smearing = 'mp'
degauss = 0.01
assume_isolated = 'esm'
esm_bc = 'bc1'
input_dft = 'BEEF-VDW'
nosym = .true.
nspin = 1
ntyp = 4
nat = 34
/
&ELECTRONS
electron_maxstep = 200
mixing_beta = 0.1
conv_thr = 1e-06
/
&IONS
ion_dynamics = 'bfgs'
upscale = 1.0
/
&CELL
/

K_POINTS {automatic}
8 6 1 0 0 0

ATOMIC_SPECIES
C 12.01 C.pbe-n-rrkjus_psl.1.0.0.UPF
Cu 63.54 Cu.pbe-dn-rrkjus_psl.1.0.0.UPF
O 15.99 O.pbe-n-rrkjus_psl.1.0.0.UPF
Sn 118.7 Sn.pbe-dn-rrkjus_psl.1.0.0.UPF

CELL_PARAMETERS {angstrom}
6.23499000 0.00000000 0.00000000
0.00000000 8.81761000 0.00000000
0.00000000 0.00000000 26.61320000

ATOMIC_POSITIONS {angstrom}
Cu 1.55874750 0.00000000 -1.1023187399999976 0 0 0
Cu 4.67624250 4.40880500 -1.1023187399999976 0 0 0
Cu 4.67624250 0.00000000 -1.1023187399999976 0 0 0
Cu 1.55874750 4.40880500 -1.1023187399999976 0 0 0
Cu 4.67624250 6.61320750 -3.306690100000001 0 0 0
Cu 1.55874750 2.20440250 -3.306690100000001 0 0 0
Cu 1.55874750 6.61320750 -3.306690100000001 0 0 0
Cu 4.67624250 2.20440250 -3.306690100000001 0 0 0
Cu 0.00000000 6.61320750 -1.1023187399999976 0 0 0
Cu 3.11749500 0.00000000 -3.306690100000001 0 0 0
Cu 0.00000000 2.20440250 -1.1023187399999976 0 0 0
Cu 3.11749500 4.40880500 -3.306690100000001 0 0 0
Cu 1.77435345 4.47652424 3.07568752
Cu 4.46063655 8.74989076 3.07568752
Cu 4.46063655 4.47652424 3.07568752
Cu 1.77435345 8.74989076 3.07568752
Cu 4.53265068 2.20440250 1.36153131
Cu 1.82030533 6.61320750 1.37776536
Cu 1.70233932 2.20440250 1.36153131
Cu 4.41462232 6.61320750 1.37776536
Cu 0.00000000 2.20440250 3.30669010
Cu 3.11749500 4.36454060 0.90671172
Cu 0.00000000 6.61320750 3.11507506
Cu 3.11749500 0.04426440 0.90671172
Sn 0.00000000 0.00000000 -3.306690100000001 0 0 0
Sn 3.11749500 2.20440250 -1.1023187399999976 0 0 0
Sn 3.11749500 6.61320750 -1.1023187399999976 0 0 0
Sn 0.00000000 4.40880500 -3.306690100000001 0 0 0
Sn 0.00000000 4.40686513 1.12414157
Sn 3.11749500 6.61320750 3.99889943
Sn 3.11749500 2.20440250 3.77987280
Sn 0.00000000 0.00193987 1.12414157
C 0.00000000 2.20440250 5.18212230
O 0.00000000 2.20440250 6.33101415
