&CONTROL
calculation = 'relax'
prefix = 'scf'
pseudo_dir = '/vol0004/mdt0/data/hp150275/u10028/POT_KKJUS'
outdir = './data'
tprnfor = .true.
nstep = 50
disk_io = 'non'
/
&SYSTEM
ibrav = 0
ecutwfc = 50.0
ecutrho = 400
occupations = 'smearing'
smearing = 'mp'
degauss = 0.01
assume_isolated = 'esm'
esm_bc = 'bc1'
input_dft = 'BEEF-VDW'
nosym = .true.
nspin = 1
ntyp = 5
nat = 18
/
&ELECTRONS
electron_maxstep = 200
mixing_beta = 0.1
conv_thr = 1e-06
/
&IONS
ion_dynamics = 'bfgs'
upscale = 1.0
/
&CELL
/

K_POINTS {automatic}
10 10 2 0  0  0

ATOMIC_SPECIES
C 12.01 C.pbe-n-rrkjus_psl.1.0.0.UPF
Ga 69.72 Ga.pbe-dnl-rrkjus_psl.1.0.0.UPF
Ir 192.2 Ir.pbe-n-rrkjus_psl.0.2.3.UPF
Li 6.941 Li.pbe-sl-rrkjus_psl.1.0.0.UPF
O 15.99 O.pbe-n-rrkjus_psl.1.0.0.UPF

CELL_PARAMETERS {angstrom}
6.01864000 0.00000000 0.00000000
0.00000000 6.01864000 0.00000000
0.00000000 0.00000000 24.51400000

ATOMIC_POSITIONS {angstrom}
Li 6.01304266 6.01304266 0.59961244
Li 3.00932000 0.00000000 -2.2570039800000004 0 0 0
Li 0.00000000 3.00932000 -2.2570039800000004 0 0 0
Li 3.02280175 3.02244064 0.56700882
Li 1.50466000 1.50466000 -0.7523346599999989 0 0 0
Li 1.51164162 4.50796136 2.48743558
Li 4.51398000 4.51398000 -0.7523346599999989 0 0 0
Li 4.51042900 1.51049808 2.49258352
Ga 1.51994735 1.51928530 2.11041026
Ga 1.50466000 4.51398000 -0.7523346599999989 0 0 0
Ga 4.50152142 4.50097974 2.14620070
Ga 4.51398000 1.50466000 -0.7523346599999989 0 0 0
Ir 0.00000000 0.00000000 -2.2570039800000004 0 0 0
Ir 3.00932000 3.00932000 -2.2570039800000004 0 0 0
Ir 3.01545901 6.01484826 0.90383118
Ir 6.01352416 3.01371361 0.90383118
C 0.91158321 0.95576003 5.27933504
O 1.59608314 1.59205065 5.93238800
