&CONTROL
calculation = 'relax'
prefix = 'scf'
pseudo_dir = '/vol0004/mdt0/data/hp150275/u10028/POT_KKJUS'
outdir = './data'
tprnfor = .true.
nstep = 50
disk_io = 'non'
/
&SYSTEM
ibrav = 0
ecutwfc = 50.0
ecutrho = 400
occupations = 'smearing'
smearing = 'mp'
degauss = 0.01
assume_isolated = 'esm'
esm_bc = 'bc1'
input_dft = 'BEEF-VDW'
nosym = .true.
nspin = 1
ntyp = 3
nat = 33
/
&ELECTRONS
electron_maxstep = 200
mixing_beta = 0.1
conv_thr = 1e-06
/
&IONS
ion_dynamics = 'bfgs'
upscale = 1.0
/
&CELL
/

K_POINTS {automatic}
6 6 1 0 0 0

ATOMIC_SPECIES
Ag 107.8 Ag.pbe-n-rrkjus_psl.1.0.0.UPF
C 12.01 C.pbe-n-rrkjus_psl.1.0.0.UPF
Pt 195.0 Pt.pbe-n-rrkjus_psl.1.0.0.UPF

CELL_PARAMETERS {angstrom}
8.08515000 0.00000000 0.00000000
-0.00000000 8.08515000 0.00000000
0.00000000 0.00000000 26.06390000

ATOMIC_POSITIONS {angstrom}
Ag 0.00000000 0.00000000 -3.0320134900000006 0 0 0
Ag 0.00000000 0.00000000 1.01075804
Ag 0.00000000 4.04257500 -3.0320134900000006 0 0 0
Ag 0.00000000 4.04257500 1.01075804
Ag 4.04257500 0.00000000 -3.0320134900000006 0 0 0
Ag 4.04257500 -0.00000000 1.01075804
Ag 4.04257500 4.04257500 -3.0320134900000006 0 0 0
Ag 4.04257500 4.04257500 1.01075804
Pt 0.00000000 2.02128750 -1.010758039999999 0 0 0
Pt 2.02128750 0.00000000 -1.010758039999999 0 0 0
Pt 2.02128750 2.02128750 -3.0320134900000006 0 0 0
Pt 0.00000000 2.02128750 3.03201349
Pt 2.02128750 -0.00000000 3.03201349
Pt 2.02128750 2.02128750 1.01075804
Pt 0.00000000 6.06386250 -1.010758039999999 0 0 0
Pt 2.02128750 4.04257500 -1.010758039999999 0 0 0
Pt 2.02128750 6.06386250 -3.0320134900000006 0 0 0
Pt 0.00000000 6.06386250 3.03201349
Pt 2.02128750 4.04257500 3.03201349
Pt 2.02128750 6.06386250 1.01075804
Pt 4.04257500 2.02128750 -1.010758039999999 0 0 0
Pt 6.06386250 0.00000000 -1.010758039999999 0 0 0
Pt 6.06386250 2.02128750 -3.0320134900000006 0 0 0
Pt 4.04257500 2.02128750 3.03201349
Pt 6.06386250 -0.00000000 3.03201349
Pt 6.06386250 2.02128750 1.01075804
Pt 4.04257500 6.06386250 -1.010758039999999 0 0 0
Pt 6.06386250 4.04257500 -1.010758039999999 0 0 0
Pt 6.06386250 6.06386250 -3.0320134900000006 0 0 0
Pt 4.04257500 6.06386250 3.03201349
Pt 6.06386250 4.04257500 3.03201349
Pt 6.06386250 6.06386250 1.01075804
C 0.00000000 0.00000000 3.83191458
