&CONTROL
calculation = 'relax'
prefix = 'scf'
pseudo_dir = '/vol0004/mdt0/data/hp150275/u10028/POT_KKJUS'
outdir = './data'
tprnfor = .true.
nstep = 50
disk_io = 'non'
/
&SYSTEM
ibrav = 0
ecutwfc = 50.0
ecutrho = 400
occupations = 'smearing'
smearing = 'mp'
degauss = 0.01
assume_isolated = 'esm'
esm_bc = 'bc1'
input_dft = 'BEEF-VDW'
nosym = .true.
nspin = 1
ntyp = 2
nat = 32
/
&ELECTRONS
electron_maxstep = 200
mixing_beta = 0.1
conv_thr = 1e-06
/
&IONS
ion_dynamics = 'bfgs'
upscale = 1.0
/
&CELL
/

K_POINTS {automatic}
8 6 1 0 0 0

ATOMIC_SPECIES
Pd 106.4 Pd.pbe-n-rrkjus_psl.1.0.0.UPF
Ti 47.86 Ti.pbe-spn-rrkjus_psl.1.0.0.UPF

CELL_PARAMETERS {angstrom}
6.37073000 0.00000000 0.00000000
0.00000000 9.00957000 0.00000000
0.00000000 0.00000000 26.75720000

ATOMIC_POSITIONS {angstrom}
Ti 1.59268250 2.25239250 -3.378631640000002 0 0 0
Ti 1.59268250 0.00000000 -1.1262105499999997 0 0 0
Ti 1.59268250 2.25194202 1.07055557
Ti 1.59268250 9.00938981 3.40298070
Ti 1.59268250 6.75717750 -3.378631640000002 0 0 0
Ti 1.59268250 4.50478500 -1.1262105499999997 0 0 0
Ti 1.59268250 6.75771807 1.07135829
Ti 1.59268250 4.50505529 3.40538884
Ti 4.77804750 2.25239250 -3.378631640000002 0 0 0
Ti 4.77804750 0.00000000 -1.1262105499999997 0 0 0
Ti 4.77804750 2.25149154 1.07082314
Ti 4.77804750 9.00920962 3.41288086
Ti 4.77804750 6.75717750 -3.378631640000002 0 0 0
Ti 4.77804750 4.50478500 -1.1262105499999997 0 0 0
Ti 4.77804750 6.75807846 1.07162586
Ti 4.77804750 4.50532557 3.41609172
Pd 0.00000000 0.00000000 -3.378631640000002 0 0 0
Pd 0.00000000 2.25239250 -1.1262105499999997 0 0 0
Pd 6.36384961 0.00027029 1.21584717
Pd 6.36932844 2.25329346 3.21942630
Pd 0.00000000 4.50478500 -3.378631640000002 0 0 0
Pd 0.00000000 6.75717750 -1.1262105499999997 0 0 0
Pd 6.36263917 4.50451471 1.21638231
Pd 6.36945585 6.75654683 3.21942630
Pd 3.18536500 0.00000000 -3.378631640000002 0 0 0
Pd 3.18536500 2.25239250 -1.1262105499999997 0 0 0
Pd 3.19224539 0.00018019 1.21584717
Pd 3.18676656 2.25329346 3.21942630
Pd 3.18536500 4.50478500 -3.378631640000002 0 0 0
Pd 3.18536500 6.75717750 -1.1262105499999997 0 0 0
Pd 3.19339212 4.50451471 1.21638231
Pd 3.18657544 6.75654683 3.21942630
