&CONTROL
calculation = 'relax'
prefix = 'scf'
pseudo_dir = '/vol0004/mdt0/data/hp150275/u10028/POT_KKJUS'
outdir = './data'
tprnfor = .true.
nstep = 50
disk_io = 'non'
/
&SYSTEM
ibrav = 0
ecutwfc = 50.0
ecutrho = 400
occupations = 'smearing'
smearing = 'mp'
degauss = 0.01
assume_isolated = 'esm'
esm_bc = 'bc1'
input_dft = 'BEEF-VDW'
nosym = .true.
nspin = 1
ntyp = 3
nat = 18
/
&ELECTRONS
electron_maxstep = 200
mixing_beta = 0.1
conv_thr = 1e-06
/
&IONS
ion_dynamics = 'bfgs'
upscale = 1.0
/
&CELL
/

K_POINTS {automatic}
8 8 1 0 0 0

ATOMIC_SPECIES
C 12.01 C.pbe-n-rrkjus_psl.1.0.0.UPF
K 39.09 K.pbe-spn-rrkjus_psl.1.0.0.UPF
O 15.99 O.pbe-n-rrkjus_psl.1.0.0.UPF

CELL_PARAMETERS {angstrom}
9.98137000 0.00000000 0.00000000
0.00000000 9.98137000 0.00000000
0.00000000 0.00000000 27.48600000

ATOMIC_POSITIONS {angstrom}
K 0.00000000 0.00000000 -3.7430434800000008 0 0 0
K 2.49534250 2.49534250 -1.2475895399999999 0 0 0
K 9.83374554 9.83164945 1.77257214
K 2.49554213 2.49574175 4.13774244
K 0.00000000 4.99068500 -3.7430434800000008 0 0 0
K 2.49534250 7.48602750 -1.2475895399999999 0 0 0
K 9.83374554 5.14080480 1.77092298
K 2.49524269 7.48492955 4.91394708
K 4.99068500 0.00000000 -3.7430434800000008 0 0 0
K 7.48602750 2.49534250 -1.2475895399999999 0 0 0
K 5.13840928 9.83154964 1.77092298
K 7.48522899 2.49554213 4.90350240
K 4.99068500 4.99068500 -3.7430434800000008 0 0 0
K 7.48602750 7.48602750 -1.2475895399999999 0 0 0
K 5.13880853 5.14080480 1.77009840
K 7.48552843 7.48562825 5.07693906
C 2.49654026 2.49634064 7.13976336
O 2.49943486 2.49923523 8.28565470
