&CONTROL
calculation = 'relax'
prefix = 'scf'
pseudo_dir = '/vol0403/data/hp230205/u10028/POT_HYBRID_KKJUS_GBRV'
outdir = './data'
tprnfor = .true.
nstep = 50
disk_io = 'non'
/
&SYSTEM
ibrav = 0
ecutwfc = 50.0
ecutrho = 400
occupations = 'smearing'
smearing = 'mp'
degauss = 0.01
assume_isolated = 'esm'
esm_bc = 'bc1'
input_dft = 'BEEF-VDW'
nosym = .true.
nspin = 1
ntyp = 6
nat = 34
/
&ELECTRONS
electron_maxstep = 200
mixing_beta = 0.1
conv_thr = 1e-06
/
&IONS
ion_dynamics = 'bfgs'
upscale = 1.0
/
&CELL
/

K_POINTS {automatic}
9 6 2 0  0  0

ATOMIC_SPECIES
C 12.01 C.pbe-n-rrkjus_psl.1.0.0.UPF
Li 6.941 Li.pbe-sl-rrkjus_psl.1.0.0.UPF
O 15.99 O.pbe-n-rrkjus_psl.1.0.0.UPF
Pd 106.4 Pd.pbe-n-rrkjus_psl.1.0.0.UPF
Sn 118.7 Sn.pbe-dn-rrkjus_psl.1.0.0.UPF
Y 88.90 Y.pbe-spn-rrkjus_psl.1.0.0.UPF


CELL_PARAMETERS {angstrom}
6.77715000 0.00000000 0.00000000
0.00000000 9.58434000 0.00000000
0.00000000 0.00000000 27.18830000

ATOMIC_POSITIONS {angstrom}
Li 0.00000000 0.00000000 -3.594021380000001 0 0 0
Li 0.00000000 4.79217000 -3.594021380000001 0 0 0
Li 3.38857500 7.18825500 -1.1979165000000016 0 0 0
Li 3.38857500 2.39608500 -1.1979165000000016 0 0 0
Li 0.03652884 4.79217000 1.27839387
Li 0.02941283 0.00000000 1.26208089
Li 4.60324359 2.37279505 4.92434490
Li 4.60324359 7.21164079 4.92434490
Y 1.69428750 0.00000000 -1.1979165000000016 0 0 0
Y 1.69428750 4.79217000 -1.1979165000000016 0 0 0
Y 5.08286250 2.39608500 -3.594021380000001 0 0 0
Y 5.08286250 7.18825500 -3.594021380000001 0 0 0
Y 1.89197697 4.79217000 3.59184631
Y 1.88580976 0.00000000 3.59402138
Y 5.02972964 7.17943741 1.31754502
Y 5.02972964 2.40490259 1.31754502
Sn 5.08286250 0.00000000 -1.1979165000000016 0 0 0
Sn 5.08286250 4.79217000 -1.1979165000000016 0 0 0
Sn 1.69428750 2.39608500 -3.594021380000001 0 0 0
Sn 1.69428750 7.18825500 -3.594021380000001 0 0 0
Sn 5.16398499 4.79217000 3.67042050
Sn 5.18262215 0.00000000 3.62746299
Sn 1.73108742 7.19199289 1.18432235
Sn 1.73108742 2.39244295 1.18432235
Pd 0.00000000 2.39608500 -1.1979165000000016 0 0 0
Pd 0.00000000 7.18825500 -1.1979165000000016 0 0 0
Pd 3.38857500 4.79217000 -3.594021380000001 0 0 0
Pd 3.38857500 0.00000000 -3.594021380000001 0 0 0
Pd 0.09955633 7.16036457 3.41974437
Pd 0.09955633 2.42397543 3.41974437
Pd 3.40619559 0.00000000 1.12668315
Pd 3.36044983 4.79217000 1.15985288
C 1.91847562 9.58424416 6.08120706
O 1.86039545 9.58424416 7.23453475
