&CONTROL
calculation = 'relax'
prefix = 'scf'
pseudo_dir = '/vol0403/data/hp230205/u10028/POT_HYBRID_KKJUS_GBRV'
outdir = './data'
tprnfor = .true.
nstep = 70
disk_io = 'non'
/
&SYSTEM
ibrav = 0
ecutwfc = 50.0
ecutrho = 400
occupations = 'smearing'
smearing = 'mp'
degauss = 0.01
assume_isolated = 'esm'
esm_bc = 'bc1'
input_dft = 'BEEF-VDW'
nosym = .true.
nspin = 1
ntyp = 6
nat = 34
/
&ELECTRONS
electron_maxstep = 200
mixing_beta = 0.1
conv_thr = 1e-06
/
&IONS
ion_dynamics = 'bfgs'
upscale = 1.0
/
&CELL
/

K_POINTS {automatic}
6 6 1 0 0 0

ATOMIC_SPECIES
C 12.01 C.pbe-n-rrkjus_psl.1.0.0.UPF
Ge 72.64 Ge.pbe-dn-rrkjus_psl.1.0.0.UPF
In 114.8 In.pbe-dn-rrkjus_psl.1.0.0.UPF
O 15.99 O.pbe-n-rrkjus_psl.1.0.0.UPF
Pd 106.4 Pd.pbe-n-rrkjus_psl.1.0.0.UPF
Sc 44.95 Sc.pbe-spn-rrkjus_psl.1.0.0.UPF


CELL_PARAMETERS {angstrom}
9.28368000 0.00000000 0.00000000
-0.00000000 7.76578000 0.00000000
0.00000000 0.00000000 26.28540000

ATOMIC_POSITIONS {angstrom}
Sc 9.28303014 1.94028013 1.00962221
Sc 0.00000000 1.94144500 -3.14268242 0 0 0
Sc 9.28238028 5.82332545 1.00331372
Sc 0.00000000 5.82433500 -3.14268242 0 0 0
Sc 4.64453227 1.94160032 1.01172505
Sc 4.64184000 1.94144500 -3.14268242 0 0 0
Sc 4.64741021 5.82363608 1.00252516
Sc 4.64184000 5.82433500 -3.14268242 0 0 0
In 2.32184837 1.94447365 3.33798295
In 2.32092000 1.94144500 -1.047473189999998 0 0 0
In 2.31980596 5.82309248 3.45784437
In 2.32092000 5.82433500 -1.047473189999998 0 0 0
In 6.96294567 1.93849400 3.41210777
In 6.96276000 1.94144500 -1.047473189999998 0 0 0
In 6.96183163 5.82060743 3.40763926
In 6.96276000 5.82433500 -1.047473189999998 0 0 0
Ge 9.25879974 7.75001547 3.17448776
Ge 0.00000000 0.00000000 -1.047473189999998 0 0 0
Ge 0.02441608 3.89376209 3.18000769
Ge 0.00000000 3.88289000 -1.047473189999998 0 0 0
Ge 4.61881647 7.75048141 3.17212207
Ge 4.64184000 0.00000000 -1.047473189999998 0 0 0
Ge 4.65929332 3.89135470 3.18079625
Ge 4.64184000 3.88289000 -1.047473189999998 0 0 0
Pd 2.32054865 7.72718407 1.14814627
Pd 2.32092000 0.00000000 -3.14268242 0 0 0
Pd 2.32519049 3.92280611 1.14367775
Pd 2.32092000 3.88289000 -3.14268242 0 0 0
Pd 6.96071759 7.76570234 1.14893483
Pd 6.96276000 0.00000000 -3.14268242 0 0 0
Pd 6.97009411 3.87799756 1.14814627
Pd 6.96276000 3.88289000 -3.14268242 0 0 0
C 2.30643746 1.79249734 7.10362935
O 2.31813490 2.20602512 8.15977672
