&CONTROL
calculation = 'relax'
prefix = 'scf'
pseudo_dir = '/vol0004/mdt0/data/hp150275/u10028/POT_HYBRID_KKJUS_GBRV'
outdir = './data'
tprnfor = .true.
nstep = 50
disk_io = 'non'
/
&SYSTEM
ibrav = 0
ecutwfc = 50.0
ecutrho = 400
occupations = 'smearing'
smearing = 'mp'
degauss = 0.01
assume_isolated = 'esm'
esm_bc = 'bc1'
input_dft = 'BEEF-VDW'
nosym = .true.
nspin = 2
ntyp = 4
nat = 33
starting_magnetization(1) = 0.0
starting_magnetization(2) = 0.1
starting_magnetization(3) = 0.0
starting_magnetization(4) = 0.0
/
&ELECTRONS
electron_maxstep = 200
mixing_beta = 0.1
conv_thr = 1e-06
/
&IONS
ion_dynamics = 'bfgs'
upscale = 1.0
/
&CELL
/

K_POINTS {automatic}
9 6 2 0  0  0

ATOMIC_SPECIES
C 12.01 C.pbe-n-rrkjus_psl.1.0.0.UPF
Co 58.93 co_pbe_v1.2.uspp.F.UPF
Si 28.08 Si.pbe-nl-rrkjus_psl.1.0.0.UPF
V 50.94 V.pbe-spnl-rrkjus_psl.1.0.0.UPF

CELL_PARAMETERS {angstrom}
5.68381000 0.00000000 0.00000000
0.00000000 8.03813000 0.00000000
0.00000000 0.00000000 26.02860000

ATOMIC_POSITIONS {angstrom}
V 0.00000000 0.00000000 23.01422783
V 2.84190500 2.00953250 25.02389604
V 2.84190500 6.02859750 25.02389604
V 0.00000000 4.01906500 23.01422783
V 0.00000000 4.01906500 1.01823883
V 2.84190500 6.02570377 3.02087932
V 2.84190500 2.01242623 3.02087932
V 0.00000000 0.00000000 0.99949824
Co 1.42095250 0.00000000 25.02389604
Co 4.26285750 4.01906500 25.02389604
Co 4.26285750 0.00000000 25.02389604
Co 1.42095250 4.01906500 25.02389604
Co 4.26285750 6.02859750 23.01422783
Co 1.42095250 2.00953250 23.01422783
Co 1.42095250 6.02859750 23.01422783
Co 4.26285750 2.00953250 23.01422783
Co 1.41816743 4.01906500 2.99615215
Co 4.18027174 0.00000000 2.98730242
Co 4.26564257 4.01906500 2.99615215
Co 1.50353826 0.00000000 2.98730242
Co 4.26064081 2.00896983 1.00600539
Co 1.42322602 6.02916017 1.00600539
Co 1.42316919 2.00896983 1.00600539
Co 4.26058398 6.02916017 1.00600539
Si 0.00000000 6.02859750 25.02389604
Si 2.84190500 0.00000000 23.01422783
Si 0.00000000 2.00953250 25.02389604
Si 2.84190500 4.01906500 23.01422783
Si 0.00000000 2.02175046 3.01541331
Si 2.84190500 4.01906500 1.01615654
Si 0.00000000 6.01637954 3.01541331
Si 2.84190500 0.00000000 1.00288196
C 0.00000000 0.00000000 3.86967196
