&CONTROL
calculation = 'relax'
prefix = 'scf'
pseudo_dir = '/vol0403/data/hp230205/u10028/POT_HYBRID_KKJUS_GBRV'
outdir = './data'
tprnfor = .true.
nstep = 50
disk_io = 'non'
/
&SYSTEM
ibrav = 0
ecutwfc = 50.0
ecutrho = 400
occupations = 'smearing'
smearing = 'mp'
degauss = 0.01
assume_isolated = 'esm'
esm_bc = 'bc1'
input_dft = 'BEEF-VDW'
nosym = .true.
nspin = 1
ntyp = 6
nat = 18
/
&ELECTRONS
electron_maxstep = 200
mixing_beta = 0.1
conv_thr = 1e-06
/
&IONS
ion_dynamics = 'bfgs'
upscale = 1.0
/
&CELL
/

K_POINTS {automatic}
11 7 2 0  0  0

ATOMIC_SPECIES
C 12.01 C.pbe-n-rrkjus_psl.1.0.0.UPF
In 114.8 In.pbe-dn-rrkjus_psl.1.0.0.UPF
O 15.99 O.pbe-n-rrkjus_psl.1.0.0.UPF
Pd 106.4 Pd.pbe-n-rrkjus_psl.1.0.0.UPF
Sc 44.95 Sc.pbe-spn-rrkjus_psl.1.0.0.UPF
Y 88.90 Y.pbe-spn-rrkjus_psl.1.0.0.UPF


CELL_PARAMETERS {angstrom}
6.25545000 0.00000000 0.00000000
0.00000000 9.64246000 0.00000000
0.00000000 0.00000000 24.46440000

ATOMIC_POSITIONS {angstrom}
Y 3.77879224 0.00048212 2.25414982
Y 5.29398733 0.00000000 -0.7439624000000009 0 0 0
Y 3.53733187 4.82074788 2.12717958
Y 5.29398733 4.82123000 -0.7439624000000009 0 0 0
Sc 0.89709408 2.37763779 0.55191686
Sc 3.24939350 2.41061500 -2.2321318600000026 0 0 0
Sc 0.89721919 7.26472579 0.55191686
Sc 3.24939350 7.23184500 -2.2321318600000026 0 0 0
In 0.65757290 9.64217073 2.43371851
In 2.16626234 0.00000000 -0.7439624000000009 0 0 0
In 0.43875726 4.82142285 2.41218984
In 2.16626234 4.82123000 -0.7439624000000009 0 0 0
Pd 3.80006077 2.43433545 0.37773034
Pd 0.12166850 2.41061500 -2.2321318600000026 0 0 0
Pd 3.79993566 7.20802812 0.37748569
Pd 0.12166850 7.23184500 -2.2321318600000026 0 0 0
C 4.84372004 0.00019285 4.47184768
O 5.25670485 0.00009642 5.55439738
