&CONTROL
calculation = 'relax'
prefix = 'scf'
pseudo_dir = '/vol0403/data/hp230205/u10028/POT_HYBRID_KKJUS_GBRV'
outdir = './data'
tprnfor = .true.
nstep = 70
disk_io = 'non'
/
&SYSTEM
ibrav = 0
ecutwfc = 50.0
ecutrho = 400
occupations = 'smearing'
smearing = 'mp'
degauss = 0.01
assume_isolated = 'esm'
esm_bc = 'bc1'
input_dft = 'BEEF-VDW'
nosym = .true.
nspin = 1
ntyp = 4
nat = 32
/
&ELECTRONS
electron_maxstep = 200
mixing_beta = 0.1
conv_thr = 1e-06
/
&IONS
ion_dynamics = 'bfgs'
upscale = 1.0
/
&CELL
/

K_POINTS {automatic}
6 6 1 0 0 0

ATOMIC_SPECIES
In 114.8 In.pbe-dn-rrkjus_psl.1.0.0.UPF
Li 6.941 Li.pbe-sl-rrkjus_psl.1.0.0.UPF
Mg 24.30 Mg.pbe-spnl-rrkjus_psl.1.0.0.UPF
Sn 118.7 Sn.pbe-dn-rrkjus_psl.1.0.0.UPF


CELL_PARAMETERS {angstrom}
7.01918000 0.00000000 0.00000000
-0.00000000 9.92662000 0.00000000
0.00000000 0.00000000 27.44500000

ATOMIC_POSITIONS {angstrom}
Li 5.26438500 0.00000000 -1.2407884500000002 0 0 0
Li 5.26438500 4.96331000 -1.2407884500000002 0 0 0
Li 1.75479500 2.48165500 -3.7223653500000005 0 0 0
Li 1.75479500 7.44496500 -3.7223653500000005 0 0 0
Li 5.29014539 4.96331000 3.79948580
Li 5.29028577 0.00009927 3.79948580
Li 1.78862745 7.44486573 1.32120230
Li 1.78855726 2.48165500 1.32120230
Mg 1.75479500 0.00000000 -1.2407884500000002 0 0 0
Mg 1.75479500 4.96331000 -1.2407884500000002 0 0 0
Mg 5.26438500 2.48165500 -3.7223653500000005 0 0 0
Mg 5.26438500 7.44496500 -3.7223653500000005 0 0 0
Mg 1.70636266 4.96340927 3.99983430
Mg 1.70608189 -0.00000000 4.00038320
Mg 5.21489978 7.44506427 1.37142665
Mg 5.21489978 2.48145647 1.37142665
In 0.00000000 0.00000000 -3.7223653500000005 0 0 0
In 0.00000000 4.96331000 -3.7223653500000005 0 0 0
In 3.50959000 7.44496500 -1.2407884500000002 0 0 0
In 3.50959000 2.48165500 -1.2407884500000002 0 0 0
In 0.04499294 4.96331000 1.35386185
In 0.04513333 9.92652073 1.35386185
In 3.56181270 2.48165500 4.20073170
In 3.56181270 7.44506427 4.20045725
Sn 0.00000000 2.48165500 -1.2407884500000002 0 0 0
Sn 0.00000000 7.44496500 -1.2407884500000002 0 0 0
Sn 3.50959000 4.96331000 -3.7223653500000005 0 0 0
Sn 3.50959000 0.00000000 -3.7223653500000005 0 0 0
Sn 6.97327456 7.44496500 3.90130675
Sn 6.97334475 2.48175427 3.90130675
Sn 3.45287503 -0.00000000 1.39063815
Sn 3.45308560 4.96331000 1.39036370
