&CONTROL
calculation = 'relax'
prefix = 'scf'
pseudo_dir = '/vol0403/data/hp230205/u10028/POT_HYBRID_KKJUS_GBRV'
outdir = './data'
tprnfor = .true.
nstep = 50
disk_io = 'non'
/
&SYSTEM
ibrav = 0
ecutwfc = 50.0
ecutrho = 400
occupations = 'smearing'
smearing = 'mp'
degauss = 0.01
assume_isolated = 'esm'
esm_bc = 'bc1'
input_dft = 'BEEF-VDW'
nosym = .true.
nspin = 1
ntyp = 5
nat = 33
/
&ELECTRONS
electron_maxstep = 200
mixing_beta = 0.1
conv_thr = 1e-06
/
&IONS
ion_dynamics = 'bfgs'
upscale = 1.0
/
&CELL
/

K_POINTS {automatic}
7 7 2 0  0  0

ATOMIC_SPECIES
C 12.01 C.pbe-n-rrkjus_psl.1.0.0.UPF
Ge 72.64 Ge.pbe-dn-rrkjus_psl.1.0.0.UPF
In 114.8 In.pbe-dn-rrkjus_psl.1.0.0.UPF
Li 6.941 Li.pbe-sl-rrkjus_psl.1.0.0.UPF
Y 88.90 Y.pbe-spn-rrkjus_psl.1.0.0.UPF


CELL_PARAMETERS {angstrom}
8.57642000 0.00000000 0.00000000
0.00000000 9.31878000 0.00000000
0.00000000 0.00000000 26.37020000

ATOMIC_POSITIONS {angstrom}
Li 2.14410500 2.32969500 -3.18499276 0 0 0
Li 2.14410500 2.32969500 1.06166425
Li 2.14410500 6.98908500 -3.18499276 0 0 0
Li 2.14410500 6.98908500 1.06166425
Li 6.43231500 2.32969500 -3.18499276 0 0 0
Li 6.43231500 2.32969500 1.06166425
Li 6.43231500 6.98908500 -3.18499276 0 0 0
Li 6.43231500 6.98908500 1.06166425
Y 2.14410500 0.00000000 -1.0616642499999998 0 0 0
Y 2.14410500 0.00000000 3.18499276
Y 2.14410500 4.65939000 -1.0616642499999998 0 0 0
Y 2.14410500 4.65939000 3.18499276
Y 6.43231500 0.00000000 -1.0616642499999998 0 0 0
Y 6.43231500 0.00000000 3.18499276
Y 6.43231500 4.65939000 -1.0616642499999998 0 0 0
Y 6.43231500 4.65939000 3.18499276
In 0.00000000 2.32969500 -1.0616642499999998 0 0 0
In 0.00000000 2.32969500 3.18499276
In 0.00000000 6.98908500 -1.0616642499999998 0 0 0
In 0.00000000 6.98908500 3.18499276
In 4.28821000 2.32969500 -1.0616642499999998 0 0 0
In 4.28821000 2.32969500 3.18499276
In 4.28821000 6.98908500 -1.0616642499999998 0 0 0
In 4.28821000 6.98908500 3.18499276
Ge 0.00000000 0.00000000 -3.18499276 0 0 0
Ge 0.00000000 0.00000000 1.06166425
Ge 0.00000000 4.65939000 -3.18499276 0 0 0
Ge 0.00000000 4.65939000 1.06166425
Ge 4.28821000 0.00000000 -3.18499276 0 0 0
Ge 4.28821000 0.00000000 1.06166425
Ge 4.28821000 4.65939000 -3.18499276 0 0 0
Ge 4.28821000 4.65939000 1.06166425
C 2.14410500 2.32969500 3.98506462
