&CONTROL
calculation = 'relax'
prefix = 'scf'
pseudo_dir = '/vol0403/data/hp230205/u10028/POT_HYBRID_KKJUS_GBRV'
outdir = './data'
tprnfor = .true.
nstep = 70
disk_io = 'non'
/
&SYSTEM
ibrav = 0
ecutwfc = 50.0
ecutrho = 400
occupations = 'smearing'
smearing = 'mp'
degauss = 0.01
assume_isolated = 'esm'
esm_bc = 'bc1'
input_dft = 'BEEF-VDW'
nosym = .true.
nspin = 1
ntyp = 5
nat = 17
/
&ELECTRONS
electron_maxstep = 200
mixing_beta = 0.1
conv_thr = 1e-06
/
&IONS
ion_dynamics = 'bfgs'
upscale = 1.0
/
&CELL
/

K_POINTS {automatic}
11 8 2 0  0  0

ATOMIC_SPECIES
C 12.01 C.pbe-n-rrkjus_psl.1.0.0.UPF
Cu 63.54 Cu.pbe-dn-rrkjus_psl.1.0.0.UPF
Li 6.941 Li.pbe-sl-rrkjus_psl.1.0.0.UPF
Mg 24.30 Mg.pbe-spnl-rrkjus_psl.1.0.0.UPF
Pd 106.4 Pd.pbe-n-rrkjus_psl.1.0.0.UPF


CELL_PARAMETERS {angstrom}
5.46655000 0.00000000 0.00000000
-0.00000000 7.95764000 0.00000000
0.00000000 0.00000000 24.09630000

ATOMIC_POSITIONS {angstrom}
Li 2.88765037 0.10185779 2.27372687
Li 5.35240844 -0.00000000 -0.682648180000001 0 0 0
Li 2.88765037 3.87696221 2.27372687
Li 5.35240844 3.97882000 -0.682648180000001 0 0 0
Mg 1.30541214 1.98941000 0.59686535
Mg 3.92875482 1.98941000 -2.048185499999999 0 0 0
Mg 1.36538019 5.96823000 0.74168411
Mg 3.92875482 5.96823000 -2.048185499999999 0 0 0
Cu 5.42669885 0.10559788 1.92987267
Cu 2.61913344 0.00000000 -0.682648180000001 0 0 0
Cu 5.42669885 3.87322212 1.92987267
Cu 2.61913344 3.97882000 -0.682648180000001 0 0 0
Pd 3.90656063 1.98941000 0.58987742
Pd 1.19547982 1.98941000 -2.048185499999999 0 0 0
Pd 4.10844032 5.96823000 0.77686471
Pd 1.19547982 5.96823000 -2.048185499999999 0 0 0
C 5.21082479 1.98941000 2.20408856
