&CONTROL
calculation = 'relax'
prefix = 'scf'
pseudo_dir = '/vol0403/data/hp230205/u10028/POT_HYBRID_KKJUS_GBRV'
outdir = './data'
tprnfor = .true.
nstep = 50
disk_io = 'non'
/
&SYSTEM
ibrav = 0
ecutwfc = 50.0
ecutrho = 400
occupations = 'smearing'
smearing = 'mp'
degauss = 0.01
assume_isolated = 'esm'
esm_bc = 'bc1'
input_dft = 'BEEF-VDW'
nosym = .true.
nspin = 1
ntyp = 4
nat = 16
/
&ELECTRONS
electron_maxstep = 200
mixing_beta = 0.1
conv_thr = 1e-06
/
&IONS
ion_dynamics = 'bfgs'
upscale = 1.0
/
&CELL
/

K_POINTS {automatic}
6 6 1 0 0 0

ATOMIC_SPECIES
Ga 69.72 Ga.pbe-dnl-rrkjus_psl.1.0.0.UPF
In 114.8 In.pbe-dn-rrkjus_psl.1.0.0.UPF
Li 6.941 Li.pbe-sl-rrkjus_psl.1.0.0.UPF
Pd 106.4 Pd.pbe-n-rrkjus_psl.1.0.0.UPF


CELL_PARAMETERS {angstrom}
6.46680000 0.00000000 0.00000000
0.00000000 6.46680000 0.00000000
0.00000000 0.00000000 24.85010000

ATOMIC_POSITIONS {angstrom}
Li 4.85010000 1.61670000 0.80837375
Li 4.85010000 4.85010000 -2.425121260000001 0 0 0
Li 1.61670000 1.61670000 -2.425121260000001 0 0 0
Li 1.61670000 4.85010000 0.80837375
In 0.00000000 3.23340000 2.42512126
In 0.00000000 0.00000000 -0.8083737500000012 0 0 0
In 3.23340000 3.23340000 -0.8083737500000012 0 0 0
In 3.23340000 0.00000000 2.42512126
Ga 0.00000000 0.00000000 2.42512126
Ga 0.00000000 3.23340000 -0.8083737500000012 0 0 0
Ga 3.23340000 0.00000000 -0.8083737500000012 0 0 0
Ga 3.23340000 3.23340000 2.42512126
Pd 1.61670000 1.61670000 0.80837375
Pd 1.61670000 4.85010000 -2.425121260000001 0 0 0
Pd 4.85010000 1.61670000 -2.425121260000001 0 0 0
Pd 4.85010000 4.85010000 0.80837375
