&CONTROL
calculation = 'relax'
prefix = 'scf'
pseudo_dir = '/vol0403/data/hp230205/u10028/POT_HYBRID_KKJUS_GBRV'
outdir = './data'
tprnfor = .true.
nstep = 50
disk_io = 'non'
/
&SYSTEM
ibrav = 0
ecutwfc = 50.0
ecutrho = 400
occupations = 'smearing'
smearing = 'mp'
degauss = 0.01
assume_isolated = 'esm'
esm_bc = 'bc1'
input_dft = 'BEEF-VDW'
nosym = .true.
nspin = 1
ntyp = 6
nat = 18
/
&ELECTRONS
electron_maxstep = 200
mixing_beta = 0.1
conv_thr = 1e-06
/
&IONS
ion_dynamics = 'bfgs'
upscale = 1.0
/
&CELL
/

K_POINTS {automatic}
8 11 2 0  0  0

ATOMIC_SPECIES
C 12.01 C.pbe-n-rrkjus_psl.1.0.0.UPF
Ga 69.72 Ga.pbe-dnl-rrkjus_psl.1.0.0.UPF
Ge 72.64 Ge.pbe-dn-rrkjus_psl.1.0.0.UPF
O 15.99 O.pbe-n-rrkjus_psl.1.0.0.UPF
Pd 106.4 Pd.pbe-n-rrkjus_psl.1.0.0.UPF
Sc 44.95 Sc.pbe-spn-rrkjus_psl.1.0.0.UPF


CELL_PARAMETERS {angstrom}
7.83718000 0.00000000 0.00000000
0.00000000 5.89664000 0.00000000
0.00000000 0.00000000 24.41460000

ATOMIC_POSITIONS {angstrom}
Sc 0.00000000 2.94832000 -2.207323989999999 0 0 0
Sc 7.82377842 5.65971300 0.85231369
Sc 3.91859000 2.94832000 -2.207323989999999 0 0 0
Sc 3.93206995 5.65959507 0.85231369
Ga 0.00000000 0.00000000 -2.207323989999999 0 0 0
Ga 7.79626992 2.64570444 0.84279199
Ga 3.91859000 0.00000000 -2.207323989999999 0 0 0
Ga 3.95950008 2.64570444 0.84303614
Ge 1.95929500 4.33456110 -0.7358560400000016 0 0 0
Ge 1.95929500 1.38517970 2.04301373
Ge 5.87788500 4.33456110 -0.7358560400000016 0 0 0
Ge 5.87796337 1.35498891 2.13700994
Pd 1.95929500 1.38624110 -0.7358560400000016 0 0 0
Pd 1.95929500 4.10860185 2.07621758
Pd 5.87788500 1.38624110 -0.7358560400000016 0 0 0
Pd 5.87796337 4.10252831 2.05302371
C 1.95921663 4.23190060 4.05843896
O 1.95921663 4.22535532 5.20543687
