&CONTROL
calculation = 'relax'
prefix = 'scf'
pseudo_dir = '/vol0403/data/hp230205/u10028/POT_HYBRID_KKJUS_GBRV'
outdir = './data'
tprnfor = .true.
nstep = 50
disk_io = 'non'
/
&SYSTEM
ibrav = 0
ecutwfc = 50.0
ecutrho = 400
occupations = 'smearing'
smearing = 'mp'
degauss = 0.01
assume_isolated = 'esm'
esm_bc = 'bc1'
input_dft = 'BEEF-VDW'
nosym = .true.
nspin = 1
ntyp = 5
nat = 33
/
&ELECTRONS
electron_maxstep = 200
mixing_beta = 0.1
conv_thr = 1e-06
/
&IONS
ion_dynamics = 'bfgs'
upscale = 1.0
/
&CELL
/

K_POINTS {automatic}
7 7 2 0  0  0

ATOMIC_SPECIES
C 12.01 C.pbe-n-rrkjus_psl.1.0.0.UPF
Ge 72.64 Ge.pbe-dn-rrkjus_psl.1.0.0.UPF
In 114.8 In.pbe-dn-rrkjus_psl.1.0.0.UPF
Li 6.941 Li.pbe-sl-rrkjus_psl.1.0.0.UPF
Y 88.90 Y.pbe-spn-rrkjus_psl.1.0.0.UPF


CELL_PARAMETERS {angstrom}
9.31878000 0.00000000 0.00000000
0.00000000 8.49364000 0.00000000
0.00000000 0.00000000 26.43230000

ATOMIC_POSITIONS {angstrom}
Li 2.34525736 0.01537349 1.30813453
Li 2.32969500 0.00000000 -3.21628226 0 0 0
Li 2.34535055 4.23136158 1.30839885
Li 2.32969500 4.24682000 -3.21628226 0 0 0
Li 6.97352264 0.01613792 1.30787020
Li 6.98908500 0.00000000 -3.21628226 0 0 0
Li 6.97342945 4.23068208 1.30787020
Li 6.98908500 4.24682000 -3.21628226 0 0 0
Y 0.00018638 2.12341000 0.92328024
Y 0.00000000 2.12341000 -3.21628226 0 0 0
Y 9.31803450 6.37014506 1.28698869
Y 0.00000000 6.37023000 -3.21628226 0 0 0
Y 4.65920362 2.12341000 1.04248991
Y 4.65939000 2.12341000 -3.21628226 0 0 0
Y 4.65939000 6.37023000 1.02504459
Y 4.65939000 6.37023000 -3.21628226 0 0 0
In 2.84250746 2.12332506 4.47789594
In 2.32969500 2.12341000 -1.0720940900000002 0 0 0
In 2.77457356 6.37031494 3.89612102
In 2.32969500 6.37023000 -1.0720940900000002 0 0 0
In 6.47944092 2.12341000 4.47868891
In 6.98908500 2.12341000 -1.0720940900000002 0 0 0
In 6.54662933 6.37023000 3.89242050
In 6.98908500 6.37023000 -1.0720940900000002 0 0 0
Ge 9.31672987 0.23213118 3.24192159
Ge 0.00000000 0.00000000 -1.0720940900000002 0 0 0
Ge 9.31682306 4.01477376 3.24192159
Ge 0.00000000 4.24682000 -1.0720940900000002 0 0 0
Ge 4.65957638 0.02921812 2.97072620
Ge 4.65939000 0.00000000 -1.0720940900000002 0 0 0
Ge 4.65957638 4.21760188 2.97072620
Ge 4.65939000 4.24682000 -1.0720940900000002 0 0 0
C 9.31290917 2.12341000 3.32571199
