&CONTROL
calculation = 'relax'
prefix = 'scf'
pseudo_dir = '/vol0004/mdt0/data/hp150275/u10028/POT_HYBRID_KKJUS_GBRV'
outdir = './data'
tprnfor = .true.
nstep = 50
disk_io = 'non'
/
&SYSTEM
ibrav = 0
ecutwfc = 50.0
ecutrho = 400
occupations = 'smearing'
smearing = 'mp'
degauss = 0.01
assume_isolated = 'esm'
esm_bc = 'bc1'
input_dft = 'BEEF-VDW'
nosym = .true.
nspin = 2
ntyp = 5
nat = 34
starting_magnetization(1) = 0.0
starting_magnetization(2) = 0.0
starting_magnetization(3) = 0.1
starting_magnetization(4) = 0.001
starting_magnetization(5) = 0.0
/
&ELECTRONS
electron_maxstep = 300
mixing_beta = 0.1
conv_thr = 1e-06
/
&IONS
ion_dynamics = 'bfgs'
upscale = 1.0
/
&CELL
/

K_POINTS {automatic}
8 6 1 0 0 0

ATOMIC_SPECIES
Al 26.98 Al.pbe-nl-rrkjus_psl.1.0.0.UPF
C 12.01 C.pbe-n-rrkjus_psl.1.0.0.UPF
Mn 54.93 mn_pbe_v1.5.uspp.F.UPF
Ni 58.69 ni_pbe_v1.4.uspp.F.UPF
O 15.99 O.pbe-n-rrkjus_psl.1.0.0.UPF

CELL_PARAMETERS {angstrom}
5.81764000 0.00000000 0.00000000
0.00000000 8.22738000 0.00000000
0.00000000 0.00000000 26.17050000

ATOMIC_POSITIONS {angstrom}
Mn 0.00000000 0.00000000 -3.085240250000002 0 0 0
Mn 2.90882000 2.05684500 -1.0285006500000016 0 0 0
Mn 2.90882000 6.17053500 -1.0285006500000016 0 0 0
Mn 0.00000000 4.11369000 -3.085240250000002 0 0 0
Mn 0.00000000 4.11212680 1.01934097
Mn 2.90882000 6.17053500 3.17421994
Mn 2.90882000 2.05684500 3.09099776
Mn 0.00000000 0.00156320 1.01934097
Al 0.00000000 6.17053500 -1.0285006500000016 0 0 0
Al 2.90882000 0.00000000 -3.085240250000002 0 0 0
Al 0.00000000 2.05684500 -1.0285006500000016 0 0 0
Al 2.90882000 4.11369000 -3.085240250000002 0 0 0
Al 0.00000000 2.05684500 3.06325702
Al 2.90882000 4.10858902 1.02457508
Al 0.00000000 6.17053500 3.10015743
Al 2.90882000 0.00510098 1.02457508
Ni 1.45441000 0.00000000 -1.0285006500000016 0 0 0
Ni 4.36323000 4.11369000 -1.0285006500000016 0 0 0
Ni 4.36323000 0.00000000 -1.0285006500000016 0 0 0
Ni 1.45441000 4.11369000 -1.0285006500000016 0 0 0
Ni 4.36323000 6.17053500 -3.085240250000002 0 0 0
Ni 1.45441000 2.05684500 -3.085240250000002 0 0 0
Ni 1.45441000 6.17053500 -3.085240250000002 0 0 0
Ni 4.36323000 2.05684500 -3.085240250000002 0 0 0
Ni 1.43148850 4.10735492 2.99102645
Ni 4.38615150 0.00633508 2.99102645
Ni 4.38615150 4.10735492 2.99102645
Ni 1.43148850 0.00633508 2.99102645
Ni 4.34345002 2.05684500 1.01253665
Ni 1.46616163 6.17053500 1.03609010
Ni 1.47418998 2.05684500 1.01253665
Ni 4.35147837 6.17053500 1.03609010
C 2.90882000 2.05684500 4.98129297
O 2.90882000 2.05684500 6.13724395
