&CONTROL
calculation = 'relax'
prefix = 'scf'
pseudo_dir = '/vol0004/mdt0/data/hp150275/u10028/POT_KKJUS'
outdir = './data'
tprnfor = .true.
nstep = 50
disk_io = 'non'
/
&SYSTEM
ibrav = 0
ecutwfc = 50.0
ecutrho = 400
occupations = 'smearing'
smearing = 'mp'
degauss = 0.01
assume_isolated = 'esm'
esm_bc = 'bc1'
input_dft = 'BEEF-VDW'
nosym = .true.
nspin = 1
ntyp = 4
nat = 34
/
&ELECTRONS
electron_maxstep = 200
mixing_beta = 0.1
conv_thr = 1e-06
/
&IONS
ion_dynamics = 'bfgs'
upscale = 1.0
/
&CELL
/

K_POINTS {automatic}
8 6 1 0 0 0

ATOMIC_SPECIES
Al 26.98 Al.pbe-nl-rrkjus_psl.1.0.0.UPF
C 12.01 C.pbe-n-rrkjus_psl.1.0.0.UPF
Cu 63.54 Cu.pbe-dn-rrkjus_psl.1.0.0.UPF
O 15.99 O.pbe-n-rrkjus_psl.1.0.0.UPF

CELL_PARAMETERS {angstrom}
5.88044000 0.00000000 0.00000000
0.00000000 8.31620000 0.00000000
0.00000000 0.00000000 26.23710000

ATOMIC_POSITIONS {angstrom}
Al 0.00000000 0.00000000 -3.1185417100000024 0 0 0
Al 2.94022000 2.07905000 -1.0395139000000029 0 0 0
Al 2.94022000 6.23715000 -1.0395139000000029 0 0 0
Al 0.00000000 4.15810000 -3.1185417100000024 0 0 0
Al 0.00000000 4.20841301 1.08988913
Al 2.94022000 6.23715000 3.30981017
Al 2.94022000 2.07905000 3.08154740
Al 0.00000000 8.26588699 1.08988913
Cu 1.47011000 0.00000000 -1.0395139000000029 0 0 0
Cu 4.41033000 4.15810000 -1.0395139000000029 0 0 0
Cu 4.41033000 0.00000000 -1.0395139000000029 0 0 0
Cu 1.47011000 4.15810000 -1.0395139000000029 0 0 0
Cu 4.41033000 6.23715000 -3.1185417100000024 0 0 0
Cu 1.47011000 2.07905000 -3.1185417100000024 0 0 0
Cu 1.47011000 6.23715000 -3.1185417100000024 0 0 0
Cu 4.41033000 2.07905000 -3.1185417100000024 0 0 0
Cu 0.00000000 6.23715000 -1.0395139000000029 0 0 0
Cu 2.94022000 0.00000000 -3.1185417100000024 0 0 0
Cu 0.00000000 2.07905000 -1.0395139000000029 0 0 0
Cu 2.94022000 4.15810000 -3.1185417100000024 0 0 0
Cu 1.56360900 4.18612559 3.08522059
Cu 4.31683100 8.28817441 3.08522059
Cu 4.31683100 4.18612559 3.08522059
Cu 1.56360900 8.28817441 3.08522059
Cu 4.48706974 2.07905000 1.06260255
Cu 1.55955149 6.23715000 1.05000874
Cu 1.39337026 2.07905000 1.06260255
Cu 4.32088851 6.23715000 1.05000874
Cu 0.00000000 2.07905000 3.21089630
Cu 2.94022000 4.09614431 0.94952065
Cu 0.00000000 6.23715000 3.03432062
Cu 2.94022000 0.06195569 0.94952065
C 0.00000000 2.07905000 5.08291338
O 0.00000000 2.07905000 6.23052414
