&CONTROL
calculation = 'relax'
prefix = 'scf'
pseudo_dir = '/vol0004/mdt0/data/hp150275/u10028/POT_KKJUS'
outdir = './data'
tprnfor = .true.
nstep = 50
disk_io = 'non'
/
&SYSTEM
ibrav = 0
ecutwfc = 50.0
ecutrho = 400
occupations = 'smearing'
smearing = 'mp'
degauss = 0.01
assume_isolated = 'esm'
esm_bc = 'bc1'
input_dft = 'BEEF-VDW'
nosym = .true.
nspin = 1
ntyp = 5
nat = 18
/
&ELECTRONS
electron_maxstep = 200
mixing_beta = 0.1
conv_thr = 1e-06
/
&IONS
ion_dynamics = 'bfgs'
upscale = 1.0
/
&CELL
/

K_POINTS {automatic}
8 8 1 0 0 0

ATOMIC_SPECIES
Ag 107.8 Ag.pbe-n-rrkjus_psl.1.0.0.UPF
C 12.01 C.pbe-n-rrkjus_psl.1.0.0.UPF
In 114.8 In.pbe-dn-rrkjus_psl.1.0.0.UPF
Li 6.941 Li.pbe-sl-rrkjus_psl.1.0.0.UPF
O 15.99 O.pbe-n-rrkjus_psl.1.0.0.UPF

CELL_PARAMETERS {angstrom}
6.67495000 0.00000000 0.00000000
0.00000000 6.67495000 0.00000000
0.00000000 0.00000000 25.00620000

ATOMIC_POSITIONS {angstrom}
Li 0.01481839 6.66019836 0.81220138
Li 3.33747500 0.00000000 -2.5031206200000007 0 0 0
Li 0.00000000 3.33747500 -2.5031206200000007 0 0 0
Li 3.32966531 3.34515119 0.80019840
Li 1.66873750 1.66873750 -0.8344568899999985 0 0 0
Li 1.67574620 4.99913705 2.66115980
Li 5.00621250 5.00621250 -0.8344568899999985 0 0 0
Li 5.00020504 1.67467821 2.60564604
In 0.00000000 0.00000000 -2.5031206200000007 0 0 0
In 3.33747500 3.33747500 -2.5031206200000007 0 0 0
In 3.32465910 6.66153335 0.81145119
In 0.01348340 3.35015741 0.81170125
Ag 1.67147423 1.67140748 2.35508392
Ag 1.66873750 5.00621250 -0.8344568899999985 0 0 0
Ag 5.00360927 5.00347577 2.35533398
Ag 5.00621250 1.66873750 -0.8344568899999985 0 0 0
C 4.99840281 1.67661394 4.68616188
O 4.99940405 1.67567945 5.82819503
