&CONTROL
calculation = 'relax'
prefix = 'scf'
pseudo_dir = '/vol0403/data/hp230205/u10028/POT_HYBRID_KKJUS_GBRV'
outdir = './data'
tprnfor = .true.
nstep = 50
disk_io = 'non'
/
&SYSTEM
ibrav = 0
ecutwfc = 50.0
ecutrho = 400
occupations = 'smearing'
smearing = 'mp'
degauss = 0.01
assume_isolated = 'esm'
esm_bc = 'bc1'
input_dft = 'BEEF-VDW'
nosym = .true.
nspin = 1
ntyp = 6
nat = 34
/
&ELECTRONS
electron_maxstep = 200
mixing_beta = 0.1
conv_thr = 1e-06
/
&IONS
ion_dynamics = 'bfgs'
upscale = 1.0
/
&CELL
/

K_POINTS {automatic}
6 6 1 0 0 0

ATOMIC_SPECIES
C 12.01 C.pbe-n-rrkjus_psl.1.0.0.UPF
Ge 72.64 Ge.pbe-dn-rrkjus_psl.1.0.0.UPF
Li 6.941 Li.pbe-sl-rrkjus_psl.1.0.0.UPF
O 15.99 O.pbe-n-rrkjus_psl.1.0.0.UPF
Pb 207.2 Pb.pbe-dn-rrkjus_psl.1.0.0.UPF
Pd 106.4 Pd.pbe-n-rrkjus_psl.1.0.0.UPF


CELL_PARAMETERS {angstrom}
6.74945000 0.00000000 0.00000000
0.00000000 9.54516000 0.00000000
0.00000000 0.00000000 27.15890000

ATOMIC_POSITIONS {angstrom}
Li 1.68736250 0.00000000 -1.1930904799999986 0 0 0
Li 1.68736250 4.77258000 -1.1930904799999986 0 0 0
Li 5.06208750 2.38629000 -3.579543019999999 0 0 0
Li 5.06208750 7.15887000 -3.579543019999999 0 0 0
Li 1.87465974 4.76923919 3.85058884
Li 1.87445725 0.00295900 3.85058884
Li 5.29379612 7.15887000 1.49889969
Li 5.21503004 2.38629000 1.36093248
Ge 0.00000000 0.00000000 -3.579543019999999 0 0 0
Ge 0.00000000 4.77258000 -3.579543019999999 0 0 0
Ge 3.37472500 7.15887000 -1.1930904799999986 0 0 0
Ge 3.37472500 2.38629000 -1.1930904799999986 0 0 0
Ge 0.03071000 4.74728533 1.66212468
Ge 0.03071000 0.02529467 1.66158150
Ge 3.43263528 2.38552639 3.49860950
Ge 3.41724653 7.15848819 3.57030899
Pd 5.06208750 0.00000000 -1.1930904799999986 0 0 0
Pd 5.06208750 4.77258000 -1.1930904799999986 0 0 0
Pd 1.68736250 2.38629000 -3.579543019999999 0 0 0
Pd 1.68736250 7.15887000 -3.579543019999999 0 0 0
Pd 4.83085134 4.75358513 3.37693763
Pd 4.83118882 0.01794490 3.37693763
Pd 1.18398852 7.15906090 2.24984328
Pd 1.34982251 2.38638545 1.88917308
Pb 0.00000000 2.38629000 -1.1930904799999986 0 0 0
Pb 0.00000000 7.15887000 -1.1930904799999986 0 0 0
Pb 3.37472500 4.77258000 -3.579543019999999 0 0 0
Pb 3.37472500 0.00000000 -3.579543019999999 0 0 0
Pb 6.20875156 7.15820184 4.58768139
Pb 6.39233660 2.38609910 4.31419126
Pb 3.11939331 9.43109534 1.14338969
Pb 3.11912333 4.88693102 1.14311810
C 0.14788045 2.38638545 8.06157629
O 6.07700230 2.38629000 8.84728326
