&CONTROL
calculation = 'relax'
prefix = 'scf'
pseudo_dir = '/vol0004/mdt0/data/hp150275/u10028/POT_KKJUS'
outdir = './data'
tprnfor = .true.
nstep = 50
disk_io = 'non'
/
&SYSTEM
ibrav = 0
ecutwfc = 50.0
ecutrho = 400
occupations = 'smearing'
smearing = 'mp'
degauss = 0.01
assume_isolated = 'esm'
esm_bc = 'bc1'
input_dft = 'BEEF-VDW'
nosym = .true.
nspin = 1
ntyp = 4
nat = 18
/
&ELECTRONS
electron_maxstep = 200
mixing_beta = 0.1
conv_thr = 1e-06
/
&IONS
ion_dynamics = 'bfgs'
upscale = 1.0
/
&CELL
/

K_POINTS {automatic}
6 8 1 0 0 0

ATOMIC_SPECIES
C 12.01 C.pbe-n-rrkjus_psl.1.0.0.UPF
Cu 63.54 Cu.pbe-dn-rrkjus_psl.1.0.0.UPF
O 15.99 O.pbe-n-rrkjus_psl.1.0.0.UPF
Pt 195.0 Pt.pbe-n-rrkjus_psl.1.0.0.UPF

CELL_PARAMETERS {angstrom}
7.52549000 0.00000000 0.00000000
0.00000000 5.32133000 0.00000000
0.00000000 0.00000000 23.99100000

ATOMIC_POSITIONS {angstrom}
Cu 0.00000000 2.66066500 -1.9955713800000012 0 0 0
Cu 1.88137250 3.99099750 -0.6652704299999996 0 0 0
Cu 1.88137250 1.33033250 -0.6652704299999996 0 0 0
Cu 7.52413541 0.00617274 0.67078836
Cu 1.88137250 1.34086873 2.03899509
Cu 1.88137250 4.03660130 1.85594376
Cu 3.76274500 2.66066500 -1.9955713800000012 0 0 0
Cu 5.64411750 3.99099750 -0.6652704299999996 0 0 0
Cu 5.64411750 1.33033250 -0.6652704299999996 0 0 0
Cu 3.76409959 0.00622596 0.67078836
Cu 5.64396699 1.30803613 1.86793926
Cu 5.64411750 4.04453008 1.85714331
Pt 0.00000000 0.00000000 -1.9955713800000012 0 0 0
Pt 0.01158925 2.66018608 0.69501927
Pt 3.76274500 0.00000000 -1.9955713800000012 0 0 0
Pt 3.75108049 2.66023929 0.69501927
C 1.88144775 1.02180179 3.87574605
O 1.88159826 0.90616929 5.01579837
