&CONTROL
calculation = 'relax'
prefix = 'scf'
pseudo_dir = '/vol0004/mdt0/data/hp150275/u10028/POT_KKJUS'
outdir = './data'
tprnfor = .true.
nstep = 50
disk_io = 'non'
/
&SYSTEM
ibrav = 0
ecutwfc = 50.0
ecutrho = 400
occupations = 'smearing'
smearing = 'mp'
degauss = 0.01
assume_isolated = 'esm'
esm_bc = 'bc1'
input_dft = 'BEEF-VDW'
nosym = .true.
nspin = 1
ntyp = 2
nat = 16
/
&ELECTRONS
electron_maxstep = 200
mixing_beta = 0.1
conv_thr = 1e-06
/
&IONS
ion_dynamics = 'bfgs'
upscale = 1.0
/
&CELL
/

K_POINTS {automatic}
8 8 1 0 0 0

ATOMIC_SPECIES
Ga 69.72 Ga.pbe-dnl-rrkjus_psl.1.0.0.UPF
Ru 101.0 Ru.pbe-spn-rrkjus_psl.1.0.0.UPF

CELL_PARAMETERS {angstrom}
6.07363000 0.00000000 0.00000000
-0.00000000 6.07363000 0.00000000
0.00000000 0.00000000 24.55520000

ATOMIC_POSITIONS {angstrom}
Ga 0.00000000 0.00000000 -2.4169683400000004 0 0 0
Ga 0.00000000 0.00000000 0.61977325
Ga 0.00000000 3.03681500 -2.4169683400000004 0 0 0
Ga 0.00000000 3.03681500 0.61977325
Ga 3.03681500 0.00000000 -2.4169683400000004 0 0 0
Ga 3.03681500 -0.00000000 0.61977325
Ga 3.03681500 3.03681500 -2.4169683400000004 0 0 0
Ga 3.03681500 3.03681500 0.61977325
Ru 1.51840750 1.51840750 -0.89847477 0 0 0
Ru 1.51840750 1.51840750 2.13826682
Ru 1.51840750 4.55522250 -0.89847477 0 0 0
Ru 1.51840750 4.55522250 2.13826682
Ru 4.55522250 1.51840750 -0.89847477 0 0 0
Ru 4.55522250 1.51840750 2.13826682
Ru 4.55522250 4.55522250 -0.89847477 0 0 0
Ru 4.55522250 4.55522250 2.13826682
