&CONTROL
calculation = 'relax'
prefix = 'scf'
pseudo_dir = '/vol0403/data/hp230205/u10028/POT_HYBRID_KKJUS_GBRV'
outdir = './data'
tprnfor = .true.
nstep = 50
disk_io = 'non'
/
&SYSTEM
ibrav = 0
ecutwfc = 50.0
ecutrho = 400
occupations = 'smearing'
smearing = 'mp'
degauss = 0.01
assume_isolated = 'esm'
esm_bc = 'bc1'
input_dft = 'BEEF-VDW'
nosym = .true.
nspin = 1
ntyp = 6
nat = 18
/
&ELECTRONS
electron_maxstep = 200
mixing_beta = 0.1
conv_thr = 1e-06
/
&IONS
ion_dynamics = 'bfgs'
upscale = 1.0
/
&CELL
/

K_POINTS {automatic}
6 6 1 0 0 0

ATOMIC_SPECIES
Al 26.98 Al.pbe-nl-rrkjus_psl.1.0.0.UPF
C 12.01 C.pbe-n-rrkjus_psl.1.0.0.UPF
In 114.8 In.pbe-dn-rrkjus_psl.1.0.0.UPF
O 15.99 O.pbe-n-rrkjus_psl.1.0.0.UPF
Pd 106.4 Pd.pbe-n-rrkjus_psl.1.0.0.UPF
Sc 44.95 Sc.pbe-spn-rrkjus_psl.1.0.0.UPF


CELL_PARAMETERS {angstrom}
8.30234000 0.00000000 0.00000000
0.00000000 5.99150000 0.00000000
0.00000000 0.00000000 24.49130000

ATOMIC_POSITIONS {angstrom}
Sc 2.06935824 4.47630957 0.79229355
Sc 2.07558500 1.35449841 -2.2456072999999996 0 0 0
Sc 6.23256664 4.47636948 0.79180373
Sc 6.22675500 1.35449841 -2.2456072999999996 0 0 0
Al 0.00000000 0.23558578 1.91179088
Al 0.00000000 2.90018558 -0.7484541299999989 0 0 0
Al 4.15125302 5.86981264 2.26177156
Al 4.15117000 2.90018558 -0.7484541299999989 0 0 0
In 2.23025759 1.47492756 0.91377040
In 2.07558500 4.35024841 -2.2456072999999996 0 0 0
In 6.07233148 1.47480773 0.91377040
In 6.22675500 4.35024841 -2.2456072999999996 0 0 0
Pd 8.30209093 3.04637818 2.04355407
Pd 0.00000000 5.89593558 -0.7484541299999989 0 0 0
Pd 4.15125302 3.32390446 2.06780046
Pd 4.15117000 5.89593558 -0.7484541299999989 0 0 0
C 8.30217395 3.08316599 4.03371711
O 8.30225698 3.07741415 5.18211417
