&CONTROL
calculation = 'relax'
prefix = 'scf'
pseudo_dir = '/vol0403/data/hp230205/u10028/POT_HYBRID_KKJUS_GBRV'
outdir = './data'
tprnfor = .true.
nstep = 50
disk_io = 'non'
/
&SYSTEM
ibrav = 0
ecutwfc = 50.0
ecutrho = 400
occupations = 'smearing'
smearing = 'mp'
degauss = 0.01
assume_isolated = 'esm'
esm_bc = 'bc1'
input_dft = 'BEEF-VDW'
nosym = .true.
nspin = 1
ntyp = 5
nat = 17
/
&ELECTRONS
electron_maxstep = 200
mixing_beta = 0.1
conv_thr = 1e-06
/
&IONS
ion_dynamics = 'bfgs'
upscale = 1.0
/
&CELL
/

K_POINTS {automatic}
8 11 2 0  0  0

ATOMIC_SPECIES
C 12.01 C.pbe-n-rrkjus_psl.1.0.0.UPF
Ga 69.72 Ga.pbe-dnl-rrkjus_psl.1.0.0.UPF
In 114.8 In.pbe-dn-rrkjus_psl.1.0.0.UPF
Li 6.941 Li.pbe-sl-rrkjus_psl.1.0.0.UPF
Sc 44.95 Sc.pbe-spn-rrkjus_psl.1.0.0.UPF


CELL_PARAMETERS {angstrom}
8.23116000 0.00000000 0.00000000
0.00000000 6.09788000 0.00000000
0.00000000 0.00000000 24.56590000

ATOMIC_POSITIONS {angstrom}
Li 0.58589397 3.07912451 2.91449838
Li 0.00000000 5.92329770 -0.7610515800000002 0 0 0
Li 3.53009759 3.07967332 2.91425272
Li 4.11558000 5.92329770 -0.7610515800000002 0 0 0
Sc 2.05762538 1.66758724 0.69202140
Sc 2.05779000 4.31156703 -2.2829090900000004 0 0 0
Sc 6.17353462 1.41964744 1.05264881
Sc 6.17337000 4.31156703 -2.2829090900000004 0 0 0
In 2.05754307 4.67676907 0.78291523
In 2.05779000 1.26262703 -2.2829090900000004 0 0 0
In 6.17254688 4.43358561 1.19439406
In 6.17337000 1.26262703 -2.2829090900000004 0 0 0
Ga 0.36241797 0.36636063 2.52537452
Ga 0.00000000 2.87435770 -0.7610515800000002 0 0 0
Ga 3.75390283 0.36733629 2.52488320
Ga 4.11558000 2.87435770 -0.7610515800000002 0 0 0
C 2.05828387 1.51446948 2.79952996
