&CONTROL
calculation = 'relax'
prefix = 'scf'
pseudo_dir = '/vol0004/mdt0/data/hp150275/u10028/POT_HYBRID_KKJUS_GBRV'
outdir = './data'
tprnfor = .true.
nstep = 50
disk_io = 'non'
/
&SYSTEM
ibrav = 0
ecutwfc = 50.0
ecutrho = 400
occupations = 'smearing'
smearing = 'mp'
degauss = 0.01
assume_isolated = 'esm'
esm_bc = 'bc1'
input_dft = 'BEEF-VDW'
nosym = .true.
nspin = 2
ntyp = 3
nat = 32
starting_magnetization(1) = 0.0
starting_magnetization(2) = 0.001
starting_magnetization(3) = 0.0
/
&ELECTRONS
electron_maxstep = 300
mixing_beta = 0.1
conv_thr = 1e-06
/
&IONS
ion_dynamics = 'bfgs'
upscale = 1.0
/
&CELL
/

K_POINTS {automatic}
8 6 1 0 0 0

ATOMIC_SPECIES
In 114.8 In.pbe-dn-rrkjus_psl.1.0.0.UPF
Ni 58.69 ni_pbe_v1.4.uspp.F.UPF
Zr 91.22 Zr.pbe-spn-rrkjus_psl.1.0.0.UPF

CELL_PARAMETERS {angstrom}
6.34973000 0.00000000 0.00000000
0.00000000 8.97987000 0.00000000
0.00000000 0.00000000 26.73490000

ATOMIC_POSITIONS {angstrom}
Zr 0.00000000 0.00000000 -3.367528 0 0 0
Zr 3.17486500 2.24496750 -1.1225984499999981 0 0 0
Zr 3.17486500 6.73490250 -1.1225984499999981 0 0 0
Zr 0.00000000 4.48993500 -3.367528 0 0 0
Zr 0.00000000 4.49020440 1.14826396
Zr 3.17486500 6.73490250 3.34453599
Zr 3.17486500 2.24496750 3.34480334
Zr 0.00000000 8.97960060 1.14826396
In 0.00000000 6.73490250 -1.1225984499999981 0 0 0
In 3.17486500 0.00000000 -3.367528 0 0 0
In 0.00000000 2.24496750 -1.1225984499999981 0 0 0
In 3.17486500 4.48993500 -3.367528 0 0 0
In 0.00000000 2.24496750 3.51456995
In 3.17486500 4.48966560 1.07902056
In 0.00000000 6.73490250 3.51483730
In 3.17486500 0.00026940 1.07902056
Ni 1.58743250 0.00000000 -1.1225984499999981 0 0 0
Ni 4.76229750 4.48993500 -1.1225984499999981 0 0 0
Ni 4.76229750 0.00000000 -1.1225984499999981 0 0 0
Ni 1.58743250 4.48993500 -1.1225984499999981 0 0 0
Ni 4.76229750 6.73490250 -3.367528 0 0 0
Ni 1.58743250 2.24496750 -3.367528 0 0 0
Ni 1.58743250 6.73490250 -3.367528 0 0 0
Ni 4.76229750 2.24496750 -3.367528 0 0 0
Ni 1.59441720 4.48930641 3.22422894
Ni 4.75537629 0.00062859 3.22422894
Ni 4.75531280 4.48930641 3.22422894
Ni 1.59435371 0.00062859 3.22422894
Ni 4.72350065 2.24496750 1.18970305
Ni 1.62635634 6.73490250 1.18997040
Ni 1.62622935 2.24496750 1.18970305
Ni 4.72337366 6.73490250 1.18997040
