&CONTROL
calculation = 'relax'
prefix = 'scf'
pseudo_dir = '/vol0004/mdt0/data/hp150275/u10028/POT_HYBRID_KKJUS_GBRV'
outdir = './data'
tprnfor = .true.
nstep = 50
disk_io = 'non'
/
&SYSTEM
ibrav = 0
ecutwfc = 50.0
ecutrho = 400
occupations = 'smearing'
smearing = 'mp'
degauss = 0.01
assume_isolated = 'esm'
esm_bc = 'bc1'
input_dft = 'BEEF-VDW'
nosym = .true.
nspin = 2
ntyp = 5
nat = 34
starting_magnetization(1) = 0.0
starting_magnetization(2) = 0.1
starting_magnetization(3) = 0.1
starting_magnetization(4) = 0.0
starting_magnetization(5) = 0.0
/
&ELECTRONS
electron_maxstep = 200
mixing_beta = 0.1
conv_thr = 1e-06
/
&IONS
ion_dynamics = 'bfgs'
upscale = 1.0
/
&CELL
/

K_POINTS {automatic}
9 6 2 0  0  0

ATOMIC_SPECIES
C 12.01 C.pbe-n-rrkjus_psl.1.0.0.UPF
Cr 51.99 cr_pbe_v1.5.uspp.F.UPF
Fe 55.84 fe_pbe_v1.5.uspp.F.UPF
Ga 69.72 Ga.pbe-dnl-rrkjus_psl.1.0.0.UPF
O 15.99 O.pbe-n-rrkjus_psl.1.0.0.UPF

CELL_PARAMETERS {angstrom}
6.89656000 0.00000000 0.00000000
0.00000000 9.75322000 0.00000000
0.00000000 0.00000000 27.31490000

ATOMIC_POSITIONS {angstrom}
Cr 0.00000000 0.00000000 23.65743489
Cr 3.44828000 2.43830500 26.09583601
Cr 3.44828000 7.31491500 26.09583601
Cr 0.00000000 4.87661000 23.65743489
Cr 0.00751725 4.87504948 0.04916682
Cr 3.51200421 7.40230385 2.84921722
Cr 3.52131457 2.33999254 2.86888395
Cr 6.84876684 9.72083931 0.55094153
Ga 0.00000000 7.31491500 26.09583601
Ga 3.44828000 0.00000000 23.65743489
Ga 0.00000000 2.43830500 26.09583601
Ga 3.44828000 4.87661000 23.65743489
Ga 6.86490479 2.31307366 2.76590677
Ga 3.42069376 4.88899659 0.65856224
Ga 6.86366341 7.43136845 2.74787894
Ga 3.11958995 9.74766066 0.86369714
Fe 1.72414000 0.00000000 26.09583601
Fe 5.17242000 4.87661000 26.09583601
Fe 5.17242000 0.00000000 26.09583601
Fe 1.72414000 4.87661000 26.09583601
Fe 5.17242000 7.31491500 23.65743489
Fe 1.72414000 2.43830500 23.65743489
Fe 1.72414000 7.31491500 23.65743489
Fe 5.17242000 2.43830500 23.65743489
Fe 1.39489823 4.86500367 2.38103983
Fe 5.35310987 0.01716567 2.47363734
Fe 5.46773070 4.87202599 2.34498417
Fe 1.51848458 9.75136689 3.01556496
Fe 5.35324780 2.85603541 0.75962737
Fe 1.58393294 7.05460156 0.72411800
Fe 1.57655362 2.69257145 0.73313192
Fe 5.34400641 6.91181442 0.72275225
C 1.55993291 9.74814833 4.87543650
O 1.85889878 0.00175558 5.98196310
