&CONTROL
calculation = 'relax'
prefix = 'scf'
pseudo_dir = '/vol0403/data/hp230205/u10028/POT_HYBRID_KKJUS_GBRV'
outdir = './data'
tprnfor = .true.
nstep = 70
disk_io = 'non'
/
&SYSTEM
ibrav = 0
ecutwfc = 50.0
ecutrho = 400
occupations = 'smearing'
smearing = 'mp'
degauss = 0.01
assume_isolated = 'esm'
esm_bc = 'bc1'
input_dft = 'BEEF-VDW'
nosym = .true.
nspin = 1
ntyp = 6
nat = 34
/
&ELECTRONS
electron_maxstep = 200
mixing_beta = 0.1
conv_thr = 1e-06
/
&IONS
ion_dynamics = 'bfgs'
upscale = 1.0
/
&CELL
/

K_POINTS {automatic}
9 6 2 0  0  0

ATOMIC_SPECIES
Ag 107.8 Ag.pbe-n-rrkjus_psl.1.0.0.UPF
C 12.01 C.pbe-n-rrkjus_psl.1.0.0.UPF
Li 6.941 Li.pbe-sl-rrkjus_psl.1.0.0.UPF
Mg 24.30 Mg.pbe-spnl-rrkjus_psl.1.0.0.UPF
O 15.99 O.pbe-n-rrkjus_psl.1.0.0.UPF
Pb 207.2 Pb.pbe-dn-rrkjus_psl.1.0.0.UPF


CELL_PARAMETERS {angstrom}
6.87998000 0.00000000 0.00000000
-0.00000000 9.72976000 0.00000000
0.00000000 0.00000000 27.29730000

ATOMIC_POSITIONS {angstrom}
Li 5.15998500 0.00000000 -1.216094720000001 0 0 0
Li 5.15998500 4.86488000 -1.216094720000001 0 0 0
Li 1.71999500 2.43244000 -3.6485571199999995 0 0 0
Li 1.71999500 7.29732000 -3.6485571199999995 0 0 0
Li 5.18193214 4.86488000 3.75283280
Li 5.16961697 -0.00000000 3.87730849
Li 1.66681275 7.30130920 1.28843256
Li 1.66674395 2.42835350 1.28843256
Mg 1.71999500 0.00000000 -1.216094720000001 0 0 0
Mg 1.71999500 4.86488000 -1.216094720000001 0 0 0
Mg 5.15998500 2.43244000 -3.6485571199999995 0 0 0
Mg 5.15998500 7.29732000 -3.6485571199999995 0 0 0
Mg 1.76629727 4.86488000 3.86256795
Mg 1.69536467 -0.00000000 3.82298687
Mg 5.29448861 7.28661726 1.39898662
Mg 5.29455741 2.44314274 1.39898662
Ag 0.00000000 0.00000000 -3.6485571199999995 0 0 0
Ag 0.00000000 4.86488000 -3.6485571199999995 0 0 0
Ag 3.43999000 7.29732000 -1.216094720000001 0 0 0
Ag 3.43999000 2.43244000 -1.216094720000001 0 0 0
Ag 0.07691818 4.86488000 1.43147041
Ag 0.03192311 0.00000000 1.40635690
Ag 3.31835195 2.43730488 3.57785711
Ag 3.31842075 7.29245512 3.57785711
Pb 0.00000000 2.43244000 -1.216094720000001 0 0 0
Pb 0.00000000 7.29732000 -1.216094720000001 0 0 0
Pb 3.43999000 4.86488000 -3.6485571199999995 0 0 0
Pb 3.43999000 0.00000000 -3.6485571199999995 0 0 0
Pb 6.87915440 7.26793612 4.07794365
Pb 6.87922320 2.46182388 4.07794365
Pb 3.47377070 -0.00000000 1.35067040
Pb 3.45966674 4.86488000 1.32064337
C 5.02795818 -0.00000000 5.96746275
O 5.02885258 -0.00000000 7.11121962
