&CONTROL
calculation = 'relax'
prefix = 'scf'
pseudo_dir = '/vol0004/mdt0/data/hp150275/u10028/POT_KKJUS'
outdir = './data'
tprnfor = .true.
nstep = 50
disk_io = 'non'
/
&SYSTEM
ibrav = 0
ecutwfc = 50.0
ecutrho = 400
occupations = 'smearing'
smearing = 'mp'
degauss = 0.01
assume_isolated = 'esm'
esm_bc = 'bc1'
input_dft = 'BEEF-VDW'
nosym = .true.
nspin = 1
ntyp = 5
nat = 18
/
&ELECTRONS
electron_maxstep = 200
mixing_beta = 0.1
conv_thr = 1e-06
/
&IONS
ion_dynamics = 'bfgs'
upscale = 1.0
/
&CELL
/

K_POINTS {automatic}
9 9 2 0  0  0

ATOMIC_SPECIES
Au 196.9 Au.pbe-n-rrkjus_psl.1.0.0.UPF
C 12.01 C.pbe-n-rrkjus_psl.1.0.0.UPF
Li 6.941 Li.pbe-sl-rrkjus_psl.1.0.0.UPF
O 15.99 O.pbe-n-rrkjus_psl.1.0.0.UPF
Sb 121.7 Sb.pbe-n-rrkjus_psl.1.0.0.UPF

CELL_PARAMETERS {angstrom}
6.66546000 0.00000000 0.00000000
0.00000000 6.66546000 0.00000000
0.00000000 0.00000000 24.99910000

ATOMIC_POSITIONS {angstrom}
Li 0.00000000 0.00000000 -0.8332199999999972 0 0 0
Li 3.33273000 0.00000000 2.59165670
Li 0.00000000 3.33273000 2.59165670
Li 3.33273000 3.33273000 -0.8332199999999972 0 0 0
Li 1.66636500 1.66636500 -2.4996600099999995 0 0 0
Li 1.79540831 4.87005169 0.99671412
Li 4.99909500 4.99909500 -2.4996600099999995 0 0 0
Li 4.87005169 1.79534165 0.99671412
Sb 0.00000000 0.00000000 2.61815574
Sb 3.33273000 3.33273000 2.78414977
Sb 3.33273000 0.00000000 -0.8332199999999972 0 0 0
Sb 0.00000000 3.33273000 -0.8332199999999972 0 0 0
Au 1.88232590 1.88232590 0.88846801
Au 1.66636500 4.99909500 -2.4996600099999995 0 0 0
Au 4.78306744 4.78320075 0.88846801
Au 4.99909500 1.66636500 -2.4996600099999995 0 0 0
C 0.00006665 0.00013331 4.74432920
O 0.00000000 0.00000000 5.90603737
