&CONTROL
calculation = 'relax'
prefix = 'scf'
pseudo_dir = '/vol0004/mdt0/data/hp150275/u10028/POT_KKJUS'
outdir = './data'
tprnfor = .true.
nstep = 50
disk_io = 'non'
/
&SYSTEM
ibrav = 0
ecutwfc = 50.0
ecutrho = 400
occupations = 'smearing'
smearing = 'mp'
degauss = 0.01
assume_isolated = 'esm'
esm_bc = 'bc1'
input_dft = 'BEEF-VDW'
nosym = .true.
nspin = 1
ntyp = 3
nat = 32
/
&ELECTRONS
electron_maxstep = 200
mixing_beta = 0.1
conv_thr = 1e-06
/
&IONS
ion_dynamics = 'bfgs'
upscale = 1.0
/
&CELL
/

K_POINTS {automatic}
9 6 2 0  0  0

ATOMIC_SPECIES
Li 6.941 Li.pbe-sl-rrkjus_psl.1.0.0.UPF
Na 22.98 Na.pbe-spnl-rrkjus_psl.1.0.0.UPF
Sb 121.7 Sb.pbe-n-rrkjus_psl.1.0.0.UPF

CELL_PARAMETERS {angstrom}
6.84524000 0.00000000 0.00000000
0.00000000 9.68063000 0.00000000
0.00000000 0.00000000 27.26050000

ATOMIC_POSITIONS {angstrom}
Na 0.00000000 0.00000000 -3.6302807799999997 0 0 0
Na 3.42262000 2.42015750 -1.2100935899999996 0 0 0
Na 3.42262000 7.26047250 -1.2100935899999996 0 0 0
Na 0.00000000 4.84031500 -3.6302807799999997 0 0 0
Na 0.00000000 4.84031500 1.12122437
Na 3.42262000 7.26047250 3.76331203
Na 3.42262000 2.42015750 3.76331203
Na 0.00000000 0.00000000 1.12122437
Li 1.71131000 0.00000000 -1.2100935899999996 0 0 0
Li 5.13393000 4.84031500 -1.2100935899999996 0 0 0
Li 5.13393000 0.00000000 -1.2100935899999996 0 0 0
Li 1.71131000 4.84031500 -1.2100935899999996 0 0 0
Li 5.13393000 7.26047250 -3.6302807799999997 0 0 0
Li 1.71131000 2.42015750 -3.6302807799999997 0 0 0
Li 1.71131000 7.26047250 -3.6302807799999997 0 0 0
Li 5.13393000 2.42015750 -3.6302807799999997 0 0 0
Li 1.40751825 4.84031500 3.57276113
Li 5.43772175 0.00000000 3.57276113
Li 5.43772175 4.84031500 3.57276113
Li 1.40751825 0.00000000 3.57276113
Li 5.10216809 2.42015750 1.27906266
Li 1.74307191 7.26047250 1.27906266
Li 1.74307191 2.42015750 1.27906266
Li 5.10216809 7.26047250 1.27906266
Sb 0.00000000 7.26047250 -1.2100935899999996 0 0 0
Sb 3.42262000 0.00000000 -3.6302807799999997 0 0 0
Sb 0.00000000 2.42015750 -1.2100935899999996 0 0 0
Sb 3.42262000 4.84031500 -3.6302807799999997 0 0 0
Sb 0.00000000 2.42015750 3.59020785
Sb 3.42262000 4.84031500 1.36029895
Sb 0.00000000 7.26047250 3.59020785
Sb 3.42262000 0.00000000 1.36029895
