&CONTROL
calculation = 'relax'
prefix = 'scf'
pseudo_dir = '/vol0004/mdt0/data/hp150275/u10028/POT_KKJUS'
outdir = './data'
tprnfor = .true.
nstep = 50
disk_io = 'non'
/
&SYSTEM
ibrav = 0
ecutwfc = 50.0
ecutrho = 400
occupations = 'smearing'
smearing = 'mp'
degauss = 0.01
assume_isolated = 'esm'
esm_bc = 'bc1'
input_dft = 'BEEF-VDW'
nosym = .true.
nspin = 1
ntyp = 2
nat = 16
/
&ELECTRONS
electron_maxstep = 200
mixing_beta = 0.1
conv_thr = 1e-06
/
&IONS
ion_dynamics = 'bfgs'
upscale = 1.0
/
&CELL
/

K_POINTS {automatic}
6 8 1 0 0 0

ATOMIC_SPECIES
Ca 40.07 Ca.pbe-spn-rrkjus_psl.1.0.0.UPF
Pb 207.2 Pb.pbe-dn-rrkjus_psl.1.0.0.UPF

CELL_PARAMETERS {angstrom}
10.04260000 0.00000000 0.00000000
0.00000000 7.10117000 0.00000000
0.00000000 0.00000000 25.32590000

ATOMIC_POSITIONS {angstrom}
Ca 0.00000000 0.00000000 -2.6630183900000013 0 0 0
Ca 0.00000000 3.55058500 0.84461876
Ca 5.02130000 0.00000000 -2.6630183900000013 0 0 0
Ca 5.02130000 3.55058500 0.84487202
Pb 0.00000000 3.55058500 -2.6630183900000013 0 0 0
Pb 2.51065000 5.32587750 -0.8876727899999999 0 0 0
Pb 2.51065000 1.77529250 -0.8876727899999999 0 0 0
Pb 0.00000000 7.10109899 1.03709560
Pb 2.51044915 1.72636544 2.42368863
Pb 2.51044915 5.37501760 2.42394189
Pb 5.02130000 3.55058500 -2.6630183900000013 0 0 0
Pb 7.53195000 5.32587750 -0.8876727899999999 0 0 0
Pb 7.53195000 1.77529250 -0.8876727899999999 0 0 0
Pb 5.02130000 7.10109899 1.03709560
Pb 7.53215085 1.72622342 2.42343537
Pb 7.53205043 5.37508861 2.42368863
