&CONTROL
calculation = 'relax'
prefix = 'scf'
pseudo_dir = '/vol0004/mdt0/data/hp150275/u10028/POT_KKJUS'
outdir = './data'
tprnfor = .true.
nstep = 50
disk_io = 'non'
/
&SYSTEM
ibrav = 0
ecutwfc = 50.0
ecutrho = 400
occupations = 'smearing'
smearing = 'mp'
degauss = 0.01
assume_isolated = 'esm'
esm_bc = 'bc1'
input_dft = 'BEEF-VDW'
nosym = .true.
nspin = 1
ntyp = 5
nat = 34
/
&ELECTRONS
electron_maxstep = 200
mixing_beta = 0.1
conv_thr = 1e-06
/
&IONS
ion_dynamics = 'bfgs'
upscale = 1.0
/
&CELL
/

K_POINTS {automatic}
8 6 1 0 0 0

ATOMIC_SPECIES
C 12.01 C.pbe-n-rrkjus_psl.1.0.0.UPF
In 114.8 In.pbe-dn-rrkjus_psl.1.0.0.UPF
Li 6.941 Li.pbe-sl-rrkjus_psl.1.0.0.UPF
O 15.99 O.pbe-n-rrkjus_psl.1.0.0.UPF
Rh 102.9 Rh.pbe-spn-rrkjus_psl.1.0.0.UPF

CELL_PARAMETERS {angstrom}
6.34973000 0.00000000 0.00000000
0.00000000 8.97987000 0.00000000
0.00000000 0.00000000 26.73490000

ATOMIC_POSITIONS {angstrom}
Li 0.00000000 6.73490250 -1.1225984499999981 0 0 0
Li 3.17486500 0.00000000 -3.367528 0 0 0
Li 0.00000000 2.24496750 -1.1225984499999981 0 0 0
Li 3.17486500 4.48993500 -3.367528 0 0 0
Li 1.58743250 2.24496750 -3.367528 0 0 0
Li 1.58743250 6.73490250 -3.367528 0 0 0
Li 4.76229750 4.48993500 -1.1225984499999981 0 0 0
Li 4.76229750 0.00000000 -1.1225984499999981 0 0 0
Li 6.34407874 2.23589783 3.39693639
Li 3.16362598 4.48993500 1.16884983
Li 6.34407874 6.74397217 3.39693639
Li 3.22947268 0.00000000 1.09639825
Li 1.59962398 6.74127821 1.10896365
Li 1.59962398 2.23859179 1.10896365
Li 4.65003427 0.00000000 3.47125942
Li 4.62838169 4.48993500 3.53462113
In 1.58743250 0.00000000 -1.1225984499999981 0 0 0
In 1.58743250 4.48993500 -1.1225984499999981 0 0 0
In 4.76229750 6.73490250 -3.367528 0 0 0
In 4.76229750 2.24496750 -3.367528 0 0 0
In 1.64470706 4.48993500 3.52339247
In 1.67677320 0.00000000 3.39960988
In 4.79690353 2.25897610 1.08998187
In 4.79690353 6.72089390 1.08998187
Rh 0.00000000 0.00000000 -3.367528 0 0 0
Rh 3.17486500 2.24496750 -1.1225984499999981 0 0 0
Rh 3.17486500 6.73490250 -1.1225984499999981 0 0 0
Rh 0.00000000 4.48993500 -3.367528 0 0 0
Rh 0.04705150 4.48993500 1.26589752
Rh 3.11930486 6.70957927 3.18038370
Rh 3.11930486 2.27029073 3.18038370
Rh 0.01796974 0.00000000 1.20119906
C 4.77093313 0.00000000 5.53519370
O 4.71511901 0.00000000 6.67784332
