&CONTROL
calculation = 'relax'
prefix = 'scf'
pseudo_dir = '/vol0403/data/hp230205/u10028/POT_HYBRID_KKJUS_GBRV'
outdir = './data'
tprnfor = .true.
nstep = 70
disk_io = 'non'
/
&SYSTEM
ibrav = 0
ecutwfc = 50.0
ecutrho = 400
occupations = 'smearing'
smearing = 'mp'
degauss = 0.01
assume_isolated = 'esm'
esm_bc = 'bc1'
input_dft = 'BEEF-VDW'
nosym = .true.
nspin = 1
ntyp = 6
nat = 34
/
&ELECTRONS
electron_maxstep = 200
mixing_beta = 0.1
conv_thr = 1e-06
/
&IONS
ion_dynamics = 'bfgs'
upscale = 1.0
/
&CELL
/

K_POINTS {automatic}
9 6 2 0  0  0

ATOMIC_SPECIES
C 12.01 C.pbe-n-rrkjus_psl.1.0.0.UPF
Cu 63.54 Cu.pbe-dn-rrkjus_psl.1.0.0.UPF
Ge 72.64 Ge.pbe-dn-rrkjus_psl.1.0.0.UPF
O 15.99 O.pbe-n-rrkjus_psl.1.0.0.UPF
Pd 106.4 Pd.pbe-n-rrkjus_psl.1.0.0.UPF
Sc 44.95 Sc.pbe-spn-rrkjus_psl.1.0.0.UPF


CELL_PARAMETERS {angstrom}
6.33395000 0.00000000 0.00000000
-0.00000000 8.95756000 0.00000000
0.00000000 0.00000000 26.71820000

ATOMIC_POSITIONS {angstrom}
Sc 4.75046250 0.00000000 -1.1197597600000009 0 0 0
Sc 4.75046250 4.47878000 -1.1197597600000009 0 0 0
Sc 1.58348750 2.23939000 -3.359012100000001 0 0 0
Sc 1.58348750 6.71817000 -3.359012100000001 0 0 0
Sc 4.40443881 4.39251870 3.46214436
Sc 4.40443881 0.08626130 3.46214436
Sc 1.51660099 6.71817000 1.23117466
Sc 1.59989243 2.23939000 1.22716693
Cu 0.00000000 0.00000000 -3.359012100000001 0 0 0
Cu 0.00000000 4.47878000 -3.359012100000001 0 0 0
Cu 3.16697500 6.71817000 -1.1197597600000009 0 0 0
Cu 3.16697500 2.23939000 -1.1197597600000009 0 0 0
Cu 6.16705042 4.47725721 1.29957325
Cu 6.16705042 0.00152279 1.29957325
Cu 2.33064024 2.23939000 4.13330554
Cu 2.86155193 6.71808042 3.69592861
Ge 1.58348750 0.00000000 -1.1197597600000009 0 0 0
Ge 1.58348750 4.47878000 -1.1197597600000009 0 0 0
Ge 4.75046250 2.23939000 -3.359012100000001 0 0 0
Ge 4.75046250 6.71817000 -3.359012100000001 0 0 0
Ge 1.46307911 4.52311992 3.30664443
Ge 1.46301577 8.91313050 3.30664443
Ge 4.69751068 6.71817000 1.09411029
Ge 4.70922849 2.23947958 1.10239293
Pd 0.00000000 2.23939000 -1.1197597600000009 0 0 0
Pd 0.00000000 6.71817000 -1.1197597600000009 0 0 0
Pd 3.16697500 4.47878000 -3.359012100000001 0 0 0
Pd 3.16697500 0.00000000 -3.359012100000001 0 0 0
Pd 5.94529883 6.71817000 3.35981365
Pd 6.12562638 2.23939000 3.28901042
Pd 3.16779841 8.92925411 1.06819364
Pd 3.16773507 4.50717547 1.06819364
C 3.39404711 2.23921085 5.64635721
O 3.91406440 2.23921085 6.68088591
