&CONTROL
calculation = 'relax'
prefix = 'scf'
pseudo_dir = '/vol0004/mdt0/data/hp150275/u10028/POT_KKJUS'
outdir = './data'
tprnfor = .true.
nstep = 50
disk_io = 'non'
/
&SYSTEM
ibrav = 0
ecutwfc = 50.0
ecutrho = 400
occupations = 'smearing'
smearing = 'mp'
degauss = 0.01
assume_isolated = 'esm'
esm_bc = 'bc1'
input_dft = 'BEEF-VDW'
nosym = .true.
nspin = 1
ntyp = 5
nat = 18
/
&ELECTRONS
electron_maxstep = 200
mixing_beta = 0.1
conv_thr = 1e-06
/
&IONS
ion_dynamics = 'bfgs'
upscale = 1.0
/
&CELL
/

K_POINTS {automatic}
9 9 2 0  0  0

ATOMIC_SPECIES
C 12.01 C.pbe-n-rrkjus_psl.1.0.0.UPF
Cu 63.54 Cu.pbe-dn-rrkjus_psl.1.0.0.UPF
In 114.8 In.pbe-dn-rrkjus_psl.1.0.0.UPF
O 15.99 O.pbe-n-rrkjus_psl.1.0.0.UPF
Y 88.90 Y.pbe-spn-rrkjus_psl.1.0.0.UPF

CELL_PARAMETERS {angstrom}
6.69979000 0.00000000 0.00000000
-0.00000000 6.69979000 0.00000000
0.00000000 0.00000000 25.02480000

ATOMIC_POSITIONS {angstrom}
Y 0.00000000 0.00000000 -2.51248992 0 0 0
Y 3.34989500 3.34989500 -2.51248992 0 0 0
Y 3.34989500 -0.00000000 0.83758006
Y 0.00000000 3.34989500 0.83758006
In 0.00000000 0.00000000 0.83758006
In 3.34989500 0.00000000 -2.51248992 0 0 0
In 0.00000000 3.34989500 -2.51248992 0 0 0
In 3.34989500 3.34989500 0.83758006
Cu 1.67494750 1.67494750 -0.8375800600000005 0 0 0
Cu 5.02484250 5.02484250 2.51248992
Cu 5.02484250 1.67494750 -0.8375800600000005 0 0 0
Cu 1.67494750 5.02484250 2.51248992
Cu 5.02484250 5.02484250 -0.8375800600000005 0 0 0
Cu 1.67494750 1.67494750 2.51248992
Cu 1.67494750 5.02484250 -0.8375800600000005 0 0 0
Cu 5.02484250 1.67494750 2.51248992
C 1.67494750 1.67494750 4.41237274
O 1.67494750 1.67494750 5.56251254
