&CONTROL
calculation = 'relax'
prefix = 'scf'
pseudo_dir = '/vol0004/mdt0/data/hp150275/u10028/POT_KKJUS'
outdir = './data'
tprnfor = .true.
nstep = 50
disk_io = 'non'
/
&SYSTEM
ibrav = 0
ecutwfc = 50.0
ecutrho = 400
occupations = 'smearing'
smearing = 'mp'
degauss = 0.01
assume_isolated = 'esm'
esm_bc = 'bc1'
input_dft = 'BEEF-VDW'
nosym = .true.
nspin = 1
ntyp = 3
nat = 33
/
&ELECTRONS
electron_maxstep = 200
mixing_beta = 0.1
conv_thr = 1e-06
/
&IONS
ion_dynamics = 'bfgs'
upscale = 1.0
/
&CELL
/

K_POINTS {automatic}
6 6 1 0 0 0

ATOMIC_SPECIES
C 12.01 C.pbe-n-rrkjus_psl.1.0.0.UPF
Pb 207.2 Pb.pbe-dn-rrkjus_psl.1.0.0.UPF
Pt 195.0 Pt.pbe-n-rrkjus_psl.1.0.0.UPF

CELL_PARAMETERS {angstrom}
8.34058000 0.00000000 0.00000000
0.00000000 8.34058000 0.00000000
0.00000000 0.00000000 26.25540000

ATOMIC_POSITIONS {angstrom}
Pt 8.31705956 2.09190087 1.04312704
Pt 2.08514500 8.34049659 0.96698638
Pt 2.08514500 1.96403978 2.91172386
Pt 0.00000000 2.08514500 -3.127805800000001 0 0 0
Pt 2.08514500 0.00000000 -3.127805800000001 0 0 0
Pt 2.08514500 2.08514500 -1.04260193 0 0 0
Pt 8.31705956 6.24867913 1.04312704
Pt 2.08514500 4.17037341 1.19278282
Pt 2.08514500 6.37645682 2.91172386
Pt 0.00000000 6.25543500 -3.127805800000001 0 0 0
Pt 2.08514500 4.17029000 -3.127805800000001 0 0 0
Pt 2.08514500 6.25543500 -1.04260193 0 0 0
Pt 4.19381044 2.09190087 1.04312704
Pt 6.25543500 8.34049659 1.13659627
Pt 6.25543500 2.21801044 2.94506822
Pt 4.17029000 2.08514500 -3.127805800000001 0 0 0
Pt 6.25543500 0.00000000 -3.127805800000001 0 0 0
Pt 6.25543500 2.08514500 -1.04260193 0 0 0
Pt 4.19381044 6.24867913 1.04312704
Pt 6.25543500 4.17045681 0.97460045
Pt 6.25543500 6.12256956 2.94506822
Pt 4.17029000 6.25543500 -3.127805800000001 0 0 0
Pt 6.25543500 4.17029000 -3.127805800000001 0 0 0
Pt 6.25543500 6.25543500 -1.04260193 0 0 0
Pb 7.93089071 0.00000000 3.79653084
Pb 0.00000000 0.00000000 -1.04260193 0 0 0
Pb 0.05096094 4.17029000 3.41609009
Pb 0.00000000 4.17029000 -1.04260193 0 0 0
Pb 4.57997929 0.00000000 3.79653084
Pb 4.17029000 0.00000000 -1.04260193 0 0 0
Pb 4.11932906 4.17029000 3.41609009
Pb 4.17029000 4.17029000 -1.04260193 0 0 0
C 2.08514500 0.00000000 3.05954176
