&CONTROL
calculation = 'relax'
prefix = 'scf'
pseudo_dir = '/vol0403/data/hp230205/u10028/POT_HYBRID_KKJUS_GBRV'
outdir = './data'
tprnfor = .true.
nstep = 50
disk_io = 'non'
/
&SYSTEM
ibrav = 0
ecutwfc = 50.0
ecutrho = 400
occupations = 'smearing'
smearing = 'mp'
degauss = 0.01
assume_isolated = 'esm'
esm_bc = 'bc1'
input_dft = 'BEEF-VDW'
nosym = .true.
nspin = 1
ntyp = 5
nat = 17
/
&ELECTRONS
electron_maxstep = 200
mixing_beta = 0.1
conv_thr = 1e-06
/
&IONS
ion_dynamics = 'bfgs'
upscale = 1.0
/
&CELL
/

K_POINTS {automatic}
11 8 2 0  0  0

ATOMIC_SPECIES
C 12.01 C.pbe-n-rrkjus_psl.1.0.0.UPF
Ga 69.72 Ga.pbe-dnl-rrkjus_psl.1.0.0.UPF
Ge 72.64 Ge.pbe-dn-rrkjus_psl.1.0.0.UPF
Li 6.941 Li.pbe-sl-rrkjus_psl.1.0.0.UPF
Sc 44.95 Sc.pbe-spn-rrkjus_psl.1.0.0.UPF


CELL_PARAMETERS {angstrom}
5.77599000 0.00000000 0.00000000
0.00000000 8.07712000 0.00000000
0.00000000 0.00000000 24.32640000

ATOMIC_POSITIONS {angstrom}
Li 1.37070019 2.01928000 -0.7210344999999982 0 0 0
Li 3.38276630 1.64143233 2.63965766
Li 1.37070019 6.05784000 -0.7210344999999982 0 0 0
Li 3.38270854 6.43560690 2.63965766
Sc 2.88799500 0.00000000 -2.163103490000001 0 0 0
Sc 5.43561091 0.00000000 0.76603834
Sc 2.88799500 4.03856000 -2.163103490000001 0 0 0
Sc 5.32430758 4.03847923 1.04846784
Ga 0.00000000 0.00000000 -2.163103490000001 0 0 0
Ga 2.61080524 8.07695846 0.56266963
Ga 0.00000000 4.03856000 -2.163103490000001 0 0 0
Ga 2.45537335 4.03872154 1.13798899
Ge 4.25869519 2.01928000 -0.7210344999999982 0 0 0
Ge 0.74383199 1.85709143 2.53675699
Ge 4.25869519 6.05784000 -0.7210344999999982 0 0 0
Ge 0.74400527 6.21970548 2.53651373
C 1.49182270 8.07703923 2.25773318
