&CONTROL
calculation = 'relax'
prefix = 'scf'
pseudo_dir = '/vol0004/mdt0/data/hp150275/u10028/POT_KKJUS'
outdir = './data'
tprnfor = .true.
nstep = 50
disk_io = 'non'
/
&SYSTEM
ibrav = 0
ecutwfc = 50.0
ecutrho = 400
occupations = 'smearing'
smearing = 'mp'
degauss = 0.01
assume_isolated = 'esm'
esm_bc = 'bc1'
input_dft = 'BEEF-VDW'
nosym = .true.
nspin = 1
ntyp = 5
nat = 18
/
&ELECTRONS
electron_maxstep = 200
mixing_beta = 0.1
conv_thr = 1e-06
/
&IONS
ion_dynamics = 'bfgs'
upscale = 1.0
/
&CELL
/

K_POINTS {automatic}
9 9 2 0  0  0

ATOMIC_SPECIES
C 12.01 C.pbe-n-rrkjus_psl.1.0.0.UPF
Li 6.941 Li.pbe-sl-rrkjus_psl.1.0.0.UPF
O 15.99 O.pbe-n-rrkjus_psl.1.0.0.UPF
Pd 106.4 Pd.pbe-n-rrkjus_psl.1.0.0.UPF
Sb 121.7 Sb.pbe-n-rrkjus_psl.1.0.0.UPF

CELL_PARAMETERS {angstrom}
6.43375000 0.00000000 0.00000000
0.00000000 6.43375000 0.00000000
0.00000000 0.00000000 24.82530000

ATOMIC_POSITIONS {angstrom}
Li 0.00000000 0.00000000 -0.804339719999998 0 0 0
Li 3.21681066 0.00000000 2.52771205
Li 0.00000000 3.21687500 2.52746379
Li 3.21687500 3.21687500 -0.804339719999998 0 0 0
Li 1.60843750 1.60843750 -2.412770909999999 0 0 0
Li 1.76992463 4.66382538 0.87409881
Li 4.82531250 4.82531250 -2.412770909999999 0 0 0
Li 4.66382538 1.76992463 0.87409881
Sb 0.00000000 0.00000000 2.20994821
Sb 3.21687500 3.21687500 2.68013939
Sb 3.21687500 0.00000000 -0.804339719999998 0 0 0
Sb 0.00000000 3.21687500 -0.804339719999998 0 0 0
Pd 1.69825265 1.69825265 0.82519297
Pd 1.60843750 4.82531250 -2.412770909999999 0 0 0
Pd 4.73549735 4.73543301 0.82519297
Pd 4.82531250 1.60843750 -2.412770909999999 0 0 0
C 0.00000000 0.00006434 4.35311636
O 0.00000000 0.00000000 5.51096835
