&CONTROL
calculation = 'relax'
prefix = 'scf'
pseudo_dir = '/vol0403/data/hp230205/u10028/POT_HYBRID_KKJUS_GBRV'
outdir = './data'
tprnfor = .true.
nstep = 50
disk_io = 'non'
/
&SYSTEM
ibrav = 0
ecutwfc = 50.0
ecutrho = 400
occupations = 'smearing'
smearing = 'mp'
degauss = 0.01
assume_isolated = 'esm'
esm_bc = 'bc1'
input_dft = 'BEEF-VDW'
nosym = .true.
nspin = 2
ntyp = 6
nat = 18
starting_magnetization(1) = 0.0
starting_magnetization(2) = 0.0
starting_magnetization(3) = 0.1
starting_magnetization(4) = 0.0
starting_magnetization(5) = 0.0
starting_magnetization(6) = 0.0
/
&ELECTRONS
electron_maxstep = 400
mixing_beta = 0.05
conv_thr = 1e-06
/
&IONS
ion_dynamics = 'bfgs'
upscale = 1.0
/
&CELL
/

K_POINTS {automatic}
9 9 2 0  0  0

ATOMIC_SPECIES
C 12.01 C.pbe-n-rrkjus_psl.1.0.0.UPF
Li 6.941 Li.pbe-sl-rrkjus_psl.1.0.0.UPF
Mn 54.93 mn_pbe_v1.5.uspp.F.UPF
O 15.99 O.pbe-n-rrkjus_psl.1.0.0.UPF
Pd 106.4 Pd.pbe-n-rrkjus_psl.1.0.0.UPF
Sb 121.7 Sb.pbe-n-rrkjus_psl.1.0.0.UPF


CELL_PARAMETERS {angstrom}
6.44934000 0.00000000 0.00000000
0.00000000 6.44934000 0.00000000
0.00000000 0.00000000 24.83700000

ATOMIC_POSITIONS {angstrom}
Li 0.00000000 0.00000000 22.41862131
Li 6.41135339 3.18694136 0.82583025
Li 3.26246313 0.03798661 0.82583025
Li 3.22467000 3.22467000 22.41862131
Mn 0.00000000 3.22467000 22.41862131
Mn 6.40129242 0.04798309 0.82558188
Mn 3.27291106 3.17642894 0.82781721
Mn 3.22467000 0.00000000 22.41862131
Sb 4.83700500 1.61233500 24.03079098
Sb 4.83790791 4.83881082 2.39850909
Sb 1.61059368 1.61136760 2.39850909
Sb 1.61233500 4.83700500 24.03079098
Pd 1.61233500 1.61233500 24.03079098
Pd 1.61220601 4.83719848 2.10568086
Pd 4.84132606 1.60788496 2.62030350
Pd 4.83700500 4.83700500 24.03079098
C 4.83294192 1.61659156 4.62663636
O 4.83758544 1.61188355 5.77261554
