&CONTROL
calculation = 'relax'
prefix = 'scf'
pseudo_dir = '/vol0403/data/hp230205/u10028/POT_HYBRID_KKJUS_GBRV'
outdir = './data'
tprnfor = .true.
nstep = 50
disk_io = 'non'
/
&SYSTEM
ibrav = 0
ecutwfc = 50.0
ecutrho = 400
occupations = 'smearing'
smearing = 'mp'
degauss = 0.01
assume_isolated = 'esm'
esm_bc = 'bc1'
input_dft = 'BEEF-VDW'
nosym = .true.
nspin = 1
ntyp = 5
nat = 33
/
&ELECTRONS
electron_maxstep = 200
mixing_beta = 0.1
conv_thr = 1e-06
/
&IONS
ion_dynamics = 'bfgs'
upscale = 1.0
/
&CELL
/

K_POINTS {automatic}
6 6 1 0 0 0

ATOMIC_SPECIES
C 12.01 C.pbe-n-rrkjus_psl.1.0.0.UPF
Ge 72.64 Ge.pbe-dn-rrkjus_psl.1.0.0.UPF
Li 6.941 Li.pbe-sl-rrkjus_psl.1.0.0.UPF
Pd 106.4 Pd.pbe-n-rrkjus_psl.1.0.0.UPF
V 50.94 V.pbe-spnl-rrkjus_psl.1.0.0.UPF


CELL_PARAMETERS {angstrom}
9.40562000 0.00000000 0.00000000
0.00000000 5.68832000 0.00000000
0.00000000 0.00000000 26.48090000

ATOMIC_POSITIONS {angstrom}
Li 2.35093472 1.83112709 3.24735277
Li 2.35140500 1.42208000 -1.0801559099999984 0 0 0
Li 2.35187528 3.85719291 3.24735277
Li 2.35140500 4.26624000 -1.0801559099999984 0 0 0
Li 7.05430906 1.34170404 3.60934667
Li 7.05421500 1.42208000 -1.0801559099999984 0 0 0
Li 7.05383878 4.34655908 3.60934667
Li 7.05421500 4.26624000 -1.0801559099999984 0 0 0
V 9.38690282 1.45848525 1.09869254
V 0.00000000 1.42208000 -3.240467729999999 0 0 0
V 9.38680876 4.22983475 1.09869254
V 0.00000000 4.26624000 -3.240467729999999 0 0 0
V 4.72180935 1.45785953 1.09869254
V 4.70281000 1.42208000 -3.240467729999999 0 0 0
V 4.72190341 4.23034670 1.09869254
V 4.70281000 4.26624000 -3.240467729999999 0 0 0
Ge 0.39898640 5.68826312 3.46105363
Ge 0.00000000 0.00000000 -1.0801559099999984 0 0 0
Ge 9.20481001 2.84410312 3.24920643
Ge 0.00000000 2.84416000 -1.0801559099999984 0 0 0
Ge 4.30391766 5.68826312 3.45972958
Ge 4.70281000 0.00000000 -1.0801559099999984 0 0 0
Ge 4.90324376 2.84438753 3.24814719
Ge 4.70281000 2.84416000 -1.0801559099999984 0 0 0
Pd 2.35131094 5.68826312 1.46095125
Pd 2.35140500 0.00000000 -3.240467729999999 0 0 0
Pd 2.35215745 2.84421688 0.89081748
Pd 2.35140500 2.84416000 -3.240467729999999 0 0 0
Pd 7.05449717 5.68826312 1.12517344
Pd 7.05421500 0.00000000 -3.240467729999999 0 0 0
Pd 7.05393283 2.84421688 1.55283998
Pd 7.05421500 2.84416000 -3.240467729999999 0 0 0
C 2.35140500 0.00000000 3.68852456
