&CONTROL
calculation = 'relax'
prefix = 'scf'
pseudo_dir = '/vol0004/mdt0/data/hp150275/u10028/POT_HYBRID_KKJUS_GBRV'
outdir = './data'
tprnfor = .true.
nstep = 50
disk_io = 'non'
/
&SYSTEM
ibrav = 0
ecutwfc = 50.0
ecutrho = 400
occupations = 'smearing'
smearing = 'mp'
degauss = 0.01
assume_isolated = 'esm'
esm_bc = 'bc1'
input_dft = 'BEEF-VDW'
nosym = .true.
nspin = 2
ntyp = 2
nat = 32
starting_magnetization(1) = 0.1
starting_magnetization(2) = 0.1
/
&ELECTRONS
electron_maxstep = 200
mixing_beta = 0.1
conv_thr = 1e-06
/
&IONS
ion_dynamics = 'bfgs'
upscale = 1.0
/
&CELL
/

K_POINTS {automatic}
8 6 1 0 0 0

ATOMIC_SPECIES
Mn 54.93 mn_pbe_v1.5.uspp.F.UPF
Rh 102.9 Rh.pbe-spn-rrkjus_psl.1.0.0.UPF

CELL_PARAMETERS {angstrom}
6.11529000 0.00000000 0.00000000
0.00000000 8.64833000 0.00000000
0.00000000 0.00000000 26.48620000

ATOMIC_POSITIONS {angstrom}
Mn 0.00000000 0.00000000 -3.24323519 0 0 0
Mn 0.00000000 2.16208250 -1.081166679999999 0 0 0
Mn 0.00000000 0.00000000 1.08037210
Mn 0.00000000 2.16208250 3.29673731
Mn 0.00000000 4.32416500 -3.24323519 0 0 0
Mn 0.00000000 6.48624750 -1.081166679999999 0 0 0
Mn 0.00000000 4.32416500 1.08037210
Mn 0.00000000 6.48624750 3.29673731
Mn 3.05764500 0.00000000 -3.24323519 0 0 0
Mn 3.05764500 2.16208250 -1.081166679999999 0 0 0
Mn 3.05764500 0.00000000 1.08037210
Mn 3.05764500 2.16208250 3.29673731
Mn 3.05764500 4.32416500 -3.24323519 0 0 0
Mn 3.05764500 6.48624750 -1.081166679999999 0 0 0
Mn 3.05764500 4.32416500 1.08010724
Mn 3.05764500 6.48624750 3.29673731
Rh 1.52882250 2.16208250 -3.24323519 0 0 0
Rh 1.52882250 0.00000000 -1.081166679999999 0 0 0
Rh 1.52882250 2.16216898 1.07957751
Rh 1.52888365 0.00000000 3.13808498
Rh 1.52882250 6.48624750 -3.24323519 0 0 0
Rh 1.52882250 4.32416500 -1.081166679999999 0 0 0
Rh 1.52882250 6.48616102 1.07957751
Rh 1.52888365 4.32425148 3.13782011
Rh 4.58646750 2.16208250 -3.24323519 0 0 0
Rh 4.58646750 0.00000000 -1.081166679999999 0 0 0
Rh 4.58646750 2.16216898 1.07957751
Rh 4.58640635 8.64824352 3.13808498
Rh 4.58646750 6.48624750 -3.24323519 0 0 0
Rh 4.58646750 4.32416500 -1.081166679999999 0 0 0
Rh 4.58646750 6.48616102 1.07957751
Rh 4.58640635 4.32425148 3.13782011
