&CONTROL
calculation = 'relax'
prefix = 'scf'
pseudo_dir = '/vol0004/mdt0/data/hp150275/u10028/POT_HYBRID_KKJUS_GBRV'
outdir = './data'
tprnfor = .true.
nstep = 50
disk_io = 'non'
/
&SYSTEM
ibrav = 0
ecutwfc = 50.0
ecutrho = 400
occupations = 'smearing'
smearing = 'mp'
degauss = 0.01
assume_isolated = 'esm'
esm_bc = 'bc1'
input_dft = 'BEEF-VDW'
nosym = .true.
nspin = 2
ntyp = 3
nat = 33
starting_magnetization(1) = 0.1
starting_magnetization(2) = 0.1
starting_magnetization(3) = 0.1
/
&ELECTRONS
electron_maxstep = 200
mixing_beta = 0.1
conv_thr = 1e-06
/
&IONS
ion_dynamics = 'bfgs'
upscale = 1.0
/
&CELL
/

K_POINTS {automatic}
8 6 1 0 0 0

ATOMIC_SPECIES
Au 196.9 Au.pbe-n-rrkjus_psl.1.0.0.UPF
C 12.01 C.pbe-n-rrkjus_psl.1.0.0.UPF
Mn 54.93 mn_pbe_v1.5.uspp.F.UPF

CELL_PARAMETERS {angstrom}
6.51708000 0.00000000 0.00000000
0.00000000 9.21654000 0.00000000
0.00000000 0.00000000 26.91240000

ATOMIC_POSITIONS {angstrom}
Mn 1.62927000 2.30413500 -3.4560904100000016 0 0 0
Mn 1.62927000 0.00000000 -1.152119840000001 0 0 0
Mn 1.62927000 2.30413500 1.25600171
Mn 1.62927000 0.24497563 3.45474479
Mn 1.62927000 6.91240500 -3.4560904100000016 0 0 0
Mn 1.62927000 4.60827000 -1.152119840000001 0 0 0
Mn 1.62920483 6.91240500 1.14781386
Mn 1.62927000 4.36329437 3.45447566
Mn 4.88781000 2.30413500 -3.4560904100000016 0 0 0
Mn 4.88781000 0.00000000 -1.152119840000001 0 0 0
Mn 4.88781000 2.30413500 1.11013650
Mn 4.88781000 9.06087264 3.48784704
Mn 4.88781000 6.91240500 -3.4560904100000016 0 0 0
Mn 4.88781000 4.60827000 -1.152119840000001 0 0 0
Mn 4.88781000 6.91240500 1.30094542
Mn 4.88787517 4.76393736 3.48784704
Au 0.00000000 0.00000000 -3.4560904100000016 0 0 0
Au 0.00000000 2.30413500 -1.152119840000001 0 0 0
Au 6.50111315 9.18971987 1.10179366
Au 6.16444080 2.30413500 3.48246456
Au 0.00000000 4.60827000 -3.4560904100000016 0 0 0
Au 0.00000000 6.91240500 -1.152119840000001 0 0 0
Au 6.50104798 4.63509013 1.10179366
Au 0.13242707 6.91249717 3.44505632
Au 3.25854000 0.00000000 -3.4560904100000016 0 0 0
Au 3.25854000 2.30413500 -1.152119840000001 0 0 0
Au 3.27450685 9.18971987 1.10179366
Au 3.61124437 2.30413500 3.48246456
Au 3.25854000 4.60827000 -3.4560904100000016 0 0 0
Au 3.25854000 6.91240500 -1.152119840000001 0 0 0
Au 3.27450685 4.63499797 1.10179366
Au 3.12611293 6.91249717 3.44505632
C 1.62927000 2.30413500 3.69803288
