&CONTROL
calculation = 'relax'
prefix = 'scf'
pseudo_dir = '/vol0403/data/hp230205/u10028/POT_HYBRID_KKJUS_GBRV'
outdir = './data'
tprnfor = .true.
nstep = 50
disk_io = 'non'
/
&SYSTEM
ibrav = 0
ecutwfc = 50.0
ecutrho = 400
occupations = 'smearing'
smearing = 'mp'
degauss = 0.01
assume_isolated = 'esm'
esm_bc = 'bc1'
input_dft = 'BEEF-VDW'
nosym = .true.
nspin = 1
ntyp = 5
nat = 17
/
&ELECTRONS
electron_maxstep = 200
mixing_beta = 0.1
conv_thr = 1e-06
/
&IONS
ion_dynamics = 'bfgs'
upscale = 1.0
/
&CELL
/

K_POINTS {automatic}
8 8 1 0 0 0

ATOMIC_SPECIES
C 12.01 C.pbe-n-rrkjus_psl.1.0.0.UPF
Li 6.941 Li.pbe-sl-rrkjus_psl.1.0.0.UPF
Mg 24.30 Mg.pbe-spnl-rrkjus_psl.1.0.0.UPF
Pb 207.2 Pb.pbe-dn-rrkjus_psl.1.0.0.UPF
Pd 106.4 Pd.pbe-n-rrkjus_psl.1.0.0.UPF


CELL_PARAMETERS {angstrom}
6.68280000 0.00000000 0.00000000
0.00000000 6.68280000 0.00000000
0.00000000 0.00000000 25.01210000

ATOMIC_POSITIONS {angstrom}
Li 6.51726704 0.16559978 3.22355945
Li 0.00000000 3.34140000 -0.8354041400000014 0 0 0
Li 3.34140000 0.00000000 -0.8354041400000014 0 0 0
Li 3.48835477 3.19444523 3.21855703
Mg 5.00481575 1.67798425 0.71034364
Mg 5.01210000 5.01210000 -2.5059623 0 0 0
Mg 1.67070000 1.67070000 -2.5059623 0 0 0
Mg 1.67985544 5.00294456 1.03375009
Pd 6.35340479 3.01220527 2.58825211
Pd 0.00000000 0.00000000 -0.8354041400000014 0 0 0
Pd 3.34140000 3.34140000 -0.8354041400000014 0 0 0
Pd 3.67059473 0.32939521 2.58825211
Pb 1.66775957 1.66615570 1.04975784
Pb 1.67070000 5.01210000 -2.5059623 0 0 0
Pb 5.01210000 1.67070000 -2.5059623 0 0 0
Pb 5.01664430 5.01504043 1.04975784
C 5.00247677 1.68032323 3.14176988
