&CONTROL
calculation = 'relax'
prefix = 'scf'
pseudo_dir = '/vol0004/mdt0/data/hp150275/u10028/POT_KKJUS'
outdir = './data'
tprnfor = .true.
nstep = 50
disk_io = 'non'
/
&SYSTEM
ibrav = 0
ecutwfc = 50.0
ecutrho = 400
occupations = 'smearing'
smearing = 'mp'
degauss = 0.01
assume_isolated = 'esm'
esm_bc = 'bc1'
input_dft = 'BEEF-VDW'
nosym = .true.
nspin = 1
ntyp = 3
nat = 32
/
&ELECTRONS
electron_maxstep = 200
mixing_beta = 0.1
conv_thr = 1e-06
/
&IONS
ion_dynamics = 'bfgs'
upscale = 1.0
/
&CELL
/

K_POINTS {automatic}
8 6 1 0 0 0

ATOMIC_SPECIES
K 39.09 K.pbe-spn-rrkjus_psl.1.0.0.UPF
Na 22.98 Na.pbe-spnl-rrkjus_psl.1.0.0.UPF
Sb 121.7 Sb.pbe-n-rrkjus_psl.1.0.0.UPF

CELL_PARAMETERS {angstrom}
7.84214000 0.00000000 0.00000000
0.00000000 11.09050000 0.00000000
0.00000000 0.00000000 28.31780000

ATOMIC_POSITIONS {angstrom}
K 0.00000000 0.00000000 -4.1590352899999985 0 0 0
K 3.92107000 2.77262500 -1.3864394899999972 0 0 0
K 3.92107000 8.31787500 -1.3864394899999972 0 0 0
K 0.00000000 5.54525000 -4.1590352899999985 0 0 0
K 0.00000000 5.54525000 1.31989266
K 3.92107000 8.31898405 4.48412363
K 3.92107000 2.77140505 4.48384045
K 0.00015684 0.00000000 1.32045901
Na 1.96053500 0.00000000 -1.3864394899999972 0 0 0
Na 5.88160500 5.54525000 -1.3864394899999972 0 0 0
Na 5.88160500 0.00000000 -1.3864394899999972 0 0 0
Na 1.96053500 5.54525000 -1.3864394899999972 0 0 0
Na 5.88160500 8.31787500 -4.1590352899999985 0 0 0
Na 1.96053500 2.77262500 -4.1590352899999985 0 0 0
Na 1.96053500 8.31787500 -4.1590352899999985 0 0 0
Na 5.88160500 2.77262500 -4.1590352899999985 0 0 0
Na 1.60285499 5.54525000 4.24512140
Na 6.24077501 11.09038910 4.24653729
Na 6.23928501 5.54525000 4.24512140
Na 1.60144341 0.00000000 4.24653729
Na 5.80757520 2.77251410 1.52576306
Na 2.03464322 8.31787500 1.52547989
Na 2.03464322 2.77262500 1.52576306
Na 5.80749678 8.31798591 1.52547989
Sb 0.00000000 8.31787500 -1.3864394899999972 0 0 0
Sb 3.92107000 0.00000000 -4.1590352899999985 0 0 0
Sb 0.00000000 2.77262500 -1.3864394899999972 0 0 0
Sb 3.92107000 5.54525000 -4.1590352899999985 0 0 0
Sb 0.00000000 2.77284681 4.04151642
Sb 3.92107000 5.54525000 1.61949498
Sb 0.00000000 8.31754229 4.04151642
Sb 3.92107000 0.00000000 1.62006134
