&CONTROL
calculation = 'relax'
prefix = 'scf'
pseudo_dir = '/vol0004/mdt0/data/hp150275/u10028/POT_KKJUS'
outdir = './data'
tprnfor = .true.
nstep = 50
disk_io = 'non'
/
&SYSTEM
ibrav = 0
ecutwfc = 50.0
ecutrho = 400
occupations = 'smearing'
smearing = 'mp'
degauss = 0.01
assume_isolated = 'esm'
esm_bc = 'bc1'
input_dft = 'BEEF-VDW'
nosym = .true.
nspin = 1
ntyp = 5
nat = 18
/
&ELECTRONS
electron_maxstep = 200
mixing_beta = 0.1
conv_thr = 1e-06
/
&IONS
ion_dynamics = 'bfgs'
upscale = 1.0
/
&CELL
/

K_POINTS {automatic}
10 10 2 0  0  0

ATOMIC_SPECIES
Al 26.98 Al.pbe-nl-rrkjus_psl.1.0.0.UPF
C 12.01 C.pbe-n-rrkjus_psl.1.0.0.UPF
Ni 58.69 Ni.pbe-spn-rrkjus_psl.1.0.0.UPF
O 15.99 O.pbe-n-rrkjus_psl.1.0.0.UPF
Sc 44.95 Sc.pbe-spn-rrkjus_psl.1.0.0.UPF

CELL_PARAMETERS {angstrom}
6.08368000 0.00000000 0.00000000
0.00000000 6.08368000 0.00000000
0.00000000 0.00000000 24.56280000

ATOMIC_POSITIONS {angstrom}
Sc 0.00000000 6.08361916 2.41403198
Sc 3.04208335 3.04165749 2.44670051
Sc 3.04184000 0.00000000 -0.760464289999998 0 0 0
Sc 0.00000000 3.04184000 -0.760464289999998 0 0 0
Al 0.00000000 0.00000000 -0.760464289999998 0 0 0
Al 3.04190084 6.08361916 2.16742147
Al 0.00006084 3.04184000 2.16742147
Al 3.04184000 3.04184000 -0.760464289999998 0 0 0
Ni 1.54793154 1.54768819 0.88327829
Ni 4.56276000 4.56276000 -2.2813928600000004 0 0 0
Ni 4.53568762 1.54805321 0.88401517
Ni 1.52092000 4.56276000 -2.2813928600000004 0 0 0
Ni 4.53599181 4.53556595 0.88303266
Ni 1.52092000 1.52092000 -2.2813928600000004 0 0 0
Ni 1.54805321 4.53599181 0.88475206
Ni 4.56276000 1.52092000 -2.2813928600000004 0 0 0
C 0.00000000 0.00012167 4.75044552
O 0.00006084 0.00012167 5.89875642
