&CONTROL
calculation = 'relax'
prefix = 'scf'
pseudo_dir = '/vol0004/mdt0/data/hp150275/u10028/POT_KKJUS'
outdir = './data'
tprnfor = .true.
nstep = 50
disk_io = 'non'
/
&SYSTEM
ibrav = 0
ecutwfc = 50.0
ecutrho = 400
occupations = 'smearing'
smearing = 'mp'
degauss = 0.01
assume_isolated = 'esm'
esm_bc = 'bc1'
input_dft = 'BEEF-VDW'
nosym = .true.
nspin = 1
ntyp = 3
nat = 33
/
&ELECTRONS
electron_maxstep = 200
mixing_beta = 0.1
conv_thr = 1e-06
/
&IONS
ion_dynamics = 'bfgs'
upscale = 1.0
/
&CELL
/

K_POINTS {automatic}
8 6 1 0 0 0

ATOMIC_SPECIES
C 12.01 C.pbe-n-rrkjus_psl.1.0.0.UPF
Ni 58.69 Ni.pbe-spn-rrkjus_psl.1.0.0.UPF
Sb 121.7 Sb.pbe-n-rrkjus_psl.1.0.0.UPF

CELL_PARAMETERS {angstrom}
5.97820000 0.00000000 0.00000000
0.00000000 8.45446000 0.00000000
0.00000000 0.00000000 26.34080000

ATOMIC_POSITIONS {angstrom}
Ni 1.49455000 0.00000000 -1.0567929000000014 0 0 0
Ni 4.48365000 4.22723000 -1.0567929000000014 0 0 0
Ni 4.48365000 0.00000000 -1.0567929000000014 0 0 0
Ni 1.49455000 4.22723000 -1.0567929000000014 0 0 0
Ni 4.48365000 6.34084500 -3.1703786900000033 0 0 0
Ni 1.49455000 2.11361500 -3.1703786900000033 0 0 0
Ni 1.49455000 6.34084500 -3.1703786900000033 0 0 0
Ni 4.48365000 2.11361500 -3.1703786900000033 0 0 0
Ni 0.00000000 6.34084500 -1.0567929000000014 0 0 0
Ni 2.98910000 0.00000000 -3.1703786900000033 0 0 0
Ni 0.00000000 2.11361500 -1.0567929000000014 0 0 0
Ni 2.98910000 4.22723000 -3.1703786900000033 0 0 0
Ni 1.29571507 4.22646910 3.03577720
Ni 4.74310388 8.45344546 3.26388853
Ni 4.68266428 4.22858271 3.03604061
Ni 1.23449830 0.00092999 3.26415194
Ni 4.39212376 2.12604306 1.10315270
Ni 1.58655450 6.32807877 1.10288930
Ni 1.58601646 2.12680396 1.10499656
Ni 4.39146616 6.32824785 1.10420634
Ni 5.97652610 2.11378409 3.07765907
Ni 2.98886087 4.22680728 1.10921109
Ni 0.00203259 6.34135227 3.07502499
Ni 2.98862174 0.00008454 1.18217510
Sb 0.00000000 0.00000000 -3.1703786900000033 0 0 0
Sb 2.98910000 2.11361500 -1.0567929000000014 0 0 0
Sb 2.98910000 6.34084500 -1.0567929000000014 0 0 0
Sb 0.00000000 4.22723000 -3.1703786900000033 0 0 0
Sb 5.97760218 4.22723000 0.92350845
Sb 2.98820327 6.12331174 3.47277107
Sb 2.99059455 2.33097917 3.47277107
Sb 0.00029891 0.00000000 1.00200403
C 2.98874131 8.45353001 3.04209899
