&CONTROL
calculation = 'relax'
prefix = 'scf'
pseudo_dir = '/vol0004/mdt0/data/hp150275/u10028/POT_HYBRID_KKJUS_GBRV'
outdir = './data'
tprnfor = .true.
nstep = 50
disk_io = 'non'
/
&SYSTEM
ibrav = 0
ecutwfc = 50.0
ecutrho = 400
occupations = 'smearing'
smearing = 'mp'
degauss = 0.01
assume_isolated = 'esm'
esm_bc = 'bc1'
input_dft = 'BEEF-VDW'
nosym = .true.
nspin = 2
ntyp = 4
nat = 18
starting_magnetization(1) = 0.0
starting_magnetization(2) = 0.1
starting_magnetization(3) = 0.0
starting_magnetization(4) = 0.0
/
&ELECTRONS
electron_maxstep = 200
mixing_beta = 0.1
conv_thr = 1e-06
/
&IONS
ion_dynamics = 'bfgs'
upscale = 1.0
/
&CELL
/

K_POINTS {automatic}
10 10 2 0  0  0

ATOMIC_SPECIES
C 12.01 C.pbe-n-rrkjus_psl.1.0.0.UPF
Mn 54.93 mn_pbe_v1.5.uspp.F.UPF
O 15.99 O.pbe-n-rrkjus_psl.1.0.0.UPF
Zn 65.40 Zn.pbe-dnl-rrkjus_psl.1.0.0.UPF

CELL_PARAMETERS {angstrom}
6.05499000 0.00000000 0.00000000
0.00000000 6.05499000 0.00000000
0.00000000 0.00000000 24.54120000

ATOMIC_POSITIONS {angstrom}
Mn 1.51374750 1.51374750 23.71857898
Mn 1.51374750 1.51374750 2.20502682
Mn 1.51374750 4.54124250 23.71857898
Mn 1.51374750 4.54124250 2.20502682
Mn 4.54124250 1.51374750 23.71857898
Mn 4.54124250 1.51374750 2.20502682
Mn 4.54124250 4.54124250 23.71857898
Mn 4.54124250 4.54124250 2.20502682
Zn 0.00000000 0.00000000 22.20487776
Zn 0.00000000 0.00000000 0.69108019
Zn 0.00000000 3.02749500 22.20487776
Zn 0.00000000 3.02749500 0.69108019
Zn 3.02749500 0.00000000 22.20487776
Zn 3.02749500 0.00000000 0.69108019
Zn 3.02749500 3.02749500 22.20487776
Zn 3.02749500 3.02749500 0.69108019
C 1.51374750 1.51374750 4.10500652
O 1.51374750 1.51374750 5.25500716
