&CONTROL
calculation = 'relax'
prefix = 'scf'
pseudo_dir = '/vol0004/mdt0/data/hp150275/u10028/POT_KKJUS'
outdir = './data'
tprnfor = .true.
nstep = 50
disk_io = 'non'
/
&SYSTEM
ibrav = 0
ecutwfc = 50.0
ecutrho = 400
occupations = 'smearing'
smearing = 'mp'
degauss = 0.01
assume_isolated = 'esm'
esm_bc = 'bc1'
input_dft = 'BEEF-VDW'
nosym = .true.
nspin = 1
ntyp = 5
nat = 18
/
&ELECTRONS
electron_maxstep = 200
mixing_beta = 0.1
conv_thr = 1e-06
/
&IONS
ion_dynamics = 'bfgs'
upscale = 1.0
/
&CELL
/

K_POINTS {automatic}
9 9 2 0  0  0

ATOMIC_SPECIES
C 12.01 C.pbe-n-rrkjus_psl.1.0.0.UPF
Mg 24.30 Mg.pbe-spnl-rrkjus_psl.1.0.0.UPF
Ni 58.69 Ni.pbe-spn-rrkjus_psl.1.0.0.UPF
O 15.99 O.pbe-n-rrkjus_psl.1.0.0.UPF
Sb 121.7 Sb.pbe-n-rrkjus_psl.1.0.0.UPF

CELL_PARAMETERS {angstrom}
6.22749000 0.00000000 0.00000000
0.00000000 6.22749000 0.00000000
0.00000000 0.00000000 24.67060000

ATOMIC_POSITIONS {angstrom}
Mg 0.00000000 0.00000000 -2.335319000000002 0 0 0
Mg 3.11374500 3.11374500 -2.335319000000002 0 0 0
Mg 3.11623600 6.22306848 0.77120296
Mg 6.22232118 3.11723239 0.77095625
Ni 1.55687250 1.55687250 -0.7783574299999998 0 0 0
Ni 4.66943428 4.67161390 2.15448350
Ni 4.67061750 1.55687250 -0.7783574299999998 0 0 0
Ni 1.55674795 4.66918518 2.15053620
Ni 4.67061750 4.67061750 -0.7783574299999998 0 0 0
Ni 1.55469288 1.55550245 2.24699825
Ni 1.55687250 4.67061750 -0.7783574299999998 0 0 0
Ni 4.67167617 1.55475515 2.14954938
Sb 6.21740147 6.21677872 0.86396441
Sb 3.11374500 0.00000000 -2.335319000000002 0 0 0
Sb 0.00000000 3.11374500 -2.335319000000002 0 0 0
Sb 3.12258804 3.12302396 0.86569135
C 1.54877676 1.54921269 4.02229462
O 1.54603667 1.54603667 5.17564517
