&CONTROL
calculation = 'relax'
prefix = 'scf'
pseudo_dir = '/vol0004/mdt0/data/hp150275/u10028/POT_KKJUS'
outdir = './data'
tprnfor = .true.
nstep = 50
disk_io = 'non'
/
&SYSTEM
ibrav = 0
ecutwfc = 50.0
ecutrho = 400
occupations = 'smearing'
smearing = 'mp'
degauss = 0.01
assume_isolated = 'esm'
esm_bc = 'bc1'
input_dft = 'BEEF-VDW'
nosym = .true.
nspin = 1
ntyp = 4
nat = 18
/
&ELECTRONS
electron_maxstep = 200
mixing_beta = 0.1
conv_thr = 1e-06
/
&IONS
ion_dynamics = 'bfgs'
upscale = 1.0
/
&CELL
/

K_POINTS {automatic}
6 8 1 0 0 0

ATOMIC_SPECIES
Al 26.98 Al.pbe-nl-rrkjus_psl.1.0.0.UPF
C 12.01 C.pbe-n-rrkjus_psl.1.0.0.UPF
Ni 58.69 Ni.pbe-spn-rrkjus_psl.1.0.0.UPF
O 15.99 O.pbe-n-rrkjus_psl.1.0.0.UPF

CELL_PARAMETERS {angstrom}
7.20976000 0.00000000 0.00000000
0.00000000 5.09807000 0.00000000
0.00000000 0.00000000 23.82360000

ATOMIC_POSITIONS {angstrom}
Al 0.00000000 0.00000000 -1.9118438999999974 0 0 0
Al 0.00663298 2.55107423 0.61703124
Al 3.60488000 0.00000000 -1.9118438999999974 0 0 0
Al 3.59817492 2.55112521 0.61726948
Ni 0.00000000 2.54903500 -1.9118438999999974 0 0 0
Ni 1.80244000 3.82355250 -0.6372812999999979 0 0 0
Ni 1.80244000 1.27451750 -0.6372812999999979 0 0 0
Ni 7.20709239 5.09546998 0.65109899
Ni 1.80229580 1.26911355 1.86610259
Ni 1.80229580 3.80290532 1.82584070
Ni 3.60488000 2.54903500 -1.9118438999999974 0 0 0
Ni 5.40732000 3.82355250 -0.6372812999999979 0 0 0
Ni 5.40732000 1.27451750 -0.6372812999999979 0 0 0
Ni 3.60769181 5.09536802 0.65133722
Ni 5.40746420 1.29888627 1.79796709
Ni 5.40746420 3.81672109 1.80130240
C 1.80236790 1.30286277 3.62642839
O 1.80236790 1.28807837 4.78211123
