&CONTROL
calculation = 'relax'
prefix = 'scf'
pseudo_dir = '/vol0004/mdt0/data/hp150275/u10028/POT_KKJUS'
outdir = './data'
tprnfor = .true.
nstep = 50
disk_io = 'non'
/
&SYSTEM
ibrav = 0
ecutwfc = 50.0
ecutrho = 400
occupations = 'smearing'
smearing = 'mp'
degauss = 0.01
assume_isolated = 'esm'
esm_bc = 'bc1'
input_dft = 'BEEF-VDW'
nosym = .true.
nspin = 1
ntyp = 3
nat = 32
/
&ELECTRONS
electron_maxstep = 200
mixing_beta = 0.1
conv_thr = 1e-06
/
&IONS
ion_dynamics = 'bfgs'
upscale = 1.0
/
&CELL
/

K_POINTS {automatic}
9 6 2 0  0  0

ATOMIC_SPECIES
Al 26.98 Al.pbe-nl-rrkjus_psl.1.0.0.UPF
Au 196.9 Au.pbe-n-rrkjus_psl.1.0.0.UPF
Ti 47.86 Ti.pbe-spn-rrkjus_psl.1.0.0.UPF

CELL_PARAMETERS {angstrom}
6.49880000 0.00000000 0.00000000
0.00000000 9.19068000 0.00000000
0.00000000 0.00000000 26.89300000

ATOMIC_POSITIONS {angstrom}
Ti 0.00000000 0.00000000 -3.446606880000001 0 0 0
Ti 3.24940000 2.29767000 -1.1488689600000015 0 0 0
Ti 3.24940000 6.89301000 -1.1488689600000015 0 0 0
Ti 0.00000000 4.59534000 -3.446606880000001 0 0 0
Ti 0.00000000 4.59534000 1.21610146
Ti 3.24940000 6.89301000 3.35732212
Ti 3.24940000 2.29767000 3.35785998
Ti 0.00000000 0.00000000 1.21610146
Al 0.00000000 6.89301000 -1.1488689600000015 0 0 0
Al 3.24940000 0.00000000 -3.446606880000001 0 0 0
Al 0.00000000 2.29767000 -1.1488689600000015 0 0 0
Al 3.24940000 4.59534000 -3.446606880000001 0 0 0
Al 0.00000000 2.29776191 3.41863816
Al 3.24940000 4.59543191 1.15881937
Al 0.00000000 6.89291809 3.41863816
Al 3.24940000 9.19058809 1.15881937
Au 1.62470000 0.00000000 -1.1488689600000015 0 0 0
Au 4.87410000 4.59534000 -1.1488689600000015 0 0 0
Au 4.87410000 0.00000000 -1.1488689600000015 0 0 0
Au 1.62470000 4.59534000 -1.1488689600000015 0 0 0
Au 4.87410000 6.89301000 -3.446606880000001 0 0 0
Au 1.62470000 2.29767000 -3.446606880000001 0 0 0
Au 1.62470000 6.89301000 -3.446606880000001 0 0 0
Au 4.87410000 2.29767000 -3.446606880000001 0 0 0
Au 1.67506570 4.59469665 3.49743465
Au 4.82379929 0.00064335 3.49716572
Au 4.82373430 4.59469665 3.49743465
Au 1.67500071 0.00064335 3.49716572
Au 4.87319017 2.29748619 1.11202555
Au 1.62528489 6.89319381 1.11148769
Au 1.62560983 2.29748619 1.11202555
Au 4.87351511 6.89319381 1.11148769
