&CONTROL
calculation = 'relax'
prefix = 'scf'
pseudo_dir = '/vol0004/mdt0/data/hp150275/u10028/POT_HYBRID_KKJUS_GBRV'
outdir = './data'
tprnfor = .true.
nstep = 50
disk_io = 'non'
/
&SYSTEM
ibrav = 0
ecutwfc = 50.0
ecutrho = 400
occupations = 'smearing'
smearing = 'mp'
degauss = 0.01
assume_isolated = 'esm'
esm_bc = 'bc1'
input_dft = 'BEEF-VDW'
nosym = .true.
nspin = 2
ntyp = 4
nat = 33
starting_magnetization(1) = 0.0
starting_magnetization(2) = 0.001
starting_magnetization(3) = 0.0
starting_magnetization(4) = 0.0
/
&ELECTRONS
electron_maxstep = 300
mixing_beta = 0.1
conv_thr = 1e-06
/
&IONS
ion_dynamics = 'bfgs'
upscale = 1.0
/
&CELL
/

K_POINTS {automatic}
9 6 2 0  0  0

ATOMIC_SPECIES
C 12.01 C.pbe-n-rrkjus_psl.1.0.0.UPF
Ni 58.69 ni_pbe_v1.4.uspp.F.UPF
Sn 118.7 Sn.pbe-dn-rrkjus_psl.1.0.0.UPF
V 50.94 V.pbe-spnl-rrkjus_psl.1.0.0.UPF

CELL_PARAMETERS {angstrom}
6.09179000 0.00000000 0.00000000
0.00000000 8.61509000 0.00000000
0.00000000 0.00000000 26.46130000

ATOMIC_POSITIONS {angstrom}
V 0.00000000 0.00000000 -3.230660120000003 0 0 0
V 3.04589500 2.15377250 -1.0769749100000006 0 0 0
V 3.04589500 6.46131750 -1.0769749100000006 0 0 0
V 0.00000000 4.30754500 -3.230660120000003 0 0 0
V 6.04037529 4.32710125 1.07935643
V 3.01701992 6.46140365 2.99647761
V 3.24759417 2.15351405 2.97028093
V 6.04007070 8.59579220 1.07988565
Ni 1.52294750 0.00000000 -1.0769749100000006 0 0 0
Ni 4.56884250 4.30754500 -1.0769749100000006 0 0 0
Ni 4.56884250 0.00000000 -1.0769749100000006 0 0 0
Ni 1.52294750 4.30754500 -1.0769749100000006 0 0 0
Ni 4.56884250 6.46131750 -3.230660120000003 0 0 0
Ni 1.52294750 2.15377250 -3.230660120000003 0 0 0
Ni 1.52294750 6.46131750 -3.230660120000003 0 0 0
Ni 4.56884250 2.15377250 -3.230660120000003 0 0 0
Ni 1.40982296 4.12249287 3.08829832
Ni 4.54800858 8.56451942 3.03564034
Ni 4.54898326 4.35734022 3.03458188
Ni 1.40982296 0.18582749 3.08909216
Ni 4.67435230 2.15515091 1.07882720
Ni 1.38959822 6.46019754 1.17805708
Ni 1.10596447 2.15472016 1.50220800
Ni 4.70377565 6.46011139 1.23733039
Sn 0.00000000 6.46131750 -1.0769749100000006 0 0 0
Sn 3.04589500 0.00000000 -3.230660120000003 0 0 0
Sn 0.00000000 2.15377250 -1.0769749100000006 0 0 0
Sn 3.04589500 4.30754500 -3.230660120000003 0 0 0
Sn 5.56259620 2.15394480 4.38913583
Sn 2.98582995 4.29221014 1.00076637
Sn 0.09289980 6.46105905 3.59344454
Sn 2.98564720 0.01524871 1.00103098
C 1.46288245 2.15411710 3.49209776
