&CONTROL
calculation = 'relax'
prefix = 'scf'
pseudo_dir = '/vol0004/mdt0/data/hp150275/u10028/POT_KKJUS'
outdir = './data'
tprnfor = .true.
nstep = 50
disk_io = 'non'
/
&SYSTEM
ibrav = 0
ecutwfc = 50.0
ecutrho = 400
occupations = 'smearing'
smearing = 'mp'
degauss = 0.01
assume_isolated = 'esm'
esm_bc = 'bc1'
input_dft = 'BEEF-VDW'
nosym = .true.
nspin = 1
ntyp = 3
nat = 33
/
&ELECTRONS
electron_maxstep = 200
mixing_beta = 0.1
conv_thr = 1e-06
/
&IONS
ion_dynamics = 'bfgs'
upscale = 1.0
/
&CELL
/

K_POINTS {automatic}
8 6 1 0 0 0

ATOMIC_SPECIES
Au 196.9 Au.pbe-n-rrkjus_psl.1.0.0.UPF
C 12.01 C.pbe-n-rrkjus_psl.1.0.0.UPF
Li 6.941 Li.pbe-sl-rrkjus_psl.1.0.0.UPF

CELL_PARAMETERS {angstrom}
6.35005000 0.00000000 0.00000000
0.00000000 8.98033000 0.00000000
0.00000000 0.00000000 26.73520000

ATOMIC_POSITIONS {angstrom}
Li 1.58751250 0.00000000 -1.1226110499999997 0 0 0
Li 4.76253750 4.49016500 -1.1226110499999997 0 0 0
Li 4.76253750 0.00000000 -1.1226110499999997 0 0 0
Li 1.58751250 4.49016500 -1.1226110499999997 0 0 0
Li 4.76253750 6.73524750 -3.3675657900000004 0 0 0
Li 1.58751250 2.24508250 -3.3675657900000004 0 0 0
Li 1.58751250 6.73524750 -3.3675657900000004 0 0 0
Li 4.76253750 2.24508250 -3.3675657900000004 0 0 0
Li 0.00000000 6.73524750 -1.1226110499999997 0 0 0
Li 3.17502500 0.00000000 -3.3675657900000004 0 0 0
Li 0.00000000 2.24508250 -1.1226110499999997 0 0 0
Li 3.17502500 4.49016500 -3.3675657900000004 0 0 0
Li 1.62866082 4.31136663 3.51621350
Li 4.65769817 8.85451558 3.42103619
Li 4.65776168 4.61597942 3.42103619
Li 1.62866082 0.17879837 3.51621350
Li 4.93341735 2.24508250 1.10496582
Li 1.67133316 6.73524750 0.97663686
Li 1.29280668 2.24508250 1.39664685
Li 4.62670993 6.73524750 1.10095554
Li 6.12443272 2.24508250 4.10011027
Li 3.09323636 4.26404029 1.10737198
Li 0.18072242 6.73524750 3.04754545
Li 3.09323636 0.22612471 1.10737198
Au 0.00000000 0.00000000 -3.3675657900000004 0 0 0
Au 3.17502500 2.24508250 -1.1226110499999997 0 0 0
Au 3.17502500 6.73524750 -1.1226110499999997 0 0 0
Au 0.00000000 4.49016500 -3.3675657900000004 0 0 0
Au 6.31334671 4.61786529 1.10389641
Au 2.98439650 6.73524750 3.15582301
Au 3.61489296 2.24508250 3.25447590
Au 6.31328321 8.85262971 1.10389641
C 1.62707331 2.24508250 3.47236778
