&CONTROL
calculation = 'relax'
prefix = 'scf'
pseudo_dir = '/vol0403/data/hp230205/u10028/POT_HYBRID_KKJUS_GBRV'
outdir = './data'
tprnfor = .true.
nstep = 50
disk_io = 'non'
/
&SYSTEM
ibrav = 0
ecutwfc = 50.0
ecutrho = 400
occupations = 'smearing'
smearing = 'mp'
degauss = 0.01
assume_isolated = 'esm'
esm_bc = 'bc1'
input_dft = 'BEEF-VDW'
nosym = .true.
nspin = 1
ntyp = 5
nat = 17
/
&ELECTRONS
electron_maxstep = 200
mixing_beta = 0.1
conv_thr = 1e-06
/
&IONS
ion_dynamics = 'bfgs'
upscale = 1.0
/
&CELL
/

K_POINTS {automatic}
6 6 1 0 0 0

ATOMIC_SPECIES
C 12.01 C.pbe-n-rrkjus_psl.1.0.0.UPF
Ga 69.72 Ga.pbe-dnl-rrkjus_psl.1.0.0.UPF
Ge 72.64 Ge.pbe-dn-rrkjus_psl.1.0.0.UPF
Li 6.941 Li.pbe-sl-rrkjus_psl.1.0.0.UPF
Sc 44.95 Sc.pbe-spn-rrkjus_psl.1.0.0.UPF


CELL_PARAMETERS {angstrom}
7.95848000 0.00000000 0.00000000
0.00000000 5.81702000 0.00000000
0.00000000 0.00000000 24.35990000

ATOMIC_POSITIONS {angstrom}
Li 1.98962000 1.54441881 0.94540772
Li 1.98962000 4.20576363 -2.1799674499999995 0 0 0
Li 5.96878042 1.40777701 0.74590014
Li 5.96886000 4.20576363 -2.1799674499999995 0 0 0
Sc 1.98962000 4.44908958 0.70594990
Sc 1.98962000 1.29725363 -2.1799674499999995 0 0 0
Sc 5.96886000 4.24380694 0.84894251
Sc 5.96886000 1.29725363 -2.1799674499999995 0 0 0
Ga 7.82835885 0.14077188 2.11054174
Ga 0.00000000 2.80386181 -0.7266558200000013 0 0 0
Ga 4.10936115 0.14077188 2.11054174
Ga 3.97924000 2.80386181 -0.7266558200000013 0 0 0
Ge 0.11961595 2.94998535 2.45669592
Ge 0.00000000 5.71237181 -0.7266558200000013 0 0 0
Ge 3.85970363 2.94998535 2.45669592
Ge 3.97924000 5.71237181 -0.7266558200000013 0 0 0
C 1.98969958 3.13868948 2.42770763
