&CONTROL
calculation = 'relax'
prefix = 'scf'
pseudo_dir = '/vol0004/mdt0/data/hp150275/u10028/POT_HYBRID_KKJUS_GBRV'
outdir = './data'
tprnfor = .true.
nstep = 50
disk_io = 'non'
/
&SYSTEM
ibrav = 0
ecutwfc = 50.0
ecutrho = 400
occupations = 'smearing'
smearing = 'mp'
degauss = 0.01
assume_isolated = 'esm'
esm_bc = 'bc1'
input_dft = 'BEEF-VDW'
nosym = .true.
nspin = 2
ntyp = 4
nat = 33
starting_magnetization(1) = 0.0
starting_magnetization(2) = 0.001
starting_magnetization(3) = 0.0
starting_magnetization(4) = 0.0
/
&ELECTRONS
electron_maxstep = 300
mixing_beta = 0.1
conv_thr = 1e-06
/
&IONS
ion_dynamics = 'bfgs'
upscale = 1.0
/
&CELL
/

K_POINTS {automatic}
9 6 2 0  0  0

ATOMIC_SPECIES
C 12.01 C.pbe-n-rrkjus_psl.1.0.0.UPF
Ni 58.69 ni_pbe_v1.4.uspp.F.UPF
Sb 121.7 Sb.pbe-n-rrkjus_psl.1.0.0.UPF
Ti 47.86 Ti.pbe-spn-rrkjus_psl.1.0.0.UPF

CELL_PARAMETERS {angstrom}
6.14873000 0.00000000 0.00000000
0.00000000 8.69561000 0.00000000
0.00000000 0.00000000 26.52170000

ATOMIC_POSITIONS {angstrom}
Ti 0.00000000 0.00000000 -3.2608430099999985 0 0 0
Ti 3.07436500 2.17390250 -1.086859269999998 0 0 0
Ti 3.07436500 6.52170750 -1.086859269999998 0 0 0
Ti 0.00000000 4.34780500 -3.2608430099999985 0 0 0
Ti 0.01401910 4.35502236 1.16722002
Ti 3.05130726 6.52179446 3.15104318
Ti 3.28120828 2.17398946 2.91181744
Ti 0.01420357 8.68830569 1.16722002
Ni 1.53718250 0.00000000 -1.086859269999998 0 0 0
Ni 4.61154750 4.34780500 -1.086859269999998 0 0 0
Ni 4.61154750 0.00000000 -1.086859269999998 0 0 0
Ni 1.53718250 4.34780500 -1.086859269999998 0 0 0
Ni 4.61154750 6.52170750 -3.2608430099999985 0 0 0
Ni 1.53718250 2.17390250 -3.2608430099999985 0 0 0
Ni 1.53718250 6.52170750 -3.2608430099999985 0 0 0
Ni 4.61154750 2.17390250 -3.2608430099999985 0 0 0
Ni 1.47132960 4.20206658 3.14494319
Ni 4.55381093 8.59187137 3.10807802
Ni 4.55368795 4.45180450 3.10807802
Ni 1.47163704 0.14530364 3.14494319
Ni 4.78008419 2.17355468 0.97493769
Ni 1.52174919 6.52196837 1.14122875
Ni 1.16352418 2.17398946 1.54488903
Ni 4.83431599 6.52179446 1.30327634
Sb 0.00000000 6.52170750 -1.086859269999998 0 0 0
Sb 3.07436500 0.00000000 -3.2608430099999985 0 0 0
Sb 0.00000000 2.17390250 -1.086859269999998 0 0 0
Sb 3.07436500 4.34780500 -3.2608430099999985 0 0 0
Sb 5.58987193 2.17398946 4.28405020
Sb 3.08992129 4.40310908 1.02718544
Sb 0.10028579 6.52162054 3.64249028
Sb 3.09010575 8.64065374 1.02718544
C 1.42189381 2.17355468 3.47593400
