&CONTROL
calculation = 'relax'
prefix = 'scf'
pseudo_dir = '/vol0004/mdt0/data/hp150275/u10028/POT_HYBRID_KKJUS_GBRV'
outdir = './data'
tprnfor = .true.
nstep = 50
disk_io = 'non'
/
&SYSTEM
ibrav = 0
ecutwfc = 50.0
ecutrho = 400
occupations = 'smearing'
smearing = 'mp'
degauss = 0.01
assume_isolated = 'esm'
esm_bc = 'bc1'
input_dft = 'BEEF-VDW'
nosym = .true.
nspin = 2
ntyp = 4
nat = 34
starting_magnetization(1) = 0.1
starting_magnetization(2) = 0.1
starting_magnetization(3) = 0.1
starting_magnetization(4) = 0.1
/
&ELECTRONS
electron_maxstep = 200
mixing_beta = 0.1
conv_thr = 1e-06
/
&IONS
ion_dynamics = 'bfgs'
upscale = 1.0
/
&CELL
/

K_POINTS {automatic}
8 6 1 0 0 0

ATOMIC_SPECIES
Au 196.9 Au.pbe-n-rrkjus_psl.1.0.0.UPF
C 12.01 C.pbe-n-rrkjus_psl.1.0.0.UPF
Mn 54.93 mn_pbe_v1.5.uspp.F.UPF
O 15.99 O.pbe-n-rrkjus_psl.1.0.0.UPF

CELL_PARAMETERS {angstrom}
6.51708000 0.00000000 0.00000000
0.00000000 9.21654000 0.00000000
0.00000000 0.00000000 26.91240000

ATOMIC_POSITIONS {angstrom}
Mn 1.62927000 2.30413500 -3.4560904100000016 0 0 0
Mn 1.62927000 0.00000000 -1.152119840000001 0 0 0
Mn 1.62927000 2.30017189 1.18064699
Mn 1.62927000 0.00000000 3.41895130
Mn 1.62927000 6.91240500 -3.4560904100000016 0 0 0
Mn 1.62927000 4.60827000 -1.152119840000001 0 0 0
Mn 1.62927000 6.91636811 1.18064699
Mn 1.62927000 4.60827000 3.46012727
Mn 4.88781000 2.30413500 -3.4560904100000016 0 0 0
Mn 4.88781000 0.00000000 -1.152119840000001 0 0 0
Mn 4.88781000 2.30044838 1.17095852
Mn 4.88781000 0.00000000 3.46873924
Mn 4.88781000 6.91240500 -3.4560904100000016 0 0 0
Mn 4.88781000 4.60827000 -1.152119840000001 0 0 0
Mn 4.88781000 6.91609162 1.17095852
Mn 4.88781000 4.60827000 3.46712449
Au 0.00000000 0.00000000 -3.4560904100000016 0 0 0
Au 0.00000000 2.30413500 -1.152119840000001 0 0 0
Au 0.00384508 0.00000000 1.14592999
Au 6.50502340 2.31952662 3.42837064
Au 0.00000000 4.60827000 -3.4560904100000016 0 0 0
Au 0.00000000 6.91240500 -1.152119840000001 0 0 0
Au 0.00006517 4.60827000 1.11982496
Au 6.50502340 6.89701338 3.42837064
Au 3.25854000 0.00000000 -3.4560904100000016 0 0 0
Au 3.25854000 2.30413500 -1.152119840000001 0 0 0
Au 3.25476009 0.00000000 1.14592999
Au 3.27059660 2.31952662 3.42837064
Au 3.25854000 4.60827000 -3.4560904100000016 0 0 0
Au 3.25854000 6.91240500 -1.152119840000001 0 0 0
Au 3.25847483 4.60827000 1.11982496
Au 3.27059660 6.89701338 3.42837064
C 1.62927000 0.00000000 5.36687081
O 1.62927000 0.00000000 6.52222014
