&CONTROL
calculation = 'relax'
prefix = 'scf'
pseudo_dir = '/vol0403/data/hp230205/u10028/POT_HYBRID_KKJUS_GBRV'
outdir = './data'
tprnfor = .true.
nstep = 50
disk_io = 'non'
/
&SYSTEM
ibrav = 0
ecutwfc = 50.0
ecutrho = 400
occupations = 'smearing'
smearing = 'mp'
degauss = 0.01
assume_isolated = 'esm'
esm_bc = 'bc1'
input_dft = 'BEEF-VDW'
nosym = .true.
nspin = 1
ntyp = 5
nat = 33
/
&ELECTRONS
electron_maxstep = 200
mixing_beta = 0.1
conv_thr = 1e-06
/
&IONS
ion_dynamics = 'bfgs'
upscale = 1.0
/
&CELL
/

K_POINTS {automatic}
6 6 1 0 0 0

ATOMIC_SPECIES
Al 26.98 Al.pbe-nl-rrkjus_psl.1.0.0.UPF
C 12.01 C.pbe-n-rrkjus_psl.1.0.0.UPF
Li 6.941 Li.pbe-sl-rrkjus_psl.1.0.0.UPF
Pd 106.4 Pd.pbe-n-rrkjus_psl.1.0.0.UPF
Sc 44.95 Sc.pbe-spn-rrkjus_psl.1.0.0.UPF


CELL_PARAMETERS {angstrom}
6.37868000 0.00000000 0.00000000
0.00000000 9.02082000 0.00000000
0.00000000 0.00000000 26.76560000

ATOMIC_POSITIONS {angstrom}
Li 4.78401000 0.00000000 -1.1276347300000005 0 0 0
Li 4.78401000 4.51041000 -1.1276347300000005 0 0 0
Li 1.59467000 2.25520500 -3.3829041800000006 0 0 0
Li 1.59467000 6.76561500 -3.3829041800000006 0 0 0
Li 3.70556657 4.51041000 4.79077474
Li 4.69566528 0.00000000 4.58334134
Li 1.57719242 6.74991877 1.13566441
Li 1.57712863 2.27090123 1.13566441
Sc 0.00000000 2.25520500 -1.1276347300000005 0 0 0
Sc 0.00000000 6.76561500 -1.1276347300000005 0 0 0
Sc 3.18934000 4.51041000 -3.3829041800000006 0 0 0
Sc 3.18934000 0.00000000 -3.3829041800000006 0 0 0
Sc 6.06714527 6.58222173 3.29538067
Sc 6.06708148 2.43868848 3.29538067
Sc 3.27494189 0.00000000 1.27564850
Sc 3.28916634 4.51041000 1.32998266
Al 0.00000000 0.00000000 -3.3829041800000006 0 0 0
Al 0.00000000 4.51041000 -3.3829041800000006 0 0 0
Al 3.18934000 6.76561500 -1.1276347300000005 0 0 0
Al 3.18934000 2.25520500 -1.1276347300000005 0 0 0
Al 0.01709486 4.51041000 1.06098838
Al 6.30015845 0.00000000 1.09792491
Al 3.06393515 2.04375698 3.44955053
Al 3.06387136 6.97715323 3.44955053
Pd 1.59467000 0.00000000 -1.1276347300000005 0 0 0
Pd 1.59467000 4.51041000 -1.1276347300000005 0 0 0
Pd 4.78401000 2.25520500 -3.3829041800000006 0 0 0
Pd 4.78401000 6.76561500 -3.3829041800000006 0 0 0
Pd 1.54332163 4.51050021 3.26941804
Pd 0.94257754 0.00000000 3.38022762
Pd 4.77367654 6.74585940 1.00718953
Pd 4.77367654 2.27496060 1.00718953
C 2.96780844 0.00000000 3.48595174
