&CONTROL
calculation = 'relax'
prefix = 'scf'
pseudo_dir = '/vol0004/mdt0/data/hp150275/u10028/POT_KKJUS'
outdir = './data'
tprnfor = .true.
nstep = 50
disk_io = 'non'
/
&SYSTEM
ibrav = 0
ecutwfc = 50.0
ecutrho = 400
occupations = 'smearing'
smearing = 'mp'
degauss = 0.01
assume_isolated = 'esm'
esm_bc = 'bc1'
input_dft = 'BEEF-VDW'
nosym = .true.
nspin = 1
ntyp = 4
nat = 34
/
&ELECTRONS
electron_maxstep = 200
mixing_beta = 0.1
conv_thr = 1e-06
/
&IONS
ion_dynamics = 'bfgs'
upscale = 1.0
/
&CELL
/

K_POINTS {automatic}
9 6 2 0  0  0

ATOMIC_SPECIES
C 12.01 C.pbe-n-rrkjus_psl.1.0.0.UPF
Ca 40.07 Ca.pbe-spn-rrkjus_psl.1.0.0.UPF
Ni 58.69 Ni.pbe-spn-rrkjus_psl.1.0.0.UPF
O 15.99 O.pbe-n-rrkjus_psl.1.0.0.UPF

CELL_PARAMETERS {angstrom}
6.93038000 0.00000000 0.00000000
0.00000000 9.80104000 0.00000000
0.00000000 0.00000000 27.35080000

ATOMIC_POSITIONS {angstrom}
Ca 0.00000000 0.00000000 -3.6754004999999985 0 0 0
Ca 0.00000000 2.45026000 -1.2250423300000008 0 0 0
Ca 0.00000000 9.78310410 1.15557130
Ca 0.00013861 2.45026000 3.72244388
Ca 0.00000000 4.90052000 -3.6754004999999985 0 0 0
Ca 0.00000000 7.35078000 -1.2250423300000008 0 0 0
Ca 0.00006930 4.91855391 1.15502428
Ca 6.93031070 7.35087801 3.88682219
Ca 3.46519000 0.00000000 -3.6754004999999985 0 0 0
Ca 3.46519000 2.45026000 -1.2250423300000008 0 0 0
Ca 3.46519000 9.78114389 1.17362283
Ca 3.46525930 2.45026000 3.81625712
Ca 3.46519000 4.90052000 -3.6754004999999985 0 0 0
Ca 3.46519000 7.35078000 -1.2250423300000008 0 0 0
Ca 3.46519000 4.92041611 1.17307581
Ca 3.46512070 7.35097602 3.89283936
Ni 1.73259500 2.45026000 -3.6754004999999985 0 0 0
Ni 1.73259500 0.00000000 -1.2250423300000008 0 0 0
Ni 1.80085924 2.45055403 1.43783156
Ni 1.72524880 9.71410478 3.33843865
Ni 1.73259500 7.35078000 -3.6754004999999985 0 0 0
Ni 1.73259500 4.90052000 -1.2250423300000008 0 0 0
Ni 1.71797190 7.35058398 1.58361132
Ni 1.72566462 4.98755324 3.33707111
Ni 5.19778500 2.45026000 -3.6754004999999985 0 0 0
Ni 5.19778500 0.00000000 -1.2250423300000008 0 0 0
Ni 5.12986728 2.45016199 1.43810506
Ni 5.20492329 9.71371273 3.33843865
Ni 5.19778500 7.35078000 -3.6754004999999985 0 0 0
Ni 5.19778500 4.90052000 -1.2250423300000008 0 0 0
Ni 5.21192298 7.35058398 1.58306430
Ni 5.20464608 4.98745522 3.33679760
C 0.00000000 2.44976995 6.36070205
O 0.00006930 2.44986796 7.50205093
