&CONTROL
calculation = 'relax'
prefix = 'scf'
pseudo_dir = '/vol0403/data/hp230205/u10028/POT_HYBRID_KKJUS_GBRV'
outdir = './data'
tprnfor = .true.
nstep = 50
disk_io = 'non'
/
&SYSTEM
ibrav = 0
ecutwfc = 50.0
ecutrho = 400
occupations = 'smearing'
smearing = 'mp'
degauss = 0.01
assume_isolated = 'esm'
esm_bc = 'bc1'
input_dft = 'BEEF-VDW'
nosym = .true.
nspin = 1
ntyp = 6
nat = 34
/
&ELECTRONS
electron_maxstep = 200
mixing_beta = 0.1
conv_thr = 1e-06
/
&IONS
ion_dynamics = 'bfgs'
upscale = 1.0
/
&CELL
/

K_POINTS {automatic}
6 6 1 0 0 0

ATOMIC_SPECIES
Ag 107.8 Ag.pbe-n-rrkjus_psl.1.0.0.UPF
Al 26.98 Al.pbe-nl-rrkjus_psl.1.0.0.UPF
C 12.01 C.pbe-n-rrkjus_psl.1.0.0.UPF
Li 6.941 Li.pbe-sl-rrkjus_psl.1.0.0.UPF
O 15.99 O.pbe-n-rrkjus_psl.1.0.0.UPF
Sn 118.7 Sn.pbe-dn-rrkjus_psl.1.0.0.UPF


CELL_PARAMETERS {angstrom}
8.56020000 0.00000000 0.00000000
0.00000000 8.66686000 0.00000000
0.00000000 0.00000000 26.12070000

ATOMIC_POSITIONS {angstrom}
Li 2.22779205 8.66677333 0.98762367
Li 2.14005000 0.00000000 -3.0603012099999987 0 0 0
Li 2.16187851 4.33360334 0.94008399
Li 2.14005000 4.33343000 -3.0603012099999987 0 0 0
Li 6.33232235 0.00008667 0.98736246
Li 6.42015000 0.00000000 -3.0603012099999987 0 0 0
Li 6.39823589 4.33334333 0.93982279
Li 6.42015000 4.33343000 -3.0603012099999987 0 0 0
Al 8.56011440 2.17798192 1.01296075
Al 0.00000000 2.16671500 -3.0603012099999987 0 0 0
Al 0.00008560 6.48870474 1.01296075
Al 0.00000000 6.50014500 -3.0603012099999987 0 0 0
Al 4.28010000 2.17009508 1.03437972
Al 4.28010000 2.16671500 -3.0603012099999987 0 0 0
Al 4.28018560 6.49667826 1.03437972
Al 4.28010000 6.50014500 -3.0603012099999987 0 0 0
Ag 8.55994319 8.66677333 2.56635877
Ag 0.00000000 0.00000000 -1.0200133399999984 0 0 0
Ag 8.56002880 4.33334333 2.63923553
Ag 0.00000000 4.33343000 -1.0200133399999984 0 0 0
Ag 4.28010000 0.00000000 2.81685629
Ag 4.28010000 0.00000000 -1.0200133399999984 0 0 0
Ag 4.28069921 4.33308333 2.67606572
Ag 4.28010000 4.33343000 -1.0200133399999984 0 0 0
Sn 2.14321727 2.24333004 3.19560644
Sn 2.14005000 2.16671500 -1.0200133399999984 0 0 0
Sn 2.14347408 6.42361663 3.19560644
Sn 2.14005000 6.50014500 -1.0200133399999984 0 0 0
Sn 6.41689712 2.24307004 3.19586764
Sn 6.42015000 2.16671500 -1.0200133399999984 0 0 0
Sn 6.41706833 6.42396330 3.19560644
Sn 6.42015000 6.50014500 -1.0200133399999984 0 0 0
C 0.00111283 0.00156003 6.23945161
O 8.55985759 8.66659999 7.37544085
