&CONTROL
calculation = 'relax'
prefix = 'scf'
pseudo_dir = '/vol0004/mdt0/data/hp150275/u10028/POT_HYBRID_KKJUS_GBRV'
outdir = './data'
tprnfor = .true.
nstep = 50
disk_io = 'non'
/
&SYSTEM
ibrav = 0
ecutwfc = 50.0
ecutrho = 400
occupations = 'smearing'
smearing = 'mp'
degauss = 0.01
assume_isolated = 'esm'
esm_bc = 'bc1'
input_dft = 'BEEF-VDW'
nosym = .true.
nspin = 2
ntyp = 4
nat = 33
starting_magnetization(1) = 0.0
starting_magnetization(2) = 0.0
starting_magnetization(3) = 0.001
starting_magnetization(4) = 0.0
/
&ELECTRONS
electron_maxstep = 300
mixing_beta = 0.1
conv_thr = 1e-06
/
&IONS
ion_dynamics = 'bfgs'
upscale = 1.0
/
&CELL
/

K_POINTS {automatic}
8 6 1 0 0 0

ATOMIC_SPECIES
Al 26.98 Al.pbe-nl-rrkjus_psl.1.0.0.UPF
C 12.01 C.pbe-n-rrkjus_psl.1.0.0.UPF
Ni 58.69 ni_pbe_v1.4.uspp.F.UPF
Zr 91.22 Zr.pbe-spn-rrkjus_psl.1.0.0.UPF

CELL_PARAMETERS {angstrom}
6.14873000 0.00000000 0.00000000
0.00000000 8.69561000 0.00000000
0.00000000 0.00000000 26.52170000

ATOMIC_POSITIONS {angstrom}
Zr 0.00000000 0.00000000 -3.2608430099999985 0 0 0
Zr 3.07436500 2.17390250 -1.086859269999998 0 0 0
Zr 3.07436500 6.52170750 -1.086859269999998 0 0 0
Zr 0.00000000 4.34780500 -3.2608430099999985 0 0 0
Zr 0.00000000 4.34780500 1.02241154
Zr 3.07436500 6.50405541 3.41679061
Zr 3.07436500 2.19155459 3.41679061
Zr 0.00000000 0.00000000 1.04283324
Al 0.00000000 6.52170750 -1.086859269999998 0 0 0
Al 3.07436500 0.00000000 -3.2608430099999985 0 0 0
Al 0.00000000 2.17390250 -1.086859269999998 0 0 0
Al 3.07436500 4.34780500 -3.2608430099999985 0 0 0
Al 0.00000000 2.18581549 3.16350838
Al 3.07436500 4.34780500 1.15528525
Al 0.00000000 6.50979451 3.16350838
Al 3.07436500 0.00000000 1.25712858
Ni 1.53718250 0.00000000 -1.086859269999998 0 0 0
Ni 4.61154750 4.34780500 -1.086859269999998 0 0 0
Ni 4.61154750 0.00000000 -1.086859269999998 0 0 0
Ni 1.53718250 4.34780500 -1.086859269999998 0 0 0
Ni 4.61154750 6.52170750 -3.2608430099999985 0 0 0
Ni 1.53718250 2.17390250 -3.2608430099999985 0 0 0
Ni 1.53718250 6.52170750 -3.2608430099999985 0 0 0
Ni 4.61154750 2.17390250 -3.2608430099999985 0 0 0
Ni 1.39047380 4.34780500 3.10781281
Ni 4.90877711 0.00000000 3.24917347
Ni 4.75825620 4.34780500 3.10781281
Ni 1.23995289 0.00000000 3.24917347
Ni 4.47793560 2.18938069 1.15687655
Ni 1.67073292 6.50622931 1.15687655
Ni 1.67079440 2.18938069 1.15687655
Ni 4.47805857 6.50622931 1.15687655
C 3.07436500 0.00000000 3.60668598
