&CONTROL
calculation = 'relax'
prefix = 'scf'
pseudo_dir = '/vol0004/mdt0/data/hp150275/u10028/POT_HYBRID_KKJUS_GBRV'
outdir = './data'
tprnfor = .true.
nstep = 50
disk_io = 'non'
/
&SYSTEM
ibrav = 0
ecutwfc = 50.0
ecutrho = 400
occupations = 'smearing'
smearing = 'mp'
degauss = 0.01
assume_isolated = 'esm'
esm_bc = 'bc1'
input_dft = 'BEEF-VDW'
nosym = .true.
nspin = 2
ntyp = 3
nat = 32
starting_magnetization(1) = 0.0
starting_magnetization(2) = 0.0
starting_magnetization(3) = 0.001
/
&ELECTRONS
electron_maxstep = 200
mixing_beta = 0.1
conv_thr = 1e-06
/
&IONS
ion_dynamics = 'bfgs'
upscale = 1.0
/
&CELL
/

K_POINTS {automatic}
9 6 2 0  0  0

ATOMIC_SPECIES
Ge 72.64 Ge.pbe-dn-rrkjus_psl.1.0.0.UPF
Li 6.941 Li.pbe-sl-rrkjus_psl.1.0.0.UPF
Ni 58.69 ni_pbe_v1.4.uspp.F.UPF

CELL_PARAMETERS {angstrom}
5.71239000 0.00000000 0.00000000
0.00000000 8.07854000 0.00000000
0.00000000 0.00000000 26.05890000

ATOMIC_POSITIONS {angstrom}
Li 0.00000000 0.00000000 23.02955288
Li 2.85619500 2.01963500 25.04911763
Li 2.85619500 6.05890500 25.04911763
Li 0.00000000 4.03927000 23.02955288
Li 0.00000000 4.03918921 0.87505786
Li 2.85619500 6.05890500 3.46453076
Li 2.85619500 2.01963500 3.46453076
Li 0.00000000 0.00000000 0.87531845
Ni 1.42809750 0.00000000 25.04911763
Ni 4.28429250 4.03927000 25.04911763
Ni 4.28429250 0.00000000 25.04911763
Ni 1.42809750 4.03927000 25.04911763
Ni 4.28429250 6.05890500 23.02955288
Ni 1.42809750 2.01963500 23.02955288
Ni 1.42809750 6.05890500 23.02955288
Ni 4.28429250 2.01963500 23.02955288
Ni 1.28363116 4.03935079 2.83651127
Ni 4.42858747 8.07845921 2.83625068
Ni 4.42875884 4.03935079 2.83651127
Ni 1.28380253 8.07845921 2.83625068
Ni 4.27726626 2.01971579 1.04470130
Ni 1.43478100 6.05882421 1.04470130
Ni 1.43512374 2.01971579 1.04470130
Ni 4.27760900 6.05882421 1.04470130
Ge 0.00000000 6.05890500 25.04911763
Ge 2.85619500 0.00000000 23.02955288
Ge 0.00000000 2.01963500 25.04911763
Ge 2.85619500 4.03927000 23.02955288
Ge 0.00000000 2.01963500 3.10908736
Ge 2.85619500 4.03951236 1.01916358
Ge 0.00000000 6.05890500 3.10934795
Ge 2.85619500 8.07829764 1.01942417
