&CONTROL
calculation = 'relax'
prefix = 'scf'
pseudo_dir = '/vol0004/mdt0/data/hp150275/u10028/POT_HYBRID_KKJUS_GBRV'
outdir = './data'
tprnfor = .true.
nstep = 50
disk_io = 'non'
/
&SYSTEM
ibrav = 0
ecutwfc = 50.0
ecutrho = 400
occupations = 'smearing'
smearing = 'mp'
degauss = 0.01
assume_isolated = 'esm'
esm_bc = 'bc1'
input_dft = 'BEEF-VDW'
nosym = .true.
nspin = 2
ntyp = 3
nat = 32
starting_magnetization(1) = 0.001
starting_magnetization(2) = 0.0
starting_magnetization(3) = 0.0
/
&ELECTRONS
electron_maxstep = 200
mixing_beta = 0.1
conv_thr = 1e-06
/
&IONS
ion_dynamics = 'bfgs'
upscale = 1.0
/
&CELL
/

K_POINTS {automatic}
9 6 2 0  0  0

ATOMIC_SPECIES
Ni 58.69 ni_pbe_v1.4.uspp.F.UPF
Sc 44.95 Sc.pbe-spn-rrkjus_psl.1.0.0.UPF
Sn 118.7 Sn.pbe-dn-rrkjus_psl.1.0.0.UPF

CELL_PARAMETERS {angstrom}
6.29417000 0.00000000 0.00000000
0.00000000 8.90130000 0.00000000
0.00000000 0.00000000 26.67600000

ATOMIC_POSITIONS {angstrom}
Sc 0.00000000 0.00000000 23.33803212
Sc 3.14708500 2.22532500 25.56334404
Sc 3.14708500 6.67597500 25.56334404
Sc 0.00000000 4.45065000 23.33803212
Sc 0.00000000 4.45056099 1.09184868
Sc 3.14708500 6.67597500 3.39292044
Sc 3.14708500 2.22532500 3.39292044
Sc 0.00000000 0.00008901 1.09184868
Ni 1.57354250 0.00000000 25.56334404
Ni 4.72062750 4.45065000 25.56334404
Ni 4.72062750 0.00000000 25.56334404
Ni 1.57354250 4.45065000 25.56334404
Ni 4.72062750 6.67597500 23.33803212
Ni 1.57354250 2.22532500 23.33803212
Ni 1.57354250 6.67597500 23.33803212
Ni 4.72062750 2.22532500 23.33803212
Ni 1.49197006 4.45091704 3.18511440
Ni 4.80219994 8.90103296 3.18511440
Ni 4.80219994 4.45091704 3.18511440
Ni 1.49203300 8.90103296 3.18511440
Ni 4.67342123 2.22514697 1.20015324
Ni 1.62081172 6.67624204 1.19988648
Ni 1.62074878 2.22514697 1.20015324
Ni 4.67335828 6.67615303 1.19988648
Sn 0.00000000 6.67597500 25.56334404
Sn 3.14708500 0.00000000 23.33803212
Sn 0.00000000 2.22532500 25.56334404
Sn 3.14708500 4.45065000 23.33803212
Sn 0.00000000 2.22523599 3.45881016
Sn 3.14708500 4.45073901 1.11612384
Sn 0.00000000 6.67606401 3.45854340
Sn 3.14708500 8.90121099 1.11612384
