&CONTROL
calculation = 'relax'
prefix = 'scf'
pseudo_dir = '/vol0004/mdt0/data/hp150275/u10028/POT_KKJUS'
outdir = './data'
tprnfor = .true.
nstep = 50
disk_io = 'non'
/
&SYSTEM
ibrav = 0
ecutwfc = 50.0
ecutrho = 400
occupations = 'smearing'
smearing = 'mp'
degauss = 0.01
assume_isolated = 'esm'
esm_bc = 'bc1'
input_dft = 'BEEF-VDW'
nosym = .true.
nspin = 1
ntyp = 3
nat = 32
/
&ELECTRONS
electron_maxstep = 200
mixing_beta = 0.1
conv_thr = 1e-06
/
&IONS
ion_dynamics = 'bfgs'
upscale = 1.0
/
&CELL
/

K_POINTS {automatic}
8 6 1 0 0 0

ATOMIC_SPECIES
Al 26.98 Al.pbe-nl-rrkjus_psl.1.0.0.UPF
Li 6.941 Li.pbe-sl-rrkjus_psl.1.0.0.UPF
Pd 106.4 Pd.pbe-n-rrkjus_psl.1.0.0.UPF

CELL_PARAMETERS {angstrom}
6.12388000 0.00000000 0.00000000
0.00000000 8.66047000 0.00000000
0.00000000 0.00000000 26.49540000

ATOMIC_POSITIONS {angstrom}
Li 0.00000000 0.00000000 -3.2478061300000007 0 0 0
Li 3.06194000 2.16511750 -1.0826020400000012 0 0 0
Li 3.06194000 6.49535250 -1.0826020400000012 0 0 0
Li 0.00000000 4.33023500 -3.2478061300000007 0 0 0
Li 0.00000000 4.33023500 1.09796938
Li 3.06194000 6.49535250 4.29861370
Li 3.06194000 2.16511750 4.29861370
Li 0.00000000 0.00000000 1.09796938
Al 1.53097000 0.00000000 -1.0826020400000012 0 0 0
Al 4.59291000 4.33023500 -1.0826020400000012 0 0 0
Al 4.59291000 0.00000000 -1.0826020400000012 0 0 0
Al 1.53097000 4.33023500 -1.0826020400000012 0 0 0
Al 4.59291000 6.49535250 -3.2478061300000007 0 0 0
Al 1.53097000 2.16511750 -3.2478061300000007 0 0 0
Al 1.53097000 6.49535250 -3.2478061300000007 0 0 0
Al 4.59291000 2.16511750 -3.2478061300000007 0 0 0
Al 1.59545446 4.33023500 3.25866925
Al 4.52842554 0.00000000 3.25866925
Al 4.52842554 4.33023500 3.25866925
Al 1.59545446 0.00000000 3.25866925
Al 4.50105180 2.16511750 1.23627536
Al 1.62282820 6.49535250 1.23627536
Al 1.62282820 2.16511750 1.23627536
Al 4.50105180 6.49535250 1.23627536
Pd 0.00000000 6.49535250 -1.0826020400000012 0 0 0
Pd 3.06194000 0.00000000 -3.2478061300000007 0 0 0
Pd 0.00000000 2.16511750 -1.0826020400000012 0 0 0
Pd 3.06194000 4.33023500 -3.2478061300000007 0 0 0
Pd 0.00000000 2.16511750 3.18448213
Pd 3.06194000 4.33023500 0.95250963
Pd 0.00000000 6.49535250 3.18448213
Pd 3.06194000 0.00000000 0.95250963
