&CONTROL
calculation = 'relax'
prefix = 'scf'
pseudo_dir = '/vol0004/mdt0/data/hp150275/u10028/POT_HYBRID_KKJUS_GBRV'
outdir = './data'
tprnfor = .true.
nstep = 50
disk_io = 'non'
/
&SYSTEM
ibrav = 0
ecutwfc = 50.0
ecutrho = 400
occupations = 'smearing'
smearing = 'mp'
degauss = 0.01
assume_isolated = 'esm'
esm_bc = 'bc1'
input_dft = 'BEEF-VDW'
nosym = .true.
nspin = 2
ntyp = 5
nat = 34
starting_magnetization(1) = 0.0
starting_magnetization(2) = 0.1
starting_magnetization(3) = 0.0
starting_magnetization(4) = 0.0
starting_magnetization(5) = 0.0
/
&ELECTRONS
electron_maxstep = 300
mixing_beta = 0.1
conv_thr = 1e-06
/
&IONS
ion_dynamics = 'bfgs'
upscale = 1.0
/
&CELL
/

K_POINTS {automatic}
8 6 1 0 0 0

ATOMIC_SPECIES
C 12.01 C.pbe-n-rrkjus_psl.1.0.0.UPF
Co 58.93 co_pbe_v1.2.uspp.F.UPF
O 15.99 O.pbe-n-rrkjus_psl.1.0.0.UPF
Si 28.08 Si.pbe-nl-rrkjus_psl.1.0.0.UPF
Ti 47.86 Ti.pbe-spn-rrkjus_psl.1.0.0.UPF

CELL_PARAMETERS {angstrom}
5.76208000 0.00000000 0.00000000
0.00000000 8.14881000 0.00000000
0.00000000 0.00000000 26.11160000

ATOMIC_POSITIONS {angstrom}
Ti 0.00000000 0.00000000 -3.055840549999999 0 0 0
Ti 2.88104000 2.03720250 -1.0186135199999988 0 0 0
Ti 2.88104000 6.11160750 -1.0186135199999988 0 0 0
Ti 0.00000000 4.07440500 -3.055840549999999 0 0 0
Ti 0.00000000 4.07212333 1.00111874
Ti 2.88104000 6.11152601 3.14540334
Ti 2.88104000 2.03728399 3.11171937
Ti 0.00000000 0.00228167 1.00111874
Co 1.44052000 0.00000000 -1.0186135199999988 0 0 0
Co 4.32156000 4.07440500 -1.0186135199999988 0 0 0
Co 4.32156000 0.00000000 -1.0186135199999988 0 0 0
Co 1.44052000 4.07440500 -1.0186135199999988 0 0 0
Co 4.32156000 6.11160750 -3.055840549999999 0 0 0
Co 1.44052000 2.03720250 -3.055840549999999 0 0 0
Co 1.44052000 6.11160750 -3.055840549999999 0 0 0
Co 4.32156000 2.03720250 -3.055840549999999 0 0 0
Co 1.36699586 4.07375310 2.88663738
Co 4.39496890 0.00065190 2.88663738
Co 4.39508414 4.07375310 2.88663738
Co 1.36711110 0.00065190 2.88663738
Co 4.28180165 2.03720250 1.01339120
Co 1.49168727 6.11160750 1.01339120
Co 1.48027835 2.03720250 1.01339120
Co 4.27039273 6.11160750 1.01339120
Si 0.00000000 6.11160750 -1.0186135199999988 0 0 0
Si 2.88104000 0.00000000 -3.055840549999999 0 0 0
Si 0.00000000 2.03720250 -1.0186135199999988 0 0 0
Si 2.88104000 4.07440500 -3.055840549999999 0 0 0
Si 0.00000000 2.03720250 3.17673726
Si 2.88104000 4.07513839 1.05255860
Si 0.00000000 6.11160750 3.04617926
Si 2.88104000 8.14807661 1.05255860
C 0.00000000 2.03720250 5.06068920
O 0.00000000 2.03728399 6.22082758
