&CONTROL
calculation = 'relax'
prefix = 'scf'
pseudo_dir = '/vol0004/mdt0/data/hp150275/u10028/POT_KKJUS'
outdir = './data'
tprnfor = .true.
nstep = 50
disk_io = 'non'
/
&SYSTEM
ibrav = 0
ecutwfc = 50.0
ecutrho = 400
occupations = 'smearing'
smearing = 'mp'
degauss = 0.01
assume_isolated = 'esm'
esm_bc = 'bc1'
input_dft = 'BEEF-VDW'
nosym = .true.
nspin = 1
ntyp = 4
nat = 33
/
&ELECTRONS
electron_maxstep = 200
mixing_beta = 0.1
conv_thr = 1e-06
/
&IONS
ion_dynamics = 'bfgs'
upscale = 1.0
/
&CELL
/

K_POINTS {automatic}
8 6 1 0 0 0

ATOMIC_SPECIES
Al 26.98 Al.pbe-nl-rrkjus_psl.1.0.0.UPF
C 12.01 C.pbe-n-rrkjus_psl.1.0.0.UPF
Hf 178.4 Hf.pbe-spn-rrkjus_psl.1.0.0.UPF
Pd 106.4 Pd.pbe-n-rrkjus_psl.1.0.0.UPF

CELL_PARAMETERS {angstrom}
6.44324000 0.00000000 0.00000000
0.00000000 9.11212000 0.00000000
0.00000000 0.00000000 26.83410000

ATOMIC_POSITIONS {angstrom}
Hf 0.00000000 0.00000000 -3.4170542899999994 0 0 0
Hf 3.22162000 2.27803000 -1.1391075399999977 0 0 0
Hf 3.22162000 6.83409000 -1.1391075399999977 0 0 0
Hf 0.00000000 4.55606000 -3.4170542899999994 0 0 0
Hf 0.00000000 4.55606000 1.16137985
Hf 3.22162000 7.03164076 3.53995447
Hf 3.22162000 2.08047924 3.53995447
Hf 0.00000000 0.00000000 1.08892778
Al 0.00000000 6.83409000 -1.1391075399999977 0 0 0
Al 3.22162000 0.00000000 -3.4170542899999994 0 0 0
Al 0.00000000 2.27803000 -1.1391075399999977 0 0 0
Al 3.22162000 4.55606000 -3.4170542899999994 0 0 0
Al 0.00000000 2.32614199 3.31749978
Al 3.22162000 4.55606000 1.25798261
Al 0.00000000 6.78597801 3.31749978
Al 3.22162000 0.00000000 1.18794561
Pd 1.61081000 0.00000000 -1.1391075399999977 0 0 0
Pd 4.83243000 4.55606000 -1.1391075399999977 0 0 0
Pd 4.83243000 0.00000000 -1.1391075399999977 0 0 0
Pd 1.61081000 4.55606000 -1.1391075399999977 0 0 0
Pd 4.83243000 6.83409000 -3.4170542899999994 0 0 0
Pd 1.61081000 2.27803000 -3.4170542899999994 0 0 0
Pd 1.61081000 6.83409000 -3.4170542899999994 0 0 0
Pd 4.83243000 2.27803000 -3.4170542899999994 0 0 0
Pd 1.57949585 4.55606000 3.34165047
Pd 5.13152520 0.00000000 3.35962932
Pd 4.86374415 4.55606000 3.34165047
Pd 1.31171480 0.00000000 3.35962932
Pd 4.72946702 2.28295054 1.16164819
Pd 1.71377298 6.82916946 1.16164819
Pd 1.71377298 2.28295054 1.16137985
Pd 4.72946702 6.82916946 1.16137985
C 3.22162000 0.00000000 4.15230863
