&CONTROL
calculation = 'relax'
prefix = 'scf'
pseudo_dir = '/vol0403/data/hp230205/u10028/POT_HYBRID_KKJUS_GBRV'
outdir = './data'
tprnfor = .true.
nstep = 50
disk_io = 'non'
/
&SYSTEM
ibrav = 0
ecutwfc = 50.0
ecutrho = 400
occupations = 'smearing'
smearing = 'mp'
degauss = 0.01
assume_isolated = 'esm'
esm_bc = 'bc1'
input_dft = 'BEEF-VDW'
nosym = .true.
nspin = 1
ntyp = 6
nat = 18
/
&ELECTRONS
electron_maxstep = 200
mixing_beta = 0.1
conv_thr = 1e-06
/
&IONS
ion_dynamics = 'bfgs'
upscale = 1.0
/
&CELL
/

K_POINTS {automatic}
12 7 2 0  0  0

ATOMIC_SPECIES
C 12.01 C.pbe-n-rrkjus_psl.1.0.0.UPF
Ge 72.64 Ge.pbe-dn-rrkjus_psl.1.0.0.UPF
Li 6.941 Li.pbe-sl-rrkjus_psl.1.0.0.UPF
O 15.99 O.pbe-n-rrkjus_psl.1.0.0.UPF
Pd 106.4 Pd.pbe-n-rrkjus_psl.1.0.0.UPF
V 50.94 V.pbe-spnl-rrkjus_psl.1.0.0.UPF


CELL_PARAMETERS {angstrom}
5.17268000 0.00000000 0.00000000
0.00000000 9.40562000 0.00000000
0.00000000 0.00000000 23.56350000

ATOMIC_POSITIONS {angstrom}
Li 1.54699341 2.41310587 0.78867034
Li 2.34575865 2.35140500 -1.7816362300000002 0 0 0
Li 1.62892866 7.13613795 0.91991904
Li 2.34575865 7.05421500 -1.7816362300000002 0 0 0
V 3.14964485 0.11296150 1.48402923
V 4.15019634 0.00000000 -0.5938002000000004 0 0 0
V 3.17199083 4.67440503 1.38553380
V 4.15019634 4.70281000 -0.5938002000000004 0 0 0
Ge 0.48886999 0.17419208 1.76726250
Ge 1.56385634 0.00000000 -0.5938002000000004 0 0 0
Ge 0.50288795 4.77222348 1.74841170
Ge 1.56385634 4.70281000 -0.5938002000000004 0 0 0
Pd 4.21061325 2.39880932 1.04598377
Pd 4.93209865 2.35140500 -1.7816362300000002 0 0 0
Pd 4.25996061 7.05807130 0.99461533
Pd 4.93209865 7.05421500 -1.7816362300000002 0 0 0
C 3.26613361 7.90072080 2.74255577
O 3.20607879 7.37786238 3.79867183
