&CONTROL
calculation = 'relax'
prefix = 'scf'
pseudo_dir = '/vol0403/data/hp230205/u10028/POT_HYBRID_KKJUS_GBRV'
outdir = './data'
tprnfor = .true.
nstep = 70
disk_io = 'non'
/
&SYSTEM
ibrav = 0
ecutwfc = 50.0
ecutrho = 400
occupations = 'smearing'
smearing = 'mp'
degauss = 0.01
assume_isolated = 'esm'
esm_bc = 'bc1'
input_dft = 'BEEF-VDW'
nosym = .true.
nspin = 1
ntyp = 6
nat = 34
/
&ELECTRONS
electron_maxstep = 200
mixing_beta = 0.1
conv_thr = 1e-06
/
&IONS
ion_dynamics = 'bfgs'
upscale = 1.0
/
&CELL
/

K_POINTS {automatic}
9 6 2 0  0  0

ATOMIC_SPECIES
Al 26.98 Al.pbe-nl-rrkjus_psl.1.0.0.UPF
C 12.01 C.pbe-n-rrkjus_psl.1.0.0.UPF
Li 6.941 Li.pbe-sl-rrkjus_psl.1.0.0.UPF
Mg 24.30 Mg.pbe-spnl-rrkjus_psl.1.0.0.UPF
O 15.99 O.pbe-n-rrkjus_psl.1.0.0.UPF
Pt 195.0 Pt.pbe-n-rrkjus_psl.1.0.0.UPF


CELL_PARAMETERS {angstrom}
6.24880000 0.00000000 0.00000000
-0.00000000 8.83714000 0.00000000
0.00000000 0.00000000 26.62790000

ATOMIC_POSITIONS {angstrom}
Li 1.56220000 0.00000000 -1.1045252900000015 0 0 0
Li 1.56220000 4.41857000 -1.1045252900000015 0 0 0
Li 4.68660000 2.20928500 -3.3138421499999993 0 0 0
Li 4.68660000 6.62785500 -3.3138421499999993 0 0 0
Li 1.71579550 4.42510948 3.51461652
Li 1.71579550 8.83060052 3.51461652
Li 4.71434467 6.62785500 1.06511600
Li 4.74571365 2.20928500 1.04301484
Mg 0.00000000 2.20928500 -1.1045252900000015 0 0 0
Mg 0.00000000 6.62785500 -1.1045252900000015 0 0 0
Mg 3.12440000 4.41857000 -3.3138421499999993 0 0 0
Mg 3.12440000 0.00000000 -3.3138421499999993 0 0 0
Mg 6.16669077 6.62785500 3.46162700
Mg 6.14875671 2.20928500 3.43766189
Mg 3.06891066 0.00318137 1.03928694
Mg 3.06891066 4.41538863 1.03955322
Al 0.00000000 0.00000000 -3.3138421499999993 0 0 0
Al 0.00000000 4.41857000 -3.3138421499999993 0 0 0
Al 3.12440000 6.62785500 -1.1045252900000015 0 0 0
Al 3.12440000 2.20928500 -1.1045252900000015 0 0 0
Al 0.01530956 4.41954209 1.16816597
Al 0.01530956 8.83616791 1.16816597
Al 3.26668518 2.20928500 3.19801079
Al 3.24356462 6.62785500 3.24061543
Pt 4.68660000 0.00000000 -1.1045252900000015 0 0 0
Pt 4.68660000 4.41857000 -1.1045252900000015 0 0 0
Pt 1.56220000 2.20928500 -3.3138421499999993 0 0 0
Pt 1.56220000 6.62785500 -3.3138421499999993 0 0 0
Pt 4.58943116 4.43465359 3.12478407
Pt 4.58949365 8.82105641 3.12478407
Pt 1.52114538 6.62785500 1.12476250
Pt 1.51402175 2.20928500 1.18361015
C 0.15153340 2.20928500 5.67387293
O 0.12378873 2.20928500 6.81807380
