&CONTROL
calculation = 'relax'
prefix = 'scf'
pseudo_dir = '/vol0004/mdt0/data/hp150275/u10028/POT_KKJUS'
outdir = './data'
tprnfor = .true.
nstep = 50
disk_io = 'non'
/
&SYSTEM
ibrav = 0
ecutwfc = 50.0
ecutrho = 400
occupations = 'smearing'
smearing = 'mp'
degauss = 0.01
assume_isolated = 'esm'
esm_bc = 'bc1'
input_dft = 'BEEF-VDW'
nosym = .true.
nspin = 1
ntyp = 4
nat = 34
/
&ELECTRONS
electron_maxstep = 200
mixing_beta = 0.1
conv_thr = 1e-06
/
&IONS
ion_dynamics = 'bfgs'
upscale = 1.0
/
&CELL
/

K_POINTS {automatic}
8 6 1 0 0 0

ATOMIC_SPECIES
C 12.01 C.pbe-n-rrkjus_psl.1.0.0.UPF
O 15.99 O.pbe-n-rrkjus_psl.1.0.0.UPF
Sc 44.95 Sc.pbe-spn-rrkjus_psl.1.0.0.UPF
Zn 65.40 Zn.pbe-dnl-rrkjus_psl.1.0.0.UPF

CELL_PARAMETERS {angstrom}
6.70510000 0.00000000 0.00000000
0.00000000 9.48244000 0.00000000
0.00000000 0.00000000 27.11180000

ATOMIC_POSITIONS {angstrom}
Sc 0.00000000 0.00000000 -3.555983689999998 0 0 0
Sc 0.00000000 2.37061000 -1.1853278999999972 0 0 0
Sc 0.00455947 0.00000000 1.17448318
Sc 6.70013823 2.38549743 3.55679704
Sc 0.00000000 4.74122000 -3.555983689999998 0 0 0
Sc 0.00000000 7.11183000 -1.1853278999999972 0 0 0
Sc 6.70389308 4.74131482 1.15469156
Sc 6.70020528 7.09665810 3.55706816
Sc 3.35255000 0.00000000 -3.555983689999998 0 0 0
Sc 3.35255000 2.37061000 -1.1853278999999972 0 0 0
Sc 3.34859399 0.00000000 1.17095864
Sc 3.35717652 2.38492848 3.56005046
Sc 3.35255000 4.74122000 -3.555983689999998 0 0 0
Sc 3.35255000 7.11183000 -1.1853278999999972 0 0 0
Sc 3.35389102 4.74122000 1.15387821
Sc 3.35717652 7.09722704 3.56032158
Zn 1.67627500 2.37061000 -3.555983689999998 0 0 0
Zn 1.67627500 0.00000000 -1.1853278999999972 0 0 0
Zn 1.67795127 2.41811702 1.14899808
Zn 1.67976165 9.48234518 3.48088400
Zn 1.67627500 7.11183000 -3.555983689999998 0 0 0
Zn 1.67627500 4.74122000 -1.1853278999999972 0 0 0
Zn 1.67801833 7.06441780 1.14926920
Zn 1.67828653 4.74140965 3.52643183
Zn 5.02882500 2.37061000 -3.555983689999998 0 0 0
Zn 5.02882500 0.00000000 -1.1853278999999972 0 0 0
Zn 5.02694757 2.36226545 1.18858131
Zn 5.02553950 9.48215553 3.51802717
Zn 5.02882500 7.11183000 -3.555983689999998 0 0 0
Zn 5.02882500 4.74122000 -1.1853278999999972 0 0 0
Zn 5.02688052 7.12017455 1.18885243
Zn 5.02614296 4.74150447 3.50664021
C 1.69008751 0.00000000 5.44621838
O 1.68686906 0.00000000 6.61283914
