&CONTROL
calculation = 'relax'
prefix = 'scf'
pseudo_dir = '/vol0004/mdt0/data/hp150275/u10028/POT_KKJUS'
outdir = './data'
tprnfor = .true.
nstep = 50
disk_io = 'non'
/
&SYSTEM
ibrav = 0
ecutwfc = 50.0
ecutrho = 400
occupations = 'smearing'
smearing = 'mp'
degauss = 0.01
assume_isolated = 'esm'
esm_bc = 'bc1'
input_dft = 'BEEF-VDW'
nosym = .true.
nspin = 1
ntyp = 3
nat = 33
/
&ELECTRONS
electron_maxstep = 200
mixing_beta = 0.1
conv_thr = 1e-06
/
&IONS
ion_dynamics = 'bfgs'
upscale = 1.0
/
&CELL
/

K_POINTS {automatic}
8 6 1 0 0 0

ATOMIC_SPECIES
C 12.01 C.pbe-n-rrkjus_psl.1.0.0.UPF
Os 190.2 Os.pbe-spn-rrkjus_psl.1.0.0.UPF
Si 28.08 Si.pbe-nl-rrkjus_psl.1.0.0.UPF

CELL_PARAMETERS {angstrom}
5.90864000 0.00000000 0.00000000
0.00000000 8.35608000 0.00000000
0.00000000 0.00000000 26.26710000

ATOMIC_POSITIONS {angstrom}
Si 1.47716000 2.08902000 -3.1336650299999995 0 0 0
Si 1.47716000 0.00000000 -1.0446425700000006 0 0 0
Si 1.47716000 2.08902000 1.06959631
Si 1.47716000 8.22388681 3.13392770
Si 1.47716000 6.26706000 -3.1336650299999995 0 0 0
Si 1.47716000 4.17804000 -1.0446425700000006 0 0 0
Si 1.47716000 6.26706000 1.08588191
Si 1.47716000 4.31023319 3.13392770
Si 4.43148000 2.08902000 -3.1336650299999995 0 0 0
Si 4.43148000 0.00000000 -1.0446425700000006 0 0 0
Si 4.43148000 2.08902000 0.95769847
Si 4.43148000 8.34772392 3.23715740
Si 4.43148000 6.26706000 -3.1336650299999995 0 0 0
Si 4.43148000 4.17804000 -1.0446425700000006 0 0 0
Si 4.43148000 6.26706000 1.06880830
Si 4.43148000 4.18639608 3.23715740
Os 0.00000000 0.00000000 -3.1336650299999995 0 0 0
Os 0.00000000 2.08902000 -1.0446425700000006 0 0 0
Os 5.90686741 0.04061055 1.03387306
Os 0.03090219 2.08902000 3.16544822
Os 0.00000000 4.17804000 -3.1336650299999995 0 0 0
Os 0.00000000 6.26706000 -1.0446425700000006 0 0 0
Os 5.90686741 4.13742945 1.03387306
Os 5.87029293 6.26706000 3.03910347
Os 2.95432000 0.00000000 -3.1336650299999995 0 0 0
Os 2.95432000 2.08902000 -1.0446425700000006 0 0 0
Os 2.95609259 0.04061055 1.03387306
Os 2.92341781 2.08902000 3.16544822
Os 2.95432000 4.17804000 -3.1336650299999995 0 0 0
Os 2.95432000 6.26706000 -1.0446425700000006 0 0 0
Os 2.95609259 4.13742945 1.03387306
Os 2.99266707 6.26706000 3.03910347
C 1.47716000 2.08910356 4.41050876
