&CONTROL
calculation = 'relax'
prefix = 'scf'
pseudo_dir = '/vol0004/mdt0/data/hp150275/u10028/POT_HYBRID_KKJUS_GBRV'
outdir = './data'
tprnfor = .true.
nstep = 50
disk_io = 'non'
/
&SYSTEM
ibrav = 0
ecutwfc = 50.0
ecutrho = 400
occupations = 'smearing'
smearing = 'mp'
degauss = 0.01
assume_isolated = 'esm'
esm_bc = 'bc1'
input_dft = 'BEEF-VDW'
nosym = .true.
nspin = 2
ntyp = 4
nat = 34
starting_magnetization(1) = 0.1
starting_magnetization(2) = 0.1
starting_magnetization(3) = 0.1
starting_magnetization(4) = 0.1
/
&ELECTRONS
electron_maxstep = 200
mixing_beta = 0.1
conv_thr = 1e-06
/
&IONS
ion_dynamics = 'bfgs'
upscale = 1.0
/
&CELL
/

K_POINTS {automatic}
8 6 1 0 0 0

ATOMIC_SPECIES
Be 9.012 Be.pbe-n-rrkjus_psl.1.0.0.UPF
C 12.01 C.pbe-n-rrkjus_psl.1.0.0.UPF
Co 58.93 co_pbe_v1.2.uspp.F.UPF
O 15.99 O.pbe-n-rrkjus_psl.1.0.0.UPF

CELL_PARAMETERS {angstrom}
5.19112000 0.00000000 0.00000000
0.00000000 7.34136000 0.00000000
0.00000000 0.00000000 25.50600000

ATOMIC_POSITIONS {angstrom}
Be 0.00000000 0.00000000 -2.7531176399999993 0 0 0
Be 0.00000000 1.83534000 -0.9177058799999998 0 0 0
Be 5.17528708 3.67068000 0.84730932
Be 0.04069838 1.80325826 2.75031198
Be 0.00000000 3.67068000 -2.7531176399999993 0 0 0
Be 0.00000000 5.50602000 -0.9177058799999998 0 0 0
Be 0.05019813 7.34128659 0.90520794
Be 0.04054265 5.53810174 2.75005692
Be 2.59556000 0.00000000 -2.7531176399999993 0 0 0
Be 2.59556000 1.83534000 -0.9177058799999998 0 0 0
Be 2.61139292 3.67068000 0.84730932
Be 2.55486162 1.80325826 2.75031198
Be 2.59556000 3.67068000 -2.7531176399999993 0 0 0
Be 2.59556000 5.50602000 -0.9177058799999998 0 0 0
Be 2.54536187 7.34128659 0.90520794
Be 2.55501735 5.53810174 2.75005692
Co 1.29778000 1.83534000 -2.7531176399999993 0 0 0
Co 1.29778000 0.00000000 -0.9177058799999998 0 0 0
Co 1.29778000 1.85325292 0.92892852
Co 1.29778000 0.00000000 2.85412140
Co 1.29778000 5.50602000 -2.7531176399999993 0 0 0
Co 1.29778000 3.67068000 -0.9177058799999998 0 0 0
Co 1.29778000 5.48810708 0.92892852
Co 1.29778000 3.67068000 2.67685470
Co 3.89334000 1.83534000 -2.7531176399999993 0 0 0
Co 3.89334000 0.00000000 -0.9177058799999998 0 0 0
Co 3.89334000 1.81772074 0.96489198
Co 3.89334000 0.00014683 2.69496396
Co 3.89334000 5.50602000 -2.7531176399999993 0 0 0
Co 3.89334000 3.67068000 -0.9177058799999998 0 0 0
Co 3.89334000 5.52356585 0.96489198
Co 3.89334000 3.67053317 2.69572914
C 1.29778000 0.00007341 4.59363060
O 1.29778000 0.00000000 5.75415360
