&CONTROL
calculation = 'relax'
prefix = 'scf'
pseudo_dir = '/vol0004/mdt0/data/hp150275/u10028/POT_KKJUS'
outdir = './data'
tprnfor = .true.
nstep = 50
disk_io = 'non'
/
&SYSTEM
ibrav = 0
ecutwfc = 50.0
ecutrho = 400
occupations = 'smearing'
smearing = 'mp'
degauss = 0.01
assume_isolated = 'esm'
esm_bc = 'bc1'
input_dft = 'BEEF-VDW'
nosym = .true.
nspin = 1
ntyp = 3
nat = 33
/
&ELECTRONS
electron_maxstep = 200
mixing_beta = 0.1
conv_thr = 1e-06
/
&IONS
ion_dynamics = 'bfgs'
upscale = 1.0
/
&CELL
/

K_POINTS {automatic}
8 8 1 0 0 0

ATOMIC_SPECIES
C 12.01 C.pbe-n-rrkjus_psl.1.0.0.UPF
Ge 72.64 Ge.pbe-dn-rrkjus_psl.1.0.0.UPF
Ni 58.69 Ni.pbe-spn-rrkjus_psl.1.0.0.UPF

CELL_PARAMETERS {angstrom}
7.20976000 0.00000000 0.00000000
-0.00000000 7.20976000 0.00000000
0.00000000 0.00000000 25.40730000

ATOMIC_POSITIONS {angstrom}
Ni 0.00000000 1.80244000 0.90119693
Ni 1.80244000 -0.00000000 0.90119693
Ni 1.80244000 1.80244000 2.70359079
Ni 0.00000000 1.80244000 -2.70359079 0 0 0
Ni 1.80244000 0.00000000 -2.70359079 0 0 0
Ni 1.80244000 1.80244000 -0.9011969299999976 0 0 0
Ni 0.00000000 5.40732000 0.90119693
Ni 1.80244000 3.60488000 0.90119693
Ni 1.80244000 5.40732000 2.70359079
Ni 0.00000000 5.40732000 -2.70359079 0 0 0
Ni 1.80244000 3.60488000 -2.70359079 0 0 0
Ni 1.80244000 5.40732000 -0.9011969299999976 0 0 0
Ni 3.60488000 1.80244000 0.90119693
Ni 5.40732000 -0.00000000 0.90119693
Ni 5.40732000 1.80244000 2.70359079
Ni 3.60488000 1.80244000 -2.70359079 0 0 0
Ni 5.40732000 0.00000000 -2.70359079 0 0 0
Ni 5.40732000 1.80244000 -0.9011969299999976 0 0 0
Ni 3.60488000 5.40732000 0.90119693
Ni 5.40732000 3.60488000 0.90119693
Ni 5.40732000 5.40732000 2.70359079
Ni 3.60488000 5.40732000 -2.70359079 0 0 0
Ni 5.40732000 3.60488000 -2.70359079 0 0 0
Ni 5.40732000 5.40732000 -0.9011969299999976 0 0 0
Ge 0.00000000 0.00000000 2.70359079
Ge 0.00000000 0.00000000 -0.9011969299999976 0 0 0
Ge 0.00000000 3.60488000 2.70359079
Ge 0.00000000 3.60488000 -0.9011969299999976 0 0 0
Ge 3.60488000 -0.00000000 2.70359079
Ge 3.60488000 0.00000000 -0.9011969299999976 0 0 0
Ge 3.60488000 3.60488000 2.70359079
Ge 3.60488000 3.60488000 -0.9011969299999976 0 0 0
C 1.80244000 -0.00000000 3.50366667
