&CONTROL
calculation = 'relax'
prefix = 'scf'
pseudo_dir = '/vol0004/mdt0/data/hp150275/u10028/POT_KKJUS'
outdir = './data'
tprnfor = .true.
nstep = 50
disk_io = 'non'
/
&SYSTEM
ibrav = 0
ecutwfc = 50.0
ecutrho = 400
occupations = 'smearing'
smearing = 'mp'
degauss = 0.01
assume_isolated = 'esm'
esm_bc = 'bc1'
input_dft = 'BEEF-VDW'
nosym = .true.
nspin = 1
ntyp = 2
nat = 16
/
&ELECTRONS
electron_maxstep = 200
mixing_beta = 0.1
conv_thr = 1e-06
/
&IONS
ion_dynamics = 'bfgs'
upscale = 1.0
/
&CELL
/

K_POINTS {automatic}
6 8 1 0 0 0

ATOMIC_SPECIES
In 114.8 In.pbe-dn-rrkjus_psl.1.0.0.UPF
Pt 195.0 Pt.pbe-n-rrkjus_psl.1.0.0.UPF

CELL_PARAMETERS {angstrom}
8.16408000 0.00000000 0.00000000
0.00000000 5.77288000 0.00000000
0.00000000 0.00000000 24.32970000

ATOMIC_POSITIONS {angstrom}
In 0.00000000 0.00000000 -2.1648567099999987 0 0 0
In 0.00065313 2.88644000 0.84351070
In 4.08204000 0.00000000 -2.1648567099999987 0 0 0
In 4.08138687 2.88644000 0.84375400
Pt 0.00000000 2.88644000 -2.1648567099999987 0 0 0
Pt 2.04102000 4.32966000 -0.7216188999999993 0 0 0
Pt 2.04102000 1.44322000 -0.7216188999999993 0 0 0
Pt 8.16391672 0.00000000 0.75908664
Pt 2.04102000 1.42491997 2.06680801
Pt 2.04102000 4.34796003 2.06680801
Pt 4.08204000 2.88644000 -2.1648567099999987 0 0 0
Pt 6.12306000 4.32966000 -0.7216188999999993 0 0 0
Pt 6.12306000 1.44322000 -0.7216188999999993 0 0 0
Pt 4.08220328 0.00000000 0.75908664
Pt 6.12306000 1.42520861 2.06656472
Pt 6.12306000 4.34767139 2.06656472
