&CONTROL
calculation = 'relax'
prefix = 'scf'
pseudo_dir = '/vol0004/mdt0/data/hp150275/u10028/POT_KKJUS'
outdir = './data'
tprnfor = .true.
nstep = 50
disk_io = 'non'
/
&SYSTEM
ibrav = 0
ecutwfc = 50.0
ecutrho = 400
occupations = 'smearing'
smearing = 'mp'
degauss = 0.01
assume_isolated = 'esm'
esm_bc = 'bc1'
input_dft = 'BEEF-VDW'
nosym = .true.
nspin = 1
ntyp = 4
nat = 33
/
&ELECTRONS
electron_maxstep = 200
mixing_beta = 0.1
conv_thr = 1e-06
/
&IONS
ion_dynamics = 'bfgs'
upscale = 1.0
/
&CELL
/

K_POINTS {automatic}
8 6 1 0 0 0

ATOMIC_SPECIES
Ag 107.8 Ag.pbe-n-rrkjus_psl.1.0.0.UPF
C 12.01 C.pbe-n-rrkjus_psl.1.0.0.UPF
In 114.8 In.pbe-dn-rrkjus_psl.1.0.0.UPF
Li 6.941 Li.pbe-sl-rrkjus_psl.1.0.0.UPF

CELL_PARAMETERS {angstrom}
6.74000000 0.00000000 0.00000000
0.00000000 9.53179000 0.00000000
0.00000000 0.00000000 27.14880000

ATOMIC_POSITIONS {angstrom}
Li 0.00000000 0.00000000 -3.574411010000002 0 0 0
Li 3.37000000 2.38294750 -1.1915608300000002 0 0 0
Li 3.37000000 7.14884250 -1.1915608300000002 0 0 0
Li 0.00000000 4.76589500 -3.574411010000002 0 0 0
Li 0.00000000 4.76589500 1.19889101
Li 3.37000000 7.38656534 3.60237427
Li 3.37000000 2.14522466 3.60237427
Li 0.00000000 0.00000000 1.21110797
In 0.00000000 7.14884250 -1.1915608300000002 0 0 0
In 3.37000000 0.00000000 -3.574411010000002 0 0 0
In 0.00000000 2.38294750 -1.1915608300000002 0 0 0
In 3.37000000 4.76589500 -3.574411010000002 0 0 0
In 0.00000000 2.55289932 3.91621440
In 3.37000000 4.76589500 1.16224013
In 0.00000000 6.97889068 3.91621440
In 3.37000000 0.00000000 1.08893837
Ag 1.68500000 0.00000000 -1.1915608300000002 0 0 0
Ag 5.05500000 4.76589500 -1.1915608300000002 0 0 0
Ag 5.05500000 0.00000000 -1.1915608300000002 0 0 0
Ag 1.68500000 4.76589500 -1.1915608300000002 0 0 0
Ag 5.05500000 7.14884250 -3.574411010000002 0 0 0
Ag 1.68500000 2.38294750 -3.574411010000002 0 0 0
Ag 1.68500000 7.14884250 -3.574411010000002 0 0 0
Ag 5.05500000 2.38294750 -3.574411010000002 0 0 0
Ag 1.83617820 4.76589500 3.55975066
Ag 5.37764380 0.00000000 3.85241472
Ag 4.90382180 4.76589500 3.55975066
Ag 1.36242360 0.00000000 3.85241472
Ag 5.16688400 2.43394258 1.29201139
Ag 1.57311600 7.09784742 1.29201139
Ag 1.57311600 2.43394258 1.29201139
Ag 5.16688400 7.09784742 1.29201139
C 3.37000000 0.00000000 3.26491469
