&CONTROL
calculation = 'relax'
prefix = 'scf'
pseudo_dir = '/vol0004/mdt0/data/hp150275/u10028/POT_HYBRID_KKJUS_GBRV'
outdir = './data'
tprnfor = .true.
nstep = 50
disk_io = 'non'
/
&SYSTEM
ibrav = 0
ecutwfc = 50.0
ecutrho = 400
occupations = 'smearing'
smearing = 'mp'
degauss = 0.01
assume_isolated = 'esm'
esm_bc = 'bc1'
input_dft = 'BEEF-VDW'
nosym = .true.
nspin = 2
ntyp = 4
nat = 33
starting_magnetization(1) = 0.0
starting_magnetization(2) = 0.0
starting_magnetization(3) = 0.0
starting_magnetization(4) = 0.001
/
&ELECTRONS
electron_maxstep = 300
mixing_beta = 0.1
conv_thr = 1e-06
/
&IONS
ion_dynamics = 'bfgs'
upscale = 1.0
/
&CELL
/

K_POINTS {automatic}
8 6 1 0 0 0

ATOMIC_SPECIES
C 12.01 C.pbe-n-rrkjus_psl.1.0.0.UPF
Hf 178.4 Hf.pbe-spn-rrkjus_psl.1.0.0.UPF
In 114.8 In.pbe-dn-rrkjus_psl.1.0.0.UPF
Ni 58.69 ni_pbe_v1.4.uspp.F.UPF

CELL_PARAMETERS {angstrom}
6.30953000 0.00000000 0.00000000
0.00000000 8.92302000 0.00000000
0.00000000 0.00000000 26.69230000

ATOMIC_POSITIONS {angstrom}
Hf 0.00000000 0.00000000 -3.346146730000001 0 0 0
Hf 3.15476500 2.23075500 -1.1154712199999999 0 0 0
Hf 3.15476500 6.69226500 -1.1154712199999999 0 0 0
Hf 0.00000000 4.46151000 -3.346146730000001 0 0 0
Hf 0.00000000 4.46151000 1.16058120
Hf 3.15476500 6.66960053 3.24791906
Hf 3.15476500 2.25341947 3.24791906
Hf 0.00000000 0.00000000 1.23398503
In 0.00000000 6.69226500 -1.1154712199999999 0 0 0
In 3.15476500 0.00000000 -3.346146730000001 0 0 0
In 0.00000000 2.23075500 -1.1154712199999999 0 0 0
In 3.15476500 4.46151000 -3.346146730000001 0 0 0
In 0.00000000 2.36397569 3.63469049
In 3.15476500 4.46151000 1.03005586
In 0.00000000 6.55904431 3.63469049
In 3.15476500 0.00000000 1.07463200
Ni 1.57738250 0.00000000 -1.1154712199999999 0 0 0
Ni 4.73214750 4.46151000 -1.1154712199999999 0 0 0
Ni 4.73214750 0.00000000 -1.1154712199999999 0 0 0
Ni 1.57738250 4.46151000 -1.1154712199999999 0 0 0
Ni 4.73214750 6.69226500 -3.346146730000001 0 0 0
Ni 1.57738250 2.23075500 -3.346146730000001 0 0 0
Ni 1.57738250 6.69226500 -3.346146730000001 0 0 0
Ni 4.73214750 2.23075500 -3.346146730000001 0 0 0
Ni 1.66514806 4.46151000 3.22015907
Ni 4.49743298 0.00000000 3.39953133
Ni 4.64438194 4.46151000 3.22015907
Ni 1.81209702 0.00000000 3.39953133
Ni 4.74508204 2.25315178 1.14856967
Ni 1.56444796 6.66986822 1.14856967
Ni 1.56444796 2.25315178 1.14856967
Ni 4.74508204 6.66986822 1.14856967
C 0.00000000 0.00000000 3.50977053
