&CONTROL
calculation = 'relax'
prefix = 'scf'
pseudo_dir = '/vol0004/mdt0/data/hp150275/u10028/POT_KKJUS'
outdir = './data'
tprnfor = .true.
nstep = 50
disk_io = 'non'
/
&SYSTEM
ibrav = 0
ecutwfc = 50.0
ecutrho = 400
occupations = 'smearing'
smearing = 'mp'
degauss = 0.01
assume_isolated = 'esm'
esm_bc = 'bc1'
input_dft = 'BEEF-VDW'
nosym = .true.
nspin = 1
ntyp = 3
nat = 17
/
&ELECTRONS
electron_maxstep = 200
mixing_beta = 0.1
conv_thr = 1e-06
/
&IONS
ion_dynamics = 'bfgs'
upscale = 1.0
/
&CELL
/

K_POINTS {automatic}
8 11 2 0  0  0

ATOMIC_SPECIES
C 12.01 C.pbe-n-rrkjus_psl.1.0.0.UPF
In 114.8 In.pbe-dn-rrkjus_psl.1.0.0.UPF
Mg 24.30 Mg.pbe-spnl-rrkjus_psl.1.0.0.UPF

CELL_PARAMETERS {angstrom}
9.03947000 0.00000000 0.00000000
0.00000000 6.39187000 0.00000000
0.00000000 0.00000000 24.79390000

ATOMIC_POSITIONS {angstrom}
Mg 0.00000000 3.19593500 -2.3970742499999993 0 0 0
Mg 2.25986750 4.79390250 -0.7991074000000005 0 0 0
Mg 2.25986750 1.59796750 -0.7991074000000005 0 0 0
Mg 0.00009039 0.00000000 0.57868963
Mg 1.58606541 1.52388573 2.63534363
Mg 1.58606541 4.86785644 2.63534363
Mg 4.51973500 3.19593500 -2.3970742499999993 0 0 0
Mg 6.77960250 4.79390250 -0.7991074000000005 0 0 0
Mg 6.77960250 1.59796750 -0.7991074000000005 0 0 0
Mg 4.51964461 0.00012784 1.17200765
Mg 7.45340459 1.52394965 2.63534363
Mg 7.45340459 4.86792035 2.63534363
In 0.00000000 0.00000000 -2.3970742499999993 0 0 0
In 9.03937961 3.19587108 0.62480628
In 4.51973500 0.00000000 -2.3970742499999993 0 0 0
In 4.51973500 3.19599892 1.36887122
C 0.00000000 6.39180608 2.77567710
