&CONTROL
calculation = 'relax'
prefix = 'scf'
pseudo_dir = '/vol0004/mdt0/data/hp150275/u10028/POT_KKJUS'
outdir = './data'
tprnfor = .true.
nstep = 50
disk_io = 'non'
/
&SYSTEM
ibrav = 0
ecutwfc = 50.0
ecutrho = 400
occupations = 'smearing'
smearing = 'mp'
degauss = 0.01
assume_isolated = 'esm'
esm_bc = 'bc1'
input_dft = 'BEEF-VDW'
nosym = .true.
nspin = 1
ntyp = 5
nat = 34
/
&ELECTRONS
electron_maxstep = 200
mixing_beta = 0.1
conv_thr = 1e-06
/
&IONS
ion_dynamics = 'bfgs'
upscale = 1.0
/
&CELL
/

K_POINTS {automatic}
8 6 1 0 0 0

ATOMIC_SPECIES
Al 26.98 Al.pbe-nl-rrkjus_psl.1.0.0.UPF
C 12.01 C.pbe-n-rrkjus_psl.1.0.0.UPF
O 15.99 O.pbe-n-rrkjus_psl.1.0.0.UPF
Pd 106.4 Pd.pbe-n-rrkjus_psl.1.0.0.UPF
Sc 44.95 Sc.pbe-spn-rrkjus_psl.1.0.0.UPF

CELL_PARAMETERS {angstrom}
6.41477000 0.00000000 0.00000000
0.00000000 9.07185000 0.00000000
0.00000000 0.00000000 26.80390000

ATOMIC_POSITIONS {angstrom}
Sc 0.00000000 0.00000000 -3.4019509899999996 0 0 0
Sc 3.20738500 2.26796250 -1.134073009999998 0 0 0
Sc 3.20738500 6.80388750 -1.134073009999998 0 0 0
Sc 0.00000000 4.53592500 -3.4019509899999996 0 0 0
Sc 0.01706329 4.53583428 1.10700107
Sc 3.23105550 6.79699289 3.48531112
Sc 3.23086306 2.27476639 3.48531112
Sc 0.02392709 0.00027216 1.12656792
Al 0.00000000 6.80388750 -1.134073009999998 0 0 0
Al 3.20738500 0.00000000 -3.4019509899999996 0 0 0
Al 0.00000000 2.26796250 -1.134073009999998 0 0 0
Al 3.20738500 4.53592500 -3.4019509899999996 0 0 0
Al 6.39712938 2.27521998 3.29393127
Al 3.21097727 4.53601572 1.24021645
Al 6.39725768 6.79653930 3.29393127
Al 3.20950187 0.00000000 1.21528883
Pd 1.60369250 0.00000000 -1.134073009999998 0 0 0
Pd 4.81107750 4.53592500 -1.134073009999998 0 0 0
Pd 4.81107750 0.00000000 -1.134073009999998 0 0 0
Pd 1.60369250 4.53592500 -1.134073009999998 0 0 0
Pd 4.81107750 6.80388750 -3.4019509899999996 0 0 0
Pd 1.60369250 2.26796250 -3.4019509899999996 0 0 0
Pd 1.60369250 6.80388750 -3.4019509899999996 0 0 0
Pd 4.81107750 2.26796250 -3.4019509899999996 0 0 0
Pd 1.51619504 4.53592500 3.30063225
Pd 4.91255916 0.00000000 3.24836464
Pd 4.91493263 4.53583428 3.29687970
Pd 1.51805532 0.00000000 3.56197027
Pd 4.76219695 2.28039093 1.13594928
Pd 1.67957923 6.84561801 1.20376315
Pd 1.67977167 2.22641343 1.20376315
Pd 4.76245354 6.79145907 1.13594928
C 2.04214203 9.07175928 5.46049051
O 2.07145753 0.00000000 6.61868703
