&CONTROL
calculation = 'relax'
prefix = 'scf'
pseudo_dir = '/vol0403/data/hp230205/u10028/POT_HYBRID_KKJUS_GBRV'
outdir = './data'
tprnfor = .true.
nstep = 50
disk_io = 'non'
/
&SYSTEM
ibrav = 0
ecutwfc = 50.0
ecutrho = 400
occupations = 'smearing'
smearing = 'mp'
degauss = 0.01
assume_isolated = 'esm'
esm_bc = 'bc1'
input_dft = 'BEEF-VDW'
nosym = .true.
nspin = 1
ntyp = 6
nat = 18
/
&ELECTRONS
electron_maxstep = 200
mixing_beta = 0.1
conv_thr = 1e-06
/
&IONS
ion_dynamics = 'bfgs'
upscale = 1.0
/
&CELL
/

K_POINTS {automatic}
6 6 1 0 0 0

ATOMIC_SPECIES
C 12.01 C.pbe-n-rrkjus_psl.1.0.0.UPF
In 114.8 In.pbe-dn-rrkjus_psl.1.0.0.UPF
O 15.99 O.pbe-n-rrkjus_psl.1.0.0.UPF
Pd 106.4 Pd.pbe-n-rrkjus_psl.1.0.0.UPF
Sc 44.95 Sc.pbe-spn-rrkjus_psl.1.0.0.UPF
Y 88.90 Y.pbe-spn-rrkjus_psl.1.0.0.UPF


CELL_PARAMETERS {angstrom}
7.36232000 0.00000000 0.00000000
0.00000000 6.98742000 0.00000000
0.00000000 0.00000000 25.23460000

ATOMIC_POSITIONS {angstrom}
Y 1.84035913 5.09250157 1.06666654
Y 1.84058000 1.49614637 -2.6173327099999995 0 0 0
Y 5.52196087 5.09257144 1.06666654
Y 5.52174000 1.49614637 -2.6173327099999995 0 0 0
Sc 1.83792956 1.47783933 0.76763653
Sc 1.84058000 4.98985637 -2.6173327099999995 0 0 0
Sc 5.52439044 1.47783933 0.76738419
Sc 5.52174000 4.98985637 -2.6173327099999995 0 0 0
In 0.00000000 0.13534633 2.88381009
In 0.00000000 3.32657091 -0.8723601199999997 0 0 0
In 3.68123362 0.17412651 2.93125114
In 3.68116000 3.32657091 -0.8723601199999997 0 0 0
Pd 0.00000000 2.99473834 2.09573353
Pd 0.00000000 6.82028091 -0.8723601199999997 0 0 0
Pd 3.68116000 3.00815418 2.08765846
Pd 3.68116000 6.82028091 -0.8723601199999997 0 0 0
C 7.36217275 0.13835092 5.36941819
O 0.00000000 6.88107147 6.48503985
