&CONTROL
calculation = 'relax'
prefix = 'scf'
pseudo_dir = '/vol0403/data/hp230205/u10028/POT_HYBRID_KKJUS_GBRV'
outdir = './data'
tprnfor = .true.
nstep = 50
disk_io = 'non'
/
&SYSTEM
ibrav = 0
ecutwfc = 50.0
ecutrho = 400
occupations = 'smearing'
smearing = 'mp'
degauss = 0.01
assume_isolated = 'esm'
esm_bc = 'bc1'
input_dft = 'BEEF-VDW'
nosym = .true.
nspin = 1
ntyp = 5
nat = 17
/
&ELECTRONS
electron_maxstep = 200
mixing_beta = 0.1
conv_thr = 1e-06
/
&IONS
ion_dynamics = 'bfgs'
upscale = 1.0
/
&CELL
/

K_POINTS {automatic}
8 8 1 0 0 0

ATOMIC_SPECIES
C 12.01 C.pbe-n-rrkjus_psl.1.0.0.UPF
Hf 178.4 Hf.pbe-spn-rrkjus_psl.1.0.0.UPF
Li 6.941 Li.pbe-sl-rrkjus_psl.1.0.0.UPF
Pd 106.4 Pd.pbe-n-rrkjus_psl.1.0.0.UPF
Sn 118.7 Sn.pbe-dn-rrkjus_psl.1.0.0.UPF


CELL_PARAMETERS {angstrom}
6.67688000 0.00000000 0.00000000
0.00000000 6.67688000 0.00000000
0.00000000 0.00000000 25.00770000

ATOMIC_POSITIONS {angstrom}
Li 0.08673267 3.25110641 2.58729664
Li 0.00000000 0.00000000 -0.8345069500000015 0 0 0
Li 3.33844000 3.33844000 -0.8345069500000015 0 0 0
Li 3.25110641 0.08673267 2.58729664
Hf 0.21279217 0.21279217 2.52802839
Hf 0.00000000 3.33844000 -0.8345069500000015 0 0 0
Hf 3.33844000 0.00000000 -0.8345069500000015 0 0 0
Hf 3.12838536 3.12838536 2.52202654
Sn 1.66748401 1.66748401 0.61268865
Sn 1.66922000 5.00766000 -2.503770920000001 0 0 0
Sn 5.00766000 1.66922000 -2.503770920000001 0 0 0
Sn 5.01039752 5.01039752 1.13059812
Pd 5.00892861 1.66828524 0.93553806
Pd 5.00766000 5.00766000 -2.503770920000001 0 0 0
Pd 1.66922000 1.66922000 -2.503770920000001 0 0 0
Pd 1.66828524 5.00892861 0.93553806
C 1.67142337 1.67142337 2.98491907
