&CONTROL
calculation = 'relax'
prefix = 'scf'
pseudo_dir = '/vol0004/mdt0/data/hp150275/u10028/POT_KKJUS'
outdir = './data'
tprnfor = .true.
nstep = 50
disk_io = 'non'
/
&SYSTEM
ibrav = 0
ecutwfc = 50.0
ecutrho = 400
occupations = 'smearing'
smearing = 'mp'
degauss = 0.01
assume_isolated = 'esm'
esm_bc = 'bc1'
input_dft = 'BEEF-VDW'
nosym = .true.
nspin = 1
ntyp = 4
nat = 33
/
&ELECTRONS
electron_maxstep = 200
mixing_beta = 0.1
conv_thr = 1e-06
/
&IONS
ion_dynamics = 'bfgs'
upscale = 1.0
/
&CELL
/

K_POINTS {automatic}
9 6 2 0  0  0

ATOMIC_SPECIES
C 12.01 C.pbe-n-rrkjus_psl.1.0.0.UPF
In 114.8 In.pbe-dn-rrkjus_psl.1.0.0.UPF
Li 6.941 Li.pbe-sl-rrkjus_psl.1.0.0.UPF
Pd 106.4 Pd.pbe-n-rrkjus_psl.1.0.0.UPF

CELL_PARAMETERS {angstrom}
6.46446000 0.00000000 0.00000000
0.00000000 9.14213000 0.00000000
0.00000000 0.00000000 26.85660000

ATOMIC_POSITIONS {angstrom}
Li 0.00000000 6.85659750 -1.1427483299999999 0 0 0
Li 3.23223000 0.00000000 -3.4282449899999996 0 0 0
Li 0.00000000 2.28553250 -1.1427483299999999 0 0 0
Li 3.23223000 4.57106500 -3.4282449899999996 0 0 0
Li 1.61611500 2.28553250 -3.4282449899999996 0 0 0
Li 1.61611500 6.85659750 -3.4282449899999996 0 0 0
Li 4.84834500 4.57106500 -1.1427483299999999 0 0 0
Li 4.84834500 0.00000000 -1.1427483299999999 0 0 0
Li 0.06639000 2.06785838 3.46638136
Li 3.24289636 4.57106500 1.12153162
Li 0.06651929 7.07427162 3.46638136
Li 2.99201067 0.00000000 1.37801215
Li 1.55722377 6.84590121 1.10649192
Li 1.55722377 2.29613737 1.10649192
Li 4.67277027 0.00000000 3.69305107
Li 4.71427210 4.57106500 3.39682277
In 1.61611500 0.00000000 -1.1427483299999999 0 0 0
In 1.61611500 4.57106500 -1.1427483299999999 0 0 0
In 4.84834500 6.85659750 -3.4282449899999996 0 0 0
In 4.84834500 2.28553250 -3.4282449899999996 0 0 0
In 1.54752708 4.57106500 3.42743929
In 2.04819951 0.00000000 4.24092571
In 4.85804169 2.26304286 1.10864045
In 4.85804169 6.87917856 1.10864045
Pd 0.00000000 0.00000000 -3.4282449899999996 0 0 0
Pd 3.23223000 2.28553250 -1.1427483299999999 0 0 0
Pd 3.23223000 6.85659750 -1.1427483299999999 0 0 0
Pd 0.00000000 4.57106500 -3.4282449899999996 0 0 0
Pd 6.41998452 4.57106500 1.15107388
Pd 3.13306518 6.79717366 3.20936370
Pd 3.13306518 2.34486492 3.20936370
Pd 0.11209374 0.00000000 1.24614624
C 0.12179043 0.00000000 3.23944309
