&CONTROL
calculation = 'relax'
prefix = 'scf'
pseudo_dir = '/vol0004/mdt0/data/hp150275/u10028/POT_HYBRID_KKJUS_GBRV'
outdir = './data'
tprnfor = .true.
nstep = 50
disk_io = 'non'
/
&SYSTEM
ibrav = 0
ecutwfc = 50.0
ecutrho = 400
occupations = 'smearing'
smearing = 'mp'
degauss = 0.01
assume_isolated = 'esm'
esm_bc = 'bc1'
input_dft = 'BEEF-VDW'
nosym = .true.
nspin = 2
ntyp = 4
nat = 33
starting_magnetization(1) = 0.0
starting_magnetization(2) = 0.0
starting_magnetization(3) = 0.1
starting_magnetization(4) = 0.0
/
&ELECTRONS
electron_maxstep = 300
mixing_beta = 0.1
conv_thr = 1e-06
/
&IONS
ion_dynamics = 'bfgs'
upscale = 1.0
/
&CELL
/

K_POINTS {automatic}
9 6 2 0  0  0

ATOMIC_SPECIES
C 12.01 C.pbe-n-rrkjus_psl.1.0.0.UPF
Ga 69.72 Ga.pbe-dnl-rrkjus_psl.1.0.0.UPF
Mn 54.93 mn_pbe_v1.5.uspp.F.UPF
V 50.94 V.pbe-spnl-rrkjus_psl.1.0.0.UPF

CELL_PARAMETERS {angstrom}
5.83886000 0.00000000 0.00000000
0.00000000 8.25739000 0.00000000
0.00000000 0.00000000 26.19300000

ATOMIC_POSITIONS {angstrom}
Mn 1.45971500 0.00000000 -1.03226613 0 0 0
Mn 4.37914500 4.12869500 -1.03226613 0 0 0
Mn 4.37914500 0.00000000 -1.03226613 0 0 0
Mn 1.45971500 4.12869500 -1.03226613 0 0 0
Mn 4.37914500 6.19304250 -3.096536460000003 0 0 0
Mn 1.45971500 2.06434750 -3.096536460000003 0 0 0
Mn 1.45971500 6.19304250 -3.096536460000003 0 0 0
Mn 4.37914500 2.06434750 -3.096536460000003 0 0 0
Mn 1.45510230 4.12869500 3.15573264
Mn 4.36559884 0.00000000 3.10622787
Mn 4.38381609 4.12869500 3.15573264
Mn 1.47326116 0.00000000 3.10622787
Mn 4.40197494 2.04915390 1.10246337
Mn 1.43688506 6.20823610 1.10246337
Mn 1.43688506 2.04915390 1.10246337
Mn 4.40197494 6.20823610 1.10246337
V 0.00000000 0.00000000 -3.096536460000003 0 0 0
V 2.91943000 2.06434750 -1.03226613 0 0 0
V 2.91943000 6.19304250 -1.03226613 0 0 0
V 0.00000000 4.12869500 -3.096536460000003 0 0 0
V 0.00000000 4.12869500 1.03514736
V 2.91943000 6.23432945 3.04388853
V 2.91943000 2.02306055 3.04388853
V 0.00000000 0.00000000 1.00581120
Ga 0.00000000 6.19304250 -1.03226613 0 0 0
Ga 2.91943000 0.00000000 -3.096536460000003 0 0 0
Ga 0.00000000 2.06434750 -1.03226613 0 0 0
Ga 2.91943000 4.12869500 -3.096536460000003 0 0 0
Ga 5.83880161 2.09902854 3.44280792
Ga 2.91943000 4.12877757 1.05662562
Ga 5.83880161 6.15836146 3.44280792
Ga 2.91948839 8.25730743 1.00921629
C 0.00000000 0.00000000 4.14635190
