&CONTROL
calculation = 'relax'
prefix = 'scf'
pseudo_dir = '/vol0004/mdt0/data/hp150275/u10028/POT_KKJUS'
outdir = './data'
tprnfor = .true.
nstep = 50
disk_io = 'non'
/
&SYSTEM
ibrav = 0
ecutwfc = 50.0
ecutrho = 400
occupations = 'smearing'
smearing = 'mp'
degauss = 0.01
assume_isolated = 'esm'
esm_bc = 'bc1'
input_dft = 'BEEF-VDW'
nosym = .true.
nspin = 1
ntyp = 5
nat = 34
/
&ELECTRONS
electron_maxstep = 200
mixing_beta = 0.1
conv_thr = 1e-06
/
&IONS
ion_dynamics = 'bfgs'
upscale = 1.0
/
&CELL
/

K_POINTS {automatic}
8 6 1 0 0 0

ATOMIC_SPECIES
Al 26.98 Al.pbe-nl-rrkjus_psl.1.0.0.UPF
C 12.01 C.pbe-n-rrkjus_psl.1.0.0.UPF
Li 6.941 Li.pbe-sl-rrkjus_psl.1.0.0.UPF
O 15.99 O.pbe-n-rrkjus_psl.1.0.0.UPF
Rh 102.9 Rh.pbe-spn-rrkjus_psl.1.0.0.UPF

CELL_PARAMETERS {angstrom}
6.03986000 0.00000000 0.00000000
0.00000000 8.54165000 0.00000000
0.00000000 0.00000000 26.40620000

ATOMIC_POSITIONS {angstrom}
Li 0.00000000 0.00000000 -3.2030720599999967 0 0 0
Li 3.01993000 2.13541250 -1.0676026699999994 0 0 0
Li 3.01993000 6.40623750 -1.0676026699999994 0 0 0
Li 0.00000000 4.27082500 -3.2030720599999967 0 0 0
Li 0.00000000 4.28201456 1.00105904
Li 3.01993000 6.40623750 3.88752076
Li 3.01993000 2.13541250 3.71350391
Li 0.00000000 8.53054586 1.00105904
Al 1.50996500 0.00000000 -1.0676026699999994 0 0 0
Al 4.52989500 4.27082500 -1.0676026699999994 0 0 0
Al 4.52989500 0.00000000 -1.0676026699999994 0 0 0
Al 1.50996500 4.27082500 -1.0676026699999994 0 0 0
Al 4.52989500 6.40623750 -3.2030720599999967 0 0 0
Al 1.50996500 2.13541250 -3.2030720599999967 0 0 0
Al 1.50996500 6.40623750 -3.2030720599999967 0 0 0
Al 4.52989500 2.13541250 -3.2030720599999967 0 0 0
Al 1.44400973 4.30815201 3.13732062
Al 4.59585027 8.50432299 3.13732062
Al 4.59585027 4.30815201 3.13732062
Al 1.44400973 8.50432299 3.13732062
Al 4.51443296 2.13541250 1.17903683
Al 1.55170043 6.40623750 1.10694790
Al 1.52542704 2.13541250 1.17903683
Al 4.48815957 6.40623750 1.10694790
Rh 0.00000000 6.40623750 -1.0676026699999994 0 0 0
Rh 3.01993000 0.00000000 -3.2030720599999967 0 0 0
Rh 0.00000000 2.13541250 -1.0676026699999994 0 0 0
Rh 3.01993000 4.27082500 -3.2030720599999967 0 0 0
Rh 0.00000000 2.13541250 3.34830616
Rh 3.01993000 4.25408337 1.01426214
Rh 0.00000000 6.40623750 3.05678171
Rh 3.01993000 0.01674163 1.01426214
C 0.00000000 2.13541250 5.25694630
O 0.00000000 2.13541250 6.41591441
