&CONTROL
calculation = 'relax'
prefix = 'scf'
pseudo_dir = '/vol0403/data/hp230205/u10028/POT_HYBRID_KKJUS_GBRV'
outdir = './data'
tprnfor = .true.
nstep = 50
disk_io = 'non'
/
&SYSTEM
ibrav = 0
ecutwfc = 50.0
ecutrho = 400
occupations = 'smearing'
smearing = 'mp'
degauss = 0.01
assume_isolated = 'esm'
esm_bc = 'bc1'
input_dft = 'BEEF-VDW'
nosym = .true.
nspin = 1
ntyp = 5
nat = 17
/
&ELECTRONS
electron_maxstep = 200
mixing_beta = 0.1
conv_thr = 1e-06
/
&IONS
ion_dynamics = 'bfgs'
upscale = 1.0
/
&CELL
/

K_POINTS {automatic}
8 8 1 0 0 0

ATOMIC_SPECIES
C 12.01 C.pbe-n-rrkjus_psl.1.0.0.UPF
Ga 69.72 Ga.pbe-dnl-rrkjus_psl.1.0.0.UPF
Ge 72.64 Ge.pbe-dn-rrkjus_psl.1.0.0.UPF
Li 6.941 Li.pbe-sl-rrkjus_psl.1.0.0.UPF
Pd 106.4 Pd.pbe-n-rrkjus_psl.1.0.0.UPF


CELL_PARAMETERS {angstrom}
6.27488000 0.00000000 0.00000000
0.00000000 6.27488000 0.00000000
0.00000000 0.00000000 24.70620000

ATOMIC_POSITIONS {angstrom}
Li 4.71136815 1.57267317 0.93068255
Li 4.70616000 4.70616000 -2.35301849 0 0 0
Li 1.56872000 1.56872000 -2.35301849 0 0 0
Li 1.57267317 4.71143090 0.93068255
Ga 6.20711130 6.20704855 2.70310534
Ga 0.00000000 3.13744000 -0.7844218499999975 0 0 0
Ga 3.13744000 0.00000000 -0.7844218499999975 0 0 0
Ga 3.19353743 3.19353743 2.70681127
Ge 0.19897644 2.93394564 2.91928459
Ge 0.00000000 0.00000000 -0.7844218499999975 0 0 0
Ge 3.13744000 3.13744000 -0.7844218499999975 0 0 0
Ge 2.93400839 0.19897644 2.91928459
Pd 1.56959848 1.56959848 0.70709144
Pd 1.56872000 4.70616000 -2.35301849 0 0 0
Pd 4.70616000 1.56872000 -2.35301849 0 0 0
Pd 4.70904644 4.70904644 0.59344292
C 1.54506370 1.54500095 2.96474400
