&CONTROL
calculation = 'relax'
prefix = 'scf'
pseudo_dir = '/vol0403/data/hp230205/u10028/POT_HYBRID_KKJUS_GBRV'
outdir = './data'
tprnfor = .true.
nstep = 70
disk_io = 'non'
/
&SYSTEM
ibrav = 0
ecutwfc = 50.0
ecutrho = 400
occupations = 'smearing'
smearing = 'mp'
degauss = 0.01
assume_isolated = 'esm'
esm_bc = 'bc1'
input_dft = 'BEEF-VDW'
nosym = .true.
nspin = 1
ntyp = 6
nat = 34
/
&ELECTRONS
electron_maxstep = 200
mixing_beta = 0.1
conv_thr = 1e-06
/
&IONS
ion_dynamics = 'bfgs'
upscale = 1.0
/
&CELL
/

K_POINTS {automatic}
6 6 1 0 0 0

ATOMIC_SPECIES
C 12.01 C.pbe-n-rrkjus_psl.1.0.0.UPF
Ga 69.72 Ga.pbe-dnl-rrkjus_psl.1.0.0.UPF
Li 6.941 Li.pbe-sl-rrkjus_psl.1.0.0.UPF
O 15.99 O.pbe-n-rrkjus_psl.1.0.0.UPF
Pd 106.4 Pd.pbe-n-rrkjus_psl.1.0.0.UPF
Y 88.90 Y.pbe-spn-rrkjus_psl.1.0.0.UPF


CELL_PARAMETERS {angstrom}
6.61884000 0.00000000 0.00000000
-0.00000000 9.36046000 0.00000000
0.00000000 0.00000000 27.02030000

ATOMIC_POSITIONS {angstrom}
Li 4.96413000 0.00000000 -1.1699789900000006 0 0 0
Li 4.96413000 4.68023000 -1.1699789900000006 0 0 0
Li 1.65471000 2.34011500 -3.5102071699999975 0 0 0
Li 1.65471000 7.02034500 -3.5102071699999975 0 0 0
Li 4.96413000 4.68023000 3.51020717
Li 4.96413000 -0.00000000 3.51020717
Li 1.65471000 7.02034500 1.16997899
Li 1.65471000 2.34011500 1.16997899
Y 0.00000000 2.34011500 -1.1699789900000006 0 0 0
Y 0.00000000 7.02034500 -1.1699789900000006 0 0 0
Y 3.30942000 4.68023000 -3.5102071699999975 0 0 0
Y 3.30942000 0.00000000 -3.5102071699999975 0 0 0
Y 0.00000000 7.02034500 3.51020717
Y 0.00000000 2.34011500 3.51020717
Y 3.30942000 -0.00000000 1.16997899
Y 3.30942000 4.68023000 1.16997899
Ga 0.00000000 0.00000000 -3.5102071699999975 0 0 0
Ga 0.00000000 4.68023000 -3.5102071699999975 0 0 0
Ga 3.30942000 7.02034500 -1.1699789900000006 0 0 0
Ga 3.30942000 2.34011500 -1.1699789900000006 0 0 0
Ga 0.00000000 4.68023000 1.16997899
Ga 0.00000000 0.00000000 1.16997899
Ga 3.30942000 2.34011500 3.51020717
Ga 3.30942000 7.02034500 3.51020717
Pd 1.65471000 0.00000000 -1.1699789900000006 0 0 0
Pd 1.65471000 4.68023000 -1.1699789900000006 0 0 0
Pd 4.96413000 2.34011500 -3.5102071699999975 0 0 0
Pd 4.96413000 7.02034500 -3.5102071699999975 0 0 0
Pd 1.65471000 4.68023000 3.51020717
Pd 1.65471000 -0.00000000 3.51020717
Pd 4.96413000 7.02034500 1.16997899
Pd 4.96413000 2.34011500 1.16997899
C 1.65471000 -0.00000000 5.41027467
O 1.65471000 -0.00000000 6.56025864
