&CONTROL
calculation = 'relax'
prefix = 'scf'
pseudo_dir = '/vol0403/data/hp230205/u10028/POT_HYBRID_KKJUS_GBRV'
outdir = './data'
tprnfor = .true.
nstep = 70
disk_io = 'non'
/
&SYSTEM
ibrav = 0
ecutwfc = 50.0
ecutrho = 400
occupations = 'smearing'
smearing = 'mp'
degauss = 0.01
assume_isolated = 'esm'
esm_bc = 'bc1'
input_dft = 'BEEF-VDW'
nosym = .true.
nspin = 1
ntyp = 6
nat = 34
/
&ELECTRONS
electron_maxstep = 200
mixing_beta = 0.1
conv_thr = 1e-06
/
&IONS
ion_dynamics = 'bfgs'
upscale = 1.0
/
&CELL
/

K_POINTS {automatic}
9 6 2 0  0  0

ATOMIC_SPECIES
C 12.01 C.pbe-n-rrkjus_psl.1.0.0.UPF
Ga 69.72 Ga.pbe-dnl-rrkjus_psl.1.0.0.UPF
Li 6.941 Li.pbe-sl-rrkjus_psl.1.0.0.UPF
O 15.99 O.pbe-n-rrkjus_psl.1.0.0.UPF
Pd 106.4 Pd.pbe-n-rrkjus_psl.1.0.0.UPF
Y 88.90 Y.pbe-spn-rrkjus_psl.1.0.0.UPF


CELL_PARAMETERS {angstrom}
6.61884000 0.00000000 0.00000000
-0.00000000 9.36046000 0.00000000
0.00000000 0.00000000 27.02030000

ATOMIC_POSITIONS {angstrom}
Li 4.96413000 0.00000000 -1.1699789900000006 0 0 0
Li 4.96413000 4.68023000 -1.1699789900000006 0 0 0
Li 1.65471000 2.34011500 -3.5102071699999975 0 0 0
Li 1.65471000 7.02034500 -3.5102071699999975 0 0 0
Li 3.39850959 4.68023000 4.87527273
Li 3.43782550 -0.00000000 4.88391922
Li 1.42212396 7.03710022 1.34182810
Li 1.42219015 2.32335978 1.34182810
Y 0.00000000 2.34011500 -1.1699789900000006 0 0 0
Y 0.00000000 7.02034500 -1.1699789900000006 0 0 0
Y 3.30942000 4.68023000 -3.5102071699999975 0 0 0
Y 3.30942000 0.00000000 -3.5102071699999975 0 0 0
Y 6.02777759 7.01435431 3.52101529
Y 6.02784378 2.34610569 3.52101529
Y 3.29373335 -0.00000000 1.39397728
Y 3.32894558 4.68023000 1.42424001
Ga 0.00000000 0.00000000 -3.5102071699999975 0 0 0
Ga 0.00000000 4.68023000 -3.5102071699999975 0 0 0
Ga 3.30942000 7.02034500 -1.1699789900000006 0 0 0
Ga 3.30942000 2.34011500 -1.1699789900000006 0 0 0
Ga 6.49824474 4.68023000 1.09540296
Ga 6.54934218 -0.00000000 1.12539550
Ga 2.88363002 2.33908535 3.52858098
Ga 2.88363002 7.02137465 3.52858098
Pd 1.65471000 0.00000000 -1.1699789900000006 0 0 0
Pd 1.65471000 4.68023000 -1.1699789900000006 0 0 0
Pd 4.96413000 2.34011500 -3.5102071699999975 0 0 0
Pd 4.96413000 7.02034500 -3.5102071699999975 0 0 0
Pd 1.26896400 4.68023000 3.29107254
Pd 1.21528521 -0.00000000 3.53371483
Pd 4.88946948 7.03213918 1.02136734
Pd 4.88946948 2.32832082 1.02136734
C 0.67081943 0.00000000 5.40541102
O 0.66896616 0.00000000 6.58106427
