&CONTROL
calculation = 'relax'
prefix = 'scf'
pseudo_dir = '/vol0004/mdt0/data/hp150275/u10028/POT_HYBRID_KKJUS_GBRV'
outdir = './data'
tprnfor = .true.
nstep = 50
disk_io = 'non'
/
&SYSTEM
ibrav = 0
ecutwfc = 50.0
ecutrho = 400
occupations = 'smearing'
smearing = 'mp'
degauss = 0.01
assume_isolated = 'esm'
esm_bc = 'bc1'
input_dft = 'BEEF-VDW'
nosym = .true.
nspin = 2
ntyp = 5
nat = 34
starting_magnetization(1) = 0.0
starting_magnetization(2) = 0.0
starting_magnetization(3) = 0.001
starting_magnetization(4) = 0.0
starting_magnetization(5) = 0.0
/
&ELECTRONS
electron_maxstep = 300
mixing_beta = 0.1
conv_thr = 1e-06
/
&IONS
ion_dynamics = 'bfgs'
upscale = 1.0
/
&CELL
/

K_POINTS {automatic}
9 6 2 0  0  0

ATOMIC_SPECIES
C 12.01 C.pbe-n-rrkjus_psl.1.0.0.UPF
Ga 69.72 Ga.pbe-dnl-rrkjus_psl.1.0.0.UPF
Ni 58.69 ni_pbe_v1.4.uspp.F.UPF
O 15.99 O.pbe-n-rrkjus_psl.1.0.0.UPF
Zr 91.22 Zr.pbe-spn-rrkjus_psl.1.0.0.UPF

CELL_PARAMETERS {angstrom}
6.13924000 0.00000000 0.00000000
0.00000000 8.68219000 0.00000000
0.00000000 0.00000000 26.51160000

ATOMIC_POSITIONS {angstrom}
Zr 0.00000000 0.00000000 -3.2558895999999997 0 0 0
Zr 3.06962000 2.17054750 -1.085384900000001 0 0 0
Zr 3.06962000 6.51164250 -1.085384900000001 0 0 0
Zr 0.00000000 4.34109500 -3.2558895999999997 0 0 0
Zr 0.00000000 4.35394464 1.05966865
Zr 3.06962000 6.51172932 3.36644297
Zr 3.06962000 2.17046068 3.33383370
Zr 0.00000000 8.66934036 1.05993377
Ga 0.00000000 6.51164250 -1.085384900000001 0 0 0
Ga 3.06962000 0.00000000 -3.2558895999999997 0 0 0
Ga 0.00000000 2.17054750 -1.085384900000001 0 0 0
Ga 3.06962000 4.34109500 -3.2558895999999997 0 0 0
Ga 0.00000000 2.17072114 3.20525244
Ga 3.06962000 4.34074771 1.10208721
Ga 0.00000000 6.51155568 3.22248498
Ga 3.06962000 0.00034729 1.10208721
Ni 1.53481000 0.00000000 -1.085384900000001 0 0 0
Ni 4.60443000 4.34109500 -1.085384900000001 0 0 0
Ni 4.60443000 0.00000000 -1.085384900000001 0 0 0
Ni 1.53481000 4.34109500 -1.085384900000001 0 0 0
Ni 4.60443000 6.51164250 -3.2558895999999997 0 0 0
Ni 1.53481000 2.17054750 -3.2558895999999997 0 0 0
Ni 1.53481000 6.51164250 -3.2558895999999997 0 0 0
Ni 4.60443000 2.17054750 -3.2558895999999997 0 0 0
Ni 1.49459798 4.35698341 3.11458277
Ni 4.64470341 8.66630159 3.11458277
Ni 4.64464202 4.35698341 3.11458277
Ni 1.49447519 8.66630159 3.11458277
Ni 4.50092241 2.17072114 1.16226854
Ni 1.66164670 6.51146886 1.16094296
Ni 1.63825619 2.17072114 1.16226854
Ni 4.47759330 6.51146886 1.16094296
C 0.00006139 2.17054750 5.30285023
O 0.00000000 2.17054750 6.45796064
