&CONTROL
calculation = 'relax'
prefix = 'scf'
pseudo_dir = '/vol0403/data/hp230205/u10028/POT_HYBRID_KKJUS_GBRV'
outdir = './data'
tprnfor = .true.
nstep = 50
disk_io = 'non'
/
&SYSTEM
ibrav = 0
ecutwfc = 50.0
ecutrho = 400
occupations = 'smearing'
smearing = 'mp'
degauss = 0.01
assume_isolated = 'esm'
esm_bc = 'bc1'
input_dft = 'BEEF-VDW'
nosym = .true.
nspin = 1
ntyp = 6
nat = 34
/
&ELECTRONS
electron_maxstep = 200
mixing_beta = 0.1
conv_thr = 1e-06
/
&IONS
ion_dynamics = 'bfgs'
upscale = 1.0
/
&CELL
/

K_POINTS {automatic}
6 6 1 0 0 0

ATOMIC_SPECIES
C 12.01 C.pbe-n-rrkjus_psl.1.0.0.UPF
Ga 69.72 Ga.pbe-dnl-rrkjus_psl.1.0.0.UPF
O 15.99 O.pbe-n-rrkjus_psl.1.0.0.UPF
Pd 106.4 Pd.pbe-n-rrkjus_psl.1.0.0.UPF
Sc 44.95 Sc.pbe-spn-rrkjus_psl.1.0.0.UPF
Y 88.90 Y.pbe-spn-rrkjus_psl.1.0.0.UPF


CELL_PARAMETERS {angstrom}
9.85606000 0.00000000 0.00000000
0.00000000 7.06732000 0.00000000
0.00000000 0.00000000 27.11150000

ATOMIC_POSITIONS {angstrom}
Y 2.46401500 1.76683000 3.63944776
Y 2.46401500 1.76683000 -1.1853147799999988 0 0 0
Y 2.46401500 5.30049000 3.85200192
Y 2.46401500 5.30049000 -1.1853147799999988 0 0 0
Y 7.39214356 1.76683000 3.78964547
Y 7.39204500 1.76683000 -1.1853147799999988 0 0 0
Y 7.39204500 5.30049000 3.71996891
Y 7.39204500 5.30049000 -1.1853147799999988 0 0 0
Sc 9.83477091 1.76683000 1.17284349
Sc 0.00000000 1.76683000 -3.55567323 0 0 0
Sc 0.01488265 5.30049000 1.18829705
Sc 0.00000000 5.30049000 -3.55567323 0 0 0
Sc 4.94941765 1.76683000 1.17284349
Sc 4.92803000 1.76683000 -3.55567323 0 0 0
Sc 4.91304879 5.30049000 1.18829705
Sc 4.92803000 5.30049000 -3.55567323 0 0 0
Ga 9.84886508 7.06428105 3.52693504
Ga 0.00000000 0.00000000 -1.1853147799999988 0 0 0
Ga 9.84886508 3.53669895 3.52693504
Ga 0.00000000 3.53366000 -1.1853147799999988 0 0 0
Ga 4.93532348 7.06428105 3.52693504
Ga 4.92803000 0.00000000 -1.1853147799999988 0 0 0
Ga 4.93532348 3.53669895 3.52693504
Ga 4.92803000 3.53366000 -1.1853147799999988 0 0 0
Pd 2.46391644 6.91572599 1.33822364
Pd 2.46401500 0.00000000 -3.55567323 0 0 0
Pd 2.46381788 3.68525401 1.33795252
Pd 2.46401500 3.53366000 -3.55567323 0 0 0
Pd 7.39204500 0.06148568 1.36262399
Pd 7.39204500 0.00000000 -3.55567323 0 0 0
Pd 7.39214356 3.47217432 1.36262399
Pd 7.39204500 3.53366000 -3.55567323 0 0 0
C 2.46401500 1.76683000 6.11174544
O 2.46401500 1.76683000 7.26317085
