&CONTROL
calculation = 'relax'
prefix = 'scf'
pseudo_dir = '/vol0004/mdt0/data/hp150275/u10028/POT_KKJUS'
outdir = './data'
tprnfor = .true.
nstep = 50
disk_io = 'non'
/
&SYSTEM
ibrav = 0
ecutwfc = 50.0
ecutrho = 400
occupations = 'smearing'
smearing = 'mp'
degauss = 0.01
assume_isolated = 'esm'
esm_bc = 'bc1'
input_dft = 'BEEF-VDW'
nosym = .true.
nspin = 1
ntyp = 4
nat = 18
/
&ELECTRONS
electron_maxstep = 200
mixing_beta = 0.1
conv_thr = 1e-06
/
&IONS
ion_dynamics = 'bfgs'
upscale = 1.0
/
&CELL
/

K_POINTS {automatic}
9 9 2 0  0  0

ATOMIC_SPECIES
Au 196.9 Au.pbe-n-rrkjus_psl.1.0.0.UPF
C 12.01 C.pbe-n-rrkjus_psl.1.0.0.UPF
O 15.99 O.pbe-n-rrkjus_psl.1.0.0.UPF
Ti 47.86 Ti.pbe-spn-rrkjus_psl.1.0.0.UPF

CELL_PARAMETERS {angstrom}
6.57738000 0.00000000 0.00000000
-0.00000000 6.57738000 0.00000000
0.00000000 0.00000000 24.93300000

ATOMIC_POSITIONS {angstrom}
Ti 0.00000000 0.00000000 -1.9657177200000007 0 0 0
Ti 0.00000000 0.00000000 1.32294498
Ti 0.00000000 3.28869000 -1.9657177200000007 0 0 0
Ti 0.00000000 3.28869000 1.32294498
Ti 3.28869000 0.00000000 -1.9657177200000007 0 0 0
Ti 3.28869000 -0.00000000 1.32294498
Ti 3.28869000 3.28869000 -1.9657177200000007 0 0 0
Ti 3.28869000 3.28869000 1.32294498
Au 1.64434500 1.64434500 -0.32138636999999903 0 0 0
Au 1.64434500 1.64434500 2.96727633
Au 1.64434500 4.93303500 -0.32138636999999903 0 0 0
Au 1.64434500 4.93303500 2.96727633
Au 4.93303500 1.64434500 -0.32138636999999903 0 0 0
Au 4.93303500 1.64434500 2.96727633
Au 4.93303500 4.93303500 -0.32138636999999903 0 0 0
Au 4.93303500 4.93303500 2.96727633
C 1.64434500 1.64434500 4.86717093
O 1.64434500 1.64434500 6.01708089
