&CONTROL
calculation = 'relax'
prefix = 'scf'
pseudo_dir = '/vol0004/mdt0/data/hp150275/u10028/POT_KKJUS'
outdir = './data'
tprnfor = .true.
nstep = 50
disk_io = 'non'
/
&SYSTEM
ibrav = 0
ecutwfc = 50.0
ecutrho = 400
occupations = 'smearing'
smearing = 'mp'
degauss = 0.01
assume_isolated = 'esm'
esm_bc = 'bc1'
input_dft = 'BEEF-VDW'
nosym = .true.
nspin = 1
ntyp = 4
nat = 34
/
&ELECTRONS
electron_maxstep = 200
mixing_beta = 0.1
conv_thr = 1e-06
/
&IONS
ion_dynamics = 'bfgs'
upscale = 1.0
/
&CELL
/

K_POINTS {automatic}
9 6 2 0  0  0

ATOMIC_SPECIES
C 12.01 C.pbe-n-rrkjus_psl.1.0.0.UPF
Ca 40.07 Ca.pbe-spn-rrkjus_psl.1.0.0.UPF
Ni 58.69 Ni.pbe-spn-rrkjus_psl.1.0.0.UPF
O 15.99 O.pbe-n-rrkjus_psl.1.0.0.UPF

CELL_PARAMETERS {angstrom}
6.93038000 0.00000000 0.00000000
0.00000000 9.80104000 0.00000000
0.00000000 0.00000000 27.35080000

ATOMIC_POSITIONS {angstrom}
Ca 0.00000000 0.00000000 -3.6754004999999985 0 0 0
Ca 0.00000000 2.45026000 -1.2250423300000008 0 0 0
Ca 6.92005373 9.80084398 1.13970784
Ca 6.92469709 2.47564469 3.86740312
Ca 0.00000000 4.90052000 -3.6754004999999985 0 0 0
Ca 0.00000000 7.35078000 -1.2250423300000008 0 0 0
Ca 6.91478665 4.90081403 1.19222137
Ca 6.92490500 7.32529730 3.86685610
Ca 3.46519000 0.00000000 -3.6754004999999985 0 0 0
Ca 3.46519000 2.45026000 -1.2250423300000008 0 0 0
Ca 3.47537766 0.00029403 1.13916082
Ca 3.47073430 2.47564469 3.86712961
Ca 3.46519000 4.90052000 -3.6754004999999985 0 0 0
Ca 3.46519000 7.35078000 -1.2250423300000008 0 0 0
Ca 3.48064475 4.90042199 1.19194786
Ca 3.47066500 7.32519929 3.86740312
Ni 1.73259500 2.45026000 -3.6754004999999985 0 0 0
Ni 1.73259500 0.00000000 -1.2250423300000008 0 0 0
Ni 1.73197127 2.36410886 1.59810724
Ni 1.73363456 9.80084398 3.49351768
Ni 1.73259500 7.35078000 -3.6754004999999985 0 0 0
Ni 1.73259500 4.90052000 -1.2250423300000008 0 0 0
Ni 1.73391177 7.43722517 1.59756023
Ni 1.73314943 4.90012796 3.35621667
Ni 5.19778500 2.45026000 -3.6754004999999985 0 0 0
Ni 5.19778500 0.00000000 -1.2250423300000008 0 0 0
Ni 5.19827013 2.41291804 1.57020943
Ni 5.19688405 9.80084398 3.28537810
Ni 5.19778500 7.35078000 -3.6754004999999985 0 0 0
Ni 5.19778500 4.90052000 -1.2250423300000008 0 0 0
Ni 5.19688405 7.38841599 1.57075644
Ni 5.19723057 4.90012796 3.39478130
C 1.73280291 0.00000000 5.22947296
O 1.73252570 0.00000000 6.41212155
