&CONTROL
calculation = 'relax'
prefix = 'scf'
pseudo_dir = '/vol0004/mdt0/data/hp150275/u10028/POT_HYBRID_KKJUS_GBRV'
outdir = './data'
tprnfor = .true.
nstep = 50
disk_io = 'non'
/
&SYSTEM
ibrav = 0
ecutwfc = 50.0
ecutrho = 400
occupations = 'smearing'
smearing = 'mp'
degauss = 0.01
assume_isolated = 'esm'
esm_bc = 'bc1'
input_dft = 'BEEF-VDW'
nosym = .true.
nspin = 2
ntyp = 4
nat = 34
starting_magnetization(1) = 0.0
starting_magnetization(2) = 0.1
starting_magnetization(3) = 0.0
starting_magnetization(4) = 0.0
/
&ELECTRONS
electron_maxstep = 200
mixing_beta = 0.1
conv_thr = 1e-06
/
&IONS
ion_dynamics = 'bfgs'
upscale = 1.0
/
&CELL
/

K_POINTS {automatic}
7 7 2 0  0  0

ATOMIC_SPECIES
C 12.01 C.pbe-n-rrkjus_psl.1.0.0.UPF
Fe 55.84 fe_pbe_v1.5.uspp.F.UPF
O 15.99 O.pbe-n-rrkjus_psl.1.0.0.UPF
Pt 195.0 Pt.pbe-n-rrkjus_psl.1.0.0.UPF

CELL_PARAMETERS {angstrom}
7.88854000 0.00000000 0.00000000
-0.00000000 7.88854000 0.00000000
0.00000000 0.00000000 25.91640000

ATOMIC_POSITIONS {angstrom}
Fe 0.00000000 0.00000000 2.95809790
Fe 0.00000000 0.00000000 -0.9861190200000003 0 0 0
Fe 0.00000000 3.94427000 2.95809790
Fe 0.00000000 3.94427000 -0.9861190200000003 0 0 0
Fe 3.94427000 -0.00000000 2.95809790
Fe 3.94427000 0.00000000 -0.9861190200000003 0 0 0
Fe 3.94427000 3.94427000 2.95809790
Fe 3.94427000 3.94427000 -0.9861190200000003 0 0 0
Pt 0.00000000 1.97213500 0.98611902
Pt 1.97213500 -0.00000000 0.98611902
Pt 1.97213500 1.97213500 2.95809790
Pt 0.00000000 1.97213500 -2.9580978999999985 0 0 0
Pt 1.97213500 0.00000000 -2.9580978999999985 0 0 0
Pt 1.97213500 1.97213500 -0.9861190200000003 0 0 0
Pt 0.00000000 5.91640500 0.98611902
Pt 1.97213500 3.94427000 0.98611902
Pt 1.97213500 5.91640500 2.95809790
Pt 0.00000000 5.91640500 -2.9580978999999985 0 0 0
Pt 1.97213500 3.94427000 -2.9580978999999985 0 0 0
Pt 1.97213500 5.91640500 -0.9861190200000003 0 0 0
Pt 3.94427000 1.97213500 0.98611902
Pt 5.91640500 -0.00000000 0.98611902
Pt 5.91640500 1.97213500 2.95809790
Pt 3.94427000 1.97213500 -2.9580978999999985 0 0 0
Pt 5.91640500 0.00000000 -2.9580978999999985 0 0 0
Pt 5.91640500 1.97213500 -0.9861190200000003 0 0 0
Pt 3.94427000 5.91640500 0.98611902
Pt 5.91640500 3.94427000 0.98611902
Pt 5.91640500 5.91640500 2.95809790
Pt 3.94427000 5.91640500 -2.9580978999999985 0 0 0
Pt 5.91640500 3.94427000 -2.9580978999999985 0 0 0
Pt 5.91640500 5.91640500 -0.9861190200000003 0 0 0
C 1.97213500 1.97213500 4.85828834
O 1.97213500 1.97213500 6.00819901
