&CONTROL
calculation = 'relax'
prefix = 'scf'
pseudo_dir = '/vol0004/mdt0/data/hp150275/u10028/POT_HYBRID_KKJUS_GBRV'
outdir = './data'
tprnfor = .true.
nstep = 50
disk_io = 'non'
/
&SYSTEM
ibrav = 0
ecutwfc = 50.0
ecutrho = 400
occupations = 'smearing'
smearing = 'mp'
degauss = 0.01
assume_isolated = 'esm'
esm_bc = 'bc1'
input_dft = 'BEEF-VDW'
nosym = .true.
nspin = 2
ntyp = 3
nat = 33
starting_magnetization(1) = 0.1
starting_magnetization(2) = 0.1
starting_magnetization(3) = 0.1
/
&ELECTRONS
electron_maxstep = 200
mixing_beta = 0.1
conv_thr = 1e-06
/
&IONS
ion_dynamics = 'bfgs'
upscale = 1.0
/
&CELL
/

K_POINTS {automatic}
9 6 2 0  0  0

ATOMIC_SPECIES
C 12.01 C.pbe-n-rrkjus_psl.1.0.0.UPF
Ga 69.72 Ga.pbe-dnl-rrkjus_psl.1.0.0.UPF
Ni 58.69 ni_pbe_v1.4.uspp.F.UPF

CELL_PARAMETERS {angstrom}
5.82971000 0.00000000 0.00000000
0.00000000 8.24446000 0.00000000
0.00000000 0.00000000 26.18330000

ATOMIC_POSITIONS {angstrom}
Ga 0.00000000 0.00000000 -3.0917240600000007 0 0 0
Ga 0.00000000 2.06111500 -1.0305746899999981 0 0 0
Ga 0.00000000 8.24413022 1.14630487
Ga 0.00000000 2.09095995 3.40356717
Ga 0.00000000 4.12223000 -3.0917240600000007 0 0 0
Ga 0.00000000 6.18334500 -1.0305746899999981 0 0 0
Ga 0.00000000 4.12247733 1.01486471
Ga 0.00000000 6.15358250 3.40304350
Ga 2.91485500 0.00000000 -3.0917240600000007 0 0 0
Ga 2.91485500 2.06111500 -1.0305746899999981 0 0 0
Ga 2.91485500 8.24413022 0.98553941
Ga 2.91485500 2.16087297 3.32946843
Ga 2.91485500 4.12223000 -3.0917240600000007 0 0 0
Ga 2.91485500 6.18334500 -1.0305746899999981 0 0 0
Ga 2.91485500 4.12247733 1.05518699
Ga 2.91485500 6.08358703 3.32920660
Ni 1.45742750 2.06111500 -3.0917240600000007 0 0 0
Ni 1.45742750 0.00000000 -1.0305746899999981 0 0 0
Ni 1.44005496 2.07240991 1.04130984
Ni 1.41020685 4.12214756 3.02469482
Ni 1.45742750 6.18334500 -3.0917240600000007 0 0 0
Ni 1.45742750 4.12223000 -1.0305746899999981 0 0 0
Ni 1.44005496 6.17196765 1.04078618
Ni 1.71352666 0.00016489 3.09224773
Ni 4.37228250 2.06111500 -3.0917240600000007 0 0 0
Ni 4.37228250 0.00000000 -1.0305746899999981 0 0 0
Ni 4.38965504 2.07240991 1.04130984
Ni 4.41950315 4.12214756 3.02469482
Ni 4.37228250 6.18334500 -3.0917240600000007 0 0 0
Ni 4.37228250 4.12223000 -1.0305746899999981 0 0 0
Ni 4.38965504 6.17196765 1.04078618
Ni 4.11618334 0.00016489 3.09224773
C 0.00000000 0.00016489 3.62664888
