&CONTROL
calculation = 'relax'
prefix = 'scf'
pseudo_dir = '/vol0004/mdt0/data/hp150275/u10028/POT_KKJUS'
outdir = './data'
tprnfor = .true.
nstep = 50
disk_io = 'non'
/
&SYSTEM
ibrav = 0
ecutwfc = 50.0
ecutrho = 400
occupations = 'smearing'
smearing = 'mp'
degauss = 0.01
assume_isolated = 'esm'
esm_bc = 'bc1'
input_dft = 'BEEF-VDW'
nosym = .true.
nspin = 1
ntyp = 4
nat = 34
/
&ELECTRONS
electron_maxstep = 200
mixing_beta = 0.1
conv_thr = 1e-06
/
&IONS
ion_dynamics = 'bfgs'
upscale = 1.0
/
&CELL
/

K_POINTS {automatic}
9 6 2 0  0  0

ATOMIC_SPECIES
C 12.01 C.pbe-n-rrkjus_psl.1.0.0.UPF
Cu 63.54 Cu.pbe-dn-rrkjus_psl.1.0.0.UPF
O 15.99 O.pbe-n-rrkjus_psl.1.0.0.UPF
Sc 44.95 Sc.pbe-spn-rrkjus_psl.1.0.0.UPF

CELL_PARAMETERS {angstrom}
6.54723000 0.00000000 0.00000000
0.00000000 9.25918000 0.00000000
0.00000000 0.00000000 26.94440000

ATOMIC_POSITIONS {angstrom}
Sc 1.63680750 2.31479500 -3.4723248300000016 0 0 0
Sc 1.63680750 4.62959000 -1.1575314200000015 0 0 0
Sc 1.63137330 2.31470241 1.12923980
Sc 1.65304463 4.64320099 3.49522757
Sc 1.63680750 6.94438500 -3.4723248300000016 0 0 0
Sc 1.63680750 0.00000000 -1.1575314200000015 0 0 0
Sc 1.64237265 6.94438500 1.15564532
Sc 1.65324105 9.24556901 3.49522757
Sc 4.91042250 2.31479500 -3.4723248300000016 0 0 0
Sc 4.91042250 4.62959000 -1.1575314200000015 0 0 0
Sc 4.91585670 2.31470241 1.12923980
Sc 4.89411990 4.64329359 3.49522757
Sc 4.91042250 6.94438500 -3.4723248300000016 0 0 0
Sc 4.91042250 0.00000000 -1.1575314200000015 0 0 0
Sc 4.90485735 6.94438500 1.15564532
Sc 4.89398895 9.24566160 3.49549701
Cu 0.00000000 0.00000000 -3.4723248300000016 0 0 0
Cu 0.00000000 2.31479500 -1.1575314200000015 0 0 0
Cu 0.00000000 9.25232821 1.28309233
Cu 0.00000000 2.31470241 3.38367775
Cu 0.00000000 4.62959000 -3.4723248300000016 0 0 0
Cu 0.00000000 6.94438500 -1.1575314200000015 0 0 0
Cu 0.00000000 4.63625661 1.28309233
Cu 0.00000000 6.94466278 3.28371403
Cu 3.27361500 0.00000000 -3.4723248300000016 0 0 0
Cu 3.27361500 2.31479500 -1.1575314200000015 0 0 0
Cu 3.27361500 0.00824067 1.26611736
Cu 3.27368047 2.31470241 3.25811685
Cu 3.27361500 4.62959000 -3.4723248300000016 0 0 0
Cu 3.27361500 6.94438500 -1.1575314200000015 0 0 0
Cu 3.27361500 4.62134933 1.26584791
Cu 3.27361500 6.94457018 3.30176678
C 0.00000000 2.31498018 5.23745247
O 0.00000000 2.31488759 6.40818665
