&CONTROL
calculation = 'relax'
prefix = 'scf'
pseudo_dir = '/vol0004/mdt0/data/hp150275/u10028/POT_KKJUS'
outdir = './data'
tprnfor = .true.
nstep = 50
disk_io = 'non'
/
&SYSTEM
ibrav = 0
ecutwfc = 50.0
ecutrho = 400
occupations = 'smearing'
smearing = 'mp'
degauss = 0.01
assume_isolated = 'esm'
esm_bc = 'bc1'
input_dft = 'BEEF-VDW'
nosym = .true.
nspin = 1
ntyp = 4
nat = 33
/
&ELECTRONS
electron_maxstep = 200
mixing_beta = 0.1
conv_thr = 1e-06
/
&IONS
ion_dynamics = 'bfgs'
upscale = 1.0
/
&CELL
/

K_POINTS {automatic}
9 6 2 0  0  0

ATOMIC_SPECIES
C 12.01 C.pbe-n-rrkjus_psl.1.0.0.UPF
In 114.8 In.pbe-dn-rrkjus_psl.1.0.0.UPF
Mg 24.30 Mg.pbe-spnl-rrkjus_psl.1.0.0.UPF
Ni 58.69 Ni.pbe-spn-rrkjus_psl.1.0.0.UPF

CELL_PARAMETERS {angstrom}
6.24448000 0.00000000 0.00000000
0.00000000 8.83103000 0.00000000
0.00000000 0.00000000 26.62330000

ATOMIC_POSITIONS {angstrom}
Mg 0.00000000 0.00000000 -3.3116722900000006 0 0 0
Mg 3.12224000 2.20775750 -1.1038020199999998 0 0 0
Mg 3.12224000 6.62327250 -1.1038020199999998 0 0 0
Mg 0.00000000 4.41551500 -3.3116722900000006 0 0 0
Mg 0.00000000 4.41542669 1.01328280
Mg 3.12224000 6.52109748 3.46289263
Mg 3.12224000 2.30984421 3.46289263
Mg 0.00000000 0.00000000 1.17967842
In 0.00000000 6.62327250 -1.1038020199999998 0 0 0
In 3.12224000 0.00000000 -3.3116722900000006 0 0 0
In 0.00000000 2.20775750 -1.1038020199999998 0 0 0
In 3.12224000 4.41551500 -3.3116722900000006 0 0 0
In 0.00000000 2.31249352 3.54808719
In 3.12224000 4.41551500 1.06679563
In 0.00000000 6.51853648 3.54808719
In 3.12224000 8.83094169 1.04922425
Ni 1.56112000 0.00000000 -1.1038020199999998 0 0 0
Ni 4.68336000 4.41551500 -1.1038020199999998 0 0 0
Ni 4.68336000 0.00000000 -1.1038020199999998 0 0 0
Ni 1.56112000 4.41551500 -1.1038020199999998 0 0 0
Ni 4.68336000 6.62327250 -3.3116722900000006 0 0 0
Ni 1.56112000 2.20775750 -3.3116722900000006 0 0 0
Ni 1.56112000 6.62327250 -3.3116722900000006 0 0 0
Ni 4.68336000 2.20775750 -3.3116722900000006 0 0 0
Ni 1.48425045 4.41551500 3.09655602
Ni 4.49196669 0.00000000 3.26135425
Ni 4.76022955 4.41551500 3.09655602
Ni 1.75251331 8.83094169 3.26162048
Ni 4.69478740 2.22047418 1.14506813
Ni 1.54963016 6.61046751 1.14533437
Ni 1.54969260 2.22047418 1.14506813
Ni 4.69491229 6.61055582 1.14506813
C 0.00000000 0.00000000 3.61491167
