&CONTROL
calculation = 'relax'
prefix = 'scf'
pseudo_dir = '/vol0004/mdt0/data/hp150275/u10028/POT_HYBRID_KKJUS_GBRV'
outdir = './data'
tprnfor = .true.
nstep = 50
disk_io = 'non'
/
&SYSTEM
ibrav = 0
ecutwfc = 50.0
ecutrho = 400
occupations = 'smearing'
smearing = 'mp'
degauss = 0.01
assume_isolated = 'esm'
esm_bc = 'bc1'
input_dft = 'BEEF-VDW'
nosym = .true.
nspin = 2
ntyp = 4
nat = 34
starting_magnetization(1) = 0.0
starting_magnetization(2) = 0.1
starting_magnetization(3) = 0.0
starting_magnetization(4) = 0.0
/
&ELECTRONS
electron_maxstep = 200
mixing_beta = 0.1
conv_thr = 1e-06
/
&IONS
ion_dynamics = 'bfgs'
upscale = 1.0
/
&CELL
/

K_POINTS {automatic}
7 7 2 0  0  0

ATOMIC_SPECIES
C 12.01 C.pbe-n-rrkjus_psl.1.0.0.UPF
Mn 54.93 mn_pbe_v1.5.uspp.F.UPF
O 15.99 O.pbe-n-rrkjus_psl.1.0.0.UPF
Pt 195.0 Pt.pbe-n-rrkjus_psl.1.0.0.UPF

CELL_PARAMETERS {angstrom}
7.92107000 0.00000000 0.00000000
-0.00000000 7.92107000 0.00000000
0.00000000 0.00000000 25.94080000

ATOMIC_POSITIONS {angstrom}
Mn 0.00000000 0.00000000 2.97048101
Mn 0.00000000 0.00000000 -0.9901603399999992 0 0 0
Mn 0.00000000 3.96053500 2.97048101
Mn 0.00000000 3.96053500 -0.9901603399999992 0 0 0
Mn 3.96053500 -0.00000000 2.97048101
Mn 3.96053500 0.00000000 -0.9901603399999992 0 0 0
Mn 3.96053500 3.96053500 2.97048101
Mn 3.96053500 3.96053500 -0.9901603399999992 0 0 0
Pt 0.00000000 1.98026750 0.99016034
Pt 1.98026750 -0.00000000 0.99016034
Pt 1.98026750 1.98026750 2.97048101
Pt 0.00000000 1.98026750 -2.9704810100000003 0 0 0
Pt 1.98026750 0.00000000 -2.9704810100000003 0 0 0
Pt 1.98026750 1.98026750 -0.9901603399999992 0 0 0
Pt 0.00000000 5.94080250 0.99016034
Pt 1.98026750 3.96053500 0.99016034
Pt 1.98026750 5.94080250 2.97048101
Pt 0.00000000 5.94080250 -2.9704810100000003 0 0 0
Pt 1.98026750 3.96053500 -2.9704810100000003 0 0 0
Pt 1.98026750 5.94080250 -0.9901603399999992 0 0 0
Pt 3.96053500 1.98026750 0.99016034
Pt 5.94080250 -0.00000000 0.99016034
Pt 5.94080250 1.98026750 2.97048101
Pt 3.96053500 1.98026750 -2.9704810100000003 0 0 0
Pt 5.94080250 0.00000000 -2.9704810100000003 0 0 0
Pt 5.94080250 1.98026750 -0.9901603399999992 0 0 0
Pt 3.96053500 5.94080250 0.99016034
Pt 5.94080250 3.96053500 0.99016034
Pt 5.94080250 5.94080250 2.97048101
Pt 3.96053500 5.94080250 -2.9704810100000003 0 0 0
Pt 5.94080250 3.96053500 -2.9704810100000003 0 0 0
Pt 5.94080250 5.94080250 -0.9901603399999992 0 0 0
C 0.00000000 0.00000000 4.87038520
O 0.00000000 0.00000000 6.02034086
