&CONTROL
calculation = 'relax'
prefix = 'scf'
pseudo_dir = '/vol0004/mdt0/data/hp150275/u10028/POT_KKJUS'
outdir = './data'
tprnfor = .true.
nstep = 50
disk_io = 'non'
/
&SYSTEM
ibrav = 0
ecutwfc = 50.0
ecutrho = 400
occupations = 'smearing'
smearing = 'mp'
degauss = 0.01
assume_isolated = 'esm'
esm_bc = 'bc1'
input_dft = 'BEEF-VDW'
nosym = .true.
nspin = 1
ntyp = 3
nat = 33
/
&ELECTRONS
electron_maxstep = 200
mixing_beta = 0.1
conv_thr = 1e-06
/
&IONS
ion_dynamics = 'bfgs'
upscale = 1.0
/
&CELL
/

K_POINTS {automatic}
7 7 2 0  0  0

ATOMIC_SPECIES
C 12.01 C.pbe-n-rrkjus_psl.1.0.0.UPF
Hf 178.4 Hf.pbe-spn-rrkjus_psl.1.0.0.UPF
Ir 192.2 Ir.pbe-n-rrkjus_psl.0.2.3.UPF

CELL_PARAMETERS {angstrom}
7.94591000 0.00000000 0.00000000
-0.00000000 7.94591000 0.00000000
0.00000000 0.00000000 25.95940000

ATOMIC_POSITIONS {angstrom}
Hf 0.00000000 0.00000000 -2.9796199299999984 0 0 0
Hf 0.00000000 0.00000000 0.99320664
Hf 0.00000000 3.97295500 -2.9796199299999984 0 0 0
Hf 0.00000000 3.97295500 0.99320664
Hf 3.97295500 0.00000000 -2.9796199299999984 0 0 0
Hf 3.97295500 -0.00000000 0.99320664
Hf 3.97295500 3.97295500 -2.9796199299999984 0 0 0
Hf 3.97295500 3.97295500 0.99320664
Ir 0.00000000 1.98647750 -0.9932066400000004 0 0 0
Ir 1.98647750 0.00000000 -0.9932066400000004 0 0 0
Ir 1.98647750 1.98647750 -2.9796199299999984 0 0 0
Ir 0.00000000 1.98647750 2.97961993
Ir 1.98647750 -0.00000000 2.97961993
Ir 1.98647750 1.98647750 0.99320664
Ir 0.00000000 5.95943250 -0.9932066400000004 0 0 0
Ir 1.98647750 3.97295500 -0.9932066400000004 0 0 0
Ir 1.98647750 5.95943250 -2.9796199299999984 0 0 0
Ir 0.00000000 5.95943250 2.97961993
Ir 1.98647750 3.97295500 2.97961993
Ir 1.98647750 5.95943250 0.99320664
Ir 3.97295500 1.98647750 -0.9932066400000004 0 0 0
Ir 5.95943250 0.00000000 -0.9932066400000004 0 0 0
Ir 5.95943250 1.98647750 -2.9796199299999984 0 0 0
Ir 3.97295500 1.98647750 2.97961993
Ir 5.95943250 -0.00000000 2.97961993
Ir 5.95943250 1.98647750 0.99320664
Ir 3.97295500 5.95943250 -0.9932066400000004 0 0 0
Ir 5.95943250 3.97295500 -0.9932066400000004 0 0 0
Ir 5.95943250 5.95943250 -2.9796199299999984 0 0 0
Ir 3.97295500 5.95943250 2.97961993
Ir 5.95943250 3.97295500 2.97961993
Ir 5.95943250 5.95943250 0.99320664
C 1.98647750 1.98647750 3.77968864
