&CONTROL
calculation = 'relax'
prefix = 'scf'
pseudo_dir = '/vol0004/mdt0/data/hp150275/u10028/POT_HYBRID_KKJUS_GBRV'
outdir = './data'
tprnfor = .true.
nstep = 50
disk_io = 'non'
/
&SYSTEM
ibrav = 0
ecutwfc = 50.0
ecutrho = 400
occupations = 'smearing'
smearing = 'mp'
degauss = 0.01
assume_isolated = 'esm'
esm_bc = 'bc1'
input_dft = 'BEEF-VDW'
nosym = .true.
nspin = 2
ntyp = 3
nat = 16
starting_magnetization(1) = 0.1
starting_magnetization(2) = 0.1
starting_magnetization(3) = 0.1
/
&ELECTRONS
electron_maxstep = 200
mixing_beta = 0.1
conv_thr = 1e-06
/
&IONS
ion_dynamics = 'bfgs'
upscale = 1.0
/
&CELL
/

K_POINTS {automatic}
10 10 2 0  0  0

ATOMIC_SPECIES
Co 58.93 co_pbe_v1.2.uspp.F.UPF
Ga 69.72 Ga.pbe-dnl-rrkjus_psl.1.0.0.UPF
V 50.94 V.pbe-spnl-rrkjus_psl.1.0.0.UPF

CELL_PARAMETERS {angstrom}
5.77968000 0.00000000 0.00000000
-0.00000000 5.77968000 0.00000000
0.00000000 0.00000000 24.33480000

ATOMIC_POSITIONS {angstrom}
V 0.00000000 0.00000000 2.16750064
V 2.88984000 2.88984000 2.16750064
V 2.88984000 0.00000000 -0.7225002099999998 0 0 0
V 0.00000000 2.88984000 -0.7225002099999998 0 0 0
Ga 0.00000000 0.00000000 -0.7225002099999998 0 0 0
Ga 2.88984000 -0.00000000 2.16750064
Ga 0.00000000 2.88984000 2.16750064
Ga 2.88984000 2.88984000 -0.7225002099999998 0 0 0
Co 1.44492000 1.44492000 0.72250021
Co 4.33476000 4.33476000 -2.16750064 0 0 0
Co 4.33476000 1.44492000 0.72250021
Co 1.44492000 4.33476000 -2.16750064 0 0 0
Co 4.33476000 4.33476000 0.72250021
Co 1.44492000 1.44492000 -2.16750064 0 0 0
Co 1.44492000 4.33476000 0.72250021
Co 4.33476000 1.44492000 -2.16750064 0 0 0
