&CONTROL
calculation = 'relax'
prefix = 'scf'
pseudo_dir = '/vol0004/mdt0/data/hp150275/u10028/POT_KKJUS'
outdir = './data'
tprnfor = .true.
nstep = 50
disk_io = 'non'
/
&SYSTEM
ibrav = 0
ecutwfc = 50.0
ecutrho = 400
occupations = 'smearing'
smearing = 'mp'
degauss = 0.01
assume_isolated = 'esm'
esm_bc = 'bc1'
input_dft = 'BEEF-VDW'
nosym = .true.
nspin = 1
ntyp = 4
nat = 18
/
&ELECTRONS
electron_maxstep = 200
mixing_beta = 0.1
conv_thr = 1e-06
/
&IONS
ion_dynamics = 'bfgs'
upscale = 1.0
/
&CELL
/

K_POINTS {automatic}
7 10 3 0  0  0

ATOMIC_SPECIES
C 12.01 C.pbe-n-rrkjus_psl.1.0.0.UPF
Na 22.98 Na.pbe-spnl-rrkjus_psl.1.0.0.UPF
O 15.99 O.pbe-n-rrkjus_psl.1.0.0.UPF
Pb 207.2 Pb.pbe-dn-rrkjus_psl.1.0.0.UPF

CELL_PARAMETERS {angstrom}
10.02390000 0.00000000 0.00000000
0.00000000 7.08799000 0.00000000
0.00000000 0.00000000 25.31600000

ATOMIC_POSITIONS {angstrom}
Na 10.02379976 0.00000000 2.50375240
Na 0.00000000 3.54399500 -0.8860600000000005 0 0 0
Na 5.01184976 0.00000000 2.44982932
Na 5.01195000 3.54399500 -0.8860600000000005 0 0 0
Pb 10.02379976 3.54399500 2.45210776
Pb 2.50156448 5.19755219 0.82859268
Pb 2.50156448 1.89043781 0.82859268
Pb 0.00000000 0.00000000 -0.8860600000000005 0 0 0
Pb 2.50597500 1.77199750 -2.6579268399999982 0 0 0
Pb 2.50597500 5.31599250 -2.6579268399999982 0 0 0
Pb 5.01184976 3.54399500 2.44704456
Pb 7.52223528 5.19748131 0.82859268
Pb 7.52223528 1.89043781 0.82859268
Pb 5.01195000 0.00000000 -0.8860600000000005 0 0 0
Pb 7.51792500 1.77199750 -2.6579268399999982 0 0 0
Pb 7.51792500 5.31599250 -2.6579268399999982 0 0 0
C 0.00180430 3.54463292 6.72139800
O 10.02359928 3.54378236 7.85682060
