&CONTROL
calculation = 'relax'
prefix = 'scf'
pseudo_dir = '/vol0004/mdt0/data/hp150275/u10028/POT_HYBRID_KKJUS_GBRV'
outdir = './data'
tprnfor = .true.
nstep = 50
disk_io = 'non'
/
&SYSTEM
ibrav = 0
ecutwfc = 50.0
ecutrho = 400
occupations = 'smearing'
smearing = 'mp'
degauss = 0.01
assume_isolated = 'esm'
esm_bc = 'bc1'
input_dft = 'BEEF-VDW'
nosym = .true.
nspin = 2
ntyp = 5
nat = 34
starting_magnetization(1) = 0.0
starting_magnetization(2) = 0.0
starting_magnetization(3) = 0.001
starting_magnetization(4) = 0.0
starting_magnetization(5) = 0.0
/
&ELECTRONS
electron_maxstep = 300
mixing_beta = 0.1
conv_thr = 1e-06
/
&IONS
ion_dynamics = 'bfgs'
upscale = 1.0
/
&CELL
/

K_POINTS {automatic}
9 6 2 0  0  0

ATOMIC_SPECIES
Al 26.98 Al.pbe-nl-rrkjus_psl.1.0.0.UPF
C 12.01 C.pbe-n-rrkjus_psl.1.0.0.UPF
Ni 58.69 ni_pbe_v1.4.uspp.F.UPF
O 15.99 O.pbe-n-rrkjus_psl.1.0.0.UPF
Ta 180.9 Ta.pbe-spn-rrkjus_psl.1.0.0.UPF

CELL_PARAMETERS {angstrom}
5.99379000 0.00000000 0.00000000
0.00000000 8.47650000 0.00000000
0.00000000 0.00000000 26.35740000

ATOMIC_POSITIONS {angstrom}
Ta 0.00000000 0.00000000 -3.1787024399999986 0 0 0
Ta 2.99689500 2.11912500 -1.0595674799999983 0 0 0
Ta 2.99689500 6.35737500 -1.0595674799999983 0 0 0
Ta 0.00000000 4.23825000 -3.1787024399999986 0 0 0
Ta 5.96951515 4.23858906 1.05113311
Ta 2.96590711 6.37475183 3.16446944
Ta 2.96578723 2.10166341 3.16420587
Ta 0.03344535 8.47633047 1.08355271
Al 0.00000000 6.35737500 -1.0595674799999983 0 0 0
Al 2.99689500 0.00000000 -3.1787024399999986 0 0 0
Al 0.00000000 2.11912500 -1.0595674799999983 0 0 0
Al 2.99689500 4.23825000 -3.1787024399999986 0 0 0
Al 5.95986515 2.16388092 3.19293544
Al 2.99539655 4.23816524 1.00896127
Al 5.95968533 6.31261908 3.19267186
Al 2.97184096 0.00016953 1.08328914
Ni 1.49844750 0.00000000 -1.0595674799999983 0 0 0
Ni 4.49534250 4.23825000 -1.0595674799999983 0 0 0
Ni 4.49534250 0.00000000 -1.0595674799999983 0 0 0
Ni 1.49844750 4.23825000 -1.0595674799999983 0 0 0
Ni 4.49534250 6.35737500 -3.1787024399999986 0 0 0
Ni 1.49844750 2.11912500 -3.1787024399999986 0 0 0
Ni 1.49844750 6.35737500 -3.1787024399999986 0 0 0
Ni 4.49534250 2.11912500 -3.1787024399999986 0 0 0
Ni 1.56797546 4.23825000 3.01765873
Ni 4.50673070 0.00008477 3.03268244
Ni 4.37450769 4.23825000 3.03479104
Ni 1.42712140 8.47641523 3.38481731
Ni 4.44835119 2.09928999 1.11729019
Ni 1.53441024 6.32652054 1.09620427
Ni 1.53327142 2.15023376 1.09620427
Ni 4.44727230 6.37746431 1.11702661
C 1.92041032 8.47633047 5.08539676
O 2.11928427 8.47641523 6.23036221
