&CONTROL
calculation = 'relax'
prefix = 'scf'
pseudo_dir = '/vol0403/data/hp230205/u10028/POT_HYBRID_KKJUS_GBRV'
outdir = './data'
tprnfor = .true.
nstep = 50
disk_io = 'non'
/
&SYSTEM
ibrav = 0
ecutwfc = 50.0
ecutrho = 400
occupations = 'smearing'
smearing = 'mp'
degauss = 0.01
assume_isolated = 'esm'
esm_bc = 'bc1'
input_dft = 'BEEF-VDW'
nosym = .true.
nspin = 1
ntyp = 5
nat = 33
/
&ELECTRONS
electron_maxstep = 200
mixing_beta = 0.1
conv_thr = 1e-06
/
&IONS
ion_dynamics = 'bfgs'
upscale = 1.0
/
&CELL
/

K_POINTS {automatic}
6 6 1 0 0 0

ATOMIC_SPECIES
C 12.01 C.pbe-n-rrkjus_psl.1.0.0.UPF
In 114.8 In.pbe-dn-rrkjus_psl.1.0.0.UPF
Mg 24.30 Mg.pbe-spnl-rrkjus_psl.1.0.0.UPF
Pd 106.4 Pd.pbe-n-rrkjus_psl.1.0.0.UPF
Y 88.90 Y.pbe-spn-rrkjus_psl.1.0.0.UPF


CELL_PARAMETERS {angstrom}
6.99626000 0.00000000 0.00000000
0.00000000 9.89420000 0.00000000
0.00000000 0.00000000 27.42070000

ATOMIC_POSITIONS {angstrom}
Y 5.24719500 0.00000000 -1.2366735700000007 0 0 0
Y 5.24719500 4.94710000 -1.2366735700000007 0 0 0
Y 1.74906500 2.47355000 -3.710294919999999 0 0 0
Y 1.74906500 7.42065000 -3.710294919999999 0 0 0
Y 5.06410288 5.34088916 3.80681578
Y 5.06403291 9.50050978 3.80681578
Y 1.96091175 7.42055106 1.46508800
Y 1.82294551 2.47355000 1.43136054
Mg 1.74906500 0.00000000 -1.2366735700000007 0 0 0
Mg 1.74906500 4.94710000 -1.2366735700000007 0 0 0
Mg 5.24719500 2.47355000 -3.710294919999999 0 0 0
Mg 5.24719500 7.42065000 -3.710294919999999 0 0 0
Mg 1.59710623 4.73486941 3.85507621
Mg 1.59703627 0.21223059 3.85535042
Mg 5.27168191 7.42065000 1.21364018
Mg 5.21389280 2.47335212 1.32003250
In 0.00000000 0.00000000 -3.710294919999999 0 0 0
In 0.00000000 4.94710000 -3.710294919999999 0 0 0
In 3.49813000 7.42065000 -1.2366735700000007 0 0 0
In 3.49813000 2.47355000 -1.2366735700000007 0 0 0
In 6.95876005 5.00112233 1.29727332
In 6.95889997 9.83997978 1.29727332
In 3.69626408 2.47355000 4.39224773
In 2.79843404 7.42065000 4.70895681
Pd 0.00000000 2.47355000 -1.2366735700000007 0 0 0
Pd 0.00000000 7.42065000 -1.2366735700000007 0 0 0
Pd 3.49813000 4.94710000 -3.710294919999999 0 0 0
Pd 3.49813000 0.00000000 -3.710294919999999 0 0 0
Pd 0.12348399 7.42074894 3.54933541
Pd 6.48525317 2.47355000 3.77555618
Pd 3.66170256 9.87876505 1.23914143
Pd 3.66177252 4.96253495 1.23914143
C 1.53875742 2.47355000 3.74265134
