&CONTROL
calculation = 'relax'
prefix = 'scf'
pseudo_dir = '/vol0403/data/hp230205/u10028/POT_HYBRID_KKJUS_GBRV'
outdir = './data'
tprnfor = .true.
nstep = 70
disk_io = 'non'
/
&SYSTEM
ibrav = 0
ecutwfc = 50.0
ecutrho = 400
occupations = 'smearing'
smearing = 'mp'
degauss = 0.01
assume_isolated = 'esm'
esm_bc = 'bc1'
input_dft = 'BEEF-VDW'
nosym = .true.
nspin = 1
ntyp = 6
nat = 34
/
&ELECTRONS
electron_maxstep = 200
mixing_beta = 0.1
conv_thr = 1e-06
/
&IONS
ion_dynamics = 'bfgs'
upscale = 1.0
/
&CELL
/

K_POINTS {automatic}
6 6 1 0 0 0

ATOMIC_SPECIES
Ag 107.8 Ag.pbe-n-rrkjus_psl.1.0.0.UPF
C 12.01 C.pbe-n-rrkjus_psl.1.0.0.UPF
Cu 63.54 Cu.pbe-dn-rrkjus_psl.1.0.0.UPF
Ge 72.64 Ge.pbe-dn-rrkjus_psl.1.0.0.UPF
Li 6.941 Li.pbe-sl-rrkjus_psl.1.0.0.UPF
O 15.99 O.pbe-n-rrkjus_psl.1.0.0.UPF


CELL_PARAMETERS {angstrom}
6.23049000 0.00000000 0.00000000
-0.00000000 8.81124000 0.00000000
0.00000000 0.00000000 26.60840000

ATOMIC_POSITIONS {angstrom}
Li 1.55762250 0.00000000 -1.101321679999998 0 0 0
Li 1.55762250 4.40562000 -1.101321679999998 0 0 0
Li 4.67286750 2.20281000 -3.30423111 0 0 0
Li 4.67286750 6.60843000 -3.30423111 0 0 0
Li 1.46740500 4.40562000 3.57324204
Li 1.52977221 -0.00000000 3.55461616
Li 4.63349080 6.61680068 1.02123039
Li 4.63349080 2.19443932 1.02123039
Cu 0.00000000 2.20281000 -1.101321679999998 0 0 0
Cu 0.00000000 6.60843000 -1.101321679999998 0 0 0
Cu 3.11524500 4.40562000 -3.30423111 0 0 0
Cu 3.11524500 0.00000000 -3.30423111 0 0 0
Cu 6.10126964 6.60208591 3.09615342
Cu 6.10126964 2.20915409 3.09615342
Cu 3.16010453 -0.00000000 1.34425637
Cu 3.16496431 4.40562000 1.39028890
Ag 0.00000000 0.00000000 -3.30423111 0 0 0
Ag 0.00000000 4.40562000 -3.30423111 0 0 0
Ag 3.11524500 6.60843000 -1.101321679999998 0 0 0
Ag 3.11524500 2.20281000 -1.101321679999998 0 0 0
Ag 6.18413515 4.40562000 1.18620247
Ag 6.21703214 -0.00000000 1.20376402
Ag 3.25499489 2.24545640 3.36410001
Ag 3.25499489 6.56569549 3.36410001
Ge 4.67286750 0.00000000 -1.101321679999998 0 0 0
Ge 4.67286750 4.40562000 -1.101321679999998 0 0 0
Ge 1.55762250 2.20281000 -3.30423111 0 0 0
Ge 1.55762250 6.60843000 -3.30423111 0 0 0
Ge 4.85236792 4.40562000 3.59692351
Ge 4.76981392 -0.00000000 3.49208642
Ge 1.60877482 6.60437683 1.21307696
Ge 1.60877482 2.20686317 1.21307696
C 1.52609622 -0.00000000 5.65721192
O 1.50509947 0.00000000 6.79631753
