&CONTROL
calculation = 'relax'
prefix = 'scf'
pseudo_dir = '/vol0004/mdt0/data/hp150275/u10028/POT_KKJUS'
outdir = './data'
tprnfor = .true.
nstep = 50
disk_io = 'non'
/
&SYSTEM
ibrav = 0
ecutwfc = 50.0
ecutrho = 400
occupations = 'smearing'
smearing = 'mp'
degauss = 0.01
assume_isolated = 'esm'
esm_bc = 'bc1'
input_dft = 'BEEF-VDW'
nosym = .true.
nspin = 1
ntyp = 4
nat = 34
/
&ELECTRONS
electron_maxstep = 200
mixing_beta = 0.1
conv_thr = 1e-06
/
&IONS
ion_dynamics = 'bfgs'
upscale = 1.0
/
&CELL
/

K_POINTS {automatic}
9 6 2 0  0  0

ATOMIC_SPECIES
C 12.01 C.pbe-n-rrkjus_psl.1.0.0.UPF
Ga 69.72 Ga.pbe-dnl-rrkjus_psl.1.0.0.UPF
Ni 58.69 Ni.pbe-spn-rrkjus_psl.1.0.0.UPF
O 15.99 O.pbe-n-rrkjus_psl.1.0.0.UPF

CELL_PARAMETERS {angstrom}
5.87849000 0.00000000 0.00000000
0.00000000 8.31345000 0.00000000
0.00000000 0.00000000 26.23510000

ATOMIC_POSITIONS {angstrom}
Ga 0.00000000 0.00000000 -3.1175169300000007 0 0 0
Ga 0.00000000 2.07836250 -1.0391723099999979 0 0 0
Ga 0.04138457 0.00000000 1.07091678
Ga 5.83833991 2.12591543 3.23006551
Ga 0.00000000 4.15672500 -3.1175169300000007 0 0 0
Ga 0.00000000 6.23508750 -1.0391723099999979 0 0 0
Ga 5.87607982 4.15672500 1.02841592
Ga 5.83833991 6.18761770 3.23006551
Ga 2.93924500 0.00000000 -3.1175169300000007 0 0 0
Ga 2.93924500 2.07836250 -1.0391723099999979 0 0 0
Ga 2.89786043 0.00000000 1.07091678
Ga 2.97939509 2.12599857 3.22980316
Ga 2.93924500 4.15672500 -3.1175169300000007 0 0 0
Ga 2.93924500 6.23508750 -1.0391723099999979 0 0 0
Ga 2.94159640 4.15672500 1.02841592
Ga 2.97939509 6.18753457 3.23006551
Ni 1.46962250 2.07836250 -3.1175169300000007 0 0 0
Ni 1.46962250 0.00000000 -1.0391723099999979 0 0 0
Ni 1.46962250 2.06763815 1.05779923
Ni 1.46956372 0.00000000 3.29932618
Ni 1.46962250 6.23508750 -3.1175169300000007 0 0 0
Ni 1.46962250 4.15672500 -1.0391723099999979 0 0 0
Ni 1.46962250 6.24572872 1.05779923
Ni 1.46968128 4.15680813 3.00260719
Ni 4.40886750 2.07836250 -3.1175169300000007 0 0 0
Ni 4.40886750 0.00000000 -1.0391723099999979 0 0 0
Ni 4.40886750 2.05741261 0.96440228
Ni 4.40880872 0.00008313 2.94987464
Ni 4.40886750 6.23508750 -3.1175169300000007 0 0 0
Ni 4.40886750 4.15672500 -1.0391723099999979 0 0 0
Ni 4.40886750 6.25612053 0.96440228
Ni 4.40892628 4.15672500 3.01729885
C 1.46962250 0.00000000 5.08383768
O 1.46962250 0.00000000 6.23713267
