&CONTROL
calculation = 'relax'
prefix = 'scf'
pseudo_dir = '/vol0403/data/hp230205/u10028/POT_HYBRID_KKJUS_GBRV'
outdir = './data'
tprnfor = .true.
nstep = 70
disk_io = 'non'
/
&SYSTEM
ibrav = 0
ecutwfc = 50.0
ecutrho = 400
occupations = 'smearing'
smearing = 'mp'
degauss = 0.01
assume_isolated = 'esm'
esm_bc = 'bc1'
input_dft = 'BEEF-VDW'
nosym = .true.
nspin = 1
ntyp = 4
nat = 32
/
&ELECTRONS
electron_maxstep = 200
mixing_beta = 0.1
conv_thr = 1e-06
/
&IONS
ion_dynamics = 'bfgs'
upscale = 1.0
/
&CELL
/

K_POINTS {automatic}
6 6 1 0 0 0

ATOMIC_SPECIES
Al 26.98 Al.pbe-nl-rrkjus_psl.1.0.0.UPF
Li 6.941 Li.pbe-sl-rrkjus_psl.1.0.0.UPF
Mg 24.30 Mg.pbe-spnl-rrkjus_psl.1.0.0.UPF
Pt 195.0 Pt.pbe-n-rrkjus_psl.1.0.0.UPF


CELL_PARAMETERS {angstrom}
6.24880000 0.00000000 0.00000000
-0.00000000 8.83714000 0.00000000
0.00000000 0.00000000 26.62790000

ATOMIC_POSITIONS {angstrom}
Li 1.56220000 0.00000000 -1.1045252900000015 0 0 0
Li 1.56220000 4.41857000 -1.1045252900000015 0 0 0
Li 4.68660000 2.20928500 -3.3138421499999993 0 0 0
Li 4.68660000 6.62785500 -3.3138421499999993 0 0 0
Li 1.70992163 4.41857000 3.47573979
Li 1.70992163 -0.00000000 3.47573979
Li 4.71971864 6.62785500 1.06378460
Li 4.71971864 2.20928500 1.06378460
Mg 0.00000000 2.20928500 -1.1045252900000015 0 0 0
Mg 0.00000000 6.62785500 -1.1045252900000015 0 0 0
Mg 3.12440000 4.41857000 -3.3138421499999993 0 0 0
Mg 3.12440000 0.00000000 -3.3138421499999993 0 0 0
Mg 6.16200417 6.62785500 3.46242584
Mg 6.16200417 2.20928500 3.46215956
Mg 3.07222252 -0.00000000 1.03529275
Mg 3.07222252 4.41857000 1.03529275
Al 0.00000000 0.00000000 -3.3138421499999993 0 0 0
Al 0.00000000 4.41857000 -3.3138421499999993 0 0 0
Al 3.12440000 6.62785500 -1.1045252900000015 0 0 0
Al 3.12440000 2.20928500 -1.1045252900000015 0 0 0
Al 0.00249952 4.41857000 1.15005900
Al 0.00249952 0.00000000 1.15005900
Al 3.25381265 2.20928500 3.23289334
Al 3.25375016 6.62785500 3.23289334
Pt 4.68660000 0.00000000 -1.1045252900000015 0 0 0
Pt 4.68660000 4.41857000 -1.1045252900000015 0 0 0
Pt 1.56220000 2.20928500 -3.3138421499999993 0 0 0
Pt 1.56220000 6.62785500 -3.3138421499999993 0 0 0
Pt 4.59749211 4.41857000 3.12505034
Pt 4.59755460 -0.00000000 3.12505034
Pt 1.52464471 6.62785500 1.14047296
Pt 1.52464471 2.20928500 1.14047296
