&CONTROL
calculation = 'relax'
prefix = 'scf'
pseudo_dir = '/vol0403/data/hp230205/u10028/POT_HYBRID_KKJUS_GBRV'
outdir = './data'
tprnfor = .true.
nstep = 50
disk_io = 'non'
/
&SYSTEM
ibrav = 0
ecutwfc = 50.0
ecutrho = 400
occupations = 'smearing'
smearing = 'mp'
degauss = 0.01
assume_isolated = 'esm'
esm_bc = 'bc1'
input_dft = 'BEEF-VDW'
nosym = .true.
nspin = 1
ntyp = 6
nat = 18
/
&ELECTRONS
electron_maxstep = 200
mixing_beta = 0.1
conv_thr = 1e-06
/
&IONS
ion_dynamics = 'bfgs'
upscale = 1.0
/
&CELL
/

K_POINTS {automatic}
9 9 2 0  0  0

ATOMIC_SPECIES
C 12.01 C.pbe-n-rrkjus_psl.1.0.0.UPF
Ga 69.72 Ga.pbe-dnl-rrkjus_psl.1.0.0.UPF
O 15.99 O.pbe-n-rrkjus_psl.1.0.0.UPF
Pd 106.4 Pd.pbe-n-rrkjus_psl.1.0.0.UPF
Sc 44.95 Sc.pbe-spn-rrkjus_psl.1.0.0.UPF
Y 88.90 Y.pbe-spn-rrkjus_psl.1.0.0.UPF


CELL_PARAMETERS {angstrom}
7.06732000 0.00000000 0.00000000
0.00000000 6.83834000 0.00000000
0.00000000 0.00000000 25.12490000

ATOMIC_POSITIONS {angstrom}
Y 1.76223624 5.03226602 1.04268335
Y 1.76683000 1.51127314 -2.562488550000001 0 0 0
Y 5.30515443 5.03226602 1.04268335
Y 5.30049000 1.51127314 -2.562488550000001 0 0 0
Sc 1.75121122 1.54963623 0.75223951
Sc 1.76683000 4.93044314 -2.562488550000001 0 0 0
Sc 5.31603810 1.54970461 0.75223951
Sc 5.30049000 4.93044314 -2.562488550000001 0 0 0
Ga 0.00014135 0.21964748 2.60570338
Ga 0.00000000 3.28698489 -0.8542465999999997 0 0 0
Ga 3.53358933 0.21629669 2.61776333
Ga 3.53366000 3.28698489 -0.8542465999999997 0 0 0
Pd 0.00007067 2.98534571 2.17556509
Pd 0.00000000 6.70615489 -0.8542465999999997 0 0 0
Pd 3.53358933 2.96401009 2.16652013
Pd 3.53366000 6.70615489 -0.8542465999999997 0 0 0
C 0.00007067 0.09806180 4.61745412
O 7.06724933 6.81078149 5.76164207
