&CONTROL
calculation = 'relax'
prefix = 'scf'
pseudo_dir = '/vol0403/data/hp230205/u10028/POT_HYBRID_KKJUS_GBRV'
outdir = './data'
tprnfor = .true.
nstep = 50
disk_io = 'non'
/
&SYSTEM
ibrav = 0
ecutwfc = 50.0
ecutrho = 400
occupations = 'smearing'
smearing = 'mp'
degauss = 0.01
assume_isolated = 'esm'
esm_bc = 'bc1'
input_dft = 'BEEF-VDW'
nosym = .true.
nspin = 1
ntyp = 6
nat = 18
/
&ELECTRONS
electron_maxstep = 200
mixing_beta = 0.1
conv_thr = 1e-06
/
&IONS
ion_dynamics = 'bfgs'
upscale = 1.0
/
&CELL
/

K_POINTS {automatic}
6 6 1 0 0 0

ATOMIC_SPECIES
C 12.01 C.pbe-n-rrkjus_psl.1.0.0.UPF
Li 6.941 Li.pbe-sl-rrkjus_psl.1.0.0.UPF
O 15.99 O.pbe-n-rrkjus_psl.1.0.0.UPF
Pb 207.2 Pb.pbe-dn-rrkjus_psl.1.0.0.UPF
Sn 118.7 Sn.pbe-dn-rrkjus_psl.1.0.0.UPF
Y 88.90 Y.pbe-spn-rrkjus_psl.1.0.0.UPF


CELL_PARAMETERS {angstrom}
6.45119000 0.00000000 0.00000000
0.00000000 9.64462000 0.00000000
0.00000000 0.00000000 24.83120000

ATOMIC_POSITIONS {angstrom}
Li 0.16450535 0.00000000 2.39596249
Li 3.05005812 0.00000000 -0.8052758199999985 0 0 0
Li 0.13134623 4.82231000 2.39422430
Li 3.05005812 4.82231000 -0.8052758199999985 0 0 0
Y 4.77220329 2.41192657 0.76753239
Y 1.34952444 2.41115500 -2.4155791399999984 0 0 0
Y 4.77213878 7.23278988 0.76753239
Y 1.34952444 7.23346500 -2.4155791399999984 0 0 0
Sn 1.54738243 2.41472351 1.09182786
Sn 4.57511944 2.41115500 -2.4155791399999984 0 0 0
Sn 1.54738243 7.22989649 1.09157955
Sn 4.57511944 7.23346500 -2.4155791399999984 0 0 0
Pb 3.16779234 0.00000000 2.43991371
Pb 6.27565312 0.00000000 -0.8052758199999985 0 0 0
Pb 3.14314879 4.82231000 2.48883118
Pb 6.27565312 4.82231000 -0.8052758199999985 0 0 0
C 0.05541572 0.00000000 4.48029342
O 0.03490094 0.00000000 5.62103874
