&CONTROL
calculation = 'relax'
prefix = 'scf'
pseudo_dir = '/vol0004/mdt0/data/hp150275/u10028/POT_HYBRID_KKJUS_GBRV'
outdir = './data'
tprnfor = .true.
nstep = 50
disk_io = 'non'
/
&SYSTEM
ibrav = 0
ecutwfc = 50.0
ecutrho = 400
occupations = 'smearing'
smearing = 'mp'
degauss = 0.01
assume_isolated = 'esm'
esm_bc = 'bc1'
input_dft = 'BEEF-VDW'
nosym = .true.
nspin = 2
ntyp = 3
nat = 32
starting_magnetization(1) = 0.001
starting_magnetization(2) = 0.0
starting_magnetization(3) = 0.0
/
&ELECTRONS
electron_maxstep = 300
mixing_beta = 0.1
conv_thr = 1e-06
/
&IONS
ion_dynamics = 'bfgs'
upscale = 1.0
/
&CELL
/

K_POINTS {automatic}
8 6 1 0 0 0

ATOMIC_SPECIES
Ni 58.69 ni_pbe_v1.4.uspp.F.UPF
Sb 121.7 Sb.pbe-n-rrkjus_psl.1.0.0.UPF
Ti 47.86 Ti.pbe-spn-rrkjus_psl.1.0.0.UPF

CELL_PARAMETERS {angstrom}
6.14873000 0.00000000 0.00000000
0.00000000 8.69561000 0.00000000
0.00000000 0.00000000 26.52170000

ATOMIC_POSITIONS {angstrom}
Ti 0.00000000 0.00000000 -3.2608430099999985 0 0 0
Ti 3.07436500 2.17390250 -1.086859269999998 0 0 0
Ti 3.07436500 6.52170750 -1.086859269999998 0 0 0
Ti 0.00000000 4.34780500 -3.2608430099999985 0 0 0
Ti 0.00000000 4.34780500 1.12478530
Ti 3.07436500 6.52170750 3.15449100
Ti 3.07436500 2.17390250 3.15475621
Ti 0.00000000 0.00000000 1.12478530
Ni 1.53718250 0.00000000 -1.086859269999998 0 0 0
Ni 4.61154750 4.34780500 -1.086859269999998 0 0 0
Ni 4.61154750 0.00000000 -1.086859269999998 0 0 0
Ni 1.53718250 4.34780500 -1.086859269999998 0 0 0
Ni 4.61154750 6.52170750 -3.2608430099999985 0 0 0
Ni 1.53718250 2.17390250 -3.2608430099999985 0 0 0
Ni 1.53718250 6.52170750 -3.2608430099999985 0 0 0
Ni 4.61154750 2.17390250 -3.2608430099999985 0 0 0
Ni 1.66962614 4.34754413 3.08288241
Ni 4.47910386 0.00034782 3.08288241
Ni 4.47910386 4.34745718 3.08288241
Ni 1.66962614 0.00034782 3.08288241
Ni 4.74380668 2.17390250 1.20090258
Ni 1.40492332 6.52162054 1.20063736
Ni 1.40492332 2.17398946 1.20090258
Ni 4.74380668 6.52170750 1.20063736
Sb 0.00000000 6.52170750 -1.086859269999998 0 0 0
Sb 3.07436500 0.00000000 -3.2608430099999985 0 0 0
Sb 0.00000000 2.17390250 -1.086859269999998 0 0 0
Sb 3.07436500 4.34780500 -3.2608430099999985 0 0 0
Sb 0.00000000 2.17390250 3.56159909
Sb 3.07436500 4.34780500 0.99085071
Sb 0.00000000 6.52170750 3.56133388
Sb 3.07436500 0.00000000 0.99085071
