&CONTROL
calculation = 'relax'
prefix = 'scf'
pseudo_dir = '/vol0004/mdt0/data/hp150275/u10028/POT_HYBRID_KKJUS_GBRV'
outdir = './data'
tprnfor = .true.
nstep = 50
disk_io = 'non'
/
&SYSTEM
ibrav = 0
ecutwfc = 50.0
ecutrho = 400
occupations = 'smearing'
smearing = 'mp'
degauss = 0.01
assume_isolated = 'esm'
esm_bc = 'bc1'
input_dft = 'BEEF-VDW'
nosym = .true.
nspin = 2
ntyp = 3
nat = 33
starting_magnetization(1) = 0.1
starting_magnetization(2) = 0.1
starting_magnetization(3) = 0.1
/
&ELECTRONS
electron_maxstep = 200
mixing_beta = 0.1
conv_thr = 1e-06
/
&IONS
ion_dynamics = 'bfgs'
upscale = 1.0
/
&CELL
/

K_POINTS {automatic}
9 6 2 0  0  0

ATOMIC_SPECIES
C 12.01 C.pbe-n-rrkjus_psl.1.0.0.UPF
Mn 54.93 mn_pbe_v1.5.uspp.F.UPF
Ni 58.69 ni_pbe_v1.4.uspp.F.UPF

CELL_PARAMETERS {angstrom}
5.87849000 0.00000000 0.00000000
0.00000000 8.31345000 0.00000000
0.00000000 0.00000000 26.23510000

ATOMIC_POSITIONS {angstrom}
Mn 0.00000000 0.00000000 -3.1175169300000007 0 0 0
Mn 0.00000000 2.07836250 -1.0391723099999979 0 0 0
Mn 0.00099934 8.30704864 1.04966635
Mn 5.64470245 2.07836250 3.14532614
Mn 0.00000000 4.15672500 -3.1175169300000007 0 0 0
Mn 0.00000000 6.23508750 -1.0391723099999979 0 0 0
Mn 0.00099934 4.16312636 1.04966635
Mn 0.02474844 6.23508750 3.21799737
Mn 2.93924500 0.00000000 -3.1175169300000007 0 0 0
Mn 2.93924500 2.07836250 -1.0391723099999979 0 0 0
Mn 2.93824566 8.30704864 1.04966635
Mn 3.17303255 2.07836250 3.14532614
Mn 2.93924500 4.15672500 -3.1175169300000007 0 0 0
Mn 2.93924500 6.23508750 -1.0391723099999979 0 0 0
Mn 2.93824566 4.16312636 1.04966635
Mn 2.91449656 6.23508750 3.21799737
Ni 1.46962250 2.07836250 -3.1175169300000007 0 0 0
Ni 1.46962250 0.00000000 -1.0391723099999979 0 0 0
Ni 1.46962250 2.07836250 1.08167317
Ni 1.46962250 0.16003391 3.06924435
Ni 1.46962250 6.23508750 -3.1175169300000007 0 0 0
Ni 1.46962250 4.15672500 -1.0391723099999979 0 0 0
Ni 1.46962250 6.23508750 1.10974473
Ni 1.46962250 3.99669109 3.06924435
Ni 4.40886750 2.07836250 -3.1175169300000007 0 0 0
Ni 4.40886750 0.00000000 -1.0391723099999979 0 0 0
Ni 4.40886750 2.07836250 0.99142443
Ni 4.40886750 8.26307049 2.97689680
Ni 4.40886750 6.23508750 -3.1175169300000007 0 0 0
Ni 4.40886750 4.15672500 -1.0391723099999979 0 0 0
Ni 4.40886750 6.23500437 1.08219788
Ni 4.40886750 4.20710451 2.97715915
C 1.46962250 2.07836250 3.72695831
