&CONTROL
calculation = 'relax'
prefix = 'scf'
pseudo_dir = '/vol0004/mdt0/data/hp150275/u10028/POT_KKJUS'
outdir = './data'
tprnfor = .true.
nstep = 50
disk_io = 'non'
/
&SYSTEM
ibrav = 0
ecutwfc = 50.0
ecutrho = 400
occupations = 'smearing'
smearing = 'mp'
degauss = 0.01
assume_isolated = 'esm'
esm_bc = 'bc1'
input_dft = 'BEEF-VDW'
nosym = .true.
nspin = 1
ntyp = 4
nat = 33
/
&ELECTRONS
electron_maxstep = 200
mixing_beta = 0.1
conv_thr = 1e-06
/
&IONS
ion_dynamics = 'bfgs'
upscale = 1.0
/
&CELL
/

K_POINTS {automatic}
8 6 1 0 0 0

ATOMIC_SPECIES
C 12.01 C.pbe-n-rrkjus_psl.1.0.0.UPF
Cu 63.54 Cu.pbe-dn-rrkjus_psl.1.0.0.UPF
Ni 58.69 Ni.pbe-spn-rrkjus_psl.1.0.0.UPF
Sn 118.7 Sn.pbe-dn-rrkjus_psl.1.0.0.UPF

CELL_PARAMETERS {angstrom}
6.14873000 0.00000000 0.00000000
0.00000000 8.69561000 0.00000000
0.00000000 0.00000000 26.52170000

ATOMIC_POSITIONS {angstrom}
Cu 1.53718250 0.00000000 -1.086859269999998 0 0 0
Cu 4.61154750 4.34780500 -1.086859269999998 0 0 0
Cu 4.61154750 0.00000000 -1.086859269999998 0 0 0
Cu 1.53718250 4.34780500 -1.086859269999998 0 0 0
Cu 4.61154750 6.52170750 -3.2608430099999985 0 0 0
Cu 1.53718250 2.17390250 -3.2608430099999985 0 0 0
Cu 1.53718250 6.52170750 -3.2608430099999985 0 0 0
Cu 4.61154750 2.17390250 -3.2608430099999985 0 0 0
Cu 1.34970772 4.12632781 3.14626927
Cu 4.80123582 8.53691512 3.10144760
Cu 4.80111285 4.50571728 3.10118238
Cu 1.35019962 0.22060763 3.14520840
Cu 4.91818467 2.17425032 1.30751981
Cu 1.36956812 6.52205532 1.14918526
Cu 1.34632592 2.17372859 1.29240244
Cu 4.89998442 6.52153359 1.38735013
Ni 0.00000000 0.00000000 -3.2608430099999985 0 0 0
Ni 3.07436500 2.17390250 -1.086859269999998 0 0 0
Ni 3.07436500 6.52170750 -1.086859269999998 0 0 0
Ni 0.00000000 4.34780500 -3.2608430099999985 0 0 0
Ni 0.00707104 4.36650056 0.90465519
Ni 2.96516356 6.52188141 2.95106956
Ni 3.20102884 2.17329381 3.04309986
Ni 0.00737848 8.67656661 0.90359432
Sn 0.00000000 6.52170750 -1.086859269999998 0 0 0
Sn 3.07436500 0.00000000 -3.2608430099999985 0 0 0
Sn 0.00000000 2.17390250 -1.086859269999998 0 0 0
Sn 3.07436500 4.34780500 -3.2608430099999985 0 0 0
Sn 5.53686988 2.17338076 4.29094584
Sn 3.10781409 4.36119624 1.08155493
Sn 0.31647513 6.52144663 3.81620741
Sn 3.10861343 8.68239267 1.08128971
C 1.42318505 2.17346772 3.42819494
