&CONTROL
calculation = 'relax'
prefix = 'scf'
pseudo_dir = '/vol0403/data/hp230205/u10028/POT_HYBRID_KKJUS_GBRV'
outdir = './data'
tprnfor = .true.
nstep = 50
disk_io = 'non'
/
&SYSTEM
ibrav = 0
ecutwfc = 50.0
ecutrho = 400
occupations = 'smearing'
smearing = 'mp'
degauss = 0.01
assume_isolated = 'esm'
esm_bc = 'bc1'
input_dft = 'BEEF-VDW'
nosym = .true.
nspin = 2
ntyp = 6
nat = 34
starting_magnetization(1) = 0.0
starting_magnetization(2) = 0.0
starting_magnetization(3) = 0.1
starting_magnetization(4) = 0.0
starting_magnetization(5) = 0.0
starting_magnetization(6) = 0.0
/
&ELECTRONS
electron_maxstep = 400
mixing_beta = 0.05
conv_thr = 1e-06
/
&IONS
ion_dynamics = 'bfgs'
upscale = 1.0
/
&CELL
/

K_POINTS {automatic}
6 6 1 0 0 0

ATOMIC_SPECIES
C 12.01 C.pbe-n-rrkjus_psl.1.0.0.UPF
In 114.8 In.pbe-dn-rrkjus_psl.1.0.0.UPF
Mn 54.93 mn_pbe_v1.5.uspp.F.UPF
O 15.99 O.pbe-n-rrkjus_psl.1.0.0.UPF
Pd 106.4 Pd.pbe-n-rrkjus_psl.1.0.0.UPF
Y 88.90 Y.pbe-spn-rrkjus_psl.1.0.0.UPF


CELL_PARAMETERS {angstrom}
6.85874000 0.00000000 0.00000000
0.00000000 9.69972000 0.00000000
0.00000000 0.00000000 27.27480000

ATOMIC_POSITIONS {angstrom}
Y 0.00000000 2.42493000 -1.2123648599999974 0 0 0
Y 0.00000000 7.27479000 -1.2123648599999974 0 0 0
Y 3.42937000 4.84986000 -3.63736733 0 0 0
Y 3.42937000 0.00000000 -3.63736733 0 0 0
Y 6.65736739 7.24966773 3.72491944
Y 6.64851962 2.45024627 3.59181841
Y 3.45913693 9.64462559 1.25791378
Y 3.47923304 4.91038625 1.26555072
Mn 5.14405500 0.00000000 -1.2123648599999974 0 0 0
Mn 5.14405500 4.84986000 -1.2123648599999974 0 0 0
Mn 1.71468500 2.42493000 -3.63736733 0 0 0
Mn 1.71468500 7.27479000 -3.63736733 0 0 0
Mn 4.54062305 4.83531042 4.32005557
Mn 4.61682366 0.01406459 4.24123140
Mn 1.56056911 7.27740892 1.39728800
Mn 1.71674262 2.42919788 1.28764331
In 0.00000000 0.00000000 -3.63736733 0 0 0
In 0.00000000 4.84986000 -3.63736733 0 0 0
In 3.42937000 7.27479000 -1.2123648599999974 0 0 0
In 3.42937000 2.42493000 -1.2123648599999974 0 0 0
In 6.80455595 4.82803563 1.22300203
In 6.79598253 0.03036012 1.23991241
In 3.26208533 2.41164138 3.71919173
In 3.30927346 7.28827261 3.73610210
Pd 1.71468500 0.00000000 -1.2123648599999974 0 0 0
Pd 1.71468500 4.84986000 -1.2123648599999974 0 0 0
Pd 5.14405500 2.42493000 -3.63736733 0 0 0
Pd 5.14405500 7.27479000 -3.63736733 0 0 0
Pd 1.73827907 4.88274205 3.42025992
Pd 1.72236679 9.66509200 3.41589595
Pd 5.22485096 7.27876689 1.18263533
Pd 5.05866369 2.42444501 1.09753795
C 0.33210019 2.41707323 6.00072875
O 0.66625800 2.40727651 7.10017594
