&CONTROL
calculation = 'relax'
prefix = 'scf'
pseudo_dir = '/vol0403/data/hp230205/u10028/POT_HYBRID_KKJUS_GBRV'
outdir = './data'
tprnfor = .true.
nstep = 50
disk_io = 'non'
/
&SYSTEM
ibrav = 0
ecutwfc = 50.0
ecutrho = 400
occupations = 'smearing'
smearing = 'mp'
degauss = 0.01
assume_isolated = 'esm'
esm_bc = 'bc1'
input_dft = 'BEEF-VDW'
nosym = .true.
nspin = 1
ntyp = 5
nat = 17
/
&ELECTRONS
electron_maxstep = 200
mixing_beta = 0.1
conv_thr = 1e-06
/
&IONS
ion_dynamics = 'bfgs'
upscale = 1.0
/
&CELL
/

K_POINTS {automatic}
6 6 1 0 0 0

ATOMIC_SPECIES
C 12.01 C.pbe-n-rrkjus_psl.1.0.0.UPF
Ge 72.64 Ge.pbe-dn-rrkjus_psl.1.0.0.UPF
Li 6.941 Li.pbe-sl-rrkjus_psl.1.0.0.UPF
Pb 207.2 Pb.pbe-dn-rrkjus_psl.1.0.0.UPF
Y 88.90 Y.pbe-spn-rrkjus_psl.1.0.0.UPF


CELL_PARAMETERS {angstrom}
6.52719000 0.00000000 0.00000000
0.00000000 8.65500000 0.00000000
0.00000000 0.00000000 24.84630000

ATOMIC_POSITIONS {angstrom}
Li 3.26359500 0.00000000 -2.4232596399999977 0 0 0
Li 5.92473036 0.00000000 0.68749712
Li 3.26359500 4.32750000 -2.4232596399999977 0 0 0
Li 6.06323733 4.32750000 0.91931310
Y 1.40132242 2.16375000 -0.8077532099999978 0 0 0
Y 3.81599109 1.79721075 2.36586469
Y 1.40132242 6.49125000 -0.8077532099999978 0 0 0
Y 3.81599109 6.85778925 2.36586469
Ge 0.00000000 0.00000000 -2.4232596399999977 0 0 0
Ge 2.05084310 0.00000000 0.98142885
Ge 0.00000000 4.32750000 -2.4232596399999977 0 0 0
Ge 2.64279396 4.32741345 0.95086790
Pb 4.66491742 2.16375000 -0.8077532099999978 0 0 0
Pb 0.48470913 1.73749125 2.92416105
Pb 4.66491742 6.49125000 -0.8077532099999978 0 0 0
Pb 0.48470913 6.91750875 2.92416105
C 5.19361981 0.00000000 2.72489372
