&CONTROL
calculation = 'relax'
prefix = 'scf'
pseudo_dir = '/vol0403/data/hp230205/u10028/POT_HYBRID_KKJUS_GBRV'
outdir = './data'
tprnfor = .true.
nstep = 50
disk_io = 'non'
/
&SYSTEM
ibrav = 0
ecutwfc = 50.0
ecutrho = 400
occupations = 'smearing'
smearing = 'mp'
degauss = 0.01
assume_isolated = 'esm'
esm_bc = 'bc1'
input_dft = 'BEEF-VDW'
nosym = .true.
nspin = 1
ntyp = 6
nat = 18
/
&ELECTRONS
electron_maxstep = 200
mixing_beta = 0.1
conv_thr = 1e-06
/
&IONS
ion_dynamics = 'bfgs'
upscale = 1.0
/
&CELL
/

K_POINTS {automatic}
9 9 2 0  0  0

ATOMIC_SPECIES
C 12.01 C.pbe-n-rrkjus_psl.1.0.0.UPF
In 114.8 In.pbe-dn-rrkjus_psl.1.0.0.UPF
Li 6.941 Li.pbe-sl-rrkjus_psl.1.0.0.UPF
O 15.99 O.pbe-n-rrkjus_psl.1.0.0.UPF
Pd 106.4 Pd.pbe-n-rrkjus_psl.1.0.0.UPF
Ru 101.0 Ru.pbe-spn-rrkjus_psl.1.0.0.UPF


CELL_PARAMETERS {angstrom}
6.32045000 0.00000000 0.00000000
0.00000000 6.32045000 0.00000000
0.00000000 0.00000000 24.74030000

ATOMIC_POSITIONS {angstrom}
Li 6.32038680 3.16028820 2.40253053
Li 0.00000000 0.00000000 -0.7899577800000017 0 0 0
Li 3.16022500 3.16022500 -0.7899577800000017 0 0 0
Li 3.16028820 0.00000000 2.40277794
In 6.32038680 6.32038680 2.33276289
In 0.00000000 3.16022500 -0.7899577800000017 0 0 0
In 3.16022500 0.00000000 -0.7899577800000017 0 0 0
In 3.16022500 3.16028820 2.37630581
Pd 4.73287937 1.58757063 0.79441103
Pd 4.74033750 4.74033750 -2.370120740000001 0 0 0
Pd 1.58011250 1.58011250 -2.370120740000001 0 0 0
Pd 1.58757063 4.73287937 0.79441103
Ru 1.59003561 1.59003561 0.86838453
Ru 1.58011250 4.74033750 -2.370120740000001 0 0 0
Ru 4.74033750 1.58011250 -2.370120740000001 0 0 0
Ru 4.73041439 4.73047760 0.86838453
C 0.00000000 0.00006320 6.26746020
O 6.32038680 0.00006320 7.40279257
