&CONTROL
calculation = 'relax'
prefix = 'scf'
pseudo_dir = '/vol0004/mdt0/data/hp150275/u10028/POT_HYBRID_KKJUS_GBRV'
outdir = './data'
tprnfor = .true.
nstep = 50
disk_io = 'non'
/
&SYSTEM
ibrav = 0
ecutwfc = 50.0
ecutrho = 400
occupations = 'smearing'
smearing = 'mp'
degauss = 0.01
assume_isolated = 'esm'
esm_bc = 'bc1'
input_dft = 'BEEF-VDW'
nosym = .true.
nspin = 2
ntyp = 4
nat = 17
starting_magnetization(1) = 0.1
starting_magnetization(2) = 0.1
starting_magnetization(3) = 0.1
starting_magnetization(4) = 0.1
/
&ELECTRONS
electron_maxstep = 200
mixing_beta = 0.1
conv_thr = 1e-06
/
&IONS
ion_dynamics = 'bfgs'
upscale = 1.0
/
&CELL
/

K_POINTS {automatic}
8 8 1 0 0 0

ATOMIC_SPECIES
C 12.01 C.pbe-n-rrkjus_psl.1.0.0.UPF
Co 58.93 co_pbe_v1.2.uspp.F.UPF
Nb 92.90 Nb.pbe-spn-rrkjus_psl.1.0.0.UPF
Sn 118.7 Sn.pbe-dn-rrkjus_psl.1.0.0.UPF

CELL_PARAMETERS {angstrom}
6.19479000 0.00000000 0.00000000
-0.00000000 6.19479000 0.00000000
0.00000000 0.00000000 24.64610000

ATOMIC_POSITIONS {angstrom}
Nb 0.00000000 0.00000000 -2.32314139 0 0 0
Nb 3.09739500 3.09739500 -2.32314139 0 0 0
Nb 3.09739500 -0.00000000 0.77438046
Nb 0.00000000 3.09739500 0.77438046
Co 1.54869750 1.54869750 -0.7743804599999997 0 0 0
Co 4.64609250 4.64609250 2.32314139
Co 4.64609250 1.54869750 -0.7743804599999997 0 0 0
Co 1.54869750 4.64609250 2.32314139
Co 4.64609250 4.64609250 -0.7743804599999997 0 0 0
Co 1.54869750 1.54869750 2.32314139
Co 1.54869750 4.64609250 -0.7743804599999997 0 0 0
Co 4.64609250 1.54869750 2.32314139
Sn 0.00000000 0.00000000 0.77438046
Sn 3.09739500 0.00000000 -2.32314139 0 0 0
Sn 0.00000000 3.09739500 -2.32314139 0 0 0
Sn 3.09739500 3.09739500 0.77438046
C 0.00000000 3.09739500 3.12315379
