&CONTROL
calculation = 'relax'
prefix = 'scf'
pseudo_dir = '/vol0004/mdt0/data/hp150275/u10028/POT_KKJUS'
outdir = './data'
tprnfor = .true.
nstep = 50
disk_io = 'non'
/
&SYSTEM
ibrav = 0
ecutwfc = 50.0
ecutrho = 400
occupations = 'smearing'
smearing = 'mp'
degauss = 0.01
assume_isolated = 'esm'
esm_bc = 'bc1'
input_dft = 'BEEF-VDW'
nosym = .true.
nspin = 1
ntyp = 4
nat = 34
/
&ELECTRONS
electron_maxstep = 200
mixing_beta = 0.1
conv_thr = 1e-06
/
&IONS
ion_dynamics = 'bfgs'
upscale = 1.0
/
&CELL
/

K_POINTS {automatic}
8 6 2 0  0  0

ATOMIC_SPECIES
Bi 208.9 Bi.pbe-dn-rrkjus_psl.1.0.0.UPF
C 12.01 C.pbe-n-rrkjus_psl.1.0.0.UPF
K 39.09 K.pbe-spn-rrkjus_psl.1.0.0.UPF
O 15.99 O.pbe-n-rrkjus_psl.1.0.0.UPF

CELL_PARAMETERS {angstrom}
8.83903000 0.00000000 0.00000000
0.00000000 12.50030000 0.00000000
0.00000000 0.00000000 29.37520000

ATOMIC_POSITIONS {angstrom}
K 2.20975750 0.00000000 -1.5624668899999996 0 0 0
K 6.62927250 6.25015000 -1.5624668899999996 0 0 0
K 6.62927250 0.00000000 -1.5624668899999996 0 0 0
K 2.20975750 6.25015000 -1.5624668899999996 0 0 0
K 6.62927250 9.37522500 -4.68769442 0 0 0
K 2.20975750 3.12507500 -4.68769442 0 0 0
K 2.20975750 9.37522500 -4.68769442 0 0 0
K 6.62927250 3.12507500 -4.68769442 0 0 0
K 0.00000000 9.37522500 -1.5624668899999996 0 0 0
K 4.41951500 0.00000000 -4.68769442 0 0 0
K 0.00000000 3.12507500 -1.5624668899999996 0 0 0
K 4.41951500 6.25015000 -4.68769442 0 0 0
K 2.49888217 6.22102430 5.23025436
K 6.35402511 12.46417413 5.19529787
K 6.32282333 6.20989903 5.26021706
K 2.48473972 12.46692420 5.19941040
K 6.60779366 3.11832484 1.52339787
K 2.25625080 9.35159943 1.49666644
K 2.23521391 3.11957487 1.52369162
K 6.59329765 9.35447450 1.49960396
K 8.83284268 3.10932462 4.37514229
K 4.43728145 6.24764994 1.94316948
K 0.00185620 9.33347400 4.37337978
K 4.41783558 12.46517416 1.88148156
Bi 0.00000000 0.00000000 -4.68769442 0 0 0
Bi 4.41951500 3.12507500 -1.5624668899999996 0 0 0
Bi 4.41951500 9.37522500 -1.5624668899999996 0 0 0
Bi 0.00000000 6.25015000 -4.68769442 0 0 0
Bi 8.83699702 6.22527440 1.85240011
Bi 4.42031051 9.33897413 4.46679291
Bi 4.42252027 3.09394925 4.50174940
Bi 0.00194459 12.49442486 1.86503145
C 4.41032241 3.92221913 9.18063126
O 4.42287383 2.88594426 9.65621574
