&CONTROL
calculation = 'relax'
prefix = 'scf'
pseudo_dir = '/vol0403/data/hp230205/u10028/POT_HYBRID_KKJUS_GBRV'
outdir = './data'
tprnfor = .true.
nstep = 50
disk_io = 'non'
/
&SYSTEM
ibrav = 0
ecutwfc = 50.0
ecutrho = 400
occupations = 'smearing'
smearing = 'mp'
degauss = 0.01
assume_isolated = 'esm'
esm_bc = 'bc1'
input_dft = 'BEEF-VDW'
nosym = .true.
nspin = 2
ntyp = 6
nat = 18
starting_magnetization(1) = 0.0
starting_magnetization(2) = 0.1
starting_magnetization(3) = 0.0
starting_magnetization(4) = 0.0
starting_magnetization(5) = 0.0
starting_magnetization(6) = 0.0
/
&ELECTRONS
electron_maxstep = 200
mixing_beta = 0.1
conv_thr = 1e-06
/
&IONS
ion_dynamics = 'bfgs'
upscale = 1.0
/
&CELL
/

K_POINTS {automatic}
6 6 1 0 0 0

ATOMIC_SPECIES
C 12.01 C.pbe-n-rrkjus_psl.1.0.0.UPF
Co 58.93 co_pbe_v1.2.uspp.F.UPF
Ge 72.64 Ge.pbe-dn-rrkjus_psl.1.0.0.UPF
Li 6.941 Li.pbe-sl-rrkjus_psl.1.0.0.UPF
O 15.99 O.pbe-n-rrkjus_psl.1.0.0.UPF
Pd 106.4 Pd.pbe-n-rrkjus_psl.1.0.0.UPF


CELL_PARAMETERS {angstrom}
5.88348000 0.00000000 0.00000000
0.00000000 5.88348000 0.00000000
0.00000000 0.00000000 24.41260000

ATOMIC_POSITIONS {angstrom}
Li 4.41261000 1.47087000 -0.7355516400000006 0 0 0
Li 4.42196473 4.42167056 2.57797056
Li 1.46186828 1.46122109 2.57797056
Li 1.47087000 4.41261000 -0.7355516400000006 0 0 0
Co 0.00000000 0.00000000 -2.2064107899999996 0 0 0
Co 0.01459103 2.96474441 0.88007423
Co 2.91867676 5.86865363 0.88129486
Co 2.94174000 2.94174000 -2.2064107899999996 0 0 0
Ge 1.47087000 1.47087000 -0.7355516400000006 0 0 0
Ge 1.43286272 4.45297067 2.30601420
Ge 4.36936642 1.51346640 2.10924864
Ge 4.41261000 4.41261000 -0.7355516400000006 0 0 0
Pd 0.00000000 2.94174000 -2.2064107899999996 0 0 0
Pd 5.87306624 0.01011959 0.78315621
Pd 2.88384656 2.99957461 0.77510005
Pd 2.94174000 0.00000000 -2.2064107899999996 0 0 0
C 4.68907473 1.19381693 4.24510701
O 4.31935684 1.56412316 5.29826658
