&CONTROL
calculation = 'relax'
prefix = 'scf'
pseudo_dir = '/vol0004/mdt0/data/hp150275/u10028/POT_HYBRID_KKJUS_GBRV'
outdir = './data'
tprnfor = .true.
nstep = 50
disk_io = 'non'
/
&SYSTEM
ibrav = 0
ecutwfc = 50.0
ecutrho = 400
occupations = 'smearing'
smearing = 'mp'
degauss = 0.01
assume_isolated = 'esm'
esm_bc = 'bc1'
input_dft = 'BEEF-VDW'
nosym = .true.
nspin = 2
ntyp = 4
nat = 33
starting_magnetization(1) = 0.0
starting_magnetization(2) = 0.0
starting_magnetization(3) = 0.1
starting_magnetization(4) = 0.001
/
&ELECTRONS
electron_maxstep = 300
mixing_beta = 0.1
conv_thr = 1e-06
/
&IONS
ion_dynamics = 'bfgs'
upscale = 1.0
/
&CELL
/

K_POINTS {automatic}
9 6 2 0  0  0

ATOMIC_SPECIES
Al 26.98 Al.pbe-nl-rrkjus_psl.1.0.0.UPF
C 12.01 C.pbe-n-rrkjus_psl.1.0.0.UPF
Mn 54.93 mn_pbe_v1.5.uspp.F.UPF
Ni 58.69 ni_pbe_v1.4.uspp.F.UPF

CELL_PARAMETERS {angstrom}
5.81764000 0.00000000 0.00000000
0.00000000 8.22738000 0.00000000
0.00000000 0.00000000 26.17050000

ATOMIC_POSITIONS {angstrom}
Mn 0.00000000 0.00000000 -3.085240250000002 0 0 0
Mn 2.90882000 2.05684500 -1.0285006500000016 0 0 0
Mn 2.90882000 6.17053500 -1.0285006500000016 0 0 0
Mn 0.00000000 4.11369000 -3.085240250000002 0 0 0
Mn 0.00593399 4.13047386 1.02378996
Mn 2.85000366 6.17053500 3.19227759
Mn 3.14042025 2.05684500 3.02033740
Mn 0.00593399 8.21059614 1.02378996
Al 0.00000000 6.17053500 -1.0285006500000016 0 0 0
Al 2.90882000 0.00000000 -3.085240250000002 0 0 0
Al 0.00000000 2.05684500 -1.0285006500000016 0 0 0
Al 2.90882000 4.11369000 -3.085240250000002 0 0 0
Al 5.53496087 2.05684500 3.18599667
Al 2.88659662 4.09838707 1.03844544
Al 0.03810554 6.17053500 3.08393172
Al 2.88659662 0.01530293 1.03844544
Ni 1.45441000 0.00000000 -1.0285006500000016 0 0 0
Ni 4.36323000 4.11369000 -1.0285006500000016 0 0 0
Ni 4.36323000 0.00000000 -1.0285006500000016 0 0 0
Ni 1.45441000 4.11369000 -1.0285006500000016 0 0 0
Ni 4.36323000 6.17053500 -3.085240250000002 0 0 0
Ni 1.45441000 2.05684500 -3.085240250000002 0 0 0
Ni 1.45441000 6.17053500 -3.085240250000002 0 0 0
Ni 4.36323000 2.05684500 -3.085240250000002 0 0 0
Ni 1.40839247 3.94206685 3.08131467
Ni 4.36398629 8.16040913 2.95517286
Ni 4.36392812 4.18057860 2.95491116
Ni 1.40833429 0.17170542 3.08157638
Ni 4.39295814 2.05692727 0.93795072
Ni 1.47756421 6.17045273 1.04158590
Ni 1.42904509 2.05692727 1.02876236
Ni 4.33146569 6.17045273 1.05310092
C 1.54528154 2.05684500 3.72981966
