&CONTROL
calculation = 'relax'
prefix = 'scf'
pseudo_dir = '/vol0403/data/hp230205/u10028/POT_HYBRID_KKJUS_GBRV'
outdir = './data'
tprnfor = .true.
nstep = 70
disk_io = 'non'
/
&SYSTEM
ibrav = 0
ecutwfc = 50.0
ecutrho = 400
occupations = 'smearing'
smearing = 'mp'
degauss = 0.01
assume_isolated = 'esm'
esm_bc = 'bc1'
input_dft = 'BEEF-VDW'
nosym = .true.
nspin = 1
ntyp = 5
nat = 33
/
&ELECTRONS
electron_maxstep = 200
mixing_beta = 0.1
conv_thr = 1e-06
/
&IONS
ion_dynamics = 'bfgs'
upscale = 1.0
/
&CELL
/

K_POINTS {automatic}
6 6 1 0 0 0

ATOMIC_SPECIES
Ag 107.8 Ag.pbe-n-rrkjus_psl.1.0.0.UPF
C 12.01 C.pbe-n-rrkjus_psl.1.0.0.UPF
Cu 63.54 Cu.pbe-dn-rrkjus_psl.1.0.0.UPF
Li 6.941 Li.pbe-sl-rrkjus_psl.1.0.0.UPF
Sn 118.7 Sn.pbe-dn-rrkjus_psl.1.0.0.UPF


CELL_PARAMETERS {angstrom}
6.43603000 0.00000000 0.00000000
-0.00000000 9.10192000 0.00000000
0.00000000 0.00000000 26.82640000

ATOMIC_POSITIONS {angstrom}
Li 1.60900750 0.00000000 -1.1377076200000005 0 0 0
Li 1.60900750 4.55096000 -1.1377076200000005 0 0 0
Li 4.82702250 2.27548000 -3.4131228699999987 0 0 0
Li 4.82702250 6.82644000 -3.4131228699999987 0 0 0
Li 1.75072888 4.37957085 4.27827427
Li 1.75072888 0.17148017 4.27827427
Li 4.91590407 6.82644000 1.28900852
Li 4.73955685 2.27548000 1.10658900
Cu 4.82702250 0.00000000 -1.1377076200000005 0 0 0
Cu 4.82702250 4.55096000 -1.1377076200000005 0 0 0
Cu 1.60900750 2.27548000 -3.4131228699999987 0 0 0
Cu 1.60900750 6.82644000 -3.4131228699999987 0 0 0
Cu 4.93032078 4.75475199 3.27228427
Cu 4.93006334 8.89821903 3.27228427
Cu 1.54529080 6.82634898 1.10578421
Cu 1.71565252 2.27548000 1.23052697
Ag 0.00000000 0.00000000 -3.4131228699999987 0 0 0
Ag 0.00000000 4.55096000 -3.4131228699999987 0 0 0
Ag 3.21801500 6.82644000 -1.1377076200000005 0 0 0
Ag 3.21801500 2.27548000 -1.1377076200000005 0 0 0
Ag 0.07549463 4.53239208 1.10417462
Ag 0.07543027 0.01847690 1.10417462
Ag 3.58641336 2.27548000 3.59446934
Ag 3.09096777 6.82644000 3.43994927
Sn 0.00000000 2.27548000 -1.1377076200000005 0 0 0
Sn 0.00000000 6.82644000 -1.1377076200000005 0 0 0
Sn 3.21801500 4.55096000 -3.4131228699999987 0 0 0
Sn 3.21801500 0.00000000 -3.4131228699999987 0 0 0
Sn 0.13914697 6.82680408 3.67119284
Sn 6.29031828 2.27548000 3.39514918
Sn 3.15500627 9.05104027 1.24635454
Sn 3.15507063 4.60174871 1.24635454
C 1.66023830 2.27548000 4.36599660
