&CONTROL
calculation = 'relax'
prefix = 'scf'
pseudo_dir = '/vol0403/data/hp230205/u10028/POT_HYBRID_KKJUS_GBRV'
outdir = './data'
tprnfor = .true.
nstep = 50
disk_io = 'non'
/
&SYSTEM
ibrav = 0
ecutwfc = 50.0
ecutrho = 400
occupations = 'smearing'
smearing = 'mp'
degauss = 0.01
assume_isolated = 'esm'
esm_bc = 'bc1'
input_dft = 'BEEF-VDW'
nosym = .true.
nspin = 1
ntyp = 4
nat = 16
/
&ELECTRONS
electron_maxstep = 200
mixing_beta = 0.1
conv_thr = 1e-06
/
&IONS
ion_dynamics = 'bfgs'
upscale = 1.0
/
&CELL
/

K_POINTS {automatic}
10 10 2 0  0  0

ATOMIC_SPECIES
Hf 178.4 Hf.pbe-spn-rrkjus_psl.1.0.0.UPF
Li 6.941 Li.pbe-sl-rrkjus_psl.1.0.0.UPF
Pd 106.4 Pd.pbe-n-rrkjus_psl.1.0.0.UPF
Sn 118.7 Sn.pbe-dn-rrkjus_psl.1.0.0.UPF


CELL_PARAMETERS {angstrom}
6.67688000 0.00000000 0.00000000
0.00000000 6.67688000 0.00000000
0.00000000 0.00000000 25.00770000

ATOMIC_POSITIONS {angstrom}
Li 0.00000000 3.33844000 2.51327385
Li 0.00000000 0.00000000 -0.8345069500000015 0 0 0
Li 3.33844000 3.33844000 -0.8345069500000015 0 0 0
Li 3.33844000 0.00000000 2.51327385
Hf 0.00000000 0.00000000 2.39948881
Hf 0.00000000 3.33844000 -0.8345069500000015 0 0 0
Hf 3.33844000 0.00000000 -0.8345069500000015 0 0 0
Hf 3.33844000 3.33844000 2.39948881
Sn 1.66841877 1.66841877 0.90752943
Sn 1.66922000 5.00766000 -2.503770920000001 0 0 0
Sn 5.00766000 1.66922000 -2.503770920000001 0 0 0
Sn 5.00846123 5.00846123 0.90752943
Pd 5.00766000 1.66922000 0.90452851
Pd 5.00766000 5.00766000 -2.503770920000001 0 0 0
Pd 1.66922000 1.66922000 -2.503770920000001 0 0 0
Pd 1.66922000 5.00766000 0.90452851
