&CONTROL
calculation = 'relax'
prefix = 'scf'
pseudo_dir = '/vol0004/mdt0/data/hp150275/u10028/POT_KKJUS'
outdir = './data'
tprnfor = .true.
nstep = 50
disk_io = 'non'
/
&SYSTEM
ibrav = 0
ecutwfc = 50.0
ecutrho = 400
occupations = 'smearing'
smearing = 'mp'
degauss = 0.01
assume_isolated = 'esm'
esm_bc = 'bc1'
input_dft = 'BEEF-VDW'
nosym = .true.
nspin = 1
ntyp = 3
nat = 16
/
&ELECTRONS
electron_maxstep = 200
mixing_beta = 0.1
conv_thr = 1e-06
/
&IONS
ion_dynamics = 'bfgs'
upscale = 1.0
/
&CELL
/

K_POINTS {automatic}
8 8 1 0 0 0

ATOMIC_SPECIES
Ga 69.72 Ga.pbe-dnl-rrkjus_psl.1.0.0.UPF
Hf 178.4 Hf.pbe-spn-rrkjus_psl.1.0.0.UPF
Ni 58.69 Ni.pbe-spn-rrkjus_psl.1.0.0.UPF

CELL_PARAMETERS {angstrom}
6.09904000 0.00000000 0.00000000
-0.00000000 6.09904000 0.00000000
0.00000000 0.00000000 24.57430000

ATOMIC_POSITIONS {angstrom}
Hf 0.00000000 0.00000000 -2.2871301000000024 0 0 0
Hf 3.04952000 3.04952000 -2.2871301000000024 0 0 0
Hf 3.04952000 -0.00000000 0.76229479
Hf 0.00000000 3.04952000 0.76229479
Ga 0.00000000 0.00000000 0.76229479
Ga 3.04952000 0.00000000 -2.2871301000000024 0 0 0
Ga 0.00000000 3.04952000 -2.2871301000000024 0 0 0
Ga 3.04952000 3.04952000 0.76229479
Ni 1.52476000 1.52476000 -0.7622947900000021 0 0 0
Ni 4.57428000 4.57428000 2.28713010
Ni 4.57428000 1.52476000 -0.7622947900000021 0 0 0
Ni 1.52476000 4.57428000 2.28713010
Ni 4.57428000 4.57428000 -0.7622947900000021 0 0 0
Ni 1.52476000 1.52476000 2.28713010
Ni 1.52476000 4.57428000 -0.7622947900000021 0 0 0
Ni 4.57428000 1.52476000 2.28713010
