&CONTROL
calculation = 'relax'
prefix = 'scf'
pseudo_dir = '/vol0403/data/hp230205/u10028/POT_HYBRID_KKJUS_GBRV'
outdir = './data'
tprnfor = .true.
nstep = 50
disk_io = 'non'
/
&SYSTEM
ibrav = 0
ecutwfc = 50.0
ecutrho = 400
occupations = 'smearing'
smearing = 'mp'
degauss = 0.01
assume_isolated = 'esm'
esm_bc = 'bc1'
input_dft = 'BEEF-VDW'
nosym = .true.
nspin = 1
ntyp = 5
nat = 17
/
&ELECTRONS
electron_maxstep = 200
mixing_beta = 0.1
conv_thr = 1e-06
/
&IONS
ion_dynamics = 'bfgs'
upscale = 1.0
/
&CELL
/

K_POINTS {automatic}
11 8 2 0  0  0

ATOMIC_SPECIES
Al 26.98 Al.pbe-nl-rrkjus_psl.1.0.0.UPF
C 12.01 C.pbe-n-rrkjus_psl.1.0.0.UPF
In 114.8 In.pbe-dn-rrkjus_psl.1.0.0.UPF
Pd 106.4 Pd.pbe-n-rrkjus_psl.1.0.0.UPF
Sc 44.95 Sc.pbe-spn-rrkjus_psl.1.0.0.UPF


CELL_PARAMETERS {angstrom}
5.88291000 0.00000000 0.00000000
0.00000000 8.60736000 0.00000000
0.00000000 0.00000000 24.41210000

ATOMIC_POSITIONS {angstrom}
Sc 1.54367558 2.15184000 0.64862950
Sc 4.39382782 2.15184000 -2.20612148 0 0 0
Sc 1.25017720 6.45552000 0.88542687
Sc 4.39382782 6.45552000 -2.20612148 0 0 0
Al 0.05071068 0.25047418 2.36602073
Al 2.92921855 0.00000000 -0.7352924499999993 0 0 0
Al 0.05076951 4.05320582 2.36602073
Al 2.92921855 4.30368000 -0.7352924499999993 0 0 0
In 3.15171020 8.41627661 2.32183483
In 5.87067355 0.00000000 -0.7352924499999993 0 0 0
In 3.15165137 4.49476339 2.32207895
In 5.87067355 4.30368000 -0.7352924499999993 0 0 0
Pd 4.30881977 2.15184000 0.62665861
Pd 1.45237282 2.15184000 -2.20612148 0 0 0
Pd 4.15486402 6.45552000 0.40035844
Pd 1.45237282 6.45552000 -2.20612148 0 0 0
C 0.11759937 2.15184000 2.22980121
