&CONTROL
calculation = 'relax'
prefix = 'scf'
pseudo_dir = '/vol0004/mdt0/data/hp150275/u10028/POT_KKJUS'
outdir = './data'
tprnfor = .true.
nstep = 50
disk_io = 'non'
/
&SYSTEM
ibrav = 0
ecutwfc = 50.0
ecutrho = 400
occupations = 'smearing'
smearing = 'mp'
degauss = 0.01
assume_isolated = 'esm'
esm_bc = 'bc1'
input_dft = 'BEEF-VDW'
nosym = .true.
nspin = 1
ntyp = 2
nat = 33
/
&ELECTRONS
electron_maxstep = 200
mixing_beta = 0.1
conv_thr = 1e-06
/
&IONS
ion_dynamics = 'bfgs'
upscale = 1.0
/
&CELL
/

K_POINTS {automatic}
6 6 1 0 0 0

ATOMIC_SPECIES
C 12.01 C.pbe-n-rrkjus_psl.1.0.0.UPF
Ca 40.07 Ca.pbe-spn-rrkjus_psl.1.0.0.UPF

CELL_PARAMETERS {angstrom}
11.12370000 0.00000000 0.00000000
-0.00000000 11.12370000 0.00000000
0.00000000 0.00000000 28.34280000

ATOMIC_POSITIONS {angstrom}
Ca 0.00000000 0.00000000 -4.171493300000002 0 0 0
Ca 2.78092500 2.78092500 -4.171493300000002 0 0 0
Ca 2.78092500 0.00000000 -1.3904977699999996 0 0 0
Ca 0.00000000 2.78092500 -1.3904977699999996 0 0 0
Ca 0.00000000 0.00000000 1.39049777
Ca 2.78092500 2.78092500 1.39049777
Ca 2.78092500 -0.00000000 4.17149330
Ca 0.00000000 2.78092500 4.17149330
Ca 0.00000000 5.56185000 -4.171493300000002 0 0 0
Ca 2.78092500 8.34277500 -4.171493300000002 0 0 0
Ca 2.78092500 5.56185000 -1.3904977699999996 0 0 0
Ca 0.00000000 8.34277500 -1.3904977699999996 0 0 0
Ca 0.00000000 5.56185000 1.39049777
Ca 2.78092500 8.34277500 1.39049777
Ca 2.78092500 5.56185000 4.17149330
Ca 0.00000000 8.34277500 4.17149330
Ca 5.56185000 0.00000000 -4.171493300000002 0 0 0
Ca 8.34277500 2.78092500 -4.171493300000002 0 0 0
Ca 8.34277500 0.00000000 -1.3904977699999996 0 0 0
Ca 5.56185000 2.78092500 -1.3904977699999996 0 0 0
Ca 5.56185000 -0.00000000 1.39049777
Ca 8.34277500 2.78092500 1.39049777
Ca 8.34277500 -0.00000000 4.17149330
Ca 5.56185000 2.78092500 4.17149330
Ca 5.56185000 5.56185000 -4.171493300000002 0 0 0
Ca 8.34277500 8.34277500 -4.171493300000002 0 0 0
Ca 8.34277500 5.56185000 -1.3904977699999996 0 0 0
Ca 5.56185000 8.34277500 -1.3904977699999996 0 0 0
Ca 5.56185000 5.56185000 1.39049777
Ca 8.34277500 8.34277500 1.39049777
Ca 8.34277500 5.56185000 4.17149330
Ca 5.56185000 8.34277500 4.17149330
C 0.00000000 0.00000000 4.97132712
