&CONTROL
calculation = 'relax'
prefix = 'scf'
pseudo_dir = '/vol0004/mdt0/data/hp150275/u10028/POT_KKJUS'
outdir = './data'
tprnfor = .true.
nstep = 50
disk_io = 'non'
/
&SYSTEM
ibrav = 0
ecutwfc = 50.0
ecutrho = 400
occupations = 'smearing'
smearing = 'mp'
degauss = 0.01
assume_isolated = 'esm'
esm_bc = 'bc1'
input_dft = 'BEEF-VDW'
nosym = .true.
nspin = 1
ntyp = 2
nat = 33
/
&ELECTRONS
electron_maxstep = 200
mixing_beta = 0.1
conv_thr = 1e-06
/
&IONS
ion_dynamics = 'bfgs'
upscale = 1.0
/
&CELL
/

K_POINTS {automatic}
6 6 1 0 0 0

ATOMIC_SPECIES
C 12.01 C.pbe-n-rrkjus_psl.1.0.0.UPF
Ca 40.07 Ca.pbe-spn-rrkjus_psl.1.0.0.UPF

CELL_PARAMETERS {angstrom}
11.12370000 0.00000000 0.00000000
0.00000000 11.12370000 0.00000000
0.00000000 0.00000000 28.34280000

ATOMIC_POSITIONS {angstrom}
Ca 0.00000000 0.00000000 -4.171493300000002 0 0 0
Ca 2.78092500 2.78092500 -4.171493300000002 0 0 0
Ca 2.78092500 0.00000000 -1.3904977699999996 0 0 0
Ca 0.00000000 2.78092500 -1.3904977699999996 0 0 0
Ca 0.00022247 0.00255845 1.50330211
Ca 2.80595332 2.80617580 1.38596292
Ca 2.43675772 0.00355958 4.17999614
Ca 11.12147526 2.44098473 4.17999614
Ca 0.00000000 5.56185000 -4.171493300000002 0 0 0
Ca 2.78092500 8.34277500 -4.171493300000002 0 0 0
Ca 2.78092500 5.56185000 -1.3904977699999996 0 0 0
Ca 0.00000000 8.34277500 -1.3904977699999996 0 0 0
Ca 11.12314381 5.56096010 1.41600629
Ca 2.80139261 8.32030513 1.38766349
Ca 2.70728611 5.56096010 4.12897910
Ca 11.12192021 8.68805465 4.17999614
Ca 5.56185000 0.00000000 -4.171493300000002 0 0 0
Ca 8.34277500 2.78092500 -4.171493300000002 0 0 0
Ca 8.34277500 0.00000000 -1.3904977699999996 0 0 0
Ca 5.56185000 2.78092500 -1.3904977699999996 0 0 0
Ca 5.56096010 11.12180897 1.41770686
Ca 8.32052760 2.80172632 1.38652978
Ca 8.68182538 0.00233598 4.18084643
Ca 5.56240618 2.71173559 4.12671168
Ca 5.56185000 5.56185000 -4.171493300000002 0 0 0
Ca 8.34277500 8.34277500 -4.171493300000002 0 0 0
Ca 8.34277500 5.56185000 -1.3904977699999996 0 0 0
Ca 5.56185000 8.34277500 -1.3904977699999996 0 0 0
Ca 5.56663319 5.56774556 1.41827371
Ca 8.32386471 8.32353100 1.38596292
Ca 8.41941729 5.56173876 4.12784539
Ca 5.56262866 8.41352173 4.12784539
C 11.11991794 0.00355958 3.90705498
