&CONTROL
calculation = 'relax'
prefix = 'scf'
pseudo_dir = '/vol0004/mdt0/data/hp150275/u10028/POT_KKJUS'
outdir = './data'
tprnfor = .true.
nstep = 50
disk_io = 'non'
/
&SYSTEM
ibrav = 0
ecutwfc = 50.0
ecutrho = 400
occupations = 'smearing'
smearing = 'mp'
degauss = 0.01
assume_isolated = 'esm'
esm_bc = 'bc1'
input_dft = 'BEEF-VDW'
nosym = .true.
nspin = 1
ntyp = 4
nat = 17
/
&ELECTRONS
electron_maxstep = 200
mixing_beta = 0.1
conv_thr = 1e-06
/
&IONS
ion_dynamics = 'bfgs'
upscale = 1.0
/
&CELL
/

K_POINTS {automatic}
8 8 1 0 0 0

ATOMIC_SPECIES
Au 196.9 Au.pbe-n-rrkjus_psl.1.0.0.UPF
C 12.01 C.pbe-n-rrkjus_psl.1.0.0.UPF
Li 6.941 Li.pbe-sl-rrkjus_psl.1.0.0.UPF
Sb 121.7 Sb.pbe-n-rrkjus_psl.1.0.0.UPF

CELL_PARAMETERS {angstrom}
6.66546000 0.00000000 0.00000000
0.00000000 6.66546000 0.00000000
0.00000000 0.00000000 24.99910000

ATOMIC_POSITIONS {angstrom}
Li 0.00000000 0.00000000 -0.8332199999999972 0 0 0
Li 3.52716147 0.19883067 2.57090744
Li 6.46662933 3.13829853 2.57090744
Li 3.33273000 3.33273000 -0.8332199999999972 0 0 0
Li 1.66636500 1.66636500 -2.4996600099999995 0 0 0
Li 1.67023097 4.99522903 0.79947122
Li 4.99909500 4.99909500 -2.4996600099999995 0 0 0
Li 4.99662878 1.66883122 0.76647241
Sb 6.45643117 0.20889552 2.70040278
Sb 3.53489340 3.13076656 2.69815286
Sb 3.33273000 0.00000000 -0.8332199999999972 0 0 0
Sb 0.00000000 3.33273000 -0.8332199999999972 0 0 0
Au 1.66576511 1.66469864 0.97846477
Au 1.66636500 4.99909500 -2.4996600099999995 0 0 0
Au 5.00076136 4.99969489 0.97846477
Au 4.99909500 1.66636500 -2.4996600099999995 0 0 0
C 4.99529569 1.67016431 2.99814206
