&CONTROL
calculation = 'relax'
prefix = 'scf'
pseudo_dir = '/vol0004/mdt0/data/hp150275/u10028/POT_HYBRID_KKJUS_GBRV'
outdir = './data'
tprnfor = .true.
nstep = 50
disk_io = 'non'
/
&SYSTEM
ibrav = 0
ecutwfc = 50.0
ecutrho = 400
occupations = 'smearing'
smearing = 'mp'
degauss = 0.01
assume_isolated = 'esm'
esm_bc = 'bc1'
input_dft = 'BEEF-VDW'
nosym = .true.
nspin = 2
ntyp = 4
nat = 34
starting_magnetization(1) = 0.1
starting_magnetization(2) = 0.1
starting_magnetization(3) = 0.1
starting_magnetization(4) = 0.1
/
&ELECTRONS
electron_maxstep = 200
mixing_beta = 0.1
conv_thr = 1e-06
/
&IONS
ion_dynamics = 'bfgs'
upscale = 1.0
/
&CELL
/

K_POINTS {automatic}
8 6 1 0 0 0

ATOMIC_SPECIES
Be 9.012 Be.pbe-n-rrkjus_psl.1.0.0.UPF
C 12.01 C.pbe-n-rrkjus_psl.1.0.0.UPF
Co 58.93 co_pbe_v1.2.uspp.F.UPF
O 15.99 O.pbe-n-rrkjus_psl.1.0.0.UPF

CELL_PARAMETERS {angstrom}
5.19112000 0.00000000 0.00000000
0.00000000 7.34136000 0.00000000
0.00000000 0.00000000 25.50600000

ATOMIC_POSITIONS {angstrom}
Be 0.00000000 0.00000000 -2.7531176399999993 0 0 0
Be 0.00000000 1.83534000 -0.9177058799999998 0 0 0
Be 5.19106809 3.66737639 0.91439010
Be 0.00000000 1.83526659 2.65517460
Be 0.00000000 3.67068000 -2.7531176399999993 0 0 0
Be 0.00000000 5.50602000 -0.9177058799999998 0 0 0
Be 0.00000000 0.00323020 0.91413504
Be 0.00000000 5.50602000 2.70338094
Be 2.59556000 0.00000000 -2.7531176399999993 0 0 0
Be 2.59556000 1.83534000 -0.9177058799999998 0 0 0
Be 2.59556000 3.66370571 0.91311480
Be 2.59550809 1.83526659 2.60237718
Be 2.59556000 3.67068000 -2.7531176399999993 0 0 0
Be 2.59556000 5.50602000 -0.9177058799999998 0 0 0
Be 2.59556000 0.00690088 0.91311480
Be 2.59550809 5.50602000 2.69317854
Co 1.29778000 1.83534000 -2.7531176399999993 0 0 0
Co 1.29778000 0.00000000 -0.9177058799999998 0 0 0
Co 1.29077199 1.83541341 0.89908650
Co 1.30764313 7.33306426 2.77709328
Co 1.29778000 5.50602000 -2.7531176399999993 0 0 0
Co 1.29778000 3.67068000 -0.9177058799999998 0 0 0
Co 1.29803956 5.50594659 0.92408238
Co 1.30764313 3.67897574 2.77734834
Co 3.89334000 1.83534000 -2.7531176399999993 0 0 0
Co 3.89334000 0.00000000 -0.9177058799999998 0 0 0
Co 3.90029610 1.83541341 0.89908650
Co 3.88342496 7.33306426 2.77734834
Co 3.89334000 5.50602000 -2.7531176399999993 0 0 0
Co 3.89334000 3.67068000 -0.9177058799999998 0 0 0
Co 3.89302853 5.50594659 0.92408238
Co 3.88342496 3.67890232 2.77760340
C 0.00005191 1.83534000 4.31587026
O 0.00010382 1.83534000 5.48098434
