&CONTROL
calculation = 'relax'
prefix = 'scf'
pseudo_dir = '/vol0004/mdt0/data/hp150275/u10028/POT_KKJUS'
outdir = './data'
tprnfor = .true.
nstep = 50
disk_io = 'non'
/
&SYSTEM
ibrav = 0
ecutwfc = 50.0
ecutrho = 400
occupations = 'smearing'
smearing = 'mp'
degauss = 0.01
assume_isolated = 'esm'
esm_bc = 'bc1'
input_dft = 'BEEF-VDW'
nosym = .true.
nspin = 1
ntyp = 4
nat = 34
/
&ELECTRONS
electron_maxstep = 200
mixing_beta = 0.1
conv_thr = 1e-06
/
&IONS
ion_dynamics = 'bfgs'
upscale = 1.0
/
&CELL
/

K_POINTS {automatic}
8 6 1 0 0 0

ATOMIC_SPECIES
C 12.01 C.pbe-n-rrkjus_psl.1.0.0.UPF
O 15.99 O.pbe-n-rrkjus_psl.1.0.0.UPF
Pd 106.4 Pd.pbe-n-rrkjus_psl.1.0.0.UPF
Sc 44.95 Sc.pbe-spn-rrkjus_psl.1.0.0.UPF

CELL_PARAMETERS {angstrom}
6.66071000 0.00000000 0.00000000
0.00000000 9.41967000 0.00000000
0.00000000 0.00000000 27.06480000

ATOMIC_POSITIONS {angstrom}
Sc 1.66517750 2.35491750 -3.5324977000000004 0 0 0
Sc 1.66517750 0.00000000 -1.1775894500000028 0 0 0
Sc 1.66551054 2.35491750 1.15133659
Sc 1.68789052 9.40243200 3.53628677
Sc 1.66517750 7.06475250 -3.5324977000000004 0 0 0
Sc 1.66517750 4.70983500 -1.1775894500000028 0 0 0
Sc 1.65458697 7.06475250 1.15891474
Sc 1.68782391 4.72697880 3.53628677
Sc 4.99553250 2.35491750 -3.5324977000000004 0 0 0
Sc 4.99553250 0.00000000 -1.1775894500000028 0 0 0
Sc 4.99519946 2.35491750 1.15133659
Sc 4.97281948 9.40243200 3.53628677
Sc 4.99553250 7.06475250 -3.5324977000000004 0 0 0
Sc 4.99553250 4.70983500 -1.1775894500000028 0 0 0
Sc 5.00612303 7.06475250 1.15891474
Sc 4.97288609 4.72707300 3.53628677
Pd 0.00000000 0.00000000 -3.5324977000000004 0 0 0
Pd 0.00000000 2.35491750 -1.1775894500000028 0 0 0
Pd 0.00000000 0.07262566 1.28963772
Pd 0.00000000 2.35491750 3.55279630
Pd 0.00000000 4.70983500 -3.5324977000000004 0 0 0
Pd 0.00000000 7.06475250 -1.1775894500000028 0 0 0
Pd 0.00000000 4.63720934 1.28963772
Pd 0.00000000 7.06475250 3.33817243
Pd 3.33035500 0.00000000 -3.5324977000000004 0 0 0
Pd 3.33035500 2.35491750 -1.1775894500000028 0 0 0
Pd 3.33035500 9.40403335 1.20221842
Pd 3.33035500 2.35491750 3.29378616
Pd 3.33035500 4.70983500 -3.5324977000000004 0 0 0
Pd 3.33035500 7.06475250 -1.1775894500000028 0 0 0
Pd 3.33035500 4.72547165 1.20221842
Pd 3.33035500 7.06475250 3.31841513
C 0.00000000 2.35491750 5.51364106
O 0.00000000 2.35491750 6.67580357
