&CONTROL
calculation = 'relax'
prefix = 'scf'
pseudo_dir = '/vol0403/data/hp230205/u10028/POT_HYBRID_KKJUS_GBRV'
outdir = './data'
tprnfor = .true.
nstep = 50
disk_io = 'non'
/
&SYSTEM
ibrav = 0
ecutwfc = 50.0
ecutrho = 400
occupations = 'smearing'
smearing = 'mp'
degauss = 0.01
assume_isolated = 'esm'
esm_bc = 'bc1'
input_dft = 'BEEF-VDW'
nosym = .true.
nspin = 1
ntyp = 4
nat = 16
/
&ELECTRONS
electron_maxstep = 200
mixing_beta = 0.1
conv_thr = 1e-06
/
&IONS
ion_dynamics = 'bfgs'
upscale = 1.0
/
&CELL
/

K_POINTS {automatic}
11 7 3 0  0  0

ATOMIC_SPECIES
In 114.8 In.pbe-dn-rrkjus_psl.1.0.0.UPF
Pd 106.4 Pd.pbe-n-rrkjus_psl.1.0.0.UPF
Sc 44.95 Sc.pbe-spn-rrkjus_psl.1.0.0.UPF
Y 88.90 Y.pbe-spn-rrkjus_psl.1.0.0.UPF


CELL_PARAMETERS {angstrom}
6.25545000 0.00000000 0.00000000
0.00000000 9.64246000 0.00000000
0.00000000 0.00000000 24.46440000

ATOMIC_POSITIONS {angstrom}
Y 3.12772500 0.00000000 -2.2321318600000026 0 0 0
Y 5.08261568 0.00000000 0.71362655
Y 3.12772500 4.82123000 -2.2321318600000026 0 0 0
Y 5.08261568 4.82123000 0.71387119
Sc 1.08313117 2.41061500 -0.7439624000000009 0 0 0
Sc 3.23137781 2.41061500 1.88351416
Sc 1.08313117 7.23184500 -0.7439624000000009 0 0 0
Sc 3.23144036 7.23184500 1.88351416
In 0.00000000 0.00000000 -2.2321318600000026 0 0 0
In 1.89039699 9.64236358 1.09135688
In 0.00000000 4.82123000 -2.2321318600000026 0 0 0
In 1.89033444 4.82123000 1.09135688
Pd 4.21085617 2.41061500 -0.7439624000000009 0 0 0
Pd 0.12417068 2.41071142 1.67116316
Pd 4.21085617 7.23184500 -0.7439624000000009 0 0 0
Pd 0.12392046 7.23194142 1.67116316
