&CONTROL
calculation = 'relax'
prefix = 'scf'
pseudo_dir = '/vol0004/mdt0/data/hp150275/u10028/POT_HYBRID_KKJUS_GBRV'
outdir = './data'
tprnfor = .true.
nstep = 50
disk_io = 'non'
/
&SYSTEM
ibrav = 0
ecutwfc = 50.0
ecutrho = 400
occupations = 'smearing'
smearing = 'mp'
degauss = 0.01
assume_isolated = 'esm'
esm_bc = 'bc1'
input_dft = 'BEEF-VDW'
nosym = .true.
nspin = 2
ntyp = 5
nat = 18
starting_magnetization(1) = 0.1
starting_magnetization(2) = 0.1
starting_magnetization(3) = 0.1
starting_magnetization(4) = 0.1
starting_magnetization(5) = 0.1
/
&ELECTRONS
electron_maxstep = 200
mixing_beta = 0.1
conv_thr = 1e-06
/
&IONS
ion_dynamics = 'bfgs'
upscale = 1.0
/
&CELL
/

K_POINTS {automatic}
8 8 1 0 0 0

ATOMIC_SPECIES
Al 26.98 Al.pbe-nl-rrkjus_psl.1.0.0.UPF
C 12.01 C.pbe-n-rrkjus_psl.1.0.0.UPF
Nb 92.90 Nb.pbe-spn-rrkjus_psl.1.0.0.UPF
Ni 58.69 ni_pbe_v1.4.uspp.F.UPF
O 15.99 O.pbe-n-rrkjus_psl.1.0.0.UPF

CELL_PARAMETERS {angstrom}
6.00915000 0.00000000 0.00000000
-0.00000000 6.00915000 0.00000000
0.00000000 0.00000000 24.50690000

ATOMIC_POSITIONS {angstrom}
Nb 0.00000000 0.00000000 2.25340946
Nb 3.00457500 3.00457500 2.25340946
Nb 3.00457500 0.00000000 -0.7511364800000031 0 0 0
Nb 0.00000000 3.00457500 -0.7511364800000031 0 0 0
Al 0.00000000 0.00000000 -0.7511364800000031 0 0 0
Al 3.00457500 -0.00000000 2.25340946
Al 0.00000000 3.00457500 2.25340946
Al 3.00457500 3.00457500 -0.7511364800000031 0 0 0
Ni 1.50228750 1.50228750 0.75113649
Ni 4.50686250 4.50686250 -2.253409450000003 0 0 0
Ni 4.50686250 1.50228750 0.75113649
Ni 1.50228750 4.50686250 -2.253409450000003 0 0 0
Ni 4.50686250 4.50686250 0.75113649
Ni 1.50228750 1.50228750 -2.253409450000003 0 0 0
Ni 1.50228750 4.50686250 0.75113649
Ni 4.50686250 1.50228750 -2.253409450000003 0 0 0
C 0.00000000 0.00000000 4.15342941
O 0.00000000 0.00000000 5.30353823
