&CONTROL
calculation = 'relax'
prefix = 'scf'
pseudo_dir = '/vol0004/mdt0/data/hp150275/u10028/POT_HYBRID_KKJUS_GBRV'
outdir = './data'
tprnfor = .true.
nstep = 50
disk_io = 'non'
/
&SYSTEM
ibrav = 0
ecutwfc = 50.0
ecutrho = 400
occupations = 'smearing'
smearing = 'mp'
degauss = 0.01
assume_isolated = 'esm'
esm_bc = 'bc1'
input_dft = 'BEEF-VDW'
nosym = .true.
nspin = 2
ntyp = 4
nat = 33
starting_magnetization(1) = 0.0
starting_magnetization(2) = 0.0
starting_magnetization(3) = 0.001
starting_magnetization(4) = 0.0
/
&ELECTRONS
electron_maxstep = 300
mixing_beta = 0.1
conv_thr = 1e-06
/
&IONS
ion_dynamics = 'bfgs'
upscale = 1.0
/
&CELL
/

K_POINTS {automatic}
9 6 2 0  0  0

ATOMIC_SPECIES
C 12.01 C.pbe-n-rrkjus_psl.1.0.0.UPF
Ga 69.72 Ga.pbe-dnl-rrkjus_psl.1.0.0.UPF
Ni 58.69 ni_pbe_v1.4.uspp.F.UPF
Sc 44.95 Sc.pbe-spn-rrkjus_psl.1.0.0.UPF

CELL_PARAMETERS {angstrom}
6.06833000 0.00000000 0.00000000
0.00000000 8.58191000 0.00000000
0.00000000 0.00000000 26.43640000

ATOMIC_POSITIONS {angstrom}
Sc 0.00000000 0.00000000 -3.2181029700000003 0 0 0
Sc 3.03416500 2.14547750 -1.0727891099999987 0 0 0
Sc 3.03416500 6.43643250 -1.0727891099999987 0 0 0
Sc 0.00000000 4.29095500 -3.2181029700000003 0 0 0
Sc 0.00000000 4.29078336 1.00088210
Sc 3.03416500 6.30092414 3.35821589
Sc 3.03416500 2.28090004 3.35821589
Sc 0.00000000 0.00017164 1.10768516
Ga 0.00000000 6.43643250 -1.0727891099999987 0 0 0
Ga 3.03416500 0.00000000 -3.2181029700000003 0 0 0
Ga 0.00000000 2.14547750 -1.0727891099999987 0 0 0
Ga 3.03416500 4.29095500 -3.2181029700000003 0 0 0
Ga 0.00000000 2.13526503 3.22947062
Ga 3.03416500 4.29112664 1.14866158
Ga 0.00000000 6.44673079 3.22920626
Ga 3.03416500 8.58148090 1.05560545
Ni 1.51708250 0.00000000 -1.0727891099999987 0 0 0
Ni 4.55124750 4.29095500 -1.0727891099999987 0 0 0
Ni 4.55124750 0.00000000 -1.0727891099999987 0 0 0
Ni 1.51708250 4.29095500 -1.0727891099999987 0 0 0
Ni 4.55124750 6.43643250 -3.2181029700000003 0 0 0
Ni 1.51708250 2.14547750 -3.2181029700000003 0 0 0
Ni 1.51708250 6.43643250 -3.2181029700000003 0 0 0
Ni 4.55124750 2.14547750 -3.2181029700000003 0 0 0
Ni 1.30529778 4.29112664 3.11632283
Ni 4.31549288 8.58165254 3.19906876
Ni 4.76303222 4.29112664 3.11632283
Ni 1.75283712 8.58173836 3.19906876
Ni 4.48279674 2.16075330 1.13517902
Ni 1.58535121 6.42124252 1.13517902
Ni 1.58553326 2.16075330 1.13544338
Ni 4.48297879 6.42124252 1.13517902
C 0.00000000 0.00000000 3.56812091
