&CONTROL
calculation = 'relax'
prefix = 'scf'
pseudo_dir = '/vol0004/mdt0/data/hp150275/u10028/POT_HYBRID_KKJUS_GBRV'
outdir = './data'
tprnfor = .true.
nstep = 50
disk_io = 'non'
/
&SYSTEM
ibrav = 0
ecutwfc = 50.0
ecutrho = 400
occupations = 'smearing'
smearing = 'mp'
degauss = 0.01
assume_isolated = 'esm'
esm_bc = 'bc1'
input_dft = 'BEEF-VDW'
nosym = .true.
nspin = 2
ntyp = 4
nat = 17
starting_magnetization(1) = 0.0
starting_magnetization(2) = 0.01
starting_magnetization(3) = 0.0
starting_magnetization(4) = 0.0
/
&ELECTRONS
electron_maxstep = 300
mixing_beta = 0.1
conv_thr = 1e-06
/
&IONS
ion_dynamics = 'bfgs'
upscale = 1.0
/
&CELL
/

K_POINTS {automatic}
10 10 2 0  0  0

ATOMIC_SPECIES
C 12.01 C.pbe-n-rrkjus_psl.1.0.0.UPF
Fe 55.84 fe_pbe_v1.5.uspp.F.UPF
Sn 118.7 Sn.pbe-dn-rrkjus_psl.1.0.0.UPF
Ti 47.86 Ti.pbe-spn-rrkjus_psl.1.0.0.UPF

CELL_PARAMETERS {angstrom}
6.02174000 0.00000000 0.00000000
0.00000000 6.02174000 0.00000000
0.00000000 0.00000000 24.51630000

ATOMIC_POSITIONS {angstrom}
Ti 0.00000000 0.00000000 -2.258196390000002 0 0 0
Ti 3.01087000 3.01087000 -2.258196390000002 0 0 0
Ti 3.01087000 0.00000000 0.75265041
Ti 0.00000000 3.01087000 0.75265041
Fe 1.50543500 1.50543500 -0.7526504100000011 0 0 0
Fe 4.51630500 4.51630500 2.25819639
Fe 4.51630500 1.50543500 -0.7526504100000011 0 0 0
Fe 1.50543500 4.51630500 2.25819639
Fe 4.51630500 4.51630500 -0.7526504100000011 0 0 0
Fe 1.50543500 1.50543500 2.25819639
Fe 1.50543500 4.51630500 -0.7526504100000011 0 0 0
Fe 4.51630500 1.50543500 2.25819639
Sn 0.00000000 0.00000000 0.75265041
Sn 3.01087000 0.00000000 -2.258196390000002 0 0 0
Sn 0.00000000 3.01087000 -2.258196390000002 0 0 0
Sn 3.01087000 3.01087000 0.75265041
C 0.00000000 3.01087000 3.05816326
