&CONTROL
calculation = 'relax'
prefix = 'scf'
pseudo_dir = '/vol0004/mdt0/data/hp150275/u10028/POT_KKJUS'
outdir = './data'
tprnfor = .true.
nstep = 50
disk_io = 'non'
/
&SYSTEM
ibrav = 0
ecutwfc = 50.0
ecutrho = 400
occupations = 'smearing'
smearing = 'mp'
degauss = 0.01
assume_isolated = 'esm'
esm_bc = 'bc1'
input_dft = 'BEEF-VDW'
nosym = .true.
nspin = 1
ntyp = 4
nat = 34
/
&ELECTRONS
electron_maxstep = 200
mixing_beta = 0.1
conv_thr = 1e-06
/
&IONS
ion_dynamics = 'bfgs'
upscale = 1.0
/
&CELL
/

K_POINTS {automatic}
8 6 1 0 0 0

ATOMIC_SPECIES
C 12.01 C.pbe-n-rrkjus_psl.1.0.0.UPF
K 39.09 K.pbe-spn-rrkjus_psl.1.0.0.UPF
O 15.99 O.pbe-n-rrkjus_psl.1.0.0.UPF
Sb 121.7 Sb.pbe-n-rrkjus_psl.1.0.0.UPF

CELL_PARAMETERS {angstrom}
8.65338000 0.00000000 0.00000000
0.00000000 12.23770000 0.00000000
0.00000000 0.00000000 29.17830000

ATOMIC_POSITIONS {angstrom}
K 2.16334500 0.00000000 -1.5298182699999998 0 0 0
K 6.49003500 6.11885000 -1.5298182699999998 0 0 0
K 6.49003500 0.00000000 -1.5298182699999998 0 0 0
K 2.16334500 6.11885000 -1.5298182699999998 0 0 0
K 6.49003500 9.17827500 -4.589163020000001 0 0 0
K 2.16334500 3.05942500 -4.589163020000001 0 0 0
K 2.16334500 9.17827500 -4.589163020000001 0 0 0
K 6.49003500 3.05942500 -4.589163020000001 0 0 0
K 0.00000000 9.17827500 -1.5298182699999998 0 0 0
K 4.32669000 0.00000000 -4.589163020000001 0 0 0
K 0.00000000 3.05942500 -1.5298182699999998 0 0 0
K 4.32669000 6.11885000 -4.589163020000001 0 0 0
K 2.45531004 6.11995139 5.04346916
K 6.19789689 12.23623148 5.04346916
K 6.19781036 6.12044090 5.04376094
K 2.45531004 12.23672098 5.04346916
K 6.43863392 3.05930262 1.42740244
K 2.20816951 9.17815262 1.41952429
K 2.21474608 3.05918025 1.42798600
K 6.44486436 9.17815262 1.41952429
K 8.65242813 3.05954738 4.08992231
K 4.32669000 6.15348269 1.81255600
K 0.00000000 9.17839738 4.14419395
K 4.32660347 12.20257780 1.81255600
Sb 0.00000000 0.00000000 -4.589163020000001 0 0 0
Sb 4.32669000 3.05942500 -1.5298182699999998 0 0 0
Sb 4.32669000 9.17827500 -1.5298182699999998 0 0 0
Sb 0.00000000 6.11885000 -4.589163020000001 0 0 0
Sb 8.65329347 6.12141992 1.66170419
Sb 4.32643040 9.17839738 4.28570870
Sb 4.32720920 3.05954738 4.29066901
Sb 0.00000000 12.23488533 1.66170419
C 4.32322865 3.05869074 9.25944172
O 4.33594912 3.06309631 10.39506116
