&CONTROL
calculation = 'relax'
prefix = 'scf'
pseudo_dir = '/vol0004/mdt0/data/hp150275/u10028/POT_KKJUS'
outdir = './data'
tprnfor = .true.
nstep = 50
disk_io = 'non'
/
&SYSTEM
ibrav = 0
ecutwfc = 50.0
ecutrho = 400
occupations = 'smearing'
smearing = 'mp'
degauss = 0.01
assume_isolated = 'esm'
esm_bc = 'bc1'
input_dft = 'BEEF-VDW'
nosym = .true.
nspin = 1
ntyp = 4
nat = 17
/
&ELECTRONS
electron_maxstep = 200
mixing_beta = 0.1
conv_thr = 1e-06
/
&IONS
ion_dynamics = 'bfgs'
upscale = 1.0
/
&CELL
/

K_POINTS {automatic}
10 10 2 0  0  0

ATOMIC_SPECIES
C 12.01 C.pbe-n-rrkjus_psl.1.0.0.UPF
Ge 72.64 Ge.pbe-dn-rrkjus_psl.1.0.0.UPF
Li 6.941 Li.pbe-sl-rrkjus_psl.1.0.0.UPF
Ni 58.69 Ni.pbe-spn-rrkjus_psl.1.0.0.UPF

CELL_PARAMETERS {angstrom}
5.73354000 0.00000000 0.00000000
0.00000000 5.73354000 0.00000000
0.00000000 0.00000000 24.30020000

ATOMIC_POSITIONS {angstrom}
Li 0.00000000 0.00000000 -2.150081700000001 0 0 0
Li 2.86677000 2.86677000 -2.150081700000001 0 0 0
Li 2.86642599 0.00028668 0.84467495
Li 0.00000000 2.86705668 0.56570866
Ni 1.43338500 1.43338500 -0.7166129000000012 0 0 0
Ni 4.45415788 4.14649613 2.18823301
Ni 4.30015500 1.43338500 -0.7166129000000012 0 0 0
Ni 1.27754738 4.14689748 2.18969102
Ni 4.30015500 4.30015500 -0.7166129000000012 0 0 0
Ni 1.27926744 1.58979597 2.18871901
Ni 1.43338500 4.30015500 -0.7166129000000012 0 0 0
Ni 4.45501792 1.58738788 2.18993402
Ge 5.73342533 0.00005734 0.79437354
Ge 2.86677000 0.00000000 -2.150081700000001 0 0 0
Ge 0.00000000 2.86677000 -2.150081700000001 0 0 0
Ge 2.86602464 2.86780204 0.79437354
C 5.73296665 2.86757270 2.64361876
