&CONTROL
calculation = 'relax'
prefix = 'scf'
pseudo_dir = '/vol0004/mdt0/data/hp150275/u10028/POT_KKJUS'
outdir = './data'
tprnfor = .true.
nstep = 50
disk_io = 'non'
/
&SYSTEM
ibrav = 0
ecutwfc = 50.0
ecutrho = 400
occupations = 'smearing'
smearing = 'mp'
degauss = 0.01
assume_isolated = 'esm'
esm_bc = 'bc1'
input_dft = 'BEEF-VDW'
nosym = .true.
nspin = 1
ntyp = 4
nat = 17
/
&ELECTRONS
electron_maxstep = 200
mixing_beta = 0.1
conv_thr = 1e-06
/
&IONS
ion_dynamics = 'bfgs'
upscale = 1.0
/
&CELL
/

K_POINTS {automatic}
10 10 2 0  0  0

ATOMIC_SPECIES
Au 196.9 Au.pbe-n-rrkjus_psl.1.0.0.UPF
C 12.01 C.pbe-n-rrkjus_psl.1.0.0.UPF
Ge 72.64 Ge.pbe-dn-rrkjus_psl.1.0.0.UPF
Li 6.941 Li.pbe-sl-rrkjus_psl.1.0.0.UPF

CELL_PARAMETERS {angstrom}
6.30953000 0.00000000 0.00000000
0.00000000 6.30953000 0.00000000
0.00000000 0.00000000 24.73210000

ATOMIC_POSITIONS {angstrom}
Li 0.00000000 0.00000000 -0.7887066699999998 0 0 0
Li 3.13160902 0.03754170 2.80560942
Li 0.03779408 3.13066260 2.80635139
Li 3.15476500 3.15476500 -0.7887066699999998 0 0 0
Li 1.57738250 1.57738250 -2.3661200099999995 0 0 0
Li 1.58627894 4.73359869 0.95589566
Li 4.73214750 4.73214750 -2.3661200099999995 0 0 0
Li 4.73467131 1.58665751 0.95614299
Ge 0.20941330 0.20985497 2.79571658
Ge 2.92547668 2.92326834 2.79794247
Ge 3.15476500 0.00000000 -0.7887066699999998 0 0 0
Ge 0.00000000 3.15476500 -0.7887066699999998 0 0 0
Au 1.57599440 1.57542655 0.60296860
Au 1.57738250 4.73214750 -2.3661200099999995 0 0 0
Au 4.73498679 4.73504988 0.64427121
Au 4.73214750 1.57738250 -2.3661200099999995 0 0 0
C 1.56646701 1.56583606 2.93100117
