&CONTROL
calculation = 'relax'
prefix = 'scf'
pseudo_dir = '/vol0004/mdt0/data/hp150275/u10028/POT_HYBRID_KKJUS_GBRV'
outdir = './data'
tprnfor = .true.
nstep = 50
disk_io = 'non'
/
&SYSTEM
ibrav = 0
ecutwfc = 50.0
ecutrho = 400
occupations = 'smearing'
smearing = 'mp'
degauss = 0.01
assume_isolated = 'esm'
esm_bc = 'bc1'
input_dft = 'BEEF-VDW'
nosym = .true.
nspin = 2
ntyp = 2
nat = 16
starting_magnetization(1) = 0.1
starting_magnetization(2) = 0.1
/
&ELECTRONS
electron_maxstep = 200
mixing_beta = 0.1
conv_thr = 1e-06
/
&IONS
ion_dynamics = 'bfgs'
upscale = 1.0
/
&CELL
/

K_POINTS {automatic}
8 8 1 0 0 0

ATOMIC_SPECIES
Fe 55.84 fe_pbe_v1.5.uspp.F.UPF
Ge 72.64 Ge.pbe-dn-rrkjus_psl.1.0.0.UPF

CELL_PARAMETERS {angstrom}
5.77088000 0.00000000 0.00000000
-0.00000000 5.77088000 0.00000000
0.00000000 0.00000000 24.32820000

ATOMIC_POSITIONS {angstrom}
Fe 1.44272000 1.44272000 0.72133113
Fe 4.32816000 4.32816000 -2.163993389999998 0 0 0
Fe 4.32816000 1.44272000 0.72133113
Fe 1.44272000 4.32816000 -2.163993389999998 0 0 0
Fe 4.32816000 4.32816000 0.72133113
Fe 1.44272000 1.44272000 -2.163993389999998 0 0 0
Fe 1.44272000 4.32816000 0.72133113
Fe 4.32816000 1.44272000 -2.163993389999998 0 0 0
Fe 0.00000000 0.00000000 -0.7213311299999994 0 0 0
Fe 2.88544000 -0.00000000 2.16399339
Fe 0.00000000 2.88544000 2.16399339
Fe 2.88544000 2.88544000 -0.7213311299999994 0 0 0
Ge 0.00000000 0.00000000 2.16399339
Ge 2.88544000 2.88544000 2.16399339
Ge 2.88544000 0.00000000 -0.7213311299999994 0 0 0
Ge 0.00000000 2.88544000 -0.7213311299999994 0 0 0
