&CONTROL
calculation = 'relax'
prefix = 'scf'
pseudo_dir = '/vol0004/mdt0/data/hp150275/u10028/POT_KKJUS'
outdir = './data'
tprnfor = .true.
nstep = 50
disk_io = 'non'
/
&SYSTEM
ibrav = 0
ecutwfc = 50.0
ecutrho = 400
occupations = 'smearing'
smearing = 'mp'
degauss = 0.01
assume_isolated = 'esm'
esm_bc = 'bc1'
input_dft = 'BEEF-VDW'
nosym = .true.
nspin = 1
ntyp = 4
nat = 33
/
&ELECTRONS
electron_maxstep = 200
mixing_beta = 0.1
conv_thr = 1e-06
/
&IONS
ion_dynamics = 'bfgs'
upscale = 1.0
/
&CELL
/

K_POINTS {automatic}
9 6 2 0  0  0

ATOMIC_SPECIES
C 12.01 C.pbe-n-rrkjus_psl.1.0.0.UPF
Ga 69.72 Ga.pbe-dnl-rrkjus_psl.1.0.0.UPF
Hf 178.4 Hf.pbe-spn-rrkjus_psl.1.0.0.UPF
Ni 58.69 Ni.pbe-spn-rrkjus_psl.1.0.0.UPF

CELL_PARAMETERS {angstrom}
6.09904000 0.00000000 0.00000000
0.00000000 8.62534000 0.00000000
0.00000000 0.00000000 26.46900000

ATOMIC_POSITIONS {angstrom}
Hf 0.00000000 0.00000000 -3.2345118 0 0 0
Hf 3.04952000 2.15633500 -1.0780823700000006 0 0 0
Hf 3.04952000 6.46900500 -1.0780823700000006 0 0 0
Hf 0.00000000 4.31267000 -3.2345118 0 0 0
Hf 6.07458285 4.36907972 1.15563654
Hf 2.73426062 6.46883249 3.25409886
Hf 3.02622167 2.15642125 3.06140454
Hf 6.07446087 8.56884402 1.15563654
Ga 0.00000000 6.46900500 -1.0780823700000006 0 0 0
Ga 3.04952000 0.00000000 -3.2345118 0 0 0
Ga 0.00000000 2.15633500 -1.0780823700000006 0 0 0
Ga 3.04952000 4.31267000 -3.2345118 0 0 0
Ga 5.42161963 2.15616249 4.19718933
Ga 3.00396017 4.30231959 1.10322792
Ga 5.99218482 6.46900500 3.30068430
Ga 3.00396017 0.01043666 1.10322792
Ni 1.52476000 0.00000000 -1.0780823700000006 0 0 0
Ni 4.57428000 4.31267000 -1.0780823700000006 0 0 0
Ni 4.57428000 0.00000000 -1.0780823700000006 0 0 0
Ni 1.52476000 4.31267000 -1.0780823700000006 0 0 0
Ni 4.57428000 6.46900500 -3.2345118 0 0 0
Ni 1.52476000 2.15633500 -3.2345118 0 0 0
Ni 1.52476000 6.46900500 -3.2345118 0 0 0
Ni 4.57428000 2.15633500 -3.2345118 0 0 0
Ni 1.06117197 4.09168879 3.45182229
Ni 4.48041577 8.54245048 3.17813283
Ni 4.48047676 4.39547326 3.17813283
Ni 1.06226980 0.22054994 3.45129291
Ni 4.62996424 2.15633500 0.97458858
Ni 1.59886334 6.46900500 0.98358804
Ni 1.45516995 2.15633500 0.98755839
Ni 4.36331421 6.46909125 1.26839448
C 1.22060088 2.15607624 4.01402385
