&CONTROL
calculation = 'relax'
prefix = 'scf'
pseudo_dir = '/vol0004/mdt0/data/hp150275/u10028/POT_KKJUS'
outdir = './data'
tprnfor = .true.
nstep = 50
disk_io = 'non'
/
&SYSTEM
ibrav = 0
ecutwfc = 50.0
ecutrho = 400
occupations = 'smearing'
smearing = 'mp'
degauss = 0.01
assume_isolated = 'esm'
esm_bc = 'bc1'
input_dft = 'BEEF-VDW'
nosym = .true.
nspin = 1
ntyp = 5
nat = 34
/
&ELECTRONS
electron_maxstep = 200
mixing_beta = 0.1
conv_thr = 1e-06
/
&IONS
ion_dynamics = 'bfgs'
upscale = 1.0
/
&CELL
/

K_POINTS {automatic}
9 6 2 0  0  0

ATOMIC_SPECIES
C 12.01 C.pbe-n-rrkjus_psl.1.0.0.UPF
In 114.8 In.pbe-dn-rrkjus_psl.1.0.0.UPF
O 15.99 O.pbe-n-rrkjus_psl.1.0.0.UPF
Pd 106.4 Pd.pbe-n-rrkjus_psl.1.0.0.UPF
Y 88.90 Y.pbe-spn-rrkjus_psl.1.0.0.UPF

CELL_PARAMETERS {angstrom}
6.85111000 0.00000000 0.00000000
0.00000000 9.68893000 0.00000000
0.00000000 0.00000000 27.26670000

ATOMIC_POSITIONS {angstrom}
Y 0.00000000 0.00000000 -3.633287769999999 0 0 0
Y 3.42555500 2.42223250 -1.211186810000001 0 0 0
Y 3.42555500 7.26669750 -1.211186810000001 0 0 0
Y 0.00000000 4.84446500 -3.633287769999999 0 0 0
Y 0.00000000 4.85473527 1.20600614
Y 3.42555500 7.26669750 3.65646447
Y 3.42555500 2.42223250 3.64937513
Y 0.00000000 9.67865973 1.20600614
In 0.00000000 7.26669750 -1.211186810000001 0 0 0
In 3.42555500 0.00000000 -3.633287769999999 0 0 0
In 0.00000000 2.42223250 -1.211186810000001 0 0 0
In 3.42555500 4.84446500 -3.633287769999999 0 0 0
In 0.00000000 2.42223250 3.69681919
In 3.42555500 4.83254762 1.27362756
In 0.00000000 7.26669750 3.69272918
In 3.42555500 0.01191738 1.27362756
Pd 1.71277750 0.00000000 -1.211186810000001 0 0 0
Pd 5.13833250 4.84446500 -1.211186810000001 0 0 0
Pd 5.13833250 0.00000000 -1.211186810000001 0 0 0
Pd 1.71277750 4.84446500 -1.211186810000001 0 0 0
Pd 5.13833250 7.26669750 -3.633287769999999 0 0 0
Pd 1.71277750 2.42223250 -3.633287769999999 0 0 0
Pd 1.71277750 7.26669750 -3.633287769999999 0 0 0
Pd 5.13833250 2.42223250 -3.633287769999999 0 0 0
Pd 1.61028489 4.85376637 3.52285764
Pd 5.24082511 9.67962863 3.52285764
Pd 5.24082511 4.85376637 3.52285764
Pd 1.61028489 9.67962863 3.52285764
Pd 5.11599788 2.42223250 1.23081884
Pd 1.78149413 7.26669750 1.26981022
Pd 1.73511212 2.42223250 1.23081884
Pd 5.06961587 7.26669750 1.26981022
C 3.42555500 2.42223250 6.22553294
O 3.42555500 2.42223250 7.36773501
