&CONTROL
calculation = 'relax'
prefix = 'scf'
pseudo_dir = '/vol0004/mdt0/data/hp150275/u10028/POT_KKJUS'
outdir = './data'
tprnfor = .true.
nstep = 50
disk_io = 'non'
/
&SYSTEM
ibrav = 0
ecutwfc = 50.0
ecutrho = 400
occupations = 'smearing'
smearing = 'mp'
degauss = 0.01
assume_isolated = 'esm'
esm_bc = 'bc1'
input_dft = 'BEEF-VDW'
nosym = .true.
nspin = 1
ntyp = 4
nat = 34
/
&ELECTRONS
electron_maxstep = 200
mixing_beta = 0.1
conv_thr = 1e-06
/
&IONS
ion_dynamics = 'bfgs'
upscale = 1.0
/
&CELL
/

K_POINTS {automatic}
9 6 2 0  0  0

ATOMIC_SPECIES
Al 26.98 Al.pbe-nl-rrkjus_psl.1.0.0.UPF
C 12.01 C.pbe-n-rrkjus_psl.1.0.0.UPF
Cu 63.54 Cu.pbe-dn-rrkjus_psl.1.0.0.UPF
O 15.99 O.pbe-n-rrkjus_psl.1.0.0.UPF

CELL_PARAMETERS {angstrom}
5.88044000 0.00000000 0.00000000
0.00000000 8.31620000 0.00000000
0.00000000 0.00000000 26.23710000

ATOMIC_POSITIONS {angstrom}
Al 0.00000000 0.00000000 -3.1185417100000024 0 0 0
Al 2.94022000 2.07905000 -1.0395139000000029 0 0 0
Al 2.94022000 6.23715000 -1.0395139000000029 0 0 0
Al 0.00000000 4.15810000 -3.1185417100000024 0 0 0
Al 5.82163560 4.15810000 1.11009170
Al 2.99320276 6.20629690 3.15553602
Al 2.99320276 2.10990310 3.15553602
Al 0.08367866 0.00000000 1.14210096
Cu 1.47011000 0.00000000 -1.0395139000000029 0 0 0
Cu 4.41033000 4.15810000 -1.0395139000000029 0 0 0
Cu 4.41033000 0.00000000 -1.0395139000000029 0 0 0
Cu 1.47011000 4.15810000 -1.0395139000000029 0 0 0
Cu 4.41033000 6.23715000 -3.1185417100000024 0 0 0
Cu 1.47011000 2.07905000 -3.1185417100000024 0 0 0
Cu 1.47011000 6.23715000 -3.1185417100000024 0 0 0
Cu 4.41033000 2.07905000 -3.1185417100000024 0 0 0
Cu 0.00000000 6.23715000 -1.0395139000000029 0 0 0
Cu 2.94022000 0.00000000 -3.1185417100000024 0 0 0
Cu 0.00000000 2.07905000 -1.0395139000000029 0 0 0
Cu 2.94022000 4.15810000 -3.1185417100000024 0 0 0
Cu 1.52985527 4.15810000 3.09177986
Cu 4.35023190 0.00000000 3.08233451
Cu 4.38010454 4.15810000 3.20853496
Cu 1.54161615 0.00000000 3.37723951
Cu 4.39004248 2.01218775 0.97759435
Cu 1.49763046 6.17411320 1.02770721
Cu 1.49763046 2.14208680 1.02770721
Cu 4.39004248 6.30401225 0.97759435
Cu 5.85133182 2.09884256 3.01884073
Cu 3.01325506 4.15810000 1.00042062
Cu 5.85127302 6.21735744 3.01884073
Cu 2.81584869 0.00000000 1.08936439
C 1.23865588 0.00000000 5.23508856
O 1.13192590 0.00000000 6.37745190
