&CONTROL
calculation = 'relax'
prefix = 'scf'
pseudo_dir = '/vol0004/mdt0/data/hp150275/u10028/POT_KKJUS'
outdir = './data'
tprnfor = .true.
nstep = 50
disk_io = 'non'
/
&SYSTEM
ibrav = 0
ecutwfc = 50.0
ecutrho = 400
occupations = 'smearing'
smearing = 'mp'
degauss = 0.01
assume_isolated = 'esm'
esm_bc = 'bc1'
input_dft = 'BEEF-VDW'
nosym = .true.
nspin = 1
ntyp = 3
nat = 17
/
&ELECTRONS
electron_maxstep = 200
mixing_beta = 0.1
conv_thr = 1e-06
/
&IONS
ion_dynamics = 'bfgs'
upscale = 1.0
/
&CELL
/

K_POINTS {automatic}
6 8 1 0 0 0

ATOMIC_SPECIES
C 12.01 C.pbe-n-rrkjus_psl.1.0.0.UPF
Ir 192.2 Ir.pbe-n-rrkjus_psl.0.2.3.UPF
Sc 44.95 Sc.pbe-spn-rrkjus_psl.1.0.0.UPF

CELL_PARAMETERS {angstrom}
7.92728000 0.00000000 0.00000000
0.00000000 5.60543000 0.00000000
0.00000000 0.00000000 24.20410000

ATOMIC_POSITIONS {angstrom}
Sc 0.00000000 0.00000000 -2.1021260800000015 0 0 0
Sc 0.00007927 2.80271500 0.36112517
Sc 3.96364000 0.00000000 -2.1021260800000015 0 0 0
Sc 3.96364000 2.80271500 1.02722200
Ir 0.00000000 2.80271500 -2.1021260800000015 0 0 0
Ir 1.98182000 4.20407250 -0.700708689999999 0 0 0
Ir 1.98182000 1.40135750 -0.700708689999999 0 0 0
Ir 0.00007927 0.00000000 0.45406892
Ir 1.57166253 1.37731021 2.07211300
Ir 1.57158326 4.22806374 2.07211300
Ir 3.96364000 2.80271500 -2.1021260800000015 0 0 0
Ir 5.94546000 4.20407250 -0.700708689999999 0 0 0
Ir 5.94546000 1.40135750 -0.700708689999999 0 0 0
Ir 3.96356073 0.00000000 0.79897734
Ir 6.35577601 1.37742231 2.07235504
Ir 6.35561747 4.22811979 2.07211300
C 7.92712145 2.80271500 2.56732889
