&CONTROL
calculation = 'relax'
prefix = 'scf'
pseudo_dir = '/vol0403/data/hp230205/u10028/POT_HYBRID_KKJUS_GBRV'
outdir = './data'
tprnfor = .true.
nstep = 50
disk_io = 'non'
/
&SYSTEM
ibrav = 0
ecutwfc = 50.0
ecutrho = 400
occupations = 'smearing'
smearing = 'mp'
degauss = 0.01
assume_isolated = 'esm'
esm_bc = 'bc1'
input_dft = 'BEEF-VDW'
nosym = .true.
nspin = 1
ntyp = 6
nat = 34
/
&ELECTRONS
electron_maxstep = 200
mixing_beta = 0.1
conv_thr = 1e-06
/
&IONS
ion_dynamics = 'bfgs'
upscale = 1.0
/
&CELL
/

K_POINTS {automatic}
6 6 1 0 0 0

ATOMIC_SPECIES
C 12.01 C.pbe-n-rrkjus_psl.1.0.0.UPF
Ga 69.72 Ga.pbe-dnl-rrkjus_psl.1.0.0.UPF
Ge 72.64 Ge.pbe-dn-rrkjus_psl.1.0.0.UPF
Li 6.941 Li.pbe-sl-rrkjus_psl.1.0.0.UPF
O 15.99 O.pbe-n-rrkjus_psl.1.0.0.UPF
Pd 106.4 Pd.pbe-n-rrkjus_psl.1.0.0.UPF


CELL_PARAMETERS {angstrom}
6.27488000 0.00000000 0.00000000
0.00000000 8.87402000 0.00000000
0.00000000 0.00000000 26.65550000

ATOMIC_POSITIONS {angstrom}
Li 4.70616000 0.00000000 -1.109135349999999 0 0 0
Li 4.70616000 4.43701000 -1.109135349999999 0 0 0
Li 1.56872000 2.21850500 -3.3276726200000013 0 0 0
Li 1.56872000 6.65551500 -3.3276726200000013 0 0 0
Li 4.74399753 4.43701000 4.09748346
Li 4.72674161 0.00000000 3.77601813
Li 1.59306653 6.53944282 1.09100961
Li 1.59306653 2.33457718 1.09100961
Ga 0.00000000 0.00000000 -3.3276726200000013 0 0 0
Ga 0.00000000 4.43701000 -3.3276726200000013 0 0 0
Ga 3.13744000 6.65551500 -1.109135349999999 0 0 0
Ga 3.13744000 2.21850500 -1.109135349999999 0 0 0
Ga 6.07640555 4.43701000 1.20936003
Ga 0.12681532 0.00008874 1.35889739
Ga 3.14854654 2.27574243 3.47054610
Ga 3.14854654 6.59827757 3.47054610
Ge 0.00000000 2.21850500 -1.109135349999999 0 0 0
Ge 0.00000000 6.65551500 -1.109135349999999 0 0 0
Ge 3.13744000 4.43701000 -3.3276726200000013 0 0 0
Ge 3.13744000 0.00000000 -3.3276726200000013 0 0 0
Ge 6.17950182 6.61788916 3.27489473
Ge 6.17950182 2.25613084 3.27489473
Ge 3.01376212 0.00008874 1.38635255
Ge 3.31746631 4.43701000 1.21948912
Pd 1.56872000 0.00000000 -1.109135349999999 0 0 0
Pd 1.56872000 4.43701000 -1.109135349999999 0 0 0
Pd 4.70616000 2.21850500 -3.3276726200000013 0 0 0
Pd 4.70616000 6.65551500 -3.3276726200000013 0 0 0
Pd 1.55227981 4.43701000 3.08990556
Pd 1.65744680 0.00000000 3.72963756
Pd 4.70521877 6.80832562 0.96332977
Pd 4.70521877 2.06560564 0.96332977
C 1.54512645 0.00000000 5.70774221
O 1.54161252 0.00000000 6.85979293
