&CONTROL
calculation = 'relax'
prefix = 'scf'
pseudo_dir = '/vol0004/mdt0/data/hp150275/u10028/POT_KKJUS'
outdir = './data'
tprnfor = .true.
nstep = 50
disk_io = 'non'
/
&SYSTEM
ibrav = 0
ecutwfc = 50.0
ecutrho = 400
occupations = 'smearing'
smearing = 'mp'
degauss = 0.01
assume_isolated = 'esm'
esm_bc = 'bc1'
input_dft = 'BEEF-VDW'
nosym = .true.
nspin = 1
ntyp = 4
nat = 18
/
&ELECTRONS
electron_maxstep = 200
mixing_beta = 0.1
conv_thr = 1e-06
/
&IONS
ion_dynamics = 'bfgs'
upscale = 1.0
/
&CELL
/

K_POINTS {automatic}
6 8 1 0 0 0

ATOMIC_SPECIES
C 12.01 C.pbe-n-rrkjus_psl.1.0.0.UPF
Mg 24.30 Mg.pbe-spnl-rrkjus_psl.1.0.0.UPF
O 15.99 O.pbe-n-rrkjus_psl.1.0.0.UPF
Pd 106.4 Pd.pbe-n-rrkjus_psl.1.0.0.UPF

CELL_PARAMETERS {angstrom}
8.03636000 0.00000000 0.00000000
0.00000000 5.68257000 0.00000000
0.00000000 0.00000000 24.26190000

ATOMIC_POSITIONS {angstrom}
Mg 0.00000000 0.00000000 -2.130922680000001 0 0 0
Mg 0.00490218 2.77968594 0.71766700
Mg 4.01818000 0.00000000 -2.130922680000001 0 0 0
Mg 4.01335818 2.77968594 0.71718176
Pd 0.00000000 2.84128500 -2.130922680000001 0 0 0
Pd 2.00909000 4.26192750 -0.7103884300000018 0 0 0
Pd 2.00909000 1.42064250 -0.7103884300000018 0 0 0
Pd 0.03600289 5.62125507 0.67981844
Pd 2.00917036 1.36501014 2.14402410
Pd 2.00900964 4.15373137 2.17362362
Pd 4.01818000 2.84128500 -2.130922680000001 0 0 0
Pd 6.02727000 4.26192750 -0.7103884300000018 0 0 0
Pd 6.02727000 1.42064250 -0.7103884300000018 0 0 0
Pd 3.98217711 5.62125507 0.67981844
Pd 6.02743073 1.28323796 2.04746174
Pd 6.02727000 4.13452428 2.06056317
C 2.00933109 2.73752127 3.61186905
O 2.00941145 2.72070086 4.78056478
