&CONTROL
calculation = 'relax'
prefix = 'scf'
pseudo_dir = '/vol0004/mdt0/data/hp150275/u10028/POT_HYBRID_KKJUS_GBRV'
outdir = './data'
tprnfor = .true.
nstep = 50
disk_io = 'non'
/
&SYSTEM
ibrav = 0
ecutwfc = 50.0
ecutrho = 400
occupations = 'smearing'
smearing = 'mp'
degauss = 0.01
assume_isolated = 'esm'
esm_bc = 'bc1'
input_dft = 'BEEF-VDW'
nosym = .true.
nspin = 2
ntyp = 2
nat = 32
starting_magnetization(1) = 0.001
starting_magnetization(2) = 0.0
/
&ELECTRONS
electron_maxstep = 300
mixing_beta = 0.1
conv_thr = 1e-06
/
&IONS
ion_dynamics = 'bfgs'
upscale = 1.0
/
&CELL
/

K_POINTS {automatic}
9 6 2 0  0  0

ATOMIC_SPECIES
Ni 58.69 ni_pbe_v1.4.uspp.F.UPF
Sn 118.7 Sn.pbe-dn-rrkjus_psl.1.0.0.UPF

CELL_PARAMETERS {angstrom}
5.96895000 0.00000000 0.00000000
0.00000000 8.44136000 0.00000000
0.00000000 0.00000000 26.33100000

ATOMIC_POSITIONS {angstrom}
Ni 1.49223750 0.00000000 -1.0550831699999996 0 0 0
Ni 4.47671250 4.22068000 -1.0550831699999996 0 0 0
Ni 4.47671250 0.00000000 -1.0550831699999996 0 0 0
Ni 1.49223750 4.22068000 -1.0550831699999996 0 0 0
Ni 4.47671250 6.33102000 -3.16551282 0 0 0
Ni 1.49223750 2.11034000 -3.16551282 0 0 0
Ni 1.49223750 6.33102000 -3.16551282 0 0 0
Ni 4.47671250 2.11034000 -3.16551282 0 0 0
Ni 0.00000000 6.33102000 -1.0550831699999996 0 0 0
Ni 2.98447500 0.00000000 -3.16551282 0 0 0
Ni 0.00000000 2.11034000 -1.0550831699999996 0 0 0
Ni 2.98447500 4.22068000 -3.16551282 0 0 0
Ni 1.44532155 4.22008910 3.08125362
Ni 4.52374783 0.00059090 3.08072700
Ni 4.52362845 4.22008910 3.08125362
Ni 1.44520217 0.00059090 3.08072700
Ni 4.39684795 2.10983352 1.11564447
Ni 1.57210205 6.33161090 1.11511785
Ni 1.57210205 2.10983352 1.11564447
Ni 4.39684795 6.33161090 1.11511785
Ni 0.00000000 2.10958028 3.05018304
Ni 2.98447500 4.22008910 1.05402993
Ni 0.00000000 6.33194855 3.04912980
Ni 2.98447500 0.00042207 1.05376662
Sn 0.00000000 0.00000000 -3.16551282 0 0 0
Sn 2.98447500 2.11034000 -1.0550831699999996 0 0 0
Sn 2.98447500 6.33102000 -1.0550831699999996 0 0 0
Sn 0.00000000 4.22068000 -3.16551282 0 0 0
Sn 0.00000000 4.22076441 0.99452187
Sn 2.98447500 6.33102000 3.39037956
Sn 2.98447500 2.11059324 3.39116949
Sn 0.00000000 8.44127559 0.99399525
