&CONTROL
calculation = 'relax'
prefix = 'scf'
pseudo_dir = '/vol0403/data/hp230205/u10028/POT_HYBRID_KKJUS_GBRV'
outdir = './data'
tprnfor = .true.
nstep = 50
disk_io = 'non'
/
&SYSTEM
ibrav = 0
ecutwfc = 50.0
ecutrho = 400
occupations = 'smearing'
smearing = 'mp'
degauss = 0.01
assume_isolated = 'esm'
esm_bc = 'bc1'
input_dft = 'BEEF-VDW'
nosym = .true.
nspin = 1
ntyp = 5
nat = 17
/
&ELECTRONS
electron_maxstep = 200
mixing_beta = 0.1
conv_thr = 1e-06
/
&IONS
ion_dynamics = 'bfgs'
upscale = 1.0
/
&CELL
/

K_POINTS {automatic}
8 8 1 0 0 0

ATOMIC_SPECIES
Ag 107.8 Ag.pbe-n-rrkjus_psl.1.0.0.UPF
C 12.01 C.pbe-n-rrkjus_psl.1.0.0.UPF
In 114.8 In.pbe-dn-rrkjus_psl.1.0.0.UPF
Li 6.941 Li.pbe-sl-rrkjus_psl.1.0.0.UPF
Mg 24.30 Mg.pbe-spnl-rrkjus_psl.1.0.0.UPF


CELL_PARAMETERS {angstrom}
6.69019000 0.00000000 0.00000000
0.00000000 6.69019000 0.00000000
0.00000000 0.00000000 25.01760000

ATOMIC_POSITIONS {angstrom}
Li 6.48239270 3.13462162 3.21651283
Li 0.00000000 0.00000000 -0.83633837 0 0 0
Li 3.34509500 3.34509500 -0.83633837 0 0 0
Li 3.55556838 0.20779730 3.21651283
Mg 5.01088541 1.67930459 0.83383661
Mg 5.01764250 5.01764250 -2.5087649300000017 0 0 0
Mg 1.67254750 1.67254750 -2.5087649300000017 0 0 0
Mg 1.67515667 5.01503333 1.20084480
In 1.67281511 1.67194538 1.00895981
In 1.67254750 5.01764250 -2.5087649300000017 0 0 0
In 5.01764250 1.67254750 -2.5087649300000017 0 0 0
In 5.01824462 5.01737489 1.00895981
Ag 6.55277350 0.13741650 2.66837722
Ag 0.00000000 3.34509500 -0.83633837 0 0 0
Ag 3.34509500 0.00000000 -0.83633837 0 0 0
Ag 3.47354665 3.21664335 2.67838426
C 5.01001568 1.68024122 3.02412749
