&CONTROL
calculation = 'relax'
prefix = 'scf'
pseudo_dir = '/vol0004/mdt0/data/hp150275/u10028/POT_HYBRID_KKJUS_GBRV'
outdir = './data'
tprnfor = .true.
nstep = 50
disk_io = 'non'
/
&SYSTEM
ibrav = 0
ecutwfc = 50.0
ecutrho = 400
occupations = 'smearing'
smearing = 'mp'
degauss = 0.01
assume_isolated = 'esm'
esm_bc = 'bc1'
input_dft = 'BEEF-VDW'
nosym = .true.
nspin = 2
ntyp = 3
nat = 32
starting_magnetization(1) = 0.1
starting_magnetization(2) = 0.0
starting_magnetization(3) = 0.0
/
&ELECTRONS
electron_maxstep = 300
mixing_beta = 0.1
conv_thr = 1e-06
/
&IONS
ion_dynamics = 'bfgs'
upscale = 1.0
/
&CELL
/

K_POINTS {automatic}
8 6 1 0 0 0

ATOMIC_SPECIES
Co 58.93 co_pbe_v1.2.uspp.F.UPF
Ge 72.64 Ge.pbe-dn-rrkjus_psl.1.0.0.UPF
Ti 47.86 Ti.pbe-spn-rrkjus_psl.1.0.0.UPF

CELL_PARAMETERS {angstrom}
5.88044000 0.00000000 0.00000000
0.00000000 8.31620000 0.00000000
0.00000000 0.00000000 26.23710000

ATOMIC_POSITIONS {angstrom}
Ti 0.00000000 0.00000000 -3.1185417100000024 0 0 0
Ti 2.94022000 2.07905000 -1.0395139000000029 0 0 0
Ti 2.94022000 6.23715000 -1.0395139000000029 0 0 0
Ti 0.00000000 4.15810000 -3.1185417100000024 0 0 0
Ti 0.00005880 4.15810000 1.02560824
Ti 2.94016120 6.23715000 3.12064067
Ti 2.94016120 2.07905000 3.12064067
Ti 0.00011761 0.00000000 1.02534587
Co 1.47011000 0.00000000 -1.0395139000000029 0 0 0
Co 4.41033000 4.15810000 -1.0395139000000029 0 0 0
Co 4.41033000 0.00000000 -1.0395139000000029 0 0 0
Co 1.47011000 4.15810000 -1.0395139000000029 0 0 0
Co 4.41033000 6.23715000 -3.1185417100000024 0 0 0
Co 1.47011000 2.07905000 -3.1185417100000024 0 0 0
Co 1.47011000 6.23715000 -3.1185417100000024 0 0 0
Co 4.41033000 2.07905000 -3.1185417100000024 0 0 0
Co 1.39237058 4.15818316 2.95272323
Co 4.48801061 8.31611684 2.95272323
Co 4.48801061 4.15810000 2.95272323
Co 1.39231178 8.31611684 2.95272323
Co 4.37463573 2.07905000 1.05446905
Co 1.50568666 6.23715000 1.05446905
Co 1.50580427 2.07905000 1.05446905
Co 4.37475334 6.23715000 1.05446905
Ge 0.00000000 6.23715000 -1.0395139000000029 0 0 0
Ge 2.94022000 0.00000000 -3.1185417100000024 0 0 0
Ge 0.00000000 2.07905000 -1.0395139000000029 0 0 0
Ge 2.94022000 4.15810000 -3.1185417100000024 0 0 0
Ge 5.88026359 2.07905000 3.20092620
Ge 2.94027880 4.15818316 1.05027111
Ge 5.88026359 6.23715000 3.20066383
Ge 2.94027880 8.31611684 1.05027111
