&CONTROL
calculation = 'relax'
prefix = 'scf'
pseudo_dir = '/vol0403/data/hp230205/u10028/POT_HYBRID_KKJUS_GBRV'
outdir = './data'
tprnfor = .true.
nstep = 50
disk_io = 'non'
/
&SYSTEM
ibrav = 0
ecutwfc = 50.0
ecutrho = 400
occupations = 'smearing'
smearing = 'mp'
degauss = 0.01
assume_isolated = 'esm'
esm_bc = 'bc1'
input_dft = 'BEEF-VDW'
nosym = .true.
nspin = 1
ntyp = 6
nat = 18
/
&ELECTRONS
electron_maxstep = 200
mixing_beta = 0.1
conv_thr = 1e-06
/
&IONS
ion_dynamics = 'bfgs'
upscale = 1.0
/
&CELL
/

K_POINTS {automatic}
9 9 2 0  0  0

ATOMIC_SPECIES
C 12.01 C.pbe-n-rrkjus_psl.1.0.0.UPF
Ge 72.64 Ge.pbe-dn-rrkjus_psl.1.0.0.UPF
Li 6.941 Li.pbe-sl-rrkjus_psl.1.0.0.UPF
O 15.99 O.pbe-n-rrkjus_psl.1.0.0.UPF
Pd 106.4 Pd.pbe-n-rrkjus_psl.1.0.0.UPF
Zn 65.40 Zn.pbe-dnl-rrkjus_psl.1.0.0.UPF


CELL_PARAMETERS {angstrom}
6.18512000 0.00000000 0.00000000
0.00000000 6.18512000 0.00000000
0.00000000 0.00000000 24.63880000

ATOMIC_POSITIONS {angstrom}
Li 4.63884000 1.54628000 -0.7731655400000008 0 0 0
Li 4.64143775 4.64650955 2.62280026
Li 1.53861045 1.54374410 2.62280026
Li 1.54628000 4.63884000 -0.7731655400000008 0 0 0
Zn 0.00000000 3.09256000 -2.3194966299999997 0 0 0
Zn 6.11349631 0.07162369 0.77538304
Zn 3.16752365 3.01759635 0.78154274
Zn 3.09256000 0.00000000 -2.3194966299999997 0 0 0
Ge 0.00000000 0.00000000 -2.3194966299999997 0 0 0
Ge 6.12135141 3.02798735 0.86112606
Ge 3.15700895 0.06389229 0.86112606
Ge 3.09256000 3.09256000 -2.3194966299999997 0 0 0
Pd 1.54628000 1.54628000 -0.7731655400000008 0 0 0
Pd 1.54696036 4.63815964 1.96494430
Pd 4.64224182 1.54287818 2.48556214
Pd 4.63884000 4.63884000 -0.7731655400000008 0 0 0
C 4.64570548 1.53935267 4.43917260
O 4.64403550 1.54108450 5.59645703
