&CONTROL
calculation = 'relax'
prefix = 'scf'
pseudo_dir = '/vol0004/mdt0/data/hp150275/u10028/POT_HYBRID_KKJUS_GBRV'
outdir = './data'
tprnfor = .true.
nstep = 50
disk_io = 'non'
/
&SYSTEM
ibrav = 0
ecutwfc = 50.0
ecutrho = 400
occupations = 'smearing'
smearing = 'mp'
degauss = 0.01
assume_isolated = 'esm'
esm_bc = 'bc1'
input_dft = 'BEEF-VDW'
nosym = .true.
nspin = 2
ntyp = 2
nat = 32
starting_magnetization(1) = 0.1
starting_magnetization(2) = 0.1
/
&ELECTRONS
electron_maxstep = 200
mixing_beta = 0.1
conv_thr = 1e-06
/
&IONS
ion_dynamics = 'bfgs'
upscale = 1.0
/
&CELL
/

K_POINTS {automatic}
9 6 2 0  0  0

ATOMIC_SPECIES
Fe 55.84 fe_pbe_v1.5.uspp.F.UPF
Rh 102.9 Rh.pbe-spn-rrkjus_psl.1.0.0.UPF

CELL_PARAMETERS {angstrom}
6.04788000 0.00000000 0.00000000
0.00000000 8.55299000 0.00000000
0.00000000 0.00000000 26.41470000

ATOMIC_POSITIONS {angstrom}
Fe 0.00000000 0.00000000 -3.2072728700000006 0 0 0
Fe 0.00000000 2.13824750 -1.0690029099999983 0 0 0
Fe 0.00000000 0.00000000 1.09066296
Fe 0.00000000 2.13824750 3.27040401
Fe 0.00000000 4.27649500 -3.2072728700000006 0 0 0
Fe 0.00000000 6.41474250 -1.0690029099999983 0 0 0
Fe 0.00000000 4.27649500 1.09066296
Fe 0.00000000 6.41474250 3.27040401
Fe 3.02394000 0.00000000 -3.2072728700000006 0 0 0
Fe 3.02394000 2.13824750 -1.0690029099999983 0 0 0
Fe 3.02394000 0.00000000 1.09066296
Fe 3.02394000 2.13824750 3.27040401
Fe 3.02394000 4.27649500 -3.2072728700000006 0 0 0
Fe 3.02394000 6.41474250 -1.0690029099999983 0 0 0
Fe 3.02394000 4.27649500 1.09066296
Fe 3.02394000 6.41474250 3.27040401
Rh 1.51197000 2.13824750 -3.2072728700000006 0 0 0
Rh 1.51197000 0.00000000 -1.0690029099999983 0 0 0
Rh 1.51190952 2.13824750 1.08854979
Rh 1.51190952 4.27649500 3.11508557
Rh 1.51197000 6.41474250 -3.2072728700000006 0 0 0
Rh 1.51197000 4.27649500 -1.0690029099999983 0 0 0
Rh 1.51190952 6.41474250 1.08854979
Rh 1.51190952 0.00000000 3.11508557
Rh 4.53591000 2.13824750 -3.2072728700000006 0 0 0
Rh 4.53591000 0.00000000 -1.0690029099999983 0 0 0
Rh 4.53597048 2.13824750 1.08854979
Rh 4.53597048 4.27649500 3.11508557
Rh 4.53591000 6.41474250 -3.2072728700000006 0 0 0
Rh 4.53591000 4.27649500 -1.0690029099999983 0 0 0
Rh 4.53597048 6.41474250 1.08854979
Rh 4.53597048 0.00000000 3.11508557
