&CONTROL
calculation = 'relax'
prefix = 'scf'
pseudo_dir = '/vol0004/mdt0/data/hp150275/u10028/POT_HYBRID_KKJUS_GBRV'
outdir = './data'
tprnfor = .true.
nstep = 50
disk_io = 'non'
/
&SYSTEM
ibrav = 0
ecutwfc = 50.0
ecutrho = 400
occupations = 'smearing'
smearing = 'mp'
degauss = 0.01
assume_isolated = 'esm'
esm_bc = 'bc1'
input_dft = 'BEEF-VDW'
nosym = .true.
nspin = 2
ntyp = 4
nat = 33
starting_magnetization(1) = 0.0
starting_magnetization(2) = 0.0
starting_magnetization(3) = 0.001
starting_magnetization(4) = 0.0
/
&ELECTRONS
electron_maxstep = 300
mixing_beta = 0.1
conv_thr = 1e-06
/
&IONS
ion_dynamics = 'bfgs'
upscale = 1.0
/
&CELL
/

K_POINTS {automatic}
8 6 1 0 0 0

ATOMIC_SPECIES
C 12.01 C.pbe-n-rrkjus_psl.1.0.0.UPF
In 114.8 In.pbe-dn-rrkjus_psl.1.0.0.UPF
Ni 58.69 ni_pbe_v1.4.uspp.F.UPF
Ti 47.86 Ti.pbe-spn-rrkjus_psl.1.0.0.UPF

CELL_PARAMETERS {angstrom}
6.16408000 0.00000000 0.00000000
0.00000000 8.71733000 0.00000000
0.00000000 0.00000000 26.53800000

ATOMIC_POSITIONS {angstrom}
Ti 0.00000000 0.00000000 -3.2689508399999987 0 0 0
Ti 3.08204000 2.17933250 -1.0896502800000007 0 0 0
Ti 3.08204000 6.53799750 -1.0896502800000007 0 0 0
Ti 0.00000000 4.35866500 -3.2689508399999987 0 0 0
Ti 0.00000000 4.35866500 1.15387224
Ti 3.08204000 6.52762388 3.13758774
Ti 3.08204000 2.18970612 3.13785312
Ti 0.00000000 0.00000000 1.28364306
In 0.00000000 6.53799750 -1.0896502800000007 0 0 0
In 3.08204000 0.00000000 -3.2689508399999987 0 0 0
In 0.00000000 2.17933250 -1.0896502800000007 0 0 0
In 3.08204000 4.35866500 -3.2689508399999987 0 0 0
In 0.00000000 2.32726559 3.60200274
In 3.08204000 4.35875217 0.98455980
In 0.00000000 6.39006441 3.60173736
In 3.08204000 0.00000000 1.05382398
Ni 1.54102000 0.00000000 -1.0896502800000007 0 0 0
Ni 4.62306000 4.35866500 -1.0896502800000007 0 0 0
Ni 4.62306000 0.00000000 -1.0896502800000007 0 0 0
Ni 1.54102000 4.35866500 -1.0896502800000007 0 0 0
Ni 4.62306000 6.53799750 -3.2689508399999987 0 0 0
Ni 1.54102000 2.17933250 -3.2689508399999987 0 0 0
Ni 1.54102000 6.53799750 -3.2689508399999987 0 0 0
Ni 4.62306000 2.17933250 -3.2689508399999987 0 0 0
Ni 1.66374683 4.35857783 3.13811850
Ni 4.36077840 0.00008717 3.36873372
Ni 4.50033317 4.35857783 3.13811850
Ni 1.80330160 0.00008717 3.36873372
Ni 4.67021521 2.20844838 1.14538008
Ni 1.49380315 6.50888162 1.14538008
Ni 1.49386479 2.20844838 1.14538008
Ni 4.67027685 6.50888162 1.14538008
C 0.00000000 0.00000000 3.43852866
