&CONTROL
calculation = 'relax'
prefix = 'scf'
pseudo_dir = '/vol0004/mdt0/data/hp150275/u10028/POT_KKJUS'
outdir = './data'
tprnfor = .true.
nstep = 50
disk_io = 'non'
/
&SYSTEM
ibrav = 0
ecutwfc = 50.0
ecutrho = 400
occupations = 'smearing'
smearing = 'mp'
degauss = 0.01
assume_isolated = 'esm'
esm_bc = 'bc1'
input_dft = 'BEEF-VDW'
nosym = .true.
nspin = 1
ntyp = 5
nat = 18
/
&ELECTRONS
electron_maxstep = 200
mixing_beta = 0.1
conv_thr = 1e-06
/
&IONS
ion_dynamics = 'bfgs'
upscale = 1.0
/
&CELL
/

K_POINTS {automatic}
8 8 1 0 0 0

ATOMIC_SPECIES
C 12.01 C.pbe-n-rrkjus_psl.1.0.0.UPF
In 114.8 In.pbe-dn-rrkjus_psl.1.0.0.UPF
O 15.99 O.pbe-n-rrkjus_psl.1.0.0.UPF
Pd 106.4 Pd.pbe-n-rrkjus_psl.1.0.0.UPF
Y 88.90 Y.pbe-spn-rrkjus_psl.1.0.0.UPF

CELL_PARAMETERS {angstrom}
6.85111000 0.00000000 0.00000000
-0.00000000 6.85111000 0.00000000
0.00000000 0.00000000 25.13830000

ATOMIC_POSITIONS {angstrom}
Y 0.00000000 0.00000000 2.56913426
Y 3.42555500 3.42555500 2.56913426
Y 3.42555500 0.00000000 -0.8564618800000012 0 0 0
Y 0.00000000 3.42555500 -0.8564618800000012 0 0 0
In 0.00000000 0.00000000 -0.8564618800000012 0 0 0
In 3.42555500 -0.00000000 2.56913426
In 0.00000000 3.42555500 2.56913426
In 3.42555500 3.42555500 -0.8564618800000012 0 0 0
Pd 1.71277750 1.71277750 0.85646188
Pd 5.13833250 5.13833250 -2.569134260000002 0 0 0
Pd 5.13833250 1.71277750 0.85646188
Pd 1.71277750 5.13833250 -2.569134260000002 0 0 0
Pd 5.13833250 5.13833250 0.85646188
Pd 1.71277750 1.71277750 -2.569134260000002 0 0 0
Pd 1.71277750 5.13833250 0.85646188
Pd 5.13833250 1.71277750 -2.569134260000002 0 0 0
C 0.00000000 3.42555500 4.46908697
O 0.00000000 3.42555500 5.61916420
