&CONTROL
calculation = 'relax'
prefix = 'scf'
pseudo_dir = '/vol0403/data/hp230205/u10028/POT_HYBRID_KKJUS_GBRV'
outdir = './data'
tprnfor = .true.
nstep = 70
disk_io = 'non'
/
&SYSTEM
ibrav = 0
ecutwfc = 50.0
ecutrho = 400
occupations = 'smearing'
smearing = 'mp'
degauss = 0.01
assume_isolated = 'esm'
esm_bc = 'bc1'
input_dft = 'BEEF-VDW'
nosym = .true.
nspin = 1
ntyp = 5
nat = 33
/
&ELECTRONS
electron_maxstep = 200
mixing_beta = 0.1
conv_thr = 1e-06
/
&IONS
ion_dynamics = 'bfgs'
upscale = 1.0
/
&CELL
/

K_POINTS {automatic}
6 6 1 0 0 0

ATOMIC_SPECIES
Al 26.98 Al.pbe-nl-rrkjus_psl.1.0.0.UPF
C 12.01 C.pbe-n-rrkjus_psl.1.0.0.UPF
Cu 63.54 Cu.pbe-dn-rrkjus_psl.1.0.0.UPF
In 114.8 In.pbe-dn-rrkjus_psl.1.0.0.UPF
Pd 106.4 Pd.pbe-n-rrkjus_psl.1.0.0.UPF


CELL_PARAMETERS {angstrom}
6.36006000 0.00000000 0.00000000
-0.00000000 8.99448000 0.00000000
0.00000000 0.00000000 26.74590000

ATOMIC_POSITIONS {angstrom}
Al 0.00000000 0.00000000 -3.3729254500000003 0 0 0
Al 0.00000000 4.49724000 -3.3729254500000003 0 0 0
Al 3.18003000 6.74586000 -1.124397639999998 0 0 0
Al 3.18003000 2.24862000 -1.124397639999998 0 0 0
Al 0.11766111 4.52314410 1.17681960
Al 0.11766111 8.96857590 1.17681960
Al 2.92384678 2.24862000 3.38282143
Al 3.30207955 6.74586000 3.32317807
In 0.00000000 2.24862000 -1.124397639999998 0 0 0
In 0.00000000 6.74586000 -1.124397639999998 0 0 0
In 3.18003000 4.49724000 -3.3729254500000003 0 0 0
In 3.18003000 0.00000000 -3.3729254500000003 0 0 0
In 0.19391823 6.74586000 4.19536187
In 0.42695083 2.24862000 4.65753103
In 3.29832712 8.99439006 1.15622526
In 3.29832712 4.49724000 1.15622526
Cu 1.59001500 0.00000000 -1.124397639999998 0 0 0
Cu 1.59001500 4.49724000 -1.124397639999998 0 0 0
Cu 4.77004500 2.24862000 -3.3729254500000003 0 0 0
Cu 4.77004500 6.74586000 -3.3729254500000003 0 0 0
Cu 1.65813124 4.59393066 3.30552578
Cu 1.65813124 8.89778934 3.30552578
Cu 5.17340001 6.74586000 1.58576441
Cu 5.40077215 2.24862000 1.82407038
Pd 4.77004500 0.00000000 -1.124397639999998 0 0 0
Pd 4.77004500 4.49724000 -1.124397639999998 0 0 0
Pd 1.59001500 2.24862000 -3.3729254500000003 0 0 0
Pd 1.59001500 6.74586000 -3.3729254500000003 0 0 0
Pd 4.97757376 4.51064178 3.31756144
Pd 4.97751016 8.98107822 3.31756144
Pd 1.58174692 6.74586000 1.13803804
Pd 1.63459902 2.24862000 1.14365468
C 4.79427683 2.24862000 3.73479748
