&CONTROL
calculation = 'relax'
prefix = 'scf'
pseudo_dir = '/vol0004/mdt0/data/hp150275/u10028/POT_KKJUS'
outdir = './data'
tprnfor = .true.
nstep = 50
disk_io = 'non'
/
&SYSTEM
ibrav = 0
ecutwfc = 50.0
ecutrho = 400
occupations = 'smearing'
smearing = 'mp'
degauss = 0.01
assume_isolated = 'esm'
esm_bc = 'bc1'
input_dft = 'BEEF-VDW'
nosym = .true.
nspin = 1
ntyp = 2
nat = 32
/
&ELECTRONS
electron_maxstep = 200
mixing_beta = 0.1
conv_thr = 1e-06
/
&IONS
ion_dynamics = 'bfgs'
upscale = 1.0
/
&CELL
/

K_POINTS {automatic}
8 6 1 0 0 0

ATOMIC_SPECIES
Be 9.012 Be.pbe-n-rrkjus_psl.1.0.0.UPF
Cu 63.54 Cu.pbe-dn-rrkjus_psl.1.0.0.UPF

CELL_PARAMETERS {angstrom}
5.39777000 0.00000000 0.00000000
0.00000000 7.63360000 0.00000000
0.00000000 0.00000000 25.72520000

ATOMIC_POSITIONS {angstrom}
Be 0.00000000 0.00000000 -2.8627002600000004 0 0 0
Be 0.00000000 1.90840000 -0.9541476700000011 0 0 0
Be 5.39771602 0.00000000 0.98964844
Be 5.39766204 1.90840000 2.79221321
Be 0.00000000 3.81680000 -2.8627002600000004 0 0 0
Be 0.00000000 5.72520000 -0.9541476700000011 0 0 0
Be 0.00000000 3.81687634 0.98990570
Be 5.39766204 5.72512366 2.79221321
Be 2.69888500 0.00000000 -2.8627002600000004 0 0 0
Be 2.69888500 1.90840000 -0.9541476700000011 0 0 0
Be 2.69893898 0.00007634 0.98964844
Be 2.69893898 1.90840000 2.79221321
Be 2.69888500 3.81680000 -2.8627002600000004 0 0 0
Be 2.69888500 5.72520000 -0.9541476700000011 0 0 0
Be 2.69888500 3.81687634 0.98990570
Be 2.69899296 5.72512366 2.79221321
Cu 1.34944250 1.90840000 -2.8627002600000004 0 0 0
Cu 1.34944250 0.00000000 -0.9541476700000011 0 0 0
Cu 1.34944250 1.90840000 0.92044766
Cu 1.34949648 0.00000000 2.86707354
Cu 1.34944250 5.72520000 -2.8627002600000004 0 0 0
Cu 1.34944250 3.81680000 -0.9541476700000011 0 0 0
Cu 1.34949648 5.72535267 0.92044766
Cu 1.34949648 3.81680000 2.86733079
Cu 4.04832750 1.90840000 -2.8627002600000004 0 0 0
Cu 4.04832750 0.00000000 -0.9541476700000011 0 0 0
Cu 4.04827352 1.90840000 0.92019040
Cu 4.04827352 0.00000000 2.86707354
Cu 4.04832750 5.72520000 -2.8627002600000004 0 0 0
Cu 4.04832750 3.81680000 -0.9541476700000011 0 0 0
Cu 4.04832750 5.72527634 0.92019040
Cu 4.04827352 3.81672366 2.86733079
