&CONTROL
calculation = 'relax'
prefix = 'scf'
pseudo_dir = '/vol0004/mdt0/data/hp150275/u10028/POT_KKJUS'
outdir = './data'
tprnfor = .true.
nstep = 50
disk_io = 'non'
/
&SYSTEM
ibrav = 0
ecutwfc = 50.0
ecutrho = 400
occupations = 'smearing'
smearing = 'mp'
degauss = 0.01
assume_isolated = 'esm'
esm_bc = 'bc1'
input_dft = 'BEEF-VDW'
nosym = .true.
nspin = 1
ntyp = 5
nat = 34
/
&ELECTRONS
electron_maxstep = 200
mixing_beta = 0.1
conv_thr = 1e-06
/
&IONS
ion_dynamics = 'bfgs'
upscale = 1.0
/
&CELL
/

K_POINTS {automatic}
9 6 2 0  0  0

ATOMIC_SPECIES
C 12.01 C.pbe-n-rrkjus_psl.1.0.0.UPF
Ga 69.72 Ga.pbe-dnl-rrkjus_psl.1.0.0.UPF
Ir 192.2 Ir.pbe-n-rrkjus_psl.0.2.3.UPF
Li 6.941 Li.pbe-sl-rrkjus_psl.1.0.0.UPF
O 15.99 O.pbe-n-rrkjus_psl.1.0.0.UPF

CELL_PARAMETERS {angstrom}
6.11439000 0.00000000 0.00000000
0.00000000 8.64705000 0.00000000
0.00000000 0.00000000 26.48530000

ATOMIC_POSITIONS {angstrom}
Li 0.00000000 0.00000000 -3.2425952799999997 0 0 0
Li 3.05719500 2.16176250 -1.0808650899999996 0 0 0
Li 3.05719500 6.48528750 -1.0808650899999996 0 0 0
Li 0.00000000 4.32352500 -3.2425952799999997 0 0 0
Li 0.00000000 4.31064090 1.04802332
Li 3.05719500 6.48528750 3.55114902
Li 3.05719500 2.16176250 3.98418368
Li 0.00000000 0.01288410 1.04802332
Ga 1.52859750 0.00000000 -1.0808650899999996 0 0 0
Ga 4.58579250 4.32352500 -1.0808650899999996 0 0 0
Ga 4.58579250 0.00000000 -1.0808650899999996 0 0 0
Ga 1.52859750 4.32352500 -1.0808650899999996 0 0 0
Ga 4.58579250 6.48528750 -3.2425952799999997 0 0 0
Ga 1.52859750 2.16176250 -3.2425952799999997 0 0 0
Ga 1.52859750 6.48528750 -3.2425952799999997 0 0 0
Ga 4.58579250 2.16176250 -3.2425952799999997 0 0 0
Ga 1.44238460 4.31885559 3.33926662
Ga 4.67200540 0.00466941 3.33926662
Ga 4.67200540 4.31885559 3.33926662
Ga 1.44238460 0.00466941 3.33926662
Ga 4.52813380 2.16176250 1.13436540
Ga 1.54963100 6.48528750 1.11556084
Ga 1.58625620 2.16176250 1.13436540
Ga 4.56475900 6.48528750 1.11556084
Ir 0.00000000 6.48528750 -1.0808650899999996 0 0 0
Ir 3.05719500 0.00000000 -3.2425952799999997 0 0 0
Ir 0.00000000 2.16176250 -1.0808650899999996 0 0 0
Ir 3.05719500 4.32352500 -3.2425952799999997 0 0 0
Ir 0.00000000 2.16176250 3.09348304
Ir 3.05719500 4.33934910 0.98048581
Ir 0.00000000 6.48528750 3.11069848
Ir 3.05719500 8.63122590 0.98048581
C 3.05719500 2.16176250 6.12816871
O 3.05719500 2.16176250 7.26518264
