&CONTROL
calculation = 'relax'
prefix = 'scf'
pseudo_dir = '/vol0004/mdt0/data/hp150275/u10028/POT_KKJUS'
outdir = './data'
tprnfor = .true.
nstep = 50
disk_io = 'non'
/
&SYSTEM
ibrav = 0
ecutwfc = 50.0
ecutrho = 400
occupations = 'smearing'
smearing = 'mp'
degauss = 0.01
assume_isolated = 'esm'
esm_bc = 'bc1'
input_dft = 'BEEF-VDW'
nosym = .true.
nspin = 1
ntyp = 3
nat = 17
/
&ELECTRONS
electron_maxstep = 200
mixing_beta = 0.1
conv_thr = 1e-06
/
&IONS
ion_dynamics = 'bfgs'
upscale = 1.0
/
&CELL
/

K_POINTS {automatic}
10 10 2 0  0  0

ATOMIC_SPECIES
C 12.01 C.pbe-n-rrkjus_psl.1.0.0.UPF
Li 6.941 Li.pbe-sl-rrkjus_psl.1.0.0.UPF
Pd 106.4 Pd.pbe-n-rrkjus_psl.1.0.0.UPF

CELL_PARAMETERS {angstrom}
6.06651000 0.00000000 0.00000000
-0.00000000 6.06651000 0.00000000
0.00000000 0.00000000 24.54990000

ATOMIC_POSITIONS {angstrom}
Li 0.00000000 0.00000000 -2.9403415200000005 0 0 0
Li 0.00000000 0.00000000 0.09279862
Li 0.00000000 3.03325500 -2.9403415200000005 0 0 0
Li 0.00000000 3.03325500 0.09279862
Li 3.03325500 0.00000000 -2.9403415200000005 0 0 0
Li 3.03325500 -0.00000000 0.09279862
Li 3.03325500 3.03325500 -2.9403415200000005 0 0 0
Li 3.03325500 3.03325500 0.09279862
Pd 1.51662750 1.51662750 -1.4238941999999994 0 0 0
Pd 1.51662750 1.51662750 1.60949144
Pd 1.51662750 4.54988250 -1.4238941999999994 0 0 0
Pd 1.51662750 4.54988250 1.60949144
Pd 4.54988250 1.51662750 -1.4238941999999994 0 0 0
Pd 4.54988250 1.51662750 1.60949144
Pd 4.54988250 4.54988250 -1.4238941999999994 0 0 0
Pd 4.54988250 4.54988250 1.60949144
C 0.00000000 0.00000000 2.40957269
