&CONTROL
calculation = 'relax'
prefix = 'scf'
pseudo_dir = '/vol0403/data/hp230205/u10028/POT_HYBRID_KKJUS_GBRV'
outdir = './data'
tprnfor = .true.
nstep = 50
disk_io = 'non'
/
&SYSTEM
ibrav = 0
ecutwfc = 50.0
ecutrho = 400
occupations = 'smearing'
smearing = 'mp'
degauss = 0.01
assume_isolated = 'esm'
esm_bc = 'bc1'
input_dft = 'BEEF-VDW'
nosym = .true.
nspin = 1
ntyp = 6
nat = 34
/
&ELECTRONS
electron_maxstep = 200
mixing_beta = 0.1
conv_thr = 1e-06
/
&IONS
ion_dynamics = 'bfgs'
upscale = 1.0
/
&CELL
/

K_POINTS {automatic}
6 6 1 0 0 0

ATOMIC_SPECIES
C 12.01 C.pbe-n-rrkjus_psl.1.0.0.UPF
In 114.8 In.pbe-dn-rrkjus_psl.1.0.0.UPF
Li 6.941 Li.pbe-sl-rrkjus_psl.1.0.0.UPF
O 15.99 O.pbe-n-rrkjus_psl.1.0.0.UPF
Pd 106.4 Pd.pbe-n-rrkjus_psl.1.0.0.UPF
Sc 44.95 Sc.pbe-spn-rrkjus_psl.1.0.0.UPF


CELL_PARAMETERS {angstrom}
6.59012000 0.00000000 0.00000000
0.00000000 9.31984000 0.00000000
0.00000000 0.00000000 26.98990000

ATOMIC_POSITIONS {angstrom}
Li 4.94259000 0.00000000 -1.1648840800000002 0 0 0
Li 4.94259000 4.65992000 -1.1648840800000002 0 0 0
Li 1.64753000 2.32996000 -3.494922149999997 0 0 0
Li 1.64753000 6.98988000 -3.494922149999997 0 0 0
Li 4.39066745 4.56700120 4.86223048
Li 4.39046975 0.09282561 4.86250038
Li 1.73979168 6.98988000 1.20779802
Li 1.64805721 2.32996000 1.15705701
Sc 0.00000000 2.32996000 -1.1648840800000002 0 0 0
Sc 0.00000000 6.98988000 -1.1648840800000002 0 0 0
Sc 3.29506000 4.65992000 -3.494922149999997 0 0 0
Sc 3.29506000 0.00000000 -3.494922149999997 0 0 0
Sc 6.43334105 6.98988000 3.35916295
Sc 6.36664903 2.32996000 3.43986276
Sc 3.43220040 0.00484632 1.39780692
Sc 3.43213450 4.65516688 1.39780692
In 0.00000000 0.00000000 -3.494922149999997 0 0 0
In 0.00000000 4.65992000 -3.494922149999997 0 0 0
In 3.29506000 6.98988000 -1.1648840800000002 0 0 0
In 3.29506000 2.32996000 -1.1648840800000002 0 0 0
In 0.00593111 4.65870842 1.16731317
In 0.00593111 0.00130478 1.16731317
In 3.17867848 2.32996000 3.54566316
In 3.29861866 6.98978680 3.71084135
Pd 1.64753000 0.00000000 -1.1648840800000002 0 0 0
Pd 1.64753000 4.65992000 -1.1648840800000002 0 0 0
Pd 4.94259000 2.32996000 -3.494922149999997 0 0 0
Pd 4.94259000 6.98988000 -3.494922149999997 0 0 0
Pd 1.64515756 4.70260487 3.39155083
Pd 1.64515756 9.27706193 3.39155083
Pd 4.93165040 6.98988000 1.11630226
Pd 4.93435235 2.32996000 1.07014953
C 5.57339629 2.33005320 5.50162122
O 5.31690882 2.33023960 6.65948793
