&CONTROL
calculation = 'relax'
prefix = 'scf'
pseudo_dir = '/vol0004/mdt0/data/hp150275/u10028/POT_HYBRID_KKJUS_GBRV'
outdir = './data'
tprnfor = .true.
nstep = 50
disk_io = 'non'
/
&SYSTEM
ibrav = 0
ecutwfc = 50.0
ecutrho = 400
occupations = 'smearing'
smearing = 'mp'
degauss = 0.01
assume_isolated = 'esm'
esm_bc = 'bc1'
input_dft = 'BEEF-VDW'
nosym = .true.
nspin = 2
ntyp = 5
nat = 34
starting_magnetization(1) = 0.0
starting_magnetization(2) = 0.001
starting_magnetization(3) = 0.0
starting_magnetization(4) = 0.0
starting_magnetization(5) = 0.0
/
&ELECTRONS
electron_maxstep = 200
mixing_beta = 0.1
conv_thr = 1e-06
/
&IONS
ion_dynamics = 'bfgs'
upscale = 1.0
/
&CELL
/

K_POINTS {automatic}
9 6 2 0  0  0

ATOMIC_SPECIES
C 12.01 C.pbe-n-rrkjus_psl.1.0.0.UPF
Ni 58.69 ni_pbe_v1.4.uspp.F.UPF
O 15.99 O.pbe-n-rrkjus_psl.1.0.0.UPF
Sb 121.7 Sb.pbe-n-rrkjus_psl.1.0.0.UPF
Ti 47.86 Ti.pbe-spn-rrkjus_psl.1.0.0.UPF

CELL_PARAMETERS {angstrom}
6.14873000 0.00000000 0.00000000
0.00000000 8.69561000 0.00000000
0.00000000 0.00000000 26.52170000

ATOMIC_POSITIONS {angstrom}
Ti 0.00000000 0.00000000 23.26085699
Ti 3.07436500 2.17390250 25.43484073
Ti 3.07436500 6.52170750 25.43484073
Ti 0.00000000 4.34780500 23.26085699
Ti 0.00000000 4.34310937 1.13406789
Ti 3.07436500 6.52170750 3.18472574
Ti 3.07436500 2.17398946 3.19772137
Ti 0.00000000 0.00469563 1.13406789
Ni 1.53718250 0.00000000 25.43484073
Ni 4.61154750 4.34780500 25.43484073
Ni 4.61154750 0.00000000 25.43484073
Ni 1.53718250 4.34780500 25.43484073
Ni 4.61154750 6.52170750 23.26085699
Ni 1.53718250 2.17390250 23.26085699
Ni 1.53718250 6.52170750 23.26085699
Ni 4.61154750 2.17390250 23.26085699
Ni 1.66704368 4.35180498 3.09269544
Ni 4.48162484 8.69161002 3.09269544
Ni 4.48168632 4.35180498 3.09269544
Ni 1.66710516 8.69161002 3.09269544
Ni 4.63669581 2.17398946 1.17650261
Ni 1.35518009 6.52162054 1.29797200
Ni 1.51203419 2.17407641 1.17650261
Ni 4.79361140 6.52162054 1.29797200
Sb 0.00000000 6.52170750 25.43484073
Sb 3.07436500 0.00000000 23.26085699
Sb 0.00000000 2.17390250 25.43484073
Sb 3.07436500 4.34780500 23.26085699
Sb 0.00000000 2.17390250 3.47222096
Sb 3.07436500 4.39023958 1.00172461
Sb 0.00000000 6.52179446 3.66397285
Sb 3.07436500 8.65326238 1.00172461
C 6.14854554 2.17346772 7.40088039
O 0.00006149 2.17398946 8.53627436
