&CONTROL
calculation = 'relax'
prefix = 'scf'
pseudo_dir = '/vol0004/mdt0/data/hp150275/u10028/POT_KKJUS'
outdir = './data'
tprnfor = .true.
nstep = 50
disk_io = 'non'
/
&SYSTEM
ibrav = 0
ecutwfc = 50.0
ecutrho = 400
occupations = 'smearing'
smearing = 'mp'
degauss = 0.01
assume_isolated = 'esm'
esm_bc = 'bc1'
input_dft = 'BEEF-VDW'
nosym = .true.
nspin = 1
ntyp = 4
nat = 34
/
&ELECTRONS
electron_maxstep = 200
mixing_beta = 0.1
conv_thr = 1e-06
/
&IONS
ion_dynamics = 'bfgs'
upscale = 1.0
/
&CELL
/

K_POINTS {automatic}
7 7 2 0  0  0

ATOMIC_SPECIES
Ag 107.8 Ag.pbe-n-rrkjus_psl.1.0.0.UPF
C 12.01 C.pbe-n-rrkjus_psl.1.0.0.UPF
In 114.8 In.pbe-dn-rrkjus_psl.1.0.0.UPF
O 15.99 O.pbe-n-rrkjus_psl.1.0.0.UPF

CELL_PARAMETERS {angstrom}
8.59601000 0.00000000 0.00000000
0.00000000 8.59601000 0.00000000
0.00000000 0.00000000 26.44700000

ATOMIC_POSITIONS {angstrom}
In 8.59592404 0.00000000 3.42197733
In 0.00000000 0.00000000 -1.0745416100000007 0 0 0
In 0.00000000 4.29809096 3.55130316
In 0.00000000 4.29800500 -1.0745416100000007 0 0 0
In 4.29791904 0.00008596 3.55103869
In 4.29800500 0.00000000 -1.0745416100000007 0 0 0
In 4.29800500 4.29800500 3.49920257
In 4.29800500 4.29800500 -1.0745416100000007 0 0 0
Ag 8.59592404 2.16765584 1.08221124
Ag 2.16765584 0.00000000 1.08221124
Ag 2.14599390 2.14607986 3.17284659
Ag 0.00000000 2.14900250 -3.2236248299999986 0 0 0
Ag 2.14900250 0.00000000 -3.2236248299999986 0 0 0
Ag 2.14900250 2.14900250 -1.0745416100000007 0 0 0
Ag 0.00000000 6.42835416 1.08221124
Ag 2.15269878 4.29809096 1.09490580
Ag 2.14607986 6.45001610 3.17284659
Ag 0.00000000 6.44700750 -3.2236248299999986 0 0 0
Ag 2.14900250 4.29800500 -3.2236248299999986 0 0 0
Ag 2.14900250 6.44700750 -1.0745416100000007 0 0 0
Ag 4.29800500 2.15278474 1.09490580
Ag 6.42826820 0.00008596 1.08221124
Ag 6.44993014 2.14607986 3.17284659
Ag 4.29800500 2.14900250 -3.2236248299999986 0 0 0
Ag 6.44700750 0.00000000 -3.2236248299999986 0 0 0
Ag 6.44700750 2.14900250 -1.0745416100000007 0 0 0
Ag 4.29791904 6.44322526 1.09490580
Ag 6.44331122 4.29800500 1.09490580
Ag 6.44993014 6.44993014 3.17284659
Ag 4.29800500 6.44700750 -3.2236248299999986 0 0 0
Ag 6.44700750 4.29800500 -3.2236248299999986 0 0 0
Ag 6.44700750 6.44700750 -1.0745416100000007 0 0 0
C 0.00103152 8.59532232 7.50962565
O 8.59575212 0.00017192 8.64393748
