&CONTROL
calculation = 'relax'
prefix = 'scf'
pseudo_dir = '/vol0004/mdt0/data/hp150275/u10028/POT_KKJUS'
outdir = './data'
tprnfor = .true.
nstep = 50
disk_io = 'non'
/
&SYSTEM
ibrav = 0
ecutwfc = 50.0
ecutrho = 400
occupations = 'smearing'
smearing = 'mp'
degauss = 0.01
assume_isolated = 'esm'
esm_bc = 'bc1'
input_dft = 'BEEF-VDW'
nosym = .true.
nspin = 1
ntyp = 4
nat = 34
/
&ELECTRONS
electron_maxstep = 200
mixing_beta = 0.1
conv_thr = 1e-06
/
&IONS
ion_dynamics = 'bfgs'
upscale = 1.0
/
&CELL
/

K_POINTS {automatic}
7 7 2 0  0  0

ATOMIC_SPECIES
C 12.01 C.pbe-n-rrkjus_psl.1.0.0.UPF
O 15.99 O.pbe-n-rrkjus_psl.1.0.0.UPF
Rh 102.9 Rh.pbe-spn-rrkjus_psl.1.0.0.UPF
Ta 180.9 Ta.pbe-spn-rrkjus_psl.1.0.0.UPF

CELL_PARAMETERS {angstrom}
7.79956000 0.00000000 0.00000000
-0.00000000 7.79956000 0.00000000
0.00000000 0.00000000 25.84970000

ATOMIC_POSITIONS {angstrom}
Ta 0.00000000 0.00000000 2.92489355
Ta 0.00000000 0.00000000 -0.975050679999999 0 0 0
Ta 0.00000000 3.89978000 2.92489355
Ta 0.00000000 3.89978000 -0.975050679999999 0 0 0
Ta 3.89978000 -0.00000000 2.92489355
Ta 3.89978000 0.00000000 -0.975050679999999 0 0 0
Ta 3.89978000 3.89978000 2.92489355
Ta 3.89978000 3.89978000 -0.975050679999999 0 0 0
Rh 0.00000000 1.94989000 0.97505068
Rh 1.94989000 -0.00000000 0.97505068
Rh 1.94989000 1.94989000 2.92489355
Rh 0.00000000 1.94989000 -2.9248935599999974 0 0 0
Rh 1.94989000 0.00000000 -2.9248935599999974 0 0 0
Rh 1.94989000 1.94989000 -0.975050679999999 0 0 0
Rh 0.00000000 5.84967000 0.97505068
Rh 1.94989000 3.89978000 0.97505068
Rh 1.94989000 5.84967000 2.92489355
Rh 0.00000000 5.84967000 -2.9248935599999974 0 0 0
Rh 1.94989000 3.89978000 -2.9248935599999974 0 0 0
Rh 1.94989000 5.84967000 -0.975050679999999 0 0 0
Rh 3.89978000 1.94989000 0.97505068
Rh 5.84967000 -0.00000000 0.97505068
Rh 5.84967000 1.94989000 2.92489355
Rh 3.89978000 1.94989000 -2.9248935599999974 0 0 0
Rh 5.84967000 0.00000000 -2.9248935599999974 0 0 0
Rh 5.84967000 1.94989000 -0.975050679999999 0 0 0
Rh 3.89978000 5.84967000 0.97505068
Rh 5.84967000 3.89978000 0.97505068
Rh 5.84967000 5.84967000 2.92489355
Rh 3.89978000 5.84967000 -2.9248935599999974 0 0 0
Rh 5.84967000 3.89978000 -2.9248935599999974 0 0 0
Rh 5.84967000 5.84967000 -0.975050679999999 0 0 0
C 1.94989000 1.94989000 4.82484651
O 1.94989000 1.94989000 5.97489966
