&CONTROL
calculation = 'relax'
prefix = 'scf'
pseudo_dir = '/vol0004/mdt0/data/hp150275/u10028/POT_KKJUS'
outdir = './data'
tprnfor = .true.
nstep = 50
disk_io = 'non'
/
&SYSTEM
ibrav = 0
ecutwfc = 50.0
ecutrho = 400
occupations = 'smearing'
smearing = 'mp'
degauss = 0.01
assume_isolated = 'esm'
esm_bc = 'bc1'
input_dft = 'BEEF-VDW'
nosym = .true.
nspin = 1
ntyp = 3
nat = 17
/
&ELECTRONS
electron_maxstep = 200
mixing_beta = 0.1
conv_thr = 1e-06
/
&IONS
ion_dynamics = 'bfgs'
upscale = 1.0
/
&CELL
/

K_POINTS {automatic}
6 8 1 0 0 0

ATOMIC_SPECIES
C 12.01 C.pbe-n-rrkjus_psl.1.0.0.UPF
Ga 69.72 Ga.pbe-dnl-rrkjus_psl.1.0.0.UPF
Ni 58.69 Ni.pbe-spn-rrkjus_psl.1.0.0.UPF

CELL_PARAMETERS {angstrom}
7.23991000 0.00000000 0.00000000
0.00000000 5.11939000 0.00000000
0.00000000 0.00000000 23.83950000

ATOMIC_POSITIONS {angstrom}
Ga 0.00000000 0.00000000 -1.919794930000002 0 0 0
Ga 0.00028960 2.55969500 0.35163262
Ga 3.61995500 0.00000000 -1.919794930000002 0 0 0
Ga 3.61952061 2.55969500 1.00626529
Ni 0.00000000 2.55969500 -1.919794930000002 0 0 0
Ni 1.80997750 3.83954250 -0.6398521800000019 0 0 0
Ni 1.80997750 1.27984750 -0.6398521800000019 0 0 0
Ni 0.00021720 0.00000000 0.48036593
Ni 1.36624342 1.30539326 1.98702232
Ni 1.36624342 3.81399674 1.98702232
Ni 3.61995500 2.55969500 -1.919794930000002 0 0 0
Ni 5.42993250 3.83954250 -0.6398521800000019 0 0 0
Ni 5.42993250 1.27984750 -0.6398521800000019 0 0 0
Ni 3.61973780 0.00000000 0.81197337
Ni 5.87395618 1.30539326 1.98654554
Ni 5.87431818 3.81399674 1.98654554
C 0.00028960 2.55969500 2.50624664
