&CONTROL
calculation = 'relax'
prefix = 'scf'
pseudo_dir = '/vol0004/mdt0/data/hp150275/u10028/POT_KKJUS'
outdir = './data'
tprnfor = .true.
nstep = 50
disk_io = 'non'
/
&SYSTEM
ibrav = 0
ecutwfc = 50.0
ecutrho = 400
occupations = 'smearing'
smearing = 'mp'
degauss = 0.01
assume_isolated = 'esm'
esm_bc = 'bc1'
input_dft = 'BEEF-VDW'
nosym = .true.
nspin = 1
ntyp = 2
nat = 32
/
&ELECTRONS
electron_maxstep = 200
mixing_beta = 0.1
conv_thr = 1e-06
/
&IONS
ion_dynamics = 'bfgs'
upscale = 1.0
/
&CELL
/

K_POINTS {automatic}
9 6 2 0  0  0

ATOMIC_SPECIES
Ga 69.72 Ga.pbe-dnl-rrkjus_psl.1.0.0.UPF
Ni 58.69 Ni.pbe-spn-rrkjus_psl.1.0.0.UPF

CELL_PARAMETERS {angstrom}
5.87849000 0.00000000 0.00000000
0.00000000 8.31345000 0.00000000
0.00000000 0.00000000 26.23510000

ATOMIC_POSITIONS {angstrom}
Ga 0.00000000 0.00000000 -3.1175169300000007 0 0 0
Ga 0.00000000 2.07836250 -1.0391723099999979 0 0 0
Ga 0.00000000 8.31336687 1.05701218
Ga 0.00000000 2.07861190 3.27571459
Ga 0.00000000 4.15672500 -3.1175169300000007 0 0 0
Ga 0.00000000 6.23508750 -1.0391723099999979 0 0 0
Ga 0.00000000 4.15672500 1.05701218
Ga 0.00000000 6.23483810 3.27571459
Ga 2.93924500 0.00000000 -3.1175169300000007 0 0 0
Ga 2.93924500 2.07836250 -1.0391723099999979 0 0 0
Ga 2.93924500 8.31336687 1.05701218
Ga 2.93924500 2.07861190 3.27571459
Ga 2.93924500 4.15672500 -3.1175169300000007 0 0 0
Ga 2.93924500 6.23508750 -1.0391723099999979 0 0 0
Ga 2.93924500 4.15672500 1.05701218
Ga 2.93924500 6.23483810 3.27571459
Ni 1.46962250 2.07836250 -3.1175169300000007 0 0 0
Ni 1.46962250 0.00000000 -1.0391723099999979 0 0 0
Ni 1.46956372 2.07836250 0.98355390
Ni 1.46962250 0.00000000 3.02333292
Ni 1.46962250 6.23508750 -3.1175169300000007 0 0 0
Ni 1.46962250 4.15672500 -1.0391723099999979 0 0 0
Ni 1.46968128 6.23508750 0.98512800
Ni 1.46956372 4.15664187 3.02280822
Ni 4.40886750 2.07836250 -3.1175169300000007 0 0 0
Ni 4.40886750 0.00000000 -1.0391723099999979 0 0 0
Ni 4.40880872 2.07827937 0.98407860
Ni 4.40892628 0.00000000 3.02307057
Ni 4.40886750 6.23508750 -3.1175169300000007 0 0 0
Ni 4.40886750 4.15672500 -1.0391723099999979 0 0 0
Ni 4.40886750 6.23500437 0.98434095
Ni 4.40892628 4.15680813 3.02280822
