&CONTROL
calculation = 'relax'
prefix = 'scf'
pseudo_dir = '/vol0403/data/hp230205/u10028/POT_HYBRID_KKJUS_GBRV'
outdir = './data'
tprnfor = .true.
nstep = 50
disk_io = 'non'
/
&SYSTEM
ibrav = 0
ecutwfc = 50.0
ecutrho = 400
occupations = 'smearing'
smearing = 'mp'
degauss = 0.01
assume_isolated = 'esm'
esm_bc = 'bc1'
input_dft = 'BEEF-VDW'
nosym = .true.
nspin = 1
ntyp = 5
nat = 33
/
&ELECTRONS
electron_maxstep = 200
mixing_beta = 0.1
conv_thr = 1e-06
/
&IONS
ion_dynamics = 'bfgs'
upscale = 1.0
/
&CELL
/

K_POINTS {automatic}
6 6 1 0 0 0

ATOMIC_SPECIES
C 12.01 C.pbe-n-rrkjus_psl.1.0.0.UPF
Hf 178.4 Hf.pbe-spn-rrkjus_psl.1.0.0.UPF
In 114.8 In.pbe-dn-rrkjus_psl.1.0.0.UPF
Li 6.941 Li.pbe-sl-rrkjus_psl.1.0.0.UPF
Pd 106.4 Pd.pbe-n-rrkjus_psl.1.0.0.UPF


CELL_PARAMETERS {angstrom}
6.51419000 0.00000000 0.00000000
0.00000000 9.21246000 0.00000000
0.00000000 0.00000000 26.90930000

ATOMIC_POSITIONS {angstrom}
Li 4.88564250 0.00000000 -1.1514489500000025 0 0 0
Li 4.88564250 4.60623000 -1.1514489500000025 0 0 0
Li 1.62854750 2.30311500 -3.4546159300000028 0 0 0
Li 1.62854750 6.90934500 -3.4546159300000028 0 0 0
Li 5.07943965 4.35675658 5.01643171
Li 5.07924423 0.24938129 5.01643171
Li 1.55402517 6.90934500 1.20930394
Li 1.55806396 2.30311500 1.20419118
Hf 0.00000000 0.00000000 -3.4546159300000028 0 0 0
Hf 0.00000000 4.60623000 -3.4546159300000028 0 0 0
Hf 3.25709500 6.90934500 -1.1514489500000025 0 0 0
Hf 3.25709500 2.30311500 -1.1514489500000025 0 0 0
Hf 6.43491231 4.62419430 1.32582121
Hf 6.43491231 9.19449570 1.32582121
Hf 3.35943292 2.30311500 3.35908792
Hf 3.36972535 6.90934500 3.32222218
In 0.00000000 2.30311500 -1.1514489500000025 0 0 0
In 0.00000000 6.90934500 -1.1514489500000025 0 0 0
In 3.25709500 4.60623000 -3.4546159300000028 0 0 0
In 3.25709500 0.00000000 -3.4546159300000028 0 0 0
In 6.36827214 6.90934500 3.72478531
In 0.10116537 2.30311500 3.67877040
In 3.27325019 0.00912034 1.13772520
In 3.27325019 4.59710966 1.13772520
Pd 1.62854750 0.00000000 -1.1514489500000025 0 0 0
Pd 1.62854750 4.60623000 -1.1514489500000025 0 0 0
Pd 4.88564250 2.30311500 -3.4546159300000028 0 0 0
Pd 4.88564250 6.90934500 -3.4546159300000028 0 0 0
Pd 1.67616623 4.70388208 3.37361894
Pd 1.67623137 9.11480792 3.37361894
Pd 4.88824818 6.90934500 1.12400146
Pd 4.93241438 2.30311500 1.08659753
C 4.70897767 2.30311500 4.79712091
