&CONTROL
calculation = 'relax'
prefix = 'scf'
pseudo_dir = '/vol0403/data/hp230205/u10028/POT_HYBRID_KKJUS_GBRV'
outdir = './data'
tprnfor = .true.
nstep = 50
disk_io = 'non'
/
&SYSTEM
ibrav = 0
ecutwfc = 50.0
ecutrho = 400
occupations = 'smearing'
smearing = 'mp'
degauss = 0.01
assume_isolated = 'esm'
esm_bc = 'bc1'
input_dft = 'BEEF-VDW'
nosym = .true.
nspin = 1
ntyp = 5
nat = 33
/
&ELECTRONS
electron_maxstep = 200
mixing_beta = 0.1
conv_thr = 1e-06
/
&IONS
ion_dynamics = 'bfgs'
upscale = 1.0
/
&CELL
/

K_POINTS {automatic}
6 6 1 0 0 0

ATOMIC_SPECIES
C 12.01 C.pbe-n-rrkjus_psl.1.0.0.UPF
Ge 72.64 Ge.pbe-dn-rrkjus_psl.1.0.0.UPF
Li 6.941 Li.pbe-sl-rrkjus_psl.1.0.0.UPF
Pd 106.4 Pd.pbe-n-rrkjus_psl.1.0.0.UPF
Zr 91.22 Zr.pbe-spn-rrkjus_psl.1.0.0.UPF


CELL_PARAMETERS {angstrom}
6.47880000 0.00000000 0.00000000
0.00000000 9.16240000 0.00000000
0.00000000 0.00000000 26.87180000

ATOMIC_POSITIONS {angstrom}
Li 1.61970000 0.00000000 -1.145276120000002 0 0 0
Li 1.61970000 4.58120000 -1.145276120000002 0 0 0
Li 4.85910000 2.29060000 -3.4358283500000013 0 0 0
Li 4.85910000 6.87180000 -3.4358283500000013 0 0 0
Li 1.31396543 4.67383186 3.84293612
Li 1.42851061 0.43613024 3.82573817
Li 4.84853956 6.89974532 1.04531302
Li 4.81705259 2.15994418 1.06842277
Zr 4.85910000 0.00000000 -1.145276120000002 0 0 0
Zr 4.85910000 4.58120000 -1.145276120000002 0 0 0
Zr 1.61970000 2.29060000 -3.4358283500000013 0 0 0
Zr 1.61970000 6.87180000 -3.4358283500000013 0 0 0
Zr 4.41413602 5.29430959 3.56642530
Zr 4.61271124 0.14091771 3.18511445
Zr 1.74227890 6.62606443 1.29763922
Zr 1.42280927 2.27594016 1.36723718
Ge 0.00000000 0.00000000 -3.4358283500000013 0 0 0
Ge 0.00000000 4.58120000 -3.4358283500000013 0 0 0
Ge 3.23940000 6.87180000 -1.145276120000002 0 0 0
Ge 3.23940000 2.29060000 -1.145276120000002 0 0 0
Ge 6.22832959 4.62142294 1.39706488
Ge 0.12601266 8.88908561 1.07567815
Ge 3.21290171 2.70868031 3.54035965
Ge 2.59702698 7.21932983 3.94692998
Pd 0.00000000 2.29060000 -1.145276120000002 0 0 0
Pd 0.00000000 6.87180000 -1.145276120000002 0 0 0
Pd 3.23940000 4.58120000 -3.4358283500000013 0 0 0
Pd 3.23940000 0.00000000 -3.4358283500000013 0 0 0
Pd 6.43467937 7.08400118 3.29098935
Pd 5.75822786 2.92821142 3.35628782
Pd 3.05086692 9.08717670 0.98135814
Pd 3.39767708 4.38823986 1.21191818
C 6.40941205 1.09646441 2.52568048
