&CONTROL
calculation = 'relax'
prefix = 'scf'
pseudo_dir = '/vol0403/data/hp230205/u10028/POT_HYBRID_KKJUS_GBRV'
outdir = './data'
tprnfor = .true.
nstep = 50
disk_io = 'non'
/
&SYSTEM
ibrav = 0
ecutwfc = 50.0
ecutrho = 400
occupations = 'smearing'
smearing = 'mp'
degauss = 0.01
assume_isolated = 'esm'
esm_bc = 'bc1'
input_dft = 'BEEF-VDW'
nosym = .true.
nspin = 1
ntyp = 4
nat = 16
/
&ELECTRONS
electron_maxstep = 200
mixing_beta = 0.1
conv_thr = 1e-06
/
&IONS
ion_dynamics = 'bfgs'
upscale = 1.0
/
&CELL
/

K_POINTS {automatic}
8 8 1 0 0 0

ATOMIC_SPECIES
Ge 72.64 Ge.pbe-dn-rrkjus_psl.1.0.0.UPF
Li 6.941 Li.pbe-sl-rrkjus_psl.1.0.0.UPF
Pd 106.4 Pd.pbe-n-rrkjus_psl.1.0.0.UPF
Pt 195.0 Pt.pbe-n-rrkjus_psl.1.0.0.UPF


CELL_PARAMETERS {angstrom}
6.12898000 0.00000000 0.00000000
0.00000000 6.12898000 0.00000000
0.00000000 0.00000000 24.59670000

ATOMIC_POSITIONS {angstrom}
Li 0.00000000 3.06449000 -2.2983156499999993 0 0 0
Li 0.00000000 0.00000000 0.85916273
Li 3.06449000 3.06449000 0.85571919
Li 3.06449000 0.00000000 -2.2983156499999993 0 0 0
Ge 0.00000000 0.00000000 -2.2983156499999993 0 0 0
Ge 0.00000000 3.06449000 0.91696498
Ge 3.06449000 0.00000000 0.91696498
Ge 3.06449000 3.06449000 -2.2983156499999993 0 0 0
Pd 4.59673500 1.53224500 -0.7661872099999982 0 0 0
Pd 4.59599952 4.59599952 2.34283567
Pd 1.53298048 1.53298048 2.34283567
Pd 1.53224500 4.59673500 -0.7661872099999982 0 0 0
Pt 1.53224500 1.53224500 -0.7661872099999982 0 0 0
Pt 1.53316435 4.59581565 2.23190456
Pt 4.59581565 1.53316435 2.23190456
Pt 4.59673500 4.59673500 -0.7661872099999982 0 0 0
