&CONTROL
calculation = 'relax'
prefix = 'scf'
pseudo_dir = '/vol0004/mdt0/data/hp150275/u10028/POT_HYBRID_KKJUS_GBRV'
outdir = './data'
tprnfor = .true.
nstep = 50
disk_io = 'non'
/
&SYSTEM
ibrav = 0
ecutwfc = 50.0
ecutrho = 400
occupations = 'smearing'
smearing = 'mp'
degauss = 0.01
assume_isolated = 'esm'
esm_bc = 'bc1'
input_dft = 'BEEF-VDW'
nosym = .true.
nspin = 2
ntyp = 4
nat = 18
starting_magnetization(1) = 0.1
starting_magnetization(2) = 0.1
starting_magnetization(3) = 0.1
starting_magnetization(4) = 0.1
/
&ELECTRONS
electron_maxstep = 200
mixing_beta = 0.1
conv_thr = 1e-06
/
&IONS
ion_dynamics = 'bfgs'
upscale = 1.0
/
&CELL
/

K_POINTS {automatic}
10 10 2 0  0  0

ATOMIC_SPECIES
C 12.01 C.pbe-n-rrkjus_psl.1.0.0.UPF
Co 58.93 co_pbe_v1.2.uspp.F.UPF
Fe 55.84 fe_pbe_v1.5.uspp.F.UPF
O 15.99 O.pbe-n-rrkjus_psl.1.0.0.UPF

CELL_PARAMETERS {angstrom}
5.71351000 0.00000000 0.00000000
-0.00000000 5.71351000 0.00000000
0.00000000 0.00000000 24.28510000

ATOMIC_POSITIONS {angstrom}
Fe 0.00000000 0.00000000 -2.1618595999999997 0 0 0
Fe 0.00000000 0.00000000 0.69503956
Fe 0.00000000 2.85675500 -2.1618595999999997 0 0 0
Fe 0.00000000 2.85675500 0.69503956
Fe 2.85675500 0.00000000 -2.1618595999999997 0 0 0
Fe 2.85675500 -0.00000000 0.69503956
Fe 2.85675500 2.85675500 -2.1618595999999997 0 0 0
Fe 2.85675500 2.85675500 0.69503956
Co 1.42837750 1.42837750 -0.7334100200000009 0 0 0
Co 1.42837750 1.42837750 2.12324629
Co 1.42837750 4.28513250 -0.7334100200000009 0 0 0
Co 1.42837750 4.28513250 2.12324629
Co 4.28513250 1.42837750 -0.7334100200000009 0 0 0
Co 4.28513250 1.42837750 2.12324629
Co 4.28513250 4.28513250 -0.7334100200000009 0 0 0
Co 4.28513250 4.28513250 2.12324629
C 1.42837750 1.42837750 4.02331252
O 1.42837750 1.42837750 5.17345485
