&CONTROL
calculation = 'relax'
prefix = 'scf'
pseudo_dir = '/vol0004/mdt0/data/hp150275/u10028/POT_KKJUS'
outdir = './data'
tprnfor = .true.
nstep = 50
disk_io = 'non'
/
&SYSTEM
ibrav = 0
ecutwfc = 50.0
ecutrho = 400
occupations = 'smearing'
smearing = 'mp'
degauss = 0.01
assume_isolated = 'esm'
esm_bc = 'bc1'
input_dft = 'BEEF-VDW'
nosym = .true.
nspin = 1
ntyp = 5
nat = 34
/
&ELECTRONS
electron_maxstep = 200
mixing_beta = 0.1
conv_thr = 1e-06
/
&IONS
ion_dynamics = 'bfgs'
upscale = 1.0
/
&CELL
/

K_POINTS {automatic}
9 6 2 0  0  0

ATOMIC_SPECIES
C 12.01 C.pbe-n-rrkjus_psl.1.0.0.UPF
Ge 72.64 Ge.pbe-dn-rrkjus_psl.1.0.0.UPF
Ni 58.69 Ni.pbe-spn-rrkjus_psl.1.0.0.UPF
O 15.99 O.pbe-n-rrkjus_psl.1.0.0.UPF
Zn 65.40 Zn.pbe-dnl-rrkjus_psl.1.0.0.UPF

CELL_PARAMETERS {angstrom}
5.89777000 0.00000000 0.00000000
0.00000000 8.34071000 0.00000000
0.00000000 0.00000000 26.25550000

ATOMIC_POSITIONS {angstrom}
Zn 0.00000000 0.00000000 -3.127817710000002 0 0 0
Zn 2.94888500 2.08517750 -1.0426059100000025 0 0 0
Zn 2.94888500 6.25553250 -1.0426059100000025 0 0 0
Zn 0.00000000 4.17035500 -3.127817710000002 0 0 0
Zn 0.00000000 4.12014393 0.93390814
Zn 2.94888500 6.25544909 3.26565909
Zn 2.94888500 2.08517750 3.30819300
Zn 5.89771102 0.05037789 0.93417069
Ni 1.47444250 0.00000000 -1.0426059100000025 0 0 0
Ni 4.42332750 4.17035500 -1.0426059100000025 0 0 0
Ni 4.42332750 0.00000000 -1.0426059100000025 0 0 0
Ni 1.47444250 4.17035500 -1.0426059100000025 0 0 0
Ni 4.42332750 6.25553250 -3.127817710000002 0 0 0
Ni 1.47444250 2.08517750 -3.127817710000002 0 0 0
Ni 1.47444250 6.25553250 -3.127817710000002 0 0 0
Ni 4.42332750 2.08517750 -3.127817710000002 0 0 0
Ni 1.38857097 4.20980656 2.92197460
Ni 4.50902210 8.30159207 2.92223715
Ni 4.50919903 4.20972315 2.92197460
Ni 1.38868892 8.30159207 2.92223715
Ni 4.34193827 2.08526091 1.12636095
Ni 1.45492088 6.25578272 0.99639623
Ni 1.55589070 2.08526091 1.12609840
Ni 4.44261321 6.25561591 0.99639623
Ge 0.00000000 6.25553250 -1.0426059100000025 0 0 0
Ge 2.94888500 0.00000000 -3.127817710000002 0 0 0
Ge 0.00000000 2.08517750 -1.0426059100000025 0 0 0
Ge 2.94888500 4.17035500 -3.127817710000002 0 0 0
Ge 0.00005898 2.08501069 3.15039745
Ge 2.94882602 4.19637802 1.04838212
Ge 0.00000000 6.25561591 3.15276044
Ge 2.94894398 8.31477039 1.04811956
C 2.94888500 2.08517750 5.40390701
O 2.94900296 2.08526091 6.54575871
