&CONTROL
calculation = 'relax'
prefix = 'scf'
pseudo_dir = '/vol0403/data/hp230205/u10028/POT_HYBRID_KKJUS_GBRV'
outdir = './data'
tprnfor = .true.
nstep = 50
disk_io = 'non'
/
&SYSTEM
ibrav = 0
ecutwfc = 50.0
ecutrho = 400
occupations = 'smearing'
smearing = 'mp'
degauss = 0.01
assume_isolated = 'esm'
esm_bc = 'bc1'
input_dft = 'BEEF-VDW'
nosym = .true.
nspin = 1
ntyp = 6
nat = 18
/
&ELECTRONS
electron_maxstep = 200
mixing_beta = 0.1
conv_thr = 1e-06
/
&IONS
ion_dynamics = 'bfgs'
upscale = 1.0
/
&CELL
/

K_POINTS {automatic}
7 10 2 0  0  0

ATOMIC_SPECIES
C 12.01 C.pbe-n-rrkjus_psl.1.0.0.UPF
In 114.8 In.pbe-dn-rrkjus_psl.1.0.0.UPF
Li 6.941 Li.pbe-sl-rrkjus_psl.1.0.0.UPF
O 15.99 O.pbe-n-rrkjus_psl.1.0.0.UPF
Pb 207.2 Pb.pbe-dn-rrkjus_psl.1.0.0.UPF
Y 88.90 Y.pbe-spn-rrkjus_psl.1.0.0.UPF


CELL_PARAMETERS {angstrom}
9.00122000 0.00000000 0.00000000
0.00000000 6.63002000 0.00000000
0.00000000 0.00000000 24.97230000

ATOMIC_POSITIONS {angstrom}
Li 2.25030500 1.64079735 -0.8288306399999996 0 0 0
Li 2.25030500 4.83262158 2.25250146
Li 6.75091500 1.64079735 -0.8288306399999996 0 0 0
Li 6.75100501 4.84627942 2.25699647
Y 2.25030500 4.95580735 -0.8288306399999996 0 0 0
Y 2.25030500 1.56229791 2.32766808
Y 6.75091500 4.95580735 -0.8288306399999996 0 0 0
Y 6.75091500 1.57396675 2.27722404
In 0.00000000 0.00000000 -2.4862421900000022 0 0 0
In 0.00738100 3.19162533 0.76290377
In 4.50061000 0.00000000 -2.4862421900000022 0 0 0
In 4.49331901 3.19169163 0.76290377
Pb 0.00000000 3.31501000 -2.4862421900000022 0 0 0
Pb 0.00819111 6.46731931 1.02561236
Pb 4.50061000 3.31501000 -2.4862421900000022 0 0 0
Pb 4.49241889 6.46725301 1.02586208
C 2.25030500 4.90455730 4.26227216
O 2.25030500 4.94778503 5.41699132
