&CONTROL
calculation = 'relax'
prefix = 'scf'
pseudo_dir = '/vol0004/mdt0/data/hp150275/u10028/POT_KKJUS'
outdir = './data'
tprnfor = .true.
nstep = 50
disk_io = 'non'
/
&SYSTEM
ibrav = 0
ecutwfc = 50.0
ecutrho = 400
occupations = 'smearing'
smearing = 'mp'
degauss = 0.01
assume_isolated = 'esm'
esm_bc = 'bc1'
input_dft = 'BEEF-VDW'
nosym = .true.
nspin = 1
ntyp = 4
nat = 34
/
&ELECTRONS
electron_maxstep = 200
mixing_beta = 0.1
conv_thr = 1e-06
/
&IONS
ion_dynamics = 'bfgs'
upscale = 1.0
/
&CELL
/

K_POINTS {automatic}
8 6 1 0 0 0

ATOMIC_SPECIES
C 12.01 C.pbe-n-rrkjus_psl.1.0.0.UPF
O 15.99 O.pbe-n-rrkjus_psl.1.0.0.UPF
Os 190.2 Os.pbe-spn-rrkjus_psl.1.0.0.UPF
Zr 91.22 Zr.pbe-spn-rrkjus_psl.1.0.0.UPF

CELL_PARAMETERS {angstrom}
6.57738000 0.00000000 0.00000000
0.00000000 9.30182000 0.00000000
0.00000000 0.00000000 26.97640000

ATOMIC_POSITIONS {angstrom}
Zr 1.64434500 2.32545500 -3.4883182800000014 0 0 0
Zr 1.64434500 0.00000000 -1.1626828400000022 0 0 0
Zr 1.64434500 2.31968787 1.20179862
Zr 1.64434500 4.65091000 3.53040147
Zr 1.64434500 6.97636500 -3.4883182800000014 0 0 0
Zr 1.64434500 4.65091000 -1.1626828400000022 0 0 0
Zr 1.64434500 6.98213213 1.20179862
Zr 1.64434500 0.00000000 3.57005678
Zr 4.93303500 2.32545500 -3.4883182800000014 0 0 0
Zr 4.93303500 0.00000000 -1.1626828400000022 0 0 0
Zr 4.93303500 2.32564104 1.19829169
Zr 4.93303500 4.65091000 3.53390840
Zr 4.93303500 6.97636500 -3.4883182800000014 0 0 0
Zr 4.93303500 4.65091000 -1.1626828400000022 0 0 0
Zr 4.93303500 6.97617896 1.19829169
Zr 4.93303500 0.00000000 3.53687580
Os 0.00000000 0.00000000 -3.4883182800000014 0 0 0
Os 0.00000000 2.32545500 -1.1626828400000022 0 0 0
Os 6.56448834 0.00000000 1.15108299
Os 6.57349935 2.33940773 3.33104587
Os 0.00000000 4.65091000 -3.4883182800000014 0 0 0
Os 0.00000000 6.97636500 -1.1626828400000022 0 0 0
Os 0.00144702 4.65091000 1.16915718
Os 6.57349935 6.96241227 3.33104587
Os 3.28869000 0.00000000 -3.4883182800000014 0 0 0
Os 3.28869000 2.32545500 -1.1626828400000022 0 0 0
Os 3.30158166 0.00000000 1.15108299
Os 3.29257065 2.33940773 3.33104587
Os 3.28869000 4.65091000 -3.4883182800000014 0 0 0
Os 3.28869000 6.97636500 -1.1626828400000022 0 0 0
Os 3.28724298 4.65091000 1.16915718
Os 3.29257065 6.96241227 3.33104587
C 1.64434500 0.00000000 5.89865962
O 1.64434500 0.00000000 7.04731474
