&CONTROL
calculation = 'relax'
prefix = 'scf'
pseudo_dir = '/vol0403/data/hp230205/u10028/POT_HYBRID_KKJUS_GBRV'
outdir = './data'
tprnfor = .true.
nstep = 50
disk_io = 'non'
/
&SYSTEM
ibrav = 0
ecutwfc = 50.0
ecutrho = 400
occupations = 'smearing'
smearing = 'mp'
degauss = 0.01
assume_isolated = 'esm'
esm_bc = 'bc1'
input_dft = 'BEEF-VDW'
nosym = .true.
nspin = 1
ntyp = 5
nat = 17
/
&ELECTRONS
electron_maxstep = 200
mixing_beta = 0.1
conv_thr = 1e-06
/
&IONS
ion_dynamics = 'bfgs'
upscale = 1.0
/
&CELL
/

K_POINTS {automatic}
11 8 2 0  0  0

ATOMIC_SPECIES
C 12.01 C.pbe-n-rrkjus_psl.1.0.0.UPF
Ga 69.72 Ga.pbe-dnl-rrkjus_psl.1.0.0.UPF
Ge 72.64 Ge.pbe-dn-rrkjus_psl.1.0.0.UPF
Pd 106.4 Pd.pbe-n-rrkjus_psl.1.0.0.UPF
Sc 44.95 Sc.pbe-spn-rrkjus_psl.1.0.0.UPF


CELL_PARAMETERS {angstrom}
5.81182000 0.00000000 0.00000000
0.00000000 8.08666000 0.00000000
0.00000000 0.00000000 24.34090000

ATOMIC_POSITIONS {angstrom}
Sc 4.22693669 2.02166500 -0.7234115500000016 0 0 0
Sc 1.16410755 1.73305210 2.12057921
Sc 4.22693669 6.06499500 -0.7234115500000016 0 0 0
Sc 1.16416566 6.35352703 2.12033580
Ga 0.00000000 0.00000000 -2.17047805 0 0 0
Ga 2.57126540 0.00000000 0.36900804
Ga 0.00000000 4.04333000 -2.17047805 0 0 0
Ga 2.46938420 4.04333000 0.71878678
Ge 2.90591000 0.00000000 -2.17047805 0 0 0
Ge 5.55284530 0.00000000 0.60511477
Ge 2.90591000 4.04333000 -2.17047805 0 0 0
Ge 5.32723045 4.04316827 1.17031047
Pd 1.32102669 2.02166500 -0.7234115500000016 0 0 0
Pd 3.97702843 1.76240668 1.98305312
Pd 1.32102669 6.06499500 -0.7234115500000016 0 0 0
Pd 3.97702843 6.32409159 1.98305312
C 2.50716103 0.00000000 2.40853206
