&CONTROL
calculation = 'relax'
prefix = 'scf'
pseudo_dir = '/vol0403/data/hp230205/u10028/POT_HYBRID_KKJUS_GBRV'
outdir = './data'
tprnfor = .true.
nstep = 70
disk_io = 'non'
/
&SYSTEM
ibrav = 0
ecutwfc = 50.0
ecutrho = 400
occupations = 'smearing'
smearing = 'mp'
degauss = 0.01
assume_isolated = 'esm'
esm_bc = 'bc1'
input_dft = 'BEEF-VDW'
nosym = .true.
nspin = 1
ntyp = 4
nat = 32
/
&ELECTRONS
electron_maxstep = 200
mixing_beta = 0.1
conv_thr = 1e-06
/
&IONS
ion_dynamics = 'bfgs'
upscale = 1.0
/
&CELL
/

K_POINTS {automatic}
9 6 2 0  0  0

ATOMIC_SPECIES
Cu 63.54 Cu.pbe-dn-rrkjus_psl.1.0.0.UPF
Ge 72.64 Ge.pbe-dn-rrkjus_psl.1.0.0.UPF
Pd 106.4 Pd.pbe-n-rrkjus_psl.1.0.0.UPF
Sc 44.95 Sc.pbe-spn-rrkjus_psl.1.0.0.UPF


CELL_PARAMETERS {angstrom}
6.33395000 0.00000000 0.00000000
-0.00000000 8.95756000 0.00000000
0.00000000 0.00000000 26.71820000

ATOMIC_POSITIONS {angstrom}
Sc 4.75046250 0.00000000 -1.1197597600000009 0 0 0
Sc 4.75046250 4.47878000 -1.1197597600000009 0 0 0
Sc 1.58348750 2.23939000 -3.359012100000001 0 0 0
Sc 1.58348750 6.71817000 -3.359012100000001 0 0 0
Sc 4.41039272 4.47878000 3.47015982
Sc 4.41020271 -0.00000000 3.47042700
Sc 1.55295786 6.71817000 1.20686109
Sc 1.55295786 2.23939000 1.20686109
Cu 0.00000000 0.00000000 -3.359012100000001 0 0 0
Cu 0.00000000 4.47878000 -3.359012100000001 0 0 0
Cu 3.16697500 6.71817000 -1.1197597600000009 0 0 0
Cu 3.16697500 2.23939000 -1.1197597600000009 0 0 0
Cu 6.18415208 4.47878000 1.31720726
Cu 6.18421542 8.95747042 1.31747444
Cu 2.57994451 2.23939000 3.81909951
Cu 2.57988117 6.71817000 3.81909951
Ge 1.58348750 0.00000000 -1.1197597600000009 0 0 0
Ge 1.58348750 4.47878000 -1.1197597600000009 0 0 0
Ge 4.75046250 2.23939000 -3.359012100000001 0 0 0
Ge 4.75046250 6.71817000 -3.359012100000001 0 0 0
Ge 1.48296771 4.47886958 3.34324837
Ge 1.48277770 -0.00000000 3.34298118
Ge 4.71461234 6.71825958 1.11120994
Ge 4.71454900 2.23939000 1.11120994
Pd 0.00000000 2.23939000 -1.1197597600000009 0 0 0
Pd 0.00000000 6.71817000 -1.1197597600000009 0 0 0
Pd 3.16697500 4.47878000 -3.359012100000001 0 0 0
Pd 3.16697500 0.00000000 -3.359012100000001 0 0 0
Pd 6.08369564 6.71825958 3.33576727
Pd 6.08375898 2.23939000 3.33576727
Pd 3.17045867 -0.00000000 1.07540755
Pd 3.17039533 4.47878000 1.07540755
