&CONTROL
calculation = 'relax'
prefix = 'scf'
pseudo_dir = '/vol0004/mdt0/data/hp150275/u10028/POT_KKJUS'
outdir = './data'
tprnfor = .true.
nstep = 50
disk_io = 'non'
/
&SYSTEM
ibrav = 0
ecutwfc = 50.0
ecutrho = 400
occupations = 'smearing'
smearing = 'mp'
degauss = 0.01
assume_isolated = 'esm'
esm_bc = 'bc1'
input_dft = 'BEEF-VDW'
nosym = .true.
nspin = 1
ntyp = 5
nat = 34
/
&ELECTRONS
electron_maxstep = 200
mixing_beta = 0.1
conv_thr = 1e-06
/
&IONS
ion_dynamics = 'bfgs'
upscale = 1.0
/
&CELL
/

K_POINTS {automatic}
8 6 1 0 0 0

ATOMIC_SPECIES
C 12.01 C.pbe-n-rrkjus_psl.1.0.0.UPF
Li 6.941 Li.pbe-sl-rrkjus_psl.1.0.0.UPF
Mg 24.30 Mg.pbe-spnl-rrkjus_psl.1.0.0.UPF
O 15.99 O.pbe-n-rrkjus_psl.1.0.0.UPF
Pb 207.2 Pb.pbe-dn-rrkjus_psl.1.0.0.UPF

CELL_PARAMETERS {angstrom}
6.88544000 0.00000000 0.00000000
0.00000000 9.73748000 0.00000000
0.00000000 0.00000000 27.30310000

ATOMIC_POSITIONS {angstrom}
Li 1.72136000 0.00000000 -1.2171722000000003 0 0 0
Li 5.16408000 4.86874000 -1.2171722000000003 0 0 0
Li 5.16408000 0.00000000 -1.2171722000000003 0 0 0
Li 1.72136000 4.86874000 -1.2171722000000003 0 0 0
Li 5.16408000 7.30311000 -3.65151659 0 0 0
Li 1.72136000 2.43437000 -3.65151659 0 0 0
Li 1.72136000 7.30311000 -3.65151659 0 0 0
Li 5.16408000 2.43437000 -3.65151659 0 0 0
Li 1.55975872 4.87984073 3.79758818
Li 5.32554357 9.72637927 3.79758818
Li 5.32575013 4.87984073 3.79786121
Li 1.55989643 9.72637927 3.79758818
Li 5.20291388 2.43437000 1.15191779
Li 1.68569342 7.30311000 1.18304332
Li 1.68252612 2.43437000 1.15191779
Li 5.19974658 7.30311000 1.18304332
Mg 0.00000000 0.00000000 -3.65151659 0 0 0
Mg 3.44272000 2.43437000 -1.2171722000000003 0 0 0
Mg 3.44272000 7.30311000 -1.2171722000000003 0 0 0
Mg 0.00000000 4.86874000 -3.65151659 0 0 0
Mg 0.00000000 4.88811759 1.31546336
Mg 3.44272000 7.30311000 3.57779822
Mg 3.44278885 2.43446737 3.43664120
Mg 0.00000000 9.71810241 1.31546336
Pb 0.00000000 7.30311000 -1.2171722000000003 0 0 0
Pb 3.44272000 0.00000000 -3.65151659 0 0 0
Pb 0.00000000 2.43437000 -1.2171722000000003 0 0 0
Pb 3.44272000 4.86874000 -3.65151659 0 0 0
Pb 0.00000000 2.43437000 3.60919679
Pb 3.44272000 4.88733859 1.34740799
Pb 0.00006885 7.30330475 3.64414476
Pb 3.44278885 9.71888141 1.34740799
C 3.44272000 2.43437000 5.65228776
O 3.44272000 2.43437000 6.80365949
