&CONTROL
calculation = 'relax'
prefix = 'scf'
pseudo_dir = '/vol0004/mdt0/data/hp150275/u10028/POT_KKJUS'
outdir = './data'
tprnfor = .true.
nstep = 50
disk_io = 'non'
/
&SYSTEM
ibrav = 0
ecutwfc = 50.0
ecutrho = 400
occupations = 'smearing'
smearing = 'mp'
degauss = 0.01
assume_isolated = 'esm'
esm_bc = 'bc1'
input_dft = 'BEEF-VDW'
nosym = .true.
nspin = 1
ntyp = 4
nat = 34
/
&ELECTRONS
electron_maxstep = 200
mixing_beta = 0.1
conv_thr = 1e-06
/
&IONS
ion_dynamics = 'bfgs'
upscale = 1.0
/
&CELL
/

K_POINTS {automatic}
9 6 2 0  0  0

ATOMIC_SPECIES
C 12.01 C.pbe-n-rrkjus_psl.1.0.0.UPF
Hf 178.4 Hf.pbe-spn-rrkjus_psl.1.0.0.UPF
O 15.99 O.pbe-n-rrkjus_psl.1.0.0.UPF
Os 190.2 Os.pbe-spn-rrkjus_psl.1.0.0.UPF

CELL_PARAMETERS {angstrom}
6.49845000 0.00000000 0.00000000
0.00000000 9.19019000 0.00000000
0.00000000 0.00000000 26.89260000

ATOMIC_POSITIONS {angstrom}
Hf 0.00000000 0.00000000 -3.446286690000001 0 0 0
Hf 0.00000000 2.29754750 -1.1488518700000014 0 0 0
Hf 0.00000000 0.00680074 1.19026648
Hf 0.00000000 2.29754750 3.52777127
Hf 0.00000000 4.59509500 -3.446286690000001 0 0 0
Hf 0.00000000 6.89264250 -1.1488518700000014 0 0 0
Hf 0.00000000 4.58829426 1.19026648
Hf 0.00000000 6.89264250 3.46511151
Hf 3.24922500 0.00000000 -3.446286690000001 0 0 0
Hf 3.24922500 2.29754750 -1.1488518700000014 0 0 0
Hf 3.24922500 0.00045951 1.18623259
Hf 3.24922500 2.29754750 3.47425499
Hf 3.24922500 4.59509500 -3.446286690000001 0 0 0
Hf 3.24922500 6.89264250 -1.1488518700000014 0 0 0
Hf 3.24922500 4.59463549 1.18623259
Hf 3.24922500 6.89264250 3.47075896
Os 1.62461250 2.29754750 -3.446286690000001 0 0 0
Os 1.62461250 0.00000000 -1.1488518700000014 0 0 0
Os 1.63377531 2.29754750 1.13406094
Os 1.63046111 9.17943748 3.31451295
Os 1.62461250 6.89264250 -3.446286690000001 0 0 0
Os 1.62461250 4.59509500 -1.1488518700000014 0 0 0
Os 1.62396266 6.89264250 1.14428013
Os 1.63052609 4.60584752 3.31451295
Os 4.87383750 2.29754750 -3.446286690000001 0 0 0
Os 4.87383750 0.00000000 -1.1488518700000014 0 0 0
Os 4.86467469 2.29754750 1.13406094
Os 4.86792391 9.17943748 3.31451295
Os 4.87383750 6.89264250 -3.446286690000001 0 0 0
Os 4.87383750 4.59509500 -1.1488518700000014 0 0 0
Os 4.87448735 6.89264250 1.14428013
Os 4.86798889 4.60584752 3.31451295
C 0.00000000 2.29754750 5.81122193
O 0.00000000 2.29754750 6.96061166
