&CONTROL
calculation = 'relax'
prefix = 'scf'
pseudo_dir = '/vol0403/data/hp230205/u10028/POT_HYBRID_KKJUS_GBRV'
outdir = './data'
tprnfor = .true.
nstep = 70
disk_io = 'non'
/
&SYSTEM
ibrav = 0
ecutwfc = 50.0
ecutrho = 400
occupations = 'smearing'
smearing = 'mp'
degauss = 0.01
assume_isolated = 'esm'
esm_bc = 'bc1'
input_dft = 'BEEF-VDW'
nosym = .true.
nspin = 1
ntyp = 6
nat = 18
/
&ELECTRONS
electron_maxstep = 200
mixing_beta = 0.1
conv_thr = 1e-06
/
&IONS
ion_dynamics = 'bfgs'
upscale = 1.0
/
&CELL
/

K_POINTS {automatic}
6 6 1 0 0 0

ATOMIC_SPECIES
Al 26.98 Al.pbe-nl-rrkjus_psl.1.0.0.UPF
C 12.01 C.pbe-n-rrkjus_psl.1.0.0.UPF
In 114.8 In.pbe-dn-rrkjus_psl.1.0.0.UPF
O 15.99 O.pbe-n-rrkjus_psl.1.0.0.UPF
Pd 106.4 Pd.pbe-n-rrkjus_psl.1.0.0.UPF
Y 88.90 Y.pbe-spn-rrkjus_psl.1.0.0.UPF


CELL_PARAMETERS {angstrom}
6.02485000 0.00000000 0.00000000
-0.00000000 9.21652000 0.00000000
0.00000000 0.00000000 24.50330000

ATOMIC_POSITIONS {angstrom}
Y 1.38204034 2.30413000 -0.7505360799999998 0 0 0
Y 4.02996192 2.30413000 2.19598575
Y 1.38204034 6.91239000 -0.7505360799999998 0 0 0
Y 4.03990292 6.91239000 2.10973413
Al 0.00000000 0.00000000 -2.2516082399999995 0 0 0
Al 2.24437712 0.03677391 1.23006566
Al 0.00000000 4.60826000 -2.2516082399999995 0 0 0
Al 2.24425662 4.57148609 1.23006566
In 3.01242500 0.00000000 -2.2516082399999995 0 0 0
In 5.41790661 0.02682007 0.63953613
In 3.01242500 4.60826000 -2.2516082399999995 0 0 0
In 5.41790661 4.58143993 0.63929110
Pd 4.39446534 2.30413000 -0.7505360799999998 0 0 0
Pd 1.04862514 2.30413000 2.19182019
Pd 4.39446534 6.91239000 -0.7505360799999998 0 0 0
Pd 1.13092459 6.91239000 1.95021765
C 0.84655167 2.30413000 4.13958750
O 1.09134133 2.30413000 5.27776579
