&CONTROL
calculation = 'relax'
prefix = 'scf'
pseudo_dir = '/vol0004/mdt0/data/hp150275/u10028/POT_KKJUS'
outdir = './data'
tprnfor = .true.
nstep = 50
disk_io = 'non'
/
&SYSTEM
ibrav = 0
ecutwfc = 50.0
ecutrho = 400
occupations = 'smearing'
smearing = 'mp'
degauss = 0.01
assume_isolated = 'esm'
esm_bc = 'bc1'
input_dft = 'BEEF-VDW'
nosym = .true.
nspin = 1
ntyp = 3
nat = 17
/
&ELECTRONS
electron_maxstep = 200
mixing_beta = 0.1
conv_thr = 1e-06
/
&IONS
ion_dynamics = 'bfgs'
upscale = 1.0
/
&CELL
/

K_POINTS {automatic}
8 11 2 0  0  0

ATOMIC_SPECIES
C 12.01 C.pbe-n-rrkjus_psl.1.0.0.UPF
In 114.8 In.pbe-dn-rrkjus_psl.1.0.0.UPF
Pd 106.4 Pd.pbe-n-rrkjus_psl.1.0.0.UPF

CELL_PARAMETERS {angstrom}
8.16408000 0.00000000 0.00000000
0.00000000 5.77288000 0.00000000
0.00000000 0.00000000 24.32970000

ATOMIC_POSITIONS {angstrom}
In 7.99859410 5.76785759 2.12909205
In 0.00000000 2.88644000 -0.7216188999999993 0 0 0
In 4.24752590 5.76785759 2.12909205
In 4.08204000 2.88644000 -0.7216188999999993 0 0 0
Pd 0.06710874 2.88655546 2.23735921
Pd 2.04102000 4.35644616 0.78609261
Pd 2.04102000 1.41470197 0.78292975
Pd 0.00000000 0.00000000 -0.7216188999999993 0 0 0
Pd 2.04102000 1.44322000 -2.1648567099999987 0 0 0
Pd 2.04102000 4.32966000 -2.1648567099999987 0 0 0
Pd 4.01493126 2.88655546 2.23735921
Pd 6.12306000 4.29282903 0.74181255
Pd 6.12306000 1.46804338 0.74546201
Pd 4.08204000 0.00000000 -0.7216188999999993 0 0 0
Pd 6.12306000 1.44322000 -2.1648567099999987 0 0 0
Pd 6.12306000 4.32966000 -2.1648567099999987 0 0 0
C 2.04102000 2.88274536 2.13614766
