&CONTROL
calculation = 'relax'
prefix = 'scf'
pseudo_dir = '/vol0403/data/hp230205/u10028/POT_HYBRID_KKJUS_GBRV'
outdir = './data'
tprnfor = .true.
nstep = 50
disk_io = 'non'
/
&SYSTEM
ibrav = 0
ecutwfc = 50.0
ecutrho = 400
occupations = 'smearing'
smearing = 'mp'
degauss = 0.01
assume_isolated = 'esm'
esm_bc = 'bc1'
input_dft = 'BEEF-VDW'
nosym = .true.
nspin = 1
ntyp = 6
nat = 18
/
&ELECTRONS
electron_maxstep = 200
mixing_beta = 0.1
conv_thr = 1e-06
/
&IONS
ion_dynamics = 'bfgs'
upscale = 1.0
/
&CELL
/

K_POINTS {automatic}
6 6 1 0 0 0

ATOMIC_SPECIES
C 12.01 C.pbe-n-rrkjus_psl.1.0.0.UPF
Ga 69.72 Ga.pbe-dnl-rrkjus_psl.1.0.0.UPF
In 114.8 In.pbe-dn-rrkjus_psl.1.0.0.UPF
Li 6.941 Li.pbe-sl-rrkjus_psl.1.0.0.UPF
O 15.99 O.pbe-n-rrkjus_psl.1.0.0.UPF
Sc 44.95 Sc.pbe-spn-rrkjus_psl.1.0.0.UPF


CELL_PARAMETERS {angstrom}
6.04935000 0.00000000 0.00000000
0.00000000 8.37318000 0.00000000
0.00000000 0.00000000 24.52450000

ATOMIC_POSITIONS {angstrom}
Li 4.58123325 2.09547203 1.01261661
Li 1.17526772 2.09329500 -2.2621398799999994 0 0 0
Li 4.58123325 6.27762424 1.01286185
Li 1.17526772 6.27988500 -2.2621398799999994 0 0 0
Sc 1.51663254 2.09697920 0.76050474
Sc 4.19994272 2.09329500 -2.2621398799999994 0 0 0
Sc 1.51669303 6.27611707 0.76074999
Sc 4.19994272 6.27988500 -2.2621398799999994 0 0 0
In 3.14602496 0.00008373 2.34895661
In 5.82461665 0.00000000 -0.7541283800000009 0 0 0
In 3.14481509 4.18667373 2.35239004
In 5.82461665 4.18659000 -0.7541283800000009 0 0 0
Ga 0.04972566 0.00000000 2.17949232
Ga 2.79994165 0.00000000 -0.7541283800000009 0 0 0
Ga 0.04664049 4.18675746 2.17262545
Ga 2.79994165 4.18659000 -0.7541283800000009 0 0 0
C 2.76763812 0.00000000 5.84664080
O 3.25152562 8.37292880 6.87397210
