&CONTROL
calculation = 'relax'
prefix = 'scf'
pseudo_dir = '/vol0403/data/hp230205/u10028/POT_HYBRID_KKJUS_GBRV'
outdir = './data'
tprnfor = .true.
nstep = 50
disk_io = 'non'
/
&SYSTEM
ibrav = 0
ecutwfc = 50.0
ecutrho = 400
occupations = 'smearing'
smearing = 'mp'
degauss = 0.01
assume_isolated = 'esm'
esm_bc = 'bc1'
input_dft = 'BEEF-VDW'
nosym = .true.
nspin = 1
ntyp = 4
nat = 32
/
&ELECTRONS
electron_maxstep = 200
mixing_beta = 0.1
conv_thr = 1e-06
/
&IONS
ion_dynamics = 'bfgs'
upscale = 1.0
/
&CELL
/

K_POINTS {automatic}
9 6 2 0  0  0

ATOMIC_SPECIES
Li 6.941 Li.pbe-sl-rrkjus_psl.1.0.0.UPF
Pd 106.4 Pd.pbe-n-rrkjus_psl.1.0.0.UPF
Sn 118.7 Sn.pbe-dn-rrkjus_psl.1.0.0.UPF
Y 88.90 Y.pbe-spn-rrkjus_psl.1.0.0.UPF


CELL_PARAMETERS {angstrom}
6.77715000 0.00000000 0.00000000
0.00000000 9.58434000 0.00000000
0.00000000 0.00000000 27.18830000

ATOMIC_POSITIONS {angstrom}
Li 0.00000000 0.00000000 -3.594021380000001 0 0 0
Li 0.00000000 4.79217000 -3.594021380000001 0 0 0
Li 3.38857500 7.18825500 -1.1979165000000016 0 0 0
Li 3.38857500 2.39608500 -1.1979165000000016 0 0 0
Li 0.02710860 4.79217000 1.27676257
Li 0.02710860 0.00000000 1.27676257
Li 4.65746079 2.39608500 4.91129451
Li 4.65746079 7.18825500 4.91156640
Y 1.69428750 0.00000000 -1.1979165000000016 0 0 0
Y 1.69428750 4.79217000 -1.1979165000000016 0 0 0
Y 5.08286250 2.39608500 -3.594021380000001 0 0 0
Y 5.08286250 7.18825500 -3.594021380000001 0 0 0
Y 1.92491391 4.79217000 3.57281450
Y 1.92491391 0.00000000 3.57281450
Y 5.03135616 7.18825500 1.31890443
Y 5.03135616 2.39608500 1.31917632
Sn 5.08286250 0.00000000 -1.1979165000000016 0 0 0
Sn 5.08286250 4.79217000 -1.1979165000000016 0 0 0
Sn 1.69428750 2.39608500 -3.594021380000001 0 0 0
Sn 1.69428750 7.18825500 -3.594021380000001 0 0 0
Sn 5.20762983 4.79217000 3.67205180
Sn 5.20762983 0.00000000 3.67205180
Sn 1.73325611 7.18825500 1.17752527
Sn 1.73325611 2.39608500 1.17752527
Pd 0.00000000 2.39608500 -1.1979165000000016 0 0 0
Pd 0.00000000 7.18825500 -1.1979165000000016 0 0 0
Pd 3.38857500 4.79217000 -3.594021380000001 0 0 0
Pd 3.38857500 0.00000000 -3.594021380000001 0 0 0
Pd 0.14340449 7.18825500 3.42246320
Pd 0.14340449 2.39608500 3.42246320
Pd 3.37657944 0.00000000 1.15387145
Pd 3.37657944 4.79217000 1.15387145
