&CONTROL
calculation = 'relax'
prefix = 'scf'
pseudo_dir = '/vol0403/data/hp230205/u10028/POT_HYBRID_KKJUS_GBRV'
outdir = './data'
tprnfor = .true.
nstep = 50
disk_io = 'non'
/
&SYSTEM
ibrav = 0
ecutwfc = 50.0
ecutrho = 400
occupations = 'smearing'
smearing = 'mp'
degauss = 0.01
assume_isolated = 'esm'
esm_bc = 'bc1'
input_dft = 'BEEF-VDW'
nosym = .true.
nspin = 1
ntyp = 6
nat = 18
/
&ELECTRONS
electron_maxstep = 200
mixing_beta = 0.1
conv_thr = 1e-06
/
&IONS
ion_dynamics = 'bfgs'
upscale = 1.0
/
&CELL
/

K_POINTS {automatic}
11 8 2 0  0  0

ATOMIC_SPECIES
Ag 107.8 Ag.pbe-n-rrkjus_psl.1.0.0.UPF
Al 26.98 Al.pbe-nl-rrkjus_psl.1.0.0.UPF
C 12.01 C.pbe-n-rrkjus_psl.1.0.0.UPF
Ge 72.64 Ge.pbe-dn-rrkjus_psl.1.0.0.UPF
Li 6.941 Li.pbe-sl-rrkjus_psl.1.0.0.UPF
O 15.99 O.pbe-n-rrkjus_psl.1.0.0.UPF


CELL_PARAMETERS {angstrom}
5.75991000 0.00000000 0.00000000
0.00000000 8.02734000 0.00000000
0.00000000 0.00000000 24.29680000

ATOMIC_POSITIONS {angstrom}
Li 1.24644452 2.02963265 0.76146171
Li 3.87376987 2.00683500 -2.1483230600000027 0 0 0
Li 1.24644452 5.99778763 0.76146171
Li 3.87376987 6.02050500 -2.1483230600000027 0 0 0
Al 2.76567839 0.00000000 2.07761937
Al 5.46246825 0.00000000 -0.7160267000000005 0 0 0
Al 2.84401316 4.01358973 2.17480657
Al 5.46246825 4.01367000 -0.7160267000000005 0 0 0
Ag 0.07752839 0.00000000 2.11066302
Ag 2.58251325 0.00000000 -0.7160267000000005 0 0 0
Ag 0.13380271 4.01367000 2.21125177
Ag 2.58251325 4.01367000 -0.7160267000000005 0 0 0
Ge 4.12657232 2.00250024 1.05010770
Ge 0.99381487 2.00683500 -2.1483230600000027 0 0 0
Ge 4.12639952 6.02475949 1.04986473
Ge 0.99381487 6.02050500 -2.1483230600000027 0 0 0
C 2.85812494 0.00000000 4.06315386
O 2.91307448 0.00000000 5.21652296
