&CONTROL
calculation = 'relax'
prefix = 'scf'
pseudo_dir = '/vol0004/mdt0/data/hp150275/u10028/POT_HYBRID_KKJUS_GBRV'
outdir = './data'
tprnfor = .true.
nstep = 50
disk_io = 'non'
/
&SYSTEM
ibrav = 0
ecutwfc = 50.0
ecutrho = 400
occupations = 'smearing'
smearing = 'mp'
degauss = 0.01
assume_isolated = 'esm'
esm_bc = 'bc1'
input_dft = 'BEEF-VDW'
nosym = .true.
nspin = 2
ntyp = 2
nat = 32
starting_magnetization(1) = 0.1
starting_magnetization(2) = 0.1
/
&ELECTRONS
electron_maxstep = 200
mixing_beta = 0.1
conv_thr = 1e-06
/
&IONS
ion_dynamics = 'bfgs'
upscale = 1.0
/
&CELL
/

K_POINTS {automatic}
9 7 2 0  0  0

ATOMIC_SPECIES
Be 9.012 Be.pbe-n-rrkjus_psl.1.0.0.UPF
Co 58.93 co_pbe_v1.2.uspp.F.UPF

CELL_PARAMETERS {angstrom}
5.19112000 0.00000000 0.00000000
0.00000000 7.34136000 0.00000000
0.00000000 0.00000000 25.50600000

ATOMIC_POSITIONS {angstrom}
Be 0.00000000 0.00000000 -2.7531176399999993 0 0 0
Be 0.00000000 1.83534000 -0.9177058799999998 0 0 0
Be 5.19106809 3.67068000 0.87868170
Be 5.19106809 1.83534000 2.73169260
Be 0.00000000 3.67068000 -2.7531176399999993 0 0 0
Be 0.00000000 5.50602000 -0.9177058799999998 0 0 0
Be 0.00000000 0.00000000 0.87842664
Be 5.19106809 5.50602000 2.73169260
Be 2.59556000 0.00000000 -2.7531176399999993 0 0 0
Be 2.59556000 1.83534000 -0.9177058799999998 0 0 0
Be 2.59561191 3.67068000 0.87868170
Be 2.59561191 1.83534000 2.73169260
Be 2.59556000 3.67068000 -2.7531176399999993 0 0 0
Be 2.59556000 5.50602000 -0.9177058799999998 0 0 0
Be 2.59556000 0.00000000 0.87842664
Be 2.59561191 5.50602000 2.73169260
Co 1.29778000 1.83534000 -2.7531176399999993 0 0 0
Co 1.29778000 0.00000000 -0.9177058799999998 0 0 0
Co 1.29778000 1.83504635 0.95162886
Co 1.29778000 0.00000000 2.74291524
Co 1.29778000 5.50602000 -2.7531176399999993 0 0 0
Co 1.29778000 3.67068000 -0.9177058799999998 0 0 0
Co 1.29778000 5.50631365 0.95162886
Co 1.29778000 3.67068000 2.74317030
Co 3.89334000 1.83534000 -2.7531176399999993 0 0 0
Co 3.89334000 0.00000000 -0.9177058799999998 0 0 0
Co 3.89334000 1.83504635 0.95162886
Co 3.89334000 0.00000000 2.74291524
Co 3.89334000 5.50602000 -2.7531176399999993 0 0 0
Co 3.89334000 3.67068000 -0.9177058799999998 0 0 0
Co 3.89334000 5.50631365 0.95162886
Co 3.89334000 3.67068000 2.74317030
