&CONTROL
calculation = 'relax'
prefix = 'scf'
pseudo_dir = '/vol0004/mdt0/data/hp150275/u10028/POT_HYBRID_KKJUS_GBRV'
outdir = './data'
tprnfor = .true.
nstep = 50
disk_io = 'non'
/
&SYSTEM
ibrav = 0
ecutwfc = 50.0
ecutrho = 400
occupations = 'smearing'
smearing = 'mp'
degauss = 0.01
assume_isolated = 'esm'
esm_bc = 'bc1'
input_dft = 'BEEF-VDW'
nosym = .true.
nspin = 2
ntyp = 4
nat = 33
starting_magnetization(1) = 0.0
starting_magnetization(2) = 0.0
starting_magnetization(3) = 0.0
starting_magnetization(4) = 0.001
/
&ELECTRONS
electron_maxstep = 300
mixing_beta = 0.1
conv_thr = 1e-06
/
&IONS
ion_dynamics = 'bfgs'
upscale = 1.0
/
&CELL
/

K_POINTS {automatic}
8 6 1 0 0 0

ATOMIC_SPECIES
C 12.01 C.pbe-n-rrkjus_psl.1.0.0.UPF
Ge 72.64 Ge.pbe-dn-rrkjus_psl.1.0.0.UPF
Li 6.941 Li.pbe-sl-rrkjus_psl.1.0.0.UPF
Ni 58.69 ni_pbe_v1.4.uspp.F.UPF

CELL_PARAMETERS {angstrom}
5.71239000 0.00000000 0.00000000
0.00000000 8.07854000 0.00000000
0.00000000 0.00000000 26.05890000

ATOMIC_POSITIONS {angstrom}
Li 0.00000000 0.00000000 -3.0293471200000006 0 0 0
Li 2.85619500 2.01963500 -1.00978237 0 0 0
Li 2.85619500 6.05890500 -1.00978237 0 0 0
Li 0.00000000 4.03927000 -3.0293471200000006 0 0 0
Li 0.00594089 4.03062596 0.98033582
Li 2.76725309 6.05898579 3.61749650
Li 2.96838634 2.01955421 4.34792747
Li 0.00599801 0.00864404 0.98033582
Ni 1.42809750 0.00000000 -1.00978237 0 0 0
Ni 4.28429250 4.03927000 -1.00978237 0 0 0
Ni 4.28429250 0.00000000 -1.00978237 0 0 0
Ni 1.42809750 4.03927000 -1.00978237 0 0 0
Ni 4.28429250 6.05890500 -3.0293471200000006 0 0 0
Ni 1.42809750 2.01963500 -3.0293471200000006 0 0 0
Ni 1.42809750 6.05890500 -3.0293471200000006 0 0 0
Ni 4.28429250 2.01963500 -3.0293471200000006 0 0 0
Ni 1.43849405 3.89959204 2.92276622
Ni 4.28640608 7.96075489 2.88862907
Ni 4.28629184 4.15713590 2.88862907
Ni 1.43837980 0.13975874 2.92276622
Ni 4.24961829 2.01955421 0.96313694
Ni 1.45448874 6.05890500 1.07701434
Ni 1.43923666 2.01955421 1.08952261
Ni 4.28486374 6.05898579 1.04365895
Ge 0.00000000 6.05890500 -1.00978237 0 0 0
Ge 2.85619500 0.00000000 -3.0293471200000006 0 0 0
Ge 0.00000000 2.01963500 -1.00978237 0 0 0
Ge 2.85619500 4.03927000 -3.0293471200000006 0 0 0
Ge 5.19741804 2.01971579 3.21280178
Ge 2.85836571 4.05631572 0.97564522
Ge 0.05421058 6.05890500 3.06270252
Ge 2.85836571 8.06149428 0.97564522
C 1.41575874 2.01963500 3.07104137
