&CONTROL
calculation = 'relax'
prefix = 'scf'
pseudo_dir = '/vol0403/data/hp230205/u10028/POT_HYBRID_KKJUS_GBRV'
outdir = './data'
tprnfor = .true.
nstep = 50
disk_io = 'non'
/
&SYSTEM
ibrav = 0
ecutwfc = 50.0
ecutrho = 400
occupations = 'smearing'
smearing = 'mp'
degauss = 0.01
assume_isolated = 'esm'
esm_bc = 'bc1'
input_dft = 'BEEF-VDW'
nosym = .true.
nspin = 1
ntyp = 5
nat = 17
/
&ELECTRONS
electron_maxstep = 200
mixing_beta = 0.1
conv_thr = 1e-06
/
&IONS
ion_dynamics = 'bfgs'
upscale = 1.0
/
&CELL
/

K_POINTS {automatic}
6 6 1 0 0 0

ATOMIC_SPECIES
C 12.01 C.pbe-n-rrkjus_psl.1.0.0.UPF
Ga 69.72 Ga.pbe-dnl-rrkjus_psl.1.0.0.UPF
In 114.8 In.pbe-dn-rrkjus_psl.1.0.0.UPF
Li 6.941 Li.pbe-sl-rrkjus_psl.1.0.0.UPF
Sc 44.95 Sc.pbe-spn-rrkjus_psl.1.0.0.UPF


CELL_PARAMETERS {angstrom}
5.87074000 0.00000000 0.00000000
0.00000000 8.86716000 0.00000000
0.00000000 0.00000000 24.40240000

ATOMIC_POSITIONS {angstrom}
Li 4.13429252 2.21679000 0.60127514
Li 1.39236341 2.21679000 -2.2010964800000004 0 0 0
Li 4.47015756 6.65019266 1.28625050
Li 1.39236341 6.65037000 -2.2010964800000004 0 0 0
Sc 2.61189223 0.53717255 2.43243123
Sc 5.82054517 0.00000000 -0.7337801699999993 0 0 0
Sc 2.61159869 3.89640745 2.43243123
Sc 5.82054517 4.43358000 -0.7337801699999993 0 0 0
In 1.17567439 2.21679000 0.55051814
In 4.32773341 2.21679000 -2.2010964800000004 0 0 0
In 1.59296659 6.65063601 0.88678322
In 4.32773341 6.65037000 -2.2010964800000004 0 0 0
Ga 5.53851482 0.82322713 2.77162459
Ga 2.88517517 0.00000000 -0.7337801699999993 0 0 0
Ga 5.53827999 3.61061888 2.77138057
Ga 2.88517517 4.43358000 -0.7337801699999993 0 0 0
C 3.93515702 2.21687867 2.69304886
