&CONTROL
calculation = 'relax'
prefix = 'scf'
pseudo_dir = '/vol0004/mdt0/data/hp150275/u10028/POT_HYBRID_KKJUS_GBRV'
outdir = './data'
tprnfor = .true.
nstep = 50
disk_io = 'non'
/
&SYSTEM
ibrav = 0
ecutwfc = 50.0
ecutrho = 400
occupations = 'smearing'
smearing = 'mp'
degauss = 0.01
assume_isolated = 'esm'
esm_bc = 'bc1'
input_dft = 'BEEF-VDW'
nosym = .true.
nspin = 2
ntyp = 3
nat = 32
starting_magnetization(1) = 0.1
starting_magnetization(2) = 0.0
starting_magnetization(3) = 0.0
/
&ELECTRONS
electron_maxstep = 300
mixing_beta = 0.1
conv_thr = 1e-06
/
&IONS
ion_dynamics = 'bfgs'
upscale = 1.0
/
&CELL
/

K_POINTS {automatic}
8 6 1 0 0 0

ATOMIC_SPECIES
Co 58.93 co_pbe_v1.2.uspp.F.UPF
Ge 72.64 Ge.pbe-dn-rrkjus_psl.1.0.0.UPF
Zn 65.40 Zn.pbe-dnl-rrkjus_psl.1.0.0.UPF

CELL_PARAMETERS {angstrom}
5.75846000 0.00000000 0.00000000
0.00000000 8.14369000 0.00000000
0.00000000 0.00000000 26.10780000

ATOMIC_POSITIONS {angstrom}
Zn 0.00000000 0.00000000 -3.0538293700000025 0 0 0
Zn 2.87923000 2.03592250 -1.0179431200000018 0 0 0
Zn 2.87923000 6.10776750 -1.0179431200000018 0 0 0
Zn 0.00000000 4.07184500 -3.0538293700000025 0 0 0
Zn 0.00005758 4.07176356 0.98113112
Zn 2.87923000 6.10760463 3.35929063
Zn 2.87923000 2.03608537 3.35929063
Zn 0.00005758 0.00008144 0.98087005
Co 1.43961500 0.00000000 -1.0179431200000018 0 0 0
Co 4.31884500 4.07184500 -1.0179431200000018 0 0 0
Co 4.31884500 0.00000000 -1.0179431200000018 0 0 0
Co 1.43961500 4.07184500 -1.0179431200000018 0 0 0
Co 4.31884500 6.10776750 -3.0538293700000025 0 0 0
Co 1.43961500 2.03592250 -3.0538293700000025 0 0 0
Co 1.43961500 6.10776750 -3.0538293700000025 0 0 0
Co 4.31884500 2.03592250 -3.0538293700000025 0 0 0
Co 1.40437322 4.07184500 2.94287122
Co 4.35414436 0.00000000 2.94287122
Co 4.35402919 4.07184500 2.94287122
Co 1.40431564 0.00000000 2.94261014
Co 4.30542779 2.03608537 1.00280060
Co 1.45303221 6.10760463 1.00306168
Co 1.45303221 2.03608537 1.00306168
Co 4.30542779 6.10760463 1.00306168
Ge 0.00000000 6.10776750 -1.0179431200000018 0 0 0
Ge 2.87923000 0.00000000 -3.0538293700000025 0 0 0
Ge 0.00000000 2.03592250 -1.0179431200000018 0 0 0
Ge 2.87923000 4.07184500 -3.0538293700000025 0 0 0
Ge 5.75840242 2.03608537 3.13946295
Ge 2.87917242 4.07176356 1.04405092
Ge 5.75840242 6.10760463 3.13946295
Ge 2.87917242 0.00008144 1.04378984
