&CONTROL
calculation = 'relax'
prefix = 'scf'
pseudo_dir = '/vol0403/data/hp230205/u10028/POT_HYBRID_KKJUS_GBRV'
outdir = './data'
tprnfor = .true.
nstep = 50
disk_io = 'non'
/
&SYSTEM
ibrav = 0
ecutwfc = 50.0
ecutrho = 400
occupations = 'smearing'
smearing = 'mp'
degauss = 0.01
assume_isolated = 'esm'
esm_bc = 'bc1'
input_dft = 'BEEF-VDW'
nosym = .true.
nspin = 1
ntyp = 5
nat = 17
/
&ELECTRONS
electron_maxstep = 200
mixing_beta = 0.1
conv_thr = 1e-06
/
&IONS
ion_dynamics = 'bfgs'
upscale = 1.0
/
&CELL
/

K_POINTS {automatic}
9 9 2 0  0  0

ATOMIC_SPECIES
C 12.01 C.pbe-n-rrkjus_psl.1.0.0.UPF
Ge 72.64 Ge.pbe-dn-rrkjus_psl.1.0.0.UPF
Li 6.941 Li.pbe-sl-rrkjus_psl.1.0.0.UPF
Pd 106.4 Pd.pbe-n-rrkjus_psl.1.0.0.UPF
Sn 118.7 Sn.pbe-dn-rrkjus_psl.1.0.0.UPF


CELL_PARAMETERS {angstrom}
6.61012000 0.00000000 0.00000000
0.00000000 6.61012000 0.00000000
0.00000000 0.00000000 24.95760000

ATOMIC_POSITIONS {angstrom}
Li 4.95759000 1.65253000 0.85579610
Li 4.95759000 4.95759000 -2.478788829999999 0 0 0
Li 1.65253000 1.65253000 -2.478788829999999 0 0 0
Li 1.65253000 4.95759000 0.85579610
Sn 6.57462366 3.34062245 2.52221506
Sn 0.00000000 0.00000000 -0.8263461399999983 0 0 0
Sn 3.30506000 3.30506000 -0.8263461399999983 0 0 0
Sn 3.34062245 6.57455755 2.52221506
Ge 0.28820123 0.28826733 2.89283542
Ge 0.00000000 3.30506000 -0.8263461399999983 0 0 0
Ge 3.30506000 0.00000000 -0.8263461399999983 0 0 0
Ge 3.01685877 3.01679267 2.89283542
Pd 1.65253000 1.65253000 0.74872800
Pd 1.65253000 4.95759000 -2.478788829999999 0 0 0
Pd 4.95759000 1.65253000 -2.478788829999999 0 0 0
Pd 4.95759000 4.95759000 0.46820458
C 1.65259610 1.65246390 3.07727208
