&CONTROL
calculation = 'relax'
prefix = 'scf'
pseudo_dir = '/vol0403/data/hp230205/u10028/POT_HYBRID_KKJUS_GBRV'
outdir = './data'
tprnfor = .true.
nstep = 50
disk_io = 'non'
/
&SYSTEM
ibrav = 0
ecutwfc = 50.0
ecutrho = 400
occupations = 'smearing'
smearing = 'mp'
degauss = 0.01
assume_isolated = 'esm'
esm_bc = 'bc1'
input_dft = 'BEEF-VDW'
nosym = .true.
nspin = 1
ntyp = 5
nat = 17
/
&ELECTRONS
electron_maxstep = 200
mixing_beta = 0.1
conv_thr = 1e-06
/
&IONS
ion_dynamics = 'bfgs'
upscale = 1.0
/
&CELL
/

K_POINTS {automatic}
10 10 2 0  0  0

ATOMIC_SPECIES
C 12.01 C.pbe-n-rrkjus_psl.1.0.0.UPF
Ge 72.64 Ge.pbe-dn-rrkjus_psl.1.0.0.UPF
Li 6.941 Li.pbe-sl-rrkjus_psl.1.0.0.UPF
Pd 106.4 Pd.pbe-n-rrkjus_psl.1.0.0.UPF
Pt 195.0 Pt.pbe-n-rrkjus_psl.1.0.0.UPF


CELL_PARAMETERS {angstrom}
6.12898000 0.00000000 0.00000000
0.00000000 6.12898000 0.00000000
0.00000000 0.00000000 24.59670000

ATOMIC_POSITIONS {angstrom}
Li 6.10722212 3.08373500 2.60454456
Li 0.00000000 0.00000000 -0.7661872099999982 0 0 0
Li 3.06449000 3.06449000 -0.7661872099999982 0 0 0
Li 3.08373500 6.10722212 2.60479053
Ge 0.11736997 0.11730868 2.60528246
Ge 0.00000000 3.06449000 -0.7661872099999982 0 0 0
Ge 3.06449000 0.00000000 -0.7661872099999982 0 0 0
Ge 2.94001042 2.94013300 2.60970987
Pd 4.59477373 1.53347080 0.99198491
Pd 4.59673500 4.59673500 -2.2983156499999993 0 0 0
Pd 1.53224500 1.53224500 -2.2983156499999993 0 0 0
Pd 1.53347080 4.59483502 0.99198491
Pt 1.53144823 1.53144823 0.57482488
Pt 1.53224500 4.59673500 -2.2983156499999993 0 0 0
Pt 4.59673500 1.53224500 -2.2983156499999993 0 0 0
Pt 4.59894143 4.59894143 0.80554192
C 1.52826116 1.52826116 2.66972582
