&CONTROL
calculation = 'relax'
prefix = 'scf'
pseudo_dir = '/vol0004/mdt0/data/hp150275/u10028/POT_HYBRID_KKJUS_GBRV'
outdir = './data'
tprnfor = .true.
nstep = 50
disk_io = 'non'
/
&SYSTEM
ibrav = 0
ecutwfc = 50.0
ecutrho = 400
occupations = 'smearing'
smearing = 'mp'
degauss = 0.01
assume_isolated = 'esm'
esm_bc = 'bc1'
input_dft = 'BEEF-VDW'
nosym = .true.
nspin = 2
ntyp = 5
nat = 34
starting_magnetization(1) = 0.0
starting_magnetization(2) = 0.0
starting_magnetization(3) = 0.001
starting_magnetization(4) = 0.0
starting_magnetization(5) = 0.0
/
&ELECTRONS
electron_maxstep = 200
mixing_beta = 0.1
conv_thr = 1e-06
/
&IONS
ion_dynamics = 'bfgs'
upscale = 1.0
/
&CELL
/

K_POINTS {automatic}
9 6 2 0  0  0

ATOMIC_SPECIES
C 12.01 C.pbe-n-rrkjus_psl.1.0.0.UPF
Li 6.941 Li.pbe-sl-rrkjus_psl.1.0.0.UPF
Ni 58.69 ni_pbe_v1.4.uspp.F.UPF
O 15.99 O.pbe-n-rrkjus_psl.1.0.0.UPF
Sn 118.7 Sn.pbe-dn-rrkjus_psl.1.0.0.UPF

CELL_PARAMETERS {angstrom}
6.04935000 0.00000000 0.00000000
0.00000000 8.55507000 0.00000000
0.00000000 0.00000000 26.41630000

ATOMIC_POSITIONS {angstrom}
Li 0.00000000 0.00000000 23.20804037
Li 3.02467500 2.13876750 25.34696818
Li 3.02467500 6.41630250 25.34696818
Li 0.00000000 4.27753500 23.20804037
Li 6.04100190 4.27744945 0.88600270
Li 3.00876521 6.23835704 3.45762951
Li 3.00858373 2.31679851 3.45736534
Li 6.04112288 0.00008555 1.11503202
Ni 1.51233750 0.00000000 25.34696818
Ni 4.53701250 4.27753500 25.34696818
Ni 4.53701250 0.00000000 25.34696818
Ni 1.51233750 4.27753500 25.34696818
Ni 4.53701250 6.41630250 23.20804037
Ni 1.51233750 2.13876750 23.20804037
Ni 1.51233750 6.41630250 23.20804037
Ni 4.53701250 2.13876750 23.20804037
Ni 1.23285753 4.27762055 2.92164278
Ni 4.32576920 8.55498445 3.22437358
Ni 4.78570128 4.27762055 2.92190694
Ni 1.68643779 0.00000000 3.20403303
Ni 4.55618894 2.13269340 1.13035348
Ni 1.47313771 6.42502867 1.13642923
Ni 1.47331919 2.12995578 1.13616506
Ni 4.55643091 6.42237660 1.13061764
Sn 0.00000000 6.41630250 25.34696818
Sn 3.02467500 0.00000000 23.20804037
Sn 0.00000000 2.13876750 25.34696818
Sn 3.02467500 4.27753500 23.20804037
Sn 6.03325873 2.03508005 3.35962503
Sn 3.01378617 4.27770610 1.08306830
Sn 6.03331922 6.52016105 3.35962503
Sn 3.02031947 8.55489890 0.99298872
C 2.99479121 0.00017110 4.57820895
O 2.97089628 0.00000000 5.76377250
