&CONTROL
calculation = 'relax'
prefix = 'scf'
pseudo_dir = '/vol0403/data/hp230205/u10028/POT_HYBRID_KKJUS_GBRV'
outdir = './data'
tprnfor = .true.
nstep = 50
disk_io = 'non'
/
&SYSTEM
ibrav = 0
ecutwfc = 50.0
ecutrho = 400
occupations = 'smearing'
smearing = 'mp'
degauss = 0.01
assume_isolated = 'esm'
esm_bc = 'bc1'
input_dft = 'BEEF-VDW'
nosym = .true.
nspin = 1
ntyp = 5
nat = 17
/
&ELECTRONS
electron_maxstep = 200
mixing_beta = 0.1
conv_thr = 1e-06
/
&IONS
ion_dynamics = 'bfgs'
upscale = 1.0
/
&CELL
/

K_POINTS {automatic}
6 6 1 0 0 0

ATOMIC_SPECIES
C 12.01 C.pbe-n-rrkjus_psl.1.0.0.UPF
Ge 72.64 Ge.pbe-dn-rrkjus_psl.1.0.0.UPF
Li 6.941 Li.pbe-sl-rrkjus_psl.1.0.0.UPF
Sn 118.7 Sn.pbe-dn-rrkjus_psl.1.0.0.UPF
Y 88.90 Y.pbe-spn-rrkjus_psl.1.0.0.UPF


CELL_PARAMETERS {angstrom}
8.60818000 0.00000000 0.00000000
0.00000000 6.35836000 0.00000000
0.00000000 0.00000000 24.74450000

ATOMIC_POSITIONS {angstrom}
Li 8.52605796 3.86384820 2.53284702
Li 0.00000000 6.03828016 -0.7908342199999971 0 0 0
Li 4.38655636 3.86359387 2.53309447
Li 4.30409000 6.03828016 -0.7908342199999971 0 0 0
Y 2.15187284 1.79878004 0.79776268
Y 2.15204500 4.28865024 -2.3722552199999996 0 0 0
Y 6.45579067 1.34663706 0.93039320
Y 6.45613500 4.28865024 -2.3722552199999996 0 0 0
Sn 2.15221716 4.95945722 1.09024267
Sn 2.15204500 1.10947024 -2.3722552199999996 0 0 0
Sn 6.45613500 4.48283455 0.74109777
Sn 6.45613500 1.10947024 -2.3722552199999996 0 0 0
Ge 0.26625101 0.33107981 2.74861906
Ge 0.00000000 2.85910016 -0.7908342199999971 0 0 0
Ge 4.03697817 0.33044397 2.74861906
Ge 4.30409000 2.85910016 -0.7908342199999971 0 0 0
C 2.15161459 0.51954160 2.81938833
