&CONTROL
calculation = 'relax'
prefix = 'scf'
pseudo_dir = '/vol0403/data/hp230205/u10028/POT_HYBRID_KKJUS_GBRV'
outdir = './data'
tprnfor = .true.
nstep = 50
disk_io = 'non'
/
&SYSTEM
ibrav = 0
ecutwfc = 50.0
ecutrho = 400
occupations = 'smearing'
smearing = 'mp'
degauss = 0.01
assume_isolated = 'esm'
esm_bc = 'bc1'
input_dft = 'BEEF-VDW'
nosym = .true.
nspin = 1
ntyp = 5
nat = 33
/
&ELECTRONS
electron_maxstep = 200
mixing_beta = 0.1
conv_thr = 1e-06
/
&IONS
ion_dynamics = 'bfgs'
upscale = 1.0
/
&CELL
/

K_POINTS {automatic}
6 6 1 0 0 0

ATOMIC_SPECIES
C 12.01 C.pbe-n-rrkjus_psl.1.0.0.UPF
Ga 69.72 Ga.pbe-dnl-rrkjus_psl.1.0.0.UPF
Pd 106.4 Pd.pbe-n-rrkjus_psl.1.0.0.UPF
Sc 44.95 Sc.pbe-spn-rrkjus_psl.1.0.0.UPF
Y 88.90 Y.pbe-spn-rrkjus_psl.1.0.0.UPF


CELL_PARAMETERS {angstrom}
7.06732000 0.00000000 0.00000000
0.00000000 9.48206000 0.00000000
0.00000000 0.00000000 27.39200000

ATOMIC_POSITIONS {angstrom}
Y 1.77248386 9.45020028 1.29235456
Y 1.76683000 0.00000000 -3.69600256 0 0 0
Y 1.77248386 4.77288972 1.29235456
Y 1.76683000 4.74103000 -3.69600256 0 0 0
Y 5.29483614 9.45020028 1.29235456
Y 5.30049000 0.00000000 -3.69600256 0 0 0
Y 5.29483614 4.77288972 1.29235456
Y 5.30049000 4.74103000 -3.69600256 0 0 0
Sc 2.03065306 2.37051500 3.71901184
Sc 1.76683000 2.37051500 -1.2320921600000005 0 0 0
Sc 1.64583748 7.11154500 3.79680512
Sc 1.76683000 7.11154500 -1.2320921600000005 0 0 0
Sc 5.03666694 2.37051500 3.71901184
Sc 5.30049000 2.37051500 -1.2320921600000005 0 0 0
Sc 5.42148252 7.11154500 3.79680512
Sc 5.30049000 7.11154500 -1.2320921600000005 0 0 0
Ga 0.00000000 0.23762042 4.10880000
Ga 0.00000000 0.00000000 -1.2320921600000005 0 0 0
Ga 0.00000000 4.50340958 4.10852608
Ga 0.00000000 4.74103000 -1.2320921600000005 0 0 0
Ga 3.53366000 9.34769921 3.91678208
Ga 3.53366000 0.00000000 -1.2320921600000005 0 0 0
Ga 3.53366000 4.87539079 3.91678208
Ga 3.53366000 4.74103000 -1.2320921600000005 0 0 0
Pd 0.00000000 2.37051500 0.89818368
Pd 0.00000000 2.37051500 -3.69600256 0 0 0
Pd 0.00000000 7.11154500 0.97679872
Pd 0.00000000 7.11154500 -3.69600256 0 0 0
Pd 3.53366000 2.37051500 1.03350016
Pd 3.53366000 2.37051500 -3.69600256 0 0 0
Pd 3.53366000 7.11154500 1.75418368
Pd 3.53366000 7.11154500 -3.69600256 0 0 0
C 0.00000000 2.37051500 4.24028160
