&CONTROL
calculation = 'relax'
prefix = 'scf'
pseudo_dir = '/vol0403/data/hp230205/u10028/POT_HYBRID_KKJUS_GBRV'
outdir = './data'
tprnfor = .true.
nstep = 50
disk_io = 'non'
/
&SYSTEM
ibrav = 0
ecutwfc = 50.0
ecutrho = 400
occupations = 'smearing'
smearing = 'mp'
degauss = 0.01
assume_isolated = 'esm'
esm_bc = 'bc1'
input_dft = 'BEEF-VDW'
nosym = .true.
nspin = 1
ntyp = 6
nat = 18
/
&ELECTRONS
electron_maxstep = 200
mixing_beta = 0.1
conv_thr = 1e-06
/
&IONS
ion_dynamics = 'bfgs'
upscale = 1.0
/
&CELL
/

K_POINTS {automatic}
11 8 2 0  0  0

ATOMIC_SPECIES
C 12.01 C.pbe-n-rrkjus_psl.1.0.0.UPF
Ga 69.72 Ga.pbe-dnl-rrkjus_psl.1.0.0.UPF
In 114.8 In.pbe-dn-rrkjus_psl.1.0.0.UPF
Li 6.941 Li.pbe-sl-rrkjus_psl.1.0.0.UPF
O 15.99 O.pbe-n-rrkjus_psl.1.0.0.UPF
Sc 44.95 Sc.pbe-spn-rrkjus_psl.1.0.0.UPF


CELL_PARAMETERS {angstrom}
6.04935000 0.00000000 0.00000000
0.00000000 8.37318000 0.00000000
0.00000000 0.00000000 24.52450000

ATOMIC_POSITIONS {angstrom}
Li 4.42467607 2.09329500 -0.7541283800000009 0 0 0
Li 1.13703583 2.09237395 2.24301077
Li 4.42467607 6.27988500 -0.7541283800000009 0 0 0
Li 1.05778934 6.27829410 2.17262545
Sc 1.40000107 2.09329500 -0.7541283800000009 0 0 0
Sc 4.03582385 2.09128544 2.18071854
Sc 1.40000107 6.27988500 -0.7541283800000009 0 0 0
Sc 3.97974638 6.28574623 2.04656952
In 3.02467500 0.00000000 -2.2621398799999994 0 0 0
In 5.71064689 0.03206928 0.81470389
In 3.02467500 4.18659000 -2.2621398799999994 0 0 0
In 5.71367157 4.15661402 0.81666585
Ga 0.00000000 0.00000000 -2.2621398799999994 0 0 0
Ga 2.62088089 0.00862438 0.86718632
Ga 0.00000000 4.18659000 -2.2621398799999994 0 0 0
Ga 2.63279811 4.18022638 0.86620534
C 5.63956703 2.08751751 3.66297932
O 0.63137066 2.08693138 4.24715291
