&CONTROL
calculation = 'relax'
prefix = 'scf'
pseudo_dir = '/vol0004/mdt0/data/hp150275/u10028/POT_HYBRID_KKJUS_GBRV'
outdir = './data'
tprnfor = .true.
nstep = 50
disk_io = 'non'
/
&SYSTEM
ibrav = 0
ecutwfc = 50.0
ecutrho = 400
occupations = 'smearing'
smearing = 'mp'
degauss = 0.01
assume_isolated = 'esm'
esm_bc = 'bc1'
input_dft = 'BEEF-VDW'
nosym = .true.
nspin = 2
ntyp = 3
nat = 33
starting_magnetization(1) = 0.1
starting_magnetization(2) = 0.1
starting_magnetization(3) = 0.1
/
&ELECTRONS
electron_maxstep = 200
mixing_beta = 0.1
conv_thr = 1e-06
/
&IONS
ion_dynamics = 'bfgs'
upscale = 1.0
/
&CELL
/

K_POINTS {automatic}
9 6 2 0  0  0

ATOMIC_SPECIES
C 12.01 C.pbe-n-rrkjus_psl.1.0.0.UPF
Mn 54.93 mn_pbe_v1.5.uspp.F.UPF
Zn 65.40 Zn.pbe-dnl-rrkjus_psl.1.0.0.UPF

CELL_PARAMETERS {angstrom}
6.05499000 0.00000000 0.00000000
0.00000000 8.56306000 0.00000000
0.00000000 0.00000000 26.42230000

ATOMIC_POSITIONS {angstrom}
Mn 0.00000000 0.00000000 -3.2111021199999996 0 0 0
Mn 0.00000000 2.14076500 -1.0703673699999996 0 0 0
Mn 0.01356318 4.27031239 1.12743954
Mn 6.02283800 2.14076500 3.13447745
Mn 0.00000000 4.28153000 -3.2111021199999996 0 0 0
Mn 0.00000000 6.42229500 -1.0703673699999996 0 0 0
Mn 0.01356318 0.01121761 1.12717532
Mn 0.07247823 6.42229500 3.23858131
Mn 3.02749500 0.00000000 -3.2111021199999996 0 0 0
Mn 3.02749500 2.14076500 -1.0703673699999996 0 0 0
Mn 3.01490062 4.27091181 1.12664687
Mn 3.05680115 2.14076500 3.13923346
Mn 3.02749500 4.28153000 -3.2111021199999996 0 0 0
Mn 3.02749500 6.42229500 -1.0703673699999996 0 0 0
Mn 3.01490062 0.01053256 1.12638265
Mn 2.95404797 6.42229500 3.23831709
Zn 1.51374750 2.14076500 -3.2111021199999996 0 0 0
Zn 1.51374750 4.28153000 -1.0703673699999996 0 0 0
Zn 1.51532180 2.14059374 1.01963656
Zn 1.51447410 4.24684961 3.45048816
Zn 1.51374750 6.42229500 -3.2111021199999996 0 0 0
Zn 1.51374750 0.00000000 -1.0703673699999996 0 0 0
Zn 1.51453465 6.42246626 1.02597791
Zn 1.51447410 0.03476602 3.44995971
Zn 4.54124250 2.14076500 -3.2111021199999996 0 0 0
Zn 4.54124250 4.28153000 -1.0703673699999996 0 0 0
Zn 4.53936545 2.14059374 1.00166939
Zn 4.53997095 4.26423262 3.30437284
Zn 4.54124250 6.42229500 -3.2111021199999996 0 0 0
Zn 4.54124250 0.00000000 -1.0703673699999996 0 0 0
Zn 4.54081865 6.42246626 1.09282633
Zn 4.53997095 0.01729738 3.30384439
C 1.50975121 2.14076500 4.06692042
