&CONTROL
calculation = 'relax'
prefix = 'scf'
pseudo_dir = '/vol0004/mdt0/data/hp150275/u10028/POT_HYBRID_KKJUS_GBRV'
outdir = './data'
tprnfor = .true.
nstep = 50
disk_io = 'non'
/
&SYSTEM
ibrav = 0
ecutwfc = 50.0
ecutrho = 400
occupations = 'smearing'
smearing = 'mp'
degauss = 0.01
assume_isolated = 'esm'
esm_bc = 'bc1'
input_dft = 'BEEF-VDW'
nosym = .true.
nspin = 2
ntyp = 3
nat = 33
starting_magnetization(1) = 0.1
starting_magnetization(2) = 0.1
starting_magnetization(3) = 0.1
/
&ELECTRONS
electron_maxstep = 200
mixing_beta = 0.1
conv_thr = 1e-06
/
&IONS
ion_dynamics = 'bfgs'
upscale = 1.0
/
&CELL
/

K_POINTS {automatic}
8 6 1 0 0 0

ATOMIC_SPECIES
C 12.01 C.pbe-n-rrkjus_psl.1.0.0.UPF
Ga 69.72 Ga.pbe-dnl-rrkjus_psl.1.0.0.UPF
Ni 58.69 ni_pbe_v1.4.uspp.F.UPF

CELL_PARAMETERS {angstrom}
5.82971000 0.00000000 0.00000000
0.00000000 8.24446000 0.00000000
0.00000000 0.00000000 26.18330000

ATOMIC_POSITIONS {angstrom}
Ga 0.00000000 0.00000000 -3.0917240600000007 0 0 0
Ga 0.00000000 2.06111500 -1.0305746899999981 0 0 0
Ga 0.02471797 8.23572087 1.05832899
Ga 5.53093736 2.06103256 3.27160334
Ga 0.00000000 4.12223000 -3.0917240600000007 0 0 0
Ga 0.00000000 6.18334500 -1.0305746899999981 0 0 0
Ga 0.02471797 4.13096913 1.05832899
Ga 0.08523036 6.18334500 3.33339592
Ga 2.91485500 0.00000000 -3.0917240600000007 0 0 0
Ga 2.91485500 2.06111500 -1.0305746899999981 0 0 0
Ga 2.89013703 8.23572087 1.05832899
Ga 3.21362764 2.06103256 3.27160334
Ga 2.91485500 4.12223000 -3.0917240600000007 0 0 0
Ga 2.91485500 6.18334500 -1.0305746899999981 0 0 0
Ga 2.89013703 4.13096913 1.05832899
Ga 2.82962464 6.18334500 3.33339592
Ni 1.45742750 2.06111500 -3.0917240600000007 0 0 0
Ni 1.45742750 0.00000000 -1.0305746899999981 0 0 0
Ni 1.45742750 2.06111500 1.09812760
Ni 1.45742750 3.95387813 3.11528903
Ni 1.45742750 6.18334500 -3.0917240600000007 0 0 0
Ni 1.45742750 4.12223000 -1.0305746899999981 0 0 0
Ni 1.45742750 6.18334500 1.04026251
Ni 1.45742750 0.16843432 3.11528903
Ni 4.37228250 2.06111500 -3.0917240600000007 0 0 0
Ni 4.37228250 0.00000000 -1.0305746899999981 0 0 0
Ni 4.37228250 2.06111500 0.95673778
Ni 4.37228250 4.28241986 2.96421139
Ni 4.37228250 6.18334500 -3.0917240600000007 0 0 0
Ni 4.37228250 4.12223000 -1.0305746899999981 0 0 0
Ni 4.37228250 6.18334500 1.01722121
Ni 4.37228250 8.08418770 2.96421139
C 1.45742750 2.06127989 3.87800856
