&CONTROL
calculation = 'relax'
prefix = 'scf'
pseudo_dir = '/vol0004/mdt0/data/hp150275/u10028/POT_KKJUS'
outdir = './data'
tprnfor = .true.
nstep = 50
disk_io = 'non'
/
&SYSTEM
ibrav = 0
ecutwfc = 50.0
ecutrho = 400
occupations = 'smearing'
smearing = 'mp'
degauss = 0.01
assume_isolated = 'esm'
esm_bc = 'bc1'
input_dft = 'BEEF-VDW'
nosym = .true.
nspin = 1
ntyp = 3
nat = 17
/
&ELECTRONS
electron_maxstep = 200
mixing_beta = 0.1
conv_thr = 1e-06
/
&IONS
ion_dynamics = 'bfgs'
upscale = 1.0
/
&CELL
/

K_POINTS {automatic}
7 11 3 0  0  0

ATOMIC_SPECIES
C 12.01 C.pbe-n-rrkjus_psl.1.0.0.UPF
Na 22.98 Na.pbe-spnl-rrkjus_psl.1.0.0.UPF
Pb 207.2 Pb.pbe-dn-rrkjus_psl.1.0.0.UPF

CELL_PARAMETERS {angstrom}
10.02390000 0.00000000 0.00000000
0.00000000 7.08799000 0.00000000
0.00000000 0.00000000 25.31600000

ATOMIC_POSITIONS {angstrom}
Na 0.00000000 0.00000000 -2.6579268399999982 0 0 0
Na 0.00000000 3.54399500 0.70074688
Na 5.01195000 0.00000000 -2.6579268399999982 0 0 0
Na 5.01195000 3.54399500 0.89770536
Pb 0.00000000 3.54399500 -2.6579268399999982 0 0 0
Pb 2.50597500 5.31599250 -0.8860600000000005 0 0 0
Pb 2.50597500 1.77199750 -0.8860600000000005 0 0 0
Pb 0.00000000 0.00000000 0.65391228
Pb 1.86875568 1.60082254 2.88804928
Pb 1.86875568 5.48709658 2.88804928
Pb 5.01195000 3.54399500 -2.6579268399999982 0 0 0
Pb 7.51792500 5.31599250 -0.8860600000000005 0 0 0
Pb 7.51792500 1.77199750 -0.8860600000000005 0 0 0
Pb 5.01195000 0.00000000 1.30883720
Pb 8.15514432 1.60089342 2.88804928
Pb 8.15514432 5.48716746 2.88804928
C 0.00000000 0.00000000 3.23589112
