&CONTROL
calculation = 'relax'
prefix = 'scf'
pseudo_dir = '/vol0004/mdt0/data/hp150275/u10028/POT_KKJUS'
outdir = './data'
tprnfor = .true.
nstep = 50
disk_io = 'non'
/
&SYSTEM
ibrav = 0
ecutwfc = 50.0
ecutrho = 400
occupations = 'smearing'
smearing = 'mp'
degauss = 0.01
assume_isolated = 'esm'
esm_bc = 'bc1'
input_dft = 'BEEF-VDW'
nosym = .true.
nspin = 1
ntyp = 4
nat = 18
/
&ELECTRONS
electron_maxstep = 200
mixing_beta = 0.1
conv_thr = 1e-06
/
&IONS
ion_dynamics = 'bfgs'
upscale = 1.0
/
&CELL
/

K_POINTS {automatic}
8 8 1 0 0 0

ATOMIC_SPECIES
C 12.01 C.pbe-n-rrkjus_psl.1.0.0.UPF
O 15.99 O.pbe-n-rrkjus_psl.1.0.0.UPF
Rh 102.9 Rh.pbe-spn-rrkjus_psl.1.0.0.UPF
Y 88.90 Y.pbe-spn-rrkjus_psl.1.0.0.UPF

CELL_PARAMETERS {angstrom}
6.88160000 0.00000000 0.00000000
0.00000000 6.88160000 0.00000000
0.00000000 0.00000000 25.16120000

ATOMIC_POSITIONS {angstrom}
Y 0.00000000 0.00000000 -2.517881280000001 0 0 0
Y 6.86687338 6.86680456 0.99235773
Y 0.00000000 3.44080000 -2.517881280000001 0 0 0
Y 6.86687338 3.45552662 0.99210612
Y 3.44080000 0.00000000 -2.517881280000001 0 0 0
Y 3.45559544 6.86680456 0.99235773
Y 3.44080000 3.44080000 -2.517881280000001 0 0 0
Y 3.45552662 3.45552662 0.99235773
Rh 1.72040000 1.72040000 -0.7973584299999992 0 0 0
Rh 1.72046882 1.71998710 2.36515280
Rh 1.72040000 5.16120000 -0.7973584299999992 0 0 0
Rh 1.72053763 5.16147526 2.30401108
Rh 5.16120000 1.72040000 -0.7973584299999992 0 0 0
Rh 5.16113118 1.72005592 2.30426270
Rh 5.16120000 5.16120000 -0.7973584299999992 0 0 0
Rh 5.16106237 5.16161290 2.33596581
C 1.72040000 1.72040000 4.24947507
O 1.72040000 1.72040000 5.40361931
