&CONTROL
calculation = 'relax'
prefix = 'scf'
pseudo_dir = '/vol0403/data/hp230205/u10028/POT_HYBRID_KKJUS_GBRV'
outdir = './data'
tprnfor = .true.
nstep = 50
disk_io = 'non'
/
&SYSTEM
ibrav = 0
ecutwfc = 50.0
ecutrho = 400
occupations = 'smearing'
smearing = 'mp'
degauss = 0.01
assume_isolated = 'esm'
esm_bc = 'bc1'
input_dft = 'BEEF-VDW'
nosym = .true.
nspin = 1
ntyp = 6
nat = 34
/
&ELECTRONS
electron_maxstep = 200
mixing_beta = 0.1
conv_thr = 1e-06
/
&IONS
ion_dynamics = 'bfgs'
upscale = 1.0
/
&CELL
/

K_POINTS {automatic}
6 6 1 0 0 0

ATOMIC_SPECIES
C 12.01 C.pbe-n-rrkjus_psl.1.0.0.UPF
In 114.8 In.pbe-dn-rrkjus_psl.1.0.0.UPF
Li 6.941 Li.pbe-sl-rrkjus_psl.1.0.0.UPF
O 15.99 O.pbe-n-rrkjus_psl.1.0.0.UPF
Pd 106.4 Pd.pbe-n-rrkjus_psl.1.0.0.UPF
Y 88.90 Y.pbe-spn-rrkjus_psl.1.0.0.UPF


CELL_PARAMETERS {angstrom}
6.81638000 0.00000000 0.00000000
0.00000000 9.63982000 0.00000000
0.00000000 0.00000000 27.22990000

ATOMIC_POSITIONS {angstrom}
Li 5.11228500 0.00000000 -1.2049230699999995 0 0 0
Li 5.11228500 4.81991000 -1.2049230699999995 0 0 0
Li 1.70409500 2.40995500 -3.615041520000002 0 0 0
Li 1.70409500 7.22986500 -3.615041520000002 0 0 0
Li 3.59543596 4.81991000 5.02391655
Li 4.16426287 0.00009640 4.78783332
Li 1.64022552 7.19419767 1.27136403
Li 1.64015736 2.44552594 1.27136403
Y 0.00000000 2.40995500 -1.2049230699999995 0 0 0
Y 0.00000000 7.22986500 -1.2049230699999995 0 0 0
Y 3.40819000 4.81991000 -3.615041520000002 0 0 0
Y 3.40819000 0.00000000 -3.615041520000002 0 0 0
Y 6.47590182 7.30592318 3.62293820
Y 6.47583366 2.33389682 3.62293820
Y 3.47171866 0.00000000 1.34842465
Y 3.52243253 4.81991000 1.44073401
In 0.00000000 0.00000000 -3.615041520000002 0 0 0
In 0.00000000 4.81991000 -3.615041520000002 0 0 0
In 3.40819000 7.22986500 -1.2049230699999995 0 0 0
In 3.40819000 2.40995500 -1.2049230699999995 0 0 0
In 6.78734222 4.81991000 1.15590926
In 6.79640801 0.00000000 1.19947709
In 3.19211075 2.40253234 3.68420547
In 3.19224708 7.23728766 3.68420547
Pd 1.70409500 0.00000000 -1.2049230699999995 0 0 0
Pd 1.70409500 4.81991000 -1.2049230699999995 0 0 0
Pd 5.11228500 2.40995500 -3.615041520000002 0 0 0
Pd 5.11228500 7.22986500 -3.615041520000002 0 0 0
Pd 1.53382183 4.81991000 3.41081727
Pd 1.62645643 0.00000000 3.44839454
Pd 5.11698830 7.26591793 1.14828488
Pd 5.11698830 2.37390207 1.14828488
C 6.19384001 0.00019280 5.35013075
O 0.10504042 0.00019280 6.28112103
