&CONTROL
calculation = 'relax'
prefix = 'scf'
pseudo_dir = '/vol0004/mdt0/data/hp150275/u10028/POT_HYBRID_KKJUS_GBRV'
outdir = './data'
tprnfor = .true.
nstep = 50
disk_io = 'non'
/
&SYSTEM
ibrav = 0
ecutwfc = 50.0
ecutrho = 400
occupations = 'smearing'
smearing = 'mp'
degauss = 0.01
assume_isolated = 'esm'
esm_bc = 'bc1'
input_dft = 'BEEF-VDW'
nosym = .true.
nspin = 2
ntyp = 3
nat = 17
starting_magnetization(1) = 0.0
starting_magnetization(2) = 0.0
starting_magnetization(3) = 0.001
/
&ELECTRONS
electron_maxstep = 200
mixing_beta = 0.1
conv_thr = 1e-06
/
&IONS
ion_dynamics = 'bfgs'
upscale = 1.0
/
&CELL
/

K_POINTS {automatic}
8 11 2 0  0  0

ATOMIC_SPECIES
C 12.01 C.pbe-n-rrkjus_psl.1.0.0.UPF
In 114.8 In.pbe-dn-rrkjus_psl.1.0.0.UPF
Ni 58.69 ni_pbe_v1.4.uspp.F.UPF

CELL_PARAMETERS {angstrom}
7.54029000 0.00000000 0.00000000
0.00000000 5.33179000 0.00000000
0.00000000 0.00000000 23.99880000

ATOMIC_POSITIONS {angstrom}
In 0.00000000 0.00000000 21.99945997
In 7.53923436 2.66589500 0.56877156
In 3.77014500 0.00000000 21.99945997
In 3.77074822 2.66589500 1.05786710
Ni 0.00000000 2.66589500 21.99945997
Ni 1.88507250 3.99884250 23.33235332
Ni 1.88507250 1.33294750 23.33235332
Ni 7.53961137 0.00000000 0.48669566
Ni 1.51733256 1.18738963 1.99142042
Ni 1.51733256 4.14440037 1.99118044
Ni 3.77014500 2.66589500 21.99945997
Ni 5.65521750 3.99884250 23.33235332
Ni 5.65521750 1.33294750 23.33235332
Ni 3.77218088 0.00000000 0.83779811
Ni 6.02242962 1.18808277 1.99094045
Ni 6.02242962 4.14370723 1.99094045
C 0.00022621 0.00000000 2.34636268
