&CONTROL
calculation = 'relax'
prefix = 'scf'
pseudo_dir = '/vol0403/data/hp230205/u10028/POT_HYBRID_KKJUS_GBRV'
outdir = './data'
tprnfor = .true.
nstep = 70
disk_io = 'non'
/
&SYSTEM
ibrav = 0
ecutwfc = 50.0
ecutrho = 400
occupations = 'smearing'
smearing = 'mp'
degauss = 0.01
assume_isolated = 'esm'
esm_bc = 'bc1'
input_dft = 'BEEF-VDW'
nosym = .true.
nspin = 1
ntyp = 5
nat = 33
/
&ELECTRONS
electron_maxstep = 200
mixing_beta = 0.1
conv_thr = 1e-06
/
&IONS
ion_dynamics = 'bfgs'
upscale = 1.0
/
&CELL
/

K_POINTS {automatic}
6 6 1 0 0 0

ATOMIC_SPECIES
C 12.01 C.pbe-n-rrkjus_psl.1.0.0.UPF
Cu 63.54 Cu.pbe-dn-rrkjus_psl.1.0.0.UPF
Li 6.941 Li.pbe-sl-rrkjus_psl.1.0.0.UPF
Pd 106.4 Pd.pbe-n-rrkjus_psl.1.0.0.UPF
Si 28.08 Si.pbe-nl-rrkjus_psl.1.0.0.UPF


CELL_PARAMETERS {angstrom}
5.89837000 0.00000000 0.00000000
-0.00000000 8.34156000 0.00000000
0.00000000 0.00000000 26.25620000

ATOMIC_POSITIONS {angstrom}
Li 1.47459250 0.00000000 -1.0426336999999997 0 0 0
Li 1.47459250 4.17078000 -1.0426336999999997 0 0 0
Li 4.42377750 2.08539000 -3.1281636699999993 0 0 0
Li 4.42377750 6.25617000 -3.1281636699999993 0 0 0
Li 1.41147994 4.17078000 4.18103729
Li 1.28201072 -0.00000000 4.28159853
Li 4.27655418 6.08708658 1.02871792
Li 4.27655418 2.25447342 1.02871792
Cu 0.00000000 0.00000000 -3.1281636699999993 0 0 0
Cu 0.00000000 4.17078000 -3.1281636699999993 0 0 0
Cu 2.94918500 6.25617000 -1.0426336999999997 0 0 0
Cu 2.94918500 2.08539000 -1.0426336999999997 0 0 0
Cu 5.84593349 4.17078000 0.98592031
Cu 0.04117062 0.00000000 1.02084106
Cu 2.93756521 1.91822514 3.15888342
Cu 2.93756521 6.42333486 3.15888342
Si 4.42377750 0.00000000 -1.0426336999999997 0 0 0
Si 4.42377750 4.17078000 -1.0426336999999997 0 0 0
Si 1.47459250 2.08539000 -3.1281636699999993 0 0 0
Si 1.47459250 6.25617000 -3.1281636699999993 0 0 0
Si 4.47125938 4.17078000 3.19485442
Si 4.86709899 -0.00000000 3.17437458
Si 1.50243281 6.28169517 0.96832866
Si 1.50243281 2.05986483 0.96832866
Pd 0.00000000 2.08539000 -1.0426336999999997 0 0 0
Pd 0.00000000 6.25617000 -1.0426336999999997 0 0 0
Pd 2.94918500 4.17078000 -3.1281636699999993 0 0 0
Pd 2.94918500 0.00000000 -3.1281636699999993 0 0 0
Pd 0.05196464 6.14889754 2.94647076
Pd 0.05196464 2.19266246 2.94647076
Pd 3.00757886 -0.00000000 1.05418643
Pd 2.48333174 4.17078000 1.81089011
C 3.13114971 -0.00000000 3.55929047
