&CONTROL
calculation = 'relax'
prefix = 'scf'
pseudo_dir = '/vol0004/mdt0/data/hp150275/u10028/POT_KKJUS'
outdir = './data'
tprnfor = .true.
nstep = 50
disk_io = 'non'
/
&SYSTEM
ibrav = 0
ecutwfc = 50.0
ecutrho = 400
occupations = 'smearing'
smearing = 'mp'
degauss = 0.01
assume_isolated = 'esm'
esm_bc = 'bc1'
input_dft = 'BEEF-VDW'
nosym = .true.
nspin = 1
ntyp = 4
nat = 34
/
&ELECTRONS
electron_maxstep = 200
mixing_beta = 0.1
conv_thr = 1e-06
/
&IONS
ion_dynamics = 'bfgs'
upscale = 1.0
/
&CELL
/

K_POINTS {automatic}
9 6 2 0  0  0

ATOMIC_SPECIES
Bi 208.9 Bi.pbe-dn-rrkjus_psl.1.0.0.UPF
C 12.01 C.pbe-n-rrkjus_psl.1.0.0.UPF
Li 6.941 Li.pbe-sl-rrkjus_psl.1.0.0.UPF
O 15.99 O.pbe-n-rrkjus_psl.1.0.0.UPF

CELL_PARAMETERS {angstrom}
6.74000000 0.00000000 0.00000000
0.00000000 9.53179000 0.00000000
0.00000000 0.00000000 27.14880000

ATOMIC_POSITIONS {angstrom}
Li 1.68500000 0.00000000 -1.1915608300000002 0 0 0
Li 5.05500000 4.76589500 -1.1915608300000002 0 0 0
Li 5.05500000 0.00000000 -1.1915608300000002 0 0 0
Li 1.68500000 4.76589500 -1.1915608300000002 0 0 0
Li 5.05500000 7.14884250 -3.574411010000002 0 0 0
Li 1.68500000 2.38294750 -3.574411010000002 0 0 0
Li 1.68500000 7.14884250 -3.574411010000002 0 0 0
Li 5.05500000 2.38294750 -3.574411010000002 0 0 0
Li 0.00000000 7.14884250 -1.1915608300000002 0 0 0
Li 3.37000000 0.00000000 -3.574411010000002 0 0 0
Li 0.00000000 2.38294750 -1.1915608300000002 0 0 0
Li 3.37000000 4.76589500 -3.574411010000002 0 0 0
Li 1.88962640 4.76732477 3.54644774
Li 4.85037360 9.53026491 3.54644774
Li 4.85037360 4.76732477 3.54644774
Li 1.88962640 9.53026491 3.54644774
Li 5.01732340 2.38294750 1.15219507
Li 1.77302440 7.14884250 1.19318976
Li 1.72267660 2.38294750 1.15219507
Li 4.96697560 7.14884250 1.19318976
Li 6.73993260 2.38294750 3.27034445
Li 3.37000000 4.71003871 1.19753357
Li 0.00000000 7.14884250 3.28717670
Li 3.37000000 0.05595161 1.19753357
Bi 0.00000000 0.00000000 -3.574411010000002 0 0 0
Bi 3.37000000 2.38294750 -1.1915608300000002 0 0 0
Bi 3.37000000 7.14884250 -1.1915608300000002 0 0 0
Bi 0.00000000 4.76589500 -3.574411010000002 0 0 0
Bi 0.00000000 4.78600708 1.28522419
Bi 3.37000000 7.14884250 3.63739622
Bi 3.37000000 2.38294750 3.53260186
Bi 0.00000000 9.51158261 1.28549568
C 3.37000000 2.38294750 7.95839923
O 3.37000000 2.38313814 9.09457651
