&CONTROL
calculation = 'relax'
prefix = 'scf'
pseudo_dir = '/vol0004/mdt0/data/hp150275/u10028/POT_KKJUS'
outdir = './data'
tprnfor = .true.
nstep = 50
disk_io = 'non'
/
&SYSTEM
ibrav = 0
ecutwfc = 50.0
ecutrho = 400
occupations = 'smearing'
smearing = 'mp'
degauss = 0.01
assume_isolated = 'esm'
esm_bc = 'bc1'
input_dft = 'BEEF-VDW'
nosym = .true.
nspin = 1
ntyp = 3
nat = 33
/
&ELECTRONS
electron_maxstep = 200
mixing_beta = 0.1
conv_thr = 1e-06
/
&IONS
ion_dynamics = 'bfgs'
upscale = 1.0
/
&CELL
/

K_POINTS {automatic}
9 6 2 0  0  0

ATOMIC_SPECIES
C 12.01 C.pbe-n-rrkjus_psl.1.0.0.UPF
In 114.8 In.pbe-dn-rrkjus_psl.1.0.0.UPF
Ni 58.69 Ni.pbe-spn-rrkjus_psl.1.0.0.UPF

CELL_PARAMETERS {angstrom}
6.37073000 0.00000000 0.00000000
0.00000000 9.00957000 0.00000000
0.00000000 0.00000000 26.75720000

ATOMIC_POSITIONS {angstrom}
In 0.00000000 0.00000000 -3.378631640000002 0 0 0
In 0.00000000 2.25239250 -1.1262105499999997 0 0 0
In 0.00000000 0.00000000 1.18213310
In 6.37066629 2.37411179 3.65075237
In 0.00000000 4.50478500 -3.378631640000002 0 0 0
In 0.00000000 6.75717750 -1.1262105499999997 0 0 0
In 0.00000000 4.50496519 1.08206117
In 0.00000000 6.63563840 3.65101994
In 3.18536500 0.00000000 -3.378631640000002 0 0 0
In 3.18536500 2.25239250 -1.1262105499999997 0 0 0
In 3.18555612 9.00947990 1.11952125
In 3.18530129 2.32491954 3.62078430
In 3.18536500 4.50478500 -3.378631640000002 0 0 0
In 3.18536500 6.75717750 -1.1262105499999997 0 0 0
In 3.18542871 4.50496519 1.08928561
In 3.18530129 6.68474056 3.62105188
Ni 1.59268250 2.25239250 -3.378631640000002 0 0 0
Ni 1.59268250 0.00000000 -1.1262105499999997 0 0 0
Ni 1.58707626 2.27185317 1.13664586
Ni 1.78883728 9.00875914 3.39923469
Ni 1.59268250 6.75717750 -3.378631640000002 0 0 0
Ni 1.59268250 4.50478500 -1.1262105499999997 0 0 0
Ni 1.58726738 6.73780692 1.13691343
Ni 1.60453206 4.50487510 3.20578013
Ni 4.77804750 2.25239250 -3.378631640000002 0 0 0
Ni 4.77804750 0.00000000 -1.1262105499999997 0 0 0
Ni 4.78409969 2.27212346 1.13691343
Ni 4.58195643 0.00027029 3.39896712
Ni 4.77804750 6.75717750 -3.378631640000002 0 0 0
Ni 4.77804750 4.50478500 -1.1262105499999997 0 0 0
Ni 4.78276184 6.73681587 1.13771614
Ni 4.76677131 4.50478500 3.20578013
C 6.37053888 0.00018019 3.69195846
