&CONTROL
calculation = 'relax'
prefix = 'scf'
pseudo_dir = '/vol0004/mdt0/data/hp150275/u10028/POT_KKJUS'
outdir = './data'
tprnfor = .true.
nstep = 50
disk_io = 'non'
/
&SYSTEM
ibrav = 0
ecutwfc = 50.0
ecutrho = 400
occupations = 'smearing'
smearing = 'mp'
degauss = 0.01
assume_isolated = 'esm'
esm_bc = 'bc1'
input_dft = 'BEEF-VDW'
nosym = .true.
nspin = 1
ntyp = 3
nat = 33
/
&ELECTRONS
electron_maxstep = 200
mixing_beta = 0.1
conv_thr = 1e-06
/
&IONS
ion_dynamics = 'bfgs'
upscale = 1.0
/
&CELL
/

K_POINTS {automatic}
8 6 2 0  0  0

ATOMIC_SPECIES
C 12.01 C.pbe-n-rrkjus_psl.1.0.0.UPF
In 114.8 In.pbe-dn-rrkjus_psl.1.0.0.UPF
Sb 121.7 Sb.pbe-n-rrkjus_psl.1.0.0.UPF

CELL_PARAMETERS {angstrom}
7.67805000 0.00000000 0.00000000
0.00000000 10.85840000 0.00000000
0.00000000 0.00000000 28.14380000

ATOMIC_POSITIONS {angstrom}
In 0.00000000 0.00000000 -4.071844979999998 0 0 0
In 0.00000000 2.71460000 -1.3573754699999974 0 0 0
In 0.00015356 0.46343651 1.95655698
In 7.67520912 3.41507538 4.32879788
In 0.00000000 5.42920000 -4.071844979999998 0 0 0
In 0.00000000 8.14380000 -1.3573754699999974 0 0 0
In 7.67766610 5.18195423 1.32050710
In 0.00107493 8.19483448 3.54752599
In 3.83902500 0.00000000 -4.071844979999998 0 0 0
In 3.83902500 2.71460000 -1.3573754699999974 0 0 0
In 3.83917856 0.07025385 2.67337956
In 3.83533954 3.17206439 4.58406214
In 3.83902500 5.42920000 -4.071844979999998 0 0 0
In 3.83902500 8.14380000 -1.3573754699999974 0 0 0
In 3.83871788 5.80359763 1.42548347
In 3.83948568 8.55587628 5.07404570
Sb 1.91951250 2.71460000 -4.071844979999998 0 0 0
Sb 1.91951250 0.00000000 -1.3573754699999974 0 0 0
Sb 2.24360299 2.58972840 1.54481318
Sb 1.83866263 0.15755538 5.04927916
Sb 1.91951250 8.14380000 -4.071844979999998 0 0 0
Sb 1.91951250 5.42920000 -1.3573754699999974 0 0 0
Sb 1.98262607 8.98695476 0.94563168
Sb 2.08589584 6.16431368 4.01218013
Sb 5.75853750 2.71460000 -4.071844979999998 0 0 0
Sb 5.75853750 0.00000000 -1.3573754699999974 0 0 0
Sb 5.43237394 2.58799106 1.54425031
Sb 5.84069263 0.15744680 5.04871628
Sb 5.75853750 8.14380000 -4.071844979999998 0 0 0
Sb 5.75853750 5.42920000 -1.3573754699999974 0 0 0
Sb 5.69649886 8.98652042 0.94506880
Sb 5.59361299 6.16344501 4.01077294
C 0.00030712 10.38258491 4.11940801
