&CONTROL
calculation = 'relax'
prefix = 'scf'
pseudo_dir = '/vol0403/data/hp230205/u10028/POT_HYBRID_KKJUS_GBRV'
outdir = './data'
tprnfor = .true.
nstep = 50
disk_io = 'non'
/
&SYSTEM
ibrav = 0
ecutwfc = 50.0
ecutrho = 400
occupations = 'smearing'
smearing = 'mp'
degauss = 0.01
assume_isolated = 'esm'
esm_bc = 'bc1'
input_dft = 'BEEF-VDW'
nosym = .true.
nspin = 2
ntyp = 5
nat = 17
starting_magnetization(1) = 0.0
starting_magnetization(2) = 0.0
starting_magnetization(3) = 0.0
starting_magnetization(4) = 0.001
starting_magnetization(5) = 0.0
/
&ELECTRONS
electron_maxstep = 400
mixing_beta = 0.05
conv_thr = 1e-06
/
&IONS
ion_dynamics = 'bfgs'
upscale = 1.0
/
&CELL
/

K_POINTS {automatic}
10 10 2 0  0  0

ATOMIC_SPECIES
Al 26.98 Al.pbe-nl-rrkjus_psl.1.0.0.UPF
C 12.01 C.pbe-n-rrkjus_psl.1.0.0.UPF
Li 6.941 Li.pbe-sl-rrkjus_psl.1.0.0.UPF
Ni 58.69 ni_pbe_v1.4.uspp.F.UPF
Pd 106.4 Pd.pbe-n-rrkjus_psl.1.0.0.UPF


CELL_PARAMETERS {angstrom}
5.91240000 0.00000000 0.00000000
0.00000000 5.91240000 0.00000000
0.00000000 0.00000000 24.43430000

ATOMIC_POSITIONS {angstrom}
Li 0.00000000 2.95620000 22.21713162
Li 0.00000000 0.00000000 0.61525567
Li 2.95620000 2.95620000 0.84322769
Li 2.95620000 0.00000000 22.21713162
Al 0.00000000 0.00000000 22.21713162
Al 0.00000000 2.95620000 0.82025945
Al 2.95620000 0.00000000 0.82025945
Al 2.95620000 2.95620000 22.21713162
Ni 1.47810000 1.47810000 23.69516242
Ni 1.25384267 4.65855733 2.25333115
Ni 4.65861646 1.25384267 2.25308680
Ni 4.43430000 4.43430000 23.69516242
Pd 4.43430000 1.47810000 23.69516242
Pd 4.44659779 4.44659779 2.30244409
Pd 1.46580221 1.46580221 2.30244409
Pd 1.47810000 4.43430000 23.69516242
C 0.00000000 0.00000000 2.71147427
