&CONTROL
calculation = 'relax'
prefix = 'scf'
pseudo_dir = '/vol0004/mdt0/data/hp150275/u10028/POT_HYBRID_KKJUS_GBRV'
outdir = './data'
tprnfor = .true.
nstep = 50
disk_io = 'non'
/
&SYSTEM
ibrav = 0
ecutwfc = 50.0
ecutrho = 400
occupations = 'smearing'
smearing = 'mp'
degauss = 0.01
assume_isolated = 'esm'
esm_bc = 'bc1'
input_dft = 'BEEF-VDW'
nosym = .true.
nspin = 2
ntyp = 3
nat = 33
starting_magnetization(1) = 0.1
starting_magnetization(2) = 0.1
starting_magnetization(3) = 0.1
/
&ELECTRONS
electron_maxstep = 200
mixing_beta = 0.1
conv_thr = 1e-06
/
&IONS
ion_dynamics = 'bfgs'
upscale = 1.0
/
&CELL
/

K_POINTS {automatic}
8 6 1 0 0 0

ATOMIC_SPECIES
C 12.01 C.pbe-n-rrkjus_psl.1.0.0.UPF
Mn 54.93 mn_pbe_v1.5.uspp.F.UPF
Rh 102.9 Rh.pbe-spn-rrkjus_psl.1.0.0.UPF

CELL_PARAMETERS {angstrom}
6.11529000 0.00000000 0.00000000
0.00000000 8.64833000 0.00000000
0.00000000 0.00000000 26.48620000

ATOMIC_POSITIONS {angstrom}
Mn 0.00000000 0.00000000 -3.24323519 0 0 0
Mn 0.00000000 2.16208250 -1.081166679999999 0 0 0
Mn 0.00000000 0.00000000 1.09440978
Mn 0.00000000 2.14392101 3.36639602
Mn 0.00000000 4.32416500 -3.24323519 0 0 0
Mn 0.00000000 6.48624750 -1.081166679999999 0 0 0
Mn 0.00000000 4.32416500 1.05944800
Mn 0.00000000 6.50440899 3.36639602
Mn 3.05764500 0.00000000 -3.24323519 0 0 0
Mn 3.05764500 2.16208250 -1.081166679999999 0 0 0
Mn 3.05764500 0.00000000 0.99852974
Mn 3.05764500 2.23317177 3.32375324
Mn 3.05764500 4.32416500 -3.24323519 0 0 0
Mn 3.05764500 6.48624750 -1.081166679999999 0 0 0
Mn 3.05764500 4.32416500 1.08381530
Mn 3.05764500 6.41515823 3.32375324
Rh 1.52882250 2.16208250 -3.24323519 0 0 0
Rh 1.52882250 0.00000000 -1.081166679999999 0 0 0
Rh 1.53371473 2.14599661 1.10712316
Rh 1.64378995 0.00000000 3.21463009
Rh 1.52882250 6.48624750 -3.24323519 0 0 0
Rh 1.52882250 4.32416500 -1.081166679999999 0 0 0
Rh 1.53371473 6.50233339 1.10712316
Rh 1.48968464 4.32416500 3.13199315
Rh 4.58646750 2.16208250 -3.24323519 0 0 0
Rh 4.58646750 0.00000000 -1.081166679999999 0 0 0
Rh 4.58157527 2.14599661 1.10712316
Rh 4.47150005 0.00000000 3.21463009
Rh 4.58646750 6.48624750 -3.24323519 0 0 0
Rh 4.58646750 4.32416500 -1.081166679999999 0 0 0
Rh 4.58157527 6.50233339 1.10712316
Rh 4.62560536 4.32416500 3.13199315
C 0.00000000 0.00000000 4.07198839
