&CONTROL
calculation = 'relax'
prefix = 'scf'
pseudo_dir = '/vol0403/data/hp230205/u10028/POT_HYBRID_KKJUS_GBRV'
outdir = './data'
tprnfor = .true.
nstep = 50
disk_io = 'non'
/
&SYSTEM
ibrav = 0
ecutwfc = 50.0
ecutrho = 400
occupations = 'smearing'
smearing = 'mp'
degauss = 0.01
assume_isolated = 'esm'
esm_bc = 'bc1'
input_dft = 'BEEF-VDW'
nosym = .true.
nspin = 1
ntyp = 6
nat = 18
/
&ELECTRONS
electron_maxstep = 200
mixing_beta = 0.1
conv_thr = 1e-06
/
&IONS
ion_dynamics = 'bfgs'
upscale = 1.0
/
&CELL
/

K_POINTS {automatic}
6 6 1 0 0 0

ATOMIC_SPECIES
C 12.01 C.pbe-n-rrkjus_psl.1.0.0.UPF
Ga 69.72 Ga.pbe-dnl-rrkjus_psl.1.0.0.UPF
Ge 72.64 Ge.pbe-dn-rrkjus_psl.1.0.0.UPF
Li 6.941 Li.pbe-sl-rrkjus_psl.1.0.0.UPF
O 15.99 O.pbe-n-rrkjus_psl.1.0.0.UPF
Sc 44.95 Sc.pbe-spn-rrkjus_psl.1.0.0.UPF


CELL_PARAMETERS {angstrom}
5.77599000 0.00000000 0.00000000
0.00000000 8.07712000 0.00000000
0.00000000 0.00000000 24.32640000

ATOMIC_POSITIONS {angstrom}
Li 1.75855792 2.01338370 0.67967962
Li 4.11210056 2.01928000 -2.163103490000001 0 0 0
Li 1.75861568 6.06373630 0.67967962
Li 4.11210056 6.05784000 -2.163103490000001 0 0 0
Sc 3.53398172 0.00008077 2.42607187
Sc 5.62939537 0.00000000 -0.7210344999999982 0 0 0
Sc 3.46830872 4.03839846 2.29714195
Sc 5.62939537 4.03856000 -0.7210344999999982 0 0 0
Ga 0.59596665 0.00016154 2.34360538
Ga 2.74140037 0.00000000 -0.7210344999999982 0 0 0
Ga 0.56887726 4.03847923 2.36695872
Ga 2.74140037 4.03856000 -0.7210344999999982 0 0 0
Ge 4.80579696 2.02428781 1.13871878
Ge 1.22410556 2.01928000 -2.163103490000001 0 0 0
Ge 4.80597024 6.05283219 1.13871878
Ge 1.22410556 6.05784000 -2.163103490000001 0 0 0
C 4.59531988 8.07695846 4.44613613
O 5.08131168 8.07687769 5.49922598
