&CONTROL
calculation = 'relax'
prefix = 'scf'
pseudo_dir = '/vol0004/mdt0/data/hp150275/u10028/POT_HYBRID_KKJUS_GBRV'
outdir = './data'
tprnfor = .true.
nstep = 50
disk_io = 'non'
/
&SYSTEM
ibrav = 0
ecutwfc = 50.0
ecutrho = 400
occupations = 'smearing'
smearing = 'mp'
degauss = 0.01
assume_isolated = 'esm'
esm_bc = 'bc1'
input_dft = 'BEEF-VDW'
nosym = .true.
nspin = 2
ntyp = 4
nat = 17
starting_magnetization(1) = 0.1
starting_magnetization(2) = 0.1
starting_magnetization(3) = 0.1
starting_magnetization(4) = 0.1
/
&ELECTRONS
electron_maxstep = 200
mixing_beta = 0.1
conv_thr = 1e-06
/
&IONS
ion_dynamics = 'bfgs'
upscale = 1.0
/
&CELL
/

K_POINTS {automatic}
10 10 2 0  0  0

ATOMIC_SPECIES
C 12.01 C.pbe-n-rrkjus_psl.1.0.0.UPF
Co 58.93 co_pbe_v1.2.uspp.F.UPF
Ga 69.72 Ga.pbe-dnl-rrkjus_psl.1.0.0.UPF
Ta 180.9 Ta.pbe-spn-rrkjus_psl.1.0.0.UPF

CELL_PARAMETERS {angstrom}
5.95946000 0.00000000 0.00000000
-0.00000000 5.95946000 0.00000000
0.00000000 0.00000000 24.46960000

ATOMIC_POSITIONS {angstrom}
Ta 0.00000000 0.00000000 -2.2348085699999984 0 0 0
Ta 2.97973000 2.97973000 -2.2348085699999984 0 0 0
Ta 2.97973000 -0.00000000 0.74485462
Ta 0.00000000 2.97973000 0.74485462
Ga 0.00000000 0.00000000 0.74485462
Ga 2.97973000 0.00000000 -2.2348085699999984 0 0 0
Ga 0.00000000 2.97973000 -2.2348085699999984 0 0 0
Ga 2.97973000 2.97973000 0.74485462
Co 1.48986500 1.48986500 -0.7448546199999981 0 0 0
Co 4.46959500 4.46959500 2.23480857
Co 4.46959500 1.48986500 -0.7448546199999981 0 0 0
Co 1.48986500 4.46959500 2.23480857
Co 4.46959500 4.46959500 -0.7448546199999981 0 0 0
Co 1.48986500 1.48986500 2.23480857
Co 1.48986500 4.46959500 -0.7448546199999981 0 0 0
Co 4.46959500 1.48986500 2.23480857
C 0.00000000 0.00000000 3.03471979
