&CONTROL
calculation = 'relax'
prefix = 'scf'
pseudo_dir = '/vol0004/mdt0/data/hp150275/u10028/POT_KKJUS'
outdir = './data'
tprnfor = .true.
nstep = 50
disk_io = 'non'
/
&SYSTEM
ibrav = 0
ecutwfc = 50.0
ecutrho = 400
occupations = 'smearing'
smearing = 'mp'
degauss = 0.01
assume_isolated = 'esm'
esm_bc = 'bc1'
input_dft = 'BEEF-VDW'
nosym = .true.
nspin = 1
ntyp = 2
nat = 32
/
&ELECTRONS
electron_maxstep = 200
mixing_beta = 0.1
conv_thr = 1e-06
/
&IONS
ion_dynamics = 'bfgs'
upscale = 1.0
/
&CELL
/

K_POINTS {automatic}
9 6 2 0  0  0

ATOMIC_SPECIES
Au 196.9 Au.pbe-n-rrkjus_psl.1.0.0.UPF
Ti 47.86 Ti.pbe-spn-rrkjus_psl.1.0.0.UPF

CELL_PARAMETERS {angstrom}
6.57738000 0.00000000 0.00000000
0.00000000 9.30182000 0.00000000
0.00000000 0.00000000 26.97640000

ATOMIC_POSITIONS {angstrom}
Ti 1.64434500 2.32545500 -3.4883182800000014 0 0 0
Ti 1.64434500 0.00000000 -1.1626828400000022 0 0 0
Ti 1.64434500 2.32554802 1.24738874
Ti 1.64434500 4.65118905 3.34588289
Ti 1.64434500 6.97636500 -3.4883182800000014 0 0 0
Ti 1.64434500 4.65091000 -1.1626828400000022 0 0 0
Ti 1.64434500 6.97627198 1.24738874
Ti 1.64434500 9.30154095 3.34615266
Ti 4.93303500 2.32545500 -3.4883182800000014 0 0 0
Ti 4.93303500 0.00000000 -1.1626828400000022 0 0 0
Ti 4.93303500 2.32526896 1.24765850
Ti 4.93303500 4.65118905 3.34750148
Ti 4.93303500 6.97636500 -3.4883182800000014 0 0 0
Ti 4.93303500 4.65091000 -1.1626828400000022 0 0 0
Ti 4.93303500 6.97645802 1.24792826
Ti 4.93303500 9.30154095 3.34750148
Au 0.00000000 0.00000000 -3.4883182800000014 0 0 0
Au 0.00000000 2.32545500 -1.1626828400000022 0 0 0
Au 6.57678804 0.00093018 1.03643329
Au 6.57731423 2.32629216 3.49317404
Au 0.00000000 4.65091000 -3.4883182800000014 0 0 0
Au 0.00000000 6.97636500 -1.1626828400000022 0 0 0
Au 6.57639339 4.64988680 1.03643329
Au 6.57731423 6.97562085 3.49398333
Au 3.28869000 0.00000000 -3.4883182800000014 0 0 0
Au 3.28869000 2.32545500 -1.1626828400000022 0 0 0
Au 3.28928196 0.00093018 1.03643329
Au 3.28875577 2.32629216 3.49317404
Au 3.28869000 4.65091000 -3.4883182800000014 0 0 0
Au 3.28869000 6.97636500 -1.1626828400000022 0 0 0
Au 3.28967661 4.64988680 1.03643329
Au 3.28875577 6.97562085 3.49398333
