&CONTROL
calculation = 'relax'
prefix = 'scf'
pseudo_dir = '/vol0004/mdt0/data/hp150275/u10028/POT_KKJUS'
outdir = './data'
tprnfor = .true.
nstep = 50
disk_io = 'non'
/
&SYSTEM
ibrav = 0
ecutwfc = 50.0
ecutrho = 400
occupations = 'smearing'
smearing = 'mp'
degauss = 0.01
assume_isolated = 'esm'
esm_bc = 'bc1'
input_dft = 'BEEF-VDW'
nosym = .true.
nspin = 1
ntyp = 2
nat = 17
/
&ELECTRONS
electron_maxstep = 200
mixing_beta = 0.1
conv_thr = 1e-06
/
&IONS
ion_dynamics = 'bfgs'
upscale = 1.0
/
&CELL
/

K_POINTS {automatic}
9 9 3 0  0  0

ATOMIC_SPECIES
C 12.01 C.pbe-n-rrkjus_psl.1.0.0.UPF
Ca 40.07 Ca.pbe-spn-rrkjus_psl.1.0.0.UPF

CELL_PARAMETERS {angstrom}
8.79024000 0.00000000 0.00000000
-0.00000000 8.79024000 0.00000000
0.00000000 0.00000000 26.59270000

ATOMIC_POSITIONS {angstrom}
Ca 0.00000000 0.00000000 -3.2964310900000022 0 0 0
Ca 2.19756000 2.19756000 -1.0988103600000017 0 0 0
Ca 0.00000000 0.00000000 1.09881036
Ca 2.19756000 2.19756000 3.29643109
Ca 0.00000000 4.39512000 -3.2964310900000022 0 0 0
Ca 2.19756000 6.59268000 -1.0988103600000017 0 0 0
Ca 0.00000000 4.39512000 1.09881036
Ca 2.19756000 6.59268000 3.29643109
Ca 4.39512000 0.00000000 -3.2964310900000022 0 0 0
Ca 6.59268000 2.19756000 -1.0988103600000017 0 0 0
Ca 4.39512000 -0.00000000 1.09881036
Ca 6.59268000 2.19756000 3.29643109
Ca 4.39512000 4.39512000 -3.2964310900000022 0 0 0
Ca 6.59268000 6.59268000 -1.0988103600000017 0 0 0
Ca 4.39512000 4.39512000 1.09881036
Ca 6.59268000 6.59268000 3.29643109
C 0.00000000 0.00000000 4.09633951
