&CONTROL
calculation = 'relax'
prefix = 'scf'
pseudo_dir = '/vol0004/mdt0/data/hp150275/u10028/POT_HYBRID_KKJUS_GBRV'
outdir = './data'
tprnfor = .true.
nstep = 50
disk_io = 'non'
/
&SYSTEM
ibrav = 0
ecutwfc = 50.0
ecutrho = 400
occupations = 'smearing'
smearing = 'mp'
degauss = 0.01
assume_isolated = 'esm'
esm_bc = 'bc1'
input_dft = 'BEEF-VDW'
nosym = .true.
nspin = 2
ntyp = 3
nat = 33
starting_magnetization(1) = 0.1
starting_magnetization(2) = 0.1
starting_magnetization(3) = 0.1
/
&ELECTRONS
electron_maxstep = 200
mixing_beta = 0.1
conv_thr = 1e-06
/
&IONS
ion_dynamics = 'bfgs'
upscale = 1.0
/
&CELL
/

K_POINTS {automatic}
9 6 2 0  0  0

ATOMIC_SPECIES
C 12.01 C.pbe-n-rrkjus_psl.1.0.0.UPF
Fe 55.84 fe_pbe_v1.5.uspp.F.UPF
Rh 102.9 Rh.pbe-spn-rrkjus_psl.1.0.0.UPF

CELL_PARAMETERS {angstrom}
6.04788000 0.00000000 0.00000000
0.00000000 8.55299000 0.00000000
0.00000000 0.00000000 26.41470000

ATOMIC_POSITIONS {angstrom}
Fe 0.00000000 0.00000000 -3.2072728700000006 0 0 0
Fe 0.00000000 2.13824750 -1.0690029099999983 0 0 0
Fe 6.04183212 8.54135793 1.09488932
Fe 5.75709793 2.13816197 3.30553556
Fe 0.00000000 4.27649500 -3.2072728700000006 0 0 0
Fe 0.00000000 6.41474250 -1.0690029099999983 0 0 0
Fe 6.04183212 4.28812707 1.09488932
Fe 0.04650820 6.41482803 3.30870532
Fe 3.02394000 0.00000000 -3.2072728700000006 0 0 0
Fe 3.02394000 2.13824750 -1.0690029099999983 0 0 0
Fe 3.02974596 8.54127240 1.09462517
Fe 3.31302866 2.13816197 3.30579971
Fe 3.02394000 4.27649500 -3.2072728700000006 0 0 0
Fe 3.02394000 6.41474250 -1.0690029099999983 0 0 0
Fe 3.02974596 4.28821260 1.09462517
Fe 2.97664558 6.41482803 3.30817703
Rh 1.51197000 2.13824750 -3.2072728700000006 0 0 0
Rh 1.51197000 0.00000000 -1.0690029099999983 0 0 0
Rh 1.51190952 2.13833303 1.11020984
Rh 1.51130473 4.13545619 3.16104715
Rh 1.51197000 6.41474250 -3.2072728700000006 0 0 0
Rh 1.51197000 4.27649500 -1.0690029099999983 0 0 0
Rh 1.51178856 6.41474250 1.16964292
Rh 1.51130473 0.14103881 3.16104715
Rh 4.53591000 2.13824750 -3.2072728700000006 0 0 0
Rh 4.53591000 0.00000000 -1.0690029099999983 0 0 0
Rh 4.53560761 2.13833303 1.06081435
Rh 4.53542617 4.39367096 3.11772704
Rh 4.53591000 6.41474250 -3.2072728700000006 0 0 0
Rh 4.53591000 4.27649500 -1.0690029099999983 0 0 0
Rh 4.53603096 6.41465697 1.09066296
Rh 4.53542617 8.43581404 3.11799119
C 1.50997420 2.13824750 3.68960530
