&CONTROL
calculation = 'relax'
prefix = 'scf'
pseudo_dir = '/vol0004/mdt0/data/hp150275/u10028/POT_KKJUS'
outdir = './data'
tprnfor = .true.
nstep = 50
disk_io = 'non'
/
&SYSTEM
ibrav = 0
ecutwfc = 50.0
ecutrho = 400
occupations = 'smearing'
smearing = 'mp'
degauss = 0.01
assume_isolated = 'esm'
esm_bc = 'bc1'
input_dft = 'BEEF-VDW'
nosym = .true.
nspin = 1
ntyp = 5
nat = 34
/
&ELECTRONS
electron_maxstep = 200
mixing_beta = 0.1
conv_thr = 1e-06
/
&IONS
ion_dynamics = 'bfgs'
upscale = 1.0
/
&CELL
/

K_POINTS {automatic}
8 6 1 0 0 0

ATOMIC_SPECIES
C 12.01 C.pbe-n-rrkjus_psl.1.0.0.UPF
In 114.8 In.pbe-dn-rrkjus_psl.1.0.0.UPF
Ir 192.2 Ir.pbe-n-rrkjus_psl.0.2.3.UPF
Li 6.941 Li.pbe-sl-rrkjus_psl.1.0.0.UPF
O 15.99 O.pbe-n-rrkjus_psl.1.0.0.UPF

CELL_PARAMETERS {angstrom}
6.34973000 0.00000000 0.00000000
0.00000000 8.97987000 0.00000000
0.00000000 0.00000000 26.73490000

ATOMIC_POSITIONS {angstrom}
Li 0.00000000 6.73490250 -1.1225984499999981 0 0 0
Li 3.17486500 0.00000000 -3.367528 0 0 0
Li 0.00000000 2.24496750 -1.1225984499999981 0 0 0
Li 3.17486500 4.48993500 -3.367528 0 0 0
Li 1.58743250 0.00000000 -1.1225984499999981 0 0 0
Li 1.58743250 4.48993500 -1.1225984499999981 0 0 0
Li 4.76229750 6.73490250 -3.367528 0 0 0
Li 4.76229750 2.24496750 -3.367528 0 0 0
Li 6.34414224 2.24469810 3.31913783
Li 3.19188228 4.48993500 1.17205802
Li 6.34426923 6.73499230 3.31913783
Li 3.11403459 0.00000000 1.11190449
Li 1.70928382 4.48993500 3.53087824
Li 1.67874162 0.00000000 3.52873945
Li 4.71867485 2.23553864 1.10468607
Li 4.71861136 6.74433136 1.10441872
In 1.58743250 2.24496750 -3.367528 0 0 0
In 1.58743250 6.73490250 -3.367528 0 0 0
In 4.76229750 4.48993500 -1.1225984499999981 0 0 0
In 4.76229750 0.00000000 -1.1225984499999981 0 0 0
In 1.55333445 6.71712236 1.08008996
In 1.55339795 2.26283744 1.08008996
In 4.66247974 0.00000000 3.41698757
In 4.67733811 4.48993500 3.53114559
Ir 0.00000000 0.00000000 -3.367528 0 0 0
Ir 3.17486500 2.24496750 -1.1225984499999981 0 0 0
Ir 3.17486500 6.73490250 -1.1225984499999981 0 0 0
Ir 0.00000000 4.48993500 -3.367528 0 0 0
Ir 6.29582079 4.48993500 1.27391798
Ir 3.20166086 6.72206129 3.19722669
Ir 3.20159736 2.25789851 3.19722669
Ir 6.33557010 0.00000000 1.22392372
C 1.57936834 0.00000000 5.62128007
O 1.67112194 0.00000000 6.75911742
