&CONTROL
calculation = 'relax'
prefix = 'scf'
pseudo_dir = '/vol0403/data/hp230205/u10028/POT_HYBRID_KKJUS_GBRV'
outdir = './data'
tprnfor = .true.
nstep = 50
disk_io = 'non'
/
&SYSTEM
ibrav = 0
ecutwfc = 50.0
ecutrho = 400
occupations = 'smearing'
smearing = 'mp'
degauss = 0.01
assume_isolated = 'esm'
esm_bc = 'bc1'
input_dft = 'BEEF-VDW'
nosym = .true.
nspin = 1
ntyp = 6
nat = 34
/
&ELECTRONS
electron_maxstep = 200
mixing_beta = 0.1
conv_thr = 1e-06
/
&IONS
ion_dynamics = 'bfgs'
upscale = 1.0
/
&CELL
/

K_POINTS {automatic}
6 6 1 0 0 0

ATOMIC_SPECIES
Ag 107.8 Ag.pbe-n-rrkjus_psl.1.0.0.UPF
Al 26.98 Al.pbe-nl-rrkjus_psl.1.0.0.UPF
C 12.01 C.pbe-n-rrkjus_psl.1.0.0.UPF
Li 6.941 Li.pbe-sl-rrkjus_psl.1.0.0.UPF
O 15.99 O.pbe-n-rrkjus_psl.1.0.0.UPF
Sn 118.7 Sn.pbe-dn-rrkjus_psl.1.0.0.UPF


CELL_PARAMETERS {angstrom}
8.16098000 0.00000000 0.00000000
0.00000000 8.56020000 0.00000000
0.00000000 0.00000000 26.50010000

ATOMIC_POSITIONS {angstrom}
Li 2.04024500 2.14005000 -3.24997226 0 0 0
Li 2.04024500 2.16718583 1.08544410
Li 2.04024500 6.42015000 -3.24997226 0 0 0
Li 2.04024500 6.39301417 1.08544410
Li 6.12073500 2.14005000 -3.24997226 0 0 0
Li 6.12073500 2.12515525 1.03747891
Li 6.12073500 6.42015000 -3.24997226 0 0 0
Li 6.12073500 6.43504475 1.03747891
Al 2.04024500 0.00000000 -1.0833240900000014 0 0 0
Al 2.04024500 0.00000000 2.88692089
Al 2.04024500 4.28010000 -1.0833240900000014 0 0 0
Al 2.04024500 4.28010000 3.11826677
Al 6.12073500 0.00000000 -1.0833240900000014 0 0 0
Al 6.12073500 0.00000000 3.09759669
Al 6.12073500 4.28010000 -1.0833240900000014 0 0 0
Al 6.12073500 4.28010000 2.91660101
Ag 0.00000000 0.00000000 -3.24997226 0 0 0
Ag 8.13984306 0.00000000 1.08279409
Ag 0.00000000 4.28010000 -3.24997226 0 0 0
Ag 0.04357963 4.28010000 1.01839884
Ag 4.08049000 0.00000000 -3.24997226 0 0 0
Ag 4.10162694 0.00000000 1.08279409
Ag 4.08049000 4.28010000 -3.24997226 0 0 0
Ag 4.03682876 4.28010000 1.01839884
Sn 0.00000000 2.14005000 -1.0833240900000014 0 0 0
Sn 8.10826007 2.20818919 3.44501300
Sn 0.00000000 6.42015000 -1.0833240900000014 0 0 0
Sn 8.10826007 6.35201081 3.44527800
Sn 4.08049000 2.14005000 -1.0833240900000014 0 0 0
Sn 4.13320993 2.20818919 3.44527800
Sn 4.08049000 6.42015000 -1.0833240900000014 0 0 0
Sn 4.13320993 6.35201081 3.44501300
C 2.04024500 0.00000000 4.87018838
O 2.04024500 0.00000000 6.02877275
