&CONTROL
calculation = 'relax'
prefix = 'scf'
pseudo_dir = '/vol0004/mdt0/data/hp150275/u10028/POT_KKJUS'
outdir = './data'
tprnfor = .true.
nstep = 50
disk_io = 'non'
/
&SYSTEM
ibrav = 0
ecutwfc = 50.0
ecutrho = 400
occupations = 'smearing'
smearing = 'mp'
degauss = 0.01
assume_isolated = 'esm'
esm_bc = 'bc1'
input_dft = 'BEEF-VDW'
nosym = .true.
nspin = 1
ntyp = 4
nat = 34
/
&ELECTRONS
electron_maxstep = 200
mixing_beta = 0.1
conv_thr = 1e-06
/
&IONS
ion_dynamics = 'bfgs'
upscale = 1.0
/
&CELL
/

K_POINTS {automatic}
9 6 2 0  0  0

ATOMIC_SPECIES
C 12.01 C.pbe-n-rrkjus_psl.1.0.0.UPF
O 15.99 O.pbe-n-rrkjus_psl.1.0.0.UPF
Rh 102.9 Rh.pbe-spn-rrkjus_psl.1.0.0.UPF
Zn 65.40 Zn.pbe-dnl-rrkjus_psl.1.0.0.UPF

CELL_PARAMETERS {angstrom}
6.06651000 0.00000000 0.00000000
0.00000000 8.57934000 0.00000000
0.00000000 0.00000000 26.43450000

ATOMIC_POSITIONS {angstrom}
Zn 1.51662750 2.14483500 -3.217342989999999 0 0 0
Zn 1.51662750 0.00000000 -1.0724476599999981 0 0 0
Zn 1.51723415 2.14921046 1.04997834
Zn 1.51784080 0.00000000 3.27999276
Zn 1.51662750 6.43450500 -3.217342989999999 0 0 0
Zn 1.51662750 4.28967000 -1.0724476599999981 0 0 0
Zn 1.51717349 6.43012954 1.04997834
Zn 1.51802280 4.28967000 3.29928994
Zn 4.54988250 2.14483500 -3.217342989999999 0 0 0
Zn 4.54988250 0.00000000 -1.0724476599999981 0 0 0
Zn 4.54951851 2.13694201 1.03993323
Zn 4.54842654 0.00017159 3.25752343
Zn 4.54988250 6.43450500 -3.217342989999999 0 0 0
Zn 4.54988250 4.28967000 -1.0724476599999981 0 0 0
Zn 4.54951851 6.44239799 1.04019758
Zn 4.54860853 4.28975579 3.32836789
Rh 0.00000000 0.00000000 -3.217342989999999 0 0 0
Rh 0.00000000 2.14483500 -1.0724476599999981 0 0 0
Rh 0.01292167 0.00000000 1.09306657
Rh 6.05000909 2.17048723 3.12905177
Rh 0.00000000 4.28967000 -3.217342989999999 0 0 0
Rh 0.00000000 6.43450500 -1.0724476599999981 0 0 0
Rh 6.06323408 4.28967000 1.08196409
Rh 6.05006976 6.40911015 3.12905177
Rh 3.03325500 0.00000000 -3.217342989999999 0 0 0
Rh 3.03325500 2.14483500 -1.0724476599999981 0 0 0
Rh 3.02051533 0.00000000 1.09148051
Rh 3.04963458 2.16911453 3.12958045
Rh 3.03325500 4.28967000 -3.217342989999999 0 0 0
Rh 3.03325500 6.43450500 -1.0724476599999981 0 0 0
Rh 3.03677358 4.28967000 1.08143539
Rh 3.04957391 6.41048285 3.12931611
C 1.49879196 8.57916841 5.46718329
O 1.50801306 0.00000000 6.60836065
