&CONTROL
calculation = 'relax'
prefix = 'scf'
pseudo_dir = '/vol0004/mdt0/data/hp150275/u10028/POT_HYBRID_KKJUS_GBRV'
outdir = './data'
tprnfor = .true.
nstep = 50
disk_io = 'non'
/
&SYSTEM
ibrav = 0
ecutwfc = 50.0
ecutrho = 400
occupations = 'smearing'
smearing = 'mp'
degauss = 0.01
assume_isolated = 'esm'
esm_bc = 'bc1'
input_dft = 'BEEF-VDW'
nosym = .true.
nspin = 2
ntyp = 5
nat = 34
starting_magnetization(1) = 0.0
starting_magnetization(2) = 0.0
starting_magnetization(3) = 0.001
starting_magnetization(4) = 0.0
starting_magnetization(5) = 0.0
/
&ELECTRONS
electron_maxstep = 300
mixing_beta = 0.1
conv_thr = 1e-06
/
&IONS
ion_dynamics = 'bfgs'
upscale = 1.0
/
&CELL
/

K_POINTS {automatic}
8 6 1 0 0 0

ATOMIC_SPECIES
C 12.01 C.pbe-n-rrkjus_psl.1.0.0.UPF
Nb 92.90 Nb.pbe-spn-rrkjus_psl.1.0.0.UPF
Ni 58.69 ni_pbe_v1.4.uspp.F.UPF
O 15.99 O.pbe-n-rrkjus_psl.1.0.0.UPF
Sn 118.7 Sn.pbe-dn-rrkjus_psl.1.0.0.UPF

CELL_PARAMETERS {angstrom}
6.22550000 0.00000000 0.00000000
0.00000000 8.80419000 0.00000000
0.00000000 0.00000000 26.60310000

ATOMIC_POSITIONS {angstrom}
Nb 0.00000000 0.00000000 -3.301444710000002 0 0 0
Nb 3.11275000 2.20104750 -1.1005702500000005 0 0 0
Nb 3.11275000 6.60314250 -1.1005702500000005 0 0 0
Nb 0.00000000 4.40209500 -3.301444710000002 0 0 0
Nb 0.00000000 4.42348918 1.14872186
Nb 3.11275000 6.60305446 3.22323160
Nb 3.11275000 2.20104750 3.26526449
Nb 0.00000000 8.78288386 1.14872186
Ni 1.55637500 0.00000000 -1.1005702500000005 0 0 0
Ni 4.66912500 4.40209500 -1.1005702500000005 0 0 0
Ni 4.66912500 0.00000000 -1.1005702500000005 0 0 0
Ni 1.55637500 4.40209500 -1.1005702500000005 0 0 0
Ni 4.66912500 6.60314250 -3.301444710000002 0 0 0
Ni 1.55637500 2.20104750 -3.301444710000002 0 0 0
Ni 1.55637500 6.60314250 -3.301444710000002 0 0 0
Ni 4.66912500 2.20104750 -3.301444710000002 0 0 0
Ni 1.68455804 4.41380457 3.15645782
Ni 4.54081745 8.79248043 3.15645782
Ni 4.54094196 4.41380457 3.15645782
Ni 1.68468256 8.79248043 3.15645782
Ni 4.83640419 2.20104750 1.16734403
Ni 1.54865538 6.60323054 1.20405631
Ni 1.38909582 2.20104750 1.16734403
Ni 4.67684462 6.60323054 1.20405631
Sn 0.00000000 6.60314250 -1.1005702500000005 0 0 0
Sn 3.11275000 0.00000000 -3.301444710000002 0 0 0
Sn 0.00000000 2.20104750 -1.1005702500000005 0 0 0
Sn 3.11275000 4.40209500 -3.301444710000002 0 0 0
Sn 0.00000000 2.20095946 3.59753721
Sn 3.11275000 4.35358391 1.01570636
Sn 0.00000000 6.60314250 3.59461087
Sn 3.11275000 0.04851109 1.01544033
C 3.11275000 2.20104750 5.38925600
O 3.11275000 2.20104750 6.54489466
