&CONTROL
calculation = 'relax'
prefix = 'scf'
pseudo_dir = '/vol0403/data/hp230205/u10028/POT_HYBRID_KKJUS_GBRV'
outdir = './data'
tprnfor = .true.
nstep = 50
disk_io = 'non'
/
&SYSTEM
ibrav = 0
ecutwfc = 50.0
ecutrho = 400
occupations = 'smearing'
smearing = 'mp'
degauss = 0.01
assume_isolated = 'esm'
esm_bc = 'bc1'
input_dft = 'BEEF-VDW'
nosym = .true.
nspin = 1
ntyp = 6
nat = 34
/
&ELECTRONS
electron_maxstep = 200
mixing_beta = 0.1
conv_thr = 1e-06
/
&IONS
ion_dynamics = 'bfgs'
upscale = 1.0
/
&CELL
/

K_POINTS {automatic}
7 7 2 0  0  0

ATOMIC_SPECIES
C 12.01 C.pbe-n-rrkjus_psl.1.0.0.UPF
In 114.8 In.pbe-dn-rrkjus_psl.1.0.0.UPF
Li 6.941 Li.pbe-sl-rrkjus_psl.1.0.0.UPF
O 15.99 O.pbe-n-rrkjus_psl.1.0.0.UPF
Sn 118.7 Sn.pbe-dn-rrkjus_psl.1.0.0.UPF
Y 88.90 Y.pbe-spn-rrkjus_psl.1.0.0.UPF


CELL_PARAMETERS {angstrom}
8.86856000 0.00000000 0.00000000
0.00000000 9.04200000 0.00000000
0.00000000 0.00000000 27.02490000

ATOMIC_POSITIONS {angstrom}
Li 2.21714000 2.26050000 -3.512426249999997 0 0 0
Li 2.21501155 2.26040958 1.27935877
Li 2.21714000 6.78150000 -3.512426249999997 0 0 0
Li 2.21536629 6.78131916 1.27962902
Li 6.65142000 2.26050000 -3.512426249999997 0 0 0
Li 6.65071052 2.26040958 1.27935877
Li 6.65142000 6.78150000 -3.512426249999997 0 0 0
Li 6.64973497 6.78140958 1.27881827
Y 2.21714000 0.00000000 -1.1707186699999994 0 0 0
Y 2.21758343 0.00090420 3.64592926
Y 2.21714000 4.52100000 -1.1707186699999994 0 0 0
Y 2.21731737 4.51892034 3.64646976
Y 6.65142000 0.00000000 -1.1707186699999994 0 0 0
Y 6.64645361 0.00009042 3.64295652
Y 6.65142000 4.52100000 -1.1707186699999994 0 0 0
Y 6.64663098 4.51982454 3.64322677
In 0.00000000 0.00000000 -3.512426249999997 0 0 0
In 8.86749577 0.00090420 1.29260097
In 0.00000000 4.52100000 -3.512426249999997 0 0 0
In 8.86758446 4.51973412 1.29233072
In 4.43428000 0.00000000 -3.512426249999997 0 0 0
In 4.43232892 9.04073412 1.29368196
In 4.43428000 4.52100000 -3.512426249999997 0 0 0
In 4.43224023 4.52163294 1.29395221
Sn 0.00000000 2.26050000 -1.1707186699999994 0 0 0
Sn 8.86501258 2.25968622 3.58620423
Sn 0.00000000 6.78150000 -1.1707186699999994 0 0 0
Sn 8.86696366 6.78113832 3.59458195
Sn 4.43428000 2.26050000 -1.1707186699999994 0 0 0
Sn 4.43277234 2.26004790 3.60079768
Sn 4.43428000 6.78150000 -1.1707186699999994 0 0 0
Sn 4.43170812 6.78086706 3.60566216
C 0.22002897 2.30498664 8.22881180
O 8.74386805 2.23445904 9.30791606
