&CONTROL
calculation = 'relax'
prefix = 'scf'
pseudo_dir = '/vol0004/mdt0/data/hp150275/u10028/POT_KKJUS'
outdir = './data'
tprnfor = .true.
nstep = 50
disk_io = 'non'
/
&SYSTEM
ibrav = 0
ecutwfc = 50.0
ecutrho = 400
occupations = 'smearing'
smearing = 'mp'
degauss = 0.01
assume_isolated = 'esm'
esm_bc = 'bc1'
input_dft = 'BEEF-VDW'
nosym = .true.
nspin = 1
ntyp = 4
nat = 34
/
&ELECTRONS
electron_maxstep = 200
mixing_beta = 0.1
conv_thr = 1e-06
/
&IONS
ion_dynamics = 'bfgs'
upscale = 1.0
/
&CELL
/

K_POINTS {automatic}
9 6 2 0  0  0

ATOMIC_SPECIES
C 12.01 C.pbe-n-rrkjus_psl.1.0.0.UPF
Hf 178.4 Hf.pbe-spn-rrkjus_psl.1.0.0.UPF
O 15.99 O.pbe-n-rrkjus_psl.1.0.0.UPF
Ru 101.0 Ru.pbe-spn-rrkjus_psl.1.0.0.UPF

CELL_PARAMETERS {angstrom}
6.47981000 0.00000000 0.00000000
0.00000000 9.16384000 0.00000000
0.00000000 0.00000000 26.87290000

ATOMIC_POSITIONS {angstrom}
Hf 0.00000000 0.00000000 -3.436506450000003 0 0 0
Hf 0.00000000 2.29096000 -1.1455917299999996 0 0 0
Hf 0.00000000 0.00650633 1.18321379
Hf 0.00000000 2.29096000 3.50422616
Hf 0.00000000 4.58192000 -3.436506450000003 0 0 0
Hf 0.00000000 6.87288000 -1.1455917299999996 0 0 0
Hf 0.00000000 4.57541367 1.18321379
Hf 0.00000000 6.87288000 3.43973120
Hf 3.23990500 0.00000000 -3.436506450000003 0 0 0
Hf 3.23990500 2.29096000 -1.1455917299999996 0 0 0
Hf 3.23990500 0.00045819 1.17837667
Hf 3.23990500 2.29086836 3.44349341
Hf 3.23990500 4.58192000 -3.436506450000003 0 0 0
Hf 3.23990500 6.87288000 -1.1455917299999996 0 0 0
Hf 3.23990500 4.58137017 1.17810794
Hf 3.23990500 6.87288000 3.44671815
Ru 1.61995250 2.29096000 -3.436506450000003 0 0 0
Ru 1.61995250 0.00000000 -1.1455917299999996 0 0 0
Ru 1.63265293 2.29096000 1.13027417
Ru 1.62798746 9.14597051 3.28870550
Ru 1.61995250 6.87288000 -3.436506450000003 0 0 0
Ru 1.61995250 4.58192000 -1.1455917299999996 0 0 0
Ru 1.62001730 6.87288000 1.14236698
Ru 1.62792267 4.59969785 3.28870550
Ru 4.85985750 2.29096000 -3.436506450000003 0 0 0
Ru 4.85985750 0.00000000 -1.1455917299999996 0 0 0
Ru 4.84715707 2.29096000 1.13027417
Ru 4.85182254 9.14597051 3.28870550
Ru 4.85985750 6.87288000 -3.436506450000003 0 0 0
Ru 4.85985750 4.58192000 -1.1455917299999996 0 0 0
Ru 4.85979270 6.87288000 1.14236698
Ru 4.85182254 4.59978949 3.28870550
C 0.00000000 2.29096000 5.77928587
O 0.00000000 2.29105164 6.93078964
