&CONTROL
calculation = 'relax'
prefix = 'scf'
pseudo_dir = '/vol0004/mdt0/data/hp150275/u10028/POT_KKJUS'
outdir = './data'
tprnfor = .true.
nstep = 50
disk_io = 'non'
/
&SYSTEM
ibrav = 0
ecutwfc = 50.0
ecutrho = 400
occupations = 'smearing'
smearing = 'mp'
degauss = 0.01
assume_isolated = 'esm'
esm_bc = 'bc1'
input_dft = 'BEEF-VDW'
nosym = .true.
nspin = 1
ntyp = 3
nat = 33
/
&ELECTRONS
electron_maxstep = 200
mixing_beta = 0.1
conv_thr = 1e-06
/
&IONS
ion_dynamics = 'bfgs'
upscale = 1.0
/
&CELL
/

K_POINTS {automatic}
9 6 2 0  0  0

ATOMIC_SPECIES
Au 196.9 Au.pbe-n-rrkjus_psl.1.0.0.UPF
C 12.01 C.pbe-n-rrkjus_psl.1.0.0.UPF
Sc 44.95 Sc.pbe-spn-rrkjus_psl.1.0.0.UPF

CELL_PARAMETERS {angstrom}
6.85145000 0.00000000 0.00000000
0.00000000 9.68941000 0.00000000
0.00000000 0.00000000 27.26710000

ATOMIC_POSITIONS {angstrom}
Sc 1.71286250 2.42235250 -3.6336137499999985 0 0 0
Sc 1.71286250 4.84470500 -1.2112045800000004 0 0 0
Sc 1.71985098 2.42157735 1.24447044
Sc 1.93526057 0.00000000 3.73232065
Sc 1.71286250 7.26705750 -3.6336137499999985 0 0 0
Sc 1.71286250 0.00000000 -1.2112045800000004 0 0 0
Sc 1.71991949 7.26792955 1.24447044
Sc 1.63872981 4.84470500 3.56790003
Sc 5.13858750 2.42235250 -3.6336137499999985 0 0 0
Sc 5.13858750 4.84470500 -1.2112045800000004 0 0 0
Sc 5.13153051 2.42157735 1.24447044
Sc 4.91618943 0.00000000 3.73232065
Sc 5.13858750 7.26705750 -3.6336137499999985 0 0 0
Sc 5.13858750 0.00000000 -1.2112045800000004 0 0 0
Sc 5.13153051 7.26792955 1.24447044
Sc 5.21278870 4.84470500 3.56790003
Au 0.00000000 0.00000000 -3.6336137499999985 0 0 0
Au 0.00000000 2.42235250 -1.2112045800000004 0 0 0
Au 0.00000000 0.00009689 1.09013866
Au 0.00000000 2.34851920 3.61261808
Au 0.00000000 4.84470500 -3.6336137499999985 0 0 0
Au 0.00000000 7.26705750 -1.2112045800000004 0 0 0
Au 0.00000000 4.84470500 1.04787465
Au 6.85138149 7.34089080 3.61261808
Au 3.42572500 0.00000000 -3.6336137499999985 0 0 0
Au 3.42572500 2.42235250 -1.2112045800000004 0 0 0
Au 3.42572500 0.00009689 1.10349954
Au 3.42572500 2.54327634 3.50900310
Au 3.42572500 4.84470500 -3.6336137499999985 0 0 0
Au 3.42572500 7.26705750 -1.2112045800000004 0 0 0
Au 3.42572500 4.84470500 1.28237171
Au 3.42572500 7.14613366 3.50900310
C 0.00000000 9.68911932 4.23321727
