&CONTROL
calculation = 'relax'
prefix = 'scf'
pseudo_dir = '/vol0403/data/hp230205/u10028/POT_HYBRID_KKJUS_GBRV'
outdir = './data'
tprnfor = .true.
nstep = 50
disk_io = 'non'
/
&SYSTEM
ibrav = 0
ecutwfc = 50.0
ecutrho = 400
occupations = 'smearing'
smearing = 'mp'
degauss = 0.01
assume_isolated = 'esm'
esm_bc = 'bc1'
input_dft = 'BEEF-VDW'
nosym = .true.
nspin = 1
ntyp = 5
nat = 33
/
&ELECTRONS
electron_maxstep = 200
mixing_beta = 0.1
conv_thr = 1e-06
/
&IONS
ion_dynamics = 'bfgs'
upscale = 1.0
/
&CELL
/

K_POINTS {automatic}
6 6 1 0 0 0

ATOMIC_SPECIES
Ag 107.8 Ag.pbe-n-rrkjus_psl.1.0.0.UPF
Al 26.98 Al.pbe-nl-rrkjus_psl.1.0.0.UPF
C 12.01 C.pbe-n-rrkjus_psl.1.0.0.UPF
Ge 72.64 Ge.pbe-dn-rrkjus_psl.1.0.0.UPF
Li 6.941 Li.pbe-sl-rrkjus_psl.1.0.0.UPF


CELL_PARAMETERS {angstrom}
8.55604000 0.00000000 0.00000000
0.00000000 7.71364000 0.00000000
0.00000000 0.00000000 26.02050000

ATOMIC_POSITIONS {angstrom}
Li 0.00000000 1.92841000 -1.0033504799999982 0 0 0
Li 0.00000000 1.92841000 3.01031164
Li 0.00000000 5.78523000 -1.0033504799999982 0 0 0
Li 0.00000000 5.78523000 3.01031164
Li 4.27802000 1.92841000 -1.0033504799999982 0 0 0
Li 4.27802000 1.92841000 3.01031164
Li 4.27802000 5.78523000 -1.0033504799999982 0 0 0
Li 4.27802000 5.78523000 3.01031164
Al 2.13901000 1.92841000 -3.0103116399999976 0 0 0
Al 2.13901000 1.92841000 1.00335048
Al 2.13901000 5.78523000 -3.0103116399999976 0 0 0
Al 2.13901000 5.78523000 1.00335048
Al 6.41703000 1.92841000 -3.0103116399999976 0 0 0
Al 6.41703000 1.92841000 1.00335048
Al 6.41703000 5.78523000 -3.0103116399999976 0 0 0
Al 6.41703000 5.78523000 1.00335048
Ag 0.00000000 0.00000000 -3.0103116399999976 0 0 0
Ag 0.00000000 0.00000000 1.00335048
Ag 0.00000000 3.85682000 -3.0103116399999976 0 0 0
Ag 0.00000000 3.85682000 1.00335048
Ag 4.27802000 0.00000000 -3.0103116399999976 0 0 0
Ag 4.27802000 0.00000000 1.00335048
Ag 4.27802000 3.85682000 -3.0103116399999976 0 0 0
Ag 4.27802000 3.85682000 1.00335048
Ge 2.13901000 0.00000000 -1.0033504799999982 0 0 0
Ge 2.13901000 0.00000000 3.01031164
Ge 2.13901000 3.85682000 -1.0033504799999982 0 0 0
Ge 2.13901000 3.85682000 3.01031164
Ge 6.41703000 0.00000000 -1.0033504799999982 0 0 0
Ge 6.41703000 0.00000000 3.01031164
Ge 6.41703000 3.85682000 -1.0033504799999982 0 0 0
Ge 6.41703000 3.85682000 3.01031164
C 0.00000000 0.00000000 3.81018181
