&CONTROL
calculation = 'relax'
prefix = 'scf'
pseudo_dir = '/vol0403/data/hp230205/u10028/POT_HYBRID_KKJUS_GBRV'
outdir = './data'
tprnfor = .true.
nstep = 50
disk_io = 'non'
/
&SYSTEM
ibrav = 0
ecutwfc = 50.0
ecutrho = 400
occupations = 'smearing'
smearing = 'mp'
degauss = 0.01
assume_isolated = 'esm'
esm_bc = 'bc1'
input_dft = 'BEEF-VDW'
nosym = .true.
nspin = 1
ntyp = 6
nat = 18
/
&ELECTRONS
electron_maxstep = 200
mixing_beta = 0.1
conv_thr = 1e-06
/
&IONS
ion_dynamics = 'bfgs'
upscale = 1.0
/
&CELL
/

K_POINTS {automatic}
9 9 2 0  0  0

ATOMIC_SPECIES
Ag 107.8 Ag.pbe-n-rrkjus_psl.1.0.0.UPF
C 12.01 C.pbe-n-rrkjus_psl.1.0.0.UPF
Li 6.941 Li.pbe-sl-rrkjus_psl.1.0.0.UPF
Mg 24.30 Mg.pbe-spnl-rrkjus_psl.1.0.0.UPF
O 15.99 O.pbe-n-rrkjus_psl.1.0.0.UPF
Sn 118.7 Sn.pbe-dn-rrkjus_psl.1.0.0.UPF


CELL_PARAMETERS {angstrom}
6.75899000 0.00000000 0.00000000
0.00000000 6.75899000 0.00000000
0.00000000 0.00000000 25.06920000

ATOMIC_POSITIONS {angstrom}
Li 5.05058769 1.66129215 0.95237891
Li 5.06924250 5.06924250 -2.53449612 0 0 0
Li 1.68974750 1.68974750 -2.53449612 0 0 0
Li 1.70806436 5.09742749 0.95162683
Mg 1.71097073 1.66615862 0.98496887
Mg 1.68974750 5.06924250 -2.53449612 0 0 0
Mg 5.06924250 1.68974750 -2.53449612 0 0 0
Mg 5.04761373 5.09323691 0.98471818
Ag 0.00040554 6.75790856 2.74131702
Ag 0.00000000 3.37949500 -0.84483204 0 0 0
Ag 3.37949500 0.00000000 -0.84483204 0 0 0
Ag 3.37935982 3.38003572 2.68566340
Sn 0.00027036 3.38017090 2.89198291
Sn 0.00000000 0.00000000 -0.84483204 0 0 0
Sn 3.37949500 3.37949500 -0.84483204 0 0 0
Sn 3.37875151 6.75851687 3.00228739
C 6.75797615 3.37922464 7.11188135
O 0.00040554 3.37983295 8.24701472
