&CONTROL
calculation = 'relax'
prefix = 'scf'
pseudo_dir = '/vol0403/data/hp230205/u10028/POT_HYBRID_KKJUS_GBRV'
outdir = './data'
tprnfor = .true.
nstep = 70
disk_io = 'non'
/
&SYSTEM
ibrav = 0
ecutwfc = 50.0
ecutrho = 400
occupations = 'smearing'
smearing = 'mp'
degauss = 0.01
assume_isolated = 'esm'
esm_bc = 'bc1'
input_dft = 'BEEF-VDW'
nosym = .true.
nspin = 1
ntyp = 4
nat = 32
/
&ELECTRONS
electron_maxstep = 200
mixing_beta = 0.1
conv_thr = 1e-06
/
&IONS
ion_dynamics = 'bfgs'
upscale = 1.0
/
&CELL
/

K_POINTS {automatic}
7 7 2 0  0  0

ATOMIC_SPECIES
Cu 63.54 Cu.pbe-dn-rrkjus_psl.1.0.0.UPF
Li 6.941 Li.pbe-sl-rrkjus_psl.1.0.0.UPF
Mg 24.30 Mg.pbe-spnl-rrkjus_psl.1.0.0.UPF
Pd 106.4 Pd.pbe-n-rrkjus_psl.1.0.0.UPF


CELL_PARAMETERS {angstrom}
7.89062000 0.00000000 0.00000000
-0.00000000 7.95764000 0.00000000
0.00000000 0.00000000 25.67580000

ATOMIC_POSITIONS {angstrom}
Li 1.97265500 0.00000000 -0.9458964699999974 0 0 0
Li 1.97265500 -0.00000000 2.83794617
Li 1.97265500 3.97882000 -0.9458964699999974 0 0 0
Li 1.97265500 3.97882000 2.83794617
Li 5.91796500 0.00000000 -0.9458964699999974 0 0 0
Li 5.91796500 -0.00000000 2.83794617
Li 5.91796500 3.97882000 -0.9458964699999974 0 0 0
Li 5.91796500 3.97882000 2.83794617
Mg 0.00000000 1.98941000 -0.9458964699999974 0 0 0
Mg 0.00000000 1.98941000 2.83794617
Mg 0.00000000 5.96823000 -0.9458964699999974 0 0 0
Mg 0.00000000 5.96823000 2.83794617
Mg 3.94531000 1.98941000 -0.9458964699999974 0 0 0
Mg 3.94531000 1.98941000 2.83794617
Mg 3.94531000 5.96823000 -0.9458964699999974 0 0 0
Mg 3.94531000 5.96823000 2.83794617
Cu 0.00000000 0.00000000 -2.8379461699999986 0 0 0
Cu 0.00000000 0.00000000 0.94589647
Cu 0.00000000 3.97882000 -2.8379461699999986 0 0 0
Cu 0.00000000 3.97882000 0.94589647
Cu 3.94531000 0.00000000 -2.8379461699999986 0 0 0
Cu 3.94531000 -0.00000000 0.94589647
Cu 3.94531000 3.97882000 -2.8379461699999986 0 0 0
Cu 3.94531000 3.97882000 0.94589647
Pd 1.97265500 1.98941000 -2.8379461699999986 0 0 0
Pd 1.97265500 1.98941000 0.94589647
Pd 1.97265500 5.96823000 -2.8379461699999986 0 0 0
Pd 1.97265500 5.96823000 0.94589647
Pd 5.91796500 1.98941000 -2.8379461699999986 0 0 0
Pd 5.91796500 1.98941000 0.94589647
Pd 5.91796500 5.96823000 -2.8379461699999986 0 0 0
Pd 5.91796500 5.96823000 0.94589647
