&CONTROL
calculation = 'relax'
prefix = 'scf'
pseudo_dir = '/vol0403/data/hp230205/u10028/POT_HYBRID_KKJUS_GBRV'
outdir = './data'
tprnfor = .true.
nstep = 50
disk_io = 'non'
/
&SYSTEM
ibrav = 0
ecutwfc = 50.0
ecutrho = 400
occupations = 'smearing'
smearing = 'mp'
degauss = 0.01
assume_isolated = 'esm'
esm_bc = 'bc1'
input_dft = 'BEEF-VDW'
nosym = .true.
nspin = 1
ntyp = 5
nat = 17
/
&ELECTRONS
electron_maxstep = 200
mixing_beta = 0.1
conv_thr = 1e-06
/
&IONS
ion_dynamics = 'bfgs'
upscale = 1.0
/
&CELL
/

K_POINTS {automatic}
11 8 2 0  0  0

ATOMIC_SPECIES
C 12.01 C.pbe-n-rrkjus_psl.1.0.0.UPF
Ga 69.72 Ga.pbe-dnl-rrkjus_psl.1.0.0.UPF
In 114.8 In.pbe-dn-rrkjus_psl.1.0.0.UPF
Li 6.941 Li.pbe-sl-rrkjus_psl.1.0.0.UPF
Sc 44.95 Sc.pbe-spn-rrkjus_psl.1.0.0.UPF


CELL_PARAMETERS {angstrom}
6.04935000 0.00000000 0.00000000
0.00000000 8.37318000 0.00000000
0.00000000 0.00000000 24.52450000

ATOMIC_POSITIONS {angstrom}
Li 4.42467607 2.09329500 -0.7541283800000009 0 0 0
Li 1.25850677 1.40225645 2.47084338
Li 4.42467607 6.27988500 -0.7541283800000009 0 0 0
Li 1.25850677 6.97092355 2.47084338
Sc 1.40000107 2.09329500 -0.7541283800000009 0 0 0
Sc 4.04695466 1.73952815 2.26066841
Sc 1.40000107 6.27988500 -0.7541283800000009 0 0 0
Sc 4.04689416 6.63373559 2.26066841
In 3.02467500 0.00000000 -2.2621398799999994 0 0 0
In 5.76611943 0.00000000 0.61286725
In 3.02467500 4.18659000 -2.2621398799999994 0 0 0
In 5.85081033 4.18659000 1.08005898
Ga 0.00000000 0.00000000 -2.2621398799999994 0 0 0
Ga 2.77072329 0.00000000 0.55597041
Ga 0.00000000 4.18659000 -2.2621398799999994 0 0 0
Ga 2.81246380 4.18659000 0.89612523
C 2.93466067 0.00000000 2.65845580
