&CONTROL
calculation = 'relax'
prefix = 'scf'
pseudo_dir = '/vol0004/mdt0/data/hp150275/u10028/POT_KKJUS'
outdir = './data'
tprnfor = .true.
nstep = 50
disk_io = 'non'
/
&SYSTEM
ibrav = 0
ecutwfc = 50.0
ecutrho = 400
occupations = 'smearing'
smearing = 'mp'
degauss = 0.01
assume_isolated = 'esm'
esm_bc = 'bc1'
input_dft = 'BEEF-VDW'
nosym = .true.
nspin = 1
ntyp = 3
nat = 32
/
&ELECTRONS
electron_maxstep = 200
mixing_beta = 0.1
conv_thr = 1e-06
/
&IONS
ion_dynamics = 'bfgs'
upscale = 1.0
/
&CELL
/

K_POINTS {automatic}
8 6 1 0 0 0

ATOMIC_SPECIES
Al 26.98 Al.pbe-nl-rrkjus_psl.1.0.0.UPF
Pd 106.4 Pd.pbe-n-rrkjus_psl.1.0.0.UPF
Sc 44.95 Sc.pbe-spn-rrkjus_psl.1.0.0.UPF

CELL_PARAMETERS {angstrom}
6.41477000 0.00000000 0.00000000
0.00000000 9.07185000 0.00000000
0.00000000 0.00000000 26.80390000

ATOMIC_POSITIONS {angstrom}
Sc 0.00000000 0.00000000 -3.4019509899999996 0 0 0
Sc 3.20738500 2.26796250 -1.134073009999998 0 0 0
Sc 3.20738500 6.80388750 -1.134073009999998 0 0 0
Sc 0.00000000 4.53592500 -3.4019509899999996 0 0 0
Sc 6.41470585 4.53583428 1.11021754
Sc 3.20738500 6.80388750 3.46708446
Sc 3.20738500 2.26796250 3.46708446
Sc 0.00000000 0.00000000 1.11021754
Al 0.00000000 6.80388750 -1.134073009999998 0 0 0
Al 3.20738500 0.00000000 -3.4019509899999996 0 0 0
Al 0.00000000 2.26796250 -1.134073009999998 0 0 0
Al 3.20738500 4.53592500 -3.4019509899999996 0 0 0
Al 0.00000000 2.26796250 3.32636399
Al 3.20738500 4.53592500 1.23968037
Al 0.00000000 6.80388750 3.32636399
Al 3.20738500 0.00000000 1.23968037
Pd 1.60369250 0.00000000 -1.134073009999998 0 0 0
Pd 4.81107750 4.53592500 -1.134073009999998 0 0 0
Pd 4.81107750 0.00000000 -1.134073009999998 0 0 0
Pd 1.60369250 4.53592500 -1.134073009999998 0 0 0
Pd 4.81107750 6.80388750 -3.4019509899999996 0 0 0
Pd 1.60369250 2.26796250 -3.4019509899999996 0 0 0
Pd 1.60369250 6.80388750 -3.4019509899999996 0 0 0
Pd 4.81107750 2.26796250 -3.4019509899999996 0 0 0
Pd 1.50246743 4.53592500 3.30304460
Pd 4.91230257 0.00000000 3.30304460
Pd 4.91230257 4.53592500 3.30304460
Pd 1.50246743 0.00000000 3.30304460
Pd 4.76649485 2.26796250 1.14533065
Pd 1.64821100 6.80388750 1.14533065
Pd 1.64821100 2.26796250 1.14533065
Pd 4.76649485 6.80388750 1.14533065
