&CONTROL
calculation = 'relax'
prefix = 'scf'
pseudo_dir = '/vol0004/mdt0/data/hp150275/u10028/POT_KKJUS'
outdir = './data'
tprnfor = .true.
nstep = 50
disk_io = 'non'
/
&SYSTEM
ibrav = 0
ecutwfc = 50.0
ecutrho = 400
occupations = 'smearing'
smearing = 'mp'
degauss = 0.01
assume_isolated = 'esm'
esm_bc = 'bc1'
input_dft = 'BEEF-VDW'
nosym = .true.
nspin = 1
ntyp = 5
nat = 34
/
&ELECTRONS
electron_maxstep = 200
mixing_beta = 0.1
conv_thr = 1e-06
/
&IONS
ion_dynamics = 'bfgs'
upscale = 1.0
/
&CELL
/

K_POINTS {automatic}
8 6 1 0 0 0

ATOMIC_SPECIES
C 12.01 C.pbe-n-rrkjus_psl.1.0.0.UPF
Ga 69.72 Ga.pbe-dnl-rrkjus_psl.1.0.0.UPF
Ni 58.69 Ni.pbe-spn-rrkjus_psl.1.0.0.UPF
O 15.99 O.pbe-n-rrkjus_psl.1.0.0.UPF
Zr 91.22 Zr.pbe-spn-rrkjus_psl.1.0.0.UPF

CELL_PARAMETERS {angstrom}
6.14888000 0.00000000 0.00000000
0.00000000 8.69583000 0.00000000
0.00000000 0.00000000 26.52190000

ATOMIC_POSITIONS {angstrom}
Zr 0.00000000 0.00000000 -3.2608676099999983 0 0 0
Zr 3.07444000 2.17395750 -1.086867459999997 0 0 0
Zr 3.07444000 6.52187250 -1.086867459999997 0 0 0
Zr 0.00000000 4.34791500 -3.2608676099999983 0 0 0
Zr 0.00166020 4.34756717 1.04310633
Zr 3.08403225 6.53109008 3.37332046
Zr 3.08427821 2.16500080 3.37225959
Zr 0.02047577 0.00026087 1.08129786
Ga 0.00000000 6.52187250 -1.086867459999997 0 0 0
Ga 3.07444000 0.00000000 -3.2608676099999983 0 0 0
Ga 0.00000000 2.17395750 -1.086867459999997 0 0 0
Ga 3.07444000 4.34791500 -3.2608676099999983 0 0 0
Ga 6.13676671 2.21161044 3.20278464
Ga 3.08224908 4.34852371 1.11922418
Ga 6.13652075 6.48474131 3.20145855
Ga 3.06380244 8.69522129 1.17757236
Ni 1.53722000 0.00000000 -1.086867459999997 0 0 0
Ni 4.61166000 4.34791500 -1.086867459999997 0 0 0
Ni 4.61166000 0.00000000 -1.086867459999997 0 0 0
Ni 1.53722000 4.34791500 -1.086867459999997 0 0 0
Ni 4.61166000 6.52187250 -3.2608676099999983 0 0 0
Ni 1.53722000 2.17395750 -3.2608676099999983 0 0 0
Ni 1.53722000 6.52187250 -3.2608676099999983 0 0 0
Ni 4.61166000 2.17395750 -3.2608676099999983 0 0 0
Ni 1.49423933 4.34826283 3.12321894
Ni 4.73961819 0.00000000 3.12905376
Ni 4.66269570 4.34817587 3.14098862
Ni 1.39893169 8.69574304 3.46959496
Ni 4.49384746 2.16560950 1.17359407
Ni 1.67679958 6.52500300 1.20701167
Ni 1.67692255 2.17039221 1.20674645
Ni 4.49329406 6.52987266 1.17412451
C 1.93892633 8.69574304 5.14657469
O 2.16170025 0.00026087 6.29417731
