&CONTROL
calculation = 'relax'
prefix = 'scf'
pseudo_dir = '/vol0004/mdt0/data/hp150275/u10028/C2_project/TEST_MAG/Fe'
outdir = './data'
tprnfor = .true.
nstep = 50
disk_io = 'non'
/
&SYSTEM
ibrav = 0
ecutwfc = 50.0
ecutrho = 400
occupations = 'smearing'
smearing = 'mp'
degauss = 0.01
assume_isolated = 'esm'
esm_bc = 'bc1'
input_dft = 'BEEF-VDW'
nosym = .true.
nspin = 2
starting_magnetization(1)=0.1
ntyp = 1
nat = 16
/
&ELECTRONS
electron_maxstep = 200
mixing_beta = 0.1
conv_thr = 1e-06
/
&IONS
ion_dynamics = 'bfgs'
upscale = 1.0
/
&CELL
/

K_POINTS {automatic}
8 8 1 0 0 0

ATOMIC_SPECIES
Fe 36 fe_pbe_v1.5.uspp.F.UPF

CELL_PARAMETERS {angstrom}
5.95743000 0.00000000 0.00000000
-0.00000000 5.95743000 0.00000000
0.00000000 0.00000000 24.46810000

ATOMIC_POSITIONS {angstrom}
Fe 1.48935750 1.48935750 -0.3193087100000014 0 0 0
Fe 1.48935750 1.48935750 2.65943779
Fe 1.48935750 4.46807250 -0.3193087100000014 0 0 0
Fe 1.48935750 4.46807250 2.65943779
Fe 4.46807250 1.48935750 -0.3193087100000014 0 0 0
Fe 4.46807250 1.48935750 2.65943779
Fe 4.46807250 4.46807250 -0.3193087100000014 0 0 0
Fe 4.46807250 4.46807250 2.65943779
Fe 0.00000000 0.00000000 -1.8086819500000004 0 0 0
Fe 0.00000000 0.00000000 1.17006454
Fe 0.00000000 2.97871500 -1.8086819500000004 0 0 0
Fe 0.00000000 2.97871500 1.17006454
Fe 2.97871500 0.00000000 -1.8086819500000004 0 0 0
Fe 2.97871500 -0.00000000 1.17006454
Fe 2.97871500 2.97871500 -1.8086819500000004 0 0 0
Fe 2.97871500 2.97871500 1.17006454
