&CONTROL
calculation = 'relax'
prefix = 'scf'
pseudo_dir = '/vol0004/mdt0/data/hp150275/u10028/POT_KKJUS'
outdir = './data'
tprnfor = .true.
nstep = 50
disk_io = 'non'
/
&SYSTEM
ibrav = 0
ecutwfc = 50.0
ecutrho = 400
occupations = 'smearing'
smearing = 'mp'
degauss = 0.01
assume_isolated = 'esm'
esm_bc = 'bc1'
input_dft = 'BEEF-VDW'
nosym = .true.
nspin = 1
ntyp = 5
nat = 18
/
&ELECTRONS
electron_maxstep = 200
mixing_beta = 0.1
conv_thr = 1e-06
/
&IONS
ion_dynamics = 'bfgs'
upscale = 1.0
/
&CELL
/

K_POINTS {automatic}
8 8 1 0 0 0

ATOMIC_SPECIES
Au 196.9 Au.pbe-n-rrkjus_psl.1.0.0.UPF
Bi 208.9 Bi.pbe-dn-rrkjus_psl.1.0.0.UPF
C 12.01 C.pbe-n-rrkjus_psl.1.0.0.UPF
Li 6.941 Li.pbe-sl-rrkjus_psl.1.0.0.UPF
O 15.99 O.pbe-n-rrkjus_psl.1.0.0.UPF

CELL_PARAMETERS {angstrom}
6.87958000 0.00000000 0.00000000
0.00000000 6.87958000 0.00000000
0.00000000 0.00000000 25.15970000

ATOMIC_POSITIONS {angstrom}
Li 0.00000000 0.00000000 -0.8599585500000018 0 0 0
Li 3.43979000 0.00000000 2.57912085
Li 0.00000000 3.43979000 2.57912085
Li 3.43979000 3.43979000 -0.8599585500000018 0 0 0
Li 1.71989500 1.71989500 -2.579875640000001 0 0 0
Li 1.75601279 5.12356720 1.01217473
Li 5.15968500 5.15968500 -2.579875640000001 0 0 0
Li 5.12356720 1.75601280 1.01217473
Bi 0.00000000 0.00000000 2.57912085
Bi 3.43979000 3.43979000 2.70944809
Bi 3.43979000 0.00000000 -0.8599585500000018 0 0 0
Bi 0.00000000 3.43979000 -0.8599585500000018 0 0 0
Au 1.76144766 1.76151646 1.02148382
Au 1.71989500 5.15968500 -2.579875640000001 0 0 0
Au 5.11806354 5.11792595 1.02148382
Au 5.15968500 1.71989500 -2.579875640000001 0 0 0
C 0.00096314 0.00103194 7.14988355
O 6.87909843 6.87896084 8.28483761
