&CONTROL
calculation = 'relax'
prefix = 'scf'
pseudo_dir = '/vol0004/mdt0/data/hp150275/u10028/POT_KKJUS'
outdir = './data'
tprnfor = .true.
nstep = 50
disk_io = 'non'
/
&SYSTEM
ibrav = 0
ecutwfc = 50.0
ecutrho = 400
occupations = 'smearing'
smearing = 'mp'
degauss = 0.01
assume_isolated = 'esm'
esm_bc = 'bc1'
input_dft = 'BEEF-VDW'
nosym = .true.
nspin = 1
ntyp = 5
nat = 34
/
&ELECTRONS
electron_maxstep = 200
mixing_beta = 0.1
conv_thr = 1e-06
/
&IONS
ion_dynamics = 'bfgs'
upscale = 1.0
/
&CELL
/

K_POINTS {automatic}
8 6 1 0 0 0

ATOMIC_SPECIES
C 12.01 C.pbe-n-rrkjus_psl.1.0.0.UPF
Li 6.941 Li.pbe-sl-rrkjus_psl.1.0.0.UPF
Mg 24.30 Mg.pbe-spnl-rrkjus_psl.1.0.0.UPF
O 15.99 O.pbe-n-rrkjus_psl.1.0.0.UPF
Pb 207.2 Pb.pbe-dn-rrkjus_psl.1.0.0.UPF

CELL_PARAMETERS {angstrom}
6.88544000 0.00000000 0.00000000
0.00000000 9.73748000 0.00000000
0.00000000 0.00000000 27.30310000

ATOMIC_POSITIONS {angstrom}
Li 1.72136000 0.00000000 -1.2171722000000003 0 0 0
Li 5.16408000 4.86874000 -1.2171722000000003 0 0 0
Li 5.16408000 0.00000000 -1.2171722000000003 0 0 0
Li 1.72136000 4.86874000 -1.2171722000000003 0 0 0
Li 5.16408000 7.30311000 -3.65151659 0 0 0
Li 1.72136000 2.43437000 -3.65151659 0 0 0
Li 1.72136000 7.30311000 -3.65151659 0 0 0
Li 5.16408000 2.43437000 -3.65151659 0 0 0
Li 1.60210418 4.86620826 3.80823639
Li 5.28333582 0.00243437 3.80796336
Li 5.28333582 4.86620826 3.80823639
Li 1.60210418 0.00243437 3.80796336
Li 5.19802522 2.43427263 1.14345383
Li 1.69195917 7.30301263 1.15055263
Li 1.68741478 2.43427263 1.14345383
Li 5.19348083 7.30301263 1.15055263
Mg 0.00000000 0.00000000 -3.65151659 0 0 0
Mg 3.44272000 2.43437000 -1.2171722000000003 0 0 0
Mg 3.44272000 7.30311000 -1.2171722000000003 0 0 0
Mg 0.00000000 4.86874000 -3.65151659 0 0 0
Mg 0.00000000 4.87594574 1.35477982
Mg 3.44272000 7.30301263 3.55240634
Mg 3.44272000 2.43427263 3.53984691
Mg 0.00000000 9.72988477 1.35477982
Pb 0.00000000 7.30311000 -1.2171722000000003 0 0 0
Pb 3.44272000 0.00000000 -3.65151659 0 0 0
Pb 0.00000000 2.43437000 -1.2171722000000003 0 0 0
Pb 3.44272000 4.86874000 -3.65151659 0 0 0
Pb 0.00000000 2.43427263 3.62667077
Pb 3.44272000 4.86698725 1.32911491
Pb 0.00000000 7.30311000 3.63704595
Pb 3.44272000 0.00165537 1.32911491
C 6.88537115 2.43592800 8.06315149
O 0.00000000 2.43417525 9.19732227
