&CONTROL
calculation = 'relax'
prefix = 'scf'
pseudo_dir = '/vol0004/mdt0/data/hp150275/u10028/POT_HYBRID_KKJUS_GBRV'
outdir = './data'
tprnfor = .true.
nstep = 50
disk_io = 'non'
/
&SYSTEM
ibrav = 0
ecutwfc = 50.0
ecutrho = 400
occupations = 'smearing'
smearing = 'mp'
degauss = 0.01
assume_isolated = 'esm'
esm_bc = 'bc1'
input_dft = 'BEEF-VDW'
nosym = .true.
nspin = 2
ntyp = 4
nat = 33
starting_magnetization(1) = 0.0
starting_magnetization(2) = 0.001
starting_magnetization(3) = 0.0
starting_magnetization(4) = 0.0
/
&ELECTRONS
electron_maxstep = 200
mixing_beta = 0.1
conv_thr = 1e-06
/
&IONS
ion_dynamics = 'bfgs'
upscale = 1.0
/
&CELL
/

K_POINTS {automatic}
9 6 2 0  0  0

ATOMIC_SPECIES
C 12.01 C.pbe-n-rrkjus_psl.1.0.0.UPF
Ni 58.69 ni_pbe_v1.4.uspp.F.UPF
Sn 118.7 Sn.pbe-dn-rrkjus_psl.1.0.0.UPF
Zr 91.22 Zr.pbe-spn-rrkjus_psl.1.0.0.UPF

CELL_PARAMETERS {angstrom}
6.34024000 0.00000000 0.00000000
0.00000000 8.96645000 0.00000000
0.00000000 0.00000000 26.72480000

ATOMIC_POSITIONS {angstrom}
Zr 0.00000000 0.00000000 23.36228566
Zr 3.17012000 2.24161250 25.60396189
Zr 3.17012000 6.72483750 25.60396189
Zr 0.00000000 4.48322500 23.36228566
Zr 0.00000000 4.48322500 1.09304432
Zr 3.17012000 6.79746575 3.42772285
Zr 3.17012000 2.16898426 3.42772285
Zr 0.00000000 0.00000000 1.11629490
Ni 1.58506000 0.00000000 25.60396189
Ni 4.75518000 4.48322500 25.60396189
Ni 4.75518000 0.00000000 25.60396189
Ni 1.58506000 4.48322500 25.60396189
Ni 4.75518000 6.72483750 23.36228566
Ni 1.58506000 2.24161250 23.36228566
Ni 1.58506000 6.72483750 23.36228566
Ni 4.75518000 2.24161250 23.36228566
Ni 1.56724393 4.48313534 3.20644150
Ni 5.00942362 0.00008966 3.35930736
Ni 4.77299607 4.48313534 3.20644150
Ni 1.33081638 0.00008966 3.35930736
Ni 4.68898789 2.24493009 1.17348597
Ni 1.65125211 6.72151991 1.17348597
Ni 1.65125211 2.24493009 1.17348597
Ni 4.68898789 6.72151991 1.17348597
Sn 0.00000000 6.72483750 25.60396189
Sn 3.17012000 0.00000000 23.36228566
Sn 0.00000000 2.24161250 25.60396189
Sn 3.17012000 4.48322500 23.36228566
Sn 0.00000000 2.29379724 3.46887904
Sn 3.17012000 4.48322500 1.10907920
Sn 0.00000000 6.67265276 3.46861179
Sn 3.17012000 0.00000000 1.12351059
C 3.17012000 0.00000000 3.84169000
