&CONTROL
calculation = 'relax'
prefix = 'scf'
pseudo_dir = '/vol0004/mdt0/data/hp150275/u10028/POT_HYBRID_KKJUS_GBRV'
outdir = './data'
tprnfor = .true.
nstep = 50
disk_io = 'non'
/
&SYSTEM
ibrav = 0
ecutwfc = 50.0
ecutrho = 400
occupations = 'smearing'
smearing = 'mp'
degauss = 0.01
assume_isolated = 'esm'
esm_bc = 'bc1'
input_dft = 'BEEF-VDW'
nosym = .true.
nspin = 2
ntyp = 3
nat = 32
starting_magnetization(1) = 0.0
starting_magnetization(2) = 0.0
starting_magnetization(3) = 0.001
/
&ELECTRONS
electron_maxstep = 300
mixing_beta = 0.1
conv_thr = 1e-06
/
&IONS
ion_dynamics = 'bfgs'
upscale = 1.0
/
&CELL
/

K_POINTS {automatic}
9 6 2 0  0  0

ATOMIC_SPECIES
Ga 69.72 Ga.pbe-dnl-rrkjus_psl.1.0.0.UPF
Hf 178.4 Hf.pbe-spn-rrkjus_psl.1.0.0.UPF
Ni 58.69 ni_pbe_v1.4.uspp.F.UPF

CELL_PARAMETERS {angstrom}
6.08368000 0.00000000 0.00000000
0.00000000 8.60362000 0.00000000
0.00000000 0.00000000 26.45270000

ATOMIC_POSITIONS {angstrom}
Hf 0.00000000 0.00000000 -3.226435819999999 0 0 0
Hf 3.04184000 2.15090500 -1.075566779999999 0 0 0
Hf 3.04184000 6.45271500 -1.075566779999999 0 0 0
Hf 0.00000000 4.30181000 -3.226435819999999 0 0 0
Hf 0.00000000 4.30181000 1.06445665
Hf 3.04184000 6.45271500 3.30976182
Hf 3.04184000 2.15090500 3.30976182
Hf 0.00000000 0.00000000 1.06445665
Ga 0.00000000 6.45271500 -1.075566779999999 0 0 0
Ga 3.04184000 0.00000000 -3.226435819999999 0 0 0
Ga 0.00000000 2.15090500 -1.075566779999999 0 0 0
Ga 3.04184000 4.30181000 -3.226435819999999 0 0 0
Ga 0.00000000 2.15090500 3.24389460
Ga 3.04184000 4.30181000 1.10783908
Ga 0.00000000 6.45271500 3.24389460
Ga 3.04184000 0.00000000 1.10757455
Ni 1.52092000 0.00000000 -1.075566779999999 0 0 0
Ni 4.56276000 4.30181000 -1.075566779999999 0 0 0
Ni 4.56276000 0.00000000 -1.075566779999999 0 0 0
Ni 1.52092000 4.30181000 -1.075566779999999 0 0 0
Ni 4.56276000 6.45271500 -3.226435819999999 0 0 0
Ni 1.52092000 2.15090500 -3.226435819999999 0 0 0
Ni 1.52092000 6.45271500 -3.226435819999999 0 0 0
Ni 4.56276000 2.15090500 -3.226435819999999 0 0 0
Ni 1.46342922 4.30181000 3.13490948
Ni 4.62012910 0.00000000 3.13490948
Ni 4.62025078 4.30181000 3.13490948
Ni 1.46355090 0.00000000 3.13490948
Ni 4.46572530 2.15090500 1.15069245
Ni 1.61795470 6.45271500 1.15069245
Ni 1.61795470 2.15090500 1.15069245
Ni 4.46572530 6.45271500 1.15069245
