&CONTROL
calculation = 'relax'
prefix = 'scf'
pseudo_dir = '/vol0403/data/hp230205/u10028/POT_HYBRID_KKJUS_GBRV'
outdir = './data'
tprnfor = .true.
nstep = 70
disk_io = 'non'
/
&SYSTEM
ibrav = 0
ecutwfc = 50.0
ecutrho = 400
occupations = 'smearing'
smearing = 'mp'
degauss = 0.01
assume_isolated = 'esm'
esm_bc = 'bc1'
input_dft = 'BEEF-VDW'
nosym = .true.
nspin = 1
ntyp = 5
nat = 33
/
&ELECTRONS
electron_maxstep = 200
mixing_beta = 0.1
conv_thr = 1e-06
/
&IONS
ion_dynamics = 'bfgs'
upscale = 1.0
/
&CELL
/

K_POINTS {automatic}
7 7 2 0  0  0

ATOMIC_SPECIES
Al 26.98 Al.pbe-nl-rrkjus_psl.1.0.0.UPF
C 12.01 C.pbe-n-rrkjus_psl.1.0.0.UPF
In 114.8 In.pbe-dn-rrkjus_psl.1.0.0.UPF
Pd 106.4 Pd.pbe-n-rrkjus_psl.1.0.0.UPF
Y 88.90 Y.pbe-spn-rrkjus_psl.1.0.0.UPF


CELL_PARAMETERS {angstrom}
8.86460000 0.00000000 0.00000000
-0.00000000 9.21652000 0.00000000
0.00000000 0.00000000 26.12130000

ATOMIC_POSITIONS {angstrom}
Y 0.00000000 2.30413000 -1.0202979800000023 0 0 0
Y 0.00000000 2.30413000 3.06063272
Y 0.00000000 6.91239000 -1.0202979800000023 0 0 0
Y 0.00000000 6.91239000 3.06063272
Y 4.43230000 2.30413000 -1.0202979800000023 0 0 0
Y 4.43230000 2.30413000 3.06063272
Y 4.43230000 6.91239000 -1.0202979800000023 0 0 0
Y 4.43230000 6.91239000 3.06063272
Al 0.00000000 0.00000000 -3.060632720000001 0 0 0
Al 0.00000000 0.00000000 1.02029798
Al 0.00000000 4.60826000 -3.060632720000001 0 0 0
Al 0.00000000 4.60826000 1.02029798
Al 4.43230000 0.00000000 -3.060632720000001 0 0 0
Al 4.43230000 -0.00000000 1.02029798
Al 4.43230000 4.60826000 -3.060632720000001 0 0 0
Al 4.43230000 4.60826000 1.02029798
In 2.21615000 0.00000000 -1.0202979800000023 0 0 0
In 2.21615000 -0.00000000 3.06063272
In 2.21615000 4.60826000 -1.0202979800000023 0 0 0
In 2.21615000 4.60826000 3.06063272
In 6.64845000 0.00000000 -1.0202979800000023 0 0 0
In 6.64845000 -0.00000000 3.06063272
In 6.64845000 4.60826000 -1.0202979800000023 0 0 0
In 6.64845000 4.60826000 3.06063272
Pd 2.21615000 2.30413000 -3.060632720000001 0 0 0
Pd 2.21615000 2.30413000 1.02029798
Pd 2.21615000 6.91239000 -3.060632720000001 0 0 0
Pd 2.21615000 6.91239000 1.02029798
Pd 6.64845000 2.30413000 -3.060632720000001 0 0 0
Pd 6.64845000 2.30413000 1.02029798
Pd 6.64845000 6.91239000 -3.060632720000001 0 0 0
Pd 6.64845000 6.91239000 1.02029798
C 0.00000000 0.00000000 3.86072814
