&CONTROL
calculation = 'relax'
prefix = 'scf'
pseudo_dir = '/vol0004/mdt0/data/hp150275/u10028/POT_KKJUS'
outdir = './data'
tprnfor = .true.
nstep = 50
disk_io = 'non'
/
&SYSTEM
ibrav = 0
ecutwfc = 50.0
ecutrho = 400
occupations = 'smearing'
smearing = 'mp'
degauss = 0.01
assume_isolated = 'esm'
esm_bc = 'bc1'
input_dft = 'BEEF-VDW'
nosym = .true.
nspin = 1
ntyp = 3
nat = 33
/
&ELECTRONS
electron_maxstep = 200
mixing_beta = 0.1
conv_thr = 1e-06
/
&IONS
ion_dynamics = 'bfgs'
upscale = 1.0
/
&CELL
/

K_POINTS {automatic}
8 6 1 0 0 0

ATOMIC_SPECIES
C 12.01 C.pbe-n-rrkjus_psl.1.0.0.UPF
In 114.8 In.pbe-dn-rrkjus_psl.1.0.0.UPF
Y 88.90 Y.pbe-spn-rrkjus_psl.1.0.0.UPF

CELL_PARAMETERS {angstrom}
7.55034000 0.00000000 0.00000000
0.00000000 10.67780000 0.00000000
0.00000000 0.00000000 28.00830000

ATOMIC_POSITIONS {angstrom}
Y 1.88758500 2.66945000 -4.004066569999999 0 0 0
Y 1.88758500 0.00000000 -1.334595499999999 0 0 0
Y 1.85828968 2.65556886 1.31919093
Y 1.96331491 0.00000000 4.13066408
Y 1.88758500 8.00835000 -4.004066569999999 0 0 0
Y 1.88758500 5.33890000 -1.334595499999999 0 0 0
Y 1.85828968 8.02223114 1.31919093
Y 1.77349936 5.33890000 4.03179478
Y 5.66275500 2.66945000 -4.004066569999999 0 0 0
Y 5.66275500 0.00000000 -1.334595499999999 0 0 0
Y 5.69205032 2.65556886 1.31919093
Y 5.58702509 0.00000000 4.13066408
Y 5.66275500 8.00835000 -4.004066569999999 0 0 0
Y 5.66275500 5.33890000 -1.334595499999999 0 0 0
Y 5.69205032 8.02223114 1.31919093
Y 5.77684064 5.33890000 4.03179478
In 0.00000000 0.00000000 -4.004066569999999 0 0 0
In 0.00000000 2.66945000 -1.334595499999999 0 0 0
In 0.00000000 0.00000000 1.48219924
In 0.00000000 2.58039715 4.28022841
In 0.00000000 5.33890000 -4.004066569999999 0 0 0
In 0.00000000 8.00835000 -1.334595499999999 0 0 0
In 0.00000000 5.33890000 1.38108927
In 0.00000000 8.09740285 4.28050849
In 3.77517000 0.00000000 -4.004066569999999 0 0 0
In 3.77517000 2.66945000 -1.334595499999999 0 0 0
In 3.77517000 0.00000000 1.35896272
In 3.77517000 2.78850747 3.98530101
In 3.77517000 5.33890000 -4.004066569999999 0 0 0
In 3.77517000 8.00835000 -1.334595499999999 0 0 0
In 3.77517000 5.33890000 1.39229259
In 3.77517000 7.88929253 3.98530101
C 0.00000000 10.67769322 5.05325749
