&CONTROL
calculation = 'relax'
prefix = 'scf'
pseudo_dir = '/vol0403/data/hp230205/u10028/POT_HYBRID_KKJUS_GBRV'
outdir = './data'
tprnfor = .true.
nstep = 50
disk_io = 'non'
/
&SYSTEM
ibrav = 0
ecutwfc = 50.0
ecutrho = 400
occupations = 'smearing'
smearing = 'mp'
degauss = 0.01
assume_isolated = 'esm'
esm_bc = 'bc1'
input_dft = 'BEEF-VDW'
nosym = .true.
nspin = 1
ntyp = 5
nat = 33
/
&ELECTRONS
electron_maxstep = 200
mixing_beta = 0.1
conv_thr = 1e-06
/
&IONS
ion_dynamics = 'bfgs'
upscale = 1.0
/
&CELL
/

K_POINTS {automatic}
6 6 1 0 0 0

ATOMIC_SPECIES
C 12.01 C.pbe-n-rrkjus_psl.1.0.0.UPF
Ca 40.07 Ca.pbe-spn-rrkjus_psl.1.0.0.UPF
Ge 72.64 Ge.pbe-dn-rrkjus_psl.1.0.0.UPF
Li 6.941 Li.pbe-sl-rrkjus_psl.1.0.0.UPF
Pd 106.4 Pd.pbe-n-rrkjus_psl.1.0.0.UPF


CELL_PARAMETERS {angstrom}
6.62107000 0.00000000 0.00000000
0.00000000 9.36360000 0.00000000
0.00000000 0.00000000 27.02270000

ATOMIC_POSITIONS {angstrom}
Li 4.96580250 0.00000000 -1.1703531399999996 0 0 0
Li 4.96580250 4.68180000 -1.1703531399999996 0 0 0
Li 1.65526750 2.34090000 -3.5113296399999996 0 0 0
Li 1.65526750 7.02270000 -3.5113296399999996 0 0 0
Li 6.61815673 4.68189364 4.94488387
Li 4.71413563 9.36350636 3.31082120
Li 1.85965993 7.01623912 1.57434250
Li 1.86012341 2.34717361 1.57461273
Ca 0.00000000 0.00000000 -3.5113296399999996 0 0 0
Ca 0.00000000 4.68180000 -3.5113296399999996 0 0 0
Ca 3.31053500 7.02270000 -1.1703531399999996 0 0 0
Ca 3.31053500 2.34090000 -1.1703531399999996 0 0 0
Ca 6.37734841 4.68170636 1.36653794
Ca 6.55214466 0.00028091 1.12603591
Ca 3.35423406 2.55991460 4.29120476
Ca 3.35416785 6.80143813 4.28931317
Ge 0.00000000 2.34090000 -1.1703531399999996 0 0 0
Ge 0.00000000 7.02270000 -1.1703531399999996 0 0 0
Ge 3.31053500 4.68180000 -3.5113296399999996 0 0 0
Ge 3.31053500 0.00000000 -3.5113296399999996 0 0 0
Ge 6.46587212 7.39939763 3.65319881
Ge 6.46560728 1.96541964 3.65292859
Ge 3.32218808 0.00000000 1.00578489
Ge 3.27378806 4.68217454 1.09847275
Pd 1.65526750 0.00000000 -1.1703531399999996 0 0 0
Pd 1.65526750 4.68180000 -1.1703531399999996 0 0 0
Pd 4.96580250 2.34090000 -3.5113296399999996 0 0 0
Pd 4.96580250 7.02270000 -3.5113296399999996 0 0 0
Pd 1.89223560 4.67945910 3.24407514
Pd 2.06153636 9.36247637 3.24353468
Pd 4.59449289 7.08655975 1.58515158
Pd 4.59402942 2.27750843 1.58569204
C 0.11507420 0.00065545 3.84614089
