&CONTROL
calculation = 'relax'
prefix = 'scf'
pseudo_dir = '/vol0004/mdt0/data/hp150275/u10028/POT_KKJUS'
outdir = './data'
tprnfor = .true.
nstep = 50
disk_io = 'non'
/
&SYSTEM
ibrav = 0
ecutwfc = 50.0
ecutrho = 400
occupations = 'smearing'
smearing = 'mp'
degauss = 0.01
assume_isolated = 'esm'
esm_bc = 'bc1'
input_dft = 'BEEF-VDW'
nosym = .true.
nspin = 1
ntyp = 3
nat = 17
/
&ELECTRONS
electron_maxstep = 200
mixing_beta = 0.1
conv_thr = 1e-06
/
&IONS
ion_dynamics = 'bfgs'
upscale = 1.0
/
&CELL
/

K_POINTS {automatic}
7 11 3 0  0  0

ATOMIC_SPECIES
C 12.01 C.pbe-n-rrkjus_psl.1.0.0.UPF
Ca 40.07 Ca.pbe-spn-rrkjus_psl.1.0.0.UPF
Pb 207.2 Pb.pbe-dn-rrkjus_psl.1.0.0.UPF

CELL_PARAMETERS {angstrom}
10.04260000 0.00000000 0.00000000
0.00000000 7.10117000 0.00000000
0.00000000 0.00000000 25.32590000

ATOMIC_POSITIONS {angstrom}
Ca 0.00000000 0.00000000 -2.6630183900000013 0 0 0
Ca 0.00000000 3.55058500 0.42851423
Ca 5.02130000 0.00000000 -2.6630183900000013 0 0 0
Ca 5.02140043 3.55058500 0.99049595
Pb 0.00000000 3.55058500 -2.6630183900000013 0 0 0
Pb 2.51065000 5.32587750 -0.8876727899999999 0 0 0
Pb 2.51065000 1.77529250 -0.8876727899999999 0 0 0
Pb 10.04249957 0.00000000 0.82081242
Pb 1.86983169 1.90396570 2.80104454
Pb 1.86953042 5.19720430 2.80129780
Pb 5.02130000 3.55058500 -2.6630183900000013 0 0 0
Pb 7.53195000 5.32587750 -0.8876727899999999 0 0 0
Pb 7.53195000 1.77529250 -0.8876727899999999 0 0 0
Pb 5.02130000 0.00007101 0.98264492
Pb 8.17286873 1.90389469 2.80104454
Pb 8.17306958 5.19727531 2.80129780
C 10.04249957 3.55051399 2.79901847
