&CONTROL
calculation = 'relax'
prefix = 'scf'
pseudo_dir = '/vol0004/mdt0/data/hp150275/u10028/POT_HYBRID_KKJUS_GBRV'
outdir = './data'
tprnfor = .true.
nstep = 50
disk_io = 'non'
/
&SYSTEM
ibrav = 0
ecutwfc = 50.0
ecutrho = 400
occupations = 'smearing'
smearing = 'mp'
degauss = 0.01
assume_isolated = 'esm'
esm_bc = 'bc1'
input_dft = 'BEEF-VDW'
nosym = .true.
nspin = 2
ntyp = 5
nat = 18
starting_magnetization(1) = 0.1
starting_magnetization(2) = 0.1
starting_magnetization(3) = 0.1
starting_magnetization(4) = 0.1
starting_magnetization(5) = 0.1
/
&ELECTRONS
electron_maxstep = 200
mixing_beta = 0.1
conv_thr = 1e-06
/
&IONS
ion_dynamics = 'bfgs'
upscale = 1.0
/
&CELL
/

K_POINTS {automatic}
10 10 2 0  0  0

ATOMIC_SPECIES
C 12.01 C.pbe-n-rrkjus_psl.1.0.0.UPF
Ni 58.69 ni_pbe_v1.4.uspp.F.UPF
O 15.99 O.pbe-n-rrkjus_psl.1.0.0.UPF
Sb 121.7 Sb.pbe-n-rrkjus_psl.1.0.0.UPF
Ti 47.86 Ti.pbe-spn-rrkjus_psl.1.0.0.UPF

CELL_PARAMETERS {angstrom}
6.14873000 0.00000000 0.00000000
-0.00000000 6.14873000 0.00000000
0.00000000 0.00000000 24.61150000

ATOMIC_POSITIONS {angstrom}
Ti 0.00000000 0.00000000 -2.305851439999998 0 0 0
Ti 3.07436500 3.07436500 -2.305851439999998 0 0 0
Ti 3.07436500 -0.00000000 0.76861715
Ti 0.00000000 3.07436500 0.76861715
Ni 1.53718250 1.53718250 -0.7686171500000007 0 0 0
Ni 4.61154750 4.61154750 2.30585143
Ni 4.61154750 1.53718250 -0.7686171500000007 0 0 0
Ni 1.53718250 4.61154750 2.30585143
Ni 4.61154750 4.61154750 -0.7686171500000007 0 0 0
Ni 1.53718250 1.53718250 2.30585143
Ni 1.53718250 4.61154750 -0.7686171500000007 0 0 0
Ni 4.61154750 1.53718250 2.30585143
Sb 0.00000000 0.00000000 0.76861715
Sb 3.07436500 0.00000000 -2.305851439999998 0 0 0
Sb 0.00000000 3.07436500 -2.305851439999998 0 0 0
Sb 3.07436500 3.07436500 0.76861715
C 1.53718250 1.53718250 4.20585923
O 1.53718250 1.53718250 5.35570851
