&CONTROL
calculation = 'relax'
prefix = 'scf'
pseudo_dir = '/vol0403/data/hp230205/u10028/POT_HYBRID_KKJUS_GBRV'
outdir = './data'
tprnfor = .true.
nstep = 70
disk_io = 'non'
/
&SYSTEM
ibrav = 0
ecutwfc = 50.0
ecutrho = 400
occupations = 'smearing'
smearing = 'mp'
degauss = 0.01
assume_isolated = 'esm'
esm_bc = 'bc1'
input_dft = 'BEEF-VDW'
nosym = .true.
nspin = 1
ntyp = 6
nat = 18
/
&ELECTRONS
electron_maxstep = 200
mixing_beta = 0.1
conv_thr = 1e-06
/
&IONS
ion_dynamics = 'bfgs'
upscale = 1.0
/
&CELL
/

K_POINTS {automatic}
6 6 1 0 0 0

ATOMIC_SPECIES
C 12.01 C.pbe-n-rrkjus_psl.1.0.0.UPF
Ge 72.64 Ge.pbe-dn-rrkjus_psl.1.0.0.UPF
O 15.99 O.pbe-n-rrkjus_psl.1.0.0.UPF
Pd 106.4 Pd.pbe-n-rrkjus_psl.1.0.0.UPF
Sn 118.7 Sn.pbe-dn-rrkjus_psl.1.0.0.UPF
Y 88.90 Y.pbe-spn-rrkjus_psl.1.0.0.UPF


CELL_PARAMETERS {angstrom}
5.93056000 0.00000000 0.00000000
-0.00000000 9.60308000 0.00000000
0.00000000 0.00000000 24.43880000

ATOMIC_POSITIONS {angstrom}
Y 2.96528000 0.00000000 -2.2192874300000014 0 0 0
Y 5.68088342 0.02948146 0.81845541
Y 2.96528000 4.80154000 -2.2192874300000014 0 0 0
Y 5.68088342 4.77205854 0.81845541
Sn 1.38786965 2.40077000 -0.7397624799999996 0 0 0
Sn 3.65832524 2.40077000 2.03892908
Sn 1.38786965 7.20231000 -0.7397624799999996 0 0 0
Sn 4.15637367 7.20231000 2.32926203
Ge 0.00000000 0.00000000 -2.2192874300000014 0 0 0
Ge 2.75456720 9.28214507 1.01054438
Ge 0.00000000 4.80154000 -2.2192874300000014 0 0 0
Ge 2.75468581 5.12257096 1.01054438
Pd 4.35314965 2.40077000 -0.7397624799999996 0 0 0
Pd 0.82932951 2.40067397 1.94752797
Pd 4.35314965 7.20231000 -0.7397624799999996 0 0 0
Pd 1.14827503 7.20231000 1.95485961
C 3.62351285 2.40096206 5.90856868
O 4.46102654 2.40077000 6.67521383
