&CONTROL
calculation = 'relax'
prefix = 'scf'
pseudo_dir = '/vol0004/mdt0/data/hp150275/u10028/POT_HYBRID_KKJUS_GBRV'
outdir = './data'
tprnfor = .true.
nstep = 50
disk_io = 'non'
/
&SYSTEM
ibrav = 0
ecutwfc = 50.0
ecutrho = 400
occupations = 'smearing'
smearing = 'mp'
degauss = 0.01
assume_isolated = 'esm'
esm_bc = 'bc1'
input_dft = 'BEEF-VDW'
nosym = .true.
nspin = 2
ntyp = 3
nat = 32
starting_magnetization(1) = 0.001
starting_magnetization(2) = 0.0
starting_magnetization(3) = 0.0
/
&ELECTRONS
electron_maxstep = 300
mixing_beta = 0.1
conv_thr = 1e-06
/
&IONS
ion_dynamics = 'bfgs'
upscale = 1.0
/
&CELL
/

K_POINTS {automatic}
8 6 1 0 0 0

ATOMIC_SPECIES
Ni 58.69 ni_pbe_v1.4.uspp.F.UPF
Sn 118.7 Sn.pbe-dn-rrkjus_psl.1.0.0.UPF
Zr 91.22 Zr.pbe-spn-rrkjus_psl.1.0.0.UPF

CELL_PARAMETERS {angstrom}
6.34024000 0.00000000 0.00000000
0.00000000 8.96645000 0.00000000
0.00000000 0.00000000 26.72480000

ATOMIC_POSITIONS {angstrom}
Zr 0.00000000 0.00000000 -3.362514339999997 0 0 0
Zr 3.17012000 2.24161250 -1.1208381099999976 0 0 0
Zr 3.17012000 6.72483750 -1.1208381099999976 0 0 0
Zr 0.00000000 4.48322500 -3.362514339999997 0 0 0
Zr 0.00000000 4.48322500 1.12110536
Zr 3.17012000 6.72483750 3.37908371
Zr 3.17012000 2.24161250 3.37908371
Zr 0.00000000 0.00000000 1.12110536
Ni 1.58506000 0.00000000 -1.1208381099999976 0 0 0
Ni 4.75518000 4.48322500 -1.1208381099999976 0 0 0
Ni 4.75518000 0.00000000 -1.1208381099999976 0 0 0
Ni 1.58506000 4.48322500 -1.1208381099999976 0 0 0
Ni 4.75518000 6.72483750 -3.362514339999997 0 0 0
Ni 1.58506000 2.24161250 -3.362514339999997 0 0 0
Ni 1.58506000 6.72483750 -3.362514339999997 0 0 0
Ni 4.75518000 2.24161250 -3.362514339999997 0 0 0
Ni 1.64002988 4.48313534 3.20857949
Ni 4.70040033 0.00008966 3.20857949
Ni 4.70021012 4.48313534 3.20857949
Ni 1.63983967 0.00008966 3.20857949
Ni 4.72633191 2.24179183 1.20395224
Ni 1.61390809 6.72465817 1.20395224
Ni 1.61390809 2.24179183 1.20395224
Ni 4.72633191 6.72465817 1.20395224
Sn 0.00000000 6.72483750 -1.1208381099999976 0 0 0
Sn 3.17012000 0.00000000 -3.362514339999997 0 0 0
Sn 0.00000000 2.24161250 -1.1208381099999976 0 0 0
Sn 3.17012000 4.48322500 -3.362514339999997 0 0 0
Sn 0.00000000 2.24170216 3.52660461
Sn 3.17012000 4.48322500 1.07273347
Sn 0.00000000 6.72483750 3.52660461
Sn 3.17012000 0.00000000 1.07273347
