&CONTROL
calculation = 'relax'
prefix = 'scf'
pseudo_dir = '/vol0004/mdt0/data/hp150275/u10028/POT_HYBRID_KKJUS_GBRV'
outdir = './data'
tprnfor = .true.
nstep = 50
disk_io = 'non'
/
&SYSTEM
ibrav = 0
ecutwfc = 50.0
ecutrho = 400
occupations = 'smearing'
smearing = 'mp'
degauss = 0.01
assume_isolated = 'esm'
esm_bc = 'bc1'
input_dft = 'BEEF-VDW'
nosym = .true.
nspin = 2
ntyp = 5
nat = 18
starting_magnetization(1) = 0.1
starting_magnetization(2) = 0.1
starting_magnetization(3) = 0.1
starting_magnetization(4) = 0.1
starting_magnetization(5) = 0.1
/
&ELECTRONS
electron_maxstep = 200
mixing_beta = 0.1
conv_thr = 1e-06
/
&IONS
ion_dynamics = 'bfgs'
upscale = 1.0
/
&CELL
/

K_POINTS {automatic}
9 9 2 0  0  0

ATOMIC_SPECIES
C 12.01 C.pbe-n-rrkjus_psl.1.0.0.UPF
Co 58.93 co_pbe_v1.2.uspp.F.UPF
Nb 92.90 Nb.pbe-spn-rrkjus_psl.1.0.0.UPF
O 15.99 O.pbe-n-rrkjus_psl.1.0.0.UPF
Sn 118.7 Sn.pbe-dn-rrkjus_psl.1.0.0.UPF

CELL_PARAMETERS {angstrom}
6.19479000 0.00000000 0.00000000
0.00000000 6.19479000 0.00000000
0.00000000 0.00000000 24.64610000

ATOMIC_POSITIONS {angstrom}
Nb 0.00012390 0.00000000 2.22061361
Nb 3.09733305 3.09727110 2.22036715
Nb 3.09739500 0.00000000 -0.7743804599999997 0 0 0
Nb 0.00000000 3.09739500 -0.7743804599999997 0 0 0
Co 1.55321970 1.54398946 0.86088827
Co 4.64609250 4.64609250 -2.32314139 0 0 0
Co 4.64169420 1.54386556 0.86138120
Co 1.54869750 4.64609250 -2.32314139 0 0 0
Co 4.64157030 4.65098638 0.86138120
Co 1.54869750 1.54869750 -2.32314139 0 0 0
Co 1.55328164 4.65080054 0.86113473
Co 4.64609250 1.54869750 -2.32314139 0 0 0
Sn 0.00000000 0.00000000 -0.7743804599999997 0 0 0
Sn 3.09727110 0.00000000 2.59720602
Sn 0.00006195 3.09733305 2.56344086
Sn 3.09739500 3.09739500 -0.7743804599999997 0 0 0
C 6.19280767 3.09745695 6.37988945
O 0.00142480 3.09677552 7.51434943
