&CONTROL
calculation = 'relax'
prefix = 'scf'
pseudo_dir = '/vol0004/mdt0/data/hp150275/u10028/POT_KKJUS'
outdir = './data'
tprnfor = .true.
nstep = 50
disk_io = 'non'
/
&SYSTEM
ibrav = 0
ecutwfc = 50.0
ecutrho = 400
occupations = 'smearing'
smearing = 'mp'
degauss = 0.01
assume_isolated = 'esm'
esm_bc = 'bc1'
input_dft = 'BEEF-VDW'
nosym = .true.
nspin = 1
ntyp = 5
nat = 18
/
&ELECTRONS
electron_maxstep = 200
mixing_beta = 0.1
conv_thr = 1e-06
/
&IONS
ion_dynamics = 'bfgs'
upscale = 1.0
/
&CELL
/

K_POINTS {automatic}
10 10 2 0  0  0

ATOMIC_SPECIES
C 12.01 C.pbe-n-rrkjus_psl.1.0.0.UPF
Ga 69.72 Ga.pbe-dnl-rrkjus_psl.1.0.0.UPF
Ni 58.69 Ni.pbe-spn-rrkjus_psl.1.0.0.UPF
O 15.99 O.pbe-n-rrkjus_psl.1.0.0.UPF
Sc 44.95 Sc.pbe-spn-rrkjus_psl.1.0.0.UPF

CELL_PARAMETERS {angstrom}
6.08368000 0.00000000 0.00000000
0.00000000 6.08368000 0.00000000
0.00000000 0.00000000 24.56280000

ATOMIC_POSITIONS {angstrom}
Sc 0.00237264 0.00121674 2.36269573
Sc 3.03873732 3.03885900 2.46561386
Sc 3.04184000 0.00000000 -0.760464289999998 0 0 0
Sc 0.00000000 3.04184000 -0.760464289999998 0 0 0
Ga 0.00000000 0.00000000 -0.760464289999998 0 0 0
Ga 3.04372594 6.08270661 2.20917823
Ga 0.00091255 3.04342176 2.20721321
Ga 3.04184000 3.04184000 -0.760464289999998 0 0 0
Ni 1.57494308 1.57506475 0.87910261
Ni 4.56276000 4.56276000 -2.2813928600000004 0 0 0
Ni 4.51007533 1.57609898 0.88671708
Ni 1.52092000 4.56276000 -2.2813928600000004 0 0 0
Ni 4.50812855 4.50788521 0.88548894
Ni 1.52092000 1.52092000 -2.2813928600000004 0 0 0
Ni 1.57731571 4.50946696 0.88057638
Ni 4.56276000 1.52092000 -2.2813928600000004 0 0 0
C 6.08094234 0.00073004 4.70647811
O 6.07954310 6.08288912 5.85552589
