&CONTROL
calculation = 'relax'
prefix = 'scf'
pseudo_dir = '/vol0004/mdt0/data/hp150275/u10028/POT_HYBRID_KKJUS_GBRV'
outdir = './data'
tprnfor = .true.
nstep = 50
disk_io = 'non'
/
&SYSTEM
ibrav = 0
ecutwfc = 50.0
ecutrho = 400
occupations = 'smearing'
smearing = 'mp'
degauss = 0.01
assume_isolated = 'esm'
esm_bc = 'bc1'
input_dft = 'BEEF-VDW'
nosym = .true.
nspin = 2
ntyp = 5
nat = 34
starting_magnetization(1) = 0.0
starting_magnetization(2) = 0.001
starting_magnetization(3) = 0.0
starting_magnetization(4) = 0.0
starting_magnetization(5) = 0.0
/
&ELECTRONS
electron_maxstep = 300
mixing_beta = 0.1
conv_thr = 1e-06
/
&IONS
ion_dynamics = 'bfgs'
upscale = 1.0
/
&CELL
/

K_POINTS {automatic}
8 6 1 0 0 0

ATOMIC_SPECIES
C 12.01 C.pbe-n-rrkjus_psl.1.0.0.UPF
Ni 58.69 ni_pbe_v1.4.uspp.F.UPF
O 15.99 O.pbe-n-rrkjus_psl.1.0.0.UPF
Sb 121.7 Sb.pbe-n-rrkjus_psl.1.0.0.UPF
Zr 91.22 Zr.pbe-spn-rrkjus_psl.1.0.0.UPF

CELL_PARAMETERS {angstrom}
6.34024000 0.00000000 0.00000000
0.00000000 8.96645000 0.00000000
0.00000000 0.00000000 26.72480000

ATOMIC_POSITIONS {angstrom}
Zr 0.00000000 0.00000000 -3.362514339999997 0 0 0
Zr 3.17012000 2.24161250 -1.1208381099999976 0 0 0
Zr 3.17012000 6.72483750 -1.1208381099999976 0 0 0
Zr 0.00000000 4.48322500 -3.362514339999997 0 0 0
Zr 0.00000000 4.53639605 1.12591582
Zr 3.17012000 6.72483750 3.44295598
Zr 3.17012000 2.24188149 3.32910834
Zr 0.00000000 8.91309962 1.12645032
Ni 1.58506000 0.00000000 -1.1208381099999976 0 0 0
Ni 4.75518000 4.48322500 -1.1208381099999976 0 0 0
Ni 4.75518000 0.00000000 -1.1208381099999976 0 0 0
Ni 1.58506000 4.48322500 -1.1208381099999976 0 0 0
Ni 4.75518000 6.72483750 -3.362514339999997 0 0 0
Ni 1.58506000 2.24161250 -3.362514339999997 0 0 0
Ni 1.58506000 6.72483750 -3.362514339999997 0 0 0
Ni 4.75518000 2.24161250 -3.362514339999997 0 0 0
Ni 1.70856788 4.50734475 3.16047485
Ni 4.63141852 8.94295790 3.16154384
Ni 4.63167212 4.50734475 3.16047485
Ni 1.70882148 8.94295790 3.16154384
Ni 4.91901180 2.24107451 1.14649392
Ni 1.68916674 6.72483750 1.26782451
Ni 1.42122820 2.24107451 1.14649392
Ni 4.65107326 6.72483750 1.26782451
Sb 0.00000000 6.72483750 -1.1208381099999976 0 0 0
Sb 3.17012000 0.00000000 -3.362514339999997 0 0 0
Sb 0.00000000 2.24161250 -1.1208381099999976 0 0 0
Sb 3.17012000 4.48322500 -3.362514339999997 0 0 0
Sb 0.00000000 2.24179183 3.52794085
Sb 3.17012000 4.43955839 1.04787941
Sb 0.00000000 6.72483750 3.53382030
Sb 3.17012000 0.04330795 1.04814666
C 3.17012000 2.24170216 5.61300974
O 3.17012000 2.24161250 6.76297789
