&CONTROL
calculation = 'relax'
prefix = 'scf'
pseudo_dir = '/vol0403/data/hp230205/u10028/POT_HYBRID_KKJUS_GBRV'
outdir = './data'
tprnfor = .true.
nstep = 50
disk_io = 'non'
/
&SYSTEM
ibrav = 0
ecutwfc = 50.0
ecutrho = 400
occupations = 'smearing'
smearing = 'mp'
degauss = 0.01
assume_isolated = 'esm'
esm_bc = 'bc1'
input_dft = 'BEEF-VDW'
nosym = .true.
nspin = 1
ntyp = 6
nat = 34
/
&ELECTRONS
electron_maxstep = 200
mixing_beta = 0.1
conv_thr = 1e-06
/
&IONS
ion_dynamics = 'bfgs'
upscale = 1.0
/
&CELL
/

K_POINTS {automatic}
6 6 1 0 0 0

ATOMIC_SPECIES
Ag 107.8 Ag.pbe-n-rrkjus_psl.1.0.0.UPF
C 12.01 C.pbe-n-rrkjus_psl.1.0.0.UPF
Ge 72.64 Ge.pbe-dn-rrkjus_psl.1.0.0.UPF
Li 6.941 Li.pbe-sl-rrkjus_psl.1.0.0.UPF
O 15.99 O.pbe-n-rrkjus_psl.1.0.0.UPF
Pd 106.4 Pd.pbe-n-rrkjus_psl.1.0.0.UPF


CELL_PARAMETERS {angstrom}
6.28256000 0.00000000 0.00000000
0.00000000 8.88488000 0.00000000
0.00000000 0.00000000 26.66370000

ATOMIC_POSITIONS {angstrom}
Li 1.57064000 0.00000000 -1.1105430999999975 0 0 0
Li 1.57064000 4.44244000 -1.1105430999999975 0 0 0
Li 4.71192000 2.22122000 -3.33189595 0 0 0
Li 4.71192000 6.66366000 -3.33189595 0 0 0
Li 1.46603538 4.44252885 3.54547219
Li 1.47313467 8.88479115 3.63772859
Li 4.66065431 6.67494380 1.03321837
Li 4.66046583 2.20993620 1.03348501
Ag 0.00000000 0.00000000 -3.33189595 0 0 0
Ag 0.00000000 4.44244000 -3.33189595 0 0 0
Ag 3.14128000 6.66366000 -1.1105430999999975 0 0 0
Ag 3.14128000 2.22122000 -1.1105430999999975 0 0 0
Ag 6.26195320 4.44244000 1.12227513
Ag 0.00703647 0.00008885 1.13214070
Ag 3.25009394 2.24707500 3.37135823
Ag 3.25009394 6.63798270 3.37109159
Ge 4.71192000 0.00000000 -1.1105430999999975 0 0 0
Ge 4.71192000 4.44244000 -1.1105430999999975 0 0 0
Ge 1.57064000 2.22122000 -3.33189595 0 0 0
Ge 1.57064000 6.66366000 -3.33189595 0 0 0
Ge 4.84630396 4.44261770 3.49321134
Ge 4.81639897 0.00008885 3.43081828
Ge 1.60588516 6.66241612 1.15907104
Ge 1.60588516 2.22255273 1.15907104
Pd 0.00000000 2.22122000 -1.1105430999999975 0 0 0
Pd 0.00000000 6.66366000 -1.1105430999999975 0 0 0
Pd 3.14128000 4.44244000 -3.33189595 0 0 0
Pd 3.14128000 0.00000000 -3.33189595 0 0 0
Pd 6.17248955 6.65370893 3.10205486
Pd 6.17242672 2.23143761 3.10205486
Pd 3.08907193 0.00008885 1.34678349
Pd 3.11501890 4.44252885 1.28359052
C 1.54463020 0.00008885 5.75455973
O 1.52634795 0.00000000 6.89283309
