&CONTROL
calculation = 'relax'
prefix = 'scf'
pseudo_dir = '/vol0403/data/hp230205/u10028/POT_HYBRID_KKJUS_GBRV'
outdir = './data'
tprnfor = .true.
nstep = 70
disk_io = 'non'
/
&SYSTEM
ibrav = 0
ecutwfc = 50.0
ecutrho = 400
occupations = 'smearing'
smearing = 'mp'
degauss = 0.01
assume_isolated = 'esm'
esm_bc = 'bc1'
input_dft = 'BEEF-VDW'
nosym = .true.
nspin = 1
ntyp = 5
nat = 33
/
&ELECTRONS
electron_maxstep = 200
mixing_beta = 0.1
conv_thr = 1e-06
/
&IONS
ion_dynamics = 'bfgs'
upscale = 1.0
/
&CELL
/

K_POINTS {automatic}
9 6 2 0  0  0

ATOMIC_SPECIES
Ag 107.8 Ag.pbe-n-rrkjus_psl.1.0.0.UPF
Al 26.98 Al.pbe-nl-rrkjus_psl.1.0.0.UPF
C 12.01 C.pbe-n-rrkjus_psl.1.0.0.UPF
Cu 63.54 Cu.pbe-dn-rrkjus_psl.1.0.0.UPF
Li 6.941 Li.pbe-sl-rrkjus_psl.1.0.0.UPF


CELL_PARAMETERS {angstrom}
6.15237000 0.00000000 0.00000000
-0.00000000 8.70076000 0.00000000
0.00000000 0.00000000 26.52560000

ATOMIC_POSITIONS {angstrom}
Li 4.61427750 0.00000000 -1.0875495999999991 0 0 0
Li 4.61427750 4.35038000 -1.0875495999999991 0 0 0
Li 1.53809250 2.17519000 -3.26291406 0 0 0
Li 1.53809250 6.52557000 -3.26291406 0 0 0
Li 4.64165555 4.51952277 3.50270548
Li 4.64165555 8.53161723 3.50270548
Li 1.58195890 6.52557000 0.99020065
Li 1.56307112 2.17519000 1.11964558
Al 1.53809250 0.00000000 -1.0875495999999991 0 0 0
Al 1.53809250 4.35038000 -1.0875495999999991 0 0 0
Al 4.61427750 2.17519000 -3.26291406 0 0 0
Al 4.61427750 6.52557000 -3.26291406 0 0 0
Al 1.48087546 4.13895153 3.44010506
Al 1.48087546 0.21142847 3.44010506
Al 4.55558389 6.52557000 1.20081391
Al 4.63747193 2.17519000 0.91301115
Cu 0.00000000 2.17519000 -1.0875495999999991 0 0 0
Cu 0.00000000 6.52557000 -1.0875495999999991 0 0 0
Cu 3.07618500 4.35038000 -3.26291406 0 0 0
Cu 3.07618500 0.00000000 -3.26291406 0 0 0
Cu 0.16094600 6.52557000 3.14938449
Cu 5.91322738 2.17519000 2.99208768
Cu 3.08529051 8.67352662 1.13953978
Cu 3.08529051 4.37752637 1.13953978
Ag 0.00000000 0.00000000 -3.26291406 0 0 0
Ag 0.00000000 4.35038000 -3.26291406 0 0 0
Ag 3.07618500 6.52557000 -1.0875495999999991 0 0 0
Ag 3.07618500 2.17519000 -1.0875495999999991 0 0 0
Ag 0.01513483 4.40780502 1.13847875
Ag 0.01507331 8.64333498 1.13847875
Ag 3.41511906 2.17519000 3.15575063
Ag 2.83064391 6.52557000 3.34673495
C 1.41283025 2.17519000 3.86584094
