&CONTROL
calculation = 'relax'
prefix = 'scf'
pseudo_dir = '/vol0004/mdt0/data/hp150275/u10028/POT_KKJUS'
outdir = './data'
tprnfor = .true.
nstep = 50
disk_io = 'non'
/
&SYSTEM
ibrav = 0
ecutwfc = 50.0
ecutrho = 400
occupations = 'smearing'
smearing = 'mp'
degauss = 0.01
assume_isolated = 'esm'
esm_bc = 'bc1'
input_dft = 'BEEF-VDW'
nosym = .true.
nspin = 1
ntyp = 3
nat = 33
/
&ELECTRONS
electron_maxstep = 200
mixing_beta = 0.1
conv_thr = 1e-06
/
&IONS
ion_dynamics = 'bfgs'
upscale = 1.0
/
&CELL
/

K_POINTS {automatic}
9 6 2 0  0  0

ATOMIC_SPECIES
C 12.01 C.pbe-n-rrkjus_psl.1.0.0.UPF
Ni 58.69 Ni.pbe-spn-rrkjus_psl.1.0.0.UPF
Zn 65.40 Zn.pbe-dnl-rrkjus_psl.1.0.0.UPF

CELL_PARAMETERS {angstrom}
5.79956000 0.00000000 0.00000000
0.00000000 8.20182000 0.00000000
0.00000000 0.00000000 26.15140000

ATOMIC_POSITIONS {angstrom}
Zn 1.44989000 2.05045500 -3.07566615 0 0 0
Zn 1.44989000 0.00000000 -1.0251348799999995 0 0 0
Zn 1.41747046 2.04569794 1.02827305
Zn 1.74491362 8.20173798 3.12639987
Zn 1.44989000 6.15136500 -3.07566615 0 0 0
Zn 1.44989000 4.10091000 -1.0251348799999995 0 0 0
Zn 1.41747046 6.15620407 1.02827305
Zn 1.33413078 4.10091000 3.25951050
Zn 4.34967000 2.05045500 -3.07566615 0 0 0
Zn 4.34967000 0.00000000 -1.0251348799999995 0 0 0
Zn 4.38208954 2.04569794 1.02827305
Zn 4.05464638 8.20173798 3.12639987
Zn 4.34967000 6.15136500 -3.07566615 0 0 0
Zn 4.34967000 4.10091000 -1.0251348799999995 0 0 0
Zn 4.38208954 6.15620407 1.02827305
Zn 4.46542922 4.10091000 3.25951050
Ni 0.00000000 0.00000000 -3.07566615 0 0 0
Ni 0.00000000 2.05045500 -1.0251348799999995 0 0 0
Ni 0.00000000 8.20165596 1.03088819
Ni 0.00000000 1.78971914 3.18759415
Ni 0.00000000 4.10091000 -3.07566615 0 0 0
Ni 0.00000000 6.15136500 -1.0251348799999995 0 0 0
Ni 0.00000000 4.10115605 1.07796071
Ni 0.00000000 6.41193682 3.18785566
Ni 2.89978000 0.00000000 -3.07566615 0 0 0
Ni 2.89978000 2.05045500 -1.0251348799999995 0 0 0
Ni 2.89978000 0.00000000 0.95348004
Ni 2.89978000 2.20719178 2.95536971
Ni 2.89978000 4.10091000 -3.07566615 0 0 0
Ni 2.89978000 6.15136500 -1.0251348799999995 0 0 0
Ni 2.89978000 4.10132009 1.11300358
Ni 2.89978000 5.99430015 2.95563123
C 0.00000000 0.00000000 3.86648449
