&CONTROL
calculation = 'relax'
prefix = 'scf'
pseudo_dir = '/vol0403/data/hp230205/u10028/POT_HYBRID_KKJUS_GBRV'
outdir = './data'
tprnfor = .true.
nstep = 50
disk_io = 'non'
/
&SYSTEM
ibrav = 0
ecutwfc = 50.0
ecutrho = 400
occupations = 'smearing'
smearing = 'mp'
degauss = 0.01
assume_isolated = 'esm'
esm_bc = 'bc1'
input_dft = 'BEEF-VDW'
nosym = .true.
nspin = 1
ntyp = 5
nat = 33
/
&ELECTRONS
electron_maxstep = 200
mixing_beta = 0.1
conv_thr = 1e-06
/
&IONS
ion_dynamics = 'bfgs'
upscale = 1.0
/
&CELL
/

K_POINTS {automatic}
8 8 1 0 0 0

ATOMIC_SPECIES
C 12.01 C.pbe-n-rrkjus_psl.1.0.0.UPF
Cu 63.54 Cu.pbe-dn-rrkjus_psl.1.0.0.UPF
In 114.8 In.pbe-dn-rrkjus_psl.1.0.0.UPF
Li 6.941 Li.pbe-sl-rrkjus_psl.1.0.0.UPF
Mg 24.30 Mg.pbe-spnl-rrkjus_psl.1.0.0.UPF


CELL_PARAMETERS {angstrom}
6.43808000 0.00000000 0.00000000
0.00000000 9.10482000 0.00000000
0.00000000 0.00000000 26.82860000

ATOMIC_POSITIONS {angstrom}
Li 0.00000000 2.27620500 -1.1380692100000012 0 0 0
Li 0.00000000 6.82861500 -1.1380692100000012 0 0 0
Li 3.21904000 4.55241000 -3.4142076400000008 0 0 0
Li 3.21904000 0.00000000 -3.4142076400000008 0 0 0
Li 0.43579364 6.82870605 4.73766247
Li 6.27281449 2.27620500 4.26655226
Li 3.21388954 0.00491660 1.29152880
Li 3.21382516 4.54749340 1.29152880
Mg 4.82856000 0.00000000 -1.1380692100000012 0 0 0
Mg 4.82856000 4.55241000 -1.1380692100000012 0 0 0
Mg 1.60952000 2.27620500 -3.4142076400000008 0 0 0
Mg 1.60952000 6.82861500 -3.4142076400000008 0 0 0
Mg 4.94193459 4.76664641 3.59100811
Mg 4.94206335 8.89058359 3.59073982
Mg 1.51024481 6.82861500 1.28240708
Mg 1.51114614 2.27620500 1.37764861
In 1.60952000 0.00000000 -1.1380692100000012 0 0 0
In 1.60952000 4.55241000 -1.1380692100000012 0 0 0
In 4.82856000 2.27620500 -3.4142076400000008 0 0 0
In 4.82856000 6.82861500 -3.4142076400000008 0 0 0
In 1.62857672 4.51626386 3.83461180
In 1.62851234 0.03623718 3.83434351
In 4.85347537 6.82861500 1.22445730
In 4.94328659 2.27629605 1.20943329
Cu 0.00000000 0.00000000 -3.4142076400000008 0 0 0
Cu 0.00000000 4.55241000 -3.4142076400000008 0 0 0
Cu 3.21904000 6.82861500 -1.1380692100000012 0 0 0
Cu 3.21904000 2.27620500 -1.1380692100000012 0 0 0
Cu 6.43028992 4.58072599 1.07126600
Cu 6.43041868 9.07659506 1.07126600
Cu 3.64092738 2.27629605 3.47940113
Cu 3.15807138 6.82861500 3.40857363
C 1.76377640 2.27629605 3.61998300
