&CONTROL
calculation = 'relax'
prefix = 'scf'
pseudo_dir = '/vol0004/mdt0/data/hp150275/u10028/POT_KKJUS'
outdir = './data'
tprnfor = .true.
nstep = 50
disk_io = 'non'
/
&SYSTEM
ibrav = 0
ecutwfc = 50.0
ecutrho = 400
occupations = 'smearing'
smearing = 'mp'
degauss = 0.01
assume_isolated = 'esm'
esm_bc = 'bc1'
input_dft = 'BEEF-VDW'
nosym = .true.
nspin = 1
ntyp = 4
nat = 33
/
&ELECTRONS
electron_maxstep = 200
mixing_beta = 0.1
conv_thr = 1e-06
/
&IONS
ion_dynamics = 'bfgs'
upscale = 1.0
/
&CELL
/

K_POINTS {automatic}
8 6 1 0 0 0

ATOMIC_SPECIES
C 12.01 C.pbe-n-rrkjus_psl.1.0.0.UPF
Ga 69.72 Ga.pbe-dnl-rrkjus_psl.1.0.0.UPF
Li 6.941 Li.pbe-sl-rrkjus_psl.1.0.0.UPF
Ru 101.0 Ru.pbe-spn-rrkjus_psl.1.0.0.UPF

CELL_PARAMETERS {angstrom}
6.09317000 0.00000000 0.00000000
0.00000000 8.61704000 0.00000000
0.00000000 0.00000000 26.46280000

ATOMIC_POSITIONS {angstrom}
Li 0.00000000 0.00000000 -3.23137251 0 0 0
Li 3.04658500 2.15426000 -1.07703596 0 0 0
Li 3.04658500 6.46278000 -1.07703596 0 0 0
Li 0.00000000 4.30852000 -3.23137251 0 0 0
Li 0.03058771 4.26233267 1.08285778
Li 3.05359215 6.46234915 3.40787938
Li 3.42832210 2.15348447 4.43992858
Li 0.03034399 0.04601499 1.08285778
Ga 1.52329250 0.00000000 -1.07703596 0 0 0
Ga 4.56987750 4.30852000 -1.07703596 0 0 0
Ga 4.56987750 0.00000000 -1.07703596 0 0 0
Ga 1.52329250 4.30852000 -1.07703596 0 0 0
Ga 4.56987750 6.46278000 -3.23137251 0 0 0
Ga 1.52329250 2.15426000 -3.23137251 0 0 0
Ga 1.52329250 6.46278000 -3.23137251 0 0 0
Ga 4.56987750 2.15426000 -3.23137251 0 0 0
Ga 1.57807010 4.24139326 3.39491261
Ga 4.75376937 8.52811215 3.32293380
Ga 4.75376937 4.39624147 3.32266917
Ga 1.57819196 0.06617887 3.39491261
Ga 4.45581336 2.15460468 0.97224327
Ga 1.55997338 6.46295234 0.99685368
Ga 1.56222786 2.15417383 1.12149346
Ga 4.61959777 6.46269383 1.11725942
Ru 0.00000000 6.46278000 -1.07703596 0 0 0
Ru 3.04658500 0.00000000 -3.23137251 0 0 0
Ru 0.00000000 2.15426000 -1.07703596 0 0 0
Ru 3.04658500 4.30852000 -3.23137251 0 0 0
Ru 5.91293403 2.15348447 3.15912906
Ru 3.05420146 4.32954558 1.10482190
Ru 0.15738658 6.46226298 3.08053455
Ru 3.05481078 8.59627293 1.10482190
C 1.37803133 2.15391532 4.08956111
