&CONTROL
calculation = 'relax'
prefix = 'scf'
pseudo_dir = '/vol0403/data/hp230205/u10028/POT_HYBRID_KKJUS_GBRV'
outdir = './data'
tprnfor = .true.
nstep = 50
disk_io = 'non'
/
&SYSTEM
ibrav = 0
ecutwfc = 50.0
ecutrho = 400
occupations = 'smearing'
smearing = 'mp'
degauss = 0.01
assume_isolated = 'esm'
esm_bc = 'bc1'
input_dft = 'BEEF-VDW'
nosym = .true.
nspin = 1
ntyp = 6
nat = 18
/
&ELECTRONS
electron_maxstep = 200
mixing_beta = 0.1
conv_thr = 1e-06
/
&IONS
ion_dynamics = 'bfgs'
upscale = 1.0
/
&CELL
/

K_POINTS {automatic}
9 9 2 0  0  0

ATOMIC_SPECIES
C 12.01 C.pbe-n-rrkjus_psl.1.0.0.UPF
In 114.8 In.pbe-dn-rrkjus_psl.1.0.0.UPF
Li 6.941 Li.pbe-sl-rrkjus_psl.1.0.0.UPF
O 15.99 O.pbe-n-rrkjus_psl.1.0.0.UPF
Pd 106.4 Pd.pbe-n-rrkjus_psl.1.0.0.UPF
Sc 44.95 Sc.pbe-spn-rrkjus_psl.1.0.0.UPF


CELL_PARAMETERS {angstrom}
6.59012000 0.00000000 0.00000000
0.00000000 6.59012000 0.00000000
0.00000000 0.00000000 24.94260000

ATOMIC_POSITIONS {angstrom}
Li 4.94259000 1.64753000 -0.8238540800000003 0 0 0
Li 4.94265590 4.94133788 3.03351901
Li 1.64753000 1.64832081 3.01655804
Li 1.64753000 4.94259000 -0.8238540800000003 0 0 0
Sc 0.00000000 3.29506000 -2.471312809999997 0 0 0
Sc 6.58385939 6.58405709 0.84281045
Sc 3.30112291 3.30118881 0.84231160
Sc 3.29506000 0.00000000 -2.471312809999997 0 0 0
In 0.00000000 0.00000000 -2.471312809999997 0 0 0
In 0.00204294 3.29295116 0.88346689
In 3.29288526 0.00217474 0.88371632
In 3.29506000 3.29506000 -2.471312809999997 0 0 0
Pd 1.64753000 1.64753000 -0.8238540800000003 0 0 0
Pd 1.64766180 4.94245820 2.32714458
Pd 4.94252410 1.64785951 2.32714458
Pd 4.94259000 4.94259000 -0.8238540800000003 0 0 0
C 1.64766180 1.64733230 5.13468364
O 1.64766180 1.64720049 6.27456046
