&CONTROL
calculation = 'relax'
prefix = 'scf'
pseudo_dir = '/vol0004/mdt0/data/hp150275/u10028/POT_HYBRID_KKJUS_GBRV'
outdir = './data'
tprnfor = .true.
nstep = 50
disk_io = 'non'
/
&SYSTEM
ibrav = 0
ecutwfc = 50.0
ecutrho = 400
occupations = 'smearing'
smearing = 'mp'
degauss = 0.01
assume_isolated = 'esm'
esm_bc = 'bc1'
input_dft = 'BEEF-VDW'
nosym = .true.
nspin = 2
ntyp = 5
nat = 34
starting_magnetization(1) = 0.0
starting_magnetization(2) = 0.0
starting_magnetization(3) = 0.0
starting_magnetization(4) = 0.001
starting_magnetization(5) = 0.0
/
&ELECTRONS
electron_maxstep = 300
mixing_beta = 0.1
conv_thr = 1e-06
/
&IONS
ion_dynamics = 'bfgs'
upscale = 1.0
/
&CELL
/

K_POINTS {automatic}
9 6 2 0  0  0

ATOMIC_SPECIES
C 12.01 C.pbe-n-rrkjus_psl.1.0.0.UPF
Ga 69.72 Ga.pbe-dnl-rrkjus_psl.1.0.0.UPF
Nb 92.90 Nb.pbe-spn-rrkjus_psl.1.0.0.UPF
Ni 58.69 ni_pbe_v1.4.uspp.F.UPF
O 15.99 O.pbe-n-rrkjus_psl.1.0.0.UPF

CELL_PARAMETERS {angstrom}
6.00328000 0.00000000 0.00000000
0.00000000 8.48992000 0.00000000
0.00000000 0.00000000 26.36740000

ATOMIC_POSITIONS {angstrom}
Nb 0.00000000 0.00000000 -3.183599879999999 0 0 0
Nb 3.00164000 2.12248000 -1.0612878499999994 0 0 0
Nb 3.00164000 6.36744000 -1.0612878499999994 0 0 0
Nb 0.00000000 4.24496000 -3.183599879999999 0 0 0
Nb 5.96377842 4.24512980 1.07737196
Nb 2.90396663 6.44444357 3.16672474
Nb 2.90396663 2.04530663 3.16777944
Nb 0.07149906 8.48949550 1.11006754
Ga 0.00000000 6.36744000 -1.0612878499999994 0 0 0
Ga 3.00164000 0.00000000 -3.183599879999999 0 0 0
Ga 0.00000000 2.12248000 -1.0612878499999994 0 0 0
Ga 3.00164000 4.24496000 -3.183599879999999 0 0 0
Ga 5.96665999 2.18734299 3.22736976
Ga 3.00746318 4.24428081 0.99325996
Ga 5.96672002 6.30266191 3.22816078
Ga 2.97570583 0.00042450 1.08000870
Ni 1.50082000 0.00000000 -1.0612878499999994 0 0 0
Ni 4.50246000 4.24496000 -1.0612878499999994 0 0 0
Ni 4.50246000 0.00000000 -1.0612878499999994 0 0 0
Ni 1.50082000 4.24496000 -1.0612878499999994 0 0 0
Ni 4.50246000 6.36744000 -3.183599879999999 0 0 0
Ni 1.50082000 2.12248000 -3.183599879999999 0 0 0
Ni 1.50082000 6.36744000 -3.183599879999999 0 0 0
Ni 4.50246000 2.12248000 -3.183599879999999 0 0 0
Ni 1.60233546 4.24436571 3.03066896
Ni 4.54106109 0.00059429 3.04147959
Ni 4.34013131 4.24419591 3.07918497
Ni 1.26639192 0.00076409 3.64766612
Ni 4.46085727 2.10252869 1.10795815
Ni 1.53551896 6.31785887 1.07869033
Ni 1.53515876 2.17155174 1.07869033
Ni 4.46049707 6.38713661 1.10822182
C 1.98696561 0.00059429 5.25054036
O 2.36006947 0.00016980 6.35111564
