&CONTROL
calculation = 'relax'
prefix = 'scf'
pseudo_dir = '/vol0004/mdt0/data/hp150275/u10028/POT_KKJUS'
outdir = './data'
tprnfor = .true.
nstep = 50
disk_io = 'non'
/
&SYSTEM
ibrav = 0
ecutwfc = 50.0
ecutrho = 400
occupations = 'smearing'
smearing = 'mp'
degauss = 0.01
assume_isolated = 'esm'
esm_bc = 'bc1'
input_dft = 'BEEF-VDW'
nosym = .true.
nspin = 1
ntyp = 5
nat = 34
/
&ELECTRONS
electron_maxstep = 200
mixing_beta = 0.1
conv_thr = 1e-06
/
&IONS
ion_dynamics = 'bfgs'
upscale = 1.0
/
&CELL
/

K_POINTS {automatic}
9 6 2 0  0  0

ATOMIC_SPECIES
Al 26.98 Al.pbe-nl-rrkjus_psl.1.0.0.UPF
C 12.01 C.pbe-n-rrkjus_psl.1.0.0.UPF
Ni 58.69 Ni.pbe-spn-rrkjus_psl.1.0.0.UPF
O 15.99 O.pbe-n-rrkjus_psl.1.0.0.UPF
Ti 47.86 Ti.pbe-spn-rrkjus_psl.1.0.0.UPF

CELL_PARAMETERS {angstrom}
5.94410000 0.00000000 0.00000000
0.00000000 8.40623000 0.00000000
0.00000000 0.00000000 26.30470000

ATOMIC_POSITIONS {angstrom}
Ti 0.00000000 0.00000000 -3.1523552499999994 0 0 0
Ti 2.97205000 2.10155750 -1.0508727700000016 0 0 0
Ti 2.97205000 6.30467250 -1.0508727700000016 0 0 0
Ti 0.00000000 4.20311500 -3.1523552499999994 0 0 0
Ti 0.00000000 4.21421122 1.03693127
Ti 2.97205000 6.30467250 3.17418815
Ti 2.97205000 2.10155750 3.15630095
Ti 0.00000000 8.39513378 1.03693127
Al 0.00000000 6.30467250 -1.0508727700000016 0 0 0
Al 2.97205000 0.00000000 -3.1523552499999994 0 0 0
Al 0.00000000 2.10155750 -1.0508727700000016 0 0 0
Al 2.97205000 4.20311500 -3.1523552499999994 0 0 0
Al 0.00000000 2.10155750 3.10263936
Al 2.97205000 4.18983316 1.04114003
Al 0.00000000 6.30467250 3.10947859
Al 2.97205000 0.01328184 1.04087698
Ni 1.48602500 0.00000000 -1.0508727700000016 0 0 0
Ni 4.45807500 4.20311500 -1.0508727700000016 0 0 0
Ni 4.45807500 0.00000000 -1.0508727700000016 0 0 0
Ni 1.48602500 4.20311500 -1.0508727700000016 0 0 0
Ni 4.45807500 6.30467250 -3.1523552499999994 0 0 0
Ni 1.48602500 2.10155750 -3.1523552499999994 0 0 0
Ni 1.48602500 6.30467250 -3.1523552499999994 0 0 0
Ni 4.45807500 2.10155750 -3.1523552499999994 0 0 0
Ni 1.45107369 4.21160529 2.99426400
Ni 4.49308575 8.39773971 2.99426400
Ni 4.49302631 4.21152123 2.99426400
Ni 1.45101425 8.39773971 2.99426400
Ni 4.43423916 2.10155750 1.01904408
Ni 1.56930184 6.30467250 1.06744473
Ni 1.50992028 2.10155750 1.01930713
Ni 4.37479816 6.30467250 1.06744473
C 2.97205000 2.10155750 5.30434276
O 2.97205000 2.10155750 6.45412119
