&CONTROL
calculation = 'relax'
prefix = 'scf'
pseudo_dir = '/vol0004/mdt0/data/hp150275/u10028/POT_KKJUS'
outdir = './data'
tprnfor = .true.
nstep = 50
disk_io = 'non'
/
&SYSTEM
ibrav = 0
ecutwfc = 50.0
ecutrho = 400
occupations = 'smearing'
smearing = 'mp'
degauss = 0.01
assume_isolated = 'esm'
esm_bc = 'bc1'
input_dft = 'BEEF-VDW'
nosym = .true.
nspin = 1
ntyp = 5
nat = 34
/
&ELECTRONS
electron_maxstep = 200
mixing_beta = 0.1
conv_thr = 1e-06
/
&IONS
ion_dynamics = 'bfgs'
upscale = 1.0
/
&CELL
/

K_POINTS {automatic}
8 6 1 0 0 0

ATOMIC_SPECIES
C 12.01 C.pbe-n-rrkjus_psl.1.0.0.UPF
Cu 63.54 Cu.pbe-dn-rrkjus_psl.1.0.0.UPF
In 114.8 In.pbe-dn-rrkjus_psl.1.0.0.UPF
O 15.99 O.pbe-n-rrkjus_psl.1.0.0.UPF
Ti 47.86 Ti.pbe-spn-rrkjus_psl.1.0.0.UPF

CELL_PARAMETERS {angstrom}
6.30953000 0.00000000 0.00000000
0.00000000 8.92302000 0.00000000
0.00000000 0.00000000 26.69230000

ATOMIC_POSITIONS {angstrom}
Ti 0.00000000 0.00000000 -3.346146730000001 0 0 0
Ti 3.15476500 2.23075500 -1.1154712199999999 0 0 0
Ti 3.15476500 6.69226500 -1.1154712199999999 0 0 0
Ti 0.00000000 4.46151000 -3.346146730000001 0 0 0
Ti 0.00000000 4.45740541 1.17339351
Ti 3.15476500 6.69226500 3.21829061
Ti 3.15476500 2.23075500 3.23697522
Ti 0.00000000 0.00410459 1.17339351
In 0.00000000 6.69226500 -1.1154712199999999 0 0 0
In 3.15476500 0.00000000 -3.346146730000001 0 0 0
In 0.00000000 2.23075500 -1.1154712199999999 0 0 0
In 3.15476500 4.46151000 -3.346146730000001 0 0 0
In 0.00000000 2.23075500 3.56315513
In 3.15476500 4.46195615 1.06422200
In 0.00000000 6.69226500 3.61306973
In 3.15476500 8.92257385 1.06422200
Cu 1.57738250 0.00000000 -1.1154712199999999 0 0 0
Cu 4.73214750 4.46151000 -1.1154712199999999 0 0 0
Cu 4.73214750 0.00000000 -1.1154712199999999 0 0 0
Cu 1.57738250 4.46151000 -1.1154712199999999 0 0 0
Cu 4.73214750 6.69226500 -3.346146730000001 0 0 0
Cu 1.57738250 2.23075500 -3.346146730000001 0 0 0
Cu 1.57738250 6.69226500 -3.346146730000001 0 0 0
Cu 4.73214750 2.23075500 -3.346146730000001 0 0 0
Cu 1.70893620 4.46561459 3.36910211
Cu 4.60059380 8.91891541 3.36910211
Cu 4.60059380 4.46561459 3.36910211
Cu 1.70893620 8.91891541 3.36910211
Cu 4.80325590 2.23075500 1.13655813
Cu 1.50242528 6.69226500 1.16725428
Cu 1.50627410 2.23075500 1.13655813
Cu 4.80710472 6.69226500 1.16725428
C 3.15476500 2.23075500 5.32591462
O 3.15476500 2.23075500 6.48142429
