&CONTROL
calculation = 'relax'
prefix = 'scf'
pseudo_dir = '/vol0403/data/hp230205/u10028/POT_HYBRID_KKJUS_GBRV'
outdir = './data'
tprnfor = .true.
nstep = 50
disk_io = 'non'
/
&SYSTEM
ibrav = 0
ecutwfc = 50.0
ecutrho = 400
occupations = 'smearing'
smearing = 'mp'
degauss = 0.01
assume_isolated = 'esm'
esm_bc = 'bc1'
input_dft = 'BEEF-VDW'
nosym = .true.
nspin = 1
ntyp = 5
nat = 33
/
&ELECTRONS
electron_maxstep = 200
mixing_beta = 0.1
conv_thr = 1e-06
/
&IONS
ion_dynamics = 'bfgs'
upscale = 1.0
/
&CELL
/

K_POINTS {automatic}
7 7 2 0  0  0

ATOMIC_SPECIES
C 12.01 C.pbe-n-rrkjus_psl.1.0.0.UPF
Cu 63.54 Cu.pbe-dn-rrkjus_psl.1.0.0.UPF
In 114.8 In.pbe-dn-rrkjus_psl.1.0.0.UPF
Sn 118.7 Sn.pbe-dn-rrkjus_psl.1.0.0.UPF
Y 88.90 Y.pbe-spn-rrkjus_psl.1.0.0.UPF


CELL_PARAMETERS {angstrom}
8.84740000 0.00000000 0.00000000
0.00000000 9.14612000 0.00000000
0.00000000 0.00000000 26.62140000

ATOMIC_POSITIONS {angstrom}
Y 8.79714677 2.25003698 1.16548489
Y 0.00000000 2.28653000 -3.3106373 0 0 0
Y 8.79714677 6.89608302 1.16548489
Y 0.00000000 6.85959000 -3.3106373 0 0 0
Y 4.47395323 2.25003698 1.16548489
Y 4.42370000 2.28653000 -3.3106373 0 0 0
Y 4.47395323 6.89608302 1.16548489
Y 4.42370000 6.85959000 -3.3106373 0 0 0
In 2.21185000 0.00000000 0.88143455
In 2.21185000 0.00000000 -3.3106373 0 0 0
In 2.21185000 4.57306000 1.39043572
In 2.21185000 4.57306000 -3.3106373 0 0 0
In 6.63555000 0.00000000 2.12545258
In 6.63555000 0.00000000 -3.3106373 0 0 0
In 6.63555000 4.57306000 0.96662303
In 6.63555000 4.57306000 -3.3106373 0 0 0
Cu 0.36522067 0.00000000 3.03856660
Cu 0.00000000 0.00000000 -1.1034570300000013 0 0 0
Cu 8.78104450 4.57306000 3.04149495
Cu 0.00000000 4.57306000 -1.1034570300000013 0 0 0
Cu 4.05847933 0.00000000 3.03856660
Cu 4.42370000 0.00000000 -1.1034570300000013 0 0 0
Cu 4.49005550 4.57306000 3.04149495
Cu 4.42370000 4.57306000 -1.1034570300000013 0 0 0
Sn 2.21185000 2.30427347 3.91148230
Sn 2.21185000 2.28653000 -1.1034570300000013 0 0 0
Sn 2.21185000 6.84184653 3.91148230
Sn 2.21185000 6.85959000 -1.1034570300000013 0 0 0
Sn 6.63555000 2.88715570 3.60613484
Sn 6.63555000 2.28653000 -1.1034570300000013 0 0 0
Sn 6.63555000 6.25896430 3.60613484
Sn 6.63555000 6.85959000 -1.1034570300000013 0 0 0
C 2.21185000 0.00000000 3.57232567
