&CONTROL
calculation = 'relax'
prefix = 'scf'
pseudo_dir = '/vol0403/data/hp230205/u10028/POT_HYBRID_KKJUS_GBRV'
outdir = './data'
tprnfor = .true.
nstep = 50
disk_io = 'non'
/
&SYSTEM
ibrav = 0
ecutwfc = 50.0
ecutrho = 400
occupations = 'smearing'
smearing = 'mp'
degauss = 0.01
assume_isolated = 'esm'
esm_bc = 'bc1'
input_dft = 'BEEF-VDW'
nosym = .true.
nspin = 2
ntyp = 6
nat = 34
starting_magnetization(1) = 0.0
starting_magnetization(2) = 0.0
starting_magnetization(3) = 0.0
starting_magnetization(4) = 0.001
starting_magnetization(5) = 0.0
starting_magnetization(6) = 0.0
/
&ELECTRONS
electron_maxstep = 200
mixing_beta = 0.1
conv_thr = 1e-06
/
&IONS
ion_dynamics = 'bfgs'
upscale = 1.0
/
&CELL
/

K_POINTS {automatic}
9 6 2 0  0  0

ATOMIC_SPECIES
C 12.01 C.pbe-n-rrkjus_psl.1.0.0.UPF
Ga 69.72 Ga.pbe-dnl-rrkjus_psl.1.0.0.UPF
Li 6.941 Li.pbe-sl-rrkjus_psl.1.0.0.UPF
Ni 58.69 ni_pbe_v1.4.uspp.F.UPF
O 15.99 O.pbe-n-rrkjus_psl.1.0.0.UPF
Pd 106.4 Pd.pbe-n-rrkjus_psl.1.0.0.UPF


CELL_PARAMETERS {angstrom}
5.93220000 0.00000000 0.00000000
0.00000000 8.38940000 0.00000000
0.00000000 0.00000000 26.29200000

ATOMIC_POSITIONS {angstrom}
Li 0.00000000 2.09735000 -1.0487878800000026 0 0 0
Li 0.00000000 6.29205000 -1.0487878800000026 0 0 0
Li 2.96610000 4.19470000 -3.1461007200000033 0 0 0
Li 2.96610000 0.00000000 -3.1461007200000033 0 0 0
Li 0.04152540 6.29205000 3.54021780
Li 0.04360167 2.09735000 3.61567584
Li 2.99249829 0.00352355 0.97595904
Li 2.99249829 4.19117645 0.97595904
Ga 0.00000000 0.00000000 -3.1461007200000033 0 0 0
Ga 0.00000000 4.19470000 -3.1461007200000033 0 0 0
Ga 2.96610000 6.29205000 -1.0487878800000026 0 0 0
Ga 2.96610000 2.09735000 -1.0487878800000026 0 0 0
Ga 5.92264916 4.19721682 1.04300364
Ga 5.92264916 8.38688318 1.04300364
Ga 2.91632884 2.09735000 3.21288240
Ga 2.90487970 6.29205000 3.24416988
Ni 1.48305000 0.00000000 -1.0487878800000026 0 0 0
Ni 1.48305000 4.19470000 -1.0487878800000026 0 0 0
Ni 4.44915000 2.09735000 -3.1461007200000033 0 0 0
Ni 4.44915000 6.29205000 -3.1461007200000033 0 0 0
Ni 1.59896519 4.20166320 2.93707932
Ni 1.59890587 8.38243680 2.93707932
Ni 4.46991270 6.29205000 1.08875172
Ni 4.47946354 2.09735000 1.08980340
Pd 4.44915000 0.00000000 -1.0487878800000026 0 0 0
Pd 4.44915000 4.19470000 -1.0487878800000026 0 0 0
Pd 1.48305000 2.09735000 -3.1461007200000033 0 0 0
Pd 1.48305000 6.29205000 -3.1461007200000033 0 0 0
Pd 4.37535343 4.20560622 3.05460456
Pd 4.37541275 8.37849378 3.05460456
Pd 1.46454154 6.29205000 1.05983052
Pd 1.45386358 2.09735000 1.06430016
C 0.05089828 2.09735000 5.73638856
O 0.05902539 2.09735000 6.87483216
