&CONTROL
calculation = 'relax'
prefix = 'scf'
pseudo_dir = '/vol0403/data/hp230205/u10028/POT_HYBRID_KKJUS_GBRV'
outdir = './data'
tprnfor = .true.
nstep = 70
disk_io = 'non'
/
&SYSTEM
ibrav = 0
ecutwfc = 50.0
ecutrho = 400
occupations = 'smearing'
smearing = 'mp'
degauss = 0.01
assume_isolated = 'esm'
esm_bc = 'bc1'
input_dft = 'BEEF-VDW'
nosym = .true.
nspin = 1
ntyp = 6
nat = 34
/
&ELECTRONS
electron_maxstep = 200
mixing_beta = 0.1
conv_thr = 1e-06
/
&IONS
ion_dynamics = 'bfgs'
upscale = 1.0
/
&CELL
/

K_POINTS {automatic}
6 6 1 0 0 0

ATOMIC_SPECIES
Al 26.98 Al.pbe-nl-rrkjus_psl.1.0.0.UPF
C 12.01 C.pbe-n-rrkjus_psl.1.0.0.UPF
Cu 63.54 Cu.pbe-dn-rrkjus_psl.1.0.0.UPF
In 114.8 In.pbe-dn-rrkjus_psl.1.0.0.UPF
Li 6.941 Li.pbe-sl-rrkjus_psl.1.0.0.UPF
O 15.99 O.pbe-n-rrkjus_psl.1.0.0.UPF


CELL_PARAMETERS {angstrom}
6.37467000 0.00000000 0.00000000
-0.00000000 9.01514000 0.00000000
0.00000000 0.00000000 26.76140000

ATOMIC_POSITIONS {angstrom}
Li 4.78100250 0.00000000 -1.1269225499999997 0 0 0
Li 4.78100250 4.50757000 -1.1269225499999997 0 0 0
Li 1.59366750 2.25378500 -3.38076766 0 0 0
Li 1.59366750 6.76135500 -3.38076766 0 0 0
Li 4.43970267 4.50784045 4.22723074
Li 4.43970267 9.01486955 4.22723074
Li 1.44437273 6.76135500 1.18927662
Li 1.43512946 2.25378500 1.19650219
Al 0.00000000 0.00000000 -3.38076766 0 0 0
Al 0.00000000 4.50757000 -3.38076766 0 0 0
Al 3.18733500 6.76135500 -1.1269225499999997 0 0 0
Al 3.18733500 2.25378500 -1.1269225499999997 0 0 0
Al 6.19375687 4.51586393 1.38517006
Al 6.19375687 9.00684607 1.38517006
Al 2.96460403 2.25378500 3.46105186
Al 2.97493100 6.76135500 3.45061492
In 0.00000000 2.25378500 -1.1269225499999997 0 0 0
In 0.00000000 6.76135500 -1.1269225499999997 0 0 0
In 3.18733500 4.50757000 -3.38076766 0 0 0
In 3.18733500 0.00000000 -3.38076766 0 0 0
In 6.21319961 6.76135500 3.66524134
In 6.21562198 2.25378500 3.67059362
In 3.20359041 0.00216363 1.22460166
In 3.20359041 4.50540637 1.22486928
Cu 1.59366750 0.00000000 -1.1269225499999997 0 0 0
Cu 1.59366750 4.50757000 -1.1269225499999997 0 0 0
Cu 4.78100250 2.25378500 -3.38076766 0 0 0
Cu 4.78100250 6.76135500 -3.38076766 0 0 0
Cu 1.54917230 4.50928288 3.29084936
Cu 1.54917230 9.01342712 3.29058174
Cu 4.78055627 6.76135500 1.06242758
Cu 4.79579173 2.25378500 1.06456849
C 0.61560188 2.25360470 7.42949987
O 6.14524563 2.25387515 8.18979124
