&CONTROL
calculation = 'relax'
prefix = 'scf'
pseudo_dir = '/vol0403/data/hp230205/u10028/POT_HYBRID_KKJUS_GBRV'
outdir = './data'
tprnfor = .true.
nstep = 50
disk_io = 'non'
/
&SYSTEM
ibrav = 0
ecutwfc = 50.0
ecutrho = 400
occupations = 'smearing'
smearing = 'mp'
degauss = 0.01
assume_isolated = 'esm'
esm_bc = 'bc1'
input_dft = 'BEEF-VDW'
nosym = .true.
nspin = 1
ntyp = 6
nat = 34
/
&ELECTRONS
electron_maxstep = 200
mixing_beta = 0.1
conv_thr = 1e-06
/
&IONS
ion_dynamics = 'bfgs'
upscale = 1.0
/
&CELL
/

K_POINTS {automatic}
7 7 2 0  0  0

ATOMIC_SPECIES
C 12.01 C.pbe-n-rrkjus_psl.1.0.0.UPF
Ga 69.72 Ga.pbe-dnl-rrkjus_psl.1.0.0.UPF
Ge 72.64 Ge.pbe-dn-rrkjus_psl.1.0.0.UPF
O 15.99 O.pbe-n-rrkjus_psl.1.0.0.UPF
Pd 106.4 Pd.pbe-n-rrkjus_psl.1.0.0.UPF
Sc 44.95 Sc.pbe-spn-rrkjus_psl.1.0.0.UPF


CELL_PARAMETERS {angstrom}
8.58414000 0.00000000 0.00000000
0.00000000 7.83718000 0.00000000
0.00000000 0.00000000 26.06500000

ATOMIC_POSITIONS {angstrom}
Sc 2.14603500 0.00000000 -1.0108007000000008 0 0 0
Sc 2.20337706 7.75927843 3.10642670
Sc 2.14603500 3.91859000 -1.0108007000000008 0 0 0
Sc 2.20329121 3.99649157 3.10642670
Sc 6.43810500 0.00000000 -1.0108007000000008 0 0 0
Sc 6.38076294 7.75927843 3.10642670
Sc 6.43810500 3.91859000 -1.0108007000000008 0 0 0
Sc 6.38084879 3.99649157 3.10642670
Ga 0.00000000 0.00000000 -3.0324021000000023 0 0 0
Ga 0.00000000 0.03824544 1.03191335
Ga 0.00000000 3.91859000 -3.0324021000000023 0 0 0
Ga 0.00000000 3.88034456 1.03191335
Ga 4.29207000 0.00000000 -3.0324021000000023 0 0 0
Ga 4.29207000 0.01849574 0.98812415
Ga 4.29207000 3.91859000 -3.0324021000000023 0 0 0
Ga 4.29207000 3.90009426 0.98812415
Ge 2.14603500 1.95929500 -3.0324021000000023 0 0 0
Ge 2.05427054 1.95921663 1.09212350
Ge 2.14603500 5.87788500 -3.0324021000000023 0 0 0
Ge 2.16328912 5.87788500 1.00584835
Ge 6.43810500 1.95929500 -3.0324021000000023 0 0 0
Ge 6.52995530 1.95929500 1.09212350
Ge 6.43810500 5.87788500 -3.0324021000000023 0 0 0
Ge 6.42085088 5.87788500 1.00584835
Pd 0.00000000 1.95929500 -1.0108007000000008 0 0 0
Pd 0.00000000 1.95929500 3.13223105
Pd 0.00000000 5.87788500 -1.0108007000000008 0 0 0
Pd 0.00000000 5.87788500 2.81580195
Pd 4.29207000 1.95929500 -1.0108007000000008 0 0 0
Pd 4.29207000 1.95929500 2.81762650
Pd 4.29207000 5.87788500 -1.0108007000000008 0 0 0
Pd 4.29207000 5.87788500 2.90520490
C 0.00000000 1.95929500 5.04409880
O 0.00000000 1.95929500 6.20529455
