&CONTROL
calculation = 'relax'
prefix = 'scf'
pseudo_dir = '/vol0403/data/hp230205/u10028/POT_HYBRID_KKJUS_GBRV'
outdir = './data'
tprnfor = .true.
nstep = 50
disk_io = 'non'
/
&SYSTEM
ibrav = 0
ecutwfc = 50.0
ecutrho = 400
occupations = 'smearing'
smearing = 'mp'
degauss = 0.01
assume_isolated = 'esm'
esm_bc = 'bc1'
input_dft = 'BEEF-VDW'
nosym = .true.
nspin = 2
ntyp = 5
nat = 33
starting_magnetization(1) = 0.0
starting_magnetization(2) = 0.0
starting_magnetization(3) = 0.1
starting_magnetization(4) = 0.0
starting_magnetization(5) = 0.0
/
&ELECTRONS
electron_maxstep = 400
mixing_beta = 0.05
conv_thr = 1e-06
/
&IONS
ion_dynamics = 'bfgs'
upscale = 1.0
/
&CELL
/

K_POINTS {automatic}
6 6 1 0 0 0

ATOMIC_SPECIES
Al 26.98 Al.pbe-nl-rrkjus_psl.1.0.0.UPF
C 12.01 C.pbe-n-rrkjus_psl.1.0.0.UPF
Fe 55.84 fe_pbe_v1.5.uspp.F.UPF
Li 6.941 Li.pbe-sl-rrkjus_psl.1.0.0.UPF
Pd 106.4 Pd.pbe-n-rrkjus_psl.1.0.0.UPF


CELL_PARAMETERS {angstrom}
5.67696000 0.00000000 0.00000000
0.00000000 8.60712000 0.00000000
0.00000000 0.00000000 26.63180000

ATOMIC_POSITIONS {angstrom}
Li 0.00000000 2.15178000 1.04316761
Li 0.00000000 2.15178000 -3.3159254199999992 0 0 0
Li 0.00000000 6.45534000 0.93078141
Li 0.00000000 6.45534000 -3.3159254199999992 0 0 0
Li 2.83848000 2.15178000 0.90015484
Li 2.83848000 2.15178000 -3.3159254199999992 0 0 0
Li 2.83848000 6.45534000 1.08844167
Li 2.83848000 6.45534000 -3.3159254199999992 0 0 0
Al 0.00000000 0.11180649 3.32711077
Al 0.00000000 0.00000000 -1.1052196999999992 0 0 0
Al 0.00000000 4.19175351 3.32711077
Al 0.00000000 4.30356000 -1.1052196999999992 0 0 0
Al 2.83842323 8.37765418 3.33190450
Al 2.83848000 0.00000000 -1.1052196999999992 0 0 0
Al 2.83842323 4.53302582 3.33190450
Al 2.83848000 4.30356000 -1.1052196999999992 0 0 0
Fe 1.61571959 2.15178000 3.14148713
Fe 1.41924000 2.15178000 -1.1052196999999992 0 0 0
Fe 1.13806017 6.45534000 3.13136704
Fe 1.41924000 6.45534000 -1.1052196999999992 0 0 0
Fe 4.06124041 2.15178000 3.14175345
Fe 4.25772000 2.15178000 -1.1052196999999992 0 0 0
Fe 4.53878629 6.45534000 3.13136704
Fe 4.25772000 6.45534000 -1.1052196999999992 0 0 0
Pd 1.42162432 0.01222211 1.09270275
Pd 1.41924000 0.00000000 -3.3159254199999992 0 0 0
Pd 1.42162432 4.29133789 1.09270275
Pd 1.41924000 4.30356000 -3.3159254199999992 0 0 0
Pd 4.25533568 0.01222211 1.09270275
Pd 4.25772000 0.00000000 -3.3159254199999992 0 0 0
Pd 4.25533568 4.29133789 1.09270275
Pd 4.25772000 4.30356000 -3.3159254199999992 0 0 0
C 0.00000000 2.15178000 3.85655096
