&CONTROL
calculation = 'relax'
prefix = 'scf'
pseudo_dir = '/vol0403/data/hp230205/u10028/POT_HYBRID_KKJUS_GBRV'
outdir = './data'
tprnfor = .true.
nstep = 70
disk_io = 'non'
/
&SYSTEM
ibrav = 0
ecutwfc = 50.0
ecutrho = 400
occupations = 'smearing'
smearing = 'mp'
degauss = 0.01
assume_isolated = 'esm'
esm_bc = 'bc1'
input_dft = 'BEEF-VDW'
nosym = .true.
nspin = 1
ntyp = 5
nat = 33
/
&ELECTRONS
electron_maxstep = 200
mixing_beta = 0.1
conv_thr = 1e-06
/
&IONS
ion_dynamics = 'bfgs'
upscale = 1.0
/
&CELL
/

K_POINTS {automatic}
6 6 1 0 0 0

ATOMIC_SPECIES
C 12.01 C.pbe-n-rrkjus_psl.1.0.0.UPF
Ga 69.72 Ga.pbe-dnl-rrkjus_psl.1.0.0.UPF
Mg 24.30 Mg.pbe-spnl-rrkjus_psl.1.0.0.UPF
Pd 106.4 Pd.pbe-n-rrkjus_psl.1.0.0.UPF
Sc 44.95 Sc.pbe-spn-rrkjus_psl.1.0.0.UPF


CELL_PARAMETERS {angstrom}
6.56469000 0.00000000 0.00000000
-0.00000000 9.28388000 0.00000000
0.00000000 0.00000000 26.96290000

ATOMIC_POSITIONS {angstrom}
Mg 1.64117250 0.00000000 -1.1604832199999997 0 0 0
Mg 1.64117250 4.64194000 -1.1604832199999997 0 0 0
Mg 4.92351750 2.32097000 -3.481449650000002 0 0 0
Mg 4.92351750 6.96291000 -3.481449650000002 0 0 0
Mg 1.54132357 4.64221852 3.65509072
Mg 1.24538734 9.28369432 3.83520290
Mg 4.86587952 7.00543017 1.14646251
Mg 4.86594517 2.27844983 1.14619288
Sc 4.92351750 0.00000000 -1.1604832199999997 0 0 0
Sc 4.92351750 4.64194000 -1.1604832199999997 0 0 0
Sc 1.64117250 2.32097000 -3.481449650000002 0 0 0
Sc 1.64117250 6.96291000 -3.481449650000002 0 0 0
Sc 4.65338051 4.64184716 3.50679477
Sc 5.12170549 0.00009284 3.31185301
Sc 1.63152241 6.88650367 1.26914370
Sc 1.63171935 2.39746917 1.26887407
Ga 0.00000000 0.00000000 -3.481449650000002 0 0 0
Ga 0.00000000 4.64194000 -3.481449650000002 0 0 0
Ga 3.28234500 6.96291000 -1.1604832199999997 0 0 0
Ga 3.28234500 2.32097000 -1.1604832199999997 0 0 0
Ga 6.43254279 4.64184716 1.29637623
Ga 0.12893051 0.00009284 1.06422566
Ga 3.29849414 2.07058376 3.95383966
Ga 3.29849414 7.21320340 3.95357003
Pd 0.00000000 2.32097000 -1.1604832199999997 0 0 0
Pd 0.00000000 6.96291000 -1.1604832199999997 0 0 0
Pd 3.28234500 4.64194000 -3.481449650000002 0 0 0
Pd 3.28234500 0.00000000 -3.481449650000002 0 0 0
Pd 6.44350582 6.82792238 3.36038623
Pd 6.44403100 2.45586478 3.36011660
Pd 3.06380647 -0.00000000 1.41851817
Pd 3.27157891 4.64194000 1.11572480
C 3.25858082 9.28378716 4.12100964
