&CONTROL
calculation = 'relax'
prefix = 'scf'
pseudo_dir = '/vol0004/mdt0/data/hp150275/u10028/POT_KKJUS'
outdir = './data'
tprnfor = .true.
nstep = 50
disk_io = 'non'
/
&SYSTEM
ibrav = 0
ecutwfc = 50.0
ecutrho = 400
occupations = 'smearing'
smearing = 'mp'
degauss = 0.01
assume_isolated = 'esm'
esm_bc = 'bc1'
input_dft = 'BEEF-VDW'
nosym = .true.
nspin = 1
ntyp = 3
nat = 33
/
&ELECTRONS
electron_maxstep = 200
mixing_beta = 0.1
conv_thr = 1e-06
/
&IONS
ion_dynamics = 'bfgs'
upscale = 1.0
/
&CELL
/

K_POINTS {automatic}
7 7 2 0  0  0

ATOMIC_SPECIES
C 12.01 C.pbe-n-rrkjus_psl.1.0.0.UPF
Hf 178.4 Hf.pbe-spn-rrkjus_psl.1.0.0.UPF
Rh 102.9 Rh.pbe-spn-rrkjus_psl.1.0.0.UPF

CELL_PARAMETERS {angstrom}
7.89713000 0.00000000 0.00000000
-0.00000000 7.89713000 0.00000000
0.00000000 0.00000000 25.92280000

ATOMIC_POSITIONS {angstrom}
Hf 0.00000000 0.00000000 -2.961420669999999 0 0 0
Hf 0.00000000 0.00000000 0.98714022
Hf 0.00000000 3.94856500 -2.961420669999999 0 0 0
Hf 0.00000000 3.94856500 0.98714022
Hf 3.94856500 0.00000000 -2.961420669999999 0 0 0
Hf 3.94856500 -0.00000000 0.98714022
Hf 3.94856500 3.94856500 -2.961420669999999 0 0 0
Hf 3.94856500 3.94856500 0.98714022
Rh 0.00000000 1.97428250 -0.987140219999997 0 0 0
Rh 1.97428250 0.00000000 -0.987140219999997 0 0 0
Rh 1.97428250 1.97428250 -2.961420669999999 0 0 0
Rh 0.00000000 1.97428250 2.96142067
Rh 1.97428250 -0.00000000 2.96142067
Rh 1.97428250 1.97428250 0.98714022
Rh 0.00000000 5.92284750 -0.987140219999997 0 0 0
Rh 1.97428250 3.94856500 -0.987140219999997 0 0 0
Rh 1.97428250 5.92284750 -2.961420669999999 0 0 0
Rh 0.00000000 5.92284750 2.96142067
Rh 1.97428250 3.94856500 2.96142067
Rh 1.97428250 5.92284750 0.98714022
Rh 3.94856500 1.97428250 -0.987140219999997 0 0 0
Rh 5.92284750 0.00000000 -0.987140219999997 0 0 0
Rh 5.92284750 1.97428250 -2.961420669999999 0 0 0
Rh 3.94856500 1.97428250 2.96142067
Rh 5.92284750 -0.00000000 2.96142067
Rh 5.92284750 1.97428250 0.98714022
Rh 3.94856500 5.92284750 -0.987140219999997 0 0 0
Rh 5.92284750 3.94856500 -0.987140219999997 0 0 0
Rh 5.92284750 5.92284750 -2.961420669999999 0 0 0
Rh 3.94856500 5.92284750 2.96142067
Rh 5.92284750 3.94856500 2.96142067
Rh 5.92284750 5.92284750 0.98714022
C 1.97428250 1.97428250 3.76139828
