&CONTROL
calculation = 'relax'
prefix = 'scf'
pseudo_dir = '/vol0004/mdt0/data/hp150275/u10028/POT_KKJUS'
outdir = './data'
tprnfor = .true.
nstep = 50
disk_io = 'non'
/
&SYSTEM
ibrav = 0
ecutwfc = 50.0
ecutrho = 400
occupations = 'smearing'
smearing = 'mp'
degauss = 0.01
assume_isolated = 'esm'
esm_bc = 'bc1'
input_dft = 'BEEF-VDW'
nosym = .true.
nspin = 1
ntyp = 3
nat = 17
/
&ELECTRONS
electron_maxstep = 200
mixing_beta = 0.1
conv_thr = 1e-06
/
&IONS
ion_dynamics = 'bfgs'
upscale = 1.0
/
&CELL
/

K_POINTS {automatic}
8 8 1 0 0 0

ATOMIC_SPECIES
C 12.01 C.pbe-n-rrkjus_psl.1.0.0.UPF
Hf 178.4 Hf.pbe-spn-rrkjus_psl.1.0.0.UPF
Os 190.2 Os.pbe-spn-rrkjus_psl.1.0.0.UPF

CELL_PARAMETERS {angstrom}
6.49845000 0.00000000 0.00000000
-0.00000000 6.49845000 0.00000000
0.00000000 0.00000000 24.87380000

ATOMIC_POSITIONS {angstrom}
Hf 1.62461250 1.62461250 -0.8382470600000005 0 0 0
Hf 1.62461250 1.62461250 2.41101743
Hf 1.62461250 4.87383750 -0.8382470600000005 0 0 0
Hf 1.62461250 4.87383750 2.41101743
Hf 4.87383750 1.62461250 -0.8382470600000005 0 0 0
Hf 4.87383750 1.62461250 2.41101743
Hf 4.87383750 4.87383750 -0.8382470600000005 0 0 0
Hf 4.87383750 4.87383750 2.41101743
Os 0.00000000 0.00000000 -2.46275494 0 0 0
Os 0.00000000 0.00000000 0.78650956
Os 0.00000000 3.24922500 -2.46275494 0 0 0
Os 0.00000000 3.24922500 0.78650956
Os 3.24922500 0.00000000 -2.46275494 0 0 0
Os 3.24922500 -0.00000000 0.78650956
Os 3.24922500 3.24922500 -2.46275494 0 0 0
Os 3.24922500 3.24922500 0.78650956
C 0.00000000 0.00000000 3.21095884
