&CONTROL
calculation = 'relax'
prefix = 'scf'
pseudo_dir = '/vol0004/mdt0/data/hp150275/u10028/POT_HYBRID_KKJUS_GBRV'
outdir = './data'
tprnfor = .true.
nstep = 50
disk_io = 'non'
/
&SYSTEM
ibrav = 0
ecutwfc = 50.0
ecutrho = 400
occupations = 'smearing'
smearing = 'mp'
degauss = 0.01
assume_isolated = 'esm'
esm_bc = 'bc1'
input_dft = 'BEEF-VDW'
nosym = .true.
nspin = 2
ntyp = 5
nat = 34
starting_magnetization(1) = 0.0
starting_magnetization(2) = 0.0
starting_magnetization(3) = 0.001
starting_magnetization(4) = 0.0
starting_magnetization(5) = 0.0
/
&ELECTRONS
electron_maxstep = 300
mixing_beta = 0.1
conv_thr = 1e-06
/
&IONS
ion_dynamics = 'bfgs'
upscale = 1.0
/
&CELL
/

K_POINTS {automatic}
9 6 2 0  0  0

ATOMIC_SPECIES
Al 26.98 Al.pbe-nl-rrkjus_psl.1.0.0.UPF
C 12.01 C.pbe-n-rrkjus_psl.1.0.0.UPF
Ni 58.69 ni_pbe_v1.4.uspp.F.UPF
O 15.99 O.pbe-n-rrkjus_psl.1.0.0.UPF
Zr 91.22 Zr.pbe-spn-rrkjus_psl.1.0.0.UPF

CELL_PARAMETERS {angstrom}
6.14873000 0.00000000 0.00000000
0.00000000 8.69561000 0.00000000
0.00000000 0.00000000 26.52170000

ATOMIC_POSITIONS {angstrom}
Zr 0.00000000 0.00000000 -3.2608430099999985 0 0 0
Zr 3.07436500 2.17390250 -1.086859269999998 0 0 0
Zr 3.07436500 6.52170750 -1.086859269999998 0 0 0
Zr 0.00000000 4.34780500 -3.2608430099999985 0 0 0
Zr 0.00000000 4.35276150 1.04893324
Zr 3.07436500 6.52170750 3.37276459
Zr 3.07436500 2.17381554 3.36719503
Zr 0.00000000 8.69065350 1.04893324
Al 0.00000000 6.52170750 -1.086859269999998 0 0 0
Al 3.07436500 0.00000000 -3.2608430099999985 0 0 0
Al 0.00000000 2.17390250 -1.086859269999998 0 0 0
Al 3.07436500 4.34780500 -3.2608430099999985 0 0 0
Al 0.00000000 2.17390250 3.20620831
Al 3.07436500 4.34658761 1.12160269
Al 0.00000000 6.52170750 3.18499095
Al 3.07436500 0.00121739 1.12160269
Ni 1.53718250 0.00000000 -1.086859269999998 0 0 0
Ni 4.61154750 4.34780500 -1.086859269999998 0 0 0
Ni 4.61154750 0.00000000 -1.086859269999998 0 0 0
Ni 1.53718250 4.34780500 -1.086859269999998 0 0 0
Ni 4.61154750 6.52170750 -3.2608430099999985 0 0 0
Ni 1.53718250 2.17390250 -3.2608430099999985 0 0 0
Ni 1.53718250 6.52170750 -3.2608430099999985 0 0 0
Ni 4.61154750 2.17390250 -3.2608430099999985 0 0 0
Ni 1.48221285 4.36693534 3.09455196
Ni 4.66657863 8.67639270 3.09481717
Ni 4.66651715 4.36702230 3.09455196
Ni 1.48215137 8.67639270 3.09481717
Ni 4.50978602 2.17416337 1.18366347
Ni 1.66034156 6.52135968 1.15342873
Ni 1.63894398 2.17416337 1.18366347
Ni 4.48838844 6.52135968 1.15342873
C 0.00000000 2.17390250 5.20620971
O 0.00000000 2.17390250 6.36626887
