&CONTROL
calculation = 'relax'
prefix = 'scf'
pseudo_dir = '/vol0004/mdt0/data/hp150275/u10028/POT_KKJUS'
outdir = './data'
tprnfor = .true.
nstep = 50
disk_io = 'non'
/
&SYSTEM
ibrav = 0
ecutwfc = 50.0
ecutrho = 400
occupations = 'smearing'
smearing = 'mp'
degauss = 0.01
assume_isolated = 'esm'
esm_bc = 'bc1'
input_dft = 'BEEF-VDW'
nosym = .true.
nspin = 1
ntyp = 5
nat = 18
/
&ELECTRONS
electron_maxstep = 200
mixing_beta = 0.1
conv_thr = 1e-06
/
&IONS
ion_dynamics = 'bfgs'
upscale = 1.0
/
&CELL
/

K_POINTS {automatic}
9 9 2 0  0  0

ATOMIC_SPECIES
Au 196.9 Au.pbe-n-rrkjus_psl.1.0.0.UPF
Bi 208.9 Bi.pbe-dn-rrkjus_psl.1.0.0.UPF
C 12.01 C.pbe-n-rrkjus_psl.1.0.0.UPF
Li 6.941 Li.pbe-sl-rrkjus_psl.1.0.0.UPF
O 15.99 O.pbe-n-rrkjus_psl.1.0.0.UPF

CELL_PARAMETERS {angstrom}
6.87958000 0.00000000 0.00000000
0.00000000 6.87958000 0.00000000
0.00000000 0.00000000 25.15970000

ATOMIC_POSITIONS {angstrom}
Li 6.86141791 0.01809330 0.65842935
Li 3.43979000 0.00000000 -2.579875640000001 0 0 0
Li 0.00000000 3.43979000 -2.579875640000001 0 0 0
Li 3.45802089 3.42155911 0.65842935
Li 1.71996380 1.71989500 2.72454391
Li 1.71989500 5.15968500 -0.8599585500000018 0 0 0
Li 5.15961620 5.15947861 2.72454391
Li 5.15968500 1.71989500 -0.8599585500000018 0 0 0
Bi 0.00000000 0.00000000 -2.579875640000001 0 0 0
Bi 3.43979000 3.43979000 -2.579875640000001 0 0 0
Bi 3.60579427 0.16600427 1.14023760
Bi 6.71378212 3.27385453 1.14023760
Au 1.71989500 1.71989500 -0.8599585500000018 0 0 0
Au 1.72003259 5.15989139 2.05730867
Au 5.15968500 5.15968500 -0.8599585500000018 0 0 0
Au 5.15947861 1.72010139 3.00759054
C 5.15947861 1.72003259 5.02841764
O 5.15940982 1.71982620 6.18274468
