&CONTROL
calculation = 'relax'
prefix = 'scf'
pseudo_dir = '/vol0004/mdt0/data/hp150275/u10028/POT_KKJUS'
outdir = './data'
tprnfor = .true.
nstep = 50
disk_io = 'non'
/
&SYSTEM
ibrav = 0
ecutwfc = 50.0
ecutrho = 400
occupations = 'smearing'
smearing = 'mp'
degauss = 0.01
assume_isolated = 'esm'
esm_bc = 'bc1'
input_dft = 'BEEF-VDW'
nosym = .true.
nspin = 1
ntyp = 4
nat = 34
/
&ELECTRONS
electron_maxstep = 200
mixing_beta = 0.1
conv_thr = 1e-06
/
&IONS
ion_dynamics = 'bfgs'
upscale = 1.0
/
&CELL
/

K_POINTS {automatic}
8 6 1 0 0 0

ATOMIC_SPECIES
C 12.01 C.pbe-n-rrkjus_psl.1.0.0.UPF
Ir 192.2 Ir.pbe-n-rrkjus_psl.0.2.3.UPF
O 15.99 O.pbe-n-rrkjus_psl.1.0.0.UPF
Sc 44.95 Sc.pbe-spn-rrkjus_psl.1.0.0.UPF

CELL_PARAMETERS {angstrom}
6.46830000 0.00000000 0.00000000
0.00000000 9.14755000 0.00000000
0.00000000 0.00000000 26.86070000

ATOMIC_POSITIONS {angstrom}
Sc 1.61707500 2.28688750 -3.430380000000003 0 0 0
Sc 1.61707500 0.00000000 -1.143460000000001 0 0 0
Sc 1.61707500 2.28524094 1.19745001
Sc 1.61707500 0.00000000 3.54883568
Sc 1.61707500 6.86066250 -3.430380000000003 0 0 0
Sc 1.61707500 4.57377500 -1.143460000000001 0 0 0
Sc 1.61707500 6.86230906 1.19745001
Sc 1.61707500 4.57377500 3.52949598
Sc 4.85122500 2.28688750 -3.430380000000003 0 0 0
Sc 4.85122500 0.00000000 -1.143460000000001 0 0 0
Sc 4.85122500 2.28889996 1.19288369
Sc 4.85122500 0.00000000 3.51902031
Sc 4.85122500 6.86066250 -3.430380000000003 0 0 0
Sc 4.85122500 4.57377500 -1.143460000000001 0 0 0
Sc 4.85122500 6.85865004 1.19288369
Sc 4.85122500 4.57377500 3.53674837
Ir 0.00000000 0.00000000 -3.430380000000003 0 0 0
Ir 0.00000000 2.28688750 -1.143460000000001 0 0 0
Ir 6.46312536 0.00000000 1.18294523
Ir 6.46105550 2.30298719 3.34173969
Ir 0.00000000 4.57377500 -3.430380000000003 0 0 0
Ir 0.00000000 6.86066250 -1.143460000000001 0 0 0
Ir 0.00032342 4.57377500 1.19019762
Ir 6.46105550 6.84456281 3.34173969
Ir 3.23415000 0.00000000 -3.430380000000003 0 0 0
Ir 3.23415000 2.28688750 -1.143460000000001 0 0 0
Ir 3.23932464 0.00000000 1.18294523
Ir 3.24139450 2.30298719 3.34173969
Ir 3.23415000 4.57377500 -3.430380000000003 0 0 0
Ir 3.23415000 6.86066250 -1.143460000000001 0 0 0
Ir 3.23382659 4.57377500 1.19019762
Ir 3.24139450 6.84456281 3.34173969
C 1.61707500 0.00000000 5.89968415
O 1.61707500 0.00000000 7.04448718
