&CONTROL
calculation = 'relax'
prefix = 'scf'
pseudo_dir = '/vol0004/mdt0/data/hp150275/u10028/POT_HYBRID_KKJUS_GBRV'
outdir = './data'
tprnfor = .true.
nstep = 50
disk_io = 'non'
/
&SYSTEM
ibrav = 0
ecutwfc = 50.0
ecutrho = 400
occupations = 'smearing'
smearing = 'mp'
degauss = 0.01
assume_isolated = 'esm'
esm_bc = 'bc1'
input_dft = 'BEEF-VDW'
nosym = .true.
nspin = 2
ntyp = 4
nat = 33
starting_magnetization(1) = 0.0
starting_magnetization(2) = 0.0
starting_magnetization(3) = 0.001
starting_magnetization(4) = 0.0
/
&ELECTRONS
electron_maxstep = 300
mixing_beta = 0.1
conv_thr = 1e-06
/
&IONS
ion_dynamics = 'bfgs'
upscale = 1.0
/
&CELL
/

K_POINTS {automatic}
8 6 1 0 0 0

ATOMIC_SPECIES
C 12.01 C.pbe-n-rrkjus_psl.1.0.0.UPF
Ga 69.72 Ga.pbe-dnl-rrkjus_psl.1.0.0.UPF
Ni 58.69 ni_pbe_v1.4.uspp.F.UPF
Ti 47.86 Ti.pbe-spn-rrkjus_psl.1.0.0.UPF

CELL_PARAMETERS {angstrom}
5.91339000 0.00000000 0.00000000
0.00000000 8.36280000 0.00000000
0.00000000 0.00000000 26.27210000

ATOMIC_POSITIONS {angstrom}
Ti 0.00000000 0.00000000 -3.1361005799999973 0 0 0
Ti 2.95669500 2.09070000 -1.045366859999998 0 0 0
Ti 2.95669500 6.27210000 -1.045366859999998 0 0 0
Ti 0.00000000 4.18140000 -3.1361005799999973 0 0 0
Ti 5.87542604 4.23324936 1.03879883
Ti 2.88863188 6.27201637 3.16000819
Ti 3.19748824 2.09078363 3.06647951
Ti 5.87542604 8.31095064 1.03879883
Ga 0.00000000 6.27210000 -1.045366859999998 0 0 0
Ga 2.95669500 0.00000000 -3.1361005799999973 0 0 0
Ga 0.00000000 2.09070000 -1.045366859999998 0 0 0
Ga 2.95669500 4.18140000 -3.1361005799999973 0 0 0
Ga 5.46243488 2.09086726 4.11237181
Ga 2.92316608 4.13448469 1.07505433
Ga 0.06037571 6.27210000 3.17577145
Ga 2.92316608 0.04674805 1.07531705
Ni 1.47834750 0.00000000 -1.045366859999998 0 0 0
Ni 4.43504250 4.18140000 -1.045366859999998 0 0 0
Ni 4.43504250 0.00000000 -1.045366859999998 0 0 0
Ni 1.47834750 4.18140000 -1.045366859999998 0 0 0
Ni 4.43504250 6.27210000 -3.1361005799999973 0 0 0
Ni 1.47834750 2.09070000 -3.1361005799999973 0 0 0
Ni 1.47834750 6.27210000 -3.1361005799999973 0 0 0
Ni 4.43504250 2.09070000 -3.1361005799999973 0 0 0
Ni 1.27013704 4.05278014 3.07882740
Ni 4.46253976 8.27131097 3.06017421
Ni 4.46289457 4.27297266 3.05991149
Ni 1.27031444 0.12878712 3.07935284
Ni 4.46632433 2.09078363 0.97705940
Ni 1.60099121 6.27184912 1.02723911
Ni 1.30739140 2.09078363 1.25423005
Ni 4.31594683 6.27201637 1.12891214
C 1.32950747 2.09086726 3.37675301
