&CONTROL
calculation = 'relax'
prefix = 'scf'
pseudo_dir = '/vol0403/data/hp230205/u10028/POT_HYBRID_KKJUS_GBRV'
outdir = './data'
tprnfor = .true.
nstep = 50
disk_io = 'non'
/
&SYSTEM
ibrav = 0
ecutwfc = 50.0
ecutrho = 400
occupations = 'smearing'
smearing = 'mp'
degauss = 0.01
assume_isolated = 'esm'
esm_bc = 'bc1'
input_dft = 'BEEF-VDW'
nosym = .true.
nspin = 1
ntyp = 6
nat = 34
/
&ELECTRONS
electron_maxstep = 200
mixing_beta = 0.1
conv_thr = 1e-06
/
&IONS
ion_dynamics = 'bfgs'
upscale = 1.0
/
&CELL
/

K_POINTS {automatic}
8 6 2 0  0  0

ATOMIC_SPECIES
C 12.01 C.pbe-n-rrkjus_psl.1.0.0.UPF
In 114.8 In.pbe-dn-rrkjus_psl.1.0.0.UPF
Li 6.941 Li.pbe-sl-rrkjus_psl.1.0.0.UPF
Mg 24.30 Mg.pbe-spnl-rrkjus_psl.1.0.0.UPF
O 15.99 O.pbe-n-rrkjus_psl.1.0.0.UPF
Pb 207.2 Pb.pbe-dn-rrkjus_psl.1.0.0.UPF


CELL_PARAMETERS {angstrom}
7.11424000 0.00000000 0.00000000
0.00000000 10.06110000 0.00000000
0.00000000 0.00000000 27.54580000

ATOMIC_POSITIONS {angstrom}
Li 5.33568000 0.00000000 -1.2577412300000006 0 0 0
Li 5.33568000 5.03055000 -1.2577412300000006 0 0 0
Li 1.77856000 2.51527500 -3.772948230000001 0 0 0
Li 1.77856000 7.54582500 -3.772948230000001 0 0 0
Li 5.31440842 5.00308320 3.89525158
Li 5.31362586 10.05144134 3.89497612
Li 1.73516314 7.55337083 1.41475229
Li 1.74149481 2.52282083 1.37618817
Mg 1.77856000 0.00000000 -1.2577412300000006 0 0 0
Mg 1.77856000 5.03055000 -1.2577412300000006 0 0 0
Mg 5.33568000 2.51527500 -3.772948230000001 0 0 0
Mg 5.33568000 7.54582500 -3.772948230000001 0 0 0
Mg 1.75629243 5.02642495 4.07402382
Mg 1.75928041 10.02940754 4.06906558
Mg 5.35197161 7.54250484 1.44780725
Mg 5.35005076 2.52533610 1.41723141
In 0.00000000 0.00000000 -3.772948230000001 0 0 0
In 0.00000000 5.03055000 -3.772948230000001 0 0 0
In 3.55712000 7.54582500 -1.2577412300000006 0 0 0
In 3.55712000 2.51527500 -1.2577412300000006 0 0 0
In 0.04368143 5.03376955 1.44147171
In 0.03855918 0.00533238 1.44036988
In 3.55683543 2.49696380 4.13076817
In 3.58550582 7.52801685 4.18503339
Pb 0.00000000 2.51527500 -1.2577412300000006 0 0 0
Pb 0.00000000 7.54582500 -1.2577412300000006 0 0 0
Pb 3.55712000 5.03055000 -3.772948230000001 0 0 0
Pb 3.55712000 0.00000000 -3.772948230000001 0 0 0
Pb 7.03299538 7.52862052 4.20018358
Pb 7.06486717 2.49575647 4.16520042
Pb 3.51998367 0.00191161 1.40924313
Pb 3.51279828 5.03558055 1.41089588
C 4.15044762 2.62554466 7.76764014
O 3.27774380 2.47653977 8.48024999
