&CONTROL
calculation = 'relax'
prefix = 'scf'
pseudo_dir = '/vol0403/data/hp230205/u10028/POT_HYBRID_KKJUS_GBRV'
outdir = './data'
tprnfor = .true.
nstep = 70
disk_io = 'non'
/
&SYSTEM
ibrav = 0
ecutwfc = 50.0
ecutrho = 400
occupations = 'smearing'
smearing = 'mp'
degauss = 0.01
assume_isolated = 'esm'
esm_bc = 'bc1'
input_dft = 'BEEF-VDW'
nosym = .true.
nspin = 1
ntyp = 5
nat = 33
/
&ELECTRONS
electron_maxstep = 200
mixing_beta = 0.1
conv_thr = 1e-06
/
&IONS
ion_dynamics = 'bfgs'
upscale = 1.0
/
&CELL
/

K_POINTS {automatic}
9 6 2 0  0  0

ATOMIC_SPECIES
Ag 107.8 Ag.pbe-n-rrkjus_psl.1.0.0.UPF
C 12.01 C.pbe-n-rrkjus_psl.1.0.0.UPF
Cu 63.54 Cu.pbe-dn-rrkjus_psl.1.0.0.UPF
In 114.8 In.pbe-dn-rrkjus_psl.1.0.0.UPF
Li 6.941 Li.pbe-sl-rrkjus_psl.1.0.0.UPF


CELL_PARAMETERS {angstrom}
6.40797000 0.00000000 0.00000000
-0.00000000 9.06224000 0.00000000
0.00000000 0.00000000 26.79670000

ATOMIC_POSITIONS {angstrom}
Li 4.80597750 0.00000000 -1.1326965100000024 0 0 0
Li 4.80597750 4.53112000 -1.1326965100000024 0 0 0
Li 1.60199250 2.26556000 -3.398357490000002 0 0 0
Li 1.60199250 6.79668000 -3.398357490000002 0 0 0
Li 4.66557888 4.74199832 3.76815195
Li 4.66557888 8.85136168 3.76788399
Li 1.51695874 6.79668000 1.12090596
Li 1.59827588 2.26556000 1.28034633
In 0.00000000 2.26556000 -1.1326965100000024 0 0 0
In 0.00000000 6.79668000 -1.1326965100000024 0 0 0
In 3.20398500 4.53112000 -3.398357490000002 0 0 0
In 3.20398500 0.00000000 -3.398357490000002 0 0 0
In 0.19800627 6.79668000 3.74751850
In 6.07385844 2.26556000 3.46695705
In 3.23070623 9.02517544 1.18495007
In 3.23070623 4.56818456 1.18495007
Cu 1.60199250 0.00000000 -1.1326965100000024 0 0 0
Cu 1.60199250 4.53112000 -1.1326965100000024 0 0 0
Cu 4.80597750 2.26556000 -3.398357490000002 0 0 0
Cu 4.80597750 6.79668000 -3.398357490000002 0 0 0
Cu 1.61109182 4.20152633 3.52564182
Cu 1.61109182 0.32959367 3.52564182
Cu 4.88030995 6.79668000 1.26534017
Cu 4.84064462 2.26556000 0.99201383
Ag 0.00000000 0.00000000 -3.398357490000002 0 0 0
Ag 0.00000000 4.53112000 -3.398357490000002 0 0 0
Ag 3.20398500 6.79668000 -1.1326965100000024 0 0 0
Ag 3.20398500 2.26556000 -1.1326965100000024 0 0 0
Ag 0.00845852 4.55803485 1.21951782
Ag 0.00852260 9.03532515 1.21951782
Ag 3.52662629 2.26556000 3.29840580
Ag 2.99784061 6.79668000 3.31260805
C 1.65601169 2.26556000 4.09051626
