&CONTROL
calculation = 'relax'
prefix = 'scf'
pseudo_dir = '/vol0403/data/hp230205/u10028/POT_HYBRID_KKJUS_GBRV'
outdir = './data'
tprnfor = .true.
nstep = 70
disk_io = 'non'
/
&SYSTEM
ibrav = 0
ecutwfc = 50.0
ecutrho = 400
occupations = 'smearing'
smearing = 'mp'
degauss = 0.01
assume_isolated = 'esm'
esm_bc = 'bc1'
input_dft = 'BEEF-VDW'
nosym = .true.
nspin = 1
ntyp = 6
nat = 34
/
&ELECTRONS
electron_maxstep = 200
mixing_beta = 0.1
conv_thr = 1e-06
/
&IONS
ion_dynamics = 'bfgs'
upscale = 1.0
/
&CELL
/

K_POINTS {automatic}
9 6 2 0  0  0

ATOMIC_SPECIES
Ag 107.8 Ag.pbe-n-rrkjus_psl.1.0.0.UPF
C 12.01 C.pbe-n-rrkjus_psl.1.0.0.UPF
Li 6.941 Li.pbe-sl-rrkjus_psl.1.0.0.UPF
Mg 24.30 Mg.pbe-spnl-rrkjus_psl.1.0.0.UPF
O 15.99 O.pbe-n-rrkjus_psl.1.0.0.UPF
Pd 106.4 Pd.pbe-n-rrkjus_psl.1.0.0.UPF


CELL_PARAMETERS {angstrom}
6.38329000 0.00000000 0.00000000
-0.00000000 9.02734000 0.00000000
0.00000000 0.00000000 26.77050000

ATOMIC_POSITIONS {angstrom}
Li 4.78746750 0.00000000 -1.1283765799999976 0 0 0
Li 4.78746750 4.51367000 -1.1283765799999976 0 0 0
Li 1.59582250 2.25683500 -3.385129729999999 0 0 0
Li 1.59582250 6.77050500 -3.385129729999999 0 0 0
Li 4.84108714 4.51493383 3.53638305
Li 4.84102330 9.02607617 3.53638305
Li 1.59307769 6.77050500 1.13480149
Li 1.62199399 2.25683500 1.15595019
Mg 1.59582250 0.00000000 -1.1283765799999976 0 0 0
Mg 1.59582250 4.51367000 -1.1283765799999976 0 0 0
Mg 4.78746750 2.25683500 -3.385129729999999 0 0 0
Mg 4.78746750 6.77050500 -3.385129729999999 0 0 0
Mg 1.49751983 4.55059182 3.51496665
Mg 1.49751983 8.99041818 3.51496665
Mg 4.75421056 6.77050500 1.11713296
Mg 4.73901833 2.25683500 1.14470658
Ag 0.00000000 0.00000000 -3.385129729999999 0 0 0
Ag 0.00000000 4.51367000 -3.385129729999999 0 0 0
Ag 3.19164500 6.77050500 -1.1283765799999976 0 0 0
Ag 3.19164500 2.25683500 -1.1283765799999976 0 0 0
Ag 6.37084258 4.50626758 1.14256494
Ag 6.37084258 0.00740242 1.14256494
Ag 3.15328143 2.25683500 3.45955171
Ag 3.21328435 6.77050500 3.41752203
Pd 0.00000000 2.25683500 -1.1283765799999976 0 0 0
Pd 0.00000000 6.77050500 -1.1283765799999976 0 0 0
Pd 3.19164500 4.51367000 -3.385129729999999 0 0 0
Pd 3.19164500 0.00000000 -3.385129729999999 0 0 0
Pd 6.35941650 6.77050500 3.25127722
Pd 0.04436387 2.25683500 3.22745148
Pd 3.17000565 0.01083281 1.25794579
Pd 3.17000565 4.50283719 1.25794579
C 3.36641948 2.25692527 5.71336011
O 3.20083694 2.25683500 6.84762620
