&CONTROL
calculation = 'relax'
prefix = 'scf'
pseudo_dir = '/vol0004/mdt0/data/hp150275/u10028/POT_KKJUS'
outdir = './data'
tprnfor = .true.
nstep = 50
disk_io = 'non'
/
&SYSTEM
ibrav = 0
ecutwfc = 50.0
ecutrho = 400
occupations = 'smearing'
smearing = 'mp'
degauss = 0.01
assume_isolated = 'esm'
esm_bc = 'bc1'
input_dft = 'BEEF-VDW'
nosym = .true.
nspin = 1
ntyp = 2
nat = 16
/
&ELECTRONS
electron_maxstep = 200
mixing_beta = 0.1
conv_thr = 1e-06
/
&IONS
ion_dynamics = 'bfgs'
upscale = 1.0
/
&CELL
/

K_POINTS {automatic}
8 11 2 0  0  0

ATOMIC_SPECIES
In 114.8 In.pbe-dn-rrkjus_psl.1.0.0.UPF
Mg 24.30 Mg.pbe-spnl-rrkjus_psl.1.0.0.UPF

CELL_PARAMETERS {angstrom}
9.03947000 0.00000000 0.00000000
0.00000000 6.39187000 0.00000000
0.00000000 0.00000000 24.79390000

ATOMIC_POSITIONS {angstrom}
Mg 9.03937961 3.19599892 2.40451242
Mg 2.25968671 4.79243237 0.88365460
Mg 2.25977711 1.59937371 0.88365460
Mg 0.00000000 0.00000000 -0.7991074000000005 0 0 0
Mg 2.25986750 1.59796750 -2.3970742499999993 0 0 0
Mg 2.25986750 4.79390250 -2.3970742499999993 0 0 0
Mg 4.51982539 3.19619067 2.40426448
Mg 6.77978329 4.79230453 0.88365460
Mg 6.77969289 1.59950155 0.88365460
Mg 4.51973500 0.00000000 -0.7991074000000005 0 0 0
Mg 6.77960250 1.59796750 -2.3970742499999993 0 0 0
Mg 6.77960250 4.79390250 -2.3970742499999993 0 0 0
In 9.03910842 0.00000000 2.42211609
In 0.00000000 3.19593500 -0.7991074000000005 0 0 0
In 4.52009658 0.00012784 2.42211609
In 4.51973500 3.19593500 -0.7991074000000005 0 0 0
