&CONTROL
calculation = 'relax'
prefix = 'scf'
pseudo_dir = '/vol0004/mdt0/data/hp150275/u10028/POT_KKJUS'
outdir = './data'
tprnfor = .true.
nstep = 50
disk_io = 'non'
/
&SYSTEM
ibrav = 0
ecutwfc = 50.0
ecutrho = 400
occupations = 'smearing'
smearing = 'mp'
degauss = 0.01
assume_isolated = 'esm'
esm_bc = 'bc1'
input_dft = 'BEEF-VDW'
nosym = .true.
nspin = 1
ntyp = 4
nat = 33
/
&ELECTRONS
electron_maxstep = 200
mixing_beta = 0.1
conv_thr = 1e-06
/
&IONS
ion_dynamics = 'bfgs'
upscale = 1.0
/
&CELL
/

K_POINTS {automatic}
9 6 2 0  0  0

ATOMIC_SPECIES
C 12.01 C.pbe-n-rrkjus_psl.1.0.0.UPF
In 114.8 In.pbe-dn-rrkjus_psl.1.0.0.UPF
Li 6.941 Li.pbe-sl-rrkjus_psl.1.0.0.UPF
Rh 102.9 Rh.pbe-spn-rrkjus_psl.1.0.0.UPF

CELL_PARAMETERS {angstrom}
6.34973000 0.00000000 0.00000000
0.00000000 8.97987000 0.00000000
0.00000000 0.00000000 26.73490000

ATOMIC_POSITIONS {angstrom}
Li 0.00000000 6.73490250 -1.1225984499999981 0 0 0
Li 3.17486500 0.00000000 -3.367528 0 0 0
Li 0.00000000 2.24496750 -1.1225984499999981 0 0 0
Li 3.17486500 4.48993500 -3.367528 0 0 0
Li 1.58743250 2.24496750 -3.367528 0 0 0
Li 1.58743250 6.73490250 -3.367528 0 0 0
Li 4.76229750 4.48993500 -1.1225984499999981 0 0 0
Li 4.76229750 0.00000000 -1.1225984499999981 0 0 0
Li 0.29100813 2.01032350 3.37982606
Li 3.17759538 4.48993500 1.11457798
Li 0.29100813 6.96954650 3.37982606
Li 2.86461719 0.00000000 1.53565266
Li 1.59359174 6.73894344 1.11698412
Li 1.59359174 2.24092656 1.11698412
Li 4.87716412 0.00000000 3.41324468
Li 4.68775167 4.48993500 3.50334130
In 1.58743250 0.00000000 -1.1225984499999981 0 0 0
In 1.58743250 4.48993500 -1.1225984499999981 0 0 0
In 4.76229750 6.73490250 -3.367528 0 0 0
In 4.76229750 2.24496750 -3.367528 0 0 0
In 1.67334435 4.48993500 3.42420599
In 2.30177713 0.00000000 4.63716840
In 4.73613661 2.26086187 1.13783734
In 4.73613661 6.71909793 1.13783734
Rh 0.00000000 0.00000000 -3.367528 0 0 0
Rh 3.17486500 2.24496750 -1.1225984499999981 0 0 0
Rh 3.17486500 6.73490250 -1.1225984499999981 0 0 0
Rh 0.00000000 4.48993500 -3.367528 0 0 0
Rh 0.02076362 4.48993500 1.20948688
Rh 3.11670147 6.74433136 3.27181706
Rh 3.11670147 2.23562844 3.27181706
Rh 6.32433108 0.00000000 1.17018657
C 0.88896220 0.00000000 2.75850698
