&CONTROL
calculation = 'relax'
prefix = 'scf'
pseudo_dir = '/vol0403/data/hp230205/u10028/POT_HYBRID_KKJUS_GBRV'
outdir = './data'
tprnfor = .true.
nstep = 50
disk_io = 'non'
/
&SYSTEM
ibrav = 0
ecutwfc = 50.0
ecutrho = 400
occupations = 'smearing'
smearing = 'mp'
degauss = 0.01
assume_isolated = 'esm'
esm_bc = 'bc1'
input_dft = 'BEEF-VDW'
nosym = .true.
nspin = 1
ntyp = 6
nat = 34
/
&ELECTRONS
electron_maxstep = 200
mixing_beta = 0.1
conv_thr = 1e-06
/
&IONS
ion_dynamics = 'bfgs'
upscale = 1.0
/
&CELL
/

K_POINTS {automatic}
6 6 1 0 0 0

ATOMIC_SPECIES
C 12.01 C.pbe-n-rrkjus_psl.1.0.0.UPF
Ge 72.64 Ge.pbe-dn-rrkjus_psl.1.0.0.UPF
Li 6.941 Li.pbe-sl-rrkjus_psl.1.0.0.UPF
O 15.99 O.pbe-n-rrkjus_psl.1.0.0.UPF
Pd 106.4 Pd.pbe-n-rrkjus_psl.1.0.0.UPF
Zn 65.40 Zn.pbe-dnl-rrkjus_psl.1.0.0.UPF


CELL_PARAMETERS {angstrom}
6.18512000 0.00000000 0.00000000
0.00000000 8.74708000 0.00000000
0.00000000 0.00000000 26.56030000

ATOMIC_POSITIONS {angstrom}
Li 4.63884000 0.00000000 -1.0934875500000025 0 0 0
Li 4.63884000 4.37354000 -1.0934875500000025 0 0 0
Li 1.54628000 2.18677000 -3.2801970500000017 0 0 0
Li 1.54628000 6.56031000 -3.2801970500000017 0 0 0
Li 4.49849963 4.37345253 3.62866819
Li 4.46670811 0.00000000 4.12242416
Li 1.56062948 6.59381132 1.11659501
Li 1.56069133 2.15326868 1.11632941
Zn 0.00000000 2.18677000 -1.0934875500000025 0 0 0
Zn 0.00000000 6.56031000 -1.0934875500000025 0 0 0
Zn 3.09256000 4.37354000 -3.2801970500000017 0 0 0
Zn 3.09256000 0.00000000 -3.2801970500000017 0 0 0
Zn 6.16093618 6.57010673 3.30649175
Zn 6.16105988 2.17688580 3.30649175
Zn 3.19047045 0.00000000 1.23558516
Zn 3.10295100 4.37354000 1.15032659
Ge 0.00000000 0.00000000 -3.2801970500000017 0 0 0
Ge 0.00000000 4.37354000 -3.2801970500000017 0 0 0
Ge 3.09256000 6.56031000 -1.0934875500000025 0 0 0
Ge 3.09256000 2.18677000 -1.0934875500000025 0 0 0
Ge 6.13514423 4.37354000 1.18910463
Ge 6.06209796 0.00000000 1.27914405
Ge 2.99780396 2.17697327 3.47249362
Ge 2.99798952 6.57001926 3.47249362
Pd 1.54628000 0.00000000 -1.0934875500000025 0 0 0
Pd 1.54628000 4.37354000 -1.0934875500000025 0 0 0
Pd 4.63884000 2.18677000 -3.2801970500000017 0 0 0
Pd 4.63884000 6.56031000 -3.2801970500000017 0 0 0
Pd 1.54454817 4.37354000 3.19865693
Pd 1.55357844 8.74699253 3.21751474
Pd 4.59430714 6.52357226 1.05285029
Pd 4.59424528 2.22359521 1.05285029
C 4.65541612 0.00000000 6.25362264
O 4.73303938 0.00000000 7.38774745
