&CONTROL
calculation = 'relax'
prefix = 'scf'
pseudo_dir = '/vol0004/mdt0/data/hp150275/u10028/POT_KKJUS'
outdir = './data'
tprnfor = .true.
nstep = 50
disk_io = 'non'
/
&SYSTEM
ibrav = 0
ecutwfc = 50.0
ecutrho = 400
occupations = 'smearing'
smearing = 'mp'
degauss = 0.01
assume_isolated = 'esm'
esm_bc = 'bc1'
input_dft = 'BEEF-VDW'
nosym = .true.
nspin = 1
ntyp = 2
nat = 32
/
&ELECTRONS
electron_maxstep = 200
mixing_beta = 0.1
conv_thr = 1e-06
/
&IONS
ion_dynamics = 'bfgs'
upscale = 1.0
/
&CELL
/

K_POINTS {automatic}
9 6 2 0  0  0

ATOMIC_SPECIES
Cu 63.54 Cu.pbe-dn-rrkjus_psl.1.0.0.UPF
Zn 65.40 Zn.pbe-dnl-rrkjus_psl.1.0.0.UPF

CELL_PARAMETERS {angstrom}
5.98486000 0.00000000 0.00000000
0.00000000 8.46387000 0.00000000
0.00000000 0.00000000 26.34790000

ATOMIC_POSITIONS {angstrom}
Zn 1.49621500 2.11596750 -3.1738680299999977 0 0 0
Zn 1.49621500 0.00000000 -1.0578681900000007 0 0 0
Zn 1.49759152 2.11596750 1.03705334
Zn 1.49830970 0.00000000 3.25844479
Zn 1.49621500 6.34790250 -3.1738680299999977 0 0 0
Zn 1.49621500 4.23193500 -1.0578681900000007 0 0 0
Zn 1.49759152 6.34790250 1.03705334
Zn 1.49830970 4.23193500 3.25844479
Zn 4.48864500 2.11596750 -3.1738680299999977 0 0 0
Zn 4.48864500 0.00000000 -1.0578681900000007 0 0 0
Zn 4.48732833 2.11588286 1.03705334
Zn 4.48655030 0.00000000 3.25844479
Zn 4.48864500 6.34790250 -3.1738680299999977 0 0 0
Zn 4.48864500 4.23193500 -1.0578681900000007 0 0 0
Zn 4.48726848 6.34790250 1.03705334
Zn 4.48655030 4.23193500 3.25844479
Cu 0.00000000 0.00000000 -3.1738680299999977 0 0 0
Cu 0.00000000 2.11596750 -1.0578681900000007 0 0 0
Cu 0.00000000 0.00000000 1.05602383
Cu 0.00000000 2.11596750 3.09218954
Cu 0.00000000 4.23193500 -3.1738680299999977 0 0 0
Cu 0.00000000 6.34790250 -1.0578681900000007 0 0 0
Cu 0.00000000 4.23193500 1.05602383
Cu 0.00000000 6.34790250 3.09218954
Cu 2.99243000 0.00000000 -3.1738680299999977 0 0 0
Cu 2.99243000 2.11596750 -1.0578681900000007 0 0 0
Cu 2.99243000 0.00000000 1.05365252
Cu 2.99243000 2.11596750 3.09508781
Cu 2.99243000 4.23193500 -3.1738680299999977 0 0 0
Cu 2.99243000 6.34790250 -1.0578681900000007 0 0 0
Cu 2.99243000 4.23193500 1.05365252
Cu 2.99243000 6.34790250 3.09508781
