&CONTROL
calculation = 'relax'
prefix = 'scf'
pseudo_dir = '/vol0004/mdt0/data/hp150275/u10028/POT_HYBRID_KKJUS_GBRV'
outdir = './data'
tprnfor = .true.
nstep = 50
disk_io = 'non'
/
&SYSTEM
ibrav = 0
ecutwfc = 50.0
ecutrho = 400
occupations = 'smearing'
smearing = 'mp'
degauss = 0.01
assume_isolated = 'esm'
esm_bc = 'bc1'
input_dft = 'BEEF-VDW'
nosym = .true.
nspin = 2
ntyp = 5
nat = 18
starting_magnetization(1) = 0.1
starting_magnetization(2) = 0.1
starting_magnetization(3) = 0.1
starting_magnetization(4) = 0.1
starting_magnetization(5) = 0.1
/
&ELECTRONS
electron_maxstep = 200
mixing_beta = 0.1
conv_thr = 1e-06
/
&IONS
ion_dynamics = 'bfgs'
upscale = 1.0
/
&CELL
/

K_POINTS {automatic}
9 9 2 0  0  0

ATOMIC_SPECIES
C 12.01 C.pbe-n-rrkjus_psl.1.0.0.UPF
Ni 58.69 ni_pbe_v1.4.uspp.F.UPF
O 15.99 O.pbe-n-rrkjus_psl.1.0.0.UPF
Sc 44.95 Sc.pbe-spn-rrkjus_psl.1.0.0.UPF
Sn 118.7 Sn.pbe-dn-rrkjus_psl.1.0.0.UPF

CELL_PARAMETERS {angstrom}
6.29417000 0.00000000 0.00000000
0.00000000 6.29417000 0.00000000
0.00000000 0.00000000 24.72060000

ATOMIC_POSITIONS {angstrom}
Sc 0.00000000 0.00000000 -2.3603228900000026 0 0 0
Sc 3.14708500 3.14708500 -2.3603228900000026 0 0 0
Sc 3.17043637 6.27207746 0.83110657
Sc 6.27201452 3.17031049 0.83110657
Ni 1.57354250 1.57354250 -0.7868567000000013 0 0 0
Ni 4.71836160 4.71829866 2.21570738
Ni 4.72062750 1.57354250 -0.7868567000000013 0 0 0
Ni 1.57631193 4.71930572 2.21521297
Ni 4.72062750 4.72062750 -0.7868567000000013 0 0 0
Ni 1.57530487 1.57536781 2.34029920
Ni 1.57354250 4.72062750 -0.7868567000000013 0 0 0
Ni 4.71936867 1.57643782 2.21521297
Sn 0.00667182 0.00660888 0.84717496
Sn 3.14708500 0.00000000 -2.3603228900000026 0 0 0
Sn 0.00000000 3.14708500 -2.3603228900000026 0 0 0
Sn 3.13959494 3.13965788 0.84223084
C 1.56586361 1.56586361 4.11845196
O 1.56189829 1.56189829 5.27092633
