&CONTROL
calculation = 'relax'
prefix = 'scf'
pseudo_dir = '/vol0403/data/hp230205/u10028/POT_HYBRID_KKJUS_GBRV'
outdir = './data'
tprnfor = .true.
nstep = 70
disk_io = 'non'
/
&SYSTEM
ibrav = 0
ecutwfc = 50.0
ecutrho = 400
occupations = 'smearing'
smearing = 'mp'
degauss = 0.01
assume_isolated = 'esm'
esm_bc = 'bc1'
input_dft = 'BEEF-VDW'
nosym = .true.
nspin = 1
ntyp = 6
nat = 34
/
&ELECTRONS
electron_maxstep = 200
mixing_beta = 0.1
conv_thr = 1e-06
/
&IONS
ion_dynamics = 'bfgs'
upscale = 1.0
/
&CELL
/

K_POINTS {automatic}
9 6 2 0  0  0

ATOMIC_SPECIES
Al 26.98 Al.pbe-nl-rrkjus_psl.1.0.0.UPF
C 12.01 C.pbe-n-rrkjus_psl.1.0.0.UPF
Cu 63.54 Cu.pbe-dn-rrkjus_psl.1.0.0.UPF
Li 6.941 Li.pbe-sl-rrkjus_psl.1.0.0.UPF
Mg 24.30 Mg.pbe-spnl-rrkjus_psl.1.0.0.UPF
O 15.99 O.pbe-n-rrkjus_psl.1.0.0.UPF


CELL_PARAMETERS {angstrom}
6.19386000 0.00000000 0.00000000
-0.00000000 8.75944000 0.00000000
0.00000000 0.00000000 26.56960000

ATOMIC_POSITIONS {angstrom}
Li 1.54846500 0.00000000 -1.0949332200000015 0 0 0
Li 1.54846500 4.37972000 -1.0949332200000015 0 0 0
Li 4.64539500 2.18986000 -3.28479965 0 0 0
Li 4.64539500 6.56958000 -3.28479965 0 0 0
Li 2.22210921 4.37972000 4.68289200
Li 1.90814245 -0.00000000 4.19188579
Li 4.74784144 6.58596015 1.17889315
Li 4.74784144 2.17347985 1.17889315
Mg 0.00000000 2.18986000 -1.0949332200000015 0 0 0
Mg 0.00000000 6.56958000 -1.0949332200000015 0 0 0
Mg 3.09693000 4.37972000 -3.28479965 0 0 0
Mg 3.09693000 0.00000000 -3.28479965 0 0 0
Mg 0.20675105 6.40788074 3.41738195
Mg 0.20637942 2.35112129 3.41764765
Mg 3.07847230 -0.00000000 1.24505146
Mg 3.02223205 4.37972000 1.15763747
Al 0.00000000 0.00000000 -3.28479965 0 0 0
Al 0.00000000 4.37972000 -3.28479965 0 0 0
Al 3.09693000 6.56958000 -1.0949332200000015 0 0 0
Al 3.09693000 2.18986000 -1.0949332200000015 0 0 0
Al 0.07364500 4.37972000 1.17251645
Al 0.13106208 0.00000000 1.28092042
Al 3.15849697 2.24793509 3.26646662
Al 3.15855891 6.51150491 3.26646662
Cu 4.64539500 0.00000000 -1.0949332200000015 0 0 0
Cu 4.64539500 4.37972000 -1.0949332200000015 0 0 0
Cu 1.54846500 2.18986000 -3.28479965 0 0 0
Cu 1.54846500 6.56958000 -3.28479965 0 0 0
Cu 4.60959449 4.37963241 3.16257949
Cu 4.72145560 0.00008759 3.30074141
Cu 1.56351608 6.58429586 1.00964480
Cu 1.56345414 2.17505655 1.00991050
C 5.00278072 -0.00000000 5.14201469
O 5.00160389 8.75935241 6.30656026
