&CONTROL
calculation = 'relax'
prefix = 'scf'
pseudo_dir = '/vol0004/mdt0/data/hp150275/u10028/POT_KKJUS'
outdir = './data'
tprnfor = .true.
nstep = 50
disk_io = 'non'
/
&SYSTEM
ibrav = 0
ecutwfc = 50.0
ecutrho = 400
occupations = 'smearing'
smearing = 'mp'
degauss = 0.01
assume_isolated = 'esm'
esm_bc = 'bc1'
input_dft = 'BEEF-VDW'
nosym = .true.
nspin = 1
ntyp = 5
nat = 34
/
&ELECTRONS
electron_maxstep = 200
mixing_beta = 0.1
conv_thr = 1e-06
/
&IONS
ion_dynamics = 'bfgs'
upscale = 1.0
/
&CELL
/

K_POINTS {automatic}
8 6 1 0 0 0

ATOMIC_SPECIES
C 12.01 C.pbe-n-rrkjus_psl.1.0.0.UPF
Ni 58.69 Ni.pbe-spn-rrkjus_psl.1.0.0.UPF
O 15.99 O.pbe-n-rrkjus_psl.1.0.0.UPF
Sn 118.7 Sn.pbe-dn-rrkjus_psl.1.0.0.UPF
V 50.94 V.pbe-spnl-rrkjus_psl.1.0.0.UPF

CELL_PARAMETERS {angstrom}
6.08368000 0.00000000 0.00000000
0.00000000 8.60362000 0.00000000
0.00000000 0.00000000 26.45270000

ATOMIC_POSITIONS {angstrom}
V 0.00000000 0.00000000 -3.226435819999999 0 0 0
V 3.04184000 2.15090500 -1.075566779999999 0 0 0
V 3.04184000 6.45271500 -1.075566779999999 0 0 0
V 0.00000000 4.30181000 -3.226435819999999 0 0 0
V 6.03957332 4.30232622 1.09619989
V 3.01251666 6.41296628 3.06957131
V 3.01239499 2.19065372 3.07010036
V 6.05344411 8.60336189 1.12185901
Ni 1.52092000 0.00000000 -1.075566779999999 0 0 0
Ni 4.56276000 4.30181000 -1.075566779999999 0 0 0
Ni 4.56276000 0.00000000 -1.075566779999999 0 0 0
Ni 1.52092000 4.30181000 -1.075566779999999 0 0 0
Ni 4.56276000 6.45271500 -3.226435819999999 0 0 0
Ni 1.52092000 2.15090500 -3.226435819999999 0 0 0
Ni 1.52092000 6.45271500 -3.226435819999999 0 0 0
Ni 4.56276000 2.15090500 -3.226435819999999 0 0 0
Ni 1.60986340 4.30137982 3.07591996
Ni 4.47801434 0.00043018 3.02460172
Ni 4.28698679 4.30112171 3.16003954
Ni 1.61734633 0.00043018 3.38488749
Ni 4.64215202 2.13507434 1.21338535
Ni 1.29381623 6.44763886 1.31787351
Ni 1.29472878 2.15632528 1.31655088
Ni 4.64361211 6.46863170 1.21497251
Sn 0.00000000 6.45271500 -1.075566779999999 0 0 0
Sn 3.04184000 0.00000000 -3.226435819999999 0 0 0
Sn 0.00000000 2.15090500 -1.075566779999999 0 0 0
Sn 3.04184000 4.30181000 -3.226435819999999 0 0 0
Sn 5.98731451 2.21190467 3.62931044
Sn 3.01342921 4.30189604 0.96076206
Sn 5.98725367 6.39154326 3.63169118
Sn 2.94139844 0.00008604 1.02001611
C 2.39550984 0.00017207 4.96252652
O 2.78930644 8.60344793 6.05555208
