&CONTROL
calculation = 'relax'
prefix = 'scf'
pseudo_dir = '/vol0403/data/hp230205/u10028/POT_HYBRID_KKJUS_GBRV'
outdir = './data'
tprnfor = .true.
nstep = 70
disk_io = 'non'
/
&SYSTEM
ibrav = 0
ecutwfc = 50.0
ecutrho = 400
occupations = 'smearing'
smearing = 'mp'
degauss = 0.01
assume_isolated = 'esm'
esm_bc = 'bc1'
input_dft = 'BEEF-VDW'
nosym = .true.
nspin = 1
ntyp = 6
nat = 18
/
&ELECTRONS
electron_maxstep = 200
mixing_beta = 0.1
conv_thr = 1e-06
/
&IONS
ion_dynamics = 'bfgs'
upscale = 1.0
/
&CELL
/

K_POINTS {automatic}
11 7 2 0  0  0

ATOMIC_SPECIES
C 12.01 C.pbe-n-rrkjus_psl.1.0.0.UPF
Ge 72.64 Ge.pbe-dn-rrkjus_psl.1.0.0.UPF
O 15.99 O.pbe-n-rrkjus_psl.1.0.0.UPF
Pd 106.4 Pd.pbe-n-rrkjus_psl.1.0.0.UPF
Sn 118.7 Sn.pbe-dn-rrkjus_psl.1.0.0.UPF
Y 88.90 Y.pbe-spn-rrkjus_psl.1.0.0.UPF


CELL_PARAMETERS {angstrom}
5.93056000 0.00000000 0.00000000
-0.00000000 9.60308000 0.00000000
0.00000000 0.00000000 24.43880000

ATOMIC_POSITIONS {angstrom}
Y 2.96528000 0.00000000 -2.2192874300000014 0 0 0
Y 5.71320498 9.56015423 0.81307888
Y 2.96528000 4.80154000 -2.2192874300000014 0 0 0
Y 5.71528067 4.84456180 0.81381204
Sn 1.38786965 2.40077000 -0.7397624799999996 0 0 0
Sn 4.05490179 2.40077000 2.29284822
Sn 1.38786965 7.20231000 -0.7397624799999996 0 0 0
Sn 3.75475615 7.20202191 2.10344752
Ge 0.00000000 0.00000000 -2.2192874300000014 0 0 0
Ge 2.80041043 0.22288749 0.91205602
Ge 0.00000000 4.80154000 -2.2192874300000014 0 0 0
Ge 2.80272335 4.57817236 0.91058969
Pd 4.35314965 2.40077000 -0.7397624799999996 0 0 0
Pd 1.16440615 2.40048191 2.03672959
Pd 4.35314965 7.20231000 -0.7397624799999996 0 0 0
Pd 0.91342485 7.20269412 1.96341319
C 0.97462823 2.40134618 4.01944944
O 0.81485894 2.40153825 5.15805313
