&CONTROL
calculation = 'relax'
prefix = 'scf'
pseudo_dir = '/vol0004/mdt0/data/hp150275/u10028/POT_HYBRID_KKJUS_GBRV'
outdir = './data'
tprnfor = .true.
nstep = 50
disk_io = 'non'
/
&SYSTEM
ibrav = 0
ecutwfc = 50.0
ecutrho = 400
occupations = 'smearing'
smearing = 'mp'
degauss = 0.01
assume_isolated = 'esm'
esm_bc = 'bc1'
input_dft = 'BEEF-VDW'
nosym = .true.
nspin = 2
ntyp = 4
nat = 33
starting_magnetization(1) = 0.0
starting_magnetization(2) = 0.0
starting_magnetization(3) = 0.001
starting_magnetization(4) = 0.0
/
&ELECTRONS
electron_maxstep = 200
mixing_beta = 0.1
conv_thr = 1e-06
/
&IONS
ion_dynamics = 'bfgs'
upscale = 1.0
/
&CELL
/

K_POINTS {automatic}
9 6 2 0  0  0

ATOMIC_SPECIES
Al 26.98 Al.pbe-nl-rrkjus_psl.1.0.0.UPF
C 12.01 C.pbe-n-rrkjus_psl.1.0.0.UPF
Ni 58.69 ni_pbe_v1.4.uspp.F.UPF
V 50.94 V.pbe-spnl-rrkjus_psl.1.0.0.UPF

CELL_PARAMETERS {angstrom}
5.81764000 0.00000000 0.00000000
0.00000000 8.22738000 0.00000000
0.00000000 0.00000000 26.17050000

ATOMIC_POSITIONS {angstrom}
Al 0.00000000 0.00000000 23.08525975
Al 2.90882000 2.05684500 25.14199935
Al 2.90882000 6.17053500 25.14199935
Al 0.00000000 4.11369000 23.08525975
Al 0.00000000 4.11360773 0.98688956
Al 2.90882000 6.16066214 3.18494985
Al 2.90882000 2.06688240 3.18494985
Al 0.00000000 0.00008227 1.02300484
V 0.00000000 6.17053500 25.14199935
V 2.90882000 0.00000000 23.08525975
V 0.00000000 2.05684500 25.14199935
V 2.90882000 4.11369000 23.08525975
V 0.00000000 2.10810158 3.01693524
V 2.90882000 4.11369000 1.05231581
V 0.00000000 6.11894933 3.01745865
V 2.90882000 0.00016455 1.19075775
Ni 1.45441000 0.00000000 25.14199935
Ni 4.36323000 4.11369000 25.14199935
Ni 4.36323000 0.00000000 25.14199935
Ni 1.45441000 4.11369000 25.14199935
Ni 4.36323000 6.17053500 23.08525975
Ni 1.45441000 2.05684500 23.08525975
Ni 1.45441000 6.17053500 23.08525975
Ni 4.36323000 2.05684500 23.08525975
Ni 1.44998859 4.11401910 2.97375392
Ni 4.66097682 8.22672181 3.19672658
Ni 4.36765141 4.11401910 2.97375392
Ni 1.15666318 8.22672181 3.19672658
Ni 4.34682426 2.09378594 1.01384517
Ni 1.47081574 6.13384089 1.01410687
Ni 1.47081574 2.09378594 1.01384517
Ni 4.34682426 6.13384089 1.01410687
C 2.90882000 0.00016455 3.30402562
