&CONTROL
calculation = 'relax'
prefix = 'scf'
pseudo_dir = '/vol0403/data/hp230205/u10028/POT_HYBRID_KKJUS_GBRV'
outdir = './data'
tprnfor = .true.
nstep = 70
disk_io = 'non'
/
&SYSTEM
ibrav = 0
ecutwfc = 50.0
ecutrho = 400
occupations = 'smearing'
smearing = 'mp'
degauss = 0.01
assume_isolated = 'esm'
esm_bc = 'bc1'
input_dft = 'BEEF-VDW'
nosym = .true.
nspin = 1
ntyp = 5
nat = 33
/
&ELECTRONS
electron_maxstep = 200
mixing_beta = 0.1
conv_thr = 1e-06
/
&IONS
ion_dynamics = 'bfgs'
upscale = 1.0
/
&CELL
/

K_POINTS {automatic}
6 6 1 0 0 0

ATOMIC_SPECIES
C 12.01 C.pbe-n-rrkjus_psl.1.0.0.UPF
Cu 63.54 Cu.pbe-dn-rrkjus_psl.1.0.0.UPF
Ge 72.64 Ge.pbe-dn-rrkjus_psl.1.0.0.UPF
Li 6.941 Li.pbe-sl-rrkjus_psl.1.0.0.UPF
Mg 24.30 Mg.pbe-spnl-rrkjus_psl.1.0.0.UPF


CELL_PARAMETERS {angstrom}
6.17522000 0.00000000 0.00000000
-0.00000000 8.73308000 0.00000000
0.00000000 0.00000000 26.54980000

ATOMIC_POSITIONS {angstrom}
Li 0.00000000 2.18327000 -1.091727780000003 0 0 0
Li 0.00000000 6.54981000 -1.091727780000003 0 0 0
Li 3.08761000 4.36654000 -3.2749178299999997 0 0 0
Li 3.08761000 0.00000000 -3.2749178299999997 0 0 0
Li 0.83803911 6.20668729 4.74683874
Li 1.02354272 2.50639396 4.87374679
Li 3.20623598 8.71185862 1.63812266
Li 3.19660263 4.37274049 1.13075598
Mg 4.63141500 0.00000000 -1.091727780000003 0 0 0
Mg 4.63141500 4.36654000 -1.091727780000003 0 0 0
Mg 1.54380500 2.18327000 -3.2749178299999997 0 0 0
Mg 1.54380500 6.54981000 -3.2749178299999997 0 0 0
Mg 5.03533614 4.27475533 3.39067496
Mg 5.60320937 0.16907243 3.28261727
Mg 1.43555339 6.52352343 1.50404617
Mg 1.44456921 2.20134748 1.45678753
Cu 0.00000000 0.00000000 -3.2749178299999997 0 0 0
Cu 0.00000000 4.36654000 -3.2749178299999997 0 0 0
Cu 3.08761000 6.54981000 -1.091727780000003 0 0 0
Cu 3.08761000 2.18327000 -1.091727780000003 0 0 0
Cu 6.16923004 4.36496805 0.95181033
Cu 0.07589345 8.71814643 0.86180651
Cu 3.37167012 1.97664533 3.39837440
Cu 3.41940457 6.71023668 3.39386093
Ge 1.54380500 0.00000000 -1.091727780000003 0 0 0
Ge 1.54380500 4.36654000 -1.091727780000003 0 0 0
Ge 4.63141500 2.18327000 -3.2749178299999997 0 0 0
Ge 4.63141500 6.54981000 -3.2749178299999997 0 0 0
Ge 2.00527919 4.34811320 3.44642954
Ge 1.85793844 8.67020182 4.42080720
Ge 4.74682986 6.54954801 1.17642164
Ge 4.72311702 2.17156767 1.14403088
C 3.64677617 8.70618211 3.92910490
