&CONTROL
calculation = 'relax'
prefix = 'scf'
pseudo_dir = '/vol0004/mdt0/data/hp150275/u10028/POT_KKJUS'
outdir = './data'
tprnfor = .true.
nstep = 50
disk_io = 'non'
/
&SYSTEM
ibrav = 0
ecutwfc = 50.0
ecutrho = 400
occupations = 'smearing'
smearing = 'mp'
degauss = 0.01
assume_isolated = 'esm'
esm_bc = 'bc1'
input_dft = 'BEEF-VDW'
nosym = .true.
nspin = 1
ntyp = 3
nat = 32
/
&ELECTRONS
electron_maxstep = 200
mixing_beta = 0.1
conv_thr = 1e-06
/
&IONS
ion_dynamics = 'bfgs'
upscale = 1.0
/
&CELL
/

K_POINTS {automatic}
8 6 1 0 0 0

ATOMIC_SPECIES
In 114.8 In.pbe-dn-rrkjus_psl.1.0.0.UPF
Li 6.941 Li.pbe-sl-rrkjus_psl.1.0.0.UPF
Ru 101.0 Ru.pbe-spn-rrkjus_psl.1.0.0.UPF

CELL_PARAMETERS {angstrom}
6.56971000 0.00000000 0.00000000
0.00000000 9.29097000 0.00000000
0.00000000 0.00000000 26.96820000

ATOMIC_POSITIONS {angstrom}
Li 0.00000000 0.00000000 -3.484021760000001 0 0 0
Li 3.28485500 2.32274250 -1.1612506899999993 0 0 0
Li 3.28485500 6.96822750 -1.1612506899999993 0 0 0
Li 0.00000000 4.64548500 -3.484021760000001 0 0 0
Li 0.00000000 4.64548500 1.13670963
Li 3.28485500 6.96822750 3.53687943
Li 3.28485500 2.32274250 3.53687943
Li 0.00000000 0.00000000 1.13670963
In 1.64242750 0.00000000 -1.1612506899999993 0 0 0
In 4.92728250 4.64548500 -1.1612506899999993 0 0 0
In 4.92728250 0.00000000 -1.1612506899999993 0 0 0
In 1.64242750 4.64548500 -1.1612506899999993 0 0 0
In 4.92728250 6.96822750 -3.484021760000001 0 0 0
In 1.64242750 2.32274250 -3.484021760000001 0 0 0
In 1.64242750 6.96822750 -3.484021760000001 0 0 0
In 4.92728250 2.32274250 -3.484021760000001 0 0 0
In 1.54388185 4.64557791 3.59297329
In 5.02582815 9.29087709 3.59297329
In 5.02582815 4.64557791 3.59297329
In 1.54388185 9.29087709 3.59297329
In 4.91801921 2.32274250 1.13697931
In 1.65155940 6.96822750 1.13697931
In 1.65169079 2.32274250 1.13697931
In 4.91815060 6.96822750 1.13697931
Ru 0.00000000 6.96822750 -1.1612506899999993 0 0 0
Ru 3.28485500 0.00000000 -3.484021760000001 0 0 0
Ru 0.00000000 2.32274250 -1.1612506899999993 0 0 0
Ru 3.28485500 4.64548500 -3.484021760000001 0 0 0
Ru 0.00000000 2.32274250 3.30387418
Ru 3.28485500 4.64557791 1.20871472
Ru 0.00000000 6.96822750 3.30360450
Ru 3.28485500 9.29087709 1.20871472
