&CONTROL
calculation = 'relax'
prefix = 'scf'
pseudo_dir = '/vol0403/data/hp230205/u10028/POT_HYBRID_KKJUS_GBRV'
outdir = './data'
tprnfor = .true.
nstep = 50
disk_io = 'non'
/
&SYSTEM
ibrav = 0
ecutwfc = 50.0
ecutrho = 400
occupations = 'smearing'
smearing = 'mp'
degauss = 0.01
assume_isolated = 'esm'
esm_bc = 'bc1'
input_dft = 'BEEF-VDW'
nosym = .true.
nspin = 1
ntyp = 6
nat = 18
/
&ELECTRONS
electron_maxstep = 200
mixing_beta = 0.1
conv_thr = 1e-06
/
&IONS
ion_dynamics = 'bfgs'
upscale = 1.0
/
&CELL
/

K_POINTS {automatic}
9 9 2 0  0  0

ATOMIC_SPECIES
C 12.01 C.pbe-n-rrkjus_psl.1.0.0.UPF
Ga 69.72 Ga.pbe-dnl-rrkjus_psl.1.0.0.UPF
In 114.8 In.pbe-dn-rrkjus_psl.1.0.0.UPF
Li 6.941 Li.pbe-sl-rrkjus_psl.1.0.0.UPF
O 15.99 O.pbe-n-rrkjus_psl.1.0.0.UPF
Pd 106.4 Pd.pbe-n-rrkjus_psl.1.0.0.UPF


CELL_PARAMETERS {angstrom}
6.46680000 0.00000000 0.00000000
0.00000000 6.46680000 0.00000000
0.00000000 0.00000000 24.85010000

ATOMIC_POSITIONS {angstrom}
Li 4.85010000 1.61670000 -0.8083737500000012 0 0 0
Li 4.85010000 4.85016467 2.72133445
Li 1.61670000 1.61670000 2.72133445
Li 1.61670000 4.85010000 -0.8083737500000012 0 0 0
In 0.00000000 3.23340000 -2.425121260000001 0 0 0
In 6.39786391 0.06900076 0.85086742
In 3.30233609 3.16439924 0.85086742
In 3.23340000 0.00000000 -2.425121260000001 0 0 0
Ga 0.00000000 0.00000000 -2.425121260000001 0 0 0
Ga 6.43724672 3.20397606 0.88317255
Ga 3.26295328 0.02948861 0.88317255
Ga 3.23340000 3.23340000 -2.425121260000001 0 0 0
Pd 1.61670000 1.61670000 -0.8083737500000012 0 0 0
Pd 1.61670000 4.85010000 2.06578881
Pd 4.85010000 1.61670000 2.56105131
Pd 4.85010000 4.85010000 -0.8083737500000012 0 0 0
C 4.85010000 1.61670000 4.51600867
O 4.85010000 1.61670000 5.67278083
