&CONTROL
calculation = 'relax'
prefix = 'scf'
pseudo_dir = '/vol0004/mdt0/data/hp150275/u10028/POT_KKJUS'
outdir = './data'
tprnfor = .true.
nstep = 50
disk_io = 'non'
/
&SYSTEM
ibrav = 0
ecutwfc = 50.0
ecutrho = 400
occupations = 'smearing'
smearing = 'mp'
degauss = 0.01
assume_isolated = 'esm'
esm_bc = 'bc1'
input_dft = 'BEEF-VDW'
nosym = .true.
nspin = 1
ntyp = 4
nat = 34
/
&ELECTRONS
electron_maxstep = 200
mixing_beta = 0.1
conv_thr = 1e-06
/
&IONS
ion_dynamics = 'bfgs'
upscale = 1.0
/
&CELL
/

K_POINTS {automatic}
8 6 1 0 0 0

ATOMIC_SPECIES
C 12.01 C.pbe-n-rrkjus_psl.1.0.0.UPF
Li 6.941 Li.pbe-sl-rrkjus_psl.1.0.0.UPF
O 15.99 O.pbe-n-rrkjus_psl.1.0.0.UPF
Sb 121.7 Sb.pbe-n-rrkjus_psl.1.0.0.UPF

CELL_PARAMETERS {angstrom}
6.56971000 0.00000000 0.00000000
0.00000000 9.29097000 0.00000000
0.00000000 0.00000000 26.96820000

ATOMIC_POSITIONS {angstrom}
Li 1.64242750 0.00000000 -1.1612506899999993 0 0 0
Li 4.92728250 4.64548500 -1.1612506899999993 0 0 0
Li 4.92728250 0.00000000 -1.1612506899999993 0 0 0
Li 1.64242750 4.64548500 -1.1612506899999993 0 0 0
Li 4.92728250 6.96822750 -3.484021760000001 0 0 0
Li 1.64242750 2.32274250 -3.484021760000001 0 0 0
Li 1.64242750 6.96822750 -3.484021760000001 0 0 0
Li 4.92728250 2.32274250 -3.484021760000001 0 0 0
Li 0.00000000 6.96822750 -1.1612506899999993 0 0 0
Li 3.28485500 0.00000000 -3.484021760000001 0 0 0
Li 0.00000000 2.32274250 -1.1612506899999993 0 0 0
Li 3.28485500 4.64548500 -3.484021760000001 0 0 0
Li 1.85640295 4.64641410 3.51935010
Li 4.71219019 9.29022672 3.51935010
Li 4.71212450 4.64632119 3.51961978
Li 1.85633726 9.29013381 3.51935010
Li 4.88641890 2.32274250 1.12888885
Li 1.68164867 6.96822750 1.12619203
Li 1.68237134 2.32283541 1.12888885
Li 4.88714157 6.96822750 1.12619203
Li 6.56911873 2.32274250 3.21757594
Li 3.28426373 4.64334808 1.19523062
Li 6.56879024 6.96822750 3.17955078
Li 3.28426373 0.00222983 1.19523062
Sb 0.00000000 0.00000000 -3.484021760000001 0 0 0
Sb 3.28485500 2.32274250 -1.1612506899999993 0 0 0
Sb 3.28485500 6.96822750 -1.1612506899999993 0 0 0
Sb 0.00000000 4.64548500 -3.484021760000001 0 0 0
Sb 6.56911873 4.64102533 1.29123742
Sb 3.28432942 6.96822750 3.43493963
Sb 3.28406663 2.32274250 3.44518755
Sb 6.56918442 0.00445967 1.29123742
C 3.31441869 2.32069849 8.09099936
O 3.28084748 2.32376451 9.22555154
