&CONTROL
calculation = 'relax'
prefix = 'scf'
pseudo_dir = '/vol0403/data/hp230205/u10028/POT_HYBRID_KKJUS_GBRV'
outdir = './data'
tprnfor = .true.
nstep = 70
disk_io = 'non'
/
&SYSTEM
ibrav = 0
ecutwfc = 50.0
ecutrho = 400
occupations = 'smearing'
smearing = 'mp'
degauss = 0.01
assume_isolated = 'esm'
esm_bc = 'bc1'
input_dft = 'BEEF-VDW'
nosym = .true.
nspin = 1
ntyp = 6
nat = 34
/
&ELECTRONS
electron_maxstep = 200
mixing_beta = 0.1
conv_thr = 1e-06
/
&IONS
ion_dynamics = 'bfgs'
upscale = 1.0
/
&CELL
/

K_POINTS {automatic}
6 6 1 0 0 0

ATOMIC_SPECIES
Al 26.98 Al.pbe-nl-rrkjus_psl.1.0.0.UPF
C 12.01 C.pbe-n-rrkjus_psl.1.0.0.UPF
Li 6.941 Li.pbe-sl-rrkjus_psl.1.0.0.UPF
O 15.99 O.pbe-n-rrkjus_psl.1.0.0.UPF
Pd 106.4 Pd.pbe-n-rrkjus_psl.1.0.0.UPF
Sn 118.7 Sn.pbe-dn-rrkjus_psl.1.0.0.UPF


CELL_PARAMETERS {angstrom}
6.48942000 0.00000000 0.00000000
-0.00000000 9.17742000 0.00000000
0.00000000 0.00000000 26.88310000

ATOMIC_POSITIONS {angstrom}
Li 4.86706500 0.00000000 -1.1471018799999975 0 0 0
Li 4.86706500 4.58871000 -1.1471018799999975 0 0 0
Li 1.62235500 2.29435500 -3.4415744599999982 0 0 0
Li 1.62235500 6.88306500 -3.4415744599999982 0 0 0
Li 4.49587018 4.58806758 4.15075064
Li 4.49548081 0.00064242 4.15128830
Li 1.45200773 6.88306500 1.18527588
Li 1.46161207 2.29435500 1.17075900
Al 0.00000000 0.00000000 -3.4415744599999982 0 0 0
Al 0.00000000 4.58871000 -3.4415744599999982 0 0 0
Al 3.24471000 6.88306500 -1.1471018799999975 0 0 0
Al 3.24471000 2.29435500 -1.1471018799999975 0 0 0
Al 6.26034347 4.58834290 1.36189785
Al 6.26034347 0.00036710 1.36189785
Al 2.95476271 2.29435500 3.46899522
Al 2.95508719 6.88306500 3.47759782
Sn 0.00000000 2.29435500 -1.1471018799999975 0 0 0
Sn 0.00000000 6.88306500 -1.1471018799999975 0 0 0
Sn 3.24471000 4.58871000 -3.4415744599999982 0 0 0
Sn 3.24471000 0.00000000 -3.4415744599999982 0 0 0
Sn 6.25774771 6.88315677 3.60394839
Sn 6.26079773 2.29426323 3.59480813
Sn 3.24282807 9.17530919 1.20221223
Sn 3.24282807 4.59082081 1.20221223
Pd 1.62235500 0.00000000 -1.1471018799999975 0 0 0
Pd 1.62235500 4.58871000 -1.1471018799999975 0 0 0
Pd 4.86706500 2.29435500 -3.4415744599999982 0 0 0
Pd 4.86706500 6.88306500 -3.4415744599999982 0 0 0
Pd 1.50619438 4.58705806 3.24747848
Pd 1.50625928 0.00165194 3.24774731
Pd 4.85421595 6.88306500 1.01107339
Pd 4.84577970 2.29435500 1.01134222
C 0.69177217 2.29435500 7.46032908
O 6.24535291 2.29426323 8.10471699
