&CONTROL
calculation = 'relax'
prefix = 'scf'
pseudo_dir = '/vol0004/mdt0/data/hp150275/u10028/POT_KKJUS'
outdir = './data'
tprnfor = .true.
nstep = 50
disk_io = 'non'
/
&SYSTEM
ibrav = 0
ecutwfc = 50.0
ecutrho = 400
occupations = 'smearing'
smearing = 'mp'
degauss = 0.01
assume_isolated = 'esm'
esm_bc = 'bc1'
input_dft = 'BEEF-VDW'
nosym = .true.
nspin = 1
ntyp = 3
nat = 33
/
&ELECTRONS
electron_maxstep = 200
mixing_beta = 0.1
conv_thr = 1e-06
/
&IONS
ion_dynamics = 'bfgs'
upscale = 1.0
/
&CELL
/

K_POINTS {automatic}
6 6 1 0 0 0

ATOMIC_SPECIES
C 12.01 C.pbe-n-rrkjus_psl.1.0.0.UPF
Ca 40.07 Ca.pbe-spn-rrkjus_psl.1.0.0.UPF
Pb 207.2 Pb.pbe-dn-rrkjus_psl.1.0.0.UPF

CELL_PARAMETERS {angstrom}
10.04260000 0.00000000 0.00000000
0.00000000 10.04260000 0.00000000
0.00000000 0.00000000 27.53190000

ATOMIC_POSITIONS {angstrom}
Ca 0.00000000 0.00000000 -3.7660886 0 0 0
Ca 0.03133291 0.03133291 1.19020404
Ca 0.00000000 5.02130000 -3.7660886 0 0 0
Ca 0.02842056 4.98665303 1.18745085
Ca 5.02130000 0.00000000 -3.7660886 0 0 0
Ca 4.98665303 0.02862141 1.18772617
Ca 5.02130000 5.02130000 -3.7660886 0 0 0
Ca 4.98966581 4.98956538 1.18579893
Pb 0.00000000 2.51065000 -1.25545464 0 0 0
Pb 2.51065000 0.00000000 -1.25545464 0 0 0
Pb 2.51065000 2.51065000 -3.7660886 0 0 0
Pb 0.08968042 2.51235724 4.03232207
Pb 2.51265852 0.08957999 4.03177144
Pb 2.51275895 2.51275895 1.69458844
Pb 0.00000000 7.53195000 -1.25545464 0 0 0
Pb 2.51065000 5.02130000 -1.25545464 0 0 0
Pb 2.51065000 7.53195000 -3.7660886 0 0 0
Pb 9.96125494 7.52853552 3.69120183
Pb 2.51165426 4.95833290 4.04498675
Pb 2.50864148 7.52532188 1.41321243
Pb 5.02130000 2.51065000 -1.25545464 0 0 0
Pb 7.53195000 0.00000000 -1.25545464 0 0 0
Pb 7.53195000 2.51065000 -3.7660886 0 0 0
Pb 4.95823247 2.51195554 4.04526207
Pb 7.52853552 9.96115451 3.69147715
Pb 7.52542231 2.50874191 1.41348775
Pb 5.02130000 7.53195000 -1.25545464 0 0 0
Pb 7.53195000 5.02130000 -1.25545464 0 0 0
Pb 7.53195000 7.53195000 -3.7660886 0 0 0
Pb 5.10304676 7.52853552 3.69147715
Pb 7.52873637 5.10324762 3.69147715
Pb 7.53114659 7.53114659 1.38182606
C 2.53163903 2.53153861 4.37977465
