&CONTROL
calculation = 'relax'
prefix = 'scf'
pseudo_dir = '/vol0004/mdt0/data/hp150275/u10028/POT_KKJUS'
outdir = './data'
tprnfor = .true.
nstep = 50
disk_io = 'non'
/
&SYSTEM
ibrav = 0
ecutwfc = 50.0
ecutrho = 400
occupations = 'smearing'
smearing = 'mp'
degauss = 0.01
assume_isolated = 'esm'
esm_bc = 'bc1'
input_dft = 'BEEF-VDW'
nosym = .true.
nspin = 1
ntyp = 3
nat = 16
/
&ELECTRONS
electron_maxstep = 200
mixing_beta = 0.1
conv_thr = 1e-06
/
&IONS
ion_dynamics = 'bfgs'
upscale = 1.0
/
&CELL
/

K_POINTS {automatic}
10 10 2 0  0  0

ATOMIC_SPECIES
Ga 69.72 Ga.pbe-dnl-rrkjus_psl.1.0.0.UPF
Ni 58.69 Ni.pbe-spn-rrkjus_psl.1.0.0.UPF
V 50.94 V.pbe-spnl-rrkjus_psl.1.0.0.UPF

CELL_PARAMETERS {angstrom}
5.81624000 0.00000000 0.00000000
-0.00000000 5.81624000 0.00000000
0.00000000 0.00000000 24.36220000

ATOMIC_POSITIONS {angstrom}
V 0.00000000 0.00000000 -2.1811477700000026 0 0 0
V 2.90812000 2.90812000 -2.1811477700000026 0 0 0
V 2.90812000 -0.00000000 0.72696805
V 0.00000000 2.90812000 0.72696805
Ga 0.00000000 0.00000000 0.72696805
Ga 2.90812000 0.00000000 -2.1811477700000026 0 0 0
Ga 0.00000000 2.90812000 -2.1811477700000026 0 0 0
Ga 2.90812000 2.90812000 0.72696805
Ni 1.45406000 1.45406000 -0.72696805 0 0 0
Ni 4.36218000 4.36218000 2.18114777
Ni 4.36218000 1.45406000 -0.72696805 0 0 0
Ni 1.45406000 4.36218000 2.18114777
Ni 4.36218000 4.36218000 -0.72696805 0 0 0
Ni 1.45406000 1.45406000 2.18114777
Ni 1.45406000 4.36218000 -0.72696805 0 0 0
Ni 4.36218000 1.45406000 2.18114777
