&CONTROL
calculation = 'relax'
prefix = 'scf'
pseudo_dir = '/vol0403/data/hp230205/u10028/POT_HYBRID_KKJUS_GBRV'
outdir = './data'
tprnfor = .true.
nstep = 50
disk_io = 'non'
/
&SYSTEM
ibrav = 0
ecutwfc = 50.0
ecutrho = 400
occupations = 'smearing'
smearing = 'mp'
degauss = 0.01
assume_isolated = 'esm'
esm_bc = 'bc1'
input_dft = 'BEEF-VDW'
nosym = .true.
nspin = 1
ntyp = 5
nat = 33
/
&ELECTRONS
electron_maxstep = 200
mixing_beta = 0.1
conv_thr = 1e-06
/
&IONS
ion_dynamics = 'bfgs'
upscale = 1.0
/
&CELL
/

K_POINTS {automatic}
6 6 1 0 0 0

ATOMIC_SPECIES
Ag 107.8 Ag.pbe-n-rrkjus_psl.1.0.0.UPF
C 12.01 C.pbe-n-rrkjus_psl.1.0.0.UPF
In 114.8 In.pbe-dn-rrkjus_psl.1.0.0.UPF
Li 6.941 Li.pbe-sl-rrkjus_psl.1.0.0.UPF
Y 88.90 Y.pbe-spn-rrkjus_psl.1.0.0.UPF


CELL_PARAMETERS {angstrom}
6.90709000 0.00000000 0.00000000
0.00000000 9.76810000 0.00000000
0.00000000 0.00000000 27.32610000

ATOMIC_POSITIONS {angstrom}
Li 0.00000000 2.44202500 -1.220930150000001 0 0 0
Li 0.00000000 7.32607500 -1.220930150000001 0 0 0
Li 3.45354500 4.88405000 -3.6630636999999986 0 0 0
Li 3.45354500 0.00000000 -3.6630636999999986 0 0 0
Li 0.81192843 7.73223260 5.23158185
Li 0.81192843 2.03586740 5.23158185
Li 3.56088118 0.00000000 1.34744999
Li 3.50583167 4.88405000 1.36439217
Y 5.18031750 0.00000000 -1.220930150000001 0 0 0
Y 5.18031750 4.88405000 -1.220930150000001 0 0 0
Y 1.72677250 2.44202500 -3.6630636999999986 0 0 0
Y 1.72677250 7.32607500 -3.6630636999999986 0 0 0
Y 5.49224168 4.88405000 3.68492459
Y 5.46716895 0.00000000 3.79805464
Y 1.68077128 7.31923733 1.38543327
Y 1.68077128 2.44886267 1.38543327
In 1.72677250 0.00000000 -1.220930150000001 0 0 0
In 1.72677250 4.88405000 -1.220930150000001 0 0 0
In 5.18031750 2.44202500 -3.6630636999999986 0 0 0
In 5.18031750 7.32607500 -3.6630636999999986 0 0 0
In 1.74770098 4.88405000 3.82073530
In 1.98185133 0.00000000 3.65213326
In 5.20559745 7.31025068 1.25399473
In 5.20559745 2.45784932 1.25399473
Ag 0.00000000 0.00000000 -3.6630636999999986 0 0 0
Ag 0.00000000 4.88405000 -3.6630636999999986 0 0 0
Ag 3.45354500 7.32607500 -1.220930150000001 0 0 0
Ag 3.45354500 2.44202500 -1.220930150000001 0 0 0
Ag 0.01947799 4.88405000 1.16299882
Ag 6.89755822 0.00000000 1.14414381
Ag 3.53539402 2.55152540 3.71061112
Ag 3.53539402 7.21657460 3.71061112
C 0.32622186 0.00000000 5.04057241
