&CONTROL
calculation = 'relax'
prefix = 'scf'
pseudo_dir = '/vol0004/mdt0/data/hp150275/u10028/POT_HYBRID_KKJUS_GBRV'
outdir = './data'
tprnfor = .true.
nstep = 50
disk_io = 'non'
/
&SYSTEM
ibrav = 0
ecutwfc = 50.0
ecutrho = 400
occupations = 'smearing'
smearing = 'mp'
degauss = 0.01
assume_isolated = 'esm'
esm_bc = 'bc1'
input_dft = 'BEEF-VDW'
nosym = .true.
nspin = 2
ntyp = 4
nat = 17
starting_magnetization(1) = 0.1
starting_magnetization(2) = 0.1
starting_magnetization(3) = 0.1
starting_magnetization(4) = 0.1
/
&ELECTRONS
electron_maxstep = 200
mixing_beta = 0.1
conv_thr = 1e-06
/
&IONS
ion_dynamics = 'bfgs'
upscale = 1.0
/
&CELL
/

K_POINTS {automatic}
10 10 2 0  0  0

ATOMIC_SPECIES
C 12.01 C.pbe-n-rrkjus_psl.1.0.0.UPF
Co 58.93 co_pbe_v1.2.uspp.F.UPF
Sc 44.95 Sc.pbe-spn-rrkjus_psl.1.0.0.UPF
Sn 118.7 Sn.pbe-dn-rrkjus_psl.1.0.0.UPF

CELL_PARAMETERS {angstrom}
6.22913000 0.00000000 0.00000000
-0.00000000 6.22913000 0.00000000
0.00000000 0.00000000 24.67180000

ATOMIC_POSITIONS {angstrom}
Sc 0.00000000 0.00000000 -2.3359260200000023 0 0 0
Sc 3.11456500 3.11456500 -2.3359260200000023 0 0 0
Sc 3.11456500 -0.00000000 0.77864201
Sc 0.00000000 3.11456500 0.77864201
Co 1.55728250 1.55728250 -0.7786420100000022 0 0 0
Co 4.67184750 4.67184750 2.33592602
Co 4.67184750 1.55728250 -0.7786420100000022 0 0 0
Co 1.55728250 4.67184750 2.33592602
Co 4.67184750 4.67184750 -0.7786420100000022 0 0 0
Co 1.55728250 1.55728250 2.33592602
Co 1.55728250 4.67184750 -0.7786420100000022 0 0 0
Co 4.67184750 1.55728250 2.33592602
Sn 0.00000000 0.00000000 0.77864201
Sn 3.11456500 0.00000000 -2.3359260200000023 0 0 0
Sn 0.00000000 3.11456500 -2.3359260200000023 0 0 0
Sn 3.11456500 3.11456500 0.77864201
C 0.00000000 3.11456500 3.13603250
