&CONTROL
calculation = 'relax'
prefix = 'scf'
pseudo_dir = '/vol0004/mdt0/data/hp150275/u10028/POT_HYBRID_KKJUS_GBRV'
outdir = './data'
tprnfor = .true.
nstep = 50
disk_io = 'non'
/
&SYSTEM
ibrav = 0
ecutwfc = 50.0
ecutrho = 400
occupations = 'smearing'
smearing = 'mp'
degauss = 0.01
assume_isolated = 'esm'
esm_bc = 'bc1'
input_dft = 'BEEF-VDW'
nosym = .true.
nspin = 2
ntyp = 5
nat = 34
starting_magnetization(1) = 0.0
starting_magnetization(2) = 0.0
starting_magnetization(3) = 0.001
starting_magnetization(4) = 0.0
starting_magnetization(5) = 0.0
/
&ELECTRONS
electron_maxstep = 200
mixing_beta = 0.1
conv_thr = 1e-06
/
&IONS
ion_dynamics = 'bfgs'
upscale = 1.0
/
&CELL
/

K_POINTS {automatic}
9 6 2 0  0  0

ATOMIC_SPECIES
C 12.01 C.pbe-n-rrkjus_psl.1.0.0.UPF
Ga 69.72 Ga.pbe-dnl-rrkjus_psl.1.0.0.UPF
Ni 58.69 ni_pbe_v1.4.uspp.F.UPF
O 15.99 O.pbe-n-rrkjus_psl.1.0.0.UPF
Ti 47.86 Ti.pbe-spn-rrkjus_psl.1.0.0.UPF

CELL_PARAMETERS {angstrom}
5.91339000 0.00000000 0.00000000
0.00000000 8.36280000 0.00000000
0.00000000 0.00000000 26.27210000

ATOMIC_POSITIONS {angstrom}
Ti 0.00000000 0.00000000 23.13599942
Ti 2.95669500 2.09070000 25.22673314
Ti 2.95669500 6.27210000 25.22673314
Ti 0.00000000 4.18140000 23.13599942
Ti 0.00041394 4.18206902 1.04720591
Ti 2.95716807 6.27143098 3.16079635
Ti 2.95728634 2.09153628 3.15948275
Ti 0.00035480 8.36104381 1.04957039
Ga 0.00000000 6.27210000 25.22673314
Ga 2.95669500 0.00000000 23.13599942
Ga 0.00000000 2.09070000 25.22673314
Ga 2.95669500 4.18140000 23.13599942
Ga 0.00088701 2.08986372 3.16368628
Ga 2.95704980 4.18190177 1.03801067
Ga 0.00047307 6.27226726 3.18917022
Ga 2.95704980 8.36121107 1.03617162
Ni 1.47834750 0.00000000 25.22673314
Ni 4.43504250 4.18140000 25.22673314
Ni 4.43504250 0.00000000 25.22673314
Ni 1.47834750 4.18140000 25.22673314
Ni 4.43504250 6.27210000 23.13599942
Ni 1.47834750 2.09070000 23.13599942
Ni 1.47834750 6.27210000 23.13599942
Ni 4.43504250 2.09070000 23.13599942
Ni 1.45203291 4.18349070 3.02155422
Ni 4.45644897 8.36121107 3.02339327
Ni 4.46265803 4.18357433 3.02129150
Ni 1.45794630 8.36112744 3.02365599
Ni 4.37425285 2.09070000 1.07190168
Ni 1.53487951 6.27109646 1.07899515
Ni 1.53990589 2.09070000 1.07190168
Ni 4.37922010 6.27101284 1.07873243
C 5.88057069 2.09446326 7.14890113
O 0.00727347 2.08819116 8.28306769
