&CONTROL
calculation = 'relax'
prefix = 'scf'
pseudo_dir = '/vol0004/mdt0/data/hp150275/u10028/POT_KKJUS'
outdir = './data'
tprnfor = .true.
nstep = 50
disk_io = 'non'
/
&SYSTEM
ibrav = 0
ecutwfc = 50.0
ecutrho = 400
occupations = 'smearing'
smearing = 'mp'
degauss = 0.01
assume_isolated = 'esm'
esm_bc = 'bc1'
input_dft = 'BEEF-VDW'
nosym = .true.
nspin = 1
ntyp = 5
nat = 34
/
&ELECTRONS
electron_maxstep = 200
mixing_beta = 0.1
conv_thr = 1e-06
/
&IONS
ion_dynamics = 'bfgs'
upscale = 1.0
/
&CELL
/

K_POINTS {automatic}
8 6 1 0 0 0

ATOMIC_SPECIES
Ag 107.8 Ag.pbe-n-rrkjus_psl.1.0.0.UPF
C 12.01 C.pbe-n-rrkjus_psl.1.0.0.UPF
Li 6.941 Li.pbe-sl-rrkjus_psl.1.0.0.UPF
O 15.99 O.pbe-n-rrkjus_psl.1.0.0.UPF
Pb 207.2 Pb.pbe-dn-rrkjus_psl.1.0.0.UPF

CELL_PARAMETERS {angstrom}
6.84524000 0.00000000 0.00000000
0.00000000 9.68063000 0.00000000
0.00000000 0.00000000 27.26050000

ATOMIC_POSITIONS {angstrom}
Li 0.00000000 7.26047250 -1.2100935899999996 0 0 0
Li 3.42262000 0.00000000 -3.6302807799999997 0 0 0
Li 0.00000000 2.42015750 -1.2100935899999996 0 0 0
Li 3.42262000 4.84031500 -3.6302807799999997 0 0 0
Li 1.71131000 2.42015750 -3.6302807799999997 0 0 0
Li 1.71131000 7.26047250 -3.6302807799999997 0 0 0
Li 5.13393000 4.84031500 -1.2100935899999996 0 0 0
Li 5.13393000 0.00000000 -1.2100935899999996 0 0 0
Li 0.12143456 2.36488110 3.50651811
Li 3.40270035 4.81959845 1.06016084
Li 0.11801194 7.19909731 3.51033458
Li 3.58067659 9.63503423 1.13321899
Li 1.89695291 7.26424795 1.37065794
Li 1.90982196 2.33448392 1.36874970
Li 5.02844485 9.62177177 3.63491507
Li 4.87442695 4.76170828 3.52941693
Ag 1.71131000 0.00000000 -1.2100935899999996 0 0 0
Ag 1.71131000 4.84031500 -1.2100935899999996 0 0 0
Ag 5.13393000 7.26047250 -3.6302807799999997 0 0 0
Ag 5.13393000 2.42015750 -3.6302807799999997 0 0 0
Ag 1.94658090 4.77545478 3.42882569
Ag 1.94945590 9.59708616 3.23173228
Ag 4.93733471 2.43448483 1.51295775
Ag 4.98463532 7.16724803 1.44671474
Pb 0.00000000 0.00000000 -3.6302807799999997 0 0 0
Pb 3.42262000 2.42015750 -1.2100935899999996 0 0 0
Pb 3.42262000 7.26047250 -1.2100935899999996 0 0 0
Pb 0.00000000 4.84031500 -3.6302807799999997 0 0 0
Pb 6.83839476 4.77748771 1.24307880
Pb 3.48853966 7.22881684 4.09452710
Pb 3.41262595 2.30215062 4.15886188
Pb 6.75803164 9.66175277 1.17329192
C 6.11971301 0.04627341 5.39730640
O 6.62968339 0.07512169 6.42202859
