&CONTROL
calculation = 'relax'
prefix = 'scf'
pseudo_dir = '/vol0403/data/hp230205/u10028/POT_HYBRID_KKJUS_GBRV'
outdir = './data'
tprnfor = .true.
nstep = 50
disk_io = 'non'
/
&SYSTEM
ibrav = 0
ecutwfc = 50.0
ecutrho = 400
occupations = 'smearing'
smearing = 'mp'
degauss = 0.01
assume_isolated = 'esm'
esm_bc = 'bc1'
input_dft = 'BEEF-VDW'
nosym = .true.
nspin = 2
ntyp = 6
nat = 34
starting_magnetization(1) = 0.0
starting_magnetization(2) = 0.0
starting_magnetization(3) = 0.0
starting_magnetization(4) = 0.1
starting_magnetization(5) = 0.0
starting_magnetization(6) = 0.0
/
&ELECTRONS
electron_maxstep = 200
mixing_beta = 0.1
conv_thr = 1e-06
/
&IONS
ion_dynamics = 'bfgs'
upscale = 1.0
/
&CELL
/

K_POINTS {automatic}
9 6 2 0  0  0

ATOMIC_SPECIES
C 12.01 C.pbe-n-rrkjus_psl.1.0.0.UPF
Ge 72.64 Ge.pbe-dn-rrkjus_psl.1.0.0.UPF
Li 6.941 Li.pbe-sl-rrkjus_psl.1.0.0.UPF
Mn 54.93 mn_pbe_v1.5.uspp.F.UPF
O 15.99 O.pbe-n-rrkjus_psl.1.0.0.UPF
Pd 106.4 Pd.pbe-n-rrkjus_psl.1.0.0.UPF


CELL_PARAMETERS {angstrom}
6.14713000 0.00000000 0.00000000
0.00000000 8.69336000 0.00000000
0.00000000 0.00000000 26.52000000

ATOMIC_POSITIONS {angstrom}
Li 0.00000000 2.17334000 -1.0867895999999995 0 0 0
Li 0.00000000 6.52002000 -1.0867895999999995 0 0 0
Li 3.07356500 4.34668000 -3.2601036000000008 0 0 0
Li 3.07356500 0.00000000 -3.2601036000000008 0 0 0
Li 6.03457605 6.52002000 3.62104080
Li 5.99695561 2.17334000 3.69476640
Li 3.05155827 0.01599578 0.95153760
Li 3.05155827 4.33068422 0.95153760
Mn 1.53678250 0.00000000 -1.0867895999999995 0 0 0
Mn 1.53678250 4.34668000 -1.0867895999999995 0 0 0
Mn 4.61034750 2.17334000 -3.2601036000000008 0 0 0
Mn 4.61034750 6.52002000 -3.2601036000000008 0 0 0
Mn 1.69113693 4.33798664 3.18611280
Mn 1.69107546 0.00878029 3.18611280
Mn 4.62245735 6.52002000 1.19048280
Mn 4.66450372 2.17334000 1.20029520
Ge 0.00000000 0.00000000 -3.2601036000000008 0 0 0
Ge 0.00000000 4.34668000 -3.2601036000000008 0 0 0
Ge 3.07356500 6.52002000 -1.0867895999999995 0 0 0
Ge 3.07356500 2.17334000 -1.0867895999999995 0 0 0
Ge 0.04149313 4.35815524 1.08519840
Ge 0.04149313 8.68188476 1.08519840
Ge 3.09016225 2.17334000 3.35398440
Ge 3.04516526 6.52002000 3.42108000
Pd 4.61034750 0.00000000 -1.0867895999999995 0 0 0
Pd 4.61034750 4.34668000 -1.0867895999999995 0 0 0
Pd 1.53678250 2.17334000 -3.2601036000000008 0 0 0
Pd 1.53678250 6.52002000 -3.2601036000000008 0 0 0
Pd 4.50068270 4.37362942 3.01320240
Pd 4.50074417 8.66649752 3.01320240
Pd 1.53383188 6.52002000 1.16051520
Pd 1.49393700 2.17334000 1.19154360
C 0.06208601 2.17325307 5.80310640
O 0.16037862 2.17325307 6.93789720
