&CONTROL
calculation = 'relax'
prefix = 'scf'
pseudo_dir = '/vol0004/mdt0/data/hp150275/u10028/POT_HYBRID_KKJUS_GBRV'
outdir = './data'
tprnfor = .true.
nstep = 50
disk_io = 'non'
/
&SYSTEM
ibrav = 0
ecutwfc = 50.0
ecutrho = 400
occupations = 'smearing'
smearing = 'mp'
degauss = 0.01
assume_isolated = 'esm'
esm_bc = 'bc1'
input_dft = 'BEEF-VDW'
nosym = .true.
nspin = 2
ntyp = 4
nat = 33
starting_magnetization(1) = 0.0
starting_magnetization(2) = 0.1
starting_magnetization(3) = 0.0
starting_magnetization(4) = 0.0
/
&ELECTRONS
electron_maxstep = 300
mixing_beta = 0.1
conv_thr = 1e-06
/
&IONS
ion_dynamics = 'bfgs'
upscale = 1.0
/
&CELL
/

K_POINTS {automatic}
8 6 1 0 0 0

ATOMIC_SPECIES
C 12.01 C.pbe-n-rrkjus_psl.1.0.0.UPF
Co 58.93 co_pbe_v1.2.uspp.F.UPF
Sc 44.95 Sc.pbe-spn-rrkjus_psl.1.0.0.UPF
Sn 118.7 Sn.pbe-dn-rrkjus_psl.1.0.0.UPF

CELL_PARAMETERS {angstrom}
6.22913000 0.00000000 0.00000000
0.00000000 8.80931000 0.00000000
0.00000000 0.00000000 26.60700000

ATOMIC_POSITIONS {angstrom}
Sc 0.00000000 0.00000000 -3.3035251199999998 0 0 0
Sc 3.11456500 2.20232750 -1.1012637299999994 0 0 0
Sc 3.11456500 6.60698250 -1.1012637299999994 0 0 0
Sc 0.00000000 4.40465500 -3.3035251199999998 0 0 0
Sc 0.00000000 4.40465500 1.06028895
Sc 3.11456500 6.52443927 3.36631764
Sc 3.11456500 2.28478264 3.36631764
Sc 0.00000000 0.00000000 1.17230442
Co 1.55728250 0.00000000 -1.1012637299999994 0 0 0
Co 4.67184750 4.40465500 -1.1012637299999994 0 0 0
Co 4.67184750 0.00000000 -1.1012637299999994 0 0 0
Co 1.55728250 4.40465500 -1.1012637299999994 0 0 0
Co 4.67184750 6.60698250 -3.3035251199999998 0 0 0
Co 1.55728250 2.20232750 -3.3035251199999998 0 0 0
Co 1.55728250 6.60698250 -3.3035251199999998 0 0 0
Co 4.67184750 2.20232750 -3.3035251199999998 0 0 0
Co 1.45830162 4.40465500 3.12419394
Co 4.52863980 0.00000000 3.25377003
Co 4.77076608 4.40465500 3.12419394
Co 1.70055249 0.00000000 3.25377003
Co 4.66337588 2.20109420 1.17017586
Co 1.56575412 6.60821580 1.17017586
Co 1.56575412 2.20109420 1.17017586
Co 4.66337588 6.60821580 1.17017586
Sn 0.00000000 6.60698250 -1.1012637299999994 0 0 0
Sn 3.11456500 0.00000000 -3.3035251199999998 0 0 0
Sn 0.00000000 2.20232750 -1.1012637299999994 0 0 0
Sn 3.11456500 4.40465500 -3.3035251199999998 0 0 0
Sn 0.00000000 2.30892015 3.46263498
Sn 3.11456500 4.40465500 1.09620840
Sn 0.00000000 6.50038985 3.46263498
Sn 3.11456500 0.00000000 1.06108716
C 0.00000000 0.00000000 3.65101254
