&CONTROL
calculation = 'relax'
prefix = 'scf'
pseudo_dir = '/vol0004/mdt0/data/hp150275/u10028/POT_HYBRID_KKJUS_GBRV'
outdir = './data'
tprnfor = .true.
nstep = 50
disk_io = 'non'
/
&SYSTEM
ibrav = 0
ecutwfc = 50.0
ecutrho = 400
occupations = 'smearing'
smearing = 'mp'
degauss = 0.01
assume_isolated = 'esm'
esm_bc = 'bc1'
input_dft = 'BEEF-VDW'
nosym = .true.
nspin = 2
ntyp = 4
nat = 33
starting_magnetization(1) = 0.0
starting_magnetization(2) = 0.1
starting_magnetization(3) = 0.0
starting_magnetization(4) = 0.0
/
&ELECTRONS
electron_maxstep = 200
mixing_beta = 0.1
conv_thr = 1e-06
/
&IONS
ion_dynamics = 'bfgs'
upscale = 1.0
/
&CELL
/

K_POINTS {automatic}
9 6 2 0  0  0

ATOMIC_SPECIES
C 12.01 C.pbe-n-rrkjus_psl.1.0.0.UPF
Fe 55.84 fe_pbe_v1.5.uspp.F.UPF
Sn 118.7 Sn.pbe-dn-rrkjus_psl.1.0.0.UPF
V 50.94 V.pbe-spnl-rrkjus_psl.1.0.0.UPF

CELL_PARAMETERS {angstrom}
6.09904000 0.00000000 0.00000000
0.00000000 8.62534000 0.00000000
0.00000000 0.00000000 26.46900000

ATOMIC_POSITIONS {angstrom}
V 0.00000000 0.00000000 23.23448820
V 3.04952000 2.15633500 25.39091763
V 3.04952000 6.46900500 25.39091763
V 0.00000000 4.31267000 23.23448820
V 0.00000000 4.31267000 1.07067105
V 3.04952000 6.58924224 3.09131451
V 3.04952000 2.03609776 3.09104982
V 0.00000000 0.00000000 1.00423386
Fe 1.52476000 0.00000000 25.39091763
Fe 4.57428000 4.31267000 25.39091763
Fe 4.57428000 0.00000000 25.39091763
Fe 1.52476000 4.31267000 25.39091763
Fe 4.57428000 6.46900500 23.23448820
Fe 1.52476000 2.15633500 23.23448820
Fe 1.52476000 6.46900500 23.23448820
Fe 4.57428000 2.15633500 23.23448820
Fe 1.81184181 4.31267000 3.32106543
Fe 4.48816156 0.00000000 3.21227784
Fe 4.28719819 4.31267000 3.32106543
Fe 1.61087844 0.00000000 3.21227784
Fe 4.72974453 2.15883635 1.29645162
Fe 1.36935646 6.46658990 1.29645162
Fe 1.36929547 2.15883635 1.29645162
Fe 4.72968354 6.46658990 1.29645162
Sn 0.00000000 6.46900500 25.39091763
Sn 3.04952000 0.00000000 23.23448820
Sn 0.00000000 2.15633500 25.39091763
Sn 3.04952000 4.31267000 23.23448820
Sn 0.00000000 2.31486875 3.77897913
Sn 3.04952000 4.31267000 1.00873359
Sn 0.00000000 6.31047125 3.77897913
Sn 3.04952000 0.00000000 1.00476324
C 0.00000000 0.00000000 4.01772951
