&CONTROL
calculation = 'relax'
prefix = 'scf'
pseudo_dir = '/vol0004/mdt0/data/hp150275/u10028/POT_KKJUS'
outdir = './data'
tprnfor = .true.
nstep = 50
disk_io = 'non'
/
&SYSTEM
ibrav = 0
ecutwfc = 50.0
ecutrho = 400
occupations = 'smearing'
smearing = 'mp'
degauss = 0.01
assume_isolated = 'esm'
esm_bc = 'bc1'
input_dft = 'BEEF-VDW'
nosym = .true.
nspin = 1
ntyp = 4
nat = 18
/
&ELECTRONS
electron_maxstep = 200
mixing_beta = 0.1
conv_thr = 1e-06
/
&IONS
ion_dynamics = 'bfgs'
upscale = 1.0
/
&CELL
/

K_POINTS {automatic}
6 8 1 0 0 0

ATOMIC_SPECIES
Ag 107.8 Ag.pbe-n-rrkjus_psl.1.0.0.UPF
C 12.01 C.pbe-n-rrkjus_psl.1.0.0.UPF
In 114.8 In.pbe-dn-rrkjus_psl.1.0.0.UPF
O 15.99 O.pbe-n-rrkjus_psl.1.0.0.UPF

CELL_PARAMETERS {angstrom}
8.59601000 0.00000000 0.00000000
0.00000000 6.07830000 0.00000000
0.00000000 0.00000000 24.55870000

ATOMIC_POSITIONS {angstrom}
In 0.00000000 0.00000000 -2.279292950000002 0 0 0
In 0.00893985 3.07713937 0.90547927
In 4.29800500 0.00000000 -2.279292950000002 0 0 0
In 4.28906515 3.07713938 0.90547927
Ag 0.00000000 3.03915000 -2.279292950000002 0 0 0
Ag 2.14900250 4.55872500 -0.7598461800000003 0 0 0
Ag 2.14900250 1.51957500 -0.7598461800000003 0 0 0
Ag 0.00851005 0.03884034 0.91284688
Ag 2.14900250 1.52990811 2.30532517
Ag 2.14900250 4.65634250 2.22624616
Ag 4.29800500 3.03915000 -2.279292950000002 0 0 0
Ag 6.44700750 4.55872500 -0.7598461800000003 0 0 0
Ag 6.44700750 1.51957500 -0.7598461800000003 0 0 0
Ag 4.28949495 0.03884034 0.91309247
Ag 6.44700750 1.51872404 2.23680640
Ag 6.44700750 4.63044894 2.22943879
C 2.14900250 1.65955825 4.57626816
O 2.14900250 1.39041113 5.68484788
