&CONTROL
calculation = 'relax'
prefix = 'scf'
pseudo_dir = '/vol0403/data/hp230205/u10028/POT_HYBRID_KKJUS_GBRV'
outdir = './data'
tprnfor = .true.
nstep = 50
disk_io = 'non'
/
&SYSTEM
ibrav = 0
ecutwfc = 50.0
ecutrho = 400
occupations = 'smearing'
smearing = 'mp'
degauss = 0.01
assume_isolated = 'esm'
esm_bc = 'bc1'
input_dft = 'BEEF-VDW'
nosym = .true.
nspin = 1
ntyp = 5
nat = 33
/
&ELECTRONS
electron_maxstep = 200
mixing_beta = 0.1
conv_thr = 1e-06
/
&IONS
ion_dynamics = 'bfgs'
upscale = 1.0
/
&CELL
/

K_POINTS {automatic}
6 6 1 0 0 0

ATOMIC_SPECIES
C 12.01 C.pbe-n-rrkjus_psl.1.0.0.UPF
Cu 63.54 Cu.pbe-dn-rrkjus_psl.1.0.0.UPF
In 114.8 In.pbe-dn-rrkjus_psl.1.0.0.UPF
Li 6.941 Li.pbe-sl-rrkjus_psl.1.0.0.UPF
Y 88.90 Y.pbe-spn-rrkjus_psl.1.0.0.UPF


CELL_PARAMETERS {angstrom}
6.68415000 0.00000000 0.00000000
0.00000000 9.45282000 0.00000000
0.00000000 0.00000000 27.08960000

ATOMIC_POSITIONS {angstrom}
Li 0.00000000 2.36320500 -1.1816483499999997 0 0 0
Li 0.00000000 7.08961500 -1.1816483499999997 0 0 0
Li 3.34207500 4.72641000 -3.5446741599999996 0 0 0
Li 3.34207500 0.00000000 -3.5446741599999996 0 0 0
Li 0.91552803 7.42717520 5.19145094
Li 0.91552803 2.02573933 5.19145094
Li 3.44053253 0.00000000 1.30598962
Li 3.36720740 4.72641000 1.30002990
Y 5.01311250 0.00000000 -1.1816483499999997 0 0 0
Y 5.01311250 4.72641000 -1.1816483499999997 0 0 0
Y 1.67103750 2.36320500 -3.5446741599999996 0 0 0
Y 1.67103750 7.08961500 -3.5446741599999996 0 0 0
Y 5.32887175 4.72641000 3.55876075
Y 5.38668964 0.00000000 3.63136088
Y 1.58721826 7.08611746 1.35420910
Y 1.58721826 2.36670254 1.35420910
In 1.67103750 0.00000000 -1.1816483499999997 0 0 0
In 1.67103750 4.72641000 -1.1816483499999997 0 0 0
In 5.01311250 2.36320500 -3.5446741599999996 0 0 0
In 5.01311250 7.08961500 -3.5446741599999996 0 0 0
In 1.83439813 4.72641000 3.75488946
In 2.05744821 0.00000000 3.63975866
In 5.04446116 7.07694822 1.18354462
In 5.04446116 2.37587178 1.18354462
Cu 0.00000000 0.00000000 -3.5446741599999996 0 0 0
Cu 0.00000000 4.72641000 -3.5446741599999996 0 0 0
Cu 3.34207500 7.08961500 -1.1816483499999997 0 0 0
Cu 3.34207500 2.36320500 -1.1816483499999997 0 0 0
Cu 0.01410356 4.72641000 1.12042586
Cu 0.01417040 0.00000000 1.05161827
Cu 3.45998341 2.45527547 3.42845978
Cu 3.45998341 6.99754453 3.42845978
C 0.38808175 0.00000000 5.00534539
