&CONTROL
calculation = 'relax'
prefix = 'scf'
pseudo_dir = '/vol0004/mdt0/data/hp150275/u10028/POT_HYBRID_KKJUS_GBRV'
outdir = './data'
tprnfor = .true.
nstep = 50
disk_io = 'non'
/
&SYSTEM
ibrav = 0
ecutwfc = 50.0
ecutrho = 400
occupations = 'smearing'
smearing = 'mp'
degauss = 0.01
assume_isolated = 'esm'
esm_bc = 'bc1'
input_dft = 'BEEF-VDW'
nosym = .true.
nspin = 2
ntyp = 4
nat = 17
starting_magnetization(1) = 0.0
starting_magnetization(2) = 0.1
starting_magnetization(3) = 0.0
starting_magnetization(4) = 0.0
/
&ELECTRONS
electron_maxstep = 300
mixing_beta = 0.1
conv_thr = 1e-06
/
&IONS
ion_dynamics = 'bfgs'
upscale = 1.0
/
&CELL
/

K_POINTS {automatic}
10 10 2 0  0  0

ATOMIC_SPECIES
C 12.01 C.pbe-n-rrkjus_psl.1.0.0.UPF
Co 58.93 co_pbe_v1.2.uspp.F.UPF
Sn 118.7 Sn.pbe-dn-rrkjus_psl.1.0.0.UPF
Ti 47.86 Ti.pbe-spn-rrkjus_psl.1.0.0.UPF

CELL_PARAMETERS {angstrom}
6.11439000 0.00000000 0.00000000
0.00000000 6.11439000 0.00000000
0.00000000 0.00000000 24.58580000

ATOMIC_POSITIONS {angstrom}
Ti 0.00000000 0.00000000 -2.29287171 0 0 0
Ti 3.05719500 3.05719500 -2.29287171 0 0 0
Ti 3.05719500 0.00000000 0.78109087
Ti 0.00000000 3.05719500 0.79485891
Co 1.52859750 1.52859750 -0.7643725199999984 0 0 0
Co 4.60303508 4.56854992 2.29311757
Co 4.58579250 1.52859750 -0.7643725199999984 0 0 0
Co 1.51135492 4.56854992 2.29311757
Co 4.58579250 4.58579250 -0.7643725199999984 0 0 0
Co 1.51135492 1.54584008 2.29311757
Co 1.52859750 4.58579250 -0.7643725199999984 0 0 0
Co 4.60303508 1.54584008 2.29311757
Sn 0.00000000 0.00000000 0.78404116
Sn 3.05719500 0.00000000 -2.29287171 0 0 0
Sn 0.00000000 3.05719500 -2.29287171 0 0 0
Sn 3.05719500 3.05719500 0.78404116
C 0.00000000 3.05719500 3.03167500
