&CONTROL
calculation = 'relax'
prefix = 'scf'
pseudo_dir = '/vol0004/mdt0/data/hp150275/u10028/POT_KKJUS'
outdir = './data'
tprnfor = .true.
nstep = 50
disk_io = 'non'
/
&SYSTEM
ibrav = 0
ecutwfc = 50.0
ecutrho = 400
occupations = 'smearing'
smearing = 'mp'
degauss = 0.01
assume_isolated = 'esm'
esm_bc = 'bc1'
input_dft = 'BEEF-VDW'
nosym = .true.
nspin = 1
ntyp = 4
nat = 33
/
&ELECTRONS
electron_maxstep = 200
mixing_beta = 0.1
conv_thr = 1e-06
/
&IONS
ion_dynamics = 'bfgs'
upscale = 1.0
/
&CELL
/

K_POINTS {automatic}
8 6 1 0 0 0

ATOMIC_SPECIES
Al 26.98 Al.pbe-nl-rrkjus_psl.1.0.0.UPF
C 12.01 C.pbe-n-rrkjus_psl.1.0.0.UPF
Li 6.941 Li.pbe-sl-rrkjus_psl.1.0.0.UPF
Pd 106.4 Pd.pbe-n-rrkjus_psl.1.0.0.UPF

CELL_PARAMETERS {angstrom}
6.13337000 0.00000000 0.00000000
0.00000000 8.67390000 0.00000000
0.00000000 0.00000000 26.50540000

ATOMIC_POSITIONS {angstrom}
Li 0.00000000 6.50542500 -1.08433591 0 0 0
Li 3.06668500 0.00000000 -3.2527426900000016 0 0 0
Li 0.00000000 2.16847500 -1.08433591 0 0 0
Li 3.06668500 4.33695000 -3.2527426900000016 0 0 0
Li 1.53334250 0.00000000 -1.08433591 0 0 0
Li 1.53334250 4.33695000 -1.08433591 0 0 0
Li 4.60002750 6.50542500 -3.2527426900000016 0 0 0
Li 4.60002750 2.16847500 -3.2527426900000016 0 0 0
Li 5.94875556 2.37977120 3.41787133
Li 3.03233813 4.33695000 0.95604978
Li 5.94875556 6.29421554 3.41787133
Li 2.98400717 0.00000000 1.16464728
Li 1.67036199 4.33695000 3.24638139
Li 1.13933481 0.00000000 3.69564792
Li 4.62296630 2.11825312 1.08566118
Li 4.62296630 6.55564688 1.08566118
Al 0.00000000 0.00000000 -3.2527426900000016 0 0 0
Al 3.06668500 2.16847500 -1.08433591 0 0 0
Al 3.06668500 6.50542500 -1.08433591 0 0 0
Al 0.00000000 4.33695000 -3.2527426900000016 0 0 0
Al 6.06749761 4.33695000 1.12886499
Al 3.02914878 6.73424248 3.30045241
Al 3.02914878 1.93965752 3.30045241
Al 0.14959289 0.00000000 0.92795405
Pd 1.53334250 2.16847500 -3.2527426900000016 0 0 0
Pd 1.53334250 6.50542500 -3.2527426900000016 0 0 0
Pd 4.60002750 4.33695000 -1.08433591 0 0 0
Pd 4.60002750 0.00000000 -1.08433591 0 0 0
Pd 1.48268086 6.44835074 1.12223864
Pd 1.48268086 2.22554926 1.12223864
Pd 4.96502435 0.00000000 2.94289456
Pd 4.26821218 4.33695000 3.05262692
C 3.05521560 0.00000000 3.59572256
