&CONTROL
calculation = 'relax'
prefix = 'scf'
pseudo_dir = '/vol0403/data/hp230205/u10028/POT_HYBRID_KKJUS_GBRV'
outdir = './data'
tprnfor = .true.
nstep = 50
disk_io = 'non'
/
&SYSTEM
ibrav = 0
ecutwfc = 50.0
ecutrho = 400
occupations = 'smearing'
smearing = 'mp'
degauss = 0.01
assume_isolated = 'esm'
esm_bc = 'bc1'
input_dft = 'BEEF-VDW'
nosym = .true.
nspin = 2
ntyp = 5
nat = 17
starting_magnetization(1) = 0.0
starting_magnetization(2) = 0.0
starting_magnetization(3) = 0.1
starting_magnetization(4) = 0.0
starting_magnetization(5) = 0.0
/
&ELECTRONS
electron_maxstep = 400
mixing_beta = 0.05
conv_thr = 1e-06
/
&IONS
ion_dynamics = 'bfgs'
upscale = 1.0
/
&CELL
/

K_POINTS {automatic}
6 6 1 0 0 0

ATOMIC_SPECIES
Al 26.98 Al.pbe-nl-rrkjus_psl.1.0.0.UPF
C 12.01 C.pbe-n-rrkjus_psl.1.0.0.UPF
Fe 55.84 fe_pbe_v1.5.uspp.F.UPF
Li 6.941 Li.pbe-sl-rrkjus_psl.1.0.0.UPF
Pd 106.4 Pd.pbe-n-rrkjus_psl.1.0.0.UPF


CELL_PARAMETERS {angstrom}
5.25393000 0.00000000 0.00000000
0.00000000 8.60712000 0.00000000
0.00000000 0.00000000 23.58290000

ATOMIC_POSITIONS {angstrom}
Li 3.52207705 2.15178000 0.20517123
Li 4.92724063 2.15178000 -1.7913570799999974 0 0 0
Li 3.52480910 6.45534000 1.01854545
Li 4.92724063 6.45534000 -1.7913570799999974 0 0 0
Al 5.15547135 0.55989316 1.71754261
Al 1.53351709 0.00000000 -0.5971190299999982 0 0 0
Al 5.15547135 3.74366684 1.71754261
Al 1.53351709 4.30356000 -0.5971190299999982 0 0 0
Fe 0.99808908 2.15178000 0.11956530
Fe 2.30027563 2.15178000 -1.7913570799999974 0 0 0
Fe 1.10884193 6.45534000 0.11390541
Fe 2.30027563 6.45534000 -1.7913570799999974 0 0 0
Pd 2.46703537 0.67040858 1.84984268
Pd 4.16048209 0.00000000 -0.5971190299999982 0 0 0
Pd 2.46703537 3.63315142 1.84984268
Pd 4.16048209 4.30356000 -0.5971190299999982 0 0 0
C 4.01962423 2.15178000 2.23778138
