&CONTROL
calculation = 'relax'
prefix = 'scf'
pseudo_dir = '/vol0403/data/hp230205/u10028/POT_HYBRID_KKJUS_GBRV'
outdir = './data'
tprnfor = .true.
nstep = 50
disk_io = 'non'
/
&SYSTEM
ibrav = 0
ecutwfc = 50.0
ecutrho = 400
occupations = 'smearing'
smearing = 'mp'
degauss = 0.01
assume_isolated = 'esm'
esm_bc = 'bc1'
input_dft = 'BEEF-VDW'
nosym = .true.
nspin = 1
ntyp = 4
nat = 16
/
&ELECTRONS
electron_maxstep = 200
mixing_beta = 0.1
conv_thr = 1e-06
/
&IONS
ion_dynamics = 'bfgs'
upscale = 1.0
/
&CELL
/

K_POINTS {automatic}
10 10 2 0  0  0

ATOMIC_SPECIES
Ag 107.8 Ag.pbe-n-rrkjus_psl.1.0.0.UPF
Li 6.941 Li.pbe-sl-rrkjus_psl.1.0.0.UPF
Sn 118.7 Sn.pbe-dn-rrkjus_psl.1.0.0.UPF
Y 88.90 Y.pbe-spn-rrkjus_psl.1.0.0.UPF


CELL_PARAMETERS {angstrom}
7.11214000 0.00000000 0.00000000
0.00000000 7.11214000 0.00000000
0.00000000 0.00000000 25.33410000

ATOMIC_POSITIONS {angstrom}
Li 1.77803500 1.77803500 0.90214730
Li 1.77803500 5.33410500 -2.66717405 0 0 0
Li 5.33410500 1.77803500 -2.66717405 0 0 0
Li 5.33410500 5.33410500 0.90189396
Y 5.33410500 1.77803500 0.94217518
Y 5.33410500 5.33410500 -2.66717405 0 0 0
Y 1.77803500 1.77803500 -2.66717405 0 0 0
Y 1.77803500 5.33410500 0.94217518
Ag 0.00000000 0.00000000 2.68009444
Ag 0.00000000 3.55607000 -0.888973570000001 0 0 0
Ag 3.55607000 0.00000000 -0.888973570000001 0 0 0
Ag 3.55607000 3.55607000 2.68009444
Sn 0.00000000 3.55607000 2.68085446
Sn 0.00000000 0.00000000 -0.888973570000001 0 0 0
Sn 3.55607000 3.55607000 -0.888973570000001 0 0 0
Sn 3.55607000 0.00000000 2.68085446
