&CONTROL
calculation = 'relax'
prefix = 'scf'
pseudo_dir = '/vol0403/data/hp230205/u10028/POT_HYBRID_KKJUS_GBRV'
outdir = './data'
tprnfor = .true.
nstep = 50
disk_io = 'non'
/
&SYSTEM
ibrav = 0
ecutwfc = 50.0
ecutrho = 400
occupations = 'smearing'
smearing = 'mp'
degauss = 0.01
assume_isolated = 'esm'
esm_bc = 'bc1'
input_dft = 'BEEF-VDW'
nosym = .true.
nspin = 1
ntyp = 6
nat = 34
/
&ELECTRONS
electron_maxstep = 200
mixing_beta = 0.1
conv_thr = 1e-06
/
&IONS
ion_dynamics = 'bfgs'
upscale = 1.0
/
&CELL
/

K_POINTS {automatic}
6 6 1 0 0 0

ATOMIC_SPECIES
C 12.01 C.pbe-n-rrkjus_psl.1.0.0.UPF
Ga 69.72 Ga.pbe-dnl-rrkjus_psl.1.0.0.UPF
O 15.99 O.pbe-n-rrkjus_psl.1.0.0.UPF
Pd 106.4 Pd.pbe-n-rrkjus_psl.1.0.0.UPF
Sc 44.95 Sc.pbe-spn-rrkjus_psl.1.0.0.UPF
Y 88.90 Y.pbe-spn-rrkjus_psl.1.0.0.UPF


CELL_PARAMETERS {angstrom}
9.85606000 0.00000000 0.00000000
0.00000000 7.06732000 0.00000000
0.00000000 0.00000000 27.11150000

ATOMIC_POSITIONS {angstrom}
Y 2.46401500 1.76683000 3.55567322
Y 2.46401500 1.76683000 -1.1853147799999988 0 0 0
Y 2.46401500 5.30049000 3.55567322
Y 2.46401500 5.30049000 -1.1853147799999988 0 0 0
Y 7.39204500 1.76683000 3.55567322
Y 7.39204500 1.76683000 -1.1853147799999988 0 0 0
Y 7.39204500 5.30049000 3.55567322
Y 7.39204500 5.30049000 -1.1853147799999988 0 0 0
Sc 0.00000000 1.76683000 1.18531478
Sc 0.00000000 1.76683000 -3.55567323 0 0 0
Sc 0.00000000 5.30049000 1.18531478
Sc 0.00000000 5.30049000 -3.55567323 0 0 0
Sc 4.92803000 1.76683000 1.18531478
Sc 4.92803000 1.76683000 -3.55567323 0 0 0
Sc 4.92803000 5.30049000 1.18531478
Sc 4.92803000 5.30049000 -3.55567323 0 0 0
Ga 0.00000000 0.00000000 3.55567322
Ga 0.00000000 0.00000000 -1.1853147799999988 0 0 0
Ga 0.00000000 3.53366000 3.55567322
Ga 0.00000000 3.53366000 -1.1853147799999988 0 0 0
Ga 4.92803000 0.00000000 3.55567322
Ga 4.92803000 0.00000000 -1.1853147799999988 0 0 0
Ga 4.92803000 3.53366000 3.55567322
Ga 4.92803000 3.53366000 -1.1853147799999988 0 0 0
Pd 2.46401500 0.00000000 1.18531478
Pd 2.46401500 0.00000000 -3.55567323 0 0 0
Pd 2.46401500 3.53366000 1.18531478
Pd 2.46401500 3.53366000 -3.55567323 0 0 0
Pd 7.39204500 0.00000000 1.18531478
Pd 7.39204500 0.00000000 -3.55567323 0 0 0
Pd 7.39204500 3.53366000 1.18531478
Pd 7.39204500 3.53366000 -3.55567323 0 0 0
C 0.00000000 0.00000000 5.45564714
O 0.00000000 0.00000000 6.60571697
