&CONTROL
calculation = 'relax'
prefix = 'scf'
pseudo_dir = '/vol0403/data/hp230205/u10028/POT_HYBRID_KKJUS_GBRV'
outdir = './data'
tprnfor = .true.
nstep = 50
disk_io = 'non'
/
&SYSTEM
ibrav = 0
ecutwfc = 50.0
ecutrho = 400
occupations = 'smearing'
smearing = 'mp'
degauss = 0.01
assume_isolated = 'esm'
esm_bc = 'bc1'
input_dft = 'BEEF-VDW'
nosym = .true.
nspin = 1
ntyp = 6
nat = 34
/
&ELECTRONS
electron_maxstep = 200
mixing_beta = 0.1
conv_thr = 1e-06
/
&IONS
ion_dynamics = 'bfgs'
upscale = 1.0
/
&CELL
/

K_POINTS {automatic}
6 6 1 0 0 0

ATOMIC_SPECIES
C 12.01 C.pbe-n-rrkjus_psl.1.0.0.UPF
Ga 69.72 Ga.pbe-dnl-rrkjus_psl.1.0.0.UPF
O 15.99 O.pbe-n-rrkjus_psl.1.0.0.UPF
Pd 106.4 Pd.pbe-n-rrkjus_psl.1.0.0.UPF
Sc 44.95 Sc.pbe-spn-rrkjus_psl.1.0.0.UPF
Y 88.90 Y.pbe-spn-rrkjus_psl.1.0.0.UPF


CELL_PARAMETERS {angstrom}
9.85606000 0.00000000 0.00000000
0.00000000 7.06732000 0.00000000
0.00000000 0.00000000 27.11150000

ATOMIC_POSITIONS {angstrom}
Y 2.49742704 1.77580550 3.66601703
Y 2.46401500 1.76683000 -1.1853147799999988 0 0 0
Y 2.49742704 5.29151450 3.66628814
Y 2.46401500 5.30049000 -1.1853147799999988 0 0 0
Y 7.35873152 1.77580550 3.66628814
Y 7.39204500 1.76683000 -1.1853147799999988 0 0 0
Y 7.35873152 5.29151450 3.66628814
Y 7.39204500 5.30049000 -1.1853147799999988 0 0 0
Sc 9.85596144 1.74308380 1.16606561
Sc 0.00000000 1.76683000 -3.55567323 0 0 0
Sc 0.00000000 5.32423620 1.16606561
Sc 0.00000000 5.30049000 -3.55567323 0 0 0
Sc 4.92803000 1.83799791 1.17284349
Sc 4.92803000 1.76683000 -3.55567323 0 0 0
Sc 4.92803000 5.22932209 1.17284349
Sc 4.92803000 5.30049000 -3.55567323 0 0 0
Ga 0.00029568 0.00000000 3.42174241
Ga 0.00000000 0.00000000 -1.1853147799999988 0 0 0
Ga 0.00000000 3.53366000 3.51690378
Ga 0.00000000 3.53366000 -1.1853147799999988 0 0 0
Ga 4.92812856 0.00000000 3.48870782
Ga 4.92803000 0.00000000 -1.1853147799999988 0 0 0
Ga 4.92812856 3.53366000 3.66439034
Ga 4.92803000 3.53366000 -1.1853147799999988 0 0 0
Pd 2.81863604 0.00000000 1.23411548
Pd 2.46401500 0.00000000 -3.55567323 0 0 0
Pd 2.15828002 3.53366000 1.31300994
Pd 2.46401500 3.53366000 -3.55567323 0 0 0
Pd 7.03742396 0.00000000 1.23411548
Pd 7.39204500 0.00000000 -3.55567323 0 0 0
Pd 7.69768142 3.53366000 1.31300994
Pd 7.39204500 3.53366000 -3.55567323 0 0 0
C 9.85517295 0.00000000 5.37024592
O 9.85576432 0.00000000 6.54824059
