&CONTROL
calculation = 'relax'
prefix = 'scf'
pseudo_dir = '/vol0403/data/hp230205/u10028/POT_HYBRID_KKJUS_GBRV'
outdir = './data'
tprnfor = .true.
nstep = 70
disk_io = 'non'
/
&SYSTEM
ibrav = 0
ecutwfc = 50.0
ecutrho = 400
occupations = 'smearing'
smearing = 'mp'
degauss = 0.01
assume_isolated = 'esm'
esm_bc = 'bc1'
input_dft = 'BEEF-VDW'
nosym = .true.
nspin = 1
ntyp = 6
nat = 34
/
&ELECTRONS
electron_maxstep = 200
mixing_beta = 0.1
conv_thr = 1e-06
/
&IONS
ion_dynamics = 'bfgs'
upscale = 1.0
/
&CELL
/

K_POINTS {automatic}
9 6 2 0  0  0

ATOMIC_SPECIES
C 12.01 C.pbe-n-rrkjus_psl.1.0.0.UPF
In 114.8 In.pbe-dn-rrkjus_psl.1.0.0.UPF
O 15.99 O.pbe-n-rrkjus_psl.1.0.0.UPF
Pd 106.4 Pd.pbe-n-rrkjus_psl.1.0.0.UPF
Pt 195.0 Pt.pbe-n-rrkjus_psl.1.0.0.UPF
Y 88.90 Y.pbe-spn-rrkjus_psl.1.0.0.UPF


CELL_PARAMETERS {angstrom}
6.82696000 0.00000000 0.00000000
-0.00000000 9.65478000 0.00000000
0.00000000 0.00000000 27.24110000

ATOMIC_POSITIONS {angstrom}
Y 0.00000000 2.41369500 -1.2067807299999984 0 0 0
Y 0.00000000 7.24108500 -1.2067807299999984 0 0 0
Y 3.41348000 4.82739000 -3.6206145999999997 0 0 0
Y 3.41348000 0.00000000 -3.6206145999999997 0 0 0
Y 6.76101157 7.17601178 3.69144146
Y 6.76101157 2.47876822 3.69144146
Y 3.39197508 -0.00000000 1.21195654
Y 3.39443278 4.82739000 1.17926722
In 0.00000000 0.00000000 -3.6206145999999997 0 0 0
In 0.00000000 4.82739000 -3.6206145999999997 0 0 0
In 3.41348000 7.24108500 -1.2067807299999984 0 0 0
In 3.41348000 2.41369500 -1.2067807299999984 0 0 0
In 6.79658003 4.82729345 1.26507668
In 0.00184328 0.00000000 1.30049011
In 3.37210862 2.39670259 3.67782091
In 3.37210862 7.25807741 3.67782091
Pd 5.12022000 0.00000000 -1.2067807299999984 0 0 0
Pd 5.12022000 4.82739000 -1.2067807299999984 0 0 0
Pd 1.70674000 2.41369500 -3.6206145999999997 0 0 0
Pd 1.70674000 7.24108500 -3.6206145999999997 0 0 0
Pd 4.89636398 4.82739000 3.56749446
Pd 4.97903847 -0.00000000 3.52527075
Pd 1.61259622 7.28279365 1.34026212
Pd 1.61259622 2.37198635 1.34026212
Pt 1.70674000 0.00000000 -1.2067807299999984 0 0 0
Pt 1.70674000 4.82739000 -1.2067807299999984 0 0 0
Pt 5.12022000 2.41369500 -3.6206145999999997 0 0 0
Pt 5.12022000 7.24108500 -3.6206145999999997 0 0 0
Pt 1.75446045 4.82739000 3.47187819
Pt 1.65239740 -0.00000000 3.80803337
Pt 5.17053470 7.24262976 1.26834562
Pt 5.17053470 2.41215024 1.26834562
C 1.26954148 0.00000000 5.67949694
O 1.20366132 9.65468345 6.84132985
