&CONTROL
calculation = 'relax'
prefix = 'scf'
pseudo_dir = '/vol0004/mdt0/data/hp150275/u10028/POT_KKJUS'
outdir = './data'
tprnfor = .true.
nstep = 50
disk_io = 'non'
/
&SYSTEM
ibrav = 0
ecutwfc = 50.0
ecutrho = 400
occupations = 'smearing'
smearing = 'mp'
degauss = 0.01
assume_isolated = 'esm'
esm_bc = 'bc1'
input_dft = 'BEEF-VDW'
nosym = .true.
nspin = 1
ntyp = 3
nat = 33
/
&ELECTRONS
electron_maxstep = 200
mixing_beta = 0.1
conv_thr = 1e-06
/
&IONS
ion_dynamics = 'bfgs'
upscale = 1.0
/
&CELL
/

K_POINTS {automatic}
9 6 2 0  0  0

ATOMIC_SPECIES
Al 26.98 Al.pbe-nl-rrkjus_psl.1.0.0.UPF
C 12.01 C.pbe-n-rrkjus_psl.1.0.0.UPF
Sc 44.95 Sc.pbe-spn-rrkjus_psl.1.0.0.UPF

CELL_PARAMETERS {angstrom}
6.75388000 0.00000000 0.00000000
0.00000000 9.55143000 0.00000000
0.00000000 0.00000000 27.16360000

ATOMIC_POSITIONS {angstrom}
Sc 1.68847000 2.38785750 -3.5817923 0 0 0
Sc 1.68847000 0.00000000 -1.1938402199999985 0 0 0
Sc 1.66597958 2.36990081 1.14657556
Sc 1.50402154 4.77571500 3.64752821
Sc 1.68847000 7.16357250 -3.5817923 0 0 0
Sc 1.68847000 4.77571500 -1.1938402199999985 0 0 0
Sc 1.66570942 7.18143367 1.14657556
Sc 2.01934258 0.00019103 3.74124263
Sc 5.06541000 2.38785750 -3.5817923 0 0 0
Sc 5.06541000 0.00000000 -1.1938402199999985 0 0 0
Sc 5.08803550 2.36961427 1.14657556
Sc 5.25066893 4.77571500 3.64644166
Sc 5.06541000 7.16357250 -3.5817923 0 0 0
Sc 5.06541000 4.77571500 -1.1938402199999985 0 0 0
Sc 5.08796796 7.18162470 1.14657556
Sc 4.73433480 9.55133449 3.74069936
Al 0.00000000 0.00000000 -3.5817923 0 0 0
Al 0.00000000 2.38785750 -1.1938402199999985 0 0 0
Al 0.00006754 9.55133449 1.60075095
Al 6.75374492 2.11105706 3.57445812
Al 0.00000000 4.77571500 -3.5817923 0 0 0
Al 0.00000000 7.16357250 -1.1938402199999985 0 0 0
Al 0.00033769 4.77561949 1.18243151
Al 6.75374492 7.44037294 3.57445812
Al 3.37694000 0.00000000 -3.5817923 0 0 0
Al 3.37694000 2.38785750 -1.1938402199999985 0 0 0
Al 3.37680492 9.55133449 1.18351805
Al 3.37727769 2.56532307 3.51605638
Al 3.37694000 4.77571500 -3.5817923 0 0 0
Al 3.37694000 7.16357250 -1.1938402199999985 0 0 0
Al 3.37687246 4.77571500 1.30874225
Al 3.37721016 6.98610693 3.51632802
C 6.75381246 0.00000000 3.82137525
