&CONTROL
calculation = 'relax'
prefix = 'scf'
pseudo_dir = '/vol0004/mdt0/data/hp150275/u10028/POT_KKJUS'
outdir = './data'
tprnfor = .true.
nstep = 50
disk_io = 'non'
/
&SYSTEM
ibrav = 0
ecutwfc = 50.0
ecutrho = 400
occupations = 'smearing'
smearing = 'mp'
degauss = 0.01
assume_isolated = 'esm'
esm_bc = 'bc1'
input_dft = 'BEEF-VDW'
nosym = .true.
nspin = 1
ntyp = 4
nat = 34
/
&ELECTRONS
electron_maxstep = 200
mixing_beta = 0.1
conv_thr = 1e-06
/
&IONS
ion_dynamics = 'bfgs'
upscale = 1.0
/
&CELL
/

K_POINTS {automatic}
8 6 1 0 0 0

ATOMIC_SPECIES
C 12.01 C.pbe-n-rrkjus_psl.1.0.0.UPF
In 114.8 In.pbe-dn-rrkjus_psl.1.0.0.UPF
O 15.99 O.pbe-n-rrkjus_psl.1.0.0.UPF
Rh 102.9 Rh.pbe-spn-rrkjus_psl.1.0.0.UPF

CELL_PARAMETERS {angstrom}
6.51708000 0.00000000 0.00000000
0.00000000 9.21654000 0.00000000
0.00000000 0.00000000 26.91240000

ATOMIC_POSITIONS {angstrom}
In 0.00000000 0.00000000 -3.4560904100000016 0 0 0
In 0.00000000 2.30413500 -1.152119840000001 0 0 0
In 0.00000000 9.21156307 1.14458437
In 0.00000000 2.30413500 3.65066706
In 0.00000000 4.60827000 -3.4560904100000016 0 0 0
In 0.00000000 6.91240500 -1.152119840000001 0 0 0
In 0.00000000 4.61324693 1.14458437
In 0.00000000 6.91240500 3.65981728
In 3.25854000 0.00000000 -3.4560904100000016 0 0 0
In 3.25854000 2.30413500 -1.152119840000001 0 0 0
In 3.25854000 0.00073732 1.14619912
In 3.25854000 2.30413500 3.66197027
In 3.25854000 4.60827000 -3.4560904100000016 0 0 0
In 3.25854000 6.91240500 -1.152119840000001 0 0 0
In 3.25854000 4.60753268 1.14619912
In 3.25854000 6.91240500 3.65847166
Rh 1.62927000 2.30413500 -3.4560904100000016 0 0 0
Rh 1.62927000 0.00000000 -1.152119840000001 0 0 0
Rh 1.62770590 2.30413500 1.11336599
Rh 1.62829244 0.00018433 3.32099016
Rh 1.62927000 6.91240500 -3.4560904100000016 0 0 0
Rh 1.62927000 4.60827000 -1.152119840000001 0 0 0
Rh 1.63005205 6.91240500 1.11255862
Rh 1.62829244 4.60817783 3.32099016
Rh 4.88781000 2.30413500 -3.4560904100000016 0 0 0
Rh 4.88781000 0.00000000 -1.152119840000001 0 0 0
Rh 4.88937410 2.30413500 1.11336599
Rh 4.88878756 0.00009217 3.32099016
Rh 4.88781000 6.91240500 -3.4560904100000016 0 0 0
Rh 4.88781000 4.60827000 -1.152119840000001 0 0 0
Rh 4.88702795 6.91240500 1.11255862
Rh 4.88878756 4.60817783 3.32099016
C 6.51701483 2.30413500 7.47653384
O 0.00000000 2.30413500 8.61116063
