&CONTROL
calculation = 'relax'
prefix = 'scf'
pseudo_dir = '/vol0004/mdt0/data/hp150275/u10028/POT_KKJUS'
outdir = './data'
tprnfor = .true.
nstep = 50
disk_io = 'non'
/
&SYSTEM
ibrav = 0
ecutwfc = 50.0
ecutrho = 400
occupations = 'smearing'
smearing = 'mp'
degauss = 0.01
assume_isolated = 'esm'
esm_bc = 'bc1'
input_dft = 'BEEF-VDW'
nosym = .true.
nspin = 1
ntyp = 5
nat = 34
/
&ELECTRONS
electron_maxstep = 200
mixing_beta = 0.1
conv_thr = 1e-06
/
&IONS
ion_dynamics = 'bfgs'
upscale = 1.0
/
&CELL
/

K_POINTS {automatic}
9 6 2 0  0  0

ATOMIC_SPECIES
Au 196.9 Au.pbe-n-rrkjus_psl.1.0.0.UPF
C 12.01 C.pbe-n-rrkjus_psl.1.0.0.UPF
Li 6.941 Li.pbe-sl-rrkjus_psl.1.0.0.UPF
O 15.99 O.pbe-n-rrkjus_psl.1.0.0.UPF
Sn 118.7 Sn.pbe-dn-rrkjus_psl.1.0.0.UPF

CELL_PARAMETERS {angstrom}
6.60404000 0.00000000 0.00000000
0.00000000 9.33952000 0.00000000
0.00000000 0.00000000 27.00460000

ATOMIC_POSITIONS {angstrom}
Li 0.00000000 7.00464000 -1.1674088599999983 0 0 0
Li 3.30202000 0.00000000 -3.5022265700000013 0 0 0
Li 0.00000000 2.33488000 -1.1674088599999983 0 0 0
Li 3.30202000 4.66976000 -3.5022265700000013 0 0 0
Li 1.65101000 2.33488000 -3.5022265700000013 0 0 0
Li 1.65101000 7.00464000 -3.5022265700000013 0 0 0
Li 4.95303000 4.66976000 -1.1674088599999983 0 0 0
Li 4.95303000 0.00000000 -1.1674088599999983 0 0 0
Li 0.15611951 2.39885571 3.44740724
Li 3.32619079 4.66976000 0.96568450
Li 0.15618555 6.94150484 3.44659710
Li 3.45728098 9.33942660 1.06047064
Li 1.82879076 7.03844906 1.30432218
Li 1.82879076 2.30135112 1.30486227
Li 4.94233146 0.00000000 3.66155371
Li 4.70227460 4.66985340 3.30455290
Sn 0.00000000 0.00000000 -3.5022265700000013 0 0 0
Sn 3.30202000 2.33488000 -1.1674088599999983 0 0 0
Sn 3.30202000 7.00464000 -1.1674088599999983 0 0 0
Sn 0.00000000 4.66976000 -3.5022265700000013 0 0 0
Sn 6.59320937 4.66976000 1.17713051
Sn 3.33200234 7.03602079 3.87516010
Sn 3.33193630 2.30433977 3.87597024
Sn 6.53832980 0.00009340 1.19117291
Au 1.65101000 0.00000000 -1.1674088599999983 0 0 0
Au 1.65101000 4.66976000 -1.1674088599999983 0 0 0
Au 4.95303000 7.00464000 -3.5022265700000013 0 0 0
Au 4.95303000 2.33488000 -3.5022265700000013 0 0 0
Au 1.92758720 4.67013358 3.21327735
Au 1.89985023 0.00056037 3.15656769
Au 4.86063948 2.36121745 1.35590097
Au 4.86077156 6.97830255 1.35509083
C 5.87924661 0.00000000 5.51568955
O 6.28585735 9.33942660 6.58615189
