&CONTROL
calculation = 'relax'
prefix = 'scf'
pseudo_dir = '/vol0004/mdt0/data/hp150275/u10028/POT_KKJUS'
outdir = './data'
tprnfor = .true.
nstep = 50
disk_io = 'non'
/
&SYSTEM
ibrav = 0
ecutwfc = 50.0
ecutrho = 400
occupations = 'smearing'
smearing = 'mp'
degauss = 0.01
assume_isolated = 'esm'
esm_bc = 'bc1'
input_dft = 'BEEF-VDW'
nosym = .true.
nspin = 1
ntyp = 4
nat = 34
/
&ELECTRONS
electron_maxstep = 200
mixing_beta = 0.1
conv_thr = 1e-06
/
&IONS
ion_dynamics = 'bfgs'
upscale = 1.0
/
&CELL
/

K_POINTS {automatic}
8 6 2 0  0  0

ATOMIC_SPECIES
C 12.01 C.pbe-n-rrkjus_psl.1.0.0.UPF
Ca 40.07 Ca.pbe-spn-rrkjus_psl.1.0.0.UPF
O 15.99 O.pbe-n-rrkjus_psl.1.0.0.UPF
Pd 106.4 Pd.pbe-n-rrkjus_psl.1.0.0.UPF

CELL_PARAMETERS {angstrom}
7.14855000 0.00000000 0.00000000
0.00000000 10.10960000 0.00000000
0.00000000 0.00000000 27.58220000

ATOMIC_POSITIONS {angstrom}
Ca 0.00000000 0.00000000 -3.791173390000001 0 0 0
Ca 0.00000000 2.52740000 -1.2638163999999996 0 0 0
Ca 0.00264496 5.05480000 1.23816496
Ca 7.12946337 2.56915265 3.86454204
Ca 0.00000000 5.05480000 -3.791173390000001 0 0 0
Ca 0.00000000 7.58220000 -1.2638163999999996 0 0 0
Ca 7.12731881 0.00000000 1.21113440
Ca 7.12953486 7.54044735 3.86454204
Ca 3.57427500 0.00000000 -3.791173390000001 0 0 0
Ca 3.57427500 2.52740000 -1.2638163999999996 0 0 0
Ca 3.57163004 5.05480000 1.23816496
Ca 3.59336163 2.56915265 3.86454204
Ca 3.57427500 5.05480000 -3.791173390000001 0 0 0
Ca 3.57427500 7.58220000 -1.2638163999999996 0 0 0
Ca 3.59557768 0.00000000 1.21113440
Ca 3.59329014 7.54044735 3.86454204
Pd 1.78713750 2.52740000 -3.791173390000001 0 0 0
Pd 1.78713750 0.00000000 -1.2638163999999996 0 0 0
Pd 1.78713750 2.44298484 1.45385776
Pd 1.78713750 5.05480000 3.59313319
Pd 1.78713750 7.58220000 -3.791173390000001 0 0 0
Pd 1.78713750 5.05480000 -1.2638163999999996 0 0 0
Pd 1.78713750 7.66661516 1.45385776
Pd 1.78713750 0.00000000 3.75117920
Pd 5.36141250 2.52740000 -3.791173390000001 0 0 0
Pd 5.36141250 0.00000000 -1.2638163999999996 0 0 0
Pd 5.36141250 2.53407234 1.38738466
Pd 5.36141250 5.05480000 3.59258155
Pd 5.36141250 7.58220000 -3.791173390000001 0 0 0
Pd 5.36141250 5.05480000 -1.2638163999999996 0 0 0
Pd 5.36141250 7.57552766 1.38738466
Pd 5.36141250 0.00000000 3.55286318
C 1.78713750 0.00000000 5.68717382
O 1.78713750 0.00000000 6.85169430
