&CONTROL
calculation = 'relax'
prefix = 'scf'
pseudo_dir = '/vol0004/mdt0/data/hp150275/u10028/POT_KKJUS'
outdir = './data'
tprnfor = .true.
nstep = 50
disk_io = 'non'
/
&SYSTEM
ibrav = 0
ecutwfc = 50.0
ecutrho = 400
occupations = 'smearing'
smearing = 'mp'
degauss = 0.01
assume_isolated = 'esm'
esm_bc = 'bc1'
input_dft = 'BEEF-VDW'
nosym = .true.
nspin = 1
ntyp = 4
nat = 34
/
&ELECTRONS
electron_maxstep = 200
mixing_beta = 0.1
conv_thr = 1e-06
/
&IONS
ion_dynamics = 'bfgs'
upscale = 1.0
/
&CELL
/

K_POINTS {automatic}
9 6 2 0  0  0

ATOMIC_SPECIES
C 12.01 C.pbe-n-rrkjus_psl.1.0.0.UPF
Cu 63.54 Cu.pbe-dn-rrkjus_psl.1.0.0.UPF
O 15.99 O.pbe-n-rrkjus_psl.1.0.0.UPF
Sb 121.7 Sb.pbe-n-rrkjus_psl.1.0.0.UPF

CELL_PARAMETERS {angstrom}
6.30953000 0.00000000 0.00000000
0.00000000 8.92302000 0.00000000
0.00000000 0.00000000 26.69230000

ATOMIC_POSITIONS {angstrom}
Cu 1.57738250 0.00000000 -1.1154712199999999 0 0 0
Cu 4.73214750 4.46151000 -1.1154712199999999 0 0 0
Cu 4.73214750 0.00000000 -1.1154712199999999 0 0 0
Cu 1.57738250 4.46151000 -1.1154712199999999 0 0 0
Cu 4.73214750 6.69226500 -3.346146730000001 0 0 0
Cu 1.57738250 2.23075500 -3.346146730000001 0 0 0
Cu 1.57738250 6.69226500 -3.346146730000001 0 0 0
Cu 4.73214750 2.23075500 -3.346146730000001 0 0 0
Cu 0.00000000 6.69226500 -1.1154712199999999 0 0 0
Cu 3.15476500 0.00000000 -3.346146730000001 0 0 0
Cu 0.00000000 2.23075500 -1.1154712199999999 0 0 0
Cu 3.15476500 4.46151000 -3.346146730000001 0 0 0
Cu 1.84131014 4.53128802 3.02423759
Cu 4.46821986 8.85324198 3.02423759
Cu 4.46821986 4.53128802 3.02423759
Cu 1.84131014 8.85324198 3.02423759
Cu 4.59832237 2.23075500 1.36744653
Cu 1.88629709 6.69226500 1.38799960
Cu 1.71114454 2.23075500 1.36771345
Cu 4.42323291 6.69226500 1.38799960
Cu 6.30921452 2.23075500 3.29649905
Cu 3.15470190 4.39976270 0.84320976
Cu 0.00000000 6.69226500 3.07201681
Cu 3.15476500 0.06174730 0.84320976
Sb 0.00000000 0.00000000 -3.346146730000001 0 0 0
Sb 3.15476500 2.23075500 -1.1154712199999999 0 0 0
Sb 3.15476500 6.69226500 -1.1154712199999999 0 0 0
Sb 0.00000000 4.46151000 -3.346146730000001 0 0 0
Sb 0.00006310 4.51076507 1.14776890
Sb 3.15482810 6.69226500 3.94965963
Sb 3.15489119 2.23075500 3.69875201
Sb 0.00000000 8.87376493 1.14776890
C 0.00012619 2.23075500 5.17937389
O 0.00006310 2.23075500 6.32634202
