&CONTROL
calculation = 'relax'
prefix = 'scf'
pseudo_dir = '/vol0004/mdt0/data/hp150275/u10028/POT_KKJUS'
outdir = './data'
tprnfor = .true.
nstep = 50
disk_io = 'non'
/
&SYSTEM
ibrav = 0
ecutwfc = 50.0
ecutrho = 400
occupations = 'smearing'
smearing = 'mp'
degauss = 0.01
assume_isolated = 'esm'
esm_bc = 'bc1'
input_dft = 'BEEF-VDW'
nosym = .true.
nspin = 1
ntyp = 3
nat = 32
/
&ELECTRONS
electron_maxstep = 200
mixing_beta = 0.1
conv_thr = 1e-06
/
&IONS
ion_dynamics = 'bfgs'
upscale = 1.0
/
&CELL
/

K_POINTS {automatic}
9 6 2 0  0  0

ATOMIC_SPECIES
In 114.8 In.pbe-dn-rrkjus_psl.1.0.0.UPF
Li 6.941 Li.pbe-sl-rrkjus_psl.1.0.0.UPF
Pt 195.0 Pt.pbe-n-rrkjus_psl.1.0.0.UPF

CELL_PARAMETERS {angstrom}
6.69031000 0.00000000 0.00000000
0.00000000 9.46152000 0.00000000
0.00000000 0.00000000 27.09610000

ATOMIC_POSITIONS {angstrom}
Li 0.00000000 0.00000000 -3.547963329999998 0 0 0
Li 3.34515500 2.36538000 -1.1827447599999985 0 0 0
Li 3.34515500 7.09614000 -1.1827447599999985 0 0 0
Li 0.00000000 4.73076000 -3.547963329999998 0 0 0
Li 0.00000000 4.73076000 1.35182443
Li 3.34515500 7.09614000 3.78180268
Li 3.34515500 2.36538000 3.78207364
Li 0.00000000 0.00000000 1.35182443
In 1.67257750 0.00000000 -1.1827447599999985 0 0 0
In 5.01773250 4.73076000 -1.1827447599999985 0 0 0
In 5.01773250 0.00000000 -1.1827447599999985 0 0 0
In 1.67257750 4.73076000 -1.1827447599999985 0 0 0
In 5.01773250 7.09614000 -3.547963329999998 0 0 0
In 1.67257750 2.36538000 -3.547963329999998 0 0 0
In 1.67257750 7.09614000 -3.547963329999998 0 0 0
In 5.01773250 2.36538000 -3.547963329999998 0 0 0
In 1.62527701 4.73076000 3.88232921
In 5.06503299 0.00000000 3.88232921
In 5.06503299 4.73076000 3.88232921
In 1.62527701 0.00000000 3.88232921
In 4.96347409 2.36538000 1.23449832
In 1.72683591 7.09614000 1.23449832
In 1.72683591 2.36538000 1.23449832
In 4.96347409 7.09614000 1.23449832
Pt 0.00000000 7.09614000 -1.1827447599999985 0 0 0
Pt 3.34515500 0.00000000 -3.547963329999998 0 0 0
Pt 0.00000000 2.36538000 -1.1827447599999985 0 0 0
Pt 3.34515500 4.73076000 -3.547963329999998 0 0 0
Pt 0.00000000 2.36538000 3.36343889
Pt 3.34515500 4.73076000 1.10172743
Pt 0.00000000 7.09614000 3.36343889
Pt 3.34515500 0.00000000 1.10172743
