&CONTROL
calculation = 'relax'
prefix = 'scf'
pseudo_dir = '/vol0004/mdt0/data/hp150275/u10028/POT_KKJUS'
outdir = './data'
tprnfor = .true.
nstep = 50
disk_io = 'non'
/
&SYSTEM
ibrav = 0
ecutwfc = 50.0
ecutrho = 400
occupations = 'smearing'
smearing = 'mp'
degauss = 0.01
assume_isolated = 'esm'
esm_bc = 'bc1'
input_dft = 'BEEF-VDW'
nosym = .true.
nspin = 1
ntyp = 3
nat = 33
/
&ELECTRONS
electron_maxstep = 200
mixing_beta = 0.1
conv_thr = 1e-06
/
&IONS
ion_dynamics = 'bfgs'
upscale = 1.0
/
&CELL
/

K_POINTS {automatic}
8 6 1 0 0 0

ATOMIC_SPECIES
C 12.01 C.pbe-n-rrkjus_psl.1.0.0.UPF
Ru 101.0 Ru.pbe-spn-rrkjus_psl.1.0.0.UPF
Zr 91.22 Zr.pbe-spn-rrkjus_psl.1.0.0.UPF

CELL_PARAMETERS {angstrom}
6.54723000 0.00000000 0.00000000
0.00000000 9.25918000 0.00000000
0.00000000 0.00000000 26.94440000

ATOMIC_POSITIONS {angstrom}
Zr 1.63680750 2.31479500 -3.4723248300000016 0 0 0
Zr 1.63680750 4.62959000 -1.1575314200000015 0 0 0
Zr 1.63503975 2.31710980 1.21168967
Zr 1.63261727 4.62959000 3.54318860
Zr 1.63680750 6.94438500 -3.4723248300000016 0 0 0
Zr 1.63680750 0.00000000 -1.1575314200000015 0 0 0
Zr 1.63503975 6.94207021 1.21168967
Zr 1.78745926 0.00000000 3.53429695
Zr 4.91042250 2.31479500 -3.4723248300000016 0 0 0
Zr 4.91042250 4.62959000 -1.1575314200000015 0 0 0
Zr 4.91219025 2.31710980 1.21168967
Zr 4.91461273 4.62959000 3.54318860
Zr 4.91042250 6.94438500 -3.4723248300000016 0 0 0
Zr 4.91042250 0.00000000 -1.1575314200000015 0 0 0
Zr 4.91219025 6.94207021 1.21168967
Zr 4.75977074 0.00000000 3.53429695
Ru 0.00000000 0.00000000 -3.4723248300000016 0 0 0
Ru 0.00000000 2.31479500 -1.1575314200000015 0 0 0
Ru 0.00000000 0.00000000 1.11064817
Ru 0.00000000 2.23998083 3.36805000
Ru 0.00000000 4.62959000 -3.4723248300000016 0 0 0
Ru 0.00000000 6.94438500 -1.1575314200000015 0 0 0
Ru 0.00000000 4.62959000 1.23567018
Ru 0.00000000 7.01919917 3.36805000
Ru 3.27361500 0.00000000 -3.4723248300000016 0 0 0
Ru 3.27361500 2.31479500 -1.1575314200000015 0 0 0
Ru 3.27361500 0.00000000 1.07939266
Ru 3.27361500 2.44534944 3.32089730
Ru 3.27361500 4.62959000 -3.4723248300000016 0 0 0
Ru 3.27361500 6.94438500 -1.1575314200000015 0 0 0
Ru 3.27361500 4.62959000 1.15807031
Ru 3.27361500 6.81383056 3.32089730
C 0.00000000 0.00000000 4.51884532
