&CONTROL
calculation = 'relax'
prefix = 'scf'
pseudo_dir = '/vol0004/mdt0/data/hp150275/u10028/POT_HYBRID_KKJUS_GBRV'
outdir = './data'
tprnfor = .true.
nstep = 50
disk_io = 'non'
/
&SYSTEM
ibrav = 0
ecutwfc = 50.0
ecutrho = 400
occupations = 'smearing'
smearing = 'mp'
degauss = 0.01
assume_isolated = 'esm'
esm_bc = 'bc1'
input_dft = 'BEEF-VDW'
nosym = .true.
nspin = 2
ntyp = 2
nat = 17
starting_magnetization(1) = 0.0
starting_magnetization(2) = 0.1
/
&ELECTRONS
electron_maxstep = 200
mixing_beta = 0.1
conv_thr = 1e-06
/
&IONS
ion_dynamics = 'bfgs'
upscale = 1.0
/
&CELL
/

K_POINTS {automatic}
10 10 2 0  0  0

ATOMIC_SPECIES
C 12.01 C.pbe-n-rrkjus_psl.1.0.0.UPF
Fe 55.84 fe_pbe_v1.5.uspp.F.UPF

CELL_PARAMETERS {angstrom}
5.75078000 0.00000000 0.00000000
-0.00000000 5.75078000 0.00000000
0.00000000 0.00000000 24.31310000

ATOMIC_POSITIONS {angstrom}
Fe 0.00000000 0.00000000 22.15652803
Fe 1.43769500 1.43769500 23.59416163
Fe 0.00000000 0.00000000 0.71893837
Fe 1.43769500 1.43769500 2.15657197
Fe 0.00000000 2.87539000 22.15652803
Fe 1.43769500 4.31308500 23.59416163
Fe 0.00000000 2.87539000 0.71893837
Fe 1.43769500 4.31308500 2.15657197
Fe 2.87539000 0.00000000 22.15652803
Fe 4.31308500 1.43769500 23.59416163
Fe 2.87539000 -0.00000000 0.71893837
Fe 4.31308500 1.43769500 2.15657197
Fe 2.87539000 2.87539000 22.15652803
Fe 4.31308500 4.31308500 23.59416163
Fe 2.87539000 2.87539000 0.71893837
Fe 4.31308500 4.31308500 2.15657197
C 0.00000000 0.00000000 2.95647296
