&CONTROL
calculation = 'relax'
prefix = 'scf'
pseudo_dir = '/vol0004/mdt0/data/hp150275/u10028/POT_KKJUS'
outdir = './data'
tprnfor = .true.
nstep = 50
disk_io = 'non'
/
&SYSTEM
ibrav = 0
ecutwfc = 50.0
ecutrho = 400
occupations = 'smearing'
smearing = 'mp'
degauss = 0.01
assume_isolated = 'esm'
esm_bc = 'bc1'
input_dft = 'BEEF-VDW'
nosym = .true.
nspin = 1
ntyp = 3
nat = 17
/
&ELECTRONS
electron_maxstep = 200
mixing_beta = 0.1
conv_thr = 1e-06
/
&IONS
ion_dynamics = 'bfgs'
upscale = 1.0
/
&CELL
/

K_POINTS {automatic}
8 12 2 0  0  0

ATOMIC_SPECIES
Al 26.98 Al.pbe-nl-rrkjus_psl.1.0.0.UPF
C 12.01 C.pbe-n-rrkjus_psl.1.0.0.UPF
Ni 58.69 Ni.pbe-spn-rrkjus_psl.1.0.0.UPF

CELL_PARAMETERS {angstrom}
7.20976000 0.00000000 0.00000000
0.00000000 5.09807000 0.00000000
0.00000000 0.00000000 23.82360000

ATOMIC_POSITIONS {angstrom}
Al 7.05835504 5.09587783 1.78629353
Al 0.00000000 2.54903500 -0.6372812999999979 0 0 0
Al 3.75614076 5.09669352 1.78557882
Al 3.60488000 2.54903500 -0.6372812999999979 0 0 0
Ni 7.20067570 2.54612910 1.92518512
Ni 1.80215161 3.86260372 0.71566094
Ni 1.80229580 1.24132906 0.70827563
Ni 0.00000000 0.00000000 -0.6372812999999979 0 0 0
Ni 1.80244000 1.27451750 -1.9118438999999974 0 0 0
Ni 1.80244000 3.82355250 -1.9118438999999974 0 0 0
Ni 3.61382010 2.54714871 1.92423217
Ni 5.40760839 3.79831705 0.62513126
Ni 5.40753629 1.28843523 0.62346361
Ni 3.60488000 0.00000000 -0.6372812999999979 0 0 0
Ni 5.40732000 1.27451750 -1.9118438999999974 0 0 0
Ni 5.40732000 3.82355250 -1.9118438999999974 0 0 0
C 1.80236790 2.54781146 2.03167661
