&CONTROL
calculation = 'relax'
prefix = 'scf'
pseudo_dir = '/vol0004/mdt0/data/hp150275/u10028/POT_KKJUS'
outdir = './data'
tprnfor = .true.
nstep = 50
disk_io = 'non'
/
&SYSTEM
ibrav = 0
ecutwfc = 50.0
ecutrho = 400
occupations = 'smearing'
smearing = 'mp'
degauss = 0.01
assume_isolated = 'esm'
esm_bc = 'bc1'
input_dft = 'BEEF-VDW'
nosym = .true.
nspin = 1
ntyp = 4
nat = 34
/
&ELECTRONS
electron_maxstep = 200
mixing_beta = 0.1
conv_thr = 1e-06
/
&IONS
ion_dynamics = 'bfgs'
upscale = 1.0
/
&CELL
/

K_POINTS {automatic}
8 6 1 0 0 0

ATOMIC_SPECIES
C 12.01 C.pbe-n-rrkjus_psl.1.0.0.UPF
Hf 178.4 Hf.pbe-spn-rrkjus_psl.1.0.0.UPF
O 15.99 O.pbe-n-rrkjus_psl.1.0.0.UPF
Os 190.2 Os.pbe-spn-rrkjus_psl.1.0.0.UPF

CELL_PARAMETERS {angstrom}
6.49845000 0.00000000 0.00000000
0.00000000 9.19019000 0.00000000
0.00000000 0.00000000 26.89260000

ATOMIC_POSITIONS {angstrom}
Hf 0.00000000 0.00000000 -3.446286690000001 0 0 0
Hf 0.00000000 2.29754750 -1.1488518700000014 0 0 0
Hf 6.47414580 0.00000000 1.16525636
Hf 6.48675279 2.30591057 3.49173518
Hf 0.00000000 4.59509500 -3.446286690000001 0 0 0
Hf 0.00000000 6.89264250 -1.1488518700000014 0 0 0
Hf 0.00526374 4.59509500 1.18677044
Hf 6.48668781 6.88418753 3.49173518
Hf 3.24922500 0.00000000 -3.446286690000001 0 0 0
Hf 3.24922500 2.29754750 -1.1488518700000014 0 0 0
Hf 3.27352920 0.00000000 1.16525636
Hf 3.26092221 2.30591057 3.49173518
Hf 3.24922500 4.59509500 -3.446286690000001 0 0 0
Hf 3.24922500 6.89264250 -1.1488518700000014 0 0 0
Hf 3.24396126 4.59509500 1.18677044
Hf 3.26098719 6.88418753 3.49173518
Os 1.62461250 2.29754750 -3.446286690000001 0 0 0
Os 1.62461250 0.00000000 -1.1488518700000014 0 0 0
Os 1.62461250 2.25775398 1.17305521
Os 1.62461250 0.00000000 3.45838836
Os 1.62461250 6.89264250 -3.446286690000001 0 0 0
Os 1.62461250 4.59509500 -1.1488518700000014 0 0 0
Os 1.62461250 6.93243602 1.17305521
Os 1.62461250 4.59509500 3.31370617
Os 4.87383750 2.29754750 -3.446286690000001 0 0 0
Os 4.87383750 0.00000000 -1.1488518700000014 0 0 0
Os 4.87383750 2.30646198 1.16068462
Os 4.87383750 0.00000000 3.29891524
Os 4.87383750 6.89264250 -3.446286690000001 0 0 0
Os 4.87383750 4.59509500 -1.1488518700000014 0 0 0
Os 4.87383750 6.88372802 1.16095354
Os 4.87383750 4.59509500 3.30994121
C 1.62461250 0.00000000 5.34060143
O 1.62461250 0.00000000 6.51365665
