&CONTROL
calculation = 'relax'
prefix = 'scf'
pseudo_dir = '/vol0004/mdt0/data/hp150275/u10028/POT_KKJUS'
outdir = './data'
tprnfor = .true.
nstep = 50
disk_io = 'non'
/
&SYSTEM
ibrav = 0
ecutwfc = 50.0
ecutrho = 400
occupations = 'smearing'
smearing = 'mp'
degauss = 0.01
assume_isolated = 'esm'
esm_bc = 'bc1'
input_dft = 'BEEF-VDW'
nosym = .true.
nspin = 1
ntyp = 5
nat = 34
/
&ELECTRONS
electron_maxstep = 200
mixing_beta = 0.1
conv_thr = 1e-06
/
&IONS
ion_dynamics = 'bfgs'
upscale = 1.0
/
&CELL
/

K_POINTS {automatic}
9 6 2 0  0  0

ATOMIC_SPECIES
Ag 107.8 Ag.pbe-n-rrkjus_psl.1.0.0.UPF
Bi 208.9 Bi.pbe-dn-rrkjus_psl.1.0.0.UPF
C 12.01 C.pbe-n-rrkjus_psl.1.0.0.UPF
Li 6.941 Li.pbe-sl-rrkjus_psl.1.0.0.UPF
O 15.99 O.pbe-n-rrkjus_psl.1.0.0.UPF

CELL_PARAMETERS {angstrom}
6.92564000 0.00000000 0.00000000
0.00000000 9.79433000 0.00000000
0.00000000 0.00000000 27.34580000

ATOMIC_POSITIONS {angstrom}
Li 0.00000000 7.34574750 -1.2242714700000015 0 0 0
Li 3.46282000 0.00000000 -3.6728144 0 0 0
Li 0.00000000 2.44858250 -1.2242714700000015 0 0 0
Li 3.46282000 4.89716500 -3.6728144 0 0 0
Li 1.73141000 0.00000000 -1.2242714700000015 0 0 0
Li 1.73141000 4.89716500 -1.2242714700000015 0 0 0
Li 5.19423000 7.34574750 -3.6728144 0 0 0
Li 5.19423000 2.44858250 -3.6728144 0 0 0
Li 6.71683195 2.44858250 3.43955472
Li 3.39314806 4.78139602 1.05472751
Li 6.68857534 7.34574750 3.44857884
Li 3.39314806 0.11576898 1.05472751
Li 2.03184426 4.94750786 3.51256801
Li 2.03177501 9.74398714 3.51256801
Li 5.16043288 2.44858250 1.22345109
Li 4.95356401 7.34574750 1.33310775
Ag 1.73141000 2.44858250 -3.6728144 0 0 0
Ag 1.73141000 7.34574750 -3.6728144 0 0 0
Ag 5.19423000 4.89716500 -1.2242714700000015 0 0 0
Ag 5.19423000 0.00000000 -1.2242714700000015 0 0 0
Ag 2.03163649 7.34574750 1.57593845
Ag 1.72746239 2.44858250 1.32982625
Ag 4.96097444 9.77033389 3.30063806
Ag 4.96097444 4.92116111 3.30063806
Bi 0.00000000 0.00000000 -3.6728144 0 0 0
Bi 3.46282000 2.44858250 -1.2242714700000015 0 0 0
Bi 3.46282000 7.34574750 -1.2242714700000015 0 0 0
Bi 0.00000000 4.89716500 -3.6728144 0 0 0
Bi 0.09439647 4.98629340 1.25927409
Bi 3.56954411 7.34574750 4.13741954
Bi 3.46746018 2.44858250 3.78930751
Bi 0.09432722 9.70510365 1.25927409
C 4.21799179 2.44868044 7.58982679
O 3.22069963 2.44858250 8.13428167
