&CONTROL
calculation = 'relax'
prefix = 'scf'
pseudo_dir = '/vol0004/mdt0/data/hp150275/u10028/POT_KKJUS'
outdir = './data'
tprnfor = .true.
nstep = 50
disk_io = 'non'
/
&SYSTEM
ibrav = 0
ecutwfc = 50.0
ecutrho = 400
occupations = 'smearing'
smearing = 'mp'
degauss = 0.01
assume_isolated = 'esm'
esm_bc = 'bc1'
input_dft = 'BEEF-VDW'
nosym = .true.
nspin = 1
ntyp = 4
nat = 34
/
&ELECTRONS
electron_maxstep = 200
mixing_beta = 0.1
conv_thr = 1e-06
/
&IONS
ion_dynamics = 'bfgs'
upscale = 1.0
/
&CELL
/

K_POINTS {automatic}
8 6 2 0  0  0

ATOMIC_SPECIES
Al 26.98 Al.pbe-nl-rrkjus_psl.1.0.0.UPF
C 12.01 C.pbe-n-rrkjus_psl.1.0.0.UPF
O 15.99 O.pbe-n-rrkjus_psl.1.0.0.UPF
Y 88.90 Y.pbe-spn-rrkjus_psl.1.0.0.UPF

CELL_PARAMETERS {angstrom}
7.18582000 0.00000000 0.00000000
0.00000000 10.16230000 0.00000000
0.00000000 0.00000000 27.62170000

ATOMIC_POSITIONS {angstrom}
Y 1.79645500 2.54057500 -3.81096595 0 0 0
Y 1.79645500 0.00000000 -1.270321980000002 0 0 0
Y 1.76153191 2.54037175 1.27529389
Y 1.79846703 10.15051173 3.93471116
Y 1.79645500 7.62172500 -3.81096595 0 0 0
Y 1.79645500 5.08115000 -1.270321980000002 0 0 0
Y 1.82735403 7.62131851 1.21673589
Y 1.79782031 5.09171879 3.93636847
Y 5.38936500 2.54057500 -3.81096595 0 0 0
Y 5.38936500 0.00000000 -1.270321980000002 0 0 0
Y 5.42428809 2.54037175 1.27529389
Y 5.38735297 10.15051173 3.93471116
Y 5.38936500 7.62172500 -3.81096595 0 0 0
Y 5.38936500 5.08115000 -1.270321980000002 0 0 0
Y 5.35846597 7.62131851 1.21701210
Y 5.38799969 5.09171879 3.93636847
Al 0.00000000 0.00000000 -3.81096595 0 0 0
Al 0.00000000 2.54057500 -1.270321980000002 0 0 0
Al 0.00000000 5.10950282 1.36699793
Al 0.00000000 2.53457924 3.73362519
Al 0.00000000 5.08115000 -3.81096595 0 0 0
Al 0.00000000 7.62172500 -1.270321980000002 0 0 0
Al 0.00000000 10.13435367 1.36672172
Al 0.00000000 7.62020066 3.70655592
Al 3.59291000 0.00000000 -3.81096595 0 0 0
Al 3.59291000 2.54057500 -1.270321980000002 0 0 0
Al 3.59291000 5.04832577 1.37031254
Al 3.59291000 2.54006689 3.84273090
Al 3.59291000 5.08115000 -3.81096595 0 0 0
Al 3.59291000 7.62172500 -1.270321980000002 0 0 0
Al 3.59291000 0.03119826 1.36948389
Al 3.59291000 7.62020066 3.80488918
C 0.00000000 2.55713955 5.66300093
O 0.00000000 2.55449735 6.84244752
