&CONTROL
calculation = 'relax'
prefix = 'scf'
pseudo_dir = '/vol0403/data/hp230205/u10028/POT_HYBRID_KKJUS_GBRV'
outdir = './data'
tprnfor = .true.
nstep = 50
disk_io = 'non'
/
&SYSTEM
ibrav = 0
ecutwfc = 50.0
ecutrho = 400
occupations = 'smearing'
smearing = 'mp'
degauss = 0.01
assume_isolated = 'esm'
esm_bc = 'bc1'
input_dft = 'BEEF-VDW'
nosym = .true.
nspin = 2
ntyp = 6
nat = 34
starting_magnetization(1) = 0.0
starting_magnetization(2) = 0.0
starting_magnetization(3) = 0.1
starting_magnetization(4) = 0.0
starting_magnetization(5) = 0.0
starting_magnetization(6) = 0.0
/
&ELECTRONS
electron_maxstep = 400
mixing_beta = 0.05
conv_thr = 1e-06
/
&IONS
ion_dynamics = 'bfgs'
upscale = 1.0
/
&CELL
/

K_POINTS {automatic}
6 6 1 0 0 0

ATOMIC_SPECIES
C 12.01 C.pbe-n-rrkjus_psl.1.0.0.UPF
In 114.8 In.pbe-dn-rrkjus_psl.1.0.0.UPF
Mn 54.93 mn_pbe_v1.5.uspp.F.UPF
O 15.99 O.pbe-n-rrkjus_psl.1.0.0.UPF
Pd 106.4 Pd.pbe-n-rrkjus_psl.1.0.0.UPF
Y 88.90 Y.pbe-spn-rrkjus_psl.1.0.0.UPF


CELL_PARAMETERS {angstrom}
6.85874000 0.00000000 0.00000000
0.00000000 9.69972000 0.00000000
0.00000000 0.00000000 27.27480000

ATOMIC_POSITIONS {angstrom}
Y 0.00000000 2.42493000 -1.2123648599999974 0 0 0
Y 0.00000000 7.27479000 -1.2123648599999974 0 0 0
Y 3.42937000 4.84986000 -3.63736733 0 0 0
Y 3.42937000 0.00000000 -3.63736733 0 0 0
Y 6.48905391 6.86691677 3.75601271
Y 6.48836804 2.83454918 3.75710370
Y 3.33369058 9.69904102 1.23636668
Y 3.55872584 4.84937501 1.31573635
Mn 5.14405500 0.00000000 -1.2123648599999974 0 0 0
Mn 5.14405500 4.84986000 -1.2123648599999974 0 0 0
Mn 1.71468500 2.42493000 -3.63736733 0 0 0
Mn 1.71468500 7.27479000 -3.63736733 0 0 0
Mn 4.06579248 4.85015099 4.60780471
Mn 5.22087289 0.00077598 3.64282229
Mn 1.54122747 7.24190795 1.46465676
Mn 1.54095312 2.45761806 1.46602050
In 0.00000000 0.00000000 -3.63736733 0 0 0
In 0.00000000 4.84986000 -3.63736733 0 0 0
In 3.42937000 7.27479000 -1.2123648599999974 0 0 0
In 3.42937000 2.42493000 -1.2123648599999974 0 0 0
In 6.80407584 4.85005399 1.10926612
In 6.82444630 9.69942901 1.16981617
In 3.29768219 2.23394251 3.69600815
In 3.29802513 7.46635947 3.69655364
Pd 1.71468500 0.00000000 -1.2123648599999974 0 0 0
Pd 1.71468500 4.84986000 -1.2123648599999974 0 0 0
Pd 5.14405500 2.42493000 -3.63736733 0 0 0
Pd 5.14405500 7.27479000 -3.63736733 0 0 0
Pd 1.70240786 4.84986000 3.37580200
Pd 1.22689141 0.00029099 3.68891670
Pd 5.16723754 7.33706220 1.18781754
Pd 5.16895223 2.36246380 1.18809029
C 1.02970264 9.69942901 5.61779056
O 0.99341990 9.69942901 6.77696956
