&CONTROL
calculation = 'relax'
prefix = 'scf'
pseudo_dir = '/vol0403/data/hp230205/u10028/POT_HYBRID_KKJUS_GBRV'
outdir = './data'
tprnfor = .true.
nstep = 50
disk_io = 'non'
/
&SYSTEM
ibrav = 0
ecutwfc = 50.0
ecutrho = 400
occupations = 'smearing'
smearing = 'mp'
degauss = 0.01
assume_isolated = 'esm'
esm_bc = 'bc1'
input_dft = 'BEEF-VDW'
nosym = .true.
nspin = 1
ntyp = 5
nat = 33
/
&ELECTRONS
electron_maxstep = 200
mixing_beta = 0.1
conv_thr = 1e-06
/
&IONS
ion_dynamics = 'bfgs'
upscale = 1.0
/
&CELL
/

K_POINTS {automatic}
7 7 2 0  0  0

ATOMIC_SPECIES
C 12.01 C.pbe-n-rrkjus_psl.1.0.0.UPF
Li 6.941 Li.pbe-sl-rrkjus_psl.1.0.0.UPF
Pb 207.2 Pb.pbe-dn-rrkjus_psl.1.0.0.UPF
Sn 118.7 Sn.pbe-dn-rrkjus_psl.1.0.0.UPF
Y 88.90 Y.pbe-spn-rrkjus_psl.1.0.0.UPF


CELL_PARAMETERS {angstrom}
9.36828000 0.00000000 0.00000000
0.00000000 9.64462000 0.00000000
0.00000000 0.00000000 26.65380000

ATOMIC_POSITIONS {angstrom}
Li 0.00000000 0.00000000 -3.3269273199999994 0 0 0
Li 0.00000000 0.00000000 1.03416744
Li 0.00000000 4.82231000 -3.3269273199999994 0 0 0
Li 0.00000000 4.82231000 1.38413183
Li 4.68414000 0.00000000 -3.3269273199999994 0 0 0
Li 4.68414000 0.00000000 1.26925396
Li 4.68414000 4.82231000 -3.3269273199999994 0 0 0
Li 4.68414000 4.82231000 1.20528484
Y 2.34207000 2.41115500 -3.3269273199999994 0 0 0
Y 2.33157753 2.41076922 1.04722780
Y 2.34207000 7.23346500 -3.3269273199999994 0 0 0
Y 2.33157753 7.23385078 1.04722780
Y 7.02621000 2.41115500 -3.3269273199999994 0 0 0
Y 7.03670247 2.41076922 1.04722780
Y 7.02621000 7.23346500 -3.3269273199999994 0 0 0
Y 7.03670247 7.23385078 1.04722780
Sn 0.00000000 2.41115500 -1.1090646200000016 0 0 0
Sn 0.00000000 2.20591749 3.37463762
Sn 0.00000000 7.23346500 -1.1090646200000016 0 0 0
Sn 0.00000000 7.43870251 3.37463762
Sn 4.68414000 2.41115500 -1.1090646200000016 0 0 0
Sn 4.68414000 2.53267721 3.17100259
Sn 4.68414000 7.23346500 -1.1090646200000016 0 0 0
Sn 4.68414000 7.11194279 3.17100259
Pb 2.34207000 0.00000000 -1.1090646200000016 0 0 0
Pb 2.65281585 0.00000000 3.82695260
Pb 2.34207000 4.82231000 -1.1090646200000016 0 0 0
Pb 2.47285119 4.82231000 3.72486855
Pb 7.02621000 0.00000000 -1.1090646200000016 0 0 0
Pb 6.71546415 0.00000000 3.82695260
Pb 7.02621000 4.82231000 -1.1090646200000016 0 0 0
Pb 6.89533513 4.82231000 3.72486855
C 0.00009368 0.00000000 3.14461532
