&CONTROL
calculation = 'relax'
prefix = 'scf'
pseudo_dir = '/vol0004/mdt0/data/hp150275/u10028/POT_KKJUS'
outdir = './data'
tprnfor = .true.
nstep = 50
disk_io = 'non'
/
&SYSTEM
ibrav = 0
ecutwfc = 50.0
ecutrho = 400
occupations = 'smearing'
smearing = 'mp'
degauss = 0.01
assume_isolated = 'esm'
esm_bc = 'bc1'
input_dft = 'BEEF-VDW'
nosym = .true.
nspin = 1
ntyp = 3
nat = 32
/
&ELECTRONS
electron_maxstep = 200
mixing_beta = 0.1
conv_thr = 1e-06
/
&IONS
ion_dynamics = 'bfgs'
upscale = 1.0
/
&CELL
/

K_POINTS {automatic}
8 6 1 0 0 0

ATOMIC_SPECIES
Al 26.98 Al.pbe-nl-rrkjus_psl.1.0.0.UPF
Nb 92.90 Nb.pbe-spn-rrkjus_psl.1.0.0.UPF
Ni 58.69 Ni.pbe-spn-rrkjus_psl.1.0.0.UPF

CELL_PARAMETERS {angstrom}
6.01786000 0.00000000 0.00000000
0.00000000 8.51054000 0.00000000
0.00000000 0.00000000 26.38290000

ATOMIC_POSITIONS {angstrom}
Nb 0.00000000 0.00000000 -3.1915394100000007 0 0 0
Nb 3.00893000 2.12763500 -1.0637585299999976 0 0 0
Nb 3.00893000 6.38290500 -1.0637585299999976 0 0 0
Nb 0.00000000 4.25527000 -3.1915394100000007 0 0 0
Nb 0.00000000 4.25544021 1.04555433
Nb 3.00893000 6.38290500 3.22399038
Nb 3.00893000 2.12763500 3.22346272
Nb 0.00000000 8.51036979 1.04555433
Al 0.00000000 6.38290500 -1.0637585299999976 0 0 0
Al 3.00893000 0.00000000 -3.1915394100000007 0 0 0
Al 0.00000000 2.12763500 -1.0637585299999976 0 0 0
Al 3.00893000 4.25527000 -3.1915394100000007 0 0 0
Al 0.00000000 2.12763500 3.17570967
Al 3.00893000 4.25527000 1.05557983
Al 0.00000000 6.38290500 3.17570967
Al 3.00893000 0.00000000 1.05531600
Ni 1.50446500 0.00000000 -1.0637585299999976 0 0 0
Ni 4.51339500 4.25527000 -1.0637585299999976 0 0 0
Ni 4.51339500 0.00000000 -1.0637585299999976 0 0 0
Ni 1.50446500 4.25527000 -1.0637585299999976 0 0 0
Ni 4.51339500 6.38290500 -3.1915394100000007 0 0 0
Ni 1.50446500 2.12763500 -3.1915394100000007 0 0 0
Ni 1.50446500 6.38290500 -3.1915394100000007 0 0 0
Ni 4.51339500 2.12763500 -3.1915394100000007 0 0 0
Ni 1.51716268 4.25518489 3.06279086
Ni 4.50069732 0.00000000 3.06252703
Ni 4.50075749 4.25518489 3.06279086
Ni 1.51722286 0.00008511 3.06252703
Ni 4.46073872 2.12763500 1.14237957
Ni 1.55766288 6.38281989 1.14290723
Ni 1.55718145 2.12754989 1.14237957
Ni 4.46025730 6.38290500 1.14290723
