&CONTROL
calculation = 'relax'
prefix = 'scf'
pseudo_dir = '/vol0403/data/hp230205/u10028/POT_HYBRID_KKJUS_GBRV'
outdir = './data'
tprnfor = .true.
nstep = 50
disk_io = 'non'
/
&SYSTEM
ibrav = 0
ecutwfc = 50.0
ecutrho = 400
occupations = 'smearing'
smearing = 'mp'
degauss = 0.01
assume_isolated = 'esm'
esm_bc = 'bc1'
input_dft = 'BEEF-VDW'
nosym = .true.
nspin = 2
ntyp = 5
nat = 33
starting_magnetization(1) = 0.0
starting_magnetization(2) = 0.0
starting_magnetization(3) = 0.1
starting_magnetization(4) = 0.0
starting_magnetization(5) = 0.0
/
&ELECTRONS
electron_maxstep = 200
mixing_beta = 0.1
conv_thr = 1e-06
/
&IONS
ion_dynamics = 'bfgs'
upscale = 1.0
/
&CELL
/

K_POINTS {automatic}
9 6 2 0  0  0

ATOMIC_SPECIES
Al 26.98 Al.pbe-nl-rrkjus_psl.1.0.0.UPF
C 12.01 C.pbe-n-rrkjus_psl.1.0.0.UPF
Co 58.93 co_pbe_v1.2.uspp.F.UPF
Li 6.941 Li.pbe-sl-rrkjus_psl.1.0.0.UPF
Pd 106.4 Pd.pbe-n-rrkjus_psl.1.0.0.UPF


CELL_PARAMETERS {angstrom}
5.87254000 0.00000000 0.00000000
0.00000000 8.30502000 0.00000000
0.00000000 0.00000000 26.22880000

ATOMIC_POSITIONS {angstrom}
Li 0.00000000 2.07625500 25.19066410
Li 0.00000000 6.22876500 25.19066410
Li 2.93627000 4.15251000 23.11439229
Li 2.93627000 0.00000000 23.11439229
Li 5.86913393 6.24853095 3.22273266
Li 5.86907520 2.05648905 3.22273266
Li 2.94337577 0.00000000 0.96233467
Li 2.92851825 4.15251000 1.03866048
Al 0.00000000 0.00000000 23.11439229
Al 0.00000000 4.15251000 23.11439229
Al 2.93627000 6.22876500 25.19066410
Al 2.93627000 2.07625500 25.19066410
Al 0.01520988 4.15251000 1.04600454
Al 0.01262596 0.00000000 0.98987491
Al 2.97485259 2.13962230 3.10548992
Al 2.97485259 6.16539770 3.10548992
Co 4.40440500 0.00000000 25.19066410
Co 4.40440500 4.15251000 25.19066410
Co 1.46813500 2.07625500 23.11439229
Co 1.46813500 6.22876500 23.11439229
Co 4.36805398 4.15259305 3.05670435
Co 4.35671998 8.30493695 3.02182005
Co 1.46790010 6.23889712 1.03918506
Co 1.46790010 2.06612288 1.03918506
Pd 1.46813500 0.00000000 25.19066410
Pd 1.46813500 4.15251000 25.19066410
Pd 4.40440500 2.07625500 23.11439229
Pd 4.40440500 6.22876500 23.11439229
Pd 1.49855476 4.15251000 3.09473611
Pd 1.58335423 0.00000000 3.10575221
Pd 4.41791184 6.23972763 1.03446387
Pd 4.41791184 2.06529237 1.03446387
C 5.68726136 0.00000000 4.04107122
