&CONTROL
calculation = 'relax'
prefix = 'scf'
pseudo_dir = '/vol0004/mdt0/data/hp150275/u10028/POT_KKJUS'
outdir = './data'
tprnfor = .true.
nstep = 50
disk_io = 'non'
/
&SYSTEM
ibrav = 0
ecutwfc = 50.0
ecutrho = 400
occupations = 'smearing'
smearing = 'mp'
degauss = 0.01
assume_isolated = 'esm'
esm_bc = 'bc1'
input_dft = 'BEEF-VDW'
nosym = .true.
nspin = 1
ntyp = 3
nat = 17
/
&ELECTRONS
electron_maxstep = 200
mixing_beta = 0.1
conv_thr = 1e-06
/
&IONS
ion_dynamics = 'bfgs'
upscale = 1.0
/
&CELL
/

K_POINTS {automatic}
6 8 1 0 0 0

ATOMIC_SPECIES
C 12.01 C.pbe-n-rrkjus_psl.1.0.0.UPF
Rh 102.9 Rh.pbe-spn-rrkjus_psl.1.0.0.UPF
Ta 180.9 Ta.pbe-spn-rrkjus_psl.1.0.0.UPF

CELL_PARAMETERS {angstrom}
7.79956000 0.00000000 0.00000000
0.00000000 5.51512000 0.00000000
0.00000000 0.00000000 24.13630000

ATOMIC_POSITIONS {angstrom}
Ta 0.00000000 0.00000000 -2.0682395499999977 0 0 0
Ta 7.79940401 2.75756000 0.43324659
Ta 3.89978000 0.00000000 -2.0682395499999977 0 0 0
Ta 3.89985800 2.75756000 0.83246099
Rh 0.00000000 2.75756000 -2.0682395499999977 0 0 0
Rh 1.94989000 4.13634000 -0.6893327300000003 0 0 0
Rh 1.94989000 1.37878000 -0.6893327300000003 0 0 0
Rh 7.79948200 0.00000000 0.44338383
Rh 1.59524401 1.40619015 2.07885952
Rh 1.59524401 4.10892985 2.07885952
Rh 3.89978000 2.75756000 -2.0682395499999977 0 0 0
Rh 5.84967000 4.13634000 -0.6893327300000003 0 0 0
Rh 5.84967000 1.37878000 -0.6893327300000003 0 0 0
Rh 3.89978000 0.00000000 0.63285379
Rh 6.20416000 1.40624530 2.07861816
Rh 6.20416000 4.10887470 2.07861816
C 0.00077996 2.75756000 2.63375306
