&CONTROL
calculation = 'relax'
prefix = 'scf'
pseudo_dir = '/vol0403/data/hp230205/u10028/POT_HYBRID_KKJUS_GBRV'
outdir = './data'
tprnfor = .true.
nstep = 50
disk_io = 'non'
/
&SYSTEM
ibrav = 0
ecutwfc = 50.0
ecutrho = 400
occupations = 'smearing'
smearing = 'mp'
degauss = 0.01
assume_isolated = 'esm'
esm_bc = 'bc1'
input_dft = 'BEEF-VDW'
nosym = .true.
nspin = 1
ntyp = 5
nat = 33
/
&ELECTRONS
electron_maxstep = 200
mixing_beta = 0.1
conv_thr = 1e-06
/
&IONS
ion_dynamics = 'bfgs'
upscale = 1.0
/
&CELL
/

K_POINTS {automatic}
7 7 2 0  0  0

ATOMIC_SPECIES
C 12.01 C.pbe-n-rrkjus_psl.1.0.0.UPF
Ga 69.72 Ga.pbe-dnl-rrkjus_psl.1.0.0.UPF
Ge 72.64 Ge.pbe-dn-rrkjus_psl.1.0.0.UPF
Li 6.941 Li.pbe-sl-rrkjus_psl.1.0.0.UPF
Sc 44.95 Sc.pbe-spn-rrkjus_psl.1.0.0.UPF


CELL_PARAMETERS {angstrom}
7.95848000 0.00000000 0.00000000
0.00000000 8.07712000 0.00000000
0.00000000 0.00000000 26.27990000

ATOMIC_POSITIONS {angstrom}
Li 1.98962000 2.01928000 -3.1399224500000003 0 0 0
Li 1.98962000 2.01928000 1.04672842
Li 1.98962000 6.05784000 -3.1399224500000003 0 0 0
Li 1.98962000 6.05784000 1.04672842
Li 5.96886000 2.01928000 -3.1399224500000003 0 0 0
Li 5.96886000 2.01928000 1.04672842
Li 5.96886000 6.05784000 -3.1399224500000003 0 0 0
Li 5.96886000 6.05784000 1.04672842
Sc 1.98962000 0.00000000 -1.0467284200000009 0 0 0
Sc 1.98962000 0.00000000 3.13992245
Sc 1.98962000 4.03856000 -1.0467284200000009 0 0 0
Sc 1.98962000 4.03856000 3.13992245
Sc 5.96886000 0.00000000 -1.0467284200000009 0 0 0
Sc 5.96886000 0.00000000 3.13992245
Sc 5.96886000 4.03856000 -1.0467284200000009 0 0 0
Sc 5.96886000 4.03856000 3.13992245
Ga 0.00000000 0.00000000 -3.1399224500000003 0 0 0
Ga 0.00000000 0.00000000 1.04672842
Ga 0.00000000 4.03856000 -3.1399224500000003 0 0 0
Ga 0.00000000 4.03856000 1.04672842
Ga 3.97924000 0.00000000 -3.1399224500000003 0 0 0
Ga 3.97924000 0.00000000 1.04672842
Ga 3.97924000 4.03856000 -3.1399224500000003 0 0 0
Ga 3.97924000 4.03856000 1.04672842
Ge 0.00000000 2.01928000 -1.0467284200000009 0 0 0
Ge 0.00000000 2.01928000 3.13992245
Ge 0.00000000 6.05784000 -1.0467284200000009 0 0 0
Ge 0.00000000 6.05784000 3.13992245
Ge 3.97924000 2.01928000 -1.0467284200000009 0 0 0
Ge 3.97924000 2.01928000 3.13992245
Ge 3.97924000 6.05784000 -1.0467284200000009 0 0 0
Ge 3.97924000 6.05784000 3.13992245
C 0.00000000 0.00000000 3.93988261
