&CONTROL
calculation = 'relax'
prefix = 'scf'
pseudo_dir = '/vol0403/data/hp230205/u10028/POT_HYBRID_KKJUS_GBRV'
outdir = './data'
tprnfor = .true.
nstep = 50
disk_io = 'non'
/
&SYSTEM
ibrav = 0
ecutwfc = 50.0
ecutrho = 400
occupations = 'smearing'
smearing = 'mp'
degauss = 0.01
assume_isolated = 'esm'
esm_bc = 'bc1'
input_dft = 'BEEF-VDW'
nosym = .true.
nspin = 1
ntyp = 5
nat = 17
/
&ELECTRONS
electron_maxstep = 200
mixing_beta = 0.1
conv_thr = 1e-06
/
&IONS
ion_dynamics = 'bfgs'
upscale = 1.0
/
&CELL
/

K_POINTS {automatic}
6 6 1 0 0 0

ATOMIC_SPECIES
C 12.01 C.pbe-n-rrkjus_psl.1.0.0.UPF
In 114.8 In.pbe-dn-rrkjus_psl.1.0.0.UPF
Pd 106.4 Pd.pbe-n-rrkjus_psl.1.0.0.UPF
Sc 44.95 Sc.pbe-spn-rrkjus_psl.1.0.0.UPF
Y 88.90 Y.pbe-spn-rrkjus_psl.1.0.0.UPF


CELL_PARAMETERS {angstrom}
6.25545000 0.00000000 0.00000000
0.00000000 9.64246000 0.00000000
0.00000000 0.00000000 24.46440000

ATOMIC_POSITIONS {angstrom}
Y 3.12772500 0.00000000 -2.2321318600000026 0 0 0
Y 5.08011350 0.00000000 0.76231070
Y 3.12772500 4.82123000 -2.2321318600000026 0 0 0
Y 5.12471486 4.82123000 0.80854842
Sc 1.08313117 2.41061500 -0.7439624000000009 0 0 0
Sc 3.22518491 2.10523829 2.24705514
Sc 1.08313117 7.23184500 -0.7439624000000009 0 0 0
Sc 3.22518491 7.53722171 2.24705514
In 0.00000000 0.00000000 -2.2321318600000026 0 0 0
In 1.87338217 0.00000000 0.78481795
In 0.00000000 4.82123000 -2.2321318600000026 0 0 0
In 2.03070673 4.82123000 1.14493392
Pd 4.21085617 2.41061500 -0.7439624000000009 0 0 0
Pd 0.27042310 2.44850987 1.69000075
Pd 4.21085617 7.23184500 -0.7439624000000009 0 0 0
Pd 0.27042310 7.19395013 1.69000075
C 3.50092515 0.00000000 2.39873442
