&CONTROL
calculation = 'relax'
prefix = 'scf'
pseudo_dir = '/vol0004/mdt0/data/hp150275/u10028/POT_KKJUS'
outdir = './data'
tprnfor = .true.
nstep = 50
disk_io = 'non'
/
&SYSTEM
ibrav = 0
ecutwfc = 50.0
ecutrho = 400
occupations = 'smearing'
smearing = 'mp'
degauss = 0.01
assume_isolated = 'esm'
esm_bc = 'bc1'
input_dft = 'BEEF-VDW'
nosym = .true.
nspin = 1
ntyp = 4
nat = 34
/
&ELECTRONS
electron_maxstep = 200
mixing_beta = 0.1
conv_thr = 1e-06
/
&IONS
ion_dynamics = 'bfgs'
upscale = 1.0
/
&CELL
/

K_POINTS {automatic}
8 6 1 0 0 0

ATOMIC_SPECIES
C 12.01 C.pbe-n-rrkjus_psl.1.0.0.UPF
Cu 63.54 Cu.pbe-dn-rrkjus_psl.1.0.0.UPF
O 15.99 O.pbe-n-rrkjus_psl.1.0.0.UPF
Sb 121.7 Sb.pbe-n-rrkjus_psl.1.0.0.UPF

CELL_PARAMETERS {angstrom}
6.30953000 0.00000000 0.00000000
0.00000000 8.92302000 0.00000000
0.00000000 0.00000000 26.69230000

ATOMIC_POSITIONS {angstrom}
Cu 1.57738250 0.00000000 -1.1154712199999999 0 0 0
Cu 4.73214750 4.46151000 -1.1154712199999999 0 0 0
Cu 4.73214750 0.00000000 -1.1154712199999999 0 0 0
Cu 1.57738250 4.46151000 -1.1154712199999999 0 0 0
Cu 4.73214750 6.69226500 -3.346146730000001 0 0 0
Cu 1.57738250 2.23075500 -3.346146730000001 0 0 0
Cu 1.57738250 6.69226500 -3.346146730000001 0 0 0
Cu 4.73214750 2.23075500 -3.346146730000001 0 0 0
Cu 0.00000000 6.69226500 -1.1154712199999999 0 0 0
Cu 3.15476500 0.00000000 -3.346146730000001 0 0 0
Cu 0.00000000 2.23075500 -1.1154712199999999 0 0 0
Cu 3.15476500 4.46151000 -3.346146730000001 0 0 0
Cu 1.82389584 4.47248531 3.06480989
Cu 4.48538178 8.91195546 3.06507681
Cu 4.48594964 4.47212839 3.06454296
Cu 1.82395893 8.91195546 3.06454296
Cu 4.47263653 2.23111192 1.33701731
Cu 1.85765182 6.69253269 1.42056421
Cu 1.83695656 2.23075500 1.33675038
Cu 4.45194127 6.69208654 1.42056421
Cu 6.30946690 2.23129038 3.03331297
Cu 3.15495429 4.46454383 0.87417283
Cu 6.30946690 6.69235423 3.10725064
Cu 3.15451262 8.92025386 0.87390590
Sb 0.00000000 0.00000000 -3.346146730000001 0 0 0
Sb 3.15476500 2.23075500 -1.1154712199999999 0 0 0
Sb 3.15476500 6.69226500 -1.1154712199999999 0 0 0
Sb 0.00000000 4.46151000 -3.346146730000001 0 0 0
Sb 0.00018929 4.48470985 1.15844582
Sb 3.15495429 6.69226500 3.89921118
Sb 3.15470190 2.23075500 3.81326198
Sb 6.30940381 8.90026630 1.15844582
C 3.15482810 2.23084423 7.65641933
O 3.15413405 2.23039808 8.79084208
