&CONTROL
calculation = 'relax'
prefix = 'scf'
pseudo_dir = '/vol0004/mdt0/data/hp150275/u10028/POT_HYBRID_KKJUS_GBRV'
outdir = './data'
tprnfor = .true.
nstep = 50
disk_io = 'non'
/
&SYSTEM
ibrav = 0
ecutwfc = 50.0
ecutrho = 400
occupations = 'smearing'
smearing = 'mp'
degauss = 0.01
assume_isolated = 'esm'
esm_bc = 'bc1'
input_dft = 'BEEF-VDW'
nosym = .true.
nspin = 2
ntyp = 3
nat = 17
starting_magnetization(1) = 0.1
starting_magnetization(2) = 0.1
starting_magnetization(3) = 0.1
/
&ELECTRONS
electron_maxstep = 200
mixing_beta = 0.1
conv_thr = 1e-06
/
&IONS
ion_dynamics = 'bfgs'
upscale = 1.0
/
&CELL
/

K_POINTS {automatic}
8 8 1 0 0 0

ATOMIC_SPECIES
C 12.01 C.pbe-n-rrkjus_psl.1.0.0.UPF
Co 58.93 co_pbe_v1.2.uspp.F.UPF
Hf 178.4 Hf.pbe-spn-rrkjus_psl.1.0.0.UPF

CELL_PARAMETERS {angstrom}
6.31043000 0.00000000 0.00000000
-0.00000000 6.31043000 0.00000000
0.00000000 0.00000000 24.73280000

ATOMIC_POSITIONS {angstrom}
Hf 1.57760750 1.57760750 -0.3915202200000003 0 0 0
Hf 1.57760750 1.57760750 2.76364307
Hf 1.57760750 4.73282250 -0.3915202200000003 0 0 0
Hf 1.57760750 4.73282250 2.76364307
Hf 4.73282250 1.57760750 -0.3915202200000003 0 0 0
Hf 4.73282250 1.57760750 2.76364307
Hf 4.73282250 4.73282250 -0.3915202200000003 0 0 0
Hf 4.73282250 4.73282250 2.76364307
Co 0.00000000 0.00000000 -1.96922554 0 0 0
Co 0.00000000 0.00000000 1.18593776
Co 0.00000000 3.15521500 -1.96922554 0 0 0
Co 0.00000000 3.15521500 1.18593776
Co 3.15521500 0.00000000 -1.96922554 0 0 0
Co 3.15521500 -0.00000000 1.18593776
Co 3.15521500 3.15521500 -1.96922554 0 0 0
Co 3.15521500 3.15521500 1.18593776
C 0.00000000 0.00000000 3.56350182
