&CONTROL
calculation = 'relax'
prefix = 'scf'
pseudo_dir = '/vol0004/mdt0/data/hp150275/u10028/POT_KKJUS'
outdir = './data'
tprnfor = .true.
nstep = 50
disk_io = 'non'
/
&SYSTEM
ibrav = 0
ecutwfc = 50.0
ecutrho = 400
occupations = 'smearing'
smearing = 'mp'
degauss = 0.01
assume_isolated = 'esm'
esm_bc = 'bc1'
input_dft = 'BEEF-VDW'
nosym = .true.
nspin = 1
ntyp = 5
nat = 34
/
&ELECTRONS
electron_maxstep = 200
mixing_beta = 0.1
conv_thr = 1e-06
/
&IONS
ion_dynamics = 'bfgs'
upscale = 1.0
/
&CELL
/

K_POINTS {automatic}
8 6 1 0 0 0

ATOMIC_SPECIES
C 12.01 C.pbe-n-rrkjus_psl.1.0.0.UPF
Cu 63.54 Cu.pbe-dn-rrkjus_psl.1.0.0.UPF
In 114.8 In.pbe-dn-rrkjus_psl.1.0.0.UPF
O 15.99 O.pbe-n-rrkjus_psl.1.0.0.UPF
Sc 44.95 Sc.pbe-spn-rrkjus_psl.1.0.0.UPF

CELL_PARAMETERS {angstrom}
6.46446000 0.00000000 0.00000000
0.00000000 9.14213000 0.00000000
0.00000000 0.00000000 26.85660000

ATOMIC_POSITIONS {angstrom}
Sc 0.00000000 0.00000000 -3.4282449899999996 0 0 0
Sc 3.23223000 2.28553250 -1.1427483299999999 0 0 0
Sc 3.23223000 6.85659750 -1.1427483299999999 0 0 0
Sc 0.00000000 4.57106500 -3.4282449899999996 0 0 0
Sc 6.45935308 4.57097358 1.19592440
Sc 3.17353270 7.03011513 3.43334774
Sc 3.17333877 2.11228914 3.43307918
Sc 0.03775245 0.00000000 1.18303323
In 0.00000000 6.85659750 -1.1427483299999999 0 0 0
In 3.23223000 0.00000000 -3.4282449899999996 0 0 0
In 0.00000000 2.28553250 -1.1427483299999999 0 0 0
In 3.23223000 4.57106500 -3.4282449899999996 0 0 0
In 6.42509144 2.43034384 3.51364898
In 3.24328423 4.57106500 1.07399543
In 6.42502679 6.71187758 3.51338041
In 3.22279189 9.14185574 1.11884596
Cu 1.61611500 0.00000000 -1.1427483299999999 0 0 0
Cu 4.84834500 4.57106500 -1.1427483299999999 0 0 0
Cu 4.84834500 0.00000000 -1.1427483299999999 0 0 0
Cu 1.61611500 4.57106500 -1.1427483299999999 0 0 0
Cu 4.84834500 6.85659750 -3.4282449899999996 0 0 0
Cu 1.61611500 2.28553250 -3.4282449899999996 0 0 0
Cu 1.61611500 6.85659750 -3.4282449899999996 0 0 0
Cu 4.84834500 2.28553250 -3.4282449899999996 0 0 0
Cu 1.83370872 4.57124784 3.40219409
Cu 4.98080179 0.00000000 3.41911375
Cu 4.57554479 4.57124784 3.45456446
Cu 1.10231972 0.00000000 3.86251621
Cu 4.84349666 2.28507539 1.16799353
Cu 1.61378779 6.83291938 1.16423361
Cu 1.61372315 2.30911920 1.16396504
Cu 4.84369059 6.85696319 1.16799353
C 2.83382533 9.14139863 4.80249721
O 3.10281151 0.00082279 5.96914792
