&CONTROL
calculation = 'relax'
prefix = 'scf'
pseudo_dir = '/vol0403/data/hp230205/u10028/POT_HYBRID_KKJUS_GBRV'
outdir = './data'
tprnfor = .true.
nstep = 50
disk_io = 'non'
/
&SYSTEM
ibrav = 0
ecutwfc = 50.0
ecutrho = 400
occupations = 'smearing'
smearing = 'mp'
degauss = 0.01
assume_isolated = 'esm'
esm_bc = 'bc1'
input_dft = 'BEEF-VDW'
nosym = .true.
nspin = 1
ntyp = 6
nat = 18
/
&ELECTRONS
electron_maxstep = 200
mixing_beta = 0.1
conv_thr = 1e-06
/
&IONS
ion_dynamics = 'bfgs'
upscale = 1.0
/
&CELL
/

K_POINTS {automatic}
8 8 1 0 0 0

ATOMIC_SPECIES
C 12.01 C.pbe-n-rrkjus_psl.1.0.0.UPF
Li 6.941 Li.pbe-sl-rrkjus_psl.1.0.0.UPF
Mg 24.30 Mg.pbe-spnl-rrkjus_psl.1.0.0.UPF
O 15.99 O.pbe-n-rrkjus_psl.1.0.0.UPF
Pb 207.2 Pb.pbe-dn-rrkjus_psl.1.0.0.UPF
Pd 106.4 Pd.pbe-n-rrkjus_psl.1.0.0.UPF


CELL_PARAMETERS {angstrom}
6.68280000 0.00000000 0.00000000
0.00000000 6.68280000 0.00000000
0.00000000 0.00000000 25.01210000

ATOMIC_POSITIONS {angstrom}
Li 0.00000000 0.00000000 -2.5059623 0 0 0
Li 0.02265469 3.32489348 0.86741963
Li 3.32482666 0.02265469 0.86741963
Li 3.34140000 3.34140000 -2.5059623 0 0 0
Mg 5.01210000 1.67070000 -0.8354041400000014 0 0 0
Mg 5.00227628 5.00227628 2.39816015
Mg 1.67831839 1.67838522 2.48895407
Mg 1.67070000 5.01210000 -0.8354041400000014 0 0 0
Pd 0.00000000 3.34140000 -2.5059623 0 0 0
Pd 0.01269732 0.01263049 0.90468766
Pd 3.32729929 3.32736612 0.89818451
Pd 3.34140000 0.00000000 -2.5059623 0 0 0
Pb 1.67070000 1.67070000 -0.8354041400000014 0 0 0
Pb 1.66769274 5.01430532 2.77609298
Pb 5.01430532 1.66769274 2.77609298
Pb 5.01210000 5.01210000 -0.8354041400000014 0 0 0
C 1.67871936 1.67871936 4.75279924
O 1.67691500 1.67691500 5.89735294
