&CONTROL
calculation = 'relax'
prefix = 'scf'
pseudo_dir = '/vol0004/mdt0/data/hp150275/u10028/POT_KKJUS'
outdir = './data'
tprnfor = .true.
nstep = 50
disk_io = 'non'
/
&SYSTEM
ibrav = 0
ecutwfc = 50.0
ecutrho = 400
occupations = 'smearing'
smearing = 'mp'
degauss = 0.01
assume_isolated = 'esm'
esm_bc = 'bc1'
input_dft = 'BEEF-VDW'
nosym = .true.
nspin = 1
ntyp = 3
nat = 17
/
&ELECTRONS
electron_maxstep = 200
mixing_beta = 0.1
conv_thr = 1e-06
/
&IONS
ion_dynamics = 'bfgs'
upscale = 1.0
/
&CELL
/

K_POINTS {automatic}
8 11 2 0  0  0

ATOMIC_SPECIES
Au 196.9 Au.pbe-n-rrkjus_psl.1.0.0.UPF
C 12.01 C.pbe-n-rrkjus_psl.1.0.0.UPF
Li 6.941 Li.pbe-sl-rrkjus_psl.1.0.0.UPF

CELL_PARAMETERS {angstrom}
8.24301000 0.00000000 0.00000000
0.00000000 5.82869000 0.00000000
0.00000000 0.00000000 24.37150000

ATOMIC_POSITIONS {angstrom}
Li 0.02423445 0.03182465 2.16687007
Li 0.00000000 2.91434500 -0.7284641300000025 0 0 0
Li 4.09718812 0.03194122 2.16662635
Li 4.12150500 2.91434500 -0.7284641300000025 0 0 0
Au 8.21292301 2.95147376 2.36915352
Au 2.06067007 4.41902132 0.77550113
Au 2.06067007 1.39742843 0.78622459
Au 0.00000000 0.00000000 -0.7284641300000025 0 0 0
Au 2.06075250 1.45717250 -2.1856361200000016 0 0 0
Au 2.06075250 4.37151750 -2.1856361200000016 0 0 0
Au 4.15167442 2.95153204 2.36890980
Au 6.18242236 4.42893010 1.02116585
Au 6.18233993 1.45723079 1.00459323
Au 4.12150500 0.00000000 -0.7284641300000025 0 0 0
Au 6.18225750 1.45717250 -2.1856361200000016 0 0 0
Au 6.18225750 4.37151750 -2.1856361200000016 0 0 0
C 2.06083493 2.90630141 2.25241403
