&CONTROL
calculation = 'relax'
prefix = 'scf'
pseudo_dir = '/vol0004/mdt0/data/hp150275/u10028/POT_HYBRID_KKJUS_GBRV'
outdir = './data'
tprnfor = .true.
nstep = 50
disk_io = 'non'
/
&SYSTEM
ibrav = 0
ecutwfc = 50.0
ecutrho = 400
occupations = 'smearing'
smearing = 'mp'
degauss = 0.01
assume_isolated = 'esm'
esm_bc = 'bc1'
input_dft = 'BEEF-VDW'
nosym = .true.
nspin = 2
ntyp = 4
nat = 33
starting_magnetization(1) = 0.0
starting_magnetization(2) = 0.0
starting_magnetization(3) = 0.001
starting_magnetization(4) = 0.0
/
&ELECTRONS
electron_maxstep = 300
mixing_beta = 0.1
conv_thr = 1e-06
/
&IONS
ion_dynamics = 'bfgs'
upscale = 1.0
/
&CELL
/

K_POINTS {automatic}
9 6 2 0  0  0

ATOMIC_SPECIES
Al 26.98 Al.pbe-nl-rrkjus_psl.1.0.0.UPF
C 12.01 C.pbe-n-rrkjus_psl.1.0.0.UPF
Ni 58.69 ni_pbe_v1.4.uspp.F.UPF
Zr 91.22 Zr.pbe-spn-rrkjus_psl.1.0.0.UPF

CELL_PARAMETERS {angstrom}
6.14873000 0.00000000 0.00000000
0.00000000 8.69561000 0.00000000
0.00000000 0.00000000 26.52170000

ATOMIC_POSITIONS {angstrom}
Zr 0.00000000 0.00000000 -3.2608430099999985 0 0 0
Zr 3.07436500 2.17390250 -1.086859269999998 0 0 0
Zr 3.07436500 6.52170750 -1.086859269999998 0 0 0
Zr 0.00000000 4.34780500 -3.2608430099999985 0 0 0
Zr 0.00000000 4.34780500 1.04442455
Zr 3.07436500 6.42031669 3.36348199
Zr 3.07436500 2.27520636 3.36348199
Zr 0.00000000 0.00008696 1.08102449
Al 0.00000000 6.52170750 -1.086859269999998 0 0 0
Al 3.07436500 0.00000000 -3.2608430099999985 0 0 0
Al 0.00000000 2.17390250 -1.086859269999998 0 0 0
Al 3.07436500 4.34780500 -3.2608430099999985 0 0 0
Al 0.00000000 2.11138106 3.21257352
Al 3.07436500 4.34780500 1.13539398
Al 0.00000000 6.58440285 3.21257352
Al 3.07436500 0.00000000 1.09295926
Ni 1.53718250 0.00000000 -1.086859269999998 0 0 0
Ni 4.61154750 4.34780500 -1.086859269999998 0 0 0
Ni 4.61154750 0.00000000 -1.086859269999998 0 0 0
Ni 1.53718250 4.34780500 -1.086859269999998 0 0 0
Ni 4.61154750 6.52170750 -3.2608430099999985 0 0 0
Ni 1.53718250 2.17390250 -3.2608430099999985 0 0 0
Ni 1.53718250 6.52170750 -3.2608430099999985 0 0 0
Ni 4.61154750 2.17390250 -3.2608430099999985 0 0 0
Ni 1.36305047 4.34806587 3.16536489
Ni 4.36492194 8.69543609 3.23803435
Ni 4.78567953 4.34806587 3.16536489
Ni 1.78380806 8.69543609 3.23803435
Ni 4.50037846 2.19233719 1.15767220
Ni 1.64841303 6.50335976 1.15793742
Ni 1.64835154 2.19233719 1.15767220
Ni 4.50031697 6.50335976 1.15793742
C 0.00000000 0.00000000 3.51942959
