&CONTROL
calculation = 'relax'
prefix = 'scf'
pseudo_dir = '/vol0004/mdt0/data/hp150275/u10028/POT_HYBRID_KKJUS_GBRV'
outdir = './data'
tprnfor = .true.
nstep = 50
disk_io = 'non'
/
&SYSTEM
ibrav = 0
ecutwfc = 50.0
ecutrho = 400
occupations = 'smearing'
smearing = 'mp'
degauss = 0.01
assume_isolated = 'esm'
esm_bc = 'bc1'
input_dft = 'BEEF-VDW'
nosym = .true.
nspin = 2
ntyp = 4
nat = 33
starting_magnetization(1) = 0.0
starting_magnetization(2) = 0.1
starting_magnetization(3) = 0.0
starting_magnetization(4) = 0.0
/
&ELECTRONS
electron_maxstep = 200
mixing_beta = 0.1
conv_thr = 1e-06
/
&IONS
ion_dynamics = 'bfgs'
upscale = 1.0
/
&CELL
/

K_POINTS {automatic}
9 6 2 0  0  0

ATOMIC_SPECIES
C 12.01 C.pbe-n-rrkjus_psl.1.0.0.UPF
Co 58.93 co_pbe_v1.2.uspp.F.UPF
Sn 118.7 Sn.pbe-dn-rrkjus_psl.1.0.0.UPF
V 50.94 V.pbe-spnl-rrkjus_psl.1.0.0.UPF

CELL_PARAMETERS {angstrom}
6.04348000 0.00000000 0.00000000
0.00000000 8.54677000 0.00000000
0.00000000 0.00000000 26.41010000

ATOMIC_POSITIONS {angstrom}
V 0.00000000 0.00000000 23.20497026
V 3.02174000 2.13669250 25.34181146
V 3.02174000 6.41007750 25.34181146
V 0.00000000 4.27338500 23.20497026
V 0.00000000 4.27338500 1.06828854
V 3.02174000 6.41007750 3.20512974
V 3.02174000 2.13669250 3.20512974
V 0.00000000 0.00000000 1.06828854
Co 1.51087000 0.00000000 25.34181146
Co 4.53261000 4.27338500 25.34181146
Co 4.53261000 0.00000000 25.34181146
Co 1.51087000 4.27338500 25.34181146
Co 4.53261000 6.41007750 23.20497026
Co 1.51087000 2.13669250 23.20497026
Co 1.51087000 6.41007750 23.20497026
Co 4.53261000 2.13669250 23.20497026
Co 1.51087000 4.27338500 3.20512974
Co 4.53261000 0.00000000 3.20512974
Co 4.53261000 4.27338500 3.20512974
Co 1.51087000 0.00000000 3.20512974
Co 4.53261000 2.13669250 1.06828854
Co 1.51087000 6.41007750 1.06828854
Co 1.51087000 2.13669250 1.06828854
Co 4.53261000 6.41007750 1.06828854
Sn 0.00000000 6.41007750 25.34181146
Sn 3.02174000 0.00000000 23.20497026
Sn 0.00000000 2.13669250 25.34181146
Sn 3.02174000 4.27338500 23.20497026
Sn 0.00000000 2.13669250 3.20512974
Sn 3.02174000 4.27338500 1.06828854
Sn 0.00000000 6.41007750 3.20512974
Sn 3.02174000 0.00000000 1.06828854
C 1.51087000 2.13669250 4.00509167
