&CONTROL
calculation = 'relax'
prefix = 'scf'
pseudo_dir = '/vol0403/data/hp230205/u10028/POT_HYBRID_KKJUS_GBRV'
outdir = './data'
tprnfor = .true.
nstep = 50
disk_io = 'non'
/
&SYSTEM
ibrav = 0
ecutwfc = 50.0
ecutrho = 400
occupations = 'smearing'
smearing = 'mp'
degauss = 0.01
assume_isolated = 'esm'
esm_bc = 'bc1'
input_dft = 'BEEF-VDW'
nosym = .true.
nspin = 1
ntyp = 6
nat = 18
/
&ELECTRONS
electron_maxstep = 200
mixing_beta = 0.1
conv_thr = 1e-06
/
&IONS
ion_dynamics = 'bfgs'
upscale = 1.0
/
&CELL
/

K_POINTS {automatic}
8 10 2 0  0  0

ATOMIC_SPECIES
C 12.01 C.pbe-n-rrkjus_psl.1.0.0.UPF
Ge 72.64 Ge.pbe-dn-rrkjus_psl.1.0.0.UPF
Li 6.941 Li.pbe-sl-rrkjus_psl.1.0.0.UPF
O 15.99 O.pbe-n-rrkjus_psl.1.0.0.UPF
Pb 207.2 Pb.pbe-dn-rrkjus_psl.1.0.0.UPF
Y 88.90 Y.pbe-spn-rrkjus_psl.1.0.0.UPF


CELL_PARAMETERS {angstrom}
8.55406000 0.00000000 0.00000000
0.00000000 6.56037000 0.00000000
0.00000000 0.00000000 24.87870000

ATOMIC_POSITIONS {angstrom}
Li 2.13851500 4.70745910 -0.8130359199999972 0 0 0
Li 2.13851500 1.08547882 2.37218405
Li 6.41554500 4.70745910 -0.8130359199999972 0 0 0
Li 6.41554500 1.12484104 2.21893125
Y 2.13851500 1.42727410 -0.8130359199999972 0 0 0
Y 2.13851500 4.28221591 2.16967143
Y 6.41554500 1.42727410 -0.8130359199999972 0 0 0
Y 6.41554500 4.29566467 2.21320915
Ge 0.00000000 0.00000000 -2.4393565299999977 0 0 0
Ge 8.52625930 2.76618001 0.88866716
Ge 4.27703000 0.00000000 -2.4393565299999977 0 0 0
Ge 4.30483069 2.76618001 0.88866716
Pb 0.00000000 3.28018500 -2.4393565299999977 0 0 0
Pb 8.54259756 6.14070313 0.76079065
Pb 4.27703000 3.28018500 -2.4393565299999977 0 0 0
Pb 4.28849244 6.14070313 0.76103943
C 2.13851500 4.30353712 4.60081799
O 2.13851500 4.28667697 5.75941905
