&CONTROL
calculation = 'relax'
prefix = 'scf'
pseudo_dir = '/vol0004/mdt0/data/hp150275/u10028/POT_HYBRID_KKJUS_GBRV'
outdir = './data'
tprnfor = .true.
nstep = 50
disk_io = 'non'
/
&SYSTEM
ibrav = 0
ecutwfc = 50.0
ecutrho = 400
occupations = 'smearing'
smearing = 'mp'
degauss = 0.01
assume_isolated = 'esm'
esm_bc = 'bc1'
input_dft = 'BEEF-VDW'
nosym = .true.
nspin = 2
ntyp = 4
nat = 18
starting_magnetization(1) = 0.0
starting_magnetization(2) = 0.1
starting_magnetization(3) = 0.0
starting_magnetization(4) = 0.0
/
&ELECTRONS
electron_maxstep = 300
mixing_beta = 0.1
conv_thr = 1e-06
/
&IONS
ion_dynamics = 'bfgs'
upscale = 1.0
/
&CELL
/

K_POINTS {automatic}
8 8 1 0 0 0

ATOMIC_SPECIES
C 12.01 C.pbe-n-rrkjus_psl.1.0.0.UPF
Fe 55.84 fe_pbe_v1.5.uspp.F.UPF
O 15.99 O.pbe-n-rrkjus_psl.1.0.0.UPF
Ti 47.86 Ti.pbe-spn-rrkjus_psl.1.0.0.UPF

CELL_PARAMETERS {angstrom}
5.92728000 0.00000000 0.00000000
0.00000000 5.92728000 0.00000000
0.00000000 0.00000000 24.44550000

ATOMIC_POSITIONS {angstrom}
Ti 0.00000000 0.00000000 -2.279787329999998 0 0 0
Ti 0.00420837 0.00077055 0.77638908
Ti 0.00000000 2.96364000 -2.279787329999998 0 0 0
Ti 0.00077055 2.97561311 0.75365476
Ti 2.96364000 0.00000000 -2.279787329999998 0 0 0
Ti 2.97899166 5.92645018 0.75243249
Ti 2.96364000 2.96364000 -2.279787329999998 0 0 0
Ti 2.94745853 2.94508761 0.71111959
Fe 1.48182000 1.48182000 -0.7979011199999988 0 0 0
Fe 1.41987992 1.42930430 2.08226769
Fe 1.48182000 4.44546000 -0.7979011199999988 0 0 0
Fe 1.68897844 4.44581564 2.30716629
Fe 4.44546000 1.48182000 -0.7979011199999988 0 0 0
Fe 4.45322474 1.68708171 2.30961084
Fe 4.44546000 4.44546000 -0.7979011199999988 0 0 0
Fe 4.31778639 4.30853983 2.35605729
C 1.22836951 1.26079173 3.85749990
O 1.10312608 1.15801269 5.01059413
