&CONTROL
calculation = 'relax'
prefix = 'scf'
pseudo_dir = '/vol0004/mdt0/data/hp150275/u10028/POT_KKJUS'
outdir = './data'
tprnfor = .true.
nstep = 50
disk_io = 'non'
/
&SYSTEM
ibrav = 0
ecutwfc = 50.0
ecutrho = 400
occupations = 'smearing'
smearing = 'mp'
degauss = 0.01
assume_isolated = 'esm'
esm_bc = 'bc1'
input_dft = 'BEEF-VDW'
nosym = .true.
nspin = 1
ntyp = 3
nat = 32
/
&ELECTRONS
electron_maxstep = 200
mixing_beta = 0.1
conv_thr = 1e-06
/
&IONS
ion_dynamics = 'bfgs'
upscale = 1.0
/
&CELL
/

K_POINTS {automatic}
9 6 2 0  0  0

ATOMIC_SPECIES
Au 196.9 Au.pbe-n-rrkjus_psl.1.0.0.UPF
In 114.8 In.pbe-dn-rrkjus_psl.1.0.0.UPF
Li 6.941 Li.pbe-sl-rrkjus_psl.1.0.0.UPF

CELL_PARAMETERS {angstrom}
6.60991000 0.00000000 0.00000000
0.00000000 9.34782000 0.00000000
0.00000000 0.00000000 27.01090000

ATOMIC_POSITIONS {angstrom}
Li 0.00000000 7.01086500 -1.1684915300000007 0 0 0
Li 3.30495500 0.00000000 -3.5054745999999994 0 0 0
Li 0.00000000 2.33695500 -1.1684915300000007 0 0 0
Li 3.30495500 4.67391000 -3.5054745999999994 0 0 0
Li 1.65247750 2.33695500 -3.5054745999999994 0 0 0
Li 1.65247750 7.01086500 -3.5054745999999994 0 0 0
Li 4.95743250 4.67391000 -1.1684915300000007 0 0 0
Li 4.95743250 0.00000000 -1.1684915300000007 0 0 0
Li 0.11256677 2.33695500 3.39121849
Li 3.35452932 4.67391000 0.96563967
Li 0.11256677 7.01086500 3.39121849
Li 3.35452932 0.00000000 0.96563967
Li 1.84912232 7.01086500 1.27275361
Li 1.84912232 2.33695500 1.27275361
Li 4.73884278 0.00000000 3.30370318
Li 4.73884278 4.67391000 3.30370318
In 0.00000000 0.00000000 -3.5054745999999994 0 0 0
In 3.30495500 2.33695500 -1.1684915300000007 0 0 0
In 3.30495500 7.01086500 -1.1684915300000007 0 0 0
In 0.00000000 4.67391000 -3.5054745999999994 0 0 0
In 6.57613336 4.67391000 1.11500995
In 3.25908222 7.01086500 3.97870557
In 3.25908222 2.33695500 3.97870557
In 6.57613336 0.00000000 1.11500995
Au 1.65247750 0.00000000 -1.1684915300000007 0 0 0
Au 1.65247750 4.67391000 -1.1684915300000007 0 0 0
Au 4.95743250 7.01086500 -3.5054745999999994 0 0 0
Au 4.95743250 2.33695500 -3.5054745999999994 0 0 0
Au 1.84740375 4.67391000 3.19511936
Au 1.84740375 0.00000000 3.19511936
Au 4.83177811 2.33695500 1.36702165
Au 4.83177811 7.01086500 1.36702165
