&CONTROL
calculation = 'relax'
prefix = 'scf'
pseudo_dir = '/vol0403/data/hp230205/u10028/POT_HYBRID_KKJUS_GBRV'
outdir = './data'
tprnfor = .true.
nstep = 70
disk_io = 'non'
/
&SYSTEM
ibrav = 0
ecutwfc = 50.0
ecutrho = 400
occupations = 'smearing'
smearing = 'mp'
degauss = 0.01
assume_isolated = 'esm'
esm_bc = 'bc1'
input_dft = 'BEEF-VDW'
nosym = .true.
nspin = 1
ntyp = 5
nat = 33
/
&ELECTRONS
electron_maxstep = 200
mixing_beta = 0.1
conv_thr = 1e-06
/
&IONS
ion_dynamics = 'bfgs'
upscale = 1.0
/
&CELL
/

K_POINTS {automatic}
9 6 2 0  0  0

ATOMIC_SPECIES
C 12.01 C.pbe-n-rrkjus_psl.1.0.0.UPF
Cu 63.54 Cu.pbe-dn-rrkjus_psl.1.0.0.UPF
Li 6.941 Li.pbe-sl-rrkjus_psl.1.0.0.UPF
Pb 207.2 Pb.pbe-dn-rrkjus_psl.1.0.0.UPF
Pd 106.4 Pd.pbe-n-rrkjus_psl.1.0.0.UPF


CELL_PARAMETERS {angstrom}
6.46272000 0.00000000 0.00000000
-0.00000000 9.13966000 0.00000000
0.00000000 0.00000000 26.85470000

ATOMIC_POSITIONS {angstrom}
Li 0.00000000 2.28491500 -1.1423989399999996 0 0 0
Li 0.00000000 6.85474500 -1.1423989399999996 0 0 0
Li 3.23136000 4.56983000 -3.4274653599999994 0 0 0
Li 3.23136000 0.00000000 -3.4274653599999994 0 0 0
Li 0.50751740 6.85474500 3.95032637
Li 6.29449540 2.28491500 3.52279955
Li 3.34788284 9.13673531 1.24552099
Li 3.34788284 4.57275469 1.24552099
Cu 0.00000000 0.00000000 -3.4274653599999994 0 0 0
Cu 0.00000000 4.56983000 -3.4274653599999994 0 0 0
Cu 3.23136000 6.85474500 -1.1423989399999996 0 0 0
Cu 3.23136000 2.28491500 -1.1423989399999996 0 0 0
Cu 6.33857115 4.56187850 1.37496064
Cu 6.33870040 0.00786011 1.37496064
Cu 3.70914889 2.28491500 3.35549477
Cu 3.06080882 6.85474500 3.32944571
Pd 1.61568000 0.00000000 -1.1423989399999996 0 0 0
Pd 1.61568000 4.56983000 -1.1423989399999996 0 0 0
Pd 4.84704000 2.28491500 -3.4274653599999994 0 0 0
Pd 4.84704000 6.85474500 -3.4274653599999994 0 0 0
Pd 1.84019489 4.30596802 3.36731083
Pd 1.84025952 0.26386198 3.36731083
Pd 4.86397233 6.85474500 1.16468834
Pd 4.92678996 2.28491500 1.03014629
Pb 4.84704000 0.00000000 -1.1423989399999996 0 0 0
Pb 4.84704000 4.56983000 -1.1423989399999996 0 0 0
Pb 1.61568000 2.28491500 -3.4274653599999994 0 0 0
Pb 1.61568000 6.85474500 -3.4274653599999994 0 0 0
Pb 4.82836274 4.80974607 3.82706330
Pb 4.82836274 8.89974392 3.82706330
Pb 1.50277628 6.85465360 1.15716902
Pb 1.55667537 2.28491500 1.03685997
C 1.84368476 2.28491500 3.61893937
