&CONTROL
calculation = 'relax'
prefix = 'scf'
pseudo_dir = '/vol0403/data/hp230205/u10028/POT_HYBRID_KKJUS_GBRV'
outdir = './data'
tprnfor = .true.
nstep = 50
disk_io = 'non'
/
&SYSTEM
ibrav = 0
ecutwfc = 50.0
ecutrho = 400
occupations = 'smearing'
smearing = 'mp'
degauss = 0.01
assume_isolated = 'esm'
esm_bc = 'bc1'
input_dft = 'BEEF-VDW'
nosym = .true.
nspin = 1
ntyp = 5
nat = 33
/
&ELECTRONS
electron_maxstep = 200
mixing_beta = 0.1
conv_thr = 1e-06
/
&IONS
ion_dynamics = 'bfgs'
upscale = 1.0
/
&CELL
/

K_POINTS {automatic}
9 6 2 0  0  0

ATOMIC_SPECIES
Au 196.9 Au.pbe-n-rrkjus_psl.1.0.0.UPF
C 12.01 C.pbe-n-rrkjus_psl.1.0.0.UPF
In 114.8 In.pbe-dn-rrkjus_psl.1.0.0.UPF
Li 6.941 Li.pbe-sl-rrkjus_psl.1.0.0.UPF
Y 88.90 Y.pbe-spn-rrkjus_psl.1.0.0.UPF


CELL_PARAMETERS {angstrom}
6.89380000 0.00000000 0.00000000
0.00000000 9.74930000 0.00000000
0.00000000 0.00000000 27.31200000

ATOMIC_POSITIONS {angstrom}
Li 0.00000000 2.43732500 -1.2186614400000018 0 0 0
Li 0.00000000 7.31197500 -1.2186614400000018 0 0 0
Li 3.44690000 4.87465000 -3.6559843200000017 0 0 0
Li 3.44690000 0.00000000 -3.6559843200000017 0 0 0
Li 1.38682575 7.31197500 5.21686512
Li 0.20136790 2.43732500 4.78970544
Li 3.45138097 9.71391004 1.29295008
Li 3.45131203 4.91003996 1.29295008
Y 5.17035000 0.00000000 -1.2186614400000018 0 0 0
Y 5.17035000 4.87465000 -1.2186614400000018 0 0 0
Y 1.72345000 2.43732500 -3.6559843200000017 0 0 0
Y 1.72345000 7.31197500 -3.6559843200000017 0 0 0
Y 5.44596412 5.04360537 3.68083824
Y 5.44596412 9.58034463 3.68083824
Y 1.64651519 7.31197500 1.40984544
Y 1.64320617 2.43732500 1.45791456
In 1.72345000 0.00000000 -1.2186614400000018 0 0 0
In 1.72345000 4.87465000 -1.2186614400000018 0 0 0
In 5.17035000 2.43732500 -3.6559843200000017 0 0 0
In 5.17035000 7.31197500 -3.6559843200000017 0 0 0
In 1.75805688 4.76828514 3.90452352
In 1.75805688 0.10636486 3.90452352
In 5.16883336 7.31197500 1.17277728
In 5.17751955 2.43732500 1.21237968
Au 0.00000000 0.00000000 -3.6559843200000017 0 0 0
Au 0.00000000 4.87465000 -3.6559843200000017 0 0 0
Au 3.44690000 7.31197500 -1.2186614400000018 0 0 0
Au 3.44690000 2.43732500 -1.2186614400000018 0 0 0
Au 0.00668699 4.88995640 1.17086544
Au 0.00668699 9.73409109 1.17086544
Au 4.14317380 2.43732500 3.97334976
Au 3.59518564 7.31197500 3.71060832
C 2.02712189 2.43732500 3.73355040
