&CONTROL
calculation = 'relax'
prefix = 'scf'
pseudo_dir = '/vol0004/mdt0/data/hp150275/u10028/POT_KKJUS'
outdir = './data'
tprnfor = .true.
nstep = 50
disk_io = 'non'
/
&SYSTEM
ibrav = 0
ecutwfc = 50.0
ecutrho = 400
occupations = 'smearing'
smearing = 'mp'
degauss = 0.01
assume_isolated = 'esm'
esm_bc = 'bc1'
input_dft = 'BEEF-VDW'
nosym = .true.
nspin = 1
ntyp = 4
nat = 34
/
&ELECTRONS
electron_maxstep = 200
mixing_beta = 0.1
conv_thr = 1e-06
/
&IONS
ion_dynamics = 'bfgs'
upscale = 1.0
/
&CELL
/

K_POINTS {automatic}
9 6 2 0  0  0

ATOMIC_SPECIES
Ag 107.8 Ag.pbe-n-rrkjus_psl.1.0.0.UPF
C 12.01 C.pbe-n-rrkjus_psl.1.0.0.UPF
O 15.99 O.pbe-n-rrkjus_psl.1.0.0.UPF
Zn 65.40 Zn.pbe-dnl-rrkjus_psl.1.0.0.UPF

CELL_PARAMETERS {angstrom}
6.41951000 0.00000000 0.00000000
0.00000000 9.07856000 0.00000000
0.00000000 0.00000000 26.80890000

ATOMIC_POSITIONS {angstrom}
Zn 1.60487750 2.26964000 -3.404462210000002 0 0 0
Zn 1.60487750 0.00000000 -1.134820740000002 0 0 0
Zn 1.57900687 2.26964000 1.25090327
Zn 1.67799572 9.05186903 3.53770244
Zn 1.60487750 6.80892000 -3.404462210000002 0 0 0
Zn 1.60487750 4.53928000 -1.134820740000002 0 0 0
Zn 1.60975633 6.80892000 1.23642647
Zn 1.67799572 4.56597097 3.53770244
Zn 4.81463250 2.26964000 -3.404462210000002 0 0 0
Zn 4.81463250 0.00000000 -1.134820740000002 0 0 0
Zn 4.84050313 2.26964000 1.25090327
Zn 4.74151428 9.05186903 3.53770244
Zn 4.81463250 6.80892000 -3.404462210000002 0 0 0
Zn 4.81463250 4.53928000 -1.134820740000002 0 0 0
Zn 4.80975367 6.80892000 1.23642647
Zn 4.74151428 4.56597097 3.53770244
Ag 0.00000000 0.00000000 -3.404462210000002 0 0 0
Ag 0.00000000 2.26964000 -1.134820740000002 0 0 0
Ag 0.00000000 9.07765214 1.18736618
Ag 0.00000000 2.26964000 3.61062265
Ag 0.00000000 4.53928000 -3.404462210000002 0 0 0
Ag 0.00000000 6.80892000 -1.134820740000002 0 0 0
Ag 0.00000000 4.54009707 1.18736618
Ag 0.00000000 6.80892000 3.55539632
Ag 3.20975500 0.00000000 -3.404462210000002 0 0 0
Ag 3.20975500 2.26964000 -1.134820740000002 0 0 0
Ag 3.20975500 0.00771678 1.07664542
Ag 3.20975500 2.26964000 3.50311896
Ag 3.20975500 4.53928000 -3.404462210000002 0 0 0
Ag 3.20975500 6.80892000 -1.134820740000002 0 0 0
Ag 3.20975500 4.53156322 1.07664542
Ag 3.20975500 6.80892000 3.57201784
C 0.00000000 2.26964000 6.02824925
O 0.00000000 2.26964000 7.16682324
