&CONTROL
calculation = 'relax'
prefix = 'scf'
pseudo_dir = '/vol0004/mdt0/data/hp150275/u10028/POT_KKJUS'
outdir = './data'
tprnfor = .true.
nstep = 50
disk_io = 'non'
/
&SYSTEM
ibrav = 0
ecutwfc = 50.0
ecutrho = 400
occupations = 'smearing'
smearing = 'mp'
degauss = 0.01
assume_isolated = 'esm'
esm_bc = 'bc1'
input_dft = 'BEEF-VDW'
nosym = .true.
nspin = 1
ntyp = 4
nat = 34
/
&ELECTRONS
electron_maxstep = 200
mixing_beta = 0.1
conv_thr = 1e-06
/
&IONS
ion_dynamics = 'bfgs'
upscale = 1.0
/
&CELL
/

K_POINTS {automatic}
8 6 1 0 0 0

ATOMIC_SPECIES
C 12.01 C.pbe-n-rrkjus_psl.1.0.0.UPF
O 15.99 O.pbe-n-rrkjus_psl.1.0.0.UPF
Rh 102.9 Rh.pbe-spn-rrkjus_psl.1.0.0.UPF
Si 28.08 Si.pbe-nl-rrkjus_psl.1.0.0.UPF

CELL_PARAMETERS {angstrom}
5.95743000 0.00000000 0.00000000
0.00000000 8.42507000 0.00000000
0.00000000 0.00000000 26.31880000

ATOMIC_POSITIONS {angstrom}
Si 1.48935750 2.10626750 -3.159308750000001 0 0 0
Si 1.48935750 0.00000000 -1.05301519 0 0 0
Si 1.48935750 2.11671459 1.11196930
Si 1.48935750 4.21245075 3.26405758
Si 1.48935750 6.31880250 -3.159308750000001 0 0 0
Si 1.48935750 4.21253500 -1.05301519 0 0 0
Si 1.48935750 6.30835541 1.11196930
Si 1.48935750 0.00008425 3.41012692
Si 4.46807250 2.10626750 -3.159308750000001 0 0 0
Si 4.46807250 0.00000000 -1.05301519 0 0 0
Si 4.46807250 2.09927469 1.10591598
Si 4.46807250 4.21245075 3.18431161
Si 4.46807250 6.31880250 -3.159308750000001 0 0 0
Si 4.46807250 4.21253500 -1.05301519 0 0 0
Si 4.46807250 6.32587956 1.10617916
Si 4.46807250 0.00008425 3.24194978
Rh 0.00000000 0.00000000 -3.159308750000001 0 0 0
Rh 0.00000000 2.10626750 -1.05301519 0 0 0
Rh 5.94801726 0.00000000 0.95616200
Rh 0.00250212 2.07753801 3.00165914
Rh 0.00000000 4.21253500 -3.159308750000001 0 0 0
Rh 0.00000000 6.31880250 -1.05301519 0 0 0
Rh 5.95546405 4.21253500 1.00195672
Rh 0.00250212 6.34744774 3.00192233
Rh 2.97871500 0.00000000 -3.159308750000001 0 0 0
Rh 2.97871500 2.10626750 -1.05301519 0 0 0
Rh 2.98818731 0.00000000 0.95616200
Rh 2.97621288 2.07762226 3.00165914
Rh 2.97871500 4.21253500 -3.159308750000001 0 0 0
Rh 2.97871500 6.31880250 -1.05301519 0 0 0
Rh 2.98068095 4.21253500 1.00195672
Rh 2.97621288 6.34753199 3.00192233
C 1.48929793 0.00000000 5.28849967
O 1.48929793 0.00000000 6.44126311
