&CONTROL
calculation = 'relax'
prefix = 'scf'
pseudo_dir = '/vol0004/mdt0/data/hp150275/u10028/POT_KKJUS'
outdir = './data'
tprnfor = .true.
nstep = 50
disk_io = 'non'
/
&SYSTEM
ibrav = 0
ecutwfc = 50.0
ecutrho = 400
occupations = 'smearing'
smearing = 'mp'
degauss = 0.01
assume_isolated = 'esm'
esm_bc = 'bc1'
input_dft = 'BEEF-VDW'
nosym = .true.
nspin = 1
ntyp = 3
nat = 33
/
&ELECTRONS
electron_maxstep = 200
mixing_beta = 0.1
conv_thr = 1e-06
/
&IONS
ion_dynamics = 'bfgs'
upscale = 1.0
/
&CELL
/

K_POINTS {automatic}
9 6 2 0  0  0

ATOMIC_SPECIES
Bi 208.9 Bi.pbe-dn-rrkjus_psl.1.0.0.UPF
C 12.01 C.pbe-n-rrkjus_psl.1.0.0.UPF
Li 6.941 Li.pbe-sl-rrkjus_psl.1.0.0.UPF

CELL_PARAMETERS {angstrom}
6.74000000 0.00000000 0.00000000
0.00000000 9.53179000 0.00000000
0.00000000 0.00000000 27.14880000

ATOMIC_POSITIONS {angstrom}
Li 1.68500000 0.00000000 -1.1915608300000002 0 0 0
Li 5.05500000 4.76589500 -1.1915608300000002 0 0 0
Li 5.05500000 0.00000000 -1.1915608300000002 0 0 0
Li 1.68500000 4.76589500 -1.1915608300000002 0 0 0
Li 5.05500000 7.14884250 -3.574411010000002 0 0 0
Li 1.68500000 2.38294750 -3.574411010000002 0 0 0
Li 1.68500000 7.14884250 -3.574411010000002 0 0 0
Li 5.05500000 2.38294750 -3.574411010000002 0 0 0
Li 0.00000000 7.14884250 -1.1915608300000002 0 0 0
Li 3.37000000 0.00000000 -3.574411010000002 0 0 0
Li 0.00000000 2.38294750 -1.1915608300000002 0 0 0
Li 3.37000000 4.76589500 -3.574411010000002 0 0 0
Li 1.84709700 4.76589500 3.54210394
Li 5.28773220 0.00000000 4.08317952
Li 4.89290300 4.76589500 3.54210394
Li 1.45226780 0.00000000 4.08317952
Li 4.98294940 2.35940398 1.15002317
Li 1.75705060 7.17238602 1.15002317
Li 1.75705060 2.35940398 1.15002317
Li 4.98294940 7.17238602 1.15002317
Li 0.00000000 2.48541424 3.21414643
Li 3.37000000 4.76589500 1.07862182
Li 0.00000000 7.04637576 3.21414643
Li 3.37000000 0.00000000 1.81544026
Bi 0.00000000 0.00000000 -3.574411010000002 0 0 0
Bi 3.37000000 2.38294750 -1.1915608300000002 0 0 0
Bi 3.37000000 7.14884250 -1.1915608300000002 0 0 0
Bi 0.00000000 4.76589500 -3.574411010000002 0 0 0
Bi 0.00000000 4.76589500 1.27463616
Bi 3.37000000 7.22767040 3.65151360
Bi 3.37000000 2.30411960 3.65151360
Bi 0.00000000 0.00000000 1.44431616
C 3.37000000 0.00000000 4.50941568
