&CONTROL
calculation = 'relax'
prefix = 'scf'
pseudo_dir = '/vol0403/data/hp230205/u10028/POT_HYBRID_KKJUS_GBRV'
outdir = './data'
tprnfor = .true.
nstep = 70
disk_io = 'non'
/
&SYSTEM
ibrav = 0
ecutwfc = 50.0
ecutrho = 400
occupations = 'smearing'
smearing = 'mp'
degauss = 0.01
assume_isolated = 'esm'
esm_bc = 'bc1'
input_dft = 'BEEF-VDW'
nosym = .true.
nspin = 1
ntyp = 6
nat = 34
/
&ELECTRONS
electron_maxstep = 200
mixing_beta = 0.1
conv_thr = 1e-06
/
&IONS
ion_dynamics = 'bfgs'
upscale = 1.0
/
&CELL
/

K_POINTS {automatic}
8 6 2 0  0  0

ATOMIC_SPECIES
C 12.01 C.pbe-n-rrkjus_psl.1.0.0.UPF
In 114.8 In.pbe-dn-rrkjus_psl.1.0.0.UPF
Li 6.941 Li.pbe-sl-rrkjus_psl.1.0.0.UPF
Mg 24.30 Mg.pbe-spnl-rrkjus_psl.1.0.0.UPF
O 15.99 O.pbe-n-rrkjus_psl.1.0.0.UPF
Y 88.90 Y.pbe-spn-rrkjus_psl.1.0.0.UPF


CELL_PARAMETERS {angstrom}
7.08651000 0.00000000 0.00000000
-0.00000000 10.02180000 0.00000000
0.00000000 0.00000000 27.51640000

ATOMIC_POSITIONS {angstrom}
Li 0.00000000 2.50545000 -1.252821690000001 0 0 0
Li 0.00000000 7.51635000 -1.252821690000001 0 0 0
Li 3.54325500 5.01090000 -3.7581899100000022 0 0 0
Li 3.54325500 0.00000000 -3.7581899100000022 0 0 0
Li 6.49797534 7.61456364 4.89076494
Li 6.49811707 2.40713614 4.89076494
Li 3.35489556 -0.00000000 1.38875271
Li 3.43667389 5.01079978 1.45506723
Y 1.77162750 0.00000000 -1.252821690000001 0 0 0
Y 1.77162750 5.01090000 -1.252821690000001 0 0 0
Y 5.31488250 2.50545000 -3.7581899100000022 0 0 0
Y 5.31488250 7.51635000 -3.7581899100000022 0 0 0
Y 1.47300197 5.01090000 3.89962421
Y 1.45202590 10.02169978 3.91695954
Y 5.28030033 7.52366591 1.47157707
Y 5.28030033 2.49813409 1.47157707
Mg 5.31488250 0.00000000 -1.252821690000001 0 0 0
Mg 5.31488250 5.01090000 -1.252821690000001 0 0 0
Mg 1.77162750 2.50545000 -3.7581899100000022 0 0 0
Mg 1.77162750 7.51635000 -3.7581899100000022 0 0 0
Mg 5.19058511 5.01090000 3.91200659
Mg 5.15033374 -0.00000000 3.68719760
Mg 1.72606124 7.50642842 1.32739114
Mg 1.72599038 2.51537158 1.32739114
In 0.00000000 0.00000000 -3.7581899100000022 0 0 0
In 0.00000000 5.01090000 -3.7581899100000022 0 0 0
In 3.54325500 7.51635000 -1.252821690000001 0 0 0
In 3.54325500 2.50545000 -1.252821690000001 0 0 0
In 7.02825889 5.01090000 1.21677521
In 7.04498305 -0.00000000 1.17522544
In 3.35177750 2.51877899 3.99207931
In 3.35170663 7.50302101 3.99207931
C 6.84464741 10.02169978 5.53299771
O 6.23187689 10.02169978 6.57119148
