&CONTROL
calculation = 'relax'
prefix = 'scf'
pseudo_dir = '/vol0403/data/hp230205/u10028/POT_HYBRID_KKJUS_GBRV'
outdir = './data'
tprnfor = .true.
nstep = 70
disk_io = 'non'
/
&SYSTEM
ibrav = 0
ecutwfc = 50.0
ecutrho = 400
occupations = 'smearing'
smearing = 'mp'
degauss = 0.01
assume_isolated = 'esm'
esm_bc = 'bc1'
input_dft = 'BEEF-VDW'
nosym = .true.
nspin = 1
ntyp = 6
nat = 34
/
&ELECTRONS
electron_maxstep = 200
mixing_beta = 0.1
conv_thr = 1e-06
/
&IONS
ion_dynamics = 'bfgs'
upscale = 1.0
/
&CELL
/

K_POINTS {automatic}
9 6 2 0  0  0

ATOMIC_SPECIES
C 12.01 C.pbe-n-rrkjus_psl.1.0.0.UPF
In 114.8 In.pbe-dn-rrkjus_psl.1.0.0.UPF
O 15.99 O.pbe-n-rrkjus_psl.1.0.0.UPF
Pd 106.4 Pd.pbe-n-rrkjus_psl.1.0.0.UPF
Pt 195.0 Pt.pbe-n-rrkjus_psl.1.0.0.UPF
Y 88.90 Y.pbe-spn-rrkjus_psl.1.0.0.UPF


CELL_PARAMETERS {angstrom}
6.82696000 0.00000000 0.00000000
-0.00000000 9.65478000 0.00000000
0.00000000 0.00000000 27.24110000

ATOMIC_POSITIONS {angstrom}
Y 0.00000000 2.41369500 -1.2067807299999984 0 0 0
Y 0.00000000 7.24108500 -1.2067807299999984 0 0 0
Y 3.41348000 4.82739000 -3.6206145999999997 0 0 0
Y 3.41348000 0.00000000 -3.6206145999999997 0 0 0
Y 0.01208372 7.24108500 3.67754850
Y 0.01972991 2.41369500 3.66910376
Y 3.42583680 9.63643592 1.20814278
Y 3.42583680 4.84573408 1.20814278
In 0.00000000 0.00000000 -3.6206145999999997 0 0 0
In 0.00000000 4.82739000 -3.6206145999999997 0 0 0
In 3.41348000 7.24108500 -1.2067807299999984 0 0 0
In 3.41348000 2.41369500 -1.2067807299999984 0 0 0
In 6.82306863 4.81242509 1.27570071
In 6.82306863 0.01496491 1.27570071
In 3.39805107 2.41369500 3.73393758
In 3.39491067 7.24108500 3.73502722
Pd 5.12022000 0.00000000 -1.2067807299999984 0 0 0
Pd 5.12022000 4.82739000 -1.2067807299999984 0 0 0
Pd 1.70674000 2.41369500 -3.6206145999999997 0 0 0
Pd 1.70674000 7.24108500 -3.6206145999999997 0 0 0
Pd 4.99542317 4.83569311 3.56259106
Pd 4.99549144 9.64647689 3.56259106
Pd 1.65144162 7.24108500 1.27297660
Pd 1.71356696 2.41369500 1.23783558
Pt 1.70674000 0.00000000 -1.2067807299999984 0 0 0
Pt 1.70674000 4.82739000 -1.2067807299999984 0 0 0
Pt 5.12022000 2.41369500 -3.6206145999999997 0 0 0
Pt 5.12022000 7.24108500 -3.6206145999999997 0 0 0
Pt 1.77937885 4.83627240 3.49149179
Pt 1.77937885 9.64580105 3.49149179
Pt 5.20623970 7.24108500 1.29204537
Pt 5.14411436 2.41369500 1.24736997
C 6.79576079 2.41369500 6.25482897
O 6.79739926 2.41369500 7.39595865
