&CONTROL
calculation = 'relax'
prefix = 'scf'
pseudo_dir = '/vol0004/mdt0/data/hp150275/u10028/POT_KKJUS'
outdir = './data'
tprnfor = .true.
nstep = 50
disk_io = 'non'
/
&SYSTEM
ibrav = 0
ecutwfc = 50.0
ecutrho = 400
occupations = 'smearing'
smearing = 'mp'
degauss = 0.01
assume_isolated = 'esm'
esm_bc = 'bc1'
input_dft = 'BEEF-VDW'
nosym = .true.
nspin = 1
ntyp = 3
nat = 33
/
&ELECTRONS
electron_maxstep = 200
mixing_beta = 0.1
conv_thr = 1e-06
/
&IONS
ion_dynamics = 'bfgs'
upscale = 1.0
/
&CELL
/

K_POINTS {automatic}
9 6 2 0  0  0

ATOMIC_SPECIES
Be 9.012 Be.pbe-n-rrkjus_psl.1.0.0.UPF
C 12.01 C.pbe-n-rrkjus_psl.1.0.0.UPF
Ni 58.69 Ni.pbe-spn-rrkjus_psl.1.0.0.UPF

CELL_PARAMETERS {angstrom}
5.23991000 0.00000000 0.00000000
0.00000000 7.41035000 0.00000000
0.00000000 0.00000000 25.55780000

ATOMIC_POSITIONS {angstrom}
Be 0.00000000 0.00000000 -2.7788995900000018 0 0 0
Be 0.00000000 1.85258750 -0.9262146700000002 0 0 0
Be 0.00691668 0.00496493 0.93771568
Be 5.00882997 1.85266160 2.83359329
Be 0.00000000 3.70517500 -2.7788995900000018 0 0 0
Be 0.00000000 5.55776250 -0.9262146700000002 0 0 0
Be 0.00686428 3.70021007 0.93771568
Be 0.08399576 5.55776250 2.79602332
Be 2.61995500 0.00000000 -2.7788995900000018 0 0 0
Be 2.61995500 1.85258750 -0.9262146700000002 0 0 0
Be 2.61303832 0.00496493 0.93771568
Be 2.85103503 1.85258750 2.83359329
Be 2.61995500 3.70517500 -2.7788995900000018 0 0 0
Be 2.61995500 5.55776250 -0.9262146700000002 0 0 0
Be 2.61309072 3.70021007 0.93746010
Be 2.53595924 5.55783660 2.79602332
Ni 1.30997750 1.85258750 -2.7788995900000018 0 0 0
Ni 1.30997750 0.00000000 -0.9262146700000002 0 0 0
Ni 1.30997750 1.85258750 0.92468120
Ni 1.31002990 3.64344678 2.78401115
Ni 1.30997750 5.55776250 -2.7788995900000018 0 0 0
Ni 1.30997750 3.70517500 -0.9262146700000002 0 0 0
Ni 1.30997750 5.55776250 0.94384955
Ni 1.30997750 0.06165411 2.78401115
Ni 3.92993250 1.85258750 -2.7788995900000018 0 0 0
Ni 3.92993250 0.00000000 -0.9262146700000002 0 0 0
Ni 3.92993250 1.85251340 0.90602401
Ni 3.92993250 3.82055415 2.72062781
Ni 3.92993250 5.55776250 -2.7788995900000018 0 0 0
Ni 3.92993250 3.70517500 -0.9262146700000002 0 0 0
Ni 3.92988010 5.55783660 0.91036884
Ni 3.92988010 7.29504495 2.72062781
C 1.30997750 1.85251340 3.40813263
