&CONTROL
calculation = 'relax'
prefix = 'scf'
pseudo_dir = '/vol0004/mdt0/data/hp150275/u10028/POT_HYBRID_KKJUS_GBRV'
outdir = './data'
tprnfor = .true.
nstep = 50
disk_io = 'non'
/
&SYSTEM
ibrav = 0
ecutwfc = 50.0
ecutrho = 400
occupations = 'smearing'
smearing = 'mp'
degauss = 0.01
assume_isolated = 'esm'
esm_bc = 'bc1'
input_dft = 'BEEF-VDW'
nosym = .true.
nspin = 2
ntyp = 4
nat = 33
starting_magnetization(1) = 0.0
starting_magnetization(2) = 0.0
starting_magnetization(3) = 0.1
starting_magnetization(4) = 0.0
/
&ELECTRONS
electron_maxstep = 300
mixing_beta = 0.1
conv_thr = 1e-06
/
&IONS
ion_dynamics = 'bfgs'
upscale = 1.0
/
&CELL
/

K_POINTS {automatic}
8 6 1 0 0 0

ATOMIC_SPECIES
Al 26.98 Al.pbe-nl-rrkjus_psl.1.0.0.UPF
C 12.01 C.pbe-n-rrkjus_psl.1.0.0.UPF
Co 58.93 co_pbe_v1.2.uspp.F.UPF
Nb 92.90 Nb.pbe-spn-rrkjus_psl.1.0.0.UPF

CELL_PARAMETERS {angstrom}
5.97844000 0.00000000 0.00000000
0.00000000 8.45478000 0.00000000
0.00000000 0.00000000 26.34110000

ATOMIC_POSITIONS {angstrom}
Nb 0.00000000 0.00000000 -3.1704147999999996 0 0 0
Nb 2.98922000 2.11369500 -1.056804930000002 0 0 0
Nb 2.98922000 6.34108500 -1.056804930000002 0 0 0
Nb 0.00000000 4.22739000 -3.1704147999999996 0 0 0
Nb 0.00000000 4.22739000 1.09420929
Nb 2.98922000 6.33060107 3.17568302
Nb 2.98916022 2.12417893 3.17568302
Nb 0.00005978 0.00000000 1.04995625
Al 0.00000000 6.34108500 -1.056804930000002 0 0 0
Al 2.98922000 0.00000000 -3.1704147999999996 0 0 0
Al 0.00000000 2.11369500 -1.056804930000002 0 0 0
Al 2.98922000 4.22739000 -3.1704147999999996 0 0 0
Al 0.00000000 2.12231888 3.19675590
Al 2.98922000 4.22739000 1.07708758
Al 0.00000000 6.33246112 3.19675590
Al 2.98922000 0.00000000 1.05417082
Co 1.49461000 0.00000000 -1.056804930000002 0 0 0
Co 4.48383000 4.22739000 -1.056804930000002 0 0 0
Co 4.48383000 0.00000000 -1.056804930000002 0 0 0
Co 1.49461000 4.22739000 -1.056804930000002 0 0 0
Co 4.48383000 6.34108500 -3.1704147999999996 0 0 0
Co 1.49461000 2.11369500 -3.1704147999999996 0 0 0
Co 1.49461000 6.34108500 -3.1704147999999996 0 0 0
Co 4.48383000 2.11369500 -3.1704147999999996 0 0 0
Co 1.48044110 4.22739000 3.11509849
Co 4.40180580 0.00000000 3.14512734
Co 4.49799890 4.22739000 3.11509849
Co 1.57669398 0.00000000 3.14512734
Co 4.47540040 2.10473293 1.07102913
Co 1.50303960 6.35004707 1.07102913
Co 1.50303960 2.10473293 1.07102913
Co 4.47540040 6.35004707 1.07102913
C 0.00000000 0.00000000 3.96986718
