&CONTROL
calculation = 'relax'
prefix = 'scf'
pseudo_dir = '/vol0004/mdt0/data/hp150275/u10028/POT_KKJUS'
outdir = './data'
tprnfor = .true.
nstep = 50
disk_io = 'non'
/
&SYSTEM
ibrav = 0
ecutwfc = 50.0
ecutrho = 400
occupations = 'smearing'
smearing = 'mp'
degauss = 0.01
assume_isolated = 'esm'
esm_bc = 'bc1'
input_dft = 'BEEF-VDW'
nosym = .true.
nspin = 1
ntyp = 2
nat = 32
/
&ELECTRONS
electron_maxstep = 200
mixing_beta = 0.1
conv_thr = 1e-06
/
&IONS
ion_dynamics = 'bfgs'
upscale = 1.0
/
&CELL
/

K_POINTS {automatic}
8 6 1 0 0 0

ATOMIC_SPECIES
In 114.8 In.pbe-dn-rrkjus_psl.1.0.0.UPF
Sb 121.7 Sb.pbe-n-rrkjus_psl.1.0.0.UPF

CELL_PARAMETERS {angstrom}
7.67805000 0.00000000 0.00000000
0.00000000 10.85840000 0.00000000
0.00000000 0.00000000 28.14380000

ATOMIC_POSITIONS {angstrom}
In 0.00000000 0.00000000 -4.071844979999998 0 0 0
In 0.00000000 2.71460000 -1.3573754699999974 0 0 0
In 7.67781966 0.00021717 1.44265119
In 0.00030712 2.71416566 4.11968944
In 0.00000000 5.42920000 -4.071844979999998 0 0 0
In 0.00000000 8.14380000 -1.3573754699999974 0 0 0
In 7.67789644 5.42963434 1.44265119
In 7.67774288 8.14434292 4.11884513
In 3.83902500 0.00000000 -4.071844979999998 0 0 0
In 3.83902500 2.71460000 -1.3573754699999974 0 0 0
In 3.83902500 0.00065150 1.44321406
In 3.83856432 2.71351416 4.12081520
In 3.83902500 5.42920000 -4.071844979999998 0 0 0
In 3.83902500 8.14380000 -1.3573754699999974 0 0 0
In 3.83986959 5.42952575 1.44349550
In 3.83963924 8.14477726 4.12025232
Sb 1.91951250 2.71460000 -4.071844979999998 0 0 0
Sb 1.91951250 0.00000000 -1.3573754699999974 0 0 0
Sb 1.91951250 2.71536009 1.18935699
Sb 1.91928216 10.85818283 3.96658717
Sb 1.91951250 8.14380000 -4.071844979999998 0 0 0
Sb 1.91951250 5.42920000 -1.3573754699999974 0 0 0
Sb 1.91974284 8.14358283 1.18935699
Sb 1.91958928 5.42930858 3.96574286
Sb 5.75853750 2.71460000 -4.071844979999998 0 0 0
Sb 5.75853750 0.00000000 -1.3573754699999974 0 0 0
Sb 5.75853750 2.71492575 1.18963843
Sb 5.75869106 0.00021717 3.96686861
Sb 5.75853750 8.14380000 -4.071844979999998 0 0 0
Sb 5.75853750 5.42920000 -1.3573754699999974 0 0 0
Sb 5.75838394 8.14401717 1.18907555
Sb 5.75869106 5.42876566 3.96658717
