&CONTROL
calculation = 'relax'
prefix = 'scf'
pseudo_dir = '/vol0004/mdt0/data/hp150275/u10028/POT_KKJUS'
outdir = './data'
tprnfor = .true.
nstep = 50
disk_io = 'non'
/
&SYSTEM
ibrav = 0
ecutwfc = 50.0
ecutrho = 400
occupations = 'smearing'
smearing = 'mp'
degauss = 0.01
assume_isolated = 'esm'
esm_bc = 'bc1'
input_dft = 'BEEF-VDW'
nosym = .true.
nspin = 1
ntyp = 5
nat = 34
/
&ELECTRONS
electron_maxstep = 200
mixing_beta = 0.1
conv_thr = 1e-06
/
&IONS
ion_dynamics = 'bfgs'
upscale = 1.0
/
&CELL
/

K_POINTS {automatic}
8 6 1 0 0 0

ATOMIC_SPECIES
C 12.01 C.pbe-n-rrkjus_psl.1.0.0.UPF
Ni 58.69 Ni.pbe-spn-rrkjus_psl.1.0.0.UPF
O 15.99 O.pbe-n-rrkjus_psl.1.0.0.UPF
Sb 121.7 Sb.pbe-n-rrkjus_psl.1.0.0.UPF
Ti 47.86 Ti.pbe-spn-rrkjus_psl.1.0.0.UPF

CELL_PARAMETERS {angstrom}
6.14888000 0.00000000 0.00000000
0.00000000 8.69583000 0.00000000
0.00000000 0.00000000 26.52190000

ATOMIC_POSITIONS {angstrom}
Ti 0.00000000 0.00000000 -3.2608676099999983 0 0 0
Ti 3.07444000 2.17395750 -1.086867459999997 0 0 0
Ti 3.07444000 6.52187250 -1.086867459999997 0 0 0
Ti 0.00000000 4.34791500 -3.2608676099999983 0 0 0
Ti 6.14875702 4.34713238 1.13540254
Ti 3.07425553 6.52187250 3.18501497
Ti 3.07425553 2.17404446 3.17095836
Ti 6.14875702 0.00078262 1.13540254
Ni 1.53722000 0.00000000 -1.086867459999997 0 0 0
Ni 4.61166000 4.34791500 -1.086867459999997 0 0 0
Ni 4.61166000 0.00000000 -1.086867459999997 0 0 0
Ni 1.53722000 4.34791500 -1.086867459999997 0 0 0
Ni 4.61166000 6.52187250 -3.2608676099999983 0 0 0
Ni 1.53722000 2.17395750 -3.2608676099999983 0 0 0
Ni 1.53722000 6.52187250 -3.2608676099999983 0 0 0
Ni 4.61166000 2.17395750 -3.2608676099999983 0 0 0
Ni 1.65822996 4.34965417 3.10412318
Ni 4.49009664 8.69435171 3.10438839
Ni 4.48997366 4.34965417 3.10465361
Ni 1.65847591 8.69426475 3.10438839
Ni 4.72498386 2.17395750 1.19295506
Ni 1.39985402 6.52195946 1.22345525
Ni 1.42383465 2.17387054 1.19295506
Ni 4.74841109 6.52195946 1.22398568
Sb 0.00000000 6.52187250 -1.086867459999997 0 0 0
Sb 3.07444000 0.00000000 -3.2608676099999983 0 0 0
Sb 0.00000000 2.17395750 -1.086867459999997 0 0 0
Sb 3.07444000 4.34791500 -3.2608676099999983 0 0 0
Sb 6.14869553 2.17404446 3.55950420
Sb 3.07437851 4.35713258 1.00571045
Sb 6.14869553 6.52187250 3.59530876
Sb 3.07431702 8.68661242 1.00544523
C 0.00768610 2.16865304 7.60886789
O 6.14801916 2.17439229 8.74373999
