&CONTROL
calculation = 'relax'
prefix = 'scf'
pseudo_dir = '/vol0403/data/hp230205/u10028/POT_HYBRID_KKJUS_GBRV'
outdir = './data'
tprnfor = .true.
nstep = 50
disk_io = 'non'
/
&SYSTEM
ibrav = 0
ecutwfc = 50.0
ecutrho = 400
occupations = 'smearing'
smearing = 'mp'
degauss = 0.01
assume_isolated = 'esm'
esm_bc = 'bc1'
input_dft = 'BEEF-VDW'
nosym = .true.
nspin = 1
ntyp = 6
nat = 18
/
&ELECTRONS
electron_maxstep = 200
mixing_beta = 0.1
conv_thr = 1e-06
/
&IONS
ion_dynamics = 'bfgs'
upscale = 1.0
/
&CELL
/

K_POINTS {automatic}
6 6 1 0 0 0

ATOMIC_SPECIES
Ag 107.8 Ag.pbe-n-rrkjus_psl.1.0.0.UPF
Al 26.98 Al.pbe-nl-rrkjus_psl.1.0.0.UPF
C 12.01 C.pbe-n-rrkjus_psl.1.0.0.UPF
Ge 72.64 Ge.pbe-dn-rrkjus_psl.1.0.0.UPF
Li 6.941 Li.pbe-sl-rrkjus_psl.1.0.0.UPF
O 15.99 O.pbe-n-rrkjus_psl.1.0.0.UPF


CELL_PARAMETERS {angstrom}
5.75991000 0.00000000 0.00000000
0.00000000 8.02734000 0.00000000
0.00000000 0.00000000 24.29680000

ATOMIC_POSITIONS {angstrom}
Li 1.36089394 2.02232777 0.75951797
Li 3.87376987 2.00683500 -2.1483230600000027 0 0 0
Li 1.36089394 6.00501223 0.75976094
Li 3.87376987 6.02050500 -2.1483230600000027 0 0 0
Al 3.04163567 8.02717945 1.94180026
Al 5.46246825 0.00000000 -0.7160267000000005 0 0 0
Al 2.96145773 4.01367000 2.21538222
Al 5.46246825 4.01367000 -0.7160267000000005 0 0 0
Ag 0.23534992 0.00008027 2.25134149
Ag 2.58251325 0.00000000 -0.7160267000000005 0 0 0
Ag 0.29306422 4.01350945 2.26689144
Ag 2.58251325 4.01367000 -0.7160267000000005 0 0 0
Ge 4.32327325 2.08606485 1.03674446
Ge 0.99381487 2.00683500 -2.1483230600000027 0 0 0
Ge 4.32333085 5.94111461 1.03674446
Ge 0.99381487 6.02050500 -2.1483230600000027 0 0 0
C 0.10097122 0.00008027 4.48761896
O 5.75979480 0.00000000 5.62422326
