&CONTROL
calculation = 'relax'
prefix = 'scf'
pseudo_dir = '/vol0004/mdt0/data/hp150275/u10028/POT_KKJUS'
outdir = './data'
tprnfor = .true.
nstep = 50
disk_io = 'non'
/
&SYSTEM
ibrav = 0
ecutwfc = 50.0
ecutrho = 400
occupations = 'smearing'
smearing = 'mp'
degauss = 0.01
assume_isolated = 'esm'
esm_bc = 'bc1'
input_dft = 'BEEF-VDW'
nosym = .true.
nspin = 1
ntyp = 3
nat = 32
/
&ELECTRONS
electron_maxstep = 200
mixing_beta = 0.1
conv_thr = 1e-06
/
&IONS
ion_dynamics = 'bfgs'
upscale = 1.0
/
&CELL
/

K_POINTS {automatic}
9 6 2 0  0  0

ATOMIC_SPECIES
Ga 69.72 Ga.pbe-dnl-rrkjus_psl.1.0.0.UPF
Nb 92.90 Nb.pbe-spn-rrkjus_psl.1.0.0.UPF
Ni 58.69 Ni.pbe-spn-rrkjus_psl.1.0.0.UPF

CELL_PARAMETERS {angstrom}
6.01786000 0.00000000 0.00000000
0.00000000 8.51054000 0.00000000
0.00000000 0.00000000 26.38290000

ATOMIC_POSITIONS {angstrom}
Nb 0.00000000 0.00000000 -3.1915394100000007 0 0 0
Nb 3.00893000 2.12763500 -1.0637585299999976 0 0 0
Nb 3.00893000 6.38290500 -1.0637585299999976 0 0 0
Nb 0.00000000 4.25527000 -3.1915394100000007 0 0 0
Nb 0.00000000 4.25527000 1.05373303
Nb 3.00893000 6.38273479 3.20156492
Nb 3.00893000 2.12780521 3.20103726
Nb 0.00000000 0.00008511 1.05373303
Ga 0.00000000 6.38290500 -1.0637585299999976 0 0 0
Ga 3.00893000 0.00000000 -3.1915394100000007 0 0 0
Ga 0.00000000 2.12763500 -1.0637585299999976 0 0 0
Ga 3.00893000 4.25527000 -3.1915394100000007 0 0 0
Ga 0.00000000 2.12737968 3.22240741
Ga 3.00893000 4.25544021 1.03658414
Ga 0.00000000 6.38316032 3.22187975
Ga 3.00893000 8.51036979 1.03658414
Ni 1.50446500 0.00000000 -1.0637585299999976 0 0 0
Ni 4.51339500 4.25527000 -1.0637585299999976 0 0 0
Ni 4.51339500 0.00000000 -1.0637585299999976 0 0 0
Ni 1.50446500 4.25527000 -1.0637585299999976 0 0 0
Ni 4.51339500 6.38290500 -3.1915394100000007 0 0 0
Ni 1.50446500 2.12763500 -3.1915394100000007 0 0 0
Ni 1.50446500 6.38290500 -3.1915394100000007 0 0 0
Ni 4.51339500 2.12763500 -3.1915394100000007 0 0 0
Ni 1.52961965 4.25535511 3.07862060
Ni 4.48775892 8.51045489 3.07835677
Ni 4.48824035 4.25535511 3.07862060
Ni 1.53010108 8.51045489 3.07835677
Ni 4.47482052 2.12754989 1.14026894
Ni 1.54309966 6.38299011 1.14053277
Ni 1.54303948 2.12754989 1.14026894
Ni 4.47476034 6.38299011 1.14053277
