&CONTROL
calculation = 'relax'
prefix = 'scf'
pseudo_dir = '/vol0004/mdt0/data/hp150275/u10028/POT_HYBRID_KKJUS_GBRV'
outdir = './data'
tprnfor = .true.
nstep = 50
disk_io = 'non'
/
&SYSTEM
ibrav = 0
ecutwfc = 50.0
ecutrho = 400
occupations = 'smearing'
smearing = 'mp'
degauss = 0.01
assume_isolated = 'esm'
esm_bc = 'bc1'
input_dft = 'BEEF-VDW'
nosym = .true.
nspin = 2
ntyp = 3
nat = 33
starting_magnetization(1) = 0.0
starting_magnetization(2) = 0.1
starting_magnetization(3) = 0.0
/
&ELECTRONS
electron_maxstep = 200
mixing_beta = 0.1
conv_thr = 1e-06
/
&IONS
ion_dynamics = 'bfgs'
upscale = 1.0
/
&CELL
/

K_POINTS {automatic}
7 7 2 0  0  0

ATOMIC_SPECIES
C 12.01 C.pbe-n-rrkjus_psl.1.0.0.UPF
Co 58.93 co_pbe_v1.2.uspp.F.UPF
Pt 195.0 Pt.pbe-n-rrkjus_psl.1.0.0.UPF

CELL_PARAMETERS {angstrom}
7.83592000 0.00000000 0.00000000
-0.00000000 7.83592000 0.00000000
0.00000000 0.00000000 25.87690000

ATOMIC_POSITIONS {angstrom}
Co 0.00000000 0.00000000 2.93858076
Co 0.00000000 0.00000000 24.89745933
Co 0.00000000 3.91796000 2.93858076
Co 0.00000000 3.91796000 24.89745933
Co 3.91796000 -0.00000000 2.93858076
Co 3.91796000 0.00000000 24.89745933
Co 3.91796000 3.91796000 2.93858076
Co 3.91796000 3.91796000 24.89745933
Pt 0.00000000 1.95898000 0.97944067
Pt 1.95898000 -0.00000000 0.97944067
Pt 1.95898000 1.95898000 2.93858076
Pt 0.00000000 1.95898000 22.93831924
Pt 1.95898000 0.00000000 22.93831924
Pt 1.95898000 1.95898000 24.89745933
Pt 0.00000000 5.87694000 0.97944067
Pt 1.95898000 3.91796000 0.97944067
Pt 1.95898000 5.87694000 2.93858076
Pt 0.00000000 5.87694000 22.93831924
Pt 1.95898000 3.91796000 22.93831924
Pt 1.95898000 5.87694000 24.89745933
Pt 3.91796000 1.95898000 0.97944067
Pt 5.87694000 -0.00000000 0.97944067
Pt 5.87694000 1.95898000 2.93858076
Pt 3.91796000 1.95898000 22.93831924
Pt 5.87694000 0.00000000 22.93831924
Pt 5.87694000 1.95898000 24.89745933
Pt 3.91796000 5.87694000 0.97944067
Pt 5.87694000 3.91796000 0.97944067
Pt 5.87694000 5.87694000 2.93858076
Pt 3.91796000 5.87694000 22.93831924
Pt 5.87694000 3.91796000 22.93831924
Pt 5.87694000 5.87694000 24.89745933
C 1.95898000 -0.00000000 3.73843574
