&CONTROL
calculation = 'relax'
prefix = 'scf'
pseudo_dir = '/vol0004/mdt0/data/hp150275/u10028/POT_KKJUS'
outdir = './data'
tprnfor = .true.
nstep = 50
disk_io = 'non'
/
&SYSTEM
ibrav = 0
ecutwfc = 50.0
ecutrho = 400
occupations = 'smearing'
smearing = 'mp'
degauss = 0.01
assume_isolated = 'esm'
esm_bc = 'bc1'
input_dft = 'BEEF-VDW'
nosym = .true.
nspin = 1
ntyp = 5
nat = 34
/
&ELECTRONS
electron_maxstep = 200
mixing_beta = 0.1
conv_thr = 1e-06
/
&IONS
ion_dynamics = 'bfgs'
upscale = 1.0
/
&CELL
/

K_POINTS {automatic}
8 6 1 0 0 0

ATOMIC_SPECIES
C 12.01 C.pbe-n-rrkjus_psl.1.0.0.UPF
In 114.8 In.pbe-dn-rrkjus_psl.1.0.0.UPF
Ni 58.69 Ni.pbe-spn-rrkjus_psl.1.0.0.UPF
O 15.99 O.pbe-n-rrkjus_psl.1.0.0.UPF
Ti 47.86 Ti.pbe-spn-rrkjus_psl.1.0.0.UPF

CELL_PARAMETERS {angstrom}
6.14958000 0.00000000 0.00000000
0.00000000 8.69682000 0.00000000
0.00000000 0.00000000 26.52260000

ATOMIC_POSITIONS {angstrom}
Ti 0.00000000 0.00000000 -3.2612188999999994 0 0 0
Ti 3.07479000 2.17420500 -1.0871613700000005 0 0 0
Ti 3.07479000 6.52261500 -1.0871613700000005 0 0 0
Ti 0.00000000 4.34841000 -3.2612188999999994 0 0 0
Ti 0.00000000 4.33997408 1.17203369
Ti 3.07479000 6.52287590 3.20684757
Ti 3.07479000 2.17411803 3.19066878
Ti 0.00000000 0.00860985 1.17150324
In 0.00000000 6.52261500 -1.0871613700000005 0 0 0
In 3.07479000 0.00000000 -3.2612188999999994 0 0 0
In 0.00000000 2.17420500 -1.0871613700000005 0 0 0
In 3.07479000 4.34841000 -3.2612188999999994 0 0 0
In 0.00000000 2.17472681 3.55084569
In 3.07472850 4.37745738 1.03146391
In 0.00000000 6.52218016 3.62086535
In 3.07485150 8.66785959 1.03093346
Ni 1.53739500 0.00000000 -1.0871613700000005 0 0 0
Ni 4.61218500 4.34841000 -1.0871613700000005 0 0 0
Ni 4.61218500 0.00000000 -1.0871613700000005 0 0 0
Ni 1.53739500 4.34841000 -1.0871613700000005 0 0 0
Ni 4.61218500 6.52261500 -3.2612188999999994 0 0 0
Ni 1.53739500 2.17420500 -3.2612188999999994 0 0 0
Ni 1.53739500 6.52261500 -3.2612188999999994 0 0 0
Ni 4.61218500 2.17420500 -3.2612188999999994 0 0 0
Ni 1.57263209 4.34919271 3.15831121
Ni 4.57787034 8.69647213 3.15804598
Ni 4.57707090 4.34919271 3.15831121
Ni 1.57164816 8.69647213 3.15804598
Ni 4.62737446 2.17437894 1.17495118
Ni 1.45499063 6.52270197 1.22507889
Ni 1.52214404 2.17429197 1.17468595
Ni 4.69434339 6.52261500 1.22507889
C 0.00018449 2.17324835 7.37248712
O 0.00000000 2.17429197 8.50606305
