&CONTROL
calculation = 'relax'
prefix = 'scf'
pseudo_dir = '/vol0403/data/hp230205/u10028/POT_HYBRID_KKJUS_GBRV'
outdir = './data'
tprnfor = .true.
nstep = 70
disk_io = 'non'
/
&SYSTEM
ibrav = 0
ecutwfc = 50.0
ecutrho = 400
occupations = 'smearing'
smearing = 'mp'
degauss = 0.01
assume_isolated = 'esm'
esm_bc = 'bc1'
input_dft = 'BEEF-VDW'
nosym = .true.
nspin = 1
ntyp = 6
nat = 34
/
&ELECTRONS
electron_maxstep = 200
mixing_beta = 0.1
conv_thr = 1e-06
/
&IONS
ion_dynamics = 'bfgs'
upscale = 1.0
/
&CELL
/

K_POINTS {automatic}
6 6 1 0 0 0

ATOMIC_SPECIES
Ag 107.8 Ag.pbe-n-rrkjus_psl.1.0.0.UPF
C 12.01 C.pbe-n-rrkjus_psl.1.0.0.UPF
In 114.8 In.pbe-dn-rrkjus_psl.1.0.0.UPF
Li 6.941 Li.pbe-sl-rrkjus_psl.1.0.0.UPF
O 15.99 O.pbe-n-rrkjus_psl.1.0.0.UPF
Pd 106.4 Pd.pbe-n-rrkjus_psl.1.0.0.UPF


CELL_PARAMETERS {angstrom}
6.52372000 0.00000000 0.00000000
-0.00000000 9.22594000 0.00000000
0.00000000 0.00000000 26.91950000

ATOMIC_POSITIONS {angstrom}
Li 1.63093000 0.00000000 -1.1532313799999976 0 0 0
Li 1.63093000 4.61297000 -1.1532313799999976 0 0 0
Li 4.89279000 2.30648500 -3.45969414 0 0 0
Li 4.89279000 6.91945500 -3.45969414 0 0 0
Li 1.55323249 4.61287774 3.52430094
Li 1.55323249 -0.00000000 3.52430094
Li 4.84144832 6.91945500 1.12846544
Li 4.90159702 2.30648500 1.12200476
In 4.89279000 0.00000000 -1.1532313799999976 0 0 0
In 4.89279000 4.61297000 -1.1532313799999976 0 0 0
In 1.63093000 2.30648500 -3.45969414 0 0 0
In 1.63093000 6.91945500 -3.45969414 0 0 0
In 4.88496154 4.66223652 3.67531934
In 4.88496154 9.17658122 3.67531934
In 1.62421057 6.91945500 1.14650151
In 1.59113531 2.30648500 1.15215460
Ag 0.00000000 0.00000000 -3.45969414 0 0 0
Ag 0.00000000 4.61297000 -3.45969414 0 0 0
Ag 3.26186000 6.91945500 -1.1532313799999976 0 0 0
Ag 3.26186000 2.30648500 -1.1532313799999976 0 0 0
Ag 6.45946136 4.60143757 1.23049034
Ag 6.45946136 0.01153242 1.23049034
Ag 3.35606252 2.30648500 3.35067016
Ag 3.19884086 6.91945500 3.48715203
Pd 0.00000000 2.30648500 -1.1532313799999976 0 0 0
Pd 0.00000000 6.91945500 -1.1532313799999976 0 0 0
Pd 3.26186000 4.61297000 -3.45969414 0 0 0
Pd 3.26186000 0.00000000 -3.45969414 0 0 0
Pd 6.41183820 6.91945500 3.25968225
Pd 6.51106398 2.30648500 3.53210759
Pd 3.25266155 0.01568410 1.18122766
Pd 3.25266155 4.59737816 1.18149686
C 0.52744276 2.30657726 5.41081950
O 0.67722737 2.30657726 6.55570583
