&CONTROL
calculation = 'relax'
prefix = 'scf'
pseudo_dir = '/vol0004/mdt0/data/hp150275/u10028/POT_HYBRID_KKJUS_GBRV'
outdir = './data'
tprnfor = .true.
nstep = 50
disk_io = 'non'
/
&SYSTEM
ibrav = 0
ecutwfc = 50.0
ecutrho = 400
occupations = 'smearing'
smearing = 'mp'
degauss = 0.01
assume_isolated = 'esm'
esm_bc = 'bc1'
input_dft = 'BEEF-VDW'
nosym = .true.
nspin = 2
ntyp = 5
nat = 34
starting_magnetization(1) = 0.0
starting_magnetization(2) = 0.1
starting_magnetization(3) = 0.0
starting_magnetization(4) = 0.1
starting_magnetization(5) = 0.0
/
&ELECTRONS
electron_maxstep = 200
mixing_beta = 0.1
conv_thr = 1e-06
/
&IONS
ion_dynamics = 'bfgs'
upscale = 1.0
/
&CELL
/

K_POINTS {automatic}
9 6 2 0  0  0

ATOMIC_SPECIES
C 12.01 C.pbe-n-rrkjus_psl.1.0.0.UPF
Co 58.93 co_pbe_v1.2.uspp.F.UPF
Ge 72.64 Ge.pbe-dn-rrkjus_psl.1.0.0.UPF
Mn 54.93 mn_pbe_v1.5.uspp.F.UPF
O 15.99 O.pbe-n-rrkjus_psl.1.0.0.UPF

CELL_PARAMETERS {angstrom}
5.75846000 0.00000000 0.00000000
0.00000000 8.14369000 0.00000000
0.00000000 0.00000000 26.10780000

ATOMIC_POSITIONS {angstrom}
Mn 0.00000000 0.00000000 23.05397063
Mn 2.87923000 2.03592250 25.08985688
Mn 2.87923000 6.10776750 25.08985688
Mn 0.00000000 4.07184500 23.05397063
Mn 0.00000000 4.07127494 0.99026885
Mn 2.87923000 6.10768606 3.13032522
Mn 2.87923000 2.03584106 3.13006414
Mn 0.00000000 0.00040718 0.99000778
Co 1.43961500 0.00000000 25.08985688
Co 4.31884500 4.07184500 25.08985688
Co 4.31884500 0.00000000 25.08985688
Co 1.43961500 4.07184500 25.08985688
Co 4.31884500 6.10776750 23.05397063
Co 1.43961500 2.03592250 23.05397063
Co 1.43961500 6.10776750 23.05397063
Co 4.31884500 2.03592250 23.05397063
Co 1.37753880 4.07143782 2.96480177
Co 4.38103637 0.00024431 2.96480177
Co 4.38092120 4.07143782 2.96480177
Co 1.37742363 0.00024431 2.96480177
Co 4.31671437 2.03592250 1.01637665
Co 1.44140012 6.10760463 1.01820420
Co 1.44174563 2.03592250 1.01637665
Co 4.31705988 6.10768606 1.01820420
Ge 0.00000000 6.10776750 25.08985688
Ge 2.87923000 0.00000000 23.05397063
Ge 0.00000000 2.03592250 25.08985688
Ge 2.87923000 4.07184500 23.05397063
Ge 0.00000000 2.03600394 3.09534077
Ge 2.87917242 4.07298512 1.02420899
Ge 0.00000000 6.10752319 3.10186772
Ge 2.87923000 8.14230557 1.02394792
C 5.75759623 2.03991291 7.08905093
O 0.00011517 2.03502669 8.22395700
