&CONTROL
calculation = 'relax'
prefix = 'scf'
pseudo_dir = '/vol0004/mdt0/data/hp150275/u10028/POT_KKJUS'
outdir = './data'
tprnfor = .true.
nstep = 50
disk_io = 'non'
/
&SYSTEM
ibrav = 0
ecutwfc = 50.0
ecutrho = 400
occupations = 'smearing'
smearing = 'mp'
degauss = 0.01
assume_isolated = 'esm'
esm_bc = 'bc1'
input_dft = 'BEEF-VDW'
nosym = .true.
nspin = 1
ntyp = 3
nat = 33
/
&ELECTRONS
electron_maxstep = 200
mixing_beta = 0.1
conv_thr = 1e-06
/
&IONS
ion_dynamics = 'bfgs'
upscale = 1.0
/
&CELL
/

K_POINTS {automatic}
9 6 2 0  0  0

ATOMIC_SPECIES
C 12.01 C.pbe-n-rrkjus_psl.1.0.0.UPF
Ca 40.07 Ca.pbe-spn-rrkjus_psl.1.0.0.UPF
Ni 58.69 Ni.pbe-spn-rrkjus_psl.1.0.0.UPF

CELL_PARAMETERS {angstrom}
6.93038000 0.00000000 0.00000000
0.00000000 9.80104000 0.00000000
0.00000000 0.00000000 27.35080000

ATOMIC_POSITIONS {angstrom}
Ca 0.00000000 0.00000000 -3.6754004999999985 0 0 0
Ca 0.00000000 2.45026000 -1.2250423300000008 0 0 0
Ca 0.00000000 9.80094199 1.23789721
Ca 6.93031070 2.59012084 3.81680414
Ca 0.00000000 4.90052000 -3.6754004999999985 0 0 0
Ca 0.00000000 7.35078000 -1.2250423300000008 0 0 0
Ca 0.00000000 4.90032398 1.15064816
Ca 0.00000000 7.21101717 3.81653063
Ca 3.46519000 0.00000000 -3.6754004999999985 0 0 0
Ca 3.46519000 2.45026000 -1.2250423300000008 0 0 0
Ca 3.46525930 0.00000000 1.16350303
Ca 3.46505139 2.53503900 3.83458216
Ca 3.46519000 4.90052000 -3.6754004999999985 0 0 0
Ca 3.46519000 7.35078000 -1.2250423300000008 0 0 0
Ca 3.46512070 4.90032398 1.11728018
Ca 3.46519000 7.26619702 3.83458216
Ni 1.73259500 2.45026000 -3.6754004999999985 0 0 0
Ni 1.73259500 0.00000000 -1.2250423300000008 0 0 0
Ni 1.78027601 2.47966312 1.45834466
Ni 1.73488203 9.80094199 3.54247562
Ni 1.73259500 7.35078000 -3.6754004999999985 0 0 0
Ni 1.73259500 4.90052000 -1.2250423300000008 0 0 0
Ni 1.78076114 7.32059280 1.45834466
Ni 1.79476051 4.90081403 3.31054083
Ni 5.19778500 2.45026000 -3.6754004999999985 0 0 0
Ni 5.19778500 0.00000000 -1.2250423300000008 0 0 0
Ni 5.14968816 2.48025118 1.45861816
Ni 5.19563658 0.00039204 3.54302263
Ni 5.19778500 7.35078000 -3.6754004999999985 0 0 0
Ni 5.19778500 4.90052000 -1.2250423300000008 0 0 0
Ni 5.14948025 7.32020076 1.45834466
Ni 5.13541158 4.90071602 3.31054083
C 0.00020791 0.00000000 3.85181316
