&CONTROL
calculation = 'relax'
prefix = 'scf'
pseudo_dir = '/vol0004/mdt0/data/hp150275/u10028/POT_KKJUS'
outdir = './data'
tprnfor = .true.
nstep = 50
disk_io = 'non'
/
&SYSTEM
ibrav = 0
ecutwfc = 50.0
ecutrho = 400
occupations = 'smearing'
smearing = 'mp'
degauss = 0.01
assume_isolated = 'esm'
esm_bc = 'bc1'
input_dft = 'BEEF-VDW'
nosym = .true.
nspin = 1
ntyp = 4
nat = 34
/
&ELECTRONS
electron_maxstep = 200
mixing_beta = 0.1
conv_thr = 1e-06
/
&IONS
ion_dynamics = 'bfgs'
upscale = 1.0
/
&CELL
/

K_POINTS {automatic}
9 6 2 0  0  0

ATOMIC_SPECIES
C 12.01 C.pbe-n-rrkjus_psl.1.0.0.UPF
Ni 58.69 Ni.pbe-spn-rrkjus_psl.1.0.0.UPF
O 15.99 O.pbe-n-rrkjus_psl.1.0.0.UPF
Ti 47.86 Ti.pbe-spn-rrkjus_psl.1.0.0.UPF

CELL_PARAMETERS {angstrom}
6.05499000 0.00000000 0.00000000
0.00000000 8.56306000 0.00000000
0.00000000 0.00000000 26.42230000

ATOMIC_POSITIONS {angstrom}
Ti 1.51374750 2.14076500 -3.2111021199999996 0 0 0
Ti 1.51374750 4.28153000 -1.0703673699999996 0 0 0
Ti 1.51792544 2.14102189 1.03628261
Ti 1.54995634 4.32400278 3.30675085
Ti 1.51374750 6.42229500 -3.2111021199999996 0 0 0
Ti 1.51374750 0.00000000 -1.0703673699999996 0 0 0
Ti 1.48401750 6.42203811 1.03443304
Ti 1.54971414 8.52067285 3.30701507
Ti 4.54124250 2.14076500 -3.2111021199999996 0 0 0
Ti 4.54124250 4.28153000 -1.0703673699999996 0 0 0
Ti 4.53694346 2.14067937 1.03628261
Ti 4.50503366 4.32408841 3.30701507
Ti 4.54124250 6.42229500 -3.2111021199999996 0 0 0
Ti 4.54124250 0.00000000 -1.0703673699999996 0 0 0
Ti 4.57097250 6.42238063 1.03443304
Ti 4.50515476 8.52067285 3.30675085
Ni 0.00000000 0.00000000 -3.2111021199999996 0 0 0
Ni 0.00000000 2.14076500 -1.0703673699999996 0 0 0
Ni 6.05432395 4.19624192 1.40619481
Ni 6.05492945 2.14076500 3.19551296
Ni 0.00000000 4.28153000 -3.2111021199999996 0 0 0
Ni 0.00000000 6.42229500 -1.0703673699999996 0 0 0
Ni 0.00042385 0.08451740 1.40645903
Ni 0.00006055 6.42220937 3.04120673
Ni 3.02749500 0.00000000 -3.2111021199999996 0 0 0
Ni 3.02749500 2.14076500 -1.0703673699999996 0 0 0
Ni 3.02840325 4.33813183 1.25215280
Ni 3.02737390 2.14085063 2.98519145
Ni 3.02749500 4.28153000 -3.2111021199999996 0 0 0
Ni 3.02749500 6.42229500 -1.0703673699999996 0 0 0
Ni 3.02646565 8.50654380 1.25294547
Ni 3.02743445 6.42169559 2.99760993
C 0.00000000 2.14085063 4.96237216
O 0.00000000 2.14059374 6.13129472
