&CONTROL
calculation = 'relax'
prefix = 'scf'
pseudo_dir = '/vol0403/data/hp230205/u10028/POT_HYBRID_KKJUS_GBRV'
outdir = './data'
tprnfor = .true.
nstep = 70
disk_io = 'non'
/
&SYSTEM
ibrav = 0
ecutwfc = 50.0
ecutrho = 400
occupations = 'smearing'
smearing = 'mp'
degauss = 0.01
assume_isolated = 'esm'
esm_bc = 'bc1'
input_dft = 'BEEF-VDW'
nosym = .true.
nspin = 1
ntyp = 5
nat = 33
/
&ELECTRONS
electron_maxstep = 200
mixing_beta = 0.1
conv_thr = 1e-06
/
&IONS
ion_dynamics = 'bfgs'
upscale = 1.0
/
&CELL
/

K_POINTS {automatic}
9 6 2 0  0  0

ATOMIC_SPECIES
Al 26.98 Al.pbe-nl-rrkjus_psl.1.0.0.UPF
C 12.01 C.pbe-n-rrkjus_psl.1.0.0.UPF
Cu 63.54 Cu.pbe-dn-rrkjus_psl.1.0.0.UPF
In 114.8 In.pbe-dn-rrkjus_psl.1.0.0.UPF
Li 6.941 Li.pbe-sl-rrkjus_psl.1.0.0.UPF


CELL_PARAMETERS {angstrom}
6.37467000 0.00000000 0.00000000
-0.00000000 9.01514000 0.00000000
0.00000000 0.00000000 26.76140000

ATOMIC_POSITIONS {angstrom}
Li 4.78100250 0.00000000 -1.1269225499999997 0 0 0
Li 4.78100250 4.50757000 -1.1269225499999997 0 0 0
Li 1.59366750 2.25378500 -3.38076766 0 0 0
Li 1.59366750 6.76135500 -3.38076766 0 0 0
Li 4.46673127 4.50757000 4.28209161
Li 4.36907132 -0.00000000 4.40465883
Li 1.39618022 6.77911483 1.22112268
Li 1.39624397 2.23602517 1.22112268
Al 0.00000000 0.00000000 -3.38076766 0 0 0
Al 0.00000000 4.50757000 -3.38076766 0 0 0
Al 3.18733500 6.76135500 -1.1269225499999997 0 0 0
Al 3.18733500 2.25378500 -1.1269225499999997 0 0 0
Al 6.22639518 4.50757000 1.27223696
Al 5.94922452 -0.00000000 1.65385452
Al 3.11491875 2.30066373 3.35855570
Al 3.11491875 6.71447627 3.35855570
In 0.00000000 2.25378500 -1.1269225499999997 0 0 0
In 0.00000000 6.76135500 -1.1269225499999997 0 0 0
In 3.18733500 4.50757000 -3.38076766 0 0 0
In 3.18733500 0.00000000 -3.38076766 0 0 0
In 6.24290557 6.70510053 3.87264219
In 6.24290557 2.31003947 3.87264219
In 3.13162038 -0.00000000 1.15957146
In 3.21219621 4.50757000 1.22139030
Cu 1.59366750 0.00000000 -1.1269225499999997 0 0 0
Cu 1.59366750 4.50757000 -1.1269225499999997 0 0 0
Cu 4.78100250 2.25378500 -3.38076766 0 0 0
Cu 4.78100250 6.76135500 -3.38076766 0 0 0
Cu 1.55796935 4.50757000 3.30610336
Cu 1.83482127 -0.00000000 3.46212232
Cu 4.79203068 6.72763838 1.06162474
Cu 4.79203068 2.28750162 1.06162474
C 6.26617312 -0.00000000 3.60235205
