&CONTROL
calculation = 'relax'
prefix = 'scf'
pseudo_dir = '/vol0403/data/hp230205/u10028/POT_HYBRID_KKJUS_GBRV'
outdir = './data'
tprnfor = .true.
nstep = 50
disk_io = 'non'
/
&SYSTEM
ibrav = 0
ecutwfc = 50.0
ecutrho = 400
occupations = 'smearing'
smearing = 'mp'
degauss = 0.01
assume_isolated = 'esm'
esm_bc = 'bc1'
input_dft = 'BEEF-VDW'
nosym = .true.
nspin = 1
ntyp = 4
nat = 16
/
&ELECTRONS
electron_maxstep = 200
mixing_beta = 0.1
conv_thr = 1e-06
/
&IONS
ion_dynamics = 'bfgs'
upscale = 1.0
/
&CELL
/

K_POINTS {automatic}
12 8 2 0  0  0

ATOMIC_SPECIES
Al 26.98 Al.pbe-nl-rrkjus_psl.1.0.0.UPF
Cu 63.54 Cu.pbe-dn-rrkjus_psl.1.0.0.UPF
Ge 72.64 Ge.pbe-dn-rrkjus_psl.1.0.0.UPF
Li 6.941 Li.pbe-sl-rrkjus_psl.1.0.0.UPF


CELL_PARAMETERS {angstrom}
5.44580000 0.00000000 0.00000000
0.00000000 7.77412000 0.00000000
0.00000000 0.00000000 24.08340000

ATOMIC_POSITIONS {angstrom}
Li 4.02460957 1.94353000 0.75694126
Li 1.27159430 1.94353000 -2.0417906499999994 0 0 0
Li 4.02460957 5.83059000 0.75694126
Li 1.27159430 5.83059000 -2.0417906499999994 0 0 0
Al 5.36340505 0.00000000 2.14342260
Al 2.66299620 0.00000000 -0.6805968799999995 0 0 0
Al 5.36356842 3.88706000 2.14318177
Al 2.66299620 3.88706000 -0.6805968799999995 0 0 0
Cu 2.76303555 0.00000000 1.94449372
Cu 5.38589620 0.00000000 -0.6805968799999995 0 0 0
Cu 2.76298109 3.88706000 1.94449372
Cu 5.38589620 3.88706000 -0.6805968799999995 0 0 0
Ge 1.29528353 1.94345226 1.00042444
Ge 3.99449430 1.94353000 -2.0417906499999994 0 0 0
Ge 1.29533799 5.83066774 1.00066527
Ge 3.99449430 5.83059000 -2.0417906499999994 0 0 0
