&CONTROL
calculation = 'relax'
prefix = 'scf'
pseudo_dir = '/vol0403/data/hp230205/u10028/POT_HYBRID_KKJUS_GBRV'
outdir = './data'
tprnfor = .true.
nstep = 50
disk_io = 'non'
/
&SYSTEM
ibrav = 0
ecutwfc = 50.0
ecutrho = 400
occupations = 'smearing'
smearing = 'mp'
degauss = 0.01
assume_isolated = 'esm'
esm_bc = 'bc1'
input_dft = 'BEEF-VDW'
nosym = .true.
nspin = 1
ntyp = 6
nat = 34
/
&ELECTRONS
electron_maxstep = 200
mixing_beta = 0.1
conv_thr = 1e-06
/
&IONS
ion_dynamics = 'bfgs'
upscale = 1.0
/
&CELL
/

K_POINTS {automatic}
6 6 1 0 0 0

ATOMIC_SPECIES
C 12.01 C.pbe-n-rrkjus_psl.1.0.0.UPF
Ge 72.64 Ge.pbe-dn-rrkjus_psl.1.0.0.UPF
In 114.8 In.pbe-dn-rrkjus_psl.1.0.0.UPF
Li 6.941 Li.pbe-sl-rrkjus_psl.1.0.0.UPF
Mg 24.30 Mg.pbe-spnl-rrkjus_psl.1.0.0.UPF
O 15.99 O.pbe-n-rrkjus_psl.1.0.0.UPF


CELL_PARAMETERS {angstrom}
8.41850000 0.00000000 0.00000000
0.00000000 8.40992000 0.00000000
0.00000000 0.00000000 26.56300000

ATOMIC_POSITIONS {angstrom}
Li 0.00025256 2.10248000 1.22056985
Li 0.00000000 2.10248000 -3.281593019999999 0 0 0
Li 0.00168370 6.30744000 1.22349178
Li 0.00000000 6.30744000 -3.281593019999999 0 0 0
Li 4.20899745 2.10248000 1.22056985
Li 4.20925000 2.10248000 -3.281593019999999 0 0 0
Li 4.20756630 6.30744000 1.22375741
Li 4.20925000 6.30744000 -3.281593019999999 0 0 0
Mg 2.10462500 2.10248000 3.60884918
Mg 2.10462500 2.10248000 -1.0938643399999997 0 0 0
Mg 2.10462500 6.30744000 3.66224081
Mg 2.10462500 6.30744000 -1.0938643399999997 0 0 0
Mg 6.31387500 2.10248000 3.62292757
Mg 6.31387500 2.10248000 -1.0938643399999997 0 0 0
Mg 6.31387500 6.30744000 3.62186505
Mg 6.31387500 6.30744000 -1.0938643399999997 0 0 0
In 2.10462500 8.39780972 1.31779043
In 2.10462500 0.00000000 -3.281593019999999 0 0 0
In 2.10462500 4.21707028 1.31779043
In 2.10462500 4.20496000 -3.281593019999999 0 0 0
In 6.31387500 8.40756522 1.28963365
In 6.31387500 0.00000000 -3.281593019999999 0 0 0
In 6.31387500 4.20731478 1.28963365
In 6.31387500 4.20496000 -3.281593019999999 0 0 0
Ge 8.40646154 8.39234327 3.41547054
Ge 0.00000000 0.00000000 -1.0938643399999997 0 0 0
Ge 8.40646154 4.22253673 3.41547054
Ge 0.00000000 4.20496000 -1.0938643399999997 0 0 0
Ge 4.22128846 8.39234327 3.41547054
Ge 4.20925000 0.00000000 -1.0938643399999997 0 0 0
Ge 4.22128846 4.22253673 3.41547054
Ge 4.20925000 4.20496000 -1.0938643399999997 0 0 0
C 2.10462500 2.10248000 5.85475083
O 2.10462500 2.10248000 6.99749109
