&CONTROL
calculation = 'relax'
prefix = 'scf'
pseudo_dir = '/vol0403/data/hp230205/u10028/POT_HYBRID_KKJUS_GBRV'
outdir = './data'
tprnfor = .true.
nstep = 50
disk_io = 'non'
/
&SYSTEM
ibrav = 0
ecutwfc = 50.0
ecutrho = 400
occupations = 'smearing'
smearing = 'mp'
degauss = 0.01
assume_isolated = 'esm'
esm_bc = 'bc1'
input_dft = 'BEEF-VDW'
nosym = .true.
nspin = 1
ntyp = 6
nat = 18
/
&ELECTRONS
electron_maxstep = 200
mixing_beta = 0.1
conv_thr = 1e-06
/
&IONS
ion_dynamics = 'bfgs'
upscale = 1.0
/
&CELL
/

K_POINTS {automatic}
6 6 1 0 0 0

ATOMIC_SPECIES
Ag 107.8 Ag.pbe-n-rrkjus_psl.1.0.0.UPF
Al 26.98 Al.pbe-nl-rrkjus_psl.1.0.0.UPF
C 12.01 C.pbe-n-rrkjus_psl.1.0.0.UPF
Ge 72.64 Ge.pbe-dn-rrkjus_psl.1.0.0.UPF
Li 6.941 Li.pbe-sl-rrkjus_psl.1.0.0.UPF
O 15.99 O.pbe-n-rrkjus_psl.1.0.0.UPF


CELL_PARAMETERS {angstrom}
7.71364000 0.00000000 0.00000000
0.00000000 5.86609000 0.00000000
0.00000000 0.00000000 24.39060000

ATOMIC_POSITIONS {angstrom}
Li 1.91676240 1.38950074 0.83757320
Li 1.92841000 4.11934438 -2.1953979100000005 0 0 0
Li 5.79680046 1.38955940 0.83757320
Li 5.78523000 4.11934438 -2.1953979100000005 0 0 0
Al 1.97592602 4.27544104 0.81562166
Al 1.92841000 1.18629938 -2.1953979100000005 0 0 0
Al 5.73763684 4.27544104 0.81586557
Al 5.78523000 1.18629938 -2.1953979100000005 0 0 0
Ag 0.00000000 5.73615611 2.32052168
Ag 0.00000000 2.74621003 -0.7317180000000008 0 0 0
Ag 3.85682000 0.03502056 2.25100847
Ag 3.85682000 2.74621003 -0.7317180000000008 0 0 0
Ge 0.00000000 2.96407662 2.09368910
Ge 0.00000000 5.67925503 -0.7317180000000008 0 0 0
Ge 3.85674286 2.97399031 2.26466721
Ge 3.85682000 5.67925503 -0.7317180000000008 0 0 0
C 0.00015427 0.12377450 4.62348214
O 0.00007714 5.79411308 5.74520583
