&CONTROL
calculation = 'relax'
prefix = 'scf'
pseudo_dir = '/vol0403/data/hp230205/u10028/POT_HYBRID_KKJUS_GBRV'
outdir = './data'
tprnfor = .true.
nstep = 50
disk_io = 'non'
/
&SYSTEM
ibrav = 0
ecutwfc = 50.0
ecutrho = 400
occupations = 'smearing'
smearing = 'mp'
degauss = 0.01
assume_isolated = 'esm'
esm_bc = 'bc1'
input_dft = 'BEEF-VDW'
nosym = .true.
nspin = 1
ntyp = 5
nat = 33
/
&ELECTRONS
electron_maxstep = 200
mixing_beta = 0.1
conv_thr = 1e-06
/
&IONS
ion_dynamics = 'bfgs'
upscale = 1.0
/
&CELL
/

K_POINTS {automatic}
6 6 1 0 0 0

ATOMIC_SPECIES
C 12.01 C.pbe-n-rrkjus_psl.1.0.0.UPF
In 114.8 In.pbe-dn-rrkjus_psl.1.0.0.UPF
Pd 106.4 Pd.pbe-n-rrkjus_psl.1.0.0.UPF
Sn 118.7 Sn.pbe-dn-rrkjus_psl.1.0.0.UPF
Y 88.90 Y.pbe-spn-rrkjus_psl.1.0.0.UPF


CELL_PARAMETERS {angstrom}
9.16402000 0.00000000 0.00000000
0.00000000 8.73372000 0.00000000
0.00000000 0.00000000 26.79800000

ATOMIC_POSITIONS {angstrom}
Y 2.29100500 0.00000000 -1.1330194399999982 0 0 0
Y 2.31061600 0.00000000 3.55904238
Y 2.29100500 4.36686000 -1.1330194399999982 0 0 0
Y 2.37228986 4.36686000 3.55502268
Y 6.87301500 0.00000000 -1.1330194399999982 0 0 0
Y 6.85340400 0.00000000 3.55904238
Y 6.87301500 4.36686000 -1.1330194399999982 0 0 0
Y 6.79173014 4.36686000 3.55502268
In 0.00000000 0.00000000 -3.399058319999998 0 0 0
In 0.00000000 0.00000000 1.09845002
In 0.00000000 4.36686000 -3.399058319999998 0 0 0
In 0.00000000 4.36686000 1.20457010
In 4.58201000 0.00000000 -3.399058319999998 0 0 0
In 4.58201000 0.00000000 1.15284996
In 4.58201000 4.36686000 -3.399058319999998 0 0 0
In 4.58201000 4.36686000 1.07888748
Sn 2.29100500 2.18343000 -3.399058319999998 0 0 0
Sn 2.30566743 2.19399780 1.18313170
Sn 2.29100500 6.55029000 -3.399058319999998 0 0 0
Sn 2.30566743 6.53972220 1.18313170
Sn 6.87301500 2.18343000 -3.399058319999998 0 0 0
Sn 6.85835257 2.19399780 1.18313170
Sn 6.87301500 6.55029000 -3.399058319999998 0 0 0
Sn 6.85835257 6.53972220 1.18339968
Pd 0.00000000 2.18343000 -1.1330194399999982 0 0 0
Pd 0.00000000 2.22081032 3.15894824
Pd 0.00000000 6.55029000 -1.1330194399999982 0 0 0
Pd 0.00000000 6.51290968 3.15894824
Pd 4.58201000 2.18343000 -1.1330194399999982 0 0 0
Pd 4.58201000 2.30587675 3.16698764
Pd 4.58201000 6.55029000 -1.1330194399999982 0 0 0
Pd 4.58201000 6.42784325 3.16698764
C 0.00000000 0.00000000 3.51670154
