&CONTROL
calculation = 'relax'
prefix = 'scf'
pseudo_dir = '/vol0004/mdt0/data/hp150275/u10028/POT_KKJUS'
outdir = './data'
tprnfor = .true.
nstep = 50
disk_io = 'non'
/
&SYSTEM
ibrav = 0
ecutwfc = 50.0
ecutrho = 400
occupations = 'smearing'
smearing = 'mp'
degauss = 0.01
assume_isolated = 'esm'
esm_bc = 'bc1'
input_dft = 'BEEF-VDW'
nosym = .true.
nspin = 1
ntyp = 4
nat = 34
/
&ELECTRONS
electron_maxstep = 200
mixing_beta = 0.1
conv_thr = 1e-06
/
&IONS
ion_dynamics = 'bfgs'
upscale = 1.0
/
&CELL
/

K_POINTS {automatic}
6 6 1 0 0 0

ATOMIC_SPECIES
C 12.01 C.pbe-n-rrkjus_psl.1.0.0.UPF
Nb 92.90 Nb.pbe-spn-rrkjus_psl.1.0.0.UPF
O 15.99 O.pbe-n-rrkjus_psl.1.0.0.UPF
Zn 65.40 Zn.pbe-dnl-rrkjus_psl.1.0.0.UPF

CELL_PARAMETERS {angstrom}
7.89001000 0.00000000 0.00000000
-0.00000000 7.89001000 0.00000000
0.00000000 0.00000000 25.91750000

ATOMIC_POSITIONS {angstrom}
Nb 0.00000000 0.00000000 -2.958741800000002 0 0 0
Nb 0.00000000 0.00000000 0.98616088
Nb 0.00000000 3.94500500 -2.958741800000002 0 0 0
Nb 0.00000000 3.94500500 0.98616088
Nb 3.94500500 0.00000000 -2.958741800000002 0 0 0
Nb 3.94500500 -0.00000000 0.98616088
Nb 3.94500500 3.94500500 -2.958741800000002 0 0 0
Nb 3.94500500 3.94500500 0.98616088
Zn 0.00000000 1.97250250 -0.9861608699999991 0 0 0
Zn 1.97250250 0.00000000 -0.9861608699999991 0 0 0
Zn 1.97250250 1.97250250 -2.958741800000002 0 0 0
Zn 0.00000000 1.97250250 2.95874180
Zn 1.97250250 -0.00000000 2.95874180
Zn 1.97250250 1.97250250 0.98616088
Zn 0.00000000 5.91750750 -0.9861608699999991 0 0 0
Zn 1.97250250 3.94500500 -0.9861608699999991 0 0 0
Zn 1.97250250 5.91750750 -2.958741800000002 0 0 0
Zn 0.00000000 5.91750750 2.95874180
Zn 1.97250250 3.94500500 2.95874180
Zn 1.97250250 5.91750750 0.98616088
Zn 3.94500500 1.97250250 -0.9861608699999991 0 0 0
Zn 5.91750750 0.00000000 -0.9861608699999991 0 0 0
Zn 5.91750750 1.97250250 -2.958741800000002 0 0 0
Zn 3.94500500 1.97250250 2.95874180
Zn 5.91750750 -0.00000000 2.95874180
Zn 5.91750750 1.97250250 0.98616088
Zn 3.94500500 5.91750750 -0.9861608699999991 0 0 0
Zn 5.91750750 3.94500500 -0.9861608699999991 0 0 0
Zn 5.91750750 5.91750750 -2.958741800000002 0 0 0
Zn 3.94500500 5.91750750 2.95874180
Zn 5.91750750 3.94500500 2.95874180
Zn 5.91750750 5.91750750 0.98616088
C 1.97250250 -0.00000000 4.85875372
O 1.97250250 -0.00000000 6.00871320
