&CONTROL
calculation = 'relax'
prefix = 'scf'
pseudo_dir = '/vol0004/mdt0/data/hp150275/u10028/POT_HYBRID_KKJUS_GBRV'
outdir = './data'
tprnfor = .true.
nstep = 50
disk_io = 'non'
/
&SYSTEM
ibrav = 0
ecutwfc = 50.0
ecutrho = 400
occupations = 'smearing'
smearing = 'mp'
degauss = 0.01
assume_isolated = 'esm'
esm_bc = 'bc1'
input_dft = 'BEEF-VDW'
nosym = .true.
nspin = 2
ntyp = 4
nat = 34
starting_magnetization(1) = 0.0
starting_magnetization(2) = 0.1
starting_magnetization(3) = 0.0
starting_magnetization(4) = 0.0
/
&ELECTRONS
electron_maxstep = 200
mixing_beta = 0.1
conv_thr = 1e-06
/
&IONS
ion_dynamics = 'bfgs'
upscale = 1.0
/
&CELL
/

K_POINTS {automatic}
7 7 2 0  0  0

ATOMIC_SPECIES
C 12.01 C.pbe-n-rrkjus_psl.1.0.0.UPF
Mn 54.93 mn_pbe_v1.5.uspp.F.UPF
O 15.99 O.pbe-n-rrkjus_psl.1.0.0.UPF
Pt 195.0 Pt.pbe-n-rrkjus_psl.1.0.0.UPF

CELL_PARAMETERS {angstrom}
8.81047000 0.00000000 0.00000000
0.00000000 8.81047000 0.00000000
0.00000000 0.00000000 26.60790000

ATOMIC_POSITIONS {angstrom}
Mn 0.00872237 2.20270560 0.59814559
Mn 2.20261750 0.00881047 0.59841167
Mn 2.20182456 2.20288181 2.41892419
Mn 0.00000000 2.20261750 23.30399706
Mn 2.20261750 0.00000000 23.30399706
Mn 2.20261750 2.20261750 25.50659902
Mn 0.00995583 6.60767629 0.59096146
Mn 2.20270560 4.39651263 0.59841167
Mn 2.20270560 6.60776440 2.40455592
Mn 0.00000000 6.60785250 23.30399706
Mn 2.20261750 4.40523500 23.30399706
Mn 2.20261750 6.60785250 25.50659902
Mn 4.39633643 2.20279371 0.59867775
Mn 6.60785250 0.00995583 0.59069538
Mn 6.60811681 2.20252940 2.40428984
Mn 4.40523500 2.20261750 23.30399706
Mn 6.60785250 0.00000000 23.30399706
Mn 6.60785250 2.20261750 25.50659902
Mn 4.39527917 6.60767629 0.59069538
Mn 6.60794060 4.39527917 0.59096146
Mn 6.60758819 6.60794060 2.15683637
Mn 4.40523500 6.60785250 23.30399706
Mn 6.60785250 4.40523500 23.30399706
Mn 6.60785250 6.60785250 25.50659902
Pt 8.80465509 8.80491940 2.08233425
Pt 0.00000000 0.00000000 25.50659902
Pt 8.80483130 4.41069749 2.08180210
Pt 0.00000000 4.40523500 25.50659902
Pt 4.41122612 8.80439078 2.08260033
Pt 4.40523500 0.00000000 25.50659902
Pt 4.41113801 4.41122612 2.08206817
Pt 4.40523500 4.40523500 25.50659902
C 2.20208887 2.20270560 4.51030513
O 2.20244129 2.20261750 5.65364659
