&CONTROL
calculation = 'relax'
prefix = 'scf'
pseudo_dir = '/vol0004/mdt0/data/hp150275/u10028/POT_KKJUS'
outdir = './data'
tprnfor = .true.
nstep = 50
disk_io = 'non'
/
&SYSTEM
ibrav = 0
ecutwfc = 50.0
ecutrho = 400
occupations = 'smearing'
smearing = 'mp'
degauss = 0.01
assume_isolated = 'esm'
esm_bc = 'bc1'
input_dft = 'BEEF-VDW'
nosym = .true.
nspin = 1
ntyp = 4
nat = 18
/
&ELECTRONS
electron_maxstep = 200
mixing_beta = 0.1
conv_thr = 1e-06
/
&IONS
ion_dynamics = 'bfgs'
upscale = 1.0
/
&CELL
/

K_POINTS {automatic}
9 9 2 0  0  0

ATOMIC_SPECIES
C 12.01 C.pbe-n-rrkjus_psl.1.0.0.UPF
Cu 63.54 Cu.pbe-dn-rrkjus_psl.1.0.0.UPF
O 15.99 O.pbe-n-rrkjus_psl.1.0.0.UPF
Sb 121.7 Sb.pbe-n-rrkjus_psl.1.0.0.UPF

CELL_PARAMETERS {angstrom}
6.30953000 0.00000000 0.00000000
0.00000000 6.30953000 0.00000000
0.00000000 0.00000000 24.73210000

ATOMIC_POSITIONS {angstrom}
Cu 1.57738250 1.57738250 -0.7887066699999998 0 0 0
Cu 4.73845703 4.73845703 2.02555899
Cu 4.73214750 1.57738250 -0.7887066699999998 0 0 0
Cu 1.57246107 4.73965584 2.13635880
Cu 4.73214750 4.73214750 -0.7887066699999998 0 0 0
Cu 1.55574081 1.55593010 2.51599653
Cu 1.57738250 4.73214750 -0.7887066699999998 0 0 0
Cu 4.73984513 1.57246107 2.13635880
Cu 0.05482982 0.05482982 0.71302644
Cu 3.15476500 0.00000000 -2.3661200099999995 0 0 0
Cu 0.00000000 3.15476500 -2.3661200099999995 0 0 0
Cu 3.09930423 3.09930423 0.72712374
Sb 0.00000000 0.00000000 -2.3661200099999995 0 0 0
Sb 3.15476500 3.15476500 -2.3661200099999995 0 0 0
Sb 3.09722209 0.06031911 0.92300197
Sb 0.06025601 3.09728518 0.92275465
C 1.56735035 1.56735035 4.37609777
O 1.56703487 1.56697178 5.52366721
