&CONTROL
calculation = 'relax'
prefix = 'scf'
pseudo_dir = '/vol0004/mdt0/data/hp150275/u10028/POT_HYBRID_KKJUS_GBRV'
outdir = './data'
tprnfor = .true.
nstep = 50
disk_io = 'non'
/
&SYSTEM
ibrav = 0
ecutwfc = 50.0
ecutrho = 400
occupations = 'smearing'
smearing = 'mp'
degauss = 0.01
assume_isolated = 'esm'
esm_bc = 'bc1'
input_dft = 'BEEF-VDW'
nosym = .true.
nspin = 2
ntyp = 4
nat = 33
starting_magnetization(1) = 0.0
starting_magnetization(2) = 0.0
starting_magnetization(3) = 0.1
starting_magnetization(4) = 0.0
/
&ELECTRONS
electron_maxstep = 200
mixing_beta = 0.1
conv_thr = 1e-06
/
&IONS
ion_dynamics = 'bfgs'
upscale = 1.0
/
&CELL
/

K_POINTS {automatic}
9 6 2 0  0  0

ATOMIC_SPECIES
C 12.01 C.pbe-n-rrkjus_psl.1.0.0.UPF
Ga 69.72 Ga.pbe-dnl-rrkjus_psl.1.0.0.UPF
Mn 54.93 mn_pbe_v1.5.uspp.F.UPF
V 50.94 V.pbe-spnl-rrkjus_psl.1.0.0.UPF

CELL_PARAMETERS {angstrom}
5.83886000 0.00000000 0.00000000
0.00000000 8.25739000 0.00000000
0.00000000 0.00000000 26.19300000

ATOMIC_POSITIONS {angstrom}
Mn 1.45971500 0.00000000 25.16073387
Mn 4.37914500 4.12869500 25.16073387
Mn 4.37914500 0.00000000 25.16073387
Mn 1.45971500 4.12869500 25.16073387
Mn 4.37914500 6.19304250 23.09646354
Mn 1.45971500 2.06434750 23.09646354
Mn 1.45971500 6.19304250 23.09646354
Mn 4.37914500 2.06434750 23.09646354
Mn 1.35870272 4.02225724 3.12927771
Mn 4.46573529 8.21139634 3.03969765
Mn 4.46614401 4.17460609 3.03969765
Mn 1.35887789 0.10652033 3.12901578
Mn 4.42328678 2.06434750 1.06710282
Mn 1.47209338 6.19312507 1.13468076
Mn 1.27754257 2.06434750 1.32065106
Mn 4.36740889 6.19312507 1.08124704
V 0.00000000 0.00000000 23.09646354
V 2.91943000 2.06434750 25.16073387
V 2.91943000 6.19304250 25.16073387
V 0.00000000 4.12869500 23.09646354
V 5.83360503 4.17311976 1.00712085
V 2.92264137 6.19304250 3.06327135
V 3.32055968 2.06443007 3.10937103
V 5.83366341 8.21296524 1.00712085
Ga 0.00000000 6.19304250 25.16073387
Ga 2.91943000 0.00000000 23.09646354
Ga 0.00000000 2.06434750 25.16073387
Ga 2.91943000 4.12869500 23.09646354
Ga 5.51585426 2.06401720 4.11911118
Ga 2.88766660 4.08113243 1.05505404
Ga 0.03555866 6.19320765 3.36841980
Ga 2.88766660 0.04756257 1.05505404
C 1.47553831 2.06443007 3.41635299
