&CONTROL
calculation = 'relax'
prefix = 'scf'
pseudo_dir = '/vol0004/mdt0/data/hp150275/u10028/POT_KKJUS'
outdir = './data'
tprnfor = .true.
nstep = 50
disk_io = 'non'
/
&SYSTEM
ibrav = 0
ecutwfc = 50.0
ecutrho = 400
occupations = 'smearing'
smearing = 'mp'
degauss = 0.01
assume_isolated = 'esm'
esm_bc = 'bc1'
input_dft = 'BEEF-VDW'
nosym = .true.
nspin = 1
ntyp = 3
nat = 17
/
&ELECTRONS
electron_maxstep = 200
mixing_beta = 0.1
conv_thr = 1e-06
/
&IONS
ion_dynamics = 'bfgs'
upscale = 1.0
/
&CELL
/

K_POINTS {automatic}
8 11 2 0  0  0

ATOMIC_SPECIES
C 12.01 C.pbe-n-rrkjus_psl.1.0.0.UPF
Pt 195.0 Pt.pbe-n-rrkjus_psl.1.0.0.UPF
Sn 118.7 Sn.pbe-dn-rrkjus_psl.1.0.0.UPF

CELL_PARAMETERS {angstrom}
8.18271000 0.00000000 0.00000000
0.00000000 5.78605000 0.00000000
0.00000000 0.00000000 24.33950000

ATOMIC_POSITIONS {angstrom}
Sn 0.00000000 0.00000000 -2.1698664200000017 0 0 0
Sn 0.00000000 2.89302500 0.62576855
Sn 4.09135500 0.00000000 -2.1698664200000017 0 0 0
Sn 4.09127317 2.89302500 2.02869732
Pt 0.00000000 2.89302500 -2.1698664200000017 0 0 0
Pt 2.04567750 4.33953750 -0.7233699400000013 0 0 0
Pt 2.04567750 1.44651250 -0.7233699400000013 0 0 0
Pt 0.00000000 0.00005786 0.54593499
Pt 1.64644308 1.40849815 2.27282251
Pt 1.64668856 4.37760971 2.27257912
Pt 4.09135500 2.89302500 -2.1698664200000017 0 0 0
Pt 6.13703250 4.33953750 -0.7233699400000013 0 0 0
Pt 6.13703250 1.44651250 -0.7233699400000013 0 0 0
Pt 4.09135500 5.78581856 0.85602022
Pt 6.53577596 1.40849815 2.27233572
Pt 6.53610327 4.37766757 2.27257912
C 8.18262817 0.00000000 2.60481329
