&CONTROL
calculation = 'relax'
prefix = 'scf'
pseudo_dir = '/vol0004/mdt0/data/hp150275/u10028/POT_HYBRID_KKJUS_GBRV'
outdir = './data'
tprnfor = .true.
nstep = 50
disk_io = 'non'
/
&SYSTEM
ibrav = 0
ecutwfc = 50.0
ecutrho = 400
occupations = 'smearing'
smearing = 'mp'
degauss = 0.01
assume_isolated = 'esm'
esm_bc = 'bc1'
input_dft = 'BEEF-VDW'
nosym = .true.
nspin = 2
ntyp = 3
nat = 33
starting_magnetization(1) = 0.1
starting_magnetization(2) = 0.1
starting_magnetization(3) = 0.1
/
&ELECTRONS
electron_maxstep = 200
mixing_beta = 0.1
conv_thr = 1e-06
/
&IONS
ion_dynamics = 'bfgs'
upscale = 1.0
/
&CELL
/

K_POINTS {automatic}
9 6 2 0  0  0

ATOMIC_SPECIES
C 12.01 C.pbe-n-rrkjus_psl.1.0.0.UPF
Mn 54.93 mn_pbe_v1.5.uspp.F.UPF
Rh 102.9 Rh.pbe-spn-rrkjus_psl.1.0.0.UPF

CELL_PARAMETERS {angstrom}
6.11529000 0.00000000 0.00000000
0.00000000 8.64833000 0.00000000
0.00000000 0.00000000 26.48620000

ATOMIC_POSITIONS {angstrom}
Mn 0.00000000 0.00000000 -3.24323519 0 0 0
Mn 0.00000000 2.16208250 -1.081166679999999 0 0 0
Mn 0.00048922 8.63726014 1.07745862
Mn 5.86596963 2.16208250 3.30680207
Mn 0.00000000 4.32416500 -3.24323519 0 0 0
Mn 0.00000000 6.48624750 -1.081166679999999 0 0 0
Mn 0.00048922 4.33523486 1.07745862
Mn 0.05583260 6.48616102 3.33116937
Mn 3.05764500 0.00000000 -3.24323519 0 0 0
Mn 3.05764500 2.16208250 -1.081166679999999 0 0 0
Mn 3.05672771 8.63726014 1.07745862
Mn 3.30458041 2.16208250 3.30786152
Mn 3.05764500 4.32416500 -3.24323519 0 0 0
Mn 3.05764500 6.48624750 -1.081166679999999 0 0 0
Mn 3.05672771 4.33523486 1.07745862
Mn 3.00022243 6.48616102 3.33116937
Rh 1.52882250 2.16208250 -3.24323519 0 0 0
Rh 1.52882250 0.00000000 -1.081166679999999 0 0 0
Rh 1.52876135 2.16208250 1.08222613
Rh 1.52814982 0.15091336 3.15874421
Rh 1.52882250 6.48624750 -3.24323519 0 0 0
Rh 1.52882250 4.32416500 -1.081166679999999 0 0 0
Rh 1.52870019 6.48624750 1.11930681
Rh 1.52814982 4.17325164 3.15874421
Rh 4.58646750 2.16208250 -3.24323519 0 0 0
Rh 4.58646750 0.00000000 -1.081166679999999 0 0 0
Rh 4.58610058 2.16208250 1.04117252
Rh 4.58591712 8.61269888 3.12245812
Rh 4.58646750 6.48624750 -3.24323519 0 0 0
Rh 4.58646750 4.32416500 -1.081166679999999 0 0 0
Rh 4.58634519 6.48624750 1.09388006
Rh 4.58591712 4.35988260 3.12245812
C 1.52692676 2.16208250 3.73932172
