&CONTROL
calculation = 'relax'
prefix = 'scf'
pseudo_dir = '/vol0004/mdt0/data/hp150275/u10028/POT_KKJUS'
outdir = './data'
tprnfor = .true.
nstep = 50
disk_io = 'non'
/
&SYSTEM
ibrav = 0
ecutwfc = 50.0
ecutrho = 400
occupations = 'smearing'
smearing = 'mp'
degauss = 0.01
assume_isolated = 'esm'
esm_bc = 'bc1'
input_dft = 'BEEF-VDW'
nosym = .true.
nspin = 1
ntyp = 2
nat = 32
/
&ELECTRONS
electron_maxstep = 200
mixing_beta = 0.1
conv_thr = 1e-06
/
&IONS
ion_dynamics = 'bfgs'
upscale = 1.0
/
&CELL
/

K_POINTS {automatic}
8 6 1 0 0 0

ATOMIC_SPECIES
Ir 192.2 Ir.pbe-n-rrkjus_psl.0.2.3.UPF
Zr 91.22 Zr.pbe-spn-rrkjus_psl.1.0.0.UPF

CELL_PARAMETERS {angstrom}
6.65024000 0.00000000 0.00000000
0.00000000 9.40485000 0.00000000
0.00000000 0.00000000 27.05360000

ATOMIC_POSITIONS {angstrom}
Zr 1.66256000 2.35121250 -3.526707299999998 0 0 0
Zr 1.66256000 0.00000000 -1.1754789199999998 0 0 0
Zr 1.66262650 2.35121250 1.16952713
Zr 1.66256000 0.00000000 3.52697783
Zr 1.66256000 7.05363750 -3.526707299999998 0 0 0
Zr 1.66256000 4.70242500 -1.1754789199999998 0 0 0
Zr 1.66256000 7.05363750 1.16952713
Zr 1.66256000 4.70242500 3.52697783
Zr 4.98768000 2.35121250 -3.526707299999998 0 0 0
Zr 4.98768000 0.00000000 -1.1754789199999998 0 0 0
Zr 4.98761350 2.35121250 1.16952713
Zr 4.98768000 0.00000000 3.52697783
Zr 4.98768000 7.05363750 -3.526707299999998 0 0 0
Zr 4.98768000 4.70242500 -1.1754789199999998 0 0 0
Zr 4.98761350 7.05363750 1.16952713
Zr 4.98768000 4.70242500 3.52697783
Ir 0.00000000 0.00000000 -3.526707299999998 0 0 0
Ir 0.00000000 2.35121250 -1.1754789199999998 0 0 0
Ir 0.00000000 0.00000000 1.19225215
Ir 0.00000000 2.35121250 3.28890615
Ir 0.00000000 4.70242500 -3.526707299999998 0 0 0
Ir 0.00000000 7.05363750 -1.1754789199999998 0 0 0
Ir 0.00000000 4.70242500 1.19225215
Ir 0.00000000 7.05363750 3.28890615
Ir 3.32512000 0.00000000 -3.526707299999998 0 0 0
Ir 3.32512000 2.35121250 -1.1754789199999998 0 0 0
Ir 3.32512000 0.00000000 1.19252269
Ir 3.32512000 2.35121250 3.28890615
Ir 3.32512000 4.70242500 -3.526707299999998 0 0 0
Ir 3.32512000 7.05363750 -1.1754789199999998 0 0 0
Ir 3.32512000 4.70242500 1.19252269
Ir 3.32512000 7.05363750 3.28890615
