&CONTROL
calculation = 'relax'
prefix = 'scf'
pseudo_dir = '/vol0004/mdt0/data/hp150275/u10028/POT_KKJUS'
outdir = './data'
tprnfor = .true.
nstep = 50
disk_io = 'non'
/
&SYSTEM
ibrav = 0
ecutwfc = 50.0
ecutrho = 400
occupations = 'smearing'
smearing = 'mp'
degauss = 0.01
assume_isolated = 'esm'
esm_bc = 'bc1'
input_dft = 'BEEF-VDW'
nosym = .true.
nspin = 1
ntyp = 3
nat = 33
/
&ELECTRONS
electron_maxstep = 200
mixing_beta = 0.1
conv_thr = 1e-06
/
&IONS
ion_dynamics = 'bfgs'
upscale = 1.0
/
&CELL
/

K_POINTS {automatic}
8 6 1 0 0 0

ATOMIC_SPECIES
C 12.01 C.pbe-n-rrkjus_psl.1.0.0.UPF
Zn 65.40 Zn.pbe-dnl-rrkjus_psl.1.0.0.UPF
Zr 91.22 Zr.pbe-spn-rrkjus_psl.1.0.0.UPF

CELL_PARAMETERS {angstrom}
6.67495000 0.00000000 0.00000000
0.00000000 9.43980000 0.00000000
0.00000000 0.00000000 27.07990000

ATOMIC_POSITIONS {angstrom}
Zr 1.66873750 2.35995000 -3.5398845299999984 0 0 0
Zr 1.66873750 4.71990000 -1.179871239999997 0 0 0
Zr 1.66987224 2.35985560 1.32718590
Zr 1.67207497 0.20625963 3.67853362
Zr 1.66873750 7.07985000 -3.5398845299999984 0 0 0
Zr 1.66873750 0.00000000 -1.179871239999997 0 0 0
Zr 1.66867075 7.07994440 1.25163298
Zr 1.67207497 4.51382917 3.67826282
Zr 5.00621250 2.35995000 -3.5398845299999984 0 0 0
Zr 5.00621250 4.71990000 -1.179871239999997 0 0 0
Zr 5.00674650 2.35995000 1.12706544
Zr 5.00714699 9.19559237 3.38309191
Zr 5.00621250 7.07985000 -3.5398845299999984 0 0 0
Zr 5.00621250 0.00000000 -1.179871239999997 0 0 0
Zr 5.00627925 7.07985000 1.12571144
Zr 5.00714699 4.96401323 3.38309191
Zn 0.00000000 0.00000000 -3.5398845299999984 0 0 0
Zn 0.00000000 2.35995000 -1.179871239999997 0 0 0
Zn 0.05760482 0.00009440 1.19503599
Zn 6.29414410 2.35985560 3.74027579
Zn 0.00000000 4.71990000 -3.5398845299999984 0 0 0
Zn 0.00000000 7.07985000 -1.179871239999997 0 0 0
Zn 0.05767157 4.71980560 1.19503599
Zn 0.18923483 7.07985000 3.71346669
Zn 3.33747500 0.00000000 -3.5398845299999984 0 0 0
Zn 3.33747500 2.35995000 -1.179871239999997 0 0 0
Zn 3.27953643 9.43942241 1.19449439
Zn 3.72849357 2.35985560 3.74379617
Zn 3.33747500 4.71990000 -3.5398845299999984 0 0 0
Zn 3.33747500 7.07985000 -1.179871239999997 0 0 0
Zn 3.27946968 4.72027759 1.19449439
Zn 3.15024265 7.07985000 3.71482068
C 1.67454471 2.36004440 3.71915347
