&CONTROL
calculation = 'relax'
prefix = 'scf'
pseudo_dir = '/vol0004/mdt0/data/hp150275/u10028/POT_KKJUS'
outdir = './data'
tprnfor = .true.
nstep = 50
disk_io = 'non'
/
&SYSTEM
ibrav = 0
ecutwfc = 50.0
ecutrho = 400
occupations = 'smearing'
smearing = 'mp'
degauss = 0.01
assume_isolated = 'esm'
esm_bc = 'bc1'
input_dft = 'BEEF-VDW'
nosym = .true.
nspin = 1
ntyp = 2
nat = 33
/
&ELECTRONS
electron_maxstep = 200
mixing_beta = 0.1
conv_thr = 1e-06
/
&IONS
ion_dynamics = 'bfgs'
upscale = 1.0
/
&CELL
/

K_POINTS {automatic}
6 6 1 0 0 0

ATOMIC_SPECIES
C 12.01 C.pbe-n-rrkjus_psl.1.0.0.UPF
Sc 44.95 Sc.pbe-spn-rrkjus_psl.1.0.0.UPF

CELL_PARAMETERS {angstrom}
9.21507000 0.00000000 0.00000000
0.00000000 9.21507000 0.00000000
0.00000000 0.00000000 26.91130000

ATOMIC_POSITIONS {angstrom}
Sc 0.00000000 0.00000000 -3.45568003 0 0 0
Sc 2.30376750 2.30376750 -3.45568003 0 0 0
Sc 2.30376750 0.00000000 -1.1518036400000007 0 0 0
Sc 0.00000000 2.30376750 -1.1518036400000007 0 0 0
Sc 0.00027645 9.21497785 1.23253754
Sc 2.35371318 2.35316028 1.17925317
Sc 2.22046327 0.00000000 3.47128859
Sc 0.00009215 2.22037112 3.47128859
Sc 0.00000000 4.60753500 -3.45568003 0 0 0
Sc 2.30376750 6.91130250 -3.45568003 0 0 0
Sc 2.30376750 4.60753500 -1.1518036400000007 0 0 0
Sc 0.00000000 6.91130250 -1.1518036400000007 0 0 0
Sc 9.21488570 4.60735070 1.22984641
Sc 2.35362103 6.86172542 1.17952228
Sc 2.34680188 4.60753500 3.34857306
Sc 0.00000000 6.99469888 3.47128859
Sc 4.60753500 0.00000000 -3.45568003 0 0 0
Sc 6.91130250 2.30376750 -3.45568003 0 0 0
Sc 6.91130250 0.00000000 -1.1518036400000007 0 0 0
Sc 4.60753500 2.30376750 -1.1518036400000007 0 0 0
Sc 4.60762715 0.00009215 1.23038464
Sc 6.86154112 2.35325243 1.17925317
Sc 6.99460673 9.21497785 3.47128859
Sc 4.60753500 2.34717048 3.34884217
Sc 4.60753500 4.60753500 -3.45568003 0 0 0
Sc 6.91130250 6.91130250 -3.45568003 0 0 0
Sc 6.91130250 4.60753500 -1.1518036400000007 0 0 0
Sc 4.60753500 6.91130250 -1.1518036400000007 0 0 0
Sc 4.60661349 4.60827221 1.20024398
Sc 6.86144897 6.86181757 1.17925317
Sc 6.86836027 4.60753500 3.34857306
Sc 4.60762715 6.86780737 3.34857306
C 0.00000000 0.00000000 3.41585131
