&CONTROL
calculation = 'relax'
prefix = 'scf'
pseudo_dir = '/vol0403/data/hp230205/u10028/POT_HYBRID_KKJUS_GBRV'
outdir = './data'
tprnfor = .true.
nstep = 50
disk_io = 'non'
/
&SYSTEM
ibrav = 0
ecutwfc = 50.0
ecutrho = 400
occupations = 'smearing'
smearing = 'mp'
degauss = 0.01
assume_isolated = 'esm'
esm_bc = 'bc1'
input_dft = 'BEEF-VDW'
nosym = .true.
nspin = 1
ntyp = 6
nat = 18
/
&ELECTRONS
electron_maxstep = 200
mixing_beta = 0.1
conv_thr = 1e-06
/
&IONS
ion_dynamics = 'bfgs'
upscale = 1.0
/
&CELL
/

K_POINTS {automatic}
6 6 1 0 0 0

ATOMIC_SPECIES
Al 26.98 Al.pbe-nl-rrkjus_psl.1.0.0.UPF
C 12.01 C.pbe-n-rrkjus_psl.1.0.0.UPF
Ge 72.64 Ge.pbe-dn-rrkjus_psl.1.0.0.UPF
Li 6.941 Li.pbe-sl-rrkjus_psl.1.0.0.UPF
O 15.99 O.pbe-n-rrkjus_psl.1.0.0.UPF
Pd 106.4 Pd.pbe-n-rrkjus_psl.1.0.0.UPF


CELL_PARAMETERS {angstrom}
5.46300000 0.00000000 0.00000000
0.00000000 8.09626000 0.00000000
0.00000000 0.00000000 24.08560000

ATOMIC_POSITIONS {angstrom}
Li 3.99449097 2.02406500 -0.6808999100000008 0 0 0
Li 1.15241985 2.02406500 2.28837286
Li 3.99449097 6.07219500 -0.6808999100000008 0 0 0
Li 1.15864767 6.07219500 2.19106703
Al 0.00000000 0.00000000 -2.0426997399999998 0 0 0
Al 2.59727409 8.09350727 0.66885711
Al 0.00000000 4.04813000 -2.0426997399999998 0 0 0
Al 2.59727409 4.05088273 0.66885711
Ge 1.26299097 2.02406500 -0.6808999100000008 0 0 0
Ge 3.92565717 2.02398404 1.97236978
Ge 1.26299097 6.07219500 -0.6808999100000008 0 0 0
Ge 3.93150258 6.07227596 1.99501025
Pd 2.73150000 0.00000000 -2.0426997399999998 0 0 0
Pd 5.31211194 0.00307658 0.74737617
Pd 2.73150000 4.04813000 -2.0426997399999998 0 0 0
Pd 5.31211194 4.04513438 0.74737617
C 1.06457481 2.02414596 4.41103678
O 1.01158371 2.02414596 5.54859967
