&CONTROL
calculation = 'relax'
prefix = 'scf'
pseudo_dir = '/vol0004/mdt0/data/hp150275/u10028/POT_KKJUS'
outdir = './data'
tprnfor = .true.
nstep = 50
disk_io = 'non'
/
&SYSTEM
ibrav = 0
ecutwfc = 50.0
ecutrho = 400
occupations = 'smearing'
smearing = 'mp'
degauss = 0.01
assume_isolated = 'esm'
esm_bc = 'bc1'
input_dft = 'BEEF-VDW'
nosym = .true.
nspin = 1
ntyp = 4
nat = 33
/
&ELECTRONS
electron_maxstep = 200
mixing_beta = 0.1
conv_thr = 1e-06
/
&IONS
ion_dynamics = 'bfgs'
upscale = 1.0
/
&CELL
/

K_POINTS {automatic}
9 6 2 0  0  0

ATOMIC_SPECIES
C 12.01 C.pbe-n-rrkjus_psl.1.0.0.UPF
Ga 69.72 Ga.pbe-dnl-rrkjus_psl.1.0.0.UPF
Ni 58.69 Ni.pbe-spn-rrkjus_psl.1.0.0.UPF
Ti 47.86 Ti.pbe-spn-rrkjus_psl.1.0.0.UPF

CELL_PARAMETERS {angstrom}
5.94410000 0.00000000 0.00000000
0.00000000 8.40623000 0.00000000
0.00000000 0.00000000 26.30470000

ATOMIC_POSITIONS {angstrom}
Ti 0.00000000 0.00000000 -3.1523552499999994 0 0 0
Ti 2.97205000 2.10155750 -1.0508727700000016 0 0 0
Ti 2.97205000 6.30467250 -1.0508727700000016 0 0 0
Ti 0.00000000 4.20311500 -3.1523552499999994 0 0 0
Ti 0.00000000 4.20303094 1.05087277
Ti 2.97205000 6.41109537 3.21838004
Ti 2.97205000 1.99513463 3.21811700
Ti 0.00000000 8.40614594 1.03219643
Ga 0.00000000 6.30467250 -1.0508727700000016 0 0 0
Ga 2.97205000 0.00000000 -3.1523552499999994 0 0 0
Ga 0.00000000 2.10155750 -1.0508727700000016 0 0 0
Ga 2.97205000 4.20311500 -3.1523552499999994 0 0 0
Ga 0.00000000 2.15174269 3.15682705
Ga 2.97205000 4.20328312 1.07191653
Ga 0.00000000 6.25448731 3.15630095
Ga 2.97205000 8.40589375 1.07296871
Ni 1.48602500 0.00000000 -1.0508727700000016 0 0 0
Ni 4.45807500 4.20311500 -1.0508727700000016 0 0 0
Ni 4.45807500 0.00000000 -1.0508727700000016 0 0 0
Ni 1.48602500 4.20311500 -1.0508727700000016 0 0 0
Ni 4.45807500 6.30467250 -3.1523552499999994 0 0 0
Ni 1.48602500 2.10155750 -3.1523552499999994 0 0 0
Ni 1.48602500 6.30467250 -3.1523552499999994 0 0 0
Ni 4.45807500 2.10155750 -3.1523552499999994 0 0 0
Ni 1.43448965 4.20311500 3.02846011
Ni 4.72728329 0.00000000 3.11473953
Ni 4.50961035 4.20311500 3.02846011
Ni 1.21687615 0.00000000 3.11473953
Ni 4.38068282 2.10542437 1.06034246
Ni 1.56359550 6.30072157 1.06034246
Ni 1.56341718 2.10542437 1.06034246
Ni 4.38044505 6.30072157 1.06034246
C 2.97205000 0.00000000 3.73605654
