&CONTROL
calculation = 'relax'
prefix = 'scf'
pseudo_dir = '/vol0004/mdt0/data/hp150275/u10028/POT_KKJUS'
outdir = './data'
tprnfor = .true.
nstep = 50
disk_io = 'non'
/
&SYSTEM
ibrav = 0
ecutwfc = 50.0
ecutrho = 400
occupations = 'smearing'
smearing = 'mp'
degauss = 0.01
assume_isolated = 'esm'
esm_bc = 'bc1'
input_dft = 'BEEF-VDW'
nosym = .true.
nspin = 1
ntyp = 5
nat = 34
/
&ELECTRONS
electron_maxstep = 200
mixing_beta = 0.1
conv_thr = 1e-06
/
&IONS
ion_dynamics = 'bfgs'
upscale = 1.0
/
&CELL
/

K_POINTS {automatic}
8 6 1 0 0 0

ATOMIC_SPECIES
C 12.01 C.pbe-n-rrkjus_psl.1.0.0.UPF
Ge 72.64 Ge.pbe-dn-rrkjus_psl.1.0.0.UPF
Li 6.941 Li.pbe-sl-rrkjus_psl.1.0.0.UPF
O 15.99 O.pbe-n-rrkjus_psl.1.0.0.UPF
Rh 102.9 Rh.pbe-spn-rrkjus_psl.1.0.0.UPF

CELL_PARAMETERS {angstrom}
5.94410000 0.00000000 0.00000000
0.00000000 8.40623000 0.00000000
0.00000000 0.00000000 26.30470000

ATOMIC_POSITIONS {angstrom}
Li 0.00000000 0.00000000 -3.1523552499999994 0 0 0
Li 2.97205000 2.10155750 -1.0508727700000016 0 0 0
Li 2.97205000 6.30467250 -1.0508727700000016 0 0 0
Li 0.00000000 4.20311500 -3.1523552499999994 0 0 0
Li 0.00095106 4.20319906 1.01641361
Li 2.95112677 6.28163943 3.70501700
Li 2.95100789 2.12459057 3.70475395
Li 5.94160348 8.40614594 1.04087698
Ge 0.00000000 6.30467250 -1.0508727700000016 0 0 0
Ge 2.97205000 0.00000000 -3.1523552499999994 0 0 0
Ge 0.00000000 2.10155750 -1.0508727700000016 0 0 0
Ge 2.97205000 4.20311500 -3.1523552499999994 0 0 0
Ge 5.93054745 2.12652400 3.11631781
Ge 2.95837857 4.20319906 1.02377892
Ge 5.93054745 6.27979006 3.11605476
Ge 2.97900460 8.40614594 1.06770777
Rh 1.48602500 0.00000000 -1.0508727700000016 0 0 0
Rh 4.45807500 4.20311500 -1.0508727700000016 0 0 0
Rh 4.45807500 0.00000000 -1.0508727700000016 0 0 0
Rh 1.48602500 4.20311500 -1.0508727700000016 0 0 0
Rh 4.45807500 6.30467250 -3.1523552499999994 0 0 0
Rh 1.48602500 2.10155750 -3.1523552499999994 0 0 0
Rh 1.48602500 6.30467250 -3.1523552499999994 0 0 0
Rh 4.45807500 2.10155750 -3.1523552499999994 0 0 0
Rh 1.45012264 4.20311500 3.01136206
Rh 4.51555445 0.00000000 3.07186287
Rh 4.46847718 4.20311500 3.01977956
Rh 1.50706711 0.00008406 3.26993726
Rh 4.43019717 2.09012503 1.04219221
Rh 1.49868593 6.34367741 1.05455542
Rh 1.49874537 2.06246853 1.05429238
Rh 4.43025661 6.31602091 1.04219221
C 1.87417473 0.00000000 5.09890305
O 2.06848736 0.00000000 6.24762930
