&CONTROL
calculation = 'relax'
prefix = 'scf'
pseudo_dir = '/vol0004/mdt0/data/hp150275/u10028/POT_KKJUS'
outdir = './data'
tprnfor = .true.
nstep = 50
disk_io = 'non'
/
&SYSTEM
ibrav = 0
ecutwfc = 50.0
ecutrho = 400
occupations = 'smearing'
smearing = 'mp'
degauss = 0.01
assume_isolated = 'esm'
esm_bc = 'bc1'
input_dft = 'BEEF-VDW'
nosym = .true.
nspin = 1
ntyp = 2
nat = 16
/
&ELECTRONS
electron_maxstep = 200
mixing_beta = 0.1
conv_thr = 1e-06
/
&IONS
ion_dynamics = 'bfgs'
upscale = 1.0
/
&CELL
/

K_POINTS {automatic}
6 8 1 0 0 0

ATOMIC_SPECIES
In 114.8 In.pbe-dn-rrkjus_psl.1.0.0.UPF
Sc 44.95 Sc.pbe-spn-rrkjus_psl.1.0.0.UPF

CELL_PARAMETERS {angstrom}
9.13703000 0.00000000 0.00000000
0.00000000 6.46086000 0.00000000
0.00000000 0.00000000 24.84560000

ATOMIC_POSITIONS {angstrom}
Sc 0.00000000 0.00000000 2.17895912
Sc 0.00000000 3.23043000 -0.8074820000000003 0 0 0
Sc 4.56833226 0.00012922 2.17970449
Sc 4.56851500 3.23043000 -0.8074820000000003 0 0 0
In 0.00009137 3.23055922 2.74494189
In 2.28398339 4.77961501 0.96550002
In 2.28389202 1.68124499 0.96525156
In 0.00000000 0.00000000 -0.8074820000000003 0 0 0
In 2.28425750 1.61521500 -2.4226944600000024 0 0 0
In 2.28425750 4.84564500 -2.4226944600000024 0 0 0
In 4.56842363 3.23049461 2.74519034
In 6.85295524 4.77961501 0.96550002
In 6.85313798 1.68137421 0.96525156
In 4.56851500 0.00000000 -0.8074820000000003 0 0 0
In 6.85277250 1.61521500 -2.4226944600000024 0 0 0
In 6.85277250 4.84564500 -2.4226944600000024 0 0 0
