&CONTROL
calculation = 'relax'
prefix = 'scf'
pseudo_dir = '/vol0403/data/hp230205/u10028/POT_HYBRID_KKJUS_GBRV'
outdir = './data'
tprnfor = .true.
nstep = 50
disk_io = 'non'
/
&SYSTEM
ibrav = 0
ecutwfc = 50.0
ecutrho = 400
occupations = 'smearing'
smearing = 'mp'
degauss = 0.01
assume_isolated = 'esm'
esm_bc = 'bc1'
input_dft = 'BEEF-VDW'
nosym = .true.
nspin = 1
ntyp = 5
nat = 33
/
&ELECTRONS
electron_maxstep = 200
mixing_beta = 0.1
conv_thr = 1e-06
/
&IONS
ion_dynamics = 'bfgs'
upscale = 1.0
/
&CELL
/

K_POINTS {automatic}
7 7 2 0  0  0

ATOMIC_SPECIES
C 12.01 C.pbe-n-rrkjus_psl.1.0.0.UPF
Ga 69.72 Ga.pbe-dnl-rrkjus_psl.1.0.0.UPF
Ge 72.64 Ge.pbe-dn-rrkjus_psl.1.0.0.UPF
Pd 106.4 Pd.pbe-n-rrkjus_psl.1.0.0.UPF
Sc 44.95 Sc.pbe-spn-rrkjus_psl.1.0.0.UPF


CELL_PARAMETERS {angstrom}
7.83718000 0.00000000 0.00000000
0.00000000 8.08666000 0.00000000
0.00000000 0.00000000 26.43810000

ATOMIC_POSITIONS {angstrom}
Sc 0.00000000 2.02166500 1.24602765
Sc 0.00000000 2.02166500 -3.2191030599999984 0 0 0
Sc 0.00000000 6.06499500 1.29943261
Sc 0.00000000 6.06499500 -3.2191030599999984 0 0 0
Sc 3.91859000 2.02166500 1.16882840
Sc 3.91859000 2.02166500 -3.2191030599999984 0 0 0
Sc 3.91859000 6.06499500 1.16829964
Sc 3.91859000 6.06499500 -3.2191030599999984 0 0 0
Ga 0.00007837 0.01528379 3.51996863
Ga 0.00000000 0.00000000 -1.0731224799999985 0 0 0
Ga 0.00000000 4.02804621 3.51996863
Ga 0.00000000 4.04333000 -1.0731224799999985 0 0 0
Ga 3.91859000 8.00433780 3.43007909
Ga 3.91859000 0.00000000 -1.0731224799999985 0 0 0
Ga 3.91859000 4.12565220 3.42981471
Ga 3.91859000 4.04333000 -1.0731224799999985 0 0 0
Ge 1.95890314 8.05641589 1.01442990
Ge 1.95929500 0.00000000 -3.2191030599999984 0 0 0
Ge 1.95890314 4.07357411 1.01442990
Ge 1.95929500 4.04333000 -3.2191030599999984 0 0 0
Ge 5.87827686 8.05641589 1.01442990
Ge 5.87788500 0.00000000 -3.2191030599999984 0 0 0
Ge 5.87827686 4.07357411 1.01442990
Ge 5.87788500 4.04333000 -3.2191030599999984 0 0 0
Pd 2.35985327 2.02166500 3.45228710
Pd 1.95929500 2.02166500 -1.0731224799999985 0 0 0
Pd 2.03774517 6.06499500 3.29233659
Pd 1.95929500 6.06499500 -1.0731224799999985 0 0 0
Pd 5.47732673 2.02166500 3.45228710
Pd 5.87788500 2.02166500 -1.0731224799999985 0 0 0
Pd 5.79935646 6.06499500 3.29233659
Pd 5.87788500 6.06499500 -1.0731224799999985 0 0 0
C 0.00000000 2.02166500 3.40337661
