&CONTROL
calculation = 'relax'
prefix = 'scf'
pseudo_dir = '/vol0403/data/hp230205/u10028/POT_HYBRID_KKJUS_GBRV'
outdir = './data'
tprnfor = .true.
nstep = 50
disk_io = 'non'
/
&SYSTEM
ibrav = 0
ecutwfc = 50.0
ecutrho = 400
occupations = 'smearing'
smearing = 'mp'
degauss = 0.01
assume_isolated = 'esm'
esm_bc = 'bc1'
input_dft = 'BEEF-VDW'
nosym = .true.
nspin = 1
ntyp = 4
nat = 32
/
&ELECTRONS
electron_maxstep = 200
mixing_beta = 0.1
conv_thr = 1e-06
/
&IONS
ion_dynamics = 'bfgs'
upscale = 1.0
/
&CELL
/

K_POINTS {automatic}
6 6 1 0 0 0

ATOMIC_SPECIES
Cu 63.54 Cu.pbe-dn-rrkjus_psl.1.0.0.UPF
In 114.8 In.pbe-dn-rrkjus_psl.1.0.0.UPF
Pd 106.4 Pd.pbe-n-rrkjus_psl.1.0.0.UPF
Y 88.90 Y.pbe-spn-rrkjus_psl.1.0.0.UPF


CELL_PARAMETERS {angstrom}
6.76944000 0.00000000 0.00000000
0.00000000 9.57344000 0.00000000
0.00000000 0.00000000 27.18010000

ATOMIC_POSITIONS {angstrom}
Y 5.07708000 0.00000000 -1.1967397999999996 0 0 0
Y 5.07708000 4.78672000 -1.1967397999999996 0 0 0
Y 1.69236000 2.39336000 -3.5899476099999994 0 0 0
Y 1.69236000 7.18008000 -3.5899476099999994 0 0 0
Y 5.08662491 4.78672000 3.67311871
Y 5.08662491 0.00000000 3.67311871
Y 1.68295048 7.18008000 1.18314975
Y 1.68295048 2.39336000 1.18314975
In 1.69236000 0.00000000 -1.1967397999999996 0 0 0
In 1.69236000 4.78672000 -1.1967397999999996 0 0 0
In 5.07708000 2.39336000 -3.5899476099999994 0 0 0
In 5.07708000 7.18008000 -3.5899476099999994 0 0 0
In 1.70258185 4.78672000 3.64838482
In 1.70258185 0.00000000 3.64838482
In 5.08324019 7.18008000 1.24376138
In 5.08324019 2.39336000 1.24376138
Cu 0.00000000 0.00000000 -3.5899476099999994 0 0 0
Cu 0.00000000 4.78672000 -3.5899476099999994 0 0 0
Cu 3.38472000 7.18008000 -1.1967397999999996 0 0 0
Cu 3.38472000 2.39336000 -1.1967397999999996 0 0 0
Cu 6.69375766 4.78672000 1.26767986
Cu 6.69375766 0.00000000 1.26767986
Cu 3.26158389 2.39336000 3.55080826
Cu 3.26158389 7.18008000 3.55080826
Pd 0.00000000 2.39336000 -1.1967397999999996 0 0 0
Pd 0.00000000 7.18008000 -1.1967397999999996 0 0 0
Pd 3.38472000 4.78672000 -3.5899476099999994 0 0 0
Pd 3.38472000 0.00000000 -3.5899476099999994 0 0 0
Pd 0.09436599 7.18008000 3.52226916
Pd 0.09436599 2.39336000 3.52226916
Pd 3.46365167 0.00000000 1.26713626
Pd 3.46365167 4.78672000 1.26713626
