&CONTROL
calculation = 'relax'
prefix = 'scf'
pseudo_dir = '/vol0004/mdt0/data/hp150275/u10028/POT_HYBRID_KKJUS_GBRV'
outdir = './data'
tprnfor = .true.
nstep = 50
disk_io = 'non'
/
&SYSTEM
ibrav = 0
ecutwfc = 50.0
ecutrho = 400
occupations = 'smearing'
smearing = 'mp'
degauss = 0.01
assume_isolated = 'esm'
esm_bc = 'bc1'
input_dft = 'BEEF-VDW'
nosym = .true.
nspin = 2
ntyp = 5
nat = 34
starting_magnetization(1) = 0.0
starting_magnetization(2) = 0.0
starting_magnetization(3) = 0.1
starting_magnetization(4) = 0.001
starting_magnetization(5) = 0.0
/
&ELECTRONS
electron_maxstep = 300
mixing_beta = 0.1
conv_thr = 1e-06
/
&IONS
ion_dynamics = 'bfgs'
upscale = 1.0
/
&CELL
/

K_POINTS {automatic}
9 6 2 0  0  0

ATOMIC_SPECIES
C 12.01 C.pbe-n-rrkjus_psl.1.0.0.UPF
Ge 72.64 Ge.pbe-dn-rrkjus_psl.1.0.0.UPF
Mn 54.93 mn_pbe_v1.5.uspp.F.UPF
Ni 58.69 ni_pbe_v1.4.uspp.F.UPF
O 15.99 O.pbe-n-rrkjus_psl.1.0.0.UPF

CELL_PARAMETERS {angstrom}
5.84248000 0.00000000 0.00000000
0.00000000 8.26252000 0.00000000
0.00000000 0.00000000 26.19690000

ATOMIC_POSITIONS {angstrom}
Mn 0.00000000 0.00000000 -3.09856933 0 0 0
Mn 2.92124000 2.06563000 -1.0329437699999993 0 0 0
Mn 2.92124000 6.19689000 -1.0329437699999993 0 0 0
Mn 0.00000000 4.13126000 -3.09856933 0 0 0
Mn 5.83581957 4.13167313 0.96535576
Mn 2.92673193 6.16119591 3.25155923
Mn 2.92673193 2.10124146 3.25208317
Mn 0.04691511 0.00000000 1.03058605
Ni 1.46062000 0.00000000 -1.0329437699999993 0 0 0
Ni 4.38186000 4.13126000 -1.0329437699999993 0 0 0
Ni 4.38186000 0.00000000 -1.0329437699999993 0 0 0
Ni 1.46062000 4.13126000 -1.0329437699999993 0 0 0
Ni 4.38186000 6.19689000 -3.09856933 0 0 0
Ni 1.46062000 2.06563000 -3.09856933 0 0 0
Ni 1.46062000 6.19689000 -3.09856933 0 0 0
Ni 4.38186000 2.06563000 -3.09856933 0 0 0
Ni 1.37152218 4.13126000 2.97282421
Ni 4.44758790 0.00008263 2.94924700
Ni 4.43134581 4.13134263 2.96994255
Ni 1.37981850 0.00008263 3.26911115
Ni 4.34744779 2.05067484 1.05075766
Ni 1.49339631 6.20027763 1.09110088
Ni 1.49310419 2.06224237 1.09083892
Ni 4.34715567 6.21184516 1.05101963
Ge 0.00000000 6.19689000 -1.0329437699999993 0 0 0
Ge 2.92124000 0.00000000 -3.09856933 0 0 0
Ge 0.00000000 2.06563000 -1.0329437699999993 0 0 0
Ge 2.92124000 4.13126000 -3.09856933 0 0 0
Ge 5.80035572 2.08942606 3.12398032
Ge 2.91493012 4.13142525 1.04368450
Ge 5.80029729 6.17292869 3.12450426
Ge 2.88565930 0.00000000 1.05337735
C 2.06426503 0.00016525 4.90641740
O 2.35709013 8.26227212 6.03131229
