&CONTROL
calculation = 'relax'
prefix = 'scf'
pseudo_dir = '/vol0004/mdt0/data/hp150275/u10028/POT_HYBRID_KKJUS_GBRV'
outdir = './data'
tprnfor = .true.
nstep = 50
disk_io = 'non'
/
&SYSTEM
ibrav = 0
ecutwfc = 50.0
ecutrho = 400
occupations = 'smearing'
smearing = 'mp'
degauss = 0.01
assume_isolated = 'esm'
esm_bc = 'bc1'
input_dft = 'BEEF-VDW'
nosym = .true.
nspin = 2
ntyp = 3
nat = 32
starting_magnetization(1) = 0.0
starting_magnetization(2) = 0.001
starting_magnetization(3) = 0.0
/
&ELECTRONS
electron_maxstep = 200
mixing_beta = 0.1
conv_thr = 1e-06
/
&IONS
ion_dynamics = 'bfgs'
upscale = 1.0
/
&CELL
/

K_POINTS {automatic}
9 6 2 0  0  0

ATOMIC_SPECIES
Ga 69.72 Ga.pbe-dnl-rrkjus_psl.1.0.0.UPF
Ni 58.69 ni_pbe_v1.4.uspp.F.UPF
Zr 91.22 Zr.pbe-spn-rrkjus_psl.1.0.0.UPF

CELL_PARAMETERS {angstrom}
6.13924000 0.00000000 0.00000000
0.00000000 8.68219000 0.00000000
0.00000000 0.00000000 26.51160000

ATOMIC_POSITIONS {angstrom}
Zr 0.00000000 0.00000000 23.25571040
Zr 3.06962000 2.17054750 25.42621510
Zr 3.06962000 6.51164250 25.42621510
Zr 0.00000000 4.34109500 23.25571040
Zr 0.00000000 4.34118182 1.05277564
Zr 3.06962000 6.51164250 3.36379181
Zr 3.06962000 2.17054750 3.36379181
Zr 0.00000000 8.68210318 1.05277564
Ga 0.00000000 6.51164250 25.42621510
Ga 3.06962000 0.00000000 23.25571040
Ga 0.00000000 2.17054750 25.42621510
Ga 3.06962000 4.34109500 23.25571040
Ga 0.00000000 2.17046068 3.21665243
Ga 3.06962000 4.34074771 1.12356161
Ga 0.00000000 6.51172932 3.21691754
Ga 3.06962000 0.00034729 1.12356161
Ni 1.53481000 0.00000000 25.42621510
Ni 4.60443000 4.34109500 25.42621510
Ni 4.60443000 0.00000000 25.42621510
Ni 1.53481000 4.34109500 25.42621510
Ni 4.60443000 6.51164250 23.25571040
Ni 1.53481000 2.17054750 23.25571040
Ni 1.53481000 6.51164250 23.25571040
Ni 4.60443000 2.17054750 23.25571040
Ni 1.45954292 4.34109500 3.13526182
Ni 4.67988126 0.00000000 3.13526182
Ni 4.67969708 4.34109500 3.13526182
Ni 1.45935874 0.00000000 3.13526182
Ni 4.48440786 2.17046068 1.17711504
Ni 1.65507771 6.51172932 1.17764527
Ni 1.65483214 2.17046068 1.17711504
Ni 4.48416229 6.51172932 1.17764527
