&CONTROL
calculation = 'relax'
prefix = 'scf'
pseudo_dir = '/vol0004/mdt0/data/hp150275/u10028/POT_HYBRID_KKJUS_GBRV'
outdir = './data'
tprnfor = .true.
nstep = 50
disk_io = 'non'
/
&SYSTEM
ibrav = 0
ecutwfc = 50.0
ecutrho = 400
occupations = 'smearing'
smearing = 'mp'
degauss = 0.01
assume_isolated = 'esm'
esm_bc = 'bc1'
input_dft = 'BEEF-VDW'
nosym = .true.
nspin = 2
ntyp = 4
nat = 18
starting_magnetization(1) = 0.0
starting_magnetization(2) = 0.1
starting_magnetization(3) = 0.0
starting_magnetization(4) = 0.0
/
&ELECTRONS
electron_maxstep = 300
mixing_beta = 0.1
conv_thr = 1e-06
/
&IONS
ion_dynamics = 'bfgs'
upscale = 1.0
/
&CELL
/

K_POINTS {automatic}
10 10 2 0  0  0

ATOMIC_SPECIES
C 12.01 C.pbe-n-rrkjus_psl.1.0.0.UPF
Fe 55.84 fe_pbe_v1.5.uspp.F.UPF
O 15.99 O.pbe-n-rrkjus_psl.1.0.0.UPF
V 50.94 V.pbe-spnl-rrkjus_psl.1.0.0.UPF

CELL_PARAMETERS {angstrom}
5.79956000 0.00000000 0.00000000
0.00000000 5.79956000 0.00000000
0.00000000 0.00000000 24.34970000

ATOMIC_POSITIONS {angstrom}
V 0.00000000 0.00000000 -2.141556119999997 0 0 0
V 0.00000000 0.00000000 0.75824966
V 0.00000000 2.89978000 -2.141556119999997 0 0 0
V 0.00000000 2.89978000 0.75824966
V 2.89978000 0.00000000 -2.141556119999997 0 0 0
V 2.89978000 0.00000000 0.75824966
V 2.89978000 2.89978000 -2.141556119999997 0 0 0
V 2.89978000 2.89978000 0.75824966
Fe 1.44989000 1.44989000 -0.6917749799999982 0 0 0
Fe 1.44989000 1.44989000 2.20803080
Fe 1.44989000 4.34967000 -0.6917749799999982 0 0 0
Fe 1.44989000 4.34967000 2.20803080
Fe 4.34967000 1.44989000 -0.6917749799999982 0 0 0
Fe 4.34967000 1.44989000 2.20803080
Fe 4.34967000 4.34967000 -0.6917749799999982 0 0 0
Fe 4.34967000 4.34967000 2.20803080
C 1.44989000 1.44989000 4.10803789
O 1.44989000 1.44989000 5.25807422
