&CONTROL
calculation = 'relax'
prefix = 'scf'
pseudo_dir = '/vol0403/data/hp230205/u10028/POT_HYBRID_KKJUS_GBRV'
outdir = './data'
tprnfor = .true.
nstep = 50
disk_io = 'non'
/
&SYSTEM
ibrav = 0
ecutwfc = 50.0
ecutrho = 400
occupations = 'smearing'
smearing = 'mp'
degauss = 0.01
assume_isolated = 'esm'
esm_bc = 'bc1'
input_dft = 'BEEF-VDW'
nosym = .true.
nspin = 1
ntyp = 5
nat = 17
/
&ELECTRONS
electron_maxstep = 200
mixing_beta = 0.1
conv_thr = 1e-06
/
&IONS
ion_dynamics = 'bfgs'
upscale = 1.0
/
&CELL
/

K_POINTS {automatic}
12 7 2 0  0  0

ATOMIC_SPECIES
C 12.01 C.pbe-n-rrkjus_psl.1.0.0.UPF
Ge 72.64 Ge.pbe-dn-rrkjus_psl.1.0.0.UPF
In 114.8 In.pbe-dn-rrkjus_psl.1.0.0.UPF
Li 6.941 Li.pbe-sl-rrkjus_psl.1.0.0.UPF
Sc 44.95 Sc.pbe-spn-rrkjus_psl.1.0.0.UPF


CELL_PARAMETERS {angstrom}
5.77954000 0.00000000 0.00000000
0.00000000 8.97372000 0.00000000
0.00000000 0.00000000 24.33440000

ATOMIC_POSITIONS {angstrom}
Li 1.55434949 2.24343000 0.56455808
Li 4.28466198 2.24343000 -2.167221659999999 0 0 0
Li 1.29964516 6.73046947 1.35274930
Li 4.28466198 6.73029000 -2.167221659999999 0 0 0
Sc 2.89439363 0.55825512 2.38306779
Sc 5.74624985 0.00000000 -0.7224883399999982 0 0 0
Sc 2.89439363 3.92896383 2.38282445
Sc 5.74624985 4.48686000 -0.7224883399999982 0 0 0
In 4.54086899 2.24343000 0.64632166
In 1.39489198 2.24343000 -2.167221659999999 0 0 0
In 4.18404019 6.73055921 1.00622744
In 1.39489198 6.73029000 -2.167221659999999 0 0 0
Ge 0.16431232 0.56247277 2.48916578
Ge 2.85647985 0.00000000 -0.7224883399999982 0 0 0
Ge 0.16413894 3.92375907 2.48989581
Ge 2.85647985 4.48686000 -0.7224883399999982 0 0 0
C 1.55747044 2.24351974 2.63638890
