&CONTROL
calculation = 'relax'
prefix = 'scf'
pseudo_dir = '/vol0004/mdt0/data/hp150275/u10028/POT_KKJUS'
outdir = './data'
tprnfor = .true.
nstep = 50
disk_io = 'non'
/
&SYSTEM
ibrav = 0
ecutwfc = 50.0
ecutrho = 400
occupations = 'smearing'
smearing = 'mp'
degauss = 0.01
assume_isolated = 'esm'
esm_bc = 'bc1'
input_dft = 'BEEF-VDW'
nosym = .true.
nspin = 1
ntyp = 4
nat = 33
/
&ELECTRONS
electron_maxstep = 200
mixing_beta = 0.1
conv_thr = 1e-06
/
&IONS
ion_dynamics = 'bfgs'
upscale = 1.0
/
&CELL
/

K_POINTS {automatic}
8 6 1 0 0 0

ATOMIC_SPECIES
Al 26.98 Al.pbe-nl-rrkjus_psl.1.0.0.UPF
C 12.01 C.pbe-n-rrkjus_psl.1.0.0.UPF
Ni 58.69 Ni.pbe-spn-rrkjus_psl.1.0.0.UPF
V 50.94 V.pbe-spnl-rrkjus_psl.1.0.0.UPF

CELL_PARAMETERS {angstrom}
5.81624000 0.00000000 0.00000000
0.00000000 8.22541000 0.00000000
0.00000000 0.00000000 26.16910000

ATOMIC_POSITIONS {angstrom}
Al 0.00000000 0.00000000 -3.0845518200000015 0 0 0
Al 2.90812000 2.05635250 -1.0281839400000017 0 0 0
Al 2.90812000 6.16905750 -1.0281839400000017 0 0 0
Al 0.00000000 4.11270500 -3.0845518200000015 0 0 0
Al 0.03181483 4.08054365 1.04310033
Al 2.83628944 6.16913975 3.14238553
Al 3.11290981 2.05643475 3.17535859
Al 0.03181483 0.03216135 1.04283863
V 0.00000000 6.16905750 -1.0281839400000017 0 0 0
V 2.90812000 0.00000000 -3.0845518200000015 0 0 0
V 0.00000000 2.05635250 -1.0281839400000017 0 0 0
V 2.90812000 4.11270500 -3.0845518200000015 0 0 0
V 5.63750694 2.05651701 3.02985840
V 2.89480081 4.14552439 1.10093404
V 0.11254424 6.16905750 3.04713000
V 2.89474265 8.19250836 1.10093404
Ni 1.45406000 0.00000000 -1.0281839400000017 0 0 0
Ni 4.36218000 4.11270500 -1.0281839400000017 0 0 0
Ni 4.36218000 0.00000000 -1.0281839400000017 0 0 0
Ni 1.45406000 4.11270500 -1.0281839400000017 0 0 0
Ni 4.36218000 6.16905750 -3.0845518200000015 0 0 0
Ni 1.45406000 2.05635250 -3.0845518200000015 0 0 0
Ni 1.45406000 6.16905750 -3.0845518200000015 0 0 0
Ni 4.36218000 2.05635250 -3.0845518200000015 0 0 0
Ni 1.45975992 3.99014639 3.20702321
Ni 4.41080377 8.13402569 2.97856696
Ni 4.41092009 4.20425381 2.97909034
Ni 1.45987624 0.12264086 3.20649982
Ni 4.28779029 2.05618799 0.89969366
Ni 1.39607209 6.16913975 0.94051745
Ni 1.53572001 2.05627025 1.00253822
Ni 4.37753487 6.16913975 1.12657975
C 1.35797572 2.05627025 3.94106646
