&CONTROL
calculation = 'relax'
prefix = 'scf'
pseudo_dir = '/vol0004/mdt0/data/hp150275/u10028/POT_KKJUS'
outdir = './data'
tprnfor = .true.
nstep = 50
disk_io = 'non'
/
&SYSTEM
ibrav = 0
ecutwfc = 50.0
ecutrho = 400
occupations = 'smearing'
smearing = 'mp'
degauss = 0.01
assume_isolated = 'esm'
esm_bc = 'bc1'
input_dft = 'BEEF-VDW'
nosym = .true.
nspin = 1
ntyp = 5
nat = 34
/
&ELECTRONS
electron_maxstep = 200
mixing_beta = 0.1
conv_thr = 1e-06
/
&IONS
ion_dynamics = 'bfgs'
upscale = 1.0
/
&CELL
/

K_POINTS {automatic}
8 6 1 0 0 0

ATOMIC_SPECIES
C 12.01 C.pbe-n-rrkjus_psl.1.0.0.UPF
Mg 24.30 Mg.pbe-spnl-rrkjus_psl.1.0.0.UPF
Ni 58.69 Ni.pbe-spn-rrkjus_psl.1.0.0.UPF
O 15.99 O.pbe-n-rrkjus_psl.1.0.0.UPF
Sb 121.7 Sb.pbe-n-rrkjus_psl.1.0.0.UPF

CELL_PARAMETERS {angstrom}
6.22749000 0.00000000 0.00000000
0.00000000 8.80700000 0.00000000
0.00000000 0.00000000 26.60530000

ATOMIC_POSITIONS {angstrom}
Mg 0.00000000 0.00000000 -3.3025158899999987 0 0 0
Mg 3.11374500 2.20175000 -1.1009273099999994 0 0 0
Mg 3.11374500 6.60525000 -1.1009273099999994 0 0 0
Mg 0.00000000 4.40350000 -3.3025158899999987 0 0 0
Mg 6.22742773 4.38764740 1.01791878
Mg 3.11374500 6.60525000 3.49779879
Mg 3.11374500 2.20157386 3.54914702
Mg 0.00000000 0.01576453 1.01765273
Ni 1.55687250 0.00000000 -1.1009273099999994 0 0 0
Ni 4.67061750 4.40350000 -1.1009273099999994 0 0 0
Ni 4.67061750 0.00000000 -1.1009273099999994 0 0 0
Ni 1.55687250 4.40350000 -1.1009273099999994 0 0 0
Ni 4.67061750 6.60525000 -3.3025158899999987 0 0 0
Ni 1.55687250 2.20175000 -3.3025158899999987 0 0 0
Ni 1.55687250 6.60525000 -3.3025158899999987 0 0 0
Ni 4.67061750 2.20175000 -3.3025158899999987 0 0 0
Ni 1.46109370 4.41653436 3.07051767
Ni 4.76658312 8.79370143 3.07051767
Ni 4.76627175 4.41671050 3.07051767
Ni 1.46103143 8.79370143 3.07051767
Ni 4.64053872 2.20183807 1.25789858
Ni 1.54236245 6.60525000 1.21187142
Ni 1.58688900 2.20175000 1.25763253
Ni 4.68518983 6.60525000 1.21187142
Sb 0.00000000 6.60525000 -1.1009273099999994 0 0 0
Sb 3.11374500 0.00000000 -3.3025158899999987 0 0 0
Sb 0.00000000 2.20175000 -1.1009273099999994 0 0 0
Sb 3.11374500 4.40350000 -3.3025158899999987 0 0 0
Sb 0.00000000 2.20166193 3.46401006
Sb 3.11368273 4.40992911 1.11236759
Sb 0.00000000 6.60525000 3.47545034
Sb 3.11374500 8.80057089 1.11236759
C 3.11374500 2.20166193 5.81192778
O 3.11374500 2.20175000 6.95276305
