&CONTROL
calculation = 'relax'
prefix = 'scf'
pseudo_dir = '/vol0004/mdt0/data/hp150275/u10028/POT_HYBRID_KKJUS_GBRV'
outdir = './data'
tprnfor = .true.
nstep = 50
disk_io = 'non'
/
&SYSTEM
ibrav = 0
ecutwfc = 50.0
ecutrho = 400
occupations = 'smearing'
smearing = 'mp'
degauss = 0.01
assume_isolated = 'esm'
esm_bc = 'bc1'
input_dft = 'BEEF-VDW'
nosym = .true.
nspin = 2
ntyp = 5
nat = 34
starting_magnetization(1) = 0.0
starting_magnetization(2) = 0.0
starting_magnetization(3) = 0.001
starting_magnetization(4) = 0.0
starting_magnetization(5) = 0.0
/
&ELECTRONS
electron_maxstep = 200
mixing_beta = 0.1
conv_thr = 1e-06
/
&IONS
ion_dynamics = 'bfgs'
upscale = 1.0
/
&CELL
/

K_POINTS {automatic}
9 6 2 0  0  0

ATOMIC_SPECIES
Al 26.98 Al.pbe-nl-rrkjus_psl.1.0.0.UPF
C 12.01 C.pbe-n-rrkjus_psl.1.0.0.UPF
Ni 58.69 ni_pbe_v1.4.uspp.F.UPF
O 15.99 O.pbe-n-rrkjus_psl.1.0.0.UPF
Zr 91.22 Zr.pbe-spn-rrkjus_psl.1.0.0.UPF

CELL_PARAMETERS {angstrom}
6.14873000 0.00000000 0.00000000
0.00000000 8.69561000 0.00000000
0.00000000 0.00000000 26.52170000

ATOMIC_POSITIONS {angstrom}
Zr 0.00000000 0.00000000 23.26085699
Zr 3.07436500 2.17390250 25.43484073
Zr 3.07436500 6.52170750 25.43484073
Zr 0.00000000 4.34780500 23.26085699
Zr 0.01340423 4.34745718 1.02824631
Zr 3.09459432 6.52770747 3.37647763
Zr 3.09465581 2.16798949 3.37727328
Zr 0.02287328 0.00034782 1.05768540
Al 0.00000000 6.52170750 25.43484073
Al 3.07436500 0.00000000 23.26085699
Al 0.00000000 2.17390250 25.43484073
Al 3.07436500 4.34780500 23.26085699
Al 6.14430291 2.20242410 3.14918666
Al 3.08826113 4.34780500 1.13062007
Al 6.14430291 6.49327286 3.14918666
Al 3.07448797 8.69552304 1.16191568
Ni 1.53718250 0.00000000 25.43484073
Ni 4.61154750 4.34780500 25.43484073
Ni 4.61154750 0.00000000 25.43484073
Ni 1.53718250 4.34780500 25.43484073
Ni 4.61154750 6.52170750 23.26085699
Ni 1.53718250 2.17390250 23.26085699
Ni 1.53718250 6.52170750 23.26085699
Ni 4.61154750 2.17390250 23.26085699
Ni 1.49297313 4.34780500 3.09163457
Ni 4.74349925 0.00000000 3.08447371
Ni 4.68840662 4.34771804 3.10356933
Ni 1.39317924 0.00017391 3.41095584
Ni 4.49398378 2.16868513 1.15979394
Ni 1.69366768 6.53570743 1.20991995
Ni 1.69422106 2.15981561 1.21071561
Ni 4.49447568 6.52692487 1.15952872
C 1.93340666 0.00008696 5.09349248
O 2.14529190 0.00017391 6.24453426
