&CONTROL
calculation = 'relax'
prefix = 'scf'
pseudo_dir = '/vol0004/mdt0/data/hp150275/u10028/POT_KKJUS'
outdir = './data'
tprnfor = .true.
nstep = 50
disk_io = 'non'
/
&SYSTEM
ibrav = 0
ecutwfc = 50.0
ecutrho = 400
occupations = 'smearing'
smearing = 'mp'
degauss = 0.01
assume_isolated = 'esm'
esm_bc = 'bc1'
input_dft = 'BEEF-VDW'
nosym = .true.
nspin = 1
ntyp = 4
nat = 18
/
&ELECTRONS
electron_maxstep = 200
mixing_beta = 0.1
conv_thr = 1e-06
/
&IONS
ion_dynamics = 'bfgs'
upscale = 1.0
/
&CELL
/

K_POINTS {automatic}
8 8 1 0 0 0

ATOMIC_SPECIES
C 12.01 C.pbe-n-rrkjus_psl.1.0.0.UPF
K 39.09 K.pbe-spn-rrkjus_psl.1.0.0.UPF
O 15.99 O.pbe-n-rrkjus_psl.1.0.0.UPF
Sb 121.7 Sb.pbe-n-rrkjus_psl.1.0.0.UPF

CELL_PARAMETERS {angstrom}
8.65338000 0.00000000 0.00000000
0.00000000 8.65338000 0.00000000
0.00000000 0.00000000 26.49000000

ATOMIC_POSITIONS {angstrom}
K 2.27696388 2.27661774 1.20158640
K 6.49003500 6.49003500 -3.2450249999999983 0 0 0
K 6.37632959 2.27670428 1.20158640
K 2.16334500 6.49003500 -3.2450249999999983 0 0 0
K 6.37641612 6.37676226 1.20158640
K 2.16334500 2.16334500 -3.2450249999999983 0 0 0
K 2.27705041 6.37667572 1.20158640
K 6.49003500 2.16334500 -3.2450249999999983 0 0 0
K 0.00000000 0.00000000 -1.081586699999999 0 0 0
K 4.32669000 0.00000000 4.14144660
K 8.65329347 4.32677653 4.13985720
K 4.32669000 4.32669000 -1.081586699999999 0 0 0
Sb 0.00000000 0.00000000 3.07866780
Sb 4.32660347 4.32669000 3.08184660
Sb 4.32669000 0.00000000 -1.081586699999999 0 0 0
Sb 0.00000000 4.32669000 -1.081586699999999 0 0 0
C 0.00008653 8.65329347 5.09058330
O 0.00008653 0.00000000 6.26514990
