&CONTROL
calculation = 'relax'
prefix = 'scf'
pseudo_dir = '/vol0403/data/hp230205/u10028/POT_HYBRID_KKJUS_GBRV'
outdir = './data'
tprnfor = .true.
nstep = 50
disk_io = 'non'
/
&SYSTEM
ibrav = 0
ecutwfc = 50.0
ecutrho = 400
occupations = 'smearing'
smearing = 'mp'
degauss = 0.01
assume_isolated = 'esm'
esm_bc = 'bc1'
input_dft = 'BEEF-VDW'
nosym = .true.
nspin = 1
ntyp = 4
nat = 16
/
&ELECTRONS
electron_maxstep = 200
mixing_beta = 0.1
conv_thr = 1e-06
/
&IONS
ion_dynamics = 'bfgs'
upscale = 1.0
/
&CELL
/

K_POINTS {automatic}
8 11 2 0  0  0

ATOMIC_SPECIES
Ag 107.8 Ag.pbe-n-rrkjus_psl.1.0.0.UPF
Al 26.98 Al.pbe-nl-rrkjus_psl.1.0.0.UPF
Li 6.941 Li.pbe-sl-rrkjus_psl.1.0.0.UPF
Sn 118.7 Sn.pbe-dn-rrkjus_psl.1.0.0.UPF


CELL_PARAMETERS {angstrom}
8.16098000 0.00000000 0.00000000
0.00000000 6.09080000 0.00000000
0.00000000 0.00000000 24.56780000

ATOMIC_POSITIONS {angstrom}
Li 2.04024500 1.50381852 -0.7613561199999985 0 0 0
Li 2.04032661 4.50822744 2.33885456
Li 6.12073500 1.50381852 -0.7613561199999985 0 0 0
Li 6.12057178 4.50822744 2.33860888
Al 2.04024500 4.54921852 -0.7613561199999985 0 0 0
Al 2.04040822 1.59103878 2.12192089
Al 6.12073500 4.54921852 -0.7613561199999985 0 0 0
Al 6.12057178 1.59103878 2.12192089
Ag 0.00000000 0.00000000 -2.2838226899999974 0 0 0
Ag 0.00000000 3.03547200 0.80557816
Ag 4.08049000 0.00000000 -2.2838226899999974 0 0 0
Ag 4.08049000 3.03541109 0.80557816
Sn 0.00000000 3.04540000 -2.2838226899999974 0 0 0
Sn 0.00008161 6.02495845 0.95347632
Sn 4.08049000 3.04540000 -2.2838226899999974 0 0 0
Sn 4.08049000 6.02495845 0.95347632
