&CONTROL
calculation = 'relax'
prefix = 'scf'
pseudo_dir = '/vol0403/data/hp230205/u10028/POT_HYBRID_KKJUS_GBRV'
outdir = './data'
tprnfor = .true.
nstep = 50
disk_io = 'non'
/
&SYSTEM
ibrav = 0
ecutwfc = 50.0
ecutrho = 400
occupations = 'smearing'
smearing = 'mp'
degauss = 0.01
assume_isolated = 'esm'
esm_bc = 'bc1'
input_dft = 'BEEF-VDW'
nosym = .true.
nspin = 1
ntyp = 6
nat = 34
/
&ELECTRONS
electron_maxstep = 200
mixing_beta = 0.1
conv_thr = 1e-06
/
&IONS
ion_dynamics = 'bfgs'
upscale = 1.0
/
&CELL
/

K_POINTS {automatic}
9 6 2 0  0  0

ATOMIC_SPECIES
Al 26.98 Al.pbe-nl-rrkjus_psl.1.0.0.UPF
C 12.01 C.pbe-n-rrkjus_psl.1.0.0.UPF
Li 6.941 Li.pbe-sl-rrkjus_psl.1.0.0.UPF
O 15.99 O.pbe-n-rrkjus_psl.1.0.0.UPF
Pd 106.4 Pd.pbe-n-rrkjus_psl.1.0.0.UPF
Sc 44.95 Sc.pbe-spn-rrkjus_psl.1.0.0.UPF


CELL_PARAMETERS {angstrom}
6.37868000 0.00000000 0.00000000
0.00000000 9.02082000 0.00000000
0.00000000 0.00000000 26.76560000

ATOMIC_POSITIONS {angstrom}
Li 4.78401000 0.00000000 -1.1276347300000005 0 0 0
Li 4.78401000 4.51041000 -1.1276347300000005 0 0 0
Li 1.59467000 2.25520500 -3.3829041800000006 0 0 0
Li 1.59467000 6.76561500 -3.3829041800000006 0 0 0
Li 3.74849509 4.52412165 4.80977832
Li 3.75091899 9.00692794 4.80629879
Li 1.47066846 6.76516396 1.13459378
Li 1.59307533 2.25565604 1.16885375
Sc 0.00000000 2.25520500 -1.1276347300000005 0 0 0
Sc 0.00000000 6.76561500 -1.1276347300000005 0 0 0
Sc 3.18934000 4.51041000 -3.3829041800000006 0 0 0
Sc 3.18934000 0.00000000 -3.3829041800000006 0 0 0
Sc 6.05655666 6.76561500 3.32749939
Sc 6.04877467 2.25583646 3.40886682
Sc 3.26250346 8.99014921 1.33239157
Sc 3.26409813 4.54117100 1.33319454
Al 0.00000000 0.00000000 -3.3829041800000006 0 0 0
Al 0.00000000 4.51041000 -3.3829041800000006 0 0 0
Al 3.18934000 6.76561500 -1.1276347300000005 0 0 0
Al 3.18934000 2.25520500 -1.1276347300000005 0 0 0
Al 6.33083990 4.42994429 1.10568694
Al 6.33020203 0.08055592 1.10622225
Al 2.92768655 2.25547562 3.36604186
Al 2.96468289 6.76579542 3.41662884
Pd 1.59467000 0.00000000 -1.1276347300000005 0 0 0
Pd 1.59467000 4.51041000 -1.1276347300000005 0 0 0
Pd 4.78401000 2.25520500 -3.3829041800000006 0 0 0
Pd 4.78401000 6.76561500 -3.3829041800000006 0 0 0
Pd 1.46849971 4.50436605 3.22150762
Pd 1.46888243 0.00703624 3.22043699
Pd 4.79632085 6.76624646 1.03582872
Pd 4.70153367 2.25475396 1.04118184
C 4.22447219 2.25493438 4.76588274
O 4.88957715 2.25511479 5.83704205
