&CONTROL
calculation = 'relax'
prefix = 'scf'
pseudo_dir = '/vol0004/mdt0/data/hp150275/u10028/POT_KKJUS'
outdir = './data'
tprnfor = .true.
nstep = 50
disk_io = 'non'
/
&SYSTEM
ibrav = 0
ecutwfc = 50.0
ecutrho = 400
occupations = 'smearing'
smearing = 'mp'
degauss = 0.01
assume_isolated = 'esm'
esm_bc = 'bc1'
input_dft = 'BEEF-VDW'
nosym = .true.
nspin = 1
ntyp = 2
nat = 32
/
&ELECTRONS
electron_maxstep = 200
mixing_beta = 0.1
conv_thr = 1e-06
/
&IONS
ion_dynamics = 'bfgs'
upscale = 1.0
/
&CELL
/

K_POINTS {automatic}
9 6 2 0  0  0

ATOMIC_SPECIES
Ir 192.2 Ir.pbe-n-rrkjus_psl.0.2.3.UPF
Ti 47.86 Ti.pbe-spn-rrkjus_psl.1.0.0.UPF

CELL_PARAMETERS {angstrom}
6.26165000 0.00000000 0.00000000
0.00000000 8.85530000 0.00000000
0.00000000 0.00000000 26.64150000

ATOMIC_POSITIONS {angstrom}
Ti 1.56541250 2.21382500 -3.320862980000001 0 0 0
Ti 1.56541250 0.00000000 -1.1069543199999998 0 0 0
Ti 1.56553773 2.21382500 1.13919054
Ti 1.56553773 0.00000000 3.41970294
Ti 1.56541250 6.64147500 -3.320862980000001 0 0 0
Ti 1.56541250 4.42765000 -1.1069543199999998 0 0 0
Ti 1.56553773 6.64147500 1.13919054
Ti 1.56553773 4.42765000 3.41970294
Ti 4.69623750 2.21382500 -3.320862980000001 0 0 0
Ti 4.69623750 0.00000000 -1.1069543199999998 0 0 0
Ti 4.69611227 2.21382500 1.13919054
Ti 4.69611227 0.00000000 3.41970294
Ti 4.69623750 6.64147500 -3.320862980000001 0 0 0
Ti 4.69623750 4.42765000 -1.1069543199999998 0 0 0
Ti 4.69611227 6.64147500 1.13919054
Ti 4.69611227 4.42765000 3.41970294
Ir 0.00000000 0.00000000 -3.320862980000001 0 0 0
Ir 0.00000000 2.21382500 -1.1069543199999998 0 0 0
Ir 0.00000000 0.00000000 1.12720186
Ir 0.00000000 2.21382500 3.16287888
Ir 0.00000000 4.42765000 -3.320862980000001 0 0 0
Ir 0.00000000 6.64147500 -1.1069543199999998 0 0 0
Ir 0.00000000 4.42765000 1.12720186
Ir 0.00000000 6.64147500 3.16287888
Ir 3.13082500 0.00000000 -3.320862980000001 0 0 0
Ir 3.13082500 2.21382500 -1.1069543199999998 0 0 0
Ir 3.13082500 0.00000000 1.12720186
Ir 3.13082500 2.21382500 3.16287888
Ir 3.13082500 4.42765000 -3.320862980000001 0 0 0
Ir 3.13082500 6.64147500 -1.1069543199999998 0 0 0
Ir 3.13082500 4.42765000 1.12720186
Ir 3.13082500 6.64147500 3.16287888
