&CONTROL
calculation = 'relax'
prefix = 'scf'
pseudo_dir = '/vol0403/data/hp230205/u10028/POT_HYBRID_KKJUS_GBRV'
outdir = './data'
tprnfor = .true.
nstep = 50
disk_io = 'non'
/
&SYSTEM
ibrav = 0
ecutwfc = 50.0
ecutrho = 400
occupations = 'smearing'
smearing = 'mp'
degauss = 0.01
assume_isolated = 'esm'
esm_bc = 'bc1'
input_dft = 'BEEF-VDW'
nosym = .true.
nspin = 1
ntyp = 6
nat = 18
/
&ELECTRONS
electron_maxstep = 200
mixing_beta = 0.1
conv_thr = 1e-06
/
&IONS
ion_dynamics = 'bfgs'
upscale = 1.0
/
&CELL
/

K_POINTS {automatic}
8 11 2 0  0  0

ATOMIC_SPECIES
Au 196.9 Au.pbe-n-rrkjus_psl.1.0.0.UPF
C 12.01 C.pbe-n-rrkjus_psl.1.0.0.UPF
Ge 72.64 Ge.pbe-dn-rrkjus_psl.1.0.0.UPF
In 114.8 In.pbe-dn-rrkjus_psl.1.0.0.UPF
Li 6.941 Li.pbe-sl-rrkjus_psl.1.0.0.UPF
O 15.99 O.pbe-n-rrkjus_psl.1.0.0.UPF


CELL_PARAMETERS {angstrom}
8.39470000 0.00000000 0.00000000
0.00000000 6.02588000 0.00000000
0.00000000 0.00000000 24.51900000

ATOMIC_POSITIONS {angstrom}
Li 2.09867500 1.48658460 -0.7532236799999978 0 0 0
Li 2.09875895 4.40515932 2.23735875
Li 6.29602500 1.48658460 -0.7532236799999978 0 0 0
Li 6.29602500 4.42962439 2.16600846
In 2.09867500 4.49952460 -0.7532236799999978 0 0 0
In 2.09884289 1.39595536 2.38545351
In 6.29602500 4.49952460 -0.7532236799999978 0 0 0
In 6.29602500 1.41541895 2.43816936
Ge 0.00000000 3.01294000 -2.2594258499999995 0 0 0
Ge 8.38873976 5.89656462 0.80446839
Ge 4.19735000 3.01294000 -2.2594258499999995 0 0 0
Ge 4.20339418 5.89668513 0.80397801
Au 0.00000000 0.00000000 -2.2594258499999995 0 0 0
Au 8.38596951 2.86795733 0.77185812
Au 4.19735000 0.00000000 -2.2594258499999995 0 0 0
Au 4.20599654 2.86807784 0.77185812
C 2.09867500 4.42612938 4.33446882
O 2.09859105 4.48578559 5.47533789
