&CONTROL
calculation = 'relax'
prefix = 'scf'
pseudo_dir = '/vol0004/mdt0/data/hp150275/u10028/POT_HYBRID_KKJUS_GBRV'
outdir = './data'
tprnfor = .true.
nstep = 50
disk_io = 'non'
/
&SYSTEM
ibrav = 0
ecutwfc = 50.0
ecutrho = 400
occupations = 'smearing'
smearing = 'mp'
degauss = 0.01
assume_isolated = 'esm'
esm_bc = 'bc1'
input_dft = 'BEEF-VDW'
nosym = .true.
nspin = 2
ntyp = 5
nat = 18
starting_magnetization(1) = 0.1
starting_magnetization(2) = 0.1
starting_magnetization(3) = 0.1
starting_magnetization(4) = 0.1
starting_magnetization(5) = 0.1
/
&ELECTRONS
electron_maxstep = 200
mixing_beta = 0.1
conv_thr = 1e-06
/
&IONS
ion_dynamics = 'bfgs'
upscale = 1.0
/
&CELL
/

K_POINTS {automatic}
10 10 2 0  0  0

ATOMIC_SPECIES
C 12.01 C.pbe-n-rrkjus_psl.1.0.0.UPF
Co 58.93 co_pbe_v1.2.uspp.F.UPF
Fe 55.84 fe_pbe_v1.5.uspp.F.UPF
Ge 72.64 Ge.pbe-dn-rrkjus_psl.1.0.0.UPF
O 15.99 O.pbe-n-rrkjus_psl.1.0.0.UPF

CELL_PARAMETERS {angstrom}
5.77744000 0.00000000 0.00000000
0.00000000 5.77744000 0.00000000
0.00000000 0.00000000 24.33310000

ATOMIC_POSITIONS {angstrom}
Fe 1.44805756 1.44014247 0.79033909
Fe 4.33308000 4.33308000 -2.166619220000001 0 0 0
Fe 4.32938244 1.44020024 0.79033909
Fe 1.44436000 4.33308000 -2.166619220000001 0 0 0
Fe 4.32920912 4.33718198 0.79082575
Fe 1.44436000 1.44436000 -2.166619220000001 0 0 0
Fe 1.44817311 4.33723976 0.79058242
Fe 4.33308000 1.44436000 -2.166619220000001 0 0 0
Co 0.00000000 5.77732445 2.04179042
Co 2.88854668 2.88866223 2.04106043
Co 2.88872000 0.00000000 -0.7222064100000019 0 0 0
Co 0.00000000 2.88872000 -0.7222064100000019 0 0 0
Ge 0.00000000 0.00000000 -0.7222064100000019 0 0 0
Ge 2.88877777 0.00017332 2.33792425
Ge 5.77726668 2.88889332 2.22039538
Ge 2.88872000 2.88872000 -0.7222064100000019 0 0 0
C 0.00005777 2.88866223 4.24661261
O 0.00005777 2.88866223 5.40024488
