&CONTROL
calculation = 'relax'
prefix = 'scf'
pseudo_dir = '/vol0403/data/hp230205/u10028/POT_HYBRID_KKJUS_GBRV'
outdir = './data'
tprnfor = .true.
nstep = 50
disk_io = 'non'
/
&SYSTEM
ibrav = 0
ecutwfc = 50.0
ecutrho = 400
occupations = 'smearing'
smearing = 'mp'
degauss = 0.01
assume_isolated = 'esm'
esm_bc = 'bc1'
input_dft = 'BEEF-VDW'
nosym = .true.
nspin = 1
ntyp = 5
nat = 17
/
&ELECTRONS
electron_maxstep = 200
mixing_beta = 0.1
conv_thr = 1e-06
/
&IONS
ion_dynamics = 'bfgs'
upscale = 1.0
/
&CELL
/

K_POINTS {automatic}
6 6 1 0 0 0

ATOMIC_SPECIES
C 12.01 C.pbe-n-rrkjus_psl.1.0.0.UPF
Ga 69.72 Ga.pbe-dnl-rrkjus_psl.1.0.0.UPF
Ge 72.64 Ge.pbe-dn-rrkjus_psl.1.0.0.UPF
Li 6.941 Li.pbe-sl-rrkjus_psl.1.0.0.UPF
Sc 44.95 Sc.pbe-spn-rrkjus_psl.1.0.0.UPF


CELL_PARAMETERS {angstrom}
5.66960000 0.00000000 0.00000000
0.00000000 8.37322000 0.00000000
0.00000000 0.00000000 24.25170000

ATOMIC_POSITIONS {angstrom}
Li 3.45397702 0.29959381 2.38103191
Li 5.62764496 0.00000000 -0.7086346699999986 0 0 0
Li 3.45375023 3.88676499 2.38127442
Li 5.62764496 4.18661000 -0.7086346699999986 0 0 0
Sc 1.40781838 2.09330500 0.62520883
Sc 4.18926744 2.09330500 -2.12590402 0 0 0
Sc 1.54184772 6.27999873 0.99795745
Sc 4.18926744 6.27991500 -2.12590402 0 0 0
Ga 0.54019949 0.17349312 2.52023666
Ga 2.79284496 0.00000000 -0.7086346699999986 0 0 0
Ga 0.53980262 4.01361927 2.51975163
Ga 2.79284496 4.18661000 -0.7086346699999986 0 0 0
Ge 4.19130850 2.09338873 0.59198400
Ge 1.35446744 2.09330500 -2.12590402 0 0 0
Ge 4.42177774 6.27958007 1.02245167
Ge 1.35446744 6.27991500 -2.12590402 0 0 0
C 5.41305060 2.09347246 2.21660538
