&CONTROL
calculation = 'relax'
prefix = 'scf'
pseudo_dir = '/vol0403/data/hp230205/u10028/POT_HYBRID_KKJUS_GBRV'
outdir = './data'
tprnfor = .true.
nstep = 70
disk_io = 'non'
/
&SYSTEM
ibrav = 0
ecutwfc = 50.0
ecutrho = 400
occupations = 'smearing'
smearing = 'mp'
degauss = 0.01
assume_isolated = 'esm'
esm_bc = 'bc1'
input_dft = 'BEEF-VDW'
nosym = .true.
nspin = 1
ntyp = 5
nat = 33
/
&ELECTRONS
electron_maxstep = 200
mixing_beta = 0.1
conv_thr = 1e-06
/
&IONS
ion_dynamics = 'bfgs'
upscale = 1.0
/
&CELL
/

K_POINTS {automatic}
6 6 1 0 0 0

ATOMIC_SPECIES
C 12.01 C.pbe-n-rrkjus_psl.1.0.0.UPF
Ga 69.72 Ga.pbe-dnl-rrkjus_psl.1.0.0.UPF
Li 6.941 Li.pbe-sl-rrkjus_psl.1.0.0.UPF
Mg 24.30 Mg.pbe-spnl-rrkjus_psl.1.0.0.UPF
Pt 195.0 Pt.pbe-n-rrkjus_psl.1.0.0.UPF


CELL_PARAMETERS {angstrom}
6.26200000 0.00000000 0.00000000
-0.00000000 8.85580000 0.00000000
0.00000000 0.00000000 26.64190000

ATOMIC_POSITIONS {angstrom}
Li 1.56550000 0.00000000 -1.106970950000001 0 0 0
Li 1.56550000 4.42790000 -1.106970950000001 0 0 0
Li 4.69650000 2.21395000 -3.3209128399999983 0 0 0
Li 4.69650000 6.64185000 -3.3209128399999983 0 0 0
Li 1.68654446 4.42790000 3.49355235
Li 1.73169348 -0.00000000 4.30959374
Li 4.71209238 6.65442524 1.12109115
Li 4.71209238 2.20137476 1.12109115
Mg 0.00000000 2.21395000 -1.106970950000001 0 0 0
Mg 0.00000000 6.64185000 -1.106970950000001 0 0 0
Mg 3.13100000 4.42790000 -3.3209128399999983 0 0 0
Mg 3.13100000 0.00000000 -3.3209128399999983 0 0 0
Mg 6.23256860 6.66381238 3.45598727
Mg 6.23250598 2.19189906 3.45598727
Mg 3.05485408 -0.00000000 1.17943691
Mg 3.13682366 4.42790000 1.07500066
Ga 0.00000000 0.00000000 -3.3209128399999983 0 0 0
Ga 0.00000000 4.42790000 -3.3209128399999983 0 0 0
Ga 3.13100000 6.64185000 -1.106970950000001 0 0 0
Ga 3.13100000 2.21395000 -1.106970950000001 0 0 0
Ga 0.01697002 4.42790000 1.18742948
Ga 0.18397756 0.00000000 1.19009367
Ga 3.15379368 2.28116552 3.44133422
Ga 3.15379368 6.57454592 3.44133422
Pt 4.69650000 0.00000000 -1.106970950000001 0 0 0
Pt 4.69650000 4.42790000 -1.106970950000001 0 0 0
Pt 1.56550000 2.21395000 -3.3209128399999983 0 0 0
Pt 1.56550000 6.64185000 -3.3209128399999983 0 0 0
Pt 4.65291648 4.42790000 3.18344063
Pt 4.25189800 -0.00000000 3.49515086
Pt 1.56593834 6.56294482 1.05688417
Pt 1.56593834 2.29285518 1.05688417
C 6.21885482 -0.00000000 3.24311849
