&CONTROL
calculation = 'relax'
prefix = 'scf'
pseudo_dir = '/vol0004/mdt0/data/hp150275/u10028/POT_KKJUS'
outdir = './data'
tprnfor = .true.
nstep = 50
disk_io = 'non'
/
&SYSTEM
ibrav = 0
ecutwfc = 50.0
ecutrho = 400
occupations = 'smearing'
smearing = 'mp'
degauss = 0.01
assume_isolated = 'esm'
esm_bc = 'bc1'
input_dft = 'BEEF-VDW'
nosym = .true.
nspin = 1
ntyp = 4
nat = 34
/
&ELECTRONS
electron_maxstep = 200
mixing_beta = 0.1
conv_thr = 1e-06
/
&IONS
ion_dynamics = 'bfgs'
upscale = 1.0
/
&CELL
/

K_POINTS {automatic}
8 6 1 0 0 0

ATOMIC_SPECIES
C 12.01 C.pbe-n-rrkjus_psl.1.0.0.UPF
O 15.99 O.pbe-n-rrkjus_psl.1.0.0.UPF
Rh 102.9 Rh.pbe-spn-rrkjus_psl.1.0.0.UPF
Si 28.08 Si.pbe-nl-rrkjus_psl.1.0.0.UPF

CELL_PARAMETERS {angstrom}
5.95743000 0.00000000 0.00000000
0.00000000 8.42507000 0.00000000
0.00000000 0.00000000 26.31880000

ATOMIC_POSITIONS {angstrom}
Si 1.48935750 2.10626750 -3.159308750000001 0 0 0
Si 1.48935750 0.00000000 -1.05301519 0 0 0
Si 1.47511924 2.10626750 1.13749854
Si 1.53362120 4.24042198 3.17325772
Si 1.48935750 6.31880250 -3.159308750000001 0 0 0
Si 1.48935750 4.21253500 -1.05301519 0 0 0
Si 1.47988519 6.31880250 1.09512527
Si 1.53356163 8.39709877 3.17325772
Si 4.46807250 2.10626750 -3.159308750000001 0 0 0
Si 4.46807250 0.00000000 -1.05301519 0 0 0
Si 4.48231076 2.10626750 1.13749854
Si 4.42386837 4.24042198 3.17325772
Si 4.46807250 6.31880250 -3.159308750000001 0 0 0
Si 4.46807250 4.21253500 -1.05301519 0 0 0
Si 4.47754481 6.31880250 1.09512527
Si 4.42386837 8.39709877 3.17325772
Rh 0.00000000 0.00000000 -3.159308750000001 0 0 0
Rh 0.00000000 2.10626750 -1.05301519 0 0 0
Rh 0.00005957 0.11677147 1.10407366
Rh 0.00000000 2.10593050 3.42855008
Rh 0.00000000 4.21253500 -3.159308750000001 0 0 0
Rh 0.00000000 6.31880250 -1.05301519 0 0 0
Rh 0.00000000 4.09584778 1.10381047
Rh 0.00000000 6.31897100 3.00797565
Rh 2.97871500 0.00000000 -3.159308750000001 0 0 0
Rh 2.97871500 2.10626750 -1.05301519 0 0 0
Rh 2.97871500 8.41959370 0.97616429
Rh 2.97871500 2.10609900 2.97455078
Rh 2.97871500 4.21253500 -3.159308750000001 0 0 0
Rh 2.97871500 6.31880250 -1.05301519 0 0 0
Rh 2.97871500 4.21826405 0.97616429
Rh 2.97871500 6.31880250 3.00323827
C 0.00000000 2.10618325 5.31981904
O 0.00000000 2.10626750 6.46995060
