&CONTROL
calculation = 'relax'
prefix = 'scf'
pseudo_dir = '/vol0004/mdt0/data/hp150275/u10028/POT_KKJUS'
outdir = './data'
tprnfor = .true.
nstep = 50
disk_io = 'non'
/
&SYSTEM
ibrav = 0
ecutwfc = 50.0
ecutrho = 400
occupations = 'smearing'
smearing = 'mp'
degauss = 0.01
assume_isolated = 'esm'
esm_bc = 'bc1'
input_dft = 'BEEF-VDW'
nosym = .true.
nspin = 1
ntyp = 5
nat = 34
/
&ELECTRONS
electron_maxstep = 200
mixing_beta = 0.1
conv_thr = 1e-06
/
&IONS
ion_dynamics = 'bfgs'
upscale = 1.0
/
&CELL
/

K_POINTS {automatic}
8 6 1 0 0 0

ATOMIC_SPECIES
Al 26.98 Al.pbe-nl-rrkjus_psl.1.0.0.UPF
C 12.01 C.pbe-n-rrkjus_psl.1.0.0.UPF
Ni 58.69 Ni.pbe-spn-rrkjus_psl.1.0.0.UPF
O 15.99 O.pbe-n-rrkjus_psl.1.0.0.UPF
Zr 91.22 Zr.pbe-spn-rrkjus_psl.1.0.0.UPF

CELL_PARAMETERS {angstrom}
6.14888000 0.00000000 0.00000000
0.00000000 8.69583000 0.00000000
0.00000000 0.00000000 26.52190000

ATOMIC_POSITIONS {angstrom}
Zr 0.00000000 0.00000000 -3.2608676099999983 0 0 0
Zr 3.07444000 2.17395750 -1.086867459999997 0 0 0
Zr 3.07444000 6.52187250 -1.086867459999997 0 0 0
Zr 0.00000000 4.34791500 -3.2608676099999983 0 0 0
Zr 0.00000000 4.36348054 1.05636728
Zr 3.07444000 6.52187250 3.41840769
Zr 3.07444000 2.17387054 3.39665973
Zr 0.00000000 8.68017751 1.05636728
Al 0.00000000 6.52187250 -1.086867459999997 0 0 0
Al 3.07444000 0.00000000 -3.2608676099999983 0 0 0
Al 0.00000000 2.17395750 -1.086867459999997 0 0 0
Al 3.07444000 4.34791500 -3.2608676099999983 0 0 0
Al 0.00000000 2.17395750 3.17254968
Al 3.07444000 4.33887134 1.15078524
Al 0.00000000 6.52178554 3.19005413
Al 3.07444000 0.00904366 1.15105046
Ni 1.53722000 0.00000000 -1.086867459999997 0 0 0
Ni 4.61166000 4.34791500 -1.086867459999997 0 0 0
Ni 4.61166000 0.00000000 -1.086867459999997 0 0 0
Ni 1.53722000 4.34791500 -1.086867459999997 0 0 0
Ni 4.61166000 6.52187250 -3.2608676099999983 0 0 0
Ni 1.53722000 2.17395750 -3.2608676099999983 0 0 0
Ni 1.53722000 6.52187250 -3.2608676099999983 0 0 0
Ni 4.61166000 2.17395750 -3.2608676099999983 0 0 0
Ni 1.45648521 4.35495862 3.13435814
Ni 4.69257926 8.68869942 3.13488858
Ni 4.69239479 4.35495862 3.13435814
Ni 1.45636223 8.68869942 3.13488858
Ni 4.53104818 2.17387054 1.12903728
Ni 1.67667660 6.52187250 1.19746379
Ni 1.61789331 2.17395750 1.12903728
Ni 4.47220340 6.52187250 1.19746379
C 3.07444000 2.17395750 5.74782617
O 3.07444000 2.17395750 6.89489834
