&CONTROL
calculation = 'relax'
prefix = 'scf'
pseudo_dir = '/vol0004/mdt0/data/hp150275/u10028/POT_KKJUS'
outdir = './data'
tprnfor = .true.
nstep = 50
disk_io = 'non'
/
&SYSTEM
ibrav = 0
ecutwfc = 50.0
ecutrho = 400
occupations = 'smearing'
smearing = 'mp'
degauss = 0.01
assume_isolated = 'esm'
esm_bc = 'bc1'
input_dft = 'BEEF-VDW'
nosym = .true.
nspin = 1
ntyp = 4
nat = 17
/
&ELECTRONS
electron_maxstep = 200
mixing_beta = 0.1
conv_thr = 1e-06
/
&IONS
ion_dynamics = 'bfgs'
upscale = 1.0
/
&CELL
/

K_POINTS {automatic}
10 10 2 0  0  0

ATOMIC_SPECIES
Al 26.98 Al.pbe-nl-rrkjus_psl.1.0.0.UPF
C 12.01 C.pbe-n-rrkjus_psl.1.0.0.UPF
Li 6.941 Li.pbe-sl-rrkjus_psl.1.0.0.UPF
Pd 106.4 Pd.pbe-n-rrkjus_psl.1.0.0.UPF

CELL_PARAMETERS {angstrom}
6.13337000 0.00000000 0.00000000
0.00000000 6.13337000 0.00000000
0.00000000 0.00000000 24.60000000

ATOMIC_POSITIONS {angstrom}
Li 0.00000000 0.00000000 -0.7667820000000027 0 0 0
Li 3.06748234 6.13152999 2.76971400
Li 0.00184001 3.06588766 2.76971400
Li 3.06668500 3.06668500 -0.7667820000000027 0 0 0
Li 1.53499851 1.53555051 0.79950000
Li 1.53334250 4.60002750 -2.3001000000000005 0 0 0
Li 4.59781949 4.59837149 0.79950000
Li 4.60002750 1.53334250 -2.3001000000000005 0 0 0
Al 5.96494766 0.16842234 2.46762600
Al 3.24259005 2.89077995 2.46811800
Al 3.06668500 0.00000000 -0.7667820000000027 0 0 0
Al 0.00000000 3.06668500 -0.7667820000000027 0 0 0
Pd 1.53334250 1.53334250 -2.3001000000000005 0 0 0
Pd 1.53395584 4.59941416 1.06321200
Pd 4.60002750 4.60002750 -2.3001000000000005 0 0 0
Pd 4.60156084 1.53180916 0.58523400
C 4.60419819 1.52917181 2.84154600
