&CONTROL
calculation = 'relax'
prefix = 'scf'
pseudo_dir = '/vol0004/mdt0/data/hp150275/u10028/POT_KKJUS'
outdir = './data'
tprnfor = .true.
nstep = 50
disk_io = 'non'
/
&SYSTEM
ibrav = 0
ecutwfc = 50.0
ecutrho = 400
occupations = 'smearing'
smearing = 'mp'
degauss = 0.01
assume_isolated = 'esm'
esm_bc = 'bc1'
input_dft = 'BEEF-VDW'
nosym = .true.
nspin = 1
ntyp = 5
nat = 34
/
&ELECTRONS
electron_maxstep = 200
mixing_beta = 0.1
conv_thr = 1e-06
/
&IONS
ion_dynamics = 'bfgs'
upscale = 1.0
/
&CELL
/

K_POINTS {automatic}
9 6 2 0  0  0

ATOMIC_SPECIES
Al 26.98 Al.pbe-nl-rrkjus_psl.1.0.0.UPF
C 12.01 C.pbe-n-rrkjus_psl.1.0.0.UPF
Ni 58.69 Ni.pbe-spn-rrkjus_psl.1.0.0.UPF
O 15.99 O.pbe-n-rrkjus_psl.1.0.0.UPF
Sc 44.95 Sc.pbe-spn-rrkjus_psl.1.0.0.UPF

CELL_PARAMETERS {angstrom}
6.08368000 0.00000000 0.00000000
0.00000000 8.60362000 0.00000000
0.00000000 0.00000000 26.45270000

ATOMIC_POSITIONS {angstrom}
Sc 0.00000000 0.00000000 -3.226435819999999 0 0 0
Sc 3.04184000 2.15090500 -1.075566779999999 0 0 0
Sc 3.04184000 6.45271500 -1.075566779999999 0 0 0
Sc 0.00000000 4.30181000 -3.226435819999999 0 0 0
Sc 0.00000000 4.31075776 1.01763537
Sc 3.04184000 6.45271500 3.36689966
Sc 3.04184000 2.15090500 3.37219020
Sc 0.00000000 8.59467224 1.01763537
Al 0.00000000 6.45271500 -1.075566779999999 0 0 0
Al 3.04184000 0.00000000 -3.226435819999999 0 0 0
Al 0.00000000 2.15090500 -1.075566779999999 0 0 0
Al 3.04184000 4.30181000 -3.226435819999999 0 0 0
Al 0.00000000 2.15099104 3.16506555
Al 3.04184000 4.29871270 1.13905326
Al 0.00000000 6.45271500 3.14072907
Al 3.04184000 0.00309730 1.13905326
Ni 1.52092000 0.00000000 -1.075566779999999 0 0 0
Ni 4.56276000 4.30181000 -1.075566779999999 0 0 0
Ni 4.56276000 0.00000000 -1.075566779999999 0 0 0
Ni 1.52092000 4.30181000 -1.075566779999999 0 0 0
Ni 4.56276000 6.45271500 -3.226435819999999 0 0 0
Ni 1.52092000 2.15090500 -3.226435819999999 0 0 0
Ni 1.52092000 6.45271500 -3.226435819999999 0 0 0
Ni 4.56276000 2.15090500 -3.226435819999999 0 0 0
Ni 1.39857720 4.31703841 3.06507435
Ni 4.68516364 8.58847763 3.06507435
Ni 4.68510280 4.31695237 3.06507435
Ni 1.39857720 8.58847763 3.06507435
Ni 4.48981668 2.15090500 1.14090495
Ni 1.60797746 6.45271500 1.11921374
Ni 1.59380249 2.15090500 1.14090495
Ni 4.47570254 6.45271500 1.11921374
C 0.00006084 2.15090500 5.16436062
O 0.00000000 2.15090500 6.32431152
