&CONTROL
calculation = 'relax'
prefix = 'scf'
pseudo_dir = '/vol0004/mdt0/data/hp150275/u10028/POT_KKJUS'
outdir = './data'
tprnfor = .true.
nstep = 50
disk_io = 'non'
/
&SYSTEM
ibrav = 0
ecutwfc = 50.0
ecutrho = 400
occupations = 'smearing'
smearing = 'mp'
degauss = 0.01
assume_isolated = 'esm'
esm_bc = 'bc1'
input_dft = 'BEEF-VDW'
nosym = .true.
nspin = 1
ntyp = 4
nat = 17
/
&ELECTRONS
electron_maxstep = 200
mixing_beta = 0.1
conv_thr = 1e-06
/
&IONS
ion_dynamics = 'bfgs'
upscale = 1.0
/
&CELL
/

K_POINTS {automatic}
8 8 1 0 0 0

ATOMIC_SPECIES
Au 196.9 Au.pbe-n-rrkjus_psl.1.0.0.UPF
C 12.01 C.pbe-n-rrkjus_psl.1.0.0.UPF
Li 6.941 Li.pbe-sl-rrkjus_psl.1.0.0.UPF
Sn 118.7 Sn.pbe-dn-rrkjus_psl.1.0.0.UPF

CELL_PARAMETERS {angstrom}
6.60404000 0.00000000 0.00000000
0.00000000 6.60404000 0.00000000
0.00000000 0.00000000 24.95300000

ATOMIC_POSITIONS {angstrom}
Li 0.00000000 0.00000000 0.65526578
Li 3.30202000 0.00000000 -2.4765852499999994 0 0 0
Li 0.00000000 3.30202000 -2.4765852499999994 0 0 0
Li 3.30202000 3.30202000 0.92650489
Li 1.50222098 1.50222098 3.12810808
Li 1.65101000 4.95303000 -0.8254452400000005 0 0 0
Li 5.10175298 5.10175298 3.12810808
Li 4.95303000 1.65101000 -0.8254452400000005 0 0 0
Sn 0.00000000 0.00000000 -2.4765852499999994 0 0 0
Sn 3.30202000 3.30202000 -2.4765852499999994 0 0 0
Sn 3.30202000 0.00000000 0.99038457
Sn 0.00000000 3.30202000 0.99038457
Au 1.65101000 1.65101000 -0.8254452400000005 0 0 0
Au 1.32027968 5.28376032 2.45787050
Au 4.95303000 4.95303000 -0.8254452400000005 0 0 0
Au 5.28376032 1.32027968 2.45787050
C 0.00006604 0.00006604 3.32199289
