&CONTROL
calculation = 'relax'
prefix = 'scf'
pseudo_dir = '/vol0004/mdt0/data/hp150275/u10028/POT_KKJUS'
outdir = './data'
tprnfor = .true.
nstep = 50
disk_io = 'non'
/
&SYSTEM
ibrav = 0
ecutwfc = 50.0
ecutrho = 400
occupations = 'smearing'
smearing = 'mp'
degauss = 0.01
assume_isolated = 'esm'
esm_bc = 'bc1'
input_dft = 'BEEF-VDW'
nosym = .true.
nspin = 1
ntyp = 3
nat = 33
/
&ELECTRONS
electron_maxstep = 200
mixing_beta = 0.1
conv_thr = 1e-06
/
&IONS
ion_dynamics = 'bfgs'
upscale = 1.0
/
&CELL
/

K_POINTS {automatic}
9 6 2 0  0  0

ATOMIC_SPECIES
Al 26.98 Al.pbe-nl-rrkjus_psl.1.0.0.UPF
C 12.01 C.pbe-n-rrkjus_psl.1.0.0.UPF
Pt 195.0 Pt.pbe-n-rrkjus_psl.1.0.0.UPF

CELL_PARAMETERS {angstrom}
6.19423000 0.00000000 0.00000000
0.00000000 8.75996000 0.00000000
0.00000000 0.00000000 26.57000000

ATOMIC_POSITIONS {angstrom}
Al 0.00000000 0.00000000 -3.285114799999999 0 0 0
Al 0.00000000 2.18999000 -1.0949497000000008 0 0 0
Al 0.00000000 0.00000000 1.20441810
Al 0.00000000 2.15643935 3.38501800
Al 0.00000000 4.37998000 -3.285114799999999 0 0 0
Al 0.00000000 6.56997000 -1.0949497000000008 0 0 0
Al 0.00000000 4.37998000 1.09521540
Al 0.00000000 6.60352065 3.38501800
Al 3.09711500 0.00000000 -3.285114799999999 0 0 0
Al 3.09711500 2.18999000 -1.0949497000000008 0 0 0
Al 3.09711500 0.00000000 1.06014300
Al 3.09711500 2.26436206 3.29069450
Al 3.09711500 4.37998000 -3.285114799999999 0 0 0
Al 3.09711500 6.56997000 -1.0949497000000008 0 0 0
Al 3.09711500 4.37998000 1.11779990
Al 3.09711500 6.49559794 3.29069450
Pt 1.54855750 2.18999000 -3.285114799999999 0 0 0
Pt 1.54855750 0.00000000 -1.0949497000000008 0 0 0
Pt 1.51913491 2.19550877 1.03383870
Pt 1.51857743 4.37998000 3.18361740
Pt 1.54855750 6.56997000 -3.285114799999999 0 0 0
Pt 1.54855750 4.37998000 -1.0949497000000008 0 0 0
Pt 1.51913491 6.56445123 1.03383870
Pt 1.78189414 0.00000000 3.28591190
Pt 4.64567250 2.18999000 -3.285114799999999 0 0 0
Pt 4.64567250 0.00000000 -1.0949497000000008 0 0 0
Pt 4.67509509 2.19550877 1.03383870
Pt 4.67565257 4.37998000 3.18361740
Pt 4.64567250 6.56997000 -3.285114799999999 0 0 0
Pt 4.64567250 4.37998000 -1.0949497000000008 0 0 0
Pt 4.67509509 6.56445123 1.03383870
Pt 4.41233586 0.00000000 3.28591190
C 0.00000000 0.00000000 4.03199750
