&CONTROL
calculation = 'relax'
prefix = 'scf'
pseudo_dir = '/vol0004/mdt0/data/hp150275/u10028/POT_KKJUS'
outdir = './data'
tprnfor = .true.
nstep = 50
disk_io = 'non'
/
&SYSTEM
ibrav = 0
ecutwfc = 50.0
ecutrho = 400
occupations = 'smearing'
smearing = 'mp'
degauss = 0.01
assume_isolated = 'esm'
esm_bc = 'bc1'
input_dft = 'BEEF-VDW'
nosym = .true.
nspin = 1
ntyp = 3
nat = 33
/
&ELECTRONS
electron_maxstep = 200
mixing_beta = 0.1
conv_thr = 1e-06
/
&IONS
ion_dynamics = 'bfgs'
upscale = 1.0
/
&CELL
/

K_POINTS {automatic}
8 6 2 0  0  0

ATOMIC_SPECIES
C 12.01 C.pbe-n-rrkjus_psl.1.0.0.UPF
Ca 40.07 Ca.pbe-spn-rrkjus_psl.1.0.0.UPF
In 114.8 In.pbe-dn-rrkjus_psl.1.0.0.UPF

CELL_PARAMETERS {angstrom}
8.11767000 0.00000000 0.00000000
0.00000000 11.48010000 0.00000000
0.00000000 0.00000000 28.61010000

ATOMIC_POSITIONS {angstrom}
Ca 2.02941750 0.00000000 -1.4350826199999993 0 0 0
Ca 6.08825250 5.74005000 -1.4350826199999993 0 0 0
Ca 6.08825250 0.00000000 -1.4350826199999993 0 0 0
Ca 2.02941750 5.74005000 -1.4350826199999993 0 0 0
Ca 6.08825250 8.61007500 -4.30496175 0 0 0
Ca 2.02941750 2.87002500 -4.30496175 0 0 0
Ca 2.02941750 8.61007500 -4.30496175 0 0 0
Ca 6.08825250 2.87002500 -4.30496175 0 0 0
Ca 0.00000000 8.61007500 -1.4350826199999993 0 0 0
Ca 4.05883500 0.00000000 -4.30496175 0 0 0
Ca 0.00000000 2.87002500 -1.4350826199999993 0 0 0
Ca 4.05883500 5.74005000 -4.30496175 0 0 0
Ca 2.04938697 5.28865247 4.43513770
Ca 6.12039847 11.13431939 4.34301318
Ca 6.12023612 6.08594541 4.34329928
Ca 2.04938697 0.45151233 4.43542380
Ca 6.18623278 2.87002500 1.52606273
Ca 1.84522757 8.60996020 1.55696164
Ca 1.73799315 2.87002500 1.83276301
Ca 6.22300582 8.61007500 1.55352843
Ca 7.86740223 2.87002500 5.16927287
Ca 4.03310199 5.76668383 1.49430552
Ca 0.74674446 8.61007500 5.16784236
Ca 4.03285846 11.45335137 1.49430552
In 0.00000000 0.00000000 -4.30496175 0 0 0
In 4.05883500 2.87002500 -1.4350826199999993 0 0 0
In 4.05883500 8.61007500 -1.4350826199999993 0 0 0
In 0.00000000 5.74005000 -4.30496175 0 0 0
In 8.07943577 5.76760224 1.27314945
In 3.94835351 8.61018980 3.95849344
In 4.23994022 2.87013980 4.01971905
In 8.07959813 11.45254776 1.27314945
C 1.91585130 2.87013980 4.28779569
