&CONTROL
calculation = 'relax'
prefix = 'scf'
pseudo_dir = '/vol0004/mdt0/data/hp150275/u10028/POT_KKJUS'
outdir = './data'
tprnfor = .true.
nstep = 50
disk_io = 'non'
/
&SYSTEM
ibrav = 0
ecutwfc = 50.0
ecutrho = 400
occupations = 'smearing'
smearing = 'mp'
degauss = 0.01
assume_isolated = 'esm'
esm_bc = 'bc1'
input_dft = 'BEEF-VDW'
nosym = .true.
nspin = 1
ntyp = 3
nat = 33
/
&ELECTRONS
electron_maxstep = 200
mixing_beta = 0.1
conv_thr = 1e-06
/
&IONS
ion_dynamics = 'bfgs'
upscale = 1.0
/
&CELL
/

K_POINTS {automatic}
6 6 1 0 0 0

ATOMIC_SPECIES
Al 26.98 Al.pbe-nl-rrkjus_psl.1.0.0.UPF
C 12.01 C.pbe-n-rrkjus_psl.1.0.0.UPF
Y 88.90 Y.pbe-spn-rrkjus_psl.1.0.0.UPF

CELL_PARAMETERS {angstrom}
8.49845000 0.00000000 0.00000000
0.00000000 8.49845000 0.00000000
0.00000000 0.00000000 26.37380000

ATOMIC_POSITIONS {angstrom}
Y 0.00000000 0.00000000 -3.18700999 0 0 0
Y 8.45196348 8.45145357 1.14752404
Y 0.00000000 4.24922500 -3.18700999 0 0 0
Y 8.45196348 4.29622143 1.14752404
Y 4.24922500 0.00000000 -3.18700999 0 0 0
Y 4.29571152 8.45145357 1.14752404
Y 4.24922500 4.24922500 -3.18700999 0 0 0
Y 4.29571152 4.29622143 1.14778778
Al 0.00000000 2.12461250 -1.0623366599999997 0 0 0
Al 2.12461250 0.00000000 -1.0623366599999997 0 0 0
Al 2.12461250 2.12461250 -3.18700999 0 0 0
Al 0.20132828 2.12461250 3.41382467
Al 2.12461250 0.20124330 3.41382467
Al 2.12461250 2.12461250 1.33161316
Al 0.00000000 6.37383750 -1.0623366599999997 0 0 0
Al 2.12461250 4.24922500 -1.0623366599999997 0 0 0
Al 2.12461250 6.37383750 -3.18700999 0 0 0
Al 0.65659025 6.37383750 3.25769178
Al 2.12461250 4.04798170 3.41382467
Al 2.12461250 6.37383750 0.79675250
Al 4.24922500 2.12461250 -1.0623366599999997 0 0 0
Al 6.37383750 0.00000000 -1.0623366599999997 0 0 0
Al 6.37383750 2.12461250 -3.18700999 0 0 0
Al 4.04789672 2.12461250 3.41382467
Al 6.37383750 0.65667523 3.25795551
Al 6.37383750 2.12461250 0.79675250
Al 4.24922500 6.37383750 -1.0623366599999997 0 0 0
Al 6.37383750 4.24922500 -1.0623366599999997 0 0 0
Al 6.37383750 6.37383750 -3.18700999 0 0 0
Al 3.59263475 6.37383750 3.25769178
Al 6.37383750 3.59254977 3.25795551
Al 6.37383750 6.37383750 2.19667380
C 2.12461250 2.12461250 4.07554331
