&CONTROL
calculation = 'relax'
prefix = 'scf'
pseudo_dir = '/vol0004/mdt0/data/hp150275/u10028/POT_KKJUS'
outdir = './data'
tprnfor = .true.
nstep = 50
disk_io = 'non'
/
&SYSTEM
ibrav = 0
ecutwfc = 50.0
ecutrho = 400
occupations = 'smearing'
smearing = 'mp'
degauss = 0.01
assume_isolated = 'esm'
esm_bc = 'bc1'
input_dft = 'BEEF-VDW'
nosym = .true.
nspin = 1
ntyp = 5
nat = 34
/
&ELECTRONS
electron_maxstep = 200
mixing_beta = 0.1
conv_thr = 1e-06
/
&IONS
ion_dynamics = 'bfgs'
upscale = 1.0
/
&CELL
/

K_POINTS {automatic}
9 6 2 0  0  0

ATOMIC_SPECIES
C 12.01 C.pbe-n-rrkjus_psl.1.0.0.UPF
In 114.8 In.pbe-dn-rrkjus_psl.1.0.0.UPF
O 15.99 O.pbe-n-rrkjus_psl.1.0.0.UPF
Pd 106.4 Pd.pbe-n-rrkjus_psl.1.0.0.UPF
Y 88.90 Y.pbe-spn-rrkjus_psl.1.0.0.UPF

CELL_PARAMETERS {angstrom}
6.85111000 0.00000000 0.00000000
0.00000000 9.68893000 0.00000000
0.00000000 0.00000000 27.26670000

ATOMIC_POSITIONS {angstrom}
Y 0.00000000 0.00000000 -3.633287769999999 0 0 0
Y 3.42555500 2.42223250 -1.211186810000001 0 0 0
Y 3.42555500 7.26669750 -1.211186810000001 0 0 0
Y 0.00000000 4.84446500 -3.633287769999999 0 0 0
Y 0.00000000 4.85289437 1.20546081
Y 3.42555500 7.26669750 3.65591914
Y 3.42555500 2.42223250 3.63710511
Y 0.00000000 9.68050063 1.20546081
In 0.00000000 7.26669750 -1.211186810000001 0 0 0
In 3.42555500 0.00000000 -3.633287769999999 0 0 0
In 0.00000000 2.42223250 -1.211186810000001 0 0 0
In 3.42555500 4.84446500 -3.633287769999999 0 0 0
In 0.00000000 2.42223250 3.68591251
In 3.42555500 4.84359300 1.27280956
In 0.00000000 7.26669750 3.70445386
In 3.42555500 0.00087200 1.27280956
Pd 1.71277750 0.00000000 -1.211186810000001 0 0 0
Pd 5.13833250 4.84446500 -1.211186810000001 0 0 0
Pd 5.13833250 0.00000000 -1.211186810000001 0 0 0
Pd 1.71277750 4.84446500 -1.211186810000001 0 0 0
Pd 5.13833250 7.26669750 -3.633287769999999 0 0 0
Pd 1.71277750 2.42223250 -3.633287769999999 0 0 0
Pd 1.71277750 7.26669750 -3.633287769999999 0 0 0
Pd 5.13833250 2.42223250 -3.633287769999999 0 0 0
Pd 1.60973681 4.84572456 3.52776565
Pd 5.24137319 9.68767044 3.52776565
Pd 5.24137319 4.84572456 3.52803831
Pd 1.60973681 9.68767044 3.52803831
Pd 5.08968962 2.42223250 1.25508620
Pd 1.77231365 7.26669750 1.27553623
Pd 1.76142038 2.42223250 1.25508620
Pd 5.07879635 7.26669750 1.27553623
C 0.00000000 2.42223250 7.83944892
O 0.00000000 2.42223250 8.97483430
