&CONTROL
calculation = 'relax'
prefix = 'scf'
pseudo_dir = '/vol0403/data/hp230205/u10028/POT_HYBRID_KKJUS_GBRV'
outdir = './data'
tprnfor = .true.
nstep = 50
disk_io = 'non'
/
&SYSTEM
ibrav = 0
ecutwfc = 50.0
ecutrho = 400
occupations = 'smearing'
smearing = 'mp'
degauss = 0.01
assume_isolated = 'esm'
esm_bc = 'bc1'
input_dft = 'BEEF-VDW'
nosym = .true.
nspin = 1
ntyp = 6
nat = 18
/
&ELECTRONS
electron_maxstep = 200
mixing_beta = 0.1
conv_thr = 1e-06
/
&IONS
ion_dynamics = 'bfgs'
upscale = 1.0
/
&CELL
/

K_POINTS {automatic}
11 7 2 0  0  0

ATOMIC_SPECIES
C 12.01 C.pbe-n-rrkjus_psl.1.0.0.UPF
Cu 63.54 Cu.pbe-dn-rrkjus_psl.1.0.0.UPF
In 114.8 In.pbe-dn-rrkjus_psl.1.0.0.UPF
O 15.99 O.pbe-n-rrkjus_psl.1.0.0.UPF
Sn 118.7 Sn.pbe-dn-rrkjus_psl.1.0.0.UPF
Y 88.90 Y.pbe-spn-rrkjus_psl.1.0.0.UPF


CELL_PARAMETERS {angstrom}
6.35598000 0.00000000 0.00000000
0.00000000 8.84740000 0.00000000
0.00000000 0.00000000 24.76400000

ATOMIC_POSITIONS {angstrom}
Y 3.17799000 0.00000000 -2.382049160000001 0 0 0
Y 6.21182637 0.00115016 0.71889892
Y 3.17799000 4.42370000 -2.382049160000001 0 0 0
Y 6.20941110 4.42246136 0.71939420
In 1.53287170 2.21185000 -0.7939338400000011 0 0 0
In 4.43266045 2.20804562 2.37313412
In 1.53287170 6.63555000 -0.7939338400000011 0 0 0
In 4.37672783 6.63979675 2.35233236
Cu 0.00000000 0.00000000 -2.382049160000001 0 0 0
Cu 2.99919628 0.00884740 0.75406380
Cu 0.00000000 4.42370000 -2.382049160000001 0 0 0
Cu 2.99773441 4.41538344 0.75406380
Sn 4.71086170 2.21185000 -0.7939338400000011 0 0 0
Sn 1.49715109 2.21397338 2.34911304
Sn 4.71086170 6.63555000 -0.7939338400000011 0 0 0
Sn 1.44592189 6.63360357 2.37263884
C 0.84115039 2.21140763 6.15707332
O 1.63056311 2.21185000 6.97478060
