&CONTROL
calculation = 'relax'
prefix = 'scf'
pseudo_dir = '/vol0403/data/hp230205/u10028/POT_HYBRID_KKJUS_GBRV'
outdir = './data'
tprnfor = .true.
nstep = 50
disk_io = 'non'
/
&SYSTEM
ibrav = 0
ecutwfc = 50.0
ecutrho = 400
occupations = 'smearing'
smearing = 'mp'
degauss = 0.01
assume_isolated = 'esm'
esm_bc = 'bc1'
input_dft = 'BEEF-VDW'
nosym = .true.
nspin = 1
ntyp = 6
nat = 34
/
&ELECTRONS
electron_maxstep = 200
mixing_beta = 0.1
conv_thr = 1e-06
/
&IONS
ion_dynamics = 'bfgs'
upscale = 1.0
/
&CELL
/

K_POINTS {automatic}
6 6 1 0 0 0

ATOMIC_SPECIES
C 12.01 C.pbe-n-rrkjus_psl.1.0.0.UPF
Cu 63.54 Cu.pbe-dn-rrkjus_psl.1.0.0.UPF
In 114.8 In.pbe-dn-rrkjus_psl.1.0.0.UPF
O 15.99 O.pbe-n-rrkjus_psl.1.0.0.UPF
Sn 118.7 Sn.pbe-dn-rrkjus_psl.1.0.0.UPF
Y 88.90 Y.pbe-spn-rrkjus_psl.1.0.0.UPF


CELL_PARAMETERS {angstrom}
9.14612000 0.00000000 0.00000000
0.00000000 8.82850000 0.00000000
0.00000000 0.00000000 26.63560000

ATOMIC_POSITIONS {angstrom}
Y 2.42683148 2.29408573 3.42267460
Y 2.28653000 2.20712500 -1.10591011 0 0 0
Y 2.42683148 6.53441427 3.42267460
Y 2.28653000 6.62137500 -1.10591011 0 0 0
Y 6.71928852 2.29408573 3.42267460
Y 6.85959000 2.20712500 -1.10591011 0 0 0
Y 6.71928852 6.53441428 3.42267460
Y 6.85959000 6.62137500 -1.10591011 0 0 0
In 0.00000000 2.22469371 1.16077945
In 0.00000000 2.20712500 -3.3177303400000007 0 0 0
In 0.00000000 6.60380628 1.16077945
In 0.00000000 6.62137500 -3.3177303400000007 0 0 0
In 4.57306000 2.14709120 1.06329315
In 4.57306000 2.20712500 -3.3177303400000007 0 0 0
In 4.57306000 6.68140880 1.06329315
In 4.57306000 6.62137500 -3.3177303400000007 0 0 0
Cu 0.00000000 0.00000000 3.02207518
Cu 0.00000000 0.00000000 -1.10591011 0 0 0
Cu 0.00000000 4.41425000 3.12701944
Cu 0.00000000 4.41425000 -1.10591011 0 0 0
Cu 4.57306000 0.00000000 3.15685131
Cu 4.57306000 0.00000000 -1.10591011 0 0 0
Cu 4.57306000 4.41425000 3.07161739
Cu 4.57306000 4.41425000 -1.10591011 0 0 0
Sn 2.23247643 0.00000000 1.20765810
Sn 2.28653000 0.00000000 -3.3177303400000007 0 0 0
Sn 2.31698658 4.41425000 1.13068122
Sn 2.28653000 4.41425000 -3.3177303400000007 0 0 0
Sn 6.91373503 0.00000000 1.20765810
Sn 6.85959000 0.00000000 -3.3177303400000007 0 0 0
Sn 6.82913342 4.41425000 1.13068122
Sn 6.85959000 4.41425000 -3.3177303400000007 0 0 0
C 0.00000000 0.00000000 4.84688013
O 0.00000000 0.00000000 6.01964560
