&CONTROL
calculation = 'relax'
prefix = 'scf'
pseudo_dir = '/vol0004/mdt0/data/hp150275/u10028/POT_HYBRID_KKJUS_GBRV'
outdir = './data'
tprnfor = .true.
nstep = 50
disk_io = 'non'
/
&SYSTEM
ibrav = 0
ecutwfc = 50.0
ecutrho = 400
occupations = 'smearing'
smearing = 'mp'
degauss = 0.01
assume_isolated = 'esm'
esm_bc = 'bc1'
input_dft = 'BEEF-VDW'
nosym = .true.
nspin = 2
ntyp = 4
nat = 34
starting_magnetization(1) = 0.0
starting_magnetization(2) = 0.001
starting_magnetization(3) = 0.0
starting_magnetization(4) = 0.0
/
&ELECTRONS
electron_maxstep = 200
mixing_beta = 0.1
conv_thr = 1e-06
/
&IONS
ion_dynamics = 'bfgs'
upscale = 1.0
/
&CELL
/

K_POINTS {automatic}
7 8 2 0  0  0

ATOMIC_SPECIES
C 12.01 C.pbe-n-rrkjus_psl.1.0.0.UPF
Ni 58.69 ni_pbe_v1.4.uspp.F.UPF
O 15.99 O.pbe-n-rrkjus_psl.1.0.0.UPF
Pt 195.0 Pt.pbe-n-rrkjus_psl.1.0.0.UPF

CELL_PARAMETERS {angstrom}
7.96875000 0.00000000 0.00000000
0.00000000 7.03042000 0.00000000
0.00000000 0.00000000 25.97660000

ATOMIC_POSITIONS {angstrom}
Ni 1.99218750 1.75760500 22.98825194
Ni 3.98437500 1.75760500 24.98039739
Ni 1.99840313 1.75760500 0.93593690
Ni 3.98429531 1.75760500 2.80962906
Ni 1.99218750 5.27281500 22.98825194
Ni 3.98437500 5.27281500 24.98039739
Ni 1.97043281 5.27281500 0.90944077
Ni 3.98429531 5.27281500 2.79508216
Ni 5.97656250 1.75760500 22.98825194
Ni 0.00000000 1.75760500 24.98039739
Ni 5.97042656 1.75760500 0.93593690
Ni 0.00007969 1.75760500 3.01951998
Ni 5.97656250 5.27281500 22.98825194
Ni 0.00000000 5.27281500 24.98039739
Ni 5.99831719 5.27281500 0.90944077
Ni 0.00000000 5.27281500 2.78105480
Pt 0.00000000 0.00000000 22.98825194
Pt 1.99218750 0.00000000 24.98039739
Pt 3.98437500 7.02992787 0.91905211
Pt 2.01195000 7.00025950 2.83612519
Pt 0.00000000 3.51521000 22.98825194
Pt 1.99218750 3.51521000 24.98039739
Pt 3.98437500 3.51563183 0.91905211
Pt 2.01195000 3.54537050 2.83612519
Pt 3.98437500 0.00000000 22.98825194
Pt 5.97656250 0.00000000 24.98039739
Pt 0.00007969 0.04640077 0.94892520
Pt 5.95680000 7.00018919 2.83612519
Pt 3.98437500 3.51521000 22.98825194
Pt 5.97656250 3.51521000 24.98039739
Pt 0.00007969 3.46880923 0.94892520
Pt 5.95680000 3.54544081 2.83612519
C 0.00000000 1.75760500 4.77008306
O 0.00000000 1.75760500 5.92136597
