&CONTROL
calculation = 'relax'
prefix = 'scf'
pseudo_dir = '/vol0004/mdt0/data/hp150275/u10028/POT_HYBRID_KKJUS_GBRV'
outdir = './data'
tprnfor = .true.
nstep = 50
disk_io = 'non'
/
&SYSTEM
ibrav = 0
ecutwfc = 50.0
ecutrho = 400
occupations = 'smearing'
smearing = 'mp'
degauss = 0.01
assume_isolated = 'esm'
esm_bc = 'bc1'
input_dft = 'BEEF-VDW'
nosym = .true.
nspin = 2
ntyp = 5
nat = 34
starting_magnetization(1) = 0.0
starting_magnetization(2) = 0.1
starting_magnetization(3) = 0.1
starting_magnetization(4) = 0.0
starting_magnetization(5) = 0.0
/
&ELECTRONS
electron_maxstep = 300
mixing_beta = 0.1
conv_thr = 1e-06
/
&IONS
ion_dynamics = 'bfgs'
upscale = 1.0
/
&CELL
/

K_POINTS {automatic}
9 6 2 0  0  0

ATOMIC_SPECIES
C 12.01 C.pbe-n-rrkjus_psl.1.0.0.UPF
Co 58.93 co_pbe_v1.2.uspp.F.UPF
Mn 54.93 mn_pbe_v1.5.uspp.F.UPF
O 15.99 O.pbe-n-rrkjus_psl.1.0.0.UPF
Sb 121.7 Sb.pbe-n-rrkjus_psl.1.0.0.UPF

CELL_PARAMETERS {angstrom}
6.03986000 0.00000000 0.00000000
0.00000000 8.54165000 0.00000000
0.00000000 0.00000000 26.40620000

ATOMIC_POSITIONS {angstrom}
Mn 0.00000000 0.00000000 -3.2030720599999967 0 0 0
Mn 3.01993000 2.13541250 -1.0676026699999994 0 0 0
Mn 3.01993000 6.40623750 -1.0676026699999994 0 0 0
Mn 0.00000000 4.27082500 -3.2030720599999967 0 0 0
Mn 0.00000000 4.27287500 1.03961209
Mn 3.01993000 6.40623750 3.18696428
Mn 3.01993000 2.13541250 3.19488614
Mn 0.00000000 8.53960000 1.03961209
Co 1.50996500 0.00000000 -1.0676026699999994 0 0 0
Co 4.52989500 4.27082500 -1.0676026699999994 0 0 0
Co 4.52989500 0.00000000 -1.0676026699999994 0 0 0
Co 1.50996500 4.27082500 -1.0676026699999994 0 0 0
Co 4.52989500 6.40623750 -3.2030720599999967 0 0 0
Co 1.50996500 2.13541250 -3.2030720599999967 0 0 0
Co 1.50996500 6.40623750 -3.2030720599999967 0 0 0
Co 4.52989500 2.13541250 -3.2030720599999967 0 0 0
Co 1.44805644 4.27227708 3.03565675
Co 4.59168277 8.54019792 3.03565675
Co 4.59180357 4.27227708 3.03565675
Co 1.44817723 8.54019792 3.03565675
Co 4.56347662 2.13524167 1.07420422
Co 1.47879932 6.40632292 1.07261984
Co 1.47638338 2.13532708 1.07420422
Co 4.56106068 6.40640833 1.07261984
Sb 0.00000000 6.40623750 -1.0676026699999994 0 0 0
Sb 3.01993000 0.00000000 -3.2030720599999967 0 0 0
Sb 0.00000000 2.13541250 -1.0676026699999994 0 0 0
Sb 3.01993000 4.27082500 -3.2030720599999967 0 0 0
Sb 0.00000000 2.13541250 3.38765140
Sb 3.01993000 4.26920209 1.05783237
Sb 0.00000000 6.40623750 3.39372482
Sb 3.01993000 0.00162291 1.05783237
C 0.00018120 2.13524167 7.42515938
O 0.00000000 2.13532708 8.55983379
