&CONTROL
calculation = 'relax'
prefix = 'scf'
pseudo_dir = '/vol0004/mdt0/data/hp150275/u10028/POT_KKJUS'
outdir = './data'
tprnfor = .true.
nstep = 50
disk_io = 'non'
/
&SYSTEM
ibrav = 0
ecutwfc = 50.0
ecutrho = 400
occupations = 'smearing'
smearing = 'mp'
degauss = 0.01
assume_isolated = 'esm'
esm_bc = 'bc1'
input_dft = 'BEEF-VDW'
nosym = .true.
nspin = 1
ntyp = 5
nat = 34
/
&ELECTRONS
electron_maxstep = 200
mixing_beta = 0.1
conv_thr = 1e-06
/
&IONS
ion_dynamics = 'bfgs'
upscale = 1.0
/
&CELL
/

K_POINTS {automatic}
9 6 2 0  0  0

ATOMIC_SPECIES
Au 196.9 Au.pbe-n-rrkjus_psl.1.0.0.UPF
C 12.01 C.pbe-n-rrkjus_psl.1.0.0.UPF
In 114.8 In.pbe-dn-rrkjus_psl.1.0.0.UPF
Li 6.941 Li.pbe-sl-rrkjus_psl.1.0.0.UPF
O 15.99 O.pbe-n-rrkjus_psl.1.0.0.UPF

CELL_PARAMETERS {angstrom}
6.60991000 0.00000000 0.00000000
0.00000000 9.34782000 0.00000000
0.00000000 0.00000000 27.01090000

ATOMIC_POSITIONS {angstrom}
Li 0.00000000 7.01086500 -1.1684915300000007 0 0 0
Li 3.30495500 0.00000000 -3.5054745999999994 0 0 0
Li 0.00000000 2.33695500 -1.1684915300000007 0 0 0
Li 3.30495500 4.67391000 -3.5054745999999994 0 0 0
Li 1.65247750 2.33695500 -3.5054745999999994 0 0 0
Li 1.65247750 7.01086500 -3.5054745999999994 0 0 0
Li 4.95743250 4.67391000 -1.1684915300000007 0 0 0
Li 4.95743250 0.00000000 -1.1684915300000007 0 0 0
Li 0.11375655 2.33695500 3.44524030
Li 3.33483179 4.61324265 0.97266251
Li 0.08910159 7.01077152 3.44307942
Li 3.33483179 0.06066735 0.97293262
Li 1.89453240 7.01086500 1.35378631
Li 1.64884205 2.33686152 1.15552630
Li 4.71511320 9.25826788 3.30910536
Li 4.71524540 4.76327516 3.30883525
In 0.00000000 0.00000000 -3.5054745999999994 0 0 0
In 3.30495500 2.33695500 -1.1684915300000007 0 0 0
In 3.30495500 7.01086500 -1.1684915300000007 0 0 0
In 0.00000000 4.67391000 -3.5054745999999994 0 0 0
In 6.55980688 4.76355559 1.11663061
In 3.17533466 7.01077152 4.15022478
In 3.27269864 2.33686152 3.71588951
In 6.55987298 9.25808093 1.11663061
Au 1.65247750 0.00000000 -1.1684915300000007 0 0 0
Au 1.65247750 4.67391000 -1.1684915300000007 0 0 0
Au 4.95743250 7.01086500 -3.5054745999999994 0 0 0
Au 4.95743250 2.33695500 -3.5054745999999994 0 0 0
Au 1.82493005 4.69793390 3.20970525
Au 1.82479785 9.32360915 3.20970525
Au 4.94566686 2.33695500 1.28193731
Au 4.74155284 7.01077152 1.44049130
C 4.08109063 2.33695500 7.14195207
O 3.11855554 2.33704848 7.74726634
