&CONTROL
calculation = 'relax'
prefix = 'scf'
pseudo_dir = '/vol0004/mdt0/data/hp150275/u10028/POT_KKJUS'
outdir = './data'
tprnfor = .true.
nstep = 50
disk_io = 'non'
/
&SYSTEM
ibrav = 0
ecutwfc = 50.0
ecutrho = 400
occupations = 'smearing'
smearing = 'mp'
degauss = 0.01
assume_isolated = 'esm'
esm_bc = 'bc1'
input_dft = 'BEEF-VDW'
nosym = .true.
nspin = 1
ntyp = 3
nat = 16
/
&ELECTRONS
electron_maxstep = 200
mixing_beta = 0.1
conv_thr = 1e-06
/
&IONS
ion_dynamics = 'bfgs'
upscale = 1.0
/
&CELL
/

K_POINTS {automatic}
10 10 2 0  0  0

ATOMIC_SPECIES
Al 26.98 Al.pbe-nl-rrkjus_psl.1.0.0.UPF
Pd 106.4 Pd.pbe-n-rrkjus_psl.1.0.0.UPF
Sc 44.95 Sc.pbe-spn-rrkjus_psl.1.0.0.UPF

CELL_PARAMETERS {angstrom}
6.41477000 0.00000000 0.00000000
0.00000000 6.41477000 0.00000000
0.00000000 0.00000000 24.81110000

ATOMIC_POSITIONS {angstrom}
Sc 6.41438511 6.41316631 2.50145510
Sc 3.20590960 3.20738500 2.49723722
Sc 3.20738500 0.00000000 -0.8018947499999989 0 0 0
Sc 0.00000000 3.20738500 -0.8018947499999989 0 0 0
Al 0.00000000 0.00000000 -0.8018947499999989 0 0 0
Al 3.20725670 0.00089807 2.28584664
Al 6.41419267 3.20751330 2.28485420
Al 3.20738500 3.20738500 -0.8018947499999989 0 0 0
Pd 1.60337176 1.60317932 0.91180792
Pd 4.81107750 4.81107750 -2.405436139999999 0 0 0
Pd 4.81017943 1.60362835 0.91205604
Pd 1.60369250 4.81107750 -2.405436139999999 0 0 0
Pd 4.80940966 4.81082091 0.91180792
Pd 1.60369250 1.60369250 -2.405436139999999 0 0 0
Pd 1.60414153 4.81082091 0.91230415
Pd 4.81107750 1.60369250 -2.405436139999999 0 0 0
