&CONTROL
calculation = 'relax'
prefix = 'scf'
pseudo_dir = '/vol0004/mdt0/data/hp150275/u10028/POT_KKJUS'
outdir = './data'
tprnfor = .true.
nstep = 50
disk_io = 'non'
/
&SYSTEM
ibrav = 0
ecutwfc = 50.0
ecutrho = 400
occupations = 'smearing'
smearing = 'mp'
degauss = 0.01
assume_isolated = 'esm'
esm_bc = 'bc1'
input_dft = 'BEEF-VDW'
nosym = .true.
nspin = 1
ntyp = 5
nat = 18
/
&ELECTRONS
electron_maxstep = 200
mixing_beta = 0.1
conv_thr = 1e-06
/
&IONS
ion_dynamics = 'bfgs'
upscale = 1.0
/
&CELL
/

K_POINTS {automatic}
8 8 1 0 0 0

ATOMIC_SPECIES
C 12.01 C.pbe-n-rrkjus_psl.1.0.0.UPF
In 114.8 In.pbe-dn-rrkjus_psl.1.0.0.UPF
Li 6.941 Li.pbe-sl-rrkjus_psl.1.0.0.UPF
O 15.99 O.pbe-n-rrkjus_psl.1.0.0.UPF
Pt 195.0 Pt.pbe-n-rrkjus_psl.1.0.0.UPF

CELL_PARAMETERS {angstrom}
6.69031000 0.00000000 0.00000000
0.00000000 6.69031000 0.00000000
0.00000000 0.00000000 25.01770000

ATOMIC_POSITIONS {angstrom}
Li 0.00000000 0.00000000 -2.50877496 0 0 0
Li 3.34515500 3.34515500 -2.50877496 0 0 0
Li 3.48304229 6.56433146 0.93115879
Li 6.56433146 3.48324300 0.93115879
In 1.67257750 1.67257750 -0.8363417100000028 0 0 0
In 5.03572943 5.03572943 2.93932957
In 5.01773250 1.67257750 -0.8363417100000028 0 0 0
In 1.67164086 5.02489113 2.70116107
In 5.01773250 5.01773250 -0.8363417100000028 0 0 0
In 1.65357702 1.65364392 2.39044123
In 1.67257750 5.01773250 -0.8363417100000028 0 0 0
In 5.02489113 1.67164086 2.70141125
Pt 6.65337949 6.65337949 0.69299029
Pt 3.34515500 0.00000000 -2.50877496 0 0 0
Pt 0.00000000 3.34515500 -2.50877496 0 0 0
Pt 3.37666636 3.37659946 0.75803631
C 1.88539626 1.88459342 5.68126949
O 1.54760251 1.54760251 6.71425033
