&CONTROL
calculation = 'relax'
prefix = 'scf'
pseudo_dir = '/vol0004/mdt0/data/hp150275/u10028/POT_KKJUS'
outdir = './data'
tprnfor = .true.
nstep = 50
disk_io = 'non'
/
&SYSTEM
ibrav = 0
ecutwfc = 50.0
ecutrho = 400
occupations = 'smearing'
smearing = 'mp'
degauss = 0.01
assume_isolated = 'esm'
esm_bc = 'bc1'
input_dft = 'BEEF-VDW'
nosym = .true.
nspin = 1
ntyp = 3
nat = 33
/
&ELECTRONS
electron_maxstep = 200
mixing_beta = 0.1
conv_thr = 1e-06
/
&IONS
ion_dynamics = 'bfgs'
upscale = 1.0
/
&CELL
/

K_POINTS {automatic}
8 8 1 0 0 0

ATOMIC_SPECIES
C 12.01 C.pbe-n-rrkjus_psl.1.0.0.UPF
Na 22.98 Na.pbe-spnl-rrkjus_psl.1.0.0.UPF
Pb 207.2 Pb.pbe-dn-rrkjus_psl.1.0.0.UPF

CELL_PARAMETERS {angstrom}
10.02390000 0.00000000 0.00000000
-0.00000000 10.02390000 0.00000000
0.00000000 0.00000000 27.51800000

ATOMIC_POSITIONS {angstrom}
Na 0.00000000 0.00000000 -3.758958800000002 0 0 0
Na 0.00000000 0.00000000 1.25289454
Na 0.00000000 5.01195000 -3.758958800000002 0 0 0
Na 0.00000000 5.01195000 1.25289454
Na 5.01195000 0.00000000 -3.758958800000002 0 0 0
Na 5.01195000 -0.00000000 1.25289454
Na 5.01195000 5.01195000 -3.758958800000002 0 0 0
Na 5.01195000 5.01195000 1.25289454
Pb 0.00000000 2.50597500 -1.2528945399999998 0 0 0
Pb 2.50597500 0.00000000 -1.2528945399999998 0 0 0
Pb 2.50597500 2.50597500 -3.758958800000002 0 0 0
Pb 0.00000000 2.50597500 3.75895880
Pb 2.50597500 -0.00000000 3.75895880
Pb 2.50597500 2.50597500 1.25289454
Pb 0.00000000 7.51792500 -1.2528945399999998 0 0 0
Pb 2.50597500 5.01195000 -1.2528945399999998 0 0 0
Pb 2.50597500 7.51792500 -3.758958800000002 0 0 0
Pb 0.00000000 7.51792500 3.75895880
Pb 2.50597500 5.01195000 3.75895880
Pb 2.50597500 7.51792500 1.25289454
Pb 5.01195000 2.50597500 -1.2528945399999998 0 0 0
Pb 7.51792500 0.00000000 -1.2528945399999998 0 0 0
Pb 7.51792500 2.50597500 -3.758958800000002 0 0 0
Pb 5.01195000 2.50597500 3.75895880
Pb 7.51792500 -0.00000000 3.75895880
Pb 7.51792500 2.50597500 1.25289454
Pb 5.01195000 7.51792500 -1.2528945399999998 0 0 0
Pb 7.51792500 5.01195000 -1.2528945399999998 0 0 0
Pb 7.51792500 7.51792500 -3.758958800000002 0 0 0
Pb 5.01195000 7.51792500 3.75895880
Pb 7.51792500 5.01195000 3.75895880
Pb 7.51792500 7.51792500 1.25289454
C 0.00000000 0.00000000 4.55890706
