&CONTROL
calculation = 'relax'
prefix = 'scf'
pseudo_dir = '/vol0004/mdt0/data/hp150275/u10028/POT_KKJUS'
outdir = './data'
tprnfor = .true.
nstep = 50
disk_io = 'non'
/
&SYSTEM
ibrav = 0
ecutwfc = 50.0
ecutrho = 400
occupations = 'smearing'
smearing = 'mp'
degauss = 0.01
assume_isolated = 'esm'
esm_bc = 'bc1'
input_dft = 'BEEF-VDW'
nosym = .true.
nspin = 1
ntyp = 4
nat = 34
/
&ELECTRONS
electron_maxstep = 200
mixing_beta = 0.1
conv_thr = 1e-06
/
&IONS
ion_dynamics = 'bfgs'
upscale = 1.0
/
&CELL
/

K_POINTS {automatic}
9 6 2 0  0  0

ATOMIC_SPECIES
Ag 107.8 Ag.pbe-n-rrkjus_psl.1.0.0.UPF
C 12.01 C.pbe-n-rrkjus_psl.1.0.0.UPF
O 15.99 O.pbe-n-rrkjus_psl.1.0.0.UPF
Sc 44.95 Sc.pbe-spn-rrkjus_psl.1.0.0.UPF

CELL_PARAMETERS {angstrom}
6.93038000 0.00000000 0.00000000
0.00000000 9.80104000 0.00000000
0.00000000 0.00000000 27.35080000

ATOMIC_POSITIONS {angstrom}
Sc 1.73259500 2.45026000 -3.6754004999999985 0 0 0
Sc 1.73259500 0.00000000 -1.2250423300000008 0 0 0
Sc 1.71416019 2.45035801 1.21601657
Sc 1.75775228 9.78173195 3.60565596
Sc 1.73259500 7.35078000 -3.6754004999999985 0 0 0
Sc 1.73259500 4.90052000 -1.2250423300000008 0 0 0
Sc 1.74188171 7.35068199 1.22230725
Sc 1.75782158 4.91982805 3.60565596
Sc 5.19778500 2.45026000 -3.6754004999999985 0 0 0
Sc 5.19778500 0.00000000 -1.2250423300000008 0 0 0
Sc 5.21621981 2.45035801 1.21601657
Sc 5.17262772 9.78173195 3.60565596
Sc 5.19778500 7.35078000 -3.6754004999999985 0 0 0
Sc 5.19778500 4.90052000 -1.2250423300000008 0 0 0
Sc 5.18849829 7.35068199 1.22230725
Sc 5.17255842 4.91992606 3.60565596
Ag 0.00000000 0.00000000 -3.6754004999999985 0 0 0
Ag 0.00000000 2.45026000 -1.2250423300000008 0 0 0
Ag 0.00000000 9.77830159 1.22750390
Ag 0.00000000 2.44986796 3.61632278
Ag 0.00000000 4.90052000 -3.6754004999999985 0 0 0
Ag 0.00000000 7.35078000 -1.2250423300000008 0 0 0
Ag 0.00000000 4.92335642 1.22695689
Ag 0.00000000 7.35117204 3.53290284
Ag 3.46519000 0.00000000 -3.6754004999999985 0 0 0
Ag 3.46519000 2.45026000 -1.2250423300000008 0 0 0
Ag 3.46519000 0.01528962 1.20835834
Ag 3.46519000 2.44986796 3.52059498
Ag 3.46519000 4.90052000 -3.6754004999999985 0 0 0
Ag 3.46519000 7.35078000 -1.2250423300000008 0 0 0
Ag 3.46519000 4.88513237 1.20808484
Ag 3.46512070 7.35117204 3.55095436
C 0.00000000 2.44986796 5.80083117
O 0.00000000 2.45026000 6.95585546
