&CONTROL
calculation = 'relax'
prefix = 'scf'
pseudo_dir = '/vol0004/mdt0/data/hp150275/u10028/POT_HYBRID_KKJUS_GBRV'
outdir = './data'
tprnfor = .true.
nstep = 50
disk_io = 'non'
/
&SYSTEM
ibrav = 0
ecutwfc = 50.0
ecutrho = 400
occupations = 'smearing'
smearing = 'mp'
degauss = 0.01
assume_isolated = 'esm'
esm_bc = 'bc1'
input_dft = 'BEEF-VDW'
nosym = .true.
nspin = 2
ntyp = 5
nat = 34
starting_magnetization(1) = 0.0
starting_magnetization(2) = 0.0
starting_magnetization(3) = 0.001
starting_magnetization(4) = 0.0
starting_magnetization(5) = 0.0
/
&ELECTRONS
electron_maxstep = 200
mixing_beta = 0.1
conv_thr = 1e-06
/
&IONS
ion_dynamics = 'bfgs'
upscale = 1.0
/
&CELL
/

K_POINTS {automatic}
9 6 2 0  0  0

ATOMIC_SPECIES
C 12.01 C.pbe-n-rrkjus_psl.1.0.0.UPF
Ga 69.72 Ga.pbe-dnl-rrkjus_psl.1.0.0.UPF
Ni 58.69 ni_pbe_v1.4.uspp.F.UPF
O 15.99 O.pbe-n-rrkjus_psl.1.0.0.UPF
V 50.94 V.pbe-spnl-rrkjus_psl.1.0.0.UPF

CELL_PARAMETERS {angstrom}
5.82350000 0.00000000 0.00000000
0.00000000 8.23567000 0.00000000
0.00000000 0.00000000 26.17680000

ATOMIC_POSITIONS {angstrom}
V 0.00000000 0.00000000 23.08846114
V 2.91175000 2.05891750 25.14726646
V 2.91175000 6.17675250 25.14726646
V 0.00000000 4.11783500 23.08846114
V 5.78302668 4.11767029 1.04288371
V 2.86120202 6.19355327 3.03048814
V 2.86160967 2.04335208 3.02760869
V 0.01770344 8.23484643 1.09261963
Ga 0.00000000 6.17675250 25.14726646
Ga 2.91175000 0.00000000 23.08846114
Ga 0.00000000 2.05891750 25.14726646
Ga 2.91175000 4.11783500 23.08846114
Ga 5.78151256 2.10479018 3.18388418
Ga 2.90860531 4.11717615 0.95440613
Ga 5.78203668 6.13129160 3.18597833
Ga 2.83400628 8.23492879 1.06068394
Ni 1.45587500 0.00000000 25.14726646
Ni 4.36762500 4.11783500 25.14726646
Ni 4.36762500 0.00000000 25.14726646
Ni 1.45587500 4.11783500 25.14726646
Ni 4.36762500 6.17675250 23.08846114
Ni 1.45587500 2.05891750 23.08846114
Ni 1.45587500 6.17675250 23.08846114
Ni 4.36762500 2.05891750 23.08846114
Ni 1.51527470 4.11799971 2.93913110
Ni 4.35359036 0.00041178 2.96164315
Ni 4.22349337 4.11898799 2.98284636
Ni 1.38494477 8.23558764 3.38073372
Ni 4.35708446 2.03388106 1.04864261
Ni 1.42209870 6.15270434 1.06225454
Ni 1.42151635 2.08148324 1.06146924
Ni 4.35696799 6.19989473 1.05126029
C 1.82887018 8.23542293 5.09034053
O 2.00037225 0.00107064 6.23793144
