&CONTROL
calculation = 'relax'
prefix = 'scf'
pseudo_dir = '/vol0403/data/hp230205/u10028/POT_HYBRID_KKJUS_GBRV'
outdir = './data'
tprnfor = .true.
nstep = 70
disk_io = 'non'
/
&SYSTEM
ibrav = 0
ecutwfc = 50.0
ecutrho = 400
occupations = 'smearing'
smearing = 'mp'
degauss = 0.01
assume_isolated = 'esm'
esm_bc = 'bc1'
input_dft = 'BEEF-VDW'
nosym = .true.
nspin = 1
ntyp = 4
nat = 32
/
&ELECTRONS
electron_maxstep = 200
mixing_beta = 0.1
conv_thr = 1e-06
/
&IONS
ion_dynamics = 'bfgs'
upscale = 1.0
/
&CELL
/

K_POINTS {automatic}
6 6 1 0 0 0

ATOMIC_SPECIES
Ga 69.72 Ga.pbe-dnl-rrkjus_psl.1.0.0.UPF
Mg 24.30 Mg.pbe-spnl-rrkjus_psl.1.0.0.UPF
Pd 106.4 Pd.pbe-n-rrkjus_psl.1.0.0.UPF
Sc 44.95 Sc.pbe-spn-rrkjus_psl.1.0.0.UPF


CELL_PARAMETERS {angstrom}
6.56469000 0.00000000 0.00000000
-0.00000000 9.28388000 0.00000000
0.00000000 0.00000000 26.96290000

ATOMIC_POSITIONS {angstrom}
Mg 1.64117250 0.00000000 -1.1604832199999997 0 0 0
Mg 1.64117250 4.64194000 -1.1604832199999997 0 0 0
Mg 4.92351750 2.32097000 -3.481449650000002 0 0 0
Mg 4.92351750 6.96291000 -3.481449650000002 0 0 0
Mg 1.64117250 4.64194000 3.48144965
Mg 1.64117250 -0.00000000 3.48144965
Mg 4.92351750 6.96291000 1.16048322
Mg 4.92351750 2.32097000 1.16048322
Sc 4.92351750 0.00000000 -1.1604832199999997 0 0 0
Sc 4.92351750 4.64194000 -1.1604832199999997 0 0 0
Sc 1.64117250 2.32097000 -3.481449650000002 0 0 0
Sc 1.64117250 6.96291000 -3.481449650000002 0 0 0
Sc 4.92351750 4.64194000 3.48144965
Sc 4.92351750 -0.00000000 3.48144965
Sc 1.64117250 6.96291000 1.16048322
Sc 1.64117250 2.32097000 1.16048322
Ga 0.00000000 0.00000000 -3.481449650000002 0 0 0
Ga 0.00000000 4.64194000 -3.481449650000002 0 0 0
Ga 3.28234500 6.96291000 -1.1604832199999997 0 0 0
Ga 3.28234500 2.32097000 -1.1604832199999997 0 0 0
Ga 0.00000000 4.64194000 1.16048322
Ga 0.00000000 0.00000000 1.16048322
Ga 3.28234500 2.32097000 3.48144965
Ga 3.28234500 6.96291000 3.48144965
Pd 0.00000000 2.32097000 -1.1604832199999997 0 0 0
Pd 0.00000000 6.96291000 -1.1604832199999997 0 0 0
Pd 3.28234500 4.64194000 -3.481449650000002 0 0 0
Pd 3.28234500 0.00000000 -3.481449650000002 0 0 0
Pd 0.00000000 6.96291000 3.48144965
Pd 0.00000000 2.32097000 3.48144965
Pd 3.28234500 -0.00000000 1.16048322
Pd 3.28234500 4.64194000 1.16048322
