&CONTROL
calculation = 'relax'
prefix = 'scf'
pseudo_dir = '/vol0004/mdt0/data/hp150275/u10028/POT_KKJUS'
outdir = './data'
tprnfor = .true.
nstep = 50
disk_io = 'non'
/
&SYSTEM
ibrav = 0
ecutwfc = 50.0
ecutrho = 400
occupations = 'smearing'
smearing = 'mp'
degauss = 0.01
assume_isolated = 'esm'
esm_bc = 'bc1'
input_dft = 'BEEF-VDW'
nosym = .true.
nspin = 1
ntyp = 3
nat = 17
/
&ELECTRONS
electron_maxstep = 200
mixing_beta = 0.1
conv_thr = 1e-06
/
&IONS
ion_dynamics = 'bfgs'
upscale = 1.0
/
&CELL
/

K_POINTS {automatic}
6 8 1 0 0 0

ATOMIC_SPECIES
C 12.01 C.pbe-n-rrkjus_psl.1.0.0.UPF
In 114.8 In.pbe-dn-rrkjus_psl.1.0.0.UPF
Zr 91.22 Zr.pbe-spn-rrkjus_psl.1.0.0.UPF

CELL_PARAMETERS {angstrom}
8.97917000 0.00000000 0.00000000
0.00000000 6.34923000 0.00000000
0.00000000 0.00000000 24.76190000

ATOMIC_POSITIONS {angstrom}
Zr 0.00000000 3.17461500 -2.380856680000001 0 0 0
Zr 2.24479250 4.76192250 -0.793618900000002 0 0 0
Zr 2.24479250 1.58730750 -0.793618900000002 0 0 0
Zr 0.00000000 0.00000000 0.64504750
Zr 1.69912834 1.71086352 2.43558048
Zr 1.69912834 4.63836648 2.43558048
Zr 4.48958500 3.17461500 -2.380856680000001 0 0 0
Zr 6.73437750 4.76192250 -0.793618900000002 0 0 0
Zr 6.73437750 1.58730750 -0.793618900000002 0 0 0
Zr 4.48958500 0.00000000 0.77356176
Zr 7.27995187 1.71086352 2.43558048
Zr 7.27995187 4.63836648 2.43558048
In 0.00000000 0.00000000 -2.380856680000001 0 0 0
In 8.97908021 3.17461500 0.45140944
In 4.48958500 0.00000000 -2.380856680000001 0 0 0
In 4.48958500 3.17461500 1.02266647
C 0.00000000 3.17461500 2.85257088
