&CONTROL
calculation = 'relax'
prefix = 'scf'
pseudo_dir = '/vol0004/mdt0/data/hp150275/u10028/POT_KKJUS'
outdir = './data'
tprnfor = .true.
nstep = 50
disk_io = 'non'
/
&SYSTEM
ibrav = 0
ecutwfc = 50.0
ecutrho = 400
occupations = 'smearing'
smearing = 'mp'
degauss = 0.01
assume_isolated = 'esm'
esm_bc = 'bc1'
input_dft = 'BEEF-VDW'
nosym = .true.
nspin = 1
ntyp = 4
nat = 33
/
&ELECTRONS
electron_maxstep = 200
mixing_beta = 0.1
conv_thr = 1e-06
/
&IONS
ion_dynamics = 'bfgs'
upscale = 1.0
/
&CELL
/

K_POINTS {automatic}
9 6 2 0  0  0

ATOMIC_SPECIES
Ag 107.8 Ag.pbe-n-rrkjus_psl.1.0.0.UPF
C 12.01 C.pbe-n-rrkjus_psl.1.0.0.UPF
Li 6.941 Li.pbe-sl-rrkjus_psl.1.0.0.UPF
Sn 118.7 Sn.pbe-dn-rrkjus_psl.1.0.0.UPF

CELL_PARAMETERS {angstrom}
6.59455000 0.00000000 0.00000000
0.00000000 9.32610000 0.00000000
0.00000000 0.00000000 26.99460000

ATOMIC_POSITIONS {angstrom}
Li 1.64863750 0.00000000 -1.1658967699999998 0 0 0
Li 4.94591250 4.66305000 -1.1658967699999998 0 0 0
Li 4.94591250 0.00000000 -1.1658967699999998 0 0 0
Li 1.64863750 4.66305000 -1.1658967699999998 0 0 0
Li 4.94591250 6.99457500 -3.4974203799999977 0 0 0
Li 1.64863750 2.33152500 -3.4974203799999977 0 0 0
Li 1.64863750 6.99457500 -3.4974203799999977 0 0 0
Li 4.94591250 2.33152500 -3.4974203799999977 0 0 0
Li 1.52986965 4.66305000 3.51118762
Li 4.62014173 0.00000000 3.59379110
Li 5.06468035 4.66305000 3.51118762
Li 1.97440827 0.00000000 3.59379110
Li 5.02649790 2.34019827 1.18722251
Li 1.56805210 6.98599499 1.18722251
Li 1.56805210 2.34010501 1.18722251
Li 5.02649790 6.98599499 1.18722251
Ag 0.00000000 0.00000000 -3.4974203799999977 0 0 0
Ag 3.29727500 2.33152500 -1.1658967699999998 0 0 0
Ag 3.29727500 6.99457500 -1.1658967699999998 0 0 0
Ag 0.00000000 4.66305000 -3.4974203799999977 0 0 0
Ag 0.00000000 4.66305000 1.02930410
Ag 3.29727500 6.89944878 3.26634660
Ag 3.29727500 2.42665122 3.26634660
Ag 0.00000000 0.00000000 1.34622070
Sn 0.00000000 6.99457500 -1.1658967699999998 0 0 0
Sn 3.29727500 0.00000000 -3.4974203799999977 0 0 0
Sn 0.00000000 2.33152500 -1.1658967699999998 0 0 0
Sn 3.29727500 4.66305000 -3.4974203799999977 0 0 0
Sn 0.00000000 2.11357404 3.95416901
Sn 3.29727500 4.66305000 1.22825430
Sn 0.00000000 7.21252596 3.95416901
Sn 3.29727500 0.00000000 1.10866822
C 0.00000000 0.00000000 3.83485288
