&CONTROL
calculation = 'relax'
prefix = 'scf'
pseudo_dir = '/vol0004/mdt0/data/hp150275/u10028/POT_KKJUS'
outdir = './data'
tprnfor = .true.
nstep = 50
disk_io = 'non'
/
&SYSTEM
ibrav = 0
ecutwfc = 50.0
ecutrho = 400
occupations = 'smearing'
smearing = 'mp'
degauss = 0.01
assume_isolated = 'esm'
esm_bc = 'bc1'
input_dft = 'BEEF-VDW'
nosym = .true.
nspin = 1
ntyp = 2
nat = 16
/
&ELECTRONS
electron_maxstep = 200
mixing_beta = 0.1
conv_thr = 1e-06
/
&IONS
ion_dynamics = 'bfgs'
upscale = 1.0
/
&CELL
/

K_POINTS {automatic}
8 11 2 0  0  0

ATOMIC_SPECIES
Ag 107.8 Ag.pbe-n-rrkjus_psl.1.0.0.UPF
Mg 24.30 Mg.pbe-spnl-rrkjus_psl.1.0.0.UPF

CELL_PARAMETERS {angstrom}
8.43103000 0.00000000 0.00000000
0.00000000 5.96164000 0.00000000
0.00000000 0.00000000 24.47120000

ATOMIC_POSITIONS {angstrom}
Mg 0.00000000 0.00000000 2.17573439
Mg 0.00000000 2.98082000 -0.7451480400000001 0 0 0
Mg 4.21551500 0.00000000 2.17573439
Mg 4.21551500 2.98082000 -0.7451480400000001 0 0 0
Ag 0.00000000 2.98082000 2.15566801
Ag 2.10775750 4.48219942 0.85477902
Ag 2.10775750 1.47944058 0.85477902
Ag 0.00000000 0.00000000 -0.7451480400000001 0 0 0
Ag 2.10775750 1.49041000 -2.235688830000001 0 0 0
Ag 2.10775750 4.47123000 -2.235688830000001 0 0 0
Ag 4.21551500 2.98082000 2.15566801
Ag 6.32327250 4.48225903 0.85477902
Ag 6.32327250 1.47944058 0.85477902
Ag 4.21551500 0.00000000 -0.7451480400000001 0 0 0
Ag 6.32327250 1.49041000 -2.235688830000001 0 0 0
Ag 6.32327250 4.47123000 -2.235688830000001 0 0 0
