&CONTROL
calculation = 'relax'
prefix = 'scf'
pseudo_dir = '/vol0004/mdt0/data/hp150275/u10028/POT_KKJUS'
outdir = './data'
tprnfor = .true.
nstep = 50
disk_io = 'non'
/
&SYSTEM
ibrav = 0
ecutwfc = 50.0
ecutrho = 400
occupations = 'smearing'
smearing = 'mp'
degauss = 0.01
assume_isolated = 'esm'
esm_bc = 'bc1'
input_dft = 'BEEF-VDW'
nosym = .true.
nspin = 1
ntyp = 2
nat = 32
/
&ELECTRONS
electron_maxstep = 200
mixing_beta = 0.1
conv_thr = 1e-06
/
&IONS
ion_dynamics = 'bfgs'
upscale = 1.0
/
&CELL
/

K_POINTS {automatic}
6 6 1 0 0 0

ATOMIC_SPECIES
Mg 24.30 Mg.pbe-spnl-rrkjus_psl.1.0.0.UPF
Ni 58.69 Ni.pbe-spn-rrkjus_psl.1.0.0.UPF

CELL_PARAMETERS {angstrom}
7.35611000 0.00000000 0.00000000
-0.00000000 7.35611000 0.00000000
0.00000000 0.00000000 25.51710000

ATOMIC_POSITIONS {angstrom}
Mg 0.00000000 0.00000000 -2.7586536799999983 0 0 0
Mg 0.00000000 0.00000000 0.91963628
Mg 0.00000000 3.67805500 -2.7586536799999983 0 0 0
Mg 0.00000000 3.67805500 0.91963628
Mg 3.67805500 0.00000000 -2.7586536799999983 0 0 0
Mg 3.67805500 -0.00000000 0.91963628
Mg 3.67805500 3.67805500 -2.7586536799999983 0 0 0
Mg 3.67805500 3.67805500 0.91963628
Ni 0.00000000 1.83902750 -0.9196362799999989 0 0 0
Ni 1.83902750 0.00000000 -0.9196362799999989 0 0 0
Ni 1.83902750 1.83902750 -2.7586536799999983 0 0 0
Ni 0.00000000 1.83902750 2.75865368
Ni 1.83902750 -0.00000000 2.75865368
Ni 1.83902750 1.83902750 0.91963628
Ni 0.00000000 5.51708250 -0.9196362799999989 0 0 0
Ni 1.83902750 3.67805500 -0.9196362799999989 0 0 0
Ni 1.83902750 5.51708250 -2.7586536799999983 0 0 0
Ni 0.00000000 5.51708250 2.75865368
Ni 1.83902750 3.67805500 2.75865368
Ni 1.83902750 5.51708250 0.91963628
Ni 3.67805500 1.83902750 -0.9196362799999989 0 0 0
Ni 5.51708250 0.00000000 -0.9196362799999989 0 0 0
Ni 5.51708250 1.83902750 -2.7586536799999983 0 0 0
Ni 3.67805500 1.83902750 2.75865368
Ni 5.51708250 -0.00000000 2.75865368
Ni 5.51708250 1.83902750 0.91963628
Ni 3.67805500 5.51708250 -0.9196362799999989 0 0 0
Ni 5.51708250 3.67805500 -0.9196362799999989 0 0 0
Ni 5.51708250 5.51708250 -2.7586536799999983 0 0 0
Ni 3.67805500 5.51708250 2.75865368
Ni 5.51708250 3.67805500 2.75865368
Ni 5.51708250 5.51708250 0.91963628
