&CONTROL
calculation = 'relax'
prefix = 'scf'
pseudo_dir = '/vol0004/mdt0/data/hp150275/u10028/POT_KKJUS'
outdir = './data'
tprnfor = .true.
nstep = 50
disk_io = 'non'
/
&SYSTEM
ibrav = 0
ecutwfc = 50.0
ecutrho = 400
occupations = 'smearing'
smearing = 'mp'
degauss = 0.01
assume_isolated = 'esm'
esm_bc = 'bc1'
input_dft = 'BEEF-VDW'
nosym = .true.
nspin = 1
ntyp = 4
nat = 34
/
&ELECTRONS
electron_maxstep = 200
mixing_beta = 0.1
conv_thr = 1e-06
/
&IONS
ion_dynamics = 'bfgs'
upscale = 1.0
/
&CELL
/

K_POINTS {automatic}
6 6 1 0 0 0

ATOMIC_SPECIES
C 12.01 C.pbe-n-rrkjus_psl.1.0.0.UPF
In 114.8 In.pbe-dn-rrkjus_psl.1.0.0.UPF
O 15.99 O.pbe-n-rrkjus_psl.1.0.0.UPF
Zr 91.22 Zr.pbe-spn-rrkjus_psl.1.0.0.UPF

CELL_PARAMETERS {angstrom}
8.97917000 0.00000000 0.00000000
-0.00000000 8.97917000 0.00000000
0.00000000 0.00000000 26.73440000

ATOMIC_POSITIONS {angstrom}
Zr 0.00000000 2.24479250 -1.1223101100000008 0 0 0
Zr 2.24479250 0.00000000 -1.1223101100000008 0 0 0
Zr 2.24479250 2.24479250 -3.3671976800000003 0 0 0
Zr 0.00000000 2.24479250 3.36719768
Zr 2.24479250 -0.00000000 3.36719768
Zr 2.24479250 2.24479250 1.12231011
Zr 0.00000000 6.73437750 -1.1223101100000008 0 0 0
Zr 2.24479250 4.48958500 -1.1223101100000008 0 0 0
Zr 2.24479250 6.73437750 -3.3671976800000003 0 0 0
Zr 0.00000000 6.73437750 3.36719768
Zr 2.24479250 4.48958500 3.36719768
Zr 2.24479250 6.73437750 1.12231011
Zr 4.48958500 2.24479250 -1.1223101100000008 0 0 0
Zr 6.73437750 0.00000000 -1.1223101100000008 0 0 0
Zr 6.73437750 2.24479250 -3.3671976800000003 0 0 0
Zr 4.48958500 2.24479250 3.36719768
Zr 6.73437750 -0.00000000 3.36719768
Zr 6.73437750 2.24479250 1.12231011
Zr 4.48958500 6.73437750 -1.1223101100000008 0 0 0
Zr 6.73437750 4.48958500 -1.1223101100000008 0 0 0
Zr 6.73437750 6.73437750 -3.3671976800000003 0 0 0
Zr 4.48958500 6.73437750 3.36719768
Zr 6.73437750 4.48958500 3.36719768
Zr 6.73437750 6.73437750 1.12231011
In 0.00000000 0.00000000 -3.3671976800000003 0 0 0
In 0.00000000 0.00000000 1.12231011
In 0.00000000 4.48958500 -3.3671976800000003 0 0 0
In 0.00000000 4.48958500 1.12231011
In 4.48958500 0.00000000 -3.3671976800000003 0 0 0
In 4.48958500 -0.00000000 1.12231011
In 4.48958500 4.48958500 -3.3671976800000003 0 0 0
In 4.48958500 4.48958500 1.12231011
C 2.24479250 -0.00000000 5.26721149
O 2.24479250 -0.00000000 6.41732538
