&CONTROL
calculation = 'relax'
prefix = 'scf'
pseudo_dir = '/vol0403/data/hp230205/u10028/POT_HYBRID_KKJUS_GBRV'
outdir = './data'
tprnfor = .true.
nstep = 50
disk_io = 'non'
/
&SYSTEM
ibrav = 0
ecutwfc = 50.0
ecutrho = 400
occupations = 'smearing'
smearing = 'mp'
degauss = 0.01
assume_isolated = 'esm'
esm_bc = 'bc1'
input_dft = 'BEEF-VDW'
nosym = .true.
nspin = 1
ntyp = 6
nat = 34
/
&ELECTRONS
electron_maxstep = 200
mixing_beta = 0.1
conv_thr = 1e-06
/
&IONS
ion_dynamics = 'bfgs'
upscale = 1.0
/
&CELL
/

K_POINTS {automatic}
6 6 1 0 0 0

ATOMIC_SPECIES
C 12.01 C.pbe-n-rrkjus_psl.1.0.0.UPF
In 114.8 In.pbe-dn-rrkjus_psl.1.0.0.UPF
Ir 192.2 Ir.pbe-n-rrkjus_psl.0.2.3.UPF
Li 6.941 Li.pbe-sl-rrkjus_psl.1.0.0.UPF
O 15.99 O.pbe-n-rrkjus_psl.1.0.0.UPF
Pd 106.4 Pd.pbe-n-rrkjus_psl.1.0.0.UPF


CELL_PARAMETERS {angstrom}
6.33559000 0.00000000 0.00000000
0.00000000 8.95988000 0.00000000
0.00000000 0.00000000 26.71990000

ATOMIC_POSITIONS {angstrom}
Li 0.00000000 2.23997000 -1.1200982099999983 0 0 0
Li 0.00000000 6.71991000 -1.1200982099999983 0 0 0
Li 3.16779500 4.47994000 -3.360027429999999 0 0 0
Li 3.16779500 0.00000000 -3.360027429999999 0 0 0
Li 0.02958721 6.71991000 3.52515641
Li 0.00468834 2.23997000 3.59462815
Li 3.15423684 0.01917414 1.08108715
Li 3.15423684 4.46076586 1.08108715
In 0.00000000 0.00000000 -3.360027429999999 0 0 0
In 0.00000000 4.47994000 -3.360027429999999 0 0 0
In 3.16779500 6.71991000 -1.1200982099999983 0 0 0
In 3.16779500 2.23997000 -1.1200982099999983 0 0 0
In 6.32367909 4.49042306 1.07574317
In 6.32367909 8.94939694 1.07574317
In 3.12674038 2.23997000 3.51981243
In 3.11945445 6.71991000 3.58848257
Ir 1.58389750 0.00000000 -1.1200982099999983 0 0 0
Ir 1.58389750 4.47994000 -1.1200982099999983 0 0 0
Ir 4.75169250 2.23997000 -3.360027429999999 0 0 0
Ir 4.75169250 6.71991000 -3.360027429999999 0 0 0
Ir 1.65238523 4.48809349 3.17886650
Ir 1.65244858 8.95172651 3.17886650
Ir 4.71557964 6.71991000 1.20453309
Ir 4.74396308 2.23997000 1.19277634
Pd 4.75169250 0.00000000 -1.1200982099999983 0 0 0
Pd 4.75169250 4.47994000 -1.1200982099999983 0 0 0
Pd 1.58389750 2.23997000 -3.360027429999999 0 0 0
Pd 1.58389750 6.71991000 -3.360027429999999 0 0 0
Pd 4.69074412 4.49705337 3.21627436
Pd 4.69074412 8.94276663 3.21627436
Pd 1.60594535 6.71991000 1.15830766
Pd 1.57566123 2.23997000 1.14842130
C 6.30574937 2.23997000 5.75787125
O 0.03250158 2.23997000 6.89400140
