&CONTROL
calculation = 'relax'
prefix = 'scf'
pseudo_dir = '/vol0403/data/hp230205/u10028/POT_HYBRID_KKJUS_GBRV'
outdir = './data'
tprnfor = .true.
nstep = 50
disk_io = 'non'
/
&SYSTEM
ibrav = 0
ecutwfc = 50.0
ecutrho = 400
occupations = 'smearing'
smearing = 'mp'
degauss = 0.01
assume_isolated = 'esm'
esm_bc = 'bc1'
input_dft = 'BEEF-VDW'
nosym = .true.
nspin = 1
ntyp = 5
nat = 17
/
&ELECTRONS
electron_maxstep = 200
mixing_beta = 0.1
conv_thr = 1e-06
/
&IONS
ion_dynamics = 'bfgs'
upscale = 1.0
/
&CELL
/

K_POINTS {automatic}
6 6 1 0 0 0

ATOMIC_SPECIES
C 12.01 C.pbe-n-rrkjus_psl.1.0.0.UPF
Ge 72.64 Ge.pbe-dn-rrkjus_psl.1.0.0.UPF
In 114.8 In.pbe-dn-rrkjus_psl.1.0.0.UPF
Li 6.941 Li.pbe-sl-rrkjus_psl.1.0.0.UPF
Y 88.90 Y.pbe-spn-rrkjus_psl.1.0.0.UPF


CELL_PARAMETERS {angstrom}
6.30439000 0.00000000 0.00000000
0.00000000 8.57642000 0.00000000
0.00000000 0.00000000 24.70800000

ATOMIC_POSITIONS {angstrom}
Li 4.88445224 2.14419076 1.11556620
Li 1.13895110 2.14410500 -2.3539311599999984 0 0 0
Li 4.47510820 6.43240076 0.60015732
Li 1.13895110 6.43231500 -2.3539311599999984 0 0 0
Y 1.73553552 2.14419076 0.76965420
Y 4.29114610 2.14410500 -2.3539311599999984 0 0 0
Y 1.31862621 6.43222924 0.98288424
Y 4.29114610 6.43231500 -2.3539311599999984 0 0 0
In 3.46029054 8.37204391 2.33836512
In 6.01300109 0.00000000 -0.7847260799999987 0 0 0
In 3.46035358 4.49258609 2.33811804
In 6.01300109 4.28821000 -0.7847260799999987 0 0 0
Ge 0.10849855 0.27041452 2.59755204
Ge 2.86080609 0.00000000 -0.7847260799999987 0 0 0
Ge 0.10837246 4.01796701 2.59755204
Ge 2.86080609 4.28821000 -0.7847260799999987 0 0 0
C 0.20180352 2.14419076 2.55530136
