&CONTROL
calculation = 'relax'
prefix = 'scf'
pseudo_dir = '/vol0403/data/hp230205/u10028/POT_HYBRID_KKJUS_GBRV'
outdir = './data'
tprnfor = .true.
nstep = 70
disk_io = 'non'
/
&SYSTEM
ibrav = 0
ecutwfc = 50.0
ecutrho = 400
occupations = 'smearing'
smearing = 'mp'
degauss = 0.01
assume_isolated = 'esm'
esm_bc = 'bc1'
input_dft = 'BEEF-VDW'
nosym = .true.
nspin = 1
ntyp = 6
nat = 34
/
&ELECTRONS
electron_maxstep = 200
mixing_beta = 0.1
conv_thr = 1e-06
/
&IONS
ion_dynamics = 'bfgs'
upscale = 1.0
/
&CELL
/

K_POINTS {automatic}
6 6 1 0 0 0

ATOMIC_SPECIES
Au 196.9 Au.pbe-n-rrkjus_psl.1.0.0.UPF
C 12.01 C.pbe-n-rrkjus_psl.1.0.0.UPF
In 114.8 In.pbe-dn-rrkjus_psl.1.0.0.UPF
Li 6.941 Li.pbe-sl-rrkjus_psl.1.0.0.UPF
O 15.99 O.pbe-n-rrkjus_psl.1.0.0.UPF
Pd 106.4 Pd.pbe-n-rrkjus_psl.1.0.0.UPF


CELL_PARAMETERS {angstrom}
8.29976000 0.00000000 0.00000000
-0.00000000 8.89782000 0.00000000
0.00000000 0.00000000 25.65440000

ATOMIC_POSITIONS {angstrom}
Li 2.07494000 0.00000000 -0.9422861099999977 0 0 0
Li 2.07494000 -0.00000000 2.82711488
Li 2.07494000 4.44891000 -0.9422861099999977 0 0 0
Li 2.07494000 4.44891000 2.82711488
Li 6.22482000 0.00000000 -0.9422861099999977 0 0 0
Li 6.22482000 -0.00000000 2.82711488
Li 6.22482000 4.44891000 -0.9422861099999977 0 0 0
Li 6.22482000 4.44891000 2.82711488
In 0.00000000 2.22445500 -0.9422861099999977 0 0 0
In 0.00000000 2.22445500 2.82711488
In 0.00000000 6.67336500 -0.9422861099999977 0 0 0
In 0.00000000 6.67336500 2.82711488
In 4.14988000 2.22445500 -0.9422861099999977 0 0 0
In 4.14988000 2.22445500 2.82711488
In 4.14988000 6.67336500 -0.9422861099999977 0 0 0
In 4.14988000 6.67336500 2.82711488
Pd 2.07494000 2.22445500 -2.82711488 0 0 0
Pd 2.07494000 2.22445500 0.94228611
Pd 2.07494000 6.67336500 -2.82711488 0 0 0
Pd 2.07494000 6.67336500 0.94228611
Pd 6.22482000 2.22445500 -2.82711488 0 0 0
Pd 6.22482000 2.22445500 0.94228611
Pd 6.22482000 6.67336500 -2.82711488 0 0 0
Pd 6.22482000 6.67336500 0.94228611
Au 0.00000000 0.00000000 -2.82711488 0 0 0
Au 0.00000000 0.00000000 0.94228611
Au 0.00000000 4.44891000 -2.82711488 0 0 0
Au 0.00000000 4.44891000 0.94228611
Au 4.14988000 0.00000000 -2.82711488 0 0 0
Au 4.14988000 -0.00000000 0.94228611
Au 4.14988000 4.44891000 -2.82711488 0 0 0
Au 4.14988000 4.44891000 0.94228611
C 2.07494000 -0.00000000 4.72707974
O 2.07494000 -0.00000000 5.87716650
