&CONTROL
calculation = 'relax'
prefix = 'scf'
pseudo_dir = '/vol0004/mdt0/data/hp150275/u10028/POT_KKJUS'
outdir = './data'
tprnfor = .true.
nstep = 50
disk_io = 'non'
/
&SYSTEM
ibrav = 0
ecutwfc = 50.0
ecutrho = 400
occupations = 'smearing'
smearing = 'mp'
degauss = 0.01
assume_isolated = 'esm'
esm_bc = 'bc1'
input_dft = 'BEEF-VDW'
nosym = .true.
nspin = 1
ntyp = 4
nat = 34
/
&ELECTRONS
electron_maxstep = 200
mixing_beta = 0.1
conv_thr = 1e-06
/
&IONS
ion_dynamics = 'bfgs'
upscale = 1.0
/
&CELL
/

K_POINTS {automatic}
8 6 1 0 0 0

ATOMIC_SPECIES
C 12.01 C.pbe-n-rrkjus_psl.1.0.0.UPF
O 15.99 O.pbe-n-rrkjus_psl.1.0.0.UPF
Pt 195.0 Pt.pbe-n-rrkjus_psl.1.0.0.UPF
Zr 91.22 Zr.pbe-spn-rrkjus_psl.1.0.0.UPF

CELL_PARAMETERS {angstrom}
6.75388000 0.00000000 0.00000000
0.00000000 9.55143000 0.00000000
0.00000000 0.00000000 27.16360000

ATOMIC_POSITIONS {angstrom}
Zr 1.68847000 2.38785750 -3.5817923 0 0 0
Zr 1.68847000 0.00000000 -1.1938402199999985 0 0 0
Zr 1.71420228 2.38776199 1.13571012
Zr 1.74027226 4.83474284 3.59483082
Zr 1.68847000 7.16357250 -3.5817923 0 0 0
Zr 1.68847000 4.77571500 -1.1938402199999985 0 0 0
Zr 1.62248459 7.16366801 1.10066907
Zr 1.74027226 9.49249768 3.59455919
Zr 5.06541000 2.38785750 -3.5817923 0 0 0
Zr 5.06541000 0.00000000 -1.1938402199999985 0 0 0
Zr 5.03967772 2.38795301 1.13571012
Zr 5.01367528 4.83464732 3.59455919
Zr 5.06541000 7.16357250 -3.5817923 0 0 0
Zr 5.06541000 4.77571500 -1.1938402199999985 0 0 0
Zr 5.13139541 7.16347699 1.10066907
Zr 5.01354020 9.49240216 3.59483082
Pt 0.00000000 0.00000000 -3.5817923 0 0 0
Pt 0.00000000 2.38785750 -1.1938402199999985 0 0 0
Pt 6.75367738 0.22980741 1.54017612
Pt 0.00000000 2.38814404 3.68338416
Pt 0.00000000 4.77571500 -3.5817923 0 0 0
Pt 0.00000000 7.16357250 -1.1938402199999985 0 0 0
Pt 0.00020262 4.54590759 1.53990448
Pt 0.00000000 7.16347699 3.35551951
Pt 3.37694000 0.00000000 -3.5817923 0 0 0
Pt 3.37694000 2.38785750 -1.1938402199999985 0 0 0
Pt 3.37721016 9.33680937 1.29869172
Pt 3.37694000 2.38804853 3.31205775
Pt 3.37694000 4.77571500 -3.5817923 0 0 0
Pt 3.37694000 7.16357250 -1.1938402199999985 0 0 0
Pt 3.37666984 4.99024012 1.29842008
Pt 3.37694000 7.16347699 3.34438243
C 0.00000000 2.38795301 5.57641544
O 0.00000000 2.38785750 6.74119061
