&CONTROL
calculation = 'relax'
prefix = 'scf'
pseudo_dir = '/vol0403/data/hp230205/u10028/POT_HYBRID_KKJUS_GBRV'
outdir = './data'
tprnfor = .true.
nstep = 50
disk_io = 'non'
/
&SYSTEM
ibrav = 0
ecutwfc = 50.0
ecutrho = 400
occupations = 'smearing'
smearing = 'mp'
degauss = 0.01
assume_isolated = 'esm'
esm_bc = 'bc1'
input_dft = 'BEEF-VDW'
nosym = .true.
nspin = 1
ntyp = 4
nat = 32
/
&ELECTRONS
electron_maxstep = 200
mixing_beta = 0.1
conv_thr = 1e-06
/
&IONS
ion_dynamics = 'bfgs'
upscale = 1.0
/
&CELL
/

K_POINTS {automatic}
6 8 2 0  0  0

ATOMIC_SPECIES
In 114.8 In.pbe-dn-rrkjus_psl.1.0.0.UPF
Pd 106.4 Pd.pbe-n-rrkjus_psl.1.0.0.UPF
Sc 44.95 Sc.pbe-spn-rrkjus_psl.1.0.0.UPF
Y 88.90 Y.pbe-spn-rrkjus_psl.1.0.0.UPF


CELL_PARAMETERS {angstrom}
10.11530000 0.00000000 0.00000000
0.00000000 7.36232000 0.00000000
0.00000000 0.00000000 27.23180000

ATOMIC_POSITIONS {angstrom}
Y 2.52882500 1.84058000 3.61583840
Y 2.52882500 1.84058000 -1.2052794700000007 0 0 0
Y 2.52882500 5.52174000 3.61583840
Y 2.52882500 5.52174000 -1.2052794700000007 0 0 0
Y 7.58647500 1.84058000 3.61583840
Y 7.58647500 1.84058000 -1.2052794700000007 0 0 0
Y 7.58647500 5.52174000 3.61583840
Y 7.58647500 5.52174000 -1.2052794700000007 0 0 0
Sc 0.00000000 1.84058000 1.20527947
Sc 0.00000000 1.84058000 -3.6158384000000012 0 0 0
Sc 0.00000000 5.52174000 1.20527947
Sc 0.00000000 5.52174000 -3.6158384000000012 0 0 0
Sc 5.05765000 1.84058000 1.20527947
Sc 5.05765000 1.84058000 -3.6158384000000012 0 0 0
Sc 5.05765000 5.52174000 1.20527947
Sc 5.05765000 5.52174000 -3.6158384000000012 0 0 0
In 0.00000000 0.00000000 3.61583840
In 0.00000000 0.00000000 -1.2052794700000007 0 0 0
In 0.00000000 3.68116000 3.61583840
In 0.00000000 3.68116000 -1.2052794700000007 0 0 0
In 5.05765000 0.00000000 3.61583840
In 5.05765000 0.00000000 -1.2052794700000007 0 0 0
In 5.05765000 3.68116000 3.61583840
In 5.05765000 3.68116000 -1.2052794700000007 0 0 0
Pd 2.52882500 0.00000000 1.20527947
Pd 2.52882500 0.00000000 -3.6158384000000012 0 0 0
Pd 2.52882500 3.68116000 1.20527947
Pd 2.52882500 3.68116000 -3.6158384000000012 0 0 0
Pd 7.58647500 0.00000000 1.20527947
Pd 7.58647500 0.00000000 -3.6158384000000012 0 0 0
Pd 7.58647500 3.68116000 1.20527947
Pd 7.58647500 3.68116000 -3.6158384000000012 0 0 0
