&CONTROL
calculation = 'relax'
prefix = 'scf'
pseudo_dir = '/vol0004/mdt0/data/hp150275/u10028/POT_KKJUS'
outdir = './data'
tprnfor = .true.
nstep = 50
disk_io = 'non'
/
&SYSTEM
ibrav = 0
ecutwfc = 50.0
ecutrho = 400
occupations = 'smearing'
smearing = 'mp'
degauss = 0.01
assume_isolated = 'esm'
esm_bc = 'bc1'
input_dft = 'BEEF-VDW'
nosym = .true.
nspin = 1
ntyp = 3
nat = 33
/
&ELECTRONS
electron_maxstep = 200
mixing_beta = 0.1
conv_thr = 1e-06
/
&IONS
ion_dynamics = 'bfgs'
upscale = 1.0
/
&CELL
/

K_POINTS {automatic}
9 6 2 0  0  0

ATOMIC_SPECIES
C 12.01 C.pbe-n-rrkjus_psl.1.0.0.UPF
In 114.8 In.pbe-dn-rrkjus_psl.1.0.0.UPF
Rh 102.9 Rh.pbe-spn-rrkjus_psl.1.0.0.UPF

CELL_PARAMETERS {angstrom}
6.51708000 0.00000000 0.00000000
0.00000000 9.21654000 0.00000000
0.00000000 0.00000000 26.91240000

ATOMIC_POSITIONS {angstrom}
In 0.00000000 0.00000000 -3.4560904100000016 0 0 0
In 0.00000000 2.30413500 -1.152119840000001 0 0 0
In 0.00000000 0.00000000 1.12628394
In 0.00000000 2.50044730 3.61298970
In 0.00000000 4.60827000 -3.4560904100000016 0 0 0
In 0.00000000 6.91240500 -1.152119840000001 0 0 0
In 0.00000000 4.60827000 1.11767197
In 0.00000000 6.71609270 3.61298970
In 3.25854000 0.00000000 -3.4560904100000016 0 0 0
In 3.25854000 2.30413500 -1.152119840000001 0 0 0
In 3.25854000 0.00000000 1.09964066
In 3.25854000 2.34800573 3.71740981
In 3.25854000 4.60827000 -3.4560904100000016 0 0 0
In 3.25854000 6.91240500 -1.152119840000001 0 0 0
In 3.25854000 4.60827000 1.10744526
In 3.25854000 6.86853427 3.71740981
Rh 1.62927000 2.30413500 -3.4560904100000016 0 0 0
Rh 1.62927000 0.00000000 -1.152119840000001 0 0 0
Rh 1.62373048 2.26256840 1.15508021
Rh 1.62001575 0.00000000 3.43725173
Rh 1.62927000 6.91240500 -3.4560904100000016 0 0 0
Rh 1.62927000 4.60827000 -1.152119840000001 0 0 0
Rh 1.62366531 6.95397160 1.15508021
Rh 1.68922714 4.60827000 3.29488513
Rh 4.88781000 2.30413500 -3.4560904100000016 0 0 0
Rh 4.88781000 0.00000000 -1.152119840000001 0 0 0
Rh 4.89334952 2.26256840 1.15508021
Rh 4.89706425 0.00000000 3.43725173
Rh 4.88781000 6.91240500 -3.4560904100000016 0 0 0
Rh 4.88781000 4.60827000 -1.152119840000001 0 0 0
Rh 4.89341469 6.95397160 1.15508021
Rh 4.82785286 4.60827000 3.29488513
C 0.00000000 0.00000000 4.29279692
