&CONTROL
calculation = 'relax'
prefix = 'scf'
pseudo_dir = '/vol0403/data/hp230205/u10028/POT_HYBRID_KKJUS_GBRV'
outdir = './data'
tprnfor = .true.
nstep = 50
disk_io = 'non'
/
&SYSTEM
ibrav = 0
ecutwfc = 50.0
ecutrho = 400
occupations = 'smearing'
smearing = 'mp'
degauss = 0.01
assume_isolated = 'esm'
esm_bc = 'bc1'
input_dft = 'BEEF-VDW'
nosym = .true.
nspin = 2
ntyp = 4
nat = 32
starting_magnetization(1) = 0.0
starting_magnetization(2) = 0.0
starting_magnetization(3) = 0.1
starting_magnetization(4) = 0.0
/
&ELECTRONS
electron_maxstep = 200
mixing_beta = 0.1
conv_thr = 1e-06
/
&IONS
ion_dynamics = 'bfgs'
upscale = 1.0
/
&CELL
/

K_POINTS {automatic}
9 6 2 0  0  0

ATOMIC_SPECIES
Al 26.98 Al.pbe-nl-rrkjus_psl.1.0.0.UPF
Li 6.941 Li.pbe-sl-rrkjus_psl.1.0.0.UPF
Mn 54.93 mn_pbe_v1.5.uspp.F.UPF
Pd 106.4 Pd.pbe-n-rrkjus_psl.1.0.0.UPF


CELL_PARAMETERS {angstrom}
6.10222000 0.00000000 0.00000000
0.00000000 8.62984000 0.00000000
0.00000000 0.00000000 26.47240000

ATOMIC_POSITIONS {angstrom}
Li 0.00000000 2.15746000 25.39364970
Li 0.00000000 6.47238000 25.39364970
Li 3.05111000 4.31492000 23.23614910
Li 3.05111000 0.00000000 23.23614910
Li 6.03552274 6.47238000 3.53406540
Li 6.03564478 2.15746000 3.53406540
Li 3.03268130 0.00000000 0.97656684
Li 3.03262027 4.31492000 0.97656684
Mn 1.52555500 0.00000000 25.39364970
Mn 1.52555500 4.31492000 25.39364970
Mn 4.57666500 2.15746000 23.23614910
Mn 4.57666500 6.47238000 23.23614910
Mn 1.60750781 4.31492000 3.18357082
Mn 1.60750781 0.00000000 3.18357082
Mn 4.59430042 6.47238000 1.12110614
Mn 4.59430042 2.15746000 1.12110614
Al 0.00000000 0.00000000 23.23614910
Al 0.00000000 4.31492000 23.23614910
Al 3.05111000 6.47238000 25.39364970
Al 3.05111000 2.15746000 25.39364970
Al 0.03112132 4.31492000 1.05121900
Al 0.03106030 0.00000000 1.05121900
Al 3.08223132 2.15746000 3.30481442
Al 3.08229234 6.47238000 3.30481442
Pd 4.57666500 0.00000000 25.39364970
Pd 4.57666500 4.31492000 25.39364970
Pd 1.52555500 2.15746000 23.23614910
Pd 1.52555500 6.47238000 23.23614910
Pd 4.48281286 4.31492000 3.01123550
Pd 4.48281286 0.00000000 3.01123550
Pd 1.51316749 6.47238000 1.09383957
Pd 1.51316749 2.15746000 1.09383957
