&CONTROL
calculation = 'relax'
prefix = 'scf'
pseudo_dir = '/vol0004/mdt0/data/hp150275/u10028/POT_HYBRID_KKJUS_GBRV'
outdir = './data'
tprnfor = .true.
nstep = 50
disk_io = 'non'
/
&SYSTEM
ibrav = 0
ecutwfc = 50.0
ecutrho = 400
occupations = 'smearing'
smearing = 'mp'
degauss = 0.01
assume_isolated = 'esm'
esm_bc = 'bc1'
input_dft = 'BEEF-VDW'
nosym = .true.
nspin = 2
ntyp = 5
nat = 34
starting_magnetization(1) = 0.0
starting_magnetization(2) = 0.0
starting_magnetization(3) = 0.001
starting_magnetization(4) = 0.0
starting_magnetization(5) = 0.0
/
&ELECTRONS
electron_maxstep = 200
mixing_beta = 0.1
conv_thr = 1e-06
/
&IONS
ion_dynamics = 'bfgs'
upscale = 1.0
/
&CELL
/

K_POINTS {automatic}
9 6 2 0  0  0

ATOMIC_SPECIES
Al 26.98 Al.pbe-nl-rrkjus_psl.1.0.0.UPF
C 12.01 C.pbe-n-rrkjus_psl.1.0.0.UPF
Ni 58.69 ni_pbe_v1.4.uspp.F.UPF
O 15.99 O.pbe-n-rrkjus_psl.1.0.0.UPF
V 50.94 V.pbe-spnl-rrkjus_psl.1.0.0.UPF

CELL_PARAMETERS {angstrom}
5.81764000 0.00000000 0.00000000
0.00000000 8.22738000 0.00000000
0.00000000 0.00000000 26.17050000

ATOMIC_POSITIONS {angstrom}
Al 0.00000000 0.00000000 23.08525975
Al 2.90882000 2.05684500 25.14199935
Al 2.90882000 6.17053500 25.14199935
Al 0.00000000 4.11369000 23.08525975
Al 0.00669029 4.11401910 0.96752339
Al 2.93930443 6.13416998 3.13470249
Al 2.93959532 2.09296320 3.13182374
Al 0.04898453 8.22705090 1.04315613
V 0.00000000 6.17053500 25.14199935
V 2.90882000 0.00000000 23.08525975
V 0.00000000 2.05684500 25.14199935
V 2.90882000 4.11369000 23.08525975
V 0.02652844 2.05264904 3.05331223
V 2.92889086 4.11393682 1.04158590
V 0.02641209 6.17580052 3.05749951
V 2.88112803 8.22721545 1.07351391
Ni 1.45441000 0.00000000 25.14199935
Ni 4.36323000 4.11369000 25.14199935
Ni 4.36323000 0.00000000 25.14199935
Ni 1.45441000 4.11369000 25.14199935
Ni 4.36323000 6.17053500 23.08525975
Ni 1.45441000 2.05684500 23.08525975
Ni 1.45441000 6.17053500 23.08525975
Ni 4.36323000 2.05684500 23.08525975
Ni 1.40123677 4.11344318 2.94732171
Ni 4.36235735 0.00032910 2.92874065
Ni 4.47231075 4.11426592 2.96851982
Ni 1.49780959 8.22721545 3.30324051
Ni 4.37853039 2.04680760 1.05336263
Ni 1.46354369 6.15383342 1.05702650
Ni 1.46441634 2.07404022 1.05624138
Ni 4.37905398 6.17974967 1.05467115
C 0.95839801 8.22639271 4.98443343
O 0.69462622 0.00172775 6.11604585
