&CONTROL
calculation = 'relax'
prefix = 'scf'
pseudo_dir = '/vol0004/mdt0/data/hp150275/u10028/POT_KKJUS'
outdir = './data'
tprnfor = .true.
nstep = 50
disk_io = 'non'
/
&SYSTEM
ibrav = 0
ecutwfc = 50.0
ecutrho = 400
occupations = 'smearing'
smearing = 'mp'
degauss = 0.01
assume_isolated = 'esm'
esm_bc = 'bc1'
input_dft = 'BEEF-VDW'
nosym = .true.
nspin = 1
ntyp = 5
nat = 34
/
&ELECTRONS
electron_maxstep = 200
mixing_beta = 0.1
conv_thr = 1e-06
/
&IONS
ion_dynamics = 'bfgs'
upscale = 1.0
/
&CELL
/

K_POINTS {automatic}
8 6 1 0 0 0

ATOMIC_SPECIES
C 12.01 C.pbe-n-rrkjus_psl.1.0.0.UPF
Li 6.941 Li.pbe-sl-rrkjus_psl.1.0.0.UPF
O 15.99 O.pbe-n-rrkjus_psl.1.0.0.UPF
Pb 207.2 Pb.pbe-dn-rrkjus_psl.1.0.0.UPF
Pd 106.4 Pd.pbe-n-rrkjus_psl.1.0.0.UPF

CELL_PARAMETERS {angstrom}
6.57920000 0.00000000 0.00000000
0.00000000 9.30439000 0.00000000
0.00000000 0.00000000 26.97830000

ATOMIC_POSITIONS {angstrom}
Li 0.00000000 0.00000000 -3.489103540000002 0 0 0
Li 3.28960000 2.32609750 -1.1630345099999992 0 0 0
Li 3.28960000 6.97829250 -1.1630345099999992 0 0 0
Li 0.00000000 4.65219500 -3.489103540000002 0 0 0
Li 6.54058010 4.65228804 1.09154202
Li 3.25749350 6.97215160 3.45753893
Li 3.25749350 2.33223840 3.45753893
Li 0.03006694 0.00000000 1.12391598
Pd 1.64480000 0.00000000 -1.1630345099999992 0 0 0
Pd 4.93440000 4.65219500 -1.1630345099999992 0 0 0
Pd 4.93440000 0.00000000 -1.1630345099999992 0 0 0
Pd 1.64480000 4.65219500 -1.1630345099999992 0 0 0
Pd 4.93440000 6.97829250 -3.489103540000002 0 0 0
Pd 1.64480000 2.32609750 -3.489103540000002 0 0 0
Pd 1.64480000 6.97829250 -3.489103540000002 0 0 0
Pd 4.93440000 2.32609750 -3.489103540000002 0 0 0
Pd 1.44696346 4.65210196 3.25655059
Pd 5.08887962 9.30429696 3.20906878
Pd 4.98216499 4.65228804 3.23253991
Pd 1.67651174 9.30420391 3.56005647
Pd 4.95670349 2.31632789 1.22130764
Pd 1.51308442 7.01709181 1.31330364
Pd 1.51275546 2.28739124 1.31330364
Pd 4.95637453 6.98834124 1.22130764
Pb 0.00000000 6.97829250 -1.1630345099999992 0 0 0
Pb 3.28960000 0.00000000 -3.489103540000002 0 0 0
Pb 0.00000000 2.32609750 -1.1630345099999992 0 0 0
Pb 3.28960000 4.65219500 -3.489103540000002 0 0 0
Pb 6.49906534 2.35754634 3.79800507
Pb 3.22334746 4.65219500 1.12553468
Pb 6.49932851 6.94693671 3.79800507
Pb 3.23565056 0.00009304 1.12148793
C 2.25212595 0.00000000 5.43477853
O 2.45292314 0.00000000 6.57083475
