&CONTROL
calculation = 'relax'
prefix = 'scf'
pseudo_dir = '/vol0403/data/hp230205/u10028/POT_HYBRID_KKJUS_GBRV'
outdir = './data'
tprnfor = .true.
nstep = 50
disk_io = 'non'
/
&SYSTEM
ibrav = 0
ecutwfc = 50.0
ecutrho = 400
occupations = 'smearing'
smearing = 'mp'
degauss = 0.01
assume_isolated = 'esm'
esm_bc = 'bc1'
input_dft = 'BEEF-VDW'
nosym = .true.
nspin = 1
ntyp = 5
nat = 33
/
&ELECTRONS
electron_maxstep = 200
mixing_beta = 0.1
conv_thr = 1e-06
/
&IONS
ion_dynamics = 'bfgs'
upscale = 1.0
/
&CELL
/

K_POINTS {automatic}
6 6 1 0 0 0

ATOMIC_SPECIES
C 12.01 C.pbe-n-rrkjus_psl.1.0.0.UPF
Cu 63.54 Cu.pbe-dn-rrkjus_psl.1.0.0.UPF
Ge 72.64 Ge.pbe-dn-rrkjus_psl.1.0.0.UPF
Li 6.941 Li.pbe-sl-rrkjus_psl.1.0.0.UPF
Y 88.90 Y.pbe-spn-rrkjus_psl.1.0.0.UPF


CELL_PARAMETERS {angstrom}
6.66034000 0.00000000 0.00000000
0.00000000 9.41914000 0.00000000
0.00000000 0.00000000 27.06440000

ATOMIC_POSITIONS {angstrom}
Li 4.99525500 0.00000000 -1.1773013999999975 0 0 0
Li 4.99525500 4.70957000 -1.1773013999999975 0 0 0
Li 1.66508500 2.35478500 -3.5321748399999997 0 0 0
Li 1.66508500 7.06435500 -3.5321748399999997 0 0 0
Li 5.10088799 4.53004119 3.55896860
Li 5.10042177 0.18037653 3.56086311
Li 1.67221156 7.06416662 1.07905763
Li 1.70411459 2.35440823 1.18325557
Y 1.66508500 0.00000000 -1.1773013999999975 0 0 0
Y 1.66508500 4.70957000 -1.1773013999999975 0 0 0
Y 4.99525500 2.35478500 -3.5321748399999997 0 0 0
Y 4.99525500 7.06435500 -3.5321748399999997 0 0 0
Y 1.78397207 5.06900438 3.70619894
Y 1.78250679 9.06224879 3.70592829
Y 5.01044058 7.06444919 1.25037528
Y 4.96568309 2.35280698 1.27987548
Cu 0.00000000 0.00000000 -3.5321748399999997 0 0 0
Cu 0.00000000 4.70957000 -3.5321748399999997 0 0 0
Cu 3.33017000 7.06435500 -1.1773013999999975 0 0 0
Cu 3.33017000 2.35478500 -1.1773013999999975 0 0 0
Cu 0.23391114 4.65399707 1.32696753
Cu 0.23464378 0.05274718 1.32669689
Cu 3.16592602 2.35553853 3.73488720
Cu 3.92194121 7.06576787 3.90539292
Ge 0.00000000 2.35478500 -1.1773013999999975 0 0 0
Ge 0.00000000 7.06435500 -1.1773013999999975 0 0 0
Ge 3.33017000 4.70957000 -3.5321748399999997 0 0 0
Ge 3.33017000 0.00000000 -3.5321748399999997 0 0 0
Ge 6.39099585 7.06501434 3.87778723
Ge 0.29944889 2.35751655 3.58251463
Ge 3.24485104 9.40708350 1.26796714
Ge 3.24658273 4.72011944 1.26688456
C 5.05686314 2.35487919 3.74435974
