&CONTROL
calculation = 'relax'
prefix = 'scf'
pseudo_dir = '/vol0004/mdt0/data/hp150275/u10028/POT_HYBRID_KKJUS_GBRV'
outdir = './data'
tprnfor = .true.
nstep = 50
disk_io = 'non'
/
&SYSTEM
ibrav = 0
ecutwfc = 50.0
ecutrho = 400
occupations = 'smearing'
smearing = 'mp'
degauss = 0.01
assume_isolated = 'esm'
esm_bc = 'bc1'
input_dft = 'BEEF-VDW'
nosym = .true.
nspin = 2
ntyp = 3
nat = 33
starting_magnetization(1) = 0.0
starting_magnetization(2) = 0.1
starting_magnetization(3) = 0.0
/
&ELECTRONS
electron_maxstep = 400
mixing_beta = 0.1
conv_thr = 1e-06
/
&IONS
ion_dynamics = 'bfgs'
upscale = 1.0
/
&CELL
/

K_POINTS {automatic}
6 6 1 0 0 0

ATOMIC_SPECIES
C 12.01 C.pbe-n-rrkjus_psl.1.0.0.UPF
Mn 54.93 mn_pbe_v1.5.uspp.F.UPF
Sb 121.7 Sb.pbe-n-rrkjus_psl.1.0.0.UPF

CELL_PARAMETERS {angstrom}
7.64649000 0.00000000 0.00000000
0.00000000 7.64649000 0.00000000
0.00000000 0.00000000 25.73490000

ATOMIC_POSITIONS {angstrom}
Mn 0.00152930 1.90076448 0.95708093
Mn 1.91162250 7.64633707 0.96274261
Mn 1.91162250 1.86230264 2.67025322
Mn 0.00000000 1.91162250 -2.8673825599999994 0 0 0
Mn 1.91162250 0.00000000 -2.8673825599999994 0 0 0
Mn 1.91162250 1.91162250 -0.9557941899999989 0 0 0
Mn 0.00145283 5.74572552 0.95708093
Mn 1.91162250 3.82347439 0.93597831
Mn 1.91162250 5.78418736 2.66999587
Mn 0.00000000 5.73486750 -2.8673825599999994 0 0 0
Mn 1.91162250 3.82324500 -2.8673825599999994 0 0 0
Mn 1.91162250 5.73486750 -0.9557941899999989 0 0 0
Mn 3.82171570 1.90076448 0.95708093
Mn 5.73486750 7.64626061 0.97741150
Mn 5.73486750 2.08955632 2.67488551
Mn 3.82324500 1.91162250 -2.8673825599999994 0 0 0
Mn 5.73486750 0.00000000 -2.8673825599999994 0 0 0
Mn 5.73486750 1.91162250 -0.9557941899999989 0 0 0
Mn 3.82179217 5.74572552 0.95708093
Mn 5.73486750 3.82347439 0.90329499
Mn 5.73486750 5.55701014 2.67488551
Mn 3.82324500 5.73486750 -2.8673825599999994 0 0 0
Mn 5.73486750 3.82324500 -2.8673825599999994 0 0 0
Mn 5.73486750 5.73486750 -0.9557941899999989 0 0 0
Sb 7.33757180 0.00007646 3.27219254
Sb 0.00000000 0.00000000 -0.9557941899999989 0 0 0
Sb 0.07378863 3.82316854 2.98988068
Sb 0.00000000 3.82324500 -0.9557941899999989 0 0 0
Sb 4.13216320 0.00007646 3.27219254
Sb 3.82324500 0.00000000 -0.9557941899999989 0 0 0
Sb 3.74945637 3.82316854 2.98988068
Sb 3.82324500 3.82324500 -0.9557941899999989 0 0 0
C 1.91162250 0.00000000 2.93738149
