&CONTROL
calculation = 'relax'
prefix = 'scf'
pseudo_dir = '/vol0004/mdt0/data/hp150275/u10028/POT_KKJUS'
outdir = './data'
tprnfor = .true.
nstep = 50
disk_io = 'non'
/
&SYSTEM
ibrav = 0
ecutwfc = 50.0
ecutrho = 400
occupations = 'smearing'
smearing = 'mp'
degauss = 0.01
assume_isolated = 'esm'
esm_bc = 'bc1'
input_dft = 'BEEF-VDW'
nosym = .true.
nspin = 1
ntyp = 3
nat = 33
/
&ELECTRONS
electron_maxstep = 200
mixing_beta = 0.1
conv_thr = 1e-06
/
&IONS
ion_dynamics = 'bfgs'
upscale = 1.0
/
&CELL
/

K_POINTS {automatic}
8 6 1 0 0 0

ATOMIC_SPECIES
C 12.01 C.pbe-n-rrkjus_psl.1.0.0.UPF
Ni 58.69 Ni.pbe-spn-rrkjus_psl.1.0.0.UPF
Sc 44.95 Sc.pbe-spn-rrkjus_psl.1.0.0.UPF

CELL_PARAMETERS {angstrom}
6.37073000 0.00000000 0.00000000
0.00000000 9.00957000 0.00000000
0.00000000 0.00000000 26.75720000

ATOMIC_POSITIONS {angstrom}
Sc 1.59268250 2.25239250 -3.378631640000002 0 0 0
Sc 1.59268250 0.00000000 -1.1262105499999997 0 0 0
Sc 1.59325587 2.25212221 1.19230083
Sc 1.59268250 8.99650612 3.46131139
Sc 1.59268250 6.75717750 -3.378631640000002 0 0 0
Sc 1.59268250 4.50478500 -1.1262105499999997 0 0 0
Sc 1.59274621 6.75735769 1.10400207
Sc 1.59274621 4.51775878 3.46131139
Sc 4.77804750 2.25239250 -3.378631640000002 0 0 0
Sc 4.77804750 0.00000000 -1.1262105499999997 0 0 0
Sc 4.77804750 2.25239250 1.09062347
Sc 4.77798379 8.97524354 3.45863567
Sc 4.77804750 6.75717750 -3.378631640000002 0 0 0
Sc 4.77804750 4.50478500 -1.1262105499999997 0 0 0
Sc 4.77830233 6.75708740 1.11122652
Sc 4.77811121 4.53893127 3.45863567
Ni 0.00000000 0.00000000 -3.378631640000002 0 0 0
Ni 0.00000000 2.25239250 -1.1262105499999997 0 0 0
Ni 6.36028200 8.99533488 1.19952528
Ni 6.13214616 2.25239250 3.27026498
Ni 0.00000000 4.50478500 -3.378631640000002 0 0 0
Ni 0.00000000 6.75717750 -1.1262105499999997 0 0 0
Ni 6.36053683 4.51956069 1.19925770
Ni 0.00445951 6.75690721 3.13166269
Ni 3.18536500 0.00000000 -3.378631640000002 0 0 0
Ni 3.18536500 2.25239250 -1.1262105499999997 0 0 0
Ni 3.19511222 8.99560517 1.19952528
Ni 3.42324806 2.25230240 3.26972984
Ni 3.18536500 4.50478500 -3.378631640000002 0 0 0
Ni 3.18536500 6.75717750 -1.1262105499999997 0 0 0
Ni 3.19568558 4.51902012 1.19952528
Ni 3.18065066 6.75708740 3.13193026
C 1.59223655 2.25230240 3.53863970
