&CONTROL
calculation = 'relax'
prefix = 'scf'
pseudo_dir = '/vol0004/mdt0/data/hp150275/u10028/POT_HYBRID_KKJUS_GBRV'
outdir = './data'
tprnfor = .true.
nstep = 50
disk_io = 'non'
/
&SYSTEM
ibrav = 0
ecutwfc = 50.0
ecutrho = 400
occupations = 'smearing'
smearing = 'mp'
degauss = 0.01
assume_isolated = 'esm'
esm_bc = 'bc1'
input_dft = 'BEEF-VDW'
nosym = .true.
nspin = 2
ntyp = 3
nat = 32
starting_magnetization(1) = 0.1
starting_magnetization(2) = 0.0
starting_magnetization(3) = 0.0
/
&ELECTRONS
electron_maxstep = 300
mixing_beta = 0.1
conv_thr = 1e-06
/
&IONS
ion_dynamics = 'bfgs'
upscale = 1.0
/
&CELL
/

K_POINTS {automatic}
8 6 1 0 0 0

ATOMIC_SPECIES
Fe 55.84 fe_pbe_v1.5.uspp.F.UPF
Sn 118.7 Sn.pbe-dn-rrkjus_psl.1.0.0.UPF
Ti 47.86 Ti.pbe-spn-rrkjus_psl.1.0.0.UPF

CELL_PARAMETERS {angstrom}
6.02174000 0.00000000 0.00000000
0.00000000 8.51603000 0.00000000
0.00000000 0.00000000 26.38700000

ATOMIC_POSITIONS {angstrom}
Ti 0.00000000 0.00000000 -3.1936186100000015 0 0 0
Ti 3.01087000 2.12900750 -1.06445158 0 0 0
Ti 3.01087000 6.38702250 -1.06445158 0 0 0
Ti 0.00000000 4.25801500 -3.1936186100000015 0 0 0
Ti 0.00000000 4.25801500 1.12962747
Ti 3.01087000 6.38702250 3.18860508
Ti 3.01087000 2.12909266 3.18860508
Ti 0.00000000 0.00000000 1.12962747
Fe 1.50543500 0.00000000 -1.06445158 0 0 0
Fe 4.51630500 4.25801500 -1.06445158 0 0 0
Fe 4.51630500 0.00000000 -1.06445158 0 0 0
Fe 1.50543500 4.25801500 -1.06445158 0 0 0
Fe 4.51630500 6.38702250 -3.1936186100000015 0 0 0
Fe 1.50543500 2.12900750 -3.1936186100000015 0 0 0
Fe 1.50543500 6.38702250 -3.1936186100000015 0 0 0
Fe 4.51630500 2.12900750 -3.1936186100000015 0 0 0
Fe 1.53542327 4.25801500 3.22317205
Fe 4.48607587 0.00000000 3.22317205
Fe 4.48631673 4.25801500 3.22317205
Fe 1.53566413 0.00000000 3.22317205
Fe 4.54707609 2.12909266 1.16630540
Fe 1.47466391 6.38685218 1.16630540
Fe 1.47466391 2.12917782 1.16630540
Fe 4.54707609 6.38693734 1.16630540
Sn 0.00000000 6.38702250 -1.06445158 0 0 0
Sn 3.01087000 0.00000000 -3.1936186100000015 0 0 0
Sn 0.00000000 2.12900750 -1.06445158 0 0 0
Sn 3.01087000 4.25801500 -3.1936186100000015 0 0 0
Sn 0.00000000 2.12900750 3.54034379
Sn 3.01087000 4.25801500 1.05838257
Sn 0.00000000 6.38702250 3.54007992
Sn 3.01087000 0.00000000 1.05811870
