&CONTROL
calculation = 'relax'
prefix = 'scf'
pseudo_dir = '/vol0004/mdt0/data/hp150275/u10028/POT_KKJUS'
outdir = './data'
tprnfor = .true.
nstep = 50
disk_io = 'non'
/
&SYSTEM
ibrav = 0
ecutwfc = 50.0
ecutrho = 400
occupations = 'smearing'
smearing = 'mp'
degauss = 0.01
assume_isolated = 'esm'
esm_bc = 'bc1'
input_dft = 'BEEF-VDW'
nosym = .true.
nspin = 1
ntyp = 4
nat = 33
/
&ELECTRONS
electron_maxstep = 200
mixing_beta = 0.1
conv_thr = 1e-06
/
&IONS
ion_dynamics = 'bfgs'
upscale = 1.0
/
&CELL
/

K_POINTS {automatic}
8 6 1 0 0 0

ATOMIC_SPECIES
Al 26.98 Al.pbe-nl-rrkjus_psl.1.0.0.UPF
C 12.01 C.pbe-n-rrkjus_psl.1.0.0.UPF
Cu 63.54 Cu.pbe-dn-rrkjus_psl.1.0.0.UPF
Zr 91.22 Zr.pbe-spn-rrkjus_psl.1.0.0.UPF

CELL_PARAMETERS {angstrom}
6.27295000 0.00000000 0.00000000
0.00000000 8.87129000 0.00000000
0.00000000 0.00000000 26.65350000

ATOMIC_POSITIONS {angstrom}
Zr 0.00000000 0.00000000 -3.3266233300000003 0 0 0
Zr 3.13647500 2.21782250 -1.108785600000001 0 0 0
Zr 3.13647500 6.65346750 -1.108785600000001 0 0 0
Zr 0.00000000 4.43564500 -3.3266233300000003 0 0 0
Zr 0.00000000 4.43564500 1.44461970
Zr 3.13647500 6.31431808 3.19868654
Zr 3.13647500 2.55697192 3.19868654
Zr 0.00000000 0.00000000 1.18474808
Al 0.00000000 6.65346750 -1.108785600000001 0 0 0
Al 3.13647500 0.00000000 -3.3266233300000003 0 0 0
Al 0.00000000 2.21782250 -1.108785600000001 0 0 0
Al 3.13647500 4.43564500 -3.3266233300000003 0 0 0
Al 0.00000000 2.04705017 3.39512283
Al 3.13647500 4.43564500 0.99230980
Al 0.00000000 6.82423983 3.39512283
Al 3.13647500 0.00000000 1.10478758
Cu 1.56823750 0.00000000 -1.108785600000001 0 0 0
Cu 4.70471250 4.43564500 -1.108785600000001 0 0 0
Cu 4.70471250 0.00000000 -1.108785600000001 0 0 0
Cu 1.56823750 4.43564500 -1.108785600000001 0 0 0
Cu 4.70471250 6.65346750 -3.3266233300000003 0 0 0
Cu 1.56823750 2.21782250 -3.3266233300000003 0 0 0
Cu 1.56823750 6.65346750 -3.3266233300000003 0 0 0
Cu 4.70471250 2.21782250 -3.3266233300000003 0 0 0
Cu 1.25709918 4.43564500 3.96337545
Cu 4.35650105 0.00000000 3.45909123
Cu 5.01585082 4.43564500 3.96337545
Cu 1.91644895 0.00000000 3.45909123
Cu 4.74090742 2.22518567 1.04668294
Cu 1.53204258 6.64610433 1.04668294
Cu 1.53204258 2.22518567 1.04668294
Cu 4.74090742 6.64610433 1.04668294
C 0.00000000 0.00000000 3.48574473
