&CONTROL
calculation = 'relax'
prefix = 'scf'
pseudo_dir = '/vol0004/mdt0/data/hp150275/u10028/POT_HYBRID_KKJUS_GBRV'
outdir = './data'
tprnfor = .true.
nstep = 50
disk_io = 'non'
/
&SYSTEM
ibrav = 0
ecutwfc = 50.0
ecutrho = 400
occupations = 'smearing'
smearing = 'mp'
degauss = 0.01
assume_isolated = 'esm'
esm_bc = 'bc1'
input_dft = 'BEEF-VDW'
nosym = .true.
nspin = 2
ntyp = 2
nat = 16
starting_magnetization(1) = 0.1
starting_magnetization(2) = 0.1
/
&ELECTRONS
electron_maxstep = 200
mixing_beta = 0.1
conv_thr = 1e-06
/
&IONS
ion_dynamics = 'bfgs'
upscale = 1.0
/
&CELL
/

K_POINTS {automatic}
10 10 2 0  0  0

ATOMIC_SPECIES
Al 26.98 Al.pbe-nl-rrkjus_psl.1.0.0.UPF
Co 58.93 co_pbe_v1.2.uspp.F.UPF

CELL_PARAMETERS {angstrom}
5.70199000 0.00000000 0.00000000
-0.00000000 5.70199000 0.00000000
0.00000000 0.00000000 24.27650000

ATOMIC_POSITIONS {angstrom}
Al 1.42549750 1.42549750 -0.9778574199999994 0 0 0
Al 1.42549750 1.42549750 1.87317474
Al 1.42549750 4.27649250 -0.9778574199999994 0 0 0
Al 1.42549750 4.27649250 1.87317474
Al 4.27649250 1.42549750 -0.9778574199999994 0 0 0
Al 4.27649250 1.42549750 1.87317474
Al 4.27649250 4.27649250 -0.9778574199999994 0 0 0
Al 4.27649250 4.27649250 1.87317474
Co 0.00000000 0.00000000 -2.403373499999997 0 0 0
Co 0.00000000 0.00000000 0.44765866
Co 0.00000000 2.85099500 -2.403373499999997 0 0 0
Co 0.00000000 2.85099500 0.44765866
Co 2.85099500 0.00000000 -2.403373499999997 0 0 0
Co 2.85099500 -0.00000000 0.44765866
Co 2.85099500 2.85099500 -2.403373499999997 0 0 0
Co 2.85099500 2.85099500 0.44765866
