&CONTROL
calculation = 'relax'
prefix = 'scf'
pseudo_dir = '/vol0004/mdt0/data/hp150275/u10028/POT_HYBRID_KKJUS_GBRV'
outdir = './data'
tprnfor = .true.
nstep = 50
disk_io = 'non'
/
&SYSTEM
ibrav = 0
ecutwfc = 50.0
ecutrho = 400
occupations = 'smearing'
smearing = 'mp'
degauss = 0.01
assume_isolated = 'esm'
esm_bc = 'bc1'
input_dft = 'BEEF-VDW'
nosym = .true.
nspin = 2
ntyp = 3
nat = 32
starting_magnetization(1) = 0.1
starting_magnetization(2) = 0.0
starting_magnetization(3) = 0.0
/
&ELECTRONS
electron_maxstep = 200
mixing_beta = 0.1
conv_thr = 1e-06
/
&IONS
ion_dynamics = 'bfgs'
upscale = 1.0
/
&CELL
/

K_POINTS {automatic}
9 6 2 0  0  0

ATOMIC_SPECIES
Co 58.93 co_pbe_v1.2.uspp.F.UPF
Hf 178.4 Hf.pbe-spn-rrkjus_psl.1.0.0.UPF
Sn 118.7 Sn.pbe-dn-rrkjus_psl.1.0.0.UPF

CELL_PARAMETERS {angstrom}
6.26570000 0.00000000 0.00000000
0.00000000 8.86104000 0.00000000
0.00000000 0.00000000 26.64580000

ATOMIC_POSITIONS {angstrom}
Hf 0.00000000 0.00000000 23.32280228
Hf 3.13285000 2.21526000 25.53813409
Hf 3.13285000 6.64578000 25.53813409
Hf 0.00000000 4.43052000 23.32280228
Hf 0.00000000 4.43052000 1.12498568
Hf 3.13285000 6.64586861 3.29688483
Hf 3.13285000 2.21517139 3.29688483
Hf 0.00000000 0.00000000 1.12498568
Co 1.56642500 0.00000000 25.53813409
Co 4.69927500 4.43052000 25.53813409
Co 4.69927500 0.00000000 25.53813409
Co 1.56642500 4.43052000 25.53813409
Co 4.69927500 6.64578000 23.32280228
Co 1.56642500 2.21526000 23.32280228
Co 1.56642500 6.64578000 23.32280228
Co 4.69927500 2.21526000 23.32280228
Co 1.50997104 4.43052000 3.15486272
Co 4.75572896 0.00000000 3.15486272
Co 4.75572896 4.43052000 3.15486272
Co 1.51003370 0.00000000 3.15486272
Co 4.67471346 2.21534861 1.15536189
Co 1.59098654 6.64569139 1.15536189
Co 1.59098654 2.21534861 1.15536189
Co 4.67471346 6.64569139 1.15536189
Sn 0.00000000 6.64578000 25.53813409
Sn 3.13285000 0.00000000 23.32280228
Sn 0.00000000 2.21526000 25.53813409
Sn 3.13285000 4.43052000 23.32280228
Sn 0.00000000 2.21543722 3.53003558
Sn 3.13285000 4.43052000 1.09514238
Sn 0.00000000 6.64560278 3.53003558
Sn 3.13285000 0.00000000 1.09487592
