&CONTROL
calculation = 'relax'
prefix = 'scf'
pseudo_dir = '/vol0403/data/hp230205/u10028/POT_HYBRID_KKJUS_GBRV'
outdir = './data'
tprnfor = .true.
nstep = 50
disk_io = 'non'
/
&SYSTEM
ibrav = 0
ecutwfc = 50.0
ecutrho = 400
occupations = 'smearing'
smearing = 'mp'
degauss = 0.01
assume_isolated = 'esm'
esm_bc = 'bc1'
input_dft = 'BEEF-VDW'
nosym = .true.
nspin = 1
ntyp = 6
nat = 34
/
&ELECTRONS
electron_maxstep = 200
mixing_beta = 0.1
conv_thr = 1e-06
/
&IONS
ion_dynamics = 'bfgs'
upscale = 1.0
/
&CELL
/

K_POINTS {automatic}
6 6 1 0 0 0

ATOMIC_SPECIES
C 12.01 C.pbe-n-rrkjus_psl.1.0.0.UPF
Ga 69.72 Ga.pbe-dnl-rrkjus_psl.1.0.0.UPF
Li 6.941 Li.pbe-sl-rrkjus_psl.1.0.0.UPF
O 15.99 O.pbe-n-rrkjus_psl.1.0.0.UPF
Pd 106.4 Pd.pbe-n-rrkjus_psl.1.0.0.UPF
Sc 44.95 Sc.pbe-spn-rrkjus_psl.1.0.0.UPF


CELL_PARAMETERS {angstrom}
6.35289000 0.00000000 0.00000000
0.00000000 8.98434000 0.00000000
0.00000000 0.00000000 26.73830000

ATOMIC_POSITIONS {angstrom}
Li 4.76466750 0.00000000 -1.1230085999999986 0 0 0
Li 4.76466750 4.49217000 -1.1230085999999986 0 0 0
Li 1.58822250 2.24608500 -3.3690257999999993 0 0 0
Li 1.58822250 6.73825500 -3.3690257999999993 0 0 0
Li 3.62794489 4.29532311 4.99177323
Li 3.62775431 0.19729611 4.99230799
Li 1.55232867 6.73825500 1.17648520
Li 1.47139285 2.24608500 1.15616409
Sc 0.00000000 2.24608500 -1.1230085999999986 0 0 0
Sc 0.00000000 6.73825500 -1.1230085999999986 0 0 0
Sc 3.17644500 4.49217000 -3.3690257999999993 0 0 0
Sc 3.17644500 0.00000000 -3.3690257999999993 0 0 0
Sc 6.01218451 6.73816516 3.32089686
Sc 5.96199668 2.24617484 3.39710101
Sc 3.29289347 8.97436738 1.37087264
Sc 3.29289347 4.50214262 1.37087264
Ga 0.00000000 0.00000000 -3.3690257999999993 0 0 0
Ga 0.00000000 4.49217000 -3.3690257999999993 0 0 0
Ga 3.17644500 6.73825500 -1.1230085999999986 0 0 0
Ga 3.17644500 2.24608500 -1.1230085999999986 0 0 0
Ga 6.31324797 4.48830673 1.10589609
Ga 6.31312091 0.00386327 1.10589609
Ga 3.00694989 2.24608500 3.24816868
Ga 2.98751005 6.73825500 3.52303841
Pd 1.58822250 0.00000000 -1.1230085999999986 0 0 0
Pd 1.58822250 4.49217000 -1.1230085999999986 0 0 0
Pd 4.76466750 2.24608500 -3.3690257999999993 0 0 0
Pd 4.76466750 6.73825500 -3.3690257999999993 0 0 0
Pd 1.46338821 4.51894333 3.24656439
Pd 1.46338821 8.95747682 3.24656439
Pd 4.74954762 6.73825500 1.02728549
Pd 4.74128886 2.24608500 0.98771280
C 4.59612533 2.24599516 5.06503617
O 4.02881225 2.24509672 6.15916740
