&CONTROL
calculation = 'relax'
prefix = 'scf'
pseudo_dir = '/vol0004/mdt0/data/hp150275/u10028/POT_KKJUS'
outdir = './data'
tprnfor = .true.
nstep = 50
disk_io = 'non'
/
&SYSTEM
ibrav = 0
ecutwfc = 50.0
ecutrho = 400
occupations = 'smearing'
smearing = 'mp'
degauss = 0.01
assume_isolated = 'esm'
esm_bc = 'bc1'
input_dft = 'BEEF-VDW'
nosym = .true.
nspin = 1
ntyp = 3
nat = 33
/
&ELECTRONS
electron_maxstep = 200
mixing_beta = 0.1
conv_thr = 1e-06
/
&IONS
ion_dynamics = 'bfgs'
upscale = 1.0
/
&CELL
/

K_POINTS {automatic}
8 6 1 0 0 0

ATOMIC_SPECIES
Au 196.9 Au.pbe-n-rrkjus_psl.1.0.0.UPF
C 12.01 C.pbe-n-rrkjus_psl.1.0.0.UPF
Mg 24.30 Mg.pbe-spnl-rrkjus_psl.1.0.0.UPF

CELL_PARAMETERS {angstrom}
6.67495000 0.00000000 0.00000000
0.00000000 9.43980000 0.00000000
0.00000000 0.00000000 27.07990000

ATOMIC_POSITIONS {angstrom}
Mg 1.66873750 2.35995000 -3.5398845299999984 0 0 0
Mg 1.66873750 4.71990000 -1.179871239999997 0 0 0
Mg 1.65271762 2.35523010 1.20018117
Mg 1.97178023 0.00000000 3.59621072
Mg 1.66873750 7.07985000 -3.5398845299999984 0 0 0
Mg 1.66873750 0.00000000 -1.179871239999997 0 0 0
Mg 1.65271762 7.08456990 1.20018117
Mg 1.55079113 4.71990000 3.57535920
Mg 5.00621250 2.35995000 -3.5398845299999984 0 0 0
Mg 5.00621250 4.71990000 -1.179871239999997 0 0 0
Mg 5.02223238 2.35523010 1.20018117
Mg 4.70316977 0.00000000 3.59621072
Mg 5.00621250 7.07985000 -3.5398845299999984 0 0 0
Mg 5.00621250 0.00000000 -1.179871239999997 0 0 0
Mg 5.02223238 7.08456990 1.20018117
Mg 5.12415887 4.71990000 3.57535920
Au 0.00000000 0.00000000 -3.5398845299999984 0 0 0
Au 0.00000000 2.35995000 -1.179871239999997 0 0 0
Au 0.00000000 0.00000000 1.14737536
Au 0.00000000 2.22552725 3.54123852
Au 0.00000000 4.71990000 -3.5398845299999984 0 0 0
Au 0.00000000 7.07985000 -1.179871239999997 0 0 0
Au 0.00000000 4.71990000 1.15197895
Au 0.00000000 7.21427275 3.54123852
Au 3.33747500 0.00000000 -3.5398845299999984 0 0 0
Au 3.33747500 2.35995000 -1.179871239999997 0 0 0
Au 3.33747500 0.00000000 1.09538195
Au 3.33747500 2.49427835 3.49384870
Au 3.33747500 4.71990000 -3.5398845299999984 0 0 0
Au 3.33747500 7.07985000 -1.179871239999997 0 0 0
Au 3.33747500 4.71990000 1.16335250
Au 3.33747500 6.94552165 3.49384870
C 0.00000000 0.00000000 4.07092137
