&CONTROL
calculation = 'relax'
prefix = 'scf'
pseudo_dir = '/vol0004/mdt0/data/hp150275/u10028/POT_KKJUS'
outdir = './data'
tprnfor = .true.
nstep = 50
disk_io = 'non'
/
&SYSTEM
ibrav = 0
ecutwfc = 50.0
ecutrho = 400
occupations = 'smearing'
smearing = 'mp'
degauss = 0.01
assume_isolated = 'esm'
esm_bc = 'bc1'
input_dft = 'BEEF-VDW'
nosym = .true.
nspin = 1
ntyp = 4
nat = 18
/
&ELECTRONS
electron_maxstep = 200
mixing_beta = 0.1
conv_thr = 1e-06
/
&IONS
ion_dynamics = 'bfgs'
upscale = 1.0
/
&CELL
/

K_POINTS {automatic}
6 8 1 0 0 0

ATOMIC_SPECIES
C 12.01 C.pbe-n-rrkjus_psl.1.0.0.UPF
Ca 40.07 Ca.pbe-spn-rrkjus_psl.1.0.0.UPF
O 15.99 O.pbe-n-rrkjus_psl.1.0.0.UPF
Pb 207.2 Pb.pbe-dn-rrkjus_psl.1.0.0.UPF

CELL_PARAMETERS {angstrom}
10.04260000 0.00000000 0.00000000
0.00000000 7.10117000 0.00000000
0.00000000 0.00000000 25.32590000

ATOMIC_POSITIONS {angstrom}
Ca 10.04249957 7.10109899 2.39127148
Ca 0.00000000 3.55058500 -0.8876727899999999 0 0 0
Ca 5.02119957 0.00000000 2.38316719
Ca 5.02130000 3.55058500 -0.8876727899999999 0 0 0
Pb 10.04249957 3.55051399 2.55057139
Pb 2.50462444 5.24911385 0.91299869
Pb 2.50452401 1.85191412 0.91299869
Pb 0.00000000 0.00000000 -0.8876727899999999 0 0 0
Pb 2.51065000 1.77529250 -2.6630183900000013 0 0 0
Pb 2.51065000 5.32587750 -2.6630183900000013 0 0 0
Pb 5.02140043 3.55058500 2.52676504
Pb 7.53797556 5.24925588 0.91325195
Pb 7.53787513 1.85198514 0.91299869
Pb 5.02130000 0.00000000 -0.8876727899999999 0 0 0
Pb 7.53195000 1.77529250 -2.6630183900000013 0 0 0
Pb 7.53195000 5.32587750 -2.6630183900000013 0 0 0
C 0.00070298 3.55072702 6.90535989
O 10.04249957 3.55058500 8.04097325
