&CONTROL
calculation = 'relax'
prefix = 'scf'
pseudo_dir = '/vol0004/mdt0/data/hp150275/u10028/POT_KKJUS'
outdir = './data'
tprnfor = .true.
nstep = 50
disk_io = 'non'
/
&SYSTEM
ibrav = 0
ecutwfc = 50.0
ecutrho = 400
occupations = 'smearing'
smearing = 'mp'
degauss = 0.01
assume_isolated = 'esm'
esm_bc = 'bc1'
input_dft = 'BEEF-VDW'
nosym = .true.
nspin = 1
ntyp = 4
nat = 33
/
&ELECTRONS
electron_maxstep = 200
mixing_beta = 0.1
conv_thr = 1e-06
/
&IONS
ion_dynamics = 'bfgs'
upscale = 1.0
/
&CELL
/

K_POINTS {automatic}
9 6 2 0  0  0

ATOMIC_SPECIES
C 12.01 C.pbe-n-rrkjus_psl.1.0.0.UPF
In 114.8 In.pbe-dn-rrkjus_psl.1.0.0.UPF
Li 6.941 Li.pbe-sl-rrkjus_psl.1.0.0.UPF
Pt 195.0 Pt.pbe-n-rrkjus_psl.1.0.0.UPF

CELL_PARAMETERS {angstrom}
6.43375000 0.00000000 0.00000000
0.00000000 9.09870000 0.00000000
0.00000000 0.00000000 26.82400000

ATOMIC_POSITIONS {angstrom}
Li 0.00000000 6.82402500 -1.1373376000000022 0 0 0
Li 3.21687500 0.00000000 -3.412012800000003 0 0 0
Li 0.00000000 2.27467500 -1.1373376000000022 0 0 0
Li 3.21687500 4.54935000 -3.412012800000003 0 0 0
Li 1.60843750 2.27467500 -3.412012800000003 0 0 0
Li 1.60843750 6.82402500 -3.412012800000003 0 0 0
Li 4.82531250 4.54935000 -1.1373376000000022 0 0 0
Li 4.82531250 0.00000000 -1.1373376000000022 0 0 0
Li 6.42725191 2.27467500 4.02628240
Li 3.13934831 4.47164710 1.20573880
Li 5.98538196 6.82402500 3.55283880
Li 3.13934831 0.07770290 1.20573880
Li 1.60579966 6.82402500 1.12499856
Li 1.50228063 2.27467500 0.99999872
Li 4.57877120 0.14894572 3.51769936
Li 4.57877120 4.40040428 3.51769936
In 1.60843750 0.00000000 -1.1373376000000022 0 0 0
In 1.60843750 4.54935000 -1.1373376000000022 0 0 0
In 4.82531250 6.82402500 -3.412012800000003 0 0 0
In 4.82531250 2.27467500 -3.412012800000003 0 0 0
In 1.43575565 4.72359010 3.55900832
In 1.43575565 8.92455088 3.55874008
In 4.95405184 2.27467500 1.15021312
In 4.80659029 6.82402500 1.10622176
Pt 0.00000000 0.00000000 -3.412012800000003 0 0 0
Pt 3.21687500 2.27467500 -1.1373376000000022 0 0 0
Pt 3.21687500 6.82402500 -1.1373376000000022 0 0 0
Pt 0.00000000 4.54935000 -3.412012800000003 0 0 0
Pt 0.01312485 4.61113017 1.11131832
Pt 3.16572669 6.82402500 3.21646584
Pt 2.63905991 2.27467500 3.26018896
Pt 0.01306051 9.03691983 1.11131832
C 4.51758624 2.27467500 3.44661576
