&CONTROL
calculation = 'relax'
prefix = 'scf'
pseudo_dir = '/vol0004/mdt0/data/hp150275/u10028/POT_HYBRID_KKJUS_GBRV'
outdir = './data'
tprnfor = .true.
nstep = 50
disk_io = 'non'
/
&SYSTEM
ibrav = 0
ecutwfc = 50.0
ecutrho = 400
occupations = 'smearing'
smearing = 'mp'
degauss = 0.01
assume_isolated = 'esm'
esm_bc = 'bc1'
input_dft = 'BEEF-VDW'
nosym = .true.
nspin = 2
ntyp = 4
nat = 33
starting_magnetization(1) = 0.0
starting_magnetization(2) = 0.1
starting_magnetization(3) = 0.1
starting_magnetization(4) = 0.0
/
&ELECTRONS
electron_maxstep = 200
mixing_beta = 0.1
conv_thr = 1e-06
/
&IONS
ion_dynamics = 'bfgs'
upscale = 1.0
/
&CELL
/

K_POINTS {automatic}
9 6 2 0  0  0

ATOMIC_SPECIES
C 12.01 C.pbe-n-rrkjus_psl.1.0.0.UPF
Co 58.93 co_pbe_v1.2.uspp.F.UPF
Fe 55.84 fe_pbe_v1.5.uspp.F.UPF
Ga 69.72 Ga.pbe-dnl-rrkjus_psl.1.0.0.UPF

CELL_PARAMETERS {angstrom}
5.74310000 0.00000000 0.00000000
0.00000000 8.12197000 0.00000000
0.00000000 0.00000000 26.09150000

ATOMIC_POSITIONS {angstrom}
Ga 0.00000000 0.00000000 23.04583921
Ga 2.87155000 2.03049250 25.07627973
Ga 2.87155000 6.09147750 25.07627973
Ga 0.00000000 4.06098500 23.04583921
Ga 5.74304257 4.06090378 0.99930445
Ga 2.87160743 6.03169980 3.23378051
Ga 2.87160743 2.09027020 3.23378051
Ga 5.74304257 0.00000000 1.00556641
Fe 0.00000000 6.09147750 25.07627973
Fe 2.87155000 0.00000000 23.04583921
Fe 0.00000000 2.03049250 25.07627973
Fe 2.87155000 4.06098500 23.04583921
Fe 0.00000000 2.00547683 3.07566602
Fe 2.87155000 4.06098500 1.04522549
Fe 0.00000000 6.11641195 3.07566602
Fe 2.87155000 0.00000000 0.93668485
Co 1.43577500 0.00000000 25.07627973
Co 4.30732500 4.06098500 25.07627973
Co 4.30732500 0.00000000 25.07627973
Co 1.43577500 4.06098500 25.07627973
Co 4.30732500 6.09147750 23.04583921
Co 1.43577500 2.03049250 23.04583921
Co 1.43577500 6.09147750 23.04583921
Co 4.30732500 2.03049250 23.04583921
Co 1.40711693 4.06098500 2.99269505
Co 4.14393381 0.00000000 2.98434577
Co 4.33598307 4.06098500 2.99269505
Co 1.59922363 0.00000000 2.98434577
Co 4.29859549 2.01692881 1.06114131
Co 1.44450451 6.10504119 1.06140222
Co 1.44450451 2.01692881 1.06114131
Co 4.29859549 6.10504119 1.06114131
C 0.00000000 0.00000000 3.70447117
