&CONTROL
calculation = 'relax'
prefix = 'scf'
pseudo_dir = '/vol0403/data/hp230205/u10028/POT_HYBRID_KKJUS_GBRV'
outdir = './data'
tprnfor = .true.
nstep = 70
disk_io = 'non'
/
&SYSTEM
ibrav = 0
ecutwfc = 50.0
ecutrho = 400
occupations = 'smearing'
smearing = 'mp'
degauss = 0.01
assume_isolated = 'esm'
esm_bc = 'bc1'
input_dft = 'BEEF-VDW'
nosym = .true.
nspin = 1
ntyp = 5
nat = 33
/
&ELECTRONS
electron_maxstep = 200
mixing_beta = 0.1
conv_thr = 1e-06
/
&IONS
ion_dynamics = 'bfgs'
upscale = 1.0
/
&CELL
/

K_POINTS {automatic}
9 6 2 0  0  0

ATOMIC_SPECIES
Au 196.9 Au.pbe-n-rrkjus_psl.1.0.0.UPF
C 12.01 C.pbe-n-rrkjus_psl.1.0.0.UPF
In 114.8 In.pbe-dn-rrkjus_psl.1.0.0.UPF
Pd 106.4 Pd.pbe-n-rrkjus_psl.1.0.0.UPF
Y 88.90 Y.pbe-spn-rrkjus_psl.1.0.0.UPF


CELL_PARAMETERS {angstrom}
6.93157000 0.00000000 0.00000000
-0.00000000 9.80272000 0.00000000
0.00000000 0.00000000 27.35200000

ATOMIC_POSITIONS {angstrom}
Y 5.19867750 0.00000000 -1.2253696000000005 0 0 0
Y 5.19867750 4.90136000 -1.2253696000000005 0 0 0
Y 1.73289250 2.45068000 -3.6761088000000015 0 0 0
Y 1.73289250 7.35204000 -3.6761088000000015 0 0 0
Y 4.91670123 4.90136000 3.58420608
Y 4.98054099 -0.00000000 3.60909640
Y 1.76387662 7.39095680 1.36814704
Y 1.76380730 2.41176320 1.36814704
In 1.73289250 0.00000000 -1.2253696000000005 0 0 0
In 1.73289250 4.90136000 -1.2253696000000005 0 0 0
In 5.19867750 2.45068000 -3.6761088000000015 0 0 0
In 5.19867750 7.35204000 -3.6761088000000015 0 0 0
In 1.64493088 4.90136000 3.83748560
In 0.83761092 0.00000000 4.91105160
In 5.16700023 7.33615959 1.26858576
In 5.16700023 2.46656041 1.26858576
Pd 0.00000000 2.45068000 -1.2253696000000005 0 0 0
Pd 0.00000000 7.35204000 -1.2253696000000005 0 0 0
Pd 3.46578500 4.90136000 -3.6761088000000015 0 0 0
Pd 3.46578500 0.00000000 -3.6761088000000015 0 0 0
Pd 6.80188033 7.24371994 3.58830888
Pd 6.80188033 2.55900006 3.58830888
Pd 3.52019782 -0.00000000 1.03664080
Pd 3.43078057 4.90136000 1.15015160
Au 0.00000000 0.00000000 -3.6761088000000015 0 0 0
Au 0.00000000 4.90136000 -3.6761088000000015 0 0 0
Au 3.46578500 7.35204000 -1.2253696000000005 0 0 0
Au 3.46578500 2.45068000 -1.2253696000000005 0 0 0
Au 0.03888611 4.90136000 1.30879320
Au 6.93059958 -0.00000000 1.24861880
Au 2.90425851 2.25658614 4.07325984
Au 2.90432783 7.54623188 4.07325984
C 2.96553359 0.00019605 4.57544256
