&CONTROL
calculation = 'relax'
prefix = 'scf'
pseudo_dir = '/vol0004/mdt0/data/hp150275/u10028/POT_KKJUS'
outdir = './data'
tprnfor = .true.
nstep = 50
disk_io = 'non'
/
&SYSTEM
ibrav = 0
ecutwfc = 50.0
ecutrho = 400
occupations = 'smearing'
smearing = 'mp'
degauss = 0.01
assume_isolated = 'esm'
esm_bc = 'bc1'
input_dft = 'BEEF-VDW'
nosym = .true.
nspin = 1
ntyp = 4
nat = 34
/
&ELECTRONS
electron_maxstep = 200
mixing_beta = 0.1
conv_thr = 1e-06
/
&IONS
ion_dynamics = 'bfgs'
upscale = 1.0
/
&CELL
/

K_POINTS {automatic}
9 6 2 0  0  0

ATOMIC_SPECIES
C 12.01 C.pbe-n-rrkjus_psl.1.0.0.UPF
Hf 178.4 Hf.pbe-spn-rrkjus_psl.1.0.0.UPF
O 15.99 O.pbe-n-rrkjus_psl.1.0.0.UPF
Ru 101.0 Ru.pbe-spn-rrkjus_psl.1.0.0.UPF

CELL_PARAMETERS {angstrom}
6.47981000 0.00000000 0.00000000
0.00000000 9.16384000 0.00000000
0.00000000 0.00000000 26.87290000

ATOMIC_POSITIONS {angstrom}
Hf 0.00000000 0.00000000 -3.436506450000003 0 0 0
Hf 0.00000000 2.29096000 -1.1455917299999996 0 0 0
Hf 6.45790824 0.00000000 1.16090928
Hf 6.46989589 2.29719141 3.46579791
Hf 0.00000000 4.58192000 -3.436506450000003 0 0 0
Hf 0.00000000 6.87288000 -1.1455917299999996 0 0 0
Hf 0.00414708 4.58192000 1.18294506
Hf 6.46989589 6.86664859 3.46579791
Hf 3.23990500 0.00000000 -3.436506450000003 0 0 0
Hf 3.23990500 2.29096000 -1.1455917299999996 0 0 0
Hf 3.26180676 0.00000000 1.16090928
Hf 3.24981911 2.29719141 3.46579791
Hf 3.23990500 4.58192000 -3.436506450000003 0 0 0
Hf 3.23990500 6.87288000 -1.1455917299999996 0 0 0
Hf 3.23575792 4.58192000 1.18294506
Hf 3.24981911 6.86664859 3.46579791
Ru 1.61995250 2.29096000 -3.436506450000003 0 0 0
Ru 1.61995250 0.00000000 -1.1455917299999996 0 0 0
Ru 1.61995250 2.24862306 1.17273336
Ru 1.61995250 0.00000000 3.45585494
Ru 1.61995250 6.87288000 -3.436506450000003 0 0 0
Ru 1.61995250 4.58192000 -1.1455917299999996 0 0 0
Ru 1.61995250 6.91521694 1.17273336
Ru 1.61995250 4.58192000 3.28440584
Ru 4.85985750 2.29096000 -3.436506450000003 0 0 0
Ru 4.85985750 0.00000000 -1.1455917299999996 0 0 0
Ru 4.85985750 2.29627503 1.16279038
Ru 4.85985750 0.00000000 3.27365668
Ru 4.85985750 6.87288000 -3.436506450000003 0 0 0
Ru 4.85985750 4.58192000 -1.1455917299999996 0 0 0
Ru 4.85985750 6.86756497 1.16279038
Ru 4.85985750 4.58192000 3.29193025
C 1.61995250 0.00000000 5.34340744
O 1.61995250 0.00000000 6.51318477
