&CONTROL
calculation = 'relax'
prefix = 'scf'
pseudo_dir = '/vol0403/data/hp230205/u10028/POT_HYBRID_KKJUS_GBRV'
outdir = './data'
tprnfor = .true.
nstep = 50
disk_io = 'non'
/
&SYSTEM
ibrav = 0
ecutwfc = 50.0
ecutrho = 400
occupations = 'smearing'
smearing = 'mp'
degauss = 0.01
assume_isolated = 'esm'
esm_bc = 'bc1'
input_dft = 'BEEF-VDW'
nosym = .true.
nspin = 1
ntyp = 5
nat = 17
/
&ELECTRONS
electron_maxstep = 200
mixing_beta = 0.1
conv_thr = 1e-06
/
&IONS
ion_dynamics = 'bfgs'
upscale = 1.0
/
&CELL
/

K_POINTS {automatic}
11 7 2 0  0  0

ATOMIC_SPECIES
C 12.01 C.pbe-n-rrkjus_psl.1.0.0.UPF
In 114.8 In.pbe-dn-rrkjus_psl.1.0.0.UPF
Li 6.941 Li.pbe-sl-rrkjus_psl.1.0.0.UPF
Pb 207.2 Pb.pbe-dn-rrkjus_psl.1.0.0.UPF
Y 88.90 Y.pbe-spn-rrkjus_psl.1.0.0.UPF


CELL_PARAMETERS {angstrom}
6.51578000 0.00000000 0.00000000
0.00000000 9.32892000 0.00000000
0.00000000 0.00000000 24.88170000

ATOMIC_POSITIONS {angstrom}
Li 1.70355068 2.33223000 0.63896206
Li 4.66301796 2.33223000 -2.44089477 0 0 0
Li 1.72746359 6.99669000 0.79621440
Li 4.66301796 6.99669000 -2.44089477 0 0 0
Y 3.40416926 0.50618720 2.52847835
Y 6.36656864 0.00000000 -0.81363159 0 0 0
Y 3.40416926 4.15827280 2.52847835
Y 6.36656864 4.66446000 -0.81363159 0 0 0
In 0.20205434 0.71832684 3.05348222
In 3.10867864 0.00000000 -0.81363159 0 0 0
In 0.20205434 3.94613316 3.05348222
In 3.10867864 4.66446000 -0.81363159 0 0 0
Pb 5.09312459 2.33223000 0.66981536
Pb 1.40512796 2.33223000 -2.44089477 0 0 0
Pb 4.95759637 6.99678329 1.10723565
Pb 1.40512796 6.99669000 -2.44089477 0 0 0
C 2.08289939 2.33223000 2.75390656
