&CONTROL
calculation = 'relax'
prefix = 'scf'
pseudo_dir = '/vol0403/data/hp230205/u10028/POT_HYBRID_KKJUS_GBRV'
outdir = './data'
tprnfor = .true.
nstep = 50
disk_io = 'non'
/
&SYSTEM
ibrav = 0
ecutwfc = 50.0
ecutrho = 400
occupations = 'smearing'
smearing = 'mp'
degauss = 0.01
assume_isolated = 'esm'
esm_bc = 'bc1'
input_dft = 'BEEF-VDW'
nosym = .true.
nspin = 2
ntyp = 6
nat = 34
starting_magnetization(1) = 0.0
starting_magnetization(2) = 0.0
starting_magnetization(3) = 0.0
starting_magnetization(4) = 0.001
starting_magnetization(5) = 0.0
starting_magnetization(6) = 0.0
/
&ELECTRONS
electron_maxstep = 200
mixing_beta = 0.1
conv_thr = 1e-06
/
&IONS
ion_dynamics = 'bfgs'
upscale = 1.0
/
&CELL
/

K_POINTS {automatic}
9 6 2 0  0  0

ATOMIC_SPECIES
Al 26.98 Al.pbe-nl-rrkjus_psl.1.0.0.UPF
C 12.01 C.pbe-n-rrkjus_psl.1.0.0.UPF
Li 6.941 Li.pbe-sl-rrkjus_psl.1.0.0.UPF
Ni 58.69 ni_pbe_v1.4.uspp.F.UPF
O 15.99 O.pbe-n-rrkjus_psl.1.0.0.UPF
Pd 106.4 Pd.pbe-n-rrkjus_psl.1.0.0.UPF


CELL_PARAMETERS {angstrom}
5.91240000 0.00000000 0.00000000
0.00000000 8.36140000 0.00000000
0.00000000 0.00000000 26.27110000

ATOMIC_POSITIONS {angstrom}
Li 0.00000000 2.09035000 25.22603564
Li 0.00000000 6.27105000 25.22603564
Li 2.95620000 4.18070000 23.13564422
Li 2.95620000 0.00000000 23.13564422
Li 0.08827213 6.22849047 3.52347993
Li 0.08833126 2.13290953 3.52347993
Li 3.00846562 0.00000000 1.03429321
Li 2.98227368 4.18070000 0.98753065
Al 0.00000000 0.00000000 23.13564422
Al 0.00000000 4.18070000 23.13564422
Al 2.95620000 6.27105000 25.22603564
Al 2.95620000 2.09035000 25.22603564
Al 0.00195109 4.18070000 1.05399653
Al 5.88875040 0.00000000 1.06214057
Al 2.95099709 2.08733990 3.07713394
Al 2.95099709 6.27397649 3.07713394
Ni 1.47810000 0.00000000 25.22603564
Ni 1.47810000 4.18070000 25.22603564
Ni 4.43430000 2.09035000 23.13564422
Ni 4.43430000 6.27105000 23.13564422
Ni 1.60793630 4.18070000 2.96338008
Ni 1.57535898 8.36131639 2.95812586
Ni 4.48059409 6.28551522 1.08079305
Ni 4.48059409 2.07588478 1.08105576
Pd 4.43430000 0.00000000 25.22603564
Pd 4.43430000 4.18070000 25.22603564
Pd 1.47810000 2.09035000 23.13564422
Pd 1.47810000 6.27105000 23.13564422
Pd 4.38930664 4.18070000 3.06268484
Pd 4.46457149 0.00000000 3.27810786
Pd 1.44735552 6.27698659 1.03613218
Pd 1.44735552 2.08441341 1.03639489
C 4.95098464 0.00000000 5.18013550
O 5.11534936 0.00000000 6.32108937
