&CONTROL
calculation = 'relax'
prefix = 'scf'
pseudo_dir = '/vol0004/mdt0/data/hp150275/u10028/POT_KKJUS'
outdir = './data'
tprnfor = .true.
nstep = 50
disk_io = 'non'
/
&SYSTEM
ibrav = 0
ecutwfc = 50.0
ecutrho = 400
occupations = 'smearing'
smearing = 'mp'
degauss = 0.01
assume_isolated = 'esm'
esm_bc = 'bc1'
input_dft = 'BEEF-VDW'
nosym = .true.
nspin = 1
ntyp = 3
nat = 16
/
&ELECTRONS
electron_maxstep = 200
mixing_beta = 0.1
conv_thr = 1e-06
/
&IONS
ion_dynamics = 'bfgs'
upscale = 1.0
/
&CELL
/

K_POINTS {automatic}
10 10 2 0  0  0

ATOMIC_SPECIES
Ag 107.8 Ag.pbe-n-rrkjus_psl.1.0.0.UPF
Li 6.941 Li.pbe-sl-rrkjus_psl.1.0.0.UPF
Sn 118.7 Sn.pbe-dn-rrkjus_psl.1.0.0.UPF

CELL_PARAMETERS {angstrom}
6.77071000 0.00000000 0.00000000
-0.00000000 6.77071000 0.00000000
0.00000000 0.00000000 25.07800000

ATOMIC_POSITIONS {angstrom}
Li 0.00000000 0.00000000 2.53889672
Li 3.38535500 3.38535500 2.53889672
Li 3.38535500 0.00000000 -0.8463825000000007 0 0 0
Li 0.00000000 3.38535500 -0.8463825000000007 0 0 0
Ag 1.69267750 1.69267750 0.84638250
Ag 5.07803250 5.07803250 -2.5388967200000003 0 0 0
Ag 5.07803250 1.69267750 0.84638250
Ag 1.69267750 5.07803250 -2.5388967200000003 0 0 0
Ag 5.07803250 5.07803250 0.84638250
Ag 1.69267750 1.69267750 -2.5388967200000003 0 0 0
Ag 1.69267750 5.07803250 0.84638250
Ag 5.07803250 1.69267750 -2.5388967200000003 0 0 0
Sn 0.00000000 0.00000000 -0.8463825000000007 0 0 0
Sn 3.38535500 -0.00000000 2.53889672
Sn 0.00000000 3.38535500 2.53889672
Sn 3.38535500 3.38535500 -0.8463825000000007 0 0 0
