&CONTROL
calculation = 'relax'
prefix = 'scf'
pseudo_dir = '/vol0004/mdt0/data/hp150275/u10028/POT_KKJUS'
outdir = './data'
tprnfor = .true.
nstep = 50
disk_io = 'non'
/
&SYSTEM
ibrav = 0
ecutwfc = 50.0
ecutrho = 400
occupations = 'smearing'
smearing = 'mp'
degauss = 0.01
assume_isolated = 'esm'
esm_bc = 'bc1'
input_dft = 'BEEF-VDW'
nosym = .true.
nspin = 1
ntyp = 4
nat = 18
/
&ELECTRONS
electron_maxstep = 200
mixing_beta = 0.1
conv_thr = 1e-06
/
&IONS
ion_dynamics = 'bfgs'
upscale = 1.0
/
&CELL
/

K_POINTS {automatic}
10 10 2 0  0  0

ATOMIC_SPECIES
Be 9.012 Be.pbe-n-rrkjus_psl.1.0.0.UPF
C 12.01 C.pbe-n-rrkjus_psl.1.0.0.UPF
Cu 63.54 Cu.pbe-dn-rrkjus_psl.1.0.0.UPF
O 15.99 O.pbe-n-rrkjus_psl.1.0.0.UPF

CELL_PARAMETERS {angstrom}
5.39777000 0.00000000 0.00000000
-0.00000000 5.39777000 0.00000000
0.00000000 0.00000000 24.04830000

ATOMIC_POSITIONS {angstrom}
Be 1.34944250 1.34944250 -1.1817334600000002 0 0 0
Be 1.34944250 1.34944250 1.51696676
Be 1.34944250 4.04832750 -1.1817334600000002 0 0 0
Be 1.34944250 4.04832750 1.51696676
Be 4.04832750 1.34944250 -1.1817334600000002 0 0 0
Be 4.04832750 1.34944250 1.51696676
Be 4.04832750 4.04832750 -1.1817334600000002 0 0 0
Be 4.04832750 4.04832750 1.51696676
Cu 0.00000000 0.00000000 -2.531324060000003 0 0 0
Cu 0.00000000 0.00000000 0.16761665
Cu 0.00000000 2.69888500 -2.531324060000003 0 0 0
Cu 0.00000000 2.69888500 0.16761665
Cu 2.69888500 0.00000000 -2.531324060000003 0 0 0
Cu 2.69888500 -0.00000000 0.16761665
Cu 2.69888500 2.69888500 -2.531324060000003 0 0 0
Cu 2.69888500 2.69888500 0.16761665
C 1.34944250 1.34944250 3.41702295
O 1.34944250 1.34944250 4.56701265
