&CONTROL
calculation = 'relax'
prefix = 'scf'
pseudo_dir = '/vol0004/mdt0/data/hp150275/u10028/POT_KKJUS'
outdir = './data'
tprnfor = .true.
nstep = 50
disk_io = 'non'
/
&SYSTEM
ibrav = 0
ecutwfc = 50.0
ecutrho = 400
occupations = 'smearing'
smearing = 'mp'
degauss = 0.01
assume_isolated = 'esm'
esm_bc = 'bc1'
input_dft = 'BEEF-VDW'
nosym = .true.
nspin = 1
ntyp = 5
nat = 18
/
&ELECTRONS
electron_maxstep = 200
mixing_beta = 0.1
conv_thr = 1e-06
/
&IONS
ion_dynamics = 'bfgs'
upscale = 1.0
/
&CELL
/

K_POINTS {automatic}
9 9 2 0  0  0

ATOMIC_SPECIES
Ag 107.8 Ag.pbe-n-rrkjus_psl.1.0.0.UPF
C 12.01 C.pbe-n-rrkjus_psl.1.0.0.UPF
Ge 72.64 Ge.pbe-dn-rrkjus_psl.1.0.0.UPF
Li 6.941 Li.pbe-sl-rrkjus_psl.1.0.0.UPF
O 15.99 O.pbe-n-rrkjus_psl.1.0.0.UPF

CELL_PARAMETERS {angstrom}
6.51415000 0.00000000 0.00000000
0.00000000 6.51415000 0.00000000
0.00000000 0.00000000 24.88560000

ATOMIC_POSITIONS {angstrom}
Li 0.00000000 0.00006514 2.48806229
Li 3.25707500 3.25687958 2.51842272
Li 3.25707500 0.00000000 -0.8142568300000015 0 0 0
Li 0.00000000 3.25707500 -0.8142568300000015 0 0 0
Ag 1.62475929 1.62488958 0.91056410
Ag 4.88561250 4.88561250 -2.4427705000000017 0 0 0
Ag 4.88939071 1.62501986 0.91056410
Ag 1.62853750 4.88561250 -2.4427705000000017 0 0 0
Ag 4.88926042 4.88932557 0.91056410
Ag 1.62853750 1.62853750 -2.4427705000000017 0 0 0
Ag 1.62488958 4.88893472 0.91031525
Ag 4.88561250 1.62853750 -2.4427705000000017 0 0 0
Ge 0.00000000 0.00000000 -0.8142568300000015 0 0 0
Ge 3.25714014 0.00013028 2.37383738
Ge 0.00000000 3.25694472 2.37284196
Ge 3.25707500 3.25707500 -0.8142568300000015 0 0 0
C 0.00013028 0.00000000 4.62772618
O 0.00013028 0.00000000 5.76499810
