&CONTROL
calculation = 'relax'
prefix = 'scf'
pseudo_dir = '/vol0403/data/hp230205/u10028/POT_HYBRID_KKJUS_GBRV'
outdir = './data'
tprnfor = .true.
nstep = 70
disk_io = 'non'
/
&SYSTEM
ibrav = 0
ecutwfc = 50.0
ecutrho = 400
occupations = 'smearing'
smearing = 'mp'
degauss = 0.01
assume_isolated = 'esm'
esm_bc = 'bc1'
input_dft = 'BEEF-VDW'
nosym = .true.
nspin = 1
ntyp = 5
nat = 33
/
&ELECTRONS
electron_maxstep = 200
mixing_beta = 0.1
conv_thr = 1e-06
/
&IONS
ion_dynamics = 'bfgs'
upscale = 1.0
/
&CELL
/

K_POINTS {automatic}
9 6 2 0  0  0

ATOMIC_SPECIES
Ag 107.8 Ag.pbe-n-rrkjus_psl.1.0.0.UPF
C 12.01 C.pbe-n-rrkjus_psl.1.0.0.UPF
Li 6.941 Li.pbe-sl-rrkjus_psl.1.0.0.UPF
Mg 24.30 Mg.pbe-spnl-rrkjus_psl.1.0.0.UPF
Pb 207.2 Pb.pbe-dn-rrkjus_psl.1.0.0.UPF


CELL_PARAMETERS {angstrom}
6.87998000 0.00000000 0.00000000
-0.00000000 9.72976000 0.00000000
0.00000000 0.00000000 27.29730000

ATOMIC_POSITIONS {angstrom}
Li 5.15998500 0.00000000 -1.216094720000001 0 0 0
Li 5.15998500 4.86488000 -1.216094720000001 0 0 0
Li 1.71999500 2.43244000 -3.6485571199999995 0 0 0
Li 1.71999500 7.29732000 -3.6485571199999995 0 0 0
Li 5.11354513 4.86488000 3.61307063
Li 4.89503697 -0.00000000 3.77794632
Li 1.66536796 7.27669291 1.33320013
Li 1.66536796 2.45306709 1.33320013
Mg 1.71999500 0.00000000 -1.216094720000001 0 0 0
Mg 1.71999500 4.86488000 -1.216094720000001 0 0 0
Mg 5.15998500 2.43244000 -3.6485571199999995 0 0 0
Mg 5.15998500 7.29732000 -3.6485571199999995 0 0 0
Mg 1.77207645 4.86488000 3.72253280
Mg 2.11683225 -0.00000000 4.04054635
Mg 5.22967920 7.30452002 1.33019743
Mg 5.22967920 2.42523998 1.33019743
Ag 0.00000000 0.00000000 -3.6485571199999995 0 0 0
Ag 0.00000000 4.86488000 -3.6485571199999995 0 0 0
Ag 3.43999000 7.29732000 -1.216094720000001 0 0 0
Ag 3.43999000 2.43244000 -1.216094720000001 0 0 0
Ag 0.03316150 4.86488000 1.30399202
Ag 0.06873100 0.00000000 1.59525421
Ag 3.43324762 2.50813753 3.62944901
Ag 3.43317882 7.22162247 3.62944901
Pb 0.00000000 2.43244000 -1.216094720000001 0 0 0
Pb 0.00000000 7.29732000 -1.216094720000001 0 0 0
Pb 3.43999000 4.86488000 -3.6485571199999995 0 0 0
Pb 3.43999000 0.00000000 -3.6485571199999995 0 0 0
Pb 6.66381103 7.44842317 4.32389232
Pb 6.66374223 2.28133683 4.32389232
Pb 3.38880295 -0.00000000 1.25676769
Pb 3.45051637 4.86488000 1.22373796
C 0.02105274 0.00000000 3.94855445
