&CONTROL
calculation = 'relax'
prefix = 'scf'
pseudo_dir = '/vol0403/data/hp230205/u10028/POT_HYBRID_KKJUS_GBRV'
outdir = './data'
tprnfor = .true.
nstep = 70
disk_io = 'non'
/
&SYSTEM
ibrav = 0
ecutwfc = 50.0
ecutrho = 400
occupations = 'smearing'
smearing = 'mp'
degauss = 0.01
assume_isolated = 'esm'
esm_bc = 'bc1'
input_dft = 'BEEF-VDW'
nosym = .true.
nspin = 1
ntyp = 6
nat = 34
/
&ELECTRONS
electron_maxstep = 200
mixing_beta = 0.1
conv_thr = 1e-06
/
&IONS
ion_dynamics = 'bfgs'
upscale = 1.0
/
&CELL
/

K_POINTS {automatic}
7 7 2 0  0  0

ATOMIC_SPECIES
C 12.01 C.pbe-n-rrkjus_psl.1.0.0.UPF
Ge 72.64 Ge.pbe-dn-rrkjus_psl.1.0.0.UPF
In 114.8 In.pbe-dn-rrkjus_psl.1.0.0.UPF
O 15.99 O.pbe-n-rrkjus_psl.1.0.0.UPF
Pd 106.4 Pd.pbe-n-rrkjus_psl.1.0.0.UPF
Y 88.90 Y.pbe-spn-rrkjus_psl.1.0.0.UPF


CELL_PARAMETERS {angstrom}
7.93684000 0.00000000 0.00000000
-0.00000000 8.87204000 0.00000000
0.00000000 0.00000000 27.08770000

ATOMIC_POSITIONS {angstrom}
Y 1.98421000 2.21801000 -3.5438837900000024 0 0 0
Y 1.98421000 2.21801000 1.18129460
Y 1.98421000 6.65403000 -3.5438837900000024 0 0 0
Y 1.98421000 6.65403000 1.18129460
Y 5.95263000 2.21801000 -3.5438837900000024 0 0 0
Y 5.95263000 2.21801000 1.18129460
Y 5.95263000 6.65403000 -3.5438837900000024 0 0 0
Y 5.95263000 6.65403000 1.18129460
In 1.98421000 0.00000000 -1.181294600000001 0 0 0
In 1.98421000 -0.00000000 3.54388379
In 1.98421000 4.43602000 -1.181294600000001 0 0 0
In 1.98421000 4.43602000 3.54388379
In 5.95263000 0.00000000 -1.181294600000001 0 0 0
In 5.95263000 -0.00000000 3.54388379
In 5.95263000 4.43602000 -1.181294600000001 0 0 0
In 5.95263000 4.43602000 3.54388379
Ge 0.00000000 0.00000000 -3.5438837900000024 0 0 0
Ge 0.00000000 0.00000000 1.18129460
Ge 0.00000000 4.43602000 -3.5438837900000024 0 0 0
Ge 0.00000000 4.43602000 1.18129460
Ge 3.96842000 0.00000000 -3.5438837900000024 0 0 0
Ge 3.96842000 -0.00000000 1.18129460
Ge 3.96842000 4.43602000 -3.5438837900000024 0 0 0
Ge 3.96842000 4.43602000 1.18129460
Pd 0.00000000 2.21801000 -1.181294600000001 0 0 0
Pd 0.00000000 2.21801000 3.54388379
Pd 0.00000000 6.65403000 -1.181294600000001 0 0 0
Pd 0.00000000 6.65403000 3.54388379
Pd 3.96842000 2.21801000 -1.181294600000001 0 0 0
Pd 3.96842000 2.21801000 3.54388379
Pd 3.96842000 6.65403000 -1.181294600000001 0 0 0
Pd 3.96842000 6.65403000 3.54388379
C 0.00000000 2.21801000 5.44381507
O 0.00000000 2.21801000 6.59395881
