&CONTROL
calculation = 'relax'
prefix = 'scf'
pseudo_dir = '/vol0004/mdt0/data/hp150275/u10028/POT_KKJUS'
outdir = './data'
tprnfor = .true.
nstep = 50
disk_io = 'non'
/
&SYSTEM
ibrav = 0
ecutwfc = 50.0
ecutrho = 400
occupations = 'smearing'
smearing = 'mp'
degauss = 0.01
assume_isolated = 'esm'
esm_bc = 'bc1'
input_dft = 'BEEF-VDW'
nosym = .true.
nspin = 1
ntyp = 5
nat = 34
/
&ELECTRONS
electron_maxstep = 200
mixing_beta = 0.1
conv_thr = 1e-06
/
&IONS
ion_dynamics = 'bfgs'
upscale = 1.0
/
&CELL
/

K_POINTS {automatic}
8 6 1 0 0 0

ATOMIC_SPECIES
Ag 107.8 Ag.pbe-n-rrkjus_psl.1.0.0.UPF
C 12.01 C.pbe-n-rrkjus_psl.1.0.0.UPF
Li 6.941 Li.pbe-sl-rrkjus_psl.1.0.0.UPF
O 15.99 O.pbe-n-rrkjus_psl.1.0.0.UPF
Sn 118.7 Sn.pbe-dn-rrkjus_psl.1.0.0.UPF

CELL_PARAMETERS {angstrom}
6.59455000 0.00000000 0.00000000
0.00000000 9.32610000 0.00000000
0.00000000 0.00000000 26.99460000

ATOMIC_POSITIONS {angstrom}
Li 1.64863750 0.00000000 -1.1658967699999998 0 0 0
Li 4.94591250 4.66305000 -1.1658967699999998 0 0 0
Li 4.94591250 0.00000000 -1.1658967699999998 0 0 0
Li 1.64863750 4.66305000 -1.1658967699999998 0 0 0
Li 4.94591250 6.99457500 -3.4974203799999977 0 0 0
Li 1.64863750 2.33152500 -3.4974203799999977 0 0 0
Li 1.64863750 6.99457500 -3.4974203799999977 0 0 0
Li 4.94591250 2.33152500 -3.4974203799999977 0 0 0
Li 1.58856115 4.67974372 3.59919002
Li 5.00598885 9.30940628 3.59919002
Li 5.00598885 4.67974372 3.59919002
Li 1.58856115 9.30940628 3.59919002
Li 4.97156530 2.33152500 1.11703655
Li 1.61988526 6.99457500 1.12270541
Li 1.62305065 2.33152500 1.11703655
Li 4.97466474 6.99457500 1.12270541
Ag 0.00000000 0.00000000 -3.4974203799999977 0 0 0
Ag 3.29727500 2.33152500 -1.1658967699999998 0 0 0
Ag 3.29727500 6.99457500 -1.1658967699999998 0 0 0
Ag 0.00000000 4.66305000 -3.4974203799999977 0 0 0
Ag 0.00000000 4.67172327 1.19019191
Ag 3.29727500 6.99457500 3.29253136
Ag 3.29727500 2.33152500 3.31817623
Ag 0.00000000 9.31742673 1.19019191
Sn 0.00000000 6.99457500 -1.1658967699999998 0 0 0
Sn 3.29727500 0.00000000 -3.4974203799999977 0 0 0
Sn 0.00000000 2.33152500 -1.1658967699999998 0 0 0
Sn 3.29727500 4.66305000 -3.4974203799999977 0 0 0
Sn 0.00000000 2.33152500 3.43074371
Sn 3.29727500 4.62630517 1.26604674
Sn 0.00000000 6.99457500 3.49472092
Sn 3.29727500 0.03674483 1.26604674
C 3.29727500 2.33152500 5.52768424
O 3.29727500 2.33152500 6.67495474
