&CONTROL
calculation = 'relax'
prefix = 'scf'
pseudo_dir = '/vol0403/data/hp230205/u10028/POT_HYBRID_KKJUS_GBRV'
outdir = './data'
tprnfor = .true.
nstep = 50
disk_io = 'non'
/
&SYSTEM
ibrav = 0
ecutwfc = 50.0
ecutrho = 400
occupations = 'smearing'
smearing = 'mp'
degauss = 0.01
assume_isolated = 'esm'
esm_bc = 'bc1'
input_dft = 'BEEF-VDW'
nosym = .true.
nspin = 1
ntyp = 5
nat = 33
/
&ELECTRONS
electron_maxstep = 200
mixing_beta = 0.1
conv_thr = 1e-06
/
&IONS
ion_dynamics = 'bfgs'
upscale = 1.0
/
&CELL
/

K_POINTS {automatic}
6 6 1 0 0 0

ATOMIC_SPECIES
C 12.01 C.pbe-n-rrkjus_psl.1.0.0.UPF
In 114.8 In.pbe-dn-rrkjus_psl.1.0.0.UPF
Pd 106.4 Pd.pbe-n-rrkjus_psl.1.0.0.UPF
Sn 118.7 Sn.pbe-dn-rrkjus_psl.1.0.0.UPF
Y 88.90 Y.pbe-spn-rrkjus_psl.1.0.0.UPF


CELL_PARAMETERS {angstrom}
9.06394000 0.00000000 0.00000000
0.00000000 9.16402000 0.00000000
0.00000000 0.00000000 26.55030000

ATOMIC_POSITIONS {angstrom}
Y 2.29643984 2.29100500 3.35781644
Y 2.26598500 2.29100500 -1.0917483399999988 0 0 0
Y 2.21196392 6.87301500 3.24869471
Y 2.26598500 6.87301500 -1.0917483399999988 0 0 0
Y 6.76750016 2.29100500 3.35781644
Y 6.79795500 2.29100500 -1.0917483399999988 0 0 0
Y 6.85197608 6.87301500 3.24896021
Y 6.79795500 6.87301500 -1.0917483399999988 0 0 0
In 0.00000000 9.12278191 3.51844576
In 0.00000000 0.00000000 -1.0917483399999988 0 0 0
In 0.00000000 4.62324809 3.51844576
In 0.00000000 4.58201000 -1.0917483399999988 0 0 0
In 4.53197000 9.10940244 3.35064786
In 4.53197000 0.00000000 -1.0917483399999988 0 0 0
In 4.53197000 4.63662756 3.35064786
In 4.53197000 4.58201000 -1.0917483399999988 0 0 0
Sn 0.00000000 2.29100500 1.15493805
Sn 0.00000000 2.29100500 -3.275245009999999 0 0 0
Sn 0.00000000 6.87301500 1.10422698
Sn 0.00000000 6.87301500 -3.275245009999999 0 0 0
Sn 4.53197000 2.29100500 1.14856598
Sn 4.53197000 2.29100500 -3.275245009999999 0 0 0
Sn 4.53197000 6.87301500 1.15042450
Sn 4.53197000 6.87301500 -3.275245009999999 0 0 0
Pd 2.27377999 0.04444550 1.26883884
Pd 2.26598500 0.00000000 -3.275245009999999 0 0 0
Pd 2.27377999 4.53756450 1.26883884
Pd 2.26598500 4.58201000 -3.275245009999999 0 0 0
Pd 6.79016001 0.04444550 1.26883884
Pd 6.79795500 0.00000000 -3.275245009999999 0 0 0
Pd 6.79016001 4.53756450 1.26883884
Pd 6.79795500 4.58201000 -3.275245009999999 0 0 0
C 0.00000000 2.29100500 3.48791291
