&CONTROL
calculation = 'relax'
prefix = 'scf'
pseudo_dir = '/vol0004/mdt0/data/hp150275/u10028/POT_KKJUS'
outdir = './data'
tprnfor = .true.
nstep = 50
disk_io = 'non'
/
&SYSTEM
ibrav = 0
ecutwfc = 50.0
ecutrho = 400
occupations = 'smearing'
smearing = 'mp'
degauss = 0.01
assume_isolated = 'esm'
esm_bc = 'bc1'
input_dft = 'BEEF-VDW'
nosym = .true.
nspin = 1
ntyp = 5
nat = 34
/
&ELECTRONS
electron_maxstep = 200
mixing_beta = 0.1
conv_thr = 1e-06
/
&IONS
ion_dynamics = 'bfgs'
upscale = 1.0
/
&CELL
/

K_POINTS {automatic}
9 6 2 0  0  0

ATOMIC_SPECIES
C 12.01 C.pbe-n-rrkjus_psl.1.0.0.UPF
Ni 58.69 Ni.pbe-spn-rrkjus_psl.1.0.0.UPF
O 15.99 O.pbe-n-rrkjus_psl.1.0.0.UPF
Sb 121.7 Sb.pbe-n-rrkjus_psl.1.0.0.UPF
Ti 47.86 Ti.pbe-spn-rrkjus_psl.1.0.0.UPF

CELL_PARAMETERS {angstrom}
6.14888000 0.00000000 0.00000000
0.00000000 8.69583000 0.00000000
0.00000000 0.00000000 26.52190000

ATOMIC_POSITIONS {angstrom}
Ti 0.00000000 0.00000000 -3.2608676099999983 0 0 0
Ti 3.07444000 2.17395750 -1.086867459999997 0 0 0
Ti 3.07444000 6.52187250 -1.086867459999997 0 0 0
Ti 0.00000000 4.34791500 -3.2608676099999983 0 0 0
Ti 6.11899644 4.34765413 1.09694578
Ti 3.04621664 6.49648068 3.20331508
Ti 3.04658557 2.19926237 3.20411074
Ti 6.13190909 0.00000000 1.11047195
Ni 1.53722000 0.00000000 -1.086867459999997 0 0 0
Ni 4.61166000 4.34791500 -1.086867459999997 0 0 0
Ni 4.61166000 0.00000000 -1.086867459999997 0 0 0
Ni 1.53722000 4.34791500 -1.086867459999997 0 0 0
Ni 4.61166000 6.52187250 -3.2608676099999983 0 0 0
Ni 1.53722000 2.17395750 -3.2608676099999983 0 0 0
Ni 1.53722000 6.52187250 -3.2608676099999983 0 0 0
Ni 4.61166000 2.17395750 -3.2608676099999983 0 0 0
Ni 1.67292578 4.34774108 3.11048843
Ni 4.61116809 0.00026087 3.01660091
Ni 4.36312227 4.34800196 3.11950588
Ni 1.59575734 0.00008696 3.35077685
Ni 4.68569252 2.16943567 1.23592054
Ni 1.36123905 6.53569887 1.33935595
Ni 1.36099310 2.15960938 1.34121248
Ni 4.68538507 6.52648129 1.23618576
Sb 0.00000000 6.52187250 -1.086867459999997 0 0 0
Sb 3.07444000 0.00000000 -3.2608676099999983 0 0 0
Sb 0.00000000 2.17395750 -1.086867459999997 0 0 0
Sb 3.07444000 4.34791500 -3.2608676099999983 0 0 0
Sb 6.06974391 2.26648113 3.60697840
Sb 3.04037520 4.34774108 0.98528859
Sb 6.07005136 6.42934887 3.60591752
Sb 3.00895443 0.00008696 1.04284111
C 2.30958082 8.69565608 4.96304315
O 2.63282744 8.69548217 6.08253255
