&CONTROL
calculation = 'relax'
prefix = 'scf'
pseudo_dir = '/vol0004/mdt0/data/hp150275/u10028/POT_HYBRID_KKJUS_GBRV'
outdir = './data'
tprnfor = .true.
nstep = 50
disk_io = 'non'
/
&SYSTEM
ibrav = 0
ecutwfc = 50.0
ecutrho = 400
occupations = 'smearing'
smearing = 'mp'
degauss = 0.01
assume_isolated = 'esm'
esm_bc = 'bc1'
input_dft = 'BEEF-VDW'
nosym = .true.
nspin = 2
ntyp = 4
nat = 33
starting_magnetization(1) = 0.0
starting_magnetization(2) = 0.1
starting_magnetization(3) = 0.0
starting_magnetization(4) = 0.0
/
&ELECTRONS
electron_maxstep = 200
mixing_beta = 0.1
conv_thr = 1e-06
/
&IONS
ion_dynamics = 'bfgs'
upscale = 1.0
/
&CELL
/

K_POINTS {automatic}
9 6 2 0  0  0

ATOMIC_SPECIES
C 12.01 C.pbe-n-rrkjus_psl.1.0.0.UPF
Fe 55.84 fe_pbe_v1.5.uspp.F.UPF
Ga 69.72 Ga.pbe-dnl-rrkjus_psl.1.0.0.UPF
V 50.94 V.pbe-spnl-rrkjus_psl.1.0.0.UPF

CELL_PARAMETERS {angstrom}
5.73361000 0.00000000 0.00000000
0.00000000 8.10855000 0.00000000
0.00000000 0.00000000 26.08140000

ATOMIC_POSITIONS {angstrom}
V 0.00000000 0.00000000 23.04056957
V 2.86680500 2.02713750 25.06787680
V 2.86680500 6.08141250 25.06787680
V 0.00000000 4.05427500 23.04056957
V 5.73355266 4.05435609 1.07246717
V 2.86686234 6.12398239 3.02153019
V 2.86686234 1.98464870 3.02153019
V 5.73355266 8.10838783 0.92249912
Ga 0.00000000 6.08141250 25.06787680
Ga 2.86680500 0.00000000 23.04056957
Ga 0.00000000 2.02713750 25.06787680
Ga 2.86680500 4.05427500 23.04056957
Ga 0.00005734 2.10854734 3.33085559
Ga 2.86674766 4.05395066 1.01717460
Ga 0.00011467 6.00000266 3.33085559
Ga 2.86669033 0.00016217 1.01039344
Fe 1.43340250 0.00000000 25.06787680
Fe 4.30020750 4.05427500 25.06787680
Fe 4.30020750 0.00000000 25.06787680
Fe 1.43340250 4.05427500 25.06787680
Fe 4.30020750 6.08141250 23.04056957
Fe 1.43340250 2.02713750 23.04056957
Fe 1.43340250 6.08141250 23.04056957
Fe 4.30020750 2.02713750 23.04056957
Fe 1.49182799 4.05419391 3.10238253
Fe 4.51785534 0.00008109 2.99023251
Fe 4.24183935 4.05419391 3.10238253
Fe 1.21581200 0.00008109 2.98997170
Fe 4.32038981 2.02567796 1.08759438
Fe 1.41339220 6.08279095 1.08759438
Fe 1.41316286 2.02567796 1.08759438
Fe 4.32016046 6.08287204 1.08759438
C 2.86680500 0.00000000 3.74659311
