&CONTROL
calculation = 'relax'
prefix = 'scf'
pseudo_dir = '/vol0004/mdt0/data/hp150275/u10028/POT_KKJUS'
outdir = './data'
tprnfor = .true.
nstep = 50
disk_io = 'non'
/
&SYSTEM
ibrav = 0
ecutwfc = 50.0
ecutrho = 400
occupations = 'smearing'
smearing = 'mp'
degauss = 0.01
assume_isolated = 'esm'
esm_bc = 'bc1'
input_dft = 'BEEF-VDW'
nosym = .true.
nspin = 1
ntyp = 4
nat = 18
/
&ELECTRONS
electron_maxstep = 200
mixing_beta = 0.1
conv_thr = 1e-06
/
&IONS
ion_dynamics = 'bfgs'
upscale = 1.0
/
&CELL
/

K_POINTS {automatic}
8 8 1 0 0 0

ATOMIC_SPECIES
C 12.01 C.pbe-n-rrkjus_psl.1.0.0.UPF
O 15.99 O.pbe-n-rrkjus_psl.1.0.0.UPF
Os 190.2 Os.pbe-spn-rrkjus_psl.1.0.0.UPF
Si 28.08 Si.pbe-nl-rrkjus_psl.1.0.0.UPF

CELL_PARAMETERS {angstrom}
5.90864000 0.00000000 0.00000000
-0.00000000 5.90864000 0.00000000
0.00000000 0.00000000 24.43150000

ATOMIC_POSITIONS {angstrom}
Si 1.47716000 1.47716000 -0.19007707000000096 0 0 0
Si 1.47716000 1.47716000 2.76417991
Si 1.47716000 4.43148000 -0.19007707000000096 0 0 0
Si 1.47716000 4.43148000 2.76417991
Si 4.43148000 1.47716000 -0.19007707000000096 0 0 0
Si 4.43148000 1.47716000 2.76417991
Si 4.43148000 4.43148000 -0.19007707000000096 0 0 0
Si 4.43148000 4.43148000 2.76417991
Os 0.00000000 0.00000000 -1.6672055599999993 0 0 0
Os 0.00000000 0.00000000 1.28705142
Os 0.00000000 2.95432000 -1.6672055599999993 0 0 0
Os 0.00000000 2.95432000 1.28705142
Os 2.95432000 0.00000000 -1.6672055599999993 0 0 0
Os 2.95432000 -0.00000000 1.28705142
Os 2.95432000 2.95432000 -1.6672055599999993 0 0 0
Os 2.95432000 2.95432000 1.28705142
C 1.47716000 1.47716000 4.66421766
O 1.47716000 1.47716000 5.81420837
