&CONTROL
calculation = 'relax'
prefix = 'scf'
pseudo_dir = '/vol0004/mdt0/data/hp150275/u10028/POT_KKJUS'
outdir = './data'
tprnfor = .true.
nstep = 50
disk_io = 'non'
/
&SYSTEM
ibrav = 0
ecutwfc = 50.0
ecutrho = 400
occupations = 'smearing'
smearing = 'mp'
degauss = 0.01
assume_isolated = 'esm'
esm_bc = 'bc1'
input_dft = 'BEEF-VDW'
nosym = .true.
nspin = 1
ntyp = 4
nat = 18
/
&ELECTRONS
electron_maxstep = 200
mixing_beta = 0.1
conv_thr = 1e-06
/
&IONS
ion_dynamics = 'bfgs'
upscale = 1.0
/
&CELL
/

K_POINTS {automatic}
6 8 1 0 0 0

ATOMIC_SPECIES
C 12.01 C.pbe-n-rrkjus_psl.1.0.0.UPF
O 15.99 O.pbe-n-rrkjus_psl.1.0.0.UPF
V 50.94 V.pbe-spnl-rrkjus_psl.1.0.0.UPF
Zn 65.40 Zn.pbe-dnl-rrkjus_psl.1.0.0.UPF

CELL_PARAMETERS {angstrom}
7.64728000 0.00000000 0.00000000
0.00000000 5.40744000 0.00000000
0.00000000 0.00000000 24.05560000

ATOMIC_POSITIONS {angstrom}
V 0.00000000 0.00000000 -2.0278870799999993 0 0 0
V 0.00068826 2.69577106 0.67018902
V 3.82364000 0.00000000 -2.0278870799999993 0 0 0
V 3.82341058 2.69587921 0.66345345
Zn 0.00000000 2.70372000 -2.0278870799999993 0 0 0
Zn 1.91182000 4.05558000 -0.6759623599999998 0 0 0
Zn 1.91182000 1.35186000 -0.6759623599999998 0 0 0
Zn 0.02730079 0.00216298 0.88909498
Zn 1.92550863 1.43453976 2.16716900
Zn 1.92137910 3.96916911 2.01128872
Zn 3.82364000 2.70372000 -2.0278870799999993 0 0 0
Zn 5.73546000 4.05558000 -0.6759623599999998 0 0 0
Zn 5.73546000 1.35186000 -0.6759623599999998 0 0 0
Zn 3.80023932 0.00129779 0.86600160
Zn 5.72536559 1.40301438 2.04232044
Zn 5.72788919 3.99123146 2.03077375
C 1.91763193 0.96252432 4.16570825
O 1.90746105 0.89055129 5.31051426
