&CONTROL
calculation = 'relax'
prefix = 'scf'
pseudo_dir = '/vol0004/mdt0/data/hp150275/u10028/POT_KKJUS'
outdir = './data'
tprnfor = .true.
nstep = 50
disk_io = 'non'
/
&SYSTEM
ibrav = 0
ecutwfc = 50.0
ecutrho = 400
occupations = 'smearing'
smearing = 'mp'
degauss = 0.01
assume_isolated = 'esm'
esm_bc = 'bc1'
input_dft = 'BEEF-VDW'
nosym = .true.
nspin = 1
ntyp = 5
nat = 18
/
&ELECTRONS
electron_maxstep = 200
mixing_beta = 0.1
conv_thr = 1e-06
/
&IONS
ion_dynamics = 'bfgs'
upscale = 1.0
/
&CELL
/

K_POINTS {automatic}
10 10 2 0  0  0

ATOMIC_SPECIES
Al 26.98 Al.pbe-nl-rrkjus_psl.1.0.0.UPF
C 12.01 C.pbe-n-rrkjus_psl.1.0.0.UPF
Li 6.941 Li.pbe-sl-rrkjus_psl.1.0.0.UPF
O 15.99 O.pbe-n-rrkjus_psl.1.0.0.UPF
Rh 102.9 Rh.pbe-spn-rrkjus_psl.1.0.0.UPF

CELL_PARAMETERS {angstrom}
6.01864000 0.00000000 0.00000000
0.00000000 6.01864000 0.00000000
0.00000000 0.00000000 24.51400000

ATOMIC_POSITIONS {angstrom}
Li 0.03876004 5.97987996 0.82195442
Li 3.00932000 0.00000000 -2.2570039800000004 0 0 0
Li 0.00000000 3.00932000 -2.2570039800000004 0 0 0
Li 2.97140257 3.04723743 0.80920714
Li 1.51134069 1.51218330 2.67839964
Li 1.50466000 4.51398000 -0.7523346599999989 0 0 0
Li 4.50645670 4.50729931 2.67839964
Li 4.51398000 1.50466000 -0.7523346599999989 0 0 0
Al 0.00000000 0.00000000 -2.2570039800000004 0 0 0
Al 3.00932000 3.00932000 -2.2570039800000004 0 0 0
Al 2.96357834 5.97247703 0.76679792
Al 0.04616297 3.05506166 0.76679792
Rh 1.50466000 1.50466000 -0.7523346599999989 0 0 0
Rh 1.50634522 4.51229478 2.11776446
Rh 4.51398000 4.51398000 -0.7523346599999989 0 0 0
Rh 4.51295683 1.50568317 2.10183036
C 4.51446149 1.50417851 3.96244296
O 4.51578559 1.50285441 5.13078020
