&CONTROL
calculation = 'relax'
prefix = 'scf'
pseudo_dir = '/vol0004/mdt0/data/hp150275/u10028/POT_KKJUS'
outdir = './data'
tprnfor = .true.
nstep = 50
disk_io = 'non'
/
&SYSTEM
ibrav = 0
ecutwfc = 50.0
ecutrho = 400
occupations = 'smearing'
smearing = 'mp'
degauss = 0.01
assume_isolated = 'esm'
esm_bc = 'bc1'
input_dft = 'BEEF-VDW'
nosym = .true.
nspin = 1
ntyp = 5
nat = 34
/
&ELECTRONS
electron_maxstep = 200
mixing_beta = 0.1
conv_thr = 1e-06
/
&IONS
ion_dynamics = 'bfgs'
upscale = 1.0
/
&CELL
/

K_POINTS {automatic}
8 6 1 0 0 0

ATOMIC_SPECIES
Ag 107.8 Ag.pbe-n-rrkjus_psl.1.0.0.UPF
C 12.01 C.pbe-n-rrkjus_psl.1.0.0.UPF
Ge 72.64 Ge.pbe-dn-rrkjus_psl.1.0.0.UPF
Li 6.941 Li.pbe-sl-rrkjus_psl.1.0.0.UPF
O 15.99 O.pbe-n-rrkjus_psl.1.0.0.UPF

CELL_PARAMETERS {angstrom}
6.51415000 0.00000000 0.00000000
0.00000000 9.21240000 0.00000000
0.00000000 0.00000000 26.90930000

ATOMIC_POSITIONS {angstrom}
Li 0.00000000 0.00000000 -3.4546159300000028 0 0 0
Li 3.25707500 2.30310000 -1.1514489500000025 0 0 0
Li 3.25707500 6.90930000 -1.1514489500000025 0 0 0
Li 0.00000000 4.60620000 -3.4546159300000028 0 0 0
Li 0.00000000 4.59901433 1.04919361
Li 3.25707500 6.90930000 3.46215054
Li 3.25707500 2.30310000 3.47345244
Li 0.00000000 0.00718567 1.04919361
Ag 1.62853750 0.00000000 -1.1514489500000025 0 0 0
Ag 4.88561250 4.60620000 -1.1514489500000025 0 0 0
Ag 4.88561250 0.00000000 -1.1514489500000025 0 0 0
Ag 1.62853750 4.60620000 -1.1514489500000025 0 0 0
Ag 4.88561250 6.90930000 -3.4546159300000028 0 0 0
Ag 1.62853750 2.30310000 -3.4546159300000028 0 0 0
Ag 1.62853750 6.90930000 -3.4546159300000028 0 0 0
Ag 4.88561250 2.30310000 -3.4546159300000028 0 0 0
Ag 1.52906643 4.62241382 3.35532062
Ag 4.98508357 9.19618618 3.35532062
Ag 4.98508357 4.62241382 3.35532062
Ag 1.52906643 9.19618618 3.35532062
Ag 4.93981023 2.30310000 1.22464224
Ag 1.55955265 6.90930000 1.21926038
Ag 1.57433977 2.30310000 1.22464224
Ag 4.95459735 6.90930000 1.21926038
Ge 0.00000000 6.90930000 -1.1514489500000025 0 0 0
Ge 3.25707500 0.00000000 -3.4546159300000028 0 0 0
Ge 0.00000000 2.30310000 -1.1514489500000025 0 0 0
Ge 3.25707500 4.60620000 -3.4546159300000028 0 0 0
Ge 0.00000000 2.30310000 3.53480565
Ge 3.25707500 4.59938282 1.20446027
Ge 0.00000000 6.90930000 3.60207890
Ge 3.25707500 0.00681718 1.20446027
C 3.25707500 2.30310000 5.55946138
O 3.25707500 2.30310000 6.69960842
