&CONTROL
calculation = 'relax'
prefix = 'scf'
pseudo_dir = '/vol0004/mdt0/data/hp150275/u10028/POT_HYBRID_KKJUS_GBRV'
outdir = './data'
tprnfor = .true.
nstep = 50
disk_io = 'non'
/
&SYSTEM
ibrav = 0
ecutwfc = 50.0
ecutrho = 400
occupations = 'smearing'
smearing = 'mp'
degauss = 0.01
assume_isolated = 'esm'
esm_bc = 'bc1'
input_dft = 'BEEF-VDW'
nosym = .true.
nspin = 2
ntyp = 3
nat = 33
starting_magnetization(1) = 0.1
starting_magnetization(2) = 0.1
starting_magnetization(3) = 0.1
/
&ELECTRONS
electron_maxstep = 200
mixing_beta = 0.1
conv_thr = 1e-06
/
&IONS
ion_dynamics = 'bfgs'
upscale = 1.0
/
&CELL
/

K_POINTS {automatic}
8 6 1 0 0 0

ATOMIC_SPECIES
C 12.01 C.pbe-n-rrkjus_psl.1.0.0.UPF
Co 58.93 co_pbe_v1.2.uspp.F.UPF
Si 28.08 Si.pbe-nl-rrkjus_psl.1.0.0.UPF

CELL_PARAMETERS {angstrom}
5.56276000 0.00000000 0.00000000
0.00000000 7.86693000 0.00000000
0.00000000 0.00000000 25.90020000

ATOMIC_POSITIONS {angstrom}
Co 0.00000000 0.00000000 -2.950032780000001 0 0 0
Co 0.00000000 1.96673250 -0.9834305900000011 0 0 0
Co 0.01540885 7.85859105 0.96426445
Co 5.35382273 1.96673250 2.81379773
Co 0.00000000 3.93346500 -2.950032780000001 0 0 0
Co 0.00000000 5.90019750 -0.9834305900000011 0 0 0
Co 0.01540885 3.94180395 0.96426445
Co 0.01796771 5.90019750 2.86456212
Co 2.78138000 0.00000000 -2.950032780000001 0 0 0
Co 2.78138000 1.96673250 -0.9834305900000011 0 0 0
Co 2.76597115 7.85859105 0.96426445
Co 2.99031727 1.96665383 2.81379773
Co 2.78138000 3.93346500 -2.950032780000001 0 0 0
Co 2.78138000 5.90019750 -0.9834305900000011 0 0 0
Co 2.76597115 3.94180395 0.96426445
Co 2.76335666 5.90019750 2.86456212
Si 1.39069000 1.96673250 -2.950032780000001 0 0 0
Si 1.39069000 0.00000000 -0.9834305900000011 0 0 0
Si 1.39069000 1.96673250 1.05905918
Si 1.39069000 3.86069590 3.11035502
Si 1.39069000 5.90019750 -2.950032780000001 0 0 0
Si 1.39069000 3.93346500 -0.9834305900000011 0 0 0
Si 1.39069000 5.90019750 0.99638069
Si 1.39069000 0.07276910 3.11035502
Si 4.17207000 1.96673250 -2.950032780000001 0 0 0
Si 4.17207000 0.00000000 -0.9834305900000011 0 0 0
Si 4.17207000 1.96673250 0.87542676
Si 4.17207000 3.99223097 3.06425266
Si 4.17207000 5.90019750 -2.950032780000001 0 0 0
Si 4.17207000 3.93346500 -0.9834305900000011 0 0 0
Si 4.17207000 5.90019750 1.02383491
Si 4.17207000 7.80816403 3.06451166
C 1.39069000 1.96673250 3.67938241
