&CONTROL
calculation = 'relax'
prefix = 'scf'
pseudo_dir = '/vol0403/data/hp230205/u10028/POT_HYBRID_KKJUS_GBRV'
outdir = './data'
tprnfor = .true.
nstep = 50
disk_io = 'non'
/
&SYSTEM
ibrav = 0
ecutwfc = 50.0
ecutrho = 400
occupations = 'smearing'
smearing = 'mp'
degauss = 0.01
assume_isolated = 'esm'
esm_bc = 'bc1'
input_dft = 'BEEF-VDW'
nosym = .true.
nspin = 1
ntyp = 5
nat = 17
/
&ELECTRONS
electron_maxstep = 200
mixing_beta = 0.1
conv_thr = 1e-06
/
&IONS
ion_dynamics = 'bfgs'
upscale = 1.0
/
&CELL
/

K_POINTS {automatic}
6 6 1 0 0 0

ATOMIC_SPECIES
C 12.01 C.pbe-n-rrkjus_psl.1.0.0.UPF
Ge 72.64 Ge.pbe-dn-rrkjus_psl.1.0.0.UPF
Li 6.941 Li.pbe-sl-rrkjus_psl.1.0.0.UPF
Pd 106.4 Pd.pbe-n-rrkjus_psl.1.0.0.UPF
V 50.94 V.pbe-spnl-rrkjus_psl.1.0.0.UPF


CELL_PARAMETERS {angstrom}
5.49597000 0.00000000 0.00000000
0.00000000 8.64114000 0.00000000
0.00000000 0.00000000 23.65060000

ATOMIC_POSITIONS {angstrom}
Li 2.74798500 0.00000000 -1.8253533100000006 0 0 0
Li 3.89983039 0.00008641 0.60971247
Li 2.74798500 4.32057000 -1.8253533100000006 0 0 0
Li 4.05750977 4.31970589 0.70384186
V 0.73591038 2.16028500 -0.6085299400000004 0 0 0
V 2.18948453 1.87676920 1.50441467
V 0.73591038 6.48085500 -0.6085299400000004 0 0 0
V 2.19311187 6.76990113 1.50961780
Ge 0.00000000 0.00000000 -1.8253533100000006 0 0 0
Ge 0.85022656 0.00043206 0.65204704
Ge 0.00000000 4.32057000 -1.8253533100000006 0 0 0
Ge 1.33057434 4.32212541 0.76060330
Pd 3.48389538 2.16028500 -0.6085299400000004 0 0 0
Pd 5.01254448 2.15337209 1.70047814
Pd 3.48389538 6.48085500 -0.6085299400000004 0 0 0
Pd 5.01474287 6.48405222 1.69882260
C 2.38464642 0.00103694 1.98428534
