&CONTROL
calculation = 'relax'
prefix = 'scf'
pseudo_dir = '/vol0403/data/hp230205/u10028/POT_HYBRID_KKJUS_GBRV'
outdir = './data'
tprnfor = .true.
nstep = 70
disk_io = 'non'
/
&SYSTEM
ibrav = 0
ecutwfc = 50.0
ecutrho = 400
occupations = 'smearing'
smearing = 'mp'
degauss = 0.01
assume_isolated = 'esm'
esm_bc = 'bc1'
input_dft = 'BEEF-VDW'
nosym = .true.
nspin = 1
ntyp = 5
nat = 33
/
&ELECTRONS
electron_maxstep = 200
mixing_beta = 0.1
conv_thr = 1e-06
/
&IONS
ion_dynamics = 'bfgs'
upscale = 1.0
/
&CELL
/

K_POINTS {automatic}
9 6 2 0  0  0

ATOMIC_SPECIES
Ag 107.8 Ag.pbe-n-rrkjus_psl.1.0.0.UPF
C 12.01 C.pbe-n-rrkjus_psl.1.0.0.UPF
In 114.8 In.pbe-dn-rrkjus_psl.1.0.0.UPF
Li 6.941 Li.pbe-sl-rrkjus_psl.1.0.0.UPF
Pd 106.4 Pd.pbe-n-rrkjus_psl.1.0.0.UPF


CELL_PARAMETERS {angstrom}
6.52372000 0.00000000 0.00000000
-0.00000000 9.22594000 0.00000000
0.00000000 0.00000000 26.91950000

ATOMIC_POSITIONS {angstrom}
Li 1.63093000 0.00000000 -1.1532313799999976 0 0 0
Li 1.63093000 4.61297000 -1.1532313799999976 0 0 0
Li 4.89279000 2.30648500 -3.45969414 0 0 0
Li 4.89279000 6.91945500 -3.45969414 0 0 0
Li 1.55890813 4.61297000 3.45457943
Li 1.81789982 -0.00000000 3.45404105
Li 4.88091683 6.88208994 1.11069857
Li 4.88098207 2.34375780 1.11069857
In 4.89279000 0.00000000 -1.1532313799999976 0 0 0
In 4.89279000 4.61297000 -1.1532313799999976 0 0 0
In 1.63093000 2.30648500 -3.45969414 0 0 0
In 1.63093000 6.91945500 -3.45969414 0 0 0
In 5.14049565 4.61297000 3.59698359
In 4.34186185 -0.00000000 4.52705231
In 1.62525436 6.97388805 1.17045986
In 1.62525436 2.25195969 1.17045986
Ag 0.00000000 0.00000000 -3.45969414 0 0 0
Ag 0.00000000 4.61297000 -3.45969414 0 0 0
Ag 3.26186000 6.91945500 -1.1532313799999976 0 0 0
Ag 3.26186000 2.30648500 -1.1532313799999976 0 0 0
Ag 0.04821029 4.61297000 1.11742844
Ag 6.30497967 -0.00000000 1.25606387
Ag 3.37093660 2.39542306 3.39293378
Ag 3.37093660 6.83060920 3.39293378
Pd 0.00000000 2.30648500 -1.1532313799999976 0 0 0
Pd 0.00000000 6.91945500 -1.1532313799999976 0 0 0
Pd 3.26186000 4.61297000 -3.45969414 0 0 0
Pd 3.26186000 0.00000000 -3.45969414 0 0 0
Pd 6.36225793 7.19863194 3.31755918
Pd 6.36232317 2.02730806 3.31755918
Pd 3.31952968 -0.00000000 1.15107782
Pd 3.26799230 4.61297000 1.25283353
C 6.36036605 -0.00000000 3.61636563
