&CONTROL
calculation = 'relax'
prefix = 'scf'
pseudo_dir = '/vol0004/mdt0/data/hp150275/u10028/POT_KKJUS'
outdir = './data'
tprnfor = .true.
nstep = 50
disk_io = 'non'
/
&SYSTEM
ibrav = 0
ecutwfc = 50.0
ecutrho = 400
occupations = 'smearing'
smearing = 'mp'
degauss = 0.01
assume_isolated = 'esm'
esm_bc = 'bc1'
input_dft = 'BEEF-VDW'
nosym = .true.
nspin = 1
ntyp = 5
nat = 34
/
&ELECTRONS
electron_maxstep = 200
mixing_beta = 0.1
conv_thr = 1e-06
/
&IONS
ion_dynamics = 'bfgs'
upscale = 1.0
/
&CELL
/

K_POINTS {automatic}
8 6 1 0 0 0

ATOMIC_SPECIES
C 12.01 C.pbe-n-rrkjus_psl.1.0.0.UPF
In 114.8 In.pbe-dn-rrkjus_psl.1.0.0.UPF
O 15.99 O.pbe-n-rrkjus_psl.1.0.0.UPF
Pd 106.4 Pd.pbe-n-rrkjus_psl.1.0.0.UPF
Sc 44.95 Sc.pbe-spn-rrkjus_psl.1.0.0.UPF

CELL_PARAMETERS {angstrom}
6.63475000 0.00000000 0.00000000
0.00000000 9.38295000 0.00000000
0.00000000 0.00000000 27.03720000

ATOMIC_POSITIONS {angstrom}
Sc 0.00000000 0.00000000 -3.518621209999999 0 0 0
Sc 3.31737500 2.34573750 -1.17287374 0 0 0
Sc 3.31737500 7.03721250 -1.17287374 0 0 0
Sc 0.00000000 4.69147500 -3.518621209999999 0 0 0
Sc 0.00000000 4.69222564 1.20477763
Sc 3.31737500 7.03721250 3.39857604
Sc 3.31737500 2.34573750 3.39641306
Sc 0.00000000 9.38219936 1.20477763
In 0.00000000 7.03721250 -1.17287374 0 0 0
In 3.31737500 0.00000000 -3.518621209999999 0 0 0
In 0.00000000 2.34573750 -1.17287374 0 0 0
In 3.31737500 4.69147500 -3.518621209999999 0 0 0
In 0.00000000 2.34573750 3.66786655
In 3.31737500 4.68969224 1.16854778
In 0.00000000 7.03721250 3.67543697
In 3.31737500 0.00178276 1.16854778
Pd 1.65868750 0.00000000 -1.17287374 0 0 0
Pd 4.97606250 4.69147500 -1.17287374 0 0 0
Pd 4.97606250 0.00000000 -1.17287374 0 0 0
Pd 1.65868750 4.69147500 -1.17287374 0 0 0
Pd 4.97606250 7.03721250 -3.518621209999999 0 0 0
Pd 1.65868750 2.34573750 -3.518621209999999 0 0 0
Pd 1.65868750 7.03721250 -3.518621209999999 0 0 0
Pd 4.97606250 2.34573750 -3.518621209999999 0 0 0
Pd 1.61005478 4.69288244 3.39695381
Pd 5.02469522 9.38154256 3.39695381
Pd 5.02469522 4.69288244 3.39695381
Pd 1.61005478 9.38154256 3.39695381
Pd 4.99463980 2.34573750 1.18612196
Pd 1.64150350 7.03721250 1.18693308
Pd 1.64011020 2.34573750 1.18612196
Pd 4.99324650 7.03721250 1.18693308
C 6.63455096 2.34564367 7.61583850
O 0.00000000 2.34573750 8.75086015
