&CONTROL
calculation = 'relax'
prefix = 'scf'
pseudo_dir = '/vol0403/data/hp230205/u10028/POT_HYBRID_KKJUS_GBRV'
outdir = './data'
tprnfor = .true.
nstep = 50
disk_io = 'non'
/
&SYSTEM
ibrav = 0
ecutwfc = 50.0
ecutrho = 400
occupations = 'smearing'
smearing = 'mp'
degauss = 0.01
assume_isolated = 'esm'
esm_bc = 'bc1'
input_dft = 'BEEF-VDW'
nosym = .true.
nspin = 1
ntyp = 6
nat = 18
/
&ELECTRONS
electron_maxstep = 200
mixing_beta = 0.1
conv_thr = 1e-06
/
&IONS
ion_dynamics = 'bfgs'
upscale = 1.0
/
&CELL
/

K_POINTS {automatic}
11 7 2 0  0  0

ATOMIC_SPECIES
C 12.01 C.pbe-n-rrkjus_psl.1.0.0.UPF
In 114.8 In.pbe-dn-rrkjus_psl.1.0.0.UPF
O 15.99 O.pbe-n-rrkjus_psl.1.0.0.UPF
Pd 106.4 Pd.pbe-n-rrkjus_psl.1.0.0.UPF
Sn 118.7 Sn.pbe-dn-rrkjus_psl.1.0.0.UPF
Y 88.90 Y.pbe-spn-rrkjus_psl.1.0.0.UPF


CELL_PARAMETERS {angstrom}
6.32964000 0.00000000 0.00000000
0.00000000 9.06394000 0.00000000
0.00000000 0.00000000 24.74170000

ATOMIC_POSITIONS {angstrom}
Y 4.67121102 2.26598500 -0.7902499000000027 0 0 0
Y 1.09357190 2.26598500 2.34600799
Y 4.67121102 6.79795500 -0.7902499000000027 0 0 0
Y 1.04464379 6.79795500 2.17009451
In 0.00000000 0.00000000 -2.3707496900000002 0 0 0
In 2.53375489 0.01495550 0.61334674
In 0.00000000 4.53197000 -2.3707496900000002 0 0 0
In 2.53381819 4.51701450 0.61334674
Sn 3.16482000 0.00000000 -2.3707496900000002 0 0 0
Sn 5.55147406 0.01368655 1.50132636
Sn 3.16482000 4.53197000 -2.3707496900000002 0 0 0
Sn 5.55147406 4.51828345 1.50132636
Pd 1.50639102 2.26598500 -0.7902499000000027 0 0 0
Pd 3.98805298 2.26598500 1.85117399
Pd 1.50639102 6.79795500 -0.7902499000000027 0 0 0
Pd 3.97127943 6.79795500 1.85785425
C 1.09698991 2.26607564 4.90232044
O 1.19187121 2.26616628 6.04711890
