&CONTROL
calculation = 'relax'
prefix = 'scf'
pseudo_dir = '/vol0004/mdt0/data/hp150275/u10028/POT_KKJUS'
outdir = './data'
tprnfor = .true.
nstep = 50
disk_io = 'non'
/
&SYSTEM
ibrav = 0
ecutwfc = 50.0
ecutrho = 400
occupations = 'smearing'
smearing = 'mp'
degauss = 0.01
assume_isolated = 'esm'
esm_bc = 'bc1'
input_dft = 'BEEF-VDW'
nosym = .true.
nspin = 1
ntyp = 3
nat = 33
/
&ELECTRONS
electron_maxstep = 200
mixing_beta = 0.1
conv_thr = 1e-06
/
&IONS
ion_dynamics = 'bfgs'
upscale = 1.0
/
&CELL
/

K_POINTS {automatic}
8 6 1 0 0 0

ATOMIC_SPECIES
C 12.01 C.pbe-n-rrkjus_psl.1.0.0.UPF
Ru 101.0 Ru.pbe-spn-rrkjus_psl.1.0.0.UPF
Sc 44.95 Sc.pbe-spn-rrkjus_psl.1.0.0.UPF

CELL_PARAMETERS {angstrom}
6.43815000 0.00000000 0.00000000
0.00000000 9.10491000 0.00000000
0.00000000 0.00000000 26.82870000

ATOMIC_POSITIONS {angstrom}
Sc 1.60953750 2.27622750 -3.4142203600000016 0 0 0
Sc 1.60953750 0.00000000 -1.1380734500000003 0 0 0
Sc 1.59711187 2.31355763 1.13700031
Sc 1.81465696 0.00000000 3.17759123
Sc 1.60953750 6.82868250 -3.4142203600000016 0 0 0
Sc 1.60953750 4.55245500 -1.1380734500000003 0 0 0
Sc 1.59711187 6.79135237 1.13700031
Sc 1.64417475 4.55245500 3.42387869
Sc 4.82861250 2.27622750 -3.4142203600000016 0 0 0
Sc 4.82861250 0.00000000 -1.1380734500000003 0 0 0
Sc 4.84103813 2.31355763 1.13700031
Sc 4.62349304 0.00000000 3.17759123
Sc 4.82861250 6.82868250 -3.4142203600000016 0 0 0
Sc 4.82861250 4.55245500 -1.1380734500000003 0 0 0
Sc 4.84103813 6.79135237 1.13700031
Sc 4.79391087 4.55245500 3.42387869
Ru 0.00000000 0.00000000 -3.4142203600000016 0 0 0
Ru 0.00000000 2.27622750 -1.1380734500000003 0 0 0
Ru 0.00000000 0.00000000 1.13700031
Ru 0.00000000 1.82079990 3.63045968
Ru 0.00000000 4.55245500 -3.4142203600000016 0 0 0
Ru 0.00000000 6.82868250 -1.1380734500000003 0 0 0
Ru 0.00000000 4.55245500 1.26202205
Ru 0.00000000 7.28411010 3.63072797
Ru 3.21907500 0.00000000 -3.4142203600000016 0 0 0
Ru 3.21907500 2.27622750 -1.1380734500000003 0 0 0
Ru 3.21907500 0.00000000 0.99695449
Ru 3.21907500 2.37037227 3.35734352
Ru 3.21907500 4.55245500 -3.4142203600000016 0 0 0
Ru 3.21907500 6.82868250 -1.1380734500000003 0 0 0
Ru 3.21907500 4.55245500 1.16865817
Ru 3.21907500 6.73453773 3.35734352
C 0.00000000 0.00000000 4.37441954
