&CONTROL
calculation = 'relax'
prefix = 'scf'
pseudo_dir = '/vol0004/mdt0/data/hp150275/u10028/POT_KKJUS'
outdir = './data'
tprnfor = .true.
nstep = 50
disk_io = 'non'
/
&SYSTEM
ibrav = 0
ecutwfc = 50.0
ecutrho = 400
occupations = 'smearing'
smearing = 'mp'
degauss = 0.01
assume_isolated = 'esm'
esm_bc = 'bc1'
input_dft = 'BEEF-VDW'
nosym = .true.
nspin = 1
ntyp = 5
nat = 34
/
&ELECTRONS
electron_maxstep = 200
mixing_beta = 0.1
conv_thr = 1e-06
/
&IONS
ion_dynamics = 'bfgs'
upscale = 1.0
/
&CELL
/

K_POINTS {automatic}
8 6 1 0 0 0

ATOMIC_SPECIES
C 12.01 C.pbe-n-rrkjus_psl.1.0.0.UPF
In 114.8 In.pbe-dn-rrkjus_psl.1.0.0.UPF
Li 6.941 Li.pbe-sl-rrkjus_psl.1.0.0.UPF
O 15.99 O.pbe-n-rrkjus_psl.1.0.0.UPF
Rh 102.9 Rh.pbe-spn-rrkjus_psl.1.0.0.UPF

CELL_PARAMETERS {angstrom}
6.57920000 0.00000000 0.00000000
0.00000000 9.30439000 0.00000000
0.00000000 0.00000000 26.97830000

ATOMIC_POSITIONS {angstrom}
Li 0.00000000 0.00000000 -3.489103540000002 0 0 0
Li 3.28960000 2.32609750 -1.1630345099999992 0 0 0
Li 3.28960000 6.97829250 -1.1630345099999992 0 0 0
Li 0.00000000 4.65219500 -3.489103540000002 0 0 0
Li 0.00000000 4.67824729 1.18893368
Li 3.28960000 6.97829250 3.83415600
Li 3.28960000 2.32609750 3.69278970
Li 0.00000000 9.27833771 1.18893368
In 1.64480000 0.00000000 -1.1630345099999992 0 0 0
In 4.93440000 4.65219500 -1.1630345099999992 0 0 0
In 4.93440000 0.00000000 -1.1630345099999992 0 0 0
In 1.64480000 4.65219500 -1.1630345099999992 0 0 0
In 4.93440000 6.97829250 -3.489103540000002 0 0 0
In 1.64480000 2.32609750 -3.489103540000002 0 0 0
In 1.64480000 6.97829250 -3.489103540000002 0 0 0
In 4.93440000 2.32609750 -3.489103540000002 0 0 0
In 1.61545677 4.71332484 3.63532593
In 4.96380902 9.24326016 3.63532593
In 4.96380902 4.71332484 3.63532593
In 1.61539098 9.24326016 3.63532593
In 4.92354432 2.32609750 1.23803419
In 1.70644710 6.97829250 1.16762082
In 1.65565568 2.32609750 1.23803419
In 4.87275290 6.97829250 1.16762082
Rh 0.00000000 6.97829250 -1.1630345099999992 0 0 0
Rh 3.28960000 0.00000000 -3.489103540000002 0 0 0
Rh 0.00000000 2.32609750 -1.1630345099999992 0 0 0
Rh 3.28960000 4.65219500 -3.489103540000002 0 0 0
Rh 0.00000000 2.32609750 3.60780806
Rh 3.28960000 4.61990877 1.06537307
Rh 0.00000000 6.97829250 3.27705410
Rh 3.28960000 0.03219319 1.06564285
C 0.00000000 2.32609750 5.47929273
O 0.00006579 2.32609750 6.64043876
