&CONTROL
calculation = 'relax'
prefix = 'scf'
pseudo_dir = '/vol0403/data/hp230205/u10028/POT_HYBRID_KKJUS_GBRV'
outdir = './data'
tprnfor = .true.
nstep = 50
disk_io = 'non'
/
&SYSTEM
ibrav = 0
ecutwfc = 50.0
ecutrho = 400
occupations = 'smearing'
smearing = 'mp'
degauss = 0.01
assume_isolated = 'esm'
esm_bc = 'bc1'
input_dft = 'BEEF-VDW'
nosym = .true.
nspin = 1
ntyp = 6
nat = 34
/
&ELECTRONS
electron_maxstep = 200
mixing_beta = 0.1
conv_thr = 1e-06
/
&IONS
ion_dynamics = 'bfgs'
upscale = 1.0
/
&CELL
/

K_POINTS {automatic}
6 7 2 0  0  0

ATOMIC_SPECIES
C 12.01 C.pbe-n-rrkjus_psl.1.0.0.UPF
Ge 72.64 Ge.pbe-dn-rrkjus_psl.1.0.0.UPF
In 114.8 In.pbe-dn-rrkjus_psl.1.0.0.UPF
Li 6.941 Li.pbe-sl-rrkjus_psl.1.0.0.UPF
O 15.99 O.pbe-n-rrkjus_psl.1.0.0.UPF
Y 88.90 Y.pbe-spn-rrkjus_psl.1.0.0.UPF


CELL_PARAMETERS {angstrom}
9.31878000 0.00000000 0.00000000
0.00000000 8.49364000 0.00000000
0.00000000 0.00000000 26.43230000

ATOMIC_POSITIONS {angstrom}
Li 2.32969500 0.00000000 -1.0720940900000002 0 0 0
Li 2.36603824 8.49338519 1.57060727
Li 2.32969500 4.24682000 -1.0720940900000002 0 0 0
Li 2.40182236 4.24673506 3.09786556
Li 6.98908500 0.00000000 -1.0720940900000002 0 0 0
Li 7.03922004 8.49347013 3.07592675
Li 6.98908500 4.24682000 -1.0720940900000002 0 0 0
Li 7.09140520 4.24656519 3.14412209
Y 0.00000000 2.12341000 -1.0720940900000002 0 0 0
Y 0.60842315 1.72684195 3.34897241
Y 0.00000000 6.37023000 -1.0720940900000002 0 0 0
Y 0.60805040 6.76645831 3.34897241
Y 4.65939000 2.12341000 -1.0720940900000002 0 0 0
Y 4.16353772 1.72726663 3.25090858
Y 4.65939000 6.37023000 -1.0720940900000002 0 0 0
Y 4.16381728 6.76620350 3.25117290
In 2.32969500 2.12341000 -3.21628226 0 0 0
In 2.33500670 2.53713520 0.90979977
In 2.32969500 6.37023000 -3.21628226 0 0 0
In 2.33519308 5.95599518 0.90979977
In 6.98908500 2.12341000 -3.21628226 0 0 0
In 7.02030291 2.13122415 1.24178945
In 6.98908500 6.37023000 -3.21628226 0 0 0
In 7.02048929 6.36173636 1.24152513
Ge 0.00000000 0.00000000 -3.21628226 0 0 0
Ge 9.14041855 8.49321532 1.05121257
Ge 0.00000000 4.24682000 -3.21628226 0 0 0
Ge 9.30918166 4.24639532 1.29729728
Ge 4.65939000 0.00000000 -3.21628226 0 0 0
Ge 4.91677470 0.00000000 1.02002246
Ge 4.65939000 4.24682000 -3.21628226 0 0 0
Ge 4.72070757 4.24690494 1.32372958
C 2.47245871 8.49347013 3.75893738
O 1.22159887 8.49253583 4.54873451
