&CONTROL
calculation = 'relax'
prefix = 'scf'
pseudo_dir = '/vol0403/data/hp230205/u10028/POT_HYBRID_KKJUS_GBRV'
outdir = './data'
tprnfor = .true.
nstep = 50
disk_io = 'non'
/
&SYSTEM
ibrav = 0
ecutwfc = 50.0
ecutrho = 400
occupations = 'smearing'
smearing = 'mp'
degauss = 0.01
assume_isolated = 'esm'
esm_bc = 'bc1'
input_dft = 'BEEF-VDW'
nosym = .true.
nspin = 2
ntyp = 5
nat = 33
starting_magnetization(1) = 0.0
starting_magnetization(2) = 0.1
starting_magnetization(3) = 0.0
starting_magnetization(4) = 0.0
starting_magnetization(5) = 0.0
/
&ELECTRONS
electron_maxstep = 200
mixing_beta = 0.1
conv_thr = 1e-06
/
&IONS
ion_dynamics = 'bfgs'
upscale = 1.0
/
&CELL
/

K_POINTS {automatic}
9 6 2 0  0  0

ATOMIC_SPECIES
C 12.01 C.pbe-n-rrkjus_psl.1.0.0.UPF
Co 58.93 co_pbe_v1.2.uspp.F.UPF
Ge 72.64 Ge.pbe-dn-rrkjus_psl.1.0.0.UPF
Li 6.941 Li.pbe-sl-rrkjus_psl.1.0.0.UPF
Pd 106.4 Pd.pbe-n-rrkjus_psl.1.0.0.UPF


CELL_PARAMETERS {angstrom}
5.88348000 0.00000000 0.00000000
0.00000000 8.32050000 0.00000000
0.00000000 0.00000000 26.24040000

ATOMIC_POSITIONS {angstrom}
Li 4.41261000 0.00000000 25.20023054
Li 4.41261000 4.16025000 25.20023054
Li 1.47087000 2.08012500 23.12015404
Li 1.47087000 6.24037500 23.12015404
Li 4.41261000 4.16025000 3.12024596
Li 4.41261000 0.00000000 3.12024596
Li 1.47087000 6.24037500 1.04016946
Li 1.47087000 2.08012500 1.04016946
Co 0.00000000 0.00000000 23.12015404
Co 0.00000000 4.16025000 23.12015404
Co 2.94174000 6.24037500 25.20023054
Co 2.94174000 2.08012500 25.20023054
Co 0.00000000 4.16025000 1.04016946
Co 0.00000000 0.00000000 1.04016946
Co 2.94174000 2.08012500 3.12024596
Co 2.94174000 6.24037500 3.12024596
Ge 1.47087000 0.00000000 25.20023054
Ge 1.47087000 4.16025000 25.20023054
Ge 4.41261000 2.08012500 23.12015404
Ge 4.41261000 6.24037500 23.12015404
Ge 1.47087000 4.16025000 3.12024596
Ge 1.47087000 0.00000000 3.12024596
Ge 4.41261000 6.24037500 1.04016946
Ge 4.41261000 2.08012500 1.04016946
Pd 0.00000000 2.08012500 25.20023054
Pd 0.00000000 6.24037500 25.20023054
Pd 2.94174000 4.16025000 23.12015404
Pd 2.94174000 0.00000000 23.12015404
Pd 0.00000000 6.24037500 3.12024596
Pd 0.00000000 2.08012500 3.12024596
Pd 2.94174000 0.00000000 1.04016946
Pd 2.94174000 4.16025000 1.04016946
C 4.41261000 2.08012500 3.92031576
