&CONTROL
calculation = 'relax'
prefix = 'scf'
pseudo_dir = '/vol0004/mdt0/data/hp150275/u10028/POT_KKJUS'
outdir = './data'
tprnfor = .true.
nstep = 50
disk_io = 'non'
/
&SYSTEM
ibrav = 0
ecutwfc = 50.0
ecutrho = 400
occupations = 'smearing'
smearing = 'mp'
degauss = 0.01
assume_isolated = 'esm'
esm_bc = 'bc1'
input_dft = 'BEEF-VDW'
nosym = .true.
nspin = 1
ntyp = 3
nat = 17
/
&ELECTRONS
electron_maxstep = 200
mixing_beta = 0.1
conv_thr = 1e-06
/
&IONS
ion_dynamics = 'bfgs'
upscale = 1.0
/
&CELL
/

K_POINTS {automatic}
6 8 1 0 0 0

ATOMIC_SPECIES
C 12.01 C.pbe-n-rrkjus_psl.1.0.0.UPF
Pb 207.2 Pb.pbe-dn-rrkjus_psl.1.0.0.UPF
Y 88.90 Y.pbe-spn-rrkjus_psl.1.0.0.UPF

CELL_PARAMETERS {angstrom}
9.91485000 0.00000000 0.00000000
0.00000000 7.01086000 0.00000000
0.00000000 0.00000000 25.25810000

ATOMIC_POSITIONS {angstrom}
Y 0.00000000 0.00000000 -2.6291156299999976 0 0 0
Y 0.00000000 3.50669195 0.73273748
Y 4.95742500 0.00000000 -2.6291156299999976 0 0 0
Y 4.95782159 3.50606098 0.62160184
Pb 0.00000000 3.50543000 -2.6291156299999976 0 0 0
Pb 2.47871250 5.25814500 -0.8764560699999997 0 0 0
Pb 2.47871250 1.75271500 -0.8764560699999997 0 0 0
Pb 0.00000000 0.00056087 0.51955912
Pb 2.02966894 1.59784510 2.76500421
Pb 2.03135447 5.41301490 2.76550937
Pb 4.95742500 3.50543000 -2.6291156299999976 0 0 0
Pb 7.43613750 5.25814500 -0.8764560699999997 0 0 0
Pb 7.43613750 1.75271500 -0.8764560699999997 0 0 0
Pb 4.95732585 7.01078989 1.15328485
Pb 7.88488361 1.59784510 2.76475163
Pb 7.88339638 5.41301490 2.76550937
C 9.91455255 7.00735457 2.88396986
