&CONTROL
calculation = 'relax'
prefix = 'scf'
pseudo_dir = '/vol0004/mdt0/data/hp150275/u10028/POT_KKJUS'
outdir = './data'
tprnfor = .true.
nstep = 50
disk_io = 'non'
/
&SYSTEM
ibrav = 0
ecutwfc = 50.0
ecutrho = 400
occupations = 'smearing'
smearing = 'mp'
degauss = 0.01
assume_isolated = 'esm'
esm_bc = 'bc1'
input_dft = 'BEEF-VDW'
nosym = .true.
nspin = 1
ntyp = 2
nat = 16
/
&ELECTRONS
electron_maxstep = 200
mixing_beta = 0.1
conv_thr = 1e-06
/
&IONS
ion_dynamics = 'bfgs'
upscale = 1.0
/
&CELL
/

K_POINTS {automatic}
10 10 2 0  0  0

ATOMIC_SPECIES
Hf 178.4 Hf.pbe-spn-rrkjus_psl.1.0.0.UPF
Ru 101.0 Ru.pbe-spn-rrkjus_psl.1.0.0.UPF

CELL_PARAMETERS {angstrom}
6.47981000 0.00000000 0.00000000
-0.00000000 6.47981000 0.00000000
0.00000000 0.00000000 24.85990000

ATOMIC_POSITIONS {angstrom}
Hf 0.00000000 0.00000000 -2.2055703300000005 0 0 0
Hf 0.00000000 0.00000000 1.03417184
Hf 0.00000000 3.23990500 -2.2055703300000005 0 0 0
Hf 0.00000000 3.23990500 1.03417184
Hf 3.23990500 0.00000000 -2.2055703300000005 0 0 0
Hf 3.23990500 -0.00000000 1.03417184
Hf 3.23990500 3.23990500 -2.2055703300000005 0 0 0
Hf 3.23990500 3.23990500 1.03417184
Ru 1.61995250 1.61995250 -0.5856992400000003 0 0 0
Ru 1.61995250 1.61995250 2.65429152
Ru 1.61995250 4.85985750 -0.5856992400000003 0 0 0
Ru 1.61995250 4.85985750 2.65429152
Ru 4.85985750 1.61995250 -0.5856992400000003 0 0 0
Ru 4.85985750 1.61995250 2.65429152
Ru 4.85985750 4.85985750 -0.5856992400000003 0 0 0
Ru 4.85985750 4.85985750 2.65429152
