&CONTROL
calculation = 'relax'
prefix = 'scf'
pseudo_dir = '/vol0004/mdt0/data/hp150275/u10028/POT_KKJUS'
outdir = './data'
tprnfor = .true.
nstep = 50
disk_io = 'non'
/
&SYSTEM
ibrav = 0
ecutwfc = 50.0
ecutrho = 400
occupations = 'smearing'
smearing = 'mp'
degauss = 0.01
assume_isolated = 'esm'
esm_bc = 'bc1'
input_dft = 'BEEF-VDW'
nosym = .true.
nspin = 1
ntyp = 3
nat = 32
/
&ELECTRONS
electron_maxstep = 200
mixing_beta = 0.1
conv_thr = 1e-06
/
&IONS
ion_dynamics = 'bfgs'
upscale = 1.0
/
&CELL
/

K_POINTS {automatic}
9 6 2 0  0  0

ATOMIC_SPECIES
Hf 178.4 Hf.pbe-spn-rrkjus_psl.1.0.0.UPF
In 114.8 In.pbe-dn-rrkjus_psl.1.0.0.UPF
Ni 58.69 Ni.pbe-spn-rrkjus_psl.1.0.0.UPF

CELL_PARAMETERS {angstrom}
6.31539000 0.00000000 0.00000000
0.00000000 8.93131000 0.00000000
0.00000000 0.00000000 26.69850000

ATOMIC_POSITIONS {angstrom}
Hf 0.00000000 0.00000000 -3.349326819999998 0 0 0
Hf 3.15769500 2.23282750 -1.1165312699999994 0 0 0
Hf 3.15769500 6.69848250 -1.1165312699999994 0 0 0
Hf 0.00000000 4.46565500 -3.349326819999998 0 0 0
Hf 0.00000000 4.46583363 1.15364218
Hf 3.15769500 6.69839319 3.30500731
Hf 3.15769500 2.23291681 3.30500731
Hf 0.00000000 8.93113137 1.15364218
In 0.00000000 6.69848250 -1.1165312699999994 0 0 0
In 3.15769500 0.00000000 -3.349326819999998 0 0 0
In 0.00000000 2.23282750 -1.1165312699999994 0 0 0
In 3.15769500 4.46565500 -3.349326819999998 0 0 0
In 0.00000000 2.23273819 3.54235698
In 3.15769500 4.46547637 1.07114382
In 0.00000000 6.69857181 3.54262396
In 3.15769500 0.00026794 1.07087683
Ni 1.57884750 0.00000000 -1.1165312699999994 0 0 0
Ni 4.73654250 4.46565500 -1.1165312699999994 0 0 0
Ni 4.73654250 0.00000000 -1.1165312699999994 0 0 0
Ni 1.57884750 4.46565500 -1.1165312699999994 0 0 0
Ni 4.73654250 6.69848250 -3.349326819999998 0 0 0
Ni 1.57884750 2.23282750 -3.349326819999998 0 0 0
Ni 1.57884750 6.69848250 -3.349326819999998 0 0 0
Ni 4.73654250 2.23282750 -3.349326819999998 0 0 0
Ni 1.60612998 4.46565500 3.22170800
Ni 4.70913371 0.00000000 3.22170800
Ni 4.70926002 4.46565500 3.22170800
Ni 1.60625629 0.00000000 3.22170800
Ni 4.71778579 2.23282750 1.18167561
Ni 1.59760421 6.69848250 1.18167561
Ni 1.59766736 2.23282750 1.18167561
Ni 4.71778579 6.69848250 1.18167561
