&CONTROL
calculation = 'relax'
prefix = 'scf'
pseudo_dir = '/vol0403/data/hp230205/u10028/POT_HYBRID_KKJUS_GBRV'
outdir = './data'
tprnfor = .true.
nstep = 50
disk_io = 'non'
/
&SYSTEM
ibrav = 0
ecutwfc = 50.0
ecutrho = 400
occupations = 'smearing'
smearing = 'mp'
degauss = 0.01
assume_isolated = 'esm'
esm_bc = 'bc1'
input_dft = 'BEEF-VDW'
nosym = .true.
nspin = 2
ntyp = 5
nat = 17
starting_magnetization(1) = 0.0
starting_magnetization(2) = 0.0
starting_magnetization(3) = 0.1
starting_magnetization(4) = 0.0
starting_magnetization(5) = 0.0
/
&ELECTRONS
electron_maxstep = 400
mixing_beta = 0.05
conv_thr = 1e-06
/
&IONS
ion_dynamics = 'bfgs'
upscale = 1.0
/
&CELL
/

K_POINTS {automatic}
6 6 1 0 0 0

ATOMIC_SPECIES
Al 26.98 Al.pbe-nl-rrkjus_psl.1.0.0.UPF
C 12.01 C.pbe-n-rrkjus_psl.1.0.0.UPF
Fe 55.84 fe_pbe_v1.5.uspp.F.UPF
Li 6.941 Li.pbe-sl-rrkjus_psl.1.0.0.UPF
Pd 106.4 Pd.pbe-n-rrkjus_psl.1.0.0.UPF


CELL_PARAMETERS {angstrom}
5.15535000 0.00000000 0.00000000
0.00000000 8.84236000 0.00000000
0.00000000 0.00000000 23.55420000

ATOMIC_POSITIONS {angstrom}
Li 3.56770841 2.21023631 0.10198969
Li 4.92191575 2.21059000 -1.777164390000003 0 0 0
Li 3.37159890 6.63159315 0.70968805
Li 4.92191575 6.63177000 -1.777164390000003 0 0 0
Al 0.08996086 8.67338250 1.65798014
Al 1.56284435 0.00000000 -0.5923881300000033 0 0 0
Al 0.09119814 4.59086489 1.65798014
Al 1.56284435 4.42118000 -0.5923881300000033 0 0 0
Fe 2.81940936 0.48800985 1.45235197
Fe 4.14051935 0.00000000 -0.5923881300000033 0 0 0
Fe 2.82018266 3.93325858 1.45188089
Fe 4.14051935 4.42118000 -0.5923881300000033 0 0 0
Pd 0.57074880 2.21103212 1.27640210
Pd 2.34424075 2.21059000 -1.777164390000003 0 0 0
Pd 0.82217522 6.63230054 0.56671405
Pd 2.34424075 6.63177000 -1.777164390000003 0 0 0
C 2.56901401 2.21067842 1.76585837
