&CONTROL
calculation = 'relax'
prefix = 'scf'
pseudo_dir = '/vol0004/mdt0/data/hp150275/u10028/POT_KKJUS'
outdir = './data'
tprnfor = .true.
nstep = 50
disk_io = 'non'
/
&SYSTEM
ibrav = 0
ecutwfc = 50.0
ecutrho = 400
occupations = 'smearing'
smearing = 'mp'
degauss = 0.01
assume_isolated = 'esm'
esm_bc = 'bc1'
input_dft = 'BEEF-VDW'
nosym = .true.
nspin = 1
ntyp = 4
nat = 33
/
&ELECTRONS
electron_maxstep = 200
mixing_beta = 0.1
conv_thr = 1e-06
/
&IONS
ion_dynamics = 'bfgs'
upscale = 1.0
/
&CELL
/

K_POINTS {automatic}
8 6 1 0 0 0

ATOMIC_SPECIES
Au 196.9 Au.pbe-n-rrkjus_psl.1.0.0.UPF
C 12.01 C.pbe-n-rrkjus_psl.1.0.0.UPF
Li 6.941 Li.pbe-sl-rrkjus_psl.1.0.0.UPF
Sn 118.7 Sn.pbe-dn-rrkjus_psl.1.0.0.UPF

CELL_PARAMETERS {angstrom}
6.60404000 0.00000000 0.00000000
0.00000000 9.33952000 0.00000000
0.00000000 0.00000000 27.00460000

ATOMIC_POSITIONS {angstrom}
Li 0.00000000 7.00464000 -1.1674088599999983 0 0 0
Li 3.30202000 0.00000000 -3.5022265700000013 0 0 0
Li 0.00000000 2.33488000 -1.1674088599999983 0 0 0
Li 3.30202000 4.66976000 -3.5022265700000013 0 0 0
Li 1.65101000 2.33488000 -3.5022265700000013 0 0 0
Li 1.65101000 7.00464000 -3.5022265700000013 0 0 0
Li 4.95303000 4.66976000 -1.1674088599999983 0 0 0
Li 4.95303000 0.00000000 -1.1674088599999983 0 0 0
Li 6.45544910 2.33488000 3.43768558
Li 3.36489046 4.76362218 1.03832687
Li 6.56434972 7.00464000 3.53490214
Li 3.36489046 9.24565782 1.03832687
Li 1.75693880 7.00464000 1.34644936
Li 2.03034606 2.33488000 1.57679859
Li 4.62553566 0.25132648 3.54300352
Li 4.62553566 4.41834012 3.54300352
Sn 0.00000000 0.00000000 -3.5022265700000013 0 0 0
Sn 3.30202000 2.33488000 -1.1674088599999983 0 0 0
Sn 3.30202000 7.00464000 -1.1674088599999983 0 0 0
Sn 0.00000000 4.66976000 -3.5022265700000013 0 0 0
Sn 0.00633988 4.57692517 1.16929918
Sn 3.49987704 7.00464000 3.85193614
Sn 2.60007659 2.33488000 4.51948986
Sn 0.00640592 0.09292822 1.16929918
Au 1.65101000 0.00000000 -1.1674088599999983 0 0 0
Au 1.65101000 4.66976000 -1.1674088599999983 0 0 0
Au 4.95303000 7.00464000 -3.5022265700000013 0 0 0
Au 4.95303000 2.33488000 -3.5022265700000013 0 0 0
Au 1.76109935 4.86831820 3.27835844
Au 1.76116539 9.14096180 3.27862849
Au 4.75827686 2.33488000 1.18523189
Au 4.95005818 7.00464000 1.26975629
C 4.34710933 2.33488000 3.33425796
