&CONTROL
calculation = 'relax'
prefix = 'scf'
pseudo_dir = '/vol0004/mdt0/data/hp150275/u10028/POT_KKJUS'
outdir = './data'
tprnfor = .true.
nstep = 50
disk_io = 'non'
/
&SYSTEM
ibrav = 0
ecutwfc = 50.0
ecutrho = 400
occupations = 'smearing'
smearing = 'mp'
degauss = 0.01
assume_isolated = 'esm'
esm_bc = 'bc1'
input_dft = 'BEEF-VDW'
nosym = .true.
nspin = 1
ntyp = 3
nat = 33
/
&ELECTRONS
electron_maxstep = 200
mixing_beta = 0.1
conv_thr = 1e-06
/
&IONS
ion_dynamics = 'bfgs'
upscale = 1.0
/
&CELL
/

K_POINTS {automatic}
8 6 1 0 0 0

ATOMIC_SPECIES
C 12.01 C.pbe-n-rrkjus_psl.1.0.0.UPF
Ni 58.69 Ni.pbe-spn-rrkjus_psl.1.0.0.UPF
Sb 121.7 Sb.pbe-n-rrkjus_psl.1.0.0.UPF

CELL_PARAMETERS {angstrom}
5.97820000 0.00000000 0.00000000
0.00000000 8.45446000 0.00000000
0.00000000 0.00000000 26.34080000

ATOMIC_POSITIONS {angstrom}
Ni 1.49455000 0.00000000 -1.0567929000000014 0 0 0
Ni 4.48365000 4.22723000 -1.0567929000000014 0 0 0
Ni 4.48365000 0.00000000 -1.0567929000000014 0 0 0
Ni 1.49455000 4.22723000 -1.0567929000000014 0 0 0
Ni 4.48365000 6.34084500 -3.1703786900000033 0 0 0
Ni 1.49455000 2.11361500 -3.1703786900000033 0 0 0
Ni 1.49455000 6.34084500 -3.1703786900000033 0 0 0
Ni 4.48365000 2.11361500 -3.1703786900000033 0 0 0
Ni 0.00000000 6.34084500 -1.0567929000000014 0 0 0
Ni 2.98910000 0.00000000 -3.1703786900000033 0 0 0
Ni 0.00000000 2.11361500 -1.0567929000000014 0 0 0
Ni 2.98910000 4.22723000 -3.1703786900000033 0 0 0
Ni 1.46663181 3.92616668 3.32921371
Ni 4.48771518 8.25772472 3.10057557
Ni 4.48765539 4.42464164 3.10162920
Ni 1.46669159 0.30123241 3.32816008
Ni 4.50307915 2.11336137 0.88505088
Ni 1.60825536 6.34067591 1.00964286
Ni 1.49413153 2.11353046 1.06153424
Ni 4.36468382 6.34092954 1.18559941
Ni 5.76519673 2.11378409 3.04288922
Ni 2.95944813 4.19645577 1.09604069
Ni 0.19094371 6.34092954 3.03472357
Ni 2.95902965 0.03009788 1.09604069
Sb 0.00000000 0.00000000 -3.1703786900000033 0 0 0
Sb 2.98910000 2.11361500 -1.0567929000000014 0 0 0
Sb 2.98910000 6.34084500 -1.0567929000000014 0 0 0
Sb 0.00000000 4.22723000 -3.1703786900000033 0 0 0
Sb 0.03616811 4.27787222 1.08366051
Sb 2.77651521 6.34101409 3.41139701
Sb 3.31772165 2.11386863 3.15246694
Sb 0.03616811 8.40373324 1.08313370
C 1.28489453 2.11361500 3.97113901
