&CONTROL
calculation = 'relax'
prefix = 'scf'
pseudo_dir = '/vol0004/mdt0/data/hp150275/u10028/POT_HYBRID_KKJUS_GBRV'
outdir = './data'
tprnfor = .true.
nstep = 50
disk_io = 'non'
/
&SYSTEM
ibrav = 0
ecutwfc = 50.0
ecutrho = 400
occupations = 'smearing'
smearing = 'mp'
degauss = 0.01
assume_isolated = 'esm'
esm_bc = 'bc1'
input_dft = 'BEEF-VDW'
nosym = .true.
nspin = 2
ntyp = 2
nat = 32
starting_magnetization(1) = 0.1
starting_magnetization(2) = 0.1
/
&ELECTRONS
electron_maxstep = 200
mixing_beta = 0.1
conv_thr = 1e-06
/
&IONS
ion_dynamics = 'bfgs'
upscale = 1.0
/
&CELL
/

K_POINTS {automatic}
9 6 2 0  0  0

ATOMIC_SPECIES
Fe 55.84 fe_pbe_v1.5.uspp.F.UPF
V 50.94 V.pbe-spnl-rrkjus_psl.1.0.0.UPF

CELL_PARAMETERS {angstrom}
5.79956000 0.00000000 0.00000000
0.00000000 8.20182000 0.00000000
0.00000000 0.00000000 26.15140000

ATOMIC_POSITIONS {angstrom}
V 1.44989000 2.05045500 -3.07566615 0 0 0
V 1.44989000 0.00000000 -1.0251348799999995 0 0 0
V 1.44989000 2.05045500 1.04239480
V 1.44989000 0.00000000 3.14941310
V 1.44989000 6.15136500 -3.07566615 0 0 0
V 1.44989000 4.10091000 -1.0251348799999995 0 0 0
V 1.44989000 6.15136500 1.04239480
V 1.44989000 4.10091000 3.14941310
V 4.34967000 2.05045500 -3.07566615 0 0 0
V 4.34967000 0.00000000 -1.0251348799999995 0 0 0
V 4.34967000 2.05045500 1.04239480
V 4.34967000 0.00000000 3.14941310
V 4.34967000 6.15136500 -3.07566615 0 0 0
V 4.34967000 4.10091000 -1.0251348799999995 0 0 0
V 4.34967000 6.15136500 1.04239480
V 4.34967000 4.10091000 3.14941310
Fe 0.00000000 0.00000000 -3.07566615 0 0 0
Fe 0.00000000 2.05045500 -1.0251348799999995 0 0 0
Fe 0.00000000 0.00000000 1.05259385
Fe 0.00000000 2.05045500 2.96033848
Fe 0.00000000 4.10091000 -3.07566615 0 0 0
Fe 0.00000000 6.15136500 -1.0251348799999995 0 0 0
Fe 0.00000000 4.10091000 1.05259385
Fe 0.00000000 6.15128298 2.96033848
Fe 2.89978000 0.00000000 -3.07566615 0 0 0
Fe 2.89978000 2.05045500 -1.0251348799999995 0 0 0
Fe 2.89978000 0.00000000 1.05259385
Fe 2.89978000 2.05053702 2.96033848
Fe 2.89978000 4.10091000 -3.07566615 0 0 0
Fe 2.89978000 6.15136500 -1.0251348799999995 0 0 0
Fe 2.89978000 4.10091000 1.05259385
Fe 2.89978000 6.15136500 2.96033848
