&CONTROL
calculation = 'relax'
prefix = 'scf'
pseudo_dir = '/vol0403/data/hp230205/u10028/POT_HYBRID_KKJUS_GBRV'
outdir = './data'
tprnfor = .true.
nstep = 70
disk_io = 'non'
/
&SYSTEM
ibrav = 0
ecutwfc = 50.0
ecutrho = 400
occupations = 'smearing'
smearing = 'mp'
degauss = 0.01
assume_isolated = 'esm'
esm_bc = 'bc1'
input_dft = 'BEEF-VDW'
nosym = .true.
nspin = 1
ntyp = 6
nat = 34
/
&ELECTRONS
electron_maxstep = 200
mixing_beta = 0.1
conv_thr = 1e-06
/
&IONS
ion_dynamics = 'bfgs'
upscale = 1.0
/
&CELL
/

K_POINTS {automatic}
6 6 1 0 0 0

ATOMIC_SPECIES
Al 26.98 Al.pbe-nl-rrkjus_psl.1.0.0.UPF
C 12.01 C.pbe-n-rrkjus_psl.1.0.0.UPF
Cu 63.54 Cu.pbe-dn-rrkjus_psl.1.0.0.UPF
In 114.8 In.pbe-dn-rrkjus_psl.1.0.0.UPF
O 15.99 O.pbe-n-rrkjus_psl.1.0.0.UPF
Pd 106.4 Pd.pbe-n-rrkjus_psl.1.0.0.UPF


CELL_PARAMETERS {angstrom}
6.36006000 0.00000000 0.00000000
-0.00000000 8.99448000 0.00000000
0.00000000 0.00000000 26.74590000

ATOMIC_POSITIONS {angstrom}
Al 0.00000000 0.00000000 -3.3729254500000003 0 0 0
Al 0.00000000 4.49724000 -3.3729254500000003 0 0 0
Al 3.18003000 6.74586000 -1.124397639999998 0 0 0
Al 3.18003000 2.24862000 -1.124397639999998 0 0 0
Al 0.00216242 4.50749371 1.24154468
Al 0.00216242 8.98422629 1.24154468
Al 3.21030389 2.24862000 3.36329692
Al 3.17831278 6.74586000 3.33735340
In 0.00000000 2.24862000 -1.124397639999998 0 0 0
In 0.00000000 6.74586000 -1.124397639999998 0 0 0
In 3.18003000 4.49724000 -3.3729254500000003 0 0 0
In 3.18003000 0.00000000 -3.3729254500000003 0 0 0
In 0.08210837 6.74586000 4.08008704
In 0.01475534 2.24862000 4.04077057
In 3.15128253 8.98881348 1.08989542
In 3.15128253 4.50290652 1.08989542
Cu 1.59001500 0.00000000 -1.124397639999998 0 0 0
Cu 1.59001500 4.49724000 -1.124397639999998 0 0 0
Cu 4.77004500 2.24862000 -3.3729254500000003 0 0 0
Cu 4.77004500 6.74586000 -3.3729254500000003 0 0 0
Cu 1.63695224 4.53141902 3.33708594
Cu 1.63695224 8.96030098 3.33708594
Cu 4.96765206 6.74586000 1.38276303
Cu 4.96409043 2.24862000 1.41325336
Pd 4.77004500 0.00000000 -1.124397639999998 0 0 0
Pd 4.77004500 4.49724000 -1.124397639999998 0 0 0
Pd 1.59001500 2.24862000 -3.3729254500000003 0 0 0
Pd 1.59001500 6.74586000 -3.3729254500000003 0 0 0
Pd 4.73684549 4.55093705 3.28359414
Pd 4.73684549 8.94078295 3.28359414
Pd 1.44068079 6.74586000 1.24635894
Pd 1.44042639 2.24862000 1.40041532
C 3.12164465 2.24862000 5.35720377
O 3.12908592 2.24862000 6.51075444
