&CONTROL
calculation = 'relax'
prefix = 'scf'
pseudo_dir = '/vol0004/mdt0/data/hp150275/u10028/POT_HYBRID_KKJUS_GBRV'
outdir = './data'
tprnfor = .true.
nstep = 50
disk_io = 'non'
/
&SYSTEM
ibrav = 0
ecutwfc = 50.0
ecutrho = 400
occupations = 'smearing'
smearing = 'mp'
degauss = 0.01
assume_isolated = 'esm'
esm_bc = 'bc1'
input_dft = 'BEEF-VDW'
nosym = .true.
nspin = 2
ntyp = 4
nat = 33
starting_magnetization(1) = 0.0
starting_magnetization(2) = 0.0
starting_magnetization(3) = 0.001
starting_magnetization(4) = 0.0
/
&ELECTRONS
electron_maxstep = 300
mixing_beta = 0.1
conv_thr = 1e-06
/
&IONS
ion_dynamics = 'bfgs'
upscale = 1.0
/
&CELL
/

K_POINTS {automatic}
8 6 1 0 0 0

ATOMIC_SPECIES
C 12.01 C.pbe-n-rrkjus_psl.1.0.0.UPF
Ga 69.72 Ga.pbe-dnl-rrkjus_psl.1.0.0.UPF
Ni 58.69 ni_pbe_v1.4.uspp.F.UPF
V 50.94 V.pbe-spnl-rrkjus_psl.1.0.0.UPF

CELL_PARAMETERS {angstrom}
5.82350000 0.00000000 0.00000000
0.00000000 8.23567000 0.00000000
0.00000000 0.00000000 26.17680000

ATOMIC_POSITIONS {angstrom}
V 0.00000000 0.00000000 -3.0883388600000004 0 0 0
V 2.91175000 2.05891750 -1.0295335399999992 0 0 0
V 2.91175000 6.17675250 -1.0295335399999992 0 0 0
V 0.00000000 4.11783500 -3.0883388600000004 0 0 0
V 0.00000000 4.11783500 1.06696637
V 2.91175000 6.34146590 3.16922518
V 2.91175000 1.89428646 3.16922518
V 0.00000000 0.00000000 0.97299166
Ga 0.00000000 6.17675250 -1.0295335399999992 0 0 0
Ga 2.91175000 0.00000000 -3.0883388600000004 0 0 0
Ga 0.00000000 2.05891750 -1.0295335399999992 0 0 0
Ga 2.91175000 4.11783500 -3.0883388600000004 0 0 0
Ga 0.00000000 2.15716904 3.14645136
Ga 2.91175000 4.11799971 0.98738890
Ga 0.00000000 6.07850096 3.14618959
Ga 2.91175000 8.23558764 1.01644514
Ni 1.45587500 0.00000000 -1.0295335399999992 0 0 0
Ni 4.36762500 4.11783500 -1.0295335399999992 0 0 0
Ni 4.36762500 0.00000000 -1.0295335399999992 0 0 0
Ni 1.45587500 4.11783500 -1.0295335399999992 0 0 0
Ni 4.36762500 6.17675250 -3.0883388600000004 0 0 0
Ni 1.45587500 2.05891750 -3.0883388600000004 0 0 0
Ni 1.45587500 6.17675250 -3.0883388600000004 0 0 0
Ni 4.36762500 2.05891750 -3.0883388600000004 0 0 0
Ni 1.54311103 4.11783500 2.99462592
Ni 4.61419199 0.00000000 2.99593476
Ni 4.28038897 4.11783500 2.99462592
Ni 1.20930801 0.00000000 2.99593476
Ni 4.30711883 2.06567075 1.06722814
Ni 1.51655587 6.16999925 1.06696637
Ni 1.51638117 2.06567075 1.06722814
Ni 4.30694413 6.16999925 1.06696637
C 2.91175000 0.00000000 3.77102981
