&CONTROL
calculation = 'relax'
prefix = 'scf'
pseudo_dir = '/vol0403/data/hp230205/u10028/POT_HYBRID_KKJUS_GBRV'
outdir = './data'
tprnfor = .true.
nstep = 70
disk_io = 'non'
/
&SYSTEM
ibrav = 0
ecutwfc = 50.0
ecutrho = 400
occupations = 'smearing'
smearing = 'mp'
degauss = 0.01
assume_isolated = 'esm'
esm_bc = 'bc1'
input_dft = 'BEEF-VDW'
nosym = .true.
nspin = 1
ntyp = 5
nat = 33
/
&ELECTRONS
electron_maxstep = 200
mixing_beta = 0.1
conv_thr = 1e-06
/
&IONS
ion_dynamics = 'bfgs'
upscale = 1.0
/
&CELL
/

K_POINTS {automatic}
6 6 1 0 0 0

ATOMIC_SPECIES
Ag 107.8 Ag.pbe-n-rrkjus_psl.1.0.0.UPF
C 12.01 C.pbe-n-rrkjus_psl.1.0.0.UPF
Cu 63.54 Cu.pbe-dn-rrkjus_psl.1.0.0.UPF
Ge 72.64 Ge.pbe-dn-rrkjus_psl.1.0.0.UPF
Li 6.941 Li.pbe-sl-rrkjus_psl.1.0.0.UPF


CELL_PARAMETERS {angstrom}
6.23049000 0.00000000 0.00000000
-0.00000000 8.81124000 0.00000000
0.00000000 0.00000000 26.60840000

ATOMIC_POSITIONS {angstrom}
Li 1.55762250 0.00000000 -1.101321679999998 0 0 0
Li 1.55762250 4.40562000 -1.101321679999998 0 0 0
Li 4.67286750 2.20281000 -3.30423111 0 0 0
Li 4.67286750 6.60843000 -3.30423111 0 0 0
Li 1.49562912 4.54325157 3.58388540
Li 1.49562912 8.67360843 3.58388540
Li 4.60682431 6.60843000 1.00579752
Li 4.60713583 2.20281000 1.24048361
Cu 0.00000000 2.20281000 -1.101321679999998 0 0 0
Cu 0.00000000 6.60843000 -1.101321679999998 0 0 0
Cu 3.11524500 4.40562000 -3.30423111 0 0 0
Cu 3.11524500 0.00000000 -3.30423111 0 0 0
Cu 6.15653408 6.60843000 3.14883806
Cu 0.29333147 2.20281000 3.04320271
Cu 3.07680288 0.01506722 1.27401019
Cu 3.07674057 4.39055278 1.27401019
Ag 0.00000000 0.00000000 -3.30423111 0 0 0
Ag 0.00000000 4.40562000 -3.30423111 0 0 0
Ag 3.11524500 6.60843000 -1.101321679999998 0 0 0
Ag 3.11524500 2.20281000 -1.101321679999998 0 0 0
Ag 6.16438450 4.42377115 1.20748919
Ag 6.16438450 8.79308885 1.20748919
Ag 2.83699132 2.20281000 3.35798008
Ag 3.31212848 6.60843000 3.46095459
Ge 4.67286750 0.00000000 -1.101321679999998 0 0 0
Ge 4.67286750 4.40562000 -1.101321679999998 0 0 0
Ge 1.55762250 2.20281000 -3.30423111 0 0 0
Ge 1.55762250 6.60843000 -3.30423111 0 0 0
Ge 4.78507862 4.18102149 3.66663752
Ge 4.78507862 0.22459851 3.66637144
Ge 1.64248177 6.60843000 1.29529691
Ge 1.58752885 2.20281000 0.98876814
C 4.92595000 2.20281000 4.06842436
