&CONTROL
calculation = 'relax'
prefix = 'scf'
pseudo_dir = '/vol0004/mdt0/data/hp150275/u10028/POT_HYBRID_KKJUS_GBRV'
outdir = './data'
tprnfor = .true.
nstep = 50
disk_io = 'non'
/
&SYSTEM
ibrav = 0
ecutwfc = 50.0
ecutrho = 400
occupations = 'smearing'
smearing = 'mp'
degauss = 0.01
assume_isolated = 'esm'
esm_bc = 'bc1'
input_dft = 'BEEF-VDW'
nosym = .true.
nspin = 2
ntyp = 4
nat = 18
starting_magnetization(1) = 0.0
starting_magnetization(2) = 0.01
starting_magnetization(3) = 0.0
starting_magnetization(4) = 0.0
/
&ELECTRONS
electron_maxstep = 200
mixing_beta = 0.1
conv_thr = 1e-06
/
&IONS
ion_dynamics = 'bfgs'
upscale = 1.0
/
&CELL
/

K_POINTS {automatic}
8 11 2 0  0  0

ATOMIC_SPECIES
C 12.01 C.pbe-n-rrkjus_psl.1.0.0.UPF
Ni 58.69 ni_pbe_v1.4.uspp.F.UPF
O 15.99 O.pbe-n-rrkjus_psl.1.0.0.UPF
Sn 118.7 Sn.pbe-dn-rrkjus_psl.1.0.0.UPF

CELL_PARAMETERS {angstrom}
7.51544000 0.00000000 0.00000000
-0.00000000 5.31422000 0.00000000
0.00000000 0.00000000 23.98570000

ATOMIC_POSITIONS {angstrom}
Ni 0.00000000 2.65711000 21.99296804
Ni 1.87886000 3.98566500 23.32153597
Ni 1.87886000 1.32855500 23.32153597
Ni 0.00000000 0.00000000 0.66416403
Ni 1.87886000 1.32855500 1.99273196
Ni 1.87886000 3.98566500 1.99273196
Ni 3.75772000 2.65711000 21.99296804
Ni 5.63658000 3.98566500 23.32153597
Ni 5.63658000 1.32855500 23.32153597
Ni 3.75772000 -0.00000000 0.66416403
Ni 5.63658000 1.32855500 1.99273196
Ni 5.63658000 3.98566500 1.99273196
Sn 0.00000000 0.00000000 21.99296804
Sn 0.00000000 2.65711000 0.66416403
Sn 3.75772000 0.00000000 21.99296804
Sn 3.75772000 2.65711000 0.66416403
C 1.87886000 1.32855500 3.89287911
O 1.87886000 1.32855500 5.04275357
