&CONTROL
calculation = 'relax'
prefix = 'scf'
pseudo_dir = '/vol0403/data/hp230205/u10028/POT_HYBRID_KKJUS_GBRV'
outdir = './data'
tprnfor = .true.
nstep = 50
disk_io = 'non'
/
&SYSTEM
ibrav = 0
ecutwfc = 50.0
ecutrho = 400
occupations = 'smearing'
smearing = 'mp'
degauss = 0.01
assume_isolated = 'esm'
esm_bc = 'bc1'
input_dft = 'BEEF-VDW'
nosym = .true.
nspin = 1
ntyp = 4
nat = 16
/
&ELECTRONS
electron_maxstep = 200
mixing_beta = 0.1
conv_thr = 1e-06
/
&IONS
ion_dynamics = 'bfgs'
upscale = 1.0
/
&CELL
/

K_POINTS {automatic}
12 7 3 0  0  0

ATOMIC_SPECIES
Ga 69.72 Ga.pbe-dnl-rrkjus_psl.1.0.0.UPF
Pd 106.4 Pd.pbe-n-rrkjus_psl.1.0.0.UPF
Sc 44.95 Sc.pbe-spn-rrkjus_psl.1.0.0.UPF
Y 88.90 Y.pbe-spn-rrkjus_psl.1.0.0.UPF


CELL_PARAMETERS {angstrom}
5.91305000 0.00000000 0.00000000
0.00000000 9.85606000 0.00000000
0.00000000 0.00000000 24.24990000

ATOMIC_POSITIONS {angstrom}
Y 0.92438711 2.46411356 0.74131944
Y 3.16762089 2.46401500 -2.1250187400000016 0 0 0
Y 0.92444624 7.39194644 0.74131944
Y 3.16762089 7.39204500 -2.1250187400000016 0 0 0
Sc 3.40816376 0.00000000 1.95017696
Sc 5.06825255 0.00000000 -0.7083395800000005 0 0 0
Sc 3.40786811 4.92812856 1.95041946
Sc 5.06825255 4.92803000 -0.7083395800000005 0 0 0
Ga 0.48274140 0.00019712 2.21716836
Ga 2.11172755 0.00000000 -0.7083395800000005 0 0 0
Ga 0.48262314 4.92793144 2.21716836
Ga 2.11172755 4.92803000 -0.7083395800000005 0 0 0
Pd 3.81232073 2.46401500 0.51385538
Pd 0.21109589 2.46401500 -2.1250187400000016 0 0 0
Pd 3.81232073 7.39194644 0.51385538
Pd 0.21109589 7.39204500 -2.1250187400000016 0 0 0
