&CONTROL
calculation = 'relax'
prefix = 'scf'
pseudo_dir = '/vol0004/mdt0/data/hp150275/u10028/POT_HYBRID_KKJUS_GBRV'
outdir = './data'
tprnfor = .true.
nstep = 50
disk_io = 'non'
/
&SYSTEM
ibrav = 0
ecutwfc = 50.0
ecutrho = 400
occupations = 'smearing'
smearing = 'mp'
degauss = 0.01
assume_isolated = 'esm'
esm_bc = 'bc1'
input_dft = 'BEEF-VDW'
nosym = .true.
nspin = 2
ntyp = 3
nat = 33
starting_magnetization(1) = 0.1
starting_magnetization(2) = 0.1
starting_magnetization(3) = 0.1
/
&ELECTRONS
electron_maxstep = 200
mixing_beta = 0.1
conv_thr = 1e-06
/
&IONS
ion_dynamics = 'bfgs'
upscale = 1.0
/
&CELL
/

K_POINTS {automatic}
9 6 1 0  0  0

ATOMIC_SPECIES
Be 9.012 Be.pbe-n-rrkjus_psl.1.0.0.UPF
C 12.01 C.pbe-n-rrkjus_psl.1.0.0.UPF
Co 58.93 co_pbe_v1.2.uspp.F.UPF

CELL_PARAMETERS {angstrom}
5.19112000 0.00000000 0.00000000
0.00000000 7.34136000 0.00000000
0.00000000 0.00000000 25.50600000

ATOMIC_POSITIONS {angstrom}
Be 0.00000000 0.00000000 -2.7531176399999993 0 0 0
Be 0.00000000 1.83534000 -0.9177058799999998 0 0 0
Be 0.00000000 3.67068000 0.82741464
Be 0.00005191 1.74041622 2.91661110
Be 0.00000000 3.67068000 -2.7531176399999993 0 0 0
Be 0.00000000 5.50602000 -0.9177058799999998 0 0 0
Be 0.00000000 0.00000000 0.87179508
Be 0.00005191 5.60094378 2.91686616
Be 2.59556000 0.00000000 -2.7531176399999993 0 0 0
Be 2.59556000 1.83534000 -0.9177058799999998 0 0 0
Be 2.59556000 3.67068000 0.85164534
Be 2.59550809 1.85185806 2.76332004
Be 2.59556000 3.67068000 -2.7531176399999993 0 0 0
Be 2.59556000 5.50602000 -0.9177058799999998 0 0 0
Be 2.59556000 0.00000000 0.80573454
Be 2.59556000 5.48950194 2.76357510
Co 1.29778000 1.83534000 -2.7531176399999993 0 0 0
Co 1.29778000 0.00000000 -0.9177058799999998 0 0 0
Co 1.28080504 1.84069919 0.97254378
Co 1.35592054 7.34128659 2.73016224
Co 1.29778000 5.50602000 -2.7531176399999993 0 0 0
Co 1.29778000 3.67068000 -0.9177058799999998 0 0 0
Co 1.28080504 5.50066081 0.97279884
Co 1.26320714 3.67075341 2.68654698
Co 3.89334000 1.83534000 -2.7531176399999993 0 0 0
Co 3.89334000 0.00000000 -0.9177058799999998 0 0 0
Co 3.91031496 1.84069919 0.97254378
Co 3.83530328 7.34128659 2.73016224
Co 3.89334000 5.50602000 -2.7531176399999993 0 0 0
Co 3.89334000 3.67068000 -0.9177058799999998 0 0 0
Co 3.91031496 5.50066081 0.97279884
Co 3.92791286 3.67075341 2.68654698
C 0.00005191 0.00000000 3.79350738
