&CONTROL
calculation = 'relax'
prefix = 'scf'
pseudo_dir = '/vol0004/mdt0/data/hp150275/u10028/POT_HYBRID_KKJUS_GBRV'
outdir = './data'
tprnfor = .true.
nstep = 50
disk_io = 'non'
/
&SYSTEM
ibrav = 0
ecutwfc = 50.0
ecutrho = 400
occupations = 'smearing'
smearing = 'mp'
degauss = 0.01
assume_isolated = 'esm'
esm_bc = 'bc1'
input_dft = 'BEEF-VDW'
nosym = .true.
nspin = 2
ntyp = 2
nat = 32
starting_magnetization(1) = 0.1
starting_magnetization(2) = 0.1
/
&ELECTRONS
electron_maxstep = 200
mixing_beta = 0.1
conv_thr = 1e-06
/
&IONS
ion_dynamics = 'bfgs'
upscale = 1.0
/
&CELL
/

K_POINTS {automatic}
9 6 2 0  0  0

ATOMIC_SPECIES
Co 58.93 co_pbe_v1.2.uspp.F.UPF
Hf 178.4 Hf.pbe-spn-rrkjus_psl.1.0.0.UPF

CELL_PARAMETERS {angstrom}
6.31043000 0.00000000 0.00000000
0.00000000 8.92430000 0.00000000
0.00000000 0.00000000 26.69320000

ATOMIC_POSITIONS {angstrom}
Hf 0.00000000 0.00000000 -3.3465264800000014 0 0 0
Hf 0.00000000 2.23107500 -1.1155088299999996 0 0 0
Hf 0.00000000 0.00000000 1.15234544
Hf 0.00000000 2.23107500 3.40471766
Hf 0.00000000 4.46215000 -3.3465264800000014 0 0 0
Hf 0.00000000 6.69322500 -1.1155088299999996 0 0 0
Hf 0.00000000 4.46215000 1.15234544
Hf 0.00000000 6.69322500 3.40498459
Hf 3.15521500 0.00000000 -3.3465264800000014 0 0 0
Hf 3.15521500 2.23107500 -1.1155088299999996 0 0 0
Hf 3.15521500 0.00000000 1.15207851
Hf 3.15521500 2.23107500 3.40498459
Hf 3.15521500 4.46215000 -3.3465264800000014 0 0 0
Hf 3.15521500 6.69322500 -1.1155088299999996 0 0 0
Hf 3.15521500 4.46215000 1.15207851
Hf 3.15521500 6.69322500 3.40498459
Co 1.57760750 2.23107500 -3.3465264800000014 0 0 0
Co 1.57760750 0.00000000 -1.1155088299999996 0 0 0
Co 1.57773371 2.23107500 1.19158445
Co 1.57779681 0.00008924 3.12870997
Co 1.57760750 6.69322500 -3.3465264800000014 0 0 0
Co 1.57760750 4.46215000 -1.1155088299999996 0 0 0
Co 1.57773371 6.69322500 1.19158445
Co 1.57779681 4.46206076 3.12870997
Co 4.73282250 2.23107500 -3.3465264800000014 0 0 0
Co 4.73282250 0.00000000 -1.1155088299999996 0 0 0
Co 4.73269629 2.23107500 1.19158445
Co 4.73263319 0.00008924 3.12870997
Co 4.73282250 6.69322500 -3.3465264800000014 0 0 0
Co 4.73282250 4.46215000 -1.1155088299999996 0 0 0
Co 4.73269629 6.69322500 1.19158445
Co 4.73263319 4.46206076 3.12870997
