&CONTROL
calculation = 'relax'
prefix = 'scf'
pseudo_dir = '/vol0004/mdt0/data/hp150275/u10028/POT_HYBRID_KKJUS_GBRV'
outdir = './data'
tprnfor = .true.
nstep = 50
disk_io = 'non'
/
&SYSTEM
ibrav = 0
ecutwfc = 50.0
ecutrho = 400
occupations = 'smearing'
smearing = 'mp'
degauss = 0.01
assume_isolated = 'esm'
esm_bc = 'bc1'
input_dft = 'BEEF-VDW'
nosym = .true.
nspin = 2
ntyp = 3
nat = 33
starting_magnetization(1) = 0.0
starting_magnetization(2) = 0.001
starting_magnetization(3) = 0.0
/
&ELECTRONS
electron_maxstep = 200
mixing_beta = 0.1
conv_thr = 1e-06
/
&IONS
ion_dynamics = 'bfgs'
upscale = 1.0
/
&CELL
/

K_POINTS {automatic}
9 6 2 0  0  0

ATOMIC_SPECIES
C 12.01 C.pbe-n-rrkjus_psl.1.0.0.UPF
Ni 58.69 ni_pbe_v1.4.uspp.F.UPF
Sc 44.95 Sc.pbe-spn-rrkjus_psl.1.0.0.UPF

CELL_PARAMETERS {angstrom}
6.35210000 0.00000000 0.00000000
0.00000000 8.98322000 0.00000000
0.00000000 0.00000000 26.73740000

ATOMIC_POSITIONS {angstrom}
Sc 1.58802500 2.24580500 23.36875497
Sc 1.58802500 0.00000000 25.61442920
Sc 1.57728995 2.23772010 1.18847743
Sc 1.60047512 0.01607996 3.45981956
Sc 1.58802500 6.73741500 23.36875497
Sc 1.58802500 4.49161000 25.61442920
Sc 1.60307948 6.68558182 1.10184825
Sc 1.59355133 4.59842049 3.50580789
Sc 4.76407500 2.24580500 23.36875497
Sc 4.76407500 0.00000000 25.61442920
Sc 4.77493709 2.23772010 1.18794268
Sc 4.75187897 0.01563080 3.45981956
Sc 4.76407500 6.73741500 23.36875497
Sc 4.76407500 4.49161000 25.61442920
Sc 4.74902052 6.68558182 1.10211563
Sc 4.75816755 4.59931881 3.50580789
Ni 0.00000000 0.00000000 23.36875497
Ni 0.00000000 2.24580500 25.61442920
Ni 6.35197296 8.76034631 0.93928486
Ni 6.35095662 2.59875571 3.36757553
Ni 0.00000000 4.49161000 23.36875497
Ni 0.00000000 6.73741500 25.61442920
Ni 0.00000000 4.48999302 1.25157769
Ni 0.00057169 6.73642685 3.13843601
Ni 3.17605000 0.00000000 23.36875497
Ni 3.17605000 2.24580500 25.61442920
Ni 3.17630408 8.94791595 1.16120528
Ni 3.17681225 2.35773592 3.21276598
Ni 3.17605000 4.49161000 23.36875497
Ni 3.17605000 6.73741500 25.61442920
Ni 3.17598648 4.47741651 1.21895807
Ni 3.17554183 6.77945647 3.13014742
C 6.35203648 0.98770504 2.36251666
