&CONTROL
calculation = 'relax'
prefix = 'scf'
pseudo_dir = '/vol0004/mdt0/data/hp150275/u10028/POT_KKJUS'
outdir = './data'
tprnfor = .true.
nstep = 50
disk_io = 'non'
/
&SYSTEM
ibrav = 0
ecutwfc = 50.0
ecutrho = 400
occupations = 'smearing'
smearing = 'mp'
degauss = 0.01
assume_isolated = 'esm'
esm_bc = 'bc1'
input_dft = 'BEEF-VDW'
nosym = .true.
nspin = 1
ntyp = 5
nat = 34
/
&ELECTRONS
electron_maxstep = 200
mixing_beta = 0.1
conv_thr = 1e-06
/
&IONS
ion_dynamics = 'bfgs'
upscale = 1.0
/
&CELL
/

K_POINTS {automatic}
8 6 1 0 0 0

ATOMIC_SPECIES
Ag 107.8 Ag.pbe-n-rrkjus_psl.1.0.0.UPF
Bi 208.9 Bi.pbe-dn-rrkjus_psl.1.0.0.UPF
C 12.01 C.pbe-n-rrkjus_psl.1.0.0.UPF
Li 6.941 Li.pbe-sl-rrkjus_psl.1.0.0.UPF
O 15.99 O.pbe-n-rrkjus_psl.1.0.0.UPF

CELL_PARAMETERS {angstrom}
6.92564000 0.00000000 0.00000000
0.00000000 9.79433000 0.00000000
0.00000000 0.00000000 27.34580000

ATOMIC_POSITIONS {angstrom}
Li 0.00000000 7.34574750 -1.2242714700000015 0 0 0
Li 3.46282000 0.00000000 -3.6728144 0 0 0
Li 0.00000000 2.44858250 -1.2242714700000015 0 0 0
Li 3.46282000 4.89716500 -3.6728144 0 0 0
Li 1.73141000 0.00000000 -1.2242714700000015 0 0 0
Li 1.73141000 4.89716500 -1.2242714700000015 0 0 0
Li 5.19423000 7.34574750 -3.6728144 0 0 0
Li 5.19423000 2.44858250 -3.6728144 0 0 0
Li 6.70422729 2.43134448 3.42697566
Li 3.42611411 4.89716500 1.02874900
Li 6.70429655 7.36298552 3.42697566
Li 3.38546060 9.79423206 1.06238433
Li 2.07893862 4.89716500 3.49506670
Li 2.00968222 0.00000000 3.62167775
Li 5.06991476 2.44368534 1.28415877
Li 5.06998402 7.35054672 1.28415877
Ag 1.73141000 2.44858250 -3.6728144 0 0 0
Ag 1.73141000 7.34574750 -3.6728144 0 0 0
Ag 5.19423000 4.89716500 -1.2242714700000015 0 0 0
Ag 5.19423000 0.00000000 -1.2242714700000015 0 0 0
Ag 1.93890217 7.35054672 1.53437284
Ag 1.93904069 2.44368534 1.53464630
Ag 4.95072450 0.00000000 3.30282572
Ag 5.03514805 4.89716500 3.26153357
Bi 0.00000000 0.00000000 -3.6728144 0 0 0
Bi 3.46282000 2.44858250 -1.2242714700000015 0 0 0
Bi 3.46282000 7.34574750 -1.2242714700000015 0 0 0
Bi 0.00000000 4.89716500 -3.6728144 0 0 0
Bi 0.14779316 4.89716500 1.23274866
Bi 3.60029395 7.31068380 4.01709802
Bi 3.60036321 2.48364620 4.01737148
Bi 0.11738960 0.00000000 1.25298456
C 1.59913028 0.00009794 5.68902023
O 1.56145479 0.00009794 6.83043392
