&CONTROL
calculation = 'relax'
prefix = 'scf'
pseudo_dir = '/vol0004/mdt0/data/hp150275/u10028/POT_KKJUS'
outdir = './data'
tprnfor = .true.
nstep = 50
disk_io = 'non'
/
&SYSTEM
ibrav = 0
ecutwfc = 50.0
ecutrho = 400
occupations = 'smearing'
smearing = 'mp'
degauss = 0.01
assume_isolated = 'esm'
esm_bc = 'bc1'
input_dft = 'BEEF-VDW'
nosym = .true.
nspin = 1
ntyp = 3
nat = 33
/
&ELECTRONS
electron_maxstep = 200
mixing_beta = 0.1
conv_thr = 1e-06
/
&IONS
ion_dynamics = 'bfgs'
upscale = 1.0
/
&CELL
/

K_POINTS {automatic}
9 6 2 0  0  0

ATOMIC_SPECIES
C 12.01 C.pbe-n-rrkjus_psl.1.0.0.UPF
Ga 69.72 Ga.pbe-dnl-rrkjus_psl.1.0.0.UPF
Ni 58.69 Ni.pbe-spn-rrkjus_psl.1.0.0.UPF

CELL_PARAMETERS {angstrom}
5.87849000 0.00000000 0.00000000
0.00000000 8.31345000 0.00000000
0.00000000 0.00000000 26.23510000

ATOMIC_POSITIONS {angstrom}
Ga 0.00000000 0.00000000 -3.1175169300000007 0 0 0
Ga 0.00000000 2.07836250 -1.0391723099999979 0 0 0
Ga 5.87843122 0.00000000 1.12732225
Ga 5.87843122 2.10721017 3.38065499
Ga 0.00000000 4.15672500 -3.1175169300000007 0 0 0
Ga 0.00000000 6.23508750 -1.0391723099999979 0 0 0
Ga 0.00000000 4.15647560 0.99903261
Ga 0.00005878 6.20590729 3.38065499
Ga 2.93924500 0.00000000 -3.1175169300000007 0 0 0
Ga 2.93924500 2.07836250 -1.0391723099999979 0 0 0
Ga 2.93930378 8.31336687 0.96807519
Ga 2.93930378 2.17562987 3.30483555
Ga 2.93924500 4.15672500 -3.1175169300000007 0 0 0
Ga 2.93924500 6.23508750 -1.0391723099999979 0 0 0
Ga 2.93924500 4.15655873 1.04363228
Ga 2.93918622 6.13757073 3.30457320
Ni 1.46962250 2.07836250 -3.1175169300000007 0 0 0
Ni 1.46962250 0.00000000 -1.0391723099999979 0 0 0
Ni 1.45380936 2.09058327 1.02736652
Ni 1.73262614 8.31311746 3.07291726
Ni 1.46962250 6.23508750 -3.1175169300000007 0 0 0
Ni 1.46962250 4.15672500 -1.0391723099999979 0 0 0
Ni 1.45392693 6.22278359 1.02710416
Ni 1.42159524 4.15572739 3.01467534
Ni 4.40886750 2.07836250 -3.1175169300000007 0 0 0
Ni 4.40886750 0.00000000 -1.0391723099999979 0 0 0
Ni 4.42462185 2.09058327 1.02710416
Ni 4.14574629 8.31311746 3.07317961
Ni 4.40886750 6.23508750 -3.1175169300000007 0 0 0
Ni 4.40886750 4.15672500 -1.0391723099999979 0 0 0
Ni 4.42456307 6.22286673 1.02736652
Ni 4.45695355 4.15647560 3.01467534
C 0.00000000 0.00000000 3.55905367
