&CONTROL
calculation = 'relax'
prefix = 'scf'
pseudo_dir = '/vol0403/data/hp230205/u10028/POT_HYBRID_KKJUS_GBRV'
outdir = './data'
tprnfor = .true.
nstep = 50
disk_io = 'non'
/
&SYSTEM
ibrav = 0
ecutwfc = 50.0
ecutrho = 400
occupations = 'smearing'
smearing = 'mp'
degauss = 0.01
assume_isolated = 'esm'
esm_bc = 'bc1'
input_dft = 'BEEF-VDW'
nosym = .true.
nspin = 1
ntyp = 6
nat = 34
/
&ELECTRONS
electron_maxstep = 200
mixing_beta = 0.1
conv_thr = 1e-06
/
&IONS
ion_dynamics = 'bfgs'
upscale = 1.0
/
&CELL
/

K_POINTS {automatic}
6 6 1 0 0 0

ATOMIC_SPECIES
C 12.01 C.pbe-n-rrkjus_psl.1.0.0.UPF
Ge 72.64 Ge.pbe-dn-rrkjus_psl.1.0.0.UPF
In 114.8 In.pbe-dn-rrkjus_psl.1.0.0.UPF
Li 6.941 Li.pbe-sl-rrkjus_psl.1.0.0.UPF
O 15.99 O.pbe-n-rrkjus_psl.1.0.0.UPF
Sc 44.95 Sc.pbe-spn-rrkjus_psl.1.0.0.UPF


CELL_PARAMETERS {angstrom}
8.22048000 0.00000000 0.00000000
0.00000000 8.97372000 0.00000000
0.00000000 0.00000000 26.09470000

ATOMIC_POSITIONS {angstrom}
Li 0.00000000 2.24343000 -1.0158666700000012 0 0 0
Li 0.00000000 2.24343000 3.04733907
Li 0.00000000 6.73029000 -1.0158666700000012 0 0 0
Li 0.00000000 6.73029000 3.04733907
Li 4.11024000 2.24343000 -1.0158666700000012 0 0 0
Li 4.11024000 2.24343000 3.04733907
Li 4.11024000 6.73029000 -1.0158666700000012 0 0 0
Li 4.11024000 6.73029000 3.04733907
Sc 2.05512000 0.00000000 -1.0158666700000012 0 0 0
Sc 2.05512000 0.00000000 3.04733907
Sc 2.05512000 4.48686000 -1.0158666700000012 0 0 0
Sc 2.05512000 4.48686000 3.04733907
Sc 6.16536000 0.00000000 -1.0158666700000012 0 0 0
Sc 6.16536000 0.00000000 3.04733907
Sc 6.16536000 4.48686000 -1.0158666700000012 0 0 0
Sc 6.16536000 4.48686000 3.04733907
In 2.05512000 2.24343000 -3.0473390699999996 0 0 0
In 2.05512000 2.24343000 1.01586667
In 2.05512000 6.73029000 -3.0473390699999996 0 0 0
In 2.05512000 6.73029000 1.01586667
In 6.16536000 2.24343000 -3.0473390699999996 0 0 0
In 6.16536000 2.24343000 1.01586667
In 6.16536000 6.73029000 -3.0473390699999996 0 0 0
In 6.16536000 6.73029000 1.01586667
Ge 0.00000000 0.00000000 -3.0473390699999996 0 0 0
Ge 0.00000000 0.00000000 1.01586667
Ge 0.00000000 4.48686000 -3.0473390699999996 0 0 0
Ge 0.00000000 4.48686000 1.01586667
Ge 4.11024000 0.00000000 -3.0473390699999996 0 0 0
Ge 4.11024000 0.00000000 1.01586667
Ge 4.11024000 4.48686000 -3.0473390699999996 0 0 0
Ge 4.11024000 4.48686000 1.01586667
C 2.05512000 0.00000000 4.94729417
O 2.05512000 0.00000000 6.09728760
