&CONTROL
calculation = 'relax'
prefix = 'scf'
pseudo_dir = '/vol0403/data/hp230205/u10028/POT_HYBRID_KKJUS_GBRV'
outdir = './data'
tprnfor = .true.
nstep = 50
disk_io = 'non'
/
&SYSTEM
ibrav = 0
ecutwfc = 50.0
ecutrho = 400
occupations = 'smearing'
smearing = 'mp'
degauss = 0.01
assume_isolated = 'esm'
esm_bc = 'bc1'
input_dft = 'BEEF-VDW'
nosym = .true.
nspin = 1
ntyp = 5
nat = 33
/
&ELECTRONS
electron_maxstep = 200
mixing_beta = 0.1
conv_thr = 1e-06
/
&IONS
ion_dynamics = 'bfgs'
upscale = 1.0
/
&CELL
/

K_POINTS {automatic}
6 6 1 0 0 0

ATOMIC_SPECIES
C 12.01 C.pbe-n-rrkjus_psl.1.0.0.UPF
Ge 72.64 Ge.pbe-dn-rrkjus_psl.1.0.0.UPF
Li 6.941 Li.pbe-sl-rrkjus_psl.1.0.0.UPF
Pd 106.4 Pd.pbe-n-rrkjus_psl.1.0.0.UPF
V 50.94 V.pbe-spnl-rrkjus_psl.1.0.0.UPF


CELL_PARAMETERS {angstrom}
5.68832000 0.00000000 0.00000000
0.00000000 8.64114000 0.00000000
0.00000000 0.00000000 27.05420000

ATOMIC_POSITIONS {angstrom}
Li 1.42208000 8.64079435 1.13654694
Li 1.42208000 0.00000000 -3.5270560500000023 0 0 0
Li 1.42208000 4.32022435 1.36786035
Li 1.42208000 4.32057000 -3.5270560500000023 0 0 0
Li 4.26624000 8.64079435 0.98883101
Li 4.26624000 0.00000000 -3.5270560500000023 0 0 0
Li 4.26624000 4.32039718 1.24963350
Li 4.26624000 4.32057000 -3.5270560500000023 0 0 0
V 1.42208000 1.93691153 3.72319900
V 1.42208000 2.16028500 -1.1757755300000028 0 0 0
V 1.42208000 6.70440129 3.72265792
V 1.42208000 6.48085500 -1.1757755300000028 0 0 0
V 4.26624000 2.32178791 3.34930996
V 4.26624000 2.16028500 -1.1757755300000028 0 0 0
V 4.26624000 6.32030262 3.34876888
V 4.26624000 6.48085500 -1.1757755300000028 0 0 0
Ge 5.47483735 0.00025923 3.35066267
Ge 0.00000000 0.00000000 -1.1757755300000028 0 0 0
Ge 0.12940928 4.32134770 3.93341014
Ge 0.00000000 4.32057000 -1.1757755300000028 0 0 0
Ge 3.05764265 0.00025923 3.35066267
Ge 2.84416000 0.00000000 -1.1757755300000028 0 0 0
Ge 2.71475072 4.32134770 3.93341014
Ge 2.84416000 4.32057000 -1.1757755300000028 0 0 0
Pd 0.00563144 2.10524094 1.19579564
Pd 0.00000000 2.16028500 -3.5270560500000023 0 0 0
Pd 0.00568832 6.53520777 1.19552510
Pd 0.00000000 6.48085500 -3.5270560500000023 0 0 0
Pd 2.83858545 2.10524094 1.19579564
Pd 2.84416000 2.16028500 -3.5270560500000023 0 0 0
Pd 2.83847168 6.53520777 1.19552510
Pd 2.84416000 6.48085500 -3.5270560500000023 0 0 0
C 1.42208000 0.00000000 4.44365235
