&CONTROL
calculation = 'relax'
prefix = 'scf'
pseudo_dir = '/vol0004/mdt0/data/hp150275/u10028/POT_KKJUS'
outdir = './data'
tprnfor = .true.
nstep = 50
disk_io = 'non'
/
&SYSTEM
ibrav = 0
ecutwfc = 50.0
ecutrho = 400
occupations = 'smearing'
smearing = 'mp'
degauss = 0.01
assume_isolated = 'esm'
esm_bc = 'bc1'
input_dft = 'BEEF-VDW'
nosym = .true.
nspin = 1
ntyp = 4
nat = 34
/
&ELECTRONS
electron_maxstep = 200
mixing_beta = 0.1
conv_thr = 1e-06
/
&IONS
ion_dynamics = 'bfgs'
upscale = 1.0
/
&CELL
/

K_POINTS {automatic}
8 6 1 0 0 0

ATOMIC_SPECIES
C 12.01 C.pbe-n-rrkjus_psl.1.0.0.UPF
Mg 24.30 Mg.pbe-spnl-rrkjus_psl.1.0.0.UPF
O 15.99 O.pbe-n-rrkjus_psl.1.0.0.UPF
Sc 44.95 Sc.pbe-spn-rrkjus_psl.1.0.0.UPF

CELL_PARAMETERS {angstrom}
7.19733000 0.00000000 0.00000000
0.00000000 10.17860000 0.00000000
0.00000000 0.00000000 27.63390000

ATOMIC_POSITIONS {angstrom}
Mg 0.00000000 0.00000000 -3.817070610000002 0 0 0
Mg 0.00000000 2.54465000 -1.2722647600000023 0 0 0
Mg 0.00388656 5.08930000 1.18300726
Mg 0.02159199 2.51462313 3.96380662
Mg 0.00000000 5.08930000 -3.817070610000002 0 0 0
Mg 0.00000000 7.63395000 -1.2722647600000023 0 0 0
Mg 7.16623753 0.00010179 1.16311085
Mg 0.02159199 7.66397687 3.96380662
Mg 3.59866500 0.00000000 -3.817070610000002 0 0 0
Mg 3.59866500 2.54465000 -1.2722647600000023 0 0 0
Mg 3.59470647 5.08930000 1.18300726
Mg 3.57707301 2.51462313 3.96380662
Mg 3.59866500 5.08930000 -3.817070610000002 0 0 0
Mg 3.59866500 7.63395000 -1.2722647600000023 0 0 0
Mg 3.62982944 0.00000000 1.16311085
Mg 3.57707301 7.66387508 3.96380662
Sc 1.79933250 2.54465000 -3.817070610000002 0 0 0
Sc 1.79933250 0.00000000 -1.2722647600000023 0 0 0
Sc 1.79933250 2.55727146 1.34825798
Sc 1.79933250 5.08930000 3.59599941
Sc 1.79933250 7.63395000 -3.817070610000002 0 0 0
Sc 1.79933250 5.08930000 -1.2722647600000023 0 0 0
Sc 1.79933250 7.62132854 1.34825798
Sc 1.79933250 0.00000000 3.55206151
Sc 5.39799750 2.54465000 -3.817070610000002 0 0 0
Sc 5.39799750 0.00000000 -1.2722647600000023 0 0 0
Sc 5.39799750 2.55177502 1.39440659
Sc 5.39799750 5.08930000 3.61147439
Sc 5.39799750 7.63395000 -3.817070610000002 0 0 0
Sc 5.39799750 5.08930000 -1.2722647600000023 0 0 0
Sc 5.39799750 7.62692677 1.39440659
Sc 5.39799750 0.00000000 3.63496321
C 1.79933250 0.00000000 5.79178910
O 1.79933250 0.00000000 6.95545263
