&CONTROL
calculation = 'relax'
prefix = 'scf'
pseudo_dir = '/vol0403/data/hp230205/u10028/POT_HYBRID_KKJUS_GBRV'
outdir = './data'
tprnfor = .true.
nstep = 50
disk_io = 'non'
/
&SYSTEM
ibrav = 0
ecutwfc = 50.0
ecutrho = 400
occupations = 'smearing'
smearing = 'mp'
degauss = 0.01
assume_isolated = 'esm'
esm_bc = 'bc1'
input_dft = 'BEEF-VDW'
nosym = .true.
nspin = 1
ntyp = 5
nat = 17
/
&ELECTRONS
electron_maxstep = 200
mixing_beta = 0.1
conv_thr = 1e-06
/
&IONS
ion_dynamics = 'bfgs'
upscale = 1.0
/
&CELL
/

K_POINTS {automatic}
11 8 2 0  0  0

ATOMIC_SPECIES
C 12.01 C.pbe-n-rrkjus_psl.1.0.0.UPF
Ga 69.72 Ga.pbe-dnl-rrkjus_psl.1.0.0.UPF
In 114.8 In.pbe-dn-rrkjus_psl.1.0.0.UPF
Li 6.941 Li.pbe-sl-rrkjus_psl.1.0.0.UPF
Sc 44.95 Sc.pbe-spn-rrkjus_psl.1.0.0.UPF


CELL_PARAMETERS {angstrom}
6.04935000 0.00000000 0.00000000
0.00000000 8.37318000 0.00000000
0.00000000 0.00000000 24.52450000

ATOMIC_POSITIONS {angstrom}
Li 4.42467607 2.09329500 -0.7541283800000009 0 0 0
Li 1.00104644 1.38643114 2.51645895
Li 4.42467607 6.27988500 -0.7541283800000009 0 0 0
Li 1.00104644 6.98674886 2.51645895
Sc 1.40000107 2.09329500 -0.7541283800000009 0 0 0
Sc 4.19226004 1.70226749 2.29892663
Sc 1.40000107 6.27988500 -0.7541283800000009 0 0 0
Sc 4.19226004 6.67091251 2.29892663
In 3.02467500 0.00000000 -2.2621398799999994 0 0 0
In 5.71845055 0.00000000 0.46866319
In 3.02467500 4.18659000 -2.2621398799999994 0 0 0
In 5.85437945 4.18659000 1.05823218
Ga 0.00000000 0.00000000 -2.2621398799999994 0 0 0
Ga 2.68197932 8.37309627 0.68938369
Ga 0.00000000 4.18659000 -2.2621398799999994 0 0 0
Ga 2.84349697 4.18667373 0.88656068
C 5.35421919 0.00000000 2.74993219
