&CONTROL
calculation = 'relax'
prefix = 'scf'
pseudo_dir = '/vol0004/mdt0/data/hp150275/u10028/POT_KKJUS'
outdir = './data'
tprnfor = .true.
nstep = 50
disk_io = 'non'
/
&SYSTEM
ibrav = 0
ecutwfc = 50.0
ecutrho = 400
occupations = 'smearing'
smearing = 'mp'
degauss = 0.01
assume_isolated = 'esm'
esm_bc = 'bc1'
input_dft = 'BEEF-VDW'
nosym = .true.
nspin = 1
ntyp = 5
nat = 34
/
&ELECTRONS
electron_maxstep = 200
mixing_beta = 0.1
conv_thr = 1e-06
/
&IONS
ion_dynamics = 'bfgs'
upscale = 1.0
/
&CELL
/

K_POINTS {automatic}
9 6 2 0  0  0

ATOMIC_SPECIES
C 12.01 C.pbe-n-rrkjus_psl.1.0.0.UPF
Cu 63.54 Cu.pbe-dn-rrkjus_psl.1.0.0.UPF
In 114.8 In.pbe-dn-rrkjus_psl.1.0.0.UPF
O 15.99 O.pbe-n-rrkjus_psl.1.0.0.UPF
Sc 44.95 Sc.pbe-spn-rrkjus_psl.1.0.0.UPF

CELL_PARAMETERS {angstrom}
6.46446000 0.00000000 0.00000000
0.00000000 9.14213000 0.00000000
0.00000000 0.00000000 26.85660000

ATOMIC_POSITIONS {angstrom}
Sc 0.00000000 0.00000000 -3.4282449899999996 0 0 0
Sc 3.23223000 2.28553250 -1.1427483299999999 0 0 0
Sc 3.23223000 6.85659750 -1.1427483299999999 0 0 0
Sc 0.00000000 4.57106500 -3.4282449899999996 0 0 0
Sc 0.00000000 4.59638870 1.15939942
Sc 3.23223000 6.85659750 3.47470691
Sc 3.23223000 2.28553250 3.40837111
Sc 0.00000000 9.11680630 1.15939942
In 0.00000000 6.85659750 -1.1427483299999999 0 0 0
In 3.23223000 0.00000000 -3.4282449899999996 0 0 0
In 0.00000000 2.28553250 -1.1427483299999999 0 0 0
In 3.23223000 4.57106500 -3.4282449899999996 0 0 0
In 0.00000000 2.28553250 3.55151678
In 3.23223000 4.55351211 1.12368014
In 0.00000000 6.85659750 3.52170596
In 3.23223000 0.01755289 1.12368014
Cu 1.61611500 0.00000000 -1.1427483299999999 0 0 0
Cu 4.84834500 4.57106500 -1.1427483299999999 0 0 0
Cu 4.84834500 0.00000000 -1.1427483299999999 0 0 0
Cu 1.61611500 4.57106500 -1.1427483299999999 0 0 0
Cu 4.84834500 6.85659750 -3.4282449899999996 0 0 0
Cu 1.61611500 2.28553250 -3.4282449899999996 0 0 0
Cu 1.61611500 6.85659750 -3.4282449899999996 0 0 0
Cu 4.84834500 2.28553250 -3.4282449899999996 0 0 0
Cu 1.62076941 4.58048139 3.40998250
Cu 4.84369059 9.13271361 3.41025107
Cu 4.84369059 4.58048139 3.40998250
Cu 1.62076941 9.13271361 3.40998250
Cu 4.90051319 2.28553250 1.16772497
Cu 1.65858650 6.85659750 1.19082164
Cu 1.56394681 2.28553250 1.16772497
Cu 4.80587350 6.85659750 1.19082164
C 3.23223000 2.28553250 5.70326758
O 3.23223000 2.28553250 6.85085009
