&CONTROL
calculation = 'relax'
prefix = 'scf'
pseudo_dir = '/vol0004/mdt0/data/hp150275/u10028/POT_HYBRID_KKJUS_GBRV'
outdir = './data'
tprnfor = .true.
nstep = 50
disk_io = 'non'
/
&SYSTEM
ibrav = 0
ecutwfc = 50.0
ecutrho = 400
occupations = 'smearing'
smearing = 'mp'
degauss = 0.01
assume_isolated = 'esm'
esm_bc = 'bc1'
input_dft = 'BEEF-VDW'
nosym = .true.
nspin = 2
ntyp = 5
nat = 34
starting_magnetization(1) = 0.0
starting_magnetization(2) = 0.0
starting_magnetization(3) = 0.1
starting_magnetization(4) = 0.001
starting_magnetization(5) = 0.0
/
&ELECTRONS
electron_maxstep = 300
mixing_beta = 0.1
conv_thr = 1e-06
/
&IONS
ion_dynamics = 'bfgs'
upscale = 1.0
/
&CELL
/

K_POINTS {automatic}
8 6 1 0 0 0

ATOMIC_SPECIES
C 12.01 C.pbe-n-rrkjus_psl.1.0.0.UPF
Ge 72.64 Ge.pbe-dn-rrkjus_psl.1.0.0.UPF
Mn 54.93 mn_pbe_v1.5.uspp.F.UPF
Ni 58.69 ni_pbe_v1.4.uspp.F.UPF
O 15.99 O.pbe-n-rrkjus_psl.1.0.0.UPF

CELL_PARAMETERS {angstrom}
5.84248000 0.00000000 0.00000000
0.00000000 8.26252000 0.00000000
0.00000000 0.00000000 26.19690000

ATOMIC_POSITIONS {angstrom}
Mn 0.00000000 0.00000000 -3.09856933 0 0 0
Mn 2.92124000 2.06563000 -1.0329437699999993 0 0 0
Mn 2.92124000 6.19689000 -1.0329437699999993 0 0 0
Mn 0.00000000 4.13126000 -3.09856933 0 0 0
Mn 0.00000000 4.13861364 0.99836386
Mn 2.92124000 6.19705525 3.26413374
Mn 2.92124000 2.06554737 3.14362800
Mn 0.00000000 8.25524898 0.99810189
Ni 1.46062000 0.00000000 -1.0329437699999993 0 0 0
Ni 4.38186000 4.13126000 -1.0329437699999993 0 0 0
Ni 4.38186000 0.00000000 -1.0329437699999993 0 0 0
Ni 1.46062000 4.13126000 -1.0329437699999993 0 0 0
Ni 4.38186000 6.19689000 -3.09856933 0 0 0
Ni 1.46062000 2.06563000 -3.09856933 0 0 0
Ni 1.46062000 6.19689000 -3.09856933 0 0 0
Ni 4.38186000 2.06563000 -3.09856933 0 0 0
Ni 1.40762871 4.12911174 3.00216474
Ni 4.43490972 0.00223088 3.00216474
Ni 4.43485129 4.12902912 3.00190277
Ni 1.40757028 0.00223088 3.00216474
Ni 4.34540292 2.06538212 1.02456076
Ni 1.49187727 6.19713788 1.06988140
Ni 1.49707708 2.06538212 1.02456076
Ni 4.35060273 6.19713788 1.06988140
Ge 0.00000000 6.19689000 -1.0329437699999993 0 0 0
Ge 2.92124000 0.00000000 -3.09856933 0 0 0
Ge 0.00000000 2.06563000 -1.0329437699999993 0 0 0
Ge 2.92124000 4.13126000 -3.09856933 0 0 0
Ge 0.00000000 2.06546475 3.08075544
Ge 2.92124000 4.12646774 1.05678295
Ge 0.00000000 6.19722050 3.16668127
Ge 2.92124000 0.00479226 1.05704491
C 2.92124000 2.06563000 5.05259610
O 2.92124000 2.06563000 6.20578364
