&CONTROL
calculation = 'relax'
prefix = 'scf'
pseudo_dir = '/vol0403/data/hp230205/u10028/POT_HYBRID_KKJUS_GBRV'
outdir = './data'
tprnfor = .true.
nstep = 70
disk_io = 'non'
/
&SYSTEM
ibrav = 0
ecutwfc = 50.0
ecutrho = 400
occupations = 'smearing'
smearing = 'mp'
degauss = 0.01
assume_isolated = 'esm'
esm_bc = 'bc1'
input_dft = 'BEEF-VDW'
nosym = .true.
nspin = 1
ntyp = 6
nat = 34
/
&ELECTRONS
electron_maxstep = 200
mixing_beta = 0.1
conv_thr = 1e-06
/
&IONS
ion_dynamics = 'bfgs'
upscale = 1.0
/
&CELL
/

K_POINTS {automatic}
6 6 1 0 0 0

ATOMIC_SPECIES
Ag 107.8 Ag.pbe-n-rrkjus_psl.1.0.0.UPF
C 12.01 C.pbe-n-rrkjus_psl.1.0.0.UPF
In 114.8 In.pbe-dn-rrkjus_psl.1.0.0.UPF
O 15.99 O.pbe-n-rrkjus_psl.1.0.0.UPF
Pd 106.4 Pd.pbe-n-rrkjus_psl.1.0.0.UPF
Sc 44.95 Sc.pbe-spn-rrkjus_psl.1.0.0.UPF


CELL_PARAMETERS {angstrom}
6.71273000 0.00000000 0.00000000
-0.00000000 9.49324000 0.00000000
0.00000000 0.00000000 27.11990000

ATOMIC_POSITIONS {angstrom}
Sc 5.03454750 0.00000000 -1.1867668200000026 0 0 0
Sc 5.03454750 4.74662000 -1.1867668200000026 0 0 0
Sc 1.67818250 2.37331000 -3.560029270000001 0 0 0
Sc 1.67818250 7.11993000 -3.560029270000001 0 0 0
Sc 5.01360378 4.74662000 3.47026240
Sc 5.03078837 -0.00000000 3.45534646
Sc 1.75047860 7.10170298 1.32128153
Sc 1.75047860 2.39153702 1.32128153
In 1.67818250 0.00000000 -1.1867668200000026 0 0 0
In 1.67818250 4.74662000 -1.1867668200000026 0 0 0
In 5.03454750 2.37331000 -3.560029270000001 0 0 0
In 5.03454750 7.11993000 -3.560029270000001 0 0 0
In 1.64334343 4.74662000 3.72112148
In 1.60904138 -0.00000000 3.74525819
In 5.01044880 7.14128979 1.21632752
In 5.01044880 2.35195021 1.21632752
Ag 0.00000000 0.00000000 -3.560029270000001 0 0 0
Ag 0.00000000 4.74662000 -3.560029270000001 0 0 0
Ag 3.35636500 7.11993000 -1.1867668200000026 0 0 0
Ag 3.35636500 2.37331000 -1.1867668200000026 0 0 0
Ag 0.02423296 4.74662000 1.19083481
Ag 0.08001574 0.00000000 1.18161404
Ag 3.31118833 2.36457622 3.88953606
Ag 3.31112120 7.12866378 3.88953606
Pd 0.00000000 2.37331000 -1.1867668200000026 0 0 0
Pd 0.00000000 7.11993000 -1.1867668200000026 0 0 0
Pd 3.35636500 4.74662000 -3.560029270000001 0 0 0
Pd 3.35636500 0.00000000 -3.560029270000001 0 0 0
Pd 0.00490029 7.09277933 3.41520901
Pd 0.00483317 2.40046067 3.41520901
Pd 3.32588921 -0.00000000 1.16181652
Pd 3.39831956 4.74662000 1.17808846
C 4.99312996 -0.00000000 5.74914760
O 5.00554851 -0.00000000 6.89821776
