&CONTROL
calculation = 'relax'
prefix = 'scf'
pseudo_dir = '/vol0004/mdt0/data/hp150275/u10028/POT_KKJUS'
outdir = './data'
tprnfor = .true.
nstep = 50
disk_io = 'non'
/
&SYSTEM
ibrav = 0
ecutwfc = 50.0
ecutrho = 400
occupations = 'smearing'
smearing = 'mp'
degauss = 0.01
assume_isolated = 'esm'
esm_bc = 'bc1'
input_dft = 'BEEF-VDW'
nosym = .true.
nspin = 1
ntyp = 5
nat = 34
/
&ELECTRONS
electron_maxstep = 200
mixing_beta = 0.1
conv_thr = 1e-06
/
&IONS
ion_dynamics = 'bfgs'
upscale = 1.0
/
&CELL
/

K_POINTS {automatic}
9 6 2 0  0  0

ATOMIC_SPECIES
C 12.01 C.pbe-n-rrkjus_psl.1.0.0.UPF
In 114.8 In.pbe-dn-rrkjus_psl.1.0.0.UPF
Mg 24.30 Mg.pbe-spnl-rrkjus_psl.1.0.0.UPF
Ni 58.69 Ni.pbe-spn-rrkjus_psl.1.0.0.UPF
O 15.99 O.pbe-n-rrkjus_psl.1.0.0.UPF

CELL_PARAMETERS {angstrom}
6.24448000 0.00000000 0.00000000
0.00000000 8.83103000 0.00000000
0.00000000 0.00000000 26.62330000

ATOMIC_POSITIONS {angstrom}
Mg 0.00000000 0.00000000 -3.3116722900000006 0 0 0
Mg 3.12224000 2.20775750 -1.1038020199999998 0 0 0
Mg 3.12224000 6.62327250 -1.1038020199999998 0 0 0
Mg 0.00000000 4.41551500 -3.3116722900000006 0 0 0
Mg 6.22880636 4.41392541 1.01967239
Mg 3.12086621 6.55942415 3.40352267
Mg 3.12105355 2.27063443 3.40378890
Mg 0.02847483 8.82944041 1.07824365
In 0.00000000 6.62327250 -1.1038020199999998 0 0 0
In 3.12224000 0.00000000 -3.3116722900000006 0 0 0
In 0.00000000 2.20775750 -1.1038020199999998 0 0 0
In 3.12224000 4.41551500 -3.3116722900000006 0 0 0
In 6.21650473 2.21623529 3.46874976
In 3.11668241 4.41419035 1.09608126
In 6.21712918 6.61452978 3.46715236
In 3.10356900 8.83014690 1.08995790
Ni 1.56112000 0.00000000 -1.1038020199999998 0 0 0
Ni 4.68336000 4.41551500 -1.1038020199999998 0 0 0
Ni 4.68336000 0.00000000 -1.1038020199999998 0 0 0
Ni 1.56112000 4.41551500 -1.1038020199999998 0 0 0
Ni 4.68336000 6.62327250 -3.3116722900000006 0 0 0
Ni 1.56112000 2.20775750 -3.3116722900000006 0 0 0
Ni 1.56112000 6.62327250 -3.3116722900000006 0 0 0
Ni 4.68336000 2.20775750 -3.3116722900000006 0 0 0
Ni 1.42386633 4.41516176 3.11918583
Ni 4.76653647 8.83058845 3.10773781
Ni 4.78839215 4.41507345 3.12717282
Ni 1.58216390 8.83041183 3.35666566
Ni 4.68005043 2.18912403 1.12829545
Ni 1.54588347 6.62830619 1.15864602
Ni 1.54532147 2.20016281 1.15891225
Ni 4.67886397 6.63890342 1.13042532
C 2.13017946 0.00061817 5.02727774
O 2.39694365 0.00061817 6.16089785
