&CONTROL
calculation = 'relax'
prefix = 'scf'
pseudo_dir = '/vol0403/data/hp230205/u10028/POT_HYBRID_KKJUS_GBRV'
outdir = './data'
tprnfor = .true.
nstep = 50
disk_io = 'non'
/
&SYSTEM
ibrav = 0
ecutwfc = 50.0
ecutrho = 400
occupations = 'smearing'
smearing = 'mp'
degauss = 0.01
assume_isolated = 'esm'
esm_bc = 'bc1'
input_dft = 'BEEF-VDW'
nosym = .true.
nspin = 1
ntyp = 6
nat = 34
/
&ELECTRONS
electron_maxstep = 200
mixing_beta = 0.1
conv_thr = 1e-06
/
&IONS
ion_dynamics = 'bfgs'
upscale = 1.0
/
&CELL
/

K_POINTS {automatic}
6 6 1 0 0 0

ATOMIC_SPECIES
C 12.01 C.pbe-n-rrkjus_psl.1.0.0.UPF
Ge 72.64 Ge.pbe-dn-rrkjus_psl.1.0.0.UPF
Li 6.941 Li.pbe-sl-rrkjus_psl.1.0.0.UPF
O 15.99 O.pbe-n-rrkjus_psl.1.0.0.UPF
Pd 106.4 Pd.pbe-n-rrkjus_psl.1.0.0.UPF
V 50.94 V.pbe-spnl-rrkjus_psl.1.0.0.UPF


CELL_PARAMETERS {angstrom}
5.68832000 0.00000000 0.00000000
0.00000000 8.64114000 0.00000000
0.00000000 0.00000000 27.05420000

ATOMIC_POSITIONS {angstrom}
Li 1.42208000 0.00000000 -1.1757755300000028 0 0 0
Li 1.42208000 8.64096718 3.63229689
Li 1.42208000 4.32057000 -1.1757755300000028 0 0 0
Li 1.42208000 4.32039718 3.73077418
Li 4.26624000 0.00000000 -1.1757755300000028 0 0 0
Li 4.26624000 8.64096718 3.84683670
Li 4.26624000 4.32057000 -1.1757755300000028 0 0 0
Li 4.26624000 4.32048359 3.75836946
V 1.42208000 2.16028500 -3.5270560500000023 0 0 0
V 1.42208000 2.15319927 1.14655700
V 1.42208000 6.48085500 -3.5270560500000023 0 0 0
V 1.42208000 6.48880485 1.14682754
V 4.26624000 2.16028500 -3.5270560500000023 0 0 0
V 4.26624000 2.17117284 1.19200805
V 4.26624000 6.48085500 -3.5270560500000023 0 0 0
V 4.26624000 6.47074487 1.19200805
Ge 0.00000000 0.00000000 -3.5270560500000023 0 0 0
Ge 5.67114127 8.64070794 1.21175762
Ge 0.00000000 4.32057000 -3.5270560500000023 0 0 0
Ge 0.00807741 4.32195258 1.20769949
Ge 2.84416000 0.00000000 -3.5270560500000023 0 0 0
Ge 2.86133873 8.64070794 1.21175762
Ge 2.84416000 4.32057000 -3.5270560500000023 0 0 0
Ge 2.83608259 4.32195258 1.20769949
Pd 0.00000000 2.16028500 -1.1757755300000028 0 0 0
Pd 5.68052700 2.16719791 3.37825795
Pd 0.00000000 6.48085500 -1.1757755300000028 0 0 0
Pd 5.68058388 6.47359644 3.37879904
Pd 2.84416000 2.16028500 -1.1757755300000028 0 0 0
Pd 2.85195300 2.16728432 3.37825795
Pd 2.84416000 6.48085500 -1.1757755300000028 0 0 0
Pd 2.85189612 6.47359644 3.37879904
C 1.42208000 8.64088077 5.67461845
O 1.42208000 8.64096718 6.81982274
