&CONTROL
calculation = 'relax'
prefix = 'scf'
pseudo_dir = '/vol0004/mdt0/data/hp150275/u10028/POT_HYBRID_KKJUS_GBRV'
outdir = './data'
tprnfor = .true.
nstep = 50
disk_io = 'non'
/
&SYSTEM
ibrav = 0
ecutwfc = 50.0
ecutrho = 400
occupations = 'smearing'
smearing = 'mp'
degauss = 0.01
assume_isolated = 'esm'
esm_bc = 'bc1'
input_dft = 'BEEF-VDW'
nosym = .true.
nspin = 2
ntyp = 4
nat = 33
starting_magnetization(1) = 0.0
starting_magnetization(2) = 0.0
starting_magnetization(3) = 0.0
starting_magnetization(4) = 0.001
/
&ELECTRONS
electron_maxstep = 300
mixing_beta = 0.1
conv_thr = 1e-06
/
&IONS
ion_dynamics = 'bfgs'
upscale = 1.0
/
&CELL
/

K_POINTS {automatic}
9 6 2 0  0  0

ATOMIC_SPECIES
C 12.01 C.pbe-n-rrkjus_psl.1.0.0.UPF
Ga 69.72 Ga.pbe-dnl-rrkjus_psl.1.0.0.UPF
Hf 178.4 Hf.pbe-spn-rrkjus_psl.1.0.0.UPF
Ni 58.69 ni_pbe_v1.4.uspp.F.UPF

CELL_PARAMETERS {angstrom}
6.08368000 0.00000000 0.00000000
0.00000000 8.60362000 0.00000000
0.00000000 0.00000000 26.45270000

ATOMIC_POSITIONS {angstrom}
Hf 0.00000000 0.00000000 -3.226435819999999 0 0 0
Hf 3.04184000 2.15090500 -1.075566779999999 0 0 0
Hf 3.04184000 6.45271500 -1.075566779999999 0 0 0
Hf 0.00000000 4.30181000 -3.226435819999999 0 0 0
Hf 0.00000000 4.30181000 1.05387557
Hf 3.04184000 6.47800964 3.31478784
Hf 3.04184000 2.12561036 3.31478784
Hf 0.00000000 0.00000000 1.09699347
Ga 0.00000000 6.45271500 -1.075566779999999 0 0 0
Ga 3.04184000 0.00000000 -3.226435819999999 0 0 0
Ga 0.00000000 2.15090500 -1.075566779999999 0 0 0
Ga 3.04184000 4.30181000 -3.226435819999999 0 0 0
Ga 0.00000000 2.17482306 3.22564224
Ga 3.04184000 4.30181000 1.13296914
Ga 0.00000000 6.42879694 3.22537771
Ga 3.04184000 0.00000000 1.13296914
Ni 1.52092000 0.00000000 -1.075566779999999 0 0 0
Ni 4.56276000 4.30181000 -1.075566779999999 0 0 0
Ni 4.56276000 0.00000000 -1.075566779999999 0 0 0
Ni 1.52092000 4.30181000 -1.075566779999999 0 0 0
Ni 4.56276000 6.45271500 -3.226435819999999 0 0 0
Ni 1.52092000 2.15090500 -3.226435819999999 0 0 0
Ni 1.52092000 6.45271500 -3.226435819999999 0 0 0
Ni 4.56276000 2.15090500 -3.226435819999999 0 0 0
Ni 1.40545175 4.30181000 3.14258076
Ni 4.85349907 0.00000000 3.31187804
Ni 4.67822825 4.30181000 3.14258076
Ni 1.23018093 0.00000000 3.31187804
Ni 4.45805987 2.16191763 1.11312962
Ni 1.62555930 6.44170237 1.11312962
Ni 1.62562013 2.16191763 1.11312962
Ni 4.45812070 6.44170237 1.11312962
C 3.04184000 0.00000000 3.78458779
