&CONTROL
calculation = 'relax'
prefix = 'scf'
pseudo_dir = '/vol0004/mdt0/data/hp150275/u10028/POT_HYBRID_KKJUS_GBRV'
outdir = './data'
tprnfor = .true.
nstep = 50
disk_io = 'non'
/
&SYSTEM
ibrav = 0
ecutwfc = 50.0
ecutrho = 400
occupations = 'smearing'
smearing = 'mp'
degauss = 0.01
assume_isolated = 'esm'
esm_bc = 'bc1'
input_dft = 'BEEF-VDW'
nosym = .true.
nspin = 2
ntyp = 3
nat = 32
starting_magnetization(1) = 0.0
starting_magnetization(2) = 0.1
starting_magnetization(3) = 0.0
/
&ELECTRONS
electron_maxstep = 300
mixing_beta = 0.1
conv_thr = 1e-06
/
&IONS
ion_dynamics = 'bfgs'
upscale = 1.0
/
&CELL
/

K_POINTS {automatic}
8 6 1 0 0 0

ATOMIC_SPECIES
Ga 69.72 Ga.pbe-dnl-rrkjus_psl.1.0.0.UPF
Mn 54.93 mn_pbe_v1.5.uspp.F.UPF
V 50.94 V.pbe-spnl-rrkjus_psl.1.0.0.UPF

CELL_PARAMETERS {angstrom}
5.83886000 0.00000000 0.00000000
0.00000000 8.25739000 0.00000000
0.00000000 0.00000000 26.19300000

ATOMIC_POSITIONS {angstrom}
Mn 1.45971500 0.00000000 -1.03226613 0 0 0
Mn 4.37914500 4.12869500 -1.03226613 0 0 0
Mn 4.37914500 0.00000000 -1.03226613 0 0 0
Mn 1.45971500 4.12869500 -1.03226613 0 0 0
Mn 4.37914500 6.19304250 -3.096536460000003 0 0 0
Mn 1.45971500 2.06434750 -3.096536460000003 0 0 0
Mn 1.45971500 6.19304250 -3.096536460000003 0 0 0
Mn 4.37914500 2.06434750 -3.096536460000003 0 0 0
Mn 1.46199216 4.12869500 3.15180369
Mn 4.37669268 0.00000000 3.15180369
Mn 4.37686784 4.12869500 3.15180369
Mn 1.46216732 0.00000000 3.15206562
Mn 4.39543542 2.06434750 1.09041459
Mn 1.44348297 6.19304250 1.09041459
Mn 1.44342458 2.06434750 1.09041459
Mn 4.39537703 6.19304250 1.09041459
V 0.00000000 0.00000000 -3.096536460000003 0 0 0
V 2.91943000 2.06434750 -1.03226613 0 0 0
V 2.91943000 6.19304250 -1.03226613 0 0 0
V 0.00000000 4.12869500 -3.096536460000003 0 0 0
V 0.00000000 4.12869500 1.06972212
V 2.91943000 6.19295993 3.07296276
V 2.91943000 2.06443007 3.07270083
V 0.00000000 0.00000000 1.06946019
Ga 0.00000000 6.19304250 -1.03226613 0 0 0
Ga 2.91943000 0.00000000 -3.096536460000003 0 0 0
Ga 0.00000000 2.06434750 -1.03226613 0 0 0
Ga 2.91943000 4.12869500 -3.096536460000003 0 0 0
Ga 0.00000000 2.06418235 3.35322786
Ga 2.91943000 4.12894272 1.04510070
Ga 5.83880161 6.19320765 3.35322786
Ga 2.91943000 8.25714228 1.04536263
