&CONTROL
calculation = 'relax'
prefix = 'scf'
pseudo_dir = '/vol0004/mdt0/data/hp150275/u10028/POT_KKJUS'
outdir = './data'
tprnfor = .true.
nstep = 50
disk_io = 'non'
/
&SYSTEM
ibrav = 0
ecutwfc = 50.0
ecutrho = 400
occupations = 'smearing'
smearing = 'mp'
degauss = 0.01
assume_isolated = 'esm'
esm_bc = 'bc1'
input_dft = 'BEEF-VDW'
nosym = .true.
nspin = 1
ntyp = 3
nat = 33
/
&ELECTRONS
electron_maxstep = 200
mixing_beta = 0.1
conv_thr = 1e-06
/
&IONS
ion_dynamics = 'bfgs'
upscale = 1.0
/
&CELL
/

K_POINTS {automatic}
9 6 2 0  0  0

ATOMIC_SPECIES
C 12.01 C.pbe-n-rrkjus_psl.1.0.0.UPF
Ru 101.0 Ru.pbe-spn-rrkjus_psl.1.0.0.UPF
Si 28.08 Si.pbe-nl-rrkjus_psl.1.0.0.UPF

CELL_PARAMETERS {angstrom}
5.87849000 0.00000000 0.00000000
0.00000000 8.31345000 0.00000000
0.00000000 0.00000000 26.23510000

ATOMIC_POSITIONS {angstrom}
Si 1.46962250 2.07836250 -3.1175169300000007 0 0 0
Si 1.46962250 0.00000000 -1.0391723099999979 0 0 0
Si 1.46962250 2.07836250 1.05806158
Si 1.46962250 8.19381945 3.13115919
Si 1.46962250 6.23508750 -3.1175169300000007 0 0 0
Si 1.46962250 4.15672500 -1.0391723099999979 0 0 0
Si 1.46962250 6.23508750 1.06120979
Si 1.46962250 4.27635555 3.13115919
Si 4.40886750 2.07836250 -3.1175169300000007 0 0 0
Si 4.40886750 0.00000000 -1.0391723099999979 0 0 0
Si 4.40886750 2.07836250 0.94288949
Si 4.40886750 8.28892532 3.19858339
Si 4.40886750 6.23508750 -3.1175169300000007 0 0 0
Si 4.40886750 4.15672500 -1.0391723099999979 0 0 0
Si 4.40886750 6.23508750 1.06698152
Si 4.40886750 4.18124968 3.19858339
Ru 0.00000000 0.00000000 -3.1175169300000007 0 0 0
Ru 0.00000000 2.07836250 -1.0391723099999979 0 0 0
Ru 0.00005878 0.04464323 1.03287589
Ru 0.04355961 2.07836250 3.16237895
Ru 0.00000000 4.15672500 -3.1175169300000007 0 0 0
Ru 0.00000000 6.23508750 -1.0391723099999979 0 0 0
Ru 0.00005878 4.11208177 1.03287589
Ru 5.87002497 6.23508750 3.01493769
Ru 2.93924500 0.00000000 -3.1175169300000007 0 0 0
Ru 2.93924500 2.07836250 -1.0391723099999979 0 0 0
Ru 2.93918622 0.04464323 1.03287589
Ru 2.89568539 2.07836250 3.16237895
Ru 2.93924500 4.15672500 -3.1175169300000007 0 0 0
Ru 2.93924500 6.23508750 -1.0391723099999979 0 0 0
Ru 2.93918622 4.11208177 1.03287589
Ru 2.94771003 6.23508750 3.01493769
C 1.46962250 2.07836250 4.38545932
