&CONTROL
calculation = 'relax'
prefix = 'scf'
pseudo_dir = '/vol0004/mdt0/data/hp150275/u10028/POT_KKJUS'
outdir = './data'
tprnfor = .true.
nstep = 50
disk_io = 'non'
/
&SYSTEM
ibrav = 0
ecutwfc = 50.0
ecutrho = 400
occupations = 'smearing'
smearing = 'mp'
degauss = 0.01
assume_isolated = 'esm'
esm_bc = 'bc1'
input_dft = 'BEEF-VDW'
nosym = .true.
nspin = 1
ntyp = 2
nat = 32
/
&ELECTRONS
electron_maxstep = 200
mixing_beta = 0.1
conv_thr = 1e-06
/
&IONS
ion_dynamics = 'bfgs'
upscale = 1.0
/
&CELL
/

K_POINTS {automatic}
8 6 1 0 0 0

ATOMIC_SPECIES
Os 190.2 Os.pbe-spn-rrkjus_psl.1.0.0.UPF
Ti 47.86 Ti.pbe-spn-rrkjus_psl.1.0.0.UPF

CELL_PARAMETERS {angstrom}
6.19423000 0.00000000 0.00000000
0.00000000 8.75996000 0.00000000
0.00000000 0.00000000 26.57000000

ATOMIC_POSITIONS {angstrom}
Ti 1.54855750 2.18999000 -3.285114799999999 0 0 0
Ti 1.54855750 0.00000000 -1.0949497000000008 0 0 0
Ti 1.54868138 2.18999000 1.14304140
Ti 1.54874333 4.37998000 3.33081520
Ti 1.54855750 6.56997000 -3.285114799999999 0 0 0
Ti 1.54855750 4.37998000 -1.0949497000000008 0 0 0
Ti 1.54868138 6.56997000 1.14304140
Ti 1.54874333 0.00000000 3.33108090
Ti 4.64567250 2.18999000 -3.285114799999999 0 0 0
Ti 4.64567250 0.00000000 -1.0949497000000008 0 0 0
Ti 4.64554862 2.18999000 1.14304140
Ti 4.64548667 4.37998000 3.33081520
Ti 4.64567250 6.56997000 -3.285114799999999 0 0 0
Ti 4.64567250 4.37998000 -1.0949497000000008 0 0 0
Ti 4.64554862 6.56997000 1.14304140
Ti 4.64548667 0.00000000 3.33108090
Os 0.00000000 0.00000000 -3.285114799999999 0 0 0
Os 0.00000000 2.18999000 -1.0949497000000008 0 0 0
Os 0.00000000 0.00000000 1.09016710
Os 0.00000000 2.18999000 3.17006670
Os 0.00000000 4.37998000 -3.285114799999999 0 0 0
Os 0.00000000 6.56997000 -1.0949497000000008 0 0 0
Os 0.00000000 4.37998000 1.09016710
Os 0.00000000 6.56997000 3.17006670
Os 3.09711500 0.00000000 -3.285114799999999 0 0 0
Os 3.09711500 2.18999000 -1.0949497000000008 0 0 0
Os 3.09711500 0.00000000 1.09016710
Os 3.09711500 2.18999000 3.17006670
Os 3.09711500 4.37998000 -3.285114799999999 0 0 0
Os 3.09711500 6.56997000 -1.0949497000000008 0 0 0
Os 3.09711500 4.37998000 1.09016710
Os 3.09711500 6.56997000 3.17006670
