&CONTROL
calculation = 'relax'
prefix = 'scf'
pseudo_dir = '/vol0004/mdt0/data/hp150275/u10028/POT_KKJUS'
outdir = './data'
tprnfor = .true.
nstep = 50
disk_io = 'non'
/
&SYSTEM
ibrav = 0
ecutwfc = 50.0
ecutrho = 400
occupations = 'smearing'
smearing = 'mp'
degauss = 0.01
assume_isolated = 'esm'
esm_bc = 'bc1'
input_dft = 'BEEF-VDW'
nosym = .true.
nspin = 1
ntyp = 2
nat = 32
/
&ELECTRONS
electron_maxstep = 200
mixing_beta = 0.1
conv_thr = 1e-06
/
&IONS
ion_dynamics = 'bfgs'
upscale = 1.0
/
&CELL
/

K_POINTS {automatic}
6 6 1 0 0 0

ATOMIC_SPECIES
Au 196.9 Au.pbe-n-rrkjus_psl.1.0.0.UPF
Li 6.941 Li.pbe-sl-rrkjus_psl.1.0.0.UPF

CELL_PARAMETERS {angstrom}
8.24301000 0.00000000 0.00000000
-0.00000000 8.24301000 0.00000000
0.00000000 0.00000000 26.18230000

ATOMIC_POSITIONS {angstrom}
Li 0.00000000 0.00000000 -3.09108234 0 0 0
Li 0.00000000 0.00000000 1.03027351
Li 0.00000000 4.12150500 -3.09108234 0 0 0
Li 0.00000000 4.12150500 1.03027351
Li 4.12150500 0.00000000 -3.09108234 0 0 0
Li 4.12150500 -0.00000000 1.03027351
Li 4.12150500 4.12150500 -3.09108234 0 0 0
Li 4.12150500 4.12150500 1.03027351
Au 0.00000000 2.06075250 -1.0302734999999998 0 0 0
Au 2.06075250 0.00000000 -1.0302734999999998 0 0 0
Au 2.06075250 2.06075250 -3.09108234 0 0 0
Au 0.00000000 2.06075250 3.09108234
Au 2.06075250 -0.00000000 3.09108234
Au 2.06075250 2.06075250 1.03027351
Au 0.00000000 6.18225750 -1.0302734999999998 0 0 0
Au 2.06075250 4.12150500 -1.0302734999999998 0 0 0
Au 2.06075250 6.18225750 -3.09108234 0 0 0
Au 0.00000000 6.18225750 3.09108234
Au 2.06075250 4.12150500 3.09108234
Au 2.06075250 6.18225750 1.03027351
Au 4.12150500 2.06075250 -1.0302734999999998 0 0 0
Au 6.18225750 0.00000000 -1.0302734999999998 0 0 0
Au 6.18225750 2.06075250 -3.09108234 0 0 0
Au 4.12150500 2.06075250 3.09108234
Au 6.18225750 -0.00000000 3.09108234
Au 6.18225750 2.06075250 1.03027351
Au 4.12150500 6.18225750 -1.0302734999999998 0 0 0
Au 6.18225750 4.12150500 -1.0302734999999998 0 0 0
Au 6.18225750 6.18225750 -3.09108234 0 0 0
Au 4.12150500 6.18225750 3.09108234
Au 6.18225750 4.12150500 3.09108234
Au 6.18225750 6.18225750 1.03027351
