&CONTROL
calculation = 'relax'
prefix = 'scf'
pseudo_dir = '/vol0004/mdt0/data/hp150275/u10028/POT_HYBRID_KKJUS_GBRV'
outdir = './data'
tprnfor = .true.
nstep = 50
disk_io = 'non'
/
&SYSTEM
ibrav = 0
ecutwfc = 50.0
ecutrho = 400
occupations = 'smearing'
smearing = 'mp'
degauss = 0.01
assume_isolated = 'esm'
esm_bc = 'bc1'
input_dft = 'BEEF-VDW'
nosym = .true.
nspin = 2
ntyp = 5
nat = 18
starting_magnetization(1) = 0.1
starting_magnetization(2) = 0.1
starting_magnetization(3) = 0.1
starting_magnetization(4) = 0.1
starting_magnetization(5) = 0.1
/
&ELECTRONS
electron_maxstep = 200
mixing_beta = 0.1
conv_thr = 1e-06
/
&IONS
ion_dynamics = 'bfgs'
upscale = 1.0
/
&CELL
/

K_POINTS {automatic}
10 10 2 0  0  0

ATOMIC_SPECIES
C 12.01 C.pbe-n-rrkjus_psl.1.0.0.UPF
Fe 55.84 fe_pbe_v1.5.uspp.F.UPF
Mn 54.93 mn_pbe_v1.5.uspp.F.UPF
O 15.99 O.pbe-n-rrkjus_psl.1.0.0.UPF
Si 28.08 Si.pbe-nl-rrkjus_psl.1.0.0.UPF

CELL_PARAMETERS {angstrom}
5.59397000 0.00000000 0.00000000
-0.00000000 5.59397000 0.00000000
0.00000000 0.00000000 24.19550000

ATOMIC_POSITIONS {angstrom}
Mn 0.00000000 0.00000000 2.09774985
Mn 2.79698500 2.79698500 2.09774985
Mn 2.79698500 0.00000000 -0.6992499499999987 0 0 0
Mn 0.00000000 2.79698500 -0.6992499499999987 0 0 0
Fe 1.39849250 1.39849250 0.69924995
Fe 4.19547750 4.19547750 -2.0977498499999996 0 0 0
Fe 4.19547750 1.39849250 0.69924995
Fe 1.39849250 4.19547750 -2.0977498499999996 0 0 0
Fe 4.19547750 4.19547750 0.69924995
Fe 1.39849250 1.39849250 -2.0977498499999996 0 0 0
Fe 1.39849250 4.19547750 0.69924995
Fe 4.19547750 1.39849250 -2.0977498499999996 0 0 0
Si 0.00000000 0.00000000 -0.6992499499999987 0 0 0
Si 2.79698500 -0.00000000 2.09774985
Si 0.00000000 2.79698500 2.09774985
Si 2.79698500 2.79698500 -0.6992499499999987 0 0 0
C 0.00000000 0.00000000 3.99782246
O 0.00000000 0.00000000 5.14783458
