&CONTROL
calculation = 'relax'
prefix = 'scf'
pseudo_dir = '/vol0004/mdt0/data/hp150275/u10028/POT_KKJUS'
outdir = './data'
tprnfor = .true.
nstep = 50
disk_io = 'non'
/
&SYSTEM
ibrav = 0
ecutwfc = 50.0
ecutrho = 400
occupations = 'smearing'
smearing = 'mp'
degauss = 0.01
assume_isolated = 'esm'
esm_bc = 'bc1'
input_dft = 'BEEF-VDW'
nosym = .true.
nspin = 1
ntyp = 5
nat = 18
/
&ELECTRONS
electron_maxstep = 200
mixing_beta = 0.1
conv_thr = 1e-06
/
&IONS
ion_dynamics = 'bfgs'
upscale = 1.0
/
&CELL
/

K_POINTS {automatic}
8 8 1 0 0 0

ATOMIC_SPECIES
C 12.01 C.pbe-n-rrkjus_psl.1.0.0.UPF
Ge 72.64 Ge.pbe-dn-rrkjus_psl.1.0.0.UPF
Li 6.941 Li.pbe-sl-rrkjus_psl.1.0.0.UPF
O 15.99 O.pbe-n-rrkjus_psl.1.0.0.UPF
Zn 65.40 Zn.pbe-dnl-rrkjus_psl.1.0.0.UPF

CELL_PARAMETERS {angstrom}
6.18893000 0.00000000 0.00000000
0.00000000 6.18893000 0.00000000
0.00000000 0.00000000 24.64170000

ATOMIC_POSITIONS {angstrom}
Li 0.00000000 0.00000000 -2.320755309999999 0 0 0
Li 3.09446500 3.09446500 -2.320755309999999 0 0 0
Li 3.09205132 0.00284691 0.78828798
Li 0.00278502 3.09198943 0.78828798
Li 1.54302403 1.54345725 2.76997350
Li 1.54723250 4.64169750 -0.7735029600000018 0 0 0
Li 4.64231639 4.64175939 2.73128603
Li 4.64169750 1.54723250 -0.7735029600000018 0 0 0
Zn 1.54723250 1.54723250 -0.7735029600000018 0 0 0
Zn 1.54686116 4.64380174 2.35697861
Zn 4.64169750 4.64169750 -0.7735029600000018 0 0 0
Zn 4.64386363 1.54686116 2.35697861
Ge 6.18540231 6.18571176 1.03864766
Ge 3.09446500 0.00000000 -2.320755309999999 0 0 0
Ge 0.00000000 3.09446500 -2.320755309999999 0 0 0
Ge 3.09601223 3.09570279 1.04308316
C 1.53906311 1.53924878 4.84924014
O 1.54023901 1.54036279 5.99187577
