&CONTROL
calculation = 'relax'
prefix = 'scf'
pseudo_dir = '/vol0403/data/hp230205/u10028/POT_HYBRID_KKJUS_GBRV'
outdir = './data'
tprnfor = .true.
nstep = 50
disk_io = 'non'
/
&SYSTEM
ibrav = 0
ecutwfc = 50.0
ecutrho = 400
occupations = 'smearing'
smearing = 'mp'
degauss = 0.01
assume_isolated = 'esm'
esm_bc = 'bc1'
input_dft = 'BEEF-VDW'
nosym = .true.
nspin = 2
ntyp = 5
nat = 17
starting_magnetization(1) = 0.0
starting_magnetization(2) = 0.0
starting_magnetization(3) = 0.0
starting_magnetization(4) = 0.001
starting_magnetization(5) = 0.0
/
&ELECTRONS
electron_maxstep = 400
mixing_beta = 0.05
conv_thr = 1e-06
/
&IONS
ion_dynamics = 'bfgs'
upscale = 1.0
/
&CELL
/

K_POINTS {automatic}
10 10 2 0  0  0

ATOMIC_SPECIES
Al 26.98 Al.pbe-nl-rrkjus_psl.1.0.0.UPF
C 12.01 C.pbe-n-rrkjus_psl.1.0.0.UPF
Li 6.941 Li.pbe-sl-rrkjus_psl.1.0.0.UPF
Ni 58.69 ni_pbe_v1.4.uspp.F.UPF
Pd 106.4 Pd.pbe-n-rrkjus_psl.1.0.0.UPF


CELL_PARAMETERS {angstrom}
5.91240000 0.00000000 0.00000000
0.00000000 5.91240000 0.00000000
0.00000000 0.00000000 24.43430000

ATOMIC_POSITIONS {angstrom}
Li 0.00000000 2.95620000 -2.2171683800000004 0 0 0
Li 0.00005912 0.00000000 0.88843115
Li 2.95631825 2.95631825 0.88843115
Li 2.95620000 0.00000000 -2.2171683800000004 0 0 0
Al 0.00000000 0.00000000 -2.2171683800000004 0 0 0
Al 0.00005912 2.95620000 0.63700220
Al 2.95614088 0.00000000 0.83516437
Al 2.95620000 2.95620000 -2.2171683800000004 0 0 0
Ni 1.47810000 1.47810000 -0.7391375800000013 0 0 0
Ni 1.27057476 4.22683388 2.32981051
Ni 4.64129312 1.68515225 2.32956616
Ni 4.43430000 4.43430000 -0.7391375800000013 0 0 0
Pd 4.43430000 1.47810000 -0.7391375800000013 0 0 0
Pd 4.38776941 4.48083059 2.37428093
Pd 1.52463059 1.43156941 2.37452527
Pd 1.47810000 4.43430000 -0.7391375800000013 0 0 0
C 5.91216350 2.95590438 2.74128412
