&CONTROL
calculation = 'relax'
prefix = 'scf'
pseudo_dir = '/vol0403/data/hp230205/u10028/POT_HYBRID_KKJUS_GBRV'
outdir = './data'
tprnfor = .true.
nstep = 50
disk_io = 'non'
/
&SYSTEM
ibrav = 0
ecutwfc = 50.0
ecutrho = 400
occupations = 'smearing'
smearing = 'mp'
degauss = 0.01
assume_isolated = 'esm'
esm_bc = 'bc1'
input_dft = 'BEEF-VDW'
nosym = .true.
nspin = 1
ntyp = 5
nat = 33
/
&ELECTRONS
electron_maxstep = 200
mixing_beta = 0.1
conv_thr = 1e-06
/
&IONS
ion_dynamics = 'bfgs'
upscale = 1.0
/
&CELL
/

K_POINTS {automatic}
7 7 2 0  0  0

ATOMIC_SPECIES
C 12.01 C.pbe-n-rrkjus_psl.1.0.0.UPF
Ga 69.72 Ga.pbe-dnl-rrkjus_psl.1.0.0.UPF
Ge 72.64 Ge.pbe-dn-rrkjus_psl.1.0.0.UPF
Pd 106.4 Pd.pbe-n-rrkjus_psl.1.0.0.UPF
Sc 44.95 Sc.pbe-spn-rrkjus_psl.1.0.0.UPF


CELL_PARAMETERS {angstrom}
8.08666000 0.00000000 0.00000000
0.00000000 8.58414000 0.00000000
0.00000000 0.00000000 25.87790000

ATOMIC_POSITIONS {angstrom}
Sc 2.02166500 2.14603500 -2.938953099999999 0 0 0
Sc 2.02166500 2.14603500 0.97093881
Sc 2.02166500 6.43810500 -2.938953099999999 0 0 0
Sc 2.02166500 6.43810500 0.93677998
Sc 6.06499500 2.14603500 -2.938953099999999 0 0 0
Sc 6.06499500 2.14603500 1.27164001
Sc 6.06499500 6.43810500 -2.938953099999999 0 0 0
Sc 6.06499500 6.43810500 0.95592963
Ga 0.00000000 0.00000000 -2.938953099999999 0 0 0
Ga 8.06676682 0.00618058 1.10369243
Ga 0.00000000 4.29207000 -2.938953099999999 0 0 0
Ga 8.06668595 4.28588942 1.10369243
Ga 4.04333000 0.00000000 -2.938953099999999 0 0 0
Ga 4.06330405 0.00618058 1.10395121
Ga 4.04333000 4.29207000 -2.938953099999999 0 0 0
Ga 4.06330405 4.28588942 1.10395121
Ge 0.00000000 2.14603500 -0.9797372899999992 0 0 0
Ge 0.09517999 2.14603500 3.27562458
Ge 0.00000000 6.43810500 -0.9797372899999992 0 0 0
Ge 0.10237712 6.43810500 3.04996929
Ge 4.04333000 2.14603500 -0.9797372899999992 0 0 0
Ge 3.94823088 2.14603500 3.27562458
Ge 4.04333000 6.43810500 -0.9797372899999992 0 0 0
Ge 3.94095288 6.43810500 3.04996929
Pd 2.02166500 0.00000000 -0.9797372899999992 0 0 0
Pd 2.02166500 8.43906803 2.93351874
Pd 2.02166500 4.29207000 -0.9797372899999992 0 0 0
Pd 2.02158413 4.43714197 2.93351874
Pd 6.06499500 0.00000000 -0.9797372899999992 0 0 0
Pd 6.06499500 8.20772546 2.94723403
Pd 6.06499500 4.29207000 -0.9797372899999992 0 0 0
Pd 6.06499500 4.66848454 2.94723403
C 2.02174587 2.14603500 3.20678937
