&CONTROL
calculation = 'relax'
prefix = 'scf'
pseudo_dir = '/vol0004/mdt0/data/hp150275/u10028/POT_KKJUS'
outdir = './data'
tprnfor = .true.
nstep = 50
disk_io = 'non'
/
&SYSTEM
ibrav = 0
ecutwfc = 50.0
ecutrho = 400
occupations = 'smearing'
smearing = 'mp'
degauss = 0.01
assume_isolated = 'esm'
esm_bc = 'bc1'
input_dft = 'BEEF-VDW'
nosym = .true.
nspin = 1
ntyp = 5
nat = 18
/
&ELECTRONS
electron_maxstep = 200
mixing_beta = 0.1
conv_thr = 1e-06
/
&IONS
ion_dynamics = 'bfgs'
upscale = 1.0
/
&CELL
/

K_POINTS {automatic}
9 9 2 0  0  0

ATOMIC_SPECIES
Au 196.9 Au.pbe-n-rrkjus_psl.1.0.0.UPF
Bi 208.9 Bi.pbe-dn-rrkjus_psl.1.0.0.UPF
C 12.01 C.pbe-n-rrkjus_psl.1.0.0.UPF
Li 6.941 Li.pbe-sl-rrkjus_psl.1.0.0.UPF
O 15.99 O.pbe-n-rrkjus_psl.1.0.0.UPF

CELL_PARAMETERS {angstrom}
6.87958000 0.00000000 0.00000000
0.00000000 6.87958000 0.00000000
0.00000000 0.00000000 25.15970000

ATOMIC_POSITIONS {angstrom}
Li 0.00777393 0.00777393 0.65591338
Li 3.43979000 0.00000000 -2.579875640000001 0 0 0
Li 0.00000000 3.43979000 -2.579875640000001 0 0 0
Li 3.43201607 3.43194728 0.65591338
Li 1.71989500 1.72003259 2.76102548
Li 1.71989500 5.15968500 -0.8599585500000018 0 0 0
Li 5.15961620 5.15975380 2.68101763
Li 5.15968500 1.71989500 -0.8599585500000018 0 0 0
Bi 0.00000000 0.00000000 -2.579875640000001 0 0 0
Bi 3.43979000 3.43979000 -2.579875640000001 0 0 0
Bi 3.43903325 0.00061916 1.07859634
Bi 0.00048157 3.43917084 1.07859634
Au 1.71989500 1.71989500 -0.8599585500000018 0 0 0
Au 1.71996380 5.15954741 2.35796708
Au 5.15968500 5.15968500 -0.8599585500000018 0 0 0
Au 5.15968500 1.71975741 2.35796708
C 1.71996380 1.71996380 4.86060244
O 1.72003259 1.71989500 6.00058845
