&CONTROL
calculation = 'relax'
prefix = 'scf'
pseudo_dir = '/vol0004/mdt0/data/hp150275/u10028/POT_KKJUS'
outdir = './data'
tprnfor = .true.
nstep = 50
disk_io = 'non'
/
&SYSTEM
ibrav = 0
ecutwfc = 50.0
ecutrho = 400
occupations = 'smearing'
smearing = 'mp'
degauss = 0.01
assume_isolated = 'esm'
esm_bc = 'bc1'
input_dft = 'BEEF-VDW'
nosym = .true.
nspin = 1
ntyp = 2
nat = 16
/
&ELECTRONS
electron_maxstep = 200
mixing_beta = 0.1
conv_thr = 1e-06
/
&IONS
ion_dynamics = 'bfgs'
upscale = 1.0
/
&CELL
/

K_POINTS {automatic}
10 10 2 0  0  0

ATOMIC_SPECIES
Al 26.98 Al.pbe-nl-rrkjus_psl.1.0.0.UPF
Os 190.2 Os.pbe-spn-rrkjus_psl.1.0.0.UPF

CELL_PARAMETERS {angstrom}
6.03636000 0.00000000 0.00000000
-0.00000000 6.03636000 0.00000000
0.00000000 0.00000000 24.52730000

ATOMIC_POSITIONS {angstrom}
Al 1.50909000 1.50909000 -1.3215309200000007 0 0 0
Al 1.50909000 1.50909000 1.69655334
Al 1.50909000 4.52727000 -1.3215309200000007 0 0 0
Al 1.50909000 4.52727000 1.69655334
Al 4.52727000 1.50909000 -1.3215309200000007 0 0 0
Al 4.52727000 1.50909000 1.69655334
Al 4.52727000 4.52727000 -1.3215309200000007 0 0 0
Al 4.52727000 4.52727000 1.69655334
Os 0.00000000 0.00000000 -2.830695689999999 0 0 0
Os 0.00000000 0.00000000 0.18738857
Os 0.00000000 3.01818000 -2.830695689999999 0 0 0
Os 0.00000000 3.01818000 0.18738857
Os 3.01818000 0.00000000 -2.830695689999999 0 0 0
Os 3.01818000 -0.00000000 0.18738857
Os 3.01818000 3.01818000 -2.830695689999999 0 0 0
Os 3.01818000 3.01818000 0.18738857
