&CONTROL
calculation = 'relax'
prefix = 'scf'
pseudo_dir = '/vol0403/data/hp230205/u10028/POT_HYBRID_KKJUS_GBRV'
outdir = './data'
tprnfor = .true.
nstep = 50
disk_io = 'non'
/
&SYSTEM
ibrav = 0
ecutwfc = 50.0
ecutrho = 400
occupations = 'smearing'
smearing = 'mp'
degauss = 0.01
assume_isolated = 'esm'
esm_bc = 'bc1'
input_dft = 'BEEF-VDW'
nosym = .true.
nspin = 1
ntyp = 5
nat = 33
/
&ELECTRONS
electron_maxstep = 200
mixing_beta = 0.1
conv_thr = 1e-06
/
&IONS
ion_dynamics = 'bfgs'
upscale = 1.0
/
&CELL
/

K_POINTS {automatic}
6 6 1 0 0 0

ATOMIC_SPECIES
C 12.01 C.pbe-n-rrkjus_psl.1.0.0.UPF
Ge 72.64 Ge.pbe-dn-rrkjus_psl.1.0.0.UPF
Li 6.941 Li.pbe-sl-rrkjus_psl.1.0.0.UPF
Pd 106.4 Pd.pbe-n-rrkjus_psl.1.0.0.UPF
Sn 118.7 Sn.pbe-dn-rrkjus_psl.1.0.0.UPF


CELL_PARAMETERS {angstrom}
6.61012000 0.00000000 0.00000000
0.00000000 9.34812000 0.00000000
0.00000000 0.00000000 27.01110000

ATOMIC_POSITIONS {angstrom}
Li 4.95759000 0.00000000 -1.1685001899999996 0 0 0
Li 4.95759000 4.67406000 -1.1685001899999996 0 0 0
Li 1.65253000 2.33703000 -3.505500559999998 0 0 0
Li 1.65253000 7.01109000 -3.505500559999998 0 0 0
Li 4.88943966 4.67406000 3.48254112
Li 4.24805972 0.00000000 4.41496429
Li 1.22690437 7.21310287 1.37000299
Li 1.22697047 2.13511061 1.37000299
Sn 0.00000000 2.33703000 -1.1685001899999996 0 0 0
Sn 0.00000000 7.01109000 -1.1685001899999996 0 0 0
Sn 3.30506000 4.67406000 -3.505500559999998 0 0 0
Sn 3.30506000 0.00000000 -3.505500559999998 0 0 0
Sn 6.52101558 7.15664023 4.22642682
Sn 6.52108168 2.19147977 4.22669693
Sn 3.27617378 0.00000000 1.13338576
Sn 3.21549287 4.67406000 1.10232299
Ge 0.00000000 0.00000000 -3.505500559999998 0 0 0
Ge 0.00000000 4.67406000 -3.505500559999998 0 0 0
Ge 3.30506000 7.01109000 -1.1685001899999996 0 0 0
Ge 3.30506000 2.33703000 -1.1685001899999996 0 0 0
Ge 6.52101558 4.67406000 1.19335040
Ge 6.05024284 0.00000000 1.82838136
Ge 3.16664409 2.40517779 3.31372175
Ge 3.16664409 6.94294221 3.31372175
Pd 1.65253000 0.00000000 -1.1685001899999996 0 0 0
Pd 1.65253000 4.67406000 -1.1685001899999996 0 0 0
Pd 4.95759000 2.33703000 -3.505500559999998 0 0 0
Pd 4.95759000 7.01109000 -3.505500559999998 0 0 0
Pd 1.55337820 4.67406000 3.22188401
Pd 1.78856627 0.00009348 3.33425018
Pd 5.03863007 6.89264932 1.22576372
Pd 5.03863007 2.45547068 1.22576372
C 6.24735661 0.00000000 3.84908175
