&CONTROL
calculation = 'relax'
prefix = 'scf'
pseudo_dir = '/vol0004/mdt0/data/hp150275/u10028/POT_HYBRID_KKJUS_GBRV'
outdir = './data'
tprnfor = .true.
nstep = 50
disk_io = 'non'
/
&SYSTEM
ibrav = 0
ecutwfc = 50.0
ecutrho = 400
occupations = 'smearing'
smearing = 'mp'
degauss = 0.01
assume_isolated = 'esm'
esm_bc = 'bc1'
input_dft = 'BEEF-VDW'
nosym = .true.
nspin = 2
ntyp = 3
nat = 32
starting_magnetization(1) = 0.1
starting_magnetization(2) = 0.1
starting_magnetization(3) = 0.0
/
&ELECTRONS
electron_maxstep = 200
mixing_beta = 0.1
conv_thr = 1e-06
/
&IONS
ion_dynamics = 'bfgs'
upscale = 1.0
/
&CELL
/

K_POINTS {automatic}
9 6 2 0  0  0

ATOMIC_SPECIES
Co 58.93 co_pbe_v1.2.uspp.F.UPF
Fe 55.84 fe_pbe_v1.5.uspp.F.UPF
Ga 69.72 Ga.pbe-dnl-rrkjus_psl.1.0.0.UPF

CELL_PARAMETERS {angstrom}
5.79866000 0.00000000 0.00000000
0.00000000 8.20054000 0.00000000
0.00000000 0.00000000 26.15040000

ATOMIC_POSITIONS {angstrom}
Ga 0.00000000 0.00000000 23.07511296
Ga 2.89933000 2.05013500 25.12530432
Ga 2.89933000 6.15040500 25.12530432
Ga 0.00000000 4.10027000 23.07511296
Ga 0.00000000 4.10002398 1.00469837
Ga 2.89933000 6.15065102 3.49317043
Ga 2.89933000 2.04988898 3.49343194
Ga 0.00000000 0.00024602 1.00469837
Fe 1.44966500 0.00000000 25.12530432
Fe 4.34899500 4.10027000 25.12530432
Fe 4.34899500 0.00000000 25.12530432
Fe 1.44966500 4.10027000 25.12530432
Fe 4.34899500 6.15040500 23.07511296
Fe 1.44966500 2.05013500 23.07511296
Fe 1.44966500 6.15040500 23.07511296
Fe 4.34899500 2.05013500 23.07511296
Fe 1.48590662 4.10010599 3.03240038
Fe 4.31298532 0.00016401 3.03266189
Fe 4.31275337 4.10010599 3.03240038
Fe 1.48567468 0.00016401 3.03266189
Fe 4.28016491 2.05013500 1.10197786
Fe 1.51837912 6.15032299 1.10197786
Fe 1.51849509 2.05013500 1.10197786
Fe 4.28028088 6.15032299 1.10197786
Co 0.00000000 6.15040500 25.12530432
Co 2.89933000 0.00000000 23.07511296
Co 0.00000000 2.05013500 25.12530432
Co 2.89933000 4.10027000 23.07511296
Co 0.00000000 2.04980698 2.92753728
Co 2.89933000 4.10010599 0.96625728
Co 0.00000000 6.15073302 2.92753728
Co 2.89933000 0.00016401 0.96678029
