&CONTROL
calculation = 'relax'
prefix = 'scf'
pseudo_dir = '/vol0004/mdt0/data/hp150275/u10028/POT_KKJUS'
outdir = './data'
tprnfor = .true.
nstep = 50
disk_io = 'non'
/
&SYSTEM
ibrav = 0
ecutwfc = 50.0
ecutrho = 400
occupations = 'smearing'
smearing = 'mp'
degauss = 0.01
assume_isolated = 'esm'
esm_bc = 'bc1'
input_dft = 'BEEF-VDW'
nosym = .true.
nspin = 1
ntyp = 5
nat = 34
/
&ELECTRONS
electron_maxstep = 200
mixing_beta = 0.1
conv_thr = 1e-06
/
&IONS
ion_dynamics = 'bfgs'
upscale = 1.0
/
&CELL
/

K_POINTS {automatic}
9 6 2 0  0  0

ATOMIC_SPECIES
C 12.01 C.pbe-n-rrkjus_psl.1.0.0.UPF
In 114.8 In.pbe-dn-rrkjus_psl.1.0.0.UPF
Ni 58.69 Ni.pbe-spn-rrkjus_psl.1.0.0.UPF
O 15.99 O.pbe-n-rrkjus_psl.1.0.0.UPF
Zr 91.22 Zr.pbe-spn-rrkjus_psl.1.0.0.UPF

CELL_PARAMETERS {angstrom}
6.34847000 0.00000000 0.00000000
0.00000000 8.97809000 0.00000000
0.00000000 0.00000000 26.73360000

ATOMIC_POSITIONS {angstrom}
Zr 0.00000000 0.00000000 -3.3668295799999974 0 0 0
Zr 3.17423500 2.24452250 -1.1222765300000006 0 0 0
Zr 3.17423500 6.73356750 -1.1222765300000006 0 0 0
Zr 0.00000000 4.48904500 -3.3668295799999974 0 0 0
Zr 6.33431291 4.48895522 1.13484132
Zr 3.17207652 6.71821497 3.35586881
Zr 3.17226697 2.25969547 3.35560147
Zr 6.34377213 0.00000000 1.15729754
In 0.00000000 6.73356750 -1.1222765300000006 0 0 0
In 3.17423500 0.00000000 -3.3668295799999974 0 0 0
In 0.00000000 2.24452250 -1.1222765300000006 0 0 0
In 3.17423500 4.48904500 -3.3668295799999974 0 0 0
In 6.32917065 2.26544145 3.49622021
In 3.17137819 4.48922456 1.07415605
In 6.32898020 6.71237921 3.49728955
In 3.12770071 8.97773088 1.12334587
Ni 1.58711750 0.00000000 -1.1222765300000006 0 0 0
Ni 4.76135250 4.48904500 -1.1222765300000006 0 0 0
Ni 4.76135250 0.00000000 -1.1222765300000006 0 0 0
Ni 1.58711750 4.48904500 -1.1222765300000006 0 0 0
Ni 4.76135250 6.73356750 -3.3668295799999974 0 0 0
Ni 1.58711750 2.24452250 -3.3668295799999974 0 0 0
Ni 1.58711750 6.73356750 -3.3668295799999974 0 0 0
Ni 4.76135250 2.24452250 -3.3668295799999974 0 0 0
Ni 1.59505309 4.48940412 3.21097270
Ni 4.79493591 8.97800022 3.18691246
Ni 4.72313471 4.48922456 3.23289425
Ni 1.61149562 0.00017956 3.51493373
Ni 4.70897762 2.23141449 1.19846729
Ni 1.61695531 6.72396094 1.20622003
Ni 1.61790758 2.25439840 1.20568536
Ni 4.70866020 6.74622661 1.19926930
C 2.25104049 8.97800022 5.15717878
O 2.56586112 0.00008978 6.28319801
