&CONTROL
calculation = 'relax'
prefix = 'scf'
pseudo_dir = '/vol0403/data/hp230205/u10028/POT_HYBRID_KKJUS_GBRV'
outdir = './data'
tprnfor = .true.
nstep = 50
disk_io = 'non'
/
&SYSTEM
ibrav = 0
ecutwfc = 50.0
ecutrho = 400
occupations = 'smearing'
smearing = 'mp'
degauss = 0.01
assume_isolated = 'esm'
esm_bc = 'bc1'
input_dft = 'BEEF-VDW'
nosym = .true.
nspin = 1
ntyp = 4
nat = 16
/
&ELECTRONS
electron_maxstep = 200
mixing_beta = 0.1
conv_thr = 1e-06
/
&IONS
ion_dynamics = 'bfgs'
upscale = 1.0
/
&CELL
/

K_POINTS {automatic}
6 6 1 0 0 0

ATOMIC_SPECIES
Ge 72.64 Ge.pbe-dn-rrkjus_psl.1.0.0.UPF
In 114.8 In.pbe-dn-rrkjus_psl.1.0.0.UPF
Li 6.941 Li.pbe-sl-rrkjus_psl.1.0.0.UPF
Y 88.90 Y.pbe-spn-rrkjus_psl.1.0.0.UPF


CELL_PARAMETERS {angstrom}
8.49364000 0.00000000 0.00000000
0.00000000 6.33235000 0.00000000
0.00000000 0.00000000 24.73290000

ATOMIC_POSITIONS {angstrom}
Li 0.00000000 3.16617500 -2.3664438700000012 0 0 0
Li 8.49355506 5.88129671 0.65764781
Li 4.24682000 3.16617500 -2.3664438700000012 0 0 0
Li 4.24682000 5.88129671 0.65740048
Y 2.12341000 1.45194453 -0.7887321800000002 0 0 0
Y 2.12341000 3.73349024 2.36866983
Y 6.37023000 1.45194453 -0.7887321800000002 0 0 0
Y 6.37023000 3.73361688 2.36891716
In 2.12341000 4.61811953 -0.7887321800000002 0 0 0
In 2.12341000 0.55382733 2.69019753
In 6.37023000 4.61811953 -0.7887321800000002 0 0 0
In 6.37014506 0.55389065 2.69019753
Ge 0.00000000 0.00000000 -2.3664438700000012 0 0 0
Ge 8.49355506 2.26071227 1.20943881
Ge 4.24682000 0.00000000 -2.3664438700000012 0 0 0
Ge 4.24690494 2.26071227 1.20919148
