&CONTROL
calculation = 'relax'
prefix = 'scf'
pseudo_dir = '/vol0403/data/hp230205/u10028/POT_HYBRID_KKJUS_GBRV'
outdir = './data'
tprnfor = .true.
nstep = 50
disk_io = 'non'
/
&SYSTEM
ibrav = 0
ecutwfc = 50.0
ecutrho = 400
occupations = 'smearing'
smearing = 'mp'
degauss = 0.01
assume_isolated = 'esm'
esm_bc = 'bc1'
input_dft = 'BEEF-VDW'
nosym = .true.
nspin = 1
ntyp = 6
nat = 18
/
&ELECTRONS
electron_maxstep = 200
mixing_beta = 0.1
conv_thr = 1e-06
/
&IONS
ion_dynamics = 'bfgs'
upscale = 1.0
/
&CELL
/

K_POINTS {automatic}
9 9 2 0  0  0

ATOMIC_SPECIES
C 12.01 C.pbe-n-rrkjus_psl.1.0.0.UPF
In 114.8 In.pbe-dn-rrkjus_psl.1.0.0.UPF
O 15.99 O.pbe-n-rrkjus_psl.1.0.0.UPF
Pd 106.4 Pd.pbe-n-rrkjus_psl.1.0.0.UPF
Sc 44.95 Sc.pbe-spn-rrkjus_psl.1.0.0.UPF
Y 88.90 Y.pbe-spn-rrkjus_psl.1.0.0.UPF


CELL_PARAMETERS {angstrom}
7.36232000 0.00000000 0.00000000
0.00000000 6.98742000 0.00000000
0.00000000 0.00000000 25.23460000

ATOMIC_POSITIONS {angstrom}
Y 1.84264145 5.08844887 1.06843296
Y 1.84058000 1.49614637 -2.6173327099999995 0 0 0
Y 5.51967855 5.08782000 1.06919000
Y 5.52174000 1.49614637 -2.6173327099999995 0 0 0
Sc 1.83255507 1.46526197 0.73811205
Sc 1.84058000 4.98985637 -2.6173327099999995 0 0 0
Sc 5.52983855 1.46491260 0.73811205
Sc 5.52174000 4.98985637 -2.6173327099999995 0 0 0
In 0.00000000 0.27837881 2.88784762
In 0.00000000 3.32657091 -0.8723601199999997 0 0 0
In 3.68123362 0.10844476 2.88759528
In 3.68116000 3.32657091 -0.8723601199999997 0 0 0
Pd 0.00014725 3.11534121 2.18228821
Pd 0.00000000 6.82028091 -0.8723601199999997 0 0 0
Pd 3.68101275 2.99382997 2.08513500
Pd 3.68116000 6.82028091 -0.8723601199999997 0 0 0
C 7.36209913 3.79563642 4.06630344
O 7.36209913 3.91658866 5.21321601
