&CONTROL
calculation = 'relax'
prefix = 'scf'
pseudo_dir = '/vol0004/mdt0/data/hp150275/u10028/POT_KKJUS'
outdir = './data'
tprnfor = .true.
nstep = 50
disk_io = 'non'
/
&SYSTEM
ibrav = 0
ecutwfc = 50.0
ecutrho = 400
occupations = 'smearing'
smearing = 'mp'
degauss = 0.01
assume_isolated = 'esm'
esm_bc = 'bc1'
input_dft = 'BEEF-VDW'
nosym = .true.
nspin = 1
ntyp = 3
nat = 32
/
&ELECTRONS
electron_maxstep = 200
mixing_beta = 0.1
conv_thr = 1e-06
/
&IONS
ion_dynamics = 'bfgs'
upscale = 1.0
/
&CELL
/

K_POINTS {automatic}
9 6 2 0  0  0

ATOMIC_SPECIES
Ni 58.69 Ni.pbe-spn-rrkjus_psl.1.0.0.UPF
Sn 118.7 Sn.pbe-dn-rrkjus_psl.1.0.0.UPF
Zr 91.22 Zr.pbe-spn-rrkjus_psl.1.0.0.UPF

CELL_PARAMETERS {angstrom}
6.34847000 0.00000000 0.00000000
0.00000000 8.97809000 0.00000000
0.00000000 0.00000000 26.73360000

ATOMIC_POSITIONS {angstrom}
Zr 0.00000000 0.00000000 -3.3668295799999974 0 0 0
Zr 3.17423500 2.24452250 -1.1222765300000006 0 0 0
Zr 3.17423500 6.73356750 -1.1222765300000006 0 0 0
Zr 0.00000000 4.48904500 -3.3668295799999974 0 0 0
Zr 0.00000000 4.48913478 1.12227653
Zr 3.17436197 6.73320838 3.39115716
Zr 3.17429848 2.24488162 3.39142450
Zr 0.00038091 0.00000000 1.12281120
Ni 1.58711750 0.00000000 -1.1222765300000006 0 0 0
Ni 4.76135250 4.48904500 -1.1222765300000006 0 0 0
Ni 4.76135250 0.00000000 -1.1222765300000006 0 0 0
Ni 1.58711750 4.48904500 -1.1222765300000006 0 0 0
Ni 4.76135250 6.73356750 -3.3668295799999974 0 0 0
Ni 1.58711750 2.24452250 -3.3668295799999974 0 0 0
Ni 1.58711750 6.73356750 -3.3668295799999974 0 0 0
Ni 4.76135250 2.24452250 -3.3668295799999974 0 0 0
Ni 1.64412676 4.48913478 3.21150737
Ni 4.70167688 8.97800022 3.21177470
Ni 4.70389885 4.48922456 3.21177470
Ni 1.64609479 8.97800022 3.21124003
Ni 4.72713425 2.24434294 1.21129942
Ni 1.62228802 6.73374706 1.21103208
Ni 1.62108181 2.24452250 1.21129942
Ni 4.72605501 6.73365728 1.21076474
Sn 0.00000000 6.73356750 -1.1222765300000006 0 0 0
Sn 3.17423500 0.00000000 -3.3668295799999974 0 0 0
Sn 0.00000000 2.24452250 -1.1222765300000006 0 0 0
Sn 3.17423500 4.48904500 -3.3668295799999974 0 0 0
Sn 0.00006348 2.24416338 3.52616184
Sn 3.17423500 4.48868588 1.07736408
Sn 0.00006348 6.73401640 3.52562717
Sn 3.17423500 0.00035912 1.07709674
