&CONTROL
calculation = 'relax'
prefix = 'scf'
pseudo_dir = '/vol0403/data/hp230205/u10028/POT_HYBRID_KKJUS_GBRV'
outdir = './data'
tprnfor = .true.
nstep = 50
disk_io = 'non'
/
&SYSTEM
ibrav = 0
ecutwfc = 50.0
ecutrho = 400
occupations = 'smearing'
smearing = 'mp'
degauss = 0.01
assume_isolated = 'esm'
esm_bc = 'bc1'
input_dft = 'BEEF-VDW'
nosym = .true.
nspin = 1
ntyp = 6
nat = 18
/
&ELECTRONS
electron_maxstep = 200
mixing_beta = 0.1
conv_thr = 1e-06
/
&IONS
ion_dynamics = 'bfgs'
upscale = 1.0
/
&CELL
/

K_POINTS {automatic}
6 6 1 0 0 0

ATOMIC_SPECIES
C 12.01 C.pbe-n-rrkjus_psl.1.0.0.UPF
In 114.8 In.pbe-dn-rrkjus_psl.1.0.0.UPF
O 15.99 O.pbe-n-rrkjus_psl.1.0.0.UPF
Pd 106.4 Pd.pbe-n-rrkjus_psl.1.0.0.UPF
Sn 118.7 Sn.pbe-dn-rrkjus_psl.1.0.0.UPF
Y 88.90 Y.pbe-spn-rrkjus_psl.1.0.0.UPF


CELL_PARAMETERS {angstrom}
6.32964000 0.00000000 0.00000000
0.00000000 9.06394000 0.00000000
0.00000000 0.00000000 24.74170000

ATOMIC_POSITIONS {angstrom}
Y 4.67121102 2.26598500 -0.7902499000000027 0 0 0
Y 1.14363936 2.26643820 2.16959967
Y 4.67121102 6.79795500 -0.7902499000000027 0 0 0
Y 1.10547163 6.80067418 2.03871608
In 0.00000000 0.00000000 -2.3707496900000002 0 0 0
In 2.62521819 0.03380850 0.60196556
In 0.00000000 4.53197000 -2.3707496900000002 0 0 0
In 2.62433204 4.50151516 0.60072848
Sn 3.16482000 0.00000000 -2.3707496900000002 0 0 0
Sn 5.62818930 0.04731377 1.25762061
Sn 3.16482000 4.53197000 -2.3707496900000002 0 0 0
Sn 5.62629040 4.48665030 1.25762061
Pd 1.50639102 2.26598500 -0.7902499000000027 0 0 0
Pd 4.08964370 2.26879482 2.21809340
Pd 1.50639102 6.79795500 -0.7902499000000027 0 0 0
Pd 4.11375963 6.80003971 1.89249263
C 3.73663968 2.26661948 4.12666814
O 3.75765408 2.26471605 5.28903321
