&CONTROL
calculation = 'relax'
prefix = 'scf'
pseudo_dir = '/vol0403/data/hp230205/u10028/POT_HYBRID_KKJUS_GBRV'
outdir = './data'
tprnfor = .true.
nstep = 70
disk_io = 'non'
/
&SYSTEM
ibrav = 0
ecutwfc = 50.0
ecutrho = 400
occupations = 'smearing'
smearing = 'mp'
degauss = 0.01
assume_isolated = 'esm'
esm_bc = 'bc1'
input_dft = 'BEEF-VDW'
nosym = .true.
nspin = 1
ntyp = 5
nat = 17
/
&ELECTRONS
electron_maxstep = 200
mixing_beta = 0.1
conv_thr = 1e-06
/
&IONS
ion_dynamics = 'bfgs'
upscale = 1.0
/
&CELL
/

K_POINTS {automatic}
6 6 1 0 0 0

ATOMIC_SPECIES
C 12.01 C.pbe-n-rrkjus_psl.1.0.0.UPF
Ge 72.64 Ge.pbe-dn-rrkjus_psl.1.0.0.UPF
Pd 106.4 Pd.pbe-n-rrkjus_psl.1.0.0.UPF
Sn 118.7 Sn.pbe-dn-rrkjus_psl.1.0.0.UPF
Y 88.90 Y.pbe-spn-rrkjus_psl.1.0.0.UPF


CELL_PARAMETERS {angstrom}
5.93056000 0.00000000 0.00000000
-0.00000000 9.60308000 0.00000000
0.00000000 0.00000000 24.43880000

ATOMIC_POSITIONS {angstrom}
Y 2.84269532 0.11725361 2.30286812
Y 5.74101930 0.00000000 -0.7397624799999996 0 0 0
Y 2.84233949 4.68438242 2.30237935
Y 5.74101930 4.80154000 -0.7397624799999996 0 0 0
Sn 0.86971662 2.40086603 1.08361639
Sn 4.16354965 2.40077000 -2.2192874300000014 0 0 0
Sn 1.45500359 7.20202191 0.72754308
Sn 4.16354965 7.20231000 -2.2192874300000014 0 0 0
Ge 5.80678921 9.02295794 2.32657376
Ge 2.77573930 0.00000000 -0.7397624799999996 0 0 0
Ge 5.80756019 5.38185412 2.32632937
Ge 2.77573930 4.80154000 -0.7397624799999996 0 0 0
Pd 4.15566200 2.40048191 0.68355324
Pd 1.19826965 2.40077000 -2.2192874300000014 0 0 0
Pd 4.38790273 7.20240603 0.86195648
Pd 1.19826965 7.20231000 -2.2192874300000014 0 0 0
C 2.67308131 2.40086603 2.26156655
