&CONTROL
calculation = 'relax'
prefix = 'scf'
pseudo_dir = '/vol0403/data/hp230205/u10028/POT_HYBRID_KKJUS_GBRV'
outdir = './data'
tprnfor = .true.
nstep = 70
disk_io = 'non'
/
&SYSTEM
ibrav = 0
ecutwfc = 50.0
ecutrho = 400
occupations = 'smearing'
smearing = 'mp'
degauss = 0.01
assume_isolated = 'esm'
esm_bc = 'bc1'
input_dft = 'BEEF-VDW'
nosym = .true.
nspin = 1
ntyp = 6
nat = 18
/
&ELECTRONS
electron_maxstep = 200
mixing_beta = 0.1
conv_thr = 1e-06
/
&IONS
ion_dynamics = 'bfgs'
upscale = 1.0
/
&CELL
/

K_POINTS {automatic}
11 7 2 0  0  0

ATOMIC_SPECIES
Al 26.98 Al.pbe-nl-rrkjus_psl.1.0.0.UPF
C 12.01 C.pbe-n-rrkjus_psl.1.0.0.UPF
In 114.8 In.pbe-dn-rrkjus_psl.1.0.0.UPF
O 15.99 O.pbe-n-rrkjus_psl.1.0.0.UPF
Pd 106.4 Pd.pbe-n-rrkjus_psl.1.0.0.UPF
Y 88.90 Y.pbe-spn-rrkjus_psl.1.0.0.UPF


CELL_PARAMETERS {angstrom}
6.02485000 0.00000000 0.00000000
-0.00000000 9.21652000 0.00000000
0.00000000 0.00000000 24.50330000

ATOMIC_POSITIONS {angstrom}
Y 1.38204034 2.30413000 -0.7505360799999998 0 0 0
Y 4.17028067 2.30413000 2.22293938
Y 1.38204034 6.91239000 -0.7505360799999998 0 0 0
Y 4.11659926 6.91239000 2.14918444
Al 0.00000000 0.00000000 -2.2516082399999995 0 0 0
Al 2.32607409 0.01354828 1.25652922
Al 0.00000000 4.60826000 -2.2516082399999995 0 0 0
Al 2.32601384 4.59471172 1.25652922
In 3.01242500 0.00000000 -2.2516082399999995 0 0 0
In 5.44550042 0.00488476 0.61601296
In 3.01242500 4.60826000 -2.2516082399999995 0 0 0
In 5.44556067 4.60337524 0.61601296
Pd 4.39446534 2.30413000 -0.7505360799999998 0 0 0
Pd 1.24919240 2.30413000 1.99162822
Pd 4.39446534 6.91239000 -0.7505360799999998 0 0 0
Pd 1.20430727 6.91248217 1.96589976
C 3.94850594 2.30403783 4.75609053
O 3.88349781 2.30403783 5.90333504
