&CONTROL
calculation = 'relax'
prefix = 'scf'
pseudo_dir = '/vol0403/data/hp230205/u10028/POT_HYBRID_KKJUS_GBRV'
outdir = './data'
tprnfor = .true.
nstep = 50
disk_io = 'non'
/
&SYSTEM
ibrav = 0
ecutwfc = 50.0
ecutrho = 400
occupations = 'smearing'
smearing = 'mp'
degauss = 0.01
assume_isolated = 'esm'
esm_bc = 'bc1'
input_dft = 'BEEF-VDW'
nosym = .true.
nspin = 1
ntyp = 6
nat = 34
/
&ELECTRONS
electron_maxstep = 200
mixing_beta = 0.1
conv_thr = 1e-06
/
&IONS
ion_dynamics = 'bfgs'
upscale = 1.0
/
&CELL
/

K_POINTS {automatic}
6 6 1 0 0 0

ATOMIC_SPECIES
Ag 107.8 Ag.pbe-n-rrkjus_psl.1.0.0.UPF
C 12.01 C.pbe-n-rrkjus_psl.1.0.0.UPF
Li 6.941 Li.pbe-sl-rrkjus_psl.1.0.0.UPF
Mg 24.30 Mg.pbe-spnl-rrkjus_psl.1.0.0.UPF
O 15.99 O.pbe-n-rrkjus_psl.1.0.0.UPF
Sn 118.7 Sn.pbe-dn-rrkjus_psl.1.0.0.UPF


CELL_PARAMETERS {angstrom}
6.75899000 0.00000000 0.00000000
0.00000000 9.55866000 0.00000000
0.00000000 0.00000000 27.16900000

ATOMIC_POSITIONS {angstrom}
Li 5.06924250 0.00000000 -1.194892620000001 0 0 0
Li 5.06924250 4.77933000 -1.194892620000001 0 0 0
Li 1.68974750 2.38966500 -3.584406170000001 0 0 0
Li 1.68974750 7.16899500 -3.584406170000001 0 0 0
Li 5.09884688 4.77933000 3.76453664
Li 5.05660319 0.00000000 3.89793643
Li 1.63182296 7.17501696 1.20603191
Li 1.63182296 2.38364304 1.20603191
Mg 1.68974750 0.00000000 -1.194892620000001 0 0 0
Mg 1.68974750 4.77933000 -1.194892620000001 0 0 0
Mg 5.06924250 2.38966500 -3.584406170000001 0 0 0
Mg 5.06924250 7.16899500 -3.584406170000001 0 0 0
Mg 1.68075804 4.77933000 3.89277432
Mg 1.63439137 0.00000000 3.84848885
Mg 5.13446675 7.15322321 1.27150920
Mg 5.13453434 2.40543679 1.27150920
Ag 0.00000000 0.00000000 -3.584406170000001 0 0 0
Ag 0.00000000 4.77933000 -3.584406170000001 0 0 0
Ag 3.37949500 7.16899500 -1.194892620000001 0 0 0
Ag 3.37949500 2.38966500 -1.194892620000001 0 0 0
Ag 0.07975608 4.77933000 1.42474236
Ag 0.02007420 0.00000000 1.42229715
Ag 3.26709300 2.40151774 3.48442425
Ag 3.26709300 7.15704668 3.48442425
Sn 0.00000000 2.38966500 -1.194892620000001 0 0 0
Sn 0.00000000 7.16899500 -1.194892620000001 0 0 0
Sn 3.37949500 4.77933000 -3.584406170000001 0 0 0
Sn 3.37949500 0.00000000 -3.584406170000001 0 0 0
Sn 6.73202163 7.14939975 3.83110069
Sn 6.73202163 2.40926025 3.83110069
Sn 3.37645345 0.00000000 1.40001857
Sn 3.35117483 4.77933000 1.37909844
C 4.94913525 0.00000000 5.99239464
O 4.96839837 0.00000000 7.13457940
