&CONTROL
calculation = 'relax'
prefix = 'scf'
pseudo_dir = '/vol0403/data/hp230205/u10028/POT_HYBRID_KKJUS_GBRV'
outdir = './data'
tprnfor = .true.
nstep = 50
disk_io = 'non'
/
&SYSTEM
ibrav = 0
ecutwfc = 50.0
ecutrho = 400
occupations = 'smearing'
smearing = 'mp'
degauss = 0.01
assume_isolated = 'esm'
esm_bc = 'bc1'
input_dft = 'BEEF-VDW'
nosym = .true.
nspin = 1
ntyp = 5
nat = 17
/
&ELECTRONS
electron_maxstep = 200
mixing_beta = 0.1
conv_thr = 1e-06
/
&IONS
ion_dynamics = 'bfgs'
upscale = 1.0
/
&CELL
/

K_POINTS {automatic}
8 8 1 0 0 0

ATOMIC_SPECIES
Al 26.98 Al.pbe-nl-rrkjus_psl.1.0.0.UPF
C 12.01 C.pbe-n-rrkjus_psl.1.0.0.UPF
Li 6.941 Li.pbe-sl-rrkjus_psl.1.0.0.UPF
Nb 92.90 Nb.pbe-spn-rrkjus_psl.1.0.0.UPF
Pd 106.4 Pd.pbe-n-rrkjus_psl.1.0.0.UPF


CELL_PARAMETERS {angstrom}
6.26744000 0.00000000 0.00000000
0.00000000 6.26744000 0.00000000
0.00000000 0.00000000 24.70060000

ATOMIC_POSITIONS {angstrom}
Li 1.56598256 1.56598256 0.68593566
Li 1.56686000 4.70058000 -2.350262090000001 0 0 0
Li 4.70058000 1.56686000 -2.350262090000001 0 0 0
Li 4.70026663 4.70026663 0.94899705
Nb 0.11425543 3.01733364 2.42263485
Nb 0.00000000 0.00000000 -0.7835030300000021 0 0 0
Nb 3.13372000 3.13372000 -0.7835030300000021 0 0 0
Nb 3.01733364 0.11425543 2.42263485
Al 0.06837777 0.06837777 2.39398215
Al 0.00000000 3.13372000 -0.7835030300000021 0 0 0
Al 3.13372000 0.00000000 -0.7835030300000021 0 0 0
Al 3.06365002 3.06365002 2.39373515
Pd 4.70014128 1.56673465 0.77263477
Pd 4.70058000 4.70058000 -2.350262090000001 0 0 0
Pd 1.56686000 1.56686000 -2.350262090000001 0 0 0
Pd 1.56673465 4.70014128 0.77263477
C 1.56460372 1.56460372 2.76473816
