&CONTROL
calculation = 'relax'
prefix = 'scf'
pseudo_dir = '/vol0004/mdt0/data/hp150275/u10028/POT_HYBRID_KKJUS_GBRV'
outdir = './data'
tprnfor = .true.
nstep = 50
disk_io = 'non'
/
&SYSTEM
ibrav = 0
ecutwfc = 50.0
ecutrho = 400
occupations = 'smearing'
smearing = 'mp'
degauss = 0.01
assume_isolated = 'esm'
esm_bc = 'bc1'
input_dft = 'BEEF-VDW'
nosym = .true.
nspin = 2
ntyp = 4
nat = 34
starting_magnetization(1) = 0.1
starting_magnetization(2) = 0.1
starting_magnetization(3) = 0.1
starting_magnetization(4) = 0.1
/
&ELECTRONS
electron_maxstep = 200
mixing_beta = 0.1
conv_thr = 1e-06
/
&IONS
ion_dynamics = 'bfgs'
upscale = 1.0
/
&CELL
/

K_POINTS {automatic}
8 6 1 0 0 0

ATOMIC_SPECIES
C 12.01 C.pbe-n-rrkjus_psl.1.0.0.UPF
Mn 54.93 mn_pbe_v1.5.uspp.F.UPF
O 15.99 O.pbe-n-rrkjus_psl.1.0.0.UPF
Rh 102.9 Rh.pbe-spn-rrkjus_psl.1.0.0.UPF

CELL_PARAMETERS {angstrom}
6.11529000 0.00000000 0.00000000
0.00000000 8.64833000 0.00000000
0.00000000 0.00000000 26.48620000

ATOMIC_POSITIONS {angstrom}
Mn 0.00000000 0.00000000 -3.24323519 0 0 0
Mn 0.00000000 2.16208250 -1.081166679999999 0 0 0
Mn 0.00201805 0.00000000 1.07904779
Mn 6.10782935 2.16900116 3.29196980
Mn 0.00000000 4.32416500 -3.24323519 0 0 0
Mn 0.00000000 6.48624750 -1.081166679999999 0 0 0
Mn 0.00391379 4.32416500 1.06898303
Mn 6.10782935 6.47932884 3.29196980
Mn 3.05764500 0.00000000 -3.24323519 0 0 0
Mn 3.05764500 2.16208250 -1.081166679999999 0 0 0
Mn 3.05568811 0.00000000 1.07931265
Mn 3.06449412 2.16830930 3.29249952
Mn 3.05764500 4.32416500 -3.24323519 0 0 0
Mn 3.05764500 6.48624750 -1.081166679999999 0 0 0
Mn 3.05434274 4.32416500 1.06898303
Mn 3.06449412 6.48002070 3.29249952
Rh 1.52882250 2.16208250 -3.24323519 0 0 0
Rh 1.52882250 0.00000000 -1.081166679999999 0 0 0
Rh 1.52906711 2.13985629 1.08672879
Rh 1.52766059 8.64824352 3.31395334
Rh 1.52882250 6.48624750 -3.24323519 0 0 0
Rh 1.52882250 4.32416500 -1.081166679999999 0 0 0
Rh 1.52906711 6.50838722 1.08672879
Rh 1.52906711 4.32416500 3.11927977
Rh 4.58646750 2.16208250 -3.24323519 0 0 0
Rh 4.58646750 0.00000000 -1.081166679999999 0 0 0
Rh 4.58652865 2.15992042 1.07666403
Rh 4.58646750 0.00008648 3.12828508
Rh 4.58646750 6.48624750 -3.24323519 0 0 0
Rh 4.58646750 4.32416500 -1.081166679999999 0 0 0
Rh 4.58652865 6.48849607 1.07666403
Rh 4.58640635 4.32407852 3.12033922
C 1.52246260 0.00000000 5.17037110
O 1.52313528 0.00000000 6.33152611
