&CONTROL
calculation = 'relax'
prefix = 'scf'
pseudo_dir = '/vol0004/mdt0/data/hp150275/u10028/POT_HYBRID_KKJUS_GBRV'
outdir = './data'
tprnfor = .true.
nstep = 50
disk_io = 'non'
/
&SYSTEM
ibrav = 0
ecutwfc = 50.0
ecutrho = 400
occupations = 'smearing'
smearing = 'mp'
degauss = 0.01
assume_isolated = 'esm'
esm_bc = 'bc1'
input_dft = 'BEEF-VDW'
nosym = .true.
nspin = 2
ntyp = 5
nat = 18
starting_magnetization(1) = 0.1
starting_magnetization(2) = 0.1
starting_magnetization(3) = 0.1
starting_magnetization(4) = 0.1
starting_magnetization(5) = 0.1
/
&ELECTRONS
electron_maxstep = 200
mixing_beta = 0.1
conv_thr = 1e-06
/
&IONS
ion_dynamics = 'bfgs'
upscale = 1.0
/
&CELL
/

K_POINTS {automatic}
8 8 1 0 0 0

ATOMIC_SPECIES
C 12.01 C.pbe-n-rrkjus_psl.1.0.0.UPF
Ga 69.72 Ga.pbe-dnl-rrkjus_psl.1.0.0.UPF
Ni 58.69 ni_pbe_v1.4.uspp.F.UPF
O 15.99 O.pbe-n-rrkjus_psl.1.0.0.UPF
Sc 44.95 Sc.pbe-spn-rrkjus_psl.1.0.0.UPF

CELL_PARAMETERS {angstrom}
6.06833000 0.00000000 0.00000000
0.00000000 6.06833000 0.00000000
0.00000000 0.00000000 24.55120000

ATOMIC_POSITIONS {angstrom}
Sc 0.00000000 0.00000000 -2.2756507300000024 0 0 0
Sc 3.03416500 3.03416500 -2.2756507300000024 0 0 0
Sc 3.05522211 6.04636265 0.79447683
Sc 6.04618060 3.05510074 0.79447683
Ga 0.00303417 0.00273075 0.84308821
Ga 3.03416500 0.00000000 -2.2756507300000024 0 0 0
Ga 0.00000000 3.03416500 -2.2756507300000024 0 0 0
Ga 3.02943170 3.02973512 0.83744143
Ni 1.51708250 1.51708250 -0.7586320800000017 0 0 0
Ni 4.54736377 4.54754582 2.18579334
Ni 4.55124750 1.51708250 -0.7586320800000017 0 0 0
Ni 1.52072350 4.54663557 2.19315870
Ni 4.55124750 4.55124750 -0.7586320800000017 0 0 0
Ni 1.51835685 1.51835685 2.26165654
Ni 1.51708250 4.55124750 -0.7586320800000017 0 0 0
Ni 4.54669625 1.52060213 2.19291318
C 1.51489790 1.51483722 4.03793586
O 1.51441243 1.51441243 5.19454290
