&CONTROL
calculation = 'relax'
prefix = 'scf'
pseudo_dir = '/vol0004/mdt0/data/hp150275/u10028/POT_KKJUS'
outdir = './data'
tprnfor = .true.
nstep = 50
disk_io = 'non'
/
&SYSTEM
ibrav = 0
ecutwfc = 50.0
ecutrho = 400
occupations = 'smearing'
smearing = 'mp'
degauss = 0.01
assume_isolated = 'esm'
esm_bc = 'bc1'
input_dft = 'BEEF-VDW'
nosym = .true.
nspin = 1
ntyp = 4
nat = 33
/
&ELECTRONS
electron_maxstep = 200
mixing_beta = 0.1
conv_thr = 1e-06
/
&IONS
ion_dynamics = 'bfgs'
upscale = 1.0
/
&CELL
/

K_POINTS {automatic}
8 6 1 0 0 0

ATOMIC_SPECIES
C 12.01 C.pbe-n-rrkjus_psl.1.0.0.UPF
In 114.8 In.pbe-dn-rrkjus_psl.1.0.0.UPF
Li 6.941 Li.pbe-sl-rrkjus_psl.1.0.0.UPF
Rh 102.9 Rh.pbe-spn-rrkjus_psl.1.0.0.UPF

CELL_PARAMETERS {angstrom}
6.57920000 0.00000000 0.00000000
0.00000000 9.30439000 0.00000000
0.00000000 0.00000000 26.97830000

ATOMIC_POSITIONS {angstrom}
Li 0.00000000 0.00000000 -3.489103540000002 0 0 0
Li 3.28960000 2.32609750 -1.1630345099999992 0 0 0
Li 3.28960000 6.97829250 -1.1630345099999992 0 0 0
Li 0.00000000 4.65219500 -3.489103540000002 0 0 0
Li 0.00000000 4.65219500 1.23857375
Li 3.28960000 7.18931607 4.58496208
Li 3.28960000 2.11507393 4.58496208
Li 0.00000000 0.00000000 1.13470730
In 1.64480000 0.00000000 -1.1630345099999992 0 0 0
In 4.93440000 4.65219500 -1.1630345099999992 0 0 0
In 4.93440000 0.00000000 -1.1630345099999992 0 0 0
In 1.64480000 4.65219500 -1.1630345099999992 0 0 0
In 4.93440000 6.97829250 -3.489103540000002 0 0 0
In 1.64480000 2.32609750 -3.489103540000002 0 0 0
In 1.64480000 6.97829250 -3.489103540000002 0 0 0
In 4.93440000 2.32609750 -3.489103540000002 0 0 0
In 1.66710349 4.65219500 3.67390489
In 5.09368243 0.00000000 3.56788018
In 4.91209651 4.65219500 3.67390489
In 1.48551757 0.00000000 3.56788018
In 4.86952909 2.33921669 1.20242283
In 1.70967091 6.96517331 1.20269261
In 1.70967091 2.33921669 1.20269261
In 4.86952909 6.96517331 1.20269261
Rh 0.00000000 6.97829250 -1.1630345099999992 0 0 0
Rh 3.28960000 0.00000000 -3.489103540000002 0 0 0
Rh 0.00000000 2.32609750 -1.1630345099999992 0 0 0
Rh 3.28960000 4.65219500 -3.489103540000002 0 0 0
Rh 0.00000000 2.42919014 3.26248582
Rh 3.28960000 4.65219500 1.05431196
Rh 0.00000000 6.87519986 3.26248582
Rh 3.28960000 0.00000000 1.13227925
C 3.28960000 0.00000000 4.69071702
