&CONTROL
calculation = 'relax'
prefix = 'scf'
pseudo_dir = '/vol0004/mdt0/data/hp150275/u10028/POT_KKJUS'
outdir = './data'
tprnfor = .true.
nstep = 50
disk_io = 'non'
/
&SYSTEM
ibrav = 0
ecutwfc = 50.0
ecutrho = 400
occupations = 'smearing'
smearing = 'mp'
degauss = 0.01
assume_isolated = 'esm'
esm_bc = 'bc1'
input_dft = 'BEEF-VDW'
nosym = .true.
nspin = 1
ntyp = 4
nat = 33
/
&ELECTRONS
electron_maxstep = 200
mixing_beta = 0.1
conv_thr = 1e-06
/
&IONS
ion_dynamics = 'bfgs'
upscale = 1.0
/
&CELL
/

K_POINTS {automatic}
9 6 2 0  0  0

ATOMIC_SPECIES
Au 196.9 Au.pbe-n-rrkjus_psl.1.0.0.UPF
C 12.01 C.pbe-n-rrkjus_psl.1.0.0.UPF
In 114.8 In.pbe-dn-rrkjus_psl.1.0.0.UPF
Y 88.90 Y.pbe-spn-rrkjus_psl.1.0.0.UPF

CELL_PARAMETERS {angstrom}
7.06522000 0.00000000 0.00000000
0.00000000 9.99173000 0.00000000
0.00000000 0.00000000 27.49380000

ATOMIC_POSITIONS {angstrom}
Y 0.00000000 0.00000000 -3.7468550600000015 0 0 0
Y 3.53261000 2.49793250 -1.2490433299999992 0 0 0
Y 3.53261000 7.49379750 -1.2490433299999992 0 0 0
Y 0.00000000 4.99586500 -3.7468550600000015 0 0 0
Y 0.01745109 5.00046120 1.36341754
Y 3.36332733 7.48550436 3.57089474
Y 3.62134916 2.50392754 3.58354189
Y 0.01836957 9.98683405 1.36726667
In 0.00000000 7.49379750 -1.2490433299999992 0 0 0
In 3.53261000 0.00000000 -3.7468550600000015 0 0 0
In 0.00000000 2.49793250 -1.2490433299999992 0 0 0
In 3.53261000 4.99586500 -3.7468550600000015 0 0 0
In 6.48403500 2.48534292 4.81361450
In 3.55112088 4.99316723 1.22237435
In 0.07326633 7.49689494 3.86150421
In 3.54921327 0.00179851 1.22622348
Au 1.76630500 0.00000000 -1.2490433299999992 0 0 0
Au 5.29891500 4.99586500 -1.2490433299999992 0 0 0
Au 5.29891500 0.00000000 -1.2490433299999992 0 0 0
Au 1.76630500 4.99586500 -1.2490433299999992 0 0 0
Au 5.29891500 7.49379750 -3.7468550600000015 0 0 0
Au 1.76630500 2.49793250 -3.7468550600000015 0 0 0
Au 1.76630500 7.49379750 -3.7468550600000015 0 0 0
Au 5.29891500 2.49793250 -3.7468550600000015 0 0 0
Au 1.54763644 4.85338293 3.94728487
Au 5.26846390 9.88122147 3.85380595
Au 5.28315956 5.09937932 3.86067940
Au 1.57893537 0.14028389 3.93766204
Au 5.42778461 2.49653366 1.17371032
Au 1.72087564 7.49249858 1.14566665
Au 1.73550064 2.49783258 1.21935003
Au 5.32251283 7.49399733 1.26141554
C 1.50312556 2.51871530 4.26373850
