&CONTROL
calculation = 'relax'
prefix = 'scf'
pseudo_dir = '/vol0403/data/hp230205/u10028/POT_HYBRID_KKJUS_GBRV'
outdir = './data'
tprnfor = .true.
nstep = 70
disk_io = 'non'
/
&SYSTEM
ibrav = 0
ecutwfc = 50.0
ecutrho = 400
occupations = 'smearing'
smearing = 'mp'
degauss = 0.01
assume_isolated = 'esm'
esm_bc = 'bc1'
input_dft = 'BEEF-VDW'
nosym = .true.
nspin = 1
ntyp = 4
nat = 16
/
&ELECTRONS
electron_maxstep = 200
mixing_beta = 0.1
conv_thr = 1e-06
/
&IONS
ion_dynamics = 'bfgs'
upscale = 1.0
/
&CELL
/

K_POINTS {automatic}
6 6 1 0 0 0

ATOMIC_SPECIES
Cu 63.54 Cu.pbe-dn-rrkjus_psl.1.0.0.UPF
Li 6.941 Li.pbe-sl-rrkjus_psl.1.0.0.UPF
Mg 24.30 Mg.pbe-spnl-rrkjus_psl.1.0.0.UPF
Pd 106.4 Pd.pbe-n-rrkjus_psl.1.0.0.UPF


CELL_PARAMETERS {angstrom}
5.46655000 0.00000000 0.00000000
-0.00000000 7.95764000 0.00000000
0.00000000 0.00000000 24.09630000

ATOMIC_POSITIONS {angstrom}
Li 2.85906032 -0.00000000 2.14216107
Li 5.35240844 -0.00000000 -0.682648180000001 0 0 0
Li 2.85911498 3.97882000 2.14240203
Li 5.35240844 3.97882000 -0.682648180000001 0 0 0
Mg 1.32203045 1.98941000 0.65204588
Mg 3.92875482 1.98941000 -2.048185499999999 0 0 0
Mg 1.32197579 5.96823000 0.65228684
Mg 3.92875482 5.96823000 -2.048185499999999 0 0 0
Cu 5.43008811 -0.00000000 1.80312613
Cu 2.61913344 0.00000000 -0.682648180000001 0 0 0
Cu 5.43014278 3.97882000 1.80312613
Cu 2.61913344 3.97882000 -0.682648180000001 0 0 0
Pd 4.02731672 1.98941000 0.68264818
Pd 1.19547982 1.98941000 -2.048185499999999 0 0 0
Pd 4.02726205 5.96823000 0.68264818
Pd 1.19547982 5.96823000 -2.048185499999999 0 0 0
