&CONTROL
calculation = 'relax'
prefix = 'scf'
pseudo_dir = '/vol0004/mdt0/data/hp150275/u10028/POT_KKJUS'
outdir = './data'
tprnfor = .true.
nstep = 50
disk_io = 'non'
/
&SYSTEM
ibrav = 0
ecutwfc = 50.0
ecutrho = 400
occupations = 'smearing'
smearing = 'mp'
degauss = 0.01
assume_isolated = 'esm'
esm_bc = 'bc1'
input_dft = 'BEEF-VDW'
nosym = .true.
nspin = 1
ntyp = 2
nat = 16
/
&ELECTRONS
electron_maxstep = 200
mixing_beta = 0.1
conv_thr = 1e-06
/
&IONS
ion_dynamics = 'bfgs'
upscale = 1.0
/
&CELL
/

K_POINTS {automatic}
8 12 2 0  0  0

ATOMIC_SPECIES
Ni 58.69 Ni.pbe-spn-rrkjus_psl.1.0.0.UPF
Pt 195.0 Pt.pbe-n-rrkjus_psl.1.0.0.UPF

CELL_PARAMETERS {angstrom}
7.35611000 0.00000000 0.00000000
0.00000000 5.20155000 0.00000000
0.00000000 0.00000000 23.90120000

ATOMIC_POSITIONS {angstrom}
Ni 0.00000000 2.60077500 -1.9505769300000004 0 0 0
Ni 1.83902750 3.90116250 -0.6501126399999997 0 0 0
Ni 1.83902750 1.30038750 -0.6501126399999997 0 0 0
Ni 7.35574219 0.00010403 0.70245627
Ni 1.83917462 1.26106378 1.84517264
Ni 1.83880682 3.94069428 1.84326054
Ni 3.67805500 2.60077500 -1.9505769300000004 0 0 0
Ni 5.51708250 3.90116250 -0.6501126399999997 0 0 0
Ni 5.51708250 1.30038750 -0.6501126399999997 0 0 0
Ni 3.67849637 0.00000000 0.70341232
Ni 5.51722962 1.26210409 1.84612869
Ni 5.51737674 3.94059025 1.84397758
Pt 0.00000000 0.00000000 -1.9505769300000004 0 0 0
Pt 7.35500658 2.60087903 0.70436836
Pt 3.67805500 0.00000000 -1.9505769300000004 0 0 0
Pt 3.67915842 2.60103508 0.70484639
