&CONTROL
calculation = 'relax'
prefix = 'scf'
pseudo_dir = '/vol0403/data/hp230205/u10028/POT_HYBRID_KKJUS_GBRV'
outdir = './data'
tprnfor = .true.
nstep = 50
disk_io = 'non'
/
&SYSTEM
ibrav = 0
ecutwfc = 50.0
ecutrho = 400
occupations = 'smearing'
smearing = 'mp'
degauss = 0.01
assume_isolated = 'esm'
esm_bc = 'bc1'
input_dft = 'BEEF-VDW'
nosym = .true.
nspin = 2
ntyp = 6
nat = 34
starting_magnetization(1) = 0.0
starting_magnetization(2) = 0.0
starting_magnetization(3) = 0.0
starting_magnetization(4) = 0.001
starting_magnetization(5) = 0.0
starting_magnetization(6) = 0.0
/
&ELECTRONS
electron_maxstep = 200
mixing_beta = 0.1
conv_thr = 1e-06
/
&IONS
ion_dynamics = 'bfgs'
upscale = 1.0
/
&CELL
/

K_POINTS {automatic}
9 6 2 0  0  0

ATOMIC_SPECIES
Al 26.98 Al.pbe-nl-rrkjus_psl.1.0.0.UPF
C 12.01 C.pbe-n-rrkjus_psl.1.0.0.UPF
Li 6.941 Li.pbe-sl-rrkjus_psl.1.0.0.UPF
Ni 58.69 ni_pbe_v1.4.uspp.F.UPF
O 15.99 O.pbe-n-rrkjus_psl.1.0.0.UPF
Pd 106.4 Pd.pbe-n-rrkjus_psl.1.0.0.UPF


CELL_PARAMETERS {angstrom}
5.91240000 0.00000000 0.00000000
0.00000000 8.36140000 0.00000000
0.00000000 0.00000000 26.27110000

ATOMIC_POSITIONS {angstrom}
Li 0.00000000 2.09035000 25.22603564
Li 0.00000000 6.27105000 25.22603564
Li 2.95620000 4.18070000 23.13564422
Li 2.95620000 0.00000000 23.13564422
Li 0.09329767 6.25675201 3.55842049
Li 0.09329767 2.10473161 3.55842049
Li 2.97293209 0.00000000 1.01143735
Li 2.98901382 4.18070000 0.98070016
Al 0.00000000 0.00000000 23.13564422
Al 0.00000000 4.18070000 23.13564422
Al 2.95620000 6.27105000 25.22603564
Al 2.95620000 2.09035000 25.22603564
Al 0.02388610 4.18070000 1.03560676
Al 0.01070144 8.36131639 1.02194579
Al 2.99214739 2.10581859 3.08317630
Al 2.99226564 6.25574864 3.08343901
Ni 1.47810000 0.00000000 25.22603564
Ni 1.47810000 4.18070000 25.22603564
Ni 4.43430000 2.09035000 23.13564422
Ni 4.43430000 6.27105000 23.13564422
Ni 1.62715160 4.18053277 2.94131236
Ni 1.55909988 0.00000000 3.12468463
Ni 4.48934444 6.27472902 1.05347111
Ni 4.48934444 2.08683821 1.05373382
Pd 4.43430000 0.00000000 25.22603564
Pd 4.43430000 4.18070000 25.22603564
Pd 1.47810000 2.09035000 23.13564422
Pd 1.47810000 6.27105000 23.13564422
Pd 4.43382701 4.18078361 3.04560862
Pd 4.42318469 0.00008361 3.04140525
Pd 1.45758397 6.29370939 1.06555582
Pd 1.45764310 2.06769061 1.06555582
C 1.15764792 0.00000000 4.83703493
O 1.01125690 0.00000000 5.99375146
