&CONTROL
calculation = 'relax'
prefix = 'scf'
pseudo_dir = '/vol0004/mdt0/data/hp150275/u10028/POT_HYBRID_KKJUS_GBRV'
outdir = './data'
tprnfor = .true.
nstep = 50
disk_io = 'non'
/
&SYSTEM
ibrav = 0
ecutwfc = 50.0
ecutrho = 400
occupations = 'smearing'
smearing = 'mp'
degauss = 0.01
assume_isolated = 'esm'
esm_bc = 'bc1'
input_dft = 'BEEF-VDW'
nosym = .true.
nspin = 2
ntyp = 3
nat = 33
starting_magnetization(1) = 0.0
starting_magnetization(2) = 0.0
starting_magnetization(3) = 0.1
/
&ELECTRONS
electron_maxstep = 200
mixing_beta = 0.1
conv_thr = 1e-06
/
&IONS
ion_dynamics = 'bfgs'
upscale = 1.0
/
&CELL
/

K_POINTS {automatic}
7 7 2 0  0  0

ATOMIC_SPECIES
C 12.01 C.pbe-n-rrkjus_psl.1.0.0.UPF
Ga 69.72 Ga.pbe-dnl-rrkjus_psl.1.0.0.UPF
Mn 54.93 mn_pbe_v1.5.uspp.F.UPF

CELL_PARAMETERS {angstrom}
7.70138000 0.00000000 0.00000000
-0.00000000 7.35706000 0.00000000
0.00000000 0.00000000 25.77600000

ATOMIC_POSITIONS {angstrom}
Mn 1.92534500 1.83926500 22.88805696
Mn 0.00000000 1.83926500 24.81326640
Mn 1.92534500 1.83926500 0.96273360
Mn 0.00000000 1.83926500 2.88794304
Mn 1.92534500 5.51779500 22.88805696
Mn 0.00000000 5.51779500 24.81326640
Mn 1.92534500 5.51779500 0.96273360
Mn 0.00000000 5.51779500 2.88794304
Mn 5.77603500 1.83926500 22.88805696
Mn 3.85069000 1.83926500 24.81326640
Mn 5.77603500 1.83926500 0.96273360
Mn 3.85069000 1.83926500 2.88794304
Mn 5.77603500 5.51779500 22.88805696
Mn 3.85069000 5.51779500 24.81326640
Mn 5.77603500 5.51779500 0.96273360
Mn 3.85069000 5.51779500 2.88794304
Ga 0.00000000 0.00000000 22.88805696
Ga 1.92534500 0.00000000 24.81326640
Ga 0.00000000 0.00000000 0.96273360
Ga 1.92534500 -0.00000000 2.88794304
Ga 0.00000000 3.67853000 22.88805696
Ga 1.92534500 3.67853000 24.81326640
Ga 0.00000000 3.67853000 0.96273360
Ga 1.92534500 3.67853000 2.88794304
Ga 3.85069000 0.00000000 22.88805696
Ga 5.77603500 0.00000000 24.81326640
Ga 3.85069000 -0.00000000 0.96273360
Ga 5.77603500 -0.00000000 2.88794304
Ga 3.85069000 3.67853000 22.88805696
Ga 5.77603500 3.67853000 24.81326640
Ga 3.85069000 3.67853000 0.96273360
Ga 5.77603500 3.67853000 2.88794304
C 1.92534500 1.83926500 3.68803008
