&CONTROL
calculation = 'relax'
prefix = 'scf'
pseudo_dir = '/vol0004/mdt0/data/hp150275/u10028/POT_HYBRID_KKJUS_GBRV'
outdir = './data'
tprnfor = .true.
nstep = 50
disk_io = 'non'
/
&SYSTEM
ibrav = 0
ecutwfc = 50.0
ecutrho = 400
occupations = 'smearing'
smearing = 'mp'
degauss = 0.01
assume_isolated = 'esm'
esm_bc = 'bc1'
input_dft = 'BEEF-VDW'
nosym = .true.
nspin = 2
ntyp = 5
nat = 34
starting_magnetization(1) = 0.0
starting_magnetization(2) = 0.1
starting_magnetization(3) = 0.1
starting_magnetization(4) = 0.0
starting_magnetization(5) = 0.0
/
&ELECTRONS
electron_maxstep = 300
mixing_beta = 0.1
conv_thr = 1e-06
/
&IONS
ion_dynamics = 'bfgs'
upscale = 1.0
/
&CELL
/

K_POINTS {automatic}
8 6 1 0 0 0

ATOMIC_SPECIES
C 12.01 C.pbe-n-rrkjus_psl.1.0.0.UPF
Co 58.93 co_pbe_v1.2.uspp.F.UPF
Fe 55.84 fe_pbe_v1.5.uspp.F.UPF
O 15.99 O.pbe-n-rrkjus_psl.1.0.0.UPF
Si 28.08 Si.pbe-nl-rrkjus_psl.1.0.0.UPF

CELL_PARAMETERS {angstrom}
5.64511000 0.00000000 0.00000000
0.00000000 7.98338000 0.00000000
0.00000000 0.00000000 25.98750000

ATOMIC_POSITIONS {angstrom}
Fe 0.00000000 0.00000000 -2.9937600000000018 0 0 0
Fe 2.82255500 1.99584500 -0.9979200000000006 0 0 0
Fe 2.82255500 5.98753500 -0.9979200000000006 0 0 0
Fe 0.00000000 3.99169000 -2.9937600000000018 0 0 0
Fe 0.00604027 3.99169000 0.96049800
Fe 2.86472397 5.93396652 3.06340650
Fe 2.86472397 2.04941348 3.06314663
Fe 0.00987894 0.00000000 0.99947925
Co 1.41127750 0.00000000 -0.9979200000000006 0 0 0
Co 4.23383250 3.99169000 -0.9979200000000006 0 0 0
Co 4.23383250 0.00000000 -0.9979200000000006 0 0 0
Co 1.41127750 3.99169000 -0.9979200000000006 0 0 0
Co 4.23383250 5.98753500 -2.9937600000000018 0 0 0
Co 1.41127750 1.99584500 -2.9937600000000018 0 0 0
Co 1.41127750 5.98753500 -2.9937600000000018 0 0 0
Co 4.23383250 1.99584500 -2.9937600000000018 0 0 0
Co 1.35335867 3.99169000 2.87915513
Co 4.22711482 0.00000000 2.86953975
Co 4.29389647 3.99169000 2.86668113
Co 1.46140608 0.00000000 2.96829225
Co 4.21966327 1.99321048 0.97764975
Co 1.41545488 5.99951007 0.99012375
Co 1.41545488 1.98394976 0.98986387
Co 4.21966327 5.99008968 0.97790962
Si 0.00000000 5.98753500 -0.9979200000000006 0 0 0
Si 2.82255500 0.00000000 -2.9937600000000018 0 0 0
Si 0.00000000 1.99584500 -0.9979200000000006 0 0 0
Si 2.82255500 3.99169000 -2.9937600000000018 0 0 0
Si 5.63861812 1.97389071 2.98414463
Si 2.81933729 3.99169000 1.01455200
Si 5.63861812 6.00948930 2.98414463
Si 2.82458724 0.00000000 0.98726513
C 2.34864802 0.00007983 4.52650275
O 2.62429874 0.00007983 5.66475525
