&CONTROL
calculation = 'relax'
prefix = 'scf'
pseudo_dir = '/vol0004/mdt0/data/hp150275/u10028/POT_KKJUS'
outdir = './data'
tprnfor = .true.
nstep = 50
disk_io = 'non'
/
&SYSTEM
ibrav = 0
ecutwfc = 50.0
ecutrho = 400
occupations = 'smearing'
smearing = 'mp'
degauss = 0.01
assume_isolated = 'esm'
esm_bc = 'bc1'
input_dft = 'BEEF-VDW'
nosym = .true.
nspin = 1
ntyp = 3
nat = 16
/
&ELECTRONS
electron_maxstep = 200
mixing_beta = 0.1
conv_thr = 1e-06
/
&IONS
ion_dynamics = 'bfgs'
upscale = 1.0
/
&CELL
/

K_POINTS {automatic}
8 8 1 0 0 0

ATOMIC_SPECIES
Cu 63.54 Cu.pbe-dn-rrkjus_psl.1.0.0.UPF
Li 6.941 Li.pbe-sl-rrkjus_psl.1.0.0.UPF
Si 28.08 Si.pbe-nl-rrkjus_psl.1.0.0.UPF

CELL_PARAMETERS {angstrom}
5.78917000 0.00000000 0.00000000
-0.00000000 5.78917000 0.00000000
0.00000000 0.00000000 24.34190000

ATOMIC_POSITIONS {angstrom}
Li 0.00000000 0.00000000 -2.1710540599999995 0 0 0
Li 2.89458500 2.89458500 -2.1710540599999995 0 0 0
Li 2.89458500 -0.00000000 0.72368469
Li 0.00000000 2.89458500 0.72368469
Cu 1.44729250 1.44729250 -0.7236846899999989 0 0 0
Cu 4.34187750 4.34187750 2.17105406
Cu 4.34187750 1.44729250 -0.7236846899999989 0 0 0
Cu 1.44729250 4.34187750 2.17105406
Cu 4.34187750 4.34187750 -0.7236846899999989 0 0 0
Cu 1.44729250 1.44729250 2.17105406
Cu 1.44729250 4.34187750 -0.7236846899999989 0 0 0
Cu 4.34187750 1.44729250 2.17105406
Si 0.00000000 0.00000000 0.72368469
Si 2.89458500 0.00000000 -2.1710540599999995 0 0 0
Si 0.00000000 2.89458500 -2.1710540599999995 0 0 0
Si 2.89458500 2.89458500 0.72368469
