&CONTROL
calculation = 'relax'
prefix = 'scf'
pseudo_dir = '/vol0004/mdt0/data/hp150275/u10028/POT_KKJUS'
outdir = './data'
tprnfor = .true.
nstep = 50
disk_io = 'non'
/
&SYSTEM
ibrav = 0
ecutwfc = 50.0
ecutrho = 400
occupations = 'smearing'
smearing = 'mp'
degauss = 0.01
assume_isolated = 'esm'
esm_bc = 'bc1'
input_dft = 'BEEF-VDW'
nosym = .true.
nspin = 1
ntyp = 4
nat = 33
/
&ELECTRONS
electron_maxstep = 200
mixing_beta = 0.1
conv_thr = 1e-06
/
&IONS
ion_dynamics = 'bfgs'
upscale = 1.0
/
&CELL
/

K_POINTS {automatic}
8 6 1 0 0 0

ATOMIC_SPECIES
C 12.01 C.pbe-n-rrkjus_psl.1.0.0.UPF
In 114.8 In.pbe-dn-rrkjus_psl.1.0.0.UPF
Pd 106.4 Pd.pbe-n-rrkjus_psl.1.0.0.UPF
Y 88.90 Y.pbe-spn-rrkjus_psl.1.0.0.UPF

CELL_PARAMETERS {angstrom}
6.85111000 0.00000000 0.00000000
0.00000000 9.68893000 0.00000000
0.00000000 0.00000000 27.26670000

ATOMIC_POSITIONS {angstrom}
Y 0.00000000 0.00000000 -3.633287769999999 0 0 0
Y 3.42555500 2.42223250 -1.211186810000001 0 0 0
Y 3.42555500 7.26669750 -1.211186810000001 0 0 0
Y 0.00000000 4.84446500 -3.633287769999999 0 0 0
Y 0.02836360 4.88486784 1.20164347
Y 3.37067761 7.26669750 3.68045917
Y 3.67274305 2.42213561 3.73635590
Y 0.02836360 9.64852716 1.20164347
In 0.00000000 7.26669750 -1.211186810000001 0 0 0
In 3.42555500 0.00000000 -3.633287769999999 0 0 0
In 0.00000000 2.42223250 -1.211186810000001 0 0 0
In 3.42555500 4.84446500 -3.633287769999999 0 0 0
In 6.60721048 2.42213561 3.52203964
In 3.41377109 4.81801422 1.30634760
In 0.09988918 7.26669750 3.68618517
In 3.41377109 0.02645078 1.30634760
Pd 1.71277750 0.00000000 -1.211186810000001 0 0 0
Pd 5.13833250 4.84446500 -1.211186810000001 0 0 0
Pd 5.13833250 0.00000000 -1.211186810000001 0 0 0
Pd 1.71277750 4.84446500 -1.211186810000001 0 0 0
Pd 5.13833250 7.26669750 -3.633287769999999 0 0 0
Pd 1.71277750 2.42223250 -3.633287769999999 0 0 0
Pd 1.71277750 7.26669750 -3.633287769999999 0 0 0
Pd 5.13833250 2.42223250 -3.633287769999999 0 0 0
Pd 1.59021114 4.66270067 3.61338308
Pd 5.23301484 9.53284134 3.49886294
Pd 5.23301484 5.00045677 3.49886294
Pd 1.59021114 0.18166744 3.61338308
Pd 5.12750775 2.42223250 1.10375602
Pd 1.83082213 7.26669750 1.25454087
Pd 1.78142562 2.42223250 1.30662026
Pd 5.06749202 7.26669750 1.29653159
C 1.61569727 2.42271695 4.45674211
