&CONTROL
calculation = 'relax'
prefix = 'scf'
pseudo_dir = '/vol0403/data/hp230205/u10028/POT_HYBRID_KKJUS_GBRV'
outdir = './data'
tprnfor = .true.
nstep = 50
disk_io = 'non'
/
&SYSTEM
ibrav = 0
ecutwfc = 50.0
ecutrho = 400
occupations = 'smearing'
smearing = 'mp'
degauss = 0.01
assume_isolated = 'esm'
esm_bc = 'bc1'
input_dft = 'BEEF-VDW'
nosym = .true.
nspin = 1
ntyp = 6
nat = 18
/
&ELECTRONS
electron_maxstep = 200
mixing_beta = 0.1
conv_thr = 1e-06
/
&IONS
ion_dynamics = 'bfgs'
upscale = 1.0
/
&CELL
/

K_POINTS {automatic}
9 9 2 0  0  0

ATOMIC_SPECIES
C 12.01 C.pbe-n-rrkjus_psl.1.0.0.UPF
Ga 69.72 Ga.pbe-dnl-rrkjus_psl.1.0.0.UPF
O 15.99 O.pbe-n-rrkjus_psl.1.0.0.UPF
Pd 106.4 Pd.pbe-n-rrkjus_psl.1.0.0.UPF
Sc 44.95 Sc.pbe-spn-rrkjus_psl.1.0.0.UPF
Y 88.90 Y.pbe-spn-rrkjus_psl.1.0.0.UPF


CELL_PARAMETERS {angstrom}
7.06732000 0.00000000 0.00000000
0.00000000 6.83834000 0.00000000
0.00000000 0.00000000 25.12490000

ATOMIC_POSITIONS {angstrom}
Y 1.76683000 5.06262825 -0.8542465999999997 0 0 0
Y 1.76683000 1.56604824 2.68886680
Y 5.30049000 5.06262825 -0.8542465999999997 0 0 0
Y 5.30049000 1.55353408 2.71524794
Sc 1.76683000 1.64345825 -0.8542465999999997 0 0 0
Sc 1.76675933 5.09900822 2.35897686
Sc 5.30049000 1.64345825 -0.8542465999999997 0 0 0
Sc 5.30049000 5.06946659 2.32706824
Ga 0.00000000 0.00000000 -2.562488550000001 0 0 0
Ga 7.06194884 3.26058890 1.03439213
Ga 3.53366000 0.00000000 -2.562488550000001 0 0 0
Ga 3.53896049 3.26058890 1.03439213
Pd 0.00000000 3.41917000 -2.562488550000001 0 0 0
Pd 7.02710695 0.07282832 0.91278762
Pd 3.53366000 3.41917000 -2.562488550000001 0 0 0
Pd 3.57387305 0.07275994 0.91278762
C 1.76690067 1.51886370 5.14859451
O 1.76690067 1.49185225 6.30459116
