&CONTROL
calculation = 'relax'
prefix = 'scf'
pseudo_dir = '/vol0004/mdt0/data/hp150275/u10028/POT_HYBRID_KKJUS_GBRV'
outdir = './data'
tprnfor = .true.
nstep = 70
disk_io = 'non'
/
&SYSTEM
ibrav = 0
ecutwfc = 50.0
ecutrho = 400
occupations = 'smearing'
smearing = 'mp'
degauss = 0.01
assume_isolated = 'esm'
esm_bc = 'bc1'
input_dft = 'BEEF-VDW'
nosym = .true.
nspin = 1
ntyp = 3
nat = 17
/
&ELECTRONS
electron_maxstep = 200
mixing_beta = 0.1
conv_thr = 1e-06
/
&IONS
ion_dynamics = 'bfgs'
upscale = 1.0
/
&CELL
/

K_POINTS {automatic}
8 8 1 0 0 0

ATOMIC_SPECIES
C 12.01 C.pbe-n-rrkjus_psl.1.0.0.UPF
Ga 69.72 Ga.pbe-dnl-rrkjus_psl.1.0.0.UPF
Ti 47.86 Ti.pbe-spn-rrkjus_psl.1.0.0.UPF

CELL_PARAMETERS {angstrom}
5.62342000 0.00000000 0.00000000
-0.00000000 5.62342000 0.00000000
0.00000000 0.00000000 25.99510000

ATOMIC_POSITIONS {angstrom}
Ti 1.40585500 1.40585500 -0.8133866800000007 0 0 0
Ti 1.40585500 1.40585500 3.18335995
Ti 1.40585500 4.21756500 -0.8133866800000007 0 0 0
Ti 1.40585500 4.21756500 3.18335995
Ti 4.21756500 1.40585500 -0.8133866800000007 0 0 0
Ti 4.21756500 1.40585500 3.18335995
Ti 4.21756500 4.21756500 -0.8133866800000007 0 0 0
Ti 4.21756500 4.21756500 3.18335995
Ga 0.00000000 0.00000000 -2.8118899699999993 0 0 0
Ga 0.00000000 0.00000000 1.18485666
Ga 0.00000000 2.81171000 -2.8118899699999993 0 0 0
Ga 0.00000000 2.81171000 1.18485666
Ga 2.81171000 0.00000000 -2.8118899699999993 0 0 0
Ga 2.81171000 -0.00000000 1.18485666
Ga 2.81171000 2.81171000 -2.8118899699999993 0 0 0
Ga 2.81171000 2.81171000 1.18485666
C 0.00000000 0.00000000 3.98322917
