&CONTROL
calculation = 'relax'
prefix = 'scf'
pseudo_dir = '/vol0004/mdt0/data/hp150275/u10028/POT_KKJUS'
outdir = './data'
tprnfor = .true.
nstep = 50
disk_io = 'non'
/
&SYSTEM
ibrav = 0
ecutwfc = 50.0
ecutrho = 400
occupations = 'smearing'
smearing = 'mp'
degauss = 0.01
assume_isolated = 'esm'
esm_bc = 'bc1'
input_dft = 'BEEF-VDW'
nosym = .true.
nspin = 1
ntyp = 5
nat = 18
/
&ELECTRONS
electron_maxstep = 200
mixing_beta = 0.1
conv_thr = 1e-06
/
&IONS
ion_dynamics = 'bfgs'
upscale = 1.0
/
&CELL
/

K_POINTS {automatic}
8 8 1 0 0 0

ATOMIC_SPECIES
C 12.01 C.pbe-n-rrkjus_psl.1.0.0.UPF
In 114.8 In.pbe-dn-rrkjus_psl.1.0.0.UPF
Ni 58.69 Ni.pbe-spn-rrkjus_psl.1.0.0.UPF
O 15.99 O.pbe-n-rrkjus_psl.1.0.0.UPF
Zr 91.22 Zr.pbe-spn-rrkjus_psl.1.0.0.UPF

CELL_PARAMETERS {angstrom}
6.34847000 0.00000000 0.00000000
0.00000000 6.34847000 0.00000000
0.00000000 0.00000000 24.76130000

ATOMIC_POSITIONS {angstrom}
Zr 0.00012697 0.00069833 2.33474298
Zr 3.17518727 3.17372712 2.33499059
Zr 3.17423500 0.00000000 -0.793599669999999 0 0 0
Zr 0.00000000 3.17423500 -0.793599669999999 0 0 0
In 0.00000000 0.00000000 -0.793599669999999 0 0 0
In 3.17531424 6.34758121 2.55734706
In 0.00101576 3.17398106 2.54991867
In 3.17423500 3.17423500 -0.793599669999999 0 0 0
Ni 1.58514947 1.58895856 0.88323557
Ni 4.76135250 4.76135250 -2.38055138 0 0 0
Ni 4.76401886 1.59003780 0.88274034
Ni 1.58711750 4.76135250 -2.38055138 0 0 0
Ni 4.76522507 4.75760690 0.88397841
Ni 1.58711750 1.58711750 -2.38055138 0 0 0
Ni 1.58464160 4.75913054 0.88348318
Ni 4.76135250 1.58711750 -2.38055138 0 0 0
C 0.02990129 3.19397874 7.09708381
O 6.33348761 3.15963352 8.23016089
