&CONTROL
calculation = 'relax'
prefix = 'scf'
pseudo_dir = '/vol0004/mdt0/data/hp150275/u10028/POT_HYBRID_KKJUS_GBRV'
outdir = './data'
tprnfor = .true.
nstep = 50
disk_io = 'non'
/
&SYSTEM
ibrav = 0
ecutwfc = 50.0
ecutrho = 400
occupations = 'smearing'
smearing = 'mp'
degauss = 0.01
assume_isolated = 'esm'
esm_bc = 'bc1'
input_dft = 'BEEF-VDW'
nosym = .true.
nspin = 2
ntyp = 5
nat = 34
starting_magnetization(1) = 0.0
starting_magnetization(2) = 0.1
starting_magnetization(3) = 0.001
starting_magnetization(4) = 0.0
starting_magnetization(5) = 0.0
/
&ELECTRONS
electron_maxstep = 300
mixing_beta = 0.1
conv_thr = 1e-06
/
&IONS
ion_dynamics = 'bfgs'
upscale = 1.0
/
&CELL
/

K_POINTS {automatic}
8 6 1 0 0 0

ATOMIC_SPECIES
C 12.01 C.pbe-n-rrkjus_psl.1.0.0.UPF
Mn 54.93 mn_pbe_v1.5.uspp.F.UPF
Ni 58.69 ni_pbe_v1.4.uspp.F.UPF
O 15.99 O.pbe-n-rrkjus_psl.1.0.0.UPF
Sn 118.7 Sn.pbe-dn-rrkjus_psl.1.0.0.UPF

CELL_PARAMETERS {angstrom}
6.10266000 0.00000000 0.00000000
0.00000000 8.63046000 0.00000000
0.00000000 0.00000000 26.47280000

ATOMIC_POSITIONS {angstrom}
Mn 0.00000000 0.00000000 -3.236299800000001 0 0 0
Mn 3.05133000 2.15761500 -1.078766599999998 0 0 0
Mn 3.05133000 6.47284500 -1.078766599999998 0 0 0
Mn 0.00000000 4.31523000 -3.236299800000001 0 0 0
Mn 0.00000000 4.31298608 1.07506041
Mn 3.05133000 6.47293130 3.23921181
Mn 3.05133000 2.15761500 3.18203056
Mn 0.00000000 0.00224392 1.07453095
Ni 1.52566500 0.00000000 -1.078766599999998 0 0 0
Ni 4.57699500 4.31523000 -1.078766599999998 0 0 0
Ni 4.57699500 0.00000000 -1.078766599999998 0 0 0
Ni 1.52566500 4.31523000 -1.078766599999998 0 0 0
Ni 4.57699500 6.47284500 -3.236299800000001 0 0 0
Ni 1.52566500 2.15761500 -3.236299800000001 0 0 0
Ni 1.52566500 6.47284500 -3.236299800000001 0 0 0
Ni 4.57699500 2.15761500 -3.236299800000001 0 0 0
Ni 1.49844714 4.31747392 3.10605362
Ni 4.60445697 8.62864760 3.10525944
Ni 4.60421286 4.31747392 3.10605362
Ni 1.49820303 8.62864760 3.10525944
Ni 4.58340279 2.15675195 1.09279718
Ni 1.46805589 6.47344913 1.14653697
Ni 1.51925721 2.15675195 1.09279718
Ni 4.63460411 6.47344913 1.14653697
Sn 0.00000000 6.47284500 -1.078766599999998 0 0 0
Sn 3.05133000 0.00000000 -3.236299800000001 0 0 0
Sn 0.00000000 2.15761500 -1.078766599999998 0 0 0
Sn 3.05133000 4.31523000 -3.236299800000001 0 0 0
Sn 0.00000000 2.15770130 3.37766455
Sn 3.05133000 4.32291111 1.05361744
Sn 0.00000000 6.47301761 3.49361542
Sn 3.05133000 8.62251998 1.05308798
C 3.05133000 2.15761500 5.09892601
O 3.05133000 2.15761500 6.25446373
