&CONTROL
calculation = 'relax'
prefix = 'scf'
pseudo_dir = '/vol0403/data/hp230205/u10028/POT_HYBRID_KKJUS_GBRV'
outdir = './data'
tprnfor = .true.
nstep = 50
disk_io = 'non'
/
&SYSTEM
ibrav = 0
ecutwfc = 50.0
ecutrho = 400
occupations = 'smearing'
smearing = 'mp'
degauss = 0.01
assume_isolated = 'esm'
esm_bc = 'bc1'
input_dft = 'BEEF-VDW'
nosym = .true.
nspin = 1
ntyp = 6
nat = 34
/
&ELECTRONS
electron_maxstep = 200
mixing_beta = 0.1
conv_thr = 1e-06
/
&IONS
ion_dynamics = 'bfgs'
upscale = 1.0
/
&CELL
/

K_POINTS {automatic}
9 6 2 0  0  0

ATOMIC_SPECIES
Al 26.98 Al.pbe-nl-rrkjus_psl.1.0.0.UPF
C 12.01 C.pbe-n-rrkjus_psl.1.0.0.UPF
Li 6.941 Li.pbe-sl-rrkjus_psl.1.0.0.UPF
Nb 92.90 Nb.pbe-spn-rrkjus_psl.1.0.0.UPF
O 15.99 O.pbe-n-rrkjus_psl.1.0.0.UPF
Pd 106.4 Pd.pbe-n-rrkjus_psl.1.0.0.UPF


CELL_PARAMETERS {angstrom}
6.26744000 0.00000000 0.00000000
0.00000000 8.86350000 0.00000000
0.00000000 0.00000000 26.64760000

ATOMIC_POSITIONS {angstrom}
Li 1.56686000 0.00000000 -1.1080072100000002 0 0 0
Li 1.56686000 4.43175000 -1.1080072100000002 0 0 0
Li 4.70058000 2.21587500 -3.32375515 0 0 0
Li 4.70058000 6.64762500 -3.32375515 0 0 0
Li 1.49603793 4.38370983 3.76610531
Li 2.73617628 8.71033872 5.21733360
Li 4.73605371 6.72881466 1.25270368
Li 4.87807390 2.12998769 1.28254899
Nb 0.00000000 2.21587500 -1.1080072100000002 0 0 0
Nb 0.00000000 6.64762500 -1.1080072100000002 0 0 0
Nb 3.13372000 4.43175000 -3.32375515 0 0 0
Nb 3.13372000 0.00000000 -3.32375515 0 0 0
Nb 0.60988459 7.36556850 3.41302461
Nb 0.86540812 1.25312163 3.40316500
Nb 2.67099490 0.01107938 1.77179892
Nb 3.13497349 4.41570707 1.17409326
Al 0.00000000 0.00000000 -3.32375515 0 0 0
Al 0.00000000 4.43175000 -3.32375515 0 0 0
Al 3.13372000 6.64762500 -1.1080072100000002 0 0 0
Al 3.13372000 2.21587500 -1.1080072100000002 0 0 0
Al 0.03045976 4.46933124 1.11493558
Al 6.20846339 8.82370289 1.00274919
Al 3.38579644 2.36203412 3.33174943
Al 3.23769683 6.52575188 3.35786408
Pd 4.70058000 0.00000000 -1.1080072100000002 0 0 0
Pd 4.70058000 4.43175000 -1.1080072100000002 0 0 0
Pd 1.56686000 2.21587500 -3.32375515 0 0 0
Pd 1.56686000 6.64762500 -3.32375515 0 0 0
Pd 4.82022543 4.50478524 3.19824495
Pd 4.61797514 0.02082923 3.34427380
Pd 1.58910941 6.53186769 0.91401268
Pd 1.53389327 2.34395258 0.95931360
C 0.58525355 8.58474293 4.96817854
O 0.96418297 0.77529035 5.61278399
