&CONTROL
calculation = 'relax'
prefix = 'scf'
pseudo_dir = '/vol0004/mdt0/data/hp150275/u10028/POT_HYBRID_KKJUS_GBRV'
outdir = './data'
tprnfor = .true.
nstep = 50
disk_io = 'non'
/
&SYSTEM
ibrav = 0
ecutwfc = 50.0
ecutrho = 400
occupations = 'smearing'
smearing = 'mp'
degauss = 0.01
assume_isolated = 'esm'
esm_bc = 'bc1'
input_dft = 'BEEF-VDW'
nosym = .true.
nspin = 2
ntyp = 3
nat = 17
starting_magnetization(1) = 0.0
starting_magnetization(2) = 0.1
starting_magnetization(3) = 0.0
/
&ELECTRONS
electron_maxstep = 200
mixing_beta = 0.1
conv_thr = 1e-06
/
&IONS
ion_dynamics = 'bfgs'
upscale = 1.0
/
&CELL
/

K_POINTS {automatic}
6 8 1 0 0 0

ATOMIC_SPECIES
C 12.01 C.pbe-n-rrkjus_psl.1.0.0.UPF
Fe 55.84 fe_pbe_v1.5.uspp.F.UPF
Ga 69.72 Ga.pbe-dnl-rrkjus_psl.1.0.0.UPF

CELL_PARAMETERS {angstrom}
7.33747000 0.00000000 0.00000000
-0.00000000 5.18838000 0.00000000
0.00000000 0.00000000 23.89130000

ATOMIC_POSITIONS {angstrom}
Ga 0.00000000 0.00000000 -1.945707470000002 0 0 0
Ga 0.00000000 2.59419000 0.64864880
Ga 3.66873500 0.00000000 -1.945707470000002 0 0 0
Ga 3.66873500 2.59419000 0.64864880
Fe 0.00000000 2.59419000 -1.945707470000002 0 0 0
Fe 1.83436750 3.89128500 -0.6486487900000029 0 0 0
Fe 1.83436750 1.29709500 -0.6486487900000029 0 0 0
Fe 0.00000000 0.00000000 0.64864880
Fe 1.83436750 1.29709500 1.94570747
Fe 1.83436750 3.89128500 1.94570747
Fe 3.66873500 2.59419000 -1.945707470000002 0 0 0
Fe 5.50310250 3.89128500 -0.6486487900000029 0 0 0
Fe 5.50310250 1.29709500 -0.6486487900000029 0 0 0
Fe 3.66873500 -0.00000000 0.64864880
Fe 5.50310250 1.29709500 1.94570747
Fe 5.50310250 3.89128500 1.94570747
C 0.00000000 0.00000000 2.74558820
