&CONTROL
calculation = 'relax'
prefix = 'scf'
pseudo_dir = '/vol0403/data/hp230205/u10028/POT_HYBRID_KKJUS_GBRV'
outdir = './data'
tprnfor = .true.
nstep = 50
disk_io = 'non'
/
&SYSTEM
ibrav = 0
ecutwfc = 50.0
ecutrho = 400
occupations = 'smearing'
smearing = 'mp'
degauss = 0.01
assume_isolated = 'esm'
esm_bc = 'bc1'
input_dft = 'BEEF-VDW'
nosym = .true.
nspin = 2
ntyp = 5
nat = 33
starting_magnetization(1) = 0.25
starting_magnetization(2) = 0.25
starting_magnetization(3) = 0.25
starting_magnetization(4) = 0.25
starting_magnetization(5) = 0.25
/
&ELECTRONS
electron_maxstep = 200
mixing_beta = 0.1
conv_thr = 1e-06
/
&IONS
ion_dynamics = 'bfgs'
upscale = 1.0
/
&CELL
/

K_POINTS {automatic}
6 6 1 0 0 0

ATOMIC_SPECIES
Al 26.98 Al.pbe-nl-rrkjus_psl.1.0.0.UPF
C 12.01 C.pbe-n-rrkjus_psl.1.0.0.UPF
Co 58.93 co_pbe_v1.2.uspp.F.UPF
Li 6.941 Li.pbe-sl-rrkjus_psl.1.0.0.UPF
Pd 106.4 Pd.pbe-n-rrkjus_psl.1.0.0.UPF


CELL_PARAMETERS {angstrom}
5.87254000 0.00000000 0.00000000
0.00000000 8.30502000 0.00000000
0.00000000 0.00000000 26.22880000

ATOMIC_POSITIONS {angstrom}
Li 0.00000000 2.07625500 -1.0381359000000003 0 0 0
Li 0.00000000 6.22876500 -1.0381359000000003 0 0 0
Li 2.93627000 4.15251000 -3.1144077099999983 0 0 0
Li 2.93627000 0.00000000 -3.1144077099999983 0 0 0
Li 0.00000000 6.22876500 3.11440771
Li 0.00000000 2.07625500 3.11440771
Li 2.93627000 0.00000000 1.03813590
Li 2.93627000 4.15251000 1.03813590
Al 0.00000000 0.00000000 -3.1144077099999983 0 0 0
Al 0.00000000 4.15251000 -3.1144077099999983 0 0 0
Al 2.93627000 6.22876500 -1.0381359000000003 0 0 0
Al 2.93627000 2.07625500 -1.0381359000000003 0 0 0
Al 0.00000000 4.15251000 1.03813590
Al 0.00000000 0.00000000 1.03813590
Al 2.93627000 2.07625500 3.11440771
Al 2.93627000 6.22876500 3.11440771
Co 4.40440500 0.00000000 -1.0381359000000003 0 0 0
Co 4.40440500 4.15251000 -1.0381359000000003 0 0 0
Co 1.46813500 2.07625500 -3.1144077099999983 0 0 0
Co 1.46813500 6.22876500 -3.1144077099999983 0 0 0
Co 4.40440500 4.15251000 3.11440771
Co 4.40440500 0.00000000 3.11440771
Co 1.46813500 6.22876500 1.03813590
Co 1.46813500 2.07625500 1.03813590
Pd 1.46813500 0.00000000 -1.0381359000000003 0 0 0
Pd 1.46813500 4.15251000 -1.0381359000000003 0 0 0
Pd 4.40440500 2.07625500 -3.1144077099999983 0 0 0
Pd 4.40440500 6.22876500 -3.1144077099999983 0 0 0
Pd 1.46813500 4.15251000 3.11440771
Pd 1.46813500 0.00000000 3.11440771
Pd 4.40440500 6.22876500 1.03813590
Pd 4.40440500 2.07625500 1.03813590
C 1.46813500 2.07625500 3.91438611
