&CONTROL
calculation = 'relax'
prefix = 'scf'
pseudo_dir = '/vol0403/data/hp230205/u10028/POT_HYBRID_KKJUS_GBRV'
outdir = './data'
tprnfor = .true.
nstep = 50
disk_io = 'non'
/
&SYSTEM
ibrav = 0
ecutwfc = 50.0
ecutrho = 400
occupations = 'smearing'
smearing = 'mp'
degauss = 0.01
assume_isolated = 'esm'
esm_bc = 'bc1'
input_dft = 'BEEF-VDW'
nosym = .true.
nspin = 2
ntyp = 5
nat = 33
starting_magnetization(1) = 0.0
starting_magnetization(2) = 0.0
starting_magnetization(3) = 0.1
starting_magnetization(4) = 0.0
starting_magnetization(5) = 0.0
/
&ELECTRONS
electron_maxstep = 200
mixing_beta = 0.1
conv_thr = 1e-06
/
&IONS
ion_dynamics = 'bfgs'
upscale = 1.0
/
&CELL
/

K_POINTS {automatic}
6 6 1 0 0 0

ATOMIC_SPECIES
Al 26.98 Al.pbe-nl-rrkjus_psl.1.0.0.UPF
C 12.01 C.pbe-n-rrkjus_psl.1.0.0.UPF
Co 58.93 co_pbe_v1.2.uspp.F.UPF
Li 6.941 Li.pbe-sl-rrkjus_psl.1.0.0.UPF
Pd 106.4 Pd.pbe-n-rrkjus_psl.1.0.0.UPF


CELL_PARAMETERS {angstrom}
5.87254000 0.00000000 0.00000000
0.00000000 8.30502000 0.00000000
0.00000000 0.00000000 26.22880000

ATOMIC_POSITIONS {angstrom}
Li 0.00000000 2.07625500 -1.0381359000000003 0 0 0
Li 0.00000000 6.22876500 -1.0381359000000003 0 0 0
Li 2.93627000 4.15251000 -3.1144077099999983 0 0 0
Li 2.93627000 0.00000000 -3.1144077099999983 0 0 0
Li 0.03893494 6.22776840 3.61406635
Li 5.51349290 2.07550755 3.59649306
Li 2.89774614 0.00191015 1.02580837
Li 2.89762869 4.15026764 1.02843125
Al 0.00000000 0.00000000 -3.1144077099999983 0 0 0
Al 0.00000000 4.15251000 -3.1144077099999983 0 0 0
Al 2.93627000 6.22876500 -1.0381359000000003 0 0 0
Al 2.93627000 2.07625500 -1.0381359000000003 0 0 0
Al 0.03429563 4.18896904 1.02397235
Al 0.03382583 8.26831181 1.02449693
Al 3.21768212 2.07542450 3.04070478
Al 2.83884456 6.22893110 3.07191706
Co 4.40440500 0.00000000 -1.0381359000000003 0 0 0
Co 4.40440500 4.15251000 -1.0381359000000003 0 0 0
Co 1.46813500 2.07625500 -3.1144077099999983 0 0 0
Co 1.46813500 6.22876500 -3.1144077099999983 0 0 0
Co 4.35965625 4.26695318 2.97277219
Co 4.35877536 8.19414798 2.97487050
Co 1.42626379 6.23042600 1.07459394
Co 1.41956909 2.07484315 1.15328034
Pd 1.46813500 0.00000000 -1.0381359000000003 0 0 0
Pd 1.46813500 4.15251000 -1.0381359000000003 0 0 0
Pd 4.40440500 2.07625500 -3.1144077099999983 0 0 0
Pd 4.40440500 6.22876500 -3.1144077099999983 0 0 0
Pd 1.41357910 4.05401246 3.15034117
Pd 1.41305057 0.09750093 3.15034117
Pd 4.39083943 6.22926330 1.03839819
Pd 4.48080675 2.07517535 0.98567830
C 1.47565185 2.07608890 3.75622645
