&CONTROL
calculation = 'relax'
prefix = 'scf'
pseudo_dir = '/vol0004/mdt0/data/hp150275/u10028/POT_KKJUS'
outdir = './data'
tprnfor = .true.
nstep = 50
disk_io = 'non'
/
&SYSTEM
ibrav = 0
ecutwfc = 50.0
ecutrho = 400
occupations = 'smearing'
smearing = 'mp'
degauss = 0.01
assume_isolated = 'esm'
esm_bc = 'bc1'
input_dft = 'BEEF-VDW'
nosym = .true.
nspin = 1
ntyp = 3
nat = 33
/
&ELECTRONS
electron_maxstep = 200
mixing_beta = 0.1
conv_thr = 1e-06
/
&IONS
ion_dynamics = 'bfgs'
upscale = 1.0
/
&CELL
/

K_POINTS {automatic}
8 6 1 0 0 0

ATOMIC_SPECIES
C 12.01 C.pbe-n-rrkjus_psl.1.0.0.UPF
Cu 63.54 Cu.pbe-dn-rrkjus_psl.1.0.0.UPF
Sn 118.7 Sn.pbe-dn-rrkjus_psl.1.0.0.UPF

CELL_PARAMETERS {angstrom}
6.23499000 0.00000000 0.00000000
0.00000000 8.81761000 0.00000000
0.00000000 0.00000000 26.61320000

ATOMIC_POSITIONS {angstrom}
Cu 1.55874750 0.00000000 -1.1023187399999976 0 0 0
Cu 4.67624250 4.40880500 -1.1023187399999976 0 0 0
Cu 4.67624250 0.00000000 -1.1023187399999976 0 0 0
Cu 1.55874750 4.40880500 -1.1023187399999976 0 0 0
Cu 4.67624250 6.61320750 -3.306690100000001 0 0 0
Cu 1.55874750 2.20440250 -3.306690100000001 0 0 0
Cu 1.55874750 6.61320750 -3.306690100000001 0 0 0
Cu 4.67624250 2.20440250 -3.306690100000001 0 0 0
Cu 0.00000000 6.61320750 -1.1023187399999976 0 0 0
Cu 3.11749500 0.00000000 -3.306690100000001 0 0 0
Cu 0.00000000 2.20440250 -1.1023187399999976 0 0 0
Cu 3.11749500 4.40880500 -3.306690100000001 0 0 0
Cu 1.73700586 4.40880500 3.06876809
Cu 5.02571369 0.00000000 3.38786036
Cu 4.49798414 4.40880500 3.06876809
Cu 1.20927631 0.00000000 3.38786036
Cu 4.45758140 2.24029017 1.36179744
Cu 1.77740860 6.57731983 1.36179744
Cu 1.77740860 2.24029017 1.36179744
Cu 4.45758140 6.57731983 1.36179744
Cu 0.00000000 2.36214954 3.22924569
Cu 3.11749500 4.40880500 0.92773615
Cu 0.00000000 6.45546046 3.22924569
Cu 3.11749500 0.00000000 1.43631440
Sn 0.00000000 0.00000000 -3.306690100000001 0 0 0
Sn 3.11749500 2.20440250 -1.1023187399999976 0 0 0
Sn 3.11749500 6.61320750 -1.1023187399999976 0 0 0
Sn 0.00000000 4.40880500 -3.306690100000001 0 0 0
Sn 0.00000000 4.40880500 1.07916526
Sn 3.11749500 6.62123153 4.06729536
Sn 3.11749500 2.19637847 4.06729536
Sn 0.00000000 0.00000000 1.03578574
C 3.11749500 0.00000000 3.50788589
