&CONTROL
calculation = 'relax'
prefix = 'scf'
pseudo_dir = '/vol0403/data/hp230205/u10028/POT_HYBRID_KKJUS_GBRV'
outdir = './data'
tprnfor = .true.
nstep = 50
disk_io = 'non'
/
&SYSTEM
ibrav = 0
ecutwfc = 50.0
ecutrho = 400
occupations = 'smearing'
smearing = 'mp'
degauss = 0.01
assume_isolated = 'esm'
esm_bc = 'bc1'
input_dft = 'BEEF-VDW'
nosym = .true.
nspin = 1
ntyp = 6
nat = 18
/
&ELECTRONS
electron_maxstep = 200
mixing_beta = 0.1
conv_thr = 1e-06
/
&IONS
ion_dynamics = 'bfgs'
upscale = 1.0
/
&CELL
/

K_POINTS {automatic}
8 8 1 0 0 0

ATOMIC_SPECIES
C 12.01 C.pbe-n-rrkjus_psl.1.0.0.UPF
Hf 178.4 Hf.pbe-spn-rrkjus_psl.1.0.0.UPF
In 114.8 In.pbe-dn-rrkjus_psl.1.0.0.UPF
Li 6.941 Li.pbe-sl-rrkjus_psl.1.0.0.UPF
O 15.99 O.pbe-n-rrkjus_psl.1.0.0.UPF
Pd 106.4 Pd.pbe-n-rrkjus_psl.1.0.0.UPF


CELL_PARAMETERS {angstrom}
6.51419000 0.00000000 0.00000000
0.00000000 6.51419000 0.00000000
0.00000000 0.00000000 24.88560000

ATOMIC_POSITIONS {angstrom}
Li 4.88564250 1.62854750 -0.8142568300000015 0 0 0
Li 4.88564250 4.88564250 3.03405235
Li 1.62854750 1.62854750 3.03405235
Li 1.62854750 4.88564250 -0.8142568300000015 0 0 0
Hf 0.00000000 0.00000000 -2.4427705000000017 0 0 0
Hf 6.51099805 3.25396819 0.88567850
Hf 3.26028695 0.00312681 0.88542965
Hf 3.25709500 3.25709500 -2.4427705000000017 0 0 0
In 0.00000000 3.25709500 -2.4427705000000017 0 0 0
In 6.49126005 0.02292995 0.89513503
In 3.28002495 3.23416505 0.89513503
In 3.25709500 0.00000000 -2.4427705000000017 0 0 0
Pd 1.62854750 1.62854750 -0.8142568300000015 0 0 0
Pd 1.62854750 4.88564250 2.32456390
Pd 4.88564250 1.62854750 2.51245018
Pd 4.88564250 4.88564250 -0.8142568300000015 0 0 0
C 4.88564250 1.62854750 4.47841258
O 4.88564250 1.62861264 5.63932582
