&CONTROL
calculation = 'relax'
prefix = 'scf'
pseudo_dir = '/vol0403/data/hp230205/u10028/POT_HYBRID_KKJUS_GBRV'
outdir = './data'
tprnfor = .true.
nstep = 50
disk_io = 'non'
/
&SYSTEM
ibrav = 0
ecutwfc = 50.0
ecutrho = 400
occupations = 'smearing'
smearing = 'mp'
degauss = 0.01
assume_isolated = 'esm'
esm_bc = 'bc1'
input_dft = 'BEEF-VDW'
nosym = .true.
nspin = 1
ntyp = 6
nat = 18
/
&ELECTRONS
electron_maxstep = 200
mixing_beta = 0.1
conv_thr = 1e-06
/
&IONS
ion_dynamics = 'bfgs'
upscale = 1.0
/
&CELL
/

K_POINTS {automatic}
11 7 2 0  0  0

ATOMIC_SPECIES
C 12.01 C.pbe-n-rrkjus_psl.1.0.0.UPF
Cu 63.54 Cu.pbe-dn-rrkjus_psl.1.0.0.UPF
In 114.8 In.pbe-dn-rrkjus_psl.1.0.0.UPF
O 15.99 O.pbe-n-rrkjus_psl.1.0.0.UPF
Sn 118.7 Sn.pbe-dn-rrkjus_psl.1.0.0.UPF
Y 88.90 Y.pbe-spn-rrkjus_psl.1.0.0.UPF


CELL_PARAMETERS {angstrom}
6.35598000 0.00000000 0.00000000
0.00000000 8.84740000 0.00000000
0.00000000 0.00000000 24.76400000

ATOMIC_POSITIONS {angstrom}
Y 3.60104403 0.00053084 2.27085880
Y 6.24373339 0.00000000 -0.7939338400000011 0 0 0
Y 3.59653128 4.42290373 2.16833584
Y 6.24373339 4.42370000 -0.7939338400000011 0 0 0
In 2.11247351 2.18858134 0.58195400
In 4.59855153 2.21185000 -2.382049160000001 0 0 0
In 2.11190147 6.65881866 0.58269692
In 4.59855153 6.63555000 -2.382049160000001 0 0 0
Cu 0.59333073 8.84660373 1.96056588
Cu 3.06574339 0.00000000 -0.7939338400000011 0 0 0
Cu 0.60877576 4.42440779 1.88825500
Cu 3.06574339 4.42370000 -0.7939338400000011 0 0 0
Sn 5.49372775 2.20273718 1.50144132
Sn 1.42056153 2.21185000 -2.382049160000001 0 0 0
Sn 5.49131248 6.64430893 1.49946020
Sn 1.42056153 6.63555000 -2.382049160000001 0 0 0
C 3.29970702 0.00053084 4.76385068
O 3.19972745 0.00035390 5.90769984
