&CONTROL
calculation = 'relax'
prefix = 'scf'
pseudo_dir = '/vol0004/mdt0/data/hp150275/u10028/POT_HYBRID_KKJUS_GBRV'
outdir = './data'
tprnfor = .true.
nstep = 50
disk_io = 'non'
/
&SYSTEM
ibrav = 0
ecutwfc = 50.0
ecutrho = 400
occupations = 'smearing'
smearing = 'mp'
degauss = 0.01
assume_isolated = 'esm'
esm_bc = 'bc1'
input_dft = 'BEEF-VDW'
nosym = .true.
nspin = 2
ntyp = 4
nat = 18
starting_magnetization(1) = 0.0
starting_magnetization(2) = 0.001
starting_magnetization(3) = 0.0
starting_magnetization(4) = 0.0
/
&ELECTRONS
electron_maxstep = 400
mixing_beta = 0.1
conv_thr = 1e-06
/
&IONS
ion_dynamics = 'bfgs'
upscale = 1.0
/
&CELL
/

K_POINTS {automatic}
6 8 1 0 0 0

ATOMIC_SPECIES
C 12.01 C.pbe-n-rrkjus_psl.1.0.0.UPF
Ni 58.69 ni_pbe_v1.4.uspp.F.UPF
O 15.99 O.pbe-n-rrkjus_psl.1.0.0.UPF
Sn 118.7 Sn.pbe-dn-rrkjus_psl.1.0.0.UPF

CELL_PARAMETERS {angstrom}
7.51544000 0.00000000 0.00000000
0.00000000 5.31422000 0.00000000
0.00000000 0.00000000 23.98570000

ATOMIC_POSITIONS {angstrom}
Ni 0.00007515 2.65716314 1.85865189
Ni 1.87976185 4.01664690 0.67783588
Ni 1.87976185 1.29751996 0.67831560
Ni 0.00000000 0.00000000 -0.664164030000002 0 0 0
Ni 1.87886000 1.32855500 -1.9927319600000004 0 0 0
Ni 1.87886000 3.98566500 -1.9927319600000004 0 0 0
Ni 3.75779515 2.65711000 1.85817218
Ni 5.63552784 4.01680633 0.67783588
Ni 5.63560299 1.29757310 0.67759603
Ni 3.75772000 0.00000000 -0.664164030000002 0 0 0
Ni 5.63658000 1.32855500 -1.9927319600000004 0 0 0
Ni 5.63658000 3.98566500 -1.9927319600000004 0 0 0
Sn 7.51536485 0.00000000 2.09754947
Sn 0.00000000 2.65711000 -0.664164030000002 0 0 0
Sn 3.75772000 0.00010628 2.11026189
Sn 3.75772000 2.65711000 -0.664164030000002 0 0 0
C 0.00045093 5.31416686 6.22261015
O 7.51536485 0.00005314 7.35473519
