&CONTROL
calculation = 'relax'
prefix = 'scf'
pseudo_dir = '/vol0004/mdt0/data/hp150275/u10028/POT_HYBRID_KKJUS_GBRV'
outdir = './data'
tprnfor = .true.
nstep = 50
disk_io = 'non'
/
&SYSTEM
ibrav = 0
ecutwfc = 50.0
ecutrho = 400
occupations = 'smearing'
smearing = 'mp'
degauss = 0.01
assume_isolated = 'esm'
esm_bc = 'bc1'
input_dft = 'BEEF-VDW'
nosym = .true.
nspin = 2
ntyp = 3
nat = 16
starting_magnetization(1) = 0.1
starting_magnetization(2) = 0.1
starting_magnetization(3) = 0.1
/
&ELECTRONS
electron_maxstep = 200
mixing_beta = 0.1
conv_thr = 1e-06
/
&IONS
ion_dynamics = 'bfgs'
upscale = 1.0
/
&CELL
/

K_POINTS {automatic}
10 10 2 0  0  0

ATOMIC_SPECIES
Co 58.93 co_pbe_v1.2.uspp.F.UPF
Mn 54.93 mn_pbe_v1.5.uspp.F.UPF
Si 28.08 Si.pbe-nl-rrkjus_psl.1.0.0.UPF

CELL_PARAMETERS {angstrom}
5.64266000 0.00000000 0.00000000
-0.00000000 5.64266000 0.00000000
0.00000000 0.00000000 24.23200000

ATOMIC_POSITIONS {angstrom}
Mn 0.00000000 0.00000000 2.11593824
Mn 2.82133000 2.82133000 2.11593824
Mn 2.82133000 0.00000000 -0.7053935199999977 0 0 0
Mn 0.00000000 2.82133000 -0.7053935199999977 0 0 0
Co 1.41066500 1.41066500 0.70539352
Co 4.23199500 4.23199500 -2.1159382399999984 0 0 0
Co 4.23199500 1.41066500 0.70539352
Co 1.41066500 4.23199500 -2.1159382399999984 0 0 0
Co 4.23199500 4.23199500 0.70539352
Co 1.41066500 1.41066500 -2.1159382399999984 0 0 0
Co 1.41066500 4.23199500 0.70539352
Co 4.23199500 1.41066500 -2.1159382399999984 0 0 0
Si 0.00000000 0.00000000 -0.7053935199999977 0 0 0
Si 2.82133000 -0.00000000 2.11593824
Si 0.00000000 2.82133000 2.11593824
Si 2.82133000 2.82133000 -0.7053935199999977 0 0 0
