&CONTROL
calculation = 'relax'
prefix = 'scf'
pseudo_dir = '/vol0004/mdt0/data/hp150275/u10028/POT_KKJUS'
outdir = './data'
tprnfor = .true.
nstep = 50
disk_io = 'non'
/
&SYSTEM
ibrav = 0
ecutwfc = 50.0
ecutrho = 400
occupations = 'smearing'
smearing = 'mp'
degauss = 0.01
assume_isolated = 'esm'
esm_bc = 'bc1'
input_dft = 'BEEF-VDW'
nosym = .true.
nspin = 1
ntyp = 5
nat = 34
/
&ELECTRONS
electron_maxstep = 200
mixing_beta = 0.1
conv_thr = 1e-06
/
&IONS
ion_dynamics = 'bfgs'
upscale = 1.0
/
&CELL
/

K_POINTS {automatic}
8 6 1 0 0 0

ATOMIC_SPECIES
Bi 208.9 Bi.pbe-dn-rrkjus_psl.1.0.0.UPF
C 12.01 C.pbe-n-rrkjus_psl.1.0.0.UPF
O 15.99 O.pbe-n-rrkjus_psl.1.0.0.UPF
Pd 106.4 Pd.pbe-n-rrkjus_psl.1.0.0.UPF
Y 88.90 Y.pbe-spn-rrkjus_psl.1.0.0.UPF

CELL_PARAMETERS {angstrom}
6.99655000 0.00000000 0.00000000
0.00000000 9.89462000 0.00000000
0.00000000 0.00000000 27.42100000

ATOMIC_POSITIONS {angstrom}
Y 0.00000000 0.00000000 -3.7106097200000008 0 0 0
Y 3.49827500 2.47365500 -1.236961309999998 0 0 0
Y 3.49827500 7.42096500 -1.236961309999998 0 0 0
Y 0.00000000 4.94731000 -3.7106097200000008 0 0 0
Y 0.00000000 4.96779186 1.27562492
Y 3.49827500 7.42096500 3.67962399
Y 3.49827500 2.47365500 3.66344560
Y 0.00000000 9.87413814 1.27562492
Bi 0.00000000 7.42096500 -1.236961309999998 0 0 0
Bi 3.49827500 0.00000000 -3.7106097200000008 0 0 0
Bi 0.00000000 2.47365500 -1.236961309999998 0 0 0
Bi 3.49827500 4.94731000 -3.7106097200000008 0 0 0
Bi 0.00000000 2.47365500 3.90475040
Bi 3.49827500 4.92445343 1.18458720
Bi 0.00000000 7.42096500 3.88418465
Bi 3.49827500 0.02285657 1.18458720
Pd 1.74913750 0.00000000 -1.236961309999998 0 0 0
Pd 5.24741250 4.94731000 -1.236961309999998 0 0 0
Pd 5.24741250 0.00000000 -1.236961309999998 0 0 0
Pd 1.74913750 4.94731000 -1.236961309999998 0 0 0
Pd 5.24741250 7.42096500 -3.7106097200000008 0 0 0
Pd 1.74913750 2.47365500 -3.7106097200000008 0 0 0
Pd 1.74913750 7.42096500 -3.7106097200000008 0 0 0
Pd 5.24741250 2.47365500 -3.7106097200000008 0 0 0
Pd 1.83512510 4.96749502 3.54526109
Pd 5.16142490 9.87443498 3.54526109
Pd 5.16142490 4.96749502 3.54526109
Pd 1.83512510 9.87443498 3.54526109
Pd 5.37006202 2.47365500 1.31977273
Pd 1.72933726 7.42096500 1.33430586
Pd 1.62648798 2.47365500 1.31977273
Pd 5.26721274 7.42096500 1.33430586
C 3.49827500 2.47365500 6.21305018
O 3.49827500 2.47365500 7.35540904
