&CONTROL
calculation = 'relax'
prefix = 'scf'
pseudo_dir = '/vol0004/mdt0/data/hp150275/u10028/POT_HYBRID_KKJUS_GBRV'
outdir = './data'
tprnfor = .true.
nstep = 50
disk_io = 'non'
/
&SYSTEM
ibrav = 0
ecutwfc = 50.0
ecutrho = 400
occupations = 'smearing'
smearing = 'mp'
degauss = 0.01
assume_isolated = 'esm'
esm_bc = 'bc1'
input_dft = 'BEEF-VDW'
nosym = .true.
nspin = 2
ntyp = 3
nat = 33
starting_magnetization(1) = 0.0
starting_magnetization(2) = 0.1
starting_magnetization(3) = 0.0
/
&ELECTRONS
electron_maxstep = 200
mixing_beta = 0.1
conv_thr = 1e-06
/
&IONS
ion_dynamics = 'bfgs'
upscale = 1.0
/
&CELL
/

K_POINTS {automatic}
7 7 2 0  0  0

ATOMIC_SPECIES
C 12.01 C.pbe-n-rrkjus_psl.1.0.0.UPF
Fe 55.84 fe_pbe_v1.5.uspp.F.UPF
Pt 195.0 Pt.pbe-n-rrkjus_psl.1.0.0.UPF

CELL_PARAMETERS {angstrom}
7.88854000 0.00000000 0.00000000
0.00000000 7.88854000 0.00000000
0.00000000 0.00000000 25.91640000

ATOMIC_POSITIONS {angstrom}
Fe 7.80649918 0.00000000 2.93477314
Fe 0.00000000 0.00000000 24.93028098
Fe 7.86132454 3.94427000 2.91378085
Fe 0.00000000 3.94427000 24.93028098
Fe 4.02607416 0.00000000 2.93425481
Fe 3.94427000 0.00000000 24.93028098
Fe 3.97132769 3.94427000 2.91274420
Fe 3.94427000 3.94427000 24.93028098
Pt 7.88293914 1.98854316 0.99078397
Pt 1.97221389 0.00000000 0.97860326
Pt 1.97174057 2.01007888 3.02211140
Pt 0.00000000 1.97213500 22.95830210
Pt 1.97213500 0.00000000 22.95830210
Pt 1.97213500 1.97213500 24.93028098
Pt 7.88293914 5.89999684 0.99078397
Pt 1.97213500 3.94427000 1.07786308
Pt 1.97174057 5.87854001 3.02211140
Pt 0.00000000 5.91640500 22.95830210
Pt 1.97213500 3.94427000 22.95830210
Pt 1.97213500 5.91640500 24.93028098
Pt 3.94994975 1.98854316 0.99104314
Pt 5.91656277 0.00000000 0.99441227
Pt 5.91664166 1.95643681 2.96639114
Pt 3.94427000 1.97213500 22.95830210
Pt 5.91640500 0.00000000 22.95830210
Pt 5.91640500 1.97213500 24.93028098
Pt 3.94994975 5.89999684 0.99104314
Pt 5.91648389 3.94427000 1.02110616
Pt 5.91664166 5.93210319 2.96639114
Pt 3.94427000 5.91640500 22.95830210
Pt 5.91640500 3.94427000 22.95830210
Pt 5.91640500 5.91640500 24.93028098
C 1.97237166 0.00000000 3.20274871
