&CONTROL
calculation = 'relax'
prefix = 'scf'
pseudo_dir = '/vol0004/mdt0/data/hp150275/u10028/POT_KKJUS'
outdir = './data'
tprnfor = .true.
nstep = 50
disk_io = 'non'
/
&SYSTEM
ibrav = 0
ecutwfc = 50.0
ecutrho = 400
occupations = 'smearing'
smearing = 'mp'
degauss = 0.01
assume_isolated = 'esm'
esm_bc = 'bc1'
input_dft = 'BEEF-VDW'
nosym = .true.
nspin = 1
ntyp = 5
nat = 18
/
&ELECTRONS
electron_maxstep = 200
mixing_beta = 0.1
conv_thr = 1e-06
/
&IONS
ion_dynamics = 'bfgs'
upscale = 1.0
/
&CELL
/

K_POINTS {automatic}
9 9 2 0  0  0

ATOMIC_SPECIES
C 12.01 C.pbe-n-rrkjus_psl.1.0.0.UPF
Cu 63.54 Cu.pbe-dn-rrkjus_psl.1.0.0.UPF
Li 6.941 Li.pbe-sl-rrkjus_psl.1.0.0.UPF
O 15.99 O.pbe-n-rrkjus_psl.1.0.0.UPF
Sb 121.7 Sb.pbe-n-rrkjus_psl.1.0.0.UPF

CELL_PARAMETERS {angstrom}
6.37457000 0.00000000 0.00000000
0.00000000 6.37457000 0.00000000
0.00000000 0.00000000 24.78090000

ATOMIC_POSITIONS {angstrom}
Li 6.37106399 6.37080900 0.92581442
Li 3.18728500 0.00000000 -2.39036561 0 0 0
Li 0.00000000 3.18728500 -2.39036561 0 0 0
Li 3.19066352 3.19047229 0.92581442
Li 1.59364250 1.59364250 -0.7967059299999981 0 0 0
Li 1.59364250 4.78060877 2.76034445
Li 4.78092750 4.78092750 -0.7967059299999981 0 0 0
Li 4.78092750 1.59338752 2.76009664
Cu 0.00000000 0.00000000 -2.39036561 0 0 0
Cu 3.18728500 3.18728500 -2.39036561 0 0 0
Cu 3.18530888 0.00172113 0.94960409
Cu 0.00210361 3.18479892 0.94985190
Sb 1.59383374 1.59306879 2.44488359
Sb 1.59364250 4.78092750 -0.7967059299999981 0 0 0
Sb 4.78099125 4.78054503 2.45430034
Sb 4.78092750 1.59364250 -0.7967059299999981 0 0 0
C 1.59224009 1.60524422 6.86604396
O 1.59402497 1.59051896 8.00100918
