&CONTROL
calculation = 'relax'
prefix = 'scf'
pseudo_dir = '/vol0403/data/hp230205/u10028/POT_HYBRID_KKJUS_GBRV'
outdir = './data'
tprnfor = .true.
nstep = 50
disk_io = 'non'
/
&SYSTEM
ibrav = 0
ecutwfc = 50.0
ecutrho = 400
occupations = 'smearing'
smearing = 'mp'
degauss = 0.01
assume_isolated = 'esm'
esm_bc = 'bc1'
input_dft = 'BEEF-VDW'
nosym = .true.
nspin = 1
ntyp = 6
nat = 18
/
&ELECTRONS
electron_maxstep = 200
mixing_beta = 0.1
conv_thr = 1e-06
/
&IONS
ion_dynamics = 'bfgs'
upscale = 1.0
/
&CELL
/

K_POINTS {automatic}
9 9 2 0  0  0

ATOMIC_SPECIES
C 12.01 C.pbe-n-rrkjus_psl.1.0.0.UPF
Cu 63.54 Cu.pbe-dn-rrkjus_psl.1.0.0.UPF
In 114.8 In.pbe-dn-rrkjus_psl.1.0.0.UPF
Li 6.941 Li.pbe-sl-rrkjus_psl.1.0.0.UPF
O 15.99 O.pbe-n-rrkjus_psl.1.0.0.UPF
Y 88.90 Y.pbe-spn-rrkjus_psl.1.0.0.UPF


CELL_PARAMETERS {angstrom}
6.68415000 0.00000000 0.00000000
0.00000000 6.68415000 0.00000000
0.00000000 0.00000000 25.01310000

ATOMIC_POSITIONS {angstrom}
Li 0.00000000 3.34207500 -2.5065627500000005 0 0 0
Li 6.67318799 6.67325484 0.90297291
Li 3.35123229 3.35123229 0.90572435
Li 3.34207500 0.00000000 -2.5065627500000005 0 0 0
Y 5.01311250 1.67103750 -0.8354375400000009 0 0 0
Y 5.01217672 5.01224356 2.72842895
Y 1.67157223 1.67157223 2.71617253
Y 1.67103750 5.01311250 -0.8354375400000009 0 0 0
In 1.67103750 1.67103750 -0.8354375400000009 0 0 0
In 1.67157223 5.01331302 2.54108083
In 5.01331302 1.67157223 2.54108083
In 5.01311250 5.01311250 -0.8354375400000009 0 0 0
Cu 0.00000000 0.00000000 -2.5065627500000005 0 0 0
Cu 6.66844225 3.35905274 0.87095614
Cu 3.35911958 6.66857593 0.87095614
Cu 3.34207500 3.34207500 -2.5065627500000005 0 0 0
C 1.68012794 1.68012794 5.21222978
O 1.68086320 1.68079636 6.35833002
