&CONTROL
calculation = 'relax'
prefix = 'scf'
pseudo_dir = '/vol0004/mdt0/data/hp150275/u10028/POT_KKJUS'
outdir = './data'
tprnfor = .true.
nstep = 50
disk_io = 'non'
/
&SYSTEM
ibrav = 0
ecutwfc = 50.0
ecutrho = 400
occupations = 'smearing'
smearing = 'mp'
degauss = 0.01
assume_isolated = 'esm'
esm_bc = 'bc1'
input_dft = 'BEEF-VDW'
nosym = .true.
nspin = 1
ntyp = 3
nat = 33
/
&ELECTRONS
electron_maxstep = 200
mixing_beta = 0.1
conv_thr = 1e-06
/
&IONS
ion_dynamics = 'bfgs'
upscale = 1.0
/
&CELL
/

K_POINTS {automatic}
7 7 2 0  0  0

ATOMIC_SPECIES
Au 196.9 Au.pbe-n-rrkjus_psl.1.0.0.UPF
C 12.01 C.pbe-n-rrkjus_psl.1.0.0.UPF
Ti 47.86 Ti.pbe-spn-rrkjus_psl.1.0.0.UPF

CELL_PARAMETERS {angstrom}
8.18271000 0.00000000 0.00000000
-0.00000000 8.18271000 0.00000000
0.00000000 0.00000000 26.13700000

ATOMIC_POSITIONS {angstrom}
Ti 0.00000000 2.04567750 1.02274081
Ti 2.04567750 -0.00000000 1.02274081
Ti 2.04567750 2.04567750 3.06848380
Ti 0.00000000 2.04567750 -3.068483799999999 0 0 0
Ti 2.04567750 0.00000000 -3.068483799999999 0 0 0
Ti 2.04567750 2.04567750 -1.022740810000002 0 0 0
Ti 0.00000000 6.13703250 1.02274081
Ti 2.04567750 4.09135500 1.02274081
Ti 2.04567750 6.13703250 3.06848380
Ti 0.00000000 6.13703250 -3.068483799999999 0 0 0
Ti 2.04567750 4.09135500 -3.068483799999999 0 0 0
Ti 2.04567750 6.13703250 -1.022740810000002 0 0 0
Ti 4.09135500 2.04567750 1.02274081
Ti 6.13703250 -0.00000000 1.02274081
Ti 6.13703250 2.04567750 3.06848380
Ti 4.09135500 2.04567750 -3.068483799999999 0 0 0
Ti 6.13703250 0.00000000 -3.068483799999999 0 0 0
Ti 6.13703250 2.04567750 -1.022740810000002 0 0 0
Ti 4.09135500 6.13703250 1.02274081
Ti 6.13703250 4.09135500 1.02274081
Ti 6.13703250 6.13703250 3.06848380
Ti 4.09135500 6.13703250 -3.068483799999999 0 0 0
Ti 6.13703250 4.09135500 -3.068483799999999 0 0 0
Ti 6.13703250 6.13703250 -1.022740810000002 0 0 0
Au 0.00000000 0.00000000 3.06848380
Au 0.00000000 0.00000000 -1.022740810000002 0 0 0
Au 0.00000000 4.09135500 3.06848380
Au 0.00000000 4.09135500 -1.022740810000002 0 0 0
Au 4.09135500 -0.00000000 3.06848380
Au 4.09135500 0.00000000 -1.022740810000002 0 0 0
Au 4.09135500 4.09135500 3.06848380
Au 4.09135500 4.09135500 -1.022740810000002 0 0 0
C 2.04567750 -0.00000000 3.86853737
