&CONTROL
calculation = 'relax'
prefix = 'scf'
pseudo_dir = '/vol0004/mdt0/data/hp150275/u10028/POT_HYBRID_KKJUS_GBRV'
outdir = './data'
tprnfor = .true.
nstep = 50
disk_io = 'non'
/
&SYSTEM
ibrav = 0
ecutwfc = 50.0
ecutrho = 400
occupations = 'smearing'
smearing = 'mp'
degauss = 0.01
assume_isolated = 'esm'
esm_bc = 'bc1'
input_dft = 'BEEF-VDW'
nosym = .true.
nspin = 2
ntyp = 4
nat = 33
starting_magnetization(1) = 0.0
starting_magnetization(2) = 0.0
starting_magnetization(3) = 0.1
starting_magnetization(4) = 0.001
/
&ELECTRONS
electron_maxstep = 300
mixing_beta = 0.1
conv_thr = 1e-06
/
&IONS
ion_dynamics = 'bfgs'
upscale = 1.0
/
&CELL
/

K_POINTS {automatic}
9 6 2 0  0  0

ATOMIC_SPECIES
C 12.01 C.pbe-n-rrkjus_psl.1.0.0.UPF
Ge 72.64 Ge.pbe-dn-rrkjus_psl.1.0.0.UPF
Mn 54.93 mn_pbe_v1.5.uspp.F.UPF
Ni 58.69 ni_pbe_v1.4.uspp.F.UPF

CELL_PARAMETERS {angstrom}
5.84248000 0.00000000 0.00000000
0.00000000 8.26252000 0.00000000
0.00000000 0.00000000 26.19690000

ATOMIC_POSITIONS {angstrom}
Mn 0.00000000 0.00000000 -3.09856933 0 0 0
Mn 2.92124000 2.06563000 -1.0329437699999993 0 0 0
Mn 2.92124000 6.19689000 -1.0329437699999993 0 0 0
Mn 0.00000000 4.13126000 -3.09856933 0 0 0
Mn 0.00000000 4.13084687 0.96326001
Mn 2.92124000 6.08270197 3.30447697
Mn 2.92124000 2.17998328 3.30447697
Mn 0.00000000 0.00000000 1.09555436
Ni 1.46062000 0.00000000 -1.0329437699999993 0 0 0
Ni 4.38186000 4.13126000 -1.0329437699999993 0 0 0
Ni 4.38186000 0.00000000 -1.0329437699999993 0 0 0
Ni 1.46062000 4.13126000 -1.0329437699999993 0 0 0
Ni 4.38186000 6.19689000 -3.09856933 0 0 0
Ni 1.46062000 2.06563000 -3.09856933 0 0 0
Ni 1.46062000 6.19689000 -3.09856933 0 0 0
Ni 4.38186000 2.06563000 -3.09856933 0 0 0
Ni 1.36503703 4.13167313 3.00059293
Ni 4.13162658 0.00000000 2.99247189
Ni 4.47744297 4.13167313 3.00059293
Ni 1.71085342 0.00000000 2.99247189
Ni 4.37677704 2.09149169 1.07354896
Ni 1.46430076 6.17044994 1.07302502
Ni 1.46570296 2.09149169 1.07354896
Ni 4.37817924 6.17044994 1.07302502
Ge 0.00000000 6.19689000 -1.0329437699999993 0 0 0
Ge 2.92124000 0.00000000 -3.09856933 0 0 0
Ge 0.00000000 2.06563000 -1.0329437699999993 0 0 0
Ge 2.92124000 4.13126000 -3.09856933 0 0 0
Ge 0.00000000 2.07860216 3.20309496
Ge 2.92124000 4.13307775 1.06830958
Ge 0.00000000 6.18457885 3.20152315
Ge 2.92124000 8.25954549 0.92291679
C 0.00000000 0.00057838 3.53422378
