&CONTROL
calculation = 'relax'
prefix = 'scf'
pseudo_dir = '/vol0004/mdt0/data/hp150275/u10028/POT_KKJUS'
outdir = './data'
tprnfor = .true.
nstep = 50
disk_io = 'non'
/
&SYSTEM
ibrav = 0
ecutwfc = 50.0
ecutrho = 400
occupations = 'smearing'
smearing = 'mp'
degauss = 0.01
assume_isolated = 'esm'
esm_bc = 'bc1'
input_dft = 'BEEF-VDW'
nosym = .true.
nspin = 1
ntyp = 4
nat = 34
/
&ELECTRONS
electron_maxstep = 200
mixing_beta = 0.1
conv_thr = 1e-06
/
&IONS
ion_dynamics = 'bfgs'
upscale = 1.0
/
&CELL
/

K_POINTS {automatic}
8 6 1 0 0 0

ATOMIC_SPECIES
C 12.01 C.pbe-n-rrkjus_psl.1.0.0.UPF
Ni 58.69 Ni.pbe-spn-rrkjus_psl.1.0.0.UPF
O 15.99 O.pbe-n-rrkjus_psl.1.0.0.UPF
Ti 47.86 Ti.pbe-spn-rrkjus_psl.1.0.0.UPF

CELL_PARAMETERS {angstrom}
6.05499000 0.00000000 0.00000000
0.00000000 8.56306000 0.00000000
0.00000000 0.00000000 26.42230000

ATOMIC_POSITIONS {angstrom}
Ti 1.51374750 2.14076500 -3.2111021199999996 0 0 0
Ti 1.51374750 4.28153000 -1.0703673699999996 0 0 0
Ti 1.51501905 2.09306876 1.02677058
Ti 1.51459520 4.28153000 3.25549158
Ti 1.51374750 6.42229500 -3.2111021199999996 0 0 0
Ti 1.51374750 0.00000000 -1.0703673699999996 0 0 0
Ti 1.51501905 6.46999124 1.02677058
Ti 1.51538235 0.00000000 3.22616283
Ti 4.54124250 2.14076500 -3.2111021199999996 0 0 0
Ti 4.54124250 4.28153000 -1.0703673699999996 0 0 0
Ti 4.54209020 2.17133512 1.04870109
Ti 4.54172690 4.28153000 3.24756489
Ti 4.54124250 6.42229500 -3.2111021199999996 0 0 0
Ti 4.54124250 0.00000000 -1.0703673699999996 0 0 0
Ti 4.54209020 6.39172488 1.04843686
Ti 4.54318010 0.00000000 3.32418956
Ni 0.00000000 0.00000000 -3.2111021199999996 0 0 0
Ni 0.00000000 2.14076500 -1.0703673699999996 0 0 0
Ni 0.07574792 4.28187252 1.22203138
Ni 6.05153866 2.14821486 2.97488676
Ni 0.00000000 4.28153000 -3.2111021199999996 0 0 0
Ni 0.00000000 6.42229500 -1.0703673699999996 0 0 0
Ni 5.88314938 8.56288874 1.20591377
Ni 6.05165976 6.41493077 2.97462253
Ni 3.02749500 0.00000000 -3.2111021199999996 0 0 0
Ni 3.02749500 2.14076500 -1.0703673699999996 0 0 0
Ni 2.95126268 4.28178689 1.22071026
Ni 3.03294449 2.14752982 2.97462253
Ni 3.02749500 4.28153000 -3.2111021199999996 0 0 0
Ni 3.02749500 6.42229500 -1.0703673699999996 0 0 0
Ni 3.21368594 8.56288874 1.20723489
Ni 3.03282339 6.41561581 2.97435831
C 1.50448337 0.00000000 5.31590254
O 1.50381732 0.00000000 6.47425617
