&CONTROL
calculation = 'relax'
prefix = 'scf'
pseudo_dir = '/vol0004/mdt0/data/hp150275/u10028/POT_KKJUS'
outdir = './data'
tprnfor = .true.
nstep = 50
disk_io = 'non'
/
&SYSTEM
ibrav = 0
ecutwfc = 50.0
ecutrho = 400
occupations = 'smearing'
smearing = 'mp'
degauss = 0.01
assume_isolated = 'esm'
esm_bc = 'bc1'
input_dft = 'BEEF-VDW'
nosym = .true.
nspin = 1
ntyp = 5
nat = 34
/
&ELECTRONS
electron_maxstep = 200
mixing_beta = 0.1
conv_thr = 1e-06
/
&IONS
ion_dynamics = 'bfgs'
upscale = 1.0
/
&CELL
/

K_POINTS {automatic}
8 6 1 0 0 0

ATOMIC_SPECIES
C 12.01 C.pbe-n-rrkjus_psl.1.0.0.UPF
Cu 63.54 Cu.pbe-dn-rrkjus_psl.1.0.0.UPF
O 15.99 O.pbe-n-rrkjus_psl.1.0.0.UPF
Zn 65.40 Zn.pbe-dnl-rrkjus_psl.1.0.0.UPF
Zr 91.22 Zr.pbe-spn-rrkjus_psl.1.0.0.UPF

CELL_PARAMETERS {angstrom}
6.25397000 0.00000000 0.00000000
0.00000000 8.84445000 0.00000000
0.00000000 0.00000000 26.63330000

ATOMIC_POSITIONS {angstrom}
Zr 0.00000000 0.00000000 -3.3166448499999994 0 0 0
Zr 3.12698500 2.21111250 -1.1055482799999972 0 0 0
Zr 3.12698500 6.63333750 -1.1055482799999972 0 0 0
Zr 0.00000000 4.42222500 -3.3166448499999994 0 0 0
Zr 6.21813475 4.38852765 1.08264364
Zr 3.05418879 6.71276066 3.44368569
Zr 3.07726594 1.89571941 3.57152553
Zr 6.25040524 0.05474715 1.06107067
Zn 0.00000000 6.63333750 -1.1055482799999972 0 0 0
Zn 3.12698500 0.00000000 -3.3166448499999994 0 0 0
Zn 0.00000000 2.21111250 -1.1055482799999972 0 0 0
Zn 3.12698500 4.42222500 -3.3166448499999994 0 0 0
Zn 6.22101158 2.17405425 3.09585479
Zn 3.11547770 4.48395926 0.96385913
Zn 6.21125538 6.41532181 3.11982476
Zn 3.10891103 8.82711488 1.03070871
Cu 1.56349250 0.00000000 -1.1055482799999972 0 0 0
Cu 4.69047750 4.42222500 -1.1055482799999972 0 0 0
Cu 4.69047750 0.00000000 -1.1055482799999972 0 0 0
Cu 1.56349250 4.42222500 -1.1055482799999972 0 0 0
Cu 4.69047750 6.63333750 -3.3166448499999994 0 0 0
Cu 1.56349250 2.21111250 -3.3166448499999994 0 0 0
Cu 1.56349250 6.63333750 -3.3166448499999994 0 0 0
Cu 4.69047750 2.21111250 -3.3166448499999994 0 0 0
Cu 1.72209318 4.25382667 3.16989537
Cu 4.82981595 8.64757254 3.24180528
Cu 4.46702315 4.27337291 3.13553841
Cu 1.17680953 8.65995477 3.39068542
Cu 4.49310221 2.23092407 1.19823217
Cu 1.60308013 6.66066685 1.09356330
Cu 1.71052333 2.23596540 1.16627221
Cu 4.59360350 6.67490642 1.14576457
C 3.03442624 8.49244089 4.60356590
O 3.02123037 0.71047467 5.33971032
