&CONTROL
calculation = 'relax'
prefix = 'scf'
pseudo_dir = '/vol0403/data/hp230205/u10028/POT_HYBRID_KKJUS_GBRV'
outdir = './data'
tprnfor = .true.
nstep = 50
disk_io = 'non'
/
&SYSTEM
ibrav = 0
ecutwfc = 50.0
ecutrho = 400
occupations = 'smearing'
smearing = 'mp'
degauss = 0.01
assume_isolated = 'esm'
esm_bc = 'bc1'
input_dft = 'BEEF-VDW'
nosym = .true.
nspin = 1
ntyp = 5
nat = 33
/
&ELECTRONS
electron_maxstep = 200
mixing_beta = 0.1
conv_thr = 1e-06
/
&IONS
ion_dynamics = 'bfgs'
upscale = 1.0
/
&CELL
/

K_POINTS {automatic}
6 6 1 0 0 0

ATOMIC_SPECIES
Ag 107.8 Ag.pbe-n-rrkjus_psl.1.0.0.UPF
C 12.01 C.pbe-n-rrkjus_psl.1.0.0.UPF
Ge 72.64 Ge.pbe-dn-rrkjus_psl.1.0.0.UPF
Li 6.941 Li.pbe-sl-rrkjus_psl.1.0.0.UPF
Zn 65.40 Zn.pbe-dnl-rrkjus_psl.1.0.0.UPF


CELL_PARAMETERS {angstrom}
6.35563000 0.00000000 0.00000000
0.00000000 8.98822000 0.00000000
0.00000000 0.00000000 26.74120000

ATOMIC_POSITIONS {angstrom}
Li 4.76672250 0.00000000 -1.1233978100000002 0 0 0
Li 4.76672250 4.49411000 -1.1233978100000002 0 0 0
Li 1.58890750 2.24705500 -3.3704608500000006 0 0 0
Li 1.58890750 6.74116500 -3.3704608500000006 0 0 0
Li 4.76500648 4.34886036 3.91491168
Li 4.76500648 0.14524964 3.91491168
Li 1.57123885 6.74116500 1.20014506
Li 1.69371184 2.24705500 1.22127060
Zn 1.58890750 0.00000000 -1.1233978100000002 0 0 0
Zn 1.58890750 4.49411000 -1.1233978100000002 0 0 0
Zn 4.76672250 2.24705500 -3.3704608500000006 0 0 0
Zn 4.76672250 6.74116500 -3.3704608500000006 0 0 0
Zn 1.60803795 4.73769076 3.39399310
Zn 1.60803795 8.74463924 3.39399310
Zn 4.85334974 6.74116500 1.06697388
Zn 4.43495861 2.24705500 1.74325883
Ag 0.00000000 0.00000000 -3.3704608500000006 0 0 0
Ag 0.00000000 4.49411000 -3.3704608500000006 0 0 0
Ag 3.17781500 6.74116500 -1.1233978100000002 0 0 0
Ag 3.17781500 2.24705500 -1.1233978100000002 0 0 0
Ag 6.27090945 4.35883729 1.19426199
Ag 6.27084590 0.13518283 1.19426199
Ag 2.77054623 2.24705500 4.33314405
Ag 3.44977241 6.74116500 3.47421670
Ge 0.00000000 2.24705500 -1.1233978100000002 0 0 0
Ge 0.00000000 6.74116500 -1.1233978100000002 0 0 0
Ge 3.17781500 4.49411000 -3.3704608500000006 0 0 0
Ge 3.17781500 0.00000000 -3.3704608500000006 0 0 0
Ge 6.24904608 6.74116500 3.42634996
Ge 0.32426424 2.24705500 3.67958912
Ge 3.24588380 8.91667377 1.26699806
Ge 3.24588380 4.56556635 1.26699806
C 4.84832879 2.24705500 3.85233727
