&CONTROL
calculation = 'relax'
prefix = 'scf'
pseudo_dir = '/vol0403/data/hp230205/u10028/POT_HYBRID_KKJUS_GBRV'
outdir = './data'
tprnfor = .true.
nstep = 50
disk_io = 'non'
/
&SYSTEM
ibrav = 0
ecutwfc = 50.0
ecutrho = 400
occupations = 'smearing'
smearing = 'mp'
degauss = 0.01
assume_isolated = 'esm'
esm_bc = 'bc1'
input_dft = 'BEEF-VDW'
nosym = .true.
nspin = 1
ntyp = 5
nat = 33
/
&ELECTRONS
electron_maxstep = 200
mixing_beta = 0.1
conv_thr = 1e-06
/
&IONS
ion_dynamics = 'bfgs'
upscale = 1.0
/
&CELL
/

K_POINTS {automatic}
9 6 2 0  0  0

ATOMIC_SPECIES
C 12.01 C.pbe-n-rrkjus_psl.1.0.0.UPF
Cu 63.54 Cu.pbe-dn-rrkjus_psl.1.0.0.UPF
Ge 72.64 Ge.pbe-dn-rrkjus_psl.1.0.0.UPF
Li 6.941 Li.pbe-sl-rrkjus_psl.1.0.0.UPF
Y 88.90 Y.pbe-spn-rrkjus_psl.1.0.0.UPF


CELL_PARAMETERS {angstrom}
6.66034000 0.00000000 0.00000000
0.00000000 9.41914000 0.00000000
0.00000000 0.00000000 27.06440000

ATOMIC_POSITIONS {angstrom}
Li 4.99525500 0.00000000 -1.1773013999999975 0 0 0
Li 4.99525500 4.70957000 -1.1773013999999975 0 0 0
Li 1.66508500 2.35478500 -3.5321748399999997 0 0 0
Li 1.66508500 7.06435500 -3.5321748399999997 0 0 0
Li 6.13217504 4.70919323 3.99091642
Li 6.07203217 9.41857485 3.83935578
Li 1.85763543 7.03025771 1.07391539
Li 1.85796845 2.40112717 1.07526861
Y 1.66508500 0.00000000 -1.1773013999999975 0 0 0
Y 1.66508500 4.70957000 -1.1773013999999975 0 0 0
Y 4.99525500 2.35478500 -3.5321748399999997 0 0 0
Y 4.99525500 7.06435500 -3.5321748399999997 0 0 0
Y 2.76750448 4.71013515 3.81039688
Y 2.87320407 9.41782132 3.79659403
Y 5.25221092 7.21167035 1.49855583
Y 5.25181130 2.21086054 1.49936776
Cu 0.00000000 0.00000000 -3.5321748399999997 0 0 0
Cu 0.00000000 4.70957000 -3.5321748399999997 0 0 0
Cu 3.33017000 7.06435500 -1.1773013999999975 0 0 0
Cu 3.33017000 2.35478500 -1.1773013999999975 0 0 0
Cu 0.82821328 4.71672855 1.76486952
Cu 0.86584420 0.00697016 1.81629188
Cu 4.95329486 2.48768907 4.31027634
Cu 4.95362787 6.93211027 4.31027634
Ge 0.00000000 2.35478500 -1.1773013999999975 0 0 0
Ge 0.00000000 7.06435500 -1.1773013999999975 0 0 0
Ge 3.33017000 4.70957000 -3.5321748399999997 0 0 0
Ge 3.33017000 0.00000000 -3.5321748399999997 0 0 0
Ge 0.83640550 7.02827969 3.60633130
Ge 0.83613908 2.38944744 3.60930838
Ge 3.31418518 0.00254317 0.92343733
Ge 3.49115042 4.71230155 1.07202088
C 4.67196210 0.00150706 2.32753840
