&CONTROL
calculation = 'relax'
prefix = 'scf'
pseudo_dir = '/vol0004/mdt0/data/hp150275/u10028/POT_KKJUS'
outdir = './data'
tprnfor = .true.
nstep = 50
disk_io = 'non'
/
&SYSTEM
ibrav = 0
ecutwfc = 50.0
ecutrho = 400
occupations = 'smearing'
smearing = 'mp'
degauss = 0.01
assume_isolated = 'esm'
esm_bc = 'bc1'
input_dft = 'BEEF-VDW'
nosym = .true.
nspin = 1
ntyp = 4
nat = 34
/
&ELECTRONS
electron_maxstep = 200
mixing_beta = 0.1
conv_thr = 1e-06
/
&IONS
ion_dynamics = 'bfgs'
upscale = 1.0
/
&CELL
/

K_POINTS {automatic}
8 6 1 0 0 0

ATOMIC_SPECIES
C 12.01 C.pbe-n-rrkjus_psl.1.0.0.UPF
Mg 24.30 Mg.pbe-spnl-rrkjus_psl.1.0.0.UPF
O 15.99 O.pbe-n-rrkjus_psl.1.0.0.UPF
Rh 102.9 Rh.pbe-spn-rrkjus_psl.1.0.0.UPF

CELL_PARAMETERS {angstrom}
6.29180000 0.00000000 0.00000000
0.00000000 8.89794000 0.00000000
0.00000000 0.00000000 26.67350000

ATOMIC_POSITIONS {angstrom}
Mg 0.00000000 0.00000000 -3.3368548500000017 0 0 0
Mg 0.00000000 2.22448500 -1.1122849499999994 0 0 0
Mg 6.28173312 0.00000000 1.08881227
Mg 0.00434134 2.21638787 3.38780124
Mg 0.00000000 4.44897000 -3.3368548500000017 0 0 0
Mg 0.00000000 6.67345500 -1.1122849499999994 0 0 0
Mg 6.28928328 4.44914796 1.07840961
Mg 0.00440426 6.68181906 3.38753450
Mg 3.14590000 0.00000000 -3.3368548500000017 0 0 0
Mg 3.14590000 2.22448500 -1.1122849499999994 0 0 0
Mg 3.15250639 0.00000000 1.09014594
Mg 3.14420121 2.21184993 3.38966838
Mg 3.14590000 4.44897000 -3.3368548500000017 0 0 0
Mg 3.14590000 6.67345500 -1.1122849499999994 0 0 0
Mg 3.14866839 4.44941490 1.07787614
Mg 3.14394954 6.68626803 3.38993512
Rh 1.57295000 2.22448500 -3.3368548500000017 0 0 0
Rh 1.57295000 4.44897000 -1.1122849499999994 0 0 0
Rh 1.57370502 2.21478625 1.12268762
Rh 1.56955243 0.00026694 3.41554168
Rh 1.57295000 6.67345500 -3.3368548500000017 0 0 0
Rh 1.57295000 0.00000000 -1.1122849499999994 0 0 0
Rh 1.57370502 6.68350967 1.12242088
Rh 1.57597006 4.44843612 3.20882205
Rh 4.71885000 2.22448500 -3.3368548500000017 0 0 0
Rh 4.71885000 4.44897000 -1.1122849499999994 0 0 0
Rh 4.71891292 2.22510786 1.12375456
Rh 4.71922751 0.00044490 3.24296413
Rh 4.71885000 6.67345500 -3.3368548500000017 0 0 0
Rh 4.71885000 0.00000000 -1.1122849499999994 0 0 0
Rh 4.71878708 6.67292112 1.12375456
Rh 4.71790623 4.44932592 3.22429268
C 1.55728342 8.89785102 5.26374849
O 1.55319375 8.89785102 6.42911370
