&CONTROL
calculation = 'relax'
prefix = 'scf'
pseudo_dir = '/vol0004/mdt0/data/hp150275/u10028/POT_HYBRID_KKJUS_GBRV'
outdir = './data'
tprnfor = .true.
nstep = 50
disk_io = 'non'
/
&SYSTEM
ibrav = 0
ecutwfc = 50.0
ecutrho = 400
occupations = 'smearing'
smearing = 'mp'
degauss = 0.01
assume_isolated = 'esm'
esm_bc = 'bc1'
input_dft = 'BEEF-VDW'
nosym = .true.
nspin = 2
ntyp = 5
nat = 34
starting_magnetization(1) = 0.0
starting_magnetization(2) = 0.1
starting_magnetization(3) = 0.1
starting_magnetization(4) = 0.0
starting_magnetization(5) = 0.0
/
&ELECTRONS
electron_maxstep = 200
mixing_beta = 0.1
conv_thr = 1e-06
/
&IONS
ion_dynamics = 'bfgs'
upscale = 1.0
/
&CELL
/

K_POINTS {automatic}
9 6 2 0  0  0

ATOMIC_SPECIES
C 12.01 C.pbe-n-rrkjus_psl.1.0.0.UPF
Co 58.93 co_pbe_v1.2.uspp.F.UPF
Fe 55.84 fe_pbe_v1.5.uspp.F.UPF
In 114.8 In.pbe-dn-rrkjus_psl.1.0.0.UPF
O 15.99 O.pbe-n-rrkjus_psl.1.0.0.UPF

CELL_PARAMETERS {angstrom}
6.01864000 0.00000000 0.00000000
0.00000000 8.51164000 0.00000000
0.00000000 0.00000000 26.38370000

ATOMIC_POSITIONS {angstrom}
In 0.00000000 0.00000000 23.19179997
In 3.00932000 2.12791000 25.31964538
In 3.00932000 6.38373000 25.31964538
In 0.00000000 4.25582000 23.19179997
In 0.00078242 4.25973535 1.00732967
In 3.00865795 6.38287884 3.63989525
In 3.00859776 2.12901651 3.60058354
In 0.00036112 8.50797999 1.00601048
Fe 0.00000000 6.38373000 25.31964538
Fe 3.00932000 0.00000000 23.19179997
Fe 0.00000000 2.12791000 25.31964538
Fe 3.00932000 4.25582000 23.19179997
Fe 6.01857981 2.12782488 3.02964027
Fe 3.00968112 4.25513907 1.10653238
Fe 6.01851963 6.38381512 3.03861073
Fe 3.00962093 0.00085116 1.10600470
Co 1.50466000 0.00000000 25.31964538
Co 4.51398000 4.25582000 25.31964538
Co 4.51398000 0.00000000 25.31964538
Co 1.50466000 4.25582000 25.31964538
Co 4.51398000 6.38373000 23.19179997
Co 1.50466000 2.12791000 23.19179997
Co 1.50466000 6.38373000 23.19179997
Co 4.51398000 2.12791000 23.19179997
Co 1.49918304 4.25973535 3.09744638
Co 4.52072088 8.50763953 3.09665487
Co 4.51927640 4.25982047 3.09691871
Co 1.49785894 8.50772465 3.09691871
Co 4.43904793 2.12765465 1.16246582
Co 1.59162935 6.38398535 1.17697686
Co 1.57965225 2.12756953 1.16246582
Co 4.42701065 6.38390023 1.17697686
C 3.00932000 2.12773977 7.27873516
O 3.00895888 2.12850581 8.41349809
