&CONTROL
calculation = 'relax'
prefix = 'scf'
pseudo_dir = '/vol0403/data/hp230205/u10028/POT_HYBRID_KKJUS_GBRV'
outdir = './data'
tprnfor = .true.
nstep = 50
disk_io = 'non'
/
&SYSTEM
ibrav = 0
ecutwfc = 50.0
ecutrho = 400
occupations = 'smearing'
smearing = 'mp'
degauss = 0.01
assume_isolated = 'esm'
esm_bc = 'bc1'
input_dft = 'BEEF-VDW'
nosym = .true.
nspin = 1
ntyp = 6
nat = 18
/
&ELECTRONS
electron_maxstep = 200
mixing_beta = 0.1
conv_thr = 1e-06
/
&IONS
ion_dynamics = 'bfgs'
upscale = 1.0
/
&CELL
/

K_POINTS {automatic}
8 8 1 0 0 0

ATOMIC_SPECIES
C 12.01 C.pbe-n-rrkjus_psl.1.0.0.UPF
Cu 63.54 Cu.pbe-dn-rrkjus_psl.1.0.0.UPF
Ge 72.64 Ge.pbe-dn-rrkjus_psl.1.0.0.UPF
Li 6.941 Li.pbe-sl-rrkjus_psl.1.0.0.UPF
O 15.99 O.pbe-n-rrkjus_psl.1.0.0.UPF
Pd 106.4 Pd.pbe-n-rrkjus_psl.1.0.0.UPF


CELL_PARAMETERS {angstrom}
6.04231000 0.00000000 0.00000000
0.00000000 6.04231000 0.00000000
0.00000000 0.00000000 24.53170000

ATOMIC_POSITIONS {angstrom}
Li 1.51057750 1.51057750 -0.7553310400000015 0 0 0
Li 1.50936904 4.53457239 2.52774637
Li 4.53457239 1.50936904 2.52774637
Li 4.53173250 4.53173250 -0.7553310400000015 0 0 0
Cu 0.00000000 0.00000000 -2.2657478100000006 0 0 0
Cu 5.98962106 3.07336056 0.84119199
Cu 3.07342098 5.98968148 0.84119199
Cu 3.02115500 3.02115500 -2.2657478100000006 0 0 0
Ge 4.53173250 1.51057750 -0.7553310400000015 0 0 0
Ge 4.53324308 4.53324308 2.32217072
Ge 1.50973158 1.50973158 2.08911957
Ge 1.51057750 4.53173250 -0.7553310400000015 0 0 0
Pd 0.00000000 3.02115500 -2.2657478100000006 0 0 0
Pd 6.00085975 6.00092018 0.85419379
Pd 3.06326990 3.06326990 0.85738292
Pd 3.02115500 0.00000000 -2.2657478100000006 0 0 0
C 1.50725423 1.50725423 4.00087495
O 1.50888565 1.50882523 5.17201831
