&CONTROL
calculation = 'relax'
prefix = 'scf'
pseudo_dir = '/vol0004/mdt0/data/hp150275/u10028/POT_KKJUS'
outdir = './data'
tprnfor = .true.
nstep = 50
disk_io = 'non'
/
&SYSTEM
ibrav = 0
ecutwfc = 50.0
ecutrho = 400
occupations = 'smearing'
smearing = 'mp'
degauss = 0.01
assume_isolated = 'esm'
esm_bc = 'bc1'
input_dft = 'BEEF-VDW'
nosym = .true.
nspin = 1
ntyp = 2
nat = 32
/
&ELECTRONS
electron_maxstep = 200
mixing_beta = 0.1
conv_thr = 1e-06
/
&IONS
ion_dynamics = 'bfgs'
upscale = 1.0
/
&CELL
/

K_POINTS {automatic}
8 6 1 0 0 0

ATOMIC_SPECIES
Sc 44.95 Sc.pbe-spn-rrkjus_psl.1.0.0.UPF
Zn 65.40 Zn.pbe-dnl-rrkjus_psl.1.0.0.UPF

CELL_PARAMETERS {angstrom}
6.70510000 0.00000000 0.00000000
0.00000000 9.48244000 0.00000000
0.00000000 0.00000000 27.11180000

ATOMIC_POSITIONS {angstrom}
Sc 0.00000000 0.00000000 -3.555983689999998 0 0 0
Sc 0.00000000 2.37061000 -1.1853278999999972 0 0 0
Sc 0.00000000 9.48225035 1.17827883
Sc 0.00000000 2.37061000 3.55273027
Sc 0.00000000 4.74122000 -3.555983689999998 0 0 0
Sc 0.00000000 7.11183000 -1.1853278999999972 0 0 0
Sc 0.00000000 4.74140965 1.17827883
Sc 0.00000000 7.11183000 3.55273027
Sc 3.35255000 0.00000000 -3.555983689999998 0 0 0
Sc 3.35255000 2.37061000 -1.1853278999999972 0 0 0
Sc 3.35255000 9.48225035 1.17827883
Sc 3.35255000 2.37061000 3.55300139
Sc 3.35255000 4.74122000 -3.555983689999998 0 0 0
Sc 3.35255000 7.11183000 -1.1853278999999972 0 0 0
Sc 3.35255000 4.74131482 1.17827883
Sc 3.35255000 7.11183000 3.55300139
Zn 1.67627500 2.37061000 -3.555983689999998 0 0 0
Zn 1.67627500 0.00000000 -1.1853278999999972 0 0 0
Zn 1.67701256 2.37051518 1.18370119
Zn 1.67707961 0.00037930 3.54839238
Zn 1.67627500 7.11183000 -3.555983689999998 0 0 0
Zn 1.67627500 4.74122000 -1.1853278999999972 0 0 0
Zn 1.67701256 7.11201965 1.18343007
Zn 1.67707961 4.74084070 3.54839238
Zn 5.02882500 2.37061000 -3.555983689999998 0 0 0
Zn 5.02882500 0.00000000 -1.1853278999999972 0 0 0
Zn 5.02815449 2.37042035 1.18370119
Zn 5.02802039 0.00037930 3.54839238
Zn 5.02882500 7.11183000 -3.555983689999998 0 0 0
Zn 5.02882500 4.74122000 -1.1853278999999972 0 0 0
Zn 5.02815449 7.11201965 1.18343007
Zn 5.02802039 4.74084070 3.54839238
