&CONTROL
calculation = 'relax'
prefix = 'scf'
pseudo_dir = '/vol0004/mdt0/data/hp150275/u10028/POT_KKJUS'
outdir = './data'
tprnfor = .true.
nstep = 50
disk_io = 'non'
/
&SYSTEM
ibrav = 0
ecutwfc = 50.0
ecutrho = 400
occupations = 'smearing'
smearing = 'mp'
degauss = 0.01
assume_isolated = 'esm'
esm_bc = 'bc1'
input_dft = 'BEEF-VDW'
nosym = .true.
nspin = 1
ntyp = 5
nat = 34
/
&ELECTRONS
electron_maxstep = 200
mixing_beta = 0.1
conv_thr = 1e-06
/
&IONS
ion_dynamics = 'bfgs'
upscale = 1.0
/
&CELL
/

K_POINTS {automatic}
9 6 2 0  0  0

ATOMIC_SPECIES
C 12.01 C.pbe-n-rrkjus_psl.1.0.0.UPF
Li 6.941 Li.pbe-sl-rrkjus_psl.1.0.0.UPF
O 15.99 O.pbe-n-rrkjus_psl.1.0.0.UPF
Pd 106.4 Pd.pbe-n-rrkjus_psl.1.0.0.UPF
Sb 121.7 Sb.pbe-n-rrkjus_psl.1.0.0.UPF

CELL_PARAMETERS {angstrom}
6.43375000 0.00000000 0.00000000
0.00000000 9.09870000 0.00000000
0.00000000 0.00000000 26.82400000

ATOMIC_POSITIONS {angstrom}
Li 0.00000000 6.82402500 -1.1373376000000022 0 0 0
Li 3.21687500 0.00000000 -3.412012800000003 0 0 0
Li 0.00000000 2.27467500 -1.1373376000000022 0 0 0
Li 3.21687500 4.54935000 -3.412012800000003 0 0 0
Li 1.60843750 2.27467500 -3.412012800000003 0 0 0
Li 1.60843750 6.82402500 -3.412012800000003 0 0 0
Li 4.82531250 4.54935000 -1.1373376000000022 0 0 0
Li 4.82531250 0.00000000 -1.1373376000000022 0 0 0
Li 0.16142279 2.27067157 3.35836480
Li 3.28146985 4.54935000 1.01528840
Li 0.16142279 6.82793744 3.35809656
Li 3.30900630 0.00000000 1.02172616
Li 1.69966808 6.82366105 1.19152208
Li 1.69966808 2.27494796 1.19152208
Li 4.69541509 0.00000000 3.47290328
Li 4.65520415 4.54935000 3.35675536
Sb 0.00000000 0.00000000 -3.412012800000003 0 0 0
Sb 3.21687500 2.27467500 -1.1373376000000022 0 0 0
Sb 3.21687500 6.82402500 -1.1373376000000022 0 0 0
Sb 0.00000000 4.54935000 -3.412012800000003 0 0 0
Sb 6.39418244 4.54935000 1.16067448
Sb 3.15453196 6.81101386 3.62204472
Sb 3.15453196 2.28768614 3.62204472
Sb 6.40544150 0.00000000 1.18052424
Pd 1.60843750 0.00000000 -1.1373376000000022 0 0 0
Pd 1.60843750 4.54935000 -1.1373376000000022 0 0 0
Pd 4.82531250 6.82402500 -3.412012800000003 0 0 0
Pd 4.82531250 2.27467500 -3.412012800000003 0 0 0
Pd 1.76998896 4.54935000 3.08744240
Pd 1.83529153 0.00000000 3.07537160
Pd 4.76387019 2.26930677 1.29103912
Pd 4.76387019 6.82939323 1.29103912
C 5.12525392 0.00009099 5.54049720
O 5.17254199 0.00009099 6.68051720
