&CONTROL
calculation = 'relax'
prefix = 'scf'
pseudo_dir = '/vol0004/mdt0/data/hp150275/u10028/POT_KKJUS'
outdir = './data'
tprnfor = .true.
nstep = 50
disk_io = 'non'
/
&SYSTEM
ibrav = 0
ecutwfc = 50.0
ecutrho = 400
occupations = 'smearing'
smearing = 'mp'
degauss = 0.01
assume_isolated = 'esm'
esm_bc = 'bc1'
input_dft = 'BEEF-VDW'
nosym = .true.
nspin = 1
ntyp = 4
nat = 18
/
&ELECTRONS
electron_maxstep = 200
mixing_beta = 0.1
conv_thr = 1e-06
/
&IONS
ion_dynamics = 'bfgs'
upscale = 1.0
/
&CELL
/

K_POINTS {automatic}
10 10 2 0  0  0

ATOMIC_SPECIES
C 12.01 C.pbe-n-rrkjus_psl.1.0.0.UPF
Ga 69.72 Ga.pbe-dnl-rrkjus_psl.1.0.0.UPF
Ni 58.69 Ni.pbe-spn-rrkjus_psl.1.0.0.UPF
O 15.99 O.pbe-n-rrkjus_psl.1.0.0.UPF

CELL_PARAMETERS {angstrom}
5.87849000 0.00000000 0.00000000
0.00000000 5.87849000 0.00000000
0.00000000 0.00000000 24.40890000

ATOMIC_POSITIONS {angstrom}
Ga 0.00000000 0.00000000 -2.1413927999999984 0 0 0
Ga 0.00399737 0.00440887 0.87945267
Ga 0.00000000 2.93924500 -2.1413927999999984 0 0 0
Ga 0.00446765 2.93465978 0.87994084
Ga 2.93924500 0.00000000 -2.1413927999999984 0 0 0
Ga 2.93518884 0.00370345 0.87847631
Ga 2.93924500 2.93924500 -2.1413927999999984 0 0 0
Ga 2.93465978 2.93536520 0.87896449
Ni 1.46962250 1.46962250 -0.6717329299999975 0 0 0
Ni 1.47338473 1.47291445 2.31152283
Ni 1.46962250 4.40886750 -0.6717329299999975 0 0 0
Ni 1.46915222 4.40916142 2.17458890
Ni 4.40886750 1.46962250 -0.6717329299999975 0 0 0
Ni 4.40798573 1.46903465 2.17239210
Ni 4.40886750 4.40886750 -0.6717329299999975 0 0 0
Ni 4.40833844 4.40780937 2.14505413
C 1.47003399 1.46944615 4.09581342
O 1.46944615 1.47032792 5.24840168
