&CONTROL
calculation = 'relax'
prefix = 'scf'
pseudo_dir = '/vol0004/mdt0/data/hp150275/u10028/POT_KKJUS'
outdir = './data'
tprnfor = .true.
nstep = 50
disk_io = 'non'
/
&SYSTEM
ibrav = 0
ecutwfc = 50.0
ecutrho = 400
occupations = 'smearing'
smearing = 'mp'
degauss = 0.01
assume_isolated = 'esm'
esm_bc = 'bc1'
input_dft = 'BEEF-VDW'
nosym = .true.
nspin = 1
ntyp = 3
nat = 17
/
&ELECTRONS
electron_maxstep = 200
mixing_beta = 0.1
conv_thr = 1e-06
/
&IONS
ion_dynamics = 'bfgs'
upscale = 1.0
/
&CELL
/

K_POINTS {automatic}
10 10 2 0  0  0

ATOMIC_SPECIES
Al 26.98 Al.pbe-nl-rrkjus_psl.1.0.0.UPF
C 12.01 C.pbe-n-rrkjus_psl.1.0.0.UPF
Cu 63.54 Cu.pbe-dn-rrkjus_psl.1.0.0.UPF

CELL_PARAMETERS {angstrom}
5.88044000 0.00000000 0.00000000
-0.00000000 5.88044000 0.00000000
0.00000000 0.00000000 24.41030000

ATOMIC_POSITIONS {angstrom}
Al 0.00000000 0.00000000 2.20522650
Al 2.94022000 2.94022000 2.20522650
Al 2.94022000 0.00000000 -0.7349941300000005 0 0 0
Al 0.00000000 2.94022000 -0.7349941300000005 0 0 0
Cu 1.47011000 1.47011000 0.73499413
Cu 4.41033000 4.41033000 -2.2052264999999984 0 0 0
Cu 4.41033000 1.47011000 0.73499413
Cu 1.47011000 4.41033000 -2.2052264999999984 0 0 0
Cu 4.41033000 4.41033000 0.73499413
Cu 1.47011000 1.47011000 -2.2052264999999984 0 0 0
Cu 1.47011000 4.41033000 0.73499413
Cu 4.41033000 1.47011000 -2.2052264999999984 0 0 0
Cu 0.00000000 0.00000000 -0.7349941300000005 0 0 0
Cu 2.94022000 -0.00000000 2.20522650
Cu 0.00000000 2.94022000 2.20522650
Cu 2.94022000 2.94022000 -0.7349941300000005 0 0 0
C 1.47011000 1.47011000 3.00515203
