&CONTROL
calculation = 'relax'
prefix = 'scf'
pseudo_dir = '/vol0004/mdt0/data/hp150275/u10028/POT_KKJUS'
outdir = './data'
tprnfor = .true.
nstep = 50
disk_io = 'non'
/
&SYSTEM
ibrav = 0
ecutwfc = 50.0
ecutrho = 400
occupations = 'smearing'
smearing = 'mp'
degauss = 0.01
assume_isolated = 'esm'
esm_bc = 'bc1'
input_dft = 'BEEF-VDW'
nosym = .true.
nspin = 1
ntyp = 4
nat = 34
/
&ELECTRONS
electron_maxstep = 200
mixing_beta = 0.1
conv_thr = 1e-06
/
&IONS
ion_dynamics = 'bfgs'
upscale = 1.0
/
&CELL
/

K_POINTS {automatic}
8 6 2 0  0  0

ATOMIC_SPECIES
Au 196.9 Au.pbe-n-rrkjus_psl.1.0.0.UPF
C 12.01 C.pbe-n-rrkjus_psl.1.0.0.UPF
O 15.99 O.pbe-n-rrkjus_psl.1.0.0.UPF
Y 88.90 Y.pbe-spn-rrkjus_psl.1.0.0.UPF

CELL_PARAMETERS {angstrom}
7.24612000 0.00000000 0.00000000
0.00000000 10.24760000 0.00000000
0.00000000 0.00000000 27.68570000

ATOMIC_POSITIONS {angstrom}
Y 1.81153000 2.56190000 -3.842775160000002 0 0 0
Y 1.81153000 0.00000000 -1.2810173400000018 0 0 0
Y 1.78479182 2.56077276 1.29347590
Y 1.82790623 10.20988883 3.82090346
Y 1.81153000 7.68570000 -3.842775160000002 0 0 0
Y 1.81153000 5.12380000 -1.2810173400000018 0 0 0
Y 1.82565993 7.68395791 1.25748449
Y 1.83000761 5.16263840 3.82422574
Y 5.43459000 2.56190000 -3.842775160000002 0 0 0
Y 5.43459000 0.00000000 -1.2810173400000018 0 0 0
Y 5.46132818 2.56077276 1.29347590
Y 5.41821377 10.20988883 3.82090346
Y 5.43459000 7.68570000 -3.842775160000002 0 0 0
Y 5.43459000 5.12380000 -1.2810173400000018 0 0 0
Y 5.42046007 7.68395791 1.25748449
Y 5.41611239 5.16263840 3.82422574
Au 0.00000000 0.00000000 -3.842775160000002 0 0 0
Au 0.00000000 2.56190000 -1.2810173400000018 0 0 0
Au 0.00000000 10.18201536 1.31064104
Au 0.00000000 2.56456438 3.77051548
Au 0.00000000 5.12380000 -3.842775160000002 0 0 0
Au 0.00000000 7.68570000 -1.2810173400000018 0 0 0
Au 0.00000000 5.17975190 1.32199218
Au 0.00000000 7.68559752 3.64676040
Au 3.62306000 0.00000000 -3.842775160000002 0 0 0
Au 3.62306000 2.56190000 -1.2810173400000018 0 0 0
Au 3.62306000 0.03371460 1.32697560
Au 3.62306000 2.56251486 3.67666096
Au 3.62306000 5.12380000 -3.842775160000002 0 0 0
Au 3.62306000 7.68570000 -1.2810173400000018 0 0 0
Au 3.62306000 5.08742102 1.32642189
Au 3.62306000 7.68651981 3.67499982
C 0.00000000 2.59059328 5.92501666
O 0.00000000 2.55339449 7.08504749
