&CONTROL
calculation = 'relax'
prefix = 'scf'
pseudo_dir = '/vol0004/mdt0/data/hp150275/u10028/POT_KKJUS'
outdir = './data'
tprnfor = .true.
nstep = 50
disk_io = 'non'
/
&SYSTEM
ibrav = 0
ecutwfc = 50.0
ecutrho = 400
occupations = 'smearing'
smearing = 'mp'
degauss = 0.01
assume_isolated = 'esm'
esm_bc = 'bc1'
input_dft = 'BEEF-VDW'
nosym = .true.
nspin = 1
ntyp = 3
nat = 17
/
&ELECTRONS
electron_maxstep = 200
mixing_beta = 0.1
conv_thr = 1e-06
/
&IONS
ion_dynamics = 'bfgs'
upscale = 1.0
/
&CELL
/

K_POINTS {automatic}
9 9 2 0  0  0

ATOMIC_SPECIES
Ag 107.8 Ag.pbe-n-rrkjus_psl.1.0.0.UPF
C 12.01 C.pbe-n-rrkjus_psl.1.0.0.UPF
In 114.8 In.pbe-dn-rrkjus_psl.1.0.0.UPF

CELL_PARAMETERS {angstrom}
7.14855000 0.00000000 0.00000000
0.00000000 7.14855000 0.00000000
0.00000000 0.00000000 25.36140000

ATOMIC_POSITIONS {angstrom}
In 0.00000000 0.00000000 -2.7085975200000014 0 0 0
In 7.14847851 7.14847851 0.49201116
In 0.00000000 3.57427500 -2.7085975200000014 0 0 0
In 0.00000000 3.57427500 0.95511032
In 3.57427500 0.00000000 -2.7085975200000014 0 0 0
In 3.57427500 0.00000000 0.95511032
In 3.57427500 3.57427500 -2.7085975200000014 0 0 0
In 3.57427500 3.57427500 1.34821202
Ag 1.78713750 1.78713750 -0.9213796599999995 0 0 0
Ag 1.61528636 1.61528636 2.66396146
Ag 1.78713750 5.36141250 -0.9213796599999995 0 0 0
Ag 1.61528636 5.53326364 2.66396146
Ag 5.36141250 1.78713750 -0.9213796599999995 0 0 0
Ag 5.53326364 1.61528636 2.66396146
Ag 5.36141250 5.36141250 -0.9213796599999995 0 0 0
Ag 5.53319216 5.53326364 2.66396146
C 0.00000000 0.00000000 2.72305352
