&CONTROL
calculation = 'relax'
prefix = 'scf'
pseudo_dir = '/vol0004/mdt0/data/hp150275/u10028/POT_KKJUS'
outdir = './data'
tprnfor = .true.
nstep = 50
disk_io = 'non'
/
&SYSTEM
ibrav = 0
ecutwfc = 50.0
ecutrho = 400
occupations = 'smearing'
smearing = 'mp'
degauss = 0.01
assume_isolated = 'esm'
esm_bc = 'bc1'
input_dft = 'BEEF-VDW'
nosym = .true.
nspin = 1
ntyp = 5
nat = 18
/
&ELECTRONS
electron_maxstep = 200
mixing_beta = 0.1
conv_thr = 1e-06
/
&IONS
ion_dynamics = 'bfgs'
upscale = 1.0
/
&CELL
/

K_POINTS {automatic}
8 8 1 0 0 0

ATOMIC_SPECIES
C 12.01 C.pbe-n-rrkjus_psl.1.0.0.UPF
Cu 63.54 Cu.pbe-dn-rrkjus_psl.1.0.0.UPF
Hf 178.4 Hf.pbe-spn-rrkjus_psl.1.0.0.UPF
In 114.8 In.pbe-dn-rrkjus_psl.1.0.0.UPF
O 15.99 O.pbe-n-rrkjus_psl.1.0.0.UPF

CELL_PARAMETERS {angstrom}
6.35005000 0.00000000 0.00000000
-0.00000000 6.35005000 0.00000000
0.00000000 0.00000000 24.76250000

ATOMIC_POSITIONS {angstrom}
Hf 0.00000000 0.00000000 2.38116200
Hf 3.17502500 3.17502500 2.38116200
Hf 3.17502500 0.00000000 -0.7936381299999979 0 0 0
Hf 0.00000000 3.17502500 -0.7936381299999979 0 0 0
In 0.00000000 0.00000000 -0.7936381299999979 0 0 0
In 3.17502500 -0.00000000 2.38116200
In 0.00000000 3.17502500 2.38116200
In 3.17502500 3.17502500 -0.7936381299999979 0 0 0
Cu 1.58751250 1.58751250 0.79363813
Cu 4.76253750 4.76253750 -2.381162 0 0 0
Cu 4.76253750 1.58751250 0.79363813
Cu 1.58751250 4.76253750 -2.381162 0 0 0
Cu 4.76253750 4.76253750 0.79363813
Cu 1.58751250 1.58751250 -2.381162 0 0 0
Cu 1.58751250 4.76253750 0.79363813
Cu 4.76253750 1.58751250 -2.381162 0 0 0
C 0.00000000 0.00000000 4.28118862
O 0.00000000 0.00000000 5.43115912
