&CONTROL
calculation = 'relax'
prefix = 'scf'
pseudo_dir = '/vol0403/data/hp230205/u10028/POT_HYBRID_KKJUS_GBRV'
outdir = './data'
tprnfor = .true.
nstep = 50
disk_io = 'non'
/
&SYSTEM
ibrav = 0
ecutwfc = 50.0
ecutrho = 400
occupations = 'smearing'
smearing = 'mp'
degauss = 0.01
assume_isolated = 'esm'
esm_bc = 'bc1'
input_dft = 'BEEF-VDW'
nosym = .true.
nspin = 1
ntyp = 5
nat = 17
/
&ELECTRONS
electron_maxstep = 200
mixing_beta = 0.1
conv_thr = 1e-06
/
&IONS
ion_dynamics = 'bfgs'
upscale = 1.0
/
&CELL
/

K_POINTS {automatic}
8 11 2 0  0  0

ATOMIC_SPECIES
C 12.01 C.pbe-n-rrkjus_psl.1.0.0.UPF
In 114.8 In.pbe-dn-rrkjus_psl.1.0.0.UPF
Li 6.941 Li.pbe-sl-rrkjus_psl.1.0.0.UPF
Pb 207.2 Pb.pbe-dn-rrkjus_psl.1.0.0.UPF
Y 88.90 Y.pbe-spn-rrkjus_psl.1.0.0.UPF


CELL_PARAMETERS {angstrom}
9.00122000 0.00000000 0.00000000
0.00000000 6.63002000 0.00000000
0.00000000 0.00000000 24.97230000

ATOMIC_POSITIONS {angstrom}
Li 2.25030500 1.64079735 -0.8288306399999996 0 0 0
Li 1.37106583 5.12560216 2.57164745
Li 6.75091500 1.64079735 -0.8288306399999996 0 0 0
Li 7.63015417 5.12553586 2.57164745
Y 2.25030500 4.95580735 -0.8288306399999996 0 0 0
Y 1.87891466 1.46304651 2.53418900
Y 6.75091500 4.95580735 -0.8288306399999996 0 0 0
Y 7.12230534 1.46304651 2.53418900
In 0.00000000 0.00000000 -2.4862421900000022 0 0 0
In 0.00000000 3.26886506 0.70147191
In 4.50061000 0.00000000 -2.4862421900000022 0 0 0
In 4.50061000 3.02328912 0.77763742
Pb 0.00000000 3.31501000 -2.4862421900000022 0 0 0
Pb 0.00000000 0.10548362 0.50169351
Pb 4.50061000 3.31501000 -2.4862421900000022 0 0 0
Pb 4.50061000 6.31091714 1.48110711
C 0.00000000 0.22031556 2.93199774
