&CONTROL
calculation = 'relax'
prefix = 'scf'
pseudo_dir = '/vol0403/data/hp230205/u10028/POT_HYBRID_KKJUS_GBRV'
outdir = './data'
tprnfor = .true.
nstep = 50
disk_io = 'non'
/
&SYSTEM
ibrav = 0
ecutwfc = 50.0
ecutrho = 400
occupations = 'smearing'
smearing = 'mp'
degauss = 0.01
assume_isolated = 'esm'
esm_bc = 'bc1'
input_dft = 'BEEF-VDW'
nosym = .true.
nspin = 1
ntyp = 6
nat = 34
/
&ELECTRONS
electron_maxstep = 200
mixing_beta = 0.1
conv_thr = 1e-06
/
&IONS
ion_dynamics = 'bfgs'
upscale = 1.0
/
&CELL
/

K_POINTS {automatic}
6 6 1 0 0 0

ATOMIC_SPECIES
Ag 107.8 Ag.pbe-n-rrkjus_psl.1.0.0.UPF
Al 26.98 Al.pbe-nl-rrkjus_psl.1.0.0.UPF
C 12.01 C.pbe-n-rrkjus_psl.1.0.0.UPF
Li 6.941 Li.pbe-sl-rrkjus_psl.1.0.0.UPF
O 15.99 O.pbe-n-rrkjus_psl.1.0.0.UPF
Sn 118.7 Sn.pbe-dn-rrkjus_psl.1.0.0.UPF


CELL_PARAMETERS {angstrom}
8.56020000 0.00000000 0.00000000
0.00000000 8.66686000 0.00000000
0.00000000 0.00000000 26.12070000

ATOMIC_POSITIONS {angstrom}
Li 2.14005000 0.00000000 -1.0200133399999984 0 0 0
Li 2.14005000 0.00000000 3.06030121
Li 2.14005000 4.33343000 -1.0200133399999984 0 0 0
Li 2.14005000 4.33343000 3.06030121
Li 6.42015000 0.00000000 -1.0200133399999984 0 0 0
Li 6.42015000 0.00000000 3.06030121
Li 6.42015000 4.33343000 -1.0200133399999984 0 0 0
Li 6.42015000 4.33343000 3.06030121
Al 0.00000000 2.16671500 -1.0200133399999984 0 0 0
Al 0.00000000 2.16671500 3.06030121
Al 0.00000000 6.50014500 -1.0200133399999984 0 0 0
Al 0.00000000 6.50014500 3.06030121
Al 4.28010000 2.16671500 -1.0200133399999984 0 0 0
Al 4.28010000 2.16671500 3.06030121
Al 4.28010000 6.50014500 -1.0200133399999984 0 0 0
Al 4.28010000 6.50014500 3.06030121
Ag 0.00000000 0.00000000 -3.0603012099999987 0 0 0
Ag 0.00000000 0.00000000 1.02001334
Ag 0.00000000 4.33343000 -3.0603012099999987 0 0 0
Ag 0.00000000 4.33343000 1.02001334
Ag 4.28010000 0.00000000 -3.0603012099999987 0 0 0
Ag 4.28010000 0.00000000 1.02001334
Ag 4.28010000 4.33343000 -3.0603012099999987 0 0 0
Ag 4.28010000 4.33343000 1.02001334
Sn 2.14005000 2.16671500 -3.0603012099999987 0 0 0
Sn 2.14005000 2.16671500 1.02001334
Sn 2.14005000 6.50014500 -3.0603012099999987 0 0 0
Sn 2.14005000 6.50014500 1.02001334
Sn 6.42015000 2.16671500 -3.0603012099999987 0 0 0
Sn 6.42015000 2.16671500 1.02001334
Sn 6.42015000 6.50014500 -3.0603012099999987 0 0 0
Sn 6.42015000 6.50014500 1.02001334
C 0.00000000 2.16671500 4.96032093
O 0.00000000 2.16671500 6.11041535
