&CONTROL
calculation = 'relax'
prefix = 'scf'
pseudo_dir = '/vol0004/mdt0/data/hp150275/u10028/POT_HYBRID_KKJUS_GBRV'
outdir = './data'
tprnfor = .true.
nstep = 50
disk_io = 'non'
/
&SYSTEM
ibrav = 0
ecutwfc = 50.0
ecutrho = 400
occupations = 'smearing'
smearing = 'mp'
degauss = 0.01
assume_isolated = 'esm'
esm_bc = 'bc1'
input_dft = 'BEEF-VDW'
nosym = .true.
nspin = 2
ntyp = 5
nat = 34
starting_magnetization(1) = 0.0
starting_magnetization(2) = 0.1
starting_magnetization(3) = 0.0
starting_magnetization(4) = 0.1
starting_magnetization(5) = 0.0
/
&ELECTRONS
electron_maxstep = 300
mixing_beta = 0.1
conv_thr = 1e-06
/
&IONS
ion_dynamics = 'bfgs'
upscale = 1.0
/
&CELL
/

K_POINTS {automatic}
9 6 2 0  0  0

ATOMIC_SPECIES
C 12.01 C.pbe-n-rrkjus_psl.1.0.0.UPF
Co 58.93 co_pbe_v1.2.uspp.F.UPF
Ga 69.72 Ga.pbe-dnl-rrkjus_psl.1.0.0.UPF
Mn 54.93 mn_pbe_v1.5.uspp.F.UPF
O 15.99 O.pbe-n-rrkjus_psl.1.0.0.UPF

CELL_PARAMETERS {angstrom}
5.73361000 0.00000000 0.00000000
0.00000000 8.10855000 0.00000000
0.00000000 0.00000000 26.08140000

ATOMIC_POSITIONS {angstrom}
Mn 0.00000000 0.00000000 -3.0408304299999998 0 0 0
Mn 2.86680500 2.02713750 -1.013523199999998 0 0 0
Mn 2.86680500 6.08141250 -1.013523199999998 0 0 0
Mn 0.00000000 4.05427500 -3.0408304299999998 0 0 0
Mn 0.00000000 4.05419391 1.03725728
Mn 2.86680500 6.08149359 3.05960903
Mn 2.86680500 2.02705641 3.01631391
Mn 0.00000000 0.00008109 1.03725728
Ga 0.00000000 6.08141250 -1.013523199999998 0 0 0
Ga 2.86680500 0.00000000 -3.0408304299999998 0 0 0
Ga 0.00000000 2.02713750 -1.013523199999998 0 0 0
Ga 2.86680500 4.05427500 -3.0408304299999998 0 0 0
Ga 0.00011467 2.02705641 3.10655555
Ga 2.86674766 4.05208569 1.02708553
Ga 0.00011467 6.08149359 3.12742067
Ga 2.86674766 0.00218931 1.02708553
Co 1.43340250 0.00000000 -1.013523199999998 0 0 0
Co 4.30020750 4.05427500 -1.013523199999998 0 0 0
Co 4.30020750 0.00000000 -1.013523199999998 0 0 0
Co 1.43340250 4.05427500 -1.013523199999998 0 0 0
Co 4.30020750 6.08141250 -3.0408304299999998 0 0 0
Co 1.43340250 2.02713750 -3.0408304299999998 0 0 0
Co 1.43340250 6.08141250 -3.0408304299999998 0 0 0
Co 4.30020750 2.02713750 -3.0408304299999998 0 0 0
Co 1.38638690 4.03019261 3.05126299
Co 4.34739511 0.02408239 3.05100217
Co 4.34728044 4.03019261 3.05100217
Co 1.38632956 0.02400131 3.05100217
Co 4.29435922 2.02705641 1.01926111
Co 1.43110906 6.08149359 1.02969367
Co 1.43919345 2.02705641 1.01926111
Co 4.30250094 6.08149359 1.02969367
C 2.86680500 2.02713750 4.87487447
O 2.86680500 2.02713750 6.03575759
