&CONTROL
calculation = 'relax'
prefix = 'scf'
pseudo_dir = '/vol0004/mdt0/data/hp150275/u10028/POT_KKJUS'
outdir = './data'
tprnfor = .true.
nstep = 50
disk_io = 'non'
/
&SYSTEM
ibrav = 0
ecutwfc = 50.0
ecutrho = 400
occupations = 'smearing'
smearing = 'mp'
degauss = 0.01
assume_isolated = 'esm'
esm_bc = 'bc1'
input_dft = 'BEEF-VDW'
nosym = .true.
nspin = 1
ntyp = 3
nat = 34
/
&ELECTRONS
electron_maxstep = 200
mixing_beta = 0.1
conv_thr = 1e-06
/
&IONS
ion_dynamics = 'bfgs'
upscale = 1.0
/
&CELL
/

K_POINTS {automatic}
6 6 1 0 0 0

ATOMIC_SPECIES
Ag 107.8 Ag.pbe-n-rrkjus_psl.1.0.0.UPF
C 12.01 C.pbe-n-rrkjus_psl.1.0.0.UPF
O 15.99 O.pbe-n-rrkjus_psl.1.0.0.UPF

CELL_PARAMETERS {angstrom}
8.47723000 0.00000000 0.00000000
-0.00000000 8.47723000 0.00000000
0.00000000 0.00000000 26.35790000

ATOMIC_POSITIONS {angstrom}
Ag 0.00000000 0.00000000 -3.179026320000002 0 0 0
Ag 2.11930750 2.11930750 -3.179026320000002 0 0 0
Ag 2.11930750 0.00000000 -1.0595875800000023 0 0 0
Ag 0.00000000 2.11930750 -1.0595875800000023 0 0 0
Ag 0.00000000 0.00000000 1.05958758
Ag 2.11930750 2.11930750 1.05958758
Ag 2.11930750 -0.00000000 3.17902632
Ag 0.00000000 2.11930750 3.17902632
Ag 0.00000000 4.23861500 -3.179026320000002 0 0 0
Ag 2.11930750 6.35792250 -3.179026320000002 0 0 0
Ag 2.11930750 4.23861500 -1.0595875800000023 0 0 0
Ag 0.00000000 6.35792250 -1.0595875800000023 0 0 0
Ag 0.00000000 4.23861500 1.05958758
Ag 2.11930750 6.35792250 1.05958758
Ag 2.11930750 4.23861500 3.17902632
Ag 0.00000000 6.35792250 3.17902632
Ag 4.23861500 0.00000000 -3.179026320000002 0 0 0
Ag 6.35792250 2.11930750 -3.179026320000002 0 0 0
Ag 6.35792250 0.00000000 -1.0595875800000023 0 0 0
Ag 4.23861500 2.11930750 -1.0595875800000023 0 0 0
Ag 4.23861500 -0.00000000 1.05958758
Ag 6.35792250 2.11930750 1.05958758
Ag 6.35792250 -0.00000000 3.17902632
Ag 4.23861500 2.11930750 3.17902632
Ag 4.23861500 4.23861500 -3.179026320000002 0 0 0
Ag 6.35792250 6.35792250 -3.179026320000002 0 0 0
Ag 6.35792250 4.23861500 -1.0595875800000023 0 0 0
Ag 4.23861500 6.35792250 -1.0595875800000023 0 0 0
Ag 4.23861500 4.23861500 1.05958758
Ag 6.35792250 6.35792250 1.05958758
Ag 6.35792250 4.23861500 3.17902632
Ag 4.23861500 6.35792250 3.17902632
C 2.11930750 -0.00000000 5.07890375
O 2.11930750 -0.00000000 6.22889893
