&CONTROL
calculation = 'relax'
prefix = 'scf'
pseudo_dir = '/vol0403/data/hp230205/u10028/POT_HYBRID_KKJUS_GBRV'
outdir = './data'
tprnfor = .true.
nstep = 50
disk_io = 'non'
/
&SYSTEM
ibrav = 0
ecutwfc = 50.0
ecutrho = 400
occupations = 'smearing'
smearing = 'mp'
degauss = 0.01
assume_isolated = 'esm'
esm_bc = 'bc1'
input_dft = 'BEEF-VDW'
nosym = .true.
nspin = 1
ntyp = 6
nat = 34
/
&ELECTRONS
electron_maxstep = 200
mixing_beta = 0.1
conv_thr = 1e-06
/
&IONS
ion_dynamics = 'bfgs'
upscale = 1.0
/
&CELL
/

K_POINTS {automatic}
6 6 1 0 0 0

ATOMIC_SPECIES
C 12.01 C.pbe-n-rrkjus_psl.1.0.0.UPF
In 114.8 In.pbe-dn-rrkjus_psl.1.0.0.UPF
O 15.99 O.pbe-n-rrkjus_psl.1.0.0.UPF
Pd 106.4 Pd.pbe-n-rrkjus_psl.1.0.0.UPF
Sn 118.7 Sn.pbe-dn-rrkjus_psl.1.0.0.UPF
Y 88.90 Y.pbe-spn-rrkjus_psl.1.0.0.UPF


CELL_PARAMETERS {angstrom}
9.16402000 0.00000000 0.00000000
0.00000000 8.73372000 0.00000000
0.00000000 0.00000000 26.79800000

ATOMIC_POSITIONS {angstrom}
Y 2.29100500 0.00000000 -1.1330194399999982 0 0 0
Y 2.38466128 8.60594568 3.53546014
Y 2.29100500 4.36686000 -1.1330194399999982 0 0 0
Y 2.38466128 4.49463432 3.53546014
Y 6.87301500 0.00000000 -1.1330194399999982 0 0 0
Y 6.77935872 8.60594568 3.53546014
Y 6.87301500 4.36686000 -1.1330194399999982 0 0 0
Y 6.77935872 4.49463432 3.53546014
In 0.00000000 0.00000000 -3.399058319999998 0 0 0
In 0.00000000 0.02602649 1.17750412
In 0.00000000 4.36686000 -3.399058319999998 0 0 0
In 0.00000000 4.34083351 1.17750412
In 4.58201000 0.00000000 -3.399058319999998 0 0 0
In 4.58201000 0.02340637 1.10836528
In 4.58201000 4.36686000 -3.399058319999998 0 0 0
In 4.58201000 4.34345363 1.10836528
Sn 2.29100500 2.18343000 -3.399058319999998 0 0 0
Sn 2.23931993 2.18343000 1.24851882
Sn 2.29100500 6.55029000 -3.399058319999998 0 0 0
Sn 2.28422363 6.55029000 1.13033964
Sn 6.87301500 2.18343000 -3.399058319999998 0 0 0
Sn 6.92470007 2.18343000 1.24851882
Sn 6.87301500 6.55029000 -3.399058319999998 0 0 0
Sn 6.87979637 6.55029000 1.13033964
Pd 0.00000000 2.18343000 -1.1330194399999982 0 0 0
Pd 0.00000000 2.18343000 3.34760616
Pd 0.00000000 6.55029000 -1.1330194399999982 0 0 0
Pd 0.00000000 6.55029000 3.12947044
Pd 4.58201000 2.18343000 -1.1330194399999982 0 0 0
Pd 4.58201000 2.18343000 3.10052860
Pd 4.58201000 6.55029000 -1.1330194399999982 0 0 0
Pd 4.58201000 6.55029000 3.16698764
C 0.00000000 2.18343000 5.25615972
O 0.00000000 2.18343000 6.42374858
