&CONTROL
calculation = 'relax'
prefix = 'scf'
pseudo_dir = '/vol0403/data/hp230205/u10028/POT_HYBRID_KKJUS_GBRV'
outdir = './data'
tprnfor = .true.
nstep = 70
disk_io = 'non'
/
&SYSTEM
ibrav = 0
ecutwfc = 50.0
ecutrho = 400
occupations = 'smearing'
smearing = 'mp'
degauss = 0.01
assume_isolated = 'esm'
esm_bc = 'bc1'
input_dft = 'BEEF-VDW'
nosym = .true.
nspin = 1
ntyp = 6
nat = 18
/
&ELECTRONS
electron_maxstep = 200
mixing_beta = 0.1
conv_thr = 1e-06
/
&IONS
ion_dynamics = 'bfgs'
upscale = 1.0
/
&CELL
/

K_POINTS {automatic}
8 10 2 0  0  0

ATOMIC_SPECIES
C 12.01 C.pbe-n-rrkjus_psl.1.0.0.UPF
Ge 72.64 Ge.pbe-dn-rrkjus_psl.1.0.0.UPF
In 114.8 In.pbe-dn-rrkjus_psl.1.0.0.UPF
O 15.99 O.pbe-n-rrkjus_psl.1.0.0.UPF
Pd 106.4 Pd.pbe-n-rrkjus_psl.1.0.0.UPF
Y 88.90 Y.pbe-spn-rrkjus_psl.1.0.0.UPF


CELL_PARAMETERS {angstrom}
7.93684000 0.00000000 0.00000000
-0.00000000 6.48113000 0.00000000
0.00000000 0.00000000 24.85120000

ATOMIC_POSITIONS {angstrom}
Y 1.99000389 1.60420930 0.91129350
Y 1.98421000 4.55435486 -2.42547712 0 0 0
Y 5.94675674 1.60427411 0.91129350
Y 5.95263000 4.55435486 -2.42547712 0 0 0
In 1.58752674 4.88392032 1.11880102
In 1.98421000 1.31378986 -2.42547712 0 0 0
In 6.34931326 4.88392032 1.11880102
In 5.95263000 1.31378986 -2.42547712 0 0 0
Ge 0.00000000 0.39068252 2.78830464
Ge 0.00000000 3.03621497 -0.8084095399999995 0 0 0
Ge 3.96842000 6.15344407 2.03481626
Ge 3.96842000 3.03621497 -0.8084095399999995 0 0 0
Pd 0.00000000 2.95481198 2.48313190
Pd 0.00000000 6.27677997 -0.8084095399999995 0 0 0
Pd 3.96842000 3.61394290 1.71746643
Pd 3.96842000 6.27677997 -0.8084095399999995 0 0 0
C 0.00000000 6.17340595 4.59672646
O 7.93676063 5.63851829 5.62208698
