&CONTROL
calculation = 'relax'
prefix = 'scf'
pseudo_dir = '/vol0403/data/hp230205/u10028/POT_HYBRID_KKJUS_GBRV'
outdir = './data'
tprnfor = .true.
nstep = 50
disk_io = 'non'
/
&SYSTEM
ibrav = 0
ecutwfc = 50.0
ecutrho = 400
occupations = 'smearing'
smearing = 'mp'
degauss = 0.01
assume_isolated = 'esm'
esm_bc = 'bc1'
input_dft = 'BEEF-VDW'
nosym = .true.
nspin = 1
ntyp = 6
nat = 18
/
&ELECTRONS
electron_maxstep = 200
mixing_beta = 0.1
conv_thr = 1e-06
/
&IONS
ion_dynamics = 'bfgs'
upscale = 1.0
/
&CELL
/

K_POINTS {automatic}
8 8 1 0 0 0

ATOMIC_SPECIES
C 12.01 C.pbe-n-rrkjus_psl.1.0.0.UPF
Ga 69.72 Ga.pbe-dnl-rrkjus_psl.1.0.0.UPF
Li 6.941 Li.pbe-sl-rrkjus_psl.1.0.0.UPF
O 15.99 O.pbe-n-rrkjus_psl.1.0.0.UPF
Pd 106.4 Pd.pbe-n-rrkjus_psl.1.0.0.UPF
Sc 44.95 Sc.pbe-spn-rrkjus_psl.1.0.0.UPF


CELL_PARAMETERS {angstrom}
6.35289000 0.00000000 0.00000000
0.00000000 6.35289000 0.00000000
0.00000000 0.00000000 24.76470000

ATOMIC_POSITIONS {angstrom}
Li 4.74630765 1.56986265 0.81500628
Li 4.76466750 4.76466750 -2.38236414 0 0 0
Li 1.58822250 1.58822250 -2.38236414 0 0 0
Li 1.60664588 4.78309088 0.81500628
Sc 0.00019059 3.17663559 2.47498412
Sc 0.00000000 0.00000000 -0.7942039300000019 0 0 0
Sc 3.17644500 3.17644500 -0.7942039300000019 0 0 0
Sc 3.17638147 0.00000000 2.49033823
Ga 0.00000000 6.35269941 2.32812945
Ga 0.00000000 3.17644500 -0.7942039300000019 0 0 0
Ga 3.17644500 0.00000000 -0.7942039300000019 0 0 0
Ga 3.17631794 3.17644500 2.32837709
Pd 1.60880586 1.56776619 0.81178687
Pd 1.58822250 4.76466750 -2.38236414 0 0 0
Pd 4.76466750 1.58822250 -2.38236414 0 0 0
Pd 4.74421119 4.78525086 0.81178687
C 0.00006353 3.17644500 4.78998827
O 0.00006353 3.17644500 5.93857506
