&CONTROL
calculation = 'relax'
prefix = 'scf'
pseudo_dir = '/vol0403/data/hp230205/u10028/POT_HYBRID_KKJUS_GBRV'
outdir = './data'
tprnfor = .true.
nstep = 70
disk_io = 'non'
/
&SYSTEM
ibrav = 0
ecutwfc = 50.0
ecutrho = 400
occupations = 'smearing'
smearing = 'mp'
degauss = 0.01
assume_isolated = 'esm'
esm_bc = 'bc1'
input_dft = 'BEEF-VDW'
nosym = .true.
nspin = 1
ntyp = 5
nat = 17
/
&ELECTRONS
electron_maxstep = 200
mixing_beta = 0.1
conv_thr = 1e-06
/
&IONS
ion_dynamics = 'bfgs'
upscale = 1.0
/
&CELL
/

K_POINTS {automatic}
6 6 1 0 0 0

ATOMIC_SPECIES
C 12.01 C.pbe-n-rrkjus_psl.1.0.0.UPF
Ge 72.64 Ge.pbe-dn-rrkjus_psl.1.0.0.UPF
In 114.8 In.pbe-dn-rrkjus_psl.1.0.0.UPF
Pd 106.4 Pd.pbe-n-rrkjus_psl.1.0.0.UPF
Sc 44.95 Sc.pbe-spn-rrkjus_psl.1.0.0.UPF


CELL_PARAMETERS {angstrom}
6.05174000 0.00000000 0.00000000
-0.00000000 8.38060000 0.00000000
0.00000000 0.00000000 24.46740000

ATOMIC_POSITIONS {angstrom}
Sc 1.24569016 2.09515000 -0.7445429800000021 0 0 0
Sc 3.93260220 2.05592879 2.18714089
Sc 1.24569016 6.28545000 -0.7445429800000021 0 0 0
Sc 3.92225373 6.32861009 2.17759860
In 3.02587000 0.00000000 -2.23362895 0 0 0
In 5.50387598 0.00041903 0.71346938
In 3.02587000 4.19030000 -2.23362895 0 0 0
In 5.47264900 4.19147328 0.67407687
Ge 0.00000000 0.00000000 -2.23362895 0 0 0
Ge 2.39134506 0.00988911 1.02665210
Ge 0.00000000 4.19030000 -2.23362895 0 0 0
Ge 2.37645778 4.18468500 1.14189356
Pd 4.27156016 2.09515000 -0.7445429800000021 0 0 0
Pd 0.90842669 2.10252493 1.89818089
Pd 4.27156016 6.28545000 -0.7445429800000021 0 0 0
Pd 0.92004603 6.28285201 1.89035132
C 3.83389832 0.00142470 2.43303826
