&CONTROL
calculation = 'relax'
prefix = 'scf'
pseudo_dir = '/vol0004/mdt0/data/hp150275/u10028/POT_KKJUS'
outdir = './data'
tprnfor = .true.
nstep = 50
disk_io = 'non'
/
&SYSTEM
ibrav = 0
ecutwfc = 50.0
ecutrho = 400
occupations = 'smearing'
smearing = 'mp'
degauss = 0.01
assume_isolated = 'esm'
esm_bc = 'bc1'
input_dft = 'BEEF-VDW'
nosym = .true.
nspin = 1
ntyp = 3
nat = 33
/
&ELECTRONS
electron_maxstep = 200
mixing_beta = 0.1
conv_thr = 1e-06
/
&IONS
ion_dynamics = 'bfgs'
upscale = 1.0
/
&CELL
/

K_POINTS {automatic}
9 6 2 0  0  0

ATOMIC_SPECIES
C 12.01 C.pbe-n-rrkjus_psl.1.0.0.UPF
Pt 195.0 Pt.pbe-n-rrkjus_psl.1.0.0.UPF
Zr 91.22 Zr.pbe-spn-rrkjus_psl.1.0.0.UPF

CELL_PARAMETERS {angstrom}
6.75388000 0.00000000 0.00000000
0.00000000 9.55143000 0.00000000
0.00000000 0.00000000 27.16360000

ATOMIC_POSITIONS {angstrom}
Zr 1.68847000 2.38785750 -3.5817923 0 0 0
Zr 1.68847000 0.00000000 -1.1938402199999985 0 0 0
Zr 1.69576419 2.38785750 1.28836955
Zr 1.69353541 4.64533798 3.63992240
Zr 1.68847000 7.16357250 -3.5817923 0 0 0
Zr 1.68847000 4.77571500 -1.1938402199999985 0 0 0
Zr 1.68272920 7.16366801 1.13353703
Zr 1.69353541 0.13047253 3.63965076
Zr 5.06541000 2.38785750 -3.5817923 0 0 0
Zr 5.06541000 0.00000000 -1.1938402199999985 0 0 0
Zr 5.06831417 2.38785750 1.11778214
Zr 5.06851678 4.89510788 3.46281573
Zr 5.06541000 7.16357250 -3.5817923 0 0 0
Zr 5.06541000 4.77571500 -1.1938402199999985 0 0 0
Zr 5.06466707 7.16357250 1.11099124
Zr 5.06851678 9.43194161 3.46281573
Pt 0.00000000 0.00000000 -3.5817923 0 0 0
Pt 0.00000000 2.38785750 -1.1938402199999985 0 0 0
Pt 0.16790146 9.53089443 1.26691030
Pt 6.41044520 2.38785750 3.48128698
Pt 0.00000000 4.77571500 -3.5817923 0 0 0
Pt 0.00000000 7.16357250 -1.1938402199999985 0 0 0
Pt 0.16796900 4.79634609 1.26718194
Pt 0.08192456 7.16347699 3.34085116
Pt 3.37694000 0.00000000 -3.5817923 0 0 0
Pt 3.37694000 2.38785750 -1.1938402199999985 0 0 0
Pt 3.20647207 9.51532559 1.26093431
Pt 3.73779981 2.38785750 3.48400334
Pt 3.37694000 4.77571500 -3.5817923 0 0 0
Pt 3.37694000 7.16357250 -1.1938402199999985 0 0 0
Pt 3.20640453 4.81201043 1.26120595
Pt 3.29589344 7.16347699 3.33731990
C 1.69873590 2.38795301 3.61764825
