&CONTROL
calculation = 'relax'
prefix = 'scf'
pseudo_dir = '/vol0004/mdt0/data/hp150275/u10028/POT_HYBRID_KKJUS_GBRV'
outdir = './data'
tprnfor = .true.
nstep = 70
disk_io = 'non'
/
&SYSTEM
ibrav = 0
ecutwfc = 50.0
ecutrho = 400
occupations = 'smearing'
smearing = 'mp'
degauss = 0.01
assume_isolated = 'esm'
esm_bc = 'bc1'
input_dft = 'BEEF-VDW'
nosym = .true.
nspin = 1
ntyp = 3
nat = 33
/
&ELECTRONS
electron_maxstep = 200
mixing_beta = 0.1
conv_thr = 1e-06
/
&IONS
ion_dynamics = 'bfgs'
upscale = 1.0
/
&CELL
/

K_POINTS {automatic}
6 8 1 0 0 0

ATOMIC_SPECIES
Bi 208.9 Bi.pbe-dn-rrkjus_psl.1.0.0.UPF
C 12.01 C.pbe-n-rrkjus_psl.1.0.0.UPF
Li 6.941 Li.pbe-sl-rrkjus_psl.1.0.0.UPF

CELL_PARAMETERS {angstrom}
9.62191000 0.00000000 0.00000000
0.00000000 8.50772000 0.00000000
0.00000000 0.00000000 27.21640000

ATOMIC_POSITIONS {angstrom}
Li 2.40547750 2.12693000 -3.6080781500000008 0 0 0
Li 4.81095500 2.12693000 -1.2026927200000017 0 0 0
Li 2.48437716 2.11825213 1.27944296
Li 4.81105122 2.34796057 3.47771159
Li 2.40547750 6.38079000 -3.6080781500000008 0 0 0
Li 4.81095500 6.38079000 -1.2026927200000017 0 0 0
Li 2.48428094 6.38946787 1.27944296
Li 4.81095500 6.15975943 3.47771159
Li 7.21643250 2.12693000 -3.6080781500000008 0 0 0
Li 0.00000000 2.12693000 -1.2026927200000017 0 0 0
Li 7.13762906 2.11833720 1.27944296
Li 0.00000000 2.16215196 3.62059769
Li 7.21643250 6.38079000 -3.6080781500000008 0 0 0
Li 0.00000000 6.38079000 -1.2026927200000017 0 0 0
Li 7.13753284 6.38946787 1.27944296
Li 0.00000000 6.34565312 3.62059769
Bi 0.00000000 0.00000000 -3.6080781500000008 0 0 0
Bi 2.40547750 0.00000000 -1.2026927200000017 0 0 0
Bi 4.81095500 0.00000000 1.61964796
Bi 2.27991157 0.00008508 3.88922356
Bi 0.00000000 4.25386000 -3.6080781500000008 0 0 0
Bi 2.40547750 4.25386000 -1.2026927200000017 0 0 0
Bi 4.81085878 4.25394508 1.23752971
Bi 2.32378748 4.25368985 3.63583888
Bi 4.81095500 0.00000000 -3.6080781500000008 0 0 0
Bi 7.21643250 0.00000000 -1.2026927200000017 0 0 0
Bi 0.00000000 0.00000000 1.08430138
Bi 7.34199843 0.00000000 3.88922356
Bi 4.81095500 4.25386000 -3.6080781500000008 0 0 0
Bi 7.21643250 4.25386000 -1.2026927200000017 0 0 0
Bi 0.00009622 4.25411523 1.30012743
Bi 7.29812252 4.25377492 3.63529455
C 0.00000000 0.00000000 3.40259433
