&CONTROL
calculation = 'relax'
prefix = 'scf'
pseudo_dir = '/vol0004/mdt0/data/hp150275/u10028/POT_KKJUS'
outdir = './data'
tprnfor = .true.
nstep = 50
disk_io = 'non'
/
&SYSTEM
ibrav = 0
ecutwfc = 50.0
ecutrho = 400
occupations = 'smearing'
smearing = 'mp'
degauss = 0.01
assume_isolated = 'esm'
esm_bc = 'bc1'
input_dft = 'BEEF-VDW'
nosym = .true.
nspin = 1
ntyp = 4
nat = 34
/
&ELECTRONS
electron_maxstep = 200
mixing_beta = 0.1
conv_thr = 1e-06
/
&IONS
ion_dynamics = 'bfgs'
upscale = 1.0
/
&CELL
/

K_POINTS {automatic}
9 6 2 0  0  0

ATOMIC_SPECIES
C 12.01 C.pbe-n-rrkjus_psl.1.0.0.UPF
O 15.99 O.pbe-n-rrkjus_psl.1.0.0.UPF
Ru 101.0 Ru.pbe-spn-rrkjus_psl.1.0.0.UPF
Sc 44.95 Sc.pbe-spn-rrkjus_psl.1.0.0.UPF

CELL_PARAMETERS {angstrom}
6.43815000 0.00000000 0.00000000
0.00000000 9.10491000 0.00000000
0.00000000 0.00000000 26.82870000

ATOMIC_POSITIONS {angstrom}
Sc 1.60953750 2.27622750 -3.4142203600000016 0 0 0
Sc 1.60953750 0.00000000 -1.1380734500000003 0 0 0
Sc 1.64005433 2.27622750 1.11956165
Sc 1.59537357 0.00828547 3.38819652
Sc 1.60953750 6.82868250 -3.4142203600000016 0 0 0
Sc 1.60953750 4.55245500 -1.1380734500000003 0 0 0
Sc 1.60927997 6.82868250 1.14021975
Sc 1.59537357 4.54416953 3.38819652
Sc 4.82861250 2.27622750 -3.4142203600000016 0 0 0
Sc 4.82861250 0.00000000 -1.1380734500000003 0 0 0
Sc 4.79809567 2.27622750 1.11956165
Sc 4.84277643 0.00828547 3.38819652
Sc 4.82861250 6.82868250 -3.4142203600000016 0 0 0
Sc 4.82861250 4.55245500 -1.1380734500000003 0 0 0
Sc 4.82887003 6.82868250 1.14021975
Sc 4.84277643 4.54416953 3.38819652
Ru 0.00000000 0.00000000 -3.4142203600000016 0 0 0
Ru 0.00000000 2.27622750 -1.1380734500000003 0 0 0
Ru 0.00000000 0.01147219 1.16999961
Ru 0.00000000 2.27622750 3.46331688
Ru 0.00000000 4.55245500 -3.4142203600000016 0 0 0
Ru 0.00000000 6.82868250 -1.1380734500000003 0 0 0
Ru 0.00000000 4.54098281 1.16999961
Ru 0.00000000 6.82868250 3.34500232
Ru 3.21907500 0.00000000 -3.4142203600000016 0 0 0
Ru 3.21907500 2.27622750 -1.1380734500000003 0 0 0
Ru 3.21907500 9.09689768 1.15121952
Ru 3.21907500 2.27622750 3.32541737
Ru 3.21907500 4.55245500 -3.4142203600000016 0 0 0
Ru 3.21907500 6.82868250 -1.1380734500000003 0 0 0
Ru 3.21907500 4.56046732 1.15121952
Ru 3.21907500 6.82868250 3.34956320
C 0.00000000 2.27622750 5.33327727
O 0.00000000 2.27622750 6.50730119
