&CONTROL
calculation = 'relax'
prefix = 'scf'
pseudo_dir = '/vol0004/mdt0/data/hp150275/u10028/POT_HYBRID_KKJUS_GBRV'
outdir = './data'
tprnfor = .true.
nstep = 50
disk_io = 'non'
/
&SYSTEM
ibrav = 0
ecutwfc = 50.0
ecutrho = 400
occupations = 'smearing'
smearing = 'mp'
degauss = 0.01
assume_isolated = 'esm'
esm_bc = 'bc1'
input_dft = 'BEEF-VDW'
nosym = .true.
nspin = 2
ntyp = 3
nat = 32
starting_magnetization(1) = 0.0
starting_magnetization(2) = 0.001
starting_magnetization(3) = 0.0
/
&ELECTRONS
electron_maxstep = 200
mixing_beta = 0.1
conv_thr = 1e-06
/
&IONS
ion_dynamics = 'bfgs'
upscale = 1.0
/
&CELL
/

K_POINTS {automatic}
9 6 2 0  0  0

ATOMIC_SPECIES
Mg 24.30 Mg.pbe-spnl-rrkjus_psl.1.0.0.UPF
Ni 58.69 ni_pbe_v1.4.uspp.F.UPF
Sn 118.7 Sn.pbe-dn-rrkjus_psl.1.0.0.UPF

CELL_PARAMETERS {angstrom}
6.21377000 0.00000000 0.00000000
0.00000000 8.78760000 0.00000000
0.00000000 0.00000000 26.59070000

ATOMIC_POSITIONS {angstrom}
Mg 0.00000000 0.00000000 23.29531455
Mg 3.10688500 2.19690000 25.49223818
Mg 3.10688500 6.59070000 25.49223818
Mg 0.00000000 4.39380000 23.29531455
Mg 0.00000000 4.39380000 1.01071251
Mg 3.10688500 6.59078788 3.45067514
Mg 3.10688500 2.19681212 3.45067514
Mg 0.00000000 0.00000000 1.01071251
Ni 1.55344250 0.00000000 25.49223818
Ni 4.66032750 4.39380000 25.49223818
Ni 4.66032750 0.00000000 25.49223818
Ni 1.55344250 4.39380000 25.49223818
Ni 4.66032750 6.59070000 23.29531455
Ni 1.55344250 2.19690000 23.29531455
Ni 1.55344250 6.59070000 23.29531455
Ni 4.66032750 2.19690000 23.29531455
Ni 1.40859952 4.39380000 3.10659148
Ni 4.80523262 0.00000000 3.10659148
Ni 4.80517048 4.39380000 3.10659148
Ni 1.40853738 0.00000000 3.10659148
Ni 4.66331011 2.19690000 1.16041815
Ni 1.55045989 6.59070000 1.16041815
Ni 1.55045989 2.19690000 1.16041815
Ni 4.66331011 6.59070000 1.16041815
Sn 0.00000000 6.59070000 25.49223818
Sn 3.10688500 0.00000000 23.29531455
Sn 0.00000000 2.19690000 25.49223818
Sn 3.10688500 4.39380000 23.29531455
Sn 0.00000000 2.19690000 3.44801607
Sn 3.10688500 4.39380000 1.12877521
Sn 0.00000000 6.59070000 3.44828198
Sn 3.10688500 0.00000000 1.12877521
