&CONTROL
calculation = 'relax'
prefix = 'scf'
pseudo_dir = '/vol0004/mdt0/data/hp150275/u10028/POT_HYBRID_KKJUS_GBRV'
outdir = './data'
tprnfor = .true.
nstep = 50
disk_io = 'non'
/
&SYSTEM
ibrav = 0
ecutwfc = 50.0
ecutrho = 400
occupations = 'smearing'
smearing = 'mp'
degauss = 0.01
assume_isolated = 'esm'
esm_bc = 'bc1'
input_dft = 'BEEF-VDW'
nosym = .true.
nspin = 2
ntyp = 4
nat = 33
starting_magnetization(1) = 0.0
starting_magnetization(2) = 0.0
starting_magnetization(3) = 0.1
starting_magnetization(4) = 0.1
/
&ELECTRONS
electron_maxstep = 300
mixing_beta = 0.1
conv_thr = 1e-06
/
&IONS
ion_dynamics = 'bfgs'
upscale = 1.0
/
&CELL
/

K_POINTS {automatic}
8 6 1 0 0 0

ATOMIC_SPECIES
Al 26.98 Al.pbe-nl-rrkjus_psl.1.0.0.UPF
C 12.01 C.pbe-n-rrkjus_psl.1.0.0.UPF
Fe 55.84 fe_pbe_v1.5.uspp.F.UPF
Mn 54.93 mn_pbe_v1.5.uspp.F.UPF

CELL_PARAMETERS {angstrom}
5.79866000 0.00000000 0.00000000
0.00000000 8.20054000 0.00000000
0.00000000 0.00000000 26.15040000

ATOMIC_POSITIONS {angstrom}
Mn 0.00000000 0.00000000 -3.0752870400000027 0 0 0
Mn 2.89933000 2.05013500 -1.0250956799999997 0 0 0
Mn 2.89933000 6.15040500 -1.0250956799999997 0 0 0
Mn 0.00000000 4.10027000 -3.0752870400000027 0 0 0
Mn 0.00452295 4.14291281 0.98168602
Mn 2.77993559 6.15032299 3.07267200
Mn 3.24011725 2.05021701 2.91838464
Mn 0.00452295 8.15781519 0.98194752
Al 0.00000000 6.15040500 -1.0250956799999997 0 0 0
Al 2.89933000 0.00000000 -3.0752870400000027 0 0 0
Al 0.00000000 2.05013500 -1.0250956799999997 0 0 0
Al 2.89933000 4.10027000 -3.0752870400000027 0 0 0
Al 5.45474148 2.05013500 3.68799091
Al 2.87607737 4.07304421 0.98116301
Al 0.10252031 6.15032299 3.11137459
Al 2.87607737 0.02714379 0.98142451
Fe 1.44966500 0.00000000 -1.0250956799999997 0 0 0
Fe 4.34899500 4.10027000 -1.0250956799999997 0 0 0
Fe 4.34899500 0.00000000 -1.0250956799999997 0 0 0
Fe 1.44966500 4.10027000 -1.0250956799999997 0 0 0
Fe 4.34899500 6.15040500 -3.0752870400000027 0 0 0
Fe 1.44966500 2.05013500 -3.0752870400000027 0 0 0
Fe 1.44966500 6.15040500 -3.0752870400000027 0 0 0
Fe 4.34899500 2.05013500 -3.0752870400000027 0 0 0
Fe 1.39399786 3.92043216 3.04939814
Fe 4.36482534 8.13157346 2.97879206
Fe 4.36482534 4.16915454 2.97905357
Fe 1.39393988 0.17975584 3.04913664
Fe 4.45870565 2.05021701 1.05359962
Fe 1.44061909 6.15040500 0.99162317
Fe 1.28759245 2.05013500 1.29862886
Fe 4.35525755 6.15032299 1.07608896
C 1.54940195 2.05005299 3.44008512
