&CONTROL
calculation = 'relax'
prefix = 'scf'
pseudo_dir = '/vol0403/data/hp230205/u10028/POT_HYBRID_KKJUS_GBRV'
outdir = './data'
tprnfor = .true.
nstep = 70
disk_io = 'non'
/
&SYSTEM
ibrav = 0
ecutwfc = 50.0
ecutrho = 400
occupations = 'smearing'
smearing = 'mp'
degauss = 0.01
assume_isolated = 'esm'
esm_bc = 'bc1'
input_dft = 'BEEF-VDW'
nosym = .true.
nspin = 1
ntyp = 6
nat = 18
/
&ELECTRONS
electron_maxstep = 200
mixing_beta = 0.1
conv_thr = 1e-06
/
&IONS
ion_dynamics = 'bfgs'
upscale = 1.0
/
&CELL
/

K_POINTS {automatic}
6 6 1 0 0 0

ATOMIC_SPECIES
C 12.01 C.pbe-n-rrkjus_psl.1.0.0.UPF
Ge 72.64 Ge.pbe-dn-rrkjus_psl.1.0.0.UPF
O 15.99 O.pbe-n-rrkjus_psl.1.0.0.UPF
Pd 106.4 Pd.pbe-n-rrkjus_psl.1.0.0.UPF
Sn 118.7 Sn.pbe-dn-rrkjus_psl.1.0.0.UPF
Y 88.90 Y.pbe-spn-rrkjus_psl.1.0.0.UPF


CELL_PARAMETERS {angstrom}
5.93056000 0.00000000 0.00000000
-0.00000000 9.60308000 0.00000000
0.00000000 0.00000000 24.43880000

ATOMIC_POSITIONS {angstrom}
Y 2.88942814 0.00153649 2.21415528
Y 5.74101930 0.00000000 -0.7397624799999996 0 0 0
Y 3.10120844 4.80355665 2.15134756
Y 5.74101930 4.80154000 -0.7397624799999996 0 0 0
Sn 1.07384650 2.42247296 1.01860918
Sn 4.16354965 2.40077000 -2.2192874300000014 0 0 0
Sn 1.07781997 7.17234839 1.01543214
Sn 4.16354965 7.20231000 -2.2192874300000014 0 0 0
Ge 5.84231327 9.58214529 2.40453353
Ge 2.77573930 0.00000000 -0.7397624799999996 0 0 0
Ge 0.14494289 4.79136074 2.48298208
Ge 2.77573930 4.80154000 -0.7397624799999996 0 0 0
Pd 4.06415346 2.38828600 0.74489462
Pd 1.19826965 2.40077000 -2.2192874300000014 0 0 0
Pd 4.06415346 7.22987084 0.74782728
Pd 1.19826965 7.20231000 -2.2192874300000014 0 0 0
C 2.02166860 0.00643406 4.55588110
O 1.62598164 0.00470551 5.63558728
