&CONTROL
calculation = 'relax'
prefix = 'scf'
pseudo_dir = '/vol0004/mdt0/data/hp150275/u10028/POT_KKJUS'
outdir = './data'
tprnfor = .true.
nstep = 50
disk_io = 'non'
/
&SYSTEM
ibrav = 0
ecutwfc = 50.0
ecutrho = 400
occupations = 'smearing'
smearing = 'mp'
degauss = 0.01
assume_isolated = 'esm'
esm_bc = 'bc1'
input_dft = 'BEEF-VDW'
nosym = .true.
nspin = 1
ntyp = 5
nat = 34
/
&ELECTRONS
electron_maxstep = 200
mixing_beta = 0.1
conv_thr = 1e-06
/
&IONS
ion_dynamics = 'bfgs'
upscale = 1.0
/
&CELL
/

K_POINTS {automatic}
8 6 1 0 0 0

ATOMIC_SPECIES
C 12.01 C.pbe-n-rrkjus_psl.1.0.0.UPF
In 114.8 In.pbe-dn-rrkjus_psl.1.0.0.UPF
Ir 192.2 Ir.pbe-n-rrkjus_psl.0.2.3.UPF
Li 6.941 Li.pbe-sl-rrkjus_psl.1.0.0.UPF
O 15.99 O.pbe-n-rrkjus_psl.1.0.0.UPF

CELL_PARAMETERS {angstrom}
6.57920000 0.00000000 0.00000000
0.00000000 9.30439000 0.00000000
0.00000000 0.00000000 26.97830000

ATOMIC_POSITIONS {angstrom}
Li 0.00000000 0.00000000 -3.489103540000002 0 0 0
Li 3.28960000 2.32609750 -1.1630345099999992 0 0 0
Li 3.28960000 6.97829250 -1.1630345099999992 0 0 0
Li 0.00000000 4.65219500 -3.489103540000002 0 0 0
Li 0.00000000 4.70262479 1.19756674
Li 3.28960000 6.97829250 3.76724981
Li 3.28960000 2.32609750 3.66446249
Li 0.00000000 9.25396021 1.19756674
In 1.64480000 0.00000000 -1.1630345099999992 0 0 0
In 4.93440000 4.65219500 -1.1630345099999992 0 0 0
In 4.93440000 0.00000000 -1.1630345099999992 0 0 0
In 1.64480000 4.65219500 -1.1630345099999992 0 0 0
In 4.93440000 6.97829250 -3.489103540000002 0 0 0
In 1.64480000 2.32609750 -3.489103540000002 0 0 0
In 1.64480000 6.97829250 -3.489103540000002 0 0 0
In 4.93440000 2.32609750 -3.489103540000002 0 0 0
In 1.61118029 4.71248745 3.64368920
In 4.96801971 9.24409755 3.64368920
In 4.96801971 4.71248745 3.64341942
In 1.61118029 9.24409755 3.64368920
In 4.94433459 2.32609750 1.24720681
In 1.70486810 6.97829250 1.15521081
In 1.63486541 2.32609750 1.24720681
In 4.87433190 6.97829250 1.15521081
Ir 0.00000000 6.97829250 -1.1630345099999992 0 0 0
Ir 3.28960000 0.00000000 -3.489103540000002 0 0 0
Ir 0.00000000 2.32609750 -1.1630345099999992 0 0 0
Ir 3.28960000 4.65219500 -3.489103540000002 0 0 0
Ir 0.00000000 2.32609750 3.63748419
Ir 3.28960000 4.61097655 1.07319677
Ir 0.00000000 6.97829250 3.26572322
Ir 3.28960000 0.04121845 1.07319677
C 0.00000000 2.32609750 5.50896886
O 0.00000000 2.32609750 6.67281272
