&CONTROL
calculation = 'relax'
prefix = 'scf'
pseudo_dir = '/vol0004/mdt0/data/hp150275/u10028/POT_HYBRID_KKJUS_GBRV'
outdir = './data'
tprnfor = .true.
nstep = 50
disk_io = 'non'
/
&SYSTEM
ibrav = 0
ecutwfc = 50.0
ecutrho = 400
occupations = 'smearing'
smearing = 'mp'
degauss = 0.01
assume_isolated = 'esm'
esm_bc = 'bc1'
input_dft = 'BEEF-VDW'
nosym = .true.
nspin = 2
ntyp = 4
nat = 33
starting_magnetization(1) = 0.0
starting_magnetization(2) = 0.0
starting_magnetization(3) = 0.0
starting_magnetization(4) = 0.001
/
&ELECTRONS
electron_maxstep = 300
mixing_beta = 0.1
conv_thr = 1e-06
/
&IONS
ion_dynamics = 'bfgs'
upscale = 1.0
/
&CELL
/

K_POINTS {automatic}
9 6 2 0  0  0

ATOMIC_SPECIES
C 12.01 C.pbe-n-rrkjus_psl.1.0.0.UPF
Hf 178.4 Hf.pbe-spn-rrkjus_psl.1.0.0.UPF
In 114.8 In.pbe-dn-rrkjus_psl.1.0.0.UPF
Ni 58.69 ni_pbe_v1.4.uspp.F.UPF

CELL_PARAMETERS {angstrom}
6.30953000 0.00000000 0.00000000
0.00000000 8.92302000 0.00000000
0.00000000 0.00000000 26.69230000

ATOMIC_POSITIONS {angstrom}
Hf 0.00000000 0.00000000 -3.346146730000001 0 0 0
Hf 3.15476500 2.23075500 -1.1154712199999999 0 0 0
Hf 3.15476500 6.69226500 -1.1154712199999999 0 0 0
Hf 0.00000000 4.46151000 -3.346146730000001 0 0 0
Hf 0.00000000 4.46159923 1.14830275
Hf 3.15476500 6.76561222 3.31171366
Hf 3.15476500 2.15749701 3.31171366
Hf 0.00000000 8.92293077 1.14536659
In 0.00000000 6.69226500 -1.1154712199999999 0 0 0
In 3.15476500 0.00000000 -3.346146730000001 0 0 0
In 0.00000000 2.23075500 -1.1154712199999999 0 0 0
In 3.15476500 4.46151000 -3.346146730000001 0 0 0
In 0.00000000 2.30767143 3.53139129
In 3.15476500 4.46142077 1.08397430
In 0.00000000 6.61534857 3.53139129
In 3.15476500 0.00008923 1.10773045
Ni 1.57738250 0.00000000 -1.1154712199999999 0 0 0
Ni 4.73214750 4.46151000 -1.1154712199999999 0 0 0
Ni 4.73214750 0.00000000 -1.1154712199999999 0 0 0
Ni 1.57738250 4.46151000 -1.1154712199999999 0 0 0
Ni 4.73214750 6.69226500 -3.346146730000001 0 0 0
Ni 1.57738250 2.23075500 -3.346146730000001 0 0 0
Ni 1.57738250 6.69226500 -3.346146730000001 0 0 0
Ni 4.73214750 2.23075500 -3.346146730000001 0 0 0
Ni 1.58577417 4.46142077 3.20868138
Ni 5.00913587 0.00017846 3.34507904
Ni 4.72375583 4.46142077 3.20868138
Ni 1.30039413 0.00017846 3.34507904
Ni 4.70552128 2.24529952 1.15070505
Ni 1.60400872 6.67772048 1.15070505
Ni 1.60400872 2.24529952 1.15070505
Ni 4.70552128 6.67772048 1.15070505
C 3.15476500 0.00000000 3.72624508
