&CONTROL
calculation = 'relax'
prefix = 'scf'
pseudo_dir = '/vol0004/mdt0/data/hp150275/u10028/POT_KKJUS'
outdir = './data'
tprnfor = .true.
nstep = 50
disk_io = 'non'
/
&SYSTEM
ibrav = 0
ecutwfc = 50.0
ecutrho = 400
occupations = 'smearing'
smearing = 'mp'
degauss = 0.01
assume_isolated = 'esm'
esm_bc = 'bc1'
input_dft = 'BEEF-VDW'
nosym = .true.
nspin = 1
ntyp = 4
nat = 33
/
&ELECTRONS
electron_maxstep = 200
mixing_beta = 0.1
conv_thr = 1e-06
/
&IONS
ion_dynamics = 'bfgs'
upscale = 1.0
/
&CELL
/

K_POINTS {automatic}
8 6 1 0 0 0

ATOMIC_SPECIES
Ag 107.8 Ag.pbe-n-rrkjus_psl.1.0.0.UPF
C 12.01 C.pbe-n-rrkjus_psl.1.0.0.UPF
In 114.8 In.pbe-dn-rrkjus_psl.1.0.0.UPF
Y 88.90 Y.pbe-spn-rrkjus_psl.1.0.0.UPF

CELL_PARAMETERS {angstrom}
7.06522000 0.00000000 0.00000000
0.00000000 9.99173000 0.00000000
0.00000000 0.00000000 27.49380000

ATOMIC_POSITIONS {angstrom}
Y 0.00000000 0.00000000 -3.7468550600000015 0 0 0
Y 3.53261000 2.49793250 -1.2490433299999992 0 0 0
Y 3.53261000 7.49379750 -1.2490433299999992 0 0 0
Y 0.00000000 4.99586500 -3.7468550600000015 0 0 0
Y 0.00339131 5.04262630 1.30155649
Y 3.33492514 7.49479667 3.64650269
Y 3.63095786 2.49893167 3.57226943
Y 0.00332065 9.94486879 1.30045674
In 0.00000000 7.49379750 -1.2490433299999992 0 0 0
In 3.53261000 0.00000000 -3.7468550600000015 0 0 0
In 0.00000000 2.49793250 -1.2490433299999992 0 0 0
In 3.53261000 4.99586500 -3.7468550600000015 0 0 0
In 6.50862197 2.49883176 4.62500704
In 3.54094696 4.97638113 1.25949098
In 0.08965764 7.49479667 3.71853645
In 3.54094696 0.02048305 1.25976592
Ag 1.76630500 0.00000000 -1.2490433299999992 0 0 0
Ag 5.29891500 4.99586500 -1.2490433299999992 0 0 0
Ag 5.29891500 0.00000000 -1.2490433299999992 0 0 0
Ag 1.76630500 4.99586500 -1.2490433299999992 0 0 0
Ag 5.29891500 7.49379750 -3.7468550600000015 0 0 0
Ag 1.76630500 2.49793250 -3.7468550600000015 0 0 0
Ag 1.76630500 7.49379750 -3.7468550600000015 0 0 0
Ag 5.29891500 2.49793250 -3.7468550600000015 0 0 0
Ag 1.54071253 4.88125986 3.97285410
Ag 5.33848023 9.85104644 3.89449677
Ag 5.33855088 5.13904649 3.89504665
Ag 1.54078318 0.11780250 3.97147941
Ag 5.42453461 2.49793250 1.16683687
Ag 1.76425609 7.49379750 1.13714357
Ag 1.61426147 2.49803242 1.33894806
Ag 5.25122476 7.49379750 1.26938875
C 1.46101684 2.50142961 3.88349925
