&CONTROL
calculation = 'relax'
prefix = 'scf'
pseudo_dir = '/vol0004/mdt0/data/hp150275/u10028/POT_KKJUS'
outdir = './data'
tprnfor = .true.
nstep = 50
disk_io = 'non'
/
&SYSTEM
ibrav = 0
ecutwfc = 50.0
ecutrho = 400
occupations = 'smearing'
smearing = 'mp'
degauss = 0.01
assume_isolated = 'esm'
esm_bc = 'bc1'
input_dft = 'BEEF-VDW'
nosym = .true.
nspin = 1
ntyp = 4
nat = 33
/
&ELECTRONS
electron_maxstep = 200
mixing_beta = 0.1
conv_thr = 1e-06
/
&IONS
ion_dynamics = 'bfgs'
upscale = 1.0
/
&CELL
/

K_POINTS {automatic}
9 6 2 0  0  0

ATOMIC_SPECIES
C 12.01 C.pbe-n-rrkjus_psl.1.0.0.UPF
Cu 63.54 Cu.pbe-dn-rrkjus_psl.1.0.0.UPF
Li 6.941 Li.pbe-sl-rrkjus_psl.1.0.0.UPF
Sn 118.7 Sn.pbe-dn-rrkjus_psl.1.0.0.UPF

CELL_PARAMETERS {angstrom}
6.34973000 0.00000000 0.00000000
0.00000000 8.97987000 0.00000000
0.00000000 0.00000000 26.73490000

ATOMIC_POSITIONS {angstrom}
Li 0.00000000 6.73490250 -1.1225984499999981 0 0 0
Li 3.17486500 0.00000000 -3.367528 0 0 0
Li 0.00000000 2.24496750 -1.1225984499999981 0 0 0
Li 3.17486500 4.48993500 -3.367528 0 0 0
Li 1.58743250 0.00000000 -1.1225984499999981 0 0 0
Li 1.58743250 4.48993500 -1.1225984499999981 0 0 0
Li 4.76229750 6.73490250 -3.367528 0 0 0
Li 4.76229750 2.24496750 -3.367528 0 0 0
Li 0.25532264 2.24496750 3.19054297
Li 3.10387502 4.57057423 1.02581811
Li 0.06000495 6.73490250 3.44479186
Li 3.10381152 8.89923077 1.02581811
Li 1.95254197 4.24774791 3.42714683
Li 1.95260547 0.24218709 3.42714683
Li 4.34873959 2.24496750 1.54634662
Li 4.76102755 6.73490250 1.19210919
Cu 1.58743250 2.24496750 -3.367528 0 0 0
Cu 1.58743250 6.73490250 -3.367528 0 0 0
Cu 4.76229750 4.48993500 -1.1225984499999981 0 0 0
Cu 4.76229750 0.00000000 -1.1225984499999981 0 0 0
Cu 1.55898571 6.73490250 1.16136406
Cu 1.70788688 2.24496750 1.09907174
Cu 4.69740326 8.87238096 3.18065105
Cu 4.69740326 4.59751384 3.18065105
Sn 0.00000000 0.00000000 -3.367528 0 0 0
Sn 3.17486500 2.24496750 -1.1225984499999981 0 0 0
Sn 3.17486500 6.73490250 -1.1225984499999981 0 0 0
Sn 0.00000000 4.48993500 -3.367528 0 0 0
Sn 6.32998234 4.41468369 1.14532312
Sn 3.13714760 6.73490250 3.49612287
Sn 3.96699382 2.24496750 4.40564417
Sn 6.32998234 0.07525131 1.14532312
C 2.50649242 2.24496750 2.84887094
