&CONTROL
calculation = 'relax'
prefix = 'scf'
pseudo_dir = '/vol0004/mdt0/data/hp150275/u10028/POT_HYBRID_KKJUS_GBRV'
outdir = './data'
tprnfor = .true.
nstep = 50
disk_io = 'non'
/
&SYSTEM
ibrav = 0
ecutwfc = 50.0
ecutrho = 400
occupations = 'smearing'
smearing = 'mp'
degauss = 0.01
assume_isolated = 'esm'
esm_bc = 'bc1'
input_dft = 'BEEF-VDW'
nosym = .true.
nspin = 2
ntyp = 2
nat = 16
starting_magnetization(1) = 0.01
starting_magnetization(2) = 0.0
/
&ELECTRONS
electron_maxstep = 200
mixing_beta = 0.1
conv_thr = 1e-06
/
&IONS
ion_dynamics = 'bfgs'
upscale = 1.0
/
&CELL
/

K_POINTS {automatic}
6 8 1 0 0 0

ATOMIC_SPECIES
Cr 51.99 cr_pbe_v1.5.uspp.F.UPF
Pt 195.0 Pt.pbe-n-rrkjus_psl.1.0.0.UPF

CELL_PARAMETERS {angstrom}
7.90097000 0.00000000 0.00000000
-0.00000000 5.58683000 0.00000000
0.00000000 0.00000000 24.19010000

ATOMIC_POSITIONS {angstrom}
Cr 0.00000000 0.00000000 -2.0951045599999993 0 0 0
Cr 0.00000000 2.79341500 0.69836819
Cr 3.95048500 0.00000000 -2.0951045599999993 0 0 0
Cr 3.95048500 2.79341500 0.69836819
Pt 0.00000000 2.79341500 -2.0951045599999993 0 0 0
Pt 1.97524250 4.19012250 -0.69836819 0 0 0
Pt 1.97524250 1.39670750 -0.69836819 0 0 0
Pt 0.00000000 0.00000000 0.69836819
Pt 1.97524250 1.39670750 2.09510456
Pt 1.97524250 4.19012250 2.09510456
Pt 3.95048500 2.79341500 -2.0951045599999993 0 0 0
Pt 5.92572750 4.19012250 -0.69836819 0 0 0
Pt 5.92572750 1.39670750 -0.69836819 0 0 0
Pt 3.95048500 -0.00000000 0.69836819
Pt 5.92572750 1.39670750 2.09510456
Pt 5.92572750 4.19012250 2.09510456
