&CONTROL
calculation = 'relax'
prefix = 'scf'
pseudo_dir = '/vol0403/data/hp230205/u10028/POT_HYBRID_KKJUS_GBRV'
outdir = './data'
tprnfor = .true.
nstep = 70
disk_io = 'non'
/
&SYSTEM
ibrav = 0
ecutwfc = 50.0
ecutrho = 400
occupations = 'smearing'
smearing = 'mp'
degauss = 0.01
assume_isolated = 'esm'
esm_bc = 'bc1'
input_dft = 'BEEF-VDW'
nosym = .true.
nspin = 1
ntyp = 6
nat = 18
/
&ELECTRONS
electron_maxstep = 200
mixing_beta = 0.1
conv_thr = 1e-06
/
&IONS
ion_dynamics = 'bfgs'
upscale = 1.0
/
&CELL
/

K_POINTS {automatic}
11 7 2 0  0  0

ATOMIC_SPECIES
C 12.01 C.pbe-n-rrkjus_psl.1.0.0.UPF
Ga 69.72 Ga.pbe-dnl-rrkjus_psl.1.0.0.UPF
O 15.99 O.pbe-n-rrkjus_psl.1.0.0.UPF
Pd 106.4 Pd.pbe-n-rrkjus_psl.1.0.0.UPF
Sn 118.7 Sn.pbe-dn-rrkjus_psl.1.0.0.UPF
Y 88.90 Y.pbe-spn-rrkjus_psl.1.0.0.UPF


CELL_PARAMETERS {angstrom}
6.14219000 0.00000000 0.00000000
-0.00000000 8.88338000 0.00000000
0.00000000 0.00000000 24.60430000

ATOMIC_POSITIONS {angstrom}
Y 1.48616429 2.22084500 -0.7674081199999989 0 0 0
Y 4.27895666 2.27583312 2.18486184
Y 1.48616429 6.66253500 -0.7674081199999989 0 0 0
Y 4.26679513 6.59741982 2.09111946
Ga 0.00000000 0.00000000 -2.3022243499999995 0 0 0
Ga 2.79236242 0.03322384 0.83162534
Ga 0.00000000 4.44169000 -2.3022243499999995 0 0 0
Ga 2.18526836 4.40304730 1.57123060
Sn 3.07109500 0.00000000 -2.3022243499999995 0 0 0
Sn 5.81100312 8.87405245 0.70392902
Sn 3.07109500 4.44169000 -2.3022243499999995 0 0 0
Sn 5.62028812 4.42783193 0.52111907
Pd 4.55725929 2.22084500 -0.7674081199999989 0 0 0
Pd 1.27702272 1.98028307 2.11449354
Pd 4.55725929 6.66253500 -0.7674081199999989 0 0 0
Pd 1.35816105 6.83860359 1.98458284
C 6.13426657 2.27059193 3.85032691
O 0.58836038 2.27050309 4.86353198
