&CONTROL
calculation = 'relax'
prefix = 'scf'
pseudo_dir = '/vol0403/data/hp230205/u10028/POT_HYBRID_KKJUS_GBRV'
outdir = './data'
tprnfor = .true.
nstep = 50
disk_io = 'non'
/
&SYSTEM
ibrav = 0
ecutwfc = 50.0
ecutrho = 400
occupations = 'smearing'
smearing = 'mp'
degauss = 0.01
assume_isolated = 'esm'
esm_bc = 'bc1'
input_dft = 'BEEF-VDW'
nosym = .true.
nspin = 1
ntyp = 6
nat = 34
/
&ELECTRONS
electron_maxstep = 200
mixing_beta = 0.1
conv_thr = 1e-06
/
&IONS
ion_dynamics = 'bfgs'
upscale = 1.0
/
&CELL
/

K_POINTS {automatic}
7 7 2 0  0  0

ATOMIC_SPECIES
C 12.01 C.pbe-n-rrkjus_psl.1.0.0.UPF
Ge 72.64 Ge.pbe-dn-rrkjus_psl.1.0.0.UPF
In 114.8 In.pbe-dn-rrkjus_psl.1.0.0.UPF
Li 6.941 Li.pbe-sl-rrkjus_psl.1.0.0.UPF
Mg 24.30 Mg.pbe-spnl-rrkjus_psl.1.0.0.UPF
O 15.99 O.pbe-n-rrkjus_psl.1.0.0.UPF


CELL_PARAMETERS {angstrom}
8.75068000 0.00000000 0.00000000
0.00000000 8.41850000 0.00000000
0.00000000 0.00000000 26.30740000

ATOMIC_POSITIONS {angstrom}
Li 2.18767000 0.00000000 -1.0512437000000006 0 0 0
Li 2.18758249 0.00000000 3.11690075
Li 2.18767000 4.20925000 -1.0512437000000006 0 0 0
Li 2.18767000 4.20925000 3.09401331
Li 6.56301000 0.00000000 -1.0512437000000006 0 0 0
Li 6.56309751 0.00000000 3.12926523
Li 6.56301000 4.20925000 -1.0512437000000006 0 0 0
Li 6.56301000 4.20925000 3.14504967
Mg 0.00000000 2.10462500 -1.0512437000000006 0 0 0
Mg 8.72486549 2.15143186 3.27000982
Mg 0.00000000 6.31387500 -1.0512437000000006 0 0 0
Mg 8.72477799 6.26698396 3.26974675
Mg 4.37534000 2.10462500 -1.0512437000000006 0 0 0
Mg 4.40132952 2.15151605 3.26974675
Mg 4.37534000 6.31387500 -1.0512437000000006 0 0 0
Mg 4.40124201 6.26698396 3.27000982
In 2.18767000 2.10462500 -3.1537311100000025 0 0 0
In 2.18767000 2.10841333 1.07281577
In 2.18767000 6.31387500 -3.1537311100000025 0 0 0
In 2.18767000 6.31008667 1.07281577
In 6.56301000 2.10462500 -3.1537311100000025 0 0 0
In 6.56309751 2.10403571 1.04992833
In 6.56301000 6.31387500 -3.1537311100000025 0 0 0
In 6.56301000 6.31446430 1.04992833
Ge 0.00000000 0.00000000 -3.1537311100000025 0 0 0
Ge 8.74009168 0.00025256 1.24802306
Ge 0.00000000 4.20925000 -3.1537311100000025 0 0 0
Ge 8.73720395 4.20908163 1.16305015
Ge 4.37534000 0.00000000 -3.1537311100000025 0 0 0
Ge 4.38592832 8.41824745 1.24802306
Ge 4.37534000 4.20925000 -3.1537311100000025 0 0 0
Ge 4.38881605 4.20941837 1.16305015
C 2.18767000 0.00000000 5.16624721
O 2.18767000 0.00000000 6.31561752
