&CONTROL
calculation = 'relax'
prefix = 'scf'
pseudo_dir = '/vol0004/mdt0/data/hp150275/u10028/POT_HYBRID_KKJUS_GBRV'
outdir = './data'
tprnfor = .true.
nstep = 50
disk_io = 'non'
/
&SYSTEM
ibrav = 0
ecutwfc = 50.0
ecutrho = 400
occupations = 'smearing'
smearing = 'mp'
degauss = 0.01
assume_isolated = 'esm'
esm_bc = 'bc1'
input_dft = 'BEEF-VDW'
nosym = .true.
nspin = 2
ntyp = 4
nat = 33
starting_magnetization(1) = 0.0
starting_magnetization(2) = 0.1
starting_magnetization(3) = 0.0
starting_magnetization(4) = 0.0
/
&ELECTRONS
electron_maxstep = 200
mixing_beta = 0.1
conv_thr = 1e-06
/
&IONS
ion_dynamics = 'bfgs'
upscale = 1.0
/
&CELL
/

K_POINTS {automatic}
9 6 2 0  0  0

ATOMIC_SPECIES
C 12.01 C.pbe-n-rrkjus_psl.1.0.0.UPF
Co 58.93 co_pbe_v1.2.uspp.F.UPF
Sn 118.7 Sn.pbe-dn-rrkjus_psl.1.0.0.UPF
Ti 47.86 Ti.pbe-spn-rrkjus_psl.1.0.0.UPF

CELL_PARAMETERS {angstrom}
6.11439000 0.00000000 0.00000000
0.00000000 8.64705000 0.00000000
0.00000000 0.00000000 26.48530000

ATOMIC_POSITIONS {angstrom}
Ti 0.00000000 0.00000000 23.24270472
Ti 3.05719500 2.16176250 25.40443491
Ti 3.05719500 6.48528750 25.40443491
Ti 0.00000000 4.32352500 23.24270472
Ti 0.00000000 4.32352500 1.13754364
Ti 3.05719500 6.51805982 3.19836483
Ti 3.05719500 2.12899018 3.19836483
Ti 0.00000000 0.00000000 1.07609774
Co 1.52859750 0.00000000 25.40443491
Co 4.58579250 4.32352500 25.40443491
Co 4.58579250 0.00000000 25.40443491
Co 1.52859750 4.32352500 25.40443491
Co 4.58579250 6.48528750 23.24270472
Co 1.52859750 2.16176250 23.24270472
Co 1.52859750 6.48528750 23.24270472
Co 4.58579250 2.16176250 23.24270472
Co 1.46818733 4.32352500 3.08951025
Co 4.77833464 0.00000000 3.13983232
Co 4.64620267 4.32352500 3.08951025
Co 1.33605536 0.00000000 3.14009717
Co 4.59074516 2.15354780 1.14575408
Co 1.52370599 6.49350220 1.14575408
Co 1.52364484 2.15354780 1.14575408
Co 4.59068401 6.49350220 1.14575408
Sn 0.00000000 6.48528750 25.40443491
Sn 3.05719500 0.00000000 23.24270472
Sn 0.00000000 2.16176250 25.40443491
Sn 3.05719500 4.32352500 23.24270472
Sn 0.00000000 2.19263247 3.50347548
Sn 3.05719500 4.32352500 1.06603333
Sn 0.00000000 6.45450400 3.50347548
Sn 3.05719500 0.00000000 1.05517435
C 3.05719500 0.00000000 3.68278097
