&CONTROL
calculation = 'relax'
prefix = 'scf'
pseudo_dir = '/vol0004/mdt0/data/hp150275/u10028/POT_KKJUS'
outdir = './data'
tprnfor = .true.
nstep = 50
disk_io = 'non'
/
&SYSTEM
ibrav = 0
ecutwfc = 50.0
ecutrho = 400
occupations = 'smearing'
smearing = 'mp'
degauss = 0.01
assume_isolated = 'esm'
esm_bc = 'bc1'
input_dft = 'BEEF-VDW'
nosym = .true.
nspin = 1
ntyp = 4
nat = 18
/
&ELECTRONS
electron_maxstep = 200
mixing_beta = 0.1
conv_thr = 1e-06
/
&IONS
ion_dynamics = 'bfgs'
upscale = 1.0
/
&CELL
/

K_POINTS {automatic}
6 8 1 0 0 0

ATOMIC_SPECIES
C 12.01 C.pbe-n-rrkjus_psl.1.0.0.UPF
O 15.99 O.pbe-n-rrkjus_psl.1.0.0.UPF
Pt 195.0 Pt.pbe-n-rrkjus_psl.1.0.0.UPF
V 50.94 V.pbe-spnl-rrkjus_psl.1.0.0.UPF

CELL_PARAMETERS {angstrom}
7.87849000 0.00000000 0.00000000
0.00000000 5.57094000 0.00000000
0.00000000 0.00000000 24.17820000

ATOMIC_POSITIONS {angstrom}
V 0.00000000 0.00000000 -2.0889964799999987 0 0 0
V 7.81160162 2.82441087 0.84261027
V 3.93924500 0.00000000 -2.0889964799999987 0 0 0
V 4.00613338 2.82435516 0.84285205
Pt 0.00000000 2.78547000 -2.0889964799999987 0 0 0
Pt 1.96962250 4.17820500 -0.6963321600000008 0 0 0
Pt 1.96962250 1.39273500 -0.6963321600000008 0 0 0
Pt 0.00149691 0.00161557 0.61049955
Pt 1.96962250 1.33663563 2.09093074
Pt 1.96962250 4.03898721 2.00026249
Pt 3.93924500 2.78547000 -2.0889964799999987 0 0 0
Pt 5.90886750 4.17820500 -0.6963321600000008 0 0 0
Pt 5.90886750 1.39273500 -0.6963321600000008 0 0 0
Pt 3.93774809 0.00161557 0.61049955
Pt 5.90886750 1.49412611 2.04716819
Pt 5.90886750 4.15113023 2.05804838
C 1.96970128 1.39228932 3.96449945
O 1.96962250 1.42504645 5.11634890
