&CONTROL
calculation = 'relax'
prefix = 'scf'
pseudo_dir = '/vol0004/mdt0/data/hp150275/u10028/POT_KKJUS'
outdir = './data'
tprnfor = .true.
nstep = 50
disk_io = 'non'
/
&SYSTEM
ibrav = 0
ecutwfc = 50.0
ecutrho = 400
occupations = 'smearing'
smearing = 'mp'
degauss = 0.01
assume_isolated = 'esm'
esm_bc = 'bc1'
input_dft = 'BEEF-VDW'
nosym = .true.
nspin = 1
ntyp = 4
nat = 33
/
&ELECTRONS
electron_maxstep = 200
mixing_beta = 0.1
conv_thr = 1e-06
/
&IONS
ion_dynamics = 'bfgs'
upscale = 1.0
/
&CELL
/

K_POINTS {automatic}
8 6 1 0 0 0

ATOMIC_SPECIES
C 12.01 C.pbe-n-rrkjus_psl.1.0.0.UPF
In 114.8 In.pbe-dn-rrkjus_psl.1.0.0.UPF
Pt 195.0 Pt.pbe-n-rrkjus_psl.1.0.0.UPF
Sc 44.95 Sc.pbe-spn-rrkjus_psl.1.0.0.UPF

CELL_PARAMETERS {angstrom}
6.63475000 0.00000000 0.00000000
0.00000000 9.38295000 0.00000000
0.00000000 0.00000000 27.03720000

ATOMIC_POSITIONS {angstrom}
Sc 0.00000000 0.00000000 -3.518621209999999 0 0 0
Sc 3.31737500 2.34573750 -1.17287374 0 0 0
Sc 3.31737500 7.03721250 -1.17287374 0 0 0
Sc 0.00000000 4.69147500 -3.518621209999999 0 0 0
Sc 0.00000000 4.69147500 1.16719592
Sc 3.31737500 7.07755919 3.42507250
Sc 3.31737500 2.30539082 3.42507250
Sc 0.00000000 0.00000000 1.31157457
In 0.00000000 7.03721250 -1.17287374 0 0 0
In 3.31737500 0.00000000 -3.518621209999999 0 0 0
In 0.00000000 2.34573750 -1.17287374 0 0 0
In 3.31737500 4.69147500 -3.518621209999999 0 0 0
In 0.00000000 2.45523653 3.72653728
In 3.31737500 4.69147500 1.11393264
In 0.00000000 6.92771347 3.72653728
In 3.31737500 0.00000000 1.21099619
Pt 1.65868750 0.00000000 -1.17287374 0 0 0
Pt 4.97606250 4.69147500 -1.17287374 0 0 0
Pt 4.97606250 0.00000000 -1.17287374 0 0 0
Pt 1.65868750 4.69147500 -1.17287374 0 0 0
Pt 4.97606250 7.03721250 -3.518621209999999 0 0 0
Pt 1.65868750 2.34573750 -3.518621209999999 0 0 0
Pt 1.65868750 7.03721250 -3.518621209999999 0 0 0
Pt 4.97606250 2.34573750 -3.518621209999999 0 0 0
Pt 1.66671555 4.69147500 3.31286812
Pt 5.25631434 0.00000000 3.74870778
Pt 4.96803445 4.69147500 3.31286812
Pt 1.37843566 0.00000000 3.74870778
Pt 4.99026087 2.33945092 1.16908853
Pt 1.64448914 7.04349908 1.16908853
Pt 1.64448914 2.33945092 1.16908853
Pt 4.99026087 7.04349908 1.16908853
C 3.31737500 0.00000000 3.94797194
