&CONTROL
calculation = 'relax'
prefix = 'scf'
pseudo_dir = '/vol0004/mdt0/data/hp150275/u10028/POT_KKJUS'
outdir = './data'
tprnfor = .true.
nstep = 50
disk_io = 'non'
/
&SYSTEM
ibrav = 0
ecutwfc = 50.0
ecutrho = 400
occupations = 'smearing'
smearing = 'mp'
degauss = 0.01
assume_isolated = 'esm'
esm_bc = 'bc1'
input_dft = 'BEEF-VDW'
nosym = .true.
nspin = 1
ntyp = 5
nat = 34
/
&ELECTRONS
electron_maxstep = 200
mixing_beta = 0.1
conv_thr = 1e-06
/
&IONS
ion_dynamics = 'bfgs'
upscale = 1.0
/
&CELL
/

K_POINTS {automatic}
8 6 1 0 0 0

ATOMIC_SPECIES
C 12.01 C.pbe-n-rrkjus_psl.1.0.0.UPF
Ga 69.72 Ga.pbe-dnl-rrkjus_psl.1.0.0.UPF
Li 6.941 Li.pbe-sl-rrkjus_psl.1.0.0.UPF
O 15.99 O.pbe-n-rrkjus_psl.1.0.0.UPF
Pd 106.4 Pd.pbe-n-rrkjus_psl.1.0.0.UPF

CELL_PARAMETERS {angstrom}
6.14873000 0.00000000 0.00000000
0.00000000 8.69561000 0.00000000
0.00000000 0.00000000 26.52170000

ATOMIC_POSITIONS {angstrom}
Li 0.00000000 6.52170750 -1.086859269999998 0 0 0
Li 3.07436500 0.00000000 -3.2608430099999985 0 0 0
Li 0.00000000 2.17390250 -1.086859269999998 0 0 0
Li 3.07436500 4.34780500 -3.2608430099999985 0 0 0
Li 1.53718250 2.17390250 -3.2608430099999985 0 0 0
Li 1.53718250 6.52170750 -3.2608430099999985 0 0 0
Li 4.61154750 4.34780500 -1.086859269999998 0 0 0
Li 4.61154750 0.00000000 -1.086859269999998 0 0 0
Li 0.09339921 2.17451119 3.26216910
Li 3.12447715 4.34406589 1.04044629
Li 0.02391856 6.52188141 3.28895602
Li 3.12281699 0.00208695 1.04044629
Li 1.51363286 6.52162054 0.99774635
Li 1.48854605 2.17364163 0.95822902
Li 4.47350851 0.07313008 3.47726009
Li 4.47375446 4.27476188 3.47752530
Ga 1.53718250 0.00000000 -1.086859269999998 0 0 0
Ga 1.53718250 4.34780500 -1.086859269999998 0 0 0
Ga 4.61154750 6.52170750 -3.2608430099999985 0 0 0
Ga 4.61154750 2.17390250 -3.2608430099999985 0 0 0
Ga 1.62449447 4.37450052 3.26296475
Ga 1.62381811 8.66987099 3.26349519
Ga 4.65237507 2.17233729 1.08235058
Ga 4.65059194 6.52231619 1.08075927
Pd 0.00000000 0.00000000 -3.2608430099999985 0 0 0
Pd 3.07436500 2.17390250 -1.086859269999998 0 0 0
Pd 3.07436500 6.52170750 -1.086859269999998 0 0 0
Pd 0.00000000 4.34780500 -3.2608430099999985 0 0 0
Pd 6.12265938 4.34432676 1.19135476
Pd 3.00943441 6.52214228 3.04363029
Pd 2.92132311 2.17416337 2.99111733
Pd 6.12204451 0.00304346 1.19135476
C 5.68523873 2.17433728 5.22026621
O 5.50735597 2.17390250 6.35566019
