&CONTROL
calculation = 'relax'
prefix = 'scf'
pseudo_dir = '/vol0403/data/hp230205/u10028/POT_HYBRID_KKJUS_GBRV'
outdir = './data'
tprnfor = .true.
nstep = 50
disk_io = 'non'
/
&SYSTEM
ibrav = 0
ecutwfc = 50.0
ecutrho = 400
occupations = 'smearing'
smearing = 'mp'
degauss = 0.01
assume_isolated = 'esm'
esm_bc = 'bc1'
input_dft = 'BEEF-VDW'
nosym = .true.
nspin = 1
ntyp = 6
nat = 34
/
&ELECTRONS
electron_maxstep = 200
mixing_beta = 0.1
conv_thr = 1e-06
/
&IONS
ion_dynamics = 'bfgs'
upscale = 1.0
/
&CELL
/

K_POINTS {automatic}
6 6 1 0 0 0

ATOMIC_SPECIES
C 12.01 C.pbe-n-rrkjus_psl.1.0.0.UPF
Ge 72.64 Ge.pbe-dn-rrkjus_psl.1.0.0.UPF
Li 6.941 Li.pbe-sl-rrkjus_psl.1.0.0.UPF
O 15.99 O.pbe-n-rrkjus_psl.1.0.0.UPF
Pd 106.4 Pd.pbe-n-rrkjus_psl.1.0.0.UPF
V 50.94 V.pbe-spnl-rrkjus_psl.1.0.0.UPF


CELL_PARAMETERS {angstrom}
8.64114000 0.00000000 0.00000000
0.00000000 9.40562000 0.00000000
0.00000000 0.00000000 24.26620000

ATOMIC_POSITIONS {angstrom}
Li 0.00000000 2.35140500 -0.7109996600000024 0 0 0
Li 0.00000000 2.35140500 2.30431835
Li 0.00000000 7.05421500 -0.7109996600000024 0 0 0
Li 0.00000000 7.05430906 2.30601699
Li 4.32057000 2.35140500 -0.7109996600000024 0 0 0
Li 4.32057000 2.35121689 2.28199345
Li 4.32057000 7.05421500 -0.7109996600000024 0 0 0
Li 4.32065641 7.05412094 2.23006378
V 2.16028500 0.00000000 -0.7109996600000024 0 0 0
V 2.15968012 0.00442064 1.62437943
V 2.16028500 4.70281000 -0.7109996600000024 0 0 0
V 2.16028500 4.69791908 1.62340878
V 6.48085500 0.00000000 -0.7109996600000024 0 0 0
V 6.48180553 0.00498498 1.62437943
V 6.48085500 4.70281000 -0.7109996600000024 0 0 0
V 6.48076859 4.69782502 1.62389410
Ge 0.00000000 0.00000000 -2.13299898 0 0 0
Ge 0.00043206 9.39470948 0.56273318
Ge 0.00000000 4.70281000 -2.13299898 0 0 0
Ge 8.64079435 4.71400269 0.56418915
Ge 4.32057000 0.00000000 -2.13299898 0 0 0
Ge 4.31979230 0.01956369 0.56321850
Ge 4.32057000 4.70281000 -2.13299898 0 0 0
Ge 4.32065641 4.68305820 0.56370383
Pd 2.16028500 2.35140500 -2.13299898 0 0 0
Pd 2.18914641 2.35112283 0.82213886
Pd 2.16028500 7.05421500 -2.13299898 0 0 0
Pd 2.13600340 7.05430906 0.84640506
Pd 6.48085500 2.35140500 -2.13299898 0 0 0
Pd 6.45208000 2.35131094 0.82213886
Pd 6.48085500 7.05421500 -2.13299898 0 0 0
Pd 6.50522301 7.05421500 0.84664772
C 0.00008641 2.35131094 4.40892588
O 0.00000000 2.35140500 5.55137857
