&CONTROL
calculation = 'relax'
prefix = 'scf'
pseudo_dir = '/vol0004/mdt0/data/hp150275/u10028/POT_KKJUS'
outdir = './data'
tprnfor = .true.
nstep = 50
disk_io = 'non'
/
&SYSTEM
ibrav = 0
ecutwfc = 50.0
ecutrho = 400
occupations = 'smearing'
smearing = 'mp'
degauss = 0.01
assume_isolated = 'esm'
esm_bc = 'bc1'
input_dft = 'BEEF-VDW'
nosym = .true.
nspin = 1
ntyp = 5
nat = 34
/
&ELECTRONS
electron_maxstep = 200
mixing_beta = 0.1
conv_thr = 1e-06
/
&IONS
ion_dynamics = 'bfgs'
upscale = 1.0
/
&CELL
/

K_POINTS {automatic}
8 6 1 0 0 0

ATOMIC_SPECIES
Ag 107.8 Ag.pbe-n-rrkjus_psl.1.0.0.UPF
C 12.01 C.pbe-n-rrkjus_psl.1.0.0.UPF
Li 6.941 Li.pbe-sl-rrkjus_psl.1.0.0.UPF
O 15.99 O.pbe-n-rrkjus_psl.1.0.0.UPF
Pb 207.2 Pb.pbe-dn-rrkjus_psl.1.0.0.UPF

CELL_PARAMETERS {angstrom}
6.84524000 0.00000000 0.00000000
0.00000000 9.68063000 0.00000000
0.00000000 0.00000000 27.26050000

ATOMIC_POSITIONS {angstrom}
Li 0.00000000 7.26047250 -1.2100935899999996 0 0 0
Li 3.42262000 0.00000000 -3.6302807799999997 0 0 0
Li 0.00000000 2.42015750 -1.2100935899999996 0 0 0
Li 3.42262000 4.84031500 -3.6302807799999997 0 0 0
Li 1.71131000 2.42015750 -3.6302807799999997 0 0 0
Li 1.71131000 7.26047250 -3.6302807799999997 0 0 0
Li 5.13393000 4.84031500 -1.2100935899999996 0 0 0
Li 5.13393000 0.00000000 -1.2100935899999996 0 0 0
Li 0.11486313 2.41996389 3.53187038
Li 3.46704561 4.81630704 1.05280051
Li 0.16141076 7.26047250 3.55504181
Li 3.46690870 0.02391116 1.05252791
Li 1.91091720 7.26037569 1.38265256
Li 1.83486658 2.42015750 1.35593727
Li 4.93350137 9.64713502 3.48280148
Li 4.93370673 4.87361637 3.48280148
Ag 1.71131000 0.00000000 -1.2100935899999996 0 0 0
Ag 1.71131000 4.84031500 -1.2100935899999996 0 0 0
Ag 5.13393000 7.26047250 -3.6302807799999997 0 0 0
Ag 5.13393000 2.42015750 -3.6302807799999997 0 0 0
Ag 1.93822971 4.84283196 3.32360016
Ag 1.93946185 9.67801623 3.32441798
Ag 5.01838235 2.41986708 1.38319777
Ag 4.91905792 7.26056931 1.50995910
Pb 0.00000000 0.00000000 -3.6302807799999997 0 0 0
Pb 3.42262000 2.42015750 -1.2100935899999996 0 0 0
Pb 3.42262000 7.26047250 -1.2100935899999996 0 0 0
Pb 0.00000000 4.84031500 -3.6302807799999997 0 0 0
Pb 6.79171022 4.87187385 1.18828519
Pb 3.41953964 7.26008527 4.14577684
Pb 3.48970335 2.42035111 3.97866997
Pb 6.79232629 9.64887753 1.18937562
C 2.56806024 2.41977027 7.55606539
O 3.52742062 2.42006069 8.16370194
