&CONTROL
calculation = 'relax'
prefix = 'scf'
pseudo_dir = '/vol0403/data/hp230205/u10028/POT_HYBRID_KKJUS_GBRV'
outdir = './data'
tprnfor = .true.
nstep = 50
disk_io = 'non'
/
&SYSTEM
ibrav = 0
ecutwfc = 50.0
ecutrho = 400
occupations = 'smearing'
smearing = 'mp'
degauss = 0.01
assume_isolated = 'esm'
esm_bc = 'bc1'
input_dft = 'BEEF-VDW'
nosym = .true.
nspin = 2
ntyp = 6
nat = 34
starting_magnetization(1) = 0.0
starting_magnetization(2) = 0.0
starting_magnetization(3) = 0.0
starting_magnetization(4) = 0.1
starting_magnetization(5) = 0.0
starting_magnetization(6) = 0.0
/
&ELECTRONS
electron_maxstep = 200
mixing_beta = 0.1
conv_thr = 1e-06
/
&IONS
ion_dynamics = 'bfgs'
upscale = 1.0
/
&CELL
/

K_POINTS {automatic}
9 6 2 0  0  0

ATOMIC_SPECIES
C 12.01 C.pbe-n-rrkjus_psl.1.0.0.UPF
Ge 72.64 Ge.pbe-dn-rrkjus_psl.1.0.0.UPF
Li 6.941 Li.pbe-sl-rrkjus_psl.1.0.0.UPF
Mn 54.93 mn_pbe_v1.5.uspp.F.UPF
O 15.99 O.pbe-n-rrkjus_psl.1.0.0.UPF
Pd 106.4 Pd.pbe-n-rrkjus_psl.1.0.0.UPF


CELL_PARAMETERS {angstrom}
6.14713000 0.00000000 0.00000000
0.00000000 8.69336000 0.00000000
0.00000000 0.00000000 26.52000000

ATOMIC_POSITIONS {angstrom}
Li 0.00000000 2.17334000 -1.0867895999999995 0 0 0
Li 0.00000000 6.52002000 -1.0867895999999995 0 0 0
Li 3.07356500 4.34668000 -3.2601036000000008 0 0 0
Li 3.07356500 0.00000000 -3.2601036000000008 0 0 0
Li 6.02117531 6.52010693 3.63562680
Li 5.94556561 2.17325307 3.72977280
Li 3.04627174 0.01738672 0.95392440
Li 3.04627174 4.32920635 0.95392440
Mn 1.53678250 0.00000000 -1.0867895999999995 0 0 0
Mn 1.53678250 4.34668000 -1.0867895999999995 0 0 0
Mn 4.61034750 2.17334000 -3.2601036000000008 0 0 0
Mn 4.61034750 6.52002000 -3.2601036000000008 0 0 0
Mn 1.66193807 4.34824480 3.18478680
Mn 1.66181512 8.69179520 3.18478680
Mn 4.61342106 6.52002000 1.19154360
Mn 4.65448389 2.17334000 1.20559920
Ge 0.00000000 0.00000000 -3.2601036000000008 0 0 0
Ge 0.00000000 4.34668000 -3.2601036000000008 0 0 0
Ge 3.07356500 6.52002000 -1.0867895999999995 0 0 0
Ge 3.07356500 2.17334000 -1.0867895999999995 0 0 0
Ge 0.02796944 4.36111098 1.08069000
Ge 0.02803091 8.67892902 1.08069000
Ge 3.03410043 2.17342693 3.35000640
Ge 3.02998185 6.51993307 3.41948880
Pd 4.61034750 0.00000000 -1.0867895999999995 0 0 0
Pd 4.61034750 4.34668000 -1.0867895999999995 0 0 0
Pd 1.53678250 2.17334000 -3.2601036000000008 0 0 0
Pd 1.53678250 6.52002000 -3.2601036000000008 0 0 0
Pd 4.49066288 4.35415629 3.02354520
Pd 4.49072435 8.68588371 3.02354520
Pd 1.53026654 6.52002000 1.14831600
Pd 1.48668339 2.17334000 1.14964200
C 4.06067114 2.17342693 6.77241240
O 3.00219682 2.17351387 7.18453320
