&CONTROL
calculation = 'relax'
prefix = 'scf'
pseudo_dir = '/vol0403/data/hp230205/u10028/POT_HYBRID_KKJUS_GBRV'
outdir = './data'
tprnfor = .true.
nstep = 70
disk_io = 'non'
/
&SYSTEM
ibrav = 0
ecutwfc = 50.0
ecutrho = 400
occupations = 'smearing'
smearing = 'mp'
degauss = 0.01
assume_isolated = 'esm'
esm_bc = 'bc1'
input_dft = 'BEEF-VDW'
nosym = .true.
nspin = 1
ntyp = 6
nat = 18
/
&ELECTRONS
electron_maxstep = 200
mixing_beta = 0.1
conv_thr = 1e-06
/
&IONS
ion_dynamics = 'bfgs'
upscale = 1.0
/
&CELL
/

K_POINTS {automatic}
8 11 2 0  0  0

ATOMIC_SPECIES
C 12.01 C.pbe-n-rrkjus_psl.1.0.0.UPF
Cu 63.54 Cu.pbe-dn-rrkjus_psl.1.0.0.UPF
Li 6.941 Li.pbe-sl-rrkjus_psl.1.0.0.UPF
Mg 24.30 Mg.pbe-spnl-rrkjus_psl.1.0.0.UPF
O 15.99 O.pbe-n-rrkjus_psl.1.0.0.UPF
Pd 106.4 Pd.pbe-n-rrkjus_psl.1.0.0.UPF


CELL_PARAMETERS {angstrom}
7.56776000 0.00000000 0.00000000
-0.00000000 5.60326000 0.00000000
0.00000000 0.00000000 24.20230000

ATOMIC_POSITIONS {angstrom}
Li 1.89194000 1.38899212 0.70041456
Li 1.89194000 4.16692033 -2.1012436900000004 0 0 0
Li 5.67582000 1.38899212 0.70041456
Li 5.67582000 4.16692033 -2.1012436900000004 0 0 0
Mg 1.89194000 4.19062212 0.70041456
Mg 1.89194000 1.36529033 -2.1012436900000004 0 0 0
Mg 5.67582000 4.19062212 0.70041456
Mg 5.67582000 1.36529033 -2.1012436900000004 0 0 0
Cu 0.00000000 0.00000000 2.10124369
Cu 0.00000000 2.77792821 -0.7004145600000022 0 0 0
Cu 3.78388000 -0.00000000 2.10124369
Cu 3.78388000 2.77792821 -0.7004145600000022 0 0 0
Pd 0.00000000 2.80163000 2.10124369
Pd 0.00000000 5.57955821 -0.7004145600000022 0 0 0
Pd 3.78388000 2.80163000 2.10124369
Pd 3.78388000 5.57955821 -0.7004145600000022 0 0 0
C 0.00000000 2.80163000 4.00112424
O 0.00000000 2.80163000 5.15121753
