&CONTROL
calculation = 'relax'
prefix = 'scf'
pseudo_dir = '/vol0004/mdt0/data/hp150275/u10028/POT_KKJUS'
outdir = './data'
tprnfor = .true.
nstep = 50
disk_io = 'non'
/
&SYSTEM
ibrav = 0
ecutwfc = 50.0
ecutrho = 400
occupations = 'smearing'
smearing = 'mp'
degauss = 0.01
assume_isolated = 'esm'
esm_bc = 'bc1'
input_dft = 'BEEF-VDW'
nosym = .true.
nspin = 1
ntyp = 4
nat = 17
/
&ELECTRONS
electron_maxstep = 200
mixing_beta = 0.1
conv_thr = 1e-06
/
&IONS
ion_dynamics = 'bfgs'
upscale = 1.0
/
&CELL
/

K_POINTS {automatic}
10 10 2 0  0  0

ATOMIC_SPECIES
C 12.01 C.pbe-n-rrkjus_psl.1.0.0.UPF
Ge 72.64 Ge.pbe-dn-rrkjus_psl.1.0.0.UPF
Li 6.941 Li.pbe-sl-rrkjus_psl.1.0.0.UPF
Rh 102.9 Rh.pbe-spn-rrkjus_psl.1.0.0.UPF

CELL_PARAMETERS {angstrom}
5.94410000 0.00000000 0.00000000
-0.00000000 5.94410000 0.00000000
0.00000000 0.00000000 24.45810000

ATOMIC_POSITIONS {angstrom}
Li 0.00000000 0.00000000 2.22911123
Li 2.97205000 2.97205000 2.22911123
Li 2.97205000 0.00000000 -0.7430370800000006 0 0 0
Li 0.00000000 2.97205000 -0.7430370800000006 0 0 0
Ge 0.00000000 0.00000000 -0.7430370800000006 0 0 0
Ge 2.97205000 -0.00000000 2.22911123
Ge 0.00000000 2.97205000 2.22911123
Ge 2.97205000 2.97205000 -0.7430370800000006 0 0 0
Rh 1.48602500 1.48602500 0.74303708
Rh 4.45807500 4.45807500 -2.229111230000001 0 0 0
Rh 4.45807500 1.48602500 0.74303708
Rh 1.48602500 4.45807500 -2.229111230000001 0 0 0
Rh 4.45807500 4.45807500 0.74303708
Rh 1.48602500 1.48602500 -2.229111230000001 0 0 0
Rh 1.48602500 4.45807500 0.74303708
Rh 4.45807500 1.48602500 -2.229111230000001 0 0 0
C 1.48602500 1.48602500 3.02913569
