&CONTROL
calculation = 'relax'
prefix = 'scf'
pseudo_dir = '/vol0004/mdt0/data/hp150275/u10028/POT_KKJUS'
outdir = './data'
tprnfor = .true.
nstep = 50
disk_io = 'non'
/
&SYSTEM
ibrav = 0
ecutwfc = 50.0
ecutrho = 400
occupations = 'smearing'
smearing = 'mp'
degauss = 0.01
assume_isolated = 'esm'
esm_bc = 'bc1'
input_dft = 'BEEF-VDW'
nosym = .true.
nspin = 1
ntyp = 2
nat = 32
/
&ELECTRONS
electron_maxstep = 200
mixing_beta = 0.1
conv_thr = 1e-06
/
&IONS
ion_dynamics = 'bfgs'
upscale = 1.0
/
&CELL
/

K_POINTS {automatic}
6 6 1 0 0 0

ATOMIC_SPECIES
Al 26.98 Al.pbe-nl-rrkjus_psl.1.0.0.UPF
Y 88.90 Y.pbe-spn-rrkjus_psl.1.0.0.UPF

CELL_PARAMETERS {angstrom}
9.55034000 0.00000000 0.00000000
-0.00000000 9.55034000 0.00000000
0.00000000 0.00000000 27.16280000

ATOMIC_POSITIONS {angstrom}
Y 0.00000000 2.38758500 1.19380506
Y 2.38758500 -0.00000000 1.19380506
Y 2.38758500 2.38758500 3.58141518
Y 0.00000000 2.38758500 -3.5814151800000005 0 0 0
Y 2.38758500 0.00000000 -3.5814151800000005 0 0 0
Y 2.38758500 2.38758500 -1.193805059999999 0 0 0
Y 0.00000000 7.16275500 1.19380506
Y 2.38758500 4.77517000 1.19380506
Y 2.38758500 7.16275500 3.58141518
Y 0.00000000 7.16275500 -3.5814151800000005 0 0 0
Y 2.38758500 4.77517000 -3.5814151800000005 0 0 0
Y 2.38758500 7.16275500 -1.193805059999999 0 0 0
Y 4.77517000 2.38758500 1.19380506
Y 7.16275500 -0.00000000 1.19380506
Y 7.16275500 2.38758500 3.58141518
Y 4.77517000 2.38758500 -3.5814151800000005 0 0 0
Y 7.16275500 0.00000000 -3.5814151800000005 0 0 0
Y 7.16275500 2.38758500 -1.193805059999999 0 0 0
Y 4.77517000 7.16275500 1.19380506
Y 7.16275500 4.77517000 1.19380506
Y 7.16275500 7.16275500 3.58141518
Y 4.77517000 7.16275500 -3.5814151800000005 0 0 0
Y 7.16275500 4.77517000 -3.5814151800000005 0 0 0
Y 7.16275500 7.16275500 -1.193805059999999 0 0 0
Al 0.00000000 0.00000000 3.58141518
Al 0.00000000 0.00000000 -1.193805059999999 0 0 0
Al 0.00000000 4.77517000 3.58141518
Al 0.00000000 4.77517000 -1.193805059999999 0 0 0
Al 4.77517000 -0.00000000 3.58141518
Al 4.77517000 0.00000000 -1.193805059999999 0 0 0
Al 4.77517000 4.77517000 3.58141518
Al 4.77517000 4.77517000 -1.193805059999999 0 0 0
