&CONTROL
calculation = 'relax'
prefix = 'scf'
pseudo_dir = '/vol0403/data/hp230205/u10028/POT_HYBRID_KKJUS_GBRV'
outdir = './data'
tprnfor = .true.
nstep = 50
disk_io = 'non'
/
&SYSTEM
ibrav = 0
ecutwfc = 50.0
ecutrho = 400
occupations = 'smearing'
smearing = 'mp'
degauss = 0.01
assume_isolated = 'esm'
esm_bc = 'bc1'
input_dft = 'BEEF-VDW'
nosym = .true.
nspin = 2
ntyp = 5
nat = 33
starting_magnetization(1) = 0.0
starting_magnetization(2) = 0.0
starting_magnetization(3) = 0.1
starting_magnetization(4) = 0.0
starting_magnetization(5) = 0.0
/
&ELECTRONS
electron_maxstep = 400
mixing_beta = 0.05
conv_thr = 1e-06
/
&IONS
ion_dynamics = 'bfgs'
upscale = 1.0
/
&CELL
/

K_POINTS {automatic}
6 6 1 0 0 0

ATOMIC_SPECIES
Al 26.98 Al.pbe-nl-rrkjus_psl.1.0.0.UPF
C 12.01 C.pbe-n-rrkjus_psl.1.0.0.UPF
Fe 55.84 fe_pbe_v1.5.uspp.F.UPF
Li 6.941 Li.pbe-sl-rrkjus_psl.1.0.0.UPF
Pd 106.4 Pd.pbe-n-rrkjus_psl.1.0.0.UPF


CELL_PARAMETERS {angstrom}
8.60712000 0.00000000 0.00000000
0.00000000 8.84236000 0.00000000
0.00000000 0.00000000 24.25770000

ATOMIC_POSITIONS {angstrom}
Li 2.16882210 2.21050158 2.37313079
Li 2.15178000 2.21059000 -0.709537730000001 0 0 0
Li 2.15952641 6.63185842 2.30617954
Li 2.15178000 6.63177000 -0.709537730000001 0 0 0
Li 6.43829790 2.21050158 2.37313079
Li 6.45534000 2.21059000 -0.709537730000001 0 0 0
Li 6.44759359 6.63185842 2.30617954
Li 6.45534000 6.63177000 -0.709537730000001 0 0 0
Al 0.00000000 0.24024692 2.10459805
Al 0.00000000 0.00000000 -0.709537730000001 0 0 0
Al 0.00000000 4.18093308 2.10459805
Al 0.00000000 4.42118000 -0.709537730000001 0 0 0
Al 4.30356000 0.00618965 1.92387819
Al 4.30356000 0.00000000 -0.709537730000001 0 0 0
Al 4.30356000 4.41499035 1.92363561
Al 4.30356000 4.42118000 -0.709537730000001 0 0 0
Fe 2.16512104 8.82697429 0.53803579
Fe 2.15178000 0.00000000 -2.1288557499999996 0 0 0
Fe 2.16512104 4.43656571 0.53803579
Fe 2.15178000 4.42118000 -2.1288557499999996 0 0 0
Fe 6.44191289 8.82697429 0.53803579
Fe 6.45534000 0.00000000 -2.1288557499999996 0 0 0
Fe 6.44199896 4.43656571 0.53755063
Fe 6.45534000 4.42118000 -2.1288557499999996 0 0 0
Pd 0.00000000 2.21059000 0.52202570
Pd 0.00000000 2.21059000 -2.1288557499999996 0 0 0
Pd 0.00000000 6.63185842 0.93586207
Pd 0.00000000 6.63177000 -2.1288557499999996 0 0 0
Pd 4.30356000 2.21059000 0.78789010
Pd 4.30356000 2.21059000 -2.1288557499999996 0 0 0
Pd 4.30356000 6.63177000 0.78813267
Pd 4.30356000 6.63177000 -2.1288557499999996 0 0 0
C 0.00000000 2.21059000 2.62686633
