&CONTROL
calculation = 'relax'
prefix = 'scf'
pseudo_dir = '/vol0403/data/hp230205/u10028/POT_HYBRID_KKJUS_GBRV'
outdir = './data'
tprnfor = .true.
nstep = 50
disk_io = 'non'
/
&SYSTEM
ibrav = 0
ecutwfc = 50.0
ecutrho = 400
occupations = 'smearing'
smearing = 'mp'
degauss = 0.01
assume_isolated = 'esm'
esm_bc = 'bc1'
input_dft = 'BEEF-VDW'
nosym = .true.
nspin = 1
ntyp = 4
nat = 16
/
&ELECTRONS
electron_maxstep = 200
mixing_beta = 0.1
conv_thr = 1e-06
/
&IONS
ion_dynamics = 'bfgs'
upscale = 1.0
/
&CELL
/

K_POINTS {automatic}
6 6 1 0 0 0

ATOMIC_SPECIES
In 114.8 In.pbe-dn-rrkjus_psl.1.0.0.UPF
Li 6.941 Li.pbe-sl-rrkjus_psl.1.0.0.UPF
Sn 118.7 Sn.pbe-dn-rrkjus_psl.1.0.0.UPF
Y 88.90 Y.pbe-spn-rrkjus_psl.1.0.0.UPF


CELL_PARAMETERS {angstrom}
8.86856000 0.00000000 0.00000000
0.00000000 6.50942000 0.00000000
0.00000000 0.00000000 24.87900000

ATOMIC_POSITIONS {angstrom}
Li 2.21714000 1.57000701 -0.8132945100000022 0 0 0
Li 2.21696263 4.64603343 2.27568213
Li 6.65142000 1.57000701 -0.8132945100000022 0 0 0
Li 6.65124263 4.64590324 2.27568213
Y 2.21714000 4.82471701 -0.8132945100000022 0 0 0
Y 2.21882503 1.40043662 2.30205387
Y 6.65142000 4.82471701 -0.8132945100000022 0 0 0
Y 6.65452400 1.39952530 2.30280024
In 0.00000000 0.00000000 -2.4396347400000025 0 0 0
In 8.86705234 3.05018402 0.76303893
In 4.43428000 0.00000000 -2.4396347400000025 0 0 0
In 4.43561028 3.04933780 0.76328772
Sn 0.00000000 3.25471000 -2.4396347400000025 0 0 0
Sn 8.86474652 6.24370548 1.03372245
Sn 4.43428000 3.25471000 -2.4396347400000025 0 0 0
Sn 4.43516686 6.24494227 1.03397124
