&CONTROL
calculation = 'relax'
prefix = 'scf'
pseudo_dir = '/vol0004/mdt0/data/hp150275/u10028/POT_KKJUS'
outdir = './data'
tprnfor = .true.
nstep = 50
disk_io = 'non'
/
&SYSTEM
ibrav = 0
ecutwfc = 50.0
ecutrho = 400
occupations = 'smearing'
smearing = 'mp'
degauss = 0.01
assume_isolated = 'esm'
esm_bc = 'bc1'
input_dft = 'BEEF-VDW'
nosym = .true.
nspin = 1
ntyp = 4
nat = 18
/
&ELECTRONS
electron_maxstep = 200
mixing_beta = 0.1
conv_thr = 1e-06
/
&IONS
ion_dynamics = 'bfgs'
upscale = 1.0
/
&CELL
/

K_POINTS {automatic}
6 8 1 0 0 0

ATOMIC_SPECIES
C 12.01 C.pbe-n-rrkjus_psl.1.0.0.UPF
Ga 69.72 Ga.pbe-dnl-rrkjus_psl.1.0.0.UPF
O 15.99 O.pbe-n-rrkjus_psl.1.0.0.UPF
Pt 195.0 Pt.pbe-n-rrkjus_psl.1.0.0.UPF

CELL_PARAMETERS {angstrom}
7.92728000 0.00000000 0.00000000
0.00000000 5.60543000 0.00000000
0.00000000 0.00000000 24.20410000

ATOMIC_POSITIONS {angstrom}
Ga 0.00007927 0.00000000 1.94358923
Ga 0.00000000 2.80271500 -0.700708689999999 0 0 0
Ga 3.96340218 0.00000000 1.98594640
Ga 3.96364000 2.80271500 -0.700708689999999 0 0 0
Pt 0.00007927 2.80271500 1.95811169
Pt 1.99735747 4.23389339 0.81301572
Pt 1.99743674 1.37164872 0.81301572
Pt 0.00000000 0.00000000 -0.700708689999999 0 0 0
Pt 1.98182000 1.40135750 -2.1021260800000015 0 0 0
Pt 1.98182000 4.20407250 -2.1021260800000015 0 0 0
Pt 3.96364000 2.80271500 2.01257091
Pt 5.92992253 4.23383733 0.81325776
Pt 5.92992253 1.37159267 0.81325776
Pt 3.96364000 0.00000000 -0.700708689999999 0 0 0
Pt 5.94546000 1.40135750 -2.1021260800000015 0 0 0
Pt 5.94546000 4.20407250 -2.1021260800000015 0 0 0
C 0.00023782 5.60526184 5.71870271
O 0.00031709 0.00022422 6.85363296
