&CONTROL
calculation = 'relax'
prefix = 'scf'
pseudo_dir = '/vol0403/data/hp230205/u10028/POT_HYBRID_KKJUS_GBRV'
outdir = './data'
tprnfor = .true.
nstep = 50
disk_io = 'non'
/
&SYSTEM
ibrav = 0
ecutwfc = 50.0
ecutrho = 400
occupations = 'smearing'
smearing = 'mp'
degauss = 0.01
assume_isolated = 'esm'
esm_bc = 'bc1'
input_dft = 'BEEF-VDW'
nosym = .true.
nspin = 2
ntyp = 6
nat = 18
starting_magnetization(1) = 0.0
starting_magnetization(2) = 0.0
starting_magnetization(3) = 0.0
starting_magnetization(4) = 0.001
starting_magnetization(5) = 0.0
starting_magnetization(6) = 0.0
/
&ELECTRONS
electron_maxstep = 400
mixing_beta = 0.05
conv_thr = 1e-06
/
&IONS
ion_dynamics = 'bfgs'
upscale = 1.0
/
&CELL
/

K_POINTS {automatic}
8 8 1 0 0 0

ATOMIC_SPECIES
C 12.01 C.pbe-n-rrkjus_psl.1.0.0.UPF
Ga 69.72 Ga.pbe-dnl-rrkjus_psl.1.0.0.UPF
Li 6.941 Li.pbe-sl-rrkjus_psl.1.0.0.UPF
Ni 58.69 ni_pbe_v1.4.uspp.F.UPF
O 15.99 O.pbe-n-rrkjus_psl.1.0.0.UPF
Pd 106.4 Pd.pbe-n-rrkjus_psl.1.0.0.UPF


CELL_PARAMETERS {angstrom}
5.93220000 0.00000000 0.00000000
0.00000000 5.93220000 0.00000000
0.00000000 0.00000000 24.44920000

ATOMIC_POSITIONS {angstrom}
Li 0.00000000 2.96610000 -2.2246327100000016 0 0 0
Li 5.90947967 5.90959832 0.81635879
Li 2.98882033 2.98870168 0.81611430
Li 2.96610000 0.00000000 -2.2246327100000016 0 0 0
Ga 0.00000000 0.00000000 -2.2246327100000016 0 0 0
Ga 5.91410679 2.98437118 0.80511216
Ga 2.98419321 5.91398815 0.80511216
Ga 2.96610000 2.96610000 -2.2246327100000016 0 0 0
Ni 1.48305000 1.48305000 -0.7415442399999996 0 0 0
Ni 1.48322797 4.44897203 2.10532061
Ni 4.44897203 1.48322797 2.10556510
Ni 4.44915000 4.44915000 -0.7415442399999996 0 0 0
Pd 4.44915000 1.48305000 -0.7415442399999996 0 0 0
Pd 4.44909068 4.44909068 2.28208833
Pd 1.48305000 1.48305000 2.30360362
Pd 1.48305000 4.44915000 -0.7415442399999996 0 0 0
C 1.48310932 1.48305000 4.27151973
O 1.48305000 1.48305000 5.41916518
