&CONTROL
calculation = 'relax'
prefix = 'scf'
pseudo_dir = '/vol0004/mdt0/data/hp150275/u10028/POT_HYBRID_KKJUS_GBRV'
outdir = './data'
tprnfor = .true.
nstep = 70
disk_io = 'non'
/
&SYSTEM
ibrav = 0
ecutwfc = 50.0
ecutrho = 400
occupations = 'smearing'
smearing = 'mp'
degauss = 0.01
assume_isolated = 'esm'
esm_bc = 'bc1'
input_dft = 'BEEF-VDW'
nosym = .true.
nspin = 1
ntyp = 4
nat = 18
/
&ELECTRONS
electron_maxstep = 200
mixing_beta = 0.1
conv_thr = 1e-06
/
&IONS
ion_dynamics = 'bfgs'
upscale = 1.0
/
&CELL
/

K_POINTS {automatic}
10 10 2 0  0  0

ATOMIC_SPECIES
C 12.01 C.pbe-n-rrkjus_psl.1.0.0.UPF
Ir 192.2 Ir.pbe-n-rrkjus_psl.0.2.3.UPF
O 15.99 O.pbe-n-rrkjus_psl.1.0.0.UPF
Ti 47.86 Ti.pbe-spn-rrkjus_psl.1.0.0.UPF

CELL_PARAMETERS {angstrom}
5.88662000 0.00000000 0.00000000
-0.00000000 5.88662000 0.00000000
0.00000000 0.00000000 25.28270000

ATOMIC_POSITIONS {angstrom}
Ti 0.00000000 0.00000000 -2.1118639299999984 0 0 0
Ti 0.00000000 0.00000000 1.40976335
Ti 0.00000000 2.94331000 -2.1118639299999984 0 0 0
Ti 0.00000000 2.94331000 1.40976335
Ti 2.94331000 0.00000000 -2.1118639299999984 0 0 0
Ti 2.94331000 -0.00000000 1.40976335
Ti 2.94331000 2.94331000 -2.1118639299999984 0 0 0
Ti 2.94331000 2.94331000 1.40976335
Ir 1.47165500 1.47165500 -0.3511766999999999 0 0 0
Ir 1.47165500 1.47165500 3.17070341
Ir 1.47165500 4.41496500 -0.3511766999999999 0 0 0
Ir 1.47165500 4.41496500 3.17070341
Ir 4.41496500 1.47165500 -0.3511766999999999 0 0 0
Ir 4.41496500 1.47165500 3.17070341
Ir 4.41496500 4.41496500 -0.3511766999999999 0 0 0
Ir 4.41496500 4.41496500 3.17070341
C 1.47165500 1.47165500 5.07069831
O 1.47165500 1.47165500 6.22080833
