&CONTROL
calculation = 'relax'
prefix = 'scf'
pseudo_dir = '/vol0004/mdt0/data/hp150275/u10028/POT_KKJUS'
outdir = './data'
tprnfor = .true.
nstep = 50
disk_io = 'non'
/
&SYSTEM
ibrav = 0
ecutwfc = 50.0
ecutrho = 400
occupations = 'smearing'
smearing = 'mp'
degauss = 0.01
assume_isolated = 'esm'
esm_bc = 'bc1'
input_dft = 'BEEF-VDW'
nosym = .true.
nspin = 1
ntyp = 4
nat = 33
/
&ELECTRONS
electron_maxstep = 200
mixing_beta = 0.1
conv_thr = 1e-06
/
&IONS
ion_dynamics = 'bfgs'
upscale = 1.0
/
&CELL
/

K_POINTS {automatic}
9 6 2 0  0  0

ATOMIC_SPECIES
Ag 107.8 Ag.pbe-n-rrkjus_psl.1.0.0.UPF
Au 196.9 Au.pbe-n-rrkjus_psl.1.0.0.UPF
C 12.01 C.pbe-n-rrkjus_psl.1.0.0.UPF
Zn 65.40 Zn.pbe-dnl-rrkjus_psl.1.0.0.UPF

CELL_PARAMETERS {angstrom}
6.35005000 0.00000000 0.00000000
0.00000000 8.98033000 0.00000000
0.00000000 0.00000000 26.73520000

ATOMIC_POSITIONS {angstrom}
Zn 1.58751250 0.00000000 -1.1226110499999997 0 0 0
Zn 4.76253750 4.49016500 -1.1226110499999997 0 0 0
Zn 4.76253750 0.00000000 -1.1226110499999997 0 0 0
Zn 1.58751250 4.49016500 -1.1226110499999997 0 0 0
Zn 4.76253750 6.73524750 -3.3675657900000004 0 0 0
Zn 1.58751250 2.24508250 -3.3675657900000004 0 0 0
Zn 1.58751250 6.73524750 -3.3675657900000004 0 0 0
Zn 4.76253750 2.24508250 -3.3675657900000004 0 0 0
Zn 1.35122714 4.49016500 3.66325710
Zn 4.40052115 0.00000000 3.93221322
Zn 4.99882286 4.49016500 3.66325710
Zn 1.94946535 0.00000000 3.93221322
Zn 4.72075417 2.23735942 1.23409683
Zn 1.62929583 6.74297058 1.23409683
Zn 1.62929583 2.23735942 1.23409683
Zn 4.72075417 6.74297058 1.23409683
Ag 0.00000000 0.00000000 -3.3675657900000004 0 0 0
Ag 3.17502500 2.24508250 -1.1226110499999997 0 0 0
Ag 3.17502500 6.73524750 -1.1226110499999997 0 0 0
Ag 0.00000000 4.49016500 -3.3675657900000004 0 0 0
Ag 0.00000000 4.49016500 1.13009690
Ag 3.17502500 6.49834639 3.65309773
Ag 3.17502500 2.48198361 3.65309773
Ag 0.00000000 0.00000000 1.29264692
Au 0.00000000 6.73524750 -1.1226110499999997 0 0 0
Au 3.17502500 0.00000000 -3.3675657900000004 0 0 0
Au 0.00000000 2.24508250 -1.1226110499999997 0 0 0
Au 3.17502500 4.49016500 -3.3675657900000004 0 0 0
Au 0.00000000 2.19856439 3.48627008
Au 3.17502500 4.49016500 1.18196319
Au 0.00000000 6.78176561 3.48627008
Au 3.17502500 0.00000000 1.10389641
C 0.00000000 0.00000000 3.76084058
