&CONTROL
calculation = 'relax'
prefix = 'scf'
pseudo_dir = '/vol0004/mdt0/data/hp150275/u10028/POT_KKJUS'
outdir = './data'
tprnfor = .true.
nstep = 50
disk_io = 'non'
/
&SYSTEM
ibrav = 0
ecutwfc = 50.0
ecutrho = 400
occupations = 'smearing'
smearing = 'mp'
degauss = 0.01
assume_isolated = 'esm'
esm_bc = 'bc1'
input_dft = 'BEEF-VDW'
nosym = .true.
nspin = 1
ntyp = 3
nat = 33
/
&ELECTRONS
electron_maxstep = 200
mixing_beta = 0.1
conv_thr = 1e-06
/
&IONS
ion_dynamics = 'bfgs'
upscale = 1.0
/
&CELL
/

K_POINTS {automatic}
6 6 1 0 0 0

ATOMIC_SPECIES
Au 196.9 Au.pbe-n-rrkjus_psl.1.0.0.UPF
C 12.01 C.pbe-n-rrkjus_psl.1.0.0.UPF
Li 6.941 Li.pbe-sl-rrkjus_psl.1.0.0.UPF

CELL_PARAMETERS {angstrom}
8.24301000 0.00000000 0.00000000
0.00000000 8.24301000 0.00000000
0.00000000 0.00000000 26.18230000

ATOMIC_POSITIONS {angstrom}
Li 8.08639281 0.00000000 3.42883401
Li 0.00000000 0.00000000 -1.0302734999999998 0 0 0
Li 8.17756050 4.12150500 3.22618301
Li 0.00000000 4.12150500 -1.0302734999999998 0 0 0
Li 4.27812219 0.00000000 3.42883401
Li 4.12150500 0.00000000 -1.0302734999999998 0 0 0
Li 4.18703693 4.12150500 3.22618301
Li 4.12150500 4.12150500 -1.0302734999999998 0 0 0
Au 0.00304991 2.08828415 1.03550997
Au 2.06075250 0.00000000 0.85118657
Au 2.06075250 1.80530162 3.11883558
Au 0.00000000 2.06075250 -3.09108234 0 0 0
Au 2.06075250 0.00000000 -3.09108234 0 0 0
Au 2.06075250 2.06075250 -1.0302734999999998 0 0 0
Au 0.00304991 6.15472585 1.03550997
Au 2.06075250 4.12150500 1.46018687
Au 2.06075250 6.43770838 3.11883558
Au 0.00000000 6.18225750 -3.09108234 0 0 0
Au 2.06075250 4.12150500 -3.09108234 0 0 0
Au 2.06075250 6.18225750 -1.0302734999999998 0 0 0
Au 4.11845509 2.08828415 1.03550997
Au 6.18225750 0.00000000 1.08289993
Au 6.18225750 2.08342078 3.18690956
Au 4.12150500 2.06075250 -3.09108234 0 0 0
Au 6.18225750 0.00000000 -3.09108234 0 0 0
Au 6.18225750 2.06075250 -1.0302734999999998 0 0 0
Au 4.11845509 6.15472585 1.03550997
Au 6.18225750 4.12150500 1.05776492
Au 6.18225750 6.15958922 3.18690956
Au 4.12150500 6.18225750 -3.09108234 0 0 0
Au 6.18225750 4.12150500 -3.09108234 0 0 0
Au 6.18225750 6.18225750 -1.0302734999999998 0 0 0
C 2.06075250 0.00000000 3.98599335
