&CONTROL
calculation = 'relax'
prefix = 'scf'
pseudo_dir = '/vol0004/mdt0/data/hp150275/u10028/POT_KKJUS'
outdir = './data'
tprnfor = .true.
nstep = 50
disk_io = 'non'
/
&SYSTEM
ibrav = 0
ecutwfc = 50.0
ecutrho = 400
occupations = 'smearing'
smearing = 'mp'
degauss = 0.01
assume_isolated = 'esm'
esm_bc = 'bc1'
input_dft = 'BEEF-VDW'
nosym = .true.
nspin = 1
ntyp = 3
nat = 17
/
&ELECTRONS
electron_maxstep = 200
mixing_beta = 0.1
conv_thr = 1e-06
/
&IONS
ion_dynamics = 'bfgs'
upscale = 1.0
/
&CELL
/

K_POINTS {automatic}
6 8 1 0 0 0

ATOMIC_SPECIES
C 12.01 C.pbe-n-rrkjus_psl.1.0.0.UPF
Hf 178.4 Hf.pbe-spn-rrkjus_psl.1.0.0.UPF
Ir 192.2 Ir.pbe-n-rrkjus_psl.0.2.3.UPF

CELL_PARAMETERS {angstrom}
7.94591000 0.00000000 0.00000000
0.00000000 5.61861000 0.00000000
0.00000000 0.00000000 24.21400000

ATOMIC_POSITIONS {angstrom}
Hf 0.00000000 0.00000000 -2.1071022799999994 0 0 0
Hf 0.00000000 2.80930500 0.41284870
Hf 3.97295500 0.00000000 -2.1071022799999994 0 0 0
Hf 3.97295500 2.80930500 0.90027652
Ir 0.00000000 2.80930500 -2.1071022799999994 0 0 0
Ir 1.98647750 4.21395750 -0.7024481399999978 0 0 0
Ir 1.98647750 1.40465250 -0.7024481399999978 0 0 0
Ir 7.94583054 0.00000000 0.49202848
Ir 1.61246352 1.39858440 2.09644812
Ir 1.61246352 4.22002560 2.09644812
Ir 3.97295500 2.80930500 -2.1071022799999994 0 0 0
Ir 5.95943250 4.21395750 -0.7024481399999978 0 0 0
Ir 5.95943250 1.40465250 -0.7024481399999978 0 0 0
Ir 3.97303446 0.00000000 0.73368420
Ir 6.33344648 1.39858440 2.09644812
Ir 6.33344648 4.22002560 2.09644812
C 0.00000000 2.80930500 2.65458082
