&CONTROL
calculation = 'relax'
prefix = 'scf'
pseudo_dir = '/vol0403/data/hp230205/u10028/POT_HYBRID_KKJUS_GBRV'
outdir = './data'
tprnfor = .true.
nstep = 50
disk_io = 'non'
/
&SYSTEM
ibrav = 0
ecutwfc = 50.0
ecutrho = 400
occupations = 'smearing'
smearing = 'mp'
degauss = 0.01
assume_isolated = 'esm'
esm_bc = 'bc1'
input_dft = 'BEEF-VDW'
nosym = .true.
nspin = 1
ntyp = 6
nat = 34
/
&ELECTRONS
electron_maxstep = 200
mixing_beta = 0.1
conv_thr = 1e-06
/
&IONS
ion_dynamics = 'bfgs'
upscale = 1.0
/
&CELL
/

K_POINTS {automatic}
6 6 1 0 0 0

ATOMIC_SPECIES
C 12.01 C.pbe-n-rrkjus_psl.1.0.0.UPF
In 114.8 In.pbe-dn-rrkjus_psl.1.0.0.UPF
Li 6.941 Li.pbe-sl-rrkjus_psl.1.0.0.UPF
O 15.99 O.pbe-n-rrkjus_psl.1.0.0.UPF
Pb 207.2 Pb.pbe-dn-rrkjus_psl.1.0.0.UPF
Y 88.90 Y.pbe-spn-rrkjus_psl.1.0.0.UPF


CELL_PARAMETERS {angstrom}
9.32892000 0.00000000 0.00000000
0.00000000 9.42336000 0.00000000
0.00000000 0.00000000 26.75090000

ATOMIC_POSITIONS {angstrom}
Li 2.33223000 9.41563284 1.20084790
Li 2.33223000 0.00000000 -3.375428560000003 0 0 0
Li 2.33223000 4.71940716 1.20058039
Li 2.33223000 4.71168000 -3.375428560000003 0 0 0
Li 6.99669000 9.42034452 1.13584321
Li 6.99669000 0.00000000 -3.375428560000003 0 0 0
Li 6.99669000 4.71469548 1.13584321
Li 6.99669000 4.71168000 -3.375428560000003 0 0 0
Y 0.00121276 2.35584000 1.05987066
Y 0.00000000 2.35584000 -3.375428560000003 0 0 0
Y 9.32724079 7.06752000 1.06575586
Y 0.00000000 7.06752000 -3.375428560000003 0 0 0
Y 4.66324724 2.35584000 1.05987066
Y 4.66446000 2.35584000 -3.375428560000003 0 0 0
Y 4.66613921 7.06752000 1.06575586
Y 4.66446000 7.06752000 -3.375428560000003 0 0 0
In 9.31259439 9.42288883 3.15500115
In 0.00000000 0.00000000 -1.1251428500000031 0 0 0
In 9.31268768 4.71215117 3.15500115
In 0.00000000 4.71168000 -1.1251428500000031 0 0 0
In 4.68078561 9.42288883 3.15500115
In 4.66446000 0.00000000 -1.1251428500000031 0 0 0
In 4.68069232 4.71215117 3.15500115
In 4.66446000 4.71168000 -1.1251428500000031 0 0 0
Pb 2.33223000 2.35584000 3.61618666
Pb 2.33223000 2.35584000 -1.1251428500000031 0 0 0
Pb 2.33223000 7.06752000 3.66754839
Pb 2.33223000 7.06752000 -1.1251428500000031 0 0 0
Pb 6.99669000 2.35584000 3.67450362
Pb 6.99669000 2.35584000 -1.1251428500000031 0 0 0
Pb 6.99669000 7.06752000 3.69724189
Pb 6.99669000 7.06752000 -1.1251428500000031 0 0 0
C 2.33204342 2.35602847 7.93886459
O 2.33232329 2.35574577 9.07444030
