&CONTROL
calculation = 'relax'
prefix = 'scf'
pseudo_dir = '/vol0004/mdt0/data/hp150275/u10028/POT_KKJUS'
outdir = './data'
tprnfor = .true.
nstep = 50
disk_io = 'non'
/
&SYSTEM
ibrav = 0
ecutwfc = 50.0
ecutrho = 400
occupations = 'smearing'
smearing = 'mp'
degauss = 0.01
assume_isolated = 'esm'
esm_bc = 'bc1'
input_dft = 'BEEF-VDW'
nosym = .true.
nspin = 1
ntyp = 2
nat = 32
/
&ELECTRONS
electron_maxstep = 200
mixing_beta = 0.1
conv_thr = 1e-06
/
&IONS
ion_dynamics = 'bfgs'
upscale = 1.0
/
&CELL
/

K_POINTS {automatic}
8 8 1 0 0 0

ATOMIC_SPECIES
Ir 192.2 Ir.pbe-n-rrkjus_psl.0.2.3.UPF
Zr 91.22 Zr.pbe-spn-rrkjus_psl.1.0.0.UPF

CELL_PARAMETERS {angstrom}
7.98758000 0.00000000 0.00000000
-0.00000000 7.98758000 0.00000000
0.00000000 0.00000000 25.99070000

ATOMIC_POSITIONS {angstrom}
Zr 0.00000000 0.00000000 -2.995428180000001 0 0 0
Zr 0.00000000 0.00000000 0.99856269
Zr 0.00000000 3.99379000 -2.995428180000001 0 0 0
Zr 0.00000000 3.99379000 0.99856269
Zr 3.99379000 0.00000000 -2.995428180000001 0 0 0
Zr 3.99379000 -0.00000000 0.99856269
Zr 3.99379000 3.99379000 -2.995428180000001 0 0 0
Zr 3.99379000 3.99379000 0.99856269
Ir 0.00000000 1.99689500 -0.99856269 0 0 0
Ir 1.99689500 0.00000000 -0.99856269 0 0 0
Ir 1.99689500 1.99689500 -2.995428180000001 0 0 0
Ir 0.00000000 1.99689500 2.99542818
Ir 1.99689500 -0.00000000 2.99542818
Ir 1.99689500 1.99689500 0.99856269
Ir 0.00000000 5.99068500 -0.99856269 0 0 0
Ir 1.99689500 3.99379000 -0.99856269 0 0 0
Ir 1.99689500 5.99068500 -2.995428180000001 0 0 0
Ir 0.00000000 5.99068500 2.99542818
Ir 1.99689500 3.99379000 2.99542818
Ir 1.99689500 5.99068500 0.99856269
Ir 3.99379000 1.99689500 -0.99856269 0 0 0
Ir 5.99068500 0.00000000 -0.99856269 0 0 0
Ir 5.99068500 1.99689500 -2.995428180000001 0 0 0
Ir 3.99379000 1.99689500 2.99542818
Ir 5.99068500 -0.00000000 2.99542818
Ir 5.99068500 1.99689500 0.99856269
Ir 3.99379000 5.99068500 -0.99856269 0 0 0
Ir 5.99068500 3.99379000 -0.99856269 0 0 0
Ir 5.99068500 5.99068500 -2.995428180000001 0 0 0
Ir 3.99379000 5.99068500 2.99542818
Ir 5.99068500 3.99379000 2.99542818
Ir 5.99068500 5.99068500 0.99856269
