&CONTROL
calculation = 'relax'
prefix = 'scf'
pseudo_dir = '/vol0004/mdt0/data/hp150275/u10028/POT_KKJUS'
outdir = './data'
tprnfor = .true.
nstep = 50
disk_io = 'non'
/
&SYSTEM
ibrav = 0
ecutwfc = 50.0
ecutrho = 400
occupations = 'smearing'
smearing = 'mp'
degauss = 0.01
assume_isolated = 'esm'
esm_bc = 'bc1'
input_dft = 'BEEF-VDW'
nosym = .true.
nspin = 1
ntyp = 3
nat = 17
/
&ELECTRONS
electron_maxstep = 200
mixing_beta = 0.1
conv_thr = 1e-06
/
&IONS
ion_dynamics = 'bfgs'
upscale = 1.0
/
&CELL
/

K_POINTS {automatic}
8 8 1 0 0 0

ATOMIC_SPECIES
C 12.01 C.pbe-n-rrkjus_psl.1.0.0.UPF
Cu 63.54 Cu.pbe-dn-rrkjus_psl.1.0.0.UPF
Zn 65.40 Zn.pbe-dnl-rrkjus_psl.1.0.0.UPF

CELL_PARAMETERS {angstrom}
5.98486000 0.00000000 0.00000000
0.00000000 5.98486000 0.00000000
0.00000000 0.00000000 24.48860000

ATOMIC_POSITIONS {angstrom}
Zn 0.00000000 0.00000000 -2.2549102900000015 0 0 0
Zn 0.00000000 0.00000000 0.58037982
Zn 0.00000000 2.99243000 -2.2549102900000015 0 0 0
Zn 0.00000000 2.99243000 0.85146862
Zn 2.99243000 0.00000000 -2.2549102900000015 0 0 0
Zn 2.99243000 0.00000000 0.85146862
Zn 2.99243000 2.99243000 -2.2549102900000015 0 0 0
Zn 2.99243000 2.99243000 1.10223189
Cu 1.49621500 1.49621500 -0.7586568300000032 0 0 0
Cu 1.36748066 1.36742081 2.33645733
Cu 1.49621500 4.48864500 -0.7586568300000032 0 0 0
Cu 1.36748066 4.61743919 2.33694710
Cu 4.48864500 1.49621500 -0.7586568300000032 0 0 0
Cu 4.61737934 1.36742081 2.33694710
Cu 4.48864500 4.48864500 -0.7586568300000032 0 0 0
Cu 4.61737934 4.61743919 2.33645733
C 0.00000000 0.00000000 2.73709082
