&CONTROL
calculation = 'relax'
prefix = 'scf'
pseudo_dir = '/vol0403/data/hp230205/u10028/POT_HYBRID_KKJUS_GBRV'
outdir = './data'
tprnfor = .true.
nstep = 50
disk_io = 'non'
/
&SYSTEM
ibrav = 0
ecutwfc = 50.0
ecutrho = 400
occupations = 'smearing'
smearing = 'mp'
degauss = 0.01
assume_isolated = 'esm'
esm_bc = 'bc1'
input_dft = 'BEEF-VDW'
nosym = .true.
nspin = 1
ntyp = 4
nat = 16
/
&ELECTRONS
electron_maxstep = 200
mixing_beta = 0.1
conv_thr = 1e-06
/
&IONS
ion_dynamics = 'bfgs'
upscale = 1.0
/
&CELL
/

K_POINTS {automatic}
10 10 2 0  0  0

ATOMIC_SPECIES
Ag 107.8 Ag.pbe-n-rrkjus_psl.1.0.0.UPF
In 114.8 In.pbe-dn-rrkjus_psl.1.0.0.UPF
Li 6.941 Li.pbe-sl-rrkjus_psl.1.0.0.UPF
Sc 44.95 Sc.pbe-spn-rrkjus_psl.1.0.0.UPF


CELL_PARAMETERS {angstrom}
6.68683000 0.00000000 0.00000000
0.00000000 6.68683000 0.00000000
0.00000000 0.00000000 25.01510000

ATOMIC_POSITIONS {angstrom}
Li 0.00020060 3.34341500 3.05784582
Li 0.00000000 0.00000000 -0.8357544899999994 0 0 0
Li 3.34341500 3.34341500 -0.8357544899999994 0 0 0
Li 3.34314753 6.68656253 3.05759567
Sc 5.01585805 1.67117255 0.91230070
Sc 5.01512250 5.01512250 -2.507513620000001 0 0 0
Sc 1.67170750 1.67170750 -2.507513620000001 0 0 0
Sc 1.67083821 5.01538997 0.91305115
In 1.67170750 1.67271052 0.97133633
In 1.67170750 5.01512250 -2.507513620000001 0 0 0
In 5.01512250 1.67170750 -2.507513620000001 0 0 0
In 5.01465442 5.01498876 0.97158648
Ag 0.00000000 6.68669626 2.67086223
Ag 0.00000000 3.34341500 -0.8357544899999994 0 0 0
Ag 3.34341500 0.00000000 -0.8357544899999994 0 0 0
Ag 3.34334813 3.34348187 2.67061208
