&CONTROL
calculation = 'relax'
prefix = 'scf'
pseudo_dir = '/vol0403/data/hp230205/u10028/POT_HYBRID_KKJUS_GBRV'
outdir = './data'
tprnfor = .true.
nstep = 50
disk_io = 'non'
/
&SYSTEM
ibrav = 0
ecutwfc = 50.0
ecutrho = 400
occupations = 'smearing'
smearing = 'mp'
degauss = 0.01
assume_isolated = 'esm'
esm_bc = 'bc1'
input_dft = 'BEEF-VDW'
nosym = .true.
nspin = 1
ntyp = 5
nat = 17
/
&ELECTRONS
electron_maxstep = 200
mixing_beta = 0.1
conv_thr = 1e-06
/
&IONS
ion_dynamics = 'bfgs'
upscale = 1.0
/
&CELL
/

K_POINTS {automatic}
8 10 2 0  0  0

ATOMIC_SPECIES
C 12.01 C.pbe-n-rrkjus_psl.1.0.0.UPF
Li 6.941 Li.pbe-sl-rrkjus_psl.1.0.0.UPF
Pb 207.2 Pb.pbe-dn-rrkjus_psl.1.0.0.UPF
Sn 118.7 Sn.pbe-dn-rrkjus_psl.1.0.0.UPF
Y 88.90 Y.pbe-spn-rrkjus_psl.1.0.0.UPF


CELL_PARAMETERS {angstrom}
8.87168000 0.00000000 0.00000000
0.00000000 6.72279000 0.00000000
0.00000000 0.00000000 25.04000000

ATOMIC_POSITIONS {angstrom}
Li 0.00000000 0.00000000 -2.5200256000000003 0 0 0
Li 0.00008872 3.31487329 1.05643760
Li 4.43584000 0.00000000 -2.5200256000000003 0 0 0
Li 4.43584000 3.45100979 0.81555280
Y 0.00000000 3.36139500 -2.5200256000000003 0 0 0
Y 0.00000000 6.68890714 0.75695920
Y 4.43584000 3.36139500 -2.5200256000000003 0 0 0
Y 4.43584000 0.05169826 0.82081120
Sn 2.21792000 4.99321782 -0.8400919999999985 0 0 0
Sn 2.09336161 1.73723616 2.67352080
Sn 6.65376000 4.99321782 -0.8400919999999985 0 0 0
Sn 6.77840710 1.73723616 2.67352080
Pb 2.21792000 1.63182282 -0.8400919999999985 0 0 0
Pb 2.31107264 4.98602443 2.40384000
Pb 6.65376000 1.63182282 -0.8400919999999985 0 0 0
Pb 6.56060736 4.98602443 2.40384000
C 0.00008872 1.57272949 2.35526240
