&CONTROL
calculation = 'relax'
prefix = 'scf'
pseudo_dir = '/vol0403/data/hp230205/u10028/POT_HYBRID_KKJUS_GBRV'
outdir = './data'
tprnfor = .true.
nstep = 70
disk_io = 'non'
/
&SYSTEM
ibrav = 0
ecutwfc = 50.0
ecutrho = 400
occupations = 'smearing'
smearing = 'mp'
degauss = 0.01
assume_isolated = 'esm'
esm_bc = 'bc1'
input_dft = 'BEEF-VDW'
nosym = .true.
nspin = 1
ntyp = 6
nat = 34
/
&ELECTRONS
electron_maxstep = 200
mixing_beta = 0.1
conv_thr = 1e-06
/
&IONS
ion_dynamics = 'bfgs'
upscale = 1.0
/
&CELL
/

K_POINTS {automatic}
6 6 1 0 0 0

ATOMIC_SPECIES
C 12.01 C.pbe-n-rrkjus_psl.1.0.0.UPF
Cu 63.54 Cu.pbe-dn-rrkjus_psl.1.0.0.UPF
Ge 72.64 Ge.pbe-dn-rrkjus_psl.1.0.0.UPF
Li 6.941 Li.pbe-sl-rrkjus_psl.1.0.0.UPF
Mg 24.30 Mg.pbe-spnl-rrkjus_psl.1.0.0.UPF
O 15.99 O.pbe-n-rrkjus_psl.1.0.0.UPF


CELL_PARAMETERS {angstrom}
6.17522000 0.00000000 0.00000000
-0.00000000 8.73308000 0.00000000
0.00000000 0.00000000 26.54980000

ATOMIC_POSITIONS {angstrom}
Li 0.00000000 2.18327000 -1.091727780000003 0 0 0
Li 0.00000000 6.54981000 -1.091727780000003 0 0 0
Li 3.08761000 4.36654000 -3.2749178299999997 0 0 0
Li 3.08761000 0.00000000 -3.2749178299999997 0 0 0
Li 0.75590868 6.52430941 4.42664815
Li 0.75492065 2.20929458 4.42638266
Li 3.17221051 8.73299267 1.18783805
Li 3.14775664 4.36645267 1.14934084
Mg 4.63141500 0.00000000 -1.091727780000003 0 0 0
Mg 4.63141500 4.36654000 -1.091727780000003 0 0 0
Mg 1.54380500 2.18327000 -3.2749178299999997 0 0 0
Mg 1.54380500 6.54981000 -3.2749178299999997 0 0 0
Mg 4.86841994 4.36654000 3.41350779
Mg 4.87453341 8.73229402 3.42917217
Mg 1.43604741 6.56561687 1.30226769
Mg 1.43629442 2.16728846 1.30200219
Cu 0.00000000 0.00000000 -3.2749178299999997 0 0 0
Cu 0.00000000 4.36654000 -3.2749178299999997 0 0 0
Cu 3.08761000 6.54981000 -1.091727780000003 0 0 0
Cu 3.08761000 2.18327000 -1.091727780000003 0 0 0
Cu 0.02315708 4.36627801 1.00809591
Cu 6.15712661 -0.00000000 1.03278722
Cu 3.14269296 2.19802891 3.19155146
Cu 3.14263121 6.53478910 3.19128596
Ge 1.54380500 0.00000000 -1.091727780000003 0 0 0
Ge 1.54380500 4.36654000 -1.091727780000003 0 0 0
Ge 4.63141500 2.18327000 -3.2749178299999997 0 0 0
Ge 4.63141500 6.54981000 -3.2749178299999997 0 0 0
Ge 1.69485088 4.36654000 3.31792851
Ge 1.70047033 0.00008733 3.36890412
Ge 4.71675654 6.53181986 1.20589192
Ge 4.71675654 2.20108548 1.20615741
C 4.74300123 0.00026199 5.64103601
O 4.69285844 0.00069865 6.79276633
