&CONTROL
calculation = 'relax'
prefix = 'scf'
pseudo_dir = '/vol0403/data/hp230205/u10028/POT_HYBRID_KKJUS_GBRV'
outdir = './data'
tprnfor = .true.
nstep = 50
disk_io = 'non'
/
&SYSTEM
ibrav = 0
ecutwfc = 50.0
ecutrho = 400
occupations = 'smearing'
smearing = 'mp'
degauss = 0.01
assume_isolated = 'esm'
esm_bc = 'bc1'
input_dft = 'BEEF-VDW'
nosym = .true.
nspin = 1
ntyp = 6
nat = 18
/
&ELECTRONS
electron_maxstep = 200
mixing_beta = 0.1
conv_thr = 1e-06
/
&IONS
ion_dynamics = 'bfgs'
upscale = 1.0
/
&CELL
/

K_POINTS {automatic}
6 6 1 0 0 0

ATOMIC_SPECIES
C 12.01 C.pbe-n-rrkjus_psl.1.0.0.UPF
In 114.8 In.pbe-dn-rrkjus_psl.1.0.0.UPF
Li 6.941 Li.pbe-sl-rrkjus_psl.1.0.0.UPF
O 15.99 O.pbe-n-rrkjus_psl.1.0.0.UPF
Pb 207.2 Pb.pbe-dn-rrkjus_psl.1.0.0.UPF
Y 88.90 Y.pbe-spn-rrkjus_psl.1.0.0.UPF


CELL_PARAMETERS {angstrom}
6.51578000 0.00000000 0.00000000
0.00000000 9.32892000 0.00000000
0.00000000 0.00000000 24.88170000

ATOMIC_POSITIONS {angstrom}
Li 1.55433932 2.33223000 -0.81363159 0 0 0
Li 4.08845648 2.33223000 2.51628632
Li 1.55433932 6.99669000 -0.81363159 0 0 0
Li 4.12299011 6.99669000 2.56107338
Y 3.25789000 0.00000000 -2.44089477 0 0 0
Y 6.08554305 9.31707227 0.92335989
Y 3.25789000 4.66446000 -2.44089477 0 0 0
Y 6.08541273 4.67630773 0.92335989
In 0.00000000 0.00000000 -2.44089477 0 0 0
In 2.77735123 9.31044874 1.02064733
In 0.00000000 4.66446000 -2.44089477 0 0 0
In 2.77741638 4.68293126 1.02064733
Pb 4.81222932 2.33223000 -0.81363159 0 0 0
Pb 1.11367712 2.33223000 2.42422403
Pb 4.81222932 6.99669000 -0.81363159 0 0 0
Pb 1.16652009 6.99669000 2.49886913
C 2.20070470 2.33223000 6.01390689
O 1.28211003 2.33213671 6.68297580
