&CONTROL
calculation = 'relax'
prefix = 'scf'
pseudo_dir = '/vol0403/data/hp230205/u10028/POT_HYBRID_KKJUS_GBRV'
outdir = './data'
tprnfor = .true.
nstep = 50
disk_io = 'non'
/
&SYSTEM
ibrav = 0
ecutwfc = 50.0
ecutrho = 400
occupations = 'smearing'
smearing = 'mp'
degauss = 0.01
assume_isolated = 'esm'
esm_bc = 'bc1'
input_dft = 'BEEF-VDW'
nosym = .true.
nspin = 1
ntyp = 4
nat = 16
/
&ELECTRONS
electron_maxstep = 200
mixing_beta = 0.1
conv_thr = 1e-06
/
&IONS
ion_dynamics = 'bfgs'
upscale = 1.0
/
&CELL
/

K_POINTS {automatic}
9 10 2 0  0  0

ATOMIC_SPECIES
In 114.8 In.pbe-dn-rrkjus_psl.1.0.0.UPF
Pd 106.4 Pd.pbe-n-rrkjus_psl.1.0.0.UPF
Sc 44.95 Sc.pbe-spn-rrkjus_psl.1.0.0.UPF
Y 88.90 Y.pbe-spn-rrkjus_psl.1.0.0.UPF


CELL_PARAMETERS {angstrom}
7.36232000 0.00000000 0.00000000
0.00000000 6.98742000 0.00000000
0.00000000 0.00000000 25.23460000

ATOMIC_POSITIONS {angstrom}
Y 1.84058000 5.15699546 -0.8723601199999997 0 0 0
Y 1.84065362 1.42207972 2.71751407
Y 5.52174000 5.15699546 -0.8723601199999997 0 0 0
Y 5.52174000 1.42298808 2.71902815
Sc 1.84058000 1.66328546 -0.8723601199999997 0 0 0
Sc 1.84072725 5.25635657 2.40460503
Sc 5.52174000 1.66328546 -0.8723601199999997 0 0 0
Sc 5.52159275 5.25649632 2.40510973
In 0.00000000 0.00000000 -2.6173327099999995 0 0 0
In 7.36217275 3.29869111 1.09265818
In 3.68116000 0.00000000 -2.6173327099999995 0 0 0
In 3.68138087 3.29855136 1.09265818
Pd 0.00000000 3.49371000 -2.6173327099999995 0 0 0
Pd 7.36136290 0.03409861 0.95563430
Pd 3.68116000 3.49371000 -2.6173327099999995 0 0 0
Pd 3.68219072 0.03430823 0.95588665
