&CONTROL
calculation = 'relax'
prefix = 'scf'
pseudo_dir = '/vol0004/mdt0/data/hp150275/u10028/POT_HYBRID_KKJUS_GBRV'
outdir = './data'
tprnfor = .true.
nstep = 50
disk_io = 'non'
/
&SYSTEM
ibrav = 0
ecutwfc = 50.0
ecutrho = 400
occupations = 'smearing'
smearing = 'mp'
degauss = 0.01
assume_isolated = 'esm'
esm_bc = 'bc1'
input_dft = 'BEEF-VDW'
nosym = .true.
nspin = 2
ntyp = 5
nat = 34
starting_magnetization(1) = 0.0
starting_magnetization(2) = 0.1
starting_magnetization(3) = 0.0
starting_magnetization(4) = 0.0
starting_magnetization(5) = 0.0
/
&ELECTRONS
electron_maxstep = 300
mixing_beta = 0.1
conv_thr = 1e-06
/
&IONS
ion_dynamics = 'bfgs'
upscale = 1.0
/
&CELL
/

K_POINTS {automatic}
8 6 1 0 0 0

ATOMIC_SPECIES
C 12.01 C.pbe-n-rrkjus_psl.1.0.0.UPF
Co 58.93 co_pbe_v1.2.uspp.F.UPF
Ge 72.64 Ge.pbe-dn-rrkjus_psl.1.0.0.UPF
O 15.99 O.pbe-n-rrkjus_psl.1.0.0.UPF
Zn 65.40 Zn.pbe-dnl-rrkjus_psl.1.0.0.UPF

CELL_PARAMETERS {angstrom}
5.75846000 0.00000000 0.00000000
0.00000000 8.14369000 0.00000000
0.00000000 0.00000000 26.10780000

ATOMIC_POSITIONS {angstrom}
Zn 0.00000000 0.00000000 -3.0538293700000025 0 0 0
Zn 2.87923000 2.03592250 -1.0179431200000018 0 0 0
Zn 2.87923000 6.10776750 -1.0179431200000018 0 0 0
Zn 0.00000000 4.07184500 -3.0538293700000025 0 0 0
Zn 0.00362783 4.07184500 0.94745206
Zn 2.87283811 6.07388975 3.32456725
Zn 2.87283811 2.06980025 3.32456725
Zn 0.02827404 0.00000000 1.00515030
Co 1.43961500 0.00000000 -1.0179431200000018 0 0 0
Co 4.31884500 4.07184500 -1.0179431200000018 0 0 0
Co 4.31884500 0.00000000 -1.0179431200000018 0 0 0
Co 1.43961500 4.07184500 -1.0179431200000018 0 0 0
Co 4.31884500 6.10776750 -3.0538293700000025 0 0 0
Co 1.43961500 2.03592250 -3.0538293700000025 0 0 0
Co 1.43961500 6.10776750 -3.0538293700000025 0 0 0
Co 4.31884500 2.03592250 -3.0538293700000025 0 0 0
Co 1.39585070 4.07184500 2.89196101
Co 4.34982551 0.00000000 2.92329037
Co 4.34447015 4.07184500 2.92276821
Co 1.38508238 0.00000000 3.15251685
Co 4.30934354 2.02769737 0.97799819
Co 1.45896343 6.14482129 1.01298264
Co 1.45896343 1.99886871 1.01298264
Co 4.30934354 6.11599263 0.97799819
Ge 0.00000000 6.10776750 -1.0179431200000018 0 0 0
Ge 2.87923000 0.00000000 -3.0538293700000025 0 0 0
Ge 0.00000000 2.03592250 -1.0179431200000018 0 0 0
Ge 2.87923000 4.07184500 -3.0538293700000025 0 0 0
Ge 5.73139524 2.08763493 3.10708928
Ge 2.87773280 4.07184500 1.02447007
Ge 5.73139524 6.05605507 3.10708928
Ge 2.87986343 0.00000000 1.04953356
C 1.48447340 0.00000000 4.89442927
O 1.46938624 0.00000000 6.05831499
