&CONTROL
calculation = 'relax'
prefix = 'scf'
pseudo_dir = '/vol0403/data/hp230205/u10028/POT_HYBRID_KKJUS_GBRV'
outdir = './data'
tprnfor = .true.
nstep = 50
disk_io = 'non'
/
&SYSTEM
ibrav = 0
ecutwfc = 50.0
ecutrho = 400
occupations = 'smearing'
smearing = 'mp'
degauss = 0.01
assume_isolated = 'esm'
esm_bc = 'bc1'
input_dft = 'BEEF-VDW'
nosym = .true.
nspin = 1
ntyp = 4
nat = 32
/
&ELECTRONS
electron_maxstep = 200
mixing_beta = 0.1
conv_thr = 1e-06
/
&IONS
ion_dynamics = 'bfgs'
upscale = 1.0
/
&CELL
/

K_POINTS {automatic}
9 6 2 0  0  0

ATOMIC_SPECIES
Ag 107.8 Ag.pbe-n-rrkjus_psl.1.0.0.UPF
In 114.8 In.pbe-dn-rrkjus_psl.1.0.0.UPF
Li 6.941 Li.pbe-sl-rrkjus_psl.1.0.0.UPF
Y 88.90 Y.pbe-spn-rrkjus_psl.1.0.0.UPF


CELL_PARAMETERS {angstrom}
6.90709000 0.00000000 0.00000000
0.00000000 9.76810000 0.00000000
0.00000000 0.00000000 27.32610000

ATOMIC_POSITIONS {angstrom}
Li 0.00000000 2.44202500 -1.220930150000001 0 0 0
Li 0.00000000 7.32607500 -1.220930150000001 0 0 0
Li 3.45354500 4.88405000 -3.6630636999999986 0 0 0
Li 3.45354500 0.00000000 -3.6630636999999986 0 0 0
Li 1.02245653 7.32607500 4.89164516
Li 1.02245653 2.44202500 4.89164516
Li 3.50686773 0.00000000 1.31547845
Li 3.50693681 4.88405000 1.31547845
Y 5.18031750 0.00000000 -1.220930150000001 0 0 0
Y 5.18031750 4.88405000 -1.220930150000001 0 0 0
Y 1.72677250 2.44202500 -3.6630636999999986 0 0 0
Y 1.72677250 7.32607500 -3.6630636999999986 0 0 0
Y 5.49023863 4.88405000 3.68875024
Y 5.49023863 0.00000000 3.68875024
Y 1.69251333 7.32597732 1.40401502
Y 1.69251333 2.44202500 1.40401502
In 1.72677250 0.00000000 -1.220930150000001 0 0 0
In 1.72677250 4.88405000 -1.220930150000001 0 0 0
In 5.18031750 2.44202500 -3.6630636999999986 0 0 0
In 5.18031750 7.32607500 -3.6630636999999986 0 0 0
In 1.84336418 4.88405000 3.72591374
In 1.84329511 0.00000000 3.72591374
In 5.19606567 7.32607500 1.23186059
In 5.19606567 2.44202500 1.23186059
Ag 0.00000000 0.00000000 -3.6630636999999986 0 0 0
Ag 0.00000000 4.88405000 -3.6630636999999986 0 0 0
Ag 3.45354500 7.32607500 -1.220930150000001 0 0 0
Ag 3.45354500 2.44202500 -1.220930150000001 0 0 0
Ag 0.01795843 4.88405000 1.15480099
Ag 0.01795843 0.00000000 1.15480099
Ag 3.61337506 2.44202500 3.70623894
Ag 3.61337506 7.32607500 3.70623894
