&CONTROL
calculation = 'relax'
prefix = 'scf'
pseudo_dir = '/vol0004/mdt0/data/hp150275/u10028/POT_HYBRID_KKJUS_GBRV'
outdir = './data'
tprnfor = .true.
nstep = 50
disk_io = 'non'
/
&SYSTEM
ibrav = 0
ecutwfc = 50.0
ecutrho = 400
occupations = 'smearing'
smearing = 'mp'
degauss = 0.01
assume_isolated = 'esm'
esm_bc = 'bc1'
input_dft = 'BEEF-VDW'
nosym = .true.
nspin = 2
ntyp = 4
nat = 33
starting_magnetization(1) = 0.0
starting_magnetization(2) = 0.0
starting_magnetization(3) = 0.0
starting_magnetization(4) = 0.001
/
&ELECTRONS
electron_maxstep = 300
mixing_beta = 0.1
conv_thr = 1e-06
/
&IONS
ion_dynamics = 'bfgs'
upscale = 1.0
/
&CELL
/

K_POINTS {automatic}
8 6 1 0 0 0

ATOMIC_SPECIES
C 12.01 C.pbe-n-rrkjus_psl.1.0.0.UPF
Ge 72.64 Ge.pbe-dn-rrkjus_psl.1.0.0.UPF
Li 6.941 Li.pbe-sl-rrkjus_psl.1.0.0.UPF
Ni 58.69 ni_pbe_v1.4.uspp.F.UPF

CELL_PARAMETERS {angstrom}
5.71239000 0.00000000 0.00000000
0.00000000 8.07854000 0.00000000
0.00000000 0.00000000 26.05890000

ATOMIC_POSITIONS {angstrom}
Li 0.00000000 0.00000000 -3.0293471200000006 0 0 0
Li 2.85619500 2.01963500 -1.00978237 0 0 0
Li 2.85619500 6.05890500 -1.00978237 0 0 0
Li 0.00000000 4.03927000 -3.0293471200000006 0 0 0
Li 0.00000000 4.03918921 0.88026964
Li 2.85619500 5.98458243 3.56772400
Li 2.85619500 2.09411914 3.56772400
Li 0.00000000 0.00016157 0.92821802
Ni 1.42809750 0.00000000 -1.00978237 0 0 0
Ni 4.28429250 4.03927000 -1.00978237 0 0 0
Ni 4.28429250 0.00000000 -1.00978237 0 0 0
Ni 1.42809750 4.03927000 -1.00978237 0 0 0
Ni 4.28429250 6.05890500 -3.0293471200000006 0 0 0
Ni 1.42809750 2.01963500 -3.0293471200000006 0 0 0
Ni 1.42809750 6.05890500 -3.0293471200000006 0 0 0
Ni 4.28429250 2.01963500 -3.0293471200000006 0 0 0
Ni 1.31619178 4.03902764 2.81983357
Ni 4.51078876 0.00040393 3.01579650
Ni 4.39619822 4.03902764 2.81983357
Ni 1.20154411 0.00040393 3.01579650
Ni 4.27081126 1.99725744 1.04913131
Ni 1.44135024 6.08112099 1.04913131
Ni 1.44152162 1.99725744 1.04913131
Ni 4.27103976 6.08112099 1.04913131
Ge 0.00000000 6.05890500 -1.00978237 0 0 0
Ge 2.85619500 0.00000000 -3.0293471200000006 0 0 0
Ge 0.00000000 2.01963500 -1.00978237 0 0 0
Ge 2.85619500 4.03927000 -3.0293471200000006 0 0 0
Ge 0.00000000 2.08078955 3.07911962
Ge 2.85619500 4.03935079 1.01082473
Ge 0.00000000 5.99783124 3.07885904
Ge 2.85619500 8.07757058 1.01786063
C 2.85619500 0.00016157 3.46270663
