&CONTROL
calculation = 'relax'
prefix = 'scf'
pseudo_dir = '/vol0004/mdt0/data/hp150275/u10028/POT_KKJUS'
outdir = './data'
tprnfor = .true.
nstep = 50
disk_io = 'non'
/
&SYSTEM
ibrav = 0
ecutwfc = 50.0
ecutrho = 400
occupations = 'smearing'
smearing = 'mp'
degauss = 0.01
assume_isolated = 'esm'
esm_bc = 'bc1'
input_dft = 'BEEF-VDW'
nosym = .true.
nspin = 1
ntyp = 4
nat = 33
/
&ELECTRONS
electron_maxstep = 200
mixing_beta = 0.1
conv_thr = 1e-06
/
&IONS
ion_dynamics = 'bfgs'
upscale = 1.0
/
&CELL
/

K_POINTS {automatic}
8 6 1 0 0 0

ATOMIC_SPECIES
C 12.01 C.pbe-n-rrkjus_psl.1.0.0.UPF
Cu 63.54 Cu.pbe-dn-rrkjus_psl.1.0.0.UPF
Zn 65.40 Zn.pbe-dnl-rrkjus_psl.1.0.0.UPF
Zr 91.22 Zr.pbe-spn-rrkjus_psl.1.0.0.UPF

CELL_PARAMETERS {angstrom}
6.25397000 0.00000000 0.00000000
0.00000000 8.84445000 0.00000000
0.00000000 0.00000000 26.63330000

ATOMIC_POSITIONS {angstrom}
Zr 0.00000000 0.00000000 -3.3166448499999994 0 0 0
Zr 3.12698500 2.21111250 -1.1055482799999972 0 0 0
Zr 3.12698500 6.63333750 -1.1055482799999972 0 0 0
Zr 0.00000000 4.42222500 -3.3166448499999994 0 0 0
Zr 0.02007524 4.51022728 1.25469476
Zr 2.68070170 6.63324906 3.27136824
Zr 2.98101734 2.21120094 3.12595042
Zr 0.02001270 8.75644772 1.25469476
Zn 0.00000000 6.63333750 -1.1055482799999972 0 0 0
Zn 3.12698500 0.00000000 -3.3166448499999994 0 0 0
Zn 0.00000000 2.21111250 -1.1055482799999972 0 0 0
Zn 3.12698500 4.42222500 -3.3166448499999994 0 0 0
Zn 5.83651750 2.21102406 3.32330317
Zn 3.09877960 4.39542632 1.04615602
Zn 6.14615156 6.63333750 3.35180080
Zn 3.09871706 0.02679868 1.04615602
Cu 1.56349250 0.00000000 -1.1055482799999972 0 0 0
Cu 4.69047750 4.42222500 -1.1055482799999972 0 0 0
Cu 4.69047750 0.00000000 -1.1055482799999972 0 0 0
Cu 1.56349250 4.42222500 -1.1055482799999972 0 0 0
Cu 4.69047750 6.63333750 -3.3166448499999994 0 0 0
Cu 1.56349250 2.21111250 -3.3166448499999994 0 0 0
Cu 1.56349250 6.63333750 -3.3166448499999994 0 0 0
Cu 4.69047750 2.21111250 -3.3166448499999994 0 0 0
Cu 1.07618316 4.22720488 3.90311012
Cu 4.53931905 8.73026815 3.32330317
Cu 4.53938158 4.53640685 3.32356951
Cu 1.07630824 0.19493168 3.90311012
Cu 4.80892769 2.21102406 1.00114575
Cu 1.58069092 6.63342594 0.96465813
Cu 1.42271564 2.21102406 0.96385913
Cu 4.49979395 6.63342594 1.26827775
C 1.29000639 2.21111250 4.28955930
