&CONTROL
calculation = 'relax'
prefix = 'scf'
pseudo_dir = '/vol0403/data/hp230205/u10028/POT_HYBRID_KKJUS_GBRV'
outdir = './data'
tprnfor = .true.
nstep = 70
disk_io = 'non'
/
&SYSTEM
ibrav = 0
ecutwfc = 50.0
ecutrho = 400
occupations = 'smearing'
smearing = 'mp'
degauss = 0.01
assume_isolated = 'esm'
esm_bc = 'bc1'
input_dft = 'BEEF-VDW'
nosym = .true.
nspin = 1
ntyp = 6
nat = 34
/
&ELECTRONS
electron_maxstep = 200
mixing_beta = 0.1
conv_thr = 1e-06
/
&IONS
ion_dynamics = 'bfgs'
upscale = 1.0
/
&CELL
/

K_POINTS {automatic}
9 6 2 0  0  0

ATOMIC_SPECIES
C 12.01 C.pbe-n-rrkjus_psl.1.0.0.UPF
Cu 63.54 Cu.pbe-dn-rrkjus_psl.1.0.0.UPF
In 114.8 In.pbe-dn-rrkjus_psl.1.0.0.UPF
Mg 24.30 Mg.pbe-spnl-rrkjus_psl.1.0.0.UPF
O 15.99 O.pbe-n-rrkjus_psl.1.0.0.UPF
Pd 106.4 Pd.pbe-n-rrkjus_psl.1.0.0.UPF


CELL_PARAMETERS {angstrom}
6.45956000 0.00000000 0.00000000
-0.00000000 9.13520000 0.00000000
0.00000000 0.00000000 26.85140000

ATOMIC_POSITIONS {angstrom}
Mg 1.61489000 0.00000000 -1.1419900400000031 0 0 0
Mg 1.61489000 4.56760000 -1.1419900400000031 0 0 0
Mg 4.84467000 2.28380000 -3.425701610000001 0 0 0
Mg 4.84467000 6.85140000 -3.425701610000001 0 0 0
Mg 1.60003301 4.68379974 3.51672786
Mg 1.60003301 9.01900026 3.51672786
Mg 4.80927161 6.85140000 1.09150941
Mg 4.89647567 2.28380000 1.21529436
In 4.84467000 0.00000000 -1.1419900400000031 0 0 0
In 4.84467000 4.56760000 -1.1419900400000031 0 0 0
In 1.61489000 2.28380000 -3.425701610000001 0 0 0
In 1.61489000 6.85140000 -3.425701610000001 0 0 0
In 4.77703841 4.53398246 3.68589168
In 4.77703841 0.03361754 3.68562316
In 1.63174945 6.85140000 1.17098955
In 1.54377024 2.28380000 1.18575782
Cu 0.00000000 0.00000000 -3.425701610000001 0 0 0
Cu 0.00000000 4.56760000 -3.425701610000001 0 0 0
Cu 3.22978000 6.85140000 -1.1419900400000031 0 0 0
Cu 3.22978000 2.28380000 -1.1419900400000031 0 0 0
Cu 6.41776665 4.58970718 1.25557146
Cu 6.41776665 9.11318417 1.25557146
Cu 3.22984460 2.28380000 3.31587939
Cu 3.35935877 6.85130865 3.38139680
Pd 0.00000000 2.28380000 -1.1419900400000031 0 0 0
Pd 0.00000000 6.85140000 -1.1419900400000031 0 0 0
Pd 3.22978000 4.56760000 -3.425701610000001 0 0 0
Pd 3.22978000 0.00000000 -3.425701610000001 0 0 0
Pd 6.30834170 6.85140000 3.28768542
Pd 0.14127058 2.28380000 3.70737280
Pd 3.23410791 0.04056029 1.16588779
Pd 3.23417250 4.52703971 1.16588779
C 0.58949945 2.28380000 5.61113706
O 0.75376606 2.28389135 6.75205304
