&CONTROL
calculation = 'relax'
prefix = 'scf'
pseudo_dir = '/vol0403/data/hp230205/u10028/POT_HYBRID_KKJUS_GBRV'
outdir = './data'
tprnfor = .true.
nstep = 50
disk_io = 'non'
/
&SYSTEM
ibrav = 0
ecutwfc = 50.0
ecutrho = 400
occupations = 'smearing'
smearing = 'mp'
degauss = 0.01
assume_isolated = 'esm'
esm_bc = 'bc1'
input_dft = 'BEEF-VDW'
nosym = .true.
nspin = 1
ntyp = 4
nat = 16
/
&ELECTRONS
electron_maxstep = 200
mixing_beta = 0.1
conv_thr = 1e-06
/
&IONS
ion_dynamics = 'bfgs'
upscale = 1.0
/
&CELL
/

K_POINTS {automatic}
6 6 1 0 0 0

ATOMIC_SPECIES
Al 26.98 Al.pbe-nl-rrkjus_psl.1.0.0.UPF
In 114.8 In.pbe-dn-rrkjus_psl.1.0.0.UPF
Li 6.941 Li.pbe-sl-rrkjus_psl.1.0.0.UPF
Sc 44.95 Sc.pbe-spn-rrkjus_psl.1.0.0.UPF


CELL_PARAMETERS {angstrom}
8.37392000 0.00000000 0.00000000
0.00000000 6.08380000 0.00000000
0.00000000 0.00000000 24.56130000

ATOMIC_POSITIONS {angstrom}
Li 0.00000000 3.04190000 -2.280762320000001 0 0 0
Li 0.00000000 5.81252336 0.77589147
Li 4.18696000 3.04190000 -2.280762320000001 0 0 0
Li 4.18696000 5.81252336 0.77589147
Sc 2.09348000 1.48189200 -0.7601722399999993 0 0 0
Sc 2.09348000 4.10455735 2.34118312
Sc 6.28044000 1.48189200 -0.7601722399999993 0 0 0
Sc 6.28035626 4.10461818 2.34118312
Al 0.00000000 0.00000000 -2.280762320000001 0 0 0
Al 0.00000000 2.78765800 0.82747020
Al 4.18696000 0.00000000 -2.280762320000001 0 0 0
Al 4.18696000 2.78765800 0.82747020
In 2.09348000 4.52379200 -0.7601722399999993 0 0 0
In 2.09356374 1.11017182 2.45490193
In 6.28044000 4.52379200 -0.7601722399999993 0 0 0
In 6.28027252 1.11035434 2.45514755
