&CONTROL
calculation = 'relax'
prefix = 'scf'
pseudo_dir = '/vol0403/data/hp230205/u10028/POT_HYBRID_KKJUS_GBRV'
outdir = './data'
tprnfor = .true.
nstep = 50
disk_io = 'non'
/
&SYSTEM
ibrav = 0
ecutwfc = 50.0
ecutrho = 400
occupations = 'smearing'
smearing = 'mp'
degauss = 0.01
assume_isolated = 'esm'
esm_bc = 'bc1'
input_dft = 'BEEF-VDW'
nosym = .true.
nspin = 2
ntyp = 6
nat = 34
starting_magnetization(1) = 0.0
starting_magnetization(2) = 0.0
starting_magnetization(3) = 0.0
starting_magnetization(4) = 0.1
starting_magnetization(5) = 0.0
starting_magnetization(6) = 0.0
/
&ELECTRONS
electron_maxstep = 200
mixing_beta = 0.1
conv_thr = 1e-06
/
&IONS
ion_dynamics = 'bfgs'
upscale = 1.0
/
&CELL
/

K_POINTS {automatic}
9 6 2 0  0  0

ATOMIC_SPECIES
Al 26.98 Al.pbe-nl-rrkjus_psl.1.0.0.UPF
C 12.01 C.pbe-n-rrkjus_psl.1.0.0.UPF
Li 6.941 Li.pbe-sl-rrkjus_psl.1.0.0.UPF
Mn 54.93 mn_pbe_v1.5.uspp.F.UPF
O 15.99 O.pbe-n-rrkjus_psl.1.0.0.UPF
Pd 106.4 Pd.pbe-n-rrkjus_psl.1.0.0.UPF


CELL_PARAMETERS {angstrom}
6.10222000 0.00000000 0.00000000
0.00000000 8.62984000 0.00000000
0.00000000 0.00000000 26.47240000

ATOMIC_POSITIONS {angstrom}
Li 0.00000000 2.15746000 25.39364970
Li 0.00000000 6.47238000 25.39364970
Li 3.05111000 4.31492000 23.23614910
Li 3.05111000 0.00000000 23.23614910
Li 6.02435567 6.47238000 3.58912799
Li 6.02173172 2.15746000 3.53935988
Li 3.02426023 0.00785315 0.96333064
Li 3.02426023 4.30706685 0.96333064
Mn 1.52555500 0.00000000 25.39364970
Mn 1.52555500 4.31492000 25.39364970
Mn 4.57666500 2.15746000 23.23614910
Mn 4.57666500 6.47238000 23.23614910
Mn 1.60280911 4.31819934 3.16848156
Mn 1.60280911 8.62656066 3.16848156
Mn 4.58105860 6.47238000 1.14599020
Mn 4.61333934 2.15746000 1.11501749
Al 0.00000000 0.00000000 23.23614910
Al 0.00000000 4.31492000 23.23614910
Al 3.05111000 6.47238000 25.39364970
Al 3.05111000 2.15746000 25.39364970
Al 0.02367661 4.32389503 1.05174845
Al 0.02367661 8.62086497 1.05174845
Al 3.08064474 2.15746000 3.25769354
Al 3.06069049 6.47238000 3.34055216
Pd 4.57666500 0.00000000 25.39364970
Pd 4.57666500 4.31492000 25.39364970
Pd 1.52555500 2.15746000 23.23614910
Pd 1.52555500 6.47238000 23.23614910
Pd 4.46316371 4.33002222 3.00329378
Pd 4.46316371 8.61473778 3.00329378
Pd 1.51389976 6.47238000 1.09410429
Pd 1.49766785 2.15746000 1.09939877
C 0.06712442 2.15746000 5.63597396
O 0.11758978 2.15746000 6.77508133
