&CONTROL
calculation = 'relax'
prefix = 'scf'
pseudo_dir = '/vol0004/mdt0/data/hp150275/u10028/POT_HYBRID_KKJUS_GBRV'
outdir = './data'
tprnfor = .true.
nstep = 50
disk_io = 'non'
/
&SYSTEM
ibrav = 0
ecutwfc = 50.0
ecutrho = 400
occupations = 'smearing'
smearing = 'mp'
degauss = 0.01
assume_isolated = 'esm'
esm_bc = 'bc1'
input_dft = 'BEEF-VDW'
nosym = .true.
nspin = 2
ntyp = 4
nat = 33
starting_magnetization(1) = 0.0
starting_magnetization(2) = 0.0
starting_magnetization(3) = 0.1
starting_magnetization(4) = 0.0
/
&ELECTRONS
electron_maxstep = 300
mixing_beta = 0.1
conv_thr = 1e-06
/
&IONS
ion_dynamics = 'bfgs'
upscale = 1.0
/
&CELL
/

K_POINTS {automatic}
8 6 1 0 0 0

ATOMIC_SPECIES
Al 26.98 Al.pbe-nl-rrkjus_psl.1.0.0.UPF
C 12.01 C.pbe-n-rrkjus_psl.1.0.0.UPF
Mn 54.93 mn_pbe_v1.5.uspp.F.UPF
V 50.94 V.pbe-spnl-rrkjus_psl.1.0.0.UPF

CELL_PARAMETERS {angstrom}
5.82937000 0.00000000 0.00000000
0.00000000 8.24397000 0.00000000
0.00000000 0.00000000 26.18300000

ATOMIC_POSITIONS {angstrom}
Mn 1.45734250 0.00000000 -1.0305628800000015 0 0 0
Mn 4.37202750 4.12198500 -1.0305628800000015 0 0 0
Mn 4.37202750 0.00000000 -1.0305628800000015 0 0 0
Mn 1.45734250 4.12198500 -1.0305628800000015 0 0 0
Mn 4.37202750 6.18297750 -3.0914268100000015 0 0 0
Mn 1.45734250 2.06099250 -3.0914268100000015 0 0 0
Mn 1.45734250 6.18297750 -3.0914268100000015 0 0 0
Mn 4.37202750 2.06099250 -3.0914268100000015 0 0 0
Mn 1.44463447 3.99890253 3.23778978
Mn 4.42816433 8.14421796 3.17102313
Mn 4.42810604 4.22173704 3.17102313
Mn 1.44463447 0.12308247 3.23778978
Mn 4.32241956 2.06099250 0.94415898
Mn 1.46731072 6.18297750 1.07847777
Mn 1.49261019 2.06099250 1.08947463
Mn 4.36928770 6.18297750 1.06486261
Al 0.00000000 0.00000000 -3.0914268100000015 0 0 0
Al 2.91468500 2.06099250 -1.0305628800000015 0 0 0
Al 2.91468500 6.18297750 -1.0305628800000015 0 0 0
Al 0.00000000 4.12198500 -3.0914268100000015 0 0 0
Al 0.00699524 4.11794545 1.04103608
Al 2.86187091 6.18297750 3.22574560
Al 3.15164889 2.06099250 3.22967305
Al 0.00699524 0.00403955 1.04103608
V 0.00000000 6.18297750 -1.0305628800000015 0 0 0
V 2.91468500 0.00000000 -3.0914268100000015 0 0 0
V 0.00000000 2.06099250 -1.0305628800000015 0 0 0
V 2.91468500 4.12198500 -3.0914268100000015 0 0 0
V 5.61863827 2.06099250 2.86625301
V 2.91975655 4.13690659 1.07376483
V 0.06890315 6.18297750 3.01497245
V 2.91975655 8.22904841 1.07376483
C 1.36325647 2.06099250 3.87403668
