&CONTROL
calculation = 'relax'
prefix = 'scf'
pseudo_dir = '/vol0403/data/hp230205/u10028/POT_HYBRID_KKJUS_GBRV'
outdir = './data'
tprnfor = .true.
nstep = 50
disk_io = 'non'
/
&SYSTEM
ibrav = 0
ecutwfc = 50.0
ecutrho = 400
occupations = 'smearing'
smearing = 'mp'
degauss = 0.01
assume_isolated = 'esm'
esm_bc = 'bc1'
input_dft = 'BEEF-VDW'
nosym = .true.
nspin = 1
ntyp = 4
nat = 16
/
&ELECTRONS
electron_maxstep = 200
mixing_beta = 0.1
conv_thr = 1e-06
/
&IONS
ion_dynamics = 'bfgs'
upscale = 1.0
/
&CELL
/

K_POINTS {automatic}
10 10 2 0  0  0

ATOMIC_SPECIES
Cu 63.54 Cu.pbe-dn-rrkjus_psl.1.0.0.UPF
Ge 72.64 Ge.pbe-dn-rrkjus_psl.1.0.0.UPF
In 114.8 In.pbe-dn-rrkjus_psl.1.0.0.UPF
Li 6.941 Li.pbe-sl-rrkjus_psl.1.0.0.UPF


CELL_PARAMETERS {angstrom}
6.49386000 0.00000000 0.00000000
0.00000000 6.49386000 0.00000000
0.00000000 0.00000000 24.87040000

ATOMIC_POSITIONS {angstrom}
Li 0.00000000 3.24693000 -2.435309570000001 0 0 0
Li 0.00000000 0.00006494 0.88215309
Li 3.24693000 3.24699494 0.88115827
Li 3.24693000 0.00000000 -2.435309570000001 0 0 0
In 1.62346500 1.62346500 -0.8117698599999983 0 0 0
In 1.62352994 4.87033006 2.85362970
In 4.87026512 1.62352994 2.85387840
In 4.87039500 4.87039500 -0.8117698599999983 0 0 0
Cu 0.00000000 0.00000000 -2.435309570000001 0 0 0
Cu 0.00000000 3.24686506 0.71676493
Cu 3.24686506 0.00006494 0.71701363
Cu 3.24693000 3.24693000 -2.435309570000001 0 0 0
Ge 4.87039500 1.62346500 -0.8117698599999983 0 0 0
Ge 4.87084957 4.86877154 2.25674010
Ge 1.62320525 1.62508846 2.25674010
Ge 1.62346500 4.87039500 -0.8117698599999983 0 0 0
