&CONTROL
calculation = 'relax'
prefix = 'scf'
pseudo_dir = '/vol0403/data/hp230205/u10028/POT_HYBRID_KKJUS_GBRV'
outdir = './data'
tprnfor = .true.
nstep = 50
disk_io = 'non'
/
&SYSTEM
ibrav = 0
ecutwfc = 50.0
ecutrho = 400
occupations = 'smearing'
smearing = 'mp'
degauss = 0.01
assume_isolated = 'esm'
esm_bc = 'bc1'
input_dft = 'BEEF-VDW'
nosym = .true.
nspin = 1
ntyp = 5
nat = 33
/
&ELECTRONS
electron_maxstep = 200
mixing_beta = 0.1
conv_thr = 1e-06
/
&IONS
ion_dynamics = 'bfgs'
upscale = 1.0
/
&CELL
/

K_POINTS {automatic}
7 7 2 0  0  0

ATOMIC_SPECIES
C 12.01 C.pbe-n-rrkjus_psl.1.0.0.UPF
Cu 63.54 Cu.pbe-dn-rrkjus_psl.1.0.0.UPF
In 114.8 In.pbe-dn-rrkjus_psl.1.0.0.UPF
Sn 118.7 Sn.pbe-dn-rrkjus_psl.1.0.0.UPF
Y 88.90 Y.pbe-spn-rrkjus_psl.1.0.0.UPF


CELL_PARAMETERS {angstrom}
9.14612000 0.00000000 0.00000000
0.00000000 8.82850000 0.00000000
0.00000000 0.00000000 26.63560000

ATOMIC_POSITIONS {angstrom}
Y 2.28653000 2.20712500 -3.3177303400000007 0 0 0
Y 2.28653000 2.20712500 1.14612987
Y 2.28653000 6.62137500 -3.3177303400000007 0 0 0
Y 2.28653000 6.62137500 1.21538243
Y 6.85959000 2.20712500 -3.3177303400000007 0 0 0
Y 6.85959000 2.20712500 1.14959250
Y 6.85959000 6.62137500 -3.3177303400000007 0 0 0
Y 6.85959000 6.62137500 1.12615317
In 0.00000000 2.20712500 -1.10591011 0 0 0
In 9.02840944 2.20712500 3.44265130
In 0.00000000 6.62137500 -1.10591011 0 0 0
In 9.04587852 6.62137500 3.57955828
In 4.57306000 2.20712500 -1.10591011 0 0 0
In 4.69077056 2.20712500 3.44265130
In 4.57306000 6.62137500 -1.10591011 0 0 0
In 4.67330148 6.62137500 3.57929193
Cu 0.00000000 0.00000000 -3.3177303400000007 0 0 0
Cu 0.01262165 8.82284976 1.01534907
Cu 0.00000000 4.41425000 -3.3177303400000007 0 0 0
Cu 0.01262165 4.41990024 1.01534907
Cu 4.57306000 0.00000000 -3.3177303400000007 0 0 0
Cu 4.56043835 8.82284976 1.01508272
Cu 4.57306000 4.41425000 -3.3177303400000007 0 0 0
Cu 4.56043835 4.41990024 1.01508272
Sn 2.28653000 0.00000000 -1.10591011 0 0 0
Sn 2.28643854 8.78029639 3.60859109
Sn 2.28653000 4.41425000 -1.10591011 0 0 0
Sn 2.28653000 4.46245361 3.60859109
Sn 6.85959000 0.00000000 -1.10591011 0 0 0
Sn 6.85959000 8.79654083 3.52548802
Sn 6.85959000 4.41425000 -1.10591011 0 0 0
Sn 6.85959000 4.44620917 3.52548802
C 2.28653000 2.20712500 3.49485708
