&CONTROL
calculation = 'relax'
prefix = 'scf'
pseudo_dir = '/vol0403/data/hp230205/u10028/POT_HYBRID_KKJUS_GBRV'
outdir = './data'
tprnfor = .true.
nstep = 50
disk_io = 'non'
/
&SYSTEM
ibrav = 0
ecutwfc = 50.0
ecutrho = 400
occupations = 'smearing'
smearing = 'mp'
degauss = 0.01
assume_isolated = 'esm'
esm_bc = 'bc1'
input_dft = 'BEEF-VDW'
nosym = .true.
nspin = 1
ntyp = 6
nat = 34
/
&ELECTRONS
electron_maxstep = 200
mixing_beta = 0.1
conv_thr = 1e-06
/
&IONS
ion_dynamics = 'bfgs'
upscale = 1.0
/
&CELL
/

K_POINTS {automatic}
6 6 1 0 0 0

ATOMIC_SPECIES
C 12.01 C.pbe-n-rrkjus_psl.1.0.0.UPF
In 114.8 In.pbe-dn-rrkjus_psl.1.0.0.UPF
O 15.99 O.pbe-n-rrkjus_psl.1.0.0.UPF
Pd 106.4 Pd.pbe-n-rrkjus_psl.1.0.0.UPF
Sn 118.7 Sn.pbe-dn-rrkjus_psl.1.0.0.UPF
Y 88.90 Y.pbe-spn-rrkjus_psl.1.0.0.UPF


CELL_PARAMETERS {angstrom}
8.73372000 0.00000000 0.00000000
0.00000000 9.06394000 0.00000000
0.00000000 0.00000000 26.87300000

ATOMIC_POSITIONS {angstrom}
Y 0.00000000 2.26598500 -1.1455959900000003 0 0 0
Y 0.00000000 2.26598500 3.50020825
Y 0.00000000 6.79795500 -1.1455959900000003 0 0 0
Y 0.00000000 6.79795500 3.51337602
Y 4.36686000 2.26598500 -1.1455959900000003 0 0 0
Y 4.36686000 2.26598500 3.52654379
Y 4.36686000 6.79795500 -1.1455959900000003 0 0 0
Y 4.36686000 6.79795500 3.49295254
In 0.00000000 0.00000000 -3.4365192400000026 0 0 0
In 0.00000000 9.05614501 1.21842182
In 0.00000000 4.53197000 -3.4365192400000026 0 0 0
In 0.00000000 4.53976499 1.21842182
In 4.36686000 0.00000000 -3.4365192400000026 0 0 0
In 4.36686000 0.00407877 1.22379642
In 4.36686000 4.53197000 -3.4365192400000026 0 0 0
In 4.36686000 4.52789123 1.22379642
Sn 2.18343000 0.00000000 -1.1455959900000003 0 0 0
Sn 2.18290598 9.06303361 3.50047698
Sn 2.18343000 4.53197000 -1.1455959900000003 0 0 0
Sn 2.18290598 4.53278575 3.50047698
Sn 6.55029000 0.00000000 -1.1455959900000003 0 0 0
Sn 6.55081402 9.06312425 3.50047698
Sn 6.55029000 4.53197000 -1.1455959900000003 0 0 0
Sn 6.55081402 4.53287639 3.50047698
Pd 2.18343000 2.26598500 -3.4365192400000026 0 0 0
Pd 2.23967516 2.26598500 1.33961905
Pd 2.18343000 6.79795500 -3.4365192400000026 0 0 0
Pd 2.18945627 6.79795500 1.34687476
Pd 6.55029000 2.26598500 -3.4365192400000026 0 0 0
Pd 6.49404484 2.26598500 1.33961905
Pd 6.55029000 6.79795500 -3.4365192400000026 0 0 0
Pd 6.54426373 6.79795500 1.34687476
C 0.00000000 2.26598500 5.99429138
O 0.00000000 2.26598500 7.14230594
