&CONTROL
calculation = 'relax'
prefix = 'scf'
pseudo_dir = '/vol0403/data/hp230205/u10028/POT_HYBRID_KKJUS_GBRV'
outdir = './data'
tprnfor = .true.
nstep = 70
disk_io = 'non'
/
&SYSTEM
ibrav = 0
ecutwfc = 50.0
ecutrho = 400
occupations = 'smearing'
smearing = 'mp'
degauss = 0.01
assume_isolated = 'esm'
esm_bc = 'bc1'
input_dft = 'BEEF-VDW'
nosym = .true.
nspin = 1
ntyp = 6
nat = 34
/
&ELECTRONS
electron_maxstep = 200
mixing_beta = 0.1
conv_thr = 1e-06
/
&IONS
ion_dynamics = 'bfgs'
upscale = 1.0
/
&CELL
/

K_POINTS {automatic}
9 6 2 0  0  0

ATOMIC_SPECIES
Au 196.9 Au.pbe-n-rrkjus_psl.1.0.0.UPF
C 12.01 C.pbe-n-rrkjus_psl.1.0.0.UPF
In 114.8 In.pbe-dn-rrkjus_psl.1.0.0.UPF
O 15.99 O.pbe-n-rrkjus_psl.1.0.0.UPF
Pd 106.4 Pd.pbe-n-rrkjus_psl.1.0.0.UPF
Y 88.90 Y.pbe-spn-rrkjus_psl.1.0.0.UPF


CELL_PARAMETERS {angstrom}
6.93157000 0.00000000 0.00000000
-0.00000000 9.80272000 0.00000000
0.00000000 0.00000000 27.35200000

ATOMIC_POSITIONS {angstrom}
Y 5.19867750 0.00000000 -1.2253696000000005 0 0 0
Y 5.19867750 4.90136000 -1.2253696000000005 0 0 0
Y 1.73289250 2.45068000 -3.6761088000000015 0 0 0
Y 1.73289250 7.35204000 -3.6761088000000015 0 0 0
Y 5.04555912 4.90136000 3.62113128
Y 5.04341033 -0.00000000 3.62441352
Y 1.73046645 7.35135381 1.31918696
Y 1.73060508 2.45126816 1.31918696
In 1.73289250 0.00000000 -1.2253696000000005 0 0 0
In 1.73289250 4.90136000 -1.2253696000000005 0 0 0
In 5.19867750 2.45068000 -3.6761088000000015 0 0 0
In 5.19867750 7.35204000 -3.6761088000000015 0 0 0
In 1.54532422 4.90136000 3.87003448
In 1.55572157 -0.00000000 3.84487064
In 5.16041523 7.35645122 1.24150728
In 5.16034592 2.44617075 1.24150728
Pd 0.00000000 2.45068000 -1.2253696000000005 0 0 0
Pd 0.00000000 7.35204000 -1.2253696000000005 0 0 0
Pd 3.46578500 4.90136000 -3.6761088000000015 0 0 0
Pd 3.46578500 0.00000000 -3.6761088000000015 0 0 0
Pd 6.85040132 7.34968735 3.55302480
Pd 6.85047063 2.45293463 3.55302480
Pd 3.44873334 -0.00000000 1.20047928
Pd 3.43909846 4.90136000 1.20786432
Au 0.00000000 0.00000000 -3.6761088000000015 0 0 0
Au 0.00000000 4.90136000 -3.6761088000000015 0 0 0
Au 3.46578500 7.35204000 -1.2253696000000005 0 0 0
Au 3.46578500 2.45068000 -1.2253696000000005 0 0 0
Au 6.91361723 4.90136000 1.27350912
Au 6.90585388 -0.00000000 1.26202128
Au 3.26580921 2.45342476 3.91872104
Au 3.26587852 7.34929524 3.91872104
C 2.34439561 9.80262197 7.58635072
O 1.51281515 0.00000000 8.36396808
