&CONTROL
calculation = 'relax'
prefix = 'scf'
pseudo_dir = '/vol0004/mdt0/data/hp150275/u10028/POT_KKJUS'
outdir = './data'
tprnfor = .true.
nstep = 50
disk_io = 'non'
/
&SYSTEM
ibrav = 0
ecutwfc = 50.0
ecutrho = 400
occupations = 'smearing'
smearing = 'mp'
degauss = 0.01
assume_isolated = 'esm'
esm_bc = 'bc1'
input_dft = 'BEEF-VDW'
nosym = .true.
nspin = 1
ntyp = 3
nat = 33
/
&ELECTRONS
electron_maxstep = 200
mixing_beta = 0.1
conv_thr = 1e-06
/
&IONS
ion_dynamics = 'bfgs'
upscale = 1.0
/
&CELL
/

K_POINTS {automatic}
8 6 1 0 0 0

ATOMIC_SPECIES
C 12.01 C.pbe-n-rrkjus_psl.1.0.0.UPF
Cu 63.54 Cu.pbe-dn-rrkjus_psl.1.0.0.UPF
Y 88.90 Y.pbe-spn-rrkjus_psl.1.0.0.UPF

CELL_PARAMETERS {angstrom}
6.99068000 0.00000000 0.00000000
0.00000000 9.88632000 0.00000000
0.00000000 0.00000000 27.41470000

ATOMIC_POSITIONS {angstrom}
Y 0.00000000 0.00000000 -3.707289880000001 0 0 0
Y 0.00000000 2.47158000 -1.2358546799999992 0 0 0
Y 0.00000000 0.00000000 1.27971820
Y 0.00000000 2.36381911 3.76020025
Y 0.00000000 4.94316000 -3.707289880000001 0 0 0
Y 0.00000000 7.41474000 -1.2358546799999992 0 0 0
Y 0.00000000 4.94316000 1.21556780
Y 0.00000000 7.52250089 3.76020025
Y 3.49534000 0.00000000 -3.707289880000001 0 0 0
Y 3.49534000 2.47158000 -1.2358546799999992 0 0 0
Y 3.49534000 0.00000000 1.19610336
Y 3.49534000 2.56530231 3.75855537
Y 3.49534000 4.94316000 -3.707289880000001 0 0 0
Y 3.49534000 7.41474000 -1.2358546799999992 0 0 0
Y 3.49534000 4.94316000 1.21447121
Y 3.49534000 7.32101769 3.75855537
Cu 1.74767000 2.47158000 -3.707289880000001 0 0 0
Cu 1.74767000 0.00000000 -1.2358546799999992 0 0 0
Cu 1.80044963 2.50736848 1.32988710
Cu 1.72355215 4.94316000 3.49372937
Cu 1.74767000 7.41474000 -3.707289880000001 0 0 0
Cu 1.74767000 4.94316000 -1.2358546799999992 0 0 0
Cu 1.80044963 7.37895152 1.32988710
Cu 1.99430119 0.00000000 3.63820484
Cu 5.24301000 2.47158000 -3.707289880000001 0 0 0
Cu 5.24301000 0.00000000 -1.2358546799999992 0 0 0
Cu 5.19023037 2.50736848 1.32988710
Cu 5.26712785 4.94316000 3.49372937
Cu 5.24301000 7.41474000 -3.707289880000001 0 0 0
Cu 5.24301000 4.94316000 -1.2358546799999992 0 0 0
Cu 5.19023037 7.37895152 1.32988710
Cu 4.99637881 0.00000000 3.63820484
C 0.00000000 0.00000000 3.65383122
