&CONTROL
calculation = 'relax'
prefix = 'scf'
pseudo_dir = '/vol0004/mdt0/data/hp150275/u10028/POT_KKJUS'
outdir = './data'
tprnfor = .true.
nstep = 50
disk_io = 'non'
/
&SYSTEM
ibrav = 0
ecutwfc = 50.0
ecutrho = 400
occupations = 'smearing'
smearing = 'mp'
degauss = 0.01
assume_isolated = 'esm'
esm_bc = 'bc1'
input_dft = 'BEEF-VDW'
nosym = .true.
nspin = 1
ntyp = 4
nat = 17
/
&ELECTRONS
electron_maxstep = 200
mixing_beta = 0.1
conv_thr = 1e-06
/
&IONS
ion_dynamics = 'bfgs'
upscale = 1.0
/
&CELL
/

K_POINTS {automatic}
10 10 2 0  0  0

ATOMIC_SPECIES
C 12.01 C.pbe-n-rrkjus_psl.1.0.0.UPF
Ge 72.64 Ge.pbe-dn-rrkjus_psl.1.0.0.UPF
Li 6.941 Li.pbe-sl-rrkjus_psl.1.0.0.UPF
Pd 106.4 Pd.pbe-n-rrkjus_psl.1.0.0.UPF

CELL_PARAMETERS {angstrom}
6.09904000 0.00000000 0.00000000
0.00000000 6.09904000 0.00000000
0.00000000 0.00000000 24.57430000

ATOMIC_POSITIONS {angstrom}
Li 1.55061993 1.55080290 0.84781335
Li 4.57428000 4.57428000 -2.2871301000000024 0 0 0
Li 4.70851987 1.53951968 0.94979669
Li 1.52476000 4.57428000 -2.2871301000000024 0 0 0
Li 4.49163801 4.49151603 0.78146274
Li 1.52476000 1.52476000 -2.2871301000000024 0 0 0
Li 1.53945869 4.70833690 0.94979669
Li 4.57428000 1.52476000 -2.2871301000000024 0 0 0
Ge 5.63758663 5.63776960 2.78672562
Ge 1.98548148 1.98535950 3.84317478
Ge 3.04952000 0.00000000 -0.7622947900000021 0 0 0
Ge 0.00000000 3.04952000 -0.7622947900000021 0 0 0
Pd 0.00000000 0.00000000 -0.7622947900000021 0 0 0
Pd 3.18833415 0.17132203 2.41073883
Pd 0.17132203 3.18839514 2.41123032
Pd 3.04952000 3.04952000 -0.7622947900000021 0 0 0
C 0.87942058 0.88003048 2.74003445
