&CONTROL
calculation = 'relax'
prefix = 'scf'
pseudo_dir = '/vol0403/data/hp230205/u10028/POT_HYBRID_KKJUS_GBRV'
outdir = './data'
tprnfor = .true.
nstep = 50
disk_io = 'non'
/
&SYSTEM
ibrav = 0
ecutwfc = 50.0
ecutrho = 400
occupations = 'smearing'
smearing = 'mp'
degauss = 0.01
assume_isolated = 'esm'
esm_bc = 'bc1'
input_dft = 'BEEF-VDW'
nosym = .true.
nspin = 1
ntyp = 6
nat = 34
/
&ELECTRONS
electron_maxstep = 200
mixing_beta = 0.1
conv_thr = 1e-06
/
&IONS
ion_dynamics = 'bfgs'
upscale = 1.0
/
&CELL
/

K_POINTS {automatic}
7 7 2 0  0  0

ATOMIC_SPECIES
Al 26.98 Al.pbe-nl-rrkjus_psl.1.0.0.UPF
C 12.01 C.pbe-n-rrkjus_psl.1.0.0.UPF
In 114.8 In.pbe-dn-rrkjus_psl.1.0.0.UPF
O 15.99 O.pbe-n-rrkjus_psl.1.0.0.UPF
Pd 106.4 Pd.pbe-n-rrkjus_psl.1.0.0.UPF
Sc 44.95 Sc.pbe-spn-rrkjus_psl.1.0.0.UPF


CELL_PARAMETERS {angstrom}
8.60736000 0.00000000 0.00000000
0.00000000 8.30234000 0.00000000
0.00000000 0.00000000 26.25270000

ATOMIC_POSITIONS {angstrom}
Sc 2.15184000 2.07558500 -3.1264340399999995 0 0 0
Sc 2.15184000 1.85366345 1.12965368
Sc 2.15184000 6.22675500 -3.1264340399999995 0 0 0
Sc 2.15184000 6.44884259 1.12912863
Sc 6.45552000 2.07558500 -3.1264340399999995 0 0 0
Sc 6.45543393 2.22452898 1.08029861
Sc 6.45552000 6.22675500 -3.1264340399999995 0 0 0
Sc 6.45552000 6.07814311 1.08082366
Al 0.00000000 0.00000000 -3.1264340399999995 0 0 0
Al 8.50260843 0.00008302 1.02149256
Al 0.00000000 4.15117000 -3.1264340399999995 0 0 0
Al 0.13152046 4.15133605 0.99392722
Al 4.30368000 0.00000000 -3.1264340399999995 0 0 0
Al 4.40825942 0.00000000 1.02175508
Al 4.30368000 4.15117000 -3.1264340399999995 0 0 0
Al 4.17224561 4.15100395 0.99392722
In 0.00000000 2.07558500 -1.04223219 0 0 0
In 8.57955823 2.11676461 3.40970068
In 0.00000000 6.22675500 -1.04223219 0 0 0
In 8.58016074 6.18682074 3.40996320
In 4.30368000 2.07558500 -1.04223219 0 0 0
In 4.33156785 2.11593437 3.41022573
In 4.30368000 6.22675500 -1.04223219 0 0 0
In 4.33070711 6.18516028 3.40970068
Pd 2.15184000 0.00000000 -1.04223219 0 0 0
Pd 2.15149571 8.30200791 3.35824538
Pd 2.15184000 4.15117000 -1.04223219 0 0 0
Pd 2.15192607 4.15166814 2.72266752
Pd 6.45552000 0.00000000 -1.04223219 0 0 0
Pd 6.45534785 0.00049814 2.73474376
Pd 6.45552000 4.15117000 -1.04223219 0 0 0
Pd 6.45595037 4.15092093 2.94371525
C 2.15192607 0.00157744 5.38075339
O 2.15227037 0.00000000 6.53403450
