&CONTROL
calculation = 'relax'
prefix = 'scf'
pseudo_dir = '/vol0403/data/hp230205/u10028/POT_HYBRID_KKJUS_GBRV'
outdir = './data'
tprnfor = .true.
nstep = 50
disk_io = 'non'
/
&SYSTEM
ibrav = 0
ecutwfc = 50.0
ecutrho = 400
occupations = 'smearing'
smearing = 'mp'
degauss = 0.01
assume_isolated = 'esm'
esm_bc = 'bc1'
input_dft = 'BEEF-VDW'
nosym = .true.
nspin = 1
ntyp = 5
nat = 33
/
&ELECTRONS
electron_maxstep = 200
mixing_beta = 0.1
conv_thr = 1e-06
/
&IONS
ion_dynamics = 'bfgs'
upscale = 1.0
/
&CELL
/

K_POINTS {automatic}
7 6 2 0  0  0

ATOMIC_SPECIES
C 12.01 C.pbe-n-rrkjus_psl.1.0.0.UPF
Ga 69.72 Ga.pbe-dnl-rrkjus_psl.1.0.0.UPF
Pd 106.4 Pd.pbe-n-rrkjus_psl.1.0.0.UPF
Sc 44.95 Sc.pbe-spn-rrkjus_psl.1.0.0.UPF
Y 88.90 Y.pbe-spn-rrkjus_psl.1.0.0.UPF


CELL_PARAMETERS {angstrom}
9.48206000 0.00000000 0.00000000
0.00000000 9.85606000 0.00000000
0.00000000 0.00000000 25.30050000

ATOMIC_POSITIONS {angstrom}
Y 0.00000000 2.46401500 -0.8834934600000004 0 0 0
Y 0.00000000 2.37363493 2.83972812
Y 0.00000000 7.39204500 -0.8834934600000004 0 0 0
Y 0.00000000 7.48242507 2.83972812
Y 4.74103000 2.46401500 -0.8834934600000004 0 0 0
Y 4.74103000 2.45208917 2.79266919
Y 4.74103000 7.39204500 -0.8834934600000004 0 0 0
Y 4.74103000 7.40397083 2.79266919
Sc 2.37051500 0.00000000 -0.8834934600000004 0 0 0
Sc 2.19443315 0.00000000 2.50576152
Sc 2.37051500 4.92803000 -0.8834934600000004 0 0 0
Sc 2.36349828 4.92803000 2.38735518
Sc 7.11154500 0.00000000 -0.8834934600000004 0 0 0
Sc 7.28762685 0.00000000 2.50576152
Sc 7.11154500 4.92803000 -0.8834934600000004 0 0 0
Sc 7.11856172 4.92803000 2.38735518
Ga 0.00000000 0.00000000 -2.6502273800000005 0 0 0
Ga 0.00000000 0.00000000 0.78937560
Ga 0.00000000 4.92803000 -2.6502273800000005 0 0 0
Ga 0.00009482 4.92803000 0.91233603
Ga 4.74103000 0.00000000 -2.6502273800000005 0 0 0
Ga 4.74103000 0.00000000 0.96875614
Ga 4.74103000 4.92803000 -2.6502273800000005 0 0 0
Ga 4.74103000 4.92803000 0.89740874
Pd 2.37051500 2.46401500 -2.6502273800000005 0 0 0
Pd 2.39820262 2.43779788 1.14459462
Pd 2.37051500 7.39204500 -2.6502273800000005 0 0 0
Pd 2.39820262 7.41826212 1.14459462
Pd 7.11154500 2.46401500 -2.6502273800000005 0 0 0
Pd 7.08385738 2.43779788 1.14459462
Pd 7.11154500 7.39204500 -2.6502273800000005 0 0 0
Pd 7.08385738 7.41826212 1.14459462
C 0.00000000 0.00000000 2.97382077
