&CONTROL
calculation = 'relax'
prefix = 'scf'
pseudo_dir = '/vol0004/mdt0/data/hp150275/u10028/POT_HYBRID_KKJUS_GBRV'
outdir = './data'
tprnfor = .true.
nstep = 50
disk_io = 'non'
/
&SYSTEM
ibrav = 0
ecutwfc = 50.0
ecutrho = 400
occupations = 'smearing'
smearing = 'mp'
degauss = 0.01
assume_isolated = 'esm'
esm_bc = 'bc1'
input_dft = 'BEEF-VDW'
nosym = .true.
nspin = 2
ntyp = 5
nat = 18
starting_magnetization(1) = 0.1
starting_magnetization(2) = 0.1
starting_magnetization(3) = 0.1
starting_magnetization(4) = 0.1
starting_magnetization(5) = 0.1
/
&ELECTRONS
electron_maxstep = 200
mixing_beta = 0.1
conv_thr = 1e-06
/
&IONS
ion_dynamics = 'bfgs'
upscale = 1.0
/
&CELL
/

K_POINTS {automatic}
9 9 2 0  0  0

ATOMIC_SPECIES
C 12.01 C.pbe-n-rrkjus_psl.1.0.0.UPF
Co 58.93 co_pbe_v1.2.uspp.F.UPF
O 15.99 O.pbe-n-rrkjus_psl.1.0.0.UPF
Sn 118.7 Sn.pbe-dn-rrkjus_psl.1.0.0.UPF
Zr 91.22 Zr.pbe-spn-rrkjus_psl.1.0.0.UPF

CELL_PARAMETERS {angstrom}
6.31315000 0.00000000 0.00000000
-0.00000000 6.31315000 0.00000000
0.00000000 0.00000000 24.73490000

ATOMIC_POSITIONS {angstrom}
Zr 0.00000000 0.00000000 2.36737728
Zr 3.15657500 3.15657500 2.36737728
Zr 3.15657500 0.00000000 -0.7890433100000003 0 0 0
Zr 0.00000000 3.15657500 -0.7890433100000003 0 0 0
Co 1.57828750 1.57828750 0.78904331
Co 4.73486250 4.73486250 -2.3673772799999995 0 0 0
Co 4.73486250 1.57828750 0.78904331
Co 1.57828750 4.73486250 -2.3673772799999995 0 0 0
Co 4.73486250 4.73486250 0.78904331
Co 1.57828750 1.57828750 -2.3673772799999995 0 0 0
Co 1.57828750 4.73486250 0.78904331
Co 4.73486250 1.57828750 -2.3673772799999995 0 0 0
Sn 0.00000000 0.00000000 -0.7890433100000003 0 0 0
Sn 3.15657500 -0.00000000 2.36737728
Sn 0.00000000 3.15657500 2.36737728
Sn 3.15657500 3.15657500 -0.7890433100000003 0 0 0
C 0.00000000 0.00000000 4.26751230
O 0.00000000 0.00000000 5.41743780
