&CONTROL
calculation = 'relax'
prefix = 'scf'
pseudo_dir = '/vol0403/data/hp230205/u10028/POT_HYBRID_KKJUS_GBRV'
outdir = './data'
tprnfor = .true.
nstep = 50
disk_io = 'non'
/
&SYSTEM
ibrav = 0
ecutwfc = 50.0
ecutrho = 400
occupations = 'smearing'
smearing = 'mp'
degauss = 0.01
assume_isolated = 'esm'
esm_bc = 'bc1'
input_dft = 'BEEF-VDW'
nosym = .true.
nspin = 1
ntyp = 6
nat = 34
/
&ELECTRONS
electron_maxstep = 200
mixing_beta = 0.1
conv_thr = 1e-06
/
&IONS
ion_dynamics = 'bfgs'
upscale = 1.0
/
&CELL
/

K_POINTS {automatic}
6 6 1 0 0 0

ATOMIC_SPECIES
C 12.01 C.pbe-n-rrkjus_psl.1.0.0.UPF
Cu 63.54 Cu.pbe-dn-rrkjus_psl.1.0.0.UPF
In 114.8 In.pbe-dn-rrkjus_psl.1.0.0.UPF
O 15.99 O.pbe-n-rrkjus_psl.1.0.0.UPF
Sn 118.7 Sn.pbe-dn-rrkjus_psl.1.0.0.UPF
Y 88.90 Y.pbe-spn-rrkjus_psl.1.0.0.UPF


CELL_PARAMETERS {angstrom}
8.82850000 0.00000000 0.00000000
0.00000000 8.84740000 0.00000000
0.00000000 0.00000000 26.85960000

ATOMIC_POSITIONS {angstrom}
Y 2.20712500 0.00000000 -1.1431445800000013 0 0 0
Y 2.21127440 0.00309659 3.49228519
Y 2.20712500 4.42370000 -1.1431445800000013 0 0 0
Y 2.21127440 4.42042646 3.49228519
Y 6.62137500 0.00000000 -1.1431445800000013 0 0 0
Y 6.61687247 0.00309659 3.49228519
Y 6.62137500 4.42370000 -1.1431445800000013 0 0 0
Y 6.61687247 4.42042646 3.49228519
In 2.20712500 2.21185000 -3.4297023200000005 0 0 0
In 2.25524032 2.21176153 1.22399197
In 2.20712500 6.63555000 -3.4297023200000005 0 0 0
In 2.16713189 6.63546153 1.22103742
In 6.62137500 2.21185000 -3.4297023200000005 0 0 0
In 6.57299482 2.21185000 1.22399197
In 6.62137500 6.63555000 -3.4297023200000005 0 0 0
In 6.66110325 6.63546153 1.22103742
Cu 0.00000000 0.00000000 -3.4297023200000005 0 0 0
Cu 8.82832343 0.05795047 1.34244281
Cu 0.00000000 4.42370000 -3.4297023200000005 0 0 0
Cu 8.82832343 4.36566106 1.34244281
Cu 4.41425000 0.00000000 -3.4297023200000005 0 0 0
Cu 4.41407343 8.74866302 1.24601684
Cu 4.41425000 4.42370000 -3.4297023200000005 0 0 0
Cu 4.41407343 4.52226004 1.24601684
Sn 0.00000000 2.21185000 -1.1431445800000013 0 0 0
Sn 8.82823515 2.21176153 3.46488840
Sn 0.00000000 6.63555000 -1.1431445800000013 0 0 0
Sn 8.82832343 6.63546153 3.58280204
Sn 4.41425000 2.21185000 -1.1431445800000013 0 0 0
Sn 4.41407343 2.21176153 3.60509551
Sn 4.41425000 6.63555000 -1.1431445800000013 0 0 0
Sn 4.41407343 6.63546153 3.48530170
C 0.00723937 2.21450422 7.77665999
O 8.82752886 2.21149610 8.91416405
