&CONTROL
calculation = 'relax'
prefix = 'scf'
pseudo_dir = '/vol0004/mdt0/data/hp150275/u10028/POT_HYBRID_KKJUS_GBRV'
outdir = './data'
tprnfor = .true.
nstep = 50
disk_io = 'non'
/
&SYSTEM
ibrav = 0
ecutwfc = 50.0
ecutrho = 400
occupations = 'smearing'
smearing = 'mp'
degauss = 0.01
assume_isolated = 'esm'
esm_bc = 'bc1'
input_dft = 'BEEF-VDW'
nosym = .true.
nspin = 2
ntyp = 4
nat = 34
starting_magnetization(1) = 0.1
starting_magnetization(2) = 0.1
starting_magnetization(3) = 0.1
starting_magnetization(4) = 0.1
/
&ELECTRONS
electron_maxstep = 200
mixing_beta = 0.1
conv_thr = 1e-06
/
&IONS
ion_dynamics = 'bfgs'
upscale = 1.0
/
&CELL
/

K_POINTS {automatic}
9 6 2 0  0  0

ATOMIC_SPECIES
C 12.01 C.pbe-n-rrkjus_psl.1.0.0.UPF
Ni 58.69 ni_pbe_v1.4.uspp.F.UPF
O 15.99 O.pbe-n-rrkjus_psl.1.0.0.UPF
Zn 65.40 Zn.pbe-dnl-rrkjus_psl.1.0.0.UPF

CELL_PARAMETERS {angstrom}
5.79956000 0.00000000 0.00000000
0.00000000 8.20182000 0.00000000
0.00000000 0.00000000 26.15140000

ATOMIC_POSITIONS {angstrom}
Zn 1.44989000 2.05045500 -3.07566615 0 0 0
Zn 1.44989000 0.00000000 -1.0251348799999995 0 0 0
Zn 1.44983200 2.06817093 0.97727782
Zn 1.44989000 8.20124587 3.31181330
Zn 1.44989000 6.15136500 -3.07566615 0 0 0
Zn 1.44989000 4.10091000 -1.0251348799999995 0 0 0
Zn 1.44994800 6.13373109 0.97753933
Zn 1.44989000 4.10164816 3.22708276
Zn 4.34967000 2.05045500 -3.07566615 0 0 0
Zn 4.34967000 0.00000000 -1.0251348799999995 0 0 0
Zn 4.34972800 2.02921229 0.96080244
Zn 4.34967000 8.20116385 3.20851527
Zn 4.34967000 6.15136500 -3.07566615 0 0 0
Zn 4.34967000 4.10091000 -1.0251348799999995 0 0 0
Zn 4.34961200 6.17277175 0.96080244
Zn 4.34967000 4.10156615 3.27127863
Ni 0.00000000 0.00000000 -3.07566615 0 0 0
Ni 0.00000000 2.05045500 -1.0251348799999995 0 0 0
Ni 0.03955300 8.20124587 1.11378813
Ni 5.78407517 2.06841699 2.93863282
Ni 0.00000000 4.10091000 -3.07566615 0 0 0
Ni 0.00000000 6.15136500 -1.0251348799999995 0 0 0
Ni 5.78030546 4.10148413 1.08109888
Ni 5.78395918 6.13348503 2.93889433
Ni 2.89978000 0.00000000 -3.07566615 0 0 0
Ni 2.89978000 2.05045500 -1.0251348799999995 0 0 0
Ni 2.86022700 8.20116385 1.11378813
Ni 2.91526483 2.06841699 2.93863282
Ni 2.89978000 4.10091000 -3.07566615 0 0 0
Ni 2.89978000 6.15136500 -1.0251348799999995 0 0 0
Ni 2.91903454 4.10156615 1.08109888
Ni 2.91538082 6.13356705 2.93863282
C 1.44989000 8.20116385 5.43086124
O 1.44989000 8.20157395 6.57367742
