&CONTROL
calculation = 'relax'
prefix = 'scf'
pseudo_dir = '/vol0004/mdt0/data/hp150275/u10028/POT_HYBRID_KKJUS_GBRV'
outdir = './data'
tprnfor = .true.
nstep = 50
disk_io = 'non'
/
&SYSTEM
ibrav = 0
ecutwfc = 50.0
ecutrho = 400
occupations = 'smearing'
smearing = 'mp'
degauss = 0.01
assume_isolated = 'esm'
esm_bc = 'bc1'
input_dft = 'BEEF-VDW'
nosym = .true.
nspin = 2
ntyp = 3
nat = 33
starting_magnetization(1) = 0.0
starting_magnetization(2) = 0.001
starting_magnetization(3) = 0.0
/
&ELECTRONS
electron_maxstep = 300
mixing_beta = 0.1
conv_thr = 1e-06
/
&IONS
ion_dynamics = 'bfgs'
upscale = 1.0
/
&CELL
/

K_POINTS {automatic}
8 6 1 0 0 0

ATOMIC_SPECIES
C 12.01 C.pbe-n-rrkjus_psl.1.0.0.UPF
Ni 58.69 ni_pbe_v1.4.uspp.F.UPF
Sb 121.7 Sb.pbe-n-rrkjus_psl.1.0.0.UPF

CELL_PARAMETERS {angstrom}
5.96127000 0.00000000 0.00000000
0.00000000 8.43051000 0.00000000
0.00000000 0.00000000 26.32290000

ATOMIC_POSITIONS {angstrom}
Ni 1.49031750 0.00000000 -1.053705690000001 0 0 0
Ni 4.47095250 4.21525500 -1.053705690000001 0 0 0
Ni 4.47095250 0.00000000 -1.053705690000001 0 0 0
Ni 1.49031750 4.21525500 -1.053705690000001 0 0 0
Ni 4.47095250 6.32288250 -3.1613802900000003 0 0 0
Ni 1.49031750 2.10762750 -3.1613802900000003 0 0 0
Ni 1.49031750 6.32288250 -3.1613802900000003 0 0 0
Ni 4.47095250 2.10762750 -3.1613802900000003 0 0 0
Ni 0.00000000 6.32288250 -1.053705690000001 0 0 0
Ni 2.98063500 0.00000000 -3.1613802900000003 0 0 0
Ni 0.00000000 2.10762750 -1.053705690000001 0 0 0
Ni 2.98063500 4.21525500 -3.1613802900000003 0 0 0
Ni 1.46033231 3.91386427 3.33063654
Ni 4.45491668 8.23239302 3.08135867
Ni 4.45539359 4.41311907 3.08135867
Ni 1.46063038 0.30130643 3.33037331
Ni 4.50850850 2.10670014 0.87392028
Ni 1.62247886 6.32397847 1.01685363
Ni 1.47171834 2.10712167 1.04607205
Ni 4.31268078 6.32355694 1.20321976
Ni 5.74898918 2.10627862 3.03029225
Ni 2.94743073 4.16897150 1.08476671
Ni 0.16947891 6.32338833 3.00528549
Ni 2.94760956 0.04670503 1.08529317
Sb 0.00000000 0.00000000 -3.1613802900000003 0 0 0
Sb 2.98063500 2.10762750 -1.053705690000001 0 0 0
Sb 2.98063500 6.32288250 -1.053705690000001 0 0 0
Sb 0.00000000 4.21525500 -3.1613802900000003 0 0 0
Sb 0.03397924 4.28295200 1.08266088
Sb 2.74528406 6.32271389 3.43803397
Sb 3.29950333 2.10762750 3.11794751
Sb 0.03391963 8.36306592 1.08292411
C 1.27165812 2.10779611 3.97607404
