&CONTROL
calculation = 'relax'
prefix = 'scf'
pseudo_dir = '/vol0004/mdt0/data/hp150275/u10028/POT_KKJUS'
outdir = './data'
tprnfor = .true.
nstep = 50
disk_io = 'non'
/
&SYSTEM
ibrav = 0
ecutwfc = 50.0
ecutrho = 400
occupations = 'smearing'
smearing = 'mp'
degauss = 0.01
assume_isolated = 'esm'
esm_bc = 'bc1'
input_dft = 'BEEF-VDW'
nosym = .true.
nspin = 1
ntyp = 3
nat = 33
/
&ELECTRONS
electron_maxstep = 200
mixing_beta = 0.1
conv_thr = 1e-06
/
&IONS
ion_dynamics = 'bfgs'
upscale = 1.0
/
&CELL
/

K_POINTS {automatic}
8 8 1 0 0 0

ATOMIC_SPECIES
C 12.01 C.pbe-n-rrkjus_psl.1.0.0.UPF
Pt 195.0 Pt.pbe-n-rrkjus_psl.1.0.0.UPF
Sc 44.95 Sc.pbe-spn-rrkjus_psl.1.0.0.UPF

CELL_PARAMETERS {angstrom}
8.06651000 0.00000000 0.00000000
-0.00000000 8.06651000 0.00000000
0.00000000 0.00000000 26.04990000

ATOMIC_POSITIONS {angstrom}
Sc 0.00000000 0.00000000 -3.0249143899999993 0 0 0
Sc 0.00000000 0.00000000 1.00839163
Sc 0.00000000 4.03325500 -3.0249143899999993 0 0 0
Sc 0.00000000 4.03325500 1.00839163
Sc 4.03325500 0.00000000 -3.0249143899999993 0 0 0
Sc 4.03325500 -0.00000000 1.00839163
Sc 4.03325500 4.03325500 -3.0249143899999993 0 0 0
Sc 4.03325500 4.03325500 1.00839163
Pt 0.00000000 2.01662750 -1.008391630000002 0 0 0
Pt 2.01662750 0.00000000 -1.008391630000002 0 0 0
Pt 2.01662750 2.01662750 -3.0249143899999993 0 0 0
Pt 0.00000000 2.01662750 3.02491439
Pt 2.01662750 -0.00000000 3.02491439
Pt 2.01662750 2.01662750 1.00839163
Pt 0.00000000 6.04988250 -1.008391630000002 0 0 0
Pt 2.01662750 4.03325500 -1.008391630000002 0 0 0
Pt 2.01662750 6.04988250 -3.0249143899999993 0 0 0
Pt 0.00000000 6.04988250 3.02491439
Pt 2.01662750 4.03325500 3.02491439
Pt 2.01662750 6.04988250 1.00839163
Pt 4.03325500 2.01662750 -1.008391630000002 0 0 0
Pt 6.04988250 0.00000000 -1.008391630000002 0 0 0
Pt 6.04988250 2.01662750 -3.0249143899999993 0 0 0
Pt 4.03325500 2.01662750 3.02491439
Pt 6.04988250 -0.00000000 3.02491439
Pt 6.04988250 2.01662750 1.00839163
Pt 4.03325500 6.04988250 -1.008391630000002 0 0 0
Pt 6.04988250 4.03325500 -1.008391630000002 0 0 0
Pt 6.04988250 6.04988250 -3.0249143899999993 0 0 0
Pt 4.03325500 6.04988250 3.02491439
Pt 6.04988250 4.03325500 3.02491439
Pt 6.04988250 6.04988250 1.00839163
C 0.00000000 0.00000000 3.82490682
