&CONTROL
calculation = 'relax'
prefix = 'scf'
pseudo_dir = '/vol0004/mdt0/data/hp150275/u10028/POT_KKJUS'
outdir = './data'
tprnfor = .true.
nstep = 50
disk_io = 'non'
/
&SYSTEM
ibrav = 0
ecutwfc = 50.0
ecutrho = 400
occupations = 'smearing'
smearing = 'mp'
degauss = 0.01
assume_isolated = 'esm'
esm_bc = 'bc1'
input_dft = 'BEEF-VDW'
nosym = .true.
nspin = 1
ntyp = 5
nat = 34
/
&ELECTRONS
electron_maxstep = 200
mixing_beta = 0.1
conv_thr = 1e-06
/
&IONS
ion_dynamics = 'bfgs'
upscale = 1.0
/
&CELL
/

K_POINTS {automatic}
9 6 2 0  0  0

ATOMIC_SPECIES
Al 26.98 Al.pbe-nl-rrkjus_psl.1.0.0.UPF
C 12.01 C.pbe-n-rrkjus_psl.1.0.0.UPF
Li 6.941 Li.pbe-sl-rrkjus_psl.1.0.0.UPF
O 15.99 O.pbe-n-rrkjus_psl.1.0.0.UPF
Rh 102.9 Rh.pbe-spn-rrkjus_psl.1.0.0.UPF

CELL_PARAMETERS {angstrom}
6.03986000 0.00000000 0.00000000
0.00000000 8.54165000 0.00000000
0.00000000 0.00000000 26.40620000

ATOMIC_POSITIONS {angstrom}
Li 0.00000000 0.00000000 -3.2030720599999967 0 0 0
Li 3.01993000 2.13541250 -1.0676026699999994 0 0 0
Li 3.01993000 6.40623750 -1.0676026699999994 0 0 0
Li 0.00000000 4.27082500 -3.2030720599999967 0 0 0
Li 0.02258908 4.27073958 1.00528403
Li 3.03702280 6.40478542 3.64960090
Li 3.03690201 2.13677916 3.64960090
Li 0.01890476 0.00008542 0.95379194
Al 1.50996500 0.00000000 -1.0676026699999994 0 0 0
Al 4.52989500 4.27082500 -1.0676026699999994 0 0 0
Al 4.52989500 0.00000000 -1.0676026699999994 0 0 0
Al 1.50996500 4.27082500 -1.0676026699999994 0 0 0
Al 4.52989500 6.40623750 -3.2030720599999967 0 0 0
Al 1.50996500 2.13541250 -3.2030720599999967 0 0 0
Al 1.50996500 6.40623750 -3.2030720599999967 0 0 0
Al 4.52989500 2.13541250 -3.2030720599999967 0 0 0
Al 1.43639951 4.27073958 3.16108620
Al 4.66494627 0.00000000 3.07526605
Al 4.61952652 4.27073958 3.13441594
Al 1.41598478 0.00000000 3.12675814
Al 4.51177542 2.13985416 1.10404322
Al 1.55194203 6.41144791 1.11830257
Al 1.55212322 2.13020209 1.11803851
Al 4.51195662 6.40171043 1.10430728
Rh 0.00000000 6.40623750 -1.0676026699999994 0 0 0
Rh 3.01993000 0.00000000 -3.2030720599999967 0 0 0
Rh 0.00000000 2.13541250 -1.0676026699999994 0 0 0
Rh 3.01993000 4.27082500 -3.2030720599999967 0 0 0
Rh 6.03931641 2.15890204 3.06813638
Rh 3.00295799 4.27082500 1.03485898
Rh 6.03925601 6.38257713 3.06840044
Rh 3.01382974 8.54147917 1.08054170
C 2.09256990 0.00008542 5.00661552
O 2.20823321 0.00008542 6.16663989
