&CONTROL
calculation = 'relax'
prefix = 'scf'
pseudo_dir = '/vol0004/mdt0/data/hp150275/u10028/POT_KKJUS'
outdir = './data'
tprnfor = .true.
nstep = 50
disk_io = 'non'
/
&SYSTEM
ibrav = 0
ecutwfc = 50.0
ecutrho = 400
occupations = 'smearing'
smearing = 'mp'
degauss = 0.01
assume_isolated = 'esm'
esm_bc = 'bc1'
input_dft = 'BEEF-VDW'
nosym = .true.
nspin = 1
ntyp = 5
nat = 34
/
&ELECTRONS
electron_maxstep = 200
mixing_beta = 0.1
conv_thr = 1e-06
/
&IONS
ion_dynamics = 'bfgs'
upscale = 1.0
/
&CELL
/

K_POINTS {automatic}
9 6 2 0  0  0

ATOMIC_SPECIES
Ag 107.8 Ag.pbe-n-rrkjus_psl.1.0.0.UPF
C 12.01 C.pbe-n-rrkjus_psl.1.0.0.UPF
In 114.8 In.pbe-dn-rrkjus_psl.1.0.0.UPF
Li 6.941 Li.pbe-sl-rrkjus_psl.1.0.0.UPF
O 15.99 O.pbe-n-rrkjus_psl.1.0.0.UPF

CELL_PARAMETERS {angstrom}
6.74000000 0.00000000 0.00000000
0.00000000 9.53179000 0.00000000
0.00000000 0.00000000 27.14880000

ATOMIC_POSITIONS {angstrom}
Li 0.00000000 0.00000000 -3.574411010000002 0 0 0
Li 3.37000000 2.38294750 -1.1915608300000002 0 0 0
Li 3.37000000 7.14884250 -1.1915608300000002 0 0 0
Li 0.00000000 4.76589500 -3.574411010000002 0 0 0
Li 6.71175940 4.76589500 1.05255898
Li 3.37417880 7.13873880 3.47911872
Li 3.37417880 2.39305120 3.47911872
Li 0.03814840 0.00000000 1.05255898
In 0.00000000 7.14884250 -1.1915608300000002 0 0 0
In 3.37000000 0.00000000 -3.574411010000002 0 0 0
In 0.00000000 2.38294750 -1.1915608300000002 0 0 0
In 3.37000000 4.76589500 -3.574411010000002 0 0 0
In 6.67765500 2.41773853 3.98652979
In 3.34782540 4.76589500 1.14866573
In 6.67765500 7.11405147 3.98652979
In 3.33373880 0.00000000 1.17880090
Ag 1.68500000 0.00000000 -1.1915608300000002 0 0 0
Ag 5.05500000 4.76589500 -1.1915608300000002 0 0 0
Ag 5.05500000 0.00000000 -1.1915608300000002 0 0 0
Ag 1.68500000 4.76589500 -1.1915608300000002 0 0 0
Ag 5.05500000 7.14884250 -3.574411010000002 0 0 0
Ag 1.68500000 2.38294750 -3.574411010000002 0 0 0
Ag 1.68500000 7.14884250 -3.574411010000002 0 0 0
Ag 5.05500000 2.38294750 -3.574411010000002 0 0 0
Ag 1.52768840 4.76589500 3.38355494
Ag 5.22970080 0.00000000 3.34038835
Ag 5.13163380 4.76589500 3.38817024
Ag 1.52027440 0.00000000 3.46527283
Ag 5.11781680 2.37446421 1.27029235
Ag 1.57197020 7.15255990 1.33137715
Ag 1.57190280 2.37923010 1.33137715
Ag 5.11781680 7.15732579 1.27029235
C 2.16023740 0.00000000 5.92468262
O 1.66201660 0.00000000 6.95335066
