&CONTROL
calculation = 'relax'
prefix = 'scf'
pseudo_dir = '/vol0004/mdt0/data/hp150275/u10028/POT_KKJUS'
outdir = './data'
tprnfor = .true.
nstep = 50
disk_io = 'non'
/
&SYSTEM
ibrav = 0
ecutwfc = 50.0
ecutrho = 400
occupations = 'smearing'
smearing = 'mp'
degauss = 0.01
assume_isolated = 'esm'
esm_bc = 'bc1'
input_dft = 'BEEF-VDW'
nosym = .true.
nspin = 1
ntyp = 2
nat = 16
/
&ELECTRONS
electron_maxstep = 200
mixing_beta = 0.1
conv_thr = 1e-06
/
&IONS
ion_dynamics = 'bfgs'
upscale = 1.0
/
&CELL
/

K_POINTS {automatic}
8 12 2 0  0  0

ATOMIC_SPECIES
Ge 72.64 Ge.pbe-dn-rrkjus_psl.1.0.0.UPF
Ni 58.69 Ni.pbe-spn-rrkjus_psl.1.0.0.UPF

CELL_PARAMETERS {angstrom}
7.20976000 0.00000000 0.00000000
0.00000000 5.09807000 0.00000000
0.00000000 0.00000000 23.82360000

ATOMIC_POSITIONS {angstrom}
Ni 7.20918322 2.54918794 1.82512600
Ni 1.80258420 3.83782710 0.68421379
Ni 1.80251210 1.26008996 0.68421379
Ni 0.00000000 0.00000000 -0.6372812999999979 0 0 0
Ni 1.80244000 1.27451750 -1.9118438999999974 0 0 0
Ni 1.80244000 3.82355250 -1.9118438999999974 0 0 0
Ni 3.60459161 2.54903500 1.82393482
Ni 5.40717580 3.83818396 0.68397556
Ni 5.40732000 1.26003898 0.68397556
Ni 3.60488000 0.00000000 -0.6372812999999979 0 0 0
Ni 5.40732000 1.27451750 -1.9118438999999974 0 0 0
Ni 5.40732000 3.82355250 -1.9118438999999974 0 0 0
Ge 0.00093727 0.00005098 1.87277320
Ge 0.00000000 2.54903500 -0.6372812999999979 0 0 0
Ge 3.60408693 0.00005098 1.87324967
Ge 3.60488000 2.54903500 -0.6372812999999979 0 0 0
