&CONTROL
calculation = 'relax'
prefix = 'scf'
pseudo_dir = '/vol0403/data/hp230205/u10028/POT_HYBRID_KKJUS_GBRV'
outdir = './data'
tprnfor = .true.
nstep = 50
disk_io = 'non'
/
&SYSTEM
ibrav = 0
ecutwfc = 50.0
ecutrho = 400
occupations = 'smearing'
smearing = 'mp'
degauss = 0.01
assume_isolated = 'esm'
esm_bc = 'bc1'
input_dft = 'BEEF-VDW'
nosym = .true.
nspin = 1
ntyp = 6
nat = 18
/
&ELECTRONS
electron_maxstep = 200
mixing_beta = 0.1
conv_thr = 1e-06
/
&IONS
ion_dynamics = 'bfgs'
upscale = 1.0
/
&CELL
/

K_POINTS {automatic}
6 6 1 0 0 0

ATOMIC_SPECIES
Au 196.9 Au.pbe-n-rrkjus_psl.1.0.0.UPF
C 12.01 C.pbe-n-rrkjus_psl.1.0.0.UPF
Ge 72.64 Ge.pbe-dn-rrkjus_psl.1.0.0.UPF
In 114.8 In.pbe-dn-rrkjus_psl.1.0.0.UPF
Li 6.941 Li.pbe-sl-rrkjus_psl.1.0.0.UPF
O 15.99 O.pbe-n-rrkjus_psl.1.0.0.UPF


CELL_PARAMETERS {angstrom}
6.00109000 0.00000000 0.00000000
0.00000000 8.46544000 0.00000000
0.00000000 0.00000000 24.49980000

ATOMIC_POSITIONS {angstrom}
Li 1.46786661 2.11636000 -0.749938880000002 0 0 0
Li 4.53796425 2.11636000 2.30494118
Li 1.46786661 6.34908000 -0.749938880000002 0 0 0
Li 4.52602208 6.34908000 2.21110695
In 3.00054500 0.00000000 -2.2498166300000015 0 0 0
In 0.07783414 8.45765180 0.94814226
In 3.00054500 4.23272000 -2.2498166300000015 0 0 0
In 0.07789415 4.24050820 0.94814226
Ge 4.46841161 2.11636000 -0.749938880000002 0 0 0
Ge 1.79564615 2.11644465 2.07660305
Ge 4.46841161 6.34908000 -0.749938880000002 0 0 0
Ge 1.78358396 6.34899535 2.13344258
Au 0.00000000 0.00000000 -2.2498166300000015 0 0 0
Au 3.11972665 8.45536613 0.90257263
Au 0.00000000 4.23272000 -2.2498166300000015 0 0 0
Au 3.11984667 4.24270922 0.90257263
C 4.50483823 2.11644465 4.41731394
O 4.39645854 2.11636000 5.55116468
