&CONTROL
calculation = 'relax'
prefix = 'scf'
pseudo_dir = '/vol0004/mdt0/data/hp150275/u10028/POT_KKJUS'
outdir = './data'
tprnfor = .true.
nstep = 50
disk_io = 'non'
/
&SYSTEM
ibrav = 0
ecutwfc = 50.0
ecutrho = 400
occupations = 'smearing'
smearing = 'mp'
degauss = 0.01
assume_isolated = 'esm'
esm_bc = 'bc1'
input_dft = 'BEEF-VDW'
nosym = .true.
nspin = 1
ntyp = 4
nat = 33
/
&ELECTRONS
electron_maxstep = 200
mixing_beta = 0.1
conv_thr = 1e-06
/
&IONS
ion_dynamics = 'bfgs'
upscale = 1.0
/
&CELL
/

K_POINTS {automatic}
8 6 1 0 0 0

ATOMIC_SPECIES
Au 196.9 Au.pbe-n-rrkjus_psl.1.0.0.UPF
Bi 208.9 Bi.pbe-dn-rrkjus_psl.1.0.0.UPF
C 12.01 C.pbe-n-rrkjus_psl.1.0.0.UPF
Li 6.941 Li.pbe-sl-rrkjus_psl.1.0.0.UPF

CELL_PARAMETERS {angstrom}
6.87958000 0.00000000 0.00000000
0.00000000 9.72919000 0.00000000
0.00000000 0.00000000 27.29690000

ATOMIC_POSITIONS {angstrom}
Li 0.00000000 7.29689250 -1.21607689 0 0 0
Li 3.43979000 0.00000000 -3.648503650000002 0 0 0
Li 0.00000000 2.43229750 -1.21607689 0 0 0
Li 3.43979000 4.86459500 -3.648503650000002 0 0 0
Li 1.71989500 2.43229750 -3.648503650000002 0 0 0
Li 1.71989500 7.29689250 -3.648503650000002 0 0 0
Li 5.15968500 4.86459500 -1.21607689 0 0 0
Li 5.15968500 0.00000000 -1.21607689 0 0 0
Li 0.00591644 2.43229750 3.63785786
Li 3.43373597 4.92832119 1.05584409
Li 0.03350355 7.29698979 3.35506198
Li 3.43373597 9.66536651 1.05584409
Li 1.87103937 7.29689250 1.38340689
Li 2.14133807 2.43229750 1.90068315
Li 4.80008935 0.34295395 3.56661295
Li 4.79974537 4.52173834 3.56661295
Bi 0.00000000 0.00000000 -3.648503650000002 0 0 0
Bi 3.43979000 2.43229750 -1.21607689 0 0 0
Bi 3.43979000 7.29689250 -1.21607689 0 0 0
Bi 0.00000000 4.86459500 -3.648503650000002 0 0 0
Bi 6.84869069 4.87364315 1.19369344
Bi 3.51463983 7.29737896 3.87970840
Bi 2.94390987 2.43210292 4.82527301
Bi 6.84855309 9.72004456 1.19342047
Au 1.71989500 0.00000000 -1.21607689 0 0 0
Au 1.71989500 4.86459500 -1.21607689 0 0 0
Au 5.15968500 7.29689250 -3.648503650000002 0 0 0
Au 5.15968500 2.43229750 -3.648503650000002 0 0 0
Au 1.87743738 4.84377453 3.37007527
Au 1.87702461 0.02111234 3.36980231
Au 4.76238926 2.43220021 1.45956524
Au 4.97489948 7.29669792 1.31680246
C 4.83730788 2.43239479 3.62175269
