&CONTROL
calculation = 'relax'
prefix = 'scf'
pseudo_dir = '/vol0004/mdt0/data/hp150275/u10028/POT_KKJUS'
outdir = './data'
tprnfor = .true.
nstep = 50
disk_io = 'non'
/
&SYSTEM
ibrav = 0
ecutwfc = 50.0
ecutrho = 400
occupations = 'smearing'
smearing = 'mp'
degauss = 0.01
assume_isolated = 'esm'
esm_bc = 'bc1'
input_dft = 'BEEF-VDW'
nosym = .true.
nspin = 1
ntyp = 4
nat = 34
/
&ELECTRONS
electron_maxstep = 200
mixing_beta = 0.1
conv_thr = 1e-06
/
&IONS
ion_dynamics = 'bfgs'
upscale = 1.0
/
&CELL
/

K_POINTS {automatic}
8 6 1 0 0 0

ATOMIC_SPECIES
C 12.01 C.pbe-n-rrkjus_psl.1.0.0.UPF
O 15.99 O.pbe-n-rrkjus_psl.1.0.0.UPF
Os 190.2 Os.pbe-spn-rrkjus_psl.1.0.0.UPF
Si 28.08 Si.pbe-nl-rrkjus_psl.1.0.0.UPF

CELL_PARAMETERS {angstrom}
5.90864000 0.00000000 0.00000000
0.00000000 8.35608000 0.00000000
0.00000000 0.00000000 26.26710000

ATOMIC_POSITIONS {angstrom}
Si 1.47716000 2.08902000 -3.1336650299999995 0 0 0
Si 1.47716000 0.00000000 -1.0446425700000006 0 0 0
Si 1.47716000 2.05709977 1.09455006
Si 1.47716000 0.00000000 3.60621016
Si 1.47716000 6.26706000 -3.1336650299999995 0 0 0
Si 1.47716000 4.17804000 -1.0446425700000006 0 0 0
Si 1.47716000 6.29898023 1.09428739
Si 1.47716000 4.17804000 3.15520405
Si 4.43148000 2.08902000 -3.1336650299999995 0 0 0
Si 4.43148000 0.00000000 -1.0446425700000006 0 0 0
Si 4.43148000 2.09219531 1.09612608
Si 4.43148000 0.00000000 3.21982112
Si 4.43148000 6.26706000 -3.1336650299999995 0 0 0
Si 4.43148000 4.17804000 -1.0446425700000006 0 0 0
Si 4.43148000 6.26388469 1.09612608
Si 4.43148000 4.17804000 3.17858177
Os 0.00000000 0.00000000 -3.1336650299999995 0 0 0
Os 0.00000000 2.08902000 -1.0446425700000006 0 0 0
Os 5.88908240 0.00000000 0.95533443
Os 0.02133019 2.05584636 3.05959181
Os 0.00000000 4.17804000 -3.1336650299999995 0 0 0
Os 0.00000000 6.26706000 -1.0446425700000006 0 0 0
Os 0.00319067 4.17804000 1.00786863
Os 0.02133019 6.30023364 3.05959181
Os 2.95432000 0.00000000 -3.1336650299999995 0 0 0
Os 2.95432000 2.08902000 -1.0446425700000006 0 0 0
Os 2.97387760 0.00000000 0.95533443
Os 2.93298981 2.05584636 3.05959181
Os 2.95432000 4.17804000 -3.1336650299999995 0 0 0
Os 2.95432000 6.26706000 -1.0446425700000006 0 0 0
Os 2.95112933 4.17804000 1.00786863
Os 2.93298981 6.30023364 3.05959181
C 1.47716000 0.00000000 5.49717869
O 1.47716000 0.00000000 6.64872835
