&CONTROL
calculation = 'relax'
prefix = 'scf'
pseudo_dir = '/vol0004/mdt0/data/hp150275/u10028/POT_KKJUS'
outdir = './data'
tprnfor = .true.
nstep = 50
disk_io = 'non'
/
&SYSTEM
ibrav = 0
ecutwfc = 50.0
ecutrho = 400
occupations = 'smearing'
smearing = 'mp'
degauss = 0.01
assume_isolated = 'esm'
esm_bc = 'bc1'
input_dft = 'BEEF-VDW'
nosym = .true.
nspin = 1
ntyp = 4
nat = 34
/
&ELECTRONS
electron_maxstep = 200
mixing_beta = 0.1
conv_thr = 1e-06
/
&IONS
ion_dynamics = 'bfgs'
upscale = 1.0
/
&CELL
/

K_POINTS {automatic}
8 6 1 0 0 0

ATOMIC_SPECIES
C 12.01 C.pbe-n-rrkjus_psl.1.0.0.UPF
O 15.99 O.pbe-n-rrkjus_psl.1.0.0.UPF
Ru 101.0 Ru.pbe-spn-rrkjus_psl.1.0.0.UPF
V 50.94 V.pbe-spnl-rrkjus_psl.1.0.0.UPF

CELL_PARAMETERS {angstrom}
6.03636000 0.00000000 0.00000000
0.00000000 8.53670000 0.00000000
0.00000000 0.00000000 26.40250000

ATOMIC_POSITIONS {angstrom}
V 1.50909000 2.13417500 -3.2013031199999986 0 0 0
V 1.50909000 0.00000000 -1.0671890499999996 0 0 0
V 1.50939182 2.11223568 1.12078612
V 1.50776200 0.00000000 3.33146745
V 1.50909000 6.40252500 -3.2013031199999986 0 0 0
V 1.50909000 4.26835000 -1.0671890499999996 0 0 0
V 1.50933145 6.42446432 1.12078612
V 1.50933145 4.26835000 3.29952042
V 4.52727000 2.13417500 -3.2013031199999986 0 0 0
V 4.52727000 0.00000000 -1.0671890499999996 0 0 0
V 4.52739073 2.14160193 1.12870687
V 4.52594200 0.00000000 3.22928978
V 4.52727000 6.40252500 -3.2013031199999986 0 0 0
V 4.52727000 4.26835000 -1.0671890499999996 0 0 0
V 4.52745109 6.39509807 1.12870687
V 4.52696818 4.26835000 3.30084055
Ru 0.00000000 0.00000000 -3.2013031199999986 0 0 0
Ru 0.00000000 2.13417500 -1.0671890499999996 0 0 0
Ru 6.03086691 0.00000000 1.07484578
Ru 0.00935636 2.16191927 3.07219490
Ru 0.00000000 4.26835000 -3.2013031199999986 0 0 0
Ru 0.00000000 6.40252500 -1.0671890499999996 0 0 0
Ru 0.00350109 4.26835000 1.10626475
Ru 0.00935636 6.37478072 3.07219490
Ru 3.01818000 0.00000000 -3.2013031199999986 0 0 0
Ru 3.01818000 2.13417500 -1.0671890499999996 0 0 0
Ru 3.02421636 0.00000000 1.07458175
Ru 3.01069491 2.16106561 3.07193088
Ru 3.01818000 4.26835000 -3.2013031199999986 0 0 0
Ru 3.01818000 6.40252500 -1.0671890499999996 0 0 0
Ru 3.01546364 4.26835000 1.10626475
Ru 3.01069491 6.37563440 3.07219490
C 1.50166528 0.00000000 5.32010375
O 1.50190673 0.00000000 6.47653325
