&CONTROL
calculation = 'relax'
prefix = 'scf'
pseudo_dir = '/vol0403/data/hp230205/u10028/POT_HYBRID_KKJUS_GBRV'
outdir = './data'
tprnfor = .true.
nstep = 70
disk_io = 'non'
/
&SYSTEM
ibrav = 0
ecutwfc = 50.0
ecutrho = 400
occupations = 'smearing'
smearing = 'mp'
degauss = 0.01
assume_isolated = 'esm'
esm_bc = 'bc1'
input_dft = 'BEEF-VDW'
nosym = .true.
nspin = 1
ntyp = 5
nat = 17
/
&ELECTRONS
electron_maxstep = 200
mixing_beta = 0.1
conv_thr = 1e-06
/
&IONS
ion_dynamics = 'bfgs'
upscale = 1.0
/
&CELL
/

K_POINTS {automatic}
6 6 1 0 0 0

ATOMIC_SPECIES
C 12.01 C.pbe-n-rrkjus_psl.1.0.0.UPF
Ge 72.64 Ge.pbe-dn-rrkjus_psl.1.0.0.UPF
Pd 106.4 Pd.pbe-n-rrkjus_psl.1.0.0.UPF
Sn 118.7 Sn.pbe-dn-rrkjus_psl.1.0.0.UPF
Y 88.90 Y.pbe-spn-rrkjus_psl.1.0.0.UPF


CELL_PARAMETERS {angstrom}
6.28620000 0.00000000 0.00000000
-0.00000000 8.65102000 0.00000000
0.00000000 0.00000000 24.64860000

ATOMIC_POSITIONS {angstrom}
Y 1.30935260 2.16275500 -0.7747054999999996 0 0 0
Y 3.92799493 2.16275500 2.32436298
Y 1.30935260 6.48826500 -0.7747054999999996 0 0 0
Y 3.92799493 6.48826500 2.32436298
Sn 3.14310000 0.00000000 -2.3243629799999965 0 0 0
Sn 5.76180520 -0.00000000 0.77470550
Sn 3.14310000 4.32551000 -2.3243629799999965 0 0 0
Sn 5.76180520 4.32551000 0.77470550
Ge 0.00000000 0.00000000 -2.3243629799999965 0 0 0
Ge 2.61870520 -0.00000000 0.77470550
Ge 0.00000000 4.32551000 -2.3243629799999965 0 0 0
Ge 2.61870520 4.32551000 0.77470550
Pd 4.45245260 2.16275500 -0.7747054999999996 0 0 0
Pd 0.78489493 2.16275500 2.32436298
Pd 4.45245260 6.48826500 -0.7747054999999996 0 0 0
Pd 0.78489493 6.48826500 2.32436298
C 5.76180520 -0.00000000 3.12421005
