&CONTROL
calculation = 'relax'
prefix = 'scf'
pseudo_dir = '/vol0004/mdt0/data/hp150275/u10028/POT_KKJUS'
outdir = './data'
tprnfor = .true.
nstep = 50
disk_io = 'non'
/
&SYSTEM
ibrav = 0
ecutwfc = 50.0
ecutrho = 400
occupations = 'smearing'
smearing = 'mp'
degauss = 0.01
assume_isolated = 'esm'
esm_bc = 'bc1'
input_dft = 'BEEF-VDW'
nosym = .true.
nspin = 1
ntyp = 5
nat = 34
/
&ELECTRONS
electron_maxstep = 200
mixing_beta = 0.1
conv_thr = 1e-06
/
&IONS
ion_dynamics = 'bfgs'
upscale = 1.0
/
&CELL
/

K_POINTS {automatic}
8 6 1 0 0 0

ATOMIC_SPECIES
C 12.01 C.pbe-n-rrkjus_psl.1.0.0.UPF
Ga 69.72 Ga.pbe-dnl-rrkjus_psl.1.0.0.UPF
Hf 178.4 Hf.pbe-spn-rrkjus_psl.1.0.0.UPF
Ni 58.69 Ni.pbe-spn-rrkjus_psl.1.0.0.UPF
O 15.99 O.pbe-n-rrkjus_psl.1.0.0.UPF

CELL_PARAMETERS {angstrom}
6.09904000 0.00000000 0.00000000
0.00000000 8.62534000 0.00000000
0.00000000 0.00000000 26.46900000

ATOMIC_POSITIONS {angstrom}
Hf 0.00000000 0.00000000 -3.2345118 0 0 0
Hf 3.04952000 2.15633500 -1.0780823700000006 0 0 0
Hf 3.04952000 6.46900500 -1.0780823700000006 0 0 0
Hf 0.00000000 4.31267000 -3.2345118 0 0 0
Hf 0.00000000 4.33526839 1.06775946
Hf 3.04952000 6.46891875 3.33774090
Hf 3.04952000 2.15642125 3.30280182
Hf 0.00000000 8.60274161 1.06775946
Ga 0.00000000 6.46900500 -1.0780823700000006 0 0 0
Ga 3.04952000 0.00000000 -3.2345118 0 0 0
Ga 0.00000000 2.15633500 -1.0780823700000006 0 0 0
Ga 3.04952000 4.31267000 -3.2345118 0 0 0
Ga 0.00000000 2.15616249 3.21121908
Ga 3.04952000 4.29688563 1.11513897
Ga 0.00000000 6.46917751 3.23371773
Ga 3.04952000 0.01578437 1.11513897
Ni 1.52476000 0.00000000 -1.0780823700000006 0 0 0
Ni 4.57428000 4.31267000 -1.0780823700000006 0 0 0
Ni 4.57428000 0.00000000 -1.0780823700000006 0 0 0
Ni 1.52476000 4.31267000 -1.0780823700000006 0 0 0
Ni 4.57428000 6.46900500 -3.2345118 0 0 0
Ni 1.52476000 2.15633500 -3.2345118 0 0 0
Ni 1.52476000 6.46900500 -3.2345118 0 0 0
Ni 4.57428000 2.15633500 -3.2345118 0 0 0
Ni 1.46712407 4.32319291 3.14637003
Ni 4.63167197 8.61481709 3.14637003
Ni 4.63191593 4.32319291 3.14637003
Ni 1.46736803 8.61490334 3.14637003
Ni 4.53579506 2.15633500 1.08469962
Ni 1.64887546 6.46900500 1.16648883
Ni 1.56318395 2.15633500 1.08469962
Ni 4.45016454 6.46900500 1.16648883
C 3.04952000 2.15633500 5.58442962
O 3.04952000 2.15633500 6.73291953
