&CONTROL
calculation = 'relax'
prefix = 'scf'
pseudo_dir = '/vol0004/mdt0/data/hp150275/u10028/POT_HYBRID_KKJUS_GBRV'
outdir = './data'
tprnfor = .true.
nstep = 50
disk_io = 'non'
/
&SYSTEM
ibrav = 0
ecutwfc = 50.0
ecutrho = 400
occupations = 'smearing'
smearing = 'mp'
degauss = 0.01
assume_isolated = 'esm'
esm_bc = 'bc1'
input_dft = 'BEEF-VDW'
nosym = .true.
nspin = 2
ntyp = 4
nat = 17
starting_magnetization(1) = 0.0
starting_magnetization(2) = 0.01
starting_magnetization(3) = 0.0
starting_magnetization(4) = 0.0
/
&ELECTRONS
electron_maxstep = 200
mixing_beta = 0.1
conv_thr = 1e-06
/
&IONS
ion_dynamics = 'bfgs'
upscale = 1.0
/
&CELL
/

K_POINTS {automatic}
10 10 2 0  0  0

ATOMIC_SPECIES
C 12.01 C.pbe-n-rrkjus_psl.1.0.0.UPF
Fe 55.84 fe_pbe_v1.5.uspp.F.UPF
Ga 69.72 Ga.pbe-dnl-rrkjus_psl.1.0.0.UPF
V 50.94 V.pbe-spnl-rrkjus_psl.1.0.0.UPF

CELL_PARAMETERS {angstrom}
5.73361000 0.00000000 0.00000000
0.00000000 5.73361000 0.00000000
0.00000000 0.00000000 24.30020000

ATOMIC_POSITIONS {angstrom}
V 0.00000000 0.00000000 22.15011830
V 2.86680500 2.86680500 22.15011830
V 2.86680500 0.00000000 0.70154677
V 0.00000000 2.86691967 0.72584697
Ga 0.00000000 5.73349533 0.71734190
Ga 2.86680500 0.00000000 22.15011830
Ga 0.00000000 2.86680500 22.15011830
Ga 2.86680500 2.86691967 0.71758491
Fe 1.43340250 1.43340250 23.58358710
Fe 4.31545890 4.28495610 2.20815917
Fe 4.30020750 1.43340250 23.58358710
Fe 1.41809376 4.28495610 2.20815917
Fe 4.30020750 4.30020750 23.58358710
Fe 1.41820843 1.44859657 2.20815917
Fe 1.43340250 4.30020750 23.58358710
Fe 4.31540157 1.44859657 2.20815917
C 0.00000000 2.86680500 2.82659926
