&CONTROL
calculation = 'relax'
prefix = 'scf'
pseudo_dir = '/vol0004/mdt0/data/hp150275/u10028/POT_HYBRID_KKJUS_GBRV'
outdir = './data'
tprnfor = .true.
nstep = 50
disk_io = 'non'
/
&SYSTEM
ibrav = 0
ecutwfc = 50.0
ecutrho = 400
occupations = 'smearing'
smearing = 'mp'
degauss = 0.01
assume_isolated = 'esm'
esm_bc = 'bc1'
input_dft = 'BEEF-VDW'
nosym = .true.
nspin = 2
ntyp = 5
nat = 18
starting_magnetization(1) = 0.1
starting_magnetization(2) = 0.1
starting_magnetization(3) = 0.1
starting_magnetization(4) = 0.1
starting_magnetization(5) = 0.1
/
&ELECTRONS
electron_maxstep = 200
mixing_beta = 0.1
conv_thr = 1e-06
/
&IONS
ion_dynamics = 'bfgs'
upscale = 1.0
/
&CELL
/

K_POINTS {automatic}
8 8 1 0 0 0

ATOMIC_SPECIES
C 12.01 C.pbe-n-rrkjus_psl.1.0.0.UPF
Hf 178.4 Hf.pbe-spn-rrkjus_psl.1.0.0.UPF
In 114.8 In.pbe-dn-rrkjus_psl.1.0.0.UPF
Ni 58.69 ni_pbe_v1.4.uspp.F.UPF
O 15.99 O.pbe-n-rrkjus_psl.1.0.0.UPF

CELL_PARAMETERS {angstrom}
6.30953000 0.00000000 0.00000000
0.00000000 6.30953000 0.00000000
0.00000000 0.00000000 24.73210000

ATOMIC_POSITIONS {angstrom}
Hf 0.00082024 6.30845738 2.27114874
Hf 3.15287214 3.15552214 2.27263267
Hf 3.15476500 0.00000000 -0.7887066699999998 0 0 0
Hf 0.00000000 3.15476500 -0.7887066699999998 0 0 0
In 0.00000000 0.00000000 -0.7887066699999998 0 0 0
In 3.15426024 6.30946690 2.59093480
In 6.30776333 3.15438643 2.53281436
In 3.15476500 3.15476500 -0.7887066699999998 0 0 0
Ni 1.59643728 1.55775986 0.86339761
Ni 4.73214750 4.73214750 -2.3661200099999995 0 0 0
Ni 4.71189391 1.55662415 0.86438689
Ni 1.57738250 4.73214750 -2.3661200099999995 0 0 0
Ni 4.71195700 4.75259038 0.86364493
Ni 1.57738250 1.57738250 -2.3661200099999995 0 0 0
Ni 1.59612180 4.75120228 0.86216101
Ni 4.73214750 1.57738250 -2.3661200099999995 0 0 0
C 0.01400716 3.15463881 7.34444442
O 6.30422999 3.15545905 8.47915316
