&CONTROL
calculation = 'relax'
prefix = 'scf'
pseudo_dir = '/vol0004/mdt0/data/hp150275/u10028/POT_HYBRID_KKJUS_GBRV'
outdir = './data'
tprnfor = .true.
nstep = 50
disk_io = 'non'
/
&SYSTEM
ibrav = 0
ecutwfc = 50.0
ecutrho = 400
occupations = 'smearing'
smearing = 'mp'
degauss = 0.01
assume_isolated = 'esm'
esm_bc = 'bc1'
input_dft = 'BEEF-VDW'
nosym = .true.
nspin = 2
ntyp = 4
nat = 34
starting_magnetization(1) = 0.0
starting_magnetization(2) = 0.1
starting_magnetization(3) = 0.0
starting_magnetization(4) = 0.0
/
&ELECTRONS
electron_maxstep = 400
mixing_beta = 0.1
conv_thr = 1e-06
/
&IONS
ion_dynamics = 'bfgs'
upscale = 1.0
/
&CELL
/

K_POINTS {automatic}
6 6 1 0 0 0

ATOMIC_SPECIES
C 12.01 C.pbe-n-rrkjus_psl.1.0.0.UPF
Mn 54.93 mn_pbe_v1.5.uspp.F.UPF
O 15.99 O.pbe-n-rrkjus_psl.1.0.0.UPF
Pt 195.0 Pt.pbe-n-rrkjus_psl.1.0.0.UPF

CELL_PARAMETERS {angstrom}
8.81047000 0.00000000 0.00000000
0.00000000 8.81047000 0.00000000
0.00000000 0.00000000 26.60790000

ATOMIC_POSITIONS {angstrom}
Mn 0.01700421 2.13821296 0.56142669
Mn 2.15477665 8.79469926 0.51459679
Mn 2.22614145 2.22622956 2.23639400
Mn 0.00000000 2.20261750 -3.3039029400000004 0 0 0
Mn 2.20261750 0.00000000 -3.3039029400000004 0 0 0
Mn 2.20261750 2.20261750 -1.1013009800000013 0 0 0
Mn 0.01585885 6.65569335 0.51433071
Mn 2.20781568 4.44065309 0.42306561
Mn 2.21812393 6.59252228 2.28668293
Mn 0.00000000 6.60785250 -3.3039029400000004 0 0 0
Mn 2.20261750 4.40523500 -3.3039029400000004 0 0 0
Mn 2.20261750 6.60785250 -1.1013009800000013 0 0 0
Mn 4.38373745 2.20772757 0.48692457
Mn 6.67243325 8.79364200 0.56169277
Mn 6.58036383 2.23045859 2.21297904
Mn 4.40523500 2.20261750 -3.3039029400000004 0 0 0
Mn 6.60785250 0.00000000 -3.3039029400000004 0 0 0
Mn 6.60785250 2.20261750 -1.1013009800000013 0 0 0
Mn 4.36972881 6.60274243 0.42306561
Mn 6.60300674 4.42682065 0.48692457
Mn 6.58424044 6.58406423 2.23639400
Mn 4.40523500 6.60785250 -3.3039029400000004 0 0 0
Mn 6.60785250 4.40523500 -3.3039029400000004 0 0 0
Mn 6.60785250 6.60785250 -1.1013009800000013 0 0 0
Pt 0.03259874 8.77787126 2.41493300
Pt 0.00000000 0.00000000 -1.1013009800000013 0 0 0
Pt 0.03048423 4.41254769 1.89900582
Pt 0.00000000 4.40523500 -1.1013009800000013 0 0 0
Pt 4.39783421 8.77963336 1.89900582
Pt 4.40523500 0.00000000 -1.1013009800000013 0 0 0
Pt 4.37298868 4.43774563 1.89847367
Pt 4.40523500 4.40523500 -1.1013009800000013 0 0 0
C 0.00854616 8.80201195 4.43154575
O 8.80518372 0.00528628 5.59643961
