&CONTROL
calculation = 'relax'
prefix = 'scf'
pseudo_dir = '/vol0004/mdt0/data/hp150275/u10028/POT_HYBRID_KKJUS_GBRV'
outdir = './data'
tprnfor = .true.
nstep = 50
disk_io = 'non'
/
&SYSTEM
ibrav = 0
ecutwfc = 50.0
ecutrho = 400
occupations = 'smearing'
smearing = 'mp'
degauss = 0.01
assume_isolated = 'esm'
esm_bc = 'bc1'
input_dft = 'BEEF-VDW'
nosym = .true.
nspin = 2
ntyp = 5
nat = 34
starting_magnetization(1) = 0.0
starting_magnetization(2) = 0.0
starting_magnetization(3) = 0.0
starting_magnetization(4) = 0.001
starting_magnetization(5) = 0.0
/
&ELECTRONS
electron_maxstep = 200
mixing_beta = 0.1
conv_thr = 1e-06
/
&IONS
ion_dynamics = 'bfgs'
upscale = 1.0
/
&CELL
/

K_POINTS {automatic}
9 6 2 0  0  0

ATOMIC_SPECIES
C 12.01 C.pbe-n-rrkjus_psl.1.0.0.UPF
Ga 69.72 Ga.pbe-dnl-rrkjus_psl.1.0.0.UPF
Hf 178.4 Hf.pbe-spn-rrkjus_psl.1.0.0.UPF
Ni 58.69 ni_pbe_v1.4.uspp.F.UPF
O 15.99 O.pbe-n-rrkjus_psl.1.0.0.UPF

CELL_PARAMETERS {angstrom}
6.08368000 0.00000000 0.00000000
0.00000000 8.60362000 0.00000000
0.00000000 0.00000000 26.45270000

ATOMIC_POSITIONS {angstrom}
Hf 0.00000000 0.00000000 23.22626418
Hf 3.04184000 2.15090500 25.37713322
Hf 3.04184000 6.45271500 25.37713322
Hf 0.00000000 4.30181000 23.22626418
Hf 0.00000000 4.30731632 1.07556678
Hf 3.04184000 6.45271500 3.30605845
Hf 3.04184000 2.15073293 3.27272804
Hf 0.00000000 8.59811368 1.07530225
Ga 0.00000000 6.45271500 25.37713322
Ga 3.04184000 0.00000000 23.22626418
Ga 0.00000000 2.15090500 25.37713322
Ga 3.04184000 4.30181000 23.22626418
Ga 0.00000000 2.15073293 3.28145743
Ga 3.04184000 4.30301451 1.09223198
Ga 0.00000000 6.45271500 3.25315305
Ga 3.04184000 8.60241549 1.09249651
Ni 1.52092000 0.00000000 25.37713322
Ni 4.56276000 4.30181000 25.37713322
Ni 4.56276000 0.00000000 25.37713322
Ni 1.52092000 4.30181000 25.37713322
Ni 4.56276000 6.45271500 23.22626418
Ni 1.52092000 2.15090500 23.22626418
Ni 1.52092000 6.45271500 23.22626418
Ni 4.56276000 2.15090500 23.22626418
Ni 1.49311758 4.31101587 3.12168313
Ni 4.59062325 8.59432809 3.12221218
Ni 4.59056242 4.31101587 3.12168313
Ni 1.49305675 8.59432809 3.12221218
Ni 4.48251626 2.15090500 1.13508536
Ni 1.61156683 6.45262896 1.13640799
Ni 1.60116374 2.15090500 1.13508536
Ni 4.47211317 6.45262896 1.13640799
C 0.00000000 2.15116311 5.45719201
O 0.00000000 2.15099104 6.60709088
