&CONTROL
calculation = 'relax'
prefix = 'scf'
pseudo_dir = '/vol0004/mdt0/data/hp150275/u10028/POT_KKJUS'
outdir = './data'
tprnfor = .true.
nstep = 50
disk_io = 'non'
/
&SYSTEM
ibrav = 0
ecutwfc = 50.0
ecutrho = 400
occupations = 'smearing'
smearing = 'mp'
degauss = 0.01
assume_isolated = 'esm'
esm_bc = 'bc1'
input_dft = 'BEEF-VDW'
nosym = .true.
nspin = 1
ntyp = 4
nat = 34
/
&ELECTRONS
electron_maxstep = 200
mixing_beta = 0.1
conv_thr = 1e-06
/
&IONS
ion_dynamics = 'bfgs'
upscale = 1.0
/
&CELL
/

K_POINTS {automatic}
6 6 1 0 0 0

ATOMIC_SPECIES
C 12.01 C.pbe-n-rrkjus_psl.1.0.0.UPF
In 114.8 In.pbe-dn-rrkjus_psl.1.0.0.UPF
O 15.99 O.pbe-n-rrkjus_psl.1.0.0.UPF
Sc 44.95 Sc.pbe-spn-rrkjus_psl.1.0.0.UPF

CELL_PARAMETERS {angstrom}
9.13703000 0.00000000 0.00000000
0.00000000 9.13703000 0.00000000
0.00000000 0.00000000 26.85280000

ATOMIC_POSITIONS {angstrom}
Sc 0.00000000 0.00000000 -3.426417279999999 0 0 0
Sc 0.01324869 0.00009137 1.07384347
Sc 0.00000000 4.56851500 -3.426417279999999 0 0 0
Sc 9.10760876 4.56814952 1.07411200
Sc 4.56851500 0.00000000 -3.426417279999999 0 0 0
Sc 4.55234246 9.13693863 1.07411200
Sc 4.56851500 4.56851500 -3.426417279999999 0 0 0
Sc 4.59784487 4.56869774 1.07572317
In 0.00000000 2.28425750 -1.1420495799999983 0 0 0
In 2.28425750 0.00000000 -1.1420495799999983 0 0 0
In 2.28425750 2.28425750 -3.426417279999999 0 0 0
In 0.02585779 2.28772957 3.68769502
In 2.28626765 0.00054822 3.52469853
In 2.28480572 2.33387157 1.26664658
In 0.00000000 6.85277250 -1.1420495799999983 0 0 0
In 2.28425750 4.56851500 -1.1420495799999983 0 0 0
In 2.28425750 6.85277250 -3.426417279999999 0 0 0
In 0.02704561 6.84984865 3.68742650
In 2.28370928 4.56906322 3.69413970
In 2.28562805 6.80343254 1.26610952
In 4.56851500 2.28425750 -1.1420495799999983 0 0 0
In 6.85277250 0.00000000 -1.1420495799999983 0 0 0
In 6.85277250 2.28425750 -3.426417279999999 0 0 0
In 4.54603791 2.29174986 3.69333411
In 6.85231565 0.00009137 3.78490216
In 6.85121920 2.23318150 1.31229634
In 4.56851500 6.85277250 -1.1420495799999983 0 0 0
In 6.85277250 4.56851500 -1.1420495799999983 0 0 0
In 6.85277250 6.85277250 -3.426417279999999 0 0 0
In 4.54594654 6.84692480 3.69387117
In 6.86136131 4.56906322 3.58162646
In 6.85176743 6.90357439 1.31256486
C 2.28124228 9.13501985 7.30423013
O 2.28425750 0.00328933 8.43956651
