&CONTROL
calculation = 'relax'
prefix = 'scf'
pseudo_dir = '/vol0004/mdt0/data/hp150275/u10028/POT_KKJUS'
outdir = './data'
tprnfor = .true.
nstep = 50
disk_io = 'non'
/
&SYSTEM
ibrav = 0
ecutwfc = 50.0
ecutrho = 400
occupations = 'smearing'
smearing = 'mp'
degauss = 0.01
assume_isolated = 'esm'
esm_bc = 'bc1'
input_dft = 'BEEF-VDW'
nosym = .true.
nspin = 1
ntyp = 3
nat = 33
/
&ELECTRONS
electron_maxstep = 200
mixing_beta = 0.1
conv_thr = 1e-06
/
&IONS
ion_dynamics = 'bfgs'
upscale = 1.0
/
&CELL
/

K_POINTS {automatic}
9 6 2 0  0  0

ATOMIC_SPECIES
Al 26.98 Al.pbe-nl-rrkjus_psl.1.0.0.UPF
C 12.01 C.pbe-n-rrkjus_psl.1.0.0.UPF
Pd 106.4 Pd.pbe-n-rrkjus_psl.1.0.0.UPF

CELL_PARAMETERS {angstrom}
6.18271000 0.00000000 0.00000000
0.00000000 8.74368000 0.00000000
0.00000000 0.00000000 26.55780000

ATOMIC_POSITIONS {angstrom}
Al 0.00000000 0.00000000 -3.2788259900000014 0 0 0
Al 0.00000000 2.18592000 -1.0928534700000014 0 0 0
Al 0.00000000 0.00000000 1.12897208
Al 0.00000000 2.03885130 3.48863261
Al 0.00000000 4.37184000 -3.2788259900000014 0 0 0
Al 0.00000000 6.55776000 -1.0928534700000014 0 0 0
Al 0.00000000 4.37184000 1.10055523
Al 0.00000000 6.70482870 3.48863261
Al 3.09135500 0.00000000 -3.2788259900000014 0 0 0
Al 3.09135500 2.18592000 -1.0928534700000014 0 0 0
Al 3.09135500 0.00000000 0.96033005
Al 3.09135500 2.28743412 3.26767171
Al 3.09135500 4.37184000 -3.2788259900000014 0 0 0
Al 3.09135500 6.55776000 -1.0928534700000014 0 0 0
Al 3.09135500 4.37184000 1.12658188
Al 3.09135500 6.45624588 3.26767171
Pd 1.54567750 2.18592000 -3.2788259900000014 0 0 0
Pd 1.54567750 0.00000000 -1.0928534700000014 0 0 0
Pd 1.51173442 2.21774700 1.06151527
Pd 1.79082195 0.00000000 3.11044954
Pd 1.54567750 6.55776000 -3.2788259900000014 0 0 0
Pd 1.54567750 4.37184000 -1.0928534700000014 0 0 0
Pd 1.51173442 6.52593300 1.06151527
Pd 1.48613800 4.37184000 3.22039883
Pd 4.63703250 2.18592000 -3.2788259900000014 0 0 0
Pd 4.63703250 0.00000000 -1.0928534700000014 0 0 0
Pd 4.67097558 2.21774700 1.06151527
Pd 4.39188805 0.00000000 3.11044954
Pd 4.63703250 6.55776000 -3.2788259900000014 0 0 0
Pd 4.63703250 4.37184000 -1.0928534700000014 0 0 0
Pd 4.67097558 6.52593300 1.06151527
Pd 4.69657200 4.37184000 3.22039883
C 0.00000000 0.00000000 4.00518182
