&CONTROL
calculation = 'relax'
prefix = 'scf'
pseudo_dir = '/vol0004/mdt0/data/hp150275/u10028/POT_KKJUS'
outdir = './data'
tprnfor = .true.
nstep = 50
disk_io = 'non'
/
&SYSTEM
ibrav = 0
ecutwfc = 50.0
ecutrho = 400
occupations = 'smearing'
smearing = 'mp'
degauss = 0.01
assume_isolated = 'esm'
esm_bc = 'bc1'
input_dft = 'BEEF-VDW'
nosym = .true.
nspin = 1
ntyp = 2
nat = 32
/
&ELECTRONS
electron_maxstep = 200
mixing_beta = 0.1
conv_thr = 1e-06
/
&IONS
ion_dynamics = 'bfgs'
upscale = 1.0
/
&CELL
/

K_POINTS {automatic}
9 6 2 0  0  0

ATOMIC_SPECIES
Mg 24.30 Mg.pbe-spnl-rrkjus_psl.1.0.0.UPF
Y 88.90 Y.pbe-spn-rrkjus_psl.1.0.0.UPF

CELL_PARAMETERS {angstrom}
7.58049000 0.00000000 0.00000000
0.00000000 10.72040000 0.00000000
0.00000000 0.00000000 28.04030000

ATOMIC_POSITIONS {angstrom}
Y 0.00000000 0.00000000 -4.020137809999998 0 0 0
Y 0.00000000 2.68010000 -1.3400459399999995 0 0 0
Y 0.00000000 5.35966398 1.37761994
Y 7.58041420 2.68117204 3.86591616
Y 0.00000000 5.36020000 -4.020137809999998 0 0 0
Y 0.00000000 8.04030000 -1.3400459399999995 0 0 0
Y 0.00000000 0.00053602 1.37369430
Y 0.00000000 8.03987118 3.86423374
Y 3.79024500 0.00000000 -4.020137809999998 0 0 0
Y 3.79024500 2.68010000 -1.3400459399999995 0 0 0
Y 3.79024500 5.35966398 1.37733954
Y 3.79024500 2.68117204 3.86591616
Y 3.79024500 5.36020000 -4.020137809999998 0 0 0
Y 3.79024500 8.04030000 -1.3400459399999995 0 0 0
Y 3.79024500 0.00053602 1.37369430
Y 3.79024500 8.03987118 3.86451415
Mg 1.89512250 2.68010000 -4.020137809999998 0 0 0
Mg 1.89512250 0.00000000 -1.3400459399999995 0 0 0
Mg 1.89512250 2.67752710 1.26686075
Mg 1.89512250 5.36073602 4.09612702
Mg 1.89512250 8.04030000 -4.020137809999998 0 0 0
Mg 1.89512250 5.36020000 -1.3400459399999995 0 0 0
Mg 1.89512250 8.04276569 1.26686075
Mg 1.89512250 10.72029280 4.09332299
Mg 5.68536750 2.68010000 -4.020137809999998 0 0 0
Mg 5.68536750 0.00000000 -1.3400459399999995 0 0 0
Mg 5.68536750 2.67752710 1.26714116
Mg 5.68536750 5.36073602 4.09612702
Mg 5.68536750 8.04030000 -4.020137809999998 0 0 0
Mg 5.68536750 5.36020000 -1.3400459399999995 0 0 0
Mg 5.68536750 8.04265849 1.26714116
Mg 5.68536750 10.72029280 4.09332299
