&CONTROL
calculation = 'relax'
prefix = 'scf'
pseudo_dir = '/vol0403/data/hp230205/u10028/POT_HYBRID_KKJUS_GBRV'
outdir = './data'
tprnfor = .true.
nstep = 50
disk_io = 'non'
/
&SYSTEM
ibrav = 0
ecutwfc = 50.0
ecutrho = 400
occupations = 'smearing'
smearing = 'mp'
degauss = 0.01
assume_isolated = 'esm'
esm_bc = 'bc1'
input_dft = 'BEEF-VDW'
nosym = .true.
nspin = 1
ntyp = 5
nat = 17
/
&ELECTRONS
electron_maxstep = 200
mixing_beta = 0.1
conv_thr = 1e-06
/
&IONS
ion_dynamics = 'bfgs'
upscale = 1.0
/
&CELL
/

K_POINTS {automatic}
9 9 2 0  0  0

ATOMIC_SPECIES
Ag 107.8 Ag.pbe-n-rrkjus_psl.1.0.0.UPF
C 12.01 C.pbe-n-rrkjus_psl.1.0.0.UPF
Li 6.941 Li.pbe-sl-rrkjus_psl.1.0.0.UPF
Mg 24.30 Mg.pbe-spnl-rrkjus_psl.1.0.0.UPF
Sn 118.7 Sn.pbe-dn-rrkjus_psl.1.0.0.UPF


CELL_PARAMETERS {angstrom}
6.75899000 0.00000000 0.00000000
0.00000000 6.75899000 0.00000000
0.00000000 0.00000000 25.06920000

ATOMIC_POSITIONS {angstrom}
Li 5.06924250 1.68974750 -0.84483204 0 0 0
Li 5.28255622 4.86458028 2.73931148
Li 1.47643378 1.89440972 2.73906079
Li 1.68974750 5.06924250 -0.84483204 0 0 0
Mg 1.68974750 1.68974750 -0.84483204 0 0 0
Mg 1.48650467 4.87478636 2.77791805
Mg 5.27255292 1.88427123 2.77791805
Mg 5.06924250 5.06924250 -0.84483204 0 0 0
Ag 0.00000000 0.00000000 -2.53449612 0 0 0
Ag 0.00000000 3.37949500 0.63851252
Ag 3.37949500 0.00000000 0.93808946
Ag 3.37949500 3.37949500 -2.53449612 0 0 0
Sn 0.00000000 3.37949500 -2.53449612 0 0 0
Sn 0.00000000 0.00000000 1.00101316
Sn 3.37949500 3.37949500 1.01555329
Sn 3.37949500 0.00000000 -2.53449612 0 0 0
C 0.00006759 3.37949500 2.96994812
