&CONTROL
calculation = 'relax'
prefix = 'scf'
pseudo_dir = '/vol0004/mdt0/data/hp150275/u10028/POT_HYBRID_KKJUS_GBRV'
outdir = './data'
tprnfor = .true.
nstep = 50
disk_io = 'non'
/
&SYSTEM
ibrav = 0
ecutwfc = 50.0
ecutrho = 400
occupations = 'smearing'
smearing = 'mp'
degauss = 0.01
assume_isolated = 'esm'
esm_bc = 'bc1'
input_dft = 'BEEF-VDW'
nosym = .true.
nspin = 2
ntyp = 3
nat = 32
starting_magnetization(1) = 0.1
starting_magnetization(2) = 0.0
starting_magnetization(3) = 0.0
/
&ELECTRONS
electron_maxstep = 300
mixing_beta = 0.1
conv_thr = 1e-06
/
&IONS
ion_dynamics = 'bfgs'
upscale = 1.0
/
&CELL
/

K_POINTS {automatic}
9 6 2 0  0  0

ATOMIC_SPECIES
Fe 55.84 fe_pbe_v1.5.uspp.F.UPF
Ga 69.72 Ga.pbe-dnl-rrkjus_psl.1.0.0.UPF
Ti 47.86 Ti.pbe-spn-rrkjus_psl.1.0.0.UPF

CELL_PARAMETERS {angstrom}
5.88011000 0.00000000 0.00000000
0.00000000 8.31574000 0.00000000
0.00000000 0.00000000 26.23680000

ATOMIC_POSITIONS {angstrom}
Ti 0.00000000 0.00000000 -3.118506049999997 0 0 0
Ti 2.94005500 2.07893500 -1.0395020200000005 0 0 0
Ti 2.94005500 6.23680500 -1.0395020200000005 0 0 0
Ti 0.00000000 4.15787000 -3.118506049999997 0 0 0
Ti 0.00000000 4.15787000 0.96052925
Ti 2.94011380 6.23672184 3.08229926
Ti 2.94011380 2.07901816 3.08229926
Ti 0.00000000 0.00000000 0.96052925
Ga 0.00000000 6.23680500 -1.0395020200000005 0 0 0
Ga 2.94005500 0.00000000 -3.118506049999997 0 0 0
Ga 0.00000000 2.07893500 -1.0395020200000005 0 0 0
Ga 2.94005500 4.15787000 -3.118506049999997 0 0 0
Ga 0.00005880 2.07876869 3.26516976
Ga 2.94005500 4.15753737 1.00355760
Ga 0.00005880 6.23697131 3.26543213
Ga 2.94005500 0.00033263 1.00355760
Fe 1.47002750 0.00000000 -1.0395020200000005 0 0 0
Fe 4.41008250 4.15787000 -1.0395020200000005 0 0 0
Fe 4.41008250 0.00000000 -1.0395020200000005 0 0 0
Fe 1.47002750 4.15787000 -1.0395020200000005 0 0 0
Fe 4.41008250 6.23680500 -3.118506049999997 0 0 0
Fe 1.47002750 2.07893500 -3.118506049999997 0 0 0
Fe 1.47002750 6.23680500 -3.118506049999997 0 0 0
Fe 4.41008250 2.07893500 -3.118506049999997 0 0 0
Fe 1.38317828 4.15778684 3.02011805
Fe 4.49681412 0.00008316 3.02011805
Fe 4.49699053 4.15778684 3.02011805
Fe 1.38335468 0.00008316 3.02011805
Fe 4.40108593 2.07885184 1.07780774
Fe 1.47920047 6.23688816 1.07780774
Fe 1.47908287 2.07885184 1.07780774
Fe 4.40096833 6.23688816 1.07780774
