&CONTROL
calculation = 'relax'
prefix = 'scf'
pseudo_dir = '/vol0004/mdt0/data/hp150275/u10028/POT_HYBRID_KKJUS_GBRV'
outdir = './data'
tprnfor = .true.
nstep = 50
disk_io = 'non'
/
&SYSTEM
ibrav = 0
ecutwfc = 50.0
ecutrho = 400
occupations = 'smearing'
smearing = 'mp'
degauss = 0.01
assume_isolated = 'esm'
esm_bc = 'bc1'
input_dft = 'BEEF-VDW'
nosym = .true.
nspin = 2
ntyp = 4
nat = 34
starting_magnetization(1) = 0.1
starting_magnetization(2) = 0.1
starting_magnetization(3) = 0.1
starting_magnetization(4) = 0.1
/
&ELECTRONS
electron_maxstep = 200
mixing_beta = 0.1
conv_thr = 1e-06
/
&IONS
ion_dynamics = 'bfgs'
upscale = 1.0
/
&CELL
/

K_POINTS {automatic}
9 6 2 0  0  0

ATOMIC_SPECIES
C 12.01 C.pbe-n-rrkjus_psl.1.0.0.UPF
Ga 69.72 Ga.pbe-dnl-rrkjus_psl.1.0.0.UPF
Ni 58.69 ni_pbe_v1.4.uspp.F.UPF
O 15.99 O.pbe-n-rrkjus_psl.1.0.0.UPF

CELL_PARAMETERS {angstrom}
5.82971000 0.00000000 0.00000000
0.00000000 8.24446000 0.00000000
0.00000000 0.00000000 26.18330000

ATOMIC_POSITIONS {angstrom}
Ga 0.00000000 0.00000000 -3.0917240600000007 0 0 0
Ga 0.00000000 2.06111500 -1.0305746899999981 0 0 0
Ga 5.82965170 8.18064788 1.07299163
Ga 0.00005830 2.06160967 3.47138191
Ga 0.00000000 4.12223000 -3.0917240600000007 0 0 0
Ga 0.00000000 6.18334500 -1.0305746899999981 0 0 0
Ga 0.00000000 4.18612457 1.07430080
Ga 0.00000000 6.18276789 3.42791764
Ga 2.91485500 0.00000000 -3.0917240600000007 0 0 0
Ga 2.91485500 2.06111500 -1.0305746899999981 0 0 0
Ga 2.91491330 0.01632403 1.11593225
Ga 2.91485500 2.06152722 3.33496692
Ga 2.91485500 4.12223000 -3.0917240600000007 0 0 0
Ga 2.91485500 6.18334500 -1.0305746899999981 0 0 0
Ga 2.91485500 4.10590597 1.11671774
Ga 2.91485500 6.18243811 3.24175437
Ni 1.45742750 2.06111500 -3.0917240600000007 0 0 0
Ni 1.45742750 0.00000000 -1.0305746899999981 0 0 0
Ni 1.44139580 2.06111500 1.06644581
Ni 1.43358399 4.12857823 3.04066663
Ni 1.45742750 6.18334500 -3.0917240600000007 0 0 0
Ni 1.45742750 4.12223000 -1.0305746899999981 0 0 0
Ni 1.44028815 6.18326256 1.02900369
Ni 1.43358399 8.23811177 3.04119029
Ni 4.37228250 2.06111500 -3.0917240600000007 0 0 0
Ni 4.37228250 0.00000000 -1.0305746899999981 0 0 0
Ni 4.38831420 2.06111500 1.06644581
Ni 4.39612601 4.12857823 3.04066663
Ni 4.37228250 6.18334500 -3.0917240600000007 0 0 0
Ni 4.37228250 4.12223000 -1.0305746899999981 0 0 0
Ni 4.38936355 6.18326256 1.02874186
Ni 4.39612601 8.23811177 3.04092846
C 0.00000000 2.06193945 6.21172609
O 0.00000000 2.06119744 7.34441565
