&CONTROL
calculation = 'relax'
prefix = 'scf'
pseudo_dir = '/vol0403/data/hp230205/u10028/POT_HYBRID_KKJUS_GBRV'
outdir = './data'
tprnfor = .true.
nstep = 50
disk_io = 'non'
/
&SYSTEM
ibrav = 0
ecutwfc = 50.0
ecutrho = 400
occupations = 'smearing'
smearing = 'mp'
degauss = 0.01
assume_isolated = 'esm'
esm_bc = 'bc1'
input_dft = 'BEEF-VDW'
nosym = .true.
nspin = 1
ntyp = 6
nat = 18
/
&ELECTRONS
electron_maxstep = 200
mixing_beta = 0.1
conv_thr = 1e-06
/
&IONS
ion_dynamics = 'bfgs'
upscale = 1.0
/
&CELL
/

K_POINTS {automatic}
6 6 1 0 0 0

ATOMIC_SPECIES
Al 26.98 Al.pbe-nl-rrkjus_psl.1.0.0.UPF
C 12.01 C.pbe-n-rrkjus_psl.1.0.0.UPF
Ge 72.64 Ge.pbe-dn-rrkjus_psl.1.0.0.UPF
Li 6.941 Li.pbe-sl-rrkjus_psl.1.0.0.UPF
O 15.99 O.pbe-n-rrkjus_psl.1.0.0.UPF
Pd 106.4 Pd.pbe-n-rrkjus_psl.1.0.0.UPF


CELL_PARAMETERS {angstrom}
5.49423000 0.00000000 0.00000000
0.00000000 8.01128000 0.00000000
0.00000000 0.00000000 24.10550000

ATOMIC_POSITIONS {angstrom}
Li 4.15995624 2.01716019 0.63035882
Li 1.02027851 2.00282000 -2.0528243800000006 0 0 0
Li 4.15995624 5.99419992 0.63035882
Li 1.02027851 6.00846000 -2.0528243800000006 0 0 0
Al 0.12867487 0.00000000 1.92916317
Al 2.51157736 0.00000000 -0.6843551499999982 0 0 0
Al 0.14252033 4.00572011 1.91662830
Al 2.51157736 4.00564000 -0.6843551499999982 0 0 0
Ge 2.97182901 8.01119989 2.11236496
Ge 5.25869236 0.00000000 -0.6843551499999982 0 0 0
Ge 2.86721887 4.00572011 2.02413884
Ge 5.25869236 4.00564000 -0.6843551499999982 0 0 0
Pd 1.51399002 1.95451198 1.04617870
Pd 3.76739351 2.00282000 -2.0528243800000006 0 0 0
Pd 1.51404496 6.05676802 1.04617870
Pd 3.76739351 6.00846000 -2.0528243800000006 0 0 0
C 2.54844364 8.01119989 4.15482398
O 2.64591128 8.01119989 5.30224578
