&CONTROL
calculation = 'relax'
prefix = 'scf'
pseudo_dir = '/vol0403/data/hp230205/u10028/POT_HYBRID_KKJUS_GBRV'
outdir = './data'
tprnfor = .true.
nstep = 50
disk_io = 'non'
/
&SYSTEM
ibrav = 0
ecutwfc = 50.0
ecutrho = 400
occupations = 'smearing'
smearing = 'mp'
degauss = 0.01
assume_isolated = 'esm'
esm_bc = 'bc1'
input_dft = 'BEEF-VDW'
nosym = .true.
nspin = 1
ntyp = 6
nat = 34
/
&ELECTRONS
electron_maxstep = 200
mixing_beta = 0.1
conv_thr = 1e-06
/
&IONS
ion_dynamics = 'bfgs'
upscale = 1.0
/
&CELL
/

K_POINTS {automatic}
6 6 1 0 0 0

ATOMIC_SPECIES
C 12.01 C.pbe-n-rrkjus_psl.1.0.0.UPF
Li 6.941 Li.pbe-sl-rrkjus_psl.1.0.0.UPF
Mg 24.30 Mg.pbe-spnl-rrkjus_psl.1.0.0.UPF
O 15.99 O.pbe-n-rrkjus_psl.1.0.0.UPF
Pd 106.4 Pd.pbe-n-rrkjus_psl.1.0.0.UPF
Sn 118.7 Sn.pbe-dn-rrkjus_psl.1.0.0.UPF


CELL_PARAMETERS {angstrom}
6.52546000 0.00000000 0.00000000
0.00000000 9.22840000 0.00000000
0.00000000 0.00000000 26.92130000

ATOMIC_POSITIONS {angstrom}
Li 0.00000000 0.00000000 -3.4607331200000004 0 0 0
Li 0.00000000 4.61420000 -3.4607331200000004 0 0 0
Li 3.26273000 6.92130000 -1.1535777100000004 0 0 0
Li 3.26273000 2.30710000 -1.1535777100000004 0 0 0
Li 6.45726894 4.61438457 1.20257447
Li 6.45726894 9.22821543 1.20257447
Li 3.43350129 2.30700772 3.97196860
Li 3.41229354 6.92130000 4.03388759
Mg 1.63136500 0.00000000 -1.1535777100000004 0 0 0
Mg 1.63136500 4.61420000 -1.1535777100000004 0 0 0
Mg 4.89409500 2.30710000 -3.4607331200000004 0 0 0
Mg 4.89409500 6.92130000 -3.4607331200000004 0 0 0
Mg 1.58431643 4.61779908 3.46773265
Mg 1.58425118 9.22470864 3.46773265
Mg 4.81807339 6.92130000 1.26180133
Mg 4.81011233 2.30710000 1.21791961
Sn 4.89409500 0.00000000 -1.1535777100000004 0 0 0
Sn 4.89409500 4.61420000 -1.1535777100000004 0 0 0
Sn 1.63136500 2.30710000 -3.4607331200000004 0 0 0
Sn 1.63136500 6.92130000 -3.4607331200000004 0 0 0
Sn 4.90916881 4.63154939 3.66102759
Sn 4.90916881 9.21095832 3.66075837
Sn 1.67032200 6.92130000 1.23945665
Sn 1.66536265 2.30710000 1.25453258
Pd 0.00000000 2.30710000 -1.1535777100000004 0 0 0
Pd 0.00000000 6.92130000 -1.1535777100000004 0 0 0
Pd 3.26273000 4.61420000 -3.4607331200000004 0 0 0
Pd 3.26273000 0.00000000 -3.4607331200000004 0 0 0
Pd 6.48963522 6.92120772 3.33877963
Pd 6.42842641 2.30710000 3.31266596
Pd 3.28243689 0.00175340 1.12719483
Pd 3.28243689 4.61253889 1.12719483
C 2.97580552 2.30710000 5.99698879
O 2.78996042 2.30719228 7.12337598
