&CONTROL
calculation = 'relax'
prefix = 'scf'
pseudo_dir = '/vol0403/data/hp230205/u10028/POT_HYBRID_KKJUS_GBRV'
outdir = './data'
tprnfor = .true.
nstep = 50
disk_io = 'non'
/
&SYSTEM
ibrav = 0
ecutwfc = 50.0
ecutrho = 400
occupations = 'smearing'
smearing = 'mp'
degauss = 0.01
assume_isolated = 'esm'
esm_bc = 'bc1'
input_dft = 'BEEF-VDW'
nosym = .true.
nspin = 2
ntyp = 5
nat = 17
starting_magnetization(1) = 0.0
starting_magnetization(2) = 0.0
starting_magnetization(3) = 0.0
starting_magnetization(4) = 0.1
starting_magnetization(5) = 0.0
/
&ELECTRONS
electron_maxstep = 200
mixing_beta = 0.1
conv_thr = 1e-06
/
&IONS
ion_dynamics = 'bfgs'
upscale = 1.0
/
&CELL
/

K_POINTS {automatic}
6 6 1 0 0 0

ATOMIC_SPECIES
C 12.01 C.pbe-n-rrkjus_psl.1.0.0.UPF
Ge 72.64 Ge.pbe-dn-rrkjus_psl.1.0.0.UPF
Li 6.941 Li.pbe-sl-rrkjus_psl.1.0.0.UPF
Mn 54.93 mn_pbe_v1.5.uspp.F.UPF
Pd 106.4 Pd.pbe-n-rrkjus_psl.1.0.0.UPF


CELL_PARAMETERS {angstrom}
6.14713000 0.00000000 0.00000000
0.00000000 6.14713000 0.00000000
0.00000000 0.00000000 24.61040000

ATOMIC_POSITIONS {angstrom}
Li 0.00000000 3.07356500 -2.30525617 0 0 0
Li 0.00000000 0.00000000 0.77768864
Li 3.07356500 3.07362647 0.77104383
Li 3.07356500 0.00000000 -2.30525617 0 0 0
Mn 1.53678250 1.53678250 -0.7683366899999982 0 0 0
Mn 1.41660611 4.48574517 2.52724198
Mn 4.73052389 1.66138483 2.52724198
Mn 4.61034750 4.61034750 -0.7683366899999982 0 0 0
Ge 0.00000000 0.00000000 -2.30525617 0 0 0
Ge 0.00000000 3.07356500 0.53896776
Ge 3.07368794 6.14694559 0.88745102
Ge 3.07356500 3.07356500 -2.30525617 0 0 0
Pd 4.61034750 1.53678250 -0.7683366899999982 0 0 0
Pd 4.58963167 4.62706769 2.25209770
Pd 1.55749833 1.52000084 2.25185160
Pd 1.53678250 4.61034750 -0.7683366899999982 0 0 0
C 0.00000000 3.07356500 2.64389527
