&CONTROL
calculation = 'relax'
prefix = 'scf'
pseudo_dir = '/vol0004/mdt0/data/hp150275/u10028/POT_KKJUS'
outdir = './data'
tprnfor = .true.
nstep = 50
disk_io = 'non'
/
&SYSTEM
ibrav = 0
ecutwfc = 50.0
ecutrho = 400
occupations = 'smearing'
smearing = 'mp'
degauss = 0.01
assume_isolated = 'esm'
esm_bc = 'bc1'
input_dft = 'BEEF-VDW'
nosym = .true.
nspin = 1
ntyp = 2
nat = 32
/
&ELECTRONS
electron_maxstep = 200
mixing_beta = 0.1
conv_thr = 1e-06
/
&IONS
ion_dynamics = 'bfgs'
upscale = 1.0
/
&CELL
/

K_POINTS {automatic}
9 6 2 0  0  0

ATOMIC_SPECIES
As 74.92 As.pbe-n-rrkjus_psl.1.0.0.UPF
Na 22.98 Na.pbe-spnl-rrkjus_psl.1.0.0.UPF

CELL_PARAMETERS {angstrom}
7.20118000 0.00000000 0.00000000
0.00000000 10.18400000 0.00000000
0.00000000 0.00000000 27.63800000

ATOMIC_POSITIONS {angstrom}
Na 1.80029500 0.00000000 -1.2730062800000006 0 0 0
Na 5.40088500 5.09200000 -1.2730062800000006 0 0 0
Na 5.40088500 0.00000000 -1.2730062800000006 0 0 0
Na 1.80029500 5.09200000 -1.2730062800000006 0 0 0
Na 5.40088500 7.63800000 -3.819018840000002 0 0 0
Na 1.80029500 2.54600000 -3.819018840000002 0 0 0
Na 1.80029500 7.63800000 -3.819018840000002 0 0 0
Na 5.40088500 2.54600000 -3.819018840000002 0 0 0
Na 0.00000000 7.63800000 -1.2730062800000006 0 0 0
Na 3.60059000 0.00000000 -3.819018840000002 0 0 0
Na 0.00000000 2.54600000 -1.2730062800000006 0 0 0
Na 3.60059000 5.09200000 -3.819018840000002 0 0 0
Na 2.05003192 5.09200000 4.11142888
Na 5.15172417 0.00000000 4.11225802
Na 5.15114808 5.09200000 4.11142888
Na 2.04945583 0.00000000 4.11225802
Na 5.38785086 2.54579632 1.27162438
Na 1.81332914 7.63820368 1.27162438
Na 1.81332914 2.54579632 1.27134800
Na 5.38785086 7.63820368 1.27134800
Na 0.00000000 2.54477792 3.63301510
Na 3.60059000 5.09200000 1.44242722
Na 0.00000000 7.63922208 3.63301510
Na 3.60059000 0.00000000 1.44380912
As 0.00000000 0.00000000 -3.819018840000002 0 0 0
As 3.60059000 2.54600000 -1.2730062800000006 0 0 0
As 3.60059000 7.63800000 -1.2730062800000006 0 0 0
As 0.00000000 5.09200000 -3.819018840000002 0 0 0
As 0.00000000 5.09200000 1.51594430
As 3.60059000 7.63830552 3.65871844
As 3.60059000 2.54569448 3.65871844
As 0.00000000 0.00000000 1.51539154
