&CONTROL
calculation = 'relax'
prefix = 'scf'
pseudo_dir = '/vol0403/data/hp230205/u10028/POT_HYBRID_KKJUS_GBRV'
outdir = './data'
tprnfor = .true.
nstep = 50
disk_io = 'non'
/
&SYSTEM
ibrav = 0
ecutwfc = 50.0
ecutrho = 400
occupations = 'smearing'
smearing = 'mp'
degauss = 0.01
assume_isolated = 'esm'
esm_bc = 'bc1'
input_dft = 'BEEF-VDW'
nosym = .true.
nspin = 1
ntyp = 4
nat = 32
/
&ELECTRONS
electron_maxstep = 200
mixing_beta = 0.1
conv_thr = 1e-06
/
&IONS
ion_dynamics = 'bfgs'
upscale = 1.0
/
&CELL
/

K_POINTS {automatic}
9 6 2 0  0  0

ATOMIC_SPECIES
Ge 72.64 Ge.pbe-dn-rrkjus_psl.1.0.0.UPF
Li 6.941 Li.pbe-sl-rrkjus_psl.1.0.0.UPF
Pd 106.4 Pd.pbe-n-rrkjus_psl.1.0.0.UPF
Y 88.90 Y.pbe-spn-rrkjus_psl.1.0.0.UPF


CELL_PARAMETERS {angstrom}
6.55453000 0.00000000 0.00000000
0.00000000 9.26950000 0.00000000
0.00000000 0.00000000 26.95210000

ATOMIC_POSITIONS {angstrom}
Li 4.91589750 0.00000000 -1.1586707800000013 0 0 0
Li 4.91589750 4.63475000 -1.1586707800000013 0 0 0
Li 1.63863250 2.31737500 -3.4760123400000005 0 0 0
Li 1.63863250 6.95212500 -3.4760123400000005 0 0 0
Li 3.47468744 4.63475000 4.78049398
Li 3.47462190 0.00000000 4.78049398
Li 1.50124955 6.95212500 1.29423984
Li 1.50124955 2.31737500 1.29423984
Y 0.00000000 2.31737500 -1.1586707800000013 0 0 0
Y 0.00000000 6.95212500 -1.1586707800000013 0 0 0
Y 3.27726500 4.63475000 -3.4760123400000005 0 0 0
Y 3.27726500 0.00000000 -3.4760123400000005 0 0 0
Y 6.14329879 6.95212500 3.53099462
Y 6.14323324 2.31737500 3.53099462
Y 3.29286478 0.00000000 1.31553200
Y 3.29286478 4.63475000 1.31553200
Ge 0.00000000 0.00000000 -3.4760123400000005 0 0 0
Ge 0.00000000 4.63475000 -3.4760123400000005 0 0 0
Ge 3.27726500 6.95212500 -1.1586707800000013 0 0 0
Ge 3.27726500 2.31737500 -1.1586707800000013 0 0 0
Ge 6.46263549 4.63475000 1.12363305
Ge 6.46263549 0.00000000 1.12363305
Ge 3.05146144 2.31737500 3.51697953
Ge 3.05159253 6.95212500 3.51697953
Pd 1.63863250 0.00000000 -1.1586707800000013 0 0 0
Pd 1.63863250 4.63475000 -1.1586707800000013 0 0 0
Pd 4.91589750 2.31737500 -3.4760123400000005 0 0 0
Pd 4.91589750 6.95212500 -3.4760123400000005 0 0 0
Pd 1.32788223 4.63475000 3.30810075
Pd 1.32788223 0.00000000 3.30810075
Pd 4.90455816 6.95212500 1.07889256
Pd 4.90455816 2.31737500 1.07889256
