&CONTROL
calculation = 'relax'
prefix = 'scf'
pseudo_dir = '/vol0403/data/hp230205/u10028/POT_HYBRID_KKJUS_GBRV'
outdir = './data'
tprnfor = .true.
nstep = 50
disk_io = 'non'
/
&SYSTEM
ibrav = 0
ecutwfc = 50.0
ecutrho = 400
occupations = 'smearing'
smearing = 'mp'
degauss = 0.01
assume_isolated = 'esm'
esm_bc = 'bc1'
input_dft = 'BEEF-VDW'
nosym = .true.
nspin = 1
ntyp = 6
nat = 18
/
&ELECTRONS
electron_maxstep = 200
mixing_beta = 0.1
conv_thr = 1e-06
/
&IONS
ion_dynamics = 'bfgs'
upscale = 1.0
/
&CELL
/

K_POINTS {automatic}
6 6 1 0 0 0

ATOMIC_SPECIES
C 12.01 C.pbe-n-rrkjus_psl.1.0.0.UPF
Ge 72.64 Ge.pbe-dn-rrkjus_psl.1.0.0.UPF
Li 6.941 Li.pbe-sl-rrkjus_psl.1.0.0.UPF
O 15.99 O.pbe-n-rrkjus_psl.1.0.0.UPF
Pb 207.2 Pb.pbe-dn-rrkjus_psl.1.0.0.UPF
Y 88.90 Y.pbe-spn-rrkjus_psl.1.0.0.UPF


CELL_PARAMETERS {angstrom}
6.08443000 0.00000000 0.00000000
0.00000000 9.86128000 0.00000000
0.00000000 0.00000000 24.56300000

ATOMIC_POSITIONS {angstrom}
Li 1.50328012 2.46532000 -0.7604704799999986 0 0 0
Li 4.54853734 2.46532000 2.35362666
Li 1.50328012 7.39596000 -0.7604704799999986 0 0 0
Li 4.54342641 7.39596000 2.33692382
Y 3.04221500 0.00000000 -2.2814114399999994 0 0 0
Y 0.03297761 0.00187364 0.66983301
Y 3.04221500 4.93064000 -2.2814114399999994 0 0 0
Y 0.03291677 4.92876636 0.66983301
Ge 0.00000000 0.00000000 -2.2814114399999994 0 0 0
Ge 3.05614834 9.84934785 0.96630842
Ge 0.00000000 4.93064000 -2.2814114399999994 0 0 0
Ge 3.05608750 4.94257215 0.96606279
Pb 4.54549512 2.46532000 -0.7604704799999986 0 0 0
Pb 1.69433122 2.46532000 2.37254017
Pb 4.54549512 7.39596000 -0.7604704799999986 0 0 0
Pb 1.69153238 7.39596000 2.37990907
C 0.84360622 2.46571445 6.03316406
O 1.61669390 2.46532000 6.86756917
