&CONTROL
calculation = 'relax'
prefix = 'scf'
pseudo_dir = '/vol0403/data/hp230205/u10028/POT_HYBRID_KKJUS_GBRV'
outdir = './data'
tprnfor = .true.
nstep = 50
disk_io = 'non'
/
&SYSTEM
ibrav = 0
ecutwfc = 50.0
ecutrho = 400
occupations = 'smearing'
smearing = 'mp'
degauss = 0.01
assume_isolated = 'esm'
esm_bc = 'bc1'
input_dft = 'BEEF-VDW'
nosym = .true.
nspin = 1
ntyp = 5
nat = 17
/
&ELECTRONS
electron_maxstep = 200
mixing_beta = 0.1
conv_thr = 1e-06
/
&IONS
ion_dynamics = 'bfgs'
upscale = 1.0
/
&CELL
/

K_POINTS {automatic}
6 6 1 0 0 0

ATOMIC_SPECIES
Al 26.98 Al.pbe-nl-rrkjus_psl.1.0.0.UPF
C 12.01 C.pbe-n-rrkjus_psl.1.0.0.UPF
Cu 63.54 Cu.pbe-dn-rrkjus_psl.1.0.0.UPF
Ge 72.64 Ge.pbe-dn-rrkjus_psl.1.0.0.UPF
Li 6.941 Li.pbe-sl-rrkjus_psl.1.0.0.UPF


CELL_PARAMETERS {angstrom}
5.44163000 0.00000000 0.00000000
0.00000000 7.78580000 0.00000000
0.00000000 0.00000000 24.08040000

ATOMIC_POSITIONS {angstrom}
Li 4.14434541 1.94660572 0.43465122
Li 1.27671523 1.94645000 -2.040091490000002 0 0 0
Li 4.23837677 5.83973929 0.92131610
Li 1.27671523 5.83935000 -2.040091490000002 0 0 0
Al 0.14937274 0.33665799 2.14749007
Al 2.66503829 0.00000000 -0.6800305000000009 0 0 0
Al 0.15013457 3.55670916 2.14652686
Al 2.66503829 3.89290000 -0.6800305000000009 0 0 0
Cu 1.46352639 1.94551570 0.43874489
Cu 3.99753023 1.94645000 -2.040091490000002 0 0 0
Cu 1.42168025 5.84153002 1.75642438
Cu 3.99753023 5.83935000 -2.040091490000002 0 0 0
Ge 2.79182827 0.33502297 2.10968384
Ge 5.38585329 0.00000000 -0.6800305000000009 0 0 0
Ge 2.79079436 3.55631987 2.11064706
Ge 5.38585329 3.89290000 -0.6800305000000009 0 0 0
C 1.36802578 1.94613857 2.53759255
