&CONTROL
calculation = 'relax'
prefix = 'scf'
pseudo_dir = '/vol0403/data/hp230205/u10028/POT_HYBRID_KKJUS_GBRV'
outdir = './data'
tprnfor = .true.
nstep = 50
disk_io = 'non'
/
&SYSTEM
ibrav = 0
ecutwfc = 50.0
ecutrho = 400
occupations = 'smearing'
smearing = 'mp'
degauss = 0.01
assume_isolated = 'esm'
esm_bc = 'bc1'
input_dft = 'BEEF-VDW'
nosym = .true.
nspin = 1
ntyp = 6
nat = 34
/
&ELECTRONS
electron_maxstep = 200
mixing_beta = 0.1
conv_thr = 1e-06
/
&IONS
ion_dynamics = 'bfgs'
upscale = 1.0
/
&CELL
/

K_POINTS {automatic}
6 6 1 0 0 0

ATOMIC_SPECIES
C 12.01 C.pbe-n-rrkjus_psl.1.0.0.UPF
Cu 63.54 Cu.pbe-dn-rrkjus_psl.1.0.0.UPF
In 114.8 In.pbe-dn-rrkjus_psl.1.0.0.UPF
O 15.99 O.pbe-n-rrkjus_psl.1.0.0.UPF
Pd 106.4 Pd.pbe-n-rrkjus_psl.1.0.0.UPF
Sc 44.95 Sc.pbe-spn-rrkjus_psl.1.0.0.UPF


CELL_PARAMETERS {angstrom}
6.53831000 0.00000000 0.00000000
0.00000000 9.24656000 0.00000000
0.00000000 0.00000000 26.93490000

ATOMIC_POSITIONS {angstrom}
Sc 4.90373250 0.00000000 -1.1557765599999996 0 0 0
Sc 4.90373250 4.62328000 -1.1557765599999996 0 0 0
Sc 1.63457750 2.31164000 -3.467329679999999 0 0 0
Sc 1.63457750 6.93492000 -3.467329679999999 0 0 0
Sc 4.90262099 4.67524567 3.44551241
Sc 4.90255560 9.19459433 3.44551241
Sc 1.62686229 6.93492000 1.16439573
Sc 1.58181334 2.31164000 1.22499925
In 1.63457750 0.00000000 -1.1557765599999996 0 0 0
In 1.63457750 4.62328000 -1.1557765599999996 0 0 0
In 4.90373250 2.31164000 -3.467329679999999 0 0 0
In 4.90373250 6.93492000 -3.467329679999999 0 0 0
In 1.65223094 4.58250267 3.59176891
In 1.65223094 0.04077733 3.59176891
In 4.88464063 6.93492000 1.15900875
In 4.97199246 2.31164000 1.20291263
Cu 0.00000000 0.00000000 -3.467329679999999 0 0 0
Cu 0.00000000 4.62328000 -3.467329679999999 0 0 0
Cu 3.26915500 6.93492000 -1.1557765599999996 0 0 0
Cu 3.26915500 2.31164000 -1.1557765599999996 0 0 0
Cu 6.53739464 4.64158819 1.19564021
Cu 6.53739464 9.22825181 1.19564021
Cu 3.27693559 2.31173247 3.34827742
Cu 3.16892271 6.93492000 3.44228022
Pd 0.00000000 2.31164000 -1.1557765599999996 0 0 0
Pd 0.00000000 6.93492000 -1.1557765599999996 0 0 0
Pd 3.26915500 4.62328000 -3.467329679999999 0 0 0
Pd 3.26915500 0.00000000 -3.467329679999999 0 0 0
Pd 0.06799842 6.93492000 3.38598628
Pd 6.37700989 2.31164000 3.77357949
Pd 3.27745865 0.02228421 1.18809844
Pd 3.27739327 4.60099579 1.18836779
C 5.99700332 2.31164000 5.68892023
O 5.88487130 2.31164000 6.83904046
