&CONTROL
calculation = 'relax'
prefix = 'scf'
pseudo_dir = '/vol0403/data/hp230205/u10028/POT_HYBRID_KKJUS_GBRV'
outdir = './data'
tprnfor = .true.
nstep = 50
disk_io = 'non'
/
&SYSTEM
ibrav = 0
ecutwfc = 50.0
ecutrho = 400
occupations = 'smearing'
smearing = 'mp'
degauss = 0.01
assume_isolated = 'esm'
esm_bc = 'bc1'
input_dft = 'BEEF-VDW'
nosym = .true.
nspin = 1
ntyp = 6
nat = 34
/
&ELECTRONS
electron_maxstep = 200
mixing_beta = 0.1
conv_thr = 1e-06
/
&IONS
ion_dynamics = 'bfgs'
upscale = 1.0
/
&CELL
/

K_POINTS {automatic}
6 6 1 0 0 0

ATOMIC_SPECIES
C 12.01 C.pbe-n-rrkjus_psl.1.0.0.UPF
Cu 63.54 Cu.pbe-dn-rrkjus_psl.1.0.0.UPF
In 114.8 In.pbe-dn-rrkjus_psl.1.0.0.UPF
O 15.99 O.pbe-n-rrkjus_psl.1.0.0.UPF
Sn 118.7 Sn.pbe-dn-rrkjus_psl.1.0.0.UPF
Y 88.90 Y.pbe-spn-rrkjus_psl.1.0.0.UPF


CELL_PARAMETERS {angstrom}
8.84740000 0.00000000 0.00000000
0.00000000 9.14612000 0.00000000
0.00000000 0.00000000 26.62140000

ATOMIC_POSITIONS {angstrom}
Y 8.84306477 2.28598123 1.13007843
Y 0.00000000 2.28653000 -3.3106373 0 0 0
Y 0.00389286 6.85830954 1.12661765
Y 0.00000000 6.85959000 -3.3106373 0 0 0
Y 4.42953928 2.28607269 1.12954600
Y 4.42370000 2.28653000 -3.3106373 0 0 0
Y 4.42086883 6.85840100 1.12635143
Y 4.42370000 6.85959000 -3.3106373 0 0 0
In 2.21282321 9.14474808 1.30311753
In 2.21185000 0.00000000 -3.3106373 0 0 0
In 2.21282321 4.57022470 1.35156848
In 2.21185000 4.57306000 -3.3106373 0 0 0
In 6.63652321 9.14237009 1.34411449
In 6.63555000 0.00000000 -3.3106373 0 0 0
In 6.63652321 4.57616968 1.33612807
In 6.63555000 4.57306000 -3.3106373 0 0 0
Cu 0.02087986 0.00310968 3.06838256
Cu 0.00000000 0.00000000 -1.1034570300000013 0 0 0
Cu 0.00194643 4.56903571 3.06385693
Cu 0.00000000 4.57306000 -1.1034570300000013 0 0 0
Cu 4.40529741 0.00329260 3.06838256
Cu 4.42370000 0.00000000 -1.1034570300000013 0 0 0
Cu 4.42396542 4.56876132 3.06385693
Cu 4.42370000 4.57306000 -1.1034570300000013 0 0 0
Sn 2.21326558 2.23961040 3.55981361
Sn 2.21185000 2.28653000 -1.1034570300000013 0 0 0
Sn 2.21264627 6.89425379 3.56380682
Sn 2.21185000 6.85959000 -1.1034570300000013 0 0 0
Sn 6.63670016 2.28140817 3.57392295
Sn 6.63555000 2.28653000 -1.1034570300000013 0 0 0
Sn 6.63634627 6.86800443 3.57152702
Sn 6.63555000 6.85959000 -1.1034570300000013 0 0 0
C 2.14637924 2.42792902 7.67761176
O 2.22538652 2.22534246 8.79012007
