&CONTROL
calculation = 'relax'
prefix = 'scf'
pseudo_dir = '/vol0403/data/hp230205/u10028/POT_HYBRID_KKJUS_GBRV'
outdir = './data'
tprnfor = .true.
nstep = 50
disk_io = 'non'
/
&SYSTEM
ibrav = 0
ecutwfc = 50.0
ecutrho = 400
occupations = 'smearing'
smearing = 'mp'
degauss = 0.01
assume_isolated = 'esm'
esm_bc = 'bc1'
input_dft = 'BEEF-VDW'
nosym = .true.
nspin = 1
ntyp = 5
nat = 33
/
&ELECTRONS
electron_maxstep = 200
mixing_beta = 0.1
conv_thr = 1e-06
/
&IONS
ion_dynamics = 'bfgs'
upscale = 1.0
/
&CELL
/

K_POINTS {automatic}
7 7 2 0  0  0

ATOMIC_SPECIES
C 12.01 C.pbe-n-rrkjus_psl.1.0.0.UPF
Ga 69.72 Ga.pbe-dnl-rrkjus_psl.1.0.0.UPF
Ge 72.64 Ge.pbe-dn-rrkjus_psl.1.0.0.UPF
Pd 106.4 Pd.pbe-n-rrkjus_psl.1.0.0.UPF
Sc 44.95 Sc.pbe-spn-rrkjus_psl.1.0.0.UPF


CELL_PARAMETERS {angstrom}
7.83718000 0.00000000 0.00000000
0.00000000 8.08666000 0.00000000
0.00000000 0.00000000 26.43810000

ATOMIC_POSITIONS {angstrom}
Sc 0.00000000 2.02166500 -1.0731224799999985 0 0 0
Sc 7.67785013 2.02166500 3.33172936
Sc 0.00000000 6.06499500 -1.0731224799999985 0 0 0
Sc 0.03934264 6.06499500 3.25664516
Sc 3.91859000 2.02166500 -1.0731224799999985 0 0 0
Sc 4.07791987 2.02166500 3.33172936
Sc 3.91859000 6.06499500 -1.0731224799999985 0 0 0
Sc 3.87924736 6.06499500 3.25664516
Ga 0.00000000 0.00000000 -3.2191030599999984 0 0 0
Ga 0.02954617 0.00331553 1.12441239
Ga 0.00000000 4.04333000 -3.2191030599999984 0 0 0
Ga 0.02954617 4.04001447 1.12441239
Ga 3.91859000 0.00000000 -3.2191030599999984 0 0 0
Ga 3.88904383 0.00331553 1.12441239
Ga 3.91859000 4.04333000 -3.2191030599999984 0 0 0
Ga 3.88904383 4.04001447 1.12441239
Ge 1.95929500 0.00000000 -1.0731224799999985 0 0 0
Ge 1.95929500 0.04091850 3.46154043
Ge 1.95929500 4.04333000 -1.0731224799999985 0 0 0
Ge 1.95929500 4.00241150 3.46154043
Ge 5.87788500 0.00000000 -1.0731224799999985 0 0 0
Ge 5.87788500 8.00385260 3.12604094
Ge 5.87788500 4.04333000 -1.0731224799999985 0 0 0
Ge 5.87788500 4.12613740 3.12604094
Pd 1.95929500 2.02166500 -3.2191030599999984 0 0 0
Pd 1.95929500 2.02166500 1.36314844
Pd 1.95929500 6.06499500 -3.2191030599999984 0 0 0
Pd 1.95929500 6.06499500 1.11700972
Pd 5.87788500 2.02166500 -3.2191030599999984 0 0 0
Pd 5.87788500 2.02166500 1.09903182
Pd 5.87788500 6.06499500 -3.2191030599999984 0 0 0
Pd 5.87788500 6.06499500 1.15217240
C 1.95929500 2.02166500 3.77033744
