&CONTROL
calculation = 'relax'
prefix = 'scf'
pseudo_dir = '/vol0004/mdt0/data/hp150275/u10028/POT_KKJUS'
outdir = './data'
tprnfor = .true.
nstep = 50
disk_io = 'non'
/
&SYSTEM
ibrav = 0
ecutwfc = 50.0
ecutrho = 400
occupations = 'smearing'
smearing = 'mp'
degauss = 0.01
assume_isolated = 'esm'
esm_bc = 'bc1'
input_dft = 'BEEF-VDW'
nosym = .true.
nspin = 1
ntyp = 4
nat = 33
/
&ELECTRONS
electron_maxstep = 200
mixing_beta = 0.1
conv_thr = 1e-06
/
&IONS
ion_dynamics = 'bfgs'
upscale = 1.0
/
&CELL
/

K_POINTS {automatic}
8 6 1 0 0 0

ATOMIC_SPECIES
C 12.01 C.pbe-n-rrkjus_psl.1.0.0.UPF
Li 6.941 Li.pbe-sl-rrkjus_psl.1.0.0.UPF
Mg 24.30 Mg.pbe-spnl-rrkjus_psl.1.0.0.UPF
Pb 207.2 Pb.pbe-dn-rrkjus_psl.1.0.0.UPF

CELL_PARAMETERS {angstrom}
6.88544000 0.00000000 0.00000000
0.00000000 9.73748000 0.00000000
0.00000000 0.00000000 27.30310000

ATOMIC_POSITIONS {angstrom}
Li 1.72136000 0.00000000 -1.2171722000000003 0 0 0
Li 5.16408000 4.86874000 -1.2171722000000003 0 0 0
Li 5.16408000 0.00000000 -1.2171722000000003 0 0 0
Li 1.72136000 4.86874000 -1.2171722000000003 0 0 0
Li 5.16408000 7.30311000 -3.65151659 0 0 0
Li 1.72136000 2.43437000 -3.65151659 0 0 0
Li 1.72136000 7.30311000 -3.65151659 0 0 0
Li 5.16408000 2.43437000 -3.65151659 0 0 0
Li 1.59053664 4.86883737 3.64004929
Li 4.89485930 0.00000000 3.78284451
Li 5.29490336 4.86893475 3.64032232
Li 1.99044300 0.00000000 3.78284451
Li 5.16263406 2.44605498 1.22263282
Li 1.72087802 7.29142502 1.22235979
Li 1.72273709 2.44624973 1.22263282
Li 5.16456198 7.29161977 1.22235979
Mg 0.00000000 0.00000000 -3.65151659 0 0 0
Mg 3.44272000 2.43437000 -1.2171722000000003 0 0 0
Mg 3.44272000 7.30311000 -1.2171722000000003 0 0 0
Mg 0.00000000 4.86874000 -3.65151659 0 0 0
Mg 6.88537115 4.86825313 1.14099655
Mg 3.44272000 7.17603589 3.66189177
Mg 3.44265115 2.56154149 3.66298390
Mg 6.88537115 0.00097375 1.35778316
Pb 0.00000000 7.30311000 -1.2171722000000003 0 0 0
Pb 3.44272000 0.00000000 -3.65151659 0 0 0
Pb 0.00000000 2.43437000 -1.2171722000000003 0 0 0
Pb 3.44272000 4.86874000 -3.65151659 0 0 0
Pb 6.88530229 2.24770251 4.06761584
Pb 3.44444136 4.86981112 1.31409820
Pb 6.88530229 7.48977749 4.06734281
Pb 3.44272000 9.73660363 1.19969821
C 6.88537115 9.73738263 3.52319202
