&CONTROL
calculation = 'relax'
prefix = 'scf'
pseudo_dir = '/vol0403/data/hp230205/u10028/POT_HYBRID_KKJUS_GBRV'
outdir = './data'
tprnfor = .true.
nstep = 50
disk_io = 'non'
/
&SYSTEM
ibrav = 0
ecutwfc = 50.0
ecutrho = 400
occupations = 'smearing'
smearing = 'mp'
degauss = 0.01
assume_isolated = 'esm'
esm_bc = 'bc1'
input_dft = 'BEEF-VDW'
nosym = .true.
nspin = 1
ntyp = 5
nat = 17
/
&ELECTRONS
electron_maxstep = 200
mixing_beta = 0.1
conv_thr = 1e-06
/
&IONS
ion_dynamics = 'bfgs'
upscale = 1.0
/
&CELL
/

K_POINTS {automatic}
8 8 1 0 0 0

ATOMIC_SPECIES
C 12.01 C.pbe-n-rrkjus_psl.1.0.0.UPF
Cu 63.54 Cu.pbe-dn-rrkjus_psl.1.0.0.UPF
In 114.8 In.pbe-dn-rrkjus_psl.1.0.0.UPF
Li 6.941 Li.pbe-sl-rrkjus_psl.1.0.0.UPF
Mg 24.30 Mg.pbe-spnl-rrkjus_psl.1.0.0.UPF


CELL_PARAMETERS {angstrom}
6.43808000 0.00000000 0.00000000
0.00000000 6.43808000 0.00000000
0.00000000 0.00000000 24.82860000

ATOMIC_POSITIONS {angstrom}
Li 0.00000000 3.21904000 -2.4143330600000006 0 0 0
Li 0.00012876 0.00012876 0.86800786
Li 3.21904000 3.21904000 1.11579728
Li 3.21904000 0.00000000 -2.4143330600000006 0 0 0
Mg 4.82856000 1.60952000 -0.8046949300000001 0 0 0
Mg 4.91592475 4.91586036 2.70631740
Mg 1.52228402 1.52228402 2.70681397
Mg 1.60952000 4.82856000 -0.8046949300000001 0 0 0
In 1.60952000 1.60952000 -0.8046949300000001 0 0 0
In 1.59027014 4.84787424 2.68297852
In 4.84787424 1.59027014 2.68322680
In 4.82856000 4.82856000 -0.8046949300000001 0 0 0
Cu 0.00000000 0.00000000 -2.4143330600000006 0 0 0
Cu 0.00000000 3.21904000 0.86204899
Cu 3.21904000 0.00000000 0.86204899
Cu 3.21904000 3.21904000 -2.4143330600000006 0 0 0
C 0.00006438 0.00006438 3.01394375
