&CONTROL
calculation = 'relax'
prefix = 'scf'
pseudo_dir = '/vol0004/mdt0/data/hp150275/u10028/POT_KKJUS'
outdir = './data'
tprnfor = .true.
nstep = 50
disk_io = 'non'
/
&SYSTEM
ibrav = 0
ecutwfc = 50.0
ecutrho = 400
occupations = 'smearing'
smearing = 'mp'
degauss = 0.01
assume_isolated = 'esm'
esm_bc = 'bc1'
input_dft = 'BEEF-VDW'
nosym = .true.
nspin = 1
ntyp = 2
nat = 32
/
&ELECTRONS
electron_maxstep = 200
mixing_beta = 0.1
conv_thr = 1e-06
/
&IONS
ion_dynamics = 'bfgs'
upscale = 1.0
/
&CELL
/

K_POINTS {automatic}
8 6 1 0 0 0

ATOMIC_SPECIES
Mg 24.30 Mg.pbe-spnl-rrkjus_psl.1.0.0.UPF
Sc 44.95 Sc.pbe-spn-rrkjus_psl.1.0.0.UPF

CELL_PARAMETERS {angstrom}
7.19733000 0.00000000 0.00000000
0.00000000 10.17860000 0.00000000
0.00000000 0.00000000 27.63390000

ATOMIC_POSITIONS {angstrom}
Mg 0.00000000 0.00000000 -3.817070610000002 0 0 0
Mg 0.00000000 2.54465000 -1.2722647600000023 0 0 0
Mg 0.00021592 5.08919821 1.17941485
Mg 7.19682619 2.54943394 3.93589638
Mg 0.00000000 5.08930000 -3.817070610000002 0 0 0
Mg 0.00000000 7.63395000 -1.2722647600000023 0 0 0
Mg 0.00007197 0.00000000 1.17886217
Mg 7.19718605 7.62926784 3.93562004
Mg 3.59866500 0.00000000 -3.817070610000002 0 0 0
Mg 3.59866500 2.54465000 -1.2722647600000023 0 0 0
Mg 3.59844908 5.08940179 1.17941485
Mg 3.59909684 2.54943394 3.93589638
Mg 3.59866500 5.08930000 -3.817070610000002 0 0 0
Mg 3.59866500 7.63395000 -1.2722647600000023 0 0 0
Mg 3.59859303 10.17839643 1.17886217
Mg 3.59888092 7.62926784 3.93534370
Sc 1.79933250 2.54465000 -3.817070610000002 0 0 0
Sc 1.79933250 0.00000000 -1.2722647600000023 0 0 0
Sc 1.79933250 2.54526072 1.35267940
Sc 1.79933250 5.08970714 3.61257975
Sc 1.79933250 7.63395000 -3.817070610000002 0 0 0
Sc 1.79933250 5.08930000 -1.2722647600000023 0 0 0
Sc 1.79940447 7.63313571 1.35240307
Sc 1.79940447 10.17839643 3.61202707
Sc 5.39799750 2.54465000 -3.817070610000002 0 0 0
Sc 5.39799750 0.00000000 -1.2722647600000023 0 0 0
Sc 5.39785355 2.54536250 1.35212673
Sc 5.39799750 5.08970714 3.61230341
Sc 5.39799750 7.63395000 -3.817070610000002 0 0 0
Sc 5.39799750 5.08930000 -1.2722647600000023 0 0 0
Sc 5.39792553 7.63323750 1.35212673
Sc 5.39799750 10.17839643 3.61175073
