&CONTROL
calculation = 'relax'
prefix = 'scf'
pseudo_dir = '/vol0004/mdt0/data/hp150275/u10028/POT_KKJUS'
outdir = './data'
tprnfor = .true.
nstep = 50
disk_io = 'non'
/
&SYSTEM
ibrav = 0
ecutwfc = 50.0
ecutrho = 400
occupations = 'smearing'
smearing = 'mp'
degauss = 0.01
assume_isolated = 'esm'
esm_bc = 'bc1'
input_dft = 'BEEF-VDW'
nosym = .true.
nspin = 1
ntyp = 5
nat = 34
/
&ELECTRONS
electron_maxstep = 200
mixing_beta = 0.1
conv_thr = 1e-06
/
&IONS
ion_dynamics = 'bfgs'
upscale = 1.0
/
&CELL
/

K_POINTS {automatic}
8 6 1 0 0 0

ATOMIC_SPECIES
C 12.01 C.pbe-n-rrkjus_psl.1.0.0.UPF
In 114.8 In.pbe-dn-rrkjus_psl.1.0.0.UPF
Li 6.941 Li.pbe-sl-rrkjus_psl.1.0.0.UPF
Mg 24.30 Mg.pbe-spnl-rrkjus_psl.1.0.0.UPF
O 15.99 O.pbe-n-rrkjus_psl.1.0.0.UPF

CELL_PARAMETERS {angstrom}
6.75535000 0.00000000 0.00000000
0.00000000 9.55351000 0.00000000
0.00000000 0.00000000 27.16510000

ATOMIC_POSITIONS {angstrom}
Li 1.68883750 0.00000000 -1.1941777999999985 0 0 0
Li 5.06651250 4.77675500 -1.1941777999999985 0 0 0
Li 5.06651250 0.00000000 -1.1941777999999985 0 0 0
Li 1.68883750 4.77675500 -1.1941777999999985 0 0 0
Li 5.06651250 7.16513250 -3.5825333899999983 0 0 0
Li 1.68883750 2.38837750 -3.5825333899999983 0 0 0
Li 1.68883750 7.16513250 -3.5825333899999983 0 0 0
Li 5.06651250 2.38837750 -3.5825333899999983 0 0 0
Li 1.58662905 4.79328257 3.76861432
Li 5.16872095 9.53688689 3.76861432
Li 5.16872095 4.79328257 3.76861432
Li 1.58662905 9.53688689 3.76861432
Li 5.06617473 2.38837750 1.12735165
Li 1.70113224 7.16513250 1.14174915
Li 1.68917527 2.38837750 1.12735165
Li 5.05421776 7.16513250 1.14174915
Mg 0.00000000 0.00000000 -3.5825333899999983 0 0 0
Mg 3.37767500 2.38837750 -1.1941777999999985 0 0 0
Mg 3.37767500 7.16513250 -1.1941777999999985 0 0 0
Mg 0.00000000 4.77675500 -3.5825333899999983 0 0 0
Mg 0.00000000 4.79118080 1.25149616
Mg 3.37767500 7.16503696 3.54504555
Mg 3.37767500 2.38837750 3.39781071
Mg 0.00000000 9.53908420 1.25149616
In 0.00000000 7.16513250 -1.1941777999999985 0 0 0
In 3.37767500 0.00000000 -3.5825333899999983 0 0 0
In 0.00000000 2.38837750 -1.1941777999999985 0 0 0
In 3.37767500 4.77675500 -3.5825333899999983 0 0 0
In 0.00000000 2.38828196 3.48202252
In 3.37767500 4.78267818 1.32131046
In 0.00000000 7.16513250 3.52684493
In 3.37767500 9.54758682 1.32158212
C 3.37767500 2.38837750 5.59166418
O 3.37767500 2.38837750 6.74618093
