&CONTROL
calculation = 'relax'
prefix = 'scf'
pseudo_dir = '/vol0004/mdt0/data/hp150275/u10028/POT_KKJUS'
outdir = './data'
tprnfor = .true.
nstep = 50
disk_io = 'non'
/
&SYSTEM
ibrav = 0
ecutwfc = 50.0
ecutrho = 400
occupations = 'smearing'
smearing = 'mp'
degauss = 0.01
assume_isolated = 'esm'
esm_bc = 'bc1'
input_dft = 'BEEF-VDW'
nosym = .true.
nspin = 1
ntyp = 4
nat = 34
/
&ELECTRONS
electron_maxstep = 200
mixing_beta = 0.1
conv_thr = 1e-06
/
&IONS
ion_dynamics = 'bfgs'
upscale = 1.0
/
&CELL
/

K_POINTS {automatic}
7 7 2 0  0  0

ATOMIC_SPECIES
C 12.01 C.pbe-n-rrkjus_psl.1.0.0.UPF
Ni 58.69 Ni.pbe-spn-rrkjus_psl.1.0.0.UPF
O 15.99 O.pbe-n-rrkjus_psl.1.0.0.UPF
Si 28.08 Si.pbe-nl-rrkjus_psl.1.0.0.UPF

CELL_PARAMETERS {angstrom}
7.08204000 0.00000000 0.00000000
-0.00000000 7.08204000 0.00000000
0.00000000 0.00000000 25.31150000

ATOMIC_POSITIONS {angstrom}
Si 0.00000000 0.00000000 2.65568258
Si 0.00000000 0.00000000 -0.8851431499999975 0 0 0
Si 0.00000000 3.54102000 2.65568258
Si 0.00000000 3.54102000 -0.8851431499999975 0 0 0
Si 3.54102000 -0.00000000 2.65568258
Si 3.54102000 0.00000000 -0.8851431499999975 0 0 0
Si 3.54102000 3.54102000 2.65568258
Si 3.54102000 3.54102000 -0.8851431499999975 0 0 0
Ni 0.00000000 1.77051000 0.88514315
Ni 1.77051000 -0.00000000 0.88514315
Ni 1.77051000 1.77051000 2.65568258
Ni 0.00000000 1.77051000 -2.655682579999997 0 0 0
Ni 1.77051000 0.00000000 -2.655682579999997 0 0 0
Ni 1.77051000 1.77051000 -0.8851431499999975 0 0 0
Ni 0.00000000 5.31153000 0.88514315
Ni 1.77051000 3.54102000 0.88514315
Ni 1.77051000 5.31153000 2.65568258
Ni 0.00000000 5.31153000 -2.655682579999997 0 0 0
Ni 1.77051000 3.54102000 -2.655682579999997 0 0 0
Ni 1.77051000 5.31153000 -0.8851431499999975 0 0 0
Ni 3.54102000 1.77051000 0.88514315
Ni 5.31153000 -0.00000000 0.88514315
Ni 5.31153000 1.77051000 2.65568258
Ni 3.54102000 1.77051000 -2.655682579999997 0 0 0
Ni 5.31153000 0.00000000 -2.655682579999997 0 0 0
Ni 5.31153000 1.77051000 -0.8851431499999975 0 0 0
Ni 3.54102000 5.31153000 0.88514315
Ni 5.31153000 3.54102000 0.88514315
Ni 5.31153000 5.31153000 2.65568258
Ni 3.54102000 5.31153000 -2.655682579999997 0 0 0
Ni 5.31153000 3.54102000 -2.655682579999997 0 0 0
Ni 5.31153000 5.31153000 -0.8851431499999975 0 0 0
C 0.00000000 0.00000000 4.55581689
O 0.00000000 0.00000000 5.70571833
