&CONTROL
calculation = 'relax'
prefix = 'scf'
pseudo_dir = '/vol0403/data/hp230205/u10028/POT_HYBRID_KKJUS_GBRV'
outdir = './data'
tprnfor = .true.
nstep = 70
disk_io = 'non'
/
&SYSTEM
ibrav = 0
ecutwfc = 50.0
ecutrho = 400
occupations = 'smearing'
smearing = 'mp'
degauss = 0.01
assume_isolated = 'esm'
esm_bc = 'bc1'
input_dft = 'BEEF-VDW'
nosym = .true.
nspin = 1
ntyp = 5
nat = 33
/
&ELECTRONS
electron_maxstep = 200
mixing_beta = 0.1
conv_thr = 1e-06
/
&IONS
ion_dynamics = 'bfgs'
upscale = 1.0
/
&CELL
/

K_POINTS {automatic}
6 6 1 0 0 0

ATOMIC_SPECIES
Ag 107.8 Ag.pbe-n-rrkjus_psl.1.0.0.UPF
C 12.01 C.pbe-n-rrkjus_psl.1.0.0.UPF
Li 6.941 Li.pbe-sl-rrkjus_psl.1.0.0.UPF
Pd 106.4 Pd.pbe-n-rrkjus_psl.1.0.0.UPF
Sn 118.7 Sn.pbe-dn-rrkjus_psl.1.0.0.UPF


CELL_PARAMETERS {angstrom}
6.55175000 0.00000000 0.00000000
-0.00000000 9.26558000 0.00000000
0.00000000 0.00000000 26.94920000

ATOMIC_POSITIONS {angstrom}
Li 1.63793750 0.00000000 -1.1582766200000023 0 0 0
Li 1.63793750 4.63279000 -1.1582766200000023 0 0 0
Li 4.91381250 2.31639500 -3.4745603600000017 0 0 0
Li 4.91381250 6.94918500 -3.4745603600000017 0 0 0
Li 1.60465461 4.63279000 3.59610125
Li 1.59751320 -0.00000000 3.58127919
Li 4.88170892 6.92611371 1.07796800
Li 4.88170892 2.33946629 1.07796800
Ag 0.00000000 0.00000000 -3.4745603600000017 0 0 0
Ag 0.00000000 4.63279000 -3.4745603600000017 0 0 0
Ag 3.27587500 6.94918500 -1.1582766200000023 0 0 0
Ag 3.27587500 2.31639500 -1.1582766200000023 0 0 0
Ag 6.39883216 4.63279000 1.30461077
Ag 6.41960120 -0.00000000 1.33587184
Ag 3.43803081 2.26552697 3.39074834
Ag 3.43803081 7.00005303 3.39074834
Sn 4.91381250 0.00000000 -1.1582766200000023 0 0 0
Sn 4.91381250 4.63279000 -1.1582766200000023 0 0 0
Sn 1.63793750 2.31639500 -3.4745603600000017 0 0 0
Sn 1.63793750 6.94918500 -3.4745603600000017 0 0 0
Sn 4.93523672 4.63279000 3.91140689
Sn 5.49816308 -0.00000000 4.28276686
Sn 1.63865819 6.92111029 1.13671726
Sn 1.63865819 2.34446971 1.13671726
Pd 0.00000000 2.31639500 -1.1582766200000023 0 0 0
Pd 0.00000000 6.94918500 -1.1582766200000023 0 0 0
Pd 3.27587500 4.63279000 -3.4745603600000017 0 0 0
Pd 3.27587500 0.00000000 -3.4745603600000017 0 0 0
Pd 6.45196685 6.87116882 3.21989042
Pd 6.45196685 2.39441118 3.21989042
Pd 3.39596858 -0.00000000 1.27308021
Pd 3.29408886 4.63279000 1.44205169
C 3.59566592 -0.00000000 3.35652286
