&CONTROL
calculation = 'relax'
prefix = 'scf'
pseudo_dir = '/vol0403/data/hp230205/u10028/POT_HYBRID_KKJUS_GBRV'
outdir = './data'
tprnfor = .true.
nstep = 50
disk_io = 'non'
/
&SYSTEM
ibrav = 0
ecutwfc = 50.0
ecutrho = 400
occupations = 'smearing'
smearing = 'mp'
degauss = 0.01
assume_isolated = 'esm'
esm_bc = 'bc1'
input_dft = 'BEEF-VDW'
nosym = .true.
nspin = 2
ntyp = 5
nat = 33
starting_magnetization(1) = 0.0
starting_magnetization(2) = 0.0
starting_magnetization(3) = 0.1
starting_magnetization(4) = 0.0
starting_magnetization(5) = 0.0
/
&ELECTRONS
electron_maxstep = 400
mixing_beta = 0.05
conv_thr = 1e-06
/
&IONS
ion_dynamics = 'bfgs'
upscale = 1.0
/
&CELL
/

K_POINTS {automatic}
9 6 2 0  0  0

ATOMIC_SPECIES
C 12.01 C.pbe-n-rrkjus_psl.1.0.0.UPF
In 114.8 In.pbe-dn-rrkjus_psl.1.0.0.UPF
Mn 54.93 mn_pbe_v1.5.uspp.F.UPF
Pd 106.4 Pd.pbe-n-rrkjus_psl.1.0.0.UPF
Y 88.90 Y.pbe-spn-rrkjus_psl.1.0.0.UPF


CELL_PARAMETERS {angstrom}
6.85874000 0.00000000 0.00000000
0.00000000 9.69972000 0.00000000
0.00000000 0.00000000 27.27480000

ATOMIC_POSITIONS {angstrom}
Y 0.00000000 2.42493000 26.06243514
Y 0.00000000 7.27479000 26.06243514
Y 3.42937000 4.84986000 23.63743267
Y 3.42937000 0.00000000 23.63743267
Y 6.49440373 7.08477249 3.68591647
Y 6.47814852 3.08955481 3.94884554
Y 3.32546009 0.08157465 1.26227774
Y 3.52950760 4.76498745 1.35064810
Mn 5.14405500 0.00000000 26.06243514
Mn 5.14405500 4.84986000 26.06243514
Mn 1.71468500 2.42493000 23.63743267
Mn 1.71468500 7.27479000 23.63743267
Mn 4.00900212 5.09768785 4.67544622
Mn 5.33767723 0.24152303 3.68509823
Mn 1.67538442 7.20776493 1.41065266
Mn 1.35686453 2.42803391 1.65285288
In 0.00000000 0.00000000 23.63743267
In 0.00000000 4.84986000 23.63743267
In 3.42937000 7.27479000 26.06243514
In 3.42937000 2.42493000 26.06243514
In 6.81052306 4.88759191 1.12972222
In 6.79570818 9.59389605 1.11008436
In 3.16366241 2.32705983 3.97666584
In 3.25515800 7.69323592 3.78465125
Pd 1.71468500 0.00000000 26.06243514
Pd 1.71468500 4.84986000 26.06243514
Pd 5.14405500 2.42493000 23.63743267
Pd 5.14405500 7.27479000 23.63743267
Pd 1.66290151 5.05995594 3.44862571
Pd 1.23779681 0.15897841 3.51817645
Pd 5.07135236 7.31436486 1.15754251
Pd 5.36566089 2.34917519 1.36183076
C 3.21585742 2.42822790 1.47065722
