&CONTROL
calculation = 'relax'
prefix = 'scf'
pseudo_dir = '/vol0403/data/hp230205/u10028/POT_HYBRID_KKJUS_GBRV'
outdir = './data'
tprnfor = .true.
nstep = 50
disk_io = 'non'
/
&SYSTEM
ibrav = 0
ecutwfc = 50.0
ecutrho = 400
occupations = 'smearing'
smearing = 'mp'
degauss = 0.01
assume_isolated = 'esm'
esm_bc = 'bc1'
input_dft = 'BEEF-VDW'
nosym = .true.
nspin = 1
ntyp = 6
nat = 34
/
&ELECTRONS
electron_maxstep = 200
mixing_beta = 0.1
conv_thr = 1e-06
/
&IONS
ion_dynamics = 'bfgs'
upscale = 1.0
/
&CELL
/

K_POINTS {automatic}
6 6 1 0 0 0

ATOMIC_SPECIES
C 12.01 C.pbe-n-rrkjus_psl.1.0.0.UPF
Li 6.941 Li.pbe-sl-rrkjus_psl.1.0.0.UPF
O 15.99 O.pbe-n-rrkjus_psl.1.0.0.UPF
Pb 207.2 Pb.pbe-dn-rrkjus_psl.1.0.0.UPF
Sn 118.7 Sn.pbe-dn-rrkjus_psl.1.0.0.UPF
Y 88.90 Y.pbe-spn-rrkjus_psl.1.0.0.UPF


CELL_PARAMETERS {angstrom}
9.64462000 0.00000000 0.00000000
0.00000000 8.87168000 0.00000000
0.00000000 0.00000000 27.02620000

ATOMIC_POSITIONS {angstrom}
Li 0.00000000 0.00000000 -3.513135739999999 0 0 0
Li 0.00000000 8.83450766 1.19158516
Li 0.00000000 4.43584000 -3.513135739999999 0 0 0
Li 0.00000000 4.47292362 1.19158516
Li 4.82231000 0.00000000 -3.513135739999999 0 0 0
Li 4.82231000 0.02980884 1.19807145
Li 4.82231000 4.43584000 -3.513135739999999 0 0 0
Li 4.82231000 4.40594244 1.19807145
Y 2.41115500 0.00000000 -1.1710452499999988 0 0 0
Y 2.40749004 8.85996938 3.43448950
Y 2.41115500 4.43584000 -1.1710452499999988 0 0 0
Y 2.40749004 4.44746190 3.43448950
Y 7.23346500 0.00000000 -1.1710452499999988 0 0 0
Y 7.23712996 8.86005810 3.43448950
Y 7.23346500 4.43584000 -1.1710452499999988 0 0 0
Y 7.23712996 4.44746190 3.43448950
Sn 2.41115500 2.21792000 -3.513135739999999 0 0 0
Sn 2.41183012 2.21792000 1.23023262
Sn 2.41115500 6.65376000 -3.513135739999999 0 0 0
Sn 2.40025658 6.65376000 1.22509765
Sn 7.23346500 2.21792000 -3.513135739999999 0 0 0
Sn 7.23278988 2.21792000 1.23023262
Sn 7.23346500 6.65376000 -3.513135739999999 0 0 0
Sn 7.24436342 6.65376000 1.22509765
Pb 0.00000000 2.21792000 -1.1710452499999988 0 0 0
Pb 0.00000000 2.21792000 3.57880940
Pb 0.00000000 6.65376000 -1.1710452499999988 0 0 0
Pb 0.00000000 6.65376000 3.73583163
Pb 4.82231000 2.21792000 -1.1710452499999988 0 0 0
Pb 4.82231000 2.21792000 3.66853639
Pb 4.82231000 6.65376000 -1.1710452499999988 0 0 0
Pb 4.82231000 6.65376000 3.64096966
C 9.64423422 2.21916204 7.82300385
O 0.00000000 2.21774257 8.95810425
