&CONTROL
calculation = 'relax'
prefix = 'scf'
pseudo_dir = '/vol0004/mdt0/data/hp150275/u10028/POT_HYBRID_KKJUS_GBRV'
outdir = './data'
tprnfor = .true.
nstep = 50
disk_io = 'non'
/
&SYSTEM
ibrav = 0
ecutwfc = 50.0
ecutrho = 400
occupations = 'smearing'
smearing = 'mp'
degauss = 0.01
assume_isolated = 'esm'
esm_bc = 'bc1'
input_dft = 'BEEF-VDW'
nosym = .true.
nspin = 2
ntyp = 4
nat = 17
starting_magnetization(1) = 0.1
starting_magnetization(2) = 0.1
starting_magnetization(3) = 0.1
starting_magnetization(4) = 0.1
/
&ELECTRONS
electron_maxstep = 200
mixing_beta = 0.1
conv_thr = 1e-06
/
&IONS
ion_dynamics = 'bfgs'
upscale = 1.0
/
&CELL
/

K_POINTS {automatic}
8 8 1 0 0 0

ATOMIC_SPECIES
C 12.01 C.pbe-n-rrkjus_psl.1.0.0.UPF
Ga 69.72 Ga.pbe-dnl-rrkjus_psl.1.0.0.UPF
Ni 58.69 ni_pbe_v1.4.uspp.F.UPF
Ta 180.9 Ta.pbe-spn-rrkjus_psl.1.0.0.UPF

CELL_PARAMETERS {angstrom}
5.98793000 0.00000000 0.00000000
-0.00000000 5.98793000 0.00000000
0.00000000 0.00000000 24.49090000

ATOMIC_POSITIONS {angstrom}
Ta 0.00000000 0.00000000 -2.2455706199999987 0 0 0
Ta 2.99396500 2.99396500 -2.2455706199999987 0 0 0
Ta 2.99396500 -0.00000000 0.74844190
Ta 0.00000000 2.99396500 0.74844190
Ga 0.00000000 0.00000000 0.74844190
Ga 2.99396500 0.00000000 -2.2455706199999987 0 0 0
Ga 0.00000000 2.99396500 -2.2455706199999987 0 0 0
Ga 2.99396500 2.99396500 0.74844190
Ni 1.49698250 1.49698250 -0.7484418999999995 0 0 0
Ni 4.49094750 4.49094750 2.24557062
Ni 4.49094750 1.49698250 -0.7484418999999995 0 0 0
Ni 1.49698250 4.49094750 2.24557062
Ni 4.49094750 4.49094750 -0.7484418999999995 0 0 0
Ni 1.49698250 1.49698250 2.24557062
Ni 1.49698250 4.49094750 -0.7484418999999995 0 0 0
Ni 4.49094750 1.49698250 2.24557062
C 0.00000000 2.99396500 3.04544341
