&CONTROL
calculation = 'relax'
prefix = 'scf'
pseudo_dir = '/vol0004/mdt0/data/hp150275/u10028/POT_KKJUS'
outdir = './data'
tprnfor = .true.
nstep = 50
disk_io = 'non'
/
&SYSTEM
ibrav = 0
ecutwfc = 50.0
ecutrho = 400
occupations = 'smearing'
smearing = 'mp'
degauss = 0.01
assume_isolated = 'esm'
esm_bc = 'bc1'
input_dft = 'BEEF-VDW'
nosym = .true.
nspin = 1
ntyp = 4
nat = 34
/
&ELECTRONS
electron_maxstep = 200
mixing_beta = 0.1
conv_thr = 1e-06
/
&IONS
ion_dynamics = 'bfgs'
upscale = 1.0
/
&CELL
/

K_POINTS {automatic}
8 6 2 0  0  0

ATOMIC_SPECIES
As 74.92 As.pbe-n-rrkjus_psl.1.0.0.UPF
C 12.01 C.pbe-n-rrkjus_psl.1.0.0.UPF
Na 22.98 Na.pbe-spnl-rrkjus_psl.1.0.0.UPF
O 15.99 O.pbe-n-rrkjus_psl.1.0.0.UPF

CELL_PARAMETERS {angstrom}
7.20118000 0.00000000 0.00000000
0.00000000 10.18400000 0.00000000
0.00000000 0.00000000 27.63800000

ATOMIC_POSITIONS {angstrom}
Na 1.80029500 0.00000000 -1.2730062800000006 0 0 0
Na 5.40088500 5.09200000 -1.2730062800000006 0 0 0
Na 5.40088500 0.00000000 -1.2730062800000006 0 0 0
Na 1.80029500 5.09200000 -1.2730062800000006 0 0 0
Na 5.40088500 7.63800000 -3.819018840000002 0 0 0
Na 1.80029500 2.54600000 -3.819018840000002 0 0 0
Na 1.80029500 7.63800000 -3.819018840000002 0 0 0
Na 5.40088500 2.54600000 -3.819018840000002 0 0 0
Na 0.00000000 7.63800000 -1.2730062800000006 0 0 0
Na 3.60059000 0.00000000 -3.819018840000002 0 0 0
Na 0.00000000 2.54600000 -1.2730062800000006 0 0 0
Na 3.60059000 5.09200000 -3.819018840000002 0 0 0
Na 2.01928288 5.09169448 4.33529668
Na 4.50613838 10.18338896 5.29931012
Na 5.22546426 5.09169448 4.03348972
Na 1.84775078 10.18359264 3.74826556
Na 5.33312190 2.75854008 1.14476596
Na 1.88051615 7.85186400 1.31225224
Na 1.88044413 2.33325624 1.31280500
Na 5.33384201 7.42586728 1.14421320
Na 6.80957983 2.30932384 3.57967376
Na 3.19185102 5.09332392 1.55076818
Na 6.80965184 7.87355592 3.57856824
Na 4.38350229 0.00000000 2.07616656
As 0.00000000 0.00000000 -3.819018840000002 0 0 0
As 3.60059000 2.54600000 -1.2730062800000006 0 0 0
As 3.60059000 7.63800000 -1.2730062800000006 0 0 0
As 0.00000000 5.09200000 -3.819018840000002 0 0 0
As 0.08879055 5.09200000 1.57647152
As 3.68469978 7.67557896 3.78391858
As 3.68469978 2.50770816 3.78447134
As 7.19462693 0.00010184 1.33629730
C 1.47869030 0.00030552 6.36005656
O 1.67240204 0.00020368 7.49183266
