&CONTROL
calculation = 'relax'
prefix = 'scf'
pseudo_dir = '/vol0403/data/hp230205/u10028/POT_HYBRID_KKJUS_GBRV'
outdir = './data'
tprnfor = .true.
nstep = 70
disk_io = 'non'
/
&SYSTEM
ibrav = 0
ecutwfc = 50.0
ecutrho = 400
occupations = 'smearing'
smearing = 'mp'
degauss = 0.01
assume_isolated = 'esm'
esm_bc = 'bc1'
input_dft = 'BEEF-VDW'
nosym = .true.
nspin = 1
ntyp = 5
nat = 33
/
&ELECTRONS
electron_maxstep = 200
mixing_beta = 0.1
conv_thr = 1e-06
/
&IONS
ion_dynamics = 'bfgs'
upscale = 1.0
/
&CELL
/

K_POINTS {automatic}
9 6 2 0  0  0

ATOMIC_SPECIES
C 12.01 C.pbe-n-rrkjus_psl.1.0.0.UPF
Cu 63.54 Cu.pbe-dn-rrkjus_psl.1.0.0.UPF
Li 6.941 Li.pbe-sl-rrkjus_psl.1.0.0.UPF
Pd 106.4 Pd.pbe-n-rrkjus_psl.1.0.0.UPF
Sn 118.7 Sn.pbe-dn-rrkjus_psl.1.0.0.UPF


CELL_PARAMETERS {angstrom}
6.33545000 0.00000000 0.00000000
-0.00000000 8.95968000 0.00000000
0.00000000 0.00000000 26.71980000

ATOMIC_POSITIONS {angstrom}
Li 1.58386250 0.00000000 -1.1200940199999998 0 0 0
Li 1.58386250 4.47984000 -1.1200940199999998 0 0 0
Li 4.75158750 2.23992000 -3.360014849999999 0 0 0
Li 4.75158750 6.71976000 -3.360014849999999 0 0 0
Li 1.52019123 4.47984000 3.50403457
Li 1.60103157 -0.00000000 3.40356812
Li 4.74829307 6.68033741 0.93252102
Li 4.74829307 2.27934259 0.93252102
Cu 0.00000000 0.00000000 -3.360014849999999 0 0 0
Cu 0.00000000 4.47984000 -3.360014849999999 0 0 0
Cu 3.16772500 6.71976000 -1.1200940199999998 0 0 0
Cu 3.16772500 2.23992000 -1.1200940199999998 0 0 0
Cu 6.21811747 4.47984000 1.39771274
Cu 6.19752725 -0.00000000 1.21174293
Cu 3.37305693 2.31885478 3.09468724
Cu 3.37305693 6.64082522 3.09468724
Sn 4.75158750 0.00000000 -1.1200940199999998 0 0 0
Sn 4.75158750 4.47984000 -1.1200940199999998 0 0 0
Sn 1.58386250 2.23992000 -3.360014849999999 0 0 0
Sn 1.58386250 6.71976000 -3.360014849999999 0 0 0
Sn 4.81728612 4.47984000 3.81371705
Sn 4.14737563 -0.00000000 4.36735131
Sn 1.61040804 6.71026274 1.11154368
Sn 1.61034468 2.24932766 1.11154368
Pd 0.00000000 2.23992000 -1.1200940199999998 0 0 0
Pd 0.00000000 6.71976000 -1.1200940199999998 0 0 0
Pd 3.16772500 4.47984000 -3.360014849999999 0 0 0
Pd 3.16772500 0.00000000 -3.360014849999999 0 0 0
Pd 6.07246547 6.87834634 3.07331140
Pd 6.07246547 2.08133366 3.07331140
Pd 3.37147307 -0.00000000 1.39397197
Pd 3.27194315 4.47984000 1.31381257
C 5.92529297 -0.00000000 3.16870108
