&CONTROL
calculation = 'relax'
prefix = 'scf'
pseudo_dir = '/vol0004/mdt0/data/hp150275/u10028/POT_HYBRID_KKJUS_GBRV'
outdir = './data'
tprnfor = .true.
nstep = 50
disk_io = 'non'
/
&SYSTEM
ibrav = 0
ecutwfc = 50.0
ecutrho = 400
occupations = 'smearing'
smearing = 'mp'
degauss = 0.01
assume_isolated = 'esm'
esm_bc = 'bc1'
input_dft = 'BEEF-VDW'
nosym = .true.
nspin = 2
ntyp = 5
nat = 34
starting_magnetization(1) = 0.0
starting_magnetization(2) = 0.0
starting_magnetization(3) = 0.1
starting_magnetization(4) = 0.0
starting_magnetization(5) = 0.0
/
&ELECTRONS
electron_maxstep = 300
mixing_beta = 0.1
conv_thr = 1e-06
/
&IONS
ion_dynamics = 'bfgs'
upscale = 1.0
/
&CELL
/

K_POINTS {automatic}
8 6 1 0 0 0

ATOMIC_SPECIES
Al 26.98 Al.pbe-nl-rrkjus_psl.1.0.0.UPF
C 12.01 C.pbe-n-rrkjus_psl.1.0.0.UPF
Co 58.93 co_pbe_v1.2.uspp.F.UPF
O 15.99 O.pbe-n-rrkjus_psl.1.0.0.UPF
Zr 91.22 Zr.pbe-spn-rrkjus_psl.1.0.0.UPF

CELL_PARAMETERS {angstrom}
6.08368000 0.00000000 0.00000000
0.00000000 8.60362000 0.00000000
0.00000000 0.00000000 26.45270000

ATOMIC_POSITIONS {angstrom}
Zr 0.00000000 0.00000000 -3.226435819999999 0 0 0
Zr 3.04184000 2.15090500 -1.075566779999999 0 0 0
Zr 3.04184000 6.45271500 -1.075566779999999 0 0 0
Zr 0.00000000 4.30181000 -3.226435819999999 0 0 0
Zr 0.00006084 4.30981137 1.12159448
Zr 3.04184000 6.45271500 3.28436723
Zr 3.04184000 2.15090500 3.28039933
Zr 0.00006084 8.59561863 1.12159448
Al 0.00000000 6.45271500 -1.075566779999999 0 0 0
Al 3.04184000 0.00000000 -3.226435819999999 0 0 0
Al 0.00000000 2.15090500 -1.075566779999999 0 0 0
Al 3.04184000 4.30181000 -3.226435819999999 0 0 0
Al 0.00000000 2.15090500 3.12961894
Al 3.04184000 4.30017531 1.12053637
Al 0.00000000 6.45271500 3.23146183
Al 3.04184000 0.00163469 1.12053637
Co 1.52092000 0.00000000 -1.075566779999999 0 0 0
Co 4.56276000 4.30181000 -1.075566779999999 0 0 0
Co 4.56276000 0.00000000 -1.075566779999999 0 0 0
Co 1.52092000 4.30181000 -1.075566779999999 0 0 0
Co 4.56276000 6.45271500 -3.226435819999999 0 0 0
Co 1.52092000 2.15090500 -3.226435819999999 0 0 0
Co 1.52092000 6.45271500 -3.226435819999999 0 0 0
Co 4.56276000 2.15090500 -3.226435819999999 0 0 0
Co 1.47656997 4.31419921 3.12750272
Co 4.60711003 8.59123079 3.12723819
Co 4.60704919 4.31419921 3.12723819
Co 1.47656997 8.59123079 3.12750272
Co 4.53556595 2.15090500 1.09963874
Co 1.55206844 6.45271500 1.08879313
Co 1.54811405 2.15090500 1.09963874
Co 4.53155072 6.45271500 1.08879313
C 0.00000000 2.15090500 5.17309001
O 0.00000000 2.15090500 6.33515712
