&CONTROL
calculation = 'relax'
prefix = 'scf'
pseudo_dir = '/vol0403/data/hp230205/u10028/POT_HYBRID_KKJUS_GBRV'
outdir = './data'
tprnfor = .true.
nstep = 70
disk_io = 'non'
/
&SYSTEM
ibrav = 0
ecutwfc = 50.0
ecutrho = 400
occupations = 'smearing'
smearing = 'mp'
degauss = 0.01
assume_isolated = 'esm'
esm_bc = 'bc1'
input_dft = 'BEEF-VDW'
nosym = .true.
nspin = 1
ntyp = 4
nat = 32
/
&ELECTRONS
electron_maxstep = 200
mixing_beta = 0.1
conv_thr = 1e-06
/
&IONS
ion_dynamics = 'bfgs'
upscale = 1.0
/
&CELL
/

K_POINTS {automatic}
7 7 2 0  0  0

ATOMIC_SPECIES
Ga 69.72 Ga.pbe-dnl-rrkjus_psl.1.0.0.UPF
Pd 106.4 Pd.pbe-n-rrkjus_psl.1.0.0.UPF
Sn 118.7 Sn.pbe-dn-rrkjus_psl.1.0.0.UPF
Y 88.90 Y.pbe-spn-rrkjus_psl.1.0.0.UPF


CELL_PARAMETERS {angstrom}
8.82498000 0.00000000 0.00000000
-0.00000000 8.88338000 0.00000000
0.00000000 0.00000000 26.40910000

ATOMIC_POSITIONS {angstrom}
Y 0.00000000 2.22084500 -1.0682480999999981 0 0 0
Y 0.00000000 2.22084500 3.20448019
Y 0.00000000 6.66253500 -1.0682480999999981 0 0 0
Y 0.00000000 6.66253500 3.20448019
Y 4.41249000 2.22084500 -1.0682480999999981 0 0 0
Y 4.41249000 2.22084500 3.20448019
Y 4.41249000 6.66253500 -1.0682480999999981 0 0 0
Y 4.41249000 6.66253500 3.20448019
Ga 0.00000000 0.00000000 -3.204480189999998 0 0 0
Ga 0.00000000 0.00000000 1.06824809
Ga 0.00000000 4.44169000 -3.204480189999998 0 0 0
Ga 0.00000000 4.44169000 1.06824809
Ga 4.41249000 0.00000000 -3.204480189999998 0 0 0
Ga 4.41249000 -0.00000000 1.06824809
Ga 4.41249000 4.44169000 -3.204480189999998 0 0 0
Ga 4.41249000 4.44169000 1.06824809
Sn 2.20624500 0.00000000 -1.0682480999999981 0 0 0
Sn 2.20624500 -0.00000000 3.20448019
Sn 2.20624500 4.44169000 -1.0682480999999981 0 0 0
Sn 2.20624500 4.44169000 3.20448019
Sn 6.61873500 0.00000000 -1.0682480999999981 0 0 0
Sn 6.61873500 -0.00000000 3.20448019
Sn 6.61873500 4.44169000 -1.0682480999999981 0 0 0
Sn 6.61873500 4.44169000 3.20448019
Pd 2.20624500 2.22084500 -3.204480189999998 0 0 0
Pd 2.20624500 2.22084500 1.06824809
Pd 2.20624500 6.66253500 -3.204480189999998 0 0 0
Pd 2.20624500 6.66253500 1.06824809
Pd 6.61873500 2.22084500 -3.204480189999998 0 0 0
Pd 6.61873500 2.22084500 1.06824809
Pd 6.61873500 6.66253500 -3.204480189999998 0 0 0
Pd 6.61873500 6.66253500 1.06824809
