&CONTROL
calculation = 'relax'
prefix = 'scf'
pseudo_dir = '/vol0403/data/hp230205/u10028/POT_HYBRID_KKJUS_GBRV'
outdir = './data'
tprnfor = .true.
nstep = 50
disk_io = 'non'
/
&SYSTEM
ibrav = 0
ecutwfc = 50.0
ecutrho = 400
occupations = 'smearing'
smearing = 'mp'
degauss = 0.01
assume_isolated = 'esm'
esm_bc = 'bc1'
input_dft = 'BEEF-VDW'
nosym = .true.
nspin = 1
ntyp = 6
nat = 34
/
&ELECTRONS
electron_maxstep = 200
mixing_beta = 0.1
conv_thr = 1e-06
/
&IONS
ion_dynamics = 'bfgs'
upscale = 1.0
/
&CELL
/

K_POINTS {automatic}
6 6 1 0 0 0

ATOMIC_SPECIES
Ag 107.8 Ag.pbe-n-rrkjus_psl.1.0.0.UPF
C 12.01 C.pbe-n-rrkjus_psl.1.0.0.UPF
In 114.8 In.pbe-dn-rrkjus_psl.1.0.0.UPF
Li 6.941 Li.pbe-sl-rrkjus_psl.1.0.0.UPF
Mg 24.30 Mg.pbe-spnl-rrkjus_psl.1.0.0.UPF
O 15.99 O.pbe-n-rrkjus_psl.1.0.0.UPF


CELL_PARAMETERS {angstrom}
6.69019000 0.00000000 0.00000000
0.00000000 9.46136000 0.00000000
0.00000000 0.00000000 27.09600000

ATOMIC_POSITIONS {angstrom}
Li 0.00000000 2.36534000 -1.1827404000000001 0 0 0
Li 0.00000000 7.09602000 -1.1827404000000001 0 0 0
Li 3.34509500 4.73068000 -3.5479502399999987 0 0 0
Li 3.34509500 0.00000000 -3.5479502399999987 0 0 0
Li 0.11239519 7.10860361 3.84736104
Li 0.11232829 2.35275639 3.84736104
Li 3.26467892 0.00000000 1.24804176
Li 3.29391505 4.73068000 1.34883888
Mg 5.01764250 0.00000000 -1.1827404000000001 0 0 0
Mg 5.01764250 4.73068000 -1.1827404000000001 0 0 0
Mg 1.67254750 2.36534000 -3.5479502399999987 0 0 0
Mg 1.67254750 7.09602000 -3.5479502399999987 0 0 0
Mg 5.00299098 4.73068000 3.72326136
Mg 4.92304321 0.00000000 3.56827224
Mg 1.62685350 7.08267948 1.24668696
Mg 1.62685350 2.37868052 1.24668696
In 1.67254750 0.00000000 -1.1827404000000001 0 0 0
In 1.67254750 4.73068000 -1.1827404000000001 0 0 0
In 5.01764250 2.36534000 -3.5479502399999987 0 0 0
In 5.01764250 7.09602000 -3.5479502399999987 0 0 0
In 1.57179324 4.73068000 3.96441576
In 1.66244531 0.00000000 3.91130760
In 5.02955104 7.09819611 1.30331760
In 5.02955104 2.36316389 1.30331760
Ag 0.00000000 0.00000000 -3.5479502399999987 0 0 0
Ag 0.00000000 4.73068000 -3.5479502399999987 0 0 0
Ag 3.34509500 7.09602000 -1.1827404000000001 0 0 0
Ag 3.34509500 2.36534000 -1.1827404000000001 0 0 0
Ag 0.01719379 4.73068000 1.22880360
Ag 0.05546168 0.00000000 1.28082792
Ag 3.25430912 2.41378216 3.56204016
Ag 3.25430912 7.04757784 3.56204016
C 5.08026268 0.00000000 5.76900936
O 5.11157277 0.00000000 6.91733784
