&CONTROL
calculation = 'relax'
prefix = 'scf'
pseudo_dir = '/vol0403/data/hp230205/u10028/POT_HYBRID_KKJUS_GBRV'
outdir = './data'
tprnfor = .true.
nstep = 50
disk_io = 'non'
/
&SYSTEM
ibrav = 0
ecutwfc = 50.0
ecutrho = 400
occupations = 'smearing'
smearing = 'mp'
degauss = 0.01
assume_isolated = 'esm'
esm_bc = 'bc1'
input_dft = 'BEEF-VDW'
nosym = .true.
nspin = 1
ntyp = 5
nat = 33
/
&ELECTRONS
electron_maxstep = 200
mixing_beta = 0.1
conv_thr = 1e-06
/
&IONS
ion_dynamics = 'bfgs'
upscale = 1.0
/
&CELL
/

K_POINTS {automatic}
6 6 1 0 0 0

ATOMIC_SPECIES
C 12.01 C.pbe-n-rrkjus_psl.1.0.0.UPF
In 114.8 In.pbe-dn-rrkjus_psl.1.0.0.UPF
Pd 106.4 Pd.pbe-n-rrkjus_psl.1.0.0.UPF
Sn 118.7 Sn.pbe-dn-rrkjus_psl.1.0.0.UPF
Y 88.90 Y.pbe-spn-rrkjus_psl.1.0.0.UPF


CELL_PARAMETERS {angstrom}
9.06394000 0.00000000 0.00000000
0.00000000 9.16402000 0.00000000
0.00000000 0.00000000 26.55030000

ATOMIC_POSITIONS {angstrom}
Y 2.26598500 2.29100500 -3.275245009999999 0 0 0
Y 2.33396455 2.28660627 1.19980806
Y 2.26598500 6.87301500 -3.275245009999999 0 0 0
Y 2.33396455 6.87750537 1.19980806
Y 6.79795500 2.29100500 -3.275245009999999 0 0 0
Y 6.72997545 2.28660627 1.19980806
Y 6.79795500 6.87301500 -3.275245009999999 0 0 0
Y 6.72997545 6.87741373 1.19980806
In 0.00000000 0.00000000 -3.275245009999999 0 0 0
In 0.00000000 0.00000000 0.86315025
In 0.00000000 4.58201000 -3.275245009999999 0 0 0
In 0.00000000 4.58201000 1.19210847
In 4.53197000 0.00000000 -3.275245009999999 0 0 0
In 4.53197000 0.00000000 2.18455868
In 4.53197000 4.58201000 -3.275245009999999 0 0 0
In 4.53197000 4.58201000 0.93881861
Sn 0.00000000 2.29100500 -1.0917483399999988 0 0 0
Sn 0.00000000 2.33801642 3.77359414
Sn 0.00000000 6.87301500 -1.0917483399999988 0 0 0
Sn 0.00009064 6.82600358 3.77359414
Sn 4.53197000 2.29100500 -1.0917483399999988 0 0 0
Sn 4.53197000 3.00717316 3.61588536
Sn 4.53197000 6.87301500 -1.0917483399999988 0 0 0
Sn 4.53197000 6.15684684 3.61588536
Pd 2.26598500 0.00000000 -1.0917483399999988 0 0 0
Pd 1.87433215 0.00000000 2.94814531
Pd 2.26598500 4.58201000 -1.0917483399999988 0 0 0
Pd 2.17888054 4.58201000 3.13532493
Pd 6.79795500 0.00000000 -1.0917483399999988 0 0 0
Pd 7.18951721 0.00000000 2.94814531
Pd 6.79795500 4.58201000 -1.0917483399999988 0 0 0
Pd 6.88505946 4.58201000 3.13532493
C 0.00000000 0.00000000 3.77943520
