&CONTROL
calculation = 'relax'
prefix = 'scf'
pseudo_dir = '/vol0004/mdt0/data/hp150275/u10028/POT_HYBRID_KKJUS_GBRV'
outdir = './data'
tprnfor = .true.
nstep = 50
disk_io = 'non'
/
&SYSTEM
ibrav = 0
ecutwfc = 50.0
ecutrho = 400
occupations = 'smearing'
smearing = 'mp'
degauss = 0.01
assume_isolated = 'esm'
esm_bc = 'bc1'
input_dft = 'BEEF-VDW'
nosym = .true.
nspin = 2
ntyp = 2
nat = 32
starting_magnetization(1) = 0.0
starting_magnetization(2) = 0.01
/
&ELECTRONS
electron_maxstep = 200
mixing_beta = 0.1
conv_thr = 1e-06
/
&IONS
ion_dynamics = 'bfgs'
upscale = 1.0
/
&CELL
/

K_POINTS {automatic}
6 6 1 0 0 0

ATOMIC_SPECIES
Mg 24.30 Mg.pbe-spnl-rrkjus_psl.1.0.0.UPF
Ni 58.69 ni_pbe_v1.4.uspp.F.UPF

CELL_PARAMETERS {angstrom}
7.35757000 0.00000000 0.00000000
-0.00000000 7.35757000 0.00000000
0.00000000 0.00000000 25.51820000

ATOMIC_POSITIONS {angstrom}
Mg 0.00000000 0.00000000 2.75902778
Mg 0.00000000 0.00000000 -0.9196759300000004 0 0 0
Mg 0.00000000 3.67878500 2.75902778
Mg 0.00000000 3.67878500 -0.9196759300000004 0 0 0
Mg 3.67878500 -0.00000000 2.75902778
Mg 3.67878500 0.00000000 -0.9196759300000004 0 0 0
Mg 3.67878500 3.67878500 2.75902778
Mg 3.67878500 3.67878500 -0.9196759300000004 0 0 0
Ni 0.00000000 1.83939250 0.91967593
Ni 1.83939250 -0.00000000 0.91967593
Ni 1.83939250 1.83939250 2.75902778
Ni 0.00000000 1.83939250 -2.7590277800000003 0 0 0
Ni 1.83939250 0.00000000 -2.7590277800000003 0 0 0
Ni 1.83939250 1.83939250 -0.9196759300000004 0 0 0
Ni 0.00000000 5.51817750 0.91967593
Ni 1.83939250 3.67878500 0.91967593
Ni 1.83939250 5.51817750 2.75902778
Ni 0.00000000 5.51817750 -2.7590277800000003 0 0 0
Ni 1.83939250 3.67878500 -2.7590277800000003 0 0 0
Ni 1.83939250 5.51817750 -0.9196759300000004 0 0 0
Ni 3.67878500 1.83939250 0.91967593
Ni 5.51817750 -0.00000000 0.91967593
Ni 5.51817750 1.83939250 2.75902778
Ni 3.67878500 1.83939250 -2.7590277800000003 0 0 0
Ni 5.51817750 0.00000000 -2.7590277800000003 0 0 0
Ni 5.51817750 1.83939250 -0.9196759300000004 0 0 0
Ni 3.67878500 5.51817750 0.91967593
Ni 5.51817750 3.67878500 0.91967593
Ni 5.51817750 5.51817750 2.75902778
Ni 3.67878500 5.51817750 -2.7590277800000003 0 0 0
Ni 5.51817750 3.67878500 -2.7590277800000003 0 0 0
Ni 5.51817750 5.51817750 -0.9196759300000004 0 0 0
