&CONTROL
calculation = 'relax'
prefix = 'scf'
pseudo_dir = '/vol0403/data/hp230205/u10028/POT_HYBRID_KKJUS_GBRV'
outdir = './data'
tprnfor = .true.
nstep = 100
disk_io = 'non'
/
&SYSTEM
ibrav = 0
ecutwfc = 50.0
ecutrho = 400
occupations = 'smearing'
smearing = 'mp'
degauss = 0.01
assume_isolated = 'esm'
esm_bc = 'bc1'
input_dft = 'BEEF-VDW'
nosym = .true.
nspin = 1
ntyp = 6
nat = 18
/
&ELECTRONS
electron_maxstep = 200
mixing_beta = 0.1
conv_thr = 1e-06
/
&IONS
ion_dynamics = 'bfgs'
upscale = 1.0
/
&CELL
/

K_POINTS {automatic}
8 8 1 0 0 0

ATOMIC_SPECIES
Au 196.9 Au.pbe-n-rrkjus_psl.1.0.0.UPF
C 12.01 C.pbe-n-rrkjus_psl.1.0.0.UPF
In 114.8 In.pbe-dn-rrkjus_psl.1.0.0.UPF
O 15.99 O.pbe-n-rrkjus_psl.1.0.0.UPF
Pd 106.4 Pd.pbe-n-rrkjus_psl.1.0.0.UPF
Y 88.90 Y.pbe-spn-rrkjus_psl.1.0.0.UPF


CELL_PARAMETERS {angstrom}
6.93157000 0.00000000 0.00000000
-0.00000000 6.93157000 0.00000000
0.00000000 0.00000000 25.19870000

ATOMIC_POSITIONS {angstrom}
Y 5.19867750 1.73289250 -0.8663313099999996 0 0 0
Y 5.20318302 5.19209251 2.57858297
Y 1.73511060 1.72658477 2.59798597
Y 1.73289250 5.19867750 -0.8663313099999996 0 0 0
In 1.73289250 1.73289250 -0.8663313099999996 0 0 0
In 1.73455608 5.19035962 2.74187055
In 5.20096492 1.72817903 2.70230859
In 5.19867750 5.19867750 -0.8663313099999996 0 0 0
Pd 0.00000000 3.46578500 -2.5992459100000005 0 0 0
Pd 0.00741678 6.93150068 1.01475165
Pd 3.46127948 3.45829890 1.01525562
Pd 3.46578500 0.00000000 -2.5992459100000005 0 0 0
Au 0.00000000 0.00000000 -2.5992459100000005 0 0 0
Au 0.01476424 3.46453732 0.95931451
Au 3.45809096 6.92373733 0.96107842
Au 3.46578500 3.46578500 -2.5992459100000005 0 0 0
C 4.49671741 1.30119432 6.39391814
O 5.37584843 1.84123294 6.87622126
