&CONTROL
calculation = 'relax'
prefix = 'scf'
pseudo_dir = '/vol0004/mdt0/data/hp150275/u10028/POT_KKJUS'
outdir = './data'
tprnfor = .true.
nstep = 50
disk_io = 'non'
/
&SYSTEM
ibrav = 0
ecutwfc = 50.0
ecutrho = 400
occupations = 'smearing'
smearing = 'mp'
degauss = 0.01
assume_isolated = 'esm'
esm_bc = 'bc1'
input_dft = 'BEEF-VDW'
nosym = .true.
nspin = 1
ntyp = 4
nat = 33
/
&ELECTRONS
electron_maxstep = 200
mixing_beta = 0.1
conv_thr = 1e-06
/
&IONS
ion_dynamics = 'bfgs'
upscale = 1.0
/
&CELL
/

K_POINTS {automatic}
8 6 1 0 0 0

ATOMIC_SPECIES
C 12.01 C.pbe-n-rrkjus_psl.1.0.0.UPF
Ga 69.72 Ga.pbe-dnl-rrkjus_psl.1.0.0.UPF
Li 6.941 Li.pbe-sl-rrkjus_psl.1.0.0.UPF
Pt 195.0 Pt.pbe-n-rrkjus_psl.1.0.0.UPF

CELL_PARAMETERS {angstrom}
6.22326000 0.00000000 0.00000000
0.00000000 8.80102000 0.00000000
0.00000000 0.00000000 26.60080000

ATOMIC_POSITIONS {angstrom}
Li 0.00000000 0.00000000 -3.300361259999999 0 0 0
Li 3.11163000 2.20025500 -1.10020909 0 0 0
Li 3.11163000 6.60076500 -1.10020909 0 0 0
Li 0.00000000 4.40051000 -3.300361259999999 0 0 0
Li 0.04175807 4.34981612 1.23560716
Li 2.94304189 6.60076500 3.60387638
Li 3.36180505 2.20025500 4.50723955
Li 0.04175807 0.05069388 1.23560716
Ga 1.55581500 0.00000000 -1.10020909 0 0 0
Ga 4.66744500 4.40051000 -1.10020909 0 0 0
Ga 4.66744500 0.00000000 -1.10020909 0 0 0
Ga 1.55581500 4.40051000 -1.10020909 0 0 0
Ga 4.66744500 6.60076500 -3.300361259999999 0 0 0
Ga 1.55581500 2.20025500 -3.300361259999999 0 0 0
Ga 1.55581500 6.60076500 -3.300361259999999 0 0 0
Ga 4.66744500 2.20025500 -3.300361259999999 0 0 0
Ga 1.66453535 4.29384164 3.64856573
Ga 4.66464453 8.70192051 3.59376808
Ga 4.66458230 4.49969750 3.59376808
Ga 1.66453535 0.10675637 3.64856573
Ga 4.60060719 2.20025500 1.08132252
Ga 1.58525102 6.60076500 1.09409090
Ga 1.87581503 2.20025500 1.44256138
Ga 4.61436059 6.60076500 1.15846484
Pt 0.00000000 6.60076500 -1.10020909 0 0 0
Pt 3.11163000 0.00000000 -3.300361259999999 0 0 0
Pt 0.00000000 2.20025500 -1.10020909 0 0 0
Pt 3.11163000 4.40051000 -3.300361259999999 0 0 0
Pt 5.73678777 2.20025500 3.29796718
Pt 3.11797773 4.46282122 0.98715569
Pt 0.01661610 6.60076500 3.12160388
Pt 3.11797773 8.73870878 0.98715569
C 1.52687684 2.20034301 3.52354197
