&CONTROL
calculation = 'relax'
prefix = 'scf'
pseudo_dir = '/vol0403/data/hp230205/u10028/POT_HYBRID_KKJUS_GBRV'
outdir = './data'
tprnfor = .true.
nstep = 50
disk_io = 'non'
/
&SYSTEM
ibrav = 0
ecutwfc = 50.0
ecutrho = 400
occupations = 'smearing'
smearing = 'mp'
degauss = 0.01
assume_isolated = 'esm'
esm_bc = 'bc1'
input_dft = 'BEEF-VDW'
nosym = .true.
nspin = 1
ntyp = 6
nat = 18
/
&ELECTRONS
electron_maxstep = 200
mixing_beta = 0.1
conv_thr = 1e-06
/
&IONS
ion_dynamics = 'bfgs'
upscale = 1.0
/
&CELL
/

K_POINTS {automatic}
6 6 1 0 0 0

ATOMIC_SPECIES
C 12.01 C.pbe-n-rrkjus_psl.1.0.0.UPF
Cu 63.54 Cu.pbe-dn-rrkjus_psl.1.0.0.UPF
In 114.8 In.pbe-dn-rrkjus_psl.1.0.0.UPF
O 15.99 O.pbe-n-rrkjus_psl.1.0.0.UPF
Sn 118.7 Sn.pbe-dn-rrkjus_psl.1.0.0.UPF
Y 88.90 Y.pbe-spn-rrkjus_psl.1.0.0.UPF


CELL_PARAMETERS {angstrom}
6.24938000 0.00000000 0.00000000
0.00000000 9.14612000 0.00000000
0.00000000 0.00000000 24.68700000

ATOMIC_POSITIONS {angstrom}
Y 1.74245213 2.28415201 0.81294291
Y 4.67703599 2.28653000 -2.343536910000001 0 0 0
Y 1.74238964 6.86196799 0.81294291
Y 4.67703599 6.85959000 -2.343536910000001 0 0 0
In 3.17718479 0.00000000 2.44500048
In 6.24269316 0.00000000 -0.781096680000001 0 0 0
In 3.17812220 4.57306000 2.44796292
In 6.24269316 4.57306000 -0.781096680000001 0 0 0
Cu 0.21904077 9.14602854 1.92953592
Cu 3.11800316 0.00000000 -0.781096680000001 0 0 0
Cu 0.21629104 4.57306000 1.92287043
Cu 3.11800316 4.57306000 -0.781096680000001 0 0 0
Sn 4.88539032 2.28232278 1.35901935
Sn 1.55234599 2.28653000 -2.343536910000001 0 0 0
Sn 4.88539032 6.86379722 1.35901935
Sn 1.55234599 6.85959000 -2.343536910000001 0 0 0
C 3.73737922 0.00000000 5.88809637
O 2.96083126 9.14602854 6.71733270
