&CONTROL
calculation = 'relax'
prefix = 'scf'
pseudo_dir = '/vol0403/data/hp230205/u10028/POT_HYBRID_KKJUS_GBRV'
outdir = './data'
tprnfor = .true.
nstep = 70
disk_io = 'non'
/
&SYSTEM
ibrav = 0
ecutwfc = 50.0
ecutrho = 400
occupations = 'smearing'
smearing = 'mp'
degauss = 0.01
assume_isolated = 'esm'
esm_bc = 'bc1'
input_dft = 'BEEF-VDW'
nosym = .true.
nspin = 1
ntyp = 5
nat = 17
/
&ELECTRONS
electron_maxstep = 200
mixing_beta = 0.1
conv_thr = 1e-06
/
&IONS
ion_dynamics = 'bfgs'
upscale = 1.0
/
&CELL
/

K_POINTS {automatic}
6 6 1 0 0 0

ATOMIC_SPECIES
C 12.01 C.pbe-n-rrkjus_psl.1.0.0.UPF
Ge 72.64 Ge.pbe-dn-rrkjus_psl.1.0.0.UPF
In 114.8 In.pbe-dn-rrkjus_psl.1.0.0.UPF
Pd 106.4 Pd.pbe-n-rrkjus_psl.1.0.0.UPF
Y 88.90 Y.pbe-spn-rrkjus_psl.1.0.0.UPF


CELL_PARAMETERS {angstrom}
5.95203000 0.00000000 0.00000000
-0.00000000 9.45024000 0.00000000
0.00000000 0.00000000 24.43650000

ATOMIC_POSITIONS {angstrom}
Y 2.97601500 0.00000000 -2.218345469999999 0 0 0
Y 5.02934631 -0.00000000 0.78661094
Y 2.97601500 4.72512000 -2.218345469999999 0 0 0
Y 5.25867803 4.72512000 0.73358373
In 1.32295771 2.36256000 -0.7394484899999973 0 0 0
In 3.72454229 2.58983827 2.49789903
In 1.32295771 7.08768000 -0.7394484899999973 0 0 0
In 3.72460181 6.86049623 2.49789903
Ge 0.00000000 0.00000000 -2.218345469999999 0 0 0
Ge 2.49443625 -0.00000000 2.43925143
Ge 0.00000000 4.72512000 -2.218345469999999 0 0 0
Ge 2.16540803 4.72521450 1.37259820
Pd 4.29897271 2.36256000 -0.7394484899999973 0 0 0
Pd 0.75370556 2.28421751 1.97984523
Pd 4.29897271 7.08768000 -0.7394484899999973 0 0 0
Pd 0.75382460 7.16592799 1.97984523
C 0.66186574 9.45014550 2.37718272
