&CONTROL
calculation = 'relax'
prefix = 'scf'
pseudo_dir = '/vol0004/mdt0/data/hp150275/u10028/POT_HYBRID_KKJUS_GBRV'
outdir = './data'
tprnfor = .true.
nstep = 50
disk_io = 'non'
/
&SYSTEM
ibrav = 0
ecutwfc = 50.0
ecutrho = 400
occupations = 'smearing'
smearing = 'mp'
degauss = 0.01
assume_isolated = 'esm'
esm_bc = 'bc1'
input_dft = 'BEEF-VDW'
nosym = .true.
nspin = 2
ntyp = 4
nat = 33
starting_magnetization(1) = 0.0
starting_magnetization(2) = 0.1
starting_magnetization(3) = 0.0
starting_magnetization(4) = 0.001
/
&ELECTRONS
electron_maxstep = 300
mixing_beta = 0.1
conv_thr = 1e-06
/
&IONS
ion_dynamics = 'bfgs'
upscale = 1.0
/
&CELL
/

K_POINTS {automatic}
8 6 1 0 0 0

ATOMIC_SPECIES
C 12.01 C.pbe-n-rrkjus_psl.1.0.0.UPF
Fe 55.84 fe_pbe_v1.5.uspp.F.UPF
Ga 69.72 Ga.pbe-dnl-rrkjus_psl.1.0.0.UPF
Ni 58.69 ni_pbe_v1.4.uspp.F.UPF

CELL_PARAMETERS {angstrom}
5.81401000 0.00000000 0.00000000
0.00000000 8.22225000 0.00000000
0.00000000 0.00000000 26.16670000

ATOMIC_POSITIONS {angstrom}
Ga 0.00000000 0.00000000 -3.0832222599999994 0 0 0
Ga 2.90700500 2.05556250 -1.0278279799999979 0 0 0
Ga 2.90700500 6.16668750 -1.0278279799999979 0 0 0
Ga 0.00000000 4.11112500 -3.0832222599999994 0 0 0
Ga 0.00000000 4.11145389 0.97313957
Ga 2.90700500 6.11834067 3.51157114
Ga 2.90700500 2.10341600 3.51157114
Ga 0.00000000 0.00074000 0.98805459
Fe 1.45350250 0.00000000 -1.0278279799999979 0 0 0
Fe 4.36050750 4.11112500 -1.0278279799999979 0 0 0
Fe 4.36050750 0.00000000 -1.0278279799999979 0 0 0
Fe 1.45350250 4.11112500 -1.0278279799999979 0 0 0
Fe 4.36050750 6.16668750 -3.0832222599999994 0 0 0
Fe 1.45350250 2.05556250 -3.0832222599999994 0 0 0
Fe 1.45350250 6.16668750 -3.0832222599999994 0 0 0
Fe 4.36050750 2.05556250 -3.0832222599999994 0 0 0
Fe 1.48518885 4.11087833 2.96939712
Fe 4.14381935 8.22192111 2.96259377
Fe 4.32882115 4.11087833 2.96939712
Fe 1.67019065 8.22192111 2.96259377
Fe 4.29887899 2.06164697 1.23454491
Fe 1.51478217 6.16142526 1.23454491
Fe 1.51513101 2.06164697 1.23454491
Fe 4.29922783 6.16134304 1.23454491
Ni 0.00000000 6.16668750 -1.0278279799999979 0 0 0
Ni 2.90700500 0.00000000 -3.0832222599999994 0 0 0
Ni 0.00000000 2.05556250 -1.0278279799999979 0 0 0
Ni 2.90700500 4.11112500 -3.0832222599999994 0 0 0
Ni 0.00000000 1.88314192 3.24990414
Ni 2.90700500 4.11161834 0.81090603
Ni 0.00000000 6.33795697 3.25016581
Ni 2.90700500 0.00024667 0.79546768
C 0.00000000 8.22192111 3.71253140
