&CONTROL
calculation = 'relax'
prefix = 'scf'
pseudo_dir = '/vol0004/mdt0/data/hp150275/u10028/POT_KKJUS'
outdir = './data'
tprnfor = .true.
nstep = 50
disk_io = 'non'
/
&SYSTEM
ibrav = 0
ecutwfc = 50.0
ecutrho = 400
occupations = 'smearing'
smearing = 'mp'
degauss = 0.01
assume_isolated = 'esm'
esm_bc = 'bc1'
input_dft = 'BEEF-VDW'
nosym = .true.
nspin = 1
ntyp = 4
nat = 33
/
&ELECTRONS
electron_maxstep = 200
mixing_beta = 0.1
conv_thr = 1e-06
/
&IONS
ion_dynamics = 'bfgs'
upscale = 1.0
/
&CELL
/

K_POINTS {automatic}
8 6 1 0 0 0

ATOMIC_SPECIES
C 12.01 C.pbe-n-rrkjus_psl.1.0.0.UPF
Ga 69.72 Ga.pbe-dnl-rrkjus_psl.1.0.0.UPF
Li 6.941 Li.pbe-sl-rrkjus_psl.1.0.0.UPF
Pd 106.4 Pd.pbe-n-rrkjus_psl.1.0.0.UPF

CELL_PARAMETERS {angstrom}
6.14873000 0.00000000 0.00000000
0.00000000 8.69561000 0.00000000
0.00000000 0.00000000 26.52170000

ATOMIC_POSITIONS {angstrom}
Li 0.00000000 6.52170750 -1.086859269999998 0 0 0
Li 3.07436500 0.00000000 -3.2608430099999985 0 0 0
Li 0.00000000 2.17390250 -1.086859269999998 0 0 0
Li 3.07436500 4.34780500 -3.2608430099999985 0 0 0
Li 1.53718250 2.17390250 -3.2608430099999985 0 0 0
Li 1.53718250 6.52170750 -3.2608430099999985 0 0 0
Li 4.61154750 4.34780500 -1.086859269999998 0 0 0
Li 4.61154750 0.00000000 -1.086859269999998 0 0 0
Li 5.82186351 2.17390250 3.45073839
Li 3.09330309 4.32067470 1.11576792
Li 0.17923548 6.52170750 3.23511697
Li 3.09330309 0.02713030 1.11576792
Li 1.50108945 6.52170750 0.94231600
Li 1.44138529 2.17390250 1.19586345
Li 4.39781765 8.48674145 3.50192527
Li 4.39781765 4.55667355 3.50192527
Ga 1.53718250 0.00000000 -1.086859269999998 0 0 0
Ga 1.53718250 4.34780500 -1.086859269999998 0 0 0
Ga 4.61154750 6.52170750 -3.2608430099999985 0 0 0
Ga 4.61154750 2.17390250 -3.2608430099999985 0 0 0
Ga 1.49426436 4.16519719 3.42739929
Ga 1.49426436 0.18260781 3.42739929
Ga 4.75425952 2.17390250 0.86911611
Ga 4.56389484 6.52170750 1.16960697
Pd 0.00000000 0.00000000 -3.2608430099999985 0 0 0
Pd 3.07436500 2.17390250 -1.086859269999998 0 0 0
Pd 3.07436500 6.52170750 -1.086859269999998 0 0 0
Pd 0.00000000 4.34780500 -3.2608430099999985 0 0 0
Pd 6.09744959 4.40041344 1.15422438
Pd 2.75026544 6.52170750 3.07386503
Pd 3.45958293 2.17390250 2.93064785
Pd 6.09744959 8.64300156 1.15422438
C 1.59608733 2.17390250 3.63585985
