&CONTROL
calculation = 'relax'
prefix = 'scf'
pseudo_dir = '/vol0004/mdt0/data/hp150275/u10028/POT_KKJUS'
outdir = './data'
tprnfor = .true.
nstep = 50
disk_io = 'non'
/
&SYSTEM
ibrav = 0
ecutwfc = 50.0
ecutrho = 400
occupations = 'smearing'
smearing = 'mp'
degauss = 0.01
assume_isolated = 'esm'
esm_bc = 'bc1'
input_dft = 'BEEF-VDW'
nosym = .true.
nspin = 1
ntyp = 3
nat = 33
/
&ELECTRONS
electron_maxstep = 200
mixing_beta = 0.1
conv_thr = 1e-06
/
&IONS
ion_dynamics = 'bfgs'
upscale = 1.0
/
&CELL
/

K_POINTS {automatic}
9 6 2 0  0  0

ATOMIC_SPECIES
C 12.01 C.pbe-n-rrkjus_psl.1.0.0.UPF
Ni 58.69 Ni.pbe-spn-rrkjus_psl.1.0.0.UPF
Ti 47.86 Ti.pbe-spn-rrkjus_psl.1.0.0.UPF

CELL_PARAMETERS {angstrom}
6.05499000 0.00000000 0.00000000
0.00000000 8.56306000 0.00000000
0.00000000 0.00000000 26.42230000

ATOMIC_POSITIONS {angstrom}
Ti 1.51374750 2.14076500 -3.2111021199999996 0 0 0
Ti 1.51374750 4.28153000 -1.0703673699999996 0 0 0
Ti 1.50872186 2.14110752 1.13615890
Ti 1.51374750 4.21559444 3.26843851
Ti 1.51374750 6.42229500 -3.2111021199999996 0 0 0
Ti 1.51374750 0.00000000 -1.0703673699999996 0 0 0
Ti 1.51392915 6.42195248 1.04341663
Ti 1.51374750 0.06593556 3.26870273
Ti 4.54124250 2.14076500 -3.2111021199999996 0 0 0
Ti 4.54124250 4.28153000 -1.0703673699999996 0 0 0
Ti 4.53639851 2.14102189 1.01910811
Ti 4.54190855 4.37974830 3.29063324
Ti 4.54124250 6.42229500 -3.2111021199999996 0 0 0
Ti 4.54124250 0.00000000 -1.0703673699999996 0 0 0
Ti 4.54112140 6.42203811 1.04632308
Ti 4.54190855 8.46475607 3.29089747
Ni 0.00000000 0.00000000 -3.2111021199999996 0 0 0
Ni 0.00000000 2.14076500 -1.0703673699999996 0 0 0
Ni 6.04070022 4.30293765 1.16416654
Ni 5.73316728 2.14050811 3.10646981
Ni 0.00000000 4.28153000 -3.2111021199999996 0 0 0
Ni 0.00000000 6.42229500 -1.0703673699999996 0 0 0
Ni 6.04082132 8.54148109 1.16363809
Ni 0.05643251 6.42255189 2.98836213
Ni 3.02749500 0.00000000 -3.2111021199999996 0 0 0
Ni 3.02749500 2.14076500 -1.0703673699999996 0 0 0
Ni 3.03130964 4.30336580 1.16680877
Ni 3.33339309 2.14033685 3.10567714
Ni 3.02749500 4.28153000 -3.2111021199999996 0 0 0
Ni 3.02749500 6.42229500 -1.0703673699999996 0 0 0
Ni 3.03143074 8.54113857 1.16628032
Ni 2.97742023 6.42246626 2.98836213
C 1.50490721 2.14085063 3.36435146
