&CONTROL
calculation = 'relax'
prefix = 'scf'
pseudo_dir = '/vol0004/mdt0/data/hp150275/u10028/POT_HYBRID_KKJUS_GBRV'
outdir = './data'
tprnfor = .true.
nstep = 50
disk_io = 'non'
/
&SYSTEM
ibrav = 0
ecutwfc = 50.0
ecutrho = 400
occupations = 'smearing'
smearing = 'mp'
degauss = 0.01
assume_isolated = 'esm'
esm_bc = 'bc1'
input_dft = 'BEEF-VDW'
nosym = .true.
nspin = 2
ntyp = 5
nat = 34
starting_magnetization(1) = 0.0
starting_magnetization(2) = 0.1
starting_magnetization(3) = 0.1
starting_magnetization(4) = 0.0
starting_magnetization(5) = 0.0
/
&ELECTRONS
electron_maxstep = 300
mixing_beta = 0.1
conv_thr = 1e-06
/
&IONS
ion_dynamics = 'bfgs'
upscale = 1.0
/
&CELL
/

K_POINTS {automatic}
9 6 2 0  0  0

ATOMIC_SPECIES
C 12.01 C.pbe-n-rrkjus_psl.1.0.0.UPF
Co 58.93 co_pbe_v1.2.uspp.F.UPF
Fe 55.84 fe_pbe_v1.5.uspp.F.UPF
Ga 69.72 Ga.pbe-dnl-rrkjus_psl.1.0.0.UPF
O 15.99 O.pbe-n-rrkjus_psl.1.0.0.UPF

CELL_PARAMETERS {angstrom}
5.74310000 0.00000000 0.00000000
0.00000000 8.12197000 0.00000000
0.00000000 0.00000000 26.09150000

ATOMIC_POSITIONS {angstrom}
Ga 0.00000000 0.00000000 -3.0456607899999995 0 0 0
Ga 2.87155000 2.03049250 -1.0152202700000004 0 0 0
Ga 2.87155000 6.09147750 -1.0152202700000004 0 0 0
Ga 0.00000000 4.06098500 -3.0456607899999995 0 0 0
Ga 0.00005743 4.04750253 1.00400092
Ga 2.87160743 6.09115262 3.21812561
Ga 2.87143514 2.03041128 3.13724196
Ga 0.00000000 0.01348247 1.00400092
Fe 0.00000000 6.09147750 -1.0152202700000004 0 0 0
Fe 2.87155000 0.00000000 -3.0456607899999995 0 0 0
Fe 0.00000000 2.03049250 -1.0152202700000004 0 0 0
Fe 2.87155000 4.06098500 -3.0456607899999995 0 0 0
Fe 0.00005743 2.03049250 3.03209321
Fe 2.87160743 4.06082256 1.03713713
Fe 0.00005743 6.09147750 2.98278028
Fe 2.87160743 0.00016244 1.03713713
Co 1.43577500 0.00000000 -1.0152202700000004 0 0 0
Co 4.30732500 4.06098500 -1.0152202700000004 0 0 0
Co 4.30732500 0.00000000 -1.0152202700000004 0 0 0
Co 1.43577500 4.06098500 -1.0152202700000004 0 0 0
Co 4.30732500 6.09147750 -3.0456607899999995 0 0 0
Co 1.43577500 2.03049250 -3.0456607899999995 0 0 0
Co 1.43577500 6.09147750 -3.0456607899999995 0 0 0
Co 4.30732500 2.03049250 -3.0456607899999995 0 0 0
Co 1.44766322 4.06098500 2.99295597
Co 4.29537935 0.00008122 2.99295597
Co 4.29532192 4.06090378 2.99295597
Co 1.44760579 0.00008122 2.99295597
Co 4.30290281 2.03049250 1.01365478
Co 1.44467681 6.09147750 1.03818078
Co 1.44019719 2.03049250 1.01339386
Co 4.29842319 6.09147750 1.03818078
C 0.00005743 2.03057372 4.84545246
O 0.00000000 2.03049250 6.00626330
