&CONTROL
calculation = 'relax'
prefix = 'scf'
pseudo_dir = '/vol0403/data/hp230205/u10028/POT_HYBRID_KKJUS_GBRV'
outdir = './data'
tprnfor = .true.
nstep = 50
disk_io = 'non'
/
&SYSTEM
ibrav = 0
ecutwfc = 50.0
ecutrho = 400
occupations = 'smearing'
smearing = 'mp'
degauss = 0.01
assume_isolated = 'esm'
esm_bc = 'bc1'
input_dft = 'BEEF-VDW'
nosym = .true.
nspin = 1
ntyp = 5
nat = 33
/
&ELECTRONS
electron_maxstep = 200
mixing_beta = 0.1
conv_thr = 1e-06
/
&IONS
ion_dynamics = 'bfgs'
upscale = 1.0
/
&CELL
/

K_POINTS {automatic}
6 7 2 0  0  0

ATOMIC_SPECIES
C 12.01 C.pbe-n-rrkjus_psl.1.0.0.UPF
Ge 72.64 Ge.pbe-dn-rrkjus_psl.1.0.0.UPF
Li 6.941 Li.pbe-sl-rrkjus_psl.1.0.0.UPF
Pb 207.2 Pb.pbe-dn-rrkjus_psl.1.0.0.UPF
Y 88.90 Y.pbe-spn-rrkjus_psl.1.0.0.UPF


CELL_PARAMETERS {angstrom}
9.86128000 0.00000000 0.00000000
0.00000000 8.55406000 0.00000000
0.00000000 0.00000000 26.49120000

ATOMIC_POSITIONS {angstrom}
Li 2.46532000 2.13851500 -3.2457018200000007 0 0 0
Li 2.47025064 2.10121930 1.10521286
Li 2.46532000 6.41554500 -3.2457018200000007 0 0 0
Li 2.47025064 6.45284070 1.10521286
Li 7.39596000 2.13851500 -3.2457018200000007 0 0 0
Li 7.39102936 2.10113376 1.10521286
Li 7.39596000 6.41554500 -3.2457018200000007 0 0 0
Li 7.39102936 6.45292624 1.10521286
Y 0.00000000 2.13851500 -1.0819006099999982 0 0 0
Y 0.00000000 2.28915200 3.18265277
Y 0.00000000 6.41554500 -1.0819006099999982 0 0 0
Y 0.00000000 6.26490800 3.18265277
Y 4.93064000 2.13851500 -1.0819006099999982 0 0 0
Y 4.93064000 2.14458838 3.19589837
Y 4.93064000 6.41554500 -1.0819006099999982 0 0 0
Y 4.93064000 6.40938608 3.19589837
Ge 0.00000000 0.00000000 -3.2457018200000007 0 0 0
Ge 0.00000000 0.00000000 1.18124261
Ge 0.00000000 4.27703000 -3.2457018200000007 0 0 0
Ge 0.00000000 4.27703000 1.04216381
Ge 4.93064000 0.00000000 -3.2457018200000007 0 0 0
Ge 4.93064000 0.00000000 1.16932157
Ge 4.93064000 4.27703000 -3.2457018200000007 0 0 0
Ge 4.93064000 4.27703000 1.15104264
Pb 2.46532000 0.00000000 -1.0819006099999982 0 0 0
Pb 2.51551392 0.00000000 3.56200675
Pb 2.46532000 4.27703000 -1.0819006099999982 0 0 0
Pb 2.55584655 4.27703000 3.41815954
Pb 7.39596000 0.00000000 -1.0819006099999982 0 0 0
Pb 7.34576608 0.00000000 3.56200675
Pb 7.39596000 4.27703000 -1.0819006099999982 0 0 0
Pb 7.30543345 4.27703000 3.41815954
C 0.00000000 0.00000000 3.25921234
