&CONTROL
calculation = 'relax'
prefix = 'scf'
pseudo_dir = '/vol0004/mdt0/data/hp150275/u10028/POT_KKJUS'
outdir = './data'
tprnfor = .true.
nstep = 50
disk_io = 'non'
/
&SYSTEM
ibrav = 0
ecutwfc = 50.0
ecutrho = 400
occupations = 'smearing'
smearing = 'mp'
degauss = 0.01
assume_isolated = 'esm'
esm_bc = 'bc1'
input_dft = 'BEEF-VDW'
nosym = .true.
nspin = 1
ntyp = 4
nat = 18
/
&ELECTRONS
electron_maxstep = 200
mixing_beta = 0.1
conv_thr = 1e-06
/
&IONS
ion_dynamics = 'bfgs'
upscale = 1.0
/
&CELL
/

K_POINTS {automatic}
6 8 1 0 0 0

ATOMIC_SPECIES
C 12.01 C.pbe-n-rrkjus_psl.1.0.0.UPF
O 15.99 O.pbe-n-rrkjus_psl.1.0.0.UPF
Pt 195.0 Pt.pbe-n-rrkjus_psl.1.0.0.UPF
Zn 65.40 Zn.pbe-dnl-rrkjus_psl.1.0.0.UPF

CELL_PARAMETERS {angstrom}
7.90864000 0.00000000 0.00000000
0.00000000 5.59226000 0.00000000
0.00000000 0.00000000 24.19420000

ATOMIC_POSITIONS {angstrom}
Zn 0.00648508 0.00050330 2.00763472
Zn 0.00000000 2.79613000 -0.6989704400000001 0 0 0
Zn 4.01482110 0.00027961 1.98876324
Zn 3.95432000 2.79613000 -0.6989704400000001 0 0 0
Pt 7.86411436 2.79624185 2.26118993
Pt 1.99527079 4.21438306 0.78703733
Pt 1.99527079 1.37810063 0.78703733
Pt 0.00000000 0.00000000 -0.6989704400000001 0 0 0
Pt 1.97716000 1.39806500 -2.097153259999999 0 0 0
Pt 1.97716000 4.19419500 -2.097153259999999 0 0 0
Pt 4.01418840 2.79613000 1.95658495
Pt 6.00866833 4.19704705 0.76453672
Pt 6.00866833 1.39549256 0.76429478
Pt 3.95432000 0.00000000 -0.6989704400000001 0 0 0
Pt 5.93148000 1.39806500 -2.097153259999999 0 0 0
Pt 5.93148000 4.19419500 -2.097153259999999 0 0 0
C 1.01966096 2.79618592 3.81276398
O 1.57903906 2.79624185 4.82335571
