&CONTROL
calculation = 'relax'
prefix = 'scf'
pseudo_dir = '/vol0004/mdt0/data/hp150275/u10028/POT_KKJUS'
outdir = './data'
tprnfor = .true.
nstep = 50
disk_io = 'non'
/
&SYSTEM
ibrav = 0
ecutwfc = 50.0
ecutrho = 400
occupations = 'smearing'
smearing = 'mp'
degauss = 0.01
assume_isolated = 'esm'
esm_bc = 'bc1'
input_dft = 'BEEF-VDW'
nosym = .true.
nspin = 1
ntyp = 4
nat = 17
/
&ELECTRONS
electron_maxstep = 200
mixing_beta = 0.1
conv_thr = 1e-06
/
&IONS
ion_dynamics = 'bfgs'
upscale = 1.0
/
&CELL
/

K_POINTS {automatic}
9 9 2 0  0  0

ATOMIC_SPECIES
Au 196.9 Au.pbe-n-rrkjus_psl.1.0.0.UPF
C 12.01 C.pbe-n-rrkjus_psl.1.0.0.UPF
Li 6.941 Li.pbe-sl-rrkjus_psl.1.0.0.UPF
Sb 121.7 Sb.pbe-n-rrkjus_psl.1.0.0.UPF

CELL_PARAMETERS {angstrom}
6.66546000 0.00000000 0.00000000
0.00000000 6.66546000 0.00000000
0.00000000 0.00000000 24.99910000

ATOMIC_POSITIONS {angstrom}
Li 6.66532669 0.00006665 0.80597098
Li 3.33273000 0.00000000 -2.4996600099999995 0 0 0
Li 0.00000000 3.33273000 -2.4996600099999995 0 0 0
Li 3.33299662 3.33259669 0.79222148
Li 1.48126518 1.84873199 3.20688455
Li 1.66636500 4.99909500 -0.8332199999999972 0 0 0
Li 5.18419482 4.81672801 3.20713454
Li 4.99909500 1.66636500 -0.8332199999999972 0 0 0
Sb 0.00000000 0.00000000 -2.4996600099999995 0 0 0
Sb 3.33273000 3.33273000 -2.4996600099999995 0 0 0
Sb 3.33273000 0.00000000 1.48469655
Sb 0.00000000 3.33273000 0.66572603
Au 1.66636500 1.66636500 -0.8332199999999972 0 0 0
Au 1.56431681 4.89811328 2.71290233
Au 4.99909500 4.99909500 -0.8332199999999972 0 0 0
Au 5.10107654 1.76741337 2.71290233
C 0.00000000 3.33273000 2.86889672
