&CONTROL
calculation = 'relax'
prefix = 'scf'
pseudo_dir = '/vol0004/mdt0/data/hp150275/u10028/POT_KKJUS'
outdir = './data'
tprnfor = .true.
nstep = 50
disk_io = 'non'
/
&SYSTEM
ibrav = 0
ecutwfc = 50.0
ecutrho = 400
occupations = 'smearing'
smearing = 'mp'
degauss = 0.01
assume_isolated = 'esm'
esm_bc = 'bc1'
input_dft = 'BEEF-VDW'
nosym = .true.
nspin = 1
ntyp = 3
nat = 34
/
&ELECTRONS
electron_maxstep = 200
mixing_beta = 0.1
conv_thr = 1e-06
/
&IONS
ion_dynamics = 'bfgs'
upscale = 1.0
/
&CELL
/

K_POINTS {automatic}
6 6 1 0 0 0

ATOMIC_SPECIES
C 12.01 C.pbe-n-rrkjus_psl.1.0.0.UPF
O 15.99 O.pbe-n-rrkjus_psl.1.0.0.UPF
Pd 106.4 Pd.pbe-n-rrkjus_psl.1.0.0.UPF

CELL_PARAMETERS {angstrom}
7.98939000 0.00000000 0.00000000
-0.00000000 7.98939000 0.00000000
0.00000000 0.00000000 25.99200000

ATOMIC_POSITIONS {angstrom}
Pd 0.00000000 0.00000000 -2.996097840000001 0 0 0
Pd 1.99734750 1.99734750 -2.996097840000001 0 0 0
Pd 1.99734750 0.00000000 -0.998612640000001 0 0 0
Pd 0.00000000 1.99734750 -0.998612640000001 0 0 0
Pd 0.00000000 0.00000000 0.99861264
Pd 1.99734750 1.99734750 0.99861264
Pd 1.99734750 -0.00000000 2.99609784
Pd 0.00000000 1.99734750 2.99609784
Pd 0.00000000 3.99469500 -2.996097840000001 0 0 0
Pd 1.99734750 5.99204250 -2.996097840000001 0 0 0
Pd 1.99734750 3.99469500 -0.998612640000001 0 0 0
Pd 0.00000000 5.99204250 -0.998612640000001 0 0 0
Pd 0.00000000 3.99469500 0.99861264
Pd 1.99734750 5.99204250 0.99861264
Pd 1.99734750 3.99469500 2.99609784
Pd 0.00000000 5.99204250 2.99609784
Pd 3.99469500 0.00000000 -2.996097840000001 0 0 0
Pd 5.99204250 1.99734750 -2.996097840000001 0 0 0
Pd 5.99204250 0.00000000 -0.998612640000001 0 0 0
Pd 3.99469500 1.99734750 -0.998612640000001 0 0 0
Pd 3.99469500 -0.00000000 0.99861264
Pd 5.99204250 1.99734750 0.99861264
Pd 5.99204250 -0.00000000 2.99609784
Pd 3.99469500 1.99734750 2.99609784
Pd 3.99469500 3.99469500 -2.996097840000001 0 0 0
Pd 5.99204250 5.99204250 -2.996097840000001 0 0 0
Pd 5.99204250 3.99469500 -0.998612640000001 0 0 0
Pd 3.99469500 5.99204250 -0.998612640000001 0 0 0
Pd 3.99469500 3.99469500 0.99861264
Pd 5.99204250 5.99204250 0.99861264
Pd 5.99204250 3.99469500 2.99609784
Pd 3.99469500 5.99204250 2.99609784
C 1.99734750 -0.00000000 4.89611304
O 1.99734750 -0.00000000 6.04599912
