&CONTROL
calculation = 'relax'
prefix = 'scf'
pseudo_dir = '/vol0403/data/hp230205/u10028/POT_HYBRID_KKJUS_GBRV'
outdir = './data'
tprnfor = .true.
nstep = 50
disk_io = 'non'
/
&SYSTEM
ibrav = 0
ecutwfc = 50.0
ecutrho = 400
occupations = 'smearing'
smearing = 'mp'
degauss = 0.01
assume_isolated = 'esm'
esm_bc = 'bc1'
input_dft = 'BEEF-VDW'
nosym = .true.
nspin = 2
ntyp = 5
nat = 33
starting_magnetization(1) = 0.0
starting_magnetization(2) = 0.0
starting_magnetization(3) = 0.1
starting_magnetization(4) = 0.0
starting_magnetization(5) = 0.0
/
&ELECTRONS
electron_maxstep = 400
mixing_beta = 0.05
conv_thr = 1e-06
/
&IONS
ion_dynamics = 'bfgs'
upscale = 1.0
/
&CELL
/

K_POINTS {automatic}
9 6 2 0  0  0

ATOMIC_SPECIES
C 12.01 C.pbe-n-rrkjus_psl.1.0.0.UPF
In 114.8 In.pbe-dn-rrkjus_psl.1.0.0.UPF
Mn 54.93 mn_pbe_v1.5.uspp.F.UPF
Pd 106.4 Pd.pbe-n-rrkjus_psl.1.0.0.UPF
Y 88.90 Y.pbe-spn-rrkjus_psl.1.0.0.UPF


CELL_PARAMETERS {angstrom}
6.85874000 0.00000000 0.00000000
0.00000000 9.69972000 0.00000000
0.00000000 0.00000000 27.27480000

ATOMIC_POSITIONS {angstrom}
Y 0.00000000 2.42493000 -1.2123648599999974 0 0 0
Y 0.00000000 7.27479000 -1.2123648599999974 0 0 0
Y 3.42937000 4.84986000 -3.63736733 0 0 0
Y 3.42937000 0.00000000 -3.63736733 0 0 0
Y 6.69440459 7.34947784 3.79719766
Y 6.69440459 2.35024216 3.79719766
Y 3.41393784 0.00000000 1.21809257
Y 3.45351276 4.84986000 1.20063670
Mn 5.14405500 0.00000000 -1.2123648599999974 0 0 0
Mn 5.14405500 4.84986000 -1.2123648599999974 0 0 0
Mn 1.71468500 2.42493000 -3.63736733 0 0 0
Mn 1.71468500 7.27479000 -3.63736733 0 0 0
Mn 4.57800319 4.84986000 4.10022068
Mn 4.64432720 0.00000000 3.94557257
Mn 1.57353213 7.23725208 1.37028595
Mn 1.57346354 2.46246792 1.37055870
In 0.00000000 0.00000000 -3.63736733 0 0 0
In 0.00000000 4.84986000 -3.63736733 0 0 0
In 3.42937000 7.27479000 -1.2123648599999974 0 0 0
In 3.42937000 2.42493000 -1.2123648599999974 0 0 0
In 6.75421280 4.84986000 1.27836988
In 6.78260799 0.00000000 1.24454912
In 3.30550116 2.39437588 3.67909777
In 3.30550116 7.30534412 3.67909777
Pd 1.71468500 0.00000000 -1.2123648599999974 0 0 0
Pd 1.71468500 4.84986000 -1.2123648599999974 0 0 0
Pd 5.14405500 2.42493000 -3.63736733 0 0 0
Pd 5.14405500 7.27479000 -3.63736733 0 0 0
Pd 1.75659190 4.84986000 3.38452993
Pd 1.70762050 0.00000000 3.50344806
Pd 5.18726506 7.28448972 1.17745312
Pd 5.18733365 2.41523028 1.17745312
C 6.44337471 0.00000000 4.15777051
