&CONTROL
calculation = 'relax'
prefix = 'scf'
pseudo_dir = '/vol0004/mdt0/data/hp150275/u10028/POT_HYBRID_KKJUS_GBRV'
outdir = './data'
tprnfor = .true.
nstep = 50
disk_io = 'non'
/
&SYSTEM
ibrav = 0
ecutwfc = 50.0
ecutrho = 400
occupations = 'smearing'
smearing = 'mp'
degauss = 0.01
assume_isolated = 'esm'
esm_bc = 'bc1'
input_dft = 'BEEF-VDW'
nosym = .true.
nspin = 2
ntyp = 4
nat = 33
starting_magnetization(1) = 0.0
starting_magnetization(2) = 0.0
starting_magnetization(3) = 0.0
starting_magnetization(4) = 0.001
/
&ELECTRONS
electron_maxstep = 300
mixing_beta = 0.1
conv_thr = 1e-06
/
&IONS
ion_dynamics = 'bfgs'
upscale = 1.0
/
&CELL
/

K_POINTS {automatic}
9 6 2 0  0  0

ATOMIC_SPECIES
Al 26.98 Al.pbe-nl-rrkjus_psl.1.0.0.UPF
C 12.01 C.pbe-n-rrkjus_psl.1.0.0.UPF
Nb 92.90 Nb.pbe-spn-rrkjus_psl.1.0.0.UPF
Ni 58.69 ni_pbe_v1.4.uspp.F.UPF

CELL_PARAMETERS {angstrom}
6.00915000 0.00000000 0.00000000
0.00000000 8.49821000 0.00000000
0.00000000 0.00000000 26.37370000

ATOMIC_POSITIONS {angstrom}
Nb 0.00000000 0.00000000 -3.186734170000001 0 0 0
Nb 3.00457500 2.12455250 -1.062332640000001 0 0 0
Nb 3.00457500 6.37365750 -1.062332640000001 0 0 0
Nb 0.00000000 4.24910500 -3.186734170000001 0 0 0
Nb 0.00000000 4.24910500 1.06127769
Nb 3.00457500 6.29419924 3.16273410
Nb 3.00457500 2.20426571 3.16299784
Nb 0.00000000 8.49812502 1.11718993
Al 0.00000000 6.37365750 -1.062332640000001 0 0 0
Al 3.00457500 0.00000000 -3.186734170000001 0 0 0
Al 0.00000000 2.12455250 -1.062332640000001 0 0 0
Al 3.00457500 4.24910500 -3.186734170000001 0 0 0
Al 0.00000000 2.09939780 3.23974531
Al 3.00457500 4.24910500 1.05494800
Al 0.00000000 6.39872722 3.23974531
Al 3.00457500 0.00000000 1.06497001
Ni 1.50228750 0.00000000 -1.062332640000001 0 0 0
Ni 4.50686250 4.24910500 -1.062332640000001 0 0 0
Ni 4.50686250 0.00000000 -1.062332640000001 0 0 0
Ni 1.50228750 4.24910500 -1.062332640000001 0 0 0
Ni 4.50686250 6.37365750 -3.186734170000001 0 0 0
Ni 1.50228750 2.12455250 -3.186734170000001 0 0 0
Ni 1.50228750 6.37365750 -3.186734170000001 0 0 0
Ni 4.50686250 2.12455250 -3.186734170000001 0 0 0
Ni 1.43750886 4.24902002 3.09917349
Ni 4.22689620 0.00016996 3.24159147
Ni 4.57164114 4.24902002 3.09917349
Ni 1.78225380 0.00016996 3.24159147
Ni 4.48823413 2.15871530 1.06338758
Ni 1.52097596 6.33940971 1.06338758
Ni 1.52091586 2.15871530 1.06338758
Ni 4.48817404 6.33940971 1.06338758
C 0.00000000 0.00000000 3.41407547
