&CONTROL
calculation = 'relax'
prefix = 'scf'
pseudo_dir = '/vol0004/mdt0/data/hp150275/u10028/POT_KKJUS'
outdir = './data'
tprnfor = .true.
nstep = 50
disk_io = 'non'
/
&SYSTEM
ibrav = 0
ecutwfc = 50.0
ecutrho = 400
occupations = 'smearing'
smearing = 'mp'
degauss = 0.01
assume_isolated = 'esm'
esm_bc = 'bc1'
input_dft = 'BEEF-VDW'
nosym = .true.
nspin = 1
ntyp = 5
nat = 34
/
&ELECTRONS
electron_maxstep = 200
mixing_beta = 0.1
conv_thr = 1e-06
/
&IONS
ion_dynamics = 'bfgs'
upscale = 1.0
/
&CELL
/

K_POINTS {automatic}
8 6 1 0 0 0

ATOMIC_SPECIES
Ag 107.8 Ag.pbe-n-rrkjus_psl.1.0.0.UPF
Al 26.98 Al.pbe-nl-rrkjus_psl.1.0.0.UPF
C 12.01 C.pbe-n-rrkjus_psl.1.0.0.UPF
Li 6.941 Li.pbe-sl-rrkjus_psl.1.0.0.UPF
O 15.99 O.pbe-n-rrkjus_psl.1.0.0.UPF

CELL_PARAMETERS {angstrom}
6.34834000 0.00000000 0.00000000
0.00000000 8.97791000 0.00000000
0.00000000 0.00000000 26.73340000

ATOMIC_POSITIONS {angstrom}
Li 0.00000000 6.73343250 -1.1222681299999984 0 0 0
Li 3.17417000 0.00000000 -3.3668043999999995 0 0 0
Li 0.00000000 2.24447750 -1.1222681299999984 0 0 0
Li 3.17417000 4.48895500 -3.3668043999999995 0 0 0
Li 1.58708500 0.00000000 -1.1222681299999984 0 0 0
Li 1.58708500 4.48895500 -1.1222681299999984 0 0 0
Li 4.76125500 6.73343250 -3.3668043999999995 0 0 0
Li 4.76125500 2.24447750 -3.3668043999999995 0 0 0
Li 6.25965369 2.22723991 3.41465718
Li 3.12541475 4.48904478 0.98111578
Li 6.25959021 6.75049053 3.41492452
Li 3.10256072 0.00000000 0.98138311
Li 1.66574093 4.48895500 3.36012105
Li 1.65520269 8.97782022 3.36012105
Li 4.78702926 2.24348993 1.07922736
Li 4.78709274 6.73442007 1.07922736
Al 0.00000000 0.00000000 -3.3668043999999995 0 0 0
Al 3.17417000 2.24447750 -1.1222681299999984 0 0 0
Al 3.17417000 6.73343250 -1.1222681299999984 0 0 0
Al 0.00000000 4.48895500 -3.3668043999999995 0 0 0
Al 0.01580737 4.48895500 1.10890143
Al 3.24565231 6.72481371 3.35423970
Al 3.24577928 2.25300651 3.35423970
Al 0.02037817 0.00000000 1.09339606
Ag 1.58708500 2.24447750 -3.3668043999999995 0 0 0
Ag 1.58708500 6.73343250 -3.3668043999999995 0 0 0
Ag 4.76125500 4.48895500 -1.1222681299999984 0 0 0
Ag 4.76125500 0.00000000 -1.1222681299999984 0 0 0
Ag 1.57292820 6.73217559 1.17225959
Ag 1.57292820 2.24591397 1.17225959
Ag 4.58419980 8.97773044 3.12299579
Ag 4.62032185 4.48895500 3.16603656
C 1.13565454 8.97782022 5.34266999
O 1.03287492 8.97773044 6.48445350
