&CONTROL
calculation = 'relax'
prefix = 'scf'
pseudo_dir = '/vol0004/mdt0/data/hp150275/u10028/POT_KKJUS'
outdir = './data'
tprnfor = .true.
nstep = 50
disk_io = 'non'
/
&SYSTEM
ibrav = 0
ecutwfc = 50.0
ecutrho = 400
occupations = 'smearing'
smearing = 'mp'
degauss = 0.01
assume_isolated = 'esm'
esm_bc = 'bc1'
input_dft = 'BEEF-VDW'
nosym = .true.
nspin = 1
ntyp = 5
nat = 18
/
&ELECTRONS
electron_maxstep = 200
mixing_beta = 0.1
conv_thr = 1e-06
/
&IONS
ion_dynamics = 'bfgs'
upscale = 1.0
/
&CELL
/

K_POINTS {automatic}
9 9 2 0  0  0

ATOMIC_SPECIES
Au 196.9 Au.pbe-n-rrkjus_psl.1.0.0.UPF
C 12.01 C.pbe-n-rrkjus_psl.1.0.0.UPF
Ge 72.64 Ge.pbe-dn-rrkjus_psl.1.0.0.UPF
Li 6.941 Li.pbe-sl-rrkjus_psl.1.0.0.UPF
O 15.99 O.pbe-n-rrkjus_psl.1.0.0.UPF

CELL_PARAMETERS {angstrom}
6.30953000 0.00000000 0.00000000
0.00000000 6.30953000 0.00000000
0.00000000 0.00000000 24.73210000

ATOMIC_POSITIONS {angstrom}
Li 0.00000000 0.00000000 -0.7887066699999998 0 0 0
Li 3.15476500 6.30946690 2.61888207
Li 0.00000000 3.15476500 2.61789278
Li 3.15476500 3.15476500 -0.7887066699999998 0 0 0
Li 1.57738250 1.57738250 -2.3661200099999995 0 0 0
Li 1.68773618 4.62280335 0.87724759
Li 4.73214750 4.73214750 -2.3661200099999995 0 0 0
Li 4.62160453 1.68691594 0.87749491
Ge 0.00031548 6.30934071 2.06834552
Ge 3.15381857 3.15501738 2.59588122
Ge 3.15476500 0.00000000 -0.7887066699999998 0 0 0
Ge 0.00000000 3.15476500 -0.7887066699999998 0 0 0
Au 1.71392073 1.71291120 0.87353777
Au 1.57738250 4.73214750 -2.3661200099999995 0 0 0
Au 4.59560927 4.59636641 0.87378509
Au 4.73214750 1.57738250 -2.3661200099999995 0 0 0
C 0.00018929 6.30946690 3.96406099
O 0.00018929 6.30946690 5.13364200
