&CONTROL
calculation = 'relax'
prefix = 'scf'
pseudo_dir = '/vol0403/data/hp230205/u10028/POT_HYBRID_KKJUS_GBRV'
outdir = './data'
tprnfor = .true.
nstep = 50
disk_io = 'non'
/
&SYSTEM
ibrav = 0
ecutwfc = 50.0
ecutrho = 400
occupations = 'smearing'
smearing = 'mp'
degauss = 0.01
assume_isolated = 'esm'
esm_bc = 'bc1'
input_dft = 'BEEF-VDW'
nosym = .true.
nspin = 1
ntyp = 4
nat = 16
/
&ELECTRONS
electron_maxstep = 200
mixing_beta = 0.1
conv_thr = 1e-06
/
&IONS
ion_dynamics = 'bfgs'
upscale = 1.0
/
&CELL
/

K_POINTS {automatic}
6 6 1 0 0 0

ATOMIC_SPECIES
Ge 72.64 Ge.pbe-dn-rrkjus_psl.1.0.0.UPF
In 114.8 In.pbe-dn-rrkjus_psl.1.0.0.UPF
Li 6.941 Li.pbe-sl-rrkjus_psl.1.0.0.UPF
Sc 44.95 Sc.pbe-spn-rrkjus_psl.1.0.0.UPF


CELL_PARAMETERS {angstrom}
5.77954000 0.00000000 0.00000000
0.00000000 8.97372000 0.00000000
0.00000000 0.00000000 24.33440000

ATOMIC_POSITIONS {angstrom}
Li 1.70750730 2.24325053 0.69961400
Li 4.28466198 2.24343000 -2.167221659999999 0 0 0
Li 1.70756509 6.73020026 0.69985734
Li 4.28466198 6.73029000 -2.167221659999999 0 0 0
Sc 3.06101777 8.97363026 2.14021048
Sc 5.74624985 0.00000000 -0.7224883399999982 0 0 0
Sc 3.06095997 4.48694974 2.14021048
Sc 5.74624985 4.48686000 -0.7224883399999982 0 0 0
In 4.68905639 2.24334026 1.07412042
In 1.39489198 2.24343000 -2.167221659999999 0 0 0
In 4.68899860 6.73064895 1.07412042
In 1.39489198 6.73029000 -2.167221659999999 0 0 0
Ge 0.17373297 0.00000000 2.27453637
Ge 2.85647985 0.00000000 -0.7224883399999982 0 0 0
Ge 0.17327061 4.48686000 2.27429302
Ge 2.85647985 4.48686000 -0.7224883399999982 0 0 0
