&CONTROL
calculation = 'relax'
prefix = 'scf'
pseudo_dir = '/vol0004/mdt0/data/hp150275/u10028/POT_KKJUS'
outdir = './data'
tprnfor = .true.
nstep = 50
disk_io = 'non'
/
&SYSTEM
ibrav = 0
ecutwfc = 50.0
ecutrho = 400
occupations = 'smearing'
smearing = 'mp'
degauss = 0.01
assume_isolated = 'esm'
esm_bc = 'bc1'
input_dft = 'BEEF-VDW'
nosym = .true.
nspin = 1
ntyp = 4
nat = 33
/
&ELECTRONS
electron_maxstep = 200
mixing_beta = 0.1
conv_thr = 1e-06
/
&IONS
ion_dynamics = 'bfgs'
upscale = 1.0
/
&CELL
/

K_POINTS {automatic}
8 6 1 0 0 0

ATOMIC_SPECIES
C 12.01 C.pbe-n-rrkjus_psl.1.0.0.UPF
Li 6.941 Li.pbe-sl-rrkjus_psl.1.0.0.UPF
Ni 58.69 Ni.pbe-spn-rrkjus_psl.1.0.0.UPF
Si 28.08 Si.pbe-nl-rrkjus_psl.1.0.0.UPF

CELL_PARAMETERS {angstrom}
5.57854000 0.00000000 0.00000000
0.00000000 7.88925000 0.00000000
0.00000000 0.00000000 25.91690000

ATOMIC_POSITIONS {angstrom}
Li 0.00000000 0.00000000 -2.9584141299999978 0 0 0
Li 2.78927000 1.97231250 -0.9861380499999974 0 0 0
Li 2.78927000 5.91693750 -0.9861380499999974 0 0 0
Li 0.00000000 3.94462500 -2.9584141299999978 0 0 0
Li 0.00000000 3.94462500 0.86121859
Li 2.78927000 5.77832338 3.63043935
Li 2.78927000 2.11092662 3.63043935
Li 0.00000000 0.00000000 0.98691555
Si 0.00000000 5.91693750 -0.9861380499999974 0 0 0
Si 2.78927000 0.00000000 -2.9584141299999978 0 0 0
Si 0.00000000 1.97231250 -0.9861380499999974 0 0 0
Si 2.78927000 3.94462500 -2.9584141299999978 0 0 0
Si 0.00000000 1.87069896 2.98407187
Si 2.78927000 3.94462500 1.04859777
Si 0.00000000 6.01847215 2.98407187
Si 2.78927000 0.00000000 0.82545327
Ni 1.39463500 0.00000000 -0.9861380499999974 0 0 0
Ni 4.18390500 3.94462500 -0.9861380499999974 0 0 0
Ni 4.18390500 0.00000000 -0.9861380499999974 0 0 0
Ni 1.39463500 3.94462500 -0.9861380499999974 0 0 0
Ni 4.18390500 5.91693750 -2.9584141299999978 0 0 0
Ni 1.39463500 1.97231250 -2.9584141299999978 0 0 0
Ni 1.39463500 5.91693750 -2.9584141299999978 0 0 0
Ni 4.18390500 1.97231250 -2.9584141299999978 0 0 0
Ni 1.23419619 3.94462500 2.82131373
Ni 3.96539359 7.88909222 2.76973910
Ni 4.34434381 3.94462500 2.82131373
Ni 1.61309063 7.88909221 2.76973910
Ni 4.16019621 1.98880103 1.02294004
Ni 1.41828801 5.90044897 1.02294004
Ni 1.41828801 1.98887992 1.02294004
Ni 4.16025199 5.90037008 1.02294004
C 0.00000000 0.00000000 3.60840999
