&CONTROL
calculation = 'relax'
prefix = 'scf'
pseudo_dir = '/vol0004/mdt0/data/hp150275/u10028/POT_KKJUS'
outdir = './data'
tprnfor = .true.
nstep = 50
disk_io = 'non'
/
&SYSTEM
ibrav = 0
ecutwfc = 50.0
ecutrho = 400
occupations = 'smearing'
smearing = 'mp'
degauss = 0.01
assume_isolated = 'esm'
esm_bc = 'bc1'
input_dft = 'BEEF-VDW'
nosym = .true.
nspin = 1
ntyp = 5
nat = 34
/
&ELECTRONS
electron_maxstep = 200
mixing_beta = 0.1
conv_thr = 1e-06
/
&IONS
ion_dynamics = 'bfgs'
upscale = 1.0
/
&CELL
/

K_POINTS {automatic}
8 6 1 0 0 0

ATOMIC_SPECIES
C 12.01 C.pbe-n-rrkjus_psl.1.0.0.UPF
Ge 72.64 Ge.pbe-dn-rrkjus_psl.1.0.0.UPF
Li 6.941 Li.pbe-sl-rrkjus_psl.1.0.0.UPF
Mg 24.30 Mg.pbe-spnl-rrkjus_psl.1.0.0.UPF
O 15.99 O.pbe-n-rrkjus_psl.1.0.0.UPF

CELL_PARAMETERS {angstrom}
6.76484000 0.00000000 0.00000000
0.00000000 9.56693000 0.00000000
0.00000000 0.00000000 27.17520000

ATOMIC_POSITIONS {angstrom}
Li 0.00000000 0.00000000 -3.5876699000000016 0 0 0
Li 3.38242000 2.39173250 -1.1959805500000016 0 0 0
Li 3.38242000 7.17519750 -1.1959805500000016 0 0 0
Li 0.00000000 4.78346500 -3.5876699000000016 0 0 0
Li 0.00081178 4.76260909 1.35441197
Li 3.38275824 7.17529317 4.84642517
Li 3.38282589 2.39182817 4.60212012
Li 0.00040589 0.02133425 1.35441197
Mg 1.69121000 0.00000000 -1.1959805500000016 0 0 0
Mg 5.07363000 4.78346500 -1.1959805500000016 0 0 0
Mg 5.07363000 0.00000000 -1.1959805500000016 0 0 0
Mg 1.69121000 4.78346500 -1.1959805500000016 0 0 0
Mg 5.07363000 7.17519750 -3.5876699000000016 0 0 0
Mg 1.69121000 2.39173250 -3.5876699000000016 0 0 0
Mg 1.69121000 7.17519750 -3.5876699000000016 0 0 0
Mg 5.07363000 2.39173250 -3.5876699000000016 0 0 0
Mg 1.79809447 4.81465319 3.70561027
Mg 4.96755731 9.53574181 3.70561027
Mg 4.96762496 4.81484453 3.70561027
Mg 1.79809447 9.53583748 3.70588202
Mg 5.01984952 2.39211518 1.31310566
Mg 1.72401947 7.17558018 1.28701747
Mg 1.74634345 2.39182817 1.31310566
Mg 5.04169996 7.17529317 1.28701747
Ge 0.00000000 7.17519750 -1.1959805500000016 0 0 0
Ge 3.38242000 0.00000000 -3.5876699000000016 0 0 0
Ge 0.00000000 2.39173250 -1.1959805500000016 0 0 0
Ge 3.38242000 4.78346500 -3.5876699000000016 0 0 0
Ge 0.00074413 2.39211518 3.49690474
Ge 3.38269059 4.78834413 1.09353005
Ge 0.00033824 7.17519750 3.51837314
Ge 3.38289354 9.56252921 1.09353005
C 6.74204249 2.38455730 7.57916328
O 0.00372066 2.39335888 8.71427138
