&CONTROL
calculation = 'relax'
prefix = 'scf'
pseudo_dir = '/vol0004/mdt0/data/hp150275/u10028/POT_KKJUS'
outdir = './data'
tprnfor = .true.
nstep = 50
disk_io = 'non'
/
&SYSTEM
ibrav = 0
ecutwfc = 50.0
ecutrho = 400
occupations = 'smearing'
smearing = 'mp'
degauss = 0.01
assume_isolated = 'esm'
esm_bc = 'bc1'
input_dft = 'BEEF-VDW'
nosym = .true.
nspin = 1
ntyp = 3
nat = 16
/
&ELECTRONS
electron_maxstep = 200
mixing_beta = 0.1
conv_thr = 1e-06
/
&IONS
ion_dynamics = 'bfgs'
upscale = 1.0
/
&CELL
/

K_POINTS {automatic}
10 10 2 0  0  0

ATOMIC_SPECIES
Au 196.9 Au.pbe-n-rrkjus_psl.1.0.0.UPF
Li 6.941 Li.pbe-sl-rrkjus_psl.1.0.0.UPF
Sb 121.7 Sb.pbe-n-rrkjus_psl.1.0.0.UPF

CELL_PARAMETERS {angstrom}
6.66546000 0.00000000 0.00000000
0.00000000 6.66546000 0.00000000
0.00000000 0.00000000 24.99910000

ATOMIC_POSITIONS {angstrom}
Li 0.00000000 0.00000000 0.66097620
Li 3.33273000 0.00000000 -2.4996600099999995 0 0 0
Li 0.00000000 3.33273000 -2.4996600099999995 0 0 0
Li 3.33273000 3.33273000 0.66372610
Li 1.67049759 1.67056424 2.64865464
Li 1.66636500 4.99909500 -0.8332199999999972 0 0 0
Li 4.99489576 4.99489576 2.64865464
Li 4.99909500 1.66636500 -0.8332199999999972 0 0 0
Sb 0.00000000 0.00000000 -2.4996600099999995 0 0 0
Sb 3.33273000 3.33273000 -2.4996600099999995 0 0 0
Sb 3.33273000 0.00000000 1.10796011
Sb 0.00000000 3.33273000 1.10771012
Au 1.66636500 1.66636500 -0.8332199999999972 0 0 0
Au 1.66736482 4.99809518 2.29991720
Au 4.99909500 4.99909500 -0.8332199999999972 0 0 0
Au 4.99809518 1.66736482 2.29991720
