&CONTROL
calculation = 'relax'
prefix = 'scf'
pseudo_dir = '/vol0004/mdt0/data/hp150275/u10028/POT_HYBRID_KKJUS_GBRV'
outdir = './data'
tprnfor = .true.
nstep = 50
disk_io = 'non'
/
&SYSTEM
ibrav = 0
ecutwfc = 50.0
ecutrho = 400
occupations = 'smearing'
smearing = 'mp'
degauss = 0.01
assume_isolated = 'esm'
esm_bc = 'bc1'
input_dft = 'BEEF-VDW'
nosym = .true.
nspin = 2
ntyp = 4
nat = 33
starting_magnetization(1) = 0.0
starting_magnetization(2) = 0.0
starting_magnetization(3) = 0.001
starting_magnetization(4) = 0.0
/
&ELECTRONS
electron_maxstep = 200
mixing_beta = 0.1
conv_thr = 1e-06
/
&IONS
ion_dynamics = 'bfgs'
upscale = 1.0
/
&CELL
/

K_POINTS {automatic}
9 6 2 0  0  0

ATOMIC_SPECIES
C 12.01 C.pbe-n-rrkjus_psl.1.0.0.UPF
Li 6.941 Li.pbe-sl-rrkjus_psl.1.0.0.UPF
Ni 58.69 ni_pbe_v1.4.uspp.F.UPF
Sn 118.7 Sn.pbe-dn-rrkjus_psl.1.0.0.UPF

CELL_PARAMETERS {angstrom}
6.04935000 0.00000000 0.00000000
0.00000000 8.55507000 0.00000000
0.00000000 0.00000000 26.41630000

ATOMIC_POSITIONS {angstrom}
Li 0.00000000 0.00000000 23.20804037
Li 3.02467500 2.13876750 25.34696818
Li 3.02467500 6.41630250 25.34696818
Li 0.00000000 4.27753500 23.20804037
Li 0.00000000 4.27744945 0.90317330
Li 3.02467500 6.28866086 3.45472371
Li 3.02467500 2.26632359 3.45472371
Li 0.00000000 0.00008555 1.12929683
Ni 1.51233750 0.00000000 25.34696818
Ni 4.53701250 4.27753500 25.34696818
Ni 4.53701250 0.00000000 25.34696818
Ni 1.51233750 4.27753500 25.34696818
Ni 4.53701250 6.41630250 23.20804037
Ni 1.51233750 2.13876750 23.20804037
Ni 1.51233750 6.41630250 23.20804037
Ni 4.53701250 2.13876750 23.20804037
Ni 1.33242983 4.27744945 2.92983183
Ni 4.36297270 0.00000000 3.12161417
Ni 4.71692017 4.27744945 2.92983183
Ni 1.68637730 0.00000000 3.12161417
Ni 4.58080979 2.15570654 1.15756227
Ni 1.46841922 6.39927791 1.15809059
Ni 1.46854021 2.15570654 1.15756227
Ni 4.58093078 6.39927791 1.15809059
Sn 0.00000000 6.41630250 25.34696818
Sn 3.02467500 0.00000000 23.20804037
Sn 0.00000000 2.13876750 25.34696818
Sn 3.02467500 4.27753500 23.20804037
Sn 0.00000000 2.18924241 3.44521385
Sn 3.02467500 4.27744945 1.04502883
Sn 0.00000000 6.36582759 3.44521385
Sn 3.02467500 0.00025665 0.97766726
C 0.00000000 0.00000000 3.75322790
