&CONTROL
calculation = 'relax'
prefix = 'scf'
pseudo_dir = '/vol0004/mdt0/data/hp150275/u10028/POT_HYBRID_KKJUS_GBRV'
outdir = './data'
tprnfor = .true.
nstep = 50
disk_io = 'non'
/
&SYSTEM
ibrav = 0
ecutwfc = 50.0
ecutrho = 400
occupations = 'smearing'
smearing = 'mp'
degauss = 0.01
assume_isolated = 'esm'
esm_bc = 'bc1'
input_dft = 'BEEF-VDW'
nosym = .true.
nspin = 2
ntyp = 5
nat = 34
starting_magnetization(1) = 0.0
starting_magnetization(2) = 0.1
starting_magnetization(3) = 0.0
starting_magnetization(4) = 0.0
starting_magnetization(5) = 0.0
/
&ELECTRONS
electron_maxstep = 300
mixing_beta = 0.1
conv_thr = 1e-06
/
&IONS
ion_dynamics = 'bfgs'
upscale = 1.0
/
&CELL
/

K_POINTS {automatic}
8 6 1 0 0 0

ATOMIC_SPECIES
C 12.01 C.pbe-n-rrkjus_psl.1.0.0.UPF
Co 58.93 co_pbe_v1.2.uspp.F.UPF
O 15.99 O.pbe-n-rrkjus_psl.1.0.0.UPF
Sc 44.95 Sc.pbe-spn-rrkjus_psl.1.0.0.UPF
Sn 118.7 Sn.pbe-dn-rrkjus_psl.1.0.0.UPF

CELL_PARAMETERS {angstrom}
6.22913000 0.00000000 0.00000000
0.00000000 8.80931000 0.00000000
0.00000000 0.00000000 26.60700000

ATOMIC_POSITIONS {angstrom}
Sc 0.00000000 0.00000000 -3.3035251199999998 0 0 0
Sc 3.11456500 2.20232750 -1.1012637299999994 0 0 0
Sc 3.11456500 6.60698250 -1.1012637299999994 0 0 0
Sc 0.00000000 4.40465500 -3.3035251199999998 0 0 0
Sc 6.22906771 4.41566664 1.13798139
Sc 3.11462729 6.60707059 3.35487663
Sc 3.11462729 2.20223941 3.21758451
Sc 0.00000000 8.79829836 1.13798139
Co 1.55728250 0.00000000 -1.1012637299999994 0 0 0
Co 4.67184750 4.40465500 -1.1012637299999994 0 0 0
Co 4.67184750 0.00000000 -1.1012637299999994 0 0 0
Co 1.55728250 4.40465500 -1.1012637299999994 0 0 0
Co 4.67184750 6.60698250 -3.3035251199999998 0 0 0
Co 1.55728250 2.20232750 -3.3035251199999998 0 0 0
Co 1.55728250 6.60698250 -3.3035251199999998 0 0 0
Co 4.67184750 2.20232750 -3.3035251199999998 0 0 0
Co 1.44266651 4.42720683 3.13723137
Co 4.78640120 8.78675817 3.13723137
Co 4.78652578 4.42720683 3.13723137
Co 1.44272880 8.78667007 3.13723137
Co 4.70940915 2.20241559 1.04831580
Co 1.57322907 6.60680631 1.14037602
Co 1.51972085 2.20250369 1.04831580
Co 4.65590093 6.60680631 1.14037602
Sn 0.00000000 6.60698250 -1.1012637299999994 0 0 0
Sn 3.11456500 0.00000000 -3.3035251199999998 0 0 0
Sn 0.00000000 2.20232750 -1.1012637299999994 0 0 0
Sn 3.11456500 4.40465500 -3.3035251199999998 0 0 0
Sn 0.00006229 2.20241559 3.42751374
Sn 3.11450271 4.44244694 1.10658513
Sn 0.00006229 6.60689441 3.46769031
Sn 3.11456500 8.77151806 1.10658513
C 3.11456500 2.20232750 5.46960099
O 3.11456500 2.20232750 6.61263771
