&CONTROL
calculation = 'relax'
prefix = 'scf'
pseudo_dir = '/vol0403/data/hp230205/u10028/POT_HYBRID_KKJUS_GBRV'
outdir = './data'
tprnfor = .true.
nstep = 50
disk_io = 'non'
/
&SYSTEM
ibrav = 0
ecutwfc = 50.0
ecutrho = 400
occupations = 'smearing'
smearing = 'mp'
degauss = 0.01
assume_isolated = 'esm'
esm_bc = 'bc1'
input_dft = 'BEEF-VDW'
nosym = .true.
nspin = 2
ntyp = 6
nat = 18
starting_magnetization(1) = 0.0
starting_magnetization(2) = 0.0
starting_magnetization(3) = 0.1
starting_magnetization(4) = 0.0
starting_magnetization(5) = 0.0
starting_magnetization(6) = 0.0
/
&ELECTRONS
electron_maxstep = 400
mixing_beta = 0.05
conv_thr = 1e-06
/
&IONS
ion_dynamics = 'bfgs'
upscale = 1.0
/
&CELL
/

K_POINTS {automatic}
10 10 2 0  0  0

ATOMIC_SPECIES
Al 26.98 Al.pbe-nl-rrkjus_psl.1.0.0.UPF
C 12.01 C.pbe-n-rrkjus_psl.1.0.0.UPF
Co 58.93 co_pbe_v1.2.uspp.F.UPF
Li 6.941 Li.pbe-sl-rrkjus_psl.1.0.0.UPF
O 15.99 O.pbe-n-rrkjus_psl.1.0.0.UPF
Pd 106.4 Pd.pbe-n-rrkjus_psl.1.0.0.UPF


CELL_PARAMETERS {angstrom}
5.87254000 0.00000000 0.00000000
0.00000000 5.87254000 0.00000000
0.00000000 0.00000000 24.40440000

ATOMIC_POSITIONS {angstrom}
Li 5.87248127 2.93621127 2.56978332
Li 0.00000000 0.00000000 -0.7340843499999998 0 0 0
Li 2.93627000 2.93627000 -0.7340843499999998 0 0 0
Li 2.93632873 0.00005873 2.47704660
Al 0.00000000 0.00000000 2.06778481
Al 0.00000000 2.93627000 -0.7340843499999998 0 0 0
Al 2.93627000 0.00000000 -0.7340843499999998 0 0 0
Al 2.93627000 2.93627000 2.06778481
Co 4.40675402 1.47048402 0.82316041
Co 4.40440500 4.40440500 -2.2022530600000003 0 0 0
Co 1.46813500 1.46813500 -2.2022530600000003 0 0 0
Co 1.46578598 4.40205598 0.82340446
Pd 1.46337824 1.47289176 0.79119065
Pd 1.46813500 4.40440500 -2.2022530600000003 0 0 0
Pd 4.40440500 1.46813500 -2.2022530600000003 0 0 0
Pd 4.40916176 4.39964824 0.79119065
C 5.87236382 2.93603510 4.69735891
O 5.87248127 2.93615255 5.83899674
