&CONTROL
calculation = 'relax'
prefix = 'scf'
pseudo_dir = '/vol0403/data/hp230205/u10028/POT_HYBRID_KKJUS_GBRV'
outdir = './data'
tprnfor = .true.
nstep = 50
disk_io = 'non'
/
&SYSTEM
ibrav = 0
ecutwfc = 50.0
ecutrho = 400
occupations = 'smearing'
smearing = 'mp'
degauss = 0.01
assume_isolated = 'esm'
esm_bc = 'bc1'
input_dft = 'BEEF-VDW'
nosym = .true.
nspin = 1
ntyp = 4
nat = 32
/
&ELECTRONS
electron_maxstep = 200
mixing_beta = 0.1
conv_thr = 1e-06
/
&IONS
ion_dynamics = 'bfgs'
upscale = 1.0
/
&CELL
/

K_POINTS {automatic}
7 7 2 0  0  0

ATOMIC_SPECIES
Ge 72.64 Ge.pbe-dn-rrkjus_psl.1.0.0.UPF
In 114.8 In.pbe-dn-rrkjus_psl.1.0.0.UPF
Li 6.941 Li.pbe-sl-rrkjus_psl.1.0.0.UPF
Mg 24.30 Mg.pbe-spnl-rrkjus_psl.1.0.0.UPF


CELL_PARAMETERS {angstrom}
8.75068000 0.00000000 0.00000000
0.00000000 8.41850000 0.00000000
0.00000000 0.00000000 26.30740000

ATOMIC_POSITIONS {angstrom}
Li 2.18767000 0.00000000 -1.0512437000000006 0 0 0
Li 2.18775751 0.00000000 3.09164565
Li 2.18767000 4.20925000 -1.0512437000000006 0 0 0
Li 2.18767000 4.20925000 3.09190872
Li 6.56301000 0.00000000 -1.0512437000000006 0 0 0
Li 6.56301000 0.00000000 3.09190872
Li 6.56301000 4.20925000 -1.0512437000000006 0 0 0
Li 6.56301000 4.20925000 3.09190872
Mg 0.00000000 2.10462500 -1.0512437000000006 0 0 0
Mg 0.00000000 2.10462500 3.27237749
Mg 0.00000000 6.31387500 -1.0512437000000006 0 0 0
Mg 0.00008751 6.31404337 3.27237749
Mg 4.37534000 2.10462500 -1.0512437000000006 0 0 0
Mg 4.37542751 2.10445663 3.27290363
Mg 4.37534000 6.31387500 -1.0512437000000006 0 0 0
Mg 4.37542751 6.31395919 3.27369286
In 2.18767000 2.10462500 -3.1537311100000025 0 0 0
In 2.18758249 2.10470919 1.06124052
In 2.18767000 6.31387500 -3.1537311100000025 0 0 0
In 2.18775751 6.31379081 1.06124052
In 6.56301000 2.10462500 -3.1537311100000025 0 0 0
In 6.56301000 2.10462500 1.06124052
In 6.56301000 6.31387500 -3.1537311100000025 0 0 0
In 6.56301000 6.31387500 1.06124052
Ge 0.00000000 0.00000000 -3.1537311100000025 0 0 0
Ge 0.00008751 0.00000000 1.19093600
Ge 0.00000000 4.20925000 -3.1537311100000025 0 0 0
Ge 0.00000000 4.20933418 1.19093600
Ge 4.37534000 0.00000000 -3.1537311100000025 0 0 0
Ge 4.37534000 0.00000000 1.19093600
Ge 4.37534000 4.20925000 -3.1537311100000025 0 0 0
Ge 4.37525249 4.20925000 1.19093600
