&CONTROL
calculation = 'relax'
prefix = 'scf'
pseudo_dir = '/vol0004/mdt0/data/hp150275/u10028/POT_KKJUS'
outdir = './data'
tprnfor = .true.
nstep = 50
disk_io = 'non'
/
&SYSTEM
ibrav = 0
ecutwfc = 50.0
ecutrho = 400
occupations = 'smearing'
smearing = 'mp'
degauss = 0.01
assume_isolated = 'esm'
esm_bc = 'bc1'
input_dft = 'BEEF-VDW'
nosym = .true.
nspin = 1
ntyp = 5
nat = 34
/
&ELECTRONS
electron_maxstep = 200
mixing_beta = 0.1
conv_thr = 1e-06
/
&IONS
ion_dynamics = 'bfgs'
upscale = 1.0
/
&CELL
/

K_POINTS {automatic}
9 6 2 0  0  0

ATOMIC_SPECIES
C 12.01 C.pbe-n-rrkjus_psl.1.0.0.UPF
Ga 69.72 Ga.pbe-dnl-rrkjus_psl.1.0.0.UPF
Li 6.941 Li.pbe-sl-rrkjus_psl.1.0.0.UPF
O 15.99 O.pbe-n-rrkjus_psl.1.0.0.UPF
Ru 101.0 Ru.pbe-spn-rrkjus_psl.1.0.0.UPF

CELL_PARAMETERS {angstrom}
6.09317000 0.00000000 0.00000000
0.00000000 8.61704000 0.00000000
0.00000000 0.00000000 26.46280000

ATOMIC_POSITIONS {angstrom}
Li 0.00000000 0.00000000 -3.23137251 0 0 0
Li 3.04658500 2.15426000 -1.07703596 0 0 0
Li 3.04658500 6.46278000 -1.07703596 0 0 0
Li 0.00000000 4.30852000 -3.23137251 0 0 0
Li 0.00000000 4.30765830 1.01643615
Li 3.04658500 6.46278000 3.40682087
Li 3.04658500 2.15426000 3.41396583
Li 0.00000000 0.00086170 1.01643615
Ga 1.52329250 0.00000000 -1.07703596 0 0 0
Ga 4.56987750 4.30852000 -1.07703596 0 0 0
Ga 4.56987750 0.00000000 -1.07703596 0 0 0
Ga 1.52329250 4.30852000 -1.07703596 0 0 0
Ga 4.56987750 6.46278000 -3.23137251 0 0 0
Ga 1.52329250 2.15426000 -3.23137251 0 0 0
Ga 1.52329250 6.46278000 -3.23137251 0 0 0
Ga 4.56987750 2.15426000 -3.23137251 0 0 0
Ga 1.40557246 4.34281582 3.24857333
Ga 4.68753661 8.58274418 3.24857333
Ga 4.68759754 4.34281582 3.24857333
Ga 1.40563339 8.58274418 3.24857333
Ga 4.56165172 2.15426000 1.08074075
Ga 1.55790171 6.46278000 1.03416622
Ga 1.53157921 2.15426000 1.08074075
Ga 4.53526829 6.46278000 1.03416622
Ru 0.00000000 6.46278000 -1.07703596 0 0 0
Ru 3.04658500 0.00000000 -3.23137251 0 0 0
Ru 0.00000000 2.15426000 -1.07703596 0 0 0
Ru 3.04658500 4.30852000 -3.23137251 0 0 0
Ru 0.00000000 2.15426000 3.29408934
Ru 3.04658500 4.28956251 1.11355462
Ru 0.00000000 6.46278000 3.01173127
Ru 3.04658500 0.01895749 1.11329000
C 0.00000000 2.15426000 5.17691756
O 0.00000000 2.15426000 6.33942837
