&CONTROL
calculation = 'relax'
prefix = 'scf'
pseudo_dir = '/vol0004/mdt0/data/hp150275/u10028/POT_KKJUS'
outdir = './data'
tprnfor = .true.
nstep = 50
disk_io = 'non'
/
&SYSTEM
ibrav = 0
ecutwfc = 50.0
ecutrho = 400
occupations = 'smearing'
smearing = 'mp'
degauss = 0.01
assume_isolated = 'esm'
esm_bc = 'bc1'
input_dft = 'BEEF-VDW'
nosym = .true.
nspin = 1
ntyp = 5
nat = 34
/
&ELECTRONS
electron_maxstep = 200
mixing_beta = 0.1
conv_thr = 1e-06
/
&IONS
ion_dynamics = 'bfgs'
upscale = 1.0
/
&CELL
/

K_POINTS {automatic}
8 6 1 0 0 0

ATOMIC_SPECIES
Ag 107.8 Ag.pbe-n-rrkjus_psl.1.0.0.UPF
C 12.01 C.pbe-n-rrkjus_psl.1.0.0.UPF
In 114.8 In.pbe-dn-rrkjus_psl.1.0.0.UPF
Mg 24.30 Mg.pbe-spnl-rrkjus_psl.1.0.0.UPF
O 15.99 O.pbe-n-rrkjus_psl.1.0.0.UPF

CELL_PARAMETERS {angstrom}
6.85111000 0.00000000 0.00000000
0.00000000 9.68893000 0.00000000
0.00000000 0.00000000 27.26670000

ATOMIC_POSITIONS {angstrom}
Mg 0.00000000 0.00000000 -3.633287769999999 0 0 0
Mg 3.42555500 2.42223250 -1.211186810000001 0 0 0
Mg 3.42555500 7.26669750 -1.211186810000001 0 0 0
Mg 0.00000000 4.84446500 -3.633287769999999 0 0 0
Mg 0.00000000 4.86151752 1.25017820
Mg 3.42555500 7.26669750 3.70090919
Mg 3.42555500 2.42223250 3.65373780
Mg 0.00000000 9.67187748 1.25017820
In 0.00000000 7.26669750 -1.211186810000001 0 0 0
In 3.42555500 0.00000000 -3.633287769999999 0 0 0
In 0.00000000 2.42223250 -1.211186810000001 0 0 0
In 3.42555500 4.84446500 -3.633287769999999 0 0 0
In 0.00000000 2.42223250 4.08237032
In 3.42555500 4.83807031 1.22972817
In 0.00000000 7.26669750 4.05046829
In 3.42555500 0.00639469 1.22972817
Ag 1.71277750 0.00000000 -1.211186810000001 0 0 0
Ag 5.13833250 4.84446500 -1.211186810000001 0 0 0
Ag 5.13833250 0.00000000 -1.211186810000001 0 0 0
Ag 1.71277750 4.84446500 -1.211186810000001 0 0 0
Ag 5.13833250 7.26669750 -3.633287769999999 0 0 0
Ag 1.71277750 2.42223250 -3.633287769999999 0 0 0
Ag 1.71277750 7.26669750 -3.633287769999999 0 0 0
Ag 5.13833250 2.42223250 -3.633287769999999 0 0 0
Ag 1.69749952 4.87091578 3.63192444
Ag 5.15361048 9.66257611 3.63192444
Ag 5.15361048 4.87091578 3.63192444
Ag 1.69749952 9.66257611 3.63192444
Ag 5.25096475 2.42223250 1.34833832
Ag 1.63638762 7.26669750 1.31098294
Ag 1.60014525 2.42223250 1.34833832
Ag 5.21472238 7.26669750 1.31098294
C 3.42555500 2.42223250 5.89615121
O 3.42555500 2.42223250 7.03971661
