&CONTROL
calculation = 'relax'
prefix = 'scf'
pseudo_dir = '/vol0004/mdt0/data/hp150275/u10028/POT_KKJUS'
outdir = './data'
tprnfor = .true.
nstep = 50
disk_io = 'non'
/
&SYSTEM
ibrav = 0
ecutwfc = 50.0
ecutrho = 400
occupations = 'smearing'
smearing = 'mp'
degauss = 0.01
assume_isolated = 'esm'
esm_bc = 'bc1'
input_dft = 'BEEF-VDW'
nosym = .true.
nspin = 1
ntyp = 3
nat = 32
/
&ELECTRONS
electron_maxstep = 200
mixing_beta = 0.1
conv_thr = 1e-06
/
&IONS
ion_dynamics = 'bfgs'
upscale = 1.0
/
&CELL
/

K_POINTS {automatic}
8 6 1 0 0 0

ATOMIC_SPECIES
Bi 208.9 Bi.pbe-dn-rrkjus_psl.1.0.0.UPF
Pd 106.4 Pd.pbe-n-rrkjus_psl.1.0.0.UPF
Y 88.90 Y.pbe-spn-rrkjus_psl.1.0.0.UPF

CELL_PARAMETERS {angstrom}
6.99655000 0.00000000 0.00000000
0.00000000 9.89462000 0.00000000
0.00000000 0.00000000 27.42100000

ATOMIC_POSITIONS {angstrom}
Y 0.00000000 0.00000000 -3.7106097200000008 0 0 0
Y 3.49827500 2.47365500 -1.236961309999998 0 0 0
Y 3.49827500 7.42096500 -1.236961309999998 0 0 0
Y 0.00000000 4.94731000 -3.7106097200000008 0 0 0
Y 0.00000000 4.94731000 1.28494806
Y 3.49827500 7.42096500 3.66536507
Y 3.49827500 2.47365500 3.66536507
Y 0.00000000 0.00000000 1.28494806
Bi 0.00000000 7.42096500 -1.236961309999998 0 0 0
Bi 3.49827500 0.00000000 -3.7106097200000008 0 0 0
Bi 0.00000000 2.47365500 -1.236961309999998 0 0 0
Bi 3.49827500 4.94731000 -3.7106097200000008 0 0 0
Bi 0.00000000 2.47365500 3.86334469
Bi 3.49827500 4.94731000 1.17142512
Bi 0.00000000 7.42096500 3.86334469
Bi 3.49827500 0.00000000 1.17142512
Pd 1.74913750 0.00000000 -1.236961309999998 0 0 0
Pd 5.24741250 4.94731000 -1.236961309999998 0 0 0
Pd 5.24741250 0.00000000 -1.236961309999998 0 0 0
Pd 1.74913750 4.94731000 -1.236961309999998 0 0 0
Pd 5.24741250 7.42096500 -3.7106097200000008 0 0 0
Pd 1.74913750 2.47365500 -3.7106097200000008 0 0 0
Pd 1.74913750 7.42096500 -3.7106097200000008 0 0 0
Pd 5.24741250 2.47365500 -3.7106097200000008 0 0 0
Pd 1.87479554 4.94731000 3.55760054
Pd 5.12175446 0.00000000 3.55760054
Pd 5.12175446 4.94731000 3.55760054
Pd 1.87479554 0.00000000 3.55760054
Pd 5.30464428 2.47365500 1.33183797
Pd 1.69190572 7.42096500 1.33183797
Pd 1.69190572 2.47365500 1.33183797
Pd 5.30464428 7.42096500 1.33183797
