&CONTROL
calculation = 'relax'
prefix = 'scf'
pseudo_dir = '/vol0403/data/hp230205/u10028/POT_HYBRID_KKJUS_GBRV'
outdir = './data'
tprnfor = .true.
nstep = 70
disk_io = 'non'
/
&SYSTEM
ibrav = 0
ecutwfc = 50.0
ecutrho = 400
occupations = 'smearing'
smearing = 'mp'
degauss = 0.01
assume_isolated = 'esm'
esm_bc = 'bc1'
input_dft = 'BEEF-VDW'
nosym = .true.
nspin = 1
ntyp = 6
nat = 34
/
&ELECTRONS
electron_maxstep = 200
mixing_beta = 0.1
conv_thr = 1e-06
/
&IONS
ion_dynamics = 'bfgs'
upscale = 1.0
/
&CELL
/

K_POINTS {automatic}
6 6 1 0 0 0

ATOMIC_SPECIES
Al 26.98 Al.pbe-nl-rrkjus_psl.1.0.0.UPF
C 12.01 C.pbe-n-rrkjus_psl.1.0.0.UPF
Cu 63.54 Cu.pbe-dn-rrkjus_psl.1.0.0.UPF
O 15.99 O.pbe-n-rrkjus_psl.1.0.0.UPF
Pd 106.4 Pd.pbe-n-rrkjus_psl.1.0.0.UPF
Sc 44.95 Sc.pbe-spn-rrkjus_psl.1.0.0.UPF


CELL_PARAMETERS {angstrom}
6.32596000 0.00000000 0.00000000
-0.00000000 8.94626000 0.00000000
0.00000000 0.00000000 26.70970000

ATOMIC_POSITIONS {angstrom}
Sc 0.00000000 2.23656500 -1.1183351400000028 0 0 0
Sc 0.00000000 6.70969500 -1.1183351400000028 0 0 0
Sc 3.16298000 4.47313000 -3.3547383200000027 0 0 0
Sc 3.16298000 0.00000000 -3.3547383200000027 0 0 0
Sc 0.02169804 6.72660343 3.48294488
Sc 0.02169804 2.21965657 3.48294488
Sc 3.13223583 8.94617054 1.10845255
Sc 3.16335956 4.47313000 1.06651832
Al 0.00000000 0.00000000 -3.3547383200000027 0 0 0
Al 0.00000000 4.47313000 -3.3547383200000027 0 0 0
Al 3.16298000 6.70969500 -1.1183351400000028 0 0 0
Al 3.16298000 2.23656500 -1.1183351400000028 0 0 0
Al 0.00765441 4.47313000 1.18751326
Al 0.03801902 0.00000000 1.22891330
Al 3.16804077 2.26233023 3.20783497
Al 3.16797751 6.68392977 3.20783497
Cu 4.74447000 0.00000000 -1.1183351400000028 0 0 0
Cu 4.74447000 4.47313000 -1.1183351400000028 0 0 0
Cu 1.58149000 2.23656500 -3.3547383200000027 0 0 0
Cu 1.58149000 6.70969500 -3.3547383200000027 0 0 0
Cu 4.66330793 4.47304054 3.26980147
Cu 4.59720165 8.94617054 3.24789952
Cu 1.48033790 6.71479437 1.17309002
Cu 1.48033790 2.23146563 1.17282293
Pd 1.58149000 0.00000000 -1.1183351400000028 0 0 0
Pd 1.58149000 4.47313000 -1.1183351400000028 0 0 0
Pd 4.74447000 2.23656500 -3.3547383200000027 0 0 0
Pd 4.74447000 6.70969500 -3.3547383200000027 0 0 0
Pd 1.67777111 4.47313000 3.25430985
Pd 1.75146855 0.00008946 3.62210242
Pd 4.85289695 6.71470491 1.16267324
Pd 4.85289695 2.23155509 1.16267324
C 1.29315274 0.00026839 5.53451694
O 1.26013123 0.00008946 6.69238243
