&CONTROL
calculation = 'relax'
prefix = 'scf'
pseudo_dir = '/vol0004/mdt0/data/hp150275/u10028/POT_KKJUS'
outdir = './data'
tprnfor = .true.
nstep = 50
disk_io = 'non'
/
&SYSTEM
ibrav = 0
ecutwfc = 50.0
ecutrho = 400
occupations = 'smearing'
smearing = 'mp'
degauss = 0.01
assume_isolated = 'esm'
esm_bc = 'bc1'
input_dft = 'BEEF-VDW'
nosym = .true.
nspin = 1
ntyp = 4
nat = 34
/
&ELECTRONS
electron_maxstep = 200
mixing_beta = 0.1
conv_thr = 1e-06
/
&IONS
ion_dynamics = 'bfgs'
upscale = 1.0
/
&CELL
/

K_POINTS {automatic}
7 7 2 0  0  0

ATOMIC_SPECIES
Al 26.98 Al.pbe-nl-rrkjus_psl.1.0.0.UPF
C 12.01 C.pbe-n-rrkjus_psl.1.0.0.UPF
O 15.99 O.pbe-n-rrkjus_psl.1.0.0.UPF
Zr 91.22 Zr.pbe-spn-rrkjus_psl.1.0.0.UPF

CELL_PARAMETERS {angstrom}
8.19423000 0.00000000 0.00000000
0.00000000 8.19423000 0.00000000
0.00000000 0.00000000 26.14570000

ATOMIC_POSITIONS {angstrom}
Zr 0.00852200 0.00786646 2.98531603
Zr 0.00000000 0.00000000 -1.024388530000003 0 0 0
Zr 0.00893171 4.08933048 2.98479311
Zr 0.00000000 4.09711500 -1.024388530000003 0 0 0
Zr 4.08810135 0.00762063 2.98479311
Zr 4.09711500 0.00000000 -1.024388530000003 0 0 0
Zr 4.08867494 4.08933048 2.98479311
Zr 4.09711500 4.09711500 -1.024388530000003 0 0 0
Al 8.16972925 2.04847556 1.04164469
Al 2.04822973 8.16940148 1.04190615
Al 2.04863944 2.04855750 3.16545990
Al 0.00000000 2.04855750 -3.0729041200000005 0 0 0
Al 2.04855750 0.00000000 -3.0729041200000005 0 0 0
Al 2.04855750 2.04855750 -1.024388530000003 0 0 0
Al 8.17964427 6.14583638 1.05367171
Al 2.04872138 4.12186157 1.04164469
Al 2.04847556 6.14559056 3.15996930
Al 0.00000000 6.14567250 -3.0729041200000005 0 0 0
Al 2.04855750 4.09711500 -3.0729041200000005 0 0 0
Al 2.04855750 6.14567250 -1.024388530000003 0 0 0
Al 4.12153381 2.04855750 1.04164469
Al 6.14559056 8.17931650 1.05341025
Al 6.14559056 2.04855750 3.16075367
Al 4.09711500 2.04855750 -3.0729041200000005 0 0 0
Al 6.14567250 0.00000000 -3.0729041200000005 0 0 0
Al 6.14567250 2.04855750 -1.024388530000003 0 0 0
Al 4.11170073 6.14567250 1.05341025
Al 6.14583638 4.11194656 1.05314880
Al 6.14575444 6.14567250 3.21748984
Al 4.09711500 6.14567250 -3.0729041200000005 0 0 0
Al 6.14567250 4.09711500 -3.0729041200000005 0 0 0
Al 6.14567250 6.14567250 -1.024388530000003 0 0 0
C 2.04863944 2.04913110 5.14913416
O 2.04831167 2.04904915 6.31340218
