&CONTROL
calculation = 'relax'
prefix = 'scf'
pseudo_dir = '/vol0004/mdt0/data/hp150275/u10028/POT_KKJUS'
outdir = './data'
tprnfor = .true.
nstep = 50
disk_io = 'non'
/
&SYSTEM
ibrav = 0
ecutwfc = 50.0
ecutrho = 400
occupations = 'smearing'
smearing = 'mp'
degauss = 0.01
assume_isolated = 'esm'
esm_bc = 'bc1'
input_dft = 'BEEF-VDW'
nosym = .true.
nspin = 1
ntyp = 3
nat = 34
/
&ELECTRONS
electron_maxstep = 200
mixing_beta = 0.1
conv_thr = 1e-06
/
&IONS
ion_dynamics = 'bfgs'
upscale = 1.0
/
&CELL
/

K_POINTS {automatic}
6 6 1 0 0 0

ATOMIC_SPECIES
C 12.01 C.pbe-n-rrkjus_psl.1.0.0.UPF
O 15.99 O.pbe-n-rrkjus_psl.1.0.0.UPF
Y 88.90 Y.pbe-spn-rrkjus_psl.1.0.0.UPF

CELL_PARAMETERS {angstrom}
10.10200000 0.00000000 0.00000000
0.00000000 10.10200000 0.00000000
0.00000000 0.00000000 27.57650000

ATOMIC_POSITIONS {angstrom}
Y 0.00000000 0.00000000 -3.7881837999999988 0 0 0
Y 2.52550000 2.52550000 -3.7881837999999988 0 0 0
Y 2.52550000 0.00000000 -1.2627279399999978 0 0 0
Y 0.00000000 2.52550000 -1.2627279399999978 0 0 0
Y 10.05795528 0.00000000 1.26714017
Y 2.52509592 2.56914064 1.26686441
Y 2.52610612 0.00000000 3.55516238
Y 0.05253040 2.47216144 3.69249335
Y 0.00000000 5.05100000 -3.7881837999999988 0 0 0
Y 2.52550000 7.57650000 -3.7881837999999988 0 0 0
Y 2.52550000 5.05100000 -1.2627279399999978 0 0 0
Y 0.00000000 7.57650000 -1.2627279399999978 0 0 0
Y 10.09038270 5.05100000 1.33718448
Y 2.52509592 7.53285936 1.26686441
Y 2.52438878 5.05100000 3.67153521
Y 0.05253040 7.62983856 3.69249335
Y 5.05100000 0.00000000 -3.7881837999999988 0 0 0
Y 7.57650000 2.52550000 -3.7881837999999988 0 0 0
Y 7.57650000 0.00000000 -1.2627279399999978 0 0 0
Y 5.05100000 2.52550000 -1.2627279399999978 0 0 0
Y 5.09413554 0.00000000 1.26686441
Y 7.57599490 2.53661220 1.33746025
Y 7.57548980 0.00000000 3.67153521
Y 4.99715634 2.47266654 3.69276911
Y 5.05100000 5.05100000 -3.7881837999999988 0 0 0
Y 7.57650000 7.57650000 -3.7881837999999988 0 0 0
Y 7.57650000 5.05100000 -1.2627279399999978 0 0 0
Y 5.05100000 7.57650000 -1.2627279399999978 0 0 0
Y 5.06160710 5.05100000 1.33773601
Y 7.57599490 7.56538780 1.33746025
Y 7.57609592 5.05100000 3.73275504
Y 4.99715634 7.62933346 3.69276911
C 2.53923872 0.00000000 5.96672731
O 2.54085504 0.00000000 7.13183443
