&CONTROL
calculation = 'relax'
prefix = 'scf'
pseudo_dir = '/vol0004/mdt0/data/hp150275/u10028/POT_KKJUS'
outdir = './data'
tprnfor = .true.
nstep = 50
disk_io = 'non'
/
&SYSTEM
ibrav = 0
ecutwfc = 50.0
ecutrho = 400
occupations = 'smearing'
smearing = 'mp'
degauss = 0.01
assume_isolated = 'esm'
esm_bc = 'bc1'
input_dft = 'BEEF-VDW'
nosym = .true.
nspin = 1
ntyp = 5
nat = 34
/
&ELECTRONS
electron_maxstep = 200
mixing_beta = 0.1
conv_thr = 1e-06
/
&IONS
ion_dynamics = 'bfgs'
upscale = 1.0
/
&CELL
/

K_POINTS {automatic}
9 6 2 0  0  0

ATOMIC_SPECIES
Al 26.98 Al.pbe-nl-rrkjus_psl.1.0.0.UPF
C 12.01 C.pbe-n-rrkjus_psl.1.0.0.UPF
O 15.99 O.pbe-n-rrkjus_psl.1.0.0.UPF
Pd 106.4 Pd.pbe-n-rrkjus_psl.1.0.0.UPF
Sc 44.95 Sc.pbe-spn-rrkjus_psl.1.0.0.UPF

CELL_PARAMETERS {angstrom}
6.41477000 0.00000000 0.00000000
0.00000000 9.07185000 0.00000000
0.00000000 0.00000000 26.80390000

ATOMIC_POSITIONS {angstrom}
Sc 0.00000000 0.00000000 -3.4019509899999996 0 0 0
Sc 3.20738500 2.26796250 -1.134073009999998 0 0 0
Sc 3.20738500 6.80388750 -1.134073009999998 0 0 0
Sc 0.00000000 4.53592500 -3.4019509899999996 0 0 0
Sc 0.00000000 4.54944206 1.10860930
Sc 3.20738500 6.80388750 3.46279584
Sc 3.20738500 2.26796250 3.46091957
Sc 0.00000000 9.05842366 1.10860930
Al 0.00000000 6.80388750 -1.134073009999998 0 0 0
Al 3.20738500 0.00000000 -3.4019509899999996 0 0 0
Al 0.00000000 2.26796250 -1.134073009999998 0 0 0
Al 3.20738500 4.53592500 -3.4019509899999996 0 0 0
Al 0.00000000 2.26796250 3.34164221
Al 3.20738500 4.53129836 1.21341255
Al 0.00000000 6.80388750 3.29902401
Al 3.20738500 0.00462664 1.21341255
Pd 1.60369250 0.00000000 -1.134073009999998 0 0 0
Pd 4.81107750 4.53592500 -1.134073009999998 0 0 0
Pd 4.81107750 0.00000000 -1.134073009999998 0 0 0
Pd 1.60369250 4.53592500 -1.134073009999998 0 0 0
Pd 4.81107750 6.80388750 -3.4019509899999996 0 0 0
Pd 1.60369250 2.26796250 -3.4019509899999996 0 0 0
Pd 1.60369250 6.80388750 -3.4019509899999996 0 0 0
Pd 4.81107750 2.26796250 -3.4019509899999996 0 0 0
Pd 1.52863969 4.55606451 3.28535402
Pd 4.88613031 9.05171049 3.28535402
Pd 4.88613031 4.55606451 3.28535402
Pd 1.52863969 9.05171049 3.28535402
Pd 4.77598871 2.26796250 1.15498005
Pd 1.65879537 6.80388750 1.13112458
Pd 1.63878129 2.26796250 1.15498005
Pd 4.75597463 6.80388750 1.13112458
C 0.00000000 2.26796250 5.33960492
O 0.00000000 2.26796250 6.49780144
