&CONTROL
calculation = 'relax'
prefix = 'scf'
pseudo_dir = '/vol0403/data/hp230205/u10028/POT_HYBRID_KKJUS_GBRV'
outdir = './data'
tprnfor = .true.
nstep = 50
disk_io = 'non'
/
&SYSTEM
ibrav = 0
ecutwfc = 50.0
ecutrho = 400
occupations = 'smearing'
smearing = 'mp'
degauss = 0.01
assume_isolated = 'esm'
esm_bc = 'bc1'
input_dft = 'BEEF-VDW'
nosym = .true.
nspin = 1
ntyp = 5
nat = 17
/
&ELECTRONS
electron_maxstep = 200
mixing_beta = 0.1
conv_thr = 1e-06
/
&IONS
ion_dynamics = 'bfgs'
upscale = 1.0
/
&CELL
/

K_POINTS {automatic}
11 7 2 0  0  0

ATOMIC_SPECIES
C 12.01 C.pbe-n-rrkjus_psl.1.0.0.UPF
In 114.8 In.pbe-dn-rrkjus_psl.1.0.0.UPF
Pd 106.4 Pd.pbe-n-rrkjus_psl.1.0.0.UPF
Sc 44.95 Sc.pbe-spn-rrkjus_psl.1.0.0.UPF
Y 88.90 Y.pbe-spn-rrkjus_psl.1.0.0.UPF


CELL_PARAMETERS {angstrom}
6.25545000 0.00000000 0.00000000
0.00000000 9.64246000 0.00000000
0.00000000 0.00000000 24.46440000

ATOMIC_POSITIONS {angstrom}
Y 2.71836835 0.25755011 2.36668606
Y 5.29398733 0.00000000 -0.7439624000000009 0 0 0
Y 2.71818069 4.56387274 2.36668606
Y 5.29398733 4.82123000 -0.7439624000000009 0 0 0
Sc 0.60921828 2.41061500 0.82591814
Sc 3.24939350 2.41061500 -2.2321318600000026 0 0 0
Sc 1.08750998 7.23184500 0.36867851
Sc 3.24939350 7.23184500 -2.2321318600000026 0 0 0
In 5.75520166 8.79874475 2.41952916
In 2.16626234 0.00000000 -0.7439624000000009 0 0 0
In 5.75488889 5.66523452 2.41952916
In 2.16626234 4.82123000 -0.7439624000000009 0 0 0
Pd 3.69840970 2.41061500 0.35204272
Pd 0.12166850 2.41061500 -2.2321318600000026 0 0 0
Pd 3.94343568 7.23194142 0.43008415
Pd 0.12166850 7.23184500 -2.2321318600000026 0 0 0
C 2.20479591 2.41071142 2.13745463
