&CONTROL
calculation = 'relax'
prefix = 'scf'
pseudo_dir = '/vol0004/mdt0/data/hp150275/u10028/POT_KKJUS'
outdir = './data'
tprnfor = .true.
nstep = 50
disk_io = 'non'
/
&SYSTEM
ibrav = 0
ecutwfc = 50.0
ecutrho = 400
occupations = 'smearing'
smearing = 'mp'
degauss = 0.01
assume_isolated = 'esm'
esm_bc = 'bc1'
input_dft = 'BEEF-VDW'
nosym = .true.
nspin = 1
ntyp = 5
nat = 34
/
&ELECTRONS
electron_maxstep = 200
mixing_beta = 0.1
conv_thr = 1e-06
/
&IONS
ion_dynamics = 'bfgs'
upscale = 1.0
/
&CELL
/

K_POINTS {automatic}
9 6 2 0  0  0

ATOMIC_SPECIES
C 12.01 C.pbe-n-rrkjus_psl.1.0.0.UPF
Li 6.941 Li.pbe-sl-rrkjus_psl.1.0.0.UPF
Ni 58.69 Ni.pbe-spn-rrkjus_psl.1.0.0.UPF
O 15.99 O.pbe-n-rrkjus_psl.1.0.0.UPF
Sn 118.7 Sn.pbe-dn-rrkjus_psl.1.0.0.UPF

CELL_PARAMETERS {angstrom}
6.05884000 0.00000000 0.00000000
0.00000000 8.56849000 0.00000000
0.00000000 0.00000000 26.42640000

ATOMIC_POSITIONS {angstrom}
Li 0.00000000 0.00000000 -3.213185980000002 0 0 0
Li 3.02942000 2.14212250 -1.0710619900000005 0 0 0
Li 3.02942000 6.42636750 -1.0710619900000005 0 0 0
Li 0.00000000 4.28424500 -3.213185980000002 0 0 0
Li 0.00006059 4.26856466 0.93417324
Li 3.02942000 6.42653887 3.40689149
Li 3.02942000 2.14177976 3.40530590
Li 0.00000000 0.01585171 0.93311618
Ni 1.51471000 0.00000000 -1.0710619900000005 0 0 0
Ni 4.54413000 4.28424500 -1.0710619900000005 0 0 0
Ni 4.54413000 0.00000000 -1.0710619900000005 0 0 0
Ni 1.51471000 4.28424500 -1.0710619900000005 0 0 0
Ni 4.54413000 6.42636750 -3.213185980000002 0 0 0
Ni 1.51471000 2.14212250 -3.213185980000002 0 0 0
Ni 1.51471000 6.42636750 -3.213185980000002 0 0 0
Ni 4.54413000 2.14212250 -3.213185980000002 0 0 0
Ni 1.31016356 4.28964315 2.96002106
Ni 4.74946409 8.56309185 2.95922827
Ni 4.74891879 4.28972883 2.96028533
Ni 1.30937591 8.56309185 2.95922827
Ni 4.57775656 2.14195113 1.14584870
Ni 1.44424569 6.42628182 1.17756038
Ni 1.48114403 2.14195113 1.14611297
Ni 4.61471549 6.42636750 1.17782465
Sn 0.00000000 6.42636750 -1.0710619900000005 0 0 0
Sn 3.02942000 0.00000000 -3.213185980000002 0 0 0
Sn 0.00000000 2.14212250 -1.0710619900000005 0 0 0
Sn 3.02942000 4.28424500 -3.213185980000002 0 0 0
Sn 0.00000000 2.14237955 3.43041098
Sn 3.02948059 4.29812595 1.06524818
Sn 0.00006059 6.42619613 3.49013465
Sn 3.02948059 8.55435199 1.06498392
C 6.05811294 2.13946627 7.58886929
O 0.00012118 2.14263661 8.72361890
