&CONTROL
calculation = 'relax'
prefix = 'scf'
pseudo_dir = '/vol0403/data/hp230205/u10028/POT_HYBRID_KKJUS_GBRV'
outdir = './data'
tprnfor = .true.
nstep = 50
disk_io = 'non'
/
&SYSTEM
ibrav = 0
ecutwfc = 50.0
ecutrho = 400
occupations = 'smearing'
smearing = 'mp'
degauss = 0.01
assume_isolated = 'esm'
esm_bc = 'bc1'
input_dft = 'BEEF-VDW'
nosym = .true.
nspin = 1
ntyp = 6
nat = 18
/
&ELECTRONS
electron_maxstep = 200
mixing_beta = 0.1
conv_thr = 1e-06
/
&IONS
ion_dynamics = 'bfgs'
upscale = 1.0
/
&CELL
/

K_POINTS {automatic}
11 7 2 0  0  0

ATOMIC_SPECIES
C 12.01 C.pbe-n-rrkjus_psl.1.0.0.UPF
Li 6.941 Li.pbe-sl-rrkjus_psl.1.0.0.UPF
O 15.99 O.pbe-n-rrkjus_psl.1.0.0.UPF
Pb 207.2 Pb.pbe-dn-rrkjus_psl.1.0.0.UPF
Sn 118.7 Sn.pbe-dn-rrkjus_psl.1.0.0.UPF
Y 88.90 Y.pbe-spn-rrkjus_psl.1.0.0.UPF


CELL_PARAMETERS {angstrom}
6.55220000 0.00000000 0.00000000
0.00000000 9.36828000 0.00000000
0.00000000 0.00000000 24.89710000

ATOMIC_POSITIONS {angstrom}
Li 0.00000000 0.00000000 -2.4486297899999983 0 0 0
Li 2.97345388 9.36762422 0.74840683
Li 0.00000000 4.68414000 -2.4486297899999983 0 0 0
Li 2.97292971 4.68488946 0.74915374
Y 4.77760215 2.34207000 -0.8161269399999966 0 0 0
Y 1.02273290 2.34132054 2.44514419
Y 4.77760215 7.02621000 -0.8161269399999966 0 0 0
Y 1.02627109 7.02349320 2.42298577
Sn 3.27610000 0.00000000 -2.4486297899999983 0 0 0
Sn 6.00319116 9.34588981 1.06783662
Sn 3.27610000 4.68414000 -2.4486297899999983 0 0 0
Sn 6.00286355 4.70371971 1.06908147
Pb 1.50150215 2.34207000 -0.8161269399999966 0 0 0
Pb 4.37077605 2.33991530 2.76706369
Pb 1.50150215 7.02621000 -0.8161269399999966 0 0 0
Pb 4.36173402 7.02630368 2.76507193
C 1.91671507 2.35368667 4.72322884
O 2.28730750 2.35612242 5.81745639
