&CONTROL
calculation = 'relax'
prefix = 'scf'
pseudo_dir = '/vol0403/data/hp230205/u10028/POT_HYBRID_KKJUS_GBRV'
outdir = './data'
tprnfor = .true.
nstep = 50
disk_io = 'non'
/
&SYSTEM
ibrav = 0
ecutwfc = 50.0
ecutrho = 400
occupations = 'smearing'
smearing = 'mp'
degauss = 0.01
assume_isolated = 'esm'
esm_bc = 'bc1'
input_dft = 'BEEF-VDW'
nosym = .true.
nspin = 1
ntyp = 5
nat = 33
/
&ELECTRONS
electron_maxstep = 200
mixing_beta = 0.1
conv_thr = 1e-06
/
&IONS
ion_dynamics = 'bfgs'
upscale = 1.0
/
&CELL
/

K_POINTS {automatic}
9 6 2 0  0  0

ATOMIC_SPECIES
C 12.01 C.pbe-n-rrkjus_psl.1.0.0.UPF
Cu 63.54 Cu.pbe-dn-rrkjus_psl.1.0.0.UPF
In 114.8 In.pbe-dn-rrkjus_psl.1.0.0.UPF
Pd 106.4 Pd.pbe-n-rrkjus_psl.1.0.0.UPF
Sc 44.95 Sc.pbe-spn-rrkjus_psl.1.0.0.UPF


CELL_PARAMETERS {angstrom}
6.53831000 0.00000000 0.00000000
0.00000000 9.24656000 0.00000000
0.00000000 0.00000000 26.93490000

ATOMIC_POSITIONS {angstrom}
Sc 4.90373250 0.00000000 -1.1557765599999996 0 0 0
Sc 4.90373250 4.62328000 -1.1557765599999996 0 0 0
Sc 1.63457750 2.31164000 -3.467329679999999 0 0 0
Sc 1.63457750 6.93492000 -3.467329679999999 0 0 0
Sc 4.95342366 4.62328000 3.41480662
Sc 5.14780761 0.00000000 3.46732968
Sc 1.59717837 6.88184475 1.14473325
Sc 1.59717837 2.36462279 1.14473325
In 1.63457750 0.00000000 -1.1557765599999996 0 0 0
In 1.63457750 4.62328000 -1.1557765599999996 0 0 0
In 4.90373250 2.31164000 -3.467329679999999 0 0 0
In 4.90373250 6.93492000 -3.467329679999999 0 0 0
In 1.84517647 4.62328000 3.63432606
In 1.19029934 0.00000000 4.79710569
In 4.87751388 7.01980342 1.20345133
In 4.87751388 2.22684904 1.20345133
Cu 0.00000000 0.00000000 -3.467329679999999 0 0 0
Cu 0.00000000 4.62328000 -3.467329679999999 0 0 0
Cu 3.26915500 6.93492000 -1.1557765599999996 0 0 0
Cu 3.26915500 2.31164000 -1.1557765599999996 0 0 0
Cu 6.50319928 4.62318753 1.20129654
Cu 0.09245170 0.00000000 1.13530603
Cu 2.98983840 1.99956860 3.50800138
Cu 2.98996916 7.24680647 3.50800138
Pd 0.00000000 2.31164000 -1.1557765599999996 0 0 0
Pd 0.00000000 6.93492000 -1.1557765599999996 0 0 0
Pd 3.26915500 4.62328000 -3.467329679999999 0 0 0
Pd 3.26915500 0.00000000 -3.467329679999999 0 0 0
Pd 0.12161257 6.84254687 3.40564876
Pd 0.12167795 2.40401313 3.40564876
Pd 2.96492744 0.00000000 1.44963632
Pd 3.38697535 4.62328000 1.12560947
C 3.12400452 0.00000000 3.75068483
