&CONTROL
calculation = 'relax'
prefix = 'scf'
pseudo_dir = '/vol0004/mdt0/data/hp150275/u10028/POT_HYBRID_KKJUS_GBRV'
outdir = './data'
tprnfor = .true.
nstep = 50
disk_io = 'non'
/
&SYSTEM
ibrav = 0
ecutwfc = 50.0
ecutrho = 400
occupations = 'smearing'
smearing = 'mp'
degauss = 0.01
assume_isolated = 'esm'
esm_bc = 'bc1'
input_dft = 'BEEF-VDW'
nosym = .true.
nspin = 2
ntyp = 4
nat = 33
starting_magnetization(1) = 0.0
starting_magnetization(2) = 0.0
starting_magnetization(3) = 0.1
starting_magnetization(4) = 0.1
/
&ELECTRONS
electron_maxstep = 300
mixing_beta = 0.1
conv_thr = 1e-06
/
&IONS
ion_dynamics = 'bfgs'
upscale = 1.0
/
&CELL
/

K_POINTS {automatic}
8 6 1 0 0 0

ATOMIC_SPECIES
Al 26.98 Al.pbe-nl-rrkjus_psl.1.0.0.UPF
C 12.01 C.pbe-n-rrkjus_psl.1.0.0.UPF
Co 58.93 co_pbe_v1.2.uspp.F.UPF
Mn 54.93 mn_pbe_v1.5.uspp.F.UPF

CELL_PARAMETERS {angstrom}
5.71239000 0.00000000 0.00000000
0.00000000 8.07854000 0.00000000
0.00000000 0.00000000 26.05890000

ATOMIC_POSITIONS {angstrom}
Mn 0.00000000 0.00000000 -3.0293471200000006 0 0 0
Mn 2.85619500 2.01963500 -1.00978237 0 0 0
Mn 2.85619500 6.05890500 -1.00978237 0 0 0
Mn 0.00000000 4.03927000 -3.0293471200000006 0 0 0
Mn 0.00000000 4.03927000 1.01056414
Mn 2.85619500 5.96697121 3.07651373
Mn 2.85619500 2.11156879 3.07651373
Mn 0.00000000 0.00000000 1.03297480
Al 0.00000000 6.05890500 -1.00978237 0 0 0
Al 2.85619500 0.00000000 -3.0293471200000006 0 0 0
Al 0.00000000 2.01963500 -1.00978237 0 0 0
Al 2.85619500 4.03927000 -3.0293471200000006 0 0 0
Al 0.00000000 1.98497806 3.11508091
Al 2.85619500 4.03927000 1.02385418
Al 0.00000000 6.09356194 3.11508091
Al 2.85619500 0.00000000 0.92483036
Co 1.42809750 0.00000000 -1.00978237 0 0 0
Co 4.28429250 4.03927000 -1.00978237 0 0 0
Co 4.28429250 0.00000000 -1.00978237 0 0 0
Co 1.42809750 4.03927000 -1.00978237 0 0 0
Co 4.28429250 6.05890500 -3.0293471200000006 0 0 0
Co 1.42809750 2.01963500 -3.0293471200000006 0 0 0
Co 1.42809750 6.05890500 -3.0293471200000006 0 0 0
Co 4.28429250 2.01963500 -3.0293471200000006 0 0 0
Co 1.33618514 4.03927000 3.01501473
Co 4.12902974 0.00000000 3.03768597
Co 4.37620486 4.03927000 3.01501473
Co 1.58336026 0.00000000 3.03768597
Co 4.28394976 2.01446473 1.04782837
Co 1.42844024 6.06407527 1.04782837
Co 1.42844024 2.01446473 1.04782837
Co 4.28394976 6.06407527 1.04782837
C 0.00000000 0.00000000 3.77280754
