&CONTROL
calculation = 'relax'
prefix = 'scf'
pseudo_dir = '/vol0403/data/hp230205/u10028/POT_HYBRID_KKJUS_GBRV'
outdir = './data'
tprnfor = .true.
nstep = 70
disk_io = 'non'
/
&SYSTEM
ibrav = 0
ecutwfc = 50.0
ecutrho = 400
occupations = 'smearing'
smearing = 'mp'
degauss = 0.01
assume_isolated = 'esm'
esm_bc = 'bc1'
input_dft = 'BEEF-VDW'
nosym = .true.
nspin = 1
ntyp = 5
nat = 17
/
&ELECTRONS
electron_maxstep = 200
mixing_beta = 0.1
conv_thr = 1e-06
/
&IONS
ion_dynamics = 'bfgs'
upscale = 1.0
/
&CELL
/

K_POINTS {automatic}
6 6 1 0 0 0

ATOMIC_SPECIES
C 12.01 C.pbe-n-rrkjus_psl.1.0.0.UPF
Ga 69.72 Ga.pbe-dnl-rrkjus_psl.1.0.0.UPF
Pd 106.4 Pd.pbe-n-rrkjus_psl.1.0.0.UPF
Sn 118.7 Sn.pbe-dn-rrkjus_psl.1.0.0.UPF
Y 88.90 Y.pbe-spn-rrkjus_psl.1.0.0.UPF


CELL_PARAMETERS {angstrom}
6.16320000 0.00000000 0.00000000
-0.00000000 8.82498000 0.00000000
0.00000000 0.00000000 24.61890000

ATOMIC_POSITIONS {angstrom}
Y 3.08160000 -0.00000000 2.30949901
Y 6.04375718 -0.00000000 -0.7698329999999984 0 0 0
Y 3.08160000 4.41249000 2.30949901
Y 6.04375718 4.41249000 -0.7698329999999984 0 0 0
Ga 0.00000000 0.00000000 2.30949901
Ga 2.96215718 0.00000000 -0.7698329999999984 0 0 0
Ga 0.00000000 4.41249000 2.30949901
Ga 2.96215718 4.41249000 -0.7698329999999984 0 0 0
Sn 1.48107859 2.20624500 0.76983300
Sn 4.44323578 2.20624500 -2.3094990099999997 0 0 0
Sn 1.48107859 6.61873500 0.76983300
Sn 4.44323578 6.61873500 -2.3094990099999997 0 0 0
Pd 4.56267859 2.20624500 0.76983300
Pd 1.36163578 2.20624500 -2.3094990099999997 0 0 0
Pd 4.56267859 6.61873500 0.76983300
Pd 1.36163578 6.61873500 -2.3094990099999997 0 0 0
C 1.48107859 2.20624500 3.10936707
