&CONTROL
calculation = 'relax'
prefix = 'scf'
pseudo_dir = '/vol0004/mdt0/data/hp150275/u10028/POT_KKJUS'
outdir = './data'
tprnfor = .true.
nstep = 50
disk_io = 'non'
/
&SYSTEM
ibrav = 0
ecutwfc = 50.0
ecutrho = 400
occupations = 'smearing'
smearing = 'mp'
degauss = 0.01
assume_isolated = 'esm'
esm_bc = 'bc1'
input_dft = 'BEEF-VDW'
nosym = .true.
nspin = 1
ntyp = 3
nat = 33
/
&ELECTRONS
electron_maxstep = 200
mixing_beta = 0.1
conv_thr = 1e-06
/
&IONS
ion_dynamics = 'bfgs'
upscale = 1.0
/
&CELL
/

K_POINTS {automatic}
6 6 1 0 0 0

ATOMIC_SPECIES
C 12.01 C.pbe-n-rrkjus_psl.1.0.0.UPF
Pb 207.2 Pb.pbe-dn-rrkjus_psl.1.0.0.UPF
Y 88.90 Y.pbe-spn-rrkjus_psl.1.0.0.UPF

CELL_PARAMETERS {angstrom}
9.91485000 0.00000000 0.00000000
0.00000000 9.91485000 0.00000000
0.00000000 0.00000000 27.43610000

ATOMIC_POSITIONS {angstrom}
Y 0.00000000 0.00000000 -3.7181402699999992 0 0 0
Y 0.00931996 0.00922081 1.06945918
Y 0.00000000 4.95742500 -3.7181402699999992 0 0 0
Y 0.00922081 4.94820419 1.06945918
Y 4.95742500 0.00000000 -3.7181402699999992 0 0 0
Y 4.94820419 0.00922081 1.06945918
Y 4.95742500 4.95742500 -3.7181402699999992 0 0 0
Y 4.94810504 4.94820419 1.06945918
Pb 0.00000000 2.47871250 -1.239288639999998 0 0 0
Pb 2.47871250 0.00000000 -1.239288639999998 0 0 0
Pb 2.47871250 2.47871250 -3.7181402699999992 0 0 0
Pb 0.06523971 2.47871250 3.88275687
Pb 2.47871250 0.06523971 3.88275687
Pb 2.47871250 2.47871250 1.48127504
Pb 0.00000000 7.43613750 -1.239288639999998 0 0 0
Pb 2.47871250 4.95742500 -1.239288639999998 0 0 0
Pb 2.47871250 7.43613750 -3.7181402699999992 0 0 0
Pb 9.84425627 7.43613750 3.68604003
Pb 2.47871250 4.89218529 3.88275687
Pb 2.47871250 7.43613750 1.30733016
Pb 4.95742500 2.47871250 -1.239288639999998 0 0 0
Pb 7.43613750 0.00000000 -1.239288639999998 0 0 0
Pb 7.43613750 2.47871250 -3.7181402699999992 0 0 0
Pb 4.89218529 2.47871250 3.88275687
Pb 7.43613750 9.84425627 3.68604003
Pb 7.43623665 2.47871250 1.30760453
Pb 4.95742500 7.43613750 -1.239288639999998 0 0 0
Pb 7.43613750 4.95742500 -1.239288639999998 0 0 0
Pb 7.43613750 7.43613750 -3.7181402699999992 0 0 0
Pb 5.02801873 7.43613750 3.68604003
Pb 7.43613750 5.02801873 3.68604003
Pb 7.43603835 7.43613750 1.33943040
C 2.47871250 2.47871250 4.28661626
