&CONTROL
calculation = 'relax'
prefix = 'scf'
pseudo_dir = '/vol0004/mdt0/data/hp150275/u10028/POT_KKJUS'
outdir = './data'
tprnfor = .true.
nstep = 50
disk_io = 'non'
/
&SYSTEM
ibrav = 0
ecutwfc = 50.0
ecutrho = 400
occupations = 'smearing'
smearing = 'mp'
degauss = 0.01
assume_isolated = 'esm'
esm_bc = 'bc1'
input_dft = 'BEEF-VDW'
nosym = .true.
nspin = 1
ntyp = 5
nat = 34
/
&ELECTRONS
electron_maxstep = 200
mixing_beta = 0.1
conv_thr = 1e-06
/
&IONS
ion_dynamics = 'bfgs'
upscale = 1.0
/
&CELL
/

K_POINTS {automatic}
8 6 1 0 0 0

ATOMIC_SPECIES
C 12.01 C.pbe-n-rrkjus_psl.1.0.0.UPF
Ga 69.72 Ga.pbe-dnl-rrkjus_psl.1.0.0.UPF
Ni 58.69 Ni.pbe-spn-rrkjus_psl.1.0.0.UPF
O 15.99 O.pbe-n-rrkjus_psl.1.0.0.UPF
Zr 91.22 Zr.pbe-spn-rrkjus_psl.1.0.0.UPF

CELL_PARAMETERS {angstrom}
6.14888000 0.00000000 0.00000000
0.00000000 8.69583000 0.00000000
0.00000000 0.00000000 26.52190000

ATOMIC_POSITIONS {angstrom}
Zr 0.00000000 0.00000000 -3.2608676099999983 0 0 0
Zr 3.07444000 2.17395750 -1.086867459999997 0 0 0
Zr 3.07444000 6.52187250 -1.086867459999997 0 0 0
Zr 0.00000000 4.34791500 -3.2608676099999983 0 0 0
Zr 0.00000000 4.37904607 1.06246731
Zr 3.07444000 6.52178554 3.41840769
Zr 3.07444000 2.17413142 3.34892031
Zr 0.00000000 8.66469893 1.06220209
Ga 0.00000000 6.52187250 -1.086867459999997 0 0 0
Ga 3.07444000 0.00000000 -3.2608676099999983 0 0 0
Ga 0.00000000 2.17395750 -1.086867459999997 0 0 0
Ga 3.07444000 4.34791500 -3.2608676099999983 0 0 0
Ga 0.00000000 2.17369663 3.19774548
Ga 3.07444000 4.32982767 1.12744597
Ga 0.00000000 6.52230729 3.22559348
Ga 3.07444000 0.01834820 1.12718075
Ni 1.53722000 0.00000000 -1.086867459999997 0 0 0
Ni 4.61166000 4.34791500 -1.086867459999997 0 0 0
Ni 4.61166000 0.00000000 -1.086867459999997 0 0 0
Ni 1.53722000 4.34791500 -1.086867459999997 0 0 0
Ni 4.61166000 6.52187250 -3.2608676099999983 0 0 0
Ni 1.53722000 2.17395750 -3.2608676099999983 0 0 0
Ni 1.53722000 6.52187250 -3.2608676099999983 0 0 0
Ni 4.61166000 2.17395750 -3.2608676099999983 0 0 0
Ni 1.46583150 4.35565429 3.14814953
Ni 4.68317147 8.68826463 3.14761909
Ni 4.68310999 4.35565429 3.14814953
Ni 1.46577001 8.68826463 3.14761909
Ni 4.56289938 2.17421837 1.10118929
Ni 1.69598408 6.52195946 1.21284649
Ni 1.58604211 2.17413142 1.10118929
Ni 4.45283443 6.52195946 1.21284649
C 3.07444000 2.17404446 5.69213018
O 3.07444000 2.17404446 6.83973279
