&CONTROL
calculation = 'relax'
prefix = 'scf'
pseudo_dir = '/vol0004/mdt0/data/hp150275/u10028/POT_KKJUS'
outdir = './data'
tprnfor = .true.
nstep = 50
disk_io = 'non'
/
&SYSTEM
ibrav = 0
ecutwfc = 50.0
ecutrho = 400
occupations = 'smearing'
smearing = 'mp'
degauss = 0.01
assume_isolated = 'esm'
esm_bc = 'bc1'
input_dft = 'BEEF-VDW'
nosym = .true.
nspin = 1
ntyp = 5
nat = 34
/
&ELECTRONS
electron_maxstep = 200
mixing_beta = 0.1
conv_thr = 1e-06
/
&IONS
ion_dynamics = 'bfgs'
upscale = 1.0
/
&CELL
/

K_POINTS {automatic}
8 6 1 0 0 0

ATOMIC_SPECIES
Al 26.98 Al.pbe-nl-rrkjus_psl.1.0.0.UPF
C 12.01 C.pbe-n-rrkjus_psl.1.0.0.UPF
O 15.99 O.pbe-n-rrkjus_psl.1.0.0.UPF
Pd 106.4 Pd.pbe-n-rrkjus_psl.1.0.0.UPF
Zr 91.22 Zr.pbe-spn-rrkjus_psl.1.0.0.UPF

CELL_PARAMETERS {angstrom}
6.48931000 0.00000000 0.00000000
0.00000000 9.17726000 0.00000000
0.00000000 0.00000000 26.88290000

ATOMIC_POSITIONS {angstrom}
Zr 0.00000000 0.00000000 -3.441548860000001 0 0 0
Zr 3.24465500 2.29431500 -1.1470933399999979 0 0 0
Zr 3.24465500 6.88294500 -1.1470933399999979 0 0 0
Zr 0.00000000 4.58863000 -3.441548860000001 0 0 0
Zr 0.00000000 4.59771549 1.13096360
Zr 3.24465500 6.88294500 3.51305737
Zr 3.24465500 2.29431500 3.49585232
Zr 0.00000000 9.16817451 1.13096360
Al 0.00000000 6.88294500 -1.1470933399999979 0 0 0
Al 3.24465500 0.00000000 -3.441548860000001 0 0 0
Al 0.00000000 2.29431500 -1.1470933399999979 0 0 0
Al 3.24465500 4.58863000 -3.441548860000001 0 0 0
Al 0.00000000 2.29431500 3.37380395
Al 3.24465500 4.58541796 1.19413842
Al 0.00000000 6.88294500 3.31036031
Al 3.24465500 0.00321204 1.19413842
Pd 1.62232750 0.00000000 -1.1470933399999979 0 0 0
Pd 4.86698250 4.58863000 -1.1470933399999979 0 0 0
Pd 4.86698250 0.00000000 -1.1470933399999979 0 0 0
Pd 1.62232750 4.58863000 -1.1470933399999979 0 0 0
Pd 4.86698250 6.88294500 -3.441548860000001 0 0 0
Pd 1.62232750 2.29431500 -3.441548860000001 0 0 0
Pd 1.62232750 6.88294500 -3.441548860000001 0 0 0
Pd 4.86698250 2.29431500 -3.441548860000001 0 0 0
Pd 1.59942024 4.61083897 3.32326410
Pd 4.88988976 9.15505103 3.32326410
Pd 4.88988976 4.61083897 3.32353293
Pd 1.59942024 9.15505103 3.32353293
Pd 4.79456180 2.29431500 1.20139680
Pd 1.72661071 6.88294500 1.17155678
Pd 1.69474820 2.29431500 1.20139680
Pd 4.76269929 6.88294500 1.17155678
C 0.00000000 2.29431500 5.37281639
O 0.00000000 2.29431500 6.53093173
