&CONTROL
calculation = 'relax'
prefix = 'scf'
pseudo_dir = '/vol0403/data/hp230205/u10028/POT_HYBRID_KKJUS_GBRV'
outdir = './data'
tprnfor = .true.
nstep = 50
disk_io = 'non'
/
&SYSTEM
ibrav = 0
ecutwfc = 50.0
ecutrho = 400
occupations = 'smearing'
smearing = 'mp'
degauss = 0.01
assume_isolated = 'esm'
esm_bc = 'bc1'
input_dft = 'BEEF-VDW'
nosym = .true.
nspin = 1
ntyp = 6
nat = 18
/
&ELECTRONS
electron_maxstep = 200
mixing_beta = 0.1
conv_thr = 1e-06
/
&IONS
ion_dynamics = 'bfgs'
upscale = 1.0
/
&CELL
/

K_POINTS {automatic}
9 9 2 0  0  0

ATOMIC_SPECIES
C 12.01 C.pbe-n-rrkjus_psl.1.0.0.UPF
Ca 40.07 Ca.pbe-spn-rrkjus_psl.1.0.0.UPF
Ge 72.64 Ge.pbe-dn-rrkjus_psl.1.0.0.UPF
Li 6.941 Li.pbe-sl-rrkjus_psl.1.0.0.UPF
O 15.99 O.pbe-n-rrkjus_psl.1.0.0.UPF
Pd 106.4 Pd.pbe-n-rrkjus_psl.1.0.0.UPF


CELL_PARAMETERS {angstrom}
6.62107000 0.00000000 0.00000000
0.00000000 6.62107000 0.00000000
0.00000000 0.00000000 24.96580000

ATOMIC_POSITIONS {angstrom}
Li 4.96580250 1.65526750 -0.82761627 0 0 0
Li 4.96573629 4.96573629 2.93947329
Li 1.65526750 1.65526750 2.93947329
Li 1.65526750 4.96580250 -0.82761627 0 0 0
Ca 0.00000000 0.00000000 -2.48284881 0 0 0
Ca 6.60517943 3.29471064 0.83310875
Ca 3.32642557 0.01569194 0.83310875
Ca 3.31053500 3.31053500 -2.48284881 0 0 0
Ge 0.00000000 3.31053500 -2.48284881 0 0 0
Ge 6.59955152 0.02178332 0.91574554
Ge 3.33198727 3.28855305 0.91624486
Ge 3.31053500 0.00000000 -2.48284881 0 0 0
Pd 1.65526750 1.65526750 -0.82761627 0 0 0
Pd 1.65546613 4.96633219 2.22994526
Pd 4.96500797 1.65434055 2.55325237
Pd 4.96580250 4.96580250 -0.82761627 0 0 0
C 4.96600113 1.65533371 4.50158340
O 4.96573629 1.65526750 5.66099515
