&CONTROL
calculation = 'relax'
prefix = 'scf'
pseudo_dir = '/vol0004/mdt0/data/hp150275/u10028/POT_KKJUS'
outdir = './data'
tprnfor = .true.
nstep = 50
disk_io = 'non'
/
&SYSTEM
ibrav = 0
ecutwfc = 50.0
ecutrho = 400
occupations = 'smearing'
smearing = 'mp'
degauss = 0.01
assume_isolated = 'esm'
esm_bc = 'bc1'
input_dft = 'BEEF-VDW'
nosym = .true.
nspin = 1
ntyp = 2
nat = 16
/
&ELECTRONS
electron_maxstep = 200
mixing_beta = 0.1
conv_thr = 1e-06
/
&IONS
ion_dynamics = 'bfgs'
upscale = 1.0
/
&CELL
/

K_POINTS {automatic}
8 11 2 0  0  0

ATOMIC_SPECIES
Rh 102.9 Rh.pbe-spn-rrkjus_psl.1.0.0.UPF
Sc 44.95 Sc.pbe-spn-rrkjus_psl.1.0.0.UPF

CELL_PARAMETERS {angstrom}
7.89001000 0.00000000 0.00000000
0.00000000 5.57908000 0.00000000
0.00000000 0.00000000 24.18430000

ATOMIC_POSITIONS {angstrom}
Sc 7.88993110 0.00000000 1.89991861
Sc 0.00000000 2.78954000 -0.6974752100000003 0 0 0
Sc 3.94508390 0.00000000 1.89991861
Sc 3.94500500 2.78954000 -0.6974752100000003 0 0 0
Rh 7.88977330 2.78954000 1.97706653
Rh 1.97242360 4.15072394 0.65055767
Rh 1.97242360 1.42835606 0.65055767
Rh 0.00000000 0.00000000 -0.6974752100000003 0 0 0
Rh 1.97250250 1.39477000 -2.09218379 0 0 0
Rh 1.97250250 4.18431000 -2.09218379 0 0 0
Rh 3.94524170 2.78954000 1.97706653
Rh 5.91758640 4.15072394 0.65031583
Rh 5.91758640 1.42835606 0.65031583
Rh 3.94500500 0.00000000 -0.6974752100000003 0 0 0
Rh 5.91750750 1.39477000 -2.09218379 0 0 0
Rh 5.91750750 4.18431000 -2.09218379 0 0 0
