&CONTROL
calculation = 'relax'
prefix = 'scf'
pseudo_dir = '/vol0403/data/hp230205/u10028/POT_HYBRID_KKJUS_GBRV'
outdir = './data'
tprnfor = .true.
nstep = 50
disk_io = 'non'
/
&SYSTEM
ibrav = 0
ecutwfc = 50.0
ecutrho = 400
occupations = 'smearing'
smearing = 'mp'
degauss = 0.01
assume_isolated = 'esm'
esm_bc = 'bc1'
input_dft = 'BEEF-VDW'
nosym = .true.
nspin = 1
ntyp = 5
nat = 33
/
&ELECTRONS
electron_maxstep = 200
mixing_beta = 0.1
conv_thr = 1e-06
/
&IONS
ion_dynamics = 'bfgs'
upscale = 1.0
/
&CELL
/

K_POINTS {automatic}
7 7 2 0  0  0

ATOMIC_SPECIES
Ag 107.8 Ag.pbe-n-rrkjus_psl.1.0.0.UPF
Al 26.98 Al.pbe-nl-rrkjus_psl.1.0.0.UPF
C 12.01 C.pbe-n-rrkjus_psl.1.0.0.UPF
Li 6.941 Li.pbe-sl-rrkjus_psl.1.0.0.UPF
Sn 118.7 Sn.pbe-dn-rrkjus_psl.1.0.0.UPF


CELL_PARAMETERS {angstrom}
8.66686000 0.00000000 0.00000000
0.00000000 8.16098000 0.00000000
0.00000000 0.00000000 26.42010000

ATOMIC_POSITIONS {angstrom}
Li 0.00000000 2.04024500 1.05891761
Li 0.00000000 2.04024500 -3.210042150000003 0 0 0
Li 0.00000000 6.12073500 1.01849486
Li 0.00000000 6.12073500 -3.210042150000003 0 0 0
Li 4.33343000 2.04024500 0.99973658
Li 4.33343000 2.04024500 -3.210042150000003 0 0 0
Li 4.33343000 6.12073500 0.94081976
Li 4.33343000 6.12073500 -3.210042150000003 0 0 0
Al 1.91606941 2.04024500 3.29220866
Al 2.16671500 2.04024500 -1.070014050000001 0 0 0
Al 2.63611214 6.12073500 3.34874768
Al 2.16671500 6.12073500 -1.070014050000001 0 0 0
Al 6.75079059 2.04024500 3.29220866
Al 6.50014500 2.04024500 -1.070014050000001 0 0 0
Al 6.03074786 6.12073500 3.34874768
Al 6.50014500 6.12073500 -1.070014050000001 0 0 0
Ag 0.00000000 7.60995063 3.41638313
Ag 0.00000000 0.00000000 -1.070014050000001 0 0 0
Ag 0.00000000 4.63151937 3.41638313
Ag 0.00000000 4.08049000 -1.070014050000001 0 0 0
Ag 4.33343000 0.41392491 3.35482430
Ag 4.33343000 0.00000000 -1.070014050000001 0 0 0
Ag 4.33343000 3.66664670 3.35482430
Ag 4.33343000 4.08049000 -1.070014050000001 0 0 0
Sn 2.20536920 8.10401636 1.04332975
Sn 2.16671500 0.00000000 -3.210042150000003 0 0 0
Sn 2.20536920 4.13745364 1.04332975
Sn 2.16671500 4.08049000 -3.210042150000003 0 0 0
Sn 6.46149080 8.10401636 1.04332975
Sn 6.50014500 0.00000000 -3.210042150000003 0 0 0
Sn 6.46149080 4.13745364 1.04332975
Sn 6.50014500 4.08049000 -3.210042150000003 0 0 0
C 0.00000000 2.04024500 3.27424299
