&CONTROL
calculation = 'relax'
prefix = 'scf'
pseudo_dir = '/vol0403/data/hp230205/u10028/POT_HYBRID_KKJUS_GBRV'
outdir = './data'
tprnfor = .true.
nstep = 50
disk_io = 'non'
/
&SYSTEM
ibrav = 0
ecutwfc = 50.0
ecutrho = 400
occupations = 'smearing'
smearing = 'mp'
degauss = 0.01
assume_isolated = 'esm'
esm_bc = 'bc1'
input_dft = 'BEEF-VDW'
nosym = .true.
nspin = 1
ntyp = 6
nat = 34
/
&ELECTRONS
electron_maxstep = 200
mixing_beta = 0.1
conv_thr = 1e-06
/
&IONS
ion_dynamics = 'bfgs'
upscale = 1.0
/
&CELL
/

K_POINTS {automatic}
6 6 1 0 0 0

ATOMIC_SPECIES
C 12.01 C.pbe-n-rrkjus_psl.1.0.0.UPF
Ge 72.64 Ge.pbe-dn-rrkjus_psl.1.0.0.UPF
Li 6.941 Li.pbe-sl-rrkjus_psl.1.0.0.UPF
O 15.99 O.pbe-n-rrkjus_psl.1.0.0.UPF
Pb 207.2 Pb.pbe-dn-rrkjus_psl.1.0.0.UPF
Y 88.90 Y.pbe-spn-rrkjus_psl.1.0.0.UPF


CELL_PARAMETERS {angstrom}
8.55406000 0.00000000 0.00000000
0.00000000 8.65500000 0.00000000
0.00000000 0.00000000 27.39600000

ATOMIC_POSITIONS {angstrom}
Li 2.13851500 0.00000000 -1.2325460400000026 0 0 0
Li 2.13842946 0.00008655 3.76968960
Li 2.13851500 4.32750000 -1.2325460400000026 0 0 0
Li 2.13851500 4.32750000 3.65654412
Li 6.41554500 0.00000000 -1.2325460400000026 0 0 0
Li 6.41554500 0.00000000 3.64448988
Li 6.41554500 4.32750000 -1.2325460400000026 0 0 0
Li 6.41554500 4.32750000 3.57956136
Y 2.13851500 2.16375000 -3.697912080000002 0 0 0
Y 2.13842946 2.13475575 1.24733988
Y 2.13851500 6.49125000 -3.697912080000002 0 0 0
Y 2.13860054 6.52033080 1.24733988
Y 6.41554500 2.16375000 -3.697912080000002 0 0 0
Y 6.41563054 2.15483535 1.20734172
Y 6.41554500 6.49125000 -3.697912080000002 0 0 0
Y 6.41537392 6.50025120 1.20734172
Ge 0.00000000 0.00000000 -3.697912080000002 0 0 0
Ge 8.54037350 0.00008655 1.64978712
Ge 0.00000000 4.32750000 -3.697912080000002 0 0 0
Ge 0.00265176 4.32706725 1.62293904
Ge 4.27703000 0.00000000 -3.697912080000002 0 0 0
Ge 4.29071650 8.65491345 1.64978712
Ge 4.27703000 4.32750000 -3.697912080000002 0 0 0
Ge 4.27420716 4.32767310 1.62293904
Pb 0.00000000 2.16375000 -1.2325460400000026 0 0 0
Pb 8.51992930 2.20538055 3.88749240
Pb 0.00000000 6.49125000 -1.2325460400000026 0 0 0
Pb 8.51992930 6.44979255 3.88804032
Pb 4.27703000 2.16375000 -1.2325460400000026 0 0 0
Pb 4.31116070 2.20529400 3.88776636
Pb 4.27703000 6.49125000 -1.2325460400000026 0 0 0
Pb 4.31116070 6.44970600 3.88749240
C 2.13851500 8.65491345 5.86137420
O 2.13860054 8.65491345 7.00543116
