&CONTROL
calculation = 'relax'
prefix = 'scf'
pseudo_dir = '/vol0004/mdt0/data/hp150275/u10028/POT_HYBRID_KKJUS_GBRV'
outdir = './data'
tprnfor = .true.
nstep = 50
disk_io = 'non'
/
&SYSTEM
ibrav = 0
ecutwfc = 50.0
ecutrho = 400
occupations = 'smearing'
smearing = 'mp'
degauss = 0.01
assume_isolated = 'esm'
esm_bc = 'bc1'
input_dft = 'BEEF-VDW'
nosym = .true.
nspin = 2
ntyp = 4
nat = 33
starting_magnetization(1) = 0.0
starting_magnetization(2) = 0.1
starting_magnetization(3) = 0.0
starting_magnetization(4) = 0.0
/
&ELECTRONS
electron_maxstep = 200
mixing_beta = 0.1
conv_thr = 1e-06
/
&IONS
ion_dynamics = 'bfgs'
upscale = 1.0
/
&CELL
/

K_POINTS {automatic}
9 6 2 0  0  0

ATOMIC_SPECIES
C 12.01 C.pbe-n-rrkjus_psl.1.0.0.UPF
Mn 54.93 mn_pbe_v1.5.uspp.F.UPF
Sn 118.7 Sn.pbe-dn-rrkjus_psl.1.0.0.UPF
W 183.8 w_pbe_v1.2.uspp.F.UPF

CELL_PARAMETERS {angstrom}
6.10490000 0.00000000 0.00000000
0.00000000 8.63363000 0.00000000
0.00000000 0.00000000 26.47520000

ATOMIC_POSITIONS {angstrom}
Mn 1.52622500 0.00000000 25.39607085
Mn 4.57867500 4.31681500 25.39607085
Mn 4.57867500 0.00000000 25.39607085
Mn 1.52622500 4.31681500 25.39607085
Mn 4.57867500 6.47522250 23.23754779
Mn 1.52622500 2.15840750 23.23754779
Mn 1.52622500 6.47522250 23.23754779
Mn 4.57867500 2.15840750 23.23754779
Mn 1.32488540 4.31681500 3.41344754
Mn 4.55492694 0.00000000 3.23897597
Mn 4.77995355 4.31681500 3.41344754
Mn 1.54997306 0.00000000 3.23897597
Mn 4.53917630 2.15555840 1.20435685
Mn 1.56572370 6.47807160 1.20435685
Mn 1.56572370 2.15555840 1.20435685
Mn 4.53923735 6.47807160 1.20435685
Sn 0.00000000 0.00000000 23.23754779
Sn 3.05245000 2.15840750 25.39607085
Sn 3.05245000 6.47522250 25.39607085
Sn 0.00000000 4.31681500 23.23754779
Sn 6.10483895 4.31681500 1.09422002
Sn 3.05245000 6.33328562 3.72797291
Sn 3.05245000 2.30034438 3.72797291
Sn 0.00000000 0.00000000 1.03835734
W 0.00000000 6.47522250 25.39607085
W 3.05245000 0.00000000 23.23754779
W 0.00000000 2.15840750 25.39607085
W 3.05245000 4.31681500 23.23754779
W 0.00006105 2.05385424 3.11533678
W 3.05238895 4.31681500 1.16146702
W 0.00006105 6.57977576 3.11533678
W 3.05245000 0.00000000 1.10719286
C 3.05245000 0.00000000 4.25880067
