&CONTROL
calculation = 'relax'
prefix = 'scf'
pseudo_dir = '/vol0004/mdt0/data/hp150275/u10028/POT_KKJUS'
outdir = './data'
tprnfor = .true.
nstep = 50
disk_io = 'non'
/
&SYSTEM
ibrav = 0
ecutwfc = 50.0
ecutrho = 400
occupations = 'smearing'
smearing = 'mp'
degauss = 0.01
assume_isolated = 'esm'
esm_bc = 'bc1'
input_dft = 'BEEF-VDW'
nosym = .true.
nspin = 1
ntyp = 2
nat = 32
/
&ELECTRONS
electron_maxstep = 200
mixing_beta = 0.1
conv_thr = 1e-06
/
&IONS
ion_dynamics = 'bfgs'
upscale = 1.0
/
&CELL
/

K_POINTS {automatic}
8 6 1 0 0 0

ATOMIC_SPECIES
Al 26.98 Al.pbe-nl-rrkjus_psl.1.0.0.UPF
Ru 101.0 Ru.pbe-spn-rrkjus_psl.1.0.0.UPF

CELL_PARAMETERS {angstrom}
6.00621000 0.00000000 0.00000000
0.00000000 8.49407000 0.00000000
0.00000000 0.00000000 26.37050000

ATOMIC_POSITIONS {angstrom}
Al 0.00000000 0.00000000 -3.1852926900000007 0 0 0
Al 0.00000000 2.12351750 -1.061676330000001 0 0 0
Al 0.00000000 8.49398506 1.05640223
Al 0.00000000 2.12351750 3.16446000
Al 0.00000000 4.24703500 -3.1852926900000007 0 0 0
Al 0.00000000 6.37055250 -1.061676330000001 0 0 0
Al 0.00000000 4.24703500 1.05613853
Al 0.00000000 6.37055250 3.16446000
Al 3.00310500 0.00000000 -3.1852926900000007 0 0 0
Al 3.00310500 2.12351750 -1.061676330000001 0 0 0
Al 3.00310500 0.00000000 1.05640223
Al 3.00310500 2.12351750 3.16366888
Al 3.00310500 4.24703500 -3.1852926900000007 0 0 0
Al 3.00310500 6.37055250 -1.061676330000001 0 0 0
Al 3.00310500 4.24695006 1.05613853
Al 3.00310500 6.37055250 3.16366888
Ru 1.50155250 2.12351750 -3.1852926900000007 0 0 0
Ru 1.50155250 0.00000000 -1.061676330000001 0 0 0
Ru 1.50041132 2.12351750 1.04321698
Ru 1.50071163 4.24720488 3.18080971
Ru 1.50155250 6.37055250 -3.1852926900000007 0 0 0
Ru 1.50155250 4.24703500 -1.061676330000001 0 0 0
Ru 1.50047138 6.37046756 1.04321698
Ru 1.50053144 8.49398506 3.18107342
Ru 4.50465750 2.12351750 -3.1852926900000007 0 0 0
Ru 4.50465750 0.00000000 -1.061676330000001 0 0 0
Ru 4.50579868 2.12351750 1.04321698
Ru 4.50549837 4.24720488 3.18080971
Ru 4.50465750 6.37055250 -3.1852926900000007 0 0 0
Ru 4.50465750 4.24703500 -1.061676330000001 0 0 0
Ru 4.50573862 6.37046756 1.04321698
Ru 4.50567856 8.49398506 3.18107342
