&CONTROL
calculation = 'relax'
prefix = 'scf'
pseudo_dir = '/vol0403/data/hp230205/u10028/POT_HYBRID_KKJUS_GBRV'
outdir = './data'
tprnfor = .true.
nstep = 50
disk_io = 'non'
/
&SYSTEM
ibrav = 0
ecutwfc = 50.0
ecutrho = 400
occupations = 'smearing'
smearing = 'mp'
degauss = 0.01
assume_isolated = 'esm'
esm_bc = 'bc1'
input_dft = 'BEEF-VDW'
nosym = .true.
nspin = 1
ntyp = 4
nat = 16
/
&ELECTRONS
electron_maxstep = 200
mixing_beta = 0.1
conv_thr = 1e-06
/
&IONS
ion_dynamics = 'bfgs'
upscale = 1.0
/
&CELL
/

K_POINTS {automatic}
6 6 1 0 0 0

ATOMIC_SPECIES
Al 26.98 Al.pbe-nl-rrkjus_psl.1.0.0.UPF
Ge 72.64 Ge.pbe-dn-rrkjus_psl.1.0.0.UPF
Li 6.941 Li.pbe-sl-rrkjus_psl.1.0.0.UPF
Pd 106.4 Pd.pbe-n-rrkjus_psl.1.0.0.UPF


CELL_PARAMETERS {angstrom}
5.49423000 0.00000000 0.00000000
0.00000000 8.01128000 0.00000000
0.00000000 0.00000000 24.10550000

ATOMIC_POSITIONS {angstrom}
Li 4.00293115 2.00282000 -0.6843551499999982 0 0 0
Li 1.00648799 2.00282000 2.12779249
Li 4.00293115 6.00846000 -0.6843551499999982 0 0 0
Li 1.00648799 6.00846000 2.12779249
Al 0.00000000 0.00000000 -2.0528243800000006 0 0 0
Al 2.50635784 0.00000000 0.69809528
Al 0.00000000 4.00564000 -2.0528243800000006 0 0 0
Al 2.50635784 4.00564000 0.69809528
Ge 2.74711500 0.00000000 -2.0528243800000006 0 0 0
Ge 5.32209577 0.00000000 0.75088632
Ge 2.74711500 4.00564000 -2.0528243800000006 0 0 0
Ge 5.32209577 4.00564000 0.75088632
Pd 1.25581615 2.00282000 -0.6843551499999982 0 0 0
Pd 3.69591358 2.00282000 1.72956962
Pd 1.25581615 6.00846000 -0.6843551499999982 0 0 0
Pd 3.69591358 6.00846000 1.72956962
