&CONTROL
calculation = 'relax'
prefix = 'scf'
pseudo_dir = '/vol0004/mdt0/data/hp150275/u10028/POT_HYBRID_KKJUS_GBRV'
outdir = './data'
tprnfor = .true.
nstep = 50
disk_io = 'non'
/
&SYSTEM
ibrav = 0
ecutwfc = 50.0
ecutrho = 400
occupations = 'smearing'
smearing = 'mp'
degauss = 0.01
assume_isolated = 'esm'
esm_bc = 'bc1'
input_dft = 'BEEF-VDW'
nosym = .true.
nspin = 2
ntyp = 4
nat = 34
starting_magnetization(1) = 0.1
starting_magnetization(2) = 0.1
starting_magnetization(3) = 0.1
starting_magnetization(4) = 0.1
/
&ELECTRONS
electron_maxstep = 200
mixing_beta = 0.1
conv_thr = 1e-06
/
&IONS
ion_dynamics = 'bfgs'
upscale = 1.0
/
&CELL
/

K_POINTS {automatic}
8 6 1 0 0 0

ATOMIC_SPECIES
C 12.01 C.pbe-n-rrkjus_psl.1.0.0.UPF
Co 58.93 co_pbe_v1.2.uspp.F.UPF
O 15.99 O.pbe-n-rrkjus_psl.1.0.0.UPF
Ti 47.86 Ti.pbe-spn-rrkjus_psl.1.0.0.UPF

CELL_PARAMETERS {angstrom}
5.98862000 0.00000000 0.00000000
0.00000000 8.46918000 0.00000000
0.00000000 0.00000000 26.35190000

ATOMIC_POSITIONS {angstrom}
Ti 0.00000000 0.00000000 -3.1759309900000012 0 0 0
Ti 0.00000000 2.11729500 -1.0585558200000023 0 0 0
Ti 0.00359317 4.23459000 1.12338150
Ti 5.95987462 2.14244846 3.25129742
Ti 0.00000000 4.23459000 -3.1759309900000012 0 0 0
Ti 0.00000000 6.35188500 -1.0585558200000023 0 0 0
Ti 5.96963607 0.00000000 1.09439441
Ti 5.95987462 6.32673154 3.25129742
Ti 2.99431000 0.00000000 -3.1759309900000012 0 0 0
Ti 2.99431000 2.11729500 -1.0585558200000023 0 0 0
Ti 2.99071683 4.23459000 1.12338150
Ti 3.02335481 2.14244846 3.25129742
Ti 2.99431000 4.23459000 -3.1759309900000012 0 0 0
Ti 2.99431000 6.35188500 -1.0585558200000023 0 0 0
Ti 3.01359336 0.00000000 1.09465793
Ti 3.02335481 6.32673154 3.25129742
Co 1.49715500 2.11729500 -3.1759309900000012 0 0 0
Co 1.49715500 0.00000000 -1.0585558200000023 0 0 0
Co 1.49727477 2.07274711 1.12311798
Co 1.49697534 8.46901062 3.23785795
Co 1.49715500 6.35188500 -3.1759309900000012 0 0 0
Co 1.49715500 4.23459000 -1.0585558200000023 0 0 0
Co 1.49727477 6.39643289 1.12311798
Co 1.49709511 4.23475938 2.97776470
Co 4.49146500 2.11729500 -3.1759309900000012 0 0 0
Co 4.49146500 0.00000000 -1.0585558200000023 0 0 0
Co 4.49146500 2.12085206 1.09992831
Co 4.49158477 8.46901062 2.94904113
Co 4.49146500 6.35188500 -3.1759309900000012 0 0 0
Co 4.49146500 4.23459000 -1.0585558200000023 0 0 0
Co 4.49140511 6.34832794 1.09992831
Co 4.49158477 4.23475938 2.97881878
C 1.49577762 0.00000000 4.98261725
O 1.49691546 0.00000000 6.14816179
