&CONTROL
calculation = 'relax'
prefix = 'scf'
pseudo_dir = '/vol0004/mdt0/data/hp150275/u10028/POT_HYBRID_KKJUS_GBRV'
outdir = './data'
tprnfor = .true.
nstep = 50
disk_io = 'non'
/
&SYSTEM
ibrav = 0
ecutwfc = 50.0
ecutrho = 400
occupations = 'smearing'
smearing = 'mp'
degauss = 0.01
assume_isolated = 'esm'
esm_bc = 'bc1'
input_dft = 'BEEF-VDW'
nosym = .true.
nspin = 2
ntyp = 3
nat = 16
starting_magnetization(1) = 0.1
starting_magnetization(2) = 0.1
starting_magnetization(3) = 0.1
/
&ELECTRONS
electron_maxstep = 200
mixing_beta = 0.1
conv_thr = 1e-06
/
&IONS
ion_dynamics = 'bfgs'
upscale = 1.0
/
&CELL
/

K_POINTS {automatic}
8 8 1 0 0 0

ATOMIC_SPECIES
In 114.8 In.pbe-dn-rrkjus_psl.1.0.0.UPF
Ni 58.69 ni_pbe_v1.4.uspp.F.UPF
Sc 44.95 Sc.pbe-spn-rrkjus_psl.1.0.0.UPF

CELL_PARAMETERS {angstrom}
6.31539000 0.00000000 0.00000000
0.00000000 6.31539000 0.00000000
0.00000000 0.00000000 24.73650000

ATOMIC_POSITIONS {angstrom}
Sc 0.00000000 0.00000000 -2.3682725100000006 0 0 0
Sc 3.15769500 3.15769500 -2.3682725100000006 0 0 0
Sc 3.15510569 0.00031577 0.87344581
Sc 0.00113677 3.15586354 0.87146689
In 0.00000000 0.00018946 0.85291452
In 3.15769500 0.00000000 -2.3682725100000006 0 0 0
In 0.00000000 3.15769500 -2.3682725100000006 0 0 0
In 3.15744238 3.15731608 0.84969877
Ni 1.57884750 1.57884750 -0.7893417099999986 0 0 0
Ni 4.73344796 4.73325850 2.27031597
Ni 4.73654250 1.57884750 -0.7893417099999986 0 0 0
Ni 1.57966850 4.73673196 2.26982124
Ni 4.73654250 4.73654250 -0.7893417099999986 0 0 0
Ni 1.57966850 1.58067896 2.27006861
Ni 1.57884750 4.73654250 -0.7893417099999986 0 0 0
Ni 4.73666881 1.58067896 2.27081070
