&CONTROL
calculation = 'relax'
prefix = 'scf'
pseudo_dir = '/vol0403/data/hp230205/u10028/POT_HYBRID_KKJUS_GBRV'
outdir = './data'
tprnfor = .true.
nstep = 50
disk_io = 'non'
/
&SYSTEM
ibrav = 0
ecutwfc = 50.0
ecutrho = 400
occupations = 'smearing'
smearing = 'mp'
degauss = 0.01
assume_isolated = 'esm'
esm_bc = 'bc1'
input_dft = 'BEEF-VDW'
nosym = .true.
nspin = 1
ntyp = 6
nat = 34
/
&ELECTRONS
electron_maxstep = 200
mixing_beta = 0.1
conv_thr = 1e-06
/
&IONS
ion_dynamics = 'bfgs'
upscale = 1.0
/
&CELL
/

K_POINTS {automatic}
6 6 1 0 0 0

ATOMIC_SPECIES
C 12.01 C.pbe-n-rrkjus_psl.1.0.0.UPF
Ge 72.64 Ge.pbe-dn-rrkjus_psl.1.0.0.UPF
Li 6.941 Li.pbe-sl-rrkjus_psl.1.0.0.UPF
O 15.99 O.pbe-n-rrkjus_psl.1.0.0.UPF
Sn 118.7 Sn.pbe-dn-rrkjus_psl.1.0.0.UPF
Y 88.90 Y.pbe-spn-rrkjus_psl.1.0.0.UPF


CELL_PARAMETERS {angstrom}
9.43388000 0.00000000 0.00000000
0.00000000 8.60818000 0.00000000
0.00000000 0.00000000 26.39560000

ATOMIC_POSITIONS {angstrom}
Li 2.35847000 0.00000000 -1.0658543300000005 0 0 0
Li 2.36205487 8.60602796 2.92331270
Li 2.35847000 4.30409000 -1.0658543300000005 0 0 0
Li 2.36205487 4.30624205 2.92331270
Li 7.07541000 0.00000000 -1.0658543300000005 0 0 0
Li 7.07182513 8.60602796 2.92331270
Li 7.07541000 4.30409000 -1.0658543300000005 0 0 0
Li 7.07182513 4.30624205 2.92331270
Y 0.00000000 2.15204500 -1.0658543300000005 0 0 0
Y 0.00000000 2.15204500 3.12497508
Y 0.00000000 6.45613500 -1.0658543300000005 0 0 0
Y 0.00000000 6.45613500 3.18146167
Y 4.71694000 2.15204500 -1.0658543300000005 0 0 0
Y 4.71694000 2.15204500 3.17723837
Y 4.71694000 6.45613500 -1.0658543300000005 0 0 0
Y 4.71694000 6.45613500 3.16852782
Sn 2.35847000 2.15204500 -3.1978269400000023 0 0 0
Sn 2.37488495 2.15204500 1.05793565
Sn 2.35847000 6.45613500 -3.1978269400000023 0 0 0
Sn 2.35582851 6.45613500 1.06083916
Sn 7.07541000 2.15204500 -3.1978269400000023 0 0 0
Sn 7.05899505 2.15204500 1.05793565
Sn 7.07541000 6.45613500 -3.1978269400000023 0 0 0
Sn 7.07805149 6.45613500 1.06083916
Ge 0.00000000 0.00000000 -3.1978269400000023 0 0 0
Ge 0.00000000 8.59277136 1.08670685
Ge 0.00000000 4.30409000 -3.1978269400000023 0 0 0
Ge 0.00000000 4.31958472 1.08670685
Ge 4.71694000 0.00000000 -3.1978269400000023 0 0 0
Ge 4.71694000 8.60800784 1.09304180
Ge 4.71694000 4.30409000 -3.1978269400000023 0 0 0
Ge 4.71694000 4.30426216 1.09304180
C 0.00000000 2.15204500 5.56392852
O 0.00000000 2.15204500 6.71899998
