&CONTROL
calculation = 'relax'
prefix = 'scf'
pseudo_dir = '/vol0004/mdt0/data/hp150275/u10028/POT_KKJUS'
outdir = './data'
tprnfor = .true.
nstep = 50
disk_io = 'non'
/
&SYSTEM
ibrav = 0
ecutwfc = 50.0
ecutrho = 400
occupations = 'smearing'
smearing = 'mp'
degauss = 0.01
assume_isolated = 'esm'
esm_bc = 'bc1'
input_dft = 'BEEF-VDW'
nosym = .true.
nspin = 1
ntyp = 4
nat = 33
/
&ELECTRONS
electron_maxstep = 200
mixing_beta = 0.1
conv_thr = 1e-06
/
&IONS
ion_dynamics = 'bfgs'
upscale = 1.0
/
&CELL
/

K_POINTS {automatic}
9 6 2 0  0  0

ATOMIC_SPECIES
Au 196.9 Au.pbe-n-rrkjus_psl.1.0.0.UPF
C 12.01 C.pbe-n-rrkjus_psl.1.0.0.UPF
In 114.8 In.pbe-dn-rrkjus_psl.1.0.0.UPF
Zr 91.22 Zr.pbe-spn-rrkjus_psl.1.0.0.UPF

CELL_PARAMETERS {angstrom}
6.87009000 0.00000000 0.00000000
0.00000000 9.71577000 0.00000000
0.00000000 0.00000000 27.28680000

ATOMIC_POSITIONS {angstrom}
Zr 0.00000000 0.00000000 -3.6433335400000004 0 0 0
Zr 3.43504500 2.42894250 -1.2145354699999977 0 0 0
Zr 3.43504500 7.28682750 -1.2145354699999977 0 0 0
Zr 0.00000000 4.85788500 -3.6433335400000004 0 0 0
Zr 0.00000000 4.85788500 1.28629975
Zr 3.43504500 7.34249886 3.40184536
Zr 3.43504500 2.37327114 3.40184536
Zr 0.00000000 0.00000000 1.57635844
In 0.00000000 7.28682750 -1.2145354699999977 0 0 0
In 3.43504500 0.00000000 -3.6433335400000004 0 0 0
In 0.00000000 2.42894250 -1.2145354699999977 0 0 0
In 3.43504500 4.85788500 -3.6433335400000004 0 0 0
In 0.00000000 2.55077826 3.94867283
In 3.43504500 4.85788500 1.15041149
In 0.00000000 7.16499174 3.94867283
In 3.43504500 0.00000000 1.19516184
Au 1.71752250 0.00000000 -1.2145354699999977 0 0 0
Au 5.15256750 4.85788500 -1.2145354699999977 0 0 0
Au 5.15256750 0.00000000 -1.2145354699999977 0 0 0
Au 1.71752250 4.85788500 -1.2145354699999977 0 0 0
Au 5.15256750 7.28682750 -3.6433335400000004 0 0 0
Au 1.71752250 2.42894250 -3.6433335400000004 0 0 0
Au 1.71752250 7.28682750 -3.6433335400000004 0 0 0
Au 5.15256750 2.42894250 -3.6433335400000004 0 0 0
Au 1.93186931 4.85788500 3.79231946
Au 4.83084119 0.00000000 4.28484620
Au 4.93822069 4.85788500 3.79231946
Au 2.03924881 0.00000000 4.28484620
Au 5.24050465 2.44380763 1.21016958
Au 1.62958535 7.27196237 1.21016958
Au 1.62958535 2.44380763 1.21016958
Au 5.24050465 7.27196237 1.21016958
C 0.00000000 0.00000000 3.68562808
