&CONTROL
calculation = 'relax'
prefix = 'scf'
pseudo_dir = '/vol0004/mdt0/data/hp150275/u10028/POT_HYBRID_KKJUS_GBRV'
outdir = './data'
tprnfor = .true.
nstep = 50
disk_io = 'non'
/
&SYSTEM
ibrav = 0
ecutwfc = 50.0
ecutrho = 400
occupations = 'smearing'
smearing = 'mp'
degauss = 0.01
assume_isolated = 'esm'
esm_bc = 'bc1'
input_dft = 'BEEF-VDW'
nosym = .true.
nspin = 2
ntyp = 4
nat = 34
starting_magnetization(1) = 0.0
starting_magnetization(2) = 0.0
starting_magnetization(3) = 0.1
starting_magnetization(4) = 0.0
/
&ELECTRONS
electron_maxstep = 200
mixing_beta = 0.1
conv_thr = 1e-06
/
&IONS
ion_dynamics = 'bfgs'
upscale = 1.0
/
&CELL
/

K_POINTS {automatic}
9 6 2 0  0  0

ATOMIC_SPECIES
Al 26.98 Al.pbe-nl-rrkjus_psl.1.0.0.UPF
C 12.01 C.pbe-n-rrkjus_psl.1.0.0.UPF
Fe 55.84 fe_pbe_v1.5.uspp.F.UPF
O 15.99 O.pbe-n-rrkjus_psl.1.0.0.UPF

CELL_PARAMETERS {angstrom}
5.77088000 0.00000000 0.00000000
0.00000000 8.16125000 0.00000000
0.00000000 0.00000000 26.12090000

ATOMIC_POSITIONS {angstrom}
Al 0.00000000 0.00000000 23.06031415
Al 2.88544000 2.04031250 25.10061765
Al 2.88544000 6.12093750 25.10061765
Al 0.00000000 4.08062500 23.06031415
Al 0.00086563 4.08054339 1.00330377
Al 2.83881129 6.12746650 3.16350220
Al 2.83886900 2.03370189 3.16350220
Al 0.01304219 0.00024484 1.00252014
Fe 1.44272000 0.00000000 25.10061765
Fe 4.32816000 4.08062500 25.10061765
Fe 4.32816000 0.00000000 25.10061765
Fe 1.44272000 4.08062500 25.10061765
Fe 4.32816000 6.12093750 23.06031415
Fe 1.44272000 2.04031250 23.06031415
Fe 1.44272000 6.12093750 23.06031415
Fe 4.32816000 2.04031250 23.06031415
Fe 0.00000000 6.12093750 25.10061765
Fe 2.88544000 0.00000000 23.06031415
Fe 0.00000000 2.04031250 25.10061765
Fe 2.88544000 4.08062500 23.06031415
Fe 1.38778122 4.08135951 3.10708106
Fe 4.29249596 8.16035226 3.05327200
Fe 4.33733570 4.08144113 3.08801280
Fe 1.44358563 8.16043388 3.06372036
Fe 4.31050111 2.03786413 1.05815766
Fe 1.45553135 6.12297781 1.02472291
Fe 1.45581990 2.03843541 1.02498412
Fe 4.31078965 6.12363071 1.05815766
Fe 0.01748577 2.03378350 2.96837908
Fe 2.87534096 4.08152274 1.03438764
Fe 0.01765889 6.12754811 2.96785666
Fe 2.89669322 8.16043388 1.00513223
C 0.98053022 8.16092355 4.77463931
O 0.71887852 8.16116839 5.91351055
