&CONTROL
calculation = 'relax'
prefix = 'scf'
pseudo_dir = '/vol0403/data/hp230205/u10028/POT_HYBRID_KKJUS_GBRV'
outdir = './data'
tprnfor = .true.
nstep = 50
disk_io = 'non'
/
&SYSTEM
ibrav = 0
ecutwfc = 50.0
ecutrho = 400
occupations = 'smearing'
smearing = 'mp'
degauss = 0.01
assume_isolated = 'esm'
esm_bc = 'bc1'
input_dft = 'BEEF-VDW'
nosym = .true.
nspin = 1
ntyp = 5
nat = 33
/
&ELECTRONS
electron_maxstep = 200
mixing_beta = 0.1
conv_thr = 1e-06
/
&IONS
ion_dynamics = 'bfgs'
upscale = 1.0
/
&CELL
/

K_POINTS {automatic}
6 6 1 0 0 0

ATOMIC_SPECIES
C 12.01 C.pbe-n-rrkjus_psl.1.0.0.UPF
Ge 72.64 Ge.pbe-dn-rrkjus_psl.1.0.0.UPF
Li 6.941 Li.pbe-sl-rrkjus_psl.1.0.0.UPF
Pd 106.4 Pd.pbe-n-rrkjus_psl.1.0.0.UPF
V 50.94 V.pbe-spnl-rrkjus_psl.1.0.0.UPF


CELL_PARAMETERS {angstrom}
8.64114000 0.00000000 0.00000000
0.00000000 9.40562000 0.00000000
0.00000000 0.00000000 24.26620000

ATOMIC_POSITIONS {angstrom}
Li 0.00025923 2.35027633 0.49964106
Li 0.00000000 2.35140500 -2.13299898 0 0 0
Li 0.00008641 7.05412094 1.12037045
Li 0.00000000 7.05421500 -2.13299898 0 0 0
Li 4.32134770 2.34820709 0.80321122
Li 4.32057000 2.35140500 -2.13299898 0 0 0
Li 4.32065641 7.05365066 0.45280729
Li 4.32057000 7.05421500 -2.13299898 0 0 0
V 2.15605084 9.40289237 0.39020050
V 2.16028500 0.00000000 -2.13299898 0 0 0
V 2.15605084 4.70619602 0.38777388
V 2.16028500 4.70281000 -2.13299898 0 0 0
V 6.48482992 9.40336265 0.39141381
V 6.48085500 0.00000000 -2.13299898 0 0 0
V 6.48474351 4.70516141 0.38995783
V 6.48085500 4.70281000 -2.13299898 0 0 0
Ge 0.00190105 0.35205236 2.29655317
Ge 0.00000000 0.00000000 -0.7109996600000024 0 0 0
Ge 0.00077770 4.34643106 2.30043576
Ge 0.00000000 4.70281000 -0.7109996600000024 0 0 0
Ge 4.31849613 9.27807979 1.94129600
Ge 4.32057000 0.00000000 -0.7109996600000024 0 0 0
Ge 4.32013794 4.82602362 1.94323730
Ge 4.32057000 4.70281000 -0.7109996600000024 0 0 0
Pd 1.99817721 2.35930572 2.07354679
Pd 2.16028500 2.35140500 -0.7109996600000024 0 0 0
Pd 2.54835860 7.05506151 2.03981677
Pd 2.16028500 7.05421500 -0.7109996600000024 0 0 0
Pd 6.64443178 2.35827110 2.07403211
Pd 6.48085500 2.35140500 -0.7109996600000024 0 0 0
Pd 6.09295423 7.05600207 2.03981677
Pd 6.48085500 7.05421500 -0.7109996600000024 0 0 0
C 0.00086411 2.34745464 2.69597482
