&CONTROL
calculation = 'relax'
prefix = 'scf'
pseudo_dir = '/vol0403/data/hp230205/u10028/POT_HYBRID_KKJUS_GBRV'
outdir = './data'
tprnfor = .true.
nstep = 50
disk_io = 'non'
/
&SYSTEM
ibrav = 0
ecutwfc = 50.0
ecutrho = 400
occupations = 'smearing'
smearing = 'mp'
degauss = 0.01
assume_isolated = 'esm'
esm_bc = 'bc1'
input_dft = 'BEEF-VDW'
nosym = .true.
nspin = 1
ntyp = 6
nat = 18
/
&ELECTRONS
electron_maxstep = 200
mixing_beta = 0.1
conv_thr = 1e-06
/
&IONS
ion_dynamics = 'bfgs'
upscale = 1.0
/
&CELL
/

K_POINTS {automatic}
11 7 2 0  0  0

ATOMIC_SPECIES
C 12.01 C.pbe-n-rrkjus_psl.1.0.0.UPF
Ge 72.64 Ge.pbe-dn-rrkjus_psl.1.0.0.UPF
In 114.8 In.pbe-dn-rrkjus_psl.1.0.0.UPF
Li 6.941 Li.pbe-sl-rrkjus_psl.1.0.0.UPF
O 15.99 O.pbe-n-rrkjus_psl.1.0.0.UPF
Y 88.90 Y.pbe-spn-rrkjus_psl.1.0.0.UPF


CELL_PARAMETERS {angstrom}
6.03525000 0.00000000 0.00000000
0.00000000 9.31878000 0.00000000
0.00000000 0.00000000 24.52620000

ATOMIC_POSITIONS {angstrom}
Li 4.09805545 2.27890765 0.64871799
Li 1.46493623 2.32969500 -2.263032469999999 0 0 0
Li 4.09721052 7.03977916 0.64822747
Li 1.46493623 6.98908500 -2.263032469999999 0 0 0
Y 2.64627607 9.31859362 2.51884074
Y 6.00597904 0.00000000 -0.7544259099999984 0 0 0
Y 2.83505869 4.65920362 2.28142712
Y 6.00597904 4.65939000 -0.7544259099999984 0 0 0
In 1.01633610 2.33994566 1.21257533
In 4.48256123 2.32969500 -2.263032469999999 0 0 0
In 1.01573257 6.97846159 1.21306585
In 4.48256123 6.98908500 -2.263032469999999 0 0 0
Ge 5.68055836 0.00009319 2.27971029
Ge 2.98835404 0.00000000 -0.7544259099999984 0 0 0
Ge 5.80343605 4.65892406 2.29589758
Ge 2.98835404 4.65939000 -0.7544259099999984 0 0 0
C 1.19081518 9.31868681 4.48878512
O 0.49676143 0.00018638 5.41293234
