&CONTROL
calculation = 'relax'
prefix = 'scf'
pseudo_dir = '/vol0004/mdt0/data/hp150275/u10028/POT_HYBRID_KKJUS_GBRV'
outdir = './data'
tprnfor = .true.
nstep = 50
disk_io = 'non'
/
&SYSTEM
ibrav = 0
ecutwfc = 50.0
ecutrho = 400
occupations = 'smearing'
smearing = 'mp'
degauss = 0.01
assume_isolated = 'esm'
esm_bc = 'bc1'
input_dft = 'BEEF-VDW'
nosym = .true.
nspin = 2
ntyp = 4
nat = 33
starting_magnetization(1) = 0.0
starting_magnetization(2) = 0.0
starting_magnetization(3) = 0.001
starting_magnetization(4) = 0.0
/
&ELECTRONS
electron_maxstep = 200
mixing_beta = 0.1
conv_thr = 1e-06
/
&IONS
ion_dynamics = 'bfgs'
upscale = 1.0
/
&CELL
/

K_POINTS {automatic}
9 6 2 0  0  0

ATOMIC_SPECIES
Al 26.98 Al.pbe-nl-rrkjus_psl.1.0.0.UPF
C 12.01 C.pbe-n-rrkjus_psl.1.0.0.UPF
Ni 58.69 ni_pbe_v1.4.uspp.F.UPF
Ti 47.86 Ti.pbe-spn-rrkjus_psl.1.0.0.UPF

CELL_PARAMETERS {angstrom}
5.91339000 0.00000000 0.00000000
0.00000000 8.36280000 0.00000000
0.00000000 0.00000000 26.27210000

ATOMIC_POSITIONS {angstrom}
Ti 0.00000000 0.00000000 23.13599942
Ti 2.95669500 2.09070000 25.22673314
Ti 2.95669500 6.27210000 25.22673314
Ti 0.00000000 4.18140000 23.13599942
Ti 0.00000000 4.18131637 1.03354441
Ti 2.95669500 6.34251478 3.22647660
Ti 2.95669500 2.02028522 3.22647660
Ti 0.00000000 0.00000000 1.02119653
Al 0.00000000 6.27210000 25.22673314
Al 2.95669500 0.00000000 23.13599942
Al 0.00000000 2.09070000 25.22673314
Al 2.95669500 4.18140000 23.13599942
Al 0.00000000 2.14296750 3.10982848
Al 2.95669500 4.18140000 1.06533366
Al 0.00000000 6.21991613 3.10982848
Al 2.95669500 0.00000000 1.13390384
Ni 1.47834750 0.00000000 25.22673314
Ni 4.43504250 4.18140000 25.22673314
Ni 4.43504250 0.00000000 25.22673314
Ni 1.47834750 4.18140000 25.22673314
Ni 4.43504250 6.27210000 23.13599942
Ni 1.47834750 2.09070000 23.13599942
Ni 1.47834750 6.27210000 23.13599942
Ni 4.43504250 2.09070000 23.13599942
Ni 1.43275526 4.18148363 3.00158742
Ni 4.71462758 8.36271637 3.09064984
Ni 4.48063474 4.18148363 3.00158742
Ni 1.19876242 8.36271637 3.09064984
Ni 4.35645355 2.09747387 1.05009584
Ni 1.55699559 6.26532613 1.05009584
Ni 1.55693645 2.09747387 1.05009584
Ni 4.35645355 6.26532613 1.05009584
C 2.95669500 0.00000000 3.64236394
