&CONTROL
calculation = 'relax'
prefix = 'scf'
pseudo_dir = '/vol0004/mdt0/data/hp150275/u10028/POT_KKJUS'
outdir = './data'
tprnfor = .true.
nstep = 50
disk_io = 'non'
/
&SYSTEM
ibrav = 0
ecutwfc = 50.0
ecutrho = 400
occupations = 'smearing'
smearing = 'mp'
degauss = 0.01
assume_isolated = 'esm'
esm_bc = 'bc1'
input_dft = 'BEEF-VDW'
nosym = .true.
nspin = 1
ntyp = 3
nat = 17
/
&ELECTRONS
electron_maxstep = 200
mixing_beta = 0.1
conv_thr = 1e-06
/
&IONS
ion_dynamics = 'bfgs'
upscale = 1.0
/
&CELL
/

K_POINTS {automatic}
6 8 1 0 0 0

ATOMIC_SPECIES
C 12.01 C.pbe-n-rrkjus_psl.1.0.0.UPF
Pd 106.4 Pd.pbe-n-rrkjus_psl.1.0.0.UPF
Ti 47.86 Ti.pbe-spn-rrkjus_psl.1.0.0.UPF

CELL_PARAMETERS {angstrom}
7.90864000 0.00000000 0.00000000
0.00000000 5.59226000 0.00000000
0.00000000 0.00000000 24.19420000

ATOMIC_POSITIONS {angstrom}
Ti 0.03218816 0.02975082 1.90747073
Ti 0.00000000 2.79613000 -0.6989704400000001 0 0 0
Ti 3.92205275 0.02975082 1.90747073
Ti 3.95432000 2.79613000 -0.6989704400000001 0 0 0
Pd 7.88989652 2.81134095 2.00715083
Pd 1.97708091 4.22825186 0.75389127
Pd 1.97708091 1.46970185 0.61114549
Pd 0.00000000 0.00000000 -0.6989704400000001 0 0 0
Pd 1.97716000 1.39806500 -2.097153259999999 0 0 0
Pd 1.97716000 4.19419500 -2.097153259999999 0 0 0
Pd 3.97306348 2.81139687 2.00739277
Pd 5.93148000 4.19643190 0.73598756
Pd 5.93155909 1.38391658 0.74493942
Pd 3.95432000 0.00000000 -0.6989704400000001 0 0 0
Pd 5.93148000 1.39806500 -2.097153259999999 0 0 0
Pd 5.93148000 4.19419500 -2.097153259999999 0 0 0
C 1.97716000 0.16815926 2.34103079
