&CONTROL
calculation = 'relax'
prefix = 'scf'
pseudo_dir = '/vol0004/mdt0/data/hp150275/u10028/POT_HYBRID_KKJUS_GBRV'
outdir = './data'
tprnfor = .true.
nstep = 50
disk_io = 'non'
/
&SYSTEM
ibrav = 0
ecutwfc = 50.0
ecutrho = 400
occupations = 'smearing'
smearing = 'mp'
degauss = 0.01
assume_isolated = 'esm'
esm_bc = 'bc1'
input_dft = 'BEEF-VDW'
nosym = .true.
nspin = 2
ntyp = 5
nat = 34
starting_magnetization(1) = 0.0
starting_magnetization(2) = 0.0
starting_magnetization(3) = 0.1
starting_magnetization(4) = 0.0
starting_magnetization(5) = 0.0
/
&ELECTRONS
electron_maxstep = 300
mixing_beta = 0.1
conv_thr = 1e-06
/
&IONS
ion_dynamics = 'bfgs'
upscale = 1.0
/
&CELL
/

K_POINTS {automatic}
8 6 1 0 0 0

ATOMIC_SPECIES
Al 26.98 Al.pbe-nl-rrkjus_psl.1.0.0.UPF
C 12.01 C.pbe-n-rrkjus_psl.1.0.0.UPF
Fe 55.84 fe_pbe_v1.5.uspp.F.UPF
O 15.99 O.pbe-n-rrkjus_psl.1.0.0.UPF
Ti 47.86 Ti.pbe-spn-rrkjus_psl.1.0.0.UPF

CELL_PARAMETERS {angstrom}
5.83886000 0.00000000 0.00000000
0.00000000 8.25739000 0.00000000
0.00000000 0.00000000 26.19300000

ATOMIC_POSITIONS {angstrom}
Ti 0.00000000 0.00000000 -3.096536460000003 0 0 0
Ti 2.91943000 2.06434750 -1.03226613 0 0 0
Ti 2.91943000 6.19304250 -1.03226613 0 0 0
Ti 0.00000000 4.12869500 -3.096536460000003 0 0 0
Ti 0.00000000 4.12365799 1.01864577
Ti 2.91943000 6.19304250 3.07427241
Ti 2.91943000 2.06434750 3.11513349
Ti 0.00000000 0.00503701 1.01864577
Al 0.00000000 6.19304250 -1.03226613 0 0 0
Al 2.91943000 0.00000000 -3.096536460000003 0 0 0
Al 0.00000000 2.06434750 -1.03226613 0 0 0
Al 2.91943000 4.12869500 -3.096536460000003 0 0 0
Al 0.00000000 2.06434750 3.12063402
Al 2.91943000 4.11399685 1.02886104
Al 0.00000000 6.19304250 3.18375915
Al 2.91943000 0.01461558 1.02886104
Fe 1.45971500 0.00000000 -1.03226613 0 0 0
Fe 4.37914500 4.12869500 -1.03226613 0 0 0
Fe 4.37914500 0.00000000 -1.03226613 0 0 0
Fe 1.45971500 4.12869500 -1.03226613 0 0 0
Fe 4.37914500 6.19304250 -3.096536460000003 0 0 0
Fe 1.45971500 2.06434750 -3.096536460000003 0 0 0
Fe 1.45971500 6.19304250 -3.096536460000003 0 0 0
Fe 4.37914500 2.06434750 -3.096536460000003 0 0 0
Fe 1.39741436 4.13579636 3.10465629
Fe 4.44138725 8.25028864 3.10439436
Fe 4.44144564 4.13579636 3.10439436
Fe 1.39747275 8.25028864 3.10465629
Fe 4.37756851 2.06434750 1.03305192
Fe 1.47787385 6.19304250 1.07469879
Fe 1.46129149 2.06434750 1.03305192
Fe 4.36098615 6.19304250 1.07469879
C 2.91943000 2.06434750 5.27553213
O 2.91943000 2.06434750 6.42697641
