&CONTROL
calculation = 'relax'
prefix = 'scf'
pseudo_dir = '/vol0403/data/hp230205/u10028/POT_HYBRID_KKJUS_GBRV'
outdir = './data'
tprnfor = .true.
nstep = 50
disk_io = 'non'
/
&SYSTEM
ibrav = 0
ecutwfc = 50.0
ecutrho = 400
occupations = 'smearing'
smearing = 'mp'
degauss = 0.01
assume_isolated = 'esm'
esm_bc = 'bc1'
input_dft = 'BEEF-VDW'
nosym = .true.
nspin = 1
ntyp = 6
nat = 34
/
&ELECTRONS
electron_maxstep = 200
mixing_beta = 0.1
conv_thr = 1e-06
/
&IONS
ion_dynamics = 'bfgs'
upscale = 1.0
/
&CELL
/

K_POINTS {automatic}
9 6 2 0  0  0

ATOMIC_SPECIES
C 12.01 C.pbe-n-rrkjus_psl.1.0.0.UPF
Ga 69.72 Ga.pbe-dnl-rrkjus_psl.1.0.0.UPF
Li 6.941 Li.pbe-sl-rrkjus_psl.1.0.0.UPF
Mg 24.30 Mg.pbe-spnl-rrkjus_psl.1.0.0.UPF
O 15.99 O.pbe-n-rrkjus_psl.1.0.0.UPF
Pd 106.4 Pd.pbe-n-rrkjus_psl.1.0.0.UPF


CELL_PARAMETERS {angstrom}
6.27706000 0.00000000 0.00000000
0.00000000 8.87710000 0.00000000
0.00000000 0.00000000 26.65780000

ATOMIC_POSITIONS {angstrom}
Li 1.56926500 0.00000000 -1.1097642100000016 0 0 0
Li 1.56926500 4.43855000 -1.1097642100000016 0 0 0
Li 4.70779500 2.21927500 -3.3290260600000003 0 0 0
Li 4.70779500 6.65782500 -3.3290260600000003 0 0 0
Li 1.84168940 4.43855000 3.84432134
Li 1.71526942 0.00000000 3.62092897
Li 4.73453528 6.64974684 1.10923106
Li 4.73453528 2.22735316 1.10923106
Mg 0.00000000 2.21927500 -1.1097642100000016 0 0 0
Mg 0.00000000 6.65782500 -1.1097642100000016 0 0 0
Mg 3.13853000 4.43855000 -3.3290260600000003 0 0 0
Mg 3.13853000 0.00000000 -3.3290260600000003 0 0 0
Mg 6.24944094 6.58600926 3.41379787
Mg 6.24944094 2.29109074 3.41353129
Mg 3.14857330 0.00000000 1.18787157
Mg 3.05152995 4.43855000 1.10016741
Ga 0.00000000 0.00000000 -3.3290260600000003 0 0 0
Ga 0.00000000 4.43855000 -3.3290260600000003 0 0 0
Ga 3.13853000 6.65782500 -1.1097642100000016 0 0 0
Ga 3.13853000 2.21927500 -1.1097642100000016 0 0 0
Ga 0.03973379 4.43855000 1.17347636
Ga 0.00991775 0.00000000 1.20173362
Ga 3.18253219 2.24910206 3.31649690
Ga 3.18253219 6.62790917 3.31649690
Pd 4.70779500 0.00000000 -1.1097642100000016 0 0 0
Pd 4.70779500 4.43855000 -1.1097642100000016 0 0 0
Pd 1.56926500 2.21927500 -3.3290260600000003 0 0 0
Pd 1.56926500 6.65782500 -3.3290260600000003 0 0 0
Pd 4.62462395 4.43855000 3.17121189
Pd 4.74960022 0.00000000 3.46231506
Pd 1.53518056 6.68720820 1.08737166
Pd 1.53518056 2.18989180 1.08737166
C 4.90043797 8.87701123 5.42272968
O 4.84519984 8.87701123 6.57701242
