&CONTROL
calculation = 'relax'
prefix = 'scf'
pseudo_dir = '/vol0004/mdt0/data/hp150275/u10028/POT_HYBRID_KKJUS_GBRV'
outdir = './data'
tprnfor = .true.
nstep = 50
disk_io = 'non'
/
&SYSTEM
ibrav = 0
ecutwfc = 50.0
ecutrho = 400
occupations = 'smearing'
smearing = 'mp'
degauss = 0.01
assume_isolated = 'esm'
esm_bc = 'bc1'
input_dft = 'BEEF-VDW'
nosym = .true.
nspin = 2
ntyp = 4
nat = 33
starting_magnetization(1) = 0.0
starting_magnetization(2) = 0.1
starting_magnetization(3) = 0.0
starting_magnetization(4) = 0.0
/
&ELECTRONS
electron_maxstep = 200
mixing_beta = 0.1
conv_thr = 1e-06
/
&IONS
ion_dynamics = 'bfgs'
upscale = 1.0
/
&CELL
/

K_POINTS {automatic}
9 6 2 0  0  0

ATOMIC_SPECIES
C 12.01 C.pbe-n-rrkjus_psl.1.0.0.UPF
Fe 55.84 fe_pbe_v1.5.uspp.F.UPF
Sn 118.7 Sn.pbe-dn-rrkjus_psl.1.0.0.UPF
Ti 47.86 Ti.pbe-spn-rrkjus_psl.1.0.0.UPF

CELL_PARAMETERS {angstrom}
6.02174000 0.00000000 0.00000000
0.00000000 8.51603000 0.00000000
0.00000000 0.00000000 26.38700000

ATOMIC_POSITIONS {angstrom}
Ti 0.00000000 0.00000000 23.19338139
Ti 3.01087000 2.12900750 25.32254842
Ti 3.01087000 6.38702250 25.32254842
Ti 0.00000000 4.25801500 23.19338139
Ti 0.00415500 4.25103186 1.18266534
Ti 3.03381283 6.38702250 3.22528301
Ti 3.18279068 2.12900750 3.00732639
Ti 0.00421522 0.00698314 1.18266534
Fe 1.50543500 0.00000000 25.32254842
Fe 4.51630500 4.25801500 25.32254842
Fe 4.51630500 0.00000000 25.32254842
Fe 1.50543500 4.25801500 25.32254842
Fe 4.51630500 6.38702250 23.19338139
Fe 1.50543500 2.12900750 23.19338139
Fe 1.50543500 6.38702250 23.19338139
Fe 4.51630500 2.12900750 23.19338139
Fe 1.54475696 4.01147593 3.53902444
Fe 4.48402847 8.42303495 3.23557394
Fe 4.48396826 4.35101005 3.23557394
Fe 1.54475696 0.24653907 3.53902444
Fe 4.56586392 2.12900750 1.04809164
Fe 1.47954152 6.38702250 1.17554085
Fe 1.43666673 2.12900750 1.16736088
Fe 4.55327848 6.38702250 1.18741500
Sn 0.00000000 6.38702250 25.32254842
Sn 3.01087000 0.00000000 23.19338139
Sn 0.00000000 2.12900750 25.32254842
Sn 3.01087000 4.25801500 23.19338139
Sn 5.66115821 2.12900750 3.83508658
Sn 2.98377217 4.26363558 1.09743533
Sn 0.09761241 6.38702250 3.55828695
Sn 2.98377217 8.51040942 1.09743533
C 1.70830742 2.12900750 4.28815137
