&CONTROL
calculation = 'relax'
prefix = 'scf'
pseudo_dir = '/vol0004/mdt0/data/hp150275/u10028/POT_KKJUS'
outdir = './data'
tprnfor = .true.
nstep = 50
disk_io = 'non'
/
&SYSTEM
ibrav = 0
ecutwfc = 50.0
ecutrho = 400
occupations = 'smearing'
smearing = 'mp'
degauss = 0.01
assume_isolated = 'esm'
esm_bc = 'bc1'
input_dft = 'BEEF-VDW'
nosym = .true.
nspin = 1
ntyp = 2
nat = 16
/
&ELECTRONS
electron_maxstep = 200
mixing_beta = 0.1
conv_thr = 1e-06
/
&IONS
ion_dynamics = 'bfgs'
upscale = 1.0
/
&CELL
/

K_POINTS {automatic}
8 12 2 0  0  0

ATOMIC_SPECIES
In 114.8 In.pbe-dn-rrkjus_psl.1.0.0.UPF
Ni 58.69 Ni.pbe-spn-rrkjus_psl.1.0.0.UPF

CELL_PARAMETERS {angstrom}
7.55564000 0.00000000 0.00000000
0.00000000 5.34265000 0.00000000
0.00000000 0.00000000 24.00700000

ATOMIC_POSITIONS {angstrom}
In 0.00000000 0.00000000 2.11525677
In 0.00000000 2.67132500 -0.667874740000002 0 0 0
In 3.77782000 0.00000000 2.11549684
In 3.77782000 2.67132500 -0.667874740000002 0 0 0
Ni 7.55556444 2.67132500 1.89199167
Ni 1.88891000 4.04406549 0.65251026
Ni 1.88883444 1.29858451 0.65251026
Ni 0.00000000 0.00000000 -0.667874740000002 0 0 0
Ni 1.88891000 1.33566250 -2.0033841500000023 0 0 0
Ni 1.88891000 4.00698750 -2.0033841500000023 0 0 0
Ni 3.77789556 2.67132500 1.89199167
Ni 5.66680556 4.04406549 0.65227019
Ni 5.66673000 1.29858451 0.65227019
Ni 3.77782000 0.00000000 -0.667874740000002 0 0 0
Ni 5.66673000 1.33566250 -2.0033841500000023 0 0 0
Ni 5.66673000 4.00698750 -2.0033841500000023 0 0 0
