&CONTROL
calculation = 'relax'
prefix = 'scf'
pseudo_dir = '/vol0004/mdt0/data/hp150275/u10028/POT_KKJUS'
outdir = './data'
tprnfor = .true.
nstep = 50
disk_io = 'non'
/
&SYSTEM
ibrav = 0
ecutwfc = 50.0
ecutrho = 400
occupations = 'smearing'
smearing = 'mp'
degauss = 0.01
assume_isolated = 'esm'
esm_bc = 'bc1'
input_dft = 'BEEF-VDW'
nosym = .true.
nspin = 1
ntyp = 4
nat = 33
/
&ELECTRONS
electron_maxstep = 200
mixing_beta = 0.1
conv_thr = 1e-06
/
&IONS
ion_dynamics = 'bfgs'
upscale = 1.0
/
&CELL
/

K_POINTS {automatic}
9 6 2 0  0  0

ATOMIC_SPECIES
C 12.01 C.pbe-n-rrkjus_psl.1.0.0.UPF
Ni 58.69 Ni.pbe-spn-rrkjus_psl.1.0.0.UPF
Sb 121.7 Sb.pbe-n-rrkjus_psl.1.0.0.UPF
Zr 91.22 Zr.pbe-spn-rrkjus_psl.1.0.0.UPF

CELL_PARAMETERS {angstrom}
6.34847000 0.00000000 0.00000000
0.00000000 8.97809000 0.00000000
0.00000000 0.00000000 26.73360000

ATOMIC_POSITIONS {angstrom}
Zr 0.00000000 0.00000000 -3.3668295799999974 0 0 0
Zr 3.17423500 2.24452250 -1.1222765300000006 0 0 0
Zr 3.17423500 6.73356750 -1.1222765300000006 0 0 0
Zr 0.00000000 4.48904500 -3.3668295799999974 0 0 0
Zr 0.10887626 4.37340720 1.36608696
Zr 2.98454272 6.73329816 3.18370442
Zr 2.94638841 2.24452250 3.14734673
Zr 0.10868581 0.11482977 1.36555229
Ni 1.58711750 0.00000000 -1.1222765300000006 0 0 0
Ni 4.76135250 4.48904500 -1.1222765300000006 0 0 0
Ni 4.76135250 0.00000000 -1.1222765300000006 0 0 0
Ni 1.58711750 4.48904500 -1.1222765300000006 0 0 0
Ni 4.76135250 6.73356750 -3.3668295799999974 0 0 0
Ni 1.58711750 2.24452250 -3.3668295799999974 0 0 0
Ni 1.58711750 6.73356750 -3.3668295799999974 0 0 0
Ni 4.76135250 2.24452250 -3.3668295799999974 0 0 0
Ni 0.75946747 4.10343603 3.85391578
Ni 4.59476865 0.03483499 3.32111513
Ni 4.59521304 4.45447935 3.32164980
Ni 0.75946747 0.38614765 3.85364844
Ni 4.77316065 2.24461228 0.95225083
Ni 1.49277924 6.73320838 1.06854199
Ni 1.67313927 2.24407360 0.89343691
Ni 5.07636358 6.73266969 1.21771548
Sb 0.00000000 6.73356750 -1.1222765300000006 0 0 0
Sb 3.17423500 0.00000000 -3.3668295799999974 0 0 0
Sb 0.00000000 2.24452250 -1.1222765300000006 0 0 0
Sb 3.17423500 4.48904500 -3.3668295799999974 0 0 0
Sb 5.31252667 2.24425316 4.93074518
Sb 3.24286196 4.55189163 1.09794895
Sb 6.24708493 6.73356750 3.66678058
Sb 3.24267151 8.91479447 1.09768162
C 0.96192017 2.24470206 3.99426718
