&CONTROL
calculation = 'relax'
prefix = 'scf'
pseudo_dir = '/vol0004/mdt0/data/hp150275/u10028/POT_KKJUS'
outdir = './data'
tprnfor = .true.
nstep = 50
disk_io = 'non'
/
&SYSTEM
ibrav = 0
ecutwfc = 50.0
ecutrho = 400
occupations = 'smearing'
smearing = 'mp'
degauss = 0.01
assume_isolated = 'esm'
esm_bc = 'bc1'
input_dft = 'BEEF-VDW'
nosym = .true.
nspin = 1
ntyp = 4
nat = 34
/
&ELECTRONS
electron_maxstep = 200
mixing_beta = 0.1
conv_thr = 1e-06
/
&IONS
ion_dynamics = 'bfgs'
upscale = 1.0
/
&CELL
/

K_POINTS {automatic}
9 6 2 0  0  0

ATOMIC_SPECIES
Al 26.98 Al.pbe-nl-rrkjus_psl.1.0.0.UPF
C 12.01 C.pbe-n-rrkjus_psl.1.0.0.UPF
O 15.99 O.pbe-n-rrkjus_psl.1.0.0.UPF
Pt 195.0 Pt.pbe-n-rrkjus_psl.1.0.0.UPF

CELL_PARAMETERS {angstrom}
6.19423000 0.00000000 0.00000000
0.00000000 8.75996000 0.00000000
0.00000000 0.00000000 26.57000000

ATOMIC_POSITIONS {angstrom}
Al 0.00000000 0.00000000 -3.285114799999999 0 0 0
Al 0.00000000 2.18999000 -1.0949497000000008 0 0 0
Al 0.00018583 0.00000000 1.18688190
Al 6.16363050 2.22082506 3.29335150
Al 0.00000000 4.37998000 -3.285114799999999 0 0 0
Al 0.00000000 6.56997000 -1.0949497000000008 0 0 0
Al 0.03574071 4.37998000 1.08485310
Al 6.16363050 6.53913494 3.29335150
Al 3.09711500 0.00000000 -3.285114799999999 0 0 0
Al 3.09711500 2.18999000 -1.0949497000000008 0 0 0
Al 3.09674335 0.00000000 1.18661620
Al 3.12796227 2.21994906 3.29468000
Al 3.09711500 4.37998000 -3.285114799999999 0 0 0
Al 3.09711500 6.56997000 -1.0949497000000008 0 0 0
Al 3.06211760 4.37998000 1.08485310
Al 3.12796227 6.54001094 3.29468000
Pt 1.54855750 2.18999000 -3.285114799999999 0 0 0
Pt 1.54855750 0.00000000 -1.0949497000000008 0 0 0
Pt 1.54880527 2.06428457 1.10292070
Pt 1.54942469 4.37998000 3.14509090
Pt 1.54855750 6.56997000 -3.285114799999999 0 0 0
Pt 1.54855750 4.37998000 -1.0949497000000008 0 0 0
Pt 1.54880527 6.69567543 1.10292070
Pt 1.54682312 0.00000000 3.64380980
Pt 4.64567250 2.18999000 -3.285114799999999 0 0 0
Pt 4.64567250 0.00000000 -1.0949497000000008 0 0 0
Pt 4.64585833 2.21302869 0.97458760
Pt 4.64604415 4.37998000 3.12516340
Pt 4.64567250 6.56997000 -3.285114799999999 0 0 0
Pt 4.64567250 4.37998000 -1.0949497000000008 0 0 0
Pt 4.64585833 6.54693131 0.97458760
Pt 4.64437171 0.00000000 3.17591210
C 1.53548767 0.00000000 5.55498990
O 1.53047035 0.00000000 6.70653370
