&CONTROL
calculation = 'relax'
prefix = 'scf'
pseudo_dir = '/vol0004/mdt0/data/hp150275/u10028/POT_KKJUS'
outdir = './data'
tprnfor = .true.
nstep = 50
disk_io = 'non'
/
&SYSTEM
ibrav = 0
ecutwfc = 50.0
ecutrho = 400
occupations = 'smearing'
smearing = 'mp'
degauss = 0.01
assume_isolated = 'esm'
esm_bc = 'bc1'
input_dft = 'BEEF-VDW'
nosym = .true.
nspin = 1
ntyp = 4
nat = 33
/
&ELECTRONS
electron_maxstep = 200
mixing_beta = 0.1
conv_thr = 1e-06
/
&IONS
ion_dynamics = 'bfgs'
upscale = 1.0
/
&CELL
/

K_POINTS {automatic}
8 6 1 0 0 0

ATOMIC_SPECIES
C 12.01 C.pbe-n-rrkjus_psl.1.0.0.UPF
Cu 63.54 Cu.pbe-dn-rrkjus_psl.1.0.0.UPF
Li 6.941 Li.pbe-sl-rrkjus_psl.1.0.0.UPF
Si 28.08 Si.pbe-nl-rrkjus_psl.1.0.0.UPF

CELL_PARAMETERS {angstrom}
5.78917000 0.00000000 0.00000000
0.00000000 8.18712000 0.00000000
0.00000000 0.00000000 26.14030000

ATOMIC_POSITIONS {angstrom}
Li 0.00000000 0.00000000 -3.0701782400000006 0 0 0
Li 2.89458500 2.04678000 -1.0233927399999985 0 0 0
Li 2.89458500 6.14034000 -1.0233927399999985 0 0 0
Li 0.00000000 4.09356000 -3.0701782400000006 0 0 0
Li 0.00000000 4.09356000 0.93164029
Li 2.89458500 6.15949786 3.48267217
Li 2.89458500 2.02762214 3.48241077
Li 0.00000000 0.00000000 1.07698036
Cu 1.44729250 0.00000000 -1.0233927399999985 0 0 0
Cu 4.34187750 4.09356000 -1.0233927399999985 0 0 0
Cu 4.34187750 0.00000000 -1.0233927399999985 0 0 0
Cu 1.44729250 4.09356000 -1.0233927399999985 0 0 0
Cu 4.34187750 6.14034000 -3.0701782400000006 0 0 0
Cu 1.44729250 2.04678000 -3.0701782400000006 0 0 0
Cu 1.44729250 6.14034000 -3.0701782400000006 0 0 0
Cu 4.34187750 2.04678000 -3.0701782400000006 0 0 0
Cu 1.32855662 4.09356000 2.98208542
Cu 4.61807880 0.00000000 3.41627581
Cu 4.46061338 4.09356000 2.98208542
Cu 1.17114909 0.00000000 3.41627581
Cu 4.35582940 2.07592615 1.08717508
Cu 1.43334060 6.11119385 1.08717508
Cu 1.43334060 2.07592615 1.08717508
Cu 4.35582940 6.11119385 1.08717508
Si 0.00000000 6.14034000 -1.0233927399999985 0 0 0
Si 2.89458500 0.00000000 -3.0701782400000006 0 0 0
Si 0.00000000 2.04678000 -1.0233927399999985 0 0 0
Si 2.89458500 4.09356000 -3.0701782400000006 0 0 0
Si 0.00000000 2.08763373 3.14493949
Si 2.89458500 4.09356000 1.11383818
Si 0.00000000 6.09948627 3.14520090
Si 2.89458500 0.00000000 0.87543865
C 2.89464289 8.18703813 2.68983687
