&CONTROL
calculation = 'relax'
prefix = 'scf'
pseudo_dir = '/vol0004/mdt0/data/hp150275/u10028/POT_KKJUS'
outdir = './data'
tprnfor = .true.
nstep = 50
disk_io = 'non'
/
&SYSTEM
ibrav = 0
ecutwfc = 50.0
ecutrho = 400
occupations = 'smearing'
smearing = 'mp'
degauss = 0.01
assume_isolated = 'esm'
esm_bc = 'bc1'
input_dft = 'BEEF-VDW'
nosym = .true.
nspin = 1
ntyp = 4
nat = 17
/
&ELECTRONS
electron_maxstep = 200
mixing_beta = 0.1
conv_thr = 1e-06
/
&IONS
ion_dynamics = 'bfgs'
upscale = 1.0
/
&CELL
/

K_POINTS {automatic}
10 10 2 0  0  0

ATOMIC_SPECIES
C 12.01 C.pbe-n-rrkjus_psl.1.0.0.UPF
Cu 63.54 Cu.pbe-dn-rrkjus_psl.1.0.0.UPF
In 114.8 In.pbe-dn-rrkjus_psl.1.0.0.UPF
Zr 91.22 Zr.pbe-spn-rrkjus_psl.1.0.0.UPF

CELL_PARAMETERS {angstrom}
6.47982000 0.00000000 0.00000000
-0.00000000 6.47982000 0.00000000
0.00000000 0.00000000 24.85990000

ATOMIC_POSITIONS {angstrom}
Zr 0.00000000 0.00000000 -2.4300552300000007 0 0 0
Zr 3.23991000 3.23991000 -2.4300552300000007 0 0 0
Zr 3.23991000 -0.00000000 0.80993554
Zr 0.00000000 3.23991000 0.80993554
In 0.00000000 0.00000000 0.80993554
In 3.23991000 0.00000000 -2.4300552300000007 0 0 0
In 0.00000000 3.23991000 -2.4300552300000007 0 0 0
In 3.23991000 3.23991000 0.80993554
Cu 1.61995500 1.61995500 -0.8099355399999979 0 0 0
Cu 4.85986500 4.85986500 2.43005523
Cu 4.85986500 1.61995500 -0.8099355399999979 0 0 0
Cu 1.61995500 4.85986500 2.43005523
Cu 4.85986500 4.85986500 -0.8099355399999979 0 0 0
Cu 1.61995500 1.61995500 2.43005523
Cu 1.61995500 4.85986500 -0.8099355399999979 0 0 0
Cu 4.85986500 1.61995500 2.43005523
C 0.00000000 3.23991000 3.23004681
