&CONTROL
calculation = 'relax'
prefix = 'scf'
pseudo_dir = '/vol0004/mdt0/data/hp150275/u10028/POT_KKJUS'
outdir = './data'
tprnfor = .true.
nstep = 50
disk_io = 'non'
/
&SYSTEM
ibrav = 0
ecutwfc = 50.0
ecutrho = 400
occupations = 'smearing'
smearing = 'mp'
degauss = 0.01
assume_isolated = 'esm'
esm_bc = 'bc1'
input_dft = 'BEEF-VDW'
nosym = .true.
nspin = 1
ntyp = 4
nat = 33
/
&ELECTRONS
electron_maxstep = 200
mixing_beta = 0.1
conv_thr = 1e-06
/
&IONS
ion_dynamics = 'bfgs'
upscale = 1.0
/
&CELL
/

K_POINTS {automatic}
9 6 2 0  0  0

ATOMIC_SPECIES
C 12.01 C.pbe-n-rrkjus_psl.1.0.0.UPF
Pd 106.4 Pd.pbe-n-rrkjus_psl.1.0.0.UPF
Sc 44.95 Sc.pbe-spn-rrkjus_psl.1.0.0.UPF
Sn 118.7 Sn.pbe-dn-rrkjus_psl.1.0.0.UPF

CELL_PARAMETERS {angstrom}
6.62889000 0.00000000 0.00000000
0.00000000 9.37466000 0.00000000
0.00000000 0.00000000 27.03100000

ATOMIC_POSITIONS {angstrom}
Sc 0.00000000 0.00000000 -3.515381549999997 0 0 0
Sc 3.31444500 2.34366500 -1.1717938500000002 0 0 0
Sc 3.31444500 7.03099500 -1.1717938500000002 0 0 0
Sc 0.00000000 4.68733000 -3.515381549999997 0 0 0
Sc 6.61742202 4.72764104 1.16827982
Sc 3.28315664 7.03099500 3.46834761
Sc 3.53505446 2.34366500 3.47375381
Sc 6.61742202 9.33434896 1.16827982
Sn 0.00000000 7.03099500 -1.1717938500000002 0 0 0
Sn 3.31444500 0.00000000 -3.515381549999997 0 0 0
Sn 0.00000000 2.34366500 -1.1717938500000002 0 0 0
Sn 3.31444500 4.68733000 -3.515381549999997 0 0 0
Sn 6.21286086 2.34366500 4.50498646
Sn 3.30774982 4.63848802 1.19233741
Sn 0.10718915 7.03099500 3.63350702
Sn 3.30774982 0.04884198 1.19233741
Pd 1.65722250 0.00000000 -1.1717938500000002 0 0 0
Pd 4.97166750 4.68733000 -1.1717938500000002 0 0 0
Pd 4.97166750 0.00000000 -1.1717938500000002 0 0 0
Pd 1.65722250 4.68733000 -1.1717938500000002 0 0 0
Pd 4.97166750 7.03099500 -3.515381549999997 0 0 0
Pd 1.65722250 2.34366500 -3.515381549999997 0 0 0
Pd 1.65722250 7.03099500 -3.515381549999997 0 0 0
Pd 4.97166750 2.34366500 -3.515381549999997 0 0 0
Pd 1.50323339 4.57399036 3.37914531
Pd 5.05028614 9.29685032 3.37671252
Pd 5.05028614 4.76513968 3.37671252
Pd 1.50316710 0.11333964 3.37887500
Pd 5.04683911 2.34366500 1.15881897
Pd 1.75075614 7.03099500 1.17747036
Pd 1.48686003 2.34366500 1.35830775
Pd 4.92387320 7.03099500 1.22585585
C 1.50422772 2.34366500 3.66324112
