&CONTROL
calculation = 'relax'
prefix = 'scf'
pseudo_dir = '/vol0004/mdt0/data/hp150275/u10028/POT_KKJUS'
outdir = './data'
tprnfor = .true.
nstep = 50
disk_io = 'non'
/
&SYSTEM
ibrav = 0
ecutwfc = 50.0
ecutrho = 400
occupations = 'smearing'
smearing = 'mp'
degauss = 0.01
assume_isolated = 'esm'
esm_bc = 'bc1'
input_dft = 'BEEF-VDW'
nosym = .true.
nspin = 1
ntyp = 4
nat = 34
/
&ELECTRONS
electron_maxstep = 200
mixing_beta = 0.1
conv_thr = 1e-06
/
&IONS
ion_dynamics = 'bfgs'
upscale = 1.0
/
&CELL
/

K_POINTS {automatic}
9 6 2 0  0  0

ATOMIC_SPECIES
C 12.01 C.pbe-n-rrkjus_psl.1.0.0.UPF
Li 6.941 Li.pbe-sl-rrkjus_psl.1.0.0.UPF
O 15.99 O.pbe-n-rrkjus_psl.1.0.0.UPF
Pb 207.2 Pb.pbe-dn-rrkjus_psl.1.0.0.UPF

CELL_PARAMETERS {angstrom}
6.73051000 0.00000000 0.00000000
0.00000000 9.51837000 0.00000000
0.00000000 0.00000000 27.13880000

ATOMIC_POSITIONS {angstrom}
Li 1.68262750 0.00000000 -1.1897649900000005 0 0 0
Li 5.04788250 4.75918500 -1.1897649900000005 0 0 0
Li 5.04788250 0.00000000 -1.1897649900000005 0 0 0
Li 1.68262750 4.75918500 -1.1897649900000005 0 0 0
Li 5.04788250 7.13877750 -3.5692949799999987 0 0 0
Li 1.68262750 2.37959250 -3.5692949799999987 0 0 0
Li 1.68262750 7.13877750 -3.5692949799999987 0 0 0
Li 5.04788250 2.37959250 -3.5692949799999987 0 0 0
Li 0.00000000 7.13877750 -1.1897649900000005 0 0 0
Li 3.36525500 0.00000000 -3.5692949799999987 0 0 0
Li 0.00000000 2.37959250 -1.1897649900000005 0 0 0
Li 3.36525500 4.75918500 -3.5692949799999987 0 0 0
Li 1.80350746 4.75537765 3.70743147
Li 4.92700254 0.00380735 3.70743147
Li 4.92700254 4.75537765 3.70743147
Li 1.80344015 0.00380735 3.70743147
Li 5.04969974 2.37959250 1.13060241
Li 1.70766500 7.13877750 1.17619559
Li 1.68081026 2.37959250 1.13060241
Li 5.02284500 7.13877750 1.17619559
Li 6.73044269 2.37959250 3.37253868
Li 3.36525500 4.75575839 1.22640237
Li 0.00000000 7.13877750 3.38013754
Li 3.36525500 0.00342661 1.22613098
Pb 0.00000000 0.00000000 -3.5692949799999987 0 0 0
Pb 3.36525500 2.37959250 -1.1897649900000005 0 0 0
Pb 3.36525500 7.13877750 -1.1897649900000005 0 0 0
Pb 0.00000000 4.75918500 -3.5692949799999987 0 0 0
Pb 0.00000000 4.75880427 1.37105218
Pb 3.36532231 7.13877750 3.56766665
Pb 3.36525500 2.37959250 3.45802590
Pb 0.00000000 0.00038073 1.37105218
C 0.00000000 2.37930695 5.41120533
O 0.00000000 2.37940213 6.56107629
