&CONTROL
calculation = 'relax'
prefix = 'scf'
pseudo_dir = '/vol0004/mdt0/data/hp150275/u10028/POT_HYBRID_KKJUS_GBRV'
outdir = './data'
tprnfor = .true.
nstep = 50
disk_io = 'non'
/
&SYSTEM
ibrav = 0
ecutwfc = 50.0
ecutrho = 400
occupations = 'smearing'
smearing = 'mp'
degauss = 0.01
assume_isolated = 'esm'
esm_bc = 'bc1'
input_dft = 'BEEF-VDW'
nosym = .true.
nspin = 2
ntyp = 5
nat = 34
starting_magnetization(1) = 0.0
starting_magnetization(2) = 0.1
starting_magnetization(3) = 0.0
starting_magnetization(4) = 0.0
starting_magnetization(5) = 0.0
/
&ELECTRONS
electron_maxstep = 300
mixing_beta = 0.1
conv_thr = 1e-06
/
&IONS
ion_dynamics = 'bfgs'
upscale = 1.0
/
&CELL
/

K_POINTS {automatic}
8 6 1 0 0 0

ATOMIC_SPECIES
C 12.01 C.pbe-n-rrkjus_psl.1.0.0.UPF
Fe 55.84 fe_pbe_v1.5.uspp.F.UPF
Ga 69.72 Ga.pbe-dnl-rrkjus_psl.1.0.0.UPF
O 15.99 O.pbe-n-rrkjus_psl.1.0.0.UPF
Ti 47.86 Ti.pbe-spn-rrkjus_psl.1.0.0.UPF

CELL_PARAMETERS {angstrom}
5.88011000 0.00000000 0.00000000
0.00000000 8.31574000 0.00000000
0.00000000 0.00000000 26.23680000

ATOMIC_POSITIONS {angstrom}
Ti 0.00000000 0.00000000 -3.118506049999997 0 0 0
Ti 2.94005500 2.07893500 -1.0395020200000005 0 0 0
Ti 2.94005500 6.23680500 -1.0395020200000005 0 0 0
Ti 0.00000000 4.15787000 -3.118506049999997 0 0 0
Ti 0.00005880 4.14207009 0.97837027
Ti 2.94017260 6.23622290 3.08046269
Ti 2.94017260 2.07876869 3.10774896
Ti 5.87999240 0.01563359 0.97810790
Ga 0.00000000 6.23680500 -1.0395020200000005 0 0 0
Ga 2.94005500 0.00000000 -3.118506049999997 0 0 0
Ga 0.00000000 2.07893500 -1.0395020200000005 0 0 0
Ga 2.94005500 4.15787000 -3.118506049999997 0 0 0
Ga 0.00064681 2.07785395 3.16573229
Ga 2.94011380 4.14331746 1.01169101
Ga 0.00052921 6.23722079 3.26753107
Ga 2.93976099 0.01405360 1.01274048
Fe 1.47002750 0.00000000 -1.0395020200000005 0 0 0
Fe 4.41008250 4.15787000 -1.0395020200000005 0 0 0
Fe 4.41008250 0.00000000 -1.0395020200000005 0 0 0
Fe 1.47002750 4.15787000 -1.0395020200000005 0 0 0
Fe 4.41008250 6.23680500 -3.118506049999997 0 0 0
Fe 1.47002750 2.07893500 -3.118506049999997 0 0 0
Fe 1.47002750 6.23680500 -3.118506049999997 0 0 0
Fe 4.41008250 2.07893500 -3.118506049999997 0 0 0
Fe 1.38835277 4.17142466 3.04346880
Fe 4.48881717 8.30293376 3.04530538
Fe 4.49199243 4.17117518 3.04373117
Fe 1.39146923 8.30276745 3.04504301
Fe 4.41043531 2.07926763 1.03136861
Fe 1.48143491 6.23613974 1.07623354
Fe 1.46973349 2.07926763 1.03163098
Fe 4.39855748 6.23597343 1.07597117
C 2.94052541 2.07868553 5.26257734
O 2.93987860 2.07893500 6.41411050
