&CONTROL
calculation = 'relax'
prefix = 'scf'
pseudo_dir = '/vol0004/mdt0/data/hp150275/u10028/POT_KKJUS'
outdir = './data'
tprnfor = .true.
nstep = 50
disk_io = 'non'
/
&SYSTEM
ibrav = 0
ecutwfc = 50.0
ecutrho = 400
occupations = 'smearing'
smearing = 'mp'
degauss = 0.01
assume_isolated = 'esm'
esm_bc = 'bc1'
input_dft = 'BEEF-VDW'
nosym = .true.
nspin = 1
ntyp = 3
nat = 33
/
&ELECTRONS
electron_maxstep = 200
mixing_beta = 0.1
conv_thr = 1e-06
/
&IONS
ion_dynamics = 'bfgs'
upscale = 1.0
/
&CELL
/

K_POINTS {automatic}
8 6 2 0  0  0

ATOMIC_SPECIES
C 12.01 C.pbe-n-rrkjus_psl.1.0.0.UPF
Mg 24.30 Mg.pbe-spnl-rrkjus_psl.1.0.0.UPF
Y 88.90 Y.pbe-spn-rrkjus_psl.1.0.0.UPF

CELL_PARAMETERS {angstrom}
7.58049000 0.00000000 0.00000000
0.00000000 10.72040000 0.00000000
0.00000000 0.00000000 28.04030000

ATOMIC_POSITIONS {angstrom}
Y 0.00000000 0.00000000 -4.020137809999998 0 0 0
Y 0.00000000 2.68010000 -1.3400459399999995 0 0 0
Y 0.00000000 5.36009280 1.30639758
Y 0.00000000 2.30992459 4.05406657
Y 0.00000000 5.36020000 -4.020137809999998 0 0 0
Y 0.00000000 8.04030000 -1.3400459399999995 0 0 0
Y 0.00000000 0.00000000 1.47267656
Y 0.00000000 8.41058262 4.05406657
Y 3.79024500 0.00000000 -4.020137809999998 0 0 0
Y 3.79024500 2.68010000 -1.3400459399999995 0 0 0
Y 3.79024500 5.36020000 1.35322488
Y 3.79024500 2.88936221 3.89143283
Y 3.79024500 5.36020000 -4.020137809999998 0 0 0
Y 3.79024500 8.04030000 -1.3400459399999995 0 0 0
Y 3.79024500 0.00000000 1.29293823
Y 3.79024500 7.83114500 3.89115243
Mg 1.89512250 2.68010000 -4.020137809999998 0 0 0
Mg 1.89512250 0.00000000 -1.3400459399999995 0 0 0
Mg 1.87420035 2.69811027 1.31929611
Mg 1.67672858 5.36020000 4.07705962
Mg 1.89512250 8.04030000 -4.020137809999998 0 0 0
Mg 1.89512250 5.36020000 -1.3400459399999995 0 0 0
Mg 1.87420035 8.02228973 1.31929611
Mg 2.18666815 0.00010720 4.06079625
Mg 5.68536750 2.68010000 -4.020137809999998 0 0 0
Mg 5.68536750 0.00000000 -1.3400459399999995 0 0 0
Mg 5.70628965 2.69811027 1.31929611
Mg 5.90376142 5.36020000 4.07705962
Mg 5.68536750 8.04030000 -4.020137809999998 0 0 0
Mg 5.68536750 5.36020000 -1.3400459399999995 0 0 0
Mg 5.70628965 8.02228973 1.31929611
Mg 5.39382185 0.00010720 4.06079625
C 0.00000000 0.00000000 3.87124382
