&CONTROL
calculation = 'relax'
prefix = 'scf'
pseudo_dir = '/vol0004/mdt0/data/hp150275/u10028/POT_KKJUS'
outdir = './data'
tprnfor = .true.
nstep = 50
disk_io = 'non'
/
&SYSTEM
ibrav = 0
ecutwfc = 50.0
ecutrho = 400
occupations = 'smearing'
smearing = 'mp'
degauss = 0.01
assume_isolated = 'esm'
esm_bc = 'bc1'
input_dft = 'BEEF-VDW'
nosym = .true.
nspin = 1
ntyp = 5
nat = 34
/
&ELECTRONS
electron_maxstep = 200
mixing_beta = 0.1
conv_thr = 1e-06
/
&IONS
ion_dynamics = 'bfgs'
upscale = 1.0
/
&CELL
/

K_POINTS {automatic}
9 6 2 0  0  0

ATOMIC_SPECIES
Al 26.98 Al.pbe-nl-rrkjus_psl.1.0.0.UPF
C 12.01 C.pbe-n-rrkjus_psl.1.0.0.UPF
Cu 63.54 Cu.pbe-dn-rrkjus_psl.1.0.0.UPF
O 15.99 O.pbe-n-rrkjus_psl.1.0.0.UPF
Sc 44.95 Sc.pbe-spn-rrkjus_psl.1.0.0.UPF

CELL_PARAMETERS {angstrom}
6.23499000 0.00000000 0.00000000
0.00000000 8.81761000 0.00000000
0.00000000 0.00000000 26.61320000

ATOMIC_POSITIONS {angstrom}
Sc 0.00000000 0.00000000 -3.306690100000001 0 0 0
Sc 3.11749500 2.20440250 -1.1023187399999976 0 0 0
Sc 3.11749500 6.61320750 -1.1023187399999976 0 0 0
Sc 0.00000000 4.40880500 -3.306690100000001 0 0 0
Sc 6.20556085 4.40871682 1.05947149
Sc 3.04485737 6.68612913 3.44933685
Sc 3.04467032 2.13139269 3.44960298
Sc 0.03622529 8.81752182 1.05947149
Al 0.00000000 6.61320750 -1.1023187399999976 0 0 0
Al 3.11749500 0.00000000 -3.306690100000001 0 0 0
Al 0.00000000 2.20440250 -1.1023187399999976 0 0 0
Al 3.11749500 4.40880500 -3.306690100000001 0 0 0
Al 6.19789181 2.25898351 3.17389023
Al 3.10296747 4.40871682 1.10498006
Al 6.19789181 6.55862649 3.17389023
Al 3.10115933 0.00000000 1.15501288
Cu 1.55874750 0.00000000 -1.1023187399999976 0 0 0
Cu 4.67624250 4.40880500 -1.1023187399999976 0 0 0
Cu 4.67624250 0.00000000 -1.1023187399999976 0 0 0
Cu 1.55874750 4.40880500 -1.1023187399999976 0 0 0
Cu 4.67624250 6.61320750 -3.306690100000001 0 0 0
Cu 1.55874750 2.20440250 -3.306690100000001 0 0 0
Cu 1.55874750 6.61320750 -3.306690100000001 0 0 0
Cu 4.67624250 2.20440250 -3.306690100000001 0 0 0
Cu 1.52532795 4.40871682 3.21806814
Cu 4.80580559 0.00017635 3.19145494
Cu 4.62810838 4.40871682 3.24202002
Cu 1.15521895 0.00000000 3.60981445
Cu 4.55939879 2.19743659 1.17231146
Cu 1.63949062 6.58164046 1.14543213
Cu 1.63955297 2.23570502 1.14543213
Cu 4.55952349 6.62008524 1.17204533
C 2.04420382 8.81734547 5.23135672
O 2.39317621 8.81734547 6.34538528
