&CONTROL
calculation = 'relax'
prefix = 'scf'
pseudo_dir = '/vol0004/mdt0/data/hp150275/u10028/POT_HYBRID_KKJUS_GBRV'
outdir = './data'
tprnfor = .true.
nstep = 50
disk_io = 'non'
/
&SYSTEM
ibrav = 0
ecutwfc = 50.0
ecutrho = 400
occupations = 'smearing'
smearing = 'mp'
degauss = 0.01
assume_isolated = 'esm'
esm_bc = 'bc1'
input_dft = 'BEEF-VDW'
nosym = .true.
nspin = 2
ntyp = 4
nat = 33
starting_magnetization(1) = 0.0
starting_magnetization(2) = 0.0
starting_magnetization(3) = 0.001
starting_magnetization(4) = 0.0
/
&ELECTRONS
electron_maxstep = 300
mixing_beta = 0.1
conv_thr = 1e-06
/
&IONS
ion_dynamics = 'bfgs'
upscale = 1.0
/
&CELL
/

K_POINTS {automatic}
8 6 1 0 0 0

ATOMIC_SPECIES
C 12.01 C.pbe-n-rrkjus_psl.1.0.0.UPF
Ga 69.72 Ga.pbe-dnl-rrkjus_psl.1.0.0.UPF
Ni 58.69 ni_pbe_v1.4.uspp.F.UPF
Ta 180.9 Ta.pbe-spn-rrkjus_psl.1.0.0.UPF

CELL_PARAMETERS {angstrom}
5.98793000 0.00000000 0.00000000
0.00000000 8.46821000 0.00000000
0.00000000 0.00000000 26.35120000

ATOMIC_POSITIONS {angstrom}
Ta 0.00000000 0.00000000 -3.175583109999998 0 0 0
Ta 2.99396500 2.11705250 -1.058527699999999 0 0 0
Ta 2.99396500 6.35115750 -1.058527699999999 0 0 0
Ta 0.00000000 4.23410500 -3.175583109999998 0 0 0
Ta 5.96673273 4.28093420 1.16050685
Ta 2.73175355 6.35115750 3.09284034
Ta 3.06210764 2.11696782 2.97636804
Ta 5.96667285 8.42129612 1.16024334
Ga 0.00000000 6.35115750 -1.058527699999999 0 0 0
Ga 2.99396500 0.00000000 -3.175583109999998 0 0 0
Ga 0.00000000 2.11705250 -1.058527699999999 0 0 0
Ga 2.99396500 4.23410500 -3.175583109999998 0 0 0
Ga 5.43440575 2.11696782 3.96717316
Ga 2.95037287 4.19328823 1.04113591
Ga 5.95308025 6.35124218 3.30944721
Ga 2.95037287 0.04073209 1.04113591
Ni 1.49698250 0.00000000 -1.058527699999999 0 0 0
Ni 4.49094750 4.23410500 -1.058527699999999 0 0 0
Ni 4.49094750 0.00000000 -1.058527699999999 0 0 0
Ni 1.49698250 4.23410500 -1.058527699999999 0 0 0
Ni 4.49094750 6.35115750 -3.175583109999998 0 0 0
Ni 1.49698250 2.11705250 -3.175583109999998 0 0 0
Ni 1.49698250 6.35115750 -3.175583109999998 0 0 0
Ni 4.49094750 2.11705250 -3.175583109999998 0 0 0
Ni 1.28351280 4.08040699 3.33421734
Ni 4.32687822 8.34702991 3.11313077
Ni 4.32669858 4.35536977 3.11313077
Ni 1.28315352 0.15369801 3.33421734
Ni 4.66202266 2.11696782 0.94284594
Ni 1.53374839 6.35124218 0.94126486
Ni 1.35243387 2.11688314 1.04640615
Ni 4.40064952 6.35124218 1.16604060
C 1.36099661 2.11705250 3.95294351
