&CONTROL
calculation = 'relax'
prefix = 'scf'
pseudo_dir = '/vol0403/data/hp230205/u10028/POT_HYBRID_KKJUS_GBRV'
outdir = './data'
tprnfor = .true.
nstep = 50
disk_io = 'non'
/
&SYSTEM
ibrav = 0
ecutwfc = 50.0
ecutrho = 400
occupations = 'smearing'
smearing = 'mp'
degauss = 0.01
assume_isolated = 'esm'
esm_bc = 'bc1'
input_dft = 'BEEF-VDW'
nosym = .true.
nspin = 1
ntyp = 4
nat = 16
/
&ELECTRONS
electron_maxstep = 200
mixing_beta = 0.1
conv_thr = 1e-06
/
&IONS
ion_dynamics = 'bfgs'
upscale = 1.0
/
&CELL
/

K_POINTS {automatic}
8 8 1 0 0 0

ATOMIC_SPECIES
Ge 72.64 Ge.pbe-dn-rrkjus_psl.1.0.0.UPF
Li 6.941 Li.pbe-sl-rrkjus_psl.1.0.0.UPF
Pd 106.4 Pd.pbe-n-rrkjus_psl.1.0.0.UPF
Sc 44.95 Sc.pbe-spn-rrkjus_psl.1.0.0.UPF


CELL_PARAMETERS {angstrom}
6.30999000 0.00000000 0.00000000
0.00000000 6.30999000 0.00000000
0.00000000 0.00000000 24.73250000

ATOMIC_POSITIONS {angstrom}
Li 4.73425930 1.57566760 0.85821775
Li 4.73249250 4.73249250 -2.3661582700000032 0 0 0
Li 1.57749750 1.57749750 -2.3661582700000032 0 0 0
Li 1.57566760 4.73432240 0.85821775
Sc 0.00000000 3.15493190 2.54101705
Sc 0.00000000 0.00000000 -0.7887194200000032 0 0 0
Sc 3.15499500 3.15499500 -0.7887194200000032 0 0 0
Sc 3.15499500 0.00006310 2.54101705
Ge 0.00000000 0.00006310 2.42848418
Ge 0.00000000 3.15499500 -0.7887194200000032 0 0 0
Ge 3.15499500 0.00000000 -0.7887194200000032 0 0 0
Ge 3.15499500 3.15505810 2.42749488
Pd 1.57743440 1.57743440 0.81122600
Pd 1.57749750 4.73249250 -2.3661582700000032 0 0 0
Pd 4.73249250 1.57749750 -2.3661582700000032 0 0 0
Pd 4.73261870 4.73261870 0.81122600
