&CONTROL
calculation = 'relax'
prefix = 'scf'
pseudo_dir = '/vol0403/data/hp230205/u10028/POT_HYBRID_KKJUS_GBRV'
outdir = './data'
tprnfor = .true.
nstep = 50
disk_io = 'non'
/
&SYSTEM
ibrav = 0
ecutwfc = 50.0
ecutrho = 400
occupations = 'smearing'
smearing = 'mp'
degauss = 0.01
assume_isolated = 'esm'
esm_bc = 'bc1'
input_dft = 'BEEF-VDW'
nosym = .true.
nspin = 1
ntyp = 5
nat = 33
/
&ELECTRONS
electron_maxstep = 200
mixing_beta = 0.1
conv_thr = 1e-06
/
&IONS
ion_dynamics = 'bfgs'
upscale = 1.0
/
&CELL
/

K_POINTS {automatic}
6 6 1 0 0 0

ATOMIC_SPECIES
C 12.01 C.pbe-n-rrkjus_psl.1.0.0.UPF
Li 6.941 Li.pbe-sl-rrkjus_psl.1.0.0.UPF
Mg 24.30 Mg.pbe-spnl-rrkjus_psl.1.0.0.UPF
Pb 207.2 Pb.pbe-dn-rrkjus_psl.1.0.0.UPF
Pd 106.4 Pd.pbe-n-rrkjus_psl.1.0.0.UPF


CELL_PARAMETERS {angstrom}
6.68280000 0.00000000 0.00000000
0.00000000 9.45090000 0.00000000
0.00000000 0.00000000 27.08820000

ATOMIC_POSITIONS {angstrom}
Li 0.00000000 0.00000000 -3.5442200899999996 0 0 0
Li 0.00000000 4.72545000 -3.5442200899999996 0 0 0
Li 3.34140000 7.08817500 -1.1813164 0 0 0
Li 3.34140000 2.36272500 -1.1813164 0 0 0
Li 6.67852301 4.72545000 1.29617037
Li 0.77954862 0.00000000 2.26213558
Li 2.95025572 2.10216369 3.63279850
Li 2.95018889 7.34864180 3.63252762
Mg 5.01210000 0.00000000 -1.1813164 0 0 0
Mg 5.01210000 4.72545000 -1.1813164 0 0 0
Mg 1.67070000 2.36272500 -3.5442200899999996 0 0 0
Mg 1.67070000 7.08817500 -3.5442200899999996 0 0 0
Mg 5.04771932 4.72535549 3.55938948
Mg 4.95556351 9.45080549 3.62385940
Mg 1.68353098 6.98327001 1.13743352
Mg 1.68353098 2.46762999 1.13743352
Pd 0.00000000 2.36272500 -1.1813164 0 0 0
Pd 0.00000000 7.08817500 -1.1813164 0 0 0
Pd 3.34140000 4.72545000 -3.5442200899999996 0 0 0
Pd 3.34140000 0.00000000 -3.5442200899999996 0 0 0
Pd 0.06696166 7.03704563 3.42801171
Pd 0.06696166 2.41375986 3.42801171
Pd 3.14479202 0.00000000 1.28262627
Pd 3.39218928 4.72545000 1.25445454
Pb 1.67070000 0.00000000 -1.1813164 0 0 0
Pb 1.67070000 4.72545000 -1.1813164 0 0 0
Pb 5.01210000 2.36272500 -3.5442200899999996 0 0 0
Pb 5.01210000 7.08817500 -3.5442200899999996 0 0 0
Pb 1.72456337 4.72545000 3.90720197
Pb 1.18011565 9.45080549 5.09149807
Pb 5.03274985 7.21028063 1.22249047
Pb 5.03268302 2.24061937 1.22249047
C 2.74141822 0.00000000 3.38467059
