&CONTROL
calculation = 'relax'
prefix = 'scf'
pseudo_dir = '/vol0004/mdt0/data/hp150275/u10028/POT_KKJUS'
outdir = './data'
tprnfor = .true.
nstep = 50
disk_io = 'non'
/
&SYSTEM
ibrav = 0
ecutwfc = 50.0
ecutrho = 400
occupations = 'smearing'
smearing = 'mp'
degauss = 0.01
assume_isolated = 'esm'
esm_bc = 'bc1'
input_dft = 'BEEF-VDW'
nosym = .true.
nspin = 1
ntyp = 4
nat = 17
/
&ELECTRONS
electron_maxstep = 200
mixing_beta = 0.1
conv_thr = 1e-06
/
&IONS
ion_dynamics = 'bfgs'
upscale = 1.0
/
&CELL
/

K_POINTS {automatic}
10 10 2 0  0  0

ATOMIC_SPECIES
Au 196.9 Au.pbe-n-rrkjus_psl.1.0.0.UPF
C 12.01 C.pbe-n-rrkjus_psl.1.0.0.UPF
Ga 69.72 Ga.pbe-dnl-rrkjus_psl.1.0.0.UPF
Li 6.941 Li.pbe-sl-rrkjus_psl.1.0.0.UPF

CELL_PARAMETERS {angstrom}
6.29417000 0.00000000 0.00000000
0.00000000 6.29417000 0.00000000
0.00000000 0.00000000 24.72060000

ATOMIC_POSITIONS {angstrom}
Li 0.00000000 0.00000000 -0.7868567000000013 0 0 0
Li 3.13021662 0.01825309 2.85967901
Li 0.01825309 3.13021662 2.85992621
Li 3.14708500 3.14708500 -0.7868567000000013 0 0 0
Li 1.57354250 1.57354250 -2.3603228900000026 0 0 0
Li 1.57971079 4.72792874 1.00711724
Li 4.72062750 4.72062750 -2.3603228900000026 0 0 0
Li 4.72792874 1.57977373 1.00711724
Ga 0.13752761 0.13752761 2.77513456
Ga 2.98085597 2.98085597 2.77538176
Ga 3.14708500 0.00000000 -0.7868567000000013 0 0 0
Ga 0.00000000 3.14708500 -0.7868567000000013 0 0 0
Au 1.56976600 1.56976600 0.53075128
Au 1.57354250 4.72062750 -2.3603228900000026 0 0 0
Au 4.72660696 4.72660696 0.86670424
Au 4.72062750 1.57354250 -2.3603228900000026 0 0 0
C 1.55824767 1.55824767 2.75412205
