&CONTROL
calculation = 'relax'
prefix = 'scf'
pseudo_dir = '/vol0004/mdt0/data/hp150275/u10028/POT_KKJUS'
outdir = './data'
tprnfor = .true.
nstep = 50
disk_io = 'non'
/
&SYSTEM
ibrav = 0
ecutwfc = 50.0
ecutrho = 400
occupations = 'smearing'
smearing = 'mp'
degauss = 0.01
assume_isolated = 'esm'
esm_bc = 'bc1'
input_dft = 'BEEF-VDW'
nosym = .true.
nspin = 1
ntyp = 4
nat = 33
/
&ELECTRONS
electron_maxstep = 200
mixing_beta = 0.1
conv_thr = 1e-06
/
&IONS
ion_dynamics = 'bfgs'
upscale = 1.0
/
&CELL
/

K_POINTS {automatic}
8 6 1 0 0 0

ATOMIC_SPECIES
Ag 107.8 Ag.pbe-n-rrkjus_psl.1.0.0.UPF
C 12.01 C.pbe-n-rrkjus_psl.1.0.0.UPF
Ge 72.64 Ge.pbe-dn-rrkjus_psl.1.0.0.UPF
Li 6.941 Li.pbe-sl-rrkjus_psl.1.0.0.UPF

CELL_PARAMETERS {angstrom}
6.51415000 0.00000000 0.00000000
0.00000000 9.21240000 0.00000000
0.00000000 0.00000000 26.90930000

ATOMIC_POSITIONS {angstrom}
Li 0.00000000 0.00000000 -3.4546159300000028 0 0 0
Li 3.25707500 2.30310000 -1.1514489500000025 0 0 0
Li 3.25707500 6.90930000 -1.1514489500000025 0 0 0
Li 0.00000000 4.60620000 -3.4546159300000028 0 0 0
Li 0.00000000 4.60620000 1.17082364
Li 3.25687958 7.07512320 3.53346018
Li 3.25727042 2.13736892 3.53346018
Li 0.00000000 0.00000000 1.26742803
Ag 1.62853750 0.00000000 -1.1514489500000025 0 0 0
Ag 4.88561250 4.60620000 -1.1514489500000025 0 0 0
Ag 4.88561250 0.00000000 -1.1514489500000025 0 0 0
Ag 1.62853750 4.60620000 -1.1514489500000025 0 0 0
Ag 4.88561250 6.90930000 -3.4546159300000028 0 0 0
Ag 1.62853750 2.30310000 -3.4546159300000028 0 0 0
Ag 1.62853750 6.90930000 -3.4546159300000028 0 0 0
Ag 4.88561250 2.30310000 -3.4546159300000028 0 0 0
Ag 1.65609235 4.60610788 3.46080507
Ag 5.17334251 9.21230788 3.79824770
Ag 4.85805765 4.60629212 3.46080507
Ag 1.34074235 0.00018425 3.79824770
Ag 4.98703782 2.32484126 1.25612612
Ag 1.52704704 6.88755874 1.25612612
Ag 1.52711218 2.32474914 1.25612612
Ag 4.98710296 6.88755874 1.25612612
Ge 0.00000000 6.90930000 -1.1514489500000025 0 0 0
Ge 3.25707500 0.00000000 -3.4546159300000028 0 0 0
Ge 0.00000000 2.30310000 -1.1514489500000025 0 0 0
Ge 3.25707500 4.60620000 -3.4546159300000028 0 0 0
Ge 6.51401972 2.39983020 3.64647924
Ge 3.25707500 4.60620000 1.19127471
Ge 0.00013028 6.81256980 3.64647924
Ge 3.25707500 9.21230788 1.02551342
C 3.25707500 0.00000000 2.92961549
