&CONTROL
calculation = 'relax'
prefix = 'scf'
pseudo_dir = '/vol0004/mdt0/data/hp150275/u10028/POT_KKJUS'
outdir = './data'
tprnfor = .true.
nstep = 50
disk_io = 'non'
/
&SYSTEM
ibrav = 0
ecutwfc = 50.0
ecutrho = 400
occupations = 'smearing'
smearing = 'mp'
degauss = 0.01
assume_isolated = 'esm'
esm_bc = 'bc1'
input_dft = 'BEEF-VDW'
nosym = .true.
nspin = 1
ntyp = 4
nat = 34
/
&ELECTRONS
electron_maxstep = 200
mixing_beta = 0.1
conv_thr = 1e-06
/
&IONS
ion_dynamics = 'bfgs'
upscale = 1.0
/
&CELL
/

K_POINTS {automatic}
9 6 2 0  0  0

ATOMIC_SPECIES
Be 9.012 Be.pbe-n-rrkjus_psl.1.0.0.UPF
C 12.01 C.pbe-n-rrkjus_psl.1.0.0.UPF
O 15.99 O.pbe-n-rrkjus_psl.1.0.0.UPF
Ti 47.86 Ti.pbe-spn-rrkjus_psl.1.0.0.UPF

CELL_PARAMETERS {angstrom}
5.87849000 0.00000000 0.00000000
0.00000000 8.31345000 0.00000000
0.00000000 0.00000000 26.23510000

ATOMIC_POSITIONS {angstrom}
Ti 1.46962250 2.07836250 -3.1175169300000007 0 0 0
Ti 1.46962250 0.00000000 -1.0391723099999979 0 0 0
Ti 1.46962250 2.08160475 0.98250449
Ti 1.46962250 0.00008313 3.12564981
Ti 1.46962250 6.23508750 -3.1175169300000007 0 0 0
Ti 1.46962250 4.15672500 -1.0391723099999979 0 0 0
Ti 1.46956372 6.23184525 0.98224214
Ti 1.46962250 4.15672500 3.28961919
Ti 4.40886750 2.07836250 -3.1175169300000007 0 0 0
Ti 4.40886750 0.00000000 -1.0391723099999979 0 0 0
Ti 4.40880872 2.08925312 1.01346191
Ti 4.40886750 8.31336687 3.31113197
Ti 4.40886750 6.23508750 -3.1175169300000007 0 0 0
Ti 4.40886750 4.15672500 -1.0391723099999979 0 0 0
Ti 4.40880872 6.22419688 1.01346191
Ti 4.40886750 4.15672500 3.18599054
Be 0.00000000 0.00000000 -3.1175169300000007 0 0 0
Be 0.00000000 2.07836250 -1.0391723099999979 0 0 0
Be 5.82229164 0.00000000 1.12076347
Be 0.02504237 2.08833864 2.98240617
Be 0.00000000 4.15672500 -3.1175169300000007 0 0 0
Be 0.00000000 6.23508750 -1.0391723099999979 0 0 0
Be 0.03027422 4.15672500 1.15460675
Be 0.02515994 6.22511136 2.98214382
Be 2.93924500 0.00000000 -3.1175169300000007 0 0 0
Be 2.93924500 2.07836250 -1.0391723099999979 0 0 0
Be 2.99544336 0.00000000 1.12076347
Be 2.91426142 2.08833864 2.98240617
Be 2.93924500 4.15672500 -3.1175169300000007 0 0 0
Be 2.93924500 6.23508750 -1.0391723099999979 0 0 0
Be 2.90897078 4.15672500 1.15460675
Be 2.91408506 6.22511136 2.98214382
C 1.46956372 0.00008313 5.23127894
O 1.46962250 0.00000000 6.39034566
