&CONTROL
calculation = 'relax'
prefix = 'scf'
pseudo_dir = '/vol0403/data/hp230205/u10028/POT_HYBRID_KKJUS_GBRV'
outdir = './data'
tprnfor = .true.
nstep = 50
disk_io = 'non'
/
&SYSTEM
ibrav = 0
ecutwfc = 50.0
ecutrho = 400
occupations = 'smearing'
smearing = 'mp'
degauss = 0.01
assume_isolated = 'esm'
esm_bc = 'bc1'
input_dft = 'BEEF-VDW'
nosym = .true.
nspin = 1
ntyp = 5
nat = 17
/
&ELECTRONS
electron_maxstep = 200
mixing_beta = 0.1
conv_thr = 1e-06
/
&IONS
ion_dynamics = 'bfgs'
upscale = 1.0
/
&CELL
/

K_POINTS {automatic}
6 6 1 0 0 0

ATOMIC_SPECIES
C 12.01 C.pbe-n-rrkjus_psl.1.0.0.UPF
Ga 69.72 Ga.pbe-dnl-rrkjus_psl.1.0.0.UPF
In 114.8 In.pbe-dn-rrkjus_psl.1.0.0.UPF
Li 6.941 Li.pbe-sl-rrkjus_psl.1.0.0.UPF
Sc 44.95 Sc.pbe-spn-rrkjus_psl.1.0.0.UPF


CELL_PARAMETERS {angstrom}
5.87074000 0.00000000 0.00000000
0.00000000 8.86716000 0.00000000
0.00000000 0.00000000 24.40240000

ATOMIC_POSITIONS {angstrom}
Li 4.37792823 2.21679000 -0.7337801699999993 0 0 0
Li 1.70157528 1.48019502 2.82555390
Li 4.37792823 6.65037000 -0.7337801699999993 0 0 0
Li 1.70163399 7.38714232 2.82530987
Sc 2.93537000 0.00000000 -2.2010964800000004 0 0 0
Sc 0.12692540 0.00000000 0.70864570
Sc 2.93537000 4.43358000 -2.2010964800000004 0 0 0
Sc 5.72831585 4.43349133 0.99805816
In 1.44255823 2.21679000 -0.7337801699999993 0 0 0
In 4.64117221 1.79923544 2.71379090
In 1.44255823 6.65037000 -0.7337801699999993 0 0 0
In 4.64146575 7.06774722 2.71403493
Ga 0.00000000 0.00000000 -2.2010964800000004 0 0 0
Ga 3.10861554 0.00017734 0.64129507
Ga 0.00000000 4.43358000 -2.2010964800000004 0 0 0
Ga 2.73623450 4.43349133 0.82528917
C 0.22725635 0.00008867 2.77430886
