&CONTROL
calculation = 'relax'
prefix = 'scf'
pseudo_dir = '/vol0004/mdt0/data/hp150275/u10028/POT_HYBRID_KKJUS_GBRV'
outdir = './data'
tprnfor = .true.
nstep = 50
disk_io = 'non'
/
&SYSTEM
ibrav = 0
ecutwfc = 50.0
ecutrho = 400
occupations = 'smearing'
smearing = 'mp'
degauss = 0.01
assume_isolated = 'esm'
esm_bc = 'bc1'
input_dft = 'BEEF-VDW'
nosym = .true.
nspin = 2
ntyp = 5
nat = 34
starting_magnetization(1) = 0.0
starting_magnetization(2) = 0.1
starting_magnetization(3) = 0.0
starting_magnetization(4) = 0.0
starting_magnetization(5) = 0.0
/
&ELECTRONS
electron_maxstep = 300
mixing_beta = 0.1
conv_thr = 1e-06
/
&IONS
ion_dynamics = 'bfgs'
upscale = 1.0
/
&CELL
/

K_POINTS {automatic}
9 6 2 0  0  0

ATOMIC_SPECIES
C 12.01 C.pbe-n-rrkjus_psl.1.0.0.UPF
Co 58.93 co_pbe_v1.2.uspp.F.UPF
Ga 69.72 Ga.pbe-dnl-rrkjus_psl.1.0.0.UPF
O 15.99 O.pbe-n-rrkjus_psl.1.0.0.UPF
Ta 180.9 Ta.pbe-spn-rrkjus_psl.1.0.0.UPF

CELL_PARAMETERS {angstrom}
5.95946000 0.00000000 0.00000000
0.00000000 8.42794000 0.00000000
0.00000000 0.00000000 26.32100000

ATOMIC_POSITIONS {angstrom}
Ta 0.00000000 0.00000000 -3.1603624700000026 0 0 0
Ta 2.97973000 2.10698500 -1.0533664200000032 0 0 0
Ta 2.97973000 6.32095500 -1.0533664200000032 0 0 0
Ta 0.00000000 4.21397000 -3.1603624700000026 0 0 0
Ta 5.95814892 4.21397000 1.09153187
Ta 2.99391351 6.30848165 3.14667555
Ta 2.99391351 2.11945835 3.14667555
Ta 5.93884027 0.00000000 1.08047705
Ga 0.00000000 6.32095500 -1.0533664200000032 0 0 0
Ga 2.97973000 0.00000000 -3.1603624700000026 0 0 0
Ga 0.00000000 2.10698500 -1.0533664200000032 0 0 0
Ga 2.97973000 4.21397000 -3.1603624700000026 0 0 0
Ga 5.94384621 2.11979547 3.18905236
Ga 2.98068351 4.21397000 1.07284396
Ga 5.94384621 6.30814453 3.18905236
Ga 2.98390162 0.00008428 1.06731655
Co 1.48986500 0.00000000 -1.0533664200000032 0 0 0
Co 4.46959500 4.21397000 -1.0533664200000032 0 0 0
Co 4.46959500 0.00000000 -1.0533664200000032 0 0 0
Co 1.48986500 4.21397000 -1.0533664200000032 0 0 0
Co 4.46959500 6.32095500 -3.1603624700000026 0 0 0
Co 1.48986500 2.10698500 -3.1603624700000026 0 0 0
Co 1.48986500 6.32095500 -3.1603624700000026 0 0 0
Co 4.46959500 2.10698500 -3.1603624700000026 0 0 0
Co 1.48682568 4.21397000 3.10772047
Co 4.46494662 0.00000000 3.08982219
Co 4.47066770 4.21397000 3.11719603
Co 1.50148595 0.00000000 3.28328154
Co 4.44945203 2.10529941 1.06626371
Co 1.50595554 6.33106853 1.06652692
Co 1.50595554 2.09687147 1.06652692
Co 4.44945203 6.32264059 1.06626371
C 1.51864919 0.00000000 4.99414654
O 1.48068743 0.00000000 6.16964240
