&CONTROL
calculation = 'relax'
prefix = 'scf'
pseudo_dir = '/vol0004/mdt0/data/hp150275/u10028/POT_KKJUS'
outdir = './data'
tprnfor = .true.
nstep = 50
disk_io = 'non'
/
&SYSTEM
ibrav = 0
ecutwfc = 50.0
ecutrho = 400
occupations = 'smearing'
smearing = 'mp'
degauss = 0.01
assume_isolated = 'esm'
esm_bc = 'bc1'
input_dft = 'BEEF-VDW'
nosym = .true.
nspin = 1
ntyp = 3
nat = 33
/
&ELECTRONS
electron_maxstep = 200
mixing_beta = 0.1
conv_thr = 1e-06
/
&IONS
ion_dynamics = 'bfgs'
upscale = 1.0
/
&CELL
/

K_POINTS {automatic}
8 6 1 0 0 0

ATOMIC_SPECIES
C 12.01 C.pbe-n-rrkjus_psl.1.0.0.UPF
Ir 192.2 Ir.pbe-n-rrkjus_psl.0.2.3.UPF
Y 88.90 Y.pbe-spn-rrkjus_psl.1.0.0.UPF

CELL_PARAMETERS {angstrom}
6.88160000 0.00000000 0.00000000
0.00000000 9.73205000 0.00000000
0.00000000 0.00000000 27.29900000

ATOMIC_POSITIONS {angstrom}
Y 1.72040000 2.43301250 -3.64960331 0 0 0
Y 1.72040000 0.00000000 -1.216443439999999 0 0 0
Y 1.72040000 2.43301250 1.31444685
Y 1.72040000 5.01424412 3.78227645
Y 1.72040000 7.29903750 -3.64960331 0 0 0
Y 1.72040000 4.86602500 -1.216443439999999 0 0 0
Y 1.72040000 7.29903750 1.22299520
Y 1.72040000 9.58383088 3.78227645
Y 5.16120000 2.43301250 -3.64960331 0 0 0
Y 5.16120000 0.00000000 -1.216443439999999 0 0 0
Y 5.16120000 2.43301250 1.22354118
Y 5.16120000 4.96762760 3.80438864
Y 5.16120000 7.29903750 -3.64960331 0 0 0
Y 5.16120000 4.86602500 -1.216443439999999 0 0 0
Y 5.16120000 7.29903750 1.22763603
Y 5.16120000 9.63044740 3.80438864
Ir 0.00000000 0.00000000 -3.64960331 0 0 0
Ir 0.00000000 2.43301250 -1.216443439999999 0 0 0
Ir 6.87313563 0.00953741 1.35157349
Ir 6.73261336 2.43301250 3.68945985
Ir 0.00000000 4.86602500 -3.64960331 0 0 0
Ir 0.00000000 7.29903750 -1.216443439999999 0 0 0
Ir 6.87313563 4.85648759 1.35157349
Ir 6.87113997 7.29903750 3.50737552
Ir 3.44080000 0.00000000 -3.64960331 0 0 0
Ir 3.44080000 2.43301250 -1.216443439999999 0 0 0
Ir 3.44926437 0.00953741 1.35157349
Ir 3.58978664 2.43301250 3.68945985
Ir 3.44080000 4.86602500 -3.64960331 0 0 0
Ir 3.44080000 7.29903750 -1.216443439999999 0 0 0
Ir 3.44926437 4.85648759 1.35157349
Ir 3.45126003 7.29903750 3.50737552
C 1.72040000 2.43301250 3.97964822
