&CONTROL
calculation = 'relax'
prefix = 'scf'
pseudo_dir = '/vol0004/mdt0/data/hp150275/u10028/POT_KKJUS'
outdir = './data'
tprnfor = .true.
nstep = 50
disk_io = 'non'
/
&SYSTEM
ibrav = 0
ecutwfc = 50.0
ecutrho = 400
occupations = 'smearing'
smearing = 'mp'
degauss = 0.01
assume_isolated = 'esm'
esm_bc = 'bc1'
input_dft = 'BEEF-VDW'
nosym = .true.
nspin = 1
ntyp = 4
nat = 34
/
&ELECTRONS
electron_maxstep = 200
mixing_beta = 0.1
conv_thr = 1e-06
/
&IONS
ion_dynamics = 'bfgs'
upscale = 1.0
/
&CELL
/

K_POINTS {automatic}
8 6 1 0 0 0

ATOMIC_SPECIES
C 12.01 C.pbe-n-rrkjus_psl.1.0.0.UPF
O 15.99 O.pbe-n-rrkjus_psl.1.0.0.UPF
Pd 106.4 Pd.pbe-n-rrkjus_psl.1.0.0.UPF
Ti 47.86 Ti.pbe-spn-rrkjus_psl.1.0.0.UPF

CELL_PARAMETERS {angstrom}
6.37073000 0.00000000 0.00000000
0.00000000 9.00957000 0.00000000
0.00000000 0.00000000 26.75720000

ATOMIC_POSITIONS {angstrom}
Ti 1.59268250 2.25239250 -3.378631640000002 0 0 0
Ti 1.59268250 0.00000000 -1.1262105499999997 0 0 0
Ti 1.63434707 2.25221231 1.11684553
Ti 1.64925458 8.98055918 3.35936646
Ti 1.59268250 6.75717750 -3.378631640000002 0 0 0
Ti 1.59268250 4.50478500 -1.1262105499999997 0 0 0
Ti 1.51374916 6.75726760 1.07563944
Ti 1.64919088 4.53397601 3.35990160
Ti 4.77804750 2.25239250 -3.378631640000002 0 0 0
Ti 4.77804750 0.00000000 -1.1262105499999997 0 0 0
Ti 4.73587327 2.25248260 1.11684553
Ti 4.72122059 8.98046909 3.36043675
Ti 4.77804750 6.75717750 -3.378631640000002 0 0 0
Ti 4.77804750 4.50478500 -1.1262105499999997 0 0 0
Ti 4.85736309 6.75699731 1.07563944
Ti 4.72141171 4.53397601 3.36043675
Pd 0.00000000 0.00000000 -3.378631640000002 0 0 0
Pd 0.00000000 2.25239250 -1.1262105499999997 0 0 0
Pd 6.36977439 0.18397542 1.29932963
Pd 6.37066629 2.25248260 3.57797278
Pd 0.00000000 4.50478500 -3.378631640000002 0 0 0
Pd 0.00000000 6.75717750 -1.1262105499999997 0 0 0
Pd 6.37034776 4.32071948 1.29959720
Pd 0.00000000 6.75717750 3.27213799
Pd 3.18536500 0.00000000 -3.378631640000002 0 0 0
Pd 3.18536500 2.25239250 -1.1262105499999997 0 0 0
Pd 3.18612949 8.86784946 1.10293178
Pd 3.18530129 2.25248260 3.27106770
Pd 3.18536500 4.50478500 -3.378631640000002 0 0 0
Pd 3.18536500 6.75717750 -1.1262105499999997 0 0 0
Pd 3.18555612 4.64623525 1.10319936
Pd 3.18542871 6.75717750 3.20899100
C 6.37066629 2.25239250 5.51867250
O 0.00006371 2.25248260 6.67485111
