&CONTROL
calculation = 'relax'
prefix = 'scf'
pseudo_dir = '/vol0004/mdt0/data/hp150275/u10028/POT_HYBRID_KKJUS_GBRV'
outdir = './data'
tprnfor = .true.
nstep = 50
disk_io = 'non'
/
&SYSTEM
ibrav = 0
ecutwfc = 50.0
ecutrho = 400
occupations = 'smearing'
smearing = 'mp'
degauss = 0.01
assume_isolated = 'esm'
esm_bc = 'bc1'
input_dft = 'BEEF-VDW'
nosym = .true.
nspin = 2
ntyp = 5
nat = 34
starting_magnetization(1) = 0.0
starting_magnetization(2) = 0.0
starting_magnetization(3) = 0.1
starting_magnetization(4) = 0.0
starting_magnetization(5) = 0.0
/
&ELECTRONS
electron_maxstep = 300
mixing_beta = 0.1
conv_thr = 1e-06
/
&IONS
ion_dynamics = 'bfgs'
upscale = 1.0
/
&CELL
/

K_POINTS {automatic}
8 6 1 0 0 0

ATOMIC_SPECIES
Al 26.98 Al.pbe-nl-rrkjus_psl.1.0.0.UPF
C 12.01 C.pbe-n-rrkjus_psl.1.0.0.UPF
Co 58.93 co_pbe_v1.2.uspp.F.UPF
O 15.99 O.pbe-n-rrkjus_psl.1.0.0.UPF
Ti 47.86 Ti.pbe-spn-rrkjus_psl.1.0.0.UPF

CELL_PARAMETERS {angstrom}
5.84472000 0.00000000 0.00000000
0.00000000 8.26568000 0.00000000
0.00000000 0.00000000 26.19930000

ATOMIC_POSITIONS {angstrom}
Ti 0.00000000 0.00000000 -3.0996391800000005 0 0 0
Ti 2.92236000 2.06642000 -1.0333003900000008 0 0 0
Ti 2.92236000 6.19926000 -1.0333003900000008 0 0 0
Ti 0.00000000 4.13284000 -3.0996391800000005 0 0 0
Ti 0.00000000 4.13383188 1.04692403
Ti 2.92236000 6.19926000 3.10252111
Ti 2.92236000 2.06642000 3.10121114
Ti 0.00000000 8.26468812 1.04692403
Al 0.00000000 6.19926000 -1.0333003900000008 0 0 0
Al 2.92236000 0.00000000 -3.0996391800000005 0 0 0
Al 0.00000000 2.06642000 -1.0333003900000008 0 0 0
Al 2.92236000 4.13284000 -3.0996391800000005 0 0 0
Al 0.00000000 2.06642000 3.08260964
Al 2.92236000 4.13267469 1.04142218
Al 0.00000000 6.19926000 3.10776097
Al 2.92236000 0.00016531 1.04142218
Co 1.46118000 0.00000000 -1.0333003900000008 0 0 0
Co 4.38354000 4.13284000 -1.0333003900000008 0 0 0
Co 4.38354000 0.00000000 -1.0333003900000008 0 0 0
Co 1.46118000 4.13284000 -1.0333003900000008 0 0 0
Co 4.38354000 6.19926000 -3.0996391800000005 0 0 0
Co 1.46118000 2.06642000 -3.0996391800000005 0 0 0
Co 1.46118000 6.19926000 -3.0996391800000005 0 0 0
Co 4.38354000 2.06642000 -3.0996391800000005 0 0 0
Co 1.45819919 4.13523705 3.08313362
Co 4.38652081 8.26328295 3.08313362
Co 4.38652081 4.13523705 3.08313362
Co 1.45819919 8.26328295 3.08313362
Co 4.38172814 2.06642000 1.03565833
Co 1.46416081 6.19926000 1.03303840
Co 1.46299186 2.06642000 1.03565833
Co 4.38055919 6.19926000 1.03303840
C 0.00000000 2.06642000 5.00328032
O 0.00000000 2.06642000 6.17019714
