&CONTROL
calculation = 'relax'
prefix = 'scf'
pseudo_dir = '/vol0004/mdt0/data/hp150275/u10028/POT_KKJUS'
outdir = './data'
tprnfor = .true.
nstep = 50
disk_io = 'non'
/
&SYSTEM
ibrav = 0
ecutwfc = 50.0
ecutrho = 400
occupations = 'smearing'
smearing = 'mp'
degauss = 0.01
assume_isolated = 'esm'
esm_bc = 'bc1'
input_dft = 'BEEF-VDW'
nosym = .true.
nspin = 1
ntyp = 4
nat = 34
/
&ELECTRONS
electron_maxstep = 200
mixing_beta = 0.1
conv_thr = 1e-06
/
&IONS
ion_dynamics = 'bfgs'
upscale = 1.0
/
&CELL
/

K_POINTS {automatic}
6 6 1 0 0 0

ATOMIC_SPECIES
C 12.01 C.pbe-n-rrkjus_psl.1.0.0.UPF
Ca 40.07 Ca.pbe-spn-rrkjus_psl.1.0.0.UPF
O 15.99 O.pbe-n-rrkjus_psl.1.0.0.UPF
Pb 207.2 Pb.pbe-dn-rrkjus_psl.1.0.0.UPF

CELL_PARAMETERS {angstrom}
10.04260000 0.00000000 0.00000000
-0.00000000 10.04260000 0.00000000
0.00000000 0.00000000 27.53190000

ATOMIC_POSITIONS {angstrom}
Ca 0.00000000 0.00000000 3.76608860
Ca 0.00000000 0.00000000 -1.25545464 0 0 0
Ca 0.00000000 5.02130000 3.76608860
Ca 0.00000000 5.02130000 -1.25545464 0 0 0
Ca 5.02130000 -0.00000000 3.76608860
Ca 5.02130000 0.00000000 -1.25545464 0 0 0
Ca 5.02130000 5.02130000 3.76608860
Ca 5.02130000 5.02130000 -1.25545464 0 0 0
Pb 0.00000000 2.51065000 1.25545464
Pb 2.51065000 -0.00000000 1.25545464
Pb 2.51065000 2.51065000 3.76608860
Pb 0.00000000 2.51065000 -3.7660886 0 0 0
Pb 2.51065000 0.00000000 -3.7660886 0 0 0
Pb 2.51065000 2.51065000 -1.25545464 0 0 0
Pb 0.00000000 7.53195000 1.25545464
Pb 2.51065000 5.02130000 1.25545464
Pb 2.51065000 7.53195000 3.76608860
Pb 0.00000000 7.53195000 -3.7660886 0 0 0
Pb 2.51065000 5.02130000 -3.7660886 0 0 0
Pb 2.51065000 7.53195000 -1.25545464 0 0 0
Pb 5.02130000 2.51065000 1.25545464
Pb 7.53195000 -0.00000000 1.25545464
Pb 7.53195000 2.51065000 3.76608860
Pb 5.02130000 2.51065000 -3.7660886 0 0 0
Pb 7.53195000 0.00000000 -3.7660886 0 0 0
Pb 7.53195000 2.51065000 -1.25545464 0 0 0
Pb 5.02130000 7.53195000 1.25545464
Pb 7.53195000 5.02130000 1.25545464
Pb 7.53195000 7.53195000 3.76608860
Pb 5.02130000 7.53195000 -3.7660886 0 0 0
Pb 7.53195000 5.02130000 -3.7660886 0 0 0
Pb 7.53195000 7.53195000 -1.25545464 0 0 0
C 0.00000000 0.00000000 5.66606502
O 0.00000000 0.00000000 6.81607248
