&CONTROL
calculation = 'relax'
prefix = 'scf'
pseudo_dir = '/vol0004/mdt0/data/hp150275/u10028/POT_KKJUS'
outdir = './data'
tprnfor = .true.
nstep = 50
disk_io = 'non'
/
&SYSTEM
ibrav = 0
ecutwfc = 50.0
ecutrho = 400
occupations = 'smearing'
smearing = 'mp'
degauss = 0.01
assume_isolated = 'esm'
esm_bc = 'bc1'
input_dft = 'BEEF-VDW'
nosym = .true.
nspin = 1
ntyp = 4
nat = 33
/
&ELECTRONS
electron_maxstep = 200
mixing_beta = 0.1
conv_thr = 1e-06
/
&IONS
ion_dynamics = 'bfgs'
upscale = 1.0
/
&CELL
/

K_POINTS {automatic}
8 6 1 0 0 0

ATOMIC_SPECIES
Au 196.9 Au.pbe-n-rrkjus_psl.1.0.0.UPF
C 12.01 C.pbe-n-rrkjus_psl.1.0.0.UPF
In 114.8 In.pbe-dn-rrkjus_psl.1.0.0.UPF
Sc 44.95 Sc.pbe-spn-rrkjus_psl.1.0.0.UPF

CELL_PARAMETERS {angstrom}
6.85473000 0.00000000 0.00000000
0.00000000 9.69405000 0.00000000
0.00000000 0.00000000 27.27050000

ATOMIC_POSITIONS {angstrom}
Sc 0.00000000 0.00000000 -3.63515765 0 0 0
Sc 3.42736500 2.42351250 -1.211628319999999 0 0 0
Sc 3.42736500 7.27053750 -1.211628319999999 0 0 0
Sc 0.00000000 4.84702500 -3.63515765 0 0 0
Sc 6.84588740 4.88541344 1.28989465
Sc 3.28636320 7.27053750 3.45844481
Sc 3.58516088 2.42351250 3.49553269
Sc 6.84588740 9.65566156 1.28962194
In 0.00000000 7.27053750 -1.211628319999999 0 0 0
In 3.42736500 0.00000000 -3.63515765 0 0 0
In 0.00000000 2.42351250 -1.211628319999999 0 0 0
In 3.42736500 4.84702500 -3.63515765 0 0 0
In 6.36413697 2.42351250 4.43636494
In 3.42729645 4.80175379 1.17672208
In 0.09754281 7.27053750 3.83941369
In 3.42729645 0.04527121 1.17672208
Au 1.71368250 0.00000000 -1.211628319999999 0 0 0
Au 5.14104750 4.84702500 -1.211628319999999 0 0 0
Au 5.14104750 0.00000000 -1.211628319999999 0 0 0
Au 1.71368250 4.84702500 -1.211628319999999 0 0 0
Au 5.14104750 7.27053750 -3.63515765 0 0 0
Au 1.71368250 2.42351250 -3.63515765 0 0 0
Au 1.71368250 7.27053750 -3.63515765 0 0 0
Au 5.14104750 2.42351250 -3.63515765 0 0 0
Au 1.73877081 4.82783078 3.75105727
Au 5.05262148 9.55794554 3.68588078
Au 5.05269003 4.98312946 3.68588078
Au 1.73870226 0.01919422 3.75105727
Au 5.28993224 2.42351250 1.21871865
Au 1.67426780 7.27053750 1.13745255
Au 1.51599209 2.42351250 1.37879648
Au 5.16325683 7.27053750 1.23971693
C 1.56493486 2.42351250 3.78541810
