&CONTROL
calculation = 'relax'
prefix = 'scf'
pseudo_dir = '/vol0403/data/hp230205/u10028/POT_HYBRID_KKJUS_GBRV'
outdir = './data'
tprnfor = .true.
nstep = 50
disk_io = 'non'
/
&SYSTEM
ibrav = 0
ecutwfc = 50.0
ecutrho = 400
occupations = 'smearing'
smearing = 'mp'
degauss = 0.01
assume_isolated = 'esm'
esm_bc = 'bc1'
input_dft = 'BEEF-VDW'
nosym = .true.
nspin = 1
ntyp = 5
nat = 17
/
&ELECTRONS
electron_maxstep = 200
mixing_beta = 0.1
conv_thr = 1e-06
/
&IONS
ion_dynamics = 'bfgs'
upscale = 1.0
/
&CELL
/

K_POINTS {automatic}
11 7 2 0  0  0

ATOMIC_SPECIES
C 12.01 C.pbe-n-rrkjus_psl.1.0.0.UPF
Li 6.941 Li.pbe-sl-rrkjus_psl.1.0.0.UPF
Pb 207.2 Pb.pbe-dn-rrkjus_psl.1.0.0.UPF
Sn 118.7 Sn.pbe-dn-rrkjus_psl.1.0.0.UPF
Y 88.90 Y.pbe-spn-rrkjus_psl.1.0.0.UPF


CELL_PARAMETERS {angstrom}
6.55220000 0.00000000 0.00000000
0.00000000 9.36828000 0.00000000
0.00000000 0.00000000 24.89710000

ATOMIC_POSITIONS {angstrom}
Li 0.32256481 9.32912059 2.64456996
Li 3.00306983 0.00000000 -0.8161269399999966 0 0 0
Li 0.32295794 4.72311204 2.64432099
Li 3.00306983 4.68414000 -0.8161269399999966 0 0 0
Y 5.12067534 2.34169527 0.78450762
Y 1.22847198 2.34207000 -2.4486297899999983 0 0 0
Y 4.76469432 7.02611632 0.95131819
Y 1.22847198 7.02621000 -2.4486297899999983 0 0 0
Sn 3.58241535 0.22924181 2.86864386
Sn 6.27916983 0.00000000 -0.8161269399999966 0 0 0
Sn 3.58320161 4.45536660 2.86789695
Sn 6.27916983 4.68414000 -0.8161269399999966 0 0 0
Pb 1.74229550 2.34169527 1.03049097
Pb 4.50457198 2.34207000 -2.4486297899999983 0 0 0
Pb 1.53891521 7.02621000 1.02600949
Pb 4.50457198 7.02621000 -2.4486297899999983 0 0 0
C 3.75368986 2.34244473 2.58133133
