&CONTROL
calculation = 'relax'
prefix = 'scf'
pseudo_dir = '/vol0004/mdt0/data/hp150275/u10028/POT_KKJUS'
outdir = './data'
tprnfor = .true.
nstep = 50
disk_io = 'non'
/
&SYSTEM
ibrav = 0
ecutwfc = 50.0
ecutrho = 400
occupations = 'smearing'
smearing = 'mp'
degauss = 0.01
assume_isolated = 'esm'
esm_bc = 'bc1'
input_dft = 'BEEF-VDW'
nosym = .true.
nspin = 1
ntyp = 4
nat = 33
/
&ELECTRONS
electron_maxstep = 200
mixing_beta = 0.1
conv_thr = 1e-06
/
&IONS
ion_dynamics = 'bfgs'
upscale = 1.0
/
&CELL
/

K_POINTS {automatic}
8 6 1 0 0 0

ATOMIC_SPECIES
C 12.01 C.pbe-n-rrkjus_psl.1.0.0.UPF
Hf 178.4 Hf.pbe-spn-rrkjus_psl.1.0.0.UPF
In 114.8 In.pbe-dn-rrkjus_psl.1.0.0.UPF
Ni 58.69 Ni.pbe-spn-rrkjus_psl.1.0.0.UPF

CELL_PARAMETERS {angstrom}
6.31539000 0.00000000 0.00000000
0.00000000 8.93131000 0.00000000
0.00000000 0.00000000 26.69850000

ATOMIC_POSITIONS {angstrom}
Hf 0.00000000 0.00000000 -3.349326819999998 0 0 0
Hf 3.15769500 2.23282750 -1.1165312699999994 0 0 0
Hf 3.15769500 6.69848250 -1.1165312699999994 0 0 0
Hf 0.00000000 4.46565500 -3.349326819999998 0 0 0
Hf 0.00000000 4.46565500 1.14937042
Hf 3.15769500 6.77288031 3.32583215
Hf 3.15769500 2.15834037 3.32583215
Hf 0.00000000 0.00000000 1.14910344
In 0.00000000 6.69848250 -1.1165312699999994 0 0 0
In 3.15769500 0.00000000 -3.349326819999998 0 0 0
In 0.00000000 2.23282750 -1.1165312699999994 0 0 0
In 3.15769500 4.46565500 -3.349326819999998 0 0 0
In 0.00000000 2.30793982 3.53675030
In 3.15769500 4.46565500 1.08609498
In 0.00000000 6.62337018 3.53675030
In 3.15769500 0.00000000 1.11546333
Ni 1.57884750 0.00000000 -1.1165312699999994 0 0 0
Ni 4.73654250 4.46565500 -1.1165312699999994 0 0 0
Ni 4.73654250 0.00000000 -1.1165312699999994 0 0 0
Ni 1.57884750 4.46565500 -1.1165312699999994 0 0 0
Ni 4.73654250 6.69848250 -3.349326819999998 0 0 0
Ni 1.57884750 2.23282750 -3.349326819999998 0 0 0
Ni 1.57884750 6.69848250 -3.349326819999998 0 0 0
Ni 4.73654250 2.23282750 -3.349326819999998 0 0 0
Ni 1.58573128 4.46565500 3.21476638
Ni 5.01183035 0.00000000 3.36000622
Ni 4.72965872 4.46565500 3.21476638
Ni 1.30349650 0.00000000 3.36000622
Ni 4.70439716 2.24774279 1.15417615
Ni 1.61099284 6.68347790 1.15417615
Ni 1.61092968 2.24783210 1.15417615
Ni 4.70439716 6.68347790 1.15390917
C 3.15769500 0.00000000 3.73779000
