&CONTROL
calculation = 'relax'
prefix = 'scf'
pseudo_dir = '/vol0004/mdt0/data/hp150275/u10028/POT_KKJUS'
outdir = './data'
tprnfor = .true.
nstep = 50
disk_io = 'non'
/
&SYSTEM
ibrav = 0
ecutwfc = 50.0
ecutrho = 400
occupations = 'smearing'
smearing = 'mp'
degauss = 0.01
assume_isolated = 'esm'
esm_bc = 'bc1'
input_dft = 'BEEF-VDW'
nosym = .true.
nspin = 1
ntyp = 4
nat = 34
/
&ELECTRONS
electron_maxstep = 200
mixing_beta = 0.1
conv_thr = 1e-06
/
&IONS
ion_dynamics = 'bfgs'
upscale = 1.0
/
&CELL
/

K_POINTS {automatic}
8 6 1 0 0 0

ATOMIC_SPECIES
Bi 208.9 Bi.pbe-dn-rrkjus_psl.1.0.0.UPF
C 12.01 C.pbe-n-rrkjus_psl.1.0.0.UPF
K 39.09 K.pbe-spn-rrkjus_psl.1.0.0.UPF
O 15.99 O.pbe-n-rrkjus_psl.1.0.0.UPF

CELL_PARAMETERS {angstrom}
8.83903000 0.00000000 0.00000000
0.00000000 12.50030000 0.00000000
0.00000000 0.00000000 29.37520000

ATOMIC_POSITIONS {angstrom}
K 2.20975750 0.00000000 -1.5624668899999996 0 0 0
K 6.62927250 6.25015000 -1.5624668899999996 0 0 0
K 6.62927250 0.00000000 -1.5624668899999996 0 0 0
K 2.20975750 6.25015000 -1.5624668899999996 0 0 0
K 6.62927250 9.37522500 -4.68769442 0 0 0
K 2.20975750 3.12507500 -4.68769442 0 0 0
K 2.20975750 9.37522500 -4.68769442 0 0 0
K 6.62927250 3.12507500 -4.68769442 0 0 0
K 0.00000000 9.37522500 -1.5624668899999996 0 0 0
K 4.41951500 0.00000000 -4.68769442 0 0 0
K 0.00000000 3.12507500 -1.5624668899999996 0 0 0
K 4.41951500 6.25015000 -4.68769442 0 0 0
K 2.46520547 6.21702421 5.14741630
K 6.37382453 0.03312580 5.14771005
K 6.37382453 6.21689920 5.14771005
K 2.46520547 0.03312580 5.14771005
K 6.55546660 3.12507500 1.46082870
K 2.23468356 9.37522500 1.50019146
K 2.28365179 3.12507500 1.46082870
K 6.60434644 9.37522500 1.50019146
K 0.00000000 3.12507500 4.18155972
K 4.41951500 6.29140099 1.85710014
K 0.00000000 9.37522500 4.35017337
K 4.41951500 12.45892401 1.85710014
Bi 0.00000000 0.00000000 -4.68769442 0 0 0
Bi 4.41951500 3.12507500 -1.5624668899999996 0 0 0
Bi 4.41951500 9.37522500 -1.5624668899999996 0 0 0
Bi 0.00000000 6.25015000 -4.68769442 0 0 0
Bi 0.00000000 6.25815019 1.81421235
Bi 4.41951500 9.37522500 4.45680534
Bi 4.41960339 3.12495000 4.42184886
Bi 0.00000000 12.49217480 1.81450610
C 8.83876483 3.12532501 7.22512419
O 8.83894161 3.12507500 8.36840698
