&CONTROL
calculation = 'relax'
prefix = 'scf'
pseudo_dir = '/vol0004/mdt0/data/hp150275/u10028/POT_KKJUS'
outdir = './data'
tprnfor = .true.
nstep = 50
disk_io = 'non'
/
&SYSTEM
ibrav = 0
ecutwfc = 50.0
ecutrho = 400
occupations = 'smearing'
smearing = 'mp'
degauss = 0.01
assume_isolated = 'esm'
esm_bc = 'bc1'
input_dft = 'BEEF-VDW'
nosym = .true.
nspin = 1
ntyp = 3
nat = 34
/
&ELECTRONS
electron_maxstep = 200
mixing_beta = 0.1
conv_thr = 1e-06
/
&IONS
ion_dynamics = 'bfgs'
upscale = 1.0
/
&CELL
/

K_POINTS {automatic}
6 6 1 0 0 0

ATOMIC_SPECIES
C 12.01 C.pbe-n-rrkjus_psl.1.0.0.UPF
O 15.99 O.pbe-n-rrkjus_psl.1.0.0.UPF
Sc 44.95 Sc.pbe-spn-rrkjus_psl.1.0.0.UPF

CELL_PARAMETERS {angstrom}
9.21507000 0.00000000 0.00000000
-0.00000000 9.21507000 0.00000000
0.00000000 0.00000000 26.91130000

ATOMIC_POSITIONS {angstrom}
Sc 0.00000000 0.00000000 -3.45568003 0 0 0
Sc 2.30376750 2.30376750 -3.45568003 0 0 0
Sc 2.30376750 0.00000000 -1.1518036400000007 0 0 0
Sc 0.00000000 2.30376750 -1.1518036400000007 0 0 0
Sc 0.00000000 0.00000000 1.15180364
Sc 2.30376750 2.30376750 1.15180364
Sc 2.30376750 -0.00000000 3.45568003
Sc 0.00000000 2.30376750 3.45568003
Sc 0.00000000 4.60753500 -3.45568003 0 0 0
Sc 2.30376750 6.91130250 -3.45568003 0 0 0
Sc 2.30376750 4.60753500 -1.1518036400000007 0 0 0
Sc 0.00000000 6.91130250 -1.1518036400000007 0 0 0
Sc 0.00000000 4.60753500 1.15180364
Sc 2.30376750 6.91130250 1.15180364
Sc 2.30376750 4.60753500 3.45568003
Sc 0.00000000 6.91130250 3.45568003
Sc 4.60753500 0.00000000 -3.45568003 0 0 0
Sc 6.91130250 2.30376750 -3.45568003 0 0 0
Sc 6.91130250 0.00000000 -1.1518036400000007 0 0 0
Sc 4.60753500 2.30376750 -1.1518036400000007 0 0 0
Sc 4.60753500 -0.00000000 1.15180364
Sc 6.91130250 2.30376750 1.15180364
Sc 6.91130250 -0.00000000 3.45568003
Sc 4.60753500 2.30376750 3.45568003
Sc 4.60753500 4.60753500 -3.45568003 0 0 0
Sc 6.91130250 6.91130250 -3.45568003 0 0 0
Sc 6.91130250 4.60753500 -1.1518036400000007 0 0 0
Sc 4.60753500 6.91130250 -1.1518036400000007 0 0 0
Sc 4.60753500 4.60753500 1.15180364
Sc 6.91130250 6.91130250 1.15180364
Sc 6.91130250 4.60753500 3.45568003
Sc 4.60753500 6.91130250 3.45568003
C 2.30376750 -0.00000000 5.35561781
O 2.30376750 -0.00000000 6.50553766
