&CONTROL
calculation = 'relax'
prefix = 'scf'
pseudo_dir = '/vol0004/mdt0/data/hp150275/u10028/POT_KKJUS'
outdir = './data'
tprnfor = .true.
nstep = 50
disk_io = 'non'
/
&SYSTEM
ibrav = 0
ecutwfc = 50.0
ecutrho = 400
occupations = 'smearing'
smearing = 'mp'
degauss = 0.01
assume_isolated = 'esm'
esm_bc = 'bc1'
input_dft = 'BEEF-VDW'
nosym = .true.
nspin = 1
ntyp = 3
nat = 34
/
&ELECTRONS
electron_maxstep = 200
mixing_beta = 0.1
conv_thr = 1e-06
/
&IONS
ion_dynamics = 'bfgs'
upscale = 1.0
/
&CELL
/

K_POINTS {automatic}
7 7 2 0  0  0

ATOMIC_SPECIES
C 12.01 C.pbe-n-rrkjus_psl.1.0.0.UPF
O 15.99 O.pbe-n-rrkjus_psl.1.0.0.UPF
Sc 44.95 Sc.pbe-spn-rrkjus_psl.1.0.0.UPF

CELL_PARAMETERS {angstrom}
9.21507000 0.00000000 0.00000000
0.00000000 9.21507000 0.00000000
0.00000000 0.00000000 26.91130000

ATOMIC_POSITIONS {angstrom}
Sc 0.00000000 0.00000000 -3.45568003 0 0 0
Sc 2.30376750 2.30376750 -3.45568003 0 0 0
Sc 2.30376750 0.00000000 -1.1518036400000007 0 0 0
Sc 0.00000000 2.30376750 -1.1518036400000007 0 0 0
Sc 9.16844175 0.00009215 1.16902687
Sc 2.30376750 2.35067221 1.16956510
Sc 2.30376750 9.21488570 3.22558842
Sc 0.05049858 2.25326892 3.37844460
Sc 0.00000000 4.60753500 -3.45568003 0 0 0
Sc 2.30376750 6.91130250 -3.45568003 0 0 0
Sc 2.30376750 4.60753500 -1.1518036400000007 0 0 0
Sc 0.00000000 6.91130250 -1.1518036400000007 0 0 0
Sc 9.20806655 4.60735070 1.24034182
Sc 2.30339890 6.86439779 1.16929599
Sc 2.30385965 4.60762715 3.35368621
Sc 0.05031428 6.96152463 3.37844460
Sc 4.60753500 0.00000000 -3.45568003 0 0 0
Sc 6.91130250 2.30376750 -3.45568003 0 0 0
Sc 6.91130250 0.00000000 -1.1518036400000007 0 0 0
Sc 4.60753500 2.30376750 -1.1518036400000007 0 0 0
Sc 4.65407110 0.00009215 1.16875776
Sc 6.91139465 2.31067880 1.23980359
Sc 6.91130250 0.00000000 3.35341709
Sc 4.55731287 2.25372967 3.37871371
Sc 4.60753500 4.60753500 -3.45568003 0 0 0
Sc 6.91130250 6.91130250 -3.45568003 0 0 0
Sc 6.91130250 4.60753500 -1.1518036400000007 0 0 0
Sc 4.60753500 6.91130250 -1.1518036400000007 0 0 0
Sc 4.61453845 4.60707425 1.24061093
Sc 6.91167110 6.90429905 1.23980359
Sc 6.91139465 4.60753500 3.38571065
Sc 4.55712857 6.96170893 3.37844460
C 2.30376750 0.00000000 5.46945261
O 2.30376750 0.00009215 6.63821037
