&CONTROL
calculation = 'relax'
prefix = 'scf'
pseudo_dir = '/vol0004/mdt0/data/hp150275/u10028/POT_HYBRID_KKJUS_GBRV'
outdir = './data'
tprnfor = .true.
nstep = 50
disk_io = 'non'
/
&SYSTEM
ibrav = 0
ecutwfc = 50.0
ecutrho = 400
occupations = 'smearing'
smearing = 'mp'
degauss = 0.01
assume_isolated = 'esm'
esm_bc = 'bc1'
input_dft = 'BEEF-VDW'
nosym = .true.
nspin = 2
ntyp = 3
nat = 33
starting_magnetization(1) = 0.0
starting_magnetization(2) = 0.0
starting_magnetization(3) = 0.01
/
&ELECTRONS
electron_maxstep = 200
mixing_beta = 0.1
conv_thr = 1e-06
/
&IONS
ion_dynamics = 'bfgs'
upscale = 1.0
/
&CELL
/

K_POINTS {automatic}
9 6 2 0  0  0

ATOMIC_SPECIES
C 12.01 C.pbe-n-rrkjus_psl.1.0.0.UPF
Ca 40.07 Ca.pbe-spn-rrkjus_psl.1.0.0.UPF
Ni 58.69 ni_pbe_v1.4.uspp.F.UPF

CELL_PARAMETERS {angstrom}
6.91175000 0.00000000 0.00000000
0.00000000 9.77469000 0.00000000
0.00000000 0.00000000 27.33100000

ATOMIC_POSITIONS {angstrom}
Ca 0.00000000 0.00000000 23.66536628
Ca 0.00000000 2.44367250 26.10903099
Ca 0.03103376 9.75015553 1.18671202
Ca 6.55620958 2.44377025 3.52679224
Ca 0.00000000 4.88734500 23.66536628
Ca 0.00000000 7.33101750 26.10903099
Ca 0.03103376 4.91187947 1.18643871
Ca 0.03455875 7.33101750 3.84383184
Ca 3.45587500 0.00000000 23.66536628
Ca 3.45587500 2.44367250 26.10903099
Ca 3.42484124 9.75015553 1.18643871
Ca 3.81141542 2.44367250 3.52679224
Ca 3.45587500 4.88734500 23.66536628
Ca 3.45587500 7.33101750 26.10903099
Ca 3.42484124 4.91187947 1.18643871
Ca 3.42131625 7.33101750 3.84383184
Ni 1.72793750 2.44367250 23.66536628
Ni 1.72793750 0.00000000 26.10903099
Ni 1.72786838 2.44377025 1.49664556
Ni 1.72793750 0.78353915 3.82333359
Ni 1.72793750 7.33101750 23.66536628
Ni 1.72793750 4.88734500 26.10903099
Ni 1.72793750 7.33091975 1.33156632
Ni 1.72800662 4.10380585 3.82333359
Ni 5.18381250 2.44367250 23.66536628
Ni 5.18381250 0.00000000 26.10903099
Ni 5.18388162 2.44377025 1.01999292
Ni 5.18381250 9.46649402 3.29584529
Ni 5.18381250 7.33101750 23.66536628
Ni 5.18381250 4.88734500 26.10903099
Ni 5.18381250 7.33091975 1.64423296
Ni 5.18381250 5.19563872 3.29584529
C 1.72793750 2.44367250 4.50879507
