&CONTROL
calculation = 'relax'
prefix = 'scf'
pseudo_dir = '/vol0004/mdt0/data/hp150275/u10028/POT_KKJUS'
outdir = './data'
tprnfor = .true.
nstep = 50
disk_io = 'non'
/
&SYSTEM
ibrav = 0
ecutwfc = 50.0
ecutrho = 400
occupations = 'smearing'
smearing = 'mp'
degauss = 0.01
assume_isolated = 'esm'
esm_bc = 'bc1'
input_dft = 'BEEF-VDW'
nosym = .true.
nspin = 1
ntyp = 5
nat = 18
/
&ELECTRONS
electron_maxstep = 200
mixing_beta = 0.1
conv_thr = 1e-06
/
&IONS
ion_dynamics = 'bfgs'
upscale = 1.0
/
&CELL
/

K_POINTS {automatic}
8 8 1 0 0 0

ATOMIC_SPECIES
Al 26.98 Al.pbe-nl-rrkjus_psl.1.0.0.UPF
C 12.01 C.pbe-n-rrkjus_psl.1.0.0.UPF
Cu 63.54 Cu.pbe-dn-rrkjus_psl.1.0.0.UPF
O 15.99 O.pbe-n-rrkjus_psl.1.0.0.UPF
Zr 91.22 Zr.pbe-spn-rrkjus_psl.1.0.0.UPF

CELL_PARAMETERS {angstrom}
6.27295000 0.00000000 0.00000000
0.00000000 6.27295000 0.00000000
0.00000000 0.00000000 24.70470000

ATOMIC_POSITIONS {angstrom}
Zr 0.00000000 6.27282454 2.35584019
Zr 3.13647500 3.13653773 2.39808523
Zr 3.13647500 0.00000000 -0.7841271799999987 0 0 0
Zr 0.00000000 3.13647500 -0.7841271799999987 0 0 0
Al 0.00000000 0.00000000 -0.7841271799999987 0 0 0
Al 3.13647500 0.00000000 2.35806361
Al 0.00000000 3.13647500 2.35831066
Al 3.13647500 3.13647500 -0.7841271799999987 0 0 0
Cu 1.59772036 1.59772037 0.83353658
Cu 4.70471250 4.70471250 -2.352381529999999 0 0 0
Cu 4.67522963 1.59772037 0.83353658
Cu 1.56823750 4.70471250 -2.352381529999999 0 0 0
Cu 4.67522963 4.67522964 0.83353658
Cu 1.56823750 1.56823750 -2.352381529999999 0 0 0
Cu 1.59772036 4.67522963 0.83353658
Cu 4.70471250 1.56823750 -2.352381529999999 0 0 0
C 0.00000000 0.00000000 4.64349541
O 0.00000000 0.00000000 5.79424034
