&CONTROL
calculation = 'relax'
prefix = 'scf'
pseudo_dir = '/vol0004/mdt0/data/hp150275/u10028/POT_KKJUS'
outdir = './data'
tprnfor = .true.
nstep = 50
disk_io = 'non'
/
&SYSTEM
ibrav = 0
ecutwfc = 50.0
ecutrho = 400
occupations = 'smearing'
smearing = 'mp'
degauss = 0.01
assume_isolated = 'esm'
esm_bc = 'bc1'
input_dft = 'BEEF-VDW'
nosym = .true.
nspin = 1
ntyp = 2
nat = 32
/
&ELECTRONS
electron_maxstep = 200
mixing_beta = 0.1
conv_thr = 1e-06
/
&IONS
ion_dynamics = 'bfgs'
upscale = 1.0
/
&CELL
/

K_POINTS {automatic}
8 6 1 0 0 0

ATOMIC_SPECIES
In 114.8 In.pbe-dn-rrkjus_psl.1.0.0.UPF
Rh 102.9 Rh.pbe-spn-rrkjus_psl.1.0.0.UPF

CELL_PARAMETERS {angstrom}
6.51708000 0.00000000 0.00000000
0.00000000 9.21654000 0.00000000
0.00000000 0.00000000 26.91240000

ATOMIC_POSITIONS {angstrom}
In 0.00000000 0.00000000 -3.4560904100000016 0 0 0
In 0.00000000 2.30413500 -1.152119840000001 0 0 0
In 0.00000000 0.00000000 1.13758715
In 0.00000000 2.30404283 3.64932144
In 0.00000000 4.60827000 -3.4560904100000016 0 0 0
In 0.00000000 6.91240500 -1.152119840000001 0 0 0
In 0.00000000 4.60827000 1.13758715
In 0.00000000 6.91249717 3.64932144
In 3.25854000 0.00000000 -3.4560904100000016 0 0 0
In 3.25854000 2.30413500 -1.152119840000001 0 0 0
In 3.25854000 0.00000000 1.13758715
In 3.25854000 2.30404283 3.64932144
In 3.25854000 4.60827000 -3.4560904100000016 0 0 0
In 3.25854000 6.91240500 -1.152119840000001 0 0 0
In 3.25854000 4.60827000 1.13758715
In 3.25854000 6.91249717 3.64932144
Rh 1.62927000 2.30413500 -3.4560904100000016 0 0 0
Rh 1.62927000 0.00000000 -1.152119840000001 0 0 0
Rh 1.62927000 2.30422717 1.10394665
Rh 1.62927000 0.00000000 3.30887958
Rh 1.62927000 6.91240500 -3.4560904100000016 0 0 0
Rh 1.62927000 4.60827000 -1.152119840000001 0 0 0
Rh 1.62927000 6.91231283 1.10394665
Rh 1.62927000 4.60827000 3.30887958
Rh 4.88781000 2.30413500 -3.4560904100000016 0 0 0
Rh 4.88781000 0.00000000 -1.152119840000001 0 0 0
Rh 4.88781000 2.30422717 1.10394665
Rh 4.88781000 0.00000000 3.30887958
Rh 4.88781000 6.91240500 -3.4560904100000016 0 0 0
Rh 4.88781000 4.60827000 -1.152119840000001 0 0 0
Rh 4.88781000 6.91231283 1.10394665
Rh 4.88781000 4.60827000 3.30887958
