&CONTROL
calculation = 'relax'
prefix = 'scf'
pseudo_dir = '/vol0004/mdt0/data/hp150275/u10028/POT_KKJUS'
outdir = './data'
tprnfor = .true.
nstep = 50
disk_io = 'non'
/
&SYSTEM
ibrav = 0
ecutwfc = 50.0
ecutrho = 400
occupations = 'smearing'
smearing = 'mp'
degauss = 0.01
assume_isolated = 'esm'
esm_bc = 'bc1'
input_dft = 'BEEF-VDW'
nosym = .true.
nspin = 1
ntyp = 4
nat = 18
/
&ELECTRONS
electron_maxstep = 200
mixing_beta = 0.1
conv_thr = 1e-06
/
&IONS
ion_dynamics = 'bfgs'
upscale = 1.0
/
&CELL
/

K_POINTS {automatic}
8 11 2 0  0  0

ATOMIC_SPECIES
C 12.01 C.pbe-n-rrkjus_psl.1.0.0.UPF
Mg 24.30 Mg.pbe-spnl-rrkjus_psl.1.0.0.UPF
Ni 58.69 Ni.pbe-spn-rrkjus_psl.1.0.0.UPF
O 15.99 O.pbe-n-rrkjus_psl.1.0.0.UPF

CELL_PARAMETERS {angstrom}
7.35611000 0.00000000 0.00000000
0.00000000 5.20155000 0.00000000
0.00000000 0.00000000 23.90120000

ATOMIC_POSITIONS {angstrom}
Mg 0.00000000 0.00000000 -1.9505769300000004 0 0 0
Mg 0.01500646 2.60904546 0.68931061
Mg 3.67805500 0.00000000 -1.9505769300000004 0 0 0
Mg 3.66312210 2.60873337 0.69002764
Ni 0.00000000 2.60077500 -1.9505769300000004 0 0 0
Ni 1.83902750 3.90116250 -0.6501126399999997 0 0 0
Ni 1.83902750 1.30038750 -0.6501126399999997 0 0 0
Ni 0.05708341 0.00644992 0.68118420
Ni 1.83873326 1.30657734 1.96013741
Ni 1.83910106 3.91166963 1.96085445
Ni 3.67805500 2.60077500 -1.9505769300000004 0 0 0
Ni 5.51708250 3.90116250 -0.6501126399999997 0 0 0
Ni 5.51708250 1.30038750 -0.6501126399999997 0 0 0
Ni 3.62016241 0.00613783 0.68118420
Ni 5.51678826 1.22491301 1.80860380
Ni 5.51693538 3.99562265 1.81218898
C 1.83858613 2.60805717 3.31605249
O 1.83821833 2.60940957 4.49318659
