&CONTROL
calculation = 'relax'
prefix = 'scf'
pseudo_dir = '/vol0004/mdt0/data/hp150275/u10028/POT_KKJUS'
outdir = './data'
tprnfor = .true.
nstep = 50
disk_io = 'non'
/
&SYSTEM
ibrav = 0
ecutwfc = 50.0
ecutrho = 400
occupations = 'smearing'
smearing = 'mp'
degauss = 0.01
assume_isolated = 'esm'
esm_bc = 'bc1'
input_dft = 'BEEF-VDW'
nosym = .true.
nspin = 1
ntyp = 4
nat = 33
/
&ELECTRONS
electron_maxstep = 200
mixing_beta = 0.1
conv_thr = 1e-06
/
&IONS
ion_dynamics = 'bfgs'
upscale = 1.0
/
&CELL
/

K_POINTS {automatic}
8 6 1 0 0 0

ATOMIC_SPECIES
Ag 107.8 Ag.pbe-n-rrkjus_psl.1.0.0.UPF
Au 196.9 Au.pbe-n-rrkjus_psl.1.0.0.UPF
C 12.01 C.pbe-n-rrkjus_psl.1.0.0.UPF
Zn 65.40 Zn.pbe-dnl-rrkjus_psl.1.0.0.UPF

CELL_PARAMETERS {angstrom}
6.35005000 0.00000000 0.00000000
0.00000000 8.98033000 0.00000000
0.00000000 0.00000000 26.73520000

ATOMIC_POSITIONS {angstrom}
Zn 1.58751250 0.00000000 -1.1226110499999997 0 0 0
Zn 4.76253750 4.49016500 -1.1226110499999997 0 0 0
Zn 4.76253750 0.00000000 -1.1226110499999997 0 0 0
Zn 1.58751250 4.49016500 -1.1226110499999997 0 0 0
Zn 4.76253750 6.73524750 -3.3675657900000004 0 0 0
Zn 1.58751250 2.24508250 -3.3675657900000004 0 0 0
Zn 1.58751250 6.73524750 -3.3675657900000004 0 0 0
Zn 4.76253750 2.24508250 -3.3675657900000004 0 0 0
Zn 1.66371310 4.49016500 3.69373523
Zn 5.09039058 0.00000000 3.92098443
Zn 4.68633690 4.49016500 3.69373523
Zn 1.25965942 0.00000000 3.92098443
Zn 4.71681714 2.24598053 1.23677035
Zn 1.63323286 6.73434947 1.23677035
Zn 1.63323286 2.24598053 1.23677035
Zn 4.71681714 6.73434947 1.23677035
Ag 0.00000000 0.00000000 -3.3675657900000004 0 0 0
Ag 3.17502500 2.24508250 -1.1226110499999997 0 0 0
Ag 3.17502500 6.73524750 -1.1226110499999997 0 0 0
Ag 0.00000000 4.49016500 -3.3675657900000004 0 0 0
Ag 0.00000000 4.49016500 1.18463671
Ag 3.17502500 6.71441313 3.76859379
Ag 3.17502500 2.26591687 3.76859379
Ag 0.00000000 0.00000000 1.21297602
Au 0.00000000 6.73524750 -1.1226110499999997 0 0 0
Au 3.17502500 0.00000000 -3.3675657900000004 0 0 0
Au 0.00000000 2.24508250 -1.1226110499999997 0 0 0
Au 3.17502500 4.49016500 -3.3675657900000004 0 0 0
Au 0.00000000 2.38337958 3.44269170
Au 3.17502500 4.49016500 1.13196837
Au 0.00000000 6.59695042 3.44269170
Au 3.17502500 0.00000000 1.21056986
C 3.17502500 0.00000000 3.50177650
