&CONTROL
calculation = 'relax'
prefix = 'scf'
pseudo_dir = '/vol0004/mdt0/data/hp150275/u10028/POT_KKJUS'
outdir = './data'
tprnfor = .true.
nstep = 50
disk_io = 'non'
/
&SYSTEM
ibrav = 0
ecutwfc = 50.0
ecutrho = 400
occupations = 'smearing'
smearing = 'mp'
degauss = 0.01
assume_isolated = 'esm'
esm_bc = 'bc1'
input_dft = 'BEEF-VDW'
nosym = .true.
nspin = 1
ntyp = 4
nat = 34
/
&ELECTRONS
electron_maxstep = 200
mixing_beta = 0.1
conv_thr = 1e-06
/
&IONS
ion_dynamics = 'bfgs'
upscale = 1.0
/
&CELL
/

K_POINTS {automatic}
9 6 2 0  0  0

ATOMIC_SPECIES
C 12.01 C.pbe-n-rrkjus_psl.1.0.0.UPF
O 15.99 O.pbe-n-rrkjus_psl.1.0.0.UPF
Ru 101.0 Ru.pbe-spn-rrkjus_psl.1.0.0.UPF
Ti 47.86 Ti.pbe-spn-rrkjus_psl.1.0.0.UPF

CELL_PARAMETERS {angstrom}
6.18271000 0.00000000 0.00000000
0.00000000 8.74368000 0.00000000
0.00000000 0.00000000 26.55780000

ATOMIC_POSITIONS {angstrom}
Ti 0.00000000 0.00000000 -3.2788259900000014 0 0 0
Ti 0.00000000 2.18592000 -1.0928534700000014 0 0 0
Ti 0.00000000 0.00419697 1.13826731
Ti 0.00000000 2.18592000 3.32344309
Ti 0.00000000 4.37184000 -3.2788259900000014 0 0 0
Ti 0.00000000 6.55776000 -1.0928534700000014 0 0 0
Ti 0.00000000 4.36764303 1.13826731
Ti 0.00000000 6.55776000 3.29502625
Ti 3.09135500 0.00000000 -3.2788259900000014 0 0 0
Ti 3.09135500 2.18592000 -1.0928534700000014 0 0 0
Ti 3.09135500 8.74341769 1.13986078
Ti 3.09135500 2.18592000 3.30352474
Ti 3.09135500 4.37184000 -3.2788259900000014 0 0 0
Ti 3.09135500 6.55776000 -1.0928534700000014 0 0 0
Ti 3.09135500 4.37210231 1.13986078
Ti 3.09135500 6.55776000 3.30379032
Ru 1.54567750 2.18592000 -3.2788259900000014 0 0 0
Ru 1.54567750 0.00000000 -1.0928534700000014 0 0 0
Ru 1.55810475 2.18592000 1.07293512
Ru 1.54907799 8.72199567 3.14975508
Ru 1.54567750 6.55776000 -3.2788259900000014 0 0 0
Ru 1.54567750 4.37184000 -1.0928534700000014 0 0 0
Ru 1.54611029 6.55776000 1.08594844
Ru 1.54907799 4.39352433 3.14975508
Ru 4.63703250 2.18592000 -3.2788259900000014 0 0 0
Ru 4.63703250 0.00000000 -1.0928534700000014 0 0 0
Ru 4.62460525 2.18592000 1.07293512
Ru 4.63363201 8.72199567 3.14975508
Ru 4.63703250 6.55776000 -3.2788259900000014 0 0 0
Ru 4.63703250 4.37184000 -1.0928534700000014 0 0 0
Ru 4.63659971 6.55776000 1.08594844
Ru 4.63363201 4.39352433 3.14975508
C 0.00000000 2.18592000 5.45205076
O 0.00000000 2.18592000 6.60572159
