&CONTROL
calculation = 'relax'
prefix = 'scf'
pseudo_dir = '/vol0403/data/hp230205/u10028/POT_HYBRID_KKJUS_GBRV'
outdir = './data'
tprnfor = .true.
nstep = 70
disk_io = 'non'
/
&SYSTEM
ibrav = 0
ecutwfc = 50.0
ecutrho = 400
occupations = 'smearing'
smearing = 'mp'
degauss = 0.01
assume_isolated = 'esm'
esm_bc = 'bc1'
input_dft = 'BEEF-VDW'
nosym = .true.
nspin = 1
ntyp = 5
nat = 33
/
&ELECTRONS
electron_maxstep = 200
mixing_beta = 0.1
conv_thr = 1e-06
/
&IONS
ion_dynamics = 'bfgs'
upscale = 1.0
/
&CELL
/

K_POINTS {automatic}
6 6 1 0 0 0

ATOMIC_SPECIES
Ag 107.8 Ag.pbe-n-rrkjus_psl.1.0.0.UPF
C 12.01 C.pbe-n-rrkjus_psl.1.0.0.UPF
Cu 63.54 Cu.pbe-dn-rrkjus_psl.1.0.0.UPF
Li 6.941 Li.pbe-sl-rrkjus_psl.1.0.0.UPF
Sn 118.7 Sn.pbe-dn-rrkjus_psl.1.0.0.UPF


CELL_PARAMETERS {angstrom}
6.43603000 0.00000000 0.00000000
-0.00000000 9.10192000 0.00000000
0.00000000 0.00000000 26.82640000

ATOMIC_POSITIONS {angstrom}
Li 1.60900750 0.00000000 -1.1377076200000005 0 0 0
Li 1.60900750 4.55096000 -1.1377076200000005 0 0 0
Li 4.82702250 2.27548000 -3.4131228699999987 0 0 0
Li 4.82702250 6.82644000 -3.4131228699999987 0 0 0
Li 1.54117174 4.70141474 3.58910406
Li 1.54136482 8.95137424 3.58910406
Li 4.76884079 6.82644000 1.13180582
Li 5.14978940 2.27548000 1.53017786
Cu 4.82702250 0.00000000 -1.1377076200000005 0 0 0
Cu 4.82702250 4.55096000 -1.1377076200000005 0 0 0
Cu 1.60900750 2.27548000 -3.4131228699999987 0 0 0
Cu 1.60900750 6.82644000 -3.4131228699999987 0 0 0
Cu 5.02924256 4.22520228 3.42117079
Cu 5.02917820 0.32575772 3.42117079
Cu 1.71861309 6.82644000 1.32334631
Cu 1.51047188 2.27548000 1.07922607
Ag 0.00000000 0.00000000 -3.4131228699999987 0 0 0
Ag 0.00000000 4.55096000 -3.4131228699999987 0 0 0
Ag 3.21801500 6.82644000 -1.1377076200000005 0 0 0
Ag 3.21801500 2.27548000 -1.1377076200000005 0 0 0
Ag 0.03488328 4.70505551 1.11195428
Ag 0.03494764 8.94782449 1.11195428
Ag 2.84060620 2.27548000 3.41848815
Ag 3.41669525 6.82634898 3.45711817
Sn 0.00000000 2.27548000 -1.1377076200000005 0 0 0
Sn 0.00000000 6.82644000 -1.1377076200000005 0 0 0
Sn 3.21801500 4.55096000 -3.4131228699999987 0 0 0
Sn 3.21801500 0.00000000 -3.4131228699999987 0 0 0
Sn 6.24713252 6.82644000 3.69775098
Sn 0.36897760 2.27538898 4.74049314
Sn 3.20906892 0.08956289 1.24823239
Sn 3.20906892 4.46139711 1.24823239
C 4.97781868 2.27548000 3.71089591
