&CONTROL
calculation = 'relax'
prefix = 'scf'
pseudo_dir = '/vol0403/data/hp230205/u10028/POT_HYBRID_KKJUS_GBRV'
outdir = './data'
tprnfor = .true.
nstep = 50
disk_io = 'non'
/
&SYSTEM
ibrav = 0
ecutwfc = 50.0
ecutrho = 400
occupations = 'smearing'
smearing = 'mp'
degauss = 0.01
assume_isolated = 'esm'
esm_bc = 'bc1'
input_dft = 'BEEF-VDW'
nosym = .true.
nspin = 1
ntyp = 5
nat = 33
/
&ELECTRONS
electron_maxstep = 200
mixing_beta = 0.1
conv_thr = 1e-06
/
&IONS
ion_dynamics = 'bfgs'
upscale = 1.0
/
&CELL
/

K_POINTS {automatic}
9 6 2 0  0  0

ATOMIC_SPECIES
C 12.01 C.pbe-n-rrkjus_psl.1.0.0.UPF
Ga 69.72 Ga.pbe-dnl-rrkjus_psl.1.0.0.UPF
In 114.8 In.pbe-dn-rrkjus_psl.1.0.0.UPF
Li 6.941 Li.pbe-sl-rrkjus_psl.1.0.0.UPF
Pd 106.4 Pd.pbe-n-rrkjus_psl.1.0.0.UPF


CELL_PARAMETERS {angstrom}
6.46680000 0.00000000 0.00000000
0.00000000 9.14544000 0.00000000
0.00000000 0.00000000 26.85910000

ATOMIC_POSITIONS {angstrom}
Li 4.85010000 0.00000000 -1.1431233000000027 0 0 0
Li 4.85010000 4.57272000 -1.1431233000000027 0 0 0
Li 1.61670000 2.28636000 -3.4296384800000013 0 0 0
Li 1.61670000 6.85908000 -3.4296384800000013 0 0 0
Li 4.63410888 4.42465533 3.79626519
Li 4.63475556 0.14815613 3.79545942
Li 1.53476564 6.85898855 1.29326567
Li 1.34224901 2.28645145 1.29971185
In 0.00000000 2.28636000 -1.1431233000000027 0 0 0
In 0.00000000 6.85908000 -1.1431233000000027 0 0 0
In 3.23340000 4.57272000 -3.4296384800000013 0 0 0
In 3.23340000 0.00000000 -3.4296384800000013 0 0 0
In 6.23470655 6.85898855 3.79384787
In 0.19846609 2.28654291 4.41241295
In 3.24213018 0.02332087 1.17830872
In 3.24225952 4.54930767 1.17830872
Ga 0.00000000 0.00000000 -3.4296384800000013 0 0 0
Ga 0.00000000 4.57272000 -3.4296384800000013 0 0 0
Ga 3.23340000 6.85908000 -1.1431233000000027 0 0 0
Ga 3.23340000 2.28636000 -1.1431233000000027 0 0 0
Ga 6.33798134 4.63984753 1.27097261
Ga 6.33817535 9.07822102 1.27070402
Ga 2.81887812 2.28617709 3.53949220
Ga 3.04444010 6.85917145 3.72616294
Pd 1.61670000 0.00000000 -1.1431233000000027 0 0 0
Pd 1.61670000 4.57272000 -1.1431233000000027 0 0 0
Pd 4.85010000 2.28636000 -3.4296384800000013 0 0 0
Pd 4.85010000 6.85908000 -3.4296384800000013 0 0 0
Pd 1.51976267 4.63042773 3.28486793
Pd 1.51950400 9.08764082 3.28486793
Pd 4.81181654 6.85908000 1.04428181
Pd 4.97743129 2.28626855 1.24679942
C 4.72561410 2.28645145 3.44924562
