&CONTROL
calculation = 'relax'
prefix = 'scf'
pseudo_dir = '/vol0004/mdt0/data/hp150275/u10028/POT_HYBRID_KKJUS_GBRV'
outdir = './data'
tprnfor = .true.
nstep = 50
disk_io = 'non'
/
&SYSTEM
ibrav = 0
ecutwfc = 50.0
ecutrho = 400
occupations = 'smearing'
smearing = 'mp'
degauss = 0.01
assume_isolated = 'esm'
esm_bc = 'bc1'
input_dft = 'BEEF-VDW'
nosym = .true.
nspin = 2
ntyp = 5
nat = 34
starting_magnetization(1) = 0.0
starting_magnetization(2) = 0.1
starting_magnetization(3) = 0.0
starting_magnetization(4) = 0.0
starting_magnetization(5) = 0.0
/
&ELECTRONS
electron_maxstep = 300
mixing_beta = 0.1
conv_thr = 1e-06
/
&IONS
ion_dynamics = 'bfgs'
upscale = 1.0
/
&CELL
/

K_POINTS {automatic}
9 6 2 0  0  0

ATOMIC_SPECIES
C 12.01 C.pbe-n-rrkjus_psl.1.0.0.UPF
Fe 55.84 fe_pbe_v1.5.uspp.F.UPF
O 15.99 O.pbe-n-rrkjus_psl.1.0.0.UPF
Si 28.08 Si.pbe-nl-rrkjus_psl.1.0.0.UPF
V 50.94 V.pbe-spnl-rrkjus_psl.1.0.0.UPF

CELL_PARAMETERS {angstrom}
5.64262000 0.00000000 0.00000000
0.00000000 7.97986000 0.00000000
0.00000000 0.00000000 25.98490000

ATOMIC_POSITIONS {angstrom}
V 0.00000000 0.00000000 -2.9924210799999997 0 0 0
V 2.82131000 1.99496500 -0.9975603100000008 0 0 0
V 2.82131000 5.98489500 -0.9975603100000008 0 0 0
V 0.00000000 3.98993000 -2.9924210799999997 0 0 0
V 0.00541692 3.98993000 1.04147479
V 2.85979267 5.93765423 3.05218635
V 2.85984909 2.04220577 3.05218635
V 5.62467647 0.00000000 1.05680588
Fe 1.41065500 0.00000000 -0.9975603100000008 0 0 0
Fe 4.23196500 3.98993000 -0.9975603100000008 0 0 0
Fe 4.23196500 0.00000000 -0.9975603100000008 0 0 0
Fe 1.41065500 3.98993000 -0.9975603100000008 0 0 0
Fe 4.23196500 5.98489500 -2.9924210799999997 0 0 0
Fe 1.41065500 1.99496500 -2.9924210799999997 0 0 0
Fe 1.41065500 5.98489500 -2.9924210799999997 0 0 0
Fe 4.23196500 1.99496500 -2.9924210799999997 0 0 0
Fe 1.34807834 3.98993000 2.87808752
Fe 4.25645397 0.00000000 2.84612610
Fe 4.26909344 3.98993000 2.92200200
Fe 1.52040396 0.00000000 2.96279830
Fe 4.21097445 2.00869036 0.99132394
Fe 1.41787755 6.00580223 0.99054439
Fe 1.41787755 1.97405777 0.99080424
Fe 4.21103088 5.97116964 0.99132394
Si 0.00000000 5.98489500 -0.9975603100000008 0 0 0
Si 2.82131000 0.00000000 -2.9924210799999997 0 0 0
Si 0.00000000 1.99496500 -0.9975603100000008 0 0 0
Si 2.82131000 3.98993000 -2.9924210799999997 0 0 0
Si 0.01337301 1.95722026 3.03113858
Si 2.81273322 3.98993000 1.01548989
Si 0.01342944 6.02263974 3.03113858
Si 2.81685233 0.00000000 0.99782016
C 2.40584389 0.00000000 4.53618399
O 2.71731651 0.00000000 5.67666125
