&CONTROL
calculation = 'relax'
prefix = 'scf'
pseudo_dir = '/vol0004/mdt0/data/hp150275/u10028/POT_HYBRID_KKJUS_GBRV'
outdir = './data'
tprnfor = .true.
nstep = 50
disk_io = 'non'
/
&SYSTEM
ibrav = 0
ecutwfc = 50.0
ecutrho = 400
occupations = 'smearing'
smearing = 'mp'
degauss = 0.01
assume_isolated = 'esm'
esm_bc = 'bc1'
input_dft = 'BEEF-VDW'
nosym = .true.
nspin = 2
ntyp = 3
nat = 33
starting_magnetization(1) = 0.1
starting_magnetization(2) = 0.1
starting_magnetization(3) = 0.1
/
&ELECTRONS
electron_maxstep = 200
mixing_beta = 0.1
conv_thr = 1e-06
/
&IONS
ion_dynamics = 'bfgs'
upscale = 1.0
/
&CELL
/

K_POINTS {automatic}
8 6 1 0 0 0

ATOMIC_SPECIES
Al 26.98 Al.pbe-nl-rrkjus_psl.1.0.0.UPF
C 12.01 C.pbe-n-rrkjus_psl.1.0.0.UPF
Mn 54.93 mn_pbe_v1.5.uspp.F.UPF

CELL_PARAMETERS {angstrom}
5.89713000 0.00000000 0.00000000
0.00000000 8.33980000 0.00000000
0.00000000 0.00000000 26.25480000

ATOMIC_POSITIONS {angstrom}
Mn 1.47428250 2.08495000 -3.1274717800000005 0 0 0
Mn 1.47428250 0.00000000 -1.042578110000001 0 0 0
Mn 1.47269027 2.06943797 1.15284827
Mn 1.56899041 0.00000000 3.06235987
Mn 1.47428250 6.25485000 -3.1274717800000005 0 0 0
Mn 1.47428250 4.16990000 -1.042578110000001 0 0 0
Mn 1.47269027 6.27036203 1.15284827
Mn 1.43783824 4.16990000 3.15477677
Mn 4.42284750 2.08495000 -3.1274717800000005 0 0 0
Mn 4.42284750 0.00000000 -1.042578110000001 0 0 0
Mn 4.42443973 2.06943797 1.15284827
Mn 4.32813959 0.00000000 3.06235987
Mn 4.42284750 6.25485000 -3.1274717800000005 0 0 0
Mn 4.42284750 4.16990000 -1.042578110000001 0 0 0
Mn 4.42443973 6.27036203 1.15284827
Mn 4.45929176 4.16990000 3.15451422
Al 0.00000000 0.00000000 -3.1274717800000005 0 0 0
Al 0.00000000 2.08495000 -1.042578110000001 0 0 0
Al 0.00000000 0.00000000 1.02131172
Al 0.00000000 2.05184099 3.45040582
Al 0.00000000 4.16990000 -3.1274717800000005 0 0 0
Al 0.00000000 6.25485000 -1.042578110000001 0 0 0
Al 0.00000000 4.16990000 1.03522676
Al 0.00000000 6.28795901 3.45040582
Al 2.94856500 0.00000000 -3.1274717800000005 0 0 0
Al 2.94856500 2.08495000 -1.042578110000001 0 0 0
Al 2.94856500 0.00000000 0.95173650
Al 2.94856500 2.12222891 3.41890006
Al 2.94856500 4.16990000 -3.1274717800000005 0 0 0
Al 2.94856500 6.25485000 -1.042578110000001 0 0 0
Al 2.94856500 4.16990000 1.06463214
Al 2.94856500 6.21757109 3.41890006
C 0.00000000 0.00000000 3.99204234
