&CONTROL
calculation = 'relax'
prefix = 'scf'
pseudo_dir = '/vol0004/mdt0/data/hp150275/u10028/POT_HYBRID_KKJUS_GBRV'
outdir = './data'
tprnfor = .true.
nstep = 50
disk_io = 'non'
/
&SYSTEM
ibrav = 0
ecutwfc = 50.0
ecutrho = 400
occupations = 'smearing'
smearing = 'mp'
degauss = 0.01
assume_isolated = 'esm'
esm_bc = 'bc1'
input_dft = 'BEEF-VDW'
nosym = .true.
nspin = 2
ntyp = 3
nat = 33
starting_magnetization(1) = 0.1
starting_magnetization(2) = 0.1
starting_magnetization(3) = 0.1
/
&ELECTRONS
electron_maxstep = 200
mixing_beta = 0.1
conv_thr = 1e-06
/
&IONS
ion_dynamics = 'bfgs'
upscale = 1.0
/
&CELL
/

K_POINTS {automatic}
9 6 2 0  0  0

ATOMIC_SPECIES
C 12.01 C.pbe-n-rrkjus_psl.1.0.0.UPF
Mn 54.93 mn_pbe_v1.5.uspp.F.UPF
Pd 106.4 Pd.pbe-n-rrkjus_psl.1.0.0.UPF

CELL_PARAMETERS {angstrom}
6.32195000 0.00000000 0.00000000
0.00000000 8.94058000 0.00000000
0.00000000 0.00000000 26.70540000

ATOMIC_POSITIONS {angstrom}
Mn 0.00000000 0.00000000 -3.3525959200000024 0 0 0
Mn 0.00000000 2.23514500 -1.1176209900000025 0 0 0
Mn 0.00000000 4.47029000 1.09438729
Mn 0.00000000 2.00251111 3.51576591
Mn 0.00000000 4.47029000 -3.3525959200000024 0 0 0
Mn 0.00000000 6.70543500 -1.1176209900000025 0 0 0
Mn 0.00000000 0.00000000 1.15420739
Mn 0.00000000 6.93806889 3.51576591
Mn 3.16097500 0.00000000 -3.3525959200000024 0 0 0
Mn 3.16097500 2.23514500 -1.1176209900000025 0 0 0
Mn 3.16097500 4.47029000 1.16061668
Mn 3.16097500 2.36961132 3.39078464
Mn 3.16097500 4.47029000 -3.3525959200000024 0 0 0
Mn 3.16097500 6.70543500 -1.1176209900000025 0 0 0
Mn 3.16097500 0.00000000 0.99931607
Mn 3.16097500 6.57096868 3.39078464
Pd 1.58048750 2.23514500 -3.3525959200000024 0 0 0
Pd 1.58048750 0.00000000 -1.1176209900000025 0 0 0
Pd 1.56689531 2.23845301 1.15527560
Pd 1.84531399 0.00000000 3.22654643
Pd 1.58048750 6.70543500 -3.3525959200000024 0 0 0
Pd 1.58048750 4.47029000 -1.1176209900000025 0 0 0
Pd 1.56689531 6.70212699 1.15527560
Pd 1.45904284 4.47029000 3.27621847
Pd 4.74146250 2.23514500 -3.3525959200000024 0 0 0
Pd 4.74146250 0.00000000 -1.1176209900000025 0 0 0
Pd 4.75505469 2.23845301 1.15527560
Pd 4.47663601 0.00000000 3.22654643
Pd 4.74146250 6.70543500 -3.3525959200000024 0 0 0
Pd 4.74146250 4.47029000 -1.1176209900000025 0 0 0
Pd 4.75505469 6.70212699 1.15527560
Pd 4.86290716 4.47029000 3.27621847
C 0.00000000 0.00000000 3.91634691
