&CONTROL
calculation = 'relax'
prefix = 'scf'
pseudo_dir = '/vol0004/mdt0/data/hp150275/u10028/POT_KKJUS'
outdir = './data'
tprnfor = .true.
nstep = 50
disk_io = 'non'
/
&SYSTEM
ibrav = 0
ecutwfc = 50.0
ecutrho = 400
occupations = 'smearing'
smearing = 'mp'
degauss = 0.01
assume_isolated = 'esm'
esm_bc = 'bc1'
input_dft = 'BEEF-VDW'
nosym = .true.
nspin = 1
ntyp = 3
nat = 33
/
&ELECTRONS
electron_maxstep = 200
mixing_beta = 0.1
conv_thr = 1e-06
/
&IONS
ion_dynamics = 'bfgs'
upscale = 1.0
/
&CELL
/

K_POINTS {automatic}
8 6 1 0 0 0

ATOMIC_SPECIES
Al 26.98 Al.pbe-nl-rrkjus_psl.1.0.0.UPF
C 12.01 C.pbe-n-rrkjus_psl.1.0.0.UPF
Ru 101.0 Ru.pbe-spn-rrkjus_psl.1.0.0.UPF

CELL_PARAMETERS {angstrom}
6.00621000 0.00000000 0.00000000
0.00000000 8.49407000 0.00000000
0.00000000 0.00000000 26.37050000

ATOMIC_POSITIONS {angstrom}
Al 0.00000000 0.00000000 -3.1852926900000007 0 0 0
Al 0.00000000 2.12351750 -1.061676330000001 0 0 0
Al 0.01435484 0.00008494 1.07670751
Al 5.75388912 2.12351750 3.08455739
Al 0.00000000 4.24703500 -3.1852926900000007 0 0 0
Al 0.00000000 6.37055250 -1.061676330000001 0 0 0
Al 0.01435484 4.24695006 1.07670751
Al 0.04973142 6.37055250 3.16920669
Al 3.00310500 0.00000000 -3.1852926900000007 0 0 0
Al 3.00310500 2.12351750 -1.061676330000001 0 0 0
Al 2.98869010 0.00008494 1.07670751
Al 3.25470514 2.12351750 3.08482109
Al 3.00310500 4.24703500 -3.1852926900000007 0 0 0
Al 3.00310500 6.37055250 -1.061676330000001 0 0 0
Al 2.98869010 4.24695006 1.07670751
Al 2.95331352 6.37055250 3.16920669
Ru 1.50155250 2.12351750 -3.1852926900000007 0 0 0
Ru 1.50155250 0.00000000 -1.061676330000001 0 0 0
Ru 1.50143238 2.12360244 1.05297406
Ru 1.50131225 3.97777298 3.33428602
Ru 1.50155250 6.37055250 -3.1852926900000007 0 0 0
Ru 1.50155250 4.24703500 -1.061676330000001 0 0 0
Ru 1.50149244 6.37046756 1.09859503
Ru 1.50131225 0.26934696 3.33454973
Ru 4.50465750 2.12351750 -3.1852926900000007 0 0 0
Ru 4.50465750 0.00000000 -1.061676330000001 0 0 0
Ru 4.50465750 2.12360244 0.96225954
Ru 4.50459744 4.34055471 3.17395338
Ru 4.50465750 6.37055250 -3.1852926900000007 0 0 0
Ru 4.50465750 4.24703500 -1.061676330000001 0 0 0
Ru 4.50477762 6.37046756 1.03029543
Ru 4.50459744 8.40055029 3.17395338
C 1.50083175 2.12351750 3.98036327
