&CONTROL
calculation = 'relax'
prefix = 'scf'
pseudo_dir = '/vol0004/mdt0/data/hp150275/u10028/POT_KKJUS'
outdir = './data'
tprnfor = .true.
nstep = 50
disk_io = 'non'
/
&SYSTEM
ibrav = 0
ecutwfc = 50.0
ecutrho = 400
occupations = 'smearing'
smearing = 'mp'
degauss = 0.01
assume_isolated = 'esm'
esm_bc = 'bc1'
input_dft = 'BEEF-VDW'
nosym = .true.
nspin = 1
ntyp = 5
nat = 34
/
&ELECTRONS
electron_maxstep = 200
mixing_beta = 0.1
conv_thr = 1e-06
/
&IONS
ion_dynamics = 'bfgs'
upscale = 1.0
/
&CELL
/

K_POINTS {automatic}
9 6 2 0  0  0

ATOMIC_SPECIES
Ag 107.8 Ag.pbe-n-rrkjus_psl.1.0.0.UPF
C 12.01 C.pbe-n-rrkjus_psl.1.0.0.UPF
Li 6.941 Li.pbe-sl-rrkjus_psl.1.0.0.UPF
O 15.99 O.pbe-n-rrkjus_psl.1.0.0.UPF
Sn 118.7 Sn.pbe-dn-rrkjus_psl.1.0.0.UPF

CELL_PARAMETERS {angstrom}
6.65960000 0.00000000 0.00000000
0.00000000 9.41809000 0.00000000
0.00000000 0.00000000 27.06360000

ATOMIC_POSITIONS {angstrom}
Li 0.00000000 7.06356750 -1.1772665999999994 0 0 0
Li 3.32980000 0.00000000 -3.5317998000000017 0 0 0
Li 0.00000000 2.35452250 -1.1772665999999994 0 0 0
Li 3.32980000 4.70904500 -3.5317998000000017 0 0 0
Li 1.66490000 0.00000000 -1.1772665999999994 0 0 0
Li 1.66490000 4.70904500 -1.1772665999999994 0 0 0
Li 4.99470000 7.06356750 -3.5317998000000017 0 0 0
Li 4.99470000 2.35452250 -3.5317998000000017 0 0 0
Li 6.53659719 2.35452250 3.43085257
Li 3.25634461 4.70226398 1.05683358
Li 6.59826508 7.06356750 3.45331536
Li 3.25634461 0.00678102 1.05683358
Li 1.81047886 4.68050819 3.59783498
Li 1.81047886 0.02853681 3.59783498
Li 4.94448662 2.35452250 1.20027066
Li 4.89207556 7.06356750 1.27496620
Ag 1.66490000 2.35452250 -3.5317998000000017 0 0 0
Ag 1.66490000 7.06356750 -3.5317998000000017 0 0 0
Ag 4.99470000 4.70904500 -1.1772665999999994 0 0 0
Ag 4.99470000 0.00000000 -1.1772665999999994 0 0 0
Ag 1.75453822 7.06356750 1.25223277
Ag 1.73828879 2.35452250 1.27550747
Ag 4.79271433 9.36826830 3.28443850
Ag 4.79271433 4.75886670 3.28443850
Sn 0.00000000 0.00000000 -3.5317998000000017 0 0 0
Sn 3.32980000 2.35452250 -1.1772665999999994 0 0 0
Sn 3.32980000 7.06356750 -1.1772665999999994 0 0 0
Sn 0.00000000 4.70904500 -3.5317998000000017 0 0 0
Sn 0.05654000 4.70876246 1.23788906
Sn 3.24542287 7.06356750 3.78863336
Sn 3.36249864 2.35452250 3.69309886
Sn 0.05660660 0.00028254 1.23788906
C 0.03329800 2.35452250 5.50040606
O 0.04541847 2.35452250 6.64411380
