&CONTROL
calculation = 'relax'
prefix = 'scf'
pseudo_dir = '/vol0004/mdt0/data/hp150275/u10028/POT_KKJUS'
outdir = './data'
tprnfor = .true.
nstep = 50
disk_io = 'non'
/
&SYSTEM
ibrav = 0
ecutwfc = 50.0
ecutrho = 400
occupations = 'smearing'
smearing = 'mp'
degauss = 0.01
assume_isolated = 'esm'
esm_bc = 'bc1'
input_dft = 'BEEF-VDW'
nosym = .true.
nspin = 1
ntyp = 4
nat = 33
/
&ELECTRONS
electron_maxstep = 200
mixing_beta = 0.1
conv_thr = 1e-06
/
&IONS
ion_dynamics = 'bfgs'
upscale = 1.0
/
&CELL
/

K_POINTS {automatic}
8 6 1 0 0 0

ATOMIC_SPECIES
Ag 107.8 Ag.pbe-n-rrkjus_psl.1.0.0.UPF
Al 26.98 Al.pbe-nl-rrkjus_psl.1.0.0.UPF
C 12.01 C.pbe-n-rrkjus_psl.1.0.0.UPF
Li 6.941 Li.pbe-sl-rrkjus_psl.1.0.0.UPF

CELL_PARAMETERS {angstrom}
6.34834000 0.00000000 0.00000000
0.00000000 8.97791000 0.00000000
0.00000000 0.00000000 26.73340000

ATOMIC_POSITIONS {angstrom}
Li 0.00000000 6.73343250 -1.1222681299999984 0 0 0
Li 3.17417000 0.00000000 -3.3668043999999995 0 0 0
Li 0.00000000 2.24447750 -1.1222681299999984 0 0 0
Li 3.17417000 4.48895500 -3.3668043999999995 0 0 0
Li 1.58708500 0.00000000 -1.1222681299999984 0 0 0
Li 1.58708500 4.48895500 -1.1222681299999984 0 0 0
Li 4.76125500 6.73343250 -3.3668043999999995 0 0 0
Li 4.76125500 2.24447750 -3.3668043999999995 0 0 0
Li 6.18886970 2.45779264 3.41278584
Li 3.16039410 4.48895500 0.93032232
Li 6.18886970 6.52011736 3.41278584
Li 3.02409524 0.00000000 1.18081428
Li 1.77436103 4.48895500 3.32616963
Li 1.11940279 0.00000000 3.52185812
Li 4.74551112 2.22346919 1.12601081
Li 4.74551112 6.75444081 1.12601081
Al 0.00000000 0.00000000 -3.3668043999999995 0 0 0
Al 3.17417000 2.24447750 -1.1222681299999984 0 0 0
Al 3.17417000 6.73343250 -1.1222681299999984 0 0 0
Al 0.00000000 4.48895500 -3.3668043999999995 0 0 0
Al 6.29590271 4.48895500 1.16183356
Al 3.06186787 7.04739001 3.49004537
Al 3.06186787 1.93051999 3.49004537
Al 0.12658590 0.00000000 0.94716436
Ag 1.58708500 2.24447750 -3.3668043999999995 0 0 0
Ag 1.58708500 6.73343250 -3.3668043999999995 0 0 0
Ag 4.76125500 4.48895500 -1.1222681299999984 0 0 0
Ag 4.76125500 0.00000000 -1.1222681299999984 0 0 0
Ag 1.55858095 6.64993794 1.13456550
Ag 1.55858095 2.32797206 1.13456550
Ag 5.02978978 0.00000000 2.98879412
Ag 4.45659816 4.48895500 3.25131611
C 3.03088797 0.00000000 3.74695334
