&CONTROL
calculation = 'relax'
prefix = 'scf'
pseudo_dir = '/vol0004/mdt0/data/hp150275/u10028/POT_KKJUS'
outdir = './data'
tprnfor = .true.
nstep = 50
disk_io = 'non'
/
&SYSTEM
ibrav = 0
ecutwfc = 50.0
ecutrho = 400
occupations = 'smearing'
smearing = 'mp'
degauss = 0.01
assume_isolated = 'esm'
esm_bc = 'bc1'
input_dft = 'BEEF-VDW'
nosym = .true.
nspin = 1
ntyp = 4
nat = 33
/
&ELECTRONS
electron_maxstep = 200
mixing_beta = 0.1
conv_thr = 1e-06
/
&IONS
ion_dynamics = 'bfgs'
upscale = 1.0
/
&CELL
/

K_POINTS {automatic}
9 6 2 0  0  0

ATOMIC_SPECIES
C 12.01 C.pbe-n-rrkjus_psl.1.0.0.UPF
Cu 63.54 Cu.pbe-dn-rrkjus_psl.1.0.0.UPF
Ni 58.69 Ni.pbe-spn-rrkjus_psl.1.0.0.UPF
Sn 118.7 Sn.pbe-dn-rrkjus_psl.1.0.0.UPF

CELL_PARAMETERS {angstrom}
6.01864000 0.00000000 0.00000000
0.00000000 8.51164000 0.00000000
0.00000000 0.00000000 26.38370000

ATOMIC_POSITIONS {angstrom}
Cu 0.00000000 0.00000000 -3.1919000299999993 0 0 0
Cu 3.00932000 2.12791000 -1.0640546200000003 0 0 0
Cu 3.00932000 6.38373000 -1.0640546200000003 0 0 0
Cu 0.00000000 4.25582000 -3.1919000299999993 0 0 0
Cu 0.00000000 4.25590512 1.01075955
Cu 3.00925981 6.32219084 3.17686132
Cu 3.00932000 2.18944916 3.17686132
Cu 0.00000000 8.51155488 1.15560606
Ni 1.50466000 0.00000000 -1.0640546200000003 0 0 0
Ni 4.51398000 4.25582000 -1.0640546200000003 0 0 0
Ni 4.51398000 0.00000000 -1.0640546200000003 0 0 0
Ni 1.50466000 4.25582000 -1.0640546200000003 0 0 0
Ni 4.51398000 6.38373000 -3.1919000299999993 0 0 0
Ni 1.50466000 2.12791000 -3.1919000299999993 0 0 0
Ni 1.50466000 6.38373000 -3.1919000299999993 0 0 0
Ni 4.51398000 2.12791000 -3.1919000299999993 0 0 0
Ni 1.51164162 4.25582000 3.05681548
Ni 4.30844344 8.51155488 3.16947388
Ni 4.50693819 4.25590512 3.05681548
Ni 1.71019656 8.51155488 3.16947388
Ni 4.59794003 2.14059234 1.14663560
Ni 1.42082034 6.37113277 1.14663560
Ni 1.42069997 2.14059234 1.14689944
Ni 4.59781966 6.37113277 1.14689944
Sn 0.00000000 6.38373000 -1.0640546200000003 0 0 0
Sn 3.00932000 0.00000000 -3.1919000299999993 0 0 0
Sn 0.00000000 2.12791000 -1.0640546200000003 0 0 0
Sn 3.00932000 4.25582000 -3.1919000299999993 0 0 0
Sn 0.00000000 2.22553851 3.53567964
Sn 3.00932000 4.25582000 1.00759350
Sn 0.00000000 6.28610149 3.53541580
Sn 3.00932000 0.00000000 0.98411201
C 0.00000000 0.00000000 3.74490238
