&CONTROL
calculation = 'relax'
prefix = 'scf'
pseudo_dir = '/vol0403/data/hp230205/u10028/POT_HYBRID_KKJUS_GBRV'
outdir = './data'
tprnfor = .true.
nstep = 70
disk_io = 'non'
/
&SYSTEM
ibrav = 0
ecutwfc = 50.0
ecutrho = 400
occupations = 'smearing'
smearing = 'mp'
degauss = 0.01
assume_isolated = 'esm'
esm_bc = 'bc1'
input_dft = 'BEEF-VDW'
nosym = .true.
nspin = 1
ntyp = 6
nat = 18
/
&ELECTRONS
electron_maxstep = 200
mixing_beta = 0.1
conv_thr = 1e-06
/
&IONS
ion_dynamics = 'bfgs'
upscale = 1.0
/
&CELL
/

K_POINTS {automatic}
11 7 2 0  0  0

ATOMIC_SPECIES
C 12.01 C.pbe-n-rrkjus_psl.1.0.0.UPF
Ge 72.64 Ge.pbe-dn-rrkjus_psl.1.0.0.UPF
In 114.8 In.pbe-dn-rrkjus_psl.1.0.0.UPF
O 15.99 O.pbe-n-rrkjus_psl.1.0.0.UPF
Pd 106.4 Pd.pbe-n-rrkjus_psl.1.0.0.UPF
Y 88.90 Y.pbe-spn-rrkjus_psl.1.0.0.UPF


CELL_PARAMETERS {angstrom}
5.95203000 0.00000000 0.00000000
-0.00000000 9.45024000 0.00000000
0.00000000 0.00000000 24.43650000

ATOMIC_POSITIONS {angstrom}
Y 3.00464426 -0.00000000 2.21736801
Y 5.62187090 0.00000000 -0.7394484899999973 0 0 0
Y 2.99357349 4.72512000 2.17778088
Y 5.62187090 4.72512000 -0.7394484899999973 0 0 0
In 1.27444866 2.35433829 0.89290971
In 3.96881360 2.36256000 -2.218345469999999 0 0 0
In 1.27432962 7.09590171 0.89315407
In 3.96881360 7.08768000 -2.218345469999999 0 0 0
Ge 5.92988845 0.00009450 2.29800846
Ge 2.64585590 0.00000000 -0.7394484899999973 0 0 0
Ge 5.93143598 4.72502550 2.25866569
Ge 2.64585590 4.72512000 -0.7394484899999973 0 0 0
Pd 4.28933042 2.35802388 0.93225248
Pd 0.99279860 2.36256000 -2.218345469999999 0 0 0
Pd 4.28927090 7.09221612 0.93225248
Pd 0.99279860 7.08768000 -2.218345469999999 0 0 0
C 2.92244673 -0.00000000 4.76927171
O 2.90006710 -0.00000000 5.91289990
