&CONTROL
calculation = 'relax'
prefix = 'scf'
pseudo_dir = '/vol0004/mdt0/data/hp150275/u10028/POT_KKJUS'
outdir = './data'
tprnfor = .true.
nstep = 50
disk_io = 'non'
/
&SYSTEM
ibrav = 0
ecutwfc = 50.0
ecutrho = 400
occupations = 'smearing'
smearing = 'mp'
degauss = 0.01
assume_isolated = 'esm'
esm_bc = 'bc1'
input_dft = 'BEEF-VDW'
nosym = .true.
nspin = 1
ntyp = 3
nat = 18
/
&ELECTRONS
electron_maxstep = 200
mixing_beta = 0.1
conv_thr = 1e-06
/
&IONS
ion_dynamics = 'bfgs'
upscale = 1.0
/
&CELL
/

K_POINTS {automatic}
9 9 2 0  0  0

ATOMIC_SPECIES
Bi 208.9 Bi.pbe-dn-rrkjus_psl.1.0.0.UPF
C 12.01 C.pbe-n-rrkjus_psl.1.0.0.UPF
O 15.99 O.pbe-n-rrkjus_psl.1.0.0.UPF

CELL_PARAMETERS {angstrom}
8.07272000 0.00000000 0.00000000
0.00000000 8.07272000 0.00000000
0.00000000 0.00000000 26.05450000

ATOMIC_POSITIONS {angstrom}
Bi 0.00000000 0.00000000 -3.0272723600000013 0 0 0
Bi 2.01818000 2.01818000 -1.009090790000002 0 0 0
Bi 7.98916735 8.00410188 1.37671978
Bi 1.99242802 2.00800837 2.84567249
Bi 0.00000000 4.03636000 -3.0272723600000013 0 0 0
Bi 2.01818000 6.05454000 -1.009090790000002 0 0 0
Bi 7.98787571 4.09529086 1.38114905
Bi 2.00736256 6.05195673 2.99470423
Bi 4.03636000 0.00000000 -3.0272723600000013 0 0 0
Bi 6.05454000 2.01818000 -1.009090790000002 0 0 0
Bi 4.08415050 8.00305243 1.39365521
Bi 6.04864691 2.01374000 2.99730968
Bi 4.03636000 4.03636000 -3.0272723600000013 0 0 0
Bi 6.05454000 6.05454000 -1.009090790000002 0 0 0
Bi 4.08108287 4.09109304 1.39912665
Bi 6.04122001 6.04816255 3.13253254
C 2.52958681 2.23872671 6.83487699
O 1.73184062 1.92655463 7.57847242
