&CONTROL
calculation = 'relax'
prefix = 'scf'
pseudo_dir = '/vol0004/mdt0/data/hp150275/u10028/POT_HYBRID_KKJUS_GBRV'
outdir = './data'
tprnfor = .true.
nstep = 50
disk_io = 'non'
/
&SYSTEM
ibrav = 0
ecutwfc = 50.0
ecutrho = 400
occupations = 'smearing'
smearing = 'mp'
degauss = 0.01
assume_isolated = 'esm'
esm_bc = 'bc1'
input_dft = 'BEEF-VDW'
nosym = .true.
nspin = 2
ntyp = 3
nat = 16
starting_magnetization(1) = 0.1
starting_magnetization(2) = 0.1
starting_magnetization(3) = 0.1
/
&ELECTRONS
electron_maxstep = 200
mixing_beta = 0.1
conv_thr = 1e-06
/
&IONS
ion_dynamics = 'bfgs'
upscale = 1.0
/
&CELL
/

K_POINTS {automatic}
8 8 1 0 0 0

ATOMIC_SPECIES
Al 26.98 Al.pbe-nl-rrkjus_psl.1.0.0.UPF
Co 58.93 co_pbe_v1.2.uspp.F.UPF
V 50.94 V.pbe-spnl-rrkjus_psl.1.0.0.UPF

CELL_PARAMETERS {angstrom}
5.76795000 0.00000000 0.00000000
-0.00000000 5.76795000 0.00000000
0.00000000 0.00000000 24.32600000

ATOMIC_POSITIONS {angstrom}
Al 0.00000000 0.00000000 -2.1630679199999996 0 0 0
Al 2.88397500 2.88397500 -2.1630679199999996 0 0 0
Al 2.88397500 -0.00000000 0.72102264
Al 0.00000000 2.88397500 0.72102264
V 0.00000000 0.00000000 0.72102264
V 2.88397500 0.00000000 -2.1630679199999996 0 0 0
V 0.00000000 2.88397500 -2.1630679199999996 0 0 0
V 2.88397500 2.88397500 0.72102264
Co 1.44198750 1.44198750 -0.721022640000001 0 0 0
Co 4.32596250 4.32596250 2.16306792
Co 4.32596250 1.44198750 -0.721022640000001 0 0 0
Co 1.44198750 4.32596250 2.16306792
Co 4.32596250 4.32596250 -0.721022640000001 0 0 0
Co 1.44198750 1.44198750 2.16306792
Co 1.44198750 4.32596250 -0.721022640000001 0 0 0
Co 4.32596250 1.44198750 2.16306792
