&CONTROL
calculation = 'relax'
prefix = 'scf'
pseudo_dir = '/vol0403/data/hp230205/u10028/POT_HYBRID_KKJUS_GBRV'
outdir = './data'
tprnfor = .true.
nstep = 50
disk_io = 'non'
/
&SYSTEM
ibrav = 0
ecutwfc = 50.0
ecutrho = 400
occupations = 'smearing'
smearing = 'mp'
degauss = 0.01
assume_isolated = 'esm'
esm_bc = 'bc1'
input_dft = 'BEEF-VDW'
nosym = .true.
nspin = 1
ntyp = 4
nat = 32
/
&ELECTRONS
electron_maxstep = 200
mixing_beta = 0.1
conv_thr = 1e-06
/
&IONS
ion_dynamics = 'bfgs'
upscale = 1.0
/
&CELL
/

K_POINTS {automatic}
6 6 1 0 0 0

ATOMIC_SPECIES
Au 196.9 Au.pbe-n-rrkjus_psl.1.0.0.UPF
Ge 72.64 Ge.pbe-dn-rrkjus_psl.1.0.0.UPF
Li 6.941 Li.pbe-sl-rrkjus_psl.1.0.0.UPF
Pd 106.4 Pd.pbe-n-rrkjus_psl.1.0.0.UPF


CELL_PARAMETERS {angstrom}
6.30991000 0.00000000 0.00000000
0.00000000 8.92356000 0.00000000
0.00000000 0.00000000 26.69270000

ATOMIC_POSITIONS {angstrom}
Li 1.57747750 0.00000000 -1.115487929999997 0 0 0
Li 1.57747750 4.46178000 -1.115487929999997 0 0 0
Li 4.73243250 2.23089000 -3.3464637999999987 0 0 0
Li 4.73243250 6.69267000 -3.3464637999999987 0 0 0
Li 1.56466838 4.46178000 3.52503796
Li 1.56473148 0.00000000 3.52503796
Li 4.71501715 6.69267000 1.03701139
Li 4.71501715 2.23089000 1.03701139
Ge 4.73243250 0.00000000 -1.115487929999997 0 0 0
Ge 4.73243250 4.46178000 -1.115487929999997 0 0 0
Ge 1.57747750 2.23089000 -3.3464637999999987 0 0 0
Ge 1.57747750 6.69267000 -3.3464637999999987 0 0 0
Ge 4.79471131 4.46178000 3.47352105
Ge 4.79477441 0.00000000 3.47325412
Ge 1.59924669 6.69267000 1.16380172
Ge 1.59924669 2.23089000 1.16380172
Pd 0.00000000 2.23089000 -1.115487929999997 0 0 0
Pd 0.00000000 6.69267000 -1.115487929999997 0 0 0
Pd 3.15495500 4.46178000 -3.3464637999999987 0 0 0
Pd 3.15495500 0.00000000 -3.3464637999999987 0 0 0
Pd 6.21873180 6.69267000 3.15027245
Pd 6.21873180 2.23089000 3.15027245
Pd 3.14725691 0.00000000 1.18755822
Pd 3.14732001 4.46178000 1.18755822
Au 0.00000000 0.00000000 -3.3464637999999987 0 0 0
Au 0.00000000 4.46178000 -3.3464637999999987 0 0 0
Au 3.15495500 6.69267000 -1.115487929999997 0 0 0
Au 3.15495500 2.23089000 -1.115487929999997 0 0 0
Au 6.27671987 4.46178000 1.16513636
Au 6.27678297 0.00000000 1.16513636
Au 3.26512603 2.23097924 3.30215392
Au 3.26512603 6.69267000 3.30215392
