&CONTROL
calculation = 'relax'
prefix = 'scf'
pseudo_dir = '/vol0403/data/hp230205/u10028/POT_HYBRID_KKJUS_GBRV'
outdir = './data'
tprnfor = .true.
nstep = 50
disk_io = 'non'
/
&SYSTEM
ibrav = 0
ecutwfc = 50.0
ecutrho = 400
occupations = 'smearing'
smearing = 'mp'
degauss = 0.01
assume_isolated = 'esm'
esm_bc = 'bc1'
input_dft = 'BEEF-VDW'
nosym = .true.
nspin = 1
ntyp = 6
nat = 34
/
&ELECTRONS
electron_maxstep = 200
mixing_beta = 0.1
conv_thr = 1e-06
/
&IONS
ion_dynamics = 'bfgs'
upscale = 1.0
/
&CELL
/

K_POINTS {automatic}
6 6 1 0 0 0

ATOMIC_SPECIES
C 12.01 C.pbe-n-rrkjus_psl.1.0.0.UPF
Cu 63.54 Cu.pbe-dn-rrkjus_psl.1.0.0.UPF
In 114.8 In.pbe-dn-rrkjus_psl.1.0.0.UPF
Li 6.941 Li.pbe-sl-rrkjus_psl.1.0.0.UPF
O 15.99 O.pbe-n-rrkjus_psl.1.0.0.UPF
Pd 106.4 Pd.pbe-n-rrkjus_psl.1.0.0.UPF


CELL_PARAMETERS {angstrom}
6.33486000 0.00000000 0.00000000
0.00000000 8.95884000 0.00000000
0.00000000 0.00000000 26.71910000

ATOMIC_POSITIONS {angstrom}
Li 1.58371500 0.00000000 -1.1197974800000026 0 0 0
Li 1.58371500 4.47942000 -1.1197974800000026 0 0 0
Li 4.75114500 2.23971000 -3.3596596299999995 0 0 0
Li 4.75114500 6.71913000 -3.3596596299999995 0 0 0
Li 1.53113566 4.55153866 3.43474031
Li 1.53113566 8.88672134 3.43474031
Li 4.74151601 6.71913000 0.95440625
Li 4.81024924 2.23979959 1.07597816
In 4.75114500 0.00000000 -1.1197974800000026 0 0 0
In 4.75114500 4.47942000 -1.1197974800000026 0 0 0
In 1.58371500 2.23971000 -3.3596596299999995 0 0 0
In 1.58371500 6.71913000 -3.3596596299999995 0 0 0
In 4.67740723 4.46445874 3.64074457
In 4.67740723 0.01496126 3.64101176
In 1.58574216 6.71913000 1.10349883
In 1.51814920 2.23971000 1.12594287
Cu 0.00000000 0.00000000 -3.3596596299999995 0 0 0
Cu 0.00000000 4.47942000 -3.3596596299999995 0 0 0
Cu 3.16743000 6.71913000 -1.1197974800000026 0 0 0
Cu 3.16743000 2.23971000 -1.1197974800000026 0 0 0
Cu 6.24566517 4.48757254 1.25072107
Cu 6.24566517 8.95068746 1.25072107
Cu 3.31135802 2.23971000 3.09166706
Cu 3.33574723 6.71913000 3.10422504
Pd 0.00000000 2.23971000 -1.1197974800000026 0 0 0
Pd 0.00000000 6.71913000 -1.1197974800000026 0 0 0
Pd 3.16743000 4.47942000 -3.3596596299999995 0 0 0
Pd 3.16743000 0.00000000 -3.3596596299999995 0 0 0
Pd 6.10832541 6.71913000 3.11250796
Pd 0.00677830 2.23971000 3.49913334
Pd 3.20391879 0.02723487 1.19915321
Pd 3.20385545 4.45227471 1.19915321
C 0.74909720 2.23971000 5.30881798
O 1.03365911 2.23971000 6.42834827
