&CONTROL
calculation = 'relax'
prefix = 'scf'
pseudo_dir = '/vol0403/data/hp230205/u10028/POT_HYBRID_KKJUS_GBRV'
outdir = './data'
tprnfor = .true.
nstep = 50
disk_io = 'non'
/
&SYSTEM
ibrav = 0
ecutwfc = 50.0
ecutrho = 400
occupations = 'smearing'
smearing = 'mp'
degauss = 0.01
assume_isolated = 'esm'
esm_bc = 'bc1'
input_dft = 'BEEF-VDW'
nosym = .true.
nspin = 1
ntyp = 6
nat = 34
/
&ELECTRONS
electron_maxstep = 200
mixing_beta = 0.1
conv_thr = 1e-06
/
&IONS
ion_dynamics = 'bfgs'
upscale = 1.0
/
&CELL
/

K_POINTS {automatic}
9 6 2 0  0  0

ATOMIC_SPECIES
C 12.01 C.pbe-n-rrkjus_psl.1.0.0.UPF
Cu 63.54 Cu.pbe-dn-rrkjus_psl.1.0.0.UPF
In 114.8 In.pbe-dn-rrkjus_psl.1.0.0.UPF
Li 6.941 Li.pbe-sl-rrkjus_psl.1.0.0.UPF
O 15.99 O.pbe-n-rrkjus_psl.1.0.0.UPF
Pd 106.4 Pd.pbe-n-rrkjus_psl.1.0.0.UPF


CELL_PARAMETERS {angstrom}
6.33486000 0.00000000 0.00000000
0.00000000 8.95884000 0.00000000
0.00000000 0.00000000 26.71910000

ATOMIC_POSITIONS {angstrom}
Li 1.58371500 0.00000000 -1.1197974800000026 0 0 0
Li 1.58371500 4.47942000 -1.1197974800000026 0 0 0
Li 4.75114500 2.23971000 -3.3596596299999995 0 0 0
Li 4.75114500 6.71913000 -3.3596596299999995 0 0 0
Li 1.53119901 4.55180743 3.43393873
Li 1.53119901 8.88645257 3.43393873
Li 4.74170606 6.71913000 0.95547502
Li 4.81043929 2.23979959 1.07490939
In 4.75114500 0.00000000 -1.1197974800000026 0 0 0
In 4.75114500 4.47942000 -1.1197974800000026 0 0 0
In 1.58371500 2.23971000 -3.3596596299999995 0 0 0
In 1.58371500 6.71913000 -3.3596596299999995 0 0 0
In 4.67804072 4.46490668 3.64021018
In 4.67804072 0.01451332 3.64047738
In 1.58447518 6.71913000 1.10483478
In 1.51694558 2.23971000 1.12621006
Cu 0.00000000 0.00000000 -3.3596596299999995 0 0 0
Cu 0.00000000 4.47942000 -3.3596596299999995 0 0 0
Cu 3.16743000 6.71913000 -1.1197974800000026 0 0 0
Cu 3.16743000 2.23971000 -1.1197974800000026 0 0 0
Cu 6.24737558 4.48676625 1.24965231
Cu 6.24737558 8.95149375 1.24965231
Cu 3.31325848 2.23971000 3.09086549
Cu 3.33650741 6.71913000 3.10342347
Pd 0.00000000 2.23971000 -1.1197974800000026 0 0 0
Pd 0.00000000 6.71913000 -1.1197974800000026 0 0 0
Pd 3.16743000 4.47942000 -3.3596596299999995 0 0 0
Pd 3.16743000 0.00000000 -3.3596596299999995 0 0 0
Pd 6.10819871 6.71913000 3.11357672
Pd 0.00684165 2.23971000 3.49913334
Pd 3.20277852 0.02687652 1.19888602
Pd 3.20271517 4.45263307 1.19888602
C 0.75042752 2.23971000 5.30881798
O 1.03505278 2.23971000 6.42781389
