&CONTROL
calculation = 'relax'
prefix = 'scf'
pseudo_dir = '/vol0004/mdt0/data/hp150275/u10028/POT_KKJUS'
outdir = './data'
tprnfor = .true.
nstep = 50
disk_io = 'non'
/
&SYSTEM
ibrav = 0
ecutwfc = 50.0
ecutrho = 400
occupations = 'smearing'
smearing = 'mp'
degauss = 0.01
assume_isolated = 'esm'
esm_bc = 'bc1'
input_dft = 'BEEF-VDW'
nosym = .true.
nspin = 1
ntyp = 3
nat = 32
/
&ELECTRONS
electron_maxstep = 200
mixing_beta = 0.1
conv_thr = 1e-06
/
&IONS
ion_dynamics = 'bfgs'
upscale = 1.0
/
&CELL
/

K_POINTS {automatic}
8 6 1 0 0 0

ATOMIC_SPECIES
Ge 72.64 Ge.pbe-dn-rrkjus_psl.1.0.0.UPF
Li 6.941 Li.pbe-sl-rrkjus_psl.1.0.0.UPF
Zn 65.40 Zn.pbe-dnl-rrkjus_psl.1.0.0.UPF

CELL_PARAMETERS {angstrom}
6.18893000 0.00000000 0.00000000
0.00000000 8.75246000 0.00000000
0.00000000 0.00000000 26.56430000

ATOMIC_POSITIONS {angstrom}
Li 0.00000000 0.00000000 -3.282284909999998 0 0 0
Li 3.09446500 2.18811500 -1.0941835199999979 0 0 0
Li 3.09446500 6.56434500 -1.0941835199999979 0 0 0
Li 0.00000000 4.37623000 -3.282284909999998 0 0 0
Li 1.54723250 2.18811500 -3.282284909999998 0 0 0
Li 1.54723250 6.56434500 -3.282284909999998 0 0 0
Li 4.64169750 4.37623000 -1.0941835199999979 0 0 0
Li 4.64169750 0.00000000 -1.0941835199999979 0 0 0
Li 6.09250647 4.37614248 1.11304417
Li 3.01629881 6.56434500 3.32930372
Li 3.01636070 2.18811500 3.32956936
Li 6.09244458 8.75237248 1.11304417
Li 1.53405008 6.56425748 1.09391787
Li 1.53411197 2.18793995 1.09391787
Li 4.84376606 0.00000000 3.68553098
Li 4.84358040 4.37623000 3.68526534
Zn 1.54723250 0.00000000 -1.0941835199999979 0 0 0
Zn 1.54723250 4.37623000 -1.0941835199999979 0 0 0
Zn 4.64169750 6.56434500 -3.282284909999998 0 0 0
Zn 4.64169750 2.18811500 -3.282284909999998 0 0 0
Zn 1.40228776 4.37623000 3.20126379
Zn 1.40216398 0.00008752 3.20126379
Zn 4.65246624 2.18802748 1.14917162
Zn 4.65246624 6.56416995 1.14917162
Ge 0.00000000 6.56434500 -1.0941835199999979 0 0 0
Ge 3.09446500 0.00000000 -3.282284909999998 0 0 0
Ge 0.00000000 2.18811500 -1.0941835199999979 0 0 0
Ge 3.09446500 4.37623000 -3.282284909999998 0 0 0
Ge 0.02704562 2.18811500 3.33833558
Ge 3.16093411 4.37614248 1.24692824
Ge 0.02698373 6.56434500 3.33806994
Ge 3.16105789 8.75228495 1.24692824
