&CONTROL
calculation = 'relax'
prefix = 'scf'
pseudo_dir = '/vol0004/mdt0/data/hp150275/u10028/POT_HYBRID_KKJUS_GBRV'
outdir = './data'
tprnfor = .true.
nstep = 50
disk_io = 'non'
/
&SYSTEM
ibrav = 0
ecutwfc = 50.0
ecutrho = 400
occupations = 'smearing'
smearing = 'mp'
degauss = 0.01
assume_isolated = 'esm'
esm_bc = 'bc1'
input_dft = 'BEEF-VDW'
nosym = .true.
nspin = 2
ntyp = 4
nat = 33
starting_magnetization(1) = 0.0
starting_magnetization(2) = 0.1
starting_magnetization(3) = 0.1
starting_magnetization(4) = 0.0
/
&ELECTRONS
electron_maxstep = 300
mixing_beta = 0.1
conv_thr = 1e-06
/
&IONS
ion_dynamics = 'bfgs'
upscale = 1.0
/
&CELL
/

K_POINTS {automatic}
8 6 1 0 0 0

ATOMIC_SPECIES
C 12.01 C.pbe-n-rrkjus_psl.1.0.0.UPF
Co 58.93 co_pbe_v1.2.uspp.F.UPF
Fe 55.84 fe_pbe_v1.5.uspp.F.UPF
Ge 72.64 Ge.pbe-dn-rrkjus_psl.1.0.0.UPF

CELL_PARAMETERS {angstrom}
5.76795000 0.00000000 0.00000000
0.00000000 8.15711000 0.00000000
0.00000000 0.00000000 26.11780000

ATOMIC_POSITIONS {angstrom}
Fe 0.00000000 0.00000000 -3.0589167399999972 0 0 0
Fe 2.88397500 2.03927750 -1.0196389099999976 0 0 0
Fe 2.88397500 6.11783250 -1.0196389099999976 0 0 0
Fe 0.00000000 4.07855500 -3.0589167399999972 0 0 0
Fe 5.74257102 4.10033448 1.00422941
Fe 2.84088841 6.11766936 3.02679184
Fe 3.10079224 2.03944064 3.00145758
Fe 5.74262870 8.13541209 1.00422941
Co 1.44198750 0.00000000 -1.0196389099999976 0 0 0
Co 4.32596250 4.07855500 -1.0196389099999976 0 0 0
Co 4.32596250 0.00000000 -1.0196389099999976 0 0 0
Co 1.44198750 4.07855500 -1.0196389099999976 0 0 0
Co 4.32596250 6.11783250 -3.0589167399999972 0 0 0
Co 1.44198750 2.03927750 -3.0589167399999972 0 0 0
Co 1.44198750 6.11783250 -3.0589167399999972 0 0 0
Co 4.32596250 2.03927750 -3.0589167399999972 0 0 0
Co 1.35869830 3.96745516 2.92023122
Co 4.34320867 8.10629120 2.94843844
Co 4.34338171 4.12929222 2.94843844
Co 1.35852526 0.11142612 2.91997004
Co 4.37960444 2.03927750 1.00370705
Co 1.43408541 6.11783250 1.01833302
Co 1.41049449 2.03935907 1.07814278
Co 4.32123278 6.11783250 1.02225069
Ge 0.00000000 6.11783250 -1.0196389099999976 0 0 0
Ge 2.88397500 0.00000000 -3.0589167399999972 0 0 0
Ge 0.00000000 2.03927750 -1.0196389099999976 0 0 0
Ge 2.88397500 4.07855500 -3.0589167399999972 0 0 0
Ge 5.28903711 2.03935907 3.88110508
Ge 2.88022583 4.07398702 1.01284828
Ge 0.04735487 6.11758779 3.20256464
Ge 2.88016815 0.00464955 1.01258711
C 1.30055737 2.03944064 3.14040427
