&CONTROL
calculation = 'relax'
prefix = 'scf'
pseudo_dir = '/vol0004/mdt0/data/hp150275/u10028/POT_HYBRID_KKJUS_GBRV'
outdir = './data'
tprnfor = .true.
nstep = 50
disk_io = 'non'
/
&SYSTEM
ibrav = 0
ecutwfc = 50.0
ecutrho = 400
occupations = 'smearing'
smearing = 'mp'
degauss = 0.01
assume_isolated = 'esm'
esm_bc = 'bc1'
input_dft = 'BEEF-VDW'
nosym = .true.
nspin = 2
ntyp = 2
nat = 32
starting_magnetization(1) = 0.1
starting_magnetization(2) = 0.1
/
&ELECTRONS
electron_maxstep = 200
mixing_beta = 0.1
conv_thr = 1e-06
/
&IONS
ion_dynamics = 'bfgs'
upscale = 1.0
/
&CELL
/

K_POINTS {automatic}
8 6 1 0 0 0

ATOMIC_SPECIES
Al 26.98 Al.pbe-nl-rrkjus_psl.1.0.0.UPF
Fe 55.84 fe_pbe_v1.5.uspp.F.UPF

CELL_PARAMETERS {angstrom}
5.75078000 0.00000000 0.00000000
0.00000000 8.13283000 0.00000000
0.00000000 0.00000000 26.09960000

ATOMIC_POSITIONS {angstrom}
Al 0.00000000 0.00000000 -3.049738259999998 0 0 0
Al 0.00000000 2.03320750 -1.0165794199999993 0 0 0
Al 0.00005751 4.06649633 0.91557397
Al 0.00005751 2.03320750 3.42452852
Al 0.00000000 4.06641500 -3.049738259999998 0 0 0
Al 0.00000000 6.09962250 -1.0165794199999993 0 0 0
Al 0.00005751 8.13266734 0.91557397
Al 0.00000000 6.09970383 3.42400652
Al 2.87539000 0.00000000 -3.049738259999998 0 0 0
Al 2.87539000 2.03320750 -1.0165794199999993 0 0 0
Al 2.87533249 4.06649633 0.91557397
Al 2.87533249 2.03320750 3.42452852
Al 2.87539000 4.06641500 -3.049738259999998 0 0 0
Al 2.87539000 6.09962250 -1.0165794199999993 0 0 0
Al 2.87533249 8.13266734 0.91557397
Al 2.87539000 6.09970383 3.42400652
Fe 1.43769500 2.03320750 -3.049738259999998 0 0 0
Fe 1.43769500 0.00000000 -1.0165794199999993 0 0 0
Fe 1.43769500 2.03304484 1.23738204
Fe 1.43769500 0.00065063 2.98553324
Fe 1.43769500 6.09962250 -3.049738259999998 0 0 0
Fe 1.43769500 4.06641500 -1.0165794199999993 0 0 0
Fe 1.43769500 6.09978516 1.23686004
Fe 1.43769500 4.06584570 2.98553324
Fe 4.31308500 2.03320750 -3.049738259999998 0 0 0
Fe 4.31308500 0.00000000 -1.0165794199999993 0 0 0
Fe 4.31308500 2.03304484 1.23738204
Fe 4.31308500 0.00073195 2.98527225
Fe 4.31308500 6.09962250 -3.049738259999998 0 0 0
Fe 4.31308500 4.06641500 -1.0165794199999993 0 0 0
Fe 4.31308500 6.09978516 1.23712104
Fe 4.31308500 4.06576437 2.98553324
