&CONTROL
calculation = 'relax'
prefix = 'scf'
pseudo_dir = '/vol0004/mdt0/data/hp150275/u10028/POT_HYBRID_KKJUS_GBRV'
outdir = './data'
tprnfor = .true.
nstep = 50
disk_io = 'non'
/
&SYSTEM
ibrav = 0
ecutwfc = 50.0
ecutrho = 400
occupations = 'smearing'
smearing = 'mp'
degauss = 0.01
assume_isolated = 'esm'
esm_bc = 'bc1'
input_dft = 'BEEF-VDW'
nosym = .true.
nspin = 2
ntyp = 3
nat = 32
starting_magnetization(1) = 0.0
starting_magnetization(2) = 0.001
starting_magnetization(3) = 0.0
/
&ELECTRONS
electron_maxstep = 300
mixing_beta = 0.1
conv_thr = 1e-06
/
&IONS
ion_dynamics = 'bfgs'
upscale = 1.0
/
&CELL
/

K_POINTS {automatic}
8 6 1 0 0 0

ATOMIC_SPECIES
Ga 69.72 Ga.pbe-dnl-rrkjus_psl.1.0.0.UPF
Ni 58.69 ni_pbe_v1.4.uspp.F.UPF
Ta 180.9 Ta.pbe-spn-rrkjus_psl.1.0.0.UPF

CELL_PARAMETERS {angstrom}
5.98793000 0.00000000 0.00000000
0.00000000 8.46821000 0.00000000
0.00000000 0.00000000 26.35120000

ATOMIC_POSITIONS {angstrom}
Ta 0.00000000 0.00000000 -3.175583109999998 0 0 0
Ta 2.99396500 2.11705250 -1.058527699999999 0 0 0
Ta 2.99396500 6.35115750 -1.058527699999999 0 0 0
Ta 0.00000000 4.23410500 -3.175583109999998 0 0 0
Ta 0.00000000 4.23402032 1.06933170
Ta 2.99396500 6.35107282 3.17083990
Ta 2.99396500 2.11713718 3.17110341
Ta 0.00000000 0.00008468 1.06933170
Ga 0.00000000 6.35115750 -1.058527699999999 0 0 0
Ga 2.99396500 0.00000000 -3.175583109999998 0 0 0
Ga 0.00000000 2.11705250 -1.058527699999999 0 0 0
Ga 2.99396500 4.23410500 -3.175583109999998 0 0 0
Ga 0.00000000 2.11688314 3.23750843
Ga 2.99396500 4.23410500 1.02848734
Ga 0.00000000 6.35132686 3.23777194
Ga 2.99396500 0.00000000 1.02875085
Ni 1.49698250 0.00000000 -1.058527699999999 0 0 0
Ni 4.49094750 4.23410500 -1.058527699999999 0 0 0
Ni 4.49094750 0.00000000 -1.058527699999999 0 0 0
Ni 1.49698250 4.23410500 -1.058527699999999 0 0 0
Ni 4.49094750 6.35115750 -3.175583109999998 0 0 0
Ni 1.49698250 2.11705250 -3.175583109999998 0 0 0
Ni 1.49698250 6.35115750 -3.175583109999998 0 0 0
Ni 4.49094750 2.11705250 -3.175583109999998 0 0 0
Ni 1.53985608 4.23427436 3.08730659
Ni 4.44795416 8.46804064 3.08730659
Ni 4.44807392 4.23427436 3.08730659
Ni 1.53997584 8.46804064 3.08730659
Ni 4.45963063 2.11696782 1.12572326
Ni 1.52847901 6.35124218 1.12545975
Ni 1.52829937 2.11696782 1.12572326
Ni 4.45945099 6.35124218 1.12545975
