&CONTROL
calculation = 'relax'
prefix = 'scf'
pseudo_dir = '/vol0004/mdt0/data/hp150275/u10028/POT_HYBRID_KKJUS_GBRV'
outdir = './data'
tprnfor = .true.
nstep = 50
disk_io = 'non'
/
&SYSTEM
ibrav = 0
ecutwfc = 50.0
ecutrho = 400
occupations = 'smearing'
smearing = 'mp'
degauss = 0.01
assume_isolated = 'esm'
esm_bc = 'bc1'
input_dft = 'BEEF-VDW'
nosym = .true.
nspin = 2
ntyp = 4
nat = 33
starting_magnetization(1) = 0.0
starting_magnetization(2) = 0.001
starting_magnetization(3) = 0.0
starting_magnetization(4) = 0.0
/
&ELECTRONS
electron_maxstep = 200
mixing_beta = 0.1
conv_thr = 1e-06
/
&IONS
ion_dynamics = 'bfgs'
upscale = 1.0
/
&CELL
/

K_POINTS {automatic}
9 6 2 0  0  0

ATOMIC_SPECIES
C 12.01 C.pbe-n-rrkjus_psl.1.0.0.UPF
Ni 58.69 ni_pbe_v1.4.uspp.F.UPF
Sn 118.7 Sn.pbe-dn-rrkjus_psl.1.0.0.UPF
V 50.94 V.pbe-spnl-rrkjus_psl.1.0.0.UPF

CELL_PARAMETERS {angstrom}
6.09179000 0.00000000 0.00000000
0.00000000 8.61509000 0.00000000
0.00000000 0.00000000 26.46130000

ATOMIC_POSITIONS {angstrom}
V 0.00000000 0.00000000 23.23063988
V 3.04589500 2.15377250 25.38432509
V 3.04589500 6.46131750 25.38432509
V 0.00000000 4.30754500 23.23063988
V 0.00000000 4.31667700 1.10475928
V 3.04583408 6.66790736 3.15894999
V 3.04595592 1.95665924 3.15683309
V 6.09172908 8.60380423 1.02458154
Ni 1.52294750 0.00000000 25.38432509
Ni 4.56884250 4.30754500 25.38432509
Ni 4.56884250 0.00000000 25.38432509
Ni 1.52294750 4.30754500 25.38432509
Ni 4.56884250 6.46131750 23.23063988
Ni 1.52294750 2.15377250 23.23063988
Ni 1.52294750 6.46131750 23.23063988
Ni 4.56884250 2.15377250 23.23063988
Ni 1.68980163 4.30806191 3.10840891
Ni 4.82609879 0.00439370 3.05654476
Ni 4.40204929 4.30771730 3.10814430
Ni 1.26569121 0.00447985 3.05654476
Ni 4.64395427 2.17462102 1.20478299
Ni 1.46592835 6.43555838 1.20081379
Ni 1.44771389 2.17453487 1.20451838
Ni 4.62567890 6.43538608 1.20081379
Sn 0.00000000 6.46131750 25.38432509
Sn 3.04589500 0.00000000 23.23063988
Sn 0.00000000 2.15377250 25.38432509
Sn 3.04589500 4.30754500 23.23063988
Sn 0.00006092 2.29755835 3.53258355
Sn 3.04583408 4.29798225 0.98938801
Sn 0.00000000 6.32270070 3.53814042
Sn 3.04589500 0.00620286 0.98224346
C 3.04589500 0.00310143 3.67282844
