&CONTROL
calculation = 'relax'
prefix = 'scf'
pseudo_dir = '/vol0004/mdt0/data/hp150275/u10028/POT_KKJUS'
outdir = './data'
tprnfor = .true.
nstep = 50
disk_io = 'non'
/
&SYSTEM
ibrav = 0
ecutwfc = 50.0
ecutrho = 400
occupations = 'smearing'
smearing = 'mp'
degauss = 0.01
assume_isolated = 'esm'
esm_bc = 'bc1'
input_dft = 'BEEF-VDW'
nosym = .true.
nspin = 1
ntyp = 5
nat = 34
/
&ELECTRONS
electron_maxstep = 200
mixing_beta = 0.1
conv_thr = 1e-06
/
&IONS
ion_dynamics = 'bfgs'
upscale = 1.0
/
&CELL
/

K_POINTS {automatic}
9 6 2 0  0  0

ATOMIC_SPECIES
C 12.01 C.pbe-n-rrkjus_psl.1.0.0.UPF
In 114.8 In.pbe-dn-rrkjus_psl.1.0.0.UPF
Ir 192.2 Ir.pbe-n-rrkjus_psl.0.2.3.UPF
Li 6.941 Li.pbe-sl-rrkjus_psl.1.0.0.UPF
O 15.99 O.pbe-n-rrkjus_psl.1.0.0.UPF

CELL_PARAMETERS {angstrom}
6.57920000 0.00000000 0.00000000
0.00000000 9.30439000 0.00000000
0.00000000 0.00000000 26.97830000

ATOMIC_POSITIONS {angstrom}
Li 0.00000000 0.00000000 -3.489103540000002 0 0 0
Li 3.28960000 2.32609750 -1.1630345099999992 0 0 0
Li 3.28960000 6.97829250 -1.1630345099999992 0 0 0
Li 0.00000000 4.65219500 -3.489103540000002 0 0 0
Li 0.00006579 4.63665667 1.17598410
Li 3.28960000 6.97829250 3.61131524
Li 3.28966579 2.32600446 3.83604448
Li 0.00000000 0.01544529 1.17625388
In 1.64480000 0.00000000 -1.1630345099999992 0 0 0
In 4.93440000 4.65219500 -1.1630345099999992 0 0 0
In 4.93440000 0.00000000 -1.1630345099999992 0 0 0
In 1.64480000 4.65219500 -1.1630345099999992 0 0 0
In 4.93440000 6.97829250 -3.489103540000002 0 0 0
In 1.64480000 2.32609750 -3.489103540000002 0 0 0
In 1.64480000 6.97829250 -3.489103540000002 0 0 0
In 4.93440000 2.32609750 -3.489103540000002 0 0 0
In 1.56907341 4.65991764 3.62048786
In 5.01045555 9.29657431 3.62048786
In 5.01012659 4.66010373 3.62021808
In 1.56874445 9.29676040 3.62048786
In 4.88808243 2.32600446 1.16923952
In 1.66440602 6.97829250 1.15817842
In 1.69111757 2.32591141 1.16923952
In 4.91485978 6.97829250 1.15817842
Ir 0.00000000 6.97829250 -1.1630345099999992 0 0 0
Ir 3.28960000 0.00000000 -3.489103540000002 0 0 0
Ir 0.00000000 2.32609750 -1.1630345099999992 0 0 0
Ir 3.28960000 4.65219500 -3.489103540000002 0 0 0
Ir 0.00006579 2.32581837 3.28487781
Ir 3.28973158 4.66429071 1.11150596
Ir 6.57893683 6.97847859 3.31131654
Ir 3.28960000 9.29257342 1.11150596
C 3.28973158 2.32609750 5.95141298
O 3.28966579 2.32609750 7.09313464
