&CONTROL
calculation = 'relax'
prefix = 'scf'
pseudo_dir = '/vol0004/mdt0/data/hp150275/u10028/POT_KKJUS'
outdir = './data'
tprnfor = .true.
nstep = 50
disk_io = 'non'
/
&SYSTEM
ibrav = 0
ecutwfc = 50.0
ecutrho = 400
occupations = 'smearing'
smearing = 'mp'
degauss = 0.01
assume_isolated = 'esm'
esm_bc = 'bc1'
input_dft = 'BEEF-VDW'
nosym = .true.
nspin = 1
ntyp = 2
nat = 32
/
&ELECTRONS
electron_maxstep = 200
mixing_beta = 0.1
conv_thr = 1e-06
/
&IONS
ion_dynamics = 'bfgs'
upscale = 1.0
/
&CELL
/

K_POINTS {automatic}
8 6 1 0 0 0

ATOMIC_SPECIES
Ag 107.8 Ag.pbe-n-rrkjus_psl.1.0.0.UPF
Ga 69.72 Ga.pbe-dnl-rrkjus_psl.1.0.0.UPF

CELL_PARAMETERS {angstrom}
6.70510000 0.00000000 0.00000000
0.00000000 9.48244000 0.00000000
0.00000000 0.00000000 27.11180000

ATOMIC_POSITIONS {angstrom}
Ga 1.67627500 2.37061000 -3.555983689999998 0 0 0
Ga 1.67627500 0.00000000 -1.1853278999999972 0 0 0
Ga 1.67902409 2.37061000 1.21081299
Ga 1.68049921 0.00000000 3.69750728
Ga 1.67627500 7.11183000 -3.555983689999998 0 0 0
Ga 1.67627500 4.74122000 -1.1853278999999972 0 0 0
Ga 1.67902409 7.11183000 1.21081299
Ga 1.68049921 4.74122000 3.69750728
Ga 5.02882500 2.37061000 -3.555983689999998 0 0 0
Ga 5.02882500 0.00000000 -1.1853278999999972 0 0 0
Ga 5.02607591 2.37061000 1.21081299
Ga 5.02460079 0.00000000 3.69750728
Ga 5.02882500 7.11183000 -3.555983689999998 0 0 0
Ga 5.02882500 4.74122000 -1.1853278999999972 0 0 0
Ga 5.02607591 7.11183000 1.21081299
Ga 5.02460079 4.74122000 3.69750728
Ag 0.00000000 0.00000000 -3.555983689999998 0 0 0
Ag 0.00000000 2.37061000 -1.1853278999999972 0 0 0
Ag 0.00000000 0.00000000 1.17231423
Ag 0.00000000 2.37061000 3.50989363
Ag 0.00000000 4.74122000 -3.555983689999998 0 0 0
Ag 0.00000000 7.11183000 -1.1853278999999972 0 0 0
Ag 0.00000000 4.74122000 1.17231423
Ag 0.00000000 7.11183000 3.50989363
Ag 3.35255000 0.00000000 -3.555983689999998 0 0 0
Ag 3.35255000 2.37061000 -1.1853278999999972 0 0 0
Ag 3.35255000 0.00000000 1.17014529
Ag 3.35255000 2.37061000 3.51423152
Ag 3.35255000 4.74122000 -3.555983689999998 0 0 0
Ag 3.35255000 7.11183000 -1.1853278999999972 0 0 0
Ag 3.35255000 4.74122000 1.17014529
Ag 3.35255000 7.11183000 3.51423152
