&CONTROL
calculation = 'relax'
prefix = 'scf'
pseudo_dir = '/vol0403/data/hp230205/u10028/POT_HYBRID_KKJUS_GBRV'
outdir = './data'
tprnfor = .true.
nstep = 50
disk_io = 'non'
/
&SYSTEM
ibrav = 0
ecutwfc = 50.0
ecutrho = 400
occupations = 'smearing'
smearing = 'mp'
degauss = 0.01
assume_isolated = 'esm'
esm_bc = 'bc1'
input_dft = 'BEEF-VDW'
nosym = .true.
nspin = 1
ntyp = 5
nat = 17
/
&ELECTRONS
electron_maxstep = 200
mixing_beta = 0.1
conv_thr = 1e-06
/
&IONS
ion_dynamics = 'bfgs'
upscale = 1.0
/
&CELL
/

K_POINTS {automatic}
10 10 2 0  0  0

ATOMIC_SPECIES
C 12.01 C.pbe-n-rrkjus_psl.1.0.0.UPF
Cu 63.54 Cu.pbe-dn-rrkjus_psl.1.0.0.UPF
In 114.8 In.pbe-dn-rrkjus_psl.1.0.0.UPF
Li 6.941 Li.pbe-sl-rrkjus_psl.1.0.0.UPF
Pd 106.4 Pd.pbe-n-rrkjus_psl.1.0.0.UPF


CELL_PARAMETERS {angstrom}
6.33486000 0.00000000 0.00000000
0.00000000 6.33486000 0.00000000
0.00000000 0.00000000 24.75110000

ATOMIC_POSITIONS {angstrom}
Li 1.58371500 1.58371500 -0.7917876899999996 0 0 0
Li 1.51732567 4.68475567 2.51099909
Li 4.81753433 1.65010433 2.51099909
Li 4.75114500 4.75114500 -0.7917876899999996 0 0 0
In 4.75114500 1.58371500 -0.7917876899999996 0 0 0
In 4.76185091 4.74043909 2.58995510
In 1.57300909 1.59442091 2.58995510
In 1.58371500 4.75114500 -0.7917876899999996 0 0 0
Cu 0.00000000 0.00000000 -2.37561058 0 0 0
Cu 0.00000000 3.16743000 0.70169369
Cu 3.16743000 0.00000000 0.99944942
Cu 3.16743000 3.16743000 -2.37561058 0 0 0
Pd 0.00000000 3.16743000 -2.37561058 0 0 0
Pd 0.00000000 0.00000000 0.85020029
Pd 3.16743000 3.16743000 0.85020029
Pd 3.16743000 0.00000000 -2.37561058 0 0 0
C 0.00000000 3.16743000 2.66272334
