&CONTROL
calculation = 'relax'
prefix = 'scf'
pseudo_dir = '/vol0004/mdt0/data/hp150275/u10028/POT_KKJUS'
outdir = './data'
tprnfor = .true.
nstep = 50
disk_io = 'non'
/
&SYSTEM
ibrav = 0
ecutwfc = 50.0
ecutrho = 400
occupations = 'smearing'
smearing = 'mp'
degauss = 0.01
assume_isolated = 'esm'
esm_bc = 'bc1'
input_dft = 'BEEF-VDW'
nosym = .true.
nspin = 1
ntyp = 3
nat = 16
/
&ELECTRONS
electron_maxstep = 200
mixing_beta = 0.1
conv_thr = 1e-06
/
&IONS
ion_dynamics = 'bfgs'
upscale = 1.0
/
&CELL
/

K_POINTS {automatic}
8 8 1 0 0 0

ATOMIC_SPECIES
Ge 72.64 Ge.pbe-dn-rrkjus_psl.1.0.0.UPF
Li 6.941 Li.pbe-sl-rrkjus_psl.1.0.0.UPF
Pd 106.4 Pd.pbe-n-rrkjus_psl.1.0.0.UPF

CELL_PARAMETERS {angstrom}
6.09904000 0.00000000 0.00000000
0.00000000 6.09904000 0.00000000
0.00000000 0.00000000 24.57430000

ATOMIC_POSITIONS {angstrom}
Li 1.52311326 1.52250336 0.72641631
Li 4.57428000 4.57428000 -2.2871301000000024 0 0 0
Li 4.57647565 1.52171048 0.72395888
Li 1.52476000 4.57428000 -2.2871301000000024 0 0 0
Li 4.57726853 4.57659764 0.72371314
Li 1.52476000 1.52476000 -2.2871301000000024 0 0 0
Li 1.52232038 4.57580476 0.72617056
Li 4.57428000 1.52476000 -2.2871301000000024 0 0 0
Ge 6.09775920 0.00146377 2.28147801
Ge 3.05378933 3.05171565 2.27975781
Ge 3.04952000 0.00000000 -0.7622947900000021 0 0 0
Ge 0.00000000 3.04952000 -0.7622947900000021 0 0 0
Pd 0.00000000 0.00000000 -0.7622947900000021 0 0 0
Pd 3.05073981 6.09824712 2.08586658
Pd 6.09702732 3.04842217 2.08586658
Pd 3.04952000 3.04952000 -0.7622947900000021 0 0 0
