&CONTROL
calculation = 'relax'
prefix = 'scf'
pseudo_dir = '/vol0004/mdt0/data/hp150275/u10028/POT_KKJUS'
outdir = './data'
tprnfor = .true.
nstep = 50
disk_io = 'non'
/
&SYSTEM
ibrav = 0
ecutwfc = 50.0
ecutrho = 400
occupations = 'smearing'
smearing = 'mp'
degauss = 0.01
assume_isolated = 'esm'
esm_bc = 'bc1'
input_dft = 'BEEF-VDW'
nosym = .true.
nspin = 1
ntyp = 3
nat = 33
/
&ELECTRONS
electron_maxstep = 200
mixing_beta = 0.1
conv_thr = 1e-06
/
&IONS
ion_dynamics = 'bfgs'
upscale = 1.0
/
&CELL
/

K_POINTS {automatic}
9 6 2 0  0  0

ATOMIC_SPECIES
Al 26.98 Al.pbe-nl-rrkjus_psl.1.0.0.UPF
C 12.01 C.pbe-n-rrkjus_psl.1.0.0.UPF
Pd 106.4 Pd.pbe-n-rrkjus_psl.1.0.0.UPF

CELL_PARAMETERS {angstrom}
6.18271000 0.00000000 0.00000000
0.00000000 8.74368000 0.00000000
0.00000000 0.00000000 26.55780000

ATOMIC_POSITIONS {angstrom}
Al 0.00000000 0.00000000 -3.2788259900000014 0 0 0
Al 0.00000000 2.18592000 -1.0928534700000014 0 0 0
Al 0.00958320 0.00201105 1.09975850
Al 5.90745575 2.18592000 3.43100218
Al 0.00000000 4.37184000 -3.2788259900000014 0 0 0
Al 0.00000000 6.55776000 -1.0928534700000014 0 0 0
Al 0.00958320 4.36982895 1.09975850
Al 0.05372775 6.55776000 3.29237047
Al 3.09135500 0.00000000 -3.2788259900000014 0 0 0
Al 3.09135500 2.18592000 -1.0928534700000014 0 0 0
Al 3.08158632 0.00209848 1.09975850
Al 3.36493992 2.18592000 3.43153334
Al 3.09135500 4.37184000 -3.2788259900000014 0 0 0
Al 3.09135500 6.55776000 -1.0928534700000014 0 0 0
Al 3.08158632 4.36974152 1.09975850
Al 3.03725629 6.55776000 3.29237047
Pd 1.54567750 2.18592000 -3.2788259900000014 0 0 0
Pd 1.54567750 0.00000000 -1.0928534700000014 0 0 0
Pd 1.54561567 2.18592000 1.12578514
Pd 1.54536836 8.73222578 3.18481138
Pd 1.54567750 6.55776000 -3.2788259900000014 0 0 0
Pd 1.54567750 4.37184000 -1.0928534700000014 0 0 0
Pd 1.54573933 6.55776000 1.04717405
Pd 1.54536836 4.38329422 3.18481138
Pd 4.63703250 2.18592000 -3.2788259900000014 0 0 0
Pd 4.63703250 0.00000000 -1.0928534700000014 0 0 0
Pd 4.63690885 2.18592000 1.05036099
Pd 4.63666154 8.65309548 3.15825358
Pd 4.63703250 6.55776000 -3.2788259900000014 0 0 0
Pd 4.63703250 4.37184000 -1.0928534700000014 0 0 0
Pd 4.63703250 6.55776000 1.01610143
Pd 4.63666154 4.46242452 3.15825358
C 1.54468827 2.18592000 3.83866441
