&CONTROL
calculation = 'relax'
prefix = 'scf'
pseudo_dir = '/vol0403/data/hp230205/u10028/POT_HYBRID_KKJUS_GBRV'
outdir = './data'
tprnfor = .true.
nstep = 50
disk_io = 'non'
/
&SYSTEM
ibrav = 0
ecutwfc = 50.0
ecutrho = 400
occupations = 'smearing'
smearing = 'mp'
degauss = 0.01
assume_isolated = 'esm'
esm_bc = 'bc1'
input_dft = 'BEEF-VDW'
nosym = .true.
nspin = 1
ntyp = 6
nat = 18
/
&ELECTRONS
electron_maxstep = 200
mixing_beta = 0.1
conv_thr = 1e-06
/
&IONS
ion_dynamics = 'bfgs'
upscale = 1.0
/
&CELL
/

K_POINTS {automatic}
6 6 1 0 0 0

ATOMIC_SPECIES
Al 26.98 Al.pbe-nl-rrkjus_psl.1.0.0.UPF
C 12.01 C.pbe-n-rrkjus_psl.1.0.0.UPF
In 114.8 In.pbe-dn-rrkjus_psl.1.0.0.UPF
O 15.99 O.pbe-n-rrkjus_psl.1.0.0.UPF
Pd 106.4 Pd.pbe-n-rrkjus_psl.1.0.0.UPF
Sc 44.95 Sc.pbe-spn-rrkjus_psl.1.0.0.UPF


CELL_PARAMETERS {angstrom}
5.88291000 0.00000000 0.00000000
0.00000000 8.60736000 0.00000000
0.00000000 0.00000000 24.41210000

ATOMIC_POSITIONS {angstrom}
Sc 1.46460927 2.15184000 -0.7352924499999993 0 0 0
Sc 4.30099550 2.15184000 2.12971160
Sc 1.46460927 6.45552000 -0.7352924499999993 0 0 0
Sc 4.33499872 6.45552000 2.02010128
Al 0.00000000 0.00000000 -2.20612148 0 0 0
Al 2.86391825 0.04587723 0.81902596
Al 0.00000000 4.30368000 -2.20612148 0 0 0
Al 2.86385942 4.25780277 0.81902596
In 2.94145500 0.00000000 -2.20612148 0 0 0
In 5.82372793 0.04596330 0.80096100
In 2.94145500 4.30368000 -2.20612148 0 0 0
In 5.82372793 4.25771670 0.80096100
Pd 4.40606427 2.15184000 -0.7352924499999993 0 0 0
Pd 1.52832119 2.15184000 2.14167353
Pd 4.40606427 6.45552000 -0.7352924499999993 0 0 0
Pd 1.58003197 6.45552000 1.85239015
C 1.47725753 2.15184000 4.10001219
O 1.43619482 2.15184000 5.26007519
