&CONTROL
calculation = 'relax'
prefix = 'scf'
pseudo_dir = '/vol0403/data/hp230205/u10028/POT_HYBRID_KKJUS_GBRV'
outdir = './data'
tprnfor = .true.
nstep = 50
disk_io = 'non'
/
&SYSTEM
ibrav = 0
ecutwfc = 50.0
ecutrho = 400
occupations = 'smearing'
smearing = 'mp'
degauss = 0.01
assume_isolated = 'esm'
esm_bc = 'bc1'
input_dft = 'BEEF-VDW'
nosym = .true.
nspin = 1
ntyp = 6
nat = 18
/
&ELECTRONS
electron_maxstep = 200
mixing_beta = 0.1
conv_thr = 1e-06
/
&IONS
ion_dynamics = 'bfgs'
upscale = 1.0
/
&CELL
/

K_POINTS {automatic}
11 7 2 0  0  0

ATOMIC_SPECIES
C 12.01 C.pbe-n-rrkjus_psl.1.0.0.UPF
Ga 69.72 Ga.pbe-dnl-rrkjus_psl.1.0.0.UPF
In 114.8 In.pbe-dn-rrkjus_psl.1.0.0.UPF
Li 6.941 Li.pbe-sl-rrkjus_psl.1.0.0.UPF
O 15.99 O.pbe-n-rrkjus_psl.1.0.0.UPF
Sc 44.95 Sc.pbe-spn-rrkjus_psl.1.0.0.UPF


CELL_PARAMETERS {angstrom}
5.87074000 0.00000000 0.00000000
0.00000000 8.86716000 0.00000000
0.00000000 0.00000000 24.40240000

ATOMIC_POSITIONS {angstrom}
Li 3.72116855 2.19710490 0.69131999
Li 1.39236341 2.21679000 -2.2010964800000004 0 0 0
Li 3.72081630 6.67014377 0.69107597
Li 1.39236341 6.65037000 -2.2010964800000004 0 0 0
Sc 2.19201690 0.00026601 2.29138536
Sc 5.82054517 0.00000000 -0.7337801699999993 0 0 0
Sc 2.20141009 4.43366867 2.21622597
Sc 5.82054517 4.43358000 -0.7337801699999993 0 0 0
In 0.75873444 2.21608063 1.07663389
In 4.32773341 2.21679000 -2.2010964800000004 0 0 0
In 0.75832349 6.65090203 1.07687791
In 4.32773341 6.65037000 -2.2010964800000004 0 0 0
Ga 4.93371119 0.00017734 2.06517511
Ga 2.88517517 0.00000000 -0.7337801699999993 0 0 0
Ga 4.97551086 4.43331399 2.07591217
Ga 2.88517517 4.43358000 -0.7337801699999993 0 0 0
C 2.80539182 0.00026601 4.51908046
O 3.06934029 0.00026601 5.63890659
