&CONTROL
calculation = 'relax'
prefix = 'scf'
pseudo_dir = '/vol0004/mdt0/data/hp150275/u10028/POT_KKJUS'
outdir = './data'
tprnfor = .true.
nstep = 50
disk_io = 'non'
/
&SYSTEM
ibrav = 0
ecutwfc = 50.0
ecutrho = 400
occupations = 'smearing'
smearing = 'mp'
degauss = 0.01
assume_isolated = 'esm'
esm_bc = 'bc1'
input_dft = 'BEEF-VDW'
nosym = .true.
nspin = 1
ntyp = 4
nat = 34
/
&ELECTRONS
electron_maxstep = 200
mixing_beta = 0.1
conv_thr = 1e-06
/
&IONS
ion_dynamics = 'bfgs'
upscale = 1.0
/
&CELL
/

K_POINTS {automatic}
9 6 2 0  0  0

ATOMIC_SPECIES
Au 196.9 Au.pbe-n-rrkjus_psl.1.0.0.UPF
C 12.01 C.pbe-n-rrkjus_psl.1.0.0.UPF
O 15.99 O.pbe-n-rrkjus_psl.1.0.0.UPF
Sc 44.95 Sc.pbe-spn-rrkjus_psl.1.0.0.UPF

CELL_PARAMETERS {angstrom}
6.85145000 0.00000000 0.00000000
0.00000000 9.68941000 0.00000000
0.00000000 0.00000000 27.26710000

ATOMIC_POSITIONS {angstrom}
Sc 1.71286250 2.42235250 -3.6336137499999985 0 0 0
Sc 1.71286250 4.84470500 -1.2112045800000004 0 0 0
Sc 1.65161054 2.42235250 1.25783132
Sc 1.73355388 9.65588464 3.58835036
Sc 1.71286250 7.26705750 -3.6336137499999985 0 0 0
Sc 1.71286250 0.00000000 -1.2112045800000004 0 0 0
Sc 1.73834989 7.26705750 1.20166110
Sc 1.73355388 4.87823036 3.58835036
Sc 5.13858750 2.42235250 -3.6336137499999985 0 0 0
Sc 5.13858750 4.84470500 -1.2112045800000004 0 0 0
Sc 5.19983946 2.42235250 1.25783132
Sc 5.11789612 9.65598154 3.58835036
Sc 5.13858750 7.26705750 -3.6336137499999985 0 0 0
Sc 5.13858750 0.00000000 -1.2112045800000004 0 0 0
Sc 5.11310011 7.26705750 1.20166110
Sc 5.11789612 4.87813346 3.58835036
Au 0.00000000 0.00000000 -3.6336137499999985 0 0 0
Au 0.00000000 2.42235250 -1.2112045800000004 0 0 0
Au 0.00000000 9.59803886 1.18311947
Au 0.00006851 2.42235250 3.65951749
Au 0.00000000 4.84470500 -3.6336137499999985 0 0 0
Au 0.00000000 7.26705750 -1.2112045800000004 0 0 0
Au 6.85138149 4.93617303 1.18311947
Au 0.00000000 7.26705750 3.45365089
Au 3.42572500 0.00000000 -3.6336137499999985 0 0 0
Au 3.42572500 2.42235250 -1.2112045800000004 0 0 0
Au 3.42572500 0.06414389 1.20275178
Au 3.42572500 2.42235250 3.47382854
Au 3.42572500 4.84470500 -3.6336137499999985 0 0 0
Au 3.42572500 7.26705750 -1.2112045800000004 0 0 0
Au 3.42572500 4.78046421 1.20275178
Au 3.42572500 7.26705750 3.48228134
C 6.85138149 2.42235250 5.78444259
O 0.00000000 2.42235250 6.94165832
