&CONTROL
calculation = 'relax'
prefix = 'scf'
pseudo_dir = '/vol0004/mdt0/data/hp150275/u10028/POT_HYBRID_KKJUS_GBRV'
outdir = './data'
tprnfor = .true.
nstep = 50
disk_io = 'non'
/
&SYSTEM
ibrav = 0
ecutwfc = 50.0
ecutrho = 400
occupations = 'smearing'
smearing = 'mp'
degauss = 0.01
assume_isolated = 'esm'
esm_bc = 'bc1'
input_dft = 'BEEF-VDW'
nosym = .true.
nspin = 2
ntyp = 4
nat = 33
starting_magnetization(1) = 0.0
starting_magnetization(2) = 0.0
starting_magnetization(3) = 0.1
starting_magnetization(4) = 0.001
/
&ELECTRONS
electron_maxstep = 300
mixing_beta = 0.1
conv_thr = 1e-06
/
&IONS
ion_dynamics = 'bfgs'
upscale = 1.0
/
&CELL
/

K_POINTS {automatic}
9 6 2 0  0  0

ATOMIC_SPECIES
C 12.01 C.pbe-n-rrkjus_psl.1.0.0.UPF
In 114.8 In.pbe-dn-rrkjus_psl.1.0.0.UPF
Mn 54.93 mn_pbe_v1.5.uspp.F.UPF
Ni 58.69 ni_pbe_v1.4.uspp.F.UPF

CELL_PARAMETERS {angstrom}
6.11439000 0.00000000 0.00000000
0.00000000 8.64705000 0.00000000
0.00000000 0.00000000 26.48530000

ATOMIC_POSITIONS {angstrom}
Mn 0.00000000 0.00000000 -3.2425952799999997 0 0 0
Mn 3.05719500 2.16176250 -1.0808650899999996 0 0 0
Mn 3.05719500 6.48528750 -1.0808650899999996 0 0 0
Mn 0.00000000 4.32352500 -3.2425952799999997 0 0 0
Mn 0.00000000 4.32326559 1.12403613
Mn 3.05719500 6.64283675 3.26113499
Mn 3.05719500 2.00421325 3.26087014
Mn 0.00000000 0.00017294 1.00988449
In 0.00000000 6.48528750 -1.0808650899999996 0 0 0
In 3.05719500 0.00000000 -3.2425952799999997 0 0 0
In 0.00000000 2.16176250 -1.0808650899999996 0 0 0
In 3.05719500 4.32352500 -3.2425952799999997 0 0 0
In 0.00000000 2.28100532 3.53128505
In 3.05719500 4.32335206 1.01862464
In 0.00000000 6.36604468 3.53154990
In 3.05719500 0.00017294 1.03001332
Ni 1.52859750 0.00000000 -1.0808650899999996 0 0 0
Ni 4.58579250 4.32352500 -1.0808650899999996 0 0 0
Ni 4.58579250 0.00000000 -1.0808650899999996 0 0 0
Ni 1.52859750 4.32352500 -1.0808650899999996 0 0 0
Ni 4.58579250 6.48528750 -3.2425952799999997 0 0 0
Ni 1.52859750 2.16176250 -3.2425952799999997 0 0 0
Ni 1.52859750 6.48528750 -3.2425952799999997 0 0 0
Ni 4.58579250 2.16176250 -3.2425952799999997 0 0 0
Ni 1.61902933 4.32335206 3.12023319
Ni 4.82835035 0.00017294 3.13109217
Ni 4.49536067 4.32335206 3.12023319
Ni 1.28603965 0.00017294 3.13109217
Ni 4.64504094 2.15899544 1.16005614
Ni 1.46934906 6.48796809 1.16005614
Ni 1.46934906 2.15899544 1.16005614
Ni 4.64510208 6.48796809 1.16005614
C 3.05719500 0.00000000 3.61100580
