&CONTROL
calculation = 'relax'
prefix = 'scf'
pseudo_dir = '/vol0004/mdt0/data/hp150275/u10028/POT_KKJUS'
outdir = './data'
tprnfor = .true.
nstep = 50
disk_io = 'non'
/
&SYSTEM
ibrav = 0
ecutwfc = 50.0
ecutrho = 400
occupations = 'smearing'
smearing = 'mp'
degauss = 0.01
assume_isolated = 'esm'
esm_bc = 'bc1'
input_dft = 'BEEF-VDW'
nosym = .true.
nspin = 1
ntyp = 3
nat = 32
/
&ELECTRONS
electron_maxstep = 200
mixing_beta = 0.1
conv_thr = 1e-06
/
&IONS
ion_dynamics = 'bfgs'
upscale = 1.0
/
&CELL
/

K_POINTS {automatic}
9 6 2 0  0  0

ATOMIC_SPECIES
Al 26.98 Al.pbe-nl-rrkjus_psl.1.0.0.UPF
Nb 92.90 Nb.pbe-spn-rrkjus_psl.1.0.0.UPF
Ru 101.0 Ru.pbe-spn-rrkjus_psl.1.0.0.UPF

CELL_PARAMETERS {angstrom}
6.19479000 0.00000000 0.00000000
0.00000000 8.76076000 0.00000000
0.00000000 0.00000000 26.57060000

ATOMIC_POSITIONS {angstrom}
Nb 0.00000000 0.00000000 -3.2851889799999974 0 0 0
Nb 3.09739500 2.19019000 -1.0949744300000006 0 0 0
Nb 3.09739500 6.57057000 -1.0949744300000006 0 0 0
Nb 0.00000000 4.38038000 -3.2851889799999974 0 0 0
Nb 0.00000000 4.38038000 1.13456462
Nb 3.09739500 6.57057000 3.28944028
Nb 3.09739500 2.19019000 3.28944028
Nb 0.00000000 0.00000000 1.13456462
Al 0.00000000 6.57057000 -1.0949744300000006 0 0 0
Al 3.09739500 0.00000000 -3.2851889799999974 0 0 0
Al 0.00000000 2.19019000 -1.0949744300000006 0 0 0
Al 3.09739500 4.38038000 -3.2851889799999974 0 0 0
Al 0.00000000 2.19019000 3.39147138
Al 3.09739500 4.38038000 1.11968508
Al 0.00000000 6.57057000 3.39147138
Al 3.09739500 0.00000000 1.11968508
Ru 1.54869750 0.00000000 -1.0949744300000006 0 0 0
Ru 4.64609250 4.38038000 -1.0949744300000006 0 0 0
Ru 4.64609250 0.00000000 -1.0949744300000006 0 0 0
Ru 1.54869750 4.38038000 -1.0949744300000006 0 0 0
Ru 4.64609250 6.57057000 -3.2851889799999974 0 0 0
Ru 1.54869750 2.19019000 -3.2851889799999974 0 0 0
Ru 1.54869750 6.57057000 -3.2851889799999974 0 0 0
Ru 4.64609250 2.19019000 -3.2851889799999974 0 0 0
Ru 1.51524563 4.38038000 3.17917229
Ru 4.67954437 0.00000000 3.17917229
Ru 4.67954437 4.38038000 3.17917229
Ru 1.51524563 0.00000000 3.17917229
Ru 4.62955241 2.19019000 1.11277673
Ru 1.56529954 6.57057000 1.11277673
Ru 1.56523759 2.19019000 1.11277673
Ru 4.62949046 6.57057000 1.11277673
