&CONTROL
calculation = 'relax'
prefix = 'scf'
pseudo_dir = '/vol0403/data/hp230205/u10028/POT_HYBRID_KKJUS_GBRV'
outdir = './data'
tprnfor = .true.
nstep = 70
disk_io = 'non'
/
&SYSTEM
ibrav = 0
ecutwfc = 50.0
ecutrho = 400
occupations = 'smearing'
smearing = 'mp'
degauss = 0.01
assume_isolated = 'esm'
esm_bc = 'bc1'
input_dft = 'BEEF-VDW'
nosym = .true.
nspin = 1
ntyp = 5
nat = 33
/
&ELECTRONS
electron_maxstep = 200
mixing_beta = 0.1
conv_thr = 1e-06
/
&IONS
ion_dynamics = 'bfgs'
upscale = 1.0
/
&CELL
/

K_POINTS {automatic}
9 6 2 0  0  0

ATOMIC_SPECIES
Au 196.9 Au.pbe-n-rrkjus_psl.1.0.0.UPF
C 12.01 C.pbe-n-rrkjus_psl.1.0.0.UPF
Cu 63.54 Cu.pbe-dn-rrkjus_psl.1.0.0.UPF
In 114.8 In.pbe-dn-rrkjus_psl.1.0.0.UPF
Li 6.941 Li.pbe-sl-rrkjus_psl.1.0.0.UPF


CELL_PARAMETERS {angstrom}
6.41124000 0.00000000 0.00000000
-0.00000000 9.06686000 0.00000000
0.00000000 0.00000000 26.80010000

ATOMIC_POSITIONS {angstrom}
Li 4.80843000 0.00000000 -1.1333762299999997 0 0 0
Li 4.80843000 4.53343000 -1.1333762299999997 0 0 0
Li 1.60281000 2.26671500 -3.400128689999999 0 0 0
Li 1.60281000 6.80014500 -3.400128689999999 0 0 0
Li 4.90581674 4.53343000 3.51938913
Li 4.42125522 -0.00000000 3.85412238
Li 1.49119031 6.86198099 1.26550072
Li 1.49119031 2.20478835 1.26550072
In 0.00000000 2.26671500 -1.1333762299999997 0 0 0
In 0.00000000 6.80014500 -1.1333762299999997 0 0 0
In 3.20562000 4.53343000 -3.400128689999999 0 0 0
In 3.20562000 0.00000000 -3.400128689999999 0 0 0
In 0.04180128 6.86261567 3.98571087
In 0.04180128 2.20424433 3.98571087
In 3.34827009 -0.00000000 1.05994396
In 3.15689458 4.53343000 1.14865229
Cu 1.60281000 0.00000000 -1.1333762299999997 0 0 0
Cu 1.60281000 4.53343000 -1.1333762299999997 0 0 0
Cu 4.80843000 2.26671500 -3.400128689999999 0 0 0
Cu 4.80843000 6.80014500 -3.400128689999999 0 0 0
Cu 1.40143295 4.53343000 3.39262466
Cu 1.89016178 -0.00000000 3.21494000
Cu 4.85818122 6.72615942 1.17464838
Cu 4.85818122 2.34070058 1.17464838
Au 0.00000000 0.00000000 -3.400128689999999 0 0 0
Au 0.00000000 4.53343000 -3.400128689999999 0 0 0
Au 3.20562000 6.80014500 -1.1333762299999997 0 0 0
Au 3.20562000 2.26671500 -1.1333762299999997 0 0 0
Au 0.00064112 4.53343000 1.06878799
Au 6.31584075 -0.00000000 1.19796447
Au 3.15336839 2.41033406 3.33205643
Au 3.15336839 6.65652594 3.33205643
C 0.01987484 0.00000000 3.51134910
