&CONTROL
calculation = 'relax'
prefix = 'scf'
pseudo_dir = '/vol0004/mdt0/data/hp150275/u10028/POT_HYBRID_KKJUS_GBRV'
outdir = './data'
tprnfor = .true.
nstep = 50
disk_io = 'non'
/
&SYSTEM
ibrav = 0
ecutwfc = 50.0
ecutrho = 400
occupations = 'smearing'
smearing = 'mp'
degauss = 0.01
assume_isolated = 'esm'
esm_bc = 'bc1'
input_dft = 'BEEF-VDW'
nosym = .true.
nspin = 2
ntyp = 4
nat = 33
starting_magnetization(1) = 0.0
starting_magnetization(2) = 0.1
starting_magnetization(3) = 0.1
starting_magnetization(4) = 0.0
/
&ELECTRONS
electron_maxstep = 300
mixing_beta = 0.1
conv_thr = 1e-06
/
&IONS
ion_dynamics = 'bfgs'
upscale = 1.0
/
&CELL
/

K_POINTS {automatic}
9 6 2 0  0  0

ATOMIC_SPECIES
C 12.01 C.pbe-n-rrkjus_psl.1.0.0.UPF
Co 58.93 co_pbe_v1.2.uspp.F.UPF
Mn 54.93 mn_pbe_v1.5.uspp.F.UPF
Si 28.08 Si.pbe-nl-rrkjus_psl.1.0.0.UPF

CELL_PARAMETERS {angstrom}
5.64266000 0.00000000 0.00000000
0.00000000 7.97993000 0.00000000
0.00000000 0.00000000 25.98490000

ATOMIC_POSITIONS {angstrom}
Mn 0.00000000 0.00000000 -2.9924210799999997 0 0 0
Mn 2.82133000 1.99498250 -0.9975603100000008 0 0 0
Mn 2.82133000 5.98494750 -0.9975603100000008 0 0 0
Mn 0.00000000 3.98996500 -2.9924210799999997 0 0 0
Mn 0.00000000 3.98996500 0.94325187
Mn 2.82133000 5.85112407 3.18808738
Mn 2.82133000 2.12880593 3.18808738
Mn 0.00000000 0.00000000 1.00821412
Co 1.41066500 0.00000000 -0.9975603100000008 0 0 0
Co 4.23199500 3.98996500 -0.9975603100000008 0 0 0
Co 4.23199500 0.00000000 -0.9975603100000008 0 0 0
Co 1.41066500 3.98996500 -0.9975603100000008 0 0 0
Co 4.23199500 5.98494750 -2.9924210799999997 0 0 0
Co 1.41066500 1.99498250 -2.9924210799999997 0 0 0
Co 1.41066500 5.98494750 -2.9924210799999997 0 0 0
Co 4.23199500 1.99498250 -2.9924210799999997 0 0 0
Co 1.25329121 3.98996500 2.93083687
Co 4.06762431 0.00000000 2.91446638
Co 4.38936879 3.98996500 2.93083687
Co 1.57503569 0.00000000 2.91446638
Co 4.20970649 1.99202993 1.02666340
Co 1.43300993 5.98790007 1.02666340
Co 1.43295351 1.99202993 1.02666340
Co 4.20965007 5.98790007 1.02666340
Si 0.00000000 5.98494750 -0.9975603100000008 0 0 0
Si 2.82133000 0.00000000 -2.9924210799999997 0 0 0
Si 0.00000000 1.99498250 -0.9975603100000008 0 0 0
Si 2.82133000 3.98996500 -2.9924210799999997 0 0 0
Si 0.00000000 1.95667884 2.96071951
Si 2.82133000 3.98996500 1.07031803
Si 0.00000000 6.02325116 2.96071951
Si 2.82133000 0.00000000 0.88114796
C 0.00000000 0.00000000 3.68283988
