&CONTROL
calculation = 'relax'
prefix = 'scf'
pseudo_dir = '/vol0004/mdt0/data/hp150275/u10028/POT_HYBRID_KKJUS_GBRV'
outdir = './data'
tprnfor = .true.
nstep = 50
disk_io = 'non'
/
&SYSTEM
ibrav = 0
ecutwfc = 50.0
ecutrho = 400
occupations = 'smearing'
smearing = 'mp'
degauss = 0.01
assume_isolated = 'esm'
esm_bc = 'bc1'
input_dft = 'BEEF-VDW'
nosym = .true.
nspin = 2
ntyp = 4
nat = 18
starting_magnetization(1) = 0.1
starting_magnetization(2) = 0.1
starting_magnetization(3) = 0.1
starting_magnetization(4) = 0.1
/
&ELECTRONS
electron_maxstep = 200
mixing_beta = 0.1
conv_thr = 1e-06
/
&IONS
ion_dynamics = 'bfgs'
upscale = 1.0
/
&CELL
/

K_POINTS {automatic}
9 9 2 0  0  0

ATOMIC_SPECIES
C 12.01 C.pbe-n-rrkjus_psl.1.0.0.UPF
Ni 58.69 ni_pbe_v1.4.uspp.F.UPF
O 15.99 O.pbe-n-rrkjus_psl.1.0.0.UPF
Sc 44.95 Sc.pbe-spn-rrkjus_psl.1.0.0.UPF

CELL_PARAMETERS {angstrom}
6.35210000 0.00000000 0.00000000
-0.00000000 6.35210000 0.00000000
0.00000000 0.00000000 24.76410000

ATOMIC_POSITIONS {angstrom}
Sc 1.58802500 1.58802500 -0.6886896199999981 0 0 0
Sc 1.58802500 1.58802500 2.48730620
Sc 1.58802500 4.76407500 -0.6886896199999981 0 0 0
Sc 1.58802500 4.76407500 2.48730620
Sc 4.76407500 1.58802500 -0.6886896199999981 0 0 0
Sc 4.76407500 1.58802500 2.48730620
Sc 4.76407500 4.76407500 -0.6886896199999981 0 0 0
Sc 4.76407500 4.76407500 2.48730620
Ni 0.00000000 0.00000000 -2.276811349999999 0 0 0
Ni 0.00000000 0.00000000 0.89918447
Ni 0.00000000 3.17605000 -2.276811349999999 0 0 0
Ni 0.00000000 3.17605000 0.89918447
Ni 3.17605000 0.00000000 -2.276811349999999 0 0 0
Ni 3.17605000 -0.00000000 0.89918447
Ni 3.17605000 3.17605000 -2.276811349999999 0 0 0
Ni 3.17605000 3.17605000 0.89918447
C 1.58802500 1.58802500 4.38720796
O 1.58802500 1.58802500 5.53725276
