&CONTROL
calculation = 'relax'
prefix = 'scf'
pseudo_dir = '/vol0403/data/hp230205/u10028/POT_HYBRID_KKJUS_GBRV'
outdir = './data'
tprnfor = .true.
nstep = 50
disk_io = 'non'
/
&SYSTEM
ibrav = 0
ecutwfc = 50.0
ecutrho = 400
occupations = 'smearing'
smearing = 'mp'
degauss = 0.01
assume_isolated = 'esm'
esm_bc = 'bc1'
input_dft = 'BEEF-VDW'
nosym = .true.
nspin = 1
ntyp = 6
nat = 18
/
&ELECTRONS
electron_maxstep = 200
mixing_beta = 0.1
conv_thr = 1e-06
/
&IONS
ion_dynamics = 'bfgs'
upscale = 1.0
/
&CELL
/

K_POINTS {automatic}
9 9 2 0  0  0

ATOMIC_SPECIES
C 12.01 C.pbe-n-rrkjus_psl.1.0.0.UPF
In 114.8 In.pbe-dn-rrkjus_psl.1.0.0.UPF
Ir 192.2 Ir.pbe-n-rrkjus_psl.0.2.3.UPF
Li 6.941 Li.pbe-sl-rrkjus_psl.1.0.0.UPF
O 15.99 O.pbe-n-rrkjus_psl.1.0.0.UPF
Pd 106.4 Pd.pbe-n-rrkjus_psl.1.0.0.UPF


CELL_PARAMETERS {angstrom}
6.33559000 0.00000000 0.00000000
0.00000000 6.33559000 0.00000000
0.00000000 0.00000000 24.75170000

ATOMIC_POSITIONS {angstrom}
Li 0.00000000 3.16779500 2.47145724
Li 0.00000000 0.00000000 -0.7920543999999978 0 0 0
Li 3.16779500 3.16779500 -0.7920543999999978 0 0 0
Li 3.16779500 0.00000000 2.36279728
In 0.00000000 6.33552664 2.40264752
In 0.00000000 3.16779500 -0.7920543999999978 0 0 0
In 3.16779500 0.00000000 -0.7920543999999978 0 0 0
In 3.16779500 3.16779500 2.40264752
Ir 1.57977937 1.58807899 0.88932858
Ir 1.58389750 4.75169250 -2.3759156799999985 0 0 0
Ir 4.75169250 1.58389750 -2.3759156799999985 0 0 0
Ir 4.75581063 4.74757437 0.88932858
Pd 4.75631748 1.58852248 0.83165712
Pd 4.75169250 4.75169250 -2.3759156799999985 0 0 0
Pd 1.58389750 1.58389750 -2.3759156799999985 0 0 0
Pd 1.57927252 4.74706752 0.83165712
C 0.00000000 3.16779500 4.62262749
O 0.00000000 3.16779500 5.76343335
