&CONTROL
calculation = 'relax'
prefix = 'scf'
pseudo_dir = '/vol0403/data/hp230205/u10028/POT_HYBRID_KKJUS_GBRV'
outdir = './data'
tprnfor = .true.
nstep = 50
disk_io = 'non'
/
&SYSTEM
ibrav = 0
ecutwfc = 50.0
ecutrho = 400
occupations = 'smearing'
smearing = 'mp'
degauss = 0.01
assume_isolated = 'esm'
esm_bc = 'bc1'
input_dft = 'BEEF-VDW'
nosym = .true.
nspin = 1
ntyp = 4
nat = 16
/
&ELECTRONS
electron_maxstep = 200
mixing_beta = 0.1
conv_thr = 1e-06
/
&IONS
ion_dynamics = 'bfgs'
upscale = 1.0
/
&CELL
/

K_POINTS {automatic}
6 6 1 0 0 0

ATOMIC_SPECIES
Ag 107.8 Ag.pbe-n-rrkjus_psl.1.0.0.UPF
Al 26.98 Al.pbe-nl-rrkjus_psl.1.0.0.UPF
Ge 72.64 Ge.pbe-dn-rrkjus_psl.1.0.0.UPF
Li 6.941 Li.pbe-sl-rrkjus_psl.1.0.0.UPF


CELL_PARAMETERS {angstrom}
7.71364000 0.00000000 0.00000000
0.00000000 5.86609000 0.00000000
0.00000000 0.00000000 24.39060000

ATOMIC_POSITIONS {angstrom}
Li 1.92833286 1.41707136 0.81806072
Li 1.92841000 4.11934438 -2.1953979100000005 0 0 0
Li 5.78530714 1.41724734 0.81806072
Li 5.78523000 4.11934438 -2.1953979100000005 0 0 0
Al 1.92848714 4.28306695 0.80220683
Al 1.92841000 1.18629938 -2.1953979100000005 0 0 0
Al 5.78530714 4.28306695 0.80196293
Al 5.78523000 1.18629938 -2.1953979100000005 0 0 0
Ag 7.71356286 0.01982738 2.22832522
Ag 0.00000000 2.74621003 -0.7317180000000008 0 0 0
Ag 3.85689714 0.01982738 2.22856912
Ag 3.85682000 2.74621003 -0.7317180000000008 0 0 0
Ge 0.00000000 2.99440430 2.18588557
Ge 0.00000000 5.67925503 -0.7317180000000008 0 0 0
Ge 3.85697427 2.99434564 2.18588557
Ge 3.85682000 5.67925503 -0.7317180000000008 0 0 0
