&CONTROL
calculation = 'relax'
prefix = 'scf'
pseudo_dir = '/vol0403/data/hp230205/u10028/POT_HYBRID_KKJUS_GBRV'
outdir = './data'
tprnfor = .true.
nstep = 50
disk_io = 'non'
/
&SYSTEM
ibrav = 0
ecutwfc = 50.0
ecutrho = 400
occupations = 'smearing'
smearing = 'mp'
degauss = 0.01
assume_isolated = 'esm'
esm_bc = 'bc1'
input_dft = 'BEEF-VDW'
nosym = .true.
nspin = 1
ntyp = 6
nat = 18
/
&ELECTRONS
electron_maxstep = 200
mixing_beta = 0.1
conv_thr = 1e-06
/
&IONS
ion_dynamics = 'bfgs'
upscale = 1.0
/
&CELL
/

K_POINTS {automatic}
8 10 2 0  0  0

ATOMIC_SPECIES
C 12.01 C.pbe-n-rrkjus_psl.1.0.0.UPF
In 114.8 In.pbe-dn-rrkjus_psl.1.0.0.UPF
O 15.99 O.pbe-n-rrkjus_psl.1.0.0.UPF
Pd 106.4 Pd.pbe-n-rrkjus_psl.1.0.0.UPF
Sn 118.7 Sn.pbe-dn-rrkjus_psl.1.0.0.UPF
Y 88.90 Y.pbe-spn-rrkjus_psl.1.0.0.UPF


CELL_PARAMETERS {angstrom}
8.73372000 0.00000000 0.00000000
0.00000000 6.44465000 0.00000000
0.00000000 0.00000000 24.83320000

ATOMIC_POSITIONS {angstrom}
Y 0.00000000 3.22232500 -2.41651869 0 0 0
Y 0.06663828 6.38413474 0.90343182
Y 4.36686000 3.22232500 -2.41651869 0 0 0
Y 4.30022172 6.38419918 0.90343182
In 0.00000000 0.00000000 -2.41651869 0 0 0
In 8.49275667 3.08795405 1.02585949
In 4.36686000 0.00000000 -2.41651869 0 0 0
In 4.60782333 3.08801849 1.02585949
Sn 2.18343000 4.81576471 -0.805589010000002 0 0 0
Sn 2.18351734 1.83930311 2.37852390
Sn 6.55029000 4.81576471 -0.805589010000002 0 0 0
Sn 6.55029000 1.39655566 2.64895744
Pd 2.18343000 1.59343971 -0.805589010000002 0 0 0
Pd 2.18343000 4.55114738 1.90594810
Pd 6.55029000 1.59343971 -0.805589010000002 0 0 0
Pd 6.55029000 4.99963058 2.10113705
C 2.18343000 1.15095004 6.03744758
O 2.18343000 1.85245020 6.92995279
