&CONTROL
calculation = 'relax'
prefix = 'scf'
pseudo_dir = '/vol0004/mdt0/data/hp150275/u10028/POT_KKJUS'
outdir = './data'
tprnfor = .true.
nstep = 50
disk_io = 'non'
/
&SYSTEM
ibrav = 0
ecutwfc = 50.0
ecutrho = 400
occupations = 'smearing'
smearing = 'mp'
degauss = 0.01
assume_isolated = 'esm'
esm_bc = 'bc1'
input_dft = 'BEEF-VDW'
nosym = .true.
nspin = 1
ntyp = 4
nat = 33
/
&ELECTRONS
electron_maxstep = 200
mixing_beta = 0.1
conv_thr = 1e-06
/
&IONS
ion_dynamics = 'bfgs'
upscale = 1.0
/
&CELL
/

K_POINTS {automatic}
9 6 2 0  0  0

ATOMIC_SPECIES
Al 26.98 Al.pbe-nl-rrkjus_psl.1.0.0.UPF
C 12.01 C.pbe-n-rrkjus_psl.1.0.0.UPF
Pd 106.4 Pd.pbe-n-rrkjus_psl.1.0.0.UPF
Zr 91.22 Zr.pbe-spn-rrkjus_psl.1.0.0.UPF

CELL_PARAMETERS {angstrom}
6.48931000 0.00000000 0.00000000
0.00000000 9.17726000 0.00000000
0.00000000 0.00000000 26.88290000

ATOMIC_POSITIONS {angstrom}
Zr 0.00000000 0.00000000 -3.441548860000001 0 0 0
Zr 3.24465500 2.29431500 -1.1470933399999979 0 0 0
Zr 3.24465500 6.88294500 -1.1470933399999979 0 0 0
Zr 0.00000000 4.58863000 -3.441548860000001 0 0 0
Zr 0.00000000 4.58863000 1.14064145
Zr 3.24465500 7.07465796 3.60795401
Zr 3.24465500 2.10260204 3.60795401
Zr 0.00000000 0.00000000 1.09601583
Al 0.00000000 6.88294500 -1.1470933399999979 0 0 0
Al 3.24465500 0.00000000 -3.441548860000001 0 0 0
Al 0.00000000 2.29431500 -1.1470933399999979 0 0 0
Al 3.24465500 4.58863000 -3.441548860000001 0 0 0
Al 0.00000000 2.33295126 3.28267092
Al 3.24465500 4.58863000 1.27344297
Al 0.00000000 6.84430874 3.28267092
Al 3.24465500 0.00000000 1.20569806
Pd 1.62232750 0.00000000 -1.1470933399999979 0 0 0
Pd 4.86698250 4.58863000 -1.1470933399999979 0 0 0
Pd 4.86698250 0.00000000 -1.1470933399999979 0 0 0
Pd 1.62232750 4.58863000 -1.1470933399999979 0 0 0
Pd 4.86698250 6.88294500 -3.441548860000001 0 0 0
Pd 1.62232750 2.29431500 -3.441548860000001 0 0 0
Pd 1.62232750 6.88294500 -3.441548860000001 0 0 0
Pd 4.86698250 2.29431500 -3.441548860000001 0 0 0
Pd 1.56431307 4.58863000 3.34046915
Pd 5.16905988 0.00000000 3.40445046
Pd 4.92499693 4.58863000 3.34046915
Pd 1.32025012 0.00000000 3.40445046
Pd 4.74303668 2.29633400 1.18230994
Pd 1.74627332 6.88092600 1.18230994
Pd 1.74627332 2.29633400 1.18204111
Pd 4.74303668 6.88092600 1.18204111
C 3.24465500 0.00000000 4.17867798
