&CONTROL
calculation = 'relax'
prefix = 'scf'
pseudo_dir = '/vol0004/mdt0/data/hp150275/u10028/POT_KKJUS'
outdir = './data'
tprnfor = .true.
nstep = 50
disk_io = 'non'
/
&SYSTEM
ibrav = 0
ecutwfc = 50.0
ecutrho = 400
occupations = 'smearing'
smearing = 'mp'
degauss = 0.01
assume_isolated = 'esm'
esm_bc = 'bc1'
input_dft = 'BEEF-VDW'
nosym = .true.
nspin = 1
ntyp = 3
nat = 33
/
&ELECTRONS
electron_maxstep = 200
mixing_beta = 0.1
conv_thr = 1e-06
/
&IONS
ion_dynamics = 'bfgs'
upscale = 1.0
/
&CELL
/

K_POINTS {automatic}
9 6 2 0  0  0

ATOMIC_SPECIES
Be 9.012 Be.pbe-n-rrkjus_psl.1.0.0.UPF
C 12.01 C.pbe-n-rrkjus_psl.1.0.0.UPF
Ti 47.86 Ti.pbe-spn-rrkjus_psl.1.0.0.UPF

CELL_PARAMETERS {angstrom}
5.87849000 0.00000000 0.00000000
0.00000000 8.31345000 0.00000000
0.00000000 0.00000000 26.23510000

ATOMIC_POSITIONS {angstrom}
Ti 1.46962250 2.07836250 -3.1175169300000007 0 0 0
Ti 1.46962250 0.00000000 -1.0391723099999979 0 0 0
Ti 1.46962250 2.07836250 1.14568682
Ti 1.46962250 0.06376416 3.31244373
Ti 1.46962250 6.23508750 -3.1175169300000007 0 0 0
Ti 1.46962250 4.15672500 -1.0391723099999979 0 0 0
Ti 1.46962250 6.23508750 0.95180943
Ti 1.46962250 4.09304397 3.31244373
Ti 4.40886750 2.07836250 -3.1175169300000007 0 0 0
Ti 4.40886750 0.00000000 -1.0391723099999979 0 0 0
Ti 4.40886750 2.07827937 1.01687248
Ti 4.40886750 8.05980664 3.02831759
Ti 4.40886750 6.23508750 -3.1175169300000007 0 0 0
Ti 4.40886750 4.15672500 -1.0391723099999979 0 0 0
Ti 4.40886750 6.23508750 0.95889290
Ti 4.40886750 4.41045149 3.02857994
Be 0.00000000 0.00000000 -3.1175169300000007 0 0 0
Be 0.00000000 2.07836250 -1.0391723099999979 0 0 0
Be 0.06384040 8.30206057 1.09977539
Be 5.68755664 2.07827937 3.13614385
Be 0.00000000 4.15672500 -3.1175169300000007 0 0 0
Be 0.00000000 6.23508750 -1.0391723099999979 0 0 0
Be 0.06384040 4.16811443 1.10003774
Be 0.21156686 6.23517063 2.95722047
Be 2.93924500 0.00000000 -3.1175169300000007 0 0 0
Be 2.93924500 2.07836250 -1.0391723099999979 0 0 0
Be 2.87540460 8.30206057 1.09977539
Be 3.13017836 2.07827937 3.13614385
Be 2.93924500 4.15672500 -3.1175169300000007 0 0 0
Be 2.93924500 6.23508750 -1.0391723099999979 0 0 0
Be 2.87540460 4.16811443 1.10003774
Be 2.72767814 6.23517063 2.95722047
C 1.46962250 2.07836250 3.53019506
