&CONTROL
calculation = 'relax'
prefix = 'scf'
pseudo_dir = '/vol0004/mdt0/data/hp150275/u10028/POT_HYBRID_KKJUS_GBRV'
outdir = './data'
tprnfor = .true.
nstep = 50
disk_io = 'non'
/
&SYSTEM
ibrav = 0
ecutwfc = 50.0
ecutrho = 400
occupations = 'smearing'
smearing = 'mp'
degauss = 0.01
assume_isolated = 'esm'
esm_bc = 'bc1'
input_dft = 'BEEF-VDW'
nosym = .true.
nspin = 2
ntyp = 5
nat = 34
starting_magnetization(1) = 0.0
starting_magnetization(2) = 0.1
starting_magnetization(3) = 0.0
starting_magnetization(4) = 0.0
starting_magnetization(5) = 0.0
/
&ELECTRONS
electron_maxstep = 200
mixing_beta = 0.1
conv_thr = 1e-06
/
&IONS
ion_dynamics = 'bfgs'
upscale = 1.0
/
&CELL
/

K_POINTS {automatic}
9 6 2 0  0  0

ATOMIC_SPECIES
C 12.01 C.pbe-n-rrkjus_psl.1.0.0.UPF
Co 58.93 co_pbe_v1.2.uspp.F.UPF
O 15.99 O.pbe-n-rrkjus_psl.1.0.0.UPF
Sn 118.7 Sn.pbe-dn-rrkjus_psl.1.0.0.UPF
Ti 47.86 Ti.pbe-spn-rrkjus_psl.1.0.0.UPF

CELL_PARAMETERS {angstrom}
6.11439000 0.00000000 0.00000000
0.00000000 8.64705000 0.00000000
0.00000000 0.00000000 26.48530000

ATOMIC_POSITIONS {angstrom}
Ti 0.00000000 0.00000000 23.24270472
Ti 3.05719500 2.16176250 25.40443491
Ti 3.05719500 6.48528750 25.40443491
Ti 0.00000000 4.32352500 23.24270472
Ti 0.00317948 4.32352500 1.11767966
Ti 3.06422655 6.47257634 3.22537983
Ti 3.06422655 2.17447366 3.22537983
Ti 6.09922631 0.00000000 1.10019936
Co 1.52859750 0.00000000 25.40443491
Co 4.58579250 4.32352500 25.40443491
Co 4.58579250 0.00000000 25.40443491
Co 1.52859750 4.32352500 25.40443491
Co 4.58579250 6.48528750 23.24270472
Co 1.52859750 2.16176250 23.24270472
Co 1.52859750 6.48528750 23.24270472
Co 4.58579250 2.16176250 23.24270472
Co 1.53599591 4.32352500 3.15890173
Co 4.57093453 0.00000000 3.14751305
Co 4.56922250 4.32352500 3.17320379
Co 1.55592882 0.00000000 3.36919501
Co 4.57282999 2.16089780 1.09039980
Co 1.53605706 6.49618278 1.09675627
Co 1.53605706 2.15086722 1.09675627
Co 4.57282999 6.48615221 1.09039980
Sn 0.00000000 6.48528750 25.40443491
Sn 3.05719500 0.00000000 23.24270472
Sn 0.00000000 2.16176250 25.40443491
Sn 3.05719500 4.32352500 23.24270472
Sn 6.09525196 2.18061307 3.32867250
Sn 3.05646127 4.32352500 1.09887510
Sn 6.09525196 6.46643693 3.32867250
Sn 3.05334293 0.00000000 1.09543201
C 1.58912996 0.00000000 5.07776172
O 1.51685787 0.00000000 6.22589947
