&CONTROL
calculation = 'relax'
prefix = 'scf'
pseudo_dir = '/vol0004/mdt0/data/hp150275/u10028/POT_HYBRID_KKJUS_GBRV'
outdir = './data'
tprnfor = .true.
nstep = 70
disk_io = 'non'
/
&SYSTEM
ibrav = 0
ecutwfc = 50.0
ecutrho = 400
occupations = 'smearing'
smearing = 'mp'
degauss = 0.01
assume_isolated = 'esm'
esm_bc = 'bc1'
input_dft = 'BEEF-VDW'
nosym = .true.
nspin = 1
ntyp = 2
nat = 16
/
&ELECTRONS
electron_maxstep = 200
mixing_beta = 0.1
conv_thr = 1e-06
/
&IONS
ion_dynamics = 'bfgs'
upscale = 1.0
/
&CELL
/

K_POINTS {automatic}
8 8 1 0 0 0

ATOMIC_SPECIES
Bi 208.9 Bi.pbe-dn-rrkjus_psl.1.0.0.UPF
Na 22.98 Na.pbe-spnl-rrkjus_psl.1.0.0.UPF

CELL_PARAMETERS {angstrom}
6.99788000 0.00000000 0.00000000
-0.00000000 6.99788000 0.00000000
0.00000000 0.00000000 27.33890000

ATOMIC_POSITIONS {angstrom}
Na 0.00000000 0.00000000 -2.688780819999998 0 0 0
Na 0.00000000 0.00000000 2.20378873
Na 0.00000000 3.49894000 -2.688780819999998 0 0 0
Na 0.00000000 3.49894000 2.20378873
Na 3.49894000 0.00000000 -2.688780819999998 0 0 0
Na 3.49894000 -0.00000000 2.20378873
Na 3.49894000 3.49894000 -2.688780819999998 0 0 0
Na 3.49894000 3.49894000 2.20378873
Bi 1.74947000 1.74947000 -0.2424960399999989 0 0 0
Bi 1.74947000 1.74947000 4.65007350
Bi 1.74947000 5.24841000 -0.2424960399999989 0 0 0
Bi 1.74947000 5.24841000 4.65007350
Bi 5.24841000 1.74947000 -0.2424960399999989 0 0 0
Bi 5.24841000 1.74947000 4.65007350
Bi 5.24841000 5.24841000 -0.2424960399999989 0 0 0
Bi 5.24841000 5.24841000 4.65007350
