&CONTROL
calculation = 'relax'
prefix = 'scf'
pseudo_dir = '/vol0004/mdt0/data/hp150275/u10028/POT_KKJUS'
outdir = './data'
tprnfor = .true.
nstep = 50
disk_io = 'non'
/
&SYSTEM
ibrav = 0
ecutwfc = 50.0
ecutrho = 400
occupations = 'smearing'
smearing = 'mp'
degauss = 0.01
assume_isolated = 'esm'
esm_bc = 'bc1'
input_dft = 'BEEF-VDW'
nosym = .true.
nspin = 1
ntyp = 5
nat = 34
/
&ELECTRONS
electron_maxstep = 200
mixing_beta = 0.1
conv_thr = 1e-06
/
&IONS
ion_dynamics = 'bfgs'
upscale = 1.0
/
&CELL
/

K_POINTS {automatic}
8 6 1 0 0 0

ATOMIC_SPECIES
Au 196.9 Au.pbe-n-rrkjus_psl.1.0.0.UPF
C 12.01 C.pbe-n-rrkjus_psl.1.0.0.UPF
Li 6.941 Li.pbe-sl-rrkjus_psl.1.0.0.UPF
O 15.99 O.pbe-n-rrkjus_psl.1.0.0.UPF
Sb 121.7 Sb.pbe-n-rrkjus_psl.1.0.0.UPF

CELL_PARAMETERS {angstrom}
6.66546000 0.00000000 0.00000000
0.00000000 9.42638000 0.00000000
0.00000000 0.00000000 27.06980000

ATOMIC_POSITIONS {angstrom}
Li 0.00000000 7.06978500 -1.17834839 0 0 0
Li 3.33273000 0.00000000 -3.5347744799999994 0 0 0
Li 0.00000000 2.35659500 -1.17834839 0 0 0
Li 3.33273000 4.71319000 -3.5347744799999994 0 0 0
Li 1.66636500 2.35659500 -3.5347744799999994 0 0 0
Li 1.66636500 7.06978500 -3.5347744799999994 0 0 0
Li 4.99909500 4.71319000 -1.17834839 0 0 0
Li 4.99909500 0.00000000 -1.17834839 0 0 0
Li 0.21136174 2.35357856 3.39644781
Li 3.38951972 4.71319000 0.97776118
Li 0.21136174 7.07280144 3.39671850
Li 3.41491512 0.00000000 1.03108868
Li 1.81207196 7.07327276 1.27065641
Li 1.81220526 2.35310724 1.27065641
Li 4.71674611 0.00000000 3.51934470
Li 4.63942678 4.71319000 3.39482362
Sb 0.00000000 0.00000000 -3.5347744799999994 0 0 0
Sb 3.33273000 2.35659500 -1.17834839 0 0 0
Sb 3.33273000 7.06978500 -1.17834839 0 0 0
Sb 0.00000000 4.71319000 -3.5347744799999994 0 0 0
Sb 6.51008813 4.71319000 1.19783865
Sb 3.14929654 7.04207144 3.92024844
Sb 3.14929654 2.38440282 3.92024844
Sb 6.53561684 0.00000000 1.22788613
Au 1.66636500 0.00000000 -1.17834839 0 0 0
Au 1.66636500 4.71319000 -1.17834839 0 0 0
Au 4.99909500 7.06978500 -3.5347744799999994 0 0 0
Au 4.99909500 2.35659500 -3.5347744799999994 0 0 0
Au 1.81080552 4.71319000 3.13711912
Au 1.87326088 0.00000000 3.18801035
Au 4.84152353 2.35612368 1.56977770
Au 4.84165683 7.07025632 1.56950700
C 5.14593508 0.00000000 5.59289138
O 5.18226184 9.42628574 6.73280066
