&CONTROL
calculation = 'relax'
prefix = 'scf'
pseudo_dir = '/vol0004/mdt0/data/hp150275/u10028/POT_KKJUS'
outdir = './data'
tprnfor = .true.
nstep = 50
disk_io = 'non'
/
&SYSTEM
ibrav = 0
ecutwfc = 50.0
ecutrho = 400
occupations = 'smearing'
smearing = 'mp'
degauss = 0.01
assume_isolated = 'esm'
esm_bc = 'bc1'
input_dft = 'BEEF-VDW'
nosym = .true.
nspin = 1
ntyp = 4
nat = 33
/
&ELECTRONS
electron_maxstep = 200
mixing_beta = 0.1
conv_thr = 1e-06
/
&IONS
ion_dynamics = 'bfgs'
upscale = 1.0
/
&CELL
/

K_POINTS {automatic}
9 6 2 0  0  0

ATOMIC_SPECIES
C 12.01 C.pbe-n-rrkjus_psl.1.0.0.UPF
Ge 72.64 Ge.pbe-dn-rrkjus_psl.1.0.0.UPF
Ni 58.69 Ni.pbe-spn-rrkjus_psl.1.0.0.UPF
Zn 65.40 Zn.pbe-dnl-rrkjus_psl.1.0.0.UPF

CELL_PARAMETERS {angstrom}
5.89777000 0.00000000 0.00000000
0.00000000 8.34071000 0.00000000
0.00000000 0.00000000 26.25550000

ATOMIC_POSITIONS {angstrom}
Zn 0.00000000 0.00000000 -3.127817710000002 0 0 0
Zn 2.94888500 2.08517750 -1.0426059100000025 0 0 0
Zn 2.94888500 6.25553250 -1.0426059100000025 0 0 0
Zn 0.00000000 4.17035500 -3.127817710000002 0 0 0
Zn 0.00949541 4.18019704 0.99455834
Zn 2.84732540 6.25569931 3.29217715
Zn 3.13071325 2.08442684 3.98453468
Zn 0.00955439 8.33095137 0.99455834
Ni 1.47444250 0.00000000 -1.0426059100000025 0 0 0
Ni 4.42332750 4.17035500 -1.0426059100000025 0 0 0
Ni 4.42332750 0.00000000 -1.0426059100000025 0 0 0
Ni 1.47444250 4.17035500 -1.0426059100000025 0 0 0
Ni 4.42332750 6.25553250 -3.127817710000002 0 0 0
Ni 1.47444250 2.08517750 -3.127817710000002 0 0 0
Ni 1.47444250 6.25553250 -3.127817710000002 0 0 0
Ni 4.42332750 2.08517750 -3.127817710000002 0 0 0
Ni 1.53318429 4.03423461 2.92643803
Ni 4.42267875 8.20233762 2.93851556
Ni 4.42244283 4.30922782 2.93825300
Ni 1.53359713 0.13620379 2.92643803
Ni 4.44149263 2.08526091 0.95963853
Ni 1.49007159 6.25561591 1.06098476
Ni 1.50841366 2.08534431 1.09380413
Ni 4.41300640 6.25553250 1.05415832
Ge 0.00000000 6.25553250 -1.0426059100000025 0 0 0
Ge 2.94888500 0.00000000 -3.127817710000002 0 0 0
Ge 0.00000000 2.08517750 -1.0426059100000025 0 0 0
Ge 2.94888500 4.17035500 -3.127817710000002 0 0 0
Ge 5.39769808 2.08551113 3.25751989
Ge 2.97784305 4.16776938 1.00164733
Ge 0.06876800 6.25578272 3.21682386
Ge 2.97790203 0.00266903 1.00164733
C 1.40066140 2.08534431 3.09631111
