&CONTROL
calculation = 'relax'
prefix = 'scf'
pseudo_dir = '/vol0403/data/hp230205/u10028/POT_HYBRID_KKJUS_GBRV'
outdir = './data'
tprnfor = .true.
nstep = 50
disk_io = 'non'
/
&SYSTEM
ibrav = 0
ecutwfc = 50.0
ecutrho = 400
occupations = 'smearing'
smearing = 'mp'
degauss = 0.01
assume_isolated = 'esm'
esm_bc = 'bc1'
input_dft = 'BEEF-VDW'
nosym = .true.
nspin = 1
ntyp = 5
nat = 17
/
&ELECTRONS
electron_maxstep = 200
mixing_beta = 0.1
conv_thr = 1e-06
/
&IONS
ion_dynamics = 'bfgs'
upscale = 1.0
/
&CELL
/

K_POINTS {automatic}
6 6 1 0 0 0

ATOMIC_SPECIES
C 12.01 C.pbe-n-rrkjus_psl.1.0.0.UPF
In 114.8 In.pbe-dn-rrkjus_psl.1.0.0.UPF
Pd 106.4 Pd.pbe-n-rrkjus_psl.1.0.0.UPF
Sn 118.7 Sn.pbe-dn-rrkjus_psl.1.0.0.UPF
Y 88.90 Y.pbe-spn-rrkjus_psl.1.0.0.UPF


CELL_PARAMETERS {angstrom}
6.29351000 0.00000000 0.00000000
0.00000000 9.16402000 0.00000000
0.00000000 0.00000000 24.71690000

ATOMIC_POSITIONS {angstrom}
Y 4.90100798 2.29100500 0.63028095
Y 1.39829205 2.29100500 -2.358486599999999 0 0 0
Y 5.16300680 6.87301500 0.94294974
Y 1.39829205 6.87301500 -2.358486599999999 0 0 0
In 5.95624080 0.54315147 3.31280611
In 3.03001039 0.00000000 -0.786244589999999 0 0 0
In 5.95617786 4.03876689 3.31280611
In 3.03001039 4.58201000 -0.786244589999999 0 0 0
Sn 1.66740254 2.29100500 1.11127182
Sn 4.54504705 2.29100500 -2.358486599999999 0 0 0
Sn 2.01738463 6.87301500 1.40391992
Sn 4.54504705 6.87301500 -2.358486599999999 0 0 0
Pd 3.44991338 0.19913415 2.02777448
Pd 6.17676539 0.00000000 -0.786244589999999 0 0 0
Pd 3.44991338 4.38296749 2.02777448
Pd 6.17676539 4.58201000 -0.786244589999999 0 0 0
C 4.40885550 2.29100500 2.84194916
