&CONTROL
calculation = 'relax'
prefix = 'scf'
pseudo_dir = '/vol0004/mdt0/data/hp150275/u10028/POT_KKJUS'
outdir = './data'
tprnfor = .true.
nstep = 50
disk_io = 'non'
/
&SYSTEM
ibrav = 0
ecutwfc = 50.0
ecutrho = 400
occupations = 'smearing'
smearing = 'mp'
degauss = 0.01
assume_isolated = 'esm'
esm_bc = 'bc1'
input_dft = 'BEEF-VDW'
nosym = .true.
nspin = 1
ntyp = 2
nat = 16
/
&ELECTRONS
electron_maxstep = 200
mixing_beta = 0.1
conv_thr = 1e-06
/
&IONS
ion_dynamics = 'bfgs'
upscale = 1.0
/
&CELL
/

K_POINTS {automatic}
6 8 1 0 0 0

ATOMIC_SPECIES
Na 22.98 Na.pbe-spnl-rrkjus_psl.1.0.0.UPF
Pb 207.2 Pb.pbe-dn-rrkjus_psl.1.0.0.UPF

CELL_PARAMETERS {angstrom}
10.02390000 0.00000000 0.00000000
0.00000000 7.08799000 0.00000000
0.00000000 0.00000000 25.31600000

ATOMIC_POSITIONS {angstrom}
Na 0.00000000 0.00000000 2.56375132
Na 0.00000000 3.54399500 -0.8860600000000005 0 0 0
Na 5.01195000 0.00000000 2.56780188
Na 5.01195000 3.54399500 -0.8860600000000005 0 0 0
Pb 0.00000000 3.54399500 2.49210704
Pb 2.50607524 5.19677251 0.87770572
Pb 2.50607524 1.89121749 0.87770572
Pb 0.00000000 0.00000000 -0.8860600000000005 0 0 0
Pb 2.50597500 1.77199750 -2.6579268399999982 0 0 0
Pb 2.50597500 5.31599250 -2.6579268399999982 0 0 0
Pb 5.01195000 3.54399500 2.49210704
Pb 7.51782476 5.19684339 0.87770572
Pb 7.51782476 1.89121749 0.87770572
Pb 5.01195000 0.00000000 -0.8860600000000005 0 0 0
Pb 7.51792500 1.77199750 -2.6579268399999982 0 0 0
Pb 7.51792500 5.31599250 -2.6579268399999982 0 0 0
