&CONTROL
calculation = 'relax'
prefix = 'scf'
pseudo_dir = '/vol0004/mdt0/data/hp150275/u10028/POT_KKJUS'
outdir = './data'
tprnfor = .true.
nstep = 50
disk_io = 'non'
/
&SYSTEM
ibrav = 0
ecutwfc = 50.0
ecutrho = 400
occupations = 'smearing'
smearing = 'mp'
degauss = 0.01
assume_isolated = 'esm'
esm_bc = 'bc1'
input_dft = 'BEEF-VDW'
nosym = .true.
nspin = 1
ntyp = 4
nat = 34
/
&ELECTRONS
electron_maxstep = 200
mixing_beta = 0.1
conv_thr = 1e-06
/
&IONS
ion_dynamics = 'bfgs'
upscale = 1.0
/
&CELL
/

K_POINTS {automatic}
8 6 1 0 0 0

ATOMIC_SPECIES
C 12.01 C.pbe-n-rrkjus_psl.1.0.0.UPF
Ga 69.72 Ga.pbe-dnl-rrkjus_psl.1.0.0.UPF
O 15.99 O.pbe-n-rrkjus_psl.1.0.0.UPF
Ru 101.0 Ru.pbe-spn-rrkjus_psl.1.0.0.UPF

CELL_PARAMETERS {angstrom}
6.07363000 0.00000000 0.00000000
0.00000000 8.58941000 0.00000000
0.00000000 0.00000000 26.44210000

ATOMIC_POSITIONS {angstrom}
Ga 0.00000000 0.00000000 -3.220912200000001 0 0 0
Ga 0.00000000 2.14735250 -1.07354926 0 0 0
Ga 0.02714913 0.00000000 1.05874168
Ga 6.06852815 2.14975753 3.30103176
Ga 0.00000000 4.29470500 -3.220912200000001 0 0 0
Ga 0.00000000 6.44205750 -1.07354926 0 0 0
Ga 6.04812075 4.29470500 1.03785243
Ga 6.06852815 6.43965247 3.30103176
Ga 3.03681500 0.00000000 -3.220912200000001 0 0 0
Ga 3.03681500 2.14735250 -1.07354926 0 0 0
Ga 3.00741863 0.00000000 1.05953495
Ga 3.04543955 2.14846912 3.30129618
Ga 3.03681500 4.29470500 -3.220912200000001 0 0 0
Ga 3.03681500 6.44205750 -1.07354926 0 0 0
Ga 3.06499664 4.29470500 1.03758800
Ga 3.04543955 6.44094088 3.30129618
Ru 1.51840750 2.14735250 -3.220912200000001 0 0 0
Ru 1.51840750 0.00000000 -1.07354926 0 0 0
Ru 1.51871118 2.15138952 1.05662632
Ru 1.51658541 0.00000000 3.36555049
Ru 1.51840750 6.44205750 -3.220912200000001 0 0 0
Ru 1.51840750 4.29470500 -1.07354926 0 0 0
Ru 1.51871118 6.43802048 1.05689074
Ru 1.52047253 4.29479089 3.08262002
Ru 4.55522250 2.14735250 -3.220912200000001 0 0 0
Ru 4.55522250 0.00000000 -1.07354926 0 0 0
Ru 4.55558692 2.12424699 1.03018422
Ru 4.55552618 0.00000000 3.09636991
Ru 4.55522250 6.44205750 -3.220912200000001 0 0 0
Ru 4.55522250 4.29470500 -1.07354926 0 0 0
Ru 4.55558692 6.46516301 1.03018422
Ru 4.55637649 4.29470500 3.14290801
C 1.51117988 0.00000000 5.23421369
O 1.50996515 0.00000000 6.39581515
