&CONTROL
calculation = 'relax'
prefix = 'scf'
pseudo_dir = '/vol0403/data/hp230205/u10028/POT_HYBRID_KKJUS_GBRV'
outdir = './data'
tprnfor = .true.
nstep = 50
disk_io = 'non'
/
&SYSTEM
ibrav = 0
ecutwfc = 50.0
ecutrho = 400
occupations = 'smearing'
smearing = 'mp'
degauss = 0.01
assume_isolated = 'esm'
esm_bc = 'bc1'
input_dft = 'BEEF-VDW'
nosym = .true.
nspin = 1
ntyp = 6
nat = 34
/
&ELECTRONS
electron_maxstep = 200
mixing_beta = 0.1
conv_thr = 1e-06
/
&IONS
ion_dynamics = 'bfgs'
upscale = 1.0
/
&CELL
/

K_POINTS {automatic}
6 6 1 0 0 0

ATOMIC_SPECIES
Ag 107.8 Ag.pbe-n-rrkjus_psl.1.0.0.UPF
C 12.01 C.pbe-n-rrkjus_psl.1.0.0.UPF
Li 6.941 Li.pbe-sl-rrkjus_psl.1.0.0.UPF
O 15.99 O.pbe-n-rrkjus_psl.1.0.0.UPF
Sn 118.7 Sn.pbe-dn-rrkjus_psl.1.0.0.UPF
Y 88.90 Y.pbe-spn-rrkjus_psl.1.0.0.UPF


CELL_PARAMETERS {angstrom}
7.11214000 0.00000000 0.00000000
0.00000000 10.05810000 0.00000000
0.00000000 0.00000000 27.54360000

ATOMIC_POSITIONS {angstrom}
Li 1.77803500 0.00000000 -1.2573653399999998 0 0 0
Li 1.77803500 5.02905000 -1.2573653399999998 0 0 0
Li 5.33410500 2.51452500 -3.77182058 0 0 0
Li 5.33410500 7.54357500 -3.77182058 0 0 0
Li 1.74965756 5.03065930 3.67596886
Li 1.74766616 9.85009849 3.66880752
Li 5.40373285 7.54166396 1.13314370
Li 5.37734681 2.45990952 1.30143510
Y 5.33410500 0.00000000 -1.2573653399999998 0 0 0
Y 5.33410500 5.02905000 -1.2573653399999998 0 0 0
Y 1.77803500 2.51452500 -3.77182058 0 0 0
Y 1.77803500 7.54357500 -3.77182058 0 0 0
Y 5.46923566 4.65508984 3.97812215
Y 5.48986087 0.09736241 3.87483365
Y 1.78464929 7.48322640 1.27306519
Y 1.78287126 2.50014192 1.28573525
Ag 0.00000000 0.00000000 -3.77182058 0 0 0
Ag 0.00000000 5.02905000 -3.77182058 0 0 0
Ag 3.55607000 7.54357500 -1.2573653399999998 0 0 0
Ag 3.55607000 2.51452500 -1.2573653399999998 0 0 0
Ag 7.02451844 5.03317382 1.32099106
Ag 7.09300834 10.01585598 1.28435807
Ag 3.40913319 2.39241967 3.74785765
Ag 3.95648348 7.42931498 3.43275887
Sn 0.00000000 2.51452500 -1.2573653399999998 0 0 0
Sn 0.00000000 7.54357500 -1.2573653399999998 0 0 0
Sn 3.55607000 5.02905000 -3.77182058 0 0 0
Sn 3.55607000 0.00000000 -3.77182058 0 0 0
Sn 7.03895608 7.43343881 3.80900444
Sn 0.40944590 2.38266331 4.08361414
Sn 3.62726252 10.00599904 1.39425703
Sn 3.67747423 5.00380417 1.42152520
C 4.93945235 3.42065923 6.00533111
O 4.73611627 2.90568451 7.02527062
