&CONTROL
calculation = 'relax'
prefix = 'scf'
pseudo_dir = '/vol0004/mdt0/data/hp150275/u10028/POT_HYBRID_KKJUS_GBRV'
outdir = './data'
tprnfor = .true.
nstep = 50
disk_io = 'non'
/
&SYSTEM
ibrav = 0
ecutwfc = 50.0
ecutrho = 400
occupations = 'smearing'
smearing = 'mp'
degauss = 0.01
assume_isolated = 'esm'
esm_bc = 'bc1'
input_dft = 'BEEF-VDW'
nosym = .true.
nspin = 2
ntyp = 4
nat = 33
starting_magnetization(1) = 0.0
starting_magnetization(2) = 0.1
starting_magnetization(3) = 0.1
starting_magnetization(4) = 0.0
/
&ELECTRONS
electron_maxstep = 300
mixing_beta = 0.1
conv_thr = 1e-06
/
&IONS
ion_dynamics = 'bfgs'
upscale = 1.0
/
&CELL
/

K_POINTS {automatic}
9 6 2 0  0  0

ATOMIC_SPECIES
C 12.01 C.pbe-n-rrkjus_psl.1.0.0.UPF
Co 58.93 co_pbe_v1.2.uspp.F.UPF
Fe 55.84 fe_pbe_v1.5.uspp.F.UPF
Ga 69.72 Ga.pbe-dnl-rrkjus_psl.1.0.0.UPF

CELL_PARAMETERS {angstrom}
5.79866000 0.00000000 0.00000000
0.00000000 8.20054000 0.00000000
0.00000000 0.00000000 26.15040000

ATOMIC_POSITIONS {angstrom}
Ga 0.00000000 0.00000000 -3.0752870400000027 0 0 0
Ga 2.89933000 2.05013500 -1.0250956799999997 0 0 0
Ga 2.89933000 6.15040500 -1.0250956799999997 0 0 0
Ga 0.00000000 4.10027000 -3.0752870400000027 0 0 0
Ga 0.00000000 4.09985997 1.00835942
Ga 2.89933000 6.09570740 3.50624563
Ga 2.89933000 2.10475060 3.50598413
Ga 0.00000000 0.00049203 0.99371520
Fe 1.44966500 0.00000000 -1.0250956799999997 0 0 0
Fe 4.34899500 4.10027000 -1.0250956799999997 0 0 0
Fe 4.34899500 0.00000000 -1.0250956799999997 0 0 0
Fe 1.44966500 4.10027000 -1.0250956799999997 0 0 0
Fe 4.34899500 6.15040500 -3.0752870400000027 0 0 0
Fe 1.44966500 2.05013500 -3.0752870400000027 0 0 0
Fe 1.44966500 6.15040500 -3.0752870400000027 0 0 0
Fe 4.34899500 2.05013500 -3.0752870400000027 0 0 0
Fe 1.44195278 4.10010599 3.04913664
Fe 4.11890417 0.00016401 2.95787174
Fe 4.35670722 4.10010599 3.04913664
Fe 1.67975583 0.00016401 2.95787174
Fe 4.27262665 2.04267251 1.16107776
Fe 1.52603335 6.15794950 1.16107776
Fe 1.52609134 2.04267251 1.16107776
Fe 4.27262665 6.15794950 1.16107776
Co 0.00000000 6.15040500 -1.0250956799999997 0 0 0
Co 2.89933000 0.00000000 -3.0752870400000027 0 0 0
Co 0.00000000 2.05013500 -1.0250956799999997 0 0 0
Co 2.89933000 4.10027000 -3.0752870400000027 0 0 0
Co 0.00000000 1.94369199 3.02638579
Co 2.89933000 4.09985997 0.97540992
Co 0.00000000 6.25693001 3.02664730
Co 2.89933000 0.00041003 0.80046374
C 0.00000000 0.00000000 3.62758349
