&CONTROL
calculation = 'relax'
prefix = 'scf'
pseudo_dir = '/vol0004/mdt0/data/hp150275/u10028/POT_KKJUS'
outdir = './data'
tprnfor = .true.
nstep = 50
disk_io = 'non'
/
&SYSTEM
ibrav = 0
ecutwfc = 50.0
ecutrho = 400
occupations = 'smearing'
smearing = 'mp'
degauss = 0.01
assume_isolated = 'esm'
esm_bc = 'bc1'
input_dft = 'BEEF-VDW'
nosym = .true.
nspin = 1
ntyp = 4
nat = 33
/
&ELECTRONS
electron_maxstep = 200
mixing_beta = 0.1
conv_thr = 1e-06
/
&IONS
ion_dynamics = 'bfgs'
upscale = 1.0
/
&CELL
/

K_POINTS {automatic}
8 6 1 0 0 0

ATOMIC_SPECIES
C 12.01 C.pbe-n-rrkjus_psl.1.0.0.UPF
Ni 58.69 Ni.pbe-spn-rrkjus_psl.1.0.0.UPF
Sn 118.7 Sn.pbe-dn-rrkjus_psl.1.0.0.UPF
Ti 47.86 Ti.pbe-spn-rrkjus_psl.1.0.0.UPF

CELL_PARAMETERS {angstrom}
6.14888000 0.00000000 0.00000000
0.00000000 8.69583000 0.00000000
0.00000000 0.00000000 26.52190000

ATOMIC_POSITIONS {angstrom}
Ti 0.00000000 0.00000000 -3.2608676099999983 0 0 0
Ti 3.07444000 2.17395750 -1.086867459999997 0 0 0
Ti 3.07444000 6.52187250 -1.086867459999997 0 0 0
Ti 0.00000000 4.34791500 -3.2608676099999983 0 0 0
Ti 0.00000000 4.34800196 1.12638509
Ti 3.07444000 6.67170165 3.30356786
Ti 3.07444000 2.02412835 3.30330264
Ti 0.00000000 8.69574304 1.07307607
Ni 1.53722000 0.00000000 -1.086867459999997 0 0 0
Ni 4.61166000 4.34791500 -1.086867459999997 0 0 0
Ni 4.61166000 0.00000000 -1.086867459999997 0 0 0
Ni 1.53722000 4.34791500 -1.086867459999997 0 0 0
Ni 4.61166000 6.52187250 -3.2608676099999983 0 0 0
Ni 1.53722000 2.17395750 -3.2608676099999983 0 0 0
Ni 1.53722000 6.52187250 -3.2608676099999983 0 0 0
Ni 4.61166000 2.17395750 -3.2608676099999983 0 0 0
Ni 1.61315867 4.34791500 3.15371913
Ni 4.85933689 0.00008696 3.17016271
Ni 4.53572133 4.34791500 3.15371913
Ni 1.28948162 0.00008696 3.17016271
Ni 4.61910014 2.17213138 1.16086356
Ni 1.53039474 6.52361167 1.16059834
Ni 1.52977986 2.17213138 1.16086356
Ni 4.61854675 6.52361167 1.16059834
Sn 0.00000000 6.52187250 -1.086867459999997 0 0 0
Sn 3.07444000 0.00000000 -3.2608676099999983 0 0 0
Sn 0.00000000 2.17395750 -1.086867459999997 0 0 0
Sn 3.07444000 4.34791500 -3.2608676099999983 0 0 0
Sn 0.00000000 2.26752463 3.47357324
Sn 3.07444000 4.34765413 1.05238899
Sn 0.00000000 6.42839233 3.47330802
Sn 3.07444000 0.00008696 1.06326297
C 3.07444000 0.00000000 3.77884031
