&CONTROL
calculation = 'relax'
prefix = 'scf'
pseudo_dir = '/vol0004/mdt0/data/hp150275/u10028/POT_KKJUS'
outdir = './data'
tprnfor = .true.
nstep = 50
disk_io = 'non'
/
&SYSTEM
ibrav = 0
ecutwfc = 50.0
ecutrho = 400
occupations = 'smearing'
smearing = 'mp'
degauss = 0.01
assume_isolated = 'esm'
esm_bc = 'bc1'
input_dft = 'BEEF-VDW'
nosym = .true.
nspin = 1
ntyp = 4
nat = 33
/
&ELECTRONS
electron_maxstep = 200
mixing_beta = 0.1
conv_thr = 1e-06
/
&IONS
ion_dynamics = 'bfgs'
upscale = 1.0
/
&CELL
/

K_POINTS {automatic}
9 6 2 0  0  0

ATOMIC_SPECIES
C 12.01 C.pbe-n-rrkjus_psl.1.0.0.UPF
Ge 72.64 Ge.pbe-dn-rrkjus_psl.1.0.0.UPF
Li 6.941 Li.pbe-sl-rrkjus_psl.1.0.0.UPF
Ni 58.69 Ni.pbe-spn-rrkjus_psl.1.0.0.UPF

CELL_PARAMETERS {angstrom}
5.73354000 0.00000000 0.00000000
0.00000000 8.10846000 0.00000000
0.00000000 0.00000000 26.08130000

ATOMIC_POSITIONS {angstrom}
Li 0.00000000 0.00000000 -3.04055795 0 0 0
Li 2.86677000 2.02711500 -1.0135193200000003 0 0 0
Li 2.86677000 6.08134500 -1.0135193200000003 0 0 0
Li 0.00000000 4.05423000 -3.04055795 0 0 0
Li 0.00000000 4.05423000 0.86407347
Li 2.86677000 5.95817749 3.58722200
Li 2.86677000 2.15036359 3.58696119
Li 0.00000000 0.00008108 1.02629916
Ni 1.43338500 0.00000000 -1.0135193200000003 0 0 0
Ni 4.30015500 4.05423000 -1.0135193200000003 0 0 0
Ni 4.30015500 0.00000000 -1.0135193200000003 0 0 0
Ni 1.43338500 4.05423000 -1.0135193200000003 0 0 0
Ni 4.30015500 6.08134500 -3.04055795 0 0 0
Ni 1.43338500 2.02711500 -3.04055795 0 0 0
Ni 1.43338500 6.08134500 -3.04055795 0 0 0
Ni 4.30015500 2.02711500 -3.04055795 0 0 0
Ni 1.28396895 4.05431108 2.85042528
Ni 4.11054683 0.00016217 2.89163373
Ni 4.44957105 4.05431108 2.85068609
Ni 1.62299317 0.00016217 2.89163373
Ni 4.28616516 2.03741274 1.06750761
Ni 1.44708816 6.07080400 1.06750761
Ni 1.44731750 2.03741274 1.06750761
Ni 4.28645184 6.07088509 1.06750761
Ge 0.00000000 6.08134500 -1.0135193200000003 0 0 0
Ge 2.86677000 0.00000000 -3.04055795 0 0 0
Ge 0.00000000 2.02711500 -1.0135193200000003 0 0 0
Ge 2.86677000 4.05423000 -3.04055795 0 0 0
Ge 0.00000000 2.01608749 3.11384641
Ge 2.86677000 4.05406783 1.03647086
Ge 0.00000000 6.09229142 3.11384641
Ge 2.86677000 0.00008108 0.88180875
C 0.00000000 0.00000000 3.68215793
