&CONTROL
calculation = 'relax'
prefix = 'scf'
pseudo_dir = '/vol0004/mdt0/data/hp150275/u10028/POT_KKJUS'
outdir = './data'
tprnfor = .true.
nstep = 50
disk_io = 'non'
/
&SYSTEM
ibrav = 0
ecutwfc = 50.0
ecutrho = 400
occupations = 'smearing'
smearing = 'mp'
degauss = 0.01
assume_isolated = 'esm'
esm_bc = 'bc1'
input_dft = 'BEEF-VDW'
nosym = .true.
nspin = 1
ntyp = 4
nat = 18
/
&ELECTRONS
electron_maxstep = 200
mixing_beta = 0.1
conv_thr = 1e-06
/
&IONS
ion_dynamics = 'bfgs'
upscale = 1.0
/
&CELL
/

K_POINTS {automatic}
8 8 1 0 0 0

ATOMIC_SPECIES
C 12.01 C.pbe-n-rrkjus_psl.1.0.0.UPF
Nb 92.90 Nb.pbe-spn-rrkjus_psl.1.0.0.UPF
O 15.99 O.pbe-n-rrkjus_psl.1.0.0.UPF
Ru 101.0 Ru.pbe-spn-rrkjus_psl.1.0.0.UPF

CELL_PARAMETERS {angstrom}
6.35921000 0.00000000 0.00000000
-0.00000000 6.35921000 0.00000000
0.00000000 0.00000000 24.76940000

ATOMIC_POSITIONS {angstrom}
Nb 1.58980250 1.58980250 -0.8282887400000014 0 0 0
Nb 1.58980250 1.58980250 2.35135914
Nb 1.58980250 4.76940750 -0.8282887400000014 0 0 0
Nb 1.58980250 4.76940750 2.35135914
Nb 4.76940750 1.58980250 -0.8282887400000014 0 0 0
Nb 4.76940750 1.58980250 2.35135914
Nb 4.76940750 4.76940750 -0.8282887400000014 0 0 0
Nb 4.76940750 4.76940750 2.35135914
Ru 0.00000000 0.00000000 -2.4182365200000007 0 0 0
Ru 0.00000000 0.00000000 0.76141136
Ru 0.00000000 3.17960500 -2.4182365200000007 0 0 0
Ru 0.00000000 3.17960500 0.76141136
Ru 3.17960500 0.00000000 -2.4182365200000007 0 0 0
Ru 3.17960500 -0.00000000 0.76141136
Ru 3.17960500 3.17960500 -2.4182365200000007 0 0 0
Ru 3.17960500 3.17960500 0.76141136
C 1.58980250 1.58980250 4.25117212
O 1.58980250 1.58980250 5.40121536
