&CONTROL
calculation = 'relax'
prefix = 'scf'
pseudo_dir = '/vol0004/mdt0/data/hp150275/u10028/POT_HYBRID_KKJUS_GBRV'
outdir = './data'
tprnfor = .true.
nstep = 50
disk_io = 'non'
/
&SYSTEM
ibrav = 0
ecutwfc = 50.0
ecutrho = 400
occupations = 'smearing'
smearing = 'mp'
degauss = 0.01
assume_isolated = 'esm'
esm_bc = 'bc1'
input_dft = 'BEEF-VDW'
nosym = .true.
nspin = 2
ntyp = 3
nat = 33
starting_magnetization(1) = 0.1
starting_magnetization(2) = 0.1
starting_magnetization(3) = 0.1
/
&ELECTRONS
electron_maxstep = 200
mixing_beta = 0.1
conv_thr = 1e-06
/
&IONS
ion_dynamics = 'bfgs'
upscale = 1.0
/
&CELL
/

K_POINTS {automatic}
8 6 1 0 0 0

ATOMIC_SPECIES
Al 26.98 Al.pbe-nl-rrkjus_psl.1.0.0.UPF
C 12.01 C.pbe-n-rrkjus_psl.1.0.0.UPF
Mn 54.93 mn_pbe_v1.5.uspp.F.UPF

CELL_PARAMETERS {angstrom}
5.89713000 0.00000000 0.00000000
0.00000000 8.33980000 0.00000000
0.00000000 0.00000000 26.25480000

ATOMIC_POSITIONS {angstrom}
Mn 1.47428250 2.08495000 -3.1274717800000005 0 0 0
Mn 1.47428250 0.00000000 -1.042578110000001 0 0 0
Mn 1.47428250 2.08495000 1.28307208
Mn 1.47428250 0.15286853 3.23459136
Mn 1.47428250 6.25485000 -3.1274717800000005 0 0 0
Mn 1.47428250 4.16990000 -1.042578110000001 0 0 0
Mn 1.47428250 6.25485000 1.09141204
Mn 1.47428250 4.01703147 3.23459136
Mn 4.42284750 2.08495000 -3.1274717800000005 0 0 0
Mn 4.42284750 0.00000000 -1.042578110000001 0 0 0
Mn 4.42284750 2.08495000 1.04362830
Mn 4.42284750 8.17975924 3.03400469
Mn 4.42284750 6.25485000 -3.1274717800000005 0 0 0
Mn 4.42284750 4.16990000 -1.042578110000001 0 0 0
Mn 4.42284750 6.25485000 1.10401434
Mn 4.42284750 4.32994076 3.03400469
Al 0.00000000 0.00000000 -3.1274717800000005 0 0 0
Al 0.00000000 2.08495000 -1.042578110000001 0 0 0
Al 0.03620838 0.00608805 1.04179046
Al 5.58010029 2.08495000 3.40130934
Al 0.00000000 4.16990000 -3.1274717800000005 0 0 0
Al 0.00000000 6.25485000 -1.042578110000001 0 0 0
Al 0.03620838 4.16381195 1.04179046
Al 0.10213829 6.25485000 3.38319353
Al 2.94856500 0.00000000 -3.1274717800000005 0 0 0
Al 2.94856500 2.08495000 -1.042578110000001 0 0 0
Al 2.91235662 0.00608805 1.04179046
Al 3.26559471 2.08495000 3.40130934
Al 2.94856500 4.16990000 -3.1274717800000005 0 0 0
Al 2.94856500 6.25485000 -1.042578110000001 0 0 0
Al 2.91235662 4.16381195 1.04179046
Al 2.84636774 6.25485000 3.38319353
C 1.47428250 2.08495000 3.72293064
