&CONTROL
calculation = 'relax'
prefix = 'scf'
pseudo_dir = '/vol0004/mdt0/data/hp150275/u10028/POT_HYBRID_KKJUS_GBRV'
outdir = './data'
tprnfor = .true.
nstep = 50
disk_io = 'non'
/
&SYSTEM
ibrav = 0
ecutwfc = 50.0
ecutrho = 400
occupations = 'smearing'
smearing = 'mp'
degauss = 0.01
assume_isolated = 'esm'
esm_bc = 'bc1'
input_dft = 'BEEF-VDW'
nosym = .true.
nspin = 2
ntyp = 5
nat = 34
starting_magnetization(1) = 0.0
starting_magnetization(2) = 0.0
starting_magnetization(3) = 0.001
starting_magnetization(4) = 0.0
starting_magnetization(5) = 0.0
/
&ELECTRONS
electron_maxstep = 300
mixing_beta = 0.1
conv_thr = 1e-06
/
&IONS
ion_dynamics = 'bfgs'
upscale = 1.0
/
&CELL
/

K_POINTS {automatic}
8 6 1 0 0 0

ATOMIC_SPECIES
C 12.01 C.pbe-n-rrkjus_psl.1.0.0.UPF
Ga 69.72 Ga.pbe-dnl-rrkjus_psl.1.0.0.UPF
Ni 58.69 ni_pbe_v1.4.uspp.F.UPF
O 15.99 O.pbe-n-rrkjus_psl.1.0.0.UPF
Ta 180.9 Ta.pbe-spn-rrkjus_psl.1.0.0.UPF

CELL_PARAMETERS {angstrom}
5.98793000 0.00000000 0.00000000
0.00000000 8.46821000 0.00000000
0.00000000 0.00000000 26.35120000

ATOMIC_POSITIONS {angstrom}
Ta 0.00000000 0.00000000 -3.175583109999998 0 0 0
Ta 2.99396500 2.11705250 -1.058527699999999 0 0 0
Ta 2.99396500 6.35115750 -1.058527699999999 0 0 0
Ta 0.00000000 4.23410500 -3.175583109999998 0 0 0
Ta 0.00000000 4.25400529 1.08619646
Ta 2.99396500 6.35124218 3.19508300
Ta 2.99396500 2.11696782 3.09336737
Ta 0.00000000 8.44839439 1.08619646
Ga 0.00000000 6.35115750 -1.058527699999999 0 0 0
Ga 2.99396500 0.00000000 -3.175583109999998 0 0 0
Ga 0.00000000 2.11705250 -1.058527699999999 0 0 0
Ga 2.99396500 4.23410500 -3.175583109999998 0 0 0
Ga 0.00000000 2.11730655 3.26886636
Ga 2.99396500 4.22631425 1.00266316
Ga 0.00000000 6.35090345 3.27071094
Ga 2.99396500 0.00770607 1.00319018
Ni 1.49698250 0.00000000 -1.058527699999999 0 0 0
Ni 4.49094750 4.23410500 -1.058527699999999 0 0 0
Ni 4.49094750 0.00000000 -1.058527699999999 0 0 0
Ni 1.49698250 4.23410500 -1.058527699999999 0 0 0
Ni 4.49094750 6.35115750 -3.175583109999998 0 0 0
Ni 1.49698250 2.11705250 -3.175583109999998 0 0 0
Ni 1.49698250 6.35115750 -3.175583109999998 0 0 0
Ni 4.49094750 2.11705250 -3.175583109999998 0 0 0
Ni 1.57278969 4.24706136 3.05041491
Ni 4.41543970 8.45525364 3.05067842
Ni 4.41514031 4.24706136 3.05041491
Ni 1.57249030 8.45525364 3.05067842
Ni 4.52489906 2.11739123 1.09173022
Ni 1.55069423 6.35090345 1.11966249
Ni 1.46303094 2.11739123 1.09173022
Ni 4.43723577 6.35090345 1.11966249
C 0.00000000 2.11713718 5.36615837
O 0.00000000 2.11696782 6.51401664
