&CONTROL
calculation = 'relax'
prefix = 'scf'
pseudo_dir = '/vol0004/mdt0/data/hp150275/u10028/POT_KKJUS'
outdir = './data'
tprnfor = .true.
nstep = 50
disk_io = 'non'
/
&SYSTEM
ibrav = 0
ecutwfc = 50.0
ecutrho = 400
occupations = 'smearing'
smearing = 'mp'
degauss = 0.01
assume_isolated = 'esm'
esm_bc = 'bc1'
input_dft = 'BEEF-VDW'
nosym = .true.
nspin = 1
ntyp = 3
nat = 17
/
&ELECTRONS
electron_maxstep = 200
mixing_beta = 0.1
conv_thr = 1e-06
/
&IONS
ion_dynamics = 'bfgs'
upscale = 1.0
/
&CELL
/

K_POINTS {automatic}
8 8 1 0 0 0

ATOMIC_SPECIES
Ag 107.8 Ag.pbe-n-rrkjus_psl.1.0.0.UPF
C 12.01 C.pbe-n-rrkjus_psl.1.0.0.UPF
Zn 65.40 Zn.pbe-dnl-rrkjus_psl.1.0.0.UPF

CELL_PARAMETERS {angstrom}
6.41951000 0.00000000 0.00000000
-0.00000000 6.41951000 0.00000000
0.00000000 0.00000000 24.81460000

ATOMIC_POSITIONS {angstrom}
Zn 0.00000000 0.00000000 -2.2104845699999984 0 0 0
Zn 0.00000000 0.00000000 0.99928394
Zn 0.00000000 3.20975500 -2.2104845699999984 0 0 0
Zn 0.00000000 3.20975500 0.99928394
Zn 3.20975500 0.00000000 -2.2104845699999984 0 0 0
Zn 3.20975500 -0.00000000 0.99928394
Zn 3.20975500 3.20975500 -2.2104845699999984 0 0 0
Zn 3.20975500 3.20975500 0.99928394
Ag 1.60487750 1.60487750 -0.6057243899999989 0 0 0
Ag 1.60487750 1.60487750 2.60404412
Ag 1.60487750 4.81463250 -0.6057243899999989 0 0 0
Ag 1.60487750 4.81463250 2.60404412
Ag 4.81463250 1.60487750 -0.6057243899999989 0 0 0
Ag 4.81463250 1.60487750 2.60404412
Ag 4.81463250 4.81463250 -0.6057243899999989 0 0 0
Ag 4.81463250 4.81463250 2.60404412
C 0.00000000 0.00000000 3.40406683
