&CONTROL
calculation = 'relax'
prefix = 'scf'
pseudo_dir = '/vol0004/mdt0/data/hp150275/u10028/POT_KKJUS'
outdir = './data'
tprnfor = .true.
nstep = 50
disk_io = 'non'
/
&SYSTEM
ibrav = 0
ecutwfc = 50.0
ecutrho = 400
occupations = 'smearing'
smearing = 'mp'
degauss = 0.01
assume_isolated = 'esm'
esm_bc = 'bc1'
input_dft = 'BEEF-VDW'
nosym = .true.
nspin = 1
ntyp = 3
nat = 18
/
&ELECTRONS
electron_maxstep = 200
mixing_beta = 0.1
conv_thr = 1e-06
/
&IONS
ion_dynamics = 'bfgs'
upscale = 1.0
/
&CELL
/

K_POINTS {automatic}
8 8 1 0 0 0

ATOMIC_SPECIES
C 12.01 C.pbe-n-rrkjus_psl.1.0.0.UPF
Li 6.941 Li.pbe-sl-rrkjus_psl.1.0.0.UPF
O 15.99 O.pbe-n-rrkjus_psl.1.0.0.UPF

CELL_PARAMETERS {angstrom}
6.78403000 0.00000000 0.00000000
-0.00000000 6.78403000 0.00000000
0.00000000 0.00000000 25.08800000

ATOMIC_POSITIONS {angstrom}
Li 0.00000000 0.00000000 -2.543923200000002 0 0 0
Li 1.69600750 1.69600750 -0.8479744000000018 0 0 0
Li 0.00000000 0.00000000 0.84797440
Li 1.69600750 1.69600750 2.54392320
Li 0.00000000 3.39201500 -2.543923200000002 0 0 0
Li 1.69600750 5.08802250 -0.8479744000000018 0 0 0
Li 0.00000000 3.39201500 0.84797440
Li 1.69600750 5.08802250 2.54392320
Li 3.39201500 0.00000000 -2.543923200000002 0 0 0
Li 5.08802250 1.69600750 -0.8479744000000018 0 0 0
Li 3.39201500 -0.00000000 0.84797440
Li 5.08802250 1.69600750 2.54392320
Li 3.39201500 3.39201500 -2.543923200000002 0 0 0
Li 5.08802250 5.08802250 -0.8479744000000018 0 0 0
Li 3.39201500 3.39201500 0.84797440
Li 5.08802250 5.08802250 2.54392320
C 1.69600750 1.69600750 4.44408832
O 1.69600750 1.69600750 5.59412224
