&CONTROL
calculation = 'relax'
prefix = 'scf'
pseudo_dir = '/vol0403/data/hp230205/u10028/POT_HYBRID_KKJUS_GBRV'
outdir = './data'
tprnfor = .true.
nstep = 50
disk_io = 'non'
/
&SYSTEM
ibrav = 0
ecutwfc = 50.0
ecutrho = 400
occupations = 'smearing'
smearing = 'mp'
degauss = 0.01
assume_isolated = 'esm'
esm_bc = 'bc1'
input_dft = 'BEEF-VDW'
nosym = .true.
nspin = 1
ntyp = 5
nat = 33
/
&ELECTRONS
electron_maxstep = 200
mixing_beta = 0.1
conv_thr = 1e-06
/
&IONS
ion_dynamics = 'bfgs'
upscale = 1.0
/
&CELL
/

K_POINTS {automatic}
9 6 2 0  0  0

ATOMIC_SPECIES
C 12.01 C.pbe-n-rrkjus_psl.1.0.0.UPF
Cu 63.54 Cu.pbe-dn-rrkjus_psl.1.0.0.UPF
In 114.8 In.pbe-dn-rrkjus_psl.1.0.0.UPF
Li 6.941 Li.pbe-sl-rrkjus_psl.1.0.0.UPF
Sn 118.7 Sn.pbe-dn-rrkjus_psl.1.0.0.UPF


CELL_PARAMETERS {angstrom}
6.73938000 0.00000000 0.00000000
0.00000000 9.53092000 0.00000000
0.00000000 0.00000000 27.14820000

ATOMIC_POSITIONS {angstrom}
Li 0.00000000 2.38273000 -1.191263020000001 0 0 0
Li 0.00000000 7.14819000 -1.191263020000001 0 0 0
Li 3.36969000 4.76546000 -3.5740605300000006 0 0 0
Li 3.36969000 0.00000000 -3.5740605300000006 0 0 0
Li 6.43657966 7.44688903 5.07725636
Li 6.43698402 2.08403097 5.07698488
Li 3.28841308 0.00000000 1.26782094
Li 3.38505579 4.76546000 1.28709616
In 1.68484500 0.00000000 -1.191263020000001 0 0 0
In 1.68484500 4.76546000 -1.191263020000001 0 0 0
In 5.05453500 2.38273000 -3.5740605300000006 0 0 0
In 5.05453500 7.14819000 -3.5740605300000006 0 0 0
In 1.73242502 4.76546000 3.91015525
In 1.69980642 9.53063407 3.83712659
In 5.14632536 7.17087359 1.25723314
In 5.14639275 2.36004641 1.25723314
Cu 0.00000000 0.00000000 -3.5740605300000006 0 0 0
Cu 0.00000000 4.76546000 -3.5740605300000006 0 0 0
Cu 3.36969000 7.14819000 -1.191263020000001 0 0 0
Cu 3.36969000 2.38273000 -1.191263020000001 0 0 0
Cu 6.72435118 4.76546000 1.16004259
Cu 0.05452158 0.00000000 1.03814717
Cu 3.42852479 2.45306819 3.33542785
Cu 3.42852479 7.07785181 3.33542785
Sn 5.05453500 0.00000000 -1.191263020000001 0 0 0
Sn 5.05453500 4.76546000 -1.191263020000001 0 0 0
Sn 1.68484500 2.38273000 -3.5740605300000006 0 0 0
Sn 1.68484500 7.14819000 -3.5740605300000006 0 0 0
Sn 5.09706049 4.76546000 3.71333080
Sn 4.93133913 0.00000000 3.62564211
Sn 1.56623191 7.12665012 1.38157190
Sn 1.56616452 2.40417457 1.38157190
C 6.57756749 9.53082469 4.99988399
