&CONTROL
calculation = 'relax'
prefix = 'scf'
pseudo_dir = '/vol0403/data/hp230205/u10028/POT_HYBRID_KKJUS_GBRV'
outdir = './data'
tprnfor = .true.
nstep = 50
disk_io = 'non'
/
&SYSTEM
ibrav = 0
ecutwfc = 50.0
ecutrho = 400
occupations = 'smearing'
smearing = 'mp'
degauss = 0.01
assume_isolated = 'esm'
esm_bc = 'bc1'
input_dft = 'BEEF-VDW'
nosym = .true.
nspin = 1
ntyp = 5
nat = 33
/
&ELECTRONS
electron_maxstep = 200
mixing_beta = 0.1
conv_thr = 1e-06
/
&IONS
ion_dynamics = 'bfgs'
upscale = 1.0
/
&CELL
/

K_POINTS {automatic}
6 6 1 0 0 0

ATOMIC_SPECIES
C 12.01 C.pbe-n-rrkjus_psl.1.0.0.UPF
Ge 72.64 Ge.pbe-dn-rrkjus_psl.1.0.0.UPF
In 114.8 In.pbe-dn-rrkjus_psl.1.0.0.UPF
Li 6.941 Li.pbe-sl-rrkjus_psl.1.0.0.UPF
Mg 24.30 Mg.pbe-spnl-rrkjus_psl.1.0.0.UPF


CELL_PARAMETERS {angstrom}
8.40992000 0.00000000 0.00000000
0.00000000 8.75068000 0.00000000
0.00000000 0.00000000 26.31390000

ATOMIC_POSITIONS {angstrom}
Li 2.20491283 2.18767000 3.53658816
Li 2.10248000 2.18767000 -1.0522928600000014 0 0 0
Li 2.27454696 6.56301000 3.41501794
Li 2.10248000 6.56301000 -1.0522928600000014 0 0 0
Li 6.20500717 2.18767000 3.53658816
Li 6.30744000 2.18767000 -1.0522928600000014 0 0 0
Li 6.13537304 6.56301000 3.41528108
Li 6.30744000 6.56301000 -1.0522928600000014 0 0 0
Mg 2.12283201 0.00358778 1.09123743
Mg 2.10248000 0.00000000 -3.1568785800000008 0 0 0
Mg 2.12283201 4.37175222 1.09123743
Mg 2.10248000 4.37534000 -3.1568785800000008 0 0 0
Mg 6.28708799 0.00350027 1.09123743
Mg 6.30744000 0.00000000 -3.1568785800000008 0 0 0
Mg 6.28708799 4.37183973 1.09123743
Mg 6.30744000 4.37534000 -3.1568785800000008 0 0 0
In 0.00000000 2.18767000 1.10097358
In 0.00000000 2.18767000 -3.1568785800000008 0 0 0
In 0.00000000 6.56301000 1.18991456
In 0.00000000 6.56301000 -3.1568785800000008 0 0 0
In 4.20496000 2.18767000 1.28911796
In 4.20496000 2.18767000 -3.1568785800000008 0 0 0
In 4.20496000 6.56301000 1.16623205
In 4.20496000 6.56301000 -3.1568785800000008 0 0 0
Ge 8.40983590 0.28544718 3.62316089
Ge 0.00000000 0.00000000 -1.0522928600000014 0 0 0
Ge 0.00008410 4.08989282 3.62316089
Ge 0.00000000 4.37534000 -1.0522928600000014 0 0 0
Ge 4.20496000 8.71707739 3.19503374
Ge 4.20496000 0.00000000 -1.0522928600000014 0 0 0
Ge 4.20496000 4.40885510 3.19503374
Ge 4.20496000 4.37534000 -1.0522928600000014 0 0 0
C 0.00000000 2.18767000 3.58526888
