&CONTROL
calculation = 'relax'
prefix = 'scf'
pseudo_dir = '/vol0004/mdt0/data/hp150275/u10028/POT_HYBRID_KKJUS_GBRV'
outdir = './data'
tprnfor = .true.
nstep = 50
disk_io = 'non'
/
&SYSTEM
ibrav = 0
ecutwfc = 50.0
ecutrho = 400
occupations = 'smearing'
smearing = 'mp'
degauss = 0.01
assume_isolated = 'esm'
esm_bc = 'bc1'
input_dft = 'BEEF-VDW'
nosym = .true.
nspin = 2
ntyp = 5
nat = 34
starting_magnetization(1) = 0.0
starting_magnetization(2) = 0.1
starting_magnetization(3) = 0.0
starting_magnetization(4) = 0.0
starting_magnetization(5) = 0.0
/
&ELECTRONS
electron_maxstep = 300
mixing_beta = 0.1
conv_thr = 1e-06
/
&IONS
ion_dynamics = 'bfgs'
upscale = 1.0
/
&CELL
/

K_POINTS {automatic}
8 6 1 0 0 0

ATOMIC_SPECIES
C 12.01 C.pbe-n-rrkjus_psl.1.0.0.UPF
Co 58.93 co_pbe_v1.2.uspp.F.UPF
O 15.99 O.pbe-n-rrkjus_psl.1.0.0.UPF
Sn 118.7 Sn.pbe-dn-rrkjus_psl.1.0.0.UPF
Zr 91.22 Zr.pbe-spn-rrkjus_psl.1.0.0.UPF

CELL_PARAMETERS {angstrom}
6.31315000 0.00000000 0.00000000
0.00000000 8.92814000 0.00000000
0.00000000 0.00000000 26.69610000

ATOMIC_POSITIONS {angstrom}
Zr 0.00000000 0.00000000 -3.347957900000001 0 0 0
Zr 3.15657500 2.23203500 -1.1158969800000023 0 0 0
Zr 3.15657500 6.69610500 -1.1158969800000023 0 0 0
Zr 0.00000000 4.46407000 -3.347957900000001 0 0 0
Zr 0.00435607 4.46407000 1.14045739
Zr 3.14874669 6.68414129 3.36077203
Zr 3.14874669 2.24399871 3.36077203
Zr 6.30008178 0.00000000 1.11963443
Co 1.57828750 0.00000000 -1.1158969800000023 0 0 0
Co 4.73486250 4.46407000 -1.1158969800000023 0 0 0
Co 4.73486250 0.00000000 -1.1158969800000023 0 0 0
Co 1.57828750 4.46407000 -1.1158969800000023 0 0 0
Co 4.73486250 6.69610500 -3.347957900000001 0 0 0
Co 1.57828750 2.23203500 -3.347957900000001 0 0 0
Co 1.57828750 6.69610500 -3.347957900000001 0 0 0
Co 4.73486250 2.23203500 -3.347957900000001 0 0 0
Co 1.56092634 4.46407000 3.25158498
Co 4.75115043 0.00000000 3.25211890
Co 4.74894082 4.46407000 3.27294186
Co 1.59634311 0.00000000 3.46381898
Co 4.71099879 2.22855303 1.13565209
Co 1.59495422 6.70762230 1.14339396
Co 1.59495422 2.22051770 1.14339396
Co 4.71099879 6.69958697 1.13565209
Sn 0.00000000 6.69610500 -1.1158969800000023 0 0 0
Sn 3.15657500 0.00000000 -3.347957900000001 0 0 0
Sn 0.00000000 2.23203500 -1.1158969800000023 0 0 0
Sn 3.15657500 4.46407000 -3.347957900000001 0 0 0
Sn 6.29616763 2.25203403 3.41256246
Sn 3.15556490 4.46407000 1.13858867
Sn 6.29616763 6.67610597 3.41256246
Sn 3.14975680 0.00000000 1.13111376
C 1.64249224 0.00000000 5.17717467
O 1.56597686 0.00000000 6.33204796
