&CONTROL
calculation = 'relax'
prefix = 'scf'
pseudo_dir = '/vol0004/mdt0/data/hp150275/u10028/POT_KKJUS'
outdir = './data'
tprnfor = .true.
nstep = 50
disk_io = 'non'
/
&SYSTEM
ibrav = 0
ecutwfc = 50.0
ecutrho = 400
occupations = 'smearing'
smearing = 'mp'
degauss = 0.01
assume_isolated = 'esm'
esm_bc = 'bc1'
input_dft = 'BEEF-VDW'
nosym = .true.
nspin = 1
ntyp = 4
nat = 17
/
&ELECTRONS
electron_maxstep = 200
mixing_beta = 0.1
conv_thr = 1e-06
/
&IONS
ion_dynamics = 'bfgs'
upscale = 1.0
/
&CELL
/

K_POINTS {automatic}
10 10 2 0  0  0

ATOMIC_SPECIES
C 12.01 C.pbe-n-rrkjus_psl.1.0.0.UPF
In 114.8 In.pbe-dn-rrkjus_psl.1.0.0.UPF
Li 6.941 Li.pbe-sl-rrkjus_psl.1.0.0.UPF
Rh 102.9 Rh.pbe-spn-rrkjus_psl.1.0.0.UPF

CELL_PARAMETERS {angstrom}
6.34973000 0.00000000 0.00000000
0.00000000 6.34973000 0.00000000
0.00000000 0.00000000 24.76230000

ATOMIC_POSITIONS {angstrom}
Li 0.00000000 0.00000000 -0.7936317200000005 0 0 0
Li 3.20566119 0.03066920 2.80086375
Li 6.31906080 3.14413231 2.80086375
Li 3.17486500 3.17486500 -0.7936317200000005 0 0 0
Li 1.58743250 1.58743250 -2.3811427700000003 0 0 0
Li 1.58743250 4.76229750 0.86965198
Li 4.76229750 4.76229750 -2.3811427700000003 0 0 0
Li 4.76229750 1.58743250 0.62970529
In 1.58749600 1.58743250 0.87287107
In 1.58743250 4.76229750 -2.3811427700000003 0 0 0
In 4.76229750 4.76223400 0.87262345
In 4.76229750 1.58743250 -2.3811427700000003 0 0 0
Rh 6.01255934 0.33723416 2.41333376
Rh 3.51203566 2.83769434 2.41358138
Rh 3.17486500 0.00000000 -0.7936317200000005 0 0 0
Rh 0.00000000 3.17486500 -0.7936317200000005 0 0 0
C 4.76229750 1.58743250 2.83528335
