&CONTROL
calculation = 'relax'
prefix = 'scf'
pseudo_dir = '/vol0004/mdt0/data/hp150275/u10028/POT_KKJUS'
outdir = './data'
tprnfor = .true.
nstep = 50
disk_io = 'non'
/
&SYSTEM
ibrav = 0
ecutwfc = 50.0
ecutrho = 400
occupations = 'smearing'
smearing = 'mp'
degauss = 0.01
assume_isolated = 'esm'
esm_bc = 'bc1'
input_dft = 'BEEF-VDW'
nosym = .true.
nspin = 1
ntyp = 5
nat = 34
/
&ELECTRONS
electron_maxstep = 200
mixing_beta = 0.1
conv_thr = 1e-06
/
&IONS
ion_dynamics = 'bfgs'
upscale = 1.0
/
&CELL
/

K_POINTS {automatic}
9 6 2 0  0  0

ATOMIC_SPECIES
C 12.01 C.pbe-n-rrkjus_psl.1.0.0.UPF
Ga 69.72 Ga.pbe-dnl-rrkjus_psl.1.0.0.UPF
Ni 58.69 Ni.pbe-spn-rrkjus_psl.1.0.0.UPF
O 15.99 O.pbe-n-rrkjus_psl.1.0.0.UPF
Sc 44.95 Sc.pbe-spn-rrkjus_psl.1.0.0.UPF

CELL_PARAMETERS {angstrom}
6.08368000 0.00000000 0.00000000
0.00000000 8.60362000 0.00000000
0.00000000 0.00000000 26.45270000

ATOMIC_POSITIONS {angstrom}
Sc 0.00000000 0.00000000 -3.226435819999999 0 0 0
Sc 3.04184000 2.15090500 -1.075566779999999 0 0 0
Sc 3.04184000 6.45271500 -1.075566779999999 0 0 0
Sc 0.00000000 4.30181000 -3.226435819999999 0 0 0
Sc 0.00012167 4.31118795 1.02292591
Sc 3.04184000 6.45280104 3.34467939
Sc 3.04184000 2.15099104 3.32722061
Sc 6.08361916 8.59450016 1.02292591
Ga 0.00000000 6.45271500 -1.075566779999999 0 0 0
Ga 3.04184000 0.00000000 -3.226435819999999 0 0 0
Ga 0.00000000 2.15090500 -1.075566779999999 0 0 0
Ga 3.04184000 4.30181000 -3.226435819999999 0 0 0
Ga 6.08355833 2.15099104 3.19707332
Ga 3.04214418 4.29406674 1.15783468
Ga 6.08270661 6.45297311 3.21215136
Ga 3.04220502 0.00774326 1.15783468
Ni 1.52092000 0.00000000 -1.075566779999999 0 0 0
Ni 4.56276000 4.30181000 -1.075566779999999 0 0 0
Ni 4.56276000 0.00000000 -1.075566779999999 0 0 0
Ni 1.52092000 4.30181000 -1.075566779999999 0 0 0
Ni 4.56276000 6.45271500 -3.226435819999999 0 0 0
Ni 1.52092000 2.15090500 -3.226435819999999 0 0 0
Ni 1.52092000 6.45271500 -3.226435819999999 0 0 0
Ni 4.56276000 2.15090500 -3.226435819999999 0 0 0
Ni 1.36596867 4.30903704 3.09073347
Ni 4.71813719 8.59561863 3.09073347
Ni 4.71795468 4.30946722 3.08967536
Ni 1.36609034 8.59622089 3.09020441
Ni 4.50800688 2.15124914 1.09910968
Ni 1.61053261 6.45176860 1.14963434
Ni 1.57542977 2.15081896 1.09910968
Ni 4.47290405 6.45168257 1.14857623
C 3.04184000 2.15099104 5.70769908
O 3.04190084 2.15099104 6.84807498
