&CONTROL
calculation = 'relax'
prefix = 'scf'
pseudo_dir = '/vol0403/data/hp230205/u10028/POT_HYBRID_KKJUS_GBRV'
outdir = './data'
tprnfor = .true.
nstep = 50
disk_io = 'non'
/
&SYSTEM
ibrav = 0
ecutwfc = 50.0
ecutrho = 400
occupations = 'smearing'
smearing = 'mp'
degauss = 0.01
assume_isolated = 'esm'
esm_bc = 'bc1'
input_dft = 'BEEF-VDW'
nosym = .true.
nspin = 1
ntyp = 6
nat = 18
/
&ELECTRONS
electron_maxstep = 200
mixing_beta = 0.1
conv_thr = 1e-06
/
&IONS
ion_dynamics = 'bfgs'
upscale = 1.0
/
&CELL
/

K_POINTS {automatic}
6 6 1 0 0 0

ATOMIC_SPECIES
Au 196.9 Au.pbe-n-rrkjus_psl.1.0.0.UPF
C 12.01 C.pbe-n-rrkjus_psl.1.0.0.UPF
Ge 72.64 Ge.pbe-dn-rrkjus_psl.1.0.0.UPF
In 114.8 In.pbe-dn-rrkjus_psl.1.0.0.UPF
Li 6.941 Li.pbe-sl-rrkjus_psl.1.0.0.UPF
O 15.99 O.pbe-n-rrkjus_psl.1.0.0.UPF


CELL_PARAMETERS {angstrom}
6.00109000 0.00000000 0.00000000
0.00000000 8.46544000 0.00000000
0.00000000 0.00000000 24.49980000

ATOMIC_POSITIONS {angstrom}
Li 1.23160370 2.11026488 0.89963266
Li 4.40365985 2.11636000 -2.2498166300000015 0 0 0
Li 1.23154369 6.35517512 0.89963266
Li 4.40365985 6.34908000 -2.2498166300000015 0 0 0
In 2.95619694 8.46535535 2.66459825
In 5.93627823 0.00000000 -0.749938880000002 0 0 0
In 2.85399838 4.23263535 2.71065787
In 5.93627823 4.23272000 -0.749938880000002 0 0 0
Ge 4.04209418 2.15199950 0.73523900
Ge 1.40311485 2.11636000 -2.2498166300000015 0 0 0
Ge 4.04203417 6.31327119 0.73499400
Ge 1.40311485 6.34908000 -2.2498166300000015 0 0 0
Au 0.06871248 0.00008465 2.11800771
Au 2.93573323 0.00000000 -0.749938880000002 0 0 0
Au 5.99832950 4.23272000 2.10673780
Au 2.93573323 4.23272000 -0.749938880000002 0 0 0
C 3.32442383 0.00067724 6.61298602
O 2.77394384 8.46518604 7.60571791
