&CONTROL
calculation = 'relax'
prefix = 'scf'
pseudo_dir = '/vol0004/mdt0/data/hp150275/u10028/POT_HYBRID_KKJUS_GBRV'
outdir = './data'
tprnfor = .true.
nstep = 50
disk_io = 'non'
/
&SYSTEM
ibrav = 0
ecutwfc = 50.0
ecutrho = 400
occupations = 'smearing'
smearing = 'mp'
degauss = 0.01
assume_isolated = 'esm'
esm_bc = 'bc1'
input_dft = 'BEEF-VDW'
nosym = .true.
nspin = 2
ntyp = 3
nat = 33
starting_magnetization(1) = 0.1
starting_magnetization(2) = 0.1
starting_magnetization(3) = 0.1
/
&ELECTRONS
electron_maxstep = 200
mixing_beta = 0.1
conv_thr = 1e-06
/
&IONS
ion_dynamics = 'bfgs'
upscale = 1.0
/
&CELL
/

K_POINTS {automatic}
9 6 2 0  0  0

ATOMIC_SPECIES
C 12.01 C.pbe-n-rrkjus_psl.1.0.0.UPF
Mn 54.93 mn_pbe_v1.5.uspp.F.UPF
Zn 65.40 Zn.pbe-dnl-rrkjus_psl.1.0.0.UPF

CELL_PARAMETERS {angstrom}
6.05499000 0.00000000 0.00000000
0.00000000 8.56306000 0.00000000
0.00000000 0.00000000 26.42230000

ATOMIC_POSITIONS {angstrom}
Mn 0.00000000 0.00000000 -3.2111021199999996 0 0 0
Mn 0.00000000 2.14076500 -1.0703673699999996 0 0 0
Mn 0.00000000 4.28153000 1.02862014
Mn 0.00000000 1.94004687 3.26288983
Mn 0.00000000 4.28153000 -3.2111021199999996 0 0 0
Mn 0.00000000 6.42229500 -1.0703673699999996 0 0 0
Mn 0.00000000 0.00000000 1.20538533
Mn 0.00000000 6.62301313 3.26288983
Mn 3.02749500 0.00000000 -3.2111021199999996 0 0 0
Mn 3.02749500 2.14076500 -1.0703673699999996 0 0 0
Mn 3.02749500 4.28153000 1.13721579
Mn 3.02749500 2.37171073 3.32498223
Mn 3.02749500 4.28153000 -3.2111021199999996 0 0 0
Mn 3.02749500 6.42229500 -1.0703673699999996 0 0 0
Mn 3.02749500 0.00000000 1.01038875
Mn 3.02749500 6.19134927 3.32471801
Zn 1.51374750 2.14076500 -3.2111021199999996 0 0 0
Zn 1.51374750 4.28153000 -1.0703673699999996 0 0 0
Zn 1.52101349 2.14127878 1.10445214
Zn 1.30624299 4.28110185 3.28799101
Zn 1.51374750 6.42229500 -3.2111021199999996 0 0 0
Zn 1.51374750 0.00000000 -1.0703673699999996 0 0 0
Zn 1.52101349 6.42178122 1.10392369
Zn 1.87741020 0.00034252 3.32788869
Zn 4.54124250 2.14076500 -3.2111021199999996 0 0 0
Zn 4.54124250 4.28153000 -1.0703673699999996 0 0 0
Zn 4.53397651 2.14127878 1.10445214
Zn 4.74868646 4.28110185 3.28799101
Zn 4.54124250 6.42229500 -3.2111021199999996 0 0 0
Zn 4.54124250 0.00000000 -1.0703673699999996 0 0 0
Zn 4.53397651 6.42178122 1.10392369
Zn 4.17757980 0.00042815 3.32788869
C 0.00000000 0.00000000 3.60453017
