&CONTROL
calculation = 'relax'
prefix = 'scf'
pseudo_dir = '/vol0004/mdt0/data/hp150275/u10028/POT_HYBRID_KKJUS_GBRV'
outdir = './data'
tprnfor = .true.
nstep = 50
disk_io = 'non'
/
&SYSTEM
ibrav = 0
ecutwfc = 50.0
ecutrho = 400
occupations = 'smearing'
smearing = 'mp'
degauss = 0.01
assume_isolated = 'esm'
esm_bc = 'bc1'
input_dft = 'BEEF-VDW'
nosym = .true.
nspin = 2
ntyp = 4
nat = 34
starting_magnetization(1) = 0.0
starting_magnetization(2) = 0.0
starting_magnetization(3) = 0.1
starting_magnetization(4) = 0.0
/
&ELECTRONS
electron_maxstep = 200
mixing_beta = 0.1
conv_thr = 1e-06
/
&IONS
ion_dynamics = 'bfgs'
upscale = 1.0
/
&CELL
/

K_POINTS {automatic}
7 7 2 0  0  0

ATOMIC_SPECIES
C 12.01 C.pbe-n-rrkjus_psl.1.0.0.UPF
Ge 72.64 Ge.pbe-dn-rrkjus_psl.1.0.0.UPF
Mn 54.93 mn_pbe_v1.5.uspp.F.UPF
O 15.99 O.pbe-n-rrkjus_psl.1.0.0.UPF

CELL_PARAMETERS {angstrom}
7.42262000 0.00000000 0.00000000
-0.00000000 7.42262000 0.00000000
0.00000000 0.00000000 25.56700000

ATOMIC_POSITIONS {angstrom}
Mn 0.00000000 1.85565500 0.92782643
Mn 1.85565500 -0.00000000 0.92782643
Mn 1.85565500 1.85565500 2.78347929
Mn 0.00000000 1.85565500 -2.783479289999999 0 0 0
Mn 1.85565500 0.00000000 -2.783479289999999 0 0 0
Mn 1.85565500 1.85565500 -0.9278264299999996 0 0 0
Mn 0.00000000 5.56696500 0.92782643
Mn 1.85565500 3.71131000 0.92782643
Mn 1.85565500 5.56696500 2.78347929
Mn 0.00000000 5.56696500 -2.783479289999999 0 0 0
Mn 1.85565500 3.71131000 -2.783479289999999 0 0 0
Mn 1.85565500 5.56696500 -0.9278264299999996 0 0 0
Mn 3.71131000 1.85565500 0.92782643
Mn 5.56696500 -0.00000000 0.92782643
Mn 5.56696500 1.85565500 2.78347929
Mn 3.71131000 1.85565500 -2.783479289999999 0 0 0
Mn 5.56696500 0.00000000 -2.783479289999999 0 0 0
Mn 5.56696500 1.85565500 -0.9278264299999996 0 0 0
Mn 3.71131000 5.56696500 0.92782643
Mn 5.56696500 3.71131000 0.92782643
Mn 5.56696500 5.56696500 2.78347929
Mn 3.71131000 5.56696500 -2.783479289999999 0 0 0
Mn 5.56696500 3.71131000 -2.783479289999999 0 0 0
Mn 5.56696500 5.56696500 -0.9278264299999996 0 0 0
Ge 0.00000000 0.00000000 2.78347929
Ge 0.00000000 0.00000000 -0.9278264299999996 0 0 0
Ge 0.00000000 3.71131000 2.78347929
Ge 0.00000000 3.71131000 -0.9278264299999996 0 0 0
Ge 3.71131000 -0.00000000 2.78347929
Ge 3.71131000 0.00000000 -0.9278264299999996 0 0 0
Ge 3.71131000 3.71131000 2.78347929
Ge 3.71131000 3.71131000 -0.9278264299999996 0 0 0
C 1.85565500 1.85565500 4.68336306
O 1.85565500 1.85565500 5.83336672
