&CONTROL
calculation = 'relax'
prefix = 'scf'
pseudo_dir = '/vol0004/mdt0/data/hp150275/u10028/POT_KKJUS'
outdir = './data'
tprnfor = .true.
nstep = 50
disk_io = 'non'
/
&SYSTEM
ibrav = 0
ecutwfc = 50.0
ecutrho = 400
occupations = 'smearing'
smearing = 'mp'
degauss = 0.01
assume_isolated = 'esm'
esm_bc = 'bc1'
input_dft = 'BEEF-VDW'
nosym = .true.
nspin = 1
ntyp = 4
nat = 34
/
&ELECTRONS
electron_maxstep = 200
mixing_beta = 0.1
conv_thr = 1e-06
/
&IONS
ion_dynamics = 'bfgs'
upscale = 1.0
/
&CELL
/

K_POINTS {automatic}
9 6 2 0  0  0

ATOMIC_SPECIES
Al 26.98 Al.pbe-nl-rrkjus_psl.1.0.0.UPF
C 12.01 C.pbe-n-rrkjus_psl.1.0.0.UPF
O 15.99 O.pbe-n-rrkjus_psl.1.0.0.UPF
Os 190.2 Os.pbe-spn-rrkjus_psl.1.0.0.UPF

CELL_PARAMETERS {angstrom}
6.03636000 0.00000000 0.00000000
0.00000000 8.53670000 0.00000000
0.00000000 0.00000000 26.40250000

ATOMIC_POSITIONS {angstrom}
Al 0.00000000 0.00000000 -3.2013031199999986 0 0 0
Al 0.00000000 2.13417500 -1.0671890499999996 0 0 0
Al 0.06078615 0.00000000 1.04870730
Al 0.00332000 2.13451647 3.23298613
Al 0.00000000 4.26835000 -3.2013031199999986 0 0 0
Al 0.00000000 6.40252500 -1.0671890499999996 0 0 0
Al 5.97810913 4.26835000 1.03075360
Al 0.00332000 6.40218353 3.23298613
Al 3.01818000 0.00000000 -3.2013031199999986 0 0 0
Al 3.01818000 2.13417500 -1.0671890499999996 0 0 0
Al 2.95733349 0.00000000 1.04923535
Al 3.01492037 2.13323596 3.23325015
Al 3.01818000 4.26835000 -3.2013031199999986 0 0 0
Al 3.01818000 6.40252500 -1.0671890499999996 0 0 0
Al 3.07661196 4.26835000 1.03048958
Al 3.01492037 6.40346404 3.23325015
Os 1.50909000 2.13417500 -3.2013031199999986 0 0 0
Os 1.50909000 0.00000000 -1.0671890499999996 0 0 0
Os 1.50909000 2.17293162 1.04052253
Os 1.50770164 0.00000000 3.34942115
Os 1.50909000 6.40252500 -3.2013031199999986 0 0 0
Os 1.50909000 4.26835000 -1.0671890499999996 0 0 0
Os 1.50915036 6.36376838 1.04052253
Os 1.50969364 4.26835000 3.06242598
Os 4.52727000 2.13417500 -3.2013031199999986 0 0 0
Os 4.52727000 0.00000000 -1.0671890499999996 0 0 0
Os 4.52733036 2.08543044 1.03101763
Os 4.52763218 0.00000000 3.06110585
Os 4.52727000 6.40252500 -3.2013031199999986 0 0 0
Os 4.52727000 4.26835000 -1.0671890499999996 0 0 0
Os 4.52733036 6.45126956 1.03101763
Os 4.52684745 4.26835000 3.16671585
C 1.50468346 0.00000000 5.23825600
O 1.50401946 0.00000000 6.40155015
