&CONTROL
calculation = 'relax'
prefix = 'scf'
pseudo_dir = '/vol0004/mdt0/data/hp150275/u10028/POT_HYBRID_KKJUS_GBRV'
outdir = './data'
tprnfor = .true.
nstep = 50
disk_io = 'non'
/
&SYSTEM
ibrav = 0
ecutwfc = 50.0
ecutrho = 400
occupations = 'smearing'
smearing = 'mp'
degauss = 0.01
assume_isolated = 'esm'
esm_bc = 'bc1'
input_dft = 'BEEF-VDW'
nosym = .true.
nspin = 2
ntyp = 5
nat = 34
starting_magnetization(1) = 0.0
starting_magnetization(2) = 0.0
starting_magnetization(3) = 0.1
starting_magnetization(4) = 0.0
starting_magnetization(5) = 0.0
/
&ELECTRONS
electron_maxstep = 300
mixing_beta = 0.1
conv_thr = 1e-06
/
&IONS
ion_dynamics = 'bfgs'
upscale = 1.0
/
&CELL
/

K_POINTS {automatic}
8 6 1 0 0 0

ATOMIC_SPECIES
Al 26.98 Al.pbe-nl-rrkjus_psl.1.0.0.UPF
C 12.01 C.pbe-n-rrkjus_psl.1.0.0.UPF
Co 58.93 co_pbe_v1.2.uspp.F.UPF
Nb 92.90 Nb.pbe-spn-rrkjus_psl.1.0.0.UPF
O 15.99 O.pbe-n-rrkjus_psl.1.0.0.UPF

CELL_PARAMETERS {angstrom}
5.97844000 0.00000000 0.00000000
0.00000000 8.45478000 0.00000000
0.00000000 0.00000000 26.34110000

ATOMIC_POSITIONS {angstrom}
Nb 0.00000000 0.00000000 -3.1704147999999996 0 0 0
Nb 2.98922000 2.11369500 -1.056804930000002 0 0 0
Nb 2.98922000 6.34108500 -1.056804930000002 0 0 0
Nb 0.00000000 4.22739000 -3.1704147999999996 0 0 0
Nb 0.00000000 4.23204013 1.11054078
Nb 2.98922000 6.34108500 3.17910736
Nb 2.98922000 2.11369500 3.16936115
Nb 0.00000000 8.45012987 1.11054078
Al 0.00000000 6.34108500 -1.056804930000002 0 0 0
Al 2.98922000 0.00000000 -3.1704147999999996 0 0 0
Al 0.00000000 2.11369500 -1.056804930000002 0 0 0
Al 2.98922000 4.22739000 -3.1704147999999996 0 0 0
Al 0.00000000 2.11369500 3.13090315
Al 2.98922000 4.22789729 1.08314603
Al 0.00000000 6.34108500 3.19807295
Al 2.98922000 8.45427271 1.08314603
Co 1.49461000 0.00000000 -1.056804930000002 0 0 0
Co 4.48383000 4.22739000 -1.056804930000002 0 0 0
Co 4.48383000 0.00000000 -1.056804930000002 0 0 0
Co 1.49461000 4.22739000 -1.056804930000002 0 0 0
Co 4.48383000 6.34108500 -3.1704147999999996 0 0 0
Co 1.49461000 2.11369500 -3.1704147999999996 0 0 0
Co 1.49461000 6.34108500 -3.1704147999999996 0 0 0
Co 4.48383000 2.11369500 -3.1704147999999996 0 0 0
Co 1.49873512 4.23204013 3.09560607
Co 4.47964509 8.45012987 3.09560607
Co 4.47970488 4.23204013 3.09560607
Co 1.49879491 8.45012987 3.09560607
Co 4.46960131 2.11369500 1.06997548
Co 1.51362144 6.34108500 1.06233656
Co 1.50883869 2.11369500 1.06997548
Co 4.46481856 6.34108500 1.06233656
C 0.00000000 2.11369500 5.11017340
O 0.00000000 2.11369500 6.26681110
