&CONTROL
calculation = 'relax'
prefix = 'scf'
pseudo_dir = '/vol0403/data/hp230205/u10028/POT_HYBRID_KKJUS_GBRV'
outdir = './data'
tprnfor = .true.
nstep = 70
disk_io = 'non'
/
&SYSTEM
ibrav = 0
ecutwfc = 50.0
ecutrho = 400
occupations = 'smearing'
smearing = 'mp'
degauss = 0.01
assume_isolated = 'esm'
esm_bc = 'bc1'
input_dft = 'BEEF-VDW'
nosym = .true.
nspin = 1
ntyp = 5
nat = 33
/
&ELECTRONS
electron_maxstep = 200
mixing_beta = 0.1
conv_thr = 1e-06
/
&IONS
ion_dynamics = 'bfgs'
upscale = 1.0
/
&CELL
/

K_POINTS {automatic}
9 6 2 0  0  0

ATOMIC_SPECIES
Al 26.98 Al.pbe-nl-rrkjus_psl.1.0.0.UPF
C 12.01 C.pbe-n-rrkjus_psl.1.0.0.UPF
Cu 63.54 Cu.pbe-dn-rrkjus_psl.1.0.0.UPF
In 114.8 In.pbe-dn-rrkjus_psl.1.0.0.UPF
Li 6.941 Li.pbe-sl-rrkjus_psl.1.0.0.UPF


CELL_PARAMETERS {angstrom}
6.37467000 0.00000000 0.00000000
-0.00000000 9.01514000 0.00000000
0.00000000 0.00000000 26.76140000

ATOMIC_POSITIONS {angstrom}
Li 4.78100250 0.00000000 -1.1269225499999997 0 0 0
Li 4.78100250 4.50757000 -1.1269225499999997 0 0 0
Li 1.59366750 2.25378500 -3.38076766 0 0 0
Li 1.59366750 6.76135500 -3.38076766 0 0 0
Li 4.66020250 4.34746111 3.91599566
Li 4.66020250 0.16010889 3.91599566
Li 1.61323774 6.76135500 1.16465613
Li 1.42594993 2.25378500 1.22834826
Al 0.00000000 0.00000000 -3.38076766 0 0 0
Al 0.00000000 4.50757000 -3.38076766 0 0 0
Al 3.18733500 6.76135500 -1.1269225499999997 0 0 0
Al 3.18733500 2.25378500 -1.1269225499999997 0 0 0
Al 6.30505860 4.60781836 1.25885626
Al 6.30505860 8.91498179 1.25885626
Al 2.87159759 2.25378500 3.47122119
Al 3.17726302 6.76135500 3.36176707
In 0.00000000 2.25378500 -1.1269225499999997 0 0 0
In 0.00000000 6.76135500 -1.1269225499999997 0 0 0
In 3.18733500 4.50757000 -3.38076766 0 0 0
In 3.18733500 0.00000000 -3.38076766 0 0 0
In 6.27592636 6.76135500 3.61947935
In 0.36514110 2.25378500 4.46085777
In 3.30641384 0.11007486 1.17830444
In 3.30641384 4.39749514 1.17830444
Cu 1.59366750 0.00000000 -1.1269225499999997 0 0 0
Cu 1.59366750 4.50757000 -1.1269225499999997 0 0 0
Cu 4.78100250 2.25378500 -3.38076766 0 0 0
Cu 4.78100250 6.76135500 -3.38076766 0 0 0
Cu 1.60036090 4.61448956 3.19450832
Cu 1.60036090 8.90822044 3.19450832
Cu 4.71802076 6.76135500 1.00703148
Cu 5.20714919 2.25378500 1.73387111
C 4.72700905 2.25378500 3.75730056
