&CONTROL
calculation = 'relax'
prefix = 'scf'
pseudo_dir = '/vol0004/mdt0/data/hp150275/u10028/POT_KKJUS'
outdir = './data'
tprnfor = .true.
nstep = 50
disk_io = 'non'
/
&SYSTEM
ibrav = 0
ecutwfc = 50.0
ecutrho = 400
occupations = 'smearing'
smearing = 'mp'
degauss = 0.01
assume_isolated = 'esm'
esm_bc = 'bc1'
input_dft = 'BEEF-VDW'
nosym = .true.
nspin = 1
ntyp = 3
nat = 16
/
&ELECTRONS
electron_maxstep = 200
mixing_beta = 0.1
conv_thr = 1e-06
/
&IONS
ion_dynamics = 'bfgs'
upscale = 1.0
/
&CELL
/

K_POINTS {automatic}
10 10 2 0  0  0

ATOMIC_SPECIES
Li 6.941 Li.pbe-sl-rrkjus_psl.1.0.0.UPF
Mg 24.30 Mg.pbe-spnl-rrkjus_psl.1.0.0.UPF
Pb 207.2 Pb.pbe-dn-rrkjus_psl.1.0.0.UPF

CELL_PARAMETERS {angstrom}
6.88544000 0.00000000 0.00000000
-0.00000000 6.88544000 0.00000000
0.00000000 0.00000000 25.16410000

ATOMIC_POSITIONS {angstrom}
Li 1.72136000 1.72136000 -0.8606122200000001 0 0 0
Li 5.16408000 5.16408000 2.58208830
Li 5.16408000 1.72136000 -0.8606122200000001 0 0 0
Li 1.72136000 5.16408000 2.58208830
Li 5.16408000 5.16408000 -0.8606122200000001 0 0 0
Li 1.72136000 1.72136000 2.58208830
Li 1.72136000 5.16408000 -0.8606122200000001 0 0 0
Li 5.16408000 1.72136000 2.58208830
Mg 0.00000000 0.00000000 -2.5820883000000023 0 0 0
Mg 3.44272000 3.44272000 -2.5820883000000023 0 0 0
Mg 3.44272000 -0.00000000 0.86061222
Mg 0.00000000 3.44272000 0.86061222
Pb 0.00000000 0.00000000 0.86061222
Pb 3.44272000 0.00000000 -2.5820883000000023 0 0 0
Pb 0.00000000 3.44272000 -2.5820883000000023 0 0 0
Pb 3.44272000 3.44272000 0.86061222
