&CONTROL
calculation = 'relax'
prefix = 'scf'
pseudo_dir = '/vol0004/mdt0/data/hp150275/u10028/POT_HYBRID_KKJUS_GBRV'
outdir = './data'
tprnfor = .true.
nstep = 50
disk_io = 'non'
/
&SYSTEM
ibrav = 0
ecutwfc = 50.0
ecutrho = 400
occupations = 'smearing'
smearing = 'mp'
degauss = 0.01
assume_isolated = 'esm'
esm_bc = 'bc1'
input_dft = 'BEEF-VDW'
nosym = .true.
nspin = 2
ntyp = 3
nat = 16
starting_magnetization(1) = 0.1
starting_magnetization(2) = 0.1
starting_magnetization(3) = 0.1
/
&ELECTRONS
electron_maxstep = 200
mixing_beta = 0.1
conv_thr = 1e-06
/
&IONS
ion_dynamics = 'bfgs'
upscale = 1.0
/
&CELL
/

K_POINTS {automatic}
10 10 2 0  0  0

ATOMIC_SPECIES
Mn 54.93 mn_pbe_v1.5.uspp.F.UPF
Ni 58.69 ni_pbe_v1.4.uspp.F.UPF
Sn 118.7 Sn.pbe-dn-rrkjus_psl.1.0.0.UPF

CELL_PARAMETERS {angstrom}
6.10266000 0.00000000 0.00000000
-0.00000000 6.10266000 0.00000000
0.00000000 0.00000000 24.57700000

ATOMIC_POSITIONS {angstrom}
Mn 0.00000000 0.00000000 -2.2886102400000006 0 0 0
Mn 3.05133000 3.05133000 -2.2886102400000006 0 0 0
Mn 3.05133000 -0.00000000 0.76287008
Mn 0.00000000 3.05133000 0.76287008
Ni 1.52566500 1.52566500 -0.7628700800000026 0 0 0
Ni 4.57699500 4.57699500 2.28861024
Ni 4.57699500 1.52566500 -0.7628700800000026 0 0 0
Ni 1.52566500 4.57699500 2.28861024
Ni 4.57699500 4.57699500 -0.7628700800000026 0 0 0
Ni 1.52566500 1.52566500 2.28861024
Ni 1.52566500 4.57699500 -0.7628700800000026 0 0 0
Ni 4.57699500 1.52566500 2.28861024
Sn 0.00000000 0.00000000 0.76287008
Sn 3.05133000 0.00000000 -2.2886102400000006 0 0 0
Sn 0.00000000 3.05133000 -2.2886102400000006 0 0 0
Sn 3.05133000 3.05133000 0.76287008
