&CONTROL
calculation = 'relax'
prefix = 'scf'
pseudo_dir = '/vol0004/mdt0/data/hp150275/u10028/POT_KKJUS'
outdir = './data'
tprnfor = .true.
nstep = 50
disk_io = 'non'
/
&SYSTEM
ibrav = 0
ecutwfc = 50.0
ecutrho = 400
occupations = 'smearing'
smearing = 'mp'
degauss = 0.01
assume_isolated = 'esm'
esm_bc = 'bc1'
input_dft = 'BEEF-VDW'
nosym = .true.
nspin = 1
ntyp = 4
nat = 33
/
&ELECTRONS
electron_maxstep = 200
mixing_beta = 0.1
conv_thr = 1e-06
/
&IONS
ion_dynamics = 'bfgs'
upscale = 1.0
/
&CELL
/

K_POINTS {automatic}
9 6 2 0  0  0

ATOMIC_SPECIES
Al 26.98 Al.pbe-nl-rrkjus_psl.1.0.0.UPF
C 12.01 C.pbe-n-rrkjus_psl.1.0.0.UPF
Hf 178.4 Hf.pbe-spn-rrkjus_psl.1.0.0.UPF
Pd 106.4 Pd.pbe-n-rrkjus_psl.1.0.0.UPF

CELL_PARAMETERS {angstrom}
6.44324000 0.00000000 0.00000000
0.00000000 9.11212000 0.00000000
0.00000000 0.00000000 26.83410000

ATOMIC_POSITIONS {angstrom}
Hf 0.00000000 0.00000000 -3.4170542899999994 0 0 0
Hf 3.22162000 2.27803000 -1.1391075399999977 0 0 0
Hf 3.22162000 6.83409000 -1.1391075399999977 0 0 0
Hf 0.00000000 4.55606000 -3.4170542899999994 0 0 0
Hf 0.00000000 4.55606000 1.16433160
Hf 3.22162000 6.75080522 3.41088245
Hf 3.22162000 2.36131478 3.41088245
Hf 0.00000000 0.00000000 1.21397468
Al 0.00000000 6.83409000 -1.1391075399999977 0 0 0
Al 3.22162000 0.00000000 -3.4170542899999994 0 0 0
Al 0.00000000 2.27803000 -1.1391075399999977 0 0 0
Al 3.22162000 4.55606000 -3.4170542899999994 0 0 0
Al 0.00000000 2.16604205 3.32930679
Al 3.22162000 4.55606000 1.18526220
Al 0.00000000 6.94607795 3.32930679
Al 3.22162000 0.00000000 1.22846510
Pd 1.61081000 0.00000000 -1.1391075399999977 0 0 0
Pd 4.83243000 4.55606000 -1.1391075399999977 0 0 0
Pd 4.83243000 0.00000000 -1.1391075399999977 0 0 0
Pd 1.61081000 4.55606000 -1.1391075399999977 0 0 0
Pd 4.83243000 6.83409000 -3.4170542899999994 0 0 0
Pd 1.61081000 2.27803000 -3.4170542899999994 0 0 0
Pd 1.61081000 6.83409000 -3.4170542899999994 0 0 0
Pd 4.83243000 2.27803000 -3.4170542899999994 0 0 0
Pd 1.50572076 4.55606000 3.40873572
Pd 4.51832205 0.00000000 3.60301461
Pd 4.93751924 4.55606000 3.40873572
Pd 1.92491795 0.00000000 3.60301461
Pd 4.74969880 2.30928457 1.11603022
Pd 1.69354120 6.80283543 1.11603022
Pd 1.69354120 2.30928457 1.11603022
Pd 4.74969880 6.80283543 1.11603022
C 0.00000000 0.00000000 3.35345748
