&CONTROL
calculation = 'relax'
prefix = 'scf'
pseudo_dir = '/vol0403/data/hp230205/u10028/POT_HYBRID_KKJUS_GBRV'
outdir = './data'
tprnfor = .true.
nstep = 50
disk_io = 'non'
/
&SYSTEM
ibrav = 0
ecutwfc = 50.0
ecutrho = 400
occupations = 'smearing'
smearing = 'mp'
degauss = 0.01
assume_isolated = 'esm'
esm_bc = 'bc1'
input_dft = 'BEEF-VDW'
nosym = .true.
nspin = 1
ntyp = 6
nat = 18
/
&ELECTRONS
electron_maxstep = 200
mixing_beta = 0.1
conv_thr = 1e-06
/
&IONS
ion_dynamics = 'bfgs'
upscale = 1.0
/
&CELL
/

K_POINTS {automatic}
8 10 2 0  0  0

ATOMIC_SPECIES
C 12.01 C.pbe-n-rrkjus_psl.1.0.0.UPF
Ge 72.64 Ge.pbe-dn-rrkjus_psl.1.0.0.UPF
Li 6.941 Li.pbe-sl-rrkjus_psl.1.0.0.UPF
O 15.99 O.pbe-n-rrkjus_psl.1.0.0.UPF
Pb 207.2 Pb.pbe-dn-rrkjus_psl.1.0.0.UPF
Y 88.90 Y.pbe-spn-rrkjus_psl.1.0.0.UPF


CELL_PARAMETERS {angstrom}
8.55406000 0.00000000 0.00000000
0.00000000 6.56037000 0.00000000
0.00000000 0.00000000 24.87870000

ATOMIC_POSITIONS {angstrom}
Li 2.15006298 5.05843889 1.18273340
Li 2.13851500 1.00170290 -2.4393565299999977 0 0 0
Li 6.40399702 5.05850450 1.18273340
Li 6.41554500 1.00170290 -2.4393565299999977 0 0 0
Y 2.13723189 1.60027105 0.85159790
Y 2.13851500 4.28188790 -2.4393565299999977 0 0 0
Y 6.41674257 1.60007424 0.85209548
Y 6.41554500 4.28188790 -2.4393565299999977 0 0 0
Ge 0.00051324 6.44202093 2.05149760
Ge 0.00000000 2.85461380 -0.8130359199999972 0 0 0
Ge 4.27660230 6.42673526 2.05448305
Ge 4.27703000 2.85461380 -0.8130359199999972 0 0 0
Pb 0.00008554 3.55368683 2.32242664
Pb 0.00000000 6.13479880 -0.8130359199999972 0 0 0
Pb 4.27677338 3.53433373 2.38039402
Pb 4.27703000 6.13479880 -0.8130359199999972 0 0 0
C 0.00008554 3.23419681 5.94401900
O 8.55388892 3.28923831 7.07749258
