&CONTROL
calculation = 'relax'
prefix = 'scf'
pseudo_dir = '/vol0004/mdt0/data/hp150275/u10028/POT_KKJUS'
outdir = './data'
tprnfor = .true.
nstep = 50
disk_io = 'non'
/
&SYSTEM
ibrav = 0
ecutwfc = 50.0
ecutrho = 400
occupations = 'smearing'
smearing = 'mp'
degauss = 0.01
assume_isolated = 'esm'
esm_bc = 'bc1'
input_dft = 'BEEF-VDW'
nosym = .true.
nspin = 1
ntyp = 3
nat = 32
/
&ELECTRONS
electron_maxstep = 200
mixing_beta = 0.1
conv_thr = 1e-06
/
&IONS
ion_dynamics = 'bfgs'
upscale = 1.0
/
&CELL
/

K_POINTS {automatic}
9 6 2 0  0  0

ATOMIC_SPECIES
Al 26.98 Al.pbe-nl-rrkjus_psl.1.0.0.UPF
Ti 47.86 Ti.pbe-spn-rrkjus_psl.1.0.0.UPF
Zr 91.22 Zr.pbe-spn-rrkjus_psl.1.0.0.UPF

CELL_PARAMETERS {angstrom}
6.81091000 0.00000000 0.00000000
0.00000000 9.63207000 0.00000000
0.00000000 0.00000000 27.22410000

ATOMIC_POSITIONS {angstrom}
Zr 1.70272750 0.00000000 -1.2041219400000003 0 0 0
Zr 5.10818250 4.81603500 -1.2041219400000003 0 0 0
Zr 5.10818250 0.00000000 -1.2041219400000003 0 0 0
Zr 1.70272750 4.81603500 -1.2041219400000003 0 0 0
Zr 5.10818250 7.22405250 -3.6120935900000006 0 0 0
Zr 1.70272750 2.40801750 -3.6120935900000006 0 0 0
Zr 1.70272750 7.22405250 -3.6120935900000006 0 0 0
Zr 5.10818250 2.40801750 -3.6120935900000006 0 0 0
Zr 1.79821646 4.81603500 3.55655642
Zr 5.01276165 0.00000000 3.55628418
Zr 5.01269354 4.81603500 3.55655642
Zr 1.79814835 0.00000000 3.55628418
Zr 5.06500133 2.40782486 1.22018416
Zr 1.74597678 7.22424514 1.22018416
Zr 1.74590867 2.40782486 1.22018416
Zr 5.06493322 7.22424514 1.22018416
Ti 0.00000000 0.00000000 -3.6120935900000006 0 0 0
Ti 3.40545500 2.40801750 -1.2041219400000003 0 0 0
Ti 3.40545500 7.22405250 -1.2041219400000003 0 0 0
Ti 0.00000000 4.81603500 -3.6120935900000006 0 0 0
Ti 0.00000000 4.81603500 1.47554622
Ti 3.40545500 7.22414882 3.66109697
Ti 3.40545500 2.40801750 3.66082473
Ti 0.00000000 0.00000000 1.47554622
Al 0.00000000 7.22405250 -1.2041219400000003 0 0 0
Al 3.40545500 0.00000000 -3.6120935900000006 0 0 0
Al 0.00000000 2.40801750 -1.2041219400000003 0 0 0
Al 3.40545500 4.81603500 -3.6120935900000006 0 0 0
Al 0.00000000 2.40801750 3.51299786
Al 3.40545500 4.81603500 1.14559013
Al 0.00000000 7.22405250 3.51327011
Al 3.40545500 0.00000000 1.14559013
