&CONTROL
calculation = 'relax'
prefix = 'scf'
pseudo_dir = '/vol0004/mdt0/data/hp150275/u10028/POT_KKJUS'
outdir = './data'
tprnfor = .true.
nstep = 50
disk_io = 'non'
/
&SYSTEM
ibrav = 0
ecutwfc = 50.0
ecutrho = 400
occupations = 'smearing'
smearing = 'mp'
degauss = 0.01
assume_isolated = 'esm'
esm_bc = 'bc1'
input_dft = 'BEEF-VDW'
nosym = .true.
nspin = 1
ntyp = 5
nat = 18
/
&ELECTRONS
electron_maxstep = 200
mixing_beta = 0.1
conv_thr = 1e-06
/
&IONS
ion_dynamics = 'bfgs'
upscale = 1.0
/
&CELL
/

K_POINTS {automatic}
9 9 2 0  0  0

ATOMIC_SPECIES
C 12.01 C.pbe-n-rrkjus_psl.1.0.0.UPF
O 15.99 O.pbe-n-rrkjus_psl.1.0.0.UPF
Pd 106.4 Pd.pbe-n-rrkjus_psl.1.0.0.UPF
Sc 44.95 Sc.pbe-spn-rrkjus_psl.1.0.0.UPF
Sn 118.7 Sn.pbe-dn-rrkjus_psl.1.0.0.UPF

CELL_PARAMETERS {angstrom}
6.62889000 0.00000000 0.00000000
0.00000000 6.62889000 0.00000000
0.00000000 0.00000000 24.97170000

ATOMIC_POSITIONS {angstrom}
Sc 0.00722549 6.57015803 2.47269773
Sc 3.31868749 3.28726655 2.42749896
Sc 3.31444500 0.00000000 -0.8285610099999978 0 0 0
Sc 0.00000000 3.31444500 -0.8285610099999978 0 0 0
Sn 0.00000000 0.00000000 -0.8285610099999978 0 0 0
Sn 3.31232376 0.00934673 2.60529746
Sn 6.62683504 3.31225747 2.57208510
Sn 3.31444500 3.31444500 -0.8285610099999978 0 0 0
Pd 1.64290410 1.65543270 0.89573488
Pd 4.97166750 4.97166750 -2.485932739999999 0 0 0
Pd 4.98499157 1.64800834 0.89798233
Pd 1.65722250 4.97166750 -2.485932739999999 0 0 0
Pd 4.93600407 4.96019952 0.90497441
Pd 1.65722250 1.65722250 -2.485932739999999 0 0 0
Pd 1.69533862 4.95058763 0.89798233
Pd 4.97166750 1.65722250 -2.485932739999999 0 0 0
C 0.11985033 5.85569627 4.68094516
O 0.16711432 5.53200757 5.78319600
