&CONTROL
calculation = 'relax'
prefix = 'scf'
pseudo_dir = '/vol0004/mdt0/data/hp150275/u10028/POT_HYBRID_KKJUS_GBRV'
outdir = './data'
tprnfor = .true.
nstep = 50
disk_io = 'non'
/
&SYSTEM
ibrav = 0
ecutwfc = 50.0
ecutrho = 400
occupations = 'smearing'
smearing = 'mp'
degauss = 0.01
assume_isolated = 'esm'
esm_bc = 'bc1'
input_dft = 'BEEF-VDW'
nosym = .true.
nspin = 2
ntyp = 4
nat = 33
starting_magnetization(1) = 0.0
starting_magnetization(2) = 0.0
starting_magnetization(3) = 0.001
starting_magnetization(4) = 0.0
/
&ELECTRONS
electron_maxstep = 300
mixing_beta = 0.1
conv_thr = 1e-06
/
&IONS
ion_dynamics = 'bfgs'
upscale = 1.0
/
&CELL
/

K_POINTS {automatic}
8 6 1 0 0 0

ATOMIC_SPECIES
C 12.01 C.pbe-n-rrkjus_psl.1.0.0.UPF
Mg 24.30 Mg.pbe-spnl-rrkjus_psl.1.0.0.UPF
Ni 58.69 ni_pbe_v1.4.uspp.F.UPF
Sn 118.7 Sn.pbe-dn-rrkjus_psl.1.0.0.UPF

CELL_PARAMETERS {angstrom}
6.21377000 0.00000000 0.00000000
0.00000000 8.78760000 0.00000000
0.00000000 0.00000000 26.59070000

ATOMIC_POSITIONS {angstrom}
Mg 0.00000000 0.00000000 -3.2953854499999977 0 0 0
Mg 3.10688500 2.19690000 -1.0984618199999971 0 0 0
Mg 3.10688500 6.59070000 -1.0984618199999971 0 0 0
Mg 0.00000000 4.39380000 -3.2953854499999977 0 0 0
Mg 0.00000000 4.39371212 1.01257386
Mg 3.10688500 6.53577750 3.51768370
Mg 3.10688500 2.25191038 3.51768370
Mg 0.00000000 0.00000000 1.10218452
Ni 1.55344250 0.00000000 -1.0984618199999971 0 0 0
Ni 4.66032750 4.39380000 -1.0984618199999971 0 0 0
Ni 4.66032750 0.00000000 -1.0984618199999971 0 0 0
Ni 1.55344250 4.39380000 -1.0984618199999971 0 0 0
Ni 4.66032750 6.59070000 -3.2953854499999977 0 0 0
Ni 1.55344250 2.19690000 -3.2953854499999977 0 0 0
Ni 1.55344250 6.59070000 -3.2953854499999977 0 0 0
Ni 4.66032750 2.19690000 -3.2953854499999977 0 0 0
Ni 1.47303632 4.39380000 3.09090297
Ni 4.86177792 8.78751212 3.37409392
Ni 4.74073368 4.39380000 3.09090297
Ni 1.35199208 8.78751212 3.37409392
Ni 4.65032333 2.20111805 1.15377047
Ni 1.56344667 6.58656983 1.15377047
Ni 1.56344667 2.20111805 1.15377047
Ni 4.65032333 6.58656983 1.15377047
Sn 0.00000000 6.59070000 -1.0984618199999971 0 0 0
Sn 3.10688500 0.00000000 -3.2953854499999977 0 0 0
Sn 0.00000000 2.19690000 -1.0984618199999971 0 0 0
Sn 3.10688500 4.39380000 -3.2953854499999977 0 0 0
Sn 0.00000000 2.25630418 3.43605025
Sn 3.10688500 4.39380000 1.08543237
Sn 0.00000000 6.53129582 3.43605025
Sn 3.10688500 0.00008788 1.12877521
C 3.10688500 0.00000000 3.70807311
