&CONTROL
calculation = 'relax'
prefix = 'scf'
pseudo_dir = '/vol0403/data/hp230205/u10028/POT_HYBRID_KKJUS_GBRV'
outdir = './data'
tprnfor = .true.
nstep = 70
disk_io = 'non'
/
&SYSTEM
ibrav = 0
ecutwfc = 50.0
ecutrho = 400
occupations = 'smearing'
smearing = 'mp'
degauss = 0.01
assume_isolated = 'esm'
esm_bc = 'bc1'
input_dft = 'BEEF-VDW'
nosym = .true.
nspin = 1
ntyp = 6
nat = 34
/
&ELECTRONS
electron_maxstep = 200
mixing_beta = 0.1
conv_thr = 1e-06
/
&IONS
ion_dynamics = 'bfgs'
upscale = 1.0
/
&CELL
/

K_POINTS {automatic}
9 6 2 0  0  0

ATOMIC_SPECIES
C 12.01 C.pbe-n-rrkjus_psl.1.0.0.UPF
Cu 63.54 Cu.pbe-dn-rrkjus_psl.1.0.0.UPF
Li 6.941 Li.pbe-sl-rrkjus_psl.1.0.0.UPF
O 15.99 O.pbe-n-rrkjus_psl.1.0.0.UPF
Pb 207.2 Pb.pbe-dn-rrkjus_psl.1.0.0.UPF
Pd 106.4 Pd.pbe-n-rrkjus_psl.1.0.0.UPF


CELL_PARAMETERS {angstrom}
6.46272000 0.00000000 0.00000000
-0.00000000 9.13966000 0.00000000
0.00000000 0.00000000 26.85470000

ATOMIC_POSITIONS {angstrom}
Li 0.00000000 2.28491500 -1.1423989399999996 0 0 0
Li 0.00000000 6.85474500 -1.1423989399999996 0 0 0
Li 3.23136000 4.56983000 -3.4274653599999994 0 0 0
Li 3.23136000 0.00000000 -3.4274653599999994 0 0 0
Li 0.22393325 6.76115488 3.68312210
Li 0.22393325 2.37850512 3.68312210
Li 3.18146780 -0.00000000 1.15152954
Li 3.42239800 4.56983000 1.21034133
Cu 0.00000000 0.00000000 -3.4274653599999994 0 0 0
Cu 0.00000000 4.56983000 -3.4274653599999994 0 0 0
Cu 3.23136000 6.85474500 -1.1423989399999996 0 0 0
Cu 3.23136000 2.28491500 -1.1423989399999996 0 0 0
Cu 6.20459896 4.56983000 1.42115072
Cu 0.02223176 0.00000000 1.20443330
Cu 3.29540556 2.29058159 3.25129853
Cu 3.29540556 6.84907841 3.25129853
Pd 1.61568000 0.00000000 -1.1423989399999996 0 0 0
Pd 1.61568000 4.56983000 -1.1423989399999996 0 0 0
Pd 4.84704000 2.28491500 -3.4274653599999994 0 0 0
Pd 4.84704000 6.85474500 -3.4274653599999994 0 0 0
Pd 1.80368052 4.56983000 3.13958298
Pd 1.60107425 -0.00000000 3.47096998
Pd 4.90630314 6.91826564 1.11500714
Pd 4.90630314 2.22130297 1.11500714
Pb 4.84704000 0.00000000 -1.1423989399999996 0 0 0
Pb 4.84704000 4.56983000 -1.1423989399999996 0 0 0
Pb 1.61568000 2.28491500 -3.4274653599999994 0 0 0
Pb 1.61568000 6.85474500 -3.4274653599999994 0 0 0
Pb 4.68896187 4.56973860 3.96106825
Pb 4.85660483 -0.00000000 3.53595835
Pb 1.54110021 6.79917587 1.10775638
Pb 1.54110021 2.34039274 1.10775638
C 1.59306048 -0.00000000 5.41498171
O 1.63784713 -0.00000000 6.56865962
