&CONTROL
calculation = 'relax'
prefix = 'scf'
pseudo_dir = '/vol0004/mdt0/data/hp150275/u10028/POT_KKJUS'
outdir = './data'
tprnfor = .true.
nstep = 50
disk_io = 'non'
/
&SYSTEM
ibrav = 0
ecutwfc = 50.0
ecutrho = 400
occupations = 'smearing'
smearing = 'mp'
degauss = 0.01
assume_isolated = 'esm'
esm_bc = 'bc1'
input_dft = 'BEEF-VDW'
nosym = .true.
nspin = 1
ntyp = 5
nat = 34
/
&ELECTRONS
electron_maxstep = 200
mixing_beta = 0.1
conv_thr = 1e-06
/
&IONS
ion_dynamics = 'bfgs'
upscale = 1.0
/
&CELL
/

K_POINTS {automatic}
9 6 2 0  0  0

ATOMIC_SPECIES
C 12.01 C.pbe-n-rrkjus_psl.1.0.0.UPF
Hf 178.4 Hf.pbe-spn-rrkjus_psl.1.0.0.UPF
Ni 58.69 Ni.pbe-spn-rrkjus_psl.1.0.0.UPF
O 15.99 O.pbe-n-rrkjus_psl.1.0.0.UPF
Sn 118.7 Sn.pbe-dn-rrkjus_psl.1.0.0.UPF

CELL_PARAMETERS {angstrom}
6.28964000 0.00000000 0.00000000
0.00000000 8.89490000 0.00000000
0.00000000 0.00000000 26.67120000

ATOMIC_POSITIONS {angstrom}
Hf 0.00000000 0.00000000 -3.335500269999997 0 0 0
Hf 3.14482000 2.22372500 -1.1119223299999987 0 0 0
Hf 3.14482000 6.67117500 -1.1119223299999987 0 0 0
Hf 0.00000000 4.44745000 -3.335500269999997 0 0 0
Hf 6.27819286 4.44745000 1.14046051
Hf 3.13481947 6.66459277 3.33683383
Hf 3.13469368 2.23021828 3.33683383
Hf 0.00729598 8.89481105 1.13699326
Ni 1.57241000 0.00000000 -1.1119223299999987 0 0 0
Ni 4.71723000 4.44745000 -1.1119223299999987 0 0 0
Ni 4.71723000 0.00000000 -1.1119223299999987 0 0 0
Ni 1.57241000 4.44745000 -1.1119223299999987 0 0 0
Ni 4.71723000 6.67117500 -3.335500269999997 0 0 0
Ni 1.57241000 2.22372500 -3.335500269999997 0 0 0
Ni 1.57241000 6.67117500 -3.335500269999997 0 0 0
Ni 4.71723000 2.22372500 -3.335500269999997 0 0 0
Ni 1.66128261 4.44745000 3.21734686
Ni 4.70169459 0.00008895 3.15386940
Ni 4.57697103 4.44727210 3.23068246
Ni 1.62964572 0.00026685 3.50619595
Ni 4.71660104 2.21056055 1.18233430
Ni 1.55423294 6.66316959 1.21353960
Ni 1.55467322 2.23190831 1.21353960
Ni 4.71710421 6.68433945 1.18313443
Sn 0.00000000 6.67117500 -1.1119223299999987 0 0 0
Sn 3.14482000 0.00000000 -3.335500269999997 0 0 0
Sn 0.00000000 2.22372500 -1.1119223299999987 0 0 0
Sn 3.14482000 4.44745000 -3.335500269999997 0 0 0
Sn 6.24108398 2.26828845 3.53446742
Sn 3.13972539 4.44736105 1.05377911
Sn 6.24120977 6.62652260 3.53473414
Sn 3.10161017 8.89481105 1.10738822
C 1.94419062 0.00008895 5.23822368
O 2.04759230 0.00008895 6.39602047
