&CONTROL
calculation = 'relax'
prefix = 'scf'
pseudo_dir = '/vol0403/data/hp230205/u10028/POT_HYBRID_KKJUS_GBRV'
outdir = './data'
tprnfor = .true.
nstep = 70
disk_io = 'non'
/
&SYSTEM
ibrav = 0
ecutwfc = 50.0
ecutrho = 400
occupations = 'smearing'
smearing = 'mp'
degauss = 0.01
assume_isolated = 'esm'
esm_bc = 'bc1'
input_dft = 'BEEF-VDW'
nosym = .true.
nspin = 1
ntyp = 6
nat = 18
/
&ELECTRONS
electron_maxstep = 200
mixing_beta = 0.1
conv_thr = 1e-06
/
&IONS
ion_dynamics = 'bfgs'
upscale = 1.0
/
&CELL
/

K_POINTS {automatic}
6 6 1 0 0 0

ATOMIC_SPECIES
C 12.01 C.pbe-n-rrkjus_psl.1.0.0.UPF
In 114.8 In.pbe-dn-rrkjus_psl.1.0.0.UPF
Li 6.941 Li.pbe-sl-rrkjus_psl.1.0.0.UPF
Mg 24.30 Mg.pbe-spnl-rrkjus_psl.1.0.0.UPF
O 15.99 O.pbe-n-rrkjus_psl.1.0.0.UPF
Y 88.90 Y.pbe-spn-rrkjus_psl.1.0.0.UPF


CELL_PARAMETERS {angstrom}
7.08651000 0.00000000 0.00000000
-0.00000000 7.08651000 0.00000000
0.00000000 0.00000000 25.31490000

ATOMIC_POSITIONS {angstrom}
Li 0.00000000 3.54325500 2.65755820
Li 0.00000000 0.00000000 -0.8857683500000029 0 0 0
Li 3.54325500 3.54325500 -0.8857683500000029 0 0 0
Li 3.54325500 -0.00000000 2.65755820
Y 1.77162750 1.77162750 0.88576835
Y 1.77162750 5.31488250 -2.6575582000000004 0 0 0
Y 5.31488250 1.77162750 -2.6575582000000004 0 0 0
Y 5.31488250 5.31488250 0.88576835
Mg 5.31488250 1.77162750 0.88576835
Mg 5.31488250 5.31488250 -2.6575582000000004 0 0 0
Mg 1.77162750 1.77162750 -2.6575582000000004 0 0 0
Mg 1.77162750 5.31488250 0.88576835
In 0.00000000 0.00000000 2.65755820
In 0.00000000 3.54325500 -0.8857683500000029 0 0 0
In 3.54325500 0.00000000 -0.8857683500000029 0 0 0
In 3.54325500 3.54325500 2.65755820
C 0.00000000 3.54325500 4.55744145
O 0.00000000 3.54325500 5.70749735
