&CONTROL
calculation = 'relax'
prefix = 'scf'
pseudo_dir = '/vol0403/data/hp230205/u10028/POT_HYBRID_KKJUS_GBRV'
outdir = './data'
tprnfor = .true.
nstep = 50
disk_io = 'non'
/
&SYSTEM
ibrav = 0
ecutwfc = 50.0
ecutrho = 400
occupations = 'smearing'
smearing = 'mp'
degauss = 0.01
assume_isolated = 'esm'
esm_bc = 'bc1'
input_dft = 'BEEF-VDW'
nosym = .true.
nspin = 1
ntyp = 5
nat = 33
/
&ELECTRONS
electron_maxstep = 200
mixing_beta = 0.1
conv_thr = 1e-06
/
&IONS
ion_dynamics = 'bfgs'
upscale = 1.0
/
&CELL
/

K_POINTS {automatic}
6 6 1 0 0 0

ATOMIC_SPECIES
C 12.01 C.pbe-n-rrkjus_psl.1.0.0.UPF
Ga 69.72 Ga.pbe-dnl-rrkjus_psl.1.0.0.UPF
Ge 72.64 Ge.pbe-dn-rrkjus_psl.1.0.0.UPF
Li 6.941 Li.pbe-sl-rrkjus_psl.1.0.0.UPF
Pd 106.4 Pd.pbe-n-rrkjus_psl.1.0.0.UPF


CELL_PARAMETERS {angstrom}
6.27488000 0.00000000 0.00000000
0.00000000 8.87402000 0.00000000
0.00000000 0.00000000 26.65550000

ATOMIC_POSITIONS {angstrom}
Li 4.70616000 0.00000000 -1.109135349999999 0 0 0
Li 4.70616000 4.43701000 -1.109135349999999 0 0 0
Li 1.56872000 2.21850500 -3.3276726200000013 0 0 0
Li 1.56872000 6.65551500 -3.3276726200000013 0 0 0
Li 4.88386460 4.63179474 3.79867530
Li 4.88373910 8.67914652 3.79867530
Li 1.67081230 6.65560374 1.09980593
Li 1.47522429 2.21850500 1.40581107
Ga 0.00000000 0.00000000 -3.3276726200000013 0 0 0
Ga 0.00000000 4.43701000 -3.3276726200000013 0 0 0
Ga 3.13744000 6.65551500 -1.109135349999999 0 0 0
Ga 3.13744000 2.21850500 -1.109135349999999 0 0 0
Ga 6.19060836 4.46647175 1.10140526
Ga 6.19054561 8.84473573 1.10140526
Ga 3.64162661 2.21850500 3.36525688
Ga 2.90639892 6.65542626 3.63714297
Ge 0.00000000 2.21850500 -1.109135349999999 0 0 0
Ge 0.00000000 6.65551500 -1.109135349999999 0 0 0
Ge 3.13744000 4.43701000 -3.3276726200000013 0 0 0
Ge 3.13744000 0.00000000 -3.3276726200000013 0 0 0
Ge 0.13610215 6.65551500 3.27942616
Ge 0.23210781 2.21841626 4.80118866
Ge 3.26149438 8.85254487 1.27573223
Ge 3.26143163 4.45857387 1.27573223
Pd 1.56872000 0.00000000 -1.109135349999999 0 0 0
Pd 1.56872000 4.43701000 -1.109135349999999 0 0 0
Pd 4.70616000 2.21850500 -3.3276726200000013 0 0 0
Pd 4.70616000 6.65551500 -3.3276726200000013 0 0 0
Pd 1.43349634 4.36930123 3.16054263
Pd 1.43355908 0.06770877 3.16054263
Pd 4.68928057 6.65551500 0.99558293
Pd 4.65539622 2.21859374 0.92654518
C 1.68392680 2.21850500 3.59476073
