&CONTROL
calculation = 'relax'
prefix = 'scf'
pseudo_dir = '/vol0004/mdt0/data/hp150275/u10028/POT_KKJUS'
outdir = './data'
tprnfor = .true.
nstep = 50
disk_io = 'non'
/
&SYSTEM
ibrav = 0
ecutwfc = 50.0
ecutrho = 400
occupations = 'smearing'
smearing = 'mp'
degauss = 0.01
assume_isolated = 'esm'
esm_bc = 'bc1'
input_dft = 'BEEF-VDW'
nosym = .true.
nspin = 1
ntyp = 4
nat = 34
/
&ELECTRONS
electron_maxstep = 200
mixing_beta = 0.1
conv_thr = 1e-06
/
&IONS
ion_dynamics = 'bfgs'
upscale = 1.0
/
&CELL
/

K_POINTS {automatic}
8 6 1 0 0 0

ATOMIC_SPECIES
C 12.01 C.pbe-n-rrkjus_psl.1.0.0.UPF
Mg 24.30 Mg.pbe-spnl-rrkjus_psl.1.0.0.UPF
O 15.99 O.pbe-n-rrkjus_psl.1.0.0.UPF
Sc 44.95 Sc.pbe-spn-rrkjus_psl.1.0.0.UPF

CELL_PARAMETERS {angstrom}
7.19733000 0.00000000 0.00000000
0.00000000 10.17860000 0.00000000
0.00000000 0.00000000 27.63390000

ATOMIC_POSITIONS {angstrom}
Mg 0.00000000 0.00000000 -3.817070610000002 0 0 0
Mg 0.00000000 2.54465000 -1.2722647600000023 0 0 0
Mg 0.00028789 5.07321781 1.21423357
Mg 0.00007197 2.54902680 3.68802029
Mg 0.00000000 5.08930000 -3.817070610000002 0 0 0
Mg 0.00000000 7.63395000 -1.2722647600000023 0 0 0
Mg 7.19725803 0.01883041 1.20870679
Mg 0.00007197 7.62509462 3.95689814
Mg 3.59866500 0.00000000 -3.817070610000002 0 0 0
Mg 3.59866500 2.54465000 -1.2722647600000023 0 0 0
Mg 3.59844908 5.11515364 1.19516617
Mg 3.59866500 2.54861965 3.85796878
Mg 3.59866500 5.08930000 -3.817070610000002 0 0 0
Mg 3.59866500 7.63395000 -1.2722647600000023 0 0 0
Mg 3.59880895 10.14551955 1.19461350
Mg 3.59852105 7.62672319 3.93589638
Sc 1.79933250 2.54465000 -3.817070610000002 0 0 0
Sc 1.79933250 0.00000000 -1.2722647600000023 0 0 0
Sc 1.87742353 2.54210535 1.26811967
Sc 1.82848169 5.09418573 3.65845202
Sc 1.79933250 7.63395000 -3.817070610000002 0 0 0
Sc 1.79933250 5.08930000 -1.2722647600000023 0 0 0
Sc 1.77867616 7.63303393 1.35350842
Sc 1.82531486 10.16994819 3.65541229
Sc 5.39799750 2.54465000 -3.817070610000002 0 0 0
Sc 5.39799750 0.00000000 -1.2722647600000023 0 0 0
Sc 5.32019436 2.54241071 1.26811967
Sc 5.36877634 5.09418573 3.65817568
Sc 5.39799750 7.63395000 -3.817070610000002 0 0 0
Sc 5.39799750 5.08930000 -1.2722647600000023 0 0 0
Sc 5.41872581 7.63272857 1.35350842
Sc 5.37194317 10.16994819 3.65541229
C 0.00000000 2.56348041 5.86197921
O 0.00000000 2.56022326 7.01901060
