&CONTROL
calculation = 'relax'
prefix = 'scf'
pseudo_dir = '/vol0403/data/hp230205/u10028/POT_HYBRID_KKJUS_GBRV'
outdir = './data'
tprnfor = .true.
nstep = 50
disk_io = 'non'
/
&SYSTEM
ibrav = 0
ecutwfc = 50.0
ecutrho = 400
occupations = 'smearing'
smearing = 'mp'
degauss = 0.01
assume_isolated = 'esm'
esm_bc = 'bc1'
input_dft = 'BEEF-VDW'
nosym = .true.
nspin = 1
ntyp = 5
nat = 33
/
&ELECTRONS
electron_maxstep = 200
mixing_beta = 0.1
conv_thr = 1e-06
/
&IONS
ion_dynamics = 'bfgs'
upscale = 1.0
/
&CELL
/

K_POINTS {automatic}
9 6 2 0  0  0

ATOMIC_SPECIES
C 12.01 C.pbe-n-rrkjus_psl.1.0.0.UPF
Ga 69.72 Ga.pbe-dnl-rrkjus_psl.1.0.0.UPF
In 114.8 In.pbe-dn-rrkjus_psl.1.0.0.UPF
Pd 106.4 Pd.pbe-n-rrkjus_psl.1.0.0.UPF
Sc 44.95 Sc.pbe-spn-rrkjus_psl.1.0.0.UPF


CELL_PARAMETERS {angstrom}
6.68246000 0.00000000 0.00000000
0.00000000 9.45042000 0.00000000
0.00000000 0.00000000 27.08780000

ATOMIC_POSITIONS {angstrom}
Sc 5.01184500 0.00000000 -1.181298960000003 0 0 0
Sc 5.01184500 4.72521000 -1.181298960000003 0 0 0
Sc 1.67061500 2.36260500 -3.543896870000001 0 0 0
Sc 1.67061500 7.08781500 -3.543896870000001 0 0 0
Sc 5.00309098 4.51295357 3.54525126
Sc 5.00302415 0.21225643 3.54525126
Sc 1.71251402 7.08781500 1.28044031
Sc 1.70984104 2.36260500 1.18536213
In 1.67061500 0.00000000 -1.181298960000003 0 0 0
In 1.67061500 4.72521000 -1.181298960000003 0 0 0
In 5.01184500 2.36260500 -3.543896870000001 0 0 0
In 5.01184500 7.08781500 -3.543896870000001 0 0 0
In 1.69253347 4.98245043 3.87193013
In 1.69253347 9.19317957 3.87193013
In 4.95170286 7.08781500 1.18644564
In 4.99881420 2.36260500 1.23330753
Ga 0.00000000 0.00000000 -3.543896870000001 0 0 0
Ga 0.00000000 4.72521000 -3.543896870000001 0 0 0
Ga 3.34123000 7.08781500 -1.181298960000003 0 0 0
Ga 3.34123000 2.36260500 -1.181298960000003 0 0 0
Ga 0.10638476 4.74940308 1.29371333
Ga 0.10645159 9.42622692 1.29371333
Ga 2.96413878 2.36260500 3.86299116
Ga 3.70602549 7.08772050 3.97567641
Pd 0.00000000 2.36260500 -1.181298960000003 0 0 0
Pd 0.00000000 7.08781500 -1.181298960000003 0 0 0
Pd 3.34123000 4.72521000 -3.543896870000001 0 0 0
Pd 3.34123000 0.00000000 -3.543896870000001 0 0 0
Pd 6.52943167 7.08781500 3.45477801
Pd 0.42694237 2.36260500 3.61784657
Pd 3.28489686 9.44834091 1.18400774
Pd 3.28496369 4.72719459 1.18400774
C 4.94221377 2.36260500 3.81965068
