&CONTROL
calculation = 'relax'
prefix = 'scf'
pseudo_dir = '/vol0004/mdt0/data/hp150275/u10028/POT_KKJUS'
outdir = './data'
tprnfor = .true.
nstep = 50
disk_io = 'non'
/
&SYSTEM
ibrav = 0
ecutwfc = 50.0
ecutrho = 400
occupations = 'smearing'
smearing = 'mp'
degauss = 0.01
assume_isolated = 'esm'
esm_bc = 'bc1'
input_dft = 'BEEF-VDW'
nosym = .true.
nspin = 1
ntyp = 2
nat = 32
/
&ELECTRONS
electron_maxstep = 200
mixing_beta = 0.1
conv_thr = 1e-06
/
&IONS
ion_dynamics = 'bfgs'
upscale = 1.0
/
&CELL
/

K_POINTS {automatic}
8 6 1 0 0 0

ATOMIC_SPECIES
Ag 107.8 Ag.pbe-n-rrkjus_psl.1.0.0.UPF
Li 6.941 Li.pbe-sl-rrkjus_psl.1.0.0.UPF

CELL_PARAMETERS {angstrom}
6.44966000 0.00000000 0.00000000
0.00000000 9.12120000 0.00000000
0.00000000 0.00000000 26.84090000

ATOMIC_POSITIONS {angstrom}
Li 1.61241500 2.28030000 -3.4203358900000005 0 0 0
Li 1.61241500 0.00000000 -1.1402014300000012 0 0 0
Li 1.61241500 2.28030000 1.12517053
Li 1.61241500 0.00000000 3.46650223
Li 1.61241500 6.84090000 -3.4203358900000005 0 0 0
Li 1.61241500 4.56060000 -1.1402014300000012 0 0 0
Li 1.61241500 6.84090000 1.12517053
Li 1.61241500 4.56060000 3.46623383
Li 4.83724500 2.28030000 -3.4203358900000005 0 0 0
Li 4.83724500 0.00000000 -1.1402014300000012 0 0 0
Li 4.83724500 2.28030000 1.12517053
Li 4.83724500 0.00000000 3.46650223
Li 4.83724500 6.84090000 -3.4203358900000005 0 0 0
Li 4.83724500 4.56060000 -1.1402014300000012 0 0 0
Li 4.83724500 6.84090000 1.12517053
Li 4.83724500 4.56060000 3.46650223
Ag 0.00000000 0.00000000 -3.4203358900000005 0 0 0
Ag 0.00000000 2.28030000 -1.1402014300000012 0 0 0
Ag 6.44946651 9.12110879 1.13510166
Ag 6.44933752 2.28039121 3.32746637
Ag 0.00000000 4.56060000 -3.4203358900000005 0 0 0
Ag 0.00000000 6.84090000 -1.1402014300000012 0 0 0
Ag 6.44946651 4.56078242 1.13510166
Ag 6.44933752 6.84071758 3.32692956
Ag 3.22483000 0.00000000 -3.4203358900000005 0 0 0
Ag 3.22483000 2.28030000 -1.1402014300000012 0 0 0
Ag 3.22502349 9.12110879 1.13510166
Ag 3.22515248 2.28030000 3.32719796
Ag 3.22483000 4.56060000 -3.4203358900000005 0 0 0
Ag 3.22483000 6.84090000 -1.1402014300000012 0 0 0
Ag 3.22502349 4.56069121 1.13510166
Ag 3.22508799 6.84090000 3.32666115
