&CONTROL
calculation = 'relax'
prefix = 'scf'
pseudo_dir = '/vol0403/data/hp230205/u10028/POT_HYBRID_KKJUS_GBRV'
outdir = './data'
tprnfor = .true.
nstep = 50
disk_io = 'non'
/
&SYSTEM
ibrav = 0
ecutwfc = 50.0
ecutrho = 400
occupations = 'smearing'
smearing = 'mp'
degauss = 0.01
assume_isolated = 'esm'
esm_bc = 'bc1'
input_dft = 'BEEF-VDW'
nosym = .true.
nspin = 1
ntyp = 6
nat = 18
/
&ELECTRONS
electron_maxstep = 200
mixing_beta = 0.1
conv_thr = 1e-06
/
&IONS
ion_dynamics = 'bfgs'
upscale = 1.0
/
&CELL
/

K_POINTS {automatic}
7 10 2 0  0  0

ATOMIC_SPECIES
C 12.01 C.pbe-n-rrkjus_psl.1.0.0.UPF
In 114.8 In.pbe-dn-rrkjus_psl.1.0.0.UPF
Li 6.941 Li.pbe-sl-rrkjus_psl.1.0.0.UPF
O 15.99 O.pbe-n-rrkjus_psl.1.0.0.UPF
Pb 207.2 Pb.pbe-dn-rrkjus_psl.1.0.0.UPF
Y 88.90 Y.pbe-spn-rrkjus_psl.1.0.0.UPF


CELL_PARAMETERS {angstrom}
9.00122000 0.00000000 0.00000000
0.00000000 6.63002000 0.00000000
0.00000000 0.00000000 24.97230000

ATOMIC_POSITIONS {angstrom}
Li 2.23572302 1.73388283 1.11401430
Li 2.25030500 4.92245835 -2.4862421900000022 0 0 0
Li 6.76549698 1.73388283 1.11401430
Li 6.75091500 4.92245835 -2.4862421900000022 0 0 0
Y 2.25174520 4.99930028 0.82308701
Y 2.25030500 1.60744835 -2.4862421900000022 0 0 0
Y 6.74947480 4.99930028 0.82308701
Y 6.75091500 1.60744835 -2.4862421900000022 0 0 0
In 0.00000000 0.14221393 2.44353956
In 0.00000000 3.28159470 -0.8288306399999996 0 0 0
In 4.50061000 0.15023625 2.45777377
In 4.50061000 3.28159470 -0.8288306399999996 0 0 0
Pb 0.00000000 3.32681144 2.40608111
Pb 0.00000000 6.59660470 -0.8288306399999996 0 0 0
Pb 4.50061000 3.30778328 2.40558166
Pb 4.50061000 6.59660470 -0.8288306399999996 0 0 0
C 0.00000000 3.71751851 6.34446254
O 9.00112999 3.08083769 7.28516908
