&CONTROL
calculation = 'relax'
prefix = 'scf'
pseudo_dir = '/vol0403/data/hp230205/u10028/POT_HYBRID_KKJUS_GBRV'
outdir = './data'
tprnfor = .true.
nstep = 50
disk_io = 'non'
/
&SYSTEM
ibrav = 0
ecutwfc = 50.0
ecutrho = 400
occupations = 'smearing'
smearing = 'mp'
degauss = 0.01
assume_isolated = 'esm'
esm_bc = 'bc1'
input_dft = 'BEEF-VDW'
nosym = .true.
nspin = 1
ntyp = 6
nat = 34
/
&ELECTRONS
electron_maxstep = 200
mixing_beta = 0.1
conv_thr = 1e-06
/
&IONS
ion_dynamics = 'bfgs'
upscale = 1.0
/
&CELL
/

K_POINTS {automatic}
6 6 1 0 0 0

ATOMIC_SPECIES
C 12.01 C.pbe-n-rrkjus_psl.1.0.0.UPF
In 114.8 In.pbe-dn-rrkjus_psl.1.0.0.UPF
Li 6.941 Li.pbe-sl-rrkjus_psl.1.0.0.UPF
O 15.99 O.pbe-n-rrkjus_psl.1.0.0.UPF
Sn 118.7 Sn.pbe-dn-rrkjus_psl.1.0.0.UPF
Y 88.90 Y.pbe-spn-rrkjus_psl.1.0.0.UPF


CELL_PARAMETERS {angstrom}
9.04200000 0.00000000 0.00000000
0.00000000 9.36656000 0.00000000
0.00000000 0.00000000 26.65140000

ATOMIC_POSITIONS {angstrom}
Li 2.26050000 0.00000000 -1.108698239999999 0 0 0
Li 2.26050000 0.05929032 1.68223637
Li 2.26050000 4.68328000 -1.108698239999999 0 0 0
Li 2.26050000 4.73713772 3.12514316
Li 6.78150000 0.00000000 -1.108698239999999 0 0 0
Li 6.78150000 0.07287184 3.16218861
Li 6.78150000 4.68328000 -1.108698239999999 0 0 0
Li 6.78150000 4.73104946 3.21495838
Y 0.00000000 2.34164000 -1.108698239999999 0 0 0
Y 0.47985894 1.79650621 3.37699889
Y 0.00000000 7.02492000 -1.108698239999999 0 0 0
Y 0.50137890 7.72600702 3.50226047
Y 4.52100000 2.34164000 -1.108698239999999 0 0 0
Y 4.04114106 1.79641254 3.37726541
Y 4.52100000 7.02492000 -1.108698239999999 0 0 0
Y 4.01953068 7.72600702 3.50252699
In 0.00000000 0.00000000 -3.3258282099999974 0 0 0
In 8.72399286 0.00739958 0.92640266
In 0.00000000 4.68328000 -3.3258282099999974 0 0 0
In 8.99715168 4.72177656 1.29259290
In 4.52100000 0.00000000 -3.3258282099999974 0 0 0
In 4.83891672 0.00739958 0.92640266
In 4.52100000 4.68328000 -3.3258282099999974 0 0 0
In 4.56584832 4.72177656 1.29232639
Sn 2.26050000 2.34164000 -3.3258282099999974 0 0 0
Sn 2.26050000 2.63752963 1.01381926
Sn 2.26050000 7.02492000 -3.3258282099999974 0 0 0
Sn 2.26050000 6.82644259 1.04633396
Sn 6.78150000 2.34164000 -3.3258282099999974 0 0 0
Sn 6.78159042 2.39793303 1.35069295
Sn 6.78150000 7.02492000 -3.3258282099999974 0 0 0
Sn 6.78150000 7.02623132 1.35202552
C 2.26040958 0.17103339 3.87991081
O 2.26050000 8.26514621 4.66772620
