&CONTROL
calculation = 'relax'
prefix = 'scf'
pseudo_dir = '/vol0004/mdt0/data/hp150275/u10028/POT_HYBRID_KKJUS_GBRV'
outdir = './data'
tprnfor = .true.
nstep = 50
disk_io = 'non'
/
&SYSTEM
ibrav = 0
ecutwfc = 50.0
ecutrho = 400
occupations = 'smearing'
smearing = 'mp'
degauss = 0.01
assume_isolated = 'esm'
esm_bc = 'bc1'
input_dft = 'BEEF-VDW'
nosym = .true.
nspin = 2
ntyp = 4
nat = 33
starting_magnetization(1) = 0.0
starting_magnetization(2) = 0.0
starting_magnetization(3) = 0.0
starting_magnetization(4) = 0.001
/
&ELECTRONS
electron_maxstep = 300
mixing_beta = 0.1
conv_thr = 1e-06
/
&IONS
ion_dynamics = 'bfgs'
upscale = 1.0
/
&CELL
/

K_POINTS {automatic}
9 6 2 0  0  0

ATOMIC_SPECIES
C 12.01 C.pbe-n-rrkjus_psl.1.0.0.UPF
Ga 69.72 Ga.pbe-dnl-rrkjus_psl.1.0.0.UPF
Nb 92.90 Nb.pbe-spn-rrkjus_psl.1.0.0.UPF
Ni 58.69 ni_pbe_v1.4.uspp.F.UPF

CELL_PARAMETERS {angstrom}
6.00328000 0.00000000 0.00000000
0.00000000 8.48992000 0.00000000
0.00000000 0.00000000 26.36740000

ATOMIC_POSITIONS {angstrom}
Nb 0.00000000 0.00000000 -3.183599879999999 0 0 0
Nb 3.00164000 2.12248000 -1.0612878499999994 0 0 0
Nb 3.00164000 6.36744000 -1.0612878499999994 0 0 0
Nb 0.00000000 4.24496000 -3.183599879999999 0 0 0
Nb 0.00000000 4.24504490 1.07262583
Nb 3.00164000 6.31115183 3.12981038
Nb 3.00164000 2.17868327 3.12954671
Nb 0.00000000 8.48983510 1.15963825
Ga 0.00000000 6.36744000 -1.0612878499999994 0 0 0
Ga 3.00164000 0.00000000 -3.183599879999999 0 0 0
Ga 0.00000000 2.12248000 -1.0612878499999994 0 0 0
Ga 3.00164000 4.24496000 -3.183599879999999 0 0 0
Ga 0.00000000 2.19141815 3.34628673
Ga 3.00164000 4.24496000 1.02885595
Ga 0.00000000 6.29850185 3.34628673
Ga 3.00164000 0.00016980 1.06313357
Ni 1.50082000 0.00000000 -1.0612878499999994 0 0 0
Ni 4.50246000 4.24496000 -1.0612878499999994 0 0 0
Ni 4.50246000 0.00000000 -1.0612878499999994 0 0 0
Ni 1.50082000 4.24496000 -1.0612878499999994 0 0 0
Ni 4.50246000 6.36744000 -3.183599879999999 0 0 0
Ni 1.50082000 2.12248000 -3.183599879999999 0 0 0
Ni 1.50082000 6.36744000 -3.183599879999999 0 0 0
Ni 4.50246000 2.12248000 -3.183599879999999 0 0 0
Ni 1.50934466 4.24487510 3.11873607
Ni 4.23075155 0.00000000 3.28616906
Ni 4.49393534 4.24487510 3.11873607
Ni 1.77252845 0.00000000 3.28616906
Ni 4.51026426 2.15516619 1.06286989
Ni 1.49337593 6.33483871 1.06286989
Ni 1.49301574 2.15516619 1.06286989
Ni 4.50990407 6.33483871 1.06286989
C 0.00000000 0.00008490 3.41800606
