&CONTROL
calculation = 'relax'
prefix = 'scf'
pseudo_dir = '/vol0004/mdt0/data/hp150275/u10028/POT_HYBRID_KKJUS_GBRV'
outdir = './data'
tprnfor = .true.
nstep = 50
disk_io = 'non'
/
&SYSTEM
ibrav = 0
ecutwfc = 50.0
ecutrho = 400
occupations = 'smearing'
smearing = 'mp'
degauss = 0.01
assume_isolated = 'esm'
esm_bc = 'bc1'
input_dft = 'BEEF-VDW'
nosym = .true.
nspin = 2
ntyp = 3
nat = 33
starting_magnetization(1) = 0.0
starting_magnetization(2) = 0.001
starting_magnetization(3) = 0.0
/
&ELECTRONS
electron_maxstep = 200
mixing_beta = 0.1
conv_thr = 1e-06
/
&IONS
ion_dynamics = 'bfgs'
upscale = 1.0
/
&CELL
/

K_POINTS {automatic}
7 8 2 0  0  0

ATOMIC_SPECIES
C 12.01 C.pbe-n-rrkjus_psl.1.0.0.UPF
Ni 58.69 ni_pbe_v1.4.uspp.F.UPF
Pt 195.0 Pt.pbe-n-rrkjus_psl.1.0.0.UPF

CELL_PARAMETERS {angstrom}
7.96875000 0.00000000 0.00000000
0.00000000 7.03042000 0.00000000
0.00000000 0.00000000 25.97660000

ATOMIC_POSITIONS {angstrom}
Ni 1.99218750 1.75760500 22.98825194
Ni 3.98437500 1.75760500 24.98039739
Ni 2.00533594 1.75605831 0.92061070
Ni 3.98445469 1.78031326 2.83274823
Ni 1.99218750 5.27281500 22.98825194
Ni 3.98437500 5.27281500 24.98039739
Ni 2.00533594 5.27436169 0.92035094
Ni 3.98437500 5.25010674 2.83300800
Ni 5.97656250 1.75760500 22.98825194
Ni 0.00000000 1.75760500 24.98039739
Ni 5.96341406 1.75605831 0.92035094
Ni 7.96867031 1.84843803 2.96263123
Ni 5.97656250 5.27281500 22.98825194
Ni 0.00000000 5.27281500 24.98039739
Ni 5.96333437 5.27436169 0.92035094
Ni 0.00000000 5.18191167 2.96263123
Pt 0.00000000 0.00000000 22.98825194
Pt 1.99218750 0.00000000 24.98039739
Pt 3.98445469 0.00000000 0.95697794
Pt 2.03274844 0.00000000 2.93587533
Pt 0.00000000 3.51521000 22.98825194
Pt 1.99218750 3.51521000 24.98039739
Pt 3.98445469 3.51521000 0.91567515
Pt 2.01290625 3.51521000 2.85275021
Pt 3.98437500 0.00000000 22.98825194
Pt 5.97656250 0.00000000 24.98039739
Pt 7.96867031 0.00000000 0.92840368
Pt 5.93600156 0.00000000 2.93587533
Pt 3.98437500 3.51521000 22.98825194
Pt 5.97656250 3.51521000 24.98039739
Pt 7.96867031 3.51521000 0.94580801
Pt 5.95584375 3.51521000 2.85275021
C 0.00000000 0.00000000 3.11927013
