&CONTROL
calculation = 'relax'
prefix = 'scf'
pseudo_dir = '/vol0004/mdt0/data/hp150275/u10028/POT_KKJUS'
outdir = './data'
tprnfor = .true.
nstep = 50
disk_io = 'non'
/
&SYSTEM
ibrav = 0
ecutwfc = 50.0
ecutrho = 400
occupations = 'smearing'
smearing = 'mp'
degauss = 0.01
assume_isolated = 'esm'
esm_bc = 'bc1'
input_dft = 'BEEF-VDW'
nosym = .true.
nspin = 1
ntyp = 5
nat = 34
/
&ELECTRONS
electron_maxstep = 200
mixing_beta = 0.1
conv_thr = 1e-06
/
&IONS
ion_dynamics = 'bfgs'
upscale = 1.0
/
&CELL
/

K_POINTS {automatic}
8 6 1 0 0 0

ATOMIC_SPECIES
C 12.01 C.pbe-n-rrkjus_psl.1.0.0.UPF
Ni 58.69 Ni.pbe-spn-rrkjus_psl.1.0.0.UPF
O 15.99 O.pbe-n-rrkjus_psl.1.0.0.UPF
Rh 102.9 Rh.pbe-spn-rrkjus_psl.1.0.0.UPF
Sn 118.7 Sn.pbe-dn-rrkjus_psl.1.0.0.UPF

CELL_PARAMETERS {angstrom}
6.23499000 0.00000000 0.00000000
0.00000000 8.81761000 0.00000000
0.00000000 0.00000000 26.61320000

ATOMIC_POSITIONS {angstrom}
Ni 0.00000000 0.00000000 -3.306690100000001 0 0 0
Ni 3.11749500 2.20440250 -1.1023187399999976 0 0 0
Ni 3.11749500 6.61320750 -1.1023187399999976 0 0 0
Ni 0.00000000 4.40880500 -3.306690100000001 0 0 0
Ni 0.00000000 4.39848840 1.13132713
Ni 3.11749500 6.61320750 3.26011700
Ni 3.11749500 2.20440250 3.41819941
Ni 0.00000000 0.01040478 1.13106100
Sn 0.00000000 6.61320750 -1.1023187399999976 0 0 0
Sn 3.11749500 0.00000000 -3.306690100000001 0 0 0
Sn 0.00000000 2.20440250 -1.1023187399999976 0 0 0
Sn 3.11749500 4.40880500 -3.306690100000001 0 0 0
Sn 0.00000000 2.20449068 3.38892489
Sn 3.11749500 4.41868072 1.03578574
Sn 0.00000000 6.61320750 3.47861137
Sn 3.11749500 8.80773428 1.03578574
Rh 1.55874750 0.00000000 -1.1023187399999976 0 0 0
Rh 4.67624250 4.40880500 -1.1023187399999976 0 0 0
Rh 4.67624250 0.00000000 -1.1023187399999976 0 0 0
Rh 1.55874750 4.40880500 -1.1023187399999976 0 0 0
Rh 4.67624250 6.61320750 -3.306690100000001 0 0 0
Rh 1.55874750 2.20440250 -3.306690100000001 0 0 0
Rh 1.55874750 6.61320750 -3.306690100000001 0 0 0
Rh 4.67624250 2.20440250 -3.306690100000001 0 0 0
Rh 1.58986010 4.43296525 3.18134193
Rh 4.64525460 8.79344975 3.18107580
Rh 4.64512990 4.43296525 3.18134193
Rh 1.58973540 8.79344975 3.18107580
Rh 4.67081806 2.20440250 1.12307704
Rh 1.51528962 6.61329568 1.11589148
Rh 1.56417194 2.20440250 1.12307704
Rh 4.71970038 6.61320750 1.11589148
C 3.11749500 2.20440250 5.16508986
O 3.11749500 2.20440250 6.32090113
