&CONTROL
calculation = 'relax'
prefix = 'scf'
pseudo_dir = '/vol0403/data/hp230205/u10028/POT_HYBRID_KKJUS_GBRV'
outdir = './data'
tprnfor = .true.
nstep = 70
disk_io = 'non'
/
&SYSTEM
ibrav = 0
ecutwfc = 50.0
ecutrho = 400
occupations = 'smearing'
smearing = 'mp'
degauss = 0.01
assume_isolated = 'esm'
esm_bc = 'bc1'
input_dft = 'BEEF-VDW'
nosym = .true.
nspin = 1
ntyp = 5
nat = 33
/
&ELECTRONS
electron_maxstep = 200
mixing_beta = 0.1
conv_thr = 1e-06
/
&IONS
ion_dynamics = 'bfgs'
upscale = 1.0
/
&CELL
/

K_POINTS {automatic}
9 6 2 0  0  0

ATOMIC_SPECIES
Ag 107.8 Ag.pbe-n-rrkjus_psl.1.0.0.UPF
C 12.01 C.pbe-n-rrkjus_psl.1.0.0.UPF
In 114.8 In.pbe-dn-rrkjus_psl.1.0.0.UPF
Pd 106.4 Pd.pbe-n-rrkjus_psl.1.0.0.UPF
Sc 44.95 Sc.pbe-spn-rrkjus_psl.1.0.0.UPF


CELL_PARAMETERS {angstrom}
6.71273000 0.00000000 0.00000000
-0.00000000 9.49324000 0.00000000
0.00000000 0.00000000 27.11990000

ATOMIC_POSITIONS {angstrom}
Sc 5.03454750 0.00000000 -1.1867668200000026 0 0 0
Sc 5.03454750 4.74662000 -1.1867668200000026 0 0 0
Sc 1.67818250 2.37331000 -3.560029270000001 0 0 0
Sc 1.67818250 7.11993000 -3.560029270000001 0 0 0
Sc 4.95567292 4.50710555 3.45344807
Sc 4.95567292 0.23960938 3.45344807
Sc 1.72960201 7.11993000 1.29524642
Sc 1.79907877 2.37331000 1.47233937
In 1.67818250 0.00000000 -1.1867668200000026 0 0 0
In 1.67818250 4.74662000 -1.1867668200000026 0 0 0
In 5.03454750 2.37331000 -3.560029270000001 0 0 0
In 5.03454750 7.11993000 -3.560029270000001 0 0 0
In 1.63139477 4.88237333 3.73142704
In 1.63139477 9.35748667 3.73142704
In 5.00950902 7.11993000 1.16913889
In 5.04542212 2.37331000 1.16859649
Ag 0.00000000 0.00000000 -3.560029270000001 0 0 0
Ag 0.00000000 4.74662000 -3.560029270000001 0 0 0
Ag 3.35636500 7.11993000 -1.1867668200000026 0 0 0
Ag 3.35636500 2.37331000 -1.1867668200000026 0 0 0
Ag 0.05645406 4.75867641 1.18622443
Ag 0.05638693 9.48118359 1.18622443
Ag 3.00387955 2.37331000 4.40535656
Ag 3.46793057 7.11993000 3.77942926
Pd 0.00000000 2.37331000 -1.1867668200000026 0 0 0
Pd 0.00000000 7.11993000 -1.1867668200000026 0 0 0
Pd 3.35636500 4.74662000 -3.560029270000001 0 0 0
Pd 3.35636500 0.00000000 -3.560029270000001 0 0 0
Pd 6.65473201 7.11993000 3.35798602
Pd 0.37812808 2.37331000 3.74552939
Pd 3.33475001 9.46960183 1.13578141
Pd 3.33475001 4.77025817 1.13578141
C 5.02508255 2.37331000 3.52314621
