&CONTROL
calculation = 'relax'
prefix = 'scf'
pseudo_dir = '/vol0004/mdt0/data/hp150275/u10028/POT_HYBRID_KKJUS_GBRV'
outdir = './data'
tprnfor = .true.
nstep = 70
disk_io = 'non'
/
&SYSTEM
ibrav = 0
ecutwfc = 50.0
ecutrho = 400
occupations = 'smearing'
smearing = 'mp'
degauss = 0.01
assume_isolated = 'esm'
esm_bc = 'bc1'
input_dft = 'BEEF-VDW'
nosym = .true.
nspin = 1
ntyp = 3
nat = 17
/
&ELECTRONS
electron_maxstep = 200
mixing_beta = 0.1
conv_thr = 1e-06
/
&IONS
ion_dynamics = 'bfgs'
upscale = 1.0
/
&CELL
/

K_POINTS {automatic}
8 8 1 0 0 0

ATOMIC_SPECIES
Al 26.98 Al.pbe-nl-rrkjus_psl.1.0.0.UPF
C 12.01 C.pbe-n-rrkjus_psl.1.0.0.UPF
Ti 47.86 Ti.pbe-spn-rrkjus_psl.1.0.0.UPF

CELL_PARAMETERS {angstrom}
5.63626000 0.00000000 0.00000000
-0.00000000 5.63626000 0.00000000
0.00000000 0.00000000 26.12390000

ATOMIC_POSITIONS {angstrom}
Ti 0.00000000 0.00000000 -3.3467328300000005 0 0 0
Ti 0.00000000 0.00000000 0.73591026
Ti 0.00000000 2.81813000 -3.3467328300000005 0 0 0
Ti 0.00000000 2.81813000 0.73591026
Ti 2.81813000 0.00000000 -3.3467328300000005 0 0 0
Ti 2.81813000 -0.00000000 0.73591026
Ti 2.81813000 2.81813000 -3.3467328300000005 0 0 0
Ti 2.81813000 2.81813000 0.73591026
Al 1.40906500 1.40906500 -1.3054112799999977 0 0 0
Al 1.40906500 1.40906500 2.77723181
Al 1.40906500 4.22719500 -1.3054112799999977 0 0 0
Al 1.40906500 4.22719500 2.77723181
Al 4.22719500 1.40906500 -1.3054112799999977 0 0 0
Al 4.22719500 1.40906500 2.77723181
Al 4.22719500 4.22719500 -1.3054112799999977 0 0 0
Al 4.22719500 4.22719500 2.77723181
C 0.00000000 0.00000000 3.57714563
