&CONTROL
calculation = 'relax'
prefix = 'scf'
pseudo_dir = '/vol0403/data/hp230205/u10028/POT_HYBRID_KKJUS_GBRV'
outdir = './data'
tprnfor = .true.
nstep = 50
disk_io = 'non'
/
&SYSTEM
ibrav = 0
ecutwfc = 50.0
ecutrho = 400
occupations = 'smearing'
smearing = 'mp'
degauss = 0.01
assume_isolated = 'esm'
esm_bc = 'bc1'
input_dft = 'BEEF-VDW'
nosym = .true.
nspin = 2
ntyp = 5
nat = 33
starting_magnetization(1) = 0.0
starting_magnetization(2) = 0.0
starting_magnetization(3) = 0.0
starting_magnetization(4) = 0.001
starting_magnetization(5) = 0.0
/
&ELECTRONS
electron_maxstep = 400
mixing_beta = 0.05
conv_thr = 1e-06
/
&IONS
ion_dynamics = 'bfgs'
upscale = 1.0
/
&CELL
/

K_POINTS {automatic}
6 6 1 0 0 0

ATOMIC_SPECIES
C 12.01 C.pbe-n-rrkjus_psl.1.0.0.UPF
Ge 72.64 Ge.pbe-dn-rrkjus_psl.1.0.0.UPF
Li 6.941 Li.pbe-sl-rrkjus_psl.1.0.0.UPF
Ni 58.69 ni_pbe_v1.4.uspp.F.UPF
Pd 106.4 Pd.pbe-n-rrkjus_psl.1.0.0.UPF


CELL_PARAMETERS {angstrom}
5.93854000 0.00000000 0.00000000
0.00000000 8.39836000 0.00000000
0.00000000 0.00000000 26.29880000

ATOMIC_POSITIONS {angstrom}
Li 0.00000000 2.09959000 -1.0498480999999984 0 0 0
Li 0.00000000 6.29877000 -1.0498480999999984 0 0 0
Li 2.96927000 4.19918000 -3.1492812999999984 0 0 0
Li 2.96927000 0.00000000 -3.1492812999999984 0 0 0
Li 0.02951454 6.29877000 3.60162066
Li 0.14252496 2.09959000 4.10234981
Li 2.96457855 0.01662875 0.99383165
Li 2.96457855 4.18255125 0.99383165
Ni 4.45390500 0.00000000 -1.0498480999999984 0 0 0
Ni 4.45390500 4.19918000 -1.0498480999999984 0 0 0
Ni 1.48463500 2.09959000 -3.1492812999999984 0 0 0
Ni 1.48463500 6.29877000 -3.1492812999999984 0 0 0
Ni 4.45218282 4.30575519 2.95414420
Ni 4.45212344 8.29178481 2.95414420
Ni 1.47685551 6.29877000 1.10980936
Ni 1.44585633 2.09959000 1.17555636
Ge 0.00000000 0.00000000 -3.1492812999999984 0 0 0
Ge 0.00000000 4.19918000 -3.1492812999999984 0 0 0
Ge 2.96927000 6.29877000 -1.0498480999999984 0 0 0
Ge 2.96927000 2.09959000 -1.0498480999999984 0 0 0
Ge 5.93580827 4.21060177 1.03275388
Ge 5.93580827 8.38693823 1.03275388
Ge 3.69460328 2.09959000 3.55875362
Ge 3.02711138 6.29877000 3.16742747
Pd 1.48463500 0.00000000 -1.0498480999999984 0 0 0
Pd 1.48463500 4.19918000 -1.0498480999999984 0 0 0
Pd 4.45390500 2.09959000 -3.1492812999999984 0 0 0
Pd 4.45390500 6.29877000 -3.1492812999999984 0 0 0
Pd 1.57092199 4.20379910 3.03803738
Pd 1.57092199 8.39382489 3.03803738
Pd 4.45859645 6.29877000 1.03064997
Pd 4.43840541 2.09959000 1.03564674
C 1.86838345 2.09959000 3.02199511
