&CONTROL
calculation = 'relax'
prefix = 'scf'
pseudo_dir = '/vol0403/data/hp230205/u10028/POT_HYBRID_KKJUS_GBRV'
outdir = './data'
tprnfor = .true.
nstep = 50
disk_io = 'non'
/
&SYSTEM
ibrav = 0
ecutwfc = 50.0
ecutrho = 400
occupations = 'smearing'
smearing = 'mp'
degauss = 0.01
assume_isolated = 'esm'
esm_bc = 'bc1'
input_dft = 'BEEF-VDW'
nosym = .true.
nspin = 2
ntyp = 5
nat = 33
starting_magnetization(1) = 0.0
starting_magnetization(2) = 0.0
starting_magnetization(3) = 0.0
starting_magnetization(4) = 0.001
starting_magnetization(5) = 0.0
/
&ELECTRONS
electron_maxstep = 400
mixing_beta = 0.05
conv_thr = 1e-06
/
&IONS
ion_dynamics = 'bfgs'
upscale = 1.0
/
&CELL
/

K_POINTS {automatic}
9 6 2 0  0  0

ATOMIC_SPECIES
C 12.01 C.pbe-n-rrkjus_psl.1.0.0.UPF
Ge 72.64 Ge.pbe-dn-rrkjus_psl.1.0.0.UPF
Li 6.941 Li.pbe-sl-rrkjus_psl.1.0.0.UPF
Ni 58.69 ni_pbe_v1.4.uspp.F.UPF
Pd 106.4 Pd.pbe-n-rrkjus_psl.1.0.0.UPF


CELL_PARAMETERS {angstrom}
5.93854000 0.00000000 0.00000000
0.00000000 8.39836000 0.00000000
0.00000000 0.00000000 26.29880000

ATOMIC_POSITIONS {angstrom}
Li 0.00000000 2.09959000 25.24895190
Li 0.00000000 6.29877000 25.24895190
Li 2.96927000 4.19918000 23.14951870
Li 2.96927000 0.00000000 23.14951870
Li 0.02844561 6.29877000 3.60688042
Li 0.10825958 2.09959000 4.16941175
Li 2.96143113 0.01377331 1.00014336
Li 2.96137174 4.18532271 1.00014336
Ni 4.45390500 0.00000000 25.24895190
Ni 4.45390500 4.19918000 25.24895190
Ni 1.48463500 2.09959000 23.14951870
Ni 1.48463500 6.29877000 23.14951870
Ni 4.44879786 4.29618106 2.95072536
Ni 4.44856031 8.30127496 2.95072536
Ni 1.48035925 6.29877000 1.10691649
Ni 1.44906315 2.09950602 1.21868639
Ge 0.00000000 0.00000000 23.14951870
Ge 0.00000000 4.19918000 23.14951870
Ge 2.96927000 6.29877000 25.24895190
Ge 2.96927000 2.09959000 25.24895190
Ge 0.00712625 4.20707446 1.03722467
Ge 0.00712625 8.39046554 1.03722467
Ge 3.67453101 2.09959000 3.53902952
Ge 3.03863215 6.29877000 3.16558656
Pd 1.48463500 0.00000000 25.24895190
Pd 1.48463500 4.19918000 25.24895190
Pd 4.45390500 2.09959000 23.14951870
Pd 4.45390500 6.29877000 23.14951870
Pd 1.56741825 4.20262333 3.05644654
Pd 1.56735886 8.39491667 3.05644654
Pd 4.47255202 6.29877000 1.03354284
Pd 4.43941496 2.09959000 1.02749412
C 1.83257406 2.09959000 3.08432326
