&CONTROL
calculation = 'relax'
prefix = 'scf'
pseudo_dir = '/vol0004/mdt0/data/hp150275/u10028/POT_KKJUS'
outdir = './data'
tprnfor = .true.
nstep = 50
disk_io = 'non'
/
&SYSTEM
ibrav = 0
ecutwfc = 50.0
ecutrho = 400
occupations = 'smearing'
smearing = 'mp'
degauss = 0.01
assume_isolated = 'esm'
esm_bc = 'bc1'
input_dft = 'BEEF-VDW'
nosym = .true.
nspin = 1
ntyp = 4
nat = 33
/
&ELECTRONS
electron_maxstep = 200
mixing_beta = 0.1
conv_thr = 1e-06
/
&IONS
ion_dynamics = 'bfgs'
upscale = 1.0
/
&CELL
/

K_POINTS {automatic}
8 6 1 0 0 0

ATOMIC_SPECIES
Au 196.9 Au.pbe-n-rrkjus_psl.1.0.0.UPF
C 12.01 C.pbe-n-rrkjus_psl.1.0.0.UPF
Ga 69.72 Ga.pbe-dnl-rrkjus_psl.1.0.0.UPF
Li 6.941 Li.pbe-sl-rrkjus_psl.1.0.0.UPF

CELL_PARAMETERS {angstrom}
6.29417000 0.00000000 0.00000000
0.00000000 8.90130000 0.00000000
0.00000000 0.00000000 26.67600000

ATOMIC_POSITIONS {angstrom}
Li 0.00000000 6.67597500 -1.112655959999998 0 0 0
Li 3.14708500 0.00000000 -3.3379678799999972 0 0 0
Li 0.00000000 2.22532500 -1.112655959999998 0 0 0
Li 3.14708500 4.45065000 -3.3379678799999972 0 0 0
Li 1.57354250 2.22532500 -3.3379678799999972 0 0 0
Li 1.57354250 6.67597500 -3.3379678799999972 0 0 0
Li 4.72062750 4.45065000 -1.112655959999998 0 0 0
Li 4.72062750 0.00000000 -1.112655959999998 0 0 0
Li 6.23500480 2.22532500 3.50789400
Li 3.20467666 4.41771519 0.98354412
Li 0.26215218 6.67597500 3.33103212
Li 3.20467666 0.03293481 0.98354412
Li 1.63365182 6.67597500 1.07584308
Li 1.55352704 2.22532500 1.29138516
Li 4.65428695 8.72843675 3.29822064
Li 4.65428695 4.62351325 3.29822064
Ga 0.00000000 0.00000000 -3.3379678799999972 0 0 0
Ga 3.14708500 2.22532500 -1.112655959999998 0 0 0
Ga 3.14708500 6.67597500 -1.112655959999998 0 0 0
Ga 0.00000000 4.45065000 -3.3379678799999972 0 0 0
Ga 6.29020467 4.49560157 1.09318248
Ga 2.94321683 6.67597500 3.39532128
Ga 3.73458283 2.22532500 4.08969756
Ga 6.29020467 8.85634844 1.09318248
Au 1.57354250 0.00000000 -1.112655959999998 0 0 0
Au 1.57354250 4.45065000 -1.112655959999998 0 0 0
Au 4.72062750 6.67597500 -3.3379678799999972 0 0 0
Au 4.72062750 2.22532500 -3.3379678799999972 0 0 0
Au 1.76110877 4.36724482 3.14296632
Au 1.76110877 0.08340518 3.14296632
Au 4.81088590 2.22532500 1.02835980
Au 4.69180020 6.67597500 1.22016024
C 1.94974504 2.22532500 3.42733248
