&CONTROL
calculation = 'relax'
prefix = 'scf'
pseudo_dir = '/vol0403/data/hp230205/u10028/POT_HYBRID_KKJUS_GBRV'
outdir = './data'
tprnfor = .true.
nstep = 50
disk_io = 'non'
/
&SYSTEM
ibrav = 0
ecutwfc = 50.0
ecutrho = 400
occupations = 'smearing'
smearing = 'mp'
degauss = 0.01
assume_isolated = 'esm'
esm_bc = 'bc1'
input_dft = 'BEEF-VDW'
nosym = .true.
nspin = 1
ntyp = 6
nat = 18
/
&ELECTRONS
electron_maxstep = 200
mixing_beta = 0.1
conv_thr = 1e-06
/
&IONS
ion_dynamics = 'bfgs'
upscale = 1.0
/
&CELL
/

K_POINTS {automatic}
9 9 2 0  0  0

ATOMIC_SPECIES
C 12.01 C.pbe-n-rrkjus_psl.1.0.0.UPF
Ge 72.64 Ge.pbe-dn-rrkjus_psl.1.0.0.UPF
Hf 178.4 Hf.pbe-spn-rrkjus_psl.1.0.0.UPF
Li 6.941 Li.pbe-sl-rrkjus_psl.1.0.0.UPF
O 15.99 O.pbe-n-rrkjus_psl.1.0.0.UPF
Pd 106.4 Pd.pbe-n-rrkjus_psl.1.0.0.UPF


CELL_PARAMETERS {angstrom}
6.42607000 0.00000000 0.00000000
0.00000000 6.42607000 0.00000000
0.00000000 0.00000000 24.81960000

ATOMIC_POSITIONS {angstrom}
Li 1.60651750 1.60651750 -0.8031622600000006 0 0 0
Li 1.60658176 4.81968102 2.53209559
Li 4.81961676 1.60651750 2.53259198
Li 4.81955250 4.81955250 -0.8031622600000006 0 0 0
Hf 4.81955250 1.60651750 -0.8031622600000006 0 0 0
Hf 4.81974528 4.81935972 2.56014174
Hf 1.60671028 1.60632472 2.09303687
Hf 1.60651750 4.81955250 -0.8031622600000006 0 0 0
Ge 0.00000000 0.00000000 -2.4097349600000015 0 0 0
Ge 6.30834440 3.32896130 0.93296876
Ge 3.33088912 6.30995092 0.93321696
Ge 3.21303500 3.21303500 -2.4097349600000015 0 0 0
Pd 0.00000000 3.21303500 -2.4097349600000015 0 0 0
Pd 6.26888833 6.26972372 0.87985482
Pd 3.37008815 3.36944554 0.87985482
Pd 3.21303500 0.00000000 -2.4097349600000015 0 0 0
C 1.60638898 1.60671028 4.28237378
O 1.60638898 1.60683880 5.44914318
