&CONTROL
calculation = 'relax'
prefix = 'scf'
pseudo_dir = '/vol0004/mdt0/data/hp150275/u10028/POT_KKJUS'
outdir = './data'
tprnfor = .true.
nstep = 50
disk_io = 'non'
/
&SYSTEM
ibrav = 0
ecutwfc = 50.0
ecutrho = 400
occupations = 'smearing'
smearing = 'mp'
degauss = 0.01
assume_isolated = 'esm'
esm_bc = 'bc1'
input_dft = 'BEEF-VDW'
nosym = .true.
nspin = 1
ntyp = 4
nat = 33
/
&ELECTRONS
electron_maxstep = 200
mixing_beta = 0.1
conv_thr = 1e-06
/
&IONS
ion_dynamics = 'bfgs'
upscale = 1.0
/
&CELL
/

K_POINTS {automatic}
8 6 1 0 0 0

ATOMIC_SPECIES
Al 26.98 Al.pbe-nl-rrkjus_psl.1.0.0.UPF
Au 196.9 Au.pbe-n-rrkjus_psl.1.0.0.UPF
C 12.01 C.pbe-n-rrkjus_psl.1.0.0.UPF
Hf 178.4 Hf.pbe-spn-rrkjus_psl.1.0.0.UPF

CELL_PARAMETERS {angstrom}
6.63475000 0.00000000 0.00000000
0.00000000 9.38295000 0.00000000
0.00000000 0.00000000 27.03720000

ATOMIC_POSITIONS {angstrom}
Hf 0.00000000 0.00000000 -3.518621209999999 0 0 0
Hf 3.31737500 2.34573750 -1.17287374 0 0 0
Hf 3.31737500 7.03721250 -1.17287374 0 0 0
Hf 0.00000000 4.69147500 -3.518621209999999 0 0 0
Hf 0.06269839 4.71277430 1.35104888
Hf 3.03287692 7.03721250 3.36288694
Hf 3.19516291 2.34573750 3.36586103
Hf 0.06269839 9.36165070 1.35104888
Al 0.00000000 7.03721250 -1.17287374 0 0 0
Al 3.31737500 0.00000000 -3.518621209999999 0 0 0
Al 0.00000000 2.34573750 -1.17287374 0 0 0
Al 3.31737500 4.69147500 -3.518621209999999 0 0 0
Al 5.97266830 2.34573750 3.94121264
Al 3.33462535 4.68706501 1.12366603
Al 0.00165869 7.03721250 3.53511390
Al 3.33462535 0.00440999 1.12366603
Au 1.65868750 0.00000000 -1.17287374 0 0 0
Au 4.97606250 4.69147500 -1.17287374 0 0 0
Au 4.97606250 0.00000000 -1.17287374 0 0 0
Au 1.65868750 4.69147500 -1.17287374 0 0 0
Au 4.97606250 7.03721250 -3.518621209999999 0 0 0
Au 1.65868750 2.34573750 -3.518621209999999 0 0 0
Au 1.65868750 7.03721250 -3.518621209999999 0 0 0
Au 4.97606250 2.34573750 -3.518621209999999 0 0 0
Au 1.43595894 4.76278542 3.91255321
Au 4.71836881 9.32196083 3.47536169
Au 4.71836881 4.75246418 3.47536169
Au 1.43595894 9.31163958 3.91255321
Au 5.13317338 2.34573750 1.07581019
Au 1.63102059 7.03721250 1.04498778
Au 1.63778804 2.34573750 1.07445833
Au 5.02104610 7.03721250 1.12799198
C 1.24487814 2.34573750 3.98582402
