&CONTROL
calculation = 'relax'
prefix = 'scf'
pseudo_dir = '/vol0004/mdt0/data/hp150275/u10028/POT_KKJUS'
outdir = './data'
tprnfor = .true.
nstep = 50
disk_io = 'non'
/
&SYSTEM
ibrav = 0
ecutwfc = 50.0
ecutrho = 400
occupations = 'smearing'
smearing = 'mp'
degauss = 0.01
assume_isolated = 'esm'
esm_bc = 'bc1'
input_dft = 'BEEF-VDW'
nosym = .true.
nspin = 1
ntyp = 3
nat = 17
/
&ELECTRONS
electron_maxstep = 200
mixing_beta = 0.1
conv_thr = 1e-06
/
&IONS
ion_dynamics = 'bfgs'
upscale = 1.0
/
&CELL
/

K_POINTS {automatic}
8 11 2 0  0  0

ATOMIC_SPECIES
Au 196.9 Au.pbe-n-rrkjus_psl.1.0.0.UPF
C 12.01 C.pbe-n-rrkjus_psl.1.0.0.UPF
V 50.94 V.pbe-spnl-rrkjus_psl.1.0.0.UPF

CELL_PARAMETERS {angstrom}
7.78093000 0.00000000 0.00000000
0.00000000 5.50195000 0.00000000
0.00000000 0.00000000 24.12650000

ATOMIC_POSITIONS {angstrom}
V 0.00000000 2.75097500 -2.0632982800000015 0 0 0
V 1.94523250 4.12646250 -0.6878465200000008 0 0 0
V 1.94523250 1.37548750 -0.6878465200000008 0 0 0
V 0.00000000 0.00000000 0.42800411
V 1.76642673 1.03123049 2.09128502
V 1.76642673 4.47071951 2.09128502
V 3.89046500 2.75097500 -2.0632982800000015 0 0 0
V 5.83569750 4.12646250 -0.6878465200000008 0 0 0
V 5.83569750 1.37548750 -0.6878465200000008 0 0 0
V 3.89054281 0.00000000 0.70015103
V 6.01450327 1.03117547 2.09128502
V 6.01450327 4.47077453 2.09128502
Au 0.00000000 0.00000000 -2.0632982800000015 0 0 0
Au 0.00015562 2.75097500 0.70811278
Au 3.89046500 0.00000000 -2.0632982800000015 0 0 0
Au 3.89038719 2.75097500 0.96530126
C 0.00000000 0.00000000 2.53376503
