&CONTROL
calculation = 'relax'
prefix = 'scf'
pseudo_dir = '/vol0004/mdt0/data/hp150275/u10028/POT_HYBRID_KKJUS_GBRV'
outdir = './data'
tprnfor = .true.
nstep = 50
disk_io = 'non'
/
&SYSTEM
ibrav = 0
ecutwfc = 50.0
ecutrho = 400
occupations = 'smearing'
smearing = 'mp'
degauss = 0.01
assume_isolated = 'esm'
esm_bc = 'bc1'
input_dft = 'BEEF-VDW'
nosym = .true.
nspin = 2
ntyp = 3
nat = 33
starting_magnetization(1) = 0.0
starting_magnetization(2) = 0.1
starting_magnetization(3) = 0.0
/
&ELECTRONS
electron_maxstep = 200
mixing_beta = 0.1
conv_thr = 1e-06
/
&IONS
ion_dynamics = 'bfgs'
upscale = 1.0
/
&CELL
/

K_POINTS {automatic}
7 7 2 0  0  0

ATOMIC_SPECIES
C 12.01 C.pbe-n-rrkjus_psl.1.0.0.UPF
Co 58.93 co_pbe_v1.2.uspp.F.UPF
Ti 47.86 Ti.pbe-spn-rrkjus_psl.1.0.0.UPF

CELL_PARAMETERS {angstrom}
7.25233000 0.00000000 0.00000000
-0.00000000 7.25233000 0.00000000
0.00000000 0.00000000 25.43920000

ATOMIC_POSITIONS {angstrom}
Ti 0.00000000 0.00000000 2.71970487
Ti 0.00000000 0.00000000 24.53254691
Ti 0.00000000 3.62616500 2.71970487
Ti 0.00000000 3.62616500 24.53254691
Ti 3.62616500 -0.00000000 2.71970487
Ti 3.62616500 0.00000000 24.53254691
Ti 3.62616500 3.62616500 2.71970487
Ti 3.62616500 3.62616500 24.53254691
Co 0.00000000 1.81308250 0.90665309
Co 1.81308250 -0.00000000 0.90665309
Co 1.81308250 1.81308250 2.71970487
Co 0.00000000 1.81308250 22.71949513
Co 1.81308250 0.00000000 22.71949513
Co 1.81308250 1.81308250 24.53254691
Co 0.00000000 5.43924750 0.90665309
Co 1.81308250 3.62616500 0.90665309
Co 1.81308250 5.43924750 2.71970487
Co 0.00000000 5.43924750 22.71949513
Co 1.81308250 3.62616500 22.71949513
Co 1.81308250 5.43924750 24.53254691
Co 3.62616500 1.81308250 0.90665309
Co 5.43924750 -0.00000000 0.90665309
Co 5.43924750 1.81308250 2.71970487
Co 3.62616500 1.81308250 22.71949513
Co 5.43924750 0.00000000 22.71949513
Co 5.43924750 1.81308250 24.53254691
Co 3.62616500 5.43924750 0.90665309
Co 5.43924750 3.62616500 0.90665309
Co 5.43924750 5.43924750 2.71970487
Co 3.62616500 5.43924750 22.71949513
Co 5.43924750 3.62616500 22.71949513
Co 5.43924750 5.43924750 24.53254691
C 1.81308250 -0.00000000 3.51951332
