&CONTROL
calculation = 'relax'
prefix = 'scf'
pseudo_dir = '/vol0004/mdt0/data/hp150275/u10028/POT_KKJUS'
outdir = './data'
tprnfor = .true.
nstep = 50
disk_io = 'non'
/
&SYSTEM
ibrav = 0
ecutwfc = 50.0
ecutrho = 400
occupations = 'smearing'
smearing = 'mp'
degauss = 0.01
assume_isolated = 'esm'
esm_bc = 'bc1'
input_dft = 'BEEF-VDW'
nosym = .true.
nspin = 1
ntyp = 3
nat = 16
/
&ELECTRONS
electron_maxstep = 200
mixing_beta = 0.1
conv_thr = 1e-06
/
&IONS
ion_dynamics = 'bfgs'
upscale = 1.0
/
&CELL
/

K_POINTS {automatic}
8 8 1 0 0 0

ATOMIC_SPECIES
Au 196.9 Au.pbe-n-rrkjus_psl.1.0.0.UPF
Ge 72.64 Ge.pbe-dn-rrkjus_psl.1.0.0.UPF
Li 6.941 Li.pbe-sl-rrkjus_psl.1.0.0.UPF

CELL_PARAMETERS {angstrom}
6.30953000 0.00000000 0.00000000
0.00000000 6.30953000 0.00000000
0.00000000 0.00000000 24.73210000

ATOMIC_POSITIONS {angstrom}
Li 0.00000000 0.00000000 -0.7887066699999998 0 0 0
Li 3.15482810 0.00000000 2.57436429
Li 0.00000000 3.15476500 2.57436429
Li 3.15476500 3.15476500 -0.7887066699999998 0 0 0
Li 1.57738250 1.57738250 -2.3661200099999995 0 0 0
Li 1.57145154 4.73807846 0.86784939
Li 4.73214750 4.73214750 -2.3661200099999995 0 0 0
Li 4.73826774 1.57138845 0.86784939
Ge 6.30946690 0.00006310 2.40272351
Ge 3.15476500 3.15470190 2.39950834
Ge 3.15476500 0.00000000 -0.7887066699999998 0 0 0
Ge 0.00000000 3.15476500 -0.7887066699999998 0 0 0
Au 1.57675155 1.57681464 0.83792355
Au 1.57738250 4.73214750 -2.3661200099999995 0 0 0
Au 4.73265226 4.73265226 0.83792355
Au 4.73214750 1.57738250 -2.3661200099999995 0 0 0
