&CONTROL
calculation = 'relax'
prefix = 'scf'
pseudo_dir = '/vol0004/mdt0/data/hp150275/u10028/POT_HYBRID_KKJUS_GBRV'
outdir = './data'
tprnfor = .true.
nstep = 50
disk_io = 'non'
/
&SYSTEM
ibrav = 0
ecutwfc = 50.0
ecutrho = 400
occupations = 'smearing'
smearing = 'mp'
degauss = 0.01
assume_isolated = 'esm'
esm_bc = 'bc1'
input_dft = 'BEEF-VDW'
nosym = .true.
nspin = 2
ntyp = 4
nat = 33
starting_magnetization(1) = 0.0
starting_magnetization(2) = 0.0
starting_magnetization(3) = 0.001
starting_magnetization(4) = 0.0
/
&ELECTRONS
electron_maxstep = 200
mixing_beta = 0.1
conv_thr = 1e-06
/
&IONS
ion_dynamics = 'bfgs'
upscale = 1.0
/
&CELL
/

K_POINTS {automatic}
9 6 2 0  0  0

ATOMIC_SPECIES
C 12.01 C.pbe-n-rrkjus_psl.1.0.0.UPF
Cu 63.54 Cu.pbe-dn-rrkjus_psl.1.0.0.UPF
Ni 58.69 ni_pbe_v1.4.uspp.F.UPF
Sn 118.7 Sn.pbe-dn-rrkjus_psl.1.0.0.UPF

CELL_PARAMETERS {angstrom}
6.01864000 0.00000000 0.00000000
0.00000000 8.51164000 0.00000000
0.00000000 0.00000000 26.38370000

ATOMIC_POSITIONS {angstrom}
Cu 0.00000000 0.00000000 23.19179997
Cu 3.00932000 2.12791000 25.31964538
Cu 3.00932000 6.38373000 25.31964538
Cu 0.00000000 4.25582000 23.19179997
Cu 6.01141763 4.31012426 0.96801795
Cu 2.94293440 6.38390023 3.12171938
Cu 3.16502222 2.12773977 3.12066404
Cu 6.01057502 8.45776132 0.96801795
Ni 1.50466000 0.00000000 25.31964538
Ni 4.51398000 4.25582000 25.31964538
Ni 4.51398000 0.00000000 25.31964538
Ni 1.50466000 4.25582000 25.31964538
Ni 4.51398000 6.38373000 23.19179997
Ni 1.50466000 2.12791000 23.19179997
Ni 1.50466000 6.38373000 23.19179997
Ni 4.51398000 2.12791000 23.19179997
Ni 1.22816368 3.95450794 3.09691871
Ni 4.63477410 8.49665951 3.02884876
Ni 4.63423243 4.27011956 3.02752958
Ni 1.23021002 0.29782228 3.09586336
Ni 4.70850244 2.12901651 1.18832185
Ni 1.48130768 6.38449605 1.08357856
Ni 1.33282783 2.12756953 1.24557448
Ni 4.52944790 6.38313419 1.12552864
Sn 0.00000000 6.38373000 25.31964538
Sn 3.00932000 0.00000000 23.19179997
Sn 0.00000000 2.12791000 25.31964538
Sn 3.00932000 4.25582000 23.19179997
Sn 5.40461835 2.12825047 4.49578248
Sn 2.99457433 4.21947530 1.07170589
Sn 0.06114938 6.38279372 3.41879985
Sn 2.99607899 0.03668517 1.07144206
C 1.24778444 2.12612256 3.15337982
