&CONTROL
calculation = 'relax'
prefix = 'scf'
pseudo_dir = '/vol0403/data/hp230205/u10028/POT_HYBRID_KKJUS_GBRV'
outdir = './data'
tprnfor = .true.
nstep = 50
disk_io = 'non'
/
&SYSTEM
ibrav = 0
ecutwfc = 50.0
ecutrho = 400
occupations = 'smearing'
smearing = 'mp'
degauss = 0.01
assume_isolated = 'esm'
esm_bc = 'bc1'
input_dft = 'BEEF-VDW'
nosym = .true.
nspin = 1
ntyp = 6
nat = 18
/
&ELECTRONS
electron_maxstep = 200
mixing_beta = 0.1
conv_thr = 1e-06
/
&IONS
ion_dynamics = 'bfgs'
upscale = 1.0
/
&CELL
/

K_POINTS {automatic}
9 9 2 0  0  0

ATOMIC_SPECIES
Ag 107.8 Ag.pbe-n-rrkjus_psl.1.0.0.UPF
C 12.01 C.pbe-n-rrkjus_psl.1.0.0.UPF
Ge 72.64 Ge.pbe-dn-rrkjus_psl.1.0.0.UPF
Li 6.941 Li.pbe-sl-rrkjus_psl.1.0.0.UPF
Mg 24.30 Mg.pbe-spnl-rrkjus_psl.1.0.0.UPF
O 15.99 O.pbe-n-rrkjus_psl.1.0.0.UPF


CELL_PARAMETERS {angstrom}
6.50572000 0.00000000 0.00000000
0.00000000 6.50572000 0.00000000
0.00000000 0.00000000 24.87930000

ATOMIC_POSITIONS {angstrom}
Li 4.84760714 1.59474714 0.97701011
Li 4.87929000 4.87929000 -2.4396641599999995 0 0 0
Li 1.62643000 1.62643000 -2.4396641599999995 0 0 0
Li 1.65817791 4.91103791 0.97701011
Mg 1.69330880 1.55955120 0.95312598
Mg 1.62643000 4.87929000 -2.4396641599999995 0 0 0
Mg 4.87929000 1.62643000 -2.4396641599999995 0 0 0
Mg 4.81234614 4.94616880 0.95312598
Ag 0.00000000 6.50565494 2.65885079
Ag 0.00000000 3.25286000 -0.8133043200000003 0 0 0
Ag 3.25286000 0.00000000 -0.8133043200000003 0 0 0
Ag 3.25279494 3.25286000 2.65885079
Ge 0.00006506 3.25299011 2.45235260
Ge 0.00000000 0.00000000 -0.8133043200000003 0 0 0
Ge 3.25286000 3.25286000 -0.8133043200000003 0 0 0
Ge 3.25286000 0.00000000 2.68970112
C 0.00000000 3.25286000 4.38597180
O 6.50565494 3.25286000 5.54435201
