&CONTROL
calculation = 'relax'
prefix = 'scf'
pseudo_dir = '/vol0004/mdt0/data/hp150275/u10028/POT_HYBRID_KKJUS_GBRV'
outdir = './data'
tprnfor = .true.
nstep = 50
disk_io = 'non'
/
&SYSTEM
ibrav = 0
ecutwfc = 50.0
ecutrho = 400
occupations = 'smearing'
smearing = 'mp'
degauss = 0.01
assume_isolated = 'esm'
esm_bc = 'bc1'
input_dft = 'BEEF-VDW'
nosym = .true.
nspin = 2
ntyp = 5
nat = 34
starting_magnetization(1) = 0.0
starting_magnetization(2) = 0.1
starting_magnetization(3) = 0.0
starting_magnetization(4) = 0.0
starting_magnetization(5) = 0.0
/
&ELECTRONS
electron_maxstep = 300
mixing_beta = 0.1
conv_thr = 1e-06
/
&IONS
ion_dynamics = 'bfgs'
upscale = 1.0
/
&CELL
/

K_POINTS {automatic}
8 6 1 0 0 0

ATOMIC_SPECIES
C 12.01 C.pbe-n-rrkjus_psl.1.0.0.UPF
Co 58.93 co_pbe_v1.2.uspp.F.UPF
O 15.99 O.pbe-n-rrkjus_psl.1.0.0.UPF
Sn 118.7 Sn.pbe-dn-rrkjus_psl.1.0.0.UPF
Zr 91.22 Zr.pbe-spn-rrkjus_psl.1.0.0.UPF

CELL_PARAMETERS {angstrom}
6.31315000 0.00000000 0.00000000
0.00000000 8.92814000 0.00000000
0.00000000 0.00000000 26.69610000

ATOMIC_POSITIONS {angstrom}
Zr 0.00000000 0.00000000 -3.347957900000001 0 0 0
Zr 3.15657500 2.23203500 -1.1158969800000023 0 0 0
Zr 3.15657500 6.69610500 -1.1158969800000023 0 0 0
Zr 0.00000000 4.46407000 -3.347957900000001 0 0 0
Zr 0.00006313 4.46674844 1.10895599
Zr 3.15657500 6.69601572 3.33781338
Zr 3.15657500 2.23203500 3.35009359
Zr 0.00006313 8.92546156 1.10895599
Co 1.57828750 0.00000000 -1.1158969800000023 0 0 0
Co 4.73486250 4.46407000 -1.1158969800000023 0 0 0
Co 4.73486250 0.00000000 -1.1158969800000023 0 0 0
Co 1.57828750 4.46407000 -1.1158969800000023 0 0 0
Co 4.73486250 6.69610500 -3.347957900000001 0 0 0
Co 1.57828750 2.23203500 -3.347957900000001 0 0 0
Co 1.57828750 6.69610500 -3.347957900000001 0 0 0
Co 4.73486250 2.23203500 -3.347957900000001 0 0 0
Co 1.49760544 4.46085587 3.15094068
Co 4.81567082 0.00312485 3.15094068
Co 4.81560769 4.46085587 3.15094068
Co 1.49754231 0.00312485 3.15094068
Co 4.69660481 2.23194572 1.17462840
Co 1.61711337 6.69619428 1.16661957
Co 1.61660832 2.23194572 1.17462840
Co 4.69609976 6.69619428 1.16661957
Sn 0.00000000 6.69610500 -1.1158969800000023 0 0 0
Sn 3.15657500 0.00000000 -3.347957900000001 0 0 0
Sn 0.00000000 2.23203500 -1.1158969800000023 0 0 0
Sn 3.15657500 4.46407000 -3.347957900000001 0 0 0
Sn 0.00000000 2.23194572 3.50973627
Sn 3.15657500 4.46299862 1.10842207
Sn 0.00000000 6.69619428 3.50332920
Sn 3.15663813 0.00107138 1.10842207
C 0.00000000 2.23248141 7.51335038
O 0.00000000 2.23203500 8.64873552
