&CONTROL
calculation = 'relax'
prefix = 'scf'
pseudo_dir = '/vol0403/data/hp230205/u10028/POT_HYBRID_KKJUS_GBRV'
outdir = './data'
tprnfor = .true.
nstep = 50
disk_io = 'non'
/
&SYSTEM
ibrav = 0
ecutwfc = 50.0
ecutrho = 400
occupations = 'smearing'
smearing = 'mp'
degauss = 0.01
assume_isolated = 'esm'
esm_bc = 'bc1'
input_dft = 'BEEF-VDW'
nosym = .true.
nspin = 1
ntyp = 6
nat = 34
/
&ELECTRONS
electron_maxstep = 200
mixing_beta = 0.1
conv_thr = 1e-06
/
&IONS
ion_dynamics = 'bfgs'
upscale = 1.0
/
&CELL
/

K_POINTS {automatic}
6 6 1 0 0 0

ATOMIC_SPECIES
C 12.01 C.pbe-n-rrkjus_psl.1.0.0.UPF
Cu 63.54 Cu.pbe-dn-rrkjus_psl.1.0.0.UPF
Ga 69.72 Ga.pbe-dnl-rrkjus_psl.1.0.0.UPF
Li 6.941 Li.pbe-sl-rrkjus_psl.1.0.0.UPF
O 15.99 O.pbe-n-rrkjus_psl.1.0.0.UPF
Pd 106.4 Pd.pbe-n-rrkjus_psl.1.0.0.UPF


CELL_PARAMETERS {angstrom}
6.02537000 0.00000000 0.00000000
0.00000000 8.52116000 0.00000000
0.00000000 0.00000000 26.39090000

ATOMIC_POSITIONS {angstrom}
Li 1.50634250 0.00000000 -1.0651367199999981 0 0 0
Li 1.50634250 4.26058000 -1.0651367199999981 0 0 0
Li 4.51902750 2.13029000 -3.195410169999999 0 0 0
Li 4.51902750 6.39087000 -3.195410169999999 0 0 0
Li 1.52062263 4.29986255 3.47066726
Li 1.52062263 8.48187745 3.47066726
Li 4.53806767 6.39087000 0.95719794
Li 4.52866809 2.13029000 1.00707674
Ga 4.51902750 0.00000000 -1.0651367199999981 0 0 0
Ga 4.51902750 4.26058000 -1.0651367199999981 0 0 0
Ga 1.50634250 2.13029000 -3.195410169999999 0 0 0
Ga 1.50634250 6.39087000 -3.195410169999999 0 0 0
Ga 4.57331608 4.27370259 3.26534606
Ga 4.57331608 8.50803741 3.26534606
Ga 1.54797781 6.39087000 1.05405255
Ga 1.52785307 2.13029000 1.05035782
Cu 0.00000000 0.00000000 -3.195410169999999 0 0 0
Cu 0.00000000 4.26058000 -3.195410169999999 0 0 0
Cu 3.01268500 6.39087000 -1.0651367199999981 0 0 0
Cu 3.01268500 2.13029000 -1.0651367199999981 0 0 0
Cu 0.04410571 4.25853492 1.07199836
Cu 0.04416596 0.00204508 1.07199836
Cu 3.09866703 2.13029000 3.15450428
Cu 3.17199578 6.39087000 3.02650841
Pd 0.00000000 2.13029000 -1.0651367199999981 0 0 0
Pd 0.00000000 6.39087000 -1.0651367199999981 0 0 0
Pd 3.01268500 4.26058000 -3.195410169999999 0 0 0
Pd 3.01268500 0.00000000 -3.195410169999999 0 0 0
Pd 5.96927381 6.39087000 3.02386932
Pd 5.94740171 2.13029000 3.04814895
Pd 3.02328965 0.02811983 1.13005834
Pd 3.02328965 4.23246017 1.13005834
C 2.36453595 2.13029000 4.87281578
O 2.12665434 2.13029000 6.00683275
