&CONTROL
calculation = 'relax'
prefix = 'scf'
pseudo_dir = '/vol0004/mdt0/data/hp150275/u10028/POT_KKJUS'
outdir = './data'
tprnfor = .true.
nstep = 50
disk_io = 'non'
/
&SYSTEM
ibrav = 0
ecutwfc = 50.0
ecutrho = 400
occupations = 'smearing'
smearing = 'mp'
degauss = 0.01
assume_isolated = 'esm'
esm_bc = 'bc1'
input_dft = 'BEEF-VDW'
nosym = .true.
nspin = 1
ntyp = 4
nat = 33
/
&ELECTRONS
electron_maxstep = 200
mixing_beta = 0.1
conv_thr = 1e-06
/
&IONS
ion_dynamics = 'bfgs'
upscale = 1.0
/
&CELL
/

K_POINTS {automatic}
8 6 1 0 0 0

ATOMIC_SPECIES
Au 196.9 Au.pbe-n-rrkjus_psl.1.0.0.UPF
C 12.01 C.pbe-n-rrkjus_psl.1.0.0.UPF
Ge 72.64 Ge.pbe-dn-rrkjus_psl.1.0.0.UPF
Li 6.941 Li.pbe-sl-rrkjus_psl.1.0.0.UPF

CELL_PARAMETERS {angstrom}
6.30953000 0.00000000 0.00000000
0.00000000 8.92302000 0.00000000
0.00000000 0.00000000 26.69230000

ATOMIC_POSITIONS {angstrom}
Li 0.00000000 6.69226500 -1.1154712199999999 0 0 0
Li 3.15476500 0.00000000 -3.346146730000001 0 0 0
Li 0.00000000 2.23075500 -1.1154712199999999 0 0 0
Li 3.15476500 4.46151000 -3.346146730000001 0 0 0
Li 1.57738250 2.23075500 -3.346146730000001 0 0 0
Li 1.57738250 6.69226500 -3.346146730000001 0 0 0
Li 4.73214750 4.46151000 -1.1154712199999999 0 0 0
Li 4.73214750 0.00000000 -1.1154712199999999 0 0 0
Li 0.14688586 2.10074660 3.46626208
Li 3.11268043 4.46151000 1.02925509
Li 0.14701205 6.82200571 3.46626208
Li 3.25615915 0.00000000 1.09518507
Li 1.63997304 6.79139975 1.28523424
Li 1.64003613 2.13170948 1.28496732
Li 4.72798321 8.92293077 3.83274736
Li 4.72243082 4.46142077 3.41074209
Ge 0.00000000 0.00000000 -3.346146730000001 0 0 0
Ge 3.15476500 2.23075500 -1.1154712199999999 0 0 0
Ge 3.15476500 6.69226500 -1.1154712199999999 0 0 0
Ge 0.00000000 4.46151000 -3.346146730000001 0 0 0
Ge 0.05817387 4.46151000 1.14590044
Ge 3.27142821 6.59839483 3.62775049
Ge 3.27142821 2.32444671 3.62775049
Ge 6.06074523 0.00000000 0.99215279
Au 1.57738250 0.00000000 -1.1154712199999999 0 0 0
Au 1.57738250 4.46151000 -1.1154712199999999 0 0 0
Au 4.73214750 6.69226500 -3.346146730000001 0 0 0
Au 4.73214750 2.23075500 -3.346146730000001 0 0 0
Au 1.68988142 4.46142077 3.20067369
Au 2.15079259 8.92293077 3.49482284
Au 4.60614619 2.35353576 1.24119195
Au 4.60614619 6.56948424 1.24119195
C 0.22039188 8.92284154 2.82030842
