&CONTROL
calculation = 'relax'
prefix = 'scf'
pseudo_dir = '/vol0004/mdt0/data/hp150275/u10028/POT_KKJUS'
outdir = './data'
tprnfor = .true.
nstep = 50
disk_io = 'non'
/
&SYSTEM
ibrav = 0
ecutwfc = 50.0
ecutrho = 400
occupations = 'smearing'
smearing = 'mp'
degauss = 0.01
assume_isolated = 'esm'
esm_bc = 'bc1'
input_dft = 'BEEF-VDW'
nosym = .true.
nspin = 1
ntyp = 4
nat = 34
/
&ELECTRONS
electron_maxstep = 200
mixing_beta = 0.1
conv_thr = 1e-06
/
&IONS
ion_dynamics = 'bfgs'
upscale = 1.0
/
&CELL
/

K_POINTS {automatic}
8 6 1 0 0 0

ATOMIC_SPECIES
C 12.01 C.pbe-n-rrkjus_psl.1.0.0.UPF
O 15.99 O.pbe-n-rrkjus_psl.1.0.0.UPF
Ru 101.0 Ru.pbe-spn-rrkjus_psl.1.0.0.UPF
Sc 44.95 Sc.pbe-spn-rrkjus_psl.1.0.0.UPF

CELL_PARAMETERS {angstrom}
6.43815000 0.00000000 0.00000000
0.00000000 9.10491000 0.00000000
0.00000000 0.00000000 26.82870000

ATOMIC_POSITIONS {angstrom}
Sc 1.60953750 2.27622750 -3.4142203600000016 0 0 0
Sc 1.60953750 0.00000000 -1.1380734500000003 0 0 0
Sc 1.60953750 2.27786638 1.13995146
Sc 1.60953750 0.00036420 3.34822176
Sc 1.60953750 6.82868250 -3.4142203600000016 0 0 0
Sc 1.60953750 4.55245500 -1.1380734500000003 0 0 0
Sc 1.60953750 6.82713467 1.13968318
Sc 1.60953750 4.55245500 3.36378241
Sc 4.82861250 2.27622750 -3.4142203600000016 0 0 0
Sc 4.82861250 0.00000000 -1.1380734500000003 0 0 0
Sc 4.82861250 2.28442192 1.12734197
Sc 4.82861250 9.10463685 3.35439236
Sc 4.82861250 6.82868250 -3.4142203600000016 0 0 0
Sc 4.82861250 4.55245500 -1.1380734500000003 0 0 0
Sc 4.82861250 6.82048808 1.12734197
Sc 4.82861250 4.55254605 3.36244097
Ru 0.00000000 0.00000000 -3.4142203600000016 0 0 0
Ru 0.00000000 2.27622750 -1.1380734500000003 0 0 0
Ru 6.42450112 0.00000000 1.13807345
Ru 6.41117415 2.29680460 3.34768519
Ru 0.00000000 4.55245500 -3.4142203600000016 0 0 0
Ru 0.00000000 6.82868250 -1.1380734500000003 0 0 0
Ru 0.00727511 4.55245500 1.14048804
Ru 6.41117415 6.80801435 3.34795347
Ru 3.21907500 0.00000000 -3.4142203600000016 0 0 0
Ru 3.21907500 2.27622750 -1.1380734500000003 0 0 0
Ru 3.23272388 0.00000000 1.13807345
Ru 3.24605085 2.29680460 3.34795347
Ru 3.21907500 4.55245500 -3.4142203600000016 0 0 0
Ru 3.21907500 6.82868250 -1.1380734500000003 0 0 0
Ru 3.21179989 4.55236395 1.14048804
Ru 3.24598647 6.80801435 3.34795347
C 1.60953750 0.00000000 5.68473324
O 1.60953750 0.00000000 6.83434304
