&CONTROL
calculation = 'relax'
prefix = 'scf'
pseudo_dir = '/vol0403/data/hp230205/u10028/POT_HYBRID_KKJUS_GBRV'
outdir = './data'
tprnfor = .true.
nstep = 50
disk_io = 'non'
/
&SYSTEM
ibrav = 0
ecutwfc = 50.0
ecutrho = 400
occupations = 'smearing'
smearing = 'mp'
degauss = 0.01
assume_isolated = 'esm'
esm_bc = 'bc1'
input_dft = 'BEEF-VDW'
nosym = .true.
nspin = 1
ntyp = 5
nat = 33
/
&ELECTRONS
electron_maxstep = 200
mixing_beta = 0.1
conv_thr = 1e-06
/
&IONS
ion_dynamics = 'bfgs'
upscale = 1.0
/
&CELL
/

K_POINTS {automatic}
7 7 2 0  0  0

ATOMIC_SPECIES
C 12.01 C.pbe-n-rrkjus_psl.1.0.0.UPF
Ge 72.64 Ge.pbe-dn-rrkjus_psl.1.0.0.UPF
Li 6.941 Li.pbe-sl-rrkjus_psl.1.0.0.UPF
Sn 118.7 Sn.pbe-dn-rrkjus_psl.1.0.0.UPF
Y 88.90 Y.pbe-spn-rrkjus_psl.1.0.0.UPF


CELL_PARAMETERS {angstrom}
9.43388000 0.00000000 0.00000000
0.00000000 8.60818000 0.00000000
0.00000000 0.00000000 26.39560000

ATOMIC_POSITIONS {angstrom}
Li 2.38290375 8.60654445 1.37547472
Li 2.35847000 0.00000000 -3.1978269400000023 0 0 0
Li 2.38290375 4.30572555 1.37547472
Li 2.35847000 4.30409000 -3.1978269400000023 0 0 0
Li 7.05097625 8.60654445 1.37547472
Li 7.07541000 0.00000000 -3.1978269400000023 0 0 0
Li 7.05097625 4.30572555 1.37547472
Li 7.07541000 4.30409000 -3.1978269400000023 0 0 0
Y 0.00000000 2.15204500 0.87950139
Y 0.00000000 2.15204500 -3.1978269400000023 0 0 0
Y 0.00000000 6.45613500 1.16325409
Y 0.00000000 6.45613500 -3.1978269400000023 0 0 0
Y 4.71694000 2.15204500 0.97558138
Y 4.71694000 2.15204500 -3.1978269400000023 0 0 0
Y 4.71694000 6.45613500 0.92199831
Y 4.71694000 6.45613500 -3.1978269400000023 0 0 0
Sn 2.70101418 2.15204500 3.87408221
Sn 2.35847000 2.15204500 -1.0658543300000005 0 0 0
Sn 2.89591814 6.45613500 3.78697673
Sn 2.35847000 6.45613500 -1.0658543300000005 0 0 0
Sn 6.73296016 2.15204500 3.87434617
Sn 7.07541000 2.15204500 -1.0658543300000005 0 0 0
Sn 6.53805620 6.45613500 3.78671278
Sn 7.07541000 6.45613500 -1.0658543300000005 0 0 0
Ge 0.00000000 0.23870483 3.25774495
Ge 0.00000000 0.00000000 -1.0658543300000005 0 0 0
Ge 0.00000000 4.06529909 3.25774495
Ge 0.00000000 4.30409000 -1.0658543300000005 0 0 0
Ge 4.71703434 0.01282619 3.01754499
Ge 4.71694000 0.00000000 -1.0658543300000005 0 0 0
Ge 4.71694000 4.29126381 3.01754499
Ge 4.71694000 4.30409000 -1.0658543300000005 0 0 0
C 9.43350264 2.15204500 3.25193792
