&CONTROL
calculation = 'relax'
prefix = 'scf'
pseudo_dir = '/vol0004/mdt0/data/hp150275/u10028/POT_KKJUS'
outdir = './data'
tprnfor = .true.
nstep = 50
disk_io = 'non'
/
&SYSTEM
ibrav = 0
ecutwfc = 50.0
ecutrho = 400
occupations = 'smearing'
smearing = 'mp'
degauss = 0.01
assume_isolated = 'esm'
esm_bc = 'bc1'
input_dft = 'BEEF-VDW'
nosym = .true.
nspin = 1
ntyp = 2
nat = 32
/
&ELECTRONS
electron_maxstep = 200
mixing_beta = 0.1
conv_thr = 1e-06
/
&IONS
ion_dynamics = 'bfgs'
upscale = 1.0
/
&CELL
/

K_POINTS {automatic}
7 7 2 0  0  0

ATOMIC_SPECIES
Au 196.9 Au.pbe-n-rrkjus_psl.1.0.0.UPF
Cu 63.54 Cu.pbe-dn-rrkjus_psl.1.0.0.UPF

CELL_PARAMETERS {angstrom}
7.64441000 0.00000000 0.00000000
-0.00000000 7.64441000 0.00000000
0.00000000 0.00000000 25.73330000

ATOMIC_POSITIONS {angstrom}
Cu 0.00000000 1.91110250 -0.9554774299999984 0 0 0
Cu 1.91110250 0.00000000 -0.9554774299999984 0 0 0
Cu 1.91110250 1.91110250 -2.866689619999999 0 0 0
Cu 0.00000000 1.91110250 2.86668962
Cu 1.91110250 -0.00000000 2.86668962
Cu 1.91110250 1.91110250 0.95547743
Cu 0.00000000 5.73330750 -0.9554774299999984 0 0 0
Cu 1.91110250 3.82220500 -0.9554774299999984 0 0 0
Cu 1.91110250 5.73330750 -2.866689619999999 0 0 0
Cu 0.00000000 5.73330750 2.86668962
Cu 1.91110250 3.82220500 2.86668962
Cu 1.91110250 5.73330750 0.95547743
Cu 3.82220500 1.91110250 -0.9554774299999984 0 0 0
Cu 5.73330750 0.00000000 -0.9554774299999984 0 0 0
Cu 5.73330750 1.91110250 -2.866689619999999 0 0 0
Cu 3.82220500 1.91110250 2.86668962
Cu 5.73330750 -0.00000000 2.86668962
Cu 5.73330750 1.91110250 0.95547743
Cu 3.82220500 5.73330750 -0.9554774299999984 0 0 0
Cu 5.73330750 3.82220500 -0.9554774299999984 0 0 0
Cu 5.73330750 5.73330750 -2.866689619999999 0 0 0
Cu 3.82220500 5.73330750 2.86668962
Cu 5.73330750 3.82220500 2.86668962
Cu 5.73330750 5.73330750 0.95547743
Au 0.00000000 0.00000000 -2.866689619999999 0 0 0
Au 0.00000000 0.00000000 0.95547743
Au 0.00000000 3.82220500 -2.866689619999999 0 0 0
Au 0.00000000 3.82220500 0.95547743
Au 3.82220500 0.00000000 -2.866689619999999 0 0 0
Au 3.82220500 -0.00000000 0.95547743
Au 3.82220500 3.82220500 -2.866689619999999 0 0 0
Au 3.82220500 3.82220500 0.95547743
