&CONTROL
calculation = 'relax'
prefix = 'scf'
pseudo_dir = '/vol0004/mdt0/data/hp150275/u10028/POT_KKJUS'
outdir = './data'
tprnfor = .true.
nstep = 50
disk_io = 'non'
/
&SYSTEM
ibrav = 0
ecutwfc = 50.0
ecutrho = 400
occupations = 'smearing'
smearing = 'mp'
degauss = 0.01
assume_isolated = 'esm'
esm_bc = 'bc1'
input_dft = 'BEEF-VDW'
nosym = .true.
nspin = 1
ntyp = 3
nat = 33
/
&ELECTRONS
electron_maxstep = 200
mixing_beta = 0.1
conv_thr = 1e-06
/
&IONS
ion_dynamics = 'bfgs'
upscale = 1.0
/
&CELL
/

K_POINTS {automatic}
8 6 1 0 0 0

ATOMIC_SPECIES
C 12.01 C.pbe-n-rrkjus_psl.1.0.0.UPF
Li 6.941 Li.pbe-sl-rrkjus_psl.1.0.0.UPF
Sb 121.7 Sb.pbe-n-rrkjus_psl.1.0.0.UPF

CELL_PARAMETERS {angstrom}
6.56971000 0.00000000 0.00000000
0.00000000 9.29097000 0.00000000
0.00000000 0.00000000 26.96820000

ATOMIC_POSITIONS {angstrom}
Li 1.64242750 0.00000000 -1.1612506899999993 0 0 0
Li 4.92728250 4.64548500 -1.1612506899999993 0 0 0
Li 4.92728250 0.00000000 -1.1612506899999993 0 0 0
Li 1.64242750 4.64548500 -1.1612506899999993 0 0 0
Li 4.92728250 6.96822750 -3.484021760000001 0 0 0
Li 1.64242750 2.32274250 -3.484021760000001 0 0 0
Li 1.64242750 6.96822750 -3.484021760000001 0 0 0
Li 4.92728250 2.32274250 -3.484021760000001 0 0 0
Li 0.00000000 6.96822750 -1.1612506899999993 0 0 0
Li 3.28485500 0.00000000 -3.484021760000001 0 0 0
Li 0.00000000 2.32274250 -1.1612506899999993 0 0 0
Li 3.28485500 4.64548500 -3.484021760000001 0 0 0
Li 1.84063565 4.64548500 3.53553102
Li 4.71902269 0.00000000 4.09134562
Li 4.72907435 4.64548500 3.53553102
Li 1.85068731 0.00000000 4.09134562
Li 4.88379102 2.34374009 1.17446511
Li 1.68591898 6.94722991 1.17446511
Li 1.68591898 2.34374009 1.17446511
Li 4.88379102 6.94722991 1.17446511
Li 6.56964430 2.09251226 3.42954599
Li 3.28485500 4.64548500 1.20574822
Li 0.00000000 7.19845774 3.42954599
Li 3.28485500 0.00000000 1.63049737
Sb 0.00000000 0.00000000 -3.484021760000001 0 0 0
Sb 3.28485500 2.32274250 -1.1612506899999993 0 0 0
Sb 3.28485500 6.96822750 -1.1612506899999993 0 0 0
Sb 0.00000000 4.64548500 -3.484021760000001 0 0 0
Sb 0.00000000 4.64548500 1.32090244
Sb 3.28485500 6.97854048 3.48402176
Sb 3.28485500 2.31242952 3.48375208
Sb 0.00000000 0.00000000 1.06848008
C 6.56964430 0.00000000 3.18251728
