&CONTROL
calculation = 'relax'
prefix = 'scf'
pseudo_dir = '/vol0403/data/hp230205/u10028/POT_HYBRID_KKJUS_GBRV'
outdir = './data'
tprnfor = .true.
nstep = 50
disk_io = 'non'
/
&SYSTEM
ibrav = 0
ecutwfc = 50.0
ecutrho = 400
occupations = 'smearing'
smearing = 'mp'
degauss = 0.01
assume_isolated = 'esm'
esm_bc = 'bc1'
input_dft = 'BEEF-VDW'
nosym = .true.
nspin = 1
ntyp = 5
nat = 17
/
&ELECTRONS
electron_maxstep = 200
mixing_beta = 0.1
conv_thr = 1e-06
/
&IONS
ion_dynamics = 'bfgs'
upscale = 1.0
/
&CELL
/

K_POINTS {automatic}
6 6 1 0 0 0

ATOMIC_SPECIES
Al 26.98 Al.pbe-nl-rrkjus_psl.1.0.0.UPF
C 12.01 C.pbe-n-rrkjus_psl.1.0.0.UPF
Ge 72.64 Ge.pbe-dn-rrkjus_psl.1.0.0.UPF
Li 6.941 Li.pbe-sl-rrkjus_psl.1.0.0.UPF
Pd 106.4 Pd.pbe-n-rrkjus_psl.1.0.0.UPF


CELL_PARAMETERS {angstrom}
5.46300000 0.00000000 0.00000000
0.00000000 8.09626000 0.00000000
0.00000000 0.00000000 24.08560000

ATOMIC_POSITIONS {angstrom}
Li 3.94876566 2.02406500 0.42679683
Li 1.05741828 2.02406500 -2.0426997399999998 0 0 0
Li 3.93401556 6.07219500 1.02122944
Li 1.05741828 6.07219500 -2.0426997399999998 0 0 0
Al 5.37389847 0.31615895 2.15325264
Al 2.52592731 0.00000000 -0.6808999100000008 0 0 0
Al 5.37389847 3.73197105 2.15325264
Al 2.52592731 4.04813000 -0.6808999100000008 0 0 0
Ge 1.10882511 2.02406500 0.47159605
Ge 3.78891828 2.02406500 -2.0426997399999998 0 0 0
Ge 1.21972401 6.07227596 1.30664380
Ge 3.78891828 6.07219500 -2.0426997399999998 0 0 0
Pd 2.65736709 0.51913219 2.00175422
Pd 5.25742731 0.00000000 -0.6808999100000008 0 0 0
Pd 2.65736709 3.52899781 2.00175422
Pd 5.25742731 4.04813000 -0.6808999100000008 0 0 0
C 4.40017335 2.02406500 2.40591058
