&CONTROL
calculation = 'relax'
prefix = 'scf'
pseudo_dir = '/vol0004/mdt0/data/hp150275/u10028/POT_HYBRID_KKJUS_GBRV'
outdir = './data'
tprnfor = .true.
nstep = 50
disk_io = 'non'
/
&SYSTEM
ibrav = 0
ecutwfc = 50.0
ecutrho = 400
occupations = 'smearing'
smearing = 'mp'
degauss = 0.01
assume_isolated = 'esm'
esm_bc = 'bc1'
input_dft = 'BEEF-VDW'
nosym = .true.
nspin = 2
ntyp = 5
nat = 34
starting_magnetization(1) = 0.0
starting_magnetization(2) = 0.1
starting_magnetization(3) = 0.1
starting_magnetization(4) = 0.0
starting_magnetization(5) = 0.0
/
&ELECTRONS
electron_maxstep = 300
mixing_beta = 0.1
conv_thr = 1e-06
/
&IONS
ion_dynamics = 'bfgs'
upscale = 1.0
/
&CELL
/

K_POINTS {automatic}
8 6 1 0 0 0

ATOMIC_SPECIES
C 12.01 C.pbe-n-rrkjus_psl.1.0.0.UPF
Co 58.93 co_pbe_v1.2.uspp.F.UPF
Fe 55.84 fe_pbe_v1.5.uspp.F.UPF
Ga 69.72 Ga.pbe-dnl-rrkjus_psl.1.0.0.UPF
O 15.99 O.pbe-n-rrkjus_psl.1.0.0.UPF

CELL_PARAMETERS {angstrom}
5.74310000 0.00000000 0.00000000
0.00000000 8.12197000 0.00000000
0.00000000 0.00000000 26.09150000

ATOMIC_POSITIONS {angstrom}
Ga 0.00000000 0.00000000 -3.0456607899999995 0 0 0
Ga 2.87155000 2.03049250 -1.0152202700000004 0 0 0
Ga 2.87155000 6.09147750 -1.0152202700000004 0 0 0
Ga 0.00000000 4.06098500 -3.0456607899999995 0 0 0
Ga 5.74154936 4.06106622 1.00008720
Ga 2.85908747 6.12859490 3.19933973
Ga 2.85908747 1.99329388 3.19933973
Ga 0.01521922 8.12188878 1.00086994
Fe 0.00000000 6.09147750 -1.0152202700000004 0 0 0
Fe 2.87155000 0.00000000 -3.0456607899999995 0 0 0
Fe 0.00000000 2.03049250 -1.0152202700000004 0 0 0
Fe 2.87155000 4.06098500 -3.0456607899999995 0 0 0
Fe 5.72989087 2.09563070 2.99713061
Fe 2.87528302 4.06106622 0.99956536
Fe 5.72989087 6.02633930 2.99713061
Fe 2.87579989 0.00000000 1.03139700
Co 1.43577500 0.00000000 -1.0152202700000004 0 0 0
Co 4.30732500 4.06098500 -1.0152202700000004 0 0 0
Co 4.30732500 0.00000000 -1.0152202700000004 0 0 0
Co 1.43577500 4.06098500 -1.0152202700000004 0 0 0
Co 4.30732500 6.09147750 -3.0456607899999995 0 0 0
Co 1.43577500 2.03049250 -3.0456607899999995 0 0 0
Co 1.43577500 6.09147750 -3.0456607899999995 0 0 0
Co 4.30732500 2.03049250 -3.0456607899999995 0 0 0
Co 1.49274655 4.06098500 2.95825427
Co 4.30721014 8.12188878 2.98095387
Co 4.24214081 4.06098500 2.97495283
Co 1.38201958 0.00000000 3.07905791
Co 4.30123731 2.02423858 1.03896353
Co 1.45168339 6.09610702 1.04287726
Co 1.45174082 2.02586298 1.04287726
Co 4.30123731 6.09773142 1.03896353
C 0.75699801 0.00008122 4.71316856
O 0.41315861 0.00016244 5.82831927
