&CONTROL
calculation = 'relax'
prefix = 'scf'
pseudo_dir = '/vol0004/mdt0/data/hp150275/u10028/POT_KKJUS'
outdir = './data'
tprnfor = .true.
nstep = 50
disk_io = 'non'
/
&SYSTEM
ibrav = 0
ecutwfc = 50.0
ecutrho = 400
occupations = 'smearing'
smearing = 'mp'
degauss = 0.01
assume_isolated = 'esm'
esm_bc = 'bc1'
input_dft = 'BEEF-VDW'
nosym = .true.
nspin = 1
ntyp = 5
nat = 34
/
&ELECTRONS
electron_maxstep = 200
mixing_beta = 0.1
conv_thr = 1e-06
/
&IONS
ion_dynamics = 'bfgs'
upscale = 1.0
/
&CELL
/

K_POINTS {automatic}
8 6 1 0 0 0

ATOMIC_SPECIES
C 12.01 C.pbe-n-rrkjus_psl.1.0.0.UPF
Nb 92.90 Nb.pbe-spn-rrkjus_psl.1.0.0.UPF
Ni 58.69 Ni.pbe-spn-rrkjus_psl.1.0.0.UPF
O 15.99 O.pbe-n-rrkjus_psl.1.0.0.UPF
Sn 118.7 Sn.pbe-dn-rrkjus_psl.1.0.0.UPF

CELL_PARAMETERS {angstrom}
6.23466000 0.00000000 0.00000000
0.00000000 8.81715000 0.00000000
0.00000000 0.00000000 26.61290000

ATOMIC_POSITIONS {angstrom}
Nb 0.00000000 0.00000000 -3.306386700000001 0 0 0
Nb 3.11733000 2.20428750 -1.1020401900000003 0 0 0
Nb 3.11733000 6.61286250 -1.1020401900000003 0 0 0
Nb 0.00000000 4.40857500 -3.306386700000001 0 0 0
Nb 6.21015779 4.40910403 1.11108858
Nb 3.08684251 6.59637443 3.19780606
Nb 3.08709190 2.22104009 3.19887058
Nb 6.22649260 8.81547474 1.15180631
Ni 1.55866500 0.00000000 -1.1020401900000003 0 0 0
Ni 4.67599500 4.40857500 -1.1020401900000003 0 0 0
Ni 4.67599500 0.00000000 -1.1020401900000003 0 0 0
Ni 1.55866500 4.40857500 -1.1020401900000003 0 0 0
Ni 4.67599500 6.61286250 -3.306386700000001 0 0 0
Ni 1.55866500 2.20428750 -3.306386700000001 0 0 0
Ni 1.55866500 6.61286250 -3.306386700000001 0 0 0
Ni 4.67599500 2.20428750 -3.306386700000001 0 0 0
Ni 1.69582752 4.40857500 3.14883833
Ni 4.59856052 0.00061720 3.10040285
Ni 4.41918935 4.40848683 3.20073348
Ni 1.63884273 0.00114623 3.52594312
Ni 4.74657135 2.19908538 1.22951598
Ni 1.41003071 6.60475072 1.28513694
Ni 1.40703807 2.21160573 1.28833049
Ni 4.74395279 6.61621302 1.22871759
Sn 0.00000000 6.61286250 -1.1020401900000003 0 0 0
Sn 3.11733000 0.00000000 -3.306386700000001 0 0 0
Sn 0.00000000 2.20428750 -1.1020401900000003 0 0 0
Sn 3.11733000 4.40857500 -3.306386700000001 0 0 0
Sn 6.16826087 2.27253224 3.64037859
Sn 3.10037172 4.40654706 0.98893536
Sn 6.16888434 6.54558765 3.63771730
Sn 3.03821216 0.00088172 1.06052406
C 2.23288113 0.00026451 5.17940260
O 2.50047274 0.00008817 6.31045085
