&CONTROL
calculation = 'relax'
prefix = 'scf'
pseudo_dir = '/vol0403/data/hp230205/u10028/POT_HYBRID_KKJUS_GBRV'
outdir = './data'
tprnfor = .true.
nstep = 50
disk_io = 'non'
/
&SYSTEM
ibrav = 0
ecutwfc = 50.0
ecutrho = 400
occupations = 'smearing'
smearing = 'mp'
degauss = 0.01
assume_isolated = 'esm'
esm_bc = 'bc1'
input_dft = 'BEEF-VDW'
nosym = .true.
nspin = 1
ntyp = 4
nat = 32
/
&ELECTRONS
electron_maxstep = 200
mixing_beta = 0.1
conv_thr = 1e-06
/
&IONS
ion_dynamics = 'bfgs'
upscale = 1.0
/
&CELL
/

K_POINTS {automatic}
6 6 1 0 0 0

ATOMIC_SPECIES
Al 26.98 Al.pbe-nl-rrkjus_psl.1.0.0.UPF
In 114.8 In.pbe-dn-rrkjus_psl.1.0.0.UPF
Pd 106.4 Pd.pbe-n-rrkjus_psl.1.0.0.UPF
Sc 44.95 Sc.pbe-spn-rrkjus_psl.1.0.0.UPF


CELL_PARAMETERS {angstrom}
8.33700000 0.00000000 0.00000000
0.00000000 8.60736000 0.00000000
0.00000000 0.00000000 26.22680000

ATOMIC_POSITIONS {angstrom}
Sc 0.00000000 2.15184000 -1.0377944800000023 0 0 0
Sc 0.00000000 2.15184000 3.11338343
Sc 0.00000000 6.45552000 -1.0377944800000023 0 0 0
Sc 0.00000000 6.45552000 3.11338343
Sc 4.16850000 2.15184000 -1.0377944800000023 0 0 0
Sc 4.16850000 2.15184000 3.11338343
Sc 4.16850000 6.45552000 -1.0377944800000023 0 0 0
Sc 4.16850000 6.45552000 3.11338343
Al 0.00000000 0.00000000 -3.1133834300000025 0 0 0
Al 0.00000000 0.00000000 1.03779448
Al 0.00000000 4.30368000 -3.1133834300000025 0 0 0
Al 0.00000000 4.30368000 1.03779448
Al 4.16850000 0.00000000 -3.1133834300000025 0 0 0
Al 4.16850000 0.00000000 1.03779448
Al 4.16850000 4.30368000 -3.1133834300000025 0 0 0
Al 4.16850000 4.30368000 1.03779448
In 2.08425000 0.00000000 -1.0377944800000023 0 0 0
In 2.08425000 0.00000000 3.11338343
In 2.08425000 4.30368000 -1.0377944800000023 0 0 0
In 2.08425000 4.30368000 3.11338343
In 6.25275000 0.00000000 -1.0377944800000023 0 0 0
In 6.25275000 0.00000000 3.11338343
In 6.25275000 4.30368000 -1.0377944800000023 0 0 0
In 6.25275000 4.30368000 3.11338343
Pd 2.08425000 2.15184000 -3.1133834300000025 0 0 0
Pd 2.08425000 2.15184000 1.03779448
Pd 2.08425000 6.45552000 -3.1133834300000025 0 0 0
Pd 2.08425000 6.45552000 1.03779448
Pd 6.25275000 2.15184000 -3.1133834300000025 0 0 0
Pd 6.25275000 2.15184000 1.03779448
Pd 6.25275000 6.45552000 -3.1133834300000025 0 0 0
Pd 6.25275000 6.45552000 1.03779448
