&CONTROL
calculation = 'relax'
prefix = 'scf'
pseudo_dir = '/vol0004/mdt0/data/hp150275/u10028/POT_HYBRID_KKJUS_GBRV'
outdir = './data'
tprnfor = .true.
nstep = 50
disk_io = 'non'
/
&SYSTEM
ibrav = 0
ecutwfc = 50.0
ecutrho = 400
occupations = 'smearing'
smearing = 'mp'
degauss = 0.01
assume_isolated = 'esm'
esm_bc = 'bc1'
input_dft = 'BEEF-VDW'
nosym = .true.
nspin = 2
ntyp = 5
nat = 34
starting_magnetization(1) = 0.0
starting_magnetization(2) = 0.1
starting_magnetization(3) = 0.0
starting_magnetization(4) = 0.1
starting_magnetization(5) = 0.0
/
&ELECTRONS
electron_maxstep = 300
mixing_beta = 0.1
conv_thr = 1e-06
/
&IONS
ion_dynamics = 'bfgs'
upscale = 1.0
/
&CELL
/

K_POINTS {automatic}
8 6 1 0 0 0

ATOMIC_SPECIES
C 12.01 C.pbe-n-rrkjus_psl.1.0.0.UPF
Co 58.93 co_pbe_v1.2.uspp.F.UPF
Ge 72.64 Ge.pbe-dn-rrkjus_psl.1.0.0.UPF
Mn 54.93 mn_pbe_v1.5.uspp.F.UPF
O 15.99 O.pbe-n-rrkjus_psl.1.0.0.UPF

CELL_PARAMETERS {angstrom}
5.75846000 0.00000000 0.00000000
0.00000000 8.14369000 0.00000000
0.00000000 0.00000000 26.10780000

ATOMIC_POSITIONS {angstrom}
Mn 0.00000000 0.00000000 -3.0538293700000025 0 0 0
Mn 2.87923000 2.03592250 -1.0179431200000018 0 0 0
Mn 2.87923000 6.10776750 -1.0179431200000018 0 0 0
Mn 0.00000000 4.07184500 -3.0538293700000025 0 0 0
Mn 5.75339256 4.07184500 0.97225447
Mn 2.88827078 6.03911619 3.13998511
Mn 2.88827078 2.10457381 3.13998511
Mn 0.00069102 0.00000000 1.01298264
Co 1.43961500 0.00000000 -1.0179431200000018 0 0 0
Co 4.31884500 4.07184500 -1.0179431200000018 0 0 0
Co 4.31884500 0.00000000 -1.0179431200000018 0 0 0
Co 1.43961500 4.07184500 -1.0179431200000018 0 0 0
Co 4.31884500 6.10776750 -3.0538293700000025 0 0 0
Co 1.43961500 2.03592250 -3.0538293700000025 0 0 0
Co 1.43961500 6.10776750 -3.0538293700000025 0 0 0
Co 4.31884500 2.03592250 -3.0538293700000025 0 0 0
Co 1.33901470 4.07184500 2.93791073
Co 4.36289722 0.00000000 2.98542693
Co 4.41691157 4.07184500 2.96245207
Co 1.45821483 0.00000000 3.05957308
Co 4.31216519 2.03225784 1.02264253
Co 1.44163046 6.11517826 1.02838624
Co 1.44168805 2.02851174 1.02838624
Co 4.31216519 6.11143216 1.02264253
Ge 0.00000000 6.10776750 -1.0179431200000018 0 0 0
Ge 2.87923000 0.00000000 -3.0538293700000025 0 0 0
Ge 0.00000000 2.03592250 -1.0179431200000018 0 0 0
Ge 2.87923000 4.07184500 -3.0538293700000025 0 0 0
Ge 0.00627672 2.02012374 3.08855274
Ge 2.87796314 4.07192644 1.03491319
Ge 0.00627672 6.12356626 3.08855274
Ge 2.87871174 8.14360856 1.01167725
C 2.21188207 0.00008144 4.64536085
O 2.57927182 0.00008144 5.75833637
