&CONTROL
calculation = 'relax'
prefix = 'scf'
pseudo_dir = '/vol0403/data/hp230205/u10028/POT_HYBRID_KKJUS_GBRV'
outdir = './data'
tprnfor = .true.
nstep = 50
disk_io = 'non'
/
&SYSTEM
ibrav = 0
ecutwfc = 50.0
ecutrho = 400
occupations = 'smearing'
smearing = 'mp'
degauss = 0.01
assume_isolated = 'esm'
esm_bc = 'bc1'
input_dft = 'BEEF-VDW'
nosym = .true.
nspin = 1
ntyp = 5
nat = 33
/
&ELECTRONS
electron_maxstep = 200
mixing_beta = 0.1
conv_thr = 1e-06
/
&IONS
ion_dynamics = 'bfgs'
upscale = 1.0
/
&CELL
/

K_POINTS {automatic}
6 6 1 0 0 0

ATOMIC_SPECIES
C 12.01 C.pbe-n-rrkjus_psl.1.0.0.UPF
Ge 72.64 Ge.pbe-dn-rrkjus_psl.1.0.0.UPF
Li 6.941 Li.pbe-sl-rrkjus_psl.1.0.0.UPF
Pb 207.2 Pb.pbe-dn-rrkjus_psl.1.0.0.UPF
Y 88.90 Y.pbe-spn-rrkjus_psl.1.0.0.UPF


CELL_PARAMETERS {angstrom}
8.55406000 0.00000000 0.00000000
0.00000000 8.65500000 0.00000000
0.00000000 0.00000000 27.39600000

ATOMIC_POSITIONS {angstrom}
Li 2.13851500 0.00000000 -1.2325460400000026 0 0 0
Li 2.13851500 0.03678375 3.70941840
Li 2.13851500 4.32750000 -1.2325460400000026 0 0 0
Li 2.13851500 4.29071625 3.70941840
Li 6.41554500 0.00000000 -1.2325460400000026 0 0 0
Li 6.41554500 8.53045455 3.57599988
Li 6.41554500 4.32750000 -1.2325460400000026 0 0 0
Li 6.41554500 4.45204545 3.57599988
Y 2.13851500 2.16375000 -3.697912080000002 0 0 0
Y 2.13851500 2.16375000 1.41856488
Y 2.13851500 6.49125000 -3.697912080000002 0 0 0
Y 2.13851500 6.49125000 1.21473864
Y 6.41554500 2.16375000 -3.697912080000002 0 0 0
Y 6.41554500 2.16375000 1.21775220
Y 6.41554500 6.49125000 -3.697912080000002 0 0 0
Y 6.41554500 6.49125000 1.14761844
Ge 0.00000000 0.00000000 -3.697912080000002 0 0 0
Ge 8.51796187 8.63249700 1.49883516
Ge 0.00000000 4.32750000 -3.697912080000002 0 0 0
Ge 8.51796187 4.35000300 1.49883516
Ge 4.27703000 0.00000000 -3.697912080000002 0 0 0
Ge 4.31312813 8.63249700 1.49883516
Ge 4.27703000 4.32750000 -3.697912080000002 0 0 0
Ge 4.31312813 4.35000300 1.49883516
Pb 0.00000000 2.16375000 -1.2325460400000026 0 0 0
Pb 8.47963968 2.16375000 4.12419384
Pb 0.00000000 6.49125000 -1.2325460400000026 0 0 0
Pb 0.00590230 6.49125000 3.79982520
Pb 4.27703000 2.16375000 -1.2325460400000026 0 0 0
Pb 4.35136478 2.16375000 4.12419384
Pb 4.27703000 6.49125000 -1.2325460400000026 0 0 0
Pb 4.27112770 6.49125000 3.79982520
C 2.13851500 2.16375000 3.69982980
