&CONTROL
calculation = 'relax'
prefix = 'scf'
pseudo_dir = '/vol0004/mdt0/data/hp150275/u10028/POT_HYBRID_KKJUS_GBRV'
outdir = './data'
tprnfor = .true.
nstep = 50
disk_io = 'non'
/
&SYSTEM
ibrav = 0
ecutwfc = 50.0
ecutrho = 400
occupations = 'smearing'
smearing = 'mp'
degauss = 0.01
assume_isolated = 'esm'
esm_bc = 'bc1'
input_dft = 'BEEF-VDW'
nosym = .true.
nspin = 2
ntyp = 4
nat = 34
starting_magnetization(1) = 0.0
starting_magnetization(2) = 0.0
starting_magnetization(3) = 0.1
starting_magnetization(4) = 0.0
/
&ELECTRONS
electron_maxstep = 400
mixing_beta = 0.1
conv_thr = 1e-06
/
&IONS
ion_dynamics = 'bfgs'
upscale = 1.0
/
&CELL
/

K_POINTS {automatic}
7 7 2 0  0  0

ATOMIC_SPECIES
C 12.01 C.pbe-n-rrkjus_psl.1.0.0.UPF
Ge 72.64 Ge.pbe-dn-rrkjus_psl.1.0.0.UPF
Mn 54.93 mn_pbe_v1.5.uspp.F.UPF
O 15.99 O.pbe-n-rrkjus_psl.1.0.0.UPF

CELL_PARAMETERS {angstrom}
7.42262000 0.00000000 0.00000000
0.00000000 7.42262000 0.00000000
0.00000000 0.00000000 25.56700000

ATOMIC_POSITIONS {angstrom}
Mn 0.00029690 1.85224059 0.80484916
Mn 1.85276018 7.42232310 0.80433782
Mn 1.85491274 1.85357667 2.71521540
Mn 0.00000000 1.85565500 -2.783479289999999 0 0 0
Mn 1.85565500 0.00000000 -2.783479289999999 0 0 0
Mn 1.85565500 1.85565500 -0.9278264299999996 0 0 0
Mn 0.00029690 5.56985982 0.80433782
Mn 1.85624881 3.71108732 0.80766153
Mn 1.85491274 5.56778149 2.71444839
Mn 0.00000000 5.56696500 -2.783479289999999 0 0 0
Mn 1.85565500 3.71131000 -2.783479289999999 0 0 0
Mn 1.85565500 5.56696500 -0.9278264299999996 0 0 0
Mn 3.71160690 1.85572923 0.80791720
Mn 5.57045363 7.42232310 0.80459349
Mn 5.56919179 1.85350244 2.71598241
Mn 3.71131000 1.85565500 -2.783479289999999 0 0 0
Mn 5.56696500 0.00000000 -2.783479289999999 0 0 0
Mn 5.56696500 1.85565500 -0.9278264299999996 0 0 0
Mn 3.71160690 5.56629696 0.80740586
Mn 5.56689077 3.71108732 0.80766153
Mn 5.56919179 5.56792994 2.71521540
Mn 3.71131000 5.56696500 -2.783479289999999 0 0 0
Mn 5.56696500 3.71131000 -2.783479289999999 0 0 0
Mn 5.56696500 5.56696500 -0.9278264299999996 0 0 0
Ge 0.00126185 7.42135815 2.61371441
Ge 0.00000000 0.00000000 -0.9278264299999996 0 0 0
Ge 0.00081649 3.71123577 2.60936802
Ge 0.00000000 3.71131000 -0.9278264299999996 0 0 0
Ge 3.71168113 7.42158083 2.60936802
Ge 3.71131000 0.00000000 -0.9278264299999996 0 0 0
Ge 3.71175536 3.71108732 2.61397008
Ge 3.71131000 3.71131000 -0.9278264299999996 0 0 0
C 7.36709880 0.05878715 6.84403023
O 0.02583072 7.39523053 7.97281328
