&CONTROL
calculation = 'relax'
prefix = 'scf'
pseudo_dir = '/vol0004/mdt0/data/hp150275/u10028/POT_HYBRID_KKJUS_GBRV'
outdir = './data'
tprnfor = .true.
nstep = 50
disk_io = 'non'
/
&SYSTEM
ibrav = 0
ecutwfc = 50.0
ecutrho = 400
occupations = 'smearing'
smearing = 'mp'
degauss = 0.01
assume_isolated = 'esm'
esm_bc = 'bc1'
input_dft = 'BEEF-VDW'
nosym = .true.
nspin = 2
ntyp = 5
nat = 34
starting_magnetization(1) = 0.0
starting_magnetization(2) = 0.0
starting_magnetization(3) = 0.001
starting_magnetization(4) = 0.0
starting_magnetization(5) = 0.0
/
&ELECTRONS
electron_maxstep = 200
mixing_beta = 0.1
conv_thr = 1e-06
/
&IONS
ion_dynamics = 'bfgs'
upscale = 1.0
/
&CELL
/

K_POINTS {automatic}
9 6 2 0  0  0

ATOMIC_SPECIES
Al 26.98 Al.pbe-nl-rrkjus_psl.1.0.0.UPF
C 12.01 C.pbe-n-rrkjus_psl.1.0.0.UPF
Ni 58.69 ni_pbe_v1.4.uspp.F.UPF
O 15.99 O.pbe-n-rrkjus_psl.1.0.0.UPF
Ti 47.86 Ti.pbe-spn-rrkjus_psl.1.0.0.UPF

CELL_PARAMETERS {angstrom}
5.91339000 0.00000000 0.00000000
0.00000000 8.36280000 0.00000000
0.00000000 0.00000000 26.27210000

ATOMIC_POSITIONS {angstrom}
Ti 0.00000000 0.00000000 23.13599942
Ti 2.95669500 2.09070000 25.22673314
Ti 2.95669500 6.27210000 25.22673314
Ti 0.00000000 4.18140000 23.13599942
Ti 0.00000000 4.19335880 1.04273965
Ti 2.95669500 6.27218363 3.18785661
Ti 2.95669500 2.09061637 3.16683893
Ti 0.00000000 8.35084120 1.04273965
Al 0.00000000 6.27210000 25.22673314
Al 2.95669500 0.00000000 23.13599942
Al 0.00000000 2.09070000 25.22673314
Al 2.95669500 4.18140000 23.13599942
Al 0.00000000 2.09070000 3.11954915
Al 2.95669500 4.16810315 1.04694318
Al 0.00000000 6.27210000 3.13032071
Al 2.95669500 0.01329685 1.04694318
Ni 1.47834750 0.00000000 25.22673314
Ni 4.43504250 4.18140000 25.22673314
Ni 4.43504250 0.00000000 25.22673314
Ni 1.47834750 4.18140000 25.22673314
Ni 4.43504250 6.27210000 23.13599942
Ni 1.47834750 2.09070000 23.13599942
Ni 1.47834750 6.27210000 23.13599942
Ni 4.43504250 2.09070000 23.13599942
Ni 1.44517338 4.19185350 3.00211287
Ni 4.46845315 8.35243013 3.00185015
Ni 4.46821662 4.19185350 3.00211287
Ni 1.44493685 8.35243013 3.00185015
Ni 4.41635619 2.09053274 1.02592551
Ni 1.55510330 6.27226726 1.07952059
Ni 1.49703381 2.09053274 1.02592551
Ni 4.35828670 6.27226726 1.07952059
C 2.95669500 2.09070000 5.31379495
O 2.95669500 2.09070000 6.46346204
