&CONTROL
calculation = 'relax'
prefix = 'scf'
pseudo_dir = '/vol0004/mdt0/data/hp150275/u10028/POT_HYBRID_KKJUS_GBRV'
outdir = './data'
tprnfor = .true.
nstep = 50
disk_io = 'non'
/
&SYSTEM
ibrav = 0
ecutwfc = 50.0
ecutrho = 400
occupations = 'smearing'
smearing = 'mp'
degauss = 0.01
assume_isolated = 'esm'
esm_bc = 'bc1'
input_dft = 'BEEF-VDW'
nosym = .true.
nspin = 2
ntyp = 4
nat = 33
starting_magnetization(1) = 0.0
starting_magnetization(2) = 0.0
starting_magnetization(3) = 0.0
starting_magnetization(4) = 0.001
/
&ELECTRONS
electron_maxstep = 300
mixing_beta = 0.1
conv_thr = 1e-06
/
&IONS
ion_dynamics = 'bfgs'
upscale = 1.0
/
&CELL
/

K_POINTS {automatic}
8 6 1 0 0 0

ATOMIC_SPECIES
Al 26.98 Al.pbe-nl-rrkjus_psl.1.0.0.UPF
C 12.01 C.pbe-n-rrkjus_psl.1.0.0.UPF
Hf 178.4 Hf.pbe-spn-rrkjus_psl.1.0.0.UPF
Ni 58.69 ni_pbe_v1.4.uspp.F.UPF

CELL_PARAMETERS {angstrom}
6.09317000 0.00000000 0.00000000
0.00000000 8.61704000 0.00000000
0.00000000 0.00000000 26.46280000

ATOMIC_POSITIONS {angstrom}
Hf 0.00000000 0.00000000 -3.23137251 0 0 0
Hf 3.04658500 2.15426000 -1.07703596 0 0 0
Hf 3.04658500 6.46278000 -1.07703596 0 0 0
Hf 0.00000000 4.30852000 -3.23137251 0 0 0
Hf 0.01218634 4.35005413 1.07782984
Hf 2.93739539 6.46286617 3.29938190
Hf 3.18380319 2.15417383 3.24381002
Hf 0.01218634 8.57550587 1.07782984
Al 0.00000000 6.46278000 -1.07703596 0 0 0
Al 3.04658500 0.00000000 -3.23137251 0 0 0
Al 0.00000000 2.15426000 -1.07703596 0 0 0
Al 3.04658500 4.30852000 -3.23137251 0 0 0
Al 5.87308470 2.15426000 3.18612112
Al 3.02659940 4.29611146 1.13102007
Al 6.06879732 6.46278000 3.21073152
Al 3.02666033 0.01240854 1.13102007
Ni 1.52329250 0.00000000 -1.07703596 0 0 0
Ni 4.56987750 4.30852000 -1.07703596 0 0 0
Ni 4.56987750 0.00000000 -1.07703596 0 0 0
Ni 1.52329250 4.30852000 -1.07703596 0 0 0
Ni 4.56987750 6.46278000 -3.23137251 0 0 0
Ni 1.52329250 2.15426000 -3.23137251 0 0 0
Ni 1.52329250 6.46278000 -3.23137251 0 0 0
Ni 4.56987750 2.15426000 -3.23137251 0 0 0
Ni 1.34780920 4.16237500 3.30467446
Ni 4.58108893 8.52690576 3.07630050
Ni 4.58102800 4.39865424 3.07630050
Ni 1.34774827 0.14614500 3.30467446
Ni 4.59485950 2.15417383 0.99341351
Ni 1.64667919 6.46286617 1.08735645
Ni 1.55515978 2.15426000 1.06989100
Ni 4.43978832 6.46286617 1.17759460
C 1.37681269 2.15426000 4.15704125
