&CONTROL
calculation = 'relax'
prefix = 'scf'
pseudo_dir = '/vol0004/mdt0/data/hp150275/u10028/POT_KKJUS'
outdir = './data'
tprnfor = .true.
nstep = 50
disk_io = 'non'
/
&SYSTEM
ibrav = 0
ecutwfc = 50.0
ecutrho = 400
occupations = 'smearing'
smearing = 'mp'
degauss = 0.01
assume_isolated = 'esm'
esm_bc = 'bc1'
input_dft = 'BEEF-VDW'
nosym = .true.
nspin = 1
ntyp = 5
nat = 18
/
&ELECTRONS
electron_maxstep = 200
mixing_beta = 0.1
conv_thr = 1e-06
/
&IONS
ion_dynamics = 'bfgs'
upscale = 1.0
/
&CELL
/

K_POINTS {automatic}
9 9 2 0  0  0

ATOMIC_SPECIES
C 12.01 C.pbe-n-rrkjus_psl.1.0.0.UPF
Ge 72.64 Ge.pbe-dn-rrkjus_psl.1.0.0.UPF
Li 6.941 Li.pbe-sl-rrkjus_psl.1.0.0.UPF
O 15.99 O.pbe-n-rrkjus_psl.1.0.0.UPF
Sn 118.7 Sn.pbe-dn-rrkjus_psl.1.0.0.UPF

CELL_PARAMETERS {angstrom}
6.92564000 0.00000000 0.00000000
0.00000000 6.92564000 0.00000000
0.00000000 0.00000000 25.19420000

ATOMIC_POSITIONS {angstrom}
Li 0.31837167 6.60782238 0.88381254
Li 3.46282000 0.00000000 -2.5970181399999994 0 0 0
Li 0.00000000 3.46282000 -2.5970181399999994 0 0 0
Li 3.80910200 3.12768828 0.91001450
Li 1.73141000 1.73141000 -0.8656727099999983 0 0 0
Li 2.62357094 4.33039492 2.87037521
Li 5.19423000 5.19423000 -0.8656727099999983 0 0 0
Li 6.10010371 0.83703285 2.91295340
Sn 0.00000000 0.00000000 -2.5970181399999994 0 0 0
Sn 3.46282000 3.46282000 -2.5970181399999994 0 0 0
Sn 3.47459359 6.92273123 0.75129104
Sn 0.01495938 3.46586728 0.75456629
Ge 1.67697447 1.79741135 2.29544356
Ge 1.73141000 5.19423000 -0.8656727099999983 0 0 0
Ge 5.14817449 5.25275166 2.27931927
Ge 5.19423000 1.73141000 -0.8656727099999983 0 0 0
C 2.00358765 1.09293525 6.29527475
O 1.61540553 2.01847778 6.82813208
