&CONTROL
calculation = 'relax'
prefix = 'scf'
pseudo_dir = '/vol0004/mdt0/data/hp150275/u10028/POT_KKJUS'
outdir = './data'
tprnfor = .true.
nstep = 50
disk_io = 'non'
/
&SYSTEM
ibrav = 0
ecutwfc = 50.0
ecutrho = 400
occupations = 'smearing'
smearing = 'mp'
degauss = 0.01
assume_isolated = 'esm'
esm_bc = 'bc1'
input_dft = 'BEEF-VDW'
nosym = .true.
nspin = 1
ntyp = 4
nat = 33
/
&ELECTRONS
electron_maxstep = 200
mixing_beta = 0.1
conv_thr = 1e-06
/
&IONS
ion_dynamics = 'bfgs'
upscale = 1.0
/
&CELL
/

K_POINTS {automatic}
9 6 2 0  0  0

ATOMIC_SPECIES
C 12.01 C.pbe-n-rrkjus_psl.1.0.0.UPF
Cu 63.54 Cu.pbe-dn-rrkjus_psl.1.0.0.UPF
Ge 72.64 Ge.pbe-dn-rrkjus_psl.1.0.0.UPF
Li 6.941 Li.pbe-sl-rrkjus_psl.1.0.0.UPF

CELL_PARAMETERS {angstrom}
5.94410000 0.00000000 0.00000000
0.00000000 8.40623000 0.00000000
0.00000000 0.00000000 26.30470000

ATOMIC_POSITIONS {angstrom}
Li 0.00000000 0.00000000 -3.1523552499999994 0 0 0
Li 2.97205000 2.10155750 -1.0508727700000016 0 0 0
Li 2.97205000 6.30467250 -1.0508727700000016 0 0 0
Li 0.00000000 4.20311500 -3.1523552499999994 0 0 0
Li 0.00000000 4.20311500 0.93250162
Li 2.97205000 6.35099083 3.55323888
Li 2.97205000 2.05523917 3.55323888
Li 0.00000000 0.00000000 1.06007941
Cu 1.48602500 0.00000000 -1.0508727700000016 0 0 0
Cu 4.45807500 4.20311500 -1.0508727700000016 0 0 0
Cu 4.45807500 0.00000000 -1.0508727700000016 0 0 0
Cu 1.48602500 4.20311500 -1.0508727700000016 0 0 0
Cu 4.45807500 6.30467250 -3.1523552499999994 0 0 0
Cu 1.48602500 2.10155750 -3.1523552499999994 0 0 0
Cu 1.48602500 6.30467250 -3.1523552499999994 0 0 0
Cu 4.45807500 2.10155750 -3.1523552499999994 0 0 0
Cu 1.39371313 4.20311500 3.00162932
Cu 4.75022751 0.00000000 3.42934374
Cu 4.55038687 4.20311500 3.00162932
Cu 1.19387248 0.00000000 3.42934374
Cu 4.52536221 2.12669213 1.18134408
Cu 1.41873779 6.27953787 1.18134408
Cu 1.41873779 2.12669213 1.18134408
Cu 4.52536221 6.27953787 1.18134408
Ge 0.00000000 6.30467250 -1.0508727700000016 0 0 0
Ge 2.97205000 0.00000000 -3.1523552499999994 0 0 0
Ge 0.00000000 2.10155750 -1.0508727700000016 0 0 0
Ge 2.97205000 4.20311500 -3.1523552499999994 0 0 0
Ge 0.00000000 2.17326264 3.37042121
Ge 2.97205000 4.20311500 1.07191653
Ge 0.00000000 6.23296736 3.37042121
Ge 2.97205000 0.00000000 0.93618427
C 2.97205000 0.00000000 2.88957130
