&CONTROL
calculation = 'relax'
prefix = 'scf'
pseudo_dir = '/vol0004/mdt0/data/hp150275/u10028/POT_HYBRID_KKJUS_GBRV'
outdir = './data'
tprnfor = .true.
nstep = 50
disk_io = 'non'
/
&SYSTEM
ibrav = 0
ecutwfc = 50.0
ecutrho = 400
occupations = 'smearing'
smearing = 'mp'
degauss = 0.01
assume_isolated = 'esm'
esm_bc = 'bc1'
input_dft = 'BEEF-VDW'
nosym = .true.
nspin = 2
ntyp = 5
nat = 34
starting_magnetization(1) = 0.0
starting_magnetization(2) = 0.0
starting_magnetization(3) = 0.001
starting_magnetization(4) = 0.0
starting_magnetization(5) = 0.0
/
&ELECTRONS
electron_maxstep = 200
mixing_beta = 0.1
conv_thr = 1e-06
/
&IONS
ion_dynamics = 'bfgs'
upscale = 1.0
/
&CELL
/

K_POINTS {automatic}
9 6 2 0  0  0

ATOMIC_SPECIES
C 12.01 C.pbe-n-rrkjus_psl.1.0.0.UPF
In 114.8 In.pbe-dn-rrkjus_psl.1.0.0.UPF
Ni 58.69 ni_pbe_v1.4.uspp.F.UPF
O 15.99 O.pbe-n-rrkjus_psl.1.0.0.UPF
Ti 47.86 Ti.pbe-spn-rrkjus_psl.1.0.0.UPF

CELL_PARAMETERS {angstrom}
6.16408000 0.00000000 0.00000000
0.00000000 8.71733000 0.00000000
0.00000000 0.00000000 26.53800000

ATOMIC_POSITIONS {angstrom}
Ti 0.00000000 0.00000000 23.26904916
Ti 3.08204000 2.17933250 25.44834972
Ti 3.08204000 6.53799750 25.44834972
Ti 0.00000000 4.35866500 23.26904916
Ti 0.00000000 4.36746950 1.17085656
Ti 3.08204000 6.53799750 3.16200270
Ti 3.08204000 2.17933250 3.17022948
Ti 0.00000000 8.70852550 1.17085656
In 0.00000000 6.53799750 25.44834972
In 3.08204000 0.00000000 23.26904916
In 0.00000000 2.17933250 25.44834972
In 3.08204000 4.35866500 23.26904916
In 0.00000000 2.17933250 3.52636944
In 3.08204000 4.33599994 1.02065148
In 0.00000000 6.53808467 3.54813060
In 3.08204000 0.02257788 1.02065148
Ni 1.54102000 0.00000000 25.44834972
Ni 4.62306000 4.35866500 25.44834972
Ni 4.62306000 0.00000000 25.44834972
Ni 1.54102000 4.35866500 25.44834972
Ni 4.62306000 6.53799750 23.26904916
Ni 1.54102000 2.17933250 23.26904916
Ni 1.54102000 6.53799750 23.26904916
Ni 4.62306000 2.17933250 23.26904916
Ni 1.57258009 4.37322294 3.13148400
Ni 4.59131499 8.70285923 3.13148400
Ni 4.59149991 4.37322294 3.13148400
Ni 1.57276501 8.70285923 3.13148400
Ni 4.71447331 2.17924533 1.13954172
Ni 1.51457610 6.53808467 1.17536802
Ni 1.44960669 2.17924533 1.13954172
Ni 4.64950390 6.53808467 1.17536802
C 3.08204000 2.17933250 5.29698480
O 3.08204000 2.17933250 6.44979552
