&CONTROL
calculation = 'relax'
prefix = 'scf'
pseudo_dir = '/vol0004/mdt0/data/hp150275/u10028/POT_KKJUS'
outdir = './data'
tprnfor = .true.
nstep = 50
disk_io = 'non'
/
&SYSTEM
ibrav = 0
ecutwfc = 50.0
ecutrho = 400
occupations = 'smearing'
smearing = 'mp'
degauss = 0.01
assume_isolated = 'esm'
esm_bc = 'bc1'
input_dft = 'BEEF-VDW'
nosym = .true.
nspin = 1
ntyp = 2
nat = 16
/
&ELECTRONS
electron_maxstep = 200
mixing_beta = 0.1
conv_thr = 1e-06
/
&IONS
ion_dynamics = 'bfgs'
upscale = 1.0
/
&CELL
/

K_POINTS {automatic}
9 9 2 0  0  0

ATOMIC_SPECIES
In 114.8 In.pbe-dn-rrkjus_psl.1.0.0.UPF
Y 88.90 Y.pbe-spn-rrkjus_psl.1.0.0.UPF

CELL_PARAMETERS {angstrom}
7.55034000 0.00000000 0.00000000
-0.00000000 7.55034000 0.00000000
0.00000000 0.00000000 25.66280000

ATOMIC_POSITIONS {angstrom}
Y 0.00000000 0.00000000 -2.71127482 0 0 0
Y 0.00000000 0.00000000 1.06372306
Y 0.00000000 3.77517000 -2.71127482 0 0 0
Y 0.00000000 3.77517000 1.06372306
Y 3.77517000 0.00000000 -2.71127482 0 0 0
Y 3.77517000 -0.00000000 1.06372306
Y 3.77517000 3.77517000 -2.71127482 0 0 0
Y 3.77517000 3.77517000 1.06372306
In 1.88758500 1.88758500 -0.8237758799999995 0 0 0
In 1.88758500 1.88758500 2.95147863
In 1.88758500 5.66275500 -0.8237758799999995 0 0 0
In 1.88758500 5.66275500 2.95147863
In 5.66275500 1.88758500 -0.8237758799999995 0 0 0
In 5.66275500 1.88758500 2.95147863
In 5.66275500 5.66275500 -0.8237758799999995 0 0 0
In 5.66275500 5.66275500 2.95147863
