&CONTROL
calculation = 'relax'
prefix = 'scf'
pseudo_dir = '/vol0004/mdt0/data/hp150275/u10028/POT_HYBRID_KKJUS_GBRV'
outdir = './data'
tprnfor = .true.
nstep = 50
disk_io = 'non'
/
&SYSTEM
ibrav = 0
ecutwfc = 50.0
ecutrho = 400
occupations = 'smearing'
smearing = 'mp'
degauss = 0.01
assume_isolated = 'esm'
esm_bc = 'bc1'
input_dft = 'BEEF-VDW'
nosym = .true.
nspin = 2
ntyp = 4
nat = 33
starting_magnetization(1) = 0.0
starting_magnetization(2) = 0.1
starting_magnetization(3) = 0.0
starting_magnetization(4) = 0.0
/
&ELECTRONS
electron_maxstep = 300
mixing_beta = 0.1
conv_thr = 1e-06
/
&IONS
ion_dynamics = 'bfgs'
upscale = 1.0
/
&CELL
/

K_POINTS {automatic}
8 6 1 0 0 0

ATOMIC_SPECIES
C 12.01 C.pbe-n-rrkjus_psl.1.0.0.UPF
Co 58.93 co_pbe_v1.2.uspp.F.UPF
Hf 178.4 Hf.pbe-spn-rrkjus_psl.1.0.0.UPF
Sn 118.7 Sn.pbe-dn-rrkjus_psl.1.0.0.UPF

CELL_PARAMETERS {angstrom}
6.26570000 0.00000000 0.00000000
0.00000000 8.86104000 0.00000000
0.00000000 0.00000000 26.64580000

ATOMIC_POSITIONS {angstrom}
Hf 0.00000000 0.00000000 -3.32299772 0 0 0
Hf 3.13285000 2.21526000 -1.1076659100000015 0 0 0
Hf 3.13285000 6.64578000 -1.1076659100000015 0 0 0
Hf 0.00000000 4.43052000 -3.32299772 0 0 0
Hf 6.24596304 4.40748130 1.16042459
Hf 3.16048174 6.64578000 3.31873439
Hf 3.39563346 2.21543722 3.10796611
Hf 6.24608836 0.02303870 1.16042459
Co 1.56642500 0.00000000 -1.1076659100000015 0 0 0
Co 4.69927500 4.43052000 -1.1076659100000015 0 0 0
Co 4.69927500 0.00000000 -1.1076659100000015 0 0 0
Co 1.56642500 4.43052000 -1.1076659100000015 0 0 0
Co 4.69927500 6.64578000 -3.32299772 0 0 0
Co 1.56642500 2.21526000 -3.32299772 0 0 0
Co 1.56642500 6.64578000 -3.32299772 0 0 0
Co 4.69927500 2.21526000 -3.32299772 0 0 0
Co 1.30570922 4.03646955 3.30301337
Co 4.75209485 8.79981021 3.23773116
Co 4.75228282 4.49148396 3.23799762
Co 1.30614782 0.39431628 3.30274691
Co 4.71901196 2.21508278 0.98429585
Co 1.60483374 6.64586861 1.12471922
Co 1.56604906 2.21517139 1.14150607
Co 4.67828490 6.64586861 1.19906100
Sn 0.00000000 6.64578000 -1.1076659100000015 0 0 0
Sn 3.13285000 0.00000000 -3.32299772 0 0 0
Sn 0.00000000 2.21526000 -1.1076659100000015 0 0 0
Sn 3.13285000 4.43052000 -3.32299772 0 0 0
Sn 5.69408019 2.21499417 4.87351682
Sn 3.12376473 4.45453342 1.11699194
Sn 0.08107816 6.64586861 3.51058415
Sn 3.12376473 8.83702658 1.11672548
C 1.32951888 2.21543722 3.64461252
