&CONTROL
calculation = 'relax'
prefix = 'scf'
pseudo_dir = '/vol0004/mdt0/data/hp150275/u10028/POT_KKJUS'
outdir = './data'
tprnfor = .true.
nstep = 50
disk_io = 'non'
/
&SYSTEM
ibrav = 0
ecutwfc = 50.0
ecutrho = 400
occupations = 'smearing'
smearing = 'mp'
degauss = 0.01
assume_isolated = 'esm'
esm_bc = 'bc1'
input_dft = 'BEEF-VDW'
nosym = .true.
nspin = 1
ntyp = 2
nat = 32
/
&ELECTRONS
electron_maxstep = 200
mixing_beta = 0.1
conv_thr = 1e-06
/
&IONS
ion_dynamics = 'bfgs'
upscale = 1.0
/
&CELL
/

K_POINTS {automatic}
9 6 2 0  0  0

ATOMIC_SPECIES
Rh 102.9 Rh.pbe-spn-rrkjus_psl.1.0.0.UPF
Y 88.90 Y.pbe-spn-rrkjus_psl.1.0.0.UPF

CELL_PARAMETERS {angstrom}
6.88160000 0.00000000 0.00000000
0.00000000 9.73205000 0.00000000
0.00000000 0.00000000 27.29900000

ATOMIC_POSITIONS {angstrom}
Y 1.72040000 2.43301250 -3.64960331 0 0 0
Y 1.72040000 0.00000000 -1.216443439999999 0 0 0
Y 1.72040000 2.43301250 1.25493503
Y 1.72040000 4.86602500 3.74296589
Y 1.72040000 7.29903750 -3.64960331 0 0 0
Y 1.72040000 4.86602500 -1.216443439999999 0 0 0
Y 1.72040000 7.29903750 1.25493503
Y 1.72040000 0.00000000 3.74296589
Y 5.16120000 2.43301250 -3.64960331 0 0 0
Y 5.16120000 0.00000000 -1.216443439999999 0 0 0
Y 5.16120000 2.43301250 1.25493503
Y 5.16120000 4.86602500 3.74296589
Y 5.16120000 7.29903750 -3.64960331 0 0 0
Y 5.16120000 4.86602500 -1.216443439999999 0 0 0
Y 5.16120000 7.29903750 1.25493503
Y 5.16120000 0.00000000 3.74296589
Rh 0.00000000 0.00000000 -3.64960331 0 0 0
Rh 0.00000000 2.43301250 -1.216443439999999 0 0 0
Rh 0.00000000 0.00000000 1.32017964
Rh 0.00000000 2.43301250 3.50792150
Rh 0.00000000 4.86602500 -3.64960331 0 0 0
Rh 0.00000000 7.29903750 -1.216443439999999 0 0 0
Rh 0.00000000 4.86602500 1.32017964
Rh 0.00000000 7.29903750 3.50792150
Rh 3.44080000 0.00000000 -3.64960331 0 0 0
Rh 3.44080000 2.43301250 -1.216443439999999 0 0 0
Rh 3.44080000 0.00000000 1.32017964
Rh 3.44080000 2.43301250 3.50792150
Rh 3.44080000 4.86602500 -3.64960331 0 0 0
Rh 3.44080000 7.29903750 -1.216443439999999 0 0 0
Rh 3.44080000 4.86602500 1.32017964
Rh 3.44080000 7.29903750 3.50792150
