&CONTROL
calculation = 'relax'
prefix = 'scf'
pseudo_dir = '/vol0004/mdt0/data/hp150275/u10028/POT_HYBRID_KKJUS_GBRV'
outdir = './data'
tprnfor = .true.
nstep = 50
disk_io = 'non'
/
&SYSTEM
ibrav = 0
ecutwfc = 50.0
ecutrho = 400
occupations = 'smearing'
smearing = 'mp'
degauss = 0.01
assume_isolated = 'esm'
esm_bc = 'bc1'
input_dft = 'BEEF-VDW'
nosym = .true.
nspin = 2
ntyp = 5
nat = 34
starting_magnetization(1) = 0.0
starting_magnetization(2) = 0.1
starting_magnetization(3) = 0.1
starting_magnetization(4) = 0.0
starting_magnetization(5) = 0.0
/
&ELECTRONS
electron_maxstep = 300
mixing_beta = 0.1
conv_thr = 1e-06
/
&IONS
ion_dynamics = 'bfgs'
upscale = 1.0
/
&CELL
/

K_POINTS {automatic}
9 6 2 0  0  0

ATOMIC_SPECIES
C 12.01 C.pbe-n-rrkjus_psl.1.0.0.UPF
Fe 55.84 fe_pbe_v1.5.uspp.F.UPF
Mn 54.93 mn_pbe_v1.5.uspp.F.UPF
O 15.99 O.pbe-n-rrkjus_psl.1.0.0.UPF
Si 28.08 Si.pbe-nl-rrkjus_psl.1.0.0.UPF

CELL_PARAMETERS {angstrom}
5.59397000 0.00000000 0.00000000
0.00000000 7.91107000 0.00000000
0.00000000 0.00000000 25.93330000

ATOMIC_POSITIONS {angstrom}
Mn 0.00000000 0.00000000 -2.9667695199999997 0 0 0
Mn 2.79698500 1.97776750 -0.9888367299999992 0 0 0
Mn 2.79698500 5.93330250 -0.9888367299999992 0 0 0
Mn 0.00000000 3.95553500 -2.9667695199999997 0 0 0
Mn 0.00000000 3.95814565 1.02903334
Mn 2.79698500 5.93330250 3.03445543
Mn 2.79704094 1.97776750 2.96443552
Mn 0.00000000 7.90845935 1.02903334
Fe 1.39849250 0.00000000 -0.9888367299999992 0 0 0
Fe 4.19547750 3.95553500 -0.9888367299999992 0 0 0
Fe 4.19547750 0.00000000 -0.9888367299999992 0 0 0
Fe 1.39849250 3.95553500 -0.9888367299999992 0 0 0
Fe 4.19547750 5.93330250 -2.9667695199999997 0 0 0
Fe 1.39849250 1.97776750 -2.9667695199999997 0 0 0
Fe 1.39849250 5.93330250 -2.9667695199999997 0 0 0
Fe 4.19547750 1.97776750 -2.9667695199999997 0 0 0
Fe 1.34456663 3.92104273 3.09099003
Fe 4.24940337 0.03449227 3.09099003
Fe 4.24940337 3.92104273 3.09099003
Fe 1.34456663 0.03449227 3.09099003
Fe 4.18065348 1.97784661 0.93437680
Fe 1.40665970 5.93322339 0.95616077
Fe 1.41337246 1.97784661 0.93437680
Fe 4.18731030 5.93322339 0.95616077
Si 0.00000000 5.93330250 -0.9888367299999992 0 0 0
Si 2.79698500 0.00000000 -2.9667695199999997 0 0 0
Si 0.00000000 1.97776750 -0.9888367299999992 0 0 0
Si 2.79698500 3.95553500 -2.9667695199999997 0 0 0
Si 5.59391406 1.97776750 2.85836833
Si 2.79698500 3.95775010 1.04044400
Si 0.00005594 5.93330250 2.91127226
Si 2.79698500 7.90885490 1.04044400
C 2.79698500 1.97776750 4.78702785
O 2.79698500 1.97776750 5.95350768
