&CONTROL
calculation = 'relax'
prefix = 'scf'
pseudo_dir = '/vol0403/data/hp230205/u10028/POT_HYBRID_KKJUS_GBRV'
outdir = './data'
tprnfor = .true.
nstep = 50
disk_io = 'non'
/
&SYSTEM
ibrav = 0
ecutwfc = 50.0
ecutrho = 400
occupations = 'smearing'
smearing = 'mp'
degauss = 0.01
assume_isolated = 'esm'
esm_bc = 'bc1'
input_dft = 'BEEF-VDW'
nosym = .true.
nspin = 1
ntyp = 5
nat = 33
/
&ELECTRONS
electron_maxstep = 200
mixing_beta = 0.1
conv_thr = 1e-06
/
&IONS
ion_dynamics = 'bfgs'
upscale = 1.0
/
&CELL
/

K_POINTS {automatic}
7 7 2 0  0  0

ATOMIC_SPECIES
C 12.01 C.pbe-n-rrkjus_psl.1.0.0.UPF
Ge 72.64 Ge.pbe-dn-rrkjus_psl.1.0.0.UPF
In 114.8 In.pbe-dn-rrkjus_psl.1.0.0.UPF
Li 6.941 Li.pbe-sl-rrkjus_psl.1.0.0.UPF
Mg 24.30 Mg.pbe-spnl-rrkjus_psl.1.0.0.UPF


CELL_PARAMETERS {angstrom}
8.75068000 0.00000000 0.00000000
0.00000000 8.41850000 0.00000000
0.00000000 0.00000000 26.30740000

ATOMIC_POSITIONS {angstrom}
Li 2.18968266 0.00016837 0.96232469
Li 2.18767000 0.00000000 -3.1537311100000025 0 0 0
Li 2.18565734 4.20908163 1.11201380
Li 2.18767000 4.20925000 -3.1537311100000025 0 0 0
Li 6.55977225 8.41841582 1.05518981
Li 6.56301000 0.00000000 -3.1537311100000025 0 0 0
Li 6.56274748 4.20941837 1.09964932
Li 6.56301000 4.20925000 -3.1537311100000025 0 0 0
Mg 0.01680131 2.14132966 1.08544332
Mg 0.00000000 2.10462500 -3.1537311100000025 0 0 0
Mg 0.01706383 6.27750708 1.08570640
Mg 0.00000000 6.31387500 -3.1537311100000025 0 0 0
Mg 4.35906374 2.14579147 1.08649562
Mg 4.37534000 2.10462500 -3.1537311100000025 0 0 0
Mg 4.35871371 6.27245598 1.08649562
Mg 4.37534000 6.31387500 -3.1537311100000025 0 0 0
In 2.18784501 2.45786526 3.95110841
In 2.18767000 2.10462500 -1.0512437000000006 0 0 0
In 2.18784501 5.96012963 3.95005611
In 2.18767000 6.31387500 -1.0512437000000006 0 0 0
In 6.55994726 2.30414345 3.77327038
In 6.56301000 2.10462500 -1.0512437000000006 0 0 0
In 6.55959723 6.11477748 3.77300731
In 6.56301000 6.31387500 -1.0512437000000006 0 0 0
Ge 0.27223365 0.00050511 2.97115776
Ge 0.00000000 0.00000000 -1.0512437000000006 0 0 0
Ge 8.73947913 4.20958674 2.94221962
Ge 0.00000000 4.20925000 -1.0512437000000006 0 0 0
Ge 4.11754497 0.00008419 2.96589628
Ge 4.37534000 0.00000000 -1.0512437000000006 0 0 0
Ge 4.38304060 4.20958674 2.94064117
Ge 4.37534000 4.20925000 -1.0512437000000006 0 0 0
C 2.19449553 8.41673212 3.11321772
