&CONTROL
calculation = 'relax'
prefix = 'scf'
pseudo_dir = '/vol0004/mdt0/data/hp150275/u10028/POT_KKJUS'
outdir = './data'
tprnfor = .true.
nstep = 50
disk_io = 'non'
/
&SYSTEM
ibrav = 0
ecutwfc = 50.0
ecutrho = 400
occupations = 'smearing'
smearing = 'mp'
degauss = 0.01
assume_isolated = 'esm'
esm_bc = 'bc1'
input_dft = 'BEEF-VDW'
nosym = .true.
nspin = 1
ntyp = 3
nat = 17
/
&ELECTRONS
electron_maxstep = 200
mixing_beta = 0.1
conv_thr = 1e-06
/
&IONS
ion_dynamics = 'bfgs'
upscale = 1.0
/
&CELL
/

K_POINTS {automatic}
8 11 2 0  0  0

ATOMIC_SPECIES
Ag 107.8 Ag.pbe-n-rrkjus_psl.1.0.0.UPF
C 12.01 C.pbe-n-rrkjus_psl.1.0.0.UPF
In 114.8 In.pbe-dn-rrkjus_psl.1.0.0.UPF

CELL_PARAMETERS {angstrom}
8.59601000 0.00000000 0.00000000
0.00000000 6.07830000 0.00000000
0.00000000 0.00000000 24.55870000

ATOMIC_POSITIONS {angstrom}
In 0.00000000 0.00000000 -2.279292950000002 0 0 0
In 0.00000000 3.03915000 0.48454315
In 4.29800500 0.00000000 -2.279292950000002 0 0 0
In 4.29800500 3.03915000 1.23481144
Ag 0.00000000 3.03915000 -2.279292950000002 0 0 0
Ag 2.14900250 4.55872500 -0.7598461800000003 0 0 0
Ag 2.14900250 1.51957500 -0.7598461800000003 0 0 0
Ag 0.00000000 0.00000000 0.72669193
Ag 1.80670938 1.50899876 2.45095826
Ag 1.80670938 4.56936203 2.45095826
Ag 4.29800500 3.03915000 -2.279292950000002 0 0 0
Ag 6.44700750 4.55872500 -0.7598461800000003 0 0 0
Ag 6.44700750 1.51957500 -0.7598461800000003 0 0 0
Ag 4.29800500 0.00000000 1.48997633
Ag 6.78930062 1.50899876 2.45095826
Ag 6.78930062 4.56930124 2.45095826
C 0.00000000 3.03915000 2.69728202
