&CONTROL
calculation = 'relax'
prefix = 'scf'
pseudo_dir = '/vol0004/mdt0/data/hp150275/u10028/POT_KKJUS'
outdir = './data'
tprnfor = .true.
nstep = 50
disk_io = 'non'
/
&SYSTEM
ibrav = 0
ecutwfc = 50.0
ecutrho = 400
occupations = 'smearing'
smearing = 'mp'
degauss = 0.01
assume_isolated = 'esm'
esm_bc = 'bc1'
input_dft = 'BEEF-VDW'
nosym = .true.
nspin = 1
ntyp = 4
nat = 33
/
&ELECTRONS
electron_maxstep = 200
mixing_beta = 0.1
conv_thr = 1e-06
/
&IONS
ion_dynamics = 'bfgs'
upscale = 1.0
/
&CELL
/

K_POINTS {automatic}
9 6 2 0  0  0

ATOMIC_SPECIES
C 12.01 C.pbe-n-rrkjus_psl.1.0.0.UPF
Ge 72.64 Ge.pbe-dn-rrkjus_psl.1.0.0.UPF
Li 6.941 Li.pbe-sl-rrkjus_psl.1.0.0.UPF
Pd 106.4 Pd.pbe-n-rrkjus_psl.1.0.0.UPF

CELL_PARAMETERS {angstrom}
6.09904000 0.00000000 0.00000000
0.00000000 8.62534000 0.00000000
0.00000000 0.00000000 26.46900000

ATOMIC_POSITIONS {angstrom}
Li 1.52476000 0.00000000 -1.0780823700000006 0 0 0
Li 4.57428000 4.31267000 -1.0780823700000006 0 0 0
Li 4.57428000 0.00000000 -1.0780823700000006 0 0 0
Li 1.52476000 4.31267000 -1.0780823700000006 0 0 0
Li 4.57428000 6.46900500 -3.2345118 0 0 0
Li 1.52476000 2.15633500 -3.2345118 0 0 0
Li 1.52476000 6.46900500 -3.2345118 0 0 0
Li 4.57428000 2.15633500 -3.2345118 0 0 0
Li 1.50359633 4.22978048 3.57252093
Li 4.64478490 8.37822401 3.50661312
Li 4.64478490 4.55978599 3.50661312
Li 1.50359633 0.08288952 3.57252093
Li 4.62209647 2.15633500 1.01138049
Li 1.57367430 6.46900500 0.84515517
Li 1.45602382 2.15633500 1.28215836
Li 4.53921052 6.46900500 1.02832065
Ge 0.00000000 0.00000000 -3.2345118 0 0 0
Ge 3.04952000 2.15633500 -1.0780823700000006 0 0 0
Ge 3.04952000 6.46900500 -1.0780823700000006 0 0 0
Ge 0.00000000 4.31267000 -3.2345118 0 0 0
Ge 6.08964748 4.41160265 1.03096755
Ge 2.86911040 6.46900500 3.03758244
Ge 3.30317907 2.15633500 3.24271719
Ge 6.08964748 8.52640735 1.03096755
Pd 0.00000000 6.46900500 -1.0780823700000006 0 0 0
Pd 3.04952000 0.00000000 -3.2345118 0 0 0
Pd 0.00000000 2.15633500 -1.0780823700000006 0 0 0
Pd 3.04952000 4.31267000 -3.2345118 0 0 0
Pd 5.71955773 2.15633500 3.36579804
Pd 3.06653632 4.37598000 1.20381012
Pd 0.26774786 6.46900500 2.86447518
Pd 3.06653632 8.56203000 1.20381012
C 1.55757284 2.15633500 3.67972038
