&CONTROL
calculation = 'relax'
prefix = 'scf'
pseudo_dir = '/vol0004/mdt0/data/hp150275/u10028/POT_KKJUS'
outdir = './data'
tprnfor = .true.
nstep = 50
disk_io = 'non'
/
&SYSTEM
ibrav = 0
ecutwfc = 50.0
ecutrho = 400
occupations = 'smearing'
smearing = 'mp'
degauss = 0.01
assume_isolated = 'esm'
esm_bc = 'bc1'
input_dft = 'BEEF-VDW'
nosym = .true.
nspin = 1
ntyp = 5
nat = 34
/
&ELECTRONS
electron_maxstep = 200
mixing_beta = 0.1
conv_thr = 1e-06
/
&IONS
ion_dynamics = 'bfgs'
upscale = 1.0
/
&CELL
/

K_POINTS {automatic}
8 6 1 0 0 0

ATOMIC_SPECIES
C 12.01 C.pbe-n-rrkjus_psl.1.0.0.UPF
O 15.99 O.pbe-n-rrkjus_psl.1.0.0.UPF
Pd 106.4 Pd.pbe-n-rrkjus_psl.1.0.0.UPF
Sn 118.7 Sn.pbe-dn-rrkjus_psl.1.0.0.UPF
Y 88.90 Y.pbe-spn-rrkjus_psl.1.0.0.UPF

CELL_PARAMETERS {angstrom}
6.84524000 0.00000000 0.00000000
0.00000000 9.68063000 0.00000000
0.00000000 0.00000000 27.26050000

ATOMIC_POSITIONS {angstrom}
Y 0.00000000 0.00000000 -3.6302807799999997 0 0 0
Y 3.42262000 2.42015750 -1.2100935899999996 0 0 0
Y 3.42262000 7.26047250 -1.2100935899999996 0 0 0
Y 0.00000000 4.84031500 -3.6302807799999997 0 0 0
Y 0.00000000 4.84457448 1.19182906
Y 3.42262000 7.26047250 3.75049959
Y 3.42262000 2.42015750 3.72160346
Y 0.00000000 9.67627372 1.19182906
Sn 0.00000000 7.26047250 -1.2100935899999996 0 0 0
Sn 3.42262000 0.00000000 -3.6302807799999997 0 0 0
Sn 0.00000000 2.42015750 -1.2100935899999996 0 0 0
Sn 3.42262000 4.84031500 -3.6302807799999997 0 0 0
Sn 0.00000000 2.42015750 3.63137120
Sn 3.42262000 4.84302558 1.28560518
Sn 0.00000000 7.26047250 3.67744145
Sn 3.42262000 9.67791942 1.28560518
Pd 1.71131000 0.00000000 -1.2100935899999996 0 0 0
Pd 5.13393000 4.84031500 -1.2100935899999996 0 0 0
Pd 5.13393000 0.00000000 -1.2100935899999996 0 0 0
Pd 1.71131000 4.84031500 -1.2100935899999996 0 0 0
Pd 5.13393000 7.26047250 -3.6302807799999997 0 0 0
Pd 1.71131000 2.42015750 -3.6302807799999997 0 0 0
Pd 1.71131000 7.26047250 -3.6302807799999997 0 0 0
Pd 5.13393000 2.42015750 -3.6302807799999997 0 0 0
Pd 1.62793498 4.84205751 3.52669089
Pd 5.21730502 9.67888749 3.52669089
Pd 5.21730502 4.84205751 3.52669089
Pd 1.62793498 9.67888749 3.52669089
Pd 5.03748057 2.42015750 1.30550535
Pd 1.81344098 7.26047250 1.33876316
Pd 1.80775943 2.42015750 1.30550535
Pd 5.03179902 7.26047250 1.33876316
C 6.84503464 2.42064153 7.79895645
O 0.00006845 2.42015750 8.93462887
