&CONTROL
calculation = 'relax'
prefix = 'scf'
pseudo_dir = '/vol0004/mdt0/data/hp150275/u10028/POT_KKJUS'
outdir = './data'
tprnfor = .true.
nstep = 50
disk_io = 'non'
/
&SYSTEM
ibrav = 0
ecutwfc = 50.0
ecutrho = 400
occupations = 'smearing'
smearing = 'mp'
degauss = 0.01
assume_isolated = 'esm'
esm_bc = 'bc1'
input_dft = 'BEEF-VDW'
nosym = .true.
nspin = 1
ntyp = 5
nat = 34
/
&ELECTRONS
electron_maxstep = 200
mixing_beta = 0.1
conv_thr = 1e-06
/
&IONS
ion_dynamics = 'bfgs'
upscale = 1.0
/
&CELL
/

K_POINTS {automatic}
8 6 1 0 0 0

ATOMIC_SPECIES
Au 196.9 Au.pbe-n-rrkjus_psl.1.0.0.UPF
C 12.01 C.pbe-n-rrkjus_psl.1.0.0.UPF
Hf 178.4 Hf.pbe-spn-rrkjus_psl.1.0.0.UPF
In 114.8 In.pbe-dn-rrkjus_psl.1.0.0.UPF
O 15.99 O.pbe-n-rrkjus_psl.1.0.0.UPF

CELL_PARAMETERS {angstrom}
6.82626000 0.00000000 0.00000000
0.00000000 9.65379000 0.00000000
0.00000000 0.00000000 27.24030000

ATOMIC_POSITIONS {angstrom}
Hf 0.00000000 0.00000000 -3.620235870000002 0 0 0
Hf 3.41313000 2.41344750 -1.2067452900000006 0 0 0
Hf 3.41313000 7.24034250 -1.2067452900000006 0 0 0
Hf 0.00000000 4.82689500 -3.620235870000002 0 0 0
Hf 0.00000000 4.82380579 1.30998603
Hf 3.41313000 7.24034250 3.41293719
Hf 3.41313000 2.41344750 3.51181948
Hf 0.00000000 0.00308921 1.30998603
In 0.00000000 7.24034250 -1.2067452900000006 0 0 0
In 3.41313000 0.00000000 -3.620235870000002 0 0 0
In 0.00000000 2.41344750 -1.2067452900000006 0 0 0
In 3.41313000 4.82689500 -3.620235870000002 0 0 0
In 0.00000000 2.41344750 3.99724162
In 3.41313000 4.81299354 1.14164097
In 0.00000000 7.24034250 4.00323449
In 3.41313000 0.01390146 1.14164097
Au 1.70656500 0.00000000 -1.2067452900000006 0 0 0
Au 5.11969500 4.82689500 -1.2067452900000006 0 0 0
Au 5.11969500 0.00000000 -1.2067452900000006 0 0 0
Au 1.70656500 4.82689500 -1.2067452900000006 0 0 0
Au 5.11969500 7.24034250 -3.620235870000002 0 0 0
Au 1.70656500 2.41344750 -3.620235870000002 0 0 0
Au 1.70656500 7.24034250 -3.620235870000002 0 0 0
Au 5.11969500 2.41344750 -3.620235870000002 0 0 0
Au 1.82165574 4.84320991 3.66300314
Au 5.00460426 9.63747509 3.66300314
Au 5.00460426 4.84320991 3.66300314
Au 1.82165574 9.63747509 3.66300314
Au 5.20884596 2.41344750 1.24188528
Au 1.62028107 7.24034250 1.23861644
Au 1.61741404 2.41344750 1.24188528
Au 5.20597893 7.24034250 1.23861644
C 3.41313000 2.41344750 5.71937339
O 3.41313000 2.41344750 6.87300009
