&CONTROL
calculation = 'relax'
prefix = 'scf'
pseudo_dir = '/vol0004/mdt0/data/hp150275/u10028/POT_KKJUS'
outdir = './data'
tprnfor = .true.
nstep = 50
disk_io = 'non'
/
&SYSTEM
ibrav = 0
ecutwfc = 50.0
ecutrho = 400
occupations = 'smearing'
smearing = 'mp'
degauss = 0.01
assume_isolated = 'esm'
esm_bc = 'bc1'
input_dft = 'BEEF-VDW'
nosym = .true.
nspin = 1
ntyp = 3
nat = 17
/
&ELECTRONS
electron_maxstep = 200
mixing_beta = 0.1
conv_thr = 1e-06
/
&IONS
ion_dynamics = 'bfgs'
upscale = 1.0
/
&CELL
/

K_POINTS {automatic}
8 11 2 0  0  0

ATOMIC_SPECIES
Ag 107.8 Ag.pbe-n-rrkjus_psl.1.0.0.UPF
C 12.01 C.pbe-n-rrkjus_psl.1.0.0.UPF
Mg 24.30 Mg.pbe-spnl-rrkjus_psl.1.0.0.UPF

CELL_PARAMETERS {angstrom}
8.43103000 0.00000000 0.00000000
0.00000000 5.96164000 0.00000000
0.00000000 0.00000000 24.47120000

ATOMIC_POSITIONS {angstrom}
Mg 0.35148964 0.05228358 2.37909006
Mg 0.00000000 2.98082000 -0.7451480400000001 0 0 0
Mg 3.86402536 0.05228358 2.37909006
Mg 4.21551500 2.98082000 -0.7451480400000001 0 0 0
Ag 0.34752706 2.97008905 2.29515385
Ag 2.10775750 4.50902680 0.64139015
Ag 2.10775750 1.51598544 0.45345134
Ag 0.00000000 0.00000000 -0.7451480400000001 0 0 0
Ag 2.10775750 1.49041000 -2.235688830000001 0 0 0
Ag 2.10775750 4.47123000 -2.235688830000001 0 0 0
Ag 3.86798794 2.97014866 2.29539856
Ag 6.32327250 4.46306255 1.31777412
Ag 6.32318819 1.47717516 1.05324045
Ag 4.21551500 0.00000000 -0.7451480400000001 0 0 0
Ag 6.32327250 1.49041000 -2.235688830000001 0 0 0
Ag 6.32327250 4.47123000 -2.235688830000001 0 0 0
C 2.10775750 1.41720106 2.66197714
