&CONTROL
calculation = 'relax'
prefix = 'scf'
pseudo_dir = '/vol0004/mdt0/data/hp150275/u10028/POT_KKJUS'
outdir = './data'
tprnfor = .true.
nstep = 50
disk_io = 'non'
/
&SYSTEM
ibrav = 0
ecutwfc = 50.0
ecutrho = 400
occupations = 'smearing'
smearing = 'mp'
degauss = 0.01
assume_isolated = 'esm'
esm_bc = 'bc1'
input_dft = 'BEEF-VDW'
nosym = .true.
nspin = 1
ntyp = 4
nat = 33
/
&ELECTRONS
electron_maxstep = 200
mixing_beta = 0.1
conv_thr = 1e-06
/
&IONS
ion_dynamics = 'bfgs'
upscale = 1.0
/
&CELL
/

K_POINTS {automatic}
8 6 1 0 0 0

ATOMIC_SPECIES
C 12.01 C.pbe-n-rrkjus_psl.1.0.0.UPF
Li 6.941 Li.pbe-sl-rrkjus_psl.1.0.0.UPF
Pb 207.2 Pb.pbe-dn-rrkjus_psl.1.0.0.UPF
Pd 106.4 Pd.pbe-n-rrkjus_psl.1.0.0.UPF

CELL_PARAMETERS {angstrom}
6.57920000 0.00000000 0.00000000
0.00000000 9.30439000 0.00000000
0.00000000 0.00000000 26.97830000

ATOMIC_POSITIONS {angstrom}
Li 0.00000000 0.00000000 -3.489103540000002 0 0 0
Li 3.28960000 2.32609750 -1.1630345099999992 0 0 0
Li 3.28960000 6.97829250 -1.1630345099999992 0 0 0
Li 0.00000000 4.65219500 -3.489103540000002 0 0 0
Li 0.01875072 4.70662568 1.05754936
Li 3.39585408 6.97829250 3.44539869
Li 3.42302618 2.32609750 3.38415795
Li 0.01875072 9.24995932 1.05754936
Pd 1.64480000 0.00000000 -1.1630345099999992 0 0 0
Pd 4.93440000 4.65219500 -1.1630345099999992 0 0 0
Pd 4.93440000 0.00000000 -1.1630345099999992 0 0 0
Pd 1.64480000 4.65219500 -1.1630345099999992 0 0 0
Pd 4.93440000 6.97829250 -3.489103540000002 0 0 0
Pd 1.64480000 2.32609750 -3.489103540000002 0 0 0
Pd 1.64480000 6.97829250 -3.489103540000002 0 0 0
Pd 4.93440000 2.32609750 -3.489103540000002 0 0 0
Pd 1.43077862 4.36757371 3.26518365
Pd 5.13960525 9.27666292 3.20771987
Pd 5.13960525 4.67992208 3.20771987
Pd 1.43077862 0.28462129 3.26518365
Pd 5.12190720 2.32609750 1.35404088
Pd 1.62545715 6.97829250 1.32274605
Pd 1.45854285 2.32609750 1.25961683
Pd 5.02552192 6.97829250 1.24342985
Pb 0.00000000 6.97829250 -1.1630345099999992 0 0 0
Pb 3.28960000 0.00000000 -3.489103540000002 0 0 0
Pb 0.00000000 2.32609750 -1.1630345099999992 0 0 0
Pb 3.28960000 4.65219500 -3.489103540000002 0 0 0
Pb 6.01654682 2.32609750 4.61625691
Pb 3.31012710 4.64000625 1.14199144
Pb 0.11270170 6.97829250 3.78694397
Pb 3.31012710 0.01209571 1.14199144
C 1.37761869 2.32609750 3.30646045
