&CONTROL
calculation = 'relax'
prefix = 'scf'
pseudo_dir = '/vol0403/data/hp230205/u10028/POT_HYBRID_KKJUS_GBRV'
outdir = './data'
tprnfor = .true.
nstep = 50
disk_io = 'non'
/
&SYSTEM
ibrav = 0
ecutwfc = 50.0
ecutrho = 400
occupations = 'smearing'
smearing = 'mp'
degauss = 0.01
assume_isolated = 'esm'
esm_bc = 'bc1'
input_dft = 'BEEF-VDW'
nosym = .true.
nspin = 1
ntyp = 6
nat = 18
/
&ELECTRONS
electron_maxstep = 200
mixing_beta = 0.1
conv_thr = 1e-06
/
&IONS
ion_dynamics = 'bfgs'
upscale = 1.0
/
&CELL
/

K_POINTS {automatic}
8 8 1 0 0 0

ATOMIC_SPECIES
C 12.01 C.pbe-n-rrkjus_psl.1.0.0.UPF
Ge 72.64 Ge.pbe-dn-rrkjus_psl.1.0.0.UPF
In 114.8 In.pbe-dn-rrkjus_psl.1.0.0.UPF
Li 6.941 Li.pbe-sl-rrkjus_psl.1.0.0.UPF
O 15.99 O.pbe-n-rrkjus_psl.1.0.0.UPF
Pd 106.4 Pd.pbe-n-rrkjus_psl.1.0.0.UPF


CELL_PARAMETERS {angstrom}
6.51863000 0.00000000 0.00000000
0.00000000 6.51863000 0.00000000
0.00000000 0.00000000 24.88900000

ATOMIC_POSITIONS {angstrom}
Li 4.88897250 1.62965750 -0.8148658599999976 0 0 0
Li 4.88897250 4.88897250 2.61035832
Li 1.62965750 1.62965750 2.62479394
Li 1.62965750 4.88897250 -0.8148658599999976 0 0 0
In 0.00000000 3.25931500 -2.44459758 0 0 0
In 0.00482379 0.00469341 0.71406541
In 3.25449121 3.25462159 0.71406541
In 3.25931500 0.00000000 -2.44459758 0 0 0
Ge 0.00000000 0.00000000 -2.44459758 0 0 0
Ge 6.50083414 3.27691530 0.95250203
Ge 3.27704567 6.50102970 0.95250203
Ge 3.25931500 3.25931500 -2.44459758 0 0 0
Pd 1.62965750 1.62965750 -0.8148658599999976 0 0 0
Pd 1.62965750 4.88897250 2.11232943
Pd 4.88897250 1.62965750 2.11208054
Pd 4.88897250 4.88897250 -0.8148658599999976 0 0 0
C 1.62965750 1.62972269 4.73637670
O 1.62965750 1.62972269 5.87554623
