&CONTROL
calculation = 'relax'
prefix = 'scf'
pseudo_dir = '/vol0004/mdt0/data/hp150275/u10028/POT_KKJUS'
outdir = './data'
tprnfor = .true.
nstep = 50
disk_io = 'non'
/
&SYSTEM
ibrav = 0
ecutwfc = 50.0
ecutrho = 400
occupations = 'smearing'
smearing = 'mp'
degauss = 0.01
assume_isolated = 'esm'
esm_bc = 'bc1'
input_dft = 'BEEF-VDW'
nosym = .true.
nspin = 1
ntyp = 4
nat = 18
/
&ELECTRONS
electron_maxstep = 200
mixing_beta = 0.1
conv_thr = 1e-06
/
&IONS
ion_dynamics = 'bfgs'
upscale = 1.0
/
&CELL
/

K_POINTS {automatic}
8 11 2 0  0  0

ATOMIC_SPECIES
C 12.01 C.pbe-n-rrkjus_psl.1.0.0.UPF
O 15.99 O.pbe-n-rrkjus_psl.1.0.0.UPF
Pd 106.4 Pd.pbe-n-rrkjus_psl.1.0.0.UPF
Sc 44.95 Sc.pbe-spn-rrkjus_psl.1.0.0.UPF

CELL_PARAMETERS {angstrom}
8.08515000 0.00000000 0.00000000
0.00000000 5.71706000 0.00000000
0.00000000 0.00000000 24.28780000

ATOMIC_POSITIONS {angstrom}
Sc 0.00000000 0.00000000 1.92966571
Sc 0.00000000 2.85853000 -0.7145470799999991 0 0 0
Sc 4.04257500 0.00000000 1.82182788
Sc 4.04257500 2.85853000 -0.7145470799999991 0 0 0
Pd 8.08506915 2.85853000 2.32215656
Pd 1.97310001 4.29454113 0.75170741
Pd 1.97310001 1.42251887 0.75170741
Pd 0.00000000 0.00000000 -0.7145470799999991 0 0 0
Pd 2.02128750 1.42926500 -2.143884110000002 0 0 0
Pd 2.02128750 4.28779500 -2.143884110000002 0 0 0
Pd 4.04257500 2.85853000 1.99329975
Pd 6.11204999 4.29454113 0.75170741
Pd 6.11204999 1.42251887 0.75170741
Pd 4.04257500 0.00000000 -0.7145470799999991 0 0 0
Pd 6.06386250 1.42926500 -2.143884110000002 0 0 0
Pd 6.06386250 4.28779500 -2.143884110000002 0 0 0
C 0.00000000 2.85853000 4.27416704
O 0.00000000 2.85853000 5.42978057
