&CONTROL
calculation = 'relax'
prefix = 'scf'
pseudo_dir = '/vol0004/mdt0/data/hp150275/u10028/POT_KKJUS'
outdir = './data'
tprnfor = .true.
nstep = 50
disk_io = 'non'
/
&SYSTEM
ibrav = 0
ecutwfc = 50.0
ecutrho = 400
occupations = 'smearing'
smearing = 'mp'
degauss = 0.01
assume_isolated = 'esm'
esm_bc = 'bc1'
input_dft = 'BEEF-VDW'
nosym = .true.
nspin = 1
ntyp = 3
nat = 33
/
&ELECTRONS
electron_maxstep = 200
mixing_beta = 0.1
conv_thr = 1e-06
/
&IONS
ion_dynamics = 'bfgs'
upscale = 1.0
/
&CELL
/

K_POINTS {automatic}
7 7 2 0  0  0

ATOMIC_SPECIES
C 12.01 C.pbe-n-rrkjus_psl.1.0.0.UPF
Pt 195.0 Pt.pbe-n-rrkjus_psl.1.0.0.UPF
V 50.94 V.pbe-spnl-rrkjus_psl.1.0.0.UPF

CELL_PARAMETERS {angstrom}
7.87849000 0.00000000 0.00000000
-0.00000000 7.87849000 0.00000000
0.00000000 0.00000000 25.90890000

ATOMIC_POSITIONS {angstrom}
V 0.00000000 0.00000000 -2.9543918699999985 0 0 0
V 0.00000000 0.00000000 0.98479729
V 0.00000000 3.93924500 -2.9543918699999985 0 0 0
V 0.00000000 3.93924500 0.98479729
V 3.93924500 0.00000000 -2.9543918699999985 0 0 0
V 3.93924500 -0.00000000 0.98479729
V 3.93924500 3.93924500 -2.9543918699999985 0 0 0
V 3.93924500 3.93924500 0.98479729
Pt 0.00000000 1.96962250 -0.9847972899999995 0 0 0
Pt 1.96962250 0.00000000 -0.9847972899999995 0 0 0
Pt 1.96962250 1.96962250 -2.9543918699999985 0 0 0
Pt 0.00000000 1.96962250 2.95439187
Pt 1.96962250 -0.00000000 2.95439187
Pt 1.96962250 1.96962250 0.98479729
Pt 0.00000000 5.90886750 -0.9847972899999995 0 0 0
Pt 1.96962250 3.93924500 -0.9847972899999995 0 0 0
Pt 1.96962250 5.90886750 -2.9543918699999985 0 0 0
Pt 0.00000000 5.90886750 2.95439187
Pt 1.96962250 3.93924500 2.95439187
Pt 1.96962250 5.90886750 0.98479729
Pt 3.93924500 1.96962250 -0.9847972899999995 0 0 0
Pt 5.90886750 0.00000000 -0.9847972899999995 0 0 0
Pt 5.90886750 1.96962250 -2.9543918699999985 0 0 0
Pt 3.93924500 1.96962250 2.95439187
Pt 5.90886750 -0.00000000 2.95439187
Pt 5.90886750 1.96962250 0.98479729
Pt 3.93924500 5.90886750 -0.9847972899999995 0 0 0
Pt 5.90886750 3.93924500 -0.9847972899999995 0 0 0
Pt 5.90886750 5.90886750 -2.9543918699999985 0 0 0
Pt 3.93924500 5.90886750 2.95439187
Pt 5.90886750 3.93924500 2.95439187
Pt 5.90886750 5.90886750 0.98479729
C 1.96962250 1.96962250 3.75445870
