&CONTROL
calculation = 'relax'
prefix = 'scf'
pseudo_dir = '/vol0403/data/hp230205/u10028/POT_HYBRID_KKJUS_GBRV'
outdir = './data'
tprnfor = .true.
nstep = 70
disk_io = 'non'
/
&SYSTEM
ibrav = 0
ecutwfc = 50.0
ecutrho = 400
occupations = 'smearing'
smearing = 'mp'
degauss = 0.01
assume_isolated = 'esm'
esm_bc = 'bc1'
input_dft = 'BEEF-VDW'
nosym = .true.
nspin = 1
ntyp = 5
nat = 33
/
&ELECTRONS
electron_maxstep = 200
mixing_beta = 0.1
conv_thr = 1e-06
/
&IONS
ion_dynamics = 'bfgs'
upscale = 1.0
/
&CELL
/

K_POINTS {automatic}
9 6 2 0  0  0

ATOMIC_SPECIES
C 12.01 C.pbe-n-rrkjus_psl.1.0.0.UPF
Cu 63.54 Cu.pbe-dn-rrkjus_psl.1.0.0.UPF
Pd 106.4 Pd.pbe-n-rrkjus_psl.1.0.0.UPF
Sn 118.7 Sn.pbe-dn-rrkjus_psl.1.0.0.UPF
Y 88.90 Y.pbe-spn-rrkjus_psl.1.0.0.UPF


CELL_PARAMETERS {angstrom}
6.76496000 0.00000000 0.00000000
-0.00000000 9.56710000 0.00000000
0.00000000 0.00000000 27.17530000

ATOMIC_POSITIONS {angstrom}
Y 1.69124000 0.00000000 -1.1959849499999997 0 0 0
Y 1.69124000 4.78355000 -1.1959849499999997 0 0 0
Y 5.07372000 2.39177500 -3.5876831100000004 0 0 0
Y 5.07372000 7.17532500 -3.5876831100000004 0 0 0
Y 1.91867796 4.73667121 3.70970020
Y 1.91867796 0.04687879 3.70970020
Y 5.05897239 7.17532500 1.21881221
Y 5.11586570 2.39177500 1.24191121
Cu 0.00000000 0.00000000 -3.5876831100000004 0 0 0
Cu 0.00000000 4.78355000 -3.5876831100000004 0 0 0
Cu 3.38248000 7.17532500 -1.1959849499999997 0 0 0
Cu 3.38248000 2.39177500 -1.1959849499999997 0 0 0
Cu 0.13590805 4.84104827 1.33974229
Cu 0.13590805 9.50960173 1.33974229
Cu 3.93483898 2.39177500 3.90400360
Cu 4.02677479 7.17532500 4.01107428
Sn 5.07372000 0.00000000 -1.1959849499999997 0 0 0
Sn 5.07372000 4.78355000 -1.1959849499999997 0 0 0
Sn 1.69124000 2.39177500 -3.5876831100000004 0 0 0
Sn 1.69124000 7.17532500 -3.5876831100000004 0 0 0
Sn 5.23046412 4.79723095 3.61920645
Sn 5.23046412 9.55341905 3.61920645
Sn 1.73933887 7.17532500 1.17288595
Sn 1.72655309 2.39177500 1.28702221
Pd 0.00000000 2.39177500 -1.1959849499999997 0 0 0
Pd 0.00000000 7.17532500 -1.1959849499999997 0 0 0
Pd 3.38248000 4.78355000 -3.5876831100000004 0 0 0
Pd 3.38248000 0.00000000 -3.5876831100000004 0 0 0
Pd 0.08124717 7.17532500 3.41430469
Pd 6.62079870 2.39177500 3.71296124
Pd 3.37490324 0.00382684 1.15875479
Pd 3.37490324 4.77972316 1.15875479
C 2.00445765 2.39177500 3.70806968
