&CONTROL
calculation = 'relax'
prefix = 'scf'
pseudo_dir = '/vol0004/mdt0/data/hp150275/u10028/POT_KKJUS'
outdir = './data'
tprnfor = .true.
nstep = 50
disk_io = 'non'
/
&SYSTEM
ibrav = 0
ecutwfc = 50.0
ecutrho = 400
occupations = 'smearing'
smearing = 'mp'
degauss = 0.01
assume_isolated = 'esm'
esm_bc = 'bc1'
input_dft = 'BEEF-VDW'
nosym = .true.
nspin = 1
ntyp = 4
nat = 17
/
&ELECTRONS
electron_maxstep = 200
mixing_beta = 0.1
conv_thr = 1e-06
/
&IONS
ion_dynamics = 'bfgs'
upscale = 1.0
/
&CELL
/

K_POINTS {automatic}
9 9 2 0  0  0

ATOMIC_SPECIES
Ag 107.8 Ag.pbe-n-rrkjus_psl.1.0.0.UPF
C 12.01 C.pbe-n-rrkjus_psl.1.0.0.UPF
Li 6.941 Li.pbe-sl-rrkjus_psl.1.0.0.UPF
Sn 118.7 Sn.pbe-dn-rrkjus_psl.1.0.0.UPF

CELL_PARAMETERS {angstrom}
6.65960000 0.00000000 0.00000000
0.00000000 6.65960000 0.00000000
0.00000000 0.00000000 24.99470000

ATOMIC_POSITIONS {angstrom}
Li 0.00000000 0.00000000 -0.8325734600000025 0 0 0
Li 3.46012837 0.13325860 2.82015200
Li 6.52634140 3.19947163 2.82015200
Li 3.32980000 3.32980000 -0.8325734600000025 0 0 0
Li 1.66796342 1.66736405 0.92780326
Li 1.66490000 4.99470000 -2.4974704200000026 0 0 0
Li 4.99216935 4.99170318 0.92780326
Li 4.99470000 1.66490000 -2.4974704200000026 0 0 0
Ag 1.66490000 1.66490000 -2.4974704200000026 0 0 0
Ag 1.67109343 4.98850657 0.83357324
Ag 4.99470000 4.99470000 -2.4974704200000026 0 0 0
Ag 4.99176978 1.66783022 0.70010155
Sn 6.51342178 0.14617822 2.99486495
Sn 3.45180387 3.20779613 2.99311533
Sn 3.32980000 0.00000000 -0.8325734600000025 0 0 0
Sn 0.00000000 3.32980000 -0.8325734600000025 0 0 0
C 4.98237974 1.67722026 2.96337163
