&CONTROL
calculation = 'relax'
prefix = 'scf'
pseudo_dir = '/vol0004/mdt0/data/hp150275/u10028/POT_KKJUS'
outdir = './data'
tprnfor = .true.
nstep = 50
disk_io = 'non'
/
&SYSTEM
ibrav = 0
ecutwfc = 50.0
ecutrho = 400
occupations = 'smearing'
smearing = 'mp'
degauss = 0.01
assume_isolated = 'esm'
esm_bc = 'bc1'
input_dft = 'BEEF-VDW'
nosym = .true.
nspin = 1
ntyp = 3
nat = 17
/
&ELECTRONS
electron_maxstep = 200
mixing_beta = 0.1
conv_thr = 1e-06
/
&IONS
ion_dynamics = 'bfgs'
upscale = 1.0
/
&CELL
/

K_POINTS {automatic}
8 11 2 0  0  0

ATOMIC_SPECIES
C 12.01 C.pbe-n-rrkjus_psl.1.0.0.UPF
Ti 47.86 Ti.pbe-spn-rrkjus_psl.1.0.0.UPF
Zn 65.40 Zn.pbe-dnl-rrkjus_psl.1.0.0.UPF

CELL_PARAMETERS {angstrom}
7.87849000 0.00000000 0.00000000
0.00000000 5.57094000 0.00000000
0.00000000 0.00000000 24.17820000

ATOMIC_POSITIONS {angstrom}
Ti 0.33113293 0.07236651 2.05031136
Ti 0.00000000 2.78547000 -0.6963321600000008 0 0 0
Ti 3.60763936 0.07253364 2.05079492
Ti 3.93924500 2.78547000 -0.6963321600000008 0 0 0
Zn 0.29189805 2.78223885 2.15717900
Zn 1.96954372 4.11140943 0.62573182
Zn 1.96962250 1.42571496 0.46446322
Zn 0.00000000 0.00000000 -0.6963321600000008 0 0 0
Zn 1.96962250 1.39273500 -2.0889964799999987 0 0 0
Zn 1.96962250 4.17820500 -2.0889964799999987 0 0 0
Zn 3.64758330 2.78235027 2.15717900
Zn 5.90863115 4.26071062 0.89145023
Zn 5.90870993 1.44716308 0.99227333
Zn 3.93924500 0.00000000 -0.6963321600000008 0 0 0
Zn 5.90886750 1.39273500 -2.0889964799999987 0 0 0
Zn 5.90886750 4.17820500 -2.0889964799999987 0 0 0
C 1.96930736 1.03524778 2.56530702
