&CONTROL
calculation = 'relax'
prefix = 'scf'
pseudo_dir = '/vol0004/mdt0/data/hp150275/u10028/POT_KKJUS'
outdir = './data'
tprnfor = .true.
nstep = 50
disk_io = 'non'
/
&SYSTEM
ibrav = 0
ecutwfc = 50.0
ecutrho = 400
occupations = 'smearing'
smearing = 'mp'
degauss = 0.01
assume_isolated = 'esm'
esm_bc = 'bc1'
input_dft = 'BEEF-VDW'
nosym = .true.
nspin = 1
ntyp = 4
nat = 33
/
&ELECTRONS
electron_maxstep = 200
mixing_beta = 0.1
conv_thr = 1e-06
/
&IONS
ion_dynamics = 'bfgs'
upscale = 1.0
/
&CELL
/

K_POINTS {automatic}
9 6 2 0  0  0

ATOMIC_SPECIES
C 12.01 C.pbe-n-rrkjus_psl.1.0.0.UPF
Cu 63.54 Cu.pbe-dn-rrkjus_psl.1.0.0.UPF
Ni 58.69 Ni.pbe-spn-rrkjus_psl.1.0.0.UPF
Sb 121.7 Sb.pbe-n-rrkjus_psl.1.0.0.UPF

CELL_PARAMETERS {angstrom}
6.01864000 0.00000000 0.00000000
0.00000000 8.51164000 0.00000000
0.00000000 0.00000000 26.38370000

ATOMIC_POSITIONS {angstrom}
Cu 0.00000000 0.00000000 -3.1919000299999993 0 0 0
Cu 3.00932000 2.12791000 -1.0640546200000003 0 0 0
Cu 3.00932000 6.38373000 -1.0640546200000003 0 0 0
Cu 0.00000000 4.25582000 -3.1919000299999993 0 0 0
Cu 0.00000000 4.25539442 1.07803798
Cu 3.00925981 6.51617112 3.34545316
Cu 3.00938019 1.99546888 3.34518932
Cu 0.00000000 0.00025535 1.01999384
Ni 1.50466000 0.00000000 -1.0640546200000003 0 0 0
Ni 4.51398000 4.25582000 -1.0640546200000003 0 0 0
Ni 4.51398000 0.00000000 -1.0640546200000003 0 0 0
Ni 1.50466000 4.25582000 -1.0640546200000003 0 0 0
Ni 4.51398000 6.38373000 -3.1919000299999993 0 0 0
Ni 1.50466000 2.12791000 -3.1919000299999993 0 0 0
Ni 1.50466000 6.38373000 -3.1919000299999993 0 0 0
Ni 4.51398000 2.12791000 -3.1919000299999993 0 0 0
Ni 1.65458432 4.25582000 3.03966608
Ni 4.73396129 0.00000000 3.19796828
Ni 4.36393530 4.25582000 3.03966608
Ni 1.28467871 0.00008512 3.19796828
Ni 4.59174083 2.10509880 1.22684205
Ni 1.42671861 6.40645608 1.22657821
Ni 1.42695936 2.10509880 1.22684205
Ni 4.59192139 6.40645608 1.22657821
Sb 0.00000000 6.38373000 -1.0640546200000003 0 0 0
Sb 3.00932000 0.00000000 -3.1919000299999993 0 0 0
Sb 0.00000000 2.12791000 -1.0640546200000003 0 0 0
Sb 3.00932000 4.25582000 -3.1919000299999993 0 0 0
Sb 6.01857981 2.26750090 3.54702463
Sb 3.00932000 4.25582000 0.97276702
Sb 0.00006019 6.24413910 3.54702463
Sb 3.00932000 8.51155488 1.00469130
C 3.00932000 0.00000000 3.64860187
