&CONTROL
calculation = 'relax'
prefix = 'scf'
pseudo_dir = '/vol0004/mdt0/data/hp150275/u10028/POT_KKJUS'
outdir = './data'
tprnfor = .true.
nstep = 50
disk_io = 'non'
/
&SYSTEM
ibrav = 0
ecutwfc = 50.0
ecutrho = 400
occupations = 'smearing'
smearing = 'mp'
degauss = 0.01
assume_isolated = 'esm'
esm_bc = 'bc1'
input_dft = 'BEEF-VDW'
nosym = .true.
nspin = 1
ntyp = 4
nat = 18
/
&ELECTRONS
electron_maxstep = 200
mixing_beta = 0.1
conv_thr = 1e-06
/
&IONS
ion_dynamics = 'bfgs'
upscale = 1.0
/
&CELL
/

K_POINTS {automatic}
8 8 1 0 0 0

ATOMIC_SPECIES
C 12.01 C.pbe-n-rrkjus_psl.1.0.0.UPF
Ga 69.72 Ga.pbe-dnl-rrkjus_psl.1.0.0.UPF
Ir 192.2 Ir.pbe-n-rrkjus_psl.0.2.3.UPF
O 15.99 O.pbe-n-rrkjus_psl.1.0.0.UPF

CELL_PARAMETERS {angstrom}
6.13393000 0.00000000 0.00000000
-0.00000000 6.13393000 0.00000000
0.00000000 0.00000000 24.60040000

ATOMIC_POSITIONS {angstrom}
Ga 0.00000000 0.00000000 -2.6588112300000013 0 0 0
Ga 0.00000000 0.00000000 0.40812064
Ga 0.00000000 3.06696500 -2.6588112300000013 0 0 0
Ga 0.00000000 3.06696500 0.40812064
Ga 3.06696500 0.00000000 -2.6588112300000013 0 0 0
Ga 3.06696500 -0.00000000 0.40812064
Ga 3.06696500 3.06696500 -2.6588112300000013 0 0 0
Ga 3.06696500 3.06696500 0.40812064
Ir 1.53348250 1.53348250 -1.1252223000000008 0 0 0
Ir 1.53348250 1.53348250 1.94170957
Ir 1.53348250 4.60044750 -1.1252223000000008 0 0 0
Ir 1.53348250 4.60044750 1.94170957
Ir 4.60044750 1.53348250 -1.1252223000000008 0 0 0
Ir 4.60044750 1.53348250 1.94170957
Ir 4.60044750 4.60044750 -1.1252223000000008 0 0 0
Ir 4.60044750 4.60044750 1.94170957
C 1.53348250 1.53348250 3.84159846
O 1.53348250 1.53348250 4.99166716
