&CONTROL
calculation = 'relax'
prefix = 'scf'
pseudo_dir = '/vol0004/mdt0/data/hp150275/u10028/POT_KKJUS'
outdir = './data'
tprnfor = .true.
nstep = 50
disk_io = 'non'
/
&SYSTEM
ibrav = 0
ecutwfc = 50.0
ecutrho = 400
occupations = 'smearing'
smearing = 'mp'
degauss = 0.01
assume_isolated = 'esm'
esm_bc = 'bc1'
input_dft = 'BEEF-VDW'
nosym = .true.
nspin = 1
ntyp = 5
nat = 34
/
&ELECTRONS
electron_maxstep = 200
mixing_beta = 0.1
conv_thr = 1e-06
/
&IONS
ion_dynamics = 'bfgs'
upscale = 1.0
/
&CELL
/

K_POINTS {automatic}
8 6 1 0 0 0

ATOMIC_SPECIES
Au 196.9 Au.pbe-n-rrkjus_psl.1.0.0.UPF
C 12.01 C.pbe-n-rrkjus_psl.1.0.0.UPF
In 114.8 In.pbe-dn-rrkjus_psl.1.0.0.UPF
O 15.99 O.pbe-n-rrkjus_psl.1.0.0.UPF
Sc 44.95 Sc.pbe-spn-rrkjus_psl.1.0.0.UPF

CELL_PARAMETERS {angstrom}
6.85473000 0.00000000 0.00000000
0.00000000 9.69405000 0.00000000
0.00000000 0.00000000 27.27050000

ATOMIC_POSITIONS {angstrom}
Sc 0.00000000 0.00000000 -3.63515765 0 0 0
Sc 3.42736500 2.42351250 -1.211628319999999 0 0 0
Sc 3.42736500 7.27053750 -1.211628319999999 0 0 0
Sc 0.00000000 4.84702500 -3.63515765 0 0 0
Sc 0.00000000 4.86486205 1.33189122
Sc 3.42736500 7.27053750 3.47180736
Sc 3.42736500 2.42351250 3.49525999
Sc 0.00000000 9.67621295 1.33189122
In 0.00000000 7.27053750 -1.211628319999999 0 0 0
In 3.42736500 0.00000000 -3.63515765 0 0 0
In 0.00000000 2.42351250 -1.211628319999999 0 0 0
In 3.42736500 4.84702500 -3.63515765 0 0 0
In 0.00000000 2.42351250 3.89286387
In 3.42736500 4.82870325 1.16445035
In 0.00000000 7.27053750 3.88413731
In 3.42736500 0.01832175 1.16445035
Au 1.71368250 0.00000000 -1.211628319999999 0 0 0
Au 5.14104750 4.84702500 -1.211628319999999 0 0 0
Au 5.14104750 0.00000000 -1.211628319999999 0 0 0
Au 1.71368250 4.84702500 -1.211628319999999 0 0 0
Au 5.14104750 7.27053750 -3.63515765 0 0 0
Au 1.71368250 2.42351250 -3.63515765 0 0 0
Au 1.71368250 7.27053750 -3.63515765 0 0 0
Au 5.14104750 2.42351250 -3.63515765 0 0 0
Au 1.79374575 4.86592840 3.69188029
Au 5.06098425 9.67514660 3.69188029
Au 5.06098425 4.86592840 3.69188029
Au 1.79374575 9.67514660 3.69188029
Au 5.23063882 2.42351250 1.22908143
Au 1.66850983 7.27053750 1.21435536
Au 1.62409118 2.42351250 1.22908143
Au 5.18622017 7.27053750 1.21435536
C 3.42736500 2.42351250 5.78898174
O 3.42736500 2.42351250 6.93516085
