&CONTROL
calculation = 'relax'
prefix = 'scf'
pseudo_dir = '/vol0004/mdt0/data/hp150275/u10028/POT_KKJUS'
outdir = './data'
tprnfor = .true.
nstep = 50
disk_io = 'non'
/
&SYSTEM
ibrav = 0
ecutwfc = 50.0
ecutrho = 400
occupations = 'smearing'
smearing = 'mp'
degauss = 0.01
assume_isolated = 'esm'
esm_bc = 'bc1'
input_dft = 'BEEF-VDW'
nosym = .true.
nspin = 1
ntyp = 5
nat = 34
/
&ELECTRONS
electron_maxstep = 200
mixing_beta = 0.1
conv_thr = 1e-06
/
&IONS
ion_dynamics = 'bfgs'
upscale = 1.0
/
&CELL
/

K_POINTS {automatic}
8 6 1 0 0 0

ATOMIC_SPECIES
Au 196.9 Au.pbe-n-rrkjus_psl.1.0.0.UPF
C 12.01 C.pbe-n-rrkjus_psl.1.0.0.UPF
In 114.8 In.pbe-dn-rrkjus_psl.1.0.0.UPF
Li 6.941 Li.pbe-sl-rrkjus_psl.1.0.0.UPF
O 15.99 O.pbe-n-rrkjus_psl.1.0.0.UPF

CELL_PARAMETERS {angstrom}
6.60991000 0.00000000 0.00000000
0.00000000 9.34782000 0.00000000
0.00000000 0.00000000 27.01090000

ATOMIC_POSITIONS {angstrom}
Li 0.00000000 7.01086500 -1.1684915300000007 0 0 0
Li 3.30495500 0.00000000 -3.5054745999999994 0 0 0
Li 0.00000000 2.33695500 -1.1684915300000007 0 0 0
Li 3.30495500 4.67391000 -3.5054745999999994 0 0 0
Li 1.65247750 2.33695500 -3.5054745999999994 0 0 0
Li 1.65247750 7.01086500 -3.5054745999999994 0 0 0
Li 4.95743250 4.67391000 -1.1684915300000007 0 0 0
Li 4.95743250 0.00000000 -1.1684915300000007 0 0 0
Li 0.09643859 2.32414849 3.45037237
Li 3.34216879 4.67391000 0.97023153
Li 0.09617419 7.02376499 3.45037237
Li 3.38493491 0.00000000 0.99130003
Li 1.82241829 7.02086717 1.28328786
Li 1.82215389 2.32704631 1.28301775
Li 4.80811463 9.34772652 3.42579245
Li 4.73639711 4.67400348 3.29992165
In 0.00000000 0.00000000 -3.5054745999999994 0 0 0
In 3.30495500 2.33695500 -1.1684915300000007 0 0 0
In 3.30495500 7.01086500 -1.1684915300000007 0 0 0
In 0.00000000 4.67391000 -3.5054745999999994 0 0 0
In 6.57296060 4.67409696 1.11609039
In 3.24017788 7.01563239 3.98923982
In 3.24031008 2.33218761 3.98923982
In 6.55491555 9.34772652 1.12527409
Au 1.65247750 0.00000000 -1.1684915300000007 0 0 0
Au 1.65247750 4.67391000 -1.1684915300000007 0 0 0
Au 4.95743250 7.01086500 -3.5054745999999994 0 0 0
Au 4.95743250 2.33695500 -3.5054745999999994 0 0 0
Au 1.83345684 4.67381652 3.19646991
Au 1.86789447 0.00009348 3.17080955
Au 4.83224080 2.34798543 1.38430862
Au 4.83204251 7.00002153 1.38457873
C 5.74097123 9.34772652 5.27252768
O 6.13300499 9.34763304 6.35188324
