&CONTROL
calculation = 'relax'
prefix = 'scf'
pseudo_dir = '/vol0004/mdt0/data/hp150275/u10028/POT_HYBRID_KKJUS_GBRV'
outdir = './data'
tprnfor = .true.
nstep = 50
disk_io = 'non'
/
&SYSTEM
ibrav = 0
ecutwfc = 50.0
ecutrho = 400
occupations = 'smearing'
smearing = 'mp'
degauss = 0.01
assume_isolated = 'esm'
esm_bc = 'bc1'
input_dft = 'BEEF-VDW'
nosym = .true.
nspin = 2
ntyp = 5
nat = 34
starting_magnetization(1) = 0.0
starting_magnetization(2) = 0.0
starting_magnetization(3) = 0.1
starting_magnetization(4) = 0.0
starting_magnetization(5) = 0.0
/
&ELECTRONS
electron_maxstep = 300
mixing_beta = 0.1
conv_thr = 1e-06
/
&IONS
ion_dynamics = 'bfgs'
upscale = 1.0
/
&CELL
/

K_POINTS {automatic}
8 6 1 0 0 0

ATOMIC_SPECIES
C 12.01 C.pbe-n-rrkjus_psl.1.0.0.UPF
Ga 69.72 Ga.pbe-dnl-rrkjus_psl.1.0.0.UPF
Mn 54.93 mn_pbe_v1.5.uspp.F.UPF
O 15.99 O.pbe-n-rrkjus_psl.1.0.0.UPF
V 50.94 V.pbe-spnl-rrkjus_psl.1.0.0.UPF

CELL_PARAMETERS {angstrom}
5.83886000 0.00000000 0.00000000
0.00000000 8.25739000 0.00000000
0.00000000 0.00000000 26.19300000

ATOMIC_POSITIONS {angstrom}
Mn 1.45971500 0.00000000 -1.03226613 0 0 0
Mn 4.37914500 4.12869500 -1.03226613 0 0 0
Mn 4.37914500 0.00000000 -1.03226613 0 0 0
Mn 1.45971500 4.12869500 -1.03226613 0 0 0
Mn 4.37914500 6.19304250 -3.096536460000003 0 0 0
Mn 1.45971500 2.06434750 -3.096536460000003 0 0 0
Mn 1.45971500 6.19304250 -3.096536460000003 0 0 0
Mn 4.37914500 2.06434750 -3.096536460000003 0 0 0
Mn 1.46742230 4.12869500 3.18795003
Mn 4.36857666 0.00000000 3.19397442
Mn 4.36472302 4.12861243 3.19790337
Mn 1.55809979 0.00000000 3.15782808
Mn 4.39158177 2.06376948 1.07391300
Mn 1.44529302 6.19750149 1.06972212
Mn 1.44540979 2.05964079 1.06972212
Mn 4.39164016 6.19337280 1.07391300
V 0.00000000 0.00000000 -3.096536460000003 0 0 0
V 2.91943000 2.06434750 -1.03226613 0 0 0
V 2.91943000 6.19304250 -1.03226613 0 0 0
V 0.00000000 4.12869500 -3.096536460000003 0 0 0
V 0.00449592 4.12869500 1.07705616
V 2.87318623 6.21162163 3.03943572
V 2.87318623 2.04560322 3.03943572
V 5.82023404 8.25722485 1.06867440
Ga 0.00000000 6.19304250 -1.03226613 0 0 0
Ga 2.91943000 0.00000000 -3.096536460000003 0 0 0
Ga 0.00000000 2.06434750 -1.03226613 0 0 0
Ga 2.91943000 4.12869500 -3.096536460000003 0 0 0
Ga 0.01897630 2.03280427 3.29141238
Ga 2.92112327 4.12828213 1.06134036
Ga 0.01891791 6.22450316 3.29141238
Ga 2.91761995 0.00008257 1.04352912
C 2.07005104 0.00008257 4.90490118
O 2.33659499 0.00008257 6.04665405
