&CONTROL
calculation = 'relax'
prefix = 'scf'
pseudo_dir = '/vol0004/mdt0/data/hp150275/u10028/POT_KKJUS'
outdir = './data'
tprnfor = .true.
nstep = 50
disk_io = 'non'
/
&SYSTEM
ibrav = 0
ecutwfc = 50.0
ecutrho = 400
occupations = 'smearing'
smearing = 'mp'
degauss = 0.01
assume_isolated = 'esm'
esm_bc = 'bc1'
input_dft = 'BEEF-VDW'
nosym = .true.
nspin = 1
ntyp = 5
nat = 34
/
&ELECTRONS
electron_maxstep = 200
mixing_beta = 0.1
conv_thr = 1e-06
/
&IONS
ion_dynamics = 'bfgs'
upscale = 1.0
/
&CELL
/

K_POINTS {automatic}
9 6 2 0  0  0

ATOMIC_SPECIES
C 12.01 C.pbe-n-rrkjus_psl.1.0.0.UPF
Cu 63.54 Cu.pbe-dn-rrkjus_psl.1.0.0.UPF
Li 6.941 Li.pbe-sl-rrkjus_psl.1.0.0.UPF
O 15.99 O.pbe-n-rrkjus_psl.1.0.0.UPF
Si 28.08 Si.pbe-nl-rrkjus_psl.1.0.0.UPF

CELL_PARAMETERS {angstrom}
5.78917000 0.00000000 0.00000000
0.00000000 8.18712000 0.00000000
0.00000000 0.00000000 26.14030000

ATOMIC_POSITIONS {angstrom}
Li 0.00000000 0.00000000 -3.0701782400000006 0 0 0
Li 2.89458500 2.04678000 -1.0233927399999985 0 0 0
Li 2.89458500 6.14034000 -1.0233927399999985 0 0 0
Li 0.00000000 4.09356000 -3.0701782400000006 0 0 0
Li 0.00000000 4.10125589 0.88354214
Li 2.89458500 6.14034000 3.46175993
Li 2.89458500 2.04678000 3.45051960
Li 0.00000000 8.17942411 0.88354214
Cu 1.44729250 0.00000000 -1.0233927399999985 0 0 0
Cu 4.34187750 4.09356000 -1.0233927399999985 0 0 0
Cu 4.34187750 0.00000000 -1.0233927399999985 0 0 0
Cu 1.44729250 4.09356000 -1.0233927399999985 0 0 0
Cu 4.34187750 6.14034000 -3.0701782400000006 0 0 0
Cu 1.44729250 2.04678000 -3.0701782400000006 0 0 0
Cu 1.44729250 6.14034000 -3.0701782400000006 0 0 0
Cu 4.34187750 2.04678000 -3.0701782400000006 0 0 0
Cu 1.29926342 4.09945473 2.92928202
Cu 4.48990658 8.18122527 2.92928202
Cu 4.48990658 4.09945473 2.92928202
Cu 1.29926342 8.18122527 2.92928202
Cu 4.30766351 2.04678000 1.09214173
Cu 1.48636940 6.14034000 1.10285926
Cu 1.48150649 2.04678000 1.09214173
Cu 4.30280060 6.14034000 1.10285926
Si 0.00000000 6.14034000 -1.0233927399999985 0 0 0
Si 2.89458500 0.00000000 -3.0701782400000006 0 0 0
Si 0.00000000 2.04678000 -1.0233927399999985 0 0 0
Si 2.89458500 4.09356000 -3.0701782400000006 0 0 0
Si 0.00000000 2.04678000 3.05370985
Si 2.89458500 4.09216819 1.09919961
Si 0.00000000 6.14034000 3.09710274
Si 2.89458500 0.00139181 1.09919961
C 2.89464289 2.04694374 5.54984709
O 2.89464289 2.04694374 6.68773435
