&CONTROL
calculation = 'relax'
prefix = 'scf'
pseudo_dir = '/vol0004/mdt0/data/hp150275/u10028/POT_KKJUS'
outdir = './data'
tprnfor = .true.
nstep = 50
disk_io = 'non'
/
&SYSTEM
ibrav = 0
ecutwfc = 50.0
ecutrho = 400
occupations = 'smearing'
smearing = 'mp'
degauss = 0.01
assume_isolated = 'esm'
esm_bc = 'bc1'
input_dft = 'BEEF-VDW'
nosym = .true.
nspin = 1
ntyp = 2
nat = 16
/
&ELECTRONS
electron_maxstep = 200
mixing_beta = 0.1
conv_thr = 1e-06
/
&IONS
ion_dynamics = 'bfgs'
upscale = 1.0
/
&CELL
/

K_POINTS {automatic}
10 10 2 0  0  0

ATOMIC_SPECIES
Ag 107.8 Ag.pbe-n-rrkjus_psl.1.0.0.UPF
Li 6.941 Li.pbe-sl-rrkjus_psl.1.0.0.UPF

CELL_PARAMETERS {angstrom}
6.44966000 0.00000000 0.00000000
-0.00000000 6.44966000 0.00000000
0.00000000 0.00000000 24.83720000

ATOMIC_POSITIONS {angstrom}
Li 0.00000000 0.00000000 -1.7097928499999995 0 0 0
Li 0.00000000 0.00000000 1.51482083
Li 0.00000000 3.22483000 -1.7097928499999995 0 0 0
Li 0.00000000 3.22483000 1.51482083
Li 3.22483000 0.00000000 -1.7097928499999995 0 0 0
Li 3.22483000 -0.00000000 1.51482083
Li 3.22483000 3.22483000 -1.7097928499999995 0 0 0
Li 3.22483000 3.22483000 1.51482083
Ag 1.61241500 1.61241500 -0.09736181999999971 0 0 0
Ag 1.61241500 1.61241500 3.12725185
Ag 1.61241500 4.83724500 -0.09736181999999971 0 0 0
Ag 1.61241500 4.83724500 3.12725185
Ag 4.83724500 1.61241500 -0.09736181999999971 0 0 0
Ag 4.83724500 1.61241500 3.12725185
Ag 4.83724500 4.83724500 -0.09736181999999971 0 0 0
Ag 4.83724500 4.83724500 3.12725185
