&CONTROL
calculation = 'relax'
prefix = 'scf'
pseudo_dir = '/vol0004/mdt0/data/hp150275/u10028/POT_KKJUS'
outdir = './data'
tprnfor = .true.
nstep = 50
disk_io = 'non'
/
&SYSTEM
ibrav = 0
ecutwfc = 50.0
ecutrho = 400
occupations = 'smearing'
smearing = 'mp'
degauss = 0.01
assume_isolated = 'esm'
esm_bc = 'bc1'
input_dft = 'BEEF-VDW'
nosym = .true.
nspin = 1
ntyp = 4
nat = 18
/
&ELECTRONS
electron_maxstep = 200
mixing_beta = 0.1
conv_thr = 1e-06
/
&IONS
ion_dynamics = 'bfgs'
upscale = 1.0
/
&CELL
/

K_POINTS {automatic}
6 8 1 0 0 0

ATOMIC_SPECIES
C 12.01 C.pbe-n-rrkjus_psl.1.0.0.UPF
In 114.8 In.pbe-dn-rrkjus_psl.1.0.0.UPF
O 15.99 O.pbe-n-rrkjus_psl.1.0.0.UPF
Sc 44.95 Sc.pbe-spn-rrkjus_psl.1.0.0.UPF

CELL_PARAMETERS {angstrom}
9.13703000 0.00000000 0.00000000
0.00000000 6.46086000 0.00000000
0.00000000 0.00000000 24.84560000

ATOMIC_POSITIONS {angstrom}
Sc 0.00000000 0.00000000 -2.4226944600000024 0 0 0
Sc 9.13465437 3.26764455 0.83307297
Sc 4.56851500 0.00000000 -2.4226944600000024 0 0 0
Sc 4.57098200 3.26764455 0.83307297
In 0.00000000 3.23043000 -2.4226944600000024 0 0 0
In 2.28425750 4.84564500 -0.8074820000000003 0 0 0
In 2.28425750 1.61521500 -0.8074820000000003 0 0 0
In 9.13099956 0.04012194 1.00699217
In 2.28425750 1.68744741 2.44803697
In 2.28425750 4.87891843 2.48605074
In 4.56851500 3.23043000 -2.4226944600000024 0 0 0
In 6.85277250 4.84564500 -0.8074820000000003 0 0 0
In 6.85277250 1.61521500 -0.8074820000000003 0 0 0
In 4.57463681 0.04012194 1.00699217
In 6.85277250 1.67975899 2.50070964
In 6.85277250 4.86547984 2.47636095
C 2.28416613 1.07967431 6.20518860
O 2.28425750 1.83662867 7.05167819
