&CONTROL
calculation = 'relax'
prefix = 'scf'
pseudo_dir = '/vol0004/mdt0/data/hp150275/u10028/POT_HYBRID_KKJUS_GBRV'
outdir = './data'
tprnfor = .true.
nstep = 50
disk_io = 'non'
/
&SYSTEM
ibrav = 0
ecutwfc = 50.0
ecutrho = 400
occupations = 'smearing'
smearing = 'mp'
degauss = 0.01
assume_isolated = 'esm'
esm_bc = 'bc1'
input_dft = 'BEEF-VDW'
nosym = .true.
nspin = 2
ntyp = 3
nat = 32
starting_magnetization(1) = 0.0
starting_magnetization(2) = 0.001
starting_magnetization(3) = 0.0
/
&ELECTRONS
electron_maxstep = 300
mixing_beta = 0.1
conv_thr = 1e-06
/
&IONS
ion_dynamics = 'bfgs'
upscale = 1.0
/
&CELL
/

K_POINTS {automatic}
8 6 1 0 0 0

ATOMIC_SPECIES
Al 26.98 Al.pbe-nl-rrkjus_psl.1.0.0.UPF
Ni 58.69 ni_pbe_v1.4.uspp.F.UPF
V 50.94 V.pbe-spnl-rrkjus_psl.1.0.0.UPF

CELL_PARAMETERS {angstrom}
5.81764000 0.00000000 0.00000000
0.00000000 8.22738000 0.00000000
0.00000000 0.00000000 26.17050000

ATOMIC_POSITIONS {angstrom}
Al 0.00000000 0.00000000 -3.085240250000002 0 0 0
Al 2.90882000 2.05684500 -1.0285006500000016 0 0 0
Al 2.90882000 6.17053500 -1.0285006500000016 0 0 0
Al 0.00000000 4.11369000 -3.085240250000002 0 0 0
Al 0.00000000 4.11360773 0.99709605
Al 2.90882000 6.17053500 3.14098341
Al 2.90882000 2.05684500 3.14098341
Al 0.00000000 0.00008227 0.99709605
V 0.00000000 6.17053500 -1.0285006500000016 0 0 0
V 2.90882000 0.00000000 -3.085240250000002 0 0 0
V 0.00000000 2.05684500 -1.0285006500000016 0 0 0
V 2.90882000 4.11369000 -3.085240250000002 0 0 0
V 0.00000000 2.05692727 3.07058476
V 2.90882000 4.11369000 1.04629659
V 0.00000000 6.17045273 3.07058476
V 2.90882000 0.00000000 1.04629659
Ni 1.45441000 0.00000000 -1.0285006500000016 0 0 0
Ni 4.36323000 4.11369000 -1.0285006500000016 0 0 0
Ni 4.36323000 0.00000000 -1.0285006500000016 0 0 0
Ni 1.45441000 4.11369000 -1.0285006500000016 0 0 0
Ni 4.36323000 6.17053500 -3.085240250000002 0 0 0
Ni 1.45441000 2.05684500 -3.085240250000002 0 0 0
Ni 1.45441000 6.17053500 -3.085240250000002 0 0 0
Ni 4.36323000 2.05684500 -3.085240250000002 0 0 0
Ni 1.42113310 4.11401910 2.97035175
Ni 4.39656508 8.22705090 2.97035175
Ni 4.39650690 4.11401910 2.97035175
Ni 1.42107492 8.22705090 2.97035175
Ni 4.36578976 2.05659818 1.07272879
Ni 1.45150118 6.17078182 1.07299050
Ni 1.45185024 2.05659818 1.07272879
Ni 4.36613882 6.17078182 1.07299050
