&CONTROL
calculation = 'relax'
prefix = 'scf'
pseudo_dir = '/vol0004/mdt0/data/hp150275/u10028/POT_KKJUS'
outdir = './data'
tprnfor = .true.
nstep = 50
disk_io = 'non'
/
&SYSTEM
ibrav = 0
ecutwfc = 50.0
ecutrho = 400
occupations = 'smearing'
smearing = 'mp'
degauss = 0.01
assume_isolated = 'esm'
esm_bc = 'bc1'
input_dft = 'BEEF-VDW'
nosym = .true.
nspin = 1
ntyp = 4
nat = 33
/
&ELECTRONS
electron_maxstep = 200
mixing_beta = 0.1
conv_thr = 1e-06
/
&IONS
ion_dynamics = 'bfgs'
upscale = 1.0
/
&CELL
/

K_POINTS {automatic}
8 6 1 0 0 0

ATOMIC_SPECIES
Al 26.98 Al.pbe-nl-rrkjus_psl.1.0.0.UPF
C 12.01 C.pbe-n-rrkjus_psl.1.0.0.UPF
Nb 92.90 Nb.pbe-spn-rrkjus_psl.1.0.0.UPF
Ru 101.0 Ru.pbe-spn-rrkjus_psl.1.0.0.UPF

CELL_PARAMETERS {angstrom}
6.19479000 0.00000000 0.00000000
0.00000000 8.76076000 0.00000000
0.00000000 0.00000000 26.57060000

ATOMIC_POSITIONS {angstrom}
Nb 0.00000000 0.00000000 -3.2851889799999974 0 0 0
Nb 3.09739500 2.19019000 -1.0949744300000006 0 0 0
Nb 3.09739500 6.57057000 -1.0949744300000006 0 0 0
Nb 0.00000000 4.38038000 -3.2851889799999974 0 0 0
Nb 0.00000000 4.38038000 1.10932255
Nb 3.09739500 6.49312488 3.28890887
Nb 3.09739500 2.26763512 3.28890887
Nb 0.00000000 0.00000000 1.07876636
Al 0.00000000 6.57057000 -1.0949744300000006 0 0 0
Al 3.09739500 0.00000000 -3.2851889799999974 0 0 0
Al 0.00000000 2.19019000 -1.0949744300000006 0 0 0
Al 3.09739500 4.38038000 -3.2851889799999974 0 0 0
Al 0.00000000 2.22225438 3.44115841
Al 3.09739500 4.38038000 1.11702802
Al 0.00000000 6.53850562 3.44115841
Al 3.09739500 0.00000000 1.06441824
Ru 1.54869750 0.00000000 -1.0949744300000006 0 0 0
Ru 4.64609250 4.38038000 -1.0949744300000006 0 0 0
Ru 4.64609250 0.00000000 -1.0949744300000006 0 0 0
Ru 1.54869750 4.38038000 -1.0949744300000006 0 0 0
Ru 4.64609250 6.57057000 -3.2851889799999974 0 0 0
Ru 1.54869750 2.19019000 -3.2851889799999974 0 0 0
Ru 1.54869750 6.57057000 -3.2851889799999974 0 0 0
Ru 4.64609250 2.19019000 -3.2851889799999974 0 0 0
Ru 1.47262548 4.38038000 3.17438958
Ru 4.66752647 0.00000000 3.29369158
Ru 4.72216452 4.38038000 3.17438958
Ru 1.52726353 0.00000000 3.29369158
Ru 4.63091526 2.15865126 1.13828450
Ru 1.56387474 6.60210874 1.13828450
Ru 1.56387474 2.15865126 1.13828450
Ru 4.63091526 6.60210874 1.13828450
C 0.00000000 0.00000000 4.38441471
