&CONTROL
calculation = 'relax'
prefix = 'scf'
pseudo_dir = '/vol0004/mdt0/data/hp150275/u10028/POT_KKJUS'
outdir = './data'
tprnfor = .true.
nstep = 50
disk_io = 'non'
/
&SYSTEM
ibrav = 0
ecutwfc = 50.0
ecutrho = 400
occupations = 'smearing'
smearing = 'mp'
degauss = 0.01
assume_isolated = 'esm'
esm_bc = 'bc1'
input_dft = 'BEEF-VDW'
nosym = .true.
nspin = 1
ntyp = 3
nat = 33
/
&ELECTRONS
electron_maxstep = 200
mixing_beta = 0.1
conv_thr = 1e-06
/
&IONS
ion_dynamics = 'bfgs'
upscale = 1.0
/
&CELL
/

K_POINTS {automatic}
8 6 1 0 0 0

ATOMIC_SPECIES
C 12.01 C.pbe-n-rrkjus_psl.1.0.0.UPF
Pd 106.4 Pd.pbe-n-rrkjus_psl.1.0.0.UPF
Sc 44.95 Sc.pbe-spn-rrkjus_psl.1.0.0.UPF

CELL_PARAMETERS {angstrom}
6.66071000 0.00000000 0.00000000
0.00000000 9.41967000 0.00000000
0.00000000 0.00000000 27.06480000

ATOMIC_POSITIONS {angstrom}
Sc 1.66517750 2.35491750 -3.5324977000000004 0 0 0
Sc 1.66517750 0.00000000 -1.1775894500000028 0 0 0
Sc 1.66950696 2.35180901 1.17596556
Sc 1.96117945 0.00009420 3.73629564
Sc 1.66517750 7.06475250 -3.5324977000000004 0 0 0
Sc 1.66517750 4.70983500 -1.1775894500000028 0 0 0
Sc 1.66970678 7.06786099 1.17596556
Sc 1.63773537 4.70983500 3.51382298
Sc 4.99553250 2.35491750 -3.5324977000000004 0 0 0
Sc 4.99553250 0.00000000 -1.1775894500000028 0 0 0
Sc 4.99100322 2.35180901 1.17596556
Sc 4.69966376 0.00000000 3.73602499
Sc 4.99553250 7.06475250 -3.5324977000000004 0 0 0
Sc 4.99553250 4.70983500 -1.1775894500000028 0 0 0
Sc 4.99106982 7.06795519 1.17596556
Sc 5.02304123 4.70983500 3.51382298
Pd 0.00000000 0.00000000 -3.5324977000000004 0 0 0
Pd 0.00000000 2.35491750 -1.1775894500000028 0 0 0
Pd 0.00000000 0.00000000 1.31561993
Pd 0.00006661 2.27070565 3.27781793
Pd 0.00000000 4.70983500 -3.5324977000000004 0 0 0
Pd 0.00000000 7.06475250 -1.1775894500000028 0 0 0
Pd 0.00000000 4.70983500 1.28205958
Pd 0.00000000 7.14896435 3.27781793
Pd 3.33035500 0.00000000 -3.5324977000000004 0 0 0
Pd 3.33035500 2.35491750 -1.1775894500000028 0 0 0
Pd 3.33035500 0.00000000 1.08665172
Pd 3.33035500 2.52126887 3.32409874
Pd 3.33035500 4.70983500 -3.5324977000000004 0 0 0
Pd 3.33035500 7.06475250 -1.1775894500000028 0 0 0
Pd 3.33035500 4.70983500 1.13672160
Pd 3.33042161 6.89840113 3.32409874
C 0.00000000 9.41957580 3.61125626
