&CONTROL
calculation = 'relax'
prefix = 'scf'
pseudo_dir = '/vol0403/data/hp230205/u10028/POT_HYBRID_KKJUS_GBRV'
outdir = './data'
tprnfor = .true.
nstep = 50
disk_io = 'non'
/
&SYSTEM
ibrav = 0
ecutwfc = 50.0
ecutrho = 400
occupations = 'smearing'
smearing = 'mp'
degauss = 0.01
assume_isolated = 'esm'
esm_bc = 'bc1'
input_dft = 'BEEF-VDW'
nosym = .true.
nspin = 1
ntyp = 6
nat = 18
/
&ELECTRONS
electron_maxstep = 200
mixing_beta = 0.1
conv_thr = 1e-06
/
&IONS
ion_dynamics = 'bfgs'
upscale = 1.0
/
&CELL
/

K_POINTS {automatic}
9 9 2 0  0  0

ATOMIC_SPECIES
C 12.01 C.pbe-n-rrkjus_psl.1.0.0.UPF
Cu 63.54 Cu.pbe-dn-rrkjus_psl.1.0.0.UPF
In 114.8 In.pbe-dn-rrkjus_psl.1.0.0.UPF
Li 6.941 Li.pbe-sl-rrkjus_psl.1.0.0.UPF
O 15.99 O.pbe-n-rrkjus_psl.1.0.0.UPF
Sn 118.7 Sn.pbe-dn-rrkjus_psl.1.0.0.UPF


CELL_PARAMETERS {angstrom}
6.73938000 0.00000000 0.00000000
0.00000000 6.73938000 0.00000000
0.00000000 0.00000000 25.05450000

ATOMIC_POSITIONS {angstrom}
Li 0.00000000 3.36969000 2.57535206
Li 0.00000000 0.00000000 -0.8423322900000016 0 0 0
Li 3.36969000 3.36969000 -0.8423322900000016 0 0 0
Li 3.36969000 0.00000000 2.57560260
In 1.66300941 1.66307680 0.77694005
In 1.68484500 5.05453500 -2.527247420000002 0 0 0
In 5.05453500 1.68484500 -2.527247420000002 0 0 0
In 5.07637059 5.07630320 0.77694005
Cu 0.00000000 0.00000000 2.22308579
Cu 0.00000000 3.36969000 -0.8423322900000016 0 0 0
Cu 3.36969000 0.00000000 -0.8423322900000016 0 0 0
Cu 3.36969000 3.36969000 2.02715960
Sn 5.05197404 1.68747336 0.88943475
Sn 5.05453500 5.05453500 -2.527247420000002 0 0 0
Sn 1.68484500 1.68484500 -2.527247420000002 0 0 0
Sn 1.68740596 5.05190664 0.88943475
C 0.00000000 0.00000000 4.06885080
O 0.00000000 0.00000000 5.22712034
