&CONTROL
calculation = 'relax'
prefix = 'scf'
pseudo_dir = '/vol0004/mdt0/data/hp150275/u10028/POT_KKJUS'
outdir = './data'
tprnfor = .true.
nstep = 50
disk_io = 'non'
/
&SYSTEM
ibrav = 0
ecutwfc = 50.0
ecutrho = 400
occupations = 'smearing'
smearing = 'mp'
degauss = 0.01
assume_isolated = 'esm'
esm_bc = 'bc1'
input_dft = 'BEEF-VDW'
nosym = .true.
nspin = 1
ntyp = 2
nat = 16
/
&ELECTRONS
electron_maxstep = 200
mixing_beta = 0.1
conv_thr = 1e-06
/
&IONS
ion_dynamics = 'bfgs'
upscale = 1.0
/
&CELL
/

K_POINTS {automatic}
8 8 1 0 0 0

ATOMIC_SPECIES
Cu 63.54 Cu.pbe-dn-rrkjus_psl.1.0.0.UPF
Zr 91.22 Zr.pbe-spn-rrkjus_psl.1.0.0.UPF

CELL_PARAMETERS {angstrom}
6.62616000 0.00000000 0.00000000
-0.00000000 6.62616000 0.00000000
0.00000000 0.00000000 24.96960000

ATOMIC_POSITIONS {angstrom}
Zr 1.65654000 1.65654000 -0.9763113600000004 0 0 0
Zr 1.65654000 1.65654000 2.33665517
Zr 1.65654000 4.96962000 -0.9763113600000004 0 0 0
Zr 1.65654000 4.96962000 2.33665517
Zr 4.96962000 1.65654000 -0.9763113600000004 0 0 0
Zr 4.96962000 1.65654000 2.33665517
Zr 4.96962000 4.96962000 -0.9763113600000004 0 0 0
Zr 4.96962000 4.96962000 2.33665517
Cu 0.00000000 0.00000000 -2.6330443199999998 0 0 0
Cu 0.00000000 0.00000000 0.68017190
Cu 0.00000000 3.31308000 -2.6330443199999998 0 0 0
Cu 0.00000000 3.31308000 0.68017190
Cu 3.31308000 0.00000000 -2.6330443199999998 0 0 0
Cu 3.31308000 -0.00000000 0.68017190
Cu 3.31308000 3.31308000 -2.6330443199999998 0 0 0
Cu 3.31308000 3.31308000 0.68017190
