&CONTROL
calculation = 'relax'
prefix = 'scf'
pseudo_dir = '/vol0403/data/hp230205/u10028/POT_HYBRID_KKJUS_GBRV'
outdir = './data'
tprnfor = .true.
nstep = 50
disk_io = 'non'
/
&SYSTEM
ibrav = 0
ecutwfc = 50.0
ecutrho = 400
occupations = 'smearing'
smearing = 'mp'
degauss = 0.01
assume_isolated = 'esm'
esm_bc = 'bc1'
input_dft = 'BEEF-VDW'
nosym = .true.
nspin = 2
ntyp = 6
nat = 34
starting_magnetization(1) = 0.0
starting_magnetization(2) = 0.0
starting_magnetization(3) = 0.0
starting_magnetization(4) = 0.001
starting_magnetization(5) = 0.0
starting_magnetization(6) = 0.0
/
&ELECTRONS
electron_maxstep = 400
mixing_beta = 0.05
conv_thr = 1e-06
/
&IONS
ion_dynamics = 'bfgs'
upscale = 1.0
/
&CELL
/

K_POINTS {automatic}
9 6 2 0  0  0

ATOMIC_SPECIES
C 12.01 C.pbe-n-rrkjus_psl.1.0.0.UPF
Ge 72.64 Ge.pbe-dn-rrkjus_psl.1.0.0.UPF
Li 6.941 Li.pbe-sl-rrkjus_psl.1.0.0.UPF
Ni 58.69 ni_pbe_v1.4.uspp.F.UPF
O 15.99 O.pbe-n-rrkjus_psl.1.0.0.UPF
Pd 106.4 Pd.pbe-n-rrkjus_psl.1.0.0.UPF


CELL_PARAMETERS {angstrom}
5.93854000 0.00000000 0.00000000
0.00000000 8.39836000 0.00000000
0.00000000 0.00000000 26.29880000

ATOMIC_POSITIONS {angstrom}
Li 0.00000000 2.09959000 -1.0498480999999984 0 0 0
Li 0.00000000 6.29877000 -1.0498480999999984 0 0 0
Li 2.96927000 4.19918000 -3.1492812999999984 0 0 0
Li 2.96927000 0.00000000 -3.1492812999999984 0 0 0
Li 5.88711224 6.24275294 3.50405211
Li 5.88705286 2.15543909 3.50431510
Li 2.89860137 0.00008398 1.02670515
Li 2.96511302 4.19918000 0.94465290
Ni 4.45390500 0.00000000 -1.0498480999999984 0 0 0
Ni 4.45390500 4.19918000 -1.0498480999999984 0 0 0
Ni 1.48463500 2.09959000 -3.1492812999999984 0 0 0
Ni 1.48463500 6.29877000 -3.1492812999999984 0 0 0
Ni 4.33863794 4.19909602 2.89155306
Ni 4.30989540 8.39827602 2.89654983
Ni 1.48540701 6.32455297 1.12374772
Ni 1.48564455 2.07380703 1.12401071
Ge 0.00000000 0.00000000 -3.1492812999999984 0 0 0
Ge 0.00000000 4.19918000 -3.1492812999999984 0 0 0
Ge 2.96927000 6.29877000 -1.0498480999999984 0 0 0
Ge 2.96927000 2.09959000 -1.0498480999999984 0 0 0
Ge 0.03082102 4.19934797 1.09718594
Ge 0.06205774 0.00016797 1.10823143
Ge 3.06856239 2.10412511 3.16243070
Ge 3.06802792 6.29398293 3.16111576
Pd 1.48463500 0.00000000 -1.0498480999999984 0 0 0
Pd 1.48463500 4.19918000 -1.0498480999999984 0 0 0
Pd 4.45390500 2.09959000 -3.1492812999999984 0 0 0
Pd 4.45390500 6.29877000 -3.1492812999999984 0 0 0
Pd 1.62852582 4.19884407 3.04040427
Pd 1.51670312 0.00016797 3.35151907
Pd 4.49143657 6.32136159 1.01697460
Pd 4.49125842 2.07699841 1.01750057
C 0.60739387 0.00000000 5.08960676
O 0.32863880 0.00000000 6.21177656
