&CONTROL
calculation = 'relax'
prefix = 'scf'
pseudo_dir = '/vol0004/mdt0/data/hp150275/u10028/POT_KKJUS'
outdir = './data'
tprnfor = .true.
nstep = 50
disk_io = 'non'
/
&SYSTEM
ibrav = 0
ecutwfc = 50.0
ecutrho = 400
occupations = 'smearing'
smearing = 'mp'
degauss = 0.01
assume_isolated = 'esm'
esm_bc = 'bc1'
input_dft = 'BEEF-VDW'
nosym = .true.
nspin = 1
ntyp = 3
nat = 33
/
&ELECTRONS
electron_maxstep = 200
mixing_beta = 0.1
conv_thr = 1e-06
/
&IONS
ion_dynamics = 'bfgs'
upscale = 1.0
/
&CELL
/

K_POINTS {automatic}
8 6 1 0 0 0

ATOMIC_SPECIES
Bi 208.9 Bi.pbe-dn-rrkjus_psl.1.0.0.UPF
C 12.01 C.pbe-n-rrkjus_psl.1.0.0.UPF
Li 6.941 Li.pbe-sl-rrkjus_psl.1.0.0.UPF

CELL_PARAMETERS {angstrom}
6.74000000 0.00000000 0.00000000
0.00000000 9.53179000 0.00000000
0.00000000 0.00000000 27.14880000

ATOMIC_POSITIONS {angstrom}
Li 1.68500000 0.00000000 -1.1915608300000002 0 0 0
Li 5.05500000 4.76589500 -1.1915608300000002 0 0 0
Li 5.05500000 0.00000000 -1.1915608300000002 0 0 0
Li 1.68500000 4.76589500 -1.1915608300000002 0 0 0
Li 5.05500000 7.14884250 -3.574411010000002 0 0 0
Li 1.68500000 2.38294750 -3.574411010000002 0 0 0
Li 1.68500000 7.14884250 -3.574411010000002 0 0 0
Li 5.05500000 2.38294750 -3.574411010000002 0 0 0
Li 0.00000000 7.14884250 -1.1915608300000002 0 0 0
Li 3.37000000 0.00000000 -3.574411010000002 0 0 0
Li 0.00000000 2.38294750 -1.1915608300000002 0 0 0
Li 3.37000000 4.76589500 -3.574411010000002 0 0 0
Li 1.77390060 4.46831252 3.77449766
Li 4.96131400 9.27490826 3.56436595
Li 4.96131400 5.02277674 3.56463744
Li 1.77390060 0.29758248 3.77449766
Li 5.10319100 2.38294750 1.07482099
Li 1.70272620 7.14884250 1.04685773
Li 1.62467700 2.38294750 1.57490189
Li 5.01422300 7.14884250 1.21355136
Li 6.53719340 2.38294750 3.55540685
Li 3.31196860 4.86330989 1.23146957
Li 0.28961780 7.14884250 3.23260762
Li 3.31196860 9.43427979 1.23146957
Bi 0.00000000 0.00000000 -3.574411010000002 0 0 0
Bi 3.37000000 2.38294750 -1.1915608300000002 0 0 0
Bi 3.37000000 7.14884250 -1.1915608300000002 0 0 0
Bi 0.00000000 4.76589500 -3.574411010000002 0 0 0
Bi 6.73056400 4.80545193 1.28060890
Bi 3.18330200 7.14884250 3.53395930
Bi 3.84361980 2.38294750 3.79513075
Bi 6.73056400 9.49213775 1.28033741
C 1.68358460 2.38294750 3.83259610
