&CONTROL
calculation = 'relax'
prefix = 'scf'
pseudo_dir = '/vol0403/data/hp230205/u10028/POT_HYBRID_KKJUS_GBRV'
outdir = './data'
tprnfor = .true.
nstep = 50
disk_io = 'non'
/
&SYSTEM
ibrav = 0
ecutwfc = 50.0
ecutrho = 400
occupations = 'smearing'
smearing = 'mp'
degauss = 0.01
assume_isolated = 'esm'
esm_bc = 'bc1'
input_dft = 'BEEF-VDW'
nosym = .true.
nspin = 1
ntyp = 5
nat = 33
/
&ELECTRONS
electron_maxstep = 200
mixing_beta = 0.1
conv_thr = 1e-06
/
&IONS
ion_dynamics = 'bfgs'
upscale = 1.0
/
&CELL
/

K_POINTS {automatic}
6 6 1 0 0 0

ATOMIC_SPECIES
Ag 107.8 Ag.pbe-n-rrkjus_psl.1.0.0.UPF
Al 26.98 Al.pbe-nl-rrkjus_psl.1.0.0.UPF
C 12.01 C.pbe-n-rrkjus_psl.1.0.0.UPF
Li 6.941 Li.pbe-sl-rrkjus_psl.1.0.0.UPF
Sn 118.7 Sn.pbe-dn-rrkjus_psl.1.0.0.UPF


CELL_PARAMETERS {angstrom}
8.16098000 0.00000000 0.00000000
0.00000000 8.56020000 0.00000000
0.00000000 0.00000000 26.50010000

ATOMIC_POSITIONS {angstrom}
Li 2.04024500 2.04177890 3.36206769
Li 2.04024500 2.14005000 -1.0833240900000014 0 0 0
Li 2.04024500 6.51842110 3.36206769
Li 2.04024500 6.42015000 -1.0833240900000014 0 0 0
Li 6.12073500 2.28052288 3.20200708
Li 6.12073500 2.14005000 -1.0833240900000014 0 0 0
Li 6.12073500 6.27967712 3.20200708
Li 6.12073500 6.42015000 -1.0833240900000014 0 0 0
Al 2.04024500 0.00000000 0.97705869
Al 2.04024500 0.00000000 -3.24997226 0 0 0
Al 2.04024500 4.28010000 1.02210886
Al 2.04024500 4.28010000 -3.24997226 0 0 0
Al 6.12073500 0.00000000 1.12651925
Al 6.12073500 0.00000000 -3.24997226 0 0 0
Al 6.12073500 4.28010000 0.93306852
Al 6.12073500 4.28010000 -3.24997226 0 0 0
Ag 7.94871291 0.00000000 3.21578713
Ag 0.00000000 0.00000000 -1.0833240900000014 0 0 0
Ag 0.08201785 4.28010000 3.08885166
Ag 0.00000000 4.28010000 -1.0833240900000014 0 0 0
Ag 4.29275709 0.00000000 3.21578713
Ag 4.08049000 0.00000000 -1.0833240900000014 0 0 0
Ag 3.99847215 4.28010000 3.08885166
Ag 4.08049000 4.28010000 -1.0833240900000014 0 0 0
Sn 8.14531092 2.16264893 1.05152397
Sn 0.00000000 2.14005000 -3.24997226 0 0 0
Sn 8.14531092 6.39755107 1.05152397
Sn 0.00000000 6.42015000 -3.24997226 0 0 0
Sn 4.09615908 2.16264893 1.05152397
Sn 4.08049000 2.14005000 -3.24997226 0 0 0
Sn 4.09615908 6.39755107 1.05152397
Sn 4.08049000 6.42015000 -3.24997226 0 0 0
C 2.04024500 0.00000000 2.92614104
