&CONTROL
calculation = 'relax'
prefix = 'scf'
pseudo_dir = '/vol0403/data/hp230205/u10028/POT_HYBRID_KKJUS_GBRV'
outdir = './data'
tprnfor = .true.
nstep = 50
disk_io = 'non'
/
&SYSTEM
ibrav = 0
ecutwfc = 50.0
ecutrho = 400
occupations = 'smearing'
smearing = 'mp'
degauss = 0.01
assume_isolated = 'esm'
esm_bc = 'bc1'
input_dft = 'BEEF-VDW'
nosym = .true.
nspin = 1
ntyp = 6
nat = 18
/
&ELECTRONS
electron_maxstep = 200
mixing_beta = 0.1
conv_thr = 1e-06
/
&IONS
ion_dynamics = 'bfgs'
upscale = 1.0
/
&CELL
/

K_POINTS {automatic}
8 8 1 0 0 0

ATOMIC_SPECIES
C 12.01 C.pbe-n-rrkjus_psl.1.0.0.UPF
Ge 72.64 Ge.pbe-dn-rrkjus_psl.1.0.0.UPF
Li 6.941 Li.pbe-sl-rrkjus_psl.1.0.0.UPF
O 15.99 O.pbe-n-rrkjus_psl.1.0.0.UPF
Pd 106.4 Pd.pbe-n-rrkjus_psl.1.0.0.UPF
Pt 195.0 Pt.pbe-n-rrkjus_psl.1.0.0.UPF


CELL_PARAMETERS {angstrom}
6.12898000 0.00000000 0.00000000
0.00000000 6.12898000 0.00000000
0.00000000 0.00000000 24.59670000

ATOMIC_POSITIONS {angstrom}
Li 0.00000000 3.06449000 -2.2983156499999993 0 0 0
Li 6.11255433 6.11255433 0.82521929
Li 3.07300928 3.07300928 0.82792492
Li 3.06449000 0.00000000 -2.2983156499999993 0 0 0
Ge 0.00000000 0.00000000 -2.2983156499999993 0 0 0
Ge 6.10593504 3.08661562 0.85867080
Ge 3.08661562 6.10587375 0.85867080
Ge 3.06449000 3.06449000 -2.2983156499999993 0 0 0
Pd 4.59673500 1.53224500 -0.7661872099999982 0 0 0
Pd 4.59667371 4.59667371 2.32709379
Pd 1.52881277 1.52881277 2.39842422
Pd 1.53224500 4.59673500 -0.7661872099999982 0 0 0
Pt 1.53224500 1.53224500 -0.7661872099999982 0 0 0
Pt 1.53101920 4.59771564 2.18861437
Pt 4.59771564 1.53101920 2.18861437
Pt 4.59673500 4.59673500 -0.7661872099999982 0 0 0
C 1.52924180 1.52924180 4.36394651
O 1.53199984 1.53199984 5.50916887
