&CONTROL
calculation = 'relax'
prefix = 'scf'
pseudo_dir = '/vol0004/mdt0/data/hp150275/u10028/POT_KKJUS'
outdir = './data'
tprnfor = .true.
nstep = 50
disk_io = 'non'
/
&SYSTEM
ibrav = 0
ecutwfc = 50.0
ecutrho = 400
occupations = 'smearing'
smearing = 'mp'
degauss = 0.01
assume_isolated = 'esm'
esm_bc = 'bc1'
input_dft = 'BEEF-VDW'
nosym = .true.
nspin = 1
ntyp = 3
nat = 34
/
&ELECTRONS
electron_maxstep = 200
mixing_beta = 0.1
conv_thr = 1e-06
/
&IONS
ion_dynamics = 'bfgs'
upscale = 1.0
/
&CELL
/

K_POINTS {automatic}
6 6 1 0 0 0

ATOMIC_SPECIES
C 12.01 C.pbe-n-rrkjus_psl.1.0.0.UPF
In 114.8 In.pbe-dn-rrkjus_psl.1.0.0.UPF
O 15.99 O.pbe-n-rrkjus_psl.1.0.0.UPF

CELL_PARAMETERS {angstrom}
9.72593000 0.00000000 0.00000000
0.00000000 9.72593000 0.00000000
0.00000000 0.00000000 27.29450000

ATOMIC_POSITIONS {angstrom}
In 0.00000000 0.00000000 -3.6473640299999985 0 0 0
In 2.43148250 2.43148250 -3.6473640299999985 0 0 0
In 2.43148250 0.00000000 -1.2156970299999976 0 0 0
In 0.00000000 2.43148250 -1.2156970299999976 0 0 0
In 9.69850288 0.00136163 1.18567308
In 2.43157976 2.45618636 1.19304259
In 2.43264961 9.71814926 3.59468565
In 0.00758623 2.43410850 3.71751090
In 0.00000000 4.86296500 -3.6473640299999985 0 0 0
In 2.43148250 7.29444750 -3.6473640299999985 0 0 0
In 2.43148250 4.86296500 -1.2156970299999976 0 0 0
In 0.00000000 7.29444750 -1.2156970299999976 0 0 0
In 9.72349852 4.85693492 1.21897237
In 2.43770710 7.26060126 1.18649191
In 2.43527561 4.84798707 3.70686604
In 0.00447393 7.29892143 3.67192909
In 4.86296500 0.00000000 -3.6473640299999985 0 0 0
In 7.29444750 2.43148250 -3.6473640299999985 0 0 0
In 7.29444750 0.00000000 -1.2156970299999976 0 0 0
In 4.86296500 2.43148250 -1.2156970299999976 0 0 0
In 4.88990583 9.72194237 1.19031314
In 7.29833787 2.43556739 1.21869943
In 7.29055713 0.00748897 3.69704002
In 4.86773071 2.43342769 3.70741194
In 4.86296500 4.86296500 -3.6473640299999985 0 0 0
In 7.29444750 7.29444750 -3.6473640299999985 0 0 0
In 7.29444750 4.86296500 -1.2156970299999976 0 0 0
In 4.86296500 7.29444750 -1.2156970299999976 0 0 0
In 4.86734167 4.86354856 1.22142887
In 7.28987631 7.28900098 1.22061004
In 7.30028306 4.86938411 3.73224993
In 4.86325678 7.29746254 3.72160507
C 2.53593899 0.36909904 7.49506970
O 2.34657513 9.54979341 8.47139396
