&CONTROL
calculation = 'relax'
prefix = 'scf'
pseudo_dir = '/vol0004/mdt0/data/hp150275/u10028/POT_KKJUS'
outdir = './data'
tprnfor = .true.
nstep = 50
disk_io = 'non'
/
&SYSTEM
ibrav = 0
ecutwfc = 50.0
ecutrho = 400
occupations = 'smearing'
smearing = 'mp'
degauss = 0.01
assume_isolated = 'esm'
esm_bc = 'bc1'
input_dft = 'BEEF-VDW'
nosym = .true.
nspin = 1
ntyp = 3
nat = 34
/
&ELECTRONS
electron_maxstep = 200
mixing_beta = 0.1
conv_thr = 1e-06
/
&IONS
ion_dynamics = 'bfgs'
upscale = 1.0
/
&CELL
/

K_POINTS {automatic}
6 6 1 0 0 0

ATOMIC_SPECIES
C 12.01 C.pbe-n-rrkjus_psl.1.0.0.UPF
In 114.8 In.pbe-dn-rrkjus_psl.1.0.0.UPF
O 15.99 O.pbe-n-rrkjus_psl.1.0.0.UPF

CELL_PARAMETERS {angstrom}
9.72593000 0.00000000 0.00000000
-0.00000000 9.72593000 0.00000000
0.00000000 0.00000000 27.29450000

ATOMIC_POSITIONS {angstrom}
In 0.00000000 0.00000000 -3.6473640299999985 0 0 0
In 2.43148250 2.43148250 -3.6473640299999985 0 0 0
In 2.43148250 0.00000000 -1.2156970299999976 0 0 0
In 0.00000000 2.43148250 -1.2156970299999976 0 0 0
In 0.00000000 0.00000000 1.21569703
In 2.43148250 2.43148250 1.21569703
In 2.43148250 -0.00000000 3.64736403
In 0.00000000 2.43148250 3.64736403
In 0.00000000 4.86296500 -3.6473640299999985 0 0 0
In 2.43148250 7.29444750 -3.6473640299999985 0 0 0
In 2.43148250 4.86296500 -1.2156970299999976 0 0 0
In 0.00000000 7.29444750 -1.2156970299999976 0 0 0
In 0.00000000 4.86296500 1.21569703
In 2.43148250 7.29444750 1.21569703
In 2.43148250 4.86296500 3.64736403
In 0.00000000 7.29444750 3.64736403
In 4.86296500 0.00000000 -3.6473640299999985 0 0 0
In 7.29444750 2.43148250 -3.6473640299999985 0 0 0
In 7.29444750 0.00000000 -1.2156970299999976 0 0 0
In 4.86296500 2.43148250 -1.2156970299999976 0 0 0
In 4.86296500 -0.00000000 1.21569703
In 7.29444750 2.43148250 1.21569703
In 7.29444750 -0.00000000 3.64736403
In 4.86296500 2.43148250 3.64736403
In 4.86296500 4.86296500 -3.6473640299999985 0 0 0
In 7.29444750 7.29444750 -3.6473640299999985 0 0 0
In 7.29444750 4.86296500 -1.2156970299999976 0 0 0
In 4.86296500 7.29444750 -1.2156970299999976 0 0 0
In 4.86296500 4.86296500 1.21569703
In 7.29444750 7.29444750 1.21569703
In 7.29444750 4.86296500 3.64736403
In 4.86296500 7.29444750 3.64736403
C 2.43148250 -0.00000000 5.54733418
O 2.43148250 -0.00000000 6.69725146
