&CONTROL
calculation = 'relax'
prefix = 'scf'
pseudo_dir = '/vol0403/data/hp230205/u10028/POT_HYBRID_KKJUS_GBRV'
outdir = './data'
tprnfor = .true.
nstep = 50
disk_io = 'non'
/
&SYSTEM
ibrav = 0
ecutwfc = 50.0
ecutrho = 400
occupations = 'smearing'
smearing = 'mp'
degauss = 0.01
assume_isolated = 'esm'
esm_bc = 'bc1'
input_dft = 'BEEF-VDW'
nosym = .true.
nspin = 1
ntyp = 5
nat = 33
/
&ELECTRONS
electron_maxstep = 200
mixing_beta = 0.1
conv_thr = 1e-06
/
&IONS
ion_dynamics = 'bfgs'
upscale = 1.0
/
&CELL
/

K_POINTS {automatic}
6 6 1 0 0 0

ATOMIC_SPECIES
Al 26.98 Al.pbe-nl-rrkjus_psl.1.0.0.UPF
C 12.01 C.pbe-n-rrkjus_psl.1.0.0.UPF
Cu 63.54 Cu.pbe-dn-rrkjus_psl.1.0.0.UPF
Li 6.941 Li.pbe-sl-rrkjus_psl.1.0.0.UPF
Pd 106.4 Pd.pbe-n-rrkjus_psl.1.0.0.UPF


CELL_PARAMETERS {angstrom}
6.00833000 0.00000000 0.00000000
0.00000000 8.49706000 0.00000000
0.00000000 0.00000000 26.37280000

ATOMIC_POSITIONS {angstrom}
Li 0.00000000 2.12426500 -1.0620326599999999 0 0 0
Li 0.00000000 6.37279500 -1.0620326599999999 0 0 0
Li 3.00416500 4.24853000 -3.1863617000000026 0 0 0
Li 3.00416500 0.00000000 -3.1863617000000026 0 0 0
Li 0.13050093 6.37279500 3.55927309
Li 5.80512828 2.12426500 4.33305104
Li 3.01780391 0.01045138 1.04409915
Li 3.01780391 4.23807862 1.04409915
Al 0.00000000 0.00000000 -3.1863617000000026 0 0 0
Al 0.00000000 4.24853000 -3.1863617000000026 0 0 0
Al 3.00416500 6.37279500 -1.0620326599999999 0 0 0
Al 3.00416500 2.12426500 -1.0620326599999999 0 0 0
Al 0.02144974 4.25303344 1.03012157
Al 0.02144974 8.49247159 1.03012157
Al 3.40540128 2.12426500 3.19717454
Al 3.00001925 6.37279500 3.12412189
Cu 1.50208250 0.00000000 -1.0620326599999999 0 0 0
Cu 1.50208250 4.24853000 -1.0620326599999999 0 0 0
Cu 4.50624750 2.12426500 -3.1863617000000026 0 0 0
Cu 4.50624750 6.37279500 -3.1863617000000026 0 0 0
Cu 1.52383265 4.08003330 3.11779242
Cu 1.52383265 0.16849670 3.11779242
Cu 4.54968773 6.37279500 1.06150520
Cu 4.59048429 2.12426500 0.99689184
Pd 4.50624750 0.00000000 -1.0620326599999999 0 0 0
Pd 4.50624750 4.24853000 -1.0620326599999999 0 0 0
Pd 1.50208250 2.12426500 -3.1863617000000026 0 0 0
Pd 1.50208250 6.37279500 -3.1863617000000026 0 0 0
Pd 4.54824573 4.34369707 3.06662918
Pd 4.54824573 8.40180796 3.06662918
Pd 1.46603252 6.37279500 1.12084400
Pd 1.50244300 2.12426500 1.03961578
C 1.49493259 2.12426500 3.32376398
