&CONTROL
calculation = 'relax'
prefix = 'scf'
pseudo_dir = '/vol0403/data/hp230205/u10028/POT_HYBRID_KKJUS_GBRV'
outdir = './data'
tprnfor = .true.
nstep = 50
disk_io = 'non'
/
&SYSTEM
ibrav = 0
ecutwfc = 50.0
ecutrho = 400
occupations = 'smearing'
smearing = 'mp'
degauss = 0.01
assume_isolated = 'esm'
esm_bc = 'bc1'
input_dft = 'BEEF-VDW'
nosym = .true.
nspin = 1
ntyp = 5
nat = 17
/
&ELECTRONS
electron_maxstep = 200
mixing_beta = 0.1
conv_thr = 1e-06
/
&IONS
ion_dynamics = 'bfgs'
upscale = 1.0
/
&CELL
/

K_POINTS {automatic}
12 7 3 0  0  0

ATOMIC_SPECIES
C 12.01 C.pbe-n-rrkjus_psl.1.0.0.UPF
In 114.8 In.pbe-dn-rrkjus_psl.1.0.0.UPF
Pd 106.4 Pd.pbe-n-rrkjus_psl.1.0.0.UPF
Sc 44.95 Sc.pbe-spn-rrkjus_psl.1.0.0.UPF
Y 88.90 Y.pbe-spn-rrkjus_psl.1.0.0.UPF


CELL_PARAMETERS {angstrom}
6.06590000 0.00000000 0.00000000
0.00000000 10.11530000 0.00000000
0.00000000 0.00000000 24.38870000

ATOMIC_POSITIONS {angstrom}
Y 0.81731937 2.52740886 0.82311863
Y 3.35092448 2.52882500 -2.194251340000001 0 0 0
Y 1.21942788 7.58505886 0.64313002
Y 3.35092448 7.58647500 -2.194251340000001 0 0 0
Sc 3.28577671 0.53732474 2.23400492
Sc 5.26689965 0.00000000 -0.7314171099999989 0 0 0
Sc 3.29469359 4.52022411 2.22912718
Sc 5.26689965 5.05765000 -0.7314171099999989 0 0 0
In 0.21206386 9.87121781 2.41423741
In 2.23394965 0.00000000 -0.7314171099999989 0 0 0
In 0.22013151 5.29940567 2.41667628
In 2.23394965 5.05765000 -0.7314171099999989 0 0 0
Pd 3.99506240 2.52518349 0.33607629
Pd 0.31797448 2.52882500 -2.194251340000001 0 0 0
Pd 4.26359979 7.58728422 0.42533893
Pd 0.31797448 7.58647500 -2.194251340000001 0 0 0
C 2.70090263 2.53196074 2.15888772
