&CONTROL
calculation = 'relax'
prefix = 'scf'
pseudo_dir = '/vol0004/mdt0/data/hp150275/u10028/POT_KKJUS'
outdir = './data'
tprnfor = .true.
nstep = 50
disk_io = 'non'
/
&SYSTEM
ibrav = 0
ecutwfc = 50.0
ecutrho = 400
occupations = 'smearing'
smearing = 'mp'
degauss = 0.01
assume_isolated = 'esm'
esm_bc = 'bc1'
input_dft = 'BEEF-VDW'
nosym = .true.
nspin = 1
ntyp = 5
nat = 18
/
&ELECTRONS
electron_maxstep = 200
mixing_beta = 0.1
conv_thr = 1e-06
/
&IONS
ion_dynamics = 'bfgs'
upscale = 1.0
/
&CELL
/

K_POINTS {automatic}
8 8 1 0 0 0

ATOMIC_SPECIES
C 12.01 C.pbe-n-rrkjus_psl.1.0.0.UPF
Hf 178.4 Hf.pbe-spn-rrkjus_psl.1.0.0.UPF
In 114.8 In.pbe-dn-rrkjus_psl.1.0.0.UPF
Ni 58.69 Ni.pbe-spn-rrkjus_psl.1.0.0.UPF
O 15.99 O.pbe-n-rrkjus_psl.1.0.0.UPF

CELL_PARAMETERS {angstrom}
6.31539000 0.00000000 0.00000000
0.00000000 6.31539000 0.00000000
0.00000000 0.00000000 24.73650000

ATOMIC_POSITIONS {angstrom}
Hf 6.31330592 6.31021138 2.28713679
Hf 3.15914754 3.15207430 2.30272078
Hf 3.15769500 0.00000000 -0.7893417099999986 0 0 0
Hf 0.00000000 3.15769500 -0.7893417099999986 0 0 0
In 0.00000000 0.00000000 -0.7893417099999986 0 0 0
In 3.15359000 0.00284193 2.53895436
In 6.31179023 3.16148423 2.68762072
In 3.15769500 3.15769500 -0.7893417099999986 0 0 0
Ni 1.53192415 1.62892854 0.89645076
Ni 4.73654250 4.73654250 -2.3682725100000006 0 0 0
Ni 4.77506638 1.62052907 0.89076137
Ni 1.57884750 4.73654250 -2.3682725100000006 0 0 0
Ni 4.75668859 4.70123947 0.88977191
Ni 1.57884750 1.57884750 -2.3682725100000006 0 0 0
Ni 1.55737517 4.69852385 0.89422448
Ni 4.73654250 1.57884750 -2.3682725100000006 0 0 0
C 0.01117824 3.15441100 7.11792788
O 6.31425323 3.15270584 8.25259113
