&CONTROL
calculation = 'relax'
prefix = 'scf'
pseudo_dir = '/vol0004/mdt0/data/hp150275/u10028/POT_HYBRID_KKJUS_GBRV'
outdir = './data'
tprnfor = .true.
nstep = 50
disk_io = 'non'
/
&SYSTEM
ibrav = 0
ecutwfc = 50.0
ecutrho = 400
occupations = 'smearing'
smearing = 'mp'
degauss = 0.01
assume_isolated = 'esm'
esm_bc = 'bc1'
input_dft = 'BEEF-VDW'
nosym = .true.
nspin = 2
ntyp = 4
nat = 34
starting_magnetization(1) = 0.1
starting_magnetization(2) = 0.1
starting_magnetization(3) = 0.1
starting_magnetization(4) = 0.1
/
&ELECTRONS
electron_maxstep = 200
mixing_beta = 0.1
conv_thr = 1e-06
/
&IONS
ion_dynamics = 'bfgs'
upscale = 1.0
/
&CELL
/

K_POINTS {automatic}
8 6 1 0 0 0

ATOMIC_SPECIES
C 12.01 C.pbe-n-rrkjus_psl.1.0.0.UPF
Mn 54.93 mn_pbe_v1.5.uspp.F.UPF
O 15.99 O.pbe-n-rrkjus_psl.1.0.0.UPF
Zn 65.40 Zn.pbe-dnl-rrkjus_psl.1.0.0.UPF

CELL_PARAMETERS {angstrom}
6.05499000 0.00000000 0.00000000
0.00000000 8.56306000 0.00000000
0.00000000 0.00000000 26.42230000

ATOMIC_POSITIONS {angstrom}
Mn 0.00000000 0.00000000 -3.2111021199999996 0 0 0
Mn 0.00000000 2.14076500 -1.0703673699999996 0 0 0
Mn 0.00000000 4.25301501 1.06983893
Mn 0.00000000 2.14076500 3.10594137
Mn 0.00000000 4.28153000 -3.2111021199999996 0 0 0
Mn 0.00000000 6.42229500 -1.0703673699999996 0 0 0
Mn 0.00000000 0.02851499 1.06983893
Mn 0.00000000 6.42229500 3.27425142
Mn 3.02749500 0.00000000 -3.2111021199999996 0 0 0
Mn 3.02749500 2.14076500 -1.0703673699999996 0 0 0
Mn 3.02749500 4.30105378 1.12347620
Mn 3.02749500 2.14076500 3.29591770
Mn 3.02749500 4.28153000 -3.2111021199999996 0 0 0
Mn 3.02749500 6.42229500 -1.0703673699999996 0 0 0
Mn 3.02749500 8.54353622 1.12321197
Mn 3.02749500 6.42229500 3.27108074
Zn 1.51374750 2.14076500 -3.2111021199999996 0 0 0
Zn 1.51374750 4.28153000 -1.0703673699999996 0 0 0
Zn 1.54141880 2.14076500 1.05847734
Zn 1.45622509 4.23057979 3.29063324
Zn 1.51374750 6.42229500 -3.2111021199999996 0 0 0
Zn 1.51374750 0.00000000 -1.0703673699999996 0 0 0
Zn 1.49249449 6.42229500 1.06719670
Zn 1.45622509 0.05095021 3.29036902
Zn 4.54124250 2.14076500 -3.2111021199999996 0 0 0
Zn 4.54124250 4.28153000 -1.0703673699999996 0 0 0
Zn 4.51357120 2.14076500 1.05847734
Zn 4.59876490 4.23057979 3.29063324
Zn 4.54124250 6.42229500 -3.2111021199999996 0 0 0
Zn 4.54124250 0.00000000 -1.0703673699999996 0 0 0
Zn 4.56249551 6.42229500 1.06719670
Zn 4.59876490 0.05095021 3.29036902
C 0.00000000 2.14076500 4.92617361
O 0.00000000 2.14076500 6.09536039
