&CONTROL
calculation = 'relax'
prefix = 'scf'
pseudo_dir = '/vol0403/data/hp230205/u10028/POT_HYBRID_KKJUS_GBRV'
outdir = './data'
tprnfor = .true.
nstep = 50
disk_io = 'non'
/
&SYSTEM
ibrav = 0
ecutwfc = 50.0
ecutrho = 400
occupations = 'smearing'
smearing = 'mp'
degauss = 0.01
assume_isolated = 'esm'
esm_bc = 'bc1'
input_dft = 'BEEF-VDW'
nosym = .true.
nspin = 2
ntyp = 5
nat = 33
starting_magnetization(1) = 0.0
starting_magnetization(2) = 0.0
starting_magnetization(3) = 0.0
starting_magnetization(4) = 0.001
starting_magnetization(5) = 0.0
/
&ELECTRONS
electron_maxstep = 200
mixing_beta = 0.1
conv_thr = 1e-06
/
&IONS
ion_dynamics = 'bfgs'
upscale = 1.0
/
&CELL
/

K_POINTS {automatic}
9 6 2 0  0  0

ATOMIC_SPECIES
C 12.01 C.pbe-n-rrkjus_psl.1.0.0.UPF
Ga 69.72 Ga.pbe-dnl-rrkjus_psl.1.0.0.UPF
Li 6.941 Li.pbe-sl-rrkjus_psl.1.0.0.UPF
Ni 58.69 ni_pbe_v1.4.uspp.F.UPF
Pd 106.4 Pd.pbe-n-rrkjus_psl.1.0.0.UPF


CELL_PARAMETERS {angstrom}
5.93220000 0.00000000 0.00000000
0.00000000 8.38940000 0.00000000
0.00000000 0.00000000 26.29200000

ATOMIC_POSITIONS {angstrom}
Li 0.00000000 2.09735000 25.24321212
Li 0.00000000 6.29205000 25.24321212
Li 2.96610000 4.19470000 23.14589928
Li 2.96610000 0.00000000 23.14589928
Li 0.01542372 6.29205000 3.66379020
Li 0.00302542 2.09735000 4.08209592
Li 2.97612542 0.03246698 1.01040156
Li 2.97612542 4.16223302 1.01040156
Ga 0.00000000 0.00000000 23.14589928
Ga 0.00000000 4.19470000 23.14589928
Ga 2.96610000 6.29205000 25.24321212
Ga 2.96610000 2.09735000 25.24321212
Ga 0.02936439 4.23069053 0.99909600
Ga 0.02936439 8.35340947 0.99909600
Ga 2.40859184 2.09735000 3.64775208
Ga 2.95619323 6.29205000 3.22523964
Ni 1.48305000 0.00000000 25.24321212
Ni 1.48305000 4.19470000 25.24321212
Ni 4.44915000 2.09735000 23.14589928
Ni 4.44915000 6.29205000 23.14589928
Ni 1.50090592 4.27750338 3.00517560
Ni 1.50078728 8.30676441 3.00517560
Ni 4.47744659 6.29205000 1.14186156
Ni 4.52887877 2.09735000 1.11530664
Pd 4.44915000 0.00000000 25.24321212
Pd 4.44915000 4.19470000 25.24321212
Pd 1.48305000 2.09735000 23.14589928
Pd 1.48305000 6.29205000 23.14589928
Pd 4.44695509 4.17154526 3.04645404
Pd 4.44683644 0.02315474 3.04645404
Pd 1.50232965 6.29205000 1.08401916
Pd 1.47664322 2.09735000 1.07271360
C 4.22491284 2.09743389 2.91867492
