&CONTROL
calculation = 'relax'
prefix = 'scf'
pseudo_dir = '/vol0004/mdt0/data/hp150275/u10028/POT_HYBRID_KKJUS_GBRV'
outdir = './data'
tprnfor = .true.
nstep = 50
disk_io = 'non'
/
&SYSTEM
ibrav = 0
ecutwfc = 50.0
ecutrho = 400
occupations = 'smearing'
smearing = 'mp'
degauss = 0.01
assume_isolated = 'esm'
esm_bc = 'bc1'
input_dft = 'BEEF-VDW'
nosym = .true.
nspin = 2
ntyp = 5
nat = 18
starting_magnetization(1) = 0.1
starting_magnetization(2) = 0.1
starting_magnetization(3) = 0.1
starting_magnetization(4) = 0.1
starting_magnetization(5) = 0.1
/
&ELECTRONS
electron_maxstep = 200
mixing_beta = 0.1
conv_thr = 1e-06
/
&IONS
ion_dynamics = 'bfgs'
upscale = 1.0
/
&CELL
/

K_POINTS {automatic}
8 8 1 0 0 0

ATOMIC_SPECIES
C 12.01 C.pbe-n-rrkjus_psl.1.0.0.UPF
Cu 63.54 Cu.pbe-dn-rrkjus_psl.1.0.0.UPF
Ni 58.69 ni_pbe_v1.4.uspp.F.UPF
O 15.99 O.pbe-n-rrkjus_psl.1.0.0.UPF
Sb 121.7 Sb.pbe-n-rrkjus_psl.1.0.0.UPF

CELL_PARAMETERS {angstrom}
6.01864000 0.00000000 0.00000000
0.00000000 6.01864000 0.00000000
0.00000000 0.00000000 24.51400000

ATOMIC_POSITIONS {angstrom}
Cu 6.01857981 0.00006019 2.44600692
Cu 3.00938019 3.00913944 2.06358852
Cu 3.00932000 0.00000000 -0.7523346599999989 0 0 0
Cu 0.00000000 3.00932000 -0.7523346599999989 0 0 0
Ni 1.45687200 1.45693218 0.80675574
Ni 4.51398000 4.51398000 -2.2570039800000004 0 0 0
Ni 4.56176800 1.45693218 0.80700088
Ni 1.50466000 4.51398000 -2.2570039800000004 0 0 0
Ni 4.56164763 4.56170782 0.80724602
Ni 1.50466000 1.50466000 -2.2570039800000004 0 0 0
Ni 1.45699237 4.56176800 0.80700088
Ni 4.51398000 1.50466000 -2.2570039800000004 0 0 0
Sb 0.00000000 0.00000000 -0.7523346599999989 0 0 0
Sb 3.00932000 0.00012037 2.35947250
Sb 0.00000000 3.00932000 2.35947250
Sb 3.00932000 3.00932000 -0.7523346599999989 0 0 0
C 0.00000000 0.00012037 4.32451474
O 0.00000000 0.00006019 5.47005396
