&CONTROL
calculation = 'relax'
prefix = 'scf'
pseudo_dir = '/vol0004/mdt0/data/hp150275/u10028/POT_KKJUS'
outdir = './data'
tprnfor = .true.
nstep = 50
disk_io = 'non'
/
&SYSTEM
ibrav = 0
ecutwfc = 50.0
ecutrho = 400
occupations = 'smearing'
smearing = 'mp'
degauss = 0.01
assume_isolated = 'esm'
esm_bc = 'bc1'
input_dft = 'BEEF-VDW'
nosym = .true.
nspin = 1
ntyp = 3
nat = 33
/
&ELECTRONS
electron_maxstep = 200
mixing_beta = 0.1
conv_thr = 1e-06
/
&IONS
ion_dynamics = 'bfgs'
upscale = 1.0
/
&CELL
/

K_POINTS {automatic}
8 6 1 0 0 0

ATOMIC_SPECIES
C 12.01 C.pbe-n-rrkjus_psl.1.0.0.UPF
Hf 178.4 Hf.pbe-spn-rrkjus_psl.1.0.0.UPF
Pt 195.0 Pt.pbe-n-rrkjus_psl.1.0.0.UPF

CELL_PARAMETERS {angstrom}
6.65903000 0.00000000 0.00000000
0.00000000 9.41730000 0.00000000
0.00000000 0.00000000 27.06300000

ATOMIC_POSITIONS {angstrom}
Hf 0.00000000 0.00000000 -3.5314508700000005 0 0 0
Hf 0.00000000 2.35432500 -1.1772405 0 0 0
Hf 0.00000000 0.00000000 1.18373562
Hf 0.00000000 2.24188244 3.33443223
Hf 0.00000000 4.70865000 -3.5314508700000005 0 0 0
Hf 0.00000000 7.06297500 -1.1772405 0 0 0
Hf 0.00000000 4.70865000 1.11932568
Hf 0.00000000 7.17541756 3.33443223
Hf 3.32951500 0.00000000 -3.5314508700000005 0 0 0
Hf 3.32951500 2.35432500 -1.1772405 0 0 0
Hf 3.32951500 0.00000000 1.27899738
Hf 3.32951500 2.44670871 3.63050145
Hf 3.32951500 4.70865000 -3.5314508700000005 0 0 0
Hf 3.32951500 7.06297500 -1.1772405 0 0 0
Hf 3.32951500 4.70865000 1.21810563
Hf 3.32951500 6.97059129 3.63050145
Pt 1.66475750 2.35432500 -3.5314508700000005 0 0 0
Pt 1.66475750 0.00000000 -1.1772405 0 0 0
Pt 1.82237674 2.37626731 1.18996011
Pt 2.00536688 0.00000000 3.63023082
Pt 1.66475750 7.06297500 -3.5314508700000005 0 0 0
Pt 1.66475750 4.70865000 -1.1772405 0 0 0
Pt 1.82237674 7.04103269 1.18996011
Pt 1.60489282 4.70865000 3.33578538
Pt 4.99427250 2.35432500 -3.5314508700000005 0 0 0
Pt 4.99427250 0.00000000 -1.1772405 0 0 0
Pt 4.83665326 2.37617314 1.18996011
Pt 4.65366312 0.00000000 3.63023082
Pt 4.99427250 7.06297500 -3.5314508700000005 0 0 0
Pt 4.99427250 4.70865000 -1.1772405 0 0 0
Pt 4.83665326 7.04112686 1.18996011
Pt 5.05413718 4.70865000 3.33578538
C 0.00000000 0.00000000 3.37150854
