&CONTROL
calculation = 'relax'
prefix = 'scf'
pseudo_dir = '/vol0403/data/hp230205/u10028/POT_HYBRID_KKJUS_GBRV'
outdir = './data'
tprnfor = .true.
nstep = 70
disk_io = 'non'
/
&SYSTEM
ibrav = 0
ecutwfc = 50.0
ecutrho = 400
occupations = 'smearing'
smearing = 'mp'
degauss = 0.01
assume_isolated = 'esm'
esm_bc = 'bc1'
input_dft = 'BEEF-VDW'
nosym = .true.
nspin = 1
ntyp = 6
nat = 34
/
&ELECTRONS
electron_maxstep = 200
mixing_beta = 0.1
conv_thr = 1e-06
/
&IONS
ion_dynamics = 'bfgs'
upscale = 1.0
/
&CELL
/

K_POINTS {automatic}
9 6 2 0  0  0

ATOMIC_SPECIES
Al 26.98 Al.pbe-nl-rrkjus_psl.1.0.0.UPF
C 12.01 C.pbe-n-rrkjus_psl.1.0.0.UPF
Ga 69.72 Ga.pbe-dnl-rrkjus_psl.1.0.0.UPF
O 15.99 O.pbe-n-rrkjus_psl.1.0.0.UPF
Pd 106.4 Pd.pbe-n-rrkjus_psl.1.0.0.UPF
Sc 44.95 Sc.pbe-spn-rrkjus_psl.1.0.0.UPF


CELL_PARAMETERS {angstrom}
6.45143000 0.00000000 0.00000000
-0.00000000 9.12370000 0.00000000
0.00000000 0.00000000 26.84280000

ATOMIC_POSITIONS {angstrom}
Sc 0.00000000 2.28092500 -1.140550570000002 0 0 0
Sc 0.00000000 6.84277500 -1.140550570000002 0 0 0
Sc 3.22571500 4.56185000 -3.4213832900000014 0 0 0
Sc 3.22571500 0.00000000 -3.4213832900000014 0 0 0
Sc 6.29982140 6.84277500 3.50218012
Sc 6.30472448 2.28092500 3.49654313
Sc 3.26074626 9.10280673 1.16605123
Sc 3.26074626 4.58274327 1.16605123
Al 0.00000000 0.00000000 -3.4213832900000014 0 0 0
Al 0.00000000 4.56185000 -3.4213832900000014 0 0 0
Al 3.22571500 6.84277500 -1.140550570000002 0 0 0
Al 3.22571500 2.28092500 -1.140550570000002 0 0 0
Al 6.38652861 4.54661342 1.23825836
Al 6.38652861 0.01523658 1.23825836
Al 3.20029637 2.28092500 3.37172411
Al 3.22106997 6.84277500 3.36474498
Ga 4.83857250 0.00000000 -1.140550570000002 0 0 0
Ga 4.83857250 4.56185000 -1.140550570000002 0 0 0
Ga 1.61285750 2.28092500 -3.4213832900000014 0 0 0
Ga 1.61285750 6.84277500 -3.4213832900000014 0 0 0
Ga 4.57909599 4.55372991 3.96870798
Ga 4.57903147 0.00812009 3.96870798
Ga 1.52576319 6.84277500 1.19316246
Ga 1.57982618 2.28092500 1.17920420
Pd 1.61285750 0.00000000 -1.140550570000002 0 0 0
Pd 1.61285750 4.56185000 -1.140550570000002 0 0 0
Pd 4.83857250 2.28092500 -3.4213832900000014 0 0 0
Pd 4.83857250 6.84277500 -3.4213832900000014 0 0 0
Pd 1.66750111 4.58383812 3.24771037
Pd 1.66750111 9.10171188 3.24771037
Pd 4.91773155 6.84277500 1.13035031
Pd 4.83121787 2.28092500 1.08793868
C 6.39143170 2.28092500 5.78918668
O 6.44291411 2.28092500 6.93591109
