&CONTROL
calculation = 'relax'
prefix = 'scf'
pseudo_dir = '/vol0403/data/hp230205/u10028/POT_HYBRID_KKJUS_GBRV'
outdir = './data'
tprnfor = .true.
nstep = 70
disk_io = 'non'
/
&SYSTEM
ibrav = 0
ecutwfc = 50.0
ecutrho = 400
occupations = 'smearing'
smearing = 'mp'
degauss = 0.01
assume_isolated = 'esm'
esm_bc = 'bc1'
input_dft = 'BEEF-VDW'
nosym = .true.
nspin = 1
ntyp = 6
nat = 34
/
&ELECTRONS
electron_maxstep = 200
mixing_beta = 0.1
conv_thr = 1e-06
/
&IONS
ion_dynamics = 'bfgs'
upscale = 1.0
/
&CELL
/

K_POINTS {automatic}
6 6 1 0 0 0

ATOMIC_SPECIES
Ag 107.8 Ag.pbe-n-rrkjus_psl.1.0.0.UPF
C 12.01 C.pbe-n-rrkjus_psl.1.0.0.UPF
In 114.8 In.pbe-dn-rrkjus_psl.1.0.0.UPF
O 15.99 O.pbe-n-rrkjus_psl.1.0.0.UPF
Pd 106.4 Pd.pbe-n-rrkjus_psl.1.0.0.UPF
Y 88.90 Y.pbe-spn-rrkjus_psl.1.0.0.UPF


CELL_PARAMETERS {angstrom}
6.92663000 0.00000000 0.00000000
-0.00000000 9.79574000 0.00000000
0.00000000 0.00000000 27.34680000

ATOMIC_POSITIONS {angstrom}
Y 5.19497250 0.00000000 -1.2245897000000028 0 0 0
Y 5.19497250 4.89787000 -1.2245897000000028 0 0 0
Y 1.73165750 2.44893500 -3.6734956400000023 0 0 0
Y 1.73165750 7.34680500 -3.6734956400000023 0 0 0
Y 4.87634752 5.10994777 3.59911235
Y 4.87634752 9.58366223 3.59911235
Y 1.84587763 7.34680500 1.42613562
Y 1.70208079 2.44893500 1.32112391
In 1.73165750 0.00000000 -1.2245897000000028 0 0 0
In 1.73165750 4.89787000 -1.2245897000000028 0 0 0
In 5.19497250 2.44893500 -3.6734956400000023 0 0 0
In 5.19497250 7.34680500 -3.6734956400000023 0 0 0
In 1.47364053 4.76611730 3.77221759
In 1.47350200 0.13185066 3.77221759
In 5.19067799 7.34680500 1.16360634
In 5.16837424 2.44893500 1.27572822
Ag 0.00000000 0.00000000 -3.6734956400000023 0 0 0
Ag 0.00000000 4.89787000 -3.6734956400000023 0 0 0
Ag 3.46331500 7.34680500 -1.2245897000000028 0 0 0
Ag 3.46331500 2.44893500 -1.2245897000000028 0 0 0
Ag 6.88042938 4.91138812 1.28721388
Ag 6.88049864 9.78212392 1.28721388
Ag 3.31570851 2.44893500 3.89281698
Ag 2.71897934 7.34690296 4.44221419
Pd 0.00000000 2.44893500 -1.2245897000000028 0 0 0
Pd 0.00000000 7.34680500 -1.2245897000000028 0 0 0
Pd 3.46331500 4.89787000 -3.6734956400000023 0 0 0
Pd 3.46331500 0.00000000 -3.6734956400000023 0 0 0
Pd 6.82847965 7.34680500 3.48999862
Pd 6.43442367 2.44903296 3.84277234
Pd 3.43934886 0.01371404 1.15977779
Pd 3.43934886 4.88405801 1.15977779
C 6.25807167 2.44942479 5.78084005
O 6.20272790 2.44942479 6.93624235
