&CONTROL
calculation = 'relax'
prefix = 'scf'
pseudo_dir = '/vol0004/mdt0/data/hp150275/u10028/POT_KKJUS'
outdir = './data'
tprnfor = .true.
nstep = 50
disk_io = 'non'
/
&SYSTEM
ibrav = 0
ecutwfc = 50.0
ecutrho = 400
occupations = 'smearing'
smearing = 'mp'
degauss = 0.01
assume_isolated = 'esm'
esm_bc = 'bc1'
input_dft = 'BEEF-VDW'
nosym = .true.
nspin = 1
ntyp = 2
nat = 32
/
&ELECTRONS
electron_maxstep = 200
mixing_beta = 0.1
conv_thr = 1e-06
/
&IONS
ion_dynamics = 'bfgs'
upscale = 1.0
/
&CELL
/

K_POINTS {automatic}
8 6 1 0 0 0

ATOMIC_SPECIES
Li 6.941 Li.pbe-sl-rrkjus_psl.1.0.0.UPF
Pb 207.2 Pb.pbe-dn-rrkjus_psl.1.0.0.UPF

CELL_PARAMETERS {angstrom}
6.73051000 0.00000000 0.00000000
0.00000000 9.51837000 0.00000000
0.00000000 0.00000000 27.13880000

ATOMIC_POSITIONS {angstrom}
Li 1.68262750 0.00000000 -1.1897649900000005 0 0 0
Li 5.04788250 4.75918500 -1.1897649900000005 0 0 0
Li 5.04788250 0.00000000 -1.1897649900000005 0 0 0
Li 1.68262750 4.75918500 -1.1897649900000005 0 0 0
Li 5.04788250 7.13877750 -3.5692949799999987 0 0 0
Li 1.68262750 2.37959250 -3.5692949799999987 0 0 0
Li 1.68262750 7.13877750 -3.5692949799999987 0 0 0
Li 5.04788250 2.37959250 -3.5692949799999987 0 0 0
Li 0.00000000 7.13877750 -1.1897649900000005 0 0 0
Li 3.36525500 0.00000000 -3.5692949799999987 0 0 0
Li 0.00000000 2.37959250 -1.1897649900000005 0 0 0
Li 3.36525500 4.75918500 -3.5692949799999987 0 0 0
Li 1.81966068 4.75918500 3.65722469
Li 4.91071471 0.00000000 3.65722469
Li 4.91091662 4.75928018 3.65695330
Li 1.81972799 0.00009518 3.65695330
Li 5.02695061 2.37959250 1.14661430
Li 1.70355939 7.13887268 1.14634291
Li 1.70355939 2.37959250 1.14661430
Li 5.02695061 7.13887268 1.14634291
Li 0.00000000 2.37949732 3.37470978
Li 3.36518769 4.75918500 1.21473269
Li 0.00000000 7.13896787 3.37470978
Li 3.36525500 0.00009518 1.21473269
Pb 0.00000000 0.00000000 -3.5692949799999987 0 0 0
Pb 3.36525500 2.37959250 -1.1897649900000005 0 0 0
Pb 3.36525500 7.13877750 -1.1897649900000005 0 0 0
Pb 0.00000000 4.75918500 -3.5692949799999987 0 0 0
Pb 0.00067305 4.75785243 1.32898704
Pb 3.36512039 7.13849195 3.53537148
Pb 3.36525500 2.37968768 3.53401454
Pb 6.73017347 0.00009518 1.33170092
