&CONTROL
calculation = 'relax'
prefix = 'scf'
pseudo_dir = '/vol0004/mdt0/data/hp150275/u10028/POT_KKJUS'
outdir = './data'
tprnfor = .true.
nstep = 50
disk_io = 'non'
/
&SYSTEM
ibrav = 0
ecutwfc = 50.0
ecutrho = 400
occupations = 'smearing'
smearing = 'mp'
degauss = 0.01
assume_isolated = 'esm'
esm_bc = 'bc1'
input_dft = 'BEEF-VDW'
nosym = .true.
nspin = 1
ntyp = 5
nat = 18
/
&ELECTRONS
electron_maxstep = 200
mixing_beta = 0.1
conv_thr = 1e-06
/
&IONS
ion_dynamics = 'bfgs'
upscale = 1.0
/
&CELL
/

K_POINTS {automatic}
8 8 1 0 0 0

ATOMIC_SPECIES
C 12.01 C.pbe-n-rrkjus_psl.1.0.0.UPF
Ge 72.64 Ge.pbe-dn-rrkjus_psl.1.0.0.UPF
Li 6.941 Li.pbe-sl-rrkjus_psl.1.0.0.UPF
Ni 58.69 Ni.pbe-spn-rrkjus_psl.1.0.0.UPF
O 15.99 O.pbe-n-rrkjus_psl.1.0.0.UPF

CELL_PARAMETERS {angstrom}
5.73354000 0.00000000 0.00000000
0.00000000 5.73354000 0.00000000
0.00000000 0.00000000 24.30020000

ATOMIC_POSITIONS {angstrom}
Li 5.73302398 0.00091737 2.56075508
Li 2.86785937 2.86682734 2.50826664
Li 2.86677000 0.00000000 -0.7166129000000012 0 0 0
Li 0.00000000 2.86677000 -0.7166129000000012 0 0 0
Ni 1.43430237 1.43562108 0.77614839
Ni 4.30015500 4.30015500 -2.150081700000001 0 0 0
Ni 4.29671488 1.43596509 0.77371837
Ni 1.43338500 4.30015500 -2.150081700000001 0 0 0
Ni 4.29900829 4.29935230 0.77857841
Ni 1.43338500 1.43338500 -2.150081700000001 0 0 0
Ni 1.43435970 4.29591218 0.78173743
Ni 4.30015500 1.43338500 -2.150081700000001 0 0 0
Ge 0.00000000 0.00000000 -0.7166129000000012 0 0 0
Ge 2.86608198 0.00108937 2.07645209
Ge 0.00040135 2.86550862 2.07572308
Ge 2.86677000 2.86677000 -0.7166129000000012 0 0 0
C 0.00045868 5.73313865 4.68459256
O 0.00022934 5.73279464 5.82451494
