&CONTROL
calculation = 'relax'
prefix = 'scf'
pseudo_dir = '/vol0004/mdt0/data/hp150275/u10028/POT_HYBRID_KKJUS_GBRV'
outdir = './data'
tprnfor = .true.
nstep = 50
disk_io = 'non'
/
&SYSTEM
ibrav = 0
ecutwfc = 50.0
ecutrho = 400
occupations = 'smearing'
smearing = 'mp'
degauss = 0.01
assume_isolated = 'esm'
esm_bc = 'bc1'
input_dft = 'BEEF-VDW'
nosym = .true.
nspin = 2
ntyp = 4
nat = 33
starting_magnetization(1) = 0.0
starting_magnetization(2) = 0.1
starting_magnetization(3) = 0.1
starting_magnetization(4) = 0.0
/
&ELECTRONS
electron_maxstep = 300
mixing_beta = 0.1
conv_thr = 1e-06
/
&IONS
ion_dynamics = 'bfgs'
upscale = 1.0
/
&CELL
/

K_POINTS {automatic}
9 6 2 0  0  0

ATOMIC_SPECIES
C 12.01 C.pbe-n-rrkjus_psl.1.0.0.UPF
Fe 55.84 fe_pbe_v1.5.uspp.F.UPF
Mn 54.93 mn_pbe_v1.5.uspp.F.UPF
Si 28.08 Si.pbe-nl-rrkjus_psl.1.0.0.UPF

CELL_PARAMETERS {angstrom}
5.59397000 0.00000000 0.00000000
0.00000000 7.91107000 0.00000000
0.00000000 0.00000000 25.93330000

ATOMIC_POSITIONS {angstrom}
Mn 0.00000000 0.00000000 -2.9667695199999997 0 0 0
Mn 2.79698500 1.97776750 -0.9888367299999992 0 0 0
Mn 2.79698500 5.93330250 -0.9888367299999992 0 0 0
Mn 0.00000000 3.95553500 -2.9667695199999997 0 0 0
Mn 0.00005594 3.95545589 1.02695868
Mn 2.79692906 6.01280875 3.12314732
Mn 2.79692906 1.89834036 3.12340665
Mn 0.00000000 0.00007911 0.92478148
Fe 1.39849250 0.00000000 -0.9888367299999992 0 0 0
Fe 4.19547750 3.95553500 -0.9888367299999992 0 0 0
Fe 4.19547750 0.00000000 -0.9888367299999992 0 0 0
Fe 1.39849250 3.95553500 -0.9888367299999992 0 0 0
Fe 4.19547750 5.93330250 -2.9667695199999997 0 0 0
Fe 1.39849250 1.97776750 -2.9667695199999997 0 0 0
Fe 1.39849250 5.93330250 -2.9667695199999997 0 0 0
Fe 4.19547750 1.97776750 -2.9667695199999997 0 0 0
Fe 1.39810092 3.95561411 3.02382278
Fe 4.36665298 0.00000000 2.98181083
Fe 4.19592502 3.95561411 3.02408211
Fe 1.22742890 0.00000000 2.98155150
Fe 4.17349320 1.97673906 0.98261274
Fe 1.42075650 5.93425183 0.98235340
Fe 1.42047680 1.97681817 0.98235340
Fe 4.17321350 5.93425183 0.98261274
Si 0.00000000 5.93330250 -0.9888367299999992 0 0 0
Si 2.79698500 0.00000000 -2.9667695199999997 0 0 0
Si 0.00000000 1.97776750 -0.9888367299999992 0 0 0
Si 2.79698500 3.95553500 -2.9667695199999997 0 0 0
Si 0.00005594 2.03971118 2.93331556
Si 2.79709688 3.95529767 1.03499800
Si 0.00005594 5.87135882 2.93357490
Si 2.79704094 0.00023733 0.96731209
C 2.79698500 7.91091178 3.88480834
