&CONTROL
calculation = 'relax'
prefix = 'scf'
pseudo_dir = '/vol0004/mdt0/data/hp150275/u10028/POT_HYBRID_KKJUS_GBRV'
outdir = './data'
tprnfor = .true.
nstep = 50
disk_io = 'non'
/
&SYSTEM
ibrav = 0
ecutwfc = 50.0
ecutrho = 400
occupations = 'smearing'
smearing = 'mp'
degauss = 0.01
assume_isolated = 'esm'
esm_bc = 'bc1'
input_dft = 'BEEF-VDW'
nosym = .true.
nspin = 2
ntyp = 4
nat = 34
starting_magnetization(1) = 0.1
starting_magnetization(2) = 0.1
starting_magnetization(3) = 0.1
starting_magnetization(4) = 0.1
/
&ELECTRONS
electron_maxstep = 200
mixing_beta = 0.1
conv_thr = 1e-06
/
&IONS
ion_dynamics = 'bfgs'
upscale = 1.0
/
&CELL
/

K_POINTS {automatic}
8 6 1 0 0 0

ATOMIC_SPECIES
C 12.01 C.pbe-n-rrkjus_psl.1.0.0.UPF
Co 58.93 co_pbe_v1.2.uspp.F.UPF
Ga 69.72 Ga.pbe-dnl-rrkjus_psl.1.0.0.UPF
O 15.99 O.pbe-n-rrkjus_psl.1.0.0.UPF

CELL_PARAMETERS {angstrom}
5.76941000 0.00000000 0.00000000
0.00000000 8.15918000 0.00000000
0.00000000 0.00000000 26.11940000

ATOMIC_POSITIONS {angstrom}
Ga 1.44235250 2.03979500 -3.0596265199999984 0 0 0
Ga 1.44235250 0.00000000 -1.0199625700000006 0 0 0
Ga 1.44241019 2.05823475 0.99488795
Ga 1.44241019 8.15869045 3.18003695
Ga 1.44235250 6.11938500 -3.0596265199999984 0 0 0
Ga 1.44235250 4.07959000 -1.0199625700000006 0 0 0
Ga 1.44235250 6.10094525 0.99488795
Ga 1.44229481 4.08007955 3.27537276
Ga 4.32705750 2.03979500 -3.0596265199999984 0 0 0
Ga 4.32705750 0.00000000 -1.0199625700000006 0 0 0
Ga 4.32699981 2.03971341 0.98261183
Ga 4.32699981 8.15869045 3.25003694
Ga 4.32705750 6.11938500 -3.0596265199999984 0 0 0
Ga 4.32705750 4.07959000 -1.0199625700000006 0 0 0
Ga 4.32705750 6.11938500 0.98287302
Ga 4.32705750 4.08007955 3.30305932
Co 0.00000000 0.00000000 -3.0596265199999984 0 0 0
Co 0.00000000 2.03979500 -1.0199625700000006 0 0 0
Co 0.00213468 8.15901682 1.01421630
Co 5.75077481 2.05782679 2.93346981
Co 0.00000000 4.07959000 -3.0596265199999984 0 0 0
Co 0.00000000 6.11938500 -1.0199625700000006 0 0 0
Co 5.75827504 4.07967159 1.00716406
Co 5.75077481 6.10135321 2.93346981
Co 2.88470500 0.00000000 -3.0596265199999984 0 0 0
Co 2.88470500 2.03979500 -1.0199625700000006 0 0 0
Co 2.88257032 8.15901682 1.01421630
Co 2.90334019 2.05790838 2.93346981
Co 2.88470500 4.07959000 -3.0596265199999984 0 0 0
Co 2.88470500 6.11938500 -1.0199625700000006 0 0 0
Co 2.89583996 4.07975318 1.00716406
Co 2.90334019 6.10135321 2.93346981
C 1.44241019 0.00032637 5.26567104
O 1.44235250 0.00000000 6.40996195
