&CONTROL
calculation = 'relax'
prefix = 'scf'
pseudo_dir = '/vol0004/mdt0/data/hp150275/u10028/POT_KKJUS'
outdir = './data'
tprnfor = .true.
nstep = 50
disk_io = 'non'
/
&SYSTEM
ibrav = 0
ecutwfc = 50.0
ecutrho = 400
occupations = 'smearing'
smearing = 'mp'
degauss = 0.01
assume_isolated = 'esm'
esm_bc = 'bc1'
input_dft = 'BEEF-VDW'
nosym = .true.
nspin = 1
ntyp = 2
nat = 16
/
&ELECTRONS
electron_maxstep = 200
mixing_beta = 0.1
conv_thr = 1e-06
/
&IONS
ion_dynamics = 'bfgs'
upscale = 1.0
/
&CELL
/

K_POINTS {automatic}
9 9 2 0  0  0

ATOMIC_SPECIES
Au 196.9 Au.pbe-n-rrkjus_psl.1.0.0.UPF
Y 88.90 Y.pbe-spn-rrkjus_psl.1.0.0.UPF

CELL_PARAMETERS {angstrom}
7.24612000 0.00000000 0.00000000
-0.00000000 7.24612000 0.00000000
0.00000000 0.00000000 25.43460000

ATOMIC_POSITIONS {angstrom}
Y 0.00000000 0.00000000 -2.3748286000000007 0 0 0
Y 0.00000000 0.00000000 1.24807582
Y 0.00000000 3.62306000 -2.3748286000000007 0 0 0
Y 0.00000000 3.62306000 1.24807582
Y 3.62306000 0.00000000 -2.3748286000000007 0 0 0
Y 3.62306000 -0.00000000 1.24807582
Y 3.62306000 3.62306000 -2.3748286000000007 0 0 0
Y 3.62306000 3.62306000 1.24807582
Au 1.81153000 1.81153000 -0.5633763899999984 0 0 0
Au 1.81153000 1.81153000 3.05978238
Au 1.81153000 5.43459000 -0.5633763899999984 0 0 0
Au 1.81153000 5.43459000 3.05978238
Au 5.43459000 1.81153000 -0.5633763899999984 0 0 0
Au 5.43459000 1.81153000 3.05978238
Au 5.43459000 5.43459000 -0.5633763899999984 0 0 0
Au 5.43459000 5.43459000 3.05978238
