&CONTROL
calculation = 'relax'
prefix = 'scf'
pseudo_dir = '/vol0004/mdt0/data/hp150275/u10028/POT_KKJUS'
outdir = './data'
tprnfor = .true.
nstep = 50
disk_io = 'non'
/
&SYSTEM
ibrav = 0
ecutwfc = 50.0
ecutrho = 400
occupations = 'smearing'
smearing = 'mp'
degauss = 0.01
assume_isolated = 'esm'
esm_bc = 'bc1'
input_dft = 'BEEF-VDW'
nosym = .true.
nspin = 1
ntyp = 5
nat = 34
/
&ELECTRONS
electron_maxstep = 200
mixing_beta = 0.1
conv_thr = 1e-06
/
&IONS
ion_dynamics = 'bfgs'
upscale = 1.0
/
&CELL
/

K_POINTS {automatic}
9 6 2 0  0  0

ATOMIC_SPECIES
C 12.01 C.pbe-n-rrkjus_psl.1.0.0.UPF
Ge 72.64 Ge.pbe-dn-rrkjus_psl.1.0.0.UPF
Li 6.941 Li.pbe-sl-rrkjus_psl.1.0.0.UPF
O 15.99 O.pbe-n-rrkjus_psl.1.0.0.UPF
Zn 65.40 Zn.pbe-dnl-rrkjus_psl.1.0.0.UPF

CELL_PARAMETERS {angstrom}
6.18893000 0.00000000 0.00000000
0.00000000 8.75246000 0.00000000
0.00000000 0.00000000 26.56430000

ATOMIC_POSITIONS {angstrom}
Li 0.00000000 0.00000000 -3.282284909999998 0 0 0
Li 3.09446500 2.18811500 -1.0941835199999979 0 0 0
Li 3.09446500 6.56434500 -1.0941835199999979 0 0 0
Li 0.00000000 4.37623000 -3.282284909999998 0 0 0
Li 1.54723250 2.18811500 -3.282284909999998 0 0 0
Li 1.54723250 6.56434500 -3.282284909999998 0 0 0
Li 4.64169750 4.37623000 -1.0941835199999979 0 0 0
Li 4.64169750 0.00000000 -1.0941835199999979 0 0 0
Li 6.07697226 4.36774011 1.09657430
Li 3.04749102 6.56434500 3.35772752
Li 2.94568312 2.18811500 3.43131063
Li 6.07697226 0.00848989 1.09657430
Li 1.51944420 6.56434500 1.12154475
Li 1.56425206 2.18811500 1.11649753
Li 4.82105269 0.03711043 3.66906112
Li 4.82105269 4.33911957 3.66879547
Zn 1.54723250 0.00000000 -1.0941835199999979 0 0 0
Zn 1.54723250 4.37623000 -1.0941835199999979 0 0 0
Zn 4.64169750 6.56434500 -3.282284909999998 0 0 0
Zn 4.64169750 2.18811500 -3.282284909999998 0 0 0
Zn 1.37852227 4.39671076 3.19356015
Zn 1.37852227 8.73197924 3.19356015
Zn 4.61947924 2.18811500 1.21106644
Zn 4.65710794 6.56434500 1.15368755
Ge 0.00000000 6.56434500 -1.0941835199999979 0 0 0
Ge 3.09446500 0.00000000 -3.282284909999998 0 0 0
Ge 0.00000000 2.18811500 -1.0941835199999979 0 0 0
Ge 3.09446500 4.37623000 -3.282284909999998 0 0 0
Ge 0.04010427 2.18811500 3.31150564
Ge 3.14793736 4.39539789 1.23895895
Ge 6.18379319 6.56434500 3.37632253
Ge 3.14793736 8.73329211 1.23895895
C 3.10690475 2.18811500 5.49004388
O 3.12621421 2.18811500 6.63443392
