&CONTROL
calculation = 'relax'
prefix = 'scf'
pseudo_dir = '/vol0403/data/hp230205/u10028/POT_HYBRID_KKJUS_GBRV'
outdir = './data'
tprnfor = .true.
nstep = 50
disk_io = 'non'
/
&SYSTEM
ibrav = 0
ecutwfc = 50.0
ecutrho = 400
occupations = 'smearing'
smearing = 'mp'
degauss = 0.01
assume_isolated = 'esm'
esm_bc = 'bc1'
input_dft = 'BEEF-VDW'
nosym = .true.
nspin = 1
ntyp = 5
nat = 17
/
&ELECTRONS
electron_maxstep = 200
mixing_beta = 0.1
conv_thr = 1e-06
/
&IONS
ion_dynamics = 'bfgs'
upscale = 1.0
/
&CELL
/

K_POINTS {automatic}
11 7 2 0  0  0

ATOMIC_SPECIES
C 12.01 C.pbe-n-rrkjus_psl.1.0.0.UPF
In 114.8 In.pbe-dn-rrkjus_psl.1.0.0.UPF
Li 6.941 Li.pbe-sl-rrkjus_psl.1.0.0.UPF
Pb 207.2 Pb.pbe-dn-rrkjus_psl.1.0.0.UPF
Y 88.90 Y.pbe-spn-rrkjus_psl.1.0.0.UPF


CELL_PARAMETERS {angstrom}
6.51578000 0.00000000 0.00000000
0.00000000 9.32892000 0.00000000
0.00000000 0.00000000 24.88170000

ATOMIC_POSITIONS {angstrom}
Li 1.69964121 2.33223000 0.60288359
Li 4.66301796 2.33223000 -2.44089477 0 0 0
Li 1.89980597 6.99669000 0.66558547
Li 4.66301796 6.99669000 -2.44089477 0 0 0
Y 3.46821938 0.35011437 2.65214040
Y 6.36656864 0.00000000 -0.81363159 0 0 0
Y 3.46802391 4.31434563 2.65214040
Y 6.36656864 4.66446000 -0.81363159 0 0 0
In 0.16973607 0.45301236 2.79421491
In 3.10867864 0.00000000 -0.81363159 0 0 0
In 0.16954060 4.21135436 2.79446373
In 3.10867864 4.66446000 -0.81363159 0 0 0
Pb 5.08139619 2.33223000 0.71534887
Pb 1.40512796 2.33223000 -2.44089477 0 0 0
Pb 5.13756221 6.99669000 1.38989176
Pb 1.40512796 6.99669000 -2.44089477 0 0 0
C 4.44930037 2.33232329 3.03805557
