&CONTROL
calculation = 'relax'
prefix = 'scf'
pseudo_dir = '/vol0004/mdt0/data/hp150275/u10028/POT_KKJUS'
outdir = './data'
tprnfor = .true.
nstep = 50
disk_io = 'non'
/
&SYSTEM
ibrav = 0
ecutwfc = 50.0
ecutrho = 400
occupations = 'smearing'
smearing = 'mp'
degauss = 0.01
assume_isolated = 'esm'
esm_bc = 'bc1'
input_dft = 'BEEF-VDW'
nosym = .true.
nspin = 1
ntyp = 3
nat = 32
/
&ELECTRONS
electron_maxstep = 200
mixing_beta = 0.1
conv_thr = 1e-06
/
&IONS
ion_dynamics = 'bfgs'
upscale = 1.0
/
&CELL
/

K_POINTS {automatic}
9 6 2 0  0  0

ATOMIC_SPECIES
Al 26.98 Al.pbe-nl-rrkjus_psl.1.0.0.UPF
Ni 58.69 Ni.pbe-spn-rrkjus_psl.1.0.0.UPF
Zr 91.22 Zr.pbe-spn-rrkjus_psl.1.0.0.UPF

CELL_PARAMETERS {angstrom}
6.14888000 0.00000000 0.00000000
0.00000000 8.69583000 0.00000000
0.00000000 0.00000000 26.52190000

ATOMIC_POSITIONS {angstrom}
Zr 0.00000000 0.00000000 -3.2608676099999983 0 0 0
Zr 3.07444000 2.17395750 -1.086867459999997 0 0 0
Zr 3.07444000 6.52187250 -1.086867459999997 0 0 0
Zr 0.00000000 4.34791500 -3.2608676099999983 0 0 0
Zr 0.00000000 4.34800196 1.04867593
Zr 3.07444000 6.52178554 3.38949882
Zr 3.07444000 2.17404446 3.38949882
Zr 0.00000000 8.69574304 1.04894114
Al 0.00000000 6.52187250 -1.086867459999997 0 0 0
Al 3.07444000 0.00000000 -3.2608676099999983 0 0 0
Al 0.00000000 2.17395750 -1.086867459999997 0 0 0
Al 3.07444000 4.34791500 -3.2608676099999983 0 0 0
Al 0.00000000 2.17395750 3.18236278
Al 3.07444000 4.34782804 1.14654174
Al 0.00000000 6.52187250 3.18236278
Al 3.07444000 0.00008696 1.14654174
Ni 1.53722000 0.00000000 -1.086867459999997 0 0 0
Ni 4.61166000 4.34791500 -1.086867459999997 0 0 0
Ni 4.61166000 0.00000000 -1.086867459999997 0 0 0
Ni 1.53722000 4.34791500 -1.086867459999997 0 0 0
Ni 4.61166000 6.52187250 -3.2608676099999983 0 0 0
Ni 1.53722000 2.17395750 -3.2608676099999983 0 0 0
Ni 1.53722000 6.52187250 -3.2608676099999983 0 0 0
Ni 4.61166000 2.17395750 -3.2608676099999983 0 0 0
Ni 1.45291886 4.34791500 3.12878854
Ni 4.69577668 0.00000000 3.12878854
Ni 4.69596114 4.34782804 3.12878854
Ni 1.45310332 0.00000000 3.12878854
Ni 4.48868240 2.17395750 1.17836802
Ni 1.66050504 6.52187250 1.17836802
Ni 1.66025909 2.17395750 1.17836802
Ni 4.48837496 6.52187250 1.17836802
