&CONTROL
calculation = 'relax'
prefix = 'scf'
pseudo_dir = '/vol0403/data/hp230205/u10028/POT_HYBRID_KKJUS_GBRV'
outdir = './data'
tprnfor = .true.
nstep = 50
disk_io = 'non'
/
&SYSTEM
ibrav = 0
ecutwfc = 50.0
ecutrho = 400
occupations = 'smearing'
smearing = 'mp'
degauss = 0.01
assume_isolated = 'esm'
esm_bc = 'bc1'
input_dft = 'BEEF-VDW'
nosym = .true.
nspin = 2
ntyp = 6
nat = 34
starting_magnetization(1) = 0.0
starting_magnetization(2) = 0.0
starting_magnetization(3) = 0.0
starting_magnetization(4) = 0.001
starting_magnetization(5) = 0.0
starting_magnetization(6) = 0.0
/
&ELECTRONS
electron_maxstep = 200
mixing_beta = 0.1
conv_thr = 1e-06
/
&IONS
ion_dynamics = 'bfgs'
upscale = 1.0
/
&CELL
/

K_POINTS {automatic}
9 6 2 0  0  0

ATOMIC_SPECIES
Al 26.98 Al.pbe-nl-rrkjus_psl.1.0.0.UPF
C 12.01 C.pbe-n-rrkjus_psl.1.0.0.UPF
Li 6.941 Li.pbe-sl-rrkjus_psl.1.0.0.UPF
Ni 58.69 ni_pbe_v1.4.uspp.F.UPF
O 15.99 O.pbe-n-rrkjus_psl.1.0.0.UPF
Pd 106.4 Pd.pbe-n-rrkjus_psl.1.0.0.UPF


CELL_PARAMETERS {angstrom}
5.91240000 0.00000000 0.00000000
0.00000000 8.36140000 0.00000000
0.00000000 0.00000000 26.27110000

ATOMIC_POSITIONS {angstrom}
Li 0.00000000 2.09035000 25.22603564
Li 0.00000000 6.27105000 25.22603564
Li 2.95620000 4.18070000 23.13564422
Li 2.95620000 0.00000000 23.13564422
Li 0.07053493 6.27105000 3.57392044
Li 0.05108314 2.09035000 3.48039533
Li 2.98292405 8.35613232 0.99620011
Li 2.98292405 4.18596768 0.99620011
Al 0.00000000 0.00000000 23.13564422
Al 0.00000000 4.18070000 23.13564422
Al 2.95620000 6.27105000 25.22603564
Al 2.95620000 2.09035000 25.22603564
Al 0.00041387 4.16105071 1.02641188
Al 0.00041387 0.01964929 1.02641188
Al 2.95371679 2.09035000 3.19193865
Al 2.94603067 6.27105000 3.06715093
Ni 1.47810000 0.00000000 25.22603564
Ni 1.47810000 4.18070000 25.22603564
Ni 4.43430000 2.09035000 23.13564422
Ni 4.43430000 6.27105000 23.13564422
Ni 1.57861080 4.20494806 2.94551573
Ni 1.57861080 8.33715194 2.94551573
Ni 4.48408241 6.27105000 1.04742876
Ni 4.45109122 2.09035000 1.09524216
Pd 4.43430000 0.00000000 25.22603564
Pd 4.43430000 4.18070000 25.22603564
Pd 1.47810000 2.09035000 23.13564422
Pd 1.47810000 6.27105000 23.13564422
Pd 4.41165551 4.20871069 3.04271880
Pd 4.41165551 8.33338931 3.04298151
Pd 1.43085992 6.27105000 1.03166610
Pd 1.47792263 2.09035000 1.08814896
C 2.89122272 2.09035000 5.20010153
O 2.86698188 2.09035000 6.35576722
