&CONTROL
calculation = 'relax'
prefix = 'scf'
pseudo_dir = '/vol0004/mdt0/data/hp150275/u10028/POT_HYBRID_KKJUS_GBRV'
outdir = './data'
tprnfor = .true.
nstep = 50
disk_io = 'non'
/
&SYSTEM
ibrav = 0
ecutwfc = 50.0
ecutrho = 400
occupations = 'smearing'
smearing = 'mp'
degauss = 0.01
assume_isolated = 'esm'
esm_bc = 'bc1'
input_dft = 'BEEF-VDW'
nosym = .true.
nspin = 2
ntyp = 3
nat = 32
starting_magnetization(1) = 0.0
starting_magnetization(2) = 0.001
starting_magnetization(3) = 0.0
/
&ELECTRONS
electron_maxstep = 200
mixing_beta = 0.1
conv_thr = 1e-06
/
&IONS
ion_dynamics = 'bfgs'
upscale = 1.0
/
&CELL
/

K_POINTS {automatic}
9 6 2 0  0  0

ATOMIC_SPECIES
Al 26.98 Al.pbe-nl-rrkjus_psl.1.0.0.UPF
Ni 58.69 ni_pbe_v1.4.uspp.F.UPF
Ti 47.86 Ti.pbe-spn-rrkjus_psl.1.0.0.UPF

CELL_PARAMETERS {angstrom}
5.91339000 0.00000000 0.00000000
0.00000000 8.36280000 0.00000000
0.00000000 0.00000000 26.27210000

ATOMIC_POSITIONS {angstrom}
Ti 0.00000000 0.00000000 23.13599942
Ti 2.95669500 2.09070000 25.22673314
Ti 2.95669500 6.27210000 25.22673314
Ti 0.00000000 4.18140000 23.13599942
Ti 0.00000000 4.18140000 1.04379053
Ti 2.95669500 6.27210000 3.18050043
Ti 2.95669500 2.09070000 3.18050043
Ti 0.00000000 8.36271637 1.04352781
Al 0.00000000 6.27210000 25.22673314
Al 2.95669500 0.00000000 23.13599942
Al 0.00000000 2.09070000 25.22673314
Al 2.95669500 4.18140000 23.13599942
Al 0.00000000 2.09061637 3.13058344
Al 2.95669500 4.18148363 1.05324849
Al 0.00000000 6.27218363 3.13058344
Al 2.95669500 8.36271637 1.05298577
Ni 1.47834750 0.00000000 25.22673314
Ni 4.43504250 4.18140000 25.22673314
Ni 4.43504250 0.00000000 25.22673314
Ni 1.47834750 4.18140000 25.22673314
Ni 4.43504250 6.27210000 23.13599942
Ni 1.47834750 2.09070000 23.13599942
Ni 1.47834750 6.27210000 23.13599942
Ni 4.43504250 2.09070000 23.13599942
Ni 1.44428637 4.18165088 3.01078266
Ni 4.46874882 8.36271637 3.00868089
Ni 4.46910363 4.18165088 3.01104538
Ni 1.44464118 8.36271637 3.00868089
Ni 4.36839859 2.08902744 1.07268984
Ni 1.54457747 6.27360530 1.07268984
Ni 1.54499141 2.08902744 1.07268984
Ni 4.36881253 6.27360530 1.07268984
