&CONTROL
calculation = 'relax'
prefix = 'scf'
pseudo_dir = '/vol0004/mdt0/data/hp150275/u10028/POT_KKJUS'
outdir = './data'
tprnfor = .true.
nstep = 50
disk_io = 'non'
/
&SYSTEM
ibrav = 0
ecutwfc = 50.0
ecutrho = 400
occupations = 'smearing'
smearing = 'mp'
degauss = 0.01
assume_isolated = 'esm'
esm_bc = 'bc1'
input_dft = 'BEEF-VDW'
nosym = .true.
nspin = 1
ntyp = 5
nat = 34
/
&ELECTRONS
electron_maxstep = 200
mixing_beta = 0.1
conv_thr = 1e-06
/
&IONS
ion_dynamics = 'bfgs'
upscale = 1.0
/
&CELL
/

K_POINTS {automatic}
9 6 2 0  0  0

ATOMIC_SPECIES
C 12.01 C.pbe-n-rrkjus_psl.1.0.0.UPF
Cu 63.54 Cu.pbe-dn-rrkjus_psl.1.0.0.UPF
Li 6.941 Li.pbe-sl-rrkjus_psl.1.0.0.UPF
O 15.99 O.pbe-n-rrkjus_psl.1.0.0.UPF
Sb 121.7 Sb.pbe-n-rrkjus_psl.1.0.0.UPF

CELL_PARAMETERS {angstrom}
6.37457000 0.00000000 0.00000000
0.00000000 9.01500000 0.00000000
0.00000000 0.00000000 26.76130000

ATOMIC_POSITIONS {angstrom}
Li 0.00000000 6.76125000 -1.1269183399999996 0 0 0
Li 3.18728500 0.00000000 -3.3807550299999996 0 0 0
Li 0.00000000 2.25375000 -1.1269183399999996 0 0 0
Li 3.18728500 4.50750000 -3.3807550299999996 0 0 0
Li 1.59364250 0.00000000 -1.1269183399999996 0 0 0
Li 1.59364250 4.50750000 -1.1269183399999996 0 0 0
Li 4.78092750 6.76125000 -3.3807550299999996 0 0 0
Li 4.78092750 2.25375000 -3.3807550299999996 0 0 0
Li 6.27614664 2.25375000 3.57129549
Li 3.22170768 4.55464845 1.10524169
Li 6.12965902 6.76125000 3.74792007
Li 3.22164393 8.96794170 1.10524169
Li 1.66784249 4.56772020 3.25444169
Li 1.66790624 8.95477980 3.25444169
Li 4.74522991 2.25375000 1.22031528
Li 4.93257852 6.76125000 1.09774853
Cu 0.00000000 0.00000000 -3.3807550299999996 0 0 0
Cu 3.18728500 2.25375000 -1.1269183399999996 0 0 0
Cu 3.18728500 6.76125000 -1.1269183399999996 0 0 0
Cu 0.00000000 4.50750000 -3.3807550299999996 0 0 0
Cu 6.32701571 4.45692585 1.14083422
Cu 3.40663395 6.76134015 3.08985970
Cu 3.17651198 2.25365985 3.43802421
Cu 6.32707945 0.05066430 1.14083422
Sb 1.59364250 2.25375000 -3.3807550299999996 0 0 0
Sb 1.59364250 6.76125000 -3.3807550299999996 0 0 0
Sb 4.78092750 4.50750000 -1.1269183399999996 0 0 0
Sb 4.78092750 0.00000000 -1.1269183399999996 0 0 0
Sb 1.49993632 6.76125000 1.25456974
Sb 1.58427188 2.25375000 1.19489205
Sb 4.75409056 0.01000665 3.42303788
Sb 4.75409056 4.49749335 3.42303788
C 2.48742096 2.25375000 5.17991723
O 2.35431994 2.25375000 6.32797700
