&CONTROL
calculation = 'relax'
prefix = 'scf'
pseudo_dir = '/vol0004/mdt0/data/hp150275/u10028/POT_KKJUS'
outdir = './data'
tprnfor = .true.
nstep = 50
disk_io = 'non'
/
&SYSTEM
ibrav = 0
ecutwfc = 50.0
ecutrho = 400
occupations = 'smearing'
smearing = 'mp'
degauss = 0.01
assume_isolated = 'esm'
esm_bc = 'bc1'
input_dft = 'BEEF-VDW'
nosym = .true.
nspin = 1
ntyp = 3
nat = 33
/
&ELECTRONS
electron_maxstep = 200
mixing_beta = 0.1
conv_thr = 1e-06
/
&IONS
ion_dynamics = 'bfgs'
upscale = 1.0
/
&CELL
/

K_POINTS {automatic}
9 6 2 0  0  0

ATOMIC_SPECIES
C 12.01 C.pbe-n-rrkjus_psl.1.0.0.UPF
Ru 101.0 Ru.pbe-spn-rrkjus_psl.1.0.0.UPF
V 50.94 V.pbe-spnl-rrkjus_psl.1.0.0.UPF

CELL_PARAMETERS {angstrom}
6.03636000 0.00000000 0.00000000
0.00000000 8.53670000 0.00000000
0.00000000 0.00000000 26.40250000

ATOMIC_POSITIONS {angstrom}
V 1.50909000 2.13417500 -3.2013031199999986 0 0 0
V 1.50909000 0.00000000 -1.0671890499999996 0 0 0
V 1.50444200 2.13904092 1.12738675
V 1.80450946 0.00025610 3.28684723
V 1.50909000 6.40252500 -3.2013031199999986 0 0 0
V 1.50909000 4.26835000 -1.0671890499999996 0 0 0
V 1.50462309 6.39825665 1.12791480
V 1.49055837 4.26817927 3.31351375
V 4.52727000 2.13417500 -3.2013031199999986 0 0 0
V 4.52727000 0.00000000 -1.0671890499999996 0 0 0
V 4.53203872 2.13904092 1.12738675
V 4.23215236 0.00025610 3.28658320
V 4.52727000 6.40252500 -3.2013031199999986 0 0 0
V 4.52727000 4.26835000 -1.0671890499999996 0 0 0
V 4.53191800 6.39825665 1.12791480
V 4.54610344 4.26817927 3.31324972
Ru 0.00000000 0.00000000 -3.2013031199999986 0 0 0
Ru 0.00000000 2.13417500 -1.0671890499999996 0 0 0
Ru 6.03629964 0.00051220 1.03973045
Ru 0.00000000 2.06639360 3.09516508
Ru 0.00000000 4.26835000 -3.2013031199999986 0 0 0
Ru 0.00000000 6.40252500 -1.0671890499999996 0 0 0
Ru 0.00000000 4.26843537 1.19682533
Ru 0.00000000 6.47081860 3.09595715
Ru 3.01818000 0.00000000 -3.2013031199999986 0 0 0
Ru 3.01818000 2.13417500 -1.0671890499999996 0 0 0
Ru 3.01799891 0.00059757 1.01544015
Ru 3.01836109 2.25667665 3.07562722
Ru 3.01818000 4.26835000 -3.2013031199999986 0 0 0
Ru 3.01818000 6.40252500 -1.0671890499999996 0 0 0
Ru 3.01811964 4.26843537 1.06798112
Ru 3.01836109 6.28002336 3.07668332
C 0.00012073 0.00051220 3.83892350
