&CONTROL
calculation = 'relax'
prefix = 'scf'
pseudo_dir = '/vol0004/mdt0/data/hp150275/u10028/POT_HYBRID_KKJUS_GBRV'
outdir = './data'
tprnfor = .true.
nstep = 50
disk_io = 'non'
/
&SYSTEM
ibrav = 0
ecutwfc = 50.0
ecutrho = 400
occupations = 'smearing'
smearing = 'mp'
degauss = 0.01
assume_isolated = 'esm'
esm_bc = 'bc1'
input_dft = 'BEEF-VDW'
nosym = .true.
nspin = 2
ntyp = 4
nat = 33
starting_magnetization(1) = 0.0
starting_magnetization(2) = 0.0
starting_magnetization(3) = 0.001
starting_magnetization(4) = 0.0
/
&ELECTRONS
electron_maxstep = 300
mixing_beta = 0.1
conv_thr = 1e-06
/
&IONS
ion_dynamics = 'bfgs'
upscale = 1.0
/
&CELL
/

K_POINTS {automatic}
8 6 1 0 0 0

ATOMIC_SPECIES
C 12.01 C.pbe-n-rrkjus_psl.1.0.0.UPF
Li 6.941 Li.pbe-sl-rrkjus_psl.1.0.0.UPF
Ni 58.69 ni_pbe_v1.4.uspp.F.UPF
Sn 118.7 Sn.pbe-dn-rrkjus_psl.1.0.0.UPF

CELL_PARAMETERS {angstrom}
6.04935000 0.00000000 0.00000000
0.00000000 8.55507000 0.00000000
0.00000000 0.00000000 26.41630000

ATOMIC_POSITIONS {angstrom}
Li 0.00000000 0.00000000 -3.2082596300000006 0 0 0
Li 3.02467500 2.13876750 -1.0693318199999986 0 0 0
Li 3.02467500 6.41630250 -1.0693318199999986 0 0 0
Li 0.00000000 4.27753500 -3.2082596300000006 0 0 0
Li 0.00000000 4.27727835 0.93566535
Li 3.02467500 6.37866019 3.48536662
Li 3.02467500 2.17666646 3.48536662
Li 0.00000000 0.00000000 1.00804601
Ni 1.51233750 0.00000000 -1.0693318199999986 0 0 0
Ni 4.53701250 4.27753500 -1.0693318199999986 0 0 0
Ni 4.53701250 0.00000000 -1.0693318199999986 0 0 0
Ni 1.51233750 4.27753500 -1.0693318199999986 0 0 0
Ni 4.53701250 6.41630250 -3.2082596300000006 0 0 0
Ni 1.51233750 2.13876750 -3.2082596300000006 0 0 0
Ni 1.51233750 6.41630250 -3.2082596300000006 0 0 0
Ni 4.53701250 2.13876750 -3.2082596300000006 0 0 0
Ni 1.33400266 4.27753500 2.95096487
Ni 4.73083367 0.00136881 3.16018197
Ni 4.71534734 4.27753500 2.95096487
Ni 1.31851633 0.00136881 3.16018197
Ni 4.58353200 2.13081128 1.14910905
Ni 1.46587849 6.42417316 1.14884489
Ni 1.46581800 2.13081128 1.14910905
Ni 4.58347151 6.42417316 1.14884489
Sn 0.00000000 6.41630250 -1.0693318199999986 0 0 0
Sn 3.02467500 0.00000000 -3.2082596300000006 0 0 0
Sn 0.00000000 2.13876750 -1.0693318199999986 0 0 0
Sn 3.02467500 4.27753500 -3.2082596300000006 0 0 0
Sn 0.00000000 2.17350108 3.41298596
Sn 3.02473549 4.27762055 1.06140693
Sn 0.00000000 6.38233887 3.41298596
Sn 3.02467500 0.00008555 1.03604729
C 3.02467500 0.00017110 3.51759451
