&CONTROL
calculation = 'relax'
prefix = 'scf'
pseudo_dir = '/vol0403/data/hp230205/u10028/POT_HYBRID_KKJUS_GBRV'
outdir = './data'
tprnfor = .true.
nstep = 70
disk_io = 'non'
/
&SYSTEM
ibrav = 0
ecutwfc = 50.0
ecutrho = 400
occupations = 'smearing'
smearing = 'mp'
degauss = 0.01
assume_isolated = 'esm'
esm_bc = 'bc1'
input_dft = 'BEEF-VDW'
nosym = .true.
nspin = 1
ntyp = 4
nat = 16
/
&ELECTRONS
electron_maxstep = 200
mixing_beta = 0.1
conv_thr = 1e-06
/
&IONS
ion_dynamics = 'bfgs'
upscale = 1.0
/
&CELL
/

K_POINTS {automatic}
11 8 2 0  0  0

ATOMIC_SPECIES
Ge 72.64 Ge.pbe-dn-rrkjus_psl.1.0.0.UPF
In 114.8 In.pbe-dn-rrkjus_psl.1.0.0.UPF
Pd 106.4 Pd.pbe-n-rrkjus_psl.1.0.0.UPF
Sc 44.95 Sc.pbe-spn-rrkjus_psl.1.0.0.UPF


CELL_PARAMETERS {angstrom}
6.05174000 0.00000000 0.00000000
-0.00000000 8.38060000 0.00000000
0.00000000 0.00000000 24.46740000

ATOMIC_POSITIONS {angstrom}
Sc 1.24569016 2.09515000 0.74454298
Sc 3.73700997 2.09515000 -2.23362895 0 0 0
Sc 1.24569016 6.28545000 0.74454298
Sc 3.73700997 6.28545000 -2.23362895 0 0 0
In 3.02587000 -0.00000000 2.23362895
In 5.51718981 0.00000000 -0.7445429800000021 0 0 0
In 3.02587000 4.19030000 2.23362895
In 5.51718981 4.19030000 -0.7445429800000021 0 0 0
Ge 0.00000000 0.00000000 2.23362895
Ge 2.49131981 0.00000000 -0.7445429800000021 0 0 0
Ge 0.00000000 4.19030000 2.23362895
Ge 2.49131981 4.19030000 -0.7445429800000021 0 0 0
Pd 4.27156016 2.09515000 0.74454298
Pd 0.71113997 2.09515000 -2.23362895 0 0 0
Pd 4.27156016 6.28545000 0.74454298
Pd 0.71113997 6.28545000 -2.23362895 0 0 0
