&CONTROL
calculation = 'relax'
prefix = 'scf'
pseudo_dir = '/vol0403/data/hp230205/u10028/POT_HYBRID_KKJUS_GBRV'
outdir = './data'
tprnfor = .true.
nstep = 50
disk_io = 'non'
/
&SYSTEM
ibrav = 0
ecutwfc = 50.0
ecutrho = 400
occupations = 'smearing'
smearing = 'mp'
degauss = 0.01
assume_isolated = 'esm'
esm_bc = 'bc1'
input_dft = 'BEEF-VDW'
nosym = .true.
nspin = 1
ntyp = 5
nat = 33
/
&ELECTRONS
electron_maxstep = 200
mixing_beta = 0.1
conv_thr = 1e-06
/
&IONS
ion_dynamics = 'bfgs'
upscale = 1.0
/
&CELL
/

K_POINTS {automatic}
9 6 2 0  0  0

ATOMIC_SPECIES
C 12.01 C.pbe-n-rrkjus_psl.1.0.0.UPF
Li 6.941 Li.pbe-sl-rrkjus_psl.1.0.0.UPF
Pd 106.4 Pd.pbe-n-rrkjus_psl.1.0.0.UPF
Sn 118.7 Sn.pbe-dn-rrkjus_psl.1.0.0.UPF
Y 88.90 Y.pbe-spn-rrkjus_psl.1.0.0.UPF


CELL_PARAMETERS {angstrom}
6.77715000 0.00000000 0.00000000
0.00000000 9.58434000 0.00000000
0.00000000 0.00000000 27.18830000

ATOMIC_POSITIONS {angstrom}
Li 0.00000000 0.00000000 -3.594021380000001 0 0 0
Li 0.00000000 4.79217000 -3.594021380000001 0 0 0
Li 3.38857500 7.18825500 -1.1979165000000016 0 0 0
Li 3.38857500 2.39608500 -1.1979165000000016 0 0 0
Li 0.03009055 4.79217000 1.14924944
Li 0.04628793 0.00000000 1.80910948
Li 4.56285178 2.71495599 5.07224925
Li 4.56278401 6.86928816 5.07224925
Y 1.69428750 0.00000000 -1.1979165000000016 0 0 0
Y 1.69428750 4.79217000 -1.1979165000000016 0 0 0
Y 5.08286250 2.39608500 -3.594021380000001 0 0 0
Y 5.08286250 7.18825500 -3.594021380000001 0 0 0
Y 1.89285799 4.79217000 3.53882913
Y 2.45563253 0.00000000 3.53475088
Y 5.05419516 7.20838211 1.30041639
Y 5.05419516 2.37595789 1.30041639
Sn 5.08286250 0.00000000 -1.1979165000000016 0 0 0
Sn 5.08286250 4.79217000 -1.1979165000000016 0 0 0
Sn 1.69428750 2.39608500 -3.594021380000001 0 0 0
Sn 1.69428750 7.18825500 -3.594021380000001 0 0 0
Sn 5.30928708 4.79217000 3.54535432
Sn 5.18072455 0.00000000 4.72097641
Sn 1.74057543 7.19831856 1.20879182
Sn 1.74064321 2.38602144 1.20879182
Pd 0.00000000 2.39608500 -1.1979165000000016 0 0 0
Pd 0.00000000 7.18825500 -1.1979165000000016 0 0 0
Pd 3.38857500 4.79217000 -3.594021380000001 0 0 0
Pd 3.38857500 0.00000000 -3.594021380000001 0 0 0
Pd 0.08152911 7.37610806 3.51735037
Pd 0.08152911 2.20823194 3.51707849
Pd 3.42842464 0.00000000 0.98448834
Pd 3.40497570 4.79217000 1.16637807
C 0.34712562 0.00000000 4.02305275
