&CONTROL
calculation = 'relax'
prefix = 'scf'
pseudo_dir = '/vol0004/mdt0/data/hp150275/u10028/POT_KKJUS'
outdir = './data'
tprnfor = .true.
nstep = 50
disk_io = 'non'
/
&SYSTEM
ibrav = 0
ecutwfc = 50.0
ecutrho = 400
occupations = 'smearing'
smearing = 'mp'
degauss = 0.01
assume_isolated = 'esm'
esm_bc = 'bc1'
input_dft = 'BEEF-VDW'
nosym = .true.
nspin = 1
ntyp = 3
nat = 33
/
&ELECTRONS
electron_maxstep = 200
mixing_beta = 0.1
conv_thr = 1e-06
/
&IONS
ion_dynamics = 'bfgs'
upscale = 1.0
/
&CELL
/

K_POINTS {automatic}
9 6 2 0  0  0

ATOMIC_SPECIES
C 12.01 C.pbe-n-rrkjus_psl.1.0.0.UPF
In 114.8 In.pbe-dn-rrkjus_psl.1.0.0.UPF
Pd 106.4 Pd.pbe-n-rrkjus_psl.1.0.0.UPF

CELL_PARAMETERS {angstrom}
6.68646000 0.00000000 0.00000000
0.00000000 9.45609000 0.00000000
0.00000000 0.00000000 27.09210000

ATOMIC_POSITIONS {angstrom}
In 0.00000000 0.00000000 -3.546084969999999 0 0 0
In 0.00000000 2.36402250 -1.182028319999997 0 0 0
In 0.00000000 0.00000000 1.24704936
In 0.00000000 2.39882091 3.85385122
In 0.00000000 4.72804500 -3.546084969999999 0 0 0
In 0.00000000 7.09206750 -1.182028319999997 0 0 0
In 0.00000000 4.72804500 1.15331070
In 0.00000000 7.05726909 3.85385122
In 3.34323000 0.00000000 -3.546084969999999 0 0 0
In 3.34323000 2.36402250 -1.182028319999997 0 0 0
In 3.34323000 0.00000000 1.10075202
In 3.34323000 2.45962357 3.75794519
In 3.34323000 4.72804500 -3.546084969999999 0 0 0
In 3.34323000 7.09206750 -1.182028319999997 0 0 0
In 3.34323000 4.72804500 1.17796451
In 3.34323000 6.99646643 3.75794519
Pd 1.67161500 2.36402250 -3.546084969999999 0 0 0
Pd 1.67161500 0.00000000 -1.182028319999997 0 0 0
Pd 1.64620645 2.38577151 1.21345516
Pd 1.94482376 0.00000000 3.46507959
Pd 1.67161500 7.09206750 -3.546084969999999 0 0 0
Pd 1.67161500 4.72804500 -1.182028319999997 0 0 0
Pd 1.64620645 7.07031849 1.21345516
Pd 1.63671168 4.72804500 3.42227407
Pd 5.01484500 2.36402250 -3.546084969999999 0 0 0
Pd 5.01484500 0.00000000 -1.182028319999997 0 0 0
Pd 5.04025355 2.38577151 1.21345516
Pd 4.74163624 0.00000000 3.46507959
Pd 5.01484500 7.09206750 -3.546084969999999 0 0 0
Pd 5.01484500 4.72804500 -1.182028319999997 0 0 0
Pd 5.04025355 7.07031849 1.21345516
Pd 5.04974832 4.72804500 3.42227407
C 0.00000000 0.00000000 3.87362846
