&CONTROL
calculation = 'relax'
prefix = 'scf'
pseudo_dir = '/vol0004/mdt0/data/hp150275/u10028/POT_KKJUS'
outdir = './data'
tprnfor = .true.
nstep = 50
disk_io = 'non'
/
&SYSTEM
ibrav = 0
ecutwfc = 50.0
ecutrho = 400
occupations = 'smearing'
smearing = 'mp'
degauss = 0.01
assume_isolated = 'esm'
esm_bc = 'bc1'
input_dft = 'BEEF-VDW'
nosym = .true.
nspin = 1
ntyp = 2
nat = 16
/
&ELECTRONS
electron_maxstep = 200
mixing_beta = 0.1
conv_thr = 1e-06
/
&IONS
ion_dynamics = 'bfgs'
upscale = 1.0
/
&CELL
/

K_POINTS {automatic}
8 11 2 0  0  0

ATOMIC_SPECIES
Pd 106.4 Pd.pbe-n-rrkjus_psl.1.0.0.UPF
Ti 47.86 Ti.pbe-spn-rrkjus_psl.1.0.0.UPF

CELL_PARAMETERS {angstrom}
7.90864000 0.00000000 0.00000000
0.00000000 5.59226000 0.00000000
0.00000000 0.00000000 24.19420000

ATOMIC_POSITIONS {angstrom}
Ti 0.00000000 0.00000000 -2.097153259999999 0 0 0
Ti 0.00000000 2.79613000 0.69606713
Ti 3.95432000 0.00000000 -2.097153259999999 0 0 0
Ti 3.95432000 2.79613000 0.69606713
Pd 0.00000000 2.79613000 -2.097153259999999 0 0 0
Pd 1.97716000 4.19419500 -0.6989704400000001 0 0 0
Pd 1.97716000 1.39806500 -0.6989704400000001 0 0 0
Pd 0.00000000 0.00000000 0.60098393
Pd 1.97716000 1.44218793 2.04174854
Pd 1.97716000 4.15007207 2.04174854
Pd 3.95432000 2.79613000 -2.097153259999999 0 0 0
Pd 5.93148000 4.19419500 -0.6989704400000001 0 0 0
Pd 5.93148000 1.39806500 -0.6989704400000001 0 0 0
Pd 3.95432000 0.00000000 0.60098393
Pd 5.93148000 1.44218793 2.04174854
Pd 5.93148000 4.15007207 2.04174854
