&CONTROL
calculation = 'relax'
prefix = 'scf'
pseudo_dir = '/vol0403/data/hp230205/u10028/POT_HYBRID_KKJUS_GBRV'
outdir = './data'
tprnfor = .true.
nstep = 50
disk_io = 'non'
/
&SYSTEM
ibrav = 0
ecutwfc = 50.0
ecutrho = 400
occupations = 'smearing'
smearing = 'mp'
degauss = 0.01
assume_isolated = 'esm'
esm_bc = 'bc1'
input_dft = 'BEEF-VDW'
nosym = .true.
nspin = 1
ntyp = 5
nat = 33
/
&ELECTRONS
electron_maxstep = 200
mixing_beta = 0.1
conv_thr = 1e-06
/
&IONS
ion_dynamics = 'bfgs'
upscale = 1.0
/
&CELL
/

K_POINTS {automatic}
6 6 1 0 0 0

ATOMIC_SPECIES
C 12.01 C.pbe-n-rrkjus_psl.1.0.0.UPF
Li 6.941 Li.pbe-sl-rrkjus_psl.1.0.0.UPF
Pb 207.2 Pb.pbe-dn-rrkjus_psl.1.0.0.UPF
Sn 118.7 Sn.pbe-dn-rrkjus_psl.1.0.0.UPF
Y 88.90 Y.pbe-spn-rrkjus_psl.1.0.0.UPF


CELL_PARAMETERS {angstrom}
9.64462000 0.00000000 0.00000000
0.00000000 8.87168000 0.00000000
0.00000000 0.00000000 27.02620000

ATOMIC_POSITIONS {angstrom}
Li 0.00000000 0.00000000 -3.513135739999999 0 0 0
Li 0.00000000 0.00000000 1.25185358
Li 0.00000000 4.43584000 -3.513135739999999 0 0 0
Li 0.00000000 4.43584000 1.19077437
Li 4.82231000 0.00000000 -3.513135739999999 0 0 0
Li 4.82231000 0.00000000 1.20239564
Li 4.82231000 4.43584000 -3.513135739999999 0 0 0
Li 4.82231000 4.43584000 1.14942429
Y 2.41115500 0.00000000 -1.1710452499999988 0 0 0
Y 2.28124197 0.00000000 3.42773295
Y 2.41115500 4.43584000 -1.1710452499999988 0 0 0
Y 2.46313950 4.43584000 3.41962509
Y 7.23346500 0.00000000 -1.1710452499999988 0 0 0
Y 7.36337803 0.00000000 3.42773295
Y 7.23346500 4.43584000 -1.1710452499999988 0 0 0
Y 7.18148050 4.43584000 3.41962509
Sn 2.41115500 2.21792000 -3.513135739999999 0 0 0
Sn 2.47075875 2.24418017 1.21374664
Sn 2.41115500 6.65376000 -3.513135739999999 0 0 0
Sn 2.47075875 6.62749983 1.21374664
Sn 7.23346500 2.21792000 -3.513135739999999 0 0 0
Sn 7.17386125 2.24418017 1.21374664
Sn 7.23346500 6.65376000 -3.513135739999999 0 0 0
Sn 7.17386125 6.62749983 1.21374664
Pb 0.00000000 2.21792000 -1.1710452499999988 0 0 0
Pb 0.00000000 2.36891599 3.99149948
Pb 0.00000000 6.65376000 -1.1710452499999988 0 0 0
Pb 0.00000000 6.50276401 3.99149948
Pb 4.82231000 2.21792000 -1.1710452499999988 0 0 0
Pb 4.82231000 2.20549965 3.56313421
Pb 4.82231000 6.65376000 -1.1710452499999988 0 0 0
Pb 4.82231000 6.66618035 3.56286395
C 0.00000000 0.00000000 3.36692400
