&CONTROL
calculation = 'relax'
prefix = 'scf'
pseudo_dir = '/vol0403/data/hp230205/u10028/POT_HYBRID_KKJUS_GBRV'
outdir = './data'
tprnfor = .true.
nstep = 50
disk_io = 'non'
/
&SYSTEM
ibrav = 0
ecutwfc = 50.0
ecutrho = 400
occupations = 'smearing'
smearing = 'mp'
degauss = 0.01
assume_isolated = 'esm'
esm_bc = 'bc1'
input_dft = 'BEEF-VDW'
nosym = .true.
nspin = 1
ntyp = 6
nat = 34
/
&ELECTRONS
electron_maxstep = 200
mixing_beta = 0.1
conv_thr = 1e-06
/
&IONS
ion_dynamics = 'bfgs'
upscale = 1.0
/
&CELL
/

K_POINTS {automatic}
6 6 1 0 0 0

ATOMIC_SPECIES
C 12.01 C.pbe-n-rrkjus_psl.1.0.0.UPF
In 114.8 In.pbe-dn-rrkjus_psl.1.0.0.UPF
Li 6.941 Li.pbe-sl-rrkjus_psl.1.0.0.UPF
O 15.99 O.pbe-n-rrkjus_psl.1.0.0.UPF
Pd 106.4 Pd.pbe-n-rrkjus_psl.1.0.0.UPF
Ru 101.0 Ru.pbe-spn-rrkjus_psl.1.0.0.UPF


CELL_PARAMETERS {angstrom}
6.32045000 0.00000000 0.00000000
0.00000000 8.93846000 0.00000000
0.00000000 0.00000000 26.70380000

ATOMIC_POSITIONS {angstrom}
Li 0.00000000 2.23461500 -1.1172869900000002 0 0 0
Li 0.00000000 6.70384500 -1.1172869900000002 0 0 0
Li 3.16022500 4.46923000 -3.3518609800000014 0 0 0
Li 3.16022500 0.00000000 -3.3518609800000014 0 0 0
Li 6.27437392 6.70339808 3.56282100
Li 6.25376925 2.23515131 3.50647598
Li 3.13178298 0.00384354 1.09191838
Li 3.13134054 4.46520769 1.09111727
In 0.00000000 0.00000000 -3.3518609800000014 0 0 0
In 0.00000000 4.46923000 -3.3518609800000014 0 0 0
In 3.16022500 6.70384500 -1.1172869900000002 0 0 0
In 3.16022500 2.23461500 -1.1172869900000002 0 0 0
In 6.30742987 4.48058184 1.07856648
In 6.30724026 8.92701877 1.07803241
In 3.08640214 2.23425746 3.47122696
In 3.06541825 6.70420254 3.57964439
Pd 4.74033750 0.00000000 -1.1172869900000002 0 0 0
Pd 4.74033750 4.46923000 -1.1172869900000002 0 0 0
Pd 1.58011250 2.23461500 -3.3518609800000014 0 0 0
Pd 1.58011250 6.70384500 -3.3518609800000014 0 0 0
Pd 4.67024371 4.49166553 3.22314866
Pd 4.67201344 8.91611385 3.22394977
Pd 1.59787296 6.70384500 1.14906451
Pd 1.56658674 2.23452562 1.12049145
Ru 1.58011250 0.00000000 -1.1172869900000002 0 0 0
Ru 1.58011250 4.46923000 -1.1172869900000002 0 0 0
Ru 4.74033750 2.23461500 -3.3518609800000014 0 0 0
Ru 4.74033750 6.70384500 -3.3518609800000014 0 0 0
Ru 1.58213504 4.47807908 3.23569945
Ru 1.58080775 8.92978969 3.23623352
Ru 4.69160683 6.70366623 1.23745409
Ru 4.71808952 2.23470438 1.19499505
C 0.04550724 2.23434685 5.60566170
O 0.16351004 2.23398931 6.74057320
