&CONTROL
calculation = 'relax'
prefix = 'scf'
pseudo_dir = '/vol0403/data/hp230205/u10028/POT_HYBRID_KKJUS_GBRV'
outdir = './data'
tprnfor = .true.
nstep = 70
disk_io = 'non'
/
&SYSTEM
ibrav = 0
ecutwfc = 50.0
ecutrho = 400
occupations = 'smearing'
smearing = 'mp'
degauss = 0.01
assume_isolated = 'esm'
esm_bc = 'bc1'
input_dft = 'BEEF-VDW'
nosym = .true.
nspin = 1
ntyp = 6
nat = 18
/
&ELECTRONS
electron_maxstep = 200
mixing_beta = 0.1
conv_thr = 1e-06
/
&IONS
ion_dynamics = 'bfgs'
upscale = 1.0
/
&CELL
/

K_POINTS {automatic}
6 6 1 0 0 0

ATOMIC_SPECIES
C 12.01 C.pbe-n-rrkjus_psl.1.0.0.UPF
Li 6.941 Li.pbe-sl-rrkjus_psl.1.0.0.UPF
O 15.99 O.pbe-n-rrkjus_psl.1.0.0.UPF
Pb 207.2 Pb.pbe-dn-rrkjus_psl.1.0.0.UPF
Pd 106.4 Pd.pbe-n-rrkjus_psl.1.0.0.UPF
Y 88.90 Y.pbe-spn-rrkjus_psl.1.0.0.UPF


CELL_PARAMETERS {angstrom}
6.89083000 0.00000000 0.00000000
-0.00000000 6.89083000 0.00000000
0.00000000 0.00000000 25.16810000

ATOMIC_POSITIONS {angstrom}
Li 0.00000000 0.00000000 -2.5840088299999984 0 0 0
Li 0.00234288 3.44252085 0.92643776
Li 3.44272758 0.00144707 0.92593440
Li 3.44541500 3.44541500 -2.5840088299999984 0 0 0
Y 5.16812250 1.72270750 -0.8612523799999998 0 0 0
Y 5.16577962 5.16433254 2.66505011
Y 1.72098479 1.72022680 2.67562071
Y 1.72270750 5.16812250 -0.8612523799999998 0 0 0
Pd 0.00000000 3.44541500 -2.5840088299999984 0 0 0
Pd 0.00826900 0.00020672 0.89296419
Pd 3.43645692 3.45175456 0.90051462
Pd 3.44541500 0.00000000 -2.5840088299999984 0 0 0
Pb 1.72270750 1.72270750 -0.8612523799999998 0 0 0
Pb 1.71030401 5.16950067 2.72998381
Pb 5.16385019 1.71629903 2.71815480
Pb 5.16812250 5.16812250 -0.8612523799999998 0 0 0
C 4.45629976 1.86734602 7.33020912
O 5.40806120 1.68005326 7.91813594
