&CONTROL
calculation = 'relax'
prefix = 'scf'
pseudo_dir = '/vol0004/mdt0/data/hp150275/u10028/POT_KKJUS'
outdir = './data'
tprnfor = .true.
nstep = 50
disk_io = 'non'
/
&SYSTEM
ibrav = 0
ecutwfc = 50.0
ecutrho = 400
occupations = 'smearing'
smearing = 'mp'
degauss = 0.01
assume_isolated = 'esm'
esm_bc = 'bc1'
input_dft = 'BEEF-VDW'
nosym = .true.
nspin = 1
ntyp = 4
nat = 33
/
&ELECTRONS
electron_maxstep = 200
mixing_beta = 0.1
conv_thr = 1e-06
/
&IONS
ion_dynamics = 'bfgs'
upscale = 1.0
/
&CELL
/

K_POINTS {automatic}
8 6 1 0 0 0

ATOMIC_SPECIES
C 12.01 C.pbe-n-rrkjus_psl.1.0.0.UPF
Cu 63.54 Cu.pbe-dn-rrkjus_psl.1.0.0.UPF
In 114.8 In.pbe-dn-rrkjus_psl.1.0.0.UPF
Zr 91.22 Zr.pbe-spn-rrkjus_psl.1.0.0.UPF

CELL_PARAMETERS {angstrom}
6.47982000 0.00000000 0.00000000
0.00000000 9.16384000 0.00000000
0.00000000 0.00000000 26.87290000

ATOMIC_POSITIONS {angstrom}
Zr 0.00000000 0.00000000 -3.436506450000003 0 0 0
Zr 3.23991000 2.29096000 -1.1455917299999996 0 0 0
Zr 3.23991000 6.87288000 -1.1455917299999996 0 0 0
Zr 0.00000000 4.58192000 -3.436506450000003 0 0 0
Zr 0.00000000 4.58192000 1.18993201
Zr 3.23991000 7.05817284 3.36394962
Zr 3.23991000 2.10566716 3.36394962
Zr 0.00000000 0.00000000 1.21976093
In 0.00000000 6.87288000 -1.1455917299999996 0 0 0
In 3.23991000 0.00000000 -3.436506450000003 0 0 0
In 0.00000000 2.29096000 -1.1455917299999996 0 0 0
In 3.23991000 4.58192000 -3.436506450000003 0 0 0
In 0.00000000 2.43584031 3.59451910
In 3.23991000 4.58192000 1.10178890
In 0.00000000 6.72799969 3.59451910
In 3.23991000 0.00000000 1.09722051
Cu 1.61995500 0.00000000 -1.1455917299999996 0 0 0
Cu 4.85986500 4.58192000 -1.1455917299999996 0 0 0
Cu 4.85986500 0.00000000 -1.1455917299999996 0 0 0
Cu 1.61995500 4.58192000 -1.1455917299999996 0 0 0
Cu 4.85986500 6.87288000 -3.436506450000003 0 0 0
Cu 1.61995500 2.29096000 -3.436506450000003 0 0 0
Cu 1.61995500 6.87288000 -3.436506450000003 0 0 0
Cu 4.85986500 2.29096000 -3.436506450000003 0 0 0
Cu 1.81558077 4.58192000 3.47950309
Cu 5.21457035 0.00000000 3.72458394
Cu 4.66423923 4.58192000 3.47950309
Cu 1.26524965 0.00000000 3.72458394
Cu 4.88740423 2.30241480 1.14586046
Cu 1.59241576 6.86142520 1.14586046
Cu 1.59241576 2.30241480 1.14586046
Cu 4.88740423 6.86142520 1.14586046
C 3.23991000 0.00000000 3.85706734
