&CONTROL
calculation = 'relax'
prefix = 'scf'
pseudo_dir = '/vol0004/mdt0/data/hp150275/u10028/POT_KKJUS'
outdir = './data'
tprnfor = .true.
nstep = 50
disk_io = 'non'
/
&SYSTEM
ibrav = 0
ecutwfc = 50.0
ecutrho = 400
occupations = 'smearing'
smearing = 'mp'
degauss = 0.01
assume_isolated = 'esm'
esm_bc = 'bc1'
input_dft = 'BEEF-VDW'
nosym = .true.
nspin = 1
ntyp = 4
nat = 34
/
&ELECTRONS
electron_maxstep = 200
mixing_beta = 0.1
conv_thr = 1e-06
/
&IONS
ion_dynamics = 'bfgs'
upscale = 1.0
/
&CELL
/

K_POINTS {automatic}
9 6 2 0  0  0

ATOMIC_SPECIES
Al 26.98 Al.pbe-nl-rrkjus_psl.1.0.0.UPF
C 12.01 C.pbe-n-rrkjus_psl.1.0.0.UPF
O 15.99 O.pbe-n-rrkjus_psl.1.0.0.UPF
Ru 101.0 Ru.pbe-spn-rrkjus_psl.1.0.0.UPF

CELL_PARAMETERS {angstrom}
6.00621000 0.00000000 0.00000000
0.00000000 8.49407000 0.00000000
0.00000000 0.00000000 26.37050000

ATOMIC_POSITIONS {angstrom}
Al 0.00000000 0.00000000 -3.1852926900000007 0 0 0
Al 0.00000000 2.12351750 -1.061676330000001 0 0 0
Al 0.00912944 0.00000000 1.05851187
Al 0.00030031 2.11281497 3.17026151
Al 0.00000000 4.24703500 -3.1852926900000007 0 0 0
Al 0.00000000 6.37055250 -1.061676330000001 0 0 0
Al 5.98891212 4.24703500 1.04690885
Al 0.00030031 6.38125503 3.17026151
Al 3.00310500 0.00000000 -3.1852926900000007 0 0 0
Al 3.00310500 2.12351750 -1.061676330000001 0 0 0
Al 2.99397556 0.00000000 1.05877557
Al 3.00286475 2.11205051 3.17026151
Al 3.00310500 4.24703500 -3.1852926900000007 0 0 0
Al 3.00310500 6.37055250 -1.061676330000001 0 0 0
Al 3.02064313 4.24703500 1.04690885
Al 3.00286475 6.38201949 3.17026151
Ru 1.50155250 2.12351750 -3.1852926900000007 0 0 0
Ru 1.50155250 0.00000000 -1.061676330000001 0 0 0
Ru 1.50161256 2.13022782 1.05218295
Ru 1.50185281 4.24703500 3.13387022
Ru 1.50155250 6.37055250 -3.1852926900000007 0 0 0
Ru 1.50155250 4.24703500 -1.061676330000001 0 0 0
Ru 1.50161256 6.36384218 1.05218295
Ru 1.50047138 0.00000000 3.33402231
Ru 4.50465750 2.12351750 -3.1852926900000007 0 0 0
Ru 4.50465750 0.00000000 -1.061676330000001 0 0 0
Ru 4.50477762 2.11103122 1.03952511
Ru 4.50453738 4.24703500 3.17527191
Ru 4.50465750 6.37055250 -3.1852926900000007 0 0 0
Ru 4.50465750 4.24703500 -1.061676330000001 0 0 0
Ru 4.50477762 6.38303878 1.03952511
Ru 4.50465750 0.00000000 3.14151766
C 1.49704784 0.00000000 5.21713972
O 1.49650728 0.00000000 6.37902395
