&CONTROL
calculation = 'relax'
prefix = 'scf'
pseudo_dir = '/vol0004/mdt0/data/hp150275/u10028/POT_HYBRID_KKJUS_GBRV'
outdir = './data'
tprnfor = .true.
nstep = 50
disk_io = 'non'
/
&SYSTEM
ibrav = 0
ecutwfc = 50.0
ecutrho = 400
occupations = 'smearing'
smearing = 'mp'
degauss = 0.01
assume_isolated = 'esm'
esm_bc = 'bc1'
input_dft = 'BEEF-VDW'
nosym = .true.
nspin = 2
ntyp = 2
nat = 32
starting_magnetization(1) = 0.1
starting_magnetization(2) = 0.1
/
&ELECTRONS
electron_maxstep = 200
mixing_beta = 0.1
conv_thr = 1e-06
/
&IONS
ion_dynamics = 'bfgs'
upscale = 1.0
/
&CELL
/

K_POINTS {automatic}
9 6 2 0  0  0

ATOMIC_SPECIES
Mn 54.93 mn_pbe_v1.5.uspp.F.UPF
Pd 106.4 Pd.pbe-n-rrkjus_psl.1.0.0.UPF

CELL_PARAMETERS {angstrom}
6.32195000 0.00000000 0.00000000
0.00000000 8.94058000 0.00000000
0.00000000 0.00000000 26.70540000

ATOMIC_POSITIONS {angstrom}
Mn 0.00000000 0.00000000 -3.3525959200000024 0 0 0
Mn 0.00000000 2.23514500 -1.1176209900000025 0 0 0
Mn 0.00000000 4.47029000 1.12696788
Mn 0.00000000 2.23514500 3.39105169
Mn 0.00000000 4.47029000 -3.3525959200000024 0 0 0
Mn 0.00000000 6.70543500 -1.1176209900000025 0 0 0
Mn 0.00000000 0.00000000 1.12696788
Mn 0.00000000 6.70543500 3.39105169
Mn 3.16097500 0.00000000 -3.3525959200000024 0 0 0
Mn 3.16097500 2.23514500 -1.1176209900000025 0 0 0
Mn 3.16097500 4.47029000 1.12696788
Mn 3.16097500 2.23514500 3.39105169
Mn 3.16097500 4.47029000 -3.3525959200000024 0 0 0
Mn 3.16097500 6.70543500 -1.1176209900000025 0 0 0
Mn 3.16097500 0.00000000 1.12696788
Mn 3.16097500 6.70543500 3.39105169
Pd 1.58048750 2.23514500 -3.3525959200000024 0 0 0
Pd 1.58048750 0.00000000 -1.1176209900000025 0 0 0
Pd 1.58048750 2.23514500 1.13017253
Pd 1.58048750 0.00000000 3.26847391
Pd 1.58048750 6.70543500 -3.3525959200000024 0 0 0
Pd 1.58048750 4.47029000 -1.1176209900000025 0 0 0
Pd 1.58048750 6.70543500 1.13017253
Pd 1.58048750 4.47029000 3.26847391
Pd 4.74146250 2.23514500 -3.3525959200000024 0 0 0
Pd 4.74146250 0.00000000 -1.1176209900000025 0 0 0
Pd 4.74146250 2.23514500 1.13017253
Pd 4.74146250 0.00000000 3.26847391
Pd 4.74146250 6.70543500 -3.3525959200000024 0 0 0
Pd 4.74146250 4.47029000 -1.1176209900000025 0 0 0
Pd 4.74146250 6.70543500 1.13017253
Pd 4.74146250 4.47029000 3.26847391
