&CONTROL
calculation = 'relax'
prefix = 'scf'
pseudo_dir = '/vol0004/mdt0/data/hp150275/u10028/POT_KKJUS'
outdir = './data'
tprnfor = .true.
nstep = 50
disk_io = 'non'
/
&SYSTEM
ibrav = 0
ecutwfc = 50.0
ecutrho = 400
occupations = 'smearing'
smearing = 'mp'
degauss = 0.01
assume_isolated = 'esm'
esm_bc = 'bc1'
input_dft = 'BEEF-VDW'
nosym = .true.
nspin = 1
ntyp = 3
nat = 33
/
&ELECTRONS
electron_maxstep = 200
mixing_beta = 0.1
conv_thr = 1e-06
/
&IONS
ion_dynamics = 'bfgs'
upscale = 1.0
/
&CELL
/

K_POINTS {automatic}
9 6 2 0  0  0

ATOMIC_SPECIES
C 12.01 C.pbe-n-rrkjus_psl.1.0.0.UPF
Pd 106.4 Pd.pbe-n-rrkjus_psl.1.0.0.UPF
Zr 91.22 Zr.pbe-spn-rrkjus_psl.1.0.0.UPF

CELL_PARAMETERS {angstrom}
6.75388000 0.00000000 0.00000000
0.00000000 9.55143000 0.00000000
0.00000000 0.00000000 27.16360000

ATOMIC_POSITIONS {angstrom}
Zr 0.00000000 0.00000000 -3.5817923 0 0 0
Zr 0.00000000 2.38785750 -1.1938402199999985 0 0 0
Zr 0.00000000 0.00000000 1.25088378
Zr 0.00000000 2.21392596 3.58912647
Zr 0.00000000 4.77571500 -3.5817923 0 0 0
Zr 0.00000000 7.16357250 -1.1938402199999985 0 0 0
Zr 0.00000000 4.77571500 1.14250102
Zr 0.00000000 7.33740853 3.58912647
Zr 3.37694000 0.00000000 -3.5817923 0 0 0
Zr 3.37694000 2.38785750 -1.1938402199999985 0 0 0
Zr 3.37694000 0.00000000 1.12783267
Zr 3.37694000 2.49282772 3.52637855
Zr 3.37694000 4.77571500 -3.5817923 0 0 0
Zr 3.37694000 7.16357250 -1.1938402199999985 0 0 0
Zr 3.37694000 4.77571500 1.13489521
Zr 3.37694000 7.05860228 3.52610692
Pd 1.68847000 2.38785750 -3.5817923 0 0 0
Pd 1.68847000 0.00000000 -1.1938402199999985 0 0 0
Pd 1.62890078 2.42759145 1.23132599
Pd 1.60559989 4.77561949 3.36584168
Pd 1.68847000 7.16357250 -3.5817923 0 0 0
Pd 1.68847000 4.77571500 -1.1938402199999985 0 0 0
Pd 1.62883324 7.12374304 1.23105435
Pd 2.05966324 0.00009551 3.50899385
Pd 5.06541000 2.38785750 -3.5817923 0 0 0
Pd 5.06541000 0.00000000 -1.1938402199999985 0 0 0
Pd 5.12497922 2.42759145 1.23132599
Pd 5.14828011 4.77561949 3.36584168
Pd 5.06541000 7.16357250 -3.5817923 0 0 0
Pd 5.06541000 4.77571500 -1.1938402199999985 0 0 0
Pd 5.12504676 7.12374304 1.23105435
Pd 4.69421676 0.00009551 3.50899385
C 0.00000000 9.55133449 3.48400334
