&CONTROL
calculation = 'relax'
prefix = 'scf'
pseudo_dir = '/vol0403/data/hp230205/u10028/POT_HYBRID_KKJUS_GBRV'
outdir = './data'
tprnfor = .true.
nstep = 50
disk_io = 'non'
/
&SYSTEM
ibrav = 0
ecutwfc = 50.0
ecutrho = 400
occupations = 'smearing'
smearing = 'mp'
degauss = 0.01
assume_isolated = 'esm'
esm_bc = 'bc1'
input_dft = 'BEEF-VDW'
nosym = .true.
nspin = 1
ntyp = 6
nat = 34
/
&ELECTRONS
electron_maxstep = 200
mixing_beta = 0.1
conv_thr = 1e-06
/
&IONS
ion_dynamics = 'bfgs'
upscale = 1.0
/
&CELL
/

K_POINTS {automatic}
6 6 1 0 0 0

ATOMIC_SPECIES
C 12.01 C.pbe-n-rrkjus_psl.1.0.0.UPF
Cu 63.54 Cu.pbe-dn-rrkjus_psl.1.0.0.UPF
Li 6.941 Li.pbe-sl-rrkjus_psl.1.0.0.UPF
O 15.99 O.pbe-n-rrkjus_psl.1.0.0.UPF
Pd 106.4 Pd.pbe-n-rrkjus_psl.1.0.0.UPF
Sb 121.7 Sb.pbe-n-rrkjus_psl.1.0.0.UPF


CELL_PARAMETERS {angstrom}
6.37250000 0.00000000 0.00000000
0.00000000 9.01208000 0.00000000
0.00000000 0.00000000 26.75910000

ATOMIC_POSITIONS {angstrom}
Li 1.59312500 0.00000000 -1.1265581100000013 0 0 0
Li 1.59312500 4.50604000 -1.1265581100000013 0 0 0
Li 4.77937500 2.25302000 -3.3794067400000003 0 0 0
Li 4.77937500 6.75906000 -3.3794067400000003 0 0 0
Li 1.54807143 4.50604000 3.45914886
Li 1.55030180 0.00000000 3.48109132
Li 4.77185545 6.77212752 0.92720282
Li 4.77185545 2.23995248 0.92747041
Cu 0.00000000 0.00000000 -3.3794067400000003 0 0 0
Cu 0.00000000 4.50604000 -3.3794067400000003 0 0 0
Cu 3.18625000 6.75906000 -1.1265581100000013 0 0 0
Cu 3.18625000 2.25302000 -1.1265581100000013 0 0 0
Cu 6.19445235 4.50604000 1.36284096
Cu 6.23083932 0.00000000 1.36658724
Cu 3.44197842 2.26978247 3.04518558
Cu 3.44197842 6.74229753 3.04518558
Sb 4.77937500 0.00000000 -1.1265581100000013 0 0 0
Sb 4.77937500 4.50604000 -1.1265581100000013 0 0 0
Sb 1.59312500 2.25302000 -3.3794067400000003 0 0 0
Sb 1.59312500 6.75906000 -3.3794067400000003 0 0 0
Sb 4.71654215 4.50604000 3.81424211
Sb 4.76261532 0.00000000 3.71683899
Sb 1.61772285 6.76005133 1.13217752
Sb 1.61772285 2.25202867 1.13217752
Pd 0.00000000 2.25302000 -1.1265581100000013 0 0 0
Pd 0.00000000 6.75906000 -1.1265581100000013 0 0 0
Pd 3.18625000 4.50604000 -3.3794067400000003 0 0 0
Pd 3.18625000 0.00000000 -3.3794067400000003 0 0 0
Pd 6.16360945 6.71904636 3.05802995
Pd 6.16360945 2.29303364 3.05802995
Pd 3.28132770 0.00000000 1.35534841
Pd 3.32720970 4.50604000 1.34036332
C 1.61166897 0.00000000 5.60067963
O 1.61039447 0.00000000 6.73927934
