&CONTROL
calculation = 'relax'
prefix = 'scf'
pseudo_dir = '/vol0403/data/hp230205/u10028/POT_HYBRID_KKJUS_GBRV'
outdir = './data'
tprnfor = .true.
nstep = 50
disk_io = 'non'
/
&SYSTEM
ibrav = 0
ecutwfc = 50.0
ecutrho = 400
occupations = 'smearing'
smearing = 'mp'
degauss = 0.01
assume_isolated = 'esm'
esm_bc = 'bc1'
input_dft = 'BEEF-VDW'
nosym = .true.
nspin = 1
ntyp = 5
nat = 33
/
&ELECTRONS
electron_maxstep = 200
mixing_beta = 0.1
conv_thr = 1e-06
/
&IONS
ion_dynamics = 'bfgs'
upscale = 1.0
/
&CELL
/

K_POINTS {automatic}
9 6 2 0  0  0

ATOMIC_SPECIES
Al 26.98 Al.pbe-nl-rrkjus_psl.1.0.0.UPF
C 12.01 C.pbe-n-rrkjus_psl.1.0.0.UPF
In 114.8 In.pbe-dn-rrkjus_psl.1.0.0.UPF
Li 6.941 Li.pbe-sl-rrkjus_psl.1.0.0.UPF
Pd 106.4 Pd.pbe-n-rrkjus_psl.1.0.0.UPF


CELL_PARAMETERS {angstrom}
6.39489000 0.00000000 0.00000000
0.00000000 9.04374000 0.00000000
0.00000000 0.00000000 26.78280000

ATOMIC_POSITIONS {angstrom}
Li 4.79616750 0.00000000 -1.1305019900000026 0 0 0
Li 4.79616750 4.52187000 -1.1305019900000026 0 0 0
Li 1.59872250 2.26093500 -3.3915059600000035 0 0 0
Li 1.59872250 6.78280500 -3.3915059600000035 0 0 0
Li 4.32607914 4.52187000 4.02197308
Li 5.05209100 0.00000000 4.65833240
Li 1.40988140 6.79230093 1.34235394
Li 1.40994535 2.25143907 1.34235394
Al 0.00000000 0.00000000 -3.3915059600000035 0 0 0
Al 0.00000000 4.52187000 -3.3915059600000035 0 0 0
Al 3.19744500 6.78280500 -1.1305019900000026 0 0 0
Al 3.19744500 2.26093500 -1.1305019900000026 0 0 0
Al 6.21397856 4.52187000 1.36378018
Al 6.07431416 0.00000000 1.35922710
Al 3.32802865 1.96004977 3.47078305
Al 3.32802865 7.08369023 3.47078305
In 0.00000000 2.26093500 -1.1305019900000026 0 0 0
In 0.00000000 6.78280500 -1.1305019900000026 0 0 0
In 3.19744500 4.52187000 -3.3915059600000035 0 0 0
In 3.19744500 0.00000000 -3.3915059600000035 0 0 0
In 6.28285153 6.64090872 3.88752342
In 6.28285153 2.40283128 3.88725559
In 3.15114600 0.00000000 1.17469361
In 3.17781269 4.52187000 1.12675240
Pd 1.59872250 0.00000000 -1.1305019900000026 0 0 0
Pd 1.59872250 4.52187000 -1.1305019900000026 0 0 0
Pd 4.79616750 2.26093500 -3.3915059600000035 0 0 0
Pd 4.79616750 6.78280500 -3.3915059600000035 0 0 0
Pd 1.57972968 4.52187000 3.26027024
Pd 1.16700348 0.00000000 3.31785326
Pd 4.78344167 6.75124235 1.07157983
Pd 4.78344167 2.29249765 1.07157983
C 3.27814851 0.00000000 3.62317718
