&CONTROL
calculation = 'relax'
prefix = 'scf'
pseudo_dir = '/vol0004/mdt0/data/hp150275/u10028/POT_KKJUS'
outdir = './data'
tprnfor = .true.
nstep = 50
disk_io = 'non'
/
&SYSTEM
ibrav = 0
ecutwfc = 50.0
ecutrho = 400
occupations = 'smearing'
smearing = 'mp'
degauss = 0.01
assume_isolated = 'esm'
esm_bc = 'bc1'
input_dft = 'BEEF-VDW'
nosym = .true.
nspin = 1
ntyp = 5
nat = 34
/
&ELECTRONS
electron_maxstep = 200
mixing_beta = 0.1
conv_thr = 1e-06
/
&IONS
ion_dynamics = 'bfgs'
upscale = 1.0
/
&CELL
/

K_POINTS {automatic}
9 6 2 0  0  0

ATOMIC_SPECIES
C 12.01 C.pbe-n-rrkjus_psl.1.0.0.UPF
In 114.8 In.pbe-dn-rrkjus_psl.1.0.0.UPF
Li 6.941 Li.pbe-sl-rrkjus_psl.1.0.0.UPF
O 15.99 O.pbe-n-rrkjus_psl.1.0.0.UPF
Pd 106.4 Pd.pbe-n-rrkjus_psl.1.0.0.UPF

CELL_PARAMETERS {angstrom}
6.70566000 0.00000000 0.00000000
0.00000000 9.48324000 0.00000000
0.00000000 0.00000000 27.11240000

ATOMIC_POSITIONS {angstrom}
Li 0.00000000 0.00000000 -3.5563335100000018 0 0 0
Li 3.35283000 2.37081000 -1.1853541300000003 0 0 0
Li 3.35283000 7.11243000 -1.1853541300000003 0 0 0
Li 0.00000000 4.74162000 -3.5563335100000018 0 0 0
Li 0.00000000 4.74152517 1.25394850
Li 3.35283000 7.11243000 3.91665730
Li 3.35283000 2.37081000 3.99772338
Li 0.00000000 0.00009483 1.25394850
In 1.67641500 0.00000000 -1.1853541300000003 0 0 0
In 5.02924500 4.74162000 -1.1853541300000003 0 0 0
In 5.02924500 0.00000000 -1.1853541300000003 0 0 0
In 1.67641500 4.74162000 -1.1853541300000003 0 0 0
In 5.02924500 7.11243000 -3.5563335100000018 0 0 0
In 1.67641500 2.37081000 -3.5563335100000018 0 0 0
In 1.67641500 7.11243000 -3.5563335100000018 0 0 0
In 5.02924500 2.37081000 -3.5563335100000018 0 0 0
In 1.64878768 4.74873243 3.80820770
In 5.05687232 9.47612757 3.80793658
In 5.05687232 4.74873243 3.80793658
In 1.64885474 9.47612757 3.80793658
In 4.95742738 2.37090483 1.27428280
In 1.72737802 7.11243000 1.26886032
In 1.74823262 2.37071517 1.27428280
In 4.97828198 7.11233517 1.26886032
Pd 0.00000000 7.11243000 -1.1853541300000003 0 0 0
Pd 3.35283000 0.00000000 -3.5563335100000018 0 0 0
Pd 0.00000000 2.37081000 -1.1853541300000003 0 0 0
Pd 3.35283000 4.74162000 -3.5563335100000018 0 0 0
Pd 0.00000000 2.37081000 3.41480678
Pd 3.35289706 4.74740478 1.10374580
Pd 0.00000000 7.11243000 3.40043721
Pd 3.35276294 9.47745522 1.10374580
C 3.35283000 2.37081000 6.05962140
O 3.35283000 2.37081000 7.20024007
