&CONTROL
calculation = 'relax'
prefix = 'scf'
pseudo_dir = '/vol0403/data/hp230205/u10028/POT_HYBRID_KKJUS_GBRV'
outdir = './data'
tprnfor = .true.
nstep = 50
disk_io = 'non'
/
&SYSTEM
ibrav = 0
ecutwfc = 50.0
ecutrho = 400
occupations = 'smearing'
smearing = 'mp'
degauss = 0.01
assume_isolated = 'esm'
esm_bc = 'bc1'
input_dft = 'BEEF-VDW'
nosym = .true.
nspin = 1
ntyp = 4
nat = 32
/
&ELECTRONS
electron_maxstep = 200
mixing_beta = 0.1
conv_thr = 1e-06
/
&IONS
ion_dynamics = 'bfgs'
upscale = 1.0
/
&CELL
/

K_POINTS {automatic}
9 6 2 0  0  0

ATOMIC_SPECIES
Al 26.98 Al.pbe-nl-rrkjus_psl.1.0.0.UPF
Ga 69.72 Ga.pbe-dnl-rrkjus_psl.1.0.0.UPF
Li 6.941 Li.pbe-sl-rrkjus_psl.1.0.0.UPF
Pd 106.4 Pd.pbe-n-rrkjus_psl.1.0.0.UPF


CELL_PARAMETERS {angstrom}
6.14517000 0.00000000 0.00000000
0.00000000 8.69058000 0.00000000
0.00000000 0.00000000 26.51790000

ATOMIC_POSITIONS {angstrom}
Li 4.60887750 0.00000000 -1.0864383600000025 0 0 0
Li 4.60887750 4.34529000 -1.0864383600000025 0 0 0
Li 1.53629250 2.17264500 -3.2590499100000017 0 0 0
Li 1.53629250 6.51793500 -3.2590499100000017 0 0 0
Li 4.64329045 4.34529000 4.35132221
Li 4.64329045 0.00000000 4.35158739
Li 1.45044448 6.51793500 1.13417058
Li 1.45044448 2.17264500 1.13390540
Al 0.00000000 0.00000000 -3.2590499100000017 0 0 0
Al 0.00000000 4.34529000 -3.2590499100000017 0 0 0
Al 3.07258500 6.51793500 -1.0864383600000025 0 0 0
Al 3.07258500 2.17264500 -1.0864383600000025 0 0 0
Al 5.95841828 4.34529000 1.42798892
Al 5.95835683 0.00000000 1.42798892
Al 3.15210350 2.17264500 3.27071779
Al 3.15210350 6.51793500 3.27071779
Ga 0.00000000 2.17264500 -1.0864383600000025 0 0 0
Ga 0.00000000 6.51793500 -1.0864383600000025 0 0 0
Ga 3.07258500 4.34529000 -3.2590499100000017 0 0 0
Ga 3.07258500 0.00000000 -3.2590499100000017 0 0 0
Ga 6.06128843 6.51793500 3.50619674
Ga 6.06128843 2.17264500 3.50619674
Ga 3.09648971 0.00000000 1.21027696
Ga 3.09648971 4.34529000 1.21027696
Pd 1.53629250 0.00000000 -1.0864383600000025 0 0 0
Pd 1.53629250 4.34529000 -1.0864383600000025 0 0 0
Pd 4.60887750 2.17264500 -3.2590499100000017 0 0 0
Pd 4.60887750 6.51793500 -3.2590499100000017 0 0 0
Pd 1.56640383 4.34529000 3.26647492
Pd 1.56640383 0.00000000 3.26647492
Pd 4.59818490 6.51793500 0.99097392
Pd 4.59812345 2.17264500 0.99097392
