&CONTROL
calculation = 'relax'
prefix = 'scf'
pseudo_dir = '/vol0004/mdt0/data/hp150275/u10028/POT_KKJUS'
outdir = './data'
tprnfor = .true.
nstep = 50
disk_io = 'non'
/
&SYSTEM
ibrav = 0
ecutwfc = 50.0
ecutrho = 400
occupations = 'smearing'
smearing = 'mp'
degauss = 0.01
assume_isolated = 'esm'
esm_bc = 'bc1'
input_dft = 'BEEF-VDW'
nosym = .true.
nspin = 1
ntyp = 2
nat = 16
/
&ELECTRONS
electron_maxstep = 200
mixing_beta = 0.1
conv_thr = 1e-06
/
&IONS
ion_dynamics = 'bfgs'
upscale = 1.0
/
&CELL
/

K_POINTS {automatic}
6 8 1 0 0 0

ATOMIC_SPECIES
Au 196.9 Au.pbe-n-rrkjus_psl.1.0.0.UPF
V 50.94 V.pbe-spnl-rrkjus_psl.1.0.0.UPF

CELL_PARAMETERS {angstrom}
7.78093000 0.00000000 0.00000000
0.00000000 5.50195000 0.00000000
0.00000000 0.00000000 24.12650000

ATOMIC_POSITIONS {angstrom}
V 0.00000000 2.75097500 -2.0632982800000015 0 0 0
V 1.94523250 4.12646250 -0.6878465200000008 0 0 0
V 1.94523250 1.37548750 -0.6878465200000008 0 0 0
V 7.78077438 5.50189498 0.53295438
V 1.94523250 1.01318409 1.94821488
V 1.94523250 4.48843579 1.94869740
V 3.89046500 2.75097500 -2.0632982800000015 0 0 0
V 5.83569750 4.12646250 -0.6878465200000008 0 0 0
V 5.83569750 1.37548750 -0.6878465200000008 0 0 0
V 3.89062062 5.50183996 0.53271312
V 5.83569750 1.01362425 1.94724982
V 5.83569750 4.48805065 1.94749108
Au 0.00000000 0.00000000 -2.0632982800000015 0 0 0
Au 0.00085590 2.75097500 0.90522628
Au 3.89046500 0.00000000 -2.0632982800000015 0 0 0
Au 3.88960910 2.75097500 0.90546755
