&CONTROL
calculation = 'relax'
prefix = 'scf'
pseudo_dir = '/vol0004/mdt0/data/hp150275/u10028/POT_HYBRID_KKJUS_GBRV'
outdir = './data'
tprnfor = .true.
nstep = 50
disk_io = 'non'
/
&SYSTEM
ibrav = 0
ecutwfc = 50.0
ecutrho = 400
occupations = 'smearing'
smearing = 'mp'
degauss = 0.01
assume_isolated = 'esm'
esm_bc = 'bc1'
input_dft = 'BEEF-VDW'
nosym = .true.
nspin = 2
ntyp = 5
nat = 34
starting_magnetization(1) = 0.0
starting_magnetization(2) = 0.001
starting_magnetization(3) = 0.0
starting_magnetization(4) = 0.0
starting_magnetization(5) = 0.0
/
&ELECTRONS
electron_maxstep = 300
mixing_beta = 0.1
conv_thr = 1e-06
/
&IONS
ion_dynamics = 'bfgs'
upscale = 1.0
/
&CELL
/

K_POINTS {automatic}
8 6 1 0 0 0

ATOMIC_SPECIES
C 12.01 C.pbe-n-rrkjus_psl.1.0.0.UPF
Ni 58.69 ni_pbe_v1.4.uspp.F.UPF
O 15.99 O.pbe-n-rrkjus_psl.1.0.0.UPF
Sn 118.7 Sn.pbe-dn-rrkjus_psl.1.0.0.UPF
Zr 91.22 Zr.pbe-spn-rrkjus_psl.1.0.0.UPF

CELL_PARAMETERS {angstrom}
6.34024000 0.00000000 0.00000000
0.00000000 8.96645000 0.00000000
0.00000000 0.00000000 26.72480000

ATOMIC_POSITIONS {angstrom}
Zr 0.00000000 0.00000000 -3.362514339999997 0 0 0
Zr 3.17012000 2.24161250 -1.1208381099999976 0 0 0
Zr 3.17012000 6.72483750 -1.1208381099999976 0 0 0
Zr 0.00000000 4.48322500 -3.362514339999997 0 0 0
Zr 0.00000000 4.51066234 1.12217435
Zr 3.17012000 6.72492716 3.41730018
Zr 3.17012000 2.24152284 3.37961821
Zr 0.00000000 8.93883333 1.12190710
Ni 1.58506000 0.00000000 -1.1208381099999976 0 0 0
Ni 4.75518000 4.48322500 -1.1208381099999976 0 0 0
Ni 4.75518000 0.00000000 -1.1208381099999976 0 0 0
Ni 1.58506000 4.48322500 -1.1208381099999976 0 0 0
Ni 4.75518000 6.72483750 -3.362514339999997 0 0 0
Ni 1.58506000 2.24161250 -3.362514339999997 0 0 0
Ni 1.58506000 6.72483750 -3.362514339999997 0 0 0
Ni 4.75518000 2.24161250 -3.362514339999997 0 0 0
Ni 1.61872667 4.50017159 3.20831224
Ni 4.72208395 8.94941375 3.20804499
Ni 4.72151333 4.50017159 3.20831224
Ni 1.61815605 8.94941374 3.20804499
Ni 4.83310155 2.24143317 1.16466678
Ni 1.67775431 6.72501683 1.22693557
Ni 1.50713845 2.24143317 1.16466678
Ni 4.66248569 6.72501683 1.22693557
Sn 0.00000000 6.72483750 -1.1208381099999976 0 0 0
Sn 3.17012000 0.00000000 -3.362514339999997 0 0 0
Sn 0.00000000 2.24161250 -1.1208381099999976 0 0 0
Sn 3.17012000 4.48322500 -3.362514339999997 0 0 0
Sn 0.00000000 2.24152284 3.54664821
Sn 3.17012000 4.45112511 1.08315614
Sn 0.00000000 6.72483750 3.51324221
Sn 3.17012000 0.03227922 1.08315614
C 3.17012000 2.24152284 5.68463221
O 3.17012000 2.24161250 6.83406586
