&CONTROL
calculation = 'relax'
prefix = 'scf'
pseudo_dir = '/vol0403/data/hp230205/u10028/POT_HYBRID_KKJUS_GBRV'
outdir = './data'
tprnfor = .true.
nstep = 50
disk_io = 'non'
/
&SYSTEM
ibrav = 0
ecutwfc = 50.0
ecutrho = 400
occupations = 'smearing'
smearing = 'mp'
degauss = 0.01
assume_isolated = 'esm'
esm_bc = 'bc1'
input_dft = 'BEEF-VDW'
nosym = .true.
nspin = 1
ntyp = 5
nat = 17
/
&ELECTRONS
electron_maxstep = 200
mixing_beta = 0.1
conv_thr = 1e-06
/
&IONS
ion_dynamics = 'bfgs'
upscale = 1.0
/
&CELL
/

K_POINTS {automatic}
8 8 1 0 0 0

ATOMIC_SPECIES
C 12.01 C.pbe-n-rrkjus_psl.1.0.0.UPF
Li 6.941 Li.pbe-sl-rrkjus_psl.1.0.0.UPF
Pd 106.4 Pd.pbe-n-rrkjus_psl.1.0.0.UPF
Sn 118.7 Sn.pbe-dn-rrkjus_psl.1.0.0.UPF
Y 88.90 Y.pbe-spn-rrkjus_psl.1.0.0.UPF


CELL_PARAMETERS {angstrom}
6.77715000 0.00000000 0.00000000
0.00000000 6.77715000 0.00000000
0.00000000 0.00000000 25.08290000

ATOMIC_POSITIONS {angstrom}
Li 6.57248007 0.20466993 3.32925332
Li 0.00000000 3.38857500 -0.8470495299999996 0 0 0
Li 3.38857500 0.00000000 -0.8470495299999996 0 0 0
Li 3.57338788 3.20369435 3.34254725
Y 1.69503299 1.69638842 0.92004077
Y 1.69428750 5.08286250 -2.5413994299999985 0 0 0
Y 5.08286250 1.69428750 -2.5413994299999985 0 0 0
Y 5.08076158 5.08211701 0.92029160
Sn 5.08367576 1.69347424 0.62030012
Sn 5.08286250 5.08286250 -2.5413994299999985 0 0 0
Sn 1.69428750 1.69428750 -2.5413994299999985 0 0 0
Sn 1.69130555 5.08584445 1.28650194
Pd 6.49664376 3.10881425 2.47693638
Pd 0.00000000 0.00000000 -0.8470495299999996 0 0 0
Pd 3.38857500 3.38857500 -0.8470495299999996 0 0 0
Pd 3.66833575 0.28050624 2.47693638
C 5.06951151 1.70763849 3.04757235
