&CONTROL
calculation = 'relax'
prefix = 'scf'
pseudo_dir = '/vol0004/mdt0/data/hp150275/u10028/POT_KKJUS'
outdir = './data'
tprnfor = .true.
nstep = 50
disk_io = 'non'
/
&SYSTEM
ibrav = 0
ecutwfc = 50.0
ecutrho = 400
occupations = 'smearing'
smearing = 'mp'
degauss = 0.01
assume_isolated = 'esm'
esm_bc = 'bc1'
input_dft = 'BEEF-VDW'
nosym = .true.
nspin = 1
ntyp = 5
nat = 34
/
&ELECTRONS
electron_maxstep = 200
mixing_beta = 0.1
conv_thr = 1e-06
/
&IONS
ion_dynamics = 'bfgs'
upscale = 1.0
/
&CELL
/

K_POINTS {automatic}
9 6 2 0  0  0

ATOMIC_SPECIES
C 12.01 C.pbe-n-rrkjus_psl.1.0.0.UPF
Cu 63.54 Cu.pbe-dn-rrkjus_psl.1.0.0.UPF
Ni 58.69 Ni.pbe-spn-rrkjus_psl.1.0.0.UPF
O 15.99 O.pbe-n-rrkjus_psl.1.0.0.UPF
Sn 118.7 Sn.pbe-dn-rrkjus_psl.1.0.0.UPF

CELL_PARAMETERS {angstrom}
6.14873000 0.00000000 0.00000000
0.00000000 8.69561000 0.00000000
0.00000000 0.00000000 26.52170000

ATOMIC_POSITIONS {angstrom}
Cu 1.53718250 0.00000000 -1.086859269999998 0 0 0
Cu 4.61154750 4.34780500 -1.086859269999998 0 0 0
Cu 4.61154750 0.00000000 -1.086859269999998 0 0 0
Cu 1.53718250 4.34780500 -1.086859269999998 0 0 0
Cu 4.61154750 6.52170750 -3.2608430099999985 0 0 0
Cu 1.53718250 2.17390250 -3.2608430099999985 0 0 0
Cu 1.53718250 6.52170750 -3.2608430099999985 0 0 0
Cu 4.61154750 2.17390250 -3.2608430099999985 0 0 0
Cu 1.38364871 4.35945712 3.06988678
Cu 4.76458939 8.68561005 3.07041721
Cu 4.76501980 4.36015277 3.06988678
Cu 1.38414061 8.68630570 3.07015199
Cu 4.84028026 2.17625031 1.27012421
Cu 1.30230101 6.52440314 1.31308937
Cu 1.30844974 2.17625031 1.27065465
Cu 4.84636750 6.52440314 1.31361980
Ni 0.00000000 0.00000000 -3.2608430099999985 0 0 0
Ni 3.07436500 2.17390250 -1.086859269999998 0 0 0
Ni 3.07436500 6.52170750 -1.086859269999998 0 0 0
Ni 0.00000000 4.34780500 -3.2608430099999985 0 0 0
Ni 6.14860703 4.35319628 0.89749433
Ni 3.07387310 6.52231619 2.98740429
Ni 3.07479541 2.17459815 2.93860436
Ni 6.14866851 8.69456653 0.89802476
Sn 0.00000000 6.52170750 -1.086859269999998 0 0 0
Sn 3.07436500 0.00000000 -3.2608430099999985 0 0 0
Sn 0.00000000 2.17390250 -1.086859269999998 0 0 0
Sn 3.07436500 4.34780500 -3.2608430099999985 0 0 0
Sn 6.14811513 2.17485902 3.83477260
Sn 3.07436500 4.35267454 1.05662453
Sn 0.00061487 6.52283793 3.89868990
Sn 3.07436500 8.69543609 1.05635931
C 0.00252098 2.13355487 7.86580579
O 6.14817661 2.18059812 8.99960846
