&CONTROL
calculation = 'relax'
prefix = 'scf'
pseudo_dir = '/vol0403/data/hp230205/u10028/POT_HYBRID_KKJUS_GBRV'
outdir = './data'
tprnfor = .true.
nstep = 50
disk_io = 'non'
/
&SYSTEM
ibrav = 0
ecutwfc = 50.0
ecutrho = 400
occupations = 'smearing'
smearing = 'mp'
degauss = 0.01
assume_isolated = 'esm'
esm_bc = 'bc1'
input_dft = 'BEEF-VDW'
nosym = .true.
nspin = 1
ntyp = 5
nat = 33
/
&ELECTRONS
electron_maxstep = 200
mixing_beta = 0.1
conv_thr = 1e-06
/
&IONS
ion_dynamics = 'bfgs'
upscale = 1.0
/
&CELL
/

K_POINTS {automatic}
6 6 1 0 0 0

ATOMIC_SPECIES
C 12.01 C.pbe-n-rrkjus_psl.1.0.0.UPF
Ge 72.64 Ge.pbe-dn-rrkjus_psl.1.0.0.UPF
Li 6.941 Li.pbe-sl-rrkjus_psl.1.0.0.UPF
Sn 118.7 Sn.pbe-dn-rrkjus_psl.1.0.0.UPF
Y 88.90 Y.pbe-spn-rrkjus_psl.1.0.0.UPF


CELL_PARAMETERS {angstrom}
9.43388000 0.00000000 0.00000000
0.00000000 8.60818000 0.00000000
0.00000000 0.00000000 26.39560000

ATOMIC_POSITIONS {angstrom}
Li 2.35847000 0.00000000 0.96396731
Li 2.35847000 0.00000000 -3.1978269400000023 0 0 0
Li 2.35847000 4.30409000 1.10201630
Li 2.35847000 4.30409000 -3.1978269400000023 0 0 0
Li 7.07541000 0.00000000 1.30605429
Li 7.07541000 0.00000000 -3.1978269400000023 0 0 0
Li 7.07541000 4.30409000 1.04368202
Li 7.07541000 4.30409000 -3.1978269400000023 0 0 0
Y 0.00235847 2.14515846 1.01095148
Y 0.00000000 2.15204500 -3.1978269400000023 0 0 0
Y 0.00245281 6.46310763 1.01095148
Y 0.00000000 6.45613500 -3.1978269400000023 0 0 0
Y 4.71458153 2.14515846 1.01095148
Y 4.71694000 2.15204500 -3.1978269400000023 0 0 0
Y 4.71458153 6.46310763 1.01095148
Y 4.71694000 6.45613500 -3.1978269400000023 0 0 0
Sn 2.35847000 2.46383328 3.61276577
Sn 2.35847000 2.15204500 -1.0658543300000005 0 0 0
Sn 2.35847000 6.14426064 3.61276577
Sn 2.35847000 6.45613500 -1.0658543300000005 0 0 0
Sn 7.07541000 2.38980293 3.53938600
Sn 7.07541000 2.15204500 -1.0658543300000005 0 0 0
Sn 7.07541000 6.21846315 3.53938600
Sn 7.07541000 6.45613500 -1.0658543300000005 0 0 0
Ge 0.43169435 0.00000000 3.30314538
Ge 0.00000000 0.00000000 -1.0658543300000005 0 0 0
Ge 9.09897726 4.30409000 2.98323071
Ge 0.00000000 4.30409000 -1.0658543300000005 0 0 0
Ge 4.28515131 0.00000000 3.30288143
Ge 4.71694000 0.00000000 -1.0658543300000005 0 0 0
Ge 5.05184274 4.30409000 2.98323071
Ge 4.71694000 4.30409000 -1.0658543300000005 0 0 0
C 2.35837566 8.60800784 3.06611290
