&CONTROL
calculation = 'relax'
prefix = 'scf'
pseudo_dir = '/vol0403/data/hp230205/u10028/POT_HYBRID_KKJUS_GBRV'
outdir = './data'
tprnfor = .true.
nstep = 50
disk_io = 'non'
/
&SYSTEM
ibrav = 0
ecutwfc = 50.0
ecutrho = 400
occupations = 'smearing'
smearing = 'mp'
degauss = 0.01
assume_isolated = 'esm'
esm_bc = 'bc1'
input_dft = 'BEEF-VDW'
nosym = .true.
nspin = 2
ntyp = 6
nat = 34
starting_magnetization(1) = 0.0
starting_magnetization(2) = 0.0
starting_magnetization(3) = 0.1
starting_magnetization(4) = 0.0
starting_magnetization(5) = 0.0
starting_magnetization(6) = 0.0
/
&ELECTRONS
electron_maxstep = 400
mixing_beta = 0.05
conv_thr = 1e-06
/
&IONS
ion_dynamics = 'bfgs'
upscale = 1.0
/
&CELL
/

K_POINTS {automatic}
9 6 2 0  0  0

ATOMIC_SPECIES
C 12.01 C.pbe-n-rrkjus_psl.1.0.0.UPF
In 114.8 In.pbe-dn-rrkjus_psl.1.0.0.UPF
Mn 54.93 mn_pbe_v1.5.uspp.F.UPF
O 15.99 O.pbe-n-rrkjus_psl.1.0.0.UPF
Pd 106.4 Pd.pbe-n-rrkjus_psl.1.0.0.UPF
Sc 44.95 Sc.pbe-spn-rrkjus_psl.1.0.0.UPF


CELL_PARAMETERS {angstrom}
6.62299000 0.00000000 0.00000000
0.00000000 9.36632000 0.00000000
0.00000000 0.00000000 27.02470000

ATOMIC_POSITIONS {angstrom}
Sc 0.00000000 2.34158000 25.85399000
Sc 0.00000000 7.02474000 25.85399000
Sc 3.31149500 4.68316000 23.51229974
Sc 3.31149500 0.00000000 23.51229974
Sc 6.55040203 7.24822040 3.60401399
Sc 6.55040203 2.11828693 3.60401399
Sc 3.38269214 9.36622634 1.10612097
Sc 3.31705831 4.68316000 1.22529990
Mn 4.96724250 0.00000000 25.85399000
Mn 4.96724250 4.68316000 25.85399000
Mn 1.65574750 2.34158000 23.51229974
Mn 1.65574750 7.02474000 23.51229974
Mn 5.07400510 4.68325366 3.65644191
Mn 4.71364821 0.00009366 3.66076586
Mn 1.62832832 7.03157741 1.32339956
Mn 1.62839455 2.33464892 1.32312931
In 0.00000000 0.00000000 23.51229974
In 0.00000000 4.68316000 23.51229974
In 3.31149500 7.02474000 25.85399000
In 3.31149500 2.34158000 25.85399000
In 6.57292020 4.68306634 1.14017209
In 6.56391293 0.00000000 1.18908680
In 3.32705903 2.43458756 3.67968315
In 3.32705903 6.93182611 3.67941290
Pd 1.65574750 0.00000000 25.85399000
Pd 1.65574750 4.68316000 25.85399000
Pd 4.96724250 2.34158000 23.51229974
Pd 4.96724250 7.02474000 23.51229974
Pd 1.55077311 4.68325366 3.33917193
Pd 1.91192475 0.00009366 3.19215756
Pd 4.97777305 7.02408436 1.19854544
Pd 4.97770682 2.34214198 1.19854544
C 5.95883656 0.00009366 4.97362579
O 0.04079762 0.00000000 5.94786622
