&CONTROL
calculation = 'relax'
prefix = 'scf'
pseudo_dir = '/vol0403/data/hp230205/u10028/POT_HYBRID_KKJUS_GBRV'
outdir = './data'
tprnfor = .true.
nstep = 50
disk_io = 'non'
/
&SYSTEM
ibrav = 0
ecutwfc = 50.0
ecutrho = 400
occupations = 'smearing'
smearing = 'mp'
degauss = 0.01
assume_isolated = 'esm'
esm_bc = 'bc1'
input_dft = 'BEEF-VDW'
nosym = .true.
nspin = 1
ntyp = 6
nat = 18
/
&ELECTRONS
electron_maxstep = 200
mixing_beta = 0.1
conv_thr = 1e-06
/
&IONS
ion_dynamics = 'bfgs'
upscale = 1.0
/
&CELL
/

K_POINTS {automatic}
11 8 2 0  0  0

ATOMIC_SPECIES
C 12.01 C.pbe-n-rrkjus_psl.1.0.0.UPF
Ge 72.64 Ge.pbe-dn-rrkjus_psl.1.0.0.UPF
In 114.8 In.pbe-dn-rrkjus_psl.1.0.0.UPF
Li 6.941 Li.pbe-sl-rrkjus_psl.1.0.0.UPF
O 15.99 O.pbe-n-rrkjus_psl.1.0.0.UPF
Sc 44.95 Sc.pbe-spn-rrkjus_psl.1.0.0.UPF


CELL_PARAMETERS {angstrom}
6.05318000 0.00000000 0.00000000
0.00000000 8.22048000 0.00000000
0.00000000 0.00000000 24.51760000

ATOMIC_POSITIONS {angstrom}
Li 3.18820991 8.22031559 2.80113580
Li 5.75391078 0.00000000 -0.7529355000000031 0 0 0
Li 3.14874317 4.11040441 2.80334238
Li 5.75391078 4.11024000 -0.7529355000000031 0 0 0
Sc 1.69858284 2.06177859 0.84316026
Sc 4.09098117 2.05512000 -2.2588064900000013 0 0 0
Sc 1.69858284 6.15878362 0.84340544
Sc 4.09098117 6.16536000 -2.2588064900000013 0 0 0
In 4.68740100 2.06638206 1.40093566
In 1.06439117 2.05512000 -2.2588064900000013 0 0 0
In 4.68758259 6.15418015 1.40069049
In 1.06439117 6.16536000 -2.2588064900000013 0 0 0
Ge 0.36779122 0.00008220 2.03201869
Ge 2.72732078 0.00000000 -0.7529355000000031 0 0 0
Ge 0.37644726 4.11024000 2.07762142
Ge 2.72732078 4.11024000 -0.7529355000000031 0 0 0
C 3.11859834 8.22039780 4.91161081
O 3.02005257 0.00000000 6.04579498
