&CONTROL
calculation = 'relax'
prefix = 'scf'
pseudo_dir = '/vol0004/mdt0/data/hp150275/u10028/POT_HYBRID_KKJUS_GBRV'
outdir = './data'
tprnfor = .true.
nstep = 50
disk_io = 'non'
/
&SYSTEM
ibrav = 0
ecutwfc = 50.0
ecutrho = 400
occupations = 'smearing'
smearing = 'mp'
degauss = 0.01
assume_isolated = 'esm'
esm_bc = 'bc1'
input_dft = 'BEEF-VDW'
nosym = .true.
nspin = 2
ntyp = 5
nat = 34
starting_magnetization(1) = 0.0
starting_magnetization(2) = 0.0
starting_magnetization(3) = 0.1
starting_magnetization(4) = 0.001
starting_magnetization(5) = 0.0
/
&ELECTRONS
electron_maxstep = 300
mixing_beta = 0.1
conv_thr = 1e-06
/
&IONS
ion_dynamics = 'bfgs'
upscale = 1.0
/
&CELL
/

K_POINTS {automatic}
8 6 1 0 0 0

ATOMIC_SPECIES
C 12.01 C.pbe-n-rrkjus_psl.1.0.0.UPF
In 114.8 In.pbe-dn-rrkjus_psl.1.0.0.UPF
Mn 54.93 mn_pbe_v1.5.uspp.F.UPF
Ni 58.69 ni_pbe_v1.4.uspp.F.UPF
O 15.99 O.pbe-n-rrkjus_psl.1.0.0.UPF

CELL_PARAMETERS {angstrom}
6.11439000 0.00000000 0.00000000
0.00000000 8.64705000 0.00000000
0.00000000 0.00000000 26.48530000

ATOMIC_POSITIONS {angstrom}
Mn 0.00000000 0.00000000 -3.2425952799999997 0 0 0
Mn 3.05719500 2.16176250 -1.0808650899999996 0 0 0
Mn 3.05719500 6.48528750 -1.0808650899999996 0 0 0
Mn 0.00000000 4.32352500 -3.2425952799999997 0 0 0
Mn 6.11004878 4.32352500 1.03425097
Mn 3.08813381 6.41291169 3.17108497
Mn 3.08850068 2.23206302 3.17134982
Mn 0.01907690 0.00025941 1.09675627
In 0.00000000 6.48528750 -1.0808650899999996 0 0 0
In 3.05719500 0.00000000 -3.2425952799999997 0 0 0
In 0.00000000 2.16176250 -1.0808650899999996 0 0 0
In 3.05719500 4.32352500 -3.2425952799999997 0 0 0
In 6.10167207 2.14550605 3.51433446
In 3.05450467 4.32257382 1.03795891
In 6.10173321 6.49886337 3.51539387
In 3.03695637 0.00112412 1.03425097
Ni 1.52859750 0.00000000 -1.0808650899999996 0 0 0
Ni 4.58579250 4.32352500 -1.0808650899999996 0 0 0
Ni 4.58579250 0.00000000 -1.0808650899999996 0 0 0
Ni 1.52859750 4.32352500 -1.0808650899999996 0 0 0
Ni 4.58579250 6.48528750 -3.2425952799999997 0 0 0
Ni 1.52859750 2.16176250 -3.2425952799999997 0 0 0
Ni 1.52859750 6.48528750 -3.2425952799999997 0 0 0
Ni 4.58579250 2.16176250 -3.2425952799999997 0 0 0
Ni 1.43975541 4.32257382 3.06117097
Ni 4.63544135 8.64549353 3.04978229
Ni 4.67775293 4.32309265 3.06699774
Ni 1.59707867 0.00060529 3.27411279
Ni 4.64987131 2.14939722 1.13092231
Ni 1.45822087 6.49116749 1.15343482
Ni 1.45864888 2.15579604 1.15290511
Ni 4.65017703 6.49747984 1.13171687
C 2.31662008 8.64635824 4.89183491
O 2.66012651 8.64627177 6.00262839
