&CONTROL
calculation = 'relax'
prefix = 'scf'
pseudo_dir = '/vol0004/mdt0/data/hp150275/u10028/POT_HYBRID_KKJUS_GBRV'
outdir = './data'
tprnfor = .true.
nstep = 50
disk_io = 'non'
/
&SYSTEM
ibrav = 0
ecutwfc = 50.0
ecutrho = 400
occupations = 'smearing'
smearing = 'mp'
degauss = 0.01
assume_isolated = 'esm'
esm_bc = 'bc1'
input_dft = 'BEEF-VDW'
nosym = .true.
nspin = 2
ntyp = 3
nat = 32
starting_magnetization(1) = 0.0
starting_magnetization(2) = 0.0
starting_magnetization(3) = 0.001
/
&ELECTRONS
electron_maxstep = 200
mixing_beta = 0.1
conv_thr = 1e-06
/
&IONS
ion_dynamics = 'bfgs'
upscale = 1.0
/
&CELL
/

K_POINTS {automatic}
9 6 2 0  0  0

ATOMIC_SPECIES
In 114.8 In.pbe-dn-rrkjus_psl.1.0.0.UPF
Mg 24.30 Mg.pbe-spnl-rrkjus_psl.1.0.0.UPF
Ni 58.69 ni_pbe_v1.4.uspp.F.UPF

CELL_PARAMETERS {angstrom}
6.23499000 0.00000000 0.00000000
0.00000000 8.81761000 0.00000000
0.00000000 0.00000000 26.61320000

ATOMIC_POSITIONS {angstrom}
Mg 0.00000000 0.00000000 23.30650990
Mg 3.11749500 2.20440250 25.51088126
Mg 3.11749500 6.61320750 25.51088126
Mg 0.00000000 4.40880500 23.30650990
Mg 0.00000000 4.40862865 1.01662424
Mg 3.11749500 6.61382473 3.42112686
Mg 3.11749500 2.20387344 3.42112686
Mg 0.00000000 0.00008818 1.01662424
In 0.00000000 6.61320750 25.51088126
In 3.11749500 0.00000000 23.30650990
In 0.00000000 2.20440250 25.51088126
In 3.11749500 4.40880500 23.30650990
In 0.00000000 2.20449068 3.52385381
In 3.11749500 4.40880500 1.09406865
In 0.00000000 6.61311932 3.52332155
In 3.11749500 0.00000000 1.09406865
Ni 1.55874750 0.00000000 25.51088126
Ni 4.67624250 4.40880500 25.51088126
Ni 4.67624250 0.00000000 25.51088126
Ni 1.55874750 4.40880500 25.51088126
Ni 4.67624250 6.61320750 23.30650990
Ni 1.55874750 2.20440250 23.30650990
Ni 1.55874750 6.61320750 23.30650990
Ni 4.67624250 2.20440250 23.30650990
Ni 1.42650336 4.40871682 3.11267987
Ni 4.80879839 0.00008818 3.11267987
Ni 4.80848664 4.40871682 3.11267987
Ni 1.42619161 0.00008818 3.11267987
Ni 4.69650622 2.20431432 1.15581128
Ni 1.53848378 6.61329568 1.15581128
Ni 1.53848378 2.20431432 1.15581128
Ni 4.69650622 6.61329568 1.15581128
