&CONTROL
calculation = 'relax'
prefix = 'scf'
pseudo_dir = '/vol0004/mdt0/data/hp150275/u10028/POT_HYBRID_KKJUS_GBRV'
outdir = './data'
tprnfor = .true.
nstep = 50
disk_io = 'non'
/
&SYSTEM
ibrav = 0
ecutwfc = 50.0
ecutrho = 400
occupations = 'smearing'
smearing = 'mp'
degauss = 0.01
assume_isolated = 'esm'
esm_bc = 'bc1'
input_dft = 'BEEF-VDW'
nosym = .true.
nspin = 2
ntyp = 4
nat = 18
starting_magnetization(1) = 0.0
starting_magnetization(2) = 0.0
starting_magnetization(3) = 0.1
starting_magnetization(4) = 0.0
/
&ELECTRONS
electron_maxstep = 200
mixing_beta = 0.1
conv_thr = 1e-06
/
&IONS
ion_dynamics = 'bfgs'
upscale = 1.0
/
&CELL
/

K_POINTS {automatic}
9 9 2 0  0  0

ATOMIC_SPECIES
Au 196.9 Au.pbe-n-rrkjus_psl.1.0.0.UPF
C 12.01 C.pbe-n-rrkjus_psl.1.0.0.UPF
Mn 54.93 mn_pbe_v1.5.uspp.F.UPF
O 15.99 O.pbe-n-rrkjus_psl.1.0.0.UPF

CELL_PARAMETERS {angstrom}
6.45068000 0.00000000 0.00000000
-0.00000000 6.45068000 0.00000000
0.00000000 0.00000000 25.03480000

ATOMIC_POSITIONS {angstrom}
Mn 1.61267000 1.61267000 -0.36600878000000137 0 0 0
Mn 1.61267000 1.61267000 2.99040686
Mn 1.61267000 4.83801000 -0.36600878000000137 0 0 0
Mn 1.61267000 4.83801000 2.99040686
Mn 4.83801000 1.61267000 -0.36600878000000137 0 0 0
Mn 4.83801000 1.61267000 2.99040686
Mn 4.83801000 4.83801000 -0.36600878000000137 0 0 0
Mn 4.83801000 4.83801000 2.99040686
Au 0.00000000 0.00000000 -2.044341769999999 0 0 0
Au 0.00000000 0.00000000 1.31232422
Au 0.00000000 3.22534000 -2.044341769999999 0 0 0
Au 0.00000000 3.22534000 1.31232422
Au 3.22534000 0.00000000 -2.044341769999999 0 0 0
Au 3.22534000 -0.00000000 1.31232422
Au 3.22534000 3.22534000 -2.044341769999999 0 0 0
Au 3.22534000 3.22534000 1.31232422
C 1.61267000 1.61267000 4.89054818
O 1.61267000 1.61267000 6.04064689
