&CONTROL
calculation = 'relax'
prefix = 'scf'
pseudo_dir = '/vol0004/mdt0/data/hp150275/u10028/POT_KKJUS'
outdir = './data'
tprnfor = .true.
nstep = 50
disk_io = 'non'
/
&SYSTEM
ibrav = 0
ecutwfc = 50.0
ecutrho = 400
occupations = 'smearing'
smearing = 'mp'
degauss = 0.01
assume_isolated = 'esm'
esm_bc = 'bc1'
input_dft = 'BEEF-VDW'
nosym = .true.
nspin = 1
ntyp = 3
nat = 33
/
&ELECTRONS
electron_maxstep = 200
mixing_beta = 0.1
conv_thr = 1e-06
/
&IONS
ion_dynamics = 'bfgs'
upscale = 1.0
/
&CELL
/

K_POINTS {automatic}
8 6 1 0 0 0

ATOMIC_SPECIES
C 12.01 C.pbe-n-rrkjus_psl.1.0.0.UPF
Ca 40.07 Ca.pbe-spn-rrkjus_psl.1.0.0.UPF
Ni 58.69 Ni.pbe-spn-rrkjus_psl.1.0.0.UPF

CELL_PARAMETERS {angstrom}
6.93038000 0.00000000 0.00000000
0.00000000 9.80104000 0.00000000
0.00000000 0.00000000 27.35080000

ATOMIC_POSITIONS {angstrom}
Ca 0.00000000 0.00000000 -3.6754004999999985 0 0 0
Ca 0.00000000 2.45026000 -1.2250423300000008 0 0 0
Ca 0.03645380 9.77771352 1.18483666
Ca 6.56182239 2.45016199 3.54220211
Ca 0.00000000 4.90052000 -3.6754004999999985 0 0 0
Ca 0.00000000 7.35078000 -1.2250423300000008 0 0 0
Ca 0.03638450 4.92365045 1.18483666
Ca 0.03707753 7.35078000 3.85755683
Ca 3.46519000 0.00000000 -3.6754004999999985 0 0 0
Ca 3.46519000 2.45026000 -1.2250423300000008 0 0 0
Ca 3.42845899 9.77771352 1.18483666
Ca 3.83360900 2.45055403 3.54165509
Ca 3.46519000 4.90052000 -3.6754004999999985 0 0 0
Ca 3.46519000 7.35078000 -1.2250423300000008 0 0 0
Ca 3.42859759 4.92365045 1.18483666
Ca 3.42769664 7.35068199 3.85755683
Ni 1.73259500 2.45026000 -3.6754004999999985 0 0 0
Ni 1.73259500 0.00000000 -1.2250423300000008 0 0 0
Ni 1.73308013 2.44947592 1.52234553
Ni 1.73273361 0.77692844 3.77851302
Ni 1.73259500 7.35078000 -3.6754004999999985 0 0 0
Ni 1.73259500 4.90052000 -1.2250423300000008 0 0 0
Ni 1.73238709 7.35068199 1.34538585
Ni 1.73266430 4.12447365 3.77769250
Ni 5.19778500 2.45026000 -3.6754004999999985 0 0 0
Ni 5.19778500 0.00000000 -1.2250423300000008 0 0 0
Ni 5.19771570 2.45026000 1.02921060
Ni 5.19709196 9.50259833 3.30124156
Ni 5.19778500 7.35078000 -3.6754004999999985 0 0 0
Ni 5.19778500 4.90052000 -1.2250423300000008 0 0 0
Ni 5.19771570 7.35048597 1.65800550
Ni 5.19792361 5.19945172 3.30151507
C 1.73259500 2.45084806 4.44641956
