&CONTROL
calculation = 'relax'
prefix = 'scf'
pseudo_dir = '/vol0004/mdt0/data/hp150275/u10028/POT_KKJUS'
outdir = './data'
tprnfor = .true.
nstep = 50
disk_io = 'non'
/
&SYSTEM
ibrav = 0
ecutwfc = 50.0
ecutrho = 400
occupations = 'smearing'
smearing = 'mp'
degauss = 0.01
assume_isolated = 'esm'
esm_bc = 'bc1'
input_dft = 'BEEF-VDW'
nosym = .true.
nspin = 1
ntyp = 4
nat = 34
/
&ELECTRONS
electron_maxstep = 200
mixing_beta = 0.1
conv_thr = 1e-06
/
&IONS
ion_dynamics = 'bfgs'
upscale = 1.0
/
&CELL
/

K_POINTS {automatic}
9 6 2 0  0  0

ATOMIC_SPECIES
C 12.01 C.pbe-n-rrkjus_psl.1.0.0.UPF
Ir 192.2 Ir.pbe-n-rrkjus_psl.0.2.3.UPF
O 15.99 O.pbe-n-rrkjus_psl.1.0.0.UPF
Y 88.90 Y.pbe-spn-rrkjus_psl.1.0.0.UPF

CELL_PARAMETERS {angstrom}
6.88160000 0.00000000 0.00000000
0.00000000 9.73205000 0.00000000
0.00000000 0.00000000 27.29900000

ATOMIC_POSITIONS {angstrom}
Y 1.72040000 2.43301250 -3.64960331 0 0 0
Y 1.72040000 0.00000000 -1.216443439999999 0 0 0
Y 1.72040000 2.42824380 1.26940350
Y 1.72040000 4.86602500 3.75661539
Y 1.72040000 7.29903750 -3.64960331 0 0 0
Y 1.72040000 4.86602500 -1.216443439999999 0 0 0
Y 1.72040000 7.30390352 1.26940350
Y 1.72040000 0.00000000 3.76999190
Y 5.16120000 2.43301250 -3.64960331 0 0 0
Y 5.16120000 0.00000000 -1.216443439999999 0 0 0
Y 5.16120000 2.43388838 1.26312473
Y 5.16120000 4.86602500 3.75907230
Y 5.16120000 7.29903750 -3.64960331 0 0 0
Y 5.16120000 4.86602500 -1.216443439999999 0 0 0
Y 5.16120000 7.29816162 1.26312473
Y 5.16120000 0.00000000 3.75006363
Ir 0.00000000 0.00000000 -3.64960331 0 0 0
Ir 0.00000000 2.43301250 -1.216443439999999 0 0 0
Ir 6.87052062 0.00000000 1.30107034
Ir 6.87499366 2.44566417 3.54177226
Ir 0.00000000 4.86602500 -3.64960331 0 0 0
Ir 0.00000000 7.29903750 -1.216443439999999 0 0 0
Ir 0.00103224 4.86602500 1.32017964
Ir 6.87499366 7.28638584 3.54177226
Ir 3.44080000 0.00000000 -3.64960331 0 0 0
Ir 3.44080000 2.43301250 -1.216443439999999 0 0 0
Ir 3.45187938 0.00000000 1.30107034
Ir 3.44740634 2.44566417 3.54177226
Ir 3.44080000 4.86602500 -3.64960331 0 0 0
Ir 3.44080000 7.29903750 -1.216443439999999 0 0 0
Ir 3.43976776 4.86602500 1.32017964
Ir 3.44740634 7.28638584 3.54177226
C 1.72040000 0.00000000 6.34701750
O 1.72040000 0.00000000 7.49029962
