&CONTROL
calculation = 'relax'
prefix = 'scf'
pseudo_dir = '/vol0004/mdt0/data/hp150275/u10028/POT_HYBRID_KKJUS_GBRV'
outdir = './data'
tprnfor = .true.
nstep = 50
disk_io = 'non'
/
&SYSTEM
ibrav = 0
ecutwfc = 50.0
ecutrho = 400
occupations = 'smearing'
smearing = 'mp'
degauss = 0.01
assume_isolated = 'esm'
esm_bc = 'bc1'
input_dft = 'BEEF-VDW'
nosym = .true.
nspin = 2
ntyp = 5
nat = 34
starting_magnetization(1) = 0.0
starting_magnetization(2) = 0.1
starting_magnetization(3) = 0.1
starting_magnetization(4) = 0.0
starting_magnetization(5) = 0.0
/
&ELECTRONS
electron_maxstep = 200
mixing_beta = 0.1
conv_thr = 1e-06
/
&IONS
ion_dynamics = 'bfgs'
upscale = 1.0
/
&CELL
/

K_POINTS {automatic}
9 6 2 0  0  0

ATOMIC_SPECIES
C 12.01 C.pbe-n-rrkjus_psl.1.0.0.UPF
Co 58.93 co_pbe_v1.2.uspp.F.UPF
Fe 55.84 fe_pbe_v1.5.uspp.F.UPF
O 15.99 O.pbe-n-rrkjus_psl.1.0.0.UPF
Si 28.08 Si.pbe-nl-rrkjus_psl.1.0.0.UPF

CELL_PARAMETERS {angstrom}
5.64511000 0.00000000 0.00000000
0.00000000 7.98338000 0.00000000
0.00000000 0.00000000 25.98750000

ATOMIC_POSITIONS {angstrom}
Fe 0.00000000 0.00000000 22.99374000
Fe 2.82255500 1.99584500 24.98958000
Fe 2.82255500 5.98753500 24.98958000
Fe 0.00000000 3.99169000 22.99374000
Fe 0.00000000 3.99017316 0.96855412
Fe 2.82255500 5.98737533 3.01610925
Fe 2.82261145 1.99608450 3.01818825
Fe 0.00000000 0.00159668 0.96855412
Co 1.41127750 0.00000000 24.98958000
Co 4.23383250 3.99169000 24.98958000
Co 4.23383250 0.00000000 24.98958000
Co 1.41127750 3.99169000 24.98958000
Co 4.23383250 5.98753500 22.99374000
Co 1.41127750 1.99584500 22.99374000
Co 1.41127750 5.98753500 22.99374000
Co 4.23383250 1.99584500 22.99374000
Co 1.36464889 3.99727837 2.86382250
Co 4.28029176 7.97779163 2.86382250
Co 4.28046111 3.99727837 2.86382250
Co 1.36481824 7.97779163 2.86382250
Co 4.23445346 1.99592483 0.99376200
Co 1.41816453 5.98753500 0.97167263
Co 1.41065654 1.99592483 0.99376200
Co 4.22694547 5.98745517 0.97193250
Si 0.00000000 5.98753500 24.98958000
Si 2.82255500 0.00000000 22.99374000
Si 0.00000000 1.99584500 24.98958000
Si 2.82255500 3.99169000 22.99374000
Si 0.00000000 1.99576517 3.15618188
Si 2.82255500 3.99001349 1.00779525
Si 0.00000000 5.98761483 3.00155625
Si 2.82255500 0.00167651 1.00779525
C 0.00000000 1.99584500 5.04651263
O 0.00000000 1.99584500 6.20165700
