&CONTROL
calculation = 'relax'
prefix = 'scf'
pseudo_dir = '/vol0403/data/hp230205/u10028/POT_HYBRID_KKJUS_GBRV'
outdir = './data'
tprnfor = .true.
nstep = 70
disk_io = 'non'
/
&SYSTEM
ibrav = 0
ecutwfc = 50.0
ecutrho = 400
occupations = 'smearing'
smearing = 'mp'
degauss = 0.01
assume_isolated = 'esm'
esm_bc = 'bc1'
input_dft = 'BEEF-VDW'
nosym = .true.
nspin = 1
ntyp = 5
nat = 17
/
&ELECTRONS
electron_maxstep = 200
mixing_beta = 0.1
conv_thr = 1e-06
/
&IONS
ion_dynamics = 'bfgs'
upscale = 1.0
/
&CELL
/

K_POINTS {automatic}
6 6 1 0 0 0

ATOMIC_SPECIES
C 12.01 C.pbe-n-rrkjus_psl.1.0.0.UPF
Cu 63.54 Cu.pbe-dn-rrkjus_psl.1.0.0.UPF
Ge 72.64 Ge.pbe-dn-rrkjus_psl.1.0.0.UPF
Li 6.941 Li.pbe-sl-rrkjus_psl.1.0.0.UPF
Mg 24.30 Mg.pbe-spnl-rrkjus_psl.1.0.0.UPF


CELL_PARAMETERS {angstrom}
6.17522000 0.00000000 0.00000000
-0.00000000 6.17522000 0.00000000
0.00000000 0.00000000 24.63140000

ATOMIC_POSITIONS {angstrom}
Li 0.00000000 3.08761000 2.31559791
Li 0.00000000 0.00000000 -0.7719480799999978 0 0 0
Li 3.08761000 3.08761000 -0.7719480799999978 0 0 0
Li 3.08761000 -0.00000000 2.31559791
Mg 4.63141500 1.54380500 0.77194808
Mg 4.63141500 4.63141500 -2.315597910000001 0 0 0
Mg 1.54380500 1.54380500 -2.315597910000001 0 0 0
Mg 1.54380500 4.63141500 0.77194808
Cu 0.00000000 0.00000000 2.31559791
Cu 0.00000000 3.08761000 -0.7719480799999978 0 0 0
Cu 3.08761000 0.00000000 -0.7719480799999978 0 0 0
Cu 3.08761000 3.08761000 2.31559791
Ge 1.54380500 1.54380500 0.77194808
Ge 1.54380500 4.63141500 -2.315597910000001 0 0 0
Ge 4.63141500 1.54380500 -2.315597910000001 0 0 0
Ge 4.63141500 4.63141500 0.77194808
C 4.63141500 1.54380500 3.11562579
