&CONTROL
calculation = 'relax'
prefix = 'scf'
pseudo_dir = '/vol0403/data/hp230205/u10028/POT_HYBRID_KKJUS_GBRV'
outdir = './data'
tprnfor = .true.
nstep = 50
disk_io = 'non'
/
&SYSTEM
ibrav = 0
ecutwfc = 50.0
ecutrho = 400
occupations = 'smearing'
smearing = 'mp'
degauss = 0.01
assume_isolated = 'esm'
esm_bc = 'bc1'
input_dft = 'BEEF-VDW'
nosym = .true.
nspin = 1
ntyp = 4
nat = 32
/
&ELECTRONS
electron_maxstep = 200
mixing_beta = 0.1
conv_thr = 1e-06
/
&IONS
ion_dynamics = 'bfgs'
upscale = 1.0
/
&CELL
/

K_POINTS {automatic}
6 6 1 0 0 0

ATOMIC_SPECIES
Ge 72.64 Ge.pbe-dn-rrkjus_psl.1.0.0.UPF
Li 6.941 Li.pbe-sl-rrkjus_psl.1.0.0.UPF
Pd 106.4 Pd.pbe-n-rrkjus_psl.1.0.0.UPF
V 50.94 V.pbe-spnl-rrkjus_psl.1.0.0.UPF


CELL_PARAMETERS {angstrom}
8.64114000 0.00000000 0.00000000
0.00000000 9.40562000 0.00000000
0.00000000 0.00000000 24.26620000

ATOMIC_POSITIONS {angstrom}
Li 0.00000000 2.35140500 -0.7109996600000024 0 0 0
Li 0.00000000 2.35140500 2.13299898
Li 0.00000000 7.05421500 -0.7109996600000024 0 0 0
Li 0.00000000 7.05421500 2.13299898
Li 4.32057000 2.35140500 -0.7109996600000024 0 0 0
Li 4.32057000 2.35140500 2.13299898
Li 4.32057000 7.05421500 -0.7109996600000024 0 0 0
Li 4.32057000 7.05421500 2.13299898
V 2.16028500 0.00000000 -0.7109996600000024 0 0 0
V 2.16028500 0.00000000 2.13299898
V 2.16028500 4.70281000 -0.7109996600000024 0 0 0
V 2.16028500 4.70281000 2.13299898
V 6.48085500 0.00000000 -0.7109996600000024 0 0 0
V 6.48085500 0.00000000 2.13299898
V 6.48085500 4.70281000 -0.7109996600000024 0 0 0
V 6.48085500 4.70281000 2.13299898
Ge 0.00000000 0.00000000 -2.13299898 0 0 0
Ge 0.00000000 0.00000000 0.71099966
Ge 0.00000000 4.70281000 -2.13299898 0 0 0
Ge 0.00000000 4.70281000 0.71099966
Ge 4.32057000 0.00000000 -2.13299898 0 0 0
Ge 4.32057000 0.00000000 0.71099966
Ge 4.32057000 4.70281000 -2.13299898 0 0 0
Ge 4.32057000 4.70281000 0.71099966
Pd 2.16028500 2.35140500 -2.13299898 0 0 0
Pd 2.16028500 2.35140500 0.71099966
Pd 2.16028500 7.05421500 -2.13299898 0 0 0
Pd 2.16028500 7.05421500 0.71099966
Pd 6.48085500 2.35140500 -2.13299898 0 0 0
Pd 6.48085500 2.35140500 0.71099966
Pd 6.48085500 7.05421500 -2.13299898 0 0 0
Pd 6.48085500 7.05421500 0.71099966
