&CONTROL
calculation = 'relax'
prefix = 'scf'
pseudo_dir = '/vol0004/mdt0/data/hp150275/u10028/POT_KKJUS'
outdir = './data'
tprnfor = .true.
nstep = 50
disk_io = 'non'
/
&SYSTEM
ibrav = 0
ecutwfc = 50.0
ecutrho = 400
occupations = 'smearing'
smearing = 'mp'
degauss = 0.01
assume_isolated = 'esm'
esm_bc = 'bc1'
input_dft = 'BEEF-VDW'
nosym = .true.
nspin = 1
ntyp = 4
nat = 18
/
&ELECTRONS
electron_maxstep = 200
mixing_beta = 0.1
conv_thr = 1e-06
/
&IONS
ion_dynamics = 'bfgs'
upscale = 1.0
/
&CELL
/

K_POINTS {automatic}
9 9 2 0  0  0

ATOMIC_SPECIES
C 12.01 C.pbe-n-rrkjus_psl.1.0.0.UPF
O 15.99 O.pbe-n-rrkjus_psl.1.0.0.UPF
Rh 102.9 Rh.pbe-spn-rrkjus_psl.1.0.0.UPF
Sc 44.95 Sc.pbe-spn-rrkjus_psl.1.0.0.UPF

CELL_PARAMETERS {angstrom}
6.47981000 0.00000000 0.00000000
0.00000000 6.47981000 0.00000000
0.00000000 0.00000000 24.85990000

ATOMIC_POSITIONS {angstrom}
Sc 0.00000000 0.00000000 -2.1125943000000014 0 0 0
Sc 6.46795195 6.46795195 1.22609027
Sc 0.00000000 3.23990500 -2.1125943000000014 0 0 0
Sc 6.46801675 3.25169825 1.22633887
Sc 3.23990500 0.00000000 -2.1125943000000014 0 0 0
Sc 3.25169825 6.46795195 1.22609027
Sc 3.23990500 3.23990500 -2.1125943000000014 0 0 0
Sc 3.25169825 3.25176305 1.22633887
Rh 1.61995250 1.61995250 -0.4924746199999994 0 0 0
Rh 1.62118366 1.61982290 2.59512496
Rh 1.61995250 4.85985750 -0.4924746199999994 0 0 0
Rh 1.61982290 4.86031109 2.52576584
Rh 4.85985750 1.61995250 -0.4924746199999994 0 0 0
Rh 4.85914472 1.61930452 2.52626304
Rh 4.85985750 4.85985750 -0.4924746199999994 0 0 0
Rh 4.85953351 4.86044068 2.53869299
C 1.62021169 1.61995250 4.48820635
O 1.61988770 1.61995250 5.64369450
