&CONTROL
calculation = 'relax'
prefix = 'scf'
pseudo_dir = '/vol0004/mdt0/data/hp150275/u10028/POT_HYBRID_KKJUS_GBRV'
outdir = './data'
tprnfor = .true.
nstep = 50
disk_io = 'non'
/
&SYSTEM
ibrav = 0
ecutwfc = 50.0
ecutrho = 400
occupations = 'smearing'
smearing = 'mp'
degauss = 0.01
assume_isolated = 'esm'
esm_bc = 'bc1'
input_dft = 'BEEF-VDW'
nosym = .true.
nspin = 2
ntyp = 2
nat = 16
starting_magnetization(1) = 0.1
starting_magnetization(2) = 0.1
/
&ELECTRONS
electron_maxstep = 200
mixing_beta = 0.1
conv_thr = 1e-06
/
&IONS
ion_dynamics = 'bfgs'
upscale = 1.0
/
&CELL
/

K_POINTS {automatic}
10 10 2 0  0  0

ATOMIC_SPECIES
Ni 58.69 ni_pbe_v1.4.uspp.F.UPF
Sn 118.7 Sn.pbe-dn-rrkjus_psl.1.0.0.UPF

CELL_PARAMETERS {angstrom}
5.96895000 0.00000000 0.00000000
-0.00000000 5.96895000 0.00000000
0.00000000 0.00000000 24.47670000

ATOMIC_POSITIONS {angstrom}
Ni 1.49223750 1.49223750 0.74604982
Ni 4.47671250 4.47671250 -2.2383942100000027 0 0 0
Ni 4.47671250 1.49223750 0.74604982
Ni 1.49223750 4.47671250 -2.2383942100000027 0 0 0
Ni 4.47671250 4.47671250 0.74604982
Ni 1.49223750 1.49223750 -2.2383942100000027 0 0 0
Ni 1.49223750 4.47671250 0.74604982
Ni 4.47671250 1.49223750 -2.2383942100000027 0 0 0
Ni 0.00000000 0.00000000 -0.7460498199999996 0 0 0
Ni 2.98447500 -0.00000000 2.23839422
Ni 0.00000000 2.98447500 2.23839422
Ni 2.98447500 2.98447500 -0.7460498199999996 0 0 0
Sn 0.00000000 0.00000000 2.23839422
Sn 2.98447500 2.98447500 2.23839422
Sn 2.98447500 0.00000000 -0.7460498199999996 0 0 0
Sn 0.00000000 2.98447500 -0.7460498199999996 0 0 0
