&CONTROL
calculation = 'relax'
prefix = 'scf'
pseudo_dir = '/vol0403/data/hp230205/u10028/POT_HYBRID_KKJUS_GBRV'
outdir = './data'
tprnfor = .true.
nstep = 50
disk_io = 'non'
/
&SYSTEM
ibrav = 0
ecutwfc = 50.0
ecutrho = 400
occupations = 'smearing'
smearing = 'mp'
degauss = 0.01
assume_isolated = 'esm'
esm_bc = 'bc1'
input_dft = 'BEEF-VDW'
nosym = .true.
nspin = 2
ntyp = 6
nat = 18
starting_magnetization(1) = 0.0
starting_magnetization(2) = 0.0
starting_magnetization(3) = 0.1
starting_magnetization(4) = 0.0
starting_magnetization(5) = 0.0
starting_magnetization(6) = 0.0
/
&ELECTRONS
electron_maxstep = 400
mixing_beta = 0.05
conv_thr = 1e-06
/
&IONS
ion_dynamics = 'bfgs'
upscale = 1.0
/
&CELL
/

K_POINTS {automatic}
6 6 1 0 0 0

ATOMIC_SPECIES
Al 26.98 Al.pbe-nl-rrkjus_psl.1.0.0.UPF
C 12.01 C.pbe-n-rrkjus_psl.1.0.0.UPF
Fe 55.84 fe_pbe_v1.5.uspp.F.UPF
Li 6.941 Li.pbe-sl-rrkjus_psl.1.0.0.UPF
O 15.99 O.pbe-n-rrkjus_psl.1.0.0.UPF
Pd 106.4 Pd.pbe-n-rrkjus_psl.1.0.0.UPF


CELL_PARAMETERS {angstrom}
5.15535000 0.00000000 0.00000000
0.00000000 8.84236000 0.00000000
0.00000000 0.00000000 23.55420000

ATOMIC_POSITIONS {angstrom}
Li 3.56585249 2.20404665 0.62088871
Li 4.92191575 2.21059000 -1.777164390000003 0 0 0
Li 3.56647113 6.63822492 0.61947546
Li 4.92191575 6.63177000 -1.777164390000003 0 0 0
Al 0.22822734 0.00000000 1.69967107
Al 1.56284435 0.00000000 -0.5923881300000033 0 0 0
Al 0.21446256 4.42109158 1.65562472
Al 1.56284435 4.42118000 -0.5923881300000033 0 0 0
Fe 2.92865123 8.84129892 1.28535269
Fe 4.14051935 0.00000000 -0.5923881300000033 0 0 0
Fe 2.94633408 4.42215266 1.26062078
Fe 4.14051935 4.42118000 -0.5923881300000033 0 0 0
Pd 0.97425804 2.20882153 0.73771754
Pd 2.34424075 2.21059000 -1.777164390000003 0 0 0
Pd 0.97461892 6.63345005 0.73795309
Pd 2.34424075 6.63177000 -1.777164390000003 0 0 0
C 0.04412980 8.84227158 3.71049313
O 5.02053760 8.84209473 4.84698328
