&CONTROL
calculation = 'relax'
prefix = 'scf'
pseudo_dir = '/vol0403/data/hp230205/u10028/POT_HYBRID_KKJUS_GBRV'
outdir = './data'
tprnfor = .true.
nstep = 50
disk_io = 'non'
/
&SYSTEM
ibrav = 0
ecutwfc = 50.0
ecutrho = 400
occupations = 'smearing'
smearing = 'mp'
degauss = 0.01
assume_isolated = 'esm'
esm_bc = 'bc1'
input_dft = 'BEEF-VDW'
nosym = .true.
nspin = 1
ntyp = 5
nat = 17
/
&ELECTRONS
electron_maxstep = 200
mixing_beta = 0.1
conv_thr = 1e-06
/
&IONS
ion_dynamics = 'bfgs'
upscale = 1.0
/
&CELL
/

K_POINTS {automatic}
11 7 2 0  0  0

ATOMIC_SPECIES
C 12.01 C.pbe-n-rrkjus_psl.1.0.0.UPF
In 114.8 In.pbe-dn-rrkjus_psl.1.0.0.UPF
Li 6.941 Li.pbe-sl-rrkjus_psl.1.0.0.UPF
Pb 207.2 Pb.pbe-dn-rrkjus_psl.1.0.0.UPF
Y 88.90 Y.pbe-spn-rrkjus_psl.1.0.0.UPF


CELL_PARAMETERS {angstrom}
6.51578000 0.00000000 0.00000000
0.00000000 9.32892000 0.00000000
0.00000000 0.00000000 24.88170000

ATOMIC_POSITIONS {angstrom}
Li 1.55433932 2.33223000 -0.81363159 0 0 0
Li 4.54931760 1.38991579 3.08682370
Li 1.55433932 6.99669000 -0.81363159 0 0 0
Li 4.54925244 7.93900421 3.08682370
Y 3.25789000 0.00000000 -2.44089477 0 0 0
Y 6.19950404 0.00000000 0.75092971
Y 3.25789000 4.66446000 -2.44089477 0 0 0
Y 6.13408561 4.66446000 0.98705704
In 0.00000000 0.00000000 -2.44089477 0 0 0
In 2.81331833 0.00000000 0.74172348
In 0.00000000 4.66446000 -2.44089477 0 0 0
In 2.86251247 4.66446000 1.05747225
Pb 4.81222932 2.33223000 -0.81363159 0 0 0
Pb 1.28048109 1.68629558 3.15325784
Pb 4.81222932 6.99669000 -0.81363159 0 0 0
Pb 1.28048109 7.64262442 3.15325784
C 6.06553960 0.00000000 2.95569714
