&CONTROL
calculation = 'relax'
prefix = 'scf'
pseudo_dir = '/vol0004/mdt0/data/hp150275/u10028/POT_KKJUS'
outdir = './data'
tprnfor = .true.
nstep = 50
disk_io = 'non'
/
&SYSTEM
ibrav = 0
ecutwfc = 50.0
ecutrho = 400
occupations = 'smearing'
smearing = 'mp'
degauss = 0.01
assume_isolated = 'esm'
esm_bc = 'bc1'
input_dft = 'BEEF-VDW'
nosym = .true.
nspin = 1
ntyp = 3
nat = 33
/
&ELECTRONS
electron_maxstep = 200
mixing_beta = 0.1
conv_thr = 1e-06
/
&IONS
ion_dynamics = 'bfgs'
upscale = 1.0
/
&CELL
/

K_POINTS {automatic}
9 6 2 0  0  0

ATOMIC_SPECIES
C 12.01 C.pbe-n-rrkjus_psl.1.0.0.UPF
Pd 106.4 Pd.pbe-n-rrkjus_psl.1.0.0.UPF
Ti 47.86 Ti.pbe-spn-rrkjus_psl.1.0.0.UPF

CELL_PARAMETERS {angstrom}
6.37073000 0.00000000 0.00000000
0.00000000 9.00957000 0.00000000
0.00000000 0.00000000 26.75720000

ATOMIC_POSITIONS {angstrom}
Ti 1.59268250 2.25239250 -3.378631640000002 0 0 0
Ti 1.59268250 0.00000000 -1.1262105499999997 0 0 0
Ti 1.55299285 2.25743786 1.24528009
Ti 1.64250161 0.00000000 3.37515321
Ti 1.59268250 6.75717750 -3.378631640000002 0 0 0
Ti 1.59268250 4.50478500 -1.1262105499999997 0 0 0
Ti 1.55305656 6.75213214 1.24528009
Ti 1.43328684 4.50478500 3.22531289
Ti 4.77804750 2.25239250 -3.378631640000002 0 0 0
Ti 4.77804750 0.00000000 -1.1262105499999997 0 0 0
Ti 4.81773715 2.25761805 1.24528009
Ti 4.72829210 0.00000000 3.37515321
Ti 4.77804750 6.75717750 -3.378631640000002 0 0 0
Ti 4.77804750 4.50478500 -1.1262105499999997 0 0 0
Ti 4.81767344 6.75204205 1.24528009
Ti 4.93731575 4.50478500 3.22504532
Pd 0.00000000 0.00000000 -3.378631640000002 0 0 0
Pd 0.00000000 2.25239250 -1.1262105499999997 0 0 0
Pd 6.37066629 0.00000000 0.96459706
Pd 0.00000000 2.26482571 3.61034900
Pd 0.00000000 4.50478500 -3.378631640000002 0 0 0
Pd 0.00000000 6.75717750 -1.1262105499999997 0 0 0
Pd 0.00019112 4.50487510 0.89235262
Pd 0.00000000 6.74465420 3.61034900
Pd 3.18536500 0.00000000 -3.378631640000002 0 0 0
Pd 3.18536500 2.25239250 -1.1262105499999997 0 0 0
Pd 3.18536500 0.00000000 0.96245648
Pd 3.18536500 2.28446657 3.35428259
Pd 3.18536500 4.50478500 -3.378631640000002 0 0 0
Pd 3.18536500 6.75717750 -1.1262105499999997 0 0 0
Pd 3.18511017 4.50478500 1.08232874
Pd 3.18536500 6.72510343 3.35428259
C 0.00000000 9.00947990 4.31673908
