&CONTROL
calculation = 'relax'
prefix = 'scf'
pseudo_dir = '/vol0403/data/hp230205/u10028/POT_HYBRID_KKJUS_GBRV'
outdir = './data'
tprnfor = .true.
nstep = 50
disk_io = 'non'
/
&SYSTEM
ibrav = 0
ecutwfc = 50.0
ecutrho = 400
occupations = 'smearing'
smearing = 'mp'
degauss = 0.01
assume_isolated = 'esm'
esm_bc = 'bc1'
input_dft = 'BEEF-VDW'
nosym = .true.
nspin = 2
ntyp = 5
nat = 33
starting_magnetization(1) = 0.0
starting_magnetization(2) = 0.0
starting_magnetization(3) = 0.0
starting_magnetization(4) = 0.1
starting_magnetization(5) = 0.0
/
&ELECTRONS
electron_maxstep = 200
mixing_beta = 0.1
conv_thr = 1e-06
/
&IONS
ion_dynamics = 'bfgs'
upscale = 1.0
/
&CELL
/

K_POINTS {automatic}
6 6 1 0 0 0

ATOMIC_SPECIES
Al 26.98 Al.pbe-nl-rrkjus_psl.1.0.0.UPF
C 12.01 C.pbe-n-rrkjus_psl.1.0.0.UPF
Li 6.941 Li.pbe-sl-rrkjus_psl.1.0.0.UPF
Mn 54.93 mn_pbe_v1.5.uspp.F.UPF
Pd 106.4 Pd.pbe-n-rrkjus_psl.1.0.0.UPF


CELL_PARAMETERS {angstrom}
6.10222000 0.00000000 0.00000000
0.00000000 8.62984000 0.00000000
0.00000000 0.00000000 26.47240000

ATOMIC_POSITIONS {angstrom}
Li 0.00000000 2.15746000 -1.0787502999999994 0 0 0
Li 0.00000000 6.47238000 -1.0787502999999994 0 0 0
Li 3.05111000 4.31492000 -3.2362509000000017 0 0 0
Li 3.05111000 0.00000000 -3.2362509000000017 0 0 0
Li 6.00873399 6.30427072 3.60633505
Li 6.00873399 2.32556928 3.60633505
Li 3.02035481 0.00000000 1.09145705
Li 3.04995058 4.31492000 0.91170946
Mn 1.52555500 0.00000000 -1.0787502999999994 0 0 0
Mn 1.52555500 4.31492000 -1.0787502999999994 0 0 0
Mn 4.57666500 2.15746000 -3.2362509000000017 0 0 0
Mn 4.57666500 6.47238000 -3.2362509000000017 0 0 0
Mn 1.75036078 4.31492000 3.12850823
Mn 1.26132887 0.00000000 3.11024228
Mn 4.58947966 6.46211049 1.17696290
Mn 4.58947966 2.16772951 1.17696290
Al 0.00000000 0.00000000 -3.2362509000000017 0 0 0
Al 0.00000000 4.31492000 -3.2362509000000017 0 0 0
Al 3.05111000 6.47238000 -1.0787502999999994 0 0 0
Al 3.05111000 2.15746000 -1.0787502999999994 0 0 0
Al 0.01531657 4.31492000 1.09939877
Al 0.02611750 0.00000000 0.90191467
Al 3.02236854 1.98210165 3.43188194
Al 3.02236854 6.64773835 3.43188194
Pd 4.57666500 0.00000000 -1.0787502999999994 0 0 0
Pd 4.57666500 4.31492000 -1.0787502999999994 0 0 0
Pd 1.52555500 2.15746000 -3.2362509000000017 0 0 0
Pd 1.52555500 6.47238000 -3.2362509000000017 0 0 0
Pd 4.36760294 4.31492000 3.03320759
Pd 4.76687120 0.00000000 2.99402844
Pd 1.52360229 6.46452685 1.13963682
Pd 1.52360229 2.16531315 1.13963682
C 2.92155987 0.00000000 3.91659158
