&CONTROL
calculation = 'relax'
prefix = 'scf'
pseudo_dir = '/vol0004/mdt0/data/hp150275/u10028/POT_HYBRID_KKJUS_GBRV'
outdir = './data'
tprnfor = .true.
nstep = 50
disk_io = 'non'
/
&SYSTEM
ibrav = 0
ecutwfc = 50.0
ecutrho = 400
occupations = 'smearing'
smearing = 'mp'
degauss = 0.01
assume_isolated = 'esm'
esm_bc = 'bc1'
input_dft = 'BEEF-VDW'
nosym = .true.
nspin = 2
ntyp = 4
nat = 33
starting_magnetization(1) = 0.0
starting_magnetization(2) = 0.1
starting_magnetization(3) = 0.0
starting_magnetization(4) = 0.0
/
&ELECTRONS
electron_maxstep = 200
mixing_beta = 0.1
conv_thr = 1e-06
/
&IONS
ion_dynamics = 'bfgs'
upscale = 1.0
/
&CELL
/

K_POINTS {automatic}
9 6 2 0  0  0

ATOMIC_SPECIES
C 12.01 C.pbe-n-rrkjus_psl.1.0.0.UPF
Co 58.93 co_pbe_v1.2.uspp.F.UPF
Sn 118.7 Sn.pbe-dn-rrkjus_psl.1.0.0.UPF
Zr 91.22 Zr.pbe-spn-rrkjus_psl.1.0.0.UPF

CELL_PARAMETERS {angstrom}
6.31315000 0.00000000 0.00000000
0.00000000 8.92814000 0.00000000
0.00000000 0.00000000 26.69610000

ATOMIC_POSITIONS {angstrom}
Zr 0.00000000 0.00000000 23.34814210
Zr 3.15657500 2.23203500 25.58020302
Zr 3.15657500 6.69610500 25.58020302
Zr 0.00000000 4.46407000 23.34814210
Zr 6.26756906 4.47835502 1.08039117
Zr 3.23839342 6.69601572 3.31378689
Zr 3.51503566 2.23194572 3.40295187
Zr 6.26763219 8.91367641 1.08039117
Co 1.57828750 0.00000000 25.58020302
Co 4.73486250 4.46407000 25.58020302
Co 4.73486250 0.00000000 25.58020302
Co 1.57828750 4.46407000 25.58020302
Co 4.73486250 6.69610500 23.34814210
Co 1.57828750 2.23203500 23.34814210
Co 1.57828750 6.69610500 23.34814210
Co 4.73486250 2.23203500 23.34814210
Co 1.20840004 4.06275011 3.18431081
Co 4.87848666 0.04687274 3.16882707
Co 4.87823414 4.41737583 3.16882707
Co 1.20770559 0.40239127 3.18484473
Co 4.71548113 2.23185644 1.11643090
Co 1.64621699 6.69601572 1.17676409
Co 1.49293371 2.23194572 1.20693068
Co 4.66623856 6.69610500 1.18343811
Sn 0.00000000 6.69610500 25.58020302
Sn 3.15657500 0.00000000 23.34814210
Sn 0.00000000 2.23203500 25.58020302
Sn 3.15657500 4.46407000 23.34814210
Sn 6.10652060 2.23274925 4.84988049
Sn 3.11957994 4.43683917 1.16101339
Sn 0.07443204 6.69610500 3.50786754
Sn 3.11945368 0.02705226 1.16101339
C 1.30334982 2.23257069 3.14613539
