&CONTROL
calculation = 'relax'
prefix = 'scf'
pseudo_dir = '/vol0004/mdt0/data/hp150275/u10028/POT_KKJUS'
outdir = './data'
tprnfor = .true.
nstep = 50
disk_io = 'non'
/
&SYSTEM
ibrav = 0
ecutwfc = 50.0
ecutrho = 400
occupations = 'smearing'
smearing = 'mp'
degauss = 0.01
assume_isolated = 'esm'
esm_bc = 'bc1'
input_dft = 'BEEF-VDW'
nosym = .true.
nspin = 1
ntyp = 3
nat = 33
/
&ELECTRONS
electron_maxstep = 200
mixing_beta = 0.1
conv_thr = 1e-06
/
&IONS
ion_dynamics = 'bfgs'
upscale = 1.0
/
&CELL
/

K_POINTS {automatic}
9 6 2 0  0  0

ATOMIC_SPECIES
C 12.01 C.pbe-n-rrkjus_psl.1.0.0.UPF
Ni 58.69 Ni.pbe-spn-rrkjus_psl.1.0.0.UPF
Zn 65.40 Zn.pbe-dnl-rrkjus_psl.1.0.0.UPF

CELL_PARAMETERS {angstrom}
5.79956000 0.00000000 0.00000000
0.00000000 8.20182000 0.00000000
0.00000000 0.00000000 26.15140000

ATOMIC_POSITIONS {angstrom}
Zn 1.44989000 2.05045500 -3.07566615 0 0 0
Zn 1.44989000 0.00000000 -1.0251348799999995 0 0 0
Zn 1.44989000 2.05053702 1.01650492
Zn 1.44989000 8.17696849 3.33665713
Zn 1.44989000 6.15136500 -3.07566615 0 0 0
Zn 1.44989000 4.10091000 -1.0251348799999995 0 0 0
Zn 1.44989000 6.15144702 0.95635670
Zn 1.44989000 4.12576151 3.33691864
Zn 4.34967000 2.05045500 -3.07566615 0 0 0
Zn 4.34967000 0.00000000 -1.0251348799999995 0 0 0
Zn 4.34967000 2.05061904 0.94118889
Zn 4.34967000 8.08797874 3.27441679
Zn 4.34967000 6.15136500 -3.07566615 0 0 0
Zn 4.34967000 4.10091000 -1.0251348799999995 0 0 0
Zn 4.34967000 6.15136500 1.00264468
Zn 4.34967000 4.21475126 3.27441679
Ni 0.00000000 0.00000000 -3.07566615 0 0 0
Ni 0.00000000 2.05045500 -1.0251348799999995 0 0 0
Ni 0.00272579 0.01738786 1.10777330
Ni 5.64830748 2.05045500 3.03696208
Ni 0.00000000 4.10091000 -3.07566615 0 0 0
Ni 0.00000000 6.15136500 -1.0251348799999995 0 0 0
Ni 0.00272579 4.08360416 1.10751179
Ni 0.07574225 6.15128298 2.94961641
Ni 2.89978000 0.00000000 -3.07566615 0 0 0
Ni 2.89978000 2.05045500 -1.0251348799999995 0 0 0
Ni 2.89711220 0.01738786 1.10777330
Ni 3.05103252 2.05045500 3.03696208
Ni 2.89978000 4.10091000 -3.07566615 0 0 0
Ni 2.89978000 6.15136500 -1.0251348799999995 0 0 0
Ni 2.89699621 4.08360416 1.10751179
Ni 2.82409574 6.15136500 2.94961641
C 1.44989000 2.05045500 3.79221451
