&CONTROL
calculation = 'relax'
prefix = 'scf'
pseudo_dir = '/vol0403/data/hp230205/u10028/POT_HYBRID_KKJUS_GBRV'
outdir = './data'
tprnfor = .true.
nstep = 50
disk_io = 'non'
/
&SYSTEM
ibrav = 0
ecutwfc = 50.0
ecutrho = 400
occupations = 'smearing'
smearing = 'mp'
degauss = 0.01
assume_isolated = 'esm'
esm_bc = 'bc1'
input_dft = 'BEEF-VDW'
nosym = .true.
nspin = 1
ntyp = 6
nat = 18
/
&ELECTRONS
electron_maxstep = 200
mixing_beta = 0.1
conv_thr = 1e-06
/
&IONS
ion_dynamics = 'bfgs'
upscale = 1.0
/
&CELL
/

K_POINTS {automatic}
6 6 1 0 0 0

ATOMIC_SPECIES
Ag 107.8 Ag.pbe-n-rrkjus_psl.1.0.0.UPF
Al 26.98 Al.pbe-nl-rrkjus_psl.1.0.0.UPF
C 12.01 C.pbe-n-rrkjus_psl.1.0.0.UPF
Li 6.941 Li.pbe-sl-rrkjus_psl.1.0.0.UPF
O 15.99 O.pbe-n-rrkjus_psl.1.0.0.UPF
Sn 118.7 Sn.pbe-dn-rrkjus_psl.1.0.0.UPF


CELL_PARAMETERS {angstrom}
5.91351000 0.00000000 0.00000000
0.00000000 8.66686000 0.00000000
0.00000000 0.00000000 24.43010000

ATOMIC_POSITIONS {angstrom}
Li 2.95675500 0.00000000 -2.2150771700000007 0 0 0
Li 5.74414707 8.66469329 0.69088323
Li 2.95675500 4.33343000 -2.2150771700000007 0 0 0
Li 5.74420621 4.33559672 0.69063893
Al 1.40782933 2.16671500 -0.7382776199999981 0 0 0
Al 4.11237312 2.16671500 2.06043463
Al 1.40782933 6.50014500 -0.7382776199999981 0 0 0
Al 4.09859465 6.50023167 2.05652582
Ag 0.00000000 0.00000000 -2.2150771700000007 0 0 0
Ag 2.76681306 8.66625332 0.91221993
Ag 0.00000000 4.33343000 -2.2150771700000007 0 0 0
Ag 2.76687219 4.33403668 0.91221993
Sn 4.36458433 2.16671500 -0.7382776199999981 0 0 0
Sn 1.20984501 2.16671500 2.19822040
Sn 4.36458433 6.50014500 -0.7382776199999981 0 0 0
Sn 1.20594209 6.50014500 2.21434426
C 1.07909730 2.16654166 6.18179250
O 1.53579768 2.16671500 7.22104896
