&CONTROL
calculation = 'relax'
prefix = 'scf'
pseudo_dir = '/vol0004/mdt0/data/hp150275/u10028/POT_KKJUS'
outdir = './data'
tprnfor = .true.
nstep = 50
disk_io = 'non'
/
&SYSTEM
ibrav = 0
ecutwfc = 50.0
ecutrho = 400
occupations = 'smearing'
smearing = 'mp'
degauss = 0.01
assume_isolated = 'esm'
esm_bc = 'bc1'
input_dft = 'BEEF-VDW'
nosym = .true.
nspin = 1
ntyp = 5
nat = 34
/
&ELECTRONS
electron_maxstep = 200
mixing_beta = 0.1
conv_thr = 1e-06
/
&IONS
ion_dynamics = 'bfgs'
upscale = 1.0
/
&CELL
/

K_POINTS {automatic}
8 6 1 0 0 0

ATOMIC_SPECIES
Al 26.98 Al.pbe-nl-rrkjus_psl.1.0.0.UPF
C 12.01 C.pbe-n-rrkjus_psl.1.0.0.UPF
Cu 63.54 Cu.pbe-dn-rrkjus_psl.1.0.0.UPF
O 15.99 O.pbe-n-rrkjus_psl.1.0.0.UPF
Zr 91.22 Zr.pbe-spn-rrkjus_psl.1.0.0.UPF

CELL_PARAMETERS {angstrom}
6.27295000 0.00000000 0.00000000
0.00000000 8.87129000 0.00000000
0.00000000 0.00000000 26.65350000

ATOMIC_POSITIONS {angstrom}
Zr 0.00000000 0.00000000 -3.3266233300000003 0 0 0
Zr 3.13647500 2.21782250 -1.108785600000001 0 0 0
Zr 3.13647500 6.65346750 -1.108785600000001 0 0 0
Zr 0.00000000 4.43564500 -3.3266233300000003 0 0 0
Zr 6.24792093 4.47911432 1.11305016
Zr 2.99527090 6.89565372 3.56117414
Zr 2.99847010 2.01103273 3.41244761
Zr 0.06398409 8.86437039 1.14183594
Al 0.00000000 6.65346750 -1.108785600000001 0 0 0
Al 3.13647500 0.00000000 -3.3266233300000003 0 0 0
Al 0.00000000 2.21782250 -1.108785600000001 0 0 0
Al 3.13647500 4.43564500 -3.3266233300000003 0 0 0
Al 6.21473702 2.37546532 3.26771910
Al 3.11847163 4.43307233 1.08506399
Al 6.25130832 6.62720848 3.20481684
Al 3.15661117 0.01171010 1.07573526
Cu 1.56823750 0.00000000 -1.108785600000001 0 0 0
Cu 4.70471250 4.43564500 -1.108785600000001 0 0 0
Cu 4.70471250 0.00000000 -1.108785600000001 0 0 0
Cu 1.56823750 4.43564500 -1.108785600000001 0 0 0
Cu 4.70471250 6.65346750 -3.3266233300000003 0 0 0
Cu 1.56823750 2.21782250 -3.3266233300000003 0 0 0
Cu 1.56823750 6.65346750 -3.3266233300000003 0 0 0
Cu 4.70471250 2.21782250 -3.3266233300000003 0 0 0
Cu 1.64947220 4.47716264 3.30210212
Cu 4.85187591 0.09066458 3.32395799
Cu 4.48917394 4.48452581 3.26505375
Cu 1.03616588 0.11648004 3.74668249
Cu 4.64424126 2.22953260 1.15889418
Cu 1.67356033 6.63120056 1.14849932
Cu 1.58573903 2.27255836 1.09545885
Cu 4.55679634 6.66358077 1.23672240
C 3.02782751 0.19818462 4.58786695
O 3.09143522 8.01938002 5.36055192
