&CONTROL
calculation = 'relax'
prefix = 'scf'
pseudo_dir = '/vol0004/mdt0/data/hp150275/u10028/POT_KKJUS'
outdir = './data'
tprnfor = .true.
nstep = 50
disk_io = 'non'
/
&SYSTEM
ibrav = 0
ecutwfc = 50.0
ecutrho = 400
occupations = 'smearing'
smearing = 'mp'
degauss = 0.01
assume_isolated = 'esm'
esm_bc = 'bc1'
input_dft = 'BEEF-VDW'
nosym = .true.
nspin = 1
ntyp = 3
nat = 17
/
&ELECTRONS
electron_maxstep = 200
mixing_beta = 0.1
conv_thr = 1e-06
/
&IONS
ion_dynamics = 'bfgs'
upscale = 1.0
/
&CELL
/

K_POINTS {automatic}
9 9 2 0  0  0

ATOMIC_SPECIES
C 12.01 C.pbe-n-rrkjus_psl.1.0.0.UPF
Ca 40.07 Ca.pbe-spn-rrkjus_psl.1.0.0.UPF
In 114.8 In.pbe-dn-rrkjus_psl.1.0.0.UPF

CELL_PARAMETERS {angstrom}
8.11767000 0.00000000 0.00000000
0.00000000 8.11767000 0.00000000
0.00000000 0.00000000 26.08830000

ATOMIC_POSITIONS {angstrom}
Ca 2.02941750 2.02941750 -1.0148348700000014 0 0 0
Ca 6.38381686 5.79301284 3.33121503
Ca 6.08825250 2.02941750 -1.0148348700000014 0 0 0
Ca 1.73296019 5.79285049 3.33173679
Ca 6.08825250 6.08825250 -1.0148348700000014 0 0 0
Ca 1.73304137 2.32530657 3.33199768
Ca 2.02941750 6.08825250 -1.0148348700000014 0 0 0
Ca 6.38373569 2.32514422 3.33173679
Ca 0.00300354 0.00446472 1.04483642
Ca 4.05883500 0.00000000 -3.0442437300000016 0 0 0
Ca 0.00000000 4.05883500 -3.0442437300000016 0 0 0
Ca 4.06078324 4.05006792 1.06518529
In 0.00000000 0.00000000 -3.0442437300000016 0 0 0
In 4.05883500 4.05883500 -3.0442437300000016 0 0 0
In 4.05713029 0.00235412 0.94152675
In 0.00292236 4.05810441 0.93239584
C 8.11710176 4.05907853 3.38626134
