&CONTROL
calculation = 'relax'
prefix = 'scf'
pseudo_dir = '/vol0403/data/hp230205/u10028/POT_HYBRID_KKJUS_GBRV'
outdir = './data'
tprnfor = .true.
nstep = 70
disk_io = 'non'
/
&SYSTEM
ibrav = 0
ecutwfc = 50.0
ecutrho = 400
occupations = 'smearing'
smearing = 'mp'
degauss = 0.01
assume_isolated = 'esm'
esm_bc = 'bc1'
input_dft = 'BEEF-VDW'
nosym = .true.
nspin = 1
ntyp = 5
nat = 33
/
&ELECTRONS
electron_maxstep = 200
mixing_beta = 0.1
conv_thr = 1e-06
/
&IONS
ion_dynamics = 'bfgs'
upscale = 1.0
/
&CELL
/

K_POINTS {automatic}
6 6 1 0 0 0

ATOMIC_SPECIES
Al 26.98 Al.pbe-nl-rrkjus_psl.1.0.0.UPF
C 12.01 C.pbe-n-rrkjus_psl.1.0.0.UPF
Cu 63.54 Cu.pbe-dn-rrkjus_psl.1.0.0.UPF
Li 6.941 Li.pbe-sl-rrkjus_psl.1.0.0.UPF
Mg 24.30 Mg.pbe-spnl-rrkjus_psl.1.0.0.UPF


CELL_PARAMETERS {angstrom}
6.19386000 0.00000000 0.00000000
-0.00000000 8.75944000 0.00000000
0.00000000 0.00000000 26.56960000

ATOMIC_POSITIONS {angstrom}
Li 1.54846500 0.00000000 -1.0949332200000015 0 0 0
Li 1.54846500 4.37972000 -1.0949332200000015 0 0 0
Li 4.64539500 2.18986000 -3.28479965 0 0 0
Li 4.64539500 6.56958000 -3.28479965 0 0 0
Li 2.24254895 4.37972000 4.60982560
Li 1.33545815 -0.00000000 4.35927427
Li 4.71129767 6.56721495 1.20811971
Li 4.71129767 2.19222505 1.20811971
Mg 0.00000000 2.18986000 -1.0949332200000015 0 0 0
Mg 0.00000000 6.56958000 -1.0949332200000015 0 0 0
Mg 3.09693000 4.37972000 -3.28479965 0 0 0
Mg 3.09693000 0.00000000 -3.28479965 0 0 0
Mg 0.18711651 6.29321967 3.43916902
Mg 0.18755008 2.46622033 3.43916902
Mg 3.05697960 -0.00000000 1.24398867
Mg 3.00488924 4.37972000 1.18394138
Al 0.00000000 0.00000000 -3.28479965 0 0 0
Al 0.00000000 4.37972000 -3.28479965 0 0 0
Al 3.09693000 6.56958000 -1.0949332200000015 0 0 0
Al 3.09693000 2.18986000 -1.0949332200000015 0 0 0
Al 0.03183644 4.37972000 1.14143002
Al 0.17578175 0.00000000 1.17039088
Al 3.12758961 1.98059698 3.48938557
Al 3.12727991 6.77884302 3.48938557
Cu 4.64539500 0.00000000 -1.0949332200000015 0 0 0
Cu 4.64539500 4.37972000 -1.0949332200000015 0 0 0
Cu 1.54846500 2.18986000 -3.28479965 0 0 0
Cu 1.54846500 6.56958000 -3.28479965 0 0 0
Cu 4.54660293 4.37954481 3.22661222
Cu 5.06453351 -0.00000000 3.20243389
Cu 1.54022717 6.55188593 0.98493507
Cu 1.54028910 2.20755407 0.98493507
C 3.19206769 -0.00000000 3.59114714
