&CONTROL
calculation = 'relax'
prefix = 'scf'
pseudo_dir = '/vol0004/mdt0/data/hp150275/u10028/POT_KKJUS'
outdir = './data'
tprnfor = .true.
nstep = 50
disk_io = 'non'
/
&SYSTEM
ibrav = 0
ecutwfc = 50.0
ecutrho = 400
occupations = 'smearing'
smearing = 'mp'
degauss = 0.01
assume_isolated = 'esm'
esm_bc = 'bc1'
input_dft = 'BEEF-VDW'
nosym = .true.
nspin = 1
ntyp = 3
nat = 16
/
&ELECTRONS
electron_maxstep = 200
mixing_beta = 0.1
conv_thr = 1e-06
/
&IONS
ion_dynamics = 'bfgs'
upscale = 1.0
/
&CELL
/

K_POINTS {automatic}
10 10 2 0  0  0

ATOMIC_SPECIES
Ag 107.8 Ag.pbe-n-rrkjus_psl.1.0.0.UPF
In 114.8 In.pbe-dn-rrkjus_psl.1.0.0.UPF
Li 6.941 Li.pbe-sl-rrkjus_psl.1.0.0.UPF

CELL_PARAMETERS {angstrom}
6.67495000 0.00000000 0.00000000
0.00000000 6.67495000 0.00000000
0.00000000 0.00000000 25.00620000

ATOMIC_POSITIONS {angstrom}
Li 0.00000000 0.00000000 -0.8344568899999985 0 0 0
Li 3.33747500 0.00000000 2.50412087
Li 0.00000000 3.33747500 2.50412087
Li 3.33747500 3.33747500 -0.8344568899999985 0 0 0
Li 1.66907125 1.66907125 0.83920807
Li 1.66873750 5.00621250 -2.5031206200000007 0 0 0
Li 5.00594550 5.00594550 0.83920807
Li 5.00621250 1.66873750 -2.5031206200000007 0 0 0
In 6.67474975 6.67488325 2.50362074
In 3.33754175 3.33740825 2.50312062
In 3.33747500 0.00000000 -0.8344568899999985 0 0 0
In 0.00000000 3.33747500 -0.8344568899999985 0 0 0
Ag 1.66873750 1.66873750 -2.5031206200000007 0 0 0
Ag 1.66873750 5.00621250 0.83070596
Ag 5.00621250 5.00621250 -2.5031206200000007 0 0 0
Ag 5.00621250 1.66873750 0.83070596
