&CONTROL
calculation = 'relax'
prefix = 'scf'
pseudo_dir = '/vol0403/data/hp230205/u10028/POT_HYBRID_KKJUS_GBRV'
outdir = './data'
tprnfor = .true.
nstep = 70
disk_io = 'non'
/
&SYSTEM
ibrav = 0
ecutwfc = 50.0
ecutrho = 400
occupations = 'smearing'
smearing = 'mp'
degauss = 0.01
assume_isolated = 'esm'
esm_bc = 'bc1'
input_dft = 'BEEF-VDW'
nosym = .true.
nspin = 1
ntyp = 5
nat = 33
/
&ELECTRONS
electron_maxstep = 200
mixing_beta = 0.1
conv_thr = 1e-06
/
&IONS
ion_dynamics = 'bfgs'
upscale = 1.0
/
&CELL
/

K_POINTS {automatic}
6 6 1 0 0 0

ATOMIC_SPECIES
C 12.01 C.pbe-n-rrkjus_psl.1.0.0.UPF
In 114.8 In.pbe-dn-rrkjus_psl.1.0.0.UPF
Li 6.941 Li.pbe-sl-rrkjus_psl.1.0.0.UPF
Pd 106.4 Pd.pbe-n-rrkjus_psl.1.0.0.UPF
Pt 195.0 Pt.pbe-n-rrkjus_psl.1.0.0.UPF


CELL_PARAMETERS {angstrom}
6.39502000 0.00000000 0.00000000
-0.00000000 9.04392000 0.00000000
0.00000000 0.00000000 26.78290000

ATOMIC_POSITIONS {angstrom}
Li 0.00000000 2.26098000 -1.13050621 0 0 0
Li 0.00000000 6.78294000 -1.13050621 0 0 0
Li 3.19751000 4.52196000 -3.39151863 0 0 0
Li 3.19751000 0.00000000 -3.39151863 0 0 0
Li 6.36822487 6.78294000 3.48311615
Li 6.19383267 2.26098000 3.22412550
Li 3.17480768 9.04084507 1.07078034
Li 3.17480768 4.52503493 1.07078034
In 0.00000000 0.00000000 -3.39151863 0 0 0
In 0.00000000 4.52196000 -3.39151863 0 0 0
In 3.19751000 6.78294000 -1.13050621 0 0 0
In 3.19751000 2.26098000 -1.13050621 0 0 0
In 0.00313356 4.49989284 1.14577246
In 0.00313356 0.02206716 1.14577246
In 3.90658982 2.26098000 4.62781729
In 3.02804197 6.78294000 3.49731108
Pd 4.79626500 0.00000000 -1.13050621 0 0 0
Pd 4.79626500 4.52196000 -1.13050621 0 0 0
Pd 1.59875500 2.26098000 -3.39151863 0 0 0
Pd 1.59875500 6.78294000 -3.39151863 0 0 0
Pd 4.63869171 4.56428555 3.22519682
Pd 4.63875566 9.00159445 3.22519682
Pd 1.56147203 6.78294000 1.15889608
Pd 1.67037922 2.26098000 1.08738574
Pt 1.59875500 0.00000000 -1.13050621 0 0 0
Pt 1.59875500 4.52196000 -1.13050621 0 0 0
Pt 4.79626500 2.26098000 -3.39151863 0 0 0
Pt 4.79626500 6.78294000 -3.39151863 0 0 0
Pt 1.80390724 4.13252880 3.30581335
Pt 1.80390724 0.38943120 3.30581335
Pt 4.76588865 6.78294000 1.19398168
Pt 4.72144327 2.26098000 1.16666312
C 1.72403344 2.26098000 3.78495943
