&CONTROL
calculation = 'relax'
prefix = 'scf'
pseudo_dir = '/vol0004/mdt0/data/hp150275/u10028/POT_KKJUS'
outdir = './data'
tprnfor = .true.
nstep = 50
disk_io = 'non'
/
&SYSTEM
ibrav = 0
ecutwfc = 50.0
ecutrho = 400
occupations = 'smearing'
smearing = 'mp'
degauss = 0.01
assume_isolated = 'esm'
esm_bc = 'bc1'
input_dft = 'BEEF-VDW'
nosym = .true.
nspin = 1
ntyp = 4
nat = 18
/
&ELECTRONS
electron_maxstep = 200
mixing_beta = 0.1
conv_thr = 1e-06
/
&IONS
ion_dynamics = 'bfgs'
upscale = 1.0
/
&CELL
/

K_POINTS {automatic}
7 10 2 0  0  0

ATOMIC_SPECIES
C 12.01 C.pbe-n-rrkjus_psl.1.0.0.UPF
In 114.8 In.pbe-dn-rrkjus_psl.1.0.0.UPF
Mg 24.30 Mg.pbe-spnl-rrkjus_psl.1.0.0.UPF
O 15.99 O.pbe-n-rrkjus_psl.1.0.0.UPF

CELL_PARAMETERS {angstrom}
9.42262000 0.00000000 0.00000000
0.00000000 6.66280000 0.00000000
0.00000000 0.00000000 24.99710000

ATOMIC_POSITIONS {angstrom}
Mg 0.00000000 0.00019988 2.32448033
Mg 0.00000000 3.33140000 -0.8329033700000004 0 0 0
Mg 4.71131000 6.66266674 2.38147372
Mg 4.71131000 3.33140000 -0.8329033700000004 0 0 0
In 0.00000000 3.33146663 2.80642442
In 2.35829333 4.95319215 0.99363473
In 2.35838756 1.70954122 0.99363473
In 0.00000000 0.00000000 -0.8329033700000004 0 0 0
In 2.35565500 1.66570000 -2.498460139999999 0 0 0
In 2.35565500 4.99710000 -2.498460139999999 0 0 0
In 4.71131000 3.33140000 2.85791844
In 7.06423244 4.95325878 0.99363473
In 7.06423244 1.70974111 0.99363473
In 4.71131000 0.00000000 -0.8329033700000004 0 0 0
In 7.06696500 1.66570000 -2.498460139999999 0 0 0
In 7.06696500 4.99710000 -2.498460139999999 0 0 0
C 9.42252577 3.33140000 6.92919612
O 0.00028268 3.33146663 8.06406446
