&CONTROL
calculation = 'relax'
prefix = 'scf'
pseudo_dir = '/vol0004/mdt0/data/hp150275/u10028/POT_KKJUS'
outdir = './data'
tprnfor = .true.
nstep = 50
disk_io = 'non'
/
&SYSTEM
ibrav = 0
ecutwfc = 50.0
ecutrho = 400
occupations = 'smearing'
smearing = 'mp'
degauss = 0.01
assume_isolated = 'esm'
esm_bc = 'bc1'
input_dft = 'BEEF-VDW'
nosym = .true.
nspin = 1
ntyp = 4
nat = 34
/
&ELECTRONS
electron_maxstep = 200
mixing_beta = 0.1
conv_thr = 1e-06
/
&IONS
ion_dynamics = 'bfgs'
upscale = 1.0
/
&CELL
/

K_POINTS {automatic}
9 6 2 0  0  0

ATOMIC_SPECIES
C 12.01 C.pbe-n-rrkjus_psl.1.0.0.UPF
Ir 192.2 Ir.pbe-n-rrkjus_psl.0.2.3.UPF
O 15.99 O.pbe-n-rrkjus_psl.1.0.0.UPF
Ti 47.86 Ti.pbe-spn-rrkjus_psl.1.0.0.UPF

CELL_PARAMETERS {angstrom}
6.26165000 0.00000000 0.00000000
0.00000000 8.85530000 0.00000000
0.00000000 0.00000000 26.64150000

ATOMIC_POSITIONS {angstrom}
Ti 1.56541250 2.21382500 -3.320862980000001 0 0 0
Ti 1.56541250 0.00000000 -1.1069543199999998 0 0 0
Ti 1.56597605 2.20744918 1.13572715
Ti 1.56466110 0.00000000 3.47138745
Ti 1.56541250 6.64147500 -3.320862980000001 0 0 0
Ti 1.56541250 4.42765000 -1.1069543199999998 0 0 0
Ti 1.56597605 6.64785082 1.13572715
Ti 1.56628913 4.42765000 3.41917011
Ti 4.69623750 2.21382500 -3.320862980000001 0 0 0
Ti 4.69623750 0.00000000 -1.1069543199999998 0 0 0
Ti 4.69648797 2.21621593 1.13679281
Ti 4.69561134 0.00000000 3.40052106
Ti 4.69623750 6.64147500 -3.320862980000001 0 0 0
Ti 4.69623750 4.42765000 -1.1069543199999998 0 0 0
Ti 4.69648797 6.63908407 1.13679281
Ti 4.69667582 4.42765000 3.41970294
Ir 0.00000000 0.00000000 -3.320862980000001 0 0 0
Ir 0.00000000 2.21382500 -1.1069543199999998 0 0 0
Ir 6.25707900 0.00000000 1.11414753
Ir 0.00381961 2.22604531 3.15621851
Ir 0.00000000 4.42765000 -3.320862980000001 0 0 0
Ir 0.00000000 6.64147500 -1.1069543199999998 0 0 0
Ir 0.00131495 4.42765000 1.13146451
Ir 0.00381961 6.62925469 3.15621851
Ir 3.13082500 0.00000000 -3.320862980000001 0 0 0
Ir 3.13082500 2.21382500 -1.1069543199999998 0 0 0
Ir 3.13633525 0.00000000 1.11228263
Ir 3.12806987 2.22498268 3.15595209
Ir 3.13082500 4.42765000 -3.320862980000001 0 0 0
Ir 3.13082500 6.64147500 -1.1069543199999998 0 0 0
Ir 3.13026145 4.42765000 1.13013243
Ir 3.12806987 6.63031732 3.15595209
C 1.55038454 0.00000000 5.60244104
O 1.54781726 0.00000000 6.75202176
