&CONTROL
calculation = 'relax'
prefix = 'scf'
pseudo_dir = '/vol0403/data/hp230205/u10028/POT_HYBRID_KKJUS_GBRV'
outdir = './data'
tprnfor = .true.
nstep = 50
disk_io = 'non'
/
&SYSTEM
ibrav = 0
ecutwfc = 50.0
ecutrho = 400
occupations = 'smearing'
smearing = 'mp'
degauss = 0.01
assume_isolated = 'esm'
esm_bc = 'bc1'
input_dft = 'BEEF-VDW'
nosym = .true.
nspin = 1
ntyp = 5
nat = 33
/
&ELECTRONS
electron_maxstep = 200
mixing_beta = 0.1
conv_thr = 1e-06
/
&IONS
ion_dynamics = 'bfgs'
upscale = 1.0
/
&CELL
/

K_POINTS {automatic}
7 7 2 0  0  0

ATOMIC_SPECIES
C 12.01 C.pbe-n-rrkjus_psl.1.0.0.UPF
Ga 69.72 Ga.pbe-dnl-rrkjus_psl.1.0.0.UPF
Ge 72.64 Ge.pbe-dn-rrkjus_psl.1.0.0.UPF
Pd 106.4 Pd.pbe-n-rrkjus_psl.1.0.0.UPF
Sc 44.95 Sc.pbe-spn-rrkjus_psl.1.0.0.UPF


CELL_PARAMETERS {angstrom}
8.58414000 0.00000000 0.00000000
0.00000000 7.83718000 0.00000000
0.00000000 0.00000000 26.06500000

ATOMIC_POSITIONS {angstrom}
Sc 2.14603500 0.00000000 0.93312700
Sc 2.14603500 0.00000000 -3.0324021000000023 0 0 0
Sc 2.14603500 3.91859000 1.03295595
Sc 2.14603500 3.91859000 -3.0324021000000023 0 0 0
Sc 6.43810500 0.00000000 0.98212920
Sc 6.43810500 0.00000000 -3.0324021000000023 0 0 0
Sc 6.43810500 3.91859000 0.94485625
Sc 6.43810500 3.91859000 -3.0324021000000023 0 0 0
Ga 8.48765427 0.00000000 3.02875300
Ga 0.00000000 0.00000000 -1.0108007000000008 0 0 0
Ga 8.41735016 3.91859000 3.22893220
Ga 0.00000000 3.91859000 -1.0108007000000008 0 0 0
Ga 4.38855573 0.00000000 3.02875300
Ga 4.29207000 0.00000000 -1.0108007000000008 0 0 0
Ga 4.45885984 3.91859000 3.22893220
Ga 4.29207000 3.91859000 -1.0108007000000008 0 0 0
Ge 2.14603500 1.97426401 3.10746930
Ge 2.14603500 1.95929500 -1.0108007000000008 0 0 0
Ge 2.14603500 5.86291599 3.10746930
Ge 2.14603500 5.87788500 -1.0108007000000008 0 0 0
Ge 6.43810500 1.98876280 3.23987950
Ge 6.43810500 1.95929500 -1.0108007000000008 0 0 0
Ge 6.43801916 5.84849558 3.23987950
Ge 6.43810500 5.87788500 -1.0108007000000008 0 0 0
Pd 8.58388248 1.98601978 1.14373220
Pd 0.00000000 1.95929500 -3.0324021000000023 0 0 0
Pd 8.58388248 5.85116022 1.14373220
Pd 0.00000000 5.87788500 -3.0324021000000023 0 0 0
Pd 4.29224168 1.98601978 1.14373220
Pd 4.29207000 1.95929500 -3.0324021000000023 0 0 0
Pd 4.29224168 5.85116022 1.14373220
Pd 4.29207000 5.87788500 -3.0324021000000023 0 0 0
C 2.14594916 0.00000000 3.28966365
