&CONTROL
calculation = 'relax'
prefix = 'scf'
pseudo_dir = '/vol0403/data/hp230205/u10028/POT_HYBRID_KKJUS_GBRV'
outdir = './data'
tprnfor = .true.
nstep = 50
disk_io = 'non'
/
&SYSTEM
ibrav = 0
ecutwfc = 50.0
ecutrho = 400
occupations = 'smearing'
smearing = 'mp'
degauss = 0.01
assume_isolated = 'esm'
esm_bc = 'bc1'
input_dft = 'BEEF-VDW'
nosym = .true.
nspin = 1
ntyp = 6
nat = 18
/
&ELECTRONS
electron_maxstep = 200
mixing_beta = 0.1
conv_thr = 1e-06
/
&IONS
ion_dynamics = 'bfgs'
upscale = 1.0
/
&CELL
/

K_POINTS {automatic}
6 6 1 0 0 0

ATOMIC_SPECIES
Al 26.98 Al.pbe-nl-rrkjus_psl.1.0.0.UPF
C 12.01 C.pbe-n-rrkjus_psl.1.0.0.UPF
Cu 63.54 Cu.pbe-dn-rrkjus_psl.1.0.0.UPF
Ge 72.64 Ge.pbe-dn-rrkjus_psl.1.0.0.UPF
Li 6.941 Li.pbe-sl-rrkjus_psl.1.0.0.UPF
O 15.99 O.pbe-n-rrkjus_psl.1.0.0.UPF


CELL_PARAMETERS {angstrom}
5.44580000 0.00000000 0.00000000
0.00000000 7.77412000 0.00000000
0.00000000 0.00000000 24.08340000

ATOMIC_POSITIONS {angstrom}
Li 4.03479322 1.98053481 0.73791538
Li 1.27159430 1.94353000 -2.0417906499999994 0 0 0
Li 4.03490214 5.79358519 0.73791538
Li 1.27159430 5.83059000 -2.0417906499999994 0 0 0
Al 5.42145727 0.00007774 1.89753109
Al 2.66299620 0.00000000 -0.6805968799999995 0 0 0
Al 5.36950434 3.88698226 2.23782953
Al 2.66299620 3.88706000 -0.6805968799999995 0 0 0
Cu 2.74778731 0.00000000 2.07526658
Cu 5.38589620 0.00000000 -0.6805968799999995 0 0 0
Cu 2.81117642 3.88706000 2.01024140
Cu 5.38589620 3.88706000 -0.6805968799999995 0 0 0
Ge 1.33944897 2.01606254 0.97874938
Ge 3.99449430 1.94353000 -2.0417906499999994 0 0 0
Ge 1.33944897 5.75805746 0.97899021
Ge 3.99449430 5.83059000 -2.0417906499999994 0 0 0
C 2.76314446 7.77404226 3.94871426
O 2.73526197 0.00000000 5.09725161
