&CONTROL
calculation = 'relax'
prefix = 'scf'
pseudo_dir = '/vol0004/mdt0/data/hp150275/u10028/POT_HYBRID_KKJUS_GBRV'
outdir = './data'
tprnfor = .true.
nstep = 50
disk_io = 'non'
/
&SYSTEM
ibrav = 0
ecutwfc = 50.0
ecutrho = 400
occupations = 'smearing'
smearing = 'mp'
degauss = 0.01
assume_isolated = 'esm'
esm_bc = 'bc1'
input_dft = 'BEEF-VDW'
nosym = .true.
nspin = 2
ntyp = 4
nat = 33
starting_magnetization(1) = 0.0
starting_magnetization(2) = 0.001
starting_magnetization(3) = 0.0
starting_magnetization(4) = 0.0
/
&ELECTRONS
electron_maxstep = 300
mixing_beta = 0.1
conv_thr = 1e-06
/
&IONS
ion_dynamics = 'bfgs'
upscale = 1.0
/
&CELL
/

K_POINTS {automatic}
8 6 1 0 0 0

ATOMIC_SPECIES
C 12.01 C.pbe-n-rrkjus_psl.1.0.0.UPF
Ni 58.69 ni_pbe_v1.4.uspp.F.UPF
Sb 121.7 Sb.pbe-n-rrkjus_psl.1.0.0.UPF
Zr 91.22 Zr.pbe-spn-rrkjus_psl.1.0.0.UPF

CELL_PARAMETERS {angstrom}
6.34024000 0.00000000 0.00000000
0.00000000 8.96645000 0.00000000
0.00000000 0.00000000 26.72480000

ATOMIC_POSITIONS {angstrom}
Zr 0.00000000 0.00000000 -3.362514339999997 0 0 0
Zr 3.17012000 2.24161250 -1.1208381099999976 0 0 0
Zr 3.17012000 6.72483750 -1.1208381099999976 0 0 0
Zr 0.00000000 4.48322500 -3.362514339999997 0 0 0
Zr 0.00000000 4.48313534 1.12912280
Zr 3.17012000 6.91026369 3.30265078
Zr 3.17012000 2.05681397 3.30425427
Zr 0.00000000 0.00053799 1.34586093
Ni 1.58506000 0.00000000 -1.1208381099999976 0 0 0
Ni 4.75518000 4.48322500 -1.1208381099999976 0 0 0
Ni 4.75518000 0.00000000 -1.1208381099999976 0 0 0
Ni 1.58506000 4.48322500 -1.1208381099999976 0 0 0
Ni 4.75518000 6.72483750 -3.362514339999997 0 0 0
Ni 1.58506000 2.24161250 -3.362514339999997 0 0 0
Ni 1.58506000 6.72483750 -3.362514339999997 0 0 0
Ni 4.75518000 2.24161250 -3.362514339999997 0 0 0
Ni 1.74318559 4.48196970 3.16234558
Ni 5.08227298 0.00179329 3.71528170
Ni 4.59705441 4.48196970 3.16234558
Ni 1.25796702 0.00179329 3.71528170
Ni 4.81940663 2.26017305 1.10373424
Ni 1.51918491 6.70663561 1.10266525
Ni 1.52083337 2.26017305 1.10373424
Ni 4.82111850 6.70663561 1.10239800
Sb 0.00000000 6.72483750 -1.1208381099999976 0 0 0
Sb 3.17012000 0.00000000 -3.362514339999997 0 0 0
Sb 0.00000000 2.24161250 -1.1208381099999976 0 0 0
Sb 3.17012000 4.48322500 -3.362514339999997 0 0 0
Sb 0.00000000 2.37539193 3.55252766
Sb 3.17012000 4.48367332 1.05536235
Sb 0.00000000 6.59240303 3.55119142
Sb 3.17012000 0.00008966 1.01286992
C 3.17012000 8.96618101 3.99428861
