&CONTROL
calculation = 'relax'
prefix = 'scf'
pseudo_dir = '/vol0403/data/hp230205/u10028/POT_HYBRID_KKJUS_GBRV'
outdir = './data'
tprnfor = .true.
nstep = 50
disk_io = 'non'
/
&SYSTEM
ibrav = 0
ecutwfc = 50.0
ecutrho = 400
occupations = 'smearing'
smearing = 'mp'
degauss = 0.01
assume_isolated = 'esm'
esm_bc = 'bc1'
input_dft = 'BEEF-VDW'
nosym = .true.
nspin = 1
ntyp = 6
nat = 18
/
&ELECTRONS
electron_maxstep = 200
mixing_beta = 0.1
conv_thr = 1e-06
/
&IONS
ion_dynamics = 'bfgs'
upscale = 1.0
/
&CELL
/

K_POINTS {automatic}
6 6 1 0 0 0

ATOMIC_SPECIES
C 12.01 C.pbe-n-rrkjus_psl.1.0.0.UPF
In 114.8 In.pbe-dn-rrkjus_psl.1.0.0.UPF
Li 6.941 Li.pbe-sl-rrkjus_psl.1.0.0.UPF
O 15.99 O.pbe-n-rrkjus_psl.1.0.0.UPF
Pb 207.2 Pb.pbe-dn-rrkjus_psl.1.0.0.UPF
Y 88.90 Y.pbe-spn-rrkjus_psl.1.0.0.UPF


CELL_PARAMETERS {angstrom}
9.00122000 0.00000000 0.00000000
0.00000000 6.63002000 0.00000000
0.00000000 0.00000000 24.97230000

ATOMIC_POSITIONS {angstrom}
Li 2.25075506 1.75370659 1.08754366
Li 2.25030500 4.92245835 -2.4862421900000022 0 0 0
Li 6.75046494 1.75370659 1.08754366
Li 6.75091500 4.92245835 -2.4862421900000022 0 0 0
Y 2.25282534 5.01183102 0.82758202
Y 2.25030500 1.60744835 -2.4862421900000022 0 0 0
Y 6.74839466 5.01183102 0.82758202
Y 6.75091500 1.60744835 -2.4862421900000022 0 0 0
In 0.00009001 0.16674500 2.43629759
In 0.00000000 3.28159470 -0.8288306399999996 0 0 0
In 4.50051999 0.17178382 2.45252958
In 4.50061000 3.28159470 -0.8288306399999996 0 0 0
Pb 0.00000000 3.34338649 2.42705784
Pb 0.00000000 6.59660470 -0.8288306399999996 0 0 0
Pb 4.50061000 3.34623739 2.43879482
Pb 4.50061000 6.59660470 -0.8288306399999996 0 0 0
C 9.00112999 6.39392499 5.99709784
O 9.00094996 0.16157359 7.06041838
