&CONTROL
calculation = 'relax'
prefix = 'scf'
pseudo_dir = '/vol0403/data/hp230205/u10028/POT_HYBRID_KKJUS_GBRV'
outdir = './data'
tprnfor = .true.
nstep = 70
disk_io = 'non'
/
&SYSTEM
ibrav = 0
ecutwfc = 50.0
ecutrho = 400
occupations = 'smearing'
smearing = 'mp'
degauss = 0.01
assume_isolated = 'esm'
esm_bc = 'bc1'
input_dft = 'BEEF-VDW'
nosym = .true.
nspin = 1
ntyp = 6
nat = 34
/
&ELECTRONS
electron_maxstep = 200
mixing_beta = 0.1
conv_thr = 1e-06
/
&IONS
ion_dynamics = 'bfgs'
upscale = 1.0
/
&CELL
/

K_POINTS {automatic}
9 6 2 0  0  0

ATOMIC_SPECIES
C 12.01 C.pbe-n-rrkjus_psl.1.0.0.UPF
Cu 63.54 Cu.pbe-dn-rrkjus_psl.1.0.0.UPF
Ge 72.64 Ge.pbe-dn-rrkjus_psl.1.0.0.UPF
Li 6.941 Li.pbe-sl-rrkjus_psl.1.0.0.UPF
Mg 24.30 Mg.pbe-spnl-rrkjus_psl.1.0.0.UPF
O 15.99 O.pbe-n-rrkjus_psl.1.0.0.UPF


CELL_PARAMETERS {angstrom}
6.17522000 0.00000000 0.00000000
-0.00000000 8.73308000 0.00000000
0.00000000 0.00000000 26.54980000

ATOMIC_POSITIONS {angstrom}
Li 0.00000000 2.18327000 -1.091727780000003 0 0 0
Li 0.00000000 6.54981000 -1.091727780000003 0 0 0
Li 3.08761000 4.36654000 -3.2749178299999997 0 0 0
Li 3.08761000 0.00000000 -3.2749178299999997 0 0 0
Li 0.84254702 6.54963534 4.51373150
Li 0.73725952 2.18327000 4.44709150
Li 3.15893379 8.71657448 1.15518180
Li 3.15843977 4.38348218 1.15518180
Mg 4.63141500 0.00000000 -1.091727780000003 0 0 0
Mg 4.63141500 4.36654000 -1.091727780000003 0 0 0
Mg 1.54380500 2.18327000 -3.2749178299999997 0 0 0
Mg 1.54380500 6.54981000 -3.2749178299999997 0 0 0
Mg 4.90077810 4.39038131 3.41881775
Mg 4.90102511 8.70915136 3.41881775
Mg 1.39634075 6.55007199 1.35165032
Mg 1.45031217 2.18309534 1.30970163
Cu 0.00000000 0.00000000 -3.2749178299999997 0 0 0
Cu 0.00000000 4.36654000 -3.2749178299999997 0 0 0
Cu 3.08761000 6.54981000 -1.091727780000003 0 0 0
Cu 3.08761000 2.18327000 -1.091727780000003 0 0 0
Cu 6.17231765 4.35614763 0.99322802
Cu 6.17200889 0.01065436 0.99322802
Cu 3.16146563 2.18318267 3.21358779
Cu 3.16918466 6.54972267 3.19048947
Ge 1.54380500 0.00000000 -1.091727780000003 0 0 0
Ge 1.54380500 4.36654000 -1.091727780000003 0 0 0
Ge 4.63141500 2.18327000 -3.2749178299999997 0 0 0
Ge 4.63141500 6.54981000 -3.2749178299999997 0 0 0
Ge 1.72906160 4.36496805 3.34713329
Ge 1.72924686 0.00174662 3.34713329
Ge 4.70483837 6.54972267 1.18491757
Ge 4.70872875 2.18344466 1.19686498
C 0.00413740 2.18327000 6.41283869
O 5.73906421 2.18327000 7.46606926
