&CONTROL
calculation = 'relax'
prefix = 'scf'
pseudo_dir = '/vol0004/mdt0/data/hp150275/u10028/POT_KKJUS'
outdir = './data'
tprnfor = .true.
nstep = 50
disk_io = 'non'
/
&SYSTEM
ibrav = 0
ecutwfc = 50.0
ecutrho = 400
occupations = 'smearing'
smearing = 'mp'
degauss = 0.01
assume_isolated = 'esm'
esm_bc = 'bc1'
input_dft = 'BEEF-VDW'
nosym = .true.
nspin = 1
ntyp = 2
nat = 32
/
&ELECTRONS
electron_maxstep = 200
mixing_beta = 0.1
conv_thr = 1e-06
/
&IONS
ion_dynamics = 'bfgs'
upscale = 1.0
/
&CELL
/

K_POINTS {automatic}
9 6 2 0  0  0

ATOMIC_SPECIES
Bi 208.9 Bi.pbe-dn-rrkjus_psl.1.0.0.UPF
Li 6.941 Li.pbe-sl-rrkjus_psl.1.0.0.UPF

CELL_PARAMETERS {angstrom}
6.74000000 0.00000000 0.00000000
0.00000000 9.53179000 0.00000000
0.00000000 0.00000000 27.14880000

ATOMIC_POSITIONS {angstrom}
Li 1.68500000 0.00000000 -1.1915608300000002 0 0 0
Li 5.05500000 4.76589500 -1.1915608300000002 0 0 0
Li 5.05500000 0.00000000 -1.1915608300000002 0 0 0
Li 1.68500000 4.76589500 -1.1915608300000002 0 0 0
Li 5.05500000 7.14884250 -3.574411010000002 0 0 0
Li 1.68500000 2.38294750 -3.574411010000002 0 0 0
Li 1.68500000 7.14884250 -3.574411010000002 0 0 0
Li 5.05500000 2.38294750 -3.574411010000002 0 0 0
Li 0.00000000 7.14884250 -1.1915608300000002 0 0 0
Li 3.37000000 0.00000000 -3.574411010000002 0 0 0
Li 0.00000000 2.38294750 -1.1915608300000002 0 0 0
Li 3.37000000 4.76589500 -3.574411010000002 0 0 0
Li 1.90034300 4.76589500 3.60101683
Li 4.83972440 0.00000000 3.60101683
Li 4.83965700 4.76589500 3.60101683
Li 1.90027560 0.00000000 3.60101683
Li 5.01240320 2.38294750 1.19997696
Li 1.72766420 7.14884250 1.19997696
Li 1.72766420 2.38294750 1.19997696
Li 5.01233580 7.14884250 1.19997696
Li 0.00006740 2.38285218 3.33061478
Li 3.37000000 4.76589500 1.21735219
Li 0.00006740 7.14893782 3.33061478
Li 3.37000000 0.00000000 1.21762368
Bi 0.00000000 0.00000000 -3.574411010000002 0 0 0
Bi 3.37000000 2.38294750 -1.1915608300000002 0 0 0
Bi 3.37000000 7.14884250 -1.1915608300000002 0 0 0
Bi 0.00000000 4.76589500 -3.574411010000002 0 0 0
Bi 0.00000000 4.76589500 1.32866227
Bi 3.36993260 7.14846123 3.59884493
Bi 3.36993260 2.38332877 3.59884493
Bi 0.00000000 0.00000000 1.32893376
