&CONTROL
calculation = 'relax'
prefix = 'scf'
pseudo_dir = '/vol0004/mdt0/data/hp150275/u10028/POT_KKJUS'
outdir = './data'
tprnfor = .true.
nstep = 50
disk_io = 'non'
/
&SYSTEM
ibrav = 0
ecutwfc = 50.0
ecutrho = 400
occupations = 'smearing'
smearing = 'mp'
degauss = 0.01
assume_isolated = 'esm'
esm_bc = 'bc1'
input_dft = 'BEEF-VDW'
nosym = .true.
nspin = 1
ntyp = 4
nat = 34
/
&ELECTRONS
electron_maxstep = 200
mixing_beta = 0.1
conv_thr = 1e-06
/
&IONS
ion_dynamics = 'bfgs'
upscale = 1.0
/
&CELL
/

K_POINTS {automatic}
6 6 1 0 0 0

ATOMIC_SPECIES
C 12.01 C.pbe-n-rrkjus_psl.1.0.0.UPF
Na 22.98 Na.pbe-spnl-rrkjus_psl.1.0.0.UPF
O 15.99 O.pbe-n-rrkjus_psl.1.0.0.UPF
Pb 207.2 Pb.pbe-dn-rrkjus_psl.1.0.0.UPF

CELL_PARAMETERS {angstrom}
10.02390000 0.00000000 0.00000000
0.00000000 10.02390000 0.00000000
0.00000000 0.00000000 27.51800000

ATOMIC_POSITIONS {angstrom}
Na 10.01718399 10.01608136 4.02093016
Na 0.00000000 0.00000000 -1.2528945399999998 0 0 0
Na 10.02139402 5.00503351 4.02010462
Na 0.00000000 5.01195000 -1.2528945399999998 0 0 0
Na 5.00603590 10.02189522 4.01845354
Na 5.01195000 0.00000000 -1.2528945399999998 0 0 0
Na 5.00072323 5.00142491 4.03606506
Na 5.01195000 5.01195000 -1.2528945399999998 0 0 0
Pb 10.01838685 2.49945947 1.53605476
Pb 2.49955970 10.01788566 1.53577958
Pb 2.49565038 2.49444752 3.85774842
Pb 0.00000000 2.50597500 -3.758958800000002 0 0 0
Pb 2.50597500 0.00000000 -3.758958800000002 0 0 0
Pb 2.50597500 2.50597500 -1.2528945399999998 0 0 0
Pb 10.01748470 7.51321377 1.52752418
Pb 2.50356926 5.00643685 1.54375980
Pb 2.50066233 7.51501807 3.83931136
Pb 0.00000000 7.51792500 -3.758958800000002 0 0 0
Pb 2.50597500 5.01195000 -3.758958800000002 0 0 0
Pb 2.50597500 7.51792500 -1.2528945399999998 0 0 0
Pb 5.00693805 2.50316831 1.54348462
Pb 7.51301329 10.01728423 1.52724900
Pb 7.51581998 2.49986042 3.83931136
Pb 5.01195000 2.50597500 -3.758958800000002 0 0 0
Pb 7.51792500 0.00000000 -3.758958800000002 0 0 0
Pb 7.51792500 2.50597500 -1.2528945399999998 0 0 0
Pb 5.00914331 7.51050731 1.53192706
Pb 7.51060755 5.00894283 1.53220224
Pb 7.51311353 7.51201090 3.83903618
Pb 5.01195000 7.51792500 -3.758958800000002 0 0 0
Pb 7.51792500 5.01195000 -3.758958800000002 0 0 0
Pb 7.51792500 7.51792500 -1.2528945399999998 0 0 0
C 2.93860652 2.97629639 7.99590526
O 2.28725350 2.28605063 8.61671134
