&CONTROL
calculation = 'relax'
prefix = 'scf'
pseudo_dir = '/vol0004/mdt0/data/hp150275/u10028/POT_KKJUS'
outdir = './data'
tprnfor = .true.
nstep = 50
disk_io = 'non'
/
&SYSTEM
ibrav = 0
ecutwfc = 50.0
ecutrho = 400
occupations = 'smearing'
smearing = 'mp'
degauss = 0.01
assume_isolated = 'esm'
esm_bc = 'bc1'
input_dft = 'BEEF-VDW'
nosym = .true.
nspin = 1
ntyp = 4
nat = 18
/
&ELECTRONS
electron_maxstep = 200
mixing_beta = 0.1
conv_thr = 1e-06
/
&IONS
ion_dynamics = 'bfgs'
upscale = 1.0
/
&CELL
/

K_POINTS {automatic}
8 11 2 0  0  0

ATOMIC_SPECIES
C 12.01 C.pbe-n-rrkjus_psl.1.0.0.UPF
O 15.99 O.pbe-n-rrkjus_psl.1.0.0.UPF
Ti 47.86 Ti.pbe-spn-rrkjus_psl.1.0.0.UPF
Zn 65.40 Zn.pbe-dnl-rrkjus_psl.1.0.0.UPF

CELL_PARAMETERS {angstrom}
7.87849000 0.00000000 0.00000000
0.00000000 5.57094000 0.00000000
0.00000000 0.00000000 24.17820000

ATOMIC_POSITIONS {angstrom}
Ti 0.00000000 0.00000000 1.94320193
Ti 0.00000000 2.78547000 -0.6963321600000008 0 0 0
Ti 3.93924500 0.00000000 1.94707045
Ti 3.93924500 2.78547000 -0.6963321600000008 0 0 0
Zn 0.00000000 2.78547000 1.96738013
Zn 1.96607718 4.15280151 0.79135249
Zn 1.96607718 1.41813849 0.79135249
Zn 0.00000000 0.00000000 -0.6963321600000008 0 0 0
Zn 1.96962250 1.39273500 -2.0889964799999987 0 0 0
Zn 1.96962250 4.17820500 -2.0889964799999987 0 0 0
Zn 3.93924500 2.78547000 2.08464440
Zn 5.91241282 4.15280151 0.79135249
Zn 5.91249161 1.41813849 0.79135249
Zn 3.93924500 0.00000000 -0.6963321600000008 0 0 0
Zn 5.90886750 1.39273500 -2.0889964799999987 0 0 0
Zn 5.90886750 4.17820500 -2.0889964799999987 0 0 0
C 0.00000000 2.78547000 3.91154920
O 0.00000000 2.78547000 5.07258636
