&CONTROL
calculation = 'relax'
prefix = 'scf'
pseudo_dir = '/vol0004/mdt0/data/hp150275/u10028/POT_KKJUS'
outdir = './data'
tprnfor = .true.
nstep = 50
disk_io = 'non'
/
&SYSTEM
ibrav = 0
ecutwfc = 50.0
ecutrho = 400
occupations = 'smearing'
smearing = 'mp'
degauss = 0.01
assume_isolated = 'esm'
esm_bc = 'bc1'
input_dft = 'BEEF-VDW'
nosym = .true.
nspin = 1
ntyp = 4
nat = 34
/
&ELECTRONS
electron_maxstep = 200
mixing_beta = 0.1
conv_thr = 1e-06
/
&IONS
ion_dynamics = 'bfgs'
upscale = 1.0
/
&CELL
/

K_POINTS {automatic}
9 6 2 0  0  0

ATOMIC_SPECIES
Ag 107.8 Ag.pbe-n-rrkjus_psl.1.0.0.UPF
C 12.01 C.pbe-n-rrkjus_psl.1.0.0.UPF
Li 6.941 Li.pbe-sl-rrkjus_psl.1.0.0.UPF
O 15.99 O.pbe-n-rrkjus_psl.1.0.0.UPF

CELL_PARAMETERS {angstrom}
6.44966000 0.00000000 0.00000000
0.00000000 9.12120000 0.00000000
0.00000000 0.00000000 26.84090000

ATOMIC_POSITIONS {angstrom}
Li 1.61241500 2.28030000 -3.4203358900000005 0 0 0
Li 1.61241500 0.00000000 -1.1402014300000012 0 0 0
Li 1.61241500 2.27537455 1.12033917
Li 1.61241500 0.00000000 3.54944062
Li 1.61241500 6.84090000 -3.4203358900000005 0 0 0
Li 1.61241500 4.56060000 -1.1402014300000012 0 0 0
Li 1.61241500 6.84582545 1.12033917
Li 1.61241500 4.56060000 3.44502951
Li 4.83724500 2.28030000 -3.4203358900000005 0 0 0
Li 4.83724500 0.00000000 -1.1402014300000012 0 0 0
Li 4.83724500 2.27710758 1.10745553
Li 4.83724500 0.00000000 3.45227656
Li 4.83724500 6.84090000 -3.4203358900000005 0 0 0
Li 4.83724500 4.56060000 -1.1402014300000012 0 0 0
Li 4.83724500 6.84409242 1.10745553
Li 4.83724500 4.56060000 3.51320540
Ag 0.00000000 0.00000000 -3.4203358900000005 0 0 0
Ag 0.00000000 2.28030000 -1.1402014300000012 0 0 0
Ag 0.00819107 0.00000000 1.14771688
Ag 6.43405182 2.29233998 3.27754230
Ag 0.00000000 4.56060000 -3.4203358900000005 0 0 0
Ag 0.00000000 6.84090000 -1.1402014300000012 0 0 0
Ag 6.43669618 4.56060000 1.14369075
Ag 6.43398733 6.82886002 3.27754230
Ag 3.22483000 0.00000000 -3.4203358900000005 0 0 0
Ag 3.22483000 2.28030000 -1.1402014300000012 0 0 0
Ag 3.21657444 0.00000000 1.14771688
Ag 3.24043818 2.29233998 3.27754230
Ag 3.22483000 4.56060000 -3.4203358900000005 0 0 0
Ag 3.22483000 6.84090000 -1.1402014300000012 0 0 0
Ag 3.23779382 4.56060000 1.14369075
Ag 3.24043818 6.82886002 3.27754230
C 1.61235050 0.00000000 5.63471014
O 1.61235050 0.00009121 6.77840089
