&CONTROL
calculation = 'relax'
prefix = 'scf'
pseudo_dir = '/vol0403/data/hp230205/u10028/POT_HYBRID_KKJUS_GBRV'
outdir = './data'
tprnfor = .true.
nstep = 50
disk_io = 'non'
/
&SYSTEM
ibrav = 0
ecutwfc = 50.0
ecutrho = 400
occupations = 'smearing'
smearing = 'mp'
degauss = 0.01
assume_isolated = 'esm'
esm_bc = 'bc1'
input_dft = 'BEEF-VDW'
nosym = .true.
nspin = 1
ntyp = 6
nat = 34
/
&ELECTRONS
electron_maxstep = 200
mixing_beta = 0.1
conv_thr = 1e-06
/
&IONS
ion_dynamics = 'bfgs'
upscale = 1.0
/
&CELL
/

K_POINTS {automatic}
6 6 1 0 0 0

ATOMIC_SPECIES
Au 196.9 Au.pbe-n-rrkjus_psl.1.0.0.UPF
C 12.01 C.pbe-n-rrkjus_psl.1.0.0.UPF
Ge 72.64 Ge.pbe-dn-rrkjus_psl.1.0.0.UPF
In 114.8 In.pbe-dn-rrkjus_psl.1.0.0.UPF
Li 6.941 Li.pbe-sl-rrkjus_psl.1.0.0.UPF
O 15.99 O.pbe-n-rrkjus_psl.1.0.0.UPF


CELL_PARAMETERS {angstrom}
8.57796000 0.00000000 0.00000000
0.00000000 8.39470000 0.00000000
0.00000000 0.00000000 26.34910000

ATOMIC_POSITIONS {angstrom}
Li 8.57572973 2.09867500 1.09506860
Li 0.00000000 2.09867500 -3.1745395700000003 0 0 0
Li 8.56723755 6.29602500 1.09058925
Li 0.00000000 6.29602500 -3.1745395700000003 0 0 0
Li 4.29121027 2.09867500 1.09506860
Li 4.28898000 2.09867500 -3.1745395700000003 0 0 0
Li 4.29970245 6.29602500 1.09058925
Li 4.28898000 6.29602500 -3.1745395700000003 0 0 0
In 2.14449000 2.09867500 3.58163316
In 2.14449000 2.09867500 -1.0581798599999992 0 0 0
In 2.14449000 6.29602500 3.68729305
In 2.14449000 6.29602500 -1.0581798599999992 0 0 0
In 6.43347000 2.09875895 3.69361684
In 6.43347000 2.09867500 -1.0581798599999992 0 0 0
In 6.43347000 6.29602500 3.68992796
In 6.43347000 6.29602500 -1.0581798599999992 0 0 0
Ge 2.14449000 8.37463667 0.96121517
Ge 2.14449000 0.00000000 -3.1745395700000003 0 0 0
Ge 2.14449000 4.21741333 0.96121517
Ge 2.14449000 4.19735000 -3.1745395700000003 0 0 0
Ge 6.43347000 0.00671576 0.96674848
Ge 6.43347000 0.00000000 -3.1745395700000003 0 0 0
Ge 6.43347000 4.19063424 0.96674848
Ge 6.43347000 4.19735000 -3.1745395700000003 0 0 0
Au 8.56852424 8.38706082 2.94767382
Au 0.00000000 0.00000000 -1.0581798599999992 0 0 0
Au 8.56852424 4.20498918 2.94767382
Au 0.00000000 4.19735000 -1.0581798599999992 0 0 0
Au 4.29841576 8.38706082 2.94767382
Au 4.28898000 0.00000000 -1.0581798599999992 0 0 0
Au 4.29841576 4.20498918 2.94767382
Au 4.28898000 4.19735000 -1.0581798599999992 0 0 0
C 2.14474734 2.09825527 7.49473800
O 2.14431844 2.09892684 8.62933025
