&CONTROL
calculation = 'relax'
prefix = 'scf'
pseudo_dir = '/vol0004/mdt0/data/hp150275/u10028/POT_KKJUS'
outdir = './data'
tprnfor = .true.
nstep = 50
disk_io = 'non'
/
&SYSTEM
ibrav = 0
ecutwfc = 50.0
ecutrho = 400
occupations = 'smearing'
smearing = 'mp'
degauss = 0.01
assume_isolated = 'esm'
esm_bc = 'bc1'
input_dft = 'BEEF-VDW'
nosym = .true.
nspin = 1
ntyp = 2
nat = 32
/
&ELECTRONS
electron_maxstep = 200
mixing_beta = 0.1
conv_thr = 1e-06
/
&IONS
ion_dynamics = 'bfgs'
upscale = 1.0
/
&CELL
/

K_POINTS {automatic}
8 6 1 0 0 0

ATOMIC_SPECIES
K 39.09 K.pbe-spn-rrkjus_psl.1.0.0.UPF
Sb 121.7 Sb.pbe-n-rrkjus_psl.1.0.0.UPF

CELL_PARAMETERS {angstrom}
8.65338000 0.00000000 0.00000000
0.00000000 12.23770000 0.00000000
0.00000000 0.00000000 29.17830000

ATOMIC_POSITIONS {angstrom}
K 2.16334500 0.00000000 -1.5298182699999998 0 0 0
K 6.49003500 6.11885000 -1.5298182699999998 0 0 0
K 6.49003500 0.00000000 -1.5298182699999998 0 0 0
K 2.16334500 6.11885000 -1.5298182699999998 0 0 0
K 6.49003500 9.17827500 -4.589163020000001 0 0 0
K 2.16334500 3.05942500 -4.589163020000001 0 0 0
K 2.16334500 9.17827500 -4.589163020000001 0 0 0
K 6.49003500 3.05942500 -4.589163020000001 0 0 0
K 0.00000000 9.17827500 -1.5298182699999998 0 0 0
K 4.32669000 0.00000000 -4.589163020000001 0 0 0
K 0.00000000 3.05942500 -1.5298182699999998 0 0 0
K 4.32669000 6.11885000 -4.589163020000001 0 0 0
K 2.44198384 6.11897238 5.02391969
K 6.21130963 0.00024475 5.02391969
K 6.21139616 6.11860525 5.02391969
K 2.44198384 12.23757762 5.02391969
K 6.44659503 3.05942500 1.45337112
K 2.20704457 9.17827500 1.45366291
K 2.20687150 3.05942500 1.45307934
K 6.44642196 9.17827500 1.45366291
K 0.00043267 3.05942500 4.18971210
K 4.32660347 6.11885000 1.79446545
K 8.65303386 9.17827500 4.18971210
K 4.32669000 0.00012238 1.79446545
Sb 0.00000000 0.00000000 -4.589163020000001 0 0 0
Sb 4.32669000 3.05942500 -1.5298182699999998 0 0 0
Sb 4.32669000 9.17827500 -1.5298182699999998 0 0 0
Sb 0.00000000 6.11885000 -4.589163020000001 0 0 0
Sb 0.00000000 6.11885000 1.75857614
Sb 4.32686307 9.17827500 4.32451584
Sb 4.32651693 3.05942500 4.32451584
Sb 0.00000000 0.00000000 1.75857614
