&CONTROL
calculation = 'relax'
prefix = 'scf'
pseudo_dir = '/vol0004/mdt0/data/hp150275/u10028/POT_KKJUS'
outdir = './data'
tprnfor = .true.
nstep = 50
disk_io = 'non'
/
&SYSTEM
ibrav = 0
ecutwfc = 50.0
ecutrho = 400
occupations = 'smearing'
smearing = 'mp'
degauss = 0.01
assume_isolated = 'esm'
esm_bc = 'bc1'
input_dft = 'BEEF-VDW'
nosym = .true.
nspin = 1
ntyp = 4
nat = 18
/
&ELECTRONS
electron_maxstep = 200
mixing_beta = 0.1
conv_thr = 1e-06
/
&IONS
ion_dynamics = 'bfgs'
upscale = 1.0
/
&CELL
/

K_POINTS {automatic}
8 11 2 0  0  0

ATOMIC_SPECIES
Au 196.9 Au.pbe-n-rrkjus_psl.1.0.0.UPF
C 12.01 C.pbe-n-rrkjus_psl.1.0.0.UPF
O 15.99 O.pbe-n-rrkjus_psl.1.0.0.UPF
V 50.94 V.pbe-spnl-rrkjus_psl.1.0.0.UPF

CELL_PARAMETERS {angstrom}
7.78093000 0.00000000 0.00000000
0.00000000 5.50195000 0.00000000
0.00000000 0.00000000 24.12650000

ATOMIC_POSITIONS {angstrom}
V 7.78022972 2.75103002 1.78198329
V 1.93885214 4.14472897 0.55201432
V 1.93885214 1.35727605 0.55201432
V 0.00000000 0.00000000 -0.6878465200000008 0 0 0
V 1.94523250 1.37548750 -2.0632982800000015 0 0 0
V 1.94523250 4.12646250 -2.0632982800000015 0 0 0
V 3.89093186 2.75103002 1.80586852
V 5.84200005 4.14456392 0.55273812
V 5.84207786 1.35744110 0.55273812
V 3.89046500 0.00000000 -0.6878465200000008 0 0 0
V 5.83569750 1.37548750 -2.0632982800000015 0 0 0
V 5.83569750 4.12646250 -2.0632982800000015 0 0 0
Au 0.00031124 0.00005502 2.13109375
Au 0.00000000 2.75097500 -0.6878465200000008 0 0 0
Au 3.89030938 0.00000000 2.05316515
Au 3.89046500 2.75097500 -0.6878465200000008 0 0 0
C 0.00007781 0.00005502 4.18305257
O 7.78085219 0.00000000 5.33533421
