&CONTROL
calculation = 'relax'
prefix = 'scf'
pseudo_dir = '/vol0403/data/hp230205/u10028/POT_HYBRID_KKJUS_GBRV'
outdir = './data'
tprnfor = .true.
nstep = 70
disk_io = 'non'
/
&SYSTEM
ibrav = 0
ecutwfc = 50.0
ecutrho = 400
occupations = 'smearing'
smearing = 'mp'
degauss = 0.01
assume_isolated = 'esm'
esm_bc = 'bc1'
input_dft = 'BEEF-VDW'
nosym = .true.
nspin = 1
ntyp = 4
nat = 32
/
&ELECTRONS
electron_maxstep = 200
mixing_beta = 0.1
conv_thr = 1e-06
/
&IONS
ion_dynamics = 'bfgs'
upscale = 1.0
/
&CELL
/

K_POINTS {automatic}
9 6 2 0  0  0

ATOMIC_SPECIES
Ag 107.8 Ag.pbe-n-rrkjus_psl.1.0.0.UPF
In 114.8 In.pbe-dn-rrkjus_psl.1.0.0.UPF
Pd 106.4 Pd.pbe-n-rrkjus_psl.1.0.0.UPF
Y 88.90 Y.pbe-spn-rrkjus_psl.1.0.0.UPF


CELL_PARAMETERS {angstrom}
6.92663000 0.00000000 0.00000000
-0.00000000 9.79574000 0.00000000
0.00000000 0.00000000 27.34680000

ATOMIC_POSITIONS {angstrom}
Y 5.19497250 0.00000000 -1.2245897000000028 0 0 0
Y 5.19497250 4.89787000 -1.2245897000000028 0 0 0
Y 1.73165750 2.44893500 -3.6734956400000023 0 0 0
Y 1.73165750 7.34680500 -3.6734956400000023 0 0 0
Y 4.87288421 4.89787000 3.55016158
Y 4.87281494 -0.00000000 3.55016158
Y 1.83624961 7.34680500 1.44144983
Y 1.83631888 2.44893500 1.44144983
In 1.73165750 0.00000000 -1.2245897000000028 0 0 0
In 1.73165750 4.89787000 -1.2245897000000028 0 0 0
In 5.19497250 2.44893500 -3.6734956400000023 0 0 0
In 5.19497250 7.34680500 -3.6734956400000023 0 0 0
In 1.41704997 4.89787000 3.88652722
In 1.41704997 -0.00000000 3.88652722
In 5.20286886 7.34680500 1.18438991
In 5.20286886 2.44893500 1.18438991
Ag 0.00000000 0.00000000 -3.6734956400000023 0 0 0
Ag 0.00000000 4.89787000 -3.6734956400000023 0 0 0
Ag 3.46331500 7.34680500 -1.2245897000000028 0 0 0
Ag 3.46331500 2.44893500 -1.2245897000000028 0 0 0
Ag 0.02625193 4.89787000 1.26506297
Ag 0.02625193 0.00000000 1.26506297
Ag 2.97138574 2.44893500 4.31805972
Ag 2.97145500 7.34680500 4.31778625
Pd 0.00000000 2.44893500 -1.2245897000000028 0 0 0
Pd 0.00000000 7.34680500 -1.2245897000000028 0 0 0
Pd 3.46331500 4.89787000 -3.6734956400000023 0 0 0
Pd 3.46331500 0.00000000 -3.6734956400000023 0 0 0
Pd 6.75852069 7.34680500 3.49820266
Pd 6.75852069 2.44893500 3.49820266
Pd 3.44239658 -0.00000000 1.12450042
Pd 3.44239658 4.89787000 1.12450042
