&CONTROL
calculation = 'relax'
prefix = 'scf'
pseudo_dir = '/vol0004/mdt0/data/hp150275/u10028/POT_KKJUS'
outdir = './data'
tprnfor = .true.
nstep = 50
disk_io = 'non'
/
&SYSTEM
ibrav = 0
ecutwfc = 50.0
ecutrho = 400
occupations = 'smearing'
smearing = 'mp'
degauss = 0.01
assume_isolated = 'esm'
esm_bc = 'bc1'
input_dft = 'BEEF-VDW'
nosym = .true.
nspin = 1
ntyp = 2
nat = 16
/
&ELECTRONS
electron_maxstep = 200
mixing_beta = 0.1
conv_thr = 1e-06
/
&IONS
ion_dynamics = 'bfgs'
upscale = 1.0
/
&CELL
/

K_POINTS {automatic}
8 8 1 0 0 0

ATOMIC_SPECIES
Ni 58.69 Ni.pbe-spn-rrkjus_psl.1.0.0.UPF
Zn 65.40 Zn.pbe-dnl-rrkjus_psl.1.0.0.UPF

CELL_PARAMETERS {angstrom}
5.79956000 0.00000000 0.00000000
0.00000000 5.79956000 0.00000000
0.00000000 0.00000000 24.34970000

ATOMIC_POSITIONS {angstrom}
Zn 1.44989000 1.44989000 -0.7640935899999981 0 0 0
Zn 1.45104991 1.44890407 2.18562907
Zn 1.44989000 4.34967000 -0.7640935899999981 0 0 0
Zn 1.45093392 4.35082991 2.18538557
Zn 4.34967000 1.44989000 -0.7640935899999981 0 0 0
Zn 4.34868407 1.44931004 2.18587257
Zn 4.34967000 4.34967000 -0.7640935899999981 0 0 0
Zn 4.34874207 4.35042394 2.18562907
Ni 0.00000000 0.00000000 -2.2138747199999997 0 0 0
Ni 5.79903804 5.79932802 0.78844329
Ni 0.00000000 2.89978000 -2.2138747199999997 0 0 0
Ni 5.79950200 2.89960601 0.79014776
Ni 2.89978000 0.00000000 -2.2138747199999997 0 0 0
Ni 2.89989599 0.00011599 0.78673881
Ni 2.89978000 2.89978000 -2.2138747199999997 0 0 0
Ni 2.89943203 2.89983800 0.78941727
