&CONTROL
calculation = 'relax'
prefix = 'scf'
pseudo_dir = '/vol0004/mdt0/data/hp150275/u10028/POT_HYBRID_KKJUS_GBRV'
outdir = './data'
tprnfor = .true.
nstep = 50
disk_io = 'non'
/
&SYSTEM
ibrav = 0
ecutwfc = 50.0
ecutrho = 400
occupations = 'smearing'
smearing = 'mp'
degauss = 0.01
assume_isolated = 'esm'
esm_bc = 'bc1'
input_dft = 'BEEF-VDW'
nosym = .true.
nspin = 2
ntyp = 5
nat = 34
starting_magnetization(1) = 0.0
starting_magnetization(2) = 0.1
starting_magnetization(3) = 0.0
starting_magnetization(4) = 0.0
starting_magnetization(5) = 0.0
/
&ELECTRONS
electron_maxstep = 300
mixing_beta = 0.1
conv_thr = 1e-06
/
&IONS
ion_dynamics = 'bfgs'
upscale = 1.0
/
&CELL
/

K_POINTS {automatic}
8 6 1 0 0 0

ATOMIC_SPECIES
C 12.01 C.pbe-n-rrkjus_psl.1.0.0.UPF
Co 58.93 co_pbe_v1.2.uspp.F.UPF
O 15.99 O.pbe-n-rrkjus_psl.1.0.0.UPF
Si 28.08 Si.pbe-nl-rrkjus_psl.1.0.0.UPF
Ti 47.86 Ti.pbe-spn-rrkjus_psl.1.0.0.UPF

CELL_PARAMETERS {angstrom}
5.76208000 0.00000000 0.00000000
0.00000000 8.14881000 0.00000000
0.00000000 0.00000000 26.11160000

ATOMIC_POSITIONS {angstrom}
Ti 0.00000000 0.00000000 -3.055840549999999 0 0 0
Ti 2.88104000 2.03720250 -1.0186135199999988 0 0 0
Ti 2.88104000 6.11160750 -1.0186135199999988 0 0 0
Ti 0.00000000 4.07440500 -3.055840549999999 0 0 0
Ti 0.00000000 4.08092405 1.00164098
Ti 2.88104000 6.11160750 3.15245347
Ti 2.88104000 2.03720250 3.16133141
Ti 0.00000000 8.14220946 1.00164098
Co 1.44052000 0.00000000 -1.0186135199999988 0 0 0
Co 4.32156000 4.07440500 -1.0186135199999988 0 0 0
Co 4.32156000 0.00000000 -1.0186135199999988 0 0 0
Co 1.44052000 4.07440500 -1.0186135199999988 0 0 0
Co 4.32156000 6.11160750 -3.055840549999999 0 0 0
Co 1.44052000 2.03720250 -3.055840549999999 0 0 0
Co 1.44052000 6.11160750 -3.055840549999999 0 0 0
Co 4.32156000 2.03720250 -3.055840549999999 0 0 0
Co 1.37195125 4.08312423 2.90073764
Co 4.39012875 8.14009077 2.90073764
Co 4.39012875 4.08304274 2.90073764
Co 1.37195125 8.14009077 2.90073764
Co 4.29171243 2.03720250 0.99067410
Co 1.49629693 6.11160750 1.02226914
Co 1.47030995 2.03720250 0.99067410
Co 4.26578307 6.11160750 1.02226914
Si 0.00000000 6.11160750 -1.0186135199999988 0 0 0
Si 2.88104000 0.00000000 -3.055840549999999 0 0 0
Si 0.00000000 2.03720250 -1.0186135199999988 0 0 0
Si 2.88104000 4.07440500 -3.055840549999999 0 0 0
Si 0.00000000 2.03720250 3.00205065
Si 2.88104000 4.06772298 1.06169766
Si 0.00000000 6.11160750 3.02398440
Si 2.88104000 0.00668202 1.06169766
C 2.88104000 2.03720250 5.31893292
O 2.88104000 2.03720250 6.46627662
