&CONTROL
calculation = 'relax'
prefix = 'scf'
pseudo_dir = '/vol0004/mdt0/data/hp150275/u10028/POT_KKJUS'
outdir = './data'
tprnfor = .true.
nstep = 50
disk_io = 'non'
/
&SYSTEM
ibrav = 0
ecutwfc = 50.0
ecutrho = 400
occupations = 'smearing'
smearing = 'mp'
degauss = 0.01
assume_isolated = 'esm'
esm_bc = 'bc1'
input_dft = 'BEEF-VDW'
nosym = .true.
nspin = 1
ntyp = 4
nat = 18
/
&ELECTRONS
electron_maxstep = 200
mixing_beta = 0.1
conv_thr = 1e-06
/
&IONS
ion_dynamics = 'bfgs'
upscale = 1.0
/
&CELL
/

K_POINTS {automatic}
8 8 1 0 0 0

ATOMIC_SPECIES
Au 196.9 Au.pbe-n-rrkjus_psl.1.0.0.UPF
C 12.01 C.pbe-n-rrkjus_psl.1.0.0.UPF
O 15.99 O.pbe-n-rrkjus_psl.1.0.0.UPF
Sc 44.95 Sc.pbe-spn-rrkjus_psl.1.0.0.UPF

CELL_PARAMETERS {angstrom}
6.85145000 0.00000000 0.00000000
-0.00000000 6.85145000 0.00000000
0.00000000 0.00000000 25.13860000

ATOMIC_POSITIONS {angstrom}
Sc 0.00000000 0.00000000 -2.0311988800000016 0 0 0
Sc 0.00000000 0.00000000 1.39468953
Sc 0.00000000 3.42572500 -2.0311988800000016 0 0 0
Sc 0.00000000 3.42572500 1.39468953
Sc 3.42572500 0.00000000 -2.0311988800000016 0 0 0
Sc 3.42572500 -0.00000000 1.39468953
Sc 3.42572500 3.42572500 -2.0311988800000016 0 0 0
Sc 3.42572500 3.42572500 1.39468953
Au 1.71286250 1.71286250 -0.318254679999999 0 0 0
Au 1.71286250 1.71286250 3.10738235
Au 1.71286250 5.13858750 -0.318254679999999 0 0 0
Au 1.71286250 5.13858750 3.10738235
Au 5.13858750 1.71286250 -0.318254679999999 0 0 0
Au 5.13858750 1.71286250 3.10738235
Au 5.13858750 5.13858750 -0.318254679999999 0 0 0
Au 5.13858750 5.13858750 3.10738235
C 1.71286250 1.71286250 5.00735773
O 1.71286250 1.71286250 6.15744868
