&CONTROL
calculation = 'relax'
prefix = 'scf'
pseudo_dir = '/vol0004/mdt0/data/hp150275/u10028/POT_KKJUS'
outdir = './data'
tprnfor = .true.
nstep = 50
disk_io = 'non'
/
&SYSTEM
ibrav = 0
ecutwfc = 50.0
ecutrho = 400
occupations = 'smearing'
smearing = 'mp'
degauss = 0.01
assume_isolated = 'esm'
esm_bc = 'bc1'
input_dft = 'BEEF-VDW'
nosym = .true.
nspin = 1
ntyp = 1
nat = 16
/
&ELECTRONS
electron_maxstep = 200
mixing_beta = 0.1
conv_thr = 1e-06
/
&IONS
ion_dynamics = 'bfgs'
upscale = 1.0
/
&CELL
/

K_POINTS {automatic}
10 10 2 0  0  0

ATOMIC_SPECIES
Hf 178.4 Hf.pbe-spn-rrkjus_psl.1.0.0.UPF

CELL_PARAMETERS {angstrom}
7.06962000 0.00000000 0.00000000
-0.00000000 7.06962000 0.00000000
0.00000000 0.00000000 25.30220000

ATOMIC_POSITIONS {angstrom}
Hf 0.00000000 0.00000000 -2.6511645199999982 0 0 0
Hf 1.76740500 1.76740500 -0.8838058499999981 0 0 0
Hf 0.00000000 0.00000000 0.88380585
Hf 1.76740500 1.76740500 2.65116452
Hf 0.00000000 3.53481000 -2.6511645199999982 0 0 0
Hf 1.76740500 5.30221500 -0.8838058499999981 0 0 0
Hf 0.00000000 3.53481000 0.88380585
Hf 1.76740500 5.30221500 2.65116452
Hf 3.53481000 0.00000000 -2.6511645199999982 0 0 0
Hf 5.30221500 1.76740500 -0.8838058499999981 0 0 0
Hf 3.53481000 -0.00000000 0.88380585
Hf 5.30221500 1.76740500 2.65116452
Hf 3.53481000 3.53481000 -2.6511645199999982 0 0 0
Hf 5.30221500 5.30221500 -0.8838058499999981 0 0 0
Hf 3.53481000 3.53481000 0.88380585
Hf 5.30221500 5.30221500 2.65116452
