&CONTROL
calculation = 'relax'
prefix = 'scf'
pseudo_dir = '/vol0403/data/hp230205/u10028/POT_HYBRID_KKJUS_GBRV'
outdir = './data'
tprnfor = .true.
nstep = 50
disk_io = 'non'
/
&SYSTEM
ibrav = 0
ecutwfc = 50.0
ecutrho = 400
occupations = 'smearing'
smearing = 'mp'
degauss = 0.01
assume_isolated = 'esm'
esm_bc = 'bc1'
input_dft = 'BEEF-VDW'
nosym = .true.
nspin = 2
ntyp = 5
nat = 33
starting_magnetization(1) = 0.0
starting_magnetization(2) = 0.0
starting_magnetization(3) = 0.0
starting_magnetization(4) = 0.001
starting_magnetization(5) = 0.0
/
&ELECTRONS
electron_maxstep = 200
mixing_beta = 0.1
conv_thr = 1e-06
/
&IONS
ion_dynamics = 'bfgs'
upscale = 1.0
/
&CELL
/

K_POINTS {automatic}
9 6 2 0  0  0

ATOMIC_SPECIES
C 12.01 C.pbe-n-rrkjus_psl.1.0.0.UPF
Ga 69.72 Ga.pbe-dnl-rrkjus_psl.1.0.0.UPF
Li 6.941 Li.pbe-sl-rrkjus_psl.1.0.0.UPF
Ni 58.69 ni_pbe_v1.4.uspp.F.UPF
Pd 106.4 Pd.pbe-n-rrkjus_psl.1.0.0.UPF


CELL_PARAMETERS {angstrom}
5.93220000 0.00000000 0.00000000
0.00000000 8.38940000 0.00000000
0.00000000 0.00000000 26.29200000

ATOMIC_POSITIONS {angstrom}
Li 0.00000000 2.09735000 25.24321212
Li 0.00000000 6.29205000 25.24321212
Li 2.96610000 4.19470000 23.14589928
Li 2.96610000 0.00000000 23.14589928
Li 0.20335582 6.29213389 3.78394464
Li 5.55336971 2.09709832 4.56744624
Li 2.96657458 0.00469806 1.10452692
Li 2.96693051 4.19025362 1.10478984
Ga 0.00000000 0.00000000 23.14589928
Ga 0.00000000 4.19470000 23.14589928
Ga 2.96610000 6.29205000 25.24321212
Ga 2.96610000 2.09735000 25.24321212
Ga 0.00812711 4.20166320 1.03590480
Ga 0.00818644 8.38252069 1.03485312
Ga 3.32837945 2.09793726 3.10271892
Ga 2.94130340 6.29179832 3.23023512
Ni 1.48305000 0.00000000 25.24321212
Ni 1.48305000 4.19470000 25.24321212
Ni 4.44915000 2.09735000 23.14589928
Ni 4.44915000 6.29205000 23.14589928
Ni 1.41477038 3.87800015 3.13847604
Ni 1.41506699 0.31686764 3.13873896
Ni 4.48409066 6.29213389 1.07429112
Ni 4.54792113 2.09735000 0.97490736
Pd 4.44915000 0.00000000 25.24321212
Pd 4.44915000 4.19470000 25.24321212
Pd 1.48305000 2.09735000 23.14589928
Pd 1.48305000 6.29205000 23.14589928
Pd 4.49915845 4.31643019 3.12743340
Pd 4.49975167 8.26758591 3.12822216
Pd 1.47296526 6.29188221 1.14080988
Pd 1.48696525 2.09751779 1.02302172
C 1.35687211 2.09743389 3.50893032
