&CONTROL
calculation = 'relax'
prefix = 'scf'
pseudo_dir = '/vol0403/data/hp230205/u10028/POT_HYBRID_KKJUS_GBRV'
outdir = './data'
tprnfor = .true.
nstep = 50
disk_io = 'non'
/
&SYSTEM
ibrav = 0
ecutwfc = 50.0
ecutrho = 400
occupations = 'smearing'
smearing = 'mp'
degauss = 0.01
assume_isolated = 'esm'
esm_bc = 'bc1'
input_dft = 'BEEF-VDW'
nosym = .true.
nspin = 1
ntyp = 4
nat = 16
/
&ELECTRONS
electron_maxstep = 200
mixing_beta = 0.1
conv_thr = 1e-06
/
&IONS
ion_dynamics = 'bfgs'
upscale = 1.0
/
&CELL
/

K_POINTS {automatic}
11 7 3 0  0  0

ATOMIC_SPECIES
In 114.8 In.pbe-dn-rrkjus_psl.1.0.0.UPF
Li 6.941 Li.pbe-sl-rrkjus_psl.1.0.0.UPF
Pb 207.2 Pb.pbe-dn-rrkjus_psl.1.0.0.UPF
Y 88.90 Y.pbe-spn-rrkjus_psl.1.0.0.UPF


CELL_PARAMETERS {angstrom}
6.48172000 0.00000000 0.00000000
0.00000000 9.42336000 0.00000000
0.00000000 0.00000000 24.85820000

ATOMIC_POSITIONS {angstrom}
Li 3.24086000 0.00000000 -2.4291433 0 0 0
Li 6.19957073 0.00000000 0.77806166
Li 3.24086000 4.71168000 -2.4291433 0 0 0
Li 6.19957073 4.71177423 0.77806166
Y 1.56248342 2.35584000 -0.8096315700000005 0 0 0
Y 4.39823592 2.35584000 2.40005921
Y 1.56248342 7.06752000 -0.8096315700000005 0 0 0
Y 4.39797665 7.06752000 2.40005921
In 0.00000000 0.00000000 -2.4291433 0 0 0
In 2.72860967 0.00018847 1.05970507
In 0.00000000 4.71168000 -2.4291433 0 0 0
In 2.72854485 4.71158577 1.05995365
Pb 4.80334342 2.35584000 -0.8096315700000005 0 0 0
Pb 1.22439691 2.35574577 2.67474232
Pb 4.80334342 7.06752000 -0.8096315700000005 0 0 0
Pb 1.22426727 7.06761423 2.67449374
