&CONTROL
calculation = 'relax'
prefix = 'scf'
pseudo_dir = '/vol0403/data/hp230205/u10028/POT_HYBRID_KKJUS_GBRV'
outdir = './data'
tprnfor = .true.
nstep = 50
disk_io = 'non'
/
&SYSTEM
ibrav = 0
ecutwfc = 50.0
ecutrho = 400
occupations = 'smearing'
smearing = 'mp'
degauss = 0.01
assume_isolated = 'esm'
esm_bc = 'bc1'
input_dft = 'BEEF-VDW'
nosym = .true.
nspin = 1
ntyp = 5
nat = 33
/
&ELECTRONS
electron_maxstep = 200
mixing_beta = 0.1
conv_thr = 1e-06
/
&IONS
ion_dynamics = 'bfgs'
upscale = 1.0
/
&CELL
/

K_POINTS {automatic}
9 6 2 0  0  0

ATOMIC_SPECIES
C 12.01 C.pbe-n-rrkjus_psl.1.0.0.UPF
In 114.8 In.pbe-dn-rrkjus_psl.1.0.0.UPF
Li 6.941 Li.pbe-sl-rrkjus_psl.1.0.0.UPF
Mg 24.30 Mg.pbe-spnl-rrkjus_psl.1.0.0.UPF
Pt 195.0 Pt.pbe-n-rrkjus_psl.1.0.0.UPF


CELL_PARAMETERS {angstrom}
6.50521000 0.00000000 0.00000000
0.00000000 9.19976000 0.00000000
0.00000000 0.00000000 26.89980000

ATOMIC_POSITIONS {angstrom}
Li 1.62630250 0.00000000 -1.1499664499999973 0 0 0
Li 1.62630250 4.59988000 -1.1499664499999973 0 0 0
Li 4.87890750 2.29994000 -3.449899349999999 0 0 0
Li 4.87890750 6.89982000 -3.449899349999999 0 0 0
Li 1.88176210 4.68920967 3.59757925
Li 1.88169704 9.11043033 3.59757925
Li 4.86108322 6.89982000 1.10773376
Li 4.63834483 2.29994000 1.46308012
Mg 0.00000000 2.29994000 -1.1499664499999973 0 0 0
Mg 0.00000000 6.89982000 -1.1499664499999973 0 0 0
Mg 3.25260500 4.59988000 -3.449899349999999 0 0 0
Mg 3.25260500 0.00000000 -3.449899349999999 0 0 0
Mg 6.37913903 6.89982000 3.44102242
Mg 0.28557872 2.29994000 3.44129141
Mg 3.19737577 9.17096475 1.12010767
Mg 3.19737577 4.62867525 1.12010767
In 0.00000000 0.00000000 -3.449899349999999 0 0 0
In 0.00000000 4.59988000 -3.449899349999999 0 0 0
In 3.25260500 6.89982000 -1.1499664499999973 0 0 0
In 3.25260500 2.29994000 -1.1499664499999973 0 0 0
In 6.47983968 4.57531664 1.21802294
In 6.47983968 0.02456336 1.21802294
In 2.80010259 2.29984800 4.90598552
In 3.46148729 6.89982000 3.58816432
Pt 4.87890750 0.00000000 -1.1499664499999973 0 0 0
Pt 4.87890750 4.59988000 -1.1499664499999973 0 0 0
Pt 1.62630250 2.29994000 -3.449899349999999 0 0 0
Pt 1.62630250 6.89982000 -3.449899349999999 0 0 0
Pt 4.65519333 4.28110832 3.34956310
Pt 4.65525838 0.31877168 3.34956310
Pt 1.59507749 6.89982000 1.20941501
Pt 1.63495443 2.29994000 1.06846006
C 4.67887229 2.29994000 3.71889735
