&CONTROL
calculation = 'relax'
prefix = 'scf'
pseudo_dir = '/vol0004/mdt0/data/hp150275/u10028/POT_KKJUS'
outdir = './data'
tprnfor = .true.
nstep = 50
disk_io = 'non'
/
&SYSTEM
ibrav = 0
ecutwfc = 50.0
ecutrho = 400
occupations = 'smearing'
smearing = 'mp'
degauss = 0.01
assume_isolated = 'esm'
esm_bc = 'bc1'
input_dft = 'BEEF-VDW'
nosym = .true.
nspin = 1
ntyp = 2
nat = 32
/
&ELECTRONS
electron_maxstep = 200
mixing_beta = 0.1
conv_thr = 1e-06
/
&IONS
ion_dynamics = 'bfgs'
upscale = 1.0
/
&CELL
/

K_POINTS {automatic}
6 6 1 0 0 0

ATOMIC_SPECIES
Cu 63.54 Cu.pbe-dn-rrkjus_psl.1.0.0.UPF
Pt 195.0 Pt.pbe-n-rrkjus_psl.1.0.0.UPF

CELL_PARAMETERS {angstrom}
7.52549000 0.00000000 0.00000000
-0.00000000 7.52549000 0.00000000
0.00000000 0.00000000 25.64410000

ATOMIC_POSITIONS {angstrom}
Cu 0.00000000 1.88137250 -0.9406255900000033 0 0 0
Cu 1.88137250 0.00000000 -0.9406255900000033 0 0 0
Cu 1.88137250 1.88137250 -2.8221332000000032 0 0 0
Cu 0.00000000 1.88137250 2.82213321
Cu 1.88137250 -0.00000000 2.82213321
Cu 1.88137250 1.88137250 0.94062559
Cu 0.00000000 5.64411750 -0.9406255900000033 0 0 0
Cu 1.88137250 3.76274500 -0.9406255900000033 0 0 0
Cu 1.88137250 5.64411750 -2.8221332000000032 0 0 0
Cu 0.00000000 5.64411750 2.82213321
Cu 1.88137250 3.76274500 2.82213321
Cu 1.88137250 5.64411750 0.94062559
Cu 3.76274500 1.88137250 -0.9406255900000033 0 0 0
Cu 5.64411750 0.00000000 -0.9406255900000033 0 0 0
Cu 5.64411750 1.88137250 -2.8221332000000032 0 0 0
Cu 3.76274500 1.88137250 2.82213321
Cu 5.64411750 -0.00000000 2.82213321
Cu 5.64411750 1.88137250 0.94062559
Cu 3.76274500 5.64411750 -0.9406255900000033 0 0 0
Cu 5.64411750 3.76274500 -0.9406255900000033 0 0 0
Cu 5.64411750 5.64411750 -2.8221332000000032 0 0 0
Cu 3.76274500 5.64411750 2.82213321
Cu 5.64411750 3.76274500 2.82213321
Cu 5.64411750 5.64411750 0.94062559
Pt 0.00000000 0.00000000 -2.8221332000000032 0 0 0
Pt 0.00000000 0.00000000 0.94062559
Pt 0.00000000 3.76274500 -2.8221332000000032 0 0 0
Pt 0.00000000 3.76274500 0.94062559
Pt 3.76274500 0.00000000 -2.8221332000000032 0 0 0
Pt 3.76274500 -0.00000000 0.94062559
Pt 3.76274500 3.76274500 -2.8221332000000032 0 0 0
Pt 3.76274500 3.76274500 0.94062559
