&CONTROL
calculation = 'relax'
prefix = 'scf'
pseudo_dir = '/vol0403/data/hp230205/u10028/POT_HYBRID_KKJUS_GBRV'
outdir = './data'
tprnfor = .true.
nstep = 70
disk_io = 'non'
/
&SYSTEM
ibrav = 0
ecutwfc = 50.0
ecutrho = 400
occupations = 'smearing'
smearing = 'mp'
degauss = 0.01
assume_isolated = 'esm'
esm_bc = 'bc1'
input_dft = 'BEEF-VDW'
nosym = .true.
nspin = 1
ntyp = 5
nat = 33
/
&ELECTRONS
electron_maxstep = 200
mixing_beta = 0.1
conv_thr = 1e-06
/
&IONS
ion_dynamics = 'bfgs'
upscale = 1.0
/
&CELL
/

K_POINTS {automatic}
9 6 2 0  0  0

ATOMIC_SPECIES
Al 26.98 Al.pbe-nl-rrkjus_psl.1.0.0.UPF
C 12.01 C.pbe-n-rrkjus_psl.1.0.0.UPF
Li 6.941 Li.pbe-sl-rrkjus_psl.1.0.0.UPF
Pd 106.4 Pd.pbe-n-rrkjus_psl.1.0.0.UPF
Sn 118.7 Sn.pbe-dn-rrkjus_psl.1.0.0.UPF


CELL_PARAMETERS {angstrom}
6.48942000 0.00000000 0.00000000
-0.00000000 9.17742000 0.00000000
0.00000000 0.00000000 26.88310000

ATOMIC_POSITIONS {angstrom}
Li 4.86706500 0.00000000 -1.1471018799999975 0 0 0
Li 4.86706500 4.58871000 -1.1471018799999975 0 0 0
Li 1.62235500 2.29435500 -3.4415744599999982 0 0 0
Li 1.62235500 6.88306500 -3.4415744599999982 0 0 0
Li 4.82566250 4.72692195 3.95557933
Li 4.82566250 9.03920805 3.95557933
Li 1.53039992 6.88306500 1.11134735
Li 1.27432741 2.29435500 1.52480943
Al 0.00000000 0.00000000 -3.4415744599999982 0 0 0
Al 0.00000000 4.58871000 -3.4415744599999982 0 0 0
Al 3.24471000 6.88306500 -1.1471018799999975 0 0 0
Al 3.24471000 2.29435500 -1.1471018799999975 0 0 0
Al 6.29175227 4.65240129 1.20785768
Al 6.29168737 9.11372871 1.20785768
Al 3.60636538 2.29435500 3.21441227
Al 2.99123325 6.88306500 3.41657318
Sn 0.00000000 2.29435500 -1.1471018799999975 0 0 0
Sn 0.00000000 6.88306500 -1.1471018799999975 0 0 0
Sn 3.24471000 4.58871000 -3.4415744599999982 0 0 0
Sn 3.24471000 0.00000000 -3.4415744599999982 0 0 0
Sn 6.44386427 6.88306500 3.53969778
Sn 6.47773904 2.29435500 4.82040866
Sn 3.22738325 9.15089726 1.22748235
Sn 3.22738325 4.61523274 1.22748235
Pd 1.62235500 0.00000000 -1.1471018799999975 0 0 0
Pd 1.62235500 4.58871000 -1.1471018799999975 0 0 0
Pd 4.86706500 2.29435500 -3.4415744599999982 0 0 0
Pd 4.86706500 6.88306500 -3.4415744599999982 0 0 0
Pd 1.32053208 4.48344499 3.21844473
Pd 1.32053208 0.10526501 3.21871356
Pd 4.82416993 6.88306500 0.98445912
Pd 4.80853043 2.29435500 0.98096432
C 1.74850932 2.29435500 3.61658344
