&CONTROL
calculation = 'relax'
prefix = 'scf'
pseudo_dir = '/vol0004/mdt0/data/hp150275/u10028/POT_KKJUS'
outdir = './data'
tprnfor = .true.
nstep = 50
disk_io = 'non'
/
&SYSTEM
ibrav = 0
ecutwfc = 50.0
ecutrho = 400
occupations = 'smearing'
smearing = 'mp'
degauss = 0.01
assume_isolated = 'esm'
esm_bc = 'bc1'
input_dft = 'BEEF-VDW'
nosym = .true.
nspin = 1
ntyp = 4
nat = 33
/
&ELECTRONS
electron_maxstep = 200
mixing_beta = 0.1
conv_thr = 1e-06
/
&IONS
ion_dynamics = 'bfgs'
upscale = 1.0
/
&CELL
/

K_POINTS {automatic}
8 6 1 0 0 0

ATOMIC_SPECIES
C 12.01 C.pbe-n-rrkjus_psl.1.0.0.UPF
Ga 69.72 Ga.pbe-dnl-rrkjus_psl.1.0.0.UPF
Ni 58.69 Ni.pbe-spn-rrkjus_psl.1.0.0.UPF
Ta 180.9 Ta.pbe-spn-rrkjus_psl.1.0.0.UPF

CELL_PARAMETERS {angstrom}
6.00328000 0.00000000 0.00000000
0.00000000 8.48992000 0.00000000
0.00000000 0.00000000 26.36740000

ATOMIC_POSITIONS {angstrom}
Ta 0.00000000 0.00000000 -3.183599879999999 0 0 0
Ta 3.00164000 2.12248000 -1.0612878499999994 0 0 0
Ta 3.00164000 6.36744000 -1.0612878499999994 0 0 0
Ta 0.00000000 4.24496000 -3.183599879999999 0 0 0
Ta 0.00000000 4.24496000 1.08976464
Ta 3.00164000 6.31505719 3.08814989
Ta 3.00164000 2.17486281 3.08814989
Ta 0.00000000 0.00000000 1.19101546
Ga 0.00000000 6.36744000 -1.0612878499999994 0 0 0
Ga 3.00164000 0.00000000 -3.183599879999999 0 0 0
Ga 0.00000000 2.12248000 -1.0612878499999994 0 0 0
Ga 3.00164000 4.24496000 -3.183599879999999 0 0 0
Ga 0.00000000 2.20101176 3.39902153
Ga 3.00164000 4.24496000 1.01435388
Ga 0.00000000 6.28890824 3.39902153
Ga 3.00164000 0.00000000 1.06207887
Ni 1.50082000 0.00000000 -1.0612878499999994 0 0 0
Ni 4.50246000 4.24496000 -1.0612878499999994 0 0 0
Ni 4.50246000 0.00000000 -1.0612878499999994 0 0 0
Ni 1.50082000 4.24496000 -1.0612878499999994 0 0 0
Ni 4.50246000 6.36744000 -3.183599879999999 0 0 0
Ni 1.50082000 2.12248000 -3.183599879999999 0 0 0
Ni 1.50082000 6.36744000 -3.183599879999999 0 0 0
Ni 4.50246000 2.12248000 -3.183599879999999 0 0 0
Ni 1.52507325 4.24496000 3.12770099
Ni 4.22552869 0.00000000 3.30779033
Ni 4.47820675 4.24496000 3.12770099
Ni 1.77775131 0.00000000 3.30779033
Ni 4.52623299 2.15261922 1.04520374
Ni 1.47710704 6.33738568 1.04520374
Ni 1.47710704 2.15253432 1.04520374
Ni 4.52617296 6.33730078 1.04520374
C 0.00000000 0.00000000 3.39849419
