&CONTROL
calculation = 'relax'
prefix = 'scf'
pseudo_dir = '/vol0403/data/hp230205/u10028/POT_HYBRID_KKJUS_GBRV'
outdir = './data'
tprnfor = .true.
nstep = 50
disk_io = 'non'
/
&SYSTEM
ibrav = 0
ecutwfc = 50.0
ecutrho = 400
occupations = 'smearing'
smearing = 'mp'
degauss = 0.01
assume_isolated = 'esm'
esm_bc = 'bc1'
input_dft = 'BEEF-VDW'
nosym = .true.
nspin = 2
ntyp = 6
nat = 34
starting_magnetization(1) = 0.0
starting_magnetization(2) = 0.0
starting_magnetization(3) = 0.1
starting_magnetization(4) = 0.0
starting_magnetization(5) = 0.0
starting_magnetization(6) = 0.0
/
&ELECTRONS
electron_maxstep = 400
mixing_beta = 0.05
conv_thr = 1e-06
/
&IONS
ion_dynamics = 'bfgs'
upscale = 1.0
/
&CELL
/

K_POINTS {automatic}
6 9 2 0  0  0

ATOMIC_SPECIES
Al 26.98 Al.pbe-nl-rrkjus_psl.1.0.0.UPF
C 12.01 C.pbe-n-rrkjus_psl.1.0.0.UPF
Fe 55.84 fe_pbe_v1.5.uspp.F.UPF
Li 6.941 Li.pbe-sl-rrkjus_psl.1.0.0.UPF
O 15.99 O.pbe-n-rrkjus_psl.1.0.0.UPF
Pd 106.4 Pd.pbe-n-rrkjus_psl.1.0.0.UPF


CELL_PARAMETERS {angstrom}
8.84236000 0.00000000 0.00000000
0.00000000 5.67696000 0.00000000
0.00000000 0.00000000 26.45530000

ATOMIC_POSITIONS {angstrom}
Li 2.25099959 0.00000000 1.00874059
Li 2.21059000 0.00000000 -3.2275466 0 0 0
Li 2.16770455 2.83848000 0.99948123
Li 2.21059000 2.83848000 -3.2275466 0 0 0
Li 6.59136041 0.00000000 1.00874059
Li 6.63177000 0.00000000 -3.2275466 0 0 0
Li 6.67465545 2.83848000 0.99948123
Li 6.63177000 2.83848000 -3.2275466 0 0 0
Al 0.00000000 0.00000000 3.08019058
Al 0.00000000 0.00000000 -1.0759370500000003 0 0 0
Al 0.00000000 2.83848000 2.87013550
Al 0.00000000 2.83848000 -1.0759370500000003 0 0 0
Al 4.42118000 0.00000000 2.90267552
Al 4.42118000 0.00000000 -1.0759370500000003 0 0 0
Al 4.42118000 2.83848000 2.96458092
Al 4.42118000 2.83848000 -1.0759370500000003 0 0 0
Fe 0.00000000 1.31597610 0.97672968
Fe 0.00000000 1.41924000 -3.2275466 0 0 0
Fe 0.00000000 4.36098390 0.97672968
Fe 0.00000000 4.25772000 -3.2275466 0 0 0
Fe 4.42118000 1.45477777 0.93519485
Fe 4.42118000 1.41924000 -3.2275466 0 0 0
Fe 4.42118000 4.22218223 0.93519485
Fe 4.42118000 4.25772000 -3.2275466 0 0 0
Pd 2.23676339 1.42383834 3.07384131
Pd 2.21059000 1.41924000 -1.0759370500000003 0 0 0
Pd 2.23676339 4.25312166 3.07384131
Pd 2.21059000 4.25772000 -1.0759370500000003 0 0 0
Pd 6.60559661 1.42383834 3.07384131
Pd 6.63177000 1.41924000 -1.0759370500000003 0 0 0
Pd 6.60559661 4.25306489 3.07384131
Pd 6.63177000 4.25772000 -1.0759370500000003 0 0 0
C 8.84227158 0.00000000 5.11089941
O 8.84227158 0.00000000 6.26091130
