&CONTROL
calculation = 'relax'
prefix = 'scf'
pseudo_dir = '/vol0004/mdt0/data/hp150275/u10028/POT_HYBRID_KKJUS_GBRV'
outdir = './data'
tprnfor = .true.
nstep = 50
disk_io = 'non'
/
&SYSTEM
ibrav = 0
ecutwfc = 50.0
ecutrho = 400
occupations = 'smearing'
smearing = 'mp'
degauss = 0.01
assume_isolated = 'esm'
esm_bc = 'bc1'
input_dft = 'BEEF-VDW'
nosym = .true.
nspin = 2
ntyp = 5
nat = 18
starting_magnetization(1) = 0.1
starting_magnetization(2) = 0.1
starting_magnetization(3) = 0.1
starting_magnetization(4) = 0.1
starting_magnetization(5) = 0.1
/
&ELECTRONS
electron_maxstep = 200
mixing_beta = 0.1
conv_thr = 1e-06
/
&IONS
ion_dynamics = 'bfgs'
upscale = 1.0
/
&CELL
/

K_POINTS {automatic}
10 10 2 0  0  0

ATOMIC_SPECIES
C 12.01 C.pbe-n-rrkjus_psl.1.0.0.UPF
Co 58.93 co_pbe_v1.2.uspp.F.UPF
Ge 72.64 Ge.pbe-dn-rrkjus_psl.1.0.0.UPF
Li 6.941 Li.pbe-sl-rrkjus_psl.1.0.0.UPF
O 15.99 O.pbe-n-rrkjus_psl.1.0.0.UPF

CELL_PARAMETERS {angstrom}
5.64259000 0.00000000 0.00000000
-0.00000000 5.64259000 0.00000000
0.00000000 0.00000000 24.23190000

ATOMIC_POSITIONS {angstrom}
Li 0.00000000 0.00000000 2.11592951
Li 2.82129500 2.82129500 2.11592951
Li 2.82129500 0.00000000 -0.7053906099999985 0 0 0
Li 0.00000000 2.82129500 -0.7053906099999985 0 0 0
Co 1.41064750 1.41064750 0.70539061
Co 4.23194250 4.23194250 -2.115929510000001 0 0 0
Co 4.23194250 1.41064750 0.70539061
Co 1.41064750 4.23194250 -2.115929510000001 0 0 0
Co 4.23194250 4.23194250 0.70539061
Co 1.41064750 1.41064750 -2.115929510000001 0 0 0
Co 1.41064750 4.23194250 0.70539061
Co 4.23194250 1.41064750 -2.115929510000001 0 0 0
Ge 0.00000000 0.00000000 -0.7053906099999985 0 0 0
Ge 2.82129500 -0.00000000 2.11592951
Ge 0.00000000 2.82129500 2.11592951
Ge 2.82129500 2.82129500 -0.7053906099999985 0 0 0
C 0.00000000 2.82129500 4.01595279
O 0.00000000 2.82129500 5.16599876
