&CONTROL
calculation = 'relax'
prefix = 'scf'
pseudo_dir = '/vol0004/mdt0/data/hp150275/u10028/POT_KKJUS'
outdir = './data'
tprnfor = .true.
nstep = 50
disk_io = 'non'
/
&SYSTEM
ibrav = 0
ecutwfc = 50.0
ecutrho = 400
occupations = 'smearing'
smearing = 'mp'
degauss = 0.01
assume_isolated = 'esm'
esm_bc = 'bc1'
input_dft = 'BEEF-VDW'
nosym = .true.
nspin = 1
ntyp = 3
nat = 17
/
&ELECTRONS
electron_maxstep = 200
mixing_beta = 0.1
conv_thr = 1e-06
/
&IONS
ion_dynamics = 'bfgs'
upscale = 1.0
/
&CELL
/

K_POINTS {automatic}
8 11 2 0  0  0

ATOMIC_SPECIES
C 12.01 C.pbe-n-rrkjus_psl.1.0.0.UPF
In 114.8 In.pbe-dn-rrkjus_psl.1.0.0.UPF
Ni 58.69 Ni.pbe-spn-rrkjus_psl.1.0.0.UPF

CELL_PARAMETERS {angstrom}
7.55564000 0.00000000 0.00000000
0.00000000 5.34265000 0.00000000
0.00000000 0.00000000 24.00700000

ATOMIC_POSITIONS {angstrom}
In 0.00000000 0.00000000 -2.0033841500000023 0 0 0
In 7.55556444 2.67127157 0.40283746
In 3.77782000 0.00000000 -2.0033841500000023 0 0 0
In 3.77812223 2.67153871 1.19818937
Ni 0.00000000 2.67132500 -2.0033841500000023 0 0 0
Ni 1.88891000 4.00698750 -0.667874740000002 0 0 0
Ni 1.88891000 1.33566250 -0.667874740000002 0 0 0
Ni 0.00015111 5.34248972 0.61289871
Ni 1.29526337 1.36761155 2.23121058
Ni 1.29518781 3.97551929 2.23145065
Ni 3.77782000 2.67132500 -2.0033841500000023 0 0 0
Ni 5.66673000 4.00698750 -0.667874740000002 0 0 0
Ni 5.66673000 1.33566250 -0.667874740000002 0 0 0
Ni 3.77819778 0.00016028 0.72909259
Ni 6.25946996 1.36718414 2.23073044
Ni 6.25916773 3.97525216 2.23073044
C 7.55488444 2.67127157 2.75288269
