&CONTROL
calculation = 'relax'
prefix = 'scf'
pseudo_dir = '/vol0004/mdt0/data/hp150275/u10028/POT_KKJUS'
outdir = './data'
tprnfor = .true.
nstep = 50
disk_io = 'non'
/
&SYSTEM
ibrav = 0
ecutwfc = 50.0
ecutrho = 400
occupations = 'smearing'
smearing = 'mp'
degauss = 0.01
assume_isolated = 'esm'
esm_bc = 'bc1'
input_dft = 'BEEF-VDW'
nosym = .true.
nspin = 1
ntyp = 4
nat = 18
/
&ELECTRONS
electron_maxstep = 200
mixing_beta = 0.1
conv_thr = 1e-06
/
&IONS
ion_dynamics = 'bfgs'
upscale = 1.0
/
&CELL
/

K_POINTS {automatic}
8 11 2 0  0  0

ATOMIC_SPECIES
C 12.01 C.pbe-n-rrkjus_psl.1.0.0.UPF
O 15.99 O.pbe-n-rrkjus_psl.1.0.0.UPF
Ti 47.86 Ti.pbe-spn-rrkjus_psl.1.0.0.UPF
Zn 65.40 Zn.pbe-dnl-rrkjus_psl.1.0.0.UPF

CELL_PARAMETERS {angstrom}
7.87849000 0.00000000 0.00000000
0.00000000 5.57094000 0.00000000
0.00000000 0.00000000 24.17820000

ATOMIC_POSITIONS {angstrom}
Ti 0.00000000 0.00000000 -2.0889964799999987 0 0 0
Ti 7.87841122 2.80769805 0.69173830
Ti 3.93924500 0.00000000 -2.0889964799999987 0 0 0
Ti 3.93956014 2.80881224 0.69754107
Zn 0.00000000 2.78547000 -2.0889964799999987 0 0 0
Zn 1.96962250 4.17820500 -0.6963321600000008 0 0 0
Zn 1.96962250 1.39273500 -0.6963321600000008 0 0 0
Zn 0.04341048 0.03570973 0.86171105
Zn 1.97222240 1.49111780 2.16346534
Zn 1.97064670 4.15859529 2.03241949
Zn 3.93924500 2.78547000 -2.0889964799999987 0 0 0
Zn 5.90886750 4.17820500 -0.6963321600000008 0 0 0
Zn 5.90886750 1.39273500 -0.6963321600000008 0 0 0
Zn 3.89717386 0.03626682 0.86316174
Zn 5.90768573 1.44136931 2.05538878
Zn 5.90752816 4.20132440 2.03266127
C 1.96914979 1.08572050 4.17944365
O 1.96970128 1.04249000 5.32524855
