&CONTROL
calculation = 'relax'
prefix = 'scf'
pseudo_dir = '/vol0004/mdt0/data/hp150275/u10028/POT_KKJUS'
outdir = './data'
tprnfor = .true.
nstep = 50
disk_io = 'non'
/
&SYSTEM
ibrav = 0
ecutwfc = 50.0
ecutrho = 400
occupations = 'smearing'
smearing = 'mp'
degauss = 0.01
assume_isolated = 'esm'
esm_bc = 'bc1'
input_dft = 'BEEF-VDW'
nosym = .true.
nspin = 1
ntyp = 4
nat = 33
/
&ELECTRONS
electron_maxstep = 200
mixing_beta = 0.1
conv_thr = 1e-06
/
&IONS
ion_dynamics = 'bfgs'
upscale = 1.0
/
&CELL
/

K_POINTS {automatic}
8 6 1 0 0 0

ATOMIC_SPECIES
C 12.01 C.pbe-n-rrkjus_psl.1.0.0.UPF
In 114.8 In.pbe-dn-rrkjus_psl.1.0.0.UPF
Ni 58.69 Ni.pbe-spn-rrkjus_psl.1.0.0.UPF
Zr 91.22 Zr.pbe-spn-rrkjus_psl.1.0.0.UPF

CELL_PARAMETERS {angstrom}
6.34847000 0.00000000 0.00000000
0.00000000 8.97809000 0.00000000
0.00000000 0.00000000 26.73360000

ATOMIC_POSITIONS {angstrom}
Zr 0.00000000 0.00000000 -3.3668295799999974 0 0 0
Zr 3.17423500 2.24452250 -1.1222765300000006 0 0 0
Zr 3.17423500 6.73356750 -1.1222765300000006 0 0 0
Zr 0.00000000 4.48904500 -3.3668295799999974 0 0 0
Zr 0.00000000 4.48913478 1.13296997
Zr 3.17423500 6.79210465 3.38634511
Zr 3.17423500 2.18607513 3.38661245
Zr 0.00000000 8.97800022 1.15729754
In 0.00000000 6.73356750 -1.1222765300000006 0 0 0
In 3.17423500 0.00000000 -3.3668295799999974 0 0 0
In 0.00000000 2.24452250 -1.1222765300000006 0 0 0
In 3.17423500 4.48904500 -3.3668295799999974 0 0 0
In 0.00000000 2.30018666 3.51386438
In 3.17423500 4.48895522 1.11719714
In 0.00000000 6.67799312 3.51413172
In 3.17423500 0.00000000 1.13484132
Ni 1.58711750 0.00000000 -1.1222765300000006 0 0 0
Ni 4.76135250 4.48904500 -1.1222765300000006 0 0 0
Ni 4.76135250 0.00000000 -1.1222765300000006 0 0 0
Ni 1.58711750 4.48904500 -1.1222765300000006 0 0 0
Ni 4.76135250 6.73356750 -3.3668295799999974 0 0 0
Ni 1.58711750 2.24452250 -3.3668295799999974 0 0 0
Ni 1.58711750 6.73356750 -3.3668295799999974 0 0 0
Ni 4.76135250 2.24452250 -3.3668295799999974 0 0 0
Ni 1.53550444 4.48895522 3.22701286
Ni 5.02932142 0.00008978 3.39890990
Ni 4.81296556 4.48904500 3.22701286
Ni 1.31914858 0.00008978 3.39890990
Ni 4.70243870 2.25987503 1.16451562
Ni 1.64577736 6.71776606 1.16398094
Ni 1.64596782 2.25996481 1.16424828
Ni 4.70269264 6.71776606 1.16398094
C 3.17423500 0.00000000 3.75740748
