&CONTROL
calculation = 'relax'
prefix = 'scf'
pseudo_dir = '/vol0004/mdt0/data/hp150275/u10028/POT_HYBRID_KKJUS_GBRV'
outdir = './data'
tprnfor = .true.
nstep = 50
disk_io = 'non'
/
&SYSTEM
ibrav = 0
ecutwfc = 50.0
ecutrho = 400
occupations = 'smearing'
smearing = 'mp'
degauss = 0.01
assume_isolated = 'esm'
esm_bc = 'bc1'
input_dft = 'BEEF-VDW'
nosym = .true.
nspin = 2
ntyp = 2
nat = 32
starting_magnetization(1) = 0.1
starting_magnetization(2) = 0.1
/
&ELECTRONS
electron_maxstep = 200
mixing_beta = 0.1
conv_thr = 1e-06
/
&IONS
ion_dynamics = 'bfgs'
upscale = 1.0
/
&CELL
/

K_POINTS {automatic}
8 6 1 0 0 0

ATOMIC_SPECIES
Fe 55.84 fe_pbe_v1.5.uspp.F.UPF
Ti 47.86 Ti.pbe-spn-rrkjus_psl.1.0.0.UPF

CELL_PARAMETERS {angstrom}
5.92728000 0.00000000 0.00000000
0.00000000 8.38244000 0.00000000
0.00000000 0.00000000 26.28680000

ATOMIC_POSITIONS {angstrom}
Ti 0.00000000 0.00000000 -3.143375540000001 0 0 0
Ti 0.00000000 2.09561000 -1.0477918499999994 0 0 0
Ti 0.00000000 4.19122000 1.07460438
Ti 0.00000000 2.09561000 3.21671572
Ti 0.00000000 4.19122000 -3.143375540000001 0 0 0
Ti 0.00000000 6.28683000 -1.0477918499999994 0 0 0
Ti 0.00000000 0.00000000 1.07460438
Ti 0.00000000 6.28683000 3.21671572
Ti 2.96364000 0.00000000 -3.143375540000001 0 0 0
Ti 2.96364000 2.09561000 -1.0477918499999994 0 0 0
Ti 2.96364000 4.19122000 1.07460438
Ti 2.96364000 2.09561000 3.21671572
Ti 2.96364000 4.19122000 -3.143375540000001 0 0 0
Ti 2.96364000 6.28683000 -1.0477918499999994 0 0 0
Ti 2.96364000 0.00000000 1.07460438
Ti 2.96364000 6.28683000 3.21671572
Fe 1.48182000 2.09561000 -3.143375540000001 0 0 0
Fe 1.48182000 0.00000000 -1.0477918499999994 0 0 0
Fe 1.48182000 2.09561000 1.08485624
Fe 1.48182000 0.00000000 3.07660707
Fe 1.48182000 6.28683000 -3.143375540000001 0 0 0
Fe 1.48182000 4.19122000 -1.0477918499999994 0 0 0
Fe 1.48182000 6.28683000 1.08485624
Fe 1.48182000 4.19130382 3.07660707
Fe 4.44546000 2.09561000 -3.143375540000001 0 0 0
Fe 4.44546000 0.00000000 -1.0477918499999994 0 0 0
Fe 4.44546000 2.09561000 1.08485624
Fe 4.44546000 0.00000000 3.07660707
Fe 4.44546000 6.28683000 -3.143375540000001 0 0 0
Fe 4.44546000 4.19122000 -1.0477918499999994 0 0 0
Fe 4.44546000 6.28683000 1.08485624
Fe 4.44546000 4.19130382 3.07660707
