&CONTROL
calculation = 'relax'
prefix = 'scf'
pseudo_dir = '/vol0004/mdt0/data/hp150275/u10028/POT_KKJUS'
outdir = './data'
tprnfor = .true.
nstep = 50
disk_io = 'non'
/
&SYSTEM
ibrav = 0
ecutwfc = 50.0
ecutrho = 400
occupations = 'smearing'
smearing = 'mp'
degauss = 0.01
assume_isolated = 'esm'
esm_bc = 'bc1'
input_dft = 'BEEF-VDW'
nosym = .true.
nspin = 1
ntyp = 4
nat = 18
/
&ELECTRONS
electron_maxstep = 200
mixing_beta = 0.1
conv_thr = 1e-06
/
&IONS
ion_dynamics = 'bfgs'
upscale = 1.0
/
&CELL
/

K_POINTS {automatic}
9 9 2 0  0  0

ATOMIC_SPECIES
C 12.01 C.pbe-n-rrkjus_psl.1.0.0.UPF
O 15.99 O.pbe-n-rrkjus_psl.1.0.0.UPF
Rh 102.9 Rh.pbe-spn-rrkjus_psl.1.0.0.UPF
Zr 91.22 Zr.pbe-spn-rrkjus_psl.1.0.0.UPF

CELL_PARAMETERS {angstrom}
6.65024000 0.00000000 0.00000000
-0.00000000 6.65024000 0.00000000
0.00000000 0.00000000 24.98770000

ATOMIC_POSITIONS {angstrom}
Zr 0.00000000 0.00000000 -2.4437970600000014 0 0 0
Zr 0.00000000 0.00000000 0.88131618
Zr 0.00000000 3.32512000 -2.4437970600000014 0 0 0
Zr 0.00000000 3.32512000 0.88131618
Zr 3.32512000 0.00000000 -2.4437970600000014 0 0 0
Zr 3.32512000 -0.00000000 0.88131618
Zr 3.32512000 3.32512000 -2.4437970600000014 0 0 0
Zr 3.32512000 3.32512000 0.88131618
Rh 1.66256000 1.66256000 -0.7813653800000004 0 0 0
Rh 1.66256000 1.66256000 2.54374786
Rh 1.66256000 4.98768000 -0.7813653800000004 0 0 0
Rh 1.66256000 4.98768000 2.54374786
Rh 4.98768000 1.66256000 -0.7813653800000004 0 0 0
Rh 4.98768000 1.66256000 2.54374786
Rh 4.98768000 4.98768000 -0.7813653800000004 0 0 0
Rh 4.98768000 4.98768000 2.54374786
C 1.66256000 1.66256000 4.44381257
O 1.66256000 1.66256000 5.59374652
