&CONTROL
calculation = 'relax'
prefix = 'scf'
pseudo_dir = '/vol0403/data/hp230205/u10028/POT_HYBRID_KKJUS_GBRV'
outdir = './data'
tprnfor = .true.
nstep = 50
disk_io = 'non'
/
&SYSTEM
ibrav = 0
ecutwfc = 50.0
ecutrho = 400
occupations = 'smearing'
smearing = 'mp'
degauss = 0.01
assume_isolated = 'esm'
esm_bc = 'bc1'
input_dft = 'BEEF-VDW'
nosym = .true.
nspin = 1
ntyp = 6
nat = 34
/
&ELECTRONS
electron_maxstep = 200
mixing_beta = 0.1
conv_thr = 1e-06
/
&IONS
ion_dynamics = 'bfgs'
upscale = 1.0
/
&CELL
/

K_POINTS {automatic}
6 6 1 0 0 0

ATOMIC_SPECIES
C 12.01 C.pbe-n-rrkjus_psl.1.0.0.UPF
In 114.8 In.pbe-dn-rrkjus_psl.1.0.0.UPF
Li 6.941 Li.pbe-sl-rrkjus_psl.1.0.0.UPF
O 15.99 O.pbe-n-rrkjus_psl.1.0.0.UPF
Pb 207.2 Pb.pbe-dn-rrkjus_psl.1.0.0.UPF
Y 88.90 Y.pbe-spn-rrkjus_psl.1.0.0.UPF


CELL_PARAMETERS {angstrom}
9.32892000 0.00000000 0.00000000
0.00000000 9.42336000 0.00000000
0.00000000 0.00000000 26.75090000

ATOMIC_POSITIONS {angstrom}
Li 2.33223000 0.00000000 -1.1251428500000031 0 0 0
Li 2.33204342 9.41761175 2.14060702
Li 2.33223000 4.71168000 -1.1251428500000031 0 0 0
Li 2.33195013 4.70988956 3.11246722
Li 6.99669000 0.00000000 -1.1251428500000031 0 0 0
Li 6.99659671 9.42128686 3.06351307
Li 6.99669000 4.71168000 -1.1251428500000031 0 0 0
Li 6.99669000 4.71281080 3.15232606
Y 0.00000000 2.35584000 -1.1251428500000031 0 0 0
Y 0.32623233 1.90285908 3.39415419
Y 0.00000000 7.06752000 -1.1251428500000031 0 0 0
Y 0.34600964 7.53359939 3.40378452
Y 4.66446000 2.35584000 -1.1251428500000031 0 0 0
Y 4.33710820 1.90163405 3.39549174
Y 4.66446000 7.06752000 -1.1251428500000031 0 0 0
Y 4.31798391 7.53454172 3.40485455
In 0.00000000 0.00000000 -3.375428560000003 0 0 0
In 9.19663591 0.00075387 0.93119883
In 0.00000000 4.71168000 -3.375428560000003 0 0 0
In 9.32117700 4.71544934 1.27040024
In 4.66446000 0.00000000 -3.375428560000003 0 0 0
In 4.79721053 0.00056540 0.93093132
In 4.66446000 4.71168000 -3.375428560000003 0 0 0
In 4.67229629 4.71507241 1.27040024
Pb 2.33223000 2.35584000 -3.375428560000003 0 0 0
Pb 2.33204342 2.48720164 1.02616452
Pb 2.33223000 7.06752000 -3.375428560000003 0 0 0
Pb 2.33250987 6.93116398 1.01840676
Pb 6.99669000 2.35584000 -3.375428560000003 0 0 0
Pb 6.99687658 2.39730278 1.27494789
Pb 6.99669000 7.06752000 -3.375428560000003 0 0 0
Pb 6.99678329 7.02860152 1.26959771
C 2.33232329 9.32083384 4.11535846
O 2.33353605 0.04702257 5.36168289
