&CONTROL
calculation = 'relax'
prefix = 'scf'
pseudo_dir = '/vol0004/mdt0/data/hp150275/u10028/POT_KKJUS'
outdir = './data'
tprnfor = .true.
nstep = 50
disk_io = 'non'
/
&SYSTEM
ibrav = 0
ecutwfc = 50.0
ecutrho = 400
occupations = 'smearing'
smearing = 'mp'
degauss = 0.01
assume_isolated = 'esm'
esm_bc = 'bc1'
input_dft = 'BEEF-VDW'
nosym = .true.
nspin = 1
ntyp = 3
nat = 33
/
&ELECTRONS
electron_maxstep = 200
mixing_beta = 0.1
conv_thr = 1e-06
/
&IONS
ion_dynamics = 'bfgs'
upscale = 1.0
/
&CELL
/

K_POINTS {automatic}
8 6 1 0 0 0

ATOMIC_SPECIES
C 12.01 C.pbe-n-rrkjus_psl.1.0.0.UPF
Ni 58.69 Ni.pbe-spn-rrkjus_psl.1.0.0.UPF
Sc 44.95 Sc.pbe-spn-rrkjus_psl.1.0.0.UPF

CELL_PARAMETERS {angstrom}
6.37073000 0.00000000 0.00000000
0.00000000 9.00957000 0.00000000
0.00000000 0.00000000 26.75720000

ATOMIC_POSITIONS {angstrom}
Sc 1.59268250 2.25239250 -3.378631640000002 0 0 0
Sc 1.59268250 0.00000000 -1.1262105499999997 0 0 0
Sc 1.60542396 2.23338231 1.15591104
Sc 1.73666100 0.00045048 3.77811664
Sc 1.59268250 6.75717750 -3.378631640000002 0 0 0
Sc 1.59268250 4.50478500 -1.1262105499999997 0 0 0
Sc 1.60536025 6.77627779 1.15617861
Sc 1.57949509 4.50496519 3.43669477
Sc 4.77804750 2.25239250 -3.378631640000002 0 0 0
Sc 4.77804750 0.00000000 -1.1262105499999997 0 0 0
Sc 4.76549716 2.23329221 1.15617861
Sc 4.63400529 0.00036038 3.77865178
Sc 4.77804750 6.75717750 -3.378631640000002 0 0 0
Sc 4.77804750 4.50478500 -1.1262105499999997 0 0 0
Sc 4.76556087 6.77627779 1.15617861
Sc 4.79129862 4.50487510 3.43669477
Ni 0.00000000 0.00000000 -3.378631640000002 0 0 0
Ni 0.00000000 2.25239250 -1.1262105499999997 0 0 0
Ni 6.37015663 0.00054057 0.87950916
Ni 0.00000000 2.17418943 3.18517709
Ni 0.00000000 4.50478500 -3.378631640000002 0 0 0
Ni 0.00000000 6.75717750 -1.1262105499999997 0 0 0
Ni 6.37060259 4.50478500 1.25357482
Ni 0.00012741 6.83538057 3.18544466
Ni 3.18536500 0.00000000 -3.378631640000002 0 0 0
Ni 3.18536500 2.25239250 -1.1262105499999997 0 0 0
Ni 3.18517388 0.00009010 1.25892626
Ni 3.18536500 2.29230490 3.20604770
Ni 3.18536500 4.50478500 -3.378631640000002 0 0 0
Ni 3.18536500 6.75717750 -1.1262105499999997 0 0 0
Ni 3.18549241 4.50469490 1.22655005
Ni 3.18555612 6.71762549 3.20604770
C 6.37053888 9.00884923 2.70220963
