&CONTROL
calculation = 'relax'
prefix = 'scf'
pseudo_dir = '/vol0004/mdt0/data/hp150275/u10028/POT_KKJUS'
outdir = './data'
tprnfor = .true.
nstep = 50
disk_io = 'non'
/
&SYSTEM
ibrav = 0
ecutwfc = 50.0
ecutrho = 400
occupations = 'smearing'
smearing = 'mp'
degauss = 0.01
assume_isolated = 'esm'
esm_bc = 'bc1'
input_dft = 'BEEF-VDW'
nosym = .true.
nspin = 1
ntyp = 4
nat = 33
/
&ELECTRONS
electron_maxstep = 200
mixing_beta = 0.1
conv_thr = 1e-06
/
&IONS
ion_dynamics = 'bfgs'
upscale = 1.0
/
&CELL
/

K_POINTS {automatic}
8 6 1 0 0 0

ATOMIC_SPECIES
Au 196.9 Au.pbe-n-rrkjus_psl.1.0.0.UPF
C 12.01 C.pbe-n-rrkjus_psl.1.0.0.UPF
Li 6.941 Li.pbe-sl-rrkjus_psl.1.0.0.UPF
Pb 207.2 Pb.pbe-dn-rrkjus_psl.1.0.0.UPF

CELL_PARAMETERS {angstrom}
6.82040000 0.00000000 0.00000000
0.00000000 9.64550000 0.00000000
0.00000000 0.00000000 27.23410000

ATOMIC_POSITIONS {angstrom}
Li 0.00000000 7.23412500 -1.2056536100000024 0 0 0
Li 3.41020000 0.00000000 -3.6169608200000027 0 0 0
Li 0.00000000 2.41137500 -1.2056536100000024 0 0 0
Li 3.41020000 4.82275000 -3.6169608200000027 0 0 0
Li 1.70510000 0.00000000 -1.2056536100000024 0 0 0
Li 1.70510000 4.82275000 -1.2056536100000024 0 0 0
Li 5.11530000 7.23412500 -3.6169608200000027 0 0 0
Li 5.11530000 2.41137500 -3.6169608200000027 0 0 0
Li 6.70445320 2.54236089 3.46608391
Li 3.55602015 4.82275000 0.97470844
Li 6.70438500 7.10313911 3.46608391
Li 3.18724112 0.00000000 1.68225036
Li 2.17127434 4.82275000 3.23813449
Li 1.37356036 0.00000000 3.82502934
Li 4.84848595 2.27026134 1.44041155
Li 4.84841775 7.37533512 1.44041155
Pb 0.00000000 0.00000000 -3.6169608200000027 0 0 0
Pb 3.41020000 2.41137500 -1.2056536100000024 0 0 0
Pb 3.41020000 7.23412500 -1.2056536100000024 0 0 0
Pb 0.00000000 4.82275000 -3.6169608200000027 0 0 0
Pb 0.01691459 4.82275000 1.13348324
Pb 3.29773160 7.35951650 4.33539638
Pb 3.29773160 2.28598350 4.33539638
Pb 0.19499524 0.00000000 1.07847036
Au 1.70510000 2.41137500 -3.6169608200000027 0 0 0
Au 1.70510000 7.23412500 -3.6169608200000027 0 0 0
Au 5.11530000 4.82275000 -1.2056536100000024 0 0 0
Au 5.11530000 0.00000000 -1.2056536100000024 0 0 0
Au 1.98064416 7.10747959 1.53818197
Au 1.98064416 2.53802042 1.53818197
Au 5.41287405 0.00000000 3.37076456
Au 4.99607941 4.82275000 3.33263682
C 3.42008958 0.00000000 4.00205100
