&CONTROL
calculation = 'relax'
prefix = 'scf'
pseudo_dir = '/vol0004/mdt0/data/hp150275/u10028/POT_KKJUS'
outdir = './data'
tprnfor = .true.
nstep = 50
disk_io = 'non'
/
&SYSTEM
ibrav = 0
ecutwfc = 50.0
ecutrho = 400
occupations = 'smearing'
smearing = 'mp'
degauss = 0.01
assume_isolated = 'esm'
esm_bc = 'bc1'
input_dft = 'BEEF-VDW'
nosym = .true.
nspin = 1
ntyp = 3
nat = 33
/
&ELECTRONS
electron_maxstep = 200
mixing_beta = 0.1
conv_thr = 1e-06
/
&IONS
ion_dynamics = 'bfgs'
upscale = 1.0
/
&CELL
/

K_POINTS {automatic}
6 6 1 0 0 0

ATOMIC_SPECIES
C 12.01 C.pbe-n-rrkjus_psl.1.0.0.UPF
K 39.09 K.pbe-spn-rrkjus_psl.1.0.0.UPF
Pd 106.4 Pd.pbe-n-rrkjus_psl.1.0.0.UPF

CELL_PARAMETERS {angstrom}
11.07580000 0.00000000 0.00000000
0.00000000 11.07580000 0.00000000
0.00000000 0.00000000 28.30690000

ATOMIC_POSITIONS {angstrom}
K 0.00000000 2.76895000 -1.3844904800000002 0 0 0
K 2.76895000 0.00000000 -1.3844904800000002 0 0 0
K 2.76895000 2.76895000 -4.153471440000001 0 0 0
K 0.00852837 2.78534218 5.03777899
K 2.78334854 11.07303105 5.08080548
K 2.20076146 2.16542966 1.70718914
K 0.00000000 8.30685000 -1.3844904800000002 0 0 0
K 2.76895000 5.53790000 -1.3844904800000002 0 0 0
K 2.76895000 8.30685000 -4.153471440000001 0 0 0
K 0.00897140 8.29378056 5.05221551
K 2.70858689 5.53269437 3.27001309
K 2.19378371 8.89840848 1.70181083
K 5.53790000 2.76895000 -1.3844904800000002 0 0 0
K 8.30685000 0.00000000 -1.3844904800000002 0 0 0
K 8.30685000 2.76895000 -4.153471440000001 0 0 0
K 5.54133350 2.71434631 3.30341523
K 8.30529939 11.07347408 5.01966258
K 8.89907303 2.18902111 1.69841400
K 5.53790000 8.30685000 -1.3844904800000002 0 0 0
K 8.30685000 5.53790000 -1.3844904800000002 0 0 0
K 8.30685000 8.30685000 -4.153471440000001 0 0 0
K 5.54321638 8.36865296 3.28699723
K 8.35702337 5.53524181 3.31247344
K 8.90339259 8.87304490 1.69699866
Pd 0.00000000 0.00000000 -4.153471440000001 0 0 0
Pd 0.00731003 11.07181271 1.00885792
Pd 0.00000000 5.53790000 -4.153471440000001 0 0 0
Pd 11.05974009 5.51973569 1.23389777
Pd 5.53790000 0.00000000 -4.153471440000001 0 0 0
Pd 5.57057361 0.00731003 1.23446391
Pd 5.53790000 5.53790000 -4.153471440000001 0 0 0
Pd 5.53402347 5.54343790 1.24861736
C 0.03411346 11.05519901 2.91108160
