&CONTROL
calculation = 'relax'
prefix = 'scf'
pseudo_dir = '/vol0403/data/hp230205/u10028/POT_HYBRID_KKJUS_GBRV'
outdir = './data'
tprnfor = .true.
nstep = 50
disk_io = 'non'
/
&SYSTEM
ibrav = 0
ecutwfc = 50.0
ecutrho = 400
occupations = 'smearing'
smearing = 'mp'
degauss = 0.01
assume_isolated = 'esm'
esm_bc = 'bc1'
input_dft = 'BEEF-VDW'
nosym = .true.
nspin = 2
ntyp = 6
nat = 34
starting_magnetization(1) = 0.0
starting_magnetization(2) = 0.0
starting_magnetization(3) = 0.1
starting_magnetization(4) = 0.0
starting_magnetization(5) = 0.0
starting_magnetization(6) = 0.0
/
&ELECTRONS
electron_maxstep = 400
mixing_beta = 0.05
conv_thr = 1e-06
/
&IONS
ion_dynamics = 'bfgs'
upscale = 1.0
/
&CELL
/

K_POINTS {automatic}
6 6 1 0 0 0

ATOMIC_SPECIES
Al 26.98 Al.pbe-nl-rrkjus_psl.1.0.0.UPF
C 12.01 C.pbe-n-rrkjus_psl.1.0.0.UPF
Fe 55.84 fe_pbe_v1.5.uspp.F.UPF
Li 6.941 Li.pbe-sl-rrkjus_psl.1.0.0.UPF
O 15.99 O.pbe-n-rrkjus_psl.1.0.0.UPF
Pd 106.4 Pd.pbe-n-rrkjus_psl.1.0.0.UPF


CELL_PARAMETERS {angstrom}
8.84236000 0.00000000 0.00000000
0.00000000 5.67696000 0.00000000
0.00000000 0.00000000 26.45530000

ATOMIC_POSITIONS {angstrom}
Li 2.21059000 0.00000000 -1.0759370500000003 0 0 0
Li 2.21103212 5.67690323 3.55135947
Li 2.21059000 2.83848000 -1.0759370500000003 0 0 0
Li 2.21076685 2.83859354 3.51194108
Li 6.63177000 0.00000000 -1.0759370500000003 0 0 0
Li 6.63106261 5.67673292 4.04157618
Li 6.63177000 2.83848000 -1.0759370500000003 0 0 0
Li 6.63150473 2.83853677 3.59315885
Al 0.00000000 0.00000000 -3.2275466 0 0 0
Al 0.03024087 0.00000000 0.76191264
Al 0.00000000 2.83848000 -3.2275466 0 0 0
Al 8.83563981 2.83785553 0.94815795
Al 4.42118000 0.00000000 -3.2275466 0 0 0
Al 4.39111598 0.00005677 0.76244175
Al 4.42118000 2.83848000 -3.2275466 0 0 0
Al 4.42781177 2.83910447 0.94815795
Fe 0.00000000 1.41924000 -1.0759370500000003 0 0 0
Fe 8.77082531 1.05983166 2.87674932
Fe 0.00000000 4.25772000 -1.0759370500000003 0 0 0
Fe 8.77082531 4.61622002 2.87648477
Fe 4.42118000 1.41924000 -1.0759370500000003 0 0 0
Fe 4.49236100 1.06091028 2.87622022
Fe 4.42118000 4.25772000 -1.0759370500000003 0 0 0
Fe 4.49227257 4.61587941 2.87648477
Pd 2.21059000 1.41924000 -3.2275466 0 0 0
Pd 2.21076685 1.42559820 1.25001293
Pd 2.21059000 4.25772000 -3.2275466 0 0 0
Pd 2.21032473 4.25141857 1.25001293
Pd 6.63177000 1.41924000 -3.2275466 0 0 0
Pd 6.63150473 1.41185995 1.32170679
Pd 6.63177000 4.25772000 -3.2275466 0 0 0
Pd 6.63177000 4.26515682 1.32170679
C 2.20908680 5.67678969 5.55667121
O 2.20961734 0.00000000 6.70218570
