&CONTROL
calculation = 'relax'
prefix = 'scf'
pseudo_dir = '/vol0004/mdt0/data/hp150275/u10028/POT_KKJUS'
outdir = './data'
tprnfor = .true.
nstep = 50
disk_io = 'non'
/
&SYSTEM
ibrav = 0
ecutwfc = 50.0
ecutrho = 400
occupations = 'smearing'
smearing = 'mp'
degauss = 0.01
assume_isolated = 'esm'
esm_bc = 'bc1'
input_dft = 'BEEF-VDW'
nosym = .true.
nspin = 1
ntyp = 4
nat = 34
/
&ELECTRONS
electron_maxstep = 200
mixing_beta = 0.1
conv_thr = 1e-06
/
&IONS
ion_dynamics = 'bfgs'
upscale = 1.0
/
&CELL
/

K_POINTS {automatic}
9 6 2 0  0  0

ATOMIC_SPECIES
Al 26.98 Al.pbe-nl-rrkjus_psl.1.0.0.UPF
C 12.01 C.pbe-n-rrkjus_psl.1.0.0.UPF
O 15.99 O.pbe-n-rrkjus_psl.1.0.0.UPF
Sc 44.95 Sc.pbe-spn-rrkjus_psl.1.0.0.UPF

CELL_PARAMETERS {angstrom}
6.75388000 0.00000000 0.00000000
0.00000000 9.55143000 0.00000000
0.00000000 0.00000000 27.16360000

ATOMIC_POSITIONS {angstrom}
Sc 1.68847000 2.38785750 -3.5817923 0 0 0
Sc 1.68847000 0.00000000 -1.1938402199999985 0 0 0
Sc 1.68806477 2.37123801 1.13733993
Sc 1.68738938 4.77571500 3.76080042
Sc 1.68847000 7.16357250 -3.5817923 0 0 0
Sc 1.68847000 4.77571500 -1.1938402199999985 0 0 0
Sc 1.68806477 7.18009647 1.13733993
Sc 1.68894277 0.00000000 3.57282831
Sc 5.06541000 2.38785750 -3.5817923 0 0 0
Sc 5.06541000 0.00000000 -1.1938402199999985 0 0 0
Sc 5.06568016 2.42109648 1.13109230
Sc 5.06628800 4.77571500 3.76188696
Sc 5.06541000 7.16357250 -3.5817923 0 0 0
Sc 5.06541000 4.77571500 -1.1938402199999985 0 0 0
Sc 5.06568016 7.13042904 1.13109230
Sc 5.06432938 0.00000000 3.76922114
Al 0.00000000 0.00000000 -3.5817923 0 0 0
Al 0.00000000 2.38785750 -1.1938402199999985 0 0 0
Al 6.68688151 0.00000000 1.26636703
Al 6.74138532 2.41068542 3.53316945
Al 0.00000000 4.77571500 -3.5817923 0 0 0
Al 0.00000000 7.16357250 -1.1938402199999985 0 0 0
Al 0.01762763 4.77571500 1.32667022
Al 6.74138532 7.14074458 3.53316945
Al 3.37694000 0.00000000 -3.5817923 0 0 0
Al 3.37694000 2.38785750 -1.1938402199999985 0 0 0
Al 3.44360080 0.00000000 1.26582376
Al 3.38923206 2.41164056 3.53235454
Al 3.37694000 4.77571500 -3.5817923 0 0 0
Al 3.37694000 7.16357250 -1.1938402199999985 0 0 0
Al 3.35917730 4.77571500 1.32775677
Al 3.38923206 7.13978944 3.53235454
C 1.70555732 0.00000000 5.84886635
O 1.71109550 0.00000000 7.00060299
