&CONTROL
calculation = 'relax'
prefix = 'scf'
pseudo_dir = '/vol0004/mdt0/data/hp150275/u10028/POT_KKJUS'
outdir = './data'
tprnfor = .true.
nstep = 50
disk_io = 'non'
/
&SYSTEM
ibrav = 0
ecutwfc = 50.0
ecutrho = 400
occupations = 'smearing'
smearing = 'mp'
degauss = 0.01
assume_isolated = 'esm'
esm_bc = 'bc1'
input_dft = 'BEEF-VDW'
nosym = .true.
nspin = 1
ntyp = 3
nat = 17
/
&ELECTRONS
electron_maxstep = 200
mixing_beta = 0.1
conv_thr = 1e-06
/
&IONS
ion_dynamics = 'bfgs'
upscale = 1.0
/
&CELL
/

K_POINTS {automatic}
8 11 2 0  0  0

ATOMIC_SPECIES
C 12.01 C.pbe-n-rrkjus_psl.1.0.0.UPF
Nb 92.90 Nb.pbe-spn-rrkjus_psl.1.0.0.UPF
Rh 102.9 Rh.pbe-spn-rrkjus_psl.1.0.0.UPF

CELL_PARAMETERS {angstrom}
7.81819000 0.00000000 0.00000000
0.00000000 5.52830000 0.00000000
0.00000000 0.00000000 24.14620000

ATOMIC_POSITIONS {angstrom}
Nb 0.00000000 0.00000000 -2.073192729999999 0 0 0
Nb 0.00007818 2.76415000 0.59568675
Nb 3.90909500 0.00000000 -2.073192729999999 0 0 0
Nb 3.90901682 2.76415000 0.60534523
Rh 0.00000000 2.76415000 -2.073192729999999 0 0 0
Rh 1.95454750 4.14622500 -0.6910642399999993 0 0 0
Rh 1.95454750 1.38207500 -0.6910642399999993 0 0 0
Rh 0.00007818 0.00000000 0.40300008
Rh 1.54010525 1.36681689 2.10941203
Rh 1.54010525 4.16148311 2.10941203
Rh 3.90909500 2.76415000 -2.073192729999999 0 0 0
Rh 5.86364250 4.14622500 -0.6910642399999993 0 0 0
Rh 5.86364250 1.38207500 -0.6910642399999993 0 0 0
Rh 3.90893864 0.00000000 0.69830810
Rh 6.27816293 1.36681689 2.10941203
Rh 6.27816293 4.16148311 2.10941203
C 0.00000000 0.00000000 2.55104603
