&CONTROL
calculation = 'relax'
prefix = 'scf'
pseudo_dir = '/vol0004/mdt0/data/hp150275/u10028/POT_KKJUS'
outdir = './data'
tprnfor = .true.
nstep = 50
disk_io = 'non'
/
&SYSTEM
ibrav = 0
ecutwfc = 50.0
ecutrho = 400
occupations = 'smearing'
smearing = 'mp'
degauss = 0.01
assume_isolated = 'esm'
esm_bc = 'bc1'
input_dft = 'BEEF-VDW'
nosym = .true.
nspin = 1
ntyp = 5
nat = 34
/
&ELECTRONS
electron_maxstep = 200
mixing_beta = 0.1
conv_thr = 1e-06
/
&IONS
ion_dynamics = 'bfgs'
upscale = 1.0
/
&CELL
/

K_POINTS {automatic}
8 6 1 0 0 0

ATOMIC_SPECIES
Bi 208.9 Bi.pbe-dn-rrkjus_psl.1.0.0.UPF
C 12.01 C.pbe-n-rrkjus_psl.1.0.0.UPF
O 15.99 O.pbe-n-rrkjus_psl.1.0.0.UPF
Pd 106.4 Pd.pbe-n-rrkjus_psl.1.0.0.UPF
Y 88.90 Y.pbe-spn-rrkjus_psl.1.0.0.UPF

CELL_PARAMETERS {angstrom}
6.99655000 0.00000000 0.00000000
0.00000000 9.89462000 0.00000000
0.00000000 0.00000000 27.42100000

ATOMIC_POSITIONS {angstrom}
Y 0.00000000 0.00000000 -3.7106097200000008 0 0 0
Y 3.49827500 2.47365500 -1.236961309999998 0 0 0
Y 3.49827500 7.42096500 -1.236961309999998 0 0 0
Y 0.00000000 4.94731000 -3.7106097200000008 0 0 0
Y 0.01798113 4.94731000 1.29070647
Y 3.52542161 7.41532507 3.67605926
Y 3.52542161 2.47929493 3.67605926
Y 0.01119448 0.00000000 1.26739862
Bi 0.00000000 7.42096500 -1.236961309999998 0 0 0
Bi 3.49827500 0.00000000 -3.7106097200000008 0 0 0
Bi 0.00000000 2.47365500 -1.236961309999998 0 0 0
Bi 3.49827500 4.94731000 -3.7106097200000008 0 0 0
Bi 6.94393594 2.52698700 3.86142522
Bi 3.49204807 4.94731000 1.17800616
Bi 6.94400591 7.36753405 3.86142522
Bi 3.45734518 0.00000000 1.21310504
Pd 1.74913750 0.00000000 -1.236961309999998 0 0 0
Pd 5.24741250 4.94731000 -1.236961309999998 0 0 0
Pd 5.24741250 0.00000000 -1.236961309999998 0 0 0
Pd 1.74913750 4.94731000 -1.236961309999998 0 0 0
Pd 5.24741250 7.42096500 -3.7106097200000008 0 0 0
Pd 1.74913750 2.47365500 -3.7106097200000008 0 0 0
Pd 1.74913750 7.42096500 -3.7106097200000008 0 0 0
Pd 5.24741250 2.47365500 -3.7106097200000008 0 0 0
Pd 1.90844894 4.94731000 3.59928046
Pd 5.23782723 0.00000000 3.49124172
Pd 5.08824099 4.94731000 3.57789208
Pd 1.87164709 0.00000000 3.87732940
Pd 5.32318514 2.48948639 1.32909587
Pd 1.70512920 7.44263422 1.41766570
Pd 1.70512920 2.45198578 1.41766570
Pd 5.32325510 7.40513361 1.32909587
C 2.27170982 9.89452105 5.77458839
O 2.32208498 9.89452105 6.93010933
