&CONTROL
calculation = 'relax'
prefix = 'scf'
pseudo_dir = '/vol0403/data/hp230205/u10028/POT_HYBRID_KKJUS_GBRV'
outdir = './data'
tprnfor = .true.
nstep = 50
disk_io = 'non'
/
&SYSTEM
ibrav = 0
ecutwfc = 50.0
ecutrho = 400
occupations = 'smearing'
smearing = 'mp'
degauss = 0.01
assume_isolated = 'esm'
esm_bc = 'bc1'
input_dft = 'BEEF-VDW'
nosym = .true.
nspin = 1
ntyp = 4
nat = 32
/
&ELECTRONS
electron_maxstep = 200
mixing_beta = 0.1
conv_thr = 1e-06
/
&IONS
ion_dynamics = 'bfgs'
upscale = 1.0
/
&CELL
/

K_POINTS {automatic}
6 10 2 0  0  0

ATOMIC_SPECIES
Ge 72.64 Ge.pbe-dn-rrkjus_psl.1.0.0.UPF
Li 6.941 Li.pbe-sl-rrkjus_psl.1.0.0.UPF
Pd 106.4 Pd.pbe-n-rrkjus_psl.1.0.0.UPF
V 50.94 V.pbe-spnl-rrkjus_psl.1.0.0.UPF


CELL_PARAMETERS {angstrom}
9.40562000 0.00000000 0.00000000
0.00000000 5.68832000 0.00000000
0.00000000 0.00000000 26.48090000

ATOMIC_POSITIONS {angstrom}
Li 2.35140500 1.42208000 -3.240467729999999 0 0 0
Li 2.35140500 1.42208000 1.12040688
Li 2.35140500 4.26624000 -3.240467729999999 0 0 0
Li 2.35112283 4.26624000 1.12040688
Li 7.05421500 1.42208000 -3.240467729999999 0 0 0
Li 7.05421500 1.42208000 1.12040688
Li 7.05421500 4.26624000 -3.240467729999999 0 0 0
Li 7.05449717 4.26624000 1.12040688
V 0.00000000 1.42208000 -1.0801559099999984 0 0 0
V 0.00000000 1.42208000 3.23464193
V 0.00000000 4.26624000 -1.0801559099999984 0 0 0
V 0.00000000 4.26624000 3.23411232
V 4.70281000 1.42208000 -1.0801559099999984 0 0 0
V 4.70281000 1.42208000 3.23490674
V 4.70281000 4.26624000 -1.0801559099999984 0 0 0
V 4.70281000 4.26624000 3.23570117
Ge 0.00000000 0.00000000 -3.240467729999999 0 0 0
Ge 0.00000000 5.68820623 1.10584238
Ge 0.00000000 2.84416000 -3.240467729999999 0 0 0
Ge 0.00000000 2.84427377 1.10584238
Ge 4.70281000 0.00000000 -3.240467729999999 0 0 0
Ge 4.70281000 5.68752364 1.10716643
Ge 4.70281000 2.84416000 -3.240467729999999 0 0 0
Ge 4.70281000 2.84495636 1.10716643
Pd 2.35140500 0.00000000 -1.0801559099999984 0 0 0
Pd 2.35140500 5.68826312 3.27912985
Pd 2.35140500 2.84416000 -1.0801559099999984 0 0 0
Pd 2.35140500 2.84421688 3.27912985
Pd 7.05421500 0.00000000 -1.0801559099999984 0 0 0
Pd 7.05421500 5.68826312 3.27912985
Pd 7.05421500 2.84416000 -1.0801559099999984 0 0 0
Pd 7.05421500 2.84421688 3.27912985
