&CONTROL
calculation = 'relax'
prefix = 'scf'
pseudo_dir = '/vol0004/mdt0/data/hp150275/u10028/POT_KKJUS'
outdir = './data'
tprnfor = .true.
nstep = 50
disk_io = 'non'
/
&SYSTEM
ibrav = 0
ecutwfc = 50.0
ecutrho = 400
occupations = 'smearing'
smearing = 'mp'
degauss = 0.01
assume_isolated = 'esm'
esm_bc = 'bc1'
input_dft = 'BEEF-VDW'
nosym = .true.
nspin = 1
ntyp = 3
nat = 17
/
&ELECTRONS
electron_maxstep = 200
mixing_beta = 0.1
conv_thr = 1e-06
/
&IONS
ion_dynamics = 'bfgs'
upscale = 1.0
/
&CELL
/

K_POINTS {automatic}
6 8 1 0 0 0

ATOMIC_SPECIES
C 12.01 C.pbe-n-rrkjus_psl.1.0.0.UPF
Ca 40.07 Ca.pbe-spn-rrkjus_psl.1.0.0.UPF
Pb 207.2 Pb.pbe-dn-rrkjus_psl.1.0.0.UPF

CELL_PARAMETERS {angstrom}
10.04260000 0.00000000 0.00000000
0.00000000 7.10117000 0.00000000
0.00000000 0.00000000 25.32590000

ATOMIC_POSITIONS {angstrom}
Ca 0.58929977 0.02314981 2.55462353
Ca 0.00000000 3.55058500 -0.8876727899999999 0 0 0
Ca 4.44505561 0.02272374 2.54905184
Ca 5.02130000 3.55058500 -0.8876727899999999 0 0 0
Pb 0.82198681 3.31297985 3.04949162
Pb 2.51165426 5.24329089 0.66353858
Pb 2.51115213 1.95282175 0.58908043
Pb 0.00000000 0.00000000 -0.8876727899999999 0 0 0
Pb 2.51065000 1.77529250 -2.6630183900000013 0 0 0
Pb 2.51065000 5.32587750 -2.6630183900000013 0 0 0
Pb 4.20774897 3.31440009 3.04695903
Pb 7.53225128 5.36649619 0.78560942
Pb 7.53054404 1.83053960 0.96415701
Pb 5.02130000 0.00000000 -0.8876727899999999 0 0 0
Pb 7.53195000 1.77529250 -2.6630183900000013 0 0 0
Pb 7.53195000 5.32587750 -2.6630183900000013 0 0 0
C 2.52049175 1.47711437 2.96490311
