&CONTROL
calculation = 'relax'
prefix = 'scf'
pseudo_dir = '/vol0004/mdt0/data/hp150275/u10028/POT_KKJUS'
outdir = './data'
tprnfor = .true.
nstep = 50
disk_io = 'non'
/
&SYSTEM
ibrav = 0
ecutwfc = 50.0
ecutrho = 400
occupations = 'smearing'
smearing = 'mp'
degauss = 0.01
assume_isolated = 'esm'
esm_bc = 'bc1'
input_dft = 'BEEF-VDW'
nosym = .true.
nspin = 1
ntyp = 4
nat = 18
/
&ELECTRONS
electron_maxstep = 200
mixing_beta = 0.1
conv_thr = 1e-06
/
&IONS
ion_dynamics = 'bfgs'
upscale = 1.0
/
&CELL
/

K_POINTS {automatic}
6 8 1 0 0 0

ATOMIC_SPECIES
C 12.01 C.pbe-n-rrkjus_psl.1.0.0.UPF
O 15.99 O.pbe-n-rrkjus_psl.1.0.0.UPF
Rh 102.9 Rh.pbe-spn-rrkjus_psl.1.0.0.UPF
Ta 180.9 Ta.pbe-spn-rrkjus_psl.1.0.0.UPF

CELL_PARAMETERS {angstrom}
7.79956000 0.00000000 0.00000000
0.00000000 5.51512000 0.00000000
0.00000000 0.00000000 24.13630000

ATOMIC_POSITIONS {angstrom}
Ta 0.00000000 0.00000000 1.81070523
Ta 0.00000000 2.75756000 -0.6893327300000003 0 0 0
Ta 3.89978000 0.00000000 1.75277811
Ta 3.89978000 2.75756000 -0.6893327300000003 0 0 0
Rh 0.00015599 2.75756000 2.19398967
Rh 1.92025167 4.13799454 0.76174163
Rh 1.92025167 1.37712546 0.76174163
Rh 0.00000000 0.00000000 -0.6893327300000003 0 0 0
Rh 1.94989000 1.37878000 -2.0682395499999977 0 0 0
Rh 1.94989000 4.13634000 -2.0682395499999977 0 0 0
Rh 3.89978000 2.75756000 1.93452444
Rh 5.87923033 4.13799454 0.76150027
Rh 5.87930833 1.37712546 0.76150027
Rh 3.89978000 0.00000000 -0.6893327300000003 0 0 0
Rh 5.84967000 1.37878000 -2.0682395499999977 0 0 0
Rh 5.84967000 4.13634000 -2.0682395499999977 0 0 0
C 7.79940401 2.75756000 4.07565562
O 7.79948200 2.75756000 5.23733574
