&CONTROL
calculation = 'relax'
prefix = 'scf'
pseudo_dir = '/vol0004/mdt0/data/hp150275/u10028/POT_KKJUS'
outdir = './data'
tprnfor = .true.
nstep = 50
disk_io = 'non'
/
&SYSTEM
ibrav = 0
ecutwfc = 50.0
ecutrho = 400
occupations = 'smearing'
smearing = 'mp'
degauss = 0.01
assume_isolated = 'esm'
esm_bc = 'bc1'
input_dft = 'BEEF-VDW'
nosym = .true.
nspin = 1
ntyp = 5
nat = 18
/
&ELECTRONS
electron_maxstep = 200
mixing_beta = 0.1
conv_thr = 1e-06
/
&IONS
ion_dynamics = 'bfgs'
upscale = 1.0
/
&CELL
/

K_POINTS {automatic}
9 9 2 0  0  0

ATOMIC_SPECIES
C 12.01 C.pbe-n-rrkjus_psl.1.0.0.UPF
Mg 24.30 Mg.pbe-spnl-rrkjus_psl.1.0.0.UPF
Ni 58.69 Ni.pbe-spn-rrkjus_psl.1.0.0.UPF
O 15.99 O.pbe-n-rrkjus_psl.1.0.0.UPF
Sn 118.7 Sn.pbe-dn-rrkjus_psl.1.0.0.UPF

CELL_PARAMETERS {angstrom}
6.22749000 0.00000000 0.00000000
0.00000000 6.22749000 0.00000000
0.00000000 0.00000000 24.67060000

ATOMIC_POSITIONS {angstrom}
Mg 6.22661815 6.22724090 2.34666747
Mg 3.11343363 3.11405637 2.34790100
Mg 3.11374500 0.00000000 -0.7783574299999998 0 0 0
Mg 0.00000000 3.11374500 -0.7783574299999998 0 0 0
Ni 1.56353591 1.54983544 0.83781358
Ni 4.67061750 4.67061750 -2.335319000000002 0 0 0
Ni 4.66326906 1.54964861 0.83806028
Ni 1.55687250 4.67061750 -2.335319000000002 0 0 0
Ni 4.66358044 4.67777911 0.83658005
Ni 1.55687250 1.55687250 -2.335319000000002 0 0 0
Ni 1.56322454 4.67777911 0.83707346
Ni 4.67061750 1.55687250 -2.335319000000002 0 0 0
Sn 0.00000000 0.00000000 -0.7783574299999998 0 0 0
Sn 3.11324680 6.22686725 2.43301457
Sn 6.22724090 3.11380727 2.39107455
Sn 3.11374500 3.11374500 -0.7783574299999998 0 0 0
C 0.00056047 3.11399410 6.81994066
O 6.22618223 3.10919893 7.95577509
