&CONTROL
calculation = 'relax'
prefix = 'scf'
pseudo_dir = '/vol0004/mdt0/data/hp150275/u10028/POT_HYBRID_KKJUS_GBRV'
outdir = './data'
tprnfor = .true.
nstep = 50
disk_io = 'non'
/
&SYSTEM
ibrav = 0
ecutwfc = 50.0
ecutrho = 400
occupations = 'smearing'
smearing = 'mp'
degauss = 0.01
assume_isolated = 'esm'
esm_bc = 'bc1'
input_dft = 'BEEF-VDW'
nosym = .true.
nspin = 2
ntyp = 4
nat = 34
starting_magnetization(1) = 0.1
starting_magnetization(2) = 0.1
starting_magnetization(3) = 0.1
starting_magnetization(4) = 0.1
/
&ELECTRONS
electron_maxstep = 200
mixing_beta = 0.1
conv_thr = 1e-06
/
&IONS
ion_dynamics = 'bfgs'
upscale = 1.0
/
&CELL
/

K_POINTS {automatic}
8 6 1 0 0 0

ATOMIC_SPECIES
C 12.01 C.pbe-n-rrkjus_psl.1.0.0.UPF
Ca 40.07 Ca.pbe-spn-rrkjus_psl.1.0.0.UPF
Ni 58.69 ni_pbe_v1.4.uspp.F.UPF
O 15.99 O.pbe-n-rrkjus_psl.1.0.0.UPF

CELL_PARAMETERS {angstrom}
6.91175000 0.00000000 0.00000000
0.00000000 9.77469000 0.00000000
0.00000000 0.00000000 27.33100000

ATOMIC_POSITIONS {angstrom}
Ca 0.00000000 0.00000000 -3.665633719999999 0 0 0
Ca 0.00000000 2.44367250 -1.2219690099999987 0 0 0
Ca 6.87753684 0.00000000 1.19299815
Ca 6.89412504 2.46439484 3.74762672
Ca 0.00000000 4.88734500 -3.665633719999999 0 0 0
Ca 0.00000000 7.33101750 -1.2219690099999987 0 0 0
Ca 6.90656619 4.88734500 1.25148649
Ca 6.89412504 7.31029516 3.74762672
Ca 3.45587500 0.00000000 -3.665633719999999 0 0 0
Ca 3.45587500 2.44367250 -1.2219690099999987 0 0 0
Ca 3.49008816 0.00000000 1.19299815
Ca 3.47349996 2.46439484 3.74762672
Ca 3.45587500 4.88734500 -3.665633719999999 0 0 0
Ca 3.45587500 7.33101750 -1.2219690099999987 0 0 0
Ca 3.46105881 4.88734500 1.25148649
Ca 3.47349996 7.31029516 3.74762672
Ni 1.72793750 2.44367250 -3.665633719999999 0 0 0
Ni 1.72793750 0.00000000 -1.2219690099999987 0 0 0
Ni 1.72793750 2.39186664 1.33812576
Ni 1.72793750 0.00000000 3.72876833
Ni 1.72793750 7.33101750 -3.665633719999999 0 0 0
Ni 1.72793750 4.88734500 -1.2219690099999987 0 0 0
Ni 1.72793750 7.38282336 1.33812576
Ni 1.72793750 4.88734500 3.50219434
Ni 5.18381250 2.44367250 -3.665633719999999 0 0 0
Ni 5.18381250 0.00000000 -1.2219690099999987 0 0 0
Ni 5.18381250 2.44367250 1.30095560
Ni 5.18381250 0.00000000 3.45983129
Ni 5.18381250 7.33101750 -3.665633719999999 0 0 0
Ni 5.18381250 4.88734500 -1.2219690099999987 0 0 0
Ni 5.18381250 7.33111525 1.30095560
Ni 5.18381250 4.88724725 3.50574737
C 1.72793750 0.00000000 5.44898147
O 1.72793750 0.00000000 6.61191552
