&CONTROL
calculation = 'relax'
prefix = 'scf'
pseudo_dir = '/vol0004/mdt0/data/hp150275/u10028/POT_HYBRID_KKJUS_GBRV'
outdir = './data'
tprnfor = .true.
nstep = 50
disk_io = 'non'
/
&SYSTEM
ibrav = 0
ecutwfc = 50.0
ecutrho = 400
occupations = 'smearing'
smearing = 'mp'
degauss = 0.01
assume_isolated = 'esm'
esm_bc = 'bc1'
input_dft = 'BEEF-VDW'
nosym = .true.
nspin = 2
ntyp = 3
nat = 32
starting_magnetization(1) = 0.0
starting_magnetization(2) = 0.1
starting_magnetization(3) = 0.1
/
&ELECTRONS
electron_maxstep = 300
mixing_beta = 0.1
conv_thr = 1e-06
/
&IONS
ion_dynamics = 'bfgs'
upscale = 1.0
/
&CELL
/

K_POINTS {automatic}
9 6 2 0  0  0

ATOMIC_SPECIES
Al 26.98 Al.pbe-nl-rrkjus_psl.1.0.0.UPF
Co 58.93 co_pbe_v1.2.uspp.F.UPF
Fe 55.84 fe_pbe_v1.5.uspp.F.UPF

CELL_PARAMETERS {angstrom}
5.71826000 0.00000000 0.00000000
0.00000000 8.08683000 0.00000000
0.00000000 0.00000000 26.06510000

ATOMIC_POSITIONS {angstrom}
Al 0.00000000 0.00000000 -3.0326743799999996 0 0 0
Al 2.85913000 2.02170750 -1.010804580000002 0 0 0
Al 2.85913000 6.06512250 -1.010804580000002 0 0 0
Al 0.00000000 4.04341500 -3.0326743799999996 0 0 0
Al 0.00000000 4.04341500 0.99594747
Al 2.85918718 6.06520337 3.12364158
Al 2.85918718 2.02162663 3.12364158
Al 0.00000000 0.00000000 0.99594747
Fe 0.00000000 6.06512250 -1.010804580000002 0 0 0
Fe 2.85913000 0.00000000 -3.0326743799999996 0 0 0
Fe 0.00000000 2.02170750 -1.010804580000002 0 0 0
Fe 2.85913000 4.04341500 -3.0326743799999996 0 0 0
Fe 0.00005718 2.02195010 2.98836372
Fe 2.85913000 4.04341500 1.02800754
Fe 0.00005718 6.06487990 2.98836372
Fe 2.85913000 0.00000000 1.02800754
Co 1.42956500 0.00000000 -1.010804580000002 0 0 0
Co 4.28869500 4.04341500 -1.010804580000002 0 0 0
Co 4.28869500 0.00000000 -1.010804580000002 0 0 0
Co 1.42956500 4.04341500 -1.010804580000002 0 0 0
Co 4.28869500 6.06512250 -3.0326743799999996 0 0 0
Co 1.42956500 2.02170750 -3.0326743799999996 0 0 0
Co 1.42956500 6.06512250 -3.0326743799999996 0 0 0
Co 4.28869500 2.02170750 -3.0326743799999996 0 0 0
Co 1.43945759 4.04341500 2.97793768
Co 4.27897396 0.00000000 2.97767702
Co 4.27880241 4.04341500 2.97793768
Co 1.43934322 0.00000000 2.97767702
Co 4.28469222 2.02178837 1.02435843
Co 1.43356778 6.06504163 1.02435843
Co 1.43356778 2.02178837 1.02435843
Co 4.28469222 6.06504163 1.02435843
