&CONTROL
calculation = 'relax'
prefix = 'scf'
pseudo_dir = '/vol0004/mdt0/data/hp150275/u10028/POT_HYBRID_KKJUS_GBRV'
outdir = './data'
tprnfor = .true.
nstep = 50
disk_io = 'non'
/
&SYSTEM
ibrav = 0
ecutwfc = 50.0
ecutrho = 400
occupations = 'smearing'
smearing = 'mp'
degauss = 0.01
assume_isolated = 'esm'
esm_bc = 'bc1'
input_dft = 'BEEF-VDW'
nosym = .true.
nspin = 2
ntyp = 4
nat = 18
starting_magnetization(1) = 0.0
starting_magnetization(2) = 0.1
starting_magnetization(3) = 0.01
starting_magnetization(4) = 0.0
/
&ELECTRONS
electron_maxstep = 200
mixing_beta = 0.1
conv_thr = 1e-06
/
&IONS
ion_dynamics = 'bfgs'
upscale = 1.0
/
&CELL
/

K_POINTS {automatic}
10 10 2 0  0  0

ATOMIC_SPECIES
C 12.01 C.pbe-n-rrkjus_psl.1.0.0.UPF
Mn 54.93 mn_pbe_v1.5.uspp.F.UPF
Ni 58.69 ni_pbe_v1.4.uspp.F.UPF
O 15.99 O.pbe-n-rrkjus_psl.1.0.0.UPF

CELL_PARAMETERS {angstrom}
5.61224000 0.00000000 0.00000000
-0.00000000 5.61224000 0.00000000
0.00000000 0.00000000 25.02410000

ATOMIC_POSITIONS {angstrom}
Mn 1.40306000 1.40306000 24.15901686
Mn 1.40306000 1.40306000 2.48439265
Mn 1.40306000 4.20918000 24.15901686
Mn 1.40306000 4.20918000 2.48439265
Mn 4.20918000 1.40306000 24.15901686
Mn 4.20918000 1.40306000 2.48439265
Mn 4.20918000 4.20918000 24.15901686
Mn 4.20918000 4.20918000 2.48439265
Ni 0.00000000 0.00000000 22.48440409
Ni 0.00000000 0.00000000 0.80977988
Ni 0.00000000 2.80612000 22.48440409
Ni 0.00000000 2.80612000 0.80977988
Ni 2.80612000 0.00000000 22.48440409
Ni 2.80612000 -0.00000000 0.80977988
Ni 2.80612000 2.80612000 22.48440409
Ni 2.80612000 2.80612000 0.80977988
C 1.40306000 1.40306000 4.38447256
O 1.40306000 1.40306000 5.53432996
