&CONTROL
calculation = 'relax'
prefix = 'scf'
pseudo_dir = '/vol0403/data/hp230205/u10028/POT_HYBRID_KKJUS_GBRV'
outdir = './data'
tprnfor = .true.
nstep = 50
disk_io = 'non'
/
&SYSTEM
ibrav = 0
ecutwfc = 50.0
ecutrho = 400
occupations = 'smearing'
smearing = 'mp'
degauss = 0.01
assume_isolated = 'esm'
esm_bc = 'bc1'
input_dft = 'BEEF-VDW'
nosym = .true.
nspin = 1
ntyp = 5
nat = 17
/
&ELECTRONS
electron_maxstep = 200
mixing_beta = 0.1
conv_thr = 1e-06
/
&IONS
ion_dynamics = 'bfgs'
upscale = 1.0
/
&CELL
/

K_POINTS {automatic}
6 6 1 0 0 0

ATOMIC_SPECIES
Ag 107.8 Ag.pbe-n-rrkjus_psl.1.0.0.UPF
Al 26.98 Al.pbe-nl-rrkjus_psl.1.0.0.UPF
C 12.01 C.pbe-n-rrkjus_psl.1.0.0.UPF
Ge 72.64 Ge.pbe-dn-rrkjus_psl.1.0.0.UPF
Li 6.941 Li.pbe-sl-rrkjus_psl.1.0.0.UPF


CELL_PARAMETERS {angstrom}
5.75991000 0.00000000 0.00000000
0.00000000 8.02734000 0.00000000
0.00000000 0.00000000 24.29680000

ATOMIC_POSITIONS {angstrom}
Li 1.22974078 2.02417405 0.81491467
Li 3.87376987 2.00683500 -2.1483230600000027 0 0 0
Li 1.23250554 6.08263661 0.78940303
Li 3.87376987 6.02050500 -2.1483230600000027 0 0 0
Al 2.61350156 0.24531551 2.50500008
Al 5.46246825 0.00000000 -0.7160267000000005 0 0 0
Al 2.59121071 4.00219090 2.35751850
Al 5.46246825 4.01367000 -0.7160267000000005 0 0 0
Ag 5.75829723 7.89272151 2.29361792
Ag 2.58251325 0.00000000 -0.7160267000000005 0 0 0
Ag 5.70519085 4.27961577 2.13593169
Ag 2.58251325 4.01367000 -0.7160267000000005 0 0 0
Ge 4.23526182 2.05467795 0.62953009
Ge 0.99381487 2.00683500 -2.1483230600000027 0 0 0
Ge 3.88482890 6.18305864 1.30085067
Ge 0.99381487 6.02050500 -2.1483230600000027 0 0 0
C 3.01514009 2.12050213 2.15148164
