&CONTROL
calculation = 'relax'
prefix = 'scf'
pseudo_dir = '/vol0004/mdt0/data/hp150275/u10028/POT_KKJUS'
outdir = './data'
tprnfor = .true.
nstep = 50
disk_io = 'non'
/
&SYSTEM
ibrav = 0
ecutwfc = 50.0
ecutrho = 400
occupations = 'smearing'
smearing = 'mp'
degauss = 0.01
assume_isolated = 'esm'
esm_bc = 'bc1'
input_dft = 'BEEF-VDW'
nosym = .true.
nspin = 1
ntyp = 4
nat = 33
/
&ELECTRONS
electron_maxstep = 200
mixing_beta = 0.1
conv_thr = 1e-06
/
&IONS
ion_dynamics = 'bfgs'
upscale = 1.0
/
&CELL
/

K_POINTS {automatic}
9 6 2 0  0  0

ATOMIC_SPECIES
C 12.01 C.pbe-n-rrkjus_psl.1.0.0.UPF
Ni 58.69 Ni.pbe-spn-rrkjus_psl.1.0.0.UPF
Sn 118.7 Sn.pbe-dn-rrkjus_psl.1.0.0.UPF
Zr 91.22 Zr.pbe-spn-rrkjus_psl.1.0.0.UPF

CELL_PARAMETERS {angstrom}
6.34847000 0.00000000 0.00000000
0.00000000 8.97809000 0.00000000
0.00000000 0.00000000 26.73360000

ATOMIC_POSITIONS {angstrom}
Zr 0.00000000 0.00000000 -3.3668295799999974 0 0 0
Zr 3.17423500 2.24452250 -1.1222765300000006 0 0 0
Zr 3.17423500 6.73356750 -1.1222765300000006 0 0 0
Zr 0.00000000 4.48904500 -3.3668295799999974 0 0 0
Zr 6.28371561 4.55485440 1.09634494
Zr 3.12573269 6.73338794 3.37057229
Zr 3.40125629 2.24443272 3.19867524
Zr 6.28365212 8.91219082 1.09607760
Ni 1.58711750 0.00000000 -1.1222765300000006 0 0 0
Ni 4.76135250 4.48904500 -1.1222765300000006 0 0 0
Ni 4.76135250 0.00000000 -1.1222765300000006 0 0 0
Ni 1.58711750 4.48904500 -1.1222765300000006 0 0 0
Ni 4.76135250 6.73356750 -3.3668295799999974 0 0 0
Ni 1.58711750 2.24452250 -3.3668295799999974 0 0 0
Ni 1.58711750 6.73356750 -3.3668295799999974 0 0 0
Ni 4.76135250 2.24452250 -3.3668295799999974 0 0 0
Ni 1.19548039 4.18019870 3.29999558
Ni 4.78395305 8.90473900 3.24572638
Ni 4.78408002 4.56221643 3.24599371
Ni 1.19541690 0.30875652 3.29999558
Ni 4.85486546 2.24443272 1.03111495
Ni 1.73040247 6.73347772 1.14419808
Ni 1.22633395 2.24452250 1.47622939
Ni 4.58696003 6.73347772 1.24391441
Sn 0.00000000 6.73356750 -1.1222765300000006 0 0 0
Sn 3.17423500 0.00000000 -3.3668295799999974 0 0 0
Sn 0.00000000 2.24452250 -1.1222765300000006 0 0 0
Sn 3.17423500 4.48904500 -3.3668295799999974 0 0 0
Sn 5.88376200 2.24434294 4.73612458
Sn 3.10249729 4.42682684 1.13216796
Sn 0.06151667 6.73356750 3.51466639
Sn 3.10237032 0.06203860 1.13216796
C 1.33622597 2.24443272 3.52669651
