&CONTROL
calculation = 'relax'
prefix = 'scf'
pseudo_dir = '/vol0403/data/hp230205/u10028/POT_HYBRID_KKJUS_GBRV'
outdir = './data'
tprnfor = .true.
nstep = 50
disk_io = 'non'
/
&SYSTEM
ibrav = 0
ecutwfc = 50.0
ecutrho = 400
occupations = 'smearing'
smearing = 'mp'
degauss = 0.01
assume_isolated = 'esm'
esm_bc = 'bc1'
input_dft = 'BEEF-VDW'
nosym = .true.
nspin = 1
ntyp = 5
nat = 33
/
&ELECTRONS
electron_maxstep = 200
mixing_beta = 0.1
conv_thr = 1e-06
/
&IONS
ion_dynamics = 'bfgs'
upscale = 1.0
/
&CELL
/

K_POINTS {automatic}
6 6 1 0 0 0

ATOMIC_SPECIES
C 12.01 C.pbe-n-rrkjus_psl.1.0.0.UPF
Cu 63.54 Cu.pbe-dn-rrkjus_psl.1.0.0.UPF
In 114.8 In.pbe-dn-rrkjus_psl.1.0.0.UPF
Sn 118.7 Sn.pbe-dn-rrkjus_psl.1.0.0.UPF
Y 88.90 Y.pbe-spn-rrkjus_psl.1.0.0.UPF


CELL_PARAMETERS {angstrom}
8.82850000 0.00000000 0.00000000
0.00000000 8.84740000 0.00000000
0.00000000 0.00000000 26.85960000

ATOMIC_POSITIONS {angstrom}
Y 2.20712500 0.00000000 -1.1431445800000013 0 0 0
Y 2.20712500 8.76945441 3.47563224
Y 2.20712500 4.42370000 -1.1431445800000013 0 0 0
Y 2.20712500 4.50164559 3.47563224
Y 6.62137500 0.00000000 -1.1431445800000013 0 0 0
Y 6.62137500 0.02203003 3.49282238
Y 6.62137500 4.42370000 -1.1431445800000013 0 0 0
Y 6.62137500 4.40166997 3.49282238
In 2.20712500 2.21185000 -3.4297023200000005 0 0 0
In 2.20712500 2.21185000 1.20948779
In 2.20712500 6.63555000 -3.4297023200000005 0 0 0
In 2.20712500 6.63555000 1.15496280
In 6.62137500 2.21185000 -3.4297023200000005 0 0 0
In 6.62137500 2.21185000 1.26454997
In 6.62137500 6.63555000 -3.4297023200000005 0 0 0
In 6.62137500 6.63555000 1.18826870
Cu 0.00000000 0.00000000 -3.4297023200000005 0 0 0
Cu 8.79177344 8.75290977 1.18853730
Cu 0.00000000 4.42370000 -3.4297023200000005 0 0 0
Cu 8.79186173 4.51819023 1.18826870
Cu 4.41425000 0.00000000 -3.4297023200000005 0 0 0
Cu 4.45088827 8.75290977 1.18853730
Cu 4.41425000 4.42370000 -3.4297023200000005 0 0 0
Cu 4.45097656 4.51819023 1.18853730
Sn 0.00000000 2.21185000 -1.1431445800000013 0 0 0
Sn 8.80457476 2.21185000 3.96635713
Sn 0.00000000 6.63555000 -1.1431445800000013 0 0 0
Sn 8.76926077 6.63555000 3.38216083
Sn 4.41425000 2.21185000 -1.1431445800000013 0 0 0
Sn 4.43817524 2.21185000 3.96635713
Sn 4.41425000 6.63555000 -1.1431445800000013 0 0 0
Sn 4.47348923 6.63555000 3.38216083
C 2.20712500 2.21185000 3.54385562
