&CONTROL
calculation = 'relax'
prefix = 'scf'
pseudo_dir = '/vol0004/mdt0/data/hp150275/u10028/POT_KKJUS'
outdir = './data'
tprnfor = .true.
nstep = 50
disk_io = 'non'
/
&SYSTEM
ibrav = 0
ecutwfc = 50.0
ecutrho = 400
occupations = 'smearing'
smearing = 'mp'
degauss = 0.01
assume_isolated = 'esm'
esm_bc = 'bc1'
input_dft = 'BEEF-VDW'
nosym = .true.
nspin = 1
ntyp = 2
nat = 32
/
&ELECTRONS
electron_maxstep = 200
mixing_beta = 0.1
conv_thr = 1e-06
/
&IONS
ion_dynamics = 'bfgs'
upscale = 1.0
/
&CELL
/

K_POINTS {automatic}
9 6 2 0  0  0

ATOMIC_SPECIES
Hf 178.4 Hf.pbe-spn-rrkjus_psl.1.0.0.UPF
Rh 102.9 Rh.pbe-spn-rrkjus_psl.1.0.0.UPF

CELL_PARAMETERS {angstrom}
6.52860000 0.00000000 0.00000000
0.00000000 9.23283000 0.00000000
0.00000000 0.00000000 26.92460000

ATOMIC_POSITIONS {angstrom}
Hf 0.00000000 0.00000000 -3.462234310000003 0 0 0
Hf 0.00000000 2.30820750 -1.1539883600000032 0 0 0
Hf 0.00000000 9.23264534 1.17445105
Hf 0.00000000 2.30820750 3.49723629
Hf 0.00000000 4.61641500 -3.462234310000003 0 0 0
Hf 0.00000000 6.92462250 -1.1539883600000032 0 0 0
Hf 0.00000000 4.61659966 1.17472030
Hf 0.00000000 6.92462250 3.49723629
Hf 3.26430000 0.00000000 -3.462234310000003 0 0 0
Hf 3.26430000 2.30820750 -1.1539883600000032 0 0 0
Hf 3.26430000 9.23264534 1.17445105
Hf 3.26430000 2.30820750 3.49723629
Hf 3.26430000 4.61641500 -3.462234310000003 0 0 0
Hf 3.26430000 6.92462250 -1.1539883600000032 0 0 0
Hf 3.26430000 4.61659966 1.17472030
Hf 3.26430000 6.92462250 3.49723629
Rh 1.63215000 2.30820750 -3.462234310000003 0 0 0
Rh 1.63215000 0.00000000 -1.1539883600000032 0 0 0
Rh 1.63215000 2.30811517 1.18010522
Rh 1.63215000 9.23264534 3.27295438
Rh 1.63215000 6.92462250 -3.462234310000003 0 0 0
Rh 1.63215000 4.61641500 -1.1539883600000032 0 0 0
Rh 1.63215000 6.92471483 1.18010522
Rh 1.63215000 4.61659966 3.27295438
Rh 4.89645000 2.30820750 -3.462234310000003 0 0 0
Rh 4.89645000 0.00000000 -1.1539883600000032 0 0 0
Rh 4.89645000 2.30811517 1.18010522
Rh 4.89645000 9.23264534 3.27295438
Rh 4.89645000 6.92462250 -3.462234310000003 0 0 0
Rh 4.89645000 4.61641500 -1.1539883600000032 0 0 0
Rh 4.89645000 6.92471483 1.18010522
Rh 4.89645000 4.61659966 3.27295438
