&CONTROL
calculation = 'relax'
prefix = 'scf'
pseudo_dir = '/vol0004/mdt0/data/hp150275/u10028/POT_KKJUS'
outdir = './data'
tprnfor = .true.
nstep = 50
disk_io = 'non'
/
&SYSTEM
ibrav = 0
ecutwfc = 50.0
ecutrho = 400
occupations = 'smearing'
smearing = 'mp'
degauss = 0.01
assume_isolated = 'esm'
esm_bc = 'bc1'
input_dft = 'BEEF-VDW'
nosym = .true.
nspin = 1
ntyp = 3
nat = 17
/
&ELECTRONS
electron_maxstep = 200
mixing_beta = 0.1
conv_thr = 1e-06
/
&IONS
ion_dynamics = 'bfgs'
upscale = 1.0
/
&CELL
/

K_POINTS {automatic}
8 11 2 0  0  0

ATOMIC_SPECIES
C 12.01 C.pbe-n-rrkjus_psl.1.0.0.UPF
Pb 207.2 Pb.pbe-dn-rrkjus_psl.1.0.0.UPF
Pt 195.0 Pt.pbe-n-rrkjus_psl.1.0.0.UPF

CELL_PARAMETERS {angstrom}
8.34058000 0.00000000 0.00000000
0.00000000 5.89768000 0.00000000
0.00000000 0.00000000 24.42330000

ATOMIC_POSITIONS {angstrom}
Pt 0.06163689 2.76884281 2.04178788
Pt 2.08514500 4.60337515 1.28906177
Pt 2.08514500 1.29165090 0.58664767
Pt 0.00000000 0.00000000 -0.7370951900000016 0 0 0
Pt 2.08514500 1.47442000 -2.2115298200000026 0 0 0
Pt 2.08514500 4.42326000 -2.2115298200000026 0 0 0
Pt 4.10865311 2.76884281 2.04178788
Pt 6.25543500 4.37820172 0.89682358
Pt 6.25543500 1.34933021 0.82330944
Pt 4.17029000 0.00000000 -0.7370951900000016 0 0 0
Pt 6.25543500 1.47442000 -2.2115298200000026 0 0 0
Pt 6.25543500 4.42326000 -2.2115298200000026 0 0 0
Pb 8.11421666 5.79087302 2.62355089
Pb 0.00000000 2.94884000 -0.7370951900000016 0 0 0
Pb 4.39665334 5.79087302 2.62355089
Pb 4.17029000 2.94884000 -0.7370951900000016 0 0 0
C 2.08514500 2.71959718 1.98268349
