&CONTROL
calculation = 'relax'
prefix = 'scf'
pseudo_dir = '/vol0403/data/hp230205/u10028/POT_HYBRID_KKJUS_GBRV'
outdir = './data'
tprnfor = .true.
nstep = 50
disk_io = 'non'
/
&SYSTEM
ibrav = 0
ecutwfc = 50.0
ecutrho = 400
occupations = 'smearing'
smearing = 'mp'
degauss = 0.01
assume_isolated = 'esm'
esm_bc = 'bc1'
input_dft = 'BEEF-VDW'
nosym = .true.
nspin = 2
ntyp = 6
nat = 18
starting_magnetization(1) = 0.0
starting_magnetization(2) = 0.0
starting_magnetization(3) = 0.0
starting_magnetization(4) = 0.001
starting_magnetization(5) = 0.0
starting_magnetization(6) = 0.0
/
&ELECTRONS
electron_maxstep = 200
mixing_beta = 0.1
conv_thr = 1e-06
/
&IONS
ion_dynamics = 'bfgs'
upscale = 1.0
/
&CELL
/

K_POINTS {automatic}
6 6 1 0 0 0

ATOMIC_SPECIES
Al 26.98 Al.pbe-nl-rrkjus_psl.1.0.0.UPF
C 12.01 C.pbe-n-rrkjus_psl.1.0.0.UPF
Li 6.941 Li.pbe-sl-rrkjus_psl.1.0.0.UPF
Ni 58.69 ni_pbe_v1.4.uspp.F.UPF
O 15.99 O.pbe-n-rrkjus_psl.1.0.0.UPF
Pd 106.4 Pd.pbe-n-rrkjus_psl.1.0.0.UPF


CELL_PARAMETERS {angstrom}
5.91240000 0.00000000 0.00000000
0.00000000 5.91240000 0.00000000
0.00000000 0.00000000 24.43430000

ATOMIC_POSITIONS {angstrom}
Li 0.00000000 2.95620000 -2.2171683800000004 0 0 0
Li 5.88650369 5.88650369 0.80168938
Li 2.98209631 2.98209631 0.80168938
Li 2.95620000 0.00000000 -2.2171683800000004 0 0 0
Al 0.00000000 0.00000000 -2.2171683800000004 0 0 0
Al 5.88342924 2.98511164 0.78434103
Al 2.98517076 5.88348836 0.78434103
Al 2.95620000 2.95620000 -2.2171683800000004 0 0 0
Ni 1.47810000 1.47810000 -0.7391375800000013 0 0 0
Ni 1.47810000 4.43430000 2.09768466
Ni 4.43430000 1.47810000 2.09792900
Ni 4.43430000 4.43430000 -0.7391375800000013 0 0 0
Pd 4.43430000 1.47810000 -0.7391375800000013 0 0 0
Pd 4.43430000 4.43430000 2.26066144
Pd 1.47810000 1.47810000 2.22767513
Pd 1.47810000 4.43430000 -0.7391375800000013 0 0 0
C 1.47810000 1.47810000 4.20245526
O 1.47810000 1.47810000 5.35013433
