&CONTROL
calculation = 'relax'
prefix = 'scf'
pseudo_dir = '/vol0004/mdt0/data/hp150275/u10028/POT_KKJUS'
outdir = './data'
tprnfor = .true.
nstep = 50
disk_io = 'non'
/
&SYSTEM
ibrav = 0
ecutwfc = 50.0
ecutrho = 400
occupations = 'smearing'
smearing = 'mp'
degauss = 0.01
assume_isolated = 'esm'
esm_bc = 'bc1'
input_dft = 'BEEF-VDW'
nosym = .true.
nspin = 1
ntyp = 4
nat = 17
/
&ELECTRONS
electron_maxstep = 200
mixing_beta = 0.1
conv_thr = 1e-06
/
&IONS
ion_dynamics = 'bfgs'
upscale = 1.0
/
&CELL
/

K_POINTS {automatic}
8 8 1 0 0 0

ATOMIC_SPECIES
Ag 107.8 Ag.pbe-n-rrkjus_psl.1.0.0.UPF
C 12.01 C.pbe-n-rrkjus_psl.1.0.0.UPF
In 114.8 In.pbe-dn-rrkjus_psl.1.0.0.UPF
Li 6.941 Li.pbe-sl-rrkjus_psl.1.0.0.UPF

CELL_PARAMETERS {angstrom}
6.67495000 0.00000000 0.00000000
0.00000000 6.67495000 0.00000000
0.00000000 0.00000000 25.00620000

ATOMIC_POSITIONS {angstrom}
Li 6.67488325 0.00006675 0.93073076
Li 3.33747500 0.00000000 -2.5031206200000007 0 0 0
Li 0.00000000 3.33747500 -2.5031206200000007 0 0 0
Li 3.33747500 3.33747500 0.93598207
Li 1.66873750 1.66873750 -0.8344568899999985 0 0 0
Li 1.48223940 4.81938065 3.04575516
Li 5.00621250 5.00621250 -0.8344568899999985 0 0 0
Li 5.19277735 1.85556935 3.04575516
In 0.00000000 0.00000000 -2.5031206200000007 0 0 0
In 3.33747500 3.33747500 -2.5031206200000007 0 0 0
In 3.33747500 0.00000000 1.14928495
In 0.00000000 3.33747500 0.63465736
Ag 1.56981474 1.76839450 2.53887949
Ag 1.66873750 5.00621250 -0.8344568899999985 0 0 0
Ag 5.10513526 4.90655550 2.53887949
Ag 5.00621250 1.66873750 -0.8344568899999985 0 0 0
C 0.00006675 3.33747500 2.86295984
