&CONTROL
calculation = 'relax'
prefix = 'scf'
pseudo_dir = '/vol0004/mdt0/data/hp150275/u10028/POT_HYBRID_KKJUS_GBRV'
outdir = './data'
tprnfor = .true.
nstep = 50
disk_io = 'non'
/
&SYSTEM
ibrav = 0
ecutwfc = 50.0
ecutrho = 400
occupations = 'smearing'
smearing = 'mp'
degauss = 0.01
assume_isolated = 'esm'
esm_bc = 'bc1'
input_dft = 'BEEF-VDW'
nosym = .true.
nspin = 2
ntyp = 4
nat = 33
starting_magnetization(1) = 0.0
starting_magnetization(2) = 0.0
starting_magnetization(3) = 0.001
starting_magnetization(4) = 0.0
/
&ELECTRONS
electron_maxstep = 200
mixing_beta = 0.1
conv_thr = 1e-06
/
&IONS
ion_dynamics = 'bfgs'
upscale = 1.0
/
&CELL
/

K_POINTS {automatic}
9 6 2 0  0  0

ATOMIC_SPECIES
C 12.01 C.pbe-n-rrkjus_psl.1.0.0.UPF
Nb 92.90 Nb.pbe-spn-rrkjus_psl.1.0.0.UPF
Ni 58.69 ni_pbe_v1.4.uspp.F.UPF
Sn 118.7 Sn.pbe-dn-rrkjus_psl.1.0.0.UPF

CELL_PARAMETERS {angstrom}
6.22550000 0.00000000 0.00000000
0.00000000 8.80419000 0.00000000
0.00000000 0.00000000 26.60310000

ATOMIC_POSITIONS {angstrom}
Nb 0.00000000 0.00000000 23.30165529
Nb 3.11275000 2.20104750 25.50252975
Nb 3.11275000 6.60314250 25.50252975
Nb 0.00000000 4.40209500 23.30165529
Nb 6.16262245 4.44646812 1.12584319
Nb 3.04501656 6.59918061 3.19237200
Nb 3.33207436 2.19576499 3.05137557
Nb 6.15969647 8.75629521 1.12557716
Ni 1.55637500 0.00000000 25.50252975
Ni 4.66912500 4.40209500 25.50252975
Ni 4.66912500 0.00000000 25.50252975
Ni 1.55637500 4.40209500 25.50252975
Ni 4.66912500 6.60314250 23.30165529
Ni 1.55637500 2.20104750 23.30165529
Ni 1.55637500 6.60314250 23.30165529
Ni 4.66912500 2.20104750 23.30165529
Ni 1.35080899 4.17353823 3.21578273
Ni 4.61160138 8.70294182 3.18705138
Ni 4.61185040 4.49269012 3.18572122
Ni 1.35541586 0.21033210 3.21072814
Ni 4.77626586 2.20139967 0.98990135
Ni 1.55898971 6.60358271 1.13116381
Ni 1.09332231 2.19690953 1.57570161
Ni 4.64235535 6.59962082 1.21815595
Sn 0.00000000 6.60314250 25.50252975
Sn 3.11275000 0.00000000 23.30165529
Sn 0.00000000 2.20104750 25.50252975
Sn 3.11275000 4.40209500 23.30165529
Sn 5.70772517 2.19611715 4.56562402
Sn 3.04053420 4.35420021 1.06651828
Sn 0.06350010 6.59750782 3.60179371
Sn 3.04283764 0.04446116 1.06492209
C 1.41406007 2.19294765 3.58769407
