&CONTROL
calculation = 'relax'
prefix = 'scf'
pseudo_dir = '/vol0004/mdt0/data/hp150275/u10028/POT_KKJUS'
outdir = './data'
tprnfor = .true.
nstep = 50
disk_io = 'non'
/
&SYSTEM
ibrav = 0
ecutwfc = 50.0
ecutrho = 400
occupations = 'smearing'
smearing = 'mp'
degauss = 0.01
assume_isolated = 'esm'
esm_bc = 'bc1'
input_dft = 'BEEF-VDW'
nosym = .true.
nspin = 1
ntyp = 5
nat = 18
/
&ELECTRONS
electron_maxstep = 200
mixing_beta = 0.1
conv_thr = 1e-06
/
&IONS
ion_dynamics = 'bfgs'
upscale = 1.0
/
&CELL
/

K_POINTS {automatic}
8 8 1 0 0 0

ATOMIC_SPECIES
C 12.01 C.pbe-n-rrkjus_psl.1.0.0.UPF
Ga 69.72 Ga.pbe-dnl-rrkjus_psl.1.0.0.UPF
Li 6.941 Li.pbe-sl-rrkjus_psl.1.0.0.UPF
O 15.99 O.pbe-n-rrkjus_psl.1.0.0.UPF
Pt 195.0 Pt.pbe-n-rrkjus_psl.1.0.0.UPF

CELL_PARAMETERS {angstrom}
6.22326000 0.00000000 0.00000000
0.00000000 6.22326000 0.00000000
0.00000000 0.00000000 24.66740000

ATOMIC_POSITIONS {angstrom}
Li 6.22319777 0.00006223 2.63768508
Li 3.11163000 3.11169223 2.63201158
Li 3.11163000 0.00000000 -0.7780097999999995 0 0 0
Li 0.00000000 3.11163000 -0.7780097999999995 0 0 0
Ga 1.55712188 1.55712188 0.79083684
Ga 4.66744500 4.66744500 -2.3337827100000013 0 0 0
Ga 4.66607588 1.55718412 0.79083684
Ga 1.55581500 4.66744500 -2.3337827100000013 0 0 0
Ga 4.66613812 4.66613812 0.79083684
Ga 1.55581500 1.55581500 -2.3337827100000013 0 0 0
Ga 1.55718412 4.66613812 0.79083684
Ga 4.66744500 1.55581500 -2.3337827100000013 0 0 0
Pt 0.00000000 0.00000000 -0.7780097999999995 0 0 0
Pt 3.11163000 6.22319777 2.01088645
Pt 0.00000000 3.11163000 2.01137980
Pt 3.11163000 3.11163000 -0.7780097999999995 0 0 0
C 6.22313553 0.00006223 4.75809479
O 0.00000000 6.22319777 5.89624862
