&CONTROL
calculation = 'relax'
prefix = 'scf'
pseudo_dir = '/vol0004/mdt0/data/hp150275/u10028/POT_KKJUS'
outdir = './data'
tprnfor = .true.
nstep = 50
disk_io = 'non'
/
&SYSTEM
ibrav = 0
ecutwfc = 50.0
ecutrho = 400
occupations = 'smearing'
smearing = 'mp'
degauss = 0.01
assume_isolated = 'esm'
esm_bc = 'bc1'
input_dft = 'BEEF-VDW'
nosym = .true.
nspin = 1
ntyp = 3
nat = 32
/
&ELECTRONS
electron_maxstep = 200
mixing_beta = 0.1
conv_thr = 1e-06
/
&IONS
ion_dynamics = 'bfgs'
upscale = 1.0
/
&CELL
/

K_POINTS {automatic}
8 6 1 0 0 0

ATOMIC_SPECIES
Cu 63.54 Cu.pbe-dn-rrkjus_psl.1.0.0.UPF
Hf 178.4 Hf.pbe-spn-rrkjus_psl.1.0.0.UPF
In 114.8 In.pbe-dn-rrkjus_psl.1.0.0.UPF

CELL_PARAMETERS {angstrom}
6.35005000 0.00000000 0.00000000
0.00000000 8.98033000 0.00000000
0.00000000 0.00000000 26.73520000

ATOMIC_POSITIONS {angstrom}
Hf 0.00000000 0.00000000 -3.3675657900000004 0 0 0
Hf 3.17502500 2.24508250 -1.1226110499999997 0 0 0
Hf 3.17502500 6.73524750 -1.1226110499999997 0 0 0
Hf 0.00000000 4.49016500 -3.3675657900000004 0 0 0
Hf 0.00000000 4.49016500 1.23062126
Hf 3.17502500 6.73524750 3.36810050
Hf 3.17502500 2.24508250 3.36810050
Hf 0.00000000 0.00000000 1.23062126
In 0.00000000 6.73524750 -1.1226110499999997 0 0 0
In 3.17502500 0.00000000 -3.3675657900000004 0 0 0
In 0.00000000 2.24508250 -1.1226110499999997 0 0 0
In 3.17502500 4.49016500 -3.3675657900000004 0 0 0
In 0.00000000 2.24508250 3.76137529
In 3.17502500 4.49016500 1.12929485
In 0.00000000 6.73524750 3.76137529
In 3.17502500 0.00000000 1.12929485
Cu 1.58751250 0.00000000 -1.1226110499999997 0 0 0
Cu 4.76253750 4.49016500 -1.1226110499999997 0 0 0
Cu 4.76253750 0.00000000 -1.1226110499999997 0 0 0
Cu 1.58751250 4.49016500 -1.1226110499999997 0 0 0
Cu 4.76253750 6.73524750 -3.3675657900000004 0 0 0
Cu 1.58751250 2.24508250 -3.3675657900000004 0 0 0
Cu 1.58751250 6.73524750 -3.3675657900000004 0 0 0
Cu 4.76253750 2.24508250 -3.3675657900000004 0 0 0
Cu 1.69584435 4.49016500 3.50551942
Cu 4.65420565 0.00000000 3.50551942
Cu 4.65420565 4.49016500 3.50551942
Cu 1.69584435 0.00000000 3.50551942
Cu 4.82432349 2.24508250 1.21564954
Cu 1.52579001 6.73524750 1.21564954
Cu 1.52572651 2.24508250 1.21564954
Cu 4.82425999 6.73524750 1.21564954
