&CONTROL
calculation = 'relax'
prefix = 'scf'
pseudo_dir = '/vol0004/mdt0/data/hp150275/u10028/POT_KKJUS'
outdir = './data'
tprnfor = .true.
nstep = 50
disk_io = 'non'
/
&SYSTEM
ibrav = 0
ecutwfc = 50.0
ecutrho = 400
occupations = 'smearing'
smearing = 'mp'
degauss = 0.01
assume_isolated = 'esm'
esm_bc = 'bc1'
input_dft = 'BEEF-VDW'
nosym = .true.
nspin = 1
ntyp = 5
nat = 34
/
&ELECTRONS
electron_maxstep = 200
mixing_beta = 0.1
conv_thr = 1e-06
/
&IONS
ion_dynamics = 'bfgs'
upscale = 1.0
/
&CELL
/

K_POINTS {automatic}
9 6 2 0  0  0

ATOMIC_SPECIES
C 12.01 C.pbe-n-rrkjus_psl.1.0.0.UPF
Cu 63.54 Cu.pbe-dn-rrkjus_psl.1.0.0.UPF
Li 6.941 Li.pbe-sl-rrkjus_psl.1.0.0.UPF
O 15.99 O.pbe-n-rrkjus_psl.1.0.0.UPF
Sn 118.7 Sn.pbe-dn-rrkjus_psl.1.0.0.UPF

CELL_PARAMETERS {angstrom}
6.34973000 0.00000000 0.00000000
0.00000000 8.97987000 0.00000000
0.00000000 0.00000000 26.73490000

ATOMIC_POSITIONS {angstrom}
Li 0.00000000 6.73490250 -1.1225984499999981 0 0 0
Li 3.17486500 0.00000000 -3.367528 0 0 0
Li 0.00000000 2.24496750 -1.1225984499999981 0 0 0
Li 3.17486500 4.48993500 -3.367528 0 0 0
Li 1.58743250 0.00000000 -1.1225984499999981 0 0 0
Li 1.58743250 4.48993500 -1.1225984499999981 0 0 0
Li 4.76229750 6.73490250 -3.367528 0 0 0
Li 4.76229750 2.24496750 -3.367528 0 0 0
Li 6.25988132 2.24496750 3.31405820
Li 3.10247808 4.48598386 1.04640399
Li 6.26712001 6.73490250 3.34212985
Li 3.10247808 0.00395114 1.04640399
Li 1.70312458 4.46874251 3.64156073
Li 1.70312458 0.02119249 3.64156073
Li 4.76464690 2.24496750 1.10602281
Li 4.71905584 6.73490250 1.16403755
Cu 1.58743250 2.24496750 -3.367528 0 0 0
Cu 1.58743250 6.73490250 -3.367528 0 0 0
Cu 4.76229750 4.48993500 -1.1225984499999981 0 0 0
Cu 4.76229750 0.00000000 -1.1225984499999981 0 0 0
Cu 1.64915188 6.73490250 1.17232537
Cu 1.63308706 2.24496750 1.17125597
Cu 4.57459948 8.95328958 3.10124840
Cu 4.57466298 4.51651542 3.10124840
Sn 0.00000000 0.00000000 -3.367528 0 0 0
Sn 3.17486500 2.24496750 -1.1225984499999981 0 0 0
Sn 3.17486500 6.73490250 -1.1225984499999981 0 0 0
Sn 0.00000000 4.48993500 -3.367528 0 0 0
Sn 0.07689523 4.49334735 1.22900335
Sn 3.19067583 6.73490250 3.51804549
Sn 3.24814088 2.24496750 3.41565082
Sn 0.07683173 8.97645765 1.22900335
C 0.02050963 2.24496750 5.36890262
O 0.00723869 2.24496750 6.51369104
