&CONTROL
calculation = 'relax'
prefix = 'scf'
pseudo_dir = '/vol0403/data/hp230205/u10028/POT_HYBRID_KKJUS_GBRV'
outdir = './data'
tprnfor = .true.
nstep = 50
disk_io = 'non'
/
&SYSTEM
ibrav = 0
ecutwfc = 50.0
ecutrho = 400
occupations = 'smearing'
smearing = 'mp'
degauss = 0.01
assume_isolated = 'esm'
esm_bc = 'bc1'
input_dft = 'BEEF-VDW'
nosym = .true.
nspin = 1
ntyp = 5
nat = 17
/
&ELECTRONS
electron_maxstep = 200
mixing_beta = 0.1
conv_thr = 1e-06
/
&IONS
ion_dynamics = 'bfgs'
upscale = 1.0
/
&CELL
/

K_POINTS {automatic}
12 7 2 0  0  0

ATOMIC_SPECIES
C 12.01 C.pbe-n-rrkjus_psl.1.0.0.UPF
Ge 72.64 Ge.pbe-dn-rrkjus_psl.1.0.0.UPF
Li 6.941 Li.pbe-sl-rrkjus_psl.1.0.0.UPF
Pd 106.4 Pd.pbe-n-rrkjus_psl.1.0.0.UPF
V 50.94 V.pbe-spnl-rrkjus_psl.1.0.0.UPF


CELL_PARAMETERS {angstrom}
5.17268000 0.00000000 0.00000000
0.00000000 9.40562000 0.00000000
0.00000000 0.00000000 23.56350000

ATOMIC_POSITIONS {angstrom}
Li 0.62553219 2.35121689 1.09358204
Li 2.34575865 2.35140500 -1.7816362300000002 0 0 0
Li 1.75203844 7.05412094 1.16309436
Li 2.34575865 7.05421500 -1.7816362300000002 0 0 0
V 2.95670389 0.41572840 1.70481923
V 4.15019634 0.00000000 -0.5938002000000004 0 0 0
V 2.95654871 4.28689348 1.70481923
V 4.15019634 4.70281000 -0.5938002000000004 0 0 0
Ge 0.29856709 9.16257878 1.77032576
Ge 1.56385634 0.00000000 -0.5938002000000004 0 0 0
Ge 0.29939472 4.94556905 1.77268211
Ge 1.56385634 4.70281000 -0.5938002000000004 0 0 0
Pd 3.21461371 2.35093472 0.11781750
Pd 4.93209865 2.35140500 -1.7816362300000002 0 0 0
Pd 4.24770136 7.05412094 0.83673989
Pd 4.93209865 7.05421500 -1.7816362300000002 0 0 0
C 2.75564182 2.35159311 2.09715150
