&CONTROL
calculation = 'relax'
prefix = 'scf'
pseudo_dir = '/vol0004/mdt0/data/hp150275/u10028/POT_KKJUS'
outdir = './data'
tprnfor = .true.
nstep = 50
disk_io = 'non'
/
&SYSTEM
ibrav = 0
ecutwfc = 50.0
ecutrho = 400
occupations = 'smearing'
smearing = 'mp'
degauss = 0.01
assume_isolated = 'esm'
esm_bc = 'bc1'
input_dft = 'BEEF-VDW'
nosym = .true.
nspin = 1
ntyp = 2
nat = 32
/
&ELECTRONS
electron_maxstep = 200
mixing_beta = 0.1
conv_thr = 1e-06
/
&IONS
ion_dynamics = 'bfgs'
upscale = 1.0
/
&CELL
/

K_POINTS {automatic}
9 6 2 0  0  0

ATOMIC_SPECIES
Pt 195.0 Pt.pbe-n-rrkjus_psl.1.0.0.UPF
Zr 91.22 Zr.pbe-spn-rrkjus_psl.1.0.0.UPF

CELL_PARAMETERS {angstrom}
6.75388000 0.00000000 0.00000000
0.00000000 9.55143000 0.00000000
0.00000000 0.00000000 27.16360000

ATOMIC_POSITIONS {angstrom}
Zr 1.68847000 2.38785750 -3.5817923 0 0 0
Zr 1.68847000 0.00000000 -1.1938402199999985 0 0 0
Zr 1.68847000 2.38785750 1.11968359
Zr 1.68847000 4.77571500 3.59455919
Zr 1.68847000 7.16357250 -3.5817923 0 0 0
Zr 1.68847000 4.77571500 -1.1938402199999985 0 0 0
Zr 1.68847000 7.16357250 1.11968359
Zr 1.68847000 0.00000000 3.59455919
Zr 5.06541000 2.38785750 -3.5817923 0 0 0
Zr 5.06541000 0.00000000 -1.1938402199999985 0 0 0
Zr 5.06541000 2.38785750 1.11968359
Zr 5.06541000 4.77571500 3.59455919
Zr 5.06541000 7.16357250 -3.5817923 0 0 0
Zr 5.06541000 4.77571500 -1.1938402199999985 0 0 0
Zr 5.06541000 7.16357250 1.11968359
Zr 5.06541000 0.00000000 3.59455919
Pt 0.00000000 0.00000000 -3.5817923 0 0 0
Pt 0.00000000 2.38785750 -1.1938402199999985 0 0 0
Pt 0.00000000 0.00009551 1.39186286
Pt 0.00000000 2.38776199 3.34057953
Pt 0.00000000 4.77571500 -3.5817923 0 0 0
Pt 0.00000000 7.16357250 -1.1938402199999985 0 0 0
Pt 0.00000000 4.77561949 1.39186286
Pt 0.00000000 7.16366801 3.34030789
Pt 3.37694000 0.00000000 -3.5817923 0 0 0
Pt 3.37694000 2.38785750 -1.1938402199999985 0 0 0
Pt 3.37694000 0.00009551 1.39186286
Pt 3.37694000 2.38776199 3.34057953
Pt 3.37694000 4.77571500 -3.5817923 0 0 0
Pt 3.37694000 7.16357250 -1.1938402199999985 0 0 0
Pt 3.37694000 4.77561949 1.39186286
Pt 3.37694000 7.16366801 3.34030789
