&CONTROL
calculation = 'relax'
prefix = 'scf'
pseudo_dir = '/vol0004/mdt0/data/hp150275/u10028/POT_KKJUS'
outdir = './data'
tprnfor = .true.
nstep = 50
disk_io = 'non'
/
&SYSTEM
ibrav = 0
ecutwfc = 50.0
ecutrho = 400
occupations = 'smearing'
smearing = 'mp'
degauss = 0.01
assume_isolated = 'esm'
esm_bc = 'bc1'
input_dft = 'BEEF-VDW'
nosym = .true.
nspin = 1
ntyp = 4
nat = 34
/
&ELECTRONS
electron_maxstep = 200
mixing_beta = 0.1
conv_thr = 1e-06
/
&IONS
ion_dynamics = 'bfgs'
upscale = 1.0
/
&CELL
/

K_POINTS {automatic}
8 6 1 0 0 0

ATOMIC_SPECIES
C 12.01 C.pbe-n-rrkjus_psl.1.0.0.UPF
In 114.8 In.pbe-dn-rrkjus_psl.1.0.0.UPF
Ni 58.69 Ni.pbe-spn-rrkjus_psl.1.0.0.UPF
O 15.99 O.pbe-n-rrkjus_psl.1.0.0.UPF

CELL_PARAMETERS {angstrom}
6.37073000 0.00000000 0.00000000
0.00000000 9.00957000 0.00000000
0.00000000 0.00000000 26.75720000

ATOMIC_POSITIONS {angstrom}
In 0.00000000 0.00000000 -3.378631640000002 0 0 0
In 0.00000000 2.25239250 -1.1262105499999997 0 0 0
In 0.00006371 9.00947990 1.12273211
In 0.00006371 2.25239250 3.57556464
In 0.00000000 4.50478500 -3.378631640000002 0 0 0
In 0.00000000 6.75717750 -1.1262105499999997 0 0 0
In 0.00006371 4.50523548 1.12299968
In 0.00000000 6.75771807 3.60794085
In 3.18536500 0.00000000 -3.378631640000002 0 0 0
In 3.18536500 2.25239250 -1.1262105499999997 0 0 0
In 3.18536500 9.00686713 1.12728084
In 3.18542871 2.25275288 3.60205426
In 3.18536500 4.50478500 -3.378631640000002 0 0 0
In 3.18536500 6.75717750 -1.1262105499999997 0 0 0
In 3.18530129 4.50784825 1.12808355
In 3.18542871 6.75735769 3.59322439
Ni 1.59268250 2.25239250 -3.378631640000002 0 0 0
Ni 1.59268250 0.00000000 -1.1262105499999997 0 0 0
Ni 1.59988142 2.25257269 1.12166182
Ni 1.58905118 0.00162172 3.23146704
Ni 1.59268250 6.75717750 -3.378631640000002 0 0 0
Ni 1.59268250 4.50478500 -1.1262105499999997 0 0 0
Ni 1.59077128 6.75735769 1.13397014
Ni 1.58886006 4.50370385 3.23200219
Ni 4.77804750 2.25239250 -3.378631640000002 0 0 0
Ni 4.77804750 0.00000000 -1.1262105499999997 0 0 0
Ni 4.77091228 2.25257269 1.12166182
Ni 4.78186994 0.00171182 3.23146704
Ni 4.77804750 6.75717750 -3.378631640000002 0 0 0
Ni 4.77804750 4.50478500 -1.1262105499999997 0 0 0
Ni 4.77989501 6.75735769 1.13397014
Ni 4.78193365 4.50370385 3.23200219
C 0.00000000 2.25446470 7.32719165
O 6.37066629 2.25149154 8.46196450
