&CONTROL
calculation = 'relax'
prefix = 'scf'
pseudo_dir = '/vol0004/mdt0/data/hp150275/u10028/POT_KKJUS'
outdir = './data'
tprnfor = .true.
nstep = 50
disk_io = 'non'
/
&SYSTEM
ibrav = 0
ecutwfc = 50.0
ecutrho = 400
occupations = 'smearing'
smearing = 'mp'
degauss = 0.01
assume_isolated = 'esm'
esm_bc = 'bc1'
input_dft = 'BEEF-VDW'
nosym = .true.
nspin = 1
ntyp = 2
nat = 32
/
&ELECTRONS
electron_maxstep = 200
mixing_beta = 0.1
conv_thr = 1e-06
/
&IONS
ion_dynamics = 'bfgs'
upscale = 1.0
/
&CELL
/

K_POINTS {automatic}
9 6 2 0  0  0

ATOMIC_SPECIES
Ru 101.0 Ru.pbe-spn-rrkjus_psl.1.0.0.UPF
V 50.94 V.pbe-spnl-rrkjus_psl.1.0.0.UPF

CELL_PARAMETERS {angstrom}
6.03636000 0.00000000 0.00000000
0.00000000 8.53670000 0.00000000
0.00000000 0.00000000 26.40250000

ATOMIC_POSITIONS {angstrom}
V 1.50909000 2.13417500 -3.2013031199999986 0 0 0
V 1.50909000 0.00000000 -1.0671890499999996 0 0 0
V 1.50909000 2.13417500 1.11365745
V 1.50927109 0.00008537 3.28737528
V 1.50909000 6.40252500 -3.2013031199999986 0 0 0
V 1.50909000 4.26835000 -1.0671890499999996 0 0 0
V 1.50909000 6.40252500 1.11392147
V 1.50933145 4.26826463 3.28711125
V 4.52727000 2.13417500 -3.2013031199999986 0 0 0
V 4.52727000 0.00000000 -1.0671890499999996 0 0 0
V 4.52727000 2.13417500 1.11365745
V 4.52708891 0.00008537 3.28737528
V 4.52727000 6.40252500 -3.2013031199999986 0 0 0
V 4.52727000 4.26835000 -1.0671890499999996 0 0 0
V 4.52727000 6.40252500 1.11392147
V 4.52702855 4.26826463 3.28711125
Ru 0.00000000 0.00000000 -3.2013031199999986 0 0 0
Ru 0.00000000 2.13417500 -1.0671890499999996 0 0 0
Ru 0.00000000 0.00017073 1.09860803
Ru 0.00000000 2.13408963 3.06480220
Ru 0.00000000 4.26835000 -3.2013031199999986 0 0 0
Ru 0.00000000 6.40252500 -1.0671890499999996 0 0 0
Ru 0.00000000 4.26809390 1.09807998
Ru 0.00000000 6.40261037 3.06480220
Ru 3.01818000 0.00000000 -3.2013031199999986 0 0 0
Ru 3.01818000 2.13417500 -1.0671890499999996 0 0 0
Ru 3.01818000 0.00025610 1.09860803
Ru 3.01818000 2.13408963 3.06506622
Ru 3.01818000 4.26835000 -3.2013031199999986 0 0 0
Ru 3.01818000 6.40252500 -1.0671890499999996 0 0 0
Ru 3.01818000 4.26809390 1.09834400
Ru 3.01818000 6.40261037 3.06506622
