&CONTROL
calculation = 'relax'
prefix = 'scf'
pseudo_dir = '/vol0004/mdt0/data/hp150275/u10028/POT_KKJUS'
outdir = './data'
tprnfor = .true.
nstep = 50
disk_io = 'non'
/
&SYSTEM
ibrav = 0
ecutwfc = 50.0
ecutrho = 400
occupations = 'smearing'
smearing = 'mp'
degauss = 0.01
assume_isolated = 'esm'
esm_bc = 'bc1'
input_dft = 'BEEF-VDW'
nosym = .true.
nspin = 1
ntyp = 2
nat = 16
/
&ELECTRONS
electron_maxstep = 200
mixing_beta = 0.1
conv_thr = 1e-06
/
&IONS
ion_dynamics = 'bfgs'
upscale = 1.0
/
&CELL
/

K_POINTS {automatic}
7 11 3 0  0  0

ATOMIC_SPECIES
Ca 40.07 Ca.pbe-spn-rrkjus_psl.1.0.0.UPF
Pb 207.2 Pb.pbe-dn-rrkjus_psl.1.0.0.UPF

CELL_PARAMETERS {angstrom}
10.21910000 0.00000000 0.00000000
0.00000000 7.22598000 0.00000000
0.00000000 0.00000000 25.41950000

ATOMIC_POSITIONS {angstrom}
Ca 0.00000000 3.61299000 -2.7097187 0 0 0
Ca 2.55477500 5.41948500 -0.9031548299999983 0 0 0
Ca 2.55477500 1.80649500 -0.9031548299999983 0 0 0
Ca 0.00000000 0.00000000 0.81520337
Ca 2.55497938 1.86235183 2.80783797
Ca 2.55487719 5.36362817 2.80809216
Ca 5.10955000 3.61299000 -2.7097187 0 0 0
Ca 7.66432500 5.41948500 -0.9031548299999983 0 0 0
Ca 7.66432500 1.80649500 -0.9031548299999983 0 0 0
Ca 5.10995876 0.00007226 0.82028726
Ca 7.66422281 1.86199053 2.80834636
Ca 7.66422281 5.36362817 2.80809216
Pb 0.00000000 0.00000000 -2.7097187 0 0 0
Pb 0.00000000 3.61284548 1.12227093
Pb 5.10955000 0.00000000 -2.7097187 0 0 0
Pb 5.10944781 3.61291774 1.12176254
