&CONTROL
calculation = 'relax'
prefix = 'scf'
pseudo_dir = '/vol0004/mdt0/data/hp150275/u10028/POT_KKJUS'
outdir = './data'
tprnfor = .true.
nstep = 50
disk_io = 'non'
/
&SYSTEM
ibrav = 0
ecutwfc = 50.0
ecutrho = 400
occupations = 'smearing'
smearing = 'mp'
degauss = 0.01
assume_isolated = 'esm'
esm_bc = 'bc1'
input_dft = 'BEEF-VDW'
nosym = .true.
nspin = 1
ntyp = 4
nat = 34
/
&ELECTRONS
electron_maxstep = 200
mixing_beta = 0.1
conv_thr = 1e-06
/
&IONS
ion_dynamics = 'bfgs'
upscale = 1.0
/
&CELL
/

K_POINTS {automatic}
8 6 1 0 0 0

ATOMIC_SPECIES
Au 196.9 Au.pbe-n-rrkjus_psl.1.0.0.UPF
C 12.01 C.pbe-n-rrkjus_psl.1.0.0.UPF
O 15.99 O.pbe-n-rrkjus_psl.1.0.0.UPF
Zn 65.40 Zn.pbe-dnl-rrkjus_psl.1.0.0.UPF

CELL_PARAMETERS {angstrom}
6.43103000 0.00000000 0.00000000
0.00000000 9.09485000 0.00000000
0.00000000 0.00000000 26.82110000

ATOMIC_POSITIONS {angstrom}
Zn 1.60775750 2.27371250 -3.4105710800000004 0 0 0
Zn 1.60775750 0.00000000 -1.1369464300000018 0 0 0
Zn 1.54492634 2.27371250 1.22894280
Zn 1.68782382 4.59335399 3.45375305
Zn 1.60775750 6.82113750 -3.4105710800000004 0 0 0
Zn 1.60775750 4.54742500 -1.1369464300000018 0 0 0
Zn 1.62595731 6.82113750 1.22062826
Zn 1.68782382 9.04892101 3.45375305
Zn 4.82327250 2.27371250 -3.4105710800000004 0 0 0
Zn 4.82327250 0.00000000 -1.1369464300000018 0 0 0
Zn 4.88610366 2.27371250 1.22894280
Zn 4.74320618 4.59335399 3.45375305
Zn 4.82327250 6.82113750 -3.4105710800000004 0 0 0
Zn 4.82327250 4.54742500 -1.1369464300000018 0 0 0
Zn 4.80507269 6.82113750 1.22062826
Zn 4.74320618 9.04892101 3.45375305
Au 0.00000000 0.00000000 -3.4105710800000004 0 0 0
Au 0.00000000 2.27371250 -1.1369464300000018 0 0 0
Au 0.00000000 4.55797503 1.17342313
Au 0.00000000 2.27371250 3.60797437
Au 0.00000000 4.54742500 -3.4105710800000004 0 0 0
Au 0.00000000 6.82113750 -1.1369464300000018 0 0 0
Au 0.00000000 9.08429997 1.17342313
Au 0.00000000 6.82113750 3.48996153
Au 3.21551500 0.00000000 -3.4105710800000004 0 0 0
Au 3.21551500 2.27371250 -1.1369464300000018 0 0 0
Au 3.21551500 4.54305947 1.03341698
Au 3.21551500 2.27371250 3.39501484
Au 3.21551500 4.54742500 -3.4105710800000004 0 0 0
Au 3.21551500 6.82113750 -1.1369464300000018 0 0 0
Au 3.21551500 0.00436553 1.03341698
Au 3.21551500 6.82113750 3.59858699
C 0.00000000 2.27371250 5.73730150
O 0.00000000 2.27371250 6.88014857
