&CONTROL
calculation = 'relax'
prefix = 'scf'
pseudo_dir = '/vol0403/data/hp230205/u10028/POT_HYBRID_KKJUS_GBRV'
outdir = './data'
tprnfor = .true.
nstep = 50
disk_io = 'non'
/
&SYSTEM
ibrav = 0
ecutwfc = 50.0
ecutrho = 400
occupations = 'smearing'
smearing = 'mp'
degauss = 0.01
assume_isolated = 'esm'
esm_bc = 'bc1'
input_dft = 'BEEF-VDW'
nosym = .true.
nspin = 1
ntyp = 5
nat = 33
/
&ELECTRONS
electron_maxstep = 200
mixing_beta = 0.1
conv_thr = 1e-06
/
&IONS
ion_dynamics = 'bfgs'
upscale = 1.0
/
&CELL
/

K_POINTS {automatic}
6 9 2 0  0  0

ATOMIC_SPECIES
C 12.01 C.pbe-n-rrkjus_psl.1.0.0.UPF
Ga 69.72 Ga.pbe-dnl-rrkjus_psl.1.0.0.UPF
Pd 106.4 Pd.pbe-n-rrkjus_psl.1.0.0.UPF
Sc 44.95 Sc.pbe-spn-rrkjus_psl.1.0.0.UPF
Y 88.90 Y.pbe-spn-rrkjus_psl.1.0.0.UPF


CELL_PARAMETERS {angstrom}
9.85606000 0.00000000 0.00000000
0.00000000 7.06732000 0.00000000
0.00000000 0.00000000 27.11150000

ATOMIC_POSITIONS {angstrom}
Y 2.46401500 1.76683000 -3.55567323 0 0 0
Y 2.46401500 1.76683000 1.23303102
Y 2.46401500 5.30049000 -3.55567323 0 0 0
Y 2.46401500 5.30049000 1.11916272
Y 7.39204500 1.76683000 -3.55567323 0 0 0
Y 7.39204500 1.76683000 1.30596095
Y 7.39204500 5.30049000 -3.55567323 0 0 0
Y 7.39204500 5.30049000 1.23601328
Sc 0.00000000 1.76683000 -1.1853147799999988 0 0 0
Sc 0.27281574 1.76683000 3.68309727
Sc 0.00000000 5.30049000 -1.1853147799999988 0 0 0
Sc 0.01557257 5.30049000 3.62263863
Sc 4.92803000 1.76683000 -1.1853147799999988 0 0 0
Sc 4.65521426 1.76683000 3.68309727
Sc 4.92803000 5.30049000 -1.1853147799999988 0 0 0
Sc 4.91245743 5.30049000 3.62290974
Ga 0.00000000 0.00000000 -3.55567323 0 0 0
Ga 9.83684068 0.00134279 1.29132074
Ga 0.00000000 3.53366000 -3.55567323 0 0 0
Ga 9.83693924 3.53238788 1.29132074
Ga 4.92803000 0.00000000 -3.55567323 0 0 0
Ga 4.94715076 0.00127212 1.29132074
Ga 4.92803000 3.53366000 -3.55567323 0 0 0
Ga 4.94715076 3.53238788 1.29132074
Pd 2.46401500 0.00000000 -1.1853147799999988 0 0 0
Pd 2.46401500 6.73105691 3.51310817
Pd 2.46401500 3.53366000 -1.1853147799999988 0 0 0
Pd 2.46401500 3.86992309 3.51283705
Pd 7.39204500 0.00000000 -1.1853147799999988 0 0 0
Pd 7.39194644 7.02816705 3.46810308
Pd 7.39204500 3.53366000 -1.1853147799999988 0 0 0
Pd 7.39204500 3.57281295 3.46810308
C 2.46401500 1.76683000 3.68879069
