&CONTROL
calculation = 'relax'
prefix = 'scf'
pseudo_dir = '/vol0403/data/hp230205/u10028/POT_HYBRID_KKJUS_GBRV'
outdir = './data'
tprnfor = .true.
nstep = 50
disk_io = 'non'
/
&SYSTEM
ibrav = 0
ecutwfc = 50.0
ecutrho = 400
occupations = 'smearing'
smearing = 'mp'
degauss = 0.01
assume_isolated = 'esm'
esm_bc = 'bc1'
input_dft = 'BEEF-VDW'
nosym = .true.
nspin = 1
ntyp = 5
nat = 17
/
&ELECTRONS
electron_maxstep = 200
mixing_beta = 0.1
conv_thr = 1e-06
/
&IONS
ion_dynamics = 'bfgs'
upscale = 1.0
/
&CELL
/

K_POINTS {automatic}
8 8 1 0 0 0

ATOMIC_SPECIES
Al 26.98 Al.pbe-nl-rrkjus_psl.1.0.0.UPF
C 12.01 C.pbe-n-rrkjus_psl.1.0.0.UPF
Li 6.941 Li.pbe-sl-rrkjus_psl.1.0.0.UPF
Pd 106.4 Pd.pbe-n-rrkjus_psl.1.0.0.UPF
Ti 47.86 Ti.pbe-spn-rrkjus_psl.1.0.0.UPF


CELL_PARAMETERS {angstrom}
6.17553000 0.00000000 0.00000000
0.00000000 6.17553000 0.00000000
0.00000000 0.00000000 24.63160000

ATOMIC_POSITIONS {angstrom}
Li 4.62991835 1.54437654 0.85249968
Li 4.63164750 4.63164750 -2.315863029999999 0 0 0
Li 1.54388250 1.54388250 -2.315863029999999 0 0 0
Li 1.54437654 4.62998011 0.85249968
Ti 0.08522231 2.99994896 2.47128843
Ti 0.00000000 0.00000000 -0.7719543399999971 0 0 0
Ti 3.08776500 3.08776500 -0.7719543399999971 0 0 0
Ti 2.99988721 0.08516056 2.47128843
Al 0.08713673 0.08713673 2.41463575
Al 0.00000000 3.08776500 -0.7719543399999971 0 0 0
Al 3.08776500 0.00000000 -0.7719543399999971 0 0 0
Al 2.99686120 2.99692295 2.41217259
Pd 1.54314144 1.54314144 0.59411419
Pd 1.54388250 4.63164750 -2.315863029999999 0 0 0
Pd 4.63164750 1.54388250 -2.315863029999999 0 0 0
Pd 4.63177101 4.63177101 0.84018388
C 1.54147404 1.54147404 2.81711609
