&CONTROL
calculation = 'relax'
prefix = 'scf'
pseudo_dir = '/vol0403/data/hp230205/u10028/POT_HYBRID_KKJUS_GBRV'
outdir = './data'
tprnfor = .true.
nstep = 50
disk_io = 'non'
/
&SYSTEM
ibrav = 0
ecutwfc = 50.0
ecutrho = 400
occupations = 'smearing'
smearing = 'mp'
degauss = 0.01
assume_isolated = 'esm'
esm_bc = 'bc1'
input_dft = 'BEEF-VDW'
nosym = .true.
nspin = 1
ntyp = 6
nat = 18
/
&ELECTRONS
electron_maxstep = 200
mixing_beta = 0.1
conv_thr = 1e-06
/
&IONS
ion_dynamics = 'bfgs'
upscale = 1.0
/
&CELL
/

K_POINTS {automatic}
7 11 2 0  0  0

ATOMIC_SPECIES
C 12.01 C.pbe-n-rrkjus_psl.1.0.0.UPF
Cu 63.54 Cu.pbe-dn-rrkjus_psl.1.0.0.UPF
In 114.8 In.pbe-dn-rrkjus_psl.1.0.0.UPF
O 15.99 O.pbe-n-rrkjus_psl.1.0.0.UPF
Sn 118.7 Sn.pbe-dn-rrkjus_psl.1.0.0.UPF
Y 88.90 Y.pbe-spn-rrkjus_psl.1.0.0.UPF


CELL_PARAMETERS {angstrom}
8.82850000 0.00000000 0.00000000
0.00000000 6.36255000 0.00000000
0.00000000 0.00000000 24.76930000

ATOMIC_POSITIONS {angstrom}
Y 2.23131509 5.02043370 1.07102453
Y 2.20712500 1.43221001 -2.384540510000001 0 0 0
Y 6.59718491 5.02043370 1.07102453
Y 6.62137500 1.43221001 -2.384540510000001 0 0 0
In 2.15671427 1.90806512 0.82357923
In 2.20712500 4.61348500 -2.384540510000001 0 0 0
In 6.67178574 1.90812875 0.82357923
In 6.62137500 4.61348501 -2.384540510000001 0 0 0
Cu 0.00008829 0.51307603 1.96420549
Cu 0.00000000 3.07565667 -0.7948468400000017 0 0 0
Cu 4.41425000 0.57943743 1.83887283
Cu 4.41425000 3.07565667 -0.7948468400000017 0 0 0
Sn 0.00000000 3.23179365 2.40460364
Sn 0.00000000 6.25693167 -0.7948468400000017 0 0 0
Sn 4.41425000 3.17752110 2.45116993
Sn 4.41425000 6.25693167 -0.7948468400000017 0 0 0
C 0.00000000 0.06076235 3.78029057
O 0.00008829 6.36070486 4.93082455
