&CONTROL
calculation = 'relax'
prefix = 'scf'
pseudo_dir = '/vol0403/data/hp230205/u10028/POT_HYBRID_KKJUS_GBRV'
outdir = './data'
tprnfor = .true.
nstep = 50
disk_io = 'non'
/
&SYSTEM
ibrav = 0
ecutwfc = 50.0
ecutrho = 400
occupations = 'smearing'
smearing = 'mp'
degauss = 0.01
assume_isolated = 'esm'
esm_bc = 'bc1'
input_dft = 'BEEF-VDW'
nosym = .true.
nspin = 2
ntyp = 6
nat = 18
starting_magnetization(1) = 0.0
starting_magnetization(2) = 0.0
starting_magnetization(3) = 0.1
starting_magnetization(4) = 0.0
starting_magnetization(5) = 0.0
starting_magnetization(6) = 0.0
/
&ELECTRONS
electron_maxstep = 400
mixing_beta = 0.05
conv_thr = 1e-06
/
&IONS
ion_dynamics = 'bfgs'
upscale = 1.0
/
&CELL
/

K_POINTS {automatic}
9 9 2 0  0  0

ATOMIC_SPECIES
C 12.01 C.pbe-n-rrkjus_psl.1.0.0.UPF
In 114.8 In.pbe-dn-rrkjus_psl.1.0.0.UPF
Mn 54.93 mn_pbe_v1.5.uspp.F.UPF
O 15.99 O.pbe-n-rrkjus_psl.1.0.0.UPF
Pd 106.4 Pd.pbe-n-rrkjus_psl.1.0.0.UPF
Sc 44.95 Sc.pbe-spn-rrkjus_psl.1.0.0.UPF


CELL_PARAMETERS {angstrom}
6.62299000 0.00000000 0.00000000
0.00000000 6.62299000 0.00000000
0.00000000 0.00000000 24.96720000

ATOMIC_POSITIONS {angstrom}
Sc 6.62226147 3.31089893 2.47200247
Sc 0.00000000 0.00000000 24.13928765
Sc 3.31149500 3.31149500 24.13928765
Sc 3.31116385 6.62186409 2.47225214
Mn 4.95426144 1.66806626 0.92278771
Mn 4.96724250 4.96724250 22.48346294
Mn 1.65574750 1.65574750 22.48346294
Mn 1.66886102 4.95333422 0.92228837
In 6.62259262 6.62126802 2.57212094
In 0.00000000 3.31149500 24.13928765
In 3.31149500 0.00000000 24.13928765
In 3.31129631 3.31036909 2.63029452
Pd 1.66720527 1.66720527 0.81368105
Pd 1.65574750 4.96724250 22.48346294
Pd 4.96724250 1.65574750 22.48346294
Pd 4.95465882 4.95439390 0.81293203
C 0.01046432 0.04702323 7.08718939
O 6.62060572 6.61120108 8.22045060
