&CONTROL
calculation = 'relax'
prefix = 'scf'
pseudo_dir = '/vol0004/mdt0/data/hp150275/u10028/POT_KKJUS'
outdir = './data'
tprnfor = .true.
nstep = 50
disk_io = 'non'
/
&SYSTEM
ibrav = 0
ecutwfc = 50.0
ecutrho = 400
occupations = 'smearing'
smearing = 'mp'
degauss = 0.01
assume_isolated = 'esm'
esm_bc = 'bc1'
input_dft = 'BEEF-VDW'
nosym = .true.
nspin = 1
ntyp = 5
nat = 18
/
&ELECTRONS
electron_maxstep = 200
mixing_beta = 0.1
conv_thr = 1e-06
/
&IONS
ion_dynamics = 'bfgs'
upscale = 1.0
/
&CELL
/

K_POINTS {automatic}
8 8 1 0 0 0

ATOMIC_SPECIES
C 12.01 C.pbe-n-rrkjus_psl.1.0.0.UPF
In 114.8 In.pbe-dn-rrkjus_psl.1.0.0.UPF
Ir 192.2 Ir.pbe-n-rrkjus_psl.0.2.3.UPF
Li 6.941 Li.pbe-sl-rrkjus_psl.1.0.0.UPF
O 15.99 O.pbe-n-rrkjus_psl.1.0.0.UPF

CELL_PARAMETERS {angstrom}
6.34973000 0.00000000 0.00000000
0.00000000 6.34973000 0.00000000
0.00000000 0.00000000 24.76230000

ATOMIC_POSITIONS {angstrom}
Li 0.00000000 0.00000000 -0.7936317200000005 0 0 0
Li 3.17486500 0.00000000 2.78080629
Li 0.00000000 3.17486500 2.78080629
Li 3.17486500 3.17486500 -0.7936317200000005 0 0 0
Li 1.63746837 1.63753187 0.91620510
Li 1.58743250 4.76229750 -2.3811427700000003 0 0 0
Li 4.71226163 4.71219813 0.91620510
Li 4.76229750 1.58743250 -2.3811427700000003 0 0 0
In 1.58743250 1.58743250 -2.3811427700000003 0 0 0
In 1.61073601 4.73899399 0.82136549
In 4.76229750 4.76229750 -2.3811427700000003 0 0 0
In 4.73899399 1.61079951 0.82136549
Ir 0.00000000 0.00000000 2.30586538
Ir 3.17486500 3.17486500 2.27912209
Ir 3.17486500 0.00000000 -0.7936317200000005 0 0 0
Ir 0.00000000 3.17486500 -0.7936317200000005 0 0 0
C 0.00000000 0.00000000 4.14743763
O 0.00000000 0.00000000 5.31918966
