&CONTROL
calculation = 'relax'
prefix = 'scf'
pseudo_dir = '/vol0004/mdt0/data/hp150275/u10028/POT_HYBRID_KKJUS_GBRV'
outdir = './data'
tprnfor = .true.
nstep = 50
disk_io = 'non'
/
&SYSTEM
ibrav = 0
ecutwfc = 50.0
ecutrho = 400
occupations = 'smearing'
smearing = 'mp'
degauss = 0.01
assume_isolated = 'esm'
esm_bc = 'bc1'
input_dft = 'BEEF-VDW'
nosym = .true.
nspin = 2
ntyp = 4
nat = 33
starting_magnetization(1) = 0.0
starting_magnetization(2) = 0.0
starting_magnetization(3) = 0.1
starting_magnetization(4) = 0.1
/
&ELECTRONS
electron_maxstep = 200
mixing_beta = 0.1
conv_thr = 1e-06
/
&IONS
ion_dynamics = 'bfgs'
upscale = 1.0
/
&CELL
/

K_POINTS {automatic}
9 6 2 0  0  0

ATOMIC_SPECIES
Al 26.98 Al.pbe-nl-rrkjus_psl.1.0.0.UPF
C 12.01 C.pbe-n-rrkjus_psl.1.0.0.UPF
Co 58.93 co_pbe_v1.2.uspp.F.UPF
Fe 55.84 fe_pbe_v1.5.uspp.F.UPF

CELL_PARAMETERS {angstrom}
5.71826000 0.00000000 0.00000000
0.00000000 8.08683000 0.00000000
0.00000000 0.00000000 26.06510000

ATOMIC_POSITIONS {angstrom}
Al 0.00000000 0.00000000 23.03242562
Al 2.85913000 2.02170750 25.05429542
Al 2.85913000 6.06512250 25.05429542
Al 0.00000000 4.04341500 23.03242562
Al 0.00005718 4.04341500 0.99725073
Al 2.85918718 5.99339232 3.13693479
Al 2.85918718 2.09335681 3.13641348
Al 0.00005718 0.00000000 1.03322056
Fe 0.00000000 6.06512250 25.05429542
Fe 2.85913000 0.00000000 23.03242562
Fe 0.00000000 2.02170750 25.05429542
Fe 2.85913000 4.04341500 23.03242562
Fe 0.00011437 1.99534443 3.06395251
Fe 2.85901563 4.04349587 1.04912028
Fe 0.00011437 6.09156643 3.06395251
Fe 2.85913000 8.08674913 0.94042881
Co 1.42956500 0.00000000 25.05429542
Co 4.28869500 4.04341500 25.05429542
Co 4.28869500 0.00000000 25.05429542
Co 1.42956500 4.04341500 25.05429542
Co 4.28869500 6.06512250 23.03242562
Co 1.42956500 2.02170750 23.03242562
Co 1.42956500 6.06512250 23.03242562
Co 4.28869500 2.02170750 23.03242562
Co 1.38158880 4.04341500 2.98549655
Co 4.10388084 8.08674913 2.96334122
Co 4.33678557 4.04341500 2.98549655
Co 1.61455071 8.08674913 2.96360187
Co 4.28709389 2.01208417 1.03869423
Co 1.43139484 6.07474583 1.03895489
Co 1.43128048 2.01208417 1.03869423
Co 4.28697952 6.07474583 1.03869423
C 0.00005718 0.00008087 3.63738471
