&CONTROL
calculation = 'relax'
prefix = 'scf'
pseudo_dir = '/vol0004/mdt0/data/hp150275/u10028/POT_HYBRID_KKJUS_GBRV'
outdir = './data'
tprnfor = .true.
nstep = 50
disk_io = 'non'
/
&SYSTEM
ibrav = 0
ecutwfc = 50.0
ecutrho = 400
occupations = 'smearing'
smearing = 'mp'
degauss = 0.01
assume_isolated = 'esm'
esm_bc = 'bc1'
input_dft = 'BEEF-VDW'
nosym = .true.
nspin = 2
ntyp = 3
nat = 16
starting_magnetization(1) = 0.1
starting_magnetization(2) = 0.1
starting_magnetization(3) = 0.1
/
&ELECTRONS
electron_maxstep = 200
mixing_beta = 0.1
conv_thr = 1e-06
/
&IONS
ion_dynamics = 'bfgs'
upscale = 1.0
/
&CELL
/

K_POINTS {automatic}
10 10 2 0  0  0

ATOMIC_SPECIES
Al 26.98 Al.pbe-nl-rrkjus_psl.1.0.0.UPF
Co 58.93 co_pbe_v1.2.uspp.F.UPF
Nb 92.90 Nb.pbe-spn-rrkjus_psl.1.0.0.UPF

CELL_PARAMETERS {angstrom}
5.97844000 0.00000000 0.00000000
-0.00000000 5.97844000 0.00000000
0.00000000 0.00000000 24.48380000

ATOMIC_POSITIONS {angstrom}
Nb 0.00000000 0.00000000 2.24198157
Nb 2.98922000 2.98922000 2.24198157
Nb 2.98922000 0.00000000 -0.7472455799999977 0 0 0
Nb 0.00000000 2.98922000 -0.7472455799999977 0 0 0
Al 0.00000000 0.00000000 -0.7472455799999977 0 0 0
Al 2.98922000 -0.00000000 2.24198157
Al 0.00000000 2.98922000 2.24198157
Al 2.98922000 2.98922000 -0.7472455799999977 0 0 0
Co 1.49461000 1.49461000 0.74724558
Co 4.48383000 4.48383000 -2.24198157 0 0 0
Co 4.48383000 1.49461000 0.74724558
Co 1.49461000 4.48383000 -2.24198157 0 0 0
Co 4.48383000 4.48383000 0.74724558
Co 1.49461000 1.49461000 -2.24198157 0 0 0
Co 1.49461000 4.48383000 0.74724558
Co 4.48383000 1.49461000 -2.24198157 0 0 0
