&CONTROL
calculation = 'relax'
prefix = 'scf'
pseudo_dir = '/vol0004/mdt0/data/hp150275/u10028/POT_HYBRID_KKJUS_GBRV'
outdir = './data'
tprnfor = .true.
nstep = 50
disk_io = 'non'
/
&SYSTEM
ibrav = 0
ecutwfc = 50.0
ecutrho = 400
occupations = 'smearing'
smearing = 'mp'
degauss = 0.01
assume_isolated = 'esm'
esm_bc = 'bc1'
input_dft = 'BEEF-VDW'
nosym = .true.
nspin = 2
ntyp = 3
nat = 32
starting_magnetization(1) = 0.0
starting_magnetization(2) = 0.1
starting_magnetization(3) = 0.001
/
&ELECTRONS
electron_maxstep = 200
mixing_beta = 0.1
conv_thr = 1e-06
/
&IONS
ion_dynamics = 'bfgs'
upscale = 1.0
/
&CELL
/

K_POINTS {automatic}
9 6 2 0  0  0

ATOMIC_SPECIES
Ge 72.64 Ge.pbe-dn-rrkjus_psl.1.0.0.UPF
Mn 54.93 mn_pbe_v1.5.uspp.F.UPF
Ni 58.69 ni_pbe_v1.4.uspp.F.UPF

CELL_PARAMETERS {angstrom}
5.84248000 0.00000000 0.00000000
0.00000000 8.26252000 0.00000000
0.00000000 0.00000000 26.19690000

ATOMIC_POSITIONS {angstrom}
Mn 0.00000000 0.00000000 23.09833067
Mn 2.92124000 2.06563000 25.16395623
Mn 2.92124000 6.19689000 25.16395623
Mn 0.00000000 4.13126000 23.09833067
Mn 0.00000000 4.13117737 0.97924012
Mn 2.92124000 6.19689000 3.25234513
Mn 2.92124000 2.06563000 3.25260710
Mn 0.00000000 0.00008263 0.97924012
Ni 1.46062000 0.00000000 25.16395623
Ni 4.38186000 4.13126000 25.16395623
Ni 4.38186000 0.00000000 25.16395623
Ni 1.46062000 4.13126000 25.16395623
Ni 4.38186000 6.19689000 23.09833067
Ni 1.46062000 2.06563000 23.09833067
Ni 1.46062000 6.19689000 23.09833067
Ni 4.38186000 2.06563000 23.09833067
Ni 1.37981850 4.13101212 2.98068328
Ni 4.46260307 0.00024788 2.98068328
Ni 4.46266150 4.13101212 2.98068328
Ni 1.37987693 0.00024788 2.98068328
Ni 4.35796426 2.06563000 1.05730688
Ni 1.48416519 6.19689000 1.05730688
Ni 1.48451574 2.06563000 1.05730688
Ni 4.35831481 6.19689000 1.05730688
Ge 0.00000000 6.19689000 25.16395623
Ge 2.92124000 0.00000000 23.09833067
Ge 0.00000000 2.06563000 25.16395623
Ge 2.92124000 4.13126000 23.09833067
Ge 0.00000000 2.06587788 3.15960811
Ge 2.92124000 4.13109475 1.06045051
Ge 0.00000000 6.19664212 3.15987008
Ge 2.92124000 0.00016525 1.06071248
