&CONTROL
calculation = 'relax'
prefix = 'scf'
pseudo_dir = '/vol0004/mdt0/data/hp150275/u10028/POT_HYBRID_KKJUS_GBRV'
outdir = './data'
tprnfor = .true.
nstep = 50
disk_io = 'non'
/
&SYSTEM
ibrav = 0
ecutwfc = 50.0
ecutrho = 400
occupations = 'smearing'
smearing = 'mp'
degauss = 0.01
assume_isolated = 'esm'
esm_bc = 'bc1'
input_dft = 'BEEF-VDW'
nosym = .true.
nspin = 2
ntyp = 4
nat = 33
starting_magnetization(1) = 0.0
starting_magnetization(2) = 0.1
starting_magnetization(3) = 0.0
starting_magnetization(4) = 0.0
/
&ELECTRONS
electron_maxstep = 300
mixing_beta = 0.1
conv_thr = 1e-06
/
&IONS
ion_dynamics = 'bfgs'
upscale = 1.0
/
&CELL
/

K_POINTS {automatic}
9 6 2 0  0  0

ATOMIC_SPECIES
C 12.01 C.pbe-n-rrkjus_psl.1.0.0.UPF
Fe 55.84 fe_pbe_v1.5.uspp.F.UPF
Ga 69.72 Ga.pbe-dnl-rrkjus_psl.1.0.0.UPF
Ti 47.86 Ti.pbe-spn-rrkjus_psl.1.0.0.UPF

CELL_PARAMETERS {angstrom}
5.88011000 0.00000000 0.00000000
0.00000000 8.31574000 0.00000000
0.00000000 0.00000000 26.23680000

ATOMIC_POSITIONS {angstrom}
Ti 0.00000000 0.00000000 -3.118506049999997 0 0 0
Ti 2.94005500 2.07893500 -1.0395020200000005 0 0 0
Ti 2.94005500 6.23680500 -1.0395020200000005 0 0 0
Ti 0.00000000 4.15787000 -3.118506049999997 0 0 0
Ti 0.03175259 4.17001098 0.92248589
Ti 2.86390758 6.23780289 3.19406803
Ti 3.22194747 2.07777080 2.85167779
Ti 0.03181140 8.30376533 0.92196115
Ga 0.00000000 6.23680500 -1.0395020200000005 0 0 0
Ga 2.94005500 0.00000000 -3.118506049999997 0 0 0
Ga 0.00000000 2.07893500 -1.0395020200000005 0 0 0
Ga 2.94005500 4.15787000 -3.118506049999997 0 0 0
Ga 5.47014873 2.07984973 3.75658502
Ga 2.94705233 4.16734994 1.00172102
Ga 0.12342351 6.23647237 3.33863280
Ga 2.94746394 8.30601058 1.00303286
Fe 1.47002750 0.00000000 -1.0395020200000005 0 0 0
Fe 4.41008250 4.15787000 -1.0395020200000005 0 0 0
Fe 4.41008250 0.00000000 -1.0395020200000005 0 0 0
Fe 1.47002750 4.15787000 -1.0395020200000005 0 0 0
Fe 4.41008250 6.23680500 -3.118506049999997 0 0 0
Fe 1.47002750 2.07893500 -3.118506049999997 0 0 0
Fe 1.47002750 6.23680500 -3.118506049999997 0 0 0
Fe 4.41008250 2.07893500 -3.118506049999997 0 0 0
Fe 1.33425576 3.95754382 3.06629482
Fe 4.52339222 8.17270927 2.94770448
Fe 4.52039336 4.30106704 2.94796685
Fe 1.33149211 0.20049249 3.06629482
Fe 4.47211766 2.07901816 0.96420240
Fe 1.47396717 6.23680500 1.15441920
Fe 1.43727529 2.07901816 1.13080608
Fe 4.41108212 6.23680500 1.13185555
C 1.46726385 2.07901816 3.63615811
