&CONTROL
calculation = 'relax'
prefix = 'scf'
pseudo_dir = '/vol0004/mdt0/data/hp150275/u10028/POT_KKJUS'
outdir = './data'
tprnfor = .true.
nstep = 50
disk_io = 'non'
/
&SYSTEM
ibrav = 0
ecutwfc = 50.0
ecutrho = 400
occupations = 'smearing'
smearing = 'mp'
degauss = 0.01
assume_isolated = 'esm'
esm_bc = 'bc1'
input_dft = 'BEEF-VDW'
nosym = .true.
nspin = 1
ntyp = 2
nat = 32
/
&ELECTRONS
electron_maxstep = 200
mixing_beta = 0.1
conv_thr = 1e-06
/
&IONS
ion_dynamics = 'bfgs'
upscale = 1.0
/
&CELL
/

K_POINTS {automatic}
9 6 2 0  0  0

ATOMIC_SPECIES
Ni 58.69 Ni.pbe-spn-rrkjus_psl.1.0.0.UPF
Ti 47.86 Ti.pbe-spn-rrkjus_psl.1.0.0.UPF

CELL_PARAMETERS {angstrom}
6.05499000 0.00000000 0.00000000
0.00000000 8.56306000 0.00000000
0.00000000 0.00000000 26.42230000

ATOMIC_POSITIONS {angstrom}
Ti 1.51374750 2.14076500 -3.2111021199999996 0 0 0
Ti 1.51374750 4.28153000 -1.0703673699999996 0 0 0
Ti 1.51392915 2.14085063 1.02994125
Ti 1.51398970 4.28153000 3.26447516
Ti 1.51374750 6.42229500 -3.2111021199999996 0 0 0
Ti 1.51374750 0.00000000 -1.0703673699999996 0 0 0
Ti 1.51392915 6.42212374 1.02994125
Ti 1.51405025 0.00000000 3.26394672
Ti 4.54124250 2.14076500 -3.2111021199999996 0 0 0
Ti 4.54124250 4.28153000 -1.0703673699999996 0 0 0
Ti 4.54112140 2.14085063 1.02994125
Ti 4.54100030 4.28153000 3.26447516
Ti 4.54124250 6.42229500 -3.2111021199999996 0 0 0
Ti 4.54124250 0.00000000 -1.0703673699999996 0 0 0
Ti 4.54106085 6.42212374 1.02994125
Ti 4.54100030 0.00000000 3.26394672
Ni 0.00000000 0.00000000 -3.2111021199999996 0 0 0
Ni 0.00000000 2.14076500 -1.0703673699999996 0 0 0
Ni 0.00000000 4.28144437 1.22678739
Ni 0.00000000 2.14093626 2.99338237
Ni 0.00000000 4.28153000 -3.2111021199999996 0 0 0
Ni 0.00000000 6.42229500 -1.0703673699999996 0 0 0
Ni 6.05492945 0.00008563 1.22573050
Ni 0.00000000 6.42212374 2.99338237
Ni 3.02749500 0.00000000 -3.2111021199999996 0 0 0
Ni 3.02749500 2.14076500 -1.0703673699999996 0 0 0
Ni 3.02749500 4.28144437 1.22599472
Ni 3.02749500 2.14093626 2.99443926
Ni 3.02749500 4.28153000 -3.2111021199999996 0 0 0
Ni 3.02749500 6.42229500 -1.0703673699999996 0 0 0
Ni 3.02767665 0.00000000 1.22493783
Ni 3.02749500 6.42212374 2.99470348
