&CONTROL
calculation = 'relax'
prefix = 'scf'
pseudo_dir = '/vol0004/mdt0/data/hp150275/u10028/POT_HYBRID_KKJUS_GBRV'
outdir = './data'
tprnfor = .true.
nstep = 70
disk_io = 'non'
/
&SYSTEM
ibrav = 0
ecutwfc = 50.0
ecutrho = 400
occupations = 'smearing'
smearing = 'mp'
degauss = 0.01
assume_isolated = 'esm'
esm_bc = 'bc1'
input_dft = 'BEEF-VDW'
nosym = .true.
nspin = 1
ntyp = 3
nat = 17
/
&ELECTRONS
electron_maxstep = 200
mixing_beta = 0.1
conv_thr = 1e-06
/
&IONS
ion_dynamics = 'bfgs'
upscale = 1.0
/
&CELL
/

K_POINTS {automatic}
8 8 1 0 0 0

ATOMIC_SPECIES
Bi 208.9 Bi.pbe-dn-rrkjus_psl.1.0.0.UPF
C 12.01 C.pbe-n-rrkjus_psl.1.0.0.UPF
Na 22.98 Na.pbe-spnl-rrkjus_psl.1.0.0.UPF

CELL_PARAMETERS {angstrom}
6.99788000 0.00000000 0.00000000
0.00000000 6.99788000 0.00000000
0.00000000 0.00000000 27.33890000

ATOMIC_POSITIONS {angstrom}
Na 1.74947000 1.74947000 -0.2424960399999989 0 0 0
Na 1.72784655 1.72693683 4.60851837
Na 1.74947000 5.24841000 -0.2424960399999989 0 0 0
Na 1.72770659 5.27136305 4.60797159
Na 5.24841000 1.74947000 -0.2424960399999989 0 0 0
Na 5.27094317 1.72658693 4.61152565
Na 5.24841000 5.24841000 -0.2424960399999989 0 0 0
Na 5.27108313 5.27171294 4.61097887
Bi 0.00000000 0.00000000 -2.688780819999998 0 0 0
Bi 0.00000000 0.00013996 2.30166199
Bi 0.00000000 3.49894000 -2.688780819999998 0 0 0
Bi 6.98010538 3.49425142 2.21253718
Bi 3.49894000 0.00000000 -2.688780819999998 0 0 0
Bi 3.50719750 0.00041987 2.21909851
Bi 3.49894000 3.49894000 -2.688780819999998 0 0 0
Bi 3.50271886 3.49866008 2.42742093
C 0.00034989 0.00020994 4.52568151
