&CONTROL
calculation = 'relax'
prefix = 'scf'
pseudo_dir = '/vol0004/mdt0/data/hp150275/u10028/POT_KKJUS'
outdir = './data'
tprnfor = .true.
nstep = 50
disk_io = 'non'
/
&SYSTEM
ibrav = 0
ecutwfc = 50.0
ecutrho = 400
occupations = 'smearing'
smearing = 'mp'
degauss = 0.01
assume_isolated = 'esm'
esm_bc = 'bc1'
input_dft = 'BEEF-VDW'
nosym = .true.
nspin = 1
ntyp = 3
nat = 33
/
&ELECTRONS
electron_maxstep = 200
mixing_beta = 0.1
conv_thr = 1e-06
/
&IONS
ion_dynamics = 'bfgs'
upscale = 1.0
/
&CELL
/

K_POINTS {automatic}
8 6 1 0 0 0

ATOMIC_SPECIES
Ag 107.8 Ag.pbe-n-rrkjus_psl.1.0.0.UPF
C 12.01 C.pbe-n-rrkjus_psl.1.0.0.UPF
Sc 44.95 Sc.pbe-spn-rrkjus_psl.1.0.0.UPF

CELL_PARAMETERS {angstrom}
6.93038000 0.00000000 0.00000000
0.00000000 9.80104000 0.00000000
0.00000000 0.00000000 27.35080000

ATOMIC_POSITIONS {angstrom}
Sc 1.73259500 2.45026000 -3.6754004999999985 0 0 0
Sc 1.73259500 0.00000000 -1.2250423300000008 0 0 0
Sc 1.76759342 2.46074711 1.21820463
Sc 1.96025798 0.00137215 3.79765858
Sc 1.73259500 7.35078000 -3.6754004999999985 0 0 0
Sc 1.73259500 4.90052000 -1.2250423300000008 0 0 0
Sc 1.76385101 7.34009687 1.21765762
Sc 1.70057664 4.90071602 3.60675000
Sc 5.19778500 2.45026000 -3.6754004999999985 0 0 0
Sc 5.19778500 0.00000000 -1.2250423300000008 0 0 0
Sc 5.16195494 2.46133518 1.21656358
Sc 4.97032993 9.79976586 3.79711156
Sc 5.19778500 7.35078000 -3.6754004999999985 0 0 0
Sc 5.19778500 4.90052000 -1.2250423300000008 0 0 0
Sc 5.16535082 7.34146901 1.21847814
Sc 5.23028848 4.90179414 3.60647649
Ag 0.00000000 0.00000000 -3.6754004999999985 0 0 0
Ag 0.00000000 2.45026000 -1.2250423300000008 0 0 0
Ag 6.93031070 9.79594346 1.13451118
Ag 6.93031070 2.43742064 3.59745072
Ag 0.00000000 4.90052000 -3.6754004999999985 0 0 0
Ag 0.00000000 7.35078000 -1.2250423300000008 0 0 0
Ag 0.00152468 4.90581256 1.14982763
Ag 6.93031070 7.36342334 3.59553617
Ag 3.46519000 0.00000000 -3.6754004999999985 0 0 0
Ag 3.46519000 2.45026000 -1.2250423300000008 0 0 0
Ag 3.46491278 0.00303832 1.19796504
Ag 3.46588304 2.56454013 3.55177489
Ag 3.46519000 4.90052000 -3.6754004999999985 0 0 0
Ag 3.46519000 7.35078000 -1.2250423300000008 0 0 0
Ag 3.46567513 4.90150010 1.27782938
Ag 3.46456627 7.23561778 3.55861259
C 0.00006930 0.00137215 3.45413253
