&CONTROL
calculation = 'relax'
prefix = 'scf'
pseudo_dir = '/vol0403/data/hp230205/u10028/POT_HYBRID_KKJUS_GBRV'
outdir = './data'
tprnfor = .true.
nstep = 50
disk_io = 'non'
/
&SYSTEM
ibrav = 0
ecutwfc = 50.0
ecutrho = 400
occupations = 'smearing'
smearing = 'mp'
degauss = 0.01
assume_isolated = 'esm'
esm_bc = 'bc1'
input_dft = 'BEEF-VDW'
nosym = .true.
nspin = 1
ntyp = 5
nat = 33
/
&ELECTRONS
electron_maxstep = 200
mixing_beta = 0.1
conv_thr = 1e-06
/
&IONS
ion_dynamics = 'bfgs'
upscale = 1.0
/
&CELL
/

K_POINTS {automatic}
9 6 2 0  0  0

ATOMIC_SPECIES
C 12.01 C.pbe-n-rrkjus_psl.1.0.0.UPF
Ge 72.64 Ge.pbe-dn-rrkjus_psl.1.0.0.UPF
Li 6.941 Li.pbe-sl-rrkjus_psl.1.0.0.UPF
Pd 106.4 Pd.pbe-n-rrkjus_psl.1.0.0.UPF
V 50.94 V.pbe-spnl-rrkjus_psl.1.0.0.UPF


CELL_PARAMETERS {angstrom}
5.68832000 0.00000000 0.00000000
0.00000000 8.64114000 0.00000000
0.00000000 0.00000000 27.05420000

ATOMIC_POSITIONS {angstrom}
Li 1.44471951 0.00846832 1.23069556
Li 1.42208000 0.00000000 -3.5270560500000023 0 0 0
Li 1.44471951 4.31210168 1.23069556
Li 1.42208000 4.32057000 -3.5270560500000023 0 0 0
Li 4.24365737 0.00846832 1.23042502
Li 4.26624000 0.00000000 -3.5270560500000023 0 0 0
Li 4.24365737 4.31210168 1.23042502
Li 4.26624000 4.32057000 -3.5270560500000023 0 0 0
V 1.44164782 2.16028500 3.49161505
V 1.42208000 2.16028500 -1.1757755300000028 0 0 0
V 1.45922473 6.48085500 3.40639432
V 1.42208000 6.48085500 -1.1757755300000028 0 0 0
V 4.24672906 2.16028500 3.49161505
V 4.26624000 2.16028500 -1.1757755300000028 0 0 0
V 4.22909527 6.48085500 3.40639432
V 4.26624000 6.48085500 -1.1757755300000028 0 0 0
Ge 5.68826312 8.58557747 3.55654513
Ge 0.00000000 0.00000000 -1.1757755300000028 0 0 0
Ge 5.68820623 4.37613253 3.55654513
Ge 0.00000000 4.32057000 -1.1757755300000028 0 0 0
Ge 2.84393247 8.62679571 3.81897087
Ge 2.84416000 0.00000000 -1.1757755300000028 0 0 0
Ge 2.84398935 4.33491429 3.81897087
Ge 2.84416000 4.32057000 -1.1757755300000028 0 0 0
Pd 0.00005688 2.16028500 1.24151724
Pd 0.00000000 2.16028500 -3.5270560500000023 0 0 0
Pd 0.00005688 6.48085500 1.14953296
Pd 0.00000000 6.48085500 -3.5270560500000023 0 0 0
Pd 2.84416000 2.16028500 1.07621608
Pd 2.84416000 2.16028500 -3.5270560500000023 0 0 0
Pd 2.84416000 6.48085500 1.13844074
Pd 2.84416000 6.48085500 -3.5270560500000023 0 0 0
C 0.00000000 2.16028500 4.65656890
