&CONTROL
calculation = 'relax'
prefix = 'scf'
pseudo_dir = '/vol0403/data/hp230205/u10028/POT_HYBRID_KKJUS_GBRV'
outdir = './data'
tprnfor = .true.
nstep = 50
disk_io = 'non'
/
&SYSTEM
ibrav = 0
ecutwfc = 50.0
ecutrho = 400
occupations = 'smearing'
smearing = 'mp'
degauss = 0.01
assume_isolated = 'esm'
esm_bc = 'bc1'
input_dft = 'BEEF-VDW'
nosym = .true.
nspin = 1
ntyp = 4
nat = 16
/
&ELECTRONS
electron_maxstep = 200
mixing_beta = 0.1
conv_thr = 1e-06
/
&IONS
ion_dynamics = 'bfgs'
upscale = 1.0
/
&CELL
/

K_POINTS {automatic}
12 7 3 0  0  0

ATOMIC_SPECIES
In 114.8 In.pbe-dn-rrkjus_psl.1.0.0.UPF
Pd 106.4 Pd.pbe-n-rrkjus_psl.1.0.0.UPF
Sc 44.95 Sc.pbe-spn-rrkjus_psl.1.0.0.UPF
Y 88.90 Y.pbe-spn-rrkjus_psl.1.0.0.UPF


CELL_PARAMETERS {angstrom}
6.06590000 0.00000000 0.00000000
0.00000000 10.11530000 0.00000000
0.00000000 0.00000000 24.38870000

ATOMIC_POSITIONS {angstrom}
Y 0.90642744 2.52872385 0.72239329
Y 3.35092448 2.52882500 -2.194251340000001 0 0 0
Y 0.90636678 7.58647500 0.72263718
Y 3.35092448 7.58647500 -2.194251340000001 0 0 0
Sc 3.74745236 0.00000000 1.95816872
Sc 5.26689965 0.00000000 -0.7314171099999989 0 0 0
Sc 3.74781632 5.05775115 1.95816872
Sc 5.26689965 5.05765000 -0.7314171099999989 0 0 0
In 0.72620955 0.00000000 2.57325174
In 2.23394965 0.00000000 -0.7314171099999989 0 0 0
In 0.72657350 5.05765000 2.57325174
In 2.23394965 5.05765000 -0.7314171099999989 0 0 0
Pd 3.93288692 2.52842039 0.44826431
Pd 0.31797448 2.52882500 -2.194251340000001 0 0 0
Pd 3.93288692 7.58687961 0.44826431
Pd 0.31797448 7.58647500 -2.194251340000001 0 0 0
