&CONTROL
calculation = 'relax'
prefix = 'scf'
pseudo_dir = '/vol0004/mdt0/data/hp150275/u10028/POT_KKJUS'
outdir = './data'
tprnfor = .true.
nstep = 50
disk_io = 'non'
/
&SYSTEM
ibrav = 0
ecutwfc = 50.0
ecutrho = 400
occupations = 'smearing'
smearing = 'mp'
degauss = 0.01
assume_isolated = 'esm'
esm_bc = 'bc1'
input_dft = 'BEEF-VDW'
nosym = .true.
nspin = 1
ntyp = 3
nat = 33
/
&ELECTRONS
electron_maxstep = 200
mixing_beta = 0.1
conv_thr = 1e-06
/
&IONS
ion_dynamics = 'bfgs'
upscale = 1.0
/
&CELL
/

K_POINTS {automatic}
8 6 1 0 0 0

ATOMIC_SPECIES
C 12.01 C.pbe-n-rrkjus_psl.1.0.0.UPF
Li 6.941 Li.pbe-sl-rrkjus_psl.1.0.0.UPF
Pd 106.4 Pd.pbe-n-rrkjus_psl.1.0.0.UPF

CELL_PARAMETERS {angstrom}
6.06651000 0.00000000 0.00000000
0.00000000 8.57934000 0.00000000
0.00000000 0.00000000 26.43450000

ATOMIC_POSITIONS {angstrom}
Li 0.00000000 0.00000000 -3.217342989999999 0 0 0
Li 0.00000000 2.14483500 -1.0724476599999981 0 0 0
Li 0.00000000 0.00000000 1.01984301
Li 0.00000000 2.17855181 3.51763892
Li 0.00000000 4.28967000 -3.217342989999999 0 0 0
Li 0.00000000 6.43450500 -1.0724476599999981 0 0 0
Li 0.00000000 4.28967000 1.02988812
Li 0.00000000 6.40078819 3.51763892
Li 3.03325500 0.00000000 -3.217342989999999 0 0 0
Li 3.03325500 2.14483500 -1.0724476599999981 0 0 0
Li 3.03325500 0.00000000 0.90353121
Li 3.03325500 2.22625294 3.47084985
Li 3.03325500 4.28967000 -3.217342989999999 0 0 0
Li 3.03325500 6.43450500 -1.0724476599999981 0 0 0
Li 3.03325500 4.28967000 1.02856639
Li 3.03325500 6.35317286 3.47084985
Pd 1.51662750 2.14483500 -3.217342989999999 0 0 0
Pd 1.51662750 0.00000000 -1.0724476599999981 0 0 0
Pd 1.52408931 2.11969753 1.13826957
Pd 1.58985028 0.00000000 3.10050251
Pd 1.51662750 6.43450500 -3.217342989999999 0 0 0
Pd 1.51662750 4.28967000 -1.0724476599999981 0 0 0
Pd 1.52408931 6.45964247 1.13826957
Pd 1.49897396 4.28967000 3.07168890
Pd 4.54988250 2.14483500 -3.217342989999999 0 0 0
Pd 4.54988250 0.00000000 -1.0724476599999981 0 0 0
Pd 4.54242069 2.11969753 1.13826957
Pd 4.47665972 0.00000000 3.10050251
Pd 4.54988250 6.43450500 -3.217342989999999 0 0 0
Pd 4.54988250 4.28967000 -1.0724476599999981 0 0 0
Pd 4.54242069 6.45964247 1.13826957
Pd 4.56753604 4.28967000 3.07168890
C 0.00000000 0.00000000 4.09840488
