&CONTROL
calculation = 'relax'
prefix = 'scf'
pseudo_dir = '/vol0004/mdt0/data/hp150275/u10028/POT_HYBRID_KKJUS_GBRV'
outdir = './data'
tprnfor = .true.
nstep = 50
disk_io = 'non'
/
&SYSTEM
ibrav = 0
ecutwfc = 50.0
ecutrho = 400
occupations = 'smearing'
smearing = 'mp'
degauss = 0.01
assume_isolated = 'esm'
esm_bc = 'bc1'
input_dft = 'BEEF-VDW'
nosym = .true.
nspin = 2
ntyp = 3
nat = 32
starting_magnetization(1) = 0.0
starting_magnetization(2) = 0.0
starting_magnetization(3) = 0.001
/
&ELECTRONS
electron_maxstep = 200
mixing_beta = 0.1
conv_thr = 1e-06
/
&IONS
ion_dynamics = 'bfgs'
upscale = 1.0
/
&CELL
/

K_POINTS {automatic}
9 6 2 0  0  0

ATOMIC_SPECIES
Al 26.98 Al.pbe-nl-rrkjus_psl.1.0.0.UPF
Nb 92.90 Nb.pbe-spn-rrkjus_psl.1.0.0.UPF
Ni 58.69 ni_pbe_v1.4.uspp.F.UPF

CELL_PARAMETERS {angstrom}
6.00915000 0.00000000 0.00000000
0.00000000 8.49821000 0.00000000
0.00000000 0.00000000 26.37370000

ATOMIC_POSITIONS {angstrom}
Nb 0.00000000 0.00000000 23.18696583
Nb 3.00457500 2.12455250 25.31136736
Nb 3.00457500 6.37365750 25.31136736
Nb 0.00000000 4.24910500 23.18696583
Nb 0.00000000 4.24927496 1.04044246
Nb 3.00457500 6.37374248 3.22365735
Nb 3.00457500 2.12446752 3.22339361
Nb 0.00000000 8.49804004 1.04017873
Al 0.00000000 6.37365750 25.31136736
Al 3.00457500 0.00000000 23.18696583
Al 0.00000000 2.12455250 25.31136736
Al 3.00457500 4.24910500 23.18696583
Al 0.00000000 2.12455250 3.17064621
Al 3.00457500 4.24902002 1.05653042
Al 0.00000000 6.37365750 3.17064621
Al 3.00457500 0.00008498 1.05626668
Ni 1.50228750 0.00000000 25.31136736
Ni 4.50686250 4.24910500 25.31136736
Ni 4.50686250 0.00000000 25.31136736
Ni 1.50228750 4.24910500 25.31136736
Ni 4.50686250 6.37365750 23.18696583
Ni 1.50228750 2.12455250 23.18696583
Ni 1.50228750 6.37365750 23.18696583
Ni 4.50686250 2.12455250 23.18696583
Ni 1.51214251 4.24918998 3.05697557
Ni 4.49682722 8.49812502 3.05723930
Ni 4.49700749 4.24918998 3.05697557
Ni 1.51232278 8.49812502 3.05723930
Ni 4.45091731 2.12506239 1.14119000
Ni 1.55853314 6.37314761 1.14119000
Ni 1.55823269 2.12506239 1.14119000
Ni 4.45055676 6.37314761 1.14119000
