&CONTROL
calculation = 'relax'
prefix = 'scf'
pseudo_dir = '/vol0004/mdt0/data/hp150275/u10028/POT_KKJUS'
outdir = './data'
tprnfor = .true.
nstep = 50
disk_io = 'non'
/
&SYSTEM
ibrav = 0
ecutwfc = 50.0
ecutrho = 400
occupations = 'smearing'
smearing = 'mp'
degauss = 0.01
assume_isolated = 'esm'
esm_bc = 'bc1'
input_dft = 'BEEF-VDW'
nosym = .true.
nspin = 1
ntyp = 4
nat = 18
/
&ELECTRONS
electron_maxstep = 200
mixing_beta = 0.1
conv_thr = 1e-06
/
&IONS
ion_dynamics = 'bfgs'
upscale = 1.0
/
&CELL
/

K_POINTS {automatic}
6 8 1 0 0 0

ATOMIC_SPECIES
Al 26.98 Al.pbe-nl-rrkjus_psl.1.0.0.UPF
C 12.01 C.pbe-n-rrkjus_psl.1.0.0.UPF
O 15.99 O.pbe-n-rrkjus_psl.1.0.0.UPF
Y 88.90 Y.pbe-spn-rrkjus_psl.1.0.0.UPF

CELL_PARAMETERS {angstrom}
9.55034000 0.00000000 0.00000000
0.00000000 6.75311000 0.00000000
0.00000000 0.00000000 25.06480000

ATOMIC_POSITIONS {angstrom}
Y 0.00000000 3.37655500 -2.532296740000003 0 0 0
Y 2.38758500 5.06483250 -0.8441824600000025 0 0 0
Y 2.38758500 1.68827750 -0.8441824600000025 0 0 0
Y 9.53668301 6.75142172 0.67674960
Y 2.38758500 1.83623814 2.45534781
Y 2.38758500 5.11196921 2.63355854
Y 4.77517000 3.37655500 -2.532296740000003 0 0 0
Y 7.16275500 5.06483250 -0.8441824600000025 0 0 0
Y 7.16275500 1.68827750 -0.8441824600000025 0 0 0
Y 4.78882699 6.75142172 0.67674960
Y 7.16275500 1.75283723 2.53530452
Y 7.16275500 5.01155046 2.52653184
Al 0.00000000 0.00000000 -2.532296740000003 0 0 0
Al 9.53496395 3.39580136 0.75896214
Al 4.77517000 0.00000000 -2.532296740000003 0 0 0
Al 4.79054605 3.39580136 0.75896214
C 2.38758500 1.61709972 4.87685814
O 2.38758500 1.59015481 6.03635578
