&CONTROL
calculation = 'relax'
prefix = 'scf'
pseudo_dir = '/vol0403/data/hp230205/u10028/POT_HYBRID_KKJUS_GBRV'
outdir = './data'
tprnfor = .true.
nstep = 70
disk_io = 'non'
/
&SYSTEM
ibrav = 0
ecutwfc = 50.0
ecutrho = 400
occupations = 'smearing'
smearing = 'mp'
degauss = 0.01
assume_isolated = 'esm'
esm_bc = 'bc1'
input_dft = 'BEEF-VDW'
nosym = .true.
nspin = 1
ntyp = 6
nat = 18
/
&ELECTRONS
electron_maxstep = 200
mixing_beta = 0.1
conv_thr = 1e-06
/
&IONS
ion_dynamics = 'bfgs'
upscale = 1.0
/
&CELL
/

K_POINTS {automatic}
6 6 1 0 0 0

ATOMIC_SPECIES
C 12.01 C.pbe-n-rrkjus_psl.1.0.0.UPF
Cu 63.54 Cu.pbe-dn-rrkjus_psl.1.0.0.UPF
Li 6.941 Li.pbe-sl-rrkjus_psl.1.0.0.UPF
Mg 24.30 Mg.pbe-spnl-rrkjus_psl.1.0.0.UPF
O 15.99 O.pbe-n-rrkjus_psl.1.0.0.UPF
Pd 106.4 Pd.pbe-n-rrkjus_psl.1.0.0.UPF


CELL_PARAMETERS {angstrom}
5.46655000 0.00000000 0.00000000
-0.00000000 7.95764000 0.00000000
0.00000000 0.00000000 24.09630000

ATOMIC_POSITIONS {angstrom}
Li 2.73327500 0.00000000 -2.048185499999999 0 0 0
Li 5.23460428 7.94538523 0.64072062
Li 2.73327500 3.97882000 -2.048185499999999 0 0 0
Li 5.23438562 3.99115434 0.64096158
Mg 1.30956672 1.98941000 -0.682648180000001 0 0 0
Mg 3.63525575 1.98925085 2.07710106
Mg 1.30956672 5.96823000 -0.682648180000001 0 0 0
Mg 3.69243586 5.96862788 2.12914907
Cu 0.00000000 0.00000000 -2.048185499999999 0 0 0
Cu 2.52571010 7.94387328 0.67397351
Cu 0.00000000 3.97882000 -2.048185499999999 0 0 0
Cu 2.52554610 3.99266629 0.67421447
Pd 4.04284172 1.98941000 -0.682648180000001 0 0 0
Pd 0.92477626 1.98933042 2.04939032
Pd 4.04284172 5.96823000 -0.682648180000001 0 0 0
Pd 0.98622029 5.96838915 1.87661984
C 0.80653479 1.98925085 4.00841950
O 0.85513242 1.98933042 5.16239131
