&CONTROL
calculation = 'relax'
prefix = 'scf'
pseudo_dir = '/vol0004/mdt0/data/hp150275/u10028/POT_HYBRID_KKJUS_GBRV'
outdir = './data'
tprnfor = .true.
nstep = 50
disk_io = 'non'
/
&SYSTEM
ibrav = 0
ecutwfc = 50.0
ecutrho = 400
occupations = 'smearing'
smearing = 'mp'
degauss = 0.01
assume_isolated = 'esm'
esm_bc = 'bc1'
input_dft = 'BEEF-VDW'
nosym = .true.
nspin = 2
ntyp = 4
nat = 17
starting_magnetization(1) = 0.0
starting_magnetization(2) = 0.1
starting_magnetization(3) = 0.01
starting_magnetization(4) = 0.0
/
&ELECTRONS
electron_maxstep = 200
mixing_beta = 0.1
conv_thr = 1e-06
/
&IONS
ion_dynamics = 'bfgs'
upscale = 1.0
/
&CELL
/

K_POINTS {automatic}
9 9 2 0  0  0

ATOMIC_SPECIES
C 12.01 C.pbe-n-rrkjus_psl.1.0.0.UPF
Cr 51.99 cr_pbe_v1.5.uspp.F.UPF
Fe 55.84 fe_pbe_v1.5.uspp.F.UPF
Ga 69.72 Ga.pbe-dnl-rrkjus_psl.1.0.0.UPF

CELL_PARAMETERS {angstrom}
6.89656000 0.00000000 0.00000000
0.00000000 6.89656000 0.00000000
0.00000000 0.00000000 25.17240000

ATOMIC_POSITIONS {angstrom}
Cr 0.00000000 0.00000000 22.58618762
Cr 3.44828000 3.44828000 22.58618762
Cr 3.43414205 0.01455174 0.93314087
Cr 0.03379314 3.41441789 1.06277873
Ga 6.89456000 6.89083586 0.83622713
Ga 3.44828000 0.00000000 22.58618762
Ga 0.00000000 3.44828000 22.58618762
Ga 3.45269380 3.45124552 0.83622713
Fe 1.72414000 1.72414000 24.31024530
Fe 5.32862708 5.01683361 2.45732969
Fe 5.17242000 1.72414000 24.31024530
Fe 1.55662256 5.00862670 2.44172280
Fe 5.17242000 5.17242000 24.31024530
Fe 1.55813980 1.89165744 2.43492625
Fe 1.72414000 5.17242000 24.31024530
Fe 5.33490295 1.89089882 2.44272970
C 6.88145653 3.46359036 2.82484673
