&CONTROL
calculation = 'relax'
prefix = 'scf'
pseudo_dir = '/vol0004/mdt0/data/hp150275/u10028/POT_KKJUS'
outdir = './data'
tprnfor = .true.
nstep = 50
disk_io = 'non'
/
&SYSTEM
ibrav = 0
ecutwfc = 50.0
ecutrho = 400
occupations = 'smearing'
smearing = 'mp'
degauss = 0.01
assume_isolated = 'esm'
esm_bc = 'bc1'
input_dft = 'BEEF-VDW'
nosym = .true.
nspin = 1
ntyp = 4
nat = 33
/
&ELECTRONS
electron_maxstep = 200
mixing_beta = 0.1
conv_thr = 1e-06
/
&IONS
ion_dynamics = 'bfgs'
upscale = 1.0
/
&CELL
/

K_POINTS {automatic}
9 6 2 0  0  0

ATOMIC_SPECIES
Al 26.98 Al.pbe-nl-rrkjus_psl.1.0.0.UPF
C 12.01 C.pbe-n-rrkjus_psl.1.0.0.UPF
Hf 178.4 Hf.pbe-spn-rrkjus_psl.1.0.0.UPF
Ni 58.69 Ni.pbe-spn-rrkjus_psl.1.0.0.UPF

CELL_PARAMETERS {angstrom}
6.09904000 0.00000000 0.00000000
0.00000000 8.62534000 0.00000000
0.00000000 0.00000000 26.46900000

ATOMIC_POSITIONS {angstrom}
Hf 0.00000000 0.00000000 -3.2345118 0 0 0
Hf 3.04952000 2.15633500 -1.0780823700000006 0 0 0
Hf 3.04952000 6.46900500 -1.0780823700000006 0 0 0
Hf 0.00000000 4.31267000 -3.2345118 0 0 0
Hf 0.00000000 4.31258375 1.05717186
Hf 3.04952000 6.37240119 3.31153659
Hf 3.04952000 2.25293881 3.31180128
Hf 0.00000000 0.00000000 1.10428668
Al 0.00000000 6.46900500 -1.0780823700000006 0 0 0
Al 3.04952000 0.00000000 -3.2345118 0 0 0
Al 0.00000000 2.15633500 -1.0780823700000006 0 0 0
Al 3.04952000 4.31267000 -3.2345118 0 0 0
Al 0.00000000 2.10898188 3.22842393
Al 3.04952000 4.31267000 1.11487428
Al 0.00000000 6.51635812 3.22842393
Al 3.04952000 0.00000000 1.07728830
Ni 1.52476000 0.00000000 -1.0780823700000006 0 0 0
Ni 4.57428000 4.31267000 -1.0780823700000006 0 0 0
Ni 4.57428000 0.00000000 -1.0780823700000006 0 0 0
Ni 1.52476000 4.31267000 -1.0780823700000006 0 0 0
Ni 4.57428000 6.46900500 -3.2345118 0 0 0
Ni 1.52476000 2.15633500 -3.2345118 0 0 0
Ni 1.52476000 6.46900500 -3.2345118 0 0 0
Ni 4.57428000 2.15633500 -3.2345118 0 0 0
Ni 1.38490901 4.31267000 3.16436895
Ni 4.32226767 8.62525375 3.23001207
Ni 4.71407000 4.31267000 3.16436895
Ni 1.77677233 0.00008625 3.23001207
Ni 4.48438015 2.17755334 1.12943223
Ni 1.61429391 6.44787292 1.12943223
Ni 1.61459886 2.17763959 1.12943223
Ni 4.48474609 6.44778666 1.12943223
C 0.00000000 0.00000000 3.50370153
