&CONTROL
calculation = 'relax'
prefix = 'scf'
pseudo_dir = '/vol0004/mdt0/data/hp150275/u10028/POT_KKJUS'
outdir = './data'
tprnfor = .true.
nstep = 50
disk_io = 'non'
/
&SYSTEM
ibrav = 0
ecutwfc = 50.0
ecutrho = 400
occupations = 'smearing'
smearing = 'mp'
degauss = 0.01
assume_isolated = 'esm'
esm_bc = 'bc1'
input_dft = 'BEEF-VDW'
nosym = .true.
nspin = 1
ntyp = 3
nat = 16
/
&ELECTRONS
electron_maxstep = 200
mixing_beta = 0.1
conv_thr = 1e-06
/
&IONS
ion_dynamics = 'bfgs'
upscale = 1.0
/
&CELL
/

K_POINTS {automatic}
10 10 2 0  0  0

ATOMIC_SPECIES
In 114.8 In.pbe-dn-rrkjus_psl.1.0.0.UPF
Mg 24.30 Mg.pbe-spnl-rrkjus_psl.1.0.0.UPF
Ni 58.69 Ni.pbe-spn-rrkjus_psl.1.0.0.UPF

CELL_PARAMETERS {angstrom}
6.24448000 0.00000000 0.00000000
-0.00000000 6.24448000 0.00000000
0.00000000 0.00000000 24.68340000

ATOMIC_POSITIONS {angstrom}
Mg 0.00000000 0.00000000 2.34171416
Mg 3.12224000 3.12224000 2.34171416
Mg 3.12224000 0.00000000 -0.7804891099999978 0 0 0
Mg 0.00000000 3.12224000 -0.7804891099999978 0 0 0
In 0.00000000 0.00000000 -0.7804891099999978 0 0 0
In 3.12224000 -0.00000000 2.34171416
In 0.00000000 3.12224000 2.34171416
In 3.12224000 3.12224000 -0.7804891099999978 0 0 0
Ni 1.56112000 1.56112000 0.78048911
Ni 4.68336000 4.68336000 -2.3417141599999987 0 0 0
Ni 4.68336000 1.56112000 0.78048911
Ni 1.56112000 4.68336000 -2.3417141599999987 0 0 0
Ni 4.68336000 4.68336000 0.78048911
Ni 1.56112000 1.56112000 -2.3417141599999987 0 0 0
Ni 1.56112000 4.68336000 0.78048911
Ni 4.68336000 1.56112000 -2.3417141599999987 0 0 0
