&CONTROL
calculation = 'relax'
prefix = 'scf'
pseudo_dir = '/vol0004/mdt0/data/hp150275/u10028/POT_HYBRID_KKJUS_GBRV'
outdir = './data'
tprnfor = .true.
nstep = 50
disk_io = 'non'
/
&SYSTEM
ibrav = 0
ecutwfc = 50.0
ecutrho = 400
occupations = 'smearing'
smearing = 'mp'
degauss = 0.01
assume_isolated = 'esm'
esm_bc = 'bc1'
input_dft = 'BEEF-VDW'
nosym = .true.
nspin = 2
ntyp = 5
nat = 34
starting_magnetization(1) = 0.0
starting_magnetization(2) = 0.0
starting_magnetization(3) = 0.1
starting_magnetization(4) = 0.001
starting_magnetization(5) = 0.0
/
&ELECTRONS
electron_maxstep = 200
mixing_beta = 0.1
conv_thr = 1e-06
/
&IONS
ion_dynamics = 'bfgs'
upscale = 1.0
/
&CELL
/

K_POINTS {automatic}
9 6 2 0  0  0

ATOMIC_SPECIES
Al 26.98 Al.pbe-nl-rrkjus_psl.1.0.0.UPF
C 12.01 C.pbe-n-rrkjus_psl.1.0.0.UPF
Fe 55.84 fe_pbe_v1.5.uspp.F.UPF
Ni 58.69 ni_pbe_v1.4.uspp.F.UPF
O 15.99 O.pbe-n-rrkjus_psl.1.0.0.UPF

CELL_PARAMETERS {angstrom}
5.78917000 0.00000000 0.00000000
0.00000000 8.18712000 0.00000000
0.00000000 0.00000000 26.14030000

ATOMIC_POSITIONS {angstrom}
Al 0.00000000 0.00000000 23.07012176
Al 2.89458500 2.04678000 25.11690726
Al 2.89458500 6.14034000 25.11690726
Al 0.00000000 4.09356000 23.07012176
Al 5.77672328 4.61188657 0.94810868
Al 2.91513655 6.07074948 3.24923929
Al 2.87467026 2.01583269 3.29864446
Al 0.01325720 0.49499328 0.98104546
Fe 1.44729250 0.00000000 25.11690726
Fe 4.34187750 4.09356000 25.11690726
Fe 4.34187750 0.00000000 25.11690726
Fe 1.44729250 4.09356000 25.11690726
Fe 4.34187750 6.14034000 23.07012176
Fe 1.44729250 2.04678000 23.07012176
Fe 1.44729250 6.14034000 23.07012176
Fe 4.34187750 2.04678000 23.07012176
Fe 1.39594256 4.08439043 2.99515557
Fe 4.33134121 8.14937738 3.00561169
Fe 4.39328533 4.05696357 3.00639590
Fe 1.46078127 8.12440666 3.01711343
Fe 4.31380003 2.54914168 1.07828737
Fe 1.49273748 6.64368414 1.06103478
Fe 1.47461738 2.57427614 1.06992248
Fe 4.29654830 6.66865485 1.05110146
Ni 0.00000000 6.14034000 25.11690726
Ni 2.89458500 0.00000000 23.07012176
Ni 0.00000000 2.04678000 25.11690726
Ni 2.89458500 4.09356000 23.07012176
Ni 0.01424136 1.96171582 3.02469411
Ni 2.91224197 4.62776958 1.03489448
Ni 5.77400237 6.10136931 2.99986083
Ni 2.87467026 0.55639668 1.01345943
C 2.89122728 2.06225366 5.33654224
O 2.89753748 1.99290875 6.48279440
