&CONTROL
calculation = 'relax'
prefix = 'scf'
pseudo_dir = '/vol0403/data/hp230205/u10028/POT_HYBRID_KKJUS_GBRV'
outdir = './data'
tprnfor = .true.
nstep = 50
disk_io = 'non'
/
&SYSTEM
ibrav = 0
ecutwfc = 50.0
ecutrho = 400
occupations = 'smearing'
smearing = 'mp'
degauss = 0.01
assume_isolated = 'esm'
esm_bc = 'bc1'
input_dft = 'BEEF-VDW'
nosym = .true.
nspin = 1
ntyp = 5
nat = 17
/
&ELECTRONS
electron_maxstep = 200
mixing_beta = 0.1
conv_thr = 1e-06
/
&IONS
ion_dynamics = 'bfgs'
upscale = 1.0
/
&CELL
/

K_POINTS {automatic}
6 6 1 0 0 0

ATOMIC_SPECIES
C 12.01 C.pbe-n-rrkjus_psl.1.0.0.UPF
Ge 72.64 Ge.pbe-dn-rrkjus_psl.1.0.0.UPF
In 114.8 In.pbe-dn-rrkjus_psl.1.0.0.UPF
Li 6.941 Li.pbe-sl-rrkjus_psl.1.0.0.UPF
Y 88.90 Y.pbe-spn-rrkjus_psl.1.0.0.UPF


CELL_PARAMETERS {angstrom}
6.30439000 0.00000000 0.00000000
0.00000000 8.57642000 0.00000000
0.00000000 0.00000000 24.70800000

ATOMIC_POSITIONS {angstrom}
Li 4.90821979 2.14410500 1.09308192
Li 1.13895110 2.14410500 -2.3539311599999984 0 0 0
Li 4.57427625 6.43231500 0.62214744
Li 1.13895110 6.43231500 -2.3539311599999984 0 0 0
Y 1.72740286 2.14410500 0.75730020
Y 4.29114610 2.14410500 -2.3539311599999984 0 0 0
Y 1.39169409 6.43231500 0.87886356
Y 4.29114610 6.43231500 -2.3539311599999984 0 0 0
In 3.50959087 8.36732688 2.29932648
In 6.01300109 0.00000000 -0.7847260799999987 0 0 0
In 3.50959087 4.49738888 2.29932648
In 6.01300109 4.28821000 -0.7847260799999987 0 0 0
Ge 0.14285748 0.27281592 2.64449724
Ge 2.86080609 0.00000000 -0.7847260799999987 0 0 0
Ge 0.14279443 4.01539408 2.64449724
Ge 2.86080609 4.28821000 -0.7847260799999987 0 0 0
C 0.19650784 2.14410500 2.55752508
