&CONTROL
calculation = 'relax'
prefix = 'scf'
pseudo_dir = '/vol0004/mdt0/data/hp150275/u10028/POT_KKJUS'
outdir = './data'
tprnfor = .true.
nstep = 50
disk_io = 'non'
/
&SYSTEM
ibrav = 0
ecutwfc = 50.0
ecutrho = 400
occupations = 'smearing'
smearing = 'mp'
degauss = 0.01
assume_isolated = 'esm'
esm_bc = 'bc1'
input_dft = 'BEEF-VDW'
nosym = .true.
nspin = 1
ntyp = 3
nat = 17
/
&ELECTRONS
electron_maxstep = 200
mixing_beta = 0.1
conv_thr = 1e-06
/
&IONS
ion_dynamics = 'bfgs'
upscale = 1.0
/
&CELL
/

K_POINTS {automatic}
6 8 1 0 0 0

ATOMIC_SPECIES
C 12.01 C.pbe-n-rrkjus_psl.1.0.0.UPF
Pt 195.0 Pt.pbe-n-rrkjus_psl.1.0.0.UPF
Sc 44.95 Sc.pbe-spn-rrkjus_psl.1.0.0.UPF

CELL_PARAMETERS {angstrom}
8.06651000 0.00000000 0.00000000
0.00000000 5.70388000 0.00000000
0.00000000 0.00000000 24.27790000

ATOMIC_POSITIONS {angstrom}
Sc 7.98495758 5.69321374 1.98520388
Sc 0.00000000 2.85194000 -0.7130419199999984 0 0 0
Sc 4.11480742 5.69321374 1.98520388
Sc 4.03325500 2.85194000 -0.7130419199999984 0 0 0
Pt 0.01806898 2.83562690 2.14276745
Pt 2.01662750 4.31949129 0.75941271
Pt 2.01662750 1.36077465 0.76135494
Pt 0.00000000 0.00000000 -0.7130419199999984 0 0 0
Pt 2.01662750 1.42597000 -2.138882989999999 0 0 0
Pt 2.01662750 4.27791000 -2.138882989999999 0 0 0
Pt 4.01518602 2.83556986 2.14301023
Pt 6.04988250 4.27460175 0.85700987
Pt 6.04988250 1.40709016 0.85263985
Pt 4.03325500 0.00000000 -0.7130419199999984 0 0 0
Pt 6.04988250 1.42597000 -2.138882989999999 0 0 0
Pt 6.04988250 4.27791000 -2.138882989999999 0 0 0
C 2.01662750 2.84355530 2.24473463
