&CONTROL
calculation = 'relax'
prefix = 'scf'
pseudo_dir = '/vol0004/mdt0/data/hp150275/u10028/POT_HYBRID_KKJUS_GBRV'
outdir = './data'
tprnfor = .true.
nstep = 50
disk_io = 'non'
/
&SYSTEM
ibrav = 0
ecutwfc = 50.0
ecutrho = 400
occupations = 'smearing'
smearing = 'mp'
degauss = 0.01
assume_isolated = 'esm'
esm_bc = 'bc1'
input_dft = 'BEEF-VDW'
nosym = .true.
nspin = 2
ntyp = 4
nat = 33
starting_magnetization(1) = 0.0
starting_magnetization(2) = 0.001
starting_magnetization(3) = 0.0
starting_magnetization(4) = 0.0
/
&ELECTRONS
electron_maxstep = 300
mixing_beta = 0.1
conv_thr = 1e-06
/
&IONS
ion_dynamics = 'bfgs'
upscale = 1.0
/
&CELL
/

K_POINTS {automatic}
9 6 2 0  0  0

ATOMIC_SPECIES
C 12.01 C.pbe-n-rrkjus_psl.1.0.0.UPF
Ni 58.69 ni_pbe_v1.4.uspp.F.UPF
Sb 121.7 Sb.pbe-n-rrkjus_psl.1.0.0.UPF
Zr 91.22 Zr.pbe-spn-rrkjus_psl.1.0.0.UPF

CELL_PARAMETERS {angstrom}
6.34024000 0.00000000 0.00000000
0.00000000 8.96645000 0.00000000
0.00000000 0.00000000 26.72480000

ATOMIC_POSITIONS {angstrom}
Zr 0.00000000 0.00000000 -3.362514339999997 0 0 0
Zr 3.17012000 2.24161250 -1.1208381099999976 0 0 0
Zr 3.17012000 6.72483750 -1.1208381099999976 0 0 0
Zr 0.00000000 4.48322500 -3.362514339999997 0 0 0
Zr 0.18063344 4.42449475 1.36750802
Zr 2.95347400 6.72474784 3.13695702
Zr 2.82362588 2.24161250 3.09286110
Zr 0.18050663 0.05855092 1.36750802
Ni 1.58506000 0.00000000 -1.1208381099999976 0 0 0
Ni 4.75518000 4.48322500 -1.1208381099999976 0 0 0
Ni 4.75518000 0.00000000 -1.1208381099999976 0 0 0
Ni 1.58506000 4.48322500 -1.1208381099999976 0 0 0
Ni 4.75518000 6.72483750 -3.362514339999997 0 0 0
Ni 1.58506000 2.24161250 -3.362514339999997 0 0 0
Ni 1.58506000 6.72483750 -3.362514339999997 0 0 0
Ni 4.75518000 2.24161250 -3.362514339999997 0 0 0
Ni 0.75550300 4.08574227 3.88685491
Ni 4.62393703 0.07415254 3.23690778
Ni 4.62400043 4.40907246 3.23690778
Ni 0.75543960 0.39766206 3.88685491
Ni 4.93327734 2.24152284 1.08769936
Ni 1.55475365 6.72492716 0.97999842
Ni 1.57681769 2.24152284 0.84958139
Ni 5.10027926 6.72474784 1.24243595
Sb 0.00000000 6.72483750 -1.1208381099999976 0 0 0
Sb 3.17012000 0.00000000 -3.362514339999997 0 0 0
Sb 0.00000000 2.24161250 -1.1208381099999976 0 0 0
Sb 3.17012000 4.48322500 -3.362514339999997 0 0 0
Sb 5.20039165 2.24170216 4.81447272
Sb 3.27276849 4.50546180 1.07193173
Sb 6.18154379 6.72483750 3.74013576
Sb 3.27270508 8.94403388 1.07193173
C 0.98159596 2.24170216 4.20434554
