&CONTROL
calculation = 'relax'
prefix = 'scf'
pseudo_dir = '/vol0403/data/hp230205/u10028/POT_HYBRID_KKJUS_GBRV'
outdir = './data'
tprnfor = .true.
nstep = 50
disk_io = 'non'
/
&SYSTEM
ibrav = 0
ecutwfc = 50.0
ecutrho = 400
occupations = 'smearing'
smearing = 'mp'
degauss = 0.01
assume_isolated = 'esm'
esm_bc = 'bc1'
input_dft = 'BEEF-VDW'
nosym = .true.
nspin = 1
ntyp = 5
nat = 33
/
&ELECTRONS
electron_maxstep = 200
mixing_beta = 0.1
conv_thr = 1e-06
/
&IONS
ion_dynamics = 'bfgs'
upscale = 1.0
/
&CELL
/

K_POINTS {automatic}
6 6 1 0 0 0

ATOMIC_SPECIES
C 12.01 C.pbe-n-rrkjus_psl.1.0.0.UPF
Li 6.941 Li.pbe-sl-rrkjus_psl.1.0.0.UPF
Mg 24.30 Mg.pbe-spnl-rrkjus_psl.1.0.0.UPF
Pb 207.2 Pb.pbe-dn-rrkjus_psl.1.0.0.UPF
Pd 106.4 Pd.pbe-n-rrkjus_psl.1.0.0.UPF


CELL_PARAMETERS {angstrom}
6.68280000 0.00000000 0.00000000
0.00000000 9.45090000 0.00000000
0.00000000 0.00000000 27.08820000

ATOMIC_POSITIONS {angstrom}
Li 0.00000000 0.00000000 -3.5442200899999996 0 0 0
Li 0.00000000 4.72545000 -3.5442200899999996 0 0 0
Li 3.34140000 7.08817500 -1.1813164 0 0 0
Li 3.34140000 2.36272500 -1.1813164 0 0 0
Li 0.12336449 4.72242571 1.36307822
Li 0.12329766 0.00302429 1.36307822
Li 3.12721626 2.36272500 3.91668284
Li 3.51749178 7.08817500 3.68047373
Mg 5.01210000 0.00000000 -1.1813164 0 0 0
Mg 5.01210000 4.72545000 -1.1813164 0 0 0
Mg 1.67070000 2.36272500 -3.5442200899999996 0 0 0
Mg 1.67070000 7.08817500 -3.5442200899999996 0 0 0
Mg 5.07511880 4.55987023 3.69618489
Mg 5.07511880 0.16548526 3.69618489
Mg 1.69609464 7.08817500 1.29617037
Mg 1.74200548 2.36272500 1.18483787
Pd 0.00000000 2.36272500 -1.1813164 0 0 0
Pd 0.00000000 7.08817500 -1.1813164 0 0 0
Pd 3.34140000 4.72545000 -3.5442200899999996 0 0 0
Pd 3.34140000 0.00000000 -3.5442200899999996 0 0 0
Pd 6.55368830 7.08826951 3.38656676
Pd 0.43364689 2.36272500 3.49031457
Pd 3.23881902 9.42632766 1.31540299
Pd 3.23875219 4.75011685 1.31540299
Pb 1.67070000 0.00000000 -1.1813164 0 0 0
Pb 1.67070000 4.72545000 -1.1813164 0 0 0
Pb 5.01210000 2.36272500 -3.5442200899999996 0 0 0
Pb 5.01210000 7.08817500 -3.5442200899999996 0 0 0
Pb 1.68693920 4.88696588 4.01122066
Pb 1.68700603 9.28938412 4.01122066
Pb 4.96017464 7.08817500 1.13905881
Pb 4.94139598 2.36272500 1.20000726
C 5.11474781 2.36272500 3.68507873
