&CONTROL
calculation = 'relax'
prefix = 'scf'
pseudo_dir = '/vol0403/data/hp230205/u10028/POT_HYBRID_KKJUS_GBRV'
outdir = './data'
tprnfor = .true.
nstep = 50
disk_io = 'non'
/
&SYSTEM
ibrav = 0
ecutwfc = 50.0
ecutrho = 400
occupations = 'smearing'
smearing = 'mp'
degauss = 0.01
assume_isolated = 'esm'
esm_bc = 'bc1'
input_dft = 'BEEF-VDW'
nosym = .true.
nspin = 1
ntyp = 5
nat = 33
/
&ELECTRONS
electron_maxstep = 200
mixing_beta = 0.1
conv_thr = 1e-06
/
&IONS
ion_dynamics = 'bfgs'
upscale = 1.0
/
&CELL
/

K_POINTS {automatic}
6 6 1 0 0 0

ATOMIC_SPECIES
C 12.01 C.pbe-n-rrkjus_psl.1.0.0.UPF
Li 6.941 Li.pbe-sl-rrkjus_psl.1.0.0.UPF
Mg 24.30 Mg.pbe-spnl-rrkjus_psl.1.0.0.UPF
Pb 207.2 Pb.pbe-dn-rrkjus_psl.1.0.0.UPF
Pd 106.4 Pd.pbe-n-rrkjus_psl.1.0.0.UPF


CELL_PARAMETERS {angstrom}
6.68280000 0.00000000 0.00000000
0.00000000 9.45090000 0.00000000
0.00000000 0.00000000 27.08820000

ATOMIC_POSITIONS {angstrom}
Li 0.00000000 0.00000000 -3.5442200899999996 0 0 0
Li 0.00000000 4.72545000 -3.5442200899999996 0 0 0
Li 3.34140000 7.08817500 -1.1813164 0 0 0
Li 3.34140000 2.36272500 -1.1813164 0 0 0
Li 0.12309718 4.72270924 1.36280734
Li 0.12303035 0.00274076 1.36280734
Li 3.12741674 2.36272500 3.91695372
Li 3.51782592 7.08817500 3.68047373
Mg 5.01210000 0.00000000 -1.1813164 0 0 0
Mg 5.01210000 4.72545000 -1.1813164 0 0 0
Mg 1.67070000 2.36272500 -3.5442200899999996 0 0 0
Mg 1.67070000 7.08817500 -3.5442200899999996 0 0 0
Mg 5.07511880 4.55996474 3.69591401
Mg 5.07511880 0.16539075 3.69591401
Mg 1.69609464 7.08817500 1.29617037
Mg 1.74294107 2.36272500 1.18510875
Pd 0.00000000 2.36272500 -1.1813164 0 0 0
Pd 0.00000000 7.08817500 -1.1813164 0 0 0
Pd 3.34140000 4.72545000 -3.5442200899999996 0 0 0
Pd 3.34140000 0.00000000 -3.5442200899999996 0 0 0
Pd 6.55442341 7.08826951 3.38629588
Pd 0.43364689 2.36272500 3.49031457
Pd 3.23955413 9.42623315 1.31513211
Pd 3.23955413 4.75021136 1.31513211
Pb 1.67070000 0.00000000 -1.1813164 0 0 0
Pb 1.67070000 4.72545000 -1.1813164 0 0 0
Pb 5.01210000 2.36272500 -3.5442200899999996 0 0 0
Pb 5.01210000 7.08817500 -3.5442200899999996 0 0 0
Pb 1.68660506 4.88743843 4.01149154
Pb 1.68667189 9.28891157 4.01149154
Pb 4.96057561 7.08817500 1.13960057
Pb 4.93985893 2.36272500 1.19892373
C 5.11548292 2.36272500 3.68562049
