&CONTROL
calculation = 'relax'
prefix = 'scf'
pseudo_dir = '/vol0004/mdt0/data/hp150275/u10028/POT_KKJUS'
outdir = './data'
tprnfor = .true.
nstep = 50
disk_io = 'non'
/
&SYSTEM
ibrav = 0
ecutwfc = 50.0
ecutrho = 400
occupations = 'smearing'
smearing = 'mp'
degauss = 0.01
assume_isolated = 'esm'
esm_bc = 'bc1'
input_dft = 'BEEF-VDW'
nosym = .true.
nspin = 1
ntyp = 3
nat = 33
/
&ELECTRONS
electron_maxstep = 200
mixing_beta = 0.1
conv_thr = 1e-06
/
&IONS
ion_dynamics = 'bfgs'
upscale = 1.0
/
&CELL
/

K_POINTS {automatic}
9 6 2 0  0  0

ATOMIC_SPECIES
Ag 107.8 Ag.pbe-n-rrkjus_psl.1.0.0.UPF
C 12.01 C.pbe-n-rrkjus_psl.1.0.0.UPF
Ga 69.72 Ga.pbe-dnl-rrkjus_psl.1.0.0.UPF

CELL_PARAMETERS {angstrom}
6.70510000 0.00000000 0.00000000
0.00000000 9.48244000 0.00000000
0.00000000 0.00000000 27.11180000

ATOMIC_POSITIONS {angstrom}
Ga 1.67627500 2.37061000 -3.555983689999998 0 0 0
Ga 1.67627500 0.00000000 -1.1853278999999972 0 0 0
Ga 1.68304715 2.37061000 1.45373472
Ga 1.69162968 0.30523974 4.23269422
Ga 1.67627500 7.11183000 -3.555983689999998 0 0 0
Ga 1.67627500 4.74122000 -1.1853278999999972 0 0 0
Ga 1.68143793 7.11183000 1.13245989
Ga 1.69162968 4.43598026 4.23296533
Ga 5.02882500 2.37061000 -3.555983689999998 0 0 0
Ga 5.02882500 0.00000000 -1.1853278999999972 0 0 0
Ga 5.03056833 2.37061000 0.97060244
Ga 5.02433258 9.32778140 3.82330604
Ga 5.02882500 7.11183000 -3.555983689999998 0 0 0
Ga 5.02882500 4.74122000 -1.1853278999999972 0 0 0
Ga 5.01977312 7.11183000 1.29133503
Ga 5.02433258 4.89587860 3.82357715
Ag 0.00000000 0.00000000 -3.555983689999998 0 0 0
Ag 0.00000000 2.37061000 -1.1853278999999972 0 0 0
Ag 0.04056586 9.46679397 1.25202292
Ag 6.31633830 2.37061000 3.41554456
Ag 0.00000000 4.74122000 -3.555983689999998 0 0 0
Ag 0.00000000 7.11183000 -1.1853278999999972 0 0 0
Ag 0.04056586 4.75686603 1.25202292
Ag 0.14550067 7.11183000 3.50799580
Ag 3.35255000 0.00000000 -3.555983689999998 0 0 0
Ag 3.35255000 2.37061000 -1.1853278999999972 0 0 0
Ag 3.31252055 9.47106107 1.25039622
Ag 3.76464545 2.37061000 3.41635792
Ag 3.35255000 4.74122000 -3.555983689999998 0 0 0
Ag 3.35255000 7.11183000 -1.1853278999999972 0 0 0
Ag 3.31252055 4.75259893 1.25039622
Ag 3.18760454 7.11183000 3.52236506
C 1.68713726 2.37061000 3.74088616
