&CONTROL
calculation = 'relax'
prefix = 'scf'
pseudo_dir = '/vol0403/data/hp230205/u10028/POT_HYBRID_KKJUS_GBRV'
outdir = './data'
tprnfor = .true.
nstep = 70
disk_io = 'non'
/
&SYSTEM
ibrav = 0
ecutwfc = 50.0
ecutrho = 400
occupations = 'smearing'
smearing = 'mp'
degauss = 0.01
assume_isolated = 'esm'
esm_bc = 'bc1'
input_dft = 'BEEF-VDW'
nosym = .true.
nspin = 1
ntyp = 4
nat = 32
/
&ELECTRONS
electron_maxstep = 200
mixing_beta = 0.1
conv_thr = 1e-06
/
&IONS
ion_dynamics = 'bfgs'
upscale = 1.0
/
&CELL
/

K_POINTS {automatic}
6 6 1 0 0 0

ATOMIC_SPECIES
Ag 107.8 Ag.pbe-n-rrkjus_psl.1.0.0.UPF
Li 6.941 Li.pbe-sl-rrkjus_psl.1.0.0.UPF
Pd 106.4 Pd.pbe-n-rrkjus_psl.1.0.0.UPF
Sn 118.7 Sn.pbe-dn-rrkjus_psl.1.0.0.UPF


CELL_PARAMETERS {angstrom}
6.55175000 0.00000000 0.00000000
-0.00000000 9.26558000 0.00000000
0.00000000 0.00000000 26.94920000

ATOMIC_POSITIONS {angstrom}
Li 1.63793750 0.00000000 -1.1582766200000023 0 0 0
Li 1.63793750 4.63279000 -1.1582766200000023 0 0 0
Li 4.91381250 2.31639500 -3.4745603600000017 0 0 0
Li 4.91381250 6.94918500 -3.4745603600000017 0 0 0
Li 1.58552350 4.63279000 3.51633162
Li 1.58552350 -0.00000000 3.51633162
Li 4.88177444 6.94918500 1.05452220
Li 4.88177444 2.31639500 1.05452220
Ag 0.00000000 0.00000000 -3.4745603600000017 0 0 0
Ag 0.00000000 4.63279000 -3.4745603600000017 0 0 0
Ag 3.27587500 6.94918500 -1.1582766200000023 0 0 0
Ag 3.27587500 2.31639500 -1.1582766200000023 0 0 0
Ag 6.47502901 4.63279000 1.24047168
Ag 6.47502901 -0.00000000 1.24047168
Ag 3.39302029 2.31639500 3.40233650
Ag 3.39302029 6.94918500 3.40233650
Sn 4.91381250 0.00000000 -1.1582766200000023 0 0 0
Sn 4.91381250 4.63279000 -1.1582766200000023 0 0 0
Sn 1.63793750 2.31639500 -3.4745603600000017 0 0 0
Sn 1.63793750 6.94918500 -3.4745603600000017 0 0 0
Sn 5.01379221 4.63279000 3.77612190
Sn 5.01379221 -0.00000000 3.77612190
Sn 1.64737202 6.94918500 1.15315627
Sn 1.64737202 2.31639500 1.15315627
Pd 0.00000000 2.31639500 -1.1582766200000023 0 0 0
Pd 0.00000000 6.94918500 -1.1582766200000023 0 0 0
Pd 3.27587500 4.63279000 -3.4745603600000017 0 0 0
Pd 3.27587500 0.00000000 -3.4745603600000017 0 0 0
Pd 6.40833219 6.94918500 3.21719550
Pd 6.40833219 2.31639500 3.21719550
Pd 3.30673374 -0.00000000 1.31134807
Pd 3.30673374 4.63279000 1.31134807
