&CONTROL
calculation = 'relax'
prefix = 'scf'
pseudo_dir = '/vol0004/mdt0/data/hp150275/u10028/POT_KKJUS'
outdir = './data'
tprnfor = .true.
nstep = 50
disk_io = 'non'
/
&SYSTEM
ibrav = 0
ecutwfc = 50.0
ecutrho = 400
occupations = 'smearing'
smearing = 'mp'
degauss = 0.01
assume_isolated = 'esm'
esm_bc = 'bc1'
input_dft = 'BEEF-VDW'
nosym = .true.
nspin = 1
ntyp = 4
nat = 33
/
&ELECTRONS
electron_maxstep = 200
mixing_beta = 0.1
conv_thr = 1e-06
/
&IONS
ion_dynamics = 'bfgs'
upscale = 1.0
/
&CELL
/

K_POINTS {automatic}
8 6 1 0 0 0

ATOMIC_SPECIES
Al 26.98 Al.pbe-nl-rrkjus_psl.1.0.0.UPF
Au 196.9 Au.pbe-n-rrkjus_psl.1.0.0.UPF
C 12.01 C.pbe-n-rrkjus_psl.1.0.0.UPF
Ti 47.86 Ti.pbe-spn-rrkjus_psl.1.0.0.UPF

CELL_PARAMETERS {angstrom}
6.49880000 0.00000000 0.00000000
0.00000000 9.19068000 0.00000000
0.00000000 0.00000000 26.89300000

ATOMIC_POSITIONS {angstrom}
Ti 0.00000000 0.00000000 -3.446606880000001 0 0 0
Ti 3.24940000 2.29767000 -1.1488689600000015 0 0 0
Ti 3.24940000 6.89301000 -1.1488689600000015 0 0 0
Ti 0.00000000 4.59534000 -3.446606880000001 0 0 0
Ti 0.00000000 4.59488047 1.35702078
Ti 3.24940000 6.99870282 3.28175279
Ti 3.24940000 2.19308006 3.28175279
Ti 0.00000000 9.19031237 1.36024794
Al 0.00000000 6.89301000 -1.1488689600000015 0 0 0
Al 3.24940000 0.00000000 -3.446606880000001 0 0 0
Al 0.00000000 2.29767000 -1.1488689600000015 0 0 0
Al 3.24940000 4.59534000 -3.446606880000001 0 0 0
Al 0.00000000 2.12231183 3.39577911
Al 3.24940000 4.59506428 1.14617966
Al 0.00000000 7.06827627 3.39631697
Al 3.24940000 9.19049619 1.12950600
Au 1.62470000 0.00000000 -1.1488689600000015 0 0 0
Au 4.87410000 4.59534000 -1.1488689600000015 0 0 0
Au 4.87410000 0.00000000 -1.1488689600000015 0 0 0
Au 1.62470000 4.59534000 -1.1488689600000015 0 0 0
Au 4.87410000 6.89301000 -3.446606880000001 0 0 0
Au 1.62470000 2.29767000 -3.446606880000001 0 0 0
Au 1.62470000 6.89301000 -3.446606880000001 0 0 0
Au 4.87410000 2.29767000 -3.446606880000001 0 0 0
Au 1.73868895 4.59653479 3.56090213
Au 4.59419668 0.00027572 4.28674420
Au 4.76011105 4.59644288 3.56090213
Au 1.90460332 0.00027572 4.28674420
Au 4.90120000 2.31963573 1.09642761
Au 1.59753502 6.87049283 1.09642761
Au 1.59753502 2.31963573 1.09642761
Au 4.90126498 6.87049283 1.09642761
C 0.00000000 9.19058809 3.37292006
