&CONTROL
calculation = 'relax'
prefix = 'scf'
pseudo_dir = '/vol0403/data/hp230205/u10028/POT_HYBRID_KKJUS_GBRV'
outdir = './data'
tprnfor = .true.
nstep = 70
disk_io = 'non'
/
&SYSTEM
ibrav = 0
ecutwfc = 50.0
ecutrho = 400
occupations = 'smearing'
smearing = 'mp'
degauss = 0.01
assume_isolated = 'esm'
esm_bc = 'bc1'
input_dft = 'BEEF-VDW'
nosym = .true.
nspin = 1
ntyp = 6
nat = 34
/
&ELECTRONS
electron_maxstep = 200
mixing_beta = 0.1
conv_thr = 1e-06
/
&IONS
ion_dynamics = 'bfgs'
upscale = 1.0
/
&CELL
/

K_POINTS {automatic}
6 6 1 0 0 0

ATOMIC_SPECIES
Au 196.9 Au.pbe-n-rrkjus_psl.1.0.0.UPF
C 12.01 C.pbe-n-rrkjus_psl.1.0.0.UPF
Ge 72.64 Ge.pbe-dn-rrkjus_psl.1.0.0.UPF
Li 6.941 Li.pbe-sl-rrkjus_psl.1.0.0.UPF
Mg 24.30 Mg.pbe-spnl-rrkjus_psl.1.0.0.UPF
O 15.99 O.pbe-n-rrkjus_psl.1.0.0.UPF


CELL_PARAMETERS {angstrom}
6.50951000 0.00000000 0.00000000
-0.00000000 9.20584000 0.00000000
0.00000000 0.00000000 26.90440000

ATOMIC_POSITIONS {angstrom}
Li 4.88213250 0.00000000 -1.1507011899999995 0 0 0
Li 4.88213250 4.60292000 -1.1507011899999995 0 0 0
Li 1.62737750 2.30146000 -3.4521035599999976 0 0 0
Li 1.62737750 6.90438000 -3.4521035599999976 0 0 0
Li 4.88213250 4.60292000 3.45210356
Li 4.88213250 -0.00000000 3.45210356
Li 1.62737750 6.90438000 1.15070119
Li 1.62737750 2.30146000 1.15070119
Mg 1.62737750 0.00000000 -1.1507011899999995 0 0 0
Mg 1.62737750 4.60292000 -1.1507011899999995 0 0 0
Mg 4.88213250 2.30146000 -3.4521035599999976 0 0 0
Mg 4.88213250 6.90438000 -3.4521035599999976 0 0 0
Mg 1.62737750 4.60292000 3.45210356
Mg 1.62737750 -0.00000000 3.45210356
Mg 4.88213250 6.90438000 1.15070119
Mg 4.88213250 2.30146000 1.15070119
Ge 0.00000000 2.30146000 -1.1507011899999995 0 0 0
Ge 0.00000000 6.90438000 -1.1507011899999995 0 0 0
Ge 3.25475500 4.60292000 -3.4521035599999976 0 0 0
Ge 3.25475500 0.00000000 -3.4521035599999976 0 0 0
Ge 0.00000000 6.90438000 3.45210356
Ge 0.00000000 2.30146000 3.45210356
Ge 3.25475500 -0.00000000 1.15070119
Ge 3.25475500 4.60292000 1.15070119
Au 0.00000000 0.00000000 -3.4521035599999976 0 0 0
Au 0.00000000 4.60292000 -3.4521035599999976 0 0 0
Au 3.25475500 6.90438000 -1.1507011899999995 0 0 0
Au 3.25475500 2.30146000 -1.1507011899999995 0 0 0
Au 0.00000000 4.60292000 1.15070119
Au 0.00000000 0.00000000 1.15070119
Au 3.25475500 2.30146000 3.45210356
Au 3.25475500 6.90438000 3.45210356
C 4.88213250 -0.00000000 5.35209229
O 4.88213250 -0.00000000 6.50225539
