&CONTROL
calculation = 'relax'
prefix = 'scf'
pseudo_dir = '/vol0004/mdt0/data/hp150275/u10028/POT_KKJUS'
outdir = './data'
tprnfor = .true.
nstep = 50
disk_io = 'non'
/
&SYSTEM
ibrav = 0
ecutwfc = 50.0
ecutrho = 400
occupations = 'smearing'
smearing = 'mp'
degauss = 0.01
assume_isolated = 'esm'
esm_bc = 'bc1'
input_dft = 'BEEF-VDW'
nosym = .true.
nspin = 1
ntyp = 3
nat = 17
/
&ELECTRONS
electron_maxstep = 200
mixing_beta = 0.1
conv_thr = 1e-06
/
&IONS
ion_dynamics = 'bfgs'
upscale = 1.0
/
&CELL
/

K_POINTS {automatic}
8 11 2 0  0  0

ATOMIC_SPECIES
C 12.01 C.pbe-n-rrkjus_psl.1.0.0.UPF
Nb 92.90 Nb.pbe-spn-rrkjus_psl.1.0.0.UPF
Ru 101.0 Ru.pbe-spn-rrkjus_psl.1.0.0.UPF

CELL_PARAMETERS {angstrom}
7.81108000 0.00000000 0.00000000
0.00000000 5.52327000 0.00000000
0.00000000 0.00000000 24.14240000

ATOMIC_POSITIONS {angstrom}
Nb 7.71453505 5.52177872 1.78122627
Nb 0.00000000 2.76163500 -0.6904726399999994 0 0 0
Nb 4.00208495 5.52177872 1.78122627
Nb 3.90554000 2.76163500 -0.6904726399999994 0 0 0
Ru 7.80084749 2.75732685 2.03061726
Ru 1.95277000 4.16338569 0.63784221
Ru 1.95277000 1.35833779 0.63663509
Ru 0.00000000 0.00000000 -0.6904726399999994 0 0 0
Ru 1.95277000 1.38081750 -2.0711765 0 0 0
Ru 1.95277000 4.14245250 -2.0711765 0 0 0
Ru 3.91577251 2.75738208 2.03061726
Ru 5.85823189 4.12477804 0.63953218
Ru 5.85823189 1.39374195 0.63808363
Ru 3.90554000 0.00000000 -0.6904726399999994 0 0 0
Ru 5.85831000 1.38081750 -2.0711765 0 0 0
Ru 5.85831000 4.14245250 -2.0711765 0 0 0
C 1.95277000 2.76053035 2.13056680
