&CONTROL
calculation = 'relax'
prefix = 'scf'
pseudo_dir = '/vol0403/data/hp230205/u10028/POT_HYBRID_KKJUS_GBRV'
outdir = './data'
tprnfor = .true.
nstep = 70
disk_io = 'non'
/
&SYSTEM
ibrav = 0
ecutwfc = 50.0
ecutrho = 400
occupations = 'smearing'
smearing = 'mp'
degauss = 0.01
assume_isolated = 'esm'
esm_bc = 'bc1'
input_dft = 'BEEF-VDW'
nosym = .true.
nspin = 1
ntyp = 5
nat = 33
/
&ELECTRONS
electron_maxstep = 200
mixing_beta = 0.1
conv_thr = 1e-06
/
&IONS
ion_dynamics = 'bfgs'
upscale = 1.0
/
&CELL
/

K_POINTS {automatic}
9 6 2 0  0  0

ATOMIC_SPECIES
C 12.01 C.pbe-n-rrkjus_psl.1.0.0.UPF
Cu 63.54 Cu.pbe-dn-rrkjus_psl.1.0.0.UPF
Li 6.941 Li.pbe-sl-rrkjus_psl.1.0.0.UPF
Mg 24.30 Mg.pbe-spnl-rrkjus_psl.1.0.0.UPF
Sn 118.7 Sn.pbe-dn-rrkjus_psl.1.0.0.UPF


CELL_PARAMETERS {angstrom}
6.48317000 0.00000000 0.00000000
-0.00000000 9.16858000 0.00000000
0.00000000 0.00000000 26.87640000

ATOMIC_POSITIONS {angstrom}
Li 0.00000000 2.29214500 -1.1460097000000005 0 0 0
Li 0.00000000 6.87643500 -1.1460097000000005 0 0 0
Li 3.24158500 4.58429000 -3.4382978500000014 0 0 0
Li 3.24158500 0.00000000 -3.4382978500000014 0 0 0
Li 6.37516039 6.87643500 3.91186002
Li 0.28532431 2.29214500 4.38622848
Li 3.24910548 9.16555437 1.20836294
Li 3.24910548 4.58731563 1.20836294
Mg 4.86237750 0.00000000 -1.1460097000000005 0 0 0
Mg 4.86237750 4.58429000 -1.1460097000000005 0 0 0
Mg 1.62079250 2.29214500 -3.4382978500000014 0 0 0
Mg 1.62079250 6.87643500 -3.4382978500000014 0 0 0
Mg 4.80642774 4.44621119 3.74522634
Mg 4.80642774 0.13807881 3.74522634
Mg 1.56464825 6.87643500 1.27394136
Mg 1.51057861 2.29214500 1.34892652
Cu 0.00000000 0.00000000 -3.4382978500000014 0 0 0
Cu 0.00000000 4.58429000 -3.4382978500000014 0 0 0
Cu 3.24158500 6.87643500 -1.1460097000000005 0 0 0
Cu 3.24158500 2.29214500 -1.1460097000000005 0 0 0
Cu 6.46806421 4.61958903 1.09252566
Cu 6.46806421 9.13328097 1.09252566
Cu 2.92663260 2.29214500 3.58477423
Cu 3.28424426 6.87643500 3.37218191
Sn 1.62079250 0.00000000 -1.1460097000000005 0 0 0
Sn 1.62079250 4.58429000 -1.1460097000000005 0 0 0
Sn 4.86237750 2.29214500 -3.4382978500000014 0 0 0
Sn 4.86237750 6.87643500 -3.4382978500000014 0 0 0
Sn 1.56250880 4.69486307 3.52967761
Sn 1.56250880 9.05800693 3.52967761
Sn 4.90737070 6.87643500 1.22153238
Sn 4.97252656 2.29223669 1.34758270
C 4.85414387 2.29214500 3.69335489
