&CONTROL
calculation = 'relax'
prefix = 'scf'
pseudo_dir = '/vol0004/mdt0/data/hp150275/u10028/POT_HYBRID_KKJUS_GBRV'
outdir = './data'
tprnfor = .true.
nstep = 50
disk_io = 'non'
/
&SYSTEM
ibrav = 0
ecutwfc = 50.0
ecutrho = 400
occupations = 'smearing'
smearing = 'mp'
degauss = 0.01
assume_isolated = 'esm'
esm_bc = 'bc1'
input_dft = 'BEEF-VDW'
nosym = .true.
nspin = 2
ntyp = 5
nat = 34
starting_magnetization(1) = 0.0
starting_magnetization(2) = 0.0
starting_magnetization(3) = 0.001
starting_magnetization(4) = 0.0
starting_magnetization(5) = 0.0
/
&ELECTRONS
electron_maxstep = 300
mixing_beta = 0.1
conv_thr = 1e-06
/
&IONS
ion_dynamics = 'bfgs'
upscale = 1.0
/
&CELL
/

K_POINTS {automatic}
8 6 1 0 0 0

ATOMIC_SPECIES
Al 26.98 Al.pbe-nl-rrkjus_psl.1.0.0.UPF
C 12.01 C.pbe-n-rrkjus_psl.1.0.0.UPF
Ni 58.69 ni_pbe_v1.4.uspp.F.UPF
O 15.99 O.pbe-n-rrkjus_psl.1.0.0.UPF
Zr 91.22 Zr.pbe-spn-rrkjus_psl.1.0.0.UPF

CELL_PARAMETERS {angstrom}
6.14873000 0.00000000 0.00000000
0.00000000 8.69561000 0.00000000
0.00000000 0.00000000 26.52170000

ATOMIC_POSITIONS {angstrom}
Zr 0.00000000 0.00000000 -3.2608430099999985 0 0 0
Zr 3.07436500 2.17390250 -1.086859269999998 0 0 0
Zr 3.07436500 6.52170750 -1.086859269999998 0 0 0
Zr 0.00000000 4.34780500 -3.2608430099999985 0 0 0
Zr 0.00000000 4.36693534 1.04840280
Zr 3.07436500 6.52170750 3.39902107
Zr 3.07436500 2.17390250 3.36719503
Zr 0.00000000 8.67647966 1.04840280
Al 0.00000000 6.52170750 -1.086859269999998 0 0 0
Al 3.07436500 0.00000000 -3.2608430099999985 0 0 0
Al 0.00000000 2.17390250 -1.086859269999998 0 0 0
Al 3.07436500 4.34780500 -3.2608430099999985 0 0 0
Al 0.00000000 2.17390250 3.15793882
Al 3.07436500 4.33710940 1.13857658
Al 0.00000000 6.52170750 3.17438227
Al 3.07436500 0.01069560 1.13857658
Ni 1.53718250 0.00000000 -1.086859269999998 0 0 0
Ni 4.61154750 4.34780500 -1.086859269999998 0 0 0
Ni 4.61154750 0.00000000 -1.086859269999998 0 0 0
Ni 1.53718250 4.34780500 -1.086859269999998 0 0 0
Ni 4.61154750 6.52170750 -3.2608430099999985 0 0 0
Ni 1.53718250 2.17390250 -3.2608430099999985 0 0 0
Ni 1.53718250 6.52170750 -3.2608430099999985 0 0 0
Ni 4.61154750 2.17390250 -3.2608430099999985 0 0 0
Ni 1.45884768 4.35537018 3.11550410
Ni 4.68988232 8.68813178 3.11550410
Ni 4.68988232 4.35528322 3.11550410
Ni 1.45884768 8.68813178 3.11550410
Ni 4.54563311 2.17381554 1.11072880
Ni 1.68247699 6.52170750 1.18737651
Ni 1.60309689 2.17381554 1.11072880
Ni 4.46625301 6.52170750 1.18737651
C 3.07436500 2.17390250 5.71728287
O 3.07436500 2.17390250 6.86461161
