&CONTROL
calculation = 'relax'
prefix = 'scf'
pseudo_dir = '/vol0004/mdt0/data/hp150275/u10028/POT_HYBRID_KKJUS_GBRV'
outdir = './data'
tprnfor = .true.
nstep = 50
disk_io = 'non'
/
&SYSTEM
ibrav = 0
ecutwfc = 50.0
ecutrho = 400
occupations = 'smearing'
smearing = 'mp'
degauss = 0.01
assume_isolated = 'esm'
esm_bc = 'bc1'
input_dft = 'BEEF-VDW'
nosym = .true.
nspin = 2
ntyp = 5
nat = 34
starting_magnetization(1) = 0.0
starting_magnetization(2) = 0.0
starting_magnetization(3) = 0.001
starting_magnetization(4) = 0.0
starting_magnetization(5) = 0.0
/
&ELECTRONS
electron_maxstep = 300
mixing_beta = 0.1
conv_thr = 1e-06
/
&IONS
ion_dynamics = 'bfgs'
upscale = 1.0
/
&CELL
/

K_POINTS {automatic}
8 6 1 0 0 0

ATOMIC_SPECIES
C 12.01 C.pbe-n-rrkjus_psl.1.0.0.UPF
In 114.8 In.pbe-dn-rrkjus_psl.1.0.0.UPF
Ni 58.69 ni_pbe_v1.4.uspp.F.UPF
O 15.99 O.pbe-n-rrkjus_psl.1.0.0.UPF
Zr 91.22 Zr.pbe-spn-rrkjus_psl.1.0.0.UPF

CELL_PARAMETERS {angstrom}
6.34973000 0.00000000 0.00000000
0.00000000 8.97987000 0.00000000
0.00000000 0.00000000 26.73490000

ATOMIC_POSITIONS {angstrom}
Zr 0.00000000 0.00000000 -3.367528 0 0 0
Zr 3.17486500 2.24496750 -1.1225984499999981 0 0 0
Zr 3.17486500 6.73490250 -1.1225984499999981 0 0 0
Zr 0.00000000 4.48993500 -3.367528 0 0 0
Zr 0.00000000 4.50987031 1.15361094
Zr 3.17486500 6.73490250 3.36485451
Zr 3.17486500 2.24505730 3.33571347
Zr 0.00000000 8.95993469 1.15361094
In 0.00000000 6.73490250 -1.1225984499999981 0 0 0
In 3.17486500 0.00000000 -3.367528 0 0 0
In 0.00000000 2.24496750 -1.1225984499999981 0 0 0
In 3.17486500 4.48993500 -3.367528 0 0 0
In 0.00000000 2.24496750 3.53194764
In 3.17486500 4.46137901 1.08597164
In 0.00000000 6.73490250 3.52392717
In 3.17486500 0.02855599 1.08597164
Ni 1.58743250 0.00000000 -1.1225984499999981 0 0 0
Ni 4.76229750 4.48993500 -1.1225984499999981 0 0 0
Ni 4.76229750 0.00000000 -1.1225984499999981 0 0 0
Ni 1.58743250 4.48993500 -1.1225984499999981 0 0 0
Ni 4.76229750 6.73490250 -3.367528 0 0 0
Ni 1.58743250 2.24496750 -3.367528 0 0 0
Ni 1.58743250 6.73490250 -3.367528 0 0 0
Ni 4.76229750 2.24496750 -3.367528 0 0 0
Ni 1.58571807 4.50502118 3.22797183
Ni 4.76382144 8.96478382 3.22797183
Ni 4.76401193 4.50502118 3.22797183
Ni 1.58590856 8.96478382 3.22797183
Ni 4.80903151 2.24496750 1.14318432
Ni 1.65943844 6.73481270 1.20601134
Ni 1.54069849 2.24505730 1.14318432
Ni 4.69029156 6.73481270 1.20627869
C 3.17486500 2.24496750 5.65817424
O 3.17486500 2.24496750 6.80777494
