&CONTROL
calculation = 'relax'
prefix = 'scf'
pseudo_dir = '/vol0004/mdt0/data/hp150275/u10028/POT_KKJUS'
outdir = './data'
tprnfor = .true.
nstep = 50
disk_io = 'non'
/
&SYSTEM
ibrav = 0
ecutwfc = 50.0
ecutrho = 400
occupations = 'smearing'
smearing = 'mp'
degauss = 0.01
assume_isolated = 'esm'
esm_bc = 'bc1'
input_dft = 'BEEF-VDW'
nosym = .true.
nspin = 1
ntyp = 4
nat = 18
/
&ELECTRONS
electron_maxstep = 200
mixing_beta = 0.1
conv_thr = 1e-06
/
&IONS
ion_dynamics = 'bfgs'
upscale = 1.0
/
&CELL
/

K_POINTS {automatic}
9 9 2 0  0  0

ATOMIC_SPECIES
Ag 107.8 Ag.pbe-n-rrkjus_psl.1.0.0.UPF
C 12.01 C.pbe-n-rrkjus_psl.1.0.0.UPF
In 114.8 In.pbe-dn-rrkjus_psl.1.0.0.UPF
O 15.99 O.pbe-n-rrkjus_psl.1.0.0.UPF

CELL_PARAMETERS {angstrom}
7.14855000 0.00000000 0.00000000
0.00000000 7.14855000 0.00000000
0.00000000 0.00000000 25.36140000

ATOMIC_POSITIONS {angstrom}
In 1.78713750 1.78713750 -0.9213796599999995 0 0 0
In 1.78713750 1.78713750 2.13213290
In 1.78713750 5.36141250 -0.9213796599999995 0 0 0
In 1.78713750 5.36141250 2.83515091
In 5.36141250 1.78713750 -0.9213796599999995 0 0 0
In 5.36134101 1.78713750 2.83565813
In 5.36141250 5.36141250 -0.9213796599999995 0 0 0
In 5.36141250 5.36134101 3.26832362
Ag 0.00000000 0.00000000 -2.7085975200000014 0 0 0
Ag 6.95947085 6.95954234 1.01445600
Ag 0.00000000 3.57427500 -2.7085975200000014 0 0 0
Ag 6.95939937 3.76321118 1.01445600
Ag 3.57427500 0.00000000 -2.7085975200000014 0 0 0
Ag 3.76342563 6.95961382 1.01445600
Ag 3.57427500 3.57427500 -2.7085975200000014 0 0 0
Ag 3.76335415 3.76321118 1.01445600
C 1.78699453 1.78706601 5.60410856
O 1.78720899 1.78720899 6.74258180
