&CONTROL
calculation = 'relax'
prefix = 'scf'
pseudo_dir = '/vol0403/data/hp230205/u10028/POT_HYBRID_KKJUS_GBRV'
outdir = './data'
tprnfor = .true.
nstep = 70
disk_io = 'non'
/
&SYSTEM
ibrav = 0
ecutwfc = 50.0
ecutrho = 400
occupations = 'smearing'
smearing = 'mp'
degauss = 0.01
assume_isolated = 'esm'
esm_bc = 'bc1'
input_dft = 'BEEF-VDW'
nosym = .true.
nspin = 1
ntyp = 6
nat = 18
/
&ELECTRONS
electron_maxstep = 200
mixing_beta = 0.1
conv_thr = 1e-06
/
&IONS
ion_dynamics = 'bfgs'
upscale = 1.0
/
&CELL
/

K_POINTS {automatic}
6 6 1 0 0 0

ATOMIC_SPECIES
C 12.01 C.pbe-n-rrkjus_psl.1.0.0.UPF
Cu 63.54 Cu.pbe-dn-rrkjus_psl.1.0.0.UPF
Li 6.941 Li.pbe-sl-rrkjus_psl.1.0.0.UPF
O 15.99 O.pbe-n-rrkjus_psl.1.0.0.UPF
Pd 106.4 Pd.pbe-n-rrkjus_psl.1.0.0.UPF
Sn 118.7 Sn.pbe-dn-rrkjus_psl.1.0.0.UPF


CELL_PARAMETERS {angstrom}
6.33545000 0.00000000 0.00000000
-0.00000000 6.33545000 0.00000000
0.00000000 0.00000000 24.75160000

ATOMIC_POSITIONS {angstrom}
Li 1.58386250 1.58386250 -0.7920511999999995 0 0 0
Li 1.58386250 4.75158750 2.37590608
Li 4.75158750 1.58386250 2.37590608
Li 4.75158750 4.75158750 -0.7920511999999995 0 0 0
Cu 0.00000000 0.00000000 -2.37590608 0 0 0
Cu 0.00000000 3.16772500 0.79205120
Cu 3.16772500 -0.00000000 0.79205120
Cu 3.16772500 3.16772500 -2.37590608 0 0 0
Sn 4.75158750 1.58386250 -0.7920511999999995 0 0 0
Sn 4.75158750 4.75158750 2.37590608
Sn 1.58386250 1.58386250 2.37590608
Sn 1.58386250 4.75158750 -0.7920511999999995 0 0 0
Pd 0.00000000 3.16772500 -2.37590608 0 0 0
Pd 0.00000000 0.00000000 0.79205120
Pd 3.16772500 3.16772500 0.79205120
Pd 3.16772500 0.00000000 -2.37590608 0 0 0
C 4.75158750 1.58386250 4.27583890
O 4.75158750 1.58386250 5.42579824
