&CONTROL
calculation = 'relax'
prefix = 'scf'
pseudo_dir = '/vol0004/mdt0/data/hp150275/u10028/POT_KKJUS'
outdir = './data'
tprnfor = .true.
nstep = 50
disk_io = 'non'
/
&SYSTEM
ibrav = 0
ecutwfc = 50.0
ecutrho = 400
occupations = 'smearing'
smearing = 'mp'
degauss = 0.01
assume_isolated = 'esm'
esm_bc = 'bc1'
input_dft = 'BEEF-VDW'
nosym = .true.
nspin = 1
ntyp = 3
nat = 16
/
&ELECTRONS
electron_maxstep = 200
mixing_beta = 0.1
conv_thr = 1e-06
/
&IONS
ion_dynamics = 'bfgs'
upscale = 1.0
/
&CELL
/

K_POINTS {automatic}
8 8 1 0 0 0

ATOMIC_SPECIES
Ag 107.8 Ag.pbe-n-rrkjus_psl.1.0.0.UPF
Li 6.941 Li.pbe-sl-rrkjus_psl.1.0.0.UPF
Sn 118.7 Sn.pbe-dn-rrkjus_psl.1.0.0.UPF

CELL_PARAMETERS {angstrom}
6.65960000 0.00000000 0.00000000
0.00000000 6.65960000 0.00000000
0.00000000 0.00000000 24.99470000

ATOMIC_POSITIONS {angstrom}
Li 0.00006660 6.65946681 0.78133432
Li 3.32980000 0.00000000 -2.4974704200000026 0 0 0
Li 0.00000000 3.32980000 -2.4974704200000026 0 0 0
Li 3.32980000 3.32986660 0.77533559
Li 1.66490000 1.66490000 -0.8325734600000025 0 0 0
Li 1.67062726 4.98910594 2.73217066
Li 4.99470000 4.99470000 -0.8325734600000025 0 0 0
Li 4.98903934 1.67036087 2.73242060
Ag 1.66763044 1.66756384 2.48747254
Ag 1.66490000 4.99470000 -0.8325734600000025 0 0 0
Ag 4.99176978 4.99230254 2.48797244
Ag 4.99470000 1.66490000 -0.8325734600000025 0 0 0
Sn 0.00000000 0.00000000 -2.4974704200000026 0 0 0
Sn 3.32980000 3.32980000 -2.4974704200000026 0 0 0
Sn 3.32993319 0.00006660 0.95979648
Sn 6.65933362 3.32986660 0.96004643
