&CONTROL
calculation = 'relax'
prefix = 'scf'
pseudo_dir = '/vol0004/mdt0/data/hp150275/u10028/POT_HYBRID_KKJUS_GBRV'
outdir = './data'
tprnfor = .true.
nstep = 50
disk_io = 'non'
/
&SYSTEM
ibrav = 0
ecutwfc = 50.0
ecutrho = 400
occupations = 'smearing'
smearing = 'mp'
degauss = 0.01
assume_isolated = 'esm'
esm_bc = 'bc1'
input_dft = 'BEEF-VDW'
nosym = .true.
nspin = 2
ntyp = 2
nat = 32
starting_magnetization(1) = 0.1
starting_magnetization(2) = 0.1
/
&ELECTRONS
electron_maxstep = 200
mixing_beta = 0.1
conv_thr = 1e-06
/
&IONS
ion_dynamics = 'bfgs'
upscale = 1.0
/
&CELL
/

K_POINTS {automatic}
9 6 2 0  0  0

ATOMIC_SPECIES
Co 58.93 co_pbe_v1.2.uspp.F.UPF
Ti 47.86 Ti.pbe-spn-rrkjus_psl.1.0.0.UPF

CELL_PARAMETERS {angstrom}
5.98862000 0.00000000 0.00000000
0.00000000 8.46918000 0.00000000
0.00000000 0.00000000 26.35190000

ATOMIC_POSITIONS {angstrom}
Ti 0.00000000 0.00000000 -3.1759309900000012 0 0 0
Ti 0.00000000 2.11729500 -1.0585558200000023 0 0 0
Ti 0.00000000 4.23459000 1.08886051
Ti 0.00000000 2.11729500 3.25946651
Ti 0.00000000 4.23459000 -3.1759309900000012 0 0 0
Ti 0.00000000 6.35188500 -1.0585558200000023 0 0 0
Ti 0.00000000 0.00000000 1.08886051
Ti 0.00000000 6.35188500 3.25973003
Ti 2.99431000 0.00000000 -3.1759309900000012 0 0 0
Ti 2.99431000 2.11729500 -1.0585558200000023 0 0 0
Ti 2.99431000 4.23459000 1.08886051
Ti 2.99431000 2.11729500 3.25946651
Ti 2.99431000 4.23459000 -3.1759309900000012 0 0 0
Ti 2.99431000 6.35188500 -1.0585558200000023 0 0 0
Ti 2.99431000 0.00000000 1.08886051
Ti 2.99431000 6.35188500 3.25973003
Co 1.49715500 2.11729500 -3.1759309900000012 0 0 0
Co 1.49715500 0.00000000 -1.0585558200000023 0 0 0
Co 1.49715500 2.11721031 1.10467165
Co 1.49697534 8.46892592 2.96300764
Co 1.49715500 6.35188500 -3.1759309900000012 0 0 0
Co 1.49715500 4.23459000 -1.0585558200000023 0 0 0
Co 1.49715500 6.35196969 1.10467165
Co 1.49697534 4.23475938 2.96300764
Co 4.49146500 2.11729500 -3.1759309900000012 0 0 0
Co 4.49146500 0.00000000 -1.0585558200000023 0 0 0
Co 4.49146500 2.11721031 1.10467165
Co 4.49164466 8.46901062 2.96300764
Co 4.49146500 6.35188500 -3.1759309900000012 0 0 0
Co 4.49146500 4.23459000 -1.0585558200000023 0 0 0
Co 4.49146500 6.35196969 1.10440813
Co 4.49164466 4.23475938 2.96300764
