&CONTROL
calculation = 'relax'
prefix = 'scf'
pseudo_dir = '/vol0004/mdt0/data/hp150275/u10028/POT_KKJUS'
outdir = './data'
tprnfor = .true.
nstep = 50
disk_io = 'non'
/
&SYSTEM
ibrav = 0
ecutwfc = 50.0
ecutrho = 400
occupations = 'smearing'
smearing = 'mp'
degauss = 0.01
assume_isolated = 'esm'
esm_bc = 'bc1'
input_dft = 'BEEF-VDW'
nosym = .true.
nspin = 1
ntyp = 4
nat = 34
/
&ELECTRONS
electron_maxstep = 200
mixing_beta = 0.1
conv_thr = 1e-06
/
&IONS
ion_dynamics = 'bfgs'
upscale = 1.0
/
&CELL
/

K_POINTS {automatic}
8 6 1 0 0 0

ATOMIC_SPECIES
As 74.92 As.pbe-n-rrkjus_psl.1.0.0.UPF
C 12.01 C.pbe-n-rrkjus_psl.1.0.0.UPF
Na 22.98 Na.pbe-spnl-rrkjus_psl.1.0.0.UPF
O 15.99 O.pbe-n-rrkjus_psl.1.0.0.UPF

CELL_PARAMETERS {angstrom}
7.20118000 0.00000000 0.00000000
0.00000000 10.18400000 0.00000000
0.00000000 0.00000000 27.63800000

ATOMIC_POSITIONS {angstrom}
Na 1.80029500 0.00000000 -1.2730062800000006 0 0 0
Na 5.40088500 5.09200000 -1.2730062800000006 0 0 0
Na 5.40088500 0.00000000 -1.2730062800000006 0 0 0
Na 1.80029500 5.09200000 -1.2730062800000006 0 0 0
Na 5.40088500 7.63800000 -3.819018840000002 0 0 0
Na 1.80029500 2.54600000 -3.819018840000002 0 0 0
Na 1.80029500 7.63800000 -3.819018840000002 0 0 0
Na 5.40088500 2.54600000 -3.819018840000002 0 0 0
Na 0.00000000 7.63800000 -1.2730062800000006 0 0 0
Na 3.60059000 0.00000000 -3.819018840000002 0 0 0
Na 0.00000000 2.54600000 -1.2730062800000006 0 0 0
Na 3.60059000 5.09200000 -3.819018840000002 0 0 0
Na 2.04045435 5.06806760 4.06803722
Na 5.16079766 0.02393240 4.06776084
Na 5.16065364 5.06806760 4.06776084
Na 2.04052636 0.02393240 4.06776084
Na 5.35098082 2.54528712 1.21469010
Na 1.78726086 7.63810184 1.27881026
Na 1.85019918 2.54518528 1.21469010
Na 5.41391914 7.63800000 1.27881026
Na 7.20110799 2.54712024 3.47879506
Na 3.60059000 5.12489432 1.41838216
Na 0.00000000 7.63728712 3.69298956
Na 3.60059000 10.14937440 1.41478922
As 0.00000000 0.00000000 -3.819018840000002 0 0 0
As 3.60059000 2.54600000 -1.2730062800000006 0 0 0
As 3.60059000 7.63800000 -1.2730062800000006 0 0 0
As 0.00000000 5.09200000 -3.819018840000002 0 0 0
As 0.00000000 5.08843560 1.47144712
As 3.60059000 7.63789816 3.65899482
As 3.60059000 2.54549080 3.61035194
As 0.00000000 0.00325888 1.47144712
C 0.00000000 2.56372016 6.05907874
O 0.00007201 2.53367736 7.20108090
