&CONTROL
calculation = 'relax'
prefix = 'scf'
pseudo_dir = '/vol0004/mdt0/data/hp150275/u10028/POT_KKJUS'
outdir = './data'
tprnfor = .true.
nstep = 50
disk_io = 'non'
/
&SYSTEM
ibrav = 0
ecutwfc = 50.0
ecutrho = 400
occupations = 'smearing'
smearing = 'mp'
degauss = 0.01
assume_isolated = 'esm'
esm_bc = 'bc1'
input_dft = 'BEEF-VDW'
nosym = .true.
nspin = 1
ntyp = 2
nat = 32
/
&ELECTRONS
electron_maxstep = 200
mixing_beta = 0.1
conv_thr = 1e-06
/
&IONS
ion_dynamics = 'bfgs'
upscale = 1.0
/
&CELL
/

K_POINTS {automatic}
9 6 2 0  0  0

ATOMIC_SPECIES
In 114.8 In.pbe-dn-rrkjus_psl.1.0.0.UPF
Pd 106.4 Pd.pbe-n-rrkjus_psl.1.0.0.UPF

CELL_PARAMETERS {angstrom}
6.68646000 0.00000000 0.00000000
0.00000000 9.45609000 0.00000000
0.00000000 0.00000000 27.09210000

ATOMIC_POSITIONS {angstrom}
In 0.00000000 0.00000000 -3.546084969999999 0 0 0
In 0.00000000 2.36402250 -1.182028319999997 0 0 0
In 0.00000000 0.00000000 1.20261832
In 0.00000000 2.36402250 3.71053402
In 0.00000000 4.72804500 -3.546084969999999 0 0 0
In 0.00000000 7.09206750 -1.182028319999997 0 0 0
In 0.00000000 4.72804500 1.20261832
In 0.00000000 7.09206750 3.71053402
In 3.34323000 0.00000000 -3.546084969999999 0 0 0
In 3.34323000 2.36402250 -1.182028319999997 0 0 0
In 3.34323000 0.00000000 1.20261832
In 3.34323000 2.36402250 3.71053402
In 3.34323000 4.72804500 -3.546084969999999 0 0 0
In 3.34323000 7.09206750 -1.182028319999997 0 0 0
In 3.34323000 4.72804500 1.20261832
In 3.34323000 7.09206750 3.71053402
Pd 1.67161500 2.36402250 -3.546084969999999 0 0 0
Pd 1.67161500 0.00000000 -1.182028319999997 0 0 0
Pd 1.67154814 2.36402250 1.11944557
Pd 1.67154814 0.00000000 3.43798749
Pd 1.67161500 7.09206750 -3.546084969999999 0 0 0
Pd 1.67161500 4.72804500 -1.182028319999997 0 0 0
Pd 1.67154814 7.09206750 1.11917465
Pd 1.67154814 4.72804500 3.43798749
Pd 5.01484500 2.36402250 -3.546084969999999 0 0 0
Pd 5.01484500 0.00000000 -1.182028319999997 0 0 0
Pd 5.01491186 2.36402250 1.11944557
Pd 5.01491186 0.00000000 3.43798749
Pd 5.01484500 7.09206750 -3.546084969999999 0 0 0
Pd 5.01484500 4.72804500 -1.182028319999997 0 0 0
Pd 5.01491186 7.09206750 1.11944557
Pd 5.01491186 4.72804500 3.43798749
