&CONTROL
calculation = 'relax'
prefix = 'scf'
pseudo_dir = '/vol0403/data/hp230205/u10028/POT_HYBRID_KKJUS_GBRV'
outdir = './data'
tprnfor = .true.
nstep = 50
disk_io = 'non'
/
&SYSTEM
ibrav = 0
ecutwfc = 50.0
ecutrho = 400
occupations = 'smearing'
smearing = 'mp'
degauss = 0.01
assume_isolated = 'esm'
esm_bc = 'bc1'
input_dft = 'BEEF-VDW'
nosym = .true.
nspin = 2
ntyp = 5
nat = 17
starting_magnetization(1) = 0.0
starting_magnetization(2) = 0.0
starting_magnetization(3) = 0.1
starting_magnetization(4) = 0.0
starting_magnetization(5) = 0.0
/
&ELECTRONS
electron_maxstep = 200
mixing_beta = 0.1
conv_thr = 1e-06
/
&IONS
ion_dynamics = 'bfgs'
upscale = 1.0
/
&CELL
/

K_POINTS {automatic}
6 6 1 0 0 0

ATOMIC_SPECIES
Al 26.98 Al.pbe-nl-rrkjus_psl.1.0.0.UPF
C 12.01 C.pbe-n-rrkjus_psl.1.0.0.UPF
Co 58.93 co_pbe_v1.2.uspp.F.UPF
Li 6.941 Li.pbe-sl-rrkjus_psl.1.0.0.UPF
Pd 106.4 Pd.pbe-n-rrkjus_psl.1.0.0.UPF


CELL_PARAMETERS {angstrom}
5.87254000 0.00000000 0.00000000
0.00000000 5.87254000 0.00000000
0.00000000 0.00000000 24.40440000

ATOMIC_POSITIONS {angstrom}
Li 0.00000000 2.93627000 -2.2022530600000003 0 0 0
Li 0.00000000 0.00005873 0.61596706
Li 2.93627000 2.93621127 0.77337544
Li 2.93627000 0.00000000 -2.2022530600000003 0 0 0
Al 0.00000000 0.00000000 -2.2022530600000003 0 0 0
Al 0.00000000 2.93632873 0.79973219
Al 2.93627000 0.00000000 0.79973219
Al 2.93627000 2.93627000 -2.2022530600000003 0 0 0
Co 4.40440500 1.46813500 -0.7340843499999998 0 0 0
Co 4.63942405 4.63942405 2.26668067
Co 1.23299850 1.23305722 2.26570450
Co 1.46813500 4.40440500 -0.7340843499999998 0 0 0
Pd 1.46813500 1.46813500 -0.7340843499999998 0 0 0
Pd 1.51135689 4.36118311 2.27278177
Pd 4.36118311 1.51135689 2.27278177
Pd 4.40440500 4.40440500 -0.7340843499999998 0 0 0
C 0.00000000 0.00000000 2.67423415
