&CONTROL
calculation = 'relax'
prefix = 'scf'
pseudo_dir = '/vol0004/mdt0/data/hp150275/u10028/POT_KKJUS'
outdir = './data'
tprnfor = .true.
nstep = 50
disk_io = 'non'
/
&SYSTEM
ibrav = 0
ecutwfc = 50.0
ecutrho = 400
occupations = 'smearing'
smearing = 'mp'
degauss = 0.01
assume_isolated = 'esm'
esm_bc = 'bc1'
input_dft = 'BEEF-VDW'
nosym = .true.
nspin = 1
ntyp = 5
nat = 34
/
&ELECTRONS
electron_maxstep = 200
mixing_beta = 0.1
conv_thr = 1e-06
/
&IONS
ion_dynamics = 'bfgs'
upscale = 1.0
/
&CELL
/

K_POINTS {automatic}
9 6 2 0  0  0

ATOMIC_SPECIES
Ag 107.8 Ag.pbe-n-rrkjus_psl.1.0.0.UPF
C 12.01 C.pbe-n-rrkjus_psl.1.0.0.UPF
Li 6.941 Li.pbe-sl-rrkjus_psl.1.0.0.UPF
O 15.99 O.pbe-n-rrkjus_psl.1.0.0.UPF
Sn 118.7 Sn.pbe-dn-rrkjus_psl.1.0.0.UPF

CELL_PARAMETERS {angstrom}
6.65960000 0.00000000 0.00000000
0.00000000 9.41809000 0.00000000
0.00000000 0.00000000 27.06360000

ATOMIC_POSITIONS {angstrom}
Li 0.00000000 7.06356750 -1.1772665999999994 0 0 0
Li 3.32980000 0.00000000 -3.5317998000000017 0 0 0
Li 0.00000000 2.35452250 -1.1772665999999994 0 0 0
Li 3.32980000 4.70904500 -3.5317998000000017 0 0 0
Li 1.66490000 0.00000000 -1.1772665999999994 0 0 0
Li 1.66490000 4.70904500 -1.1772665999999994 0 0 0
Li 4.99470000 7.06356750 -3.5317998000000017 0 0 0
Li 4.99470000 2.35452250 -3.5317998000000017 0 0 0
Li 6.61091832 2.35452250 3.44979709
Li 3.25121672 4.72006417 0.99052776
Li 6.45601603 7.06356750 3.46630589
Li 3.25128332 9.40707083 0.99052776
Li 1.77191977 4.79908194 3.53612998
Li 1.77198637 9.32805306 3.53612998
Li 4.99356787 2.35452250 1.27063602
Li 4.83400385 7.06356750 1.26738839
Ag 1.66490000 2.35452250 -3.5317998000000017 0 0 0
Ag 1.66490000 7.06356750 -3.5317998000000017 0 0 0
Ag 4.99470000 4.70904500 -1.1772665999999994 0 0 0
Ag 4.99470000 0.00000000 -1.1772665999999994 0 0 0
Ag 1.78310790 7.06356750 1.36941816
Ag 1.50673450 2.35452250 1.03220570
Ag 4.74563096 0.01516312 3.30906637
Ag 4.74536458 4.69369351 3.30906637
Sn 0.00000000 0.00000000 -3.5317998000000017 0 0 0
Sn 3.32980000 2.35452250 -1.1772665999999994 0 0 0
Sn 3.32980000 7.06356750 -1.1772665999999994 0 0 0
Sn 0.00000000 4.70904500 -3.5317998000000017 0 0 0
Sn 0.00845769 4.77864469 1.26170503
Sn 3.33672598 7.06356750 3.87523688
Sn 3.15138932 2.35442832 3.74830860
Sn 0.00852429 9.34858450 1.26170503
C 3.50401514 2.35452250 6.02138036
O 3.37688337 2.35452250 7.16617064
