&CONTROL
calculation = 'relax'
prefix = 'scf'
pseudo_dir = '/vol0004/mdt0/data/hp150275/u10028/POT_HYBRID_KKJUS_GBRV'
outdir = './data'
tprnfor = .true.
nstep = 50
disk_io = 'non'
/
&SYSTEM
ibrav = 0
ecutwfc = 50.0
ecutrho = 400
occupations = 'smearing'
smearing = 'mp'
degauss = 0.01
assume_isolated = 'esm'
esm_bc = 'bc1'
input_dft = 'BEEF-VDW'
nosym = .true.
nspin = 2
ntyp = 2
nat = 32
starting_magnetization(1) = 0.1
starting_magnetization(2) = 0.0
/
&ELECTRONS
electron_maxstep = 200
mixing_beta = 0.1
conv_thr = 1e-06
/
&IONS
ion_dynamics = 'bfgs'
upscale = 1.0
/
&CELL
/

K_POINTS {automatic}
7 7 2 0  0  0

ATOMIC_SPECIES
Fe 55.84 fe_pbe_v1.5.uspp.F.UPF
Pt 195.0 Pt.pbe-n-rrkjus_psl.1.0.0.UPF

CELL_PARAMETERS {angstrom}
7.88854000 0.00000000 0.00000000
-0.00000000 7.88854000 0.00000000
0.00000000 0.00000000 25.91640000

ATOMIC_POSITIONS {angstrom}
Fe 0.00000000 0.00000000 22.95830210
Fe 0.00000000 0.00000000 0.98611902
Fe 0.00000000 3.94427000 22.95830210
Fe 0.00000000 3.94427000 0.98611902
Fe 3.94427000 0.00000000 22.95830210
Fe 3.94427000 -0.00000000 0.98611902
Fe 3.94427000 3.94427000 22.95830210
Fe 3.94427000 3.94427000 0.98611902
Pt 0.00000000 1.97213500 24.93028098
Pt 1.97213500 0.00000000 24.93028098
Pt 1.97213500 1.97213500 22.95830210
Pt 0.00000000 1.97213500 2.95809790
Pt 1.97213500 -0.00000000 2.95809790
Pt 1.97213500 1.97213500 0.98611902
Pt 0.00000000 5.91640500 24.93028098
Pt 1.97213500 3.94427000 24.93028098
Pt 1.97213500 5.91640500 22.95830210
Pt 0.00000000 5.91640500 2.95809790
Pt 1.97213500 3.94427000 2.95809790
Pt 1.97213500 5.91640500 0.98611902
Pt 3.94427000 1.97213500 24.93028098
Pt 5.91640500 0.00000000 24.93028098
Pt 5.91640500 1.97213500 22.95830210
Pt 3.94427000 1.97213500 2.95809790
Pt 5.91640500 -0.00000000 2.95809790
Pt 5.91640500 1.97213500 0.98611902
Pt 3.94427000 5.91640500 24.93028098
Pt 5.91640500 3.94427000 24.93028098
Pt 5.91640500 5.91640500 22.95830210
Pt 3.94427000 5.91640500 2.95809790
Pt 5.91640500 3.94427000 2.95809790
Pt 5.91640500 5.91640500 0.98611902
