&CONTROL
calculation = 'relax'
prefix = 'scf'
pseudo_dir = '/vol0004/mdt0/data/hp150275/u10028/POT_KKJUS'
outdir = './data'
tprnfor = .true.
nstep = 50
disk_io = 'non'
/
&SYSTEM
ibrav = 0
ecutwfc = 50.0
ecutrho = 400
occupations = 'smearing'
smearing = 'mp'
degauss = 0.01
assume_isolated = 'esm'
esm_bc = 'bc1'
input_dft = 'BEEF-VDW'
nosym = .true.
nspin = 1
ntyp = 5
nat = 34
/
&ELECTRONS
electron_maxstep = 200
mixing_beta = 0.1
conv_thr = 1e-06
/
&IONS
ion_dynamics = 'bfgs'
upscale = 1.0
/
&CELL
/

K_POINTS {automatic}
8 6 1 0 0 0

ATOMIC_SPECIES
C 12.01 C.pbe-n-rrkjus_psl.1.0.0.UPF
Mg 24.30 Mg.pbe-spnl-rrkjus_psl.1.0.0.UPF
Ni 58.69 Ni.pbe-spn-rrkjus_psl.1.0.0.UPF
O 15.99 O.pbe-n-rrkjus_psl.1.0.0.UPF
Sb 121.7 Sb.pbe-n-rrkjus_psl.1.0.0.UPF

CELL_PARAMETERS {angstrom}
6.22749000 0.00000000 0.00000000
0.00000000 8.80700000 0.00000000
0.00000000 0.00000000 26.60530000

ATOMIC_POSITIONS {angstrom}
Mg 0.00000000 0.00000000 -3.3025158899999987 0 0 0
Mg 3.11374500 2.20175000 -1.1009273099999994 0 0 0
Mg 3.11374500 6.60525000 -1.1009273099999994 0 0 0
Mg 0.00000000 4.40350000 -3.3025158899999987 0 0 0
Mg 6.22742773 4.39627826 1.04106539
Mg 3.11368273 6.60489772 3.54196359
Mg 3.11368273 2.20210228 3.53690858
Mg 6.22742773 0.00730981 1.04133144
Ni 1.55687250 0.00000000 -1.1009273099999994 0 0 0
Ni 4.67061750 4.40350000 -1.1009273099999994 0 0 0
Ni 4.67061750 0.00000000 -1.1009273099999994 0 0 0
Ni 1.55687250 4.40350000 -1.1009273099999994 0 0 0
Ni 4.67061750 6.60525000 -3.3025158899999987 0 0 0
Ni 1.55687250 2.20175000 -3.3025158899999987 0 0 0
Ni 1.55687250 6.60525000 -3.3025158899999987 0 0 0
Ni 4.67061750 2.20175000 -3.3025158899999987 0 0 0
Ni 1.48700006 4.40420456 3.10537062
Ni 4.73955581 8.80629544 3.10590272
Ni 4.74030311 4.40420456 3.10563667
Ni 1.48780964 8.80629544 3.10563667
Ni 4.66439001 2.20175000 1.19963298
Ni 1.54186425 6.60533807 1.22357775
Ni 1.56309999 2.20183807 1.19936692
Ni 4.68556348 6.60525000 1.22331169
Sb 0.00000000 6.60525000 -1.1009273099999994 0 0 0
Sb 3.11374500 0.00000000 -3.3025158899999987 0 0 0
Sb 0.00000000 2.20175000 -1.1009273099999994 0 0 0
Sb 3.11374500 4.40350000 -3.3025158899999987 0 0 0
Sb 6.22742773 2.20157386 3.45123952
Sb 3.11368273 4.40931262 1.12380787
Sb 6.22742773 6.60542614 3.48502825
Sb 3.11374500 8.80118738 1.12354182
C 0.00249100 2.19778685 7.54552913
O 6.22705408 2.20227842 8.68184150
