&CONTROL
calculation = 'relax'
prefix = 'scf'
pseudo_dir = '/vol0004/mdt0/data/hp150275/u10028/POT_KKJUS'
outdir = './data'
tprnfor = .true.
nstep = 50
disk_io = 'non'
/
&SYSTEM
ibrav = 0
ecutwfc = 50.0
ecutrho = 400
occupations = 'smearing'
smearing = 'mp'
degauss = 0.01
assume_isolated = 'esm'
esm_bc = 'bc1'
input_dft = 'BEEF-VDW'
nosym = .true.
nspin = 1
ntyp = 4
nat = 18
/
&ELECTRONS
electron_maxstep = 200
mixing_beta = 0.1
conv_thr = 1e-06
/
&IONS
ion_dynamics = 'bfgs'
upscale = 1.0
/
&CELL
/

K_POINTS {automatic}
6 8 1 0 0 0

ATOMIC_SPECIES
C 12.01 C.pbe-n-rrkjus_psl.1.0.0.UPF
O 15.99 O.pbe-n-rrkjus_psl.1.0.0.UPF
Pd 106.4 Pd.pbe-n-rrkjus_psl.1.0.0.UPF
Y 88.90 Y.pbe-spn-rrkjus_psl.1.0.0.UPF

CELL_PARAMETERS {angstrom}
8.33346000 0.00000000 0.00000000
0.00000000 5.89265000 0.00000000
0.00000000 0.00000000 24.41950000

ATOMIC_POSITIONS {angstrom}
Y 0.00000000 0.00000000 -2.209720560000001 0 0 0
Y 8.31895978 2.95964239 0.71134003
Y 4.16673000 0.00000000 -2.209720560000001 0 0 0
Y 4.18298025 2.95557646 0.71622393
Pd 0.00000000 2.94632500 -2.209720560000001 0 0 0
Pd 2.08336500 4.41948750 -0.7364921199999976 0 0 0
Pd 2.08336500 1.47316250 -0.7364921199999976 0 0 0
Pd 0.00450007 0.03806652 0.63490700
Pd 2.08511503 1.41429493 2.16991677
Pd 2.08294833 4.21866599 2.24757078
Pd 4.16673000 2.94632500 -2.209720560000001 0 0 0
Pd 6.25009500 4.41948750 -0.7364921199999976 0 0 0
Pd 6.25009500 1.47316250 -0.7364921199999976 0 0 0
Pd 4.16122992 0.04478414 0.63466280
Pd 6.24917832 1.50845947 2.08347174
Pd 6.25017833 4.51553770 2.08371593
C 2.08069829 2.67785587 3.69686810
O 2.08061496 2.65393171 4.86607377
