&CONTROL
calculation = 'relax'
prefix = 'scf'
pseudo_dir = '/vol0004/mdt0/data/hp150275/u10028/POT_KKJUS'
outdir = './data'
tprnfor = .true.
nstep = 50
disk_io = 'non'
/
&SYSTEM
ibrav = 0
ecutwfc = 50.0
ecutrho = 400
occupations = 'smearing'
smearing = 'mp'
degauss = 0.01
assume_isolated = 'esm'
esm_bc = 'bc1'
input_dft = 'BEEF-VDW'
nosym = .true.
nspin = 1
ntyp = 5
nat = 34
/
&ELECTRONS
electron_maxstep = 200
mixing_beta = 0.1
conv_thr = 1e-06
/
&IONS
ion_dynamics = 'bfgs'
upscale = 1.0
/
&CELL
/

K_POINTS {automatic}
9 6 2 0  0  0

ATOMIC_SPECIES
C 12.01 C.pbe-n-rrkjus_psl.1.0.0.UPF
Cu 63.54 Cu.pbe-dn-rrkjus_psl.1.0.0.UPF
Li 6.941 Li.pbe-sl-rrkjus_psl.1.0.0.UPF
O 15.99 O.pbe-n-rrkjus_psl.1.0.0.UPF
Sn 118.7 Sn.pbe-dn-rrkjus_psl.1.0.0.UPF

CELL_PARAMETERS {angstrom}
6.34973000 0.00000000 0.00000000
0.00000000 8.97987000 0.00000000
0.00000000 0.00000000 26.73490000

ATOMIC_POSITIONS {angstrom}
Li 0.00000000 6.73490250 -1.1225984499999981 0 0 0
Li 3.17486500 0.00000000 -3.367528 0 0 0
Li 0.00000000 2.24496750 -1.1225984499999981 0 0 0
Li 3.17486500 4.48993500 -3.367528 0 0 0
Li 1.58743250 0.00000000 -1.1225984499999981 0 0 0
Li 1.58743250 4.48993500 -1.1225984499999981 0 0 0
Li 4.76229750 6.73490250 -3.367528 0 0 0
Li 4.76229750 2.24496750 -3.367528 0 0 0
Li 6.25962733 2.29983451 3.32796035
Li 3.06653861 4.48993500 1.08730838
Li 6.25962733 6.68003549 3.32796035
Li 3.10831983 0.00000000 1.26028319
Li 1.74554078 4.48993500 3.99285732
Li 1.57371708 0.00000000 3.85784607
Li 4.73480317 2.23975918 1.15655177
Li 4.73480317 6.74011082 1.15655177
Cu 1.58743250 2.24496750 -3.367528 0 0 0
Cu 1.58743250 6.73490250 -3.367528 0 0 0
Cu 4.76229750 4.48993500 -1.1225984499999981 0 0 0
Cu 4.76229750 0.00000000 -1.1225984499999981 0 0 0
Cu 1.59124234 6.75708278 1.09051657
Cu 1.59124234 2.22278722 1.09051657
Cu 4.71397605 0.00000000 3.34934827
Cu 4.52926241 4.48993500 3.11835874
Sn 0.00000000 0.00000000 -3.367528 0 0 0
Sn 3.17486500 2.24496750 -1.1225984499999981 0 0 0
Sn 3.17486500 6.73490250 -1.1225984499999981 0 0 0
Sn 0.00000000 4.48993500 -3.367528 0 0 0
Sn 0.09016617 4.48993500 1.27498738
Sn 3.10774835 6.74675593 3.40094663
Sn 3.10774835 2.23311407 3.40094663
Sn 0.05028986 0.00000000 1.21162567
C 5.35917212 0.00000000 5.09460254
O 5.50985121 0.00008980 6.24634204
