&CONTROL
calculation = 'relax'
prefix = 'scf'
pseudo_dir = '/vol0403/data/hp230205/u10028/POT_HYBRID_KKJUS_GBRV'
outdir = './data'
tprnfor = .true.
nstep = 50
disk_io = 'non'
/
&SYSTEM
ibrav = 0
ecutwfc = 50.0
ecutrho = 400
occupations = 'smearing'
smearing = 'mp'
degauss = 0.01
assume_isolated = 'esm'
esm_bc = 'bc1'
input_dft = 'BEEF-VDW'
nosym = .true.
nspin = 1
ntyp = 6
nat = 18
/
&ELECTRONS
electron_maxstep = 200
mixing_beta = 0.1
conv_thr = 1e-06
/
&IONS
ion_dynamics = 'bfgs'
upscale = 1.0
/
&CELL
/

K_POINTS {automatic}
9 9 2 0  0  0

ATOMIC_SPECIES
Ag 107.8 Ag.pbe-n-rrkjus_psl.1.0.0.UPF
Al 26.98 Al.pbe-nl-rrkjus_psl.1.0.0.UPF
C 12.01 C.pbe-n-rrkjus_psl.1.0.0.UPF
Li 6.941 Li.pbe-sl-rrkjus_psl.1.0.0.UPF
O 15.99 O.pbe-n-rrkjus_psl.1.0.0.UPF
Pd 106.4 Pd.pbe-n-rrkjus_psl.1.0.0.UPF


CELL_PARAMETERS {angstrom}
6.21941000 0.00000000 0.00000000
0.00000000 6.21941000 0.00000000
0.00000000 0.00000000 24.66460000

ATOMIC_POSITIONS {angstrom}
Li 1.55304887 1.54714043 0.83169031
Li 1.55485250 4.66455750 -2.3322845799999996 0 0 0
Li 4.66455750 1.55485250 -2.3322845799999996 0 0 0
Li 4.66636113 4.67226957 0.83169031
Al 4.65311379 1.54353317 0.81121869
Al 4.66455750 4.66455750 -2.3322845799999996 0 0 0
Al 1.55485250 1.55485250 -2.3322845799999996 0 0 0
Al 1.56629621 4.67587683 0.81121869
Ag 0.00000000 0.00000000 2.42354360
Ag 0.00000000 3.10970500 -0.7774281899999984 0 0 0
Ag 3.10970500 0.00000000 -0.7774281899999984 0 0 0
Ag 3.10976719 3.10970500 2.42058384
Pd 0.00000000 3.10970500 2.28122885
Pd 0.00000000 0.00000000 -0.7774281899999984 0 0 0
Pd 3.10970500 3.10970500 -0.7774281899999984 0 0 0
Pd 3.10970500 0.00000000 2.17788418
C 0.00000000 3.10970500 4.27092214
O 0.00000000 3.10970500 5.41979920
