&CONTROL
calculation = 'relax'
prefix = 'scf'
pseudo_dir = '/vol0403/data/hp230205/u10028/POT_HYBRID_KKJUS_GBRV'
outdir = './data'
tprnfor = .true.
nstep = 70
disk_io = 'non'
/
&SYSTEM
ibrav = 0
ecutwfc = 50.0
ecutrho = 400
occupations = 'smearing'
smearing = 'mp'
degauss = 0.01
assume_isolated = 'esm'
esm_bc = 'bc1'
input_dft = 'BEEF-VDW'
nosym = .true.
nspin = 1
ntyp = 5
nat = 33
/
&ELECTRONS
electron_maxstep = 200
mixing_beta = 0.1
conv_thr = 1e-06
/
&IONS
ion_dynamics = 'bfgs'
upscale = 1.0
/
&CELL
/

K_POINTS {automatic}
9 6 2 0  0  0

ATOMIC_SPECIES
C 12.01 C.pbe-n-rrkjus_psl.1.0.0.UPF
Cu 63.54 Cu.pbe-dn-rrkjus_psl.1.0.0.UPF
Ge 72.64 Ge.pbe-dn-rrkjus_psl.1.0.0.UPF
Li 6.941 Li.pbe-sl-rrkjus_psl.1.0.0.UPF
Mg 24.30 Mg.pbe-spnl-rrkjus_psl.1.0.0.UPF


CELL_PARAMETERS {angstrom}
6.17522000 0.00000000 0.00000000
-0.00000000 8.73308000 0.00000000
0.00000000 0.00000000 26.54980000

ATOMIC_POSITIONS {angstrom}
Li 0.00000000 2.18327000 -1.091727780000003 0 0 0
Li 0.00000000 6.54981000 -1.091727780000003 0 0 0
Li 3.08761000 4.36654000 -3.2749178299999997 0 0 0
Li 3.08761000 0.00000000 -3.2749178299999997 0 0 0
Li 0.70632166 6.54963534 4.44257803
Li 0.48617507 2.18335733 4.35655668
Li 3.17369257 8.71797177 1.17323566
Li 3.17375432 4.38173556 1.17297016
Mg 4.63141500 0.00000000 -1.091727780000003 0 0 0
Mg 4.63141500 4.36654000 -1.091727780000003 0 0 0
Mg 1.54380500 2.18327000 -3.2749178299999997 0 0 0
Mg 1.54380500 6.54981000 -3.2749178299999997 0 0 0
Mg 4.88280821 4.37745635 3.51758300
Mg 4.88330222 8.72198899 3.51758300
Mg 1.43777647 6.54989733 1.31315311
Mg 1.48409062 2.18327000 1.36200474
Cu 0.00000000 0.00000000 -3.2749178299999997 0 0 0
Cu 0.00000000 4.36654000 -3.2749178299999997 0 0 0
Cu 3.08761000 6.54981000 -1.091727780000003 0 0 0
Cu 3.08761000 2.18327000 -1.091727780000003 0 0 0
Cu 6.17355269 4.38767405 1.00039646
Cu 6.17355269 8.71194595 1.00039646
Cu 2.92723954 2.18309534 3.50775958
Cu 3.16807312 6.54981000 3.21226030
Ge 1.54380500 0.00000000 -1.091727780000003 0 0 0
Ge 1.54380500 4.36654000 -1.091727780000003 0 0 0
Ge 4.63141500 2.18327000 -3.2749178299999997 0 0 0
Ge 4.63141500 6.54981000 -3.2749178299999997 0 0 0
Ge 1.66595085 4.43256208 3.34368181
Ge 1.66601260 8.66697058 3.34394731
Ge 4.71403944 6.54981000 1.17960761
Ge 4.83896414 2.18327000 1.34979183
C 4.85563724 2.18318267 3.40580834
