&CONTROL
calculation = 'relax'
prefix = 'scf'
pseudo_dir = '/vol0403/data/hp230205/u10028/POT_HYBRID_KKJUS_GBRV'
outdir = './data'
tprnfor = .true.
nstep = 50
disk_io = 'non'
/
&SYSTEM
ibrav = 0
ecutwfc = 50.0
ecutrho = 400
occupations = 'smearing'
smearing = 'mp'
degauss = 0.01
assume_isolated = 'esm'
esm_bc = 'bc1'
input_dft = 'BEEF-VDW'
nosym = .true.
nspin = 1
ntyp = 6
nat = 34
/
&ELECTRONS
electron_maxstep = 200
mixing_beta = 0.1
conv_thr = 1e-06
/
&IONS
ion_dynamics = 'bfgs'
upscale = 1.0
/
&CELL
/

K_POINTS {automatic}
6 6 1 0 0 0

ATOMIC_SPECIES
Au 196.9 Au.pbe-n-rrkjus_psl.1.0.0.UPF
C 12.01 C.pbe-n-rrkjus_psl.1.0.0.UPF
In 114.8 In.pbe-dn-rrkjus_psl.1.0.0.UPF
Li 6.941 Li.pbe-sl-rrkjus_psl.1.0.0.UPF
Mg 24.30 Mg.pbe-spnl-rrkjus_psl.1.0.0.UPF
O 15.99 O.pbe-n-rrkjus_psl.1.0.0.UPF


CELL_PARAMETERS {angstrom}
6.64779000 0.00000000 0.00000000
0.00000000 9.40140000 0.00000000
0.00000000 0.00000000 27.05110000

ATOMIC_POSITIONS {angstrom}
Li 0.00000000 2.35035000 -1.17509978 0 0 0
Li 0.00000000 7.05105000 -1.17509978 0 0 0
Li 3.32389500 4.70070000 -3.525569860000001 0 0 0
Li 3.32389500 0.00000000 -3.525569860000001 0 0 0
Li 0.10270836 7.04503310 3.99517696
Li 0.10277483 2.35608485 3.99571798
Li 3.28673385 0.00009401 1.33307821
Li 3.21247804 4.70070000 1.34281660
Mg 4.98584250 0.00000000 -1.17509978 0 0 0
Mg 4.98584250 4.70070000 -1.17509978 0 0 0
Mg 1.66194750 2.35035000 -3.525569860000001 0 0 0
Mg 1.66194750 7.05105000 -3.525569860000001 0 0 0
Mg 4.93259370 4.70051197 3.68895851
Mg 4.93605055 9.40130599 3.69707384
Mg 1.61042713 7.07361336 1.28709134
Mg 1.61029417 2.32788065 1.28709134
In 1.66194750 0.00000000 -1.17509978 0 0 0
In 1.66194750 4.70070000 -1.17509978 0 0 0
In 4.98584250 2.35035000 -3.525569860000001 0 0 0
In 4.98584250 7.05105000 -3.525569860000001 0 0 0
In 1.62983867 4.70060599 3.98787316
In 1.60743562 9.40130599 3.91267110
In 5.01848315 7.03083699 1.28871440
In 5.01854963 2.37056301 1.28871440
Au 0.00000000 0.00000000 -3.525569860000001 0 0 0
Au 0.00000000 4.70070000 -3.525569860000001 0 0 0
Au 3.32389500 7.05105000 -1.17509978 0 0 0
Au 3.32389500 2.35035000 -1.17509978 0 0 0
Au 0.08841561 4.70070000 1.23434169
Au 0.02539456 0.00000000 1.19619964
Au 3.27224167 2.34818768 3.51664300
Au 3.27224167 7.05293028 3.51637249
C 0.73464727 0.00131620 7.82101403
O 1.79769537 9.40121197 8.21758316
