&CONTROL
calculation = 'relax'
prefix = 'scf'
pseudo_dir = '/vol0403/data/hp230205/u10028/POT_HYBRID_KKJUS_GBRV'
outdir = './data'
tprnfor = .true.
nstep = 50
disk_io = 'non'
/
&SYSTEM
ibrav = 0
ecutwfc = 50.0
ecutrho = 400
occupations = 'smearing'
smearing = 'mp'
degauss = 0.01
assume_isolated = 'esm'
esm_bc = 'bc1'
input_dft = 'BEEF-VDW'
nosym = .true.
nspin = 1
ntyp = 5
nat = 17
/
&ELECTRONS
electron_maxstep = 200
mixing_beta = 0.1
conv_thr = 1e-06
/
&IONS
ion_dynamics = 'bfgs'
upscale = 1.0
/
&CELL
/

K_POINTS {automatic}
10 10 2 0  0  0

ATOMIC_SPECIES
C 12.01 C.pbe-n-rrkjus_psl.1.0.0.UPF
Cu 63.54 Cu.pbe-dn-rrkjus_psl.1.0.0.UPF
Ge 72.64 Ge.pbe-dn-rrkjus_psl.1.0.0.UPF
In 114.8 In.pbe-dn-rrkjus_psl.1.0.0.UPF
Li 6.941 Li.pbe-sl-rrkjus_psl.1.0.0.UPF


CELL_PARAMETERS {angstrom}
6.49386000 0.00000000 0.00000000
0.00000000 6.49386000 0.00000000
0.00000000 0.00000000 24.87040000

ATOMIC_POSITIONS {angstrom}
Li 6.35651486 3.10951992 2.81905984
Li 0.00000000 0.00000000 -0.8117698599999983 0 0 0
Li 3.24693000 3.24693000 -0.8117698599999983 0 0 0
Li 3.38427514 0.13734514 2.81905984
In 1.62346500 1.62346500 0.86499251
In 1.62346500 4.87039500 -2.435309570000001 0 0 0
In 4.87039500 1.62346500 -2.435309570000001 0 0 0
In 4.87039500 4.87039500 0.86499251
Cu 6.26741910 0.22644090 2.32264666
Cu 0.00000000 3.24693000 -0.8117698599999983 0 0 0
Cu 3.24693000 0.00000000 -0.8117698599999983 0 0 0
Cu 3.47337090 3.02042416 2.32239795
Ge 4.87039500 1.62346500 0.56480678
Ge 4.87039500 4.87039500 -2.435309570000001 0 0 0
Ge 1.62346500 1.62346500 -2.435309570000001 0 0 0
Ge 1.62346500 4.87039500 1.21268070
C 4.87039500 1.62346500 2.52782746
