&CONTROL
calculation = 'relax'
prefix = 'scf'
pseudo_dir = '/vol0004/mdt0/data/hp150275/u10028/POT_KKJUS'
outdir = './data'
tprnfor = .true.
nstep = 50
disk_io = 'non'
/
&SYSTEM
ibrav = 0
ecutwfc = 50.0
ecutrho = 400
occupations = 'smearing'
smearing = 'mp'
degauss = 0.01
assume_isolated = 'esm'
esm_bc = 'bc1'
input_dft = 'BEEF-VDW'
nosym = .true.
nspin = 1
ntyp = 4
nat = 34
/
&ELECTRONS
electron_maxstep = 200
mixing_beta = 0.1
conv_thr = 1e-06
/
&IONS
ion_dynamics = 'bfgs'
upscale = 1.0
/
&CELL
/

K_POINTS {automatic}
8 6 1 0 0 0

ATOMIC_SPECIES
C 12.01 C.pbe-n-rrkjus_psl.1.0.0.UPF
O 15.99 O.pbe-n-rrkjus_psl.1.0.0.UPF
Zn 65.40 Zn.pbe-dnl-rrkjus_psl.1.0.0.UPF
Zr 91.22 Zr.pbe-spn-rrkjus_psl.1.0.0.UPF

CELL_PARAMETERS {angstrom}
6.67495000 0.00000000 0.00000000
0.00000000 9.43980000 0.00000000
0.00000000 0.00000000 27.07990000

ATOMIC_POSITIONS {angstrom}
Zr 1.66873750 2.35995000 -3.5398845299999984 0 0 0
Zr 1.66873750 4.71990000 -1.179871239999997 0 0 0
Zr 1.65718984 2.35995000 1.20749274
Zr 1.71332617 9.41100861 3.48816192
Zr 1.66873750 7.07985000 -3.5398845299999984 0 0 0
Zr 1.66873750 0.00000000 -1.179871239999997 0 0 0
Zr 1.70051026 7.07975560 1.21047153
Zr 1.71345966 4.74878579 3.48897432
Zr 5.00621250 2.35995000 -3.5398845299999984 0 0 0
Zr 5.00621250 4.71990000 -1.179871239999997 0 0 0
Zr 5.01776016 2.35995000 1.20749274
Zr 4.96162383 9.41100861 3.48816192
Zr 5.00621250 7.07985000 -3.5398845299999984 0 0 0
Zr 5.00621250 0.00000000 -1.179871239999997 0 0 0
Zr 4.97443974 7.07975560 1.21047153
Zr 4.96155708 4.74878579 3.48897432
Zn 0.00000000 0.00000000 -3.5398845299999984 0 0 0
Zn 0.00000000 2.35995000 -1.179871239999997 0 0 0
Zn 0.00000000 9.40458955 1.17093488
Zn 0.00000000 2.36051639 3.53961373
Zn 0.00000000 4.71990000 -3.5398845299999984 0 0 0
Zn 0.00000000 7.07985000 -1.179871239999997 0 0 0
Zn 0.00000000 4.75529925 1.17093488
Zn 0.00000000 7.07928361 3.60325149
Zn 3.33747500 0.00000000 -3.5398845299999984 0 0 0
Zn 3.33747500 2.35995000 -1.179871239999997 0 0 0
Zn 3.33747500 0.01869080 1.15631173
Zn 3.33747500 2.36032759 3.67040965
Zn 3.33747500 4.71990000 -3.5398845299999984 0 0 0
Zn 3.33747500 7.07985000 -1.179871239999997 0 0 0
Zn 3.33747500 4.70102040 1.15604093
Zn 3.33747500 7.07918921 3.84047142
C 0.00000000 2.36051639 5.50832246
O 0.00000000 2.36032759 6.67032097
