&CONTROL
calculation = 'relax'
prefix = 'scf'
pseudo_dir = '/vol0004/mdt0/data/hp150275/u10028/POT_HYBRID_KKJUS_GBRV'
outdir = './data'
tprnfor = .true.
nstep = 50
disk_io = 'non'
/
&SYSTEM
ibrav = 0
ecutwfc = 50.0
ecutrho = 400
occupations = 'smearing'
smearing = 'mp'
degauss = 0.01
assume_isolated = 'esm'
esm_bc = 'bc1'
input_dft = 'BEEF-VDW'
nosym = .true.
nspin = 2
ntyp = 4
nat = 33
starting_magnetization(1) = 0.0
starting_magnetization(2) = 0.0
starting_magnetization(3) = 0.001
starting_magnetization(4) = 0.0
/
&ELECTRONS
electron_maxstep = 300
mixing_beta = 0.1
conv_thr = 1e-06
/
&IONS
ion_dynamics = 'bfgs'
upscale = 1.0
/
&CELL
/

K_POINTS {automatic}
9 6 2 0  0  0

ATOMIC_SPECIES
C 12.01 C.pbe-n-rrkjus_psl.1.0.0.UPF
Ga 69.72 Ga.pbe-dnl-rrkjus_psl.1.0.0.UPF
Ni 58.69 ni_pbe_v1.4.uspp.F.UPF
Ti 47.86 Ti.pbe-spn-rrkjus_psl.1.0.0.UPF

CELL_PARAMETERS {angstrom}
5.91339000 0.00000000 0.00000000
0.00000000 8.36280000 0.00000000
0.00000000 0.00000000 26.27210000

ATOMIC_POSITIONS {angstrom}
Ti 0.00000000 0.00000000 -3.1361005799999973 0 0 0
Ti 2.95669500 2.09070000 -1.045366859999998 0 0 0
Ti 2.95669500 6.27210000 -1.045366859999998 0 0 0
Ti 0.00000000 4.18140000 -3.1361005799999973 0 0 0
Ti 0.00000000 4.18140000 1.04720591
Ti 2.95669500 6.37270448 3.22595116
Ti 2.95669500 1.99001189 3.22595116
Ti 0.00000000 0.00000000 1.03695979
Ga 0.00000000 6.27210000 -1.045366859999998 0 0 0
Ga 2.95669500 0.00000000 -3.1361005799999973 0 0 0
Ga 0.00000000 2.09070000 -1.045366859999998 0 0 0
Ga 2.95669500 4.18140000 -3.1361005799999973 0 0 0
Ga 0.00000000 2.14898872 3.16605077
Ga 2.95669500 4.18173451 1.06769814
Ga 0.00000000 6.21372766 3.16605077
Ga 2.95669500 8.36246549 1.08030875
Ni 1.47834750 0.00000000 -1.045366859999998 0 0 0
Ni 4.43504250 4.18140000 -1.045366859999998 0 0 0
Ni 4.43504250 0.00000000 -1.045366859999998 0 0 0
Ni 1.47834750 4.18140000 -1.045366859999998 0 0 0
Ni 4.43504250 6.27210000 -3.1361005799999973 0 0 0
Ni 1.47834750 2.09070000 -3.1361005799999973 0 0 0
Ni 1.47834750 6.27210000 -3.1361005799999973 0 0 0
Ni 4.43504250 2.09070000 -3.1361005799999973 0 0 0
Ni 1.43352400 4.18156726 3.02286783
Ni 4.70416088 8.36263274 3.12060004
Ni 4.47986600 4.18156726 3.02286783
Ni 1.20922912 8.36263274 3.12060004
Ni 4.35751796 2.09688847 1.06822359
Ni 1.55616771 6.26591153 1.06796086
Ni 1.55587204 2.09688847 1.06822359
Ni 4.35722229 6.26591153 1.06796086
C 2.95669500 0.00000000 3.75113044
