&CONTROL
calculation = 'relax'
prefix = 'scf'
pseudo_dir = '/vol0004/mdt0/data/hp150275/u10028/POT_HYBRID_KKJUS_GBRV'
outdir = './data'
tprnfor = .true.
nstep = 50
disk_io = 'non'
/
&SYSTEM
ibrav = 0
ecutwfc = 50.0
ecutrho = 400
occupations = 'smearing'
smearing = 'mp'
degauss = 0.01
assume_isolated = 'esm'
esm_bc = 'bc1'
input_dft = 'BEEF-VDW'
nosym = .true.
nspin = 2
ntyp = 3
nat = 33
starting_magnetization(1) = 0.0
starting_magnetization(2) = 0.01
starting_magnetization(3) = 0.0
/
&ELECTRONS
electron_maxstep = 200
mixing_beta = 0.1
conv_thr = 1e-06
/
&IONS
ion_dynamics = 'bfgs'
upscale = 1.0
/
&CELL
/

K_POINTS {automatic}
7 8 2 0  0  0

ATOMIC_SPECIES
C 12.01 C.pbe-n-rrkjus_psl.1.0.0.UPF
Ni 58.69 ni_pbe_v1.4.uspp.F.UPF
Zn 65.40 Zn.pbe-dnl-rrkjus_psl.1.0.0.UPF

CELL_PARAMETERS {angstrom}
7.59591000 0.00000000 0.00000000
-0.00000000 6.69622000 0.00000000
0.00000000 0.00000000 25.69690000

ATOMIC_POSITIONS {angstrom}
Zn 1.89897750 1.67405500 22.84839863
Zn 3.79795500 1.67405500 24.74739954
Zn 1.89897750 1.67405500 0.94950045
Zn 3.79795500 1.67405500 2.84850137
Zn 1.89897750 5.02216500 22.84839863
Zn 3.79795500 5.02216500 24.74739954
Zn 1.89897750 5.02216500 0.94950045
Zn 3.79795500 5.02216500 2.84850137
Zn 5.69693250 1.67405500 22.84839863
Zn 0.00000000 1.67405500 24.74739954
Zn 5.69693250 1.67405500 0.94950045
Zn 0.00000000 1.67405500 2.84850137
Zn 5.69693250 5.02216500 22.84839863
Zn 0.00000000 5.02216500 24.74739954
Zn 5.69693250 5.02216500 0.94950045
Zn 0.00000000 5.02216500 2.84850137
Ni 0.00000000 0.00000000 22.84839863
Ni 1.89897750 0.00000000 24.74739954
Ni 3.79795500 -0.00000000 0.94950045
Ni 1.89897750 -0.00000000 2.84850137
Ni 0.00000000 3.34811000 22.84839863
Ni 1.89897750 3.34811000 24.74739954
Ni 3.79795500 3.34811000 0.94950045
Ni 1.89897750 3.34811000 2.84850137
Ni 3.79795500 0.00000000 22.84839863
Ni 5.69693250 0.00000000 24.74739954
Ni 0.00000000 0.00000000 0.94950045
Ni 5.69693250 -0.00000000 2.84850137
Ni 3.79795500 3.34811000 22.84839863
Ni 5.69693250 3.34811000 24.74739954
Ni 0.00000000 3.34811000 0.94950045
Ni 5.69693250 3.34811000 2.84850137
C 0.00000000 0.00000000 3.64844586
