&CONTROL
calculation = 'relax'
prefix = 'scf'
pseudo_dir = '/vol0004/mdt0/data/hp150275/u10028/POT_KKJUS'
outdir = './data'
tprnfor = .true.
nstep = 50
disk_io = 'non'
/
&SYSTEM
ibrav = 0
ecutwfc = 50.0
ecutrho = 400
occupations = 'smearing'
smearing = 'mp'
degauss = 0.01
assume_isolated = 'esm'
esm_bc = 'bc1'
input_dft = 'BEEF-VDW'
nosym = .true.
nspin = 1
ntyp = 4
nat = 18
/
&ELECTRONS
electron_maxstep = 200
mixing_beta = 0.1
conv_thr = 1e-06
/
&IONS
ion_dynamics = 'bfgs'
upscale = 1.0
/
&CELL
/

K_POINTS {automatic}
6 8 1 0 0 0

ATOMIC_SPECIES
C 12.01 C.pbe-n-rrkjus_psl.1.0.0.UPF
Ni 58.69 Ni.pbe-spn-rrkjus_psl.1.0.0.UPF
O 15.99 O.pbe-n-rrkjus_psl.1.0.0.UPF
Pt 195.0 Pt.pbe-n-rrkjus_psl.1.0.0.UPF

CELL_PARAMETERS {angstrom}
7.35611000 0.00000000 0.00000000
0.00000000 5.20155000 0.00000000
0.00000000 0.00000000 23.90120000

ATOMIC_POSITIONS {angstrom}
Ni 7.35559507 2.60056694 1.89512615
Ni 1.83711491 3.90740436 0.66397534
Ni 1.83689423 1.29404161 0.66349731
Ni 0.00000000 0.00000000 -0.6501126399999997 0 0 0
Ni 1.83902750 1.30038750 -1.9505769300000004 0 0 0
Ni 1.83902750 3.90116250 -1.9505769300000004 0 0 0
Ni 3.67827568 2.60077500 1.88460962
Ni 5.51951002 3.90724831 0.66325830
Ni 5.51951002 1.29419766 0.66325830
Ni 3.67805500 0.00000000 -0.6501126399999997 0 0 0
Ni 5.51708250 1.30038750 -1.9505769300000004 0 0 0
Ni 5.51708250 3.90116250 -1.9505769300000004 0 0 0
Pt 7.35574219 0.00000000 2.00292056
Pt 0.00000000 2.60077500 -0.6501126399999997 0 0 0
Pt 3.67834924 0.00015605 1.93097795
Pt 3.67805500 2.60077500 -0.6501126399999997 0 0 0
C 7.35603644 0.00000000 3.87486254
O 7.35596288 5.20149798 5.03024655
