&CONTROL
calculation = 'relax'
prefix = 'scf'
pseudo_dir = '/vol0004/mdt0/data/hp150275/u10028/POT_KKJUS'
outdir = './data'
tprnfor = .true.
nstep = 50
disk_io = 'non'
/
&SYSTEM
ibrav = 0
ecutwfc = 50.0
ecutrho = 400
occupations = 'smearing'
smearing = 'mp'
degauss = 0.01
assume_isolated = 'esm'
esm_bc = 'bc1'
input_dft = 'BEEF-VDW'
nosym = .true.
nspin = 1
ntyp = 3
nat = 32
/
&ELECTRONS
electron_maxstep = 200
mixing_beta = 0.1
conv_thr = 1e-06
/
&IONS
ion_dynamics = 'bfgs'
upscale = 1.0
/
&CELL
/

K_POINTS {automatic}
9 6 2 0  0  0

ATOMIC_SPECIES
Ni 58.69 Ni.pbe-spn-rrkjus_psl.1.0.0.UPF
Rh 102.9 Rh.pbe-spn-rrkjus_psl.1.0.0.UPF
Sn 118.7 Sn.pbe-dn-rrkjus_psl.1.0.0.UPF

CELL_PARAMETERS {angstrom}
6.23499000 0.00000000 0.00000000
0.00000000 8.81761000 0.00000000
0.00000000 0.00000000 26.61320000

ATOMIC_POSITIONS {angstrom}
Ni 0.00000000 0.00000000 -3.306690100000001 0 0 0
Ni 3.11749500 2.20440250 -1.1023187399999976 0 0 0
Ni 3.11749500 6.61320750 -1.1023187399999976 0 0 0
Ni 0.00000000 4.40880500 -3.306690100000001 0 0 0
Ni 0.00000000 4.40880500 1.14516600
Ni 3.11749500 6.61311932 3.27209294
Ni 3.11749500 2.20449068 3.27209294
Ni 0.00000000 0.00000000 1.14436760
Sn 0.00000000 6.61320750 -1.1023187399999976 0 0 0
Sn 3.11749500 0.00000000 -3.306690100000001 0 0 0
Sn 0.00000000 2.20440250 -1.1023187399999976 0 0 0
Sn 3.11749500 4.40880500 -3.306690100000001 0 0 0
Sn 0.00000000 2.20449068 3.45093364
Sn 3.11749500 4.40898135 1.02780178
Sn 0.00000000 6.61311932 3.45093364
Sn 3.11749500 8.81743365 1.02780178
Rh 1.55874750 0.00000000 -1.1023187399999976 0 0 0
Rh 4.67624250 4.40880500 -1.1023187399999976 0 0 0
Rh 4.67624250 0.00000000 -1.1023187399999976 0 0 0
Rh 1.55874750 4.40880500 -1.1023187399999976 0 0 0
Rh 4.67624250 6.61320750 -3.306690100000001 0 0 0
Rh 1.55874750 2.20440250 -3.306690100000001 0 0 0
Rh 1.55874750 6.61320750 -3.306690100000001 0 0 0
Rh 4.67624250 2.20440250 -3.306690100000001 0 0 0
Rh 1.62689594 4.40871682 3.19331787
Rh 4.60809406 0.00017635 3.19305174
Rh 4.60809406 4.40862865 3.19331787
Rh 1.62683359 0.00017635 3.19305174
Rh 4.71084669 2.20422615 1.11828666
Rh 1.52395626 6.61338385 1.11828666
Rh 1.52414331 2.20422615 1.11828666
Rh 4.71103374 6.61338385 1.11828666
