&CONTROL
calculation = 'relax'
prefix = 'scf'
pseudo_dir = '/vol0403/data/hp230205/u10028/POT_HYBRID_KKJUS_GBRV'
outdir = './data'
tprnfor = .true.
nstep = 50
disk_io = 'non'
/
&SYSTEM
ibrav = 0
ecutwfc = 50.0
ecutrho = 400
occupations = 'smearing'
smearing = 'mp'
degauss = 0.01
assume_isolated = 'esm'
esm_bc = 'bc1'
input_dft = 'BEEF-VDW'
nosym = .true.
nspin = 1
ntyp = 6
nat = 18
/
&ELECTRONS
electron_maxstep = 200
mixing_beta = 0.1
conv_thr = 1e-06
/
&IONS
ion_dynamics = 'bfgs'
upscale = 1.0
/
&CELL
/

K_POINTS {automatic}
11 7 2 0  0  0

ATOMIC_SPECIES
C 12.01 C.pbe-n-rrkjus_psl.1.0.0.UPF
Cu 63.54 Cu.pbe-dn-rrkjus_psl.1.0.0.UPF
In 114.8 In.pbe-dn-rrkjus_psl.1.0.0.UPF
O 15.99 O.pbe-n-rrkjus_psl.1.0.0.UPF
Sn 118.7 Sn.pbe-dn-rrkjus_psl.1.0.0.UPF
Y 88.90 Y.pbe-spn-rrkjus_psl.1.0.0.UPF


CELL_PARAMETERS {angstrom}
6.35598000 0.00000000 0.00000000
0.00000000 8.84740000 0.00000000
0.00000000 0.00000000 24.76400000

ATOMIC_POSITIONS {angstrom}
Y 3.17799000 0.00000000 -2.382049160000001 0 0 0
Y 6.18169903 8.84058750 0.73078564
Y 3.17799000 4.42370000 -2.382049160000001 0 0 0
Y 6.18169903 4.43060097 0.73078564
In 1.53287170 2.21185000 -0.7939338400000011 0 0 0
In 4.32943934 2.21176153 2.31890096
In 1.53287170 6.63555000 -0.7939338400000011 0 0 0
In 4.31087988 6.63563847 2.34341732
Cu 0.00000000 0.00000000 -2.382049160000001 0 0 0
Cu 2.96163244 8.84350714 0.74514876
Cu 0.00000000 4.42370000 -2.382049160000001 0 0 0
Cu 2.96163244 4.42759286 0.74514876
Sn 4.71086170 2.21185000 -0.7939338400000011 0 0 0
Sn 1.39621813 2.21193847 2.41127068
Sn 4.71086170 6.63555000 -0.7939338400000011 0 0 0
Sn 1.37975614 6.63555000 2.42142392
C 4.79514199 2.21167305 5.94682696
O 4.49329650 2.21185000 7.04090048
