&CONTROL
calculation = 'relax'
prefix = 'scf'
pseudo_dir = '/vol0004/mdt0/data/hp150275/u10028/POT_KKJUS'
outdir = './data'
tprnfor = .true.
nstep = 50
disk_io = 'non'
/
&SYSTEM
ibrav = 0
ecutwfc = 50.0
ecutrho = 400
occupations = 'smearing'
smearing = 'mp'
degauss = 0.01
assume_isolated = 'esm'
esm_bc = 'bc1'
input_dft = 'BEEF-VDW'
nosym = .true.
nspin = 1
ntyp = 3
nat = 17
/
&ELECTRONS
electron_maxstep = 200
mixing_beta = 0.1
conv_thr = 1e-06
/
&IONS
ion_dynamics = 'bfgs'
upscale = 1.0
/
&CELL
/

K_POINTS {automatic}
8 11 2 0  0  0

ATOMIC_SPECIES
C 12.01 C.pbe-n-rrkjus_psl.1.0.0.UPF
Pt 195.0 Pt.pbe-n-rrkjus_psl.1.0.0.UPF
Sc 44.95 Sc.pbe-spn-rrkjus_psl.1.0.0.UPF

CELL_PARAMETERS {angstrom}
8.06651000 0.00000000 0.00000000
0.00000000 5.70388000 0.00000000
0.00000000 0.00000000 24.27790000

ATOMIC_POSITIONS {angstrom}
Sc 0.00000000 0.00000000 -2.138882989999999 0 0 0
Sc 0.00000000 2.85194000 0.43214662
Sc 4.03325500 0.00000000 -2.138882989999999 0 0 0
Sc 4.03317433 2.85194000 0.93639860
Pt 0.00000000 2.85194000 -2.138882989999999 0 0 0
Pt 2.01662750 4.27791000 -0.7130419199999984 0 0 0
Pt 2.01662750 1.42597000 -0.7130419199999984 0 0 0
Pt 0.00000000 0.00000000 0.50012474
Pt 1.54393001 1.47445298 2.25541691
Pt 1.54384935 4.22942702 2.25541691
Pt 4.03325500 2.85194000 -2.138882989999999 0 0 0
Pt 6.04988250 4.27791000 -0.7130419199999984 0 0 0
Pt 6.04988250 1.42597000 -0.7130419199999984 0 0 0
Pt 4.03325500 0.00000000 0.85336819
Pt 6.52274132 1.47451002 2.25541691
Pt 6.52266065 4.22942702 2.25541691
C 8.06642933 2.85194000 2.78758848
