&CONTROL
calculation = 'relax'
prefix = 'scf'
pseudo_dir = '/vol0004/mdt0/data/hp150275/u10028/POT_HYBRID_KKJUS_GBRV'
outdir = './data'
tprnfor = .true.
nstep = 50
disk_io = 'non'
/
&SYSTEM
ibrav = 0
ecutwfc = 50.0
ecutrho = 400
occupations = 'smearing'
smearing = 'mp'
degauss = 0.01
assume_isolated = 'esm'
esm_bc = 'bc1'
input_dft = 'BEEF-VDW'
nosym = .true.
nspin = 2
ntyp = 4
nat = 33
starting_magnetization(1) = 0.0
starting_magnetization(2) = 0.0
starting_magnetization(3) = 0.001
starting_magnetization(4) = 0.0
/
&ELECTRONS
electron_maxstep = 300
mixing_beta = 0.1
conv_thr = 1e-06
/
&IONS
ion_dynamics = 'bfgs'
upscale = 1.0
/
&CELL
/

K_POINTS {automatic}
8 6 1 0 0 0

ATOMIC_SPECIES
C 12.01 C.pbe-n-rrkjus_psl.1.0.0.UPF
Mg 24.30 Mg.pbe-spnl-rrkjus_psl.1.0.0.UPF
Ni 58.69 ni_pbe_v1.4.uspp.F.UPF
Sn 118.7 Sn.pbe-dn-rrkjus_psl.1.0.0.UPF

CELL_PARAMETERS {angstrom}
6.21377000 0.00000000 0.00000000
0.00000000 8.78760000 0.00000000
0.00000000 0.00000000 26.59070000

ATOMIC_POSITIONS {angstrom}
Mg 0.00000000 0.00000000 -3.2953854499999977 0 0 0
Mg 3.10688500 2.19690000 -1.0984618199999971 0 0 0
Mg 3.10688500 6.59070000 -1.0984618199999971 0 0 0
Mg 0.00000000 4.39380000 -3.2953854499999977 0 0 0
Mg 0.03709621 4.42183244 1.09819591
Mg 3.05481361 6.59078788 3.48816803
Mg 3.33896931 2.19672425 3.26294480
Mg 0.03709621 8.75956756 1.09819591
Ni 1.55344250 0.00000000 -1.0984618199999971 0 0 0
Ni 4.66032750 4.39380000 -1.0984618199999971 0 0 0
Ni 4.66032750 0.00000000 -1.0984618199999971 0 0 0
Ni 1.55344250 4.39380000 -1.0984618199999971 0 0 0
Ni 4.66032750 6.59070000 -3.2953854499999977 0 0 0
Ni 1.55344250 2.19690000 -3.2953854499999977 0 0 0
Ni 1.55344250 6.59070000 -3.2953854499999977 0 0 0
Ni 4.66032750 2.19690000 -3.2953854499999977 0 0 0
Ni 1.54300337 4.00617896 3.38446430
Ni 4.72258948 8.64278035 3.10074153
Ni 4.72246520 4.53870752 3.10074153
Ni 1.54281695 0.38744528 3.38446430
Ni 4.63441608 2.19681212 0.94556529
Ni 1.55300754 6.59070000 1.14472963
Ni 1.54350047 2.19690000 1.11760712
Ni 4.65896047 6.59078788 1.23859481
Sn 0.00000000 6.59070000 -1.0984618199999971 0 0 0
Sn 3.10688500 0.00000000 -3.2953854499999977 0 0 0
Sn 0.00000000 2.19690000 -1.0984618199999971 0 0 0
Sn 3.10688500 4.39380000 -3.2953854499999977 0 0 0
Sn 5.88524798 2.19698788 3.25390396
Sn 3.07507050 4.40750866 1.12372298
Sn 0.08867050 6.59070000 3.50385654
Sn 3.07507050 8.77389134 1.12372298
C 1.54517819 2.19681212 4.14096971
