&CONTROL
calculation = 'relax'
prefix = 'scf'
pseudo_dir = '/vol0403/data/hp230205/u10028/POT_HYBRID_KKJUS_GBRV'
outdir = './data'
tprnfor = .true.
nstep = 50
disk_io = 'non'
/
&SYSTEM
ibrav = 0
ecutwfc = 50.0
ecutrho = 400
occupations = 'smearing'
smearing = 'mp'
degauss = 0.01
assume_isolated = 'esm'
esm_bc = 'bc1'
input_dft = 'BEEF-VDW'
nosym = .true.
nspin = 1
ntyp = 5
nat = 17
/
&ELECTRONS
electron_maxstep = 200
mixing_beta = 0.1
conv_thr = 1e-06
/
&IONS
ion_dynamics = 'bfgs'
upscale = 1.0
/
&CELL
/

K_POINTS {automatic}
10 10 2 0  0  0

ATOMIC_SPECIES
C 12.01 C.pbe-n-rrkjus_psl.1.0.0.UPF
Ga 69.72 Ga.pbe-dnl-rrkjus_psl.1.0.0.UPF
In 114.8 In.pbe-dn-rrkjus_psl.1.0.0.UPF
Li 6.941 Li.pbe-sl-rrkjus_psl.1.0.0.UPF
Pd 106.4 Pd.pbe-n-rrkjus_psl.1.0.0.UPF


CELL_PARAMETERS {angstrom}
6.46680000 0.00000000 0.00000000
0.00000000 6.46680000 0.00000000
0.00000000 0.00000000 24.85010000

ATOMIC_POSITIONS {angstrom}
Li 4.85010000 1.61670000 -0.8083737500000012 0 0 0
Li 4.96579105 4.73447362 3.02450567
Li 1.50107362 1.73232638 3.02425717
Li 1.61670000 4.85010000 -0.8083737500000012 0 0 0
In 0.00000000 3.23340000 -2.425121260000001 0 0 0
In 0.00000000 0.00000000 0.88615457
In 3.23340000 3.23340000 0.88640307
In 3.23340000 0.00000000 -2.425121260000001 0 0 0
Ga 0.00000000 0.00000000 -2.425121260000001 0 0 0
Ga 0.00000000 3.23340000 0.62572552
Ga 3.23340000 0.00000000 1.37893205
Ga 3.23340000 3.23340000 -2.425121260000001 0 0 0
Pd 1.61670000 1.61670000 -0.8083737500000012 0 0 0
Pd 1.44306642 4.67659576 2.34410993
Pd 5.02373358 1.79020424 2.34410993
Pd 4.85010000 4.85010000 -0.8083737500000012 0 0 0
C 0.00000000 3.23340000 2.70543039
