&CONTROL
calculation = 'relax'
prefix = 'scf'
pseudo_dir = '/vol0403/data/hp230205/u10028/POT_HYBRID_KKJUS_GBRV'
outdir = './data'
tprnfor = .true.
nstep = 50
disk_io = 'non'
/
&SYSTEM
ibrav = 0
ecutwfc = 50.0
ecutrho = 400
occupations = 'smearing'
smearing = 'mp'
degauss = 0.01
assume_isolated = 'esm'
esm_bc = 'bc1'
input_dft = 'BEEF-VDW'
nosym = .true.
nspin = 1
ntyp = 6
nat = 34
/
&ELECTRONS
electron_maxstep = 200
mixing_beta = 0.1
conv_thr = 1e-06
/
&IONS
ion_dynamics = 'bfgs'
upscale = 1.0
/
&CELL
/

K_POINTS {automatic}
7 7 2 0  0  0

ATOMIC_SPECIES
C 12.01 C.pbe-n-rrkjus_psl.1.0.0.UPF
In 114.8 In.pbe-dn-rrkjus_psl.1.0.0.UPF
Li 6.941 Li.pbe-sl-rrkjus_psl.1.0.0.UPF
O 15.99 O.pbe-n-rrkjus_psl.1.0.0.UPF
Sn 118.7 Sn.pbe-dn-rrkjus_psl.1.0.0.UPF
Y 88.90 Y.pbe-spn-rrkjus_psl.1.0.0.UPF


CELL_PARAMETERS {angstrom}
9.04200000 0.00000000 0.00000000
0.00000000 9.36656000 0.00000000
0.00000000 0.00000000 26.65140000

ATOMIC_POSITIONS {angstrom}
Li 2.26050000 0.00000000 1.10869824
Li 2.26050000 0.00000000 -3.3258282099999974 0 0 0
Li 2.26050000 4.68328000 1.10869824
Li 2.26050000 4.68328000 -3.3258282099999974 0 0 0
Li 6.78150000 0.00000000 1.10869824
Li 6.78150000 0.00000000 -3.3258282099999974 0 0 0
Li 6.78150000 4.68328000 1.10869824
Li 6.78150000 4.68328000 -3.3258282099999974 0 0 0
Y 0.00000000 2.34164000 1.10869824
Y 0.00000000 2.34164000 -3.3258282099999974 0 0 0
Y 0.00000000 7.02492000 1.10869824
Y 0.00000000 7.02492000 -3.3258282099999974 0 0 0
Y 4.52100000 2.34164000 1.10869824
Y 4.52100000 2.34164000 -3.3258282099999974 0 0 0
Y 4.52100000 7.02492000 1.10869824
Y 4.52100000 7.02492000 -3.3258282099999974 0 0 0
In 0.00000000 0.00000000 3.32582821
In 0.00000000 0.00000000 -1.108698239999999 0 0 0
In 0.00000000 4.68328000 3.32582821
In 0.00000000 4.68328000 -1.108698239999999 0 0 0
In 4.52100000 0.00000000 3.32582821
In 4.52100000 0.00000000 -1.108698239999999 0 0 0
In 4.52100000 4.68328000 3.32582821
In 4.52100000 4.68328000 -1.108698239999999 0 0 0
Sn 2.26050000 2.34164000 3.32582821
Sn 2.26050000 2.34164000 -1.108698239999999 0 0 0
Sn 2.26050000 7.02492000 3.32582821
Sn 2.26050000 7.02492000 -1.108698239999999 0 0 0
Sn 6.78150000 2.34164000 3.32582821
Sn 6.78150000 2.34164000 -1.108698239999999 0 0 0
Sn 6.78150000 7.02492000 3.32582821
Sn 6.78150000 7.02492000 -1.108698239999999 0 0 0
C 2.26050000 2.34164000 5.22580651
O 2.26050000 2.34164000 6.37581442
