&CONTROL
calculation = 'relax'
prefix = 'scf'
pseudo_dir = '/vol0403/data/hp230205/u10028/POT_HYBRID_KKJUS_GBRV'
outdir = './data'
tprnfor = .true.
nstep = 50
disk_io = 'non'
/
&SYSTEM
ibrav = 0
ecutwfc = 50.0
ecutrho = 400
occupations = 'smearing'
smearing = 'mp'
degauss = 0.01
assume_isolated = 'esm'
esm_bc = 'bc1'
input_dft = 'BEEF-VDW'
nosym = .true.
nspin = 1
ntyp = 4
nat = 32
/
&ELECTRONS
electron_maxstep = 200
mixing_beta = 0.1
conv_thr = 1e-06
/
&IONS
ion_dynamics = 'bfgs'
upscale = 1.0
/
&CELL
/

K_POINTS {automatic}
6 6 1 0 0 0

ATOMIC_SPECIES
Al 26.98 Al.pbe-nl-rrkjus_psl.1.0.0.UPF
Li 6.941 Li.pbe-sl-rrkjus_psl.1.0.0.UPF
Pd 106.4 Pd.pbe-n-rrkjus_psl.1.0.0.UPF
Ti 47.86 Ti.pbe-spn-rrkjus_psl.1.0.0.UPF


CELL_PARAMETERS {angstrom}
6.17553000 0.00000000 0.00000000
0.00000000 8.73352000 0.00000000
0.00000000 0.00000000 26.55010000

ATOMIC_POSITIONS {angstrom}
Li 4.63164750 0.00000000 -1.09174011 0 0 0
Li 4.63164750 4.36676000 -1.09174011 0 0 0
Li 1.54388250 2.18338000 -3.274954830000002 0 0 0
Li 1.54388250 6.55014000 -3.274954830000002 0 0 0
Li 4.19479051 4.36667266 4.35713691
Li 4.19485226 0.00008734 4.35713691
Li 1.52813490 6.55014000 1.08138557
Li 1.52813490 2.18338000 1.08138557
Ti 0.00000000 2.18338000 -1.09174011 0 0 0
Ti 0.00000000 6.55014000 -1.09174011 0 0 0
Ti 3.08776500 4.36676000 -3.274954830000002 0 0 0
Ti 3.08776500 0.00000000 -3.274954830000002 0 0 0
Ti 6.01817750 6.55014000 3.17937447
Ti 6.01823925 2.18338000 3.17937447
Ti 3.14223317 0.00000000 1.19156849
Ti 3.14229493 4.36676000 1.19156849
Al 0.00000000 0.00000000 -3.274954830000002 0 0 0
Al 0.00000000 4.36676000 -3.274954830000002 0 0 0
Al 3.08776500 6.55014000 -1.09174011 0 0 0
Al 3.08776500 2.18338000 -1.09174011 0 0 0
Al 6.13464799 4.36676000 1.10129815
Al 6.13464799 0.00000000 1.10129815
Al 3.02100752 2.18338000 3.24123621
Al 3.02106928 6.55014000 3.24123621
Pd 1.54388250 0.00000000 -1.09174011 0 0 0
Pd 1.54388250 4.36676000 -1.09174011 0 0 0
Pd 4.63164750 2.18338000 -3.274954830000002 0 0 0
Pd 4.63164750 6.55014000 -3.274954830000002 0 0 0
Pd 1.45544891 4.36676000 3.15123137
Pd 1.45544891 8.73343266 3.15123137
Pd 4.63905814 6.55014000 1.02563036
Pd 4.63899638 2.18338000 1.02563036
