&CONTROL
calculation = 'relax'
prefix = 'scf'
pseudo_dir = '/vol0403/data/hp230205/u10028/POT_HYBRID_KKJUS_GBRV'
outdir = './data'
tprnfor = .true.
nstep = 70
disk_io = 'non'
/
&SYSTEM
ibrav = 0
ecutwfc = 50.0
ecutrho = 400
occupations = 'smearing'
smearing = 'mp'
degauss = 0.01
assume_isolated = 'esm'
esm_bc = 'bc1'
input_dft = 'BEEF-VDW'
nosym = .true.
nspin = 1
ntyp = 6
nat = 18
/
&ELECTRONS
electron_maxstep = 200
mixing_beta = 0.1
conv_thr = 1e-06
/
&IONS
ion_dynamics = 'bfgs'
upscale = 1.0
/
&CELL
/

K_POINTS {automatic}
8 10 2 0  0  0

ATOMIC_SPECIES
C 12.01 C.pbe-n-rrkjus_psl.1.0.0.UPF
Ge 72.64 Ge.pbe-dn-rrkjus_psl.1.0.0.UPF
O 15.99 O.pbe-n-rrkjus_psl.1.0.0.UPF
Pd 106.4 Pd.pbe-n-rrkjus_psl.1.0.0.UPF
Sn 118.7 Sn.pbe-dn-rrkjus_psl.1.0.0.UPF
Y 88.90 Y.pbe-spn-rrkjus_psl.1.0.0.UPF


CELL_PARAMETERS {angstrom}
8.11456000 0.00000000 0.00000000
-0.00000000 6.46257000 0.00000000
0.00000000 0.00000000 24.82060000

ATOMIC_POSITIONS {angstrom}
Y 2.02864000 1.44755105 -0.8034428199999972 0 0 0
Y 2.02864000 4.34271779 2.41032847
Y 6.08592000 1.44755105 -0.8034428199999972 0 0 0
Y 6.08592000 4.34271779 2.41032847
Sn 2.02864000 4.67883605 -0.8034428199999972 0 0 0
Sn 2.02864000 1.11143279 2.41032847
Sn 6.08592000 4.67883605 -0.8034428199999972 0 0 0
Sn 6.08592000 1.11143279 2.41032847
Ge 0.00000000 0.00000000 -2.4103284699999996 0 0 0
Ge 0.00000000 2.89516673 0.80344282
Ge 4.05728000 0.00000000 -2.4103284699999996 0 0 0
Ge 4.05728000 2.89516673 0.80344282
Pd 0.00000000 3.23128500 -2.4103284699999996 0 0 0
Pd 0.00000000 6.12645173 0.80344282
Pd 4.05728000 3.23128500 -2.4103284699999996 0 0 0
Pd 4.05728000 6.12645173 0.80344282
C 2.02864000 4.34271779 4.31034540
O 2.02864000 4.34271779 5.46028379
