&CONTROL
calculation = 'relax'
prefix = 'scf'
pseudo_dir = '/vol0004/mdt0/data/hp150275/u10028/POT_KKJUS'
outdir = './data'
tprnfor = .true.
nstep = 50
disk_io = 'non'
/
&SYSTEM
ibrav = 0
ecutwfc = 50.0
ecutrho = 400
occupations = 'smearing'
smearing = 'mp'
degauss = 0.01
assume_isolated = 'esm'
esm_bc = 'bc1'
input_dft = 'BEEF-VDW'
nosym = .true.
nspin = 1
ntyp = 5
nat = 18
/
&ELECTRONS
electron_maxstep = 200
mixing_beta = 0.1
conv_thr = 1e-06
/
&IONS
ion_dynamics = 'bfgs'
upscale = 1.0
/
&CELL
/

K_POINTS {automatic}
8 8 1 0 0 0

ATOMIC_SPECIES
Ag 107.8 Ag.pbe-n-rrkjus_psl.1.0.0.UPF
Bi 208.9 Bi.pbe-dn-rrkjus_psl.1.0.0.UPF
C 12.01 C.pbe-n-rrkjus_psl.1.0.0.UPF
Li 6.941 Li.pbe-sl-rrkjus_psl.1.0.0.UPF
O 15.99 O.pbe-n-rrkjus_psl.1.0.0.UPF

CELL_PARAMETERS {angstrom}
6.92564000 0.00000000 0.00000000
0.00000000 6.92564000 0.00000000
0.00000000 0.00000000 25.19420000

ATOMIC_POSITIONS {angstrom}
Li 6.92266197 0.00290877 0.63816909
Li 3.46282000 0.00000000 -2.5970181399999994 0 0 0
Li 0.00000000 3.46282000 -2.5970181399999994 0 0 0
Li 3.46593654 3.45977272 0.63816909
Li 1.73141000 1.73141000 -0.8656727099999983 0 0 0
Li 1.73147926 5.19416074 2.62649535
Li 5.19423000 5.19423000 -0.8656727099999983 0 0 0
Li 5.19423000 1.73141000 2.67864734
Ag 1.73057892 1.73189479 2.47835345
Ag 1.73141000 5.19423000 -0.8656727099999983 0 0 0
Ag 5.19429926 5.19457628 2.47759763
Ag 5.19423000 1.73141000 -0.8656727099999983 0 0 0
Bi 0.00000000 0.00000000 -2.5970181399999994 0 0 0
Bi 3.46282000 3.46282000 -2.5970181399999994 0 0 0
Bi 3.45263931 6.91545931 1.09947489
Bi 0.01018069 3.47306995 1.09947489
C 5.19429926 1.73127149 4.77052177
O 5.19429926 1.73120223 5.91257486
