&CONTROL
calculation = 'relax'
prefix = 'scf'
pseudo_dir = '/vol0004/mdt0/data/hp150275/u10028/POT_KKJUS'
outdir = './data'
tprnfor = .true.
nstep = 50
disk_io = 'non'
/
&SYSTEM
ibrav = 0
ecutwfc = 50.0
ecutrho = 400
occupations = 'smearing'
smearing = 'mp'
degauss = 0.01
assume_isolated = 'esm'
esm_bc = 'bc1'
input_dft = 'BEEF-VDW'
nosym = .true.
nspin = 1
ntyp = 5
nat = 34
/
&ELECTRONS
electron_maxstep = 200
mixing_beta = 0.1
conv_thr = 1e-06
/
&IONS
ion_dynamics = 'bfgs'
upscale = 1.0
/
&CELL
/

K_POINTS {automatic}
8 6 1 0 0 0

ATOMIC_SPECIES
Ag 107.8 Ag.pbe-n-rrkjus_psl.1.0.0.UPF
C 12.01 C.pbe-n-rrkjus_psl.1.0.0.UPF
In 114.8 In.pbe-dn-rrkjus_psl.1.0.0.UPF
O 15.99 O.pbe-n-rrkjus_psl.1.0.0.UPF
Y 88.90 Y.pbe-spn-rrkjus_psl.1.0.0.UPF

CELL_PARAMETERS {angstrom}
7.06522000 0.00000000 0.00000000
0.00000000 9.99173000 0.00000000
0.00000000 0.00000000 27.49380000

ATOMIC_POSITIONS {angstrom}
Y 0.00000000 0.00000000 -3.7468550600000015 0 0 0
Y 3.53261000 2.49793250 -1.2490433299999992 0 0 0
Y 3.53261000 7.49379750 -1.2490433299999992 0 0 0
Y 0.00000000 4.99586500 -3.7468550600000015 0 0 0
Y 7.06500804 4.97997815 1.32712573
Y 3.53253935 7.51138294 3.71771164
Y 3.53296326 2.48604234 3.71441238
Y 0.00021196 0.01079107 1.32685079
In 0.00000000 7.49379750 -1.2490433299999992 0 0 0
In 3.53261000 0.00000000 -3.7468550600000015 0 0 0
In 0.00000000 2.49793250 -1.2490433299999992 0 0 0
In 3.53261000 4.99586500 -3.7468550600000015 0 0 0
In 7.06514935 2.51052208 3.71221288
In 3.53268065 5.00495747 1.26993862
In 0.00028261 7.48610387 3.79854341
In 3.53268065 9.98133860 1.27433763
Ag 1.76630500 0.00000000 -1.2490433299999992 0 0 0
Ag 5.29891500 4.99586500 -1.2490433299999992 0 0 0
Ag 5.29891500 0.00000000 -1.2490433299999992 0 0 0
Ag 1.76630500 4.99586500 -1.2490433299999992 0 0 0
Ag 5.29891500 7.49379750 -3.7468550600000015 0 0 0
Ag 1.76630500 2.49793250 -3.7468550600000015 0 0 0
Ag 1.76630500 7.49379750 -3.7468550600000015 0 0 0
Ag 5.29891500 2.49793250 -3.7468550600000015 0 0 0
Ag 1.73246260 5.00415814 3.89917072
Ag 5.37154546 9.98823289 3.92419007
Ag 5.33304001 5.00445789 3.89972059
Ag 1.69388649 9.98863256 3.92473995
Ag 5.26090412 2.49663358 1.23447162
Ag 1.76418543 7.48970089 1.25316740
Ag 1.80445719 2.49693333 1.23474656
Ag 5.30117587 7.49000064 1.25344234
C 0.00014130 2.53210422 7.74830272
O 7.06416022 2.51062200 8.88242197
