&CONTROL
calculation = 'relax'
prefix = 'scf'
pseudo_dir = '/vol0403/data/hp230205/u10028/POT_HYBRID_KKJUS_GBRV'
outdir = './data'
tprnfor = .true.
nstep = 50
disk_io = 'non'
/
&SYSTEM
ibrav = 0
ecutwfc = 50.0
ecutrho = 400
occupations = 'smearing'
smearing = 'mp'
degauss = 0.01
assume_isolated = 'esm'
esm_bc = 'bc1'
input_dft = 'BEEF-VDW'
nosym = .true.
nspin = 1
ntyp = 4
nat = 32
/
&ELECTRONS
electron_maxstep = 200
mixing_beta = 0.1
conv_thr = 1e-06
/
&IONS
ion_dynamics = 'bfgs'
upscale = 1.0
/
&CELL
/

K_POINTS {automatic}
7 7 2 0  0  0

ATOMIC_SPECIES
Li 6.941 Li.pbe-sl-rrkjus_psl.1.0.0.UPF
Pb 207.2 Pb.pbe-dn-rrkjus_psl.1.0.0.UPF
Sn 118.7 Sn.pbe-dn-rrkjus_psl.1.0.0.UPF
Y 88.90 Y.pbe-spn-rrkjus_psl.1.0.0.UPF


CELL_PARAMETERS {angstrom}
8.87168000 0.00000000 0.00000000
0.00000000 9.36828000 0.00000000
0.00000000 0.00000000 27.23350000

ATOMIC_POSITIONS {angstrom}
Li 0.00000000 0.00000000 3.54580170
Li 0.00000000 0.00000000 -1.2056270500000004 0 0 0
Li 0.00000000 4.68414000 3.54580170
Li 0.00000000 4.68414000 -1.2056270500000004 0 0 0
Li 4.43584000 0.00000000 3.54580170
Li 4.43584000 0.00000000 -1.2056270500000004 0 0 0
Li 4.43584000 4.68414000 3.54580170
Li 4.43584000 4.68414000 -1.2056270500000004 0 0 0
Y 0.00000000 2.34207000 1.14870903
Y 0.00000000 2.34207000 -3.616608799999998 0 0 0
Y 0.00000000 7.02621000 1.14870903
Y 0.00000000 7.02621000 -3.616608799999998 0 0 0
Y 4.43584000 2.34207000 1.14870903
Y 4.43584000 2.34207000 -3.616608799999998 0 0 0
Y 4.43584000 7.02621000 1.14870903
Y 4.43584000 7.02621000 -3.616608799999998 0 0 0
Sn 2.21792000 0.00000000 1.45889859
Sn 2.21792000 0.00000000 -3.616608799999998 0 0 0
Sn 2.21792000 4.68414000 1.45889859
Sn 2.21792000 4.68414000 -3.616608799999998 0 0 0
Sn 6.65376000 0.00000000 1.45889859
Sn 6.65376000 0.00000000 -3.616608799999998 0 0 0
Sn 6.65376000 4.68414000 1.45889859
Sn 6.65376000 4.68414000 -3.616608799999998 0 0 0
Pb 2.21792000 2.34207000 3.75277630
Pb 2.21792000 2.34207000 -1.2056270500000004 0 0 0
Pb 2.21792000 7.02621000 3.75277630
Pb 2.21792000 7.02621000 -1.2056270500000004 0 0 0
Pb 6.65376000 2.34207000 3.75277630
Pb 6.65376000 2.34207000 -1.2056270500000004 0 0 0
Pb 6.65376000 7.02621000 3.75277630
Pb 6.65376000 7.02621000 -1.2056270500000004 0 0 0
