&CONTROL
calculation = 'relax'
prefix = 'scf'
pseudo_dir = '/vol0004/mdt0/data/hp150275/u10028/POT_KKJUS'
outdir = './data'
tprnfor = .true.
nstep = 50
disk_io = 'non'
/
&SYSTEM
ibrav = 0
ecutwfc = 50.0
ecutrho = 400
occupations = 'smearing'
smearing = 'mp'
degauss = 0.01
assume_isolated = 'esm'
esm_bc = 'bc1'
input_dft = 'BEEF-VDW'
nosym = .true.
nspin = 1
ntyp = 5
nat = 34
/
&ELECTRONS
electron_maxstep = 200
mixing_beta = 0.1
conv_thr = 1e-06
/
&IONS
ion_dynamics = 'bfgs'
upscale = 1.0
/
&CELL
/

K_POINTS {automatic}
9 6 2 0  0  0

ATOMIC_SPECIES
C 12.01 C.pbe-n-rrkjus_psl.1.0.0.UPF
Hf 178.4 Hf.pbe-spn-rrkjus_psl.1.0.0.UPF
In 114.8 In.pbe-dn-rrkjus_psl.1.0.0.UPF
Ni 58.69 Ni.pbe-spn-rrkjus_psl.1.0.0.UPF
O 15.99 O.pbe-n-rrkjus_psl.1.0.0.UPF

CELL_PARAMETERS {angstrom}
6.31539000 0.00000000 0.00000000
0.00000000 8.93131000 0.00000000
0.00000000 0.00000000 26.69850000

ATOMIC_POSITIONS {angstrom}
Hf 0.00000000 0.00000000 -3.349326819999998 0 0 0
Hf 3.15769500 2.23282750 -1.1165312699999994 0 0 0
Hf 3.15769500 6.69848250 -1.1165312699999994 0 0 0
Hf 0.00000000 4.46565500 -3.349326819999998 0 0 0
Hf 0.00000000 4.48110617 1.16245269
Hf 3.15769500 6.69821456 3.30180350
Hf 3.15769500 2.23291681 3.30126952
Hf 0.00000000 8.91585883 1.16271967
In 0.00000000 6.69848250 -1.1165312699999994 0 0 0
In 3.15769500 0.00000000 -3.349326819999998 0 0 0
In 0.00000000 2.23282750 -1.1165312699999994 0 0 0
In 3.15769500 4.46565500 -3.349326819999998 0 0 0
In 6.31532685 2.23291681 3.55009955
In 3.15769500 4.44109390 1.07034286
In 0.00000000 6.69866113 3.56051196
In 3.15769500 0.02456110 1.07034286
Ni 1.57884750 0.00000000 -1.1165312699999994 0 0 0
Ni 4.73654250 4.46565500 -1.1165312699999994 0 0 0
Ni 4.73654250 0.00000000 -1.1165312699999994 0 0 0
Ni 1.57884750 4.46565500 -1.1165312699999994 0 0 0
Ni 4.73654250 6.69848250 -3.349326819999998 0 0 0
Ni 1.57884750 2.23282750 -3.349326819999998 0 0 0
Ni 1.57884750 6.69848250 -3.349326819999998 0 0 0
Ni 4.73654250 2.23282750 -3.349326819999998 0 0 0
Ni 1.59962513 4.48414281 3.22170800
Ni 4.71488071 8.91264356 3.22144101
Ni 4.71582802 4.48414281 3.22144101
Ni 1.60038298 8.91264356 3.22144101
Ni 4.79136009 2.23273819 1.14055992
Ni 1.61642407 6.69848250 1.18541340
Ni 1.52402991 2.23273819 1.14055992
Ni 4.69909224 6.69848250 1.18541340
C 3.15769500 2.23282750 5.56289946
O 3.15769500 2.23273819 6.71413878
