&CONTROL
calculation = 'relax'
prefix = 'scf'
pseudo_dir = '/vol0403/data/hp230205/u10028/POT_HYBRID_KKJUS_GBRV'
outdir = './data'
tprnfor = .true.
nstep = 50
disk_io = 'non'
/
&SYSTEM
ibrav = 0
ecutwfc = 50.0
ecutrho = 400
occupations = 'smearing'
smearing = 'mp'
degauss = 0.01
assume_isolated = 'esm'
esm_bc = 'bc1'
input_dft = 'BEEF-VDW'
nosym = .true.
nspin = 1
ntyp = 6
nat = 34
/
&ELECTRONS
electron_maxstep = 200
mixing_beta = 0.1
conv_thr = 1e-06
/
&IONS
ion_dynamics = 'bfgs'
upscale = 1.0
/
&CELL
/

K_POINTS {automatic}
6 6 1 0 0 0

ATOMIC_SPECIES
C 12.01 C.pbe-n-rrkjus_psl.1.0.0.UPF
In 114.8 In.pbe-dn-rrkjus_psl.1.0.0.UPF
O 15.99 O.pbe-n-rrkjus_psl.1.0.0.UPF
Pd 106.4 Pd.pbe-n-rrkjus_psl.1.0.0.UPF
Sc 44.95 Sc.pbe-spn-rrkjus_psl.1.0.0.UPF
Y 88.90 Y.pbe-spn-rrkjus_psl.1.0.0.UPF


CELL_PARAMETERS {angstrom}
7.36232000 0.00000000 0.00000000
0.00000000 9.64246000 0.00000000
0.00000000 0.00000000 27.58650000

ATOMIC_POSITIONS {angstrom}
Y 1.84058000 0.00000000 1.26428930
Y 1.84058000 0.00000000 -3.7931437500000023 0 0 0
Y 1.84058000 4.82123000 1.26428930
Y 1.84058000 4.82123000 -3.7931437500000023 0 0 0
Y 5.52174000 0.00000000 1.26428930
Y 5.52174000 0.00000000 -3.7931437500000023 0 0 0
Y 5.52174000 4.82123000 1.26428930
Y 5.52174000 4.82123000 -3.7931437500000023 0 0 0
Sc 1.84058000 2.41061500 3.79314375
Sc 1.84058000 2.41061500 -1.2642893000000015 0 0 0
Sc 1.84058000 7.23184500 3.79314375
Sc 1.84058000 7.23184500 -1.2642893000000015 0 0 0
Sc 5.52174000 2.41061500 3.79314375
Sc 5.52174000 2.41061500 -1.2642893000000015 0 0 0
Sc 5.52174000 7.23184500 3.79314375
Sc 5.52174000 7.23184500 -1.2642893000000015 0 0 0
In 0.00000000 0.00000000 3.79314375
In 0.00000000 0.00000000 -1.2642893000000015 0 0 0
In 0.00000000 4.82123000 3.79314375
In 0.00000000 4.82123000 -1.2642893000000015 0 0 0
In 3.68116000 0.00000000 3.79314375
In 3.68116000 0.00000000 -1.2642893000000015 0 0 0
In 3.68116000 4.82123000 3.79314375
In 3.68116000 4.82123000 -1.2642893000000015 0 0 0
Pd 0.00000000 2.41061500 1.26428930
Pd 0.00000000 2.41061500 -3.7931437500000023 0 0 0
Pd 0.00000000 7.23184500 1.26428930
Pd 0.00000000 7.23184500 -3.7931437500000023 0 0 0
Pd 3.68116000 2.41061500 1.26428930
Pd 3.68116000 2.41061500 -3.7931437500000023 0 0 0
Pd 3.68116000 7.23184500 1.26428930
Pd 3.68116000 7.23184500 -3.7931437500000023 0 0 0
C 0.00000000 0.00000000 5.69330187
O 0.00000000 0.00000000 6.84310719
