&CONTROL
calculation = 'relax'
prefix = 'scf'
pseudo_dir = '/vol0403/data/hp230205/u10028/POT_HYBRID_KKJUS_GBRV'
outdir = './data'
tprnfor = .true.
nstep = 50
disk_io = 'non'
/
&SYSTEM
ibrav = 0
ecutwfc = 50.0
ecutrho = 400
occupations = 'smearing'
smearing = 'mp'
degauss = 0.01
assume_isolated = 'esm'
esm_bc = 'bc1'
input_dft = 'BEEF-VDW'
nosym = .true.
nspin = 1
ntyp = 6
nat = 34
/
&ELECTRONS
electron_maxstep = 200
mixing_beta = 0.1
conv_thr = 1e-06
/
&IONS
ion_dynamics = 'bfgs'
upscale = 1.0
/
&CELL
/

K_POINTS {automatic}
6 6 1 0 0 0

ATOMIC_SPECIES
C 12.01 C.pbe-n-rrkjus_psl.1.0.0.UPF
Ga 69.72 Ga.pbe-dnl-rrkjus_psl.1.0.0.UPF
O 15.99 O.pbe-n-rrkjus_psl.1.0.0.UPF
Pd 106.4 Pd.pbe-n-rrkjus_psl.1.0.0.UPF
Sc 44.95 Sc.pbe-spn-rrkjus_psl.1.0.0.UPF
Y 88.90 Y.pbe-spn-rrkjus_psl.1.0.0.UPF


CELL_PARAMETERS {angstrom}
7.06732000 0.00000000 0.00000000
0.00000000 9.48206000 0.00000000
0.00000000 0.00000000 27.39200000

ATOMIC_POSITIONS {angstrom}
Y 1.75552229 0.00000000 1.31125504
Y 1.76683000 0.00000000 -3.69600256 0 0 0
Y 1.75905595 4.74159892 1.26441472
Y 1.76683000 4.74103000 -3.69600256 0 0 0
Y 5.31179771 0.00047410 1.31152896
Y 5.30049000 0.00000000 -3.69600256 0 0 0
Y 5.30769867 4.74103000 1.26441472
Y 5.30049000 4.74103000 -3.69600256 0 0 0
Sc 1.74053957 2.43651014 3.74366464
Sc 1.76683000 2.37051500 -1.2320921600000005 0 0 0
Sc 1.73856072 7.03786939 3.74092544
Sc 1.76683000 7.11154500 -1.2320921600000005 0 0 0
Sc 5.32755784 2.43594121 3.74339072
Sc 5.30049000 2.37051500 -1.2320921600000005 0 0 0
Sc 5.33017274 7.03834350 3.74037760
Sc 5.30049000 7.11154500 -1.2320921600000005 0 0 0
Ga 0.00106010 9.47940502 3.83844096
Ga 0.00000000 0.00000000 -1.2320921600000005 0 0 0
Ga 0.00028269 4.73572005 3.98252288
Ga 0.00000000 4.74103000 -1.2320921600000005 0 0 0
Ga 3.53373067 9.48006877 3.90719488
Ga 3.53366000 0.00000000 -1.2320921600000005 0 0 0
Ga 3.53415471 4.73828020 3.85734144
Ga 3.53366000 4.74103000 -1.2320921600000005 0 0 0
Pd 0.00014135 2.40218508 0.90201856
Pd 0.00000000 2.37051500 -3.69600256 0 0 0
Pd 7.06654259 7.08196097 0.90229248
Pd 0.00000000 7.11154500 -3.69600256 0 0 0
Pd 3.53309461 2.34548236 1.57449216
Pd 3.53366000 2.37051500 -3.69600256 0 0 0
Pd 3.53415471 7.13866369 1.57339648
Pd 3.53366000 7.11154500 -3.69600256 0 0 0
C 0.00070673 9.47115563 5.81751296
O 0.00021202 9.46679388 6.97975552
