&CONTROL
calculation = 'relax'
prefix = 'scf'
pseudo_dir = '/vol0004/mdt0/data/hp150275/u10028/POT_KKJUS'
outdir = './data'
tprnfor = .true.
nstep = 50
disk_io = 'non'
/
&SYSTEM
ibrav = 0
ecutwfc = 50.0
ecutrho = 400
occupations = 'smearing'
smearing = 'mp'
degauss = 0.01
assume_isolated = 'esm'
esm_bc = 'bc1'
input_dft = 'BEEF-VDW'
nosym = .true.
nspin = 1
ntyp = 2
nat = 16
/
&ELECTRONS
electron_maxstep = 200
mixing_beta = 0.1
conv_thr = 1e-06
/
&IONS
ion_dynamics = 'bfgs'
upscale = 1.0
/
&CELL
/

K_POINTS {automatic}
8 11 2 0  0  0

ATOMIC_SPECIES
Pb 207.2 Pb.pbe-dn-rrkjus_psl.1.0.0.UPF
Pd 106.4 Pd.pbe-n-rrkjus_psl.1.0.0.UPF

CELL_PARAMETERS {angstrom}
8.32195000 0.00000000 0.00000000
0.00000000 5.88450000 0.00000000
0.00000000 0.00000000 24.41340000

ATOMIC_POSITIONS {angstrom}
Pd 0.00000000 2.94225000 -2.2067272299999985 0 0 0
Pd 2.08048750 4.41337500 -0.735575739999998 0 0 0
Pd 2.08048750 1.47112500 -0.735575739999998 0 0 0
Pd 0.00000000 0.00000000 0.71311541
Pd 2.08048750 1.40668973 2.06073509
Pd 2.08048750 4.47781028 2.06073509
Pd 4.16097500 2.94225000 -2.2067272299999985 0 0 0
Pd 6.24146250 4.41337500 -0.735575739999998 0 0 0
Pd 6.24146250 1.47112500 -0.735575739999998 0 0 0
Pd 4.16097500 0.00000000 0.71311541
Pd 6.24146250 1.40668973 2.06073509
Pd 6.24146250 4.47781028 2.06073509
Pb 0.00000000 0.00000000 -2.2067272299999985 0 0 0
Pb 0.00000000 2.94225000 0.86618743
Pb 4.16097500 0.00000000 -2.2067272299999985 0 0 0
Pb 4.16097500 2.94225000 0.86618743
