&CONTROL
calculation = 'relax'
prefix = 'scf'
pseudo_dir = '/vol0004/mdt0/data/hp150275/u10028/POT_KKJUS'
outdir = './data'
tprnfor = .true.
nstep = 50
disk_io = 'non'
/
&SYSTEM
ibrav = 0
ecutwfc = 50.0
ecutrho = 400
occupations = 'smearing'
smearing = 'mp'
degauss = 0.01
assume_isolated = 'esm'
esm_bc = 'bc1'
input_dft = 'BEEF-VDW'
nosym = .true.
nspin = 1
ntyp = 2
nat = 32
/
&ELECTRONS
electron_maxstep = 200
mixing_beta = 0.1
conv_thr = 1e-06
/
&IONS
ion_dynamics = 'bfgs'
upscale = 1.0
/
&CELL
/

K_POINTS {automatic}
9 6 2 0  0  0

ATOMIC_SPECIES
Pd 106.4 Pd.pbe-n-rrkjus_psl.1.0.0.UPF
Zr 91.22 Zr.pbe-spn-rrkjus_psl.1.0.0.UPF

CELL_PARAMETERS {angstrom}
6.75388000 0.00000000 0.00000000
0.00000000 9.55143000 0.00000000
0.00000000 0.00000000 27.16360000

ATOMIC_POSITIONS {angstrom}
Zr 0.00000000 0.00000000 -3.5817923 0 0 0
Zr 0.00000000 2.38785750 -1.1938402199999985 0 0 0
Zr 0.00000000 9.55133449 1.11615232
Zr 0.00000000 2.38776199 3.53941708
Zr 0.00000000 4.77571500 -3.5817923 0 0 0
Zr 0.00000000 7.16357250 -1.1938402199999985 0 0 0
Zr 0.00000000 4.77581051 1.11615232
Zr 0.00000000 7.16366801 3.53968872
Zr 3.37694000 0.00000000 -3.5817923 0 0 0
Zr 3.37694000 2.38785750 -1.1938402199999985 0 0 0
Zr 3.37694000 9.55133449 1.11588069
Zr 3.37694000 2.38776199 3.53887381
Zr 3.37694000 4.77571500 -3.5817923 0 0 0
Zr 3.37694000 7.16357250 -1.1938402199999985 0 0 0
Zr 3.37694000 4.77581051 1.11615232
Zr 3.37694000 7.16366801 3.53914544
Pd 1.68847000 2.38785750 -3.5817923 0 0 0
Pd 1.68847000 0.00000000 -1.1938402199999985 0 0 0
Pd 1.68813231 2.38804853 1.28565319
Pd 1.68840246 4.77581051 3.34927188
Pd 1.68847000 7.16357250 -3.5817923 0 0 0
Pd 1.68847000 4.77571500 -1.1938402199999985 0 0 0
Pd 1.68813231 7.16338147 1.28565319
Pd 1.68840246 9.55133449 3.34927188
Pd 5.06541000 2.38785750 -3.5817923 0 0 0
Pd 5.06541000 0.00000000 -1.1938402199999985 0 0 0
Pd 5.06574769 2.38804853 1.28565319
Pd 5.06547754 4.77581051 3.34927188
Pd 5.06541000 7.16357250 -3.5817923 0 0 0
Pd 5.06541000 4.77571500 -1.1938402199999985 0 0 0
Pd 5.06574769 7.16338147 1.28565319
Pd 5.06547754 9.55133449 3.34927188
