&CONTROL
calculation = 'relax'
prefix = 'scf'
pseudo_dir = '/vol0403/data/hp230205/u10028/POT_HYBRID_KKJUS_GBRV'
outdir = './data'
tprnfor = .true.
nstep = 50
disk_io = 'non'
/
&SYSTEM
ibrav = 0
ecutwfc = 50.0
ecutrho = 400
occupations = 'smearing'
smearing = 'mp'
degauss = 0.01
assume_isolated = 'esm'
esm_bc = 'bc1'
input_dft = 'BEEF-VDW'
nosym = .true.
nspin = 2
ntyp = 6
nat = 34
starting_magnetization(1) = 0.0
starting_magnetization(2) = 0.0
starting_magnetization(3) = 0.1
starting_magnetization(4) = 0.0
starting_magnetization(5) = 0.0
starting_magnetization(6) = 0.0
/
&ELECTRONS
electron_maxstep = 200
mixing_beta = 0.1
conv_thr = 1e-06
/
&IONS
ion_dynamics = 'bfgs'
upscale = 1.0
/
&CELL
/

K_POINTS {automatic}
9 6 2 0  0  0

ATOMIC_SPECIES
C 12.01 C.pbe-n-rrkjus_psl.1.0.0.UPF
Li 6.941 Li.pbe-sl-rrkjus_psl.1.0.0.UPF
Mn 54.93 mn_pbe_v1.5.uspp.F.UPF
O 15.99 O.pbe-n-rrkjus_psl.1.0.0.UPF
Pd 106.4 Pd.pbe-n-rrkjus_psl.1.0.0.UPF
Sb 121.7 Sb.pbe-n-rrkjus_psl.1.0.0.UPF


CELL_PARAMETERS {angstrom}
6.44934000 0.00000000 0.00000000
0.00000000 9.12074000 0.00000000
0.00000000 0.00000000 26.84060000

ATOMIC_POSITIONS {angstrom}
Li 0.00000000 0.00000000 -3.4202976599999992 0 0 0
Li 0.00000000 4.56037000 -3.4202976599999992 0 0 0
Li 3.22467000 6.84055500 -1.1401886899999987 0 0 0
Li 3.22467000 2.28018500 -1.1401886899999987 0 0 0
Li 6.31641910 4.56037000 1.17105538
Li 6.38691039 0.00000000 1.08704430
Li 3.12767193 2.26860166 3.69192453
Li 3.12786541 6.85213834 3.69192453
Mn 0.00000000 2.28018500 -1.1401886899999987 0 0 0
Mn 0.00000000 6.84055500 -1.1401886899999987 0 0 0
Mn 3.22467000 4.56037000 -3.4202976599999992 0 0 0
Mn 3.22467000 0.00000000 -3.4202976599999992 0 0 0
Mn 6.34421576 6.81647625 3.39426228
Mn 6.34440924 2.30435496 3.39479909
Mn 3.23511793 9.12064879 1.19333308
Mn 3.31715354 4.56037000 1.22607861
Sb 4.83700500 0.00000000 -1.1401886899999987 0 0 0
Sb 4.83700500 4.56037000 -1.1401886899999987 0 0 0
Sb 1.61233500 2.28018500 -3.4202976599999992 0 0 0
Sb 1.61233500 6.84055500 -3.4202976599999992 0 0 0
Sb 4.80366191 4.56046121 3.66132625
Sb 4.82913681 9.12064879 3.51907107
Sb 1.64245342 6.81410485 1.20514294
Sb 1.64245342 2.30654394 1.20487453
Pd 1.61233500 0.00000000 -1.1401886899999987 0 0 0
Pd 1.61233500 4.56037000 -1.1401886899999987 0 0 0
Pd 4.83700500 2.28018500 -3.4202976599999992 0 0 0
Pd 4.83700500 6.84055500 -3.4202976599999992 0 0 0
Pd 1.44084705 4.56037000 3.16799602
Pd 1.36796951 0.00009121 3.14464470
Pd 4.77296305 6.89163114 1.10126982
Pd 4.77296305 2.22901765 1.10126982
C 4.20896827 0.00009121 7.45041375
O 5.08214441 0.00000000 8.17672038
