&CONTROL
calculation = 'relax'
prefix = 'scf'
pseudo_dir = '/vol0403/data/hp230205/u10028/POT_HYBRID_KKJUS_GBRV'
outdir = './data'
tprnfor = .true.
nstep = 70
disk_io = 'non'
/
&SYSTEM
ibrav = 0
ecutwfc = 50.0
ecutrho = 400
occupations = 'smearing'
smearing = 'mp'
degauss = 0.01
assume_isolated = 'esm'
esm_bc = 'bc1'
input_dft = 'BEEF-VDW'
nosym = .true.
nspin = 1
ntyp = 4
nat = 32
/
&ELECTRONS
electron_maxstep = 200
mixing_beta = 0.1
conv_thr = 1e-06
/
&IONS
ion_dynamics = 'bfgs'
upscale = 1.0
/
&CELL
/

K_POINTS {automatic}
9 6 2 0  0  0

ATOMIC_SPECIES
Cu 63.54 Cu.pbe-dn-rrkjus_psl.1.0.0.UPF
In 114.8 In.pbe-dn-rrkjus_psl.1.0.0.UPF
Li 6.941 Li.pbe-sl-rrkjus_psl.1.0.0.UPF
Pt 195.0 Pt.pbe-n-rrkjus_psl.1.0.0.UPF


CELL_PARAMETERS {angstrom}
6.33470000 0.00000000 0.00000000
-0.00000000 8.95862000 0.00000000
0.00000000 0.00000000 26.71900000

ATOMIC_POSITIONS {angstrom}
Li 4.75102500 0.00000000 -1.1197932900000005 0 0 0
Li 4.75102500 4.47931000 -1.1197932900000005 0 0 0
Li 1.58367500 2.23965500 -3.3593798700000015 0 0 0
Li 1.58367500 6.71896500 -3.3593798700000015 0 0 0
Li 4.57511038 4.47931000 3.51488445
Li 4.57504703 -0.00000000 3.51488445
Li 1.46572289 6.71896500 1.15639832
Li 1.46572289 2.23965500 1.15639832
In 0.00000000 2.23965500 -1.1197932900000005 0 0 0
In 0.00000000 6.71896500 -1.1197932900000005 0 0 0
In 3.16735000 4.47931000 -3.3593798700000015 0 0 0
In 3.16735000 0.00000000 -3.3593798700000015 0 0 0
In 0.06436055 6.71896500 3.68267977
In 0.06436055 2.23965500 3.68267977
In 3.21048931 -0.00000000 1.07971479
In 3.21048931 4.47931000 1.07971479
Cu 0.00000000 0.00000000 -3.3593798700000015 0 0 0
Cu 0.00000000 4.47931000 -3.3593798700000015 0 0 0
Cu 3.16735000 6.71896500 -1.1197932900000005 0 0 0
Cu 3.16735000 2.23965500 -1.1197932900000005 0 0 0
Cu 6.28009489 4.47931000 1.08906644
Cu 6.28009489 -0.00000000 1.08906644
Cu 3.02424913 2.23965500 3.15204043
Cu 3.02424913 6.71896500 3.15204043
Pt 1.58367500 0.00000000 -1.1197932900000005 0 0 0
Pt 1.58367500 4.47931000 -1.1197932900000005 0 0 0
Pt 4.75102500 2.23965500 -3.3593798700000015 0 0 0
Pt 4.75102500 6.71896500 -3.3593798700000015 0 0 0
Pt 1.56473425 4.47931000 3.21135661
Pt 1.56473425 -0.00000000 3.21135661
Pt 4.82444417 6.71896500 1.19914872
Pt 4.82444417 2.23965500 1.19941591
