&CONTROL
calculation = 'relax'
prefix = 'scf'
pseudo_dir = '/vol0403/data/hp230205/u10028/POT_HYBRID_KKJUS_GBRV'
outdir = './data'
tprnfor = .true.
nstep = 50
disk_io = 'non'
/
&SYSTEM
ibrav = 0
ecutwfc = 50.0
ecutrho = 400
occupations = 'smearing'
smearing = 'mp'
degauss = 0.01
assume_isolated = 'esm'
esm_bc = 'bc1'
input_dft = 'BEEF-VDW'
nosym = .true.
nspin = 1
ntyp = 5
nat = 17
/
&ELECTRONS
electron_maxstep = 200
mixing_beta = 0.1
conv_thr = 1e-06
/
&IONS
ion_dynamics = 'bfgs'
upscale = 1.0
/
&CELL
/

K_POINTS {automatic}
6 6 1 0 0 0

ATOMIC_SPECIES
C 12.01 C.pbe-n-rrkjus_psl.1.0.0.UPF
In 114.8 In.pbe-dn-rrkjus_psl.1.0.0.UPF
Li 6.941 Li.pbe-sl-rrkjus_psl.1.0.0.UPF
Pb 207.2 Pb.pbe-dn-rrkjus_psl.1.0.0.UPF
Y 88.90 Y.pbe-spn-rrkjus_psl.1.0.0.UPF


CELL_PARAMETERS {angstrom}
6.48172000 0.00000000 0.00000000
0.00000000 9.42336000 0.00000000
0.00000000 0.00000000 24.85820000

ATOMIC_POSITIONS {angstrom}
Li 3.24086000 0.00000000 -2.4291433 0 0 0
Li 6.09035375 0.00000000 0.86233096
Li 3.24086000 4.71168000 -2.4291433 0 0 0
Li 6.23262750 4.71168000 0.79148509
Y 1.56248342 2.35584000 -0.8096315700000005 0 0 0
Y 4.53551875 2.17745580 2.57878967
Y 1.56248342 7.06752000 -0.8096315700000005 0 0 0
Y 4.53551875 7.24590420 2.57878967
In 0.00000000 0.00000000 -2.4291433 0 0 0
In 2.58017828 0.00000000 1.11116154
In 0.00000000 4.71168000 -2.4291433 0 0 0
In 2.95760884 4.71168000 0.85238768
Pb 4.80334342 2.35584000 -0.8096315700000005 0 0 0
Pb 1.32966004 2.71732009 2.66604195
Pb 4.80334342 7.06752000 -0.8096315700000005 0 0 0
Pb 1.32959522 6.70603991 2.66604195
C 4.50006374 0.00000000 2.24394971
