&CONTROL
calculation = 'relax'
prefix = 'scf'
pseudo_dir = '/vol0403/data/hp230205/u10028/POT_HYBRID_KKJUS_GBRV'
outdir = './data'
tprnfor = .true.
nstep = 50
disk_io = 'non'
/
&SYSTEM
ibrav = 0
ecutwfc = 50.0
ecutrho = 400
occupations = 'smearing'
smearing = 'mp'
degauss = 0.01
assume_isolated = 'esm'
esm_bc = 'bc1'
input_dft = 'BEEF-VDW'
nosym = .true.
nspin = 1
ntyp = 5
nat = 17
/
&ELECTRONS
electron_maxstep = 200
mixing_beta = 0.1
conv_thr = 1e-06
/
&IONS
ion_dynamics = 'bfgs'
upscale = 1.0
/
&CELL
/

K_POINTS {automatic}
6 6 1 0 0 0

ATOMIC_SPECIES
C 12.01 C.pbe-n-rrkjus_psl.1.0.0.UPF
In 114.8 In.pbe-dn-rrkjus_psl.1.0.0.UPF
Li 6.941 Li.pbe-sl-rrkjus_psl.1.0.0.UPF
Sn 118.7 Sn.pbe-dn-rrkjus_psl.1.0.0.UPF
Y 88.90 Y.pbe-spn-rrkjus_psl.1.0.0.UPF


CELL_PARAMETERS {angstrom}
8.86856000 0.00000000 0.00000000
0.00000000 6.50942000 0.00000000
0.00000000 0.00000000 24.87900000

ATOMIC_POSITIONS {angstrom}
Li 2.21705131 1.67995111 1.09119294
Li 2.21714000 4.70995594 -2.4396347400000025 0 0 0
Li 6.65133131 1.56440891 0.86155977
Li 6.65142000 4.70995594 -2.4396347400000025 0 0 0
Y 2.21714000 4.93602809 0.83618319
Y 2.21714000 1.45524594 -2.4396347400000025 0 0 0
Y 6.65142000 4.71334083 0.88345329
Y 6.65142000 1.45524594 -2.4396347400000025 0 0 0
In 8.63726796 0.14867515 2.39136948
In 0.00000000 3.13994893 -0.8132945100000022 0 0 0
In 4.66566073 0.14867515 2.39136948
In 4.43428000 3.13994893 -0.8132945100000022 0 0 0
Sn 0.13276234 3.24533644 2.74589523
Sn 0.00000000 6.39465893 -0.8132945100000022 0 0 0
Sn 4.30151766 3.24533644 2.74589523
Sn 4.43428000 6.39465893 -0.8132945100000022 0 0 0
C 2.21714000 3.38906443 2.47570929
