&CONTROL
calculation = 'relax'
prefix = 'scf'
pseudo_dir = '/vol0403/data/hp230205/u10028/POT_HYBRID_KKJUS_GBRV'
outdir = './data'
tprnfor = .true.
nstep = 50
disk_io = 'non'
/
&SYSTEM
ibrav = 0
ecutwfc = 50.0
ecutrho = 400
occupations = 'smearing'
smearing = 'mp'
degauss = 0.01
assume_isolated = 'esm'
esm_bc = 'bc1'
input_dft = 'BEEF-VDW'
nosym = .true.
nspin = 2
ntyp = 5
nat = 33
starting_magnetization(1) = 0.0
starting_magnetization(2) = 0.0
starting_magnetization(3) = 0.1
starting_magnetization(4) = 0.0
starting_magnetization(5) = 0.0
/
&ELECTRONS
electron_maxstep = 400
mixing_beta = 0.05
conv_thr = 1e-06
/
&IONS
ion_dynamics = 'bfgs'
upscale = 1.0
/
&CELL
/

K_POINTS {automatic}
9 6 2 0  0  0

ATOMIC_SPECIES
C 12.01 C.pbe-n-rrkjus_psl.1.0.0.UPF
In 114.8 In.pbe-dn-rrkjus_psl.1.0.0.UPF
Mn 54.93 mn_pbe_v1.5.uspp.F.UPF
Pd 106.4 Pd.pbe-n-rrkjus_psl.1.0.0.UPF
Sc 44.95 Sc.pbe-spn-rrkjus_psl.1.0.0.UPF


CELL_PARAMETERS {angstrom}
6.62299000 0.00000000 0.00000000
0.00000000 9.36632000 0.00000000
0.00000000 0.00000000 27.02470000

ATOMIC_POSITIONS {angstrom}
Sc 0.00000000 2.34158000 25.85399000
Sc 0.00000000 7.02474000 25.85399000
Sc 3.31149500 4.68316000 23.51229974
Sc 3.31149500 0.00000000 23.51229974
Sc 0.03549923 7.02455267 3.51294075
Sc 6.29303264 2.34167366 3.59617683
Sc 3.33242365 9.29869517 1.08044751
Sc 3.33248988 4.75078483 1.08017726
Mn 4.96724250 0.00000000 25.85399000
Mn 4.96724250 4.68316000 25.85399000
Mn 1.65574750 2.34158000 23.51229974
Mn 1.65574750 7.02474000 23.51229974
Mn 4.74159723 4.76043214 3.57861077
Mn 4.74199461 9.28895420 3.57861077
Mn 1.56587353 7.02474000 1.31799462
Mn 1.88152523 2.34158000 1.51635592
In 0.00000000 0.00000000 23.51229974
In 0.00000000 4.68316000 23.51229974
In 3.31149500 7.02474000 25.85399000
In 3.31149500 2.34158000 25.85399000
In 6.58225861 4.61085201 1.20503137
In 6.58232484 0.07230799 1.20503137
In 3.54349834 2.34139267 4.58582134
In 3.21532919 7.02483366 3.71535576
Pd 1.65574750 0.00000000 25.85399000
Pd 1.65574750 4.68316000 25.85399000
Pd 4.96724250 2.34158000 23.51229974
Pd 4.96724250 7.02474000 23.51229974
Pd 1.85298014 4.60354628 3.29944562
Pd 1.85284768 0.07961372 3.29917538
Pd 5.00188074 7.02474000 1.18503309
Pd 4.82703380 2.34158000 1.21773298
C 1.70316811 2.34158000 3.39187010
