&CONTROL
calculation = 'relax'
prefix = 'scf'
pseudo_dir = '/vol0403/data/hp230205/u10028/POT_HYBRID_KKJUS_GBRV'
outdir = './data'
tprnfor = .true.
nstep = 50
disk_io = 'non'
/
&SYSTEM
ibrav = 0
ecutwfc = 50.0
ecutrho = 400
occupations = 'smearing'
smearing = 'mp'
degauss = 0.01
assume_isolated = 'esm'
esm_bc = 'bc1'
input_dft = 'BEEF-VDW'
nosym = .true.
nspin = 1
ntyp = 5
nat = 33
/
&ELECTRONS
electron_maxstep = 200
mixing_beta = 0.1
conv_thr = 1e-06
/
&IONS
ion_dynamics = 'bfgs'
upscale = 1.0
/
&CELL
/

K_POINTS {automatic}
6 6 1 0 0 0

ATOMIC_SPECIES
C 12.01 C.pbe-n-rrkjus_psl.1.0.0.UPF
Ge 72.64 Ge.pbe-dn-rrkjus_psl.1.0.0.UPF
Li 6.941 Li.pbe-sl-rrkjus_psl.1.0.0.UPF
Pd 106.4 Pd.pbe-n-rrkjus_psl.1.0.0.UPF
V 50.94 V.pbe-spnl-rrkjus_psl.1.0.0.UPF


CELL_PARAMETERS {angstrom}
8.64114000 0.00000000 0.00000000
0.00000000 9.40562000 0.00000000
0.00000000 0.00000000 24.26620000

ATOMIC_POSITIONS {angstrom}
Li 0.00000000 2.35140500 -0.7109996600000024 0 0 0
Li 0.00000000 2.18351468 2.36910911
Li 0.00000000 7.05421500 -0.7109996600000024 0 0 0
Li 0.00000000 7.22210532 2.36910911
Li 4.32057000 2.35140500 -0.7109996600000024 0 0 0
Li 4.32065641 2.33466300 2.32348865
Li 4.32057000 7.05421500 -0.7109996600000024 0 0 0
Li 4.32065641 7.07095700 2.32348865
V 2.16028500 0.00000000 -0.7109996600000024 0 0 0
V 1.88523751 0.00000000 1.90222742
V 2.16028500 4.70281000 -0.7109996600000024 0 0 0
V 2.15086616 4.70281000 1.60763575
V 6.48085500 0.00000000 -0.7109996600000024 0 0 0
V 6.75564325 0.00000000 1.90222742
V 6.48085500 4.70281000 -0.7109996600000024 0 0 0
V 6.49027384 4.70281000 1.60787841
Ge 0.00000000 0.00000000 -2.13299898 0 0 0
Ge 8.64096718 0.00000000 0.39456841
Ge 0.00000000 4.70281000 -2.13299898 0 0 0
Ge 8.64096718 4.70281000 0.56054922
Ge 4.32057000 0.00000000 -2.13299898 0 0 0
Ge 4.32057000 0.00000000 0.80418187
Ge 4.32057000 4.70281000 -2.13299898 0 0 0
Ge 4.32082923 4.70281000 0.57656491
Pd 2.16028500 2.35140500 -2.13299898 0 0 0
Pd 2.22371097 2.30155521 0.84664772
Pd 2.16028500 7.05421500 -2.13299898 0 0 0
Pd 2.22371097 7.10406479 0.84664772
Pd 6.48085500 2.35140500 -2.13299898 0 0 0
Pd 6.41742903 2.30155521 0.84640506
Pd 6.48085500 7.05421500 -2.13299898 0 0 0
Pd 6.41742903 7.10406479 0.84640506
C 8.64105359 0.00000000 2.46107800
