&CONTROL
calculation = 'relax'
prefix = 'scf'
pseudo_dir = '/vol0004/mdt0/data/hp150275/u10028/POT_KKJUS'
outdir = './data'
tprnfor = .true.
nstep = 50
disk_io = 'non'
/
&SYSTEM
ibrav = 0
ecutwfc = 50.0
ecutrho = 400
occupations = 'smearing'
smearing = 'mp'
degauss = 0.01
assume_isolated = 'esm'
esm_bc = 'bc1'
input_dft = 'BEEF-VDW'
nosym = .true.
nspin = 1
ntyp = 5
nat = 18
/
&ELECTRONS
electron_maxstep = 200
mixing_beta = 0.1
conv_thr = 1e-06
/
&IONS
ion_dynamics = 'bfgs'
upscale = 1.0
/
&CELL
/

K_POINTS {automatic}
8 8 1 0 0 0

ATOMIC_SPECIES
Al 26.98 Al.pbe-nl-rrkjus_psl.1.0.0.UPF
C 12.01 C.pbe-n-rrkjus_psl.1.0.0.UPF
Ni 58.69 Ni.pbe-spn-rrkjus_psl.1.0.0.UPF
O 15.99 O.pbe-n-rrkjus_psl.1.0.0.UPF
Ta 180.9 Ta.pbe-spn-rrkjus_psl.1.0.0.UPF

CELL_PARAMETERS {angstrom}
6.00328000 0.00000000 0.00000000
-0.00000000 6.00328000 0.00000000
0.00000000 0.00000000 24.50250000

ATOMIC_POSITIONS {angstrom}
Ta 0.00000000 0.00000000 -2.251289700000001 0 0 0
Ta 3.00164000 3.00164000 -2.251289700000001 0 0 0
Ta 3.00164000 -0.00000000 0.75051158
Ta 0.00000000 3.00164000 0.75051158
Al 0.00000000 0.00000000 0.75051158
Al 3.00164000 0.00000000 -2.251289700000001 0 0 0
Al 0.00000000 3.00164000 -2.251289700000001 0 0 0
Al 3.00164000 3.00164000 0.75051158
Ni 1.50082000 1.50082000 -0.7505115700000005 0 0 0
Ni 4.50246000 4.50246000 2.25128970
Ni 4.50246000 1.50082000 -0.7505115700000005 0 0 0
Ni 1.50082000 4.50246000 2.25128970
Ni 4.50246000 4.50246000 -0.7505115700000005 0 0 0
Ni 1.50082000 1.50082000 2.25128970
Ni 1.50082000 4.50246000 -0.7505115700000005 0 0 0
Ni 4.50246000 1.50082000 2.25128970
C 1.50082000 1.50082000 4.15121355
O 1.50082000 1.50082000 5.30136090
