&CONTROL
calculation = 'relax'
prefix = 'scf'
pseudo_dir = '/vol0403/data/hp230205/u10028/POT_HYBRID_KKJUS_GBRV'
outdir = './data'
tprnfor = .true.
nstep = 50
disk_io = 'non'
/
&SYSTEM
ibrav = 0
ecutwfc = 50.0
ecutrho = 400
occupations = 'smearing'
smearing = 'mp'
degauss = 0.01
assume_isolated = 'esm'
esm_bc = 'bc1'
input_dft = 'BEEF-VDW'
nosym = .true.
nspin = 1
ntyp = 6
nat = 18
/
&ELECTRONS
electron_maxstep = 200
mixing_beta = 0.1
conv_thr = 1e-06
/
&IONS
ion_dynamics = 'bfgs'
upscale = 1.0
/
&CELL
/

K_POINTS {automatic}
11 7 2 0  0  0

ATOMIC_SPECIES
C 12.01 C.pbe-n-rrkjus_psl.1.0.0.UPF
Li 6.941 Li.pbe-sl-rrkjus_psl.1.0.0.UPF
O 15.99 O.pbe-n-rrkjus_psl.1.0.0.UPF
Pb 207.2 Pb.pbe-dn-rrkjus_psl.1.0.0.UPF
Sn 118.7 Sn.pbe-dn-rrkjus_psl.1.0.0.UPF
Y 88.90 Y.pbe-spn-rrkjus_psl.1.0.0.UPF


CELL_PARAMETERS {angstrom}
6.55220000 0.00000000 0.00000000
0.00000000 9.36828000 0.00000000
0.00000000 0.00000000 24.89710000

ATOMIC_POSITIONS {angstrom}
Li 0.22035049 0.00000000 2.64531687
Li 3.00306983 0.00000000 -0.8161269399999966 0 0 0
Li 0.18005446 4.68414000 2.60348975
Li 3.00306983 4.68414000 -0.8161269399999966 0 0 0
Y 4.90288022 2.34450575 0.82583681
Y 1.22847198 2.34207000 -2.4486297899999983 0 0 0
Y 4.90274917 7.02377425 0.82583681
Y 1.22847198 7.02621000 -2.4486297899999983 0 0 0
Sn 3.34640511 0.00000000 2.35128212
Sn 6.27916983 0.00000000 -0.8161269399999966 0 0 0
Sn 3.33002461 4.68414000 2.39086851
Sn 6.27916983 4.68414000 -0.8161269399999966 0 0 0
Pb 1.59113625 2.34150790 1.23464719
Pb 4.50457198 2.34207000 -2.4486297899999983 0 0 0
Pb 1.59113625 7.02677210 1.23439822
Pb 4.50457198 7.02621000 -2.4486297899999983 0 0 0
C 0.12416419 0.00000000 4.73791813
O 0.08517860 0.00009368 5.87646251
