&CONTROL
calculation = 'relax'
prefix = 'scf'
pseudo_dir = '/vol0004/mdt0/data/hp150275/u10028/POT_KKJUS'
outdir = './data'
tprnfor = .true.
nstep = 50
disk_io = 'non'
/
&SYSTEM
ibrav = 0
ecutwfc = 50.0
ecutrho = 400
occupations = 'smearing'
smearing = 'mp'
degauss = 0.01
assume_isolated = 'esm'
esm_bc = 'bc1'
input_dft = 'BEEF-VDW'
nosym = .true.
nspin = 1
ntyp = 4
nat = 17
/
&ELECTRONS
electron_maxstep = 200
mixing_beta = 0.1
conv_thr = 1e-06
/
&IONS
ion_dynamics = 'bfgs'
upscale = 1.0
/
&CELL
/

K_POINTS {automatic}
10 10 2 0  0  0

ATOMIC_SPECIES
C 12.01 C.pbe-n-rrkjus_psl.1.0.0.UPF
In 114.8 In.pbe-dn-rrkjus_psl.1.0.0.UPF
Ir 192.2 Ir.pbe-n-rrkjus_psl.0.2.3.UPF
Li 6.941 Li.pbe-sl-rrkjus_psl.1.0.0.UPF

CELL_PARAMETERS {angstrom}
6.34973000 0.00000000 0.00000000
0.00000000 6.34973000 0.00000000
0.00000000 0.00000000 24.76230000

ATOMIC_POSITIONS {angstrom}
Li 0.00000000 0.00000000 -0.7936317200000005 0 0 0
Li 3.16451494 0.01028656 2.85212171
Li 0.01028656 3.16451494 2.85212171
Li 3.17486500 3.17486500 -0.7936317200000005 0 0 0
Li 1.58730551 1.58730551 0.63366726
Li 1.58743250 4.76229750 -2.3811427700000003 0 0 0
Li 4.76217051 4.76210701 0.87336632
Li 4.76229750 1.58743250 -2.3811427700000003 0 0 0
In 1.58743250 1.58743250 -2.3811427700000003 0 0 0
In 1.58800398 4.76178952 0.87807116
In 4.76229750 4.76229750 -2.3811427700000003 0 0 0
In 4.76172602 1.58806747 0.87782354
Ir 0.31481961 0.31475612 2.41779097
Ir 2.85991839 2.85991839 2.41704810
Ir 3.17486500 0.00000000 -0.7936317200000005 0 0 0
Ir 0.00000000 3.17486500 -0.7936317200000005 0 0 0
C 1.58736900 1.58730551 2.83156900
