&CONTROL
calculation = 'relax'
prefix = 'scf'
pseudo_dir = '/vol0403/data/hp230205/u10028/POT_HYBRID_KKJUS_GBRV'
outdir = './data'
tprnfor = .true.
nstep = 50
disk_io = 'non'
/
&SYSTEM
ibrav = 0
ecutwfc = 50.0
ecutrho = 400
occupations = 'smearing'
smearing = 'mp'
degauss = 0.01
assume_isolated = 'esm'
esm_bc = 'bc1'
input_dft = 'BEEF-VDW'
nosym = .true.
nspin = 1
ntyp = 4
nat = 32
/
&ELECTRONS
electron_maxstep = 200
mixing_beta = 0.1
conv_thr = 1e-06
/
&IONS
ion_dynamics = 'bfgs'
upscale = 1.0
/
&CELL
/

K_POINTS {automatic}
6 6 1 0 0 0

ATOMIC_SPECIES
Ge 72.64 Ge.pbe-dn-rrkjus_psl.1.0.0.UPF
Li 6.941 Li.pbe-sl-rrkjus_psl.1.0.0.UPF
Pd 106.4 Pd.pbe-n-rrkjus_psl.1.0.0.UPF
V 50.94 V.pbe-spnl-rrkjus_psl.1.0.0.UPF


CELL_PARAMETERS {angstrom}
9.40562000 0.00000000 0.00000000
0.00000000 5.68832000 0.00000000
0.00000000 0.00000000 26.48090000

ATOMIC_POSITIONS {angstrom}
Li 2.35149906 1.42208000 3.75843414
Li 2.35140500 1.42208000 -1.0801559099999984 0 0 0
Li 2.35196934 4.26624000 3.75763971
Li 2.35140500 4.26624000 -1.0801559099999984 0 0 0
Li 7.05412094 1.42208000 3.75843414
Li 7.05421500 1.42208000 -1.0801559099999984 0 0 0
Li 7.05374472 4.26624000 3.75763971
Li 7.05421500 4.26624000 -1.0801559099999984 0 0 0
V 0.00000000 1.42208000 1.03460876
V 0.00000000 1.42208000 -3.240467729999999 0 0 0
V 0.00000000 4.26624000 1.03593281
V 0.00000000 4.26624000 -3.240467729999999 0 0 0
V 4.70281000 1.42208000 1.03169586
V 4.70281000 1.42208000 -3.240467729999999 0 0 0
V 4.70281000 4.26624000 1.03328472
V 4.70281000 4.26624000 -3.240467729999999 0 0 0
Ge 9.40552594 0.00193403 3.20074638
Ge 0.00000000 0.00000000 -1.0801559099999984 0 0 0
Ge 9.40552594 2.84222597 3.20074638
Ge 0.00000000 2.84416000 -1.0801559099999984 0 0 0
Ge 4.70290406 0.00307169 3.19624463
Ge 4.70281000 0.00000000 -1.0801559099999984 0 0 0
Ge 4.70281000 2.84108831 3.19624463
Ge 4.70281000 2.84416000 -1.0801559099999984 0 0 0
Pd 2.35093472 0.00011377 1.54754380
Pd 2.35140500 0.00000000 -3.240467729999999 0 0 0
Pd 2.35084066 2.84404623 1.54754380
Pd 2.35140500 2.84416000 -3.240467729999999 0 0 0
Pd 7.05477934 0.00011377 1.54754380
Pd 7.05421500 0.00000000 -3.240467729999999 0 0 0
Pd 7.05477934 2.84404623 1.54754380
Pd 7.05421500 2.84416000 -3.240467729999999 0 0 0
