&CONTROL
calculation = 'relax'
prefix = 'scf'
pseudo_dir = '/vol0403/data/hp230205/u10028/POT_HYBRID_KKJUS_GBRV'
outdir = './data'
tprnfor = .true.
nstep = 50
disk_io = 'non'
/
&SYSTEM
ibrav = 0
ecutwfc = 50.0
ecutrho = 400
occupations = 'smearing'
smearing = 'mp'
degauss = 0.01
assume_isolated = 'esm'
esm_bc = 'bc1'
input_dft = 'BEEF-VDW'
nosym = .true.
nspin = 1
ntyp = 5
nat = 33
/
&ELECTRONS
electron_maxstep = 200
mixing_beta = 0.1
conv_thr = 1e-06
/
&IONS
ion_dynamics = 'bfgs'
upscale = 1.0
/
&CELL
/

K_POINTS {automatic}
7 7 2 0  0  0

ATOMIC_SPECIES
C 12.01 C.pbe-n-rrkjus_psl.1.0.0.UPF
Ge 72.64 Ge.pbe-dn-rrkjus_psl.1.0.0.UPF
Li 6.941 Li.pbe-sl-rrkjus_psl.1.0.0.UPF
Sn 118.7 Sn.pbe-dn-rrkjus_psl.1.0.0.UPF
Y 88.90 Y.pbe-spn-rrkjus_psl.1.0.0.UPF


CELL_PARAMETERS {angstrom}
8.60818000 0.00000000 0.00000000
0.00000000 8.52742000 0.00000000
0.00000000 0.00000000 27.07540000

ATOMIC_POSITIONS {angstrom}
Li 0.00000000 2.13185500 -1.1791336699999988 0 0 0
Li 8.59148013 2.13185500 3.67738083
Li 0.00000000 6.39556500 -1.1791336699999988 0 0 0
Li 8.45968890 6.39556500 3.63108189
Li 4.30409000 2.13185500 -1.1791336699999988 0 0 0
Li 4.32078987 2.13185500 3.67738083
Li 4.30409000 6.39556500 -1.1791336699999988 0 0 0
Li 4.45258111 6.39556500 3.63108189
Y 2.15204500 2.13185500 -3.5376717599999985 0 0 0
Y 2.15204500 2.13185500 1.27091928
Y 2.15204500 6.39556500 -3.5376717599999985 0 0 0
Y 2.15204500 6.39556500 1.19267137
Y 6.45613500 2.13185500 -3.5376717599999985 0 0 0
Y 6.45613500 2.13185500 1.13256398
Y 6.45613500 6.39556500 -3.5376717599999985 0 0 0
Y 6.45613500 6.39556500 1.10007350
Sn 2.15204500 0.00000000 -1.1791336699999988 0 0 0
Sn 2.15204500 0.01108565 3.85797375
Sn 2.15204500 4.26371000 -1.1791336699999988 0 0 0
Sn 2.15204500 4.25262435 3.85797375
Sn 6.45613500 0.00000000 -1.1791336699999988 0 0 0
Sn 6.45613500 0.00801577 3.53198593
Sn 6.45613500 4.26371000 -1.1791336699999988 0 0 0
Sn 6.45613500 4.25569423 3.53198593
Ge 0.00000000 0.00000000 -3.5376717599999985 0 0 0
Ge 8.58373277 8.50234939 1.36297564
Ge 0.00000000 4.26371000 -3.5376717599999985 0 0 0
Ge 8.58373277 4.28878061 1.36324639
Ge 4.30409000 0.00000000 -3.5376717599999985 0 0 0
Ge 4.32853723 8.50234939 1.36324639
Ge 4.30409000 4.26371000 -3.5376717599999985 0 0 0
Ge 4.32853723 4.28878061 1.36297564
C 2.15204500 2.13185500 3.62187626
