&CONTROL
calculation = 'relax'
prefix = 'scf'
pseudo_dir = '/vol0004/mdt0/data/hp150275/u10028/POT_KKJUS'
outdir = './data'
tprnfor = .true.
nstep = 50
disk_io = 'non'
/
&SYSTEM
ibrav = 0
ecutwfc = 50.0
ecutrho = 400
occupations = 'smearing'
smearing = 'mp'
degauss = 0.01
assume_isolated = 'esm'
esm_bc = 'bc1'
input_dft = 'BEEF-VDW'
nosym = .true.
nspin = 1
ntyp = 3
nat = 18
/
&ELECTRONS
electron_maxstep = 200
mixing_beta = 0.1
conv_thr = 1e-06
/
&IONS
ion_dynamics = 'bfgs'
upscale = 1.0
/
&CELL
/

K_POINTS {automatic}
10 10 2 0  0  0

ATOMIC_SPECIES
Be 9.012 Be.pbe-n-rrkjus_psl.1.0.0.UPF
C 12.01 C.pbe-n-rrkjus_psl.1.0.0.UPF
O 15.99 O.pbe-n-rrkjus_psl.1.0.0.UPF

CELL_PARAMETERS {angstrom}
4.95432000 0.00000000 0.00000000
-0.00000000 4.95432000 0.00000000
0.00000000 0.00000000 23.71570000

ATOMIC_POSITIONS {angstrom}
Be 0.00000000 0.00000000 -1.8578879399999977 0 0 0
Be 1.23858000 1.23858000 -0.6192169299999968 0 0 0
Be 0.00000000 0.00000000 0.61921693
Be 1.23858000 1.23858000 1.85788794
Be 0.00000000 2.47716000 -1.8578879399999977 0 0 0
Be 1.23858000 3.71574000 -0.6192169299999968 0 0 0
Be 0.00000000 2.47716000 0.61921693
Be 1.23858000 3.71574000 1.85788794
Be 2.47716000 0.00000000 -1.8578879399999977 0 0 0
Be 3.71574000 1.23858000 -0.6192169299999968 0 0 0
Be 2.47716000 -0.00000000 0.61921693
Be 3.71574000 1.23858000 1.85788794
Be 2.47716000 2.47716000 -1.8578879399999977 0 0 0
Be 3.71574000 3.71574000 -0.6192169299999968 0 0 0
Be 2.47716000 2.47716000 0.61921693
Be 3.71574000 3.71574000 1.85788794
C 1.23858000 1.23858000 3.75775266
O 1.23858000 1.23858000 4.90796411
