&CONTROL
calculation = 'relax'
prefix = 'scf'
pseudo_dir = '/vol0004/mdt0/data/hp150275/u10028/POT_KKJUS'
outdir = './data'
tprnfor = .true.
nstep = 50
disk_io = 'non'
/
&SYSTEM
ibrav = 0
ecutwfc = 50.0
ecutrho = 400
occupations = 'smearing'
smearing = 'mp'
degauss = 0.01
assume_isolated = 'esm'
esm_bc = 'bc1'
input_dft = 'BEEF-VDW'
nosym = .true.
nspin = 1
ntyp = 3
nat = 17
/
&ELECTRONS
electron_maxstep = 200
mixing_beta = 0.1
conv_thr = 1e-06
/
&IONS
ion_dynamics = 'bfgs'
upscale = 1.0
/
&CELL
/

K_POINTS {automatic}
6 8 1 0 0 0

ATOMIC_SPECIES
C 12.01 C.pbe-n-rrkjus_psl.1.0.0.UPF
Ir 192.2 Ir.pbe-n-rrkjus_psl.0.2.3.UPF
Sc 44.95 Sc.pbe-spn-rrkjus_psl.1.0.0.UPF

CELL_PARAMETERS {angstrom}
7.92728000 0.00000000 0.00000000
0.00000000 5.60543000 0.00000000
0.00000000 0.00000000 24.20410000

ATOMIC_POSITIONS {angstrom}
Sc 7.83365882 5.60212280 1.96029006
Sc 0.00000000 2.80271500 -0.700708689999999 0 0 0
Sc 4.05726118 5.60212280 1.96029006
Sc 3.96364000 2.80271500 -0.700708689999999 0 0 0
Ir 7.90904726 2.80092126 2.00361540
Ir 1.98182000 4.22828796 0.62349762
Ir 1.98182000 1.37338640 0.62325557
Ir 0.00000000 0.00000000 -0.700708689999999 0 0 0
Ir 1.98182000 1.40135750 -2.1021260800000015 0 0 0
Ir 1.98182000 4.20407250 -2.1021260800000015 0 0 0
Ir 3.98187274 2.80092126 2.00361540
Ir 5.94546000 4.18411717 0.65036417
Ir 5.94546000 1.41778141 0.65060621
Ir 3.96364000 0.00000000 -0.700708689999999 0 0 0
Ir 5.94546000 1.40135750 -2.1021260800000015 0 0 0
Ir 5.94546000 4.20407250 -2.1021260800000015 0 0 0
C 1.98182000 2.79817460 2.13141305
