&CONTROL
calculation = 'relax'
prefix = 'scf'
pseudo_dir = '/vol0004/mdt0/data/hp150275/u10028/POT_KKJUS'
outdir = './data'
tprnfor = .true.
nstep = 50
disk_io = 'non'
/
&SYSTEM
ibrav = 0
ecutwfc = 50.0
ecutrho = 400
occupations = 'smearing'
smearing = 'mp'
degauss = 0.01
assume_isolated = 'esm'
esm_bc = 'bc1'
input_dft = 'BEEF-VDW'
nosym = .true.
nspin = 1
ntyp = 5
nat = 34
/
&ELECTRONS
electron_maxstep = 200
mixing_beta = 0.1
conv_thr = 1e-06
/
&IONS
ion_dynamics = 'bfgs'
upscale = 1.0
/
&CELL
/

K_POINTS {automatic}
9 6 2 0  0  0

ATOMIC_SPECIES
C 12.01 C.pbe-n-rrkjus_psl.1.0.0.UPF
Li 6.941 Li.pbe-sl-rrkjus_psl.1.0.0.UPF
Ni 58.69 Ni.pbe-spn-rrkjus_psl.1.0.0.UPF
O 15.99 O.pbe-n-rrkjus_psl.1.0.0.UPF
Si 28.08 Si.pbe-nl-rrkjus_psl.1.0.0.UPF

CELL_PARAMETERS {angstrom}
5.57854000 0.00000000 0.00000000
0.00000000 7.88925000 0.00000000
0.00000000 0.00000000 25.91690000

ATOMIC_POSITIONS {angstrom}
Li 0.00000000 0.00000000 -2.9584141299999978 0 0 0
Li 2.78927000 1.97231250 -0.9861380499999974 0 0 0
Li 2.78927000 5.91693750 -0.9861380499999974 0 0 0
Li 0.00000000 3.94462500 -2.9584141299999978 0 0 0
Li 0.00000000 3.95645887 0.87106701
Li 2.78927000 5.91693750 3.52029253
Li 2.78927000 1.97231250 3.44435601
Li 0.00000000 7.87741612 0.87106701
Si 0.00000000 5.91693750 -0.9861380499999974 0 0 0
Si 2.78927000 0.00000000 -2.9584141299999978 0 0 0
Si 0.00000000 1.97231250 -0.9861380499999974 0 0 0
Si 2.78927000 3.94462500 -2.9584141299999978 0 0 0
Si 0.00000000 1.97239139 2.96644837
Si 2.78921421 3.94604506 0.97888131
Si 0.00005579 5.91701639 2.89232604
Si 2.78927000 7.88782994 0.97888131
Ni 1.39463500 0.00000000 -0.9861380499999974 0 0 0
Ni 4.18390500 3.94462500 -0.9861380499999974 0 0 0
Ni 4.18390500 0.00000000 -0.9861380499999974 0 0 0
Ni 1.39463500 3.94462500 -0.9861380499999974 0 0 0
Ni 4.18390500 5.91693750 -2.9584141299999978 0 0 0
Ni 1.39463500 1.97231250 -2.9584141299999978 0 0 0
Ni 1.39463500 5.91693750 -2.9584141299999978 0 0 0
Ni 4.18390500 1.97231250 -2.9584141299999978 0 0 0
Ni 1.29634113 3.96963392 2.76999827
Ni 4.28236623 7.86439886 2.76973910
Ni 4.28208730 3.96971282 2.76999827
Ni 1.29639691 7.86439886 2.76973910
Ni 4.16030778 1.97239139 1.00738990
Ni 1.43033766 5.91693750 0.97292043
Ni 1.41823222 1.97239139 1.00738990
Ni 4.14814656 5.91693750 0.97292043
C 0.00000000 1.97231250 4.81587836
O 5.57848421 1.97231250 5.98032468
