&CONTROL
calculation = 'relax'
prefix = 'scf'
pseudo_dir = '/vol0004/mdt0/data/hp150275/u10028/POT_KKJUS'
outdir = './data'
tprnfor = .true.
nstep = 50
disk_io = 'non'
/
&SYSTEM
ibrav = 0
ecutwfc = 50.0
ecutrho = 400
occupations = 'smearing'
smearing = 'mp'
degauss = 0.01
assume_isolated = 'esm'
esm_bc = 'bc1'
input_dft = 'BEEF-VDW'
nosym = .true.
nspin = 1
ntyp = 5
nat = 34
/
&ELECTRONS
electron_maxstep = 200
mixing_beta = 0.1
conv_thr = 1e-06
/
&IONS
ion_dynamics = 'bfgs'
upscale = 1.0
/
&CELL
/

K_POINTS {automatic}
9 6 2 0  0  0

ATOMIC_SPECIES
C 12.01 C.pbe-n-rrkjus_psl.1.0.0.UPF
Cu 63.54 Cu.pbe-dn-rrkjus_psl.1.0.0.UPF
In 114.8 In.pbe-dn-rrkjus_psl.1.0.0.UPF
O 15.99 O.pbe-n-rrkjus_psl.1.0.0.UPF
Y 88.90 Y.pbe-spn-rrkjus_psl.1.0.0.UPF

CELL_PARAMETERS {angstrom}
6.69979000 0.00000000 0.00000000
0.00000000 9.47494000 0.00000000
0.00000000 0.00000000 27.10620000

ATOMIC_POSITIONS {angstrom}
Y 0.00000000 0.00000000 -3.5530807000000024 0 0 0
Y 3.34989500 2.36873500 -1.1842698800000022 0 0 0
Y 3.34989500 7.10620500 -1.1842698800000022 0 0 0
Y 0.00000000 4.73747000 -3.5530807000000024 0 0 0
Y 6.66836798 4.73747000 1.21896581
Y 3.21268330 7.35255344 3.67153479
Y 3.21261630 2.12229181 3.67180585
Y 0.07074978 0.00000000 1.20405740
In 0.00000000 7.10620500 -1.1842698800000022 0 0 0
In 3.34989500 0.00000000 -3.5530807000000024 0 0 0
In 0.00000000 2.36873500 -1.1842698800000022 0 0 0
In 3.34989500 4.73747000 -3.5530807000000024 0 0 0
In 6.62696328 2.50403714 3.57557884
In 3.34654511 4.73747000 1.10701721
In 6.62703028 6.97090286 3.57557884
In 3.36450054 0.00000000 1.17315634
Cu 1.67494750 0.00000000 -1.1842698800000022 0 0 0
Cu 5.02484250 4.73747000 -1.1842698800000022 0 0 0
Cu 5.02484250 0.00000000 -1.1842698800000022 0 0 0
Cu 1.67494750 4.73747000 -1.1842698800000022 0 0 0
Cu 5.02484250 7.10620500 -3.5530807000000024 0 0 0
Cu 1.67494750 2.36873500 -3.5530807000000024 0 0 0
Cu 1.67494750 7.10620500 -3.5530807000000024 0 0 0
Cu 5.02484250 2.36873500 -3.5530807000000024 0 0 0
Cu 1.86783445 4.73737525 3.46606979
Cu 5.20332491 0.00000000 3.54684627
Cu 4.68657010 4.73737525 3.50212104
Cu 0.92959586 0.00000000 4.21338773
Cu 4.92648958 2.36977724 1.28781556
Cu 1.73611658 7.06224128 1.23143467
Cu 1.73618358 2.41269872 1.23170573
Cu 4.92655658 7.10516276 1.28781556
C 2.59007182 0.00000000 5.27025847
O 2.80104820 9.47484525 6.44260162
