&CONTROL
calculation = 'relax'
prefix = 'scf'
pseudo_dir = '/vol0403/data/hp230205/u10028/POT_HYBRID_KKJUS_GBRV'
outdir = './data'
tprnfor = .true.
nstep = 50
disk_io = 'non'
/
&SYSTEM
ibrav = 0
ecutwfc = 50.0
ecutrho = 400
occupations = 'smearing'
smearing = 'mp'
degauss = 0.01
assume_isolated = 'esm'
esm_bc = 'bc1'
input_dft = 'BEEF-VDW'
nosym = .true.
nspin = 1
ntyp = 6
nat = 34
/
&ELECTRONS
electron_maxstep = 200
mixing_beta = 0.1
conv_thr = 1e-06
/
&IONS
ion_dynamics = 'bfgs'
upscale = 1.0
/
&CELL
/

K_POINTS {automatic}
6 6 1 0 0 0

ATOMIC_SPECIES
C 12.01 C.pbe-n-rrkjus_psl.1.0.0.UPF
Cu 63.54 Cu.pbe-dn-rrkjus_psl.1.0.0.UPF
Ge 72.64 Ge.pbe-dn-rrkjus_psl.1.0.0.UPF
Li 6.941 Li.pbe-sl-rrkjus_psl.1.0.0.UPF
O 15.99 O.pbe-n-rrkjus_psl.1.0.0.UPF
Pd 106.4 Pd.pbe-n-rrkjus_psl.1.0.0.UPF


CELL_PARAMETERS {angstrom}
6.04231000 0.00000000 0.00000000
0.00000000 8.54512000 0.00000000
0.00000000 0.00000000 26.40880000

ATOMIC_POSITIONS {angstrom}
Li 1.51057750 0.00000000 -1.068235959999999 0 0 0
Li 1.51057750 4.27256000 -1.068235959999999 0 0 0
Li 4.53173250 2.13628000 -3.204443789999999 0 0 0
Li 4.53173250 6.40884000 -3.204443789999999 0 0 0
Li 1.49710315 4.27256000 3.52161348
Li 1.53112135 8.54494910 3.90322064
Li 4.55137001 6.46352877 0.92958976
Li 4.55167212 2.08176213 0.92958976
Cu 0.00000000 0.00000000 -3.204443789999999 0 0 0
Cu 0.00000000 4.27256000 -3.204443789999999 0 0 0
Cu 3.02115500 6.40884000 -1.068235959999999 0 0 0
Cu 3.02115500 2.13628000 -1.068235959999999 0 0 0
Cu 0.01359520 4.27247455 1.17281481
Cu 0.11456220 0.00008545 1.20820260
Cu 3.24768120 2.17105864 3.02644848
Cu 3.24756036 6.37397591 3.02671257
Ge 4.53173250 0.00000000 -1.068235959999999 0 0 0
Ge 4.53173250 4.27256000 -1.068235959999999 0 0 0
Ge 1.51057750 2.13628000 -3.204443789999999 0 0 0
Ge 1.51057750 6.40884000 -3.204443789999999 0 0 0
Ge 4.59378702 4.27238910 3.40805564
Ge 4.59209518 0.00000000 3.25013102
Ge 1.54054736 6.36910519 1.06004923
Ge 1.54042651 2.17627116 1.06031332
Pd 0.00000000 2.13628000 -1.068235959999999 0 0 0
Pd 0.00000000 6.40884000 -1.068235959999999 0 0 0
Pd 3.02115500 4.27256000 -3.204443789999999 0 0 0
Pd 3.02115500 0.00000000 -3.204443789999999 0 0 0
Pd 5.97415274 6.40379838 3.02222307
Pd 5.97415274 2.14140707 3.02275125
Pd 2.92586777 8.54494910 1.26630196
Pd 3.06061128 4.27256000 1.19869543
C 2.67372217 0.00000000 5.82340449
O 3.45342186 8.54503455 6.65026402
