&CONTROL
calculation = 'relax'
prefix = 'scf'
pseudo_dir = '/vol0004/mdt0/data/hp150275/u10028/POT_KKJUS'
outdir = './data'
tprnfor = .true.
nstep = 50
disk_io = 'non'
/
&SYSTEM
ibrav = 0
ecutwfc = 50.0
ecutrho = 400
occupations = 'smearing'
smearing = 'mp'
degauss = 0.01
assume_isolated = 'esm'
esm_bc = 'bc1'
input_dft = 'BEEF-VDW'
nosym = .true.
nspin = 1
ntyp = 3
nat = 16
/
&ELECTRONS
electron_maxstep = 200
mixing_beta = 0.1
conv_thr = 1e-06
/
&IONS
ion_dynamics = 'bfgs'
upscale = 1.0
/
&CELL
/

K_POINTS {automatic}
8 8 1 0 0 0

ATOMIC_SPECIES
Li 6.941 Li.pbe-sl-rrkjus_psl.1.0.0.UPF
Pd 106.4 Pd.pbe-n-rrkjus_psl.1.0.0.UPF
Sn 118.7 Sn.pbe-dn-rrkjus_psl.1.0.0.UPF

CELL_PARAMETERS {angstrom}
6.41477000 0.00000000 0.00000000
-0.00000000 6.41477000 0.00000000
0.00000000 0.00000000 24.81110000

ATOMIC_POSITIONS {angstrom}
Li 0.00000000 0.00000000 -2.405436139999999 0 0 0
Li 3.20738500 3.20738500 -2.405436139999999 0 0 0
Li 3.20738500 -0.00000000 0.80189475
Li 0.00000000 3.20738500 0.80189475
Sn 0.00000000 0.00000000 0.80189475
Sn 3.20738500 0.00000000 -2.405436139999999 0 0 0
Sn 0.00000000 3.20738500 -2.405436139999999 0 0 0
Sn 3.20738500 3.20738500 0.80189475
Pd 1.60369250 1.60369250 -0.8018947499999989 0 0 0
Pd 4.81107750 4.81107750 2.40543614
Pd 4.81107750 1.60369250 -0.8018947499999989 0 0 0
Pd 1.60369250 4.81107750 2.40543614
Pd 4.81107750 4.81107750 -0.8018947499999989 0 0 0
Pd 1.60369250 1.60369250 2.40543614
Pd 1.60369250 4.81107750 -0.8018947499999989 0 0 0
Pd 4.81107750 1.60369250 2.40543614
