&CONTROL
calculation = 'relax'
prefix = 'scf'
pseudo_dir = '/vol0403/data/hp230205/u10028/POT_HYBRID_KKJUS_GBRV'
outdir = './data'
tprnfor = .true.
nstep = 50
disk_io = 'non'
/
&SYSTEM
ibrav = 0
ecutwfc = 50.0
ecutrho = 400
occupations = 'smearing'
smearing = 'mp'
degauss = 0.01
assume_isolated = 'esm'
esm_bc = 'bc1'
input_dft = 'BEEF-VDW'
nosym = .true.
nspin = 1
ntyp = 5
nat = 33
/
&ELECTRONS
electron_maxstep = 200
mixing_beta = 0.1
conv_thr = 1e-06
/
&IONS
ion_dynamics = 'bfgs'
upscale = 1.0
/
&CELL
/

K_POINTS {automatic}
9 6 2 0  0  0

ATOMIC_SPECIES
C 12.01 C.pbe-n-rrkjus_psl.1.0.0.UPF
Cu 63.54 Cu.pbe-dn-rrkjus_psl.1.0.0.UPF
In 114.8 In.pbe-dn-rrkjus_psl.1.0.0.UPF
Li 6.941 Li.pbe-sl-rrkjus_psl.1.0.0.UPF
Y 88.90 Y.pbe-spn-rrkjus_psl.1.0.0.UPF


CELL_PARAMETERS {angstrom}
6.68415000 0.00000000 0.00000000
0.00000000 9.45282000 0.00000000
0.00000000 0.00000000 27.08960000

ATOMIC_POSITIONS {angstrom}
Li 0.00000000 2.36320500 -1.1816483499999997 0 0 0
Li 0.00000000 7.08961500 -1.1816483499999997 0 0 0
Li 3.34207500 4.72641000 -3.5446741599999996 0 0 0
Li 3.34207500 0.00000000 -3.5446741599999996 0 0 0
Li 1.34444993 7.08961500 5.00913794
Li 0.74214117 2.36320500 4.60658648
Li 3.39200560 9.44506869 1.28567242
Li 3.39200560 4.73416131 1.28567242
Y 5.01311250 0.00000000 -1.1816483499999997 0 0 0
Y 5.01311250 4.72641000 -1.1816483499999997 0 0 0
Y 1.67103750 2.36320500 -3.5446741599999996 0 0 0
Y 1.67103750 7.08961500 -3.5446741599999996 0 0 0
Y 5.41897409 4.65097650 3.61835787
Y 5.41897409 0.07543350 3.61835787
Y 1.56776738 7.08961500 1.38671662
Y 1.46844091 2.36320500 1.49399144
In 1.67103750 0.00000000 -1.1816483499999997 0 0 0
In 1.67103750 4.72641000 -1.1816483499999997 0 0 0
In 5.01311250 2.36320500 -3.5446741599999996 0 0 0
In 5.01311250 7.08961500 -3.5446741599999996 0 0 0
In 1.99020566 4.72641000 3.69502144
In 1.99020566 0.00000000 3.69502144
In 5.02668132 7.08961500 1.12746915
In 4.99352794 2.36320500 1.15212069
Cu 0.00000000 0.00000000 -3.5446741599999996 0 0 0
Cu 0.00000000 4.72641000 -3.5446741599999996 0 0 0
Cu 3.34207500 7.08961500 -1.1816483499999997 0 0 0
Cu 3.34207500 2.36320500 -1.1816483499999997 0 0 0
Cu 0.00374312 4.76223619 1.06380859
Cu 0.00374312 9.41699381 1.06380859
Cu 3.51312240 2.36320500 3.53898534
Cu 3.50884454 7.08961500 3.38430373
C 5.57264270 2.36320500 3.56390778
