&CONTROL
calculation = 'relax'
prefix = 'scf'
pseudo_dir = '/vol0004/mdt0/data/hp150275/u10028/POT_KKJUS'
outdir = './data'
tprnfor = .true.
nstep = 50
disk_io = 'non'
/
&SYSTEM
ibrav = 0
ecutwfc = 50.0
ecutrho = 400
occupations = 'smearing'
smearing = 'mp'
degauss = 0.01
assume_isolated = 'esm'
esm_bc = 'bc1'
input_dft = 'BEEF-VDW'
nosym = .true.
nspin = 1
ntyp = 4
nat = 18
/
&ELECTRONS
electron_maxstep = 200
mixing_beta = 0.1
conv_thr = 1e-06
/
&IONS
ion_dynamics = 'bfgs'
upscale = 1.0
/
&CELL
/

K_POINTS {automatic}
8 11 2 0  0  0

ATOMIC_SPECIES
Al 26.98 Al.pbe-nl-rrkjus_psl.1.0.0.UPF
C 12.01 C.pbe-n-rrkjus_psl.1.0.0.UPF
Li 6.941 Li.pbe-sl-rrkjus_psl.1.0.0.UPF
O 15.99 O.pbe-n-rrkjus_psl.1.0.0.UPF

CELL_PARAMETERS {angstrom}
8.00621000 0.00000000 0.00000000
0.00000000 5.66125000 0.00000000
0.00000000 0.00000000 24.24590000

ATOMIC_POSITIONS {angstrom}
Li 0.00000000 0.00000000 -2.1229709999999997 0 0 0
Li 8.00308758 2.83702221 0.82387568
Li 4.00310500 0.00000000 -2.1229709999999997 0 0 0
Li 4.00622742 2.83702221 0.82387568
Al 0.00000000 2.83062500 -2.1229709999999997 0 0 0
Al 2.00155250 4.24593750 -0.7077378199999984 0 0 0
Al 2.00155250 1.41531250 -0.7077378199999984 0 0 0
Al 0.00056043 0.00135870 0.84230257
Al 2.00155250 1.43223964 2.12757772
Al 2.00155250 4.26705396 2.08781445
Al 4.00310500 2.83062500 -2.1229709999999997 0 0 0
Al 6.00465750 4.24593750 -0.7077378199999984 0 0 0
Al 6.00465750 1.41531250 -0.7077378199999984 0 0 0
Al 4.00254457 0.00130209 0.84254503
Al 6.00465750 1.39606425 2.16855330
Al 6.00465750 4.27129990 2.15667280
C 2.00147244 1.41870925 4.12640972
O 2.00155250 1.39657376 5.27784751
