&CONTROL
calculation = 'relax'
prefix = 'scf'
pseudo_dir = '/vol0403/data/hp230205/u10028/POT_HYBRID_KKJUS_GBRV'
outdir = './data'
tprnfor = .true.
nstep = 70
disk_io = 'non'
/
&SYSTEM
ibrav = 0
ecutwfc = 50.0
ecutrho = 400
occupations = 'smearing'
smearing = 'mp'
degauss = 0.01
assume_isolated = 'esm'
esm_bc = 'bc1'
input_dft = 'BEEF-VDW'
nosym = .true.
nspin = 1
ntyp = 5
nat = 17
/
&ELECTRONS
electron_maxstep = 200
mixing_beta = 0.1
conv_thr = 1e-06
/
&IONS
ion_dynamics = 'bfgs'
upscale = 1.0
/
&CELL
/

K_POINTS {automatic}
11 7 2 0  0  0

ATOMIC_SPECIES
C 12.01 C.pbe-n-rrkjus_psl.1.0.0.UPF
Ga 69.72 Ga.pbe-dnl-rrkjus_psl.1.0.0.UPF
Pd 106.4 Pd.pbe-n-rrkjus_psl.1.0.0.UPF
Sn 118.7 Sn.pbe-dn-rrkjus_psl.1.0.0.UPF
Y 88.90 Y.pbe-spn-rrkjus_psl.1.0.0.UPF


CELL_PARAMETERS {angstrom}
6.14219000 0.00000000 0.00000000
-0.00000000 8.88338000 0.00000000
0.00000000 0.00000000 24.60430000

ATOMIC_POSITIONS {angstrom}
Y 1.48616429 2.22084500 -0.7674081199999989 0 0 0
Y 4.42372808 2.03909105 2.21955390
Y 1.48616429 6.66253500 -0.7674081199999989 0 0 0
Y 4.42372808 6.84428895 2.21955390
Ga 0.00000000 0.00000000 -2.3022243499999995 0 0 0
Ga 3.13294685 8.88329117 0.40031196
Ga 0.00000000 4.44169000 -2.3022243499999995 0 0 0
Ga 3.85833949 4.44177883 0.47289465
Sn 3.07109500 0.00000000 -2.3022243499999995 0 0 0
Sn 5.98095751 8.88329117 0.54670755
Sn 3.07109500 4.44169000 -2.3022243499999995 0 0 0
Sn 0.89565415 4.44169000 1.67998160
Pd 4.55725929 2.22084500 -0.7674081199999989 0 0 0
Pd 1.52240321 1.60167341 2.13245468
Pd 4.55725929 6.66253500 -0.7674081199999989 0 0 0
Pd 1.52240321 7.28170659 2.13245468
C 3.08159814 -0.00000000 2.41909478
