&CONTROL
calculation = 'relax'
prefix = 'scf'
pseudo_dir = '/vol0403/data/hp230205/u10028/POT_HYBRID_KKJUS_GBRV'
outdir = './data'
tprnfor = .true.
nstep = 50
disk_io = 'non'
/
&SYSTEM
ibrav = 0
ecutwfc = 50.0
ecutrho = 400
occupations = 'smearing'
smearing = 'mp'
degauss = 0.01
assume_isolated = 'esm'
esm_bc = 'bc1'
input_dft = 'BEEF-VDW'
nosym = .true.
nspin = 1
ntyp = 6
nat = 18
/
&ELECTRONS
electron_maxstep = 200
mixing_beta = 0.1
conv_thr = 1e-06
/
&IONS
ion_dynamics = 'bfgs'
upscale = 1.0
/
&CELL
/

K_POINTS {automatic}
6 6 1 0 0 0

ATOMIC_SPECIES
C 12.01 C.pbe-n-rrkjus_psl.1.0.0.UPF
Ga 69.72 Ga.pbe-dnl-rrkjus_psl.1.0.0.UPF
O 15.99 O.pbe-n-rrkjus_psl.1.0.0.UPF
Pd 106.4 Pd.pbe-n-rrkjus_psl.1.0.0.UPF
Sc 44.95 Sc.pbe-spn-rrkjus_psl.1.0.0.UPF
Y 88.90 Y.pbe-spn-rrkjus_psl.1.0.0.UPF


CELL_PARAMETERS {angstrom}
5.91305000 0.00000000 0.00000000
0.00000000 9.85606000 0.00000000
0.00000000 0.00000000 24.24990000

ATOMIC_POSITIONS {angstrom}
Y 0.93834190 2.38240682 0.75950687
Y 3.16762089 2.46401500 -2.1250187400000016 0 0 0
Y 0.93816451 7.47345606 0.75950687
Y 3.16762089 7.39204500 -2.1250187400000016 0 0 0
Sc 3.57851873 0.00009856 2.03141412
Sc 5.06825255 0.00000000 -0.7083395800000005 0 0 0
Sc 3.34524891 4.92842424 1.94920696
Sc 5.06825255 4.92803000 -0.7083395800000005 0 0 0
Ga 0.56144410 0.00000000 2.41553254
Ga 2.11172755 0.00000000 -0.7083395800000005 0 0 0
Ga 0.44732223 4.92793144 2.08743139
Ga 2.11172755 4.92803000 -0.7083395800000005 0 0 0
Pd 3.83000075 2.51506939 0.50173043
Pd 0.21109589 2.46401500 -2.1250187400000016 0 0 0
Pd 3.82988249 7.34128629 0.50173043
Pd 0.21109589 7.39204500 -2.1250187400000016 0 0 0
C 4.30582388 0.00029568 4.19208021
O 4.61365726 0.00029568 5.30709061
