&CONTROL
calculation = 'relax'
prefix = 'scf'
pseudo_dir = '/vol0403/data/hp230205/u10028/POT_HYBRID_KKJUS_GBRV'
outdir = './data'
tprnfor = .true.
nstep = 50
disk_io = 'non'
/
&SYSTEM
ibrav = 0
ecutwfc = 50.0
ecutrho = 400
occupations = 'smearing'
smearing = 'mp'
degauss = 0.01
assume_isolated = 'esm'
esm_bc = 'bc1'
input_dft = 'BEEF-VDW'
nosym = .true.
nspin = 1
ntyp = 6
nat = 34
/
&ELECTRONS
electron_maxstep = 200
mixing_beta = 0.1
conv_thr = 1e-06
/
&IONS
ion_dynamics = 'bfgs'
upscale = 1.0
/
&CELL
/

K_POINTS {automatic}
6 6 1 0 0 0

ATOMIC_SPECIES
C 12.01 C.pbe-n-rrkjus_psl.1.0.0.UPF
Cu 63.54 Cu.pbe-dn-rrkjus_psl.1.0.0.UPF
In 114.8 In.pbe-dn-rrkjus_psl.1.0.0.UPF
O 15.99 O.pbe-n-rrkjus_psl.1.0.0.UPF
Sn 118.7 Sn.pbe-dn-rrkjus_psl.1.0.0.UPF
Y 88.90 Y.pbe-spn-rrkjus_psl.1.0.0.UPF


CELL_PARAMETERS {angstrom}
9.14612000 0.00000000 0.00000000
0.00000000 8.82850000 0.00000000
0.00000000 0.00000000 26.63560000

ATOMIC_POSITIONS {angstrom}
Y 2.28653000 2.20712500 -3.3177303400000007 0 0 0
Y 2.31899873 2.20703672 1.13094758
Y 2.28653000 6.62137500 -3.3177303400000007 0 0 0
Y 2.30125525 6.62155157 1.12988215
Y 6.85959000 2.20712500 -3.3177303400000007 0 0 0
Y 6.82730420 2.20703672 1.13041486
Y 6.85959000 6.62137500 -3.3177303400000007 0 0 0
Y 6.84449890 6.62137500 1.13068122
In 0.00000000 2.20712500 -1.10591011 0 0 0
In 9.14529685 2.20915556 3.23595904
In 0.00000000 6.62137500 -1.10591011 0 0 0
In 0.00073169 6.62305242 3.34942670
In 4.57306000 2.20712500 -1.10591011 0 0 0
In 4.57397461 2.21092126 3.48553462
In 4.57306000 6.62137500 -1.10591011 0 0 0
In 4.57187100 6.62119843 3.45570274
Cu 0.00000000 0.00000000 -3.3177303400000007 0 0 0
Cu 9.14593708 8.79300943 0.97859194
Cu 0.00000000 4.41425000 -3.3177303400000007 0 0 0
Cu 9.14602854 4.45097656 0.98019008
Cu 4.57306000 0.00000000 -3.3177303400000007 0 0 0
Cu 4.57315146 8.80907730 1.12109240
Cu 4.57306000 4.41425000 -3.3177303400000007 0 0 0
Cu 4.57342584 4.43570326 1.11922791
Sn 2.28653000 0.00000000 -1.10591011 0 0 0
Sn 2.33774827 8.82593974 3.45570274
Sn 2.28653000 4.41425000 -1.10591011 0 0 0
Sn 2.33116307 4.41663369 3.46023080
Sn 6.85959000 0.00000000 -1.10591011 0 0 0
Sn 6.80892050 8.82735230 3.45596910
Sn 6.85959000 4.41425000 -1.10591011 0 0 0
Sn 6.81541424 4.41486800 3.46023080
C 0.00054877 2.15883310 6.42210952
O 9.14593708 2.20950870 7.55598701
