&CONTROL
calculation = 'relax'
prefix = 'scf'
pseudo_dir = '/vol0004/mdt0/data/hp150275/u10028/POT_KKJUS'
outdir = './data'
tprnfor = .true.
nstep = 50
disk_io = 'non'
/
&SYSTEM
ibrav = 0
ecutwfc = 50.0
ecutrho = 400
occupations = 'smearing'
smearing = 'mp'
degauss = 0.01
assume_isolated = 'esm'
esm_bc = 'bc1'
input_dft = 'BEEF-VDW'
nosym = .true.
nspin = 1
ntyp = 4
nat = 18
/
&ELECTRONS
electron_maxstep = 200
mixing_beta = 0.1
conv_thr = 1e-06
/
&IONS
ion_dynamics = 'bfgs'
upscale = 1.0
/
&CELL
/

K_POINTS {automatic}
8 8 1 0 0 0

ATOMIC_SPECIES
C 12.01 C.pbe-n-rrkjus_psl.1.0.0.UPF
O 15.99 O.pbe-n-rrkjus_psl.1.0.0.UPF
Ru 101.0 Ru.pbe-spn-rrkjus_psl.1.0.0.UPF
Ta 180.9 Ta.pbe-spn-rrkjus_psl.1.0.0.UPF

CELL_PARAMETERS {angstrom}
6.35210000 0.00000000 0.00000000
-0.00000000 6.35210000 0.00000000
0.00000000 0.00000000 24.76410000

ATOMIC_POSITIONS {angstrom}
Ta 0.00000000 0.00000000 -2.6069168099999978 0 0 0
Ta 0.00000000 0.00000000 0.56907902
Ta 0.00000000 3.17605000 -2.6069168099999978 0 0 0
Ta 0.00000000 3.17605000 0.56907902
Ta 3.17605000 0.00000000 -2.6069168099999978 0 0 0
Ta 3.17605000 -0.00000000 0.56907902
Ta 3.17605000 3.17605000 -2.6069168099999978 0 0 0
Ta 3.17605000 3.17605000 0.56907902
Ru 1.58802500 1.58802500 -1.0187950699999995 0 0 0
Ru 1.58802500 1.58802500 2.15720075
Ru 1.58802500 4.76407500 -1.0187950699999995 0 0 0
Ru 1.58802500 4.76407500 2.15720075
Ru 4.76407500 1.58802500 -1.0187950699999995 0 0 0
Ru 4.76407500 1.58802500 2.15720075
Ru 4.76407500 4.76407500 -1.0187950699999995 0 0 0
Ru 4.76407500 4.76407500 2.15720075
C 1.58802500 1.58802500 4.05710250
O 1.58802500 1.58802500 5.20714731
