&CONTROL
calculation = 'relax'
prefix = 'scf'
pseudo_dir = '/vol0004/mdt0/data/hp150275/u10028/POT_KKJUS'
outdir = './data'
tprnfor = .true.
nstep = 50
disk_io = 'non'
/
&SYSTEM
ibrav = 0
ecutwfc = 50.0
ecutrho = 400
occupations = 'smearing'
smearing = 'mp'
degauss = 0.01
assume_isolated = 'esm'
esm_bc = 'bc1'
input_dft = 'BEEF-VDW'
nosym = .true.
nspin = 1
ntyp = 2
nat = 17
/
&ELECTRONS
electron_maxstep = 200
mixing_beta = 0.1
conv_thr = 1e-06
/
&IONS
ion_dynamics = 'bfgs'
upscale = 1.0
/
&CELL
/

K_POINTS {automatic}
8 8 1 0 0 0

ATOMIC_SPECIES
Bi 208.9 Bi.pbe-dn-rrkjus_psl.1.0.0.UPF
C 12.01 C.pbe-n-rrkjus_psl.1.0.0.UPF

CELL_PARAMETERS {angstrom}
8.07272000 0.00000000 0.00000000
0.00000000 8.07272000 0.00000000
0.00000000 0.00000000 26.05450000

ATOMIC_POSITIONS {angstrom}
Bi 0.00000000 0.00000000 -3.0272723600000013 0 0 0
Bi 2.01818000 2.01818000 -1.009090790000002 0 0 0
Bi 0.00000000 0.00000000 0.51900564
Bi 1.65732942 1.65716796 3.72110369
Bi 0.00000000 4.03636000 -3.0272723600000013 0 0 0
Bi 2.01818000 6.05454000 -1.009090790000002 0 0 0
Bi 0.00008073 4.03636000 1.99056380
Bi 1.65716796 6.41555204 3.72110369
Bi 4.03636000 0.00000000 -3.0272723600000013 0 0 0
Bi 6.05454000 2.01818000 -1.009090790000002 0 0 0
Bi 4.03636000 0.00008073 1.99082435
Bi 6.41539058 1.65716796 3.72110369
Bi 4.03636000 4.03636000 -3.0272723600000013 0 0 0
Bi 6.05454000 6.05454000 -1.009090790000002 0 0 0
Bi 4.03636000 4.03636000 0.42442780
Bi 6.41555204 6.41555204 3.72110369
C 0.00000000 0.00000000 2.89673931
