&CONTROL
calculation = 'relax'
prefix = 'scf'
pseudo_dir = '/vol0004/mdt0/data/hp150275/u10028/POT_HYBRID_KKJUS_GBRV'
outdir = './data'
tprnfor = .true.
nstep = 50
disk_io = 'non'
/
&SYSTEM
ibrav = 0
ecutwfc = 50.0
ecutrho = 400
occupations = 'smearing'
smearing = 'mp'
degauss = 0.01
assume_isolated = 'esm'
esm_bc = 'bc1'
input_dft = 'BEEF-VDW'
nosym = .true.
nspin = 2
ntyp = 4
nat = 33
starting_magnetization(1) = 0.0
starting_magnetization(2) = 0.0
starting_magnetization(3) = 0.1
starting_magnetization(4) = 0.0
/
&ELECTRONS
electron_maxstep = 300
mixing_beta = 0.1
conv_thr = 1e-06
/
&IONS
ion_dynamics = 'bfgs'
upscale = 1.0
/
&CELL
/

K_POINTS {automatic}
8 6 1 0 0 0

ATOMIC_SPECIES
C 12.01 C.pbe-n-rrkjus_psl.1.0.0.UPF
Ga 69.72 Ga.pbe-dnl-rrkjus_psl.1.0.0.UPF
Mn 54.93 mn_pbe_v1.5.uspp.F.UPF
V 50.94 V.pbe-spnl-rrkjus_psl.1.0.0.UPF

CELL_PARAMETERS {angstrom}
5.83886000 0.00000000 0.00000000
0.00000000 8.25739000 0.00000000
0.00000000 0.00000000 26.19300000

ATOMIC_POSITIONS {angstrom}
Mn 1.45971500 0.00000000 -1.03226613 0 0 0
Mn 4.37914500 4.12869500 -1.03226613 0 0 0
Mn 4.37914500 0.00000000 -1.03226613 0 0 0
Mn 1.45971500 4.12869500 -1.03226613 0 0 0
Mn 4.37914500 6.19304250 -3.096536460000003 0 0 0
Mn 1.45971500 2.06434750 -3.096536460000003 0 0 0
Mn 1.45971500 6.19304250 -3.096536460000003 0 0 0
Mn 4.37914500 2.06434750 -3.096536460000003 0 0 0
Mn 1.51214796 4.12869500 3.22331058
Mn 4.57912596 0.00000000 3.04231695
Mn 4.32671204 4.12869500 3.22331058
Mn 1.25973405 0.00000000 3.04231695
Mn 4.40758025 2.06063167 1.11215478
Mn 1.43127975 6.19675833 1.11215478
Mn 1.43122136 2.06063167 1.11215478
Mn 4.40758025 6.19675833 1.11215478
V 0.00000000 0.00000000 -3.096536460000003 0 0 0
V 2.91943000 2.06434750 -1.03226613 0 0 0
V 2.91943000 6.19304250 -1.03226613 0 0 0
V 0.00000000 4.12869500 -3.096536460000003 0 0 0
V 0.00000000 4.12877757 1.08465213
V 2.91943000 6.24407317 3.07610592
V 2.91943000 2.01331683 3.07610592
V 0.00000000 8.25730743 0.96625977
Ga 0.00000000 6.19304250 -1.03226613 0 0 0
Ga 2.91943000 0.00000000 -3.096536460000003 0 0 0
Ga 0.00000000 2.06434750 -1.03226613 0 0 0
Ga 2.91943000 4.12869500 -3.096536460000003 0 0 0
Ga 0.00000000 2.11859855 3.42028194
Ga 2.91943000 4.12852985 1.07784195
Ga 0.00000000 6.13879145 3.42028194
Ga 2.91943000 0.00016515 1.03174227
C 2.91943000 0.00000000 3.78279306
