&CONTROL
calculation = 'relax'
prefix = 'scf'
pseudo_dir = '/vol0403/data/hp230205/u10028/POT_HYBRID_KKJUS_GBRV'
outdir = './data'
tprnfor = .true.
nstep = 50
disk_io = 'non'
/
&SYSTEM
ibrav = 0
ecutwfc = 50.0
ecutrho = 400
occupations = 'smearing'
smearing = 'mp'
degauss = 0.01
assume_isolated = 'esm'
esm_bc = 'bc1'
input_dft = 'BEEF-VDW'
nosym = .true.
nspin = 1
ntyp = 6
nat = 18
/
&ELECTRONS
electron_maxstep = 200
mixing_beta = 0.1
conv_thr = 1e-06
/
&IONS
ion_dynamics = 'bfgs'
upscale = 1.0
/
&CELL
/

K_POINTS {automatic}
6 6 1 0 0 0

ATOMIC_SPECIES
C 12.01 C.pbe-n-rrkjus_psl.1.0.0.UPF
In 114.8 In.pbe-dn-rrkjus_psl.1.0.0.UPF
Li 6.941 Li.pbe-sl-rrkjus_psl.1.0.0.UPF
O 15.99 O.pbe-n-rrkjus_psl.1.0.0.UPF
Pb 207.2 Pb.pbe-dn-rrkjus_psl.1.0.0.UPF
Y 88.90 Y.pbe-spn-rrkjus_psl.1.0.0.UPF


CELL_PARAMETERS {angstrom}
6.51578000 0.00000000 0.00000000
0.00000000 9.32892000 0.00000000
0.00000000 0.00000000 24.88170000

ATOMIC_POSITIONS {angstrom}
Li 1.99721689 2.34491733 0.66981536
Li 4.66301796 2.33223000 -2.44089477 0 0 0
Li 1.99721689 6.98400267 0.66981536
Li 4.66301796 6.99669000 -2.44089477 0 0 0
Y 4.04082612 0.00000000 2.67204576
Y 6.36656864 0.00000000 -0.81363159 0 0 0
Y 3.97534254 4.66436671 2.48443774
Y 6.36656864 4.66446000 -0.81363159 0 0 0
In 0.80104999 0.00000000 2.57600240
In 3.10867864 0.00000000 -0.81363159 0 0 0
In 0.77277151 4.66446000 2.56779144
In 3.10867864 4.66446000 -0.81363159 0 0 0
Pb 5.42764474 2.31068019 1.19755622
Pb 1.40512796 2.33223000 -2.44089477 0 0 0
Pb 5.42764474 7.01823981 1.19755622
Pb 1.40512796 6.99669000 -2.44089477 0 0 0
C 5.25432499 0.00000000 4.79072252
O 5.71668474 0.00000000 5.85590810
