&CONTROL
calculation = 'relax'
prefix = 'scf'
pseudo_dir = '/vol0004/mdt0/data/hp150275/u10028/POT_KKJUS'
outdir = './data'
tprnfor = .true.
nstep = 50
disk_io = 'non'
/
&SYSTEM
ibrav = 0
ecutwfc = 50.0
ecutrho = 400
occupations = 'smearing'
smearing = 'mp'
degauss = 0.01
assume_isolated = 'esm'
esm_bc = 'bc1'
input_dft = 'BEEF-VDW'
nosym = .true.
nspin = 1
ntyp = 4
nat = 34
/
&ELECTRONS
electron_maxstep = 200
mixing_beta = 0.1
conv_thr = 1e-06
/
&IONS
ion_dynamics = 'bfgs'
upscale = 1.0
/
&CELL
/

K_POINTS {automatic}
8 6 1 0 0 0

ATOMIC_SPECIES
C 12.01 C.pbe-n-rrkjus_psl.1.0.0.UPF
Mg 24.30 Mg.pbe-spnl-rrkjus_psl.1.0.0.UPF
O 15.99 O.pbe-n-rrkjus_psl.1.0.0.UPF
Pd 106.4 Pd.pbe-n-rrkjus_psl.1.0.0.UPF

CELL_PARAMETERS {angstrom}
6.43103000 0.00000000 0.00000000
0.00000000 9.09485000 0.00000000
0.00000000 0.00000000 26.82110000

ATOMIC_POSITIONS {angstrom}
Mg 0.00000000 0.00000000 -3.4105710800000004 0 0 0
Mg 0.00000000 2.27371250 -1.1369464300000018 0 0 0
Mg 0.00000000 4.54988061 1.11334386
Mg 0.00000000 2.27371250 3.54521300
Mg 0.00000000 4.54742500 -3.4105710800000004 0 0 0
Mg 0.00000000 6.82113750 -1.1369464300000018 0 0 0
Mg 0.00000000 9.09239439 1.11334386
Mg 0.00000000 6.82113750 3.46850465
Mg 3.21551500 0.00000000 -3.4105710800000004 0 0 0
Mg 3.21551500 2.27371250 -1.1369464300000018 0 0 0
Mg 3.21551500 4.53860300 1.09832405
Mg 3.21551500 2.27371250 3.45831263
Mg 3.21551500 4.54742500 -3.4105710800000004 0 0 0
Mg 3.21551500 6.82113750 -1.1369464300000018 0 0 0
Mg 3.21551500 0.00882200 1.09832405
Mg 3.21551500 6.82113750 3.48593837
Pd 1.60775750 2.27371250 -3.4105710800000004 0 0 0
Pd 1.60775750 0.00000000 -1.1369464300000018 0 0 0
Pd 1.58904320 2.27371250 1.16510858
Pd 1.62132697 4.56315909 3.26654177
Pd 1.60775750 6.82113750 -3.4105710800000004 0 0 0
Pd 1.60775750 4.54742500 -1.1369464300000018 0 0 0
Pd 1.61598922 6.82113750 1.13775106
Pd 1.62132697 9.07911591 3.26654177
Pd 4.82327250 2.27371250 -3.4105710800000004 0 0 0
Pd 4.82327250 0.00000000 -1.1369464300000018 0 0 0
Pd 4.84198680 2.27371250 1.16510858
Pd 4.80970303 4.56315909 3.26654177
Pd 4.82327250 6.82113750 -3.4105710800000004 0 0 0
Pd 4.82327250 4.54742500 -1.1369464300000018 0 0 0
Pd 4.81504078 6.82113750 1.13775106
Pd 4.80970303 9.07911591 3.26654177
C 0.00000000 2.27371250 5.84083095
O 0.00000000 2.27371250 6.98340981
