&CONTROL
calculation = 'relax'
prefix = 'scf'
pseudo_dir = '/vol0004/mdt0/data/hp150275/u10028/POT_KKJUS'
outdir = './data'
tprnfor = .true.
nstep = 50
disk_io = 'non'
/
&SYSTEM
ibrav = 0
ecutwfc = 50.0
ecutrho = 400
occupations = 'smearing'
smearing = 'mp'
degauss = 0.01
assume_isolated = 'esm'
esm_bc = 'bc1'
input_dft = 'BEEF-VDW'
nosym = .true.
nspin = 1
ntyp = 5
nat = 34
/
&ELECTRONS
electron_maxstep = 200
mixing_beta = 0.1
conv_thr = 1e-06
/
&IONS
ion_dynamics = 'bfgs'
upscale = 1.0
/
&CELL
/

K_POINTS {automatic}
9 6 2 0  0  0

ATOMIC_SPECIES
Au 196.9 Au.pbe-n-rrkjus_psl.1.0.0.UPF
C 12.01 C.pbe-n-rrkjus_psl.1.0.0.UPF
Li 6.941 Li.pbe-sl-rrkjus_psl.1.0.0.UPF
O 15.99 O.pbe-n-rrkjus_psl.1.0.0.UPF
Sn 118.7 Sn.pbe-dn-rrkjus_psl.1.0.0.UPF

CELL_PARAMETERS {angstrom}
6.60404000 0.00000000 0.00000000
0.00000000 9.33952000 0.00000000
0.00000000 0.00000000 27.00460000

ATOMIC_POSITIONS {angstrom}
Li 0.00000000 7.00464000 -1.1674088599999983 0 0 0
Li 3.30202000 0.00000000 -3.5022265700000013 0 0 0
Li 0.00000000 2.33488000 -1.1674088599999983 0 0 0
Li 3.30202000 4.66976000 -3.5022265700000013 0 0 0
Li 1.65101000 2.33488000 -3.5022265700000013 0 0 0
Li 1.65101000 7.00464000 -3.5022265700000013 0 0 0
Li 4.95303000 4.66976000 -1.1674088599999983 0 0 0
Li 4.95303000 0.00000000 -1.1674088599999983 0 0 0
Li 0.14918526 2.33469321 3.44605701
Li 3.37288135 4.64809231 0.99349923
Li 0.15288353 7.00492019 3.44848742
Li 3.37367383 0.02260164 0.99376928
Li 1.85124449 7.00538716 1.34698945
Li 1.77734529 2.33459981 1.28082818
Li 4.75920143 9.32354942 3.39015748
Li 4.75827686 4.68348909 3.38799712
Sn 0.00000000 0.00000000 -3.5022265700000013 0 0 0
Sn 3.30202000 2.33488000 -1.1674088599999983 0 0 0
Sn 3.30202000 7.00464000 -1.1674088599999983 0 0 0
Sn 0.00000000 4.66976000 -3.5022265700000013 0 0 0
Sn 6.56725550 4.69077392 1.16713881
Sn 3.30466162 7.00351926 3.94132137
Sn 3.33266275 2.33375926 3.80467809
Sn 6.56751966 9.31915985 1.17010932
Au 1.65101000 0.00000000 -1.1674088599999983 0 0 0
Au 1.65101000 4.66976000 -1.1674088599999983 0 0 0
Au 4.95303000 7.00464000 -3.5022265700000013 0 0 0
Au 4.95303000 2.33488000 -3.5022265700000013 0 0 0
Au 1.88188724 4.68031366 3.17790133
Au 1.88334013 9.32756541 3.17979165
Au 4.87239467 2.33497340 1.33213692
Au 4.80826944 7.00576074 1.40261892
C 2.25877980 2.33525358 7.43112583
O 3.22191299 2.33497340 8.03656896
