&CONTROL
calculation = 'relax'
prefix = 'scf'
pseudo_dir = '/vol0403/data/hp230205/u10028/POT_HYBRID_KKJUS_GBRV'
outdir = './data'
tprnfor = .true.
nstep = 70
disk_io = 'non'
/
&SYSTEM
ibrav = 0
ecutwfc = 50.0
ecutrho = 400
occupations = 'smearing'
smearing = 'mp'
degauss = 0.01
assume_isolated = 'esm'
esm_bc = 'bc1'
input_dft = 'BEEF-VDW'
nosym = .true.
nspin = 1
ntyp = 4
nat = 32
/
&ELECTRONS
electron_maxstep = 200
mixing_beta = 0.1
conv_thr = 1e-06
/
&IONS
ion_dynamics = 'bfgs'
upscale = 1.0
/
&CELL
/

K_POINTS {automatic}
9 6 2 0  0  0

ATOMIC_SPECIES
Cu 63.54 Cu.pbe-dn-rrkjus_psl.1.0.0.UPF
Li 6.941 Li.pbe-sl-rrkjus_psl.1.0.0.UPF
Mg 24.30 Mg.pbe-spnl-rrkjus_psl.1.0.0.UPF
Sn 118.7 Sn.pbe-dn-rrkjus_psl.1.0.0.UPF


CELL_PARAMETERS {angstrom}
6.48317000 0.00000000 0.00000000
-0.00000000 9.16858000 0.00000000
0.00000000 0.00000000 26.87640000

ATOMIC_POSITIONS {angstrom}
Li 0.00000000 2.29214500 -1.1460097000000005 0 0 0
Li 0.00000000 6.87643500 -1.1460097000000005 0 0 0
Li 3.24158500 4.58429000 -3.4382978500000014 0 0 0
Li 3.24158500 0.00000000 -3.4382978500000014 0 0 0
Li 0.24999104 6.87643500 4.19701862
Li 0.24999104 2.29214500 4.19701862
Li 3.23775993 -0.00000000 1.19465598
Li 3.23782476 4.58429000 1.19465598
Mg 4.86237750 0.00000000 -1.1460097000000005 0 0 0
Mg 4.86237750 4.58429000 -1.1460097000000005 0 0 0
Mg 1.62079250 2.29214500 -3.4382978500000014 0 0 0
Mg 1.62079250 6.87643500 -3.4382978500000014 0 0 0
Mg 4.82023690 4.58429000 3.60385648
Mg 4.82030173 -0.00000000 3.60385648
Mg 1.52218348 6.87643500 1.29275484
Mg 1.52224832 2.29214500 1.29275484
Cu 0.00000000 0.00000000 -3.4382978500000014 0 0 0
Cu 0.00000000 4.58429000 -3.4382978500000014 0 0 0
Cu 3.24158500 6.87643500 -1.1460097000000005 0 0 0
Cu 3.24158500 2.29214500 -1.1460097000000005 0 0 0
Cu 6.47461222 4.58429000 1.11590813
Cu 6.47467705 -0.00000000 1.11590813
Cu 3.16475944 2.29214500 3.38992033
Cu 3.16475944 6.87643500 3.38992033
Sn 1.62079250 0.00000000 -1.1460097000000005 0 0 0
Sn 1.62079250 4.58429000 -1.1460097000000005 0 0 0
Sn 4.86237750 2.29214500 -3.4382978500000014 0 0 0
Sn 4.86237750 6.87643500 -3.4382978500000014 0 0 0
Sn 1.65508847 4.58429000 3.57886142
Sn 1.65508847 -0.00000000 3.57913019
Sn 4.91625264 6.87643500 1.29813012
Sn 4.91625264 2.29214500 1.29813012
