&CONTROL
calculation = 'relax'
prefix = 'scf'
pseudo_dir = '/vol0004/mdt0/data/hp150275/u10028/POT_HYBRID_KKJUS_GBRV'
outdir = './data'
tprnfor = .true.
nstep = 50
disk_io = 'non'
/
&SYSTEM
ibrav = 0
ecutwfc = 50.0
ecutrho = 400
occupations = 'smearing'
smearing = 'mp'
degauss = 0.01
assume_isolated = 'esm'
esm_bc = 'bc1'
input_dft = 'BEEF-VDW'
nosym = .true.
nspin = 2
ntyp = 3
nat = 33
starting_magnetization(1) = 0.0
starting_magnetization(2) = 0.1
starting_magnetization(3) = 0.0
/
&ELECTRONS
electron_maxstep = 200
mixing_beta = 0.1
conv_thr = 1e-06
/
&IONS
ion_dynamics = 'bfgs'
upscale = 1.0
/
&CELL
/

K_POINTS {automatic}
6 6 1 0 0 0

ATOMIC_SPECIES
C 12.01 C.pbe-n-rrkjus_psl.1.0.0.UPF
Mn 54.93 mn_pbe_v1.5.uspp.F.UPF
Pt 195.0 Pt.pbe-n-rrkjus_psl.1.0.0.UPF

CELL_PARAMETERS {angstrom}
8.81047000 0.00000000 0.00000000
-0.00000000 8.81047000 0.00000000
0.00000000 0.00000000 26.60790000

ATOMIC_POSITIONS {angstrom}
Mn 0.00000000 2.20261750 1.10130098
Mn 2.20261750 -0.00000000 1.10130098
Mn 2.20261750 2.20261750 3.30390294
Mn 0.00000000 2.20261750 -3.3039029400000004 0 0 0
Mn 2.20261750 0.00000000 -3.3039029400000004 0 0 0
Mn 2.20261750 2.20261750 -1.1013009800000013 0 0 0
Mn 0.00000000 6.60785250 1.10130098
Mn 2.20261750 4.40523500 1.10130098
Mn 2.20261750 6.60785250 3.30390294
Mn 0.00000000 6.60785250 -3.3039029400000004 0 0 0
Mn 2.20261750 4.40523500 -3.3039029400000004 0 0 0
Mn 2.20261750 6.60785250 -1.1013009800000013 0 0 0
Mn 4.40523500 2.20261750 1.10130098
Mn 6.60785250 -0.00000000 1.10130098
Mn 6.60785250 2.20261750 3.30390294
Mn 4.40523500 2.20261750 -3.3039029400000004 0 0 0
Mn 6.60785250 0.00000000 -3.3039029400000004 0 0 0
Mn 6.60785250 2.20261750 -1.1013009800000013 0 0 0
Mn 4.40523500 6.60785250 1.10130098
Mn 6.60785250 4.40523500 1.10130098
Mn 6.60785250 6.60785250 3.30390294
Mn 4.40523500 6.60785250 -3.3039029400000004 0 0 0
Mn 6.60785250 4.40523500 -3.3039029400000004 0 0 0
Mn 6.60785250 6.60785250 -1.1013009800000013 0 0 0
Pt 0.00000000 0.00000000 3.30390294
Pt 0.00000000 0.00000000 -1.1013009800000013 0 0 0
Pt 0.00000000 4.40523500 3.30390294
Pt 0.00000000 4.40523500 -1.1013009800000013 0 0 0
Pt 4.40523500 -0.00000000 3.30390294
Pt 4.40523500 0.00000000 -1.1013009800000013 0 0 0
Pt 4.40523500 4.40523500 3.30390294
Pt 4.40523500 4.40523500 -1.1013009800000013 0 0 0
C 2.20261750 -0.00000000 4.10400250
