&CONTROL
calculation = 'relax'
prefix = 'scf'
pseudo_dir = '/vol0004/mdt0/data/hp150275/u10028/POT_HYBRID_KKJUS_GBRV'
outdir = './data'
tprnfor = .true.
nstep = 50
disk_io = 'non'
/
&SYSTEM
ibrav = 0
ecutwfc = 50.0
ecutrho = 400
occupations = 'smearing'
smearing = 'mp'
degauss = 0.01
assume_isolated = 'esm'
esm_bc = 'bc1'
input_dft = 'BEEF-VDW'
nosym = .true.
nspin = 2
ntyp = 3
nat = 33
starting_magnetization(1) = 0.0
starting_magnetization(2) = 0.1
starting_magnetization(3) = 0.0
/
&ELECTRONS
electron_maxstep = 400
mixing_beta = 0.1
conv_thr = 1e-06
/
&IONS
ion_dynamics = 'bfgs'
upscale = 1.0
/
&CELL
/

K_POINTS {automatic}
6 6 1 0 0 0

ATOMIC_SPECIES
C 12.01 C.pbe-n-rrkjus_psl.1.0.0.UPF
Mn 54.93 mn_pbe_v1.5.uspp.F.UPF
Pt 195.0 Pt.pbe-n-rrkjus_psl.1.0.0.UPF

CELL_PARAMETERS {angstrom}
8.81047000 0.00000000 0.00000000
0.00000000 8.81047000 0.00000000
0.00000000 0.00000000 26.60790000

ATOMIC_POSITIONS {angstrom}
Mn 8.78386238 2.23706644 0.52497387
Mn 2.20270560 0.00000000 0.41934050
Mn 2.20279371 2.05592317 2.35985465
Mn 0.00000000 2.20261750 -3.3039029400000004 0 0 0
Mn 2.20261750 0.00000000 -3.3039029400000004 0 0 0
Mn 2.20261750 2.20261750 -1.1013009800000013 0 0 0
Mn 8.78386238 6.57340356 0.52497387
Mn 2.20261750 4.40523500 0.62342310
Mn 2.20261750 6.75472303 2.35985465
Mn 0.00000000 6.60785250 -3.3039029400000004 0 0 0
Mn 2.20261750 4.40523500 -3.3039029400000004 0 0 0
Mn 2.20261750 6.60785250 -1.1013009800000013 0 0 0
Mn 4.43184262 2.23706644 0.52497387
Mn 6.60785250 0.00000000 0.49996244
Mn 6.60785250 1.98332490 2.35000973
Mn 4.40523500 2.20261750 -3.3039029400000004 0 0 0
Mn 6.60785250 0.00000000 -3.3039029400000004 0 0 0
Mn 6.60785250 2.20261750 -1.1013009800000013 0 0 0
Mn 4.43184262 6.57331546 0.52497387
Mn 6.60785250 4.40523500 0.58058438
Mn 6.60785250 6.82732131 2.35000973
Mn 4.40523500 6.60785250 -3.3039029400000004 0 0 0
Mn 6.60785250 4.40523500 -3.3039029400000004 0 0 0
Mn 6.60785250 6.60785250 -1.1013009800000013 0 0 0
Pt 0.02079271 0.00000000 2.04082593
Pt 0.00000000 0.00000000 -1.1013009800000013 0 0 0
Pt 8.77002994 4.40523500 2.05226733
Pt 0.00000000 4.40523500 -1.1013009800000013 0 0 0
Pt 4.38435419 0.00000000 2.04055985
Pt 4.40523500 0.00000000 -1.1013009800000013 0 0 0
Pt 4.44567506 4.40514690 2.05226733
Pt 4.40523500 4.40523500 -1.1013009800000013 0 0 0
C 2.20226508 0.00008810 2.34122912
