&CONTROL
calculation = 'relax'
prefix = 'scf'
pseudo_dir = '/vol0403/data/hp230205/u10028/POT_HYBRID_KKJUS_GBRV'
outdir = './data'
tprnfor = .true.
nstep = 50
disk_io = 'non'
/
&SYSTEM
ibrav = 0
ecutwfc = 50.0
ecutrho = 400
occupations = 'smearing'
smearing = 'mp'
degauss = 0.01
assume_isolated = 'esm'
esm_bc = 'bc1'
input_dft = 'BEEF-VDW'
nosym = .true.
nspin = 1
ntyp = 5
nat = 33
/
&ELECTRONS
electron_maxstep = 200
mixing_beta = 0.1
conv_thr = 1e-06
/
&IONS
ion_dynamics = 'bfgs'
upscale = 1.0
/
&CELL
/

K_POINTS {automatic}
9 6 2 0  0  0

ATOMIC_SPECIES
C 12.01 C.pbe-n-rrkjus_psl.1.0.0.UPF
Li 6.941 Li.pbe-sl-rrkjus_psl.1.0.0.UPF
Mg 24.30 Mg.pbe-spnl-rrkjus_psl.1.0.0.UPF
Pd 106.4 Pd.pbe-n-rrkjus_psl.1.0.0.UPF
Sb 121.7 Sb.pbe-n-rrkjus_psl.1.0.0.UPF


CELL_PARAMETERS {angstrom}
6.57147000 0.00000000 0.00000000
0.00000000 9.29346000 0.00000000
0.00000000 0.00000000 26.97010000

ATOMIC_POSITIONS {angstrom}
Li 0.00000000 0.00000000 -3.4850763199999975 0 0 0
Li 0.00000000 4.64673000 -3.4850763199999975 0 0 0
Li 3.28573500 6.97009500 -1.161602209999998 0 0 0
Li 3.28573500 2.32336500 -1.161602209999998 0 0 0
Li 6.46639219 4.66494518 1.20502407
Li 6.46639219 9.27524482 1.20475437
Li 3.11198533 2.32336500 4.93202219
Li 3.67003457 6.97009500 4.37805633
Mg 1.64286750 0.00000000 -1.161602209999998 0 0 0
Mg 1.64286750 4.64673000 -1.161602209999998 0 0 0
Mg 4.92860250 2.32336500 -3.4850763199999975 0 0 0
Mg 4.92860250 6.97009500 -3.4850763199999975 0 0 0
Mg 1.61618733 4.72832658 3.45756682
Mg 1.61625305 9.21186342 3.45756682
Mg 4.79750167 6.97009500 1.22309403
Mg 4.81517893 2.32336500 1.35470812
Sb 4.92860250 0.00000000 -1.161602209999998 0 0 0
Sb 4.92860250 4.64673000 -1.161602209999998 0 0 0
Sb 1.64286750 2.32336500 -3.4850763199999975 0 0 0
Sb 1.64286750 6.97009500 -3.4850763199999975 0 0 0
Sb 4.73310127 4.53427913 3.61345400
Sb 4.73316698 0.11245087 3.61345400
Sb 1.63130171 6.97009500 1.24332161
Sb 1.65029326 2.32336500 1.20529377
Pd 0.00000000 2.32336500 -1.161602209999998 0 0 0
Pd 0.00000000 6.97009500 -1.161602209999998 0 0 0
Pd 3.28573500 4.64673000 -3.4850763199999975 0 0 0
Pd 3.28573500 0.00000000 -3.4850763199999975 0 0 0
Pd 6.40126893 6.97009500 3.35750775
Pd 0.21672708 2.32336500 3.51231612
Pd 3.34106678 0.01561301 1.06882506
Pd 3.34106678 4.63111699 1.06882506
C 5.14756388 2.32336500 4.64991494
