&CONTROL
calculation = 'relax'
prefix = 'scf'
pseudo_dir = '/vol0403/data/hp230205/u10028/POT_HYBRID_KKJUS_GBRV'
outdir = './data'
tprnfor = .true.
nstep = 50
disk_io = 'non'
/
&SYSTEM
ibrav = 0
ecutwfc = 50.0
ecutrho = 400
occupations = 'smearing'
smearing = 'mp'
degauss = 0.01
assume_isolated = 'esm'
esm_bc = 'bc1'
input_dft = 'BEEF-VDW'
nosym = .true.
nspin = 1
ntyp = 5
nat = 33
/
&ELECTRONS
electron_maxstep = 200
mixing_beta = 0.1
conv_thr = 1e-06
/
&IONS
ion_dynamics = 'bfgs'
upscale = 1.0
/
&CELL
/

K_POINTS {automatic}
6 6 1 0 0 0

ATOMIC_SPECIES
Al 26.98 Al.pbe-nl-rrkjus_psl.1.0.0.UPF
C 12.01 C.pbe-n-rrkjus_psl.1.0.0.UPF
Li 6.941 Li.pbe-sl-rrkjus_psl.1.0.0.UPF
Mg 24.30 Mg.pbe-spnl-rrkjus_psl.1.0.0.UPF
Pd 106.4 Pd.pbe-n-rrkjus_psl.1.0.0.UPF


CELL_PARAMETERS {angstrom}
6.28130000 0.00000000 0.00000000
0.00000000 8.88310000 0.00000000
0.00000000 0.00000000 26.66230000

ATOMIC_POSITIONS {angstrom}
Li 1.57032500 0.00000000 -1.1104847899999974 0 0 0
Li 1.57032500 4.44155000 -1.1104847899999974 0 0 0
Li 4.71097500 2.22077500 -3.331187759999999 0 0 0
Li 4.71097500 6.66232500 -3.331187759999999 0 0 0
Li 1.90964083 4.44146117 3.65300172
Li 1.28722681 0.00000000 4.00174461
Li 4.73974335 6.66090370 1.15074487
Li 4.73949210 2.22210747 1.15101149
Mg 0.00000000 2.22077500 -1.1104847899999974 0 0 0
Mg 0.00000000 6.66232500 -1.1104847899999974 0 0 0
Mg 3.14065000 4.44155000 -3.331187759999999 0 0 0
Mg 3.14065000 0.00000000 -3.331187759999999 0 0 0
Mg 6.24072280 6.44149113 3.48796209
Mg 6.24072280 2.44169770 3.48822871
Mg 3.07457072 8.88283351 1.15794369
Mg 3.08129171 4.44181649 1.03529711
Al 0.00000000 0.00000000 -3.331187759999999 0 0 0
Al 0.00000000 4.44155000 -3.331187759999999 0 0 0
Al 3.14065000 6.66232500 -1.1104847899999974 0 0 0
Al 3.14065000 2.22077500 -1.1104847899999974 0 0 0
Al 6.26295860 4.44146117 1.14941175
Al 0.11752312 0.00008883 1.00516871
Al 3.14134094 1.98501753 3.39277768
Al 3.14140376 6.89790481 3.39304430
Pd 4.71097500 0.00000000 -1.1104847899999974 0 0 0
Pd 4.71097500 4.44155000 -1.1104847899999974 0 0 0
Pd 1.57032500 2.22077500 -3.331187759999999 0 0 0
Pd 1.57032500 6.66232500 -3.331187759999999 0 0 0
Pd 4.51600345 4.44163883 3.17228045
Pd 5.16863052 8.88301117 3.10002562
Pd 1.52535089 6.61808716 1.09928663
Pd 1.52572777 2.26510167 1.09902001
C 3.15911702 8.88301117 3.49809376
