&CONTROL
calculation = 'relax'
prefix = 'scf'
pseudo_dir = '/vol0004/mdt0/data/hp150275/u10028/POT_HYBRID_KKJUS_GBRV'
outdir = './data'
tprnfor = .true.
nstep = 50
disk_io = 'non'
/
&SYSTEM
ibrav = 0
ecutwfc = 50.0
ecutrho = 400
occupations = 'smearing'
smearing = 'mp'
degauss = 0.01
assume_isolated = 'esm'
esm_bc = 'bc1'
input_dft = 'BEEF-VDW'
nosym = .true.
nspin = 2
ntyp = 3
nat = 33
starting_magnetization(1) = 0.1
starting_magnetization(2) = 0.1
starting_magnetization(3) = 0.1
/
&ELECTRONS
electron_maxstep = 200
mixing_beta = 0.1
conv_thr = 1e-06
/
&IONS
ion_dynamics = 'bfgs'
upscale = 1.0
/
&CELL
/

K_POINTS {automatic}
9 6 2 0  0  0

ATOMIC_SPECIES
C 12.01 C.pbe-n-rrkjus_psl.1.0.0.UPF
Ni 58.69 ni_pbe_v1.4.uspp.F.UPF
Sc 44.95 Sc.pbe-spn-rrkjus_psl.1.0.0.UPF

CELL_PARAMETERS {angstrom}
6.35210000 0.00000000 0.00000000
0.00000000 8.98322000 0.00000000
0.00000000 0.00000000 26.73740000

ATOMIC_POSITIONS {angstrom}
Sc 1.58802500 2.24580500 -3.3686450299999997 0 0 0
Sc 1.58802500 0.00000000 -1.122970800000001 0 0 0
Sc 1.58802500 2.24580500 1.23098990
Sc 1.58802500 8.95213806 3.49832142
Sc 1.58802500 6.73741500 -3.3686450299999997 0 0 0
Sc 1.58802500 4.49161000 -1.122970800000001 0 0 0
Sc 1.58802500 6.73741500 1.10960210
Sc 1.58802500 4.52269194 3.49832142
Sc 4.76407500 2.24580500 -3.3686450299999997 0 0 0
Sc 4.76407500 0.00000000 -1.122970800000001 0 0 0
Sc 4.76407500 2.24580500 1.10211563
Sc 4.76407500 8.95150923 3.45821532
Sc 4.76407500 6.73741500 -3.3686450299999997 0 0 0
Sc 4.76407500 4.49161000 -1.122970800000001 0 0 0
Sc 4.76407500 6.73741500 1.09917451
Sc 4.76407500 4.52323093 3.45821532
Ni 0.00000000 0.00000000 -3.3686450299999997 0 0 0
Ni 0.00000000 2.24580500 -1.122970800000001 0 0 0
Ni 6.34860634 8.97244014 1.21842332
Ni 6.11415033 2.24580500 3.29698879
Ni 0.00000000 4.49161000 -3.3686450299999997 0 0 0
Ni 0.00000000 6.73741500 -1.122970800000001 0 0 0
Ni 6.34854282 4.50238986 1.21842332
Ni 6.35095662 6.73741500 3.14378349
Ni 3.17605000 0.00000000 -3.3686450299999997 0 0 0
Ni 3.17605000 2.24580500 -1.122970800000001 0 0 0
Ni 3.17954366 8.97244014 1.21842332
Ni 3.41399967 2.24580500 3.29698879
Ni 3.17605000 4.49161000 -3.3686450299999997 0 0 0
Ni 3.17605000 6.73741500 -1.122970800000001 0 0 0
Ni 3.17960718 4.50238986 1.21842332
Ni 3.17719338 6.73741500 3.14378349
C 1.58802500 2.24580500 3.58922858
