&CONTROL
calculation = 'relax'
prefix = 'scf'
pseudo_dir = '/vol0004/mdt0/data/hp150275/u10028/POT_KKJUS'
outdir = './data'
tprnfor = .true.
nstep = 50
disk_io = 'non'
/
&SYSTEM
ibrav = 0
ecutwfc = 50.0
ecutrho = 400
occupations = 'smearing'
smearing = 'mp'
degauss = 0.01
assume_isolated = 'esm'
esm_bc = 'bc1'
input_dft = 'BEEF-VDW'
nosym = .true.
nspin = 1
ntyp = 3
nat = 33
/
&ELECTRONS
electron_maxstep = 200
mixing_beta = 0.1
conv_thr = 1e-06
/
&IONS
ion_dynamics = 'bfgs'
upscale = 1.0
/
&CELL
/

K_POINTS {automatic}
8 6 1 0 0 0

ATOMIC_SPECIES
Ag 107.8 Ag.pbe-n-rrkjus_psl.1.0.0.UPF
C 12.01 C.pbe-n-rrkjus_psl.1.0.0.UPF
Ga 69.72 Ga.pbe-dnl-rrkjus_psl.1.0.0.UPF

CELL_PARAMETERS {angstrom}
6.70510000 0.00000000 0.00000000
0.00000000 9.48244000 0.00000000
0.00000000 0.00000000 27.11180000

ATOMIC_POSITIONS {angstrom}
Ga 1.67627500 2.37061000 -3.555983689999998 0 0 0
Ga 1.67627500 0.00000000 -1.1853278999999972 0 0 0
Ga 1.69907234 2.40522091 1.17665212
Ga 1.93891377 0.00000000 3.91250386
Ga 1.67627500 7.11183000 -3.555983689999998 0 0 0
Ga 1.67627500 4.74122000 -1.1853278999999972 0 0 0
Ga 1.69907234 7.07721909 1.17665212
Ga 1.52775704 4.74122000 3.87590293
Ga 5.02882500 2.37061000 -3.555983689999998 0 0 0
Ga 5.02882500 0.00000000 -1.1853278999999972 0 0 0
Ga 5.00602766 2.40522091 1.17665212
Ga 4.76618623 0.00000000 3.91277498
Ga 5.02882500 7.11183000 -3.555983689999998 0 0 0
Ga 5.02882500 4.74122000 -1.1853278999999972 0 0 0
Ga 5.00602766 7.07721909 1.17665212
Ga 5.17734297 4.74122000 3.87590293
Ag 0.00000000 0.00000000 -3.555983689999998 0 0 0
Ag 0.00000000 2.37061000 -1.1853278999999972 0 0 0
Ag 0.00000000 0.00000000 1.22030212
Ag 0.00006705 2.40759152 3.58092654
Ag 0.00000000 4.74122000 -3.555983689999998 0 0 0
Ag 0.00000000 7.11183000 -1.1853278999999972 0 0 0
Ag 0.00000000 4.74122000 1.23223131
Ag 6.70503295 7.07484848 3.58092654
Ag 3.35255000 0.00000000 -3.555983689999998 0 0 0
Ag 3.35255000 2.37061000 -1.1853278999999972 0 0 0
Ag 3.35255000 0.00000000 1.22409777
Ag 3.35255000 2.53607858 3.50935139
Ag 3.35255000 4.74122000 -3.555983689999998 0 0 0
Ag 3.35255000 7.11183000 -1.1853278999999972 0 0 0
Ag 3.35255000 4.74122000 1.24660056
Ag 3.35255000 6.94636142 3.50935139
C 0.00000000 0.00000000 3.54730791
