&CONTROL
calculation = 'relax'
prefix = 'scf'
pseudo_dir = '/vol0403/data/hp230205/u10028/POT_HYBRID_KKJUS_GBRV'
outdir = './data'
tprnfor = .true.
nstep = 70
disk_io = 'non'
/
&SYSTEM
ibrav = 0
ecutwfc = 50.0
ecutrho = 400
occupations = 'smearing'
smearing = 'mp'
degauss = 0.01
assume_isolated = 'esm'
esm_bc = 'bc1'
input_dft = 'BEEF-VDW'
nosym = .true.
nspin = 1
ntyp = 6
nat = 18
/
&ELECTRONS
electron_maxstep = 200
mixing_beta = 0.1
conv_thr = 1e-06
/
&IONS
ion_dynamics = 'bfgs'
upscale = 1.0
/
&CELL
/

K_POINTS {automatic}
6 6 1 0 0 0

ATOMIC_SPECIES
Au 196.9 Au.pbe-n-rrkjus_psl.1.0.0.UPF
C 12.01 C.pbe-n-rrkjus_psl.1.0.0.UPF
In 114.8 In.pbe-dn-rrkjus_psl.1.0.0.UPF
Li 6.941 Li.pbe-sl-rrkjus_psl.1.0.0.UPF
O 15.99 O.pbe-n-rrkjus_psl.1.0.0.UPF
Pd 106.4 Pd.pbe-n-rrkjus_psl.1.0.0.UPF


CELL_PARAMETERS {angstrom}
5.60636000 0.00000000 0.00000000
-0.00000000 8.89782000 0.00000000
0.00000000 0.00000000 24.18540000

ATOMIC_POSITIONS {angstrom}
Li 2.87073664 -0.00000000 2.07365620
Li 5.33775929 0.00000000 -0.6975069400000002 0 0 0
Li 2.87387620 4.44891000 2.05358231
Li 5.33775929 4.44891000 -0.6975069400000002 0 0 0
In 1.25991728 2.23023858 0.76014712
In 3.80184091 2.22445500 -2.0927626600000018 0 0 0
In 1.25986122 6.66758142 0.76014712
In 3.80184091 6.67336500 -2.0927626600000018 0 0 0
Pd 4.03540186 2.23593319 0.76957943
Pd 0.99866091 2.22445500 -2.0927626600000018 0 0 0
Pd 4.03540186 6.66188681 0.76957943
Pd 0.99866091 6.67336500 -2.0927626600000018 0 0 0
Au 5.55394053 -0.00000000 1.86566176
Au 2.53457929 0.00000000 -0.6975069400000002 0 0 0
Au 5.55349203 4.44891000 1.89033086
Au 2.53457929 4.44891000 -0.6975069400000002 0 0 0
C 2.78338955 -0.00000000 4.20753404
O 2.76365516 -0.00000000 5.34497340
