&CONTROL
calculation = 'relax'
prefix = 'scf'
pseudo_dir = '/vol0004/mdt0/data/hp150275/u10028/POT_KKJUS'
outdir = './data'
tprnfor = .true.
nstep = 50
disk_io = 'non'
/
&SYSTEM
ibrav = 0
ecutwfc = 50.0
ecutrho = 400
occupations = 'smearing'
smearing = 'mp'
degauss = 0.01
assume_isolated = 'esm'
esm_bc = 'bc1'
input_dft = 'BEEF-VDW'
nosym = .true.
nspin = 1
ntyp = 4
nat = 17
/
&ELECTRONS
electron_maxstep = 200
mixing_beta = 0.1
conv_thr = 1e-06
/
&IONS
ion_dynamics = 'bfgs'
upscale = 1.0
/
&CELL
/

K_POINTS {automatic}
10 10 2 0  0  0

ATOMIC_SPECIES
Au 196.9 Au.pbe-n-rrkjus_psl.1.0.0.UPF
C 12.01 C.pbe-n-rrkjus_psl.1.0.0.UPF
Ga 69.72 Ga.pbe-dnl-rrkjus_psl.1.0.0.UPF
Li 6.941 Li.pbe-sl-rrkjus_psl.1.0.0.UPF

CELL_PARAMETERS {angstrom}
6.29417000 0.00000000 0.00000000
0.00000000 6.29417000 0.00000000
0.00000000 0.00000000 24.72060000

ATOMIC_POSITIONS {angstrom}
Li 0.00000000 0.00000000 -0.7868567000000013 0 0 0
Li 3.23193041 0.08591542 2.64609302
Li 6.20819164 3.06223959 2.64609302
Li 3.14708500 3.14708500 -0.7868567000000013 0 0 0
Li 1.57354250 1.57354250 -2.3603228900000026 0 0 0
Li 1.57329073 4.72087927 1.14530540
Li 4.72062750 4.72062750 -2.3603228900000026 0 0 0
Li 4.72761403 1.56655597 0.66770341
Ga 6.09118302 0.20298698 2.49109486
Ga 3.35624027 2.93786679 2.48664515
Ga 3.14708500 0.00000000 -0.7868567000000013 0 0 0
Ga 0.00000000 3.14708500 -0.7868567000000013 0 0 0
Au 1.57524193 1.57410898 0.77845169
Au 1.57354250 4.72062750 -2.3603228900000026 0 0 0
Au 4.71999808 4.71892807 0.77845169
Au 4.72062750 1.57354250 -2.3603228900000026 0 0 0
C 4.72459283 1.56957717 2.74522263
