&CONTROL
calculation = 'relax'
prefix = 'scf'
pseudo_dir = '/vol0403/data/hp230205/u10028/POT_HYBRID_KKJUS_GBRV'
outdir = './data'
tprnfor = .true.
nstep = 50
disk_io = 'non'
/
&SYSTEM
ibrav = 0
ecutwfc = 50.0
ecutrho = 400
occupations = 'smearing'
smearing = 'mp'
degauss = 0.01
assume_isolated = 'esm'
esm_bc = 'bc1'
input_dft = 'BEEF-VDW'
nosym = .true.
nspin = 1
ntyp = 6
nat = 18
/
&ELECTRONS
electron_maxstep = 200
mixing_beta = 0.1
conv_thr = 1e-06
/
&IONS
ion_dynamics = 'bfgs'
upscale = 1.0
/
&CELL
/

K_POINTS {automatic}
8 8 1 0 0 0

ATOMIC_SPECIES
C 12.01 C.pbe-n-rrkjus_psl.1.0.0.UPF
Cu 63.54 Cu.pbe-dn-rrkjus_psl.1.0.0.UPF
In 114.8 In.pbe-dn-rrkjus_psl.1.0.0.UPF
Li 6.941 Li.pbe-sl-rrkjus_psl.1.0.0.UPF
O 15.99 O.pbe-n-rrkjus_psl.1.0.0.UPF
Pd 106.4 Pd.pbe-n-rrkjus_psl.1.0.0.UPF


CELL_PARAMETERS {angstrom}
6.33486000 0.00000000 0.00000000
0.00000000 6.33486000 0.00000000
0.00000000 0.00000000 24.75110000

ATOMIC_POSITIONS {angstrom}
Li 1.58371500 1.58371500 -0.7917876899999996 0 0 0
Li 1.58365165 4.75120835 2.43748833
Li 4.75108165 1.58384170 2.43699331
Li 4.75114500 4.75114500 -0.7917876899999996 0 0 0
In 4.75114500 1.58371500 -0.7917876899999996 0 0 0
In 4.75095495 4.75139839 2.71049296
In 1.58352495 1.58396839 2.36051241
In 1.58371500 4.75114500 -0.7917876899999996 0 0 0
Cu 0.00000000 0.00000000 -2.37561058 0 0 0
Cu 6.25516746 3.24693249 0.84054736
Cu 3.24680580 6.25573760 0.84054736
Cu 3.16743000 3.16743000 -2.37561058 0 0 0
Pd 0.00000000 3.16743000 -2.37561058 0 0 0
Pd 6.25263352 6.25301361 0.91925585
Pd 3.24959313 3.24940309 0.91925585
Pd 3.16743000 0.00000000 -2.37561058 0 0 0
C 1.58713582 1.57985074 6.41400005
O 1.58251138 1.58491862 7.54834297
