&CONTROL
calculation = 'relax'
prefix = 'scf'
pseudo_dir = '/vol0004/mdt0/data/hp150275/u10028/POT_HYBRID_KKJUS_GBRV'
outdir = './data'
tprnfor = .true.
nstep = 50
disk_io = 'non'
/
&SYSTEM
ibrav = 0
ecutwfc = 50.0
ecutrho = 400
occupations = 'smearing'
smearing = 'mp'
degauss = 0.01
assume_isolated = 'esm'
esm_bc = 'bc1'
input_dft = 'BEEF-VDW'
nosym = .true.
nspin = 2
ntyp = 5
nat = 34
starting_magnetization(1) = 0.0
starting_magnetization(2) = 0.0
starting_magnetization(3) = 0.1
starting_magnetization(4) = 0.0
starting_magnetization(5) = 0.0
/
&ELECTRONS
electron_maxstep = 200
mixing_beta = 0.1
conv_thr = 1e-06
/
&IONS
ion_dynamics = 'bfgs'
upscale = 1.0
/
&CELL
/

K_POINTS {automatic}
9 6 2 0  0  0

ATOMIC_SPECIES
Al 26.98 Al.pbe-nl-rrkjus_psl.1.0.0.UPF
C 12.01 C.pbe-n-rrkjus_psl.1.0.0.UPF
Co 58.93 co_pbe_v1.2.uspp.F.UPF
Nb 92.90 Nb.pbe-spn-rrkjus_psl.1.0.0.UPF
O 15.99 O.pbe-n-rrkjus_psl.1.0.0.UPF

CELL_PARAMETERS {angstrom}
5.97844000 0.00000000 0.00000000
0.00000000 8.45478000 0.00000000
0.00000000 0.00000000 26.34110000

ATOMIC_POSITIONS {angstrom}
Nb 0.00000000 0.00000000 23.17068520
Nb 2.98922000 2.11369500 25.28429507
Nb 2.98922000 6.34108500 25.28429507
Nb 0.00000000 4.22739000 23.17068520
Nb 0.00000000 4.22510721 1.07761440
Nb 2.98922000 6.34108500 3.17304891
Nb 2.98922000 2.11369500 3.08243552
Nb 0.00000000 0.00228279 1.07761440
Al 0.00000000 6.34108500 25.28429507
Al 2.98922000 0.00000000 23.17068520
Al 0.00000000 2.11369500 25.28429507
Al 2.98922000 4.22739000 23.17068520
Al 0.00000000 2.11369500 3.17620984
Al 2.98922000 4.22739000 1.06523408
Al 0.00000000 6.34108500 3.17805371
Al 2.98922000 0.00000000 1.06523408
Co 1.49461000 0.00000000 25.28429507
Co 4.48383000 4.22739000 25.28429507
Co 4.48383000 0.00000000 25.28429507
Co 1.49461000 4.22739000 25.28429507
Co 4.48383000 6.34108500 23.17068520
Co 1.49461000 2.11369500 23.17068520
Co 1.49461000 6.34108500 23.17068520
Co 4.48383000 2.11369500 23.17068520
Co 1.49174035 4.23111010 3.15092238
Co 4.48669965 8.45105990 3.15092238
Co 4.48669965 4.23111010 3.15092238
Co 1.49174035 8.45105990 3.15092238
Co 4.48843340 2.11369500 1.04705873
Co 1.50034930 6.34108500 1.05864881
Co 1.49000660 2.11369500 1.04705873
Co 4.47809070 6.34108500 1.05864881
C 2.98922000 2.11369500 5.14020225
O 2.98922000 2.11369500 6.25495761
