&CONTROL
calculation = 'relax'
prefix = 'scf'
pseudo_dir = '/vol0004/mdt0/data/hp150275/u10028/POT_HYBRID_KKJUS_GBRV'
outdir = './data'
tprnfor = .true.
nstep = 70
disk_io = 'non'
/
&SYSTEM
ibrav = 0
ecutwfc = 50.0
ecutrho = 400
occupations = 'smearing'
smearing = 'mp'
degauss = 0.01
assume_isolated = 'esm'
esm_bc = 'bc1'
input_dft = 'BEEF-VDW'
nosym = .true.
nspin = 1
ntyp = 3
nat = 17
/
&ELECTRONS
electron_maxstep = 200
mixing_beta = 0.1
conv_thr = 1e-06
/
&IONS
ion_dynamics = 'bfgs'
upscale = 1.0
/
&CELL
/

K_POINTS {automatic}
10 10 2 0  0  0

ATOMIC_SPECIES
Bi 208.9 Bi.pbe-dn-rrkjus_psl.1.0.0.UPF
C 12.01 C.pbe-n-rrkjus_psl.1.0.0.UPF
Li 6.941 Li.pbe-sl-rrkjus_psl.1.0.0.UPF

CELL_PARAMETERS {angstrom}
6.80372000 0.00000000 0.00000000
0.00000000 6.80372000 0.00000000
0.00000000 0.00000000 26.38080000

ATOMIC_POSITIONS {angstrom}
Li 0.00000000 0.00000000 -2.1954101799999997 0 0 0
Li 6.68193341 6.72547722 1.94927731
Li 0.00000000 3.40186000 -2.1954101799999997 0 0 0
Li 0.34692168 3.14896573 2.22179098
Li 3.40186000 0.00000000 -2.1954101799999997 0 0 0
Li 2.90069798 0.33596769 2.27165069
Li 3.40186000 3.40186000 -2.1954101799999997 0 0 0
Li 3.47023739 3.53289965 2.02578163
Bi 1.70093000 1.70093000 -0.06832627000000002 0 0 0
Bi 2.22699363 2.28924767 4.73904691
Bi 1.70093000 5.10279000 -0.06832627000000002 0 0 0
Bi 1.42156926 5.62728877 4.36866048
Bi 5.10279000 1.70093000 -0.06832627000000002 0 0 0
Bi 5.85922759 1.65418844 4.45123238
Bi 5.10279000 5.10279000 -0.06832627000000002 0 0 0
Bi 5.23233283 4.82050366 4.07926310
C 1.04743269 1.13152667 3.12533338
