&CONTROL
calculation = 'relax'
prefix = 'scf'
pseudo_dir = '/vol0004/mdt0/data/hp150275/u10028/POT_HYBRID_KKJUS_GBRV'
outdir = './data'
tprnfor = .true.
nstep = 50
disk_io = 'non'
/
&SYSTEM
ibrav = 0
ecutwfc = 50.0
ecutrho = 400
occupations = 'smearing'
smearing = 'mp'
degauss = 0.01
assume_isolated = 'esm'
esm_bc = 'bc1'
input_dft = 'BEEF-VDW'
nosym = .true.
nspin = 2
ntyp = 4
nat = 34
starting_magnetization(1) = 0.0
starting_magnetization(2) = 0.01
starting_magnetization(3) = 0.0
starting_magnetization(4) = 0.0
/
&ELECTRONS
electron_maxstep = 200
mixing_beta = 0.1
conv_thr = 1e-06
/
&IONS
ion_dynamics = 'bfgs'
upscale = 1.0
/
&CELL
/

K_POINTS {automatic}
6 6 1 0 0 0

ATOMIC_SPECIES
C 12.01 C.pbe-n-rrkjus_psl.1.0.0.UPF
Cr 51.99 cr_pbe_v1.5.uspp.F.UPF
Ir 192.2 Ir.pbe-n-rrkjus_psl.0.2.3.UPF
O 15.99 O.pbe-n-rrkjus_psl.1.0.0.UPF

CELL_PARAMETERS {angstrom}
7.64708000 0.00000000 0.00000000
-0.00000000 7.64708000 0.00000000
0.00000000 0.00000000 25.73530000

ATOMIC_POSITIONS {angstrom}
Cr 0.00000000 0.00000000 -2.8676844799999976 0 0 0
Cr 0.00000000 0.00000000 0.95580904
Cr 0.00000000 3.82354000 -2.8676844799999976 0 0 0
Cr 0.00000000 3.82354000 0.95580904
Cr 3.82354000 0.00000000 -2.8676844799999976 0 0 0
Cr 3.82354000 -0.00000000 0.95580904
Cr 3.82354000 3.82354000 -2.8676844799999976 0 0 0
Cr 3.82354000 3.82354000 0.95580904
Ir 0.00000000 1.91177000 -0.9558090399999983 0 0 0
Ir 1.91177000 0.00000000 -0.9558090399999983 0 0 0
Ir 1.91177000 1.91177000 -2.8676844799999976 0 0 0
Ir 0.00000000 1.91177000 2.86768448
Ir 1.91177000 -0.00000000 2.86768448
Ir 1.91177000 1.91177000 0.95580904
Ir 0.00000000 5.73531000 -0.9558090399999983 0 0 0
Ir 1.91177000 3.82354000 -0.9558090399999983 0 0 0
Ir 1.91177000 5.73531000 -2.8676844799999976 0 0 0
Ir 0.00000000 5.73531000 2.86768448
Ir 1.91177000 3.82354000 2.86768448
Ir 1.91177000 5.73531000 0.95580904
Ir 3.82354000 1.91177000 -0.9558090399999983 0 0 0
Ir 5.73531000 0.00000000 -0.9558090399999983 0 0 0
Ir 5.73531000 1.91177000 -2.8676844799999976 0 0 0
Ir 3.82354000 1.91177000 2.86768448
Ir 5.73531000 -0.00000000 2.86768448
Ir 5.73531000 1.91177000 0.95580904
Ir 3.82354000 5.73531000 -0.9558090399999983 0 0 0
Ir 5.73531000 3.82354000 -0.9558090399999983 0 0 0
Ir 5.73531000 5.73531000 -2.8676844799999976 0 0 0
Ir 3.82354000 5.73531000 2.86768448
Ir 5.73531000 3.82354000 2.86768448
Ir 5.73531000 5.73531000 0.95580904
C 1.91177000 -0.00000000 4.76772168
O 1.91177000 -0.00000000 5.91757488
