&CONTROL
calculation = 'relax'
prefix = 'scf'
pseudo_dir = '/vol0403/data/hp230205/u10028/POT_HYBRID_KKJUS_GBRV'
outdir = './data'
tprnfor = .true.
nstep = 50
disk_io = 'non'
/
&SYSTEM
ibrav = 0
ecutwfc = 50.0
ecutrho = 400
occupations = 'smearing'
smearing = 'mp'
degauss = 0.01
assume_isolated = 'esm'
esm_bc = 'bc1'
input_dft = 'BEEF-VDW'
nosym = .true.
nspin = 1
ntyp = 4
nat = 32
/
&ELECTRONS
electron_maxstep = 200
mixing_beta = 0.1
conv_thr = 1e-06
/
&IONS
ion_dynamics = 'bfgs'
upscale = 1.0
/
&CELL
/

K_POINTS {automatic}
7 7 2 0  0  0

ATOMIC_SPECIES
Li 6.941 Li.pbe-sl-rrkjus_psl.1.0.0.UPF
Pb 207.2 Pb.pbe-dn-rrkjus_psl.1.0.0.UPF
Sn 118.7 Sn.pbe-dn-rrkjus_psl.1.0.0.UPF
Y 88.90 Y.pbe-spn-rrkjus_psl.1.0.0.UPF


CELL_PARAMETERS {angstrom}
9.64462000 0.00000000 0.00000000
0.00000000 8.87168000 0.00000000
0.00000000 0.00000000 27.02620000

ATOMIC_POSITIONS {angstrom}
Li 0.00000000 0.00026615 3.60151141
Li 0.00000000 0.00000000 -1.1710452499999988 0 0 0
Li 0.00009645 4.43557385 3.60124115
Li 0.00000000 4.43584000 -1.1710452499999988 0 0 0
Li 4.82231000 0.00008872 3.60097089
Li 4.82231000 0.00000000 -1.1710452499999988 0 0 0
Li 4.82231000 4.43584000 3.60097089
Li 4.82231000 4.43584000 -1.1710452499999988 0 0 0
Y 2.41115500 0.00000000 1.13212752
Y 2.41115500 0.00000000 -3.513135739999999 0 0 0
Y 2.41115500 4.43584000 1.13239778
Y 2.41115500 4.43584000 -3.513135739999999 0 0 0
Y 7.23356145 0.00000000 1.13239778
Y 7.23346500 0.00000000 -3.513135739999999 0 0 0
Y 7.23356145 4.43575128 1.13239778
Y 7.23346500 4.43584000 -3.513135739999999 0 0 0
Sn 2.40999765 2.21729898 3.54989137
Sn 2.41115500 2.21792000 -1.1710452499999988 0 0 0
Sn 2.40932252 6.65446973 3.54881032
Sn 2.41115500 6.65376000 -1.1710452499999988 0 0 0
Sn 7.23452591 2.21747642 3.55097242
Sn 7.23346500 2.21792000 -1.1710452499999988 0 0 0
Sn 7.23510459 6.65429230 3.54962111
Sn 7.23346500 6.65376000 -1.1710452499999988 0 0 0
Pb 9.64452355 2.21783128 1.33806716
Pb 0.00000000 2.21792000 -3.513135739999999 0 0 0
Pb 0.00000000 6.65376000 1.33806716
Pb 0.00000000 6.65376000 -3.513135739999999 0 0 0
Pb 4.82240645 2.21800872 1.33887795
Pb 4.82231000 2.21792000 -3.513135739999999 0 0 0
Pb 4.82240645 6.65367128 1.33860769
Pb 4.82231000 6.65376000 -3.513135739999999 0 0 0
