&CONTROL
calculation = 'relax'
prefix = 'scf'
pseudo_dir = '/vol0004/mdt0/data/hp150275/u10028/POT_HYBRID_KKJUS_GBRV'
outdir = './data'
tprnfor = .true.
nstep = 50
disk_io = 'non'
/
&SYSTEM
ibrav = 0
ecutwfc = 50.0
ecutrho = 400
occupations = 'smearing'
smearing = 'mp'
degauss = 0.01
assume_isolated = 'esm'
esm_bc = 'bc1'
input_dft = 'BEEF-VDW'
nosym = .true.
nspin = 2
ntyp = 5
nat = 34
starting_magnetization(1) = 0.0
starting_magnetization(2) = 0.1
starting_magnetization(3) = 0.0
starting_magnetization(4) = 0.0
starting_magnetization(5) = 0.0
/
&ELECTRONS
electron_maxstep = 300
mixing_beta = 0.1
conv_thr = 1e-06
/
&IONS
ion_dynamics = 'bfgs'
upscale = 1.0
/
&CELL
/

K_POINTS {automatic}
8 6 1 0 0 0

ATOMIC_SPECIES
C 12.01 C.pbe-n-rrkjus_psl.1.0.0.UPF
Co 58.93 co_pbe_v1.2.uspp.F.UPF
Ga 69.72 Ga.pbe-dnl-rrkjus_psl.1.0.0.UPF
O 15.99 O.pbe-n-rrkjus_psl.1.0.0.UPF
Ta 180.9 Ta.pbe-spn-rrkjus_psl.1.0.0.UPF

CELL_PARAMETERS {angstrom}
5.95946000 0.00000000 0.00000000
0.00000000 8.42794000 0.00000000
0.00000000 0.00000000 26.32100000

ATOMIC_POSITIONS {angstrom}
Ta 0.00000000 0.00000000 -3.1603624700000026 0 0 0
Ta 2.97973000 2.10698500 -1.0533664200000032 0 0 0
Ta 2.97973000 6.32095500 -1.0533664200000032 0 0 0
Ta 0.00000000 4.21397000 -3.1603624700000026 0 0 0
Ta 0.00000000 4.21211585 1.07363359
Ta 2.97973000 6.32095500 3.15641432
Ta 2.97973000 2.10698500 3.06902860
Ta 0.00000000 0.00185415 1.07363359
Ga 0.00000000 6.32095500 -1.0533664200000032 0 0 0
Ga 2.97973000 0.00000000 -3.1603624700000026 0 0 0
Ga 0.00000000 2.10698500 -1.0533664200000032 0 0 0
Ga 2.97973000 4.21397000 -3.1603624700000026 0 0 0
Ga 0.00000000 2.10698500 3.17115408
Ga 2.97973000 4.21338004 1.06073630
Ga 0.00000000 6.32095500 3.17431260
Ga 2.97973000 0.00058996 1.06073630
Co 1.48986500 0.00000000 -1.0533664200000032 0 0 0
Co 4.46959500 4.21397000 -1.0533664200000032 0 0 0
Co 4.46959500 0.00000000 -1.0533664200000032 0 0 0
Co 1.48986500 4.21397000 -1.0533664200000032 0 0 0
Co 4.46959500 6.32095500 -3.1603624700000026 0 0 0
Co 1.48986500 2.10698500 -3.1603624700000026 0 0 0
Co 1.48986500 6.32095500 -3.1603624700000026 0 0 0
Co 4.46959500 2.10698500 -3.1603624700000026 0 0 0
Co 1.48867311 4.21776257 3.14246419
Co 4.47078689 8.42414743 3.14246419
Co 4.47078689 4.21776257 3.14246419
Co 1.48867311 8.42414743 3.14246419
Co 4.47311108 2.10698500 1.04310123
Co 1.49707595 6.32095500 1.05547210
Co 1.48634892 2.10698500 1.04310123
Co 4.46238405 6.32095500 1.05547210
C 2.97973000 2.10698500 5.13259500
O 2.97973000 2.10698500 6.24413083
