&CONTROL
calculation = 'relax'
prefix = 'scf'
pseudo_dir = '/vol0004/mdt0/data/hp150275/u10028/POT_HYBRID_KKJUS_GBRV'
outdir = './data'
tprnfor = .true.
nstep = 50
disk_io = 'non'
/
&SYSTEM
ibrav = 0
ecutwfc = 50.0
ecutrho = 400
occupations = 'smearing'
smearing = 'mp'
degauss = 0.01
assume_isolated = 'esm'
esm_bc = 'bc1'
input_dft = 'BEEF-VDW'
nosym = .true.
nspin = 2
ntyp = 4
nat = 18
starting_magnetization(1) = 0.0
starting_magnetization(2) = 0.1
starting_magnetization(3) = 0.0
starting_magnetization(4) = 0.0
/
&ELECTRONS
electron_maxstep = 400
mixing_beta = 0.1
conv_thr = 1e-06
/
&IONS
ion_dynamics = 'bfgs'
upscale = 1.0
/
&CELL
/

K_POINTS {automatic}
6 8 1 0 0 0

ATOMIC_SPECIES
C 12.01 C.pbe-n-rrkjus_psl.1.0.0.UPF
Co 58.93 co_pbe_v1.2.uspp.F.UPF
O 15.99 O.pbe-n-rrkjus_psl.1.0.0.UPF
Ta 180.9 Ta.pbe-spn-rrkjus_psl.1.0.0.UPF

CELL_PARAMETERS {angstrom}
7.30495000 0.00000000 0.00000000
0.00000000 5.16538000 0.00000000
0.00000000 0.00000000 23.87400000

ATOMIC_POSITIONS {angstrom}
Ta 0.00000000 0.00000000 -1.9368976199999999 0 0 0
Ta 0.03747439 2.56884678 0.65916114
Ta 3.65247500 0.00000000 -1.9368976199999999 0 0 0
Ta 3.61587720 2.56931167 0.65414760
Co 0.00000000 2.58269000 -1.9368976199999999 0 0 0
Co 1.82623750 3.87403500 -0.6455529599999998 0 0 0
Co 1.82623750 1.29134500 -0.6455529599999998 0 0 0
Co 7.29654931 5.15164009 0.54957948
Co 1.82872118 1.25942295 1.85047374
Co 1.82799069 4.00260131 1.82994210
Co 3.65247500 2.58269000 -1.9368976199999999 0 0 0
Co 5.47871250 3.87403500 -0.6455529599999998 0 0 0
Co 5.47871250 1.29134500 -0.6455529599999998 0 0 0
Co 3.66058349 5.15169174 0.55172814
Co 5.47703236 1.19160151 1.80487440
Co 5.47717846 3.95910881 1.79627976
C 1.82631055 1.37306131 3.60282534
O 1.82565310 1.45260816 4.75975938
