&CONTROL
calculation = 'relax'
prefix = 'scf'
pseudo_dir = '/vol0004/mdt0/data/hp150275/u10028/POT_KKJUS'
outdir = './data'
tprnfor = .true.
nstep = 50
disk_io = 'non'
/
&SYSTEM
ibrav = 0
ecutwfc = 50.0
ecutrho = 400
occupations = 'smearing'
smearing = 'mp'
degauss = 0.01
assume_isolated = 'esm'
esm_bc = 'bc1'
input_dft = 'BEEF-VDW'
nosym = .true.
nspin = 1
ntyp = 5
nat = 18
/
&ELECTRONS
electron_maxstep = 200
mixing_beta = 0.1
conv_thr = 1e-06
/
&IONS
ion_dynamics = 'bfgs'
upscale = 1.0
/
&CELL
/

K_POINTS {automatic}
8 8 1 0 0 0

ATOMIC_SPECIES
Ag 107.8 Ag.pbe-n-rrkjus_psl.1.0.0.UPF
C 12.01 C.pbe-n-rrkjus_psl.1.0.0.UPF
In 114.8 In.pbe-dn-rrkjus_psl.1.0.0.UPF
Li 6.941 Li.pbe-sl-rrkjus_psl.1.0.0.UPF
O 15.99 O.pbe-n-rrkjus_psl.1.0.0.UPF

CELL_PARAMETERS {angstrom}
6.74000000 0.00000000 0.00000000
0.00000000 6.74000000 0.00000000
0.00000000 0.00000000 25.05500000

ATOMIC_POSITIONS {angstrom}
Li 0.01395180 0.01139060 2.41981190
Li 3.36986520 3.37006740 2.42833060
Li 3.37000000 0.00000000 -0.8425996500000004 0 0 0
Li 0.00000000 3.37000000 -0.8425996500000004 0 0 0
In 0.00000000 0.00000000 -0.8425996500000004 0 0 0
In 3.39493800 6.73946080 2.88282830
In 0.02392700 3.36703440 2.33061610
In 3.37000000 3.37000000 -0.8425996500000004 0 0 0
Ag 1.80375880 1.57547500 0.91651190
Ag 5.05500000 5.05500000 -2.5275484000000006 0 0 0
Ag 4.95241720 1.57776660 0.93054270
Ag 1.68500000 5.05500000 -2.5275484000000006 0 0 0
Ag 4.95336080 5.16647960 0.93455150
Ag 1.68500000 1.68500000 -2.5275484000000006 0 0 0
Ag 1.80295000 5.16843420 0.92102180
Ag 5.05500000 1.68500000 -2.5275484000000006 0 0 0
C 6.33856560 3.36871940 6.12569695
O 0.27566600 3.36919120 7.03945280
