&CONTROL
calculation = 'relax'
prefix = 'scf'
pseudo_dir = '/vol0004/mdt0/data/hp150275/u10028/POT_KKJUS'
outdir = './data'
tprnfor = .true.
nstep = 50
disk_io = 'non'
/
&SYSTEM
ibrav = 0
ecutwfc = 50.0
ecutrho = 400
occupations = 'smearing'
smearing = 'mp'
degauss = 0.01
assume_isolated = 'esm'
esm_bc = 'bc1'
input_dft = 'BEEF-VDW'
nosym = .true.
nspin = 1
ntyp = 4
nat = 33
/
&ELECTRONS
electron_maxstep = 200
mixing_beta = 0.1
conv_thr = 1e-06
/
&IONS
ion_dynamics = 'bfgs'
upscale = 1.0
/
&CELL
/

K_POINTS {automatic}
9 6 2 0  0  0

ATOMIC_SPECIES
C 12.01 C.pbe-n-rrkjus_psl.1.0.0.UPF
In 114.8 In.pbe-dn-rrkjus_psl.1.0.0.UPF
Pt 195.0 Pt.pbe-n-rrkjus_psl.1.0.0.UPF
Zr 91.22 Zr.pbe-spn-rrkjus_psl.1.0.0.UPF

CELL_PARAMETERS {angstrom}
6.69031000 0.00000000 0.00000000
0.00000000 9.46152000 0.00000000
0.00000000 0.00000000 27.09610000

ATOMIC_POSITIONS {angstrom}
Zr 0.00000000 0.00000000 -3.547963329999998 0 0 0
Zr 3.34515500 2.36538000 -1.1827447599999985 0 0 0
Zr 3.34515500 7.09614000 -1.1827447599999985 0 0 0
Zr 0.00000000 4.73076000 -3.547963329999998 0 0 0
Zr 6.68375350 4.73870768 1.26376210
Zr 3.29250226 7.09614000 3.36506466
Zr 3.43881934 2.36538000 3.43415971
Zr 6.68375350 9.45347771 1.26376210
In 0.00000000 7.09614000 -1.1827447599999985 0 0 0
In 3.34515500 0.00000000 -3.547963329999998 0 0 0
In 0.00000000 2.36538000 -1.1827447599999985 0 0 0
In 3.34515500 4.73076000 -3.547963329999998 0 0 0
In 6.07607264 2.36538000 4.78788087
In 3.30742165 4.69982083 1.20171203
In 0.13574639 7.09614000 3.69726284
In 3.30742165 0.03093917 1.20171203
Pt 1.67257750 0.00000000 -1.1827447599999985 0 0 0
Pt 5.01773250 4.73076000 -1.1827447599999985 0 0 0
Pt 5.01773250 0.00000000 -1.1827447599999985 0 0 0
Pt 1.67257750 4.73076000 -1.1827447599999985 0 0 0
Pt 5.01773250 7.09614000 -3.547963329999998 0 0 0
Pt 1.67257750 2.36538000 -3.547963329999998 0 0 0
Pt 1.67257750 7.09614000 -3.547963329999998 0 0 0
Pt 5.01773250 2.36538000 -3.547963329999998 0 0 0
Pt 1.32535041 4.44360287 3.55256967
Pt 4.92165965 9.37106787 3.44933353
Pt 4.92165965 4.82121213 3.44933353
Pt 1.32535041 0.28715713 3.55256967
Pt 5.12129850 2.36538000 1.11717220
Pt 1.76938629 7.09614000 1.08953418
Pt 1.68448625 2.36538000 1.08872130
Pt 5.08684340 7.09614000 1.24235619
C 1.50639020 2.36538000 4.20314703
