&CONTROL
calculation = 'relax'
prefix = 'scf'
pseudo_dir = '/vol0004/mdt0/data/hp150275/u10028/POT_KKJUS'
outdir = './data'
tprnfor = .true.
nstep = 50
disk_io = 'non'
/
&SYSTEM
ibrav = 0
ecutwfc = 50.0
ecutrho = 400
occupations = 'smearing'
smearing = 'mp'
degauss = 0.01
assume_isolated = 'esm'
esm_bc = 'bc1'
input_dft = 'BEEF-VDW'
nosym = .true.
nspin = 1
ntyp = 3
nat = 16
/
&ELECTRONS
electron_maxstep = 200
mixing_beta = 0.1
conv_thr = 1e-06
/
&IONS
ion_dynamics = 'bfgs'
upscale = 1.0
/
&CELL
/

K_POINTS {automatic}
8 8 1 0 0 0

ATOMIC_SPECIES
Al 26.98 Al.pbe-nl-rrkjus_psl.1.0.0.UPF
Ni 58.69 Ni.pbe-spn-rrkjus_psl.1.0.0.UPF
Ti 47.86 Ti.pbe-spn-rrkjus_psl.1.0.0.UPF

CELL_PARAMETERS {angstrom}
5.94410000 0.00000000 0.00000000
-0.00000000 5.94410000 0.00000000
0.00000000 0.00000000 24.45810000

ATOMIC_POSITIONS {angstrom}
Ti 0.00000000 0.00000000 -2.229111230000001 0 0 0
Ti 2.97205000 2.97205000 -2.229111230000001 0 0 0
Ti 2.97205000 -0.00000000 0.74303708
Ti 0.00000000 2.97205000 0.74303708
Al 0.00000000 0.00000000 0.74303708
Al 2.97205000 0.00000000 -2.229111230000001 0 0 0
Al 0.00000000 2.97205000 -2.229111230000001 0 0 0
Al 2.97205000 2.97205000 0.74303708
Ni 1.48602500 1.48602500 -0.7430370800000006 0 0 0
Ni 4.45807500 4.45807500 2.22911123
Ni 4.45807500 1.48602500 -0.7430370800000006 0 0 0
Ni 1.48602500 4.45807500 2.22911123
Ni 4.45807500 4.45807500 -0.7430370800000006 0 0 0
Ni 1.48602500 1.48602500 2.22911123
Ni 1.48602500 4.45807500 -0.7430370800000006 0 0 0
Ni 4.45807500 1.48602500 2.22911123
