&CONTROL
calculation = 'relax'
prefix = 'scf'
pseudo_dir = '/vol0403/data/hp230205/u10028/POT_HYBRID_KKJUS_GBRV'
outdir = './data'
tprnfor = .true.
nstep = 50
disk_io = 'non'
/
&SYSTEM
ibrav = 0
ecutwfc = 50.0
ecutrho = 400
occupations = 'smearing'
smearing = 'mp'
degauss = 0.01
assume_isolated = 'esm'
esm_bc = 'bc1'
input_dft = 'BEEF-VDW'
nosym = .true.
nspin = 1
ntyp = 6
nat = 18
/
&ELECTRONS
electron_maxstep = 200
mixing_beta = 0.1
conv_thr = 1e-06
/
&IONS
ion_dynamics = 'bfgs'
upscale = 1.0
/
&CELL
/

K_POINTS {automatic}
9 9 2 0  0  0

ATOMIC_SPECIES
C 12.01 C.pbe-n-rrkjus_psl.1.0.0.UPF
In 114.8 In.pbe-dn-rrkjus_psl.1.0.0.UPF
Mg 24.30 Mg.pbe-spnl-rrkjus_psl.1.0.0.UPF
O 15.99 O.pbe-n-rrkjus_psl.1.0.0.UPF
Pd 106.4 Pd.pbe-n-rrkjus_psl.1.0.0.UPF
Y 88.90 Y.pbe-spn-rrkjus_psl.1.0.0.UPF


CELL_PARAMETERS {angstrom}
6.99626000 0.00000000 0.00000000
0.00000000 6.99626000 0.00000000
0.00000000 0.00000000 25.24720000

ATOMIC_POSITIONS {angstrom}
Y 5.26153733 1.73451278 1.00079901
Y 5.24719500 5.24719500 -2.6236890200000005 0 0 0
Y 1.74906500 1.74906500 -2.6236890200000005 0 0 0
Y 1.73444282 5.26153733 1.00079901
Mg 1.77453139 1.77453139 0.92228022
Mg 1.74906500 5.24719500 -2.6236890200000005 0 0 0
Mg 5.24719500 1.74906500 -2.6236890200000005 0 0 0
Mg 5.22179858 5.22172861 0.92253269
In 0.00041978 0.00034981 3.15489011
In 0.00000000 3.49813000 -0.8745630099999993 0 0 0
In 3.49813000 0.00000000 -0.8745630099999993 0 0 0
In 3.49966918 3.49973914 3.17155326
Pd 6.99598015 3.49785015 2.38358815
Pd 0.00000000 0.00000000 -0.8745630099999993 0 0 0
Pd 3.49813000 3.49813000 -0.8745630099999993 0 0 0
Pd 3.49785015 6.99598015 2.38358815
C 6.99619004 0.00013993 6.81724894
O 6.99619004 6.99612007 7.95135317
