&CONTROL
calculation = 'relax'
prefix = 'scf'
pseudo_dir = '/vol0004/mdt0/data/hp150275/u10028/POT_KKJUS'
outdir = './data'
tprnfor = .true.
nstep = 50
disk_io = 'non'
/
&SYSTEM
ibrav = 0
ecutwfc = 50.0
ecutrho = 400
occupations = 'smearing'
smearing = 'mp'
degauss = 0.01
assume_isolated = 'esm'
esm_bc = 'bc1'
input_dft = 'BEEF-VDW'
nosym = .true.
nspin = 1
ntyp = 4
nat = 18
/
&ELECTRONS
electron_maxstep = 200
mixing_beta = 0.1
conv_thr = 1e-06
/
&IONS
ion_dynamics = 'bfgs'
upscale = 1.0
/
&CELL
/

K_POINTS {automatic}
8 11 2 0  0  0

ATOMIC_SPECIES
C 12.01 C.pbe-n-rrkjus_psl.1.0.0.UPF
O 15.99 O.pbe-n-rrkjus_psl.1.0.0.UPF
Pt 195.0 Pt.pbe-n-rrkjus_psl.1.0.0.UPF
V 50.94 V.pbe-spnl-rrkjus_psl.1.0.0.UPF

CELL_PARAMETERS {angstrom}
7.64728000 0.00000000 0.00000000
0.00000000 5.40744000 0.00000000
0.00000000 0.00000000 24.05560000

ATOMIC_POSITIONS {angstrom}
V 0.00000000 2.70372000 -2.0278870799999993 0 0 0
V 1.91182000 4.05558000 -0.6759623599999998 0 0 0
V 1.91182000 1.35186000 -0.6759623599999998 0 0 0
V 0.03219505 0.29086620 0.50781372
V 1.91174353 1.77077438 2.02957097
V 1.91174353 4.73405150 1.70049036
V 3.82364000 2.70372000 -2.0278870799999993 0 0 0
V 5.73546000 4.05558000 -0.6759623599999998 0 0 0
V 5.73546000 1.35186000 -0.6759623599999998 0 0 0
V 3.79144495 0.29086620 0.50805427
V 5.73553647 1.64959365 1.96269640
V 5.73546000 4.73194260 1.59560795
Pt 0.00000000 0.00000000 -2.0278870799999993 0 0 0
Pt 0.00084120 2.89855006 0.80417871
Pt 3.82364000 0.00000000 -2.0278870799999993 0 0 0
Pt 3.82279880 2.89855006 0.80393815
C 1.91174353 0.58194869 3.55926658
O 1.91182000 5.27679625 4.51018444
