&CONTROL
calculation = 'relax'
prefix = 'scf'
pseudo_dir = '/vol0403/data/hp230205/u10028/POT_HYBRID_KKJUS_GBRV'
outdir = './data'
tprnfor = .true.
nstep = 50
disk_io = 'non'
/
&SYSTEM
ibrav = 0
ecutwfc = 50.0
ecutrho = 400
occupations = 'smearing'
smearing = 'mp'
degauss = 0.01
assume_isolated = 'esm'
esm_bc = 'bc1'
input_dft = 'BEEF-VDW'
nosym = .true.
nspin = 1
ntyp = 6
nat = 18
/
&ELECTRONS
electron_maxstep = 200
mixing_beta = 0.1
conv_thr = 1e-06
/
&IONS
ion_dynamics = 'bfgs'
upscale = 1.0
/
&CELL
/

K_POINTS {automatic}
9 9 2 0  0  0

ATOMIC_SPECIES
C 12.01 C.pbe-n-rrkjus_psl.1.0.0.UPF
Cu 63.54 Cu.pbe-dn-rrkjus_psl.1.0.0.UPF
In 114.8 In.pbe-dn-rrkjus_psl.1.0.0.UPF
Li 6.941 Li.pbe-sl-rrkjus_psl.1.0.0.UPF
O 15.99 O.pbe-n-rrkjus_psl.1.0.0.UPF
Sn 118.7 Sn.pbe-dn-rrkjus_psl.1.0.0.UPF


CELL_PARAMETERS {angstrom}
6.73938000 0.00000000 0.00000000
0.00000000 6.73938000 0.00000000
0.00000000 0.00000000 25.05450000

ATOMIC_POSITIONS {angstrom}
Li 0.00000000 3.36969000 -2.527247420000002 0 0 0
Li 6.72091410 6.72179022 0.89294238
Li 3.39139080 3.39017772 0.91148271
Li 3.36969000 0.00000000 -2.527247420000002 0 0 0
In 1.68484500 1.68484500 -0.8423322900000016 0 0 0
In 1.68814730 5.06322880 2.81061381
In 5.06349838 1.68807990 2.81161599
In 5.05453500 5.05453500 -0.8423322900000016 0 0 0
Cu 0.00000000 0.00000000 -2.527247420000002 0 0 0
Cu 6.72522730 3.38539276 0.71881361
Cu 3.38566233 6.72563166 0.71881361
Cu 3.36969000 3.36969000 -2.527247420000002 0 0 0
Sn 5.05453500 1.68484500 -0.8423322900000016 0 0 0
Sn 5.06242007 5.06242007 2.56583135
Sn 1.67520769 1.67520769 2.46085299
Sn 1.68484500 5.05453500 -0.8423322900000016 0 0 0
C 1.89679850 1.89646153 6.64269958
O 1.55699896 1.55713375 7.67118681
