&CONTROL
calculation = 'relax'
prefix = 'scf'
pseudo_dir = '/vol0004/mdt0/data/hp150275/u10028/POT_KKJUS'
outdir = './data'
tprnfor = .true.
nstep = 50
disk_io = 'non'
/
&SYSTEM
ibrav = 0
ecutwfc = 50.0
ecutrho = 400
occupations = 'smearing'
smearing = 'mp'
degauss = 0.01
assume_isolated = 'esm'
esm_bc = 'bc1'
input_dft = 'BEEF-VDW'
nosym = .true.
nspin = 1
ntyp = 4
nat = 34
/
&ELECTRONS
electron_maxstep = 200
mixing_beta = 0.1
conv_thr = 1e-06
/
&IONS
ion_dynamics = 'bfgs'
upscale = 1.0
/
&CELL
/

K_POINTS {automatic}
9 6 2 0  0  0

ATOMIC_SPECIES
C 12.01 C.pbe-n-rrkjus_psl.1.0.0.UPF
Li 6.941 Li.pbe-sl-rrkjus_psl.1.0.0.UPF
O 15.99 O.pbe-n-rrkjus_psl.1.0.0.UPF
Pd 106.4 Pd.pbe-n-rrkjus_psl.1.0.0.UPF

CELL_PARAMETERS {angstrom}
6.06651000 0.00000000 0.00000000
0.00000000 8.57934000 0.00000000
0.00000000 0.00000000 26.43450000

ATOMIC_POSITIONS {angstrom}
Li 0.00000000 0.00000000 -3.217342989999999 0 0 0
Li 0.00000000 2.14483500 -1.0724476599999981 0 0 0
Li 6.03211289 0.00000000 1.00186755
Li 6.06353741 2.15590235 3.35110157
Li 0.00000000 4.28967000 -3.217342989999999 0 0 0
Li 0.00000000 6.43450500 -1.0724476599999981 0 0 0
Li 0.00970642 4.28967000 1.03306026
Li 6.06353741 6.42343765 3.35110157
Li 3.03325500 0.00000000 -3.217342989999999 0 0 0
Li 3.03325500 2.14483500 -1.0724476599999981 0 0 0
Li 3.05958365 0.00000000 1.01191266
Li 3.03756222 2.15161268 3.35691715
Li 3.03325500 4.28967000 -3.217342989999999 0 0 0
Li 3.03325500 6.43450500 -1.0724476599999981 0 0 0
Li 3.01869538 4.28967000 1.03173854
Li 3.03756222 6.42772732 3.35691715
Pd 1.51662750 2.14483500 -3.217342989999999 0 0 0
Pd 1.51662750 0.00000000 -1.0724476599999981 0 0 0
Pd 1.51705216 2.08640969 1.11236376
Pd 1.51189562 0.00000000 3.23214632
Pd 1.51662750 6.43450500 -3.217342989999999 0 0 0
Pd 1.51662750 4.28967000 -1.0724476599999981 0 0 0
Pd 1.51711282 6.49293031 1.11236376
Pd 1.52026741 4.28967000 3.06137945
Pd 4.54988250 2.14483500 -3.217342989999999 0 0 0
Pd 4.54988250 0.00000000 -1.0724476599999981 0 0 0
Pd 4.55024649 2.15710346 1.09359526
Pd 4.55327975 0.00000000 3.04710481
Pd 4.54988250 6.43450500 -3.217342989999999 0 0 0
Pd 4.54988250 4.28967000 -1.0724476599999981 0 0 0
Pd 4.55030716 6.42223654 1.09359526
Pd 4.54745590 4.28967000 3.09177912
C 1.50843771 0.00000000 5.15208405
O 1.51262360 0.00000000 6.30859342
