&CONTROL
calculation = 'relax'
prefix = 'scf'
pseudo_dir = '/vol0004/mdt0/data/hp150275/u10028/POT_KKJUS'
outdir = './data'
tprnfor = .true.
nstep = 50
disk_io = 'non'
/
&SYSTEM
ibrav = 0
ecutwfc = 50.0
ecutrho = 400
occupations = 'smearing'
smearing = 'mp'
degauss = 0.01
assume_isolated = 'esm'
esm_bc = 'bc1'
input_dft = 'BEEF-VDW'
nosym = .true.
nspin = 1
ntyp = 4
nat = 33
/
&ELECTRONS
electron_maxstep = 200
mixing_beta = 0.1
conv_thr = 1e-06
/
&IONS
ion_dynamics = 'bfgs'
upscale = 1.0
/
&CELL
/

K_POINTS {automatic}
8 6 1 0 0 0

ATOMIC_SPECIES
C 12.01 C.pbe-n-rrkjus_psl.1.0.0.UPF
Ga 69.72 Ga.pbe-dnl-rrkjus_psl.1.0.0.UPF
Pd 106.4 Pd.pbe-n-rrkjus_psl.1.0.0.UPF
Sc 44.95 Sc.pbe-spn-rrkjus_psl.1.0.0.UPF

CELL_PARAMETERS {angstrom}
6.43013000 0.00000000 0.00000000
0.00000000 9.09357000 0.00000000
0.00000000 0.00000000 26.82020000

ATOMIC_POSITIONS {angstrom}
Sc 0.00000000 0.00000000 -3.410188429999998 0 0 0
Sc 3.21506500 2.27339250 -1.1366400799999994 0 0 0
Sc 3.21506500 6.82017750 -1.1366400799999994 0 0 0
Sc 0.00000000 4.54678500 -3.410188429999998 0 0 0
Sc 0.00000000 4.54678500 1.14173591
Sc 3.21506500 6.71132747 3.40348338
Sc 3.21506500 2.38224253 3.40348338
Sc 0.00000000 0.00000000 1.21227304
Ga 0.00000000 6.82017750 -1.1366400799999994 0 0 0
Ga 3.21506500 0.00000000 -3.410188429999998 0 0 0
Ga 0.00000000 2.27339250 -1.1366400799999994 0 0 0
Ga 3.21506500 4.54678500 -3.410188429999998 0 0 0
Ga 0.00000000 2.20373575 3.47026568
Ga 3.21506500 4.54678500 1.22407393
Ga 0.00000000 6.88983425 3.47026568
Ga 3.21506500 0.00000000 1.07441721
Pd 1.60753250 0.00000000 -1.1366400799999994 0 0 0
Pd 4.82259750 4.54678500 -1.1366400799999994 0 0 0
Pd 4.82259750 0.00000000 -1.1366400799999994 0 0 0
Pd 1.60753250 4.54678500 -1.1366400799999994 0 0 0
Pd 4.82259750 6.82017750 -3.410188429999998 0 0 0
Pd 1.60753250 2.27339250 -3.410188429999998 0 0 0
Pd 1.60753250 6.82017750 -3.410188429999998 0 0 0
Pd 4.82259750 2.27339250 -3.410188429999998 0 0 0
Pd 1.46516942 4.54678500 3.38363643
Pd 4.54134361 0.00000000 3.33857850
Pd 4.96496058 4.54678500 3.38363643
Pd 1.88878639 0.00000000 3.33857850
Pd 4.81417403 2.30085508 1.13717648
Pd 1.61595597 6.79280585 1.13717648
Pd 1.61595597 2.30076415 1.13717648
Pd 4.81417403 6.79280585 1.13717648
C 0.00000000 0.00000000 3.76555608
