&CONTROL
calculation = 'relax'
prefix = 'scf'
pseudo_dir = '/vol0403/data/hp230205/u10028/POT_HYBRID_KKJUS_GBRV'
outdir = './data'
tprnfor = .true.
nstep = 70
disk_io = 'non'
/
&SYSTEM
ibrav = 0
ecutwfc = 50.0
ecutrho = 400
occupations = 'smearing'
smearing = 'mp'
degauss = 0.01
assume_isolated = 'esm'
esm_bc = 'bc1'
input_dft = 'BEEF-VDW'
nosym = .true.
nspin = 1
ntyp = 6
nat = 18
/
&ELECTRONS
electron_maxstep = 200
mixing_beta = 0.1
conv_thr = 1e-06
/
&IONS
ion_dynamics = 'bfgs'
upscale = 1.0
/
&CELL
/

K_POINTS {automatic}
6 6 1 0 0 0

ATOMIC_SPECIES
C 12.01 C.pbe-n-rrkjus_psl.1.0.0.UPF
Mg 24.30 Mg.pbe-spnl-rrkjus_psl.1.0.0.UPF
O 15.99 O.pbe-n-rrkjus_psl.1.0.0.UPF
Pd 106.4 Pd.pbe-n-rrkjus_psl.1.0.0.UPF
Sn 118.7 Sn.pbe-dn-rrkjus_psl.1.0.0.UPF
Y 88.90 Y.pbe-spn-rrkjus_psl.1.0.0.UPF


CELL_PARAMETERS {angstrom}
7.00634000 0.00000000 0.00000000
-0.00000000 7.00634000 0.00000000
0.00000000 0.00000000 25.25480000

ATOMIC_POSITIONS {angstrom}
Y 0.00000000 3.50317000 2.62725684
Y 0.00000000 0.00000000 -0.8758364599999986 0 0 0
Y 3.50317000 3.50317000 -0.8758364599999986 0 0 0
Y 3.50317000 -0.00000000 2.62725684
Mg 0.00000000 0.00000000 2.62725684
Mg 0.00000000 3.50317000 -0.8758364599999986 0 0 0
Mg 3.50317000 0.00000000 -0.8758364599999986 0 0 0
Mg 3.50317000 3.50317000 2.62725684
Sn 1.75158500 1.75158500 0.87583646
Sn 1.75158500 5.25475500 -2.627256840000001 0 0 0
Sn 5.25475500 1.75158500 -2.627256840000001 0 0 0
Sn 5.25475500 5.25475500 0.87583646
Pd 5.25475500 1.75158500 0.87583646
Pd 5.25475500 5.25475500 -2.627256840000001 0 0 0
Pd 1.75158500 1.75158500 -2.627256840000001 0 0 0
Pd 1.75158500 5.25475500 0.87583646
C 0.00000000 0.00000000 4.52742800
O 0.00000000 0.00000000 5.67727904
