&CONTROL
calculation = 'relax'
prefix = 'scf'
pseudo_dir = '/vol0403/data/hp230205/u10028/POT_HYBRID_KKJUS_GBRV'
outdir = './data'
tprnfor = .true.
nstep = 70
disk_io = 'non'
/
&SYSTEM
ibrav = 0
ecutwfc = 50.0
ecutrho = 400
occupations = 'smearing'
smearing = 'mp'
degauss = 0.01
assume_isolated = 'esm'
esm_bc = 'bc1'
input_dft = 'BEEF-VDW'
nosym = .true.
nspin = 1
ntyp = 5
nat = 17
/
&ELECTRONS
electron_maxstep = 200
mixing_beta = 0.1
conv_thr = 1e-06
/
&IONS
ion_dynamics = 'bfgs'
upscale = 1.0
/
&CELL
/

K_POINTS {automatic}
11 7 2 0  0  0

ATOMIC_SPECIES
C 12.01 C.pbe-n-rrkjus_psl.1.0.0.UPF
Ga 69.72 Ga.pbe-dnl-rrkjus_psl.1.0.0.UPF
Pd 106.4 Pd.pbe-n-rrkjus_psl.1.0.0.UPF
Sn 118.7 Sn.pbe-dn-rrkjus_psl.1.0.0.UPF
Y 88.90 Y.pbe-spn-rrkjus_psl.1.0.0.UPF


CELL_PARAMETERS {angstrom}
6.14219000 0.00000000 0.00000000
-0.00000000 8.88338000 0.00000000
0.00000000 0.00000000 24.60430000

ATOMIC_POSITIONS {angstrom}
Y 1.48616429 2.22084500 -0.7674081199999989 0 0 0
Y 4.24099793 2.22564203 2.30837543
Y 1.48616429 6.66253500 -0.7674081199999989 0 0 0
Y 4.24093651 6.65764914 2.30862147
Ga 0.00000000 0.00000000 -2.3022243499999995 0 0 0
Ga 2.50503077 -0.00000000 1.14311578
Ga 0.00000000 4.44169000 -2.3022243499999995 0 0 0
Ga 2.46129838 4.44151233 1.13401219
Sn 3.07109500 0.00000000 -2.3022243499999995 0 0 0
Sn 5.73662119 -0.00000000 0.65496647
Sn 3.07109500 4.44169000 -2.3022243499999995 0 0 0
Sn 5.61746271 4.44169000 0.60477369
Pd 4.55725929 2.22084500 -0.7674081199999989 0 0 0
Pd 1.24588182 2.27059193 1.96219292
Pd 4.55725929 6.66253500 -0.7674081199999989 0 0 0
Pd 1.24594324 6.61269924 1.96219292
C 4.18878931 8.88329117 2.28672364
