&CONTROL
calculation = 'relax'
prefix = 'scf'
pseudo_dir = '/vol0004/mdt0/data/hp150275/u10028/POT_KKJUS'
outdir = './data'
tprnfor = .true.
nstep = 50
disk_io = 'non'
/
&SYSTEM
ibrav = 0
ecutwfc = 50.0
ecutrho = 400
occupations = 'smearing'
smearing = 'mp'
degauss = 0.01
assume_isolated = 'esm'
esm_bc = 'bc1'
input_dft = 'BEEF-VDW'
nosym = .true.
nspin = 1
ntyp = 5
nat = 34
/
&ELECTRONS
electron_maxstep = 200
mixing_beta = 0.1
conv_thr = 1e-06
/
&IONS
ion_dynamics = 'bfgs'
upscale = 1.0
/
&CELL
/

K_POINTS {automatic}
9 6 2 0  0  0

ATOMIC_SPECIES
C 12.01 C.pbe-n-rrkjus_psl.1.0.0.UPF
Ga 69.72 Ga.pbe-dnl-rrkjus_psl.1.0.0.UPF
Li 6.941 Li.pbe-sl-rrkjus_psl.1.0.0.UPF
O 15.99 O.pbe-n-rrkjus_psl.1.0.0.UPF
Ru 101.0 Ru.pbe-spn-rrkjus_psl.1.0.0.UPF

CELL_PARAMETERS {angstrom}
6.09317000 0.00000000 0.00000000
0.00000000 8.61704000 0.00000000
0.00000000 0.00000000 26.46280000

ATOMIC_POSITIONS {angstrom}
Li 0.00000000 0.00000000 -3.23137251 0 0 0
Li 3.04658500 2.15426000 -1.07703596 0 0 0
Li 3.04658500 6.46278000 -1.07703596 0 0 0
Li 0.00000000 4.30852000 -3.23137251 0 0 0
Li 6.08975782 4.30852000 1.02411036
Li 3.04305096 6.46398639 3.38988468
Li 3.04305096 2.15305361 3.38988468
Li 6.08427397 0.00000000 1.01934706
Ga 1.52329250 0.00000000 -1.07703596 0 0 0
Ga 4.56987750 4.30852000 -1.07703596 0 0 0
Ga 4.56987750 0.00000000 -1.07703596 0 0 0
Ga 1.52329250 4.30852000 -1.07703596 0 0 0
Ga 4.56987750 6.46278000 -3.23137251 0 0 0
Ga 1.52329250 2.15426000 -3.23137251 0 0 0
Ga 1.52329250 6.46278000 -3.23137251 0 0 0
Ga 4.56987750 2.15426000 -3.23137251 0 0 0
Ga 1.38138257 4.30852000 3.28535662
Ga 4.70222115 0.00000000 3.28244571
Ga 4.68662264 4.30852000 3.28456274
Ga 1.38004207 0.00000000 3.25280738
Ga 4.55927538 2.15675894 1.05295481
Ga 1.52231759 6.46381404 1.05480721
Ga 1.52225666 2.15322596 1.05480721
Ga 4.55921445 6.46028106 1.05321944
Ru 0.00000000 6.46278000 -1.07703596 0 0 0
Ru 3.04658500 0.00000000 -3.23137251 0 0 0
Ru 0.00000000 2.15426000 -1.07703596 0 0 0
Ru 3.04658500 4.30852000 -3.23137251 0 0 0
Ru 6.08342093 2.15874086 3.06809703
Ru 3.03640941 4.30852000 1.14001742
Ru 6.08342093 6.45829914 3.06809703
Ru 3.04542730 0.00000000 1.14610387
C 2.39010686 0.00000000 6.75066028
O 1.44493433 0.00000000 7.37835790
