&CONTROL
calculation = 'relax'
prefix = 'scf'
pseudo_dir = '/vol0004/mdt0/data/hp150275/u10028/POT_KKJUS'
outdir = './data'
tprnfor = .true.
nstep = 50
disk_io = 'non'
/
&SYSTEM
ibrav = 0
ecutwfc = 50.0
ecutrho = 400
occupations = 'smearing'
smearing = 'mp'
degauss = 0.01
assume_isolated = 'esm'
esm_bc = 'bc1'
input_dft = 'BEEF-VDW'
nosym = .true.
nspin = 1
ntyp = 4
nat = 17
/
&ELECTRONS
electron_maxstep = 200
mixing_beta = 0.1
conv_thr = 1e-06
/
&IONS
ion_dynamics = 'bfgs'
upscale = 1.0
/
&CELL
/

K_POINTS {automatic}
9 9 2 0  0  0

ATOMIC_SPECIES
C 12.01 C.pbe-n-rrkjus_psl.1.0.0.UPF
Pt 195.0 Pt.pbe-n-rrkjus_psl.1.0.0.UPF
Sc 44.95 Sc.pbe-spn-rrkjus_psl.1.0.0.UPF
Sn 118.7 Sn.pbe-dn-rrkjus_psl.1.0.0.UPF

CELL_PARAMETERS {angstrom}
6.65597000 0.00000000 0.00000000
-0.00000000 6.65597000 0.00000000
0.00000000 0.00000000 24.99200000

ATOMIC_POSITIONS {angstrom}
Sc 0.00000000 0.00000000 -2.4959510400000013 0 0 0
Sc 3.32798500 3.32798500 -2.4959510400000013 0 0 0
Sc 3.32798500 -0.00000000 0.83198368
Sc 0.00000000 3.32798500 0.83198368
Sn 0.00000000 0.00000000 0.83198368
Sn 3.32798500 0.00000000 -2.4959510400000013 0 0 0
Sn 0.00000000 3.32798500 -2.4959510400000013 0 0 0
Sn 3.32798500 3.32798500 0.83198368
Pt 1.66399250 1.66399250 -0.8319836800000004 0 0 0
Pt 4.99197750 4.99197750 2.49595104
Pt 4.99197750 1.66399250 -0.8319836800000004 0 0 0
Pt 1.66399250 4.99197750 2.49595104
Pt 4.99197750 4.99197750 -0.8319836800000004 0 0 0
Pt 1.66399250 1.66399250 2.49595104
Pt 1.66399250 4.99197750 -0.8319836800000004 0 0 0
Pt 4.99197750 1.66399250 2.49595104
C 0.00000000 0.00000000 3.29594496
