&CONTROL
calculation = 'relax'
prefix = 'scf'
pseudo_dir = '/vol0403/data/hp230205/u10028/POT_HYBRID_KKJUS_GBRV'
outdir = './data'
tprnfor = .true.
nstep = 50
disk_io = 'non'
/
&SYSTEM
ibrav = 0
ecutwfc = 50.0
ecutrho = 400
occupations = 'smearing'
smearing = 'mp'
degauss = 0.01
assume_isolated = 'esm'
esm_bc = 'bc1'
input_dft = 'BEEF-VDW'
nosym = .true.
nspin = 1
ntyp = 6
nat = 18
/
&ELECTRONS
electron_maxstep = 200
mixing_beta = 0.1
conv_thr = 1e-06
/
&IONS
ion_dynamics = 'bfgs'
upscale = 1.0
/
&CELL
/

K_POINTS {automatic}
11 7 2 0  0  0

ATOMIC_SPECIES
C 12.01 C.pbe-n-rrkjus_psl.1.0.0.UPF
Ga 69.72 Ga.pbe-dnl-rrkjus_psl.1.0.0.UPF
O 15.99 O.pbe-n-rrkjus_psl.1.0.0.UPF
Pd 106.4 Pd.pbe-n-rrkjus_psl.1.0.0.UPF
Sc 44.95 Sc.pbe-spn-rrkjus_psl.1.0.0.UPF
Y 88.90 Y.pbe-spn-rrkjus_psl.1.0.0.UPF


CELL_PARAMETERS {angstrom}
6.06401000 0.00000000 0.00000000
0.00000000 9.48206000 0.00000000
0.00000000 0.00000000 24.30750000

ATOMIC_POSITIONS {angstrom}
Y 3.03200500 0.00000000 -2.153887570000002 0 0 0
Y 5.05192673 0.01384381 0.78343073
Y 3.03200500 4.74103000 -2.153887570000002 0 0 0
Y 5.05186609 4.72718619 0.78343073
Sc 1.02960826 2.37051500 -0.7180435500000009 0 0 0
Sc 2.99646990 2.37051500 1.90740953
Sc 1.02960826 7.11154500 -0.7180435500000009 0 0 0
Sc 3.03509765 7.11154500 1.88480355
Ga 0.00000000 0.00000000 -2.153887570000002 0 0 0
Ga 2.00451915 9.47305204 0.82864268
Ga 0.00000000 4.74103000 -2.153887570000002 0 0 0
Ga 2.00445851 4.75003796 0.82864268
Pd 4.06161326 2.37051500 -0.7180435500000009 0 0 0
Pd 0.16300059 2.37051500 1.77712132
Pd 4.06161326 7.11154500 -0.7180435500000009 0 0 0
Pd 0.16063562 7.11154500 1.75573073
C 3.09161422 2.37051500 4.23752648
O 3.11386913 2.37051500 5.38556970
