&CONTROL
calculation = 'relax'
prefix = 'scf'
pseudo_dir = '/vol0004/mdt0/data/hp150275/u10028/POT_KKJUS'
outdir = './data'
tprnfor = .true.
nstep = 50
disk_io = 'non'
/
&SYSTEM
ibrav = 0
ecutwfc = 50.0
ecutrho = 400
occupations = 'smearing'
smearing = 'mp'
degauss = 0.01
assume_isolated = 'esm'
esm_bc = 'bc1'
input_dft = 'BEEF-VDW'
nosym = .true.
nspin = 1
ntyp = 4
nat = 33
/
&ELECTRONS
electron_maxstep = 200
mixing_beta = 0.1
conv_thr = 1e-06
/
&IONS
ion_dynamics = 'bfgs'
upscale = 1.0
/
&CELL
/

K_POINTS {automatic}
8 6 1 0 0 0

ATOMIC_SPECIES
C 12.01 C.pbe-n-rrkjus_psl.1.0.0.UPF
Cu 63.54 Cu.pbe-dn-rrkjus_psl.1.0.0.UPF
Ga 69.72 Ga.pbe-dnl-rrkjus_psl.1.0.0.UPF
Sc 44.95 Sc.pbe-spn-rrkjus_psl.1.0.0.UPF

CELL_PARAMETERS {angstrom}
6.23499000 0.00000000 0.00000000
0.00000000 8.81761000 0.00000000
0.00000000 0.00000000 26.61320000

ATOMIC_POSITIONS {angstrom}
Sc 0.00000000 0.00000000 -3.306690100000001 0 0 0
Sc 3.11749500 2.20440250 -1.1023187399999976 0 0 0
Sc 3.11749500 6.61320750 -1.1023187399999976 0 0 0
Sc 0.00000000 4.40880500 -3.306690100000001 0 0 0
Sc 0.00692084 4.48869255 1.19306976
Sc 2.67169321 6.61329568 3.40090083
Sc 2.88829677 2.20422615 3.12492194
Sc 0.00685849 8.73807516 1.19333589
Ga 0.00000000 6.61320750 -1.1023187399999976 0 0 0
Ga 3.11749500 0.00000000 -3.306690100000001 0 0 0
Ga 0.00000000 2.20440250 -1.1023187399999976 0 0 0
Ga 3.11749500 4.40880500 -3.306690100000001 0 0 0
Ga 5.36888754 2.20449068 4.01167377
Ga 3.10315452 4.37723796 1.04110838
Ga 6.13504311 6.61320750 3.30110133
Ga 3.10359097 0.03165522 1.04137452
Cu 1.55874750 0.00000000 -1.1023187399999976 0 0 0
Cu 4.67624250 4.40880500 -1.1023187399999976 0 0 0
Cu 4.67624250 0.00000000 -1.1023187399999976 0 0 0
Cu 1.55874750 4.40880500 -1.1023187399999976 0 0 0
Cu 4.67624250 6.61320750 -3.306690100000001 0 0 0
Cu 1.55874750 2.20440250 -3.306690100000001 0 0 0
Cu 1.55874750 6.61320750 -3.306690100000001 0 0 0
Cu 4.67624250 2.20440250 -3.306690100000001 0 0 0
Cu 0.94796788 4.20538274 3.79530845
Cu 4.49542779 8.73163830 3.25931860
Cu 4.49511604 4.49477670 3.25878634
Cu 0.94809258 0.20351044 3.79584072
Cu 4.77986803 2.20466703 1.12201251
Cu 1.58755315 6.61356020 0.99639821
Cu 1.41409573 2.20449068 0.95434935
Cu 4.41050723 6.61347203 1.35274896
C 1.04286443 2.20431432 4.04174668
