&CONTROL
calculation = 'relax'
prefix = 'scf'
pseudo_dir = '/vol0403/data/hp230205/u10028/POT_HYBRID_KKJUS_GBRV'
outdir = './data'
tprnfor = .true.
nstep = 50
disk_io = 'non'
/
&SYSTEM
ibrav = 0
ecutwfc = 50.0
ecutrho = 400
occupations = 'smearing'
smearing = 'mp'
degauss = 0.01
assume_isolated = 'esm'
esm_bc = 'bc1'
input_dft = 'BEEF-VDW'
nosym = .true.
nspin = 1
ntyp = 5
nat = 17
/
&ELECTRONS
electron_maxstep = 200
mixing_beta = 0.1
conv_thr = 1e-06
/
&IONS
ion_dynamics = 'bfgs'
upscale = 1.0
/
&CELL
/

K_POINTS {automatic}
6 6 1 0 0 0

ATOMIC_SPECIES
C 12.01 C.pbe-n-rrkjus_psl.1.0.0.UPF
In 114.8 In.pbe-dn-rrkjus_psl.1.0.0.UPF
Pd 106.4 Pd.pbe-n-rrkjus_psl.1.0.0.UPF
Sn 118.7 Sn.pbe-dn-rrkjus_psl.1.0.0.UPF
Y 88.90 Y.pbe-spn-rrkjus_psl.1.0.0.UPF


CELL_PARAMETERS {angstrom}
6.29351000 0.00000000 0.00000000
0.00000000 9.16402000 0.00000000
0.00000000 0.00000000 24.71690000

ATOMIC_POSITIONS {angstrom}
Y 4.66179166 2.29100500 -0.786244589999999 0 0 0
Y 1.36757972 1.83995194 2.36713751
Y 4.66179166 6.87301500 -0.786244589999999 0 0 0
Y 1.36757972 7.32415970 2.36713751
In 0.00000000 0.00000000 -2.358486599999999 0 0 0
In 3.05889760 0.00000000 0.46195886
In 0.00000000 4.58201000 -2.358486599999999 0 0 0
In 3.26186330 4.58201000 1.37796717
Sn 1.51503666 2.29100500 -0.786244589999999 0 0 0
Sn 4.51055862 1.63651069 2.77051732
Sn 1.51503666 6.87301500 -0.786244589999999 0 0 0
Sn 4.51055862 7.52750931 2.77051732
Pd 3.14675500 0.00000000 -2.358486599999999 0 0 0
Pd 5.94711521 0.00000000 0.76993143
Pd 3.14675500 4.58201000 -2.358486599999999 0 0 0
Pd 6.18412880 4.58201000 0.57615094
C 2.77052897 0.00000000 2.83873596
