&CONTROL
calculation = 'relax'
prefix = 'scf'
pseudo_dir = '/vol0004/mdt0/data/hp150275/u10028/POT_HYBRID_KKJUS_GBRV'
outdir = './data'
tprnfor = .true.
nstep = 50
disk_io = 'non'
/
&SYSTEM
ibrav = 0
ecutwfc = 50.0
ecutrho = 400
occupations = 'smearing'
smearing = 'mp'
degauss = 0.01
assume_isolated = 'esm'
esm_bc = 'bc1'
input_dft = 'BEEF-VDW'
nosym = .true.
nspin = 2
ntyp = 3
nat = 33
starting_magnetization(1) = 0.0
starting_magnetization(2) = 0.001
starting_magnetization(3) = 0.0
/
&ELECTRONS
electron_maxstep = 300
mixing_beta = 0.1
conv_thr = 1e-06
/
&IONS
ion_dynamics = 'bfgs'
upscale = 1.0
/
&CELL
/

K_POINTS {automatic}
9 6 2 0  0  0

ATOMIC_SPECIES
C 12.01 C.pbe-n-rrkjus_psl.1.0.0.UPF
Ni 58.69 ni_pbe_v1.4.uspp.F.UPF
Sb 121.7 Sb.pbe-n-rrkjus_psl.1.0.0.UPF

CELL_PARAMETERS {angstrom}
5.96127000 0.00000000 0.00000000
0.00000000 8.43051000 0.00000000
0.00000000 0.00000000 26.32290000

ATOMIC_POSITIONS {angstrom}
Ni 1.49031750 0.00000000 -1.053705690000001 0 0 0
Ni 4.47095250 4.21525500 -1.053705690000001 0 0 0
Ni 4.47095250 0.00000000 -1.053705690000001 0 0 0
Ni 1.49031750 4.21525500 -1.053705690000001 0 0 0
Ni 4.47095250 6.32288250 -3.1613802900000003 0 0 0
Ni 1.49031750 2.10762750 -3.1613802900000003 0 0 0
Ni 1.49031750 6.32288250 -3.1613802900000003 0 0 0
Ni 4.47095250 2.10762750 -3.1613802900000003 0 0 0
Ni 0.00000000 6.32288250 -1.053705690000001 0 0 0
Ni 2.98063500 0.00000000 -3.1613802900000003 0 0 0
Ni 0.00000000 2.10762750 -1.053705690000001 0 0 0
Ni 2.98063500 4.21525500 -3.1613802900000003 0 0 0
Ni 1.72924520 3.91546606 3.03160839
Ni 4.31512490 8.41955034 3.04898151
Ni 4.37616831 4.33066868 3.01818371
Ni 1.53013878 0.19718963 3.10610220
Ni 4.30415617 1.89475712 1.20006101
Ni 1.56113739 6.03734113 1.05949673
Ni 1.61693487 1.92316794 1.21532829
Ni 4.34743499 6.15241759 1.15873406
Ni 5.85664971 2.16503927 3.14216457
Ni 3.00561272 4.03602236 0.94841409
Ni 0.09174395 6.34640362 3.01923663
Ni 2.91857818 8.18686826 0.95841679
Sb 0.00000000 0.00000000 -3.1613802900000003 0 0 0
Sb 2.98063500 2.10762750 -1.053705690000001 0 0 0
Sb 2.98063500 6.32288250 -1.053705690000001 0 0 0
Sb 0.00000000 4.21525500 -3.1613802900000003 0 0 0
Sb 5.95632215 4.01772815 1.07713307
Sb 2.77306358 6.29320710 3.45619677
Sb 3.52519701 2.32041357 4.28036677
Sb 5.95977968 8.21713379 1.04686173
C 2.94194636 1.08391067 2.28772324
