&CONTROL
calculation = 'relax'
prefix = 'scf'
pseudo_dir = '/vol0004/mdt0/data/hp150275/u10028/POT_KKJUS'
outdir = './data'
tprnfor = .true.
nstep = 50
disk_io = 'non'
/
&SYSTEM
ibrav = 0
ecutwfc = 50.0
ecutrho = 400
occupations = 'smearing'
smearing = 'mp'
degauss = 0.01
assume_isolated = 'esm'
esm_bc = 'bc1'
input_dft = 'BEEF-VDW'
nosym = .true.
nspin = 1
ntyp = 3
nat = 17
/
&ELECTRONS
electron_maxstep = 200
mixing_beta = 0.1
conv_thr = 1e-06
/
&IONS
ion_dynamics = 'bfgs'
upscale = 1.0
/
&CELL
/

K_POINTS {automatic}
9 9 3 0  0  0

ATOMIC_SPECIES
C 12.01 C.pbe-n-rrkjus_psl.1.0.0.UPF
K 39.09 K.pbe-spn-rrkjus_psl.1.0.0.UPF
Sb 121.7 Sb.pbe-n-rrkjus_psl.1.0.0.UPF

CELL_PARAMETERS {angstrom}
8.65338000 0.00000000 0.00000000
0.00000000 8.65338000 0.00000000
0.00000000 0.00000000 26.49000000

ATOMIC_POSITIONS {angstrom}
K 2.16299886 2.16247966 0.81509730
K 6.49003500 6.49003500 -3.2450249999999983 0 0 0
K 6.48908313 2.16395074 1.54145310
K 2.16334500 6.49003500 -3.2450249999999983 0 0 0
K 6.49254448 6.49228488 1.46171820
K 2.16334500 2.16334500 -3.2450249999999983 0 0 0
K 2.16620062 6.48942926 1.54012860
K 6.49003500 2.16334500 -3.2450249999999983 0 0 0
K 0.00000000 0.00000000 -1.081586699999999 0 0 0
K 4.14955531 0.17748082 4.80978930
K 0.17523095 4.14886304 4.80925950
K 4.32669000 4.32669000 -1.081586699999999 0 0 0
Sb 0.71918241 0.71900934 3.70330200
Sb 3.60577691 3.60707492 3.70383180
Sb 4.32669000 0.00000000 -1.081586699999999 0 0 0
Sb 0.00000000 4.32669000 -1.081586699999999 0 0 0
C 2.16222006 2.16334500 3.69297090
