&CONTROL
calculation = 'relax'
prefix = 'scf'
pseudo_dir = '/vol0004/mdt0/data/hp150275/u10028/POT_KKJUS'
outdir = './data'
tprnfor = .true.
nstep = 50
disk_io = 'non'
/
&SYSTEM
ibrav = 0
ecutwfc = 50.0
ecutrho = 400
occupations = 'smearing'
smearing = 'mp'
degauss = 0.01
assume_isolated = 'esm'
esm_bc = 'bc1'
input_dft = 'BEEF-VDW'
nosym = .true.
nspin = 1
ntyp = 4
nat = 33
/
&ELECTRONS
electron_maxstep = 200
mixing_beta = 0.1
conv_thr = 1e-06
/
&IONS
ion_dynamics = 'bfgs'
upscale = 1.0
/
&CELL
/

K_POINTS {automatic}
9 6 2 0  0  0

ATOMIC_SPECIES
C 12.01 C.pbe-n-rrkjus_psl.1.0.0.UPF
In 114.8 In.pbe-dn-rrkjus_psl.1.0.0.UPF
Li 6.941 Li.pbe-sl-rrkjus_psl.1.0.0.UPF
Pt 195.0 Pt.pbe-n-rrkjus_psl.1.0.0.UPF

CELL_PARAMETERS {angstrom}
6.69031000 0.00000000 0.00000000
0.00000000 9.46152000 0.00000000
0.00000000 0.00000000 27.09610000

ATOMIC_POSITIONS {angstrom}
Li 0.00000000 0.00000000 -3.547963329999998 0 0 0
Li 3.34515500 2.36538000 -1.1827447599999985 0 0 0
Li 3.34515500 7.09614000 -1.1827447599999985 0 0 0
Li 0.00000000 4.73076000 -3.547963329999998 0 0 0
Li 0.00000000 4.73076000 1.38081726
Li 3.34515500 7.33665184 4.76701687
Li 3.34515500 2.12477355 4.76701687
Li 0.00000000 0.00000000 1.20198300
In 1.67257750 0.00000000 -1.1827447599999985 0 0 0
In 5.01773250 4.73076000 -1.1827447599999985 0 0 0
In 5.01773250 0.00000000 -1.1827447599999985 0 0 0
In 1.67257750 4.73076000 -1.1827447599999985 0 0 0
In 5.01773250 7.09614000 -3.547963329999998 0 0 0
In 1.67257750 2.36538000 -3.547963329999998 0 0 0
In 1.67257750 7.09614000 -3.547963329999998 0 0 0
In 5.01773250 2.36538000 -3.547963329999998 0 0 0
In 1.70201486 4.73076000 3.86878116
In 5.15561979 0.00000000 3.63575470
In 4.98829514 4.73076000 3.86878116
In 1.53469021 0.00000000 3.63575470
In 4.93189582 2.40142839 1.24723348
In 1.75841418 7.06009161 1.24723348
In 1.75841418 2.40142839 1.24723348
In 4.93189582 7.06009161 1.24723348
Pt 0.00000000 7.09614000 -1.1827447599999985 0 0 0
Pt 3.34515500 0.00000000 -3.547963329999998 0 0 0
Pt 0.00000000 2.36538000 -1.1827447599999985 0 0 0
Pt 3.34515500 4.73076000 -3.547963329999998 0 0 0
Pt 0.00000000 2.44977676 3.31818841
Pt 3.34515500 4.73076000 1.04645138
Pt 0.00000000 7.01174324 3.31818841
Pt 3.34515500 0.00000000 1.12042373
C 3.34515500 0.00000000 4.76484919
