&CONTROL
calculation = 'relax'
prefix = 'scf'
pseudo_dir = '/vol0004/mdt0/data/hp150275/u10028/POT_HYBRID_KKJUS_GBRV'
outdir = './data'
tprnfor = .true.
nstep = 50
disk_io = 'non'
/
&SYSTEM
ibrav = 0
ecutwfc = 50.0
ecutrho = 400
occupations = 'smearing'
smearing = 'mp'
degauss = 0.01
assume_isolated = 'esm'
esm_bc = 'bc1'
input_dft = 'BEEF-VDW'
nosym = .true.
nspin = 2
ntyp = 4
nat = 34
starting_magnetization(1) = 0.0
starting_magnetization(2) = 0.1
starting_magnetization(3) = 0.0
starting_magnetization(4) = 0.0
/
&ELECTRONS
electron_maxstep = 200
mixing_beta = 0.1
conv_thr = 1e-06
/
&IONS
ion_dynamics = 'bfgs'
upscale = 1.0
/
&CELL
/

K_POINTS {automatic}
9 6 2 0  0  0

ATOMIC_SPECIES
C 12.01 C.pbe-n-rrkjus_psl.1.0.0.UPF
Co 58.93 co_pbe_v1.2.uspp.F.UPF
Hf 178.4 Hf.pbe-spn-rrkjus_psl.1.0.0.UPF
O 15.99 O.pbe-n-rrkjus_psl.1.0.0.UPF

CELL_PARAMETERS {angstrom}
6.31043000 0.00000000 0.00000000
0.00000000 8.92430000 0.00000000
0.00000000 0.00000000 26.69320000

ATOMIC_POSITIONS {angstrom}
Hf 0.00000000 0.00000000 23.34667352
Hf 0.00000000 2.23107500 25.57769117
Hf 6.29844018 0.00000000 1.13019009
Hf 6.30083815 2.23776823 3.36601252
Hf 0.00000000 4.46215000 23.34667352
Hf 0.00000000 6.69322500 25.57769117
Hf 6.30834756 4.46215000 1.14647294
Hf 6.30083815 6.68653178 3.36601252
Hf 3.15521500 0.00000000 23.34667352
Hf 3.15521500 2.23107500 25.57769117
Hf 3.16726792 0.00000000 1.13019009
Hf 3.16493306 2.23776823 3.36601252
Hf 3.15521500 4.46215000 23.34667352
Hf 3.15521500 6.69322500 25.57769117
Hf 3.15742365 4.46215000 1.14673987
Hf 3.16486996 6.68653178 3.36601252
Co 1.57760750 2.23107500 23.34667352
Co 1.57760750 0.00000000 25.57769117
Co 1.57767060 2.22250767 1.13179168
Co 1.57760750 0.00000000 3.39243879
Co 1.57760750 6.69322500 23.34667352
Co 1.57760750 4.46215000 25.57769117
Co 1.57767060 6.70179233 1.13179168
Co 1.57767060 4.46215000 3.29314008
Co 4.73282250 2.23107500 23.34667352
Co 4.73282250 0.00000000 25.57769117
Co 4.73282250 2.23125349 1.12778770
Co 4.73282250 0.00000000 3.28219587
Co 4.73282250 6.69322500 23.34667352
Co 4.73282250 4.46215000 25.57769117
Co 4.73282250 6.69304651 1.12778770
Co 4.73282250 4.46215000 3.28913610
C 1.57647162 0.00000000 5.26309824
O 1.57754440 0.00000000 6.31614498
