&CONTROL
calculation = 'relax'
prefix = 'scf'
pseudo_dir = '/vol0004/mdt0/data/hp150275/u10028/POT_HYBRID_KKJUS_GBRV'
outdir = './data'
tprnfor = .true.
nstep = 50
disk_io = 'non'
/
&SYSTEM
ibrav = 0
ecutwfc = 50.0
ecutrho = 400
occupations = 'smearing'
smearing = 'mp'
degauss = 0.01
assume_isolated = 'esm'
esm_bc = 'bc1'
input_dft = 'BEEF-VDW'
nosym = .true.
nspin = 2
ntyp = 4
nat = 33
starting_magnetization(1) = 0.0
starting_magnetization(2) = 0.1
starting_magnetization(3) = 0.1
starting_magnetization(4) = 0.0
/
&ELECTRONS
electron_maxstep = 200
mixing_beta = 0.1
conv_thr = 1e-06
/
&IONS
ion_dynamics = 'bfgs'
upscale = 1.0
/
&CELL
/

K_POINTS {automatic}
9 6 2 0  0  0

ATOMIC_SPECIES
C 12.01 C.pbe-n-rrkjus_psl.1.0.0.UPF
Fe 55.84 fe_pbe_v1.5.uspp.F.UPF
Mn 54.93 mn_pbe_v1.5.uspp.F.UPF
Si 28.08 Si.pbe-nl-rrkjus_psl.1.0.0.UPF

CELL_PARAMETERS {angstrom}
5.59397000 0.00000000 0.00000000
0.00000000 7.91107000 0.00000000
0.00000000 0.00000000 25.93330000

ATOMIC_POSITIONS {angstrom}
Mn 0.00000000 0.00000000 22.96653048
Mn 2.79698500 1.97776750 24.94446327
Mn 2.79698500 5.93330250 24.94446327
Mn 0.00000000 3.95553500 22.96653048
Mn 0.00000000 3.95553500 0.98883673
Mn 2.79698500 5.93330250 2.96676952
Mn 2.79698500 1.97776750 2.96676952
Mn 0.00000000 0.00000000 0.98883673
Fe 1.39849250 0.00000000 24.94446327
Fe 4.19547750 3.95553500 24.94446327
Fe 4.19547750 0.00000000 24.94446327
Fe 1.39849250 3.95553500 24.94446327
Fe 4.19547750 5.93330250 22.96653048
Fe 1.39849250 1.97776750 22.96653048
Fe 1.39849250 5.93330250 22.96653048
Fe 4.19547750 1.97776750 22.96653048
Fe 1.39849250 3.95553500 2.96676952
Fe 4.19547750 0.00000000 2.96676952
Fe 4.19547750 3.95553500 2.96676952
Fe 1.39849250 0.00000000 2.96676952
Fe 4.19547750 1.97776750 0.98883673
Fe 1.39849250 5.93330250 0.98883673
Fe 1.39849250 1.97776750 0.98883673
Fe 4.19547750 5.93330250 0.98883673
Si 0.00000000 5.93330250 24.94446327
Si 2.79698500 0.00000000 22.96653048
Si 0.00000000 1.97776750 24.94446327
Si 2.79698500 3.95553500 22.96653048
Si 0.00000000 1.97776750 2.96676952
Si 2.79698500 3.95553500 0.98883673
Si 0.00000000 5.93330250 2.96676952
Si 2.79698500 0.00000000 0.98883673
C 1.39849250 1.97776750 3.76655249
