&CONTROL
calculation = 'relax'
prefix = 'scf'
pseudo_dir = '/vol0403/data/hp230205/u10028/POT_HYBRID_KKJUS_GBRV'
outdir = './data'
tprnfor = .true.
nstep = 50
disk_io = 'non'
/
&SYSTEM
ibrav = 0
ecutwfc = 50.0
ecutrho = 400
occupations = 'smearing'
smearing = 'mp'
degauss = 0.01
assume_isolated = 'esm'
esm_bc = 'bc1'
input_dft = 'BEEF-VDW'
nosym = .true.
nspin = 1
ntyp = 6
nat = 34
/
&ELECTRONS
electron_maxstep = 200
mixing_beta = 0.1
conv_thr = 1e-06
/
&IONS
ion_dynamics = 'bfgs'
upscale = 1.0
/
&CELL
/

K_POINTS {automatic}
7 7 2 0  0  0

ATOMIC_SPECIES
C 12.01 C.pbe-n-rrkjus_psl.1.0.0.UPF
Ge 72.64 Ge.pbe-dn-rrkjus_psl.1.0.0.UPF
In 114.8 In.pbe-dn-rrkjus_psl.1.0.0.UPF
Li 6.941 Li.pbe-sl-rrkjus_psl.1.0.0.UPF
O 15.99 O.pbe-n-rrkjus_psl.1.0.0.UPF
Sc 44.95 Sc.pbe-spn-rrkjus_psl.1.0.0.UPF


CELL_PARAMETERS {angstrom}
8.12626000 0.00000000 0.00000000
0.00000000 8.22048000 0.00000000
0.00000000 0.00000000 26.73030000

ATOMIC_POSITIONS {angstrom}
Li 2.08487327 0.00000000 1.16597569
Li 2.03156500 0.00000000 -3.3650774699999992 0 0 0
Li 2.01352470 4.11024000 1.27503531
Li 2.03156500 4.11024000 -3.3650774699999992 0 0 0
Li 6.04130547 0.00008220 1.16624299
Li 6.09469500 0.00000000 -3.3650774699999992 0 0 0
Li 6.11273530 4.11024000 1.27476801
Li 6.09469500 4.11024000 -3.3650774699999992 0 0 0
Sc 2.00296056 2.04714613 3.57865256
Sc 2.03156500 2.05512000 -1.1216033900000006 0 0 0
Sc 2.00296056 6.17316946 3.57865256
Sc 2.03156500 6.16536000 -1.1216033900000006 0 0 0
Sc 6.12297438 2.04739275 3.57865256
Sc 6.09469500 2.05512000 -1.1216033900000006 0 0 0
Sc 6.12297438 6.17284064 3.57865256
Sc 6.09469500 6.16536000 -1.1216033900000006 0 0 0
In 0.00000000 2.00703019 1.26755083
In 0.00000000 2.05512000 -3.3650774699999992 0 0 0
In 8.12617874 6.21344981 1.26728352
In 0.00000000 6.16536000 -3.3650774699999992 0 0 0
In 4.06304874 2.10066146 1.27851025
In 4.06313000 2.05512000 -3.3650774699999992 0 0 0
In 4.06313000 6.11990075 1.27877755
In 4.06313000 6.16536000 -3.3650774699999992 0 0 0
Ge 8.12552864 8.22015118 4.32148760
Ge 0.00000000 0.00000000 -1.1216033900000006 0 0 0
Ge 0.00032505 4.10991118 3.43912040
Ge 0.00000000 4.11024000 -1.1216033900000006 0 0 0
Ge 4.06313000 8.22006898 3.36748319
Ge 4.06313000 0.00000000 -1.1216033900000006 0 0 0
Ge 4.06247990 4.11040441 3.51770748
Ge 4.06313000 4.11024000 -1.1216033900000006 0 0 0
C 8.12585369 8.21941134 6.30915271
O 0.00048758 8.21941134 7.47138615
