&CONTROL
calculation = 'relax'
prefix = 'scf'
pseudo_dir = '/vol0004/mdt0/data/hp150275/u10028/POT_KKJUS'
outdir = './data'
tprnfor = .true.
nstep = 50
disk_io = 'non'
/
&SYSTEM
ibrav = 0
ecutwfc = 50.0
ecutrho = 400
occupations = 'smearing'
smearing = 'mp'
degauss = 0.01
assume_isolated = 'esm'
esm_bc = 'bc1'
input_dft = 'BEEF-VDW'
nosym = .true.
nspin = 1
ntyp = 5
nat = 18
/
&ELECTRONS
electron_maxstep = 200
mixing_beta = 0.1
conv_thr = 1e-06
/
&IONS
ion_dynamics = 'bfgs'
upscale = 1.0
/
&CELL
/

K_POINTS {automatic}
8 8 1 0 0 0

ATOMIC_SPECIES
Ag 107.8 Ag.pbe-n-rrkjus_psl.1.0.0.UPF
C 12.01 C.pbe-n-rrkjus_psl.1.0.0.UPF
Li 6.941 Li.pbe-sl-rrkjus_psl.1.0.0.UPF
O 15.99 O.pbe-n-rrkjus_psl.1.0.0.UPF
Sn 118.7 Sn.pbe-dn-rrkjus_psl.1.0.0.UPF

CELL_PARAMETERS {angstrom}
6.65960000 0.00000000 0.00000000
0.00000000 6.65960000 0.00000000
0.00000000 0.00000000 24.99470000

ATOMIC_POSITIONS {angstrom}
Li 0.04182229 0.04175569 0.77008671
Li 3.32980000 0.00000000 -2.4974704200000026 0 0 0
Li 0.00000000 3.32980000 -2.4974704200000026 0 0 0
Li 3.29137411 3.29137411 0.75983888
Li 1.66490000 1.66490000 -0.8325734600000025 0 0 0
Li 1.66849618 4.98817359 2.66918401
Li 4.99470000 4.99470000 -0.8325734600000025 0 0 0
Li 4.98817359 1.66849618 2.66918401
Ag 1.66736405 1.66736405 2.59544965
Ag 1.66490000 4.99470000 -0.8325734600000025 0 0 0
Ag 4.99003828 4.98997168 2.33325525
Ag 4.99470000 1.66490000 -0.8325734600000025 0 0 0
Sn 0.00000000 0.00000000 -2.4974704200000026 0 0 0
Sn 3.32980000 3.32980000 -2.4974704200000026 0 0 0
Sn 3.27032977 0.06133492 0.91180666
Sn 0.06140151 3.27032977 0.91180666
C 1.67442323 1.67442323 4.74274433
O 1.66696448 1.66703107 5.89300042
