&CONTROL
calculation = 'relax'
prefix = 'scf'
pseudo_dir = '/vol0403/data/hp230205/u10028/POT_HYBRID_KKJUS_GBRV'
outdir = './data'
tprnfor = .true.
nstep = 50
disk_io = 'non'
/
&SYSTEM
ibrav = 0
ecutwfc = 50.0
ecutrho = 400
occupations = 'smearing'
smearing = 'mp'
degauss = 0.01
assume_isolated = 'esm'
esm_bc = 'bc1'
input_dft = 'BEEF-VDW'
nosym = .true.
nspin = 1
ntyp = 6
nat = 34
/
&ELECTRONS
electron_maxstep = 200
mixing_beta = 0.1
conv_thr = 1e-06
/
&IONS
ion_dynamics = 'bfgs'
upscale = 1.0
/
&CELL
/

K_POINTS {automatic}
9 6 2 0  0  0

ATOMIC_SPECIES
C 12.01 C.pbe-n-rrkjus_psl.1.0.0.UPF
In 114.8 In.pbe-dn-rrkjus_psl.1.0.0.UPF
Mg 24.30 Mg.pbe-spnl-rrkjus_psl.1.0.0.UPF
O 15.99 O.pbe-n-rrkjus_psl.1.0.0.UPF
Pd 106.4 Pd.pbe-n-rrkjus_psl.1.0.0.UPF
Y 88.90 Y.pbe-spn-rrkjus_psl.1.0.0.UPF


CELL_PARAMETERS {angstrom}
6.99626000 0.00000000 0.00000000
0.00000000 9.89420000 0.00000000
0.00000000 0.00000000 27.42070000

ATOMIC_POSITIONS {angstrom}
Y 5.24719500 0.00000000 -1.2366735700000007 0 0 0
Y 5.24719500 4.94710000 -1.2366735700000007 0 0 0
Y 1.74906500 2.47355000 -3.710294919999999 0 0 0
Y 1.74906500 7.42065000 -3.710294919999999 0 0 0
Y 5.11853378 4.73744190 3.92170851
Y 5.11853378 0.20965810 3.92170851
Y 1.73094469 7.42065000 1.28027248
Y 1.79852856 2.47355000 1.29343442
Mg 1.74906500 0.00000000 -1.2366735700000007 0 0 0
Mg 1.74906500 4.94710000 -1.2366735700000007 0 0 0
Mg 5.24719500 2.47355000 -3.710294919999999 0 0 0
Mg 5.24719500 7.42065000 -3.710294919999999 0 0 0
Mg 1.67644382 5.08561880 3.69658457
Mg 1.67644382 9.75568120 3.69658457
Mg 5.14274084 7.42065000 1.30001539
Mg 5.14630893 2.47355000 1.35184051
In 0.00000000 0.00000000 -3.710294919999999 0 0 0
In 0.00000000 4.94710000 -3.710294919999999 0 0 0
In 3.49813000 7.42065000 -1.2366735700000007 0 0 0
In 3.49813000 2.47355000 -1.2366735700000007 0 0 0
In 6.86333106 4.91989095 1.37268024
In 6.86333106 0.02720905 1.37268024
In 2.93024358 2.47355000 4.33109957
In 3.53010291 7.42065000 4.04044014
Pd 0.00000000 2.47355000 -1.2366735700000007 0 0 0
Pd 0.00000000 7.42065000 -1.2366735700000007 0 0 0
Pd 3.49813000 4.94710000 -3.710294919999999 0 0 0
Pd 3.49813000 0.00000000 -3.710294919999999 0 0 0
Pd 6.81519679 7.42065000 3.43828157
Pd 0.06933294 2.47355000 3.68177739
Pd 3.62847032 9.87075075 1.35430837
Pd 3.62847032 4.97054925 1.35430837
C 6.47622799 2.47364894 5.57161203
O 6.51666638 2.47364894 6.73918544
