&CONTROL
calculation = 'relax'
prefix = 'scf'
pseudo_dir = '/vol0004/mdt0/data/hp150275/u10028/POT_KKJUS'
outdir = './data'
tprnfor = .true.
nstep = 50
disk_io = 'non'
/
&SYSTEM
ibrav = 0
ecutwfc = 50.0
ecutrho = 400
occupations = 'smearing'
smearing = 'mp'
degauss = 0.01
assume_isolated = 'esm'
esm_bc = 'bc1'
input_dft = 'BEEF-VDW'
nosym = .true.
nspin = 1
ntyp = 3
nat = 33
/
&ELECTRONS
electron_maxstep = 200
mixing_beta = 0.1
conv_thr = 1e-06
/
&IONS
ion_dynamics = 'bfgs'
upscale = 1.0
/
&CELL
/

K_POINTS {automatic}
8 6 1 0 0 0

ATOMIC_SPECIES
Al 26.98 Al.pbe-nl-rrkjus_psl.1.0.0.UPF
C 12.01 C.pbe-n-rrkjus_psl.1.0.0.UPF
Cu 63.54 Cu.pbe-dn-rrkjus_psl.1.0.0.UPF

CELL_PARAMETERS {angstrom}
5.88044000 0.00000000 0.00000000
0.00000000 8.31620000 0.00000000
0.00000000 0.00000000 26.23710000

ATOMIC_POSITIONS {angstrom}
Al 0.00000000 0.00000000 -3.1185417100000024 0 0 0
Al 2.94022000 2.07905000 -1.0395139000000029 0 0 0
Al 2.94022000 6.23715000 -1.0395139000000029 0 0 0
Al 0.00000000 4.15810000 -3.1185417100000024 0 0 0
Al 0.00000000 4.15810000 1.11376490
Al 2.94022000 6.37553157 3.30823594
Al 2.94022000 1.94066843 3.30823594
Al 0.00000000 0.00000000 0.90701655
Cu 1.47011000 0.00000000 -1.0395139000000029 0 0 0
Cu 4.41033000 4.15810000 -1.0395139000000029 0 0 0
Cu 4.41033000 0.00000000 -1.0395139000000029 0 0 0
Cu 1.47011000 4.15810000 -1.0395139000000029 0 0 0
Cu 4.41033000 6.23715000 -3.1185417100000024 0 0 0
Cu 1.47011000 2.07905000 -3.1185417100000024 0 0 0
Cu 1.47011000 6.23715000 -3.1185417100000024 0 0 0
Cu 4.41033000 2.07905000 -3.1185417100000024 0 0 0
Cu 0.00000000 6.23715000 -1.0395139000000029 0 0 0
Cu 2.94022000 0.00000000 -3.1185417100000024 0 0 0
Cu 0.00000000 2.07905000 -1.0395139000000029 0 0 0
Cu 2.94022000 4.15810000 -3.1185417100000024 0 0 0
Cu 1.67010376 4.15810000 3.11408140
Cu 4.69729547 0.00000000 3.02776134
Cu 4.21033624 4.15810000 3.11408140
Cu 1.18314453 0.00000000 3.02776134
Cu 4.36293365 2.09967418 1.05683039
Cu 1.51750635 6.21652582 1.05683039
Cu 1.51750635 2.09967418 1.05656802
Cu 4.36293365 6.21652582 1.05656802
Cu 0.00000000 2.27531232 3.05635978
Cu 2.94022000 4.15810000 0.90517995
Cu 0.00000000 6.04088768 3.05635978
Cu 2.94022000 0.00000000 1.06155307
C 2.94022000 0.00000000 3.72881665
