&CONTROL
calculation = 'relax'
prefix = 'scf'
pseudo_dir = '/vol0004/mdt0/data/hp150275/u10028/POT_HYBRID_KKJUS_GBRV'
outdir = './data'
tprnfor = .true.
nstep = 50
disk_io = 'non'
/
&SYSTEM
ibrav = 0
ecutwfc = 50.0
ecutrho = 400
occupations = 'smearing'
smearing = 'mp'
degauss = 0.01
assume_isolated = 'esm'
esm_bc = 'bc1'
input_dft = 'BEEF-VDW'
nosym = .true.
nspin = 2
ntyp = 3
nat = 32
starting_magnetization(1) = 0.1
starting_magnetization(2) = 0.1
starting_magnetization(3) = 0.0
/
&ELECTRONS
electron_maxstep = 300
mixing_beta = 0.1
conv_thr = 1e-06
/
&IONS
ion_dynamics = 'bfgs'
upscale = 1.0
/
&CELL
/

K_POINTS {automatic}
8 6 1 0 0 0

ATOMIC_SPECIES
Co 58.93 co_pbe_v1.2.uspp.F.UPF
Fe 55.84 fe_pbe_v1.5.uspp.F.UPF
In 114.8 In.pbe-dn-rrkjus_psl.1.0.0.UPF

CELL_PARAMETERS {angstrom}
6.01864000 0.00000000 0.00000000
0.00000000 8.51164000 0.00000000
0.00000000 0.00000000 26.38370000

ATOMIC_POSITIONS {angstrom}
In 0.00000000 0.00000000 -3.1919000299999993 0 0 0
In 3.00932000 2.12791000 -1.0640546200000003 0 0 0
In 3.00932000 6.38373000 -1.0640546200000003 0 0 0
In 0.00000000 4.25582000 -3.1919000299999993 0 0 0
In 0.00006019 4.25582000 1.00495513
In 3.00932000 6.38373000 3.61773294
In 3.00932000 2.12791000 3.61773294
In 0.00006019 0.00000000 1.00521897
Fe 0.00000000 6.38373000 -1.0640546200000003 0 0 0
Fe 3.00932000 0.00000000 -3.1919000299999993 0 0 0
Fe 0.00000000 2.12791000 -1.0640546200000003 0 0 0
Fe 3.00932000 4.25582000 -3.1919000299999993 0 0 0
Fe 0.00000000 2.12799512 3.03148713
Fe 3.00932000 4.25582000 1.10336633
Fe 0.00000000 6.38364488 3.03148713
Fe 3.00932000 0.00000000 1.10336633
Co 1.50466000 0.00000000 -1.0640546200000003 0 0 0
Co 4.51398000 4.25582000 -1.0640546200000003 0 0 0
Co 4.51398000 0.00000000 -1.0640546200000003 0 0 0
Co 1.50466000 4.25582000 -1.0640546200000003 0 0 0
Co 4.51398000 6.38373000 -3.1919000299999993 0 0 0
Co 1.50466000 2.12791000 -3.1919000299999993 0 0 0
Co 1.50466000 6.38373000 -3.1919000299999993 0 0 0
Co 4.51398000 2.12791000 -3.1919000299999993 0 0 0
Co 1.49864136 4.25582000 3.09375266
Co 4.52011901 0.00000000 3.09348883
Co 4.51999864 4.25582000 3.09375266
Co 1.49852099 0.00000000 3.09348883
Co 4.43224687 2.12791000 1.17011710
Co 1.58639313 6.38373000 1.17011710
Co 1.58639313 2.12791000 1.17011710
Co 4.43224687 6.38373000 1.16985326
