&CONTROL
calculation = 'relax'
prefix = 'scf'
pseudo_dir = '/vol0403/data/hp230205/u10028/POT_HYBRID_KKJUS_GBRV'
outdir = './data'
tprnfor = .true.
nstep = 50
disk_io = 'non'
/
&SYSTEM
ibrav = 0
ecutwfc = 50.0
ecutrho = 400
occupations = 'smearing'
smearing = 'mp'
degauss = 0.01
assume_isolated = 'esm'
esm_bc = 'bc1'
input_dft = 'BEEF-VDW'
nosym = .true.
nspin = 1
ntyp = 5
nat = 17
/
&ELECTRONS
electron_maxstep = 200
mixing_beta = 0.1
conv_thr = 1e-06
/
&IONS
ion_dynamics = 'bfgs'
upscale = 1.0
/
&CELL
/

K_POINTS {automatic}
6 6 1 0 0 0

ATOMIC_SPECIES
C 12.01 C.pbe-n-rrkjus_psl.1.0.0.UPF
In 114.8 In.pbe-dn-rrkjus_psl.1.0.0.UPF
Li 6.941 Li.pbe-sl-rrkjus_psl.1.0.0.UPF
Pb 207.2 Pb.pbe-dn-rrkjus_psl.1.0.0.UPF
Y 88.90 Y.pbe-spn-rrkjus_psl.1.0.0.UPF


CELL_PARAMETERS {angstrom}
9.00122000 0.00000000 0.00000000
0.00000000 6.63002000 0.00000000
0.00000000 0.00000000 24.97230000

ATOMIC_POSITIONS {angstrom}
Li 2.25030500 1.64079735 -0.8288306399999996 0 0 0
Li 1.41355159 4.71467352 2.56165853
Li 6.75091500 1.64079735 -0.8288306399999996 0 0 0
Li 7.58766841 4.71467352 2.56165853
Y 2.25030500 4.95580735 -0.8288306399999996 0 0 0
Y 1.86442270 1.70544004 2.46351740
Y 6.75091500 4.95580735 -0.8288306399999996 0 0 0
Y 7.13679730 1.70544004 2.46351740
In 0.00000000 0.00000000 -2.4862421900000022 0 0 0
In 0.00000000 3.15051920 0.48346373
In 4.50061000 0.00000000 -2.4862421900000022 0 0 0
In 4.50061000 3.05272641 0.78213244
Pb 0.00000000 3.31501000 -2.4862421900000022 0 0 0
Pb 0.00000000 6.54833815 0.72794254
Pb 4.50061000 3.31501000 -2.4862421900000022 0 0 0
Pb 4.50061000 6.35467527 1.45913149
C 0.00000000 3.00399576 2.80763569
