&CONTROL
calculation = 'relax'
prefix = 'scf'
pseudo_dir = '/vol0403/data/hp230205/u10028/POT_HYBRID_KKJUS_GBRV'
outdir = './data'
tprnfor = .true.
nstep = 50
disk_io = 'non'
/
&SYSTEM
ibrav = 0
ecutwfc = 50.0
ecutrho = 400
occupations = 'smearing'
smearing = 'mp'
degauss = 0.01
assume_isolated = 'esm'
esm_bc = 'bc1'
input_dft = 'BEEF-VDW'
nosym = .true.
nspin = 1
ntyp = 4
nat = 16
/
&ELECTRONS
electron_maxstep = 200
mixing_beta = 0.1
conv_thr = 1e-06
/
&IONS
ion_dynamics = 'bfgs'
upscale = 1.0
/
&CELL
/

K_POINTS {automatic}
6 6 1 0 0 0

ATOMIC_SPECIES
In 114.8 In.pbe-dn-rrkjus_psl.1.0.0.UPF
Li 6.941 Li.pbe-sl-rrkjus_psl.1.0.0.UPF
Sn 118.7 Sn.pbe-dn-rrkjus_psl.1.0.0.UPF
Y 88.90 Y.pbe-spn-rrkjus_psl.1.0.0.UPF


CELL_PARAMETERS {angstrom}
6.44949000 0.00000000 0.00000000
0.00000000 9.04200000 0.00000000
0.00000000 0.00000000 24.82990000

ATOMIC_POSITIONS {angstrom}
Li 1.79050741 2.26077126 0.67636648
Li 4.57313987 2.26050000 -2.414956069999999 0 0 0
Li 1.79050741 6.78122874 0.67636648
Li 4.57313987 6.78150000 -2.414956069999999 0 0 0
Y 3.65073381 0.00000000 2.47653423
Y 6.27348342 0.00000000 -0.8049853599999999 0 0 0
Y 3.65183023 4.52090958 2.47752742
Y 6.27348342 4.52100000 -0.8049853599999999 0 0 0
In 0.44198355 9.04181916 2.64959863
In 3.04873842 0.00000000 -0.8049853599999999 0 0 0
In 0.44333794 4.52109042 2.64984693
In 3.04873842 4.52100000 -0.8049853599999999 0 0 0
Sn 5.15507736 2.26059042 1.10592375
Sn 1.34839487 2.26050000 -2.414956069999999 0 0 0
Sn 5.15501286 6.78131916 1.10592375
Sn 1.34839487 6.78150000 -2.414956069999999 0 0 0
