&CONTROL
calculation = 'relax'
prefix = 'scf'
pseudo_dir = '/vol0004/mdt0/data/hp150275/u10028/POT_KKJUS'
outdir = './data'
tprnfor = .true.
nstep = 50
disk_io = 'non'
/
&SYSTEM
ibrav = 0
ecutwfc = 50.0
ecutrho = 400
occupations = 'smearing'
smearing = 'mp'
degauss = 0.01
assume_isolated = 'esm'
esm_bc = 'bc1'
input_dft = 'BEEF-VDW'
nosym = .true.
nspin = 1
ntyp = 4
nat = 33
/
&ELECTRONS
electron_maxstep = 200
mixing_beta = 0.1
conv_thr = 1e-06
/
&IONS
ion_dynamics = 'bfgs'
upscale = 1.0
/
&CELL
/

K_POINTS {automatic}
8 6 1 0 0 0

ATOMIC_SPECIES
Al 26.98 Al.pbe-nl-rrkjus_psl.1.0.0.UPF
C 12.01 C.pbe-n-rrkjus_psl.1.0.0.UPF
Li 6.941 Li.pbe-sl-rrkjus_psl.1.0.0.UPF
Rh 102.9 Rh.pbe-spn-rrkjus_psl.1.0.0.UPF

CELL_PARAMETERS {angstrom}
6.03986000 0.00000000 0.00000000
0.00000000 8.54165000 0.00000000
0.00000000 0.00000000 26.40620000

ATOMIC_POSITIONS {angstrom}
Li 0.00000000 0.00000000 -3.2030720599999967 0 0 0
Li 3.01993000 2.13541250 -1.0676026699999994 0 0 0
Li 3.01993000 6.40623750 -1.0676026699999994 0 0 0
Li 0.00000000 4.27082500 -3.2030720599999967 0 0 0
Li 0.00126837 4.26698126 1.03327461
Li 2.88324797 6.40623750 3.67811960
Li 3.24642475 2.13541250 4.43544941
Li 0.00126837 0.00384374 1.03327461
Al 1.50996500 0.00000000 -1.0676026699999994 0 0 0
Al 4.52989500 4.27082500 -1.0676026699999994 0 0 0
Al 4.52989500 0.00000000 -1.0676026699999994 0 0 0
Al 1.50996500 4.27082500 -1.0676026699999994 0 0 0
Al 4.52989500 6.40623750 -3.2030720599999967 0 0 0
Al 1.50996500 2.13541250 -3.2030720599999967 0 0 0
Al 1.50996500 6.40623750 -3.2030720599999967 0 0 0
Al 4.52989500 2.13541250 -3.2030720599999967 0 0 0
Al 1.52047436 4.13304819 3.22314077
Al 4.56450340 8.43035230 3.18564397
Al 4.56450340 4.38212270 3.18564397
Al 1.52047436 0.13777681 3.22314077
Al 4.46708046 2.13541250 0.99709811
Al 1.53037973 6.40623750 1.07341203
Al 1.60448881 2.13541250 1.19831336
Al 4.53158616 6.40623750 1.10826821
Rh 0.00000000 6.40623750 -1.0676026699999994 0 0 0
Rh 3.01993000 0.00000000 -3.2030720599999967 0 0 0
Rh 0.00000000 2.13541250 -1.0676026699999994 0 0 0
Rh 3.01993000 4.27082500 -3.2030720599999967 0 0 0
Rh 5.57648194 2.13541250 3.13784875
Rh 3.02041319 4.31985407 0.99894655
Rh 0.07845778 6.40623750 3.06734419
Rh 3.02041319 8.49262093 0.99894655
C 1.51352852 2.13541250 3.34355304
