&CONTROL
calculation = 'relax'
prefix = 'scf'
pseudo_dir = '/vol0403/data/hp230205/u10028/POT_HYBRID_KKJUS_GBRV'
outdir = './data'
tprnfor = .true.
nstep = 100
disk_io = 'non'
/
&SYSTEM
ibrav = 0
ecutwfc = 50.0
ecutrho = 400
occupations = 'smearing'
smearing = 'mp'
degauss = 0.01
assume_isolated = 'esm'
esm_bc = 'bc1'
input_dft = 'BEEF-VDW'
nosym = .true.
nspin = 1
ntyp = 5
nat = 17
/
&ELECTRONS
electron_maxstep = 200
mixing_beta = 0.1
conv_thr = 1e-06
/
&IONS
ion_dynamics = 'bfgs'
upscale = 1.0
/
&CELL
/

K_POINTS {automatic}
10 10 2 0  0  0

ATOMIC_SPECIES
C 12.01 C.pbe-n-rrkjus_psl.1.0.0.UPF
Cu 63.54 Cu.pbe-dn-rrkjus_psl.1.0.0.UPF
Li 6.941 Li.pbe-sl-rrkjus_psl.1.0.0.UPF
Mg 24.30 Mg.pbe-spnl-rrkjus_psl.1.0.0.UPF
Sn 118.7 Sn.pbe-dn-rrkjus_psl.1.0.0.UPF


CELL_PARAMETERS {angstrom}
6.48317000 0.00000000 0.00000000
-0.00000000 6.48317000 0.00000000
0.00000000 0.00000000 24.86240000

ATOMIC_POSITIONS {angstrom}
Li 0.00000000 3.24158500 -2.4312941000000023 0 0 0
Li 0.00000000 0.00000000 0.81051424
Li 3.24158500 3.24158500 0.81051424
Li 3.24158500 0.00000000 -2.4312941000000023 0 0 0
Mg 4.86237750 1.62079250 -0.8105142399999998 0 0 0
Mg 4.86237750 4.86237750 2.43129410
Mg 1.62079250 1.62079250 2.43129410
Mg 1.62079250 4.86237750 -0.8105142399999998 0 0 0
Cu 0.00000000 0.00000000 -2.4312941000000023 0 0 0
Cu 0.00000000 3.24158500 0.81051424
Cu 3.24158500 -0.00000000 0.81051424
Cu 3.24158500 3.24158500 -2.4312941000000023 0 0 0
Sn 1.62079250 1.62079250 -0.8105142399999998 0 0 0
Sn 1.62079250 4.86237750 2.43129410
Sn 4.86237750 1.62079250 2.43129410
Sn 4.86237750 4.86237750 -0.8105142399999998 0 0 0
C 0.00000000 0.00000000 3.23111750
