&CONTROL
calculation = 'relax'
prefix = 'scf'
pseudo_dir = '/vol0403/data/hp230205/u10028/POT_HYBRID_KKJUS_GBRV'
outdir = './data'
tprnfor = .true.
nstep = 50
disk_io = 'non'
/
&SYSTEM
ibrav = 0
ecutwfc = 50.0
ecutrho = 400
occupations = 'smearing'
smearing = 'mp'
degauss = 0.01
assume_isolated = 'esm'
esm_bc = 'bc1'
input_dft = 'BEEF-VDW'
nosym = .true.
nspin = 1
ntyp = 6
nat = 18
/
&ELECTRONS
electron_maxstep = 200
mixing_beta = 0.1
conv_thr = 1e-06
/
&IONS
ion_dynamics = 'bfgs'
upscale = 1.0
/
&CELL
/

K_POINTS {automatic}
9 9 2 0  0  0

ATOMIC_SPECIES
C 12.01 C.pbe-n-rrkjus_psl.1.0.0.UPF
In 114.8 In.pbe-dn-rrkjus_psl.1.0.0.UPF
O 15.99 O.pbe-n-rrkjus_psl.1.0.0.UPF
Pd 106.4 Pd.pbe-n-rrkjus_psl.1.0.0.UPF
Sc 44.95 Sc.pbe-spn-rrkjus_psl.1.0.0.UPF
Y 88.90 Y.pbe-spn-rrkjus_psl.1.0.0.UPF


CELL_PARAMETERS {angstrom}
7.36232000 0.00000000 0.00000000
0.00000000 6.98742000 0.00000000
0.00000000 0.00000000 25.23460000

ATOMIC_POSITIONS {angstrom}
Y 1.84058000 5.15699546 -0.8723601199999997 0 0 0
Y 1.84050638 1.30650779 2.75334721
Y 5.52174000 5.15699546 -0.8723601199999997 0 0 0
Y 5.52181362 1.49838234 2.72028988
Sc 1.84058000 1.66328546 -0.8723601199999997 0 0 0
Sc 1.84043275 5.12701943 2.57014401
Sc 5.52174000 1.66328546 -0.8723601199999997 0 0 0
Sc 5.52196087 5.17858658 2.36952894
In 0.00000000 0.00000000 -2.6173327099999995 0 0 0
In 0.03813682 3.26354439 1.05379690
In 3.68116000 0.00000000 -2.6173327099999995 0 0 0
In 3.64302318 3.26410338 1.05303986
Pd 0.00000000 3.49371000 -2.6173327099999995 0 0 0
Pd 7.15779475 0.03850068 0.86226628
Pd 3.68116000 3.49371000 -2.6173327099999995 0 0 0
Pd 3.88590612 0.03843081 0.86251863
C 1.84021188 6.42619043 4.17430753
O 1.84006464 0.47060274 4.88466152
