&CONTROL
calculation = 'relax'
prefix = 'scf'
pseudo_dir = '/vol0004/mdt0/data/hp150275/u10028/POT_KKJUS'
outdir = './data'
tprnfor = .true.
nstep = 50
disk_io = 'non'
/
&SYSTEM
ibrav = 0
ecutwfc = 50.0
ecutrho = 400
occupations = 'smearing'
smearing = 'mp'
degauss = 0.01
assume_isolated = 'esm'
esm_bc = 'bc1'
input_dft = 'BEEF-VDW'
nosym = .true.
nspin = 1
ntyp = 4
nat = 18
/
&ELECTRONS
electron_maxstep = 200
mixing_beta = 0.1
conv_thr = 1e-06
/
&IONS
ion_dynamics = 'bfgs'
upscale = 1.0
/
&CELL
/

K_POINTS {automatic}
8 8 1 0 0 0

ATOMIC_SPECIES
C 12.01 C.pbe-n-rrkjus_psl.1.0.0.UPF
O 15.99 O.pbe-n-rrkjus_psl.1.0.0.UPF
Rh 102.9 Rh.pbe-spn-rrkjus_psl.1.0.0.UPF
Si 28.08 Si.pbe-nl-rrkjus_psl.1.0.0.UPF

CELL_PARAMETERS {angstrom}
5.95743000 0.00000000 0.00000000
-0.00000000 5.95743000 0.00000000
0.00000000 0.00000000 24.46810000

ATOMIC_POSITIONS {angstrom}
Si 0.00000000 0.00000000 -1.8086819500000004 0 0 0
Si 0.00000000 0.00000000 1.17006454
Si 0.00000000 2.97871500 -1.8086819500000004 0 0 0
Si 0.00000000 2.97871500 1.17006454
Si 2.97871500 0.00000000 -1.8086819500000004 0 0 0
Si 2.97871500 -0.00000000 1.17006454
Si 2.97871500 2.97871500 -1.8086819500000004 0 0 0
Si 2.97871500 2.97871500 1.17006454
Rh 1.48935750 1.48935750 -0.3193087100000014 0 0 0
Rh 1.48935750 1.48935750 2.65943779
Rh 1.48935750 4.46807250 -0.3193087100000014 0 0 0
Rh 1.48935750 4.46807250 2.65943779
Rh 4.46807250 1.48935750 -0.3193087100000014 0 0 0
Rh 4.46807250 1.48935750 2.65943779
Rh 4.46807250 4.46807250 -0.3193087100000014 0 0 0
Rh 4.46807250 4.46807250 2.65943779
C 1.48935750 1.48935750 4.55938575
O 1.48935750 1.48935750 5.70938645
