&CONTROL
calculation = 'relax'
prefix = 'scf'
pseudo_dir = '/vol0403/data/hp230205/u10028/POT_HYBRID_KKJUS_GBRV'
outdir = './data'
tprnfor = .true.
nstep = 50
disk_io = 'non'
/
&SYSTEM
ibrav = 0
ecutwfc = 50.0
ecutrho = 400
occupations = 'smearing'
smearing = 'mp'
degauss = 0.01
assume_isolated = 'esm'
esm_bc = 'bc1'
input_dft = 'BEEF-VDW'
nosym = .true.
nspin = 1
ntyp = 6
nat = 18
/
&ELECTRONS
electron_maxstep = 200
mixing_beta = 0.1
conv_thr = 1e-06
/
&IONS
ion_dynamics = 'bfgs'
upscale = 1.0
/
&CELL
/

K_POINTS {automatic}
8 8 1 0 0 0

ATOMIC_SPECIES
C 12.01 C.pbe-n-rrkjus_psl.1.0.0.UPF
Li 6.941 Li.pbe-sl-rrkjus_psl.1.0.0.UPF
Mg 24.30 Mg.pbe-spnl-rrkjus_psl.1.0.0.UPF
O 15.99 O.pbe-n-rrkjus_psl.1.0.0.UPF
Pd 106.4 Pd.pbe-n-rrkjus_psl.1.0.0.UPF
Sb 121.7 Sb.pbe-n-rrkjus_psl.1.0.0.UPF


CELL_PARAMETERS {angstrom}
6.57147000 0.00000000 0.00000000
0.00000000 6.57147000 0.00000000
0.00000000 0.00000000 24.92860000

ATOMIC_POSITIONS {angstrom}
Li 0.00000000 0.00000000 -2.464192109999999 0 0 0
Li 6.56292709 3.27725780 0.87599100
Li 3.29414648 0.00841148 0.87574172
Li 3.28573500 3.28573500 -2.464192109999999 0 0 0
Mg 1.64286750 1.64286750 -0.8213973699999997 0 0 0
Mg 1.64280179 4.92860250 2.48862214
Mg 4.92833964 1.64280179 2.51429860
Mg 4.92860250 4.92860250 -0.8213973699999997 0 0 0
Sb 4.92860250 1.64286750 -0.8213973699999997 0 0 0
Sb 4.92853679 4.92866821 2.57986081
Sb 1.64280179 1.64293321 2.57986081
Sb 1.64286750 4.92860250 -0.8213973699999997 0 0 0
Pd 0.00000000 3.28573500 -2.464192109999999 0 0 0
Pd 6.55346417 0.01800583 0.89269317
Pd 3.30380654 3.26779489 0.89244388
Pd 3.28573500 0.00000000 -2.464192109999999 0 0 0
C 4.92873393 1.64286750 4.76634832
O 4.92879964 1.64286750 5.90558534
