&CONTROL
calculation = 'relax'
prefix = 'scf'
pseudo_dir = '/vol0403/data/hp230205/u10028/POT_HYBRID_KKJUS_GBRV'
outdir = './data'
tprnfor = .true.
nstep = 50
disk_io = 'non'
/
&SYSTEM
ibrav = 0
ecutwfc = 50.0
ecutrho = 400
occupations = 'smearing'
smearing = 'mp'
degauss = 0.01
assume_isolated = 'esm'
esm_bc = 'bc1'
input_dft = 'BEEF-VDW'
nosym = .true.
nspin = 2
ntyp = 5
nat = 17
starting_magnetization(1) = 0.25
starting_magnetization(2) = 0.25
starting_magnetization(3) = 0.25
starting_magnetization(4) = 0.25
starting_magnetization(5) = 0.25
/
&ELECTRONS
electron_maxstep = 400
mixing_beta = 0.05
conv_thr = 1e-06
/
&IONS
ion_dynamics = 'bfgs'
upscale = 1.0
/
&CELL
/

K_POINTS {automatic}
8 8 1 0 0 0

ATOMIC_SPECIES
C 12.01 C.pbe-n-rrkjus_psl.1.0.0.UPF
In 114.8 In.pbe-dn-rrkjus_psl.1.0.0.UPF
Mn 54.93 mn_pbe_v1.5.uspp.F.UPF
Pd 106.4 Pd.pbe-n-rrkjus_psl.1.0.0.UPF
Sc 44.95 Sc.pbe-spn-rrkjus_psl.1.0.0.UPF


CELL_PARAMETERS {angstrom}
6.62299000 0.00000000 0.00000000
0.00000000 6.62299000 0.00000000
0.00000000 0.00000000 24.96720000

ATOMIC_POSITIONS {angstrom}
Sc 0.00000000 3.31149500 -2.4837370599999993 0 0 0
Sc 0.00000000 0.00000000 0.82791235
Sc 3.31149500 3.31149500 0.82791235
Sc 3.31149500 0.00000000 -2.4837370599999993 0 0 0
Mn 4.96724250 1.65574750 -0.8279123499999983 0 0 0
Mn 4.96724250 4.96724250 2.48373706
Mn 1.65574750 1.65574750 2.48373706
Mn 1.65574750 4.96724250 -0.8279123499999983 0 0 0
In 0.00000000 0.00000000 -2.4837370599999993 0 0 0
In 0.00000000 3.31149500 0.82791235
In 3.31149500 0.00000000 0.82791235
In 3.31149500 3.31149500 -2.4837370599999993 0 0 0
Pd 1.65574750 1.65574750 -0.8279123499999983 0 0 0
Pd 1.65574750 4.96724250 2.48373706
Pd 4.96724250 1.65574750 2.48373706
Pd 4.96724250 4.96724250 -0.8279123499999983 0 0 0
C 0.00000000 3.31149500 3.28368614
