&CONTROL
calculation = 'relax'
prefix = 'scf'
pseudo_dir = '/vol0403/data/hp230205/u10028/POT_HYBRID_KKJUS_GBRV'
outdir = './data'
tprnfor = .true.
nstep = 50
disk_io = 'non'
/
&SYSTEM
ibrav = 0
ecutwfc = 50.0
ecutrho = 400
occupations = 'smearing'
smearing = 'mp'
degauss = 0.01
assume_isolated = 'esm'
esm_bc = 'bc1'
input_dft = 'BEEF-VDW'
nosym = .true.
nspin = 1
ntyp = 6
nat = 18
/
&ELECTRONS
electron_maxstep = 200
mixing_beta = 0.1
conv_thr = 1e-06
/
&IONS
ion_dynamics = 'bfgs'
upscale = 1.0
/
&CELL
/

K_POINTS {automatic}
8 8 1 0 0 0

ATOMIC_SPECIES
C 12.01 C.pbe-n-rrkjus_psl.1.0.0.UPF
Ge 72.64 Ge.pbe-dn-rrkjus_psl.1.0.0.UPF
Hf 178.4 Hf.pbe-spn-rrkjus_psl.1.0.0.UPF
Li 6.941 Li.pbe-sl-rrkjus_psl.1.0.0.UPF
O 15.99 O.pbe-n-rrkjus_psl.1.0.0.UPF
Pd 106.4 Pd.pbe-n-rrkjus_psl.1.0.0.UPF


CELL_PARAMETERS {angstrom}
6.42607000 0.00000000 0.00000000
0.00000000 6.42607000 0.00000000
0.00000000 0.00000000 24.81960000

ATOMIC_POSITIONS {angstrom}
Li 1.60619620 1.60619620 0.87935843
Li 1.60651750 4.81955250 -2.4097349600000015 0 0 0
Li 4.81955250 1.60651750 -2.4097349600000015 0 0 0
Li 4.81980954 4.81980954 0.87935843
Hf 4.81068452 1.61538548 0.90616360
Hf 4.81955250 4.81955250 -2.4097349600000015 0 0 0
Hf 1.60651750 1.60651750 -2.4097349600000015 0 0 0
Hf 1.61538548 4.81068452 0.90616360
Ge 6.42600574 6.42600574 2.46284891
Ge 0.00000000 3.21303500 -0.8031622600000006 0 0 0
Ge 3.21303500 0.00000000 -0.8031622600000006 0 0 0
Ge 3.21303500 3.21303500 2.42909425
Pd 0.00000000 3.21309926 2.34297024
Pd 0.00000000 0.00000000 -0.8031622600000006 0 0 0
Pd 3.21303500 3.21303500 -0.8031622600000006 0 0 0
Pd 3.21309926 6.42600574 2.34297024
C 0.00000000 0.00000000 4.42707205
O 0.00006426 0.00000000 5.58019067
