&CONTROL
calculation = 'relax'
prefix = 'scf'
pseudo_dir = '/vol0004/mdt0/data/hp150275/u10028/POT_HYBRID_KKJUS_GBRV'
outdir = './data'
tprnfor = .true.
nstep = 50
disk_io = 'non'
/
&SYSTEM
ibrav = 0
ecutwfc = 50.0
ecutrho = 400
occupations = 'smearing'
smearing = 'mp'
degauss = 0.01
assume_isolated = 'esm'
esm_bc = 'bc1'
input_dft = 'BEEF-VDW'
nosym = .true.
nspin = 2
ntyp = 4
nat = 33
starting_magnetization(1) = 0.0
starting_magnetization(2) = 0.1
starting_magnetization(3) = 0.001
starting_magnetization(4) = 0.0
/
&ELECTRONS
electron_maxstep = 200
mixing_beta = 0.1
conv_thr = 1e-06
/
&IONS
ion_dynamics = 'bfgs'
upscale = 1.0
/
&CELL
/

K_POINTS {automatic}
9 6 2 0  0  0

ATOMIC_SPECIES
C 12.01 C.pbe-n-rrkjus_psl.1.0.0.UPF
Mn 54.93 mn_pbe_v1.5.uspp.F.UPF
Ni 58.69 ni_pbe_v1.4.uspp.F.UPF
Sn 118.7 Sn.pbe-dn-rrkjus_psl.1.0.0.UPF

CELL_PARAMETERS {angstrom}
6.10266000 0.00000000 0.00000000
0.00000000 8.63046000 0.00000000
0.00000000 0.00000000 26.47280000

ATOMIC_POSITIONS {angstrom}
Mn 0.00000000 0.00000000 23.23650020
Mn 3.05133000 2.15761500 25.39403340
Mn 3.05133000 6.47284500 25.39403340
Mn 0.00000000 4.31523000 23.23650020
Mn 0.00000000 4.31523000 1.09385610
Mn 3.05133000 6.63276742 3.31360038
Mn 3.05133000 1.99760627 3.31360038
Mn 0.00000000 0.00000000 1.02952719
Ni 1.52566500 0.00000000 25.39403340
Ni 4.57699500 4.31523000 25.39403340
Ni 4.57699500 0.00000000 25.39403340
Ni 1.52566500 4.31523000 25.39403340
Ni 4.57699500 6.47284500 23.23650020
Ni 1.52566500 2.15761500 23.23650020
Ni 1.52566500 6.47284500 23.23650020
Ni 4.57699500 2.15761500 23.23650020
Ni 1.60188722 4.31531630 3.11902530
Ni 4.81365615 0.00000000 3.16217596
Ni 4.50077278 4.31531630 3.11902530
Ni 1.28900385 0.00000000 3.16217596
Ni 4.60988834 2.15295455 1.15050789
Ni 1.49277166 6.47750545 1.15024316
Ni 1.49277166 2.15295455 1.15050789
Ni 4.60988834 6.47750545 1.15024316
Sn 0.00000000 6.47284500 25.39403340
Sn 3.05133000 0.00000000 23.23650020
Sn 0.00000000 2.15761500 25.39403340
Sn 3.05133000 4.31523000 23.23650020
Sn 0.00000000 2.26420118 3.45734768
Sn 3.05133000 4.31514370 1.03429230
Sn 0.00000000 6.36634512 3.45734768
Sn 3.05133000 0.00000000 1.03985158
C 3.05133000 0.00000000 3.67548355
