&CONTROL
calculation = 'relax'
prefix = 'scf'
pseudo_dir = '/vol0403/data/hp230205/u10028/POT_HYBRID_KKJUS_GBRV'
outdir = './data'
tprnfor = .true.
nstep = 50
disk_io = 'non'
/
&SYSTEM
ibrav = 0
ecutwfc = 50.0
ecutrho = 400
occupations = 'smearing'
smearing = 'mp'
degauss = 0.01
assume_isolated = 'esm'
esm_bc = 'bc1'
input_dft = 'BEEF-VDW'
nosym = .true.
nspin = 1
ntyp = 6
nat = 34
/
&ELECTRONS
electron_maxstep = 200
mixing_beta = 0.1
conv_thr = 1e-06
/
&IONS
ion_dynamics = 'bfgs'
upscale = 1.0
/
&CELL
/

K_POINTS {automatic}
6 6 1 0 0 0

ATOMIC_SPECIES
C 12.01 C.pbe-n-rrkjus_psl.1.0.0.UPF
Ge 72.64 Ge.pbe-dn-rrkjus_psl.1.0.0.UPF
In 114.8 In.pbe-dn-rrkjus_psl.1.0.0.UPF
Li 6.941 Li.pbe-sl-rrkjus_psl.1.0.0.UPF
O 15.99 O.pbe-n-rrkjus_psl.1.0.0.UPF
Sc 44.95 Sc.pbe-spn-rrkjus_psl.1.0.0.UPF


CELL_PARAMETERS {angstrom}
8.97372000 0.00000000 0.00000000
0.00000000 8.12626000 0.00000000
0.00000000 0.00000000 26.16540000

ATOMIC_POSITIONS {angstrom}
Li 2.24549396 2.03148374 3.62914098
Li 2.24343000 2.03156500 -1.0275152600000013 0 0 0
Li 2.24316079 6.09469500 3.56215756
Li 2.24343000 6.09469500 -1.0275152600000013 0 0 0
Li 6.73029000 2.03156500 3.56425079
Li 6.73029000 2.03156500 -1.0275152600000013 0 0 0
Li 6.72984131 6.09461374 3.56372748
Li 6.73029000 6.09469500 -1.0275152600000013 0 0 0
Sc 8.96797682 2.03156500 1.05682051
Sc 0.00000000 2.03156500 -3.0828074300000026 0 0 0
Sc 0.00789687 6.09469500 1.04713931
Sc 0.00000000 6.09469500 -3.0828074300000026 0 0 0
Sc 4.49242371 2.03156500 1.05682051
Sc 4.48686000 2.03156500 -3.0828074300000026 0 0 0
Sc 4.47869391 6.09469500 1.04740096
Sc 4.48686000 6.09469500 -3.0828074300000026 0 0 0
In 2.24325053 0.00910141 1.36033915
In 2.24343000 0.00000000 -3.0828074300000026 0 0 0
In 2.24343000 4.05394733 1.36033915
In 2.24343000 4.06313000 -3.0828074300000026 0 0 0
In 6.73029000 8.12479727 1.32475420
In 6.73029000 0.00000000 -3.0828074300000026 0 0 0
In 6.73020026 4.06459273 1.32475420
In 6.73029000 4.06313000 -3.0828074300000026 0 0 0
Ge 8.95200360 8.11236410 3.18589910
Ge 0.00000000 0.00000000 -1.0275152600000013 0 0 0
Ge 8.95200360 4.07702590 3.18589910
Ge 0.00000000 4.06313000 -1.0275152600000013 0 0 0
Ge 4.50839693 8.11228283 3.18589910
Ge 4.48686000 0.00000000 -1.0275152600000013 0 0 0
Ge 4.50848667 4.07694464 3.18589910
Ge 4.48686000 4.06313000 -1.0275152600000013 0 0 0
C 2.24504527 2.03213384 5.74618349
O 2.24405816 2.03205258 6.88411674
