&CONTROL
calculation = 'relax'
prefix = 'scf'
pseudo_dir = '/vol0004/mdt0/data/hp150275/u10028/POT_HYBRID_KKJUS_GBRV'
outdir = './data'
tprnfor = .true.
nstep = 50
disk_io = 'non'
/
&SYSTEM
ibrav = 0
ecutwfc = 50.0
ecutrho = 400
occupations = 'smearing'
smearing = 'mp'
degauss = 0.01
assume_isolated = 'esm'
esm_bc = 'bc1'
input_dft = 'BEEF-VDW'
nosym = .true.
nspin = 2
ntyp = 3
nat = 32
starting_magnetization(1) = 0.0
starting_magnetization(2) = 0.0
starting_magnetization(3) = 0.001
/
&ELECTRONS
electron_maxstep = 200
mixing_beta = 0.1
conv_thr = 1e-06
/
&IONS
ion_dynamics = 'bfgs'
upscale = 1.0
/
&CELL
/

K_POINTS {automatic}
9 6 2 0  0  0

ATOMIC_SPECIES
Hf 178.4 Hf.pbe-spn-rrkjus_psl.1.0.0.UPF
In 114.8 In.pbe-dn-rrkjus_psl.1.0.0.UPF
Ni 58.69 ni_pbe_v1.4.uspp.F.UPF

CELL_PARAMETERS {angstrom}
6.30953000 0.00000000 0.00000000
0.00000000 8.92302000 0.00000000
0.00000000 0.00000000 26.69230000

ATOMIC_POSITIONS {angstrom}
Hf 0.00000000 0.00000000 23.34615327
Hf 3.15476500 2.23075500 25.57682878
Hf 3.15476500 6.69226500 25.57682878
Hf 0.00000000 4.46151000 23.34615327
Hf 0.00000000 4.46142077 1.16084813
Hf 3.15476500 6.69226500 3.28849136
Hf 3.15476500 2.23075500 3.28822444
Hf 0.00000000 0.00008923 1.16084813
In 0.00000000 6.69226500 25.57682878
In 3.15476500 0.00000000 23.34615327
In 0.00000000 2.23075500 25.57682878
In 3.15476500 4.46151000 23.34615327
In 0.00000000 2.23075500 3.55488051
In 3.15476500 4.46159923 1.06395508
In 0.00000000 6.69235423 3.55488051
In 3.15476500 8.92293077 1.06368815
Ni 1.57738250 0.00000000 25.57682878
Ni 4.73214750 4.46151000 25.57682878
Ni 4.73214750 0.00000000 25.57682878
Ni 1.57738250 4.46151000 25.57682878
Ni 4.73214750 6.69226500 23.34615327
Ni 1.57738250 2.23075500 23.34615327
Ni 1.57738250 6.69226500 23.34615327
Ni 4.73214750 2.23075500 23.34615327
Ni 1.60646943 4.46159923 3.21535446
Ni 4.70280819 8.92293077 3.21535446
Ni 4.70306057 4.46159923 3.21535446
Ni 1.60672181 8.92293077 3.21535446
Ni 4.72621654 2.23075500 1.18113428
Ni 1.58318727 6.69226500 1.18086735
Ni 1.58331346 2.23075500 1.18113428
Ni 4.72634273 6.69226500 1.18086735
