&CONTROL
calculation = 'relax'
prefix = 'scf'
pseudo_dir = '/vol0004/mdt0/data/hp150275/u10028/POT_KKJUS'
outdir = './data'
tprnfor = .true.
nstep = 50
disk_io = 'non'
/
&SYSTEM
ibrav = 0
ecutwfc = 50.0
ecutrho = 400
occupations = 'smearing'
smearing = 'mp'
degauss = 0.01
assume_isolated = 'esm'
esm_bc = 'bc1'
input_dft = 'BEEF-VDW'
nosym = .true.
nspin = 1
ntyp = 4
nat = 34
/
&ELECTRONS
electron_maxstep = 200
mixing_beta = 0.1
conv_thr = 1e-06
/
&IONS
ion_dynamics = 'bfgs'
upscale = 1.0
/
&CELL
/

K_POINTS {automatic}
8 6 1 0 0 0

ATOMIC_SPECIES
C 12.01 C.pbe-n-rrkjus_psl.1.0.0.UPF
Mg 24.30 Mg.pbe-spnl-rrkjus_psl.1.0.0.UPF
O 15.99 O.pbe-n-rrkjus_psl.1.0.0.UPF
Rh 102.9 Rh.pbe-spn-rrkjus_psl.1.0.0.UPF

CELL_PARAMETERS {angstrom}
6.29180000 0.00000000 0.00000000
0.00000000 8.89794000 0.00000000
0.00000000 0.00000000 26.67350000

ATOMIC_POSITIONS {angstrom}
Mg 0.00000000 0.00000000 -3.3368548500000017 0 0 0
Mg 0.00000000 2.22448500 -1.1122849499999994 0 0 0
Mg 0.00000000 0.00320326 1.08214389
Mg 0.00000000 2.22484092 3.36566223
Mg 0.00000000 4.44897000 -3.3368548500000017 0 0 0
Mg 0.00000000 6.67345500 -1.1122849499999994 0 0 0
Mg 0.00000000 4.44558878 1.08214389
Mg 0.00000000 6.67389990 3.40087125
Mg 3.14590000 0.00000000 -3.3368548500000017 0 0 0
Mg 3.14590000 2.22448500 -1.1122849499999994 0 0 0
Mg 3.14590000 8.89197838 1.06293898
Mg 3.14590000 2.22519684 3.32831933
Mg 3.14590000 4.44897000 -3.3368548500000017 0 0 0
Mg 3.14590000 6.67345500 -1.1122849499999994 0 0 0
Mg 3.14590000 4.45502060 1.06320571
Mg 3.14590000 6.67363296 3.39847063
Rh 1.57295000 2.22448500 -3.3368548500000017 0 0 0
Rh 1.57295000 4.44897000 -1.1122849499999994 0 0 0
Rh 1.56584027 2.22412908 1.11228495
Rh 1.59818012 8.87578413 3.21148940
Rh 1.57295000 6.67345500 -3.3368548500000017 0 0 0
Rh 1.57295000 0.00000000 -1.1122849499999994 0 0 0
Rh 1.56231686 6.67381092 1.12108721
Rh 1.59792845 4.47201566 3.21202287
Rh 4.71885000 2.22448500 -3.3368548500000017 0 0 0
Rh 4.71885000 4.44897000 -1.1122849499999994 0 0 0
Rh 4.72595973 2.22412908 1.11228495
Rh 4.69361988 8.87578413 3.21148940
Rh 4.71885000 6.67345500 -3.3368548500000017 0 0 0
Rh 4.71885000 0.00000000 -1.1122849499999994 0 0 0
Rh 4.72948314 6.67372194 1.12108721
Rh 4.69387155 4.47201566 3.21202287
C 0.00006292 2.22430704 5.67558733
O 0.00000000 2.22430704 6.81774660
