&CONTROL
calculation = 'relax'
prefix = 'scf'
pseudo_dir = '/vol0004/mdt0/data/hp150275/u10028/POT_HYBRID_KKJUS_GBRV'
outdir = './data'
tprnfor = .true.
nstep = 50
disk_io = 'non'
/
&SYSTEM
ibrav = 0
ecutwfc = 50.0
ecutrho = 400
occupations = 'smearing'
smearing = 'mp'
degauss = 0.01
assume_isolated = 'esm'
esm_bc = 'bc1'
input_dft = 'BEEF-VDW'
nosym = .true.
nspin = 2
ntyp = 4
nat = 33
starting_magnetization(1) = 0.0
starting_magnetization(2) = 0.0
starting_magnetization(3) = 0.0
starting_magnetization(4) = 0.001
/
&ELECTRONS
electron_maxstep = 200
mixing_beta = 0.1
conv_thr = 1e-06
/
&IONS
ion_dynamics = 'bfgs'
upscale = 1.0
/
&CELL
/

K_POINTS {automatic}
9 6 2 0  0  0

ATOMIC_SPECIES
Al 26.98 Al.pbe-nl-rrkjus_psl.1.0.0.UPF
C 12.01 C.pbe-n-rrkjus_psl.1.0.0.UPF
Hf 178.4 Hf.pbe-spn-rrkjus_psl.1.0.0.UPF
Ni 58.69 ni_pbe_v1.4.uspp.F.UPF

CELL_PARAMETERS {angstrom}
6.09317000 0.00000000 0.00000000
0.00000000 8.61704000 0.00000000
0.00000000 0.00000000 26.46280000

ATOMIC_POSITIONS {angstrom}
Hf 0.00000000 0.00000000 23.23142749
Hf 3.04658500 2.15426000 25.38576404
Hf 3.04658500 6.46278000 25.38576404
Hf 0.00000000 4.30852000 23.23142749
Hf 0.00000000 4.30852000 1.03416622
Hf 3.04658500 6.45640339 3.34489792
Hf 3.04658500 2.16063661 3.34489792
Hf 0.00000000 0.00000000 1.05560109
Al 0.00000000 6.46278000 25.38576404
Al 3.04658500 0.00000000 23.23142749
Al 0.00000000 2.15426000 25.38576404
Al 3.04658500 4.30852000 23.23142749
Al 0.00000000 2.17545792 3.17368360
Al 3.04658500 4.30852000 1.13022619
Al 0.00000000 6.44158208 3.17368360
Al 3.04658500 0.00000000 1.22681541
Ni 1.52329250 0.00000000 25.38576404
Ni 4.56987750 4.30852000 25.38576404
Ni 4.56987750 0.00000000 25.38576404
Ni 1.52329250 4.30852000 25.38576404
Ni 4.56987750 6.46278000 23.23142749
Ni 1.52329250 2.15426000 23.23142749
Ni 1.52329250 6.46278000 23.23142749
Ni 4.56987750 2.15426000 23.23142749
Ni 1.41142190 4.30852000 3.10329256
Ni 4.86509159 0.00000000 3.24275151
Ni 4.68174810 4.30852000 3.10329256
Ni 1.22807841 0.00000000 3.24275151
Ni 4.45971299 2.17097706 1.12731528
Ni 1.63345701 6.44606294 1.12731528
Ni 1.63345701 2.17097706 1.12731528
Ni 4.45971299 6.44606294 1.12731528
C 3.04658500 0.00000000 3.64075202
