&CONTROL
calculation = 'relax'
prefix = 'scf'
pseudo_dir = '/vol0004/mdt0/data/hp150275/u10028/POT_KKJUS'
outdir = './data'
tprnfor = .true.
nstep = 50
disk_io = 'non'
/
&SYSTEM
ibrav = 0
ecutwfc = 50.0
ecutrho = 400
occupations = 'smearing'
smearing = 'mp'
degauss = 0.01
assume_isolated = 'esm'
esm_bc = 'bc1'
input_dft = 'BEEF-VDW'
nosym = .true.
nspin = 1
ntyp = 2
nat = 16
/
&ELECTRONS
electron_maxstep = 200
mixing_beta = 0.1
conv_thr = 1e-06
/
&IONS
ion_dynamics = 'bfgs'
upscale = 1.0
/
&CELL
/

K_POINTS {automatic}
8 11 2 0  0  0

ATOMIC_SPECIES
Mg 24.30 Mg.pbe-spnl-rrkjus_psl.1.0.0.UPF
Pd 106.4 Pd.pbe-n-rrkjus_psl.1.0.0.UPF

CELL_PARAMETERS {angstrom}
8.03636000 0.00000000 0.00000000
0.00000000 5.68257000 0.00000000
0.00000000 0.00000000 24.26190000

ATOMIC_POSITIONS {angstrom}
Mg 0.00000000 0.00000000 1.96036152
Mg 0.00000000 2.84128500 -0.7103884300000018 0 0 0
Mg 4.01818000 0.00000000 1.96036152
Mg 4.01818000 2.84128500 -0.7103884300000018 0 0 0
Pd 0.00000000 2.84128500 2.05862221
Pd 2.00909000 4.26181385 0.72615867
Pd 2.00909000 1.42075615 0.72615867
Pd 0.00000000 0.00000000 -0.7103884300000018 0 0 0
Pd 2.00909000 1.42064250 -2.130922680000001 0 0 0
Pd 2.00909000 4.26192750 -2.130922680000001 0 0 0
Pd 4.01818000 2.84128500 2.05862221
Pd 6.02727000 4.26187067 0.72615867
Pd 6.02727000 1.42069933 0.72615867
Pd 4.01818000 0.00000000 -0.7103884300000018 0 0 0
Pd 6.02727000 1.42064250 -2.130922680000001 0 0 0
Pd 6.02727000 4.26192750 -2.130922680000001 0 0 0
