&CONTROL
calculation = 'relax'
prefix = 'scf'
pseudo_dir = '/vol0004/mdt0/data/hp150275/u10028/POT_HYBRID_KKJUS_GBRV'
outdir = './data'
tprnfor = .true.
nstep = 50
disk_io = 'non'
/
&SYSTEM
ibrav = 0
ecutwfc = 50.0
ecutrho = 400
occupations = 'smearing'
smearing = 'mp'
degauss = 0.01
assume_isolated = 'esm'
esm_bc = 'bc1'
input_dft = 'BEEF-VDW'
nosym = .true.
nspin = 2
ntyp = 3
nat = 32
starting_magnetization(1) = 0.1
starting_magnetization(2) = 0.1
starting_magnetization(3) = 0.0
/
&ELECTRONS
electron_maxstep = 200
mixing_beta = 0.1
conv_thr = 1e-06
/
&IONS
ion_dynamics = 'bfgs'
upscale = 1.0
/
&CELL
/

K_POINTS {automatic}
9 6 2 0  0  0

ATOMIC_SPECIES
Co 58.93 co_pbe_v1.2.uspp.F.UPF
Cr 51.99 cr_pbe_v1.5.uspp.F.UPF
Ga 69.72 Ga.pbe-dnl-rrkjus_psl.1.0.0.UPF

CELL_PARAMETERS {angstrom}
5.73361000 0.00000000 0.00000000
0.00000000 8.10855000 0.00000000
0.00000000 0.00000000 26.08140000

ATOMIC_POSITIONS {angstrom}
Cr 0.00000000 0.00000000 23.04056957
Cr 2.86680500 2.02713750 25.06787680
Cr 2.86680500 6.08141250 25.06787680
Cr 0.00000000 4.05427500 23.04056957
Cr 0.00000000 4.05427500 1.06020891
Cr 2.86680500 6.08141250 3.05647927
Cr 2.86680500 2.02713750 3.05647927
Cr 0.00000000 0.00000000 1.06020891
Ga 0.00000000 6.08141250 25.06787680
Ga 2.86680500 0.00000000 23.04056957
Ga 0.00000000 2.02713750 25.06787680
Ga 2.86680500 4.05427500 23.04056957
Ga 0.00000000 2.02754293 3.11959625
Ga 2.86680500 4.05435609 1.02160844
Ga 0.00000000 6.08100707 3.11959625
Ga 2.86680500 8.10846891 1.02134762
Co 1.43340250 0.00000000 25.06787680
Co 4.30020750 4.05427500 25.06787680
Co 4.30020750 0.00000000 25.06787680
Co 1.43340250 4.05427500 25.06787680
Co 4.30020750 6.08141250 23.04056957
Co 1.43340250 2.02713750 23.04056957
Co 1.43340250 6.08141250 23.04056957
Co 4.30020750 2.02713750 23.04056957
Co 1.41494028 4.05427500 2.97510530
Co 4.31855505 0.00000000 2.97562693
Co 4.31866972 4.05427500 2.97510530
Co 1.41505495 0.00000000 2.97562693
Co 4.29510459 2.02754293 1.00595960
Co 1.43850541 6.08100707 1.00595960
Co 1.43850541 2.02754293 1.00595960
Co 4.29510459 6.08100707 1.00595960
