&CONTROL
calculation = 'relax'
prefix = 'scf'
pseudo_dir = '/vol0403/data/hp230205/u10028/POT_HYBRID_KKJUS_GBRV'
outdir = './data'
tprnfor = .true.
nstep = 50
disk_io = 'non'
/
&SYSTEM
ibrav = 0
ecutwfc = 50.0
ecutrho = 400
occupations = 'smearing'
smearing = 'mp'
degauss = 0.01
assume_isolated = 'esm'
esm_bc = 'bc1'
input_dft = 'BEEF-VDW'
nosym = .true.
nspin = 1
ntyp = 5
nat = 17
/
&ELECTRONS
electron_maxstep = 200
mixing_beta = 0.1
conv_thr = 1e-06
/
&IONS
ion_dynamics = 'bfgs'
upscale = 1.0
/
&CELL
/

K_POINTS {automatic}
11 7 2 0  0  0

ATOMIC_SPECIES
C 12.01 C.pbe-n-rrkjus_psl.1.0.0.UPF
Ge 72.64 Ge.pbe-dn-rrkjus_psl.1.0.0.UPF
In 114.8 In.pbe-dn-rrkjus_psl.1.0.0.UPF
Li 6.941 Li.pbe-sl-rrkjus_psl.1.0.0.UPF
Y 88.90 Y.pbe-spn-rrkjus_psl.1.0.0.UPF


CELL_PARAMETERS {angstrom}
6.03525000 0.00000000 0.00000000
0.00000000 9.31878000 0.00000000
0.00000000 0.00000000 24.52620000

ATOMIC_POSITIONS {angstrom}
Li 4.51183220 2.32969500 -0.7544259099999984 0 0 0
Li 1.78993444 1.68576730 2.59585301
Li 4.51183220 6.98908500 -0.7544259099999984 0 0 0
Li 1.78993444 7.63291951 2.59585301
Y 3.01762500 0.00000000 -2.263032469999999 0 0 0
Y 0.01363967 0.00000000 0.58740249
Y 3.01762500 4.65939000 -2.263032469999999 0 0 0
Y 5.97266446 4.65939000 0.91384621
In 1.49420720 2.32969500 -0.7544259099999984 0 0 0
In 4.62282044 2.01341561 2.59021198
In 1.49420720 6.98908500 -0.7544259099999984 0 0 0
In 4.62282044 7.30527121 2.59021198
Ge 0.00000000 0.00000000 -2.263032469999999 0 0 0
Ge 3.11575816 0.00000000 0.53516168
Ge 0.00000000 4.65939000 -2.263032469999999 0 0 0
Ge 3.00627873 4.65948319 0.93493874
C 3.24937860 0.00000000 2.49627664
