&CONTROL
calculation = 'relax'
prefix = 'scf'
pseudo_dir = '/vol0004/mdt0/data/hp150275/u10028/POT_HYBRID_KKJUS_GBRV'
outdir = './data'
tprnfor = .true.
nstep = 50
disk_io = 'non'
/
&SYSTEM
ibrav = 0
ecutwfc = 50.0
ecutrho = 400
occupations = 'smearing'
smearing = 'mp'
degauss = 0.01
assume_isolated = 'esm'
esm_bc = 'bc1'
input_dft = 'BEEF-VDW'
nosym = .true.
nspin = 2
ntyp = 4
nat = 33
starting_magnetization(1) = 0.0
starting_magnetization(2) = 0.0
starting_magnetization(3) = 0.001
starting_magnetization(4) = 0.0
/
&ELECTRONS
electron_maxstep = 200
mixing_beta = 0.1
conv_thr = 1e-06
/
&IONS
ion_dynamics = 'bfgs'
upscale = 1.0
/
&CELL
/

K_POINTS {automatic}
9 6 2 0  0  0

ATOMIC_SPECIES
C 12.01 C.pbe-n-rrkjus_psl.1.0.0.UPF
Ga 69.72 Ga.pbe-dnl-rrkjus_psl.1.0.0.UPF
Ni 58.69 ni_pbe_v1.4.uspp.F.UPF
Zr 91.22 Zr.pbe-spn-rrkjus_psl.1.0.0.UPF

CELL_PARAMETERS {angstrom}
6.13924000 0.00000000 0.00000000
0.00000000 8.68219000 0.00000000
0.00000000 0.00000000 26.51160000

ATOMIC_POSITIONS {angstrom}
Zr 0.00000000 0.00000000 23.25571040
Zr 3.06962000 2.17054750 25.42621510
Zr 3.06962000 6.51164250 25.42621510
Zr 0.00000000 4.34109500 23.25571040
Zr 0.00000000 4.34048725 1.04190588
Zr 3.06962000 6.42117408 3.34046160
Zr 3.06962000 2.26127639 3.33993137
Zr 0.00000000 0.00008682 1.11110116
Ga 0.00000000 6.51164250 25.42621510
Ga 3.06962000 0.00000000 23.25571040
Ga 0.00000000 2.17054750 25.42621510
Ga 3.06962000 4.34109500 23.25571040
Ga 0.00000000 2.18200799 3.25721518
Ga 3.06962000 4.34109500 1.11163139
Ga 0.00000000 6.50000837 3.25827564
Ga 3.06962000 0.00034729 1.09015699
Ni 1.53481000 0.00000000 25.42621510
Ni 4.60443000 4.34109500 25.42621510
Ni 4.60443000 0.00000000 25.42621510
Ni 1.53481000 4.34109500 25.42621510
Ni 4.60443000 6.51164250 23.25571040
Ni 1.53481000 2.17054750 23.25571040
Ni 1.53481000 6.51164250 23.25571040
Ni 4.60443000 2.17054750 23.25571040
Ni 1.39815052 4.34178958 3.18801990
Ni 4.36414015 8.68201636 3.26622912
Ni 4.74108948 4.34178958 3.18801990
Ni 1.77509985 8.68201636 3.26622912
Ni 4.50393064 2.18634909 1.14556624
Ni 1.63561632 6.49531998 1.14556624
Ni 1.63530936 2.18634909 1.14556624
Ni 4.50362368 6.49531998 1.14556624
C 0.00000000 8.68201636 3.53373116
