&CONTROL
calculation = 'relax'
prefix = 'scf'
pseudo_dir = '/vol0004/mdt0/data/hp150275/u10028/POT_KKJUS'
outdir = './data'
tprnfor = .true.
nstep = 50
disk_io = 'non'
/
&SYSTEM
ibrav = 0
ecutwfc = 50.0
ecutrho = 400
occupations = 'smearing'
smearing = 'mp'
degauss = 0.01
assume_isolated = 'esm'
esm_bc = 'bc1'
input_dft = 'BEEF-VDW'
nosym = .true.
nspin = 1
ntyp = 5
nat = 34
/
&ELECTRONS
electron_maxstep = 200
mixing_beta = 0.1
conv_thr = 1e-06
/
&IONS
ion_dynamics = 'bfgs'
upscale = 1.0
/
&CELL
/

K_POINTS {automatic}
8 6 2 0  0  0

ATOMIC_SPECIES
Au 196.9 Au.pbe-n-rrkjus_psl.1.0.0.UPF
C 12.01 C.pbe-n-rrkjus_psl.1.0.0.UPF
In 114.8 In.pbe-dn-rrkjus_psl.1.0.0.UPF
O 15.99 O.pbe-n-rrkjus_psl.1.0.0.UPF
Y 88.90 Y.pbe-spn-rrkjus_psl.1.0.0.UPF

CELL_PARAMETERS {angstrom}
7.06522000 0.00000000 0.00000000
0.00000000 9.99173000 0.00000000
0.00000000 0.00000000 27.49380000

ATOMIC_POSITIONS {angstrom}
Y 0.00000000 0.00000000 -3.7468550600000015 0 0 0
Y 3.53261000 2.49793250 -1.2490433299999992 0 0 0
Y 3.53261000 7.49379750 -1.2490433299999992 0 0 0
Y 0.00000000 4.99586500 -3.7468550600000015 0 0 0
Y 0.00000000 4.99506566 1.37633963
Y 3.53261000 7.50139121 3.63248086
Y 3.53261000 2.49203738 3.60416224
Y 0.00000000 0.00109909 1.37743938
In 0.00000000 7.49379750 -1.2490433299999992 0 0 0
In 3.53261000 0.00000000 -3.7468550600000015 0 0 0
In 0.00000000 2.49793250 -1.2490433299999992 0 0 0
In 3.53261000 4.99586500 -3.7468550600000015 0 0 0
In 0.00000000 2.50522646 3.90356972
In 3.53261000 4.99216806 1.22649842
In 0.00000000 7.48770254 3.92473995
In 3.53261000 0.00309744 1.22787311
Au 1.76630500 0.00000000 -1.2490433299999992 0 0 0
Au 5.29891500 4.99586500 -1.2490433299999992 0 0 0
Au 5.29891500 0.00000000 -1.2490433299999992 0 0 0
Au 1.76630500 4.99586500 -1.2490433299999992 0 0 0
Au 5.29891500 7.49379750 -3.7468550600000015 0 0 0
Au 1.76630500 2.49793250 -3.7468550600000015 0 0 0
Au 1.76630500 7.49379750 -3.7468550600000015 0 0 0
Au 5.29891500 2.49793250 -3.7468550600000015 0 0 0
Au 1.79894632 4.99126880 3.87470123
Au 5.28273565 0.00669446 3.88487394
Au 5.26627368 4.99126880 3.87470123
Au 1.78248435 0.00669446 3.88487394
Au 5.33304001 2.49853200 1.22402398
Au 1.72885933 7.49389742 1.25289247
Au 1.73225064 2.49853200 1.22402398
Au 5.33636067 7.49389742 1.25289247
C 0.00000000 2.52281191 7.80164069
O 0.00000000 2.49913151 8.93603488
