&CONTROL
calculation = 'relax'
prefix = 'scf'
pseudo_dir = '/vol0004/mdt0/data/hp150275/u10028/POT_HYBRID_KKJUS_GBRV'
outdir = './data'
tprnfor = .true.
nstep = 50
disk_io = 'non'
/
&SYSTEM
ibrav = 0
ecutwfc = 50.0
ecutrho = 400
occupations = 'smearing'
smearing = 'mp'
degauss = 0.01
assume_isolated = 'esm'
esm_bc = 'bc1'
input_dft = 'BEEF-VDW'
nosym = .true.
nspin = 2
ntyp = 4
nat = 33
starting_magnetization(1) = 0.0
starting_magnetization(2) = 0.1
starting_magnetization(3) = 0.0
starting_magnetization(4) = 0.0
/
&ELECTRONS
electron_maxstep = 300
mixing_beta = 0.1
conv_thr = 1e-06
/
&IONS
ion_dynamics = 'bfgs'
upscale = 1.0
/
&CELL
/

K_POINTS {automatic}
8 6 1 0 0 0

ATOMIC_SPECIES
C 12.01 C.pbe-n-rrkjus_psl.1.0.0.UPF
Co 58.93 co_pbe_v1.2.uspp.F.UPF
Ga 69.72 Ga.pbe-dnl-rrkjus_psl.1.0.0.UPF
V 50.94 V.pbe-spnl-rrkjus_psl.1.0.0.UPF

CELL_PARAMETERS {angstrom}
5.77968000 0.00000000 0.00000000
0.00000000 8.17370000 0.00000000
0.00000000 0.00000000 26.13030000

ATOMIC_POSITIONS {angstrom}
V 0.00000000 0.00000000 -3.0650841899999968 0 0 0
V 2.88984000 2.04342500 -1.0216947299999966 0 0 0
V 2.88984000 6.13027500 -1.0216947299999966 0 0 0
V 0.00000000 4.08685000 -3.0650841899999968 0 0 0
V 5.75661908 4.09968271 1.06167409
V 2.91440364 6.13019326 3.03216001
V 3.21448463 2.04350674 2.95821126
V 5.75661908 8.16094903 1.06167409
Ga 0.00000000 6.13027500 -1.0216947299999966 0 0 0
Ga 2.88984000 0.00000000 -3.0650841899999968 0 0 0
Ga 0.00000000 2.04342500 -1.0216947299999966 0 0 0
Ga 2.88984000 4.08685000 -3.0650841899999968 0 0 0
Ga 5.40775759 2.04309805 3.99297114
Ga 2.86539195 4.06944002 1.01725258
Ga 0.06479021 6.13060195 3.27255877
Ga 2.86533416 0.01740998 1.01751388
Co 1.44492000 0.00000000 -1.0216947299999966 0 0 0
Co 4.33476000 4.08685000 -1.0216947299999966 0 0 0
Co 4.33476000 0.00000000 -1.0216947299999966 0 0 0
Co 1.44492000 4.08685000 -1.0216947299999966 0 0 0
Co 4.33476000 6.13027500 -3.0650841899999968 0 0 0
Co 1.44492000 2.04342500 -3.0650841899999968 0 0 0
Co 1.44492000 6.13027500 -3.0650841899999968 0 0 0
Co 4.33476000 2.04342500 -3.0650841899999968 0 0 0
Co 1.27806064 3.96367234 2.93939745
Co 4.34256257 8.11803710 2.96709556
Co 4.34256257 4.14234942 2.96709556
Co 1.27794504 0.12325940 2.93913614
Co 4.35886127 2.04326153 0.96264025
Co 1.45699953 6.13043847 1.05461891
Co 1.34666544 2.04326153 1.13353241
Co 4.32689964 6.13043847 1.07369403
C 1.40943276 2.04350674 3.22709205
