&CONTROL
calculation = 'relax'
prefix = 'scf'
pseudo_dir = '/vol0004/mdt0/data/hp150275/u10028/POT_KKJUS'
outdir = './data'
tprnfor = .true.
nstep = 50
disk_io = 'non'
/
&SYSTEM
ibrav = 0
ecutwfc = 50.0
ecutrho = 400
occupations = 'smearing'
smearing = 'mp'
degauss = 0.01
assume_isolated = 'esm'
esm_bc = 'bc1'
input_dft = 'BEEF-VDW'
nosym = .true.
nspin = 1
ntyp = 4
nat = 34
/
&ELECTRONS
electron_maxstep = 200
mixing_beta = 0.1
conv_thr = 1e-06
/
&IONS
ion_dynamics = 'bfgs'
upscale = 1.0
/
&CELL
/

K_POINTS {automatic}
9 6 2 0  0  0

ATOMIC_SPECIES
C 12.01 C.pbe-n-rrkjus_psl.1.0.0.UPF
In 114.8 In.pbe-dn-rrkjus_psl.1.0.0.UPF
O 15.99 O.pbe-n-rrkjus_psl.1.0.0.UPF
Pd 106.4 Pd.pbe-n-rrkjus_psl.1.0.0.UPF

CELL_PARAMETERS {angstrom}
6.68646000 0.00000000 0.00000000
0.00000000 9.45609000 0.00000000
0.00000000 0.00000000 27.09210000

ATOMIC_POSITIONS {angstrom}
In 0.00000000 0.00000000 -3.546084969999999 0 0 0
In 0.00000000 2.36402250 -1.182028319999997 0 0 0
In 0.00006686 9.44247323 1.20424384
In 0.00006686 2.36402250 3.68886034
In 0.00000000 4.72804500 -3.546084969999999 0 0 0
In 0.00000000 7.09206750 -1.182028319999997 0 0 0
In 0.00006686 4.74166177 1.20424384
In 0.00006686 7.09206750 3.75875795
In 3.34323000 0.00000000 -3.546084969999999 0 0 0
In 3.34323000 2.36402250 -1.182028319999997 0 0 0
In 3.34329686 0.00595734 1.20695305
In 3.34329686 2.36402250 3.74927572
In 3.34323000 4.72804500 -3.546084969999999 0 0 0
In 3.34323000 7.09206750 -1.182028319999997 0 0 0
In 3.34329686 4.72208766 1.20695305
In 3.34329686 7.09206750 3.70945033
Pd 1.67161500 2.36402250 -3.546084969999999 0 0 0
Pd 1.67161500 0.00000000 -1.182028319999997 0 0 0
Pd 1.66626583 2.36402250 1.13380438
Pd 1.66907415 9.45542807 3.44178038
Pd 1.67161500 7.09206750 -3.546084969999999 0 0 0
Pd 1.67161500 4.72804500 -1.182028319999997 0 0 0
Pd 1.67689730 7.09206750 1.13949373
Pd 1.66907415 4.72870693 3.44205130
Pd 5.01484500 2.36402250 -3.546084969999999 0 0 0
Pd 5.01484500 0.00000000 -1.182028319999997 0 0 0
Pd 5.02026103 2.36402250 1.13380438
Pd 5.01745272 9.45542807 3.44178038
Pd 5.01484500 7.09206750 -3.546084969999999 0 0 0
Pd 5.01484500 4.72804500 -1.182028319999997 0 0 0
Pd 5.00962956 7.09206750 1.13949373
Pd 5.01745272 4.72870693 3.44178038
C 6.68445406 2.36392794 7.57088734
O 0.00006686 2.36402250 8.70550449
