&CONTROL
calculation = 'relax'
prefix = 'scf'
pseudo_dir = '/vol0004/mdt0/data/hp150275/u10028/POT_HYBRID_KKJUS_GBRV'
outdir = './data'
tprnfor = .true.
nstep = 50
disk_io = 'non'
/
&SYSTEM
ibrav = 0
ecutwfc = 50.0
ecutrho = 400
occupations = 'smearing'
smearing = 'mp'
degauss = 0.01
assume_isolated = 'esm'
esm_bc = 'bc1'
input_dft = 'BEEF-VDW'
nosym = .true.
nspin = 2
ntyp = 5
nat = 34
starting_magnetization(1) = 0.0
starting_magnetization(2) = 0.001
starting_magnetization(3) = 0.0
starting_magnetization(4) = 0.0
starting_magnetization(5) = 0.0
/
&ELECTRONS
electron_maxstep = 300
mixing_beta = 0.1
conv_thr = 1e-06
/
&IONS
ion_dynamics = 'bfgs'
upscale = 1.0
/
&CELL
/

K_POINTS {automatic}
8 6 1 0 0 0

ATOMIC_SPECIES
C 12.01 C.pbe-n-rrkjus_psl.1.0.0.UPF
Ni 58.69 ni_pbe_v1.4.uspp.F.UPF
O 15.99 O.pbe-n-rrkjus_psl.1.0.0.UPF
Sb 121.7 Sb.pbe-n-rrkjus_psl.1.0.0.UPF
Zr 91.22 Zr.pbe-spn-rrkjus_psl.1.0.0.UPF

CELL_PARAMETERS {angstrom}
6.34024000 0.00000000 0.00000000
0.00000000 8.96645000 0.00000000
0.00000000 0.00000000 26.72480000

ATOMIC_POSITIONS {angstrom}
Zr 0.00000000 0.00000000 -3.362514339999997 0 0 0
Zr 3.17012000 2.24161250 -1.1208381099999976 0 0 0
Zr 3.17012000 6.72483750 -1.1208381099999976 0 0 0
Zr 0.00000000 4.48322500 -3.362514339999997 0 0 0
Zr 6.33275852 4.48322500 1.09384606
Zr 3.16656947 6.71838166 3.35663488
Zr 3.16644266 2.24806834 3.35690213
Zr 0.02358569 0.00017933 1.11228618
Ni 1.58506000 0.00000000 -1.1208381099999976 0 0 0
Ni 4.75518000 4.48322500 -1.1208381099999976 0 0 0
Ni 4.75518000 0.00000000 -1.1208381099999976 0 0 0
Ni 1.58506000 4.48322500 -1.1208381099999976 0 0 0
Ni 4.75518000 6.72483750 -3.362514339999997 0 0 0
Ni 1.58506000 2.24161250 -3.362514339999997 0 0 0
Ni 1.58506000 6.72483750 -3.362514339999997 0 0 0
Ni 4.75518000 2.24161250 -3.362514339999997 0 0 0
Ni 1.76911717 4.48313534 3.14818144
Ni 4.75892074 0.00008966 3.08564541
Ni 4.54468403 4.48313534 3.14791419
Ni 1.62582774 0.00000000 3.48331043
Ni 4.79626476 2.22645920 1.24136696
Ni 1.55373921 6.72214757 1.30283400
Ni 1.55450004 2.24448176 1.30256675
Ni 4.79734260 6.74008047 1.24136696
Sb 0.00000000 6.72483750 -1.1208381099999976 0 0 0
Sb 3.17012000 0.00000000 -3.362514339999997 0 0 0
Sb 0.00000000 2.24161250 -1.1208381099999976 0 0 0
Sb 3.17012000 4.48322500 -3.362514339999997 0 0 0
Sb 6.29674595 2.32509015 3.55920886
Sb 3.16073644 4.48340433 1.01286992
Sb 6.29668255 6.64135985 3.55974336
Sb 3.13556569 8.96627067 1.09250982
C 2.27145438 8.96636034 5.11512672
O 2.55207340 0.00000000 6.24799099
