&CONTROL
calculation = 'relax'
prefix = 'scf'
pseudo_dir = '/vol0004/mdt0/data/hp150275/u10028/POT_KKJUS'
outdir = './data'
tprnfor = .true.
nstep = 50
disk_io = 'non'
/
&SYSTEM
ibrav = 0
ecutwfc = 50.0
ecutrho = 400
occupations = 'smearing'
smearing = 'mp'
degauss = 0.01
assume_isolated = 'esm'
esm_bc = 'bc1'
input_dft = 'BEEF-VDW'
nosym = .true.
nspin = 1
ntyp = 3
nat = 17
/
&ELECTRONS
electron_maxstep = 200
mixing_beta = 0.1
conv_thr = 1e-06
/
&IONS
ion_dynamics = 'bfgs'
upscale = 1.0
/
&CELL
/

K_POINTS {automatic}
6 8 1 0 0 0

ATOMIC_SPECIES
C 12.01 C.pbe-n-rrkjus_psl.1.0.0.UPF
Ti 47.86 Ti.pbe-spn-rrkjus_psl.1.0.0.UPF
Zn 65.40 Zn.pbe-dnl-rrkjus_psl.1.0.0.UPF

CELL_PARAMETERS {angstrom}
7.87849000 0.00000000 0.00000000
0.00000000 5.57094000 0.00000000
0.00000000 0.00000000 24.17820000

ATOMIC_POSITIONS {angstrom}
Ti 0.00000000 0.00000000 -2.0889964799999987 0 0 0
Ti 0.00000000 2.78547000 0.59018986
Ti 3.93924500 0.00000000 -2.0889964799999987 0 0 0
Ti 3.93924500 2.78547000 0.72969808
Zn 0.00000000 2.78547000 -2.0889964799999987 0 0 0
Zn 1.96962250 4.17820500 -0.6963321600000008 0 0 0
Zn 1.96962250 1.39273500 -0.6963321600000008 0 0 0
Zn 0.00000000 0.00000000 0.61751123
Zn 1.81764643 1.43992086 2.13952892
Zn 1.81764643 4.13101914 2.13952892
Zn 3.93924500 2.78547000 -2.0889964799999987 0 0 0
Zn 5.90886750 4.17820500 -0.6963321600000008 0 0 0
Zn 5.90886750 1.39273500 -0.6963321600000008 0 0 0
Zn 3.93924500 0.00000000 1.22341692
Zn 6.06084357 1.43992086 2.13952892
Zn 6.06084357 4.13101914 2.13952892
C 7.87841122 2.78547000 2.47971619
