&CONTROL
calculation = 'relax'
prefix = 'scf'
pseudo_dir = '/vol0004/mdt0/data/hp150275/u10028/POT_KKJUS'
outdir = './data'
tprnfor = .true.
nstep = 50
disk_io = 'non'
/
&SYSTEM
ibrav = 0
ecutwfc = 50.0
ecutrho = 400
occupations = 'smearing'
smearing = 'mp'
degauss = 0.01
assume_isolated = 'esm'
esm_bc = 'bc1'
input_dft = 'BEEF-VDW'
nosym = .true.
nspin = 1
ntyp = 4
nat = 17
/
&ELECTRONS
electron_maxstep = 200
mixing_beta = 0.1
conv_thr = 1e-06
/
&IONS
ion_dynamics = 'bfgs'
upscale = 1.0
/
&CELL
/

K_POINTS {automatic}
8 8 1 0 0 0

ATOMIC_SPECIES
Al 26.98 Al.pbe-nl-rrkjus_psl.1.0.0.UPF
C 12.01 C.pbe-n-rrkjus_psl.1.0.0.UPF
Cu 63.54 Cu.pbe-dn-rrkjus_psl.1.0.0.UPF
Sc 44.95 Sc.pbe-spn-rrkjus_psl.1.0.0.UPF

CELL_PARAMETERS {angstrom}
6.23499000 0.00000000 0.00000000
-0.00000000 6.23499000 0.00000000
0.00000000 0.00000000 24.67620000

ATOMIC_POSITIONS {angstrom}
Sc 0.00000000 0.00000000 -2.3380699500000013 0 0 0
Sc 3.11749500 3.11749500 -2.3380699500000013 0 0 0
Sc 3.11749500 -0.00000000 0.77927440
Sc 0.00000000 3.11749500 0.77927440
Al 0.00000000 0.00000000 0.77927440
Al 3.11749500 0.00000000 -2.3380699500000013 0 0 0
Al 0.00000000 3.11749500 -2.3380699500000013 0 0 0
Al 3.11749500 3.11749500 0.77927440
Cu 1.55874750 1.55874750 -0.779274400000002 0 0 0
Cu 4.67624250 4.67624250 2.33806995
Cu 4.67624250 1.55874750 -0.779274400000002 0 0 0
Cu 1.55874750 4.67624250 2.33806995
Cu 4.67624250 4.67624250 -0.779274400000002 0 0 0
Cu 1.55874750 1.55874750 2.33806995
Cu 1.55874750 4.67624250 -0.779274400000002 0 0 0
Cu 4.67624250 1.55874750 2.33806995
C 0.00000000 3.11749500 3.13807235
