&CONTROL
calculation = 'relax'
prefix = 'scf'
pseudo_dir = '/vol0004/mdt0/data/hp150275/u10028/POT_HYBRID_KKJUS_GBRV'
outdir = './data'
tprnfor = .true.
nstep = 50
disk_io = 'non'
/
&SYSTEM
ibrav = 0
ecutwfc = 50.0
ecutrho = 400
occupations = 'smearing'
smearing = 'mp'
degauss = 0.01
assume_isolated = 'esm'
esm_bc = 'bc1'
input_dft = 'BEEF-VDW'
nosym = .true.
nspin = 2
ntyp = 3
nat = 32
starting_magnetization(1) = 0.1
starting_magnetization(2) = 0.1
starting_magnetization(3) = 0.0
/
&ELECTRONS
electron_maxstep = 300
mixing_beta = 0.1
conv_thr = 1e-06
/
&IONS
ion_dynamics = 'bfgs'
upscale = 1.0
/
&CELL
/

K_POINTS {automatic}
8 6 1 0 0 0

ATOMIC_SPECIES
Co 58.93 co_pbe_v1.2.uspp.F.UPF
Fe 55.84 fe_pbe_v1.5.uspp.F.UPF
Si 28.08 Si.pbe-nl-rrkjus_psl.1.0.0.UPF

CELL_PARAMETERS {angstrom}
5.64511000 0.00000000 0.00000000
0.00000000 7.98338000 0.00000000
0.00000000 0.00000000 25.98750000

ATOMIC_POSITIONS {angstrom}
Fe 0.00000000 0.00000000 -2.9937600000000018 0 0 0
Fe 2.82255500 1.99584500 -0.9979200000000006 0 0 0
Fe 2.82255500 5.98753500 -0.9979200000000006 0 0 0
Fe 0.00000000 3.99169000 -2.9937600000000018 0 0 0
Fe 0.00000000 3.99169000 0.99792000
Fe 2.82255500 5.98753500 2.99376000
Fe 2.82255500 1.99584500 2.99376000
Fe 0.00000000 0.00000000 0.99792000
Co 1.41127750 0.00000000 -0.9979200000000006 0 0 0
Co 4.23383250 3.99169000 -0.9979200000000006 0 0 0
Co 4.23383250 0.00000000 -0.9979200000000006 0 0 0
Co 1.41127750 3.99169000 -0.9979200000000006 0 0 0
Co 4.23383250 5.98753500 -2.9937600000000018 0 0 0
Co 1.41127750 1.99584500 -2.9937600000000018 0 0 0
Co 1.41127750 5.98753500 -2.9937600000000018 0 0 0
Co 4.23383250 1.99584500 -2.9937600000000018 0 0 0
Co 1.41127750 3.99169000 2.99376000
Co 4.23383250 0.00000000 2.99376000
Co 4.23383250 3.99169000 2.99376000
Co 1.41127750 0.00000000 2.99376000
Co 4.23383250 1.99584500 0.99792000
Co 1.41127750 5.98753500 0.99792000
Co 1.41127750 1.99584500 0.99792000
Co 4.23383250 5.98753500 0.99792000
Si 0.00000000 5.98753500 -0.9979200000000006 0 0 0
Si 2.82255500 0.00000000 -2.9937600000000018 0 0 0
Si 0.00000000 1.99584500 -0.9979200000000006 0 0 0
Si 2.82255500 3.99169000 -2.9937600000000018 0 0 0
Si 0.00000000 1.99584500 2.99376000
Si 2.82255500 3.99169000 0.99792000
Si 0.00000000 5.98753500 2.99376000
Si 2.82255500 0.00000000 0.99792000
