&CONTROL
calculation = 'relax'
prefix = 'scf'
pseudo_dir = '/vol0004/mdt0/data/hp150275/u10028/POT_KKJUS'
outdir = './data'
tprnfor = .true.
nstep = 50
disk_io = 'non'
/
&SYSTEM
ibrav = 0
ecutwfc = 50.0
ecutrho = 400
occupations = 'smearing'
smearing = 'mp'
degauss = 0.01
assume_isolated = 'esm'
esm_bc = 'bc1'
input_dft = 'BEEF-VDW'
nosym = .true.
nspin = 1
ntyp = 4
nat = 34
/
&ELECTRONS
electron_maxstep = 200
mixing_beta = 0.1
conv_thr = 1e-06
/
&IONS
ion_dynamics = 'bfgs'
upscale = 1.0
/
&CELL
/

K_POINTS {automatic}
9 6 2 0  0  0

ATOMIC_SPECIES
C 12.01 C.pbe-n-rrkjus_psl.1.0.0.UPF
Ga 69.72 Ga.pbe-dnl-rrkjus_psl.1.0.0.UPF
Ni 58.69 Ni.pbe-spn-rrkjus_psl.1.0.0.UPF
O 15.99 O.pbe-n-rrkjus_psl.1.0.0.UPF

CELL_PARAMETERS {angstrom}
5.87849000 0.00000000 0.00000000
0.00000000 8.31345000 0.00000000
0.00000000 0.00000000 26.23510000

ATOMIC_POSITIONS {angstrom}
Ga 0.00000000 0.00000000 -3.1175169300000007 0 0 0
Ga 0.00000000 2.07836250 -1.0391723099999979 0 0 0
Ga 0.00000000 8.30721491 1.03235119
Ga 0.00005878 2.07786369 3.21379975
Ga 0.00000000 4.15672500 -3.1175169300000007 0 0 0
Ga 0.00000000 6.23508750 -1.0391723099999979 0 0 0
Ga 5.87843122 4.16404084 1.03628645
Ga 0.00005878 6.23442242 3.33054594
Ga 2.93924500 0.00000000 -3.1175169300000007 0 0 0
Ga 2.93924500 2.07836250 -1.0391723099999979 0 0 0
Ga 2.93912743 8.30588476 1.02002069
Ga 2.93918622 2.07794683 3.29119330
Ga 2.93924500 4.15672500 -3.1175169300000007 0 0 0
Ga 2.93924500 6.23508750 -1.0391723099999979 0 0 0
Ga 2.93936257 4.16462278 1.02448066
Ga 2.93918622 6.23342481 3.26390879
Ni 1.46962250 2.07836250 -3.1175169300000007 0 0 0
Ni 1.46962250 0.00000000 -1.0391723099999979 0 0 0
Ni 1.47738211 2.07786369 1.00454198
Ni 1.47238539 8.30663297 2.98975200
Ni 1.46962250 6.23508750 -3.1175169300000007 0 0 0
Ni 1.46962250 4.15672500 -1.0391723099999979 0 0 0
Ni 1.46609541 6.23550317 1.00506668
Ni 1.47115091 4.16146367 2.99526137
Ni 4.40886750 2.07836250 -3.1175169300000007 0 0 0
Ni 4.40886750 0.00000000 -1.0391723099999979 0 0 0
Ni 4.40128425 2.07778056 1.00480433
Ni 4.40610461 8.30663297 2.98975200
Ni 4.40886750 6.23508750 -3.1175169300000007 0 0 0
Ni 4.40886750 4.15672500 -1.0391723099999979 0 0 0
Ni 4.41233581 6.23583571 1.00532903
Ni 4.40739788 4.16146367 2.99552372
C 0.00017635 2.07561906 5.80818879
O 5.87843122 2.08069027 6.94574272
