&CONTROL
calculation = 'relax'
prefix = 'scf'
pseudo_dir = '/vol0403/data/hp230205/u10028/POT_HYBRID_KKJUS_GBRV'
outdir = './data'
tprnfor = .true.
nstep = 50
disk_io = 'non'
/
&SYSTEM
ibrav = 0
ecutwfc = 50.0
ecutrho = 400
occupations = 'smearing'
smearing = 'mp'
degauss = 0.01
assume_isolated = 'esm'
esm_bc = 'bc1'
input_dft = 'BEEF-VDW'
nosym = .true.
nspin = 1
ntyp = 6
nat = 34
/
&ELECTRONS
electron_maxstep = 200
mixing_beta = 0.1
conv_thr = 1e-06
/
&IONS
ion_dynamics = 'bfgs'
upscale = 1.0
/
&CELL
/

K_POINTS {automatic}
7 7 2 0  0  0

ATOMIC_SPECIES
C 12.01 C.pbe-n-rrkjus_psl.1.0.0.UPF
Ge 72.64 Ge.pbe-dn-rrkjus_psl.1.0.0.UPF
In 114.8 In.pbe-dn-rrkjus_psl.1.0.0.UPF
Li 6.941 Li.pbe-sl-rrkjus_psl.1.0.0.UPF
Mg 24.30 Mg.pbe-spnl-rrkjus_psl.1.0.0.UPF
O 15.99 O.pbe-n-rrkjus_psl.1.0.0.UPF


CELL_PARAMETERS {angstrom}
8.75068000 0.00000000 0.00000000
0.00000000 8.41850000 0.00000000
0.00000000 0.00000000 26.30740000

ATOMIC_POSITIONS {angstrom}
Li 2.19869586 0.00000000 1.16436552
Li 2.18767000 0.00000000 -3.1537311100000025 0 0 0
Li 2.23886148 4.20925000 1.05755748
Li 2.18767000 4.20925000 -3.1537311100000025 0 0 0
Li 6.55198414 0.00000000 1.16436552
Li 6.56301000 0.00000000 -3.1537311100000025 0 0 0
Li 6.51181852 4.20925000 1.05755748
Li 6.56301000 4.20925000 -3.1537311100000025 0 0 0
Mg 0.00000000 2.22484118 1.11753835
Mg 0.00000000 2.10462500 -3.1537311100000025 0 0 0
Mg 0.00000000 6.19365882 1.11753835
Mg 0.00000000 6.31387500 -3.1537311100000025 0 0 0
Mg 4.37534000 2.01808282 1.10596310
Mg 4.37534000 2.10462500 -3.1537311100000025 0 0 0
Mg 4.37534000 6.40033300 1.10596310
Mg 4.37534000 6.31387500 -3.1537311100000025 0 0 0
In 2.29871613 2.24007867 3.62121361
In 2.18767000 2.10462500 -1.0512437000000006 0 0 0
In 2.29862862 6.17842133 3.62095054
In 2.18767000 6.31387500 -1.0512437000000006 0 0 0
In 6.45196387 2.24007867 3.62121361
In 6.56301000 2.10462500 -1.0512437000000006 0 0 0
In 6.45205138 6.17842134 3.62095054
In 6.56301000 6.31387500 -1.0512437000000006 0 0 0
Ge 0.00000000 0.00000000 2.83856846
Ge 0.00000000 0.00000000 -1.0512437000000006 0 0 0
Ge 0.00000000 4.20925000 3.13926204
Ge 0.00000000 4.20925000 -1.0512437000000006 0 0 0
Ge 4.37534000 0.00008419 3.19345529
Ge 4.37534000 0.00000000 -1.0512437000000006 0 0 0
Ge 4.37534000 4.20925000 2.85224831
Ge 4.37534000 4.20925000 -1.0512437000000006 0 0 0
C 0.00000000 8.41841581 4.76137633
O 0.00000000 0.00000000 5.92600492
