&CONTROL
calculation = 'relax'
prefix = 'scf'
pseudo_dir = '/vol0004/mdt0/data/hp150275/u10028/POT_KKJUS'
outdir = './data'
tprnfor = .true.
nstep = 50
disk_io = 'non'
/
&SYSTEM
ibrav = 0
ecutwfc = 50.0
ecutrho = 400
occupations = 'smearing'
smearing = 'mp'
degauss = 0.01
assume_isolated = 'esm'
esm_bc = 'bc1'
input_dft = 'BEEF-VDW'
nosym = .true.
nspin = 1
ntyp = 3
nat = 33
/
&ELECTRONS
electron_maxstep = 200
mixing_beta = 0.1
conv_thr = 1e-06
/
&IONS
ion_dynamics = 'bfgs'
upscale = 1.0
/
&CELL
/

K_POINTS {automatic}
8 8 1 0 0 0

ATOMIC_SPECIES
C 12.01 C.pbe-n-rrkjus_psl.1.0.0.UPF
In 114.8 In.pbe-dn-rrkjus_psl.1.0.0.UPF
Sc 44.95 Sc.pbe-spn-rrkjus_psl.1.0.0.UPF

CELL_PARAMETERS {angstrom}
9.13703000 0.00000000 0.00000000
-0.00000000 9.13703000 0.00000000
0.00000000 0.00000000 26.85280000

ATOMIC_POSITIONS {angstrom}
Sc 0.00000000 0.00000000 -3.426417279999999 0 0 0
Sc 0.00000000 0.00000000 1.14204958
Sc 0.00000000 4.56851500 -3.426417279999999 0 0 0
Sc 0.00000000 4.56851500 1.14204958
Sc 4.56851500 0.00000000 -3.426417279999999 0 0 0
Sc 4.56851500 -0.00000000 1.14204958
Sc 4.56851500 4.56851500 -3.426417279999999 0 0 0
Sc 4.56851500 4.56851500 1.14204958
In 0.00000000 2.28425750 -1.1420495799999983 0 0 0
In 2.28425750 0.00000000 -1.1420495799999983 0 0 0
In 2.28425750 2.28425750 -3.426417279999999 0 0 0
In 0.00000000 2.28425750 3.42641728
In 2.28425750 -0.00000000 3.42641728
In 2.28425750 2.28425750 1.14204958
In 0.00000000 6.85277250 -1.1420495799999983 0 0 0
In 2.28425750 4.56851500 -1.1420495799999983 0 0 0
In 2.28425750 6.85277250 -3.426417279999999 0 0 0
In 0.00000000 6.85277250 3.42641728
In 2.28425750 4.56851500 3.42641728
In 2.28425750 6.85277250 1.14204958
In 4.56851500 2.28425750 -1.1420495799999983 0 0 0
In 6.85277250 0.00000000 -1.1420495799999983 0 0 0
In 6.85277250 2.28425750 -3.426417279999999 0 0 0
In 4.56851500 2.28425750 3.42641728
In 6.85277250 -0.00000000 3.42641728
In 6.85277250 2.28425750 1.14204958
In 4.56851500 6.85277250 -1.1420495799999983 0 0 0
In 6.85277250 4.56851500 -1.1420495799999983 0 0 0
In 6.85277250 6.85277250 -3.426417279999999 0 0 0
In 4.56851500 6.85277250 3.42641728
In 6.85277250 4.56851500 3.42641728
In 6.85277250 6.85277250 1.14204958
C 2.28425750 2.28425750 4.22636219
