&CONTROL
calculation = 'relax'
prefix = 'scf'
pseudo_dir = '/vol0004/mdt0/data/hp150275/u10028/POT_HYBRID_KKJUS_GBRV'
outdir = './data'
tprnfor = .true.
nstep = 50
disk_io = 'non'
/
&SYSTEM
ibrav = 0
ecutwfc = 50.0
ecutrho = 400
occupations = 'smearing'
smearing = 'mp'
degauss = 0.01
assume_isolated = 'esm'
esm_bc = 'bc1'
input_dft = 'BEEF-VDW'
nosym = .true.
nspin = 2
ntyp = 5
nat = 34
starting_magnetization(1) = 0.0
starting_magnetization(2) = 0.0
starting_magnetization(3) = 0.001
starting_magnetization(4) = 0.0
starting_magnetization(5) = 0.0
/
&ELECTRONS
electron_maxstep = 200
mixing_beta = 0.1
conv_thr = 1e-06
/
&IONS
ion_dynamics = 'bfgs'
upscale = 1.0
/
&CELL
/

K_POINTS {automatic}
9 6 2 0  0  0

ATOMIC_SPECIES
Al 26.98 Al.pbe-nl-rrkjus_psl.1.0.0.UPF
C 12.01 C.pbe-n-rrkjus_psl.1.0.0.UPF
Ni 58.69 ni_pbe_v1.4.uspp.F.UPF
O 15.99 O.pbe-n-rrkjus_psl.1.0.0.UPF
Ta 180.9 Ta.pbe-spn-rrkjus_psl.1.0.0.UPF

CELL_PARAMETERS {angstrom}
5.99379000 0.00000000 0.00000000
0.00000000 8.47650000 0.00000000
0.00000000 0.00000000 26.35740000

ATOMIC_POSITIONS {angstrom}
Ta 0.00000000 0.00000000 23.17869756
Ta 2.99689500 2.11912500 25.29783252
Ta 2.99689500 6.35737500 25.29783252
Ta 0.00000000 4.23825000 23.17869756
Ta 0.00000000 4.25766118 1.07116474
Ta 2.99689500 6.35762930 3.20163338
Ta 2.99689500 2.11904024 3.13573988
Ta 0.00000000 8.45700405 1.07142831
Al 0.00000000 6.35737500 25.29783252
Al 2.99689500 0.00000000 23.17869756
Al 0.00000000 2.11912500 25.29783252
Al 2.99689500 4.23825000 23.17869756
Al 0.00000000 2.11920976 3.23642515
Al 2.99689500 4.22138177 1.02345784
Al 0.00000000 6.35737500 3.20954060
Al 2.99689500 0.01686824 1.02345784
Ni 1.49844750 0.00000000 25.29783252
Ni 4.49534250 4.23825000 25.29783252
Ni 4.49534250 0.00000000 25.29783252
Ni 1.49844750 4.23825000 25.29783252
Ni 4.49534250 6.35737500 23.17869756
Ni 1.49844750 2.11912500 23.17869756
Ni 1.49844750 6.35737500 23.17869756
Ni 4.49534250 2.11912500 23.17869756
Ni 1.56473882 4.25452488 3.02530237
Ni 4.42917106 8.46022512 3.02556595
Ni 4.42905118 4.25452488 3.02530237
Ni 1.56461894 8.46022512 3.02556595
Ni 4.52752915 2.11920977 1.12308881
Ni 1.56581770 6.35712070 1.10780152
Ni 1.46620091 2.11920977 1.12308881
Ni 4.42797230 6.35712071 1.10780152
C 0.00000000 2.11912500 5.23642466
O 0.00000000 2.11912500 6.38877019
