&CONTROL
calculation = 'relax'
prefix = 'scf'
pseudo_dir = '/vol0403/data/hp230205/u10028/POT_HYBRID_KKJUS_GBRV'
outdir = './data'
tprnfor = .true.
nstep = 50
disk_io = 'non'
/
&SYSTEM
ibrav = 0
ecutwfc = 50.0
ecutrho = 400
occupations = 'smearing'
smearing = 'mp'
degauss = 0.01
assume_isolated = 'esm'
esm_bc = 'bc1'
input_dft = 'BEEF-VDW'
nosym = .true.
nspin = 1
ntyp = 6
nat = 34
/
&ELECTRONS
electron_maxstep = 200
mixing_beta = 0.1
conv_thr = 1e-06
/
&IONS
ion_dynamics = 'bfgs'
upscale = 1.0
/
&CELL
/

K_POINTS {automatic}
9 6 2 0  0  0

ATOMIC_SPECIES
Ag 107.8 Ag.pbe-n-rrkjus_psl.1.0.0.UPF
C 12.01 C.pbe-n-rrkjus_psl.1.0.0.UPF
In 114.8 In.pbe-dn-rrkjus_psl.1.0.0.UPF
Li 6.941 Li.pbe-sl-rrkjus_psl.1.0.0.UPF
O 15.99 O.pbe-n-rrkjus_psl.1.0.0.UPF
Y 88.90 Y.pbe-spn-rrkjus_psl.1.0.0.UPF


CELL_PARAMETERS {angstrom}
6.90709000 0.00000000 0.00000000
0.00000000 9.76810000 0.00000000
0.00000000 0.00000000 27.32610000

ATOMIC_POSITIONS {angstrom}
Li 0.00000000 2.44202500 -1.220930150000001 0 0 0
Li 0.00000000 7.32607500 -1.220930150000001 0 0 0
Li 3.45354500 4.88405000 -3.6630636999999986 0 0 0
Li 3.45354500 0.00000000 -3.6630636999999986 0 0 0
Li 0.92285629 7.42268151 4.92853540
Li 0.91967903 2.34961877 4.91869800
Li 3.59431149 0.00234434 1.29553040
Li 3.57255416 4.88678507 1.35291521
Y 5.18031750 0.00000000 -1.220930150000001 0 0 0
Y 5.18031750 4.88405000 -1.220930150000001 0 0 0
Y 1.72677250 2.44202500 -3.6630636999999986 0 0 0
Y 1.72677250 7.32607500 -3.6630636999999986 0 0 0
Y 5.50011577 4.88571058 3.73657091
Y 5.53686149 9.76712319 3.73465809
Y 1.71889842 7.31279038 1.40538132
Y 1.72083240 2.45863077 1.40401502
In 1.72677250 0.00000000 -1.220930150000001 0 0 0
In 1.72677250 4.88405000 -1.220930150000001 0 0 0
In 5.18031750 2.44202500 -3.6630636999999986 0 0 0
In 5.18031750 7.32607500 -3.6630636999999986 0 0 0
In 1.84322604 4.88483145 3.75078049
In 1.91561234 0.00195362 3.58600410
In 5.23239696 7.32939615 1.23322689
In 5.23308767 2.44222036 1.23377342
Ag 0.00000000 0.00000000 -3.6630636999999986 0 0 0
Ag 0.00000000 4.88405000 -3.6630636999999986 0 0 0
Ag 3.45354500 7.32607500 -1.220930150000001 0 0 0
Ag 3.45354500 2.44202500 -1.220930150000001 0 0 0
Ag 0.01519560 4.88600362 1.17474904
Ag 0.04303117 0.00293043 1.12583532
Ag 3.61696675 2.45589570 3.71143090
Ag 3.61503276 7.31318111 3.71252395
C 6.61119026 9.75598756 5.85734953
O 0.10381356 9.75432698 6.96542289
