&CONTROL
calculation = 'relax'
prefix = 'scf'
pseudo_dir = '/vol0004/mdt0/data/hp150275/u10028/POT_HYBRID_KKJUS_GBRV'
outdir = './data'
tprnfor = .true.
nstep = 50
disk_io = 'non'
/
&SYSTEM
ibrav = 0
ecutwfc = 50.0
ecutrho = 400
occupations = 'smearing'
smearing = 'mp'
degauss = 0.01
assume_isolated = 'esm'
esm_bc = 'bc1'
input_dft = 'BEEF-VDW'
nosym = .true.
nspin = 2
ntyp = 3
nat = 33
starting_magnetization(1) = 0.0
starting_magnetization(2) = 0.0
starting_magnetization(3) = 0.1
/
&ELECTRONS
electron_maxstep = 200
mixing_beta = 0.1
conv_thr = 1e-06
/
&IONS
ion_dynamics = 'bfgs'
upscale = 1.0
/
&CELL
/

K_POINTS {automatic}
7 8 2 0  0  0

ATOMIC_SPECIES
Al 26.98 Al.pbe-nl-rrkjus_psl.1.0.0.UPF
C 12.01 C.pbe-n-rrkjus_psl.1.0.0.UPF
Mn 54.93 mn_pbe_v1.5.uspp.F.UPF

CELL_PARAMETERS {angstrom}
7.76697000 0.00000000 0.00000000
-0.00000000 7.08360000 0.00000000
0.00000000 0.00000000 25.82520000

ATOMIC_POSITIONS {angstrom}
Mn 1.94174250 1.77090000 22.91263394
Mn 3.88348500 1.77090000 24.85443073
Mn 1.94174250 1.77090000 0.97076927
Mn 3.88348500 1.77090000 2.91256606
Mn 1.94174250 5.31270000 22.91263394
Mn 3.88348500 5.31270000 24.85443073
Mn 1.94174250 5.31270000 0.97076927
Mn 3.88348500 5.31270000 2.91256606
Mn 5.82522750 1.77090000 22.91263394
Mn 0.00000000 1.77090000 24.85443073
Mn 5.82522750 1.77090000 0.97076927
Mn 0.00000000 1.77090000 2.91256606
Mn 5.82522750 5.31270000 22.91263394
Mn 0.00000000 5.31270000 24.85443073
Mn 5.82522750 5.31270000 0.97076927
Mn 0.00000000 5.31270000 2.91256606
Al 0.00000000 0.00000000 22.91263394
Al 1.94174250 0.00000000 24.85443073
Al 3.88348500 -0.00000000 0.97076927
Al 1.94174250 -0.00000000 2.91256606
Al 0.00000000 3.54180000 22.91263394
Al 1.94174250 3.54180000 24.85443073
Al 3.88348500 3.54180000 0.97076927
Al 1.94174250 3.54180000 2.91256606
Al 3.88348500 0.00000000 22.91263394
Al 5.82522750 0.00000000 24.85443073
Al 0.00000000 0.00000000 0.97076927
Al 5.82522750 -0.00000000 2.91256606
Al 3.88348500 3.54180000 22.91263394
Al 5.82522750 3.54180000 24.85443073
Al 0.00000000 3.54180000 0.97076927
Al 5.82522750 3.54180000 2.91256606
C 1.94174250 1.77090000 3.71263075
