&CONTROL
calculation = 'relax'
prefix = 'scf'
pseudo_dir = '/vol0004/mdt0/data/hp150275/u10028/POT_KKJUS'
outdir = './data'
tprnfor = .true.
nstep = 50
disk_io = 'non'
/
&SYSTEM
ibrav = 0
ecutwfc = 50.0
ecutrho = 400
occupations = 'smearing'
smearing = 'mp'
degauss = 0.01
assume_isolated = 'esm'
esm_bc = 'bc1'
input_dft = 'BEEF-VDW'
nosym = .true.
nspin = 1
ntyp = 5
nat = 34
/
&ELECTRONS
electron_maxstep = 200
mixing_beta = 0.1
conv_thr = 1e-06
/
&IONS
ion_dynamics = 'bfgs'
upscale = 1.0
/
&CELL
/

K_POINTS {automatic}
9 6 2 0  0  0

ATOMIC_SPECIES
Au 196.9 Au.pbe-n-rrkjus_psl.1.0.0.UPF
C 12.01 C.pbe-n-rrkjus_psl.1.0.0.UPF
Ge 72.64 Ge.pbe-dn-rrkjus_psl.1.0.0.UPF
Li 6.941 Li.pbe-sl-rrkjus_psl.1.0.0.UPF
O 15.99 O.pbe-n-rrkjus_psl.1.0.0.UPF

CELL_PARAMETERS {angstrom}
6.30953000 0.00000000 0.00000000
0.00000000 8.92302000 0.00000000
0.00000000 0.00000000 26.69230000

ATOMIC_POSITIONS {angstrom}
Li 0.00000000 6.69226500 -1.1154712199999999 0 0 0
Li 3.15476500 0.00000000 -3.346146730000001 0 0 0
Li 0.00000000 2.23075500 -1.1154712199999999 0 0 0
Li 3.15476500 4.46151000 -3.346146730000001 0 0 0
Li 1.57738250 2.23075500 -3.346146730000001 0 0 0
Li 1.57738250 6.69226500 -3.346146730000001 0 0 0
Li 4.73214750 4.46151000 -1.1154712199999999 0 0 0
Li 4.73214750 0.00000000 -1.1154712199999999 0 0 0
Li 0.20379782 2.23075500 3.36696672
Li 3.24921866 4.45517466 0.96893049
Li 0.13016560 6.69226500 3.39419287
Li 3.24921866 0.00633534 0.96893049
Li 1.63789089 6.69226500 1.17366043
Li 1.60810991 2.23075500 1.11520429
Li 4.56216876 0.03408594 3.42675747
Li 4.56216876 4.42751329 3.42675747
Ge 0.00000000 0.00000000 -3.346146730000001 0 0 0
Ge 3.15476500 2.23075500 -1.1154712199999999 0 0 0
Ge 3.15476500 6.69226500 -1.1154712199999999 0 0 0
Ge 0.00000000 4.46151000 -3.346146730000001 0 0 0
Ge 6.26302876 4.45446081 1.18754043
Ge 3.19495671 6.69226500 3.55114359
Ge 3.09476137 2.23075500 3.46706285
Ge 6.26302876 0.00704919 1.18727350
Au 1.57738250 0.00000000 -1.1154712199999999 0 0 0
Au 1.57738250 4.46151000 -1.1154712199999999 0 0 0
Au 4.73214750 6.69226500 -3.346146730000001 0 0 0
Au 4.73214750 2.23075500 -3.346146730000001 0 0 0
Au 1.78218984 4.50782047 3.07895680
Au 1.78218984 8.87670953 3.07895680
Au 4.71025343 2.23075500 1.27936194
Au 4.70754033 6.69226500 1.23024811
C 6.25798114 2.23075500 5.43535305
O 6.22794778 2.23075500 6.57724964
