&CONTROL
calculation = 'relax'
prefix = 'scf'
pseudo_dir = '/vol0004/mdt0/data/hp150275/u10028/POT_KKJUS'
outdir = './data'
tprnfor = .true.
nstep = 50
disk_io = 'non'
/
&SYSTEM
ibrav = 0
ecutwfc = 50.0
ecutrho = 400
occupations = 'smearing'
smearing = 'mp'
degauss = 0.01
assume_isolated = 'esm'
esm_bc = 'bc1'
input_dft = 'BEEF-VDW'
nosym = .true.
nspin = 1
ntyp = 4
nat = 33
/
&ELECTRONS
electron_maxstep = 200
mixing_beta = 0.1
conv_thr = 1e-06
/
&IONS
ion_dynamics = 'bfgs'
upscale = 1.0
/
&CELL
/

K_POINTS {automatic}
8 6 1 0 0 0

ATOMIC_SPECIES
C 12.01 C.pbe-n-rrkjus_psl.1.0.0.UPF
Ni 58.69 Ni.pbe-spn-rrkjus_psl.1.0.0.UPF
Sb 121.7 Sb.pbe-n-rrkjus_psl.1.0.0.UPF
Ti 47.86 Ti.pbe-spn-rrkjus_psl.1.0.0.UPF

CELL_PARAMETERS {angstrom}
6.14888000 0.00000000 0.00000000
0.00000000 8.69583000 0.00000000
0.00000000 0.00000000 26.52190000

ATOMIC_POSITIONS {angstrom}
Ti 0.00000000 0.00000000 -3.2608676099999983 0 0 0
Ti 3.07444000 2.17395750 -1.086867459999997 0 0 0
Ti 3.07444000 6.52187250 -1.086867459999997 0 0 0
Ti 0.00000000 4.34791500 -3.2608676099999983 0 0 0
Ti 6.08388634 4.36191529 1.09402837
Ti 3.06078949 6.52222033 3.18607585
Ti 3.20989983 2.17447925 2.97549196
Ti 6.08407080 8.68096013 1.09402837
Ni 1.53722000 0.00000000 -1.086867459999997 0 0 0
Ni 4.61166000 4.34791500 -1.086867459999997 0 0 0
Ni 4.61166000 0.00000000 -1.086867459999997 0 0 0
Ni 1.53722000 4.34791500 -1.086867459999997 0 0 0
Ni 4.61166000 6.52187250 -3.2608676099999983 0 0 0
Ni 1.53722000 2.17395750 -3.2608676099999983 0 0 0
Ni 1.53722000 6.52187250 -3.2608676099999983 0 0 0
Ni 4.61166000 2.17395750 -3.2608676099999983 0 0 0
Ni 1.30854315 4.13991075 3.11764934
Ni 4.61934610 8.67409043 3.15928873
Ni 4.61787037 4.37174157 3.16008439
Ni 1.30921953 0.20765642 3.11844500
Ni 4.64566331 2.17360967 0.95876668
Ni 1.40858543 6.52143771 1.23883795
Ni 1.10249418 2.17326183 1.41971731
Ni 4.72436897 6.52161163 1.31177317
Sb 0.00000000 6.52187250 -1.086867459999997 0 0 0
Sb 3.07444000 0.00000000 -3.2608676099999983 0 0 0
Sb 0.00000000 2.17395750 -1.086867459999997 0 0 0
Sb 3.07444000 4.34791500 -3.2608676099999983 0 0 0
Sb 5.55778817 2.17439229 4.51482304
Sb 3.03262762 4.37478511 1.07440217
Sb 0.06997425 6.52213337 3.64570037
Sb 3.03250464 8.66878597 1.07466739
C 1.28511592 2.17378358 3.43511649
