&CONTROL
calculation = 'relax'
prefix = 'scf'
pseudo_dir = '/vol0403/data/hp230205/u10028/POT_HYBRID_KKJUS_GBRV'
outdir = './data'
tprnfor = .true.
nstep = 50
disk_io = 'non'
/
&SYSTEM
ibrav = 0
ecutwfc = 50.0
ecutrho = 400
occupations = 'smearing'
smearing = 'mp'
degauss = 0.01
assume_isolated = 'esm'
esm_bc = 'bc1'
input_dft = 'BEEF-VDW'
nosym = .true.
nspin = 1
ntyp = 6
nat = 34
/
&ELECTRONS
electron_maxstep = 200
mixing_beta = 0.1
conv_thr = 1e-06
/
&IONS
ion_dynamics = 'bfgs'
upscale = 1.0
/
&CELL
/

K_POINTS {automatic}
6 6 1 0 0 0

ATOMIC_SPECIES
C 12.01 C.pbe-n-rrkjus_psl.1.0.0.UPF
Li 6.941 Li.pbe-sl-rrkjus_psl.1.0.0.UPF
O 15.99 O.pbe-n-rrkjus_psl.1.0.0.UPF
Pb 207.2 Pb.pbe-dn-rrkjus_psl.1.0.0.UPF
Sn 118.7 Sn.pbe-dn-rrkjus_psl.1.0.0.UPF
Y 88.90 Y.pbe-spn-rrkjus_psl.1.0.0.UPF


CELL_PARAMETERS {angstrom}
9.64462000 0.00000000 0.00000000
0.00000000 8.87168000 0.00000000
0.00000000 0.00000000 27.02620000

ATOMIC_POSITIONS {angstrom}
Li 9.55261033 0.15640772 3.67853608
Li 0.00000000 0.00000000 -1.1710452499999988 0 0 0
Li 9.55261033 4.27943228 3.67853608
Li 0.00000000 4.43584000 -1.1710452499999988 0 0 0
Li 4.91431967 0.15658515 3.67853608
Li 4.82231000 0.00000000 -1.1710452499999988 0 0 0
Li 4.91431967 4.27925485 3.67853608
Li 4.82231000 4.43584000 -1.1710452499999988 0 0 0
Y 2.41115500 0.01960641 1.18672044
Y 2.41115500 0.00000000 -3.513135739999999 0 0 0
Y 2.41115500 4.41632230 1.18672044
Y 2.41115500 4.43584000 -3.513135739999999 0 0 0
Y 7.23346500 8.83787890 1.13023568
Y 7.23346500 0.00000000 -3.513135739999999 0 0 0
Y 7.23346500 4.46964110 1.13023568
Y 7.23346500 4.43584000 -3.513135739999999 0 0 0
Sn 2.41134789 2.21792000 3.67880634
Sn 2.41115500 2.21792000 -1.1710452499999988 0 0 0
Sn 2.41115500 6.65376000 3.71258909
Sn 2.41115500 6.65376000 -1.1710452499999988 0 0 0
Sn 7.23346500 2.21792000 3.52718936
Sn 7.23346500 2.21792000 -1.1710452499999988 0 0 0
Sn 7.23346500 6.65376000 3.66772560
Sn 7.23346500 6.65376000 -1.1710452499999988 0 0 0
Pb 9.59080302 2.21792000 1.21428717
Pb 0.00000000 2.21792000 -3.513135739999999 0 0 0
Pb 0.02063949 6.65376000 1.51833192
Pb 0.00000000 6.65376000 -3.513135739999999 0 0 0
Pb 4.87603053 2.21792000 1.21428717
Pb 4.82231000 2.21792000 -3.513135739999999 0 0 0
Pb 4.80176696 6.65376000 1.51833192
Pb 4.82231000 6.65376000 -3.513135739999999 0 0 0
C 2.40932252 2.21792000 6.05359854
O 2.41163723 2.21792000 7.20572544
