&CONTROL
calculation = 'relax'
prefix = 'scf'
pseudo_dir = '/vol0403/data/hp230205/u10028/POT_HYBRID_KKJUS_GBRV'
outdir = './data'
tprnfor = .true.
nstep = 50
disk_io = 'non'
/
&SYSTEM
ibrav = 0
ecutwfc = 50.0
ecutrho = 400
occupations = 'smearing'
smearing = 'mp'
degauss = 0.01
assume_isolated = 'esm'
esm_bc = 'bc1'
input_dft = 'BEEF-VDW'
nosym = .true.
nspin = 1
ntyp = 6
nat = 34
/
&ELECTRONS
electron_maxstep = 200
mixing_beta = 0.1
conv_thr = 1e-06
/
&IONS
ion_dynamics = 'bfgs'
upscale = 1.0
/
&CELL
/

K_POINTS {automatic}
9 6 2 0  0  0

ATOMIC_SPECIES
C 12.01 C.pbe-n-rrkjus_psl.1.0.0.UPF
Ca 40.07 Ca.pbe-spn-rrkjus_psl.1.0.0.UPF
Ge 72.64 Ge.pbe-dn-rrkjus_psl.1.0.0.UPF
Li 6.941 Li.pbe-sl-rrkjus_psl.1.0.0.UPF
O 15.99 O.pbe-n-rrkjus_psl.1.0.0.UPF
Pd 106.4 Pd.pbe-n-rrkjus_psl.1.0.0.UPF


CELL_PARAMETERS {angstrom}
6.62107000 0.00000000 0.00000000
0.00000000 9.36360000 0.00000000
0.00000000 0.00000000 27.02270000

ATOMIC_POSITIONS {angstrom}
Li 4.96580250 0.00000000 -1.1703531399999996 0 0 0
Li 4.96580250 4.68180000 -1.1703531399999996 0 0 0
Li 1.65526750 2.34090000 -3.5113296399999996 0 0 0
Li 1.65526750 7.02270000 -3.5113296399999996 0 0 0
Li 5.33174904 4.68198727 3.76696438
Li 5.25560673 0.00009364 3.75264235
Li 1.84529221 7.02522817 1.43112219
Li 1.84655021 2.33930819 1.43166265
Ca 0.00000000 0.00000000 -3.5113296399999996 0 0 0
Ca 0.00000000 4.68180000 -3.5113296399999996 0 0 0
Ca 3.31053500 7.02270000 -1.1703531399999996 0 0 0
Ca 3.31053500 2.34090000 -1.1703531399999996 0 0 0
Ca 6.48460975 4.68123818 1.12171228
Ca 6.45335830 9.36219546 1.09306821
Ca 3.03933597 2.27975569 4.20581303
Ca 3.03999808 7.08328249 4.20338098
Ge 0.00000000 2.34090000 -1.1703531399999996 0 0 0
Ge 0.00000000 7.02270000 -1.1703531399999996 0 0 0
Ge 3.31053500 4.68180000 -3.5113296399999996 0 0 0
Ge 3.31053500 0.00000000 -3.5113296399999996 0 0 0
Ge 0.02595459 7.01989092 3.46539105
Ge 0.02681533 2.34333454 3.46512082
Ge 3.26001624 0.00112363 1.43544582
Ge 3.31642775 4.68170636 1.51435211
Pd 1.65526750 0.00000000 -1.1703531399999996 0 0 0
Pd 1.65526750 4.68180000 -1.1703531399999996 0 0 0
Pd 4.96580250 2.34090000 -3.5113296399999996 0 0 0
Pd 4.96580250 7.02270000 -3.5113296399999996 0 0 0
Pd 1.45537740 4.68151909 3.38297181
Pd 1.35453850 9.36331909 3.33838436
Pd 4.61859359 7.03299996 1.82592384
Pd 4.61918949 2.33125549 1.82727497
C 4.48584114 9.36303818 5.64531226
O 4.30230508 9.36331909 6.79566860
