&CONTROL
calculation = 'relax'
prefix = 'scf'
pseudo_dir = '/vol0403/data/hp230205/u10028/POT_HYBRID_KKJUS_GBRV'
outdir = './data'
tprnfor = .true.
nstep = 50
disk_io = 'non'
/
&SYSTEM
ibrav = 0
ecutwfc = 50.0
ecutrho = 400
occupations = 'smearing'
smearing = 'mp'
degauss = 0.01
assume_isolated = 'esm'
esm_bc = 'bc1'
input_dft = 'BEEF-VDW'
nosym = .true.
nspin = 1
ntyp = 6
nat = 34
/
&ELECTRONS
electron_maxstep = 200
mixing_beta = 0.1
conv_thr = 1e-06
/
&IONS
ion_dynamics = 'bfgs'
upscale = 1.0
/
&CELL
/

K_POINTS {automatic}
6 6 1 0 0 0

ATOMIC_SPECIES
C 12.01 C.pbe-n-rrkjus_psl.1.0.0.UPF
Ge 72.64 Ge.pbe-dn-rrkjus_psl.1.0.0.UPF
In 114.8 In.pbe-dn-rrkjus_psl.1.0.0.UPF
Li 6.941 Li.pbe-sl-rrkjus_psl.1.0.0.UPF
O 15.99 O.pbe-n-rrkjus_psl.1.0.0.UPF
Pd 106.4 Pd.pbe-n-rrkjus_psl.1.0.0.UPF


CELL_PARAMETERS {angstrom}
6.51863000 0.00000000 0.00000000
0.00000000 9.21874000 0.00000000
0.00000000 0.00000000 26.91410000

ATOMIC_POSITIONS {angstrom}
Li 4.88897250 0.00000000 -1.1524617600000013 0 0 0
Li 4.88897250 4.60937000 -1.1524617600000013 0 0 0
Li 1.62965750 2.30468500 -3.45711614 0 0 0
Li 1.62965750 6.91405500 -3.45711614 0 0 0
Li 4.48755526 4.68385742 4.01962084
Li 4.48755526 9.14425258 4.01962084
Li 1.32145667 6.91405500 1.31340808
Li 1.51551629 2.30468500 1.20736653
In 0.00000000 2.30468500 -1.1524617600000013 0 0 0
In 0.00000000 6.91405500 -1.1524617600000013 0 0 0
In 3.25931500 4.60937000 -3.45711614 0 0 0
In 3.25931500 0.00000000 -3.45711614 0 0 0
In 0.02398856 6.91405500 4.01531458
In 6.34575593 2.30468500 3.75667008
In 3.26596400 9.13927446 1.17130163
In 3.26596400 4.68883554 1.17130163
Ge 0.00000000 0.00000000 -3.45711614 0 0 0
Ge 0.00000000 4.60937000 -3.45711614 0 0 0
Ge 3.25931500 6.91405500 -1.1524617600000013 0 0 0
Ge 3.25931500 2.30468500 -1.1524617600000013 0 0 0
Ge 6.32515706 4.56419817 1.36293002
Ge 6.32515706 0.04517183 1.36293002
Ge 3.20129919 2.30468500 3.38310237
Ge 3.10228120 6.91405500 3.38121838
Pd 1.62965750 0.00000000 -1.1524617600000013 0 0 0
Pd 1.62965750 4.60937000 -1.1524617600000013 0 0 0
Pd 4.88897250 2.30468500 -3.45711614 0 0 0
Pd 4.88897250 6.91405500 -3.45711614 0 0 0
Pd 1.55743108 4.55341225 3.26764088
Pd 1.55749627 0.05595775 3.26764088
Pd 5.01686802 6.91405500 1.15542231
Pd 4.80077544 2.30468500 1.01600727
C 5.96356866 2.30468500 7.52195267
O 0.29679322 2.30468500 8.27312520
