&CONTROL
calculation = 'relax'
prefix = 'scf'
pseudo_dir = '/vol0004/mdt0/data/hp150275/u10028/POT_HYBRID_KKJUS_GBRV'
outdir = './data'
tprnfor = .true.
nstep = 50
disk_io = 'non'
/
&SYSTEM
ibrav = 0
ecutwfc = 50.0
ecutrho = 400
occupations = 'smearing'
smearing = 'mp'
degauss = 0.01
assume_isolated = 'esm'
esm_bc = 'bc1'
input_dft = 'BEEF-VDW'
nosym = .true.
nspin = 2
ntyp = 3
nat = 32
starting_magnetization(1) = 0.0
starting_magnetization(2) = 0.001
starting_magnetization(3) = 0.0
/
&ELECTRONS
electron_maxstep = 200
mixing_beta = 0.1
conv_thr = 1e-06
/
&IONS
ion_dynamics = 'bfgs'
upscale = 1.0
/
&CELL
/

K_POINTS {automatic}
9 6 2 0  0  0

ATOMIC_SPECIES
Ga 69.72 Ga.pbe-dnl-rrkjus_psl.1.0.0.UPF
Ni 58.69 ni_pbe_v1.4.uspp.F.UPF
V 50.94 V.pbe-spnl-rrkjus_psl.1.0.0.UPF

CELL_PARAMETERS {angstrom}
5.82350000 0.00000000 0.00000000
0.00000000 8.23567000 0.00000000
0.00000000 0.00000000 26.17680000

ATOMIC_POSITIONS {angstrom}
V 0.00000000 0.00000000 23.08846114
V 2.91175000 2.05891750 25.14726646
V 2.91175000 6.17675250 25.14726646
V 0.00000000 4.11783500 23.08846114
V 0.00000000 4.11791736 1.04864261
V 2.91175000 6.17675250 3.04410007
V 2.91175000 2.05891750 3.04331477
V 0.00000000 8.23558764 1.04864261
Ga 0.00000000 6.17675250 25.14726646
Ga 2.91175000 0.00000000 23.08846114
Ga 0.00000000 2.05891750 25.14726646
Ga 2.91175000 4.11783500 23.08846114
Ga 0.00000000 2.05891750 3.19592551
Ga 2.91175000 4.11791736 0.98320061
Ga 0.00000000 6.17675250 3.19618728
Ga 2.91175000 8.23558764 0.98346238
Ni 1.45587500 0.00000000 25.14726646
Ni 4.36762500 4.11783500 25.14726646
Ni 4.36762500 0.00000000 25.14726646
Ni 1.45587500 4.11783500 25.14726646
Ni 4.36762500 6.17675250 23.08846114
Ni 1.45587500 2.05891750 23.08846114
Ni 1.45587500 6.17675250 23.08846114
Ni 4.36762500 2.05891750 23.08846114
Ni 1.50176418 4.11799971 2.98939056
Ni 4.32220170 8.23550529 2.98939056
Ni 4.32173582 4.11791736 2.98939056
Ni 1.50129830 8.23550529 2.98939056
Ni 4.37927200 2.05825865 1.07769886
Ni 1.44422800 6.17741135 1.07822239
Ni 1.44422800 2.05825865 1.07769886
Ni 4.37927200 6.17741135 1.07822239
