&CONTROL
calculation = 'relax'
prefix = 'scf'
pseudo_dir = '/vol0004/mdt0/data/hp150275/u10028/POT_KKJUS'
outdir = './data'
tprnfor = .true.
nstep = 50
disk_io = 'non'
/
&SYSTEM
ibrav = 0
ecutwfc = 50.0
ecutrho = 400
occupations = 'smearing'
smearing = 'mp'
degauss = 0.01
assume_isolated = 'esm'
esm_bc = 'bc1'
input_dft = 'BEEF-VDW'
nosym = .true.
nspin = 1
ntyp = 5
nat = 18
/
&ELECTRONS
electron_maxstep = 200
mixing_beta = 0.1
conv_thr = 1e-06
/
&IONS
ion_dynamics = 'bfgs'
upscale = 1.0
/
&CELL
/

K_POINTS {automatic}
9 9 2 0  0  0

ATOMIC_SPECIES
Ag 107.8 Ag.pbe-n-rrkjus_psl.1.0.0.UPF
C 12.01 C.pbe-n-rrkjus_psl.1.0.0.UPF
Li 6.941 Li.pbe-sl-rrkjus_psl.1.0.0.UPF
O 15.99 O.pbe-n-rrkjus_psl.1.0.0.UPF
Pb 207.2 Pb.pbe-dn-rrkjus_psl.1.0.0.UPF

CELL_PARAMETERS {angstrom}
6.84524000 0.00000000 0.00000000
0.00000000 6.84524000 0.00000000
0.00000000 0.00000000 25.13390000

ATOMIC_POSITIONS {angstrom}
Li 0.00000000 0.00000000 -0.8555579600000023 0 0 0
Li 3.42262000 0.00000000 2.52218687
Li 0.00000000 3.42262000 2.67097955
Li 3.42262000 3.42262000 -0.8555579600000023 0 0 0
Li 1.71131000 1.71131000 -2.566925210000001 0 0 0
Li 1.68543499 5.10798654 0.93322171
Li 5.13393000 5.13393000 -2.566925210000001 0 0 0
Li 5.15987346 1.73725346 0.93322171
Ag 1.70083678 1.72178322 0.93447840
Ag 1.71131000 5.13393000 -2.566925210000001 0 0 0
Ag 5.14447167 5.12352524 0.93447840
Ag 5.13393000 1.71131000 -2.566925210000001 0 0 0
Pb 6.84510310 6.84510310 2.72903886
Pb 3.42262000 3.42248310 2.72903886
Pb 3.42262000 0.00000000 -0.8555579600000023 0 0 0
Pb 0.00000000 3.42262000 -0.8555579600000023 0 0 0
C 0.00000000 3.42262000 4.76865485
O 0.00006845 3.42262000 5.90948257
