&CONTROL
calculation = 'relax'
prefix = 'scf'
pseudo_dir = '/vol0004/mdt0/data/hp150275/u10028/POT_KKJUS'
outdir = './data'
tprnfor = .true.
nstep = 50
disk_io = 'non'
/
&SYSTEM
ibrav = 0
ecutwfc = 50.0
ecutrho = 400
occupations = 'smearing'
smearing = 'mp'
degauss = 0.01
assume_isolated = 'esm'
esm_bc = 'bc1'
input_dft = 'BEEF-VDW'
nosym = .true.
nspin = 1
ntyp = 4
nat = 18
/
&ELECTRONS
electron_maxstep = 200
mixing_beta = 0.1
conv_thr = 1e-06
/
&IONS
ion_dynamics = 'bfgs'
upscale = 1.0
/
&CELL
/

K_POINTS {automatic}
8 8 1 0 0 0

ATOMIC_SPECIES
C 12.01 C.pbe-n-rrkjus_psl.1.0.0.UPF
Ca 40.07 Ca.pbe-spn-rrkjus_psl.1.0.0.UPF
In 114.8 In.pbe-dn-rrkjus_psl.1.0.0.UPF
O 15.99 O.pbe-n-rrkjus_psl.1.0.0.UPF

CELL_PARAMETERS {angstrom}
8.11767000 0.00000000 0.00000000
-0.00000000 8.11767000 0.00000000
0.00000000 0.00000000 26.08830000

ATOMIC_POSITIONS {angstrom}
Ca 2.02941750 2.02941750 1.01483487
Ca 6.08825250 6.08825250 -3.0442437300000016 0 0 0
Ca 6.08825250 2.02941750 1.01483487
Ca 2.02941750 6.08825250 -3.0442437300000016 0 0 0
Ca 6.08825250 6.08825250 1.01483487
Ca 2.02941750 2.02941750 -3.0442437300000016 0 0 0
Ca 2.02941750 6.08825250 1.01483487
Ca 6.08825250 2.02941750 -3.0442437300000016 0 0 0
Ca 0.00000000 0.00000000 -1.0148348700000014 0 0 0
Ca 4.05883500 -0.00000000 3.04424373
Ca 0.00000000 4.05883500 3.04424373
Ca 4.05883500 4.05883500 -1.0148348700000014 0 0 0
In 0.00000000 0.00000000 3.04424373
In 4.05883500 4.05883500 3.04424373
In 4.05883500 0.00000000 -1.0148348700000014 0 0 0
In 0.00000000 4.05883500 -1.0148348700000014 0 0 0
C 0.00000000 4.05883500 4.94425462
O 0.00000000 4.05883500 6.09422688
