&CONTROL
calculation = 'relax'
prefix = 'scf'
pseudo_dir = '/vol0004/mdt0/data/hp150275/u10028/POT_KKJUS'
outdir = './data'
tprnfor = .true.
nstep = 50
disk_io = 'non'
/
&SYSTEM
ibrav = 0
ecutwfc = 50.0
ecutrho = 400
occupations = 'smearing'
smearing = 'mp'
degauss = 0.01
assume_isolated = 'esm'
esm_bc = 'bc1'
input_dft = 'BEEF-VDW'
nosym = .true.
nspin = 1
ntyp = 5
nat = 18
/
&ELECTRONS
electron_maxstep = 200
mixing_beta = 0.1
conv_thr = 1e-06
/
&IONS
ion_dynamics = 'bfgs'
upscale = 1.0
/
&CELL
/

K_POINTS {automatic}
9 9 2 0  0  0

ATOMIC_SPECIES
Ag 107.8 Ag.pbe-n-rrkjus_psl.1.0.0.UPF
C 12.01 C.pbe-n-rrkjus_psl.1.0.0.UPF
Li 6.941 Li.pbe-sl-rrkjus_psl.1.0.0.UPF
O 15.99 O.pbe-n-rrkjus_psl.1.0.0.UPF
Sn 118.7 Sn.pbe-dn-rrkjus_psl.1.0.0.UPF

CELL_PARAMETERS {angstrom}
6.65960000 0.00000000 0.00000000
0.00000000 6.65960000 0.00000000
0.00000000 0.00000000 24.99470000

ATOMIC_POSITIONS {angstrom}
Li 6.65660318 0.00313001 0.80582913
Li 3.32980000 0.00000000 -2.4974704200000026 0 0 0
Li 0.00000000 3.32980000 -2.4974704200000026 0 0 0
Li 3.32986660 3.32966681 0.79458151
Li 1.66490000 1.66490000 -0.8325734600000025 0 0 0
Li 1.66916214 4.99030466 2.75766525
Li 4.99470000 4.99470000 -0.8325734600000025 0 0 0
Li 4.98957211 1.66996130 2.80440534
Ag 1.66989470 1.67135981 2.51071761
Ag 1.66490000 4.99470000 -0.8325734600000025 0 0 0
Ag 4.98824019 4.98977190 2.51071761
Ag 4.99470000 1.66490000 -0.8325734600000025 0 0 0
Sn 0.00000000 0.00000000 -2.4974704200000026 0 0 0
Sn 3.32980000 3.32980000 -2.4974704200000026 0 0 0
Sn 3.32600403 6.65706935 0.96679500
Sn 0.00259724 3.33332959 0.96679500
C 4.98790721 1.67169279 4.90720945
O 4.98504358 1.67462302 6.04846745
