&CONTROL
calculation = 'relax'
prefix = 'scf'
pseudo_dir = '/vol0403/data/hp230205/u10028/POT_HYBRID_KKJUS_GBRV'
outdir = './data'
tprnfor = .true.
nstep = 50
disk_io = 'non'
/
&SYSTEM
ibrav = 0
ecutwfc = 50.0
ecutrho = 400
occupations = 'smearing'
smearing = 'mp'
degauss = 0.01
assume_isolated = 'esm'
esm_bc = 'bc1'
input_dft = 'BEEF-VDW'
nosym = .true.
nspin = 1
ntyp = 5
nat = 33
/
&ELECTRONS
electron_maxstep = 200
mixing_beta = 0.1
conv_thr = 1e-06
/
&IONS
ion_dynamics = 'bfgs'
upscale = 1.0
/
&CELL
/

K_POINTS {automatic}
6 6 1 0 0 0

ATOMIC_SPECIES
C 12.01 C.pbe-n-rrkjus_psl.1.0.0.UPF
Ga 69.72 Ga.pbe-dnl-rrkjus_psl.1.0.0.UPF
In 114.8 In.pbe-dn-rrkjus_psl.1.0.0.UPF
Li 6.941 Li.pbe-sl-rrkjus_psl.1.0.0.UPF
Sc 44.95 Sc.pbe-spn-rrkjus_psl.1.0.0.UPF


CELL_PARAMETERS {angstrom}
8.23116000 0.00000000 0.00000000
0.00000000 8.37318000 0.00000000
0.00000000 0.00000000 26.65040000

ATOMIC_POSITIONS {angstrom}
Li 0.00000000 2.09329500 1.10839014
Li 0.00000000 2.09329500 -3.325170410000002 0 0 0
Li 0.00000000 6.27988500 1.10839014
Li 0.00000000 6.27988500 -3.325170410000002 0 0 0
Li 4.11558000 2.09329500 1.10839014
Li 4.11558000 2.09329500 -3.325170410000002 0 0 0
Li 4.11558000 6.27988500 1.10839014
Li 4.11558000 6.27988500 -3.325170410000002 0 0 0
Sc 2.05779000 2.09329500 3.32517041
Sc 2.05779000 2.09329500 -1.108390140000001 0 0 0
Sc 2.05779000 6.27988500 3.32517041
Sc 2.05779000 6.27988500 -1.108390140000001 0 0 0
Sc 6.17337000 2.09329500 3.32517041
Sc 6.17337000 2.09329500 -1.108390140000001 0 0 0
Sc 6.17337000 6.27988500 3.32517041
Sc 6.17337000 6.27988500 -1.108390140000001 0 0 0
In 2.05779000 0.00000000 1.10839014
In 2.05779000 0.00000000 -3.325170410000002 0 0 0
In 2.05779000 4.18659000 1.10839014
In 2.05779000 4.18659000 -3.325170410000002 0 0 0
In 6.17337000 0.00000000 1.10839014
In 6.17337000 0.00000000 -3.325170410000002 0 0 0
In 6.17337000 4.18659000 1.10839014
In 6.17337000 4.18659000 -3.325170410000002 0 0 0
Ga 0.00000000 0.00000000 3.32517041
Ga 0.00000000 0.00000000 -1.108390140000001 0 0 0
Ga 0.00000000 4.18659000 3.32517041
Ga 0.00000000 4.18659000 -1.108390140000001 0 0 0
Ga 4.11558000 0.00000000 3.32517041
Ga 4.11558000 0.00000000 -1.108390140000001 0 0 0
Ga 4.11558000 4.18659000 3.32517041
Ga 4.11558000 4.18659000 -1.108390140000001 0 0 0
C 2.05779000 0.00000000 4.12521542
