&CONTROL
calculation = 'relax'
prefix = 'scf'
pseudo_dir = '/vol0004/mdt0/data/hp150275/u10028/POT_HYBRID_KKJUS_GBRV'
outdir = './data'
tprnfor = .true.
nstep = 50
disk_io = 'non'
/
&SYSTEM
ibrav = 0
ecutwfc = 50.0
ecutrho = 400
occupations = 'smearing'
smearing = 'mp'
degauss = 0.01
assume_isolated = 'esm'
esm_bc = 'bc1'
input_dft = 'BEEF-VDW'
nosym = .true.
nspin = 2
ntyp = 5
nat = 34
starting_magnetization(1) = 0.0
starting_magnetization(2) = 0.1
starting_magnetization(3) = 0.1
starting_magnetization(4) = 0.0
starting_magnetization(5) = 0.0
/
&ELECTRONS
electron_maxstep = 300
mixing_beta = 0.1
conv_thr = 1e-06
/
&IONS
ion_dynamics = 'bfgs'
upscale = 1.0
/
&CELL
/

K_POINTS {automatic}
8 6 1 0 0 0

ATOMIC_SPECIES
C 12.01 C.pbe-n-rrkjus_psl.1.0.0.UPF
Co 58.93 co_pbe_v1.2.uspp.F.UPF
Cr 51.99 cr_pbe_v1.5.uspp.F.UPF
Ga 69.72 Ga.pbe-dnl-rrkjus_psl.1.0.0.UPF
O 15.99 O.pbe-n-rrkjus_psl.1.0.0.UPF

CELL_PARAMETERS {angstrom}
5.73361000 0.00000000 0.00000000
0.00000000 8.10855000 0.00000000
0.00000000 0.00000000 26.08140000

ATOMIC_POSITIONS {angstrom}
Cr 0.00000000 0.00000000 -3.0408304299999998 0 0 0
Cr 2.86680500 2.02713750 -1.013523199999998 0 0 0
Cr 2.86680500 6.08141250 -1.013523199999998 0 0 0
Cr 0.00000000 4.05427500 -3.0408304299999998 0 0 0
Cr 0.00000000 4.05476151 1.02395576
Cr 2.86680500 6.08141250 3.04396019
Cr 2.86680500 2.02713750 3.04396019
Cr 0.00000000 8.10806349 1.02395576
Ga 0.00000000 6.08141250 -1.013523199999998 0 0 0
Ga 2.86680500 0.00000000 -3.0408304299999998 0 0 0
Ga 0.00000000 2.02713750 -1.013523199999998 0 0 0
Ga 2.86680500 4.05427500 -3.0408304299999998 0 0 0
Ga 0.00000000 2.02721859 3.01813961
Ga 2.86680500 4.05411283 1.01613134
Ga 0.00000000 6.08133141 3.05204543
Ga 2.86680500 0.00016217 1.01613134
Co 1.43340250 0.00000000 -1.013523199999998 0 0 0
Co 4.30020750 4.05427500 -1.013523199999998 0 0 0
Co 4.30020750 0.00000000 -1.013523199999998 0 0 0
Co 1.43340250 4.05427500 -1.013523199999998 0 0 0
Co 4.30020750 6.08141250 -3.0408304299999998 0 0 0
Co 1.43340250 2.02713750 -3.0408304299999998 0 0 0
Co 1.43340250 6.08141250 -3.0408304299999998 0 0 0
Co 4.30020750 2.02713750 -3.0408304299999998 0 0 0
Co 1.43431988 4.05841036 3.02961542
Co 4.29923279 8.10441464 3.02961542
Co 4.29929012 4.05841036 3.02961542
Co 1.43437721 8.10441464 3.02961542
Co 4.30089553 2.02721859 1.01169751
Co 1.43489324 6.08133141 1.01143669
Co 1.43271447 2.02721859 1.01169751
Co 4.29871676 6.08133141 1.01143669
C 0.00000000 2.02713750 4.95781333
O 0.00000000 2.02713750 6.10643818
