&CONTROL
calculation = 'relax'
prefix = 'scf'
pseudo_dir = '/vol0004/mdt0/data/hp150275/u10028/POT_KKJUS'
outdir = './data'
tprnfor = .true.
nstep = 50
disk_io = 'non'
/
&SYSTEM
ibrav = 0
ecutwfc = 50.0
ecutrho = 400
occupations = 'smearing'
smearing = 'mp'
degauss = 0.01
assume_isolated = 'esm'
esm_bc = 'bc1'
input_dft = 'BEEF-VDW'
nosym = .true.
nspin = 1
ntyp = 4
nat = 17
/
&ELECTRONS
electron_maxstep = 200
mixing_beta = 0.1
conv_thr = 1e-06
/
&IONS
ion_dynamics = 'bfgs'
upscale = 1.0
/
&CELL
/

K_POINTS {automatic}
10 10 2 0  0  0

ATOMIC_SPECIES
Au 196.9 Au.pbe-n-rrkjus_psl.1.0.0.UPF
C 12.01 C.pbe-n-rrkjus_psl.1.0.0.UPF
Li 6.941 Li.pbe-sl-rrkjus_psl.1.0.0.UPF
Sn 118.7 Sn.pbe-dn-rrkjus_psl.1.0.0.UPF

CELL_PARAMETERS {angstrom}
6.60404000 0.00000000 0.00000000
0.00000000 6.60404000 0.00000000
0.00000000 0.00000000 24.95300000

ATOMIC_POSITIONS {angstrom}
Li 0.00000000 0.00000000 -0.8254452400000005 0 0 0
Li 3.19708180 0.10487216 2.73035726
Li 0.10487216 3.19714784 2.73035726
Li 3.30202000 3.30202000 -0.8254452400000005 0 0 0
Li 1.65101000 1.65101000 -2.4765852499999994 0 0 0
Li 1.65101000 4.95303000 0.97915572
Li 4.95303000 4.95303000 -2.4765852499999994 0 0 0
Li 4.95303000 1.65101000 0.97915572
Sn 0.10903270 0.10903270 3.05200143
Sn 3.19298730 3.19298730 3.05200143
Sn 3.30202000 0.00000000 -0.8254452400000005 0 0 0
Sn 0.00000000 3.30202000 -0.8254452400000005 0 0 0
Au 1.65101000 1.65101000 0.66474792
Au 1.65101000 4.95303000 -2.4765852499999994 0 0 0
Au 4.95303000 4.95303000 0.80747908
Au 4.95303000 1.65101000 -2.4765852499999994 0 0 0
C 1.65101000 1.65101000 2.87308842
