&CONTROL
calculation = 'relax'
prefix = 'scf'
pseudo_dir = '/vol0004/mdt0/data/hp150275/u10028/POT_KKJUS'
outdir = './data'
tprnfor = .true.
nstep = 50
disk_io = 'non'
/
&SYSTEM
ibrav = 0
ecutwfc = 50.0
ecutrho = 400
occupations = 'smearing'
smearing = 'mp'
degauss = 0.01
assume_isolated = 'esm'
esm_bc = 'bc1'
input_dft = 'BEEF-VDW'
nosym = .true.
nspin = 1
ntyp = 2
nat = 16
/
&ELECTRONS
electron_maxstep = 200
mixing_beta = 0.1
conv_thr = 1e-06
/
&IONS
ion_dynamics = 'bfgs'
upscale = 1.0
/
&CELL
/

K_POINTS {automatic}
8 12 2 0  0  0

ATOMIC_SPECIES
Mg 24.30 Mg.pbe-spnl-rrkjus_psl.1.0.0.UPF
Ni 58.69 Ni.pbe-spn-rrkjus_psl.1.0.0.UPF

CELL_PARAMETERS {angstrom}
7.35611000 0.00000000 0.00000000
0.00000000 5.20155000 0.00000000
0.00000000 0.00000000 23.90120000

ATOMIC_POSITIONS {angstrom}
Mg 0.00000000 0.00000000 -1.9505769300000004 0 0 0
Mg 7.35596288 2.60056694 0.68931061
Mg 3.67805500 0.00000000 -1.9505769300000004 0 0 0
Mg 3.67842281 2.60067097 0.68811555
Ni 0.00000000 2.60077500 -1.9505769300000004 0 0 0
Ni 1.83902750 3.90116250 -0.6501126399999997 0 0 0
Ni 1.83902750 1.30038750 -0.6501126399999997 0 0 0
Ni 0.00000000 0.00000000 0.68118420
Ni 1.83983667 1.23157099 1.84588968
Ni 1.83998379 3.97289187 1.83680722
Ni 3.67805500 2.60077500 -1.9505769300000004 0 0 0
Ni 5.51708250 3.90116250 -0.6501126399999997 0 0 0
Ni 5.51708250 1.30038750 -0.6501126399999997 0 0 0
Ni 3.67827568 0.00015605 0.68070618
Ni 5.51619977 1.22902223 1.83943635
Ni 5.51642045 3.97018707 1.84517264
