&CONTROL
calculation = 'relax'
prefix = 'scf'
pseudo_dir = '/vol0004/mdt0/data/hp150275/u10028/POT_KKJUS'
outdir = './data'
tprnfor = .true.
nstep = 50
disk_io = 'non'
/
&SYSTEM
ibrav = 0
ecutwfc = 50.0
ecutrho = 400
occupations = 'smearing'
smearing = 'mp'
degauss = 0.01
assume_isolated = 'esm'
esm_bc = 'bc1'
input_dft = 'BEEF-VDW'
nosym = .true.
nspin = 1
ntyp = 3
nat = 17
/
&ELECTRONS
electron_maxstep = 200
mixing_beta = 0.1
conv_thr = 1e-06
/
&IONS
ion_dynamics = 'bfgs'
upscale = 1.0
/
&CELL
/

K_POINTS {automatic}
8 12 2 0  0  0

ATOMIC_SPECIES
C 12.01 C.pbe-n-rrkjus_psl.1.0.0.UPF
Ni 58.69 Ni.pbe-spn-rrkjus_psl.1.0.0.UPF
Si 28.08 Si.pbe-nl-rrkjus_psl.1.0.0.UPF

CELL_PARAMETERS {angstrom}
7.08204000 0.00000000 0.00000000
0.00000000 5.00776000 0.00000000
0.00000000 0.00000000 23.75580000

ATOMIC_POSITIONS {angstrom}
Si 0.00000000 0.00000000 -1.877895989999999 0 0 0
Si 0.00056656 2.50388000 0.44779683
Si 3.54102000 0.00000000 -1.877895989999999 0 0 0
Si 3.54066590 2.50388000 0.72051341
Ni 0.00000000 2.50388000 -1.877895989999999 0 0 0
Ni 1.77051000 3.75582000 -0.6259653299999997 0 0 0
Ni 1.77051000 1.25194000 -0.6259653299999997 0 0 0
Ni 0.00049574 5.00765984 0.42427859
Ni 1.41272534 1.24673193 1.90830341
Ni 1.41265452 3.76087784 1.90806586
Ni 3.54102000 2.50388000 -1.877895989999999 0 0 0
Ni 5.31153000 3.75582000 -0.6259653299999997 0 0 0
Ni 5.31153000 1.25194000 -0.6259653299999997 0 0 0
Ni 3.54158656 5.00765984 0.82171312
Ni 5.66995204 1.24738294 1.90687807
Ni 5.66988122 3.76037706 1.90664051
C 7.08175672 0.00000000 2.34327211
