&CONTROL
calculation = 'relax'
prefix = 'scf'
pseudo_dir = '/vol0004/mdt0/data/hp150275/u10028/POT_KKJUS'
outdir = './data'
tprnfor = .true.
nstep = 50
disk_io = 'non'
/
&SYSTEM
ibrav = 0
ecutwfc = 50.0
ecutrho = 400
occupations = 'smearing'
smearing = 'mp'
degauss = 0.01
assume_isolated = 'esm'
esm_bc = 'bc1'
input_dft = 'BEEF-VDW'
nosym = .true.
nspin = 1
ntyp = 2
nat = 32
/
&ELECTRONS
electron_maxstep = 200
mixing_beta = 0.1
conv_thr = 1e-06
/
&IONS
ion_dynamics = 'bfgs'
upscale = 1.0
/
&CELL
/

K_POINTS {automatic}
9 6 2 0  0  0

ATOMIC_SPECIES
Ga 69.72 Ga.pbe-dnl-rrkjus_psl.1.0.0.UPF
Ru 101.0 Ru.pbe-spn-rrkjus_psl.1.0.0.UPF

CELL_PARAMETERS {angstrom}
6.07363000 0.00000000 0.00000000
0.00000000 8.58941000 0.00000000
0.00000000 0.00000000 26.44210000

ATOMIC_POSITIONS {angstrom}
Ga 0.00000000 0.00000000 -3.220912200000001 0 0 0
Ga 0.00000000 2.14735250 -1.07354926 0 0 0
Ga 6.07344779 8.58923821 1.05054463
Ga 6.07350853 2.14683714 3.30129618
Ga 0.00000000 4.29470500 -3.220912200000001 0 0 0
Ga 0.00000000 6.44205750 -1.07354926 0 0 0
Ga 6.07344779 4.29487679 1.05001579
Ga 6.07350853 6.44248697 3.30129618
Ga 3.03681500 0.00000000 -3.220912200000001 0 0 0
Ga 3.03681500 2.14735250 -1.07354926 0 0 0
Ga 3.03699721 8.58923821 1.05028021
Ga 3.03693647 2.14683714 3.30076734
Ga 3.03681500 4.29470500 -3.220912200000001 0 0 0
Ga 3.03681500 6.44205750 -1.07354926 0 0 0
Ga 3.03699721 4.29487679 1.04975137
Ga 3.03693647 6.44248697 3.30076734
Ru 1.51840750 2.14735250 -3.220912200000001 0 0 0
Ru 1.51840750 0.00000000 -1.07354926 0 0 0
Ru 1.51828603 2.14752429 1.03600148
Ru 1.51834676 0.00000000 3.13497538
Ru 1.51840750 6.44205750 -3.220912200000001 0 0 0
Ru 1.51840750 4.29470500 -1.07354926 0 0 0
Ru 1.51828603 6.44188571 1.03600148
Ru 1.51834676 4.29470500 3.13471096
Ru 4.55522250 2.14735250 -3.220912200000001 0 0 0
Ru 4.55522250 0.00000000 -1.07354926 0 0 0
Ru 4.55534397 2.14752429 1.03573706
Ru 4.55522250 0.00000000 3.13523980
Ru 4.55522250 6.44205750 -3.220912200000001 0 0 0
Ru 4.55522250 4.29470500 -1.07354926 0 0 0
Ru 4.55534397 6.44188571 1.03573706
Ru 4.55522250 4.29470500 3.13497538
