&CONTROL
calculation = 'relax'
prefix = 'scf'
pseudo_dir = '/vol0004/mdt0/data/hp150275/u10028/POT_HYBRID_KKJUS_GBRV'
outdir = './data'
tprnfor = .true.
nstep = 50
disk_io = 'non'
/
&SYSTEM
ibrav = 0
ecutwfc = 50.0
ecutrho = 400
occupations = 'smearing'
smearing = 'mp'
degauss = 0.01
assume_isolated = 'esm'
esm_bc = 'bc1'
input_dft = 'BEEF-VDW'
nosym = .true.
nspin = 2
ntyp = 3
nat = 32
starting_magnetization(1) = 0.0
starting_magnetization(2) = 0.001
starting_magnetization(3) = 0.0
/
&ELECTRONS
electron_maxstep = 300
mixing_beta = 0.1
conv_thr = 1e-06
/
&IONS
ion_dynamics = 'bfgs'
upscale = 1.0
/
&CELL
/

K_POINTS {automatic}
8 6 1 0 0 0

ATOMIC_SPECIES
In 114.8 In.pbe-dn-rrkjus_psl.1.0.0.UPF
Ni 58.69 ni_pbe_v1.4.uspp.F.UPF
Sc 44.95 Sc.pbe-spn-rrkjus_psl.1.0.0.UPF

CELL_PARAMETERS {angstrom}
6.31539000 0.00000000 0.00000000
0.00000000 8.93131000 0.00000000
0.00000000 0.00000000 26.69850000

ATOMIC_POSITIONS {angstrom}
Sc 0.00000000 0.00000000 -3.349326819999998 0 0 0
Sc 3.15769500 2.23282750 -1.1165312699999994 0 0 0
Sc 3.15769500 6.69848250 -1.1165312699999994 0 0 0
Sc 0.00000000 4.46565500 -3.349326819999998 0 0 0
Sc 0.00000000 4.46574431 1.10318202
Sc 3.15769500 6.69857181 3.30901209
Sc 3.15769500 2.23273819 3.30901209
Sc 0.00000000 8.93122069 1.10344900
In 0.00000000 6.69848250 -1.1165312699999994 0 0 0
In 3.15769500 0.00000000 -3.349326819999998 0 0 0
In 0.00000000 2.23282750 -1.1165312699999994 0 0 0
In 3.15769500 4.46565500 -3.349326819999998 0 0 0
In 0.00000000 2.23300613 3.53434743
In 3.15769500 4.46556569 1.11733222
In 0.00000000 6.69830387 3.53434743
In 3.15769500 0.00008931 1.11706524
Ni 1.57884750 0.00000000 -1.1165312699999994 0 0 0
Ni 4.73654250 4.46565500 -1.1165312699999994 0 0 0
Ni 4.73654250 0.00000000 -1.1165312699999994 0 0 0
Ni 1.57884750 4.46565500 -1.1165312699999994 0 0 0
Ni 4.73654250 6.69848250 -3.349326819999998 0 0 0
Ni 1.57884750 2.23282750 -3.349326819999998 0 0 0
Ni 1.57884750 6.69848250 -3.349326819999998 0 0 0
Ni 4.73654250 2.23282750 -3.349326819999998 0 0 0
Ni 1.46087601 4.46556569 3.17872341
Ni 4.85457714 0.00008931 3.17845642
Ni 4.85451399 4.46556569 3.17872341
Ni 1.46081286 0.00008931 3.17845642
Ni 4.73850027 2.23300613 1.18247656
Ni 1.57695288 6.69830387 1.18247656
Ni 1.57688973 2.23291681 1.18247656
Ni 4.73843712 6.69839319 1.18220958
