&CONTROL
calculation = 'relax'
prefix = 'scf'
pseudo_dir = '/vol0004/mdt0/data/hp150275/u10028/POT_KKJUS'
outdir = './data'
tprnfor = .true.
nstep = 50
disk_io = 'non'
/
&SYSTEM
ibrav = 0
ecutwfc = 50.0
ecutrho = 400
occupations = 'smearing'
smearing = 'mp'
degauss = 0.01
assume_isolated = 'esm'
esm_bc = 'bc1'
input_dft = 'BEEF-VDW'
nosym = .true.
nspin = 1
ntyp = 4
nat = 34
/
&ELECTRONS
electron_maxstep = 200
mixing_beta = 0.1
conv_thr = 1e-06
/
&IONS
ion_dynamics = 'bfgs'
upscale = 1.0
/
&CELL
/

K_POINTS {automatic}
9 6 2 0  0  0

ATOMIC_SPECIES
C 12.01 C.pbe-n-rrkjus_psl.1.0.0.UPF
Ni 58.69 Ni.pbe-spn-rrkjus_psl.1.0.0.UPF
O 15.99 O.pbe-n-rrkjus_psl.1.0.0.UPF
Sn 118.7 Sn.pbe-dn-rrkjus_psl.1.0.0.UPF

CELL_PARAMETERS {angstrom}
6.01786000 0.00000000 0.00000000
0.00000000 8.51054000 0.00000000
0.00000000 0.00000000 26.38290000

ATOMIC_POSITIONS {angstrom}
Ni 1.50446500 0.00000000 -1.0637585299999976 0 0 0
Ni 4.51339500 4.25527000 -1.0637585299999976 0 0 0
Ni 4.51339500 0.00000000 -1.0637585299999976 0 0 0
Ni 1.50446500 4.25527000 -1.0637585299999976 0 0 0
Ni 4.51339500 6.38290500 -3.1915394100000007 0 0 0
Ni 1.50446500 2.12763500 -3.1915394100000007 0 0 0
Ni 1.50446500 6.38290500 -3.1915394100000007 0 0 0
Ni 4.51339500 2.12763500 -3.1915394100000007 0 0 0
Ni 0.00000000 6.38290500 -1.0637585299999976 0 0 0
Ni 3.00893000 0.00000000 -3.1915394100000007 0 0 0
Ni 0.00000000 2.12763500 -1.0637585299999976 0 0 0
Ni 3.00893000 4.25527000 -3.1915394100000007 0 0 0
Ni 1.52360179 4.27007834 3.05777811
Ni 4.49407767 8.49564656 3.05751428
Ni 4.49425821 4.27007834 3.05777811
Ni 1.52378233 8.49564656 3.05751428
Ni 4.58229950 2.12772011 1.06797979
Ni 1.63950578 6.38299011 1.12259239
Ni 1.43556050 2.12772011 1.06797979
Ni 4.37835422 6.38299011 1.12259239
Ni 0.00000000 2.12746479 3.21132659
Ni 3.00893000 4.18786652 1.01864377
Ni 0.00000000 6.38290500 3.02268885
Ni 3.00893000 0.06757369 1.01837994
Sn 0.00000000 0.00000000 -3.1915394100000007 0 0 0
Sn 3.00893000 2.12763500 -1.0637585299999976 0 0 0
Sn 3.00893000 6.38290500 -1.0637585299999976 0 0 0
Sn 0.00000000 4.25527000 -3.1915394100000007 0 0 0
Sn 0.00000000 4.32624790 1.00650763
Sn 3.00893000 6.38281989 3.44930035
Sn 3.00893000 2.12763500 3.20842447
Sn 0.00000000 8.43973231 1.00650763
C 0.00000000 2.12746479 4.96816390
O 0.00000000 2.12746479 6.12347109
