&CONTROL
calculation = 'relax'
prefix = 'scf'
pseudo_dir = '/vol0403/data/hp230205/u10028/POT_HYBRID_KKJUS_GBRV'
outdir = './data'
tprnfor = .true.
nstep = 50
disk_io = 'non'
/
&SYSTEM
ibrav = 0
ecutwfc = 50.0
ecutrho = 400
occupations = 'smearing'
smearing = 'mp'
degauss = 0.01
assume_isolated = 'esm'
esm_bc = 'bc1'
input_dft = 'BEEF-VDW'
nosym = .true.
nspin = 2
ntyp = 6
nat = 34
starting_magnetization(1) = 0.0
starting_magnetization(2) = 0.0
starting_magnetization(3) = 0.1
starting_magnetization(4) = 0.0
starting_magnetization(5) = 0.0
starting_magnetization(6) = 0.0
/
&ELECTRONS
electron_maxstep = 400
mixing_beta = 0.05
conv_thr = 1e-06
/
&IONS
ion_dynamics = 'bfgs'
upscale = 1.0
/
&CELL
/

K_POINTS {automatic}
6 6 1 0 0 0

ATOMIC_SPECIES
Al 26.98 Al.pbe-nl-rrkjus_psl.1.0.0.UPF
C 12.01 C.pbe-n-rrkjus_psl.1.0.0.UPF
Fe 55.84 fe_pbe_v1.5.uspp.F.UPF
Li 6.941 Li.pbe-sl-rrkjus_psl.1.0.0.UPF
O 15.99 O.pbe-n-rrkjus_psl.1.0.0.UPF
Pd 106.4 Pd.pbe-n-rrkjus_psl.1.0.0.UPF


CELL_PARAMETERS {angstrom}
8.60712000 0.00000000 0.00000000
0.00000000 8.84236000 0.00000000
0.00000000 0.00000000 24.25770000

ATOMIC_POSITIONS {angstrom}
Li 2.15178000 2.21059000 -2.1288557499999996 0 0 0
Li 2.16916638 2.21050158 0.61784362
Li 2.15178000 6.63177000 -2.1288557499999996 0 0 0
Li 2.15763284 6.63177000 0.67751756
Li 6.45534000 2.21059000 -2.1288557499999996 0 0 0
Li 6.43795362 2.21059000 0.61784362
Li 6.45534000 6.63177000 -2.1288557499999996 0 0 0
Li 6.44948716 6.63177000 0.67751756
Al 0.00000000 0.00000000 -2.1288557499999996 0 0 0
Al 8.60703393 8.82299523 0.65714109
Al 0.00000000 4.42118000 -2.1288557499999996 0 0 0
Al 8.60703393 4.44054477 0.65738367
Al 4.30356000 0.00000000 -2.1288557499999996 0 0 0
Al 4.30364607 8.83015754 0.68697806
Al 4.30356000 4.42118000 -2.1288557499999996 0 0 0
Al 4.30364607 4.43338246 0.68697806
Fe 2.15178000 0.00000000 -0.709537730000001 0 0 0
Fe 2.13843896 0.02909136 1.56656227
Fe 2.15178000 4.42118000 -0.709537730000001 0 0 0
Fe 2.13852504 4.39200021 1.56656227
Fe 6.45534000 0.00000000 -0.709537730000001 0 0 0
Fe 6.46868104 0.02909136 1.56704742
Fe 6.45534000 4.42118000 -0.709537730000001 0 0 0
Fe 6.46859496 4.39208864 1.56704742
Pd 0.00000000 2.21059000 -0.709537730000001 0 0 0
Pd 0.00008607 2.21059000 2.13831626
Pd 0.00000000 6.63177000 -0.709537730000001 0 0 0
Pd 0.00008607 6.63177000 2.08276612
Pd 4.30356000 2.21059000 -0.709537730000001 0 0 0
Pd 4.30347393 2.21059000 2.07670170
Pd 4.30356000 6.63177000 -0.709537730000001 0 0 0
Pd 4.30347393 6.63177000 2.09853363
C 0.00000000 2.21067842 4.09397203
O 0.00000000 2.21067842 5.24427216
