&CONTROL
calculation = 'relax'
prefix = 'scf'
pseudo_dir = '/vol0004/mdt0/data/hp150275/u10028/POT_HYBRID_KKJUS_GBRV'
outdir = './data'
tprnfor = .true.
nstep = 50
disk_io = 'non'
/
&SYSTEM
ibrav = 0
ecutwfc = 50.0
ecutrho = 400
occupations = 'smearing'
smearing = 'mp'
degauss = 0.01
assume_isolated = 'esm'
esm_bc = 'bc1'
input_dft = 'BEEF-VDW'
nosym = .true.
nspin = 2
ntyp = 4
nat = 33
starting_magnetization(1) = 0.0
starting_magnetization(2) = 0.1
starting_magnetization(3) = 0.0
starting_magnetization(4) = 0.0
/
&ELECTRONS
electron_maxstep = 300
mixing_beta = 0.1
conv_thr = 1e-06
/
&IONS
ion_dynamics = 'bfgs'
upscale = 1.0
/
&CELL
/

K_POINTS {automatic}
8 6 1 0 0 0

ATOMIC_SPECIES
C 12.01 C.pbe-n-rrkjus_psl.1.0.0.UPF
Co 58.93 co_pbe_v1.2.uspp.F.UPF
Ga 69.72 Ga.pbe-dnl-rrkjus_psl.1.0.0.UPF
Nb 92.90 Nb.pbe-spn-rrkjus_psl.1.0.0.UPF

CELL_PARAMETERS {angstrom}
5.97844000 0.00000000 0.00000000
0.00000000 8.45478000 0.00000000
0.00000000 0.00000000 26.34110000

ATOMIC_POSITIONS {angstrom}
Nb 0.00000000 0.00000000 -3.1704147999999996 0 0 0
Nb 2.98922000 2.11369500 -1.056804930000002 0 0 0
Nb 2.98922000 6.34108500 -1.056804930000002 0 0 0
Nb 0.00000000 4.22739000 -3.1704147999999996 0 0 0
Nb 0.00011957 4.22739000 1.11027736
Nb 2.98910043 6.41278153 3.24311623
Nb 2.98910043 2.04199847 3.24311623
Nb 0.00011957 0.00000000 1.02730290
Ga 0.00000000 6.34108500 -1.056804930000002 0 0 0
Ga 2.98922000 0.00000000 -3.1704147999999996 0 0 0
Ga 0.00000000 2.11369500 -1.056804930000002 0 0 0
Ga 2.98922000 4.22739000 -3.1704147999999996 0 0 0
Ga 5.97814108 2.12502441 3.24258941
Ga 2.98945914 4.22739000 1.09210201
Ga 5.97814108 6.32975559 3.24258941
Ga 2.98945914 0.00000000 1.06391703
Co 1.49461000 0.00000000 -1.056804930000002 0 0 0
Co 4.48383000 4.22739000 -1.056804930000002 0 0 0
Co 4.48383000 0.00000000 -1.056804930000002 0 0 0
Co 1.49461000 4.22739000 -1.056804930000002 0 0 0
Co 4.48383000 6.34108500 -3.1704147999999996 0 0 0
Co 1.49461000 2.11369500 -3.1704147999999996 0 0 0
Co 1.49461000 6.34108500 -3.1704147999999996 0 0 0
Co 4.48383000 2.11369500 -3.1704147999999996 0 0 0
Co 1.45640777 4.22739000 3.04529457
Co 4.69259712 0.00000000 3.09007444
Co 4.52203223 4.22739000 3.04529457
Co 1.28572331 0.00000000 3.09007444
Co 4.44162221 2.10414110 1.08235580
Co 1.53687757 6.35063890 1.08235580
Co 1.53687757 2.10414110 1.08235580
Co 4.44156243 6.35063890 1.08235580
C 2.98922000 0.00000000 3.91929227
