&CONTROL
calculation = 'relax'
prefix = 'scf'
pseudo_dir = '/vol0004/mdt0/data/hp150275/u10028/POT_KKJUS'
outdir = './data'
tprnfor = .true.
nstep = 50
disk_io = 'non'
/
&SYSTEM
ibrav = 0
ecutwfc = 50.0
ecutrho = 400
occupations = 'smearing'
smearing = 'mp'
degauss = 0.01
assume_isolated = 'esm'
esm_bc = 'bc1'
input_dft = 'BEEF-VDW'
nosym = .true.
nspin = 1
ntyp = 4
nat = 18
/
&ELECTRONS
electron_maxstep = 200
mixing_beta = 0.1
conv_thr = 1e-06
/
&IONS
ion_dynamics = 'bfgs'
upscale = 1.0
/
&CELL
/

K_POINTS {automatic}
6 8 1 0 0 0

ATOMIC_SPECIES
C 12.01 C.pbe-n-rrkjus_psl.1.0.0.UPF
In 114.8 In.pbe-dn-rrkjus_psl.1.0.0.UPF
O 15.99 O.pbe-n-rrkjus_psl.1.0.0.UPF
Pt 195.0 Pt.pbe-n-rrkjus_psl.1.0.0.UPF

CELL_PARAMETERS {angstrom}
8.16408000 0.00000000 0.00000000
0.00000000 5.77288000 0.00000000
0.00000000 0.00000000 24.32970000

ATOMIC_POSITIONS {angstrom}
In 0.00000000 0.00000000 -2.1648567099999987 0 0 0
In 8.15591592 2.97661239 0.82039748
In 4.08204000 0.00000000 -2.1648567099999987 0 0 0
In 4.09020408 2.97643920 0.82039748
Pt 0.00000000 2.88644000 -2.1648567099999987 0 0 0
Pt 2.04102000 4.32966000 -0.7216188999999993 0 0 0
Pt 2.04102000 1.44322000 -0.7216188999999993 0 0 0
Pt 8.15248701 0.08613137 0.74302904
Pt 2.04102000 1.50002514 2.11206126
Pt 2.04102000 4.45014001 2.05415657
Pt 4.08204000 2.88644000 -2.1648567099999987 0 0 0
Pt 6.12306000 4.32966000 -0.7216188999999993 0 0 0
Pt 6.12306000 1.44322000 -0.7216188999999993 0 0 0
Pt 4.09371463 0.08601591 0.74302904
Pt 6.12306000 1.56768329 2.06267197
Pt 6.12306000 4.50273094 2.06899769
C 2.04110164 1.65237144 3.97498639
O 2.04110164 1.69751536 5.12748427
