&CONTROL
calculation = 'relax'
prefix = 'scf'
pseudo_dir = '/vol0004/mdt0/data/hp150275/u10028/POT_KKJUS'
outdir = './data'
tprnfor = .true.
nstep = 50
disk_io = 'non'
/
&SYSTEM
ibrav = 0
ecutwfc = 50.0
ecutrho = 400
occupations = 'smearing'
smearing = 'mp'
degauss = 0.01
assume_isolated = 'esm'
esm_bc = 'bc1'
input_dft = 'BEEF-VDW'
nosym = .true.
nspin = 1
ntyp = 3
nat = 32
/
&ELECTRONS
electron_maxstep = 200
mixing_beta = 0.1
conv_thr = 1e-06
/
&IONS
ion_dynamics = 'bfgs'
upscale = 1.0
/
&CELL
/

K_POINTS {automatic}
9 6 2 0  0  0

ATOMIC_SPECIES
Al 26.98 Al.pbe-nl-rrkjus_psl.1.0.0.UPF
Au 196.9 Au.pbe-n-rrkjus_psl.1.0.0.UPF
Hf 178.4 Hf.pbe-spn-rrkjus_psl.1.0.0.UPF

CELL_PARAMETERS {angstrom}
6.63475000 0.00000000 0.00000000
0.00000000 9.38295000 0.00000000
0.00000000 0.00000000 27.03720000

ATOMIC_POSITIONS {angstrom}
Hf 0.00000000 0.00000000 -3.518621209999999 0 0 0
Hf 3.31737500 2.34573750 -1.17287374 0 0 0
Hf 3.31737500 7.03721250 -1.17287374 0 0 0
Hf 0.00000000 4.69147500 -3.518621209999999 0 0 0
Hf 0.00000000 4.69147500 1.27940030
Hf 3.31737500 7.03721250 3.40344274
Hf 3.31737500 2.34573750 3.40344274
Hf 0.00000000 0.00000000 1.27940030
Al 0.00000000 7.03721250 -1.17287374 0 0 0
Al 3.31737500 0.00000000 -3.518621209999999 0 0 0
Al 0.00000000 2.34573750 -1.17287374 0 0 0
Al 3.31737500 4.69147500 -3.518621209999999 0 0 0
Al 0.00000000 2.34573750 3.51916195
Al 3.31737500 4.69147500 1.16665518
Al 0.00000000 7.03721250 3.51916195
Al 3.31737500 0.00000000 1.16665518
Au 1.65868750 0.00000000 -1.17287374 0 0 0
Au 4.97606250 4.69147500 -1.17287374 0 0 0
Au 4.97606250 0.00000000 -1.17287374 0 0 0
Au 1.65868750 4.69147500 -1.17287374 0 0 0
Au 4.97606250 7.03721250 -3.518621209999999 0 0 0
Au 1.65868750 2.34573750 -3.518621209999999 0 0 0
Au 1.65868750 7.03721250 -3.518621209999999 0 0 0
Au 4.97606250 2.34573750 -3.518621209999999 0 0 0
Au 1.69670462 4.69147500 3.61730699
Au 4.93804538 0.00000000 3.61730699
Au 4.93804538 4.69147500 3.61730699
Au 1.69670462 0.00000000 3.61730699
Au 4.98661175 2.34573750 1.12799198
Au 1.64813825 7.03721250 1.12799198
Au 1.64813825 2.34573750 1.12799198
Au 4.98661175 7.03721250 1.12799198
