&CONTROL
calculation = 'relax'
prefix = 'scf'
pseudo_dir = '/vol0004/mdt0/data/hp150275/u10028/POT_HYBRID_KKJUS_GBRV'
outdir = './data'
tprnfor = .true.
nstep = 50
disk_io = 'non'
/
&SYSTEM
ibrav = 0
ecutwfc = 50.0
ecutrho = 400
occupations = 'smearing'
smearing = 'mp'
degauss = 0.01
assume_isolated = 'esm'
esm_bc = 'bc1'
input_dft = 'BEEF-VDW'
nosym = .true.
nspin = 2
ntyp = 3
nat = 33
starting_magnetization(1) = 0.0
starting_magnetization(2) = 0.0
starting_magnetization(3) = 0.01
/
&ELECTRONS
electron_maxstep = 200
mixing_beta = 0.1
conv_thr = 1e-06
/
&IONS
ion_dynamics = 'bfgs'
upscale = 1.0
/
&CELL
/

K_POINTS {automatic}
7 7 2 0  0  0

ATOMIC_SPECIES
C 12.01 C.pbe-n-rrkjus_psl.1.0.0.UPF
Ge 72.64 Ge.pbe-dn-rrkjus_psl.1.0.0.UPF
Ni 58.69 ni_pbe_v1.4.uspp.F.UPF

CELL_PARAMETERS {angstrom}
7.18728000 0.00000000 0.00000000
-0.00000000 7.18728000 0.00000000
0.00000000 0.00000000 25.39050000

ATOMIC_POSITIONS {angstrom}
Ni 0.00000000 1.79682000 0.89831589
Ni 1.79682000 -0.00000000 0.89831589
Ni 1.79682000 1.79682000 2.69520157
Ni 0.00000000 1.79682000 22.69529843
Ni 1.79682000 0.00000000 22.69529843
Ni 1.79682000 1.79682000 24.49218411
Ni 0.00000000 5.39046000 0.89831589
Ni 1.79682000 3.59364000 0.89831589
Ni 1.79682000 5.39046000 2.69520157
Ni 0.00000000 5.39046000 22.69529843
Ni 1.79682000 3.59364000 22.69529843
Ni 1.79682000 5.39046000 24.49218411
Ni 3.59364000 1.79682000 0.89831589
Ni 5.39046000 -0.00000000 0.89831589
Ni 5.39046000 1.79682000 2.69520157
Ni 3.59364000 1.79682000 22.69529843
Ni 5.39046000 0.00000000 22.69529843
Ni 5.39046000 1.79682000 24.49218411
Ni 3.59364000 5.39046000 0.89831589
Ni 5.39046000 3.59364000 0.89831589
Ni 5.39046000 5.39046000 2.69520157
Ni 3.59364000 5.39046000 22.69529843
Ni 5.39046000 3.59364000 22.69529843
Ni 5.39046000 5.39046000 24.49218411
Ge 0.00000000 0.00000000 2.69520157
Ge 0.00000000 0.00000000 24.49218411
Ge 0.00000000 3.59364000 2.69520157
Ge 0.00000000 3.59364000 24.49218411
Ge 3.59364000 -0.00000000 2.69520157
Ge 3.59364000 0.00000000 24.49218411
Ge 3.59364000 3.59364000 2.69520157
Ge 3.59364000 3.59364000 24.49218411
C 1.79682000 -0.00000000 3.49525623
