&CONTROL
calculation = 'relax'
prefix = 'scf'
pseudo_dir = '/vol0403/data/hp230205/u10028/POT_HYBRID_KKJUS_GBRV'
outdir = './data'
tprnfor = .true.
nstep = 50
disk_io = 'non'
/
&SYSTEM
ibrav = 0
ecutwfc = 50.0
ecutrho = 400
occupations = 'smearing'
smearing = 'mp'
degauss = 0.01
assume_isolated = 'esm'
esm_bc = 'bc1'
input_dft = 'BEEF-VDW'
nosym = .true.
nspin = 1
ntyp = 5
nat = 17
/
&ELECTRONS
electron_maxstep = 200
mixing_beta = 0.1
conv_thr = 1e-06
/
&IONS
ion_dynamics = 'bfgs'
upscale = 1.0
/
&CELL
/

K_POINTS {automatic}
8 11 2 0  0  0

ATOMIC_SPECIES
Au 196.9 Au.pbe-n-rrkjus_psl.1.0.0.UPF
C 12.01 C.pbe-n-rrkjus_psl.1.0.0.UPF
Ge 72.64 Ge.pbe-dn-rrkjus_psl.1.0.0.UPF
In 114.8 In.pbe-dn-rrkjus_psl.1.0.0.UPF
Li 6.941 Li.pbe-sl-rrkjus_psl.1.0.0.UPF


CELL_PARAMETERS {angstrom}
8.39470000 0.00000000 0.00000000
0.00000000 6.02588000 0.00000000
0.00000000 0.00000000 24.51900000

ATOMIC_POSITIONS {angstrom}
Li 2.09867500 1.62801200 0.88587147
Li 2.09867500 4.45975379 -2.2594258499999995 0 0 0
Li 6.29602500 1.56986226 0.72183936
Li 6.29602500 4.45975379 -2.2594258499999995 0 0 0
In 2.09867500 4.65222040 0.81746346
In 2.09867500 1.44681379 -2.2594258499999995 0 0 0
In 6.29602500 4.38876892 1.29264168
In 6.29602500 1.44681379 -2.2594258499999995 0 0 0
Ge 0.28323718 2.82402866 2.98984686
Ge 0.00000000 5.98610919 -0.7532236799999978 0 0 0
Ge 3.91419677 2.82396840 2.98984686
Ge 4.19735000 5.98610919 -0.7532236799999978 0 0 0
Au 8.31402693 0.43193508 1.93160682
Au 0.00000000 2.97316919 -0.7532236799999978 0 0 0
Au 4.27802307 0.43181456 1.93160682
Au 4.19735000 2.97316919 -0.7532236799999978 0 0 0
C 2.09867500 3.09218032 2.45802975
