&CONTROL
calculation = 'relax'
prefix = 'scf'
pseudo_dir = '/vol0004/mdt0/data/hp150275/u10028/POT_KKJUS'
outdir = './data'
tprnfor = .true.
nstep = 50
disk_io = 'non'
/
&SYSTEM
ibrav = 0
ecutwfc = 50.0
ecutrho = 400
occupations = 'smearing'
smearing = 'mp'
degauss = 0.01
assume_isolated = 'esm'
esm_bc = 'bc1'
input_dft = 'BEEF-VDW'
nosym = .true.
nspin = 1
ntyp = 3
nat = 32
/
&ELECTRONS
electron_maxstep = 200
mixing_beta = 0.1
conv_thr = 1e-06
/
&IONS
ion_dynamics = 'bfgs'
upscale = 1.0
/
&CELL
/

K_POINTS {automatic}
9 6 2 0  0  0

ATOMIC_SPECIES
In 114.8 In.pbe-dn-rrkjus_psl.1.0.0.UPF
Li 6.941 Li.pbe-sl-rrkjus_psl.1.0.0.UPF
Pd 106.4 Pd.pbe-n-rrkjus_psl.1.0.0.UPF

CELL_PARAMETERS {angstrom}
6.70566000 0.00000000 0.00000000
0.00000000 9.48324000 0.00000000
0.00000000 0.00000000 27.11240000

ATOMIC_POSITIONS {angstrom}
Li 0.00000000 0.00000000 -3.5563335100000018 0 0 0
Li 3.35283000 2.37081000 -1.1853541300000003 0 0 0
Li 3.35283000 7.11243000 -1.1853541300000003 0 0 0
Li 0.00000000 4.74162000 -3.5563335100000018 0 0 0
Li 0.00000000 4.74162000 1.29353260
Li 3.35283000 7.11243000 3.78706003
Li 3.35283000 2.37081000 3.78706003
Li 0.00000000 0.00000000 1.29353260
In 1.67641500 0.00000000 -1.1853541300000003 0 0 0
In 5.02924500 4.74162000 -1.1853541300000003 0 0 0
In 5.02924500 0.00000000 -1.1853541300000003 0 0 0
In 1.67641500 4.74162000 -1.1853541300000003 0 0 0
In 5.02924500 7.11243000 -3.5563335100000018 0 0 0
In 1.67641500 2.37081000 -3.5563335100000018 0 0 0
In 1.67641500 7.11243000 -3.5563335100000018 0 0 0
In 5.02924500 2.37081000 -3.5563335100000018 0 0 0
In 1.64677598 4.74162000 3.84697844
In 5.05888402 0.00000000 3.84697844
In 5.05888402 4.74162000 3.84697844
In 1.64677598 0.00000000 3.84697844
In 4.97459387 2.37081000 1.25421962
In 1.73106613 7.11243000 1.25421962
In 1.73106613 2.37081000 1.25421962
In 4.97459387 7.11243000 1.25421962
Pd 0.00000000 7.11243000 -1.1853541300000003 0 0 0
Pd 3.35283000 0.00000000 -3.5563335100000018 0 0 0
Pd 0.00000000 2.37081000 -1.1853541300000003 0 0 0
Pd 3.35283000 4.74162000 -3.5563335100000018 0 0 0
Pd 0.00000000 2.37081000 3.39799709
Pd 3.35283000 4.74162000 1.11757313
Pd 0.00000000 7.11243000 3.39799709
Pd 3.35283000 0.00000000 1.11757313
