&CONTROL
calculation = 'relax'
prefix = 'scf'
pseudo_dir = '/vol0004/mdt0/data/hp150275/u10028/POT_HYBRID_KKJUS_GBRV'
outdir = './data'
tprnfor = .true.
nstep = 50
disk_io = 'non'
/
&SYSTEM
ibrav = 0
ecutwfc = 50.0
ecutrho = 400
occupations = 'smearing'
smearing = 'mp'
degauss = 0.01
assume_isolated = 'esm'
esm_bc = 'bc1'
input_dft = 'BEEF-VDW'
nosym = .true.
nspin = 2
ntyp = 5
nat = 34
starting_magnetization(1) = 0.0
starting_magnetization(2) = 0.1
starting_magnetization(3) = 0.0
starting_magnetization(4) = 0.0
starting_magnetization(5) = 0.0
/
&ELECTRONS
electron_maxstep = 200
mixing_beta = 0.1
conv_thr = 1e-06
/
&IONS
ion_dynamics = 'bfgs'
upscale = 1.0
/
&CELL
/

K_POINTS {automatic}
9 6 2 0  0  0

ATOMIC_SPECIES
C 12.01 C.pbe-n-rrkjus_psl.1.0.0.UPF
Co 58.93 co_pbe_v1.2.uspp.F.UPF
O 15.99 O.pbe-n-rrkjus_psl.1.0.0.UPF
Si 28.08 Si.pbe-nl-rrkjus_psl.1.0.0.UPF
V 50.94 V.pbe-spnl-rrkjus_psl.1.0.0.UPF

CELL_PARAMETERS {angstrom}
5.68381000 0.00000000 0.00000000
0.00000000 8.03813000 0.00000000
0.00000000 0.00000000 26.02860000

ATOMIC_POSITIONS {angstrom}
V 0.00000000 0.00000000 23.01422783
V 2.84190500 2.00953250 25.02389604
V 2.84190500 6.02859750 25.02389604
V 0.00000000 4.01906500 23.01422783
V 0.00000000 4.01906500 1.00470396
V 2.84190500 6.02859750 3.01437217
V 2.84190500 2.00953250 3.01437217
V 0.00000000 0.00000000 1.00470396
Co 1.42095250 0.00000000 25.02389604
Co 4.26285750 4.01906500 25.02389604
Co 4.26285750 0.00000000 25.02389604
Co 1.42095250 4.01906500 25.02389604
Co 4.26285750 6.02859750 23.01422783
Co 1.42095250 2.00953250 23.01422783
Co 1.42095250 6.02859750 23.01422783
Co 4.26285750 2.00953250 23.01422783
Co 1.42095250 4.01906500 3.01437217
Co 4.26285750 0.00000000 3.01437217
Co 4.26285750 4.01906500 3.01437217
Co 1.42095250 0.00000000 3.01437217
Co 4.26285750 2.00953250 1.00470396
Co 1.42095250 6.02859750 1.00470396
Co 1.42095250 2.00953250 1.00470396
Co 4.26285750 6.02859750 1.00470396
Si 0.00000000 6.02859750 25.02389604
Si 2.84190500 0.00000000 23.01422783
Si 0.00000000 2.00953250 25.02389604
Si 2.84190500 4.01906500 23.01422783
Si 0.00000000 2.00953250 3.01437217
Si 2.84190500 4.01906500 1.00470396
Si 0.00000000 6.02859750 3.01437217
Si 2.84190500 0.00000000 1.00470396
C 0.00000000 2.00953250 4.91419968
O 0.00000000 2.00953250 6.06440351
