&CONTROL
calculation = 'relax'
prefix = 'scf'
pseudo_dir = '/vol0004/mdt0/data/hp150275/u10028/POT_KKJUS'
outdir = './data'
tprnfor = .true.
nstep = 50
disk_io = 'non'
/
&SYSTEM
ibrav = 0
ecutwfc = 50.0
ecutrho = 400
occupations = 'smearing'
smearing = 'mp'
degauss = 0.01
assume_isolated = 'esm'
esm_bc = 'bc1'
input_dft = 'BEEF-VDW'
nosym = .true.
nspin = 1
ntyp = 5
nat = 34
/
&ELECTRONS
electron_maxstep = 200
mixing_beta = 0.1
conv_thr = 1e-06
/
&IONS
ion_dynamics = 'bfgs'
upscale = 1.0
/
&CELL
/

K_POINTS {automatic}
9 6 2 0  0  0

ATOMIC_SPECIES
C 12.01 C.pbe-n-rrkjus_psl.1.0.0.UPF
Ni 58.69 Ni.pbe-spn-rrkjus_psl.1.0.0.UPF
O 15.99 O.pbe-n-rrkjus_psl.1.0.0.UPF
Sn 118.7 Sn.pbe-dn-rrkjus_psl.1.0.0.UPF
Ti 47.86 Ti.pbe-spn-rrkjus_psl.1.0.0.UPF

CELL_PARAMETERS {angstrom}
6.14888000 0.00000000 0.00000000
0.00000000 8.69583000 0.00000000
0.00000000 0.00000000 26.52190000

ATOMIC_POSITIONS {angstrom}
Ti 0.00000000 0.00000000 -3.2608676099999983 0 0 0
Ti 3.07444000 2.17395750 -1.086867459999997 0 0 0
Ti 3.07444000 6.52187250 -1.086867459999997 0 0 0
Ti 0.00000000 4.34791500 -3.2608676099999983 0 0 0
Ti 6.11426181 4.34791500 1.13062860
Ti 3.05224254 6.50126338 3.20596727
Ti 3.05218105 2.19430574 3.20623249
Ti 6.14193177 0.00017392 1.13407644
Ni 1.53722000 0.00000000 -1.086867459999997 0 0 0
Ni 4.61166000 4.34791500 -1.086867459999997 0 0 0
Ni 4.61166000 0.00000000 -1.086867459999997 0 0 0
Ni 1.53722000 4.34791500 -1.086867459999997 0 0 0
Ni 4.61166000 6.52187250 -3.2608676099999983 0 0 0
Ni 1.53722000 2.17395750 -3.2608676099999983 0 0 0
Ni 1.53722000 6.52187250 -3.2608676099999983 0 0 0
Ni 4.61166000 2.17395750 -3.2608676099999983 0 0 0
Ni 1.62145966 4.34791500 3.13303205
Ni 4.61006129 0.00000000 3.06805339
Ni 4.42252045 4.34756717 3.17308012
Ni 1.60418130 8.69556913 3.42662948
Ni 4.66048211 2.15552234 1.16696360
Ni 1.41768577 6.51056792 1.22239437
Ni 1.41842364 2.18552295 1.22159871
Ni 4.66085104 6.54030766 1.16722882
Sn 0.00000000 6.52187250 -1.086867459999997 0 0 0
Sn 3.07444000 0.00000000 -3.2608676099999983 0 0 0
Sn 0.00000000 2.17395750 -1.086867459999997 0 0 0
Sn 3.07444000 4.34791500 -3.2608676099999983 0 0 0
Sn 6.09114202 2.22761077 3.54359106
Sn 3.05636229 4.34817587 1.00358870
Sn 6.09071160 6.46795835 3.54412150
Sn 3.00034600 8.69565608 1.07307607
C 2.32753555 8.69565608 5.03438706
O 2.68638418 0.00008696 6.14326770
