&CONTROL
calculation = 'relax'
prefix = 'scf'
pseudo_dir = '/vol0004/mdt0/data/hp150275/u10028/POT_KKJUS'
outdir = './data'
tprnfor = .true.
nstep = 50
disk_io = 'non'
/
&SYSTEM
ibrav = 0
ecutwfc = 50.0
ecutrho = 400
occupations = 'smearing'
smearing = 'mp'
degauss = 0.01
assume_isolated = 'esm'
esm_bc = 'bc1'
input_dft = 'BEEF-VDW'
nosym = .true.
nspin = 1
ntyp = 3
nat = 33
/
&ELECTRONS
electron_maxstep = 200
mixing_beta = 0.1
conv_thr = 1e-06
/
&IONS
ion_dynamics = 'bfgs'
upscale = 1.0
/
&CELL
/

K_POINTS {automatic}
8 6 1 0 0 0

ATOMIC_SPECIES
C 12.01 C.pbe-n-rrkjus_psl.1.0.0.UPF
Ir 192.2 Ir.pbe-n-rrkjus_psl.0.2.3.UPF
Zr 91.22 Zr.pbe-spn-rrkjus_psl.1.0.0.UPF

CELL_PARAMETERS {angstrom}
6.65024000 0.00000000 0.00000000
0.00000000 9.40485000 0.00000000
0.00000000 0.00000000 27.05360000

ATOMIC_POSITIONS {angstrom}
Zr 1.66256000 2.35121250 -3.526707299999998 0 0 0
Zr 1.66256000 0.00000000 -1.1754789199999998 0 0 0
Zr 1.66309202 2.35121250 1.22444594
Zr 1.66302552 9.37484853 3.54997339
Zr 1.66256000 7.05363750 -3.526707299999998 0 0 0
Zr 1.66256000 4.70242500 -1.1754789199999998 0 0 0
Zr 1.66242700 7.05363750 1.15816462
Zr 1.66302552 4.73242647 3.54997339
Zr 4.98768000 2.35121250 -3.526707299999998 0 0 0
Zr 4.98768000 0.00000000 -1.1754789199999998 0 0 0
Zr 4.98774650 2.35121250 1.12191279
Zr 4.98841153 9.34964353 3.58433146
Zr 4.98768000 7.05363750 -3.526707299999998 0 0 0
Zr 4.98768000 4.70242500 -1.1754789199999998 0 0 0
Zr 4.98754700 7.05363750 1.17574946
Zr 4.98841153 4.75763147 3.58433146
Ir 0.00000000 0.00000000 -3.526707299999998 0 0 0
Ir 0.00000000 2.35121250 -1.1754789199999998 0 0 0
Ir 0.00219458 0.00075239 1.19603966
Ir 6.39247670 2.35121250 3.41551700
Ir 0.00000000 4.70242500 -3.526707299999998 0 0 0
Ir 0.00000000 7.05363750 -1.1754789199999998 0 0 0
Ir 0.00219458 4.70167261 1.19603966
Ir 0.03019209 7.05363750 3.28809454
Ir 3.32512000 0.00000000 -3.526707299999998 0 0 0
Ir 3.32512000 2.35121250 -1.1754789199999998 0 0 0
Ir 3.32239340 0.00047024 1.19603966
Ir 3.58740547 2.35121250 3.41686968
Ir 3.32512000 4.70242500 -3.526707299999998 0 0 0
Ir 3.32512000 7.05363750 -1.1754789199999998 0 0 0
Ir 3.32239340 4.70195476 1.19603966
Ir 3.29559293 7.05363750 3.28809454
C 1.66522010 2.35121250 3.70201462
