&CONTROL
calculation = 'relax'
prefix = 'scf'
pseudo_dir = '/vol0004/mdt0/data/hp150275/u10028/POT_HYBRID_KKJUS_GBRV'
outdir = './data'
tprnfor = .true.
nstep = 50
disk_io = 'non'
/
&SYSTEM
ibrav = 0
ecutwfc = 50.0
ecutrho = 400
occupations = 'smearing'
smearing = 'mp'
degauss = 0.01
assume_isolated = 'esm'
esm_bc = 'bc1'
input_dft = 'BEEF-VDW'
nosym = .true.
nspin = 2
ntyp = 4
nat = 33
starting_magnetization(1) = 0.0
starting_magnetization(2) = 0.1
starting_magnetization(3) = 0.1
starting_magnetization(4) = 0.0
/
&ELECTRONS
electron_maxstep = 200
mixing_beta = 0.1
conv_thr = 1e-06
/
&IONS
ion_dynamics = 'bfgs'
upscale = 1.0
/
&CELL
/

K_POINTS {automatic}
9 6 2 0  0  0

ATOMIC_SPECIES
C 12.01 C.pbe-n-rrkjus_psl.1.0.0.UPF
Co 58.93 co_pbe_v1.2.uspp.F.UPF
Fe 55.84 fe_pbe_v1.5.uspp.F.UPF
Ge 72.64 Ge.pbe-dn-rrkjus_psl.1.0.0.UPF

CELL_PARAMETERS {angstrom}
5.76795000 0.00000000 0.00000000
0.00000000 8.15711000 0.00000000
0.00000000 0.00000000 26.11780000

ATOMIC_POSITIONS {angstrom}
Fe 0.00000000 0.00000000 23.05888326
Fe 2.88397500 2.03927750 25.09816109
Fe 2.88397500 6.11783250 25.09816109
Fe 0.00000000 4.07855500 23.05888326
Fe 0.00005768 4.07855500 1.02512365
Fe 2.88391732 6.18904407 3.14562783
Fe 2.88391732 1.96806593 3.14562783
Fe 0.00005768 0.00000000 0.94441965
Co 1.44198750 0.00000000 25.09816109
Co 4.32596250 4.07855500 25.09816109
Co 4.32596250 0.00000000 25.09816109
Co 1.44198750 4.07855500 25.09816109
Co 4.32596250 6.11783250 23.05888326
Co 1.44198750 2.03927750 23.05888326
Co 1.44198750 6.11783250 23.05888326
Co 4.32596250 2.03927750 23.05888326
Co 1.44164142 4.07855500 2.95105022
Co 4.48527328 0.00000000 2.95287847
Co 4.32625090 4.07855500 2.95105022
Co 1.28256136 0.00000000 2.95287847
Co 4.32290549 2.02361585 1.04810731
Co 1.44504451 6.13349415 1.04810731
Co 1.44504451 2.02361585 1.04810731
Co 4.32290549 6.13349415 1.04810731
Ge 0.00000000 6.11783250 25.09816109
Ge 2.88397500 0.00000000 23.05888326
Ge 0.00000000 2.03927750 25.09816109
Ge 2.88397500 4.07855500 23.05888326
Ge 0.00000000 2.07671863 3.19394576
Ge 2.88391732 4.07855500 1.03008603
Ge 0.00000000 6.08039137 3.19394576
Ge 2.88385964 0.00000000 1.00788590
C 2.88391732 0.00000000 3.71551823
