&CONTROL
calculation = 'relax'
prefix = 'scf'
pseudo_dir = '/vol0403/data/hp230205/u10028/POT_HYBRID_KKJUS_GBRV'
outdir = './data'
tprnfor = .true.
nstep = 50
disk_io = 'non'
/
&SYSTEM
ibrav = 0
ecutwfc = 50.0
ecutrho = 400
occupations = 'smearing'
smearing = 'mp'
degauss = 0.01
assume_isolated = 'esm'
esm_bc = 'bc1'
input_dft = 'BEEF-VDW'
nosym = .true.
nspin = 1
ntyp = 5
nat = 17
/
&ELECTRONS
electron_maxstep = 200
mixing_beta = 0.1
conv_thr = 1e-06
/
&IONS
ion_dynamics = 'bfgs'
upscale = 1.0
/
&CELL
/

K_POINTS {automatic}
6 6 1 0 0 0

ATOMIC_SPECIES
C 12.01 C.pbe-n-rrkjus_psl.1.0.0.UPF
In 114.8 In.pbe-dn-rrkjus_psl.1.0.0.UPF
Pd 106.4 Pd.pbe-n-rrkjus_psl.1.0.0.UPF
Sn 118.7 Sn.pbe-dn-rrkjus_psl.1.0.0.UPF
Y 88.90 Y.pbe-spn-rrkjus_psl.1.0.0.UPF


CELL_PARAMETERS {angstrom}
6.32964000 0.00000000 0.00000000
0.00000000 9.06394000 0.00000000
0.00000000 0.00000000 24.74170000

ATOMIC_POSITIONS {angstrom}
Y 4.67121102 2.26598500 -0.7902499000000027 0 0 0
Y 1.29048700 2.22510663 2.34872958
Y 4.67121102 6.79795500 -0.7902499000000027 0 0 0
Y 1.29048700 6.83883337 2.34872958
In 0.00000000 0.00000000 -2.3707496900000002 0 0 0
In 2.59800074 0.00000000 0.58637829
In 0.00000000 4.53197000 -2.3707496900000002 0 0 0
In 2.85916168 4.53197000 0.71157129
Sn 3.16482000 0.00000000 -2.3707496900000002 0 0 0
Sn 5.62027725 0.00000000 1.28260973
Sn 3.16482000 4.53197000 -2.3707496900000002 0 0 0
Sn 6.15462545 4.53197000 0.81325968
Pd 1.50639102 2.26598500 -0.7902499000000027 0 0 0
Pd 4.38821282 2.42297244 1.93678028
Pd 1.50639102 6.79795500 -0.7902499000000027 0 0 0
Pd 4.38821282 6.64096756 1.93678028
C 1.20535335 0.00000000 2.42963494
