&CONTROL
calculation = 'relax'
prefix = 'scf'
pseudo_dir = '/vol0004/mdt0/data/hp150275/u10028/POT_KKJUS'
outdir = './data'
tprnfor = .true.
nstep = 50
disk_io = 'non'
/
&SYSTEM
ibrav = 0
ecutwfc = 50.0
ecutrho = 400
occupations = 'smearing'
smearing = 'mp'
degauss = 0.01
assume_isolated = 'esm'
esm_bc = 'bc1'
input_dft = 'BEEF-VDW'
nosym = .true.
nspin = 1
ntyp = 3
nat = 32
/
&ELECTRONS
electron_maxstep = 200
mixing_beta = 0.1
conv_thr = 1e-06
/
&IONS
ion_dynamics = 'bfgs'
upscale = 1.0
/
&CELL
/

K_POINTS {automatic}
8 6 1 0 0 0

ATOMIC_SPECIES
Al 26.98 Al.pbe-nl-rrkjus_psl.1.0.0.UPF
Ir 192.2 Ir.pbe-n-rrkjus_psl.0.2.3.UPF
Li 6.941 Li.pbe-sl-rrkjus_psl.1.0.0.UPF

CELL_PARAMETERS {angstrom}
6.04348000 0.00000000 0.00000000
0.00000000 8.54677000 0.00000000
0.00000000 0.00000000 26.41010000

ATOMIC_POSITIONS {angstrom}
Li 0.00000000 0.00000000 -3.2051297400000003 0 0 0
Li 3.02174000 2.13669250 -1.068288540000001 0 0 0
Li 3.02174000 6.41007750 -1.068288540000001 0 0 0
Li 0.00000000 4.27338500 -3.2051297400000003 0 0 0
Li 0.00000000 4.27338500 0.95974303
Li 3.02174000 6.41007750 3.49194342
Li 3.02174000 2.13669250 3.49194342
Li 0.00000000 0.00000000 0.95974303
Al 1.51087000 0.00000000 -1.068288540000001 0 0 0
Al 4.53261000 4.27338500 -1.068288540000001 0 0 0
Al 4.53261000 0.00000000 -1.068288540000001 0 0 0
Al 1.51087000 4.27338500 -1.068288540000001 0 0 0
Al 4.53261000 6.41007750 -3.2051297400000003 0 0 0
Al 1.51087000 2.13669250 -3.2051297400000003 0 0 0
Al 1.51087000 6.41007750 -3.2051297400000003 0 0 0
Al 4.53261000 2.13669250 -3.2051297400000003 0 0 0
Al 1.38498431 4.27338500 3.12563534
Al 4.65849569 0.00000000 3.12563534
Al 4.65849569 4.27338500 3.12563534
Al 1.38498431 0.00000000 3.12563534
Al 4.52856087 2.13669250 1.08228590
Al 1.51491913 6.41007750 1.08228590
Al 1.51491913 2.13669250 1.08228590
Al 4.52856087 6.41007750 1.08228590
Ir 0.00000000 6.41007750 -1.068288540000001 0 0 0
Ir 3.02174000 0.00000000 -3.2051297400000003 0 0 0
Ir 0.00000000 2.13669250 -1.068288540000001 0 0 0
Ir 3.02174000 4.27338500 -3.2051297400000003 0 0 0
Ir 0.00000000 2.13669250 3.07888946
Ir 3.02174000 4.27338500 1.05878091
Ir 0.00000000 6.41007750 3.07888946
Ir 3.02174000 0.00000000 1.05878091
