&CONTROL
calculation = 'relax'
prefix = 'scf'
pseudo_dir = '/vol0403/data/hp230205/u10028/POT_HYBRID_KKJUS_GBRV'
outdir = './data'
tprnfor = .true.
nstep = 50
disk_io = 'non'
/
&SYSTEM
ibrav = 0
ecutwfc = 50.0
ecutrho = 400
occupations = 'smearing'
smearing = 'mp'
degauss = 0.01
assume_isolated = 'esm'
esm_bc = 'bc1'
input_dft = 'BEEF-VDW'
nosym = .true.
nspin = 1
ntyp = 6
nat = 18
/
&ELECTRONS
electron_maxstep = 200
mixing_beta = 0.1
conv_thr = 1e-06
/
&IONS
ion_dynamics = 'bfgs'
upscale = 1.0
/
&CELL
/

K_POINTS {automatic}
8 10 2 0  0  0

ATOMIC_SPECIES
C 12.01 C.pbe-n-rrkjus_psl.1.0.0.UPF
Ge 72.64 Ge.pbe-dn-rrkjus_psl.1.0.0.UPF
In 114.8 In.pbe-dn-rrkjus_psl.1.0.0.UPF
Li 6.941 Li.pbe-sl-rrkjus_psl.1.0.0.UPF
O 15.99 O.pbe-n-rrkjus_psl.1.0.0.UPF
Y 88.90 Y.pbe-spn-rrkjus_psl.1.0.0.UPF


CELL_PARAMETERS {angstrom}
8.49364000 0.00000000 0.00000000
0.00000000 6.33235000 0.00000000
0.00000000 0.00000000 24.73290000

ATOMIC_POSITIONS {angstrom}
Li 0.00042468 3.66788709 2.47452665
Li 0.00000000 6.07012739 -0.7887321800000002 0 0 0
Li 4.24622545 3.49406408 2.99639084
Li 4.24682000 6.07012739 -0.7887321800000002 0 0 0
Y 2.19450177 1.82302024 0.88791111
Y 2.12341000 4.35589692 -2.3664438700000012 0 0 0
Y 6.29803406 1.82302024 0.88964241
Y 6.37023000 4.35589692 -2.3664438700000012 0 0 0
In 2.29854886 4.91441019 1.29402533
In 2.12341000 1.18972192 -2.3664438700000012 0 0 0
In 6.19296773 4.91573998 1.29550930
In 6.37023000 1.18972192 -2.3664438700000012 0 0 0
Ge 0.00059455 0.37341868 2.14508442
Ge 0.00000000 2.90395239 -0.7887321800000002 0 0 0
Ge 4.24274305 0.32928220 2.27122221
Ge 4.24682000 2.90395239 -0.7887321800000002 0 0 0
C 0.00161379 6.02846052 3.90037833
O 8.49355506 5.62635630 4.99975573
