&CONTROL
calculation = 'relax'
prefix = 'scf'
pseudo_dir = '/vol0004/mdt0/data/hp150275/u10028/POT_HYBRID_KKJUS_GBRV'
outdir = './data'
tprnfor = .true.
nstep = 50
disk_io = 'non'
/
&SYSTEM
ibrav = 0
ecutwfc = 50.0
ecutrho = 400
occupations = 'smearing'
smearing = 'mp'
degauss = 0.01
assume_isolated = 'esm'
esm_bc = 'bc1'
input_dft = 'BEEF-VDW'
nosym = .true.
nspin = 2
ntyp = 3
nat = 33
starting_magnetization(1) = 0.1
starting_magnetization(2) = 0.1
starting_magnetization(3) = 0.1
/
&ELECTRONS
electron_maxstep = 200
mixing_beta = 0.1
conv_thr = 1e-06
/
&IONS
ion_dynamics = 'bfgs'
upscale = 1.0
/
&CELL
/

K_POINTS {automatic}
8 6 1 0 0 0

ATOMIC_SPECIES
C 12.01 C.pbe-n-rrkjus_psl.1.0.0.UPF
Co 58.93 co_pbe_v1.2.uspp.F.UPF
Fe 55.84 fe_pbe_v1.5.uspp.F.UPF

CELL_PARAMETERS {angstrom}
5.71351000 0.00000000 0.00000000
0.00000000 8.08012000 0.00000000
0.00000000 0.00000000 26.06010000

ATOMIC_POSITIONS {angstrom}
Fe 0.00000000 0.00000000 -3.030007829999999 0 0 0
Fe 0.00000000 2.02003000 -1.0100894799999978 0 0 0
Fe 0.00411373 0.00008080 1.04214340
Fe 5.46857183 2.02003000 3.05137711
Fe 0.00000000 4.04006000 -3.030007829999999 0 0 0
Fe 0.00000000 6.06009000 -1.0100894799999978 0 0 0
Fe 0.00411373 4.03997920 1.04214340
Fe 0.02691063 6.06000920 3.09046726
Fe 2.85675500 0.00000000 -3.030007829999999 0 0 0
Fe 2.85675500 2.02003000 -1.0100894799999978 0 0 0
Fe 2.85264127 0.00008080 1.04214340
Fe 3.10169317 2.02003000 3.05137711
Fe 2.85675500 4.04006000 -3.030007829999999 0 0 0
Fe 2.85675500 6.06009000 -1.0100894799999978 0 0 0
Fe 2.85264127 4.03997920 1.04214340
Fe 2.82984437 6.06000920 3.09046726
Co 1.42837750 2.02003000 -3.030007829999999 0 0 0
Co 1.42837750 0.00000000 -1.0100894799999978 0 0 0
Co 1.42837750 2.02003000 1.03093756
Co 1.42837750 3.92297906 3.01020215
Co 1.42837750 6.06009000 -3.030007829999999 0 0 0
Co 1.42837750 4.04006000 -1.0100894799999978 0 0 0
Co 1.42837750 6.06009000 1.05178564
Co 1.42837750 0.11700014 3.01020215
Co 4.28513250 2.02003000 -3.030007829999999 0 0 0
Co 4.28513250 0.00000000 -1.0100894799999978 0 0 0
Co 4.28513250 2.02003000 0.95901168
Co 4.28513250 4.13597102 2.93671267
Co 4.28513250 6.06009000 -3.030007829999999 0 0 0
Co 4.28513250 4.04006000 -1.0100894799999978 0 0 0
Co 4.28513250 6.06009000 1.02781034
Co 4.28513250 7.98420898 2.93671267
C 1.42837750 2.02003000 3.67812251
