&CONTROL
calculation = 'relax'
prefix = 'scf'
pseudo_dir = '/vol0403/data/hp230205/u10028/POT_HYBRID_KKJUS_GBRV'
outdir = './data'
tprnfor = .true.
nstep = 70
disk_io = 'non'
/
&SYSTEM
ibrav = 0
ecutwfc = 50.0
ecutrho = 400
occupations = 'smearing'
smearing = 'mp'
degauss = 0.01
assume_isolated = 'esm'
esm_bc = 'bc1'
input_dft = 'BEEF-VDW'
nosym = .true.
nspin = 1
ntyp = 4
nat = 32
/
&ELECTRONS
electron_maxstep = 200
mixing_beta = 0.1
conv_thr = 1e-06
/
&IONS
ion_dynamics = 'bfgs'
upscale = 1.0
/
&CELL
/

K_POINTS {automatic}
7 8 2 0  0  0

ATOMIC_SPECIES
Au 196.9 Au.pbe-n-rrkjus_psl.1.0.0.UPF
In 114.8 In.pbe-dn-rrkjus_psl.1.0.0.UPF
Li 6.941 Li.pbe-sl-rrkjus_psl.1.0.0.UPF
Pd 106.4 Pd.pbe-n-rrkjus_psl.1.0.0.UPF


CELL_PARAMETERS {angstrom}
8.89782000 0.00000000 0.00000000
-0.00000000 7.53916000 0.00000000
0.00000000 0.00000000 26.22480000

ATOMIC_POSITIONS {angstrom}
Li 0.00000000 1.88479000 1.03745309
Li 0.00000000 1.88479000 -3.112359259999998 0 0 0
Li 0.00000000 5.65437000 1.03745309
Li 0.00000000 5.65437000 -3.112359259999998 0 0 0
Li 4.44891000 1.88479000 1.03745309
Li 4.44891000 1.88479000 -3.112359259999998 0 0 0
Li 4.44891000 5.65437000 1.03745309
Li 4.44891000 5.65437000 -3.112359259999998 0 0 0
In 2.22445500 1.88479000 3.11235926
In 2.22445500 1.88479000 -1.0374530899999996 0 0 0
In 2.22445500 5.65437000 3.11235926
In 2.22445500 5.65437000 -1.0374530899999996 0 0 0
In 6.67336500 1.88479000 3.11235926
In 6.67336500 1.88479000 -1.0374530899999996 0 0 0
In 6.67336500 5.65437000 3.11235926
In 6.67336500 5.65437000 -1.0374530899999996 0 0 0
Pd 2.22445500 -0.00000000 1.03745309
Pd 2.22445500 0.00000000 -3.112359259999998 0 0 0
Pd 2.22445500 3.76958000 1.03745309
Pd 2.22445500 3.76958000 -3.112359259999998 0 0 0
Pd 6.67336500 -0.00000000 1.03745309
Pd 6.67336500 0.00000000 -3.112359259999998 0 0 0
Pd 6.67336500 3.76958000 1.03745309
Pd 6.67336500 3.76958000 -3.112359259999998 0 0 0
Au 0.00000000 0.00000000 3.11235926
Au 0.00000000 0.00000000 -1.0374530899999996 0 0 0
Au 0.00000000 3.76958000 3.11235926
Au 0.00000000 3.76958000 -1.0374530899999996 0 0 0
Au 4.44891000 -0.00000000 3.11235926
Au 4.44891000 0.00000000 -1.0374530899999996 0 0 0
Au 4.44891000 3.76958000 3.11235926
Au 4.44891000 3.76958000 -1.0374530899999996 0 0 0
