&CONTROL
calculation = 'relax'
prefix = 'scf'
pseudo_dir = '/vol0403/data/hp230205/u10028/POT_HYBRID_KKJUS_GBRV'
outdir = './data'
tprnfor = .true.
nstep = 50
disk_io = 'non'
/
&SYSTEM
ibrav = 0
ecutwfc = 50.0
ecutrho = 400
occupations = 'smearing'
smearing = 'mp'
degauss = 0.01
assume_isolated = 'esm'
esm_bc = 'bc1'
input_dft = 'BEEF-VDW'
nosym = .true.
nspin = 1
ntyp = 6
nat = 18
/
&ELECTRONS
electron_maxstep = 200
mixing_beta = 0.1
conv_thr = 1e-06
/
&IONS
ion_dynamics = 'bfgs'
upscale = 1.0
/
&CELL
/

K_POINTS {automatic}
6 6 1 0 0 0

ATOMIC_SPECIES
C 12.01 C.pbe-n-rrkjus_psl.1.0.0.UPF
Li 6.941 Li.pbe-sl-rrkjus_psl.1.0.0.UPF
O 15.99 O.pbe-n-rrkjus_psl.1.0.0.UPF
Pb 207.2 Pb.pbe-dn-rrkjus_psl.1.0.0.UPF
Sn 118.7 Sn.pbe-dn-rrkjus_psl.1.0.0.UPF
Y 88.90 Y.pbe-spn-rrkjus_psl.1.0.0.UPF


CELL_PARAMETERS {angstrom}
6.45119000 0.00000000 0.00000000
0.00000000 9.64462000 0.00000000
0.00000000 0.00000000 24.83120000

ATOMIC_POSITIONS {angstrom}
Li 0.00000000 0.00000000 -2.4155791399999984 0 0 0
Li 2.96851508 0.00000000 0.77572669
Li 0.00000000 4.82231000 -2.4155791399999984 0 0 0
Li 2.96864410 4.82231000 0.77572669
Y 4.75065632 2.41115500 -0.8052758199999985 0 0 0
Y 1.18985748 2.41115500 2.40589497
Y 4.75065632 7.23346500 -0.8052758199999985 0 0 0
Y 1.20650155 7.23356145 2.37411103
Sn 1.52506132 2.41115500 -0.8052758199999985 0 0 0
Sn 4.42525829 2.41115500 2.65793165
Sn 1.52506132 7.23346500 -0.8052758199999985 0 0 0
Sn 4.44428930 7.23346500 2.61199393
Pb 3.22559500 0.00000000 -2.4155791399999984 0 0 0
Pb 6.03941054 9.64288397 1.07543927
Pb 3.22559500 4.82231000 -2.4155791399999984 0 0 0
Pb 6.03941054 4.82404603 1.07568758
C 1.32371968 2.41115500 4.89969238
O 1.34758908 2.41105855 6.04664551
