&CONTROL
calculation = 'relax'
prefix = 'scf'
pseudo_dir = '/vol0004/mdt0/data/hp150275/u10028/POT_HYBRID_KKJUS_GBRV'
outdir = './data'
tprnfor = .true.
nstep = 50
disk_io = 'non'
/
&SYSTEM
ibrav = 0
ecutwfc = 50.0
ecutrho = 400
occupations = 'smearing'
smearing = 'mp'
degauss = 0.01
assume_isolated = 'esm'
esm_bc = 'bc1'
input_dft = 'BEEF-VDW'
nosym = .true.
nspin = 2
ntyp = 4
nat = 34
starting_magnetization(1) = 0.0
starting_magnetization(2) = 0.1
starting_magnetization(3) = 0.0
starting_magnetization(4) = 0.0
/
&ELECTRONS
electron_maxstep = 200
mixing_beta = 0.1
conv_thr = 1e-06
/
&IONS
ion_dynamics = 'bfgs'
upscale = 1.0
/
&CELL
/

K_POINTS {automatic}
6 8 2 0  0  0

ATOMIC_SPECIES
C 12.01 C.pbe-n-rrkjus_psl.1.0.0.UPF
Mn 54.93 mn_pbe_v1.5.uspp.F.UPF
O 15.99 O.pbe-n-rrkjus_psl.1.0.0.UPF
Pt 195.0 Pt.pbe-n-rrkjus_psl.1.0.0.UPF

CELL_PARAMETERS {angstrom}
8.47295000 0.00000000 0.00000000
-0.00000000 6.97516000 0.00000000
0.00000000 0.00000000 26.35470000

ATOMIC_POSITIONS {angstrom}
Mn 0.00000000 0.00000000 -3.1773226300000026 0 0 0
Mn 2.11823750 0.00000000 -1.0591953900000028 0 0 0
Mn 0.00000000 0.00000000 1.05919539
Mn 2.11823750 -0.00000000 3.17732263
Mn 0.00000000 3.48758000 -3.1773226300000026 0 0 0
Mn 2.11823750 3.48758000 -1.0591953900000028 0 0 0
Mn 0.00000000 3.48758000 1.05919539
Mn 2.11823750 3.48758000 3.17732263
Mn 4.23647500 0.00000000 -3.1773226300000026 0 0 0
Mn 6.35471250 0.00000000 -1.0591953900000028 0 0 0
Mn 4.23647500 -0.00000000 1.05919539
Mn 6.35471250 -0.00000000 3.17732263
Mn 4.23647500 3.48758000 -3.1773226300000026 0 0 0
Mn 6.35471250 3.48758000 -1.0591953900000028 0 0 0
Mn 4.23647500 3.48758000 1.05919539
Mn 6.35471250 3.48758000 3.17732263
Pt 2.11823750 1.74379000 -3.1773226300000026 0 0 0
Pt 4.23647500 1.74379000 -1.0591953900000028 0 0 0
Pt 2.11823750 1.74379000 1.05919539
Pt 0.00000000 1.74379000 3.17732263
Pt 2.11823750 5.23137000 -3.1773226300000026 0 0 0
Pt 4.23647500 5.23137000 -1.0591953900000028 0 0 0
Pt 2.11823750 5.23137000 1.05919539
Pt 0.00000000 5.23137000 3.17732263
Pt 6.35471250 1.74379000 -3.1773226300000026 0 0 0
Pt 0.00000000 1.74379000 -1.0591953900000028 0 0 0
Pt 6.35471250 1.74379000 1.05919539
Pt 4.23647500 1.74379000 3.17732263
Pt 6.35471250 5.23137000 -3.1773226300000026 0 0 0
Pt 0.00000000 5.23137000 -1.0591953900000028 0 0 0
Pt 6.35471250 5.23137000 1.05919539
Pt 4.23647500 5.23137000 3.17732263
C 2.11823750 -0.00000000 5.07723295
O 2.11823750 -0.00000000 6.22735206
