&CONTROL
calculation = 'relax'
prefix = 'scf'
pseudo_dir = '/vol0403/data/hp230205/u10028/POT_HYBRID_KKJUS_GBRV'
outdir = './data'
tprnfor = .true.
nstep = 70
disk_io = 'non'
/
&SYSTEM
ibrav = 0
ecutwfc = 50.0
ecutrho = 400
occupations = 'smearing'
smearing = 'mp'
degauss = 0.01
assume_isolated = 'esm'
esm_bc = 'bc1'
input_dft = 'BEEF-VDW'
nosym = .true.
nspin = 1
ntyp = 4
nat = 32
/
&ELECTRONS
electron_maxstep = 200
mixing_beta = 0.1
conv_thr = 1e-06
/
&IONS
ion_dynamics = 'bfgs'
upscale = 1.0
/
&CELL
/

K_POINTS {automatic}
6 6 1 0 0 0

ATOMIC_SPECIES
Ag 107.8 Ag.pbe-n-rrkjus_psl.1.0.0.UPF
Cu 63.54 Cu.pbe-dn-rrkjus_psl.1.0.0.UPF
In 114.8 In.pbe-dn-rrkjus_psl.1.0.0.UPF
Li 6.941 Li.pbe-sl-rrkjus_psl.1.0.0.UPF


CELL_PARAMETERS {angstrom}
6.40797000 0.00000000 0.00000000
-0.00000000 9.06224000 0.00000000
0.00000000 0.00000000 26.79670000

ATOMIC_POSITIONS {angstrom}
Li 4.80597750 0.00000000 -1.1326965100000024 0 0 0
Li 4.80597750 4.53112000 -1.1326965100000024 0 0 0
Li 1.60199250 2.26556000 -3.398357490000002 0 0 0
Li 1.60199250 6.79668000 -3.398357490000002 0 0 0
Li 4.79341788 4.53112000 3.61165923
Li 4.79348196 -0.00000000 3.61165923
Li 1.53989927 6.79668000 1.19111332
Li 1.53996335 2.26556000 1.19111332
In 0.00000000 2.26556000 -1.1326965100000024 0 0 0
In 0.00000000 6.79668000 -1.1326965100000024 0 0 0
In 3.20398500 4.53112000 -3.398357490000002 0 0 0
In 3.20398500 0.00000000 -3.398357490000002 0 0 0
In 0.07189742 6.79668000 3.70491174
In 0.07183334 2.26556000 3.70464378
In 3.24582904 -0.00000000 1.14931046
In 3.24582904 4.53112000 1.14931046
Cu 1.60199250 0.00000000 -1.1326965100000024 0 0 0
Cu 1.60199250 4.53112000 -1.1326965100000024 0 0 0
Cu 4.80597750 2.26556000 -3.398357490000002 0 0 0
Cu 4.80597750 6.79668000 -3.398357490000002 0 0 0
Cu 1.52913388 4.53112000 3.30296124
Cu 1.52913388 -0.00000000 3.30296124
Cu 4.86339291 6.79668000 1.21308661
Cu 4.86332883 2.26556000 1.21308661
Ag 0.00000000 0.00000000 -3.398357490000002 0 0 0
Ag 0.00000000 4.53112000 -3.398357490000002 0 0 0
Ag 3.20398500 6.79668000 -1.1326965100000024 0 0 0
Ag 3.20398500 2.26556000 -1.1326965100000024 0 0 0
Ag 6.36420356 4.53112000 1.10670371
Ag 6.36420356 -0.00000000 1.10670371
Ag 3.16252543 2.26556000 3.37906387
Ag 3.16252543 6.79668000 3.37906387
