&CONTROL
calculation = 'relax'
prefix = 'scf'
pseudo_dir = '/vol0004/mdt0/data/hp150275/u10028/POT_KKJUS'
outdir = './data'
tprnfor = .true.
nstep = 50
disk_io = 'non'
/
&SYSTEM
ibrav = 0
ecutwfc = 50.0
ecutrho = 400
occupations = 'smearing'
smearing = 'mp'
degauss = 0.01
assume_isolated = 'esm'
esm_bc = 'bc1'
input_dft = 'BEEF-VDW'
nosym = .true.
nspin = 1
ntyp = 3
nat = 33
/
&ELECTRONS
electron_maxstep = 200
mixing_beta = 0.1
conv_thr = 1e-06
/
&IONS
ion_dynamics = 'bfgs'
upscale = 1.0
/
&CELL
/

K_POINTS {automatic}
8 8 1 0 0 0

ATOMIC_SPECIES
Ag 107.8 Ag.pbe-n-rrkjus_psl.1.0.0.UPF
C 12.01 C.pbe-n-rrkjus_psl.1.0.0.UPF
Mg 24.30 Mg.pbe-spnl-rrkjus_psl.1.0.0.UPF

CELL_PARAMETERS {angstrom}
8.43103000 0.00000000 0.00000000
-0.00000000 8.43103000 0.00000000
0.00000000 0.00000000 26.32330000

ATOMIC_POSITIONS {angstrom}
Mg 0.00000000 0.00000000 -3.1616915600000013 0 0 0
Mg 0.00000000 0.00000000 1.05398493
Mg 0.00000000 4.21551500 -3.1616915600000013 0 0 0
Mg 0.00000000 4.21551500 1.05398493
Mg 4.21551500 0.00000000 -3.1616915600000013 0 0 0
Mg 4.21551500 -0.00000000 1.05398493
Mg 4.21551500 4.21551500 -3.1616915600000013 0 0 0
Mg 4.21551500 4.21551500 1.05398493
Ag 0.00000000 2.10775750 -1.0539849299999986 0 0 0
Ag 2.10775750 0.00000000 -1.0539849299999986 0 0 0
Ag 2.10775750 2.10775750 -3.1616915600000013 0 0 0
Ag 0.00000000 2.10775750 3.16169156
Ag 2.10775750 -0.00000000 3.16169156
Ag 2.10775750 2.10775750 1.05398493
Ag 0.00000000 6.32327250 -1.0539849299999986 0 0 0
Ag 2.10775750 4.21551500 -1.0539849299999986 0 0 0
Ag 2.10775750 6.32327250 -3.1616915600000013 0 0 0
Ag 0.00000000 6.32327250 3.16169156
Ag 2.10775750 4.21551500 3.16169156
Ag 2.10775750 6.32327250 1.05398493
Ag 4.21551500 2.10775750 -1.0539849299999986 0 0 0
Ag 6.32327250 0.00000000 -1.0539849299999986 0 0 0
Ag 6.32327250 2.10775750 -3.1616915600000013 0 0 0
Ag 4.21551500 2.10775750 3.16169156
Ag 6.32327250 -0.00000000 3.16169156
Ag 6.32327250 2.10775750 1.05398493
Ag 4.21551500 6.32327250 -1.0539849299999986 0 0 0
Ag 6.32327250 4.21551500 -1.0539849299999986 0 0 0
Ag 6.32327250 6.32327250 -3.1616915600000013 0 0 0
Ag 4.21551500 6.32327250 3.16169156
Ag 6.32327250 4.21551500 3.16169156
Ag 6.32327250 6.32327250 1.05398493
C 0.00000000 0.00000000 3.96165665
