&CONTROL
calculation = 'relax'
prefix = 'scf'
pseudo_dir = '/vol0403/data/hp230205/u10028/POT_HYBRID_KKJUS_GBRV'
outdir = './data'
tprnfor = .true.
nstep = 70
disk_io = 'non'
/
&SYSTEM
ibrav = 0
ecutwfc = 50.0
ecutrho = 400
occupations = 'smearing'
smearing = 'mp'
degauss = 0.01
assume_isolated = 'esm'
esm_bc = 'bc1'
input_dft = 'BEEF-VDW'
nosym = .true.
nspin = 1
ntyp = 5
nat = 33
/
&ELECTRONS
electron_maxstep = 200
mixing_beta = 0.1
conv_thr = 1e-06
/
&IONS
ion_dynamics = 'bfgs'
upscale = 1.0
/
&CELL
/

K_POINTS {automatic}
6 6 1 0 0 0

ATOMIC_SPECIES
Ag 107.8 Ag.pbe-n-rrkjus_psl.1.0.0.UPF
C 12.01 C.pbe-n-rrkjus_psl.1.0.0.UPF
In 114.8 In.pbe-dn-rrkjus_psl.1.0.0.UPF
Pd 106.4 Pd.pbe-n-rrkjus_psl.1.0.0.UPF
Sc 44.95 Sc.pbe-spn-rrkjus_psl.1.0.0.UPF


CELL_PARAMETERS {angstrom}
6.71273000 0.00000000 0.00000000
-0.00000000 9.49324000 0.00000000
0.00000000 0.00000000 27.11990000

ATOMIC_POSITIONS {angstrom}
Sc 5.03454750 0.00000000 -1.1867668200000026 0 0 0
Sc 5.03454750 4.74662000 -1.1867668200000026 0 0 0
Sc 1.67818250 2.37331000 -3.560029270000001 0 0 0
Sc 1.67818250 7.11993000 -3.560029270000001 0 0 0
Sc 5.04548925 4.74662000 3.43961692
Sc 4.67467804 -0.00000000 3.46022804
Sc 1.75114988 7.08765298 1.27110971
Sc 1.75121700 2.40558702 1.27083851
In 1.67818250 0.00000000 -1.1867668200000026 0 0 0
In 1.67818250 4.74662000 -1.1867668200000026 0 0 0
In 5.03454750 2.37331000 -3.560029270000001 0 0 0
In 5.03454750 7.11993000 -3.560029270000001 0 0 0
In 1.43410764 4.74662000 3.68939120
In 1.95729781 -0.00000000 4.70204826
In 5.01286538 7.14337830 1.25212578
In 5.01286538 2.34986170 1.25212578
Ag 0.00000000 0.00000000 -3.560029270000001 0 0 0
Ag 0.00000000 4.74662000 -3.560029270000001 0 0 0
Ag 3.35636500 7.11993000 -1.1867668200000026 0 0 0
Ag 3.35636500 2.37331000 -1.1867668200000026 0 0 0
Ag 6.71138745 4.74662000 1.13523901
Ag 0.12720623 0.00000000 1.34406224
Ag 3.17901467 2.50725962 3.87000973
Ag 3.17901467 6.98588545 3.87000973
Pd 0.00000000 2.37331000 -1.1867668200000026 0 0 0
Pd 0.00000000 7.11993000 -1.1867668200000026 0 0 0
Pd 3.35636500 4.74662000 -3.560029270000001 0 0 0
Pd 3.35636500 0.00000000 -3.560029270000001 0 0 0
Pd 0.15184195 7.32574344 3.40571704
Pd 0.15190908 2.16740162 3.40571704
Pd 3.35186747 -0.00000000 1.04059056
Pd 3.39482894 4.74662000 1.19951318
C 6.67950199 -0.00000000 3.82607549
