&CONTROL
calculation = 'relax'
prefix = 'scf'
pseudo_dir = '/vol0004/mdt0/data/hp150275/u10028/POT_KKJUS'
outdir = './data'
tprnfor = .true.
nstep = 50
disk_io = 'non'
/
&SYSTEM
ibrav = 0
ecutwfc = 50.0
ecutrho = 400
occupations = 'smearing'
smearing = 'mp'
degauss = 0.01
assume_isolated = 'esm'
esm_bc = 'bc1'
input_dft = 'BEEF-VDW'
nosym = .true.
nspin = 1
ntyp = 4
nat = 34
/
&ELECTRONS
electron_maxstep = 200
mixing_beta = 0.1
conv_thr = 1e-06
/
&IONS
ion_dynamics = 'bfgs'
upscale = 1.0
/
&CELL
/

K_POINTS {automatic}
8 6 1 0 0 0

ATOMIC_SPECIES
C 12.01 C.pbe-n-rrkjus_psl.1.0.0.UPF
Li 6.941 Li.pbe-sl-rrkjus_psl.1.0.0.UPF
O 15.99 O.pbe-n-rrkjus_psl.1.0.0.UPF
Pd 106.4 Pd.pbe-n-rrkjus_psl.1.0.0.UPF

CELL_PARAMETERS {angstrom}
6.21964000 0.00000000 0.00000000
0.00000000 8.79589000 0.00000000
0.00000000 0.00000000 26.59690000

ATOMIC_POSITIONS {angstrom}
Li 1.55491000 0.00000000 -1.099515850000003 0 0 0
Li 4.66473000 4.39794500 -1.099515850000003 0 0 0
Li 4.66473000 0.00000000 -1.099515850000003 0 0 0
Li 1.55491000 4.39794500 -1.099515850000003 0 0 0
Li 4.66473000 6.59691750 -3.2985475400000013 0 0 0
Li 1.55491000 2.19897250 -3.2985475400000013 0 0 0
Li 1.55491000 6.59691750 -3.2985475400000013 0 0 0
Li 4.66473000 2.19897250 -3.2985475400000013 0 0 0
Li 0.00000000 6.59691750 -1.099515850000003 0 0 0
Li 3.10982000 0.00000000 -3.2985475400000013 0 0 0
Li 0.00000000 2.19897250 -1.099515850000003 0 0 0
Li 3.10982000 4.39794500 -3.2985475400000013 0 0 0
Li 1.66014631 4.37287671 3.54456886
Li 4.55949369 0.02506829 3.54456886
Li 4.55949369 4.37287671 3.54456886
Li 1.66014631 0.02498033 3.54456886
Li 4.68942197 2.19897250 1.04977964
Li 1.56548339 6.59691750 1.04632205
Li 1.53021803 2.19897250 1.04977964
Li 4.65415661 6.59691750 1.04632205
Li 0.00000000 2.19897250 3.18896831
Li 3.10982000 4.38580667 1.22345740
Li 0.00000000 6.59691750 3.11369908
Li 3.10982000 0.01213833 1.22345740
Pd 0.00000000 0.00000000 -3.2985475400000013 0 0 0
Pd 3.10982000 2.19897250 -1.099515850000003 0 0 0
Pd 3.10982000 6.59691750 -1.099515850000003 0 0 0
Pd 0.00000000 4.39794500 -3.2985475400000013 0 0 0
Pd 0.00000000 4.41219434 1.30830151
Pd 3.10982000 6.59691750 3.07699536
Pd 3.10982000 2.19897250 3.03018482
Pd 0.00000000 8.78164066 1.30830151
C 0.00000000 2.19897250 5.21219449
O 0.00000000 2.19897250 6.36703189
