&CONTROL
calculation = 'relax'
prefix = 'scf'
pseudo_dir = '/vol0004/mdt0/data/hp150275/u10028/POT_KKJUS'
outdir = './data'
tprnfor = .true.
nstep = 50
disk_io = 'non'
/
&SYSTEM
ibrav = 0
ecutwfc = 50.0
ecutrho = 400
occupations = 'smearing'
smearing = 'mp'
degauss = 0.01
assume_isolated = 'esm'
esm_bc = 'bc1'
input_dft = 'BEEF-VDW'
nosym = .true.
nspin = 1
ntyp = 4
nat = 34
/
&ELECTRONS
electron_maxstep = 200
mixing_beta = 0.1
conv_thr = 1e-06
/
&IONS
ion_dynamics = 'bfgs'
upscale = 1.0
/
&CELL
/

K_POINTS {automatic}
8 6 1 0 0 0

ATOMIC_SPECIES
Be 9.012 Be.pbe-n-rrkjus_psl.1.0.0.UPF
C 12.01 C.pbe-n-rrkjus_psl.1.0.0.UPF
O 15.99 O.pbe-n-rrkjus_psl.1.0.0.UPF
Rh 102.9 Rh.pbe-spn-rrkjus_psl.1.0.0.UPF

CELL_PARAMETERS {angstrom}
5.57428000 0.00000000 0.00000000
0.00000000 7.88322000 0.00000000
0.00000000 0.00000000 25.91240000

ATOMIC_POSITIONS {angstrom}
Be 0.00000000 0.00000000 -2.9560865900000017 0 0 0
Be 0.00000000 1.97080500 -0.9854485700000026 0 0 0
Be 0.00000000 0.00780439 1.05022957
Be 0.00000000 1.97080500 2.75552462
Be 0.00000000 3.94161000 -2.9560865900000017 0 0 0
Be 0.00000000 5.91241500 -0.9854485700000026 0 0 0
Be 0.00000000 3.93388444 1.05022957
Be 0.00000000 5.91241500 2.82419248
Be 2.78714000 0.00000000 -2.9560865900000017 0 0 0
Be 2.78714000 1.97080500 -0.9854485700000026 0 0 0
Be 2.78714000 7.87714992 1.03442301
Be 2.78714000 1.97080500 2.74619615
Be 2.78714000 3.94161000 -2.9560865900000017 0 0 0
Be 2.78714000 5.91241500 -0.9854485700000026 0 0 0
Be 2.78714000 3.94768008 1.03442301
Be 2.78714000 5.91241500 2.79154285
Rh 1.39357000 1.97080500 -2.9560865900000017 0 0 0
Rh 1.39357000 0.00000000 -0.9854485700000026 0 0 0
Rh 1.39574397 1.97080500 0.94709822
Rh 1.40410539 3.95028154 2.98925446
Rh 1.39357000 5.91241500 -2.9560865900000017 0 0 0
Rh 1.39357000 3.94161000 -0.9854485700000026 0 0 0
Rh 1.38492987 5.91241500 0.96445953
Rh 1.40410539 7.87454846 2.98925446
Rh 4.18071000 1.97080500 -2.9560865900000017 0 0 0
Rh 4.18071000 0.00000000 -0.9854485700000026 0 0 0
Rh 4.17853603 1.97080500 0.94709822
Rh 4.17017461 3.95028154 2.98925446
Rh 4.18071000 5.91241500 -2.9560865900000017 0 0 0
Rh 4.18071000 3.94161000 -0.9854485700000026 0 0 0
Rh 4.18935013 5.91241500 0.96445953
Rh 4.17017461 7.87454846 2.98925446
C 0.00000000 1.97072617 4.43594376
O 0.00000000 1.97072617 5.60070614
