&CONTROL
calculation = 'relax'
prefix = 'scf'
pseudo_dir = '/vol0403/data/hp230205/u10028/POT_HYBRID_KKJUS_GBRV'
outdir = './data'
tprnfor = .true.
nstep = 70
disk_io = 'non'
/
&SYSTEM
ibrav = 0
ecutwfc = 50.0
ecutrho = 400
occupations = 'smearing'
smearing = 'mp'
degauss = 0.01
assume_isolated = 'esm'
esm_bc = 'bc1'
input_dft = 'BEEF-VDW'
nosym = .true.
nspin = 1
ntyp = 6
nat = 34
/
&ELECTRONS
electron_maxstep = 200
mixing_beta = 0.1
conv_thr = 1e-06
/
&IONS
ion_dynamics = 'bfgs'
upscale = 1.0
/
&CELL
/

K_POINTS {automatic}
6 6 1 0 0 0

ATOMIC_SPECIES
C 12.01 C.pbe-n-rrkjus_psl.1.0.0.UPF
Cu 63.54 Cu.pbe-dn-rrkjus_psl.1.0.0.UPF
Ga 69.72 Ga.pbe-dnl-rrkjus_psl.1.0.0.UPF
O 15.99 O.pbe-n-rrkjus_psl.1.0.0.UPF
Pd 106.4 Pd.pbe-n-rrkjus_psl.1.0.0.UPF
Y 88.90 Y.pbe-spn-rrkjus_psl.1.0.0.UPF


CELL_PARAMETERS {angstrom}
6.59466000 0.00000000 0.00000000
-0.00000000 9.32626000 0.00000000
0.00000000 0.00000000 26.99470000

ATOMIC_POSITIONS {angstrom}
Y 4.94599500 0.00000000 -1.165901090000002 0 0 0
Y 4.94599500 4.66313000 -1.165901090000002 0 0 0
Y 1.64866500 2.33156500 -3.4974333300000033 0 0 0
Y 1.64866500 6.99469500 -3.4974333300000033 0 0 0
Y 4.38274509 4.55559822 3.88264770
Y 4.39487926 0.02797878 3.75307314
Y 1.52976328 6.96820842 1.21908065
Y 1.55779059 2.36122251 1.23473758
Ga 1.64866500 0.00000000 -1.165901090000002 0 0 0
Ga 1.64866500 4.66313000 -1.165901090000002 0 0 0
Ga 4.94599500 2.33156500 -3.4974333300000033 0 0 0
Ga 4.94599500 6.99469500 -3.4974333300000033 0 0 0
Ga 1.30125831 4.59803271 3.40754098
Ga 1.25423839 9.24735984 3.44992266
Ga 4.79893408 7.01344078 1.17399950
Ga 4.82181755 2.32540967 1.16995030
Cu 0.00000000 0.00000000 -3.4974333300000033 0 0 0
Cu 0.00000000 4.66313000 -3.4974333300000033 0 0 0
Cu 3.29733000 6.99469500 -1.165901090000002 0 0 0
Cu 3.29733000 2.33156500 -1.165901090000002 0 0 0
Cu 6.07618783 4.65529594 1.59970592
Cu 6.16633683 9.32094403 1.48713802
Cu 2.35027088 2.17618951 4.01411189
Cu 2.43336359 6.91327675 3.91450145
Pd 0.00000000 2.33156500 -1.165901090000002 0 0 0
Pd 0.00000000 6.99469500 -1.165901090000002 0 0 0
Pd 3.29733000 4.66313000 -3.4974333300000033 0 0 0
Pd 3.29733000 0.00000000 -3.4974333300000033 0 0 0
Pd 6.30396739 6.93827113 3.35112206
Pd 6.34109532 2.29910962 3.39377368
Pd 3.27292976 0.01287024 1.10354334
Pd 3.31942211 4.69157509 1.15537316
C 4.24722483 2.11715428 4.86309521
O 4.35320101 3.09342718 5.65484976
