&CONTROL
calculation = 'relax'
prefix = 'scf'
pseudo_dir = '/vol0403/data/hp230205/u10028/POT_HYBRID_KKJUS_GBRV'
outdir = './data'
tprnfor = .true.
nstep = 50
disk_io = 'non'
/
&SYSTEM
ibrav = 0
ecutwfc = 50.0
ecutrho = 400
occupations = 'smearing'
smearing = 'mp'
degauss = 0.01
assume_isolated = 'esm'
esm_bc = 'bc1'
input_dft = 'BEEF-VDW'
nosym = .true.
nspin = 1
ntyp = 6
nat = 18
/
&ELECTRONS
electron_maxstep = 200
mixing_beta = 0.1
conv_thr = 1e-06
/
&IONS
ion_dynamics = 'bfgs'
upscale = 1.0
/
&CELL
/

K_POINTS {automatic}
8 11 2 0  0  0

ATOMIC_SPECIES
C 12.01 C.pbe-n-rrkjus_psl.1.0.0.UPF
Ga 69.72 Ga.pbe-dnl-rrkjus_psl.1.0.0.UPF
Ge 72.64 Ge.pbe-dn-rrkjus_psl.1.0.0.UPF
Li 6.941 Li.pbe-sl-rrkjus_psl.1.0.0.UPF
O 15.99 O.pbe-n-rrkjus_psl.1.0.0.UPF
Sc 44.95 Sc.pbe-spn-rrkjus_psl.1.0.0.UPF


CELL_PARAMETERS {angstrom}
7.95848000 0.00000000 0.00000000
0.00000000 5.81702000 0.00000000
0.00000000 0.00000000 24.35990000

ATOMIC_POSITIONS {angstrom}
Li 1.95213556 1.48915712 0.97658839
Li 1.98962000 4.20576363 -2.1799674499999995 0 0 0
Li 6.00626486 1.48909895 0.97683199
Li 5.96886000 4.20576363 -2.1799674499999995 0 0 0
Sc 1.97943315 4.37457355 0.79997912
Sc 1.98962000 1.29725363 -2.1799674499999995 0 0 0
Sc 5.97904685 4.37463172 0.80022271
Sc 5.96886000 1.29725363 -2.1799674499999995 0 0 0
Ga 0.00039792 0.17951324 2.27594546
Ga 0.00000000 2.80386181 -0.7266558200000013 0 0 0
Ga 3.97900125 0.17276549 2.17948025
Ga 3.97924000 2.80386181 -0.7266558200000013 0 0 0
Ge 0.00007958 2.88855762 2.00676856
Ge 0.00000000 5.71237181 -0.7266558200000013 0 0 0
Ge 3.97916042 2.86982682 1.95147159
Ge 3.97924000 5.71237181 -0.7266558200000013 0 0 0
C 0.00031834 0.10342662 4.43642499
O 7.95840042 5.76204916 5.57037833
