&CONTROL
calculation = 'relax'
prefix = 'scf'
pseudo_dir = '/vol0004/mdt0/data/hp150275/u10028/POT_KKJUS'
outdir = './data'
tprnfor = .true.
nstep = 50
disk_io = 'non'
/
&SYSTEM
ibrav = 0
ecutwfc = 50.0
ecutrho = 400
occupations = 'smearing'
smearing = 'mp'
degauss = 0.01
assume_isolated = 'esm'
esm_bc = 'bc1'
input_dft = 'BEEF-VDW'
nosym = .true.
nspin = 1
ntyp = 3
nat = 33
/
&ELECTRONS
electron_maxstep = 200
mixing_beta = 0.1
conv_thr = 1e-06
/
&IONS
ion_dynamics = 'bfgs'
upscale = 1.0
/
&CELL
/

K_POINTS {automatic}
9 6 2 0  0  0

ATOMIC_SPECIES
Be 9.012 Be.pbe-n-rrkjus_psl.1.0.0.UPF
C 12.01 C.pbe-n-rrkjus_psl.1.0.0.UPF
Pd 106.4 Pd.pbe-n-rrkjus_psl.1.0.0.UPF

CELL_PARAMETERS {angstrom}
5.70199000 0.00000000 0.00000000
0.00000000 8.06383000 0.00000000
0.00000000 0.00000000 26.04790000

ATOMIC_POSITIONS {angstrom}
Be 0.00000000 0.00000000 -3.0239007099999995 0 0 0
Be 0.00000000 2.01595750 -1.0080537299999968 0 0 0
Be 5.70193298 0.00000000 0.96898188
Be 0.00011404 1.70445175 3.59487068
Be 0.00000000 4.03191500 -3.0239007099999995 0 0 0
Be 0.00000000 6.04787250 -1.0080537299999968 0 0 0
Be 0.00000000 4.03191500 1.06301480
Be 5.70187596 6.35937825 3.59487068
Be 2.85099500 0.00000000 -3.0239007099999995 0 0 0
Be 2.85099500 2.01595750 -1.0080537299999968 0 0 0
Be 2.85105202 0.00000000 0.83327232
Be 2.85093798 2.16731559 2.94393366
Be 2.85099500 4.03191500 -3.0239007099999995 0 0 0
Be 2.85099500 6.04787250 -1.0080537299999968 0 0 0
Be 2.85099500 4.03191500 1.12292497
Be 2.85099500 5.89651441 2.94393366
Pd 1.42549750 2.01595750 -3.0239007099999995 0 0 0
Pd 1.42549750 0.00000000 -1.0080537299999968 0 0 0
Pd 1.41432160 2.02652112 0.99112259
Pd 1.55898109 8.06374936 2.86917618
Pd 1.42549750 6.04787250 -3.0239007099999995 0 0 0
Pd 1.42549750 4.03191500 -1.0080537299999968 0 0 0
Pd 1.41432160 6.03722824 0.99112259
Pd 1.37241197 4.03191500 3.03171508
Pd 4.27649250 2.01595750 -3.0239007099999995 0 0 0
Pd 4.27649250 0.00000000 -1.0080537299999968 0 0 0
Pd 4.28772542 2.02660176 0.99112259
Pd 4.14289487 0.00016128 2.86943666
Pd 4.27649250 6.04787250 -3.0239007099999995 0 0 0
Pd 4.27649250 4.03191500 -1.0080537299999968 0 0 0
Pd 4.28772542 6.03730888 0.99112259
Pd 4.32952101 4.03191500 3.03197556
C 0.00000000 0.00000000 4.12885263
