&CONTROL
calculation = 'relax'
prefix = 'scf'
pseudo_dir = '/vol0403/data/hp230205/u10028/POT_HYBRID_KKJUS_GBRV'
outdir = './data'
tprnfor = .true.
nstep = 50
disk_io = 'non'
/
&SYSTEM
ibrav = 0
ecutwfc = 50.0
ecutrho = 400
occupations = 'smearing'
smearing = 'mp'
degauss = 0.01
assume_isolated = 'esm'
esm_bc = 'bc1'
input_dft = 'BEEF-VDW'
nosym = .true.
nspin = 1
ntyp = 5
nat = 17
/
&ELECTRONS
electron_maxstep = 200
mixing_beta = 0.1
conv_thr = 1e-06
/
&IONS
ion_dynamics = 'bfgs'
upscale = 1.0
/
&CELL
/

K_POINTS {automatic}
9 9 2 0  0  0

ATOMIC_SPECIES
C 12.01 C.pbe-n-rrkjus_psl.1.0.0.UPF
Cu 63.54 Cu.pbe-dn-rrkjus_psl.1.0.0.UPF
Ge 72.64 Ge.pbe-dn-rrkjus_psl.1.0.0.UPF
Li 6.941 Li.pbe-sl-rrkjus_psl.1.0.0.UPF
Y 88.90 Y.pbe-spn-rrkjus_psl.1.0.0.UPF


CELL_PARAMETERS {angstrom}
6.66034000 0.00000000 0.00000000
0.00000000 6.66034000 0.00000000
0.00000000 0.00000000 24.99530000

ATOMIC_POSITIONS {angstrom}
Li 4.99352331 1.66921441 0.92832544
Li 4.99525500 4.99525500 -2.4975303800000006 0 0 0
Li 1.66508500 1.66508500 -2.4975303800000006 0 0 0
Li 1.66921441 4.99352331 0.92832544
Y 1.66481859 1.66481859 0.60413640
Y 1.66508500 4.99525500 -2.4975303800000006 0 0 0
Y 4.99525500 1.66508500 -2.4975303800000006 0 0 0
Y 4.99778593 4.99778593 1.16678060
Cu 0.25162765 0.25182746 2.54752098
Cu 0.00000000 3.33017000 -0.8325934400000001 0 0 0
Cu 3.33017000 0.00000000 -0.8325934400000001 0 0 0
Cu 3.08486968 3.08460326 2.54077225
Ge 0.26601398 3.07028353 2.93419827
Ge 0.00000000 0.00000000 -0.8325934400000001 0 0 0
Ge 3.33017000 3.33017000 -0.8325934400000001 0 0 0
Ge 3.07015033 0.26594738 2.93419827
C 1.66981384 1.66981384 3.02318153
