&CONTROL
calculation = 'relax'
prefix = 'scf'
pseudo_dir = '/vol0004/mdt0/data/hp150275/u10028/POT_KKJUS'
outdir = './data'
tprnfor = .true.
nstep = 50
disk_io = 'non'
/
&SYSTEM
ibrav = 0
ecutwfc = 50.0
ecutrho = 400
occupations = 'smearing'
smearing = 'mp'
degauss = 0.01
assume_isolated = 'esm'
esm_bc = 'bc1'
input_dft = 'BEEF-VDW'
nosym = .true.
nspin = 1
ntyp = 4
nat = 33
/
&ELECTRONS
electron_maxstep = 200
mixing_beta = 0.1
conv_thr = 1e-06
/
&IONS
ion_dynamics = 'bfgs'
upscale = 1.0
/
&CELL
/

K_POINTS {automatic}
8 6 1 0 0 0

ATOMIC_SPECIES
C 12.01 C.pbe-n-rrkjus_psl.1.0.0.UPF
In 114.8 In.pbe-dn-rrkjus_psl.1.0.0.UPF
Ni 58.69 Ni.pbe-spn-rrkjus_psl.1.0.0.UPF
Ti 47.86 Ti.pbe-spn-rrkjus_psl.1.0.0.UPF

CELL_PARAMETERS {angstrom}
6.14958000 0.00000000 0.00000000
0.00000000 8.69682000 0.00000000
0.00000000 0.00000000 26.52260000

ATOMIC_POSITIONS {angstrom}
Ti 0.00000000 0.00000000 -3.2612188999999994 0 0 0
Ti 3.07479000 2.17420500 -1.0871613700000005 0 0 0
Ti 3.07479000 6.52261500 -1.0871613700000005 0 0 0
Ti 0.00000000 4.34841000 -3.2612188999999994 0 0 0
Ti 6.11366645 4.40572204 1.08503957
Ti 3.17496666 6.52261500 3.15433282
Ti 3.39524461 2.17420500 3.26519729
Ti 6.11366645 8.63950796 1.08503957
In 0.00000000 6.52261500 -1.0871613700000005 0 0 0
In 3.07479000 0.00000000 -3.2612188999999994 0 0 0
In 0.00000000 2.17420500 -1.0871613700000005 0 0 0
In 3.07479000 4.34841000 -3.2612188999999994 0 0 0
In 5.77759191 2.17385713 4.68521729
In 3.03574017 4.25074471 1.10917513
In 0.14752842 6.52252803 3.44369438
In 3.03574017 0.09766529 1.10917513
Ni 1.53739500 0.00000000 -1.0871613700000005 0 0 0
Ni 4.61218500 4.34841000 -1.0871613700000005 0 0 0
Ni 4.61218500 0.00000000 -1.0871613700000005 0 0 0
Ni 1.53739500 4.34841000 -1.0871613700000005 0 0 0
Ni 4.61218500 6.52261500 -3.2612188999999994 0 0 0
Ni 1.53739500 2.17420500 -3.2612188999999994 0 0 0
Ni 1.53739500 6.52261500 -3.2612188999999994 0 0 0
Ni 4.61218500 2.17420500 -3.2612188999999994 0 0 0
Ni 1.24387555 4.07393836 3.16441141
Ni 4.71851124 8.67559976 3.14451946
Ni 4.71863423 4.36945630 3.14451946
Ni 1.24406003 0.27421073 3.16441141
Ni 4.73941981 2.17420500 1.17468595
Ni 1.67262426 6.52270197 1.08397866
Ni 1.25457582 2.17411803 1.38766243
Ni 4.53174849 6.52261500 1.13198457
C 1.46661333 2.17403106 3.35219141
