&CONTROL
calculation = 'relax'
prefix = 'scf'
pseudo_dir = '/vol0403/data/hp230205/u10028/POT_HYBRID_KKJUS_GBRV'
outdir = './data'
tprnfor = .true.
nstep = 50
disk_io = 'non'
/
&SYSTEM
ibrav = 0
ecutwfc = 50.0
ecutrho = 400
occupations = 'smearing'
smearing = 'mp'
degauss = 0.01
assume_isolated = 'esm'
esm_bc = 'bc1'
input_dft = 'BEEF-VDW'
nosym = .true.
nspin = 1
ntyp = 6
nat = 18
/
&ELECTRONS
electron_maxstep = 200
mixing_beta = 0.1
conv_thr = 1e-06
/
&IONS
ion_dynamics = 'bfgs'
upscale = 1.0
/
&CELL
/

K_POINTS {automatic}
10 8 2 0  0  0

ATOMIC_SPECIES
C 12.01 C.pbe-n-rrkjus_psl.1.0.0.UPF
Ge 72.64 Ge.pbe-dn-rrkjus_psl.1.0.0.UPF
Li 6.941 Li.pbe-sl-rrkjus_psl.1.0.0.UPF
O 15.99 O.pbe-n-rrkjus_psl.1.0.0.UPF
Sn 118.7 Sn.pbe-dn-rrkjus_psl.1.0.0.UPF
Y 88.90 Y.pbe-spn-rrkjus_psl.1.0.0.UPF


CELL_PARAMETERS {angstrom}
6.38551000 0.00000000 0.00000000
0.00000000 8.52742000 0.00000000
0.00000000 0.00000000 24.76910000

ATOMIC_POSITIONS {angstrom}
Li 4.85847914 2.13364576 1.10123419
Li 1.15897007 2.13185500 -2.384521260000003 0 0 0
Li 4.85854299 6.39385952 1.10148188
Li 1.15897007 6.39556500 -2.384521260000003 0 0 0
Y 1.54625125 2.13475432 0.84958013
Y 4.35172507 2.13185500 -2.384521260000003 0 0 0
Y 1.54625125 6.39266568 0.84958013
Y 4.35172507 6.39556500 -2.384521260000003 0 0 0
Sn 3.42563455 0.00000000 2.21014679
Sn 6.09388376 0.00000000 -0.7948404200000034 0 0 0
Sn 3.42838032 4.26371000 2.22228365
Sn 6.09388376 4.26371000 -0.7948404200000034 0 0 0
Ge 6.20607717 0.00008527 2.01620474
Ge 2.90112876 0.00000000 -0.7948404200000034 0 0 0
Ge 6.20760969 4.26362473 2.03354311
Ge 2.90112876 4.26371000 -0.7948404200000034 0 0 0
C 0.52163231 0.00017055 5.50889553
O 5.94516523 8.52724945 6.11450003
