&CONTROL
calculation = 'relax'
prefix = 'scf'
pseudo_dir = '/vol0004/mdt0/data/hp150275/u10028/POT_KKJUS'
outdir = './data'
tprnfor = .true.
nstep = 50
disk_io = 'non'
/
&SYSTEM
ibrav = 0
ecutwfc = 50.0
ecutrho = 400
occupations = 'smearing'
smearing = 'mp'
degauss = 0.01
assume_isolated = 'esm'
esm_bc = 'bc1'
input_dft = 'BEEF-VDW'
nosym = .true.
nspin = 1
ntyp = 3
nat = 32
/
&ELECTRONS
electron_maxstep = 200
mixing_beta = 0.1
conv_thr = 1e-06
/
&IONS
ion_dynamics = 'bfgs'
upscale = 1.0
/
&CELL
/

K_POINTS {automatic}
9 6 2 0  0  0

ATOMIC_SPECIES
Al 26.98 Al.pbe-nl-rrkjus_psl.1.0.0.UPF
Hf 178.4 Hf.pbe-spn-rrkjus_psl.1.0.0.UPF
Pd 106.4 Pd.pbe-n-rrkjus_psl.1.0.0.UPF

CELL_PARAMETERS {angstrom}
6.44324000 0.00000000 0.00000000
0.00000000 9.11212000 0.00000000
0.00000000 0.00000000 26.83410000

ATOMIC_POSITIONS {angstrom}
Hf 0.00000000 0.00000000 -3.4170542899999994 0 0 0
Hf 3.22162000 2.27803000 -1.1391075399999977 0 0 0
Hf 3.22162000 6.83409000 -1.1391075399999977 0 0 0
Hf 0.00000000 4.55606000 -3.4170542899999994 0 0 0
Hf 0.00000000 4.55606000 1.14152261
Hf 3.22162000 6.83409000 3.45086526
Hf 3.22162000 2.27803000 3.45086526
Hf 0.00000000 0.00000000 1.14152261
Al 0.00000000 6.83409000 -1.1391075399999977 0 0 0
Al 3.22162000 0.00000000 -3.4170542899999994 0 0 0
Al 0.00000000 2.27803000 -1.1391075399999977 0 0 0
Al 3.22162000 4.55606000 -3.4170542899999994 0 0 0
Al 0.00000000 2.27803000 3.34326052
Al 3.22162000 4.55606000 1.19841091
Al 0.00000000 6.83409000 3.34326052
Al 3.22162000 0.00000000 1.19841091
Pd 1.61081000 0.00000000 -1.1391075399999977 0 0 0
Pd 4.83243000 4.55606000 -1.1391075399999977 0 0 0
Pd 4.83243000 0.00000000 -1.1391075399999977 0 0 0
Pd 1.61081000 4.55606000 -1.1391075399999977 0 0 0
Pd 4.83243000 6.83409000 -3.4170542899999994 0 0 0
Pd 1.61081000 2.27803000 -3.4170542899999994 0 0 0
Pd 1.61081000 6.83409000 -3.4170542899999994 0 0 0
Pd 4.83243000 2.27803000 -3.4170542899999994 0 0 0
Pd 1.58484374 4.55606000 3.33360024
Pd 4.85839626 0.00000000 3.33360024
Pd 4.85839626 4.55606000 3.33360024
Pd 1.58484374 0.00000000 3.33360024
Pd 4.74976323 2.27803000 1.16594164
Pd 1.69347677 6.83409000 1.16594164
Pd 1.69347677 2.27803000 1.16594164
Pd 4.74976323 6.83409000 1.16594164
