&CONTROL
calculation = 'relax'
prefix = 'scf'
pseudo_dir = '/vol0004/mdt0/data/hp150275/u10028/POT_KKJUS'
outdir = './data'
tprnfor = .true.
nstep = 50
disk_io = 'non'
/
&SYSTEM
ibrav = 0
ecutwfc = 50.0
ecutrho = 400
occupations = 'smearing'
smearing = 'mp'
degauss = 0.01
assume_isolated = 'esm'
esm_bc = 'bc1'
input_dft = 'BEEF-VDW'
nosym = .true.
nspin = 1
ntyp = 4
nat = 18
/
&ELECTRONS
electron_maxstep = 200
mixing_beta = 0.1
conv_thr = 1e-06
/
&IONS
ion_dynamics = 'bfgs'
upscale = 1.0
/
&CELL
/

K_POINTS {automatic}
6 8 1 0 0 0

ATOMIC_SPECIES
C 12.01 C.pbe-n-rrkjus_psl.1.0.0.UPF
O 15.99 O.pbe-n-rrkjus_psl.1.0.0.UPF
Rh 102.9 Rh.pbe-spn-rrkjus_psl.1.0.0.UPF
Zr 91.22 Zr.pbe-spn-rrkjus_psl.1.0.0.UPF

CELL_PARAMETERS {angstrom}
7.95743000 0.00000000 0.00000000
0.00000000 5.62675000 0.00000000
0.00000000 0.00000000 24.22010000

ATOMIC_POSITIONS {angstrom}
Zr 0.00000000 0.00000000 -2.1100551099999976 0 0 0
Zr 7.95520192 2.81168698 0.70044529
Zr 3.97871500 0.00000000 -2.1100551099999976 0 0 0
Zr 3.98062478 2.81168698 0.70044529
Rh 0.00000000 2.81337500 -2.1100551099999976 0 0 0
Rh 1.98935750 4.22006250 -0.7033516999999989 0 0 0
Rh 1.98935750 1.40668750 -0.7033516999999989 0 0 0
Rh 7.95265554 5.61273939 0.58661082
Rh 1.98888005 1.38834430 2.02867558
Rh 1.98888005 4.22855889 1.99331423
Rh 3.97871500 2.81337500 -2.1100551099999976 0 0 0
Rh 5.96807250 4.22006250 -0.7033516999999989 0 0 0
Rh 5.96807250 1.40668750 -0.7033516999999989 0 0 0
Rh 3.98333031 5.61290820 0.58636862
Rh 5.96783378 1.37821615 1.96570332
Rh 5.96791335 4.19688029 1.98314179
C 1.98927793 1.74131032 3.85511332
O 1.98983495 1.95141317 4.99515342
