&CONTROL
calculation = 'relax'
prefix = 'scf'
pseudo_dir = '/vol0004/mdt0/data/hp150275/u10028/POT_HYBRID_KKJUS_GBRV'
outdir = './data'
tprnfor = .true.
nstep = 50
disk_io = 'non'
/
&SYSTEM
ibrav = 0
ecutwfc = 50.0
ecutrho = 400
occupations = 'smearing'
smearing = 'mp'
degauss = 0.01
assume_isolated = 'esm'
esm_bc = 'bc1'
input_dft = 'BEEF-VDW'
nosym = .true.
nspin = 2
ntyp = 4
nat = 33
starting_magnetization(1) = 0.0
starting_magnetization(2) = 0.0
starting_magnetization(3) = 0.001
starting_magnetization(4) = 0.0
/
&ELECTRONS
electron_maxstep = 300
mixing_beta = 0.1
conv_thr = 1e-06
/
&IONS
ion_dynamics = 'bfgs'
upscale = 1.0
/
&CELL
/

K_POINTS {automatic}
9 6 2 0  0  0

ATOMIC_SPECIES
C 12.01 C.pbe-n-rrkjus_psl.1.0.0.UPF
Ga 69.72 Ga.pbe-dnl-rrkjus_psl.1.0.0.UPF
Ni 58.69 ni_pbe_v1.4.uspp.F.UPF
Zr 91.22 Zr.pbe-spn-rrkjus_psl.1.0.0.UPF

CELL_PARAMETERS {angstrom}
6.13924000 0.00000000 0.00000000
0.00000000 8.68219000 0.00000000
0.00000000 0.00000000 26.51160000

ATOMIC_POSITIONS {angstrom}
Zr 0.00000000 0.00000000 -3.2558895999999997 0 0 0
Zr 3.06962000 2.17054750 -1.085384900000001 0 0 0
Zr 3.06962000 6.51164250 -1.085384900000001 0 0 0
Zr 0.00000000 4.34109500 -3.2558895999999997 0 0 0
Zr 0.00000000 4.34109500 1.03607333
Zr 3.06962000 6.52058516 3.37837319
Zr 3.06962000 2.16160484 3.37810807
Zr 0.00000000 0.00000000 1.09280815
Ga 0.00000000 6.51164250 -1.085384900000001 0 0 0
Ga 3.06962000 0.00000000 -3.2558895999999997 0 0 0
Ga 0.00000000 2.17054750 -1.085384900000001 0 0 0
Ga 3.06962000 4.34109500 -3.2558895999999997 0 0 0
Ga 0.00000000 2.18131342 3.21320592
Ga 3.06962000 4.34100818 1.15378483
Ga 0.00000000 6.50078976 3.21347104
Ga 3.06962000 0.00008682 1.15086856
Ni 1.53481000 0.00000000 -1.085384900000001 0 0 0
Ni 4.60443000 4.34109500 -1.085384900000001 0 0 0
Ni 4.60443000 0.00000000 -1.085384900000001 0 0 0
Ni 1.53481000 4.34109500 -1.085384900000001 0 0 0
Ni 4.60443000 6.51164250 -3.2558895999999997 0 0 0
Ni 1.53481000 2.17054750 -3.2558895999999997 0 0 0
Ni 1.53481000 6.51164250 -3.2558895999999997 0 0 0
Ni 4.60443000 2.17054750 -3.2558895999999997 0 0 0
Ni 1.37678596 4.34109500 3.14268506
Ni 4.89604390 0.00008682 3.33436393
Ni 4.76245404 4.34109500 3.14268506
Ni 1.24319610 0.00008682 3.33436393
Ni 4.47814583 2.18148706 1.14052903
Ni 1.66115556 6.50070294 1.14052903
Ni 1.66109417 2.18148706 1.14052903
Ni 4.47802305 6.50070294 1.14052903
C 3.06962000 0.00000000 3.77100998
