&CONTROL
calculation = 'relax'
prefix = 'scf'
pseudo_dir = '/vol0004/mdt0/data/hp150275/u10028/POT_KKJUS'
outdir = './data'
tprnfor = .true.
nstep = 50
disk_io = 'non'
/
&SYSTEM
ibrav = 0
ecutwfc = 50.0
ecutrho = 400
occupations = 'smearing'
smearing = 'mp'
degauss = 0.01
assume_isolated = 'esm'
esm_bc = 'bc1'
input_dft = 'BEEF-VDW'
nosym = .true.
nspin = 1
ntyp = 2
nat = 32
/
&ELECTRONS
electron_maxstep = 200
mixing_beta = 0.1
conv_thr = 1e-06
/
&IONS
ion_dynamics = 'bfgs'
upscale = 1.0
/
&CELL
/

K_POINTS {automatic}
8 6 1 0 0 0

ATOMIC_SPECIES
Ca 40.07 Ca.pbe-spn-rrkjus_psl.1.0.0.UPF
Pd 106.4 Pd.pbe-n-rrkjus_psl.1.0.0.UPF

CELL_PARAMETERS {angstrom}
7.14855000 0.00000000 0.00000000
0.00000000 10.10960000 0.00000000
0.00000000 0.00000000 27.58220000

ATOMIC_POSITIONS {angstrom}
Ca 0.00000000 0.00000000 -3.791173390000001 0 0 0
Ca 0.00000000 2.52740000 -1.2638163999999996 0 0 0
Ca 0.00000000 5.05500219 1.24726708
Ca 0.00014297 2.52729890 3.85654320
Ca 0.00000000 5.05480000 -3.791173390000001 0 0 0
Ca 0.00000000 7.58220000 -1.2638163999999996 0 0 0
Ca 0.00007149 10.10939781 1.24726708
Ca 0.00007149 7.58240219 3.85626738
Ca 3.57427500 0.00000000 -3.791173390000001 0 0 0
Ca 3.57427500 2.52740000 -1.2638163999999996 0 0 0
Ca 3.57427500 5.05490110 1.24726708
Ca 3.57413203 2.52729890 3.85654320
Ca 3.57427500 5.05480000 -3.791173390000001 0 0 0
Ca 3.57427500 7.58220000 -1.2638163999999996 0 0 0
Ca 3.57427500 10.10939781 1.24726708
Ca 3.57420351 7.58230110 3.85626738
Pd 1.78713750 2.52740000 -3.791173390000001 0 0 0
Pd 1.78713750 0.00000000 -1.2638163999999996 0 0 0
Pd 1.78713750 2.52729890 1.37469685
Pd 1.78713750 5.05480000 3.60775176
Pd 1.78713750 7.58220000 -3.791173390000001 0 0 0
Pd 1.78713750 5.05480000 -1.2638163999999996 0 0 0
Pd 1.78713750 7.58230110 1.37469685
Pd 1.78713750 0.00010110 3.60802758
Pd 5.36141250 2.52740000 -3.791173390000001 0 0 0
Pd 5.36141250 0.00000000 -1.2638163999999996 0 0 0
Pd 5.36141250 2.52729890 1.37469685
Pd 5.36141250 5.05480000 3.60775176
Pd 5.36141250 7.58220000 -3.791173390000001 0 0 0
Pd 5.36141250 5.05480000 -1.2638163999999996 0 0 0
Pd 5.36141250 7.58230110 1.37469685
Pd 5.36141250 0.00000000 3.60775176
