&CONTROL
calculation = 'relax'
prefix = 'scf'
pseudo_dir = '/vol0004/mdt0/data/hp150275/u10028/POT_KKJUS'
outdir = './data'
tprnfor = .true.
nstep = 50
disk_io = 'non'
/
&SYSTEM
ibrav = 0
ecutwfc = 50.0
ecutrho = 400
occupations = 'smearing'
smearing = 'mp'
degauss = 0.01
assume_isolated = 'esm'
esm_bc = 'bc1'
input_dft = 'BEEF-VDW'
nosym = .true.
nspin = 1
ntyp = 4
nat = 18
/
&ELECTRONS
electron_maxstep = 200
mixing_beta = 0.1
conv_thr = 1e-06
/
&IONS
ion_dynamics = 'bfgs'
upscale = 1.0
/
&CELL
/

K_POINTS {automatic}
6 8 1 0 0 0

ATOMIC_SPECIES
Ag 107.8 Ag.pbe-n-rrkjus_psl.1.0.0.UPF
C 12.01 C.pbe-n-rrkjus_psl.1.0.0.UPF
In 114.8 In.pbe-dn-rrkjus_psl.1.0.0.UPF
O 15.99 O.pbe-n-rrkjus_psl.1.0.0.UPF

CELL_PARAMETERS {angstrom}
8.59601000 0.00000000 0.00000000
0.00000000 6.07830000 0.00000000
0.00000000 0.00000000 24.55870000

ATOMIC_POSITIONS {angstrom}
In 0.00000000 0.00048626 2.51014473
In 0.00000000 3.03915000 -0.7598461800000003 0 0 0
In 4.29791904 0.00036470 2.51137266
In 4.29800500 3.03915000 -0.7598461800000003 0 0 0
Ag 8.59592404 3.03957548 2.18302284
Ag 2.15433203 4.60400833 0.87502648
Ag 2.15441799 1.47496028 0.87502648
Ag 0.00000000 0.00000000 -0.7598461800000003 0 0 0
Ag 2.14900250 1.51957500 -2.279292950000002 0 0 0
Ag 2.14900250 4.55872500 -2.279292950000002 0 0 0
Ag 4.29800500 3.03951470 2.20365215
Ag 6.44159201 4.60400834 0.87502648
Ag 6.44159201 1.47496028 0.87502648
Ag 4.29800500 0.00000000 -0.7598461800000003 0 0 0
Ag 6.44700750 1.51957500 -2.279292950000002 0 0 0
Ag 6.44700750 4.55872500 -2.279292950000002 0 0 0
C 0.00085960 6.07130995 6.62790196
O 0.00000000 0.00091175 7.76251390
