&CONTROL
calculation = 'relax'
prefix = 'scf'
pseudo_dir = '/vol0004/mdt0/data/hp150275/u10028/POT_HYBRID_KKJUS_GBRV'
outdir = './data'
tprnfor = .true.
nstep = 50
disk_io = 'non'
/
&SYSTEM
ibrav = 0
ecutwfc = 50.0
ecutrho = 400
occupations = 'smearing'
smearing = 'mp'
degauss = 0.01
assume_isolated = 'esm'
esm_bc = 'bc1'
input_dft = 'BEEF-VDW'
nosym = .true.
nspin = 2
ntyp = 5
nat = 18
starting_magnetization(1) = 0.1
starting_magnetization(2) = 0.1
starting_magnetization(3) = 0.1
starting_magnetization(4) = 0.1
starting_magnetization(5) = 0.1
/
&ELECTRONS
electron_maxstep = 200
mixing_beta = 0.1
conv_thr = 1e-06
/
&IONS
ion_dynamics = 'bfgs'
upscale = 1.0
/
&CELL
/

K_POINTS {automatic}
8 8 1 0 0 0

ATOMIC_SPECIES
Al 26.98 Al.pbe-nl-rrkjus_psl.1.0.0.UPF
C 12.01 C.pbe-n-rrkjus_psl.1.0.0.UPF
Ni 58.69 ni_pbe_v1.4.uspp.F.UPF
O 15.99 O.pbe-n-rrkjus_psl.1.0.0.UPF
Sc 44.95 Sc.pbe-spn-rrkjus_psl.1.0.0.UPF

CELL_PARAMETERS {angstrom}
6.07419000 0.00000000 0.00000000
-0.00000000 6.07419000 0.00000000
0.00000000 0.00000000 24.55560000

ATOMIC_POSITIONS {angstrom}
Sc 0.00000000 0.00000000 2.27777746
Sc 3.03709500 3.03709500 2.27777746
Sc 3.03709500 0.00000000 -0.7592591499999983 0 0 0
Sc 0.00000000 3.03709500 -0.7592591499999983 0 0 0
Al 0.00000000 0.00000000 -0.7592591499999983 0 0 0
Al 3.03709500 -0.00000000 2.27777746
Al 0.00000000 3.03709500 2.27777746
Al 3.03709500 3.03709500 -0.7592591499999983 0 0 0
Ni 1.51854750 1.51854750 0.75925915
Ni 4.55564250 4.55564250 -2.2777774599999994 0 0 0
Ni 4.55564250 1.51854750 0.75925915
Ni 1.51854750 4.55564250 -2.2777774599999994 0 0 0
Ni 4.55564250 4.55564250 0.75925915
Ni 1.51854750 1.51854750 -2.2777774599999994 0 0 0
Ni 1.51854750 4.55564250 0.75925915
Ni 4.55564250 1.51854750 -2.2777774599999994 0 0 0
C 0.00000000 0.00000000 4.17788978
O 0.00000000 0.00000000 5.32782853
