&CONTROL
calculation = 'relax'
prefix = 'scf'
pseudo_dir = '/vol0004/mdt0/data/hp150275/u10028/POT_KKJUS'
outdir = './data'
tprnfor = .true.
nstep = 50
disk_io = 'non'
/
&SYSTEM
ibrav = 0
ecutwfc = 50.0
ecutrho = 400
occupations = 'smearing'
smearing = 'mp'
degauss = 0.01
assume_isolated = 'esm'
esm_bc = 'bc1'
input_dft = 'BEEF-VDW'
nosym = .true.
nspin = 1
ntyp = 3
nat = 32
/
&ELECTRONS
electron_maxstep = 200
mixing_beta = 0.1
conv_thr = 1e-06
/
&IONS
ion_dynamics = 'bfgs'
upscale = 1.0
/
&CELL
/

K_POINTS {automatic}
9 6 2 0  0  0

ATOMIC_SPECIES
Ag 107.8 Ag.pbe-n-rrkjus_psl.1.0.0.UPF
Al 26.98 Al.pbe-nl-rrkjus_psl.1.0.0.UPF
Sc 44.95 Sc.pbe-spn-rrkjus_psl.1.0.0.UPF

CELL_PARAMETERS {angstrom}
6.65011000 0.00000000 0.00000000
0.00000000 9.40467000 0.00000000
0.00000000 0.00000000 27.05350000

ATOMIC_POSITIONS {angstrom}
Sc 0.00000000 0.00000000 -3.5266942599999993 0 0 0
Sc 3.32505500 2.35116750 -1.1754745699999987 0 0 0
Sc 3.32505500 7.05350250 -1.1754745699999987 0 0 0
Sc 0.00000000 4.70233500 -3.5266942599999993 0 0 0
Sc 0.00000000 4.70233500 1.18277902
Sc 3.32505500 7.05350250 3.57214414
Sc 3.32505500 2.35116750 3.57214414
Sc 0.00000000 0.00000000 1.18277902
Al 0.00000000 7.05350250 -1.1754745699999987 0 0 0
Al 3.32505500 0.00000000 -3.5266942599999993 0 0 0
Al 0.00000000 2.35116750 -1.1754745699999987 0 0 0
Al 3.32505500 4.70233500 -3.5266942599999993 0 0 0
Al 0.00000000 2.35116750 3.36816075
Al 3.32505500 4.70233500 1.21605482
Al 0.00000000 7.05350250 3.36816075
Al 3.32505500 0.00000000 1.21605482
Ag 1.66252750 0.00000000 -1.1754745699999987 0 0 0
Ag 4.98758250 4.70233500 -1.1754745699999987 0 0 0
Ag 4.98758250 0.00000000 -1.1754745699999987 0 0 0
Ag 1.66252750 4.70233500 -1.1754745699999987 0 0 0
Ag 4.98758250 7.05350250 -3.5266942599999993 0 0 0
Ag 1.66252750 2.35116750 -3.5266942599999993 0 0 0
Ag 1.66252750 7.05350250 -3.5266942599999993 0 0 0
Ag 4.98758250 2.35116750 -3.5266942599999993 0 0 0
Ag 1.58525322 4.70233500 3.58702357
Ag 5.06485678 0.00000000 3.58702357
Ag 5.06485678 4.70233500 3.58702357
Ag 1.58525322 0.00000000 3.58702357
Ag 4.93418212 2.35116750 1.16167729
Ag 1.71592788 7.05350250 1.16167729
Ag 1.71592788 2.35116750 1.16167729
Ag 4.93418212 7.05350250 1.16167729
