&CONTROL
calculation = 'relax'
prefix = 'scf'
pseudo_dir = '/vol0004/mdt0/data/hp150275/u10028/POT_KKJUS'
outdir = './data'
tprnfor = .true.
nstep = 50
disk_io = 'non'
/
&SYSTEM
ibrav = 0
ecutwfc = 50.0
ecutrho = 400
occupations = 'smearing'
smearing = 'mp'
degauss = 0.01
assume_isolated = 'esm'
esm_bc = 'bc1'
input_dft = 'BEEF-VDW'
nosym = .true.
nspin = 1
ntyp = 5
nat = 34
/
&ELECTRONS
electron_maxstep = 200
mixing_beta = 0.1
conv_thr = 1e-06
/
&IONS
ion_dynamics = 'bfgs'
upscale = 1.0
/
&CELL
/

K_POINTS {automatic}
8 6 1 0 0 0

ATOMIC_SPECIES
Au 196.9 Au.pbe-n-rrkjus_psl.1.0.0.UPF
C 12.01 C.pbe-n-rrkjus_psl.1.0.0.UPF
Cu 63.54 Cu.pbe-dn-rrkjus_psl.1.0.0.UPF
O 15.99 O.pbe-n-rrkjus_psl.1.0.0.UPF
Zn 65.40 Zn.pbe-dnl-rrkjus_psl.1.0.0.UPF

CELL_PARAMETERS {angstrom}
6.22913000 0.00000000 0.00000000
0.00000000 8.80931000 0.00000000
0.00000000 0.00000000 26.60700000

ATOMIC_POSITIONS {angstrom}
Zn 1.55728250 0.00000000 -1.1012637299999994 0 0 0
Zn 4.67184750 4.40465500 -1.1012637299999994 0 0 0
Zn 4.67184750 0.00000000 -1.1012637299999994 0 0 0
Zn 1.55728250 4.40465500 -1.1012637299999994 0 0 0
Zn 4.67184750 6.60698250 -3.3035251199999998 0 0 0
Zn 1.55728250 2.20232750 -3.3035251199999998 0 0 0
Zn 1.55728250 6.60698250 -3.3035251199999998 0 0 0
Zn 4.67184750 2.20232750 -3.3035251199999998 0 0 0
Zn 1.63732682 4.40465500 3.47992953
Zn 4.69614111 0.00000000 3.43070658
Zn 4.50197912 4.40465500 3.61030383
Zn 1.44515816 0.00000000 3.34689453
Zn 4.67926016 2.20576313 1.05257292
Zn 1.51984543 6.60504445 1.15634022
Zn 1.51984543 2.20426555 1.15634022
Zn 4.67926016 6.60354687 1.05257292
Cu 0.00000000 0.00000000 -3.3035251199999998 0 0 0
Cu 3.11456500 2.20232750 -1.1012637299999994 0 0 0
Cu 3.11456500 6.60698250 -1.1012637299999994 0 0 0
Cu 0.00000000 4.40465500 -3.3035251199999998 0 0 0
Cu 6.21349488 4.40465500 1.13877960
Cu 3.17785296 6.59438519 3.17368296
Cu 3.17785296 2.21492481 3.17368296
Cu 6.22632689 0.00000000 1.08130848
Au 0.00000000 6.60698250 -1.1012637299999994 0 0 0
Au 3.11456500 0.00000000 -3.3035251199999998 0 0 0
Au 0.00000000 2.20232750 -1.1012637299999994 0 0 0
Au 3.11456500 4.40465500 -3.3035251199999998 0 0 0
Au 6.13145724 2.30821541 3.32348037
Au 3.10827358 4.40465500 1.07598708
Au 6.13145724 6.50118269 3.32348037
Au 3.10179528 0.00000000 1.18055259
C 1.64125117 0.00000000 5.43554403
O 1.60518451 0.00000000 6.57804861
