&CONTROL
calculation = 'relax'
prefix = 'scf'
pseudo_dir = '/vol0403/data/hp230205/u10028/POT_HYBRID_KKJUS_GBRV'
outdir = './data'
tprnfor = .true.
nstep = 50
disk_io = 'non'
/
&SYSTEM
ibrav = 0
ecutwfc = 50.0
ecutrho = 400
occupations = 'smearing'
smearing = 'mp'
degauss = 0.01
assume_isolated = 'esm'
esm_bc = 'bc1'
input_dft = 'BEEF-VDW'
nosym = .true.
nspin = 2
ntyp = 6
nat = 18
starting_magnetization(1) = 0.0
starting_magnetization(2) = 0.0
starting_magnetization(3) = 0.1
starting_magnetization(4) = 0.0
starting_magnetization(5) = 0.0
starting_magnetization(6) = 0.0
/
&ELECTRONS
electron_maxstep = 400
mixing_beta = 0.05
conv_thr = 1e-06
/
&IONS
ion_dynamics = 'bfgs'
upscale = 1.0
/
&CELL
/

K_POINTS {automatic}
12 7 2 0  0  0

ATOMIC_SPECIES
Al 26.98 Al.pbe-nl-rrkjus_psl.1.0.0.UPF
C 12.01 C.pbe-n-rrkjus_psl.1.0.0.UPF
Fe 55.84 fe_pbe_v1.5.uspp.F.UPF
Li 6.941 Li.pbe-sl-rrkjus_psl.1.0.0.UPF
O 15.99 O.pbe-n-rrkjus_psl.1.0.0.UPF
Pd 106.4 Pd.pbe-n-rrkjus_psl.1.0.0.UPF


CELL_PARAMETERS {angstrom}
5.15535000 0.00000000 0.00000000
0.00000000 8.84236000 0.00000000
0.00000000 0.00000000 23.55420000

ATOMIC_POSITIONS {angstrom}
Li 3.35907140 2.21059000 -0.5923881300000033 0 0 0
Li 5.00053484 2.21076685 1.87538540
Li 3.35907140 6.63177000 -0.5923881300000033 0 0 0
Li 4.98197558 6.63168158 1.90671249
Al 0.00000000 0.00000000 -1.777164390000003 0 0 0
Al 1.38503633 0.00141478 0.64444291
Al 0.00000000 4.42118000 -1.777164390000003 0 0 0
Al 1.38483012 4.41976522 0.64444291
Fe 2.57767500 0.00000000 -1.777164390000003 0 0 0
Fe 3.80207063 8.82936173 0.13732099
Fe 2.57767500 4.42118000 -1.777164390000003 0 0 0
Fe 3.80227684 4.43426669 0.13779207
Pd 0.78139640 2.21059000 -0.5923881300000033 0 0 0
Pd 2.46879401 2.21067842 1.66999278
Pd 0.78139640 6.63177000 -0.5923881300000033 0 0 0
Pd 2.45544165 6.63177000 1.66669519
C 4.92774130 2.21067842 3.97430017
O 4.81994293 2.21059000 5.10937706
