&CONTROL
calculation = 'relax'
prefix = 'scf'
pseudo_dir = '/vol0004/mdt0/data/hp150275/u10028/POT_KKJUS'
outdir = './data'
tprnfor = .true.
nstep = 50
disk_io = 'non'
/
&SYSTEM
ibrav = 0
ecutwfc = 50.0
ecutrho = 400
occupations = 'smearing'
smearing = 'mp'
degauss = 0.01
assume_isolated = 'esm'
esm_bc = 'bc1'
input_dft = 'BEEF-VDW'
nosym = .true.
nspin = 1
ntyp = 5
nat = 18
/
&ELECTRONS
electron_maxstep = 200
mixing_beta = 0.1
conv_thr = 1e-06
/
&IONS
ion_dynamics = 'bfgs'
upscale = 1.0
/
&CELL
/

K_POINTS {automatic}
9 9 2 0  0  0

ATOMIC_SPECIES
Ag 107.8 Ag.pbe-n-rrkjus_psl.1.0.0.UPF
C 12.01 C.pbe-n-rrkjus_psl.1.0.0.UPF
In 114.8 In.pbe-dn-rrkjus_psl.1.0.0.UPF
Li 6.941 Li.pbe-sl-rrkjus_psl.1.0.0.UPF
O 15.99 O.pbe-n-rrkjus_psl.1.0.0.UPF

CELL_PARAMETERS {angstrom}
6.74000000 0.00000000 0.00000000
-0.00000000 6.74000000 0.00000000
0.00000000 0.00000000 25.05500000

ATOMIC_POSITIONS {angstrom}
Li 0.00000000 0.00000000 -2.5275484000000006 0 0 0
Li 3.37000000 3.37000000 -2.5275484000000006 0 0 0
Li 3.37000000 -0.00000000 0.84259965
Li 0.00000000 3.37000000 0.84259965
In 0.00000000 0.00000000 0.84259965
In 3.37000000 0.00000000 -2.5275484000000006 0 0 0
In 0.00000000 3.37000000 -2.5275484000000006 0 0 0
In 3.37000000 3.37000000 0.84259965
Ag 1.68500000 1.68500000 -0.8425996500000004 0 0 0
Ag 5.05500000 5.05500000 2.52754840
Ag 5.05500000 1.68500000 -0.8425996500000004 0 0 0
Ag 1.68500000 5.05500000 2.52754840
Ag 5.05500000 5.05500000 -0.8425996500000004 0 0 0
Ag 1.68500000 1.68500000 2.52754840
Ag 1.68500000 5.05500000 -0.8425996500000004 0 0 0
Ag 5.05500000 1.68500000 2.52754840
C 1.68500000 1.68500000 4.42746905
O 1.68500000 1.68500000 5.57749355
