&CONTROL
calculation = 'relax'
prefix = 'scf'
pseudo_dir = '/vol0004/mdt0/data/hp150275/u10028/POT_KKJUS'
outdir = './data'
tprnfor = .true.
nstep = 50
disk_io = 'non'
/
&SYSTEM
ibrav = 0
ecutwfc = 50.0
ecutrho = 400
occupations = 'smearing'
smearing = 'mp'
degauss = 0.01
assume_isolated = 'esm'
esm_bc = 'bc1'
input_dft = 'BEEF-VDW'
nosym = .true.
nspin = 1
ntyp = 4
nat = 17
/
&ELECTRONS
electron_maxstep = 200
mixing_beta = 0.1
conv_thr = 1e-06
/
&IONS
ion_dynamics = 'bfgs'
upscale = 1.0
/
&CELL
/

K_POINTS {automatic}
8 8 1 0 0 0

ATOMIC_SPECIES
C 12.01 C.pbe-n-rrkjus_psl.1.0.0.UPF
Ga 69.72 Ga.pbe-dnl-rrkjus_psl.1.0.0.UPF
Ir 192.2 Ir.pbe-n-rrkjus_psl.0.2.3.UPF
Li 6.941 Li.pbe-sl-rrkjus_psl.1.0.0.UPF

CELL_PARAMETERS {angstrom}
5.92875000 0.00000000 0.00000000
-0.00000000 5.92875000 0.00000000
0.00000000 0.00000000 24.44660000

ATOMIC_POSITIONS {angstrom}
Li 1.48218750 1.48218750 -0.7409764500000016 0 0 0
Li 4.44656250 4.44656250 2.22317380
Li 4.44656250 1.48218750 -0.7409764500000016 0 0 0
Li 1.48218750 4.44656250 2.22317380
Li 4.44656250 4.44656250 -0.7409764500000016 0 0 0
Li 1.48218750 1.48218750 2.22317380
Li 1.48218750 4.44656250 -0.7409764500000016 0 0 0
Li 4.44656250 1.48218750 2.22317380
Ga 0.00000000 0.00000000 -2.2231738000000014 0 0 0
Ga 2.96437500 2.96437500 -2.2231738000000014 0 0 0
Ga 2.96437500 -0.00000000 0.74097645
Ga 0.00000000 2.96437500 0.74097645
Ir 0.00000000 0.00000000 0.74097645
Ir 2.96437500 0.00000000 -2.2231738000000014 0 0 0
Ir 0.00000000 2.96437500 -2.2231738000000014 0 0 0
Ir 2.96437500 2.96437500 0.74097645
C 0.00000000 0.00000000 3.02331102
