&CONTROL
calculation = 'relax'
prefix = 'scf'
pseudo_dir = '/vol0403/data/hp230205/u10028/POT_HYBRID_KKJUS_GBRV'
outdir = './data'
tprnfor = .true.
nstep = 50
disk_io = 'non'
/
&SYSTEM
ibrav = 0
ecutwfc = 50.0
ecutrho = 400
occupations = 'smearing'
smearing = 'mp'
degauss = 0.01
assume_isolated = 'esm'
esm_bc = 'bc1'
input_dft = 'BEEF-VDW'
nosym = .true.
nspin = 1
ntyp = 5
nat = 17
/
&ELECTRONS
electron_maxstep = 200
mixing_beta = 0.1
conv_thr = 1e-06
/
&IONS
ion_dynamics = 'bfgs'
upscale = 1.0
/
&CELL
/

K_POINTS {automatic}
10 10 2 0  0  0

ATOMIC_SPECIES
Al 26.98 Al.pbe-nl-rrkjus_psl.1.0.0.UPF
C 12.01 C.pbe-n-rrkjus_psl.1.0.0.UPF
Li 6.941 Li.pbe-sl-rrkjus_psl.1.0.0.UPF
Pd 106.4 Pd.pbe-n-rrkjus_psl.1.0.0.UPF
Ti 47.86 Ti.pbe-spn-rrkjus_psl.1.0.0.UPF


CELL_PARAMETERS {angstrom}
6.17553000 0.00000000 0.00000000
0.00000000 6.17553000 0.00000000
0.00000000 0.00000000 24.63160000

ATOMIC_POSITIONS {angstrom}
Li 4.63516755 1.54030069 0.65569319
Li 4.63164750 4.63164750 -2.315863029999999 0 0 0
Li 1.54388250 1.54388250 -2.315863029999999 0 0 0
Li 1.54240037 4.63319138 0.98280084
Ti 6.05214291 2.96345158 2.37867361
Ti 0.00000000 0.00000000 -0.7719543399999971 0 0 0
Ti 3.08776500 3.08776500 -0.7719543399999971 0 0 0
Ti 3.21207842 0.12338709 2.37891993
Al 6.08122966 0.09430034 2.34517464
Al 0.00000000 3.08776500 -0.7719543399999971 0 0 0
Al 3.08776500 0.00000000 -0.7719543399999971 0 0 0
Al 3.18441204 2.99111796 2.34443569
Pd 1.54400601 1.54412952 0.82466597
Pd 1.54388250 4.63164750 -2.315863029999999 0 0 0
Pd 4.63164750 1.54388250 -2.315863029999999 0 0 0
Pd 4.63140048 4.63158574 0.82466597
C 4.63399420 1.54153580 2.78115396
