&CONTROL
calculation = 'relax'
prefix = 'scf'
pseudo_dir = '/vol0004/mdt0/data/hp150275/u10028/POT_KKJUS'
outdir = './data'
tprnfor = .true.
nstep = 50
disk_io = 'non'
/
&SYSTEM
ibrav = 0
ecutwfc = 50.0
ecutrho = 400
occupations = 'smearing'
smearing = 'mp'
degauss = 0.01
assume_isolated = 'esm'
esm_bc = 'bc1'
input_dft = 'BEEF-VDW'
nosym = .true.
nspin = 1
ntyp = 4
nat = 34
/
&ELECTRONS
electron_maxstep = 200
mixing_beta = 0.1
conv_thr = 1e-06
/
&IONS
ion_dynamics = 'bfgs'
upscale = 1.0
/
&CELL
/

K_POINTS {automatic}
8 6 1 0 0 0

ATOMIC_SPECIES
Au 196.9 Au.pbe-n-rrkjus_psl.1.0.0.UPF
C 12.01 C.pbe-n-rrkjus_psl.1.0.0.UPF
Mg 24.30 Mg.pbe-spnl-rrkjus_psl.1.0.0.UPF
O 15.99 O.pbe-n-rrkjus_psl.1.0.0.UPF

CELL_PARAMETERS {angstrom}
6.67495000 0.00000000 0.00000000
0.00000000 9.43980000 0.00000000
0.00000000 0.00000000 27.07990000

ATOMIC_POSITIONS {angstrom}
Mg 1.66873750 2.35995000 -3.5398845299999984 0 0 0
Mg 1.66873750 4.71990000 -1.179871239999997 0 0 0
Mg 1.62908830 2.35995000 1.23240625
Mg 1.69176608 9.41185819 3.51605422
Mg 1.66873750 7.07985000 -3.5398845299999984 0 0 0
Mg 1.66873750 0.00000000 -1.179871239999997 0 0 0
Mg 1.68262140 7.07985000 1.18312083
Mg 1.69183283 4.74784181 3.51605422
Mg 5.00621250 2.35995000 -3.5398845299999984 0 0 0
Mg 5.00621250 4.71990000 -1.179871239999997 0 0 0
Mg 5.04572820 2.36013880 1.23213545
Mg 4.98318392 9.41185819 3.51605422
Mg 5.00621250 7.07985000 -3.5398845299999984 0 0 0
Mg 5.00621250 0.00000000 -1.179871239999997 0 0 0
Mg 4.99232860 7.07985000 1.18312083
Mg 4.98318392 4.74784181 3.51605422
Au 0.00000000 0.00000000 -3.5398845299999984 0 0 0
Au 0.00000000 2.35995000 -1.179871239999997 0 0 0
Au 0.00000000 9.43866722 1.15901972
Au 6.67488325 2.35995000 3.64901652
Au 0.00000000 4.71990000 -3.5398845299999984 0 0 0
Au 0.00000000 7.07985000 -1.179871239999997 0 0 0
Au 0.00000000 4.72103278 1.15901972
Au 0.00000000 7.07985000 3.49059911
Au 3.33747500 0.00000000 -3.5398845299999984 0 0 0
Au 3.33747500 2.35995000 -1.179871239999997 0 0 0
Au 3.33747500 0.01000619 1.11867067
Au 3.33747500 2.35995000 3.51063824
Au 3.33747500 4.71990000 -3.5398845299999984 0 0 0
Au 3.33747500 7.07985000 -1.179871239999997 0 0 0
Au 3.33747500 4.70989381 1.11867067
Au 3.33747500 7.07985000 3.54042613
C 0.00006675 2.35995000 5.81080494
O 0.00000000 2.35995000 6.95926350
