&CONTROL
calculation = 'relax'
prefix = 'scf'
pseudo_dir = '/vol0403/data/hp230205/u10028/POT_HYBRID_KKJUS_GBRV'
outdir = './data'
tprnfor = .true.
nstep = 50
disk_io = 'non'
/
&SYSTEM
ibrav = 0
ecutwfc = 50.0
ecutrho = 400
occupations = 'smearing'
smearing = 'mp'
degauss = 0.01
assume_isolated = 'esm'
esm_bc = 'bc1'
input_dft = 'BEEF-VDW'
nosym = .true.
nspin = 1
ntyp = 6
nat = 18
/
&ELECTRONS
electron_maxstep = 200
mixing_beta = 0.1
conv_thr = 1e-06
/
&IONS
ion_dynamics = 'bfgs'
upscale = 1.0
/
&CELL
/

K_POINTS {automatic}
8 8 1 0 0 0

ATOMIC_SPECIES
C 12.01 C.pbe-n-rrkjus_psl.1.0.0.UPF
Ge 72.64 Ge.pbe-dn-rrkjus_psl.1.0.0.UPF
Li 6.941 Li.pbe-sl-rrkjus_psl.1.0.0.UPF
O 15.99 O.pbe-n-rrkjus_psl.1.0.0.UPF
Pd 106.4 Pd.pbe-n-rrkjus_psl.1.0.0.UPF
Zn 65.40 Zn.pbe-dnl-rrkjus_psl.1.0.0.UPF


CELL_PARAMETERS {angstrom}
6.18512000 0.00000000 0.00000000
0.00000000 6.18512000 0.00000000
0.00000000 0.00000000 24.63880000

ATOMIC_POSITIONS {angstrom}
Li 4.67440444 1.57603043 0.78154274
Li 4.63884000 4.63884000 -2.3194966299999997 0 0 0
Li 1.54628000 1.54628000 -2.3194966299999997 0 0 0
Li 1.51071556 4.60908957 0.78154274
Zn 0.00006185 3.09256000 2.41312407
Zn 0.00000000 0.00000000 -0.7731655400000008 0 0 0
Zn 3.09256000 3.09256000 -0.7731655400000008 0 0 0
Zn 3.09256000 0.00000000 2.20665093
Ge 0.00000000 0.00000000 2.40992103
Ge 0.00000000 3.09256000 -0.7731655400000008 0 0 0
Ge 3.09256000 0.00000000 -0.7731655400000008 0 0 0
Ge 3.09256000 3.09256000 2.40179022
Pd 1.50378823 1.58728735 0.83451616
Pd 1.54628000 4.63884000 -2.3194966299999997 0 0 0
Pd 4.63884000 1.54628000 -2.3194966299999997 0 0 0
Pd 4.68133177 4.59777080 0.83451616
C 0.00000000 3.09256000 4.50816124
O 0.00000000 3.09256000 5.65090878
