&CONTROL
calculation = 'relax'
prefix = 'scf'
pseudo_dir = '/vol0004/mdt0/data/hp150275/u10028/POT_HYBRID_KKJUS_GBRV'
outdir = './data'
tprnfor = .true.
nstep = 70
disk_io = 'non'
/
&SYSTEM
ibrav = 0
ecutwfc = 50.0
ecutrho = 400
occupations = 'smearing'
smearing = 'mp'
degauss = 0.01
assume_isolated = 'esm'
esm_bc = 'bc1'
input_dft = 'BEEF-VDW'
nosym = .true.
nspin = 1
ntyp = 3
nat = 33
/
&ELECTRONS
electron_maxstep = 200
mixing_beta = 0.1
conv_thr = 1e-06
/
&IONS
ion_dynamics = 'bfgs'
upscale = 1.0
/
&CELL
/

K_POINTS {automatic}
6 8 1 0 0 0

ATOMIC_SPECIES
C 12.01 C.pbe-n-rrkjus_psl.1.0.0.UPF
Nb 92.90 Nb.pbe-spn-rrkjus_psl.1.0.0.UPF
Ru 101.0 Ru.pbe-spn-rrkjus_psl.1.0.0.UPF

CELL_PARAMETERS {angstrom}
8.68251000 0.00000000 0.00000000
0.00000000 6.84380000 0.00000000
0.00000000 0.00000000 26.51190000

ATOMIC_POSITIONS {angstrom}
Nb 0.00000000 0.00000000 -3.2559264399999996 0 0 0
Nb 2.17062750 0.00000000 -1.085397190000002 0 0 0
Nb 8.50729695 0.00000000 1.18746800
Nb 2.12226592 0.00000000 3.35587630
Nb 0.00000000 3.42190000 -3.2559264399999996 0 0 0
Nb 2.17062750 3.42190000 -1.085397190000002 0 0 0
Nb 0.15941088 3.42190000 1.02282910
Nb 2.21924956 3.42183156 3.44760748
Nb 4.34125500 0.00000000 -3.2559264399999996 0 0 0
Nb 6.51188250 0.00000000 -1.085397190000002 0 0 0
Nb 4.49293845 0.00000000 1.14823039
Nb 6.54730714 0.00000000 3.25804739
Nb 4.34125500 3.42190000 -3.2559264399999996 0 0 0
Nb 6.51188250 3.42190000 -1.085397190000002 0 0 0
Nb 4.22508302 3.42190000 1.14160241
Nb 6.47098788 3.42190000 3.40969546
Ru 2.17062750 1.71095000 -3.2559264399999996 0 0 0
Ru 0.00000000 1.71095000 -1.085397190000002 0 0 0
Ru 2.17010655 1.53396933 1.10342528
Ru 0.03221211 1.98367543 3.12919956
Ru 2.17062750 5.13285000 -3.2559264399999996 0 0 0
Ru 0.00000000 5.13285000 -1.085397190000002 0 0 0
Ru 2.17010655 5.30996754 1.10342528
Ru 0.03221211 4.86012457 3.12919956
Ru 6.51188250 1.71095000 -3.2559264399999996 0 0 0
Ru 4.34125500 1.71095000 -1.085397190000002 0 0 0
Ru 6.52646912 1.95007237 1.13921634
Ru 4.28099838 1.73716175 3.13291122
Ru 6.51188250 5.13285000 -3.2559264399999996 0 0 0
Ru 4.34125500 5.13285000 -1.085397190000002 0 0 0
Ru 6.52646912 4.89379607 1.13921634
Ru 4.28091156 5.10650137 3.13264610
C 8.64621711 0.00000000 3.57406924
