&CONTROL
calculation = 'relax'
prefix = 'scf'
pseudo_dir = '/vol0004/mdt0/data/hp150275/u10028/POT_KKJUS'
outdir = './data'
tprnfor = .true.
nstep = 50
disk_io = 'non'
/
&SYSTEM
ibrav = 0
ecutwfc = 50.0
ecutrho = 400
occupations = 'smearing'
smearing = 'mp'
degauss = 0.01
assume_isolated = 'esm'
esm_bc = 'bc1'
input_dft = 'BEEF-VDW'
nosym = .true.
nspin = 1
ntyp = 4
nat = 34
/
&ELECTRONS
electron_maxstep = 200
mixing_beta = 0.1
conv_thr = 1e-06
/
&IONS
ion_dynamics = 'bfgs'
upscale = 1.0
/
&CELL
/

K_POINTS {automatic}
7 7 2 0  0  0

ATOMIC_SPECIES
C 12.01 C.pbe-n-rrkjus_psl.1.0.0.UPF
In 114.8 In.pbe-dn-rrkjus_psl.1.0.0.UPF
O 15.99 O.pbe-n-rrkjus_psl.1.0.0.UPF
Y 88.90 Y.pbe-spn-rrkjus_psl.1.0.0.UPF

CELL_PARAMETERS {angstrom}
9.34369000 0.00000000 0.00000000
0.00000000 9.34369000 0.00000000
0.00000000 0.00000000 27.00780000

ATOMIC_POSITIONS {angstrom}
Y 0.00000000 0.00000000 -3.5039919700000013 0 0 0
Y 0.01868738 9.34331625 1.14864173
Y 0.00000000 4.67184500 -3.5039919700000013 0 0 0
Y 9.29884029 4.67184500 1.12055362
Y 4.67184500 0.00000000 -3.5039919700000013 0 0 0
Y 4.65325106 0.00000000 1.14378033
Y 4.67184500 4.67184500 -3.5039919700000013 0 0 0
Y 4.71407848 4.67212531 1.11758276
In 0.00000000 2.33592250 -1.1680873500000004 0 0 0
In 2.33592250 0.00000000 -1.1680873500000004 0 0 0
In 2.33592250 2.33592250 -3.5039919700000013 0 0 0
In 0.01476303 2.35993578 3.69655759
In 2.34414495 0.00186874 3.46375035
In 2.33582906 2.40403800 1.26423512
In 0.00000000 7.00776750 -1.1680873500000004 0 0 0
In 2.33592250 4.67184500 -1.1680873500000004 0 0 0
In 2.33592250 7.00776750 -3.5039919700000013 0 0 0
In 0.01579084 6.98347391 3.69574735
In 2.33508157 4.67156469 3.83996900
In 2.33610937 6.93946513 1.26477527
In 4.67184500 2.33592250 -1.1680873500000004 0 0 0
In 7.00776750 0.00000000 -1.1680873500000004 0 0 0
In 7.00776750 2.33592250 -3.5039919700000013 0 0 0
In 4.65698853 2.36152421 3.69736782
In 7.00758063 9.34359656 3.89398460
In 7.00758063 2.30424739 1.31473970
In 4.67184500 7.00776750 -1.1680873500000004 0 0 0
In 7.00776750 4.67184500 -1.1680873500000004 0 0 0
In 7.00776750 7.00776750 -3.5039919700000013 0 0 0
In 4.65596073 6.98132486 3.69655759
In 7.00552501 4.67035001 3.64254199
In 7.00758063 7.03710669 1.31527986
C 2.33564219 0.00495216 6.49402551
O 2.33685687 9.34070002 7.63213420
