&CONTROL
calculation = 'relax'
prefix = 'scf'
pseudo_dir = '/vol0004/mdt0/data/hp150275/u10028/POT_KKJUS'
outdir = './data'
tprnfor = .true.
nstep = 50
disk_io = 'non'
/
&SYSTEM
ibrav = 0
ecutwfc = 50.0
ecutrho = 400
occupations = 'smearing'
smearing = 'mp'
degauss = 0.01
assume_isolated = 'esm'
esm_bc = 'bc1'
input_dft = 'BEEF-VDW'
nosym = .true.
nspin = 1
ntyp = 4
nat = 33
/
&ELECTRONS
electron_maxstep = 200
mixing_beta = 0.1
conv_thr = 1e-06
/
&IONS
ion_dynamics = 'bfgs'
upscale = 1.0
/
&CELL
/

K_POINTS {automatic}
8 6 1 0 0 0

ATOMIC_SPECIES
C 12.01 C.pbe-n-rrkjus_psl.1.0.0.UPF
Ga 69.72 Ga.pbe-dnl-rrkjus_psl.1.0.0.UPF
Li 6.941 Li.pbe-sl-rrkjus_psl.1.0.0.UPF
Ru 101.0 Ru.pbe-spn-rrkjus_psl.1.0.0.UPF

CELL_PARAMETERS {angstrom}
6.09317000 0.00000000 0.00000000
0.00000000 8.61704000 0.00000000
0.00000000 0.00000000 26.46280000

ATOMIC_POSITIONS {angstrom}
Li 0.00000000 0.00000000 -3.23137251 0 0 0
Li 3.04658500 2.15426000 -1.07703596 0 0 0
Li 3.04658500 6.46278000 -1.07703596 0 0 0
Li 0.00000000 4.30852000 -3.23137251 0 0 0
Li 0.00000000 4.30860617 0.95080840
Li 3.04658500 6.22848268 3.56453916
Li 3.04658500 2.38838498 3.56453916
Li 0.00000000 0.00000000 1.18765046
Ga 1.52329250 0.00000000 -1.07703596 0 0 0
Ga 4.56987750 4.30852000 -1.07703596 0 0 0
Ga 4.56987750 0.00000000 -1.07703596 0 0 0
Ga 1.52329250 4.30852000 -1.07703596 0 0 0
Ga 4.56987750 6.46278000 -3.23137251 0 0 0
Ga 1.52329250 2.15426000 -3.23137251 0 0 0
Ga 1.52329250 6.46278000 -3.23137251 0 0 0
Ga 4.56987750 2.15426000 -3.23137251 0 0 0
Ga 1.29339720 4.30852000 3.20517434
Ga 4.23140191 8.61695383 3.23772358
Ga 4.79977280 4.30852000 3.20517434
Ga 1.86176809 8.61695383 3.23772358
Ga 4.57645812 2.15529404 1.15007329
Ga 1.51689467 6.46183213 1.15007329
Ga 1.51671188 2.15529404 1.15007329
Ga 4.57627533 6.46183213 1.15007329
Ru 0.00000000 6.46278000 -1.07703596 0 0 0
Ru 3.04658500 0.00000000 -3.23137251 0 0 0
Ru 0.00000000 2.15426000 -1.07703596 0 0 0
Ru 3.04658500 4.30852000 -3.23137251 0 0 0
Ru 0.00000000 1.92711483 3.24116374
Ru 3.04658500 4.30852000 1.10032322
Ru 0.00000000 6.68983900 3.24089912
Ru 3.04658500 0.00008617 0.92355172
C 0.00000000 0.00000000 3.75692372
