&CONTROL
calculation = 'relax'
prefix = 'scf'
pseudo_dir = '/vol0004/mdt0/data/hp150275/u10028/POT_KKJUS'
outdir = './data'
tprnfor = .true.
nstep = 50
disk_io = 'non'
/
&SYSTEM
ibrav = 0
ecutwfc = 50.0
ecutrho = 400
occupations = 'smearing'
smearing = 'mp'
degauss = 0.01
assume_isolated = 'esm'
esm_bc = 'bc1'
input_dft = 'BEEF-VDW'
nosym = .true.
nspin = 1
ntyp = 4
nat = 18
/
&ELECTRONS
electron_maxstep = 200
mixing_beta = 0.1
conv_thr = 1e-06
/
&IONS
ion_dynamics = 'bfgs'
upscale = 1.0
/
&CELL
/

K_POINTS {automatic}
8 11 2 0  0  0

ATOMIC_SPECIES
C 12.01 C.pbe-n-rrkjus_psl.1.0.0.UPF
Ni 58.69 Ni.pbe-spn-rrkjus_psl.1.0.0.UPF
O 15.99 O.pbe-n-rrkjus_psl.1.0.0.UPF
Sn 118.7 Sn.pbe-dn-rrkjus_psl.1.0.0.UPF

CELL_PARAMETERS {angstrom}
7.54412000 0.00000000 0.00000000
0.00000000 5.33450000 0.00000000
0.00000000 0.00000000 24.00090000

ATOMIC_POSITIONS {angstrom}
Ni 0.00000000 2.66725000 -2.0004750100000024 0 0 0
Ni 1.88603000 4.00087500 -0.6667450000000024 0 0 0
Ni 1.88603000 1.33362500 -0.6667450000000024 0 0 0
Ni 0.00671427 5.33257958 0.66050477
Ni 1.88595456 1.22442779 1.88623073
Ni 1.88603000 4.09828297 1.80414765
Ni 3.77206000 2.66725000 -2.0004750100000024 0 0 0
Ni 5.65809000 4.00087500 -0.6667450000000024 0 0 0
Ni 5.65809000 1.33362500 -0.6667450000000024 0 0 0
Ni 3.76534573 5.33257958 0.66050477
Ni 5.65809000 1.22026688 1.79550733
Ni 5.65816544 4.11748717 1.79022713
Sn 0.00000000 0.00000000 -2.0004750100000024 0 0 0
Sn 7.54027250 2.66479613 0.75242822
Sn 3.77206000 0.00000000 -2.0004750100000024 0 0 0
Sn 3.77598294 2.66479613 0.75242822
C 1.88603000 1.28326732 3.64477667
O 1.88603000 1.33005089 4.79897996
