&CONTROL
calculation = 'relax'
prefix = 'scf'
pseudo_dir = '/vol0004/mdt0/data/hp150275/u10028/POT_KKJUS'
outdir = './data'
tprnfor = .true.
nstep = 50
disk_io = 'non'
/
&SYSTEM
ibrav = 0
ecutwfc = 50.0
ecutrho = 400
occupations = 'smearing'
smearing = 'mp'
degauss = 0.01
assume_isolated = 'esm'
esm_bc = 'bc1'
input_dft = 'BEEF-VDW'
nosym = .true.
nspin = 1
ntyp = 4
nat = 34
/
&ELECTRONS
electron_maxstep = 200
mixing_beta = 0.1
conv_thr = 1e-06
/
&IONS
ion_dynamics = 'bfgs'
upscale = 1.0
/
&CELL
/

K_POINTS {automatic}
9 6 2 0  0  0

ATOMIC_SPECIES
Au 196.9 Au.pbe-n-rrkjus_psl.1.0.0.UPF
C 12.01 C.pbe-n-rrkjus_psl.1.0.0.UPF
Mg 24.30 Mg.pbe-spnl-rrkjus_psl.1.0.0.UPF
O 15.99 O.pbe-n-rrkjus_psl.1.0.0.UPF

CELL_PARAMETERS {angstrom}
6.67495000 0.00000000 0.00000000
0.00000000 9.43980000 0.00000000
0.00000000 0.00000000 27.07990000

ATOMIC_POSITIONS {angstrom}
Mg 1.66873750 2.35995000 -3.5398845299999984 0 0 0
Mg 1.66873750 4.71990000 -1.179871239999997 0 0 0
Mg 1.67207497 2.36051639 1.19043240
Mg 1.67320972 0.00000000 3.56290244
Mg 1.66873750 7.07985000 -3.5398845299999984 0 0 0
Mg 1.66873750 0.00000000 -1.179871239999997 0 0 0
Mg 1.67200823 7.07928361 1.19043240
Mg 1.67340996 4.71990000 3.54394651
Mg 5.00621250 2.35995000 -3.5398845299999984 0 0 0
Mg 5.00621250 4.71990000 -1.179871239999997 0 0 0
Mg 5.00287503 2.35787324 1.15387454
Mg 5.00240778 0.00000000 3.53176056
Mg 5.00621250 7.07985000 -3.5398845299999984 0 0 0
Mg 5.00621250 0.00000000 -1.179871239999997 0 0 0
Mg 5.00294177 7.08183236 1.15387454
Mg 5.00260803 4.71990000 3.57454680
Au 0.00000000 0.00000000 -3.5398845299999984 0 0 0
Au 0.00000000 2.35995000 -1.179871239999997 0 0 0
Au 0.01221516 0.00000000 1.17824645
Au 6.64331074 2.38118955 3.48139194
Au 0.00000000 4.71990000 -3.5398845299999984 0 0 0
Au 0.00000000 7.07985000 -1.179871239999997 0 0 0
Au 6.67274727 4.71990000 1.14575057
Au 6.64331074 7.05861045 3.48139194
Au 3.33747500 0.00000000 -3.5398845299999984 0 0 0
Au 3.33747500 2.35995000 -1.179871239999997 0 0 0
Au 3.32519309 0.00000000 1.17445526
Au 3.36904751 2.38109515 3.48843272
Au 3.33747500 4.71990000 -3.5398845299999984 0 0 0
Au 3.33747500 7.07985000 -1.179871239999997 0 0 0
Au 3.33927724 4.71990000 1.14250098
Au 3.36904751 7.05870485 3.48843272
C 1.68255465 0.00000000 5.82759448
O 1.68889585 0.00000000 6.96955386
