&CONTROL
calculation = 'relax'
prefix = 'scf'
pseudo_dir = '/vol0403/data/hp230205/u10028/POT_HYBRID_KKJUS_GBRV'
outdir = './data'
tprnfor = .true.
nstep = 50
disk_io = 'non'
/
&SYSTEM
ibrav = 0
ecutwfc = 50.0
ecutrho = 400
occupations = 'smearing'
smearing = 'mp'
degauss = 0.01
assume_isolated = 'esm'
esm_bc = 'bc1'
input_dft = 'BEEF-VDW'
nosym = .true.
nspin = 1
ntyp = 5
nat = 33
/
&ELECTRONS
electron_maxstep = 200
mixing_beta = 0.1
conv_thr = 1e-06
/
&IONS
ion_dynamics = 'bfgs'
upscale = 1.0
/
&CELL
/

K_POINTS {automatic}
7 6 2 0  0  0

ATOMIC_SPECIES
C 12.01 C.pbe-n-rrkjus_psl.1.0.0.UPF
Ga 69.72 Ga.pbe-dnl-rrkjus_psl.1.0.0.UPF
Pd 106.4 Pd.pbe-n-rrkjus_psl.1.0.0.UPF
Sc 44.95 Sc.pbe-spn-rrkjus_psl.1.0.0.UPF
Y 88.90 Y.pbe-spn-rrkjus_psl.1.0.0.UPF


CELL_PARAMETERS {angstrom}
9.48206000 0.00000000 0.00000000
0.00000000 9.85606000 0.00000000
0.00000000 0.00000000 25.30050000

ATOMIC_POSITIONS {angstrom}
Y 9.42677959 2.44824530 0.96243102
Y 0.00000000 2.46401500 -2.6502273800000005 0 0 0
Y 9.42696923 7.40791326 0.96268402
Y 0.00000000 7.39204500 -2.6502273800000005 0 0 0
Y 4.79631041 2.44814674 0.96243102
Y 4.74103000 2.46401500 -2.6502273800000005 0 0 0
Y 4.79621559 7.40791326 0.96243102
Y 4.74103000 7.39204500 -2.6502273800000005 0 0 0
Sc 2.37060982 0.00000000 0.62340432
Sc 2.37051500 0.00000000 -2.6502273800000005 0 0 0
Sc 2.37060982 4.92803000 0.99076758
Sc 2.37051500 4.92803000 -2.6502273800000005 0 0 0
Sc 7.11182946 9.85576432 1.43706840
Sc 7.11154500 0.00000000 -2.6502273800000005 0 0 0
Sc 7.11154500 4.92812856 0.76938820
Sc 7.11154500 4.92803000 -2.6502273800000005 0 0 0
Ga 0.35093104 9.85566576 2.94497820
Ga 0.00000000 0.00000000 -0.8834934600000004 0 0 0
Ga 9.33575181 4.92793144 2.76559766
Ga 0.00000000 4.92803000 -0.8834934600000004 0 0 0
Ga 4.39000414 9.85596144 2.94523120
Ga 4.74103000 0.00000000 -0.8834934600000004 0 0 0
Ga 4.88762265 4.92832568 2.76534465
Ga 4.74103000 4.92803000 -0.8834934600000004 0 0 0
Pd 2.37051500 2.27487721 2.37850000
Pd 2.37051500 2.46401500 -0.8834934600000004 0 0 0
Pd 2.37060982 7.58128135 2.37850000
Pd 2.37051500 7.39204500 -0.8834934600000004 0 0 0
Pd 7.11163982 3.00028322 2.59987938
Pd 7.11154500 2.46401500 -0.8834934600000004 0 0 0
Pd 7.11135536 6.85587534 2.59987938
Pd 7.11154500 7.39204500 -0.8834934600000004 0 0 0
C 2.37051500 0.00009856 2.83365600
