&CONTROL
calculation = 'relax'
prefix = 'scf'
pseudo_dir = '/vol0004/mdt0/data/hp150275/u10028/POT_KKJUS'
outdir = './data'
tprnfor = .true.
nstep = 50
disk_io = 'non'
/
&SYSTEM
ibrav = 0
ecutwfc = 50.0
ecutrho = 400
occupations = 'smearing'
smearing = 'mp'
degauss = 0.01
assume_isolated = 'esm'
esm_bc = 'bc1'
input_dft = 'BEEF-VDW'
nosym = .true.
nspin = 1
ntyp = 5
nat = 34
/
&ELECTRONS
electron_maxstep = 200
mixing_beta = 0.1
conv_thr = 1e-06
/
&IONS
ion_dynamics = 'bfgs'
upscale = 1.0
/
&CELL
/

K_POINTS {automatic}
9 6 2 0  0  0

ATOMIC_SPECIES
C 12.01 C.pbe-n-rrkjus_psl.1.0.0.UPF
In 114.8 In.pbe-dn-rrkjus_psl.1.0.0.UPF
O 15.99 O.pbe-n-rrkjus_psl.1.0.0.UPF
Pt 195.0 Pt.pbe-n-rrkjus_psl.1.0.0.UPF
Zr 91.22 Zr.pbe-spn-rrkjus_psl.1.0.0.UPF

CELL_PARAMETERS {angstrom}
6.69031000 0.00000000 0.00000000
0.00000000 9.46152000 0.00000000
0.00000000 0.00000000 27.09610000

ATOMIC_POSITIONS {angstrom}
Zr 0.00000000 0.00000000 -3.547963329999998 0 0 0
Zr 3.34515500 2.36538000 -1.1827447599999985 0 0 0
Zr 3.34515500 7.09614000 -1.1827447599999985 0 0 0
Zr 0.00000000 4.73076000 -3.547963329999998 0 0 0
Zr 6.66876720 4.73076000 1.21742777
Zr 3.29899186 7.12688994 3.37671598
Zr 3.29899186 2.33463006 3.37671598
Zr 0.03425439 0.00000000 1.28787763
In 0.00000000 7.09614000 -1.1827447599999985 0 0 0
In 3.34515500 0.00000000 -3.547963329999998 0 0 0
In 0.00000000 2.36538000 -1.1827447599999985 0 0 0
In 3.34515500 4.73076000 -3.547963329999998 0 0 0
In 6.65324568 2.42413604 3.73871988
In 3.34201055 4.73076000 1.07246364
In 6.65331259 7.03738396 3.73871988
In 3.27657932 0.00000000 1.16648710
Pt 1.67257750 0.00000000 -1.1827447599999985 0 0 0
Pt 5.01773250 4.73076000 -1.1827447599999985 0 0 0
Pt 5.01773250 0.00000000 -1.1827447599999985 0 0 0
Pt 1.67257750 4.73076000 -1.1827447599999985 0 0 0
Pt 5.01773250 7.09614000 -3.547963329999998 0 0 0
Pt 1.67257750 2.36538000 -3.547963329999998 0 0 0
Pt 1.67257750 7.09614000 -3.547963329999998 0 0 0
Pt 5.01773250 2.36538000 -3.547963329999998 0 0 0
Pt 1.76369952 4.73076000 3.36669042
Pt 4.95778732 0.00000000 3.35368430
Pt 4.86967594 4.73076000 3.38321905
Pt 1.64227040 0.00000000 3.93435372
Pt 5.07038524 2.36187924 1.19547993
Pt 1.63959427 7.10228999 1.17759651
Pt 1.63959427 2.35923001 1.17759651
Pt 5.07038524 7.09964076 1.19547993
C 1.95704948 0.00000000 5.81238441
O 2.00180766 0.00000000 6.96938788
