&CONTROL
calculation = 'relax'
prefix = 'scf'
pseudo_dir = '/vol0403/data/hp230205/u10028/POT_HYBRID_KKJUS_GBRV'
outdir = './data'
tprnfor = .true.
nstep = 50
disk_io = 'non'
/
&SYSTEM
ibrav = 0
ecutwfc = 50.0
ecutrho = 400
occupations = 'smearing'
smearing = 'mp'
degauss = 0.01
assume_isolated = 'esm'
esm_bc = 'bc1'
input_dft = 'BEEF-VDW'
nosym = .true.
nspin = 1
ntyp = 5
nat = 33
/
&ELECTRONS
electron_maxstep = 200
mixing_beta = 0.1
conv_thr = 1e-06
/
&IONS
ion_dynamics = 'bfgs'
upscale = 1.0
/
&CELL
/

K_POINTS {automatic}
6 6 1 0 0 0

ATOMIC_SPECIES
Al 26.98 Al.pbe-nl-rrkjus_psl.1.0.0.UPF
C 12.01 C.pbe-n-rrkjus_psl.1.0.0.UPF
Cu 63.54 Cu.pbe-dn-rrkjus_psl.1.0.0.UPF
Li 6.941 Li.pbe-sl-rrkjus_psl.1.0.0.UPF
Pd 106.4 Pd.pbe-n-rrkjus_psl.1.0.0.UPF


CELL_PARAMETERS {angstrom}
6.00833000 0.00000000 0.00000000
0.00000000 8.49706000 0.00000000
0.00000000 0.00000000 26.37280000

ATOMIC_POSITIONS {angstrom}
Li 0.00000000 2.12426500 -1.0620326599999999 0 0 0
Li 0.00000000 6.37279500 -1.0620326599999999 0 0 0
Li 3.00416500 4.24853000 -3.1863617000000026 0 0 0
Li 3.00416500 0.00000000 -3.1863617000000026 0 0 0
Li 6.00196117 6.21220057 3.50837358
Li 6.00196117 2.28485943 3.50837358
Li 3.00332383 0.00000000 1.06677976
Li 3.01119475 4.24853000 0.95179435
Al 0.00000000 0.00000000 -3.1863617000000026 0 0 0
Al 0.00000000 4.24853000 -3.1863617000000026 0 0 0
Al 3.00416500 6.37279500 -1.0620326599999999 0 0 0
Al 3.00416500 2.12426500 -1.0620326599999999 0 0 0
Al 5.98417651 4.24853000 1.11398707
Al 0.03689115 0.00000000 0.88032406
Al 3.00969266 1.95627812 3.30688539
Al 3.00969266 6.54078188 3.30688539
Cu 1.50208250 0.00000000 -1.0620326599999999 0 0 0
Cu 1.50208250 4.24853000 -1.0620326599999999 0 0 0
Cu 4.50624750 2.12426500 -3.1863617000000026 0 0 0
Cu 4.50624750 6.37279500 -3.1863617000000026 0 0 0
Cu 1.68034965 4.24853000 3.03419064
Cu 1.25844472 0.00000000 3.00544429
Cu 4.51171508 6.36795168 1.09895458
Cu 4.51171508 2.12910832 1.09895458
Pd 4.50624750 0.00000000 -1.0620326599999999 0 0 0
Pd 4.50624750 4.24853000 -1.0620326599999999 0 0 0
Pd 1.50208250 2.12426500 -3.1863617000000026 0 0 0
Pd 1.50208250 6.37279500 -3.1863617000000026 0 0 0
Pd 4.28862579 4.24853000 3.05555261
Pd 4.77950635 0.00000000 2.96641254
Pd 1.49709559 6.33957150 1.10950370
Pd 1.49709559 2.15748850 1.10950370
C 2.93290621 0.00000000 3.82985802
