&CONTROL
calculation = 'relax'
prefix = 'scf'
pseudo_dir = '/vol0403/data/hp230205/u10028/POT_HYBRID_KKJUS_GBRV'
outdir = './data'
tprnfor = .true.
nstep = 50
disk_io = 'non'
/
&SYSTEM
ibrav = 0
ecutwfc = 50.0
ecutrho = 400
occupations = 'smearing'
smearing = 'mp'
degauss = 0.01
assume_isolated = 'esm'
esm_bc = 'bc1'
input_dft = 'BEEF-VDW'
nosym = .true.
nspin = 1
ntyp = 6
nat = 34
/
&ELECTRONS
electron_maxstep = 200
mixing_beta = 0.1
conv_thr = 1e-06
/
&IONS
ion_dynamics = 'bfgs'
upscale = 1.0
/
&CELL
/

K_POINTS {automatic}
6 6 1 0 0 0

ATOMIC_SPECIES
Al 26.98 Al.pbe-nl-rrkjus_psl.1.0.0.UPF
C 12.01 C.pbe-n-rrkjus_psl.1.0.0.UPF
In 114.8 In.pbe-dn-rrkjus_psl.1.0.0.UPF
Li 6.941 Li.pbe-sl-rrkjus_psl.1.0.0.UPF
O 15.99 O.pbe-n-rrkjus_psl.1.0.0.UPF
Sc 44.95 Sc.pbe-spn-rrkjus_psl.1.0.0.UPF


CELL_PARAMETERS {angstrom}
8.49254000 0.00000000 0.00000000
0.00000000 8.71362000 0.00000000
0.00000000 0.00000000 26.28040000

ATOMIC_POSITIONS {angstrom}
Li 2.12313500 2.17840500 -3.140245 0 0 0
Li 2.12415410 2.17195692 1.04201786
Li 2.12313500 6.53521500 -3.140245 0 0 0
Li 2.12806067 6.52057612 1.04201786
Li 6.36940500 2.17840500 -3.140245 0 0 0
Li 6.36762157 2.17073701 1.04385749
Li 6.36940500 6.53521500 -3.140245 0 0 0
Li 6.36295067 6.52014044 1.04306908
Sc 2.12313500 0.00000000 -1.0467483299999998 0 0 0
Sc 2.12254052 8.69680271 3.14996874
Sc 2.12313500 4.35681000 -1.0467483299999998 0 0 0
Sc 2.11413291 4.33659440 3.15811567
Sc 6.36940500 0.00000000 -1.0467483299999998 0 0 0
Sc 6.36796127 8.69619276 3.15075716
Sc 6.36940500 4.35681000 -1.0467483299999998 0 0 0
Sc 6.37772769 4.33737863 3.15785286
Al 0.00000000 0.00000000 -3.140245 0 0 0
Al 0.00016985 8.69741267 1.10246278
Al 0.00000000 4.35681000 -3.140245 0 0 0
Al 8.49228522 4.34914201 1.10561643
Al 4.24627000 0.00000000 -3.140245 0 0 0
Al 4.24601522 8.70037530 1.11060970
Al 4.24627000 4.35681000 -3.140245 0 0 0
Al 4.24584537 4.34583084 1.11481457
In 0.00000000 2.17840500 -1.0467483299999998 0 0 0
In 8.48965254 2.14982433 3.14655229
In 0.00000000 6.53521500 -1.0467483299999998 0 0 0
In 8.49245507 6.52188316 3.16074371
In 4.24627000 2.17840500 -1.0467483299999998 0 0 0
In 4.24601522 2.16437607 3.17887718
In 4.24627000 6.53521500 -1.0467483299999998 0 0 0
In 4.24737403 6.52014044 3.17808877
C 0.00518045 3.00890012 7.03026980
O 8.48939776 2.05728568 7.65232687
