&CONTROL
calculation = 'relax'
prefix = 'scf'
pseudo_dir = '/vol0403/data/hp230205/u10028/POT_HYBRID_KKJUS_GBRV'
outdir = './data'
tprnfor = .true.
nstep = 70
disk_io = 'non'
/
&SYSTEM
ibrav = 0
ecutwfc = 50.0
ecutrho = 400
occupations = 'smearing'
smearing = 'mp'
degauss = 0.01
assume_isolated = 'esm'
esm_bc = 'bc1'
input_dft = 'BEEF-VDW'
nosym = .true.
nspin = 1
ntyp = 5
nat = 33
/
&ELECTRONS
electron_maxstep = 200
mixing_beta = 0.1
conv_thr = 1e-06
/
&IONS
ion_dynamics = 'bfgs'
upscale = 1.0
/
&CELL
/

K_POINTS {automatic}
9 6 2 0  0  0

ATOMIC_SPECIES
Au 196.9 Au.pbe-n-rrkjus_psl.1.0.0.UPF
C 12.01 C.pbe-n-rrkjus_psl.1.0.0.UPF
In 114.8 In.pbe-dn-rrkjus_psl.1.0.0.UPF
Pd 106.4 Pd.pbe-n-rrkjus_psl.1.0.0.UPF
Y 88.90 Y.pbe-spn-rrkjus_psl.1.0.0.UPF


CELL_PARAMETERS {angstrom}
6.93157000 0.00000000 0.00000000
-0.00000000 9.80272000 0.00000000
0.00000000 0.00000000 27.35200000

ATOMIC_POSITIONS {angstrom}
Y 5.19867750 0.00000000 -1.2253696000000005 0 0 0
Y 5.19867750 4.90136000 -1.2253696000000005 0 0 0
Y 1.73289250 2.45068000 -3.6761088000000015 0 0 0
Y 1.73289250 7.35204000 -3.6761088000000015 0 0 0
Y 5.18904262 4.76745484 3.59651448
Y 5.18904262 0.13390516 3.59651448
Y 1.76928324 7.35204000 1.29867296
Y 1.77115477 2.45068000 1.44062984
In 1.73289250 0.00000000 -1.2253696000000005 0 0 0
In 1.73289250 4.90136000 -1.2253696000000005 0 0 0
In 5.19867750 2.45068000 -3.6761088000000015 0 0 0
In 5.19867750 7.35204000 -3.6761088000000015 0 0 0
In 1.67210263 5.01467944 3.81615104
In 1.67203332 9.68940056 3.81615104
In 5.20748059 7.35204000 1.22482256
In 5.20179671 2.45068000 1.23631040
Pd 0.00000000 2.45068000 -1.2253696000000005 0 0 0
Pd 0.00000000 7.35204000 -1.2253696000000005 0 0 0
Pd 3.46578500 4.90136000 -3.6761088000000015 0 0 0
Pd 3.46578500 0.00000000 -3.6761088000000015 0 0 0
Pd 6.90592319 7.35204000 3.50050896
Pd 0.39932775 2.45068000 3.98354528
Pd 3.44325740 9.77076313 1.19829112
Pd 3.44325740 4.93331687 1.19829112
Au 0.00000000 0.00000000 -3.6761088000000015 0 0 0
Au 0.00000000 4.90136000 -3.6761088000000015 0 0 0
Au 3.46578500 7.35204000 -1.2253696000000005 0 0 0
Au 3.46578500 2.45068000 -1.2253696000000005 0 0 0
Au 0.04200531 4.90606531 1.18324752
Au 0.04200531 9.79801469 1.18324752
Au 3.14242726 2.45068000 4.13343424
Au 3.48949097 7.35204000 3.79344888
C 5.26348768 2.45068000 3.59678800
