&CONTROL
calculation = 'relax'
prefix = 'scf'
pseudo_dir = '/vol0004/mdt0/data/hp150275/u10028/POT_KKJUS'
outdir = './data'
tprnfor = .true.
nstep = 50
disk_io = 'non'
/
&SYSTEM
ibrav = 0
ecutwfc = 50.0
ecutrho = 400
occupations = 'smearing'
smearing = 'mp'
degauss = 0.01
assume_isolated = 'esm'
esm_bc = 'bc1'
input_dft = 'BEEF-VDW'
nosym = .true.
nspin = 1
ntyp = 1
nat = 16
/
&ELECTRONS
electron_maxstep = 200
mixing_beta = 0.1
conv_thr = 1e-06
/
&IONS
ion_dynamics = 'bfgs'
upscale = 1.0
/
&CELL
/

K_POINTS {automatic}
8 8 1 0 0 0

ATOMIC_SPECIES
Mo 95.94 Mo.pbe-spn-rrkjus_psl.1.0.0.UPF

CELL_PARAMETERS {angstrom}
6.34058000 0.00000000 0.00000000
-0.00000000 6.34058000 0.00000000
0.00000000 0.00000000 24.75540000

ATOMIC_POSITIONS {angstrom}
Mo 0.00000000 0.00000000 -2.3777561700000014 0 0 0
Mo 1.58514500 1.58514500 -0.7926679100000023 0 0 0
Mo 0.00000000 0.00000000 0.79266791
Mo 1.58514500 1.58514500 2.37775617
Mo 0.00000000 3.17029000 -2.3777561700000014 0 0 0
Mo 1.58514500 4.75543500 -0.7926679100000023 0 0 0
Mo 0.00000000 3.17029000 0.79266791
Mo 1.58514500 4.75543500 2.37775617
Mo 3.17029000 0.00000000 -2.3777561700000014 0 0 0
Mo 4.75543500 1.58514500 -0.7926679100000023 0 0 0
Mo 3.17029000 -0.00000000 0.79266791
Mo 4.75543500 1.58514500 2.37775617
Mo 3.17029000 3.17029000 -2.3777561700000014 0 0 0
Mo 4.75543500 4.75543500 -0.7926679100000023 0 0 0
Mo 3.17029000 3.17029000 0.79266791
Mo 4.75543500 4.75543500 2.37775617
