&CONTROL
calculation = 'relax'
prefix = 'scf'
pseudo_dir = '/vol0004/mdt0/data/hp150275/u10028/POT_KKJUS'
outdir = './data'
tprnfor = .true.
nstep = 50
disk_io = 'non'
/
&SYSTEM
ibrav = 0
ecutwfc = 50.0
ecutrho = 400
occupations = 'smearing'
smearing = 'mp'
degauss = 0.01
assume_isolated = 'esm'
esm_bc = 'bc1'
input_dft = 'BEEF-VDW'
nosym = .true.
nspin = 1
ntyp = 4
nat = 34
/
&ELECTRONS
electron_maxstep = 200
mixing_beta = 0.1
conv_thr = 1e-06
/
&IONS
ion_dynamics = 'bfgs'
upscale = 1.0
/
&CELL
/

K_POINTS {automatic}
8 6 1 0 0 0

ATOMIC_SPECIES
Be 9.012 Be.pbe-n-rrkjus_psl.1.0.0.UPF
C 12.01 C.pbe-n-rrkjus_psl.1.0.0.UPF
Ni 58.69 Ni.pbe-spn-rrkjus_psl.1.0.0.UPF
O 15.99 O.pbe-n-rrkjus_psl.1.0.0.UPF

CELL_PARAMETERS {angstrom}
5.23991000 0.00000000 0.00000000
0.00000000 7.41035000 0.00000000
0.00000000 0.00000000 25.55780000

ATOMIC_POSITIONS {angstrom}
Be 0.00000000 0.00000000 -2.7788995900000018 0 0 0
Be 0.00000000 1.85258750 -0.9262146700000002 0 0 0
Be 0.00005240 7.40820100 0.94896111
Be 0.00015720 1.85243929 2.84611661
Be 0.00000000 3.70517500 -2.7788995900000018 0 0 0
Be 0.00000000 5.55776250 -0.9262146700000002 0 0 0
Be 0.00005240 3.70673117 0.94819438
Be 0.00015720 5.55761429 2.75717546
Be 2.61995500 0.00000000 -2.7788995900000018 0 0 0
Be 2.61995500 1.85258750 -0.9262146700000002 0 0 0
Be 2.62000740 0.00918883 0.95253921
Be 2.62000740 1.85236519 2.70836007
Be 2.61995500 3.70517500 -2.7788995900000018 0 0 0
Be 2.61995500 5.55776250 -0.9262146700000002 0 0 0
Be 2.61995500 3.69539334 0.95177247
Be 2.62016460 5.55761429 2.78656693
Ni 1.30997750 1.85258750 -2.7788995900000018 0 0 0
Ni 1.30997750 0.00000000 -0.9262146700000002 0 0 0
Ni 1.29609174 1.85206878 0.93081508
Ni 1.31055389 3.72970326 2.75845335
Ni 1.30997750 5.55776250 -2.7788995900000018 0 0 0
Ni 1.30997750 3.70517500 -0.9262146700000002 0 0 0
Ni 1.31322624 5.55768840 0.91318019
Ni 1.31055389 7.38537712 2.75973124
Ni 3.92993250 1.85258750 -2.7788995900000018 0 0 0
Ni 3.92993250 0.00000000 -0.9262146700000002 0 0 0
Ni 3.94360867 1.85214288 0.93081508
Ni 3.92972290 3.72962916 2.75845335
Ni 3.92993250 5.55776250 -2.7788995900000018 0 0 0
Ni 3.92993250 3.70517500 -0.9262146700000002 0 0 0
Ni 3.92684095 5.55761429 0.91318019
Ni 3.92977530 7.38545122 2.75973124
C 0.00000000 1.85258750 4.52168598
O 5.23980520 1.85273571 5.67868758
