&CONTROL
calculation = 'relax'
prefix = 'scf'
pseudo_dir = '/vol0403/data/hp230205/u10028/POT_HYBRID_KKJUS_GBRV'
outdir = './data'
tprnfor = .true.
nstep = 50
disk_io = 'non'
/
&SYSTEM
ibrav = 0
ecutwfc = 50.0
ecutrho = 400
occupations = 'smearing'
smearing = 'mp'
degauss = 0.01
assume_isolated = 'esm'
esm_bc = 'bc1'
input_dft = 'BEEF-VDW'
nosym = .true.
nspin = 1
ntyp = 6
nat = 34
/
&ELECTRONS
electron_maxstep = 200
mixing_beta = 0.1
conv_thr = 1e-06
/
&IONS
ion_dynamics = 'bfgs'
upscale = 1.0
/
&CELL
/

K_POINTS {automatic}
6 7 2 0  0  0

ATOMIC_SPECIES
C 12.01 C.pbe-n-rrkjus_psl.1.0.0.UPF
Ge 72.64 Ge.pbe-dn-rrkjus_psl.1.0.0.UPF
Li 6.941 Li.pbe-sl-rrkjus_psl.1.0.0.UPF
O 15.99 O.pbe-n-rrkjus_psl.1.0.0.UPF
Sn 118.7 Sn.pbe-dn-rrkjus_psl.1.0.0.UPF
Y 88.90 Y.pbe-spn-rrkjus_psl.1.0.0.UPF


CELL_PARAMETERS {angstrom}
9.43388000 0.00000000 0.00000000
0.00000000 8.60818000 0.00000000
0.00000000 0.00000000 26.39560000

ATOMIC_POSITIONS {angstrom}
Li 2.35847000 8.50195506 1.20548705
Li 2.35847000 0.00000000 -3.1978269400000023 0 0 0
Li 2.35847000 4.41040102 1.20548705
Li 2.35847000 4.30409000 -3.1978269400000023 0 0 0
Li 7.07541000 0.00602573 1.29127275
Li 7.07541000 0.00000000 -3.1978269400000023 0 0 0
Li 7.07541000 4.29806427 1.29127275
Li 7.07541000 4.30409000 -3.1978269400000023 0 0 0
Y 9.41359716 2.15204500 1.02124576
Y 0.00000000 2.15204500 -3.1978269400000023 0 0 0
Y 9.40878588 6.45613500 1.00197698
Y 0.00000000 6.45613500 -3.1978269400000023 0 0 0
Y 4.73722284 2.15204500 1.02124576
Y 4.71694000 2.15204500 -3.1978269400000023 0 0 0
Y 4.74203412 6.45613500 1.00197698
Y 4.71694000 6.45613500 -3.1978269400000023 0 0 0
Sn 2.35837566 2.15213108 3.07455949
Sn 2.35847000 2.15204500 -1.0658543300000005 0 0 0
Sn 2.35818698 6.45604892 3.58267479
Sn 2.35847000 6.45613500 -1.0658543300000005 0 0 0
Sn 7.07512698 2.15195892 3.69775960
Sn 7.07541000 2.15204500 -1.0658543300000005 0 0 0
Sn 7.07512698 6.45622108 3.65631851
Sn 7.07541000 6.45613500 -1.0658543300000005 0 0 0
Ge 9.35227694 8.56565559 3.11732036
Ge 0.00000000 0.00000000 -1.0658543300000005 0 0 0
Ge 9.35246562 4.34661441 3.11732036
Ge 0.00000000 4.30409000 -1.0658543300000005 0 0 0
Ge 4.79910909 8.56574167 3.11705640
Ge 4.71694000 0.00000000 -1.0658543300000005 0 0 0
Ge 4.79892042 4.34652833 3.11705640
Ge 4.71694000 4.30409000 -1.0658543300000005 0 0 0
C 2.35847000 2.15195892 5.40053976
O 2.35847000 2.15204500 6.54162155
