&CONTROL
calculation = 'relax'
prefix = 'scf'
pseudo_dir = '/vol0004/mdt0/data/hp150275/u10028/POT_KKJUS'
outdir = './data'
tprnfor = .true.
nstep = 50
disk_io = 'non'
/
&SYSTEM
ibrav = 0
ecutwfc = 50.0
ecutrho = 400
occupations = 'smearing'
smearing = 'mp'
degauss = 0.01
assume_isolated = 'esm'
esm_bc = 'bc1'
input_dft = 'BEEF-VDW'
nosym = .true.
nspin = 1
ntyp = 2
nat = 16
/
&ELECTRONS
electron_maxstep = 200
mixing_beta = 0.1
conv_thr = 1e-06
/
&IONS
ion_dynamics = 'bfgs'
upscale = 1.0
/
&CELL
/

K_POINTS {automatic}
8 8 1 0 0 0

ATOMIC_SPECIES
Mg 24.30 Mg.pbe-spnl-rrkjus_psl.1.0.0.UPF
Rh 102.9 Rh.pbe-spn-rrkjus_psl.1.0.0.UPF

CELL_PARAMETERS {angstrom}
6.29180000 0.00000000 0.00000000
-0.00000000 6.29180000 0.00000000
0.00000000 0.00000000 24.71880000

ATOMIC_POSITIONS {angstrom}
Mg 1.57295000 1.57295000 -1.27252382 0 0 0
Mg 1.57295000 1.57295000 1.87343785
Mg 1.57295000 4.71885000 -1.27252382 0 0 0
Mg 1.57295000 4.71885000 1.87343785
Mg 4.71885000 1.57295000 -1.27252382 0 0 0
Mg 4.71885000 1.57295000 1.87343785
Mg 4.71885000 4.71885000 -1.27252382 0 0 0
Mg 4.71885000 4.71885000 1.87343785
Rh 0.00000000 0.00000000 -2.845381070000002 0 0 0
Rh 0.00000000 0.00000000 0.30058061
Rh 0.00000000 3.14590000 -2.845381070000002 0 0 0
Rh 0.00000000 3.14590000 0.30058061
Rh 3.14590000 0.00000000 -2.845381070000002 0 0 0
Rh 3.14590000 -0.00000000 0.30058061
Rh 3.14590000 3.14590000 -2.845381070000002 0 0 0
Rh 3.14590000 3.14590000 0.30058061
