&CONTROL
calculation = 'relax'
prefix = 'scf'
pseudo_dir = '/vol0403/data/hp230205/u10028/POT_HYBRID_KKJUS_GBRV'
outdir = './data'
tprnfor = .true.
nstep = 50
disk_io = 'non'
/
&SYSTEM
ibrav = 0
ecutwfc = 50.0
ecutrho = 400
occupations = 'smearing'
smearing = 'mp'
degauss = 0.01
assume_isolated = 'esm'
esm_bc = 'bc1'
input_dft = 'BEEF-VDW'
nosym = .true.
nspin = 2
ntyp = 6
nat = 34
starting_magnetization(1) = 0.0
starting_magnetization(2) = 0.0
starting_magnetization(3) = 0.1
starting_magnetization(4) = 0.0
starting_magnetization(5) = 0.0
starting_magnetization(6) = 0.0
/
&ELECTRONS
electron_maxstep = 200
mixing_beta = 0.1
conv_thr = 1e-06
/
&IONS
ion_dynamics = 'bfgs'
upscale = 1.0
/
&CELL
/

K_POINTS {automatic}
6 6 1 0 0 0

ATOMIC_SPECIES
Al 26.98 Al.pbe-nl-rrkjus_psl.1.0.0.UPF
C 12.01 C.pbe-n-rrkjus_psl.1.0.0.UPF
Co 58.93 co_pbe_v1.2.uspp.F.UPF
Li 6.941 Li.pbe-sl-rrkjus_psl.1.0.0.UPF
O 15.99 O.pbe-n-rrkjus_psl.1.0.0.UPF
Pd 106.4 Pd.pbe-n-rrkjus_psl.1.0.0.UPF


CELL_PARAMETERS {angstrom}
5.87254000 0.00000000 0.00000000
0.00000000 8.30502000 0.00000000
0.00000000 0.00000000 26.22880000

ATOMIC_POSITIONS {angstrom}
Li 0.00000000 2.07625500 -1.0381359000000003 0 0 0
Li 0.00000000 6.22876500 -1.0381359000000003 0 0 0
Li 2.93627000 4.15251000 -3.1144077099999983 0 0 0
Li 2.93627000 0.00000000 -3.1144077099999983 0 0 0
Li 5.82268214 6.22876500 3.57551002
Li 5.80506452 2.07625500 3.56816595
Li 2.90003643 0.00415251 0.99800584
Li 2.90009515 4.14835749 0.99826813
Al 0.00000000 0.00000000 -3.1144077099999983 0 0 0
Al 0.00000000 4.15251000 -3.1144077099999983 0 0 0
Al 2.93627000 6.22876500 -1.0381359000000003 0 0 0
Al 2.93627000 2.07625500 -1.0381359000000003 0 0 0
Al 0.00916116 4.15633031 1.02371006
Al 0.00916116 8.30119969 1.02371006
Al 2.92710884 2.07625500 3.07296621
Al 2.93697470 6.22884805 3.13880050
Co 4.40440500 0.00000000 -1.0381359000000003 0 0 0
Co 4.40440500 4.15251000 -1.0381359000000003 0 0 0
Co 1.46813500 2.07625500 -3.1144077099999983 0 0 0
Co 1.46813500 6.22876500 -3.1144077099999983 0 0 0
Co 4.32160219 4.17576406 2.98903405
Co 4.32148474 8.28176594 2.98903405
Co 1.43671691 6.22851585 1.09951130
Co 1.41815968 2.07650415 1.08062656
Pd 1.46813500 0.00000000 -1.0381359000000003 0 0 0
Pd 1.46813500 4.15251000 -1.0381359000000003 0 0 0
Pd 4.40440500 2.07625500 -3.1144077099999983 0 0 0
Pd 4.40440500 6.22876500 -3.1144077099999983 0 0 0
Pd 1.47529950 4.16463533 3.08319544
Pd 1.47524077 8.29297772 3.08293315
Pd 4.41497557 6.22859890 1.05544691
Pd 4.42983310 2.07633805 1.05282403
C 5.79378924 2.07642110 5.67801062
O 5.82925938 2.07642110 6.81686512
