&CONTROL
calculation = 'relax'
prefix = 'scf'
pseudo_dir = '/vol0004/mdt0/data/hp150275/u10028/POT_KKJUS'
outdir = './data'
tprnfor = .true.
nstep = 50
disk_io = 'non'
/
&SYSTEM
ibrav = 0
ecutwfc = 50.0
ecutrho = 400
occupations = 'smearing'
smearing = 'mp'
degauss = 0.01
assume_isolated = 'esm'
esm_bc = 'bc1'
input_dft = 'BEEF-VDW'
nosym = .true.
nspin = 1
ntyp = 4
nat = 33
/
&ELECTRONS
electron_maxstep = 200
mixing_beta = 0.1
conv_thr = 1e-06
/
&IONS
ion_dynamics = 'bfgs'
upscale = 1.0
/
&CELL
/

K_POINTS {automatic}
8 6 1 0 0 0

ATOMIC_SPECIES
C 12.01 C.pbe-n-rrkjus_psl.1.0.0.UPF
Ga 69.72 Ga.pbe-dnl-rrkjus_psl.1.0.0.UPF
Ni 58.69 Ni.pbe-spn-rrkjus_psl.1.0.0.UPF
V 50.94 V.pbe-spnl-rrkjus_psl.1.0.0.UPF

CELL_PARAMETERS {angstrom}
5.81624000 0.00000000 0.00000000
0.00000000 8.22541000 0.00000000
0.00000000 0.00000000 26.16910000

ATOMIC_POSITIONS {angstrom}
V 0.00000000 0.00000000 -3.0845518200000015 0 0 0
V 2.90812000 2.05635250 -1.0281839400000017 0 0 0
V 2.90812000 6.16905750 -1.0281839400000017 0 0 0
V 0.00000000 4.11270500 -3.0845518200000015 0 0 0
V 5.77494470 4.16263324 1.05461473
V 2.80639396 6.16905750 3.05681257
V 3.10930374 2.05627025 2.93643471
V 5.77494470 8.17531725 1.05487642
Ga 0.00000000 6.16905750 -1.0281839400000017 0 0 0
Ga 2.90812000 0.00000000 -3.0845518200000015 0 0 0
Ga 0.00000000 2.05635250 -1.0281839400000017 0 0 0
Ga 2.90812000 4.11270500 -3.0845518200000015 0 0 0
Ga 5.32598913 2.05643475 3.95127241
Ga 2.84943414 4.02568016 1.02766056
Ga 0.06810817 6.16897525 3.17640536
Ga 2.84943414 0.08694258 1.02766056
Ni 1.45406000 0.00000000 -1.0281839400000017 0 0 0
Ni 4.36218000 4.11270500 -1.0281839400000017 0 0 0
Ni 4.36218000 0.00000000 -1.0281839400000017 0 0 0
Ni 1.45406000 4.11270500 -1.0281839400000017 0 0 0
Ni 4.36218000 6.16905750 -3.0845518200000015 0 0 0
Ni 1.45406000 2.05635250 -3.0845518200000015 0 0 0
Ni 1.45406000 6.16905750 -3.0845518200000015 0 0 0
Ni 4.36218000 2.05635250 -3.0845518200000015 0 0 0
Ni 1.36158178 4.01210824 3.10391695
Ni 4.28819743 8.11247512 3.03352207
Ni 4.28813926 4.22563988 3.03326038
Ni 1.36152362 0.10051451 3.10391695
Ni 4.45902040 2.05627025 0.96249950
Ni 1.55421565 6.16897525 0.97663081
Ni 1.14736966 2.05627025 1.39978516
Ni 4.27860063 6.16897525 1.09360669
C 1.38868546 2.05627025 3.53675386
