&CONTROL
calculation = 'relax'
prefix = 'scf'
pseudo_dir = '/vol0004/mdt0/data/hp150275/u10028/POT_KKJUS'
outdir = './data'
tprnfor = .true.
nstep = 50
disk_io = 'non'
/
&SYSTEM
ibrav = 0
ecutwfc = 50.0
ecutrho = 400
occupations = 'smearing'
smearing = 'mp'
degauss = 0.01
assume_isolated = 'esm'
esm_bc = 'bc1'
input_dft = 'BEEF-VDW'
nosym = .true.
nspin = 1
ntyp = 5
nat = 34
/
&ELECTRONS
electron_maxstep = 200
mixing_beta = 0.1
conv_thr = 1e-06
/
&IONS
ion_dynamics = 'bfgs'
upscale = 1.0
/
&CELL
/

K_POINTS {automatic}
9 6 2 0  0  0

ATOMIC_SPECIES
C 12.01 C.pbe-n-rrkjus_psl.1.0.0.UPF
O 15.99 O.pbe-n-rrkjus_psl.1.0.0.UPF
Rh 102.9 Rh.pbe-spn-rrkjus_psl.1.0.0.UPF
Sn 118.7 Sn.pbe-dn-rrkjus_psl.1.0.0.UPF
V 50.94 V.pbe-spnl-rrkjus_psl.1.0.0.UPF

CELL_PARAMETERS {angstrom}
6.32488000 0.00000000 0.00000000
0.00000000 8.94473000 0.00000000
0.00000000 0.00000000 26.70850000

ATOMIC_POSITIONS {angstrom}
V 0.00000000 0.00000000 -3.3543205200000017 0 0 0
V 3.16244000 2.23618250 -1.1180178100000013 0 0 0
V 3.16244000 6.70854750 -1.1180178100000013 0 0 0
V 0.00000000 4.47236500 -3.3543205200000017 0 0 0
V 0.00000000 4.48891275 1.25903869
V 3.16244000 6.70881584 3.10139102
V 3.16244000 2.23609305 3.10299353
V 0.00000000 8.92862949 1.25850452
Sn 0.00000000 6.70854750 -1.1180178100000013 0 0 0
Sn 3.16244000 0.00000000 -3.3543205200000017 0 0 0
Sn 0.00000000 2.23618250 -1.1180178100000013 0 0 0
Sn 3.16244000 4.47236500 -3.3543205200000017 0 0 0
Sn 0.00000000 2.23627195 3.64357357
Sn 3.16244000 4.52585449 1.02614057
Sn 0.00000000 6.70854750 3.75067466
Sn 3.16244000 8.89106162 1.02587348
Rh 1.58122000 0.00000000 -1.1180178100000013 0 0 0
Rh 4.74366000 4.47236500 -1.1180178100000013 0 0 0
Rh 4.74366000 0.00000000 -1.1180178100000013 0 0 0
Rh 1.58122000 4.47236500 -1.1180178100000013 0 0 0
Rh 4.74366000 6.70854750 -3.3543205200000017 0 0 0
Rh 1.58122000 2.23618250 -3.3543205200000017 0 0 0
Rh 1.58122000 6.70854750 -3.3543205200000017 0 0 0
Rh 4.74366000 2.23618250 -3.3543205200000017 0 0 0
Rh 1.60569729 4.46011072 3.17884567
Rh 4.71930921 0.01234373 3.17857859
Rh 4.71911947 4.46011072 3.17884567
Rh 1.60557079 0.01234373 3.17857859
Rh 4.77598014 2.23591416 1.14766425
Rh 1.43960594 6.70872639 1.24648570
Rh 1.54883661 2.23582471 1.14766425
Rh 4.88533731 6.70872639 1.24648570
C 6.32469025 2.23206792 7.26764994
O 0.00006325 2.23671918 8.40249410
