&CONTROL
calculation = 'relax'
prefix = 'scf'
pseudo_dir = '/vol0403/data/hp230205/u10028/POT_HYBRID_KKJUS_GBRV'
outdir = './data'
tprnfor = .true.
nstep = 50
disk_io = 'non'
/
&SYSTEM
ibrav = 0
ecutwfc = 50.0
ecutrho = 400
occupations = 'smearing'
smearing = 'mp'
degauss = 0.01
assume_isolated = 'esm'
esm_bc = 'bc1'
input_dft = 'BEEF-VDW'
nosym = .true.
nspin = 1
ntyp = 6
nat = 34
/
&ELECTRONS
electron_maxstep = 200
mixing_beta = 0.1
conv_thr = 1e-06
/
&IONS
ion_dynamics = 'bfgs'
upscale = 1.0
/
&CELL
/

K_POINTS {automatic}
7 7 2 0  0  0

ATOMIC_SPECIES
C 12.01 C.pbe-n-rrkjus_psl.1.0.0.UPF
Ga 69.72 Ga.pbe-dnl-rrkjus_psl.1.0.0.UPF
In 114.8 In.pbe-dn-rrkjus_psl.1.0.0.UPF
Li 6.941 Li.pbe-sl-rrkjus_psl.1.0.0.UPF
O 15.99 O.pbe-n-rrkjus_psl.1.0.0.UPF
Sc 44.95 Sc.pbe-spn-rrkjus_psl.1.0.0.UPF


CELL_PARAMETERS {angstrom}
8.23116000 0.00000000 0.00000000
0.00000000 8.37318000 0.00000000
0.00000000 0.00000000 26.65040000

ATOMIC_POSITIONS {angstrom}
Li 0.00000000 2.09329500 -1.108390140000001 0 0 0
Li 8.22951377 2.10041220 3.87470166
Li 0.00000000 6.27988500 -1.108390140000001 0 0 0
Li 8.22943146 6.27268407 3.87496816
Li 4.11558000 2.09329500 -1.108390140000001 0 0 0
Li 4.11780241 2.10074713 3.87496816
Li 4.11558000 6.27988500 -1.108390140000001 0 0 0
Li 4.11788472 6.27234914 3.87523466
Sc 2.05779000 2.09329500 -3.325170410000002 0 0 0
Sc 2.05787231 2.09965862 1.22884994
Sc 2.05779000 6.27988500 -3.325170410000002 0 0 0
Sc 2.05803693 6.27335392 1.22884994
Sc 6.17337000 2.09329500 -3.325170410000002 0 0 0
Sc 6.17345231 2.08935961 1.21685726
Sc 6.17337000 6.27988500 -3.325170410000002 0 0 0
Sc 6.17345231 6.28390413 1.21685726
In 2.05779000 0.00000000 -1.108390140000001 0 0 0
In 2.05844849 8.37301254 3.48427330
In 2.05779000 4.18659000 -1.108390140000001 0 0 0
In 2.05795462 4.18650627 3.50772565
In 6.17337000 0.00000000 -1.108390140000001 0 0 0
In 6.17320538 8.37309627 3.50426110
In 6.17337000 4.18659000 -1.108390140000001 0 0 0
In 6.17320538 4.18675746 3.50772565
Ga 0.00000000 0.00000000 -3.325170410000002 0 0 0
Ga 8.22934914 0.00008373 1.18967386
Ga 0.00000000 4.18659000 -3.325170410000002 0 0 0
Ga 8.22473970 4.18659000 1.19180589
Ga 4.11558000 0.00000000 -3.325170410000002 0 0 0
Ga 4.11780241 8.37309627 1.18940735
Ga 4.11558000 4.18659000 -3.325170410000002 0 0 0
Ga 4.12241186 4.18650627 1.19180589
C 2.04939422 0.00276315 7.71262576
O 2.05918930 8.37259388 8.84846581
