&CONTROL
calculation = 'relax'
prefix = 'scf'
pseudo_dir = '/vol0403/data/hp230205/u10028/POT_HYBRID_KKJUS_GBRV'
outdir = './data'
tprnfor = .true.
nstep = 50
disk_io = 'non'
/
&SYSTEM
ibrav = 0
ecutwfc = 50.0
ecutrho = 400
occupations = 'smearing'
smearing = 'mp'
degauss = 0.01
assume_isolated = 'esm'
esm_bc = 'bc1'
input_dft = 'BEEF-VDW'
nosym = .true.
nspin = 1
ntyp = 6
nat = 34
/
&ELECTRONS
electron_maxstep = 200
mixing_beta = 0.1
conv_thr = 1e-06
/
&IONS
ion_dynamics = 'bfgs'
upscale = 1.0
/
&CELL
/

K_POINTS {automatic}
6 6 1 0 0 0

ATOMIC_SPECIES
Au 196.9 Au.pbe-n-rrkjus_psl.1.0.0.UPF
C 12.01 C.pbe-n-rrkjus_psl.1.0.0.UPF
Ge 72.64 Ge.pbe-dn-rrkjus_psl.1.0.0.UPF
Li 6.941 Li.pbe-sl-rrkjus_psl.1.0.0.UPF
O 15.99 O.pbe-n-rrkjus_psl.1.0.0.UPF
Pd 106.4 Pd.pbe-n-rrkjus_psl.1.0.0.UPF


CELL_PARAMETERS {angstrom}
6.30991000 0.00000000 0.00000000
0.00000000 8.92356000 0.00000000
0.00000000 0.00000000 26.69270000

ATOMIC_POSITIONS {angstrom}
Li 1.57747750 0.00000000 -1.115487929999997 0 0 0
Li 1.57747750 4.46178000 -1.115487929999997 0 0 0
Li 4.73243250 2.23089000 -3.3464637999999987 0 0 0
Li 4.73243250 6.69267000 -3.3464637999999987 0 0 0
Li 1.48169307 4.50497003 3.62433481
Li 1.48169307 8.88036997 3.62433481
Li 4.66725113 6.69267000 1.02606739
Li 4.65223354 2.23089000 1.08452440
Ge 4.73243250 0.00000000 -1.115487929999997 0 0 0
Ge 4.73243250 4.46178000 -1.115487929999997 0 0 0
Ge 1.57747750 2.23089000 -3.3464637999999987 0 0 0
Ge 1.57747750 6.69267000 -3.3464637999999987 0 0 0
Ge 4.87295420 4.48863992 3.46711480
Ge 4.87289110 8.89670008 3.46711480
Ge 1.63256301 6.69267000 1.12456345
Ge 1.61274990 2.23089000 1.14084600
Pd 0.00000000 2.23089000 -1.115487929999997 0 0 0
Pd 0.00000000 6.69267000 -1.115487929999997 0 0 0
Pd 3.15495500 4.46178000 -3.3464637999999987 0 0 0
Pd 3.15495500 0.00000000 -3.3464637999999987 0 0 0
Pd 6.23589476 6.69267000 3.09261622
Pd 6.18333321 2.23089000 3.10302637
Pd 3.07910988 0.07299472 1.46409459
Pd 3.07917298 4.38878528 1.46409459
Au 0.00000000 0.00000000 -3.3464637999999987 0 0 0
Au 0.00000000 4.46178000 -3.3464637999999987 0 0 0
Au 3.15495500 6.69267000 -1.115487929999997 0 0 0
Au 3.15495500 2.23089000 -1.115487929999997 0 0 0
Au 6.29634369 4.46178000 1.12803350
Au 6.29634369 0.00000000 1.12803350
Au 3.23382887 2.23089000 3.52316947
Au 3.29478261 6.69267000 3.32697813
C 2.81705932 2.23080076 5.58918445
O 3.17565150 2.23080076 6.68225052
