&CONTROL
calculation = 'relax'
prefix = 'scf'
pseudo_dir = '/vol0403/data/hp230205/u10028/POT_HYBRID_KKJUS_GBRV'
outdir = './data'
tprnfor = .true.
nstep = 50
disk_io = 'non'
/
&SYSTEM
ibrav = 0
ecutwfc = 50.0
ecutrho = 400
occupations = 'smearing'
smearing = 'mp'
degauss = 0.01
assume_isolated = 'esm'
esm_bc = 'bc1'
input_dft = 'BEEF-VDW'
nosym = .true.
nspin = 1
ntyp = 6
nat = 18
/
&ELECTRONS
electron_maxstep = 200
mixing_beta = 0.1
conv_thr = 1e-06
/
&IONS
ion_dynamics = 'bfgs'
upscale = 1.0
/
&CELL
/

K_POINTS {automatic}
11 7 2 0  0  0

ATOMIC_SPECIES
C 12.01 C.pbe-n-rrkjus_psl.1.0.0.UPF
Li 6.941 Li.pbe-sl-rrkjus_psl.1.0.0.UPF
O 15.99 O.pbe-n-rrkjus_psl.1.0.0.UPF
Pb 207.2 Pb.pbe-dn-rrkjus_psl.1.0.0.UPF
Sn 118.7 Sn.pbe-dn-rrkjus_psl.1.0.0.UPF
Y 88.90 Y.pbe-spn-rrkjus_psl.1.0.0.UPF


CELL_PARAMETERS {angstrom}
6.45119000 0.00000000 0.00000000
0.00000000 9.64462000 0.00000000
0.00000000 0.00000000 24.83120000

ATOMIC_POSITIONS {angstrom}
Li 0.00000000 0.00000000 -2.4155791399999984 0 0 0
Li 2.86245751 9.62484853 0.72308454
Li 0.00000000 4.82231000 -2.4155791399999984 0 0 0
Li 2.85613535 4.84198502 0.71960818
Y 4.75065632 2.41115500 -0.8052758199999985 0 0 0
Y 1.22321014 2.42600771 2.64750254
Y 4.75065632 7.23346500 -0.8052758199999985 0 0 0
Y 1.01838485 7.22854624 2.42799474
Sn 1.52506132 2.41115500 -0.8052758199999985 0 0 0
Sn 4.42712914 2.41607376 2.75452502
Sn 1.52506132 7.23346500 -0.8052758199999985 0 0 0
Sn 4.31313661 7.23086095 2.71305691
Pb 3.22559500 0.00000000 -2.4155791399999984 0 0 0
Pb 5.97560827 0.02266486 1.26241821
Pb 3.22559500 4.82231000 -2.4155791399999984 0 0 0
Pb 5.95580312 4.80678216 1.25372729
C 1.99612721 2.41115500 5.07375910
O 2.48706277 2.40912963 6.10648870
