&CONTROL
calculation = 'relax'
prefix = 'scf'
pseudo_dir = '/vol0403/data/hp230205/u10028/POT_HYBRID_KKJUS_GBRV'
outdir = './data'
tprnfor = .true.
nstep = 70
disk_io = 'non'
/
&SYSTEM
ibrav = 0
ecutwfc = 50.0
ecutrho = 400
occupations = 'smearing'
smearing = 'mp'
degauss = 0.01
assume_isolated = 'esm'
esm_bc = 'bc1'
input_dft = 'BEEF-VDW'
nosym = .true.
nspin = 1
ntyp = 6
nat = 34
/
&ELECTRONS
electron_maxstep = 200
mixing_beta = 0.1
conv_thr = 1e-06
/
&IONS
ion_dynamics = 'bfgs'
upscale = 1.0
/
&CELL
/

K_POINTS {automatic}
9 6 2 0  0  0

ATOMIC_SPECIES
Ag 107.8 Ag.pbe-n-rrkjus_psl.1.0.0.UPF
C 12.01 C.pbe-n-rrkjus_psl.1.0.0.UPF
Li 6.941 Li.pbe-sl-rrkjus_psl.1.0.0.UPF
Mg 24.30 Mg.pbe-spnl-rrkjus_psl.1.0.0.UPF
O 15.99 O.pbe-n-rrkjus_psl.1.0.0.UPF
Pd 106.4 Pd.pbe-n-rrkjus_psl.1.0.0.UPF


CELL_PARAMETERS {angstrom}
6.38329000 0.00000000 0.00000000
-0.00000000 9.02734000 0.00000000
0.00000000 0.00000000 26.77050000

ATOMIC_POSITIONS {angstrom}
Li 4.78746750 0.00000000 -1.1283765799999976 0 0 0
Li 4.78746750 4.51367000 -1.1283765799999976 0 0 0
Li 1.59582250 2.25683500 -3.385129729999999 0 0 0
Li 1.59582250 6.77050500 -3.385129729999999 0 0 0
Li 4.86247116 4.51367000 3.59099487
Li 4.85430055 -0.00000000 3.52139157
Li 1.60916358 6.76797734 1.14818674
Li 1.60916358 2.25936266 1.14818674
Mg 1.59582250 0.00000000 -1.1283765799999976 0 0 0
Mg 1.59582250 4.51367000 -1.1283765799999976 0 0 0
Mg 4.78746750 2.25683500 -3.385129729999999 0 0 0
Mg 4.78746750 6.77050500 -3.385129729999999 0 0 0
Mg 1.54833082 4.51367000 3.52246239
Mg 1.54482001 -0.00000000 3.59286880
Mg 4.78229704 6.78828886 1.10990493
Mg 4.78236087 2.23905114 1.10990493
Ag 0.00000000 0.00000000 -3.385129729999999 0 0 0
Ag 0.00000000 4.51367000 -3.385129729999999 0 0 0
Ag 3.19164500 6.77050500 -1.1283765799999976 0 0 0
Ag 3.19164500 2.25683500 -1.1283765799999976 0 0 0
Ag 6.38048135 4.51367000 1.15702101
Ag 0.03932107 0.00000000 1.19262577
Ag 3.22458278 2.26595261 3.37816939
Ag 3.22458278 6.76138739 3.37816939
Pd 0.00000000 2.25683500 -1.1283765799999976 0 0 0
Pd 0.00000000 6.77050500 -1.1283765799999976 0 0 0
Pd 3.19164500 4.51367000 -3.385129729999999 0 0 0
Pd 3.19164500 0.00000000 -3.385129729999999 0 0 0
Pd 0.01659655 6.75199895 3.23628574
Pd 0.01659655 2.27534105 3.23628574
Pd 3.16362236 -0.00000000 1.24108038
Pd 3.20268809 4.51367000 1.19851528
C 1.59499267 -0.00000000 5.86916442
O 1.57628963 0.00000000 7.01306788
