&CONTROL
calculation = 'relax'
prefix = 'scf'
pseudo_dir = '/vol0004/mdt0/data/hp150275/u10028/POT_KKJUS'
outdir = './data'
tprnfor = .true.
nstep = 50
disk_io = 'non'
/
&SYSTEM
ibrav = 0
ecutwfc = 50.0
ecutrho = 400
occupations = 'smearing'
smearing = 'mp'
degauss = 0.01
assume_isolated = 'esm'
esm_bc = 'bc1'
input_dft = 'BEEF-VDW'
nosym = .true.
nspin = 1
ntyp = 4
nat = 34
/
&ELECTRONS
electron_maxstep = 200
mixing_beta = 0.1
conv_thr = 1e-06
/
&IONS
ion_dynamics = 'bfgs'
upscale = 1.0
/
&CELL
/

K_POINTS {automatic}
8 6 1 0 0 0

ATOMIC_SPECIES
C 12.01 C.pbe-n-rrkjus_psl.1.0.0.UPF
Li 6.941 Li.pbe-sl-rrkjus_psl.1.0.0.UPF
O 15.99 O.pbe-n-rrkjus_psl.1.0.0.UPF
Pb 207.2 Pb.pbe-dn-rrkjus_psl.1.0.0.UPF

CELL_PARAMETERS {angstrom}
6.73051000 0.00000000 0.00000000
0.00000000 9.51837000 0.00000000
0.00000000 0.00000000 27.13880000

ATOMIC_POSITIONS {angstrom}
Li 1.68262750 0.00000000 -1.1897649900000005 0 0 0
Li 5.04788250 4.75918500 -1.1897649900000005 0 0 0
Li 5.04788250 0.00000000 -1.1897649900000005 0 0 0
Li 1.68262750 4.75918500 -1.1897649900000005 0 0 0
Li 5.04788250 7.13877750 -3.5692949799999987 0 0 0
Li 1.68262750 2.37959250 -3.5692949799999987 0 0 0
Li 1.68262750 7.13877750 -3.5692949799999987 0 0 0
Li 5.04788250 2.37959250 -3.5692949799999987 0 0 0
Li 0.00000000 7.13877750 -1.1897649900000005 0 0 0
Li 3.36525500 0.00000000 -3.5692949799999987 0 0 0
Li 0.00000000 2.37959250 -1.1897649900000005 0 0 0
Li 3.36525500 4.75918500 -3.5692949799999987 0 0 0
Li 1.86064949 4.75918500 3.66482355
Li 4.93777136 0.00000000 3.69521901
Li 4.94315576 4.75918500 3.75953796
Li 1.80572853 0.00000000 3.64826888
Li 5.03758482 2.37864066 1.12490326
Li 1.71789537 7.14353668 1.17076783
Li 1.71789537 2.37483332 1.17076783
Li 5.03758482 7.13972934 1.12490326
Li 0.00282681 2.37607070 3.34865653
Li 3.38228319 4.75918500 1.21880351
Li 0.00269220 7.14210893 3.34865653
Li 3.37528346 0.00000000 1.23481540
Pb 0.00000000 0.00000000 -3.5692949799999987 0 0 0
Pb 3.36525500 2.37959250 -1.1897649900000005 0 0 0
Pb 3.36525500 7.13877750 -1.1897649900000005 0 0 0
Pb 0.00000000 4.75918500 -3.5692949799999987 0 0 0
Pb 6.72297183 4.75918500 1.36426748
Pb 3.43316585 7.13906305 3.52668706
Pb 3.43323315 2.37921177 3.52668706
Pb 6.71132805 0.00000000 1.32111678
C 1.52533548 0.00000000 5.67472308
O 1.50898034 0.00009518 6.82106599
