&CONTROL
calculation = 'relax'
prefix = 'scf'
pseudo_dir = '/vol0004/mdt0/data/hp150275/u10028/POT_HYBRID_KKJUS_GBRV'
outdir = './data'
tprnfor = .true.
nstep = 50
disk_io = 'non'
/
&SYSTEM
ibrav = 0
ecutwfc = 50.0
ecutrho = 400
occupations = 'smearing'
smearing = 'mp'
degauss = 0.01
assume_isolated = 'esm'
esm_bc = 'bc1'
input_dft = 'BEEF-VDW'
nosym = .true.
nspin = 2
ntyp = 4
nat = 18
starting_magnetization(1) = 0.0
starting_magnetization(2) = 0.01
starting_magnetization(3) = 0.0
starting_magnetization(4) = 0.0
/
&ELECTRONS
electron_maxstep = 200
mixing_beta = 0.1
conv_thr = 1e-06
/
&IONS
ion_dynamics = 'bfgs'
upscale = 1.0
/
&CELL
/

K_POINTS {automatic}
8 11 2 0  0  0

ATOMIC_SPECIES
C 12.01 C.pbe-n-rrkjus_psl.1.0.0.UPF
Cr 51.99 cr_pbe_v1.5.uspp.F.UPF
Ir 192.2 Ir.pbe-n-rrkjus_psl.0.2.3.UPF
O 15.99 O.pbe-n-rrkjus_psl.1.0.0.UPF

CELL_PARAMETERS {angstrom}
7.64708000 0.00000000 0.00000000
-0.00000000 5.40730000 0.00000000
0.00000000 0.00000000 24.05550000

ATOMIC_POSITIONS {angstrom}
Cr 0.00000000 0.00000000 2.02763809
Cr 0.00000000 2.70365000 23.37954045
Cr 3.82354000 -0.00000000 2.02763809
Cr 3.82354000 2.70365000 23.37954045
Ir 0.00000000 2.70365000 2.02763809
Ir 1.91177000 4.05547500 0.67595955
Ir 1.91177000 1.35182500 0.67595955
Ir 0.00000000 0.00000000 23.37954045
Ir 1.91177000 1.35182500 22.02786190
Ir 1.91177000 4.05547500 22.02786190
Ir 3.82354000 2.70365000 2.02763809
Ir 5.73531000 4.05547500 0.67595955
Ir 5.73531000 1.35182500 0.67595955
Ir 3.82354000 0.00000000 23.37954045
Ir 5.73531000 1.35182500 22.02786190
Ir 5.73531000 4.05547500 22.02786190
C 0.00000000 2.70365000 3.92778204
O 0.00000000 2.70365000 5.07763494
