&CONTROL
calculation = 'relax'
prefix = 'scf'
pseudo_dir = '/vol0403/data/hp230205/u10028/POT_HYBRID_KKJUS_GBRV'
outdir = './data'
tprnfor = .true.
nstep = 50
disk_io = 'non'
/
&SYSTEM
ibrav = 0
ecutwfc = 50.0
ecutrho = 400
occupations = 'smearing'
smearing = 'mp'
degauss = 0.01
assume_isolated = 'esm'
esm_bc = 'bc1'
input_dft = 'BEEF-VDW'
nosym = .true.
nspin = 2
ntyp = 5
nat = 33
starting_magnetization(1) = 0.0
starting_magnetization(2) = 0.0
starting_magnetization(3) = 0.0
starting_magnetization(4) = 0.001
starting_magnetization(5) = 0.0
/
&ELECTRONS
electron_maxstep = 200
mixing_beta = 0.1
conv_thr = 1e-06
/
&IONS
ion_dynamics = 'bfgs'
upscale = 1.0
/
&CELL
/

K_POINTS {automatic}
9 6 2 0  0  0

ATOMIC_SPECIES
Al 26.98 Al.pbe-nl-rrkjus_psl.1.0.0.UPF
C 12.01 C.pbe-n-rrkjus_psl.1.0.0.UPF
Li 6.941 Li.pbe-sl-rrkjus_psl.1.0.0.UPF
Ni 58.69 ni_pbe_v1.4.uspp.F.UPF
Pd 106.4 Pd.pbe-n-rrkjus_psl.1.0.0.UPF


CELL_PARAMETERS {angstrom}
5.91240000 0.00000000 0.00000000
0.00000000 8.36140000 0.00000000
0.00000000 0.00000000 26.27110000

ATOMIC_POSITIONS {angstrom}
Li 0.00000000 2.09035000 25.22603564
Li 0.00000000 6.27105000 25.22603564
Li 2.95620000 4.18070000 23.13564422
Li 2.95620000 0.00000000 23.13564422
Li 0.11162611 6.27088277 3.51796300
Li 0.35320678 2.09026639 4.51284956
Li 2.96359050 0.01137150 1.02457290
Li 2.96341313 4.16891043 1.02457290
Al 0.00000000 0.00000000 23.13564422
Al 0.00000000 4.18070000 23.13564422
Al 2.95620000 6.27105000 25.22603564
Al 2.95620000 2.09035000 25.22603564
Al 0.02731529 4.20511529 1.00723397
Al 0.02749266 8.33681748 1.00723397
Al 2.71373248 2.09051723 3.24027747
Al 2.93775331 6.27130084 3.09631185
Ni 1.47810000 0.00000000 25.22603564
Ni 1.47810000 4.18070000 25.22603564
Ni 4.43430000 2.09035000 23.13564422
Ni 4.43430000 6.27105000 23.13564422
Ni 1.51842257 4.20787455 2.96022755
Ni 1.51830432 8.33430906 2.96049026
Ni 4.44819414 6.27121723 1.11047940
Ni 4.54356115 2.08984832 1.25470774
Pd 4.43430000 0.00000000 25.22603564
Pd 4.43430000 4.18070000 25.22603564
Pd 1.47810000 2.09035000 23.13564422
Pd 1.47810000 6.27105000 23.13564422
Pd 4.49620283 4.16230492 3.06268484
Pd 4.49620283 0.01797701 3.06294755
Pd 1.46030368 6.27096639 1.08578456
Pd 1.47679927 2.09018277 0.96257310
C 4.71555287 2.09001554 3.22924361
