&CONTROL
calculation = 'relax'
prefix = 'scf'
pseudo_dir = '/vol0004/mdt0/data/hp150275/u10028/POT_KKJUS'
outdir = './data'
tprnfor = .true.
nstep = 50
disk_io = 'non'
/
&SYSTEM
ibrav = 0
ecutwfc = 50.0
ecutrho = 400
occupations = 'smearing'
smearing = 'mp'
degauss = 0.01
assume_isolated = 'esm'
esm_bc = 'bc1'
input_dft = 'BEEF-VDW'
nosym = .true.
nspin = 1
ntyp = 5
nat = 34
/
&ELECTRONS
electron_maxstep = 200
mixing_beta = 0.1
conv_thr = 1e-06
/
&IONS
ion_dynamics = 'bfgs'
upscale = 1.0
/
&CELL
/

K_POINTS {automatic}
8 6 1 0 0 0

ATOMIC_SPECIES
C 12.01 C.pbe-n-rrkjus_psl.1.0.0.UPF
Ge 72.64 Ge.pbe-dn-rrkjus_psl.1.0.0.UPF
Li 6.941 Li.pbe-sl-rrkjus_psl.1.0.0.UPF
Ni 58.69 Ni.pbe-spn-rrkjus_psl.1.0.0.UPF
O 15.99 O.pbe-n-rrkjus_psl.1.0.0.UPF

CELL_PARAMETERS {angstrom}
5.73354000 0.00000000 0.00000000
0.00000000 8.10846000 0.00000000
0.00000000 0.00000000 26.08130000

ATOMIC_POSITIONS {angstrom}
Li 0.00000000 0.00000000 -3.04055795 0 0 0
Li 2.86677000 2.02711500 -1.0135193200000003 0 0 0
Li 2.86677000 6.08134500 -1.0135193200000003 0 0 0
Li 0.00000000 4.05423000 -3.04055795 0 0 0
Li 5.73032922 4.05252722 0.85703152
Li 2.84458120 5.91244578 3.50689160
Li 2.84503988 2.19698724 3.50923892
Li 5.72327696 0.00162169 1.01925720
Ni 1.43338500 0.00000000 -1.0135193200000003 0 0 0
Ni 4.30015500 4.05423000 -1.0135193200000003 0 0 0
Ni 4.30015500 0.00000000 -1.0135193200000003 0 0 0
Ni 1.43338500 4.05423000 -1.0135193200000003 0 0 0
Ni 4.30015500 6.08134500 -3.04055795 0 0 0
Ni 1.43338500 2.02711500 -3.04055795 0 0 0
Ni 1.43338500 6.08134500 -3.04055795 0 0 0
Ni 4.30015500 2.02711500 -3.04055795 0 0 0
Ni 1.25163178 4.05414892 2.80504381
Ni 4.17757191 8.10821675 3.01551991
Ni 4.46367556 4.05447325 2.80243568
Ni 1.50178613 0.00056759 3.00665226
Ni 4.27183131 2.01106025 1.03412354
Ni 1.44324669 6.09894036 1.04090468
Ni 1.44680148 2.00797903 1.04142631
Ni 4.27687683 6.09642674 1.03412354
Ge 0.00000000 6.08134500 -1.0135193200000003 0 0 0
Ge 2.86677000 0.00000000 -3.04055795 0 0 0
Ge 0.00000000 2.02711500 -1.0135193200000003 0 0 0
Ge 2.86677000 4.05423000 -3.04055795 0 0 0
Ge 5.71582336 1.99119452 3.05203373
Ge 2.86097912 4.05617603 1.02760322
Ge 5.71662606 6.11726548 3.05385942
Ge 2.85891505 8.10700048 0.95170664
C 2.83517819 0.00016217 4.38113677
O 2.81923895 0.00081085 5.56940080
