&CONTROL
calculation = 'relax'
prefix = 'scf'
pseudo_dir = '/vol0403/data/hp230205/u10028/POT_HYBRID_KKJUS_GBRV'
outdir = './data'
tprnfor = .true.
nstep = 50
disk_io = 'non'
/
&SYSTEM
ibrav = 0
ecutwfc = 50.0
ecutrho = 400
occupations = 'smearing'
smearing = 'mp'
degauss = 0.01
assume_isolated = 'esm'
esm_bc = 'bc1'
input_dft = 'BEEF-VDW'
nosym = .true.
nspin = 1
ntyp = 6
nat = 18
/
&ELECTRONS
electron_maxstep = 200
mixing_beta = 0.1
conv_thr = 1e-06
/
&IONS
ion_dynamics = 'bfgs'
upscale = 1.0
/
&CELL
/

K_POINTS {automatic}
11 7 2 0  0  0

ATOMIC_SPECIES
C 12.01 C.pbe-n-rrkjus_psl.1.0.0.UPF
Ge 72.64 Ge.pbe-dn-rrkjus_psl.1.0.0.UPF
In 114.8 In.pbe-dn-rrkjus_psl.1.0.0.UPF
Li 6.941 Li.pbe-sl-rrkjus_psl.1.0.0.UPF
O 15.99 O.pbe-n-rrkjus_psl.1.0.0.UPF
Y 88.90 Y.pbe-spn-rrkjus_psl.1.0.0.UPF


CELL_PARAMETERS {angstrom}
6.03525000 0.00000000 0.00000000
0.00000000 9.31878000 0.00000000
0.00000000 0.00000000 24.52620000

ATOMIC_POSITIONS {angstrom}
Li 4.51183220 2.32969500 -0.7544259099999984 0 0 0
Li 1.78154545 2.33062688 2.49259771
Li 4.51183220 6.98908500 -0.7544259099999984 0 0 0
Li 1.80888513 6.98750081 2.23997785
Y 3.01762500 0.00000000 -2.263032469999999 0 0 0
Y 0.06023180 0.01230079 0.74804910
Y 3.01762500 4.65939000 -2.263032469999999 0 0 0
Y 0.07218159 4.64736877 0.74289860
In 1.49420720 2.32969500 -0.7544259099999984 0 0 0
In 4.69524344 2.32876312 2.30791542
In 1.49420720 6.98908500 -0.7544259099999984 0 0 0
In 4.72885979 6.99104194 2.33317741
Ge 0.00000000 0.00000000 -2.263032469999999 0 0 0
Ge 3.12469033 9.29576261 1.04775926
Ge 0.00000000 4.65939000 -2.263032469999999 0 0 0
Ge 3.12595774 4.68259376 1.04800453
C 2.52297591 2.33053369 4.46940943
O 2.89583366 2.32950862 5.55150537
