&CONTROL
calculation = 'relax'
prefix = 'scf'
pseudo_dir = '/vol0004/mdt0/data/hp150275/u10028/POT_KKJUS'
outdir = './data'
tprnfor = .true.
nstep = 50
disk_io = 'non'
/
&SYSTEM
ibrav = 0
ecutwfc = 50.0
ecutrho = 400
occupations = 'smearing'
smearing = 'mp'
degauss = 0.01
assume_isolated = 'esm'
esm_bc = 'bc1'
input_dft = 'BEEF-VDW'
nosym = .true.
nspin = 1
ntyp = 5
nat = 18
/
&ELECTRONS
electron_maxstep = 200
mixing_beta = 0.1
conv_thr = 1e-06
/
&IONS
ion_dynamics = 'bfgs'
upscale = 1.0
/
&CELL
/

K_POINTS {automatic}
10 10 2 0  0  0

ATOMIC_SPECIES
C 12.01 C.pbe-n-rrkjus_psl.1.0.0.UPF
Ga 69.72 Ga.pbe-dnl-rrkjus_psl.1.0.0.UPF
Li 6.941 Li.pbe-sl-rrkjus_psl.1.0.0.UPF
O 15.99 O.pbe-n-rrkjus_psl.1.0.0.UPF
Pd 106.4 Pd.pbe-n-rrkjus_psl.1.0.0.UPF

CELL_PARAMETERS {angstrom}
6.14873000 0.00000000 0.00000000
0.00000000 6.14873000 0.00000000
0.00000000 0.00000000 24.61150000

ATOMIC_POSITIONS {angstrom}
Li 0.00000000 0.00000000 -0.7686171500000007 0 0 0
Li 3.07436500 0.00000000 2.64598236
Li 0.00000000 3.07436500 2.64598236
Li 3.07436500 3.07436500 -0.7686171500000007 0 0 0
Li 1.53718250 1.53718250 -2.305851439999998 0 0 0
Li 1.53103377 4.61763474 0.80233490
Li 4.61154750 4.61154750 -2.305851439999998 0 0 0
Li 4.61769623 1.53109526 0.80233490
Ga 1.52082688 1.52088837 0.78116901
Ga 1.53718250 4.61154750 -2.305851439999998 0 0 0
Ga 4.62790312 4.62784163 0.78116901
Ga 4.61154750 1.53718250 -2.305851439999998 0 0 0
Pd 0.00000000 0.00000000 2.31766496
Pd 3.07436500 3.07436500 2.10231433
Pd 3.07436500 0.00000000 -0.7686171500000007 0 0 0
Pd 0.00000000 3.07436500 -0.7686171500000007 0 0 0
C 0.00006149 0.00000000 4.27157194
O 0.00000000 0.00000000 5.42954302
