&CONTROL
calculation = 'relax'
prefix = 'scf'
pseudo_dir = '/vol0004/mdt0/data/hp150275/u10028/POT_HYBRID_KKJUS_GBRV'
outdir = './data'
tprnfor = .true.
nstep = 50
disk_io = 'non'
/
&SYSTEM
ibrav = 0
ecutwfc = 50.0
ecutrho = 400
occupations = 'smearing'
smearing = 'mp'
degauss = 0.01
assume_isolated = 'esm'
esm_bc = 'bc1'
input_dft = 'BEEF-VDW'
nosym = .true.
nspin = 2
ntyp = 4
nat = 34
starting_magnetization(1) = 0.1
starting_magnetization(2) = 0.1
starting_magnetization(3) = 0.1
starting_magnetization(4) = 0.1
/
&ELECTRONS
electron_maxstep = 200
mixing_beta = 0.1
conv_thr = 1e-06
/
&IONS
ion_dynamics = 'bfgs'
upscale = 1.0
/
&CELL
/

K_POINTS {automatic}
8 6 1 0 0 0

ATOMIC_SPECIES
C 12.01 C.pbe-n-rrkjus_psl.1.0.0.UPF
Co 58.93 co_pbe_v1.2.uspp.F.UPF
Hf 178.4 Hf.pbe-spn-rrkjus_psl.1.0.0.UPF
O 15.99 O.pbe-n-rrkjus_psl.1.0.0.UPF

CELL_PARAMETERS {angstrom}
6.31043000 0.00000000 0.00000000
0.00000000 8.92430000 0.00000000
0.00000000 0.00000000 26.69320000

ATOMIC_POSITIONS {angstrom}
Hf 0.00000000 0.00000000 -3.3465264800000014 0 0 0
Hf 0.00000000 2.23107500 -1.1155088299999996 0 0 0
Hf 0.00000000 8.91849920 1.16782750
Hf 0.00000000 2.23107500 3.03234752
Hf 0.00000000 4.46215000 -3.3465264800000014 0 0 0
Hf 0.00000000 6.69322500 -1.1155088299999996 0 0 0
Hf 0.00000000 4.46795080 1.16782750
Hf 0.00000000 6.69322500 3.38096071
Hf 3.15521500 0.00000000 -3.3465264800000014 0 0 0
Hf 3.15521500 2.23107500 -1.1155088299999996 0 0 0
Hf 3.15521500 0.00508685 1.17610239
Hf 3.15521500 2.23107500 3.38176151
Hf 3.15521500 4.46215000 -3.3465264800000014 0 0 0
Hf 3.15521500 6.69322500 -1.1155088299999996 0 0 0
Hf 3.15521500 4.45706315 1.17610239
Hf 3.15521500 6.69322500 3.38282924
Co 1.57760750 2.23107500 -3.3465264800000014 0 0 0
Co 1.57760750 0.00000000 -1.1155088299999996 0 0 0
Co 1.60057747 2.23107500 1.10616621
Co 1.57874338 8.91091355 3.24535926
Co 1.57760750 6.69322500 -3.3465264800000014 0 0 0
Co 1.57760750 4.46215000 -1.1155088299999996 0 0 0
Co 1.57760750 6.69322500 1.13366020
Co 1.57874338 4.47553645 3.24535926
Co 4.73282250 2.23107500 -3.3465264800000014 0 0 0
Co 4.73282250 0.00000000 -1.1155088299999996 0 0 0
Co 4.70985253 2.23107500 1.10616621
Co 4.73168662 8.91091355 3.24535926
Co 4.73282250 6.69322500 -3.3465264800000014 0 0 0
Co 4.73282250 4.46215000 -1.1155088299999996 0 0 0
Co 4.73282250 6.69322500 1.13366020
Co 4.73168662 4.47553645 3.24535926
C 0.00000000 2.23107500 5.37601048
O 0.00000000 2.23107500 6.66876216
