&CONTROL
calculation = 'relax'
prefix = 'scf'
pseudo_dir = '/vol0004/mdt0/data/hp150275/u10028/POT_KKJUS'
outdir = './data'
tprnfor = .true.
nstep = 50
disk_io = 'non'
/
&SYSTEM
ibrav = 0
ecutwfc = 50.0
ecutrho = 400
occupations = 'smearing'
smearing = 'mp'
degauss = 0.01
assume_isolated = 'esm'
esm_bc = 'bc1'
input_dft = 'BEEF-VDW'
nosym = .true.
nspin = 1
ntyp = 4
nat = 33
/
&ELECTRONS
electron_maxstep = 200
mixing_beta = 0.1
conv_thr = 1e-06
/
&IONS
ion_dynamics = 'bfgs'
upscale = 1.0
/
&CELL
/

K_POINTS {automatic}
9 6 2 0  0  0

ATOMIC_SPECIES
C 12.01 C.pbe-n-rrkjus_psl.1.0.0.UPF
Ge 72.64 Ge.pbe-dn-rrkjus_psl.1.0.0.UPF
Li 6.941 Li.pbe-sl-rrkjus_psl.1.0.0.UPF
Rh 102.9 Rh.pbe-spn-rrkjus_psl.1.0.0.UPF

CELL_PARAMETERS {angstrom}
5.94410000 0.00000000 0.00000000
0.00000000 8.40623000 0.00000000
0.00000000 0.00000000 26.30470000

ATOMIC_POSITIONS {angstrom}
Li 0.00000000 0.00000000 -3.1523552499999994 0 0 0
Li 2.97205000 2.10155750 -1.0508727700000016 0 0 0
Li 2.97205000 6.30467250 -1.0508727700000016 0 0 0
Li 0.00000000 4.20311500 -3.1523552499999994 0 0 0
Li 0.00000000 4.20311500 1.01325704
Li 2.97205000 6.29181097 3.83785573
Li 2.97205000 2.11441903 3.83785573
Li 0.00000000 0.00000000 1.08086012
Ge 0.00000000 6.30467250 -1.0508727700000016 0 0 0
Ge 2.97205000 0.00000000 -3.1523552499999994 0 0 0
Ge 0.00000000 2.10155750 -1.0508727700000016 0 0 0
Ge 2.97205000 4.20311500 -3.1523552499999994 0 0 0
Ge 0.00000000 2.25883806 3.08764569
Ge 2.97205000 4.20311500 0.99905251
Ge 0.00000000 6.14730787 3.08764569
Ge 2.97205000 0.00000000 0.97116952
Rh 1.48602500 0.00000000 -1.0508727700000016 0 0 0
Rh 4.45807500 4.20311500 -1.0508727700000016 0 0 0
Rh 4.45807500 0.00000000 -1.0508727700000016 0 0 0
Rh 1.48602500 4.20311500 -1.0508727700000016 0 0 0
Rh 4.45807500 6.30467250 -3.1523552499999994 0 0 0
Rh 1.48602500 2.10155750 -3.1523552499999994 0 0 0
Rh 1.48602500 6.30467250 -3.1523552499999994 0 0 0
Rh 4.45807500 2.10155750 -3.1523552499999994 0 0 0
Rh 1.51431892 4.20311500 3.03293191
Rh 4.49106476 0.00000000 3.23653029
Rh 4.42978108 4.20311500 3.03293191
Rh 1.45297580 0.00000000 3.23653029
Rh 4.43132655 2.05910604 1.07586223
Rh 1.51277345 6.34712396 1.07586223
Rh 1.51277345 2.05910604 1.07586223
Rh 4.43132655 6.34712396 1.07586223
C 0.00000000 8.40606188 4.36999981
