&CONTROL
calculation = 'relax'
prefix = 'scf'
pseudo_dir = '/vol0403/data/hp230205/u10028/POT_HYBRID_KKJUS_GBRV'
outdir = './data'
tprnfor = .true.
nstep = 70
disk_io = 'non'
/
&SYSTEM
ibrav = 0
ecutwfc = 50.0
ecutrho = 400
occupations = 'smearing'
smearing = 'mp'
degauss = 0.01
assume_isolated = 'esm'
esm_bc = 'bc1'
input_dft = 'BEEF-VDW'
nosym = .true.
nspin = 1
ntyp = 5
nat = 17
/
&ELECTRONS
electron_maxstep = 200
mixing_beta = 0.1
conv_thr = 1e-06
/
&IONS
ion_dynamics = 'bfgs'
upscale = 1.0
/
&CELL
/

K_POINTS {automatic}
12 7 2 0  0  0

ATOMIC_SPECIES
C 12.01 C.pbe-n-rrkjus_psl.1.0.0.UPF
Ge 72.64 Ge.pbe-dn-rrkjus_psl.1.0.0.UPF
In 114.8 In.pbe-dn-rrkjus_psl.1.0.0.UPF
Pd 106.4 Pd.pbe-n-rrkjus_psl.1.0.0.UPF
Sc 44.95 Sc.pbe-spn-rrkjus_psl.1.0.0.UPF


CELL_PARAMETERS {angstrom}
5.71274000 0.00000000 0.00000000
-0.00000000 9.28368000 0.00000000
0.00000000 0.00000000 24.27220000

ATOMIC_POSITIONS {angstrom}
Sc 2.85637000 0.00000000 -2.13619632 0 0 0
Sc 4.71958015 0.00027851 0.71724351
Sc 2.85637000 4.64184000 -2.13619632 0 0 0
Sc 4.93277961 4.64165433 0.68981592
In 1.31958581 2.32092000 -0.7121463500000011 0 0 0
In 3.52761695 2.56842291 2.51290087
In 1.31958581 6.96276000 -0.7121463500000011 0 0 0
In 3.52755982 6.71470007 2.51265814
Ge 0.00000000 0.00000000 -2.13619632 0 0 0
Ge 2.28035443 9.28191610 2.34129641
Ge 0.00000000 4.64184000 -2.13619632 0 0 0
Ge 1.93719013 4.64248986 1.34710710
Pd 4.17595581 2.32092000 -0.7121463500000011 0 0 0
Pd 0.56498999 2.27951479 1.92842629
Pd 4.17595581 6.96276000 -0.7121463500000011 0 0 0
Pd 0.56470435 7.00370103 1.92842629
C 0.43902407 9.28358716 2.21944997
