&CONTROL
calculation = 'relax'
prefix = 'scf'
pseudo_dir = '/vol0004/mdt0/data/hp150275/u10028/POT_KKJUS'
outdir = './data'
tprnfor = .true.
nstep = 50
disk_io = 'non'
/
&SYSTEM
ibrav = 0
ecutwfc = 50.0
ecutrho = 400
occupations = 'smearing'
smearing = 'mp'
degauss = 0.01
assume_isolated = 'esm'
esm_bc = 'bc1'
input_dft = 'BEEF-VDW'
nosym = .true.
nspin = 1
ntyp = 4
nat = 33
/
&ELECTRONS
electron_maxstep = 200
mixing_beta = 0.1
conv_thr = 1e-06
/
&IONS
ion_dynamics = 'bfgs'
upscale = 1.0
/
&CELL
/

K_POINTS {automatic}
8 6 1 0 0 0

ATOMIC_SPECIES
C 12.01 C.pbe-n-rrkjus_psl.1.0.0.UPF
Pd 106.4 Pd.pbe-n-rrkjus_psl.1.0.0.UPF
Sc 44.95 Sc.pbe-spn-rrkjus_psl.1.0.0.UPF
Sn 118.7 Sn.pbe-dn-rrkjus_psl.1.0.0.UPF

CELL_PARAMETERS {angstrom}
6.62889000 0.00000000 0.00000000
0.00000000 9.37466000 0.00000000
0.00000000 0.00000000 27.03100000

ATOMIC_POSITIONS {angstrom}
Sc 0.00000000 0.00000000 -3.515381549999997 0 0 0
Sc 3.31444500 2.34366500 -1.1717938500000002 0 0 0
Sc 3.31444500 7.03099500 -1.1717938500000002 0 0 0
Sc 0.00000000 4.68733000 -3.515381549999997 0 0 0
Sc 0.00000000 4.68733000 1.21288097
Sc 3.31444500 7.00465221 3.45699459
Sc 3.31444500 2.37000779 3.45699459
Sc 0.00000000 0.00000000 1.29370366
Sn 0.00000000 7.03099500 -1.1717938500000002 0 0 0
Sn 3.31444500 0.00000000 -3.515381549999997 0 0 0
Sn 0.00000000 2.34366500 -1.1717938500000002 0 0 0
Sn 3.31444500 4.68733000 -3.515381549999997 0 0 0
Sn 0.00000000 2.37000779 3.72027653
Sn 3.31444500 4.68733000 1.13692386
Sn 0.00000000 7.00465221 3.72027653
Sn 3.31444500 0.00000000 1.11827247
Pd 1.65722250 0.00000000 -1.1717938500000002 0 0 0
Pd 4.97166750 4.68733000 -1.1717938500000002 0 0 0
Pd 4.97166750 0.00000000 -1.1717938500000002 0 0 0
Pd 1.65722250 4.68733000 -1.1717938500000002 0 0 0
Pd 4.97166750 7.03099500 -3.515381549999997 0 0 0
Pd 1.65722250 2.34366500 -3.515381549999997 0 0 0
Pd 1.65722250 7.03099500 -3.515381549999997 0 0 0
Pd 4.97166750 2.34366500 -3.515381549999997 0 0 0
Pd 1.72211933 4.68733000 3.42834173
Pd 4.66779918 0.00000000 3.54241255
Pd 4.90677067 4.68733000 3.42834173
Pd 1.96109082 0.00000000 3.54241255
Pd 5.00090090 2.36588294 1.21125911
Pd 1.62798910 7.00877706 1.21125911
Pd 1.62798910 2.36588294 1.21125911
Pd 5.00090090 7.00877706 1.21125911
C 0.00000000 0.00000000 3.59214959
