&CONTROL
calculation = 'relax'
prefix = 'scf'
pseudo_dir = '/vol0004/mdt0/data/hp150275/u10028/POT_KKJUS'
outdir = './data'
tprnfor = .true.
nstep = 50
disk_io = 'non'
/
&SYSTEM
ibrav = 0
ecutwfc = 50.0
ecutrho = 400
occupations = 'smearing'
smearing = 'mp'
degauss = 0.01
assume_isolated = 'esm'
esm_bc = 'bc1'
input_dft = 'BEEF-VDW'
nosym = .true.
nspin = 1
ntyp = 4
nat = 34
/
&ELECTRONS
electron_maxstep = 200
mixing_beta = 0.1
conv_thr = 1e-06
/
&IONS
ion_dynamics = 'bfgs'
upscale = 1.0
/
&CELL
/

K_POINTS {automatic}
8 6 1 0 0 0

ATOMIC_SPECIES
Be 9.012 Be.pbe-n-rrkjus_psl.1.0.0.UPF
C 12.01 C.pbe-n-rrkjus_psl.1.0.0.UPF
Cu 63.54 Cu.pbe-dn-rrkjus_psl.1.0.0.UPF
O 15.99 O.pbe-n-rrkjus_psl.1.0.0.UPF

CELL_PARAMETERS {angstrom}
5.39777000 0.00000000 0.00000000
0.00000000 7.63360000 0.00000000
0.00000000 0.00000000 25.72520000

ATOMIC_POSITIONS {angstrom}
Be 0.00000000 0.00000000 -2.8627002600000004 0 0 0
Be 0.00000000 1.90840000 -0.9541476700000011 0 0 0
Be 0.05090097 0.00000000 1.02797899
Be 5.33126947 1.93832371 2.74024830
Be 0.00000000 3.81680000 -2.8627002600000004 0 0 0
Be 0.00000000 5.72520000 -0.9541476700000011 0 0 0
Be 5.38621877 3.81680000 0.99453623
Be 5.33126947 5.69527629 2.74024830
Be 2.69888500 0.00000000 -2.8627002600000004 0 0 0
Be 2.69888500 1.90840000 -0.9541476700000011 0 0 0
Be 2.64798403 0.00000000 1.02797899
Be 2.76538553 1.93832371 2.74024830
Be 2.69888500 3.81680000 -2.8627002600000004 0 0 0
Be 2.69888500 5.72520000 -0.9541476700000011 0 0 0
Be 2.71043623 3.81680000 0.99453623
Be 2.76538553 5.69527629 2.74024830
Cu 1.34944250 1.90840000 -2.8627002600000004 0 0 0
Cu 1.34944250 0.00000000 -0.9541476700000011 0 0 0
Cu 1.34944250 1.90710229 0.94488660
Cu 1.34944250 0.00000000 2.99672855
Cu 1.34944250 5.72520000 -2.8627002600000004 0 0 0
Cu 1.34944250 3.81680000 -0.9541476700000011 0 0 0
Cu 1.34944250 5.72649771 0.94488660
Cu 1.34944250 3.81680000 2.86424377
Cu 4.04832750 1.90840000 -2.8627002600000004 0 0 0
Cu 4.04832750 0.00000000 -0.9541476700000011 0 0 0
Cu 4.04832750 1.90122442 0.86719649
Cu 4.04832750 0.00000000 2.81613764
Cu 4.04832750 5.72520000 -2.8627002600000004 0 0 0
Cu 4.04832750 3.81680000 -0.9541476700000011 0 0 0
Cu 4.04832750 5.73229925 0.86719649
Cu 4.04832750 3.81680000 2.87144682
C 1.34944250 0.00000000 4.86978036
O 1.34944250 0.00000000 6.01686703
