&CONTROL
calculation = 'relax'
prefix = 'scf'
pseudo_dir = '/vol0403/data/hp230205/u10028/POT_HYBRID_KKJUS_GBRV'
outdir = './data'
tprnfor = .true.
nstep = 50
disk_io = 'non'
/
&SYSTEM
ibrav = 0
ecutwfc = 50.0
ecutrho = 400
occupations = 'smearing'
smearing = 'mp'
degauss = 0.01
assume_isolated = 'esm'
esm_bc = 'bc1'
input_dft = 'BEEF-VDW'
nosym = .true.
nspin = 1
ntyp = 6
nat = 34
/
&ELECTRONS
electron_maxstep = 200
mixing_beta = 0.1
conv_thr = 1e-06
/
&IONS
ion_dynamics = 'bfgs'
upscale = 1.0
/
&CELL
/

K_POINTS {automatic}
6 6 1 0 0 0

ATOMIC_SPECIES
C 12.01 C.pbe-n-rrkjus_psl.1.0.0.UPF
Cu 63.54 Cu.pbe-dn-rrkjus_psl.1.0.0.UPF
In 114.8 In.pbe-dn-rrkjus_psl.1.0.0.UPF
Li 6.941 Li.pbe-sl-rrkjus_psl.1.0.0.UPF
O 15.99 O.pbe-n-rrkjus_psl.1.0.0.UPF
Sn 118.7 Sn.pbe-dn-rrkjus_psl.1.0.0.UPF


CELL_PARAMETERS {angstrom}
6.73938000 0.00000000 0.00000000
0.00000000 9.53092000 0.00000000
0.00000000 0.00000000 27.14820000

ATOMIC_POSITIONS {angstrom}
Li 0.00000000 2.38273000 -1.191263020000001 0 0 0
Li 0.00000000 7.14819000 -1.191263020000001 0 0 0
Li 3.36969000 4.76546000 -3.5740605300000006 0 0 0
Li 3.36969000 0.00000000 -3.5740605300000006 0 0 0
Li 6.68094958 7.14008872 3.97205314
Li 6.68108436 2.39073597 3.97205314
Li 3.28666084 0.00000000 1.27107872
Li 3.28821090 4.76546000 1.26157685
In 1.68484500 0.00000000 -1.191263020000001 0 0 0
In 1.68484500 4.76546000 -1.191263020000001 0 0 0
In 5.05453500 2.38273000 -3.5740605300000006 0 0 0
In 5.05453500 7.14819000 -3.5740605300000006 0 0 0
In 1.82839379 4.76546000 4.00463098
In 1.82387841 0.00000000 4.05322626
In 5.10326072 7.13913563 1.21841122
In 5.10319332 2.39178437 1.21841122
Cu 0.00000000 0.00000000 -3.5740605300000006 0 0 0
Cu 0.00000000 4.76546000 -3.5740605300000006 0 0 0
Cu 3.36969000 7.14819000 -1.191263020000001 0 0 0
Cu 3.36969000 2.38273000 -1.191263020000001 0 0 0
Cu 0.03666223 4.76546000 1.24936016
Cu 0.01246785 0.00000000 1.18909116
Cu 3.43890343 2.37014919 3.35334566
Cu 3.43897083 7.16077081 3.35361715
Sn 5.05453500 0.00000000 -1.191263020000001 0 0 0
Sn 5.05453500 4.76546000 -1.191263020000001 0 0 0
Sn 1.68484500 2.38273000 -3.5740605300000006 0 0 0
Sn 1.68484500 7.14819000 -3.5740605300000006 0 0 0
Sn 4.98909562 4.76546000 3.66853627
Sn 5.00493316 0.00000000 3.65550513
Sn 1.57627359 7.14990557 1.35496666
Sn 1.57634098 2.38101443 1.35496666
C 4.39421055 0.00000000 7.48150096
O 5.33186049 0.00000000 8.11948366
