&CONTROL
calculation = 'relax'
prefix = 'scf'
pseudo_dir = '/vol0004/mdt0/data/hp150275/u10028/POT_KKJUS'
outdir = './data'
tprnfor = .true.
nstep = 50
disk_io = 'non'
/
&SYSTEM
ibrav = 0
ecutwfc = 50.0
ecutrho = 400
occupations = 'smearing'
smearing = 'mp'
degauss = 0.01
assume_isolated = 'esm'
esm_bc = 'bc1'
input_dft = 'BEEF-VDW'
nosym = .true.
nspin = 1
ntyp = 3
nat = 33
/
&ELECTRONS
electron_maxstep = 200
mixing_beta = 0.1
conv_thr = 1e-06
/
&IONS
ion_dynamics = 'bfgs'
upscale = 1.0
/
&CELL
/

K_POINTS {automatic}
8 6 2 0  0  0

ATOMIC_SPECIES
C 12.01 C.pbe-n-rrkjus_psl.1.0.0.UPF
In 114.8 In.pbe-dn-rrkjus_psl.1.0.0.UPF
Y 88.90 Y.pbe-spn-rrkjus_psl.1.0.0.UPF

CELL_PARAMETERS {angstrom}
7.55034000 0.00000000 0.00000000
0.00000000 10.67780000 0.00000000
0.00000000 0.00000000 28.00830000

ATOMIC_POSITIONS {angstrom}
Y 1.88758500 2.66945000 -4.004066569999999 0 0 0
Y 1.88758500 0.00000000 -1.334595499999999 0 0 0
Y 1.88758500 2.66859578 1.45895235
Y 1.88758500 0.39443793 4.12730309
Y 1.88758500 8.00835000 -4.004066569999999 0 0 0
Y 1.88758500 5.33890000 -1.334595499999999 0 0 0
Y 1.88758500 8.00899067 1.32087143
Y 1.88758500 4.93987061 4.12730309
Y 5.66275500 2.66945000 -4.004066569999999 0 0 0
Y 5.66275500 0.00000000 -1.334595499999999 0 0 0
Y 5.66275500 2.67019745 1.30322620
Y 5.66275500 10.45708987 3.98810184
Y 5.66275500 8.00835000 -4.004066569999999 0 0 0
Y 5.66275500 5.33890000 -1.334595499999999 0 0 0
Y 5.66275500 8.00781611 1.31582993
Y 5.66275500 5.55704745 3.98810184
In 0.00000000 0.00000000 -4.004066569999999 0 0 0
In 0.00000000 2.66945000 -1.334595499999999 0 0 0
In 0.01260907 10.67203399 1.38781126
In 7.19532301 2.66795511 4.33400434
In 0.00000000 5.33890000 -4.004066569999999 0 0 0
In 0.00000000 8.00835000 -1.334595499999999 0 0 0
In 0.01381712 5.34487957 1.38809135
In 0.24485753 8.00696189 4.11021802
In 3.77517000 0.00000000 -4.004066569999999 0 0 0
In 3.77517000 2.66945000 -1.334595499999999 0 0 0
In 3.76256093 10.67203399 1.38781126
In 4.13018699 2.66795511 4.33400434
In 3.77517000 5.33890000 -4.004066569999999 0 0 0
In 3.77517000 8.00835000 -1.334595499999999 0 0 0
In 3.76135288 5.34487957 1.38809135
In 3.53031247 8.00696189 4.11021802
C 1.88758500 2.66635344 3.72482382
