&CONTROL
calculation = 'relax'
prefix = 'scf'
pseudo_dir = '/vol0004/mdt0/data/hp150275/u10028/POT_KKJUS'
outdir = './data'
tprnfor = .true.
nstep = 50
disk_io = 'non'
/
&SYSTEM
ibrav = 0
ecutwfc = 50.0
ecutrho = 400
occupations = 'smearing'
smearing = 'mp'
degauss = 0.01
assume_isolated = 'esm'
esm_bc = 'bc1'
input_dft = 'BEEF-VDW'
nosym = .true.
nspin = 1
ntyp = 4
nat = 33
/
&ELECTRONS
electron_maxstep = 200
mixing_beta = 0.1
conv_thr = 1e-06
/
&IONS
ion_dynamics = 'bfgs'
upscale = 1.0
/
&CELL
/

K_POINTS {automatic}
8 6 1 0 0 0

ATOMIC_SPECIES
C 12.01 C.pbe-n-rrkjus_psl.1.0.0.UPF
Ge 72.64 Ge.pbe-dn-rrkjus_psl.1.0.0.UPF
Ni 58.69 Ni.pbe-spn-rrkjus_psl.1.0.0.UPF
Zn 65.40 Zn.pbe-dnl-rrkjus_psl.1.0.0.UPF

CELL_PARAMETERS {angstrom}
5.89777000 0.00000000 0.00000000
0.00000000 8.34071000 0.00000000
0.00000000 0.00000000 26.25550000

ATOMIC_POSITIONS {angstrom}
Zn 0.00000000 0.00000000 -3.127817710000002 0 0 0
Zn 2.94888500 2.08517750 -1.0426059100000025 0 0 0
Zn 2.94888500 6.25553250 -1.0426059100000025 0 0 0
Zn 0.00000000 4.17035500 -3.127817710000002 0 0 0
Zn 0.00023591 4.16968774 0.95071165
Zn 2.94894398 6.16753801 3.33917449
Zn 2.94894398 2.17317199 3.33891194
Zn 5.89765204 0.00050044 1.06150987
Ni 1.47444250 0.00000000 -1.0426059100000025 0 0 0
Ni 4.42332750 4.17035500 -1.0426059100000025 0 0 0
Ni 4.42332750 0.00000000 -1.0426059100000025 0 0 0
Ni 1.47444250 4.17035500 -1.0426059100000025 0 0 0
Ni 4.42332750 6.25553250 -3.127817710000002 0 0 0
Ni 1.47444250 2.08517750 -3.127817710000002 0 0 0
Ni 1.47444250 6.25553250 -3.127817710000002 0 0 0
Ni 4.42332750 2.08517750 -3.127817710000002 0 0 0
Ni 1.44648707 4.17035500 2.94297899
Ni 4.17455956 8.34054319 2.93851556
Ni 4.45128293 4.17035500 2.94297899
Ni 1.72321044 8.34045978 2.93851556
Ni 4.43482815 2.10753060 1.05363322
Ni 1.46282389 6.23326280 1.05337066
Ni 1.46276492 2.10753060 1.05363322
Ni 4.43488713 6.23317940 1.05363322
Ge 0.00000000 6.25553250 -1.0426059100000025 0 0 0
Ge 2.94888500 0.00000000 -3.127817710000002 0 0 0
Ge 0.00000000 2.08517750 -1.0426059100000025 0 0 0
Ge 2.94888500 4.17035500 -3.127817710000002 0 0 0
Ge 0.00000000 2.11678879 3.25331901
Ge 2.94870807 4.17018819 1.02396450
Ge 0.00005898 6.22392121 3.25358156
Ge 2.94906193 0.00016681 0.90292664
C 0.00000000 8.34062659 3.49434450
