&CONTROL
calculation = 'relax'
prefix = 'scf'
pseudo_dir = '/vol0004/mdt0/data/hp150275/u10028/POT_KKJUS'
outdir = './data'
tprnfor = .true.
nstep = 50
disk_io = 'non'
/
&SYSTEM
ibrav = 0
ecutwfc = 50.0
ecutrho = 400
occupations = 'smearing'
smearing = 'mp'
degauss = 0.01
assume_isolated = 'esm'
esm_bc = 'bc1'
input_dft = 'BEEF-VDW'
nosym = .true.
nspin = 1
ntyp = 4
nat = 34
/
&ELECTRONS
electron_maxstep = 200
mixing_beta = 0.1
conv_thr = 1e-06
/
&IONS
ion_dynamics = 'bfgs'
upscale = 1.0
/
&CELL
/

K_POINTS {automatic}
9 6 2 0  0  0

ATOMIC_SPECIES
C 12.01 C.pbe-n-rrkjus_psl.1.0.0.UPF
Cu 63.54 Cu.pbe-dn-rrkjus_psl.1.0.0.UPF
O 15.99 O.pbe-n-rrkjus_psl.1.0.0.UPF
Zn 65.40 Zn.pbe-dnl-rrkjus_psl.1.0.0.UPF

CELL_PARAMETERS {angstrom}
5.98486000 0.00000000 0.00000000
0.00000000 8.46387000 0.00000000
0.00000000 0.00000000 26.34790000

ATOMIC_POSITIONS {angstrom}
Zn 1.49621500 2.11596750 -3.1738680299999977 0 0 0
Zn 1.49621500 0.00000000 -1.0578681900000007 0 0 0
Zn 1.49759152 2.11833738 1.05128121
Zn 1.49944682 0.00000000 3.20917422
Zn 1.49621500 6.34790250 -3.1738680299999977 0 0 0
Zn 1.49621500 4.23193500 -1.0578681900000007 0 0 0
Zn 1.49759152 6.34553262 1.05128121
Zn 1.49968622 4.23193500 3.29164315
Zn 4.48864500 2.11596750 -3.1738680299999977 0 0 0
Zn 4.48864500 0.00000000 -1.0578681900000007 0 0 0
Zn 4.48714879 2.12299251 0.96354270
Zn 4.48565257 0.00000000 3.26002567
Zn 4.48864500 6.34790250 -3.1738680299999977 0 0 0
Zn 4.48864500 4.23193500 -1.0578681900000007 0 0 0
Zn 4.48714879 6.34079285 0.96354270
Zn 4.48529348 4.23193500 3.38201644
Cu 0.00000000 0.00000000 -3.1738680299999977 0 0 0
Cu 0.00000000 2.11596750 -1.0578681900000007 0 0 0
Cu 0.00071818 0.00000000 1.09818047
Cu 5.90520151 2.14863804 3.06030859
Cu 0.00000000 4.23193500 -3.1738680299999977 0 0 0
Cu 0.00000000 6.34790250 -1.0578681900000007 0 0 0
Cu 5.97588271 4.23193500 1.08158130
Cu 5.90526136 6.31523196 3.06030859
Cu 2.99243000 0.00000000 -3.1738680299999977 0 0 0
Cu 2.99243000 2.11596750 -1.0578681900000007 0 0 0
Cu 2.99147242 0.00000000 1.09501872
Cu 3.07095136 2.14719918 3.06267990
Cu 2.99243000 4.23193500 -3.1738680299999977 0 0 0
Cu 2.99243000 6.34790250 -1.0578681900000007 0 0 0
Cu 3.00230502 4.23193500 1.07841955
Cu 3.07095136 6.31667082 3.06267990
C 1.48783620 0.00000000 5.28723309
O 1.49046953 0.00000000 6.43152239
