&CONTROL
calculation = 'relax'
prefix = 'scf'
pseudo_dir = '/vol0403/data/hp230205/u10028/POT_HYBRID_KKJUS_GBRV'
outdir = './data'
tprnfor = .true.
nstep = 50
disk_io = 'non'
/
&SYSTEM
ibrav = 0
ecutwfc = 50.0
ecutrho = 400
occupations = 'smearing'
smearing = 'mp'
degauss = 0.01
assume_isolated = 'esm'
esm_bc = 'bc1'
input_dft = 'BEEF-VDW'
nosym = .true.
nspin = 1
ntyp = 6
nat = 34
/
&ELECTRONS
electron_maxstep = 200
mixing_beta = 0.1
conv_thr = 1e-06
/
&IONS
ion_dynamics = 'bfgs'
upscale = 1.0
/
&CELL
/

K_POINTS {automatic}
6 6 1 0 0 0

ATOMIC_SPECIES
C 12.01 C.pbe-n-rrkjus_psl.1.0.0.UPF
Cu 63.54 Cu.pbe-dn-rrkjus_psl.1.0.0.UPF
Ge 72.64 Ge.pbe-dn-rrkjus_psl.1.0.0.UPF
Li 6.941 Li.pbe-sl-rrkjus_psl.1.0.0.UPF
O 15.99 O.pbe-n-rrkjus_psl.1.0.0.UPF
Pd 106.4 Pd.pbe-n-rrkjus_psl.1.0.0.UPF


CELL_PARAMETERS {angstrom}
6.04231000 0.00000000 0.00000000
0.00000000 8.54512000 0.00000000
0.00000000 0.00000000 26.40880000

ATOMIC_POSITIONS {angstrom}
Li 1.51057750 0.00000000 -1.068235959999999 0 0 0
Li 1.51057750 4.27256000 -1.068235959999999 0 0 0
Li 4.53173250 2.13628000 -3.204443789999999 0 0 0
Li 4.53173250 6.40884000 -3.204443789999999 0 0 0
Li 1.50477688 4.27256000 3.56201894
Li 1.49444453 0.00000000 3.63807629
Li 4.52339411 6.42029046 0.93804058
Li 4.52339411 2.12482954 0.93804058
Cu 0.00000000 0.00000000 -3.204443789999999 0 0 0
Cu 0.00000000 4.27256000 -3.204443789999999 0 0 0
Cu 3.02115500 6.40884000 -1.068235959999999 0 0 0
Cu 3.02115500 2.13628000 -1.068235959999999 0 0 0
Cu 0.00024169 4.27256000 1.18628330
Cu 0.03027197 0.00000000 1.20212858
Cu 3.17855718 2.14388516 3.03331477
Cu 3.17861760 6.40123484 3.03357886
Ge 4.53173250 0.00000000 -1.068235959999999 0 0 0
Ge 4.53173250 4.27256000 -1.068235959999999 0 0 0
Ge 1.51057750 2.13628000 -3.204443789999999 0 0 0
Ge 1.51057750 6.40884000 -3.204443789999999 0 0 0
Ge 4.51028230 4.27256000 3.37900596
Ge 4.54212527 0.00000000 3.32407566
Ge 1.50175573 6.40448199 1.07615860
Ge 1.50175573 2.14063801 1.07615860
Pd 0.00000000 2.13628000 -1.068235959999999 0 0 0
Pd 0.00000000 6.40884000 -1.068235959999999 0 0 0
Pd 3.02115500 4.27256000 -3.204443789999999 0 0 0
Pd 3.02115500 0.00000000 -3.204443789999999 0 0 0
Pd 5.91457557 6.38798991 3.04546282
Pd 5.91451514 2.15713009 3.04546282
Pd 2.96387390 0.00000000 1.23381914
Pd 2.99613984 4.27256000 1.19288550
C 1.55770752 0.00000000 5.77560456
O 1.54586459 0.00000000 6.91303158
