&CONTROL
calculation = 'relax'
prefix = 'scf'
pseudo_dir = '/vol0004/mdt0/data/hp150275/u10028/POT_HYBRID_KKJUS_GBRV'
outdir = './data'
tprnfor = .true.
nstep = 50
disk_io = 'non'
/
&SYSTEM
ibrav = 0
ecutwfc = 50.0
ecutrho = 400
occupations = 'smearing'
smearing = 'mp'
degauss = 0.01
assume_isolated = 'esm'
esm_bc = 'bc1'
input_dft = 'BEEF-VDW'
nosym = .true.
nspin = 2
ntyp = 4
nat = 33
starting_magnetization(1) = 0.0
starting_magnetization(2) = 0.0
starting_magnetization(3) = 0.001
starting_magnetization(4) = 0.0
/
&ELECTRONS
electron_maxstep = 200
mixing_beta = 0.1
conv_thr = 1e-06
/
&IONS
ion_dynamics = 'bfgs'
upscale = 1.0
/
&CELL
/

K_POINTS {automatic}
9 6 2 0  0  0

ATOMIC_SPECIES
C 12.01 C.pbe-n-rrkjus_psl.1.0.0.UPF
Ga 69.72 Ga.pbe-dnl-rrkjus_psl.1.0.0.UPF
Ni 58.69 ni_pbe_v1.4.uspp.F.UPF
Sc 44.95 Sc.pbe-spn-rrkjus_psl.1.0.0.UPF

CELL_PARAMETERS {angstrom}
6.06833000 0.00000000 0.00000000
0.00000000 8.58191000 0.00000000
0.00000000 0.00000000 26.43640000

ATOMIC_POSITIONS {angstrom}
Sc 0.00000000 0.00000000 23.21829703
Sc 3.03416500 2.14547750 25.36361089
Sc 3.03416500 6.43643250 25.36361089
Sc 0.00000000 4.29095500 23.21829703
Sc 0.00000000 4.29095500 0.98052608
Sc 3.03416500 6.35327379 3.40606578
Sc 3.03416500 2.22855039 3.40606578
Sc 0.00000000 8.58182418 1.07093856
Ga 0.00000000 6.43643250 25.36361089
Ga 3.03416500 0.00000000 23.21829703
Ga 0.00000000 2.14547750 25.36361089
Ga 3.03416500 4.29095500 23.21829703
Ga 0.00000000 2.14650733 3.18743675
Ga 3.03416500 4.29104082 1.14469612
Ga 0.00000000 6.43523103 3.18743675
Ga 3.03416500 0.00008582 1.18963800
Ni 1.51708250 0.00000000 25.36361089
Ni 4.55124750 4.29095500 25.36361089
Ni 4.55124750 0.00000000 25.36361089
Ni 1.51708250 4.29095500 25.36361089
Ni 4.55124750 6.43643250 23.21829703
Ni 1.51708250 2.14547750 23.21829703
Ni 1.51708250 6.43643250 23.21829703
Ni 4.55124750 2.14547750 23.21829703
Ni 1.32671899 4.29095500 3.05261111
Ni 4.80751308 8.58173836 3.29741217
Ni 4.74155033 4.29095500 3.05261111
Ni 1.26081692 8.58173836 3.29741217
Ni 4.45834137 2.15302958 1.14363866
Ni 1.61004932 6.42888042 1.14363866
Ni 1.60998863 2.15302958 1.14363866
Ni 4.45828068 6.42888042 1.14363866
C 3.03416500 0.00000000 3.65245302
