&CONTROL
calculation = 'relax'
prefix = 'scf'
pseudo_dir = '/vol0004/mdt0/data/hp150275/u10028/POT_KKJUS'
outdir = './data'
tprnfor = .true.
nstep = 50
disk_io = 'non'
/
&SYSTEM
ibrav = 0
ecutwfc = 50.0
ecutrho = 400
occupations = 'smearing'
smearing = 'mp'
degauss = 0.01
assume_isolated = 'esm'
esm_bc = 'bc1'
input_dft = 'BEEF-VDW'
nosym = .true.
nspin = 1
ntyp = 4
nat = 34
/
&ELECTRONS
electron_maxstep = 200
mixing_beta = 0.1
conv_thr = 1e-06
/
&IONS
ion_dynamics = 'bfgs'
upscale = 1.0
/
&CELL
/

K_POINTS {automatic}
9 6 2 0  0  0

ATOMIC_SPECIES
C 12.01 C.pbe-n-rrkjus_psl.1.0.0.UPF
O 15.99 O.pbe-n-rrkjus_psl.1.0.0.UPF
Ru 101.0 Ru.pbe-spn-rrkjus_psl.1.0.0.UPF
Si 28.08 Si.pbe-nl-rrkjus_psl.1.0.0.UPF

CELL_PARAMETERS {angstrom}
5.87849000 0.00000000 0.00000000
0.00000000 8.31345000 0.00000000
0.00000000 0.00000000 26.23510000

ATOMIC_POSITIONS {angstrom}
Si 1.46962250 2.07836250 -3.1175169300000007 0 0 0
Si 1.46962250 0.00000000 -1.0391723099999979 0 0 0
Si 1.50001429 2.07836250 1.06566976
Si 1.46056963 8.28668069 3.14348968
Si 1.46962250 6.23508750 -3.1175169300000007 0 0 0
Si 1.46962250 4.15672500 -1.0391723099999979 0 0 0
Si 1.46668325 6.23508750 1.07511440
Si 1.46056963 4.18349431 3.14348968
Si 4.40886750 2.07836250 -3.1175169300000007 0 0 0
Si 4.40886750 0.00000000 -1.0391723099999979 0 0 0
Si 4.37847571 2.07836250 1.06566976
Si 4.41792037 8.28668069 3.14348968
Si 4.40886750 6.23508750 -3.1175169300000007 0 0 0
Si 4.40886750 4.15672500 -1.0391723099999979 0 0 0
Si 4.41180674 6.23508750 1.07511440
Si 4.41792037 4.18349431 3.14348968
Ru 0.00000000 0.00000000 -3.1175169300000007 0 0 0
Ru 0.00000000 2.07836250 -1.0391723099999979 0 0 0
Ru 0.00000000 0.06850283 1.02159479
Ru 0.00000000 2.07836250 3.23163962
Ru 0.00000000 4.15672500 -3.1175169300000007 0 0 0
Ru 0.00000000 6.23508750 -1.0391723099999979 0 0 0
Ru 0.00000000 4.08822217 1.02159479
Ru 0.00000000 6.23508750 2.99762253
Ru 2.93924500 0.00000000 -3.1175169300000007 0 0 0
Ru 2.93924500 2.07836250 -1.0391723099999979 0 0 0
Ru 2.93924500 8.30289192 0.99667145
Ru 2.93918622 2.07836250 3.02857994
Ru 2.93924500 4.15672500 -3.1175169300000007 0 0 0
Ru 2.93924500 6.23508750 -1.0391723099999979 0 0 0
Ru 2.93924500 4.16728308 0.99667145
Ru 2.93924500 6.23508750 3.04510806
C 0.00000000 2.07836250 5.13473377
O 0.00000000 2.07836250 6.29038993
