&CONTROL
calculation = 'relax'
prefix = 'scf'
pseudo_dir = '/vol0004/mdt0/data/hp150275/u10028/POT_HYBRID_KKJUS_GBRV'
outdir = './data'
tprnfor = .true.
nstep = 50
disk_io = 'non'
/
&SYSTEM
ibrav = 0
ecutwfc = 50.0
ecutrho = 400
occupations = 'smearing'
smearing = 'mp'
degauss = 0.01
assume_isolated = 'esm'
esm_bc = 'bc1'
input_dft = 'BEEF-VDW'
nosym = .true.
nspin = 2
ntyp = 5
nat = 34
starting_magnetization(1) = 0.0
starting_magnetization(2) = 0.0
starting_magnetization(3) = 0.1
starting_magnetization(4) = 0.0
starting_magnetization(5) = 0.0
/
&ELECTRONS
electron_maxstep = 300
mixing_beta = 0.1
conv_thr = 1e-06
/
&IONS
ion_dynamics = 'bfgs'
upscale = 1.0
/
&CELL
/

K_POINTS {automatic}
8 6 1 0 0 0

ATOMIC_SPECIES
Al 26.98 Al.pbe-nl-rrkjus_psl.1.0.0.UPF
C 12.01 C.pbe-n-rrkjus_psl.1.0.0.UPF
Fe 55.84 fe_pbe_v1.5.uspp.F.UPF
O 15.99 O.pbe-n-rrkjus_psl.1.0.0.UPF
V 50.94 V.pbe-spnl-rrkjus_psl.1.0.0.UPF

CELL_PARAMETERS {angstrom}
5.71239000 0.00000000 0.00000000
0.00000000 8.07854000 0.00000000
0.00000000 0.00000000 26.05890000

ATOMIC_POSITIONS {angstrom}
Al 0.00000000 0.00000000 -3.0293471200000006 0 0 0
Al 2.85619500 2.01963500 -1.00978237 0 0 0
Al 2.85619500 6.05890500 -1.00978237 0 0 0
Al 0.00000000 4.03927000 -3.0293471200000006 0 0 0
Al 0.00000000 4.02917183 1.01447298
Al 2.85619500 6.05890500 3.19612409
Al 2.85619500 2.01963500 3.12732859
Al 0.00000000 0.01009818 1.01447298
V 0.00000000 6.05890500 -1.00978237 0 0 0
V 2.85619500 0.00000000 -3.0293471200000006 0 0 0
V 0.00000000 2.01963500 -1.00978237 0 0 0
V 2.85619500 4.03927000 -3.0293471200000006 0 0 0
V 5.71233288 2.01947343 2.99208290
V 2.85625212 4.04015864 1.06502724
V 5.71233288 6.05906657 2.96680577
V 2.85619500 8.07765136 1.06528783
Fe 1.42809750 0.00000000 -1.00978237 0 0 0
Fe 4.28429250 4.03927000 -1.00978237 0 0 0
Fe 4.28429250 0.00000000 -1.00978237 0 0 0
Fe 1.42809750 4.03927000 -1.00978237 0 0 0
Fe 4.28429250 6.05890500 -3.0293471200000006 0 0 0
Fe 1.42809750 2.01963500 -3.0293471200000006 0 0 0
Fe 1.42809750 6.05890500 -3.0293471200000006 0 0 0
Fe 4.28429250 2.01963500 -3.0293471200000006 0 0 0
Fe 1.41438776 4.04581362 3.10074851
Fe 4.29794511 8.07191560 3.10100910
Fe 4.29800224 4.04581362 3.10074851
Fe 1.41438776 8.07199638 3.10100910
Fe 4.26150006 2.01971579 1.00926120
Fe 1.43986502 6.05882421 1.04652542
Fe 1.45088994 2.01971579 1.00926120
Fe 4.27252498 6.05882421 1.04652542
C 0.00000000 2.01963500 4.98532816
O 0.00000000 2.01963500 6.14468862
