&CONTROL
calculation = 'relax'
prefix = 'scf'
pseudo_dir = '/vol0004/mdt0/data/hp150275/u10028/POT_KKJUS'
outdir = './data'
tprnfor = .true.
nstep = 50
disk_io = 'non'
/
&SYSTEM
ibrav = 0
ecutwfc = 50.0
ecutrho = 400
occupations = 'smearing'
smearing = 'mp'
degauss = 0.01
assume_isolated = 'esm'
esm_bc = 'bc1'
input_dft = 'BEEF-VDW'
nosym = .true.
nspin = 1
ntyp = 4
nat = 33
/
&ELECTRONS
electron_maxstep = 200
mixing_beta = 0.1
conv_thr = 1e-06
/
&IONS
ion_dynamics = 'bfgs'
upscale = 1.0
/
&CELL
/

K_POINTS {automatic}
9 6 2 0  0  0

ATOMIC_SPECIES
C 12.01 C.pbe-n-rrkjus_psl.1.0.0.UPF
In 114.8 In.pbe-dn-rrkjus_psl.1.0.0.UPF
Pt 195.0 Pt.pbe-n-rrkjus_psl.1.0.0.UPF
Zr 91.22 Zr.pbe-spn-rrkjus_psl.1.0.0.UPF

CELL_PARAMETERS {angstrom}
6.69031000 0.00000000 0.00000000
0.00000000 9.46152000 0.00000000
0.00000000 0.00000000 27.09610000

ATOMIC_POSITIONS {angstrom}
Zr 0.00000000 0.00000000 -3.547963329999998 0 0 0
Zr 3.34515500 2.36538000 -1.1827447599999985 0 0 0
Zr 3.34515500 7.09614000 -1.1827447599999985 0 0 0
Zr 0.00000000 4.73076000 -3.547963329999998 0 0 0
Zr 0.00000000 4.73076000 1.24994309
Zr 3.34515500 7.30145498 3.29190519
Zr 3.34515500 2.16006502 3.29190519
Zr 0.00000000 0.00000000 1.63795925
In 0.00000000 7.09614000 -1.1827447599999985 0 0 0
In 3.34515500 0.00000000 -3.547963329999998 0 0 0
In 0.00000000 2.36538000 -1.1827447599999985 0 0 0
In 3.34515500 4.73076000 -3.547963329999998 0 0 0
In 0.00000000 2.55224502 3.84195602
In 3.34515500 4.73076000 1.06975403
In 0.00000000 6.90927498 3.84195602
In 3.34515500 0.00000000 1.10281127
Pt 1.67257750 0.00000000 -1.1827447599999985 0 0 0
Pt 5.01773250 4.73076000 -1.1827447599999985 0 0 0
Pt 5.01773250 0.00000000 -1.1827447599999985 0 0 0
Pt 1.67257750 4.73076000 -1.1827447599999985 0 0 0
Pt 5.01773250 7.09614000 -3.547963329999998 0 0 0
Pt 1.67257750 2.36538000 -3.547963329999998 0 0 0
Pt 1.67257750 7.09614000 -3.547963329999998 0 0 0
Pt 5.01773250 2.36538000 -3.547963329999998 0 0 0
Pt 1.78537613 4.73076000 3.34311682
Pt 5.35559316 0.00000000 4.01184857
Pt 4.90493387 4.73076000 3.34311682
Pt 1.33471685 0.00000000 4.01184857
Pt 5.10831930 2.34645696 1.13532659
Pt 1.58199070 7.11506304 1.13532659
Pt 1.58199070 2.34645696 1.13532659
Pt 5.10831930 7.11506304 1.13532659
C 3.34515500 0.00000000 3.52547357
