&CONTROL
calculation = 'relax'
prefix = 'scf'
pseudo_dir = '/vol0004/mdt0/data/hp150275/u10028/POT_HYBRID_KKJUS_GBRV'
outdir = './data'
tprnfor = .true.
nstep = 50
disk_io = 'non'
/
&SYSTEM
ibrav = 0
ecutwfc = 50.0
ecutrho = 400
occupations = 'smearing'
smearing = 'mp'
degauss = 0.01
assume_isolated = 'esm'
esm_bc = 'bc1'
input_dft = 'BEEF-VDW'
nosym = .true.
nspin = 2
ntyp = 4
nat = 17
starting_magnetization(1) = 0.0
starting_magnetization(2) = 0.0
starting_magnetization(3) = 0.1
starting_magnetization(4) = 0.1
/
&ELECTRONS
electron_maxstep = 300
mixing_beta = 0.1
conv_thr = 1e-06
/
&IONS
ion_dynamics = 'bfgs'
upscale = 1.0
/
&CELL
/

K_POINTS {automatic}
10 10 2 0  0  0

ATOMIC_SPECIES
Al 26.98 Al.pbe-nl-rrkjus_psl.1.0.0.UPF
C 12.01 C.pbe-n-rrkjus_psl.1.0.0.UPF
Cr 51.99 cr_pbe_v1.5.uspp.F.UPF
Fe 55.84 fe_pbe_v1.5.uspp.F.UPF

CELL_PARAMETERS {angstrom}
6.50665000 0.00000000 0.00000000
0.00000000 6.50665000 0.00000000
0.00000000 0.00000000 24.88000000

ATOMIC_POSITIONS {angstrom}
Al 0.17158036 0.17158036 1.66795520
Al 3.08180971 3.08180971 1.66795520
Al 3.25332500 0.00000000 -0.8133271999999998 0 0 0
Al 0.00000000 3.25332500 -0.8133271999999998 0 0 0
Cr 0.00000000 0.00000000 -0.8133271999999998 0 0 0
Cr 2.98752835 0.26573159 1.76996320
Cr 0.26579665 2.98752835 1.76996320
Cr 3.25332500 3.25332500 -0.8133271999999998 0 0 0
Fe 1.62666250 1.62659743 0.00348320
Fe 4.87998750 4.87998750 -2.4399815999999994 0 0 0
Fe 4.87998750 1.62659743 0.24058960
Fe 1.62666250 4.87998750 -2.4399815999999994 0 0 0
Fe 4.87985737 4.87985737 0.27567040
Fe 1.62666250 1.62666250 -2.4399815999999994 0 0 0
Fe 1.62659743 4.87998750 0.24058960
Fe 4.87998750 1.62666250 -2.4399815999999994 0 0 0
C 1.62666250 1.62672757 2.07076240
