&CONTROL
calculation = 'relax'
prefix = 'scf'
pseudo_dir = '/vol0403/data/hp230205/u10028/POT_HYBRID_KKJUS_GBRV'
outdir = './data'
tprnfor = .true.
nstep = 50
disk_io = 'non'
/
&SYSTEM
ibrav = 0
ecutwfc = 50.0
ecutrho = 400
occupations = 'smearing'
smearing = 'mp'
degauss = 0.01
assume_isolated = 'esm'
esm_bc = 'bc1'
input_dft = 'BEEF-VDW'
nosym = .true.
nspin = 1
ntyp = 6
nat = 18
/
&ELECTRONS
electron_maxstep = 200
mixing_beta = 0.1
conv_thr = 1e-06
/
&IONS
ion_dynamics = 'bfgs'
upscale = 1.0
/
&CELL
/

K_POINTS {automatic}
6 6 1 0 0 0

ATOMIC_SPECIES
C 12.01 C.pbe-n-rrkjus_psl.1.0.0.UPF
In 114.8 In.pbe-dn-rrkjus_psl.1.0.0.UPF
Li 6.941 Li.pbe-sl-rrkjus_psl.1.0.0.UPF
O 15.99 O.pbe-n-rrkjus_psl.1.0.0.UPF
Sn 118.7 Sn.pbe-dn-rrkjus_psl.1.0.0.UPF
Y 88.90 Y.pbe-spn-rrkjus_psl.1.0.0.UPF


CELL_PARAMETERS {angstrom}
8.86856000 0.00000000 0.00000000
0.00000000 6.50942000 0.00000000
0.00000000 0.00000000 24.87900000

ATOMIC_POSITIONS {angstrom}
Li 2.21518892 1.70253880 1.18772346
Li 2.21714000 4.70995594 -2.4396347400000025 0 0 0
Li 6.65319371 1.70253880 1.18772346
Li 6.65142000 4.70995594 -2.4396347400000025 0 0 0
Y 2.22059874 4.88961593 0.83966625
Y 2.21714000 1.45524594 -2.4396347400000025 0 0 0
Y 6.64796126 4.88961593 0.83966625
Y 6.65142000 1.45524594 -2.4396347400000025 0 0 0
In 0.00000000 0.15062798 2.46003552
In 0.00000000 3.13994893 -0.8132945100000022 0 0 0
In 4.43410263 0.14476950 2.46600648
In 4.43428000 3.13994893 -0.8132945100000022 0 0 0
Sn 0.00000000 3.23999871 2.28215067
Sn 0.00000000 6.39465893 -0.8132945100000022 0 0 0
Sn 4.43419131 3.23218741 2.29085832
Sn 4.43428000 6.39465893 -0.8132945100000022 0 0 0
C 0.00088686 3.67912418 6.10232112
O 0.00000000 2.99576527 7.00891188
