&CONTROL
calculation = 'relax'
prefix = 'scf'
pseudo_dir = '/vol0004/mdt0/data/hp150275/u10028/POT_KKJUS'
outdir = './data'
tprnfor = .true.
nstep = 50
disk_io = 'non'
/
&SYSTEM
ibrav = 0
ecutwfc = 50.0
ecutrho = 400
occupations = 'smearing'
smearing = 'mp'
degauss = 0.01
assume_isolated = 'esm'
esm_bc = 'bc1'
input_dft = 'BEEF-VDW'
nosym = .true.
nspin = 1
ntyp = 5
nat = 18
/
&ELECTRONS
electron_maxstep = 200
mixing_beta = 0.1
conv_thr = 1e-06
/
&IONS
ion_dynamics = 'bfgs'
upscale = 1.0
/
&CELL
/

K_POINTS {automatic}
8 8 1 0 0 0

ATOMIC_SPECIES
C 12.01 C.pbe-n-rrkjus_psl.1.0.0.UPF
Ga 69.72 Ga.pbe-dnl-rrkjus_psl.1.0.0.UPF
Li 6.941 Li.pbe-sl-rrkjus_psl.1.0.0.UPF
O 15.99 O.pbe-n-rrkjus_psl.1.0.0.UPF
Rh 102.9 Rh.pbe-spn-rrkjus_psl.1.0.0.UPF

CELL_PARAMETERS {angstrom}
6.03399000 0.00000000 0.00000000
0.00000000 6.03399000 0.00000000
0.00000000 0.00000000 24.52550000

ATOMIC_POSITIONS {angstrom}
Li 0.00000000 0.00000000 -0.7541591300000015 0 0 0
Li 3.01699500 0.00000000 2.60755116
Li 0.00000000 3.01699500 2.62496427
Li 3.01699500 3.01699500 -0.7541591300000015 0 0 0
Li 1.50849750 1.50849750 -2.2627226300000025 0 0 0
Li 1.51241959 4.52217381 0.84514873
Li 4.52549250 4.52549250 -2.2627226300000025 0 0 0
Li 4.52157041 1.51181619 0.84514873
Ga 1.51356605 1.50982498 0.78628753
Ga 1.50849750 4.52549250 -2.2627226300000025 0 0 0
Ga 4.52036361 4.52416502 0.78628753
Ga 4.52549250 1.50849750 -2.2627226300000025 0 0 0
Rh 0.00000000 0.00000000 2.07657408
Rh 3.01699500 3.01699500 2.08981785
Rh 3.01699500 0.00000000 -0.7541591300000015 0 0 0
Rh 0.00000000 3.01699500 -0.7541591300000015 0 0 0
C 0.00000000 3.01699500 4.73562880
O 0.00000000 3.01699500 5.87532878
