&CONTROL
calculation = 'relax'
prefix = 'scf'
pseudo_dir = '/vol0004/mdt0/data/hp150275/u10028/POT_HYBRID_KKJUS_GBRV'
outdir = './data'
tprnfor = .true.
nstep = 50
disk_io = 'non'
/
&SYSTEM
ibrav = 0
ecutwfc = 50.0
ecutrho = 400
occupations = 'smearing'
smearing = 'mp'
degauss = 0.01
assume_isolated = 'esm'
esm_bc = 'bc1'
input_dft = 'BEEF-VDW'
nosym = .true.
nspin = 2
ntyp = 5
nat = 34
starting_magnetization(1) = 0.0
starting_magnetization(2) = 0.1
starting_magnetization(3) = 0.0
starting_magnetization(4) = 0.0
starting_magnetization(5) = 0.0
/
&ELECTRONS
electron_maxstep = 200
mixing_beta = 0.1
conv_thr = 1e-06
/
&IONS
ion_dynamics = 'bfgs'
upscale = 1.0
/
&CELL
/

K_POINTS {automatic}
9 6 2 0  0  0

ATOMIC_SPECIES
C 12.01 C.pbe-n-rrkjus_psl.1.0.0.UPF
Co 58.93 co_pbe_v1.2.uspp.F.UPF
Ge 72.64 Ge.pbe-dn-rrkjus_psl.1.0.0.UPF
O 15.99 O.pbe-n-rrkjus_psl.1.0.0.UPF
Zn 65.40 Zn.pbe-dnl-rrkjus_psl.1.0.0.UPF

CELL_PARAMETERS {angstrom}
5.75846000 0.00000000 0.00000000
0.00000000 8.14369000 0.00000000
0.00000000 0.00000000 26.10780000

ATOMIC_POSITIONS {angstrom}
Zn 0.00000000 0.00000000 23.05397063
Zn 2.87923000 2.03592250 25.08985688
Zn 2.87923000 6.10776750 25.08985688
Zn 0.00000000 4.07184500 23.05397063
Zn 5.75840242 4.06011809 0.96311674
Zn 2.87859657 6.10801181 3.49531226
Zn 2.87859657 2.03567819 3.42769306
Zn 5.75834483 0.01164548 0.96285566
Co 1.43961500 0.00000000 25.08985688
Co 4.31884500 4.07184500 25.08985688
Co 4.31884500 0.00000000 25.08985688
Co 1.43961500 4.07184500 25.08985688
Co 4.31884500 6.10776750 23.05397063
Co 1.43961500 2.03592250 23.05397063
Co 1.43961500 6.10776750 23.05397063
Co 4.31884500 2.03592250 23.05397063
Co 1.41848145 4.04912410 2.91101970
Co 4.34020889 0.02288377 2.91101970
Co 4.33997855 4.04912410 2.91075862
Co 1.41825111 0.02280233 2.91101970
Co 4.29270159 2.03592250 1.03517427
Co 1.46564324 6.10776750 1.08269047
Co 1.46581599 2.03592250 1.03491319
Co 4.29287435 6.10768606 1.08269047
Ge 0.00000000 6.10776750 25.08985688
Ge 2.87923000 0.00000000 23.05397063
Ge 0.00000000 2.03592250 25.08985688
Ge 2.87923000 4.07184500 23.05397063
Ge 0.00074860 2.03592250 3.15773841
Ge 2.87899966 4.07233362 0.99679580
Ge 0.00086377 6.10776750 3.08646412
Ge 2.87917242 8.14320138 0.99679580
C 0.00017275 2.03600394 5.62936384
O 5.75840242 2.03575963 6.76479206
