&CONTROL
calculation = 'relax'
prefix = 'scf'
pseudo_dir = '/vol0004/mdt0/data/hp150275/u10028/POT_KKJUS'
outdir = './data'
tprnfor = .true.
nstep = 50
disk_io = 'non'
/
&SYSTEM
ibrav = 0
ecutwfc = 50.0
ecutrho = 400
occupations = 'smearing'
smearing = 'mp'
degauss = 0.01
assume_isolated = 'esm'
esm_bc = 'bc1'
input_dft = 'BEEF-VDW'
nosym = .true.
nspin = 1
ntyp = 4
nat = 33
/
&ELECTRONS
electron_maxstep = 200
mixing_beta = 0.1
conv_thr = 1e-06
/
&IONS
ion_dynamics = 'bfgs'
upscale = 1.0
/
&CELL
/

K_POINTS {automatic}
9 6 2 0  0  0

ATOMIC_SPECIES
C 12.01 C.pbe-n-rrkjus_psl.1.0.0.UPF
Li 6.941 Li.pbe-sl-rrkjus_psl.1.0.0.UPF
Pb 207.2 Pb.pbe-dn-rrkjus_psl.1.0.0.UPF
Pd 106.4 Pd.pbe-n-rrkjus_psl.1.0.0.UPF

CELL_PARAMETERS {angstrom}
6.57920000 0.00000000 0.00000000
0.00000000 9.30439000 0.00000000
0.00000000 0.00000000 26.97830000

ATOMIC_POSITIONS {angstrom}
Li 0.00000000 0.00000000 -3.489103540000002 0 0 0
Li 3.28960000 2.32609750 -1.1630345099999992 0 0 0
Li 3.28960000 6.97829250 -1.1630345099999992 0 0 0
Li 0.00000000 4.65219500 -3.489103540000002 0 0 0
Li 0.00000000 4.65219500 1.12229728
Li 3.28960000 7.03207187 3.57570388
Li 3.28960000 2.27231813 3.57570388
Li 0.00000000 0.00000000 1.10961748
Pd 1.64480000 0.00000000 -1.1630345099999992 0 0 0
Pd 4.93440000 4.65219500 -1.1630345099999992 0 0 0
Pd 4.93440000 0.00000000 -1.1630345099999992 0 0 0
Pd 1.64480000 4.65219500 -1.1630345099999992 0 0 0
Pd 4.93440000 6.97829250 -3.489103540000002 0 0 0
Pd 1.64480000 2.32609750 -3.489103540000002 0 0 0
Pd 1.64480000 6.97829250 -3.489103540000002 0 0 0
Pd 4.93440000 2.32609750 -3.489103540000002 0 0 0
Pd 1.57032346 4.65219500 3.27030953
Pd 5.14434227 0.00000000 3.45484110
Pd 5.00887654 4.65219500 3.27030953
Pd 1.43485773 0.00000000 3.45484110
Pd 5.02249549 2.29046169 1.29900514
Pd 1.55670451 7.01392831 1.29900514
Pd 1.55670451 2.29046169 1.29900514
Pd 5.02249549 7.01392831 1.29900514
Pb 0.00000000 6.97829250 -1.1630345099999992 0 0 0
Pb 3.28960000 0.00000000 -3.489103540000002 0 0 0
Pb 0.00000000 2.32609750 -1.1630345099999992 0 0 0
Pb 3.28960000 4.65219500 -3.489103540000002 0 0 0
Pb 0.00000000 2.40946483 3.86302278
Pb 3.28960000 4.65219500 1.13012099
Pb 0.00000000 6.89492517 3.86302278
Pb 3.28960000 0.00000000 1.09990529
C 3.28960000 0.00000000 3.83766317
