&CONTROL
calculation = 'relax'
prefix = 'scf'
pseudo_dir = '/vol0403/data/hp230205/u10028/POT_HYBRID_KKJUS_GBRV'
outdir = './data'
tprnfor = .true.
nstep = 50
disk_io = 'non'
/
&SYSTEM
ibrav = 0
ecutwfc = 50.0
ecutrho = 400
occupations = 'smearing'
smearing = 'mp'
degauss = 0.01
assume_isolated = 'esm'
esm_bc = 'bc1'
input_dft = 'BEEF-VDW'
nosym = .true.
nspin = 1
ntyp = 5
nat = 17
/
&ELECTRONS
electron_maxstep = 200
mixing_beta = 0.1
conv_thr = 1e-06
/
&IONS
ion_dynamics = 'bfgs'
upscale = 1.0
/
&CELL
/

K_POINTS {automatic}
6 6 1 0 0 0

ATOMIC_SPECIES
C 12.01 C.pbe-n-rrkjus_psl.1.0.0.UPF
In 114.8 In.pbe-dn-rrkjus_psl.1.0.0.UPF
Pd 106.4 Pd.pbe-n-rrkjus_psl.1.0.0.UPF
Sc 44.95 Sc.pbe-spn-rrkjus_psl.1.0.0.UPF
Y 88.90 Y.pbe-spn-rrkjus_psl.1.0.0.UPF


CELL_PARAMETERS {angstrom}
7.36232000 0.00000000 0.00000000
0.00000000 6.98742000 0.00000000
0.00000000 0.00000000 25.23460000

ATOMIC_POSITIONS {angstrom}
Y 1.84102174 5.18578363 1.05632036
Y 1.84058000 1.49614637 -2.6173327099999995 0 0 0
Y 5.52196087 4.87728903 1.25466431
Y 5.52174000 1.49614637 -2.6173327099999995 0 0 0
Sc 1.84058000 1.38225142 0.78883360
Sc 1.84058000 4.98985637 -2.6173327099999995 0 0 0
Sc 5.52151913 1.22021315 0.75703800
Sc 5.52174000 4.98985637 -2.6173327099999995 0 0 0
In 7.20557621 6.66774554 3.16366180
In 0.00000000 3.32657091 -0.8723601199999997 0 0 0
In 3.83775655 6.66725642 3.16391415
In 3.68116000 3.32657091 -0.8723601199999997 0 0 0
Pd 7.33662550 2.84632554 2.03718926
Pd 0.00000000 6.82028091 -0.8723601199999997 0 0 0
Pd 3.70648638 2.84681466 2.03693691
Pd 3.68116000 6.82028091 -0.8723601199999997 0 0 0
C 1.84043275 0.22520455 2.58200427
