&CONTROL
calculation = 'relax'
prefix = 'scf'
pseudo_dir = '/vol0004/mdt0/data/hp150275/u10028/POT_KKJUS'
outdir = './data'
tprnfor = .true.
nstep = 50
disk_io = 'non'
/
&SYSTEM
ibrav = 0
ecutwfc = 50.0
ecutrho = 400
occupations = 'smearing'
smearing = 'mp'
degauss = 0.01
assume_isolated = 'esm'
esm_bc = 'bc1'
input_dft = 'BEEF-VDW'
nosym = .true.
nspin = 1
ntyp = 3
nat = 33
/
&ELECTRONS
electron_maxstep = 200
mixing_beta = 0.1
conv_thr = 1e-06
/
&IONS
ion_dynamics = 'bfgs'
upscale = 1.0
/
&CELL
/

K_POINTS {automatic}
7 7 2 0  0  0

ATOMIC_SPECIES
C 12.01 C.pbe-n-rrkjus_psl.1.0.0.UPF
Ca 40.07 Ca.pbe-spn-rrkjus_psl.1.0.0.UPF
Pb 207.2 Pb.pbe-dn-rrkjus_psl.1.0.0.UPF

CELL_PARAMETERS {angstrom}
10.21910000 0.00000000 0.00000000
-0.00000000 10.21910000 0.00000000
0.00000000 0.00000000 27.66430000

ATOMIC_POSITIONS {angstrom}
Ca 0.00000000 2.55477500 -1.2772607300000018 0 0 0
Ca 2.55477500 0.00000000 -1.2772607300000018 0 0 0
Ca 2.55477500 2.55477500 -3.832058840000002 0 0 0
Ca 0.00000000 2.55477500 3.83205884
Ca 2.55477500 -0.00000000 3.83205884
Ca 2.55477500 2.55477500 1.27726073
Ca 0.00000000 7.66432500 -1.2772607300000018 0 0 0
Ca 2.55477500 5.10955000 -1.2772607300000018 0 0 0
Ca 2.55477500 7.66432500 -3.832058840000002 0 0 0
Ca 0.00000000 7.66432500 3.83205884
Ca 2.55477500 5.10955000 3.83205884
Ca 2.55477500 7.66432500 1.27726073
Ca 5.10955000 2.55477500 -1.2772607300000018 0 0 0
Ca 7.66432500 0.00000000 -1.2772607300000018 0 0 0
Ca 7.66432500 2.55477500 -3.832058840000002 0 0 0
Ca 5.10955000 2.55477500 3.83205884
Ca 7.66432500 -0.00000000 3.83205884
Ca 7.66432500 2.55477500 1.27726073
Ca 5.10955000 7.66432500 -1.2772607300000018 0 0 0
Ca 7.66432500 5.10955000 -1.2772607300000018 0 0 0
Ca 7.66432500 7.66432500 -3.832058840000002 0 0 0
Ca 5.10955000 7.66432500 3.83205884
Ca 7.66432500 5.10955000 3.83205884
Ca 7.66432500 7.66432500 1.27726073
Pb 0.00000000 0.00000000 -3.832058840000002 0 0 0
Pb 0.00000000 0.00000000 1.27726073
Pb 0.00000000 5.10955000 -3.832058840000002 0 0 0
Pb 0.00000000 5.10955000 1.27726073
Pb 5.10955000 0.00000000 -3.832058840000002 0 0 0
Pb 5.10955000 -0.00000000 1.27726073
Pb 5.10955000 5.10955000 -3.832058840000002 0 0 0
Pb 5.10955000 5.10955000 1.27726073
C 2.55477500 2.55477500 4.63211039
