&CONTROL
calculation = 'relax'
prefix = 'scf'
pseudo_dir = '/vol0004/mdt0/data/hp150275/u10028/POT_KKJUS'
outdir = './data'
tprnfor = .true.
nstep = 50
disk_io = 'non'
/
&SYSTEM
ibrav = 0
ecutwfc = 50.0
ecutrho = 400
occupations = 'smearing'
smearing = 'mp'
degauss = 0.01
assume_isolated = 'esm'
esm_bc = 'bc1'
input_dft = 'BEEF-VDW'
nosym = .true.
nspin = 1
ntyp = 5
nat = 34
/
&ELECTRONS
electron_maxstep = 200
mixing_beta = 0.1
conv_thr = 1e-06
/
&IONS
ion_dynamics = 'bfgs'
upscale = 1.0
/
&CELL
/

K_POINTS {automatic}
9 6 2 0  0  0

ATOMIC_SPECIES
C 12.01 C.pbe-n-rrkjus_psl.1.0.0.UPF
Ga 69.72 Ga.pbe-dnl-rrkjus_psl.1.0.0.UPF
Ir 192.2 Ir.pbe-n-rrkjus_psl.0.2.3.UPF
Li 6.941 Li.pbe-sl-rrkjus_psl.1.0.0.UPF
O 15.99 O.pbe-n-rrkjus_psl.1.0.0.UPF

CELL_PARAMETERS {angstrom}
6.01864000 0.00000000 0.00000000
0.00000000 8.51164000 0.00000000
0.00000000 0.00000000 26.38370000

ATOMIC_POSITIONS {angstrom}
Li 0.00000000 6.38373000 -1.0640546200000003 0 0 0
Li 3.00932000 0.00000000 -3.1919000299999993 0 0 0
Li 0.00000000 2.12791000 -1.0640546200000003 0 0 0
Li 3.00932000 4.25582000 -3.1919000299999993 0 0 0
Li 1.50466000 0.00000000 -1.0640546200000003 0 0 0
Li 1.50466000 4.25582000 -1.0640546200000003 0 0 0
Li 4.51398000 6.38373000 -3.1919000299999993 0 0 0
Li 4.51398000 2.12791000 -3.1919000299999993 0 0 0
Li 5.98938941 2.12808023 3.18926166
Li 2.94642521 4.25582000 1.04558603
Li 5.98938941 6.38355977 3.18926166
Li 2.94167049 0.00000000 1.02104919
Li 1.67348285 4.25582000 3.74015331
Li 1.60119899 0.00000000 3.61166469
Li 4.52427187 2.13318722 1.01445326
Li 4.52427187 6.37853790 1.01445326
Ga 1.50466000 2.12791000 -3.1919000299999993 0 0 0
Ga 1.50466000 6.38373000 -3.1919000299999993 0 0 0
Ga 4.51398000 4.25582000 -1.0640546200000003 0 0 0
Ga 4.51398000 0.00000000 -1.0640546200000003 0 0 0
Ga 1.48792818 6.38551744 1.03133883
Ga 1.48792818 2.12620767 1.03133883
Ga 4.35869909 0.00000000 3.12409392
Ga 4.37994489 4.25582000 3.16525249
Ir 0.00000000 0.00000000 -3.1919000299999993 0 0 0
Ir 3.00932000 2.12791000 -1.0640546200000003 0 0 0
Ir 3.00932000 6.38373000 -1.0640546200000003 0 0 0
Ir 0.00000000 4.25582000 -3.1919000299999993 0 0 0
Ir 0.04188973 4.25582000 1.22077380
Ir 3.02635275 6.37326068 3.01644842
Ir 3.02635275 2.13837932 3.01644842
Ir 0.03460718 0.00008512 1.18937720
C 1.42966775 8.51155488 5.70600280
O 1.53824401 8.51146977 6.84129341
