&CONTROL
calculation = 'relax'
prefix = 'scf'
pseudo_dir = '/vol0403/data/hp230205/u10028/POT_HYBRID_KKJUS_GBRV'
outdir = './data'
tprnfor = .true.
nstep = 50
disk_io = 'non'
/
&SYSTEM
ibrav = 0
ecutwfc = 50.0
ecutrho = 400
occupations = 'smearing'
smearing = 'mp'
degauss = 0.01
assume_isolated = 'esm'
esm_bc = 'bc1'
input_dft = 'BEEF-VDW'
nosym = .true.
nspin = 1
ntyp = 6
nat = 34
/
&ELECTRONS
electron_maxstep = 200
mixing_beta = 0.1
conv_thr = 1e-06
/
&IONS
ion_dynamics = 'bfgs'
upscale = 1.0
/
&CELL
/

K_POINTS {automatic}
6 6 1 0 0 0

ATOMIC_SPECIES
C 12.01 C.pbe-n-rrkjus_psl.1.0.0.UPF
In 114.8 In.pbe-dn-rrkjus_psl.1.0.0.UPF
O 15.99 O.pbe-n-rrkjus_psl.1.0.0.UPF
Pd 106.4 Pd.pbe-n-rrkjus_psl.1.0.0.UPF
Sn 118.7 Sn.pbe-dn-rrkjus_psl.1.0.0.UPF
Y 88.90 Y.pbe-spn-rrkjus_psl.1.0.0.UPF


CELL_PARAMETERS {angstrom}
9.06394000 0.00000000 0.00000000
0.00000000 9.16402000 0.00000000
0.00000000 0.00000000 26.55030000

ATOMIC_POSITIONS {angstrom}
Y 2.26353774 2.28385706 3.30020229
Y 2.26598500 2.29100500 -1.0917483399999988 0 0 0
Y 2.26362838 6.88071278 3.29967128
Y 2.26598500 6.87301500 -1.0917483399999988 0 0 0
Y 6.80085546 2.28394870 3.30046779
Y 6.79795500 2.29100500 -1.0917483399999988 0 0 0
Y 6.80067418 6.88071278 3.30020229
Y 6.79795500 6.87301500 -1.0917483399999988 0 0 0
In 0.00045320 0.00054984 3.26462489
In 0.00000000 0.00000000 -1.0917483399999988 0 0 0
In 0.00009064 4.58210164 3.41569609
In 0.00000000 4.58201000 -1.0917483399999988 0 0 0
In 4.53206064 0.00036656 3.33498318
In 4.53197000 0.00000000 -1.0917483399999988 0 0 0
In 4.53197000 4.58237656 3.38330473
In 4.53197000 4.58201000 -1.0917483399999988 0 0 0
Sn 0.00000000 2.35313706 1.16847870
Sn 0.00000000 2.29100500 -3.275245009999999 0 0 0
Sn 0.00000000 6.81088294 1.16847870
Sn 0.00000000 6.87301500 -3.275245009999999 0 0 0
Sn 4.53224192 2.31913854 1.17352326
Sn 4.53197000 2.29100500 -3.275245009999999 0 0 0
Sn 4.53215128 6.84570622 1.17325776
Sn 4.53197000 6.87301500 -3.275245009999999 0 0 0
Pd 2.29861518 0.00064148 1.24228854
Pd 2.26598500 0.00000000 -3.275245009999999 0 0 0
Pd 2.25465508 4.58173508 1.30707127
Pd 2.26598500 4.58201000 -3.275245009999999 0 0 0
Pd 6.76559673 0.00064148 1.24308505
Pd 6.79795500 0.00000000 -3.275245009999999 0 0 0
Pd 6.80883173 4.58201000 1.30733677
Pd 6.79795500 4.58201000 -3.275245009999999 0 0 0
C 9.04517764 9.13799418 7.65976155
O 0.00770435 0.01099682 8.79292835
