&CONTROL
calculation = 'relax'
prefix = 'scf'
pseudo_dir = '/vol0004/mdt0/data/hp150275/u10028/POT_HYBRID_KKJUS_GBRV'
outdir = './data'
tprnfor = .true.
nstep = 50
disk_io = 'non'
/
&SYSTEM
ibrav = 0
ecutwfc = 50.0
ecutrho = 400
occupations = 'smearing'
smearing = 'mp'
degauss = 0.01
assume_isolated = 'esm'
esm_bc = 'bc1'
input_dft = 'BEEF-VDW'
nosym = .true.
nspin = 2
ntyp = 5
nat = 34
starting_magnetization(1) = 0.0
starting_magnetization(2) = 0.1
starting_magnetization(3) = 0.0
starting_magnetization(4) = 0.0
starting_magnetization(5) = 0.0
/
&ELECTRONS
electron_maxstep = 300
mixing_beta = 0.1
conv_thr = 1e-06
/
&IONS
ion_dynamics = 'bfgs'
upscale = 1.0
/
&CELL
/

K_POINTS {automatic}
9 6 2 0  0  0

ATOMIC_SPECIES
C 12.01 C.pbe-n-rrkjus_psl.1.0.0.UPF
Co 58.93 co_pbe_v1.2.uspp.F.UPF
O 15.99 O.pbe-n-rrkjus_psl.1.0.0.UPF
Sn 118.7 Sn.pbe-dn-rrkjus_psl.1.0.0.UPF
V 50.94 V.pbe-spnl-rrkjus_psl.1.0.0.UPF

CELL_PARAMETERS {angstrom}
6.04348000 0.00000000 0.00000000
0.00000000 8.54677000 0.00000000
0.00000000 0.00000000 26.41010000

ATOMIC_POSITIONS {angstrom}
V 0.00000000 0.00000000 -3.2051297400000003 0 0 0
V 3.02174000 2.13669250 -1.068288540000001 0 0 0
V 3.02174000 6.41007750 -1.068288540000001 0 0 0
V 0.00000000 4.27338500 -3.2051297400000003 0 0 0
V 0.00000000 4.27338500 1.06828854
V 3.02174000 6.41007750 3.20512974
V 3.02174000 2.13669250 3.20512974
V 0.00000000 0.00000000 1.06828854
Co 1.51087000 0.00000000 -1.068288540000001 0 0 0
Co 4.53261000 4.27338500 -1.068288540000001 0 0 0
Co 4.53261000 0.00000000 -1.068288540000001 0 0 0
Co 1.51087000 4.27338500 -1.068288540000001 0 0 0
Co 4.53261000 6.41007750 -3.2051297400000003 0 0 0
Co 1.51087000 2.13669250 -3.2051297400000003 0 0 0
Co 1.51087000 6.41007750 -3.2051297400000003 0 0 0
Co 4.53261000 2.13669250 -3.2051297400000003 0 0 0
Co 1.51087000 4.27338500 3.20512974
Co 4.53261000 0.00000000 3.20512974
Co 4.53261000 4.27338500 3.20512974
Co 1.51087000 0.00000000 3.20512974
Co 4.53261000 2.13669250 1.06828854
Co 1.51087000 6.41007750 1.06828854
Co 1.51087000 2.13669250 1.06828854
Co 4.53261000 6.41007750 1.06828854
Sn 0.00000000 6.41007750 -1.068288540000001 0 0 0
Sn 3.02174000 0.00000000 -3.2051297400000003 0 0 0
Sn 0.00000000 2.13669250 -1.068288540000001 0 0 0
Sn 3.02174000 4.27338500 -3.2051297400000003 0 0 0
Sn 0.00000000 2.13669250 3.20512974
Sn 3.02174000 4.27338500 1.06828854
Sn 0.00000000 6.41007750 3.20512974
Sn 3.02174000 0.00000000 1.06828854
C 3.02174000 2.13669250 5.10507233
O 3.02174000 2.13669250 6.25496808
