&CONTROL
calculation = 'relax'
prefix = 'scf'
pseudo_dir = '/vol0403/data/hp230205/u10028/POT_HYBRID_KKJUS_GBRV'
outdir = './data'
tprnfor = .true.
nstep = 50
disk_io = 'non'
/
&SYSTEM
ibrav = 0
ecutwfc = 50.0
ecutrho = 400
occupations = 'smearing'
smearing = 'mp'
degauss = 0.01
assume_isolated = 'esm'
esm_bc = 'bc1'
input_dft = 'BEEF-VDW'
nosym = .true.
nspin = 1
ntyp = 5
nat = 33
/
&ELECTRONS
electron_maxstep = 200
mixing_beta = 0.1
conv_thr = 1e-06
/
&IONS
ion_dynamics = 'bfgs'
upscale = 1.0
/
&CELL
/

K_POINTS {automatic}
6 10 2 0  0  0

ATOMIC_SPECIES
C 12.01 C.pbe-n-rrkjus_psl.1.0.0.UPF
Ge 72.64 Ge.pbe-dn-rrkjus_psl.1.0.0.UPF
Li 6.941 Li.pbe-sl-rrkjus_psl.1.0.0.UPF
Pd 106.4 Pd.pbe-n-rrkjus_psl.1.0.0.UPF
V 50.94 V.pbe-spnl-rrkjus_psl.1.0.0.UPF


CELL_PARAMETERS {angstrom}
9.40562000 0.00000000 0.00000000
0.00000000 5.68832000 0.00000000
0.00000000 0.00000000 26.48090000

ATOMIC_POSITIONS {angstrom}
Li 2.35140500 1.42208000 -3.240467729999999 0 0 0
Li 2.35159311 1.42208000 0.96390476
Li 2.35140500 4.26624000 -3.240467729999999 0 0 0
Li 2.35149906 4.26624000 0.83706125
Li 7.05421500 1.42208000 -3.240467729999999 0 0 0
Li 7.05412094 1.42208000 1.14212122
Li 7.05421500 4.26624000 -3.240467729999999 0 0 0
Li 7.05412094 4.26624000 1.13761946
V 0.00000000 1.42208000 -1.0801559099999984 0 0 0
V 0.28941093 1.42213688 3.54420366
V 0.00000000 4.26624000 -1.0801559099999984 0 0 0
V 9.39254619 4.26618312 3.22457919
V 4.70281000 1.42208000 -1.0801559099999984 0 0 0
V 4.41339907 1.42208000 3.54420366
V 4.70281000 4.26624000 -1.0801559099999984 0 0 0
V 4.71588381 4.26624000 3.22457919
Ge 0.00000000 0.00000000 -3.240467729999999 0 0 0
Ge 0.01881124 0.05438034 1.20302729
Ge 0.00000000 2.84416000 -3.240467729999999 0 0 0
Ge 0.01881124 2.78977966 1.20302729
Ge 4.70281000 0.00000000 -3.240467729999999 0 0 0
Ge 4.68399876 0.05432346 1.20249767
Ge 4.70281000 2.84416000 -3.240467729999999 0 0 0
Ge 4.68399876 2.78983654 1.20249767
Pd 2.35140500 0.00000000 -1.0801559099999984 0 0 0
Pd 2.35131094 5.53792082 2.92375617
Pd 2.35140500 2.84416000 -1.0801559099999984 0 0 0
Pd 2.35131094 2.99455918 2.92375617
Pd 7.05421500 0.00000000 -1.0801559099999984 0 0 0
Pd 7.05421500 0.01569976 3.32891394
Pd 7.05421500 2.84416000 -1.0801559099999984 0 0 0
Pd 7.05412094 2.82846024 3.32891394
C 2.35159311 1.42208000 4.15617726
