&CONTROL
calculation = 'relax'
prefix = 'scf'
pseudo_dir = '/vol0403/data/hp230205/u10028/POT_HYBRID_KKJUS_GBRV'
outdir = './data'
tprnfor = .true.
nstep = 50
disk_io = 'non'
/
&SYSTEM
ibrav = 0
ecutwfc = 50.0
ecutrho = 400
occupations = 'smearing'
smearing = 'mp'
degauss = 0.01
assume_isolated = 'esm'
esm_bc = 'bc1'
input_dft = 'BEEF-VDW'
nosym = .true.
nspin = 1
ntyp = 5
nat = 33
/
&ELECTRONS
electron_maxstep = 200
mixing_beta = 0.1
conv_thr = 1e-06
/
&IONS
ion_dynamics = 'bfgs'
upscale = 1.0
/
&CELL
/

K_POINTS {automatic}
6 6 1 0 0 0

ATOMIC_SPECIES
C 12.01 C.pbe-n-rrkjus_psl.1.0.0.UPF
Ge 72.64 Ge.pbe-dn-rrkjus_psl.1.0.0.UPF
In 114.8 In.pbe-dn-rrkjus_psl.1.0.0.UPF
Li 6.941 Li.pbe-sl-rrkjus_psl.1.0.0.UPF
Mg 24.30 Mg.pbe-spnl-rrkjus_psl.1.0.0.UPF


CELL_PARAMETERS {angstrom}
8.40992000 0.00000000 0.00000000
0.00000000 8.75068000 0.00000000
0.00000000 0.00000000 26.31390000

ATOMIC_POSITIONS {angstrom}
Li 2.10248000 2.18767000 -3.1568785800000008 0 0 0
Li 2.18111275 2.23789890 1.08202757
Li 2.10248000 6.56301000 -3.1568785800000008 0 0 0
Li 2.18111275 6.51278110 1.08202757
Li 6.30744000 2.18767000 -3.1568785800000008 0 0 0
Li 6.22880725 2.23781140 1.08202757
Li 6.30744000 6.56301000 -3.1568785800000008 0 0 0
Li 6.22880725 6.51286860 1.08202757
Mg 2.10248000 0.00000000 -1.0522928600000014 0 0 0
Mg 2.19709160 0.00000000 3.25976593
Mg 2.10248000 4.37534000 -1.0522928600000014 0 0 0
Mg 2.04201268 4.37534000 3.17293006
Mg 6.30744000 0.00000000 -1.0522928600000014 0 0 0
Mg 6.21282840 0.00000000 3.26002907
Mg 6.30744000 4.37534000 -1.0522928600000014 0 0 0
Mg 6.36790732 4.37534000 3.17293006
In 0.00000000 2.18767000 -1.0522928600000014 0 0 0
In 0.00000000 2.22004752 4.00971208
In 0.00000000 6.56301000 -1.0522928600000014 0 0 0
In 0.00000000 6.53063248 4.00971208
In 4.20496000 2.18767000 -1.0522928600000014 0 0 0
In 4.20496000 2.25286257 3.57026995
In 4.20496000 6.56301000 -1.0522928600000014 0 0 0
In 4.20496000 6.49772993 3.57026995
Ge 0.00000000 0.00000000 -3.1568785800000008 0 0 0
Ge 0.00000000 0.00000000 1.12307725
Ge 0.00000000 4.37534000 -3.1568785800000008 0 0 0
Ge 0.00000000 4.37534000 1.18123097
Ge 4.20496000 0.00000000 -3.1568785800000008 0 0 0
Ge 4.20504410 0.00000000 1.20622918
Ge 4.20496000 4.37534000 -3.1568785800000008 0 0 0
Ge 4.20496000 4.37534000 1.19859815
C 0.00000000 0.00000000 3.14030083
