&CONTROL
calculation = 'relax'
prefix = 'scf'
pseudo_dir = '/vol0004/mdt0/data/hp150275/u10028/POT_KKJUS'
outdir = './data'
tprnfor = .true.
nstep = 50
disk_io = 'non'
/
&SYSTEM
ibrav = 0
ecutwfc = 50.0
ecutrho = 400
occupations = 'smearing'
smearing = 'mp'
degauss = 0.01
assume_isolated = 'esm'
esm_bc = 'bc1'
input_dft = 'BEEF-VDW'
nosym = .true.
nspin = 1
ntyp = 3
nat = 32
/
&ELECTRONS
electron_maxstep = 200
mixing_beta = 0.1
conv_thr = 1e-06
/
&IONS
ion_dynamics = 'bfgs'
upscale = 1.0
/
&CELL
/

K_POINTS {automatic}
8 6 1 0 0 0

ATOMIC_SPECIES
Ga 69.72 Ga.pbe-dnl-rrkjus_psl.1.0.0.UPF
Ni 58.69 Ni.pbe-spn-rrkjus_psl.1.0.0.UPF
Zr 91.22 Zr.pbe-spn-rrkjus_psl.1.0.0.UPF

CELL_PARAMETERS {angstrom}
6.14888000 0.00000000 0.00000000
0.00000000 8.69583000 0.00000000
0.00000000 0.00000000 26.52190000

ATOMIC_POSITIONS {angstrom}
Zr 0.00000000 0.00000000 -3.2608676099999983 0 0 0
Zr 3.07444000 2.17395750 -1.086867459999997 0 0 0
Zr 3.07444000 6.52187250 -1.086867459999997 0 0 0
Zr 0.00000000 4.34791500 -3.2608676099999983 0 0 0
Zr 0.00000000 4.34800196 1.05822381
Zr 3.07444000 6.52169858 3.36695521
Zr 3.07444000 2.17413142 3.36722042
Zr 0.00000000 0.00000000 1.05822381
Ga 0.00000000 6.52187250 -1.086867459999997 0 0 0
Ga 3.07444000 0.00000000 -3.2608676099999983 0 0 0
Ga 0.00000000 2.17395750 -1.086867459999997 0 0 0
Ga 3.07444000 4.34791500 -3.2608676099999983 0 0 0
Ga 0.00000000 2.17378358 3.22745001
Ga 3.07444000 4.34756717 1.12611987
Ga 0.00000000 6.52204642 3.22745001
Ga 3.07444000 0.00034783 1.12611987
Ni 1.53722000 0.00000000 -1.086867459999997 0 0 0
Ni 4.61166000 4.34791500 -1.086867459999997 0 0 0
Ni 4.61166000 0.00000000 -1.086867459999997 0 0 0
Ni 1.53722000 4.34791500 -1.086867459999997 0 0 0
Ni 4.61166000 6.52187250 -3.2608676099999983 0 0 0
Ni 1.53722000 2.17395750 -3.2608676099999983 0 0 0
Ni 1.53722000 6.52187250 -3.2608676099999983 0 0 0
Ni 4.61166000 2.17395750 -3.2608676099999983 0 0 0
Ni 1.46177324 4.34791500 3.14125384
Ni 4.68649187 8.69574304 3.14098862
Ni 4.68716825 4.34791500 3.14125384
Ni 1.46238813 0.00000000 3.14098862
Ni 4.49464681 2.17387054 1.16935057
Ni 1.65417170 6.52195946 1.16935057
Ni 1.65423319 2.17395750 1.16961579
Ni 4.49464681 6.52195946 1.16935057
