&CONTROL
calculation = 'relax'
prefix = 'scf'
pseudo_dir = '/vol0004/mdt0/data/hp150275/u10028/POT_KKJUS'
outdir = './data'
tprnfor = .true.
nstep = 50
disk_io = 'non'
/
&SYSTEM
ibrav = 0
ecutwfc = 50.0
ecutrho = 400
occupations = 'smearing'
smearing = 'mp'
degauss = 0.01
assume_isolated = 'esm'
esm_bc = 'bc1'
input_dft = 'BEEF-VDW'
nosym = .true.
nspin = 1
ntyp = 4
nat = 34
/
&ELECTRONS
electron_maxstep = 200
mixing_beta = 0.1
conv_thr = 1e-06
/
&IONS
ion_dynamics = 'bfgs'
upscale = 1.0
/
&CELL
/

K_POINTS {automatic}
9 6 2 0  0  0

ATOMIC_SPECIES
C 12.01 C.pbe-n-rrkjus_psl.1.0.0.UPF
O 15.99 O.pbe-n-rrkjus_psl.1.0.0.UPF
Os 190.2 Os.pbe-spn-rrkjus_psl.1.0.0.UPF
Zr 91.22 Zr.pbe-spn-rrkjus_psl.1.0.0.UPF

CELL_PARAMETERS {angstrom}
6.57738000 0.00000000 0.00000000
0.00000000 9.30182000 0.00000000
0.00000000 0.00000000 26.97640000

ATOMIC_POSITIONS {angstrom}
Zr 1.64434500 2.32545500 -3.4883182800000014 0 0 0
Zr 1.64434500 0.00000000 -1.1626828400000022 0 0 0
Zr 1.67124648 2.32545500 1.17886868
Zr 1.65940720 4.66374651 3.55441046
Zr 1.64434500 6.97636500 -3.4883182800000014 0 0 0
Zr 1.64434500 4.65091000 -1.1626828400000022 0 0 0
Zr 1.64105631 6.97636500 1.20018004
Zr 1.65940720 9.28898349 3.55441046
Zr 4.93303500 2.32545500 -3.4883182800000014 0 0 0
Zr 4.93303500 0.00000000 -1.1626828400000022 0 0 0
Zr 4.90613352 2.32545500 1.17886868
Zr 4.91797280 4.66374651 3.55441046
Zr 4.93303500 6.97636500 -3.4883182800000014 0 0 0
Zr 4.93303500 4.65091000 -1.1626828400000022 0 0 0
Zr 4.93632369 6.97636500 1.20018004
Zr 4.91797280 9.28898349 3.55441046
Os 0.00000000 0.00000000 -3.4883182800000014 0 0 0
Os 0.00000000 2.32545500 -1.1626828400000022 0 0 0
Os 0.00000000 0.04464874 1.20233815
Os 0.00000000 2.32545500 3.48750899
Os 0.00000000 4.65091000 -3.4883182800000014 0 0 0
Os 0.00000000 6.97636500 -1.1626828400000022 0 0 0
Os 0.00000000 4.60626126 1.20233815
Os 0.00000000 6.97636500 3.33536210
Os 3.28869000 0.00000000 -3.4883182800000014 0 0 0
Os 3.28869000 2.32545500 -1.1626828400000022 0 0 0
Os 3.28869000 9.29233214 1.19154759
Os 3.28869000 2.32545500 3.32295295
Os 3.28869000 4.65091000 -3.4883182800000014 0 0 0
Os 3.28869000 6.97636500 -1.1626828400000022 0 0 0
Os 3.28869000 4.66039786 1.19154759
Os 3.28869000 6.97636500 3.33293422
C 0.00000000 2.32545500 5.36209903
O 0.00000000 2.32545500 6.53800030
