&CONTROL
calculation = 'relax'
prefix = 'scf'
pseudo_dir = '/vol0403/data/hp230205/u10028/POT_HYBRID_KKJUS_GBRV'
outdir = './data'
tprnfor = .true.
nstep = 70
disk_io = 'non'
/
&SYSTEM
ibrav = 0
ecutwfc = 50.0
ecutrho = 400
occupations = 'smearing'
smearing = 'mp'
degauss = 0.01
assume_isolated = 'esm'
esm_bc = 'bc1'
input_dft = 'BEEF-VDW'
nosym = .true.
nspin = 1
ntyp = 5
nat = 33
/
&ELECTRONS
electron_maxstep = 200
mixing_beta = 0.1
conv_thr = 1e-06
/
&IONS
ion_dynamics = 'bfgs'
upscale = 1.0
/
&CELL
/

K_POINTS {automatic}
6 6 1 0 0 0

ATOMIC_SPECIES
Al 26.98 Al.pbe-nl-rrkjus_psl.1.0.0.UPF
C 12.01 C.pbe-n-rrkjus_psl.1.0.0.UPF
Ga 69.72 Ga.pbe-dnl-rrkjus_psl.1.0.0.UPF
Pd 106.4 Pd.pbe-n-rrkjus_psl.1.0.0.UPF
Sc 44.95 Sc.pbe-spn-rrkjus_psl.1.0.0.UPF


CELL_PARAMETERS {angstrom}
6.45143000 0.00000000 0.00000000
-0.00000000 9.12370000 0.00000000
0.00000000 0.00000000 26.84280000

ATOMIC_POSITIONS {angstrom}
Sc 0.00000000 2.28092500 -1.140550570000002 0 0 0
Sc 0.00000000 6.84277500 -1.140550570000002 0 0 0
Sc 3.22571500 4.56185000 -3.4213832900000014 0 0 0
Sc 3.22571500 0.00000000 -3.4213832900000014 0 0 0
Sc 6.31994986 6.93592798 3.46782133
Sc 6.32001437 2.18768079 3.46782133
Sc 3.19597391 -0.00000000 1.20041002
Sc 3.26016564 4.56185000 1.17115136
Al 0.00000000 0.00000000 -3.4213832900000014 0 0 0
Al 0.00000000 4.56185000 -3.4213832900000014 0 0 0
Al 3.22571500 6.84277500 -1.140550570000002 0 0 0
Al 3.22571500 2.28092500 -1.140550570000002 0 0 0
Al 6.36523890 4.56185000 1.24255321
Al 6.31324037 -0.00000000 1.38857804
Al 3.22158608 2.35929758 3.34219703
Al 3.22158608 6.76440242 3.34219703
Ga 4.83857250 0.00000000 -1.140550570000002 0 0 0
Ga 4.83857250 4.56185000 -1.140550570000002 0 0 0
Ga 1.61285750 2.28092500 -3.4213832900000014 0 0 0
Ga 1.61285750 6.84277500 -3.4213832900000014 0 0 0
Ga 4.62328828 4.56175876 4.01273017
Ga 4.41129429 -0.00000000 4.01138803
Ga 1.54614971 6.81111576 1.16041424
Ga 1.54614971 2.31258424 1.16041424
Pd 1.61285750 0.00000000 -1.140550570000002 0 0 0
Pd 1.61285750 4.56185000 -1.140550570000002 0 0 0
Pd 4.83857250 2.28092500 -3.4213832900000014 0 0 0
Pd 4.83857250 6.84277500 -3.4213832900000014 0 0 0
Pd 1.66266254 4.56185000 3.24099967
Pd 1.98704044 -0.00000000 3.61438302
Pd 4.84024987 6.82908945 1.04418492
Pd 4.84031439 2.29461055 1.04418492
C 6.31543386 -0.00000000 3.52177536
