&CONTROL
calculation = 'relax'
prefix = 'scf'
pseudo_dir = '/vol0004/mdt0/data/hp150275/u10028/POT_KKJUS'
outdir = './data'
tprnfor = .true.
nstep = 50
disk_io = 'non'
/
&SYSTEM
ibrav = 0
ecutwfc = 50.0
ecutrho = 400
occupations = 'smearing'
smearing = 'mp'
degauss = 0.01
assume_isolated = 'esm'
esm_bc = 'bc1'
input_dft = 'BEEF-VDW'
nosym = .true.
nspin = 1
ntyp = 5
nat = 34
/
&ELECTRONS
electron_maxstep = 200
mixing_beta = 0.1
conv_thr = 1e-06
/
&IONS
ion_dynamics = 'bfgs'
upscale = 1.0
/
&CELL
/

K_POINTS {automatic}
9 6 2 0  0  0

ATOMIC_SPECIES
C 12.01 C.pbe-n-rrkjus_psl.1.0.0.UPF
Ga 69.72 Ga.pbe-dnl-rrkjus_psl.1.0.0.UPF
Ni 58.69 Ni.pbe-spn-rrkjus_psl.1.0.0.UPF
O 15.99 O.pbe-n-rrkjus_psl.1.0.0.UPF
Ti 47.86 Ti.pbe-spn-rrkjus_psl.1.0.0.UPF

CELL_PARAMETERS {angstrom}
5.94410000 0.00000000 0.00000000
0.00000000 8.40623000 0.00000000
0.00000000 0.00000000 26.30470000

ATOMIC_POSITIONS {angstrom}
Ti 0.00000000 0.00000000 -3.1523552499999994 0 0 0
Ti 2.97205000 2.10155750 -1.0508727700000016 0 0 0
Ti 2.97205000 6.30467250 -1.0508727700000016 0 0 0
Ti 0.00000000 4.20311500 -3.1523552499999994 0 0 0
Ti 0.00000000 4.21984340 1.05166191
Ti 2.97205000 6.30475656 3.16813807
Ti 2.97205000 2.10155750 3.12894407
Ti 0.00000000 8.38950160 1.05192495
Ga 0.00000000 6.30467250 -1.0508727700000016 0 0 0
Ga 2.97205000 0.00000000 -3.1523552499999994 0 0 0
Ga 0.00000000 2.10155750 -1.0508727700000016 0 0 0
Ga 2.97205000 4.20311500 -3.1523552499999994 0 0 0
Ga 0.00000000 2.10172562 3.14762040
Ga 2.97205000 4.18495754 1.03640518
Ga 0.00000000 6.30458844 3.16682283
Ga 2.97205000 0.01824152 1.03666823
Ni 1.48602500 0.00000000 -1.0508727700000016 0 0 0
Ni 4.45807500 4.20311500 -1.0508727700000016 0 0 0
Ni 4.45807500 0.00000000 -1.0508727700000016 0 0 0
Ni 1.48602500 4.20311500 -1.0508727700000016 0 0 0
Ni 4.45807500 6.30467250 -3.1523552499999994 0 0 0
Ni 1.48602500 2.10155750 -3.1523552499999994 0 0 0
Ni 1.48602500 6.30467250 -3.1523552499999994 0 0 0
Ni 4.45807500 2.10155750 -3.1523552499999994 0 0 0
Ni 1.45559121 4.21135311 3.02556659
Ni 4.48874656 8.39816002 3.02609269
Ni 4.48850879 4.21126904 3.02556659
Ni 1.45535344 8.39816002 3.02609269
Ni 4.45046655 2.10155750 1.02141150
Ni 1.56757805 6.30467250 1.07980794
Ni 1.49363345 2.10155750 1.02141150
Ni 4.37652195 6.30467250 1.07980794
C 2.97205000 2.10155750 5.27014665
O 2.97205000 2.10155750 6.41992508
