&CONTROL
calculation = 'relax'
prefix = 'scf'
pseudo_dir = '/vol0004/mdt0/data/hp150275/u10028/POT_KKJUS'
outdir = './data'
tprnfor = .true.
nstep = 50
disk_io = 'non'
/
&SYSTEM
ibrav = 0
ecutwfc = 50.0
ecutrho = 400
occupations = 'smearing'
smearing = 'mp'
degauss = 0.01
assume_isolated = 'esm'
esm_bc = 'bc1'
input_dft = 'BEEF-VDW'
nosym = .true.
nspin = 1
ntyp = 4
nat = 17
/
&ELECTRONS
electron_maxstep = 200
mixing_beta = 0.1
conv_thr = 1e-06
/
&IONS
ion_dynamics = 'bfgs'
upscale = 1.0
/
&CELL
/

K_POINTS {automatic}
8 8 1 0 0 0

ATOMIC_SPECIES
Al 26.98 Al.pbe-nl-rrkjus_psl.1.0.0.UPF
C 12.01 C.pbe-n-rrkjus_psl.1.0.0.UPF
Ti 47.86 Ti.pbe-spn-rrkjus_psl.1.0.0.UPF
Zr 91.22 Zr.pbe-spn-rrkjus_psl.1.0.0.UPF

CELL_PARAMETERS {angstrom}
6.81091000 0.00000000 0.00000000
-0.00000000 6.81091000 0.00000000
0.00000000 0.00000000 25.10820000

ATOMIC_POSITIONS {angstrom}
Zr 1.70272750 1.70272750 0.85141906
Zr 5.10818250 5.10818250 -2.5540060999999987 0 0 0
Zr 5.10818250 1.70272750 0.85141906
Zr 1.70272750 5.10818250 -2.5540060999999987 0 0 0
Zr 5.10818250 5.10818250 0.85141906
Zr 1.70272750 1.70272750 -2.5540060999999987 0 0 0
Zr 1.70272750 5.10818250 0.85141906
Zr 5.10818250 1.70272750 -2.5540060999999987 0 0 0
Ti 0.00000000 0.00000000 2.55400610
Ti 3.40545500 3.40545500 2.55400610
Ti 3.40545500 0.00000000 -0.8514190600000013 0 0 0
Ti 0.00000000 3.40545500 -0.8514190600000013 0 0 0
Al 0.00000000 0.00000000 -0.8514190600000013 0 0 0
Al 3.40545500 -0.00000000 2.55400610
Al 0.00000000 3.40545500 2.55400610
Al 3.40545500 3.40545500 -0.8514190600000013 0 0 0
C 1.70272750 1.70272750 3.35420444
