&CONTROL
calculation = 'relax'
prefix = 'scf'
pseudo_dir = '/vol0004/mdt0/data/hp150275/u10028/POT_KKJUS'
outdir = './data'
tprnfor = .true.
nstep = 50
disk_io = 'non'
/
&SYSTEM
ibrav = 0
ecutwfc = 50.0
ecutrho = 400
occupations = 'smearing'
smearing = 'mp'
degauss = 0.01
assume_isolated = 'esm'
esm_bc = 'bc1'
input_dft = 'BEEF-VDW'
nosym = .true.
nspin = 1
ntyp = 3
nat = 33
/
&ELECTRONS
electron_maxstep = 200
mixing_beta = 0.1
conv_thr = 1e-06
/
&IONS
ion_dynamics = 'bfgs'
upscale = 1.0
/
&CELL
/

K_POINTS {automatic}
9 6 2 0  0  0

ATOMIC_SPECIES
C 12.01 C.pbe-n-rrkjus_psl.1.0.0.UPF
Rh 102.9 Rh.pbe-spn-rrkjus_psl.1.0.0.UPF
Si 28.08 Si.pbe-nl-rrkjus_psl.1.0.0.UPF

CELL_PARAMETERS {angstrom}
5.95743000 0.00000000 0.00000000
0.00000000 8.42507000 0.00000000
0.00000000 0.00000000 26.31880000

ATOMIC_POSITIONS {angstrom}
Si 1.48935750 2.10626750 -3.159308750000001 0 0 0
Si 1.48935750 0.00000000 -1.05301519 0 0 0
Si 1.48733197 2.10913202 1.09617802
Si 1.53910204 4.21278775 3.21457823
Si 1.48935750 6.31880250 -3.159308750000001 0 0 0
Si 1.48935750 4.21253500 -1.05301519 0 0 0
Si 1.48721283 6.31610648 1.09591483
Si 1.76024184 8.42490150 3.35880526
Si 4.46807250 2.10626750 -3.159308750000001 0 0 0
Si 4.46807250 0.00000000 -1.05301519 0 0 0
Si 4.47009803 2.10913202 1.09617802
Si 4.41832796 4.21278775 3.21457823
Si 4.46807250 6.31880250 -3.159308750000001 0 0 0
Si 4.46807250 4.21253500 -1.05301519 0 0 0
Si 4.47021717 6.31610648 1.09591483
Si 4.19718816 8.42490150 3.35880526
Rh 0.00000000 0.00000000 -3.159308750000001 0 0 0
Rh 0.00000000 2.10626750 -1.05301519 0 0 0
Rh 0.00000000 8.42481725 1.00432541
Rh 0.00000000 2.28361522 2.97323484
Rh 0.00000000 4.21253500 -3.159308750000001 0 0 0
Rh 0.00000000 6.31880250 -1.05301519 0 0 0
Rh 0.00000000 4.21219800 0.90299803
Rh 0.00000000 6.14170753 2.97349802
Rh 2.97871500 0.00000000 -3.159308750000001 0 0 0
Rh 2.97871500 2.10626750 -1.05301519 0 0 0
Rh 2.97871500 0.00000000 0.97826980
Rh 2.97871500 2.08950161 3.01455535
Rh 2.97871500 4.21253500 -3.159308750000001 0 0 0
Rh 2.97871500 6.31880250 -1.05301519 0 0 0
Rh 2.97871500 4.21261925 1.01406336
Rh 2.97871500 6.33548414 3.01455535
C 0.00000000 0.00008425 3.51698124
