&CONTROL
calculation = 'relax'
prefix = 'scf'
pseudo_dir = '/vol0004/mdt0/data/hp150275/u10028/POT_KKJUS'
outdir = './data'
tprnfor = .true.
nstep = 50
disk_io = 'non'
/
&SYSTEM
ibrav = 0
ecutwfc = 50.0
ecutrho = 400
occupations = 'smearing'
smearing = 'mp'
degauss = 0.01
assume_isolated = 'esm'
esm_bc = 'bc1'
input_dft = 'BEEF-VDW'
nosym = .true.
nspin = 1
ntyp = 4
nat = 18
/
&ELECTRONS
electron_maxstep = 200
mixing_beta = 0.1
conv_thr = 1e-06
/
&IONS
ion_dynamics = 'bfgs'
upscale = 1.0
/
&CELL
/

K_POINTS {automatic}
6 8 1 0 0 0

ATOMIC_SPECIES
C 12.01 C.pbe-n-rrkjus_psl.1.0.0.UPF
Ni 58.69 Ni.pbe-spn-rrkjus_psl.1.0.0.UPF
O 15.99 O.pbe-n-rrkjus_psl.1.0.0.UPF
Sn 118.7 Sn.pbe-dn-rrkjus_psl.1.0.0.UPF

CELL_PARAMETERS {angstrom}
7.54412000 0.00000000 0.00000000
0.00000000 5.33450000 0.00000000
0.00000000 0.00000000 24.00090000

ATOMIC_POSITIONS {angstrom}
Ni 0.00000000 2.66719666 1.86102979
Ni 1.88670897 4.03314873 0.66890508
Ni 1.88678441 1.30097786 0.66890508
Ni 0.00000000 0.00000000 -0.6667450000000024 0 0 0
Ni 1.88603000 1.33362500 -2.0004750100000024 0 0 0
Ni 1.88603000 4.00087500 -2.0004750100000024 0 0 0
Ni 3.77198456 2.66719666 1.86342988
Ni 5.65741103 4.03336211 0.66842506
Ni 5.65726015 1.30135128 0.66818506
Ni 3.77206000 0.00000000 -0.6667450000000024 0 0 0
Ni 5.65809000 1.33362500 -2.0004750100000024 0 0 0
Ni 5.65809000 4.00087500 -2.0004750100000024 0 0 0
Sn 7.54404456 0.00000000 2.07679788
Sn 0.00000000 2.66725000 -0.6667450000000024 0 0 0
Sn 3.77206000 5.33444666 2.09023838
Sn 3.77206000 2.66725000 -0.6667450000000024 0 0 0
C 0.00105618 5.33439331 6.14255034
O 0.00037721 5.33433997 7.27731289
