&CONTROL
calculation = 'relax'
prefix = 'scf'
pseudo_dir = '/vol0403/data/hp230205/u10028/POT_HYBRID_KKJUS_GBRV'
outdir = './data'
tprnfor = .true.
nstep = 50
disk_io = 'non'
/
&SYSTEM
ibrav = 0
ecutwfc = 50.0
ecutrho = 400
occupations = 'smearing'
smearing = 'mp'
degauss = 0.01
assume_isolated = 'esm'
esm_bc = 'bc1'
input_dft = 'BEEF-VDW'
nosym = .true.
nspin = 1
ntyp = 6
nat = 18
/
&ELECTRONS
electron_maxstep = 200
mixing_beta = 0.1
conv_thr = 1e-06
/
&IONS
ion_dynamics = 'bfgs'
upscale = 1.0
/
&CELL
/

K_POINTS {automatic}
8 8 1 0 0 0

ATOMIC_SPECIES
C 12.01 C.pbe-n-rrkjus_psl.1.0.0.UPF
Ge 72.64 Ge.pbe-dn-rrkjus_psl.1.0.0.UPF
Li 6.941 Li.pbe-sl-rrkjus_psl.1.0.0.UPF
O 15.99 O.pbe-n-rrkjus_psl.1.0.0.UPF
Pb 207.2 Pb.pbe-dn-rrkjus_psl.1.0.0.UPF
Pd 106.4 Pd.pbe-n-rrkjus_psl.1.0.0.UPF


CELL_PARAMETERS {angstrom}
6.74945000 0.00000000 0.00000000
0.00000000 6.74945000 0.00000000
0.00000000 0.00000000 25.06210000

ATOMIC_POSITIONS {angstrom}
Li 1.69687922 1.69579931 0.84609650
Li 1.68736250 5.06208750 -2.5310214799999997 0 0 0
Li 5.06208750 1.68736250 -2.5310214799999997 0 0 0
Li 5.05432563 5.05236829 0.84609650
Ge 0.00020248 0.00013499 2.20696853
Ge 0.00000000 3.37472500 -0.8435902900000016 0 0 0
Ge 3.37472500 0.00000000 -0.8435902900000016 0 0 0
Ge 3.37479249 3.37506247 2.25157906
Pd 5.05527056 1.69404446 0.80148596
Pd 5.06208750 5.06208750 -2.5310214799999997 0 0 0
Pd 1.68736250 1.68736250 -2.5310214799999997 0 0 0
Pd 1.69350450 5.05473060 0.80123534
Pb 0.00013499 3.37418504 2.78013875
Pb 0.00000000 0.00000000 -0.8435902900000016 0 0 0
Pb 3.37472500 3.37472500 -0.8435902900000016 0 0 0
Pb 3.37512997 6.74864007 2.77988813
C 6.74465789 0.00229481 6.38281563
O 0.00047246 6.74924752 7.51787814
