&CONTROL
calculation = 'relax'
prefix = 'scf'
pseudo_dir = '/vol0403/data/hp230205/u10028/POT_HYBRID_KKJUS_GBRV'
outdir = './data'
tprnfor = .true.
nstep = 50
disk_io = 'non'
/
&SYSTEM
ibrav = 0
ecutwfc = 50.0
ecutrho = 400
occupations = 'smearing'
smearing = 'mp'
degauss = 0.01
assume_isolated = 'esm'
esm_bc = 'bc1'
input_dft = 'BEEF-VDW'
nosym = .true.
nspin = 1
ntyp = 5
nat = 17
/
&ELECTRONS
electron_maxstep = 200
mixing_beta = 0.1
conv_thr = 1e-06
/
&IONS
ion_dynamics = 'bfgs'
upscale = 1.0
/
&CELL
/

K_POINTS {automatic}
6 6 1 0 0 0

ATOMIC_SPECIES
C 12.01 C.pbe-n-rrkjus_psl.1.0.0.UPF
Ge 72.64 Ge.pbe-dn-rrkjus_psl.1.0.0.UPF
Li 6.941 Li.pbe-sl-rrkjus_psl.1.0.0.UPF
Sn 118.7 Sn.pbe-dn-rrkjus_psl.1.0.0.UPF
Y 88.90 Y.pbe-spn-rrkjus_psl.1.0.0.UPF


CELL_PARAMETERS {angstrom}
6.38551000 0.00000000 0.00000000
0.00000000 8.52742000 0.00000000
0.00000000 0.00000000 24.76910000

ATOMIC_POSITIONS {angstrom}
Li 4.78357711 2.13176973 1.07200665
Li 1.15897007 2.13185500 -2.384521260000003 0 0 0
Li 4.51685435 6.39556500 0.68957174
Li 1.15897007 6.39556500 -2.384521260000003 0 0 0
Y 1.50474543 2.13185500 0.71359777
Y 4.35172507 2.13185500 -2.384521260000003 0 0 0
Y 1.33546556 6.39556500 0.86468928
Y 4.35172507 6.39556500 -2.384521260000003 0 0 0
Sn 3.28732440 8.46423182 2.13237182
Sn 6.09388376 0.00000000 -0.7948404200000034 0 0 0
Sn 3.28751597 4.32698346 2.13237182
Sn 6.09388376 4.26371000 -0.7948404200000034 0 0 0
Ge 6.28468280 0.25232636 2.65376137
Ge 2.90112876 0.00000000 -0.7948404200000034 0 0 0
Ge 6.28468280 4.01112782 2.65376137
Ge 2.90112876 4.26371000 -0.7948404200000034 0 0 0
C 0.01392041 2.13176973 2.51282520
