&CONTROL
calculation = 'relax'
prefix = 'scf'
pseudo_dir = '/vol0004/mdt0/data/hp150275/u10028/POT_KKJUS'
outdir = './data'
tprnfor = .true.
nstep = 50
disk_io = 'non'
/
&SYSTEM
ibrav = 0
ecutwfc = 50.0
ecutrho = 400
occupations = 'smearing'
smearing = 'mp'
degauss = 0.01
assume_isolated = 'esm'
esm_bc = 'bc1'
input_dft = 'BEEF-VDW'
nosym = .true.
nspin = 1
ntyp = 4
nat = 34
/
&ELECTRONS
electron_maxstep = 200
mixing_beta = 0.1
conv_thr = 1e-06
/
&IONS
ion_dynamics = 'bfgs'
upscale = 1.0
/
&CELL
/

K_POINTS {automatic}
8 6 1 0 0 0

ATOMIC_SPECIES
C 12.01 C.pbe-n-rrkjus_psl.1.0.0.UPF
Ir 192.2 Ir.pbe-n-rrkjus_psl.0.2.3.UPF
O 15.99 O.pbe-n-rrkjus_psl.1.0.0.UPF
Sc 44.95 Sc.pbe-spn-rrkjus_psl.1.0.0.UPF

CELL_PARAMETERS {angstrom}
6.46830000 0.00000000 0.00000000
0.00000000 9.14755000 0.00000000
0.00000000 0.00000000 26.86070000

ATOMIC_POSITIONS {angstrom}
Sc 1.61707500 2.28688750 -3.430380000000003 0 0 0
Sc 1.61707500 0.00000000 -1.143460000000001 0 0 0
Sc 1.64928713 2.28688750 1.16414274
Sc 1.63570370 9.11681423 3.53191344
Sc 1.61707500 6.86066250 -3.430380000000003 0 0 0
Sc 1.61707500 4.57377500 -1.143460000000001 0 0 0
Sc 1.61118885 6.86057102 1.18643712
Sc 1.63563902 4.60451077 3.53218205
Sc 4.85122500 2.28688750 -3.430380000000003 0 0 0
Sc 4.85122500 0.00000000 -1.143460000000001 0 0 0
Sc 4.81894818 2.28688750 1.16414274
Sc 4.83266098 9.11681423 3.53191344
Sc 4.85122500 6.86066250 -3.430380000000003 0 0 0
Sc 4.85122500 4.57377500 -1.143460000000001 0 0 0
Sc 4.85698179 6.86066250 1.18670573
Sc 4.83266098 4.60451077 3.53218205
Ir 0.00000000 0.00000000 -3.430380000000003 0 0 0
Ir 0.00000000 2.28688750 -1.143460000000001 0 0 0
Ir 0.00000000 0.05726366 1.22135603
Ir 0.00000000 2.28688750 3.48866772
Ir 0.00000000 4.57377500 -3.430380000000003 0 0 0
Ir 0.00000000 6.86066250 -1.143460000000001 0 0 0
Ir 0.00000000 4.51651134 1.22135603
Ir 0.00000000 6.86066250 3.32159416
Ir 3.23415000 0.00000000 -3.430380000000003 0 0 0
Ir 3.23415000 2.28688750 -1.143460000000001 0 0 0
Ir 3.23415000 9.14160409 1.19959886
Ir 3.23415000 2.28688750 3.32266859
Ir 3.23415000 4.57377500 -3.430380000000003 0 0 0
Ir 3.23415000 6.86066250 -1.143460000000001 0 0 0
Ir 3.23415000 4.57972091 1.19959886
Ir 3.23415000 6.86066250 3.32696630
C 0.00000000 2.28688750 5.35306890
O 0.00000000 2.28688750 6.52338960
