&CONTROL
calculation = 'relax'
prefix = 'scf'
pseudo_dir = '/vol0004/mdt0/data/hp150275/u10028/POT_KKJUS'
outdir = './data'
tprnfor = .true.
nstep = 50
disk_io = 'non'
/
&SYSTEM
ibrav = 0
ecutwfc = 50.0
ecutrho = 400
occupations = 'smearing'
smearing = 'mp'
degauss = 0.01
assume_isolated = 'esm'
esm_bc = 'bc1'
input_dft = 'BEEF-VDW'
nosym = .true.
nspin = 1
ntyp = 3
nat = 33
/
&ELECTRONS
electron_maxstep = 200
mixing_beta = 0.1
conv_thr = 1e-06
/
&IONS
ion_dynamics = 'bfgs'
upscale = 1.0
/
&CELL
/

K_POINTS {automatic}
9 6 2 0  0  0

ATOMIC_SPECIES
C 12.01 C.pbe-n-rrkjus_psl.1.0.0.UPF
Ir 192.2 Ir.pbe-n-rrkjus_psl.0.2.3.UPF
Ti 47.86 Ti.pbe-spn-rrkjus_psl.1.0.0.UPF

CELL_PARAMETERS {angstrom}
6.26165000 0.00000000 0.00000000
0.00000000 8.85530000 0.00000000
0.00000000 0.00000000 26.64150000

ATOMIC_POSITIONS {angstrom}
Ti 1.56541250 2.21382500 -3.320862980000001 0 0 0
Ti 1.56541250 0.00000000 -1.1069543199999998 0 0 0
Ti 1.56528727 2.21382500 1.20126523
Ti 1.56547512 0.04029162 3.46552632
Ti 1.56541250 6.64147500 -3.320862980000001 0 0 0
Ti 1.56541250 4.42765000 -1.1069543199999998 0 0 0
Ti 1.56560035 6.64147500 1.14771582
Ti 1.56547512 4.38735838 3.46552632
Ti 4.69623750 2.21382500 -3.320862980000001 0 0 0
Ti 4.69623750 0.00000000 -1.1069543199999998 0 0 0
Ti 4.69623750 2.21382500 1.02223436
Ti 4.69567395 8.79021355 3.40265238
Ti 4.69623750 6.64147500 -3.320862980000001 0 0 0
Ti 4.69623750 4.42765000 -1.1069543199999998 0 0 0
Ti 4.69604965 6.64147500 1.16103657
Ti 4.69561134 4.49264790 3.40265238
Ir 0.00000000 0.00000000 -3.320862980000001 0 0 0
Ir 0.00000000 2.21382500 -1.1069543199999998 0 0 0
Ir 0.01064481 0.00920951 1.14824865
Ir 6.02821569 2.21373645 3.19218453
Ir 0.00000000 4.42765000 -3.320862980000001 0 0 0
Ir 0.00000000 6.64147500 -1.1069543199999998 0 0 0
Ir 0.01070742 4.41844049 1.14824865
Ir 0.04652406 6.64147500 3.18525774
Ir 3.13082500 0.00000000 -3.320862980000001 0 0 0
Ir 3.13082500 2.21382500 -1.1069543199999998 0 0 0
Ir 3.12061851 0.00929807 1.14798224
Ir 3.36012662 2.21373645 3.19165170
Ir 3.13082500 4.42765000 -3.320862980000001 0 0 0
Ir 3.13082500 6.64147500 -1.1069543199999998 0 0 0
Ir 3.12061851 4.41835194 1.14798224
Ir 3.08367478 6.64156355 3.18552415
C 1.56278261 2.21391355 3.86434958
