&CONTROL
calculation = 'relax'
prefix = 'scf'
pseudo_dir = '/vol0004/mdt0/data/hp150275/u10028/POT_HYBRID_KKJUS_GBRV'
outdir = './data'
tprnfor = .true.
nstep = 50
disk_io = 'non'
/
&SYSTEM
ibrav = 0
ecutwfc = 50.0
ecutrho = 400
occupations = 'smearing'
smearing = 'mp'
degauss = 0.01
assume_isolated = 'esm'
esm_bc = 'bc1'
input_dft = 'BEEF-VDW'
nosym = .true.
nspin = 2
ntyp = 5
nat = 18
starting_magnetization(1) = 0.0
starting_magnetization(2) = 0.1
starting_magnetization(3) = 0.1
starting_magnetization(4) = 0.0
starting_magnetization(5) = 0.0
/
&ELECTRONS
electron_maxstep = 300
mixing_beta = 0.1
conv_thr = 1e-06
/
&IONS
ion_dynamics = 'bfgs'
upscale = 1.0
/
&CELL
/

K_POINTS {automatic}
8 8 1 0 0 0

ATOMIC_SPECIES
C 12.01 C.pbe-n-rrkjus_psl.1.0.0.UPF
Cr 51.99 cr_pbe_v1.5.uspp.F.UPF
Fe 55.84 fe_pbe_v1.5.uspp.F.UPF
Ga 69.72 Ga.pbe-dnl-rrkjus_psl.1.0.0.UPF
O 15.99 O.pbe-n-rrkjus_psl.1.0.0.UPF

CELL_PARAMETERS {angstrom}
6.89656000 0.00000000 0.00000000
0.00000000 6.89656000 0.00000000
0.00000000 0.00000000 25.17240000

ATOMIC_POSITIONS {angstrom}
Cr 0.35896595 6.60090447 1.69435424
Cr 3.15524517 3.41524548 1.72103699
Cr 3.44828000 0.00000000 -0.8621547000000014 0 0 0
Cr 0.00000000 3.44828000 -0.8621547000000014 0 0 0
Ga 0.00000000 0.00000000 -0.8621547000000014 0 0 0
Ga 3.13752101 0.20262093 1.55313708
Ga 0.37786252 3.68262511 1.55489915
Ga 3.44828000 3.44828000 -0.8621547000000014 0 0 0
Fe 1.71682965 1.71972620 -0.0964102899999979 0 0 0
Fe 5.17242000 5.17242000 -2.586212379999999 0 0 0
Fe 5.16890275 1.72165724 0.01107586
Fe 1.72414000 5.17242000 -2.586212379999999 0 0 0
Fe 5.17207517 5.14386824 -0.09691373999999797 0 0 0
Fe 1.72414000 1.72414000 -2.586212379999999 0 0 0
Fe 1.73082966 5.17124758 -0.0964102899999979 0 0 0
Fe 5.17242000 1.72414000 -2.586212379999999 0 0 0
C 0.11048289 6.87855998 3.68297384
O 6.84855994 0.09558632 4.81648702
