&CONTROL
calculation = 'relax'
prefix = 'scf'
pseudo_dir = '/vol0403/data/hp230205/u10028/POT_HYBRID_KKJUS_GBRV'
outdir = './data'
tprnfor = .true.
nstep = 50
disk_io = 'non'
/
&SYSTEM
ibrav = 0
ecutwfc = 50.0
ecutrho = 400
occupations = 'smearing'
smearing = 'mp'
degauss = 0.01
assume_isolated = 'esm'
esm_bc = 'bc1'
input_dft = 'BEEF-VDW'
nosym = .true.
nspin = 2
ntyp = 4
nat = 32
starting_magnetization(1) = 0.0
starting_magnetization(2) = 0.1
starting_magnetization(3) = 0.0
starting_magnetization(4) = 0.0
/
&ELECTRONS
electron_maxstep = 400
mixing_beta = 0.05
conv_thr = 1e-06
/
&IONS
ion_dynamics = 'bfgs'
upscale = 1.0
/
&CELL
/

K_POINTS {automatic}
6 6 1 0 0 0

ATOMIC_SPECIES
In 114.8 In.pbe-dn-rrkjus_psl.1.0.0.UPF
Mn 54.93 mn_pbe_v1.5.uspp.F.UPF
Pd 106.4 Pd.pbe-n-rrkjus_psl.1.0.0.UPF
Y 88.90 Y.pbe-spn-rrkjus_psl.1.0.0.UPF


CELL_PARAMETERS {angstrom}
6.85874000 0.00000000 0.00000000
0.00000000 9.69972000 0.00000000
0.00000000 0.00000000 27.27480000

ATOMIC_POSITIONS {angstrom}
Y 0.00000000 2.42493000 -1.2123648599999974 0 0 0
Y 0.00000000 7.27479000 -1.2123648599999974 0 0 0
Y 3.42937000 4.84986000 -3.63736733 0 0 0
Y 3.42937000 0.00000000 -3.63736733 0 0 0
Y 6.69131816 7.27488700 3.69464441
Y 6.69076946 2.42376603 3.69109868
Y 3.43568004 9.69933201 1.19572723
Y 3.43519993 4.85034499 1.19518174
Mn 5.14405500 0.00000000 -1.2123648599999974 0 0 0
Mn 5.14405500 4.84986000 -1.2123648599999974 0 0 0
Mn 1.71468500 2.42493000 -3.63736733 0 0 0
Mn 1.71468500 7.27479000 -3.63736733 0 0 0
Mn 4.67100770 4.84966601 4.02357850
Mn 4.66943019 9.69933201 4.02548773
Mn 1.61399870 7.27488700 1.36483099
Mn 1.61495892 2.42493000 1.36264901
In 0.00000000 0.00000000 -3.63736733 0 0 0
In 0.00000000 4.84986000 -3.63736733 0 0 0
In 3.42937000 7.27479000 -1.2123648599999974 0 0 0
In 3.42937000 2.42493000 -1.2123648599999974 0 0 0
In 6.76470667 4.84976300 1.24509462
In 6.76532396 0.00009700 1.24454912
In 3.30454093 2.42483300 3.71782799
In 3.30392365 7.27430501 3.72055547
Pd 1.71468500 0.00000000 -1.2123648599999974 0 0 0
Pd 1.71468500 4.84986000 -1.2123648599999974 0 0 0
Pd 5.14405500 2.42493000 -3.63736733 0 0 0
Pd 5.14405500 7.27479000 -3.63736733 0 0 0
Pd 1.72675638 4.85015099 3.38725741
Pd 1.72703073 9.69884703 3.38753016
Pd 5.16442546 7.27488700 1.18699930
Pd 5.16367100 2.42502700 1.18509006
