&CONTROL
calculation = 'relax'
prefix = 'scf'
pseudo_dir = '/vol0403/data/hp230205/u10028/POT_HYBRID_KKJUS_GBRV'
outdir = './data'
tprnfor = .true.
nstep = 50
disk_io = 'non'
/
&SYSTEM
ibrav = 0
ecutwfc = 50.0
ecutrho = 400
occupations = 'smearing'
smearing = 'mp'
degauss = 0.01
assume_isolated = 'esm'
esm_bc = 'bc1'
input_dft = 'BEEF-VDW'
nosym = .true.
nspin = 2
ntyp = 4
nat = 32
starting_magnetization(1) = 0.0
starting_magnetization(2) = 0.1
starting_magnetization(3) = 0.0
starting_magnetization(4) = 0.0
/
&ELECTRONS
electron_maxstep = 400
mixing_beta = 0.05
conv_thr = 1e-06
/
&IONS
ion_dynamics = 'bfgs'
upscale = 1.0
/
&CELL
/

K_POINTS {automatic}
9 6 2 0  0  0

ATOMIC_SPECIES
In 114.8 In.pbe-dn-rrkjus_psl.1.0.0.UPF
Mn 54.93 mn_pbe_v1.5.uspp.F.UPF
Pd 106.4 Pd.pbe-n-rrkjus_psl.1.0.0.UPF
Y 88.90 Y.pbe-spn-rrkjus_psl.1.0.0.UPF


CELL_PARAMETERS {angstrom}
6.85874000 0.00000000 0.00000000
0.00000000 9.69972000 0.00000000
0.00000000 0.00000000 27.27480000

ATOMIC_POSITIONS {angstrom}
Y 0.00000000 2.42493000 26.06243514
Y 0.00000000 7.27479000 26.06243514
Y 3.42937000 4.84986000 23.63743267
Y 3.42937000 0.00000000 23.63743267
Y 6.69159251 7.27488700 3.69409891
Y 6.69111239 2.42376603 3.69082594
Y 3.43616015 9.69933201 1.19545448
Y 3.43568004 4.85034499 1.19490899
Mn 5.14405500 0.00000000 26.06243514
Mn 5.14405500 4.84986000 26.06243514
Mn 1.71468500 2.42493000 23.63743267
Mn 1.71468500 7.27479000 23.63743267
Mn 4.67066477 4.84966601 4.02412399
Mn 4.66908725 9.69933201 4.02603323
Mn 1.61365576 7.27488700 1.36455824
Mn 1.61468457 2.42493000 1.36264901
In 0.00000000 0.00000000 23.63743267
In 0.00000000 4.84986000 23.63743267
In 3.42937000 7.27479000 26.06243514
In 3.42937000 2.42493000 26.06243514
In 6.76504961 4.84976300 1.24509462
In 6.76559831 0.00009700 1.24454912
In 3.30440376 2.42483300 3.71837348
In 3.30385506 7.27430501 3.72082822
Pd 1.71468500 0.00000000 26.06243514
Pd 1.71468500 4.84986000 26.06243514
Pd 5.14405500 2.42493000 23.63743267
Pd 5.14405500 7.27479000 23.63743267
Pd 1.72668779 4.85015099 3.38780291
Pd 1.72703073 9.69884703 3.38807566
Pd 5.16421970 7.27488700 1.18672655
Pd 5.16346523 2.42502700 1.18481731
