&CONTROL
calculation = 'relax'
prefix = 'scf'
pseudo_dir = '/vol0004/mdt0/data/hp150275/u10028/POT_KKJUS'
outdir = './data'
tprnfor = .true.
nstep = 50
disk_io = 'non'
/
&SYSTEM
ibrav = 0
ecutwfc = 50.0
ecutrho = 400
occupations = 'smearing'
smearing = 'mp'
degauss = 0.01
assume_isolated = 'esm'
esm_bc = 'bc1'
input_dft = 'BEEF-VDW'
nosym = .true.
nspin = 1
ntyp = 4
nat = 33
/
&ELECTRONS
electron_maxstep = 200
mixing_beta = 0.1
conv_thr = 1e-06
/
&IONS
ion_dynamics = 'bfgs'
upscale = 1.0
/
&CELL
/

K_POINTS {automatic}
9 6 2 0  0  0

ATOMIC_SPECIES
C 12.01 C.pbe-n-rrkjus_psl.1.0.0.UPF
Hf 178.4 Hf.pbe-spn-rrkjus_psl.1.0.0.UPF
Ni 58.69 Ni.pbe-spn-rrkjus_psl.1.0.0.UPF
Sn 118.7 Sn.pbe-dn-rrkjus_psl.1.0.0.UPF

CELL_PARAMETERS {angstrom}
6.28964000 0.00000000 0.00000000
0.00000000 8.89490000 0.00000000
0.00000000 0.00000000 26.67120000

ATOMIC_POSITIONS {angstrom}
Hf 0.00000000 0.00000000 -3.335500269999997 0 0 0
Hf 3.14482000 2.22372500 -1.1119223299999987 0 0 0
Hf 3.14482000 6.67117500 -1.1119223299999987 0 0 0
Hf 0.00000000 4.44745000 -3.335500269999997 0 0 0
Hf 0.00000000 4.44753895 1.12525793
Hf 3.14482000 6.75887871 3.40137814
Hf 3.14482000 2.13602129 3.40164485
Hf 0.00000000 8.89481105 1.13192573
Ni 1.57241000 0.00000000 -1.1119223299999987 0 0 0
Ni 4.71723000 4.44745000 -1.1119223299999987 0 0 0
Ni 4.71723000 0.00000000 -1.1119223299999987 0 0 0
Ni 1.57241000 4.44745000 -1.1119223299999987 0 0 0
Ni 4.71723000 6.67117500 -3.335500269999997 0 0 0
Ni 1.57241000 2.22372500 -3.335500269999997 0 0 0
Ni 1.57241000 6.67117500 -3.335500269999997 0 0 0
Ni 4.71723000 2.22372500 -3.335500269999997 0 0 0
Ni 1.60863833 4.44745000 3.21948055
Ni 4.97692924 0.00000000 3.34936930
Ni 4.68106457 4.44745000 3.21948055
Ni 1.31271076 0.00000000 3.34936930
Ni 4.66848529 2.22737191 1.17113239
Ni 1.62121761 6.66761704 1.17086568
Ni 1.62115471 2.22737191 1.17086568
Ni 4.66842239 6.66752809 1.17113239
Sn 0.00000000 6.67117500 -1.1119223299999987 0 0 0
Sn 3.14482000 0.00000000 -3.335500269999997 0 0 0
Sn 0.00000000 2.22372500 -1.1119223299999987 0 0 0
Sn 3.14482000 4.44745000 -3.335500269999997 0 0 0
Sn 0.00000000 2.29746372 3.51313046
Sn 3.14482000 4.44736105 1.09511947
Sn 0.00000000 6.59743628 3.51313046
Sn 3.14482000 0.00008895 1.12499122
C 3.14482000 0.00000000 3.86625715
