&CONTROL
calculation = 'relax'
prefix = 'scf'
pseudo_dir = '/vol0004/mdt0/data/hp150275/u10028/POT_HYBRID_KKJUS_GBRV'
outdir = './data'
tprnfor = .true.
nstep = 50
disk_io = 'non'
/
&SYSTEM
ibrav = 0
ecutwfc = 50.0
ecutrho = 400
occupations = 'smearing'
smearing = 'mp'
degauss = 0.01
assume_isolated = 'esm'
esm_bc = 'bc1'
input_dft = 'BEEF-VDW'
nosym = .true.
nspin = 2
ntyp = 4
nat = 33
starting_magnetization(1) = 0.0
starting_magnetization(2) = 0.0
starting_magnetization(3) = 0.001
starting_magnetization(4) = 0.0
/
&ELECTRONS
electron_maxstep = 200
mixing_beta = 0.1
conv_thr = 1e-06
/
&IONS
ion_dynamics = 'bfgs'
upscale = 1.0
/
&CELL
/

K_POINTS {automatic}
9 6 2 0  0  0

ATOMIC_SPECIES
Al 26.98 Al.pbe-nl-rrkjus_psl.1.0.0.UPF
C 12.01 C.pbe-n-rrkjus_psl.1.0.0.UPF
Ni 58.69 ni_pbe_v1.4.uspp.F.UPF
V 50.94 V.pbe-spnl-rrkjus_psl.1.0.0.UPF

CELL_PARAMETERS {angstrom}
5.81764000 0.00000000 0.00000000
0.00000000 8.22738000 0.00000000
0.00000000 0.00000000 26.17050000

ATOMIC_POSITIONS {angstrom}
Al 0.00000000 0.00000000 23.08525975
Al 2.90882000 2.05684500 25.14199935
Al 2.90882000 6.17053500 25.14199935
Al 0.00000000 4.11369000 23.08525975
Al 0.03135708 4.08390688 1.03111770
Al 2.84203349 6.17061727 3.12763646
Al 3.12901767 2.05692727 3.18285621
Al 0.03124073 0.02986539 1.03085600
V 0.00000000 6.17053500 25.14199935
V 2.90882000 0.00000000 23.08525975
V 0.00000000 2.05684500 25.14199935
V 2.90882000 4.11369000 23.08525975
V 5.63636234 2.05700955 2.99338179
V 2.89823190 4.14585906 1.09366520
V 0.11396757 6.17053500 3.03316095
V 2.89817372 8.19521094 1.09366520
Ni 1.45441000 0.00000000 25.14199935
Ni 4.36323000 4.11369000 25.14199935
Ni 4.36323000 0.00000000 25.14199935
Ni 1.45441000 4.11369000 25.14199935
Ni 4.36323000 6.17053500 23.08525975
Ni 1.45441000 2.05684500 23.08525975
Ni 1.45441000 6.17053500 23.08525975
Ni 4.36323000 2.05684500 23.08525975
Ni 1.46371822 3.99118431 3.17605188
Ni 4.41553058 8.13548017 2.96564106
Ni 4.41547241 4.20583666 2.96564106
Ni 1.46371822 0.12225887 3.17552847
Ni 4.28178304 2.05618681 0.89162894
Ni 1.39914242 6.17119319 0.93271662
Ni 1.54277995 2.05651590 1.00730255
Ni 4.38091563 6.17094637 1.11224625
C 1.36004788 2.05626908 3.89757257
