&CONTROL
calculation = 'relax'
prefix = 'scf'
pseudo_dir = '/vol0403/data/hp230205/u10028/POT_HYBRID_KKJUS_GBRV'
outdir = './data'
tprnfor = .true.
nstep = 50
disk_io = 'non'
/
&SYSTEM
ibrav = 0
ecutwfc = 50.0
ecutrho = 400
occupations = 'smearing'
smearing = 'mp'
degauss = 0.01
assume_isolated = 'esm'
esm_bc = 'bc1'
input_dft = 'BEEF-VDW'
nosym = .true.
nspin = 1
ntyp = 6
nat = 18
/
&ELECTRONS
electron_maxstep = 200
mixing_beta = 0.1
conv_thr = 1e-06
/
&IONS
ion_dynamics = 'bfgs'
upscale = 1.0
/
&CELL
/

K_POINTS {automatic}
8 8 1 0 0 0

ATOMIC_SPECIES
C 12.01 C.pbe-n-rrkjus_psl.1.0.0.UPF
Ge 72.64 Ge.pbe-dn-rrkjus_psl.1.0.0.UPF
Li 6.941 Li.pbe-sl-rrkjus_psl.1.0.0.UPF
O 15.99 O.pbe-n-rrkjus_psl.1.0.0.UPF
Pd 106.4 Pd.pbe-n-rrkjus_psl.1.0.0.UPF
Zn 65.40 Zn.pbe-dnl-rrkjus_psl.1.0.0.UPF


CELL_PARAMETERS {angstrom}
6.18512000 0.00000000 0.00000000
0.00000000 6.18512000 0.00000000
0.00000000 0.00000000 24.63880000

ATOMIC_POSITIONS {angstrom}
Li 4.63884000 1.54628000 -0.7731655400000008 0 0 0
Li 4.64620029 4.64620029 2.58732039
Li 1.53953822 1.53960007 2.63782993
Li 1.54628000 4.63884000 -0.7731655400000008 0 0 0
Zn 0.00000000 3.09256000 -2.3194966299999997 0 0 0
Zn 0.00037111 0.00037111 0.76109253
Zn 3.09070446 3.09070446 0.76552752
Zn 3.09256000 0.00000000 -2.3194966299999997 0 0 0
Ge 0.00000000 0.00000000 -2.3194966299999997 0 0 0
Ge 0.00247405 3.08792116 0.88256182
Ge 3.08798301 0.00247405 0.88256182
Ge 3.09256000 3.09256000 -2.3194966299999997 0 0 0
Pd 1.54628000 1.54628000 -0.7731655400000008 0 0 0
Pd 1.54337299 4.63884000 2.14185088
Pd 4.63884000 1.54337299 2.14185088
Pd 4.63884000 4.63884000 -0.7731655400000008 0 0 0
C 1.53650751 1.53644566 4.75775228
O 1.54127005 1.54127005 5.89729678
