&CONTROL
calculation = 'relax'
prefix = 'scf'
pseudo_dir = '/vol0004/mdt0/data/hp150275/u10028/POT_KKJUS'
outdir = './data'
tprnfor = .true.
nstep = 50
disk_io = 'non'
/
&SYSTEM
ibrav = 0
ecutwfc = 50.0
ecutrho = 400
occupations = 'smearing'
smearing = 'mp'
degauss = 0.01
assume_isolated = 'esm'
esm_bc = 'bc1'
input_dft = 'BEEF-VDW'
nosym = .true.
nspin = 1
ntyp = 4
nat = 33
/
&ELECTRONS
electron_maxstep = 200
mixing_beta = 0.1
conv_thr = 1e-06
/
&IONS
ion_dynamics = 'bfgs'
upscale = 1.0
/
&CELL
/

K_POINTS {automatic}
8 6 1 0 0 0

ATOMIC_SPECIES
Al 26.98 Al.pbe-nl-rrkjus_psl.1.0.0.UPF
C 12.01 C.pbe-n-rrkjus_psl.1.0.0.UPF
Hf 178.4 Hf.pbe-spn-rrkjus_psl.1.0.0.UPF
Ni 58.69 Ni.pbe-spn-rrkjus_psl.1.0.0.UPF

CELL_PARAMETERS {angstrom}
6.09904000 0.00000000 0.00000000
0.00000000 8.62534000 0.00000000
0.00000000 0.00000000 26.46900000

ATOMIC_POSITIONS {angstrom}
Hf 0.00000000 0.00000000 -3.2345118 0 0 0
Hf 3.04952000 2.15633500 -1.0780823700000006 0 0 0
Hf 3.04952000 6.46900500 -1.0780823700000006 0 0 0
Hf 0.00000000 4.31267000 -3.2345118 0 0 0
Hf 0.02262744 4.35036274 1.07940582
Hf 2.96193779 6.46891875 3.30836031
Hf 3.20852197 2.15633500 3.25542231
Hf 0.02262744 8.58764726 1.07940582
Al 0.00000000 6.46900500 -1.0780823700000006 0 0 0
Al 3.04952000 0.00000000 -3.2345118 0 0 0
Al 0.00000000 2.15633500 -1.0780823700000006 0 0 0
Al 3.04952000 4.31267000 -3.2345118 0 0 0
Al 5.89655187 2.15624875 3.19719051
Al 3.04268908 4.30275086 1.13975514
Al 6.09495364 6.46900500 3.21598350
Al 3.04262808 0.00991914 1.13975514
Ni 1.52476000 0.00000000 -1.0780823700000006 0 0 0
Ni 4.57428000 4.31267000 -1.0780823700000006 0 0 0
Ni 4.57428000 0.00000000 -1.0780823700000006 0 0 0
Ni 1.52476000 4.31267000 -1.0780823700000006 0 0 0
Ni 4.57428000 6.46900500 -3.2345118 0 0 0
Ni 1.52476000 2.15633500 -3.2345118 0 0 0
Ni 1.52476000 6.46900500 -3.2345118 0 0 0
Ni 4.57428000 2.15633500 -3.2345118 0 0 0
Ni 1.37338183 4.16224407 3.30809562
Ni 4.61087424 8.53451517 3.09316734
Ni 4.61130117 4.40349483 3.09316734
Ni 1.37319886 0.15033968 3.30703686
Ni 4.60422629 2.15633500 0.99470502
Ni 1.65168102 6.46909125 1.09422846
Ni 1.56928299 2.15624875 1.08284679
Ni 4.46285054 6.46900500 1.17390015
C 1.39979067 2.15624875 4.15986804
