&CONTROL
calculation = 'relax'
prefix = 'scf'
pseudo_dir = '/vol0004/mdt0/data/hp150275/u10028/POT_HYBRID_KKJUS_GBRV'
outdir = './data'
tprnfor = .true.
nstep = 50
disk_io = 'non'
/
&SYSTEM
ibrav = 0
ecutwfc = 50.0
ecutrho = 400
occupations = 'smearing'
smearing = 'mp'
degauss = 0.01
assume_isolated = 'esm'
esm_bc = 'bc1'
input_dft = 'BEEF-VDW'
nosym = .true.
nspin = 2
ntyp = 5
nat = 18
starting_magnetization(1) = 0.1
starting_magnetization(2) = 0.1
starting_magnetization(3) = 0.1
starting_magnetization(4) = 0.1
starting_magnetization(5) = 0.1
/
&ELECTRONS
electron_maxstep = 200
mixing_beta = 0.1
conv_thr = 1e-06
/
&IONS
ion_dynamics = 'bfgs'
upscale = 1.0
/
&CELL
/

K_POINTS {automatic}
10 10 2 0  0  0

ATOMIC_SPECIES
Al 26.98 Al.pbe-nl-rrkjus_psl.1.0.0.UPF
C 12.01 C.pbe-n-rrkjus_psl.1.0.0.UPF
Mn 54.93 mn_pbe_v1.5.uspp.F.UPF
Ni 58.69 ni_pbe_v1.4.uspp.F.UPF
O 15.99 O.pbe-n-rrkjus_psl.1.0.0.UPF

CELL_PARAMETERS {angstrom}
5.81764000 0.00000000 0.00000000
-0.00000000 5.81764000 0.00000000
0.00000000 0.00000000 24.36320000

ATOMIC_POSITIONS {angstrom}
Mn 0.00000000 0.00000000 2.18172456
Mn 2.90882000 2.90882000 2.18172456
Mn 2.90882000 0.00000000 -0.7272415199999998 0 0 0
Mn 0.00000000 2.90882000 -0.7272415199999998 0 0 0
Al 0.00000000 0.00000000 -0.7272415199999998 0 0 0
Al 2.90882000 -0.00000000 2.18172456
Al 0.00000000 2.90882000 2.18172456
Al 2.90882000 2.90882000 -0.7272415199999998 0 0 0
Ni 1.45441000 1.45441000 0.72724152
Ni 4.36323000 4.36323000 -2.1817245599999993 0 0 0
Ni 4.36323000 1.45441000 0.72724152
Ni 1.45441000 4.36323000 -2.1817245599999993 0 0 0
Ni 4.36323000 4.36323000 0.72724152
Ni 1.45441000 1.45441000 -2.1817245599999993 0 0 0
Ni 1.45441000 4.36323000 0.72724152
Ni 4.36323000 1.45441000 -2.1817245599999993 0 0 0
C 0.00000000 0.00000000 4.08156690
O 0.00000000 0.00000000 5.23150994
