&CONTROL
calculation = 'relax'
prefix = 'scf'
pseudo_dir = '/vol0004/mdt0/data/hp150275/u10028/POT_KKJUS'
outdir = './data'
tprnfor = .true.
nstep = 50
disk_io = 'non'
/
&SYSTEM
ibrav = 0
ecutwfc = 50.0
ecutrho = 400
occupations = 'smearing'
smearing = 'mp'
degauss = 0.01
assume_isolated = 'esm'
esm_bc = 'bc1'
input_dft = 'BEEF-VDW'
nosym = .true.
nspin = 1
ntyp = 3
nat = 33
/
&ELECTRONS
electron_maxstep = 200
mixing_beta = 0.1
conv_thr = 1e-06
/
&IONS
ion_dynamics = 'bfgs'
upscale = 1.0
/
&CELL
/

K_POINTS {automatic}
9 6 2 0  0  0

ATOMIC_SPECIES
C 12.01 C.pbe-n-rrkjus_psl.1.0.0.UPF
Cu 63.54 Cu.pbe-dn-rrkjus_psl.1.0.0.UPF
Sc 44.95 Sc.pbe-spn-rrkjus_psl.1.0.0.UPF

CELL_PARAMETERS {angstrom}
6.54723000 0.00000000 0.00000000
0.00000000 9.25918000 0.00000000
0.00000000 0.00000000 26.94440000

ATOMIC_POSITIONS {angstrom}
Sc 1.63680750 2.31479500 -3.4723248300000016 0 0 0
Sc 1.63680750 4.62959000 -1.1575314200000015 0 0 0
Sc 1.63680750 2.31479500 1.23216741
Sc 1.63680750 4.50329478 3.48633592
Sc 1.63680750 6.94438500 -3.4723248300000016 0 0 0
Sc 1.63680750 0.00000000 -1.1575314200000015 0 0 0
Sc 1.63680750 6.94438500 1.12088704
Sc 1.63680750 0.12629522 3.48633592
Sc 4.91042250 2.31479500 -3.4723248300000016 0 0 0
Sc 4.91042250 4.62959000 -1.1575314200000015 0 0 0
Sc 4.91042250 2.31488759 1.11980926
Sc 4.91042250 4.77477394 3.50573588
Sc 4.91042250 6.94438500 -3.4723248300000016 0 0 0
Sc 4.91042250 0.00000000 -1.1575314200000015 0 0 0
Sc 4.91042250 6.94429241 1.15375921
Sc 4.91042250 9.11390347 3.50573588
Cu 0.00000000 0.00000000 -3.4723248300000016 0 0 0
Cu 0.00000000 2.31479500 -1.1575314200000015 0 0 0
Cu 6.49439385 9.22195810 1.21438411
Cu 6.21567827 2.31460982 3.45346375
Cu 0.00000000 4.62959000 -3.4723248300000016 0 0 0
Cu 0.00000000 6.94438500 -1.1575314200000015 0 0 0
Cu 6.49439385 4.66681190 1.21438411
Cu 0.10246415 6.94457018 3.28075014
Cu 3.27361500 0.00000000 -3.4723248300000016 0 0 0
Cu 3.27361500 2.31479500 -1.1575314200000015 0 0 0
Cu 3.32645115 9.22195810 1.21438411
Cu 3.60516673 2.31460982 3.45346375
Cu 3.27361500 4.62959000 -3.4723248300000016 0 0 0
Cu 3.27361500 6.94438500 -1.1575314200000015 0 0 0
Cu 3.32645115 4.66681190 1.21438411
Cu 3.17115085 6.94457018 3.28075014
C 1.63680750 2.31479500 3.45184708
