&CONTROL
calculation = 'relax'
prefix = 'scf'
pseudo_dir = '/vol0403/data/hp230205/u10028/POT_HYBRID_KKJUS_GBRV'
outdir = './data'
tprnfor = .true.
nstep = 50
disk_io = 'non'
/
&SYSTEM
ibrav = 0
ecutwfc = 50.0
ecutrho = 400
occupations = 'smearing'
smearing = 'mp'
degauss = 0.01
assume_isolated = 'esm'
esm_bc = 'bc1'
input_dft = 'BEEF-VDW'
nosym = .true.
nspin = 1
ntyp = 5
nat = 33
/
&ELECTRONS
electron_maxstep = 200
mixing_beta = 0.1
conv_thr = 1e-06
/
&IONS
ion_dynamics = 'bfgs'
upscale = 1.0
/
&CELL
/

K_POINTS {automatic}
9 6 2 0  0  0

ATOMIC_SPECIES
C 12.01 C.pbe-n-rrkjus_psl.1.0.0.UPF
Cu 63.54 Cu.pbe-dn-rrkjus_psl.1.0.0.UPF
In 114.8 In.pbe-dn-rrkjus_psl.1.0.0.UPF
Li 6.941 Li.pbe-sl-rrkjus_psl.1.0.0.UPF
Sn 118.7 Sn.pbe-dn-rrkjus_psl.1.0.0.UPF


CELL_PARAMETERS {angstrom}
6.73938000 0.00000000 0.00000000
0.00000000 9.53092000 0.00000000
0.00000000 0.00000000 27.14820000

ATOMIC_POSITIONS {angstrom}
Li 0.00000000 2.38273000 -1.191263020000001 0 0 0
Li 0.00000000 7.14819000 -1.191263020000001 0 0 0
Li 3.36969000 4.76546000 -3.5740605300000006 0 0 0
Li 3.36969000 0.00000000 -3.5740605300000006 0 0 0
Li 6.39499768 6.85292210 4.19141060
Li 6.39594120 2.67342306 4.19493986
Li 3.10341710 0.00066716 1.66228429
Li 3.13387909 4.76546000 1.14999775
In 1.68484500 0.00000000 -1.191263020000001 0 0 0
In 1.68484500 4.76546000 -1.191263020000001 0 0 0
In 5.05453500 2.38273000 -3.5740605300000006 0 0 0
In 5.05453500 7.14819000 -3.5740605300000006 0 0 0
In 1.59810918 4.76479284 3.83359732
In 1.85838403 0.00733881 5.32186165
In 5.00837025 7.06946460 1.19832155
In 5.00958334 2.46126478 1.19750710
Cu 0.00000000 0.00000000 -3.5740605300000006 0 0 0
Cu 0.00000000 4.76546000 -3.5740605300000006 0 0 0
Cu 3.36969000 7.14819000 -1.191263020000001 0 0 0
Cu 3.36969000 2.38273000 -1.191263020000001 0 0 0
Cu 0.10075373 4.76546000 1.11008990
Cu 6.73102317 0.00085778 0.94720070
Cu 3.54201595 1.94259211 3.44293472
Cu 3.53507439 7.59090123 3.44049139
Sn 5.05453500 0.00000000 -1.191263020000001 0 0 0
Sn 5.05453500 4.76546000 -1.191263020000001 0 0 0
Sn 1.68484500 2.38273000 -3.5740605300000006 0 0 0
Sn 1.68484500 7.14819000 -3.5740605300000006 0 0 0
Sn 4.56963661 4.76212418 3.75676792
Sn 5.76432650 9.52796541 3.54066824
Sn 1.43184867 7.18821986 1.52572884
Sn 1.43312916 2.34327199 1.52735773
C 3.56284063 0.00085778 3.76138311
