&CONTROL
calculation = 'relax'
prefix = 'scf'
pseudo_dir = '/vol0403/data/hp230205/u10028/POT_HYBRID_KKJUS_GBRV'
outdir = './data'
tprnfor = .true.
nstep = 70
disk_io = 'non'
/
&SYSTEM
ibrav = 0
ecutwfc = 50.0
ecutrho = 400
occupations = 'smearing'
smearing = 'mp'
degauss = 0.01
assume_isolated = 'esm'
esm_bc = 'bc1'
input_dft = 'BEEF-VDW'
nosym = .true.
nspin = 1
ntyp = 6
nat = 34
/
&ELECTRONS
electron_maxstep = 200
mixing_beta = 0.1
conv_thr = 1e-06
/
&IONS
ion_dynamics = 'bfgs'
upscale = 1.0
/
&CELL
/

K_POINTS {automatic}
6 6 1 0 0 0

ATOMIC_SPECIES
Ag 107.8 Ag.pbe-n-rrkjus_psl.1.0.0.UPF
C 12.01 C.pbe-n-rrkjus_psl.1.0.0.UPF
Cu 63.54 Cu.pbe-dn-rrkjus_psl.1.0.0.UPF
In 114.8 In.pbe-dn-rrkjus_psl.1.0.0.UPF
Li 6.941 Li.pbe-sl-rrkjus_psl.1.0.0.UPF
O 15.99 O.pbe-n-rrkjus_psl.1.0.0.UPF


CELL_PARAMETERS {angstrom}
6.40797000 0.00000000 0.00000000
-0.00000000 9.06224000 0.00000000
0.00000000 0.00000000 26.79670000

ATOMIC_POSITIONS {angstrom}
Li 4.80597750 0.00000000 -1.1326965100000024 0 0 0
Li 4.80597750 4.53112000 -1.1326965100000024 0 0 0
Li 1.60199250 2.26556000 -3.398357490000002 0 0 0
Li 1.60199250 6.79668000 -3.398357490000002 0 0 0
Li 4.81994687 4.53737295 3.55029478
Li 4.82001095 9.05598705 3.55056275
Li 1.52093168 6.79668000 1.22755683
Li 1.62262616 2.26556000 1.17905480
In 0.00000000 2.26556000 -1.1326965100000024 0 0 0
In 0.00000000 6.79668000 -1.1326965100000024 0 0 0
In 3.20398500 4.53112000 -3.398357490000002 0 0 0
In 3.20398500 0.00000000 -3.398357490000002 0 0 0
In 0.05504446 6.79668000 3.77351129
In 0.10175856 2.26565062 3.59986868
In 3.24172794 9.05163718 1.16458458
In 3.24166386 4.54172282 1.16458458
Cu 1.60199250 0.00000000 -1.1326965100000024 0 0 0
Cu 1.60199250 4.53112000 -1.1326965100000024 0 0 0
Cu 4.80597750 2.26556000 -3.398357490000002 0 0 0
Cu 4.80597750 6.79668000 -3.398357490000002 0 0 0
Cu 1.51407515 4.57235319 3.30242531
Cu 1.51407515 9.02100681 3.30242531
Cu 4.87185143 6.79668000 1.23559584
Cu 4.80796397 2.26556000 1.26051677
Ag 0.00000000 0.00000000 -3.398357490000002 0 0 0
Ag 0.00000000 4.53112000 -3.398357490000002 0 0 0
Ag 3.20398500 6.79668000 -1.1326965100000024 0 0 0
Ag 3.20398500 2.26556000 -1.1326965100000024 0 0 0
Ag 6.36503660 4.51752664 1.08901789
Ag 6.36503660 0.01359336 1.08901789
Ag 3.12337274 2.26556000 3.48517880
Ag 3.18379989 6.79668000 3.43426507
C 3.37123302 2.26546938 5.79291061
O 3.06435533 2.26556000 6.89452294
