&CONTROL
calculation = 'relax'
prefix = 'scf'
pseudo_dir = '/vol0403/data/hp230205/u10028/POT_HYBRID_KKJUS_GBRV'
outdir = './data'
tprnfor = .true.
nstep = 50
disk_io = 'non'
/
&SYSTEM
ibrav = 0
ecutwfc = 50.0
ecutrho = 400
occupations = 'smearing'
smearing = 'mp'
degauss = 0.01
assume_isolated = 'esm'
esm_bc = 'bc1'
input_dft = 'BEEF-VDW'
nosym = .true.
nspin = 1
ntyp = 5
nat = 17
/
&ELECTRONS
electron_maxstep = 200
mixing_beta = 0.1
conv_thr = 1e-06
/
&IONS
ion_dynamics = 'bfgs'
upscale = 1.0
/
&CELL
/

K_POINTS {automatic}
9 9 2 0  0  0

ATOMIC_SPECIES
C 12.01 C.pbe-n-rrkjus_psl.1.0.0.UPF
Li 6.941 Li.pbe-sl-rrkjus_psl.1.0.0.UPF
Pd 106.4 Pd.pbe-n-rrkjus_psl.1.0.0.UPF
Sn 118.7 Sn.pbe-dn-rrkjus_psl.1.0.0.UPF
Y 88.90 Y.pbe-spn-rrkjus_psl.1.0.0.UPF


CELL_PARAMETERS {angstrom}
6.77715000 0.00000000 0.00000000
0.00000000 6.77715000 0.00000000
0.00000000 0.00000000 25.08290000

ATOMIC_POSITIONS {angstrom}
Li 0.00000000 0.00000000 -2.5413994299999985 0 0 0
Li 0.00000000 3.38857500 0.87413906
Li 3.38857500 0.00000000 0.89596119
Li 3.38857500 3.38857500 -2.5413994299999985 0 0 0
Y 1.69428750 1.69428750 -0.8470495299999996 0 0 0
Y 1.61757016 5.00709396 2.72174548
Y 5.15957984 1.77005604 2.72174548
Y 5.08286250 5.08286250 -0.8470495299999996 0 0 0
Sn 5.08286250 1.69428750 -0.8470495299999996 0 0 0
Sn 5.10502378 5.05982019 2.57124808
Sn 1.67212622 1.71732981 2.57124808
Sn 1.69428750 5.08286250 -0.8470495299999996 0 0 0
Pd 0.00000000 3.38857500 -2.5413994299999985 0 0 0
Pd 0.00000000 0.00000000 0.89470704
Pd 3.38857500 3.38857500 0.89370373
Pd 3.38857500 0.00000000 -2.5413994299999985 0 0 0
C 0.00000000 3.38857500 3.04355909
