&CONTROL
calculation = 'relax'
prefix = 'scf'
pseudo_dir = '/vol0004/mdt0/data/hp150275/u10028/POT_HYBRID_KKJUS_GBRV'
outdir = './data'
tprnfor = .true.
nstep = 50
disk_io = 'non'
/
&SYSTEM
ibrav = 0
ecutwfc = 50.0
ecutrho = 400
occupations = 'smearing'
smearing = 'mp'
degauss = 0.01
assume_isolated = 'esm'
esm_bc = 'bc1'
input_dft = 'BEEF-VDW'
nosym = .true.
nspin = 2
ntyp = 4
nat = 33
starting_magnetization(1) = 0.0
starting_magnetization(2) = 0.1
starting_magnetization(3) = 0.0
starting_magnetization(4) = 0.1
/
&ELECTRONS
electron_maxstep = 200
mixing_beta = 0.1
conv_thr = 1e-06
/
&IONS
ion_dynamics = 'bfgs'
upscale = 1.0
/
&CELL
/

K_POINTS {automatic}
9 6 2 0  0  0

ATOMIC_SPECIES
C 12.01 C.pbe-n-rrkjus_psl.1.0.0.UPF
Co 58.93 co_pbe_v1.2.uspp.F.UPF
Ga 69.72 Ga.pbe-dnl-rrkjus_psl.1.0.0.UPF
Mn 54.93 mn_pbe_v1.5.uspp.F.UPF

CELL_PARAMETERS {angstrom}
5.73361000 0.00000000 0.00000000
0.00000000 8.10855000 0.00000000
0.00000000 0.00000000 26.08140000

ATOMIC_POSITIONS {angstrom}
Mn 0.00000000 0.00000000 23.04056957
Mn 2.86680500 2.02713750 25.06787680
Mn 2.86680500 6.08141250 25.06787680
Mn 0.00000000 4.05427500 23.04056957
Mn 0.00000000 4.05427500 1.05003716
Mn 2.86680500 6.13176660 3.12063951
Mn 2.86680500 1.97678340 3.12037870
Mn 0.00000000 0.00000000 0.93814796
Ga 0.00000000 6.08141250 25.06787680
Ga 2.86680500 0.00000000 23.04056957
Ga 0.00000000 2.02713750 25.06787680
Ga 2.86680500 4.05427500 23.04056957
Ga 0.00000000 2.12306165 3.18349568
Ga 2.86680500 4.05419391 0.99735274
Ga 0.00000000 5.98548835 3.18375650
Ga 2.86680500 8.10830674 1.00491634
Co 1.43340250 0.00000000 25.06787680
Co 4.30020750 4.05427500 25.06787680
Co 4.30020750 0.00000000 25.06787680
Co 1.43340250 4.05427500 25.06787680
Co 4.30020750 6.08141250 23.04056957
Co 1.43340250 2.02713750 23.04056957
Co 1.43340250 6.08141250 23.04056957
Co 4.30020750 2.02713750 23.04056957
Co 1.47932872 4.05419391 3.02518159
Co 4.51011496 0.00008109 3.03378845
Co 4.25428128 4.05419391 3.02518159
Co 1.22349504 0.00008109 3.03378845
Co 4.30857857 2.01286645 1.06281705
Co 1.42503143 6.09568355 1.06307786
Co 1.42503143 2.01286645 1.06281705
Co 4.30857857 6.09568355 1.06307786
C 2.86680500 0.00000000 3.69103973
