&CONTROL
calculation = 'relax'
prefix = 'scf'
pseudo_dir = '/vol0004/mdt0/data/hp150275/u10028/POT_KKJUS'
outdir = './data'
tprnfor = .true.
nstep = 50
disk_io = 'non'
/
&SYSTEM
ibrav = 0
ecutwfc = 50.0
ecutrho = 400
occupations = 'smearing'
smearing = 'mp'
degauss = 0.01
assume_isolated = 'esm'
esm_bc = 'bc1'
input_dft = 'BEEF-VDW'
nosym = .true.
nspin = 1
ntyp = 3
nat = 33
/
&ELECTRONS
electron_maxstep = 200
mixing_beta = 0.1
conv_thr = 1e-06
/
&IONS
ion_dynamics = 'bfgs'
upscale = 1.0
/
&CELL
/

K_POINTS {automatic}
8 8 1 0 0 0

ATOMIC_SPECIES
C 12.01 C.pbe-n-rrkjus_psl.1.0.0.UPF
Sn 118.7 Sn.pbe-dn-rrkjus_psl.1.0.0.UPF
Ti 47.86 Ti.pbe-spn-rrkjus_psl.1.0.0.UPF

CELL_PARAMETERS {angstrom}
8.35210000 0.00000000 0.00000000
-0.00000000 8.35210000 0.00000000
0.00000000 0.00000000 26.26410000

ATOMIC_POSITIONS {angstrom}
Ti 0.00000000 2.08802500 1.04399797
Ti 2.08802500 -0.00000000 1.04399797
Ti 2.08802500 2.08802500 3.13199392
Ti 0.00000000 2.08802500 -3.13199393 0 0 0
Ti 2.08802500 0.00000000 -3.13199393 0 0 0
Ti 2.08802500 2.08802500 -1.0439979800000003 0 0 0
Ti 0.00000000 6.26407500 1.04399797
Ti 2.08802500 4.17605000 1.04399797
Ti 2.08802500 6.26407500 3.13199392
Ti 0.00000000 6.26407500 -3.13199393 0 0 0
Ti 2.08802500 4.17605000 -3.13199393 0 0 0
Ti 2.08802500 6.26407500 -1.0439979800000003 0 0 0
Ti 4.17605000 2.08802500 1.04399797
Ti 6.26407500 -0.00000000 1.04399797
Ti 6.26407500 2.08802500 3.13199392
Ti 4.17605000 2.08802500 -3.13199393 0 0 0
Ti 6.26407500 0.00000000 -3.13199393 0 0 0
Ti 6.26407500 2.08802500 -1.0439979800000003 0 0 0
Ti 4.17605000 6.26407500 1.04399797
Ti 6.26407500 4.17605000 1.04399797
Ti 6.26407500 6.26407500 3.13199392
Ti 4.17605000 6.26407500 -3.13199393 0 0 0
Ti 6.26407500 4.17605000 -3.13199393 0 0 0
Ti 6.26407500 6.26407500 -1.0439979800000003 0 0 0
Sn 0.00000000 0.00000000 3.13199392
Sn 0.00000000 0.00000000 -1.0439979800000003 0 0 0
Sn 0.00000000 4.17605000 3.13199392
Sn 0.00000000 4.17605000 -1.0439979800000003 0 0 0
Sn 4.17605000 -0.00000000 3.13199392
Sn 4.17605000 0.00000000 -1.0439979800000003 0 0 0
Sn 4.17605000 4.17605000 3.13199392
Sn 4.17605000 4.17605000 -1.0439979800000003 0 0 0
C 2.08802500 -0.00000000 3.93199841
