&CONTROL
calculation = 'relax'
prefix = 'scf'
pseudo_dir = '/vol0004/mdt0/data/hp150275/u10028/POT_KKJUS'
outdir = './data'
tprnfor = .true.
nstep = 50
disk_io = 'non'
/
&SYSTEM
ibrav = 0
ecutwfc = 50.0
ecutrho = 400
occupations = 'smearing'
smearing = 'mp'
degauss = 0.01
assume_isolated = 'esm'
esm_bc = 'bc1'
input_dft = 'BEEF-VDW'
nosym = .true.
nspin = 1
ntyp = 4
nat = 34
/
&ELECTRONS
electron_maxstep = 200
mixing_beta = 0.1
conv_thr = 1e-06
/
&IONS
ion_dynamics = 'bfgs'
upscale = 1.0
/
&CELL
/

K_POINTS {automatic}
9 6 2 0  0  0

ATOMIC_SPECIES
Al 26.98 Al.pbe-nl-rrkjus_psl.1.0.0.UPF
C 12.01 C.pbe-n-rrkjus_psl.1.0.0.UPF
O 15.99 O.pbe-n-rrkjus_psl.1.0.0.UPF
Os 190.2 Os.pbe-spn-rrkjus_psl.1.0.0.UPF

CELL_PARAMETERS {angstrom}
6.03636000 0.00000000 0.00000000
0.00000000 8.53670000 0.00000000
0.00000000 0.00000000 26.40250000

ATOMIC_POSITIONS {angstrom}
Al 0.00000000 0.00000000 -3.2013031199999986 0 0 0
Al 0.00000000 2.13417500 -1.0671890499999996 0 0 0
Al 0.00000000 8.53354142 1.02996153
Al 0.00000000 2.13417500 3.32011438
Al 0.00000000 4.26835000 -3.2013031199999986 0 0 0
Al 0.00000000 6.40252500 -1.0671890499999996 0 0 0
Al 0.00000000 4.27150858 1.02996153
Al 0.00000000 6.40261037 3.19575860
Al 3.01818000 0.00000000 -3.2013031199999986 0 0 0
Al 3.01818000 2.13417500 -1.0671890499999996 0 0 0
Al 3.01818000 0.00290248 1.02520908
Al 3.01818000 2.13417500 3.24249103
Al 3.01818000 4.26835000 -3.2013031199999986 0 0 0
Al 3.01818000 6.40252500 -1.0671890499999996 0 0 0
Al 3.01818000 4.26536216 1.02520908
Al 3.01818000 6.40261037 3.22348123
Os 1.50909000 2.13417500 -3.2013031199999986 0 0 0
Os 1.50909000 0.00000000 -1.0671890499999996 0 0 0
Os 1.50293291 2.13417500 1.05161157
Os 1.51536781 8.52551692 3.11628707
Os 1.50909000 6.40252500 -3.2013031199999986 0 0 0
Os 1.50909000 4.26835000 -1.0671890499999996 0 0 0
Os 1.50890891 6.40243963 1.02177675
Os 1.51536781 4.27953308 3.11602305
Os 4.52727000 2.13417500 -3.2013031199999986 0 0 0
Os 4.52727000 0.00000000 -1.0671890499999996 0 0 0
Os 4.53342709 2.13417500 1.05161157
Os 4.52099219 8.52551692 3.11628707
Os 4.52727000 6.40252500 -3.2013031199999986 0 0 0
Os 4.52727000 4.26835000 -1.0671890499999996 0 0 0
Os 4.52745109 6.40243963 1.02177675
Os 4.52099219 4.27953308 3.11602305
C 0.00000000 2.13426037 5.37079655
O 0.00000000 2.13417500 6.51877725
