&CONTROL
calculation = 'relax'
prefix = 'scf'
pseudo_dir = '/vol0004/mdt0/data/hp150275/u10028/POT_KKJUS'
outdir = './data'
tprnfor = .true.
nstep = 50
disk_io = 'non'
/
&SYSTEM
ibrav = 0
ecutwfc = 50.0
ecutrho = 400
occupations = 'smearing'
smearing = 'mp'
degauss = 0.01
assume_isolated = 'esm'
esm_bc = 'bc1'
input_dft = 'BEEF-VDW'
nosym = .true.
nspin = 1
ntyp = 3
nat = 18
/
&ELECTRONS
electron_maxstep = 200
mixing_beta = 0.1
conv_thr = 1e-06
/
&IONS
ion_dynamics = 'bfgs'
upscale = 1.0
/
&CELL
/

K_POINTS {automatic}
8 8 1 0 0 0

ATOMIC_SPECIES
C 12.01 C.pbe-n-rrkjus_psl.1.0.0.UPF
Ca 40.07 Ca.pbe-spn-rrkjus_psl.1.0.0.UPF
O 15.99 O.pbe-n-rrkjus_psl.1.0.0.UPF

CELL_PARAMETERS {angstrom}
8.79024000 0.00000000 0.00000000
0.00000000 8.79024000 0.00000000
0.00000000 0.00000000 26.59270000

ATOMIC_POSITIONS {angstrom}
Ca 0.00000000 0.00000000 -3.2964310900000022 0 0 0
Ca 2.19756000 2.19756000 -1.0988103600000017 0 0 0
Ca 8.74039934 8.73978402 1.00201294
Ca 2.20098819 2.19887854 3.11799407
Ca 0.00000000 4.39512000 -3.2964310900000022 0 0 0
Ca 2.19756000 6.59268000 -1.0988103600000017 0 0 0
Ca 8.73952032 4.44601549 1.00387443
Ca 2.19958176 6.59716302 3.28738957
Ca 4.39512000 0.00000000 -3.2964310900000022 0 0 0
Ca 6.59268000 2.19756000 -1.0988103600000017 0 0 0
Ca 4.44627920 8.73828968 0.99882181
Ca 6.54486109 2.17567230 3.27249766
Ca 4.39512000 4.39512000 -3.2964310900000022 0 0 0
Ca 6.59268000 6.59268000 -1.0988103600000017 0 0 0
Ca 4.44557598 4.44838885 1.00227886
Ca 6.59408644 6.59338322 3.32515121
C 2.20432848 2.19923015 5.67887108
O 2.20037288 2.19870273 6.82740980
