&CONTROL
calculation = 'relax'
prefix = 'scf'
pseudo_dir = '/vol0403/data/hp230205/u10028/POT_HYBRID_KKJUS_GBRV'
outdir = './data'
tprnfor = .true.
nstep = 50
disk_io = 'non'
/
&SYSTEM
ibrav = 0
ecutwfc = 50.0
ecutrho = 400
occupations = 'smearing'
smearing = 'mp'
degauss = 0.01
assume_isolated = 'esm'
esm_bc = 'bc1'
input_dft = 'BEEF-VDW'
nosym = .true.
nspin = 1
ntyp = 4
nat = 16
/
&ELECTRONS
electron_maxstep = 200
mixing_beta = 0.1
conv_thr = 1e-06
/
&IONS
ion_dynamics = 'bfgs'
upscale = 1.0
/
&CELL
/

K_POINTS {automatic}
11 8 2 0  0  0

ATOMIC_SPECIES
Ag 107.8 Ag.pbe-n-rrkjus_psl.1.0.0.UPF
Al 26.98 Al.pbe-nl-rrkjus_psl.1.0.0.UPF
Ge 72.64 Ge.pbe-dn-rrkjus_psl.1.0.0.UPF
Li 6.941 Li.pbe-sl-rrkjus_psl.1.0.0.UPF


CELL_PARAMETERS {angstrom}
5.75991000 0.00000000 0.00000000
0.00000000 8.02734000 0.00000000
0.00000000 0.00000000 24.29680000

ATOMIC_POSITIONS {angstrom}
Li 1.26222668 2.00675473 0.75611642
Li 3.87376987 2.00683500 -2.1483230600000027 0 0 0
Li 1.26222668 6.02058527 0.75635938
Li 3.87376987 6.02050500 -2.1483230600000027 0 0 0
Al 2.86636161 0.00008027 2.12888562
Al 5.46246825 0.00000000 -0.7160267000000005 0 0 0
Al 2.86688000 4.01358973 2.12839968
Al 5.46246825 4.01367000 -0.7160267000000005 0 0 0
Ag 0.14612892 0.00008027 2.17383470
Ag 2.58251325 0.00000000 -0.7160267000000005 0 0 0
Ag 0.14607132 4.01358973 2.17359173
Ag 2.58251325 4.01367000 -0.7160267000000005 0 0 0
Ge 4.17109643 2.00611254 1.01220469
Ge 0.99381487 2.00683500 -2.1483230600000027 0 0 0
Ge 4.17115402 6.02122746 1.01220469
Ge 0.99381487 6.02050500 -2.1483230600000027 0 0 0
