&CONTROL
calculation = 'relax'
prefix = 'scf'
pseudo_dir = '/vol0004/mdt0/data/hp150275/u10028/POT_HYBRID_KKJUS_GBRV'
outdir = './data'
tprnfor = .true.
nstep = 50
disk_io = 'non'
/
&SYSTEM
ibrav = 0
ecutwfc = 50.0
ecutrho = 400
occupations = 'smearing'
smearing = 'mp'
degauss = 0.01
assume_isolated = 'esm'
esm_bc = 'bc1'
input_dft = 'BEEF-VDW'
nosym = .true.
nspin = 2
ntyp = 4
nat = 33
starting_magnetization(1) = 0.0
starting_magnetization(2) = 0.0
starting_magnetization(3) = 0.001
starting_magnetization(4) = 0.0
/
&ELECTRONS
electron_maxstep = 300
mixing_beta = 0.1
conv_thr = 1e-06
/
&IONS
ion_dynamics = 'bfgs'
upscale = 1.0
/
&CELL
/

K_POINTS {automatic}
8 6 1 0 0 0

ATOMIC_SPECIES
C 12.01 C.pbe-n-rrkjus_psl.1.0.0.UPF
Nb 92.90 Nb.pbe-spn-rrkjus_psl.1.0.0.UPF
Ni 58.69 ni_pbe_v1.4.uspp.F.UPF
Sn 118.7 Sn.pbe-dn-rrkjus_psl.1.0.0.UPF

CELL_PARAMETERS {angstrom}
6.22550000 0.00000000 0.00000000
0.00000000 8.80419000 0.00000000
0.00000000 0.00000000 26.60310000

ATOMIC_POSITIONS {angstrom}
Nb 0.00000000 0.00000000 -3.301444710000002 0 0 0
Nb 3.11275000 2.20104750 -1.1005702500000005 0 0 0
Nb 3.11275000 6.60314250 -1.1005702500000005 0 0 0
Nb 0.00000000 4.40209500 -3.301444710000002 0 0 0
Nb 0.00000000 4.40209500 1.12690732
Nb 3.11275000 6.76822106 3.28282254
Nb 3.11275000 2.03596894 3.28282254
Nb 0.00000000 0.00000000 1.09764391
Ni 1.55637500 0.00000000 -1.1005702500000005 0 0 0
Ni 4.66912500 4.40209500 -1.1005702500000005 0 0 0
Ni 4.66912500 0.00000000 -1.1005702500000005 0 0 0
Ni 1.55637500 4.40209500 -1.1005702500000005 0 0 0
Ni 4.66912500 6.60314250 -3.301444710000002 0 0 0
Ni 1.55637500 2.20104750 -3.301444710000002 0 0 0
Ni 1.55637500 6.60314250 -3.301444710000002 0 0 0
Ni 4.66912500 2.20104750 -3.301444710000002 0 0 0
Ni 1.72552184 4.40218304 3.18146473
Ni 4.92984894 0.00000000 3.23068046
Ni 4.49997816 4.40218304 3.18146473
Ni 1.29565106 0.00000000 3.23068046
Ni 4.67771619 2.21319728 1.17559099
Ni 1.54772156 6.59099272 1.17559099
Ni 1.54778381 2.21319728 1.17559099
Ni 4.67771619 6.59099272 1.17559099
Sn 0.00000000 6.60314250 -1.1005702500000005 0 0 0
Sn 3.11275000 0.00000000 -3.301444710000002 0 0 0
Sn 0.00000000 2.20104750 -1.1005702500000005 0 0 0
Sn 3.11275000 4.40209500 -3.301444710000002 0 0 0
Sn 0.00000000 2.33663203 3.54406498
Sn 3.11275000 4.40209500 1.03565868
Sn 0.00000000 6.46755797 3.54406498
Sn 3.11275000 0.00000000 1.03299837
C 3.11275000 0.00000000 3.86489837
