&CONTROL
calculation = 'relax'
prefix = 'scf'
pseudo_dir = '/vol0004/mdt0/data/hp150275/u10028/POT_KKJUS'
outdir = './data'
tprnfor = .true.
nstep = 50
disk_io = 'non'
/
&SYSTEM
ibrav = 0
ecutwfc = 50.0
ecutrho = 400
occupations = 'smearing'
smearing = 'mp'
degauss = 0.01
assume_isolated = 'esm'
esm_bc = 'bc1'
input_dft = 'BEEF-VDW'
nosym = .true.
nspin = 1
ntyp = 5
nat = 34
/
&ELECTRONS
electron_maxstep = 200
mixing_beta = 0.1
conv_thr = 1e-06
/
&IONS
ion_dynamics = 'bfgs'
upscale = 1.0
/
&CELL
/

K_POINTS {automatic}
8 6 1 0 0 0

ATOMIC_SPECIES
C 12.01 C.pbe-n-rrkjus_psl.1.0.0.UPF
Cu 63.54 Cu.pbe-dn-rrkjus_psl.1.0.0.UPF
Ni 58.69 Ni.pbe-spn-rrkjus_psl.1.0.0.UPF
O 15.99 O.pbe-n-rrkjus_psl.1.0.0.UPF
Sn 118.7 Sn.pbe-dn-rrkjus_psl.1.0.0.UPF

CELL_PARAMETERS {angstrom}
6.14873000 0.00000000 0.00000000
0.00000000 8.69561000 0.00000000
0.00000000 0.00000000 26.52170000

ATOMIC_POSITIONS {angstrom}
Cu 1.53718250 0.00000000 -1.086859269999998 0 0 0
Cu 4.61154750 4.34780500 -1.086859269999998 0 0 0
Cu 4.61154750 0.00000000 -1.086859269999998 0 0 0
Cu 1.53718250 4.34780500 -1.086859269999998 0 0 0
Cu 4.61154750 6.52170750 -3.2608430099999985 0 0 0
Cu 1.53718250 2.17390250 -3.2608430099999985 0 0 0
Cu 1.53718250 6.52170750 -3.2608430099999985 0 0 0
Cu 4.61154750 2.17390250 -3.2608430099999985 0 0 0
Cu 1.34564956 4.42997851 3.03806073
Cu 4.80375680 8.61378431 3.03753030
Cu 4.80308044 4.42997851 3.03806073
Cu 1.34497320 8.61378431 3.03753030
Cu 4.74134719 2.17372859 1.24917207
Cu 1.28207169 6.52179446 1.29956330
Cu 1.40744430 2.17372859 1.24917207
Cu 4.86665831 6.52179446 1.29956330
Ni 0.00000000 0.00000000 -3.2608430099999985 0 0 0
Ni 3.07436500 2.17390250 -1.086859269999998 0 0 0
Ni 3.07436500 6.52170750 -1.086859269999998 0 0 0
Ni 0.00000000 4.34780500 -3.2608430099999985 0 0 0
Ni 0.00006149 4.30302261 0.88184653
Ni 3.07430351 6.52231619 2.96353476
Ni 3.07473392 2.17372859 3.15820404
Ni 6.14866851 0.04434761 0.88211174
Sn 0.00000000 6.52170750 -1.086859269999998 0 0 0
Sn 3.07436500 0.00000000 -3.2608430099999985 0 0 0
Sn 0.00000000 2.17390250 -1.086859269999998 0 0 0
Sn 3.07436500 4.34780500 -3.2608430099999985 0 0 0
Sn 0.00000000 2.17407641 3.72072929
Sn 3.07436500 4.38241353 1.06617234
Sn 6.14860703 6.52188141 3.99735062
Sn 3.07436500 8.66108843 1.06590712
C 3.07436500 2.17390250 4.93489272
O 3.07424203 2.17372859 6.09176927
