&CONTROL
calculation = 'relax'
prefix = 'scf'
pseudo_dir = '/vol0403/data/hp230205/u10028/POT_HYBRID_KKJUS_GBRV'
outdir = './data'
tprnfor = .true.
nstep = 50
disk_io = 'non'
/
&SYSTEM
ibrav = 0
ecutwfc = 50.0
ecutrho = 400
occupations = 'smearing'
smearing = 'mp'
degauss = 0.01
assume_isolated = 'esm'
esm_bc = 'bc1'
input_dft = 'BEEF-VDW'
nosym = .true.
nspin = 1
ntyp = 5
nat = 17
/
&ELECTRONS
electron_maxstep = 200
mixing_beta = 0.1
conv_thr = 1e-06
/
&IONS
ion_dynamics = 'bfgs'
upscale = 1.0
/
&CELL
/

K_POINTS {automatic}
8 11 2 0  0  0

ATOMIC_SPECIES
C 12.01 C.pbe-n-rrkjus_psl.1.0.0.UPF
Ge 72.64 Ge.pbe-dn-rrkjus_psl.1.0.0.UPF
Li 6.941 Li.pbe-sl-rrkjus_psl.1.0.0.UPF
Sn 118.7 Sn.pbe-dn-rrkjus_psl.1.0.0.UPF
Y 88.90 Y.pbe-spn-rrkjus_psl.1.0.0.UPF


CELL_PARAMETERS {angstrom}
8.60818000 0.00000000 0.00000000
0.00000000 6.35836000 0.00000000
0.00000000 0.00000000 24.74450000

ATOMIC_POSITIONS {angstrom}
Li 0.00000000 3.17918000 -2.3722552199999996 0 0 0
Li 0.00000000 5.83265080 0.63271686
Li 4.30409000 3.17918000 -2.3722552199999996 0 0 0
Li 4.30409000 5.96490468 0.95365303
Y 2.15204500 1.42955008 -0.7908342199999971 0 0 0
Y 1.79919570 3.85876152 2.38066835
Y 6.45613500 1.42955008 -0.7908342199999971 0 0 0
Y 6.80898430 3.85876152 2.38042090
Sn 2.15204500 4.60873008 -0.7908342199999971 0 0 0
Sn 1.62298626 0.62286495 2.82755401
Sn 6.45613500 4.60873008 -0.7908342199999971 0 0 0
Sn 6.98519374 0.62286495 2.82755401
Ge 0.00000000 0.00000000 -2.3722552199999996 0 0 0
Ge 0.00000000 2.18015448 0.93781655
Ge 4.30409000 0.00000000 -2.3722552199999996 0 0 0
Ge 4.30409000 2.80950495 0.87917208
C 0.00000000 5.30293582 2.74589716
