&CONTROL
calculation = 'relax'
prefix = 'scf'
pseudo_dir = '/vol0004/mdt0/data/hp150275/u10028/POT_KKJUS'
outdir = './data'
tprnfor = .true.
nstep = 50
disk_io = 'non'
/
&SYSTEM
ibrav = 0
ecutwfc = 50.0
ecutrho = 400
occupations = 'smearing'
smearing = 'mp'
degauss = 0.01
assume_isolated = 'esm'
esm_bc = 'bc1'
input_dft = 'BEEF-VDW'
nosym = .true.
nspin = 1
ntyp = 4
nat = 33
/
&ELECTRONS
electron_maxstep = 200
mixing_beta = 0.1
conv_thr = 1e-06
/
&IONS
ion_dynamics = 'bfgs'
upscale = 1.0
/
&CELL
/

K_POINTS {automatic}
9 6 2 0  0  0

ATOMIC_SPECIES
Ag 107.8 Ag.pbe-n-rrkjus_psl.1.0.0.UPF
C 12.01 C.pbe-n-rrkjus_psl.1.0.0.UPF
In 114.8 In.pbe-dn-rrkjus_psl.1.0.0.UPF
Mg 24.30 Mg.pbe-spnl-rrkjus_psl.1.0.0.UPF

CELL_PARAMETERS {angstrom}
6.85111000 0.00000000 0.00000000
0.00000000 9.68893000 0.00000000
0.00000000 0.00000000 27.26670000

ATOMIC_POSITIONS {angstrom}
Mg 0.00000000 0.00000000 -3.633287769999999 0 0 0
Mg 3.42555500 2.42223250 -1.211186810000001 0 0 0
Mg 3.42555500 7.26669750 -1.211186810000001 0 0 0
Mg 0.00000000 4.84446500 -3.633287769999999 0 0 0
Mg 0.00000000 4.84446500 1.34015830
Mg 3.42555500 7.49370913 3.68373117
Mg 3.42555500 2.19522087 3.68373117
Mg 0.00000000 0.00000000 1.38732970
In 0.00000000 7.26669750 -1.211186810000001 0 0 0
In 3.42555500 0.00000000 -3.633287769999999 0 0 0
In 0.00000000 2.42223250 -1.211186810000001 0 0 0
In 3.42555500 4.84446500 -3.633287769999999 0 0 0
In 0.00000000 2.61106975 3.99729822
In 3.42555500 4.84446500 1.17301343
In 0.00000000 7.07795714 3.99729822
In 3.42555500 0.00000000 1.25917621
Ag 1.71277750 0.00000000 -1.211186810000001 0 0 0
Ag 5.13833250 4.84446500 -1.211186810000001 0 0 0
Ag 5.13833250 0.00000000 -1.211186810000001 0 0 0
Ag 1.71277750 4.84446500 -1.211186810000001 0 0 0
Ag 5.13833250 7.26669750 -3.633287769999999 0 0 0
Ag 1.71277750 2.42223250 -3.633287769999999 0 0 0
Ag 1.71277750 7.26669750 -3.633287769999999 0 0 0
Ag 5.13833250 2.42223250 -3.633287769999999 0 0 0
Ag 1.92344913 4.84446500 3.69000251
Ag 5.50370220 0.00000000 4.11563570
Ag 4.92766087 4.84446500 3.69000251
Ag 1.34740780 0.00000000 4.11563570
Ag 5.22767097 2.44693927 1.25563154
Ag 1.62343903 7.24199073 1.25563154
Ag 1.62343903 2.44693927 1.25563154
Ag 5.22767097 7.24199073 1.25563154
C 3.42555500 0.00000000 3.56512103
