&CONTROL
calculation = 'relax'
prefix = 'scf'
pseudo_dir = '/vol0004/mdt0/data/hp150275/u10028/POT_HYBRID_KKJUS_GBRV'
outdir = './data'
tprnfor = .true.
nstep = 50
disk_io = 'non'
/
&SYSTEM
ibrav = 0
ecutwfc = 50.0
ecutrho = 400
occupations = 'smearing'
smearing = 'mp'
degauss = 0.01
assume_isolated = 'esm'
esm_bc = 'bc1'
input_dft = 'BEEF-VDW'
nosym = .true.
nspin = 2
ntyp = 5
nat = 34
starting_magnetization(1) = 0.0
starting_magnetization(2) = 0.1
starting_magnetization(3) = 0.0
starting_magnetization(4) = 0.0
starting_magnetization(5) = 0.0
/
&ELECTRONS
electron_maxstep = 200
mixing_beta = 0.1
conv_thr = 1e-06
/
&IONS
ion_dynamics = 'bfgs'
upscale = 1.0
/
&CELL
/

K_POINTS {automatic}
9 6 2 0  0  0

ATOMIC_SPECIES
C 12.01 C.pbe-n-rrkjus_psl.1.0.0.UPF
Co 58.93 co_pbe_v1.2.uspp.F.UPF
Ge 72.64 Ge.pbe-dn-rrkjus_psl.1.0.0.UPF
O 15.99 O.pbe-n-rrkjus_psl.1.0.0.UPF
Ti 47.86 Ti.pbe-spn-rrkjus_psl.1.0.0.UPF

CELL_PARAMETERS {angstrom}
5.88044000 0.00000000 0.00000000
0.00000000 8.31620000 0.00000000
0.00000000 0.00000000 26.23710000

ATOMIC_POSITIONS {angstrom}
Ti 0.00000000 0.00000000 23.11855829
Ti 2.94022000 2.07905000 25.19758610
Ti 2.94022000 6.23715000 25.19758610
Ti 0.00000000 4.15810000 23.11855829
Ti 0.00000000 4.15934743 1.01904896
Ti 2.94027880 6.23731632 3.11513088
Ti 2.94027880 2.07888368 3.11224480
Ti 5.88038120 8.31495257 1.01931134
Co 1.47011000 0.00000000 25.19758610
Co 4.41033000 4.15810000 25.19758610
Co 4.41033000 0.00000000 25.19758610
Co 1.47011000 4.15810000 25.19758610
Co 4.41033000 6.23715000 23.11855829
Co 1.47011000 2.07905000 23.11855829
Co 1.47011000 6.23715000 23.11855829
Co 4.41033000 2.07905000 23.11855829
Co 1.39566363 4.15884846 2.94327788
Co 4.48477637 8.31545154 2.94327788
Co 4.48483517 4.15884846 2.94327788
Co 1.39572243 8.31545154 2.94327788
Co 4.37304801 2.07921632 1.04423658
Co 1.50609829 6.23698368 1.04659792
Co 1.50733319 2.07921632 1.04423658
Co 4.37434171 6.23698368 1.04659792
Ge 0.00000000 6.23715000 25.19758610
Ge 2.94022000 0.00000000 23.11855829
Ge 0.00000000 2.07905000 25.19758610
Ge 2.94022000 4.15810000 23.11855829
Ge 0.00011761 2.07988162 3.17836229
Ge 2.94022000 4.15951375 1.04239998
Ge 0.00017641 6.23631838 3.19121847
Ge 2.94022000 8.31478625 1.04135050
C 0.00082326 2.07905000 7.13229326
O 0.00011761 2.07913316 8.26731021
