&CONTROL
calculation = 'relax'
prefix = 'scf'
pseudo_dir = '/vol0004/mdt0/data/hp150275/u10028/POT_HYBRID_KKJUS_GBRV'
outdir = './data'
tprnfor = .true.
nstep = 50
disk_io = 'non'
/
&SYSTEM
ibrav = 0
ecutwfc = 50.0
ecutrho = 400
occupations = 'smearing'
smearing = 'mp'
degauss = 0.01
assume_isolated = 'esm'
esm_bc = 'bc1'
input_dft = 'BEEF-VDW'
nosym = .true.
nspin = 2
ntyp = 5
nat = 34
starting_magnetization(1) = 0.0
starting_magnetization(2) = 0.0
starting_magnetization(3) = 0.1
starting_magnetization(4) = 0.0
starting_magnetization(5) = 0.0
/
&ELECTRONS
electron_maxstep = 300
mixing_beta = 0.1
conv_thr = 1e-06
/
&IONS
ion_dynamics = 'bfgs'
upscale = 1.0
/
&CELL
/

K_POINTS {automatic}
9 6 2 0  0  0

ATOMIC_SPECIES
Al 26.98 Al.pbe-nl-rrkjus_psl.1.0.0.UPF
C 12.01 C.pbe-n-rrkjus_psl.1.0.0.UPF
Fe 55.84 fe_pbe_v1.5.uspp.F.UPF
O 15.99 O.pbe-n-rrkjus_psl.1.0.0.UPF
Ti 47.86 Ti.pbe-spn-rrkjus_psl.1.0.0.UPF

CELL_PARAMETERS {angstrom}
5.83886000 0.00000000 0.00000000
0.00000000 8.25739000 0.00000000
0.00000000 0.00000000 26.19300000

ATOMIC_POSITIONS {angstrom}
Ti 0.00000000 0.00000000 -3.096536460000003 0 0 0
Ti 2.91943000 2.06434750 -1.03226613 0 0 0
Ti 2.91943000 6.19304250 -1.03226613 0 0 0
Ti 0.00000000 4.12869500 -3.096536460000003 0 0 0
Ti 0.00000000 4.13678724 0.99533400
Ti 2.91943000 6.19287735 3.10387050
Ti 2.91943000 2.06451265 3.09470295
Ti 0.00000000 8.24929776 0.99507207
Al 0.00000000 6.19304250 -1.03226613 0 0 0
Al 2.91943000 0.00000000 -3.096536460000003 0 0 0
Al 0.00000000 2.06434750 -1.03226613 0 0 0
Al 2.91943000 4.12869500 -3.096536460000003 0 0 0
Al 0.00005839 2.06451265 3.21466689
Al 2.91937161 4.12621778 0.99297663
Al 0.00000000 6.19287735 3.18795003
Al 2.91943000 0.00247722 0.99297663
Fe 1.45971500 0.00000000 -1.03226613 0 0 0
Fe 4.37914500 4.12869500 -1.03226613 0 0 0
Fe 4.37914500 0.00000000 -1.03226613 0 0 0
Fe 1.45971500 4.12869500 -1.03226613 0 0 0
Fe 4.37914500 6.19304250 -3.096536460000003 0 0 0
Fe 1.45971500 2.06434750 -3.096536460000003 0 0 0
Fe 1.45971500 6.19304250 -3.096536460000003 0 0 0
Fe 4.37914500 2.06434750 -3.096536460000003 0 0 0
Fe 1.42415634 4.14438404 3.03157782
Fe 4.41482043 8.24170096 3.03157782
Fe 4.41470366 4.14438404 3.03157782
Fe 1.42403957 8.24170096 3.03157782
Fe 4.37155448 2.06418235 1.10141565
Fe 1.48044295 6.19320765 1.07391300
Fe 1.46724713 2.06409978 1.10115372
Fe 4.35841705 6.19312507 1.07391300
C 0.00005839 2.06434750 5.22707508
O 0.00005839 2.06434750 6.38297217
