&CONTROL
calculation = 'relax'
prefix = 'scf'
pseudo_dir = '/vol0004/mdt0/data/hp150275/u10028/POT_KKJUS'
outdir = './data'
tprnfor = .true.
nstep = 50
disk_io = 'non'
/
&SYSTEM
ibrav = 0
ecutwfc = 50.0
ecutrho = 400
occupations = 'smearing'
smearing = 'mp'
degauss = 0.01
assume_isolated = 'esm'
esm_bc = 'bc1'
input_dft = 'BEEF-VDW'
nosym = .true.
nspin = 1
ntyp = 4
nat = 34
/
&ELECTRONS
electron_maxstep = 200
mixing_beta = 0.1
conv_thr = 1e-06
/
&IONS
ion_dynamics = 'bfgs'
upscale = 1.0
/
&CELL
/

K_POINTS {automatic}
8 6 2 0  0  0

ATOMIC_SPECIES
C 12.01 C.pbe-n-rrkjus_psl.1.0.0.UPF
O 15.99 O.pbe-n-rrkjus_psl.1.0.0.UPF
Sb 121.7 Sb.pbe-n-rrkjus_psl.1.0.0.UPF
Sn 118.7 Sn.pbe-dn-rrkjus_psl.1.0.0.UPF

CELL_PARAMETERS {angstrom}
7.64519000 0.00000000 0.00000000
0.00000000 10.81190000 0.00000000
0.00000000 0.00000000 28.10890000

ATOMIC_POSITIONS {angstrom}
Sn 1.91129750 2.70297500 -4.054427739999998 0 0 0
Sn 1.91129750 0.00000000 -1.3514759099999978 0 0 0
Sn 1.91137395 2.51452358 1.57747147
Sn 1.91114460 0.00010812 4.12132692
Sn 1.91129750 8.10892500 -4.054427739999998 0 0 0
Sn 1.91129750 5.40595000 -1.3514759099999978 0 0 0
Sn 1.91122105 8.29748454 1.57747147
Sn 1.91122105 5.40595000 4.89488385
Sn 5.73389250 2.70297500 -4.054427739999998 0 0 0
Sn 5.73389250 0.00000000 -1.3514759099999978 0 0 0
Sn 5.73396895 2.60696533 1.49539348
Sn 5.73373960 0.00000000 4.26355795
Sn 5.73389250 8.10892500 -4.054427739999998 0 0 0
Sn 5.73389250 5.40595000 -1.3514759099999978 0 0 0
Sn 5.73389250 8.20493467 1.49539348
Sn 5.73381605 5.40605812 4.85047178
Sb 0.00000000 0.00000000 -4.054427739999998 0 0 0
Sb 0.00000000 2.70297500 -1.3514759099999978 0 0 0
Sb 7.55788193 0.00010812 1.80431029
Sb 0.00458711 2.93921501 4.10249395
Sb 0.00000000 5.40595000 -4.054427739999998 0 0 0
Sb 0.00000000 8.10892500 -1.3514759099999978 0 0 0
Sb 0.03776724 5.40605812 2.32010861
Sb 0.00458711 7.87279310 4.10249395
Sb 3.82259500 0.00000000 -4.054427739999998 0 0 0
Sb 3.82259500 2.70297500 -1.3514759099999978 0 0 0
Sb 3.90952081 0.00000000 1.80431029
Sb 3.81808434 2.93921502 4.10249395
Sb 3.82259500 5.40595000 -4.054427739999998 0 0 0
Sb 3.82259500 8.10892500 -1.3514759099999978 0 0 0
Sb 3.78467486 5.40605812 2.32010861
Sb 3.81800789 7.87279310 4.10249395
C 1.91244428 10.81027822 8.08215202
O 1.91099169 0.00010812 9.21718940
