&CONTROL
calculation = 'relax'
prefix = 'scf'
pseudo_dir = '/vol0004/mdt0/data/hp150275/u10028/POT_KKJUS'
outdir = './data'
tprnfor = .true.
nstep = 50
disk_io = 'non'
/
&SYSTEM
ibrav = 0
ecutwfc = 50.0
ecutrho = 400
occupations = 'smearing'
smearing = 'mp'
degauss = 0.01
assume_isolated = 'esm'
esm_bc = 'bc1'
input_dft = 'BEEF-VDW'
nosym = .true.
nspin = 1
ntyp = 5
nat = 18
/
&ELECTRONS
electron_maxstep = 200
mixing_beta = 0.1
conv_thr = 1e-06
/
&IONS
ion_dynamics = 'bfgs'
upscale = 1.0
/
&CELL
/

K_POINTS {automatic}
8 8 1 0 0 0

ATOMIC_SPECIES
C 12.01 C.pbe-n-rrkjus_psl.1.0.0.UPF
Ga 69.72 Ga.pbe-dnl-rrkjus_psl.1.0.0.UPF
Li 6.941 Li.pbe-sl-rrkjus_psl.1.0.0.UPF
O 15.99 O.pbe-n-rrkjus_psl.1.0.0.UPF
Rh 102.9 Rh.pbe-spn-rrkjus_psl.1.0.0.UPF

CELL_PARAMETERS {angstrom}
6.12388000 0.00000000 0.00000000
0.00000000 6.12388000 0.00000000
0.00000000 0.00000000 24.59290000

ATOMIC_POSITIONS {angstrom}
Li 0.00000000 6.12381876 2.66882151
Li 3.06200124 3.06194000 2.64693383
Li 3.06194000 0.00000000 -0.7655769799999987 0 0 0
Li 0.00000000 3.06194000 -0.7655769799999987 0 0 0
Ga 1.53305212 1.53305212 0.83566674
Ga 4.59291000 4.59291000 -2.2964850000000006 0 0 0
Ga 4.59076664 1.53305212 0.83566674
Ga 1.53097000 4.59291000 -2.2964850000000006 0 0 0
Ga 4.59076664 4.59082788 0.83566674
Ga 1.53097000 1.53097000 -2.2964850000000006 0 0 0
Ga 1.53311336 4.59082788 0.83566674
Ga 4.59291000 1.53097000 -2.2964850000000006 0 0 0
Rh 0.00000000 0.00000000 -0.7655769799999987 0 0 0
Rh 3.06194000 0.00000000 2.08178899
Rh 0.00000000 3.06194000 2.08178899
Rh 3.06194000 3.06194000 -0.7655769799999987 0 0 0
C 0.00000000 6.12381876 4.77446561
O 0.00000000 0.00000000 5.91385466
