&CONTROL
calculation = 'relax'
prefix = 'scf'
pseudo_dir = '/vol0004/mdt0/data/hp150275/u10028/POT_KKJUS'
outdir = './data'
tprnfor = .true.
nstep = 50
disk_io = 'non'
/
&SYSTEM
ibrav = 0
ecutwfc = 50.0
ecutrho = 400
occupations = 'smearing'
smearing = 'mp'
degauss = 0.01
assume_isolated = 'esm'
esm_bc = 'bc1'
input_dft = 'BEEF-VDW'
nosym = .true.
nspin = 1
ntyp = 5
nat = 18
/
&ELECTRONS
electron_maxstep = 200
mixing_beta = 0.1
conv_thr = 1e-06
/
&IONS
ion_dynamics = 'bfgs'
upscale = 1.0
/
&CELL
/

K_POINTS {automatic}
8 8 1 0 0 0

ATOMIC_SPECIES
C 12.01 C.pbe-n-rrkjus_psl.1.0.0.UPF
In 114.8 In.pbe-dn-rrkjus_psl.1.0.0.UPF
Li 6.941 Li.pbe-sl-rrkjus_psl.1.0.0.UPF
O 15.99 O.pbe-n-rrkjus_psl.1.0.0.UPF
Rh 102.9 Rh.pbe-spn-rrkjus_psl.1.0.0.UPF

CELL_PARAMETERS {angstrom}
6.57920000 0.00000000 0.00000000
0.00000000 6.57920000 0.00000000
0.00000000 0.00000000 24.93440000

ATOMIC_POSITIONS {angstrom}
Li 0.00013158 0.00026317 2.72233779
Li 3.28953421 3.28953421 2.78467379
Li 3.28960000 0.00000000 -0.8223365099999995 0 0 0
Li 0.00000000 3.28960000 -0.8223365099999995 0 0 0
In 1.64789222 1.64723430 0.87694285
In 4.93440000 4.93440000 -2.4672588799999993 0 0 0
In 4.93130778 1.64723430 0.87669350
In 1.64480000 4.93440000 -2.4672588799999993 0 0 0
In 4.93130778 4.93203149 0.87694285
In 1.64480000 1.64480000 -2.4672588799999993 0 0 0
In 1.64789222 4.93196570 0.87694285
In 4.93440000 1.64480000 -2.4672588799999993 0 0 0
Rh 0.00000000 0.00000000 -0.8223365099999995 0 0 0
Rh 3.28960000 0.00000000 2.21866291
Rh 0.00006579 3.28960000 2.22215373
Rh 3.28960000 3.28960000 -0.8223365099999995 0 0 0
C 0.00000000 0.00000000 4.82206362
O 0.00000000 6.57906842 5.96081766
