&CONTROL
calculation = 'relax'
prefix = 'scf'
pseudo_dir = '/vol0403/data/hp230205/u10028/POT_HYBRID_KKJUS_GBRV'
outdir = './data'
tprnfor = .true.
nstep = 50
disk_io = 'non'
/
&SYSTEM
ibrav = 0
ecutwfc = 50.0
ecutrho = 400
occupations = 'smearing'
smearing = 'mp'
degauss = 0.01
assume_isolated = 'esm'
esm_bc = 'bc1'
input_dft = 'BEEF-VDW'
nosym = .true.
nspin = 2
ntyp = 6
nat = 34
starting_magnetization(1) = 0.0
starting_magnetization(2) = 0.0
starting_magnetization(3) = 0.1
starting_magnetization(4) = 0.0
starting_magnetization(5) = 0.0
starting_magnetization(6) = 0.0
/
&ELECTRONS
electron_maxstep = 400
mixing_beta = 0.05
conv_thr = 1e-06
/
&IONS
ion_dynamics = 'bfgs'
upscale = 1.0
/
&CELL
/

K_POINTS {automatic}
6 6 1 0 0 0

ATOMIC_SPECIES
Al 26.98 Al.pbe-nl-rrkjus_psl.1.0.0.UPF
C 12.01 C.pbe-n-rrkjus_psl.1.0.0.UPF
Fe 55.84 fe_pbe_v1.5.uspp.F.UPF
Li 6.941 Li.pbe-sl-rrkjus_psl.1.0.0.UPF
O 15.99 O.pbe-n-rrkjus_psl.1.0.0.UPF
Pd 106.4 Pd.pbe-n-rrkjus_psl.1.0.0.UPF


CELL_PARAMETERS {angstrom}
8.60712000 0.00000000 0.00000000
0.00000000 8.84236000 0.00000000
0.00000000 0.00000000 24.25770000

ATOMIC_POSITIONS {angstrom}
Li 2.17045745 2.22279246 2.25087198
Li 2.15178000 2.21059000 -0.709537730000001 0 0 0
Li 2.17045745 6.61956754 2.25087198
Li 2.15178000 6.63177000 -0.709537730000001 0 0 0
Li 6.43666255 2.22296930 2.25111456
Li 6.45534000 2.21059000 -0.709537730000001 0 0 0
Li 6.43666255 6.61939070 2.25111456
Li 6.45534000 6.63177000 -0.709537730000001 0 0 0
Al 0.00000000 0.00000000 1.97530451
Al 0.00000000 0.00000000 -0.709537730000001 0 0 0
Al 0.00000000 4.42118000 1.91466026
Al 0.00000000 4.42118000 -0.709537730000001 0 0 0
Al 4.30356000 0.00000000 1.91757118
Al 4.30356000 0.00000000 -0.709537730000001 0 0 0
Al 4.30356000 4.42118000 1.92387819
Al 4.30356000 4.42118000 -0.709537730000001 0 0 0
Fe 2.15642784 0.00000000 0.54604083
Fe 2.15178000 0.00000000 -2.1288557499999996 0 0 0
Fe 2.15591142 4.42118000 0.55889741
Fe 2.15178000 4.42118000 -2.1288557499999996 0 0 0
Fe 6.45060608 0.00000000 0.54628340
Fe 6.45534000 0.00000000 -2.1288557499999996 0 0 0
Fe 6.45120858 4.42118000 0.55889741
Fe 6.45534000 4.42118000 -2.1288557499999996 0 0 0
Pd 0.00000000 2.19237474 0.78085536
Pd 0.00000000 2.21059000 -2.1288557499999996 0 0 0
Pd 0.00000000 6.64998526 0.78085536
Pd 0.00000000 6.63177000 -2.1288557499999996 0 0 0
Pd 4.30356000 2.21660280 0.76775620
Pd 4.30356000 2.21059000 -2.1288557499999996 0 0 0
Pd 4.30356000 6.62575720 0.76775620
Pd 4.30356000 6.63177000 -2.1288557499999996 0 0 0
C 0.00000000 0.00000000 3.97996084
O 0.00000000 0.00000000 5.13947890
