&CONTROL
calculation = 'relax'
prefix = 'scf'
pseudo_dir = '/vol0403/data/hp230205/u10028/POT_HYBRID_KKJUS_GBRV'
outdir = './data'
tprnfor = .true.
nstep = 50
disk_io = 'non'
/
&SYSTEM
ibrav = 0
ecutwfc = 50.0
ecutrho = 400
occupations = 'smearing'
smearing = 'mp'
degauss = 0.01
assume_isolated = 'esm'
esm_bc = 'bc1'
input_dft = 'BEEF-VDW'
nosym = .true.
nspin = 1
ntyp = 6
nat = 34
/
&ELECTRONS
electron_maxstep = 200
mixing_beta = 0.1
conv_thr = 1e-06
/
&IONS
ion_dynamics = 'bfgs'
upscale = 1.0
/
&CELL
/

K_POINTS {automatic}
6 6 1 0 0 0

ATOMIC_SPECIES
C 12.01 C.pbe-n-rrkjus_psl.1.0.0.UPF
Cu 63.54 Cu.pbe-dn-rrkjus_psl.1.0.0.UPF
In 114.8 In.pbe-dn-rrkjus_psl.1.0.0.UPF
Li 6.941 Li.pbe-sl-rrkjus_psl.1.0.0.UPF
O 15.99 O.pbe-n-rrkjus_psl.1.0.0.UPF
Pd 106.4 Pd.pbe-n-rrkjus_psl.1.0.0.UPF


CELL_PARAMETERS {angstrom}
6.33486000 0.00000000 0.00000000
0.00000000 8.95884000 0.00000000
0.00000000 0.00000000 26.71910000

ATOMIC_POSITIONS {angstrom}
Li 1.58371500 0.00000000 -1.1197974800000026 0 0 0
Li 1.58371500 4.47942000 -1.1197974800000026 0 0 0
Li 4.75114500 2.23971000 -3.3596596299999995 0 0 0
Li 4.75114500 6.71913000 -3.3596596299999995 0 0 0
Li 1.51960622 4.47942000 3.42378547
Li 1.54120809 0.00000000 3.47749086
Li 4.76172422 6.73507674 0.95627659
Li 4.76172422 2.22376326 0.95627659
In 4.75114500 0.00000000 -1.1197974800000026 0 0 0
In 4.75114500 4.47942000 -1.1197974800000026 0 0 0
In 1.58371500 2.23971000 -3.3596596299999995 0 0 0
In 1.58371500 6.71913000 -3.3596596299999995 0 0 0
In 4.70490052 4.47942000 3.88201804
In 4.72928973 0.00000000 3.73292546
In 1.59929876 6.69458278 1.11605681
In 1.59936210 2.26425722 1.11605681
Cu 0.00000000 0.00000000 -3.3596596299999995 0 0 0
Cu 0.00000000 4.47942000 -3.3596596299999995 0 0 0
Cu 3.16743000 6.71913000 -1.1197974800000026 0 0 0
Cu 3.16743000 2.23971000 -1.1197974800000026 0 0 0
Cu 6.19802702 4.47942000 1.27744017
Cu 6.27296842 0.00000000 1.24056781
Cu 3.38072474 2.25995698 3.10262189
Cu 3.38072474 6.69888302 3.10262189
Pd 0.00000000 2.23971000 -1.1197974800000026 0 0 0
Pd 0.00000000 6.71913000 -1.1197974800000026 0 0 0
Pd 3.16743000 4.47942000 -3.3596596299999995 0 0 0
Pd 3.16743000 0.00000000 -3.3596596299999995 0 0 0
Pd 6.11732091 6.68777406 3.12426436
Pd 6.11738426 2.27106594 3.12426436
Pd 3.24319493 0.00000000 1.25927118
Pd 3.30407293 4.47942000 1.29587635
C 1.62121737 0.00000000 5.59578111
O 1.61671962 0.00000000 6.73588511
