&CONTROL
calculation = 'relax'
prefix = 'scf'
pseudo_dir = '/vol0403/data/hp230205/u10028/POT_HYBRID_KKJUS_GBRV'
outdir = './data'
tprnfor = .true.
nstep = 50
disk_io = 'non'
/
&SYSTEM
ibrav = 0
ecutwfc = 50.0
ecutrho = 400
occupations = 'smearing'
smearing = 'mp'
degauss = 0.01
assume_isolated = 'esm'
esm_bc = 'bc1'
input_dft = 'BEEF-VDW'
nosym = .true.
nspin = 1
ntyp = 6
nat = 34
/
&ELECTRONS
electron_maxstep = 200
mixing_beta = 0.1
conv_thr = 1e-06
/
&IONS
ion_dynamics = 'bfgs'
upscale = 1.0
/
&CELL
/

K_POINTS {automatic}
9 6 2 0  0  0

ATOMIC_SPECIES
C 12.01 C.pbe-n-rrkjus_psl.1.0.0.UPF
Cu 63.54 Cu.pbe-dn-rrkjus_psl.1.0.0.UPF
In 114.8 In.pbe-dn-rrkjus_psl.1.0.0.UPF
Li 6.941 Li.pbe-sl-rrkjus_psl.1.0.0.UPF
O 15.99 O.pbe-n-rrkjus_psl.1.0.0.UPF
Pd 106.4 Pd.pbe-n-rrkjus_psl.1.0.0.UPF


CELL_PARAMETERS {angstrom}
6.33486000 0.00000000 0.00000000
0.00000000 8.95884000 0.00000000
0.00000000 0.00000000 26.71910000

ATOMIC_POSITIONS {angstrom}
Li 1.58371500 0.00000000 -1.1197974800000026 0 0 0
Li 1.58371500 4.47942000 -1.1197974800000026 0 0 0
Li 4.75114500 2.23971000 -3.3596596299999995 0 0 0
Li 4.75114500 6.71913000 -3.3596596299999995 0 0 0
Li 1.51960622 4.47942000 3.42378547
Li 1.54108139 0.00000000 3.47802525
Li 4.76178756 6.73507674 0.95627659
Li 4.76178756 2.22376326 0.95627659
In 4.75114500 0.00000000 -1.1197974800000026 0 0 0
In 4.75114500 4.47942000 -1.1197974800000026 0 0 0
In 1.58371500 2.23971000 -3.3596596299999995 0 0 0
In 1.58371500 6.71913000 -3.3596596299999995 0 0 0
In 4.70528061 4.47942000 3.88228523
In 4.72985987 0.00000000 3.73185670
In 1.59936210 6.69485154 1.11632400
In 1.59942545 2.26398846 1.11632400
Cu 0.00000000 0.00000000 -3.3596596299999995 0 0 0
Cu 0.00000000 4.47942000 -3.3596596299999995 0 0 0
Cu 3.16743000 6.71913000 -1.1197974800000026 0 0 0
Cu 3.16743000 2.23971000 -1.1197974800000026 0 0 0
Cu 6.19821707 4.47942000 1.27717298
Cu 6.27271502 0.00000000 1.24083500
Cu 3.38066139 2.25995698 3.10208751
Cu 3.38066139 6.69888302 3.10208751
Pd 0.00000000 2.23971000 -1.1197974800000026 0 0 0
Pd 0.00000000 6.71913000 -1.1197974800000026 0 0 0
Pd 3.16743000 4.47942000 -3.3596596299999995 0 0 0
Pd 3.16743000 0.00000000 -3.3596596299999995 0 0 0
Pd 6.11763765 6.68804283 3.12453155
Pd 6.11770100 2.27079717 3.12453155
Pd 3.24287818 0.00000000 1.25927118
Pd 3.30375619 4.47942000 1.29534197
C 1.62115402 0.00000000 5.59658269
O 1.61703636 0.00000000 6.73641949
