&CONTROL
calculation = 'relax'
prefix = 'scf'
pseudo_dir = '/vol0004/mdt0/data/hp150275/u10028/POT_KKJUS'
outdir = './data'
tprnfor = .true.
nstep = 50
disk_io = 'non'
/
&SYSTEM
ibrav = 0
ecutwfc = 50.0
ecutrho = 400
occupations = 'smearing'
smearing = 'mp'
degauss = 0.01
assume_isolated = 'esm'
esm_bc = 'bc1'
input_dft = 'BEEF-VDW'
nosym = .true.
nspin = 1
ntyp = 4
nat = 34
/
&ELECTRONS
electron_maxstep = 200
mixing_beta = 0.1
conv_thr = 1e-06
/
&IONS
ion_dynamics = 'bfgs'
upscale = 1.0
/
&CELL
/

K_POINTS {automatic}
9 6 2 0  0  0

ATOMIC_SPECIES
Au 196.9 Au.pbe-n-rrkjus_psl.1.0.0.UPF
C 12.01 C.pbe-n-rrkjus_psl.1.0.0.UPF
O 15.99 O.pbe-n-rrkjus_psl.1.0.0.UPF
Ti 47.86 Ti.pbe-spn-rrkjus_psl.1.0.0.UPF

CELL_PARAMETERS {angstrom}
6.57738000 0.00000000 0.00000000
0.00000000 9.30182000 0.00000000
0.00000000 0.00000000 26.97640000

ATOMIC_POSITIONS {angstrom}
Ti 1.64434500 2.32545500 -3.4883182800000014 0 0 0
Ti 1.64434500 0.00000000 -1.1626828400000022 0 0 0
Ti 1.39368105 2.13365147 1.35853150
Ti 1.63040095 4.81136639 3.36638496
Ti 1.64434500 6.97636500 -3.4883182800000014 0 0 0
Ti 1.64434500 4.65091000 -1.1626828400000022 0 0 0
Ti 1.73386314 7.08724269 1.22688667
Ti 1.60974798 9.23614915 3.23366107
Ti 4.93303500 2.32545500 -3.4883182800000014 0 0 0
Ti 4.93303500 0.00000000 -1.1626828400000022 0 0 0
Ti 5.10036355 2.41224098 1.32373195
Ti 5.04392963 4.49556961 3.24121446
Ti 4.93303500 6.97636500 -3.4883182800000014 0 0 0
Ti 4.93303500 4.65091000 -1.1626828400000022 0 0 0
Ti 4.79438383 6.73702917 1.14784582
Ti 5.09049748 0.24882369 3.36665472
Au 0.00000000 0.00000000 -3.4883182800000014 0 0 0
Au 0.00000000 2.32545500 -1.1626828400000022 0 0 0
Au 6.36591723 9.03253231 1.06880497
Au 0.29249609 2.35177915 3.92857313
Au 0.00000000 4.65091000 -3.4883182800000014 0 0 0
Au 0.00000000 6.97636500 -1.1626828400000022 0 0 0
Au 0.16581575 4.79257672 1.04776338
Au 6.46424906 6.99468959 3.39983569
Au 3.28869000 0.00000000 -3.4883182800000014 0 0 0
Au 3.28869000 2.32545500 -1.1626828400000022 0 0 0
Au 3.41464683 0.14827101 1.11142768
Au 3.23436084 2.34294242 3.42870044
Au 3.28869000 4.65091000 -3.4883182800000014 0 0 0
Au 3.28869000 6.97636500 -1.1626828400000022 0 0 0
Au 3.11399479 4.37752951 1.11493461
Au 3.43668105 7.03850116 3.48481135
C 6.54127018 2.37233617 5.96313322
O 6.48444162 2.32908271 7.11259762
