&CONTROL
calculation = 'relax'
prefix = 'scf'
pseudo_dir = '/vol0004/mdt0/data/hp150275/u10028/POT_KKJUS'
outdir = './data'
tprnfor = .true.
nstep = 50
disk_io = 'non'
/
&SYSTEM
ibrav = 0
ecutwfc = 50.0
ecutrho = 400
occupations = 'smearing'
smearing = 'mp'
degauss = 0.01
assume_isolated = 'esm'
esm_bc = 'bc1'
input_dft = 'BEEF-VDW'
nosym = .true.
nspin = 1
ntyp = 4
nat = 17
/
&ELECTRONS
electron_maxstep = 200
mixing_beta = 0.1
conv_thr = 1e-06
/
&IONS
ion_dynamics = 'bfgs'
upscale = 1.0
/
&CELL
/

K_POINTS {automatic}
8 8 1 0 0 0

ATOMIC_SPECIES
C 12.01 C.pbe-n-rrkjus_psl.1.0.0.UPF
Li 6.941 Li.pbe-sl-rrkjus_psl.1.0.0.UPF
Mg 24.30 Mg.pbe-spnl-rrkjus_psl.1.0.0.UPF
Pb 207.2 Pb.pbe-dn-rrkjus_psl.1.0.0.UPF

CELL_PARAMETERS {angstrom}
6.88544000 0.00000000 0.00000000
0.00000000 6.88544000 0.00000000
0.00000000 0.00000000 25.16410000

ATOMIC_POSITIONS {angstrom}
Li 1.72136000 1.72136000 -0.8606122200000001 0 0 0
Li 5.41195584 5.41161157 2.89185837
Li 5.16408000 1.72136000 -0.8606122200000001 0 0 0
Li 1.47341531 5.41188699 2.89185837
Li 5.16408000 5.16408000 -0.8606122200000001 0 0 0
Li 1.47300218 1.47300218 2.89261329
Li 1.72136000 5.16408000 -0.8606122200000001 0 0 0
Li 5.41223126 1.47327760 2.89211001
Mg 0.00000000 0.00000000 -2.5820883000000023 0 0 0
Mg 3.44272000 3.44272000 -2.5820883000000023 0 0 0
Mg 3.44168718 0.00082625 0.84903673
Mg 0.00103282 3.44327084 0.84853345
Pb 6.88461375 6.88447604 0.67414624
Pb 3.44272000 0.00000000 -2.5820883000000023 0 0 0
Pb 0.00000000 3.44272000 -2.5820883000000023 0 0 0
Pb 3.44265115 3.44244458 1.16610439
C 6.88537115 6.88523344 2.95577519
