&CONTROL
calculation = 'relax'
prefix = 'scf'
pseudo_dir = '/vol0004/mdt0/data/hp150275/u10028/POT_KKJUS'
outdir = './data'
tprnfor = .true.
nstep = 50
disk_io = 'non'
/
&SYSTEM
ibrav = 0
ecutwfc = 50.0
ecutrho = 400
occupations = 'smearing'
smearing = 'mp'
degauss = 0.01
assume_isolated = 'esm'
esm_bc = 'bc1'
input_dft = 'BEEF-VDW'
nosym = .true.
nspin = 1
ntyp = 4
nat = 33
/
&ELECTRONS
electron_maxstep = 200
mixing_beta = 0.1
conv_thr = 1e-06
/
&IONS
ion_dynamics = 'bfgs'
upscale = 1.0
/
&CELL
/

K_POINTS {automatic}
8 6 1 0 0 0

ATOMIC_SPECIES
C 12.01 C.pbe-n-rrkjus_psl.1.0.0.UPF
Cu 63.54 Cu.pbe-dn-rrkjus_psl.1.0.0.UPF
In 114.8 In.pbe-dn-rrkjus_psl.1.0.0.UPF
Ti 47.86 Ti.pbe-spn-rrkjus_psl.1.0.0.UPF

CELL_PARAMETERS {angstrom}
6.30953000 0.00000000 0.00000000
0.00000000 8.92302000 0.00000000
0.00000000 0.00000000 26.69230000

ATOMIC_POSITIONS {angstrom}
Ti 0.00000000 0.00000000 -3.346146730000001 0 0 0
Ti 3.15476500 2.23075500 -1.1154712199999999 0 0 0
Ti 3.15476500 6.69226500 -1.1154712199999999 0 0 0
Ti 0.00000000 4.46151000 -3.346146730000001 0 0 0
Ti 0.00000000 4.46151000 1.19020966
Ti 3.15476500 6.68914194 3.15449601
Ti 3.15476500 2.23378883 3.15449601
Ti 0.00000000 0.00000000 1.41335728
In 0.00000000 6.69226500 -1.1154712199999999 0 0 0
In 3.15476500 0.00000000 -3.346146730000001 0 0 0
In 0.00000000 2.23075500 -1.1154712199999999 0 0 0
In 3.15476500 4.46151000 -3.346146730000001 0 0 0
In 0.00000000 2.37504023 3.70969585
In 3.15476500 4.46142077 1.06689123
In 0.00000000 6.54815823 3.70969585
In 3.15476500 0.00008923 1.10345968
Cu 1.57738250 0.00000000 -1.1154712199999999 0 0 0
Cu 4.73214750 4.46151000 -1.1154712199999999 0 0 0
Cu 4.73214750 0.00000000 -1.1154712199999999 0 0 0
Cu 1.57738250 4.46151000 -1.1154712199999999 0 0 0
Cu 4.73214750 6.69226500 -3.346146730000001 0 0 0
Cu 1.57738250 2.23075500 -3.346146730000001 0 0 0
Cu 1.57738250 6.69226500 -3.346146730000001 0 0 0
Cu 4.73214750 2.23075500 -3.346146730000001 0 0 0
Cu 1.82200298 4.46133154 3.48654823
Cu 4.41635552 0.00000000 3.73425277
Cu 4.48752702 4.46133154 3.48654823
Cu 1.89317448 0.00000000 3.73425277
Cu 4.82906188 2.26484094 1.12881737
Cu 1.48021574 6.65808983 1.12881737
Cu 1.48046812 2.26484094 1.12881737
Cu 4.82931426 6.65808983 1.12881737
C 0.00000000 0.00017846 3.39045595
