&CONTROL
calculation = 'relax'
prefix = 'scf'
pseudo_dir = '/vol0004/mdt0/data/hp150275/u10028/POT_KKJUS'
outdir = './data'
tprnfor = .true.
nstep = 50
disk_io = 'non'
/
&SYSTEM
ibrav = 0
ecutwfc = 50.0
ecutrho = 400
occupations = 'smearing'
smearing = 'mp'
degauss = 0.01
assume_isolated = 'esm'
esm_bc = 'bc1'
input_dft = 'BEEF-VDW'
nosym = .true.
nspin = 1
ntyp = 2
nat = 32
/
&ELECTRONS
electron_maxstep = 200
mixing_beta = 0.1
conv_thr = 1e-06
/
&IONS
ion_dynamics = 'bfgs'
upscale = 1.0
/
&CELL
/

K_POINTS {automatic}
8 6 1 0 0 0

ATOMIC_SPECIES
Zn 65.40 Zn.pbe-dnl-rrkjus_psl.1.0.0.UPF
Zr 91.22 Zr.pbe-spn-rrkjus_psl.1.0.0.UPF

CELL_PARAMETERS {angstrom}
6.67495000 0.00000000 0.00000000
0.00000000 9.43980000 0.00000000
0.00000000 0.00000000 27.07990000

ATOMIC_POSITIONS {angstrom}
Zr 1.66873750 2.35995000 -3.5398845299999984 0 0 0
Zr 1.66873750 4.71990000 -1.179871239999997 0 0 0
Zr 1.66880425 2.35985560 1.19205720
Zr 1.66887100 9.43970560 3.52444898
Zr 1.66873750 7.07985000 -3.5398845299999984 0 0 0
Zr 1.66873750 0.00000000 -1.179871239999997 0 0 0
Zr 1.66880425 7.07994440 1.19205720
Zr 1.66887100 4.71999440 3.52499058
Zr 5.00621250 2.35995000 -3.5398845299999984 0 0 0
Zr 5.00621250 4.71990000 -1.179871239999997 0 0 0
Zr 5.00614575 2.35985560 1.19205720
Zr 5.00607900 9.43970560 3.52417819
Zr 5.00621250 7.07985000 -3.5398845299999984 0 0 0
Zr 5.00621250 0.00000000 -1.179871239999997 0 0 0
Zr 5.00614575 7.07994440 1.19205720
Zr 5.00607900 4.71999440 3.52499058
Zn 0.00000000 0.00000000 -3.5398845299999984 0 0 0
Zn 0.00000000 2.35995000 -1.179871239999997 0 0 0
Zn 0.00000000 0.00028319 1.19341119
Zn 0.00000000 2.36098838 3.61489585
Zn 0.00000000 4.71990000 -3.5398845299999984 0 0 0
Zn 0.00000000 7.07985000 -1.179871239999997 0 0 0
Zn 0.00000000 4.71961681 1.19422359
Zn 0.00000000 7.07881162 3.61516665
Zn 3.33747500 0.00000000 -3.5398845299999984 0 0 0
Zn 3.33747500 2.35995000 -1.179871239999997 0 0 0
Zn 3.33747500 0.00028319 1.19314039
Zn 3.33747500 2.36098838 3.61516665
Zn 3.33747500 4.71990000 -3.5398845299999984 0 0 0
Zn 3.33747500 7.07985000 -1.179871239999997 0 0 0
Zn 3.33747500 4.71961681 1.19395279
Zn 3.33747500 7.07881162 3.61543745
