&CONTROL
calculation = 'relax'
prefix = 'scf'
pseudo_dir = '/vol0004/mdt0/data/hp150275/u10028/POT_HYBRID_KKJUS_GBRV'
outdir = './data'
tprnfor = .true.
nstep = 50
disk_io = 'non'
/
&SYSTEM
ibrav = 0
ecutwfc = 50.0
ecutrho = 400
occupations = 'smearing'
smearing = 'mp'
degauss = 0.01
assume_isolated = 'esm'
esm_bc = 'bc1'
input_dft = 'BEEF-VDW'
nosym = .true.
nspin = 2
ntyp = 5
nat = 18
starting_magnetization(1) = 0.1
starting_magnetization(2) = 0.1
starting_magnetization(3) = 0.1
starting_magnetization(4) = 0.1
starting_magnetization(5) = 0.1
/
&ELECTRONS
electron_maxstep = 200
mixing_beta = 0.1
conv_thr = 1e-06
/
&IONS
ion_dynamics = 'bfgs'
upscale = 1.0
/
&CELL
/

K_POINTS {automatic}
8 8 1 0 0 0

ATOMIC_SPECIES
C 12.01 C.pbe-n-rrkjus_psl.1.0.0.UPF
In 114.8 In.pbe-dn-rrkjus_psl.1.0.0.UPF
Mn 54.93 mn_pbe_v1.5.uspp.F.UPF
Ni 58.69 ni_pbe_v1.4.uspp.F.UPF
O 15.99 O.pbe-n-rrkjus_psl.1.0.0.UPF

CELL_PARAMETERS {angstrom}
6.11439000 0.00000000 0.00000000
-0.00000000 6.11439000 0.00000000
0.00000000 0.00000000 24.58580000

ATOMIC_POSITIONS {angstrom}
Mn 0.00000000 0.00000000 2.29287171
Mn 3.05719500 3.05719500 2.29287171
Mn 3.05719500 0.00000000 -0.7643725199999984 0 0 0
Mn 0.00000000 3.05719500 -0.7643725199999984 0 0 0
In 0.00000000 0.00000000 -0.7643725199999984 0 0 0
In 3.05719500 -0.00000000 2.29287171
In 0.00000000 3.05719500 2.29287171
In 3.05719500 3.05719500 -0.7643725199999984 0 0 0
Ni 1.52859750 1.52859750 0.76437252
Ni 4.58579250 4.58579250 -2.29287171 0 0 0
Ni 4.58579250 1.52859750 0.76437252
Ni 1.52859750 4.58579250 -2.29287171 0 0 0
Ni 4.58579250 4.58579250 0.76437252
Ni 1.52859750 1.52859750 -2.29287171 0 0 0
Ni 1.52859750 4.58579250 0.76437252
Ni 4.58579250 1.52859750 -2.29287171 0 0 0
C 0.00000000 0.00000000 4.19286233
O 0.00000000 0.00000000 5.34298606
