&CONTROL
calculation = 'relax'
prefix = 'scf'
pseudo_dir = '/vol0004/mdt0/data/hp150275/u10028/POT_KKJUS'
outdir = './data'
tprnfor = .true.
nstep = 50
disk_io = 'non'
/
&SYSTEM
ibrav = 0
ecutwfc = 50.0
ecutrho = 400
occupations = 'smearing'
smearing = 'mp'
degauss = 0.01
assume_isolated = 'esm'
esm_bc = 'bc1'
input_dft = 'BEEF-VDW'
nosym = .true.
nspin = 1
ntyp = 3
nat = 17
/
&ELECTRONS
electron_maxstep = 200
mixing_beta = 0.1
conv_thr = 1e-06
/
&IONS
ion_dynamics = 'bfgs'
upscale = 1.0
/
&CELL
/

K_POINTS {automatic}
8 8 1 0 0 0

ATOMIC_SPECIES
C 12.01 C.pbe-n-rrkjus_psl.1.0.0.UPF
Ca 40.07 Ca.pbe-spn-rrkjus_psl.1.0.0.UPF
Ni 58.69 Ni.pbe-spn-rrkjus_psl.1.0.0.UPF

CELL_PARAMETERS {angstrom}
6.93038000 0.00000000 0.00000000
0.00000000 6.93038000 0.00000000
0.00000000 0.00000000 25.19780000

ATOMIC_POSITIONS {angstrom}
Ca 1.73259500 1.73259500 -1.0295821099999998 0 0 0
Ca 1.71506114 1.71519975 2.40764979
Ca 1.73259500 5.19778500 -1.0295821099999998 0 0 0
Ca 1.71519975 5.21524956 2.40714583
Ca 5.19778500 1.73259500 -1.0295821099999998 0 0 0
Ca 5.21518025 1.71506114 2.40739781
Ca 5.19778500 5.19778500 -1.0295821099999998 0 0 0
Ca 5.21545747 5.21524956 2.40714583
Ni 0.00000000 0.00000000 -2.7621828400000012 0 0 0
Ni 6.92968696 6.92947905 0.58383303
Ni 0.00000000 3.46519000 -2.7621828400000012 0 0 0
Ni 6.93024139 3.46539791 0.74610686
Ni 3.46519000 0.00000000 -2.7621828400000012 0 0 0
Ni 3.46477418 0.00055443 0.74509895
Ni 3.46519000 3.46519000 -2.7621828400000012 0 0 0
Ni 3.46525930 3.46505139 0.78692729
C 6.93031070 0.00000000 2.38270397
