&CONTROL
calculation = 'relax'
prefix = 'scf'
pseudo_dir = '/vol0403/data/hp230205/u10028/POT_HYBRID_KKJUS_GBRV'
outdir = './data'
tprnfor = .true.
nstep = 50
disk_io = 'non'
/
&SYSTEM
ibrav = 0
ecutwfc = 50.0
ecutrho = 400
occupations = 'smearing'
smearing = 'mp'
degauss = 0.01
assume_isolated = 'esm'
esm_bc = 'bc1'
input_dft = 'BEEF-VDW'
nosym = .true.
nspin = 2
ntyp = 4
nat = 32
starting_magnetization(1) = 0.0
starting_magnetization(2) = 0.1
starting_magnetization(3) = 0.0
starting_magnetization(4) = 0.0
/
&ELECTRONS
electron_maxstep = 400
mixing_beta = 0.05
conv_thr = 1e-06
/
&IONS
ion_dynamics = 'bfgs'
upscale = 1.0
/
&CELL
/

K_POINTS {automatic}
6 10 2 0  0  0

ATOMIC_SPECIES
Al 26.98 Al.pbe-nl-rrkjus_psl.1.0.0.UPF
Fe 55.84 fe_pbe_v1.5.uspp.F.UPF
Li 6.941 Li.pbe-sl-rrkjus_psl.1.0.0.UPF
Pd 106.4 Pd.pbe-n-rrkjus_psl.1.0.0.UPF


CELL_PARAMETERS {angstrom}
8.84236000 0.00000000 0.00000000
0.00000000 5.67696000 0.00000000
0.00000000 0.00000000 26.45530000

ATOMIC_POSITIONS {angstrom}
Li 2.21059000 0.00000000 25.37936295
Li 2.21067842 0.00000000 3.35929399
Li 2.21059000 2.83848000 25.37936295
Li 2.21067842 2.83848000 3.35929399
Li 6.63177000 0.00000000 25.37936295
Li 6.63168158 0.00000000 3.35929399
Li 6.63177000 2.83848000 25.37936295
Li 6.63168158 2.83848000 3.35929399
Al 0.00000000 0.00000000 23.22775340
Al 0.00000000 0.00000000 0.88704621
Al 0.00000000 2.83848000 23.22775340
Al 0.00000000 2.83848000 0.88704621
Al 4.42118000 0.00000000 23.22775340
Al 4.42118000 0.00000000 0.88704621
Al 4.42118000 2.83848000 23.22775340
Al 4.42118000 2.83848000 0.88704621
Fe 0.00000000 1.41924000 25.37936295
Fe 8.84227158 1.41901292 2.87754298
Fe 0.00000000 4.25772000 25.37936295
Fe 8.84227158 4.25794708 2.87754298
Fe 4.42118000 1.41924000 25.37936295
Fe 4.42126842 1.41906969 2.87727843
Fe 4.42118000 4.25772000 25.37936295
Fe 4.42118000 4.25789031 2.87727843
Pd 2.21059000 1.41924000 23.22775340
Pd 2.21050158 1.41924000 1.09524942
Pd 2.21059000 4.25772000 23.22775340
Pd 2.21050158 4.25772000 1.09524942
Pd 6.63177000 1.41924000 23.22775340
Pd 6.63185842 1.41924000 1.09524942
Pd 6.63177000 4.25772000 23.22775340
Pd 6.63185842 4.25772000 1.09524942
