&CONTROL
calculation = 'relax'
prefix = 'scf'
pseudo_dir = '/vol0403/data/hp230205/u10028/POT_HYBRID_KKJUS_GBRV'
outdir = './data'
tprnfor = .true.
nstep = 70
disk_io = 'non'
/
&SYSTEM
ibrav = 0
ecutwfc = 50.0
ecutrho = 400
occupations = 'smearing'
smearing = 'mp'
degauss = 0.01
assume_isolated = 'esm'
esm_bc = 'bc1'
input_dft = 'BEEF-VDW'
nosym = .true.
nspin = 1
ntyp = 5
nat = 33
/
&ELECTRONS
electron_maxstep = 200
mixing_beta = 0.1
conv_thr = 1e-06
/
&IONS
ion_dynamics = 'bfgs'
upscale = 1.0
/
&CELL
/

K_POINTS {automatic}
9 6 2 0  0  0

ATOMIC_SPECIES
Ag 107.8 Ag.pbe-n-rrkjus_psl.1.0.0.UPF
C 12.01 C.pbe-n-rrkjus_psl.1.0.0.UPF
Li 6.941 Li.pbe-sl-rrkjus_psl.1.0.0.UPF
Pd 106.4 Pd.pbe-n-rrkjus_psl.1.0.0.UPF
Sn 118.7 Sn.pbe-dn-rrkjus_psl.1.0.0.UPF


CELL_PARAMETERS {angstrom}
6.55175000 0.00000000 0.00000000
-0.00000000 9.26558000 0.00000000
0.00000000 0.00000000 26.94920000

ATOMIC_POSITIONS {angstrom}
Li 1.63793750 0.00000000 -1.1582766200000023 0 0 0
Li 1.63793750 4.63279000 -1.1582766200000023 0 0 0
Li 4.91381250 2.31639500 -3.4745603600000017 0 0 0
Li 4.91381250 6.94918500 -3.4745603600000017 0 0 0
Li 1.60301667 4.63279000 3.51767908
Li 1.78305876 -0.00000000 3.44653319
Li 4.91368146 6.93630584 1.04697642
Li 4.91368146 2.32918150 1.04697642
Ag 0.00000000 0.00000000 -3.4745603600000017 0 0 0
Ag 0.00000000 4.63279000 -3.4745603600000017 0 0 0
Ag 3.27587500 6.94918500 -1.1582766200000023 0 0 0
Ag 3.27587500 2.31639500 -1.1582766200000023 0 0 0
Ag 6.40800461 4.63279000 1.37656514
Ag 6.39850457 -0.00000000 1.21756486
Ag 3.46358264 2.47261268 3.29939056
Ag 3.46358264 6.79305998 3.29939056
Sn 4.91381250 0.00000000 -1.1582766200000023 0 0 0
Sn 4.91381250 4.63279000 -1.1582766200000023 0 0 0
Sn 1.63793750 2.31639500 -3.4745603600000017 0 0 0
Sn 1.63793750 6.94918500 -3.4745603600000017 0 0 0
Sn 5.20064812 4.63279000 3.98336125
Sn 4.38220351 -0.00000000 4.39487554
Sn 1.62221330 6.91879390 1.14695795
Sn 1.62221330 2.34678610 1.14695795
Pd 0.00000000 2.31639500 -1.1582766200000023 0 0 0
Pd 0.00000000 6.94918500 -1.1582766200000023 0 0 0
Pd 3.27587500 4.63279000 -3.4745603600000017 0 0 0
Pd 3.27587500 0.00000000 -3.4745603600000017 0 0 0
Pd 6.40040458 7.19259179 3.22447178
Pd 6.40040458 2.07298821 3.22447178
Pd 3.32357174 -0.00000000 1.20894111
Pd 3.32855107 4.63279000 1.24370558
C 6.34373194 -0.00000000 3.58747750
