&CONTROL
calculation = 'relax'
prefix = 'scf'
pseudo_dir = '/vol0004/mdt0/data/hp150275/u10028/POT_KKJUS'
outdir = './data'
tprnfor = .true.
nstep = 50
disk_io = 'non'
/
&SYSTEM
ibrav = 0
ecutwfc = 50.0
ecutrho = 400
occupations = 'smearing'
smearing = 'mp'
degauss = 0.01
assume_isolated = 'esm'
esm_bc = 'bc1'
input_dft = 'BEEF-VDW'
nosym = .true.
nspin = 1
ntyp = 4
nat = 33
/
&ELECTRONS
electron_maxstep = 200
mixing_beta = 0.1
conv_thr = 1e-06
/
&IONS
ion_dynamics = 'bfgs'
upscale = 1.0
/
&CELL
/

K_POINTS {automatic}
8 6 1 0 0 0

ATOMIC_SPECIES
C 12.01 C.pbe-n-rrkjus_psl.1.0.0.UPF
Cu 63.54 Cu.pbe-dn-rrkjus_psl.1.0.0.UPF
Rh 102.9 Rh.pbe-spn-rrkjus_psl.1.0.0.UPF
Sn 118.7 Sn.pbe-dn-rrkjus_psl.1.0.0.UPF

CELL_PARAMETERS {angstrom}
6.25984000 0.00000000 0.00000000
0.00000000 8.85274000 0.00000000
0.00000000 0.00000000 26.63960000

ATOMIC_POSITIONS {angstrom}
Cu 0.00000000 0.00000000 -3.319826950000003 0 0 0
Cu 3.12992000 2.21318500 -1.1066089800000007 0 0 0
Cu 3.12992000 6.63955500 -1.1066089800000007 0 0 0
Cu 0.00000000 4.42637000 -3.319826950000003 0 0 0
Cu 0.00682323 4.43539979 1.12472391
Cu 2.98575588 6.63831562 3.34859772
Cu 3.30625969 2.21628346 3.10005025
Cu 0.00713622 8.84317904 1.12765427
Sn 0.00000000 6.63955500 -1.1066089800000007 0 0 0
Sn 3.12992000 0.00000000 -3.319826950000003 0 0 0
Sn 0.00000000 2.21318500 -1.1066089800000007 0 0 0
Sn 3.12992000 4.42637000 -3.319826950000003 0 0 0
Sn 5.69432605 2.21690315 3.82997529
Sn 3.12009205 4.41388764 1.06931354
Sn 0.09890547 6.63778445 3.41013520
Sn 3.11871489 0.01690873 1.07410867
Rh 1.56496000 0.00000000 -1.1066089800000007 0 0 0
Rh 4.69488000 4.42637000 -1.1066089800000007 0 0 0
Rh 4.69488000 0.00000000 -1.1066089800000007 0 0 0
Rh 1.56496000 4.42637000 -1.1066089800000007 0 0 0
Rh 4.69488000 6.63955500 -3.319826950000003 0 0 0
Rh 1.56496000 2.21318500 -3.319826950000003 0 0 0
Rh 1.56496000 6.63955500 -3.319826950000003 0 0 0
Rh 4.69488000 2.21318500 -3.319826950000003 0 0 0
Rh 1.45841752 4.04888917 3.31210147
Rh 4.67929300 8.69693178 3.20527667
Rh 4.67597528 4.58625048 3.19861677
Rh 1.45635178 0.36933631 3.31529822
Rh 4.80924728 2.21203414 1.08929324
Rh 1.56164228 6.64256493 1.12472391
Rh 1.52996749 2.21433586 1.06744877
Rh 4.68204733 6.64345021 1.10501061
C 1.66480445 2.20610281 3.89950465
