&CONTROL
calculation = 'relax'
prefix = 'scf'
pseudo_dir = '/vol0403/data/hp230205/u10028/POT_HYBRID_KKJUS_GBRV'
outdir = './data'
tprnfor = .true.
nstep = 50
disk_io = 'non'
/
&SYSTEM
ibrav = 0
ecutwfc = 50.0
ecutrho = 400
occupations = 'smearing'
smearing = 'mp'
degauss = 0.01
assume_isolated = 'esm'
esm_bc = 'bc1'
input_dft = 'BEEF-VDW'
nosym = .true.
nspin = 1
ntyp = 6
nat = 18
/
&ELECTRONS
electron_maxstep = 200
mixing_beta = 0.1
conv_thr = 1e-06
/
&IONS
ion_dynamics = 'bfgs'
upscale = 1.0
/
&CELL
/

K_POINTS {automatic}
6 6 1 0 0 0

ATOMIC_SPECIES
Al 26.98 Al.pbe-nl-rrkjus_psl.1.0.0.UPF
C 12.01 C.pbe-n-rrkjus_psl.1.0.0.UPF
In 114.8 In.pbe-dn-rrkjus_psl.1.0.0.UPF
O 15.99 O.pbe-n-rrkjus_psl.1.0.0.UPF
Pd 106.4 Pd.pbe-n-rrkjus_psl.1.0.0.UPF
Sc 44.95 Sc.pbe-spn-rrkjus_psl.1.0.0.UPF


CELL_PARAMETERS {angstrom}
5.88291000 0.00000000 0.00000000
0.00000000 8.60736000 0.00000000
0.00000000 0.00000000 24.41210000

ATOMIC_POSITIONS {angstrom}
Sc 1.50108332 2.14693380 0.64277059
Sc 4.39382782 2.15184000 -2.20612148 0 0 0
Sc 1.50084800 6.46042620 0.64301471
Sc 4.39382782 6.45552000 -2.20612148 0 0 0
Al 5.71665896 0.00000000 2.03548090
Al 2.92921855 0.00000000 -0.7352924499999993 0 0 0
Al 5.72383611 4.30368000 2.03328381
Al 2.92921855 4.30368000 -0.7352924499999993 0 0 0
In 2.96333943 8.60727393 2.30694345
In 5.87067355 0.00000000 -0.7352924499999993 0 0 0
In 2.96675151 4.30376607 2.29986394
In 5.87067355 4.30368000 -0.7352924499999993 0 0 0
Pd 4.44518563 2.15201215 0.82561722
Pd 1.45237282 2.15184000 -2.20612148 0 0 0
Pd 4.44536211 6.45526178 0.82586134
Pd 1.45237282 6.45552000 -2.20612148 0 0 0
C 2.62371903 8.60718785 6.06250091
O 3.21601041 0.00000000 7.03117304
