&CONTROL
calculation = 'relax'
prefix = 'scf'
pseudo_dir = '/vol0403/data/hp230205/u10028/POT_HYBRID_KKJUS_GBRV'
outdir = './data'
tprnfor = .true.
nstep = 50
disk_io = 'non'
/
&SYSTEM
ibrav = 0
ecutwfc = 50.0
ecutrho = 400
occupations = 'smearing'
smearing = 'mp'
degauss = 0.01
assume_isolated = 'esm'
esm_bc = 'bc1'
input_dft = 'BEEF-VDW'
nosym = .true.
nspin = 1
ntyp = 5
nat = 33
/
&ELECTRONS
electron_maxstep = 200
mixing_beta = 0.1
conv_thr = 1e-06
/
&IONS
ion_dynamics = 'bfgs'
upscale = 1.0
/
&CELL
/

K_POINTS {automatic}
7 7 2 0  0  0

ATOMIC_SPECIES
C 12.01 C.pbe-n-rrkjus_psl.1.0.0.UPF
Ge 72.64 Ge.pbe-dn-rrkjus_psl.1.0.0.UPF
In 114.8 In.pbe-dn-rrkjus_psl.1.0.0.UPF
Li 6.941 Li.pbe-sl-rrkjus_psl.1.0.0.UPF
Mg 24.30 Mg.pbe-spnl-rrkjus_psl.1.0.0.UPF


CELL_PARAMETERS {angstrom}
8.41850000 0.00000000 0.00000000
0.00000000 8.40992000 0.00000000
0.00000000 0.00000000 26.56300000

ATOMIC_POSITIONS {angstrom}
Li 0.00000000 2.10248000 -1.0938643399999997 0 0 0
Li 0.00774502 2.10248000 3.36154765
Li 0.00000000 6.30744000 -1.0938643399999997 0 0 0
Li 0.03569444 6.30744000 3.37243848
Li 4.20925000 2.10248000 -1.0938643399999997 0 0 0
Li 4.20150498 2.10248000 3.36154765
Li 4.20925000 6.30744000 -1.0938643399999997 0 0 0
Li 4.17355556 6.30744000 3.37217285
Mg 2.10462500 2.10248000 -3.281593019999999 0 0 0
Mg 2.10462500 2.10248000 1.24899226
Mg 2.10462500 6.30744000 -3.281593019999999 0 0 0
Mg 2.10462500 6.30744000 1.18949114
Mg 6.31387500 2.10248000 -3.281593019999999 0 0 0
Mg 6.31387500 2.10248000 1.19241307
Mg 6.31387500 6.30744000 -3.281593019999999 0 0 0
Mg 6.31387500 6.30744000 1.16425629
In 2.10462500 0.00000000 -1.0938643399999997 0 0 0
In 2.10462500 8.36164706 3.76318021
In 2.10462500 4.20496000 -1.0938643399999997 0 0 0
In 2.10462500 4.25323294 3.76318021
In 6.31387500 0.00000000 -1.0938643399999997 0 0 0
In 6.31387500 8.38780191 3.57484854
In 6.31387500 4.20496000 -1.0938643399999997 0 0 0
In 6.31387500 4.22707809 3.57484854
Ge 0.00000000 0.00000000 -3.281593019999999 0 0 0
Ge 8.34433302 8.36282445 1.27316459
Ge 0.00000000 4.20496000 -3.281593019999999 0 0 0
Ge 8.34433302 4.25205555 1.27316459
Ge 4.20925000 0.00000000 -3.281593019999999 0 0 0
Ge 4.28341698 8.36282445 1.27316459
Ge 4.20925000 4.20496000 -3.281593019999999 0 0 0
Ge 4.28341698 4.25205555 1.27316459
C 2.10462500 2.10248000 3.43964287
