&CONTROL
calculation = 'relax'
prefix = 'scf'
pseudo_dir = '/vol0004/mdt0/data/hp150275/u10028/POT_KKJUS'
outdir = './data'
tprnfor = .true.
nstep = 50
disk_io = 'non'
/
&SYSTEM
ibrav = 0
ecutwfc = 50.0
ecutrho = 400
occupations = 'smearing'
smearing = 'mp'
degauss = 0.01
assume_isolated = 'esm'
esm_bc = 'bc1'
input_dft = 'BEEF-VDW'
nosym = .true.
nspin = 1
ntyp = 4
nat = 33
/
&ELECTRONS
electron_maxstep = 200
mixing_beta = 0.1
conv_thr = 1e-06
/
&IONS
ion_dynamics = 'bfgs'
upscale = 1.0
/
&CELL
/

K_POINTS {automatic}
8 6 1 0 0 0

ATOMIC_SPECIES
C 12.01 C.pbe-n-rrkjus_psl.1.0.0.UPF
Rh 102.9 Rh.pbe-spn-rrkjus_psl.1.0.0.UPF
Sn 118.7 Sn.pbe-dn-rrkjus_psl.1.0.0.UPF
V 50.94 V.pbe-spnl-rrkjus_psl.1.0.0.UPF

CELL_PARAMETERS {angstrom}
6.32488000 0.00000000 0.00000000
0.00000000 8.94473000 0.00000000
0.00000000 0.00000000 26.70850000

ATOMIC_POSITIONS {angstrom}
V 0.00000000 0.00000000 -3.3543205200000017 0 0 0
V 3.16244000 2.23618250 -1.1180178100000013 0 0 0
V 3.16244000 6.70854750 -1.1180178100000013 0 0 0
V 0.00000000 4.47236500 -3.3543205200000017 0 0 0
V 0.03288938 4.47486952 1.26945501
V 3.31879103 6.70818971 3.03729062
V 3.35224965 2.23645084 3.13504373
V 0.03156115 8.94285161 1.26865375
Sn 0.00000000 6.70854750 -1.1180178100000013 0 0 0
Sn 3.16244000 0.00000000 -3.3543205200000017 0 0 0
Sn 0.00000000 2.23618250 -1.1180178100000013 0 0 0
Sn 3.16244000 4.47236500 -3.3543205200000017 0 0 0
Sn 5.85209522 2.23591416 4.67078248
Sn 3.21708696 4.42943030 1.07875632
Sn 0.18721645 6.70810026 3.58347945
Sn 3.21828869 0.04293470 1.07715381
Rh 1.58122000 0.00000000 -1.1180178100000013 0 0 0
Rh 4.74366000 4.47236500 -1.1180178100000013 0 0 0
Rh 4.74366000 0.00000000 -1.1180178100000013 0 0 0
Rh 1.58122000 4.47236500 -1.1180178100000013 0 0 0
Rh 4.74366000 6.70854750 -3.3543205200000017 0 0 0
Rh 1.58122000 2.23618250 -3.3543205200000017 0 0 0
Rh 1.58122000 6.70854750 -3.3543205200000017 0 0 0
Rh 4.74366000 2.23618250 -3.3543205200000017 0 0 0
Rh 1.30760569 4.23846031 3.14225503
Rh 4.66599047 8.91762747 3.24534984
Rh 4.66497849 4.49875195 3.24668526
Rh 1.30899716 0.23292077 3.14038543
Rh 5.06490066 2.23627195 1.23660355
Rh 1.74155571 6.70971031 0.97299065
Rh 1.65654932 2.23564582 1.04109733
Rh 4.93258417 6.70845805 1.21096339
C 1.55623672 2.23546692 3.62247385
