&CONTROL
calculation = 'relax'
prefix = 'scf'
pseudo_dir = '/vol0004/mdt0/data/hp150275/u10028/POT_HYBRID_KKJUS_GBRV'
outdir = './data'
tprnfor = .true.
nstep = 50
disk_io = 'non'
/
&SYSTEM
ibrav = 0
ecutwfc = 50.0
ecutrho = 400
occupations = 'smearing'
smearing = 'mp'
degauss = 0.01
assume_isolated = 'esm'
esm_bc = 'bc1'
input_dft = 'BEEF-VDW'
nosym = .true.
nspin = 2
ntyp = 4
nat = 33
starting_magnetization(1) = 0.0
starting_magnetization(2) = 0.0
starting_magnetization(3) = 0.001
starting_magnetization(4) = 0.0
/
&ELECTRONS
electron_maxstep = 300
mixing_beta = 0.1
conv_thr = 1e-06
/
&IONS
ion_dynamics = 'bfgs'
upscale = 1.0
/
&CELL
/

K_POINTS {automatic}
9 6 2 0  0  0

ATOMIC_SPECIES
C 12.01 C.pbe-n-rrkjus_psl.1.0.0.UPF
In 114.8 In.pbe-dn-rrkjus_psl.1.0.0.UPF
Ni 58.69 ni_pbe_v1.4.uspp.F.UPF
Ti 47.86 Ti.pbe-spn-rrkjus_psl.1.0.0.UPF

CELL_PARAMETERS {angstrom}
6.16408000 0.00000000 0.00000000
0.00000000 8.71733000 0.00000000
0.00000000 0.00000000 26.53800000

ATOMIC_POSITIONS {angstrom}
Ti 0.00000000 0.00000000 -3.2689508399999987 0 0 0
Ti 3.08204000 2.17933250 -1.0896502800000007 0 0 0
Ti 3.08204000 6.53799750 -1.0896502800000007 0 0 0
Ti 0.00000000 4.35866500 -3.2689508399999987 0 0 0
Ti 6.11926714 4.40774357 1.07293134
Ti 3.18276107 6.53799750 3.13758774
Ti 3.41890697 2.17933250 3.24082056
Ti 6.11926714 8.66825143 1.07293134
In 0.00000000 6.53799750 -1.0896502800000007 0 0 0
In 3.08204000 0.00000000 -3.2689508399999987 0 0 0
In 0.00000000 2.17933250 -1.0896502800000007 0 0 0
In 3.08204000 4.35866500 -3.2689508399999987 0 0 0
In 5.82499396 2.17924533 4.63725012
In 3.04302137 4.27027127 1.09681554
In 0.15367051 6.53799750 3.44781696
In 3.04308301 0.08839373 1.09681554
Ni 1.54102000 0.00000000 -1.0896502800000007 0 0 0
Ni 4.62306000 4.35866500 -1.0896502800000007 0 0 0
Ni 4.62306000 0.00000000 -1.0896502800000007 0 0 0
Ni 1.54102000 4.35866500 -1.0896502800000007 0 0 0
Ni 4.62306000 6.53799750 -3.2689508399999987 0 0 0
Ni 1.54102000 2.17933250 -3.2689508399999987 0 0 0
Ni 1.54102000 6.53799750 -3.2689508399999987 0 0 0
Ni 4.62306000 2.17933250 -3.2689508399999987 0 0 0
Ni 1.25167808 4.08851494 3.12909558
Ni 4.71749371 8.67975831 3.12591102
Ni 4.71743206 4.39623669 3.12591102
Ni 1.25173973 0.27006288 3.12883020
Ni 4.73752697 2.17933250 1.14697236
Ni 1.65930870 6.53799750 1.09203870
Ni 1.25642443 2.17933250 1.37944524
Ni 4.55161831 6.53799750 1.13609178
C 1.49910426 2.17933250 3.32468064
