&CONTROL
calculation = 'relax'
prefix = 'scf'
pseudo_dir = '/vol0004/mdt0/data/hp150275/u10028/POT_KKJUS'
outdir = './data'
tprnfor = .true.
nstep = 50
disk_io = 'non'
/
&SYSTEM
ibrav = 0
ecutwfc = 50.0
ecutrho = 400
occupations = 'smearing'
smearing = 'mp'
degauss = 0.01
assume_isolated = 'esm'
esm_bc = 'bc1'
input_dft = 'BEEF-VDW'
nosym = .true.
nspin = 1
ntyp = 2
nat = 16
/
&ELECTRONS
electron_maxstep = 200
mixing_beta = 0.1
conv_thr = 1e-06
/
&IONS
ion_dynamics = 'bfgs'
upscale = 1.0
/
&CELL
/

K_POINTS {automatic}
8 8 1 0 0 0

ATOMIC_SPECIES
Be 9.012 Be.pbe-n-rrkjus_psl.1.0.0.UPF
Ti 47.86 Ti.pbe-spn-rrkjus_psl.1.0.0.UPF

CELL_PARAMETERS {angstrom}
5.87849000 0.00000000 0.00000000
-0.00000000 5.87849000 0.00000000
0.00000000 0.00000000 24.40890000

ATOMIC_POSITIONS {angstrom}
Ti 1.46962250 1.46962250 -1.236798959999998 0 0 0
Ti 1.46962250 1.46962250 1.70252078
Ti 1.46962250 4.40886750 -1.236798959999998 0 0 0
Ti 1.46962250 4.40886750 1.70252078
Ti 4.40886750 1.46962250 -1.236798959999998 0 0 0
Ti 4.40886750 1.46962250 1.70252078
Ti 4.40886750 4.40886750 -1.236798959999998 0 0 0
Ti 4.40886750 4.40886750 1.70252078
Be 0.00000000 0.00000000 -2.706458829999999 0 0 0
Be 0.00000000 0.00000000 0.23286091
Be 0.00000000 2.93924500 -2.706458829999999 0 0 0
Be 0.00000000 2.93924500 0.23286091
Be 2.93924500 0.00000000 -2.706458829999999 0 0 0
Be 2.93924500 -0.00000000 0.23286091
Be 2.93924500 2.93924500 -2.706458829999999 0 0 0
Be 2.93924500 2.93924500 0.23286091
