&CONTROL
calculation = 'relax'
prefix = 'scf'
pseudo_dir = '/vol0004/mdt0/data/hp150275/u10028/POT_KKJUS'
outdir = './data'
tprnfor = .true.
nstep = 50
disk_io = 'non'
/
&SYSTEM
ibrav = 0
ecutwfc = 50.0
ecutrho = 400
occupations = 'smearing'
smearing = 'mp'
degauss = 0.01
assume_isolated = 'esm'
esm_bc = 'bc1'
input_dft = 'BEEF-VDW'
nosym = .true.
nspin = 1
ntyp = 5
nat = 18
/
&ELECTRONS
electron_maxstep = 200
mixing_beta = 0.1
conv_thr = 1e-06
/
&IONS
ion_dynamics = 'bfgs'
upscale = 1.0
/
&CELL
/

K_POINTS {automatic}
8 8 1 0 0 0

ATOMIC_SPECIES
Au 196.9 Au.pbe-n-rrkjus_psl.1.0.0.UPF
C 12.01 C.pbe-n-rrkjus_psl.1.0.0.UPF
Ga 69.72 Ga.pbe-dnl-rrkjus_psl.1.0.0.UPF
Li 6.941 Li.pbe-sl-rrkjus_psl.1.0.0.UPF
O 15.99 O.pbe-n-rrkjus_psl.1.0.0.UPF

CELL_PARAMETERS {angstrom}
6.29417000 0.00000000 0.00000000
0.00000000 6.29417000 0.00000000
0.00000000 0.00000000 24.72060000

ATOMIC_POSITIONS {angstrom}
Li 0.00000000 0.00000000 -0.7868567000000013 0 0 0
Li 3.14708500 0.00000000 2.52125399
Li 0.00000000 3.14708500 2.59269653
Li 3.14708500 3.14708500 -0.7868567000000013 0 0 0
Li 1.57354250 1.57354250 -2.3603228900000026 0 0 0
Li 1.55787002 4.71502569 0.81627421
Li 4.72062750 4.72062750 -2.3603228900000026 0 0 0
Li 4.73629998 1.57914431 0.81627421
Ga 6.29410706 0.00006294 2.29951021
Ga 3.14702206 3.14702206 2.29135241
Ga 3.14708500 0.00000000 -0.7868567000000013 0 0 0
Ga 0.00000000 3.14708500 -0.7868567000000013 0 0 0
Au 1.57140248 1.57303897 0.77795728
Au 1.57354250 4.72062750 -2.3603228900000026 0 0 0
Au 4.72276752 4.72113103 0.77795728
Au 4.72062750 1.57354250 -2.3603228900000026 0 0 0
C 0.00006294 3.14708500 4.69221709
O 0.00006294 3.14708500 5.83307278
