&CONTROL
calculation = 'relax'
prefix = 'scf'
pseudo_dir = '/vol0004/mdt0/data/hp150275/u10028/POT_HYBRID_KKJUS_GBRV'
outdir = './data'
tprnfor = .true.
nstep = 50
disk_io = 'non'
/
&SYSTEM
ibrav = 0
ecutwfc = 50.0
ecutrho = 400
occupations = 'smearing'
smearing = 'mp'
degauss = 0.01
assume_isolated = 'esm'
esm_bc = 'bc1'
input_dft = 'BEEF-VDW'
nosym = .true.
nspin = 2
ntyp = 5
nat = 34
starting_magnetization(1) = 0.0
starting_magnetization(2) = 0.0
starting_magnetization(3) = 0.001
starting_magnetization(4) = 0.0
starting_magnetization(5) = 0.0
/
&ELECTRONS
electron_maxstep = 200
mixing_beta = 0.1
conv_thr = 1e-06
/
&IONS
ion_dynamics = 'bfgs'
upscale = 1.0
/
&CELL
/

K_POINTS {automatic}
9 6 2 0  0  0

ATOMIC_SPECIES
C 12.01 C.pbe-n-rrkjus_psl.1.0.0.UPF
Cu 63.54 Cu.pbe-dn-rrkjus_psl.1.0.0.UPF
Ni 58.69 ni_pbe_v1.4.uspp.F.UPF
O 15.99 O.pbe-n-rrkjus_psl.1.0.0.UPF
Sb 121.7 Sb.pbe-n-rrkjus_psl.1.0.0.UPF

CELL_PARAMETERS {angstrom}
6.01864000 0.00000000 0.00000000
0.00000000 8.51164000 0.00000000
0.00000000 0.00000000 26.38370000

ATOMIC_POSITIONS {angstrom}
Cu 0.00000000 0.00000000 23.19179997
Cu 3.00932000 2.12791000 25.31964538
Cu 3.00932000 6.38373000 25.31964538
Cu 0.00000000 4.25582000 23.19179997
Cu 0.00000000 4.18108780 0.91815276
Cu 3.00932000 6.38321930 3.13966030
Cu 3.00932000 2.12850581 3.36735163
Cu 0.00000000 0.07490243 0.91815276
Ni 1.50466000 0.00000000 25.31964538
Ni 4.51398000 4.25582000 25.31964538
Ni 4.51398000 0.00000000 25.31964538
Ni 1.50466000 4.25582000 25.31964538
Ni 4.51398000 6.38373000 23.19179997
Ni 1.50466000 2.12791000 23.19179997
Ni 1.50466000 6.38373000 23.19179997
Ni 4.51398000 2.12791000 23.19179997
Ni 1.36147655 4.30791124 2.94996150
Ni 4.65710326 8.45929341 2.95022533
Ni 4.65716345 4.30791124 2.94996150
Ni 1.36153674 8.45929341 2.95022533
Ni 4.48250251 2.12833558 1.25296191
Ni 1.34492529 6.38355977 1.18911336
Ni 1.53613749 2.12833558 1.25296191
Ni 4.67371471 6.38355977 1.18911336
Sb 0.00000000 6.38373000 25.31964538
Sb 3.00932000 0.00000000 23.19179997
Sb 0.00000000 2.12791000 25.31964538
Sb 3.00932000 4.25582000 23.19179997
Sb 0.00000000 2.12773977 3.43885146
Sb 3.00932000 4.29599494 1.04584987
Sb 0.00000000 6.38364488 3.62934177
Sb 3.00932000 8.47155018 1.04584987
C 3.00932000 2.12799512 5.24191352
O 3.00932000 2.12782488 6.38828528
