&CONTROL
calculation = 'relax'
prefix = 'scf'
pseudo_dir = '/vol0004/mdt0/data/hp150275/u10028/POT_HYBRID_KKJUS_GBRV'
outdir = './data'
tprnfor = .true.
nstep = 70
disk_io = 'non'
/
&SYSTEM
ibrav = 0
ecutwfc = 50.0
ecutrho = 400
occupations = 'smearing'
smearing = 'mp'
degauss = 0.01
assume_isolated = 'esm'
esm_bc = 'bc1'
input_dft = 'BEEF-VDW'
nosym = .true.
nspin = 1
ntyp = 2
nat = 16
/
&ELECTRONS
electron_maxstep = 200
mixing_beta = 0.1
conv_thr = 1e-06
/
&IONS
ion_dynamics = 'bfgs'
upscale = 1.0
/
&CELL
/

K_POINTS {automatic}
10 10 2 0  0  0

ATOMIC_SPECIES
Rh 102.9 Rh.pbe-spn-rrkjus_psl.1.0.0.UPF
Ti 47.86 Ti.pbe-spn-rrkjus_psl.1.0.0.UPF

CELL_PARAMETERS {angstrom}
5.93282000 0.00000000 0.00000000
-0.00000000 5.93282000 0.00000000
0.00000000 0.00000000 25.18920000

ATOMIC_POSITIONS {angstrom}
Ti 0.00000000 0.00000000 -2.2788669199999987 0 0 0
Ti 0.00000000 0.00000000 1.18061780
Ti 0.00000000 2.96641000 -2.2788669199999987 0 0 0
Ti 0.00000000 2.96641000 1.18061780
Ti 2.96641000 0.00000000 -2.2788669199999987 0 0 0
Ti 2.96641000 -0.00000000 1.18061780
Ti 2.96641000 2.96641000 -2.2788669199999987 0 0 0
Ti 2.96641000 2.96641000 1.18061780
Rh 1.48320500 1.48320500 -0.5491245599999992 0 0 0
Rh 1.48320500 1.48320500 2.91036017
Rh 1.48320500 4.44961500 -0.5491245599999992 0 0 0
Rh 1.48320500 4.44961500 2.91036017
Rh 4.44961500 1.48320500 -0.5491245599999992 0 0 0
Rh 4.44961500 1.48320500 2.91036017
Rh 4.44961500 4.44961500 -0.5491245599999992 0 0 0
Rh 4.44961500 4.44961500 2.91036017
