&CONTROL
calculation = 'relax'
prefix = 'scf'
pseudo_dir = '/vol0004/mdt0/data/hp150275/u10028/POT_KKJUS'
outdir = './data'
tprnfor = .true.
nstep = 50
disk_io = 'non'
/
&SYSTEM
ibrav = 0
ecutwfc = 50.0
ecutrho = 400
occupations = 'smearing'
smearing = 'mp'
degauss = 0.01
assume_isolated = 'esm'
esm_bc = 'bc1'
input_dft = 'BEEF-VDW'
nosym = .true.
nspin = 1
ntyp = 4
nat = 34
/
&ELECTRONS
electron_maxstep = 200
mixing_beta = 0.1
conv_thr = 1e-06
/
&IONS
ion_dynamics = 'bfgs'
upscale = 1.0
/
&CELL
/

K_POINTS {automatic}
8 6 1 0 0 0

ATOMIC_SPECIES
C 12.01 C.pbe-n-rrkjus_psl.1.0.0.UPF
Ga 69.72 Ga.pbe-dnl-rrkjus_psl.1.0.0.UPF
Ir 192.2 Ir.pbe-n-rrkjus_psl.0.2.3.UPF
O 15.99 O.pbe-n-rrkjus_psl.1.0.0.UPF

CELL_PARAMETERS {angstrom}
6.13393000 0.00000000 0.00000000
0.00000000 8.67469000 0.00000000
0.00000000 0.00000000 26.50600000

ATOMIC_POSITIONS {angstrom}
Ga 0.00000000 0.00000000 -3.253081380000001 0 0 0
Ga 0.00000000 2.16867250 -1.0843604599999992 0 0 0
Ga 6.12497446 0.00000000 1.09973394
Ga 6.11926991 2.22098088 3.40549088
Ga 0.00000000 4.33734500 -3.253081380000001 0 0 0
Ga 0.00000000 6.50601750 -1.0843604599999992 0 0 0
Ga 0.01110241 4.33734500 1.05096290
Ga 6.11926991 6.45370912 3.40549088
Ga 3.06696500 0.00000000 -3.253081380000001 0 0 0
Ga 3.06696500 2.16867250 -1.0843604599999992 0 0 0
Ga 3.07592054 0.00000000 1.10026406
Ga 3.08309724 2.21959293 3.40655112
Ga 3.06696500 4.33734500 -3.253081380000001 0 0 0
Ga 3.06696500 6.50601750 -1.0843604599999992 0 0 0
Ga 3.05666000 4.33734500 1.05043278
Ga 3.08309724 6.45509707 3.40655112
Ir 1.53348250 2.16867250 -3.253081380000001 0 0 0
Ir 1.53348250 4.33734500 -1.0843604599999992 0 0 0
Ir 1.53372786 2.07932319 1.04460146
Ir 1.53483196 4.33734500 3.07204540
Ir 1.53348250 6.50601750 -3.253081380000001 0 0 0
Ir 1.53348250 0.00000000 -1.0843604599999992 0 0 0
Ir 1.53372786 6.59536681 1.04460146
Ir 1.53127429 0.00000000 3.40231016
Ir 4.60044750 2.16867250 -3.253081380000001 0 0 0
Ir 4.60044750 4.33734500 -1.0843604599999992 0 0 0
Ir 4.60075420 2.16693756 0.99874608
Ir 4.60075420 4.33734500 3.08953936
Ir 4.60044750 6.50601750 -3.253081380000001 0 0 0
Ir 4.60044750 0.00000000 -1.0843604599999992 0 0 0
Ir 4.60075420 6.50775244 0.99874608
Ir 4.59971143 0.00000000 3.11657548
C 1.52599911 0.00000000 5.26833256
O 1.52434294 0.00000000 6.42611464
