&CONTROL
calculation = 'relax'
prefix = 'scf'
pseudo_dir = '/vol0004/mdt0/data/hp150275/u10028/POT_KKJUS'
outdir = './data'
tprnfor = .true.
nstep = 50
disk_io = 'non'
/
&SYSTEM
ibrav = 0
ecutwfc = 50.0
ecutrho = 400
occupations = 'smearing'
smearing = 'mp'
degauss = 0.01
assume_isolated = 'esm'
esm_bc = 'bc1'
input_dft = 'BEEF-VDW'
nosym = .true.
nspin = 1
ntyp = 5
nat = 18
/
&ELECTRONS
electron_maxstep = 200
mixing_beta = 0.1
conv_thr = 1e-06
/
&IONS
ion_dynamics = 'bfgs'
upscale = 1.0
/
&CELL
/

K_POINTS {automatic}
8 8 1 0 0 0

ATOMIC_SPECIES
C 12.01 C.pbe-n-rrkjus_psl.1.0.0.UPF
Ge 72.64 Ge.pbe-dn-rrkjus_psl.1.0.0.UPF
Li 6.941 Li.pbe-sl-rrkjus_psl.1.0.0.UPF
Ni 58.69 Ni.pbe-spn-rrkjus_psl.1.0.0.UPF
O 15.99 O.pbe-n-rrkjus_psl.1.0.0.UPF

CELL_PARAMETERS {angstrom}
5.73354000 0.00000000 0.00000000
0.00000000 5.73354000 0.00000000
0.00000000 0.00000000 24.30020000

ATOMIC_POSITIONS {angstrom}
Li 5.73342533 5.73313865 2.47691939
Li 2.86705668 2.86665533 2.47643338
Li 2.86677000 0.00000000 -0.7166129000000012 0 0 0
Li 0.00000000 2.86677000 -0.7166129000000012 0 0 0
Ni 1.44347603 1.42180325 0.77420437
Ni 4.30015500 4.30015500 -2.150081700000001 0 0 0
Ni 4.29109601 1.42363798 0.77201735
Ni 1.43338500 4.30015500 -2.150081700000001 0 0 0
Ni 4.29109601 4.31139274 0.77007334
Ni 1.43338500 1.43338500 -2.150081700000001 0 0 0
Ni 1.44273067 4.30944333 0.77201735
Ni 4.30015500 1.43338500 -2.150081700000001 0 0 0
Ge 0.00000000 0.00000000 -0.7166129000000012 0 0 0
Ge 2.86757270 5.73193461 2.08860219
Ge 0.00005734 2.86694201 2.02858070
Ge 2.86677000 2.86677000 -0.7166129000000012 0 0 0
C 5.73262263 2.86768737 3.97599872
O 5.73325332 2.86625398 5.14629636
