&CONTROL
calculation = 'relax'
prefix = 'scf'
pseudo_dir = '/vol0004/mdt0/data/hp150275/u10028/POT_KKJUS'
outdir = './data'
tprnfor = .true.
nstep = 50
disk_io = 'non'
/
&SYSTEM
ibrav = 0
ecutwfc = 50.0
ecutrho = 400
occupations = 'smearing'
smearing = 'mp'
degauss = 0.01
assume_isolated = 'esm'
esm_bc = 'bc1'
input_dft = 'BEEF-VDW'
nosym = .true.
nspin = 1
ntyp = 4
nat = 33
/
&ELECTRONS
electron_maxstep = 200
mixing_beta = 0.1
conv_thr = 1e-06
/
&IONS
ion_dynamics = 'bfgs'
upscale = 1.0
/
&CELL
/

K_POINTS {automatic}
9 6 2 0  0  0

ATOMIC_SPECIES
C 12.01 C.pbe-n-rrkjus_psl.1.0.0.UPF
In 114.8 In.pbe-dn-rrkjus_psl.1.0.0.UPF
Ni 58.69 Ni.pbe-spn-rrkjus_psl.1.0.0.UPF
Sc 44.95 Sc.pbe-spn-rrkjus_psl.1.0.0.UPF

CELL_PARAMETERS {angstrom}
6.35421000 0.00000000 0.00000000
0.00000000 8.98620000 0.00000000
0.00000000 0.00000000 26.73970000

ATOMIC_POSITIONS {angstrom}
Sc 0.00000000 0.00000000 -3.36973699 0 0 0
Sc 3.17710500 2.24655000 -1.1233347999999985 0 0 0
Sc 3.17710500 6.73965000 -1.1233347999999985 0 0 0
Sc 0.00000000 4.49310000 -3.36973699 0 0 0
Sc 6.32777649 4.56777532 1.04926583
Sc 3.31162363 6.73965000 3.29941158
Sc 3.55378257 2.24672972 3.39620930
Sc 6.32739523 8.91251316 1.04926583
In 0.00000000 6.73965000 -1.1233347999999985 0 0 0
In 3.17710500 0.00000000 -3.36973699 0 0 0
In 0.00000000 2.24655000 -1.1233347999999985 0 0 0
In 3.17710500 4.49310000 -3.36973699 0 0 0
In 6.09775408 2.24628041 4.82410928
In 3.14914648 4.43010674 1.18483611
In 0.14849789 6.73973986 3.44434076
In 3.14914648 0.06371216 1.18510350
Ni 1.58855250 0.00000000 -1.1233347999999985 0 0 0
Ni 4.76565750 4.49310000 -1.1233347999999985 0 0 0
Ni 4.76565750 0.00000000 -1.1233347999999985 0 0 0
Ni 1.58855250 4.49310000 -1.1233347999999985 0 0 0
Ni 4.76565750 6.73965000 -3.36973699 0 0 0
Ni 1.58855250 2.24655000 -3.36973699 0 0 0
Ni 1.58855250 6.73965000 -3.36973699 0 0 0
Ni 4.76565750 2.24655000 -3.36973699 0 0 0
Ni 1.23265320 4.10929940 3.21143797
Ni 5.00108098 8.97173222 3.19913771
Ni 5.00139869 4.50747792 3.19887031
Ni 1.23233549 0.38407019 3.21117057
Ni 4.85232892 2.24717903 1.15141148
Ni 1.72072007 6.73991959 1.16772270
Ni 1.35878427 2.24717903 1.31666283
Ni 4.69658724 6.74027903 1.15488764
C 1.42054719 2.24663986 3.20181168
