&CONTROL
calculation = 'relax'
prefix = 'scf'
pseudo_dir = '/vol0004/mdt0/data/hp150275/u10028/POT_KKJUS'
outdir = './data'
tprnfor = .true.
nstep = 50
disk_io = 'non'
/
&SYSTEM
ibrav = 0
ecutwfc = 50.0
ecutrho = 400
occupations = 'smearing'
smearing = 'mp'
degauss = 0.01
assume_isolated = 'esm'
esm_bc = 'bc1'
input_dft = 'BEEF-VDW'
nosym = .true.
nspin = 1
ntyp = 5
nat = 34
/
&ELECTRONS
electron_maxstep = 200
mixing_beta = 0.1
conv_thr = 1e-06
/
&IONS
ion_dynamics = 'bfgs'
upscale = 1.0
/
&CELL
/

K_POINTS {automatic}
9 6 2 0  0  0

ATOMIC_SPECIES
Al 26.98 Al.pbe-nl-rrkjus_psl.1.0.0.UPF
C 12.01 C.pbe-n-rrkjus_psl.1.0.0.UPF
Ir 192.2 Ir.pbe-n-rrkjus_psl.0.2.3.UPF
Li 6.941 Li.pbe-sl-rrkjus_psl.1.0.0.UPF
O 15.99 O.pbe-n-rrkjus_psl.1.0.0.UPF

CELL_PARAMETERS {angstrom}
6.04348000 0.00000000 0.00000000
0.00000000 8.54677000 0.00000000
0.00000000 0.00000000 26.41010000

ATOMIC_POSITIONS {angstrom}
Li 0.00000000 0.00000000 -3.2051297400000003 0 0 0
Li 3.02174000 2.13669250 -1.068288540000001 0 0 0
Li 3.02174000 6.41007750 -1.068288540000001 0 0 0
Li 0.00000000 4.27338500 -3.2051297400000003 0 0 0
Li 0.00000000 4.26962442 0.95815843
Li 3.02174000 6.41007750 3.55083794
Li 3.02174000 2.13669250 3.68156794
Li 0.00000000 0.00376058 0.95815843
Al 1.51087000 0.00000000 -1.068288540000001 0 0 0
Al 4.53261000 4.27338500 -1.068288540000001 0 0 0
Al 4.53261000 0.00000000 -1.068288540000001 0 0 0
Al 1.51087000 4.27338500 -1.068288540000001 0 0 0
Al 4.53261000 6.41007750 -3.2051297400000003 0 0 0
Al 1.51087000 2.13669250 -3.2051297400000003 0 0 0
Al 1.51087000 6.41007750 -3.2051297400000003 0 0 0
Al 4.53261000 2.13669250 -3.2051297400000003 0 0 0
Al 1.38437996 4.27970961 3.12299432
Al 4.65910004 8.54044539 3.12299432
Al 4.65910004 4.27970961 3.12299432
Al 1.38437996 8.54044539 3.12299432
Al 4.51756173 2.13669250 1.09179353
Al 1.51056783 6.41007750 1.09364224
Al 1.52591827 2.13669250 1.09179353
Al 4.53291217 6.41007750 1.09364224
Ir 0.00000000 6.41007750 -1.068288540000001 0 0 0
Ir 3.02174000 0.00000000 -3.2051297400000003 0 0 0
Ir 0.00000000 2.13669250 -1.068288540000001 0 0 0
Ir 3.02174000 4.27338500 -3.2051297400000003 0 0 0
Ir 0.00000000 2.13669250 3.06621261
Ir 3.02174000 4.27800026 1.06934495
Ir 0.00000000 6.41007750 3.10265855
Ir 3.02174000 8.54215474 1.06934495
C 3.02174000 2.13669250 5.80018616
O 3.02174000 2.13669250 6.93846147
