&CONTROL
calculation = 'relax'
prefix = 'scf'
pseudo_dir = '/vol0004/mdt0/data/hp150275/u10028/POT_KKJUS'
outdir = './data'
tprnfor = .true.
nstep = 50
disk_io = 'non'
/
&SYSTEM
ibrav = 0
ecutwfc = 50.0
ecutrho = 400
occupations = 'smearing'
smearing = 'mp'
degauss = 0.01
assume_isolated = 'esm'
esm_bc = 'bc1'
input_dft = 'BEEF-VDW'
nosym = .true.
nspin = 1
ntyp = 4
nat = 34
/
&ELECTRONS
electron_maxstep = 200
mixing_beta = 0.1
conv_thr = 1e-06
/
&IONS
ion_dynamics = 'bfgs'
upscale = 1.0
/
&CELL
/

K_POINTS {automatic}
7 7 2 0  0  0

ATOMIC_SPECIES
C 12.01 C.pbe-n-rrkjus_psl.1.0.0.UPF
Ca 40.07 Ca.pbe-spn-rrkjus_psl.1.0.0.UPF
O 15.99 O.pbe-n-rrkjus_psl.1.0.0.UPF
Pb 207.2 Pb.pbe-dn-rrkjus_psl.1.0.0.UPF

CELL_PARAMETERS {angstrom}
10.21910000 0.00000000 0.00000000
0.00000000 10.21910000 0.00000000
0.00000000 0.00000000 27.66430000

ATOMIC_POSITIONS {angstrom}
Ca 0.00000000 2.64460089 1.31405425
Ca 2.64449870 0.00010219 1.31460754
Ca 2.67147712 2.67127274 4.05337324
Ca 0.00000000 2.55477500 -3.832058840000002 0 0 0
Ca 2.55477500 0.00000000 -3.832058840000002 0 0 0
Ca 2.55477500 2.55477500 -1.2772607300000018 0 0 0
Ca 10.21899781 7.57460130 1.31405425
Ca 2.57357814 5.10955000 1.31709732
Ca 2.67127274 7.54803164 4.05364988
Ca 0.00000000 7.66432500 -3.832058840000002 0 0 0
Ca 2.55477500 5.10955000 -3.832058840000002 0 0 0
Ca 2.55477500 7.66432500 -1.2772607300000018 0 0 0
Ca 5.10965219 2.57378253 1.31709732
Ca 7.57460130 0.00000000 1.31488418
Ca 7.54782726 2.67117055 4.05364988
Ca 5.10955000 2.55477500 -3.832058840000002 0 0 0
Ca 7.66432500 0.00000000 -3.832058840000002 0 0 0
Ca 7.66432500 2.55477500 -1.2772607300000018 0 0 0
Ca 5.10955000 7.64552186 1.31737397
Ca 7.64541966 5.10955000 1.31709732
Ca 7.54772507 7.54772507 4.05364988
Ca 5.10955000 7.66432500 -3.832058840000002 0 0 0
Ca 7.66432500 5.10955000 -3.832058840000002 0 0 0
Ca 7.66432500 7.66432500 -1.2772607300000018 0 0 0
Pb 0.00030657 0.00000000 3.49842738
Pb 0.00000000 0.00000000 -1.2772607300000018 0 0 0
Pb 10.21899781 5.10944781 3.55292605
Pb 0.00000000 5.10955000 -1.2772607300000018 0 0 0
Pb 5.10944781 0.00000000 3.55458591
Pb 5.10955000 0.00000000 -1.2772607300000018 0 0 0
Pb 5.10944781 5.10955000 3.54130704
Pb 5.10955000 5.10955000 -1.2772607300000018 0 0 0
C 0.00000000 0.00000000 5.88170682
O 0.00000000 10.21899781 7.04637385
