&CONTROL
calculation = 'relax'
prefix = 'scf'
pseudo_dir = '/vol0004/mdt0/data/hp150275/u10028/POT_KKJUS'
outdir = './data'
tprnfor = .true.
nstep = 50
disk_io = 'non'
/
&SYSTEM
ibrav = 0
ecutwfc = 50.0
ecutrho = 400
occupations = 'smearing'
smearing = 'mp'
degauss = 0.01
assume_isolated = 'esm'
esm_bc = 'bc1'
input_dft = 'BEEF-VDW'
nosym = .true.
nspin = 1
ntyp = 3
nat = 16
/
&ELECTRONS
electron_maxstep = 200
mixing_beta = 0.1
conv_thr = 1e-06
/
&IONS
ion_dynamics = 'bfgs'
upscale = 1.0
/
&CELL
/

K_POINTS {automatic}
8 8 1 0 0 0

ATOMIC_SPECIES
Cu 63.54 Cu.pbe-dn-rrkjus_psl.1.0.0.UPF
In 114.8 In.pbe-dn-rrkjus_psl.1.0.0.UPF
Sc 44.95 Sc.pbe-spn-rrkjus_psl.1.0.0.UPF

CELL_PARAMETERS {angstrom}
6.46446000 0.00000000 0.00000000
-0.00000000 6.46446000 0.00000000
0.00000000 0.00000000 24.84830000

ATOMIC_POSITIONS {angstrom}
Sc 0.00000000 0.00000000 2.42420015
Sc 3.23223000 3.23223000 2.42420015
Sc 3.23223000 0.00000000 -0.8080667199999993 0 0 0
Sc 0.00000000 3.23223000 -0.8080667199999993 0 0 0
In 0.00000000 0.00000000 -0.8080667199999993 0 0 0
In 3.23223000 -0.00000000 2.42420015
In 0.00000000 3.23223000 2.42420015
In 3.23223000 3.23223000 -0.8080667199999993 0 0 0
Cu 1.61611500 1.61611500 0.80806672
Cu 4.84834500 4.84834500 -2.4242001499999972 0 0 0
Cu 4.84834500 1.61611500 0.80806672
Cu 1.61611500 4.84834500 -2.4242001499999972 0 0 0
Cu 4.84834500 4.84834500 0.80806672
Cu 1.61611500 1.61611500 -2.4242001499999972 0 0 0
Cu 1.61611500 4.84834500 0.80806672
Cu 4.84834500 1.61611500 -2.4242001499999972 0 0 0
