&CONTROL
calculation = 'relax'
prefix = 'scf'
pseudo_dir = '/vol0403/data/hp230205/u10028/POT_HYBRID_KKJUS_GBRV'
outdir = './data'
tprnfor = .true.
nstep = 70
disk_io = 'non'
/
&SYSTEM
ibrav = 0
ecutwfc = 50.0
ecutrho = 400
occupations = 'smearing'
smearing = 'mp'
degauss = 0.01
assume_isolated = 'esm'
esm_bc = 'bc1'
input_dft = 'BEEF-VDW'
nosym = .true.
nspin = 1
ntyp = 6
nat = 34
/
&ELECTRONS
electron_maxstep = 200
mixing_beta = 0.1
conv_thr = 1e-06
/
&IONS
ion_dynamics = 'bfgs'
upscale = 1.0
/
&CELL
/

K_POINTS {automatic}
9 6 2 0  0  0

ATOMIC_SPECIES
Al 26.98 Al.pbe-nl-rrkjus_psl.1.0.0.UPF
C 12.01 C.pbe-n-rrkjus_psl.1.0.0.UPF
Li 6.941 Li.pbe-sl-rrkjus_psl.1.0.0.UPF
O 15.99 O.pbe-n-rrkjus_psl.1.0.0.UPF
Pd 106.4 Pd.pbe-n-rrkjus_psl.1.0.0.UPF
Pt 195.0 Pt.pbe-n-rrkjus_psl.1.0.0.UPF


CELL_PARAMETERS {angstrom}
6.06122000 0.00000000 0.00000000
-0.00000000 8.57186000 0.00000000
0.00000000 0.00000000 26.42890000

ATOMIC_POSITIONS {angstrom}
Li 0.00000000 2.14296500 -1.071427609999997 0 0 0
Li 0.00000000 6.42889500 -1.071427609999997 0 0 0
Li 3.03061000 4.28593000 -3.214547109999998 0 0 0
Li 3.03061000 0.00000000 -3.214547109999998 0 0 0
Li 0.02933630 6.42889500 3.70163173
Li 0.01927468 2.14296500 3.57873735
Li 3.02939776 8.56868841 1.05557027
Li 3.02939776 4.28910159 1.05557027
Al 0.00000000 0.00000000 -3.214547109999998 0 0 0
Al 0.00000000 4.28593000 -3.214547109999998 0 0 0
Al 3.03061000 6.42889500 -1.071427609999997 0 0 0
Al 3.03061000 2.14296500 -1.071427609999997 0 0 0
Al 6.05928041 4.26878628 1.07856341
Al 6.05928041 0.01714372 1.07856341
Al 2.98418105 2.14296500 3.25841908
Al 2.98793901 6.42889500 3.13261752
Pd 4.54591500 0.00000000 -1.071427609999997 0 0 0
Pd 4.54591500 4.28593000 -1.071427609999997 0 0 0
Pd 1.51530500 2.14296500 -3.214547109999998 0 0 0
Pd 1.51530500 6.42889500 -3.214547109999998 0 0 0
Pd 4.51269951 4.31918882 3.13948903
Pd 4.51269951 8.53860118 3.13948903
Pd 1.46426953 6.42889500 1.02438416
Pd 1.50554644 2.14296500 1.07222047
Pt 1.51530500 0.00000000 -1.071427609999997 0 0 0
Pt 1.51530500 4.28593000 -1.071427609999997 0 0 0
Pt 4.54591500 2.14296500 -3.214547109999998 0 0 0
Pt 4.54591500 6.42889500 -3.214547109999998 0 0 0
Pt 1.56179456 4.30744537 3.10909580
Pt 1.56179456 8.55034463 3.10909580
Pt 4.57203886 6.42889500 1.06455609
Pt 4.54973357 2.14296500 1.11873534
C 3.02673082 2.14296500 5.29555869
O 3.04352040 2.14296500 6.44785873
