&CONTROL
calculation = 'relax'
prefix = 'scf'
pseudo_dir = '/vol0004/mdt0/data/hp150275/u10028/POT_HYBRID_KKJUS_GBRV'
outdir = './data'
tprnfor = .true.
nstep = 50
disk_io = 'non'
/
&SYSTEM
ibrav = 0
ecutwfc = 50.0
ecutrho = 400
occupations = 'smearing'
smearing = 'mp'
degauss = 0.01
assume_isolated = 'esm'
esm_bc = 'bc1'
input_dft = 'BEEF-VDW'
nosym = .true.
nspin = 2
ntyp = 3
nat = 16
starting_magnetization(1) = 0.1
starting_magnetization(2) = 0.1
starting_magnetization(3) = 0.1
/
&ELECTRONS
electron_maxstep = 200
mixing_beta = 0.1
conv_thr = 1e-06
/
&IONS
ion_dynamics = 'bfgs'
upscale = 1.0
/
&CELL
/

K_POINTS {automatic}
8 8 1 0 0 0

ATOMIC_SPECIES
Al 26.98 Al.pbe-nl-rrkjus_psl.1.0.0.UPF
Mn 54.93 mn_pbe_v1.5.uspp.F.UPF
V 50.94 V.pbe-spnl-rrkjus_psl.1.0.0.UPF

CELL_PARAMETERS {angstrom}
5.82937000 0.00000000 0.00000000
-0.00000000 5.82937000 0.00000000
0.00000000 0.00000000 24.37200000

ATOMIC_POSITIONS {angstrom}
Mn 1.45734250 1.45734250 -0.7287227999999999 0 0 0
Mn 4.37202750 4.37202750 2.18592468
Mn 4.37202750 1.45734250 -0.7287227999999999 0 0 0
Mn 1.45734250 4.37202750 2.18592468
Mn 4.37202750 4.37202750 -0.7287227999999999 0 0 0
Mn 1.45734250 1.45734250 2.18592468
Mn 1.45734250 4.37202750 -0.7287227999999999 0 0 0
Mn 4.37202750 1.45734250 2.18592468
Al 0.00000000 0.00000000 -2.1859246799999994 0 0 0
Al 2.91468500 2.91468500 -2.1859246799999994 0 0 0
Al 2.91468500 -0.00000000 0.72872280
Al 0.00000000 2.91468500 0.72872280
V 0.00000000 0.00000000 0.72872280
V 2.91468500 0.00000000 -2.1859246799999994 0 0 0
V 0.00000000 2.91468500 -2.1859246799999994 0 0 0
V 2.91468500 2.91468500 0.72872280
