&CONTROL
calculation = 'relax'
prefix = 'scf'
pseudo_dir = '/vol0004/mdt0/data/hp150275/u10028/POT_HYBRID_KKJUS_GBRV'
outdir = './data'
tprnfor = .true.
nstep = 50
disk_io = 'non'
/
&SYSTEM
ibrav = 0
ecutwfc = 50.0
ecutrho = 400
occupations = 'smearing'
smearing = 'mp'
degauss = 0.01
assume_isolated = 'esm'
esm_bc = 'bc1'
input_dft = 'BEEF-VDW'
nosym = .true.
nspin = 2
ntyp = 5
nat = 34
starting_magnetization(1) = 0.0
starting_magnetization(2) = 0.0
starting_magnetization(3) = 0.1
starting_magnetization(4) = 0.1
starting_magnetization(5) = 0.0
/
&ELECTRONS
electron_maxstep = 300
mixing_beta = 0.1
conv_thr = 1e-06
/
&IONS
ion_dynamics = 'bfgs'
upscale = 1.0
/
&CELL
/

K_POINTS {automatic}
8 6 1 0 0 0

ATOMIC_SPECIES
Al 26.98 Al.pbe-nl-rrkjus_psl.1.0.0.UPF
C 12.01 C.pbe-n-rrkjus_psl.1.0.0.UPF
Fe 55.84 fe_pbe_v1.5.uspp.F.UPF
Mn 54.93 mn_pbe_v1.5.uspp.F.UPF
O 15.99 O.pbe-n-rrkjus_psl.1.0.0.UPF

CELL_PARAMETERS {angstrom}
5.79866000 0.00000000 0.00000000
0.00000000 8.20054000 0.00000000
0.00000000 0.00000000 26.15040000

ATOMIC_POSITIONS {angstrom}
Mn 0.00000000 0.00000000 -3.0752870400000027 0 0 0
Mn 2.89933000 2.05013500 -1.0250956799999997 0 0 0
Mn 2.89933000 6.15040500 -1.0250956799999997 0 0 0
Mn 0.00000000 4.10027000 -3.0752870400000027 0 0 0
Mn 0.00000000 4.10109005 1.07216640
Mn 2.89933000 6.15040500 2.98663718
Mn 2.89933000 2.05013500 3.02900083
Mn 0.00000000 8.19963794 1.07216640
Al 0.00000000 6.15040500 -1.0250956799999997 0 0 0
Al 2.89933000 0.00000000 -3.0752870400000027 0 0 0
Al 0.00000000 2.05013500 -1.0250956799999997 0 0 0
Al 2.89933000 4.10027000 -3.0752870400000027 0 0 0
Al 0.00000000 2.05013500 3.04835213
Al 2.89933000 4.10133607 0.99345370
Al 0.00000000 6.15040500 3.07136448
Al 2.89933000 8.19947393 0.99345370
Fe 1.44966500 0.00000000 -1.0250956799999997 0 0 0
Fe 4.34899500 4.10027000 -1.0250956799999997 0 0 0
Fe 4.34899500 0.00000000 -1.0250956799999997 0 0 0
Fe 1.44966500 4.10027000 -1.0250956799999997 0 0 0
Fe 4.34899500 6.15040500 -3.0752870400000027 0 0 0
Fe 1.44966500 2.05013500 -3.0752870400000027 0 0 0
Fe 1.44966500 6.15040500 -3.0752870400000027 0 0 0
Fe 4.34899500 2.05013500 -3.0752870400000027 0 0 0
Fe 1.51536382 4.11929525 3.12758784
Fe 4.28335417 8.18151475 3.12758784
Fe 4.28329618 4.11929525 3.12758784
Fe 1.51530583 8.18151475 3.12758784
Fe 4.36546319 2.05013500 1.03372531
Fe 1.43052942 6.15032299 0.99920678
Fe 1.43319681 2.05021701 1.03372531
Fe 4.36813058 6.15032299 0.99920678
C 0.00000000 2.05013500 5.03604403
O 0.00000000 2.05013500 6.19267622
