&CONTROL
calculation = 'relax'
prefix = 'scf'
pseudo_dir = '/vol0004/mdt0/data/hp150275/u10028/POT_KKJUS'
outdir = './data'
tprnfor = .true.
nstep = 50
disk_io = 'non'
/
&SYSTEM
ibrav = 0
ecutwfc = 50.0
ecutrho = 400
occupations = 'smearing'
smearing = 'mp'
degauss = 0.01
assume_isolated = 'esm'
esm_bc = 'bc1'
input_dft = 'BEEF-VDW'
nosym = .true.
nspin = 1
ntyp = 4
nat = 34
/
&ELECTRONS
electron_maxstep = 200
mixing_beta = 0.1
conv_thr = 1e-06
/
&IONS
ion_dynamics = 'bfgs'
upscale = 1.0
/
&CELL
/

K_POINTS {automatic}
8 6 1 0 0 0

ATOMIC_SPECIES
C 12.01 C.pbe-n-rrkjus_psl.1.0.0.UPF
In 114.8 In.pbe-dn-rrkjus_psl.1.0.0.UPF
O 15.99 O.pbe-n-rrkjus_psl.1.0.0.UPF
Sb 121.7 Sb.pbe-n-rrkjus_psl.1.0.0.UPF

CELL_PARAMETERS {angstrom}
7.67805000 0.00000000 0.00000000
0.00000000 10.85840000 0.00000000
0.00000000 0.00000000 28.14380000

ATOMIC_POSITIONS {angstrom}
In 0.00000000 0.00000000 -4.071844979999998 0 0 0
In 0.00000000 2.71460000 -1.3573754699999974 0 0 0
In 7.39772439 0.00108584 1.31741128
In 7.66829888 2.73718547 4.17682136
In 0.00000000 5.42920000 -4.071844979999998 0 0 0
In 0.00000000 8.14380000 -1.3573754699999974 0 0 0
In 0.27702404 5.42974292 1.34527364
In 7.66945058 8.12696948 4.17541417
In 3.83902500 0.00000000 -4.071844979999998 0 0 0
In 3.83902500 2.71460000 -1.3573754699999974 0 0 0
In 4.11727753 10.85829142 1.31544121
In 3.84770120 2.73457946 4.17850999
In 3.83902500 5.42920000 -4.071844979999998 0 0 0
In 3.83902500 8.14380000 -1.3573754699999974 0 0 0
In 3.56330622 5.43061159 1.34583652
In 3.84685661 8.12914116 4.17682136
Sb 1.91951250 2.71460000 -4.071844979999998 0 0 0
Sb 1.91951250 0.00000000 -1.3573754699999974 0 0 0
Sb 1.91874470 2.16766239 1.40043549
Sb 1.91790011 0.01324725 3.77183208
Sb 1.91951250 8.14380000 -4.071844979999998 0 0 0
Sb 1.91951250 5.42920000 -1.3573754699999974 0 0 0
Sb 1.91782333 8.69095478 1.38580071
Sb 1.91951250 5.43126310 3.94266494
Sb 5.75853750 2.71460000 -4.071844979999998 0 0 0
Sb 5.75853750 0.00000000 -1.3573754699999974 0 0 0
Sb 5.75892140 3.25784575 1.31628553
Sb 5.75515916 0.00304035 3.90241931
Sb 5.75853750 8.14380000 -4.071844979999998 0 0 0
Sb 5.75853750 5.42920000 -1.3573754699999974 0 0 0
Sb 5.75953565 7.60066283 1.32529154
Sb 5.75938209 5.43538929 3.81826935
C 2.05234276 10.82169861 7.78823377
O 1.82192448 0.00673221 8.89822525
