&CONTROL
calculation = 'relax'
prefix = 'scf'
pseudo_dir = '/vol0004/mdt0/data/hp150275/u10028/POT_KKJUS'
outdir = './data'
tprnfor = .true.
nstep = 50
disk_io = 'non'
/
&SYSTEM
ibrav = 0
ecutwfc = 50.0
ecutrho = 400
occupations = 'smearing'
smearing = 'mp'
degauss = 0.01
assume_isolated = 'esm'
esm_bc = 'bc1'
input_dft = 'BEEF-VDW'
nosym = .true.
nspin = 1
ntyp = 2
nat = 32
/
&ELECTRONS
electron_maxstep = 200
mixing_beta = 0.1
conv_thr = 1e-06
/
&IONS
ion_dynamics = 'bfgs'
upscale = 1.0
/
&CELL
/

K_POINTS {automatic}
8 6 1 0 0 0

ATOMIC_SPECIES
Cu 63.54 Cu.pbe-dn-rrkjus_psl.1.0.0.UPF
Zr 91.22 Zr.pbe-spn-rrkjus_psl.1.0.0.UPF

CELL_PARAMETERS {angstrom}
6.62616000 0.00000000 0.00000000
0.00000000 9.37081000 0.00000000
0.00000000 0.00000000 27.02810000

ATOMIC_POSITIONS {angstrom}
Zr 1.65654000 2.34270250 -3.51392328 0 0 0
Zr 1.65654000 0.00000000 -1.1713978499999982 0 0 0
Zr 1.65654000 2.34260879 1.07706978
Zr 1.65654000 0.00009371 3.35256552
Zr 1.65654000 7.02810750 -3.51392328 0 0 0
Zr 1.65654000 4.68540500 -1.1713978499999982 0 0 0
Zr 1.65654000 7.02820121 1.07679950
Zr 1.65654000 4.68521758 3.35202496
Zr 4.96962000 2.34270250 -3.51392328 0 0 0
Zr 4.96962000 0.00000000 -1.1713978499999982 0 0 0
Zr 4.96962000 2.34260879 1.07706978
Zr 4.96962000 0.00018742 3.35256552
Zr 4.96962000 7.02810750 -3.51392328 0 0 0
Zr 4.96962000 4.68540500 -1.1713978499999982 0 0 0
Zr 4.96962000 7.02820121 1.07679950
Zr 4.96962000 4.68521758 3.35202496
Cu 0.00000000 0.00000000 -3.51392328 0 0 0
Cu 0.00000000 2.34270250 -1.1713978499999982 0 0 0
Cu 0.00006626 9.37034146 1.16112718
Cu 0.00000000 2.34288992 3.27229207
Cu 0.00000000 4.68540500 -3.51392328 0 0 0
Cu 0.00000000 7.02810750 -1.1713978499999982 0 0 0
Cu 0.00000000 4.68587354 1.16085689
Cu 6.62609374 7.02782638 3.27175151
Cu 3.31308000 0.00000000 -3.51392328 0 0 0
Cu 3.31308000 2.34270250 -1.1713978499999982 0 0 0
Cu 3.31301374 9.37034146 1.16112718
Cu 3.31308000 2.34288992 3.27229207
Cu 3.31308000 4.68540500 -3.51392328 0 0 0
Cu 3.31308000 7.02810750 -1.1713978499999982 0 0 0
Cu 3.31308000 4.68587354 1.16085689
Cu 3.31314626 7.02782638 3.27175151
