&CONTROL
calculation = 'relax'
prefix = 'scf'
pseudo_dir = '/vol0004/mdt0/data/hp150275/u10028/POT_KKJUS'
outdir = './data'
tprnfor = .true.
nstep = 50
disk_io = 'non'
/
&SYSTEM
ibrav = 0
ecutwfc = 50.0
ecutrho = 400
occupations = 'smearing'
smearing = 'mp'
degauss = 0.01
assume_isolated = 'esm'
esm_bc = 'bc1'
input_dft = 'BEEF-VDW'
nosym = .true.
nspin = 1
ntyp = 3
nat = 33
/
&ELECTRONS
electron_maxstep = 200
mixing_beta = 0.1
conv_thr = 1e-06
/
&IONS
ion_dynamics = 'bfgs'
upscale = 1.0
/
&CELL
/

K_POINTS {automatic}
9 6 2 0  0  0

ATOMIC_SPECIES
C 12.01 C.pbe-n-rrkjus_psl.1.0.0.UPF
In 114.8 In.pbe-dn-rrkjus_psl.1.0.0.UPF
Pd 106.4 Pd.pbe-n-rrkjus_psl.1.0.0.UPF

CELL_PARAMETERS {angstrom}
6.68646000 0.00000000 0.00000000
0.00000000 9.45609000 0.00000000
0.00000000 0.00000000 27.09210000

ATOMIC_POSITIONS {angstrom}
In 0.00000000 0.00000000 -3.546084969999999 0 0 0
In 0.00000000 2.36402250 -1.182028319999997 0 0 0
In 0.03089145 9.44455357 1.17904819
In 6.38396455 2.36402250 3.69617520
In 0.00000000 4.72804500 -3.546084969999999 0 0 0
In 0.00000000 7.09206750 -1.182028319999997 0 0 0
In 0.03089145 4.73958143 1.17904819
In 0.06525985 7.09206750 3.76011256
In 3.34323000 0.00000000 -3.546084969999999 0 0 0
In 3.34323000 2.36402250 -1.182028319999997 0 0 0
In 3.31380958 9.44417533 1.17877727
In 3.65381607 2.36402250 3.69129862
In 3.34323000 4.72804500 -3.546084969999999 0 0 0
In 3.34323000 7.09206750 -1.182028319999997 0 0 0
In 3.31380958 4.73995967 1.17877727
In 3.27696718 7.09206750 3.75957072
Pd 1.67161500 2.36402250 -3.546084969999999 0 0 0
Pd 1.67161500 0.00000000 -1.182028319999997 0 0 0
Pd 1.67201619 2.36402250 1.23052318
Pd 1.67355407 0.20585908 3.46833064
Pd 1.67161500 7.09206750 -3.546084969999999 0 0 0
Pd 1.67161500 4.72804500 -1.182028319999997 0 0 0
Pd 1.67121381 7.09206750 1.25219686
Pd 1.67355407 4.52218592 3.46833064
Pd 5.01484500 2.36402250 -3.546084969999999 0 0 0
Pd 5.01484500 0.00000000 -1.182028319999997 0 0 0
Pd 5.01584797 2.36402250 1.09723005
Pd 5.01571424 9.30640010 3.35454382
Pd 5.01484500 7.09206750 -3.546084969999999 0 0 0
Pd 5.01484500 4.72804500 -1.182028319999997 0 0 0
Pd 5.01511246 7.09206750 1.14166109
Pd 5.01571424 4.87764034 3.35454382
C 1.67729849 2.36402250 4.36318270
