&CONTROL
calculation = 'relax'
prefix = 'scf'
pseudo_dir = '/vol0004/mdt0/data/hp150275/u10028/POT_KKJUS'
outdir = './data'
tprnfor = .true.
nstep = 50
disk_io = 'non'
/
&SYSTEM
ibrav = 0
ecutwfc = 50.0
ecutrho = 400
occupations = 'smearing'
smearing = 'mp'
degauss = 0.01
assume_isolated = 'esm'
esm_bc = 'bc1'
input_dft = 'BEEF-VDW'
nosym = .true.
nspin = 1
ntyp = 3
nat = 33
/
&ELECTRONS
electron_maxstep = 200
mixing_beta = 0.1
conv_thr = 1e-06
/
&IONS
ion_dynamics = 'bfgs'
upscale = 1.0
/
&CELL
/

K_POINTS {automatic}
8 6 1 0 0 0

ATOMIC_SPECIES
C 12.01 C.pbe-n-rrkjus_psl.1.0.0.UPF
Pt 195.0 Pt.pbe-n-rrkjus_psl.1.0.0.UPF
Sc 44.95 Sc.pbe-spn-rrkjus_psl.1.0.0.UPF

CELL_PARAMETERS {angstrom}
6.65024000 0.00000000 0.00000000
0.00000000 9.40485000 0.00000000
0.00000000 0.00000000 27.05360000

ATOMIC_POSITIONS {angstrom}
Sc 1.66256000 2.35121250 -3.526707299999998 0 0 0
Sc 1.66256000 0.00000000 -1.1754789199999998 0 0 0
Sc 1.67187034 2.35535063 1.16411641
Sc 1.99227890 9.40475595 3.62951098
Sc 1.66256000 7.05363750 -3.526707299999998 0 0 0
Sc 1.66256000 4.70242500 -1.1754789199999998 0 0 0
Sc 1.67193684 7.04959341 1.16411641
Sc 1.63835313 4.70242500 3.52400194
Sc 4.98768000 2.35121250 -3.526707299999998 0 0 0
Sc 4.98768000 0.00000000 -1.1754789199999998 0 0 0
Sc 4.97823666 2.35535063 1.16411641
Sc 4.65796110 0.00000000 3.62951098
Sc 4.98768000 7.05363750 -3.526707299999998 0 0 0
Sc 4.98768000 4.70242500 -1.1754789199999998 0 0 0
Sc 4.97823666 7.04949937 1.16411641
Sc 5.01195338 4.70251905 3.52400194
Pt 0.00000000 0.00000000 -3.526707299999998 0 0 0
Pt 0.00000000 2.35121250 -1.1754789199999998 0 0 0
Pt 0.00006650 0.00000000 1.11352618
Pt 0.00000000 2.23139471 3.25941773
Pt 0.00000000 4.70242500 -3.526707299999998 0 0 0
Pt 0.00000000 7.05363750 -1.1754789199999998 0 0 0
Pt 0.00006650 4.70251905 1.28288171
Pt 0.00006650 7.17345529 3.25941773
Pt 3.32512000 0.00000000 -3.526707299999998 0 0 0
Pt 3.32512000 2.35121250 -1.1754789199999998 0 0 0
Pt 3.32498700 0.00000000 1.04967968
Pt 3.32512000 2.51918312 3.34734193
Pt 3.32512000 4.70242500 -3.526707299999998 0 0 0
Pt 3.32512000 7.05363750 -1.1754789199999998 0 0 0
Pt 3.32505350 4.70242500 1.11704314
Pt 3.32505350 6.88557283 3.34734193
C 0.00000000 0.00000000 3.64357885
