&CONTROL
calculation = 'relax'
prefix = 'scf'
pseudo_dir = '/vol0004/mdt0/data/hp150275/u10028/POT_KKJUS'
outdir = './data'
tprnfor = .true.
nstep = 50
disk_io = 'non'
/
&SYSTEM
ibrav = 0
ecutwfc = 50.0
ecutrho = 400
occupations = 'smearing'
smearing = 'mp'
degauss = 0.01
assume_isolated = 'esm'
esm_bc = 'bc1'
input_dft = 'BEEF-VDW'
nosym = .true.
nspin = 1
ntyp = 3
nat = 34
/
&ELECTRONS
electron_maxstep = 200
mixing_beta = 0.1
conv_thr = 1e-06
/
&IONS
ion_dynamics = 'bfgs'
upscale = 1.0
/
&CELL
/

K_POINTS {automatic}
6 6 1 0 0 0

ATOMIC_SPECIES
C 12.01 C.pbe-n-rrkjus_psl.1.0.0.UPF
O 15.99 O.pbe-n-rrkjus_psl.1.0.0.UPF
Si 28.08 Si.pbe-nl-rrkjus_psl.1.0.0.UPF

CELL_PARAMETERS {angstrom}
7.65942000 0.00000000 0.00000000
-0.00000000 7.65942000 0.00000000
0.00000000 0.00000000 25.74460000

ATOMIC_POSITIONS {angstrom}
Si 0.00000000 0.00000000 -2.872325019999998 0 0 0
Si 1.91485500 1.91485500 -2.872325019999998 0 0 0
Si 1.91485500 0.00000000 -0.9574416699999979 0 0 0
Si 0.00000000 1.91485500 -0.9574416699999979 0 0 0
Si 0.00000000 0.00000000 0.95744167
Si 1.91485500 1.91485500 0.95744167
Si 1.91485500 -0.00000000 2.87232502
Si 0.00000000 1.91485500 2.87232502
Si 0.00000000 3.82971000 -2.872325019999998 0 0 0
Si 1.91485500 5.74456500 -2.872325019999998 0 0 0
Si 1.91485500 3.82971000 -0.9574416699999979 0 0 0
Si 0.00000000 5.74456500 -0.9574416699999979 0 0 0
Si 0.00000000 3.82971000 0.95744167
Si 1.91485500 5.74456500 0.95744167
Si 1.91485500 3.82971000 2.87232502
Si 0.00000000 5.74456500 2.87232502
Si 3.82971000 0.00000000 -2.872325019999998 0 0 0
Si 5.74456500 1.91485500 -2.872325019999998 0 0 0
Si 5.74456500 0.00000000 -0.9574416699999979 0 0 0
Si 3.82971000 1.91485500 -0.9574416699999979 0 0 0
Si 3.82971000 -0.00000000 0.95744167
Si 5.74456500 1.91485500 0.95744167
Si 5.74456500 -0.00000000 2.87232502
Si 3.82971000 1.91485500 2.87232502
Si 3.82971000 3.82971000 -2.872325019999998 0 0 0
Si 5.74456500 5.74456500 -2.872325019999998 0 0 0
Si 5.74456500 3.82971000 -0.9574416699999979 0 0 0
Si 3.82971000 5.74456500 -0.9574416699999979 0 0 0
Si 3.82971000 3.82971000 0.95744167
Si 5.74456500 5.74456500 0.95744167
Si 5.74456500 3.82971000 2.87232502
Si 3.82971000 5.74456500 2.87232502
C 1.91485500 -0.00000000 4.77227650
O 1.91485500 -0.00000000 5.92228778
