&CONTROL
calculation = 'relax'
prefix = 'scf'
pseudo_dir = '/vol0004/mdt0/data/hp150275/u10028/POT_KKJUS'
outdir = './data'
tprnfor = .true.
nstep = 50
disk_io = 'non'
/
&SYSTEM
ibrav = 0
ecutwfc = 50.0
ecutrho = 400
occupations = 'smearing'
smearing = 'mp'
degauss = 0.01
assume_isolated = 'esm'
esm_bc = 'bc1'
input_dft = 'BEEF-VDW'
nosym = .true.
nspin = 1
ntyp = 2
nat = 32
/
&ELECTRONS
electron_maxstep = 200
mixing_beta = 0.1
conv_thr = 1e-06
/
&IONS
ion_dynamics = 'bfgs'
upscale = 1.0
/
&CELL
/

K_POINTS {automatic}
9 6 2 0  0  0

ATOMIC_SPECIES
Mg 24.30 Mg.pbe-spnl-rrkjus_psl.1.0.0.UPF
Rh 102.9 Rh.pbe-spn-rrkjus_psl.1.0.0.UPF

CELL_PARAMETERS {angstrom}
6.29180000 0.00000000 0.00000000
0.00000000 8.89794000 0.00000000
0.00000000 0.00000000 26.67350000

ATOMIC_POSITIONS {angstrom}
Mg 0.00000000 0.00000000 -3.3368548500000017 0 0 0
Mg 0.00000000 2.22448500 -1.1122849499999994 0 0 0
Mg 0.00000000 0.00000000 1.09334676
Mg 0.00000000 2.22448500 3.37873225
Mg 0.00000000 4.44897000 -3.3368548500000017 0 0 0
Mg 0.00000000 6.67345500 -1.1122849499999994 0 0 0
Mg 0.00000000 4.44897000 1.09334676
Mg 0.00000000 6.67345500 3.37873225
Mg 3.14590000 0.00000000 -3.3368548500000017 0 0 0
Mg 3.14590000 2.22448500 -1.1122849499999994 0 0 0
Mg 3.14590000 0.00000000 1.09361350
Mg 3.14590000 2.22448500 3.37819878
Mg 3.14590000 4.44897000 -3.3368548500000017 0 0 0
Mg 3.14590000 6.67345500 -1.1122849499999994 0 0 0
Mg 3.14590000 4.44897000 1.09361350
Mg 3.14590000 6.67345500 3.37819878
Rh 1.57295000 2.22448500 -3.3368548500000017 0 0 0
Rh 1.57295000 4.44897000 -1.1122849499999994 0 0 0
Rh 1.57301292 2.22448500 1.11655271
Rh 1.57332751 0.00000000 3.23789616
Rh 1.57295000 6.67345500 -3.3368548500000017 0 0 0
Rh 1.57295000 0.00000000 -1.1122849499999994 0 0 0
Rh 1.57301292 6.67345500 1.11655271
Rh 1.57332751 4.44897000 3.23789616
Rh 4.71885000 2.22448500 -3.3368548500000017 0 0 0
Rh 4.71885000 4.44897000 -1.1122849499999994 0 0 0
Rh 4.71878708 2.22448500 1.11655271
Rh 4.71847249 0.00000000 3.23789616
Rh 4.71885000 6.67345500 -3.3368548500000017 0 0 0
Rh 4.71885000 0.00000000 -1.1122849499999994 0 0 0
Rh 4.71878708 6.67345500 1.11655271
Rh 4.71847249 4.44897000 3.23789616
