&CONTROL
calculation = 'relax'
prefix = 'scf'
pseudo_dir = '/vol0004/mdt0/data/hp150275/u10028/POT_KKJUS'
outdir = './data'
tprnfor = .true.
nstep = 50
disk_io = 'non'
/
&SYSTEM
ibrav = 0
ecutwfc = 50.0
ecutrho = 400
occupations = 'smearing'
smearing = 'mp'
degauss = 0.01
assume_isolated = 'esm'
esm_bc = 'bc1'
input_dft = 'BEEF-VDW'
nosym = .true.
nspin = 1
ntyp = 5
nat = 34
/
&ELECTRONS
electron_maxstep = 200
mixing_beta = 0.1
conv_thr = 1e-06
/
&IONS
ion_dynamics = 'bfgs'
upscale = 1.0
/
&CELL
/

K_POINTS {automatic}
9 6 2 0  0  0

ATOMIC_SPECIES
C 12.01 C.pbe-n-rrkjus_psl.1.0.0.UPF
Ga 69.72 Ga.pbe-dnl-rrkjus_psl.1.0.0.UPF
Ir 192.2 Ir.pbe-n-rrkjus_psl.0.2.3.UPF
Li 6.941 Li.pbe-sl-rrkjus_psl.1.0.0.UPF
O 15.99 O.pbe-n-rrkjus_psl.1.0.0.UPF

CELL_PARAMETERS {angstrom}
6.01864000 0.00000000 0.00000000
0.00000000 8.51164000 0.00000000
0.00000000 0.00000000 26.38370000

ATOMIC_POSITIONS {angstrom}
Li 0.00000000 6.38373000 -1.0640546200000003 0 0 0
Li 3.00932000 0.00000000 -3.1919000299999993 0 0 0
Li 0.00000000 2.12791000 -1.0640546200000003 0 0 0
Li 3.00932000 4.25582000 -3.1919000299999993 0 0 0
Li 1.50466000 0.00000000 -1.0640546200000003 0 0 0
Li 1.50466000 4.25582000 -1.0640546200000003 0 0 0
Li 4.51398000 6.38373000 -3.1919000299999993 0 0 0
Li 4.51398000 2.12791000 -3.1919000299999993 0 0 0
Li 5.99980166 2.12791000 3.18873398
Li 2.94630484 4.25888419 1.03239418
Li 6.00720458 6.38373000 3.17527830
Li 2.94630484 8.50857581 1.03239418
Li 1.62978753 4.30731542 3.66786197
Li 1.62984771 8.46005946 3.66786197
Li 4.53877680 2.12791000 0.98543120
Li 4.53438319 6.38373000 0.99730386
Ga 1.50466000 2.12791000 -3.1919000299999993 0 0 0
Ga 1.50466000 6.38373000 -3.1919000299999993 0 0 0
Ga 4.51398000 4.25582000 -1.0640546200000003 0 0 0
Ga 4.51398000 0.00000000 -1.0640546200000003 0 0 0
Ga 1.46800648 6.38373000 1.01788315
Ga 1.50369702 2.12791000 1.03767092
Ga 4.39938509 8.47376320 3.13438356
Ga 4.39938509 4.29369680 3.13438356
Ir 0.00000000 0.00000000 -3.1919000299999993 0 0 0
Ir 3.00932000 2.12791000 -1.0640546200000003 0 0 0
Ir 3.00932000 6.38373000 -1.0640546200000003 0 0 0
Ir 0.00000000 4.25582000 -3.1919000299999993 0 0 0
Ir 0.03490811 4.24892557 1.19940300
Ir 3.03188990 6.38373000 2.98663484
Ir 3.00167633 2.12791000 3.21854756
Ir 0.03484793 0.00697954 1.19940300
C 2.68617922 2.12791000 5.05590843
O 2.52740750 2.12782488 6.21652739
