&CONTROL
calculation = 'relax'
prefix = 'scf'
pseudo_dir = '/vol0004/mdt0/data/hp150275/u10028/POT_HYBRID_KKJUS_GBRV'
outdir = './data'
tprnfor = .true.
nstep = 70
disk_io = 'non'
/
&SYSTEM
ibrav = 0
ecutwfc = 50.0
ecutrho = 400
occupations = 'smearing'
smearing = 'mp'
degauss = 0.01
assume_isolated = 'esm'
esm_bc = 'bc1'
input_dft = 'BEEF-VDW'
nosym = .true.
nspin = 1
ntyp = 3
nat = 33
/
&ELECTRONS
electron_maxstep = 200
mixing_beta = 0.1
conv_thr = 1e-06
/
&IONS
ion_dynamics = 'bfgs'
upscale = 1.0
/
&CELL
/

K_POINTS {automatic}
6 8 1 0 0 0

ATOMIC_SPECIES
Bi 208.9 Bi.pbe-dn-rrkjus_psl.1.0.0.UPF
C 12.01 C.pbe-n-rrkjus_psl.1.0.0.UPF
Na 22.98 Na.pbe-spnl-rrkjus_psl.1.0.0.UPF

CELL_PARAMETERS {angstrom}
9.89650000 0.00000000 0.00000000
0.00000000 9.78514000 0.00000000
0.00000000 0.00000000 27.42240000

ATOMIC_POSITIONS {angstrom}
Na 2.47412500 2.44628500 -3.7110733899999993 0 0 0
Na 4.94825000 2.44628500 -1.2370244600000007 0 0 0
Na 2.52598266 2.31624049 1.38181474
Na 4.94904172 2.49951616 4.12679698
Na 2.47412500 7.33885500 -3.7110733899999993 0 0 0
Na 4.94825000 7.33885500 -1.2370244600000007 0 0 0
Na 2.52608162 7.46889951 1.38154051
Na 4.94904172 7.28562384 4.12652275
Na 7.42237500 2.44628500 -3.7110733899999993 0 0 0
Na 0.00000000 2.44628500 -1.2370244600000007 0 0 0
Na 7.36814218 2.31438131 1.38263741
Na 9.89640104 2.56096684 4.08758294
Na 7.42237500 7.33885500 -3.7110733899999993 0 0 0
Na 0.00000000 7.33885500 -1.2370244600000007 0 0 0
Na 7.36814218 7.47075869 1.38236318
Na 9.89640104 7.22436886 4.08730872
Bi 0.00000000 0.00000000 -3.7110733899999993 0 0 0
Bi 2.47412500 0.00000000 -1.2370244600000007 0 0 0
Bi 4.94231210 0.00009785 2.02651536
Bi 2.20335676 0.00000000 4.08374381
Bi 0.00000000 4.89257000 -3.7110733899999993 0 0 0
Bi 2.47412500 4.89257000 -1.2370244600000007 0 0 0
Bi 4.94785414 4.89257000 1.51426493
Bi 2.48481322 4.89266785 3.54407098
Bi 4.94825000 0.00000000 -3.7110733899999993 0 0 0
Bi 7.42237500 0.00000000 -1.2370244600000007 0 0 0
Bi 0.00039586 0.00009785 1.03163069
Bi 7.71105591 0.00000000 4.07524286
Bi 4.94825000 4.89257000 -3.7110733899999993 0 0 0
Bi 7.42237500 4.89257000 -1.2370244600000007 0 0 0
Bi 9.89481759 4.89257000 1.47998693
Bi 7.41049920 4.89266785 3.54269986
C 0.01345924 0.00009785 3.30494765
