&CONTROL
calculation = 'relax'
prefix = 'scf'
pseudo_dir = '/vol0403/data/hp230205/u10028/POT_HYBRID_KKJUS_GBRV'
outdir = './data'
tprnfor = .true.
nstep = 50
disk_io = 'non'
/
&SYSTEM
ibrav = 0
ecutwfc = 50.0
ecutrho = 400
occupations = 'smearing'
smearing = 'mp'
degauss = 0.01
assume_isolated = 'esm'
esm_bc = 'bc1'
input_dft = 'BEEF-VDW'
nosym = .true.
nspin = 1
ntyp = 5
nat = 33
/
&ELECTRONS
electron_maxstep = 200
mixing_beta = 0.1
conv_thr = 1e-06
/
&IONS
ion_dynamics = 'bfgs'
upscale = 1.0
/
&CELL
/

K_POINTS {automatic}
6 6 1 0 0 0

ATOMIC_SPECIES
Al 26.98 Al.pbe-nl-rrkjus_psl.1.0.0.UPF
C 12.01 C.pbe-n-rrkjus_psl.1.0.0.UPF
Li 6.941 Li.pbe-sl-rrkjus_psl.1.0.0.UPF
Nb 92.90 Nb.pbe-spn-rrkjus_psl.1.0.0.UPF
Pd 106.4 Pd.pbe-n-rrkjus_psl.1.0.0.UPF


CELL_PARAMETERS {angstrom}
6.26744000 0.00000000 0.00000000
0.00000000 8.86350000 0.00000000
0.00000000 0.00000000 26.64760000

ATOMIC_POSITIONS {angstrom}
Li 1.56686000 0.00000000 -1.1080072100000002 0 0 0
Li 1.56686000 4.43175000 -1.1080072100000002 0 0 0
Li 4.70058000 2.21587500 -3.32375515 0 0 0
Li 4.70058000 6.64762500 -3.32375515 0 0 0
Li 1.73639425 4.55938440 4.50690859
Li 1.73639425 8.73586560 4.50690859
Li 4.64893629 6.64762500 1.08668913
Li 4.64097665 2.21587500 1.31479258
Nb 0.00000000 2.21587500 -1.1080072100000002 0 0 0
Nb 0.00000000 6.64762500 -1.1080072100000002 0 0 0
Nb 3.13372000 4.43175000 -3.32375515 0 0 0
Nb 3.13372000 0.00000000 -3.32375515 0 0 0
Nb 0.04945010 6.64762500 3.13988671
Nb 0.33010606 2.21587500 3.20464038
Nb 3.05211793 8.84657072 1.22125951
Nb 3.05211793 4.44867929 1.22125951
Al 0.00000000 0.00000000 -3.32375515 0 0 0
Al 0.00000000 4.43175000 -3.32375515 0 0 0
Al 3.13372000 6.64762500 -1.1080072100000002 0 0 0
Al 3.13372000 2.21587500 -1.1080072100000002 0 0 0
Al 0.03058511 4.42873641 1.15250870
Al 0.03058511 0.00301359 1.15250870
Al 2.92921343 2.21587500 3.60462085
Al 3.12406814 6.64762500 3.32775229
Pd 4.70058000 0.00000000 -1.1080072100000002 0 0 0
Pd 4.70058000 4.43175000 -1.1080072100000002 0 0 0
Pd 1.56686000 2.21587500 -3.32375515 0 0 0
Pd 1.56686000 6.64762500 -3.32375515 0 0 0
Pd 4.73304534 4.40179137 3.21849713
Pd 4.73304534 0.02995863 3.21849713
Pd 1.58108709 6.64762500 1.01474061
Pd 1.65247323 2.21587500 0.92387229
C 4.82549008 2.21587500 3.98301677
