&CONTROL
calculation = 'relax'
prefix = 'scf'
pseudo_dir = '/vol0403/data/hp230205/u10028/POT_HYBRID_KKJUS_GBRV'
outdir = './data'
tprnfor = .true.
nstep = 70
disk_io = 'non'
/
&SYSTEM
ibrav = 0
ecutwfc = 50.0
ecutrho = 400
occupations = 'smearing'
smearing = 'mp'
degauss = 0.01
assume_isolated = 'esm'
esm_bc = 'bc1'
input_dft = 'BEEF-VDW'
nosym = .true.
nspin = 1
ntyp = 6
nat = 18
/
&ELECTRONS
electron_maxstep = 200
mixing_beta = 0.1
conv_thr = 1e-06
/
&IONS
ion_dynamics = 'bfgs'
upscale = 1.0
/
&CELL
/

K_POINTS {automatic}
11 7 2 0  0  0

ATOMIC_SPECIES
C 12.01 C.pbe-n-rrkjus_psl.1.0.0.UPF
Ge 72.64 Ge.pbe-dn-rrkjus_psl.1.0.0.UPF
In 114.8 In.pbe-dn-rrkjus_psl.1.0.0.UPF
O 15.99 O.pbe-n-rrkjus_psl.1.0.0.UPF
Pd 106.4 Pd.pbe-n-rrkjus_psl.1.0.0.UPF
Y 88.90 Y.pbe-spn-rrkjus_psl.1.0.0.UPF


CELL_PARAMETERS {angstrom}
5.95203000 0.00000000 0.00000000
-0.00000000 9.45024000 0.00000000
0.00000000 0.00000000 24.43650000

ATOMIC_POSITIONS {angstrom}
Y 3.02833334 0.00009450 2.28114727
Y 5.62187090 0.00000000 -0.7394484899999973 0 0 0
Y 3.04029692 4.72474199 2.18046890
Y 5.62187090 4.72512000 -0.7394484899999973 0 0 0
In 1.32760029 2.37427830 0.85943170
In 3.96881360 2.36256000 -2.218345469999999 0 0 0
In 1.33301664 7.07539469 0.85454440
In 3.96881360 7.08768000 -2.218345469999999 0 0 0
Ge 0.02333196 9.44608189 2.23765030
Ge 2.64585590 0.00000000 -0.7394484899999973 0 0 0
Ge 0.01714185 4.73164067 2.24669181
Ge 2.64585590 4.72512000 -0.7394484899999973 0 0 0
Pd 4.32575684 2.34498255 0.96157627
Pd 0.99279860 2.36256000 -2.218345469999999 0 0 0
Pd 4.33081607 7.10487944 0.96426429
Pd 0.99279860 7.08768000 -2.218345469999999 0 0 0
C 4.17951547 0.00236256 4.51488774
O 4.71269831 0.00189005 5.53511161
