&CONTROL
calculation = 'relax'
prefix = 'scf'
pseudo_dir = '/vol0004/mdt0/data/hp150275/u10028/POT_KKJUS'
outdir = './data'
tprnfor = .true.
nstep = 50
disk_io = 'non'
/
&SYSTEM
ibrav = 0
ecutwfc = 50.0
ecutrho = 400
occupations = 'smearing'
smearing = 'mp'
degauss = 0.01
assume_isolated = 'esm'
esm_bc = 'bc1'
input_dft = 'BEEF-VDW'
nosym = .true.
nspin = 1
ntyp = 3
nat = 16
/
&ELECTRONS
electron_maxstep = 200
mixing_beta = 0.1
conv_thr = 1e-06
/
&IONS
ion_dynamics = 'bfgs'
upscale = 1.0
/
&CELL
/

K_POINTS {automatic}
8 8 1 0 0 0

ATOMIC_SPECIES
Ge 72.64 Ge.pbe-dn-rrkjus_psl.1.0.0.UPF
Li 6.941 Li.pbe-sl-rrkjus_psl.1.0.0.UPF
Zn 65.40 Zn.pbe-dnl-rrkjus_psl.1.0.0.UPF

CELL_PARAMETERS {angstrom}
6.18893000 0.00000000 0.00000000
0.00000000 6.18893000 0.00000000
0.00000000 0.00000000 24.64170000

ATOMIC_POSITIONS {angstrom}
Li 0.00000000 0.00000000 -2.320755309999999 0 0 0
Li 3.09446500 3.09446500 -2.320755309999999 0 0 0
Li 3.09446500 0.00000000 0.75945719
Li 0.00000000 3.09446500 0.75945719
Li 1.55113153 1.55113153 2.66573911
Li 1.54723250 4.64169750 -0.7735029600000018 0 0 0
Li 4.63779847 4.63779847 2.66573911
Li 4.64169750 1.54723250 -0.7735029600000018 0 0 0
Zn 1.54723250 1.54723250 -0.7735029600000018 0 0 0
Zn 1.54574716 4.64318284 2.31434846
Zn 4.64169750 4.64169750 -0.7735029600000018 0 0 0
Zn 4.64318284 1.54574716 2.31434846
Ge 0.00000000 0.00000000 1.01745579
Ge 3.09446500 0.00000000 -2.320755309999999 0 0 0
Ge 0.00000000 3.09446500 -2.320755309999999 0 0 0
Ge 3.09446500 3.09446500 1.02065921
