&CONTROL
calculation = 'relax'
prefix = 'scf'
pseudo_dir = '/vol0403/data/hp230205/u10028/POT_HYBRID_KKJUS_GBRV'
outdir = './data'
tprnfor = .true.
nstep = 50
disk_io = 'non'
/
&SYSTEM
ibrav = 0
ecutwfc = 50.0
ecutrho = 400
occupations = 'smearing'
smearing = 'mp'
degauss = 0.01
assume_isolated = 'esm'
esm_bc = 'bc1'
input_dft = 'BEEF-VDW'
nosym = .true.
nspin = 1
ntyp = 6
nat = 34
/
&ELECTRONS
electron_maxstep = 200
mixing_beta = 0.1
conv_thr = 1e-06
/
&IONS
ion_dynamics = 'bfgs'
upscale = 1.0
/
&CELL
/

K_POINTS {automatic}
6 6 1 0 0 0

ATOMIC_SPECIES
C 12.01 C.pbe-n-rrkjus_psl.1.0.0.UPF
In 114.8 In.pbe-dn-rrkjus_psl.1.0.0.UPF
O 15.99 O.pbe-n-rrkjus_psl.1.0.0.UPF
Pd 106.4 Pd.pbe-n-rrkjus_psl.1.0.0.UPF
Sn 118.7 Sn.pbe-dn-rrkjus_psl.1.0.0.UPF
Y 88.90 Y.pbe-spn-rrkjus_psl.1.0.0.UPF


CELL_PARAMETERS {angstrom}
9.06394000 0.00000000 0.00000000
0.00000000 9.16402000 0.00000000
0.00000000 0.00000000 26.55030000

ATOMIC_POSITIONS {angstrom}
Y 2.26598500 2.29100500 3.33471768
Y 2.26598500 2.29100500 -1.0917483399999988 0 0 0
Y 2.26598500 6.87301500 3.30843288
Y 2.26598500 6.87301500 -1.0917483399999988 0 0 0
Y 6.79795500 2.29100500 3.29462673
Y 6.79795500 2.29100500 -1.0917483399999988 0 0 0
Y 6.79795500 6.87301500 3.29356472
Y 6.79795500 6.87301500 -1.0917483399999988 0 0 0
In 0.00852010 0.00366561 3.35117887
In 0.00000000 0.00000000 -1.0917483399999988 0 0 0
In 0.00852010 4.57834439 3.35117887
In 0.00000000 4.58201000 -1.0917483399999988 0 0 0
In 4.52344990 0.00366561 3.35117887
In 4.53197000 0.00000000 -1.0917483399999988 0 0 0
In 4.52344990 4.57834439 3.35117887
In 4.53197000 4.58201000 -1.0917483399999988 0 0 0
Sn 0.00951714 2.29100500 1.17060273
Sn 0.00000000 2.29100500 -3.275245009999999 0 0 0
Sn 0.00489453 6.87301500 1.17166474
Sn 0.00000000 6.87301500 -3.275245009999999 0 0 0
Sn 4.52245286 2.29100500 1.17060273
Sn 4.53197000 2.29100500 -3.275245009999999 0 0 0
Sn 4.52707547 6.87301500 1.17166474
Sn 4.53197000 6.87301500 -3.275245009999999 0 0 0
Pd 2.26598500 9.14770804 1.24069552
Pd 2.26598500 0.00000000 -3.275245009999999 0 0 0
Pd 2.26598500 4.59832196 1.24069552
Pd 2.26598500 4.58201000 -3.275245009999999 0 0 0
Pd 6.79795500 9.15751355 1.27600742
Pd 6.79795500 0.00000000 -3.275245009999999 0 0 0
Pd 6.79795500 4.58851645 1.27600742
Pd 6.79795500 4.58201000 -3.275245009999999 0 0 0
C 2.26598500 2.29100500 5.82062227
O 2.26598500 2.29100500 6.96971925
