&CONTROL
calculation = 'relax'
prefix = 'scf'
pseudo_dir = '/vol0004/mdt0/data/hp150275/u10028/POT_HYBRID_KKJUS_GBRV'
outdir = './data'
tprnfor = .true.
nstep = 50
disk_io = 'non'
/
&SYSTEM
ibrav = 0
ecutwfc = 50.0
ecutrho = 400
occupations = 'smearing'
smearing = 'mp'
degauss = 0.01
assume_isolated = 'esm'
esm_bc = 'bc1'
input_dft = 'BEEF-VDW'
nosym = .true.
nspin = 2
ntyp = 5
nat = 34
starting_magnetization(1) = 0.0
starting_magnetization(2) = 0.0
starting_magnetization(3) = 0.001
starting_magnetization(4) = 0.0
starting_magnetization(5) = 0.0
/
&ELECTRONS
electron_maxstep = 200
mixing_beta = 0.1
conv_thr = 1e-06
/
&IONS
ion_dynamics = 'bfgs'
upscale = 1.0
/
&CELL
/

K_POINTS {automatic}
9 6 2 0  0  0

ATOMIC_SPECIES
C 12.01 C.pbe-n-rrkjus_psl.1.0.0.UPF
Mg 24.30 Mg.pbe-spnl-rrkjus_psl.1.0.0.UPF
Ni 58.69 ni_pbe_v1.4.uspp.F.UPF
O 15.99 O.pbe-n-rrkjus_psl.1.0.0.UPF
Sn 118.7 Sn.pbe-dn-rrkjus_psl.1.0.0.UPF

CELL_PARAMETERS {angstrom}
6.21377000 0.00000000 0.00000000
0.00000000 8.78760000 0.00000000
0.00000000 0.00000000 26.59070000

ATOMIC_POSITIONS {angstrom}
Mg 0.00000000 0.00000000 23.29531455
Mg 3.10688500 2.19690000 25.49223818
Mg 3.10688500 6.59070000 25.49223818
Mg 0.00000000 4.39380000 23.29531455
Mg 6.18350894 4.39397575 1.01124432
Mg 3.07681035 6.51899318 3.44030477
Mg 3.07656180 2.26860682 3.44030477
Mg 0.03715834 8.78742425 1.06495754
Ni 1.55344250 0.00000000 25.49223818
Ni 4.66032750 4.39380000 25.49223818
Ni 4.66032750 0.00000000 25.49223818
Ni 1.55344250 4.39380000 25.49223818
Ni 4.66032750 6.59070000 23.29531455
Ni 1.55344250 2.19690000 23.29531455
Ni 1.55344250 6.59070000 23.29531455
Ni 4.66032750 2.19690000 23.29531455
Ni 1.37038484 4.39371212 3.10020971
Ni 4.79342645 0.00008788 3.07255538
Ni 4.74850090 4.39371212 3.09808246
Ni 1.53511188 0.00000000 3.43684798
Ni 4.62770521 2.17827029 1.15722726
Ni 1.53902655 6.59667557 1.19126336
Ni 1.53852945 2.19092443 1.19099745
Ni 4.62745666 6.60932971 1.15749317
Sn 0.00000000 6.59070000 25.49223818
Sn 3.10688500 0.00000000 23.29531455
Sn 0.00000000 2.19690000 25.49223818
Sn 3.10688500 4.39380000 23.29531455
Sn 6.15455277 2.21412370 3.42966849
Sn 3.08128427 4.39380000 1.10962991
Sn 6.15473919 6.57365206 3.42966849
Sn 3.08159496 0.00008788 1.12452070
C 2.20340284 0.00017575 5.06552835
O 2.50943101 0.00017575 6.18925133
