&CONTROL
calculation = 'relax'
prefix = 'scf'
pseudo_dir = '/vol0403/data/hp230205/u10028/POT_HYBRID_KKJUS_GBRV'
outdir = './data'
tprnfor = .true.
nstep = 50
disk_io = 'non'
/
&SYSTEM
ibrav = 0
ecutwfc = 50.0
ecutrho = 400
occupations = 'smearing'
smearing = 'mp'
degauss = 0.01
assume_isolated = 'esm'
esm_bc = 'bc1'
input_dft = 'BEEF-VDW'
nosym = .true.
nspin = 1
ntyp = 6
nat = 18
/
&ELECTRONS
electron_maxstep = 200
mixing_beta = 0.1
conv_thr = 1e-06
/
&IONS
ion_dynamics = 'bfgs'
upscale = 1.0
/
&CELL
/

K_POINTS {automatic}
6 6 1 0 0 0

ATOMIC_SPECIES
C 12.01 C.pbe-n-rrkjus_psl.1.0.0.UPF
Ga 69.72 Ga.pbe-dnl-rrkjus_psl.1.0.0.UPF
In 114.8 In.pbe-dn-rrkjus_psl.1.0.0.UPF
Li 6.941 Li.pbe-sl-rrkjus_psl.1.0.0.UPF
O 15.99 O.pbe-n-rrkjus_psl.1.0.0.UPF
Sc 44.95 Sc.pbe-spn-rrkjus_psl.1.0.0.UPF


CELL_PARAMETERS {angstrom}
5.87074000 0.00000000 0.00000000
0.00000000 8.86716000 0.00000000
0.00000000 0.00000000 24.40240000

ATOMIC_POSITIONS {angstrom}
Li 4.37792823 2.21679000 -0.7337801699999993 0 0 0
Li 1.92930129 2.21679000 2.43267526
Li 4.37792823 6.65037000 -0.7337801699999993 0 0 0
Li 2.00432934 6.65001531 2.27015527
Sc 2.93537000 0.00000000 -2.2010964800000004 0 0 0
Sc 0.18897912 8.86299243 0.80869554
Sc 2.93537000 4.43358000 -2.2010964800000004 0 0 0
Sc 0.19009456 4.43845694 0.80869554
In 1.44255823 2.21679000 -0.7337801699999993 0 0 0
In 4.84928995 2.21661266 2.33506566
In 1.44255823 6.65037000 -0.7337801699999993 0 0 0
In 4.89719519 6.64974930 2.38948301
Ga 0.00000000 0.00000000 -2.2010964800000004 0 0 0
Ga 3.16233281 0.01693628 0.85042364
Ga 0.00000000 4.43358000 -2.2010964800000004 0 0 0
Ga 3.16274376 4.41664372 0.84944754
C 1.92982965 2.21741070 4.53347787
O 1.83930284 2.21794273 5.67233788
