&CONTROL
calculation = 'relax'
prefix = 'scf'
pseudo_dir = '/vol0403/data/hp230205/u10028/POT_HYBRID_KKJUS_GBRV'
outdir = './data'
tprnfor = .true.
nstep = 50
disk_io = 'non'
/
&SYSTEM
ibrav = 0
ecutwfc = 50.0
ecutrho = 400
occupations = 'smearing'
smearing = 'mp'
degauss = 0.01
assume_isolated = 'esm'
esm_bc = 'bc1'
input_dft = 'BEEF-VDW'
nosym = .true.
nspin = 1
ntyp = 5
nat = 17
/
&ELECTRONS
electron_maxstep = 200
mixing_beta = 0.1
conv_thr = 1e-06
/
&IONS
ion_dynamics = 'bfgs'
upscale = 1.0
/
&CELL
/

K_POINTS {automatic}
11 8 2 0  0  0

ATOMIC_SPECIES
Al 26.98 Al.pbe-nl-rrkjus_psl.1.0.0.UPF
C 12.01 C.pbe-n-rrkjus_psl.1.0.0.UPF
In 114.8 In.pbe-dn-rrkjus_psl.1.0.0.UPF
Pd 106.4 Pd.pbe-n-rrkjus_psl.1.0.0.UPF
Sc 44.95 Sc.pbe-spn-rrkjus_psl.1.0.0.UPF


CELL_PARAMETERS {angstrom}
5.97945000 0.00000000 0.00000000
0.00000000 8.33700000 0.00000000
0.00000000 0.00000000 24.48170000

ATOMIC_POSITIONS {angstrom}
Sc 2.99660137 0.36691137 2.35097765
Sc 5.87164052 0.00000000 -0.7469366700000002 0 0 0
Sc 2.99666116 3.80175537 2.35073283
Sc 5.87164052 4.16850000 -0.7469366700000002 0 0 0
Al 0.08729997 0.70622727 2.52700107
Al 2.88191552 0.00000000 -0.7469366700000002 0 0 0
Al 0.08729997 3.46235610 2.52700107
Al 2.88191552 4.16850000 -0.7469366700000002 0 0 0
In 1.55447762 2.08425000 0.45315627
In 4.32284338 2.08425000 -2.2408099999999997 0 0 0
In 1.04951306 6.25275000 1.56389100
In 4.32284338 6.25275000 -2.2408099999999997 0 0 0
Pd 4.60537239 2.08425000 0.79614488
Pd 1.33311838 2.08425000 -2.2408099999999997 0 0 0
Pd 3.96305987 6.25275000 0.67055376
Pd 1.33311838 6.25275000 -2.2408099999999997 0 0 0
C 1.64010334 2.08425000 2.82200556
