&CONTROL
calculation = 'relax'
prefix = 'scf'
pseudo_dir = '/vol0004/mdt0/data/hp150275/u10028/POT_KKJUS'
outdir = './data'
tprnfor = .true.
nstep = 50
disk_io = 'non'
/
&SYSTEM
ibrav = 0
ecutwfc = 50.0
ecutrho = 400
occupations = 'smearing'
smearing = 'mp'
degauss = 0.01
assume_isolated = 'esm'
esm_bc = 'bc1'
input_dft = 'BEEF-VDW'
nosym = .true.
nspin = 1
ntyp = 4
nat = 18
/
&ELECTRONS
electron_maxstep = 200
mixing_beta = 0.1
conv_thr = 1e-06
/
&IONS
ion_dynamics = 'bfgs'
upscale = 1.0
/
&CELL
/

K_POINTS {automatic}
10 10 2 0  0  0

ATOMIC_SPECIES
C 12.01 C.pbe-n-rrkjus_psl.1.0.0.UPF
Ga 69.72 Ga.pbe-dnl-rrkjus_psl.1.0.0.UPF
O 15.99 O.pbe-n-rrkjus_psl.1.0.0.UPF
Rh 102.9 Rh.pbe-spn-rrkjus_psl.1.0.0.UPF

CELL_PARAMETERS {angstrom}
6.09666000 0.00000000 0.00000000
0.00000000 6.09666000 0.00000000
0.00000000 0.00000000 24.57250000

ATOMIC_POSITIONS {angstrom}
Ga 1.52416500 1.52416500 -0.9086910500000016 0 0 0
Ga 1.52233600 1.48959694 2.32996445
Ga 1.52416500 4.57249500 -0.9086910500000016 0 0 0
Ga 1.52300663 4.63059617 2.32922728
Ga 4.57249500 1.52416500 -0.9086910500000016 0 0 0
Ga 4.57036117 1.48368318 2.03706025
Ga 4.57249500 4.57249500 -0.9086910500000016 0 0 0
Ga 4.57054407 4.62858427 2.04394055
Rh 0.00000000 0.00000000 -2.4326775000000005 0 0 0
Rh 0.03322680 0.00707213 0.63888500
Rh 0.00000000 3.04833000 -2.4326775000000005 0 0 0
Rh 0.04596882 3.05723112 0.82195013
Rh 3.04833000 0.00000000 -2.4326775000000005 0 0 0
Rh 3.01071361 0.00719406 0.64453668
Rh 3.04833000 3.04833000 -2.4326775000000005 0 0 0
Rh 2.99205783 3.05741402 0.83595645
C 1.46795379 0.01420522 3.93307435
O 1.37601616 0.01164462 5.10862275
