&CONTROL
calculation = 'relax'
prefix = 'scf'
pseudo_dir = '/vol0004/mdt0/data/hp150275/u10028/POT_HYBRID_KKJUS_GBRV'
outdir = './data'
tprnfor = .true.
nstep = 50
disk_io = 'non'
/
&SYSTEM
ibrav = 0
ecutwfc = 50.0
ecutrho = 400
occupations = 'smearing'
smearing = 'mp'
degauss = 0.01
assume_isolated = 'esm'
esm_bc = 'bc1'
input_dft = 'BEEF-VDW'
nosym = .true.
nspin = 2
ntyp = 5
nat = 34
starting_magnetization(1) = 0.0
starting_magnetization(2) = 0.0
starting_magnetization(3) = 0.001
starting_magnetization(4) = 0.0
starting_magnetization(5) = 0.0
/
&ELECTRONS
electron_maxstep = 200
mixing_beta = 0.1
conv_thr = 1e-06
/
&IONS
ion_dynamics = 'bfgs'
upscale = 1.0
/
&CELL
/

K_POINTS {automatic}
9 6 2 0  0  0

ATOMIC_SPECIES
C 12.01 C.pbe-n-rrkjus_psl.1.0.0.UPF
Li 6.941 Li.pbe-sl-rrkjus_psl.1.0.0.UPF
Ni 58.69 ni_pbe_v1.4.uspp.F.UPF
O 15.99 O.pbe-n-rrkjus_psl.1.0.0.UPF
Si 28.08 Si.pbe-nl-rrkjus_psl.1.0.0.UPF

CELL_PARAMETERS {angstrom}
5.56332000 0.00000000 0.00000000
0.00000000 7.86772000 0.00000000
0.00000000 0.00000000 25.90080000

ATOMIC_POSITIONS {angstrom}
Li 0.00000000 0.00000000 22.95043987
Li 2.78166000 1.96693000 24.91734662
Li 2.78166000 5.90079000 24.91734662
Li 0.00000000 3.93386000 22.95043987
Li 0.01290690 3.93393868 0.84643814
Li 2.78861415 5.75366364 3.45827482
Li 2.78866978 2.11421372 3.45775680
Li 0.00155773 7.86764132 0.97594214
Si 0.00000000 5.90079000 24.91734662
Si 2.78166000 0.00000000 22.95043987
Si 0.00000000 1.96693000 24.91734662
Si 2.78166000 3.93386000 22.95043987
Si 0.00945764 1.95622990 2.89027027
Si 2.77019956 3.93401735 1.01064922
Si 0.00951328 5.91164745 2.89027027
Si 2.81570752 7.86756265 0.94123507
Ni 1.39083000 0.00000000 24.91734662
Ni 4.17249000 3.93386000 24.91734662
Ni 4.17249000 0.00000000 24.91734662
Ni 1.39083000 3.93386000 24.91734662
Ni 4.17249000 5.90079000 22.95043987
Ni 1.39083000 1.96693000 22.95043987
Ni 1.39083000 5.90079000 22.95043987
Ni 4.17249000 1.96693000 22.95043987
Ni 1.25352726 3.93393868 2.76076627
Ni 4.24130827 0.00007868 2.86566451
Ni 4.31774829 3.93386000 2.75817619
Ni 1.41981490 0.00007868 2.99180141
Ni 4.13916571 1.95780344 0.98500742
Ni 1.43222110 5.93729622 0.99692179
Ni 1.43233237 1.93034510 0.99666278
Ni 4.13922135 5.90991656 0.98526643
C 2.56068493 0.00015735 4.40443104
O 2.91317688 0.00015735 5.52438163
