&CONTROL
calculation = 'relax'
prefix = 'scf'
pseudo_dir = '/vol0004/mdt0/data/hp150275/u10028/POT_KKJUS'
outdir = './data'
tprnfor = .true.
nstep = 50
disk_io = 'non'
/
&SYSTEM
ibrav = 0
ecutwfc = 50.0
ecutrho = 400
occupations = 'smearing'
smearing = 'mp'
degauss = 0.01
assume_isolated = 'esm'
esm_bc = 'bc1'
input_dft = 'BEEF-VDW'
nosym = .true.
nspin = 1
ntyp = 3
nat = 32
/
&ELECTRONS
electron_maxstep = 200
mixing_beta = 0.1
conv_thr = 1e-06
/
&IONS
ion_dynamics = 'bfgs'
upscale = 1.0
/
&CELL
/

K_POINTS {automatic}
8 6 1 0 0 0

ATOMIC_SPECIES
Al 26.98 Al.pbe-nl-rrkjus_psl.1.0.0.UPF
Li 6.941 Li.pbe-sl-rrkjus_psl.1.0.0.UPF
Pt 195.0 Pt.pbe-n-rrkjus_psl.1.0.0.UPF

CELL_PARAMETERS {angstrom}
6.07419000 0.00000000 0.00000000
0.00000000 8.59020000 0.00000000
0.00000000 0.00000000 26.44270000

ATOMIC_POSITIONS {angstrom}
Li 0.00000000 6.44265000 -1.073838049999999 0 0 0
Li 3.03709500 0.00000000 -3.2212497099999986 0 0 0
Li 0.00000000 2.14755000 -1.073838049999999 0 0 0
Li 3.03709500 4.29510000 -3.2212497099999986 0 0 0
Li 1.51854750 0.00000000 -1.073838049999999 0 0 0
Li 1.51854750 4.29510000 -1.073838049999999 0 0 0
Li 4.55564250 6.44265000 -3.2212497099999986 0 0 0
Li 4.55564250 2.14755000 -3.2212497099999986 0 0 0
Li 5.96619090 2.14755000 3.41269486
Li 3.02433920 4.29510000 0.99265896
Li 5.96619090 6.44265000 3.41269486
Li 3.02433920 0.00000000 0.99265896
Li 1.54661026 4.29510000 3.31670786
Li 1.54661026 0.00000000 3.31670786
Li 4.62312675 2.14755000 1.01857280
Li 4.62312675 6.44265000 1.01857280
Al 0.00000000 0.00000000 -3.2212497099999986 0 0 0
Al 3.03709500 2.14755000 -1.073838049999999 0 0 0
Al 3.03709500 6.44265000 -1.073838049999999 0 0 0
Al 0.00000000 4.29510000 -3.2212497099999986 0 0 0
Al 0.02095596 4.29510000 1.07383805
Al 3.15056087 6.44265000 3.14271489
Al 3.15056087 2.14755000 3.14271489
Al 0.02101670 0.00000000 1.07383805
Pt 1.51854750 2.14755000 -3.2212497099999986 0 0 0
Pt 1.51854750 6.44265000 -3.2212497099999986 0 0 0
Pt 4.55564250 4.29510000 -1.073838049999999 0 0 0
Pt 4.55564250 0.00000000 -1.073838049999999 0 0 0
Pt 1.50700654 6.44265000 1.13306969
Pt 1.50700654 2.14755000 1.13306969
Pt 4.46623042 0.00000000 3.01526108
Pt 4.46623042 4.29510000 3.01526108
