&CONTROL
calculation = 'relax'
prefix = 'scf'
pseudo_dir = '/vol0403/data/hp230205/u10028/POT_HYBRID_KKJUS_GBRV'
outdir = './data'
tprnfor = .true.
nstep = 50
disk_io = 'non'
/
&SYSTEM
ibrav = 0
ecutwfc = 50.0
ecutrho = 400
occupations = 'smearing'
smearing = 'mp'
degauss = 0.01
assume_isolated = 'esm'
esm_bc = 'bc1'
input_dft = 'BEEF-VDW'
nosym = .true.
nspin = 1
ntyp = 5
nat = 33
/
&ELECTRONS
electron_maxstep = 200
mixing_beta = 0.1
conv_thr = 1e-06
/
&IONS
ion_dynamics = 'bfgs'
upscale = 1.0
/
&CELL
/

K_POINTS {automatic}
6 6 1 0 0 0

ATOMIC_SPECIES
Ag 107.8 Ag.pbe-n-rrkjus_psl.1.0.0.UPF
C 12.01 C.pbe-n-rrkjus_psl.1.0.0.UPF
Ge 72.64 Ge.pbe-dn-rrkjus_psl.1.0.0.UPF
Li 6.941 Li.pbe-sl-rrkjus_psl.1.0.0.UPF
Mg 24.30 Mg.pbe-spnl-rrkjus_psl.1.0.0.UPF


CELL_PARAMETERS {angstrom}
6.50572000 0.00000000 0.00000000
0.00000000 9.20048000 0.00000000
0.00000000 0.00000000 26.90040000

ATOMIC_POSITIONS {angstrom}
Li 4.87929000 0.00000000 -1.1499921000000022 0 0 0
Li 4.87929000 4.60024000 -1.1499921000000022 0 0 0
Li 1.62643000 2.30012000 -3.4502453000000024 0 0 0
Li 1.62643000 6.90036000 -3.4502453000000024 0 0 0
Li 4.90791517 4.60014800 3.60572962
Li 4.97323260 0.00009200 3.88845282
Li 1.63729455 6.97930012 1.28933617
Li 1.63716444 2.22127189 1.28960518
Mg 1.62643000 0.00000000 -1.1499921000000022 0 0 0
Mg 1.62643000 4.60024000 -1.1499921000000022 0 0 0
Mg 4.87929000 2.30012000 -3.4502453000000024 0 0 0
Mg 4.87929000 6.90036000 -3.4502453000000024 0 0 0
Mg 1.51043301 4.60033200 3.86101441
Mg 1.24643089 9.20038800 3.88656979
Mg 4.93706079 6.72591890 1.21401505
Mg 4.93706079 2.47465311 1.21401505
Ag 0.00000000 0.00000000 -3.4502453000000024 0 0 0
Ag 0.00000000 4.60024000 -3.4502453000000024 0 0 0
Ag 3.25286000 6.90036000 -1.1499921000000022 0 0 0
Ag 3.25286000 2.30012000 -1.1499921000000022 0 0 0
Ag 0.25118585 4.60033200 1.34017793
Ag 6.39726965 0.00000000 1.27803800
Ag 3.27198682 2.29432370 3.55865392
Ag 3.27231210 6.90615630 3.55865392
Ge 0.00000000 2.30012000 -1.1499921000000022 0 0 0
Ge 0.00000000 6.90036000 -1.1499921000000022 0 0 0
Ge 3.25286000 4.60024000 -3.4502453000000024 0 0 0
Ge 3.25286000 0.00000000 -3.4502453000000024 0 0 0
Ge 6.37788260 6.84497311 3.66195145
Ge 6.37807777 2.35550689 3.66195145
Ge 3.43358890 0.00009200 1.07870604
Ge 3.12398169 4.60024000 1.41792008
C 3.13458601 0.00000000 2.94290376
