&CONTROL
calculation = 'relax'
prefix = 'scf'
pseudo_dir = '/vol0403/data/hp230205/u10028/POT_HYBRID_KKJUS_GBRV'
outdir = './data'
tprnfor = .true.
nstep = 50
disk_io = 'non'
/
&SYSTEM
ibrav = 0
ecutwfc = 50.0
ecutrho = 400
occupations = 'smearing'
smearing = 'mp'
degauss = 0.01
assume_isolated = 'esm'
esm_bc = 'bc1'
input_dft = 'BEEF-VDW'
nosym = .true.
nspin = 1
ntyp = 5
nat = 33
/
&ELECTRONS
electron_maxstep = 200
mixing_beta = 0.1
conv_thr = 1e-06
/
&IONS
ion_dynamics = 'bfgs'
upscale = 1.0
/
&CELL
/

K_POINTS {automatic}
6 6 1 0 0 0

ATOMIC_SPECIES
C 12.01 C.pbe-n-rrkjus_psl.1.0.0.UPF
Ga 69.72 Ga.pbe-dnl-rrkjus_psl.1.0.0.UPF
Ge 72.64 Ge.pbe-dn-rrkjus_psl.1.0.0.UPF
Li 6.941 Li.pbe-sl-rrkjus_psl.1.0.0.UPF
Sc 44.95 Sc.pbe-spn-rrkjus_psl.1.0.0.UPF


CELL_PARAMETERS {angstrom}
8.07712000 0.00000000 0.00000000
0.00000000 8.37322000 0.00000000
0.00000000 0.00000000 25.96890000

ATOMIC_POSITIONS {angstrom}
Li 2.01928000 0.00000000 0.99486856
Li 2.01928000 0.00000000 -2.9843459900000013 0 0 0
Li 2.01928000 4.18661000 0.99486856
Li 2.01928000 4.18661000 -2.9843459900000013 0 0 0
Li 6.05784000 0.00000000 0.99486856
Li 6.05784000 0.00000000 -2.9843459900000013 0 0 0
Li 6.05784000 4.18661000 0.99486856
Li 6.05784000 4.18661000 -2.9843459900000013 0 0 0
Sc 0.00000000 2.09330500 0.99486856
Sc 0.00000000 2.09330500 -2.9843459900000013 0 0 0
Sc 0.00000000 6.27991500 0.99486856
Sc 0.00000000 6.27991500 -2.9843459900000013 0 0 0
Sc 4.03856000 2.09330500 0.99486856
Sc 4.03856000 2.09330500 -2.9843459900000013 0 0 0
Sc 4.03856000 6.27991500 0.99486856
Sc 4.03856000 6.27991500 -2.9843459900000013 0 0 0
Ga 0.00000000 0.00000000 2.98434599
Ga 0.00000000 0.00000000 -0.9948685600000005 0 0 0
Ga 0.00000000 4.18661000 2.98434599
Ga 0.00000000 4.18661000 -0.9948685600000005 0 0 0
Ga 4.03856000 0.00000000 2.98434599
Ga 4.03856000 0.00000000 -0.9948685600000005 0 0 0
Ga 4.03856000 4.18661000 2.98434599
Ga 4.03856000 4.18661000 -0.9948685600000005 0 0 0
Ge 2.01928000 2.09330500 2.98434599
Ge 2.01928000 2.09330500 -0.9948685600000005 0 0 0
Ge 2.01928000 6.27991500 2.98434599
Ge 2.01928000 6.27991500 -0.9948685600000005 0 0 0
Ge 6.05784000 2.09330500 2.98434599
Ge 6.05784000 2.09330500 -0.9948685600000005 0 0 0
Ge 6.05784000 6.27991500 2.98434599
Ge 6.05784000 6.27991500 -0.9948685600000005 0 0 0
C 2.01928000 0.00000000 3.78444780
