&CONTROL
calculation = 'relax'
prefix = 'scf'
pseudo_dir = '/vol0004/mdt0/data/hp150275/u10028/POT_KKJUS'
outdir = './data'
tprnfor = .true.
nstep = 50
disk_io = 'non'
/
&SYSTEM
ibrav = 0
ecutwfc = 50.0
ecutrho = 400
occupations = 'smearing'
smearing = 'mp'
degauss = 0.01
assume_isolated = 'esm'
esm_bc = 'bc1'
input_dft = 'BEEF-VDW'
nosym = .true.
nspin = 1
ntyp = 4
nat = 18
/
&ELECTRONS
electron_maxstep = 200
mixing_beta = 0.1
conv_thr = 1e-06
/
&IONS
ion_dynamics = 'bfgs'
upscale = 1.0
/
&CELL
/

K_POINTS {automatic}
8 11 2 0  0  0

ATOMIC_SPECIES
Au 196.9 Au.pbe-n-rrkjus_psl.1.0.0.UPF
C 12.01 C.pbe-n-rrkjus_psl.1.0.0.UPF
O 15.99 O.pbe-n-rrkjus_psl.1.0.0.UPF
V 50.94 V.pbe-spnl-rrkjus_psl.1.0.0.UPF

CELL_PARAMETERS {angstrom}
7.78093000 0.00000000 0.00000000
0.00000000 5.50195000 0.00000000
0.00000000 0.00000000 24.12650000

ATOMIC_POSITIONS {angstrom}
V 7.78077438 2.75108504 1.86473718
V 1.94266479 4.13168935 0.61426069
V 1.94266479 1.37064578 0.61474322
V 0.00000000 0.00000000 -0.6878465200000008 0 0 0
V 1.94523250 1.37548750 -2.0632982800000015 0 0 0
V 1.94523250 4.12646250 -2.0632982800000015 0 0 0
V 3.89093186 2.75108504 1.81986189
V 5.83826521 4.13146927 0.61474322
V 5.83826521 1.37064578 0.61522575
V 3.89046500 0.00000000 -0.6878465200000008 0 0 0
V 5.83569750 1.37548750 -2.0632982800000015 0 0 0
V 5.83569750 4.12646250 -2.0632982800000015 0 0 0
Au 0.00007781 0.00005502 2.10238321
Au 0.00000000 2.75097500 -0.6878465200000008 0 0 0
Au 3.89046500 0.00011004 2.08163442
Au 3.89046500 2.75097500 -0.6878465200000008 0 0 0
C 7.78085219 2.75108504 3.90945806
O 0.00000000 2.75103002 5.06342855
