&CONTROL
calculation = 'relax'
prefix = 'scf'
pseudo_dir = '/vol0004/mdt0/data/hp150275/u10028/POT_KKJUS'
outdir = './data'
tprnfor = .true.
nstep = 50
disk_io = 'non'
/
&SYSTEM
ibrav = 0
ecutwfc = 50.0
ecutrho = 400
occupations = 'smearing'
smearing = 'mp'
degauss = 0.01
assume_isolated = 'esm'
esm_bc = 'bc1'
input_dft = 'BEEF-VDW'
nosym = .true.
nspin = 1
ntyp = 4
nat = 18
/
&ELECTRONS
electron_maxstep = 200
mixing_beta = 0.1
conv_thr = 1e-06
/
&IONS
ion_dynamics = 'bfgs'
upscale = 1.0
/
&CELL
/

K_POINTS {automatic}
8 8 1 0 0 0

ATOMIC_SPECIES
C 12.01 C.pbe-n-rrkjus_psl.1.0.0.UPF
O 15.99 O.pbe-n-rrkjus_psl.1.0.0.UPF
Pt 195.0 Pt.pbe-n-rrkjus_psl.1.0.0.UPF
Sc 44.95 Sc.pbe-spn-rrkjus_psl.1.0.0.UPF

CELL_PARAMETERS {angstrom}
6.65024000 0.00000000 0.00000000
-0.00000000 6.65024000 0.00000000
0.00000000 0.00000000 24.98770000

ATOMIC_POSITIONS {angstrom}
Sc 0.00000000 0.00000000 -1.9740283000000005 0 0 0
Sc 0.00000000 0.00000000 1.35108494
Sc 0.00000000 3.32512000 -1.9740283000000005 0 0 0
Sc 0.00000000 3.32512000 1.35108494
Sc 3.32512000 0.00000000 -1.9740283000000005 0 0 0
Sc 3.32512000 -0.00000000 1.35108494
Sc 3.32512000 3.32512000 -1.9740283000000005 0 0 0
Sc 3.32512000 3.32512000 1.35108494
Pt 1.66256000 1.66256000 -0.3113467400000012 0 0 0
Pt 1.66256000 1.66256000 3.01376650
Pt 1.66256000 4.98768000 -0.3113467400000012 0 0 0
Pt 1.66256000 4.98768000 3.01376650
Pt 4.98768000 1.66256000 -0.3113467400000012 0 0 0
Pt 4.98768000 1.66256000 3.01376650
Pt 4.98768000 4.98768000 -0.3113467400000012 0 0 0
Pt 4.98768000 4.98768000 3.01376650
C 1.66256000 1.66256000 4.91383121
O 1.66256000 1.66256000 6.06376516
