&CONTROL
calculation = 'relax'
prefix = 'scf'
pseudo_dir = '/vol0403/data/hp230205/u10028/POT_HYBRID_KKJUS_GBRV'
outdir = './data'
tprnfor = .true.
nstep = 50
disk_io = 'non'
/
&SYSTEM
ibrav = 0
ecutwfc = 50.0
ecutrho = 400
occupations = 'smearing'
smearing = 'mp'
degauss = 0.01
assume_isolated = 'esm'
esm_bc = 'bc1'
input_dft = 'BEEF-VDW'
nosym = .true.
nspin = 1
ntyp = 4
nat = 16
/
&ELECTRONS
electron_maxstep = 200
mixing_beta = 0.1
conv_thr = 1e-06
/
&IONS
ion_dynamics = 'bfgs'
upscale = 1.0
/
&CELL
/

K_POINTS {automatic}
11 8 2 0  0  0

ATOMIC_SPECIES
Ge 72.64 Ge.pbe-dn-rrkjus_psl.1.0.0.UPF
Li 6.941 Li.pbe-sl-rrkjus_psl.1.0.0.UPF
Sn 118.7 Sn.pbe-dn-rrkjus_psl.1.0.0.UPF
Y 88.90 Y.pbe-spn-rrkjus_psl.1.0.0.UPF


CELL_PARAMETERS {angstrom}
6.38551000 0.00000000 0.00000000
0.00000000 8.52742000 0.00000000
0.00000000 0.00000000 24.76910000

ATOMIC_POSITIONS {angstrom}
Li 4.64335131 2.13185500 -0.7948404200000034 0 0 0
Li 1.21548183 2.13185500 2.25052043
Li 4.64335131 6.39556500 -0.7948404200000034 0 0 0
Li 1.21548183 6.39565027 2.25052043
Y 1.45059631 2.13185500 -0.7948404200000034 0 0 0
Y 4.34770219 2.13194027 2.21262370
Y 1.45059631 6.39556500 -0.7948404200000034 0 0 0
Y 4.34770219 6.39547973 2.21287139
Sn 3.19275500 0.00000000 -2.384521260000003 0 0 0
Sn 6.08800909 0.00000000 0.75867753
Sn 3.19275500 4.26371000 -2.384521260000003 0 0 0
Sn 6.08807294 4.26371000 0.75867753
Ge 0.00000000 0.00000000 -2.384521260000003 0 0 0
Ge 2.84870372 8.52733473 0.86518466
Ge 0.00000000 4.26371000 -2.384521260000003 0 0 0
Ge 2.84870372 4.26379527 0.86518466
