&CONTROL
calculation = 'relax'
prefix = 'scf'
pseudo_dir = '/vol0004/mdt0/data/hp150275/u10028/POT_HYBRID_KKJUS_GBRV'
outdir = './data'
tprnfor = .true.
nstep = 50
disk_io = 'non'
/
&SYSTEM
ibrav = 0
ecutwfc = 50.0
ecutrho = 400
occupations = 'smearing'
smearing = 'mp'
degauss = 0.01
assume_isolated = 'esm'
esm_bc = 'bc1'
input_dft = 'BEEF-VDW'
nosym = .true.
nspin = 2
ntyp = 3
nat = 33
starting_magnetization(1) = 0.1
starting_magnetization(2) = 0.1
starting_magnetization(3) = 0.1
/
&ELECTRONS
electron_maxstep = 200
mixing_beta = 0.1
conv_thr = 1e-06
/
&IONS
ion_dynamics = 'bfgs'
upscale = 1.0
/
&CELL
/

K_POINTS {automatic}
9 6 2 0  0  0

ATOMIC_SPECIES
C 12.01 C.pbe-n-rrkjus_psl.1.0.0.UPF
Co 58.93 co_pbe_v1.2.uspp.F.UPF
Zr 91.22 Zr.pbe-spn-rrkjus_psl.1.0.0.UPF

CELL_PARAMETERS {angstrom}
6.40088000 0.00000000 0.00000000
0.00000000 9.05221000 0.00000000
0.00000000 0.00000000 26.78920000

ATOMIC_POSITIONS {angstrom}
Zr 0.00000000 0.00000000 -3.3944595300000024 0 0 0
Zr 0.00000000 2.26305250 -1.131575810000001 0 0 0
Zr 0.00000000 0.00000000 1.26686127
Zr 0.00000000 2.30704624 3.55680208
Zr 0.00000000 4.52610500 -3.3944595300000024 0 0 0
Zr 0.00000000 6.78915750 -1.131575810000001 0 0 0
Zr 0.00000000 4.52610500 1.17229539
Zr 0.00000000 6.74516376 3.55680208
Zr 3.20044000 0.00000000 -3.3944595300000024 0 0 0
Zr 3.20044000 2.26305250 -1.131575810000001 0 0 0
Zr 3.20044000 0.00000000 1.12568218
Zr 3.20044000 2.29437315 3.50509893
Zr 3.20044000 4.52610500 -3.3944595300000024 0 0 0
Zr 3.20044000 6.78915750 -1.131575810000001 0 0 0
Zr 3.20044000 4.52610500 1.15059614
Zr 3.20044000 6.75783685 3.50509893
Co 1.60022000 2.26305250 -3.3944595300000024 0 0 0
Co 1.60022000 0.00000000 -1.131575810000001 0 0 0
Co 1.59394714 2.24838792 1.24033996
Co 1.60841313 4.52592396 3.14371262
Co 1.60022000 6.78915750 -3.3944595300000024 0 0 0
Co 1.60022000 4.52610500 -1.131575810000001 0 0 0
Co 1.59394714 6.80382208 1.24033996
Co 1.78898195 0.00009052 3.25917407
Co 4.80066000 2.26305250 -3.3944595300000024 0 0 0
Co 4.80066000 0.00000000 -1.131575810000001 0 0 0
Co 4.80693286 2.24838792 1.24033996
Co 4.79246687 4.52592396 3.14371262
Co 4.80066000 6.78915750 -3.3944595300000024 0 0 0
Co 4.80066000 4.52610500 -1.131575810000001 0 0 0
Co 4.80693286 6.80382208 1.24033996
Co 4.61189805 0.00009052 3.25917407
C 0.00000000 0.00000000 3.67896084
