&CONTROL
calculation = 'relax'
prefix = 'scf'
pseudo_dir = '/vol0004/mdt0/data/hp150275/u10028/POT_KKJUS'
outdir = './data'
tprnfor = .true.
nstep = 50
disk_io = 'non'
/
&SYSTEM
ibrav = 0
ecutwfc = 50.0
ecutrho = 400
occupations = 'smearing'
smearing = 'mp'
degauss = 0.01
assume_isolated = 'esm'
esm_bc = 'bc1'
input_dft = 'BEEF-VDW'
nosym = .true.
nspin = 1
ntyp = 5
nat = 34
/
&ELECTRONS
electron_maxstep = 200
mixing_beta = 0.1
conv_thr = 1e-06
/
&IONS
ion_dynamics = 'bfgs'
upscale = 1.0
/
&CELL
/

K_POINTS {automatic}
9 6 2 0  0  0

ATOMIC_SPECIES
C 12.01 C.pbe-n-rrkjus_psl.1.0.0.UPF
Cu 63.54 Cu.pbe-dn-rrkjus_psl.1.0.0.UPF
Hf 178.4 Hf.pbe-spn-rrkjus_psl.1.0.0.UPF
In 114.8 In.pbe-dn-rrkjus_psl.1.0.0.UPF
O 15.99 O.pbe-n-rrkjus_psl.1.0.0.UPF

CELL_PARAMETERS {angstrom}
6.35005000 0.00000000 0.00000000
0.00000000 8.98033000 0.00000000
0.00000000 0.00000000 26.73520000

ATOMIC_POSITIONS {angstrom}
Hf 0.00000000 0.00000000 -3.3675657900000004 0 0 0
Hf 3.17502500 2.24508250 -1.1226110499999997 0 0 0
Hf 3.17502500 6.73524750 -1.1226110499999997 0 0 0
Hf 0.00000000 4.49016500 -3.3675657900000004 0 0 0
Hf 0.00000000 4.49546339 1.24024593
Hf 3.17502500 6.73524750 3.37879458
Hf 3.17502500 2.24508250 3.40125214
Hf 0.00000000 8.97503161 1.24024593
In 0.00000000 6.73524750 -1.1226110499999997 0 0 0
In 3.17502500 0.00000000 -3.3675657900000004 0 0 0
In 0.00000000 2.24508250 -1.1226110499999997 0 0 0
In 3.17502500 4.49016500 -3.3675657900000004 0 0 0
In 0.00000000 2.24508250 3.72234190
In 3.17502500 4.48289093 1.13785011
In 0.00000000 6.73524750 3.74212594
In 3.17502500 0.00727407 1.13785011
Cu 1.58751250 0.00000000 -1.1226110499999997 0 0 0
Cu 4.76253750 4.49016500 -1.1226110499999997 0 0 0
Cu 4.76253750 0.00000000 -1.1226110499999997 0 0 0
Cu 1.58751250 4.49016500 -1.1226110499999997 0 0 0
Cu 4.76253750 6.73524750 -3.3675657900000004 0 0 0
Cu 1.58751250 2.24508250 -3.3675657900000004 0 0 0
Cu 1.58751250 6.73524750 -3.3675657900000004 0 0 0
Cu 4.76253750 2.24508250 -3.3675657900000004 0 0 0
Cu 1.67368268 4.49743907 3.51380734
Cu 4.67636732 8.97305593 3.51380734
Cu 4.67636732 4.49743907 3.51380734
Cu 1.67368268 8.97305593 3.51380734
Cu 4.83162604 2.24508250 1.18249790
Cu 1.54560217 6.73524750 1.20896574
Cu 1.51842396 2.24508250 1.18249790
Cu 4.80444783 6.73524750 1.20896574
C 3.17502500 2.24508250 5.60824290
O 3.17502500 2.24508250 6.76240149
