&CONTROL
calculation = 'relax'
prefix = 'scf'
pseudo_dir = '/vol0403/data/hp230205/u10028/POT_HYBRID_KKJUS_GBRV'
outdir = './data'
tprnfor = .true.
nstep = 50
disk_io = 'non'
/
&SYSTEM
ibrav = 0
ecutwfc = 50.0
ecutrho = 400
occupations = 'smearing'
smearing = 'mp'
degauss = 0.01
assume_isolated = 'esm'
esm_bc = 'bc1'
input_dft = 'BEEF-VDW'
nosym = .true.
nspin = 1
ntyp = 5
nat = 17
/
&ELECTRONS
electron_maxstep = 200
mixing_beta = 0.1
conv_thr = 1e-06
/
&IONS
ion_dynamics = 'bfgs'
upscale = 1.0
/
&CELL
/

K_POINTS {automatic}
6 6 1 0 0 0

ATOMIC_SPECIES
C 12.01 C.pbe-n-rrkjus_psl.1.0.0.UPF
Ge 72.64 Ge.pbe-dn-rrkjus_psl.1.0.0.UPF
In 114.8 In.pbe-dn-rrkjus_psl.1.0.0.UPF
Li 6.941 Li.pbe-sl-rrkjus_psl.1.0.0.UPF
Sc 44.95 Sc.pbe-spn-rrkjus_psl.1.0.0.UPF


CELL_PARAMETERS {angstrom}
8.12626000 0.00000000 0.00000000
0.00000000 6.08490000 0.00000000
0.00000000 0.00000000 24.54620000

ATOMIC_POSITIONS {angstrom}
Li 2.03156500 4.43065909 -0.7577411899999973 0 0 0
Li 1.47605387 0.91103123 2.49733039
Li 6.09469500 4.43065909 -0.7577411899999973 0 0 0
Li 6.65012487 0.91084868 2.49757585
Sc 2.03156500 1.38820909 -0.7577411899999973 0 0 0
Sc 1.68457370 4.10104005 2.26782342
Sc 6.09469500 1.38820909 -0.7577411899999973 0 0 0
Sc 6.44184883 4.10085751 2.26782342
In 0.00000000 3.04245000 -2.2729781199999977 0 0 0
In 8.12617874 5.72899420 0.48576930
In 4.06313000 3.04245000 -2.2729781199999977 0 0 0
In 4.06304874 5.73720881 0.88194497
Ge 0.00000000 0.00000000 -2.2729781199999977 0 0 0
Ge 0.00016253 2.59691362 0.73810423
Ge 4.06313000 0.00000000 -2.2729781199999977 0 0 0
Ge 4.06313000 2.63634377 1.21749152
C 0.00000000 5.32331392 2.75727465
