&CONTROL
calculation = 'relax'
prefix = 'scf'
pseudo_dir = '/vol0004/mdt0/data/hp150275/u10028/POT_HYBRID_KKJUS_GBRV'
outdir = './data'
tprnfor = .true.
nstep = 70
disk_io = 'non'
/
&SYSTEM
ibrav = 0
ecutwfc = 50.0
ecutrho = 400
occupations = 'smearing'
smearing = 'mp'
degauss = 0.01
assume_isolated = 'esm'
esm_bc = 'bc1'
input_dft = 'BEEF-VDW'
nosym = .true.
nspin = 1
ntyp = 2
nat = 32
/
&ELECTRONS
electron_maxstep = 200
mixing_beta = 0.1
conv_thr = 1e-06
/
&IONS
ion_dynamics = 'bfgs'
upscale = 1.0
/
&CELL
/

K_POINTS {automatic}
6 8 1 0 0 0

ATOMIC_SPECIES
Ca 40.07 Ca.pbe-spn-rrkjus_psl.1.0.0.UPF
Pb 207.2 Pb.pbe-dn-rrkjus_psl.1.0.0.UPF

CELL_PARAMETERS {angstrom}
10.41900000 0.00000000 0.00000000
-0.00000000 9.18716000 0.00000000
0.00000000 0.00000000 27.81430000

ATOMIC_POSITIONS {angstrom}
Ca 0.00000000 0.00000000 -3.9070747200000007 0 0 0
Ca 2.60475000 0.00000000 -1.3022655299999997 0 0 0
Ca 0.00000000 0.00000000 1.30226553
Ca 2.60475000 -0.00000000 3.90707472
Ca 0.00000000 4.59358000 -3.9070747200000007 0 0 0
Ca 2.60475000 4.59358000 -1.3022655299999997 0 0 0
Ca 0.00000000 4.59358000 1.30226553
Ca 2.60475000 4.59358000 3.90707472
Ca 5.20950000 0.00000000 -3.9070747200000007 0 0 0
Ca 7.81425000 0.00000000 -1.3022655299999997 0 0 0
Ca 5.20950000 -0.00000000 1.30226553
Ca 7.81425000 -0.00000000 3.90707472
Ca 5.20950000 4.59358000 -3.9070747200000007 0 0 0
Ca 7.81425000 4.59358000 -1.3022655299999997 0 0 0
Ca 5.20950000 4.59358000 1.30226553
Ca 7.81425000 4.59358000 3.90707472
Pb 2.60475000 2.29679000 -3.9070747200000007 0 0 0
Pb 0.00000000 2.29679000 -1.3022655299999997 0 0 0
Pb 2.60475000 2.29679000 1.30226553
Pb 0.00000000 2.29679000 3.90707472
Pb 2.60475000 6.89037000 -3.9070747200000007 0 0 0
Pb 0.00000000 6.89037000 -1.3022655299999997 0 0 0
Pb 2.60475000 6.89037000 1.30226553
Pb 0.00000000 6.89037000 3.90707472
Pb 7.81425000 2.29679000 -3.9070747200000007 0 0 0
Pb 5.20950000 2.29679000 -1.3022655299999997 0 0 0
Pb 7.81425000 2.29679000 1.30226553
Pb 5.20950000 2.29679000 3.90707472
Pb 7.81425000 6.89037000 -3.9070747200000007 0 0 0
Pb 5.20950000 6.89037000 -1.3022655299999997 0 0 0
Pb 7.81425000 6.89037000 1.30226553
Pb 5.20950000 6.89037000 3.90707472
