&CONTROL
calculation = 'relax'
prefix = 'scf'
pseudo_dir = '/vol0004/mdt0/data/hp150275/u10028/POT_KKJUS'
outdir = './data'
tprnfor = .true.
nstep = 50
disk_io = 'non'
/
&SYSTEM
ibrav = 0
ecutwfc = 50.0
ecutrho = 400
occupations = 'smearing'
smearing = 'mp'
degauss = 0.01
assume_isolated = 'esm'
esm_bc = 'bc1'
input_dft = 'BEEF-VDW'
nosym = .true.
nspin = 1
ntyp = 4
nat = 19
/
&ELECTRONS
electron_maxstep = 200
mixing_beta = 0.1
conv_thr = 1e-06
/
&IONS
ion_dynamics = 'bfgs'
upscale = 1.0
/
&CELL
/

K_POINTS {automatic}
9 9 2 0  0  0

ATOMIC_SPECIES
C 12.01 C.pbe-n-rrkjus_psl.1.0.0.UPF
H 1.007 H.pbe-rrkjus_psl.1.0.0.UPF
O 15.99 O.pbe-n-rrkjus_psl.1.0.0.UPF
Ti 47.86 Ti.pbe-spn-rrkjus_psl.1.0.0.UPF

CELL_PARAMETERS {angstrom}
6.51708000 0.00000000 0.00000000
0.00000000 6.51708000 0.00000000
0.00000000 0.00000000 24.88780000

ATOMIC_POSITIONS {angstrom}
Ti 0.00000000 0.00000000 -2.4439819599999986 0 0 0
Ti 1.62927000 1.62927000 -0.8145776900000001 0 0 0
Ti 0.00286752 0.00000000 0.58685432
Ti 1.67150068 1.57361414 2.27449604
Ti 0.00000000 3.25854000 -2.4439819599999986 0 0 0
Ti 1.62927000 4.88781000 -0.8145776900000001 0 0 0
Ti 0.09534488 3.25854000 0.65255812
Ti 1.67143551 4.94353103 2.27449604
Ti 3.25854000 0.00000000 -2.4439819599999986 0 0 0
Ti 4.88781000 1.62927000 -0.8145776900000001 0 0 0
Ti 3.33127061 0.00000000 0.67570377
Ti 5.01971570 1.61128286 2.22944912
Ti 3.25854000 3.25854000 -2.4439819599999986 0 0 0
Ti 4.88781000 4.88781000 -0.8145776900000001 0 0 0
Ti 3.15693872 3.25854000 0.71950630
Ti 5.01971570 4.90579714 2.22944912
H 6.47621791 6.51694966 4.68214181
C 0.19922714 0.00006517 2.65727041
O 5.85057823 6.51694966 3.93326791
