&CONTROL
calculation = 'relax'
prefix = 'scf'
pseudo_dir = '/vol0403/data/hp230205/u10028/POT_HYBRID_KKJUS_GBRV'
outdir = './data'
tprnfor = .true.
nstep = 50
disk_io = 'non'
/
&SYSTEM
ibrav = 0
ecutwfc = 50.0
ecutrho = 400
occupations = 'smearing'
smearing = 'mp'
degauss = 0.01
assume_isolated = 'esm'
esm_bc = 'bc1'
input_dft = 'BEEF-VDW'
nosym = .true.
nspin = 1
ntyp = 6
nat = 18
/
&ELECTRONS
electron_maxstep = 200
mixing_beta = 0.1
conv_thr = 1e-06
/
&IONS
ion_dynamics = 'bfgs'
upscale = 1.0
/
&CELL
/

K_POINTS {automatic}
8 11 2 0  0  0

ATOMIC_SPECIES
C 12.01 C.pbe-n-rrkjus_psl.1.0.0.UPF
Ga 69.72 Ga.pbe-dnl-rrkjus_psl.1.0.0.UPF
In 114.8 In.pbe-dn-rrkjus_psl.1.0.0.UPF
Li 6.941 Li.pbe-sl-rrkjus_psl.1.0.0.UPF
O 15.99 O.pbe-n-rrkjus_psl.1.0.0.UPF
Sc 44.95 Sc.pbe-spn-rrkjus_psl.1.0.0.UPF


CELL_PARAMETERS {angstrom}
8.23116000 0.00000000 0.00000000
0.00000000 6.09788000 0.00000000
0.00000000 0.00000000 24.56590000

ATOMIC_POSITIONS {angstrom}
Li 0.00000000 3.04894000 -2.2829090900000004 0 0 0
Li 8.22885528 5.72426289 0.79421555
Li 4.11558000 3.04894000 -2.2829090900000004 0 0 0
Li 4.11796704 5.72389702 0.79372423
Sc 2.05779000 1.43720934 -0.7610515800000002 0 0 0
Sc 2.05820156 3.90166754 2.32074057
Sc 6.17337000 1.43720934 -0.7610515800000002 0 0 0
Sc 6.17345231 3.84818913 2.34555213
In 2.05779000 4.48614934 -0.7610515800000002 0 0 0
In 2.05861312 0.91693822 2.58924586
In 6.17337000 4.48614934 -0.7610515800000002 0 0 0
In 6.17287613 0.86906986 2.56517128
Ga 0.00000000 0.00000000 -2.2829090900000004 0 0 0
Ga 8.22292884 2.62190546 0.84875184
Ga 4.11558000 0.00000000 -2.2829090900000004 0 0 0
Ga 4.12422272 2.62245427 0.84801487
C 2.05762538 4.18399938 4.60094741
O 2.05746075 4.32193343 5.74326176
