&CONTROL
calculation = 'relax'
prefix = 'scf'
pseudo_dir = '/vol0403/data/hp230205/u10028/POT_HYBRID_KKJUS_GBRV'
outdir = './data'
tprnfor = .true.
nstep = 50
disk_io = 'non'
/
&SYSTEM
ibrav = 0
ecutwfc = 50.0
ecutrho = 400
occupations = 'smearing'
smearing = 'mp'
degauss = 0.01
assume_isolated = 'esm'
esm_bc = 'bc1'
input_dft = 'BEEF-VDW'
nosym = .true.
nspin = 1
ntyp = 4
nat = 16
/
&ELECTRONS
electron_maxstep = 200
mixing_beta = 0.1
conv_thr = 1e-06
/
&IONS
ion_dynamics = 'bfgs'
upscale = 1.0
/
&CELL
/

K_POINTS {automatic}
8 11 2 0  0  0

ATOMIC_SPECIES
Au 196.9 Au.pbe-n-rrkjus_psl.1.0.0.UPF
Ge 72.64 Ge.pbe-dn-rrkjus_psl.1.0.0.UPF
In 114.8 In.pbe-dn-rrkjus_psl.1.0.0.UPF
Li 6.941 Li.pbe-sl-rrkjus_psl.1.0.0.UPF


CELL_PARAMETERS {angstrom}
8.39470000 0.00000000 0.00000000
0.00000000 6.02588000 0.00000000
0.00000000 0.00000000 24.51900000

ATOMIC_POSITIONS {angstrom}
Li 2.09867500 1.48658460 -0.7532236799999978 0 0 0
Li 2.09867500 4.47572237 2.17189302
Li 6.29602500 1.48658460 -0.7532236799999978 0 0 0
Li 6.29602500 4.47572237 2.17189302
In 2.09867500 4.49952460 -0.7532236799999978 0 0 0
In 2.09867500 1.44422266 2.41021770
In 6.29602500 4.49952460 -0.7532236799999978 0 0 0
In 6.29602500 1.44422266 2.41021770
Ge 0.00000000 3.01294000 -2.2594258499999995 0 0 0
Ge 0.00000000 5.91193061 0.80030016
Ge 4.19735000 3.01294000 -2.2594258499999995 0 0 0
Ge 4.19735000 5.91187035 0.80030016
Au 0.00000000 0.00000000 -2.2594258499999995 0 0 0
Au 0.00000000 2.92219025 0.80937219
Au 4.19735000 0.00000000 -2.2594258499999995 0 0 0
Au 4.19735000 2.92219025 0.80937219
