&CONTROL
calculation = 'relax'
prefix = 'scf'
pseudo_dir = '/vol0004/mdt0/data/hp150275/u10028/POT_KKJUS'
outdir = './data'
tprnfor = .true.
nstep = 50
disk_io = 'non'
/
&SYSTEM
ibrav = 0
ecutwfc = 50.0
ecutrho = 400
occupations = 'smearing'
smearing = 'mp'
degauss = 0.01
assume_isolated = 'esm'
esm_bc = 'bc1'
input_dft = 'BEEF-VDW'
nosym = .true.
nspin = 1
ntyp = 3
nat = 17
/
&ELECTRONS
electron_maxstep = 200
mixing_beta = 0.1
conv_thr = 1e-06
/
&IONS
ion_dynamics = 'bfgs'
upscale = 1.0
/
&CELL
/

K_POINTS {automatic}
8 11 2 0  0  0

ATOMIC_SPECIES
C 12.01 C.pbe-n-rrkjus_psl.1.0.0.UPF
Hf 178.4 Hf.pbe-spn-rrkjus_psl.1.0.0.UPF
Rh 102.9 Rh.pbe-spn-rrkjus_psl.1.0.0.UPF

CELL_PARAMETERS {angstrom}
7.89713000 0.00000000 0.00000000
0.00000000 5.58411000 0.00000000
0.00000000 0.00000000 24.18810000

ATOMIC_POSITIONS {angstrom}
Hf 0.00000000 0.00000000 -2.093963819999999 0 0 0
Hf 0.00007897 2.79205500 0.37975317
Hf 3.94856500 0.00000000 -2.093963819999999 0 0 0
Hf 3.94848603 2.79205500 0.75345931
Rh 0.00000000 2.79205500 -2.093963819999999 0 0 0
Rh 1.97428250 4.18808250 -0.6980685700000002 0 0 0
Rh 1.97428250 1.39602750 -0.6980685700000002 0 0 0
Rh 0.00000000 0.00000000 0.47940814
Rh 1.50290281 1.41378497 2.17088197
Rh 1.50298178 4.17032503 2.17088197
Rh 3.94856500 2.79205500 -2.093963819999999 0 0 0
Rh 5.92284750 4.18808250 -0.6980685700000002 0 0 0
Rh 5.92284750 1.39602750 -0.6980685700000002 0 0 0
Rh 3.94856500 0.00000000 0.70314807
Rh 6.39414822 1.41372913 2.17088197
Rh 6.39422719 4.17032503 2.17088197
C 7.89665617 2.79205500 2.64980635
