&CONTROL
calculation = 'relax'
prefix = 'scf'
pseudo_dir = '/vol0004/mdt0/data/hp150275/u10028/POT_KKJUS'
outdir = './data'
tprnfor = .true.
nstep = 50
disk_io = 'non'
/
&SYSTEM
ibrav = 0
ecutwfc = 50.0
ecutrho = 400
occupations = 'smearing'
smearing = 'mp'
degauss = 0.01
assume_isolated = 'esm'
esm_bc = 'bc1'
input_dft = 'BEEF-VDW'
nosym = .true.
nspin = 1
ntyp = 4
nat = 33
/
&ELECTRONS
electron_maxstep = 200
mixing_beta = 0.1
conv_thr = 1e-06
/
&IONS
ion_dynamics = 'bfgs'
upscale = 1.0
/
&CELL
/

K_POINTS {automatic}
9 6 2 0  0  0

ATOMIC_SPECIES
C 12.01 C.pbe-n-rrkjus_psl.1.0.0.UPF
In 114.8 In.pbe-dn-rrkjus_psl.1.0.0.UPF
Li 6.941 Li.pbe-sl-rrkjus_psl.1.0.0.UPF
Pd 106.4 Pd.pbe-n-rrkjus_psl.1.0.0.UPF

CELL_PARAMETERS {angstrom}
6.46446000 0.00000000 0.00000000
0.00000000 9.14213000 0.00000000
0.00000000 0.00000000 26.85660000

ATOMIC_POSITIONS {angstrom}
Li 0.00000000 6.85659750 -1.1427483299999999 0 0 0
Li 3.23223000 0.00000000 -3.4282449899999996 0 0 0
Li 0.00000000 2.28553250 -1.1427483299999999 0 0 0
Li 3.23223000 4.57106500 -3.4282449899999996 0 0 0
Li 1.61611500 2.28553250 -3.4282449899999996 0 0 0
Li 1.61611500 6.85659750 -3.4282449899999996 0 0 0
Li 4.84834500 4.57106500 -1.1427483299999999 0 0 0
Li 4.84834500 0.00000000 -1.1427483299999999 0 0 0
Li 0.13290930 2.36708030 3.32269855
Li 3.32544751 4.57106500 0.96522620
Li 0.13297394 6.77495828 3.32296712
Li 3.02510870 0.00000000 1.32027046
Li 1.59607517 6.80467020 1.02108793
Li 1.59601053 2.33745980 1.02081937
Li 4.96787287 0.00000000 3.40595401
Li 4.65079110 4.57106500 3.31813293
In 1.61611500 0.00000000 -1.1427483299999999 0 0 0
In 1.61611500 4.57106500 -1.1427483299999999 0 0 0
In 4.84834500 6.85659750 -3.4282449899999996 0 0 0
In 4.84834500 2.28553250 -3.4282449899999996 0 0 0
In 1.82873109 4.57088216 3.26146550
In 1.01433842 0.00000000 4.43214470
In 4.84640566 2.24494144 1.13818271
In 4.84647031 6.89718856 1.13818271
Pd 0.00000000 0.00000000 -3.4282449899999996 0 0 0
Pd 3.23223000 2.28553250 -1.1427483299999999 0 0 0
Pd 3.23223000 6.85659750 -1.1427483299999999 0 0 0
Pd 0.00000000 4.57106500 -3.4282449899999996 0 0 0
Pd 6.42095418 4.57106500 1.19323874
Pd 2.96149842 7.15709931 3.17257016
Pd 2.96143377 1.98484784 3.17257016
Pd 0.10006984 0.00000000 1.18894168
C 2.98431796 9.14203858 3.51096332
