&CONTROL
calculation = 'relax'
prefix = 'scf'
pseudo_dir = '/vol0403/data/hp230205/u10028/POT_HYBRID_KKJUS_GBRV'
outdir = './data'
tprnfor = .true.
nstep = 50
disk_io = 'non'
/
&SYSTEM
ibrav = 0
ecutwfc = 50.0
ecutrho = 400
occupations = 'smearing'
smearing = 'mp'
degauss = 0.01
assume_isolated = 'esm'
esm_bc = 'bc1'
input_dft = 'BEEF-VDW'
nosym = .true.
nspin = 2
ntyp = 6
nat = 18
starting_magnetization(1) = 0.0
starting_magnetization(2) = 0.0
starting_magnetization(3) = 0.0
starting_magnetization(4) = 0.1
starting_magnetization(5) = 0.0
starting_magnetization(6) = 0.0
/
&ELECTRONS
electron_maxstep = 200
mixing_beta = 0.1
conv_thr = 1e-06
/
&IONS
ion_dynamics = 'bfgs'
upscale = 1.0
/
&CELL
/

K_POINTS {automatic}
6 6 1 0 0 0

ATOMIC_SPECIES
C 12.01 C.pbe-n-rrkjus_psl.1.0.0.UPF
Ge 72.64 Ge.pbe-dn-rrkjus_psl.1.0.0.UPF
Li 6.941 Li.pbe-sl-rrkjus_psl.1.0.0.UPF
Mn 54.93 mn_pbe_v1.5.uspp.F.UPF
O 15.99 O.pbe-n-rrkjus_psl.1.0.0.UPF
Pd 106.4 Pd.pbe-n-rrkjus_psl.1.0.0.UPF


CELL_PARAMETERS {angstrom}
6.14713000 0.00000000 0.00000000
0.00000000 6.14713000 0.00000000
0.00000000 0.00000000 24.61040000

ATOMIC_POSITIONS {angstrom}
Li 0.00006147 3.07356500 2.61780825
Li 0.00000000 0.00000000 -0.7683366899999982 0 0 0
Li 3.07356500 3.07356500 -0.7683366899999982 0 0 0
Li 3.07362647 0.00012294 2.57941602
Mn 1.53586043 1.53764310 0.80869774
Mn 1.53678250 4.61034750 -2.30525617 0 0 0
Mn 4.61034750 1.53678250 -2.30525617 0 0 0
Mn 4.61126957 4.60954837 0.80918995
Ge 6.14676117 6.14676117 2.15734766
Ge 0.00000000 3.07356500 -0.7683366899999982 0 0 0
Ge 3.07356500 0.00000000 -0.7683366899999982 0 0 0
Ge 3.07387236 3.07344206 2.15808598
Pd 4.61286782 1.53936429 0.74643343
Pd 4.61034750 4.61034750 -2.30525617 0 0 0
Pd 1.53678250 1.53678250 -2.30525617 0 0 0
Pd 1.53426218 4.60782718 0.74643343
C 0.00000000 3.07356500 4.73577927
O 6.14706853 3.07362647 5.87376417
