&CONTROL
calculation = 'relax'
prefix = 'scf'
pseudo_dir = '/vol0403/data/hp230205/u10028/POT_HYBRID_KKJUS_GBRV'
outdir = './data'
tprnfor = .true.
nstep = 50
disk_io = 'non'
/
&SYSTEM
ibrav = 0
ecutwfc = 50.0
ecutrho = 400
occupations = 'smearing'
smearing = 'mp'
degauss = 0.01
assume_isolated = 'esm'
esm_bc = 'bc1'
input_dft = 'BEEF-VDW'
nosym = .true.
nspin = 2
ntyp = 6
nat = 18
starting_magnetization(1) = 0.0
starting_magnetization(2) = 0.0
starting_magnetization(3) = 0.0
starting_magnetization(4) = 0.1
starting_magnetization(5) = 0.0
starting_magnetization(6) = 0.0
/
&ELECTRONS
electron_maxstep = 400
mixing_beta = 0.05
conv_thr = 1e-06
/
&IONS
ion_dynamics = 'bfgs'
upscale = 1.0
/
&CELL
/

K_POINTS {automatic}
10 10 2 0  0  0

ATOMIC_SPECIES
C 12.01 C.pbe-n-rrkjus_psl.1.0.0.UPF
Ge 72.64 Ge.pbe-dn-rrkjus_psl.1.0.0.UPF
Li 6.941 Li.pbe-sl-rrkjus_psl.1.0.0.UPF
Mn 54.93 mn_pbe_v1.5.uspp.F.UPF
O 15.99 O.pbe-n-rrkjus_psl.1.0.0.UPF
Pd 106.4 Pd.pbe-n-rrkjus_psl.1.0.0.UPF


CELL_PARAMETERS {angstrom}
6.14713000 0.00000000 0.00000000
0.00000000 6.14713000 0.00000000
0.00000000 0.00000000 24.61040000

ATOMIC_POSITIONS {angstrom}
Li 0.00000000 3.07356500 2.62174591
Li 0.00000000 0.00000000 -0.7683366899999982 0 0 0
Li 3.07356500 3.07356500 -0.7683366899999982 0 0 0
Li 3.07356500 0.00006147 2.58261538
Mn 1.53456953 1.53856517 0.81042047
Mn 1.53678250 4.61034750 -2.30525617 0 0 0
Mn 4.61034750 1.53678250 -2.30525617 0 0 0
Mn 4.61231458 4.60856483 0.81066658
Ge 6.14688411 6.14682264 2.15808598
Ge 0.00000000 3.07356500 -0.7683366899999982 0 0 0
Ge 3.07356500 0.00000000 -0.7683366899999982 0 0 0
Ge 3.07387236 3.07350353 2.15808598
Pd 4.61176134 1.53801193 0.74421850
Pd 4.61034750 4.61034750 -2.30525617 0 0 0
Pd 1.53678250 1.53678250 -2.30525617 0 0 0
Pd 1.53592190 4.60893366 0.74446460
C 0.00000000 3.07356500 4.74390070
O 6.14700706 3.07362647 5.88213170
