&CONTROL
calculation = 'relax'
prefix = 'scf'
pseudo_dir = '/vol0403/data/hp230205/u10028/POT_HYBRID_KKJUS_GBRV'
outdir = './data'
tprnfor = .true.
nstep = 50
disk_io = 'non'
/
&SYSTEM
ibrav = 0
ecutwfc = 50.0
ecutrho = 400
occupations = 'smearing'
smearing = 'mp'
degauss = 0.01
assume_isolated = 'esm'
esm_bc = 'bc1'
input_dft = 'BEEF-VDW'
nosym = .true.
nspin = 2
ntyp = 6
nat = 34
starting_magnetization(1) = 0.0
starting_magnetization(2) = 0.0
starting_magnetization(3) = 0.0
starting_magnetization(4) = 0.1
starting_magnetization(5) = 0.0
starting_magnetization(6) = 0.0
/
&ELECTRONS
electron_maxstep = 200
mixing_beta = 0.1
conv_thr = 1e-06
/
&IONS
ion_dynamics = 'bfgs'
upscale = 1.0
/
&CELL
/

K_POINTS {automatic}
9 6 2 0  0  0

ATOMIC_SPECIES
Al 26.98 Al.pbe-nl-rrkjus_psl.1.0.0.UPF
C 12.01 C.pbe-n-rrkjus_psl.1.0.0.UPF
Li 6.941 Li.pbe-sl-rrkjus_psl.1.0.0.UPF
Mn 54.93 mn_pbe_v1.5.uspp.F.UPF
O 15.99 O.pbe-n-rrkjus_psl.1.0.0.UPF
Pd 106.4 Pd.pbe-n-rrkjus_psl.1.0.0.UPF


CELL_PARAMETERS {angstrom}
6.10222000 0.00000000 0.00000000
0.00000000 8.62984000 0.00000000
0.00000000 0.00000000 26.47240000

ATOMIC_POSITIONS {angstrom}
Li 0.00000000 2.15746000 25.39364970
Li 0.00000000 6.47238000 25.39364970
Li 3.05111000 4.31492000 23.23614910
Li 3.05111000 0.00000000 23.23614910
Li 6.00159439 6.40463576 3.54041878
Li 6.00159439 2.22529054 3.54068350
Li 3.05635791 8.62975370 1.07822085
Li 2.98709771 4.31500630 0.97180180
Mn 1.52555500 0.00000000 25.39364970
Mn 1.52555500 4.31492000 25.39364970
Mn 4.57666500 2.15746000 23.23614910
Mn 4.57666500 6.47238000 23.23614910
Mn 1.60396853 4.31500630 3.20210150
Mn 1.55008592 0.00008630 3.18833586
Mn 4.59008988 6.47134442 1.11263497
Mn 4.59002886 2.15849558 1.11263497
Al 0.00000000 0.00000000 23.23614910
Al 0.00000000 4.31492000 23.23614910
Al 3.05111000 6.47238000 25.39364970
Al 3.05111000 2.15746000 25.39364970
Al 0.02349355 4.31492000 1.06895551
Al 6.08678138 0.00000000 1.06180796
Al 3.03902760 2.14744939 3.24551624
Al 3.03902760 6.48247691 3.24525152
Pd 4.57666500 0.00000000 25.39364970
Pd 4.57666500 4.31492000 25.39364970
Pd 1.52555500 2.15746000 23.23614910
Pd 1.52555500 6.47238000 23.23614910
Pd 4.43564270 4.31492000 2.98529255
Pd 4.57751931 0.00008630 3.26087023
Pd 1.48290048 6.49835582 1.07610306
Pd 1.48296150 2.13148418 1.07610306
C 5.28238674 0.00000000 5.08931890
O 5.49028938 0.00017260 6.23133824
