&CONTROL
calculation = 'relax'
prefix = 'scf'
pseudo_dir = '/vol0403/data/hp230205/u10028/POT_HYBRID_KKJUS_GBRV'
outdir = './data'
tprnfor = .true.
nstep = 70
disk_io = 'non'
/
&SYSTEM
ibrav = 0
ecutwfc = 50.0
ecutrho = 400
occupations = 'smearing'
smearing = 'mp'
degauss = 0.01
assume_isolated = 'esm'
esm_bc = 'bc1'
input_dft = 'BEEF-VDW'
nosym = .true.
nspin = 1
ntyp = 6
nat = 34
/
&ELECTRONS
electron_maxstep = 200
mixing_beta = 0.1
conv_thr = 1e-06
/
&IONS
ion_dynamics = 'bfgs'
upscale = 1.0
/
&CELL
/

K_POINTS {automatic}
9 6 2 0  0  0

ATOMIC_SPECIES
Au 196.9 Au.pbe-n-rrkjus_psl.1.0.0.UPF
C 12.01 C.pbe-n-rrkjus_psl.1.0.0.UPF
Cu 63.54 Cu.pbe-dn-rrkjus_psl.1.0.0.UPF
In 114.8 In.pbe-dn-rrkjus_psl.1.0.0.UPF
Li 6.941 Li.pbe-sl-rrkjus_psl.1.0.0.UPF
O 15.99 O.pbe-n-rrkjus_psl.1.0.0.UPF


CELL_PARAMETERS {angstrom}
6.41124000 0.00000000 0.00000000
-0.00000000 9.06686000 0.00000000
0.00000000 0.00000000 26.80010000

ATOMIC_POSITIONS {angstrom}
Li 4.80843000 0.00000000 -1.1333762299999997 0 0 0
Li 4.80843000 4.53343000 -1.1333762299999997 0 0 0
Li 1.60281000 2.26671500 -3.400128689999999 0 0 0
Li 1.60281000 6.80014500 -3.400128689999999 0 0 0
Li 4.68142334 4.56951610 3.62069351
Li 4.68148745 9.03077390 3.62069351
Li 1.44708098 6.80014500 1.20305649
Li 1.55613617 2.26671500 1.16526835
In 0.00000000 2.26671500 -1.1333762299999997 0 0 0
In 0.00000000 6.80014500 -1.1333762299999997 0 0 0
In 3.20562000 4.53343000 -3.400128689999999 0 0 0
In 3.20562000 0.00000000 -3.400128689999999 0 0 0
In 0.11014510 6.80014500 3.88119048
In 0.01372005 2.26671500 3.67724172
In 3.24030481 9.02660314 1.12078018
In 3.24036892 4.57368686 1.12078018
Cu 1.60281000 0.00000000 -1.1333762299999997 0 0 0
Cu 1.60281000 4.53343000 -1.1333762299999997 0 0 0
Cu 4.80843000 2.26671500 -3.400128689999999 0 0 0
Cu 4.80843000 6.80014500 -3.400128689999999 0 0 0
Cu 1.53638955 4.51420826 3.30766834
Cu 1.53632544 0.01922174 3.30766834
Cu 4.93300039 6.80014500 1.24593665
Cu 4.83561366 2.26671500 1.15749632
Au 0.00000000 0.00000000 -3.400128689999999 0 0 0
Au 0.00000000 4.53343000 -3.400128689999999 0 0 0
Au 3.20562000 6.80014500 -1.1333762299999997 0 0 0
Au 3.20562000 2.26671500 -1.1333762299999997 0 0 0
Au 6.35584689 4.50831480 1.11622416
Au 6.35578277 0.02511520 1.11622416
Au 3.15150913 2.26671500 3.27899224
Au 3.10419418 6.80014500 3.26612819
C 5.79774844 2.26662433 7.35260743
O 0.33460262 2.26671500 7.97812177
