&CONTROL
calculation = 'relax'
prefix = 'scf'
pseudo_dir = '/vol0004/mdt0/data/hp150275/u10028/POT_KKJUS'
outdir = './data'
tprnfor = .true.
nstep = 50
disk_io = 'non'
/
&SYSTEM
ibrav = 0
ecutwfc = 50.0
ecutrho = 400
occupations = 'smearing'
smearing = 'mp'
degauss = 0.01
assume_isolated = 'esm'
esm_bc = 'bc1'
input_dft = 'BEEF-VDW'
nosym = .true.
nspin = 1
ntyp = 3
nat = 17
/
&ELECTRONS
electron_maxstep = 200
mixing_beta = 0.1
conv_thr = 1e-06
/
&IONS
ion_dynamics = 'bfgs'
upscale = 1.0
/
&CELL
/

K_POINTS {automatic}
6 8 1 0 0 0

ATOMIC_SPECIES
C 12.01 C.pbe-n-rrkjus_psl.1.0.0.UPF
Sn 118.7 Sn.pbe-dn-rrkjus_psl.1.0.0.UPF
Ti 47.86 Ti.pbe-spn-rrkjus_psl.1.0.0.UPF

CELL_PARAMETERS {angstrom}
8.35210000 0.00000000 0.00000000
0.00000000 5.90582000 0.00000000
0.00000000 0.00000000 24.42940000

ATOMIC_POSITIONS {angstrom}
Ti 0.00000000 2.95291000 -2.2147694000000016 0 0 0
Ti 2.08802500 4.42936500 -0.7382564699999996 0 0 0
Ti 2.08802500 1.47645500 -0.7382564699999996 0 0 0
Ti 0.00008352 0.00000000 0.71431566
Ti 1.55891947 1.58943334 2.28195025
Ti 1.55891947 4.31638666 2.28195025
Ti 4.17605000 2.95291000 -2.2147694000000016 0 0 0
Ti 6.26407500 4.42936500 -0.7382564699999996 0 0 0
Ti 6.26407500 1.47645500 -0.7382564699999996 0 0 0
Ti 4.17571592 0.00000000 0.72311024
Ti 6.79343110 1.58949239 2.28219455
Ti 6.79343110 4.31632761 2.28219455
Sn 0.00000000 0.00000000 -2.2147694000000016 0 0 0
Sn 0.00000000 2.95291000 0.42214003
Sn 4.17605000 0.00000000 -2.2147694000000016 0 0 0
Sn 4.17605000 2.95291000 1.07000772
C 0.00008352 2.95291000 2.82208429
