&CONTROL
calculation = 'relax'
prefix = 'scf'
pseudo_dir = '/vol0004/mdt0/data/hp150275/u10028/POT_HYBRID_KKJUS_GBRV'
outdir = './data'
tprnfor = .true.
nstep = 50
disk_io = 'non'
/
&SYSTEM
ibrav = 0
ecutwfc = 50.0
ecutrho = 400
occupations = 'smearing'
smearing = 'mp'
degauss = 0.01
assume_isolated = 'esm'
esm_bc = 'bc1'
input_dft = 'BEEF-VDW'
nosym = .true.
nspin = 2
ntyp = 5
nat = 34
starting_magnetization(1) = 0.0
starting_magnetization(2) = 0.0
starting_magnetization(3) = 0.1
starting_magnetization(4) = 0.1
starting_magnetization(5) = 0.0
/
&ELECTRONS
electron_maxstep = 300
mixing_beta = 0.1
conv_thr = 1e-06
/
&IONS
ion_dynamics = 'bfgs'
upscale = 1.0
/
&CELL
/

K_POINTS {automatic}
8 6 1 0 0 0

ATOMIC_SPECIES
Al 26.98 Al.pbe-nl-rrkjus_psl.1.0.0.UPF
C 12.01 C.pbe-n-rrkjus_psl.1.0.0.UPF
Fe 55.84 fe_pbe_v1.5.uspp.F.UPF
Mn 54.93 mn_pbe_v1.5.uspp.F.UPF
O 15.99 O.pbe-n-rrkjus_psl.1.0.0.UPF

CELL_PARAMETERS {angstrom}
5.79866000 0.00000000 0.00000000
0.00000000 8.20054000 0.00000000
0.00000000 0.00000000 26.15040000

ATOMIC_POSITIONS {angstrom}
Mn 0.00000000 0.00000000 -3.0752870400000027 0 0 0
Mn 2.89933000 2.05013500 -1.0250956799999997 0 0 0
Mn 2.89933000 6.15040500 -1.0250956799999997 0 0 0
Mn 0.00000000 4.10027000 -3.0752870400000027 0 0 0
Mn 0.00881396 4.10027000 1.04287795
Mn 2.86366824 6.19304781 3.08391667
Mn 2.86366824 2.00749219 3.08391667
Mn 0.00643651 0.00000000 1.04575450
Al 0.00000000 6.15040500 -1.0250956799999997 0 0 0
Al 2.89933000 0.00000000 -3.0752870400000027 0 0 0
Al 0.00000000 2.05013500 -1.0250956799999997 0 0 0
Al 2.89933000 4.10027000 -3.0752870400000027 0 0 0
Al 0.02748565 2.02282720 3.08077862
Al 2.90193940 4.10027000 0.99449971
Al 0.02748565 6.17771280 3.08077862
Al 2.86761133 0.00000000 1.02221914
Fe 1.44966500 0.00000000 -1.0250956799999997 0 0 0
Fe 4.34899500 4.10027000 -1.0250956799999997 0 0 0
Fe 4.34899500 0.00000000 -1.0250956799999997 0 0 0
Fe 1.44966500 4.10027000 -1.0250956799999997 0 0 0
Fe 4.34899500 6.15040500 -3.0752870400000027 0 0 0
Fe 1.44966500 2.05013500 -3.0752870400000027 0 0 0
Fe 1.44966500 6.15040500 -3.0752870400000027 0 0 0
Fe 4.34899500 2.05013500 -3.0752870400000027 0 0 0
Fe 1.46798877 4.10027000 3.08888525
Fe 4.37520494 0.00000000 3.08104013
Fe 4.35960655 4.10027000 3.07894810
Fe 1.41788834 0.00000000 3.13595597
Fe 4.35966453 2.03192980 1.03686336
Fe 1.43354473 6.14532067 1.00783642
Fe 1.43360271 2.05521933 1.00783642
Fe 4.35966453 6.16861020 1.03686336
C 1.49576435 0.00000000 4.89980045
O 1.44891117 0.00000000 6.06506227
