&CONTROL
calculation = 'relax'
prefix = 'scf'
pseudo_dir = '/vol0004/mdt0/data/hp150275/u10028/POT_HYBRID_KKJUS_GBRV'
outdir = './data'
tprnfor = .true.
nstep = 50
disk_io = 'non'
/
&SYSTEM
ibrav = 0
ecutwfc = 50.0
ecutrho = 400
occupations = 'smearing'
smearing = 'mp'
degauss = 0.01
assume_isolated = 'esm'
esm_bc = 'bc1'
input_dft = 'BEEF-VDW'
nosym = .true.
nspin = 2
ntyp = 4
nat = 33
starting_magnetization(1) = 0.0
starting_magnetization(2) = 0.0
starting_magnetization(3) = 0.1
starting_magnetization(4) = 0.1
/
&ELECTRONS
electron_maxstep = 300
mixing_beta = 0.1
conv_thr = 1e-06
/
&IONS
ion_dynamics = 'bfgs'
upscale = 1.0
/
&CELL
/

K_POINTS {automatic}
8 6 1 0 0 0

ATOMIC_SPECIES
Al 26.98 Al.pbe-nl-rrkjus_psl.1.0.0.UPF
C 12.01 C.pbe-n-rrkjus_psl.1.0.0.UPF
Co 58.93 co_pbe_v1.2.uspp.F.UPF
Mn 54.93 mn_pbe_v1.5.uspp.F.UPF

CELL_PARAMETERS {angstrom}
5.71239000 0.00000000 0.00000000
0.00000000 8.07854000 0.00000000
0.00000000 0.00000000 26.05890000

ATOMIC_POSITIONS {angstrom}
Mn 0.00000000 0.00000000 -3.0293471200000006 0 0 0
Mn 2.85619500 2.01963500 -1.00978237 0 0 0
Mn 2.85619500 6.05890500 -1.00978237 0 0 0
Mn 0.00000000 4.03927000 -3.0293471200000006 0 0 0
Mn 0.00405580 4.04791404 1.04079247
Mn 2.78341915 6.05890500 3.09579732
Mn 3.09063149 2.01963500 2.95768515
Mn 0.00405580 8.06989596 1.04053188
Al 0.00000000 6.05890500 -1.00978237 0 0 0
Al 2.85619500 0.00000000 -3.0293471200000006 0 0 0
Al 0.00000000 2.01963500 -1.00978237 0 0 0
Al 2.85619500 4.03927000 -3.0293471200000006 0 0 0
Al 5.48280905 2.01963500 3.08459199
Al 2.83277420 4.04056257 1.02541772
Al 0.07837399 6.05890500 3.08068316
Al 2.83271708 8.07724743 1.02541772
Co 1.42809750 0.00000000 -1.00978237 0 0 0
Co 4.28429250 4.03927000 -1.00978237 0 0 0
Co 4.28429250 0.00000000 -1.00978237 0 0 0
Co 1.42809750 4.03927000 -1.00978237 0 0 0
Co 4.28429250 6.05890500 -3.0293471200000006 0 0 0
Co 1.42809750 2.01963500 -3.0293471200000006 0 0 0
Co 1.42809750 6.05890500 -3.0293471200000006 0 0 0
Co 4.28429250 2.01963500 -3.0293471200000006 0 0 0
Co 1.39587962 3.84118420 3.12133504
Co 4.28177905 8.01237676 2.99911880
Co 4.28189330 4.10535246 2.99911880
Co 1.39593674 0.19808580 3.12133504
Co 4.29126162 2.01963500 0.94176865
Co 1.42889723 6.05882421 1.02906596
Co 1.41575874 2.01971579 1.03167185
Co 4.27309622 6.05890500 1.04574366
C 1.54531574 2.01963500 3.81919238
