&CONTROL
calculation = 'relax'
prefix = 'scf'
pseudo_dir = '/vol0004/mdt0/data/hp150275/u10028/POT_KKJUS'
outdir = './data'
tprnfor = .true.
nstep = 50
disk_io = 'non'
/
&SYSTEM
ibrav = 0
ecutwfc = 50.0
ecutrho = 400
occupations = 'smearing'
smearing = 'mp'
degauss = 0.01
assume_isolated = 'esm'
esm_bc = 'bc1'
input_dft = 'BEEF-VDW'
nosym = .true.
nspin = 1
ntyp = 5
nat = 34
/
&ELECTRONS
electron_maxstep = 200
mixing_beta = 0.1
conv_thr = 1e-06
/
&IONS
ion_dynamics = 'bfgs'
upscale = 1.0
/
&CELL
/

K_POINTS {automatic}
8 6 1 0 0 0

ATOMIC_SPECIES
C 12.01 C.pbe-n-rrkjus_psl.1.0.0.UPF
Ni 58.69 Ni.pbe-spn-rrkjus_psl.1.0.0.UPF
O 15.99 O.pbe-n-rrkjus_psl.1.0.0.UPF
Sb 121.7 Sb.pbe-n-rrkjus_psl.1.0.0.UPF
Zr 91.22 Zr.pbe-spn-rrkjus_psl.1.0.0.UPF

CELL_PARAMETERS {angstrom}
6.34847000 0.00000000 0.00000000
0.00000000 8.97809000 0.00000000
0.00000000 0.00000000 26.73360000

ATOMIC_POSITIONS {angstrom}
Zr 0.00000000 0.00000000 -3.3668295799999974 0 0 0
Zr 3.17423500 2.24452250 -1.1222765300000006 0 0 0
Zr 3.17423500 6.73356750 -1.1222765300000006 0 0 0
Zr 0.00000000 4.48904500 -3.3668295799999974 0 0 0
Zr 6.34408956 4.48922456 1.09420625
Zr 3.17252091 6.72324270 3.36950294
Zr 3.17252091 2.25466774 3.36896827
Zr 0.00190454 8.97800022 1.10169166
Ni 1.58711750 0.00000000 -1.1222765300000006 0 0 0
Ni 4.76135250 4.48904500 -1.1222765300000006 0 0 0
Ni 4.76135250 0.00000000 -1.1222765300000006 0 0 0
Ni 1.58711750 4.48904500 -1.1222765300000006 0 0 0
Ni 4.76135250 6.73356750 -3.3668295799999974 0 0 0
Ni 1.58711750 2.24452250 -3.3668295799999974 0 0 0
Ni 1.58711750 6.73356750 -3.3668295799999974 0 0 0
Ni 4.76135250 2.24452250 -3.3668295799999974 0 0 0
Ni 1.75630423 4.48895522 3.15777283
Ni 4.75322646 8.97791044 3.08986949
Ni 4.55083723 4.48895522 3.14440603
Ni 1.61333668 8.97791044 3.44435702
Ni 4.78731774 2.24999913 1.24979580
Ni 1.54724911 6.75349886 1.32117451
Ni 1.54616987 2.22468092 1.32144185
Ni 4.78636547 6.72862955 1.25006314
Sb 0.00000000 6.73356750 -1.1222765300000006 0 0 0
Sb 3.17423500 0.00000000 -3.3668295799999974 0 0 0
Sb 0.00000000 2.24452250 -1.1222765300000006 0 0 0
Sb 3.17423500 4.48904500 -3.3668295799999974 0 0 0
Sb 6.29869800 2.32810852 3.57187630
Sb 3.15493565 4.48895522 1.01534213
Sb 6.29888845 6.64971214 3.57160896
Sb 3.13195419 0.00017956 1.08832486
C 2.26818136 0.00000000 5.07938400
O 2.54579995 0.00008978 6.21395798
