&CONTROL
calculation = 'relax'
prefix = 'scf'
pseudo_dir = '/vol0004/mdt0/data/hp150275/u10028/POT_HYBRID_KKJUS_GBRV'
outdir = './data'
tprnfor = .true.
nstep = 50
disk_io = 'non'
/
&SYSTEM
ibrav = 0
ecutwfc = 50.0
ecutrho = 400
occupations = 'smearing'
smearing = 'mp'
degauss = 0.01
assume_isolated = 'esm'
esm_bc = 'bc1'
input_dft = 'BEEF-VDW'
nosym = .true.
nspin = 2
ntyp = 4
nat = 33
starting_magnetization(1) = 0.0
starting_magnetization(2) = 0.1
starting_magnetization(3) = 0.0
starting_magnetization(4) = 0.0
/
&ELECTRONS
electron_maxstep = 300
mixing_beta = 0.1
conv_thr = 1e-06
/
&IONS
ion_dynamics = 'bfgs'
upscale = 1.0
/
&CELL
/

K_POINTS {automatic}
8 6 1 0 0 0

ATOMIC_SPECIES
C 12.01 C.pbe-n-rrkjus_psl.1.0.0.UPF
Co 58.93 co_pbe_v1.2.uspp.F.UPF
Ga 69.72 Ga.pbe-dnl-rrkjus_psl.1.0.0.UPF
Ta 180.9 Ta.pbe-spn-rrkjus_psl.1.0.0.UPF

CELL_PARAMETERS {angstrom}
5.95946000 0.00000000 0.00000000
0.00000000 8.42794000 0.00000000
0.00000000 0.00000000 26.32100000

ATOMIC_POSITIONS {angstrom}
Ta 0.00000000 0.00000000 -3.1603624700000026 0 0 0
Ta 2.97973000 2.10698500 -1.0533664200000032 0 0 0
Ta 2.97973000 6.32095500 -1.0533664200000032 0 0 0
Ta 0.00000000 4.21397000 -3.1603624700000026 0 0 0
Ta 0.00005959 4.21397000 1.06810618
Ta 2.97973000 6.36452745 3.18378816
Ta 2.97973000 2.06341255 3.18378816
Ta 0.00000000 0.00000000 1.03994271
Ga 0.00000000 6.32095500 -1.0533664200000032 0 0 0
Ga 2.97973000 0.00000000 -3.1603624700000026 0 0 0
Ga 0.00000000 2.10698500 -1.0533664200000032 0 0 0
Ga 2.97973000 4.21397000 -3.1603624700000026 0 0 0
Ga 0.00000000 2.15333867 3.29486278
Ga 2.97978959 4.21397000 1.08074026
Ga 0.00000000 6.27460133 3.29512599
Ga 2.97973000 0.00000000 1.06784297
Co 1.48986500 0.00000000 -1.0533664200000032 0 0 0
Co 4.46959500 4.21397000 -1.0533664200000032 0 0 0
Co 4.46959500 0.00000000 -1.0533664200000032 0 0 0
Co 1.48986500 4.21397000 -1.0533664200000032 0 0 0
Co 4.46959500 6.32095500 -3.1603624700000026 0 0 0
Co 1.48986500 2.10698500 -3.1603624700000026 0 0 0
Co 1.48986500 6.32095500 -3.1603624700000026 0 0 0
Co 4.46959500 2.10698500 -3.1603624700000026 0 0 0
Co 1.46072324 4.21397000 3.05007748
Co 4.66923691 0.00000000 3.09350713
Co 4.49873676 4.21397000 3.05007748
Co 1.29022309 0.00000000 3.09350713
Co 4.42936864 2.09248894 1.08732051
Co 1.53009135 6.33545106 1.08732051
Co 1.53003176 2.09248894 1.08732051
Co 4.42936864 6.33545106 1.08732051
C 2.97973000 0.00000000 3.83970748
