&CONTROL
calculation = 'relax'
prefix = 'scf'
pseudo_dir = '/vol0004/mdt0/data/hp150275/u10028/POT_KKJUS'
outdir = './data'
tprnfor = .true.
nstep = 50
disk_io = 'non'
/
&SYSTEM
ibrav = 0
ecutwfc = 50.0
ecutrho = 400
occupations = 'smearing'
smearing = 'mp'
degauss = 0.01
assume_isolated = 'esm'
esm_bc = 'bc1'
input_dft = 'BEEF-VDW'
nosym = .true.
nspin = 1
ntyp = 5
nat = 18
/
&ELECTRONS
electron_maxstep = 200
mixing_beta = 0.1
conv_thr = 1e-06
/
&IONS
ion_dynamics = 'bfgs'
upscale = 1.0
/
&CELL
/

K_POINTS {automatic}
10 10 2 0  0  0

ATOMIC_SPECIES
C 12.01 C.pbe-n-rrkjus_psl.1.0.0.UPF
Ga 69.72 Ga.pbe-dnl-rrkjus_psl.1.0.0.UPF
Ni 58.69 Ni.pbe-spn-rrkjus_psl.1.0.0.UPF
O 15.99 O.pbe-n-rrkjus_psl.1.0.0.UPF
Ti 47.86 Ti.pbe-spn-rrkjus_psl.1.0.0.UPF

CELL_PARAMETERS {angstrom}
5.94410000 0.00000000 0.00000000
0.00000000 5.94410000 0.00000000
0.00000000 0.00000000 24.45810000

ATOMIC_POSITIONS {angstrom}
Ti 0.00017832 5.94398112 2.20122900
Ti 2.97222832 2.97276329 2.20171816
Ti 2.97205000 0.00000000 -0.7430370800000006 0 0 0
Ti 0.00000000 2.97205000 -0.7430370800000006 0 0 0
Ga 0.00000000 0.00000000 -0.7430370800000006 0 0 0
Ga 2.97157447 5.94332727 2.30052889
Ga 5.94386224 2.97139615 2.12394140
Ga 2.97205000 2.97205000 -0.7430370800000006 0 0 0
Ni 1.48798655 1.48501450 0.80540523
Ni 4.45807500 4.45807500 -2.229111230000001 0 0 0
Ni 4.45623233 1.48495506 0.80442691
Ni 1.48602500 4.45807500 -2.229111230000001 0 0 0
Ni 4.45694562 4.45967991 0.80467149
Ni 1.48602500 1.48602500 -2.229111230000001 0 0 0
Ni 1.48650053 4.45849109 0.80418233
Ni 4.45807500 1.48602500 -2.229111230000001 0 0 0
C 0.00095106 2.97306050 4.09379678
O 0.00011888 2.97210944 5.25898066
