&CONTROL
calculation = 'relax'
prefix = 'scf'
pseudo_dir = '/vol0004/mdt0/data/hp150275/u10028/POT_KKJUS'
outdir = './data'
tprnfor = .true.
nstep = 50
disk_io = 'non'
/
&SYSTEM
ibrav = 0
ecutwfc = 50.0
ecutrho = 400
occupations = 'smearing'
smearing = 'mp'
degauss = 0.01
assume_isolated = 'esm'
esm_bc = 'bc1'
input_dft = 'BEEF-VDW'
nosym = .true.
nspin = 1
ntyp = 2
nat = 16
/
&ELECTRONS
electron_maxstep = 200
mixing_beta = 0.1
conv_thr = 1e-06
/
&IONS
ion_dynamics = 'bfgs'
upscale = 1.0
/
&CELL
/

K_POINTS {automatic}
8 11 2 0  0  0

ATOMIC_SPECIES
Ag 107.8 Ag.pbe-n-rrkjus_psl.1.0.0.UPF
Pt 195.0 Pt.pbe-n-rrkjus_psl.1.0.0.UPF

CELL_PARAMETERS {angstrom}
8.08515000 0.00000000 0.00000000
0.00000000 5.71706000 0.00000000
0.00000000 0.00000000 24.28780000

ATOMIC_POSITIONS {angstrom}
Ag 0.00000000 0.00000000 -2.143884110000002 0 0 0
Ag 0.00000000 2.85853000 0.82408505
Ag 4.04257500 0.00000000 -2.143884110000002 0 0 0
Ag 4.04257500 2.85853000 0.82408505
Pt 0.00000000 2.85853000 -2.143884110000002 0 0 0
Pt 2.02128750 4.28779500 -0.7145470799999991 0 0 0
Pt 2.02128750 1.42926500 -0.7145470799999991 0 0 0
Pt 0.00000000 0.00000000 0.72936263
Pt 2.02128750 1.36386183 2.07636402
Pt 2.02128750 4.35319817 2.07636402
Pt 4.04257500 2.85853000 -2.143884110000002 0 0 0
Pt 6.06386250 4.28779500 -0.7145470799999991 0 0 0
Pt 6.06386250 1.42926500 -0.7145470799999991 0 0 0
Pt 4.04257500 0.00000000 0.72936263
Pt 6.06386250 1.36386183 2.07636402
Pt 6.06386250 4.35319817 2.07636402
