&CONTROL
calculation = 'relax'
prefix = 'scf'
pseudo_dir = '/vol0004/mdt0/data/hp150275/u10028/POT_KKJUS'
outdir = './data'
tprnfor = .true.
nstep = 50
disk_io = 'non'
/
&SYSTEM
ibrav = 0
ecutwfc = 50.0
ecutrho = 400
occupations = 'smearing'
smearing = 'mp'
degauss = 0.01
assume_isolated = 'esm'
esm_bc = 'bc1'
input_dft = 'BEEF-VDW'
nosym = .true.
nspin = 1
ntyp = 5
nat = 34
/
&ELECTRONS
electron_maxstep = 200
mixing_beta = 0.1
conv_thr = 1e-06
/
&IONS
ion_dynamics = 'bfgs'
upscale = 1.0
/
&CELL
/

K_POINTS {automatic}
9 6 2 0  0  0

ATOMIC_SPECIES
Al 26.98 Al.pbe-nl-rrkjus_psl.1.0.0.UPF
C 12.01 C.pbe-n-rrkjus_psl.1.0.0.UPF
Li 6.941 Li.pbe-sl-rrkjus_psl.1.0.0.UPF
O 15.99 O.pbe-n-rrkjus_psl.1.0.0.UPF
Pt 195.0 Pt.pbe-n-rrkjus_psl.1.0.0.UPF

CELL_PARAMETERS {angstrom}
6.09904000 0.00000000 0.00000000
0.00000000 8.62534000 0.00000000
0.00000000 0.00000000 26.46900000

ATOMIC_POSITIONS {angstrom}
Li 0.00000000 0.00000000 -3.2345118 0 0 0
Li 3.04952000 2.15633500 -1.0780823700000006 0 0 0
Li 3.04952000 6.46900500 -1.0780823700000006 0 0 0
Li 0.00000000 4.31267000 -3.2345118 0 0 0
Li 6.09897901 4.31491259 1.09316970
Li 3.04945901 6.46917751 4.30730037
Li 3.04933703 2.15642125 4.42296990
Li 0.00000000 8.62275240 1.09290501
Al 1.52476000 0.00000000 -1.0780823700000006 0 0 0
Al 4.57428000 4.31267000 -1.0780823700000006 0 0 0
Al 4.57428000 0.00000000 -1.0780823700000006 0 0 0
Al 1.52476000 4.31267000 -1.0780823700000006 0 0 0
Al 4.57428000 6.46900500 -3.2345118 0 0 0
Al 1.52476000 2.15633500 -3.2345118 0 0 0
Al 1.52476000 6.46900500 -3.2345118 0 0 0
Al 4.57428000 2.15633500 -3.2345118 0 0 0
Al 1.55342549 4.30637350 3.24774630
Al 4.54561451 0.00655526 3.24774630
Al 4.54549253 4.30628725 3.24774630
Al 1.55336450 0.00646901 3.24774630
Al 4.48529501 2.15633500 1.18395837
Al 1.62618704 6.46900500 1.17601767
Al 1.61374499 2.15624875 1.18422306
Al 4.47279197 6.46891875 1.17575298
Pt 0.00000000 6.46900500 -1.0780823700000006 0 0 0
Pt 3.04952000 0.00000000 -3.2345118 0 0 0
Pt 0.00000000 2.15633500 -1.0780823700000006 0 0 0
Pt 3.04952000 4.31267000 -3.2345118 0 0 0
Pt 0.00000000 2.15642125 3.10984281
Pt 3.04945901 4.31077243 0.95420745
Pt 6.09891802 6.46900500 3.09343203
Pt 3.04952000 0.00172507 0.95420745
C 3.04952000 2.15624875 6.53863707
O 3.04976396 2.15616249 7.67627469
