&CONTROL
calculation = 'relax'
prefix = 'scf'
pseudo_dir = '/vol0004/mdt0/data/hp150275/u10028/POT_KKJUS'
outdir = './data'
tprnfor = .true.
nstep = 50
disk_io = 'non'
/
&SYSTEM
ibrav = 0
ecutwfc = 50.0
ecutrho = 400
occupations = 'smearing'
smearing = 'mp'
degauss = 0.01
assume_isolated = 'esm'
esm_bc = 'bc1'
input_dft = 'BEEF-VDW'
nosym = .true.
nspin = 1
ntyp = 4
nat = 33
/
&ELECTRONS
electron_maxstep = 200
mixing_beta = 0.1
conv_thr = 1e-06
/
&IONS
ion_dynamics = 'bfgs'
upscale = 1.0
/
&CELL
/

K_POINTS {automatic}
8 6 1 0 0 0

ATOMIC_SPECIES
C 12.01 C.pbe-n-rrkjus_psl.1.0.0.UPF
Nb 92.90 Nb.pbe-spn-rrkjus_psl.1.0.0.UPF
Ni 58.69 Ni.pbe-spn-rrkjus_psl.1.0.0.UPF
Sn 118.7 Sn.pbe-dn-rrkjus_psl.1.0.0.UPF

CELL_PARAMETERS {angstrom}
6.23466000 0.00000000 0.00000000
0.00000000 8.81715000 0.00000000
0.00000000 0.00000000 26.61290000

ATOMIC_POSITIONS {angstrom}
Nb 0.00000000 0.00000000 -3.306386700000001 0 0 0
Nb 3.11733000 2.20428750 -1.1020401900000003 0 0 0
Nb 3.11733000 6.61286250 -1.1020401900000003 0 0 0
Nb 0.00000000 4.40857500 -3.306386700000001 0 0 0
Nb 0.00000000 4.40857500 1.12971760
Nb 3.11733000 6.78250447 3.28749154
Nb 3.11733000 2.03464553 3.28749154
Nb 0.00000000 0.00008817 1.10257245
Ni 1.55866500 0.00000000 -1.1020401900000003 0 0 0
Ni 4.67599500 4.40857500 -1.1020401900000003 0 0 0
Ni 4.67599500 0.00000000 -1.1020401900000003 0 0 0
Ni 1.55866500 4.40857500 -1.1020401900000003 0 0 0
Ni 4.67599500 6.61286250 -3.306386700000001 0 0 0
Ni 1.55866500 2.20428750 -3.306386700000001 0 0 0
Ni 1.55866500 6.61286250 -3.306386700000001 0 0 0
Ni 4.67599500 2.20428750 -3.306386700000001 0 0 0
Ni 1.72269890 4.40857500 3.19195123
Ni 4.93666613 0.00000000 3.24145122
Ni 4.51189875 4.40848683 3.19195123
Ni 1.29805621 0.00000000 3.24145122
Ni 4.68279078 2.21804225 1.17389502
Ni 1.55155749 6.59928409 1.17416115
Ni 1.55180687 2.21795408 1.17389502
Ni 4.68304017 6.59910775 1.17416115
Sn 0.00000000 6.61286250 -1.1020401900000003 0 0 0
Sn 3.11733000 0.00000000 -3.306386700000001 0 0 0
Sn 0.00000000 2.20428750 -1.1020401900000003 0 0 0
Sn 3.11733000 4.40857500 -3.306386700000001 0 0 0
Sn 0.00000000 2.33725012 3.54829796
Sn 3.11733000 4.40866317 1.04162891
Sn 0.00000000 6.47981171 3.54856409
Sn 3.11733000 0.00000000 1.03364504
C 3.11733000 0.00000000 3.86898340
