&CONTROL
calculation = 'relax'
prefix = 'scf'
pseudo_dir = '/vol0403/data/hp230205/u10028/POT_HYBRID_KKJUS_GBRV'
outdir = './data'
tprnfor = .true.
nstep = 50
disk_io = 'non'
/
&SYSTEM
ibrav = 0
ecutwfc = 50.0
ecutrho = 400
occupations = 'smearing'
smearing = 'mp'
degauss = 0.01
assume_isolated = 'esm'
esm_bc = 'bc1'
input_dft = 'BEEF-VDW'
nosym = .true.
nspin = 1
ntyp = 6
nat = 18
/
&ELECTRONS
electron_maxstep = 200
mixing_beta = 0.1
conv_thr = 1e-06
/
&IONS
ion_dynamics = 'bfgs'
upscale = 1.0
/
&CELL
/

K_POINTS {automatic}
8 10 2 0  0  0

ATOMIC_SPECIES
C 12.01 C.pbe-n-rrkjus_psl.1.0.0.UPF
In 114.8 In.pbe-dn-rrkjus_psl.1.0.0.UPF
O 15.99 O.pbe-n-rrkjus_psl.1.0.0.UPF
Pd 106.4 Pd.pbe-n-rrkjus_psl.1.0.0.UPF
Sn 118.7 Sn.pbe-dn-rrkjus_psl.1.0.0.UPF
Y 88.90 Y.pbe-spn-rrkjus_psl.1.0.0.UPF


CELL_PARAMETERS {angstrom}
8.73372000 0.00000000 0.00000000
0.00000000 6.44465000 0.00000000
0.00000000 0.00000000 24.83320000

ATOMIC_POSITIONS {angstrom}
Y 0.00148473 3.11901726 2.39988045
Y 0.00000000 6.40926887 -0.805589010000002 0 0 0
Y 4.36703467 2.91214400 2.29533268
Y 4.36686000 6.40926887 -0.805589010000002 0 0 0
In 8.73240994 6.41925808 2.75499521
In 0.00000000 3.18694387 -0.805589010000002 0 0 0
In 4.36782071 6.26039746 2.88611450
In 4.36686000 3.18694387 -0.805589010000002 0 0 0
Sn 2.20212016 4.90843878 1.02089285
Sn 2.18343000 1.55805858 -2.41651869 0 0 0
Sn 6.53072647 4.90624760 1.01989952
Sn 6.55029000 1.55805858 -2.41651869 0 0 0
Pd 2.17565699 1.51893956 0.80484401
Pd 2.18343000 4.78038358 -2.41651869 0 0 0
Pd 6.55710230 1.51893956 0.80484401
Pd 6.55029000 4.78038358 -2.41651869 0 0 0
C 0.00419219 2.66434720 4.84992396
O 0.00576426 2.39334967 5.96816296
