&CONTROL
calculation = 'relax'
prefix = 'scf'
pseudo_dir = '/vol0004/mdt0/data/hp150275/u10028/POT_KKJUS'
outdir = './data'
tprnfor = .true.
nstep = 50
disk_io = 'non'
/
&SYSTEM
ibrav = 0
ecutwfc = 50.0
ecutrho = 400
occupations = 'smearing'
smearing = 'mp'
degauss = 0.01
assume_isolated = 'esm'
esm_bc = 'bc1'
input_dft = 'BEEF-VDW'
nosym = .true.
nspin = 1
ntyp = 4
nat = 17
/
&ELECTRONS
electron_maxstep = 200
mixing_beta = 0.1
conv_thr = 1e-06
/
&IONS
ion_dynamics = 'bfgs'
upscale = 1.0
/
&CELL
/

K_POINTS {automatic}
10 10 2 0  0  0

ATOMIC_SPECIES
C 12.01 C.pbe-n-rrkjus_psl.1.0.0.UPF
Ge 72.64 Ge.pbe-dn-rrkjus_psl.1.0.0.UPF
Li 6.941 Li.pbe-sl-rrkjus_psl.1.0.0.UPF
Zn 65.40 Zn.pbe-dnl-rrkjus_psl.1.0.0.UPF

CELL_PARAMETERS {angstrom}
6.18893000 0.00000000 0.00000000
0.00000000 6.18893000 0.00000000
0.00000000 0.00000000 24.64170000

ATOMIC_POSITIONS {angstrom}
Li 0.01076874 0.01064496 2.92299845
Li 3.07596010 3.07608388 2.95158283
Li 3.09446500 0.00000000 -0.7735029600000018 0 0 0
Li 0.00000000 3.09446500 -0.7735029600000018 0 0 0
Li 1.54723250 1.54723250 -2.320755309999999 0 0 0
Li 1.55348332 4.63637502 0.95806930
Li 4.64169750 4.64169750 -2.320755309999999 0 0 0
Li 4.63637502 1.55348332 0.95806930
Zn 1.54648983 1.54648983 0.74146875
Zn 1.54723250 4.64169750 -2.320755309999999 0 0 0
Zn 4.64343040 4.64343040 0.77374938
Zn 4.64169750 1.54723250 -2.320755309999999 0 0 0
Ge 0.00000000 0.00000000 -0.7735029600000018 0 0 0
Ge 2.90093716 0.19037149 2.86237987
Ge 0.19092849 2.90143227 2.86237987
Ge 3.09446500 3.09446500 -0.7735029600000018 0 0 0
C 1.54116735 1.54116735 2.88800724
