&CONTROL
calculation = 'relax'
prefix = 'scf'
pseudo_dir = '/vol0004/mdt0/data/hp150275/u10028/POT_KKJUS'
outdir = './data'
tprnfor = .true.
nstep = 50
disk_io = 'non'
/
&SYSTEM
ibrav = 0
ecutwfc = 50.0
ecutrho = 400
occupations = 'smearing'
smearing = 'mp'
degauss = 0.01
assume_isolated = 'esm'
esm_bc = 'bc1'
input_dft = 'BEEF-VDW'
nosym = .true.
nspin = 1
ntyp = 3
nat = 33
/
&ELECTRONS
electron_maxstep = 200
mixing_beta = 0.1
conv_thr = 1e-06
/
&IONS
ion_dynamics = 'bfgs'
upscale = 1.0
/
&CELL
/

K_POINTS {automatic}
9 6 2 0  0  0

ATOMIC_SPECIES
C 12.01 C.pbe-n-rrkjus_psl.1.0.0.UPF
Ni 58.69 Ni.pbe-spn-rrkjus_psl.1.0.0.UPF
Sn 118.7 Sn.pbe-dn-rrkjus_psl.1.0.0.UPF

CELL_PARAMETERS {angstrom}
6.01786000 0.00000000 0.00000000
0.00000000 8.51054000 0.00000000
0.00000000 0.00000000 26.38290000

ATOMIC_POSITIONS {angstrom}
Ni 1.50446500 0.00000000 -1.0637585299999976 0 0 0
Ni 4.51339500 4.25527000 -1.0637585299999976 0 0 0
Ni 4.51339500 0.00000000 -1.0637585299999976 0 0 0
Ni 1.50446500 4.25527000 -1.0637585299999976 0 0 0
Ni 4.51339500 6.38290500 -3.1915394100000007 0 0 0
Ni 1.50446500 2.12763500 -3.1915394100000007 0 0 0
Ni 1.50446500 6.38290500 -3.1915394100000007 0 0 0
Ni 4.51339500 2.12763500 -3.1915394100000007 0 0 0
Ni 0.00000000 6.38290500 -1.0637585299999976 0 0 0
Ni 3.00893000 0.00000000 -3.1915394100000007 0 0 0
Ni 0.00000000 2.12763500 -1.0637585299999976 0 0 0
Ni 3.00893000 4.25527000 -3.1915394100000007 0 0 0
Ni 1.32423009 4.25527000 3.11212688
Ni 4.28814650 0.00000000 3.11555666
Ni 4.69356973 4.25527000 3.11212688
Ni 1.72971350 0.00000000 3.11555666
Ni 4.48204195 2.12031594 1.11467753
Ni 1.53587823 6.39013896 1.11441370
Ni 1.53587823 2.12023083 1.11494135
Ni 4.48204195 6.39022406 1.11467753
Ni 0.00000000 1.86389337 3.20974361
Ni 3.00886982 4.25544021 1.08380953
Ni 0.00000000 6.64673174 3.20974361
Ni 3.00893000 8.51036979 0.98830343
Sn 0.00000000 0.00000000 -3.1915394100000007 0 0 0
Sn 3.00893000 2.12763500 -1.0637585299999976 0 0 0
Sn 3.00893000 6.38290500 -1.0637585299999976 0 0 0
Sn 0.00000000 4.25527000 -3.1915394100000007 0 0 0
Sn 0.00000000 4.25535511 0.96798860
Sn 3.00893000 6.22954507 3.35247510
Sn 3.00893000 2.28090983 3.35273893
Sn 6.01773964 8.51045489 0.98962258
C 0.00000000 0.00000000 3.64506146
