&CONTROL
calculation = 'relax'
prefix = 'scf'
pseudo_dir = '/vol0004/mdt0/data/hp150275/u10028/POT_KKJUS'
outdir = './data'
tprnfor = .true.
nstep = 50
disk_io = 'non'
/
&SYSTEM
ibrav = 0
ecutwfc = 50.0
ecutrho = 400
occupations = 'smearing'
smearing = 'mp'
degauss = 0.01
assume_isolated = 'esm'
esm_bc = 'bc1'
input_dft = 'BEEF-VDW'
nosym = .true.
nspin = 1
ntyp = 3
nat = 18
/
&ELECTRONS
electron_maxstep = 200
mixing_beta = 0.1
conv_thr = 1e-06
/
&IONS
ion_dynamics = 'bfgs'
upscale = 1.0
/
&CELL
/

K_POINTS {automatic}
9 9 2 0  0  0

ATOMIC_SPECIES
C 12.01 C.pbe-n-rrkjus_psl.1.0.0.UPF
Na 22.98 Na.pbe-spnl-rrkjus_psl.1.0.0.UPF
O 15.99 O.pbe-n-rrkjus_psl.1.0.0.UPF

CELL_PARAMETERS {angstrom}
8.32816000 0.00000000 0.00000000
-0.00000000 8.32816000 0.00000000
0.00000000 0.00000000 26.24610000

ATOMIC_POSITIONS {angstrom}
Na 0.00000000 0.00000000 -3.123023439999997 0 0 0
Na 2.08204000 2.08204000 -1.0409203299999987 0 0 0
Na 0.00000000 0.00000000 1.04092033
Na 2.08204000 2.08204000 3.12302344
Na 0.00000000 4.16408000 -3.123023439999997 0 0 0
Na 2.08204000 6.24612000 -1.0409203299999987 0 0 0
Na 0.00000000 4.16408000 1.04092033
Na 2.08204000 6.24612000 3.12302344
Na 4.16408000 0.00000000 -3.123023439999997 0 0 0
Na 6.24612000 2.08204000 -1.0409203299999987 0 0 0
Na 4.16408000 -0.00000000 1.04092033
Na 6.24612000 2.08204000 3.12302344
Na 4.16408000 4.16408000 -3.123023439999997 0 0 0
Na 6.24612000 6.24612000 -1.0409203299999987 0 0 0
Na 4.16408000 4.16408000 1.04092033
Na 6.24612000 6.24612000 3.12302344
C 2.08204000 2.08204000 5.02297862
O 2.08204000 2.08204000 6.17308272
