&CONTROL
calculation = 'relax'
prefix = 'scf'
pseudo_dir = '/vol0004/mdt0/data/hp150275/u10028/POT_KKJUS'
outdir = './data'
tprnfor = .true.
nstep = 50
disk_io = 'non'
/
&SYSTEM
ibrav = 0
ecutwfc = 50.0
ecutrho = 400
occupations = 'smearing'
smearing = 'mp'
degauss = 0.01
assume_isolated = 'esm'
esm_bc = 'bc1'
input_dft = 'BEEF-VDW'
nosym = .true.
nspin = 1
ntyp = 3
nat = 33
/
&ELECTRONS
electron_maxstep = 200
mixing_beta = 0.1
conv_thr = 1e-06
/
&IONS
ion_dynamics = 'bfgs'
upscale = 1.0
/
&CELL
/

K_POINTS {automatic}
9 6 2 0  0  0

ATOMIC_SPECIES
C 12.01 C.pbe-n-rrkjus_psl.1.0.0.UPF
Ir 192.2 Ir.pbe-n-rrkjus_psl.0.2.3.UPF
Sc 44.95 Sc.pbe-spn-rrkjus_psl.1.0.0.UPF

CELL_PARAMETERS {angstrom}
6.46830000 0.00000000 0.00000000
0.00000000 9.14755000 0.00000000
0.00000000 0.00000000 26.86070000

ATOMIC_POSITIONS {angstrom}
Sc 1.61707500 2.28688750 -3.430380000000003 0 0 0
Sc 1.61707500 0.00000000 -1.143460000000001 0 0 0
Sc 1.61707500 2.28688750 1.25869240
Sc 1.61707500 9.06696008 3.56146021
Sc 1.61707500 6.86066250 -3.430380000000003 0 0 0
Sc 1.61707500 4.57377500 -1.143460000000001 0 0 0
Sc 1.61707500 6.86066250 1.16065085
Sc 1.61707500 4.65436492 3.56146021
Sc 4.85122500 2.28688750 -3.430380000000003 0 0 0
Sc 4.85122500 0.00000000 -1.143460000000001 0 0 0
Sc 4.85122500 2.28688750 1.11364462
Sc 4.85122500 9.01527643 3.58509763
Sc 4.85122500 6.86066250 -3.430380000000003 0 0 0
Sc 4.85122500 4.57377500 -1.143460000000001 0 0 0
Sc 4.85122500 6.86066250 1.17434980
Sc 4.85122500 4.70604857 3.58509763
Ir 0.00000000 0.00000000 -3.430380000000003 0 0 0
Ir 0.00000000 2.28688750 -1.143460000000001 0 0 0
Ir 6.46312536 0.01234919 1.22538513
Ir 6.22942568 2.28688750 3.46234423
Ir 0.00000000 4.57377500 -3.430380000000003 0 0 0
Ir 0.00000000 6.86066250 -1.143460000000001 0 0 0
Ir 6.46312536 4.56142581 1.22538513
Ir 0.02813711 6.86066250 3.32669770
Ir 3.23415000 0.00000000 -3.430380000000003 0 0 0
Ir 3.23415000 2.28688750 -1.143460000000001 0 0 0
Ir 3.23932464 0.01234919 1.22538513
Ir 3.47302432 2.28688750 3.46234423
Ir 3.23415000 4.57377500 -3.430380000000003 0 0 0
Ir 3.23415000 6.86066250 -1.143460000000001 0 0 0
Ir 3.23932464 4.56142581 1.22538513
Ir 3.20601289 6.86066250 3.32669770
C 1.61707500 2.28688750 3.83275328
