&CONTROL
calculation = 'relax'
prefix = 'scf'
pseudo_dir = '/vol0403/data/hp230205/u10028/POT_HYBRID_KKJUS_GBRV'
outdir = './data'
tprnfor = .true.
nstep = 50
disk_io = 'non'
/
&SYSTEM
ibrav = 0
ecutwfc = 50.0
ecutrho = 400
occupations = 'smearing'
smearing = 'mp'
degauss = 0.01
assume_isolated = 'esm'
esm_bc = 'bc1'
input_dft = 'BEEF-VDW'
nosym = .true.
nspin = 1
ntyp = 5
nat = 33
/
&ELECTRONS
electron_maxstep = 200
mixing_beta = 0.1
conv_thr = 1e-06
/
&IONS
ion_dynamics = 'bfgs'
upscale = 1.0
/
&CELL
/

K_POINTS {automatic}
6 6 1 0 0 0

ATOMIC_SPECIES
Al 26.98 Al.pbe-nl-rrkjus_psl.1.0.0.UPF
C 12.01 C.pbe-n-rrkjus_psl.1.0.0.UPF
Li 6.941 Li.pbe-sl-rrkjus_psl.1.0.0.UPF
Mg 24.30 Mg.pbe-spnl-rrkjus_psl.1.0.0.UPF
Pd 106.4 Pd.pbe-n-rrkjus_psl.1.0.0.UPF


CELL_PARAMETERS {angstrom}
6.28130000 0.00000000 0.00000000
0.00000000 8.88310000 0.00000000
0.00000000 0.00000000 26.66230000

ATOMIC_POSITIONS {angstrom}
Li 1.57032500 0.00000000 -1.1104847899999974 0 0 0
Li 1.57032500 4.44155000 -1.1104847899999974 0 0 0
Li 4.71097500 2.22077500 -3.331187759999999 0 0 0
Li 4.71097500 6.66232500 -3.331187759999999 0 0 0
Li 1.82434077 4.64346286 3.78844621
Li 1.82446640 8.68118714 3.78817958
Li 4.77397644 6.66232500 1.02756504
Li 4.81618678 2.22077500 1.30458634
Mg 0.00000000 2.22077500 -1.1104847899999974 0 0 0
Mg 0.00000000 6.66232500 -1.1104847899999974 0 0 0
Mg 3.14065000 4.44155000 -3.331187759999999 0 0 0
Mg 3.14065000 0.00000000 -3.331187759999999 0 0 0
Mg 6.19022115 6.66241383 3.35758344
Mg 0.33617518 2.22068617 3.57674754
Mg 3.13386620 8.87572703 1.10355260
Mg 3.13386620 4.44883414 1.10328597
Al 0.00000000 0.00000000 -3.331187759999999 0 0 0
Al 0.00000000 4.44155000 -3.331187759999999 0 0 0
Al 3.14065000 6.66232500 -1.1104847899999974 0 0 0
Al 3.14065000 2.22077500 -1.1104847899999974 0 0 0
Al 0.04585349 4.45647361 1.18220638
Al 0.04585349 8.86817639 1.18220638
Al 2.88789049 2.22077500 3.17361357
Al 3.39290701 6.66232500 3.19867613
Pd 4.71097500 0.00000000 -1.1104847899999974 0 0 0
Pd 4.71097500 4.44155000 -1.1104847899999974 0 0 0
Pd 1.57032500 2.22077500 -3.331187759999999 0 0 0
Pd 1.57032500 6.66232500 -3.331187759999999 0 0 0
Pd 4.70726903 4.31398868 3.21334040
Pd 4.70726903 0.12756132 3.21334040
Pd 1.57208376 6.66232500 1.12141634
Pd 1.54105414 2.22077500 1.01823324
C 4.62693121 2.22077500 3.83883795
