&CONTROL
calculation = 'relax'
prefix = 'scf'
pseudo_dir = '/vol0004/mdt0/data/hp150275/u10028/POT_KKJUS'
outdir = './data'
tprnfor = .true.
nstep = 50
disk_io = 'non'
/
&SYSTEM
ibrav = 0
ecutwfc = 50.0
ecutrho = 400
occupations = 'smearing'
smearing = 'mp'
degauss = 0.01
assume_isolated = 'esm'
esm_bc = 'bc1'
input_dft = 'BEEF-VDW'
nosym = .true.
nspin = 1
ntyp = 3
nat = 33
/
&ELECTRONS
electron_maxstep = 200
mixing_beta = 0.1
conv_thr = 1e-06
/
&IONS
ion_dynamics = 'bfgs'
upscale = 1.0
/
&CELL
/

K_POINTS {automatic}
8 6 1 0 0 0

ATOMIC_SPECIES
C 12.01 C.pbe-n-rrkjus_psl.1.0.0.UPF
Li 6.941 Li.pbe-sl-rrkjus_psl.1.0.0.UPF
Pd 106.4 Pd.pbe-n-rrkjus_psl.1.0.0.UPF

CELL_PARAMETERS {angstrom}
6.21964000 0.00000000 0.00000000
0.00000000 8.79589000 0.00000000
0.00000000 0.00000000 26.59690000

ATOMIC_POSITIONS {angstrom}
Li 1.55491000 0.00000000 -1.099515850000003 0 0 0
Li 4.66473000 4.39794500 -1.099515850000003 0 0 0
Li 4.66473000 0.00000000 -1.099515850000003 0 0 0
Li 1.55491000 4.39794500 -1.099515850000003 0 0 0
Li 4.66473000 6.59691750 -3.2985475400000013 0 0 0
Li 1.55491000 2.19897250 -3.2985475400000013 0 0 0
Li 1.55491000 6.59691750 -3.2985475400000013 0 0 0
Li 4.66473000 2.19897250 -3.2985475400000013 0 0 0
Li 0.00000000 6.59691750 -1.099515850000003 0 0 0
Li 3.10982000 0.00000000 -3.2985475400000013 0 0 0
Li 0.00000000 2.19897250 -1.099515850000003 0 0 0
Li 3.10982000 4.39794500 -3.2985475400000013 0 0 0
Li 1.67376732 4.26583073 3.61265693
Li 4.53741397 8.59815839 3.56637832
Li 4.53741397 4.59567661 3.56637832
Li 1.67376732 0.13202631 3.61265693
Li 4.79658637 2.19897250 0.95323290
Li 1.57045910 6.59691750 0.95589259
Li 1.38337233 2.19897250 1.38968803
Li 4.61372895 6.59691750 1.06414197
Li 6.09947656 2.19897250 3.87250864
Li 3.11087734 4.31429609 1.22425531
Li 0.18490990 6.59691750 3.04880265
Li 3.11087734 0.08364891 1.22425531
Pd 0.00000000 0.00000000 -3.2985475400000013 0 0 0
Pd 3.10982000 2.19897250 -1.099515850000003 0 0 0
Pd 3.10982000 6.59691750 -1.099515850000003 0 0 0
Pd 0.00000000 4.39794500 -3.2985475400000013 0 0 0
Pd 6.15818996 4.47015926 1.26840616
Pd 2.95401802 6.59691750 3.04933459
Pd 3.63394906 2.19897250 3.07672939
Pd 6.15818996 8.72367574 1.26840616
C 1.80319803 2.19888454 3.50626933
