&CONTROL
calculation = 'relax'
prefix = 'scf'
pseudo_dir = '/vol0403/data/hp230205/u10028/POT_HYBRID_KKJUS_GBRV'
outdir = './data'
tprnfor = .true.
nstep = 70
disk_io = 'non'
/
&SYSTEM
ibrav = 0
ecutwfc = 50.0
ecutrho = 400
occupations = 'smearing'
smearing = 'mp'
degauss = 0.01
assume_isolated = 'esm'
esm_bc = 'bc1'
input_dft = 'BEEF-VDW'
nosym = .true.
nspin = 1
ntyp = 6
nat = 34
/
&ELECTRONS
electron_maxstep = 200
mixing_beta = 0.1
conv_thr = 1e-06
/
&IONS
ion_dynamics = 'bfgs'
upscale = 1.0
/
&CELL
/

K_POINTS {automatic}
6 6 1 0 0 0

ATOMIC_SPECIES
C 12.01 C.pbe-n-rrkjus_psl.1.0.0.UPF
In 114.8 In.pbe-dn-rrkjus_psl.1.0.0.UPF
Li 6.941 Li.pbe-sl-rrkjus_psl.1.0.0.UPF
O 15.99 O.pbe-n-rrkjus_psl.1.0.0.UPF
Pd 106.4 Pd.pbe-n-rrkjus_psl.1.0.0.UPF
Pt 195.0 Pt.pbe-n-rrkjus_psl.1.0.0.UPF


CELL_PARAMETERS {angstrom}
6.39502000 0.00000000 0.00000000
-0.00000000 9.04392000 0.00000000
0.00000000 0.00000000 26.78290000

ATOMIC_POSITIONS {angstrom}
Li 0.00000000 2.26098000 -1.13050621 0 0 0
Li 0.00000000 6.78294000 -1.13050621 0 0 0
Li 3.19751000 4.52196000 -3.39151863 0 0 0
Li 3.19751000 0.00000000 -3.39151863 0 0 0
Li 0.02890549 6.78294000 3.51418431
Li 0.03069610 2.26098000 3.57176754
Li 3.19341719 0.00732558 1.07506561
Li 3.19341719 4.51454399 1.07506561
In 0.00000000 0.00000000 -3.39151863 0 0 0
In 0.00000000 4.52196000 -3.39151863 0 0 0
In 3.19751000 6.78294000 -1.13050621 0 0 0
In 3.19751000 2.26098000 -1.13050621 0 0 0
In 6.38561932 4.53009953 1.10104502
In 6.38561932 9.03578047 1.10104502
In 3.18113875 2.26098000 3.58301636
In 3.18190615 6.78294000 3.64756315
Pd 4.79626500 0.00000000 -1.13050621 0 0 0
Pd 4.79626500 4.52196000 -1.13050621 0 0 0
Pd 1.59875500 2.26098000 -3.39151863 0 0 0
Pd 1.59875500 6.78294000 -3.39151863 0 0 0
Pd 4.70213031 4.53480237 3.23778478
Pd 4.70219426 9.03107763 3.23778478
Pd 1.63188120 6.78294000 1.16211003
Pd 1.60431867 2.26098000 1.15434299
Pt 1.59875500 0.00000000 -1.13050621 0 0 0
Pt 1.59875500 4.52196000 -1.13050621 0 0 0
Pt 4.79626500 2.26098000 -3.39151863 0 0 0
Pt 4.79626500 6.78294000 -3.39151863 0 0 0
Pt 1.70101137 4.53588764 3.20484181
Pt 1.70107532 9.02999236 3.20484181
Pt 4.75482527 6.78294000 1.19505300
Pt 4.77407428 2.26098000 1.18862510
C 6.39195039 2.26098000 5.71091777
O 6.39335729 2.26098000 6.84919102
