&CONTROL
calculation = 'relax'
prefix = 'scf'
pseudo_dir = '/vol0004/mdt0/data/hp150275/u10028/POT_HYBRID_KKJUS_GBRV'
outdir = './data'
tprnfor = .true.
nstep = 50
disk_io = 'non'
/
&SYSTEM
ibrav = 0
ecutwfc = 50.0
ecutrho = 400
occupations = 'smearing'
smearing = 'mp'
degauss = 0.01
assume_isolated = 'esm'
esm_bc = 'bc1'
input_dft = 'BEEF-VDW'
nosym = .true.
nspin = 2
ntyp = 4
nat = 34
starting_magnetization(1) = 0.1
starting_magnetization(2) = 0.1
starting_magnetization(3) = 0.1
starting_magnetization(4) = 0.1
/
&ELECTRONS
electron_maxstep = 200
mixing_beta = 0.1
conv_thr = 1e-06
/
&IONS
ion_dynamics = 'bfgs'
upscale = 1.0
/
&CELL
/

K_POINTS {automatic}
9 6 2 0  0  0

ATOMIC_SPECIES
C 12.01 C.pbe-n-rrkjus_psl.1.0.0.UPF
Co 58.93 co_pbe_v1.2.uspp.F.UPF
O 15.99 O.pbe-n-rrkjus_psl.1.0.0.UPF
Si 28.08 Si.pbe-nl-rrkjus_psl.1.0.0.UPF

CELL_PARAMETERS {angstrom}
5.56276000 0.00000000 0.00000000
0.00000000 7.86693000 0.00000000
0.00000000 0.00000000 25.90020000

ATOMIC_POSITIONS {angstrom}
Co 0.00000000 0.00000000 -2.950032780000001 0 0 0
Co 0.00000000 1.96673250 -0.9834305900000011 0 0 0
Co 5.54774055 0.00000000 0.90210397
Co 0.01251621 1.94234502 2.83063286
Co 0.00000000 3.93346500 -2.950032780000001 0 0 0
Co 0.00000000 5.90019750 -0.9834305900000011 0 0 0
Co 0.00066753 3.93346500 0.94432129
Co 0.01251621 5.92458498 2.83063286
Co 2.78138000 0.00000000 -2.950032780000001 0 0 0
Co 2.78138000 1.96673250 -0.9834305900000011 0 0 0
Co 2.79639945 0.00000000 0.90236297
Co 2.76886379 1.94234502 2.83063286
Co 2.78138000 3.93346500 -2.950032780000001 0 0 0
Co 2.78138000 5.90019750 -0.9834305900000011 0 0 0
Co 2.78071247 3.93346500 0.94432129
Co 2.76886379 5.92466365 2.83063286
Si 1.39069000 1.96673250 -2.950032780000001 0 0 0
Si 1.39069000 0.00000000 -0.9834305900000011 0 0 0
Si 1.39069000 1.95800021 0.99560369
Si 1.39069000 3.93346500 3.07202272
Si 1.39069000 5.90019750 -2.950032780000001 0 0 0
Si 1.39069000 3.93346500 -0.9834305900000011 0 0 0
Si 1.39069000 5.90892979 0.99560369
Si 1.39069000 0.00000000 3.32972971
Si 4.17207000 1.96673250 -2.950032780000001 0 0 0
Si 4.17207000 0.00000000 -0.9834305900000011 0 0 0
Si 4.17207000 1.96492311 1.00466876
Si 4.17207000 3.93346500 3.04223749
Si 4.17207000 5.90019750 -2.950032780000001 0 0 0
Si 4.17207000 3.93346500 -0.9834305900000011 0 0 0
Si 4.17207000 5.90200689 1.00466876
Si 4.17207000 0.00000000 3.06684268
C 1.39069000 0.00000000 5.22432934
O 1.39069000 0.00000000 6.37637024
