&CONTROL
calculation = 'relax'
prefix = 'scf'
pseudo_dir = '/vol0004/mdt0/data/hp150275/u10028/POT_HYBRID_KKJUS_GBRV'
outdir = './data'
tprnfor = .true.
nstep = 50
disk_io = 'non'
/
&SYSTEM
ibrav = 0
ecutwfc = 50.0
ecutrho = 400
occupations = 'smearing'
smearing = 'mp'
degauss = 0.01
assume_isolated = 'esm'
esm_bc = 'bc1'
input_dft = 'BEEF-VDW'
nosym = .true.
nspin = 2
ntyp = 3
nat = 33
starting_magnetization(1) = 0.0
starting_magnetization(2) = 0.001
starting_magnetization(3) = 0.0
/
&ELECTRONS
electron_maxstep = 200
mixing_beta = 0.1
conv_thr = 1e-06
/
&IONS
ion_dynamics = 'bfgs'
upscale = 1.0
/
&CELL
/

K_POINTS {automatic}
9 6 2 0  0  0

ATOMIC_SPECIES
C 12.01 C.pbe-n-rrkjus_psl.1.0.0.UPF
Ni 58.69 ni_pbe_v1.4.uspp.F.UPF
Sn 118.7 Sn.pbe-dn-rrkjus_psl.1.0.0.UPF

CELL_PARAMETERS {angstrom}
5.96895000 0.00000000 0.00000000
0.00000000 8.44136000 0.00000000
0.00000000 0.00000000 26.33100000

ATOMIC_POSITIONS {angstrom}
Ni 1.49223750 0.00000000 25.27591683
Ni 4.47671250 4.22068000 25.27591683
Ni 4.47671250 0.00000000 25.27591683
Ni 1.49223750 4.22068000 25.27591683
Ni 4.47671250 6.33102000 23.16548718
Ni 1.49223750 2.11034000 23.16548718
Ni 1.49223750 6.33102000 23.16548718
Ni 4.47671250 2.11034000 23.16548718
Ni 0.00000000 6.33102000 25.27591683
Ni 2.98447500 0.00000000 23.16548718
Ni 0.00000000 2.11034000 25.27591683
Ni 2.98447500 4.22068000 23.16548718
Ni 1.69900193 3.94279043 3.11574723
Ni 4.36748072 8.41645799 3.02095563
Ni 4.36616755 4.24811442 3.02042901
Ni 1.70037479 0.28160377 3.11732709
Ni 4.21986858 2.10713228 1.22044185
Ni 1.50644360 6.33093559 1.01084709
Ni 1.67530520 2.10932704 1.30917732
Ni 4.42340978 6.33152648 1.12249053
Ni 5.78576292 2.11109972 3.04807656
Ni 2.96203175 4.26668541 0.96582108
Ni 0.10594886 6.32595518 3.01542612
Ni 2.96215113 8.39349749 0.96792756
Sn 0.00000000 0.00000000 23.16548718
Sn 2.98447500 2.11034000 25.27591683
Sn 2.98447500 6.33102000 25.27591683
Sn 0.00000000 4.22068000 23.16548718
Sn 0.00471547 4.17247983 1.04323422
Sn 2.87775017 6.33253944 3.31902255
Sn 3.60870779 2.10949586 4.41360222
Sn 0.00578988 0.04625865 1.04349753
C 1.59681350 2.11236593 3.24529575
