&CONTROL
calculation = 'relax'
prefix = 'scf'
pseudo_dir = '/vol0403/data/hp230205/u10028/POT_HYBRID_KKJUS_GBRV'
outdir = './data'
tprnfor = .true.
nstep = 70
disk_io = 'non'
/
&SYSTEM
ibrav = 0
ecutwfc = 50.0
ecutrho = 400
occupations = 'smearing'
smearing = 'mp'
degauss = 0.01
assume_isolated = 'esm'
esm_bc = 'bc1'
input_dft = 'BEEF-VDW'
nosym = .true.
nspin = 1
ntyp = 5
nat = 33
/
&ELECTRONS
electron_maxstep = 200
mixing_beta = 0.1
conv_thr = 1e-06
/
&IONS
ion_dynamics = 'bfgs'
upscale = 1.0
/
&CELL
/

K_POINTS {automatic}
9 6 2 0  0  0

ATOMIC_SPECIES
Al 26.98 Al.pbe-nl-rrkjus_psl.1.0.0.UPF
C 12.01 C.pbe-n-rrkjus_psl.1.0.0.UPF
Cu 63.54 Cu.pbe-dn-rrkjus_psl.1.0.0.UPF
Pd 106.4 Pd.pbe-n-rrkjus_psl.1.0.0.UPF
Sc 44.95 Sc.pbe-spn-rrkjus_psl.1.0.0.UPF


CELL_PARAMETERS {angstrom}
6.32596000 0.00000000 0.00000000
-0.00000000 8.94626000 0.00000000
0.00000000 0.00000000 26.70970000

ATOMIC_POSITIONS {angstrom}
Sc 0.00000000 2.23656500 -1.1183351400000028 0 0 0
Sc 0.00000000 6.70969500 -1.1183351400000028 0 0 0
Sc 3.16298000 4.47313000 -3.3547383200000027 0 0 0
Sc 3.16298000 0.00000000 -3.3547383200000027 0 0 0
Sc 6.30268047 6.81633442 3.41857450
Sc 6.30268047 2.12992558 3.41857450
Sc 3.19581173 -0.00000000 1.22704362
Sc 3.14944245 4.47313000 1.07506543
Al 0.00000000 0.00000000 -3.3547383200000027 0 0 0
Al 0.00000000 4.47313000 -3.3547383200000027 0 0 0
Al 3.16298000 6.70969500 -1.1183351400000028 0 0 0
Al 3.16298000 2.23656500 -1.1183351400000028 0 0 0
Al 0.02049611 4.47313000 1.15946808
Al 0.02043285 0.00000000 1.19285520
Al 3.13780268 2.30902971 3.27354083
Al 3.13780268 6.63723029 3.27354083
Cu 4.74447000 0.00000000 -1.1183351400000028 0 0 0
Cu 4.74447000 4.47313000 -1.1183351400000028 0 0 0
Cu 1.58149000 2.23656500 -3.3547383200000027 0 0 0
Cu 1.58149000 6.70969500 -3.3547383200000027 0 0 0
Cu 4.65919606 4.47313000 3.24122210
Cu 4.38629414 -0.00000000 3.79411289
Cu 1.53935911 6.68437708 1.08895447
Cu 1.53942237 2.26188292 1.08895447
Pd 1.58149000 0.00000000 -1.1183351400000028 0 0 0
Pd 1.58149000 4.47313000 -1.1183351400000028 0 0 0
Pd 4.74447000 2.23656500 -3.3547383200000027 0 0 0
Pd 4.74447000 6.70969500 -3.3547383200000027 0 0 0
Pd 1.65525069 4.47313000 3.23401048
Pd 1.94219624 -0.00000000 3.55372559
Pd 4.77812411 6.64957613 1.07933898
Pd 4.77806085 2.29668387 1.07960607
C 6.20437505 -0.00000000 3.25083759
