&CONTROL
calculation = 'relax'
prefix = 'scf'
pseudo_dir = '/vol0004/mdt0/data/hp150275/u10028/POT_KKJUS'
outdir = './data'
tprnfor = .true.
nstep = 50
disk_io = 'non'
/
&SYSTEM
ibrav = 0
ecutwfc = 50.0
ecutrho = 400
occupations = 'smearing'
smearing = 'mp'
degauss = 0.01
assume_isolated = 'esm'
esm_bc = 'bc1'
input_dft = 'BEEF-VDW'
nosym = .true.
nspin = 1
ntyp = 4
nat = 34
/
&ELECTRONS
electron_maxstep = 200
mixing_beta = 0.1
conv_thr = 1e-06
/
&IONS
ion_dynamics = 'bfgs'
upscale = 1.0
/
&CELL
/

K_POINTS {automatic}
9 6 2 0  0  0

ATOMIC_SPECIES
C 12.01 C.pbe-n-rrkjus_psl.1.0.0.UPF
O 15.99 O.pbe-n-rrkjus_psl.1.0.0.UPF
Rh 102.9 Rh.pbe-spn-rrkjus_psl.1.0.0.UPF
Ti 47.86 Ti.pbe-spn-rrkjus_psl.1.0.0.UPF

CELL_PARAMETERS {angstrom}
6.24301000 0.00000000 0.00000000
0.00000000 8.82895000 0.00000000
0.00000000 0.00000000 26.62170000

ATOMIC_POSITIONS {angstrom}
Ti 1.56075250 2.20723750 -3.31094083 0 0 0
Ti 1.56075250 0.00000000 -1.1037356799999998 0 0 0
Ti 1.58460080 2.20723750 1.10160595
Ti 1.59683710 8.78462867 3.36178828
Ti 1.56075250 6.62171250 -3.31094083 0 0 0
Ti 1.56075250 4.41447500 -1.1037356799999998 0 0 0
Ti 1.53702906 6.62171250 1.09947621
Ti 1.59683710 4.45879633 3.36178828
Ti 4.68225750 2.20723750 -3.31094083 0 0 0
Ti 4.68225750 0.00000000 -1.1037356799999998 0 0 0
Ti 4.65840920 2.20723750 1.10160595
Ti 4.64617290 8.78462867 3.36178828
Ti 4.68225750 6.62171250 -3.31094083 0 0 0
Ti 4.68225750 4.41447500 -1.1037356799999998 0 0 0
Ti 4.70598094 6.62171250 1.09947621
Ti 4.64617290 4.45879633 3.36178828
Rh 0.00000000 0.00000000 -3.31094083 0 0 0
Rh 0.00000000 2.20723750 -1.1037356799999998 0 0 0
Rh 0.00000000 0.10577082 1.23977257
Rh 0.00000000 2.20697263 3.37855995
Rh 0.00000000 4.41447500 -3.31094083 0 0 0
Rh 0.00000000 6.62171250 -1.1037356799999998 0 0 0
Rh 0.00000000 4.30888076 1.23950635
Rh 0.00000000 6.62188908 3.14402277
Rh 3.12150500 0.00000000 -3.31094083 0 0 0
Rh 3.12150500 2.20723750 -1.1037356799999998 0 0 0
Rh 3.12150500 8.80158026 1.10133973
Rh 3.12150500 2.20714921 3.11314160
Rh 3.12150500 4.41447500 -3.31094083 0 0 0
Rh 3.12150500 6.62171250 -1.1037356799999998 0 0 0
Rh 3.12150500 4.44202132 1.10107351
Rh 3.12150500 6.62144763 3.12751732
C 0.00000000 2.20723750 5.25113033
O 0.00000000 2.20723750 6.41529727
