&CONTROL
calculation = 'relax'
prefix = 'scf'
pseudo_dir = '/vol0403/data/hp230205/u10028/POT_HYBRID_KKJUS_GBRV'
outdir = './data'
tprnfor = .true.
nstep = 70
disk_io = 'non'
/
&SYSTEM
ibrav = 0
ecutwfc = 50.0
ecutrho = 400
occupations = 'smearing'
smearing = 'mp'
degauss = 0.01
assume_isolated = 'esm'
esm_bc = 'bc1'
input_dft = 'BEEF-VDW'
nosym = .true.
nspin = 1
ntyp = 6
nat = 34
/
&ELECTRONS
electron_maxstep = 200
mixing_beta = 0.1
conv_thr = 1e-06
/
&IONS
ion_dynamics = 'bfgs'
upscale = 1.0
/
&CELL
/

K_POINTS {automatic}
6 6 1 0 0 0

ATOMIC_SPECIES
C 12.01 C.pbe-n-rrkjus_psl.1.0.0.UPF
In 114.8 In.pbe-dn-rrkjus_psl.1.0.0.UPF
Li 6.941 Li.pbe-sl-rrkjus_psl.1.0.0.UPF
Mg 24.30 Mg.pbe-spnl-rrkjus_psl.1.0.0.UPF
O 15.99 O.pbe-n-rrkjus_psl.1.0.0.UPF
Sn 118.7 Sn.pbe-dn-rrkjus_psl.1.0.0.UPF


CELL_PARAMETERS {angstrom}
7.01918000 0.00000000 0.00000000
-0.00000000 9.92662000 0.00000000
0.00000000 0.00000000 27.44500000

ATOMIC_POSITIONS {angstrom}
Li 5.26438500 0.00000000 -1.2407884500000002 0 0 0
Li 5.26438500 4.96331000 -1.2407884500000002 0 0 0
Li 1.75479500 2.48165500 -3.7223653500000005 0 0 0
Li 1.75479500 7.44496500 -3.7223653500000005 0 0 0
Li 5.25575141 4.94256336 3.86206040
Li 5.25568122 0.02084590 3.86206040
Li 1.77704580 7.44496500 1.35935085
Li 1.76756991 2.48165500 1.30061855
Mg 1.75479500 0.00000000 -1.2407884500000002 0 0 0
Mg 1.75479500 4.96331000 -1.2407884500000002 0 0 0
Mg 5.26438500 2.48165500 -3.7223653500000005 0 0 0
Mg 5.26438500 7.44496500 -3.7223653500000005 0 0 0
Mg 1.68783202 4.99537298 4.01547795
Mg 1.68776183 9.89455702 4.01575240
Mg 5.20037008 7.44506427 1.38185575
Mg 5.21047770 2.48165500 1.38103240
In 0.00000000 0.00000000 -3.7223653500000005 0 0 0
In 0.00000000 4.96331000 -3.7223653500000005 0 0 0
In 3.50959000 7.44496500 -1.2407884500000002 0 0 0
In 3.50959000 2.48165500 -1.2407884500000002 0 0 0
In 0.02695365 4.96450119 1.37197555
In 0.02695365 9.92552807 1.37197555
In 3.49913142 2.48165500 4.17411005
In 3.56749823 7.44496500 4.26412965
Sn 0.00000000 2.48165500 -1.2407884500000002 0 0 0
Sn 0.00000000 7.44496500 -1.2407884500000002 0 0 0
Sn 3.50959000 4.96331000 -3.7223653500000005 0 0 0
Sn 3.50959000 0.00000000 -3.7223653500000005 0 0 0
Sn 6.91936726 7.44496500 3.93341740
Sn 6.98001298 2.48165500 3.91008915
Sn 3.44669815 0.00436771 1.39969500
Sn 3.44676834 4.95894229 1.39942055
C 4.08432046 2.48036454 7.86985375
O 3.28630988 2.48185353 8.67865790
