&CONTROL
calculation = 'relax'
prefix = 'scf'
pseudo_dir = '/vol0004/mdt0/data/hp150275/u10028/POT_KKJUS'
outdir = './data'
tprnfor = .true.
nstep = 50
disk_io = 'non'
/
&SYSTEM
ibrav = 0
ecutwfc = 50.0
ecutrho = 400
occupations = 'smearing'
smearing = 'mp'
degauss = 0.01
assume_isolated = 'esm'
esm_bc = 'bc1'
input_dft = 'BEEF-VDW'
nosym = .true.
nspin = 1
ntyp = 3
nat = 33
/
&ELECTRONS
electron_maxstep = 200
mixing_beta = 0.1
conv_thr = 1e-06
/
&IONS
ion_dynamics = 'bfgs'
upscale = 1.0
/
&CELL
/

K_POINTS {automatic}
8 6 1 0 0 0

ATOMIC_SPECIES
C 12.01 C.pbe-n-rrkjus_psl.1.0.0.UPF
Rh 102.9 Rh.pbe-spn-rrkjus_psl.1.0.0.UPF
Y 88.90 Y.pbe-spn-rrkjus_psl.1.0.0.UPF

CELL_PARAMETERS {angstrom}
6.88160000 0.00000000 0.00000000
0.00000000 9.73205000 0.00000000
0.00000000 0.00000000 27.29900000

ATOMIC_POSITIONS {angstrom}
Y 1.72040000 2.43301250 -3.64960331 0 0 0
Y 1.72040000 0.00000000 -1.216443439999999 0 0 0
Y 1.72040000 2.43301250 1.32345552
Y 1.72040000 4.99117916 3.80247771
Y 1.72040000 7.29903750 -3.64960331 0 0 0
Y 1.72040000 4.86602500 -1.216443439999999 0 0 0
Y 1.72040000 7.29903750 1.23500676
Y 1.72040000 9.60689584 3.80247771
Y 5.16120000 2.43301250 -3.64960331 0 0 0
Y 5.16120000 0.00000000 -1.216443439999999 0 0 0
Y 5.16120000 2.43301250 1.19897208
Y 5.16120000 4.95059651 3.79756389
Y 5.16120000 7.29903750 -3.64960331 0 0 0
Y 5.16120000 4.86602500 -1.216443439999999 0 0 0
Y 5.16120000 7.29903750 1.22654407
Y 5.16120000 9.64747849 3.79756389
Rh 0.00000000 0.00000000 -3.64960331 0 0 0
Rh 0.00000000 2.43301250 -1.216443439999999 0 0 0
Rh 6.86818088 0.00914813 1.35457638
Rh 6.75140013 2.43301250 3.62639916
Rh 0.00000000 4.86602500 -3.64960331 0 0 0
Rh 0.00000000 7.29903750 -1.216443439999999 0 0 0
Rh 6.86818088 4.85687687 1.35457638
Rh 6.86191862 7.29903750 3.49618293
Rh 3.44080000 0.00000000 -3.64960331 0 0 0
Rh 3.44080000 2.43301250 -1.216443439999999 0 0 0
Rh 3.45421912 0.00914813 1.35457638
Rh 3.57099987 2.43301250 3.62639916
Rh 3.44080000 4.86602500 -3.64960331 0 0 0
Rh 3.44080000 7.29903750 -1.216443439999999 0 0 0
Rh 3.45421912 4.85687687 1.35457638
Rh 3.46048138 7.29903750 3.49618293
C 1.72040000 2.43301250 3.99984948
