&CONTROL
calculation = 'relax'
prefix = 'scf'
pseudo_dir = '/vol0403/data/hp230205/u10028/POT_HYBRID_KKJUS_GBRV'
outdir = './data'
tprnfor = .true.
nstep = 50
disk_io = 'non'
/
&SYSTEM
ibrav = 0
ecutwfc = 50.0
ecutrho = 400
occupations = 'smearing'
smearing = 'mp'
degauss = 0.01
assume_isolated = 'esm'
esm_bc = 'bc1'
input_dft = 'BEEF-VDW'
nosym = .true.
nspin = 1
ntyp = 6
nat = 34
/
&ELECTRONS
electron_maxstep = 200
mixing_beta = 0.1
conv_thr = 1e-06
/
&IONS
ion_dynamics = 'bfgs'
upscale = 1.0
/
&CELL
/

K_POINTS {automatic}
6 6 1 0 0 0

ATOMIC_SPECIES
Au 196.9 Au.pbe-n-rrkjus_psl.1.0.0.UPF
C 12.01 C.pbe-n-rrkjus_psl.1.0.0.UPF
In 114.8 In.pbe-dn-rrkjus_psl.1.0.0.UPF
Li 6.941 Li.pbe-sl-rrkjus_psl.1.0.0.UPF
Mg 24.30 Mg.pbe-spnl-rrkjus_psl.1.0.0.UPF
O 15.99 O.pbe-n-rrkjus_psl.1.0.0.UPF


CELL_PARAMETERS {angstrom}
6.64779000 0.00000000 0.00000000
0.00000000 9.40140000 0.00000000
0.00000000 0.00000000 27.05110000

ATOMIC_POSITIONS {angstrom}
Li 0.00000000 2.35035000 -1.17509978 0 0 0
Li 0.00000000 7.05105000 -1.17509978 0 0 0
Li 3.32389500 4.70070000 -3.525569860000001 0 0 0
Li 3.32389500 0.00000000 -3.525569860000001 0 0 0
Li 0.12836882 7.05123803 3.83746905
Li 0.12836882 2.35016197 3.83773956
Li 3.21686558 0.00000000 1.28925543
Li 3.21520363 4.70070000 1.36283442
Mg 4.98584250 0.00000000 -1.17509978 0 0 0
Mg 4.98584250 4.70070000 -1.17509978 0 0 0
Mg 1.66194750 2.35035000 -3.525569860000001 0 0 0
Mg 1.66194750 7.05105000 -3.525569860000001 0 0 0
Mg 4.93644942 4.70070000 3.67624449
Mg 4.87183290 0.00000000 3.59292710
Mg 1.60577367 7.04700740 1.22541483
Mg 1.60577367 2.35439260 1.22541483
In 1.66194750 0.00000000 -1.17509978 0 0 0
In 1.66194750 4.70070000 -1.17509978 0 0 0
In 4.98584250 2.35035000 -3.525569860000001 0 0 0
In 4.98584250 7.05105000 -3.525569860000001 0 0 0
In 1.60643845 4.70070000 4.04576252
In 1.65676222 0.00000000 3.98192192
In 5.01575755 7.04860564 1.27194272
In 5.01575755 2.35279436 1.27194272
Au 0.00000000 0.00000000 -3.525569860000001 0 0 0
Au 0.00000000 4.70070000 -3.525569860000001 0 0 0
Au 3.32389500 7.05105000 -1.17509978 0 0 0
Au 3.32389500 2.35035000 -1.17509978 0 0 0
Au 0.05570848 4.70070000 1.23515323
Au 0.06514834 0.00000000 1.29899382
Au 3.22218381 2.39218623 3.45713058
Au 3.22211734 7.00930778 3.45686007
C 5.03982255 0.00000000 5.81219935
O 5.09101054 0.00000000 6.95808394
