&CONTROL
calculation = 'relax'
prefix = 'scf'
pseudo_dir = '/vol0004/mdt0/data/hp150275/u10028/POT_HYBRID_KKJUS_GBRV'
outdir = './data'
tprnfor = .true.
nstep = 50
disk_io = 'non'
/
&SYSTEM
ibrav = 0
ecutwfc = 50.0
ecutrho = 400
occupations = 'smearing'
smearing = 'mp'
degauss = 0.01
assume_isolated = 'esm'
esm_bc = 'bc1'
input_dft = 'BEEF-VDW'
nosym = .true.
nspin = 2
ntyp = 5
nat = 34
starting_magnetization(1) = 0.0
starting_magnetization(2) = 0.1
starting_magnetization(3) = 0.0
starting_magnetization(4) = 0.0
starting_magnetization(5) = 0.0
/
&ELECTRONS
electron_maxstep = 200
mixing_beta = 0.1
conv_thr = 1e-06
/
&IONS
ion_dynamics = 'bfgs'
upscale = 1.0
/
&CELL
/

K_POINTS {automatic}
9 6 2 0  0  0

ATOMIC_SPECIES
C 12.01 C.pbe-n-rrkjus_psl.1.0.0.UPF
Fe 55.84 fe_pbe_v1.5.uspp.F.UPF
Ga 69.72 Ga.pbe-dnl-rrkjus_psl.1.0.0.UPF
O 15.99 O.pbe-n-rrkjus_psl.1.0.0.UPF
V 50.94 V.pbe-spnl-rrkjus_psl.1.0.0.UPF

CELL_PARAMETERS {angstrom}
5.73361000 0.00000000 0.00000000
0.00000000 8.10855000 0.00000000
0.00000000 0.00000000 26.08140000

ATOMIC_POSITIONS {angstrom}
V 0.00000000 0.00000000 23.04056957
V 2.86680500 2.02713750 25.06787680
V 2.86680500 6.08141250 25.06787680
V 0.00000000 4.05427500 23.04056957
V 0.00005734 4.05492368 1.05760077
V 2.86680500 6.08141250 2.96310785
V 2.86680500 2.02713750 2.99440553
V 0.00005734 8.10790132 1.05760077
Ga 0.00000000 6.08141250 25.06787680
Ga 2.86680500 0.00000000 23.04056957
Ga 0.00000000 2.02713750 25.06787680
Ga 2.86680500 4.05427500 23.04056957
Ga 5.73355266 2.02705641 3.18114836
Ga 2.86686234 4.03951744 1.01978274
Ga 5.73355266 6.08149359 3.29173349
Ga 2.86686234 0.01475756 1.01952193
Fe 1.43340250 0.00000000 25.06787680
Fe 4.30020750 4.05427500 25.06787680
Fe 4.30020750 0.00000000 25.06787680
Fe 1.43340250 4.05427500 25.06787680
Fe 4.30020750 6.08141250 23.04056957
Fe 1.43340250 2.02713750 23.04056957
Fe 1.43340250 6.08141250 23.04056957
Fe 4.30020750 2.02713750 23.04056957
Fe 1.43735869 4.05946447 3.09873113
Fe 4.29671000 8.10336053 3.09847032
Fe 4.29636598 4.05946447 3.09847032
Fe 1.43701467 8.10336053 3.09847032
Fe 4.32847420 2.02697533 1.01613134
Fe 1.41585765 6.08149359 1.05994810
Fe 1.40519314 2.02697533 1.01613134
Fe 4.31780968 6.08149359 1.05994810
C 2.86680500 2.02713750 4.98780694
O 2.86680500 2.02713750 6.14686435
