&CONTROL
calculation = 'relax'
prefix = 'scf'
pseudo_dir = '/vol0403/data/hp230205/u10028/POT_HYBRID_KKJUS_GBRV'
outdir = './data'
tprnfor = .true.
nstep = 50
disk_io = 'non'
/
&SYSTEM
ibrav = 0
ecutwfc = 50.0
ecutrho = 400
occupations = 'smearing'
smearing = 'mp'
degauss = 0.01
assume_isolated = 'esm'
esm_bc = 'bc1'
input_dft = 'BEEF-VDW'
nosym = .true.
nspin = 2
ntyp = 5
nat = 33
starting_magnetization(1) = 0.0
starting_magnetization(2) = 0.0
starting_magnetization(3) = 0.0
starting_magnetization(4) = 0.001
starting_magnetization(5) = 0.0
/
&ELECTRONS
electron_maxstep = 200
mixing_beta = 0.1
conv_thr = 1e-06
/
&IONS
ion_dynamics = 'bfgs'
upscale = 1.0
/
&CELL
/

K_POINTS {automatic}
9 6 2 0  0  0

ATOMIC_SPECIES
Al 26.98 Al.pbe-nl-rrkjus_psl.1.0.0.UPF
C 12.01 C.pbe-n-rrkjus_psl.1.0.0.UPF
Li 6.941 Li.pbe-sl-rrkjus_psl.1.0.0.UPF
Ni 58.69 ni_pbe_v1.4.uspp.F.UPF
Pd 106.4 Pd.pbe-n-rrkjus_psl.1.0.0.UPF


CELL_PARAMETERS {angstrom}
5.91240000 0.00000000 0.00000000
0.00000000 8.36140000 0.00000000
0.00000000 0.00000000 26.27110000

ATOMIC_POSITIONS {angstrom}
Li 0.00000000 2.09035000 -1.0450643600000014 0 0 0
Li 0.00000000 6.27105000 -1.0450643600000014 0 0 0
Li 2.95620000 4.18070000 -3.135455780000001 0 0 0
Li 2.95620000 0.00000000 -3.135455780000001 0 0 0
Li 0.07609259 6.23768801 3.67059809
Li 0.07609259 2.12379560 3.67059809
Li 2.98682623 0.00000000 0.93420032
Li 2.95874233 4.18070000 0.99278487
Al 0.00000000 0.00000000 -3.135455780000001 0 0 0
Al 0.00000000 4.18070000 -3.135455780000001 0 0 0
Al 2.95620000 6.27105000 -1.0450643600000014 0 0 0
Al 2.95620000 2.09035000 -1.0450643600000014 0 0 0
Al 5.90991679 4.18070000 1.02930170
Al 5.86770226 0.00000000 1.08919981
Al 2.92965332 2.17739217 3.11154908
Al 2.92971245 6.18400783 3.11154908
Ni 1.47810000 0.00000000 -1.0450643600000014 0 0 0
Ni 1.47810000 4.18070000 -1.0450643600000014 0 0 0
Ni 4.43430000 2.09035000 -3.135455780000001 0 0 0
Ni 4.43430000 6.27105000 -3.135455780000001 0 0 0
Ni 1.54969916 4.18078361 2.93973609
Ni 1.67326832 8.36123277 2.96705803
Ni 4.44908100 6.29019761 1.07947950
Ni 4.44919925 2.07120239 1.07974221
Pd 4.43430000 0.00000000 -1.0450643600000014 0 0 0
Pd 4.43430000 4.18070000 -1.0450643600000014 0 0 0
Pd 1.47810000 2.09035000 -3.135455780000001 0 0 0
Pd 1.47810000 6.27105000 -3.135455780000001 0 0 0
Pd 4.42690950 4.18070000 3.04009169
Pd 4.25148859 0.00000000 3.17092177
Pd 1.43724532 6.30140188 1.04769147
Pd 1.43724532 2.05999812 1.04769147
C 0.17004062 0.00000000 3.75519103
