&CONTROL
calculation = 'relax'
prefix = 'scf'
pseudo_dir = '/vol0004/mdt0/data/hp150275/u10028/POT_KKJUS'
outdir = './data'
tprnfor = .true.
nstep = 50
disk_io = 'non'
/
&SYSTEM
ibrav = 0
ecutwfc = 50.0
ecutrho = 400
occupations = 'smearing'
smearing = 'mp'
degauss = 0.01
assume_isolated = 'esm'
esm_bc = 'bc1'
input_dft = 'BEEF-VDW'
nosym = .true.
nspin = 1
ntyp = 4
nat = 18
/
&ELECTRONS
electron_maxstep = 200
mixing_beta = 0.1
conv_thr = 1e-06
/
&IONS
ion_dynamics = 'bfgs'
upscale = 1.0
/
&CELL
/

K_POINTS {automatic}
8 11 2 0  0  0

ATOMIC_SPECIES
C 12.01 C.pbe-n-rrkjus_psl.1.0.0.UPF
O 15.99 O.pbe-n-rrkjus_psl.1.0.0.UPF
Sn 118.7 Sn.pbe-dn-rrkjus_psl.1.0.0.UPF
Ti 47.86 Ti.pbe-spn-rrkjus_psl.1.0.0.UPF

CELL_PARAMETERS {angstrom}
8.35210000 0.00000000 0.00000000
0.00000000 5.90582000 0.00000000
0.00000000 0.00000000 24.42940000

ATOMIC_POSITIONS {angstrom}
Ti 0.00000000 2.95291000 -2.2147694000000016 0 0 0
Ti 2.08802500 4.42936500 -0.7382564699999996 0 0 0
Ti 2.08802500 1.47645500 -0.7382564699999996 0 0 0
Ti 0.03808558 5.89016958 0.69574931
Ti 2.08802500 1.41804644 2.15955896
Ti 2.08802500 4.37503146 2.20915064
Ti 4.17605000 2.95291000 -2.2147694000000016 0 0 0
Ti 6.26407500 4.42936500 -0.7382564699999996 0 0 0
Ti 6.26407500 1.47645500 -0.7382564699999996 0 0 0
Ti 4.13796442 5.89016958 0.69574931
Ti 6.26407500 1.32638811 1.97267405
Ti 6.26407500 4.58964895 1.96925393
Sn 0.00000000 0.00000000 -2.2147694000000016 0 0 0
Sn 0.01035660 2.94098024 0.76268587
Sn 4.17605000 0.00000000 -2.2147694000000016 0 0 0
Sn 4.16569340 2.94103930 0.76293016
C 2.08802500 2.75370669 3.60993244
O 2.08794148 3.83157790 4.22237750
