&CONTROL
calculation = 'relax'
prefix = 'scf'
pseudo_dir = '/vol0004/mdt0/data/hp150275/u10028/POT_HYBRID_KKJUS_GBRV'
outdir = './data'
tprnfor = .true.
nstep = 50
disk_io = 'non'
/
&SYSTEM
ibrav = 0
ecutwfc = 50.0
ecutrho = 400
occupations = 'smearing'
smearing = 'mp'
degauss = 0.01
assume_isolated = 'esm'
esm_bc = 'bc1'
input_dft = 'BEEF-VDW'
nosym = .true.
nspin = 2
ntyp = 5
nat = 34
starting_magnetization(1) = 0.0
starting_magnetization(2) = 0.001
starting_magnetization(3) = 0.0
starting_magnetization(4) = 0.0
starting_magnetization(5) = 0.0
/
&ELECTRONS
electron_maxstep = 300
mixing_beta = 0.1
conv_thr = 1e-06
/
&IONS
ion_dynamics = 'bfgs'
upscale = 1.0
/
&CELL
/

K_POINTS {automatic}
9 6 2 0  0  0

ATOMIC_SPECIES
C 12.01 C.pbe-n-rrkjus_psl.1.0.0.UPF
Ni 58.69 ni_pbe_v1.4.uspp.F.UPF
O 15.99 O.pbe-n-rrkjus_psl.1.0.0.UPF
Sb 121.7 Sb.pbe-n-rrkjus_psl.1.0.0.UPF
Ti 47.86 Ti.pbe-spn-rrkjus_psl.1.0.0.UPF

CELL_PARAMETERS {angstrom}
6.14873000 0.00000000 0.00000000
0.00000000 8.69561000 0.00000000
0.00000000 0.00000000 26.52170000

ATOMIC_POSITIONS {angstrom}
Ti 0.00000000 0.00000000 -3.2608430099999985 0 0 0
Ti 3.07436500 2.17390250 -1.086859269999998 0 0 0
Ti 3.07436500 6.52170750 -1.086859269999998 0 0 0
Ti 0.00000000 4.34780500 -3.2608430099999985 0 0 0
Ti 0.00411965 4.34763109 1.09614186
Ti 3.08352661 6.49327286 3.17013880
Ti 3.08377256 2.20285888 3.16960837
Ti 0.01838470 8.69534913 1.10781141
Ni 1.53718250 0.00000000 -1.086859269999998 0 0 0
Ni 4.61154750 4.34780500 -1.086859269999998 0 0 0
Ni 4.61154750 0.00000000 -1.086859269999998 0 0 0
Ni 1.53718250 4.34780500 -1.086859269999998 0 0 0
Ni 4.61154750 6.52170750 -3.2608430099999985 0 0 0
Ni 1.53718250 2.17390250 -3.2608430099999985 0 0 0
Ni 1.53718250 6.52170750 -3.2608430099999985 0 0 0
Ni 4.61154750 2.17390250 -3.2608430099999985 0 0 0
Ni 1.70842463 4.34876152 3.07890415
Ni 4.63688027 0.00026087 2.99854340
Ni 4.41472665 4.34823978 3.07678242
Ni 1.64417040 0.00086956 3.35499505
Ni 4.74860269 2.17225033 1.22636341
Ni 1.41082610 6.53709873 1.30248069
Ni 1.41101056 2.15755475 1.30274590
Ni 4.74884864 6.52257706 1.22609819
Sb 0.00000000 6.52170750 -1.086859269999998 0 0 0
Sb 3.07436500 0.00000000 -3.2608430099999985 0 0 0
Sb 0.00000000 2.17390250 -1.086859269999998 0 0 0
Sb 3.07436500 4.34780500 -3.2608430099999985 0 0 0
Sb 6.10925515 2.25764122 3.58520341
Sb 3.06631016 4.34728326 0.96379858
Sb 6.10950110 6.43866442 3.58546862
Sb 3.03685775 8.69543609 1.03461152
C 2.40685887 0.00078260 4.94072749
O 2.73649229 0.00121739 6.05835193
