&CONTROL
calculation = 'relax'
prefix = 'scf'
pseudo_dir = '/vol0403/data/hp230205/u10028/POT_HYBRID_KKJUS_GBRV'
outdir = './data'
tprnfor = .true.
nstep = 50
disk_io = 'non'
/
&SYSTEM
ibrav = 0
ecutwfc = 50.0
ecutrho = 400
occupations = 'smearing'
smearing = 'mp'
degauss = 0.01
assume_isolated = 'esm'
esm_bc = 'bc1'
input_dft = 'BEEF-VDW'
nosym = .true.
nspin = 2
ntyp = 5
nat = 33
starting_magnetization(1) = 0.0
starting_magnetization(2) = 0.0
starting_magnetization(3) = 0.0
starting_magnetization(4) = 0.1
starting_magnetization(5) = 0.0
/
&ELECTRONS
electron_maxstep = 200
mixing_beta = 0.1
conv_thr = 1e-06
/
&IONS
ion_dynamics = 'bfgs'
upscale = 1.0
/
&CELL
/

K_POINTS {automatic}
9 6 2 0  0  0

ATOMIC_SPECIES
Al 26.98 Al.pbe-nl-rrkjus_psl.1.0.0.UPF
C 12.01 C.pbe-n-rrkjus_psl.1.0.0.UPF
Li 6.941 Li.pbe-sl-rrkjus_psl.1.0.0.UPF
Mn 54.93 mn_pbe_v1.5.uspp.F.UPF
Pd 106.4 Pd.pbe-n-rrkjus_psl.1.0.0.UPF


CELL_PARAMETERS {angstrom}
6.10222000 0.00000000 0.00000000
0.00000000 8.62984000 0.00000000
0.00000000 0.00000000 26.47240000

ATOMIC_POSITIONS {angstrom}
Li 0.00000000 2.15746000 -1.0787502999999994 0 0 0
Li 0.00000000 6.47238000 -1.0787502999999994 0 0 0
Li 3.05111000 4.31492000 -3.2362509000000017 0 0 0
Li 3.05111000 0.00000000 -3.2362509000000017 0 0 0
Li 6.07280730 6.55626204 3.71248938
Li 6.07238014 2.07366425 3.71222465
Li 3.06349751 0.00000000 0.94850609
Li 3.02078197 4.31492000 1.01759906
Mn 1.52555500 0.00000000 -1.0787502999999994 0 0 0
Mn 1.52555500 4.31492000 -1.0787502999999994 0 0 0
Mn 4.57666500 2.15746000 -3.2362509000000017 0 0 0
Mn 4.57666500 6.47238000 -3.2362509000000017 0 0 0
Mn 1.46483791 4.31492000 3.17959996
Mn 1.75981923 8.62975370 3.07212202
Mn 4.59820584 6.47876608 1.12137086
Mn 4.59814481 2.15107392 1.12110614
Al 0.00000000 0.00000000 -3.2362509000000017 0 0 0
Al 0.00000000 4.31492000 -3.2362509000000017 0 0 0
Al 3.05111000 6.47238000 -1.0787502999999994 0 0 0
Al 3.05111000 2.15746000 -1.0787502999999994 0 0 0
Al 0.00958049 4.31492000 1.01759906
Al 0.04631585 0.00000000 1.18649297
Al 3.03548832 2.22856988 3.26537054
Al 3.03561036 6.40127012 3.26563526
Pd 4.57666500 0.00000000 -1.0787502999999994 0 0 0
Pd 4.57666500 4.31492000 -1.0787502999999994 0 0 0
Pd 1.52555500 2.15746000 -3.2362509000000017 0 0 0
Pd 1.52555500 6.47238000 -3.2362509000000017 0 0 0
Pd 4.53431559 4.31492000 3.01679470
Pd 4.33812922 0.00000000 3.14836253
Pd 1.50395314 6.47669492 1.07027913
Pd 1.50389212 2.15305878 1.07027913
C 0.17269283 0.00000000 3.56768535
