&CONTROL
calculation = 'relax'
prefix = 'scf'
pseudo_dir = '/vol0004/mdt0/data/hp150275/u10028/POT_KKJUS'
outdir = './data'
tprnfor = .true.
nstep = 50
disk_io = 'non'
/
&SYSTEM
ibrav = 0
ecutwfc = 50.0
ecutrho = 400
occupations = 'smearing'
smearing = 'mp'
degauss = 0.01
assume_isolated = 'esm'
esm_bc = 'bc1'
input_dft = 'BEEF-VDW'
nosym = .true.
nspin = 1
ntyp = 5
nat = 34
/
&ELECTRONS
electron_maxstep = 200
mixing_beta = 0.1
conv_thr = 1e-06
/
&IONS
ion_dynamics = 'bfgs'
upscale = 1.0
/
&CELL
/

K_POINTS {automatic}
9 6 2 0  0  0

ATOMIC_SPECIES
Au 196.9 Au.pbe-n-rrkjus_psl.1.0.0.UPF
C 12.01 C.pbe-n-rrkjus_psl.1.0.0.UPF
In 114.8 In.pbe-dn-rrkjus_psl.1.0.0.UPF
O 15.99 O.pbe-n-rrkjus_psl.1.0.0.UPF
Zr 91.22 Zr.pbe-spn-rrkjus_psl.1.0.0.UPF

CELL_PARAMETERS {angstrom}
6.87009000 0.00000000 0.00000000
0.00000000 9.71577000 0.00000000
0.00000000 0.00000000 27.28680000

ATOMIC_POSITIONS {angstrom}
Zr 0.00000000 0.00000000 -3.6433335400000004 0 0 0
Zr 3.43504500 2.42894250 -1.2145354699999977 0 0 0
Zr 3.43504500 7.28682750 -1.2145354699999977 0 0 0
Zr 0.00000000 4.85788500 -3.6433335400000004 0 0 0
Zr 0.00000000 4.84544881 1.28820983
Zr 3.43504500 7.28682750 3.45014299
Zr 3.43504500 2.42894250 3.43922827
Zr 0.00000000 0.01243619 1.28820983
In 0.00000000 7.28682750 -1.2145354699999977 0 0 0
In 3.43504500 0.00000000 -3.6433335400000004 0 0 0
In 0.00000000 2.42894250 -1.2145354699999977 0 0 0
In 3.43504500 4.85788500 -3.6433335400000004 0 0 0
In 0.00000000 2.42894250 3.92384184
In 3.43504500 4.87177855 1.16896651
In 0.00000000 7.28682750 3.97104800
In 3.43504500 9.70187645 1.16896651
Au 1.71752250 0.00000000 -1.2145354699999977 0 0 0
Au 5.15256750 4.85788500 -1.2145354699999977 0 0 0
Au 5.15256750 0.00000000 -1.2145354699999977 0 0 0
Au 1.71752250 4.85788500 -1.2145354699999977 0 0 0
Au 5.15256750 7.28682750 -3.6433335400000004 0 0 0
Au 1.71752250 2.42894250 -3.6433335400000004 0 0 0
Au 1.71752250 7.28682750 -3.6433335400000004 0 0 0
Au 5.15256750 2.42894250 -3.6433335400000004 0 0 0
Au 1.83953530 4.85526174 3.73856447
Au 5.03055470 0.00262326 3.73856447
Au 5.03055470 4.85526174 3.73856447
Au 1.83953530 0.00262326 3.73856447
Au 5.21893257 2.42894250 1.21644554
Au 1.63116547 7.28682750 1.24209514
Au 1.65115743 2.42894250 1.21644554
Au 5.23892453 7.28682750 1.24209514
C 0.00000000 2.42826240 7.83595036
O 0.00000000 2.42894250 8.97080837
