&CONTROL
calculation = 'relax'
prefix = 'scf'
pseudo_dir = '/vol0403/data/hp230205/u10028/POT_HYBRID_KKJUS_GBRV'
outdir = './data'
tprnfor = .true.
nstep = 50
disk_io = 'non'
/
&SYSTEM
ibrav = 0
ecutwfc = 50.0
ecutrho = 400
occupations = 'smearing'
smearing = 'mp'
degauss = 0.01
assume_isolated = 'esm'
esm_bc = 'bc1'
input_dft = 'BEEF-VDW'
nosym = .true.
nspin = 1
ntyp = 4
nat = 16
/
&ELECTRONS
electron_maxstep = 200
mixing_beta = 0.1
conv_thr = 1e-06
/
&IONS
ion_dynamics = 'bfgs'
upscale = 1.0
/
&CELL
/

K_POINTS {automatic}
11 8 2 0  0  0

ATOMIC_SPECIES
Ga 69.72 Ga.pbe-dnl-rrkjus_psl.1.0.0.UPF
In 114.8 In.pbe-dn-rrkjus_psl.1.0.0.UPF
Li 6.941 Li.pbe-sl-rrkjus_psl.1.0.0.UPF
Sc 44.95 Sc.pbe-spn-rrkjus_psl.1.0.0.UPF


CELL_PARAMETERS {angstrom}
6.04935000 0.00000000 0.00000000
0.00000000 8.37318000 0.00000000
0.00000000 0.00000000 24.52450000

ATOMIC_POSITIONS {angstrom}
Li 4.50912500 2.09329500 0.95228634
Li 1.17526772 2.09329500 -2.2621398799999994 0 0 0
Li 4.50918549 6.27988500 0.95204109
Li 1.17526772 6.27988500 -2.2621398799999994 0 0 0
Sc 1.46569701 2.09329500 0.77203126
Sc 4.19994272 2.09329500 -2.2621398799999994 0 0 0
Sc 1.46575750 6.27988500 0.77203126
Sc 4.19994272 6.27988500 -2.2621398799999994 0 0 0
In 3.07524757 0.00008373 2.37078342
In 5.82461665 0.00000000 -0.7541283800000009 0 0 0
In 3.07524757 4.18650627 2.37102866
In 5.82461665 4.18659000 -0.7541283800000009 0 0 0
Ga 6.01305390 8.37301254 2.16943727
Ga 2.79994165 0.00000000 -0.7541283800000009 0 0 0
Ga 6.01311439 4.18675746 2.16943727
Ga 2.79994165 4.18659000 -0.7541283800000009 0 0 0
