&CONTROL
calculation = 'relax'
prefix = 'scf'
pseudo_dir = '/vol0403/data/hp230205/u10028/POT_HYBRID_KKJUS_GBRV'
outdir = './data'
tprnfor = .true.
nstep = 50
disk_io = 'non'
/
&SYSTEM
ibrav = 0
ecutwfc = 50.0
ecutrho = 400
occupations = 'smearing'
smearing = 'mp'
degauss = 0.01
assume_isolated = 'esm'
esm_bc = 'bc1'
input_dft = 'BEEF-VDW'
nosym = .true.
nspin = 1
ntyp = 5
nat = 33
/
&ELECTRONS
electron_maxstep = 200
mixing_beta = 0.1
conv_thr = 1e-06
/
&IONS
ion_dynamics = 'bfgs'
upscale = 1.0
/
&CELL
/

K_POINTS {automatic}
6 6 1 0 0 0

ATOMIC_SPECIES
C 12.01 C.pbe-n-rrkjus_psl.1.0.0.UPF
In 114.8 In.pbe-dn-rrkjus_psl.1.0.0.UPF
Li 6.941 Li.pbe-sl-rrkjus_psl.1.0.0.UPF
Pd 106.4 Pd.pbe-n-rrkjus_psl.1.0.0.UPF
Rh 102.9 Rh.pbe-spn-rrkjus_psl.1.0.0.UPF


CELL_PARAMETERS {angstrom}
6.29773000 0.00000000 0.00000000
0.00000000 8.90634000 0.00000000
0.00000000 0.00000000 26.67980000

ATOMIC_POSITIONS {angstrom}
Li 0.00000000 2.22658500 -1.113348049999999 0 0 0
Li 0.00000000 6.67975500 -1.113348049999999 0 0 0
Li 3.14886500 4.45317000 -3.3397773599999994 0 0 0
Li 3.14886500 0.00000000 -3.3397773599999994 0 0 0
Li 0.03728256 6.68028938 3.61484610
Li 0.03728256 2.22605062 3.61484610
Li 3.15780778 0.00000000 1.09627298
Li 3.14911691 4.45317000 1.14509702
In 0.00000000 0.00000000 -3.3397773599999994 0 0 0
In 0.00000000 4.45317000 -3.3397773599999994 0 0 0
In 3.14886500 6.67975500 -1.113348049999999 0 0 0
In 3.14886500 2.22658500 -1.113348049999999 0 0 0
In 0.00749430 4.45317000 1.05091732
In 6.26882342 0.00000000 1.05065052
In 3.15610739 2.38876945 3.56762286
In 3.15610739 6.51757055 3.56762286
Pd 4.72329750 0.00000000 -1.113348049999999 0 0 0
Pd 4.72329750 4.45317000 -1.113348049999999 0 0 0
Pd 1.57443250 2.22658500 -3.3397773599999994 0 0 0
Pd 1.57443250 6.67975500 -3.3397773599999994 0 0 0
Pd 4.84446583 4.45317000 3.28881895
Pd 4.73513723 0.00000000 3.36245519
Pd 1.60006426 6.72419764 1.21953366
Pd 1.60006426 2.18214236 1.21953366
Rh 1.57443250 0.00000000 -1.113348049999999 0 0 0
Rh 1.57443250 4.45317000 -1.113348049999999 0 0 0
Rh 4.72329750 2.22658500 -3.3397773599999994 0 0 0
Rh 4.72329750 6.67975500 -3.3397773599999994 0 0 0
Rh 1.52688464 4.45317000 3.23305816
Rh 1.62475136 0.00000000 3.34964889
Rh 4.70408942 6.69845831 1.23180637
Rh 4.70408942 2.20788169 1.23180637
C 3.05616241 0.00000000 4.41817488
