&CONTROL
calculation = 'relax'
prefix = 'scf'
pseudo_dir = '/vol0004/mdt0/data/hp150275/u10028/POT_HYBRID_KKJUS_GBRV'
outdir = './data'
tprnfor = .true.
nstep = 50
disk_io = 'non'
/
&SYSTEM
ibrav = 0
ecutwfc = 50.0
ecutrho = 400
occupations = 'smearing'
smearing = 'mp'
degauss = 0.01
assume_isolated = 'esm'
esm_bc = 'bc1'
input_dft = 'BEEF-VDW'
nosym = .true.
nspin = 2
ntyp = 4
nat = 33
starting_magnetization(1) = 0.0
starting_magnetization(2) = 0.0
starting_magnetization(3) = 0.001
starting_magnetization(4) = 0.0
/
&ELECTRONS
electron_maxstep = 200
mixing_beta = 0.1
conv_thr = 1e-06
/
&IONS
ion_dynamics = 'bfgs'
upscale = 1.0
/
&CELL
/

K_POINTS {automatic}
9 6 2 0  0  0

ATOMIC_SPECIES
C 12.01 C.pbe-n-rrkjus_psl.1.0.0.UPF
Hf 178.4 Hf.pbe-spn-rrkjus_psl.1.0.0.UPF
Ni 58.69 ni_pbe_v1.4.uspp.F.UPF
Sn 118.7 Sn.pbe-dn-rrkjus_psl.1.0.0.UPF

CELL_PARAMETERS {angstrom}
6.29417000 0.00000000 0.00000000
0.00000000 8.90130000 0.00000000
0.00000000 0.00000000 26.67600000

ATOMIC_POSITIONS {angstrom}
Hf 0.00000000 0.00000000 23.33803212
Hf 3.14708500 2.22532500 25.56334404
Hf 3.14708500 6.67597500 25.56334404
Hf 0.00000000 4.45065000 23.33803212
Hf 6.23733364 4.49061684 1.11372300
Hf 3.11007528 6.67597500 3.29742036
Hf 3.40810423 2.22532500 3.13923168
Hf 6.23733364 8.86142218 1.11372300
Ni 1.57354250 0.00000000 25.56334404
Ni 4.72062750 4.45065000 25.56334404
Ni 4.72062750 0.00000000 25.56334404
Ni 1.57354250 4.45065000 25.56334404
Ni 4.72062750 6.67597500 23.33803212
Ni 1.57354250 2.22532500 23.33803212
Ni 1.57354250 6.67597500 23.33803212
Ni 4.72062750 2.22532500 23.33803212
Ni 1.28835366 4.18637040 3.25633932
Ni 4.72692167 8.81219799 3.22646220
Ni 4.72698461 4.53966300 3.22619544
Ni 1.28847954 0.26410157 3.25633932
Ni 4.80975295 2.22541401 1.00701900
Ni 1.63906481 6.67597500 1.12145904
Ni 1.25600162 2.22532500 1.45170792
Ni 4.62445258 6.67597500 1.21669236
Sn 0.00000000 6.67597500 25.56334404
Sn 3.14708500 0.00000000 23.33803212
Sn 0.00000000 2.22532500 25.56334404
Sn 3.14708500 4.45065000 23.33803212
Sn 5.85351516 2.22532500 4.68110448
Sn 3.08527625 4.41406566 1.10625372
Sn 0.06520760 6.67597500 3.54790800
Sn 3.08527625 0.03658434 1.10625372
C 1.38402504 2.22523599 3.53937168
