&CONTROL
calculation = 'relax'
prefix = 'scf'
pseudo_dir = '/vol0403/data/hp230205/u10028/POT_HYBRID_KKJUS_GBRV'
outdir = './data'
tprnfor = .true.
nstep = 50
disk_io = 'non'
/
&SYSTEM
ibrav = 0
ecutwfc = 50.0
ecutrho = 400
occupations = 'smearing'
smearing = 'mp'
degauss = 0.01
assume_isolated = 'esm'
esm_bc = 'bc1'
input_dft = 'BEEF-VDW'
nosym = .true.
nspin = 1
ntyp = 6
nat = 34
/
&ELECTRONS
electron_maxstep = 200
mixing_beta = 0.1
conv_thr = 1e-06
/
&IONS
ion_dynamics = 'bfgs'
upscale = 1.0
/
&CELL
/

K_POINTS {automatic}
6 6 1 0 0 0

ATOMIC_SPECIES
C 12.01 C.pbe-n-rrkjus_psl.1.0.0.UPF
Ge 72.64 Ge.pbe-dn-rrkjus_psl.1.0.0.UPF
Li 6.941 Li.pbe-sl-rrkjus_psl.1.0.0.UPF
O 15.99 O.pbe-n-rrkjus_psl.1.0.0.UPF
Pd 106.4 Pd.pbe-n-rrkjus_psl.1.0.0.UPF
Y 88.90 Y.pbe-spn-rrkjus_psl.1.0.0.UPF


CELL_PARAMETERS {angstrom}
6.55453000 0.00000000 0.00000000
0.00000000 9.26950000 0.00000000
0.00000000 0.00000000 26.95210000

ATOMIC_POSITIONS {angstrom}
Li 4.91589750 0.00000000 -1.1586707800000013 0 0 0
Li 4.91589750 4.63475000 -1.1586707800000013 0 0 0
Li 1.63863250 2.31737500 -3.4760123400000005 0 0 0
Li 1.63863250 6.95212500 -3.4760123400000005 0 0 0
Li 4.91589750 4.63475000 3.47601234
Li 4.91589750 0.00000000 3.47601234
Li 1.63863250 6.95212500 1.15867078
Li 1.63863250 2.31737500 1.15867078
Y 0.00000000 2.31737500 -1.1586707800000013 0 0 0
Y 0.00000000 6.95212500 -1.1586707800000013 0 0 0
Y 3.27726500 4.63475000 -3.4760123400000005 0 0 0
Y 3.27726500 0.00000000 -3.4760123400000005 0 0 0
Y 0.00000000 6.95212500 3.47601234
Y 0.00000000 2.31737500 3.47601234
Y 3.27726500 0.00000000 1.15867078
Y 3.27726500 4.63475000 1.15867078
Ge 0.00000000 0.00000000 -3.4760123400000005 0 0 0
Ge 0.00000000 4.63475000 -3.4760123400000005 0 0 0
Ge 3.27726500 6.95212500 -1.1586707800000013 0 0 0
Ge 3.27726500 2.31737500 -1.1586707800000013 0 0 0
Ge 0.00000000 4.63475000 1.15867078
Ge 0.00000000 0.00000000 1.15867078
Ge 3.27726500 2.31737500 3.47601234
Ge 3.27726500 6.95212500 3.47601234
Pd 1.63863250 0.00000000 -1.1586707800000013 0 0 0
Pd 1.63863250 4.63475000 -1.1586707800000013 0 0 0
Pd 4.91589750 2.31737500 -3.4760123400000005 0 0 0
Pd 4.91589750 6.95212500 -3.4760123400000005 0 0 0
Pd 1.63863250 4.63475000 3.47601234
Pd 1.63863250 0.00000000 3.47601234
Pd 4.91589750 6.95212500 1.15867078
Pd 4.91589750 2.31737500 1.15867078
C 4.91589750 0.00000000 5.37613539
O 4.91589750 0.00000000 6.52618149
