&CONTROL
calculation = 'relax'
prefix = 'scf'
pseudo_dir = '/vol0403/data/hp230205/u10028/POT_HYBRID_KKJUS_GBRV'
outdir = './data'
tprnfor = .true.
nstep = 50
disk_io = 'non'
/
&SYSTEM
ibrav = 0
ecutwfc = 50.0
ecutrho = 400
occupations = 'smearing'
smearing = 'mp'
degauss = 0.01
assume_isolated = 'esm'
esm_bc = 'bc1'
input_dft = 'BEEF-VDW'
nosym = .true.
nspin = 1
ntyp = 6
nat = 34
/
&ELECTRONS
electron_maxstep = 200
mixing_beta = 0.1
conv_thr = 1e-06
/
&IONS
ion_dynamics = 'bfgs'
upscale = 1.0
/
&CELL
/

K_POINTS {automatic}
6 6 1 0 0 0

ATOMIC_SPECIES
C 12.01 C.pbe-n-rrkjus_psl.1.0.0.UPF
Ge 72.64 Ge.pbe-dn-rrkjus_psl.1.0.0.UPF
Li 6.941 Li.pbe-sl-rrkjus_psl.1.0.0.UPF
O 15.99 O.pbe-n-rrkjus_psl.1.0.0.UPF
Pd 106.4 Pd.pbe-n-rrkjus_psl.1.0.0.UPF
Y 88.90 Y.pbe-spn-rrkjus_psl.1.0.0.UPF


CELL_PARAMETERS {angstrom}
6.55453000 0.00000000 0.00000000
0.00000000 9.26950000 0.00000000
0.00000000 0.00000000 26.95210000

ATOMIC_POSITIONS {angstrom}
Li 4.91589750 0.00000000 -1.1586707800000013 0 0 0
Li 4.91589750 4.63475000 -1.1586707800000013 0 0 0
Li 1.63863250 2.31737500 -3.4760123400000005 0 0 0
Li 1.63863250 6.95212500 -3.4760123400000005 0 0 0
Li 3.50877100 4.68647381 4.72820690
Li 3.81296674 0.03476063 4.77672068
Li 1.39218217 6.95991138 1.40258728
Li 1.43360680 2.34546159 1.35272590
Y 0.00000000 2.31737500 -1.1586707800000013 0 0 0
Y 0.00000000 6.95212500 -1.1586707800000013 0 0 0
Y 3.27726500 4.63475000 -3.4760123400000005 0 0 0
Y 3.27726500 0.00000000 -3.4760123400000005 0 0 0
Y 6.13005864 6.99068612 3.66764177
Y 6.12245538 2.37336278 3.64931434
Y 3.29083288 0.00018539 1.29316176
Y 3.29692859 4.66737864 1.28238092
Ge 0.00000000 0.00000000 -3.4760123400000005 0 0 0
Ge 0.00000000 4.63475000 -3.4760123400000005 0 0 0
Ge 3.27726500 6.95212500 -1.1586707800000013 0 0 0
Ge 3.27726500 2.31737500 -1.1586707800000013 0 0 0
Ge 6.42960066 4.63678929 1.15570605
Ge 6.47535128 0.01492390 1.09829808
Ge 3.06470159 2.34490542 3.45229449
Ge 3.04444809 6.99170577 3.43288898
Pd 1.63863250 0.00000000 -1.1586707800000013 0 0 0
Pd 1.63863250 4.63475000 -1.1586707800000013 0 0 0
Pd 4.91589750 2.31737500 -3.4760123400000005 0 0 0
Pd 4.91589750 6.95212500 -3.4760123400000005 0 0 0
Pd 1.33312586 4.73625103 3.29597231
Pd 1.37769666 0.11688840 3.41510059
Pd 4.96322121 7.00032640 1.10880939
Pd 4.93064519 2.30022643 1.08994292
C 6.23919156 0.22636119 4.77564260
O 5.88255958 8.49901916 5.46426875
