&CONTROL
calculation = 'relax'
prefix = 'scf'
pseudo_dir = '/vol0004/mdt0/data/hp150275/u10028/POT_KKJUS'
outdir = './data'
tprnfor = .true.
nstep = 50
disk_io = 'non'
/
&SYSTEM
ibrav = 0
ecutwfc = 50.0
ecutrho = 400
occupations = 'smearing'
smearing = 'mp'
degauss = 0.01
assume_isolated = 'esm'
esm_bc = 'bc1'
input_dft = 'BEEF-VDW'
nosym = .true.
nspin = 1
ntyp = 3
nat = 33
/
&ELECTRONS
electron_maxstep = 200
mixing_beta = 0.1
conv_thr = 1e-06
/
&IONS
ion_dynamics = 'bfgs'
upscale = 1.0
/
&CELL
/

K_POINTS {automatic}
8 6 1 0 0 0

ATOMIC_SPECIES
C 12.01 C.pbe-n-rrkjus_psl.1.0.0.UPF
Rh 102.9 Rh.pbe-spn-rrkjus_psl.1.0.0.UPF
Si 28.08 Si.pbe-nl-rrkjus_psl.1.0.0.UPF

CELL_PARAMETERS {angstrom}
5.95743000 0.00000000 0.00000000
0.00000000 8.42507000 0.00000000
0.00000000 0.00000000 26.31880000

ATOMIC_POSITIONS {angstrom}
Si 1.48935750 2.10626750 -3.159308750000001 0 0 0
Si 1.48935750 0.00000000 -1.05301519 0 0 0
Si 1.48935750 2.14443307 1.12670783
Si 1.48941707 3.37643105 4.86581974
Si 1.48935750 6.31880250 -3.159308750000001 0 0 0
Si 1.48935750 4.21253500 -1.05301519 0 0 0
Si 1.48947665 6.34087618 1.17513442
Si 1.48935750 8.30282223 4.00914280
Si 4.46807250 2.10626750 -3.159308750000001 0 0 0
Si 4.46807250 0.00000000 -1.05301519 0 0 0
Si 4.46795335 2.14283230 1.15855358
Si 4.46801293 4.30192499 3.08324742
Si 4.46807250 6.31880250 -3.159308750000001 0 0 0
Si 4.46807250 4.21253500 -1.05301519 0 0 0
Si 4.46795335 6.35064926 1.12433914
Si 4.46807250 0.07203435 3.05719181
Rh 0.00000000 0.00000000 -3.159308750000001 0 0 0
Rh 0.00000000 2.10626750 -1.05301519 0 0 0
Rh 5.93240879 0.02375870 0.90720904
Rh 0.06964236 2.09059687 3.03297851
Rh 0.00000000 4.21253500 -3.159308750000001 0 0 0
Rh 0.00000000 6.31880250 -1.05301519 0 0 0
Rh 5.93866410 4.27791354 1.02195900
Rh 5.90571951 6.53616931 3.03482083
Rh 2.97871500 0.00000000 -3.159308750000001 0 0 0
Rh 2.97871500 2.10626750 -1.05301519 0 0 0
Rh 3.00367663 0.02367445 0.90747222
Rh 2.90889392 2.09084962 3.03297851
Rh 2.97871500 4.21253500 -3.159308750000001 0 0 0
Rh 2.97871500 6.31880250 -1.05301519 0 0 0
Rh 2.99754048 4.27749229 1.02169582
Rh 3.03054464 6.53600080 3.03508402
C 1.48923835 1.55981746 4.73712081
