&CONTROL
calculation = 'relax'
prefix = 'scf'
pseudo_dir = '/vol0004/mdt0/data/hp150275/u10028/POT_KKJUS'
outdir = './data'
tprnfor = .true.
nstep = 50
disk_io = 'non'
/
&SYSTEM
ibrav = 0
ecutwfc = 50.0
ecutrho = 400
occupations = 'smearing'
smearing = 'mp'
degauss = 0.01
assume_isolated = 'esm'
esm_bc = 'bc1'
input_dft = 'BEEF-VDW'
nosym = .true.
nspin = 1
ntyp = 4
nat = 33
/
&ELECTRONS
electron_maxstep = 200
mixing_beta = 0.1
conv_thr = 1e-06
/
&IONS
ion_dynamics = 'bfgs'
upscale = 1.0
/
&CELL
/

K_POINTS {automatic}
9 6 2 0  0  0

ATOMIC_SPECIES
Al 26.98 Al.pbe-nl-rrkjus_psl.1.0.0.UPF
C 12.01 C.pbe-n-rrkjus_psl.1.0.0.UPF
Ir 192.2 Ir.pbe-n-rrkjus_psl.0.2.3.UPF
Li 6.941 Li.pbe-sl-rrkjus_psl.1.0.0.UPF

CELL_PARAMETERS {angstrom}
6.04348000 0.00000000 0.00000000
0.00000000 8.54677000 0.00000000
0.00000000 0.00000000 26.41010000

ATOMIC_POSITIONS {angstrom}
Li 0.00000000 0.00000000 -3.2051297400000003 0 0 0
Li 3.02174000 2.13669250 -1.068288540000001 0 0 0
Li 3.02174000 6.41007750 -1.068288540000001 0 0 0
Li 0.00000000 4.27338500 -3.2051297400000003 0 0 0
Li 0.00000000 4.27338500 0.96291225
Li 3.02174000 6.48563095 3.88122830
Li 3.02167957 2.06113905 3.88122830
Li 0.00000000 0.00000000 1.02682469
Al 1.51087000 0.00000000 -1.068288540000001 0 0 0
Al 4.53261000 4.27338500 -1.068288540000001 0 0 0
Al 4.53261000 0.00000000 -1.068288540000001 0 0 0
Al 1.51087000 4.27338500 -1.068288540000001 0 0 0
Al 4.53261000 6.41007750 -3.2051297400000003 0 0 0
Al 1.51087000 2.13669250 -3.2051297400000003 0 0 0
Al 1.51087000 6.41007750 -3.2051297400000003 0 0 0
Al 4.53261000 2.13669250 -3.2051297400000003 0 0 0
Al 1.42988737 4.27338500 3.11243028
Al 4.72449049 0.00000000 3.27406010
Al 4.61359263 4.27338500 3.11243028
Al 1.31898951 0.00000000 3.27406010
Al 4.50988652 2.12498343 1.08915252
Al 1.53359348 6.42178657 1.08915252
Al 1.53359348 2.12498343 1.08915252
Al 4.50988652 6.42178657 1.08915252
Ir 0.00000000 6.41007750 -1.068288540000001 0 0 0
Ir 3.02174000 0.00000000 -3.2051297400000003 0 0 0
Ir 0.00000000 2.13669250 -1.068288540000001 0 0 0
Ir 3.02174000 4.27338500 -3.2051297400000003 0 0 0
Ir 0.00000000 2.19378492 3.03267178
Ir 3.02174000 4.27338500 1.04055794
Ir 0.00000000 6.35298508 3.03267178
Ir 3.02174000 0.00000000 1.04531176
C 3.02174000 0.00000000 4.02252233
