&CONTROL
calculation = 'relax'
prefix = 'scf'
pseudo_dir = '/vol0004/mdt0/data/hp150275/u10028/POT_KKJUS'
outdir = './data'
tprnfor = .true.
nstep = 50
disk_io = 'non'
/
&SYSTEM
ibrav = 0
ecutwfc = 50.0
ecutrho = 400
occupations = 'smearing'
smearing = 'mp'
degauss = 0.01
assume_isolated = 'esm'
esm_bc = 'bc1'
input_dft = 'BEEF-VDW'
nosym = .true.
nspin = 1
ntyp = 4
nat = 33
/
&ELECTRONS
electron_maxstep = 200
mixing_beta = 0.1
conv_thr = 1e-06
/
&IONS
ion_dynamics = 'bfgs'
upscale = 1.0
/
&CELL
/

K_POINTS {automatic}
9 6 2 0  0  0

ATOMIC_SPECIES
C 12.01 C.pbe-n-rrkjus_psl.1.0.0.UPF
In 114.8 In.pbe-dn-rrkjus_psl.1.0.0.UPF
Li 6.941 Li.pbe-sl-rrkjus_psl.1.0.0.UPF
Rh 102.9 Rh.pbe-spn-rrkjus_psl.1.0.0.UPF

CELL_PARAMETERS {angstrom}
6.34973000 0.00000000 0.00000000
0.00000000 8.97987000 0.00000000
0.00000000 0.00000000 26.73490000

ATOMIC_POSITIONS {angstrom}
Li 0.00000000 6.73490250 -1.1225984499999981 0 0 0
Li 3.17486500 0.00000000 -3.367528 0 0 0
Li 0.00000000 2.24496750 -1.1225984499999981 0 0 0
Li 3.17486500 4.48993500 -3.367528 0 0 0
Li 1.58743250 2.24496750 -3.367528 0 0 0
Li 1.58743250 6.73490250 -3.367528 0 0 0
Li 4.76229750 4.48993500 -1.1225984499999981 0 0 0
Li 4.76229750 0.00000000 -1.1225984499999981 0 0 0
Li 6.03192601 2.24496750 3.92441597
Li 3.17359505 4.42429215 1.19692147
Li 0.09143611 6.73490250 3.25978636
Li 3.17359505 0.06564285 1.19692147
Li 1.59124234 6.73490250 1.01993643
Li 1.54476231 2.24496750 1.31268359
Li 4.57853631 8.82712241 3.56910915
Li 4.57853631 4.64268259 3.56910915
In 1.58743250 0.00000000 -1.1225984499999981 0 0 0
In 1.58743250 4.48993500 -1.1225984499999981 0 0 0
In 4.76229750 6.73490250 -3.367528 0 0 0
In 4.76229750 2.24496750 -3.367528 0 0 0
In 1.59168682 4.47754278 3.58515009
In 1.59168682 0.01239222 3.58515009
In 4.88662521 2.24496750 1.02956100
In 4.76020209 6.73490250 1.08677369
Rh 0.00000000 0.00000000 -3.367528 0 0 0
Rh 3.17486500 2.24496750 -1.1225984499999981 0 0 0
Rh 3.17486500 6.73490250 -1.1225984499999981 0 0 0
Rh 0.00000000 4.48993500 -3.367528 0 0 0
Rh 0.02616089 4.51893998 1.24638104
Rh 2.97478501 6.73490250 3.09536672
Rh 3.39507364 2.24496750 3.27261911
Rh 0.02616089 8.95086502 1.24638104
C 1.72280874 2.24496750 4.04525772
