&CONTROL
calculation = 'relax'
prefix = 'scf'
pseudo_dir = '/vol0004/mdt0/data/hp150275/u10028/POT_KKJUS'
outdir = './data'
tprnfor = .true.
nstep = 50
disk_io = 'non'
/
&SYSTEM
ibrav = 0
ecutwfc = 50.0
ecutrho = 400
occupations = 'smearing'
smearing = 'mp'
degauss = 0.01
assume_isolated = 'esm'
esm_bc = 'bc1'
input_dft = 'BEEF-VDW'
nosym = .true.
nspin = 1
ntyp = 3
nat = 18
/
&ELECTRONS
electron_maxstep = 200
mixing_beta = 0.1
conv_thr = 1e-06
/
&IONS
ion_dynamics = 'bfgs'
upscale = 1.0
/
&CELL
/

K_POINTS {automatic}
8 8 1 0 0 0

ATOMIC_SPECIES
C 12.01 C.pbe-n-rrkjus_psl.1.0.0.UPF
O 15.99 O.pbe-n-rrkjus_psl.1.0.0.UPF
Sn 118.7 Sn.pbe-dn-rrkjus_psl.1.0.0.UPF

CELL_PARAMETERS {angstrom}
7.64519000 0.00000000 0.00000000
-0.00000000 7.64519000 0.00000000
0.00000000 0.00000000 25.73390000

ATOMIC_POSITIONS {angstrom}
Sn 0.00000000 0.00000000 -2.8670137999999987 0 0 0
Sn 1.91129750 1.91129750 -0.955757049999999 0 0 0
Sn 0.00000000 0.00000000 0.95575705
Sn 1.91129750 1.91129750 2.86701380
Sn 0.00000000 3.82259500 -2.8670137999999987 0 0 0
Sn 1.91129750 5.73389250 -0.955757049999999 0 0 0
Sn 0.00000000 3.82259500 0.95575705
Sn 1.91129750 5.73389250 2.86701380
Sn 3.82259500 0.00000000 -2.8670137999999987 0 0 0
Sn 5.73389250 1.91129750 -0.955757049999999 0 0 0
Sn 3.82259500 -0.00000000 0.95575705
Sn 5.73389250 1.91129750 2.86701380
Sn 3.82259500 3.82259500 -2.8670137999999987 0 0 0
Sn 5.73389250 5.73389250 -0.955757049999999 0 0 0
Sn 3.82259500 3.82259500 0.95575705
Sn 5.73389250 5.73389250 2.86701380
C 1.91129750 1.91129750 4.76694764
O 1.91129750 1.91129750 5.91699563
