&CONTROL
calculation = 'relax'
prefix = 'scf'
pseudo_dir = '/vol0004/mdt0/data/hp150275/u10028/POT_KKJUS'
outdir = './data'
tprnfor = .true.
nstep = 50
disk_io = 'non'
/
&SYSTEM
ibrav = 0
ecutwfc = 50.0
ecutrho = 400
occupations = 'smearing'
smearing = 'mp'
degauss = 0.01
assume_isolated = 'esm'
esm_bc = 'bc1'
input_dft = 'BEEF-VDW'
nosym = .true.
nspin = 1
ntyp = 4
nat = 18
/
&ELECTRONS
electron_maxstep = 200
mixing_beta = 0.1
conv_thr = 1e-06
/
&IONS
ion_dynamics = 'bfgs'
upscale = 1.0
/
&CELL
/

K_POINTS {automatic}
8 11 2 0  0  0

ATOMIC_SPECIES
Al 26.98 Al.pbe-nl-rrkjus_psl.1.0.0.UPF
C 12.01 C.pbe-n-rrkjus_psl.1.0.0.UPF
O 15.99 O.pbe-n-rrkjus_psl.1.0.0.UPF
Sc 44.95 Sc.pbe-spn-rrkjus_psl.1.0.0.UPF

CELL_PARAMETERS {angstrom}
8.18271000 0.00000000 0.00000000
0.00000000 5.78605000 0.00000000
0.00000000 0.00000000 24.33950000

ATOMIC_POSITIONS {angstrom}
Sc 0.00000000 0.00000000 -2.1698664200000017 0 0 0
Sc 8.17755489 2.88428806 0.75452450
Sc 4.09135500 0.00000000 -2.1698664200000017 0 0 0
Sc 4.09659193 2.88423020 0.75403771
Al 0.00000000 2.89302500 -2.1698664200000017 0 0 0
Al 2.04567750 4.33953750 -0.7233699400000013 0 0 0
Al 2.04567750 1.44651250 -0.7233699400000013 0 0 0
Al 0.01546532 5.77499864 0.97065926
Al 2.04575933 1.41474709 2.18106259
Al 2.04584115 4.34937379 2.11120823
Al 4.09135500 2.89302500 -2.1698664200000017 0 0 0
Al 6.13703250 4.33953750 -0.7233699400000013 0 0 0
Al 6.13703250 1.44651250 -0.7233699400000013 0 0 0
Al 4.07588968 5.77482506 0.97065926
Al 6.13695067 1.38523823 2.13506094
Al 6.13686885 4.38171780 2.12994965
C 2.04575933 1.38795767 4.19199208
O 2.04567750 1.40763024 5.34227685
