&CONTROL
calculation = 'relax'
prefix = 'scf'
pseudo_dir = '/vol0403/data/hp230205/u10028/POT_HYBRID_KKJUS_GBRV'
outdir = './data'
tprnfor = .true.
nstep = 50
disk_io = 'non'
/
&SYSTEM
ibrav = 0
ecutwfc = 50.0
ecutrho = 400
occupations = 'smearing'
smearing = 'mp'
degauss = 0.01
assume_isolated = 'esm'
esm_bc = 'bc1'
input_dft = 'BEEF-VDW'
nosym = .true.
nspin = 1
ntyp = 6
nat = 18
/
&ELECTRONS
electron_maxstep = 200
mixing_beta = 0.1
conv_thr = 1e-06
/
&IONS
ion_dynamics = 'bfgs'
upscale = 1.0
/
&CELL
/

K_POINTS {automatic}
10 10 2 0  0  0

ATOMIC_SPECIES
C 12.01 C.pbe-n-rrkjus_psl.1.0.0.UPF
Cu 63.54 Cu.pbe-dn-rrkjus_psl.1.0.0.UPF
Ga 69.72 Ga.pbe-dnl-rrkjus_psl.1.0.0.UPF
Li 6.941 Li.pbe-sl-rrkjus_psl.1.0.0.UPF
O 15.99 O.pbe-n-rrkjus_psl.1.0.0.UPF
Pd 106.4 Pd.pbe-n-rrkjus_psl.1.0.0.UPF


CELL_PARAMETERS {angstrom}
6.02537000 0.00000000 0.00000000
0.00000000 6.02537000 0.00000000
0.00000000 0.00000000 24.51900000

ATOMIC_POSITIONS {angstrom}
Li 1.48633827 1.52550318 0.81770865
Li 1.50634250 4.51902750 -2.2594258499999995 0 0 0
Li 4.51902750 1.50634250 -2.2594258499999995 0 0 0
Li 4.53903173 4.49986682 0.81770865
Ga 4.53794716 1.52327379 0.81305004
Ga 4.51902750 4.51902750 -2.2594258499999995 0 0 0
Ga 1.50634250 1.50634250 -2.2594258499999995 0 0 0
Ga 1.48742284 4.50209621 0.81305004
Cu 0.00000000 0.00000000 2.20818114
Cu 0.00000000 3.01268500 -0.7532236799999978 0 0 0
Cu 3.01268500 0.00000000 -0.7532236799999978 0 0 0
Cu 3.01268500 3.01268500 2.21529165
Pd 0.00000000 3.01268500 2.42640024
Pd 0.00000000 0.00000000 -0.7532236799999978 0 0 0
Pd 3.01268500 3.01268500 -0.7532236799999978 0 0 0
Pd 3.01268500 0.00000000 2.19518607
C 0.00000000 3.01268500 4.41219405
O 0.00000000 3.01268500 5.55919287
