&CONTROL
calculation = 'relax'
prefix = 'scf'
pseudo_dir = '/vol0004/mdt0/data/hp150275/u10028/POT_KKJUS'
outdir = './data'
tprnfor = .true.
nstep = 50
disk_io = 'non'
/
&SYSTEM
ibrav = 0
ecutwfc = 50.0
ecutrho = 400
occupations = 'smearing'
smearing = 'mp'
degauss = 0.01
assume_isolated = 'esm'
esm_bc = 'bc1'
input_dft = 'BEEF-VDW'
nosym = .true.
nspin = 1
ntyp = 3
nat = 33
/
&ELECTRONS
electron_maxstep = 200
mixing_beta = 0.1
conv_thr = 1e-06
/
&IONS
ion_dynamics = 'bfgs'
upscale = 1.0
/
&CELL
/

K_POINTS {automatic}
9 6 2 0  0  0

ATOMIC_SPECIES
C 12.01 C.pbe-n-rrkjus_psl.1.0.0.UPF
Ga 69.72 Ga.pbe-dnl-rrkjus_psl.1.0.0.UPF
Ir 192.2 Ir.pbe-n-rrkjus_psl.0.2.3.UPF

CELL_PARAMETERS {angstrom}
6.13393000 0.00000000 0.00000000
0.00000000 8.67469000 0.00000000
0.00000000 0.00000000 26.50600000

ATOMIC_POSITIONS {angstrom}
Ga 0.00000000 0.00000000 -3.253081380000001 0 0 0
Ga 0.00000000 2.16867250 -1.0843604599999992 0 0 0
Ga 0.00000000 0.00000000 1.06819180
Ga 0.00000000 2.37729879 3.32941866
Ga 0.00000000 4.33734500 -3.253081380000001 0 0 0
Ga 0.00000000 6.50601750 -1.0843604599999992 0 0 0
Ga 0.00000000 4.33734500 1.05732434
Ga 0.00000000 6.29739121 3.32941866
Ga 3.06696500 0.00000000 -3.253081380000001 0 0 0
Ga 3.06696500 2.16867250 -1.0843604599999992 0 0 0
Ga 3.06696500 0.00000000 1.04221592
Ga 3.06696500 2.19669175 3.54623774
Ga 3.06696500 4.33734500 -3.253081380000001 0 0 0
Ga 3.06696500 6.50601750 -1.0843604599999992 0 0 0
Ga 3.06696500 4.33734500 1.02392678
Ga 3.06696500 6.47799825 3.54623774
Ir 1.53348250 2.16867250 -3.253081380000001 0 0 0
Ir 1.53348250 4.33734500 -1.0843604599999992 0 0 0
Ir 1.53630411 2.10291835 1.05546892
Ir 1.60813243 4.33734500 3.08662370
Ir 1.53348250 6.50601750 -3.253081380000001 0 0 0
Ir 1.53348250 0.00000000 -1.0843604599999992 0 0 0
Ir 1.53630411 6.57177165 1.05546892
Ir 1.48717133 0.00000000 3.29204520
Ir 4.60044750 2.16867250 -3.253081380000001 0 0 0
Ir 4.60044750 4.33734500 -1.0843604599999992 0 0 0
Ir 4.59762589 2.10291835 1.05546892
Ir 4.52579757 4.33734500 3.08662370
Ir 4.60044750 6.50601750 -3.253081380000001 0 0 0
Ir 4.60044750 0.00000000 -1.0843604599999992 0 0 0
Ir 4.59762589 6.57177165 1.05546892
Ir 4.64675867 0.00000000 3.29204520
C 0.00000000 0.00000000 4.44956222
