&CONTROL
calculation = 'relax'
prefix = 'scf'
pseudo_dir = '/vol0004/mdt0/data/hp150275/u10028/POT_KKJUS'
outdir = './data'
tprnfor = .true.
nstep = 50
disk_io = 'non'
/
&SYSTEM
ibrav = 0
ecutwfc = 50.0
ecutrho = 400
occupations = 'smearing'
smearing = 'mp'
degauss = 0.01
assume_isolated = 'esm'
esm_bc = 'bc1'
input_dft = 'BEEF-VDW'
nosym = .true.
nspin = 1
ntyp = 3
nat = 33
/
&ELECTRONS
electron_maxstep = 200
mixing_beta = 0.1
conv_thr = 1e-06
/
&IONS
ion_dynamics = 'bfgs'
upscale = 1.0
/
&CELL
/

K_POINTS {automatic}
6 6 1 0 0 0

ATOMIC_SPECIES
Au 196.9 Au.pbe-n-rrkjus_psl.1.0.0.UPF
C 12.01 C.pbe-n-rrkjus_psl.1.0.0.UPF
Cu 63.54 Cu.pbe-dn-rrkjus_psl.1.0.0.UPF

CELL_PARAMETERS {angstrom}
8.19423000 0.00000000 0.00000000
0.00000000 8.19423000 0.00000000
0.00000000 0.00000000 26.14570000

ATOMIC_POSITIONS {angstrom}
Cu 0.00000000 0.00000000 -3.0729041200000005 0 0 0
Cu 0.00000000 0.00000000 1.03066349
Cu 0.00000000 4.09711500 -3.0729041200000005 0 0 0
Cu 0.00000000 4.09711500 1.08034032
Cu 4.09711500 0.00000000 -3.0729041200000005 0 0 0
Cu 4.09711500 0.00000000 1.08034032
Cu 4.09711500 4.09711500 -3.0729041200000005 0 0 0
Cu 4.09711500 4.09711500 1.04791966
Au 0.00000000 2.04855750 -1.024388530000003 0 0 0
Au 2.04855750 0.00000000 -1.024388530000003 0 0 0
Au 2.04855750 2.04855750 -3.0729041200000005 0 0 0
Au 0.00000000 2.14541330 3.22141170
Au 2.14549524 0.00000000 3.22141170
Au 2.03864248 2.03856054 1.04635091
Au 0.00000000 6.14567250 -1.024388530000003 0 0 0
Au 2.04855750 4.09711500 -1.024388530000003 0 0 0
Au 2.04855750 6.14567250 -3.0729041200000005 0 0 0
Au 0.00000000 6.04881670 3.22141170
Au 2.06896113 4.09711500 3.08937591
Au 2.03864248 6.15566946 1.04635091
Au 4.09711500 2.04855750 -1.024388530000003 0 0 0
Au 6.14567250 0.00000000 -1.024388530000003 0 0 0
Au 6.14567250 2.04855750 -3.0729041200000005 0 0 0
Au 4.09711500 2.06912502 3.08911446
Au 6.04873476 0.00000000 3.22141170
Au 6.15558752 2.03856054 1.04635091
Au 4.09711500 6.14567250 -1.024388530000003 0 0 0
Au 6.14567250 4.09711500 -1.024388530000003 0 0 0
Au 6.14567250 6.14567250 -3.0729041200000005 0 0 0
Au 4.09711500 6.12510498 3.08911446
Au 6.12526887 4.09711500 3.08937591
Au 6.15558752 6.15566946 1.04635091
C 0.00000000 0.00000000 3.02714915
