&CONTROL
calculation = 'relax'
prefix = 'scf'
pseudo_dir = '/vol0004/mdt0/data/hp150275/u10028/POT_KKJUS'
outdir = './data'
tprnfor = .true.
nstep = 50
disk_io = 'non'
/
&SYSTEM
ibrav = 0
ecutwfc = 50.0
ecutrho = 400
occupations = 'smearing'
smearing = 'mp'
degauss = 0.01
assume_isolated = 'esm'
esm_bc = 'bc1'
input_dft = 'BEEF-VDW'
nosym = .true.
nspin = 1
ntyp = 5
nat = 18
/
&ELECTRONS
electron_maxstep = 200
mixing_beta = 0.1
conv_thr = 1e-06
/
&IONS
ion_dynamics = 'bfgs'
upscale = 1.0
/
&CELL
/

K_POINTS {automatic}
8 8 1 0 0 0

ATOMIC_SPECIES
C 12.01 C.pbe-n-rrkjus_psl.1.0.0.UPF
Hf 178.4 Hf.pbe-spn-rrkjus_psl.1.0.0.UPF
Ni 58.69 Ni.pbe-spn-rrkjus_psl.1.0.0.UPF
O 15.99 O.pbe-n-rrkjus_psl.1.0.0.UPF
Sn 118.7 Sn.pbe-dn-rrkjus_psl.1.0.0.UPF

CELL_PARAMETERS {angstrom}
6.28964000 0.00000000 0.00000000
0.00000000 6.28964000 0.00000000
0.00000000 0.00000000 24.71720000

ATOMIC_POSITIONS {angstrom}
Hf 0.00012579 0.00031448 2.29252030
Hf 3.14532317 3.14519738 2.29375616
Hf 3.14482000 0.00000000 -0.7862541299999997 0 0 0
Hf 0.00000000 3.14482000 -0.7862541299999997 0 0 0
Ni 1.64757120 1.49894700 0.87770777
Ni 4.71723000 4.71723000 -2.3585152199999975 0 0 0
Ni 4.64288646 1.49894700 0.87746060
Ni 1.57241000 4.71723000 -2.3585152199999975 0 0 0
Ni 4.64257197 4.79125906 0.87770777
Ni 1.57241000 1.57241000 -2.3585152199999975 0 0 0
Ni 1.64675354 4.79094458 0.87746060
Ni 4.71723000 1.57241000 -2.3585152199999975 0 0 0
Sn 0.00000000 0.00000000 -0.7862541299999997 0 0 0
Sn 3.14494579 0.00031448 2.66476133
Sn 0.00018869 3.14500869 2.45120472
Sn 3.14482000 3.14482000 -0.7862541299999997 0 0 0
C 6.28391643 3.14469421 6.85976452
O 0.00150951 3.14570055 7.99551986
