&CONTROL
calculation = 'relax'
prefix = 'scf'
pseudo_dir = '/vol0403/data/hp230205/u10028/POT_HYBRID_KKJUS_GBRV'
outdir = './data'
tprnfor = .true.
nstep = 70
disk_io = 'non'
/
&SYSTEM
ibrav = 0
ecutwfc = 50.0
ecutrho = 400
occupations = 'smearing'
smearing = 'mp'
degauss = 0.01
assume_isolated = 'esm'
esm_bc = 'bc1'
input_dft = 'BEEF-VDW'
nosym = .true.
nspin = 1
ntyp = 5
nat = 33
/
&ELECTRONS
electron_maxstep = 200
mixing_beta = 0.1
conv_thr = 1e-06
/
&IONS
ion_dynamics = 'bfgs'
upscale = 1.0
/
&CELL
/

K_POINTS {automatic}
9 6 2 0  0  0

ATOMIC_SPECIES
C 12.01 C.pbe-n-rrkjus_psl.1.0.0.UPF
Ga 69.72 Ga.pbe-dnl-rrkjus_psl.1.0.0.UPF
Li 6.941 Li.pbe-sl-rrkjus_psl.1.0.0.UPF
Pd 106.4 Pd.pbe-n-rrkjus_psl.1.0.0.UPF
Y 88.90 Y.pbe-spn-rrkjus_psl.1.0.0.UPF


CELL_PARAMETERS {angstrom}
6.61884000 0.00000000 0.00000000
-0.00000000 9.36046000 0.00000000
0.00000000 0.00000000 27.02030000

ATOMIC_POSITIONS {angstrom}
Li 4.96413000 0.00000000 -1.1699789900000006 0 0 0
Li 4.96413000 4.68023000 -1.1699789900000006 0 0 0
Li 1.65471000 2.34011500 -3.5102071699999975 0 0 0
Li 1.65471000 7.02034500 -3.5102071699999975 0 0 0
Li 3.64360523 4.39127260 4.96741195
Li 3.64353904 0.28895740 4.96768216
Li 1.53113626 7.02034500 1.27778999
Li 1.34997861 2.34011500 1.35236601
Y 0.00000000 2.34011500 -1.1699789900000006 0 0 0
Y 0.00000000 7.02034500 -1.1699789900000006 0 0 0
Y 3.30942000 4.68023000 -3.5102071699999975 0 0 0
Y 3.30942000 0.00000000 -3.5102071699999975 0 0 0
Y 6.04333186 7.02034500 3.46886611
Y 6.03512450 2.34011500 3.60207619
Y 3.34999349 0.02480522 1.41964656
Y 3.35005968 4.65542478 1.41964656
Ga 0.00000000 0.00000000 -3.5102071699999975 0 0 0
Ga 0.00000000 4.68023000 -3.5102071699999975 0 0 0
Ga 3.30942000 7.02034500 -1.1699789900000006 0 0 0
Ga 3.30942000 2.34011500 -1.1699789900000006 0 0 0
Ga 6.51518897 4.69998057 1.13863544
Ga 6.51518897 9.34070943 1.13863544
Ga 2.51873337 2.34011500 3.67989466
Ga 2.90322179 7.02034500 3.64747030
Pd 1.65471000 0.00000000 -1.1699789900000006 0 0 0
Pd 1.65471000 4.68023000 -1.1699789900000006 0 0 0
Pd 4.96413000 2.34011500 -3.5102071699999975 0 0 0
Pd 4.96413000 7.02034500 -3.5102071699999975 0 0 0
Pd 1.33554954 4.79732935 3.32944137
Pd 1.33554954 9.24336065 3.32944137
Pd 4.86815682 7.02034500 0.99948090
Pd 4.97445539 2.34011500 0.93652360
C 4.10798305 2.34011500 4.70072159
