&CONTROL
calculation = 'relax'
prefix = 'scf'
pseudo_dir = '/vol0403/data/hp230205/u10028/POT_HYBRID_KKJUS_GBRV'
outdir = './data'
tprnfor = .true.
nstep = 70
disk_io = 'non'
/
&SYSTEM
ibrav = 0
ecutwfc = 50.0
ecutrho = 400
occupations = 'smearing'
smearing = 'mp'
degauss = 0.01
assume_isolated = 'esm'
esm_bc = 'bc1'
input_dft = 'BEEF-VDW'
nosym = .true.
nspin = 1
ntyp = 6
nat = 34
/
&ELECTRONS
electron_maxstep = 200
mixing_beta = 0.1
conv_thr = 1e-06
/
&IONS
ion_dynamics = 'bfgs'
upscale = 1.0
/
&CELL
/

K_POINTS {automatic}
6 6 1 0 0 0

ATOMIC_SPECIES
C 12.01 C.pbe-n-rrkjus_psl.1.0.0.UPF
Ge 72.64 Ge.pbe-dn-rrkjus_psl.1.0.0.UPF
O 15.99 O.pbe-n-rrkjus_psl.1.0.0.UPF
Pd 106.4 Pd.pbe-n-rrkjus_psl.1.0.0.UPF
Sn 118.7 Sn.pbe-dn-rrkjus_psl.1.0.0.UPF
Y 88.90 Y.pbe-spn-rrkjus_psl.1.0.0.UPF


CELL_PARAMETERS {angstrom}
9.60308000 0.00000000 0.00000000
-0.00000000 8.11456000 0.00000000
0.00000000 0.00000000 26.48830000

ATOMIC_POSITIONS {angstrom}
Y 0.00758643 2.03724143 1.14614874
Y 0.00000000 2.02864000 -3.2440220999999987 0 0 0
Y 0.03169016 6.06701308 1.15594941
Y 0.00000000 6.08592000 -3.2440220999999987 0 0 0
Y 4.83121352 2.00892162 1.15091663
Y 4.80154000 2.02864000 -3.2440220999999987 0 0 0
Y 4.82881275 6.09362883 1.15250593
Y 4.80154000 6.08592000 -3.2440220999999987 0 0 0
Sn 2.64603266 1.99415312 3.46466964
Sn 2.40077000 2.02864000 -1.0812524099999976 0 0 0
Sn 2.66370233 6.12641165 3.49433654
Sn 2.40077000 6.08592000 -1.0812524099999976 0 0 0
Sn 7.45314245 2.09031066 3.50519674
Sn 7.20231000 2.02864000 -1.0812524099999976 0 0 0
Sn 7.46956372 6.01434958 3.51340811
Sn 7.20231000 6.08592000 -1.0812524099999976 0 0 0
Ge 0.85553840 8.10660773 3.08376789
Ge 0.00000000 0.00000000 -1.0812524099999976 0 0 0
Ge 0.94849621 4.06685518 3.11846756
Ge 0.00000000 4.05728000 -1.0812524099999976 0 0 0
Ge 5.76991459 8.10571513 3.12694381
Ge 4.80154000 0.00000000 -1.0812524099999976 0 0 0
Ge 5.62135494 4.06174301 3.15343211
Ge 4.80154000 4.05728000 -1.0812524099999976 0 0 0
Pd 2.45012983 0.00478759 0.92046843
Pd 2.40077000 0.00000000 -3.2440220999999987 0 0 0
Pd 2.53310044 4.05070721 0.96496877
Pd 2.40077000 4.05728000 -3.2440220999999987 0 0 0
Pd 7.31111290 8.10887981 0.96179017
Pd 7.20231000 0.00000000 -3.2440220999999987 0 0 0
Pd 7.25723962 4.05768573 1.00390657
Pd 7.20231000 4.05728000 -3.2440220999999987 0 0 0
C 2.46587888 1.59962321 7.33964305
O 2.31491846 2.30291213 8.21825996
