&CONTROL
calculation = 'relax'
prefix = 'scf'
pseudo_dir = '/vol0004/mdt0/data/hp150275/u10028/POT_HYBRID_KKJUS_GBRV'
outdir = './data'
tprnfor = .true.
nstep = 50
disk_io = 'non'
/
&SYSTEM
ibrav = 0
ecutwfc = 50.0
ecutrho = 400
occupations = 'smearing'
smearing = 'mp'
degauss = 0.01
assume_isolated = 'esm'
esm_bc = 'bc1'
input_dft = 'BEEF-VDW'
nosym = .true.
nspin = 2
ntyp = 2
nat = 16
starting_magnetization(1) = 0.1
starting_magnetization(2) = 0.0
/
&ELECTRONS
electron_maxstep = 200
mixing_beta = 0.1
conv_thr = 1e-06
/
&IONS
ion_dynamics = 'bfgs'
upscale = 1.0
/
&CELL
/

K_POINTS {automatic}
8 11 2 0  0  0

ATOMIC_SPECIES
Fe 55.84 fe_pbe_v1.5.uspp.F.UPF
Pt 195.0 Pt.pbe-n-rrkjus_psl.1.0.0.UPF

CELL_PARAMETERS {angstrom}
7.88854000 0.00000000 0.00000000
-0.00000000 5.57804000 0.00000000
0.00000000 0.00000000 24.18350000

ATOMIC_POSITIONS {angstrom}
Fe 0.00000000 0.00000000 2.09187275
Fe 0.00000000 2.78902000 23.48628969
Fe 3.94427000 -0.00000000 2.09187275
Fe 3.94427000 2.78902000 23.48628969
Pt 0.00000000 2.78902000 2.09187275
Pt 1.97213500 4.18353000 0.69721031
Pt 1.97213500 1.39451000 0.69721031
Pt 0.00000000 0.00000000 23.48628969
Pt 1.97213500 1.39451000 22.09162725
Pt 1.97213500 4.18353000 22.09162725
Pt 3.94427000 2.78902000 2.09187275
Pt 5.91640500 4.18353000 0.69721031
Pt 5.91640500 1.39451000 0.69721031
Pt 3.94427000 0.00000000 23.48628969
Pt 5.91640500 1.39451000 22.09162725
Pt 5.91640500 4.18353000 22.09162725
