&CONTROL
calculation = 'relax'
prefix = 'scf'
pseudo_dir = '/vol0004/mdt0/data/hp150275/u10028/POT_HYBRID_KKJUS_GBRV'
outdir = './data'
tprnfor = .true.
nstep = 50
disk_io = 'non'
/
&SYSTEM
ibrav = 0
ecutwfc = 50.0
ecutrho = 400
occupations = 'smearing'
smearing = 'mp'
degauss = 0.01
assume_isolated = 'esm'
esm_bc = 'bc1'
input_dft = 'BEEF-VDW'
nosym = .true.
nspin = 2
ntyp = 4
nat = 33
starting_magnetization(1) = 0.0
starting_magnetization(2) = 0.0
starting_magnetization(3) = 0.001
starting_magnetization(4) = 0.0
/
&ELECTRONS
electron_maxstep = 200
mixing_beta = 0.1
conv_thr = 1e-06
/
&IONS
ion_dynamics = 'bfgs'
upscale = 1.0
/
&CELL
/

K_POINTS {automatic}
9 6 2 0  0  0

ATOMIC_SPECIES
Al 26.98 Al.pbe-nl-rrkjus_psl.1.0.0.UPF
C 12.01 C.pbe-n-rrkjus_psl.1.0.0.UPF
Ni 58.69 ni_pbe_v1.4.uspp.F.UPF
Sc 44.95 Sc.pbe-spn-rrkjus_psl.1.0.0.UPF

CELL_PARAMETERS {angstrom}
6.07419000 0.00000000 0.00000000
0.00000000 8.59020000 0.00000000
0.00000000 0.00000000 26.44270000

ATOMIC_POSITIONS {angstrom}
Sc 0.00000000 0.00000000 23.22145029
Sc 3.03709500 2.14755000 25.36886195
Sc 3.03709500 6.44265000 25.36886195
Sc 0.00000000 4.29510000 23.22145029
Sc 0.03565550 4.29939510 1.00244276
Sc 3.03338974 6.44256410 3.36562686
Sc 3.41569926 2.14772180 4.08301731
Sc 0.03571624 8.58590490 1.00244276
Al 0.00000000 6.44265000 25.36886195
Al 3.03709500 0.00000000 23.22145029
Al 0.00000000 2.14755000 25.36886195
Al 3.03709500 4.29510000 23.22145029
Al 5.81494357 2.14746410 3.01235238
Al 3.06114879 4.30841481 1.13941594
Al 0.03553401 6.44256410 3.14800344
Al 3.06127028 8.57697109 1.13941594
Ni 1.51854750 0.00000000 25.36886195
Ni 4.55564250 4.29510000 25.36886195
Ni 4.55564250 0.00000000 25.36886195
Ni 1.51854750 4.29510000 25.36886195
Ni 4.55564250 6.44265000 23.22145029
Ni 1.51854750 2.14755000 23.22145029
Ni 1.51854750 6.44265000 23.22145029
Ni 4.55564250 2.14755000 23.22145029
Ni 1.41510404 4.14863709 3.11812318
Ni 4.66443124 8.53934602 3.05889154
Ni 4.66437050 4.34586808 3.05889154
Ni 1.41534701 0.14637701 3.11812318
Ni 4.44193366 2.14746410 1.05691472
Ni 1.63796608 6.44282180 1.17035390
Ni 1.73557831 2.14746410 1.31552432
Ni 4.50006366 6.44273590 1.12249262
C 1.61051074 2.14746410 3.26514460
