&CONTROL
calculation = 'relax'
prefix = 'scf'
pseudo_dir = '/vol0004/mdt0/data/hp150275/u10028/POT_KKJUS'
outdir = './data'
tprnfor = .true.
nstep = 50
disk_io = 'non'
/
&SYSTEM
ibrav = 0
ecutwfc = 50.0
ecutrho = 400
occupations = 'smearing'
smearing = 'mp'
degauss = 0.01
assume_isolated = 'esm'
esm_bc = 'bc1'
input_dft = 'BEEF-VDW'
nosym = .true.
nspin = 1
ntyp = 4
nat = 17
/
&ELECTRONS
electron_maxstep = 200
mixing_beta = 0.1
conv_thr = 1e-06
/
&IONS
ion_dynamics = 'bfgs'
upscale = 1.0
/
&CELL
/

K_POINTS {automatic}
9 9 2 0  0  0

ATOMIC_SPECIES
Ag 107.8 Ag.pbe-n-rrkjus_psl.1.0.0.UPF
C 12.01 C.pbe-n-rrkjus_psl.1.0.0.UPF
Li 6.941 Li.pbe-sl-rrkjus_psl.1.0.0.UPF
Pb 207.2 Pb.pbe-dn-rrkjus_psl.1.0.0.UPF

CELL_PARAMETERS {angstrom}
6.84524000 0.00000000 0.00000000
0.00000000 6.84524000 0.00000000
0.00000000 0.00000000 25.13390000

ATOMIC_POSITIONS {angstrom}
Li 0.00000000 0.00000000 -0.8555579600000023 0 0 0
Li 3.65029268 0.22767268 2.57044395
Li 6.61756732 3.19494732 2.57044395
Li 3.42262000 3.42262000 -0.8555579600000023 0 0 0
Li 1.71131000 1.71131000 -2.566925210000001 0 0 0
Li 1.71131000 5.13393000 1.02747383
Li 5.13393000 5.13393000 -2.566925210000001 0 0 0
Li 5.13393000 1.71131000 0.77462680
Ag 1.71131000 1.71131000 0.98122746
Ag 1.71131000 5.13393000 -2.566925210000001 0 0 0
Ag 5.13393000 5.13393000 0.98122746
Ag 5.13393000 1.71131000 -2.566925210000001 0 0 0
Pb 6.71552270 0.12971730 3.06910053
Pb 3.55233730 3.29290270 3.06935187
Pb 3.42262000 0.00000000 -0.8555579600000023 0 0 0
Pb 0.00000000 3.42262000 -0.8555579600000023 0 0 0
C 5.13393000 1.71131000 2.84088472
