&CONTROL
calculation = 'relax'
prefix = 'scf'
pseudo_dir = '/vol0403/data/hp230205/u10028/POT_HYBRID_KKJUS_GBRV'
outdir = './data'
tprnfor = .true.
nstep = 50
disk_io = 'non'
/
&SYSTEM
ibrav = 0
ecutwfc = 50.0
ecutrho = 400
occupations = 'smearing'
smearing = 'mp'
degauss = 0.01
assume_isolated = 'esm'
esm_bc = 'bc1'
input_dft = 'BEEF-VDW'
nosym = .true.
nspin = 1
ntyp = 6
nat = 18
/
&ELECTRONS
electron_maxstep = 200
mixing_beta = 0.1
conv_thr = 1e-06
/
&IONS
ion_dynamics = 'bfgs'
upscale = 1.0
/
&CELL
/

K_POINTS {automatic}
6 6 1 0 0 0

ATOMIC_SPECIES
Al 26.98 Al.pbe-nl-rrkjus_psl.1.0.0.UPF
C 12.01 C.pbe-n-rrkjus_psl.1.0.0.UPF
In 114.8 In.pbe-dn-rrkjus_psl.1.0.0.UPF
O 15.99 O.pbe-n-rrkjus_psl.1.0.0.UPF
Pd 106.4 Pd.pbe-n-rrkjus_psl.1.0.0.UPF
Sc 44.95 Sc.pbe-spn-rrkjus_psl.1.0.0.UPF


CELL_PARAMETERS {angstrom}
5.97945000 0.00000000 0.00000000
0.00000000 8.33700000 0.00000000
0.00000000 0.00000000 24.48170000

ATOMIC_POSITIONS {angstrom}
Sc 3.10154072 0.00008337 2.17911612
Sc 5.87164052 0.00000000 -0.7469366700000002 0 0 0
Sc 3.07905798 4.16850000 2.21559385
Sc 5.87164052 4.16850000 -0.7469366700000002 0 0 0
Al 0.02822300 0.00000000 2.27361548
Al 2.88191552 0.00000000 -0.7469366700000002 0 0 0
Al 0.02911992 4.16850000 2.26112981
Al 2.88191552 4.16850000 -0.7469366700000002 0 0 0
In 1.49121504 2.08866861 0.80495830
In 4.32284338 2.08425000 -2.2408099999999997 0 0 0
In 1.49121504 6.24841476 0.80495830
In 4.32284338 6.25275000 -2.2408099999999997 0 0 0
Pd 4.52279619 2.11201221 0.95282776
Pd 1.33311838 2.08425000 -2.2408099999999997 0 0 0
Pd 4.52279619 6.22498779 0.95307258
Pd 1.33311838 6.25275000 -2.2408099999999997 0 0 0
C 2.93339858 0.00000000 4.47427549
O 2.87222881 0.00000000 5.62246722
