&CONTROL
calculation = 'relax'
prefix = 'scf'
pseudo_dir = '/vol0004/mdt0/data/hp150275/u10028/POT_KKJUS'
outdir = './data'
tprnfor = .true.
nstep = 50
disk_io = 'non'
/
&SYSTEM
ibrav = 0
ecutwfc = 50.0
ecutrho = 400
occupations = 'smearing'
smearing = 'mp'
degauss = 0.01
assume_isolated = 'esm'
esm_bc = 'bc1'
input_dft = 'BEEF-VDW'
nosym = .true.
nspin = 1
ntyp = 4
nat = 33
/
&ELECTRONS
electron_maxstep = 200
mixing_beta = 0.1
conv_thr = 1e-06
/
&IONS
ion_dynamics = 'bfgs'
upscale = 1.0
/
&CELL
/

K_POINTS {automatic}
8 6 1 0 0 0

ATOMIC_SPECIES
C 12.01 C.pbe-n-rrkjus_psl.1.0.0.UPF
Ga 69.72 Ga.pbe-dnl-rrkjus_psl.1.0.0.UPF
Li 6.941 Li.pbe-sl-rrkjus_psl.1.0.0.UPF
Rh 102.9 Rh.pbe-spn-rrkjus_psl.1.0.0.UPF

CELL_PARAMETERS {angstrom}
6.03399000 0.00000000 0.00000000
0.00000000 8.53335000 0.00000000
0.00000000 0.00000000 26.40000000

ATOMIC_POSITIONS {angstrom}
Li 0.00000000 6.40001250 -1.066559999999999 0 0 0
Li 3.01699500 0.00000000 -3.1999439999999986 0 0 0
Li 0.00000000 2.13333750 -1.066559999999999 0 0 0
Li 3.01699500 4.26667500 -3.1999439999999986 0 0 0
Li 1.50849750 2.13333750 -3.1999439999999986 0 0 0
Li 1.50849750 6.40001250 -3.1999439999999986 0 0 0
Li 4.52549250 4.26667500 -1.066559999999999 0 0 0
Li 4.52549250 0.00000000 -1.066559999999999 0 0 0
Li 0.03801414 2.28395113 3.37920000
Li 3.08849778 4.26667500 0.98049600
Li 0.03801414 6.24939887 3.37920000
Li 3.02079641 0.00000000 1.14813600
Li 1.51398843 6.39822050 1.09929600
Li 1.51398843 2.13512950 1.09929600
Li 4.81536538 0.00000000 3.19334400
Li 4.32419859 4.26667500 3.42381600
Ga 1.50849750 0.00000000 -1.066559999999999 0 0 0
Ga 1.50849750 4.26667500 -1.066559999999999 0 0 0
Ga 4.52549250 6.40001250 -3.1999439999999986 0 0 0
Ga 4.52549250 2.13333750 -3.1999439999999986 0 0 0
Ga 1.72686760 4.26667500 3.08800800
Ga 1.15122495 0.00000000 3.09830400
Ga 4.51807069 2.14571086 1.11064800
Ga 4.51807069 6.38763914 1.11064800
Rh 0.00000000 0.00000000 -3.1999439999999986 0 0 0
Rh 3.01699500 2.13333750 -1.066559999999999 0 0 0
Rh 3.01699500 6.40001250 -1.066559999999999 0 0 0
Rh 0.00000000 4.26667500 -3.1999439999999986 0 0 0
Rh 6.02499935 4.26667500 1.21308000
Rh 2.98899729 6.66497302 3.19651200
Rh 2.98899729 1.86846232 3.19651200
Rh 5.99012289 0.00000000 0.95119200
C 3.01971030 0.00000000 3.75381600
