&CONTROL
calculation = 'relax'
prefix = 'scf'
pseudo_dir = '/vol0004/mdt0/data/hp150275/u10028/POT_KKJUS'
outdir = './data'
tprnfor = .true.
nstep = 50
disk_io = 'non'
/
&SYSTEM
ibrav = 0
ecutwfc = 50.0
ecutrho = 400
occupations = 'smearing'
smearing = 'mp'
degauss = 0.01
assume_isolated = 'esm'
esm_bc = 'bc1'
input_dft = 'BEEF-VDW'
nosym = .true.
nspin = 1
ntyp = 4
nat = 18
/
&ELECTRONS
electron_maxstep = 200
mixing_beta = 0.1
conv_thr = 1e-06
/
&IONS
ion_dynamics = 'bfgs'
upscale = 1.0
/
&CELL
/

K_POINTS {automatic}
7 11 2 0  0  0

ATOMIC_SPECIES
Al 26.98 Al.pbe-nl-rrkjus_psl.1.0.0.UPF
C 12.01 C.pbe-n-rrkjus_psl.1.0.0.UPF
O 15.99 O.pbe-n-rrkjus_psl.1.0.0.UPF
Y 88.90 Y.pbe-spn-rrkjus_psl.1.0.0.UPF

CELL_PARAMETERS {angstrom}
8.49845000 0.00000000 0.00000000
0.00000000 6.00931000 0.00000000
0.00000000 0.00000000 24.50700000

ATOMIC_POSITIONS {angstrom}
Y 0.00000000 0.00000000 -2.2534186500000004 0 0 0
Y 8.49479567 3.00267193 0.80897607
Y 4.24922500 0.00000000 -2.2534186500000004 0 0 0
Y 4.25287933 3.00267193 0.80897607
Al 0.00000000 3.00465500 -2.2534186500000004 0 0 0
Al 2.12461250 4.50698250 -0.7511395500000013 0 0 0
Al 2.12461250 1.50232750 -0.7511395500000013 0 0 0
Al 0.01886656 6.00510348 1.02096162
Al 2.12461250 1.36207020 2.18308356
Al 2.12461250 4.60896049 2.10662172
Al 4.24922500 3.00465500 -2.2534186500000004 0 0 0
Al 6.37383750 4.50698250 -0.7511395500000013 0 0 0
Al 6.37383750 1.50232750 -0.7511395500000013 0 0 0
Al 4.23035844 6.00510348 1.02096162
Al 6.37383750 1.36537533 2.11421889
Al 6.37383750 4.64056946 2.10221046
C 2.12461250 1.41092589 4.19167728
O 2.12469748 1.49607782 5.33958516
