&CONTROL
calculation = 'relax'
prefix = 'scf'
pseudo_dir = '/vol0004/mdt0/data/hp150275/u10028/POT_HYBRID_KKJUS_GBRV'
outdir = './data'
tprnfor = .true.
nstep = 50
disk_io = 'non'
/
&SYSTEM
ibrav = 0
ecutwfc = 50.0
ecutrho = 400
occupations = 'smearing'
smearing = 'mp'
degauss = 0.01
assume_isolated = 'esm'
esm_bc = 'bc1'
input_dft = 'BEEF-VDW'
nosym = .true.
nspin = 2
ntyp = 4
nat = 34
starting_magnetization(1) = 0.1
starting_magnetization(2) = 0.1
starting_magnetization(3) = 0.1
starting_magnetization(4) = 0.1
/
&ELECTRONS
electron_maxstep = 200
mixing_beta = 0.1
conv_thr = 1e-06
/
&IONS
ion_dynamics = 'bfgs'
upscale = 1.0
/
&CELL
/

K_POINTS {automatic}
9 6 2 0  0  0

ATOMIC_SPECIES
C 12.01 C.pbe-n-rrkjus_psl.1.0.0.UPF
Mn 54.93 mn_pbe_v1.5.uspp.F.UPF
Ni 58.69 ni_pbe_v1.4.uspp.F.UPF
O 15.99 O.pbe-n-rrkjus_psl.1.0.0.UPF

CELL_PARAMETERS {angstrom}
5.87849000 0.00000000 0.00000000
0.00000000 8.31345000 0.00000000
0.00000000 0.00000000 26.23510000

ATOMIC_POSITIONS {angstrom}
Mn 0.00000000 0.00000000 -3.1175169300000007 0 0 0
Mn 0.00000000 2.07836250 -1.0391723099999979 0 0 0
Mn 0.00299803 0.00008313 1.03051473
Mn 5.85574024 2.10172329 3.19491048
Mn 0.00000000 4.15672500 -3.1175169300000007 0 0 0
Mn 0.00000000 6.23508750 -1.0391723099999979 0 0 0
Mn 0.00446765 4.15664187 1.03340059
Mn 5.85574024 6.21172671 3.19517283
Mn 2.93924500 0.00000000 -3.1175169300000007 0 0 0
Mn 2.93924500 2.07836250 -1.0391723099999979 0 0 0
Mn 2.93624697 0.00008313 1.03051473
Mn 2.96199476 2.10172329 3.19491048
Mn 2.93924500 4.15672500 -3.1175169300000007 0 0 0
Mn 2.93924500 6.23508750 -1.0391723099999979 0 0 0
Mn 2.93477735 4.15664187 1.03340059
Mn 2.96199476 6.21172671 3.19517283
Ni 1.46962250 2.07836250 -3.1175169300000007 0 0 0
Ni 1.46962250 0.00000000 -1.0391723099999979 0 0 0
Ni 1.46962250 2.05300648 1.08928135
Ni 1.46962250 0.00000000 3.11279461
Ni 1.46962250 6.23508750 -3.1175169300000007 0 0 0
Ni 1.46962250 4.15672500 -1.0391723099999979 0 0 0
Ni 1.46962250 6.26036039 1.08954370
Ni 1.46962250 4.15664187 2.97689680
Ni 4.40886750 2.07836250 -3.1175169300000007 0 0 0
Ni 4.40886750 0.00000000 -1.0391723099999979 0 0 0
Ni 4.40886750 2.07345756 1.06330860
Ni 4.40886750 0.00008313 2.95905693
Ni 4.40886750 6.23508750 -3.1175169300000007 0 0 0
Ni 4.40886750 4.15672500 -1.0391723099999979 0 0 0
Ni 4.40886750 6.23999244 1.06357095
Ni 4.40886750 4.15664187 2.97112507
C 1.46962250 8.31336687 4.87920390
O 1.46962250 0.00000000 6.04010707
