&CONTROL
calculation = 'relax'
prefix = 'scf'
pseudo_dir = '/vol0403/data/hp230205/u10028/POT_HYBRID_KKJUS_GBRV'
outdir = './data'
tprnfor = .true.
nstep = 50
disk_io = 'non'
/
&SYSTEM
ibrav = 0
ecutwfc = 50.0
ecutrho = 400
occupations = 'smearing'
smearing = 'mp'
degauss = 0.01
assume_isolated = 'esm'
esm_bc = 'bc1'
input_dft = 'BEEF-VDW'
nosym = .true.
nspin = 1
ntyp = 5
nat = 33
/
&ELECTRONS
electron_maxstep = 200
mixing_beta = 0.1
conv_thr = 1e-06
/
&IONS
ion_dynamics = 'bfgs'
upscale = 1.0
/
&CELL
/

K_POINTS {automatic}
9 6 2 0  0  0

ATOMIC_SPECIES
Au 196.9 Au.pbe-n-rrkjus_psl.1.0.0.UPF
C 12.01 C.pbe-n-rrkjus_psl.1.0.0.UPF
In 114.8 In.pbe-dn-rrkjus_psl.1.0.0.UPF
Li 6.941 Li.pbe-sl-rrkjus_psl.1.0.0.UPF
Y 88.90 Y.pbe-spn-rrkjus_psl.1.0.0.UPF


CELL_PARAMETERS {angstrom}
6.89380000 0.00000000 0.00000000
0.00000000 9.74930000 0.00000000
0.00000000 0.00000000 27.31200000

ATOMIC_POSITIONS {angstrom}
Li 0.00000000 2.43732500 -1.2186614400000018 0 0 0
Li 0.00000000 7.31197500 -1.2186614400000018 0 0 0
Li 3.44690000 4.87465000 -3.6559843200000017 0 0 0
Li 3.44690000 0.00000000 -3.6559843200000017 0 0 0
Li 0.93452353 7.74016426 5.30590224
Li 0.93452353 2.00903825 5.30590224
Li 3.59394475 0.00000000 1.36341504
Li 3.46572007 4.87465000 1.37761728
Y 5.17035000 0.00000000 -1.2186614400000018 0 0 0
Y 5.17035000 4.87465000 -1.2186614400000018 0 0 0
Y 1.72345000 2.43732500 -3.6559843200000017 0 0 0
Y 1.72345000 7.31197500 -3.6559843200000017 0 0 0
Y 5.46092367 4.87465000 3.69067056
Y 5.48498303 0.00000000 3.81521328
Y 1.67388358 7.31762959 1.36232256
Y 1.67388358 2.43167041 1.36232256
In 1.72345000 0.00000000 -1.2186614400000018 0 0 0
In 1.72345000 4.87465000 -1.2186614400000018 0 0 0
In 5.17035000 2.43732500 -3.6559843200000017 0 0 0
In 5.17035000 7.31197500 -3.6559843200000017 0 0 0
In 1.77315430 4.87465000 3.92309568
In 2.00189058 0.00000000 3.65571120
In 5.21419457 7.29871595 1.22248512
In 5.21419457 2.45058405 1.22248512
Au 0.00000000 0.00000000 -3.6559843200000017 0 0 0
Au 0.00000000 4.87465000 -3.6559843200000017 0 0 0
Au 3.44690000 7.31197500 -1.2186614400000018 0 0 0
Au 3.44690000 2.43732500 -1.2186614400000018 0 0 0
Au 0.03715758 4.87465000 1.18916448
Au 6.88580319 0.00000000 1.14000288
Au 3.56657637 2.55460908 3.59535168
Au 3.56664531 7.19469092 3.59562480
C 0.37150688 0.00000000 5.06637600
