&CONTROL
calculation = 'relax'
prefix = 'scf'
pseudo_dir = '/vol0004/mdt0/data/hp150275/u10028/POT_KKJUS'
outdir = './data'
tprnfor = .true.
nstep = 50
disk_io = 'non'
/
&SYSTEM
ibrav = 0
ecutwfc = 50.0
ecutrho = 400
occupations = 'smearing'
smearing = 'mp'
degauss = 0.01
assume_isolated = 'esm'
esm_bc = 'bc1'
input_dft = 'BEEF-VDW'
nosym = .true.
nspin = 1
ntyp = 3
nat = 17
/
&ELECTRONS
electron_maxstep = 200
mixing_beta = 0.1
conv_thr = 1e-06
/
&IONS
ion_dynamics = 'bfgs'
upscale = 1.0
/
&CELL
/

K_POINTS {automatic}
8 8 1 0 0 0

ATOMIC_SPECIES
C 12.01 C.pbe-n-rrkjus_psl.1.0.0.UPF
Cu 63.54 Cu.pbe-dn-rrkjus_psl.1.0.0.UPF
Sb 121.7 Sb.pbe-n-rrkjus_psl.1.0.0.UPF

CELL_PARAMETERS {angstrom}
6.30953000 0.00000000 0.00000000
-0.00000000 6.30953000 0.00000000
0.00000000 0.00000000 24.73210000

ATOMIC_POSITIONS {angstrom}
Cu 1.57738250 1.57738250 -0.7887066699999998 0 0 0
Cu 4.73214750 4.73214750 2.36612001
Cu 4.73214750 1.57738250 -0.7887066699999998 0 0 0
Cu 1.57738250 4.73214750 2.36612001
Cu 4.73214750 4.73214750 -0.7887066699999998 0 0 0
Cu 1.57738250 1.57738250 2.36612001
Cu 1.57738250 4.73214750 -0.7887066699999998 0 0 0
Cu 4.73214750 1.57738250 2.36612001
Cu 0.00000000 0.00000000 0.78870667
Cu 3.15476500 0.00000000 -2.3661200099999995 0 0 0
Cu 0.00000000 3.15476500 -2.3661200099999995 0 0 0
Cu 3.15476500 3.15476500 0.78870667
Sb 0.00000000 0.00000000 -2.3661200099999995 0 0 0
Sb 3.15476500 3.15476500 -2.3661200099999995 0 0 0
Sb 3.15476500 -0.00000000 0.78870667
Sb 0.00000000 3.15476500 0.78870667
C 0.00000000 3.15476500 3.16595612
