&CONTROL
calculation = 'relax'
prefix = 'scf'
pseudo_dir = '/vol0004/mdt0/data/hp150275/u10028/POT_KKJUS'
outdir = './data'
tprnfor = .true.
nstep = 50
disk_io = 'non'
/
&SYSTEM
ibrav = 0
ecutwfc = 50.0
ecutrho = 400
occupations = 'smearing'
smearing = 'mp'
degauss = 0.01
assume_isolated = 'esm'
esm_bc = 'bc1'
input_dft = 'BEEF-VDW'
nosym = .true.
nspin = 1
ntyp = 4
nat = 33
/
&ELECTRONS
electron_maxstep = 200
mixing_beta = 0.1
conv_thr = 1e-06
/
&IONS
ion_dynamics = 'bfgs'
upscale = 1.0
/
&CELL
/

K_POINTS {automatic}
8 6 1 0 0 0

ATOMIC_SPECIES
Au 196.9 Au.pbe-n-rrkjus_psl.1.0.0.UPF
C 12.01 C.pbe-n-rrkjus_psl.1.0.0.UPF
In 114.8 In.pbe-dn-rrkjus_psl.1.0.0.UPF
Zr 91.22 Zr.pbe-spn-rrkjus_psl.1.0.0.UPF

CELL_PARAMETERS {angstrom}
6.87009000 0.00000000 0.00000000
0.00000000 9.71577000 0.00000000
0.00000000 0.00000000 27.28680000

ATOMIC_POSITIONS {angstrom}
Zr 0.00000000 0.00000000 -3.6433335400000004 0 0 0
Zr 3.43504500 2.42894250 -1.2145354699999977 0 0 0
Zr 3.43504500 7.28682750 -1.2145354699999977 0 0 0
Zr 0.00000000 4.85788500 -3.6433335400000004 0 0 0
Zr 0.01057994 4.93599979 1.32095399
Zr 3.26535378 7.28682750 3.42449340
Zr 3.54434813 2.42894250 3.45341741
Zr 0.01057994 9.63775237 1.32095399
In 0.00000000 7.28682750 -1.2145354699999977 0 0 0
In 3.43504500 0.00000000 -3.6433335400000004 0 0 0
In 0.00000000 2.42894250 -1.2145354699999977 0 0 0
In 3.43504500 4.85788500 -3.6433335400000004 0 0 0
In 6.32652848 2.42894250 4.42701043
In 3.42728180 4.78423946 1.16405489
In 0.08051745 7.28682750 3.85835352
In 3.42728180 0.07364554 1.16405489
Au 1.71752250 0.00000000 -1.2145354699999977 0 0 0
Au 5.15256750 4.85788500 -1.2145354699999977 0 0 0
Au 5.15256750 0.00000000 -1.2145354699999977 0 0 0
Au 1.71752250 4.85788500 -1.2145354699999977 0 0 0
Au 5.15256750 7.28682750 -3.6433335400000004 0 0 0
Au 1.71752250 2.42894250 -3.6433335400000004 0 0 0
Au 1.71752250 7.28682750 -3.6433335400000004 0 0 0
Au 5.15256750 2.42894250 -3.6433335400000004 0 0 0
Au 1.78780352 4.84486587 3.85535197
Au 5.02272280 9.58839626 3.68562808
Au 5.02272280 4.98525874 3.68562808
Au 1.78773482 0.01301913 3.85535197
Au 5.35983812 2.42894250 1.18697580
Au 1.68674450 7.28682750 1.13049212
Au 1.53951847 2.42894250 1.33650746
Au 5.12859089 7.28682750 1.18943161
C 1.55882342 2.42884534 3.94212400
