&CONTROL
calculation = 'relax'
prefix = 'scf'
pseudo_dir = '/vol0403/data/hp230205/u10028/POT_HYBRID_KKJUS_GBRV'
outdir = './data'
tprnfor = .true.
nstep = 50
disk_io = 'non'
/
&SYSTEM
ibrav = 0
ecutwfc = 50.0
ecutrho = 400
occupations = 'smearing'
smearing = 'mp'
degauss = 0.01
assume_isolated = 'esm'
esm_bc = 'bc1'
input_dft = 'BEEF-VDW'
nosym = .true.
nspin = 2
ntyp = 5
nat = 33
starting_magnetization(1) = 0.0
starting_magnetization(2) = 0.0
starting_magnetization(3) = 0.0
starting_magnetization(4) = 0.001
starting_magnetization(5) = 0.0
/
&ELECTRONS
electron_maxstep = 200
mixing_beta = 0.1
conv_thr = 1e-06
/
&IONS
ion_dynamics = 'bfgs'
upscale = 1.0
/
&CELL
/

K_POINTS {automatic}
9 6 2 0  0  0

ATOMIC_SPECIES
Al 26.98 Al.pbe-nl-rrkjus_psl.1.0.0.UPF
C 12.01 C.pbe-n-rrkjus_psl.1.0.0.UPF
Li 6.941 Li.pbe-sl-rrkjus_psl.1.0.0.UPF
Ni 58.69 ni_pbe_v1.4.uspp.F.UPF
Pd 106.4 Pd.pbe-n-rrkjus_psl.1.0.0.UPF


CELL_PARAMETERS {angstrom}
5.91240000 0.00000000 0.00000000
0.00000000 8.36140000 0.00000000
0.00000000 0.00000000 26.27110000

ATOMIC_POSITIONS {angstrom}
Li 0.00000000 2.09035000 -1.0450643600000014 0 0 0
Li 0.00000000 6.27105000 -1.0450643600000014 0 0 0
Li 2.95620000 4.18070000 -3.135455780000001 0 0 0
Li 2.95620000 0.00000000 -3.135455780000001 0 0 0
Li 0.13492097 6.27105000 3.76123339
Li 5.59419463 2.09035000 3.62987789
Li 2.95377592 8.35880797 1.03087796
Li 2.95377592 4.18329203 1.03087796
Al 0.00000000 0.00000000 -3.135455780000001 0 0 0
Al 0.00000000 4.18070000 -3.135455780000001 0 0 0
Al 2.95620000 6.27105000 -1.0450643600000014 0 0 0
Al 2.95620000 2.09035000 -1.0450643600000014 0 0 0
Al 0.01182480 4.17886049 1.05504738
Al 0.01182480 0.00183951 1.05504738
Al 3.26843384 2.09035000 2.89901589
Al 2.86775050 6.27105000 3.13703205
Ni 1.47810000 0.00000000 -1.0450643600000014 0 0 0
Ni 1.47810000 4.18070000 -1.0450643600000014 0 0 0
Ni 4.43430000 2.09035000 -3.135455780000001 0 0 0
Ni 4.43430000 6.27105000 -3.135455780000001 0 0 0
Ni 1.52338898 3.87132820 3.15174387
Ni 1.52332986 0.30945541 3.15174387
Ni 4.44423283 6.27105000 1.05846262
Ni 4.53203197 2.09035000 0.93630200
Pd 4.43430000 0.00000000 -1.0450643600000014 0 0 0
Pd 4.43430000 4.18070000 -1.0450643600000014 0 0 0
Pd 1.47810000 2.09035000 -3.135455780000001 0 0 0
Pd 1.47810000 6.27105000 -3.135455780000001 0 0 0
Pd 4.42543140 4.31933201 3.05664248
Pd 4.42543140 8.22276799 3.05664248
Pd 1.42524314 6.27105000 1.12335224
Pd 1.47603066 2.09035000 0.98043745
C 1.54621085 2.09035000 3.71814878
