&CONTROL
calculation = 'relax'
prefix = 'scf'
pseudo_dir = '/vol0403/data/hp230205/u10028/POT_HYBRID_KKJUS_GBRV'
outdir = './data'
tprnfor = .true.
nstep = 50
disk_io = 'non'
/
&SYSTEM
ibrav = 0
ecutwfc = 50.0
ecutrho = 400
occupations = 'smearing'
smearing = 'mp'
degauss = 0.01
assume_isolated = 'esm'
esm_bc = 'bc1'
input_dft = 'BEEF-VDW'
nosym = .true.
nspin = 1
ntyp = 5
nat = 33
/
&ELECTRONS
electron_maxstep = 200
mixing_beta = 0.1
conv_thr = 1e-06
/
&IONS
ion_dynamics = 'bfgs'
upscale = 1.0
/
&CELL
/

K_POINTS {automatic}
9 6 2 0  0  0

ATOMIC_SPECIES
C 12.01 C.pbe-n-rrkjus_psl.1.0.0.UPF
In 114.8 In.pbe-dn-rrkjus_psl.1.0.0.UPF
Ir 192.2 Ir.pbe-n-rrkjus_psl.0.2.3.UPF
Li 6.941 Li.pbe-sl-rrkjus_psl.1.0.0.UPF
Pd 106.4 Pd.pbe-n-rrkjus_psl.1.0.0.UPF


CELL_PARAMETERS {angstrom}
6.33559000 0.00000000 0.00000000
0.00000000 8.95988000 0.00000000
0.00000000 0.00000000 26.71990000

ATOMIC_POSITIONS {angstrom}
Li 0.00000000 2.23997000 -1.1200982099999983 0 0 0
Li 0.00000000 6.71991000 -1.1200982099999983 0 0 0
Li 3.16779500 4.47994000 -3.360027429999999 0 0 0
Li 3.16779500 0.00000000 -3.360027429999999 0 0 0
Li 6.28997375 6.71686364 3.49603172
Li 6.10212351 2.24086599 3.09656921
Li 3.13953827 0.00931828 1.04474809
Li 3.14017183 4.47322009 1.04448089
In 0.00000000 0.00000000 -3.360027429999999 0 0 0
In 0.00000000 4.47994000 -3.360027429999999 0 0 0
In 3.16779500 6.71991000 -1.1200982099999983 0 0 0
In 3.16779500 2.23997000 -1.1200982099999983 0 0 0
In 6.32912770 4.44777403 1.09337831
In 6.32950783 0.03288276 1.09311111
In 3.86768763 2.23916361 4.45634492
In 2.99103204 6.71964120 3.51874363
Ir 1.58389750 0.00000000 -1.1200982099999983 0 0 0
Ir 1.58389750 4.47994000 -1.1200982099999983 0 0 0
Ir 4.75169250 2.23997000 -3.360027429999999 0 0 0
Ir 4.75169250 6.71991000 -3.360027429999999 0 0 0
Ir 1.77124090 4.05864644 3.26517178
Ir 1.77168439 0.42272714 3.26597338
Ir 4.71101801 6.72026840 1.19865471
Ir 4.63093615 2.24014920 1.15403248
Pd 4.75169250 0.00000000 -1.1200982099999983 0 0 0
Pd 4.75169250 4.47994000 -1.1200982099999983 0 0 0
Pd 1.58389750 2.23997000 -3.360027429999999 0 0 0
Pd 1.58389750 6.71991000 -3.360027429999999 0 0 0
Pd 4.59133872 4.53817922 3.17272093
Pd 4.59152878 8.90038640 3.17245373
Pd 1.56108938 6.72035799 1.16712523
Pd 1.64649313 2.24032840 1.05410005
C 1.65396913 2.24077639 3.65127433
