&CONTROL
calculation = 'relax'
prefix = 'scf'
pseudo_dir = '/vol0004/mdt0/data/hp150275/u10028/POT_KKJUS'
outdir = './data'
tprnfor = .true.
nstep = 50
disk_io = 'non'
/
&SYSTEM
ibrav = 0
ecutwfc = 50.0
ecutrho = 400
occupations = 'smearing'
smearing = 'mp'
degauss = 0.01
assume_isolated = 'esm'
esm_bc = 'bc1'
input_dft = 'BEEF-VDW'
nosym = .true.
nspin = 1
ntyp = 3
nat = 33
/
&ELECTRONS
electron_maxstep = 200
mixing_beta = 0.1
conv_thr = 1e-06
/
&IONS
ion_dynamics = 'bfgs'
upscale = 1.0
/
&CELL
/

K_POINTS {automatic}
8 6 1 0 0 0

ATOMIC_SPECIES
Au 196.9 Au.pbe-n-rrkjus_psl.1.0.0.UPF
C 12.01 C.pbe-n-rrkjus_psl.1.0.0.UPF
Sc 44.95 Sc.pbe-spn-rrkjus_psl.1.0.0.UPF

CELL_PARAMETERS {angstrom}
6.85145000 0.00000000 0.00000000
0.00000000 9.68941000 0.00000000
0.00000000 0.00000000 27.26710000

ATOMIC_POSITIONS {angstrom}
Sc 1.71286250 2.42235250 -3.6336137499999985 0 0 0
Sc 1.71286250 4.84470500 -1.2112045800000004 0 0 0
Sc 1.71286250 2.42235250 1.26110338
Sc 1.71286250 0.20938815 3.53790622
Sc 1.71286250 7.26705750 -3.6336137499999985 0 0 0
Sc 1.71286250 0.00000000 -1.2112045800000004 0 0 0
Sc 1.71286250 7.26705750 1.20493315
Sc 1.71286250 4.63531685 3.53790622
Sc 5.13858750 2.42235250 -3.6336137499999985 0 0 0
Sc 5.13858750 4.84470500 -1.2112045800000004 0 0 0
Sc 5.13858750 2.42235250 1.26383008
Sc 5.13858750 9.52662791 3.63852182
Sc 5.13858750 7.26705750 -3.6336137499999985 0 0 0
Sc 5.13858750 0.00000000 -1.2112045800000004 0 0 0
Sc 5.13858750 7.26705750 1.24038038
Sc 5.13858750 5.00748709 3.63852182
Au 0.00000000 0.00000000 -3.6336137499999985 0 0 0
Au 0.00000000 2.42235250 -1.2112045800000004 0 0 0
Au 6.79855681 9.67109702 1.17875673
Au 6.48229387 2.42235250 3.79312628
Au 0.00000000 4.84470500 -3.6336137499999985 0 0 0
Au 0.00000000 7.26705750 -1.2112045800000004 0 0 0
Au 6.79855681 4.86301798 1.17875673
Au 0.10126443 7.26705750 3.50436769
Au 3.42572500 0.00000000 -3.6336137499999985 0 0 0
Au 3.42572500 2.42235250 -1.2112045800000004 0 0 0
Au 3.47861819 9.67100012 1.17875673
Au 3.79488113 2.42235250 3.79312628
Au 3.42572500 4.84470500 -3.6336137499999985 0 0 0
Au 3.42572500 7.26705750 -1.2112045800000004 0 0 0
Au 3.47861819 4.86301798 1.17875673
Au 3.32446057 7.26705750 3.50436769
C 1.71286250 2.42235250 3.42556577
