&CONTROL
calculation = 'relax'
prefix = 'scf'
pseudo_dir = '/vol0004/mdt0/data/hp150275/u10028/POT_KKJUS'
outdir = './data'
tprnfor = .true.
nstep = 50
disk_io = 'non'
/
&SYSTEM
ibrav = 0
ecutwfc = 50.0
ecutrho = 400
occupations = 'smearing'
smearing = 'mp'
degauss = 0.01
assume_isolated = 'esm'
esm_bc = 'bc1'
input_dft = 'BEEF-VDW'
nosym = .true.
nspin = 1
ntyp = 4
nat = 33
/
&ELECTRONS
electron_maxstep = 200
mixing_beta = 0.1
conv_thr = 1e-06
/
&IONS
ion_dynamics = 'bfgs'
upscale = 1.0
/
&CELL
/

K_POINTS {automatic}
9 6 2 0  0  0

ATOMIC_SPECIES
C 12.01 C.pbe-n-rrkjus_psl.1.0.0.UPF
In 114.8 In.pbe-dn-rrkjus_psl.1.0.0.UPF
Ir 192.2 Ir.pbe-n-rrkjus_psl.0.2.3.UPF
Li 6.941 Li.pbe-sl-rrkjus_psl.1.0.0.UPF

CELL_PARAMETERS {angstrom}
6.17944000 0.00000000 0.00000000
0.00000000 8.73904000 0.00000000
0.00000000 0.00000000 26.55430000

ATOMIC_POSITIONS {angstrom}
Li 1.54486000 0.00000000 -1.0924439000000028 0 0 0
Li 4.63458000 4.36952000 -1.0924439000000028 0 0 0
Li 4.63458000 0.00000000 -1.0924439000000028 0 0 0
Li 1.54486000 4.36952000 -1.0924439000000028 0 0 0
Li 4.63458000 6.55428000 -3.2770661600000004 0 0 0
Li 1.54486000 2.18476000 -3.2770661600000004 0 0 0
Li 1.54486000 6.55428000 -3.2770661600000004 0 0 0
Li 4.63458000 2.18476000 -3.2770661600000004 0 0 0
Li 1.33123676 4.36952000 3.84692144
Li 4.84412481 0.00000000 4.17964682
Li 4.84820324 4.36952000 3.84692144
Li 1.33531519 0.00000000 4.17964682
Li 4.64292224 2.19446033 1.07252818
Li 1.53651776 6.54457967 1.07252818
Li 1.53651776 2.19446033 1.07252818
Li 4.64292224 6.54457967 1.07252818
In 0.00000000 0.00000000 -3.2770661600000004 0 0 0
In 3.08972000 2.18476000 -1.0924439000000028 0 0 0
In 3.08972000 6.55428000 -1.0924439000000028 0 0 0
In 0.00000000 4.36952000 -3.2770661600000004 0 0 0
In 0.00000000 4.36952000 1.30620602
In 3.08965821 6.41279494 3.37850359
In 3.08978179 2.32624506 3.37850359
In 0.00000000 0.00000000 1.37551274
Ir 0.00000000 6.55428000 -1.0924439000000028 0 0 0
Ir 3.08972000 0.00000000 -3.2770661600000004 0 0 0
Ir 0.00000000 2.18476000 -1.0924439000000028 0 0 0
Ir 3.08972000 4.36952000 -3.2770661600000004 0 0 0
Ir 6.17937821 2.16343674 3.19581001
Ir 3.08972000 4.36952000 1.29930190
Ir 0.00006179 6.57560326 3.19581001
Ir 3.08972000 0.00000000 1.15989182
C 3.08972000 0.00000000 2.97567486
