&CONTROL
calculation = 'relax'
prefix = 'scf'
pseudo_dir = '/vol0004/mdt0/data/hp150275/u10028/POT_KKJUS'
outdir = './data'
tprnfor = .true.
nstep = 50
disk_io = 'non'
/
&SYSTEM
ibrav = 0
ecutwfc = 50.0
ecutrho = 400
occupations = 'smearing'
smearing = 'mp'
degauss = 0.01
assume_isolated = 'esm'
esm_bc = 'bc1'
input_dft = 'BEEF-VDW'
nosym = .true.
nspin = 1
ntyp = 5
nat = 18
/
&ELECTRONS
electron_maxstep = 200
mixing_beta = 0.1
conv_thr = 1e-06
/
&IONS
ion_dynamics = 'bfgs'
upscale = 1.0
/
&CELL
/

K_POINTS {automatic}
8 8 1 0 0 0

ATOMIC_SPECIES
Au 196.9 Au.pbe-n-rrkjus_psl.1.0.0.UPF
C 12.01 C.pbe-n-rrkjus_psl.1.0.0.UPF
Ga 69.72 Ga.pbe-dnl-rrkjus_psl.1.0.0.UPF
Li 6.941 Li.pbe-sl-rrkjus_psl.1.0.0.UPF
O 15.99 O.pbe-n-rrkjus_psl.1.0.0.UPF

CELL_PARAMETERS {angstrom}
6.29417000 0.00000000 0.00000000
0.00000000 6.29417000 0.00000000
0.00000000 0.00000000 24.72060000

ATOMIC_POSITIONS {angstrom}
Li 0.00000000 0.00000000 -0.7868567000000013 0 0 0
Li 3.14708500 0.00000000 2.53559194
Li 0.00000000 3.14708500 2.53559194
Li 3.14708500 3.14708500 -0.7868567000000013 0 0 0
Li 1.57354250 1.57354250 -2.3603228900000026 0 0 0
Li 1.57448663 4.71968337 0.81528539
Li 4.72062750 4.72062750 -2.3603228900000026 0 0 0
Li 4.71968337 1.57448663 0.81528539
Ga 6.29410706 0.00006294 2.19568369
Ga 3.14708500 3.14708500 2.37836893
Ga 3.14708500 0.00000000 -0.7868567000000013 0 0 0
Ga 0.00000000 3.14708500 -0.7868567000000013 0 0 0
Au 1.61627991 1.61634286 0.78487905
Au 1.57354250 4.72062750 -2.3603228900000026 0 0 0
Au 4.67789009 4.67782714 0.78487905
Au 4.72062750 1.57354250 -2.3603228900000026 0 0 0
C 0.00000000 0.00000000 4.18989449
O 0.00000000 0.00000000 5.35299872
