&CONTROL
calculation = 'relax'
prefix = 'scf'
pseudo_dir = '/vol0004/mdt0/data/hp150275/u10028/POT_KKJUS'
outdir = './data'
tprnfor = .true.
nstep = 50
disk_io = 'non'
/
&SYSTEM
ibrav = 0
ecutwfc = 50.0
ecutrho = 400
occupations = 'smearing'
smearing = 'mp'
degauss = 0.01
assume_isolated = 'esm'
esm_bc = 'bc1'
input_dft = 'BEEF-VDW'
nosym = .true.
nspin = 1
ntyp = 4
nat = 33
/
&ELECTRONS
electron_maxstep = 200
mixing_beta = 0.1
conv_thr = 1e-06
/
&IONS
ion_dynamics = 'bfgs'
upscale = 1.0
/
&CELL
/

K_POINTS {automatic}
8 6 1 0 0 0

ATOMIC_SPECIES
Al 26.98 Al.pbe-nl-rrkjus_psl.1.0.0.UPF
C 12.01 C.pbe-n-rrkjus_psl.1.0.0.UPF
Pd 106.4 Pd.pbe-n-rrkjus_psl.1.0.0.UPF
Sc 44.95 Sc.pbe-spn-rrkjus_psl.1.0.0.UPF

CELL_PARAMETERS {angstrom}
6.41477000 0.00000000 0.00000000
0.00000000 9.07185000 0.00000000
0.00000000 0.00000000 26.80390000

ATOMIC_POSITIONS {angstrom}
Sc 0.00000000 0.00000000 -3.4019509899999996 0 0 0
Sc 3.20738500 2.26796250 -1.134073009999998 0 0 0
Sc 3.20738500 6.80388750 -1.134073009999998 0 0 0
Sc 0.00000000 4.53592500 -3.4019509899999996 0 0 0
Sc 0.02694203 4.54336392 1.08448579
Sc 3.16581729 6.80388750 3.47244524
Sc 3.54108134 2.26796250 3.83724632
Sc 0.02694203 9.06441108 1.08448579
Al 0.00000000 6.80388750 -1.134073009999998 0 0 0
Al 3.20738500 0.00000000 -3.4019509899999996 0 0 0
Al 0.00000000 2.26796250 -1.134073009999998 0 0 0
Al 3.20738500 4.53592500 -3.4019509899999996 0 0 0
Al 6.16574863 2.26796250 3.25801404
Al 3.22566709 4.52594597 1.23029901
Al 0.06324963 6.80388750 3.29044676
Al 3.22566709 0.00988832 1.23029901
Pd 1.60369250 0.00000000 -1.134073009999998 0 0 0
Pd 4.81107750 4.53592500 -1.134073009999998 0 0 0
Pd 4.81107750 0.00000000 -1.134073009999998 0 0 0
Pd 1.60369250 4.53592500 -1.134073009999998 0 0 0
Pd 4.81107750 6.80388750 -3.4019509899999996 0 0 0
Pd 1.60369250 2.26796250 -3.4019509899999996 0 0 0
Pd 1.60369250 6.80388750 -3.4019509899999996 0 0 0
Pd 4.81107750 2.26796250 -3.4019509899999996 0 0 0
Pd 1.53191122 4.51242891 3.30090028
Pd 4.90819712 8.97850066 3.26417894
Pd 4.90826127 4.62927434 3.26417894
Pd 1.53191122 0.02349609 3.30116832
Pd 4.76386479 2.26796250 1.12013498
Pd 1.69824621 6.80379678 1.15042339
Pd 1.71364166 2.26787178 1.30159738
Pd 4.79035779 6.80388750 1.12415557
C 1.56725661 2.26796250 3.68687644
