&CONTROL
calculation = 'relax'
prefix = 'scf'
pseudo_dir = '/vol0004/mdt0/data/hp150275/u10028/POT_KKJUS'
outdir = './data'
tprnfor = .true.
nstep = 50
disk_io = 'non'
/
&SYSTEM
ibrav = 0
ecutwfc = 50.0
ecutrho = 400
occupations = 'smearing'
smearing = 'mp'
degauss = 0.01
assume_isolated = 'esm'
esm_bc = 'bc1'
input_dft = 'BEEF-VDW'
nosym = .true.
nspin = 1
ntyp = 5
nat = 34
/
&ELECTRONS
electron_maxstep = 200
mixing_beta = 0.1
conv_thr = 1e-06
/
&IONS
ion_dynamics = 'bfgs'
upscale = 1.0
/
&CELL
/

K_POINTS {automatic}
8 6 1 0 0 0

ATOMIC_SPECIES
C 12.01 C.pbe-n-rrkjus_psl.1.0.0.UPF
In 114.8 In.pbe-dn-rrkjus_psl.1.0.0.UPF
Li 6.941 Li.pbe-sl-rrkjus_psl.1.0.0.UPF
O 15.99 O.pbe-n-rrkjus_psl.1.0.0.UPF
Pd 106.4 Pd.pbe-n-rrkjus_psl.1.0.0.UPF

CELL_PARAMETERS {angstrom}
6.46446000 0.00000000 0.00000000
0.00000000 9.14213000 0.00000000
0.00000000 0.00000000 26.85660000

ATOMIC_POSITIONS {angstrom}
Li 0.00000000 6.85659750 -1.1427483299999999 0 0 0
Li 3.23223000 0.00000000 -3.4282449899999996 0 0 0
Li 0.00000000 2.28553250 -1.1427483299999999 0 0 0
Li 3.23223000 4.57106500 -3.4282449899999996 0 0 0
Li 1.61611500 2.28553250 -3.4282449899999996 0 0 0
Li 1.61611500 6.85659750 -3.4282449899999996 0 0 0
Li 4.84834500 4.57106500 -1.1427483299999999 0 0 0
Li 4.84834500 0.00000000 -1.1427483299999999 0 0 0
Li 0.01234712 2.28516681 3.43576484
Li 3.18103148 4.57106500 1.15295384
Li 0.01241176 6.85696319 3.43576484
Li 3.25698888 0.00000000 1.09736068
Li 1.60111745 6.86948790 1.05143589
Li 1.60118210 2.27264210 1.05143589
Li 4.68880213 0.00000000 3.38205164
Li 4.69403834 4.57106500 3.42690216
In 1.61611500 0.00000000 -1.1427483299999999 0 0 0
In 1.61611500 4.57106500 -1.1427483299999999 0 0 0
In 4.84834500 6.85659750 -3.4282449899999996 0 0 0
In 4.84834500 2.28553250 -3.4282449899999996 0 0 0
In 1.62477738 4.57115642 3.61785259
In 1.64488185 0.00000000 3.49296940
In 4.89042863 2.31359884 1.11401177
In 4.89049328 6.82853116 1.11401177
Pd 0.00000000 0.00000000 -3.4282449899999996 0 0 0
Pd 3.23223000 2.28553250 -1.1427483299999999 0 0 0
Pd 3.23223000 6.85659750 -1.1427483299999999 0 0 0
Pd 0.00000000 4.57106500 -3.4282449899999996 0 0 0
Pd 0.05449540 4.57115642 1.21284406
Pd 3.10164791 6.84187867 3.16666171
Pd 3.10197113 2.30006849 3.16612457
Pd 0.00394332 0.00000000 1.18840455
C 1.20620359 0.00009142 7.23248238
O 2.06261525 9.14203858 7.97936443
