&CONTROL
calculation = 'relax'
prefix = 'scf'
pseudo_dir = '/vol0004/mdt0/data/hp150275/u10028/POT_KKJUS'
outdir = './data'
tprnfor = .true.
nstep = 50
disk_io = 'non'
/
&SYSTEM
ibrav = 0
ecutwfc = 50.0
ecutrho = 400
occupations = 'smearing'
smearing = 'mp'
degauss = 0.01
assume_isolated = 'esm'
esm_bc = 'bc1'
input_dft = 'BEEF-VDW'
nosym = .true.
nspin = 1
ntyp = 4
nat = 17
/
&ELECTRONS
electron_maxstep = 200
mixing_beta = 0.1
conv_thr = 1e-06
/
&IONS
ion_dynamics = 'bfgs'
upscale = 1.0
/
&CELL
/

K_POINTS {automatic}
8 8 1 0 0 0

ATOMIC_SPECIES
C 12.01 C.pbe-n-rrkjus_psl.1.0.0.UPF
Ga 69.72 Ga.pbe-dnl-rrkjus_psl.1.0.0.UPF
Li 6.941 Li.pbe-sl-rrkjus_psl.1.0.0.UPF
Rh 102.9 Rh.pbe-spn-rrkjus_psl.1.0.0.UPF

CELL_PARAMETERS {angstrom}
6.03399000 0.00000000 0.00000000
0.00000000 6.03399000 0.00000000
0.00000000 0.00000000 24.52550000

ATOMIC_POSITIONS {angstrom}
Li 6.03392966 0.00018102 0.68695925
Li 3.01699500 0.00000000 -2.2627226300000025 0 0 0
Li 0.00000000 3.01699500 -2.2627226300000025 0 0 0
Li 3.01717602 3.01699500 0.67567753
Li 1.52364281 1.49474000 2.68308970
Li 1.50849750 4.52549250 -0.7541591300000015 0 0 0
Li 4.51058854 4.53955170 2.68308970
Li 4.52549250 1.50849750 -0.7541591300000015 0 0 0
Ga 1.50849750 1.50849750 -0.7541591300000015 0 0 0
Ga 1.45008848 4.46660076 2.32452689
Ga 4.52549250 4.52549250 -0.7541591300000015 0 0 0
Ga 4.58432390 1.56823400 2.32428163
Rh 0.00000000 0.00000000 -2.2627226300000025 0 0 0
Rh 3.01699500 3.01699500 -2.2627226300000025 0 0 0
Rh 3.01645194 0.00006034 1.07078333
Rh 0.00042238 3.01735704 0.59719593
C 0.00048272 3.01735704 2.59823147
