&CONTROL
calculation = 'relax'
prefix = 'scf'
pseudo_dir = '/vol0004/mdt0/data/hp150275/u10028/POT_KKJUS'
outdir = './data'
tprnfor = .true.
nstep = 50
disk_io = 'non'
/
&SYSTEM
ibrav = 0
ecutwfc = 50.0
ecutrho = 400
occupations = 'smearing'
smearing = 'mp'
degauss = 0.01
assume_isolated = 'esm'
esm_bc = 'bc1'
input_dft = 'BEEF-VDW'
nosym = .true.
nspin = 1
ntyp = 5
nat = 34
/
&ELECTRONS
electron_maxstep = 200
mixing_beta = 0.1
conv_thr = 1e-06
/
&IONS
ion_dynamics = 'bfgs'
upscale = 1.0
/
&CELL
/

K_POINTS {automatic}
8 6 1 0 0 0

ATOMIC_SPECIES
C 12.01 C.pbe-n-rrkjus_psl.1.0.0.UPF
O 15.99 O.pbe-n-rrkjus_psl.1.0.0.UPF
Rh 102.9 Rh.pbe-spn-rrkjus_psl.1.0.0.UPF
Sn 118.7 Sn.pbe-dn-rrkjus_psl.1.0.0.UPF
V 50.94 V.pbe-spnl-rrkjus_psl.1.0.0.UPF

CELL_PARAMETERS {angstrom}
6.32488000 0.00000000 0.00000000
0.00000000 8.94473000 0.00000000
0.00000000 0.00000000 26.70850000

ATOMIC_POSITIONS {angstrom}
V 0.00000000 0.00000000 -3.3543205200000017 0 0 0
V 3.16244000 2.23618250 -1.1180178100000013 0 0 0
V 3.16244000 6.70854750 -1.1180178100000013 0 0 0
V 0.00000000 4.47236500 -3.3543205200000017 0 0 0
V 6.20280982 4.47290168 1.26758541
V 2.87883238 6.68180276 3.13370831
V 2.87826314 2.26274835 3.13397539
V 6.26504664 0.00178895 1.25636784
Sn 0.00000000 6.70854750 -1.1180178100000013 0 0 0
Sn 3.16244000 0.00000000 -3.3543205200000017 0 0 0
Sn 0.00000000 2.23618250 -1.1180178100000013 0 0 0
Sn 3.16244000 4.47236500 -3.3543205200000017 0 0 0
Sn 6.11533673 2.21838249 3.71381693
Sn 3.01026339 4.47317003 1.02907850
Sn 6.11445124 6.72643696 3.71061190
Sn 2.97553980 0.00053668 1.08596761
Rh 1.58122000 0.00000000 -1.1180178100000013 0 0 0
Rh 4.74366000 4.47236500 -1.1180178100000013 0 0 0
Rh 4.74366000 0.00000000 -1.1180178100000013 0 0 0
Rh 1.58122000 4.47236500 -1.1180178100000013 0 0 0
Rh 4.74366000 6.70854750 -3.3543205200000017 0 0 0
Rh 1.58122000 2.23618250 -3.3543205200000017 0 0 0
Rh 1.58122000 6.70854750 -3.3543205200000017 0 0 0
Rh 4.74366000 2.23618250 -3.3543205200000017 0 0 0
Rh 1.60810074 4.47227555 3.24107648
Rh 4.67750176 8.94455111 3.03969438
Rh 4.66384001 4.47254389 3.10192519
Rh 1.70158247 8.94428276 3.69111470
Rh 4.60716909 2.26346393 1.02694182
Rh 1.25251599 6.77795860 1.32848079
Rh 1.25371771 2.16900758 1.32714537
Rh 4.60799132 6.68341281 1.02774308
C 2.35260236 8.94455111 5.43571392
O 2.71052732 8.94365663 6.53824080
