&CONTROL
calculation = 'relax'
prefix = 'scf'
pseudo_dir = '/vol0004/mdt0/data/hp150275/u10028/POT_KKJUS'
outdir = './data'
tprnfor = .true.
nstep = 50
disk_io = 'non'
/
&SYSTEM
ibrav = 0
ecutwfc = 50.0
ecutrho = 400
occupations = 'smearing'
smearing = 'mp'
degauss = 0.01
assume_isolated = 'esm'
esm_bc = 'bc1'
input_dft = 'BEEF-VDW'
nosym = .true.
nspin = 1
ntyp = 4
nat = 33
/
&ELECTRONS
electron_maxstep = 200
mixing_beta = 0.1
conv_thr = 1e-06
/
&IONS
ion_dynamics = 'bfgs'
upscale = 1.0
/
&CELL
/

K_POINTS {automatic}
8 6 1 0 0 0

ATOMIC_SPECIES
C 12.01 C.pbe-n-rrkjus_psl.1.0.0.UPF
In 114.8 In.pbe-dn-rrkjus_psl.1.0.0.UPF
Ni 58.69 Ni.pbe-spn-rrkjus_psl.1.0.0.UPF
Sc 44.95 Sc.pbe-spn-rrkjus_psl.1.0.0.UPF

CELL_PARAMETERS {angstrom}
6.35421000 0.00000000 0.00000000
0.00000000 8.98620000 0.00000000
0.00000000 0.00000000 26.73970000

ATOMIC_POSITIONS {angstrom}
Sc 0.00000000 0.00000000 -3.36973699 0 0 0
Sc 3.17710500 2.24655000 -1.1233347999999985 0 0 0
Sc 3.17710500 6.73965000 -1.1233347999999985 0 0 0
Sc 0.00000000 4.49310000 -3.36973699 0 0 0
Sc 0.00000000 4.49336959 1.08028388
Sc 3.17704146 6.68150929 3.30663130
Sc 3.17710500 2.30469071 3.30636390
Sc 0.00000000 0.00000000 1.19900815
In 0.00000000 6.73965000 -1.1233347999999985 0 0 0
In 3.17710500 0.00000000 -3.36973699 0 0 0
In 0.00000000 2.24655000 -1.1233347999999985 0 0 0
In 3.17710500 4.49310000 -3.36973699 0 0 0
In 0.00006354 2.33290738 3.52910561
In 3.17710500 4.49310000 1.08135347
In 6.35414646 6.65329262 3.52910561
In 3.17710500 0.00026959 1.08910798
Ni 1.58855250 0.00000000 -1.1233347999999985 0 0 0
Ni 4.76565750 4.49310000 -1.1233347999999985 0 0 0
Ni 4.76565750 0.00000000 -1.1233347999999985 0 0 0
Ni 1.58855250 4.49310000 -1.1233347999999985 0 0 0
Ni 4.76565750 6.73965000 -3.36973699 0 0 0
Ni 1.58855250 2.24655000 -3.36973699 0 0 0
Ni 1.58855250 6.73965000 -3.36973699 0 0 0
Ni 4.76565750 2.24655000 -3.36973699 0 0 0
Ni 1.51103114 4.49310000 3.15261063
Ni 4.56264049 0.00008986 3.36118029
Ni 4.84324240 4.49310000 3.15234323
Ni 1.79137888 8.98611014 3.36144769
Ni 4.76953357 2.26497171 1.13991341
Ni 1.58524831 6.72140801 1.13964601
Ni 1.58467643 2.26506157 1.13991341
Ni 4.76889815 6.72140801 1.13991341
C 6.35414646 0.00000000 3.59862883
