&CONTROL
calculation = 'relax'
prefix = 'scf'
pseudo_dir = '/vol0004/mdt0/data/hp150275/u10028/POT_KKJUS'
outdir = './data'
tprnfor = .true.
nstep = 50
disk_io = 'non'
/
&SYSTEM
ibrav = 0
ecutwfc = 50.0
ecutrho = 400
occupations = 'smearing'
smearing = 'mp'
degauss = 0.01
assume_isolated = 'esm'
esm_bc = 'bc1'
input_dft = 'BEEF-VDW'
nosym = .true.
nspin = 1
ntyp = 4
nat = 33
/
&ELECTRONS
electron_maxstep = 200
mixing_beta = 0.1
conv_thr = 1e-06
/
&IONS
ion_dynamics = 'bfgs'
upscale = 1.0
/
&CELL
/

K_POINTS {automatic}
9 6 2 0  0  0

ATOMIC_SPECIES
Au 196.9 Au.pbe-n-rrkjus_psl.1.0.0.UPF
C 12.01 C.pbe-n-rrkjus_psl.1.0.0.UPF
In 114.8 In.pbe-dn-rrkjus_psl.1.0.0.UPF
Ti 47.86 Ti.pbe-spn-rrkjus_psl.1.0.0.UPF

CELL_PARAMETERS {angstrom}
6.72102000 0.00000000 0.00000000
0.00000000 9.50495000 0.00000000
0.00000000 0.00000000 27.12870000

ATOMIC_POSITIONS {angstrom}
Ti 0.00000000 0.00000000 -3.564439889999999 0 0 0
Ti 3.36051000 2.37623750 -1.1882370599999987 0 0 0
Ti 3.36051000 7.12871250 -1.1882370599999987 0 0 0
Ti 0.00000000 4.75247500 -3.564439889999999 0 0 0
Ti 0.01048479 4.83212648 1.23082912
Ti 3.21889811 7.12861745 3.34768158
Ti 3.49237641 2.37633255 3.42825382
Ti 0.01041758 9.42539357 1.23082912
In 0.00000000 7.12871250 -1.1882370599999987 0 0 0
In 3.36051000 0.00000000 -3.564439889999999 0 0 0
In 0.00000000 2.37623750 -1.1882370599999987 0 0 0
In 3.36051000 4.75247500 -3.564439889999999 0 0 0
In 6.22252195 2.37614245 4.31047914
In 3.33873390 4.65428887 1.14645886
In 0.14631661 7.12871250 3.83491303
In 3.33880111 0.09828118 1.14645886
Au 1.68025500 0.00000000 -1.1882370599999987 0 0 0
Au 5.04076500 4.75247500 -1.1882370599999987 0 0 0
Au 5.04076500 0.00000000 -1.1882370599999987 0 0 0
Au 1.68025500 4.75247500 -1.1882370599999987 0 0 0
Au 5.04076500 7.12871250 -3.564439889999999 0 0 0
Au 1.68025500 2.37623750 -3.564439889999999 0 0 0
Au 1.68025500 7.12871250 -3.564439889999999 0 0 0
Au 5.04076500 2.37623750 -3.564439889999999 0 0 0
Au 1.88712800 4.76825322 3.79015068
Au 4.94902308 9.35942922 3.56037059
Au 4.94902308 4.89799578 3.56037059
Au 1.88719521 9.48917178 3.79015068
Au 5.23265012 2.37614245 1.24303703
Au 1.65310208 7.12890260 1.14944302
Au 1.46148580 2.37604740 1.41964487
Au 5.03034742 7.12880755 1.21102517
C 1.63367833 2.37623750 3.83626947
