&CONTROL
calculation = 'relax'
prefix = 'scf'
pseudo_dir = '/vol0403/data/hp230205/u10028/POT_HYBRID_KKJUS_GBRV'
outdir = './data'
tprnfor = .true.
nstep = 70
disk_io = 'non'
/
&SYSTEM
ibrav = 0
ecutwfc = 50.0
ecutrho = 400
occupations = 'smearing'
smearing = 'mp'
degauss = 0.01
assume_isolated = 'esm'
esm_bc = 'bc1'
input_dft = 'BEEF-VDW'
nosym = .true.
nspin = 1
ntyp = 5
nat = 33
/
&ELECTRONS
electron_maxstep = 200
mixing_beta = 0.1
conv_thr = 1e-06
/
&IONS
ion_dynamics = 'bfgs'
upscale = 1.0
/
&CELL
/

K_POINTS {automatic}
6 6 1 0 0 0

ATOMIC_SPECIES
Ag 107.8 Ag.pbe-n-rrkjus_psl.1.0.0.UPF
C 12.01 C.pbe-n-rrkjus_psl.1.0.0.UPF
Cu 63.54 Cu.pbe-dn-rrkjus_psl.1.0.0.UPF
Ge 72.64 Ge.pbe-dn-rrkjus_psl.1.0.0.UPF
Li 6.941 Li.pbe-sl-rrkjus_psl.1.0.0.UPF


CELL_PARAMETERS {angstrom}
6.23049000 0.00000000 0.00000000
-0.00000000 8.81124000 0.00000000
0.00000000 0.00000000 26.60840000

ATOMIC_POSITIONS {angstrom}
Li 1.55762250 0.00000000 -1.101321679999998 0 0 0
Li 1.55762250 4.40562000 -1.101321679999998 0 0 0
Li 4.67286750 2.20281000 -3.30423111 0 0 0
Li 4.67286750 6.60843000 -3.30423111 0 0 0
Li 1.41176673 4.40562000 3.56978294
Li 1.74833780 -0.00000000 3.40933429
Li 4.64788324 6.56869131 1.05954649
Li 4.64788324 2.24254869 1.05954649
Cu 0.00000000 2.20281000 -1.101321679999998 0 0 0
Cu 0.00000000 6.60843000 -1.101321679999998 0 0 0
Cu 3.11524500 4.40562000 -3.30423111 0 0 0
Cu 3.11524500 0.00000000 -3.30423111 0 0 0
Cu 6.15354345 6.80615423 3.26245592
Cu 6.15354345 2.00526200 3.26245592
Cu 3.06546338 -0.00000000 0.99861325
Cu 3.05518308 4.40562000 1.27321194
Ag 0.00000000 0.00000000 -3.30423111 0 0 0
Ag 0.00000000 4.40562000 -3.30423111 0 0 0
Ag 3.11524500 6.60843000 -1.101321679999998 0 0 0
Ag 3.11524500 2.20281000 -1.101321679999998 0 0 0
Ag 6.19796684 4.40562000 1.19578150
Ag 6.14332544 -0.00000000 1.17050352
Ag 3.26944963 2.48609137 3.36942169
Ag 3.26932502 6.32523675 3.36942169
Ge 4.67286750 0.00000000 -1.101321679999998 0 0 0
Ge 4.67286750 4.40562000 -1.101321679999998 0 0 0
Ge 1.55762250 2.20281000 -3.30423111 0 0 0
Ge 1.55762250 6.60843000 -3.30423111 0 0 0
Ge 5.06513915 4.40570811 3.69111725
Ge 4.19162445 -0.00000000 3.77094245
Ge 1.61170315 6.63001754 1.19737800
Ge 1.61176546 2.18122246 1.19737800
C 6.03036666 0.00008811 3.55727700
