&CONTROL
calculation = 'relax'
prefix = 'scf'
pseudo_dir = '/vol0004/mdt0/data/hp150275/u10028/POT_KKJUS'
outdir = './data'
tprnfor = .true.
nstep = 50
disk_io = 'non'
/
&SYSTEM
ibrav = 0
ecutwfc = 50.0
ecutrho = 400
occupations = 'smearing'
smearing = 'mp'
degauss = 0.01
assume_isolated = 'esm'
esm_bc = 'bc1'
input_dft = 'BEEF-VDW'
nosym = .true.
nspin = 1
ntyp = 4
nat = 33
/
&ELECTRONS
electron_maxstep = 200
mixing_beta = 0.1
conv_thr = 1e-06
/
&IONS
ion_dynamics = 'bfgs'
upscale = 1.0
/
&CELL
/

K_POINTS {automatic}
8 6 1 0 0 0

ATOMIC_SPECIES
Ag 107.8 Ag.pbe-n-rrkjus_psl.1.0.0.UPF
Al 26.98 Al.pbe-nl-rrkjus_psl.1.0.0.UPF
C 12.01 C.pbe-n-rrkjus_psl.1.0.0.UPF
Li 6.941 Li.pbe-sl-rrkjus_psl.1.0.0.UPF

CELL_PARAMETERS {angstrom}
6.34834000 0.00000000 0.00000000
0.00000000 8.97791000 0.00000000
0.00000000 0.00000000 26.73340000

ATOMIC_POSITIONS {angstrom}
Li 0.00000000 6.73343250 -1.1222681299999984 0 0 0
Li 3.17417000 0.00000000 -3.3668043999999995 0 0 0
Li 0.00000000 2.24447750 -1.1222681299999984 0 0 0
Li 3.17417000 4.48895500 -3.3668043999999995 0 0 0
Li 1.58708500 0.00000000 -1.1222681299999984 0 0 0
Li 1.58708500 4.48895500 -1.1222681299999984 0 0 0
Li 4.76125500 6.73343250 -3.3668043999999995 0 0 0
Li 4.76125500 2.24447750 -3.3668043999999995 0 0 0
Li 0.15566130 2.24447750 3.41839986
Li 3.12071698 4.49317462 1.02656256
Li 6.11738739 6.73343250 3.25639545
Li 3.12071698 8.97369038 1.02656256
Li 1.58003834 4.70379639 3.42374654
Li 1.58003834 8.76306861 3.42374654
Li 4.75579543 2.24447750 1.26796516
Li 4.76182635 6.73343250 1.03672125
Al 0.00000000 0.00000000 -3.3668043999999995 0 0 0
Al 3.17417000 2.24447750 -1.1222681299999984 0 0 0
Al 3.17417000 6.73343250 -1.1222681299999984 0 0 0
Al 0.00000000 4.48895500 -3.3668043999999995 0 0 0
Al 0.01548995 4.52522576 1.08136603
Al 3.35122520 6.73343250 3.29729756
Al 2.72242213 2.24447750 3.66407980
Al 0.01548995 8.94163924 1.08136603
Ag 1.58708500 2.24447750 -3.3668043999999995 0 0 0
Ag 1.58708500 6.73343250 -3.3668043999999995 0 0 0
Ag 4.76125500 4.48895500 -1.1222681299999984 0 0 0
Ag 4.76125500 0.00000000 -1.1222681299999984 0 0 0
Ag 1.59762324 6.73343250 1.15515021
Ag 1.54531292 2.24447750 1.04233527
Ag 4.62660671 0.05314923 3.18929462
Ag 4.62667019 4.43580577 3.18929462
C 4.56407556 2.24447750 3.41332051
