&CONTROL
calculation = 'relax'
prefix = 'scf'
pseudo_dir = '/vol0004/mdt0/data/hp150275/u10028/POT_KKJUS'
outdir = './data'
tprnfor = .true.
nstep = 50
disk_io = 'non'
/
&SYSTEM
ibrav = 0
ecutwfc = 50.0
ecutrho = 400
occupations = 'smearing'
smearing = 'mp'
degauss = 0.01
assume_isolated = 'esm'
esm_bc = 'bc1'
input_dft = 'BEEF-VDW'
nosym = .true.
nspin = 1
ntyp = 2
nat = 32
/
&ELECTRONS
electron_maxstep = 200
mixing_beta = 0.1
conv_thr = 1e-06
/
&IONS
ion_dynamics = 'bfgs'
upscale = 1.0
/
&CELL
/

K_POINTS {automatic}
9 6 2 0  0  0

ATOMIC_SPECIES
Pd 106.4 Pd.pbe-n-rrkjus_psl.1.0.0.UPF
Sc 44.95 Sc.pbe-spn-rrkjus_psl.1.0.0.UPF

CELL_PARAMETERS {angstrom}
6.66071000 0.00000000 0.00000000
0.00000000 9.41967000 0.00000000
0.00000000 0.00000000 27.06480000

ATOMIC_POSITIONS {angstrom}
Sc 1.66517750 2.35491750 -3.5324977000000004 0 0 0
Sc 1.66517750 0.00000000 -1.1775894500000028 0 0 0
Sc 1.66524411 2.35491750 1.16784612
Sc 1.66511089 0.00000000 3.54115843
Sc 1.66517750 7.06475250 -3.5324977000000004 0 0 0
Sc 1.66517750 4.70983500 -1.1775894500000028 0 0 0
Sc 1.66531071 7.06475250 1.16784612
Sc 1.66511089 4.70983500 3.54115843
Sc 4.99553250 2.35491750 -3.5324977000000004 0 0 0
Sc 4.99553250 0.00000000 -1.1775894500000028 0 0 0
Sc 4.99539929 2.35491750 1.16784612
Sc 4.99553250 0.00000000 3.54115843
Sc 4.99553250 7.06475250 -3.5324977000000004 0 0 0
Sc 4.99553250 4.70983500 -1.1775894500000028 0 0 0
Sc 4.99539929 7.06475250 1.16784612
Sc 4.99559911 4.70983500 3.54115843
Pd 0.00000000 0.00000000 -3.5324977000000004 0 0 0
Pd 0.00000000 2.35491750 -1.1775894500000028 0 0 0
Pd 0.00000000 0.00000000 1.20979656
Pd 0.00000000 2.35491750 3.32869975
Pd 0.00000000 4.70983500 -3.5324977000000004 0 0 0
Pd 0.00000000 7.06475250 -1.1775894500000028 0 0 0
Pd 0.00000000 4.70983500 1.20979656
Pd 0.00000000 7.06475250 3.32869975
Pd 3.33035500 0.00000000 -3.5324977000000004 0 0 0
Pd 3.33035500 2.35491750 -1.1775894500000028 0 0 0
Pd 3.33035500 0.00000000 1.20979656
Pd 3.33035500 2.35491750 3.32897040
Pd 3.33035500 4.70983500 -3.5324977000000004 0 0 0
Pd 3.33035500 7.06475250 -1.1775894500000028 0 0 0
Pd 3.33035500 4.70983500 1.20979656
Pd 3.33035500 7.06475250 3.32897040
