&CONTROL
calculation = 'relax'
prefix = 'scf'
pseudo_dir = '/vol0004/mdt0/data/hp150275/u10028/POT_KKJUS'
outdir = './data'
tprnfor = .true.
nstep = 50
disk_io = 'non'
/
&SYSTEM
ibrav = 0
ecutwfc = 50.0
ecutrho = 400
occupations = 'smearing'
smearing = 'mp'
degauss = 0.01
assume_isolated = 'esm'
esm_bc = 'bc1'
input_dft = 'BEEF-VDW'
nosym = .true.
nspin = 1
ntyp = 3
nat = 33
/
&ELECTRONS
electron_maxstep = 200
mixing_beta = 0.1
conv_thr = 1e-06
/
&IONS
ion_dynamics = 'bfgs'
upscale = 1.0
/
&CELL
/

K_POINTS {automatic}
9 6 2 0  0  0

ATOMIC_SPECIES
C 12.01 C.pbe-n-rrkjus_psl.1.0.0.UPF
Mg 24.30 Mg.pbe-spnl-rrkjus_psl.1.0.0.UPF
Rh 102.9 Rh.pbe-spn-rrkjus_psl.1.0.0.UPF

CELL_PARAMETERS {angstrom}
6.29180000 0.00000000 0.00000000
0.00000000 8.89794000 0.00000000
0.00000000 0.00000000 26.67350000

ATOMIC_POSITIONS {angstrom}
Mg 0.00000000 0.00000000 -3.3368548500000017 0 0 0
Mg 0.00000000 2.22448500 -1.1122849499999994 0 0 0
Mg 0.01975625 8.87694086 1.11041780
Mg 5.99822461 2.22475194 3.16561098
Mg 0.00000000 4.44897000 -3.3368548500000017 0 0 0
Mg 0.00000000 6.67345500 -1.1122849499999994 0 0 0
Mg 0.01975625 4.46996914 1.11041780
Mg 0.03636660 6.67327704 3.41794229
Mg 3.14590000 0.00000000 -3.3368548500000017 0 0 0
Mg 3.14590000 2.22448500 -1.1122849499999994 0 0 0
Mg 3.13426017 8.87631801 1.11015107
Mg 3.43192523 2.22457398 3.16801160
Mg 3.14590000 4.44897000 -3.3368548500000017 0 0 0
Mg 3.14590000 6.67345500 -1.1122849499999994 0 0 0
Mg 3.13426017 4.47059199 1.11015107
Mg 3.11318264 6.67336602 3.41794229
Rh 1.57295000 2.22448500 -3.3368548500000017 0 0 0
Rh 1.57295000 4.44897000 -1.1122849499999994 0 0 0
Rh 1.57408252 2.22439602 1.10161555
Rh 1.57037036 0.43128315 3.49849626
Rh 1.57295000 6.67345500 -3.3368548500000017 0 0 0
Rh 1.57295000 0.00000000 -1.1122849499999994 0 0 0
Rh 1.57502629 6.67354398 1.21577813
Rh 1.57037036 4.01759787 3.49876300
Rh 4.71885000 2.22448500 -3.3368548500000017 0 0 0
Rh 4.71885000 4.44897000 -1.1122849499999994 0 0 0
Rh 4.71822082 2.22466296 0.95517804
Rh 4.71859833 8.79899491 3.25763456
Rh 4.71885000 6.67345500 -3.3368548500000017 0 0 0
Rh 4.71885000 0.00000000 -1.1122849499999994 0 0 0
Rh 4.72048587 6.67354398 1.13148987
Rh 4.71859833 4.54791509 3.25763456
C 1.56653236 2.22448500 4.11892187
