&CONTROL
calculation = 'relax'
prefix = 'scf'
pseudo_dir = '/vol0004/mdt0/data/hp150275/u10028/POT_HYBRID_KKJUS_GBRV'
outdir = './data'
tprnfor = .true.
nstep = 70
disk_io = 'non'
/
&SYSTEM
ibrav = 0
ecutwfc = 50.0
ecutrho = 400
occupations = 'smearing'
smearing = 'mp'
degauss = 0.01
assume_isolated = 'esm'
esm_bc = 'bc1'
input_dft = 'BEEF-VDW'
nosym = .true.
nspin = 1
ntyp = 4
nat = 34
/
&ELECTRONS
electron_maxstep = 200
mixing_beta = 0.1
conv_thr = 1e-06
/
&IONS
ion_dynamics = 'bfgs'
upscale = 1.0
/
&CELL
/

K_POINTS {automatic}
6 8 1 0 0 0

ATOMIC_SPECIES
C 12.01 C.pbe-n-rrkjus_psl.1.0.0.UPF
Ga 69.72 Ga.pbe-dnl-rrkjus_psl.1.0.0.UPF
O 15.99 O.pbe-n-rrkjus_psl.1.0.0.UPF
Ti 47.86 Ti.pbe-spn-rrkjus_psl.1.0.0.UPF

CELL_PARAMETERS {angstrom}
7.95272000 0.00000000 0.00000000
-0.00000000 7.99342000 0.00000000
0.00000000 0.00000000 25.96450000

ATOMIC_POSITIONS {angstrom}
Ti 1.98818000 1.99835500 -2.9822824700000012 0 0 0
Ti 0.00000000 1.99835500 -0.994180710000002 0 0 0
Ti 1.98818000 1.99835500 0.99418070
Ti 0.00000000 1.99835500 2.98228247
Ti 1.98818000 5.99506500 -2.9822824700000012 0 0 0
Ti 0.00000000 5.99506500 -0.994180710000002 0 0 0
Ti 1.98818000 5.99506500 0.99418070
Ti 0.00000000 5.99506500 2.98228247
Ti 5.96454000 1.99835500 -2.9822824700000012 0 0 0
Ti 3.97636000 1.99835500 -0.994180710000002 0 0 0
Ti 5.96454000 1.99835500 0.99418070
Ti 3.97636000 1.99835500 2.98228247
Ti 5.96454000 5.99506500 -2.9822824700000012 0 0 0
Ti 3.97636000 5.99506500 -0.994180710000002 0 0 0
Ti 5.96454000 5.99506500 0.99418070
Ti 3.97636000 5.99506500 2.98228247
Ga 0.00000000 0.00000000 -2.9822824700000012 0 0 0
Ga 1.98818000 0.00000000 -0.994180710000002 0 0 0
Ga 0.00000000 0.00000000 0.99418070
Ga 1.98818000 -0.00000000 2.98228247
Ga 0.00000000 3.99671000 -2.9822824700000012 0 0 0
Ga 1.98818000 3.99671000 -0.994180710000002 0 0 0
Ga 0.00000000 3.99671000 0.99418070
Ga 1.98818000 3.99671000 2.98228247
Ga 3.97636000 0.00000000 -2.9822824700000012 0 0 0
Ga 5.96454000 0.00000000 -0.994180710000002 0 0 0
Ga 3.97636000 -0.00000000 0.99418070
Ga 5.96454000 -0.00000000 2.98228247
Ga 3.97636000 3.99671000 -2.9822824700000012 0 0 0
Ga 5.96454000 3.99671000 -0.994180710000002 0 0 0
Ga 3.97636000 3.99671000 0.99418070
Ga 5.96454000 3.99671000 2.98228247
C 1.98818000 -0.00000000 4.88236458
O 1.98818000 -0.00000000 6.03233229
