&CONTROL
calculation = 'relax'
prefix = 'scf'
pseudo_dir = '/vol0004/mdt0/data/hp150275/u10028/POT_KKJUS'
outdir = './data'
tprnfor = .true.
nstep = 50
disk_io = 'non'
/
&SYSTEM
ibrav = 0
ecutwfc = 50.0
ecutrho = 400
occupations = 'smearing'
smearing = 'mp'
degauss = 0.01
assume_isolated = 'esm'
esm_bc = 'bc1'
input_dft = 'BEEF-VDW'
nosym = .true.
nspin = 1
ntyp = 2
nat = 32
/
&ELECTRONS
electron_maxstep = 200
mixing_beta = 0.1
conv_thr = 1e-06
/
&IONS
ion_dynamics = 'bfgs'
upscale = 1.0
/
&CELL
/

K_POINTS {automatic}
7 7 2 0  0  0

ATOMIC_SPECIES
Pd 106.4 Pd.pbe-n-rrkjus_psl.1.0.0.UPF
Ti 47.86 Ti.pbe-spn-rrkjus_psl.1.0.0.UPF

CELL_PARAMETERS {angstrom}
7.90864000 0.00000000 0.00000000
-0.00000000 7.90864000 0.00000000
0.00000000 0.00000000 25.93150000

ATOMIC_POSITIONS {angstrom}
Ti 0.00000000 0.00000000 -2.965785650000001 0 0 0
Ti 0.00000000 0.00000000 0.98850878
Ti 0.00000000 3.95432000 -2.965785650000001 0 0 0
Ti 0.00000000 3.95432000 0.98850878
Ti 3.95432000 0.00000000 -2.965785650000001 0 0 0
Ti 3.95432000 -0.00000000 0.98850878
Ti 3.95432000 3.95432000 -2.965785650000001 0 0 0
Ti 3.95432000 3.95432000 0.98850878
Pd 0.00000000 1.97716000 -0.9885087800000001 0 0 0
Pd 1.97716000 0.00000000 -0.9885087800000001 0 0 0
Pd 1.97716000 1.97716000 -2.965785650000001 0 0 0
Pd 0.00000000 1.97716000 2.96578565
Pd 1.97716000 -0.00000000 2.96578565
Pd 1.97716000 1.97716000 0.98850878
Pd 0.00000000 5.93148000 -0.9885087800000001 0 0 0
Pd 1.97716000 3.95432000 -0.9885087800000001 0 0 0
Pd 1.97716000 5.93148000 -2.965785650000001 0 0 0
Pd 0.00000000 5.93148000 2.96578565
Pd 1.97716000 3.95432000 2.96578565
Pd 1.97716000 5.93148000 0.98850878
Pd 3.95432000 1.97716000 -0.9885087800000001 0 0 0
Pd 5.93148000 0.00000000 -0.9885087800000001 0 0 0
Pd 5.93148000 1.97716000 -2.965785650000001 0 0 0
Pd 3.95432000 1.97716000 2.96578565
Pd 5.93148000 -0.00000000 2.96578565
Pd 5.93148000 1.97716000 0.98850878
Pd 3.95432000 5.93148000 -0.9885087800000001 0 0 0
Pd 5.93148000 3.95432000 -0.9885087800000001 0 0 0
Pd 5.93148000 5.93148000 -2.965785650000001 0 0 0
Pd 3.95432000 5.93148000 2.96578565
Pd 5.93148000 3.95432000 2.96578565
Pd 5.93148000 5.93148000 0.98850878
