&CONTROL
calculation = 'relax'
prefix = 'scf'
pseudo_dir = '/vol0403/data/hp230205/u10028/POT_HYBRID_KKJUS_GBRV'
outdir = './data'
tprnfor = .true.
nstep = 50
disk_io = 'non'
/
&SYSTEM
ibrav = 0
ecutwfc = 50.0
ecutrho = 400
occupations = 'smearing'
smearing = 'mp'
degauss = 0.01
assume_isolated = 'esm'
esm_bc = 'bc1'
input_dft = 'BEEF-VDW'
nosym = .true.
nspin = 1
ntyp = 4
nat = 16
/
&ELECTRONS
electron_maxstep = 200
mixing_beta = 0.1
conv_thr = 1e-06
/
&IONS
ion_dynamics = 'bfgs'
upscale = 1.0
/
&CELL
/

K_POINTS {automatic}
6 6 1 0 0 0

ATOMIC_SPECIES
Ga 69.72 Ga.pbe-dnl-rrkjus_psl.1.0.0.UPF
In 114.8 In.pbe-dn-rrkjus_psl.1.0.0.UPF
Li 6.941 Li.pbe-sl-rrkjus_psl.1.0.0.UPF
Sc 44.95 Sc.pbe-spn-rrkjus_psl.1.0.0.UPF


CELL_PARAMETERS {angstrom}
6.04935000 0.00000000 0.00000000
0.00000000 8.37318000 0.00000000
0.00000000 0.00000000 24.52450000

ATOMIC_POSITIONS {angstrom}
Li 4.42467607 2.09329500 -0.7541283800000009 0 0 0
Li 1.11791988 2.09329500 2.23712489
Li 4.42467607 6.27988500 -0.7541283800000009 0 0 0
Li 1.11804087 6.27980127 2.23712489
Sc 1.40000107 2.09329500 -0.7541283800000009 0 0 0
Sc 4.05887188 2.09337873 2.10469259
Sc 1.40000107 6.27988500 -0.7541283800000009 0 0 0
Sc 4.05911385 6.27963380 2.10542832
In 3.02467500 0.00000000 -2.2621398799999994 0 0 0
In 5.77888356 0.00000000 0.85860275
In 3.02467500 4.18659000 -2.2621398799999994 0 0 0
In 5.77815764 4.18650627 0.85860275
Ga 0.00000000 0.00000000 -2.2621398799999994 0 0 0
Ga 2.67925711 8.37301254 0.88361773
Ga 0.00000000 4.18659000 -2.2621398799999994 0 0 0
Ga 2.67883366 4.18675746 0.88386298
