&CONTROL
calculation = 'relax'
prefix = 'scf'
pseudo_dir = '/vol0004/mdt0/data/hp150275/u10028/POT_KKJUS'
outdir = './data'
tprnfor = .true.
nstep = 50
disk_io = 'non'
/
&SYSTEM
ibrav = 0
ecutwfc = 50.0
ecutrho = 400
occupations = 'smearing'
smearing = 'mp'
degauss = 0.01
assume_isolated = 'esm'
esm_bc = 'bc1'
input_dft = 'BEEF-VDW'
nosym = .true.
nspin = 1
ntyp = 5
nat = 18
/
&ELECTRONS
electron_maxstep = 200
mixing_beta = 0.1
conv_thr = 1e-06
/
&IONS
ion_dynamics = 'bfgs'
upscale = 1.0
/
&CELL
/

K_POINTS {automatic}
8 8 1 0 0 0

ATOMIC_SPECIES
C 12.01 C.pbe-n-rrkjus_psl.1.0.0.UPF
Ga 69.72 Ga.pbe-dnl-rrkjus_psl.1.0.0.UPF
Li 6.941 Li.pbe-sl-rrkjus_psl.1.0.0.UPF
O 15.99 O.pbe-n-rrkjus_psl.1.0.0.UPF
Rh 102.9 Rh.pbe-spn-rrkjus_psl.1.0.0.UPF

CELL_PARAMETERS {angstrom}
6.12388000 0.00000000 0.00000000
0.00000000 6.12388000 0.00000000
0.00000000 0.00000000 24.59290000

ATOMIC_POSITIONS {angstrom}
Li 0.00000000 0.00000000 -2.2964850000000006 0 0 0
Li 3.06194000 3.06194000 -2.2964850000000006 0 0 0
Li 3.06837007 6.11628639 0.71983418
Li 6.11604143 3.06855379 0.72008011
Ga 1.53097000 1.53097000 -0.7655769799999987 0 0 0
Ga 4.59419601 4.59419601 2.32648834
Ga 4.59291000 1.53097000 -0.7655769799999987 0 0 0
Ga 1.53201106 4.59260381 2.30238730
Ga 4.59291000 4.59291000 -0.7655769799999987 0 0 0
Ga 1.53225601 1.53231725 2.26672759
Ga 1.53097000 4.59291000 -0.7655769799999987 0 0 0
Ga 4.59297124 1.53158239 2.30164951
Rh 0.03741691 0.03557974 0.84427426
Rh 3.06194000 0.00000000 -2.2964850000000006 0 0 0
Rh 0.00000000 3.06194000 -2.2964850000000006 0 0 0
Rh 3.02917724 3.02936096 0.84452019
C 1.52502984 1.52539727 4.33351491
O 1.52349887 1.52368258 5.48347891
