&CONTROL
calculation = 'relax'
prefix = 'scf'
pseudo_dir = '/vol0004/mdt0/data/hp150275/u10028/POT_HYBRID_KKJUS_GBRV'
outdir = './data'
tprnfor = .true.
nstep = 50
disk_io = 'non'
/
&SYSTEM
ibrav = 0
ecutwfc = 50.0
ecutrho = 400
occupations = 'smearing'
smearing = 'mp'
degauss = 0.01
assume_isolated = 'esm'
esm_bc = 'bc1'
input_dft = 'BEEF-VDW'
nosym = .true.
nspin = 2
ntyp = 2
nat = 32
starting_magnetization(1) = 0.0
starting_magnetization(2) = 0.1
/
&ELECTRONS
electron_maxstep = 200
mixing_beta = 0.1
conv_thr = 1e-06
/
&IONS
ion_dynamics = 'bfgs'
upscale = 1.0
/
&CELL
/

K_POINTS {automatic}
6 8 1 0 0 0

ATOMIC_SPECIES
Au 196.9 Au.pbe-n-rrkjus_psl.1.0.0.UPF
Mn 54.93 mn_pbe_v1.5.uspp.F.UPF

CELL_PARAMETERS {angstrom}
9.12264000 0.00000000 0.00000000
-0.00000000 6.71308000 0.00000000
0.00000000 0.00000000 26.84200000

ATOMIC_POSITIONS {angstrom}
Mn 2.28066000 1.67827000 -3.4210128999999974 0 0 0
Mn 4.56132000 1.67827000 -1.1402481599999987 0 0 0
Mn 2.28066000 1.67827000 1.14024816
Mn 0.00000000 1.67827000 3.42101290
Mn 2.28066000 5.03481000 -3.4210128999999974 0 0 0
Mn 4.56132000 5.03481000 -1.1402481599999987 0 0 0
Mn 2.28066000 5.03481000 1.14024816
Mn 0.00000000 5.03481000 3.42101290
Mn 6.84198000 1.67827000 -3.4210128999999974 0 0 0
Mn 0.00000000 1.67827000 -1.1402481599999987 0 0 0
Mn 6.84198000 1.67827000 1.14024816
Mn 4.56132000 1.67827000 3.42101290
Mn 6.84198000 5.03481000 -3.4210128999999974 0 0 0
Mn 0.00000000 5.03481000 -1.1402481599999987 0 0 0
Mn 6.84198000 5.03481000 1.14024816
Mn 4.56132000 5.03481000 3.42101290
Au 0.00000000 0.00000000 -3.4210128999999974 0 0 0
Au 2.28066000 0.00000000 -1.1402481599999987 0 0 0
Au 0.00000000 0.00000000 1.14024816
Au 2.28066000 -0.00000000 3.42101290
Au 0.00000000 3.35654000 -3.4210128999999974 0 0 0
Au 2.28066000 3.35654000 -1.1402481599999987 0 0 0
Au 0.00000000 3.35654000 1.14024816
Au 2.28066000 3.35654000 3.42101290
Au 4.56132000 0.00000000 -3.4210128999999974 0 0 0
Au 6.84198000 0.00000000 -1.1402481599999987 0 0 0
Au 4.56132000 -0.00000000 1.14024816
Au 6.84198000 -0.00000000 3.42101290
Au 4.56132000 3.35654000 -3.4210128999999974 0 0 0
Au 6.84198000 3.35654000 -1.1402481599999987 0 0 0
Au 4.56132000 3.35654000 1.14024816
Au 6.84198000 3.35654000 3.42101290
