&CONTROL
calculation = 'relax'
prefix = 'scf'
pseudo_dir = '/vol0403/data/hp230205/u10028/POT_HYBRID_KKJUS_GBRV'
outdir = './data'
tprnfor = .true.
nstep = 50
disk_io = 'non'
/
&SYSTEM
ibrav = 0
ecutwfc = 50.0
ecutrho = 400
occupations = 'smearing'
smearing = 'mp'
degauss = 0.01
assume_isolated = 'esm'
esm_bc = 'bc1'
input_dft = 'BEEF-VDW'
nosym = .true.
nspin = 1
ntyp = 5
nat = 17
/
&ELECTRONS
electron_maxstep = 200
mixing_beta = 0.1
conv_thr = 1e-06
/
&IONS
ion_dynamics = 'bfgs'
upscale = 1.0
/
&CELL
/

K_POINTS {automatic}
6 6 1 0 0 0

ATOMIC_SPECIES
C 12.01 C.pbe-n-rrkjus_psl.1.0.0.UPF
Ga 69.72 Ga.pbe-dnl-rrkjus_psl.1.0.0.UPF
In 114.8 In.pbe-dn-rrkjus_psl.1.0.0.UPF
Li 6.941 Li.pbe-sl-rrkjus_psl.1.0.0.UPF
Sc 44.95 Sc.pbe-spn-rrkjus_psl.1.0.0.UPF


CELL_PARAMETERS {angstrom}
6.04935000 0.00000000 0.00000000
0.00000000 8.37318000 0.00000000
0.00000000 0.00000000 24.52450000

ATOMIC_POSITIONS {angstrom}
Li 4.50906450 2.09337873 0.77301224
Li 1.17526772 2.09329500 -2.2621398799999994 0 0 0
Li 4.55612845 6.27988500 1.33315182
Li 1.17526772 6.27988500 -2.2621398799999994 0 0 0
Sc 1.46049457 2.09321127 0.68913845
Sc 4.19994272 2.09329500 -2.2621398799999994 0 0 0
Sc 1.45813532 6.27988500 0.92285693
Sc 4.19994272 6.27988500 -2.2621398799999994 0 0 0
In 3.06314887 0.20472425 2.43332089
In 5.82461665 0.00000000 -0.7541283800000009 0 0 0
In 3.06314887 3.98169829 2.43356613
In 5.82461665 4.18659000 -0.7541283800000009 0 0 0
Ga 6.04372410 0.13790627 2.34037303
Ga 2.79994165 0.00000000 -0.7541283800000009 0 0 0
Ga 6.04354262 4.04859999 2.34037303
Ga 2.79994165 4.18659000 -0.7541283800000009 0 0 0
C 0.00381109 2.09329500 2.22290068
