&CONTROL
calculation = 'relax'
prefix = 'scf'
pseudo_dir = '/vol0403/data/hp230205/u10028/POT_HYBRID_KKJUS_GBRV'
outdir = './data'
tprnfor = .true.
nstep = 50
disk_io = 'non'
/
&SYSTEM
ibrav = 0
ecutwfc = 50.0
ecutrho = 400
occupations = 'smearing'
smearing = 'mp'
degauss = 0.01
assume_isolated = 'esm'
esm_bc = 'bc1'
input_dft = 'BEEF-VDW'
nosym = .true.
nspin = 1
ntyp = 5
nat = 17
/
&ELECTRONS
electron_maxstep = 200
mixing_beta = 0.1
conv_thr = 1e-06
/
&IONS
ion_dynamics = 'bfgs'
upscale = 1.0
/
&CELL
/

K_POINTS {automatic}
6 6 1 0 0 0

ATOMIC_SPECIES
Al 26.98 Al.pbe-nl-rrkjus_psl.1.0.0.UPF
C 12.01 C.pbe-n-rrkjus_psl.1.0.0.UPF
In 114.8 In.pbe-dn-rrkjus_psl.1.0.0.UPF
Li 6.941 Li.pbe-sl-rrkjus_psl.1.0.0.UPF
Sc 44.95 Sc.pbe-spn-rrkjus_psl.1.0.0.UPF


CELL_PARAMETERS {angstrom}
8.37392000 0.00000000 0.00000000
0.00000000 6.08380000 0.00000000
0.00000000 0.00000000 24.56130000

ATOMIC_POSITIONS {angstrom}
Li 0.00000000 3.04190000 -2.280762320000001 0 0 0
Li 8.37383626 5.79269017 0.60592727
Li 4.18696000 3.04190000 -2.280762320000001 0 0 0
Li 4.18704374 5.96814696 1.12146896
Sc 2.09348000 1.48189200 -0.7601722399999993 0 0 0
Sc 1.70509759 4.08046550 2.41683192
Sc 6.28044000 1.48189200 -0.7601722399999993 0 0 0
Sc 6.66882241 4.07997879 2.41683192
Al 0.00000000 0.00000000 -2.280762320000001 0 0 0
Al 0.00000000 2.65649127 0.62533070
Al 4.18696000 0.00000000 -2.280762320000001 0 0 0
Al 4.18696000 2.96506161 0.77982127
In 2.09348000 4.52379200 -0.7601722399999993 0 0 0
In 1.60821134 1.04756952 2.74128669
In 6.28044000 4.52379200 -0.7601722399999993 0 0 0
In 6.76570866 1.04714366 2.74104108
C 8.37375252 5.28444952 2.62732226
