&CONTROL
calculation = 'relax'
prefix = 'scf'
pseudo_dir = '/vol0403/data/hp230205/u10028/POT_HYBRID_KKJUS_GBRV'
outdir = './data'
tprnfor = .true.
nstep = 50
disk_io = 'non'
/
&SYSTEM
ibrav = 0
ecutwfc = 50.0
ecutrho = 400
occupations = 'smearing'
smearing = 'mp'
degauss = 0.01
assume_isolated = 'esm'
esm_bc = 'bc1'
input_dft = 'BEEF-VDW'
nosym = .true.
nspin = 1
ntyp = 5
nat = 17
/
&ELECTRONS
electron_maxstep = 200
mixing_beta = 0.1
conv_thr = 1e-06
/
&IONS
ion_dynamics = 'bfgs'
upscale = 1.0
/
&CELL
/

K_POINTS {automatic}
6 6 1 0 0 0

ATOMIC_SPECIES
C 12.01 C.pbe-n-rrkjus_psl.1.0.0.UPF
Ga 69.72 Ga.pbe-dnl-rrkjus_psl.1.0.0.UPF
Ge 72.64 Ge.pbe-dn-rrkjus_psl.1.0.0.UPF
Li 6.941 Li.pbe-sl-rrkjus_psl.1.0.0.UPF
Sc 44.95 Sc.pbe-spn-rrkjus_psl.1.0.0.UPF


CELL_PARAMETERS {angstrom}
5.77599000 0.00000000 0.00000000
0.00000000 8.07712000 0.00000000
0.00000000 0.00000000 24.32640000

ATOMIC_POSITIONS {angstrom}
Li 1.37070019 2.01928000 -0.7210344999999982 0 0 0
Li 3.39605108 1.68335258 2.62749446
Li 1.37070019 6.05784000 -0.7210344999999982 0 0 0
Li 3.39426052 6.39441359 2.62798099
Sc 2.88799500 0.00000000 -2.163103490000001 0 0 0
Sc 5.42896852 8.07703923 0.76701139
Sc 2.88799500 4.03856000 -2.163103490000001 0 0 0
Sc 5.37195950 4.03791383 1.03776422
Ga 0.00000000 0.00000000 -2.163103490000001 0 0 0
Ga 2.59740494 0.00008077 0.56510227
Ga 0.00000000 4.03856000 -2.163103490000001 0 0 0
Ga 2.50227439 4.03847923 1.07157792
Ge 4.25869519 2.01928000 -0.7210344999999982 0 0 0
Ge 0.75804093 1.85781837 2.52653990
Ge 4.25869519 6.05784000 -0.7210344999999982 0 0 0
Ge 0.75705901 6.21744389 2.52581011
C 1.48668207 8.07590843 2.26332826
