&CONTROL
calculation = 'relax'
prefix = 'scf'
pseudo_dir = '/vol0403/data/hp230205/u10028/POT_HYBRID_KKJUS_GBRV'
outdir = './data'
tprnfor = .true.
nstep = 50
disk_io = 'non'
/
&SYSTEM
ibrav = 0
ecutwfc = 50.0
ecutrho = 400
occupations = 'smearing'
smearing = 'mp'
degauss = 0.01
assume_isolated = 'esm'
esm_bc = 'bc1'
input_dft = 'BEEF-VDW'
nosym = .true.
nspin = 1
ntyp = 5
nat = 33
/
&ELECTRONS
electron_maxstep = 200
mixing_beta = 0.1
conv_thr = 1e-06
/
&IONS
ion_dynamics = 'bfgs'
upscale = 1.0
/
&CELL
/

K_POINTS {automatic}
6 6 1 0 0 0

ATOMIC_SPECIES
C 12.01 C.pbe-n-rrkjus_psl.1.0.0.UPF
Ga 69.72 Ga.pbe-dnl-rrkjus_psl.1.0.0.UPF
Ge 72.64 Ge.pbe-dn-rrkjus_psl.1.0.0.UPF
Pd 106.4 Pd.pbe-n-rrkjus_psl.1.0.0.UPF
Sc 44.95 Sc.pbe-spn-rrkjus_psl.1.0.0.UPF


CELL_PARAMETERS {angstrom}
8.58414000 0.00000000 0.00000000
0.00000000 7.83718000 0.00000000
0.00000000 0.00000000 26.06500000

ATOMIC_POSITIONS {angstrom}
Sc 2.22569582 7.79924805 1.03738700
Sc 2.14603500 0.00000000 -3.0324021000000023 0 0 0
Sc 2.22578166 3.95636521 1.03712635
Sc 2.14603500 3.91859000 -3.0324021000000023 0 0 0
Sc 6.35844418 7.79924805 1.03738700
Sc 6.43810500 0.00000000 -3.0324021000000023 0 0 0
Sc 6.35827250 3.95652195 1.03712635
Sc 6.43810500 3.91859000 -3.0324021000000023 0 0 0
Ga 8.58396832 7.73827479 3.21563905
Ga 0.00000000 0.00000000 -1.0108007000000008 0 0 0
Ga 8.58396832 4.01827893 3.21589970
Ga 0.00000000 3.91859000 -1.0108007000000008 0 0 0
Ga 4.29215584 0.45980735 3.14787005
Ga 4.29207000 0.00000000 -1.0108007000000008 0 0 0
Ga 4.29198416 3.45909614 3.14787005
Ga 4.29207000 3.91859000 -1.0108007000000008 0 0 0
Ge 2.09667619 1.95937337 3.21198995
Ge 2.14603500 1.95929500 -1.0108007000000008 0 0 0
Ge 1.80816325 5.87780663 3.14239640
Ge 2.14603500 5.87788500 -1.0108007000000008 0 0 0
Ge 6.48840806 1.95968686 3.21172930
Ge 6.43810500 1.95929500 -1.0108007000000008 0 0 0
Ge 6.77580507 5.87796337 3.14265705
Ge 6.43810500 5.87788500 -1.0108007000000008 0 0 0
Pd 8.58405416 1.95968686 1.26597705
Pd 0.00000000 1.95929500 -3.0324021000000023 0 0 0
Pd 0.00000000 5.87772826 0.92973855
Pd 0.00000000 5.87788500 -3.0324021000000023 0 0 0
Pd 4.29224168 1.95921663 0.82287205
Pd 4.29207000 1.95929500 -3.0324021000000023 0 0 0
Pd 4.29215584 5.87796337 2.29163480
Pd 4.29207000 5.87788500 -3.0324021000000023 0 0 0
C 0.00163099 1.95976523 3.61886460
