&CONTROL
calculation = 'relax'
prefix = 'scf'
pseudo_dir = '/vol0403/data/hp230205/u10028/POT_HYBRID_KKJUS_GBRV'
outdir = './data'
tprnfor = .true.
nstep = 50
disk_io = 'non'
/
&SYSTEM
ibrav = 0
ecutwfc = 50.0
ecutrho = 400
occupations = 'smearing'
smearing = 'mp'
degauss = 0.01
assume_isolated = 'esm'
esm_bc = 'bc1'
input_dft = 'BEEF-VDW'
nosym = .true.
nspin = 1
ntyp = 5
nat = 33
/
&ELECTRONS
electron_maxstep = 200
mixing_beta = 0.1
conv_thr = 1e-06
/
&IONS
ion_dynamics = 'bfgs'
upscale = 1.0
/
&CELL
/

K_POINTS {automatic}
9 6 2 0  0  0

ATOMIC_SPECIES
C 12.01 C.pbe-n-rrkjus_psl.1.0.0.UPF
Cu 63.54 Cu.pbe-dn-rrkjus_psl.1.0.0.UPF
Li 6.941 Li.pbe-sl-rrkjus_psl.1.0.0.UPF
Pd 106.4 Pd.pbe-n-rrkjus_psl.1.0.0.UPF
Sb 121.7 Sb.pbe-n-rrkjus_psl.1.0.0.UPF


CELL_PARAMETERS {angstrom}
6.37250000 0.00000000 0.00000000
0.00000000 9.01208000 0.00000000
0.00000000 0.00000000 26.75910000

ATOMIC_POSITIONS {angstrom}
Li 1.59312500 0.00000000 -1.1265581100000013 0 0 0
Li 1.59312500 4.50604000 -1.1265581100000013 0 0 0
Li 4.77937500 2.25302000 -3.3794067400000003 0 0 0
Li 4.77937500 6.75906000 -3.3794067400000003 0 0 0
Li 1.51761087 4.50604000 3.53541229
Li 1.51971380 0.00000000 3.34328195
Li 4.72947832 6.66236038 0.95610264
Li 4.72947832 2.34971962 0.95610264
Cu 0.00000000 0.00000000 -3.3794067400000003 0 0 0
Cu 0.00000000 4.50604000 -3.3794067400000003 0 0 0
Cu 3.18625000 6.75906000 -1.1265581100000013 0 0 0
Cu 3.18625000 2.25302000 -1.1265581100000013 0 0 0
Cu 6.28940260 4.50604000 1.36953074
Cu 6.22599623 0.00000000 1.32591340
Cu 3.43382163 1.99509427 3.18460049
Cu 3.43382163 7.01698573 3.18460049
Sb 4.77937500 0.00000000 -1.1265581100000013 0 0 0
Sb 4.77937500 4.50604000 -1.1265581100000013 0 0 0
Sb 1.59312500 2.25302000 -3.3794067400000003 0 0 0
Sb 1.59312500 6.75906000 -3.3794067400000003 0 0 0
Sb 4.66097395 4.50604000 3.69998076
Sb 5.36628225 0.00000000 4.33417143
Sb 1.60217395 6.81078934 1.12709329
Sb 1.60217395 2.20138078 1.12709329
Pd 0.00000000 2.25302000 -1.1265581100000013 0 0 0
Pd 0.00000000 6.75906000 -1.1265581100000013 0 0 0
Pd 3.18625000 4.50604000 -3.3794067400000003 0 0 0
Pd 3.18625000 0.00000000 -3.3794067400000003 0 0 0
Pd 6.15876635 6.73995439 3.09094364
Pd 6.15876635 2.27212561 3.09094364
Pd 3.40801300 0.00000000 1.23520006
Pd 3.16585800 4.50604000 1.40485275
C 3.48454672 0.00000000 3.43265735
