&CONTROL
calculation = 'relax'
prefix = 'scf'
pseudo_dir = '/vol0403/data/hp230205/u10028/POT_HYBRID_KKJUS_GBRV'
outdir = './data'
tprnfor = .true.
nstep = 50
disk_io = 'non'
/
&SYSTEM
ibrav = 0
ecutwfc = 50.0
ecutrho = 400
occupations = 'smearing'
smearing = 'mp'
degauss = 0.01
assume_isolated = 'esm'
esm_bc = 'bc1'
input_dft = 'BEEF-VDW'
nosym = .true.
nspin = 1
ntyp = 6
nat = 18
/
&ELECTRONS
electron_maxstep = 200
mixing_beta = 0.1
conv_thr = 1e-06
/
&IONS
ion_dynamics = 'bfgs'
upscale = 1.0
/
&CELL
/

K_POINTS {automatic}
11 7 2 0  0  0

ATOMIC_SPECIES
Al 26.98 Al.pbe-nl-rrkjus_psl.1.0.0.UPF
C 12.01 C.pbe-n-rrkjus_psl.1.0.0.UPF
In 114.8 In.pbe-dn-rrkjus_psl.1.0.0.UPF
Li 6.941 Li.pbe-sl-rrkjus_psl.1.0.0.UPF
O 15.99 O.pbe-n-rrkjus_psl.1.0.0.UPF
Sc 44.95 Sc.pbe-spn-rrkjus_psl.1.0.0.UPF


CELL_PARAMETERS {angstrom}
5.96334000 0.00000000 0.00000000
0.00000000 8.71362000 0.00000000
0.00000000 0.00000000 24.47210000

ATOMIC_POSITIONS {angstrom}
Li 4.45151404 2.17840500 -0.7454201700000027 0 0 0
Li 1.70229504 2.17857927 2.46874545
Li 4.45151404 6.53521500 -0.7454201700000027 0 0 0
Li 1.70038677 6.53504073 2.40144717
Sc 2.98167000 0.00000000 -2.2360157800000025 0 0 0
Sc 0.05068839 8.70107239 0.78555441
Sc 2.98167000 4.35681000 -2.2360157800000025 0 0 0
Sc 0.05092692 4.36944475 0.78555441
Al 0.00000000 0.00000000 -2.2360157800000025 0 0 0
Al 3.05871635 8.71100591 0.87096204
Al 0.00000000 4.35681000 -2.2360157800000025 0 0 0
Al 3.05871635 4.35942409 0.87096204
In 1.46984404 2.17840500 -0.7454201700000027 0 0 0
In 4.65224007 2.17840500 2.26171148
In 1.46984404 6.53521500 -0.7454201700000027 0 0 0
In 4.64925840 6.53512786 2.28447054
C 1.63830840 2.17857927 4.56429137
O 1.51075256 2.17857927 5.69832849
