&CONTROL
calculation = 'relax'
prefix = 'scf'
pseudo_dir = '/vol0004/mdt0/data/hp150275/u10028/POT_KKJUS'
outdir = './data'
tprnfor = .true.
nstep = 50
disk_io = 'non'
/
&SYSTEM
ibrav = 0
ecutwfc = 50.0
ecutrho = 400
occupations = 'smearing'
smearing = 'mp'
degauss = 0.01
assume_isolated = 'esm'
esm_bc = 'bc1'
input_dft = 'BEEF-VDW'
nosym = .true.
nspin = 1
ntyp = 4
nat = 18
/
&ELECTRONS
electron_maxstep = 200
mixing_beta = 0.1
conv_thr = 1e-06
/
&IONS
ion_dynamics = 'bfgs'
upscale = 1.0
/
&CELL
/

K_POINTS {automatic}
8 11 2 0  0  0

ATOMIC_SPECIES
C 12.01 C.pbe-n-rrkjus_psl.1.0.0.UPF
Hf 178.4 Hf.pbe-spn-rrkjus_psl.1.0.0.UPF
Ir 192.2 Ir.pbe-n-rrkjus_psl.0.2.3.UPF
O 15.99 O.pbe-n-rrkjus_psl.1.0.0.UPF

CELL_PARAMETERS {angstrom}
7.94591000 0.00000000 0.00000000
0.00000000 5.61861000 0.00000000
0.00000000 0.00000000 24.21400000

ATOMIC_POSITIONS {angstrom}
Hf 0.00000000 0.00000000 1.96569252
Hf 0.00000000 2.80930500 -0.7024481399999978 0 0 0
Hf 3.97295500 0.00000000 1.89474550
Hf 3.97295500 2.80930500 -0.7024481399999978 0 0 0
Ir 0.00000000 2.80930500 1.97440956
Ir 1.97519431 4.20710280 0.71043876
Ir 1.97519431 1.41150720 0.71043876
Ir 0.00000000 0.00000000 -0.7024481399999978 0 0 0
Ir 1.98647750 1.40465250 -2.1071022799999994 0 0 0
Ir 1.98647750 4.21395750 -2.1071022799999994 0 0 0
Ir 3.97295500 2.80930500 1.94850058
Ir 5.97071569 4.20710280 0.71043876
Ir 5.97071569 1.41150720 0.71043876
Ir 3.97295500 0.00000000 -0.7024481399999978 0 0 0
Ir 5.95943250 1.40465250 -2.1071022799999994 0 0 0
Ir 5.95943250 4.21395750 -2.1071022799999994 0 0 0
C 7.94583054 0.00000000 4.34229662
O 0.00000000 0.00000000 5.48761882
