&CONTROL
calculation = 'relax'
prefix = 'scf'
pseudo_dir = '/vol0004/mdt0/data/hp150275/u10028/POT_KKJUS'
outdir = './data'
tprnfor = .true.
nstep = 50
disk_io = 'non'
/
&SYSTEM
ibrav = 0
ecutwfc = 50.0
ecutrho = 400
occupations = 'smearing'
smearing = 'mp'
degauss = 0.01
assume_isolated = 'esm'
esm_bc = 'bc1'
input_dft = 'BEEF-VDW'
nosym = .true.
nspin = 1
ntyp = 4
nat = 33
/
&ELECTRONS
electron_maxstep = 200
mixing_beta = 0.1
conv_thr = 1e-06
/
&IONS
ion_dynamics = 'bfgs'
upscale = 1.0
/
&CELL
/

K_POINTS {automatic}
9 6 2 0  0  0

ATOMIC_SPECIES
Al 26.98 Al.pbe-nl-rrkjus_psl.1.0.0.UPF
C 12.01 C.pbe-n-rrkjus_psl.1.0.0.UPF
Li 6.941 Li.pbe-sl-rrkjus_psl.1.0.0.UPF
Rh 102.9 Rh.pbe-spn-rrkjus_psl.1.0.0.UPF

CELL_PARAMETERS {angstrom}
6.01864000 0.00000000 0.00000000
0.00000000 8.51164000 0.00000000
0.00000000 0.00000000 26.38370000

ATOMIC_POSITIONS {angstrom}
Li 0.00000000 6.38373000 -1.0640546200000003 0 0 0
Li 3.00932000 0.00000000 -3.1919000299999993 0 0 0
Li 0.00000000 2.12791000 -1.0640546200000003 0 0 0
Li 3.00932000 4.25582000 -3.1919000299999993 0 0 0
Li 1.50466000 2.12791000 -3.1919000299999993 0 0 0
Li 1.50466000 6.38373000 -3.1919000299999993 0 0 0
Li 4.51398000 4.25582000 -1.0640546200000003 0 0 0
Li 4.51398000 0.00000000 -1.0640546200000003 0 0 0
Li 5.73823156 2.12791000 3.20799408
Li 3.00944037 4.25522419 1.08885530
Li 0.15804949 6.38373000 3.34756386
Li 3.00944037 0.00059581 1.08885530
Li 1.43731142 6.38373000 0.96722644
Li 1.44676068 2.12791000 1.10178331
Li 4.49183140 8.38992355 3.47420562
Li 4.49183140 4.37753645 3.47420562
Al 0.00000000 0.00000000 -3.1919000299999993 0 0 0
Al 3.00932000 2.12791000 -1.0640546200000003 0 0 0
Al 3.00932000 6.38373000 -1.0640546200000003 0 0 0
Al 0.00000000 4.25582000 -3.1919000299999993 0 0 0
Al 6.01220006 4.27837585 1.15006548
Al 2.80486680 6.38373000 3.07845012
Al 3.25897319 2.12791000 2.90669223
Al 6.01220006 8.48908415 1.15006548
Rh 1.50466000 0.00000000 -1.0640546200000003 0 0 0
Rh 1.50466000 4.25582000 -1.0640546200000003 0 0 0
Rh 4.51398000 6.38373000 -3.1919000299999993 0 0 0
Rh 4.51398000 2.12791000 -3.1919000299999993 0 0 0
Rh 1.55082297 3.99034195 3.20245351
Rh 1.55082297 0.26547805 3.20245351
Rh 4.58078690 2.12791000 0.94216193
Rh 4.51127161 6.38373000 1.20045835
C 1.51561392 2.12791000 3.82959406
