&CONTROL
calculation = 'relax'
prefix = 'scf'
pseudo_dir = '/vol0004/mdt0/data/hp150275/u10028/POT_KKJUS'
outdir = './data'
tprnfor = .true.
nstep = 50
disk_io = 'non'
/
&SYSTEM
ibrav = 0
ecutwfc = 50.0
ecutrho = 400
occupations = 'smearing'
smearing = 'mp'
degauss = 0.01
assume_isolated = 'esm'
esm_bc = 'bc1'
input_dft = 'BEEF-VDW'
nosym = .true.
nspin = 1
ntyp = 5
nat = 34
/
&ELECTRONS
electron_maxstep = 200
mixing_beta = 0.1
conv_thr = 1e-06
/
&IONS
ion_dynamics = 'bfgs'
upscale = 1.0
/
&CELL
/

K_POINTS {automatic}
8 6 1 0 0 0

ATOMIC_SPECIES
Au 196.9 Au.pbe-n-rrkjus_psl.1.0.0.UPF
C 12.01 C.pbe-n-rrkjus_psl.1.0.0.UPF
Ga 69.72 Ga.pbe-dnl-rrkjus_psl.1.0.0.UPF
Li 6.941 Li.pbe-sl-rrkjus_psl.1.0.0.UPF
O 15.99 O.pbe-n-rrkjus_psl.1.0.0.UPF

CELL_PARAMETERS {angstrom}
6.29417000 0.00000000 0.00000000
0.00000000 8.90130000 0.00000000
0.00000000 0.00000000 26.67600000

ATOMIC_POSITIONS {angstrom}
Li 0.00000000 6.67597500 -1.112655959999998 0 0 0
Li 3.14708500 0.00000000 -3.3379678799999972 0 0 0
Li 0.00000000 2.22532500 -1.112655959999998 0 0 0
Li 3.14708500 4.45065000 -3.3379678799999972 0 0 0
Li 1.57354250 2.22532500 -3.3379678799999972 0 0 0
Li 1.57354250 6.67597500 -3.3379678799999972 0 0 0
Li 4.72062750 4.45065000 -1.112655959999998 0 0 0
Li 4.72062750 0.00000000 -1.112655959999998 0 0 0
Li 0.13777938 2.22532500 3.44253780
Li 3.22230033 4.44210475 0.93819492
Li 0.13192580 6.67597500 3.39105312
Li 3.22230033 0.00845624 0.93819492
Li 1.62125231 6.67597500 1.11719088
Li 1.54956171 2.22532500 1.09078164
Li 4.60619949 0.00382756 3.25500552
Li 4.60619949 4.44682244 3.25500552
Ga 0.00000000 0.00000000 -3.3379678799999972 0 0 0
Ga 3.14708500 2.22532500 -1.112655959999998 0 0 0
Ga 3.14708500 6.67597500 -1.112655959999998 0 0 0
Ga 0.00000000 4.45065000 -3.3379678799999972 0 0 0
Ga 6.27075569 4.45964031 1.09051488
Ga 3.12241185 6.67597500 3.53083536
Ga 3.04902183 2.22532500 3.42733248
Ga 6.27075569 8.89230969 1.09051488
Au 1.57354250 0.00000000 -1.112655959999998 0 0 0
Au 1.57354250 4.45065000 -1.112655959999998 0 0 0
Au 4.72062750 6.67597500 -3.3379678799999972 0 0 0
Au 4.72062750 2.22532500 -3.3379678799999972 0 0 0
Au 1.75204516 4.48492001 3.07761012
Au 1.75204516 8.86711901 3.07761012
Au 4.72956522 2.22532500 1.22549544
Au 4.70508090 6.67597500 1.20442140
C 6.16702777 2.22532500 5.52219876
O 6.14978174 2.22523599 6.66393156
