&CONTROL
calculation = 'relax'
prefix = 'scf'
pseudo_dir = '/vol0004/mdt0/data/hp150275/u10028/POT_KKJUS'
outdir = './data'
tprnfor = .true.
nstep = 50
disk_io = 'non'
/
&SYSTEM
ibrav = 0
ecutwfc = 50.0
ecutrho = 400
occupations = 'smearing'
smearing = 'mp'
degauss = 0.01
assume_isolated = 'esm'
esm_bc = 'bc1'
input_dft = 'BEEF-VDW'
nosym = .true.
nspin = 1
ntyp = 2
nat = 32
/
&ELECTRONS
electron_maxstep = 200
mixing_beta = 0.1
conv_thr = 1e-06
/
&IONS
ion_dynamics = 'bfgs'
upscale = 1.0
/
&CELL
/

K_POINTS {automatic}
8 6 1 0 0 0

ATOMIC_SPECIES
Au 196.9 Au.pbe-n-rrkjus_psl.1.0.0.UPF
Zn 65.40 Zn.pbe-dnl-rrkjus_psl.1.0.0.UPF

CELL_PARAMETERS {angstrom}
6.43103000 0.00000000 0.00000000
0.00000000 9.09485000 0.00000000
0.00000000 0.00000000 26.82110000

ATOMIC_POSITIONS {angstrom}
Zn 1.60775750 2.27371250 -3.4105710800000004 0 0 0
Zn 1.60775750 0.00000000 -1.1369464300000018 0 0 0
Zn 1.60769319 2.27198448 1.18549262
Zn 1.60775750 4.54751595 3.50310387
Zn 1.60775750 6.82113750 -3.4105710800000004 0 0 0
Zn 1.60775750 4.54742500 -1.1369464300000018 0 0 0
Zn 1.60769319 6.82295647 1.18549262
Zn 1.60775750 9.09466810 3.50122639
Zn 4.82327250 2.27371250 -3.4105710800000004 0 0 0
Zn 4.82327250 0.00000000 -1.1369464300000018 0 0 0
Zn 4.82333681 2.27198448 1.18522441
Zn 4.82327250 4.54751595 3.50310387
Zn 4.82327250 6.82113750 -3.4105710800000004 0 0 0
Zn 4.82327250 4.54742500 -1.1369464300000018 0 0 0
Zn 4.82333681 6.82295647 1.18522441
Zn 4.82327250 9.09475905 3.50122639
Au 0.00000000 0.00000000 -3.4105710800000004 0 0 0
Au 0.00000000 2.27371250 -1.1369464300000018 0 0 0
Au 0.00000000 4.54751595 1.09188698
Au 0.00006431 2.27253017 3.45455768
Au 0.00000000 4.54742500 -3.4105710800000004 0 0 0
Au 0.00000000 6.82113750 -1.1369464300000018 0 0 0
Au 0.00000000 9.09475905 1.09188698
Au 0.00006431 6.82231983 3.45455768
Au 3.21551500 0.00000000 -3.4105710800000004 0 0 0
Au 3.21551500 2.27371250 -1.1369464300000018 0 0 0
Au 3.21551500 4.54751595 1.09188698
Au 3.21545069 2.27243922 3.45455768
Au 3.21551500 4.54742500 -3.4105710800000004 0 0 0
Au 3.21551500 6.82113750 -1.1369464300000018 0 0 0
Au 3.21551500 9.09475905 1.09188698
Au 3.21545069 6.82231983 3.45455768
