&CONTROL
calculation = 'relax'
prefix = 'scf'
pseudo_dir = '/vol0004/mdt0/data/hp150275/u10028/POT_KKJUS'
outdir = './data'
tprnfor = .true.
nstep = 50
disk_io = 'non'
/
&SYSTEM
ibrav = 0
ecutwfc = 50.0
ecutrho = 400
occupations = 'smearing'
smearing = 'mp'
degauss = 0.01
assume_isolated = 'esm'
esm_bc = 'bc1'
input_dft = 'BEEF-VDW'
nosym = .true.
nspin = 1
ntyp = 4
nat = 33
/
&ELECTRONS
electron_maxstep = 200
mixing_beta = 0.1
conv_thr = 1e-06
/
&IONS
ion_dynamics = 'bfgs'
upscale = 1.0
/
&CELL
/

K_POINTS {automatic}
8 6 1 0 0 0

ATOMIC_SPECIES
Al 26.98 Al.pbe-nl-rrkjus_psl.1.0.0.UPF
C 12.01 C.pbe-n-rrkjus_psl.1.0.0.UPF
Li 6.941 Li.pbe-sl-rrkjus_psl.1.0.0.UPF
Pt 195.0 Pt.pbe-n-rrkjus_psl.1.0.0.UPF

CELL_PARAMETERS {angstrom}
6.07419000 0.00000000 0.00000000
0.00000000 8.59020000 0.00000000
0.00000000 0.00000000 26.44270000

ATOMIC_POSITIONS {angstrom}
Li 0.00000000 6.44265000 -1.073838049999999 0 0 0
Li 3.03709500 0.00000000 -3.2212497099999986 0 0 0
Li 0.00000000 2.14755000 -1.073838049999999 0 0 0
Li 3.03709500 4.29510000 -3.2212497099999986 0 0 0
Li 1.51854750 0.00000000 -1.073838049999999 0 0 0
Li 1.51854750 4.29510000 -1.073838049999999 0 0 0
Li 4.55564250 6.44265000 -3.2212497099999986 0 0 0
Li 4.55564250 2.14755000 -3.2212497099999986 0 0 0
Li 5.88619382 2.32536714 3.38519445
Li 3.01838649 4.29510000 0.95405262
Li 5.88619382 6.26483286 3.38493003
Li 2.95746237 0.00000000 1.14840646
Li 1.61227225 4.29510000 3.18422993
Li 1.07543534 0.00000000 4.02299238
Li 4.57842071 2.07307297 1.08071315
Li 4.57842071 6.51712703 1.08071315
Al 0.00000000 0.00000000 -3.2212497099999986 0 0 0
Al 3.03709500 2.14755000 -1.073838049999999 0 0 0
Al 3.03709500 6.44265000 -1.073838049999999 0 0 0
Al 0.00000000 4.29510000 -3.2212497099999986 0 0 0
Al 5.97858225 4.29510000 1.11931949
Al 2.96031724 6.63678852 3.24927898
Al 2.96031724 1.95341148 3.24927898
Al 0.17706264 0.00000000 1.00138505
Pt 1.51854750 2.14755000 -3.2212497099999986 0 0 0
Pt 1.51854750 6.44265000 -3.2212497099999986 0 0 0
Pt 4.55564250 4.29510000 -1.073838049999999 0 0 0
Pt 4.55564250 0.00000000 -1.073838049999999 0 0 0
Pt 1.48283126 6.37435791 1.07172263
Pt 1.48277052 2.21592799 1.07172263
Pt 4.85613268 0.00000000 2.99410692
Pt 4.24124243 4.29510000 3.03535753
C 2.98904816 0.00000000 3.67817957
