&CONTROL
calculation = 'relax'
prefix = 'scf'
pseudo_dir = '/vol0403/data/hp230205/u10028/POT_HYBRID_KKJUS_GBRV'
outdir = './data'
tprnfor = .true.
nstep = 50
disk_io = 'non'
/
&SYSTEM
ibrav = 0
ecutwfc = 50.0
ecutrho = 400
occupations = 'smearing'
smearing = 'mp'
degauss = 0.01
assume_isolated = 'esm'
esm_bc = 'bc1'
input_dft = 'BEEF-VDW'
nosym = .true.
nspin = 2
ntyp = 6
nat = 18
starting_magnetization(1) = 0.0
starting_magnetization(2) = 0.0
starting_magnetization(3) = 0.1
starting_magnetization(4) = 0.0
starting_magnetization(5) = 0.0
starting_magnetization(6) = 0.0
/
&ELECTRONS
electron_maxstep = 400
mixing_beta = 0.05
conv_thr = 1e-06
/
&IONS
ion_dynamics = 'bfgs'
upscale = 1.0
/
&CELL
/

K_POINTS {automatic}
10 9 2 0  0  0

ATOMIC_SPECIES
Al 26.98 Al.pbe-nl-rrkjus_psl.1.0.0.UPF
C 12.01 C.pbe-n-rrkjus_psl.1.0.0.UPF
Fe 55.84 fe_pbe_v1.5.uspp.F.UPF
Li 6.941 Li.pbe-sl-rrkjus_psl.1.0.0.UPF
O 15.99 O.pbe-n-rrkjus_psl.1.0.0.UPF
Pd 106.4 Pd.pbe-n-rrkjus_psl.1.0.0.UPF


CELL_PARAMETERS {angstrom}
5.67696000 0.00000000 0.00000000
0.00000000 6.16988000 0.00000000
0.00000000 0.00000000 24.62570000

ATOMIC_POSITIONS {angstrom}
Li 0.00000000 3.08494000 22.31285426
Li 5.62910323 6.11064915 0.79073123
Li 2.83848000 3.08494000 22.31285426
Li 2.88633677 6.11095765 0.79048497
Al 0.00000000 0.00000000 22.31285426
Al 5.65737449 2.98838138 0.75797905
Al 2.83848000 0.00000000 22.31285426
Al 2.85800874 2.98794949 0.75773279
Fe 1.41924000 1.50088501 23.85466933
Fe 1.42003477 4.49802762 2.16336774
Fe 4.25772000 1.50088501 23.85466933
Fe 4.25630076 4.39980313 2.46084620
Pd 1.41924000 4.58582501 23.85466933
Pd 1.41929677 1.47534171 2.21064909
Pd 4.25772000 4.58582501 23.85466933
Pd 4.25766323 1.51328647 2.29019010
C 1.41969416 4.58730578 3.92804541
O 1.41935354 4.59884346 5.09456482
