&CONTROL
calculation = 'relax'
prefix = 'scf'
pseudo_dir = '/vol0004/mdt0/data/hp150275/u10028/POT_KKJUS'
outdir = './data'
tprnfor = .true.
nstep = 50
disk_io = 'non'
/
&SYSTEM
ibrav = 0
ecutwfc = 50.0
ecutrho = 400
occupations = 'smearing'
smearing = 'mp'
degauss = 0.01
assume_isolated = 'esm'
esm_bc = 'bc1'
input_dft = 'BEEF-VDW'
nosym = .true.
nspin = 1
ntyp = 5
nat = 34
/
&ELECTRONS
electron_maxstep = 200
mixing_beta = 0.1
conv_thr = 1e-06
/
&IONS
ion_dynamics = 'bfgs'
upscale = 1.0
/
&CELL
/

K_POINTS {automatic}
8 6 1 0 0 0

ATOMIC_SPECIES
Ag 107.8 Ag.pbe-n-rrkjus_psl.1.0.0.UPF
Au 196.9 Au.pbe-n-rrkjus_psl.1.0.0.UPF
C 12.01 C.pbe-n-rrkjus_psl.1.0.0.UPF
O 15.99 O.pbe-n-rrkjus_psl.1.0.0.UPF
Zn 65.40 Zn.pbe-dnl-rrkjus_psl.1.0.0.UPF

CELL_PARAMETERS {angstrom}
6.35005000 0.00000000 0.00000000
0.00000000 8.98033000 0.00000000
0.00000000 0.00000000 26.73520000

ATOMIC_POSITIONS {angstrom}
Zn 1.58751250 0.00000000 -1.1226110499999997 0 0 0
Zn 4.76253750 4.49016500 -1.1226110499999997 0 0 0
Zn 4.76253750 0.00000000 -1.1226110499999997 0 0 0
Zn 1.58751250 4.49016500 -1.1226110499999997 0 0 0
Zn 4.76253750 6.73524750 -3.3675657900000004 0 0 0
Zn 1.58751250 2.24508250 -3.3675657900000004 0 0 0
Zn 1.58751250 6.73524750 -3.3675657900000004 0 0 0
Zn 4.76253750 2.24508250 -3.3675657900000004 0 0 0
Zn 1.66415760 4.55446416 3.55070191
Zn 4.68589240 8.91603084 3.55070191
Zn 4.68589240 4.55446416 3.55070191
Zn 1.66415760 8.91603084 3.55070191
Zn 4.77079256 2.24508250 1.30922274
Zn 1.68803379 6.73524750 1.30681658
Zn 1.57925744 2.24508250 1.30922274
Zn 4.66201621 6.73524750 1.30681658
Ag 0.00000000 0.00000000 -3.3675657900000004 0 0 0
Ag 3.17502500 2.24508250 -1.1226110499999997 0 0 0
Ag 3.17502500 6.73524750 -1.1226110499999997 0 0 0
Ag 0.00000000 4.49016500 -3.3675657900000004 0 0 0
Ag 0.00000000 4.51171779 1.21778836
Ag 3.17502500 6.73524750 3.99557564
Ag 3.17502500 2.24508250 3.63144222
Ag 0.00000000 8.95877721 1.21778836
Au 0.00000000 6.73524750 -1.1226110499999997 0 0 0
Au 3.17502500 0.00000000 -3.3675657900000004 0 0 0
Au 0.00000000 2.24508250 -1.1226110499999997 0 0 0
Au 3.17502500 4.49016500 -3.3675657900000004 0 0 0
Au 0.00000000 2.24508250 3.58946795
Au 3.17502500 4.46017070 1.06459566
Au 0.00000000 6.73524750 3.45686136
Au 3.17502500 0.02999430 1.06459566
C 6.34998650 2.24508250 5.72106545
O 0.00000000 2.24508250 6.86559936
