&CONTROL
calculation = 'relax'
prefix = 'scf'
pseudo_dir = '/vol0004/mdt0/data/hp150275/u10028/POT_HYBRID_KKJUS_GBRV'
outdir = './data'
tprnfor = .true.
nstep = 50
disk_io = 'non'
/
&SYSTEM
ibrav = 0
ecutwfc = 50.0
ecutrho = 400
occupations = 'smearing'
smearing = 'mp'
degauss = 0.01
assume_isolated = 'esm'
esm_bc = 'bc1'
input_dft = 'BEEF-VDW'
nosym = .true.
nspin = 2
ntyp = 4
nat = 34
starting_magnetization(1) = 0.0
starting_magnetization(2) = 0.1
starting_magnetization(3) = 0.0
starting_magnetization(4) = 0.0
/
&ELECTRONS
electron_maxstep = 300
mixing_beta = 0.1
conv_thr = 1e-06
/
&IONS
ion_dynamics = 'bfgs'
upscale = 1.0
/
&CELL
/

K_POINTS {automatic}
9 6 2 0  0  0

ATOMIC_SPECIES
C 12.01 C.pbe-n-rrkjus_psl.1.0.0.UPF
Co 58.93 co_pbe_v1.2.uspp.F.UPF
Ga 69.72 Ga.pbe-dnl-rrkjus_psl.1.0.0.UPF
O 15.99 O.pbe-n-rrkjus_psl.1.0.0.UPF

CELL_PARAMETERS {angstrom}
5.76941000 0.00000000 0.00000000
0.00000000 8.15918000 0.00000000
0.00000000 0.00000000 26.11940000

ATOMIC_POSITIONS {angstrom}
Ga 1.44235250 2.03979500 -3.0596265199999984 0 0 0
Ga 1.44235250 0.00000000 -1.0199625700000006 0 0 0
Ga 1.44235250 2.03979500 1.01996257
Ga 1.44235250 0.00000000 3.05962652
Ga 1.44235250 6.11938500 -3.0596265199999984 0 0 0
Ga 1.44235250 4.07959000 -1.0199625700000006 0 0 0
Ga 1.44235250 6.11938500 1.01996257
Ga 1.44235250 4.07959000 3.05962652
Ga 4.32705750 2.03979500 -3.0596265199999984 0 0 0
Ga 4.32705750 0.00000000 -1.0199625700000006 0 0 0
Ga 4.32705750 2.03979500 1.01996257
Ga 4.32705750 0.00000000 3.05962652
Ga 4.32705750 6.11938500 -3.0596265199999984 0 0 0
Ga 4.32705750 4.07959000 -1.0199625700000006 0 0 0
Ga 4.32705750 6.11938500 1.01996257
Ga 4.32705750 4.07959000 3.05962652
Co 0.00000000 0.00000000 -3.0596265199999984 0 0 0
Co 0.00000000 2.03979500 -1.0199625700000006 0 0 0
Co 0.00000000 0.00000000 1.01996257
Co 0.00000000 2.03979500 3.05962652
Co 0.00000000 4.07959000 -3.0596265199999984 0 0 0
Co 0.00000000 6.11938500 -1.0199625700000006 0 0 0
Co 0.00000000 4.07959000 1.01996257
Co 0.00000000 6.11938500 3.05962652
Co 2.88470500 0.00000000 -3.0596265199999984 0 0 0
Co 2.88470500 2.03979500 -1.0199625700000006 0 0 0
Co 2.88470500 0.00000000 1.01996257
Co 2.88470500 2.03979500 3.05962652
Co 2.88470500 4.07959000 -3.0596265199999984 0 0 0
Co 2.88470500 6.11938500 -1.0199625700000006 0 0 0
Co 2.88470500 4.07959000 1.01996257
Co 2.88470500 6.11938500 3.05962652
C 0.00000000 2.03979500 4.95981287
O 0.00000000 2.03979500 6.10958885
