&CONTROL
calculation = 'relax'
prefix = 'scf'
pseudo_dir = '/vol0004/mdt0/data/hp150275/u10028/POT_HYBRID_KKJUS_GBRV'
outdir = './data'
tprnfor = .true.
nstep = 50
disk_io = 'non'
/
&SYSTEM
ibrav = 0
ecutwfc = 50.0
ecutrho = 400
occupations = 'smearing'
smearing = 'mp'
degauss = 0.01
assume_isolated = 'esm'
esm_bc = 'bc1'
input_dft = 'BEEF-VDW'
nosym = .true.
nspin = 2
ntyp = 5
nat = 34
starting_magnetization(1) = 0.0
starting_magnetization(2) = 0.1
starting_magnetization(3) = 0.0
starting_magnetization(4) = 0.0
starting_magnetization(5) = 0.0
/
&ELECTRONS
electron_maxstep = 300
mixing_beta = 0.1
conv_thr = 1e-06
/
&IONS
ion_dynamics = 'bfgs'
upscale = 1.0
/
&CELL
/

K_POINTS {automatic}
9 6 2 0  0  0

ATOMIC_SPECIES
C 12.01 C.pbe-n-rrkjus_psl.1.0.0.UPF
Fe 55.84 fe_pbe_v1.5.uspp.F.UPF
Ga 69.72 Ga.pbe-dnl-rrkjus_psl.1.0.0.UPF
O 15.99 O.pbe-n-rrkjus_psl.1.0.0.UPF
V 50.94 V.pbe-spnl-rrkjus_psl.1.0.0.UPF

CELL_PARAMETERS {angstrom}
5.73361000 0.00000000 0.00000000
0.00000000 8.10855000 0.00000000
0.00000000 0.00000000 26.08140000

ATOMIC_POSITIONS {angstrom}
V 0.00000000 0.00000000 -3.0408304299999998 0 0 0
V 2.86680500 2.02713750 -1.013523199999998 0 0 0
V 2.86680500 6.08141250 -1.013523199999998 0 0 0
V 0.00000000 4.05427500 -3.0408304299999998 0 0 0
V 5.72323217 4.05427500 1.03412751
V 2.88062300 6.07443915 2.98240809
V 2.88062300 2.03419194 2.98240809
V 5.72781905 0.00000000 1.05394937
Ga 0.00000000 6.08141250 -1.013523199999998 0 0 0
Ga 2.86680500 0.00000000 -3.0408304299999998 0 0 0
Ga 0.00000000 2.02713750 -1.013523199999998 0 0 0
Ga 2.86680500 4.05427500 -3.0408304299999998 0 0 0
Ga 0.03801383 1.99770346 3.27947524
Ga 2.86766504 4.05427500 1.01117588
Ga 0.03795650 6.11076545 3.27973605
Ga 2.85017753 0.00000000 1.01717460
Fe 1.43340250 0.00000000 -1.013523199999998 0 0 0
Fe 4.30020750 4.05427500 -1.013523199999998 0 0 0
Fe 4.30020750 0.00000000 -1.013523199999998 0 0 0
Fe 1.43340250 4.05427500 -1.013523199999998 0 0 0
Fe 4.30020750 6.08141250 -3.0408304299999998 0 0 0
Fe 1.43340250 2.02713750 -3.0408304299999998 0 0 0
Fe 1.43340250 6.08141250 -3.0408304299999998 0 0 0
Fe 4.30020750 2.02713750 -3.0408304299999998 0 0 0
Fe 1.40490646 4.05427500 3.01579228
Fe 4.33483850 0.00000000 3.02961542
Fe 4.34808314 4.05435609 3.06560776
Fe 1.52766305 0.00000000 3.12063951
Fe 4.30783320 2.02413734 1.06620763
Fe 1.40920667 6.08522352 1.05864403
Fe 1.40943601 2.02332648 1.05864403
Fe 4.30800521 6.08441266 1.06620763
C 2.02579909 0.00000000 4.81384400
O 2.29332933 0.00000000 5.95334036
