&CONTROL
calculation = 'relax'
prefix = 'scf'
pseudo_dir = '/vol0004/mdt0/data/hp150275/u10028/POT_KKJUS'
outdir = './data'
tprnfor = .true.
nstep = 50
disk_io = 'non'
/
&SYSTEM
ibrav = 0
ecutwfc = 50.0
ecutrho = 400
occupations = 'smearing'
smearing = 'mp'
degauss = 0.01
assume_isolated = 'esm'
esm_bc = 'bc1'
input_dft = 'BEEF-VDW'
nosym = .true.
nspin = 1
ntyp = 5
nat = 34
/
&ELECTRONS
electron_maxstep = 200
mixing_beta = 0.1
conv_thr = 1e-06
/
&IONS
ion_dynamics = 'bfgs'
upscale = 1.0
/
&CELL
/

K_POINTS {automatic}
8 6 1 0 0 0

ATOMIC_SPECIES
Au 196.9 Au.pbe-n-rrkjus_psl.1.0.0.UPF
C 12.01 C.pbe-n-rrkjus_psl.1.0.0.UPF
In 114.8 In.pbe-dn-rrkjus_psl.1.0.0.UPF
O 15.99 O.pbe-n-rrkjus_psl.1.0.0.UPF
Sc 44.95 Sc.pbe-spn-rrkjus_psl.1.0.0.UPF

CELL_PARAMETERS {angstrom}
6.85473000 0.00000000 0.00000000
0.00000000 9.69405000 0.00000000
0.00000000 0.00000000 27.27050000

ATOMIC_POSITIONS {angstrom}
Sc 0.00000000 0.00000000 -3.63515765 0 0 0
Sc 3.42736500 2.42351250 -1.211628319999999 0 0 0
Sc 3.42736500 7.27053750 -1.211628319999999 0 0 0
Sc 0.00000000 4.84702500 -3.63515765 0 0 0
Sc 0.00006855 4.82104495 1.36516123
Sc 3.42729645 7.27053750 3.49962326
Sc 3.42743355 2.42341556 3.48189744
Sc 0.00000000 0.02578617 1.36516123
In 0.00000000 7.27053750 -1.211628319999999 0 0 0
In 3.42736500 0.00000000 -3.63515765 0 0 0
In 0.00000000 2.42351250 -1.211628319999999 0 0 0
In 3.42736500 4.84702500 -3.63515765 0 0 0
In 6.85459291 2.42331862 3.86232091
In 3.42736500 4.86554064 1.16690469
In 6.85466145 7.27063444 3.93213340
In 3.42743355 9.67543742 1.16690469
Au 1.71368250 0.00000000 -1.211628319999999 0 0 0
Au 5.14104750 4.84702500 -1.211628319999999 0 0 0
Au 5.14104750 0.00000000 -1.211628319999999 0 0 0
Au 1.71368250 4.84702500 -1.211628319999999 0 0 0
Au 5.14104750 7.27053750 -3.63515765 0 0 0
Au 1.71368250 2.42351250 -3.63515765 0 0 0
Au 1.71368250 7.27053750 -3.63515765 0 0 0
Au 5.14104750 2.42351250 -3.63515765 0 0 0
Au 1.82390656 4.84450455 3.71751456
Au 5.03068635 0.00252045 3.71751456
Au 5.03082344 4.84450455 3.71751456
Au 1.82397511 0.00261739 3.71751456
Au 5.18169605 2.42351250 1.22335463
Au 1.63039753 7.27053750 1.26262415
Au 1.67310250 2.42360944 1.22308193
Au 5.22440102 7.27063444 1.26262415
C 6.85466145 2.42205839 7.73691356
O 0.00000000 2.42370638 8.87163906
