&CONTROL
calculation = 'relax'
prefix = 'scf'
pseudo_dir = '/vol0004/mdt0/data/hp150275/u10028/POT_KKJUS'
outdir = './data'
tprnfor = .true.
nstep = 50
disk_io = 'non'
/
&SYSTEM
ibrav = 0
ecutwfc = 50.0
ecutrho = 400
occupations = 'smearing'
smearing = 'mp'
degauss = 0.01
assume_isolated = 'esm'
esm_bc = 'bc1'
input_dft = 'BEEF-VDW'
nosym = .true.
nspin = 1
ntyp = 2
nat = 32
/
&ELECTRONS
electron_maxstep = 200
mixing_beta = 0.1
conv_thr = 1e-06
/
&IONS
ion_dynamics = 'bfgs'
upscale = 1.0
/
&CELL
/

K_POINTS {automatic}
9 6 2 0  0  0

ATOMIC_SPECIES
Au 196.9 Au.pbe-n-rrkjus_psl.1.0.0.UPF
Li 6.941 Li.pbe-sl-rrkjus_psl.1.0.0.UPF

CELL_PARAMETERS {angstrom}
6.35005000 0.00000000 0.00000000
0.00000000 8.98033000 0.00000000
0.00000000 0.00000000 26.73520000

ATOMIC_POSITIONS {angstrom}
Li 1.58751250 0.00000000 -1.1226110499999997 0 0 0
Li 4.76253750 4.49016500 -1.1226110499999997 0 0 0
Li 4.76253750 0.00000000 -1.1226110499999997 0 0 0
Li 1.58751250 4.49016500 -1.1226110499999997 0 0 0
Li 4.76253750 6.73524750 -3.3675657900000004 0 0 0
Li 1.58751250 2.24508250 -3.3675657900000004 0 0 0
Li 1.58751250 6.73524750 -3.3675657900000004 0 0 0
Li 4.76253750 2.24508250 -3.3675657900000004 0 0 0
Li 0.00000000 6.73524750 -1.1226110499999997 0 0 0
Li 3.17502500 0.00000000 -3.3675657900000004 0 0 0
Li 0.00000000 2.24508250 -1.1226110499999997 0 0 0
Li 3.17502500 4.49016500 -3.3675657900000004 0 0 0
Li 1.69635236 4.49016500 3.48814154
Li 4.65401515 0.00000000 3.48840890
Li 4.65369764 4.49016500 3.48814154
Li 1.69603485 0.00000000 3.48840890
Li 4.76971306 2.24508250 1.03438489
Li 1.58033694 6.73515770 1.03438489
Li 1.58033694 2.24517230 1.03438489
Li 4.76971306 6.73515770 1.03438489
Li 0.00000000 2.24517230 3.18469702
Li 3.17502500 4.49007520 1.10282700
Li 0.00000000 6.73515770 3.18469702
Li 3.17502500 0.00008980 1.10282700
Au 0.00000000 0.00000000 -3.3675657900000004 0 0 0
Au 3.17502500 2.24508250 -1.1226110499999997 0 0 0
Au 3.17502500 6.73524750 -1.1226110499999997 0 0 0
Au 0.00000000 4.49016500 -3.3675657900000004 0 0 0
Au 0.00000000 4.49025480 1.24987060
Au 3.17502500 6.73515770 3.12801840
Au 3.17502500 2.24517230 3.12801840
Au 0.00000000 8.98024020 1.25013795
