&CONTROL
calculation = 'relax'
prefix = 'scf'
pseudo_dir = '/vol0403/data/hp230205/u10028/POT_HYBRID_KKJUS_GBRV'
outdir = './data'
tprnfor = .true.
nstep = 50
disk_io = 'non'
/
&SYSTEM
ibrav = 0
ecutwfc = 50.0
ecutrho = 400
occupations = 'smearing'
smearing = 'mp'
degauss = 0.01
assume_isolated = 'esm'
esm_bc = 'bc1'
input_dft = 'BEEF-VDW'
nosym = .true.
nspin = 1
ntyp = 6
nat = 18
/
&ELECTRONS
electron_maxstep = 200
mixing_beta = 0.1
conv_thr = 1e-06
/
&IONS
ion_dynamics = 'bfgs'
upscale = 1.0
/
&CELL
/

K_POINTS {automatic}
11 7 2 0  0  0

ATOMIC_SPECIES
C 12.01 C.pbe-n-rrkjus_psl.1.0.0.UPF
Ge 72.64 Ge.pbe-dn-rrkjus_psl.1.0.0.UPF
Li 6.941 Li.pbe-sl-rrkjus_psl.1.0.0.UPF
O 15.99 O.pbe-n-rrkjus_psl.1.0.0.UPF
Sn 118.7 Sn.pbe-dn-rrkjus_psl.1.0.0.UPF
Y 88.90 Y.pbe-spn-rrkjus_psl.1.0.0.UPF


CELL_PARAMETERS {angstrom}
6.05842000 0.00000000 0.00000000
0.00000000 9.43388000 0.00000000
0.00000000 0.00000000 24.54360000

ATOMIC_POSITIONS {angstrom}
Li 4.55811287 2.35847000 -0.75717006 0 0 0
Li 1.66939763 2.35847000 2.53609019
Li 4.55811287 7.07541000 -0.75717006 0 0 0
Li 1.67472904 7.07541000 2.41361762
Y 3.02921000 0.00000000 -2.2717556200000004 0 0 0
Y 0.05270825 0.00330186 0.72477251
Y 3.02921000 4.71694000 -2.2717556200000004 0 0 0
Y 0.05246592 4.71354380 0.72501794
Sn 1.52890287 2.35847000 -0.75717006 0 0 0
Sn 4.49758926 2.35847000 2.22193211
Sn 1.52890287 7.07541000 -0.75717006 0 0 0
Sn 4.50558637 7.07541000 2.25580228
Ge 0.00000000 0.00000000 -2.2717556200000004 0 0 0
Ge 3.07228537 9.43227624 1.11992447
Ge 0.00000000 4.71694000 -2.2717556200000004 0 0 0
Ge 3.07228537 4.71863810 1.11992447
C 1.62359598 2.35847000 4.65322112
O 1.61735580 2.35847000 5.79228960
