&CONTROL
calculation = 'relax'
prefix = 'scf'
pseudo_dir = '/vol0004/mdt0/data/hp150275/u10028/POT_HYBRID_KKJUS_GBRV'
outdir = './data'
tprnfor = .true.
nstep = 70
disk_io = 'non'
/
&SYSTEM
ibrav = 0
ecutwfc = 50.0
ecutrho = 400
occupations = 'smearing'
smearing = 'mp'
degauss = 0.01
assume_isolated = 'esm'
esm_bc = 'bc1'
input_dft = 'BEEF-VDW'
nosym = .true.
nspin = 1
ntyp = 4
nat = 18
/
&ELECTRONS
electron_maxstep = 200
mixing_beta = 0.1
conv_thr = 1e-06
/
&IONS
ion_dynamics = 'bfgs'
upscale = 1.0
/
&CELL
/

K_POINTS {automatic}
10 10 2 0  0  0

ATOMIC_SPECIES
C 12.01 C.pbe-n-rrkjus_psl.1.0.0.UPF
O 15.99 O.pbe-n-rrkjus_psl.1.0.0.UPF
Pt 195.0 Pt.pbe-n-rrkjus_psl.1.0.0.UPF
V 50.94 V.pbe-spnl-rrkjus_psl.1.0.0.UPF

CELL_PARAMETERS {angstrom}
5.33334000 0.00000000 0.00000000
-0.00000000 5.33334000 0.00000000
0.00000000 0.00000000 25.40000000

ATOMIC_POSITIONS {angstrom}
V 1.33333500 1.33333500 -0.3726179999999992 0 0 0
V 1.33333500 1.33333500 3.22732400
V 1.33333500 4.00000500 -0.3726179999999992 0 0 0
V 1.33333500 4.00000500 3.22732400
V 4.00000500 1.33333500 -0.3726179999999992 0 0 0
V 4.00000500 1.33333500 3.22732400
V 4.00000500 4.00000500 -0.3726179999999992 0 0 0
V 4.00000500 4.00000500 3.22732400
Pt 0.00000000 0.00000000 -2.1727159999999976 0 0 0
Pt 0.00000000 0.00000000 1.42722600
Pt 0.00000000 2.66667000 -2.1727159999999976 0 0 0
Pt 0.00000000 2.66667000 1.42722600
Pt 2.66667000 0.00000000 -2.1727159999999976 0 0 0
Pt 2.66667000 -0.00000000 1.42722600
Pt 2.66667000 2.66667000 -2.1727159999999976 0 0 0
Pt 2.66667000 2.66667000 1.42722600
C 1.33333500 1.33333500 5.12724400
O 1.33333500 1.33333500 6.27735600
