&CONTROL
calculation = 'relax'
prefix = 'scf'
pseudo_dir = '/vol0004/mdt0/data/hp150275/u10028/POT_KKJUS'
outdir = './data'
tprnfor = .true.
nstep = 50
disk_io = 'non'
/
&SYSTEM
ibrav = 0
ecutwfc = 50.0
ecutrho = 400
occupations = 'smearing'
smearing = 'mp'
degauss = 0.01
assume_isolated = 'esm'
esm_bc = 'bc1'
input_dft = 'BEEF-VDW'
nosym = .true.
nspin = 1
ntyp = 4
nat = 18
/
&ELECTRONS
electron_maxstep = 200
mixing_beta = 0.1
conv_thr = 1e-06
/
&IONS
ion_dynamics = 'bfgs'
upscale = 1.0
/
&CELL
/

K_POINTS {automatic}
8 11 2 0  0  0

ATOMIC_SPECIES
C 12.01 C.pbe-n-rrkjus_psl.1.0.0.UPF
Nb 92.90 Nb.pbe-spn-rrkjus_psl.1.0.0.UPF
O 15.99 O.pbe-n-rrkjus_psl.1.0.0.UPF
Zn 65.40 Zn.pbe-dnl-rrkjus_psl.1.0.0.UPF

CELL_PARAMETERS {angstrom}
7.89001000 0.00000000 0.00000000
0.00000000 5.57908000 0.00000000
0.00000000 0.00000000 24.18430000

ATOMIC_POSITIONS {angstrom}
Nb 0.00000000 0.00000000 2.00318557
Nb 0.00000000 2.78954000 -0.6974752100000003 0 0 0
Nb 3.94500500 0.00000000 2.02567697
Nb 3.94500500 2.78954000 -0.6974752100000003 0 0 0
Zn 0.00000000 2.78954000 2.22471376
Zn 1.97550070 4.16405794 0.79203583
Zn 1.97550070 1.41502206 0.79203583
Zn 0.00000000 0.00000000 -0.6974752100000003 0 0 0
Zn 1.97250250 1.39477000 -2.09218379 0 0 0
Zn 1.97250250 4.18431000 -2.09218379 0 0 0
Zn 3.94500500 2.78954000 2.12047942
Zn 5.91450930 4.16405794 0.79203583
Zn 5.91450930 1.41502206 0.79203583
Zn 3.94500500 0.00000000 -0.6974752100000003 0 0 0
Zn 5.91750750 1.39477000 -2.09218379 0 0 0
Zn 5.91750750 4.18431000 -2.09218379 0 0 0
C 0.00000000 0.00000000 4.12390684
O 0.00000000 0.00000000 5.28451139
