&CONTROL
calculation = 'relax'
prefix = 'scf'
pseudo_dir = '/vol0004/mdt0/data/hp150275/u10028/POT_KKJUS'
outdir = './data'
tprnfor = .true.
nstep = 50
disk_io = 'non'
/
&SYSTEM
ibrav = 0
ecutwfc = 50.0
ecutrho = 400
occupations = 'smearing'
smearing = 'mp'
degauss = 0.01
assume_isolated = 'esm'
esm_bc = 'bc1'
input_dft = 'BEEF-VDW'
nosym = .true.
nspin = 1
ntyp = 3
nat = 33
/
&ELECTRONS
electron_maxstep = 200
mixing_beta = 0.1
conv_thr = 1e-06
/
&IONS
ion_dynamics = 'bfgs'
upscale = 1.0
/
&CELL
/

K_POINTS {automatic}
9 6 2 0  0  0

ATOMIC_SPECIES
Be 9.012 Be.pbe-n-rrkjus_psl.1.0.0.UPF
C 12.01 C.pbe-n-rrkjus_psl.1.0.0.UPF
Rh 102.9 Rh.pbe-spn-rrkjus_psl.1.0.0.UPF

CELL_PARAMETERS {angstrom}
5.57428000 0.00000000 0.00000000
0.00000000 7.88322000 0.00000000
0.00000000 0.00000000 25.91240000

ATOMIC_POSITIONS {angstrom}
Be 0.00000000 0.00000000 -2.9560865900000017 0 0 0
Be 0.00000000 1.97080500 -0.9854485700000026 0 0 0
Be 0.00445942 7.87352364 1.00669674
Be 5.32165363 1.97080500 2.88975085
Be 0.00000000 3.94161000 -2.9560865900000017 0 0 0
Be 0.00000000 5.91241500 -0.9854485700000026 0 0 0
Be 0.00434794 3.95130636 1.00669674
Be 0.04492870 5.91249383 2.80113044
Be 2.78714000 0.00000000 -2.9560865900000017 0 0 0
Be 2.78714000 1.97080500 -0.9854485700000026 0 0 0
Be 2.78262483 7.87352364 1.00669674
Be 3.03976637 1.97080500 2.88975085
Be 2.78714000 3.94161000 -2.9560865900000017 0 0 0
Be 2.78714000 5.91241500 -0.9854485700000026 0 0 0
Be 2.78273632 3.95130636 1.00669674
Be 2.74215556 5.91249383 2.80113044
Rh 1.39357000 1.97080500 -2.9560865900000017 0 0 0
Rh 1.39357000 0.00000000 -0.9854485700000026 0 0 0
Rh 1.39351426 1.97080500 0.97016026
Rh 1.39362574 3.81287702 3.04289313
Rh 1.39357000 5.91241500 -2.9560865900000017 0 0 0
Rh 1.39357000 3.94161000 -0.9854485700000026 0 0 0
Rh 1.39351426 5.91249383 1.00773324
Rh 1.39362574 0.12873298 3.04263401
Rh 4.18071000 1.97080500 -2.9560865900000017 0 0 0
Rh 4.18071000 0.00000000 -0.9854485700000026 0 0 0
Rh 4.18071000 1.97064734 0.95020771
Rh 4.18065426 4.07917219 2.95090411
Rh 4.18071000 5.91241500 -2.9560865900000017 0 0 0
Rh 4.18071000 3.94161000 -0.9854485700000026 0 0 0
Rh 4.18076574 5.91249383 0.91600334
Rh 4.18071000 7.74565781 2.95116324
C 1.39357000 1.97080500 3.53600610
