&CONTROL
calculation = 'relax'
prefix = 'scf'
pseudo_dir = '/vol0403/data/hp230205/u10028/POT_HYBRID_KKJUS_GBRV'
outdir = './data'
tprnfor = .true.
nstep = 70
disk_io = 'non'
/
&SYSTEM
ibrav = 0
ecutwfc = 50.0
ecutrho = 400
occupations = 'smearing'
smearing = 'mp'
degauss = 0.01
assume_isolated = 'esm'
esm_bc = 'bc1'
input_dft = 'BEEF-VDW'
nosym = .true.
nspin = 1
ntyp = 5
nat = 33
/
&ELECTRONS
electron_maxstep = 200
mixing_beta = 0.1
conv_thr = 1e-06
/
&IONS
ion_dynamics = 'bfgs'
upscale = 1.0
/
&CELL
/

K_POINTS {automatic}
6 6 1 0 0 0

ATOMIC_SPECIES
Au 196.9 Au.pbe-n-rrkjus_psl.1.0.0.UPF
C 12.01 C.pbe-n-rrkjus_psl.1.0.0.UPF
In 114.8 In.pbe-dn-rrkjus_psl.1.0.0.UPF
Li 6.941 Li.pbe-sl-rrkjus_psl.1.0.0.UPF
Pd 106.4 Pd.pbe-n-rrkjus_psl.1.0.0.UPF


CELL_PARAMETERS {angstrom}
7.53916000 0.00000000 0.00000000
-0.00000000 8.29976000 0.00000000
0.00000000 0.00000000 26.67340000

ATOMIC_POSITIONS {angstrom}
Li 2.13870891 2.07494000 4.01541364
Li 1.88479000 2.07494000 -1.1122807800000025 0 0 0
Li 1.78090038 6.22482000 3.63585115
Li 1.88479000 6.22482000 -1.1122807800000025 0 0 0
Li 5.40045109 2.07494000 4.01541364
Li 5.65437000 2.07494000 -1.1122807800000025 0 0 0
Li 5.75825962 6.22482000 3.63585115
Li 5.65437000 6.22482000 -1.1122807800000025 0 0 0
In 1.87091795 8.28946830 1.19576852
In 1.88479000 0.00000000 -3.3365756100000006 0 0 0
In 1.87091795 4.16017170 1.19576852
In 1.88479000 4.14988000 -3.3365756100000006 0 0 0
In 5.66824205 8.28946830 1.19576852
In 5.65437000 0.00000000 -3.3365756100000006 0 0 0
In 5.66824205 4.16017170 1.19576852
In 5.65437000 4.14988000 -3.3365756100000006 0 0 0
Pd 0.00000000 2.07494000 0.94050408
Pd 0.00000000 2.07494000 -3.3365756100000006 0 0 0
Pd 0.00000000 6.22482000 1.54759067
Pd 0.00000000 6.22482000 -3.3365756100000006 0 0 0
Pd 3.76958000 2.07494000 0.99251721
Pd 3.76958000 2.07494000 -3.3365756100000006 0 0 0
Pd 3.76958000 6.22482000 1.01012166
Pd 3.76958000 6.22482000 -3.3365756100000006 0 0 0
Au 0.00000000 0.26733527 3.37098429
Au 0.00000000 0.00000000 -1.1122807800000025 0 0 0
Au 0.00000000 3.88254473 3.37098429
Au 0.00000000 4.14988000 -1.1122807800000025 0 0 0
Au 3.76958000 8.23269794 3.39765769
Au 3.76958000 0.00000000 -1.1122807800000025 0 0 0
Au 3.76958000 4.21694206 3.39765769
Au 3.76958000 4.14988000 -1.1122807800000025 0 0 0
C 0.00000000 2.07494000 4.27761316
