&CONTROL
calculation = 'relax'
prefix = 'scf'
pseudo_dir = '/vol0004/mdt0/data/hp150275/u10028/POT_KKJUS'
outdir = './data'
tprnfor = .true.
nstep = 50
disk_io = 'non'
/
&SYSTEM
ibrav = 0
ecutwfc = 50.0
ecutrho = 400
occupations = 'smearing'
smearing = 'mp'
degauss = 0.01
assume_isolated = 'esm'
esm_bc = 'bc1'
input_dft = 'BEEF-VDW'
nosym = .true.
nspin = 1
ntyp = 4
nat = 33
/
&ELECTRONS
electron_maxstep = 200
mixing_beta = 0.1
conv_thr = 1e-06
/
&IONS
ion_dynamics = 'bfgs'
upscale = 1.0
/
&CELL
/

K_POINTS {automatic}
9 6 2 0  0  0

ATOMIC_SPECIES
Au 196.9 Au.pbe-n-rrkjus_psl.1.0.0.UPF
C 12.01 C.pbe-n-rrkjus_psl.1.0.0.UPF
Cu 63.54 Cu.pbe-dn-rrkjus_psl.1.0.0.UPF
Zn 65.40 Zn.pbe-dnl-rrkjus_psl.1.0.0.UPF

CELL_PARAMETERS {angstrom}
6.22913000 0.00000000 0.00000000
0.00000000 8.80931000 0.00000000
0.00000000 0.00000000 26.60700000

ATOMIC_POSITIONS {angstrom}
Zn 1.55728250 0.00000000 -1.1012637299999994 0 0 0
Zn 4.67184750 4.40465500 -1.1012637299999994 0 0 0
Zn 4.67184750 0.00000000 -1.1012637299999994 0 0 0
Zn 1.55728250 4.40465500 -1.1012637299999994 0 0 0
Zn 4.67184750 6.60698250 -3.3035251199999998 0 0 0
Zn 1.55728250 2.20232750 -3.3035251199999998 0 0 0
Zn 1.55728250 6.60698250 -3.3035251199999998 0 0 0
Zn 4.67184750 2.20232750 -3.3035251199999998 0 0 0
Zn 1.80974914 4.40465500 3.57970578
Zn 5.02572438 0.00000000 3.73030140
Zn 4.41938086 4.40465500 3.57970578
Zn 1.20340562 0.00000000 3.73030140
Zn 4.68885302 2.20461792 1.14010995
Zn 1.54027698 6.60469208 1.14010995
Zn 1.54027698 2.20470601 1.14010995
Zn 4.68885302 6.60460399 1.14010995
Cu 0.00000000 0.00000000 -3.3035251199999998 0 0 0
Cu 3.11456500 2.20232750 -1.1012637299999994 0 0 0
Cu 3.11456500 6.60698250 -1.1012637299999994 0 0 0
Cu 0.00000000 4.40465500 -3.3035251199999998 0 0 0
Cu 0.00000000 4.40465500 1.17390084
Cu 3.11456500 6.80202062 3.31762683
Cu 3.11456500 2.00728938 3.31762683
Cu 0.00000000 0.00000000 1.02490164
Au 0.00000000 6.60698250 -1.1012637299999994 0 0 0
Au 3.11456500 0.00000000 -3.3035251199999998 0 0 0
Au 0.00000000 2.20232750 -1.1012637299999994 0 0 0
Au 3.11456500 4.40465500 -3.3035251199999998 0 0 0
Au 0.00000000 2.44405497 3.34955523
Au 3.11456500 4.40465500 1.07572101
Au 0.00000000 6.36525503 3.34955523
Au 3.11456500 0.00000000 1.08929058
C 3.11456500 0.00000000 3.42166020
