&CONTROL
calculation = 'relax'
prefix = 'scf'
pseudo_dir = '/vol0403/data/hp230205/u10028/POT_HYBRID_KKJUS_GBRV'
outdir = './data'
tprnfor = .true.
nstep = 50
disk_io = 'non'
/
&SYSTEM
ibrav = 0
ecutwfc = 50.0
ecutrho = 400
occupations = 'smearing'
smearing = 'mp'
degauss = 0.01
assume_isolated = 'esm'
esm_bc = 'bc1'
input_dft = 'BEEF-VDW'
nosym = .true.
nspin = 1
ntyp = 5
nat = 17
/
&ELECTRONS
electron_maxstep = 200
mixing_beta = 0.1
conv_thr = 1e-06
/
&IONS
ion_dynamics = 'bfgs'
upscale = 1.0
/
&CELL
/

K_POINTS {automatic}
11 7 2 0  0  0

ATOMIC_SPECIES
C 12.01 C.pbe-n-rrkjus_psl.1.0.0.UPF
Li 6.941 Li.pbe-sl-rrkjus_psl.1.0.0.UPF
Pb 207.2 Pb.pbe-dn-rrkjus_psl.1.0.0.UPF
Sn 118.7 Sn.pbe-dn-rrkjus_psl.1.0.0.UPF
Y 88.90 Y.pbe-spn-rrkjus_psl.1.0.0.UPF


CELL_PARAMETERS {angstrom}
6.55220000 0.00000000 0.00000000
0.00000000 9.36828000 0.00000000
0.00000000 0.00000000 24.89710000

ATOMIC_POSITIONS {angstrom}
Li 0.00000000 0.00000000 -2.4486297899999983 0 0 0
Li 2.94049632 0.00000000 0.68043774
Li 0.00000000 4.68414000 -2.4486297899999983 0 0 0
Li 2.95982531 4.68414000 0.86492525
Y 4.77760215 2.34207000 -0.8161269399999966 0 0 0
Y 1.12933719 1.82915667 2.47825733
Y 4.77760215 7.02621000 -0.8161269399999966 0 0 0
Y 1.12933719 7.53902965 2.47825733
Sn 3.27610000 0.00000000 -2.4486297899999983 0 0 0
Sn 5.84823163 0.00000000 0.81612694
Sn 3.27610000 4.68414000 -2.4486297899999983 0 0 0
Sn 6.15212267 4.68414000 1.04692305
Pb 1.50150215 2.34207000 -0.8161269399999966 0 0 0
Pb 4.29470501 1.89379780 2.82382908
Pb 1.50150215 7.02621000 -0.8161269399999966 0 0 0
Pb 4.29470501 7.47457588 2.82382908
C 2.40701619 0.00000000 2.75635794
