&CONTROL
calculation = 'relax'
prefix = 'scf'
pseudo_dir = '/vol0004/mdt0/data/hp150275/u10028/POT_KKJUS'
outdir = './data'
tprnfor = .true.
nstep = 50
disk_io = 'non'
/
&SYSTEM
ibrav = 0
ecutwfc = 50.0
ecutrho = 400
occupations = 'smearing'
smearing = 'mp'
degauss = 0.01
assume_isolated = 'esm'
esm_bc = 'bc1'
input_dft = 'BEEF-VDW'
nosym = .true.
nspin = 1
ntyp = 2
nat = 17
/
&ELECTRONS
electron_maxstep = 200
mixing_beta = 0.1
conv_thr = 1e-06
/
&IONS
ion_dynamics = 'bfgs'
upscale = 1.0
/
&CELL
/

K_POINTS {automatic}
8 8 1 0 0 0

ATOMIC_SPECIES
C 12.01 C.pbe-n-rrkjus_psl.1.0.0.UPF
K 39.09 K.pbe-spn-rrkjus_psl.1.0.0.UPF

CELL_PARAMETERS {angstrom}
9.98137000 0.00000000 0.00000000
0.00000000 9.98137000 0.00000000
0.00000000 0.00000000 27.48600000

ATOMIC_POSITIONS {angstrom}
K 0.00000000 0.00000000 -3.7430434800000008 0 0 0
K 2.49534250 2.49534250 -1.2475895399999999 0 0 0
K 0.00089832 0.00109795 1.25226216
K 1.99886916 1.99876934 4.46152752
K 0.00000000 4.99068500 -3.7430434800000008 0 0 0
K 2.49534250 7.48602750 -1.2475895399999999 0 0 0
K 0.00000000 4.99048537 1.63431756
K 1.99906878 7.98250084 4.46180238
K 4.99068500 0.00000000 -3.7430434800000008 0 0 0
K 7.48602750 2.49534250 -1.2475895399999999 0 0 0
K 4.99058519 0.00000000 1.63431756
K 7.98240103 1.99896897 4.46180238
K 4.99068500 4.99068500 -3.7430434800000008 0 0 0
K 7.48602750 7.48602750 -1.2475895399999999 0 0 0
K 4.99058519 4.99058519 1.89241110
K 7.98230122 7.98230122 4.46180238
C 0.00000000 0.00000000 4.01955264
