&CONTROL
calculation = 'relax'
prefix = 'scf'
pseudo_dir = '/vol0403/data/hp230205/u10028/POT_HYBRID_KKJUS_GBRV'
outdir = './data'
tprnfor = .true.
nstep = 50
disk_io = 'non'
/
&SYSTEM
ibrav = 0
ecutwfc = 50.0
ecutrho = 400
occupations = 'smearing'
smearing = 'mp'
degauss = 0.01
assume_isolated = 'esm'
esm_bc = 'bc1'
input_dft = 'BEEF-VDW'
nosym = .true.
nspin = 1
ntyp = 6
nat = 34
/
&ELECTRONS
electron_maxstep = 200
mixing_beta = 0.1
conv_thr = 1e-06
/
&IONS
ion_dynamics = 'bfgs'
upscale = 1.0
/
&CELL
/

K_POINTS {automatic}
6 6 1 0 0 0

ATOMIC_SPECIES
C 12.01 C.pbe-n-rrkjus_psl.1.0.0.UPF
Li 6.941 Li.pbe-sl-rrkjus_psl.1.0.0.UPF
O 15.99 O.pbe-n-rrkjus_psl.1.0.0.UPF
Pd 106.4 Pd.pbe-n-rrkjus_psl.1.0.0.UPF
Sn 118.7 Sn.pbe-dn-rrkjus_psl.1.0.0.UPF
Y 88.90 Y.pbe-spn-rrkjus_psl.1.0.0.UPF


CELL_PARAMETERS {angstrom}
6.77715000 0.00000000 0.00000000
0.00000000 9.58434000 0.00000000
0.00000000 0.00000000 27.18830000

ATOMIC_POSITIONS {angstrom}
Li 0.00000000 0.00000000 -3.594021380000001 0 0 0
Li 0.00000000 4.79217000 -3.594021380000001 0 0 0
Li 3.38857500 7.18825500 -1.1979165000000016 0 0 0
Li 3.38857500 2.39608500 -1.1979165000000016 0 0 0
Li 0.04242496 4.79753723 1.27431562
Li 0.04242496 9.57897277 1.27431562
Li 4.64987039 2.39608500 4.92597619
Li 4.79700231 7.18825500 4.99367506
Y 1.69428750 0.00000000 -1.1979165000000016 0 0 0
Y 1.69428750 4.79217000 -1.1979165000000016 0 0 0
Y 5.08286250 2.39608500 -3.594021380000001 0 0 0
Y 5.08286250 7.18825500 -3.594021380000001 0 0 0
Y 1.94754960 4.85226381 3.57961158
Y 1.94754960 9.52424619 3.57961158
Y 5.03664234 7.18825500 1.28328776
Y 5.05473733 2.39608500 1.32379833
Sn 5.08286250 0.00000000 -1.1979165000000016 0 0 0
Sn 5.08286250 4.79217000 -1.1979165000000016 0 0 0
Sn 1.69428750 2.39608500 -3.594021380000001 0 0 0
Sn 1.69428750 7.18825500 -3.594021380000001 0 0 0
Sn 5.18729838 4.80050838 3.61985026
Sn 5.18729838 9.57590578 3.61985026
Sn 1.74904687 7.18825500 1.17045632
Sn 1.69252544 2.39608500 1.20335416
Pd 0.00000000 2.39608500 -1.1979165000000016 0 0 0
Pd 0.00000000 7.18825500 -1.1979165000000016 0 0 0
Pd 3.38857500 4.79217000 -3.594021380000001 0 0 0
Pd 3.38857500 0.00000000 -3.594021380000001 0 0 0
Pd 0.14469215 7.18825500 3.40778152
Pd 0.24099545 2.39608500 3.68918043
Pd 3.38023911 0.01121368 1.15468710
Pd 3.38023911 4.78095632 1.15468710
C 1.04036030 2.39608500 5.45451675
O 1.32588163 2.39608500 6.59207522
