&CONTROL
calculation = 'relax'
prefix = 'scf'
pseudo_dir = '/vol0004/mdt0/data/hp150275/u10028/POT_KKJUS'
outdir = './data'
tprnfor = .true.
nstep = 50
disk_io = 'non'
/
&SYSTEM
ibrav = 0
ecutwfc = 50.0
ecutrho = 400
occupations = 'smearing'
smearing = 'mp'
degauss = 0.01
assume_isolated = 'esm'
esm_bc = 'bc1'
input_dft = 'BEEF-VDW'
nosym = .true.
nspin = 1
ntyp = 3
nat = 17
/
&ELECTRONS
electron_maxstep = 200
mixing_beta = 0.1
conv_thr = 1e-06
/
&IONS
ion_dynamics = 'bfgs'
upscale = 1.0
/
&CELL
/

K_POINTS {automatic}
8 12 2 0  0  0

ATOMIC_SPECIES
C 12.01 C.pbe-n-rrkjus_psl.1.0.0.UPF
Ge 72.64 Ge.pbe-dn-rrkjus_psl.1.0.0.UPF
Ni 58.69 Ni.pbe-spn-rrkjus_psl.1.0.0.UPF

CELL_PARAMETERS {angstrom}
7.20976000 0.00000000 0.00000000
0.00000000 5.09807000 0.00000000
0.00000000 0.00000000 23.82360000

ATOMIC_POSITIONS {angstrom}
Ni 0.00000000 2.54903500 -1.9118438999999974 0 0 0
Ni 1.80244000 3.82355250 -0.6372812999999979 0 0 0
Ni 1.80244000 1.27451750 -0.6372812999999979 0 0 0
Ni 0.00000000 5.09801902 0.50315443
Ni 1.38823929 1.31193733 1.98569706
Ni 1.38823929 3.78587776 1.98569706
Ni 3.60488000 2.54903500 -1.9118438999999974 0 0 0
Ni 5.40732000 3.82355250 -0.6372812999999979 0 0 0
Ni 5.40732000 1.27451750 -0.6372812999999979 0 0 0
Ni 3.60495210 0.00000000 0.81452888
Ni 5.82137652 1.31198831 1.98545882
Ni 5.82130442 3.78572482 1.98522059
Ge 0.00000000 0.00000000 -1.9118438999999974 0 0 0
Ge 7.20968790 2.54898402 0.36140401
Ge 3.60488000 0.00000000 -1.9118438999999974 0 0 0
Ge 3.60488000 2.54898402 1.14877399
C 0.00000000 2.54888206 2.52625454
