&CONTROL
calculation = 'relax'
prefix = 'scf'
pseudo_dir = '/vol0004/mdt0/data/hp150275/u10028/POT_KKJUS'
outdir = './data'
tprnfor = .true.
nstep = 50
disk_io = 'non'
/
&SYSTEM
ibrav = 0
ecutwfc = 50.0
ecutrho = 400
occupations = 'smearing'
smearing = 'mp'
degauss = 0.01
assume_isolated = 'esm'
esm_bc = 'bc1'
input_dft = 'BEEF-VDW'
nosym = .true.
nspin = 1
ntyp = 4
nat = 33
/
&ELECTRONS
electron_maxstep = 200
mixing_beta = 0.1
conv_thr = 1e-06
/
&IONS
ion_dynamics = 'bfgs'
upscale = 1.0
/
&CELL
/

K_POINTS {automatic}
8 6 1 0 0 0

ATOMIC_SPECIES
Al 26.98 Al.pbe-nl-rrkjus_psl.1.0.0.UPF
C 12.01 C.pbe-n-rrkjus_psl.1.0.0.UPF
Li 6.941 Li.pbe-sl-rrkjus_psl.1.0.0.UPF
Pd 106.4 Pd.pbe-n-rrkjus_psl.1.0.0.UPF

CELL_PARAMETERS {angstrom}
6.12388000 0.00000000 0.00000000
0.00000000 8.66047000 0.00000000
0.00000000 0.00000000 26.49540000

ATOMIC_POSITIONS {angstrom}
Li 0.00000000 0.00000000 -3.2478061300000007 0 0 0
Li 3.06194000 2.16511750 -1.0826020400000012 0 0 0
Li 3.06194000 6.49535250 -1.0826020400000012 0 0 0
Li 0.00000000 4.33023500 -3.2478061300000007 0 0 0
Li 6.11628639 4.32789667 1.12287505
Li 2.88661332 6.49535250 4.20932420
Li 3.31479501 2.16511750 4.55032000
Li 6.11628639 0.00233833 1.12287505
Al 1.53097000 0.00000000 -1.0826020400000012 0 0 0
Al 4.59291000 4.33023500 -1.0826020400000012 0 0 0
Al 4.59291000 0.00000000 -1.0826020400000012 0 0 0
Al 1.53097000 4.33023500 -1.0826020400000012 0 0 0
Al 4.59291000 6.49535250 -3.2478061300000007 0 0 0
Al 1.53097000 2.16511750 -3.2478061300000007 0 0 0
Al 1.53097000 6.49535250 -3.2478061300000007 0 0 0
Al 4.59291000 2.16511750 -3.2478061300000007 0 0 0
Al 1.67420755 4.15226234 3.33815545
Al 4.51366699 8.56633069 3.29417308
Al 4.51366699 4.42437431 3.29417308
Al 1.67414631 0.17797266 3.33815545
Al 4.47992441 2.16511750 1.14168679
Al 1.59588313 6.49535250 1.12075542
Al 1.67279906 2.16511750 1.25429224
Al 4.52297529 6.49535250 1.18593410
Pd 0.00000000 6.49535250 -1.0826020400000012 0 0 0
Pd 3.06194000 0.00000000 -3.2478061300000007 0 0 0
Pd 0.00000000 2.16511750 -1.0826020400000012 0 0 0
Pd 3.06194000 4.33023500 -3.2478061300000007 0 0 0
Pd 5.68755355 2.16511750 3.27589126
Pd 3.06126637 4.36989995 0.95383440
Pd 0.05793190 6.49535250 3.13467077
Pd 3.06126637 8.62080505 0.95383440
C 1.66679766 2.16511750 3.31881380
