&CONTROL
calculation = 'relax'
prefix = 'scf'
pseudo_dir = '/vol0004/mdt0/data/hp150275/u10028/POT_KKJUS'
outdir = './data'
tprnfor = .true.
nstep = 50
disk_io = 'non'
/
&SYSTEM
ibrav = 0
ecutwfc = 50.0
ecutrho = 400
occupations = 'smearing'
smearing = 'mp'
degauss = 0.01
assume_isolated = 'esm'
esm_bc = 'bc1'
input_dft = 'BEEF-VDW'
nosym = .true.
nspin = 1
ntyp = 4
nat = 18
/
&ELECTRONS
electron_maxstep = 200
mixing_beta = 0.1
conv_thr = 1e-06
/
&IONS
ion_dynamics = 'bfgs'
upscale = 1.0
/
&CELL
/

K_POINTS {automatic}
6 8 1 0 0 0

ATOMIC_SPECIES
C 12.01 C.pbe-n-rrkjus_psl.1.0.0.UPF
O 15.99 O.pbe-n-rrkjus_psl.1.0.0.UPF
Pt 195.0 Pt.pbe-n-rrkjus_psl.1.0.0.UPF
Y 88.90 Y.pbe-spn-rrkjus_psl.1.0.0.UPF

CELL_PARAMETERS {angstrom}
8.32195000 0.00000000 0.00000000
0.00000000 5.88450000 0.00000000
0.00000000 0.00000000 24.41340000

ATOMIC_POSITIONS {angstrom}
Y 0.00000000 0.00000000 -2.2067272299999985 0 0 0
Y 8.30622151 2.93518860 0.80344499
Y 4.16097500 0.00000000 -2.2067272299999985 0 0 0
Y 4.17670349 2.93536514 0.80368913
Pt 0.00000000 2.94225000 -2.2067272299999985 0 0 0
Pt 2.08048750 4.41337500 -0.735575739999998 0 0 0
Pt 2.08048750 1.47112500 -0.735575739999998 0 0 0
Pt 0.00033288 0.00241265 0.63328360
Pt 2.08048750 1.28011413 2.13055742
Pt 2.08023784 4.34782167 2.10321441
Pt 4.16097500 2.94225000 -2.2067272299999985 0 0 0
Pt 6.24146250 4.41337500 -0.735575739999998 0 0 0
Pt 6.24146250 1.47112500 -0.735575739999998 0 0 0
Pt 4.16072534 0.00253034 0.63328360
Pt 6.24162894 1.43723028 2.09857586
Pt 6.24171216 4.45968602 2.06805911
C 2.08040428 1.74110586 3.94154343
O 2.08040428 1.94100233 5.07969614
