&CONTROL
calculation = 'relax'
prefix = 'scf'
pseudo_dir = '/vol0004/mdt0/data/hp150275/u10028/POT_HYBRID_KKJUS_GBRV'
outdir = './data'
tprnfor = .true.
nstep = 50
disk_io = 'non'
/
&SYSTEM
ibrav = 0
ecutwfc = 50.0
ecutrho = 400
occupations = 'smearing'
smearing = 'mp'
degauss = 0.01
assume_isolated = 'esm'
esm_bc = 'bc1'
input_dft = 'BEEF-VDW'
nosym = .true.
nspin = 2
ntyp = 4
nat = 34
starting_magnetization(1) = 0.1
starting_magnetization(2) = 0.1
starting_magnetization(3) = 0.1
starting_magnetization(4) = 0.1
/
&ELECTRONS
electron_maxstep = 200
mixing_beta = 0.1
conv_thr = 1e-06
/
&IONS
ion_dynamics = 'bfgs'
upscale = 1.0
/
&CELL
/

K_POINTS {automatic}
9 6 2 0  0  0

ATOMIC_SPECIES
Al 26.98 Al.pbe-nl-rrkjus_psl.1.0.0.UPF
C 12.01 C.pbe-n-rrkjus_psl.1.0.0.UPF
Mn 54.93 mn_pbe_v1.5.uspp.F.UPF
O 15.99 O.pbe-n-rrkjus_psl.1.0.0.UPF

CELL_PARAMETERS {angstrom}
5.89713000 0.00000000 0.00000000
0.00000000 8.33980000 0.00000000
0.00000000 0.00000000 26.25480000

ATOMIC_POSITIONS {angstrom}
Mn 1.47428250 2.08495000 -3.1274717800000005 0 0 0
Mn 1.47428250 0.00000000 -1.042578110000001 0 0 0
Mn 1.43028991 2.08495000 1.15521120
Mn 1.50724746 8.30218750 3.11434438
Mn 1.47428250 6.25485000 -3.1274717800000005 0 0 0
Mn 1.47428250 4.16990000 -1.042578110000001 0 0 0
Mn 1.51349841 6.25485000 1.10847766
Mn 1.50724746 4.20742910 3.11434438
Mn 4.42284750 2.08495000 -3.1274717800000005 0 0 0
Mn 4.42284750 0.00000000 -1.042578110000001 0 0 0
Mn 4.46684009 2.08495000 1.15521120
Mn 4.38988254 8.30218750 3.11434438
Mn 4.42284750 6.25485000 -3.1274717800000005 0 0 0
Mn 4.42284750 4.16990000 -1.042578110000001 0 0 0
Mn 4.38363159 6.25485000 1.10847766
Mn 4.38988254 4.20742910 3.11434438
Al 0.00000000 0.00000000 -3.1274717800000005 0 0 0
Al 0.00000000 2.08495000 -1.042578110000001 0 0 0
Al 0.00000000 8.30869255 1.04100282
Al 0.00000000 2.08495000 3.40787304
Al 0.00000000 4.16990000 -3.1274717800000005 0 0 0
Al 0.00000000 6.25485000 -1.042578110000001 0 0 0
Al 0.00000000 4.20092406 1.04100282
Al 0.00000000 6.25485000 3.33540979
Al 2.94856500 0.00000000 -3.1274717800000005 0 0 0
Al 2.94856500 2.08495000 -1.042578110000001 0 0 0
Al 2.94856500 0.03327580 1.01816114
Al 2.94856500 2.08495000 3.39317035
Al 2.94856500 4.16990000 -3.1274717800000005 0 0 0
Al 2.94856500 6.25485000 -1.042578110000001 0 0 0
Al 2.94856500 4.13654080 1.01816114
Al 2.94856500 6.25485000 3.45985754
C 5.89707103 2.08495000 5.40402548
O 5.89707103 2.08495000 6.55529846
