&CONTROL
calculation = 'relax'
prefix = 'scf'
pseudo_dir = '/vol0004/mdt0/data/hp150275/u10028/POT_KKJUS'
outdir = './data'
tprnfor = .true.
nstep = 50
disk_io = 'non'
/
&SYSTEM
ibrav = 0
ecutwfc = 50.0
ecutrho = 400
occupations = 'smearing'
smearing = 'mp'
degauss = 0.01
assume_isolated = 'esm'
esm_bc = 'bc1'
input_dft = 'BEEF-VDW'
nosym = .true.
nspin = 1
ntyp = 4
nat = 33
/
&ELECTRONS
electron_maxstep = 200
mixing_beta = 0.1
conv_thr = 1e-06
/
&IONS
ion_dynamics = 'bfgs'
upscale = 1.0
/
&CELL
/

K_POINTS {automatic}
9 6 2 0  0  0

ATOMIC_SPECIES
C 12.01 C.pbe-n-rrkjus_psl.1.0.0.UPF
In 114.8 In.pbe-dn-rrkjus_psl.1.0.0.UPF
Li 6.941 Li.pbe-sl-rrkjus_psl.1.0.0.UPF
Rh 102.9 Rh.pbe-spn-rrkjus_psl.1.0.0.UPF

CELL_PARAMETERS {angstrom}
6.57920000 0.00000000 0.00000000
0.00000000 9.30439000 0.00000000
0.00000000 0.00000000 26.97830000

ATOMIC_POSITIONS {angstrom}
Li 0.00000000 0.00000000 -3.489103540000002 0 0 0
Li 3.28960000 2.32609750 -1.1630345099999992 0 0 0
Li 3.28960000 6.97829250 -1.1630345099999992 0 0 0
Li 0.00000000 4.65219500 -3.489103540000002 0 0 0
Li 0.04690970 4.60511479 1.22265656
Li 3.26111206 6.97829250 3.68847318
Li 3.64402150 2.32609750 4.32165388
Li 0.04690970 0.04708021 1.22265656
In 1.64480000 0.00000000 -1.1630345099999992 0 0 0
In 4.93440000 4.65219500 -1.1630345099999992 0 0 0
In 4.93440000 0.00000000 -1.1630345099999992 0 0 0
In 1.64480000 4.65219500 -1.1630345099999992 0 0 0
In 4.93440000 6.97829250 -3.489103540000002 0 0 0
In 1.64480000 2.32609750 -3.489103540000002 0 0 0
In 1.64480000 6.97829250 -3.489103540000002 0 0 0
In 4.93440000 2.32609750 -3.489103540000002 0 0 0
In 1.74046157 4.64326279 3.74809522
In 5.07769498 9.20902000 3.63856332
In 5.07769498 4.74756500 3.63856332
In 1.74046157 0.00893221 3.74809522
In 4.82281677 2.32609750 1.16141582
In 1.69434138 6.97829250 1.11798075
In 1.72019763 2.32609750 1.19325021
In 4.96065101 6.97829250 1.19190129
Rh 0.00000000 6.97829250 -1.1630345099999992 0 0 0
Rh 3.28960000 0.00000000 -3.489103540000002 0 0 0
Rh 0.00000000 2.32609750 -1.1630345099999992 0 0 0
Rh 3.28960000 4.65219500 -3.489103540000002 0 0 0
Rh 6.47353805 2.32609750 3.35502139
Rh 3.30427162 4.70095000 1.09666789
Rh 0.13158400 6.97829250 3.31320502
Rh 3.30427162 9.25563500 1.09666789
C 1.54288819 2.32609750 4.21158241
