&CONTROL
calculation = 'relax'
prefix = 'scf'
pseudo_dir = '/vol0004/mdt0/data/hp150275/u10028/POT_KKJUS'
outdir = './data'
tprnfor = .true.
nstep = 50
disk_io = 'non'
/
&SYSTEM
ibrav = 0
ecutwfc = 50.0
ecutrho = 400
occupations = 'smearing'
smearing = 'mp'
degauss = 0.01
assume_isolated = 'esm'
esm_bc = 'bc1'
input_dft = 'BEEF-VDW'
nosym = .true.
nspin = 1
ntyp = 4
nat = 18
/
&ELECTRONS
electron_maxstep = 200
mixing_beta = 0.1
conv_thr = 1e-06
/
&IONS
ion_dynamics = 'bfgs'
upscale = 1.0
/
&CELL
/

K_POINTS {automatic}
8 8 1 0 0 0

ATOMIC_SPECIES
C 12.01 C.pbe-n-rrkjus_psl.1.0.0.UPF
Ni 58.69 Ni.pbe-spn-rrkjus_psl.1.0.0.UPF
O 15.99 O.pbe-n-rrkjus_psl.1.0.0.UPF
Sn 118.7 Sn.pbe-dn-rrkjus_psl.1.0.0.UPF

CELL_PARAMETERS {angstrom}
6.01786000 0.00000000 0.00000000
0.00000000 6.01786000 0.00000000
0.00000000 0.00000000 24.51340000

ATOMIC_POSITIONS {angstrom}
Ni 1.53587823 1.53563751 0.76138620
Ni 4.51339500 4.51339500 -2.2567036000000016 0 0 0
Ni 4.48198177 1.53635966 0.75967027
Ni 1.50446500 4.51339500 -2.2567036000000016 0 0 0
Ni 4.48234284 4.48174106 0.76016053
Ni 1.50446500 1.50446500 -2.2567036000000016 0 0 0
Ni 1.53485519 4.48252338 0.76065080
Ni 4.51339500 1.50446500 -2.2567036000000016 0 0 0
Ni 0.00000000 0.00000000 -0.7523162499999998 0 0 0
Ni 3.00989286 6.01773964 2.09834704
Ni 6.01737857 3.00880964 2.09712137
Ni 3.00893000 3.00893000 -0.7523162499999998 0 0 0
Sn 6.01719804 0.00066196 2.23366101
Sn 3.00850875 3.00977250 2.39839106
Sn 3.00893000 0.00000000 -0.7523162499999998 0 0 0
Sn 0.00000000 3.00893000 -0.7523162499999998 0 0 0
C 0.00746215 6.00389856 6.30680755
O 6.01653607 0.00252750 7.44128770
