&CONTROL
calculation = 'relax'
prefix = 'scf'
pseudo_dir = '/vol0004/mdt0/data/hp150275/u10028/POT_KKJUS'
outdir = './data'
tprnfor = .true.
nstep = 50
disk_io = 'non'
/
&SYSTEM
ibrav = 0
ecutwfc = 50.0
ecutrho = 400
occupations = 'smearing'
smearing = 'mp'
degauss = 0.01
assume_isolated = 'esm'
esm_bc = 'bc1'
input_dft = 'BEEF-VDW'
nosym = .true.
nspin = 1
ntyp = 3
nat = 33
/
&ELECTRONS
electron_maxstep = 200
mixing_beta = 0.1
conv_thr = 1e-06
/
&IONS
ion_dynamics = 'bfgs'
upscale = 1.0
/
&CELL
/

K_POINTS {automatic}
8 6 1 0 0 0

ATOMIC_SPECIES
C 12.01 C.pbe-n-rrkjus_psl.1.0.0.UPF
Sb 121.7 Sb.pbe-n-rrkjus_psl.1.0.0.UPF
Sn 118.7 Sn.pbe-dn-rrkjus_psl.1.0.0.UPF

CELL_PARAMETERS {angstrom}
7.64519000 0.00000000 0.00000000
0.00000000 10.81190000 0.00000000
0.00000000 0.00000000 28.10890000

ATOMIC_POSITIONS {angstrom}
Sn 1.91129750 2.70297500 -4.054427739999998 0 0 0
Sn 1.91129750 0.00000000 -1.3514759099999978 0 0 0
Sn 2.00701528 2.47473579 1.63509471
Sn 2.06221355 0.00000000 5.32466893
Sn 1.91129750 8.10892500 -4.054427739999998 0 0 0
Sn 1.91129750 5.40595000 -1.3514759099999978 0 0 0
Sn 2.00709173 8.33705609 1.63509471
Sn 1.74103912 5.40595000 4.64555790
Sn 5.73389250 2.70297500 -4.054427739999998 0 0 0
Sn 5.73389250 0.00000000 -1.3514759099999978 0 0 0
Sn 5.63802182 2.47473579 1.63509471
Sn 5.58297645 10.81179188 5.32466893
Sn 5.73389250 8.10892500 -4.054427739999998 0 0 0
Sn 5.73389250 5.40595000 -1.3514759099999978 0 0 0
Sn 5.63809827 8.33716421 1.63509471
Sn 5.90422733 5.40595000 4.64555790
Sb 0.00000000 0.00000000 -4.054427739999998 0 0 0
Sb 0.00000000 2.70297500 -1.3514759099999978 0 0 0
Sb 0.00000000 0.00000000 1.04059148
Sb 0.00000000 2.15221681 3.93608927
Sb 0.00000000 5.40595000 -4.054427739999998 0 0 0
Sb 0.00000000 8.10892500 -1.3514759099999978 0 0 0
Sb 0.00007645 5.40605812 2.14639560
Sb 0.00000000 8.65979131 3.93608927
Sb 3.82259500 0.00000000 -4.054427739999998 0 0 0
Sb 3.82259500 2.70297500 -1.3514759099999978 0 0 0
Sb 3.82259500 0.00000000 2.70604380
Sb 3.82259500 3.12766643 4.30403477
Sb 3.82259500 5.40595000 -4.054427739999998 0 0 0
Sb 3.82259500 8.10892500 -1.3514759099999978 0 0 0
Sb 3.82259500 5.40573376 2.28834555
Sb 3.82259500 7.68423357 4.30403477
C 0.00000000 0.00043248 4.45357412
