&CONTROL
calculation = 'relax'
prefix = 'scf'
pseudo_dir = '/vol0403/data/hp230205/u10028/POT_HYBRID_KKJUS_GBRV'
outdir = './data'
tprnfor = .true.
nstep = 50
disk_io = 'non'
/
&SYSTEM
ibrav = 0
ecutwfc = 50.0
ecutrho = 400
occupations = 'smearing'
smearing = 'mp'
degauss = 0.01
assume_isolated = 'esm'
esm_bc = 'bc1'
input_dft = 'BEEF-VDW'
nosym = .true.
nspin = 1
ntyp = 5
nat = 17
/
&ELECTRONS
electron_maxstep = 200
mixing_beta = 0.1
conv_thr = 1e-06
/
&IONS
ion_dynamics = 'bfgs'
upscale = 1.0
/
&CELL
/

K_POINTS {automatic}
6 6 1 0 0 0

ATOMIC_SPECIES
C 12.01 C.pbe-n-rrkjus_psl.1.0.0.UPF
Cu 63.54 Cu.pbe-dn-rrkjus_psl.1.0.0.UPF
In 114.8 In.pbe-dn-rrkjus_psl.1.0.0.UPF
Sn 118.7 Sn.pbe-dn-rrkjus_psl.1.0.0.UPF
Y 88.90 Y.pbe-spn-rrkjus_psl.1.0.0.UPF


CELL_PARAMETERS {angstrom}
8.82850000 0.00000000 0.00000000
0.00000000 6.36255000 0.00000000
0.00000000 0.00000000 24.76930000

ATOMIC_POSITIONS {angstrom}
Y 2.20712500 4.71910333 -0.7948468400000017 0 0 0
Y 1.89238898 1.48241052 2.37364202
Y 6.62137500 4.71910334 -0.7948468400000017 0 0 0
Y 6.93611102 1.48241052 2.37364202
In 2.20712500 1.53782834 -0.7948468400000017 0 0 0
In 1.69666113 4.61475751 3.04389928
In 6.62137500 1.53782834 -0.7948468400000017 0 0 0
In 7.13183887 4.61475751 3.04389928
Cu 0.00000000 0.00000000 -2.384540510000001 0 0 0
Cu 0.00000000 3.16409611 0.55532771
Cu 4.41425000 0.00000000 -2.384540510000001 0 0 0
Cu 4.41425000 3.03258221 0.57563853
Sn 0.00000000 3.18127500 -2.384540510000001 0 0 0
Sn 0.00000000 6.03634206 0.79261760
Sn 4.41425000 3.18127500 -2.384540510000001 0 0 0
Sn 4.41425000 6.01547290 1.15127706
C 0.00000000 2.79882212 2.52300090
