&CONTROL
calculation = 'relax'
prefix = 'scf'
pseudo_dir = '/vol0004/mdt0/data/hp150275/u10028/POT_KKJUS'
outdir = './data'
tprnfor = .true.
nstep = 50
disk_io = 'non'
/
&SYSTEM
ibrav = 0
ecutwfc = 50.0
ecutrho = 400
occupations = 'smearing'
smearing = 'mp'
degauss = 0.01
assume_isolated = 'esm'
esm_bc = 'bc1'
input_dft = 'BEEF-VDW'
nosym = .true.
nspin = 1
ntyp = 3
nat = 33
/
&ELECTRONS
electron_maxstep = 200
mixing_beta = 0.1
conv_thr = 1e-06
/
&IONS
ion_dynamics = 'bfgs'
upscale = 1.0
/
&CELL
/

K_POINTS {automatic}
8 6 1 0 0 0

ATOMIC_SPECIES
C 12.01 C.pbe-n-rrkjus_psl.1.0.0.UPF
Os 190.2 Os.pbe-spn-rrkjus_psl.1.0.0.UPF
Zr 91.22 Zr.pbe-spn-rrkjus_psl.1.0.0.UPF

CELL_PARAMETERS {angstrom}
6.57738000 0.00000000 0.00000000
0.00000000 9.30182000 0.00000000
0.00000000 0.00000000 26.97640000

ATOMIC_POSITIONS {angstrom}
Zr 1.64434500 2.32545500 -3.4883182800000014 0 0 0
Zr 1.64434500 0.00000000 -1.1626828400000022 0 0 0
Zr 1.65638161 2.33001289 1.20206838
Zr 1.63553131 4.65091000 3.57464276
Zr 1.64434500 6.97636500 -3.4883182800000014 0 0 0
Zr 1.64434500 4.65091000 -1.1626828400000022 0 0 0
Zr 1.65638161 6.97180711 1.20206838
Zr 1.98459287 0.00000000 3.65557196
Zr 4.93303500 2.32545500 -3.4883182800000014 0 0 0
Zr 4.93303500 0.00000000 -1.1626828400000022 0 0 0
Zr 4.92099839 2.33001289 1.20206838
Zr 4.94184869 4.65091000 3.57464276
Zr 4.93303500 6.97636500 -3.4883182800000014 0 0 0
Zr 4.93303500 4.65091000 -1.1626828400000022 0 0 0
Zr 4.92099839 6.97180711 1.20206838
Zr 4.59278713 0.00000000 3.65557196
Os 0.00000000 0.00000000 -3.4883182800000014 0 0 0
Os 0.00000000 2.32545500 -1.1626828400000022 0 0 0
Os 0.00000000 0.00000000 1.19829169
Os 0.00000000 2.23066945 3.27547449
Os 0.00000000 4.65091000 -3.4883182800000014 0 0 0
Os 0.00000000 6.97636500 -1.1626828400000022 0 0 0
Os 0.00000000 4.65091000 1.21555658
Os 0.00000000 7.07115055 3.27547449
Os 3.28869000 0.00000000 -3.4883182800000014 0 0 0
Os 3.28869000 2.32545500 -1.1626828400000022 0 0 0
Os 3.28869000 0.00000000 1.17266411
Os 3.28869000 2.47967918 3.35505487
Os 3.28869000 4.65091000 -3.4883182800000014 0 0 0
Os 3.28869000 6.97636500 -1.1626828400000022 0 0 0
Os 3.28869000 4.65091000 1.15890614
Os 3.28869000 6.82214082 3.35505487
C 0.00000000 0.00000000 3.37771504
