&CONTROL
calculation = 'relax'
prefix = 'scf'
pseudo_dir = '/vol0403/data/hp230205/u10028/POT_HYBRID_KKJUS_GBRV'
outdir = './data'
tprnfor = .true.
nstep = 50
disk_io = 'non'
/
&SYSTEM
ibrav = 0
ecutwfc = 50.0
ecutrho = 400
occupations = 'smearing'
smearing = 'mp'
degauss = 0.01
assume_isolated = 'esm'
esm_bc = 'bc1'
input_dft = 'BEEF-VDW'
nosym = .true.
nspin = 1
ntyp = 5
nat = 33
/
&ELECTRONS
electron_maxstep = 200
mixing_beta = 0.1
conv_thr = 1e-06
/
&IONS
ion_dynamics = 'bfgs'
upscale = 1.0
/
&CELL
/

K_POINTS {automatic}
9 6 2 0  0  0

ATOMIC_SPECIES
Ag 107.8 Ag.pbe-n-rrkjus_psl.1.0.0.UPF
C 12.01 C.pbe-n-rrkjus_psl.1.0.0.UPF
In 114.8 In.pbe-dn-rrkjus_psl.1.0.0.UPF
Li 6.941 Li.pbe-sl-rrkjus_psl.1.0.0.UPF
Sc 44.95 Sc.pbe-spn-rrkjus_psl.1.0.0.UPF


CELL_PARAMETERS {angstrom}
6.68683000 0.00000000 0.00000000
0.00000000 9.45660000 0.00000000
0.00000000 0.00000000 27.09240000

ATOMIC_POSITIONS {angstrom}
Li 0.00000000 2.36415000 -1.18204141 0 0 0
Li 0.00000000 7.09245000 -1.18204141 0 0 0
Li 3.34341500 4.72830000 -3.546124240000001 0 0 0
Li 3.34341500 0.00000000 -3.546124240000001 0 0 0
Li 0.62742526 7.09245000 4.89180374
Li 0.01250437 2.36415000 4.81377763
Li 3.30770733 9.42785194 1.22647295
Li 3.30777420 4.75704806 1.22647295
Sc 5.01512250 0.00000000 -1.18204141 0 0 0
Sc 5.01512250 4.72830000 -1.18204141 0 0 0
Sc 1.67170750 2.36415000 -3.546124240000001 0 0 0
Sc 1.67170750 7.09245000 -3.546124240000001 0 0 0
Sc 5.21686416 4.82437906 3.50386009
Sc 5.21673042 9.36042638 3.50358917
Sc 1.58691850 7.09245000 1.46244775
Sc 1.58210398 2.36415000 1.52394750
In 1.67170750 0.00000000 -1.18204141 0 0 0
In 1.67170750 4.72830000 -1.18204141 0 0 0
In 5.01512250 2.36415000 -3.546124240000001 0 0 0
In 5.01512250 7.09245000 -3.546124240000001 0 0 0
In 1.62516716 4.66626470 3.77911888
In 1.62516716 0.06231899 3.77911888
In 4.98536611 7.09245000 1.21807430
In 4.98556671 2.36415000 1.21726153
Ag 0.00000000 0.00000000 -3.546124240000001 0 0 0
Ag 0.00000000 4.72830000 -3.546124240000001 0 0 0
Ag 3.34341500 7.09245000 -1.18204141 0 0 0
Ag 3.34341500 2.36415000 -1.18204141 0 0 0
Ag 0.01765323 4.74778060 1.12135444
Ag 0.01772010 9.43711940 1.12135444
Ag 3.87769272 2.36415000 4.01726107
Ag 3.43087874 7.09245000 3.75094278
C 1.69765240 2.36405543 3.60572752
