&CONTROL
calculation = 'relax'
prefix = 'scf'
pseudo_dir = '/vol0004/mdt0/data/hp150275/u10028/POT_KKJUS'
outdir = './data'
tprnfor = .true.
nstep = 50
disk_io = 'non'
/
&SYSTEM
ibrav = 0
ecutwfc = 50.0
ecutrho = 400
occupations = 'smearing'
smearing = 'mp'
degauss = 0.01
assume_isolated = 'esm'
esm_bc = 'bc1'
input_dft = 'BEEF-VDW'
nosym = .true.
nspin = 1
ntyp = 4
nat = 33
/
&ELECTRONS
electron_maxstep = 200
mixing_beta = 0.1
conv_thr = 1e-06
/
&IONS
ion_dynamics = 'bfgs'
upscale = 1.0
/
&CELL
/

K_POINTS {automatic}
9 6 2 0  0  0

ATOMIC_SPECIES
C 12.01 C.pbe-n-rrkjus_psl.1.0.0.UPF
Pd 106.4 Pd.pbe-n-rrkjus_psl.1.0.0.UPF
Sn 118.7 Sn.pbe-dn-rrkjus_psl.1.0.0.UPF
Y 88.90 Y.pbe-spn-rrkjus_psl.1.0.0.UPF

CELL_PARAMETERS {angstrom}
6.84524000 0.00000000 0.00000000
0.00000000 9.68063000 0.00000000
0.00000000 0.00000000 27.26050000

ATOMIC_POSITIONS {angstrom}
Y 0.00000000 0.00000000 -3.6302807799999997 0 0 0
Y 3.42262000 2.42015750 -1.2100935899999996 0 0 0
Y 3.42262000 7.26047250 -1.2100935899999996 0 0 0
Y 0.00000000 4.84031500 -3.6302807799999997 0 0 0
Y 0.00000000 4.84031500 1.15584520
Y 3.42262000 7.36299037 3.67444280
Y 3.42262000 2.31763963 3.67444280
Y 0.00000000 0.00000000 1.33331106
Sn 0.00000000 7.26047250 -1.2100935899999996 0 0 0
Sn 3.42262000 0.00000000 -3.6302807799999997 0 0 0
Sn 0.00000000 2.42015750 -1.2100935899999996 0 0 0
Sn 3.42262000 4.84031500 -3.6302807799999997 0 0 0
Sn 0.00000000 2.47814447 3.63927675
Sn 3.42262000 4.84031500 1.24008015
Sn 0.00000000 7.20248553 3.63927675
Sn 3.42262000 0.00000000 1.24144317
Pd 1.71131000 0.00000000 -1.2100935899999996 0 0 0
Pd 5.13393000 4.84031500 -1.2100935899999996 0 0 0
Pd 5.13393000 0.00000000 -1.2100935899999996 0 0 0
Pd 1.71131000 4.84031500 -1.2100935899999996 0 0 0
Pd 5.13393000 7.26047250 -3.6302807799999997 0 0 0
Pd 1.71131000 2.42015750 -3.6302807799999997 0 0 0
Pd 1.71131000 7.26047250 -3.6302807799999997 0 0 0
Pd 5.13393000 2.42015750 -3.6302807799999997 0 0 0
Pd 1.63320581 4.84031500 3.43945729
Pd 5.48303724 0.00000000 3.87562528
Pd 5.21203419 4.84031500 3.43945729
Pd 1.36220276 0.00000000 3.87562528
Pd 5.08957284 2.45781515 1.22808553
Pd 1.75566716 7.22281485 1.22808553
Pd 1.75573561 2.45791196 1.22808553
Pd 5.08950439 7.22281485 1.22808553
C 3.42262000 0.00000000 3.55913088
