&CONTROL
calculation = 'relax'
prefix = 'scf'
pseudo_dir = '/vol0004/mdt0/data/hp150275/u10028/POT_KKJUS'
outdir = './data'
tprnfor = .true.
nstep = 50
disk_io = 'non'
/
&SYSTEM
ibrav = 0
ecutwfc = 50.0
ecutrho = 400
occupations = 'smearing'
smearing = 'mp'
degauss = 0.01
assume_isolated = 'esm'
esm_bc = 'bc1'
input_dft = 'BEEF-VDW'
nosym = .true.
nspin = 1
ntyp = 3
nat = 33
/
&ELECTRONS
electron_maxstep = 200
mixing_beta = 0.1
conv_thr = 1e-06
/
&IONS
ion_dynamics = 'bfgs'
upscale = 1.0
/
&CELL
/

K_POINTS {automatic}
7 7 2 0  0  0

ATOMIC_SPECIES
C 12.01 C.pbe-n-rrkjus_psl.1.0.0.UPF
Ir 192.2 Ir.pbe-n-rrkjus_psl.0.2.3.UPF
Ta 180.9 Ta.pbe-spn-rrkjus_psl.1.0.0.UPF

CELL_PARAMETERS {angstrom}
7.86698000 0.00000000 0.00000000
-0.00000000 7.86698000 0.00000000
0.00000000 0.00000000 25.90020000

ATOMIC_POSITIONS {angstrom}
Ta 0.00000000 0.00000000 -2.950032780000001 0 0 0
Ta 0.00000000 0.00000000 0.98343059
Ta 0.00000000 3.93349000 -2.950032780000001 0 0 0
Ta 0.00000000 3.93349000 0.98343059
Ta 3.93349000 0.00000000 -2.950032780000001 0 0 0
Ta 3.93349000 -0.00000000 0.98343059
Ta 3.93349000 3.93349000 -2.950032780000001 0 0 0
Ta 3.93349000 3.93349000 0.98343059
Ir 0.00000000 1.96674500 -0.9834305900000011 0 0 0
Ir 1.96674500 0.00000000 -0.9834305900000011 0 0 0
Ir 1.96674500 1.96674500 -2.950032780000001 0 0 0
Ir 0.00000000 1.96674500 2.95003278
Ir 1.96674500 -0.00000000 2.95003278
Ir 1.96674500 1.96674500 0.98343059
Ir 0.00000000 5.90023500 -0.9834305900000011 0 0 0
Ir 1.96674500 3.93349000 -0.9834305900000011 0 0 0
Ir 1.96674500 5.90023500 -2.950032780000001 0 0 0
Ir 0.00000000 5.90023500 2.95003278
Ir 1.96674500 3.93349000 2.95003278
Ir 1.96674500 5.90023500 0.98343059
Ir 3.93349000 1.96674500 -0.9834305900000011 0 0 0
Ir 5.90023500 0.00000000 -0.9834305900000011 0 0 0
Ir 5.90023500 1.96674500 -2.950032780000001 0 0 0
Ir 3.93349000 1.96674500 2.95003278
Ir 5.90023500 -0.00000000 2.95003278
Ir 5.90023500 1.96674500 0.98343059
Ir 3.93349000 5.90023500 -0.9834305900000011 0 0 0
Ir 5.90023500 3.93349000 -0.9834305900000011 0 0 0
Ir 5.90023500 5.90023500 -2.950032780000001 0 0 0
Ir 3.93349000 5.90023500 2.95003278
Ir 5.90023500 3.93349000 2.95003278
Ir 5.90023500 5.90023500 0.98343059
C 0.00000000 0.00000000 3.75008996
