&CONTROL
calculation = 'relax'
prefix = 'scf'
pseudo_dir = '/vol0004/mdt0/data/hp150275/u10028/POT_KKJUS'
outdir = './data'
tprnfor = .true.
nstep = 50
disk_io = 'non'
/
&SYSTEM
ibrav = 0
ecutwfc = 50.0
ecutrho = 400
occupations = 'smearing'
smearing = 'mp'
degauss = 0.01
assume_isolated = 'esm'
esm_bc = 'bc1'
input_dft = 'BEEF-VDW'
nosym = .true.
nspin = 1
ntyp = 2
nat = 16
/
&ELECTRONS
electron_maxstep = 200
mixing_beta = 0.1
conv_thr = 1e-06
/
&IONS
ion_dynamics = 'bfgs'
upscale = 1.0
/
&CELL
/

K_POINTS {automatic}
6 8 1 0 0 0

ATOMIC_SPECIES
Cu 63.54 Cu.pbe-dn-rrkjus_psl.1.0.0.UPF
Pt 195.0 Pt.pbe-n-rrkjus_psl.1.0.0.UPF

CELL_PARAMETERS {angstrom}
7.52549000 0.00000000 0.00000000
0.00000000 5.32133000 0.00000000
0.00000000 0.00000000 23.99100000

ATOMIC_POSITIONS {angstrom}
Cu 0.00000000 2.66066500 -1.9955713800000012 0 0 0
Cu 1.88137250 3.99099750 -0.6652704299999996 0 0 0
Cu 1.88137250 1.33033250 -0.6652704299999996 0 0 0
Cu 0.00000000 0.00000000 0.68278386
Cu 1.88137250 1.28792150 1.87129800
Cu 1.88137250 4.03340850 1.87129800
Cu 3.76274500 2.66066500 -1.9955713800000012 0 0 0
Cu 5.64411750 3.99099750 -0.6652704299999996 0 0 0
Cu 5.64411750 1.33033250 -0.6652704299999996 0 0 0
Cu 3.76274500 0.00000000 0.68278386
Cu 5.64411750 1.28792150 1.87129800
Cu 5.64411750 4.03340850 1.87129800
Pt 0.00000000 0.00000000 -1.9955713800000012 0 0 0
Pt 0.00000000 2.66066500 0.70413585
Pt 3.76274500 0.00000000 -1.9955713800000012 0 0 0
Pt 3.76274500 2.66066500 0.70413585
