&CONTROL
calculation = 'relax'
prefix = 'scf'
pseudo_dir = '/vol0004/mdt0/data/hp150275/u10028/POT_KKJUS'
outdir = './data'
tprnfor = .true.
nstep = 50
disk_io = 'non'
/
&SYSTEM
ibrav = 0
ecutwfc = 50.0
ecutrho = 400
occupations = 'smearing'
smearing = 'mp'
degauss = 0.01
assume_isolated = 'esm'
esm_bc = 'bc1'
input_dft = 'BEEF-VDW'
nosym = .true.
nspin = 1
ntyp = 5
nat = 34
/
&ELECTRONS
electron_maxstep = 200
mixing_beta = 0.1
conv_thr = 1e-06
/
&IONS
ion_dynamics = 'bfgs'
upscale = 1.0
/
&CELL
/

K_POINTS {automatic}
8 6 1 0 0 0

ATOMIC_SPECIES
C 12.01 C.pbe-n-rrkjus_psl.1.0.0.UPF
In 114.8 In.pbe-dn-rrkjus_psl.1.0.0.UPF
Ni 58.69 Ni.pbe-spn-rrkjus_psl.1.0.0.UPF
O 15.99 O.pbe-n-rrkjus_psl.1.0.0.UPF
Zr 91.22 Zr.pbe-spn-rrkjus_psl.1.0.0.UPF

CELL_PARAMETERS {angstrom}
6.34847000 0.00000000 0.00000000
0.00000000 8.97809000 0.00000000
0.00000000 0.00000000 26.73360000

ATOMIC_POSITIONS {angstrom}
Zr 0.00000000 0.00000000 -3.3668295799999974 0 0 0
Zr 3.17423500 2.24452250 -1.1222765300000006 0 0 0
Zr 3.17423500 6.73356750 -1.1222765300000006 0 0 0
Zr 0.00000000 4.48904500 -3.3668295799999974 0 0 0
Zr 0.00000000 4.49272602 1.15382218
Zr 3.17423500 6.73347772 3.37992905
Zr 3.17423500 2.24452250 3.36415622
Zr 0.00000000 8.97449876 1.15382218
In 0.00000000 6.73356750 -1.1222765300000006 0 0 0
In 3.17423500 0.00000000 -3.3668295799999974 0 0 0
In 0.00000000 2.24452250 -1.1222765300000006 0 0 0
In 3.17423500 4.48904500 -3.3668295799999974 0 0 0
In 0.00000000 2.24434294 3.52616184
In 3.17423500 4.49155887 1.08805752
In 0.00000000 6.73356750 3.55155876
In 3.17423500 8.97575570 1.08805752
Ni 1.58711750 0.00000000 -1.1222765300000006 0 0 0
Ni 4.76135250 4.48904500 -1.1222765300000006 0 0 0
Ni 4.76135250 0.00000000 -1.1222765300000006 0 0 0
Ni 1.58711750 4.48904500 -1.1222765300000006 0 0 0
Ni 4.76135250 6.73356750 -3.3668295799999974 0 0 0
Ni 1.58711750 2.24452250 -3.3668295799999974 0 0 0
Ni 1.58711750 6.73356750 -3.3668295799999974 0 0 0
Ni 4.76135250 2.24452250 -3.3668295799999974 0 0 0
Ni 1.59041870 4.49236689 3.23797363
Ni 4.75773387 8.97449876 3.23797363
Ni 4.75805130 4.49245667 3.23797363
Ni 1.59079961 8.97449876 3.23797363
Ni 4.72929273 2.24470206 1.20541802
Ni 1.61987561 6.73365728 1.21985417
Ni 1.61917727 2.24470206 1.20541802
Ni 4.72859439 6.73365728 1.21985417
C 0.00012697 2.24649768 7.51000291
O 0.00000000 2.24380425 8.64511157
