&CONTROL
calculation = 'relax'
prefix = 'scf'
pseudo_dir = '/vol0004/mdt0/data/hp150275/u10028/POT_HYBRID_KKJUS_GBRV'
outdir = './data'
tprnfor = .true.
nstep = 50
disk_io = 'non'
/
&SYSTEM
ibrav = 0
ecutwfc = 50.0
ecutrho = 400
occupations = 'smearing'
smearing = 'mp'
degauss = 0.01
assume_isolated = 'esm'
esm_bc = 'bc1'
input_dft = 'BEEF-VDW'
nosym = .true.
nspin = 2
ntyp = 5
nat = 34
starting_magnetization(1) = 0.0
starting_magnetization(2) = 0.1
starting_magnetization(3) = 0.1
starting_magnetization(4) = 0.0
starting_magnetization(5) = 0.0
/
&ELECTRONS
electron_maxstep = 200
mixing_beta = 0.1
conv_thr = 1e-06
/
&IONS
ion_dynamics = 'bfgs'
upscale = 1.0
/
&CELL
/

K_POINTS {automatic}
9 6 2 0  0  0

ATOMIC_SPECIES
C 12.01 C.pbe-n-rrkjus_psl.1.0.0.UPF
Co 58.93 co_pbe_v1.2.uspp.F.UPF
Fe 55.84 fe_pbe_v1.5.uspp.F.UPF
Ge 72.64 Ge.pbe-dn-rrkjus_psl.1.0.0.UPF
O 15.99 O.pbe-n-rrkjus_psl.1.0.0.UPF

CELL_PARAMETERS {angstrom}
5.76795000 0.00000000 0.00000000
0.00000000 8.15711000 0.00000000
0.00000000 0.00000000 26.11780000

ATOMIC_POSITIONS {angstrom}
Fe 0.00000000 0.00000000 23.05888326
Fe 2.88397500 2.03927750 25.09816109
Fe 2.88397500 6.11783250 25.09816109
Fe 0.00000000 4.07855500 23.05888326
Fe 5.76154758 4.07855500 0.99325993
Fe 2.86961280 6.04629465 3.08268393
Fe 2.86955512 2.11089693 3.08268393
Fe 5.75710625 0.00008157 1.03948844
Co 1.44198750 0.00000000 25.09816109
Co 4.32596250 4.07855500 25.09816109
Co 4.32596250 0.00000000 25.09816109
Co 1.44198750 4.07855500 25.09816109
Co 4.32596250 6.11783250 23.05888326
Co 1.44198750 2.03927750 23.05888326
Co 1.44198750 6.11783250 23.05888326
Co 4.32596250 2.03927750 23.05888326
Co 1.35944814 4.07847343 2.93302894
Co 4.20097102 0.00008157 2.96724326
Co 4.38514167 4.07847343 2.93041716
Co 1.53502453 0.00008157 2.95549025
Co 4.32428979 2.02997839 1.02669072
Co 1.42964409 6.12745789 1.02616836
Co 1.42947105 2.02965211 1.02616836
Co 4.32405908 6.12713161 1.02669072
Ge 0.00000000 6.11783250 25.09816109
Ge 2.88397500 0.00000000 23.05888326
Ge 0.00000000 2.03927750 25.09816109
Ge 2.88397500 4.07855500 23.05888326
Ge 5.75445300 1.98291187 3.17174563
Ge 2.87595755 4.07847343 1.02799661
Ge 5.75445300 6.17411656 3.17148445
Ge 2.87774561 0.00008157 0.96661978
C 2.85934585 0.00008157 4.37734328
O 2.84036930 0.00000000 5.56727025
