&CONTROL
calculation = 'relax'
prefix = 'scf'
pseudo_dir = '/vol0403/data/hp230205/u10028/POT_HYBRID_KKJUS_GBRV'
outdir = './data'
tprnfor = .true.
nstep = 50
disk_io = 'non'
/
&SYSTEM
ibrav = 0
ecutwfc = 50.0
ecutrho = 400
occupations = 'smearing'
smearing = 'mp'
degauss = 0.01
assume_isolated = 'esm'
esm_bc = 'bc1'
input_dft = 'BEEF-VDW'
nosym = .true.
nspin = 1
ntyp = 6
nat = 34
/
&ELECTRONS
electron_maxstep = 200
mixing_beta = 0.1
conv_thr = 1e-06
/
&IONS
ion_dynamics = 'bfgs'
upscale = 1.0
/
&CELL
/

K_POINTS {automatic}
6 6 1 0 0 0

ATOMIC_SPECIES
Al 26.98 Al.pbe-nl-rrkjus_psl.1.0.0.UPF
C 12.01 C.pbe-n-rrkjus_psl.1.0.0.UPF
In 114.8 In.pbe-dn-rrkjus_psl.1.0.0.UPF
Li 6.941 Li.pbe-sl-rrkjus_psl.1.0.0.UPF
O 15.99 O.pbe-n-rrkjus_psl.1.0.0.UPF
Sc 44.95 Sc.pbe-spn-rrkjus_psl.1.0.0.UPF


CELL_PARAMETERS {angstrom}
8.49254000 0.00000000 0.00000000
0.00000000 8.71362000 0.00000000
0.00000000 0.00000000 26.28040000

ATOMIC_POSITIONS {angstrom}
Li 2.12313500 2.17840500 3.49503040
Li 2.12313500 2.17840500 -1.0467483299999998 0 0 0
Li 2.12313500 6.53521500 3.40935629
Li 2.12313500 6.53521500 -1.0467483299999998 0 0 0
Li 6.36940500 2.17831786 3.43589950
Li 6.36940500 2.17840500 -1.0467483299999998 0 0 0
Li 6.36940500 6.53521500 3.40988190
Li 6.36940500 6.53521500 -1.0467483299999998 0 0 0
Sc 2.12321993 8.70412215 1.08380370
Sc 2.12313500 0.00000000 -3.140245 0 0 0
Sc 2.12313500 4.36613357 1.08327809
Sc 2.12313500 4.35681000 -3.140245 0 0 0
Sc 6.36940500 0.00165559 1.09195062
Sc 6.36940500 0.00000000 -3.140245 0 0 0
Sc 6.36940500 4.35515441 1.09221342
Sc 6.36940500 4.35681000 -3.140245 0 0 0
Al 0.00365179 0.01167625 3.09635673
Al 0.00000000 0.00000000 -1.0467483299999998 0 0 0
Al 0.00365179 4.34513375 3.09635673
Al 0.00000000 4.35681000 -1.0467483299999998 0 0 0
Al 4.24270313 0.01167625 3.09635673
Al 4.24627000 0.00000000 -1.0467483299999998 0 0 0
Al 4.24261821 4.34513375 3.09635673
Al 4.24627000 4.35681000 -1.0467483299999998 0 0 0
In 0.00738851 2.17840500 1.11113531
In 0.00000000 2.17840500 -3.140245 0 0 0
In 8.48362283 6.53521500 1.11612859
In 0.00000000 6.53521500 -3.140245 0 0 0
In 4.23888149 2.17840500 1.11113531
In 4.24627000 2.17840500 -3.140245 0 0 0
In 4.25527209 6.53530214 1.11612859
In 4.24627000 6.53521500 -3.140245 0 0 0
C 2.12305007 2.17831786 5.58248257
O 2.12296515 2.17840500 6.72515436
