&CONTROL
calculation = 'relax'
prefix = 'scf'
pseudo_dir = '/vol0004/mdt0/data/hp150275/u10028/POT_HYBRID_KKJUS_GBRV'
outdir = './data'
tprnfor = .true.
nstep = 50
disk_io = 'non'
/
&SYSTEM
ibrav = 0
ecutwfc = 50.0
ecutrho = 400
occupations = 'smearing'
smearing = 'mp'
degauss = 0.01
assume_isolated = 'esm'
esm_bc = 'bc1'
input_dft = 'BEEF-VDW'
nosym = .true.
nspin = 2
ntyp = 5
nat = 18
starting_magnetization(1) = 0.1
starting_magnetization(2) = 0.1
starting_magnetization(3) = 0.1
starting_magnetization(4) = 0.1
starting_magnetization(5) = 0.1
/
&ELECTRONS
electron_maxstep = 200
mixing_beta = 0.1
conv_thr = 1e-06
/
&IONS
ion_dynamics = 'bfgs'
upscale = 1.0
/
&CELL
/

K_POINTS {automatic}
10 10 2 0  0  0

ATOMIC_SPECIES
C 12.01 C.pbe-n-rrkjus_psl.1.0.0.UPF
Co 58.93 co_pbe_v1.2.uspp.F.UPF
Fe 55.84 fe_pbe_v1.5.uspp.F.UPF
Ge 72.64 Ge.pbe-dn-rrkjus_psl.1.0.0.UPF
O 15.99 O.pbe-n-rrkjus_psl.1.0.0.UPF

CELL_PARAMETERS {angstrom}
5.76795000 0.00000000 0.00000000
0.00000000 5.76795000 0.00000000
0.00000000 0.00000000 24.32600000

ATOMIC_POSITIONS {angstrom}
Fe 0.00011536 0.00011536 2.10176640
Fe 2.88397500 2.88385964 2.10200966
Fe 2.88397500 0.00000000 -0.721022640000001 0 0 0
Fe 0.00000000 2.88397500 -0.721022640000001 0 0 0
Co 1.44752473 1.43616187 0.79375738
Co 4.32596250 4.32596250 -2.1630679199999996 0 0 0
Co 4.32025223 1.43604651 0.79302760
Co 1.44198750 4.32596250 -2.1630679199999996 0 0 0
Co 4.32030991 4.33190349 0.79302760
Co 1.44198750 1.44198750 -2.1630679199999996 0 0 0
Co 1.44752473 4.33178813 0.79375738
Co 4.32596250 1.44198750 -2.1630679199999996 0 0 0
Ge 0.00000000 0.00000000 -0.721022640000001 0 0 0
Ge 2.88414804 0.00005768 2.31169978
Ge 5.76777696 2.88403268 2.14214756
Ge 2.88397500 2.88397500 -0.721022640000001 0 0 0
C 0.00046144 2.88420572 4.15415102
O 5.76789232 2.88391732 5.31085232
