&CONTROL
calculation = 'relax'
prefix = 'scf'
pseudo_dir = '/vol0004/mdt0/data/hp150275/u10028/POT_KKJUS'
outdir = './data'
tprnfor = .true.
nstep = 50
disk_io = 'non'
/
&SYSTEM
ibrav = 0
ecutwfc = 50.0
ecutrho = 400
occupations = 'smearing'
smearing = 'mp'
degauss = 0.01
assume_isolated = 'esm'
esm_bc = 'bc1'
input_dft = 'BEEF-VDW'
nosym = .true.
nspin = 1
ntyp = 3
nat = 32
/
&ELECTRONS
electron_maxstep = 200
mixing_beta = 0.1
conv_thr = 1e-06
/
&IONS
ion_dynamics = 'bfgs'
upscale = 1.0
/
&CELL
/

K_POINTS {automatic}
9 6 2 0  0  0

ATOMIC_SPECIES
Ag 107.8 Ag.pbe-n-rrkjus_psl.1.0.0.UPF
Bi 208.9 Bi.pbe-dn-rrkjus_psl.1.0.0.UPF
Li 6.941 Li.pbe-sl-rrkjus_psl.1.0.0.UPF

CELL_PARAMETERS {angstrom}
6.92564000 0.00000000 0.00000000
0.00000000 9.79433000 0.00000000
0.00000000 0.00000000 27.34580000

ATOMIC_POSITIONS {angstrom}
Li 0.00000000 7.34574750 -1.2242714700000015 0 0 0
Li 3.46282000 0.00000000 -3.6728144 0 0 0
Li 0.00000000 2.44858250 -1.2242714700000015 0 0 0
Li 3.46282000 4.89716500 -3.6728144 0 0 0
Li 1.73141000 0.00000000 -1.2242714700000015 0 0 0
Li 1.73141000 4.89716500 -1.2242714700000015 0 0 0
Li 5.19423000 7.34574750 -3.6728144 0 0 0
Li 5.19423000 2.44858250 -3.6728144 0 0 0
Li 6.70755160 2.44868044 3.42615528
Li 3.39058557 4.89706706 1.06265779
Li 6.70748234 7.34584544 3.42615528
Li 3.39058557 9.79423206 1.06293125
Li 2.01362983 4.89726294 3.54483605
Li 2.01356057 0.00009794 3.54483605
Li 5.02164305 2.44848456 1.29318288
Li 5.02164305 7.34564956 1.29318288
Ag 1.73141000 2.44858250 -3.6728144 0 0 0
Ag 1.73141000 7.34574750 -3.6728144 0 0 0
Ag 5.19423000 4.89716500 -1.2242714700000015 0 0 0
Ag 5.19423000 0.00000000 -1.2242714700000015 0 0 0
Ag 1.91244623 7.34564956 1.46135955
Ag 1.91244623 2.44848456 1.46135955
Ag 4.96180552 0.00009794 3.31649862
Ag 4.96159775 4.89726294 3.31622517
Bi 0.00000000 0.00000000 -3.6728144 0 0 0
Bi 3.46282000 2.44858250 -1.2242714700000015 0 0 0
Bi 3.46282000 7.34574750 -1.2242714700000015 0 0 0
Bi 0.00000000 4.89716500 -3.6728144 0 0 0
Bi 0.09037960 4.89716500 1.25763334
Bi 3.51656297 7.34574750 3.98893185
Bi 3.51656297 2.44868044 3.98865839
Bi 0.09017183 9.79423206 1.25790680
