&CONTROL
calculation = 'relax'
prefix = 'scf'
pseudo_dir = '/vol0004/mdt0/data/hp150275/u10028/POT_KKJUS'
outdir = './data'
tprnfor = .true.
nstep = 50
disk_io = 'non'
/
&SYSTEM
ibrav = 0
ecutwfc = 50.0
ecutrho = 400
occupations = 'smearing'
smearing = 'mp'
degauss = 0.01
assume_isolated = 'esm'
esm_bc = 'bc1'
input_dft = 'BEEF-VDW'
nosym = .true.
nspin = 1
ntyp = 5
nat = 18
/
&ELECTRONS
electron_maxstep = 200
mixing_beta = 0.1
conv_thr = 1e-06
/
&IONS
ion_dynamics = 'bfgs'
upscale = 1.0
/
&CELL
/

K_POINTS {automatic}
10 10 2 0  0  0

ATOMIC_SPECIES
C 12.01 C.pbe-n-rrkjus_psl.1.0.0.UPF
Ga 69.72 Ga.pbe-dnl-rrkjus_psl.1.0.0.UPF
Li 6.941 Li.pbe-sl-rrkjus_psl.1.0.0.UPF
O 15.99 O.pbe-n-rrkjus_psl.1.0.0.UPF
Rh 102.9 Rh.pbe-spn-rrkjus_psl.1.0.0.UPF

CELL_PARAMETERS {angstrom}
6.03399000 0.00000000 0.00000000
0.00000000 6.03399000 0.00000000
0.00000000 0.00000000 24.52550000

ATOMIC_POSITIONS {angstrom}
Li 0.00886997 0.00880963 0.63594622
Li 3.01699500 0.00000000 -2.2627226300000025 0 0 0
Li 0.00000000 3.01699500 -2.2627226300000025 0 0 0
Li 3.00915081 3.00915081 0.64403963
Li 1.51127314 1.51127314 2.67450578
Li 1.50849750 4.52549250 -0.7541591300000015 0 0 0
Li 4.52084633 4.52084633 2.56732934
Li 4.52549250 1.50849750 -0.7541591300000015 0 0 0
Ga 1.50849750 1.50849750 -0.7541591300000015 0 0 0
Ga 1.51036804 4.52356162 2.18129797
Ga 4.52549250 4.52549250 -0.7541591300000015 0 0 0
Ga 4.52350128 1.51030770 2.18129797
Rh 0.00000000 0.00000000 -2.2627226300000025 0 0 0
Rh 3.01699500 3.01699500 -2.2627226300000025 0 0 0
Rh 3.02333069 6.02717159 0.88218224
Rh 6.02723193 3.02333069 0.88218224
C 1.50632526 1.50632526 4.79571627
O 1.50330827 1.50330827 5.93737830
