&CONTROL
calculation = 'relax'
prefix = 'scf'
pseudo_dir = '/vol0004/mdt0/data/hp150275/u10028/POT_KKJUS'
outdir = './data'
tprnfor = .true.
nstep = 50
disk_io = 'non'
/
&SYSTEM
ibrav = 0
ecutwfc = 50.0
ecutrho = 400
occupations = 'smearing'
smearing = 'mp'
degauss = 0.01
assume_isolated = 'esm'
esm_bc = 'bc1'
input_dft = 'BEEF-VDW'
nosym = .true.
nspin = 1
ntyp = 5
nat = 34
/
&ELECTRONS
electron_maxstep = 200
mixing_beta = 0.1
conv_thr = 1e-06
/
&IONS
ion_dynamics = 'bfgs'
upscale = 1.0
/
&CELL
/

K_POINTS {automatic}
9 6 2 0  0  0

ATOMIC_SPECIES
Al 26.98 Al.pbe-nl-rrkjus_psl.1.0.0.UPF
C 12.01 C.pbe-n-rrkjus_psl.1.0.0.UPF
Cu 63.54 Cu.pbe-dn-rrkjus_psl.1.0.0.UPF
Hf 178.4 Hf.pbe-spn-rrkjus_psl.1.0.0.UPF
O 15.99 O.pbe-n-rrkjus_psl.1.0.0.UPF

CELL_PARAMETERS {angstrom}
6.21964000 0.00000000 0.00000000
0.00000000 8.79589000 0.00000000
0.00000000 0.00000000 26.59690000

ATOMIC_POSITIONS {angstrom}
Hf 0.00000000 0.00000000 -3.2985475400000013 0 0 0
Hf 3.10982000 2.19897250 -1.099515850000003 0 0 0
Hf 3.10982000 6.59691750 -1.099515850000003 0 0 0
Hf 0.00000000 4.39794500 -3.2985475400000013 0 0 0
Hf 6.19774687 4.44421138 1.12824050
Hf 2.99792868 6.86871050 3.60520980
Hf 2.99643596 1.99789845 3.43286188
Hf 0.06953558 8.78058515 1.14712430
Al 0.00000000 6.59691750 -1.099515850000003 0 0 0
Al 3.10982000 0.00000000 -3.2985475400000013 0 0 0
Al 0.00000000 2.19897250 -1.099515850000003 0 0 0
Al 3.10982000 4.39794500 -3.2985475400000013 0 0 0
Al 6.16577792 2.37972804 3.25705637
Al 3.10185886 4.38695014 1.06946135
Al 6.19264676 6.56551617 3.22274637
Al 3.11535548 0.01644831 1.09579228
Cu 1.55491000 0.00000000 -1.099515850000003 0 0 0
Cu 4.66473000 4.39794500 -1.099515850000003 0 0 0
Cu 4.66473000 0.00000000 -1.099515850000003 0 0 0
Cu 1.55491000 4.39794500 -1.099515850000003 0 0 0
Cu 4.66473000 6.59691750 -3.2985475400000013 0 0 0
Cu 1.55491000 2.19897250 -3.2985475400000013 0 0 0
Cu 1.55491000 6.59691750 -3.2985475400000013 0 0 0
Cu 4.66473000 2.19897250 -3.2985475400000013 0 0 0
Cu 1.67930280 4.46725661 3.30253707
Cu 4.82880410 0.11074026 3.32088893
Cu 4.42508727 4.47306190 3.27806793
Cu 1.05646805 0.13554466 3.69856491
Cu 4.61366676 2.19563006 1.14020910
Cu 1.67575761 6.58231632 1.18010445
Cu 1.57860683 2.22720731 1.10111166
Cu 4.51259761 6.61195847 1.24845849
C 3.00962160 0.21022177 4.56190029
O 3.09495506 7.90750511 5.33719992
