&CONTROL
calculation = 'relax'
prefix = 'scf'
pseudo_dir = '/vol0403/data/hp230205/u10028/POT_HYBRID_KKJUS_GBRV'
outdir = './data'
tprnfor = .true.
nstep = 50
disk_io = 'non'
/
&SYSTEM
ibrav = 0
ecutwfc = 50.0
ecutrho = 400
occupations = 'smearing'
smearing = 'mp'
degauss = 0.01
assume_isolated = 'esm'
esm_bc = 'bc1'
input_dft = 'BEEF-VDW'
nosym = .true.
nspin = 1
ntyp = 6
nat = 34
/
&ELECTRONS
electron_maxstep = 200
mixing_beta = 0.1
conv_thr = 1e-06
/
&IONS
ion_dynamics = 'bfgs'
upscale = 1.0
/
&CELL
/

K_POINTS {automatic}
6 6 1 0 0 0

ATOMIC_SPECIES
C 12.01 C.pbe-n-rrkjus_psl.1.0.0.UPF
Ga 69.72 Ga.pbe-dnl-rrkjus_psl.1.0.0.UPF
Ge 72.64 Ge.pbe-dn-rrkjus_psl.1.0.0.UPF
Li 6.941 Li.pbe-sl-rrkjus_psl.1.0.0.UPF
O 15.99 O.pbe-n-rrkjus_psl.1.0.0.UPF
Pd 106.4 Pd.pbe-n-rrkjus_psl.1.0.0.UPF


CELL_PARAMETERS {angstrom}
6.27488000 0.00000000 0.00000000
0.00000000 8.87402000 0.00000000
0.00000000 0.00000000 26.65550000

ATOMIC_POSITIONS {angstrom}
Li 4.70616000 0.00000000 -1.109135349999999 0 0 0
Li 4.70616000 4.43701000 -1.109135349999999 0 0 0
Li 1.56872000 2.21850500 -3.3276726200000013 0 0 0
Li 1.56872000 6.65551500 -3.3276726200000013 0 0 0
Li 4.72567488 4.43701000 3.84532243
Li 4.72636511 0.00000000 4.02844571
Li 1.62594691 6.65471634 1.11553267
Li 1.62582141 2.21930366 1.11553267
Ga 0.00000000 0.00000000 -3.3276726200000013 0 0 0
Ga 0.00000000 4.43701000 -3.3276726200000013 0 0 0
Ga 3.13744000 6.65551500 -1.109135349999999 0 0 0
Ga 3.13744000 2.21850500 -1.109135349999999 0 0 0
Ga 6.18176078 4.43701000 1.17684033
Ga 6.19456154 0.00000000 1.17657377
Ga 2.97943852 2.21593153 3.62061657
Ga 2.97937577 6.65808847 3.62088312
Ge 0.00000000 2.21850500 -1.109135349999999 0 0 0
Ge 0.00000000 6.65551500 -1.109135349999999 0 0 0
Ge 3.13744000 4.43701000 -3.3276726200000013 0 0 0
Ge 3.13744000 0.00000000 -3.3276726200000013 0 0 0
Ge 6.24538806 6.66101689 3.30981344
Ge 6.24545081 2.21291437 3.30981344
Ge 3.24844263 0.00000000 1.25147572
Ge 3.24750140 4.43701000 1.24587807
Pd 1.56872000 0.00000000 -1.109135349999999 0 0 0
Pd 1.56872000 4.43701000 -1.109135349999999 0 0 0
Pd 4.70616000 2.21850500 -3.3276726200000013 0 0 0
Pd 4.70616000 6.65551500 -3.3276726200000013 0 0 0
Pd 1.53615337 4.43701000 3.15174632
Pd 1.54230276 0.00000000 3.16160885
Pd 4.69944588 6.65551500 0.98385450
Pd 4.69950863 2.21850500 0.98385450
C 4.73006729 0.00000000 6.15022351
O 4.74337004 0.00000000 7.28814681
