&CONTROL
calculation = 'relax'
prefix = 'scf'
pseudo_dir = '/vol0403/data/hp230205/u10028/POT_HYBRID_KKJUS_GBRV'
outdir = './data'
tprnfor = .true.
nstep = 50
disk_io = 'non'
/
&SYSTEM
ibrav = 0
ecutwfc = 50.0
ecutrho = 400
occupations = 'smearing'
smearing = 'mp'
degauss = 0.01
assume_isolated = 'esm'
esm_bc = 'bc1'
input_dft = 'BEEF-VDW'
nosym = .true.
nspin = 1
ntyp = 6
nat = 34
/
&ELECTRONS
electron_maxstep = 200
mixing_beta = 0.1
conv_thr = 1e-06
/
&IONS
ion_dynamics = 'bfgs'
upscale = 1.0
/
&CELL
/

K_POINTS {automatic}
9 6 2 0  0  0

ATOMIC_SPECIES
C 12.01 C.pbe-n-rrkjus_psl.1.0.0.UPF
Ga 69.72 Ga.pbe-dnl-rrkjus_psl.1.0.0.UPF
Ge 72.64 Ge.pbe-dn-rrkjus_psl.1.0.0.UPF
Li 6.941 Li.pbe-sl-rrkjus_psl.1.0.0.UPF
O 15.99 O.pbe-n-rrkjus_psl.1.0.0.UPF
Pd 106.4 Pd.pbe-n-rrkjus_psl.1.0.0.UPF


CELL_PARAMETERS {angstrom}
6.27488000 0.00000000 0.00000000
0.00000000 8.87402000 0.00000000
0.00000000 0.00000000 26.65550000

ATOMIC_POSITIONS {angstrom}
Li 4.70616000 0.00000000 -1.109135349999999 0 0 0
Li 4.70616000 4.43701000 -1.109135349999999 0 0 0
Li 1.56872000 2.21850500 -3.3276726200000013 0 0 0
Li 1.56872000 6.65551500 -3.3276726200000013 0 0 0
Li 4.72517289 4.43701000 3.84478932
Li 4.72636511 0.00000000 4.03004504
Li 1.62569591 6.65498256 1.11553267
Li 1.62563316 2.21903744 1.11553267
Ga 0.00000000 0.00000000 -3.3276726200000013 0 0 0
Ga 0.00000000 4.43701000 -3.3276726200000013 0 0 0
Ga 3.13744000 6.65551500 -1.109135349999999 0 0 0
Ga 3.13744000 2.21850500 -1.109135349999999 0 0 0
Ga 6.18339225 4.43701000 1.17604066
Ga 6.19387130 0.00000000 1.17737344
Ga 2.97950127 2.21575405 3.62035001
Ga 2.97943852 6.65826595 3.62061657
Ge 0.00000000 2.21850500 -1.109135349999999 0 0 0
Ge 0.00000000 6.65551500 -1.109135349999999 0 0 0
Ge 3.13744000 4.43701000 -3.3276726200000013 0 0 0
Ge 3.13744000 0.00000000 -3.3276726200000013 0 0 0
Ge 6.24576456 6.66137185 3.30874721
Ge 6.24582731 2.21255941 3.30874721
Ge 3.24725040 0.00000000 1.25307506
Ge 3.24580718 4.43701000 1.24614462
Pd 1.56872000 0.00000000 -1.109135349999999 0 0 0
Pd 1.56872000 4.43701000 -1.109135349999999 0 0 0
Pd 4.70616000 2.21850500 -3.3276726200000013 0 0 0
Pd 4.70616000 6.65551500 -3.3276726200000013 0 0 0
Pd 1.53577688 4.43701000 3.14961388
Pd 1.54180076 0.00000000 3.16027608
Pd 4.69950863 6.65498256 0.98305484
Pd 4.69957138 2.21903744 0.98305484
C 4.72975355 0.00000000 6.15155629
O 4.74311904 0.00000000 7.28947958
