&CONTROL
calculation = 'relax'
prefix = 'scf'
pseudo_dir = '/vol0004/mdt0/data/hp150275/u10028/POT_KKJUS'
outdir = './data'
tprnfor = .true.
nstep = 50
disk_io = 'non'
/
&SYSTEM
ibrav = 0
ecutwfc = 50.0
ecutrho = 400
occupations = 'smearing'
smearing = 'mp'
degauss = 0.01
assume_isolated = 'esm'
esm_bc = 'bc1'
input_dft = 'BEEF-VDW'
nosym = .true.
nspin = 1
ntyp = 3
nat = 17
/
&ELECTRONS
electron_maxstep = 200
mixing_beta = 0.1
conv_thr = 1e-06
/
&IONS
ion_dynamics = 'bfgs'
upscale = 1.0
/
&CELL
/

K_POINTS {automatic}
8 12 2 0  0  0

ATOMIC_SPECIES
C 12.01 C.pbe-n-rrkjus_psl.1.0.0.UPF
Ga 69.72 Ga.pbe-dnl-rrkjus_psl.1.0.0.UPF
Ni 58.69 Ni.pbe-spn-rrkjus_psl.1.0.0.UPF

CELL_PARAMETERS {angstrom}
7.23991000 0.00000000 0.00000000
0.00000000 5.11939000 0.00000000
0.00000000 0.00000000 23.83950000

ATOMIC_POSITIONS {angstrom}
Ga 7.08251436 5.11831493 1.86758643
Ga 0.00000000 2.55969500 -0.6398521800000019 0 0 0
Ga 3.77742304 5.11826373 1.86782483
Ga 3.61995500 2.55969500 -0.6398521800000019 0 0 0
Ni 0.00166518 2.56092365 1.94649518
Ni 1.81004990 3.87158988 0.71399303
Ni 1.80990510 1.24273192 0.71494661
Ni 0.00000000 0.00000000 -0.6398521800000019 0 0 0
Ni 1.80997750 1.27984750 -1.919794930000002 0 0 0
Ni 1.80997750 3.83954250 -1.919794930000002 0 0 0
Ni 3.61828982 2.56087246 1.94649518
Ni 5.42993250 3.82326284 0.62697885
Ni 5.42993250 1.29786775 0.63031638
Ni 3.61995500 0.00000000 -0.6398521800000019 0 0 0
Ni 5.42993250 1.27984750 -1.919794930000002 0 0 0
Ni 5.42993250 3.83954250 -1.919794930000002 0 0 0
C 1.80997750 2.55836396 2.02254318
