&CONTROL
calculation = 'relax'
prefix = 'scf'
pseudo_dir = '/vol0004/mdt0/data/hp150275/u10028/POT_HYBRID_KKJUS_GBRV'
outdir = './data'
tprnfor = .true.
nstep = 50
disk_io = 'non'
/
&SYSTEM
ibrav = 0
ecutwfc = 50.0
ecutrho = 400
occupations = 'smearing'
smearing = 'mp'
degauss = 0.01
assume_isolated = 'esm'
esm_bc = 'bc1'
input_dft = 'BEEF-VDW'
nosym = .true.
nspin = 2
ntyp = 5
nat = 34
starting_magnetization(1) = 0.0
starting_magnetization(2) = 0.0
starting_magnetization(3) = 0.001
starting_magnetization(4) = 0.0
starting_magnetization(5) = 0.0
/
&ELECTRONS
electron_maxstep = 300
mixing_beta = 0.1
conv_thr = 1e-06
/
&IONS
ion_dynamics = 'bfgs'
upscale = 1.0
/
&CELL
/

K_POINTS {automatic}
8 6 1 0 0 0

ATOMIC_SPECIES
C 12.01 C.pbe-n-rrkjus_psl.1.0.0.UPF
Hf 178.4 Hf.pbe-spn-rrkjus_psl.1.0.0.UPF
Ni 58.69 ni_pbe_v1.4.uspp.F.UPF
O 15.99 O.pbe-n-rrkjus_psl.1.0.0.UPF
Sn 118.7 Sn.pbe-dn-rrkjus_psl.1.0.0.UPF

CELL_PARAMETERS {angstrom}
6.29417000 0.00000000 0.00000000
0.00000000 8.90130000 0.00000000
0.00000000 0.00000000 26.67600000

ATOMIC_POSITIONS {angstrom}
Hf 0.00000000 0.00000000 -3.3379678799999972 0 0 0
Hf 3.14708500 2.22532500 -1.112655959999998 0 0 0
Hf 3.14708500 6.67597500 -1.112655959999998 0 0 0
Hf 0.00000000 4.45065000 -3.3379678799999972 0 0 0
Hf 0.00000000 4.43347049 1.13879844
Hf 3.14702206 6.67597500 3.32116200
Hf 3.14702206 2.22541401 3.33103212
Hf 6.29410706 0.01709050 1.13879844
Ni 1.57354250 0.00000000 -1.112655959999998 0 0 0
Ni 4.72062750 4.45065000 -1.112655959999998 0 0 0
Ni 4.72062750 0.00000000 -1.112655959999998 0 0 0
Ni 1.57354250 4.45065000 -1.112655959999998 0 0 0
Ni 4.72062750 6.67597500 -3.3379678799999972 0 0 0
Ni 1.57354250 2.22532500 -3.3379678799999972 0 0 0
Ni 1.57354250 6.67597500 -3.3379678799999972 0 0 0
Ni 4.72062750 2.22532500 -3.3379678799999972 0 0 0
Ni 1.65070902 4.45002691 3.20565492
Ni 4.64358686 0.00062309 3.20592168
Ni 4.64339803 4.45002691 3.20565492
Ni 1.65052020 0.00062309 3.20592168
Ni 4.68676487 2.22541401 1.18014624
Ni 1.51733556 6.67588599 1.20948984
Ni 1.60734219 2.22541401 1.18014624
Ni 4.77677150 6.67588599 1.20948984
Sn 0.00000000 6.67597500 -1.112655959999998 0 0 0
Sn 3.14708500 0.00000000 -3.3379678799999972 0 0 0
Sn 0.00000000 2.22532500 -1.112655959999998 0 0 0
Sn 3.14708500 4.45065000 -3.3379678799999972 0 0 0
Sn 6.29410706 2.22532500 3.53003508
Sn 3.14708500 4.47032187 1.06463916
Sn 0.00000000 6.67588599 3.57191640
Sn 3.14702206 8.88171714 1.06490592
C 0.00157354 2.22496895 7.66614888
O 6.29398117 2.22541401 8.80121268
