&CONTROL
calculation = 'relax'
prefix = 'scf'
pseudo_dir = '/vol0004/mdt0/data/hp150275/u10028/POT_KKJUS'
outdir = './data'
tprnfor = .true.
nstep = 50
disk_io = 'non'
/
&SYSTEM
ibrav = 0
ecutwfc = 50.0
ecutrho = 400
occupations = 'smearing'
smearing = 'mp'
degauss = 0.01
assume_isolated = 'esm'
esm_bc = 'bc1'
input_dft = 'BEEF-VDW'
nosym = .true.
nspin = 1
ntyp = 5
nat = 18
/
&ELECTRONS
electron_maxstep = 200
mixing_beta = 0.1
conv_thr = 1e-06
/
&IONS
ion_dynamics = 'bfgs'
upscale = 1.0
/
&CELL
/

K_POINTS {automatic}
8 8 1 0 0 0

ATOMIC_SPECIES
Al 26.98 Al.pbe-nl-rrkjus_psl.1.0.0.UPF
C 12.01 C.pbe-n-rrkjus_psl.1.0.0.UPF
Li 6.941 Li.pbe-sl-rrkjus_psl.1.0.0.UPF
O 15.99 O.pbe-n-rrkjus_psl.1.0.0.UPF
Pt 195.0 Pt.pbe-n-rrkjus_psl.1.0.0.UPF

CELL_PARAMETERS {angstrom}
6.07419000 0.00000000 0.00000000
0.00000000 6.07419000 0.00000000
0.00000000 0.00000000 24.55560000

ATOMIC_POSITIONS {angstrom}
Li 6.07340036 0.00060742 0.79879367
Li 3.03709500 0.00000000 -2.2777774599999994 0 0 0
Li 0.00000000 3.03709500 -2.2777774599999994 0 0 0
Li 3.04019284 3.03417939 0.80665146
Li 1.51854750 1.51854750 -0.7592591499999983 0 0 0
Li 1.53136404 4.54288670 2.66133593
Li 4.55564250 4.55564250 -0.7592591499999983 0 0 0
Li 4.54707789 1.52705137 2.68859264
Al 0.00000000 0.00000000 -2.2777774599999994 0 0 0
Al 3.03709500 3.03709500 -2.2777774599999994 0 0 0
Al 3.03934245 0.00291561 0.76417027
Al 6.07109216 3.03502978 0.76441583
Pt 1.51636079 1.51781860 2.07568487
Pt 1.51854750 4.55564250 -0.7592591499999983 0 0 0
Pt 4.55637140 4.55782921 2.07617598
Pt 4.55564250 1.51854750 -0.7592591499999983 0 0 0
C 4.55722179 1.51684673 4.81166982
O 4.56335672 1.51065105 5.95006744
