&CONTROL
calculation = 'relax'
prefix = 'scf'
pseudo_dir = '/vol0403/data/hp230205/u10028/POT_HYBRID_KKJUS_GBRV'
outdir = './data'
tprnfor = .true.
nstep = 50
disk_io = 'non'
/
&SYSTEM
ibrav = 0
ecutwfc = 50.0
ecutrho = 400
occupations = 'smearing'
smearing = 'mp'
degauss = 0.01
assume_isolated = 'esm'
esm_bc = 'bc1'
input_dft = 'BEEF-VDW'
nosym = .true.
nspin = 1
ntyp = 6
nat = 18
/
&ELECTRONS
electron_maxstep = 200
mixing_beta = 0.1
conv_thr = 1e-06
/
&IONS
ion_dynamics = 'bfgs'
upscale = 1.0
/
&CELL
/

K_POINTS {automatic}
8 10 2 0  0  0

ATOMIC_SPECIES
C 12.01 C.pbe-n-rrkjus_psl.1.0.0.UPF
In 114.8 In.pbe-dn-rrkjus_psl.1.0.0.UPF
Li 6.941 Li.pbe-sl-rrkjus_psl.1.0.0.UPF
O 15.99 O.pbe-n-rrkjus_psl.1.0.0.UPF
Sn 118.7 Sn.pbe-dn-rrkjus_psl.1.0.0.UPF
Y 88.90 Y.pbe-spn-rrkjus_psl.1.0.0.UPF


CELL_PARAMETERS {angstrom}
8.86856000 0.00000000 0.00000000
0.00000000 6.50942000 0.00000000
0.00000000 0.00000000 24.87900000

ATOMIC_POSITIONS {angstrom}
Li 2.21625314 1.71913782 1.18523556
Li 2.21714000 4.70995594 -2.4396347400000025 0 0 0
Li 6.65230686 1.71939820 1.18523556
Li 6.65142000 4.70995594 -2.4396347400000025 0 0 0
Y 2.20986778 4.90217911 0.84862269
Y 2.21714000 1.45524594 -2.4396347400000025 0 0 0
Y 6.65886959 4.90230930 0.84862269
Y 6.65142000 1.45524594 -2.4396347400000025 0 0 0
In 0.00000000 0.18382602 2.42495613
In 0.00000000 3.13994893 -0.8132945100000022 0 0 0
In 4.43419131 0.17341095 2.45605488
In 4.43428000 3.13994893 -0.8132945100000022 0 0 0
Sn 0.00000000 3.27130902 2.31598611
Sn 0.00000000 6.39465893 -0.8132945100000022 0 0 0
Sn 4.43436869 3.26421375 2.29459017
Sn 4.43428000 6.39465893 -0.8132945100000022 0 0 0
C 8.86838263 6.45408993 5.62414674
O 0.00008869 0.04803952 6.75439971
