&CONTROL
calculation = 'relax'
prefix = 'scf'
pseudo_dir = '/vol0004/mdt0/data/hp150275/u10028/POT_HYBRID_KKJUS_GBRV'
outdir = './data'
tprnfor = .true.
nstep = 50
disk_io = 'non'
/
&SYSTEM
ibrav = 0
ecutwfc = 50.0
ecutrho = 400
occupations = 'smearing'
smearing = 'mp'
degauss = 0.01
assume_isolated = 'esm'
esm_bc = 'bc1'
input_dft = 'BEEF-VDW'
nosym = .true.
nspin = 2
ntyp = 4
nat = 34
starting_magnetization(1) = 0.0
starting_magnetization(2) = 0.1
starting_magnetization(3) = 0.0
starting_magnetization(4) = 0.0
/
&ELECTRONS
electron_maxstep = 200
mixing_beta = 0.1
conv_thr = 1e-06
/
&IONS
ion_dynamics = 'bfgs'
upscale = 1.0
/
&CELL
/

K_POINTS {automatic}
7 7 2 0  0  0

ATOMIC_SPECIES
C 12.01 C.pbe-n-rrkjus_psl.1.0.0.UPF
Mn 54.93 mn_pbe_v1.5.uspp.F.UPF
O 15.99 O.pbe-n-rrkjus_psl.1.0.0.UPF
Sb 121.7 Sb.pbe-n-rrkjus_psl.1.0.0.UPF

CELL_PARAMETERS {angstrom}
7.64649000 0.00000000 0.00000000
0.00000000 7.64649000 0.00000000
0.00000000 0.00000000 25.73490000

ATOMIC_POSITIONS {angstrom}
Mn 0.01896330 1.91162250 0.96686019
Mn 1.91162250 0.01888683 0.96686019
Mn 1.91162250 1.91162250 2.87304424
Mn 0.00000000 1.91162250 22.86751744
Mn 1.91162250 0.00000000 22.86751744
Mn 1.91162250 1.91162250 24.77910581
Mn 0.00749356 5.73486750 0.93546361
Mn 1.91162250 3.80435817 0.96686019
Mn 1.91162250 5.73486750 2.77859715
Mn 0.00000000 5.73486750 22.86751744
Mn 1.91162250 3.82324500 22.86751744
Mn 1.91162250 5.73486750 24.77910581
Mn 3.80428170 1.91162250 0.96686019
Mn 5.73486750 0.00741710 0.93546361
Mn 5.73486750 1.91162250 2.77859715
Mn 3.82324500 1.91162250 22.86751744
Mn 5.73486750 0.00000000 22.86751744
Mn 5.73486750 1.91162250 24.77910581
Mn 3.81575144 5.73486750 0.93546361
Mn 5.73486750 3.81582790 0.93546361
Mn 5.73486750 5.73486750 2.76444296
Mn 3.82324500 5.73486750 22.86751744
Mn 5.73486750 3.82324500 22.86751744
Mn 5.73486750 5.73486750 24.77910581
Sb 0.01896330 0.01896330 3.00918186
Sb 0.00000000 0.00000000 24.77910581
Sb 0.01896330 3.80428170 3.00918186
Sb 0.00000000 3.82324500 24.77910581
Sb 3.80428170 0.01896330 3.00892451
Sb 3.82324500 0.00000000 24.77910581
Sb 3.80428170 3.80428170 3.00892451
Sb 3.82324500 3.82324500 24.77910581
C 1.91162250 1.91162250 4.70279563
O 1.91162250 1.91162250 5.86678515
