&CONTROL
calculation = 'relax'
prefix = 'scf'
pseudo_dir = '/vol0004/mdt0/data/hp150275/u10028/POT_KKJUS'
outdir = './data'
tprnfor = .true.
nstep = 50
disk_io = 'non'
/
&SYSTEM
ibrav = 0
ecutwfc = 50.0
ecutrho = 400
occupations = 'smearing'
smearing = 'mp'
degauss = 0.01
assume_isolated = 'esm'
esm_bc = 'bc1'
input_dft = 'BEEF-VDW'
nosym = .true.
nspin = 1
ntyp = 4
nat = 17
/
&ELECTRONS
electron_maxstep = 200
mixing_beta = 0.1
conv_thr = 1e-06
/
&IONS
ion_dynamics = 'bfgs'
upscale = 1.0
/
&CELL
/

K_POINTS {automatic}
8 8 1 0 0 0

ATOMIC_SPECIES
C 12.01 C.pbe-n-rrkjus_psl.1.0.0.UPF
In 114.8 In.pbe-dn-rrkjus_psl.1.0.0.UPF
Li 6.941 Li.pbe-sl-rrkjus_psl.1.0.0.UPF
Pd 106.4 Pd.pbe-n-rrkjus_psl.1.0.0.UPF

CELL_PARAMETERS {angstrom}
6.46446000 0.00000000 0.00000000
0.00000000 6.46446000 0.00000000
0.00000000 0.00000000 24.84830000

ATOMIC_POSITIONS {angstrom}
Li 0.00000000 0.00000000 -0.8080667199999993 0 0 0
Li 3.14651126 0.08571874 3.10206177
Li 0.08571874 3.14651126 3.10231025
Li 3.23223000 3.23223000 -0.8080667199999993 0 0 0
Li 1.61611500 1.61611500 -2.4242001499999972 0 0 0
Li 1.61611500 4.84834500 1.03493169
Li 4.84834500 4.84834500 -2.4242001499999972 0 0 0
Li 4.84834500 1.61611500 1.03493169
In 1.61611500 1.61611500 0.63959524
In 1.61611500 4.84834500 -2.4242001499999972 0 0 0
In 4.84834500 4.84834500 1.06549510
In 4.84834500 1.61611500 -2.4242001499999972 0 0 0
Pd 0.22431676 0.22431676 2.49700567
Pd 3.00791324 3.00791324 2.49700567
Pd 3.23223000 0.00000000 -0.8080667199999993 0 0 0
Pd 0.00000000 3.23223000 -0.8080667199999993 0 0 0
C 1.61611500 1.61611500 3.01385031
