&CONTROL
calculation = 'relax'
prefix = 'scf'
pseudo_dir = '/vol0403/data/hp230205/u10028/POT_HYBRID_KKJUS_GBRV'
outdir = './data'
tprnfor = .true.
nstep = 50
disk_io = 'non'
/
&SYSTEM
ibrav = 0
ecutwfc = 50.0
ecutrho = 400
occupations = 'smearing'
smearing = 'mp'
degauss = 0.01
assume_isolated = 'esm'
esm_bc = 'bc1'
input_dft = 'BEEF-VDW'
nosym = .true.
nspin = 1
ntyp = 6
nat = 18
/
&ELECTRONS
electron_maxstep = 200
mixing_beta = 0.1
conv_thr = 1e-06
/
&IONS
ion_dynamics = 'bfgs'
upscale = 1.0
/
&CELL
/

K_POINTS {automatic}
6 6 1 0 0 0

ATOMIC_SPECIES
C 12.01 C.pbe-n-rrkjus_psl.1.0.0.UPF
Ge 72.64 Ge.pbe-dn-rrkjus_psl.1.0.0.UPF
In 114.8 In.pbe-dn-rrkjus_psl.1.0.0.UPF
Li 6.941 Li.pbe-sl-rrkjus_psl.1.0.0.UPF
O 15.99 O.pbe-n-rrkjus_psl.1.0.0.UPF
Y 88.90 Y.pbe-spn-rrkjus_psl.1.0.0.UPF


CELL_PARAMETERS {angstrom}
6.30439000 0.00000000 0.00000000
0.00000000 8.57642000 0.00000000
0.00000000 0.00000000 24.70800000

ATOMIC_POSITIONS {angstrom}
Li 4.90513064 2.11966220 1.27172076
Li 1.13895110 2.14410500 -2.3539311599999984 0 0 0
Li 4.90513064 6.45667203 1.27172076
Li 1.13895110 6.43231500 -2.3539311599999984 0 0 0
Y 1.59816286 2.15096614 0.86873328
Y 4.29114610 2.14410500 -2.3539311599999984 0 0 0
Y 1.59822591 6.42536810 0.86873328
Y 4.29114610 6.43231500 -2.3539311599999984 0 0 0
In 3.39554445 0.00008576 2.43719712
In 6.01300109 0.00000000 -0.7847260799999987 0 0 0
In 3.46924277 4.28821000 2.39667600
In 6.01300109 4.28821000 -0.7847260799999987 0 0 0
Ge 0.01147399 0.00000000 2.25707580
Ge 2.86080609 0.00000000 -0.7847260799999987 0 0 0
Ge 0.01727403 4.28803847 2.05422312
Ge 2.86080609 4.28821000 -0.7847260799999987 0 0 0
C 0.03341327 0.00000000 4.20134832
O 0.00371959 0.00000000 5.35916520
