&CONTROL
calculation = 'relax'
prefix = 'scf'
pseudo_dir = '/vol0403/data/hp230205/u10028/POT_HYBRID_KKJUS_GBRV'
outdir = './data'
tprnfor = .true.
nstep = 50
disk_io = 'non'
/
&SYSTEM
ibrav = 0
ecutwfc = 50.0
ecutrho = 400
occupations = 'smearing'
smearing = 'mp'
degauss = 0.01
assume_isolated = 'esm'
esm_bc = 'bc1'
input_dft = 'BEEF-VDW'
nosym = .true.
nspin = 1
ntyp = 5
nat = 33
/
&ELECTRONS
electron_maxstep = 200
mixing_beta = 0.1
conv_thr = 1e-06
/
&IONS
ion_dynamics = 'bfgs'
upscale = 1.0
/
&CELL
/

K_POINTS {automatic}
8 8 1 0 0 0

ATOMIC_SPECIES
C 12.01 C.pbe-n-rrkjus_psl.1.0.0.UPF
Cu 63.54 Cu.pbe-dn-rrkjus_psl.1.0.0.UPF
In 114.8 In.pbe-dn-rrkjus_psl.1.0.0.UPF
Li 6.941 Li.pbe-sl-rrkjus_psl.1.0.0.UPF
Mg 24.30 Mg.pbe-spnl-rrkjus_psl.1.0.0.UPF


CELL_PARAMETERS {angstrom}
6.43808000 0.00000000 0.00000000
0.00000000 9.10482000 0.00000000
0.00000000 0.00000000 26.82860000

ATOMIC_POSITIONS {angstrom}
Li 0.00000000 2.27620500 -1.1380692100000012 0 0 0
Li 0.00000000 6.82861500 -1.1380692100000012 0 0 0
Li 3.21904000 4.55241000 -3.4142076400000008 0 0 0
Li 3.21904000 0.00000000 -3.4142076400000008 0 0 0
Li 0.16681065 6.60163184 4.44791359
Li 0.16681065 2.50337026 4.44764531
Li 3.16199861 9.10472895 1.49542616
Li 3.17622677 4.55241000 1.15255666
Mg 4.82856000 0.00000000 -1.1380692100000012 0 0 0
Mg 4.82856000 4.55241000 -1.1380692100000012 0 0 0
Mg 1.60952000 2.27620500 -3.4142076400000008 0 0 0
Mg 1.60952000 6.82861500 -3.4142076400000008 0 0 0
Mg 4.80544729 4.55250105 3.45686511
Mg 5.41249386 0.00000000 3.34955071
Mg 1.49408523 6.82852395 1.36906346
Mg 1.49427837 2.27620500 1.36879517
In 1.60952000 0.00000000 -1.1380692100000012 0 0 0
In 1.60952000 4.55241000 -1.1380692100000012 0 0 0
In 4.82856000 2.27620500 -3.4142076400000008 0 0 0
In 4.82856000 6.82861500 -3.4142076400000008 0 0 0
In 1.78972186 4.55259210 3.65512846
In 1.47535041 0.00036419 4.68749299
In 4.86705972 6.82160429 1.23599360
In 4.86738162 2.28321571 1.23572532
Cu 0.00000000 0.00000000 -3.4142076400000008 0 0 0
Cu 0.00000000 4.55241000 -3.4142076400000008 0 0 0
Cu 3.21904000 6.82861500 -1.1380692100000012 0 0 0
Cu 3.21904000 2.27620500 -1.1380692100000012 0 0 0
Cu 0.01467882 4.55241000 1.08977773
Cu 0.00985026 0.00009105 0.93309871
Cu 3.25123040 1.94697471 3.43996309
Cu 3.25129478 7.15802739 3.44023138
C 3.36434747 0.00009105 3.69081050
