&CONTROL
calculation = 'relax'
prefix = 'scf'
pseudo_dir = '/vol0004/mdt0/data/hp150275/u10028/POT_KKJUS'
outdir = './data'
tprnfor = .true.
nstep = 50
disk_io = 'non'
/
&SYSTEM
ibrav = 0
ecutwfc = 50.0
ecutrho = 400
occupations = 'smearing'
smearing = 'mp'
degauss = 0.01
assume_isolated = 'esm'
esm_bc = 'bc1'
input_dft = 'BEEF-VDW'
nosym = .true.
nspin = 1
ntyp = 4
nat = 33
/
&ELECTRONS
electron_maxstep = 200
mixing_beta = 0.1
conv_thr = 1e-06
/
&IONS
ion_dynamics = 'bfgs'
upscale = 1.0
/
&CELL
/

K_POINTS {automatic}
9 6 2 0  0  0

ATOMIC_SPECIES
C 12.01 C.pbe-n-rrkjus_psl.1.0.0.UPF
In 114.8 In.pbe-dn-rrkjus_psl.1.0.0.UPF
Li 6.941 Li.pbe-sl-rrkjus_psl.1.0.0.UPF
Rh 102.9 Rh.pbe-spn-rrkjus_psl.1.0.0.UPF

CELL_PARAMETERS {angstrom}
6.57920000 0.00000000 0.00000000
0.00000000 9.30439000 0.00000000
0.00000000 0.00000000 26.97830000

ATOMIC_POSITIONS {angstrom}
Li 0.00000000 0.00000000 -3.489103540000002 0 0 0
Li 3.28960000 2.32609750 -1.1630345099999992 0 0 0
Li 3.28960000 6.97829250 -1.1630345099999992 0 0 0
Li 0.00000000 4.65219500 -3.489103540000002 0 0 0
Li 0.00000000 4.65219500 1.12823251
Li 3.28960000 6.74531057 3.76617068
Li 3.28960000 2.55917247 3.76617068
Li 0.00000000 0.00000000 1.33974238
In 1.64480000 0.00000000 -1.1630345099999992 0 0 0
In 4.93440000 4.65219500 -1.1630345099999992 0 0 0
In 4.93440000 0.00000000 -1.1630345099999992 0 0 0
In 1.64480000 4.65219500 -1.1630345099999992 0 0 0
In 4.93440000 6.97829250 -3.489103540000002 0 0 0
In 1.64480000 2.32609750 -3.489103540000002 0 0 0
In 1.64480000 6.97829250 -3.489103540000002 0 0 0
In 4.93440000 2.32609750 -3.489103540000002 0 0 0
In 1.48249114 4.65219500 3.69953428
In 4.56471475 0.00000000 3.55115363
In 5.09670886 4.65219500 3.69953428
In 2.01448525 0.00000000 3.55115363
In 4.91018854 2.34954456 1.22265656
In 1.66901146 6.95484544 1.22265656
In 1.66901146 2.34954456 1.22265656
In 4.91018854 6.95484544 1.22265656
Rh 0.00000000 6.97829250 -1.1630345099999992 0 0 0
Rh 3.28960000 0.00000000 -3.489103540000002 0 0 0
Rh 0.00000000 2.32609750 -1.1630345099999992 0 0 0
Rh 3.28960000 4.65219500 -3.489103540000002 0 0 0
Rh 0.00000000 1.92265915 3.42084844
Rh 3.28960000 4.65219500 1.10287290
Rh 0.00000000 7.38173085 3.42084844
Rh 3.28960000 0.00000000 0.97445620
C 0.00000000 0.00000000 4.03217672
