&CONTROL
calculation = 'relax'
prefix = 'scf'
pseudo_dir = '/vol0004/mdt0/data/hp150275/u10028/POT_KKJUS'
outdir = './data'
tprnfor = .true.
nstep = 50
disk_io = 'non'
/
&SYSTEM
ibrav = 0
ecutwfc = 50.0
ecutrho = 400
occupations = 'smearing'
smearing = 'mp'
degauss = 0.01
assume_isolated = 'esm'
esm_bc = 'bc1'
input_dft = 'BEEF-VDW'
nosym = .true.
nspin = 1
ntyp = 4
nat = 33
/
&ELECTRONS
electron_maxstep = 200
mixing_beta = 0.1
conv_thr = 1e-06
/
&IONS
ion_dynamics = 'bfgs'
upscale = 1.0
/
&CELL
/

K_POINTS {automatic}
9 6 2 0  0  0

ATOMIC_SPECIES
C 12.01 C.pbe-n-rrkjus_psl.1.0.0.UPF
Ni 58.69 Ni.pbe-spn-rrkjus_psl.1.0.0.UPF
Sn 118.7 Sn.pbe-dn-rrkjus_psl.1.0.0.UPF
Ti 47.86 Ti.pbe-spn-rrkjus_psl.1.0.0.UPF

CELL_PARAMETERS {angstrom}
6.14888000 0.00000000 0.00000000
0.00000000 8.69583000 0.00000000
0.00000000 0.00000000 26.52190000

ATOMIC_POSITIONS {angstrom}
Ti 0.00000000 0.00000000 -3.2608676099999983 0 0 0
Ti 3.07444000 2.17395750 -1.086867459999997 0 0 0
Ti 3.07444000 6.52187250 -1.086867459999997 0 0 0
Ti 0.00000000 4.34791500 -3.2608676099999983 0 0 0
Ti 0.00000000 4.34774108 1.11657199
Ti 3.07444000 6.50430692 3.19482807
Ti 3.07444000 2.19152308 3.19482807
Ti 0.00000000 0.00017392 1.25925981
Ni 1.53722000 0.00000000 -1.086867459999997 0 0 0
Ni 4.61166000 4.34791500 -1.086867459999997 0 0 0
Ni 4.61166000 0.00000000 -1.086867459999997 0 0 0
Ni 1.53722000 4.34791500 -1.086867459999997 0 0 0
Ni 4.61166000 6.52187250 -3.2608676099999983 0 0 0
Ni 1.53722000 2.17395750 -3.2608676099999983 0 0 0
Ni 1.53722000 6.52187250 -3.2608676099999983 0 0 0
Ni 4.61166000 2.17395750 -3.2608676099999983 0 0 0
Ni 1.69420091 4.34826283 3.14894519
Ni 4.34516754 8.69565608 3.35767254
Ni 4.45467909 4.34817587 3.14921041
Ni 1.80371246 8.69574304 3.35767254
Ni 4.71164079 2.21421919 1.18579415
Ni 1.43643986 6.48161081 1.18552893
Ni 1.43730070 2.21430615 1.18579415
Ni 4.71250163 6.48169777 1.18579415
Sn 0.00000000 6.52187250 -1.086867459999997 0 0 0
Sn 3.07444000 0.00000000 -3.2608676099999983 0 0 0
Sn 0.00000000 2.17395750 -1.086867459999997 0 0 0
Sn 3.07444000 4.34791500 -3.2608676099999983 0 0 0
Sn 0.00000000 2.33926523 3.70617031
Sn 3.07450149 4.34817587 0.98979731
Sn 0.00006149 6.35656477 3.70590509
Sn 3.07444000 8.69548217 1.05848903
C 0.00000000 0.00008696 3.38339878
