&CONTROL
calculation = 'relax'
prefix = 'scf'
pseudo_dir = '/vol0004/mdt0/data/hp150275/u10028/POT_KKJUS'
outdir = './data'
tprnfor = .true.
nstep = 50
disk_io = 'non'
/
&SYSTEM
ibrav = 0
ecutwfc = 50.0
ecutrho = 400
occupations = 'smearing'
smearing = 'mp'
degauss = 0.01
assume_isolated = 'esm'
esm_bc = 'bc1'
input_dft = 'BEEF-VDW'
nosym = .true.
nspin = 1
ntyp = 3
nat = 32
/
&ELECTRONS
electron_maxstep = 200
mixing_beta = 0.1
conv_thr = 1e-06
/
&IONS
ion_dynamics = 'bfgs'
upscale = 1.0
/
&CELL
/

K_POINTS {automatic}
9 6 2 0  0  0

ATOMIC_SPECIES
In 114.8 In.pbe-dn-rrkjus_psl.1.0.0.UPF
Pd 106.4 Pd.pbe-n-rrkjus_psl.1.0.0.UPF
Y 88.90 Y.pbe-spn-rrkjus_psl.1.0.0.UPF

CELL_PARAMETERS {angstrom}
6.85111000 0.00000000 0.00000000
0.00000000 9.68893000 0.00000000
0.00000000 0.00000000 27.26670000

ATOMIC_POSITIONS {angstrom}
Y 0.00000000 0.00000000 -3.633287769999999 0 0 0
Y 3.42555500 2.42223250 -1.211186810000001 0 0 0
Y 3.42555500 7.26669750 -1.211186810000001 0 0 0
Y 0.00000000 4.84446500 -3.633287769999999 0 0 0
Y 0.00000000 4.84446500 1.20546081
Y 3.42555500 7.26669750 3.63737778
Y 3.42555500 2.42223250 3.63737778
Y 0.00000000 0.00000000 1.20546081
In 0.00000000 7.26669750 -1.211186810000001 0 0 0
In 3.42555500 0.00000000 -3.633287769999999 0 0 0
In 0.00000000 2.42223250 -1.211186810000001 0 0 0
In 3.42555500 4.84446500 -3.633287769999999 0 0 0
In 0.00000000 2.42223250 3.69981852
In 3.42555500 4.84446500 1.27635423
In 0.00000000 7.26669750 3.69981852
In 3.42555500 0.00000000 1.27635423
Pd 1.71277750 0.00000000 -1.211186810000001 0 0 0
Pd 5.13833250 4.84446500 -1.211186810000001 0 0 0
Pd 5.13833250 0.00000000 -1.211186810000001 0 0 0
Pd 1.71277750 4.84446500 -1.211186810000001 0 0 0
Pd 5.13833250 7.26669750 -3.633287769999999 0 0 0
Pd 1.71277750 2.42223250 -3.633287769999999 0 0 0
Pd 1.71277750 7.26669750 -3.633287769999999 0 0 0
Pd 5.13833250 2.42223250 -3.633287769999999 0 0 0
Pd 1.60912021 4.84446500 3.52558431
Pd 5.24198979 0.00000000 3.52558431
Pd 5.24198979 4.84446500 3.52558431
Pd 1.60912021 0.00000000 3.52558431
Pd 5.08503086 2.42223250 1.26190288
Pd 1.76607914 7.26669750 1.26190288
Pd 1.76607914 2.42223250 1.26190288
Pd 5.08503086 7.26669750 1.26190288
