&CONTROL
calculation = 'relax'
prefix = 'scf'
pseudo_dir = '/vol0004/mdt0/data/hp150275/u10028/POT_KKJUS'
outdir = './data'
tprnfor = .true.
nstep = 50
disk_io = 'non'
/
&SYSTEM
ibrav = 0
ecutwfc = 50.0
ecutrho = 400
occupations = 'smearing'
smearing = 'mp'
degauss = 0.01
assume_isolated = 'esm'
esm_bc = 'bc1'
input_dft = 'BEEF-VDW'
nosym = .true.
nspin = 1
ntyp = 5
nat = 18
/
&ELECTRONS
electron_maxstep = 200
mixing_beta = 0.1
conv_thr = 1e-06
/
&IONS
ion_dynamics = 'bfgs'
upscale = 1.0
/
&CELL
/

K_POINTS {automatic}
9 9 2 0  0  0

ATOMIC_SPECIES
C 12.01 C.pbe-n-rrkjus_psl.1.0.0.UPF
In 114.8 In.pbe-dn-rrkjus_psl.1.0.0.UPF
Li 6.941 Li.pbe-sl-rrkjus_psl.1.0.0.UPF
O 15.99 O.pbe-n-rrkjus_psl.1.0.0.UPF
Pd 106.4 Pd.pbe-n-rrkjus_psl.1.0.0.UPF

CELL_PARAMETERS {angstrom}
6.70566000 0.00000000 0.00000000
0.00000000 6.70566000 0.00000000
0.00000000 0.00000000 25.02920000

ATOMIC_POSITIONS {angstrom}
Li 0.00000000 0.00000000 -2.5146837200000007 0 0 0
Li 3.35283000 3.35283000 -2.5146837200000007 0 0 0
Li 3.39091815 6.67213170 0.83872849
Li 6.67206464 3.39078404 0.83872849
In 1.67641500 1.67641500 -0.8382279100000005 0 0 0
In 5.02736742 5.02736742 2.69063900
In 5.02924500 1.67641500 -0.8382279100000005 0 0 0
In 1.67393391 5.02830621 2.59778067
In 5.02924500 5.02924500 -0.8382279100000005 0 0 0
In 1.66789881 1.66783176 2.48489898
In 1.67641500 5.02924500 -0.8382279100000005 0 0 0
In 5.02823915 1.67393391 2.59803096
Pd 6.68467128 6.68473834 0.74436841
Pd 3.35283000 0.00000000 -2.5146837200000007 0 0 0
Pd 0.00000000 3.35283000 -2.5146837200000007 0 0 0
Pd 3.36858830 3.36852124 0.76914732
C 1.90434038 1.90467567 6.06207224
O 1.54029010 1.54015599 7.07600513
