&CONTROL
calculation = 'relax'
prefix = 'scf'
pseudo_dir = '/vol0403/data/hp230205/u10028/POT_HYBRID_KKJUS_GBRV'
outdir = './data'
tprnfor = .true.
nstep = 50
disk_io = 'non'
/
&SYSTEM
ibrav = 0
ecutwfc = 50.0
ecutrho = 400
occupations = 'smearing'
smearing = 'mp'
degauss = 0.01
assume_isolated = 'esm'
esm_bc = 'bc1'
input_dft = 'BEEF-VDW'
nosym = .true.
nspin = 1
ntyp = 6
nat = 34
/
&ELECTRONS
electron_maxstep = 200
mixing_beta = 0.1
conv_thr = 1e-06
/
&IONS
ion_dynamics = 'bfgs'
upscale = 1.0
/
&CELL
/

K_POINTS {automatic}
7 7 2 0  0  0

ATOMIC_SPECIES
C 12.01 C.pbe-n-rrkjus_psl.1.0.0.UPF
Cu 63.54 Cu.pbe-dn-rrkjus_psl.1.0.0.UPF
In 114.8 In.pbe-dn-rrkjus_psl.1.0.0.UPF
O 15.99 O.pbe-n-rrkjus_psl.1.0.0.UPF
Sn 118.7 Sn.pbe-dn-rrkjus_psl.1.0.0.UPF
Y 88.90 Y.pbe-spn-rrkjus_psl.1.0.0.UPF


CELL_PARAMETERS {angstrom}
8.84740000 0.00000000 0.00000000
0.00000000 9.14612000 0.00000000
0.00000000 0.00000000 26.62140000

ATOMIC_POSITIONS {angstrom}
Y 0.00000000 2.28653000 -1.1034570300000013 0 0 0
Y 0.00203490 2.30015772 3.36254903
Y 0.00000000 6.85959000 -1.1034570300000013 0 0 0
Y 0.00203490 6.84577936 3.36228282
Y 4.42370000 2.28653000 -1.1034570300000013 0 0 0
Y 4.42228442 2.30043210 3.36228282
Y 4.42370000 6.85959000 -1.1034570300000013 0 0 0
Y 4.42237289 6.84577936 3.36228282
In 2.21185000 0.00000000 -1.1034570300000013 0 0 0
In 2.21246932 9.14602854 3.39981899
In 2.21185000 4.57306000 -1.1034570300000013 0 0 0
In 2.21211542 4.57296854 3.48820204
In 6.63555000 0.00000000 -1.1034570300000013 0 0 0
In 6.63581542 0.00000000 3.43389439
In 6.63555000 4.57306000 -1.1034570300000013 0 0 0
In 6.63590390 4.57306000 3.51642073
Cu 0.00000000 0.00000000 -3.3106373 0 0 0
Cu 8.77945197 0.00000000 1.27569749
Cu 0.00000000 4.57306000 -3.3106373 0 0 0
Cu 0.05423456 4.57306000 1.36514539
Cu 4.42370000 0.00000000 -3.3106373 0 0 0
Cu 4.49217888 9.14593708 1.27569749
Cu 4.42370000 4.57306000 -3.3106373 0 0 0
Cu 4.36990781 4.57306000 1.36514539
Sn 2.21185000 2.28653000 -3.3106373 0 0 0
Sn 2.21202695 2.31698658 1.21952633
Sn 2.21185000 6.85959000 -3.3106373 0 0 0
Sn 2.21202695 6.82904196 1.21952633
Sn 6.63555000 2.28653000 -3.3106373 0 0 0
Sn 6.63572695 2.36628417 1.21979255
Sn 6.63555000 6.85959000 -3.3106373 0 0 0
Sn 6.63581542 6.77983583 1.21979255
C 2.20008296 0.00301822 7.93237856
O 2.21459269 9.14465662 9.06804748
