&CONTROL
calculation = 'relax'
prefix = 'scf'
pseudo_dir = '/vol0004/mdt0/data/hp150275/u10028/POT_KKJUS'
outdir = './data'
tprnfor = .true.
nstep = 50
disk_io = 'non'
/
&SYSTEM
ibrav = 0
ecutwfc = 50.0
ecutrho = 400
occupations = 'smearing'
smearing = 'mp'
degauss = 0.01
assume_isolated = 'esm'
esm_bc = 'bc1'
input_dft = 'BEEF-VDW'
nosym = .true.
nspin = 1
ntyp = 4
nat = 34
/
&ELECTRONS
electron_maxstep = 200
mixing_beta = 0.1
conv_thr = 1e-06
/
&IONS
ion_dynamics = 'bfgs'
upscale = 1.0
/
&CELL
/

K_POINTS {automatic}
8 6 1 0 0 0

ATOMIC_SPECIES
Be 9.012 Be.pbe-n-rrkjus_psl.1.0.0.UPF
C 12.01 C.pbe-n-rrkjus_psl.1.0.0.UPF
O 15.99 O.pbe-n-rrkjus_psl.1.0.0.UPF
Rh 102.9 Rh.pbe-spn-rrkjus_psl.1.0.0.UPF

CELL_PARAMETERS {angstrom}
5.57428000 0.00000000 0.00000000
0.00000000 7.88322000 0.00000000
0.00000000 0.00000000 25.91240000

ATOMIC_POSITIONS {angstrom}
Be 0.00000000 0.00000000 -2.9560865900000017 0 0 0
Be 0.00000000 1.97080500 -0.9854485700000026 0 0 0
Be 5.54295255 0.00000000 1.01835732
Be 0.01516204 1.94274074 2.80760854
Be 0.00000000 3.94161000 -2.9560865900000017 0 0 0
Be 0.00000000 5.91241500 -0.9854485700000026 0 0 0
Be 0.01003370 3.94161000 1.01058360
Be 0.01516204 5.94047926 2.80760854
Be 2.78714000 0.00000000 -2.9560865900000017 0 0 0
Be 2.78714000 1.97080500 -0.9854485700000026 0 0 0
Be 2.81846745 0.00000000 1.01835732
Be 2.77197796 1.94274074 2.80760854
Be 2.78714000 3.94161000 -2.9560865900000017 0 0 0
Be 2.78714000 5.91241500 -0.9854485700000026 0 0 0
Be 2.77710630 3.94161000 1.01058360
Be 2.77197796 5.94047926 2.80760854
Rh 1.39357000 1.97080500 -2.9560865900000017 0 0 0
Rh 1.39357000 0.00000000 -0.9854485700000026 0 0 0
Rh 1.39357000 1.95235827 0.96109092
Rh 1.39357000 3.94161000 2.95245886
Rh 1.39357000 5.91241500 -2.9560865900000017 0 0 0
Rh 1.39357000 3.94161000 -0.9854485700000026 0 0 0
Rh 1.39357000 5.93086173 0.96109092
Rh 1.39351426 0.00000000 3.11518873
Rh 4.18071000 1.97080500 -2.9560865900000017 0 0 0
Rh 4.18071000 0.00000000 -0.9854485700000026 0 0 0
Rh 4.18065426 1.97868822 0.96394128
Rh 4.18071000 3.94161000 2.95245886
Rh 4.18071000 5.91241500 -2.9560865900000017 0 0 0
Rh 4.18071000 3.94161000 -0.9854485700000026 0 0 0
Rh 4.18071000 5.90453178 0.96394128
Rh 4.18071000 0.00007883 2.96930192
C 1.39357000 0.00000000 4.99150561
O 1.39357000 0.00000000 6.14797602
