&CONTROL
calculation = 'relax'
prefix = 'scf'
pseudo_dir = '/vol0403/data/hp230205/u10028/POT_HYBRID_KKJUS_GBRV'
outdir = './data'
tprnfor = .true.
nstep = 50
disk_io = 'non'
/
&SYSTEM
ibrav = 0
ecutwfc = 50.0
ecutrho = 400
occupations = 'smearing'
smearing = 'mp'
degauss = 0.01
assume_isolated = 'esm'
esm_bc = 'bc1'
input_dft = 'BEEF-VDW'
nosym = .true.
nspin = 1
ntyp = 4
nat = 16
/
&ELECTRONS
electron_maxstep = 200
mixing_beta = 0.1
conv_thr = 1e-06
/
&IONS
ion_dynamics = 'bfgs'
upscale = 1.0
/
&CELL
/

K_POINTS {automatic}
6 6 1 0 0 0

ATOMIC_SPECIES
Al 26.98 Al.pbe-nl-rrkjus_psl.1.0.0.UPF
In 114.8 In.pbe-dn-rrkjus_psl.1.0.0.UPF
Li 6.941 Li.pbe-sl-rrkjus_psl.1.0.0.UPF
Sc 44.95 Sc.pbe-spn-rrkjus_psl.1.0.0.UPF


CELL_PARAMETERS {angstrom}
5.96334000 0.00000000 0.00000000
0.00000000 8.71362000 0.00000000
0.00000000 0.00000000 24.47210000

ATOMIC_POSITIONS {angstrom}
Li 4.45151404 2.17840500 -0.7454201700000027 0 0 0
Li 1.70885471 2.17849214 2.37844340
Li 4.45151404 6.53521500 -0.7454201700000027 0 0 0
Li 1.70873544 6.53512786 2.37893284
Sc 2.98167000 0.00000000 -2.2360157800000025 0 0 0
Sc 0.07257385 0.00008714 0.79999295
Sc 2.98167000 4.35681000 -2.2360157800000025 0 0 0
Sc 0.07305092 4.35654859 0.80244016
Al 0.00000000 0.00000000 -2.2360157800000025 0 0 0
Al 3.07845501 8.71353286 0.86924899
Al 0.00000000 4.35681000 -2.2360157800000025 0 0 0
Al 3.07803757 4.35689714 0.86924899
In 1.46984404 2.17840500 -0.7454201700000027 0 0 0
In 4.67346956 2.17770791 2.27859723
In 1.46984404 6.53521500 -0.7454201700000027 0 0 0
In 4.67352919 6.53591209 2.27884195
