&CONTROL
calculation = 'relax'
prefix = 'scf'
pseudo_dir = '/vol0004/mdt0/data/hp150275/u10028/POT_KKJUS'
outdir = './data'
tprnfor = .true.
nstep = 50
disk_io = 'non'
/
&SYSTEM
ibrav = 0
ecutwfc = 50.0
ecutrho = 400
occupations = 'smearing'
smearing = 'mp'
degauss = 0.01
assume_isolated = 'esm'
esm_bc = 'bc1'
input_dft = 'BEEF-VDW'
nosym = .true.
nspin = 1
ntyp = 3
nat = 32
/
&ELECTRONS
electron_maxstep = 200
mixing_beta = 0.1
conv_thr = 1e-06
/
&IONS
ion_dynamics = 'bfgs'
upscale = 1.0
/
&CELL
/

K_POINTS {automatic}
8 6 1 0 0 0

ATOMIC_SPECIES
Al 26.98 Al.pbe-nl-rrkjus_psl.1.0.0.UPF
Ni 58.69 Ni.pbe-spn-rrkjus_psl.1.0.0.UPF
Ta 180.9 Ta.pbe-spn-rrkjus_psl.1.0.0.UPF

CELL_PARAMETERS {angstrom}
6.00328000 0.00000000 0.00000000
0.00000000 8.48992000 0.00000000
0.00000000 0.00000000 26.36740000

ATOMIC_POSITIONS {angstrom}
Ta 0.00000000 0.00000000 -3.183599879999999 0 0 0
Ta 3.00164000 2.12248000 -1.0612878499999994 0 0 0
Ta 3.00164000 6.36744000 -1.0612878499999994 0 0 0
Ta 0.00000000 4.24496000 -3.183599879999999 0 0 0
Ta 0.00000000 4.24496000 1.06181520
Ta 3.00164000 6.36744000 3.18860968
Ta 3.00164000 2.12248000 3.18860968
Ta 0.00000000 0.00000000 1.06181520
Al 0.00000000 6.36744000 -1.0612878499999994 0 0 0
Al 3.00164000 0.00000000 -3.183599879999999 0 0 0
Al 0.00000000 2.12248000 -1.0612878499999994 0 0 0
Al 3.00164000 4.24496000 -3.183599879999999 0 0 0
Al 0.00000000 2.12248000 3.19256479
Al 3.00164000 4.24496000 1.05074089
Al 0.00000000 6.36744000 3.19256479
Al 3.00164000 0.00000000 1.05074089
Ni 1.50082000 0.00000000 -1.0612878499999994 0 0 0
Ni 4.50246000 4.24496000 -1.0612878499999994 0 0 0
Ni 4.50246000 0.00000000 -1.0612878499999994 0 0 0
Ni 1.50082000 4.24496000 -1.0612878499999994 0 0 0
Ni 4.50246000 6.36744000 -3.183599879999999 0 0 0
Ni 1.50082000 2.12248000 -3.183599879999999 0 0 0
Ni 1.50082000 6.36744000 -3.183599879999999 0 0 0
Ni 4.50246000 2.12248000 -3.183599879999999 0 0 0
Ni 1.52861519 4.24496000 3.06890169
Ni 4.47460478 0.00000000 3.06916536
Ni 4.47466481 4.24496000 3.06890169
Ni 1.52867522 0.00000000 3.06916536
Ni 4.46079724 2.12248000 1.12773370
Ni 1.54248276 6.36744000 1.12773370
Ni 1.54248276 2.12248000 1.12773370
Ni 4.46079724 6.36744000 1.12773370
