&CONTROL
calculation = 'relax'
prefix = 'scf'
pseudo_dir = '/vol0004/mdt0/data/hp150275/u10028/POT_HYBRID_KKJUS_GBRV'
outdir = './data'
tprnfor = .true.
nstep = 50
disk_io = 'non'
/
&SYSTEM
ibrav = 0
ecutwfc = 50.0
ecutrho = 400
occupations = 'smearing'
smearing = 'mp'
degauss = 0.01
assume_isolated = 'esm'
esm_bc = 'bc1'
input_dft = 'BEEF-VDW'
nosym = .true.
nspin = 2
ntyp = 5
nat = 18
starting_magnetization(1) = 0.1
starting_magnetization(2) = 0.1
starting_magnetization(3) = 0.1
starting_magnetization(4) = 0.1
starting_magnetization(5) = 0.1
/
&ELECTRONS
electron_maxstep = 200
mixing_beta = 0.1
conv_thr = 1e-06
/
&IONS
ion_dynamics = 'bfgs'
upscale = 1.0
/
&CELL
/

K_POINTS {automatic}
8 8 1 0 0 0

ATOMIC_SPECIES
C 12.01 C.pbe-n-rrkjus_psl.1.0.0.UPF
Co 58.93 co_pbe_v1.2.uspp.F.UPF
Mn 54.93 mn_pbe_v1.5.uspp.F.UPF
O 15.99 O.pbe-n-rrkjus_psl.1.0.0.UPF
Sn 118.7 Sn.pbe-dn-rrkjus_psl.1.0.0.UPF

CELL_PARAMETERS {angstrom}
6.01864000 0.00000000 0.00000000
-0.00000000 6.01864000 0.00000000
0.00000000 0.00000000 24.51400000

ATOMIC_POSITIONS {angstrom}
Mn 0.00000000 0.00000000 -2.2570039800000004 0 0 0
Mn 3.00932000 3.00932000 -2.2570039800000004 0 0 0
Mn 3.00932000 -0.00000000 0.75233466
Mn 0.00000000 3.00932000 0.75233466
Co 1.50466000 1.50466000 -0.7523346599999989 0 0 0
Co 4.51398000 4.51398000 2.25700398
Co 4.51398000 1.50466000 -0.7523346599999989 0 0 0
Co 1.50466000 4.51398000 2.25700398
Co 4.51398000 4.51398000 -0.7523346599999989 0 0 0
Co 1.50466000 1.50466000 2.25700398
Co 1.50466000 4.51398000 -0.7523346599999989 0 0 0
Co 4.51398000 1.50466000 2.25700398
Sn 0.00000000 0.00000000 0.75233466
Sn 3.00932000 0.00000000 -2.2570039800000004 0 0 0
Sn 0.00000000 3.00932000 -2.2570039800000004 0 0 0
Sn 3.00932000 3.00932000 0.75233466
C 1.50466000 1.50466000 4.15708412
O 1.50466000 1.50466000 5.30703586
