&CONTROL
calculation = 'relax'
prefix = 'scf'
pseudo_dir = '/vol0403/data/hp230205/u10028/POT_HYBRID_KKJUS_GBRV'
outdir = './data'
tprnfor = .true.
nstep = 70
disk_io = 'non'
/
&SYSTEM
ibrav = 0
ecutwfc = 50.0
ecutrho = 400
occupations = 'smearing'
smearing = 'mp'
degauss = 0.01
assume_isolated = 'esm'
esm_bc = 'bc1'
input_dft = 'BEEF-VDW'
nosym = .true.
nspin = 1
ntyp = 5
nat = 33
/
&ELECTRONS
electron_maxstep = 200
mixing_beta = 0.1
conv_thr = 1e-06
/
&IONS
ion_dynamics = 'bfgs'
upscale = 1.0
/
&CELL
/

K_POINTS {automatic}
9 6 2 0  0  0

ATOMIC_SPECIES
Al 26.98 Al.pbe-nl-rrkjus_psl.1.0.0.UPF
C 12.01 C.pbe-n-rrkjus_psl.1.0.0.UPF
Cu 63.54 Cu.pbe-dn-rrkjus_psl.1.0.0.UPF
Li 6.941 Li.pbe-sl-rrkjus_psl.1.0.0.UPF
Mg 24.30 Mg.pbe-spnl-rrkjus_psl.1.0.0.UPF


CELL_PARAMETERS {angstrom}
6.19386000 0.00000000 0.00000000
-0.00000000 8.75944000 0.00000000
0.00000000 0.00000000 26.56960000

ATOMIC_POSITIONS {angstrom}
Li 1.54846500 0.00000000 -1.0949332200000015 0 0 0
Li 1.54846500 4.37972000 -1.0949332200000015 0 0 0
Li 4.64539500 2.18986000 -3.28479965 0 0 0
Li 4.64539500 6.56958000 -3.28479965 0 0 0
Li 1.86955470 4.24272236 4.21553274
Li 1.86943083 0.13699764 4.21553274
Li 4.68187684 6.56958000 1.15896595
Li 4.75000930 2.18977241 1.12415978
Mg 0.00000000 2.18986000 -1.0949332200000015 0 0 0
Mg 0.00000000 6.56958000 -1.0949332200000015 0 0 0
Mg 3.09693000 4.37972000 -3.28479965 0 0 0
Mg 3.09693000 0.00000000 -3.28479965 0 0 0
Mg 0.14406918 6.56931722 3.38895248
Mg 6.00005412 2.19056076 3.61319990
Mg 3.02049777 0.00341618 1.13372483
Mg 3.02031195 4.37639141 1.13345914
Al 0.00000000 0.00000000 -3.28479965 0 0 0
Al 0.00000000 4.37972000 -3.28479965 0 0 0
Al 3.09693000 6.56958000 -1.0949332200000015 0 0 0
Al 3.09693000 2.18986000 -1.0949332200000015 0 0 0
Al 0.05078965 4.41142917 1.19642909
Al 0.05060384 8.72773083 1.19642909
Al 3.31260021 2.18994759 3.23166045
Al 3.11662647 6.56958000 3.31110355
Cu 4.64539500 0.00000000 -1.0949332200000015 0 0 0
Cu 4.64539500 4.37972000 -1.0949332200000015 0 0 0
Cu 1.54846500 2.18986000 -3.28479965 0 0 0
Cu 1.54846500 6.56958000 -3.28479965 0 0 0
Cu 4.59194199 4.48588441 3.10492346
Cu 4.59200393 8.65345078 3.10492346
Cu 1.54152788 6.56958000 1.00034544
Cu 1.43648001 2.18986000 1.15498051
C 1.73242264 2.18968481 4.19082301
