&CONTROL
calculation = 'relax'
prefix = 'scf'
pseudo_dir = '/vol0403/data/hp230205/u10028/POT_HYBRID_KKJUS_GBRV'
outdir = './data'
tprnfor = .true.
nstep = 100
disk_io = 'non'
/
&SYSTEM
ibrav = 0
ecutwfc = 50.0
ecutrho = 400
occupations = 'smearing'
smearing = 'mp'
degauss = 0.01
assume_isolated = 'esm'
esm_bc = 'bc1'
input_dft = 'BEEF-VDW'
nosym = .true.
nspin = 1
ntyp = 5
nat = 17
/
&ELECTRONS
electron_maxstep = 200
mixing_beta = 0.1
conv_thr = 1e-06
/
&IONS
ion_dynamics = 'bfgs'
upscale = 1.0
/
&CELL
/

K_POINTS {automatic}
8 8 1 0 0 0

ATOMIC_SPECIES
Ag 107.8 Ag.pbe-n-rrkjus_psl.1.0.0.UPF
C 12.01 C.pbe-n-rrkjus_psl.1.0.0.UPF
In 114.8 In.pbe-dn-rrkjus_psl.1.0.0.UPF
Li 6.941 Li.pbe-sl-rrkjus_psl.1.0.0.UPF
Pd 106.4 Pd.pbe-n-rrkjus_psl.1.0.0.UPF


CELL_PARAMETERS {angstrom}
6.52372000 0.00000000 0.00000000
-0.00000000 6.52372000 0.00000000
0.00000000 0.00000000 24.89280000

ATOMIC_POSITIONS {angstrom}
Li 1.63093000 1.63093000 -0.8154881300000021 0 0 0
Li 1.63093000 4.89279000 2.44646438
Li 4.89279000 1.63093000 2.44646438
Li 4.89279000 4.89279000 -0.8154881300000021 0 0 0
In 4.89279000 1.63093000 -0.8154881300000021 0 0 0
In 4.89279000 4.89279000 2.44646438
In 1.63093000 1.63093000 2.44646438
In 1.63093000 4.89279000 -0.8154881300000021 0 0 0
Ag 0.00000000 0.00000000 -2.446464380000002 0 0 0
Ag 0.00000000 3.26186000 0.81548813
Ag 3.26186000 -0.00000000 0.81548813
Ag 3.26186000 3.26186000 -2.446464380000002 0 0 0
Pd 0.00000000 3.26186000 -2.446464380000002 0 0 0
Pd 0.00000000 0.00000000 0.81548813
Pd 3.26186000 3.26186000 0.81548813
Pd 3.26186000 0.00000000 -2.446464380000002 0 0 0
C 0.00000000 3.26186000 3.24651898
