&CONTROL
calculation = 'relax'
prefix = 'scf'
pseudo_dir = '/vol0403/data/hp230205/u10028/POT_HYBRID_KKJUS_GBRV'
outdir = './data'
tprnfor = .true.
nstep = 50
disk_io = 'non'
/
&SYSTEM
ibrav = 0
ecutwfc = 50.0
ecutrho = 400
occupations = 'smearing'
smearing = 'mp'
degauss = 0.01
assume_isolated = 'esm'
esm_bc = 'bc1'
input_dft = 'BEEF-VDW'
nosym = .true.
nspin = 1
ntyp = 6
nat = 18
/
&ELECTRONS
electron_maxstep = 200
mixing_beta = 0.1
conv_thr = 1e-06
/
&IONS
ion_dynamics = 'bfgs'
upscale = 1.0
/
&CELL
/

K_POINTS {automatic}
8 10 2 0  0  0

ATOMIC_SPECIES
C 12.01 C.pbe-n-rrkjus_psl.1.0.0.UPF
In 114.8 In.pbe-dn-rrkjus_psl.1.0.0.UPF
Li 6.941 Li.pbe-sl-rrkjus_psl.1.0.0.UPF
O 15.99 O.pbe-n-rrkjus_psl.1.0.0.UPF
Sn 118.7 Sn.pbe-dn-rrkjus_psl.1.0.0.UPF
Y 88.90 Y.pbe-spn-rrkjus_psl.1.0.0.UPF


CELL_PARAMETERS {angstrom}
8.86856000 0.00000000 0.00000000
0.00000000 6.50942000 0.00000000
0.00000000 0.00000000 24.87900000

ATOMIC_POSITIONS {angstrom}
Li 2.21714000 1.57000701 -0.8132945100000022 0 0 0
Li 2.21714000 4.64674947 2.35877799
Li 6.65142000 1.57000701 -0.8132945100000022 0 0 0
Li 6.65142000 4.59584580 2.23861242
Y 2.21714000 4.82471701 -0.8132945100000022 0 0 0
Y 2.21714000 1.38780834 2.32394739
Y 6.65142000 4.82471701 -0.8132945100000022 0 0 0
Y 6.65142000 1.35617256 2.31399579
In 0.00000000 0.00000000 -2.4396347400000025 0 0 0
In 8.86483520 3.02089163 0.75109701
In 4.43428000 0.00000000 -2.4396347400000025 0 0 0
In 4.43800480 3.02082654 0.75109701
Sn 0.00000000 3.25471000 -2.4396347400000025 0 0 0
Sn 8.86261806 6.20940083 1.05661113
Sn 4.43428000 3.25471000 -2.4396347400000025 0 0 0
Sn 4.44022194 6.20940083 1.05661113
C 2.21714000 1.40212907 4.78497807
O 2.21714000 1.37667724 5.94259794
