&CONTROL
calculation = 'relax'
prefix = 'scf'
pseudo_dir = '/vol0004/mdt0/data/hp150275/u10028/POT_HYBRID_KKJUS_GBRV'
outdir = './data'
tprnfor = .true.
nstep = 50
disk_io = 'non'
/
&SYSTEM
ibrav = 0
ecutwfc = 50.0
ecutrho = 400
occupations = 'smearing'
smearing = 'mp'
degauss = 0.01
assume_isolated = 'esm'
esm_bc = 'bc1'
input_dft = 'BEEF-VDW'
nosym = .true.
nspin = 2
ntyp = 5
nat = 18
starting_magnetization(1) = 0.1
starting_magnetization(2) = 0.1
starting_magnetization(3) = 0.1
starting_magnetization(4) = 0.1
starting_magnetization(5) = 0.1
/
&ELECTRONS
electron_maxstep = 200
mixing_beta = 0.1
conv_thr = 1e-06
/
&IONS
ion_dynamics = 'bfgs'
upscale = 1.0
/
&CELL
/

K_POINTS {automatic}
8 8 1 0 0 0

ATOMIC_SPECIES
C 12.01 C.pbe-n-rrkjus_psl.1.0.0.UPF
Co 58.93 co_pbe_v1.2.uspp.F.UPF
Fe 55.84 fe_pbe_v1.5.uspp.F.UPF
O 15.99 O.pbe-n-rrkjus_psl.1.0.0.UPF
Si 28.08 Si.pbe-nl-rrkjus_psl.1.0.0.UPF

CELL_PARAMETERS {angstrom}
5.64511000 0.00000000 0.00000000
-0.00000000 5.64511000 0.00000000
0.00000000 0.00000000 24.23380000

ATOMIC_POSITIONS {angstrom}
Fe 0.00000000 0.00000000 -2.116822429999999 0 0 0
Fe 2.82255500 2.82255500 -2.116822429999999 0 0 0
Fe 2.82255500 -0.00000000 0.70568826
Fe 0.00000000 2.82255500 0.70568826
Co 1.41127750 1.41127750 -0.7056882599999987 0 0 0
Co 4.23383250 4.23383250 2.11682243
Co 4.23383250 1.41127750 -0.7056882599999987 0 0 0
Co 1.41127750 4.23383250 2.11682243
Co 4.23383250 4.23383250 -0.7056882599999987 0 0 0
Co 1.41127750 1.41127750 2.11682243
Co 1.41127750 4.23383250 -0.7056882599999987 0 0 0
Co 4.23383250 1.41127750 2.11682243
Si 0.00000000 0.00000000 0.70568826
Si 2.82255500 0.00000000 -2.116822429999999 0 0 0
Si 0.00000000 2.82255500 -2.116822429999999 0 0 0
Si 2.82255500 2.82255500 0.70568826
C 1.41127750 1.41127750 4.01699469
O 1.41127750 1.41127750 5.16688850
