&CONTROL
calculation = 'relax'
prefix = 'scf'
pseudo_dir = '/vol0004/mdt0/data/hp150275/u10028/POT_HYBRID_KKJUS_GBRV'
outdir = './data'
tprnfor = .true.
nstep = 50
disk_io = 'non'
/
&SYSTEM
ibrav = 0
ecutwfc = 50.0
ecutrho = 400
occupations = 'smearing'
smearing = 'mp'
degauss = 0.01
assume_isolated = 'esm'
esm_bc = 'bc1'
input_dft = 'BEEF-VDW'
nosym = .true.
nspin = 2
ntyp = 3
nat = 33
starting_magnetization(1) = 0.1
starting_magnetization(2) = 0.1
starting_magnetization(3) = 0.1
/
&ELECTRONS
electron_maxstep = 200
mixing_beta = 0.1
conv_thr = 1e-06
/
&IONS
ion_dynamics = 'bfgs'
upscale = 1.0
/
&CELL
/

K_POINTS {automatic}
9 6 2 0  0  0

ATOMIC_SPECIES
C 12.01 C.pbe-n-rrkjus_psl.1.0.0.UPF
Mn 54.93 mn_pbe_v1.5.uspp.F.UPF
Ni 58.69 ni_pbe_v1.4.uspp.F.UPF

CELL_PARAMETERS {angstrom}
5.87849000 0.00000000 0.00000000
0.00000000 8.31345000 0.00000000
0.00000000 0.00000000 26.23510000

ATOMIC_POSITIONS {angstrom}
Mn 0.00000000 0.00000000 -3.1175169300000007 0 0 0
Mn 0.00000000 2.07836250 -1.0391723099999979 0 0 0
Mn 0.00000000 0.00016627 1.10633417
Mn 0.00000000 1.98242529 3.23531253
Mn 0.00000000 4.15672500 -3.1175169300000007 0 0 0
Mn 0.00000000 6.23508750 -1.0391723099999979 0 0 0
Mn 0.00000000 4.15655873 1.00795254
Mn 0.00000000 6.33110785 3.23557488
Mn 2.93924500 0.00000000 -3.1175169300000007 0 0 0
Mn 2.93924500 2.07836250 -1.0391723099999979 0 0 0
Mn 2.93924500 0.00016627 0.95836820
Mn 2.93924500 2.19799305 3.22140793
Mn 2.93924500 4.15672500 -3.1175169300000007 0 0 0
Mn 2.93924500 6.23508750 -1.0391723099999979 0 0 0
Mn 2.93924500 4.15655873 1.06750622
Mn 2.93924500 6.11537382 3.22140793
Ni 1.46962250 2.07836250 -3.1175169300000007 0 0 0
Ni 1.46962250 0.00000000 -1.0391723099999979 0 0 0
Ni 1.47409015 2.07985892 1.08298493
Ni 1.72804092 0.00033254 3.01992236
Ni 1.46962250 6.23508750 -3.1175169300000007 0 0 0
Ni 1.46962250 4.15672500 -1.0391723099999979 0 0 0
Ni 1.47414894 6.23367421 1.08298493
Ni 1.35798997 4.15639246 2.99185080
Ni 4.40886750 2.07836250 -3.1175169300000007 0 0 0
Ni 4.40886750 0.00000000 -1.0391723099999979 0 0 0
Ni 4.40439985 2.07985892 1.08298493
Ni 4.15044908 0.00033254 3.01992236
Ni 4.40886750 6.23508750 -3.1175169300000007 0 0 0
Ni 4.40886750 4.15672500 -1.0391723099999979 0 0 0
Ni 4.40434106 6.23367421 1.08298493
Ni 4.52050003 4.15639246 2.99185080
C 0.00000000 0.00000000 3.50133645
