&CONTROL
calculation = 'relax'
prefix = 'scf'
pseudo_dir = '/vol0004/mdt0/data/hp150275/u10028/POT_HYBRID_KKJUS_GBRV'
outdir = './data'
tprnfor = .true.
nstep = 50
disk_io = 'non'
/
&SYSTEM
ibrav = 0
ecutwfc = 50.0
ecutrho = 400
occupations = 'smearing'
smearing = 'mp'
degauss = 0.01
assume_isolated = 'esm'
esm_bc = 'bc1'
input_dft = 'BEEF-VDW'
nosym = .true.
nspin = 2
ntyp = 4
nat = 33
starting_magnetization(1) = 0.0
starting_magnetization(2) = 0.1
starting_magnetization(3) = 0.1
starting_magnetization(4) = 0.0
/
&ELECTRONS
electron_maxstep = 300
mixing_beta = 0.1
conv_thr = 1e-06
/
&IONS
ion_dynamics = 'bfgs'
upscale = 1.0
/
&CELL
/

K_POINTS {automatic}
8 6 1 0 0 0

ATOMIC_SPECIES
C 12.01 C.pbe-n-rrkjus_psl.1.0.0.UPF
Co 58.93 co_pbe_v1.2.uspp.F.UPF
Mn 54.93 mn_pbe_v1.5.uspp.F.UPF
Sb 121.7 Sb.pbe-n-rrkjus_psl.1.0.0.UPF

CELL_PARAMETERS {angstrom}
6.03986000 0.00000000 0.00000000
0.00000000 8.54165000 0.00000000
0.00000000 0.00000000 26.40620000

ATOMIC_POSITIONS {angstrom}
Mn 0.00000000 0.00000000 -3.2030720599999967 0 0 0
Mn 3.01993000 2.13541250 -1.0676026699999994 0 0 0
Mn 3.01993000 6.40623750 -1.0676026699999994 0 0 0
Mn 0.00000000 4.27082500 -3.2030720599999967 0 0 0
Mn 6.01310342 4.26125835 1.00581216
Mn 3.05852471 6.40563958 3.19171739
Mn 3.27837561 2.13515625 3.09295821
Mn 6.01304302 0.00982290 1.00607622
Co 1.50996500 0.00000000 -1.0676026699999994 0 0 0
Co 4.52989500 4.27082500 -1.0676026699999994 0 0 0
Co 4.52989500 0.00000000 -1.0676026699999994 0 0 0
Co 1.50996500 4.27082500 -1.0676026699999994 0 0 0
Co 4.52989500 6.40623750 -3.2030720599999967 0 0 0
Co 1.50996500 2.13541250 -3.2030720599999967 0 0 0
Co 1.50996500 6.40623750 -3.2030720599999967 0 0 0
Co 4.52989500 2.13541250 -3.2030720599999967 0 0 0
Co 1.29319442 4.00278802 3.02245365
Co 4.64833665 0.07046861 3.03248801
Co 4.64900104 4.20103972 3.03248801
Co 1.29325482 0.26897656 3.02245365
Co 4.59240755 2.13378959 1.03406679
Co 1.47445062 6.40768958 1.10826821
Co 1.44262056 2.13421667 1.12833693
Co 4.57785149 6.40760416 1.10166666
Sb 0.00000000 6.40623750 -1.0676026699999994 0 0 0
Sb 3.01993000 0.00000000 -3.2030720599999967 0 0 0
Sb 0.00000000 2.13541250 -1.0676026699999994 0 0 0
Sb 3.01993000 4.27082500 -3.2030720599999967 0 0 0
Sb 5.59369554 2.13524167 4.45974312
Sb 3.01558130 4.27885415 1.08529482
Sb 0.05864704 6.40700625 3.40481543
Sb 3.01533971 8.53353543 1.08423857
C 1.37237699 2.13601042 3.14629873
