&CONTROL
calculation = 'relax'
prefix = 'scf'
pseudo_dir = '/vol0004/mdt0/data/hp150275/u10028/POT_KKJUS'
outdir = './data'
tprnfor = .true.
nstep = 50
disk_io = 'non'
/
&SYSTEM
ibrav = 0
ecutwfc = 50.0
ecutrho = 400
occupations = 'smearing'
smearing = 'mp'
degauss = 0.01
assume_isolated = 'esm'
esm_bc = 'bc1'
input_dft = 'BEEF-VDW'
nosym = .true.
nspin = 1
ntyp = 4
nat = 34
/
&ELECTRONS
electron_maxstep = 200
mixing_beta = 0.1
conv_thr = 1e-06
/
&IONS
ion_dynamics = 'bfgs'
upscale = 1.0
/
&CELL
/

K_POINTS {automatic}
9 6 2 0  0  0

ATOMIC_SPECIES
Be 9.012 Be.pbe-n-rrkjus_psl.1.0.0.UPF
C 12.01 C.pbe-n-rrkjus_psl.1.0.0.UPF
Li 6.941 Li.pbe-sl-rrkjus_psl.1.0.0.UPF
O 15.99 O.pbe-n-rrkjus_psl.1.0.0.UPF

CELL_PARAMETERS {angstrom}
5.62306000 0.00000000 0.00000000
0.00000000 7.95221000 0.00000000
0.00000000 0.00000000 25.96420000

ATOMIC_POSITIONS {angstrom}
Li 0.00000000 0.00000000 -2.9819883700000034 0 0 0
Li 0.00000000 1.98805250 -0.9939095800000004 0 0 0
Li 0.00000000 0.03554638 1.13255840
Li 5.62300377 1.98797298 3.56981786
Li 0.00000000 3.97610500 -2.9819883700000034 0 0 0
Li 0.00000000 5.96415750 -0.9939095800000004 0 0 0
Li 0.00000000 3.94047910 1.13229876
Li 0.00005623 5.96407798 3.53710297
Li 2.81153000 0.00000000 -2.9819883700000034 0 0 0
Li 2.81153000 1.98805250 -0.9939095800000004 0 0 0
Li 2.81147377 0.02369759 0.79943772
Li 2.81153000 1.98797298 4.09117899
Li 2.81153000 3.97610500 -2.9819883700000034 0 0 0
Li 2.81153000 5.96415750 -0.9939095800000004 0 0 0
Li 2.81158623 3.95200980 0.80021664
Li 2.81147377 5.96407798 4.01302675
Be 1.40576500 1.98805250 -2.9819883700000034 0 0 0
Be 1.40576500 0.00000000 -0.9939095800000004 0 0 0
Be 1.71351507 1.98797298 1.79620336
Be 1.73825654 7.92851241 2.83788706
Be 1.40576500 5.96415750 -2.9819883700000034 0 0 0
Be 1.40576500 3.97610500 -0.9939095800000004 0 0 0
Be 1.68956084 5.96407798 1.70480937
Be 1.73836900 3.99956402 2.83762742
Be 4.21729500 1.98805250 -2.9819883700000034 0 0 0
Be 4.21729500 0.00000000 -0.9939095800000004 0 0 0
Be 3.90954493 1.98813202 1.79620336
Be 3.88480346 7.92843289 2.83788706
Be 4.21729500 5.96415750 -2.9819883700000034 0 0 0
Be 4.21729500 3.97610500 -0.9939095800000004 0 0 0
Be 3.93355539 5.96399846 1.70480937
Be 3.88469100 3.99956402 2.83762742
C 5.62283508 1.98908629 5.62176858
O 5.62289131 1.98884772 6.76886694
