&CONTROL
calculation = 'relax'
prefix = 'scf'
pseudo_dir = '/vol0403/data/hp230205/u10028/POT_HYBRID_KKJUS_GBRV'
outdir = './data'
tprnfor = .true.
nstep = 50
disk_io = 'non'
/
&SYSTEM
ibrav = 0
ecutwfc = 50.0
ecutrho = 400
occupations = 'smearing'
smearing = 'mp'
degauss = 0.01
assume_isolated = 'esm'
esm_bc = 'bc1'
input_dft = 'BEEF-VDW'
nosym = .true.
nspin = 1
ntyp = 6
nat = 18
/
&ELECTRONS
electron_maxstep = 200
mixing_beta = 0.1
conv_thr = 1e-06
/
&IONS
ion_dynamics = 'bfgs'
upscale = 1.0
/
&CELL
/

K_POINTS {automatic}
8 8 1 0 0 0

ATOMIC_SPECIES
C 12.01 C.pbe-n-rrkjus_psl.1.0.0.UPF
In 114.8 In.pbe-dn-rrkjus_psl.1.0.0.UPF
Ir 192.2 Ir.pbe-n-rrkjus_psl.0.2.3.UPF
Li 6.941 Li.pbe-sl-rrkjus_psl.1.0.0.UPF
O 15.99 O.pbe-n-rrkjus_psl.1.0.0.UPF
Pd 106.4 Pd.pbe-n-rrkjus_psl.1.0.0.UPF


CELL_PARAMETERS {angstrom}
6.33559000 0.00000000 0.00000000
0.00000000 6.33559000 0.00000000
0.00000000 0.00000000 24.75170000

ATOMIC_POSITIONS {angstrom}
Li 6.33552664 3.16785836 2.36205473
Li 0.00000000 0.00000000 -0.7920543999999978 0 0 0
Li 3.16779500 3.16779500 -0.7920543999999978 0 0 0
Li 3.16773164 0.00000000 2.36180721
In 0.00000000 0.00006336 2.37418306
In 0.00000000 3.16779500 -0.7920543999999978 0 0 0
In 3.16779500 0.00000000 -0.7920543999999978 0 0 0
In 3.16773164 3.16785836 2.43655735
Ir 1.59200706 1.59207041 0.90244698
Ir 1.58389750 4.75169250 -2.3759156799999985 0 0 0
Ir 4.75169250 1.58389750 -2.3759156799999985 0 0 0
Ir 4.74351959 4.74351959 0.90244698
Pd 4.73927474 1.59631526 0.83561739
Pd 4.75169250 4.75169250 -2.3759156799999985 0 0 0
Pd 1.58389750 1.58389750 -2.3759156799999985 0 0 0
Pd 1.59625190 4.73933810 0.83536988
C 0.00114041 6.33457631 6.51316234
O 6.33527322 0.00038014 7.64802778
