&CONTROL
calculation = 'relax'
prefix = 'scf'
pseudo_dir = '/vol0403/data/hp230205/u10028/POT_HYBRID_KKJUS_GBRV'
outdir = './data'
tprnfor = .true.
nstep = 50
disk_io = 'non'
/
&SYSTEM
ibrav = 0
ecutwfc = 50.0
ecutrho = 400
occupations = 'smearing'
smearing = 'mp'
degauss = 0.01
assume_isolated = 'esm'
esm_bc = 'bc1'
input_dft = 'BEEF-VDW'
nosym = .true.
nspin = 1
ntyp = 5
nat = 17
/
&ELECTRONS
electron_maxstep = 200
mixing_beta = 0.1
conv_thr = 1e-06
/
&IONS
ion_dynamics = 'bfgs'
upscale = 1.0
/
&CELL
/

K_POINTS {automatic}
10 10 2 0  0  0

ATOMIC_SPECIES
C 12.01 C.pbe-n-rrkjus_psl.1.0.0.UPF
Ge 72.64 Ge.pbe-dn-rrkjus_psl.1.0.0.UPF
Li 6.941 Li.pbe-sl-rrkjus_psl.1.0.0.UPF
Pd 106.4 Pd.pbe-n-rrkjus_psl.1.0.0.UPF
Y 88.90 Y.pbe-spn-rrkjus_psl.1.0.0.UPF


CELL_PARAMETERS {angstrom}
6.55453000 0.00000000 0.00000000
0.00000000 6.55453000 0.00000000
0.00000000 0.00000000 24.91590000

ATOMIC_POSITIONS {angstrom}
Li 4.91589750 1.63863250 -0.8192347899999994 0 0 0
Li 5.05183845 4.77943219 3.22038008
Li 1.50177391 1.77594990 3.21963260
Li 1.63863250 4.91589750 -0.8192347899999994 0 0 0
Y 0.00000000 3.27726500 -2.457953540000002 0 0 0
Y 0.00006555 6.55446445 0.86308678
Y 3.27733055 3.27719945 0.86283762
Y 3.27726500 0.00000000 -2.457953540000002 0 0 0
Ge 0.00000000 0.00000000 -2.457953540000002 0 0 0
Ge 0.00000000 3.27726500 0.61043955
Ge 3.27726500 0.00000000 1.19920227
Ge 3.27726500 3.27726500 -2.457953540000002 0 0 0
Pd 1.63863250 1.63863250 -0.8192347899999994 0 0 0
Pd 1.46670718 4.74357891 2.38644490
Pd 5.08808500 1.81068891 2.38644490
Pd 4.91589750 4.91589750 -0.8192347899999994 0 0 0
C 6.55367791 3.27811709 2.68369159
