&CONTROL
calculation = 'relax'
prefix = 'scf'
pseudo_dir = '/vol0403/data/hp230205/u10028/POT_HYBRID_KKJUS_GBRV'
outdir = './data'
tprnfor = .true.
nstep = 50
disk_io = 'non'
/
&SYSTEM
ibrav = 0
ecutwfc = 50.0
ecutrho = 400
occupations = 'smearing'
smearing = 'mp'
degauss = 0.01
assume_isolated = 'esm'
esm_bc = 'bc1'
input_dft = 'BEEF-VDW'
nosym = .true.
nspin = 1
ntyp = 6
nat = 18
/
&ELECTRONS
electron_maxstep = 200
mixing_beta = 0.1
conv_thr = 1e-06
/
&IONS
ion_dynamics = 'bfgs'
upscale = 1.0
/
&CELL
/

K_POINTS {automatic}
6 6 1 0 0 0

ATOMIC_SPECIES
C 12.01 C.pbe-n-rrkjus_psl.1.0.0.UPF
Ge 72.64 Ge.pbe-dn-rrkjus_psl.1.0.0.UPF
In 114.8 In.pbe-dn-rrkjus_psl.1.0.0.UPF
Li 6.941 Li.pbe-sl-rrkjus_psl.1.0.0.UPF
O 15.99 O.pbe-n-rrkjus_psl.1.0.0.UPF
Sc 44.95 Sc.pbe-spn-rrkjus_psl.1.0.0.UPF


CELL_PARAMETERS {angstrom}
8.12626000 0.00000000 0.00000000
0.00000000 6.08490000 0.00000000
0.00000000 0.00000000 24.54620000

ATOMIC_POSITIONS {angstrom}
Li 2.03156500 4.43065909 -0.7577411899999973 0 0 0
Li 2.03164626 1.00029671 2.45830193
Li 6.09469500 4.43065909 -0.7577411899999973 0 0 0
Li 6.09469500 1.02548820 2.25604124
Sc 2.03156500 1.38820909 -0.7577411899999973 0 0 0
Sc 2.03164626 3.96662461 2.13723763
Sc 6.09469500 1.38820909 -0.7577411899999973 0 0 0
Sc 6.09469500 3.96625952 2.14141049
In 0.00000000 3.04245000 -2.2729781199999977 0 0 0
In 0.00763868 5.72443052 0.78376017
In 4.06313000 3.04245000 -2.2729781199999977 0 0 0
In 4.05557258 5.72443052 0.78376017
Ge 0.00000000 0.00000000 -2.2729781199999977 0 0 0
Ge 8.10602561 2.58462212 0.96442020
Ge 4.06313000 0.00000000 -2.2729781199999977 0 0 0
Ge 4.08336439 2.58468297 0.96442020
C 2.03156500 4.17679706 4.39892450
O 2.03156500 4.21963475 5.55775060
