&CONTROL
calculation = 'relax'
prefix = 'scf'
pseudo_dir = '/vol0004/mdt0/data/hp150275/u10028/POT_KKJUS'
outdir = './data'
tprnfor = .true.
nstep = 50
disk_io = 'non'
/
&SYSTEM
ibrav = 0
ecutwfc = 50.0
ecutrho = 400
occupations = 'smearing'
smearing = 'mp'
degauss = 0.01
assume_isolated = 'esm'
esm_bc = 'bc1'
input_dft = 'BEEF-VDW'
nosym = .true.
nspin = 1
ntyp = 3
nat = 17
/
&ELECTRONS
electron_maxstep = 200
mixing_beta = 0.1
conv_thr = 1e-06
/
&IONS
ion_dynamics = 'bfgs'
upscale = 1.0
/
&CELL
/

K_POINTS {automatic}
8 11 2 0  0  0

ATOMIC_SPECIES
C 12.01 C.pbe-n-rrkjus_psl.1.0.0.UPF
Ga 69.72 Ga.pbe-dnl-rrkjus_psl.1.0.0.UPF
Pt 195.0 Pt.pbe-n-rrkjus_psl.1.0.0.UPF

CELL_PARAMETERS {angstrom}
7.92728000 0.00000000 0.00000000
0.00000000 5.60543000 0.00000000
0.00000000 0.00000000 24.20410000

ATOMIC_POSITIONS {angstrom}
Ga 0.00000000 0.00000000 -2.1021260800000015 0 0 0
Ga 7.92712145 2.80271500 0.38774968
Ga 3.96364000 0.00000000 -2.1021260800000015 0 0 0
Ga 3.96356073 2.80271500 2.08227872
Pt 0.00000000 2.80271500 -2.1021260800000015 0 0 0
Pt 1.98182000 4.20407250 -0.700708689999999 0 0 0
Pt 1.98182000 1.40135750 -0.700708689999999 0 0 0
Pt 0.00000000 0.00000000 0.56710206
Pt 1.59377964 1.43633538 2.22701924
Pt 1.59377964 4.16909462 2.22701924
Pt 3.96364000 2.80271500 -2.1021260800000015 0 0 0
Pt 5.94546000 4.20407250 -0.700708689999999 0 0 0
Pt 5.94546000 1.40135750 -0.700708689999999 0 0 0
Pt 3.96364000 0.00000000 0.99599872
Pt 6.33350036 1.43627933 2.22701924
Pt 6.33350036 4.16909462 2.22701924
C 0.00000000 2.80271500 2.65809426
