&CONTROL
calculation = 'relax'
prefix = 'scf'
pseudo_dir = '/vol0004/mdt0/data/hp150275/u10028/POT_KKJUS'
outdir = './data'
tprnfor = .true.
nstep = 50
disk_io = 'non'
/
&SYSTEM
ibrav = 0
ecutwfc = 50.0
ecutrho = 400
occupations = 'smearing'
smearing = 'mp'
degauss = 0.01
assume_isolated = 'esm'
esm_bc = 'bc1'
input_dft = 'BEEF-VDW'
nosym = .true.
nspin = 1
ntyp = 5
nat = 18
/
&ELECTRONS
electron_maxstep = 200
mixing_beta = 0.1
conv_thr = 1e-06
/
&IONS
ion_dynamics = 'bfgs'
upscale = 1.0
/
&CELL
/

K_POINTS {automatic}
8 8 1 0 0 0

ATOMIC_SPECIES
C 12.01 C.pbe-n-rrkjus_psl.1.0.0.UPF
Ga 69.72 Ga.pbe-dnl-rrkjus_psl.1.0.0.UPF
Ir 192.2 Ir.pbe-n-rrkjus_psl.0.2.3.UPF
Li 6.941 Li.pbe-sl-rrkjus_psl.1.0.0.UPF
O 15.99 O.pbe-n-rrkjus_psl.1.0.0.UPF

CELL_PARAMETERS {angstrom}
6.01864000 0.00000000 0.00000000
0.00000000 6.01864000 0.00000000
0.00000000 0.00000000 24.51400000

ATOMIC_POSITIONS {angstrom}
Li 6.01400565 0.00457417 0.60917290
Li 3.00932000 0.00000000 -2.2570039800000004 0 0 0
Li 0.00000000 3.00932000 -2.2570039800000004 0 0 0
Li 3.01973225 2.99902813 0.58907142
Li 1.50466000 1.50466000 -0.7523346599999989 0 0 0
Li 1.50207198 4.51650783 2.50557594
Li 4.51398000 4.51398000 -0.7523346599999989 0 0 0
Li 4.51945696 1.49918304 2.64873770
Ga 1.51152125 1.51200274 2.15232920
Ga 1.50466000 4.51398000 -0.7523346599999989 0 0 0
Ga 4.50663726 4.50717894 2.15232920
Ga 4.51398000 1.50466000 -0.7523346599999989 0 0 0
Ir 0.00000000 0.00000000 -2.2570039800000004 0 0 0
Ir 3.00932000 3.00932000 -2.2570039800000004 0 0 0
Ir 3.01335249 0.00439361 0.88029774
Ir 6.01412602 3.00540788 0.88029774
C 4.51837361 1.50020621 4.78807448
O 4.51590596 1.50273404 5.92895604
