&CONTROL
calculation = 'relax'
prefix = 'scf'
pseudo_dir = '/vol0004/mdt0/data/hp150275/u10028/POT_KKJUS'
outdir = './data'
tprnfor = .true.
nstep = 50
disk_io = 'non'
/
&SYSTEM
ibrav = 0
ecutwfc = 50.0
ecutrho = 400
occupations = 'smearing'
smearing = 'mp'
degauss = 0.01
assume_isolated = 'esm'
esm_bc = 'bc1'
input_dft = 'BEEF-VDW'
nosym = .true.
nspin = 1
ntyp = 3
nat = 17
/
&ELECTRONS
electron_maxstep = 200
mixing_beta = 0.1
conv_thr = 1e-06
/
&IONS
ion_dynamics = 'bfgs'
upscale = 1.0
/
&CELL
/

K_POINTS {automatic}
8 11 2 0  0  0

ATOMIC_SPECIES
C 12.01 C.pbe-n-rrkjus_psl.1.0.0.UPF
Sn 118.7 Sn.pbe-dn-rrkjus_psl.1.0.0.UPF
Ti 47.86 Ti.pbe-spn-rrkjus_psl.1.0.0.UPF

CELL_PARAMETERS {angstrom}
8.35210000 0.00000000 0.00000000
0.00000000 5.90582000 0.00000000
0.00000000 0.00000000 24.42940000

ATOMIC_POSITIONS {angstrom}
Ti 0.00000000 2.95291000 -2.2147694000000016 0 0 0
Ti 2.08802500 4.42936500 -0.7382564699999996 0 0 0
Ti 2.08802500 1.47645500 -0.7382564699999996 0 0 0
Ti 0.00000000 0.00000000 0.52669786
Ti 1.64160525 1.28457491 2.24750480
Ti 1.64160525 4.62124509 2.24750480
Ti 4.17605000 2.95291000 -2.2147694000000016 0 0 0
Ti 6.26407500 4.42936500 -0.7382564699999996 0 0 0
Ti 6.26407500 1.47645500 -0.7382564699999996 0 0 0
Ti 4.17605000 0.00000000 0.81716343
Ti 6.71049475 1.28457491 2.24750480
Ti 6.71049475 4.62124509 2.24750480
Sn 0.00000000 0.00000000 -2.2147694000000016 0 0 0
Sn 8.35201648 2.95291000 0.61342223
Sn 4.17605000 0.00000000 -2.2147694000000016 0 0 0
Sn 4.17588296 2.95291000 1.01186575
C 0.00000000 0.00000000 2.72558816
