&CONTROL
calculation = 'relax'
prefix = 'scf'
pseudo_dir = '/vol0004/mdt0/data/hp150275/u10028/POT_HYBRID_KKJUS_GBRV'
outdir = './data'
tprnfor = .true.
nstep = 50
disk_io = 'non'
/
&SYSTEM
ibrav = 0
ecutwfc = 50.0
ecutrho = 400
occupations = 'smearing'
smearing = 'mp'
degauss = 0.01
assume_isolated = 'esm'
esm_bc = 'bc1'
input_dft = 'BEEF-VDW'
nosym = .true.
nspin = 2
ntyp = 5
nat = 34
starting_magnetization(1) = 0.0
starting_magnetization(2) = 0.1
starting_magnetization(3) = 0.1
starting_magnetization(4) = 0.0
starting_magnetization(5) = 0.0
/
&ELECTRONS
electron_maxstep = 300
mixing_beta = 0.1
conv_thr = 1e-06
/
&IONS
ion_dynamics = 'bfgs'
upscale = 1.0
/
&CELL
/

K_POINTS {automatic}
9 6 2 0  0  0

ATOMIC_SPECIES
C 12.01 C.pbe-n-rrkjus_psl.1.0.0.UPF
Co 58.93 co_pbe_v1.2.uspp.F.UPF
Fe 55.84 fe_pbe_v1.5.uspp.F.UPF
Ge 72.64 Ge.pbe-dn-rrkjus_psl.1.0.0.UPF
O 15.99 O.pbe-n-rrkjus_psl.1.0.0.UPF

CELL_PARAMETERS {angstrom}
5.76795000 0.00000000 0.00000000
0.00000000 8.15711000 0.00000000
0.00000000 0.00000000 26.11780000

ATOMIC_POSITIONS {angstrom}
Fe 0.00000000 0.00000000 -3.0589167399999972 0 0 0
Fe 2.88397500 2.03927750 -1.0196389099999976 0 0 0
Fe 2.88397500 6.11783250 -1.0196389099999976 0 0 0
Fe 0.00000000 4.07855500 -3.0589167399999972 0 0 0
Fe 0.00017304 4.07953385 1.00788590
Fe 2.88397500 6.11758779 3.02444124
Fe 2.88397500 2.03927750 3.02731420
Fe 0.00017304 8.15604958 1.00762472
Co 1.44198750 0.00000000 -1.0196389099999976 0 0 0
Co 4.32596250 4.07855500 -1.0196389099999976 0 0 0
Co 4.32596250 0.00000000 -1.0196389099999976 0 0 0
Co 1.44198750 4.07855500 -1.0196389099999976 0 0 0
Co 4.32596250 6.11783250 -3.0589167399999972 0 0 0
Co 1.44198750 2.03927750 -3.0589167399999972 0 0 0
Co 1.44198750 6.11783250 -3.0589167399999972 0 0 0
Co 4.32596250 2.03927750 -3.0589167399999972 0 0 0
Co 1.39838180 4.07806557 2.93746897
Co 4.36979892 0.00032628 2.93773014
Co 4.36985660 4.07806557 2.93746897
Co 1.39843948 0.00032628 2.93746897
Co 4.33490282 2.03935907 1.02016127
Co 1.43270110 6.11766936 1.01990009
Co 1.43310486 2.03935907 1.02042245
Co 4.33530658 6.11766936 1.01990009
Ge 0.00000000 6.11783250 -1.0196389099999976 0 0 0
Ge 2.88397500 0.00000000 -3.0589167399999972 0 0 0
Ge 0.00000000 2.03927750 -1.0196389099999976 0 0 0
Ge 2.88397500 4.07855500 -3.0589167399999972 0 0 0
Ge 0.00040376 2.03952221 3.21301176
Ge 2.88385964 4.07708672 1.01754949
Ge 0.00028840 6.11742464 3.22319770
Ge 2.88385964 0.00130514 1.01754949
C 5.76743088 2.04066421 7.09411684
O 5.76766160 2.03935907 8.22893525
