&CONTROL
calculation = 'relax'
prefix = 'scf'
pseudo_dir = '/vol0403/data/hp230205/u10028/POT_HYBRID_KKJUS_GBRV'
outdir = './data'
tprnfor = .true.
nstep = 50
disk_io = 'non'
/
&SYSTEM
ibrav = 0
ecutwfc = 50.0
ecutrho = 400
occupations = 'smearing'
smearing = 'mp'
degauss = 0.01
assume_isolated = 'esm'
esm_bc = 'bc1'
input_dft = 'BEEF-VDW'
nosym = .true.
nspin = 1
ntyp = 6
nat = 18
/
&ELECTRONS
electron_maxstep = 200
mixing_beta = 0.1
conv_thr = 1e-06
/
&IONS
ion_dynamics = 'bfgs'
upscale = 1.0
/
&CELL
/

K_POINTS {automatic}
6 6 1 0 0 0

ATOMIC_SPECIES
C 12.01 C.pbe-n-rrkjus_psl.1.0.0.UPF
Ge 72.64 Ge.pbe-dn-rrkjus_psl.1.0.0.UPF
Li 6.941 Li.pbe-sl-rrkjus_psl.1.0.0.UPF
O 15.99 O.pbe-n-rrkjus_psl.1.0.0.UPF
Pd 106.4 Pd.pbe-n-rrkjus_psl.1.0.0.UPF
V 50.94 V.pbe-spnl-rrkjus_psl.1.0.0.UPF


CELL_PARAMETERS {angstrom}
5.68832000 0.00000000 0.00000000
0.00000000 6.38622000 0.00000000
0.00000000 0.00000000 24.77250000

ATOMIC_POSITIONS {angstrom}
Li 1.42208000 4.65466031 -0.7954449700000019 0 0 0
Li 1.42208000 1.27507269 2.78021767
Li 4.26624000 4.65466031 -0.7954449700000019 0 0 0
Li 4.26624000 1.19977915 2.77179503
V 1.42208000 1.46155031 -0.7954449700000019 0 0 0
V 1.42242130 4.41128147 2.20277070
V 4.26624000 1.46155031 -0.7954449700000019 0 0 0
V 4.26550052 4.41013195 2.29195170
Ge 0.00000000 0.00000000 -2.3863349199999995 0 0 0
Ge 5.65015137 2.73930521 0.95795258
Ge 2.84416000 0.00000000 -2.3863349199999995 0 0 0
Ge 2.88215798 2.73898590 0.95795258
Pd 0.00000000 3.19311000 -2.3863349199999995 0 0 0
Pd 5.67950310 6.29195939 0.99114772
Pd 2.84416000 3.19311000 -2.3863349199999995 0 0 0
Pd 2.85297690 6.29215098 0.99114772
C 1.42259195 4.24402636 4.13675977
O 1.42242130 4.24025849 5.31271035
