&CONTROL
calculation = 'relax'
prefix = 'scf'
pseudo_dir = '/vol0403/data/hp230205/u10028/POT_HYBRID_KKJUS_GBRV'
outdir = './data'
tprnfor = .true.
nstep = 50
disk_io = 'non'
/
&SYSTEM
ibrav = 0
ecutwfc = 50.0
ecutrho = 400
occupations = 'smearing'
smearing = 'mp'
degauss = 0.01
assume_isolated = 'esm'
esm_bc = 'bc1'
input_dft = 'BEEF-VDW'
nosym = .true.
nspin = 1
ntyp = 5
nat = 33
/
&ELECTRONS
electron_maxstep = 200
mixing_beta = 0.1
conv_thr = 1e-06
/
&IONS
ion_dynamics = 'bfgs'
upscale = 1.0
/
&CELL
/

K_POINTS {automatic}
6 6 1 0 0 0

ATOMIC_SPECIES
C 12.01 C.pbe-n-rrkjus_psl.1.0.0.UPF
Cu 63.54 Cu.pbe-dn-rrkjus_psl.1.0.0.UPF
Li 6.941 Li.pbe-sl-rrkjus_psl.1.0.0.UPF
Pd 106.4 Pd.pbe-n-rrkjus_psl.1.0.0.UPF
Sb 121.7 Sb.pbe-n-rrkjus_psl.1.0.0.UPF


CELL_PARAMETERS {angstrom}
6.37250000 0.00000000 0.00000000
0.00000000 9.01208000 0.00000000
0.00000000 0.00000000 26.75910000

ATOMIC_POSITIONS {angstrom}
Li 1.59312500 0.00000000 -1.1265581100000013 0 0 0
Li 1.59312500 4.50604000 -1.1265581100000013 0 0 0
Li 4.77937500 2.25302000 -3.3794067400000003 0 0 0
Li 4.77937500 6.75906000 -3.3794067400000003 0 0 0
Li 1.52105202 4.50604000 3.52015960
Li 1.63129627 0.00000000 3.34301436
Li 4.77357602 6.67786116 0.93362500
Li 4.77357602 2.33421884 0.93362500
Cu 0.00000000 0.00000000 -3.3794067400000003 0 0 0
Cu 0.00000000 4.50604000 -3.3794067400000003 0 0 0
Cu 3.18625000 6.75906000 -1.1265581100000013 0 0 0
Cu 3.18625000 2.25302000 -1.1265581100000013 0 0 0
Cu 6.31323575 4.50604000 1.41421843
Cu 6.17495250 0.00000000 1.25981843
Cu 3.38386122 2.28978929 3.07702891
Cu 3.38386122 6.72229071 3.07702891
Sb 4.77937500 0.00000000 -1.1265581100000013 0 0 0
Sb 4.77937500 4.50604000 -1.1265581100000013 0 0 0
Sb 1.59312500 2.25302000 -3.3794067400000003 0 0 0
Sb 1.59312500 6.75906000 -3.3794067400000003 0 0 0
Sb 4.82665895 4.50604000 3.68526325
Sb 4.18399232 0.00000000 4.25523208
Sb 1.60408570 6.78393334 1.13244511
Sb 1.60408570 2.22814666 1.13244511
Pd 0.00000000 2.25302000 -1.1265581100000013 0 0 0
Pd 0.00000000 6.75906000 -1.1265581100000013 0 0 0
Pd 3.18625000 4.50604000 -3.3794067400000003 0 0 0
Pd 3.18625000 0.00000000 -3.3794067400000003 0 0 0
Pd 6.10064915 6.90667787 3.11342128
Pd 6.10058542 2.10549225 3.11342128
Pd 3.37366522 0.00000000 1.34517996
Pd 3.20504887 4.50604000 1.35294010
C 6.03163497 0.00000000 3.26086393
