&CONTROL
calculation = 'relax'
prefix = 'scf'
pseudo_dir = '/vol0004/mdt0/data/hp150275/u10028/POT_KKJUS'
outdir = './data'
tprnfor = .true.
nstep = 50
disk_io = 'non'
/
&SYSTEM
ibrav = 0
ecutwfc = 50.0
ecutrho = 400
occupations = 'smearing'
smearing = 'mp'
degauss = 0.01
assume_isolated = 'esm'
esm_bc = 'bc1'
input_dft = 'BEEF-VDW'
nosym = .true.
nspin = 1
ntyp = 3
nat = 33
/
&ELECTRONS
electron_maxstep = 200
mixing_beta = 0.1
conv_thr = 1e-06
/
&IONS
ion_dynamics = 'bfgs'
upscale = 1.0
/
&CELL
/

K_POINTS {automatic}
9 6 2 0  0  0

ATOMIC_SPECIES
C 12.01 C.pbe-n-rrkjus_psl.1.0.0.UPF
Y 88.90 Y.pbe-spn-rrkjus_psl.1.0.0.UPF
Zn 65.40 Zn.pbe-dnl-rrkjus_psl.1.0.0.UPF

CELL_PARAMETERS {angstrom}
7.16718000 0.00000000 0.00000000
0.00000000 10.13590000 0.00000000
0.00000000 0.00000000 27.60190000

ATOMIC_POSITIONS {angstrom}
Y 0.00000000 0.00000000 -3.8010576500000006 0 0 0
Y 0.00000000 2.53397500 -1.2669272100000022 0 0 0
Y 7.14410168 10.06150249 1.17832511
Y 6.98671041 2.40474228 3.75247830
Y 0.00000000 5.06795000 -3.8010576500000006 0 0 0
Y 0.00000000 7.60192500 -1.2669272100000022 0 0 0
Y 7.15657257 5.06450379 1.22524834
Y 7.14446004 7.55631345 3.90456477
Y 3.58359000 0.00000000 -3.8010576500000006 0 0 0
Y 3.58359000 2.53397500 -1.2669272100000022 0 0 0
Y 3.60673999 10.06140114 1.17860113
Y 3.76398792 2.40464092 3.75247830
Y 3.58359000 5.06795000 -3.8010576500000006 0 0 0
Y 3.58359000 7.60192500 -1.2669272100000022 0 0 0
Y 3.59419743 5.06450379 1.22552436
Y 3.60630996 7.55611073 3.90456477
Zn 1.79179500 2.53397500 -3.8010576500000006 0 0 0
Zn 1.79179500 0.00000000 -1.2669272100000022 0 0 0
Zn 1.79179500 2.46748350 1.22635242
Zn 1.79186667 5.35763402 3.63075393
Zn 1.79179500 7.60192500 -3.8010576500000006 0 0 0
Zn 1.79179500 5.06795000 -1.2669272100000022 0 0 0
Zn 1.79179500 7.59797200 1.28266029
Zn 1.79179500 9.95902855 3.31471217
Zn 5.37538500 2.53397500 -3.8010576500000006 0 0 0
Zn 5.37538500 0.00000000 -1.2669272100000022 0 0 0
Zn 5.37538500 2.54471905 0.98980413
Zn 5.37538500 5.18147208 3.82838353
Zn 5.37538500 7.60192500 -3.8010576500000006 0 0 0
Zn 5.37538500 5.06795000 -1.2669272100000022 0 0 0
Zn 5.37538500 7.56949012 1.14133856
Zn 5.37531333 9.79543512 3.85653747
C 1.79179500 3.39937814 3.48970822
