&CONTROL
calculation = 'relax'
prefix = 'scf'
pseudo_dir = '/vol0004/mdt0/data/hp150275/u10028/POT_KKJUS'
outdir = './data'
tprnfor = .true.
nstep = 50
disk_io = 'non'
/
&SYSTEM
ibrav = 0
ecutwfc = 50.0
ecutrho = 400
occupations = 'smearing'
smearing = 'mp'
degauss = 0.01
assume_isolated = 'esm'
esm_bc = 'bc1'
input_dft = 'BEEF-VDW'
nosym = .true.
nspin = 1
ntyp = 5
nat = 34
/
&ELECTRONS
electron_maxstep = 200
mixing_beta = 0.1
conv_thr = 1e-06
/
&IONS
ion_dynamics = 'bfgs'
upscale = 1.0
/
&CELL
/

K_POINTS {automatic}
8 6 1 0 0 0

ATOMIC_SPECIES
Al 26.98 Al.pbe-nl-rrkjus_psl.1.0.0.UPF
C 12.01 C.pbe-n-rrkjus_psl.1.0.0.UPF
Hf 178.4 Hf.pbe-spn-rrkjus_psl.1.0.0.UPF
Ni 58.69 Ni.pbe-spn-rrkjus_psl.1.0.0.UPF
O 15.99 O.pbe-n-rrkjus_psl.1.0.0.UPF

CELL_PARAMETERS {angstrom}
6.09904000 0.00000000 0.00000000
0.00000000 8.62534000 0.00000000
0.00000000 0.00000000 26.46900000

ATOMIC_POSITIONS {angstrom}
Hf 0.00000000 0.00000000 -3.2345118 0 0 0
Hf 3.04952000 2.15633500 -1.0780823700000006 0 0 0
Hf 3.04952000 6.46900500 -1.0780823700000006 0 0 0
Hf 0.00000000 4.31267000 -3.2345118 0 0 0
Hf 6.09885703 4.31267000 1.04234922
Hf 3.04756831 6.47055756 3.32741799
Hf 3.04762930 2.15469619 3.32741799
Hf 0.00731885 0.00000000 1.06881822
Al 0.00000000 6.46900500 -1.0780823700000006 0 0 0
Al 3.04952000 0.00000000 -3.2345118 0 0 0
Al 0.00000000 2.15633500 -1.0780823700000006 0 0 0
Al 3.04952000 4.31267000 -3.2345118 0 0 0
Al 6.07202125 2.18773124 3.17151558
Al 3.04817821 4.31267000 1.11778587
Al 6.07214323 6.43752251 3.17125089
Al 3.03793182 8.62525375 1.14769584
Ni 1.52476000 0.00000000 -1.0780823700000006 0 0 0
Ni 4.57428000 4.31267000 -1.0780823700000006 0 0 0
Ni 4.57428000 0.00000000 -1.0780823700000006 0 0 0
Ni 1.52476000 4.31267000 -1.0780823700000006 0 0 0
Ni 4.57428000 6.46900500 -3.2345118 0 0 0
Ni 1.52476000 2.15633500 -3.2345118 0 0 0
Ni 1.52476000 6.46900500 -3.2345118 0 0 0
Ni 4.57428000 2.15633500 -3.2345118 0 0 0
Ni 1.47901720 4.31249749 3.10772529
Ni 4.65289663 8.62508124 3.08628540
Ni 4.61428970 4.31241124 3.10984281
Ni 1.41198875 8.62525375 3.38962014
Ni 4.47029137 2.15486869 1.14743115
Ni 1.63124924 6.48021794 1.17098856
Ni 1.63143221 2.14451828 1.17363546
Ni 4.46949849 6.47193762 1.14901929
C 1.78311533 0.00008625 5.12042805
O 1.88307860 0.00008625 6.28321122
