&CONTROL
calculation = 'relax'
prefix = 'scf'
pseudo_dir = '/vol0004/mdt0/data/hp150275/u10028/POT_KKJUS'
outdir = './data'
tprnfor = .true.
nstep = 50
disk_io = 'non'
/
&SYSTEM
ibrav = 0
ecutwfc = 50.0
ecutrho = 400
occupations = 'smearing'
smearing = 'mp'
degauss = 0.01
assume_isolated = 'esm'
esm_bc = 'bc1'
input_dft = 'BEEF-VDW'
nosym = .true.
nspin = 1
ntyp = 5
nat = 18
/
&ELECTRONS
electron_maxstep = 200
mixing_beta = 0.1
conv_thr = 1e-06
/
&IONS
ion_dynamics = 'bfgs'
upscale = 1.0
/
&CELL
/

K_POINTS {automatic}
10 10 2 0  0  0

ATOMIC_SPECIES
C 12.01 C.pbe-n-rrkjus_psl.1.0.0.UPF
Ga 69.72 Ga.pbe-dnl-rrkjus_psl.1.0.0.UPF
Li 6.941 Li.pbe-sl-rrkjus_psl.1.0.0.UPF
O 15.99 O.pbe-n-rrkjus_psl.1.0.0.UPF
Rh 102.9 Rh.pbe-spn-rrkjus_psl.1.0.0.UPF

CELL_PARAMETERS {angstrom}
6.03399000 0.00000000 0.00000000
0.00000000 6.03399000 0.00000000
0.00000000 0.00000000 24.52550000

ATOMIC_POSITIONS {angstrom}
Li 6.02065488 0.01333512 0.63741775
Li 3.01699500 0.00000000 -2.2627226300000025 0 0 0
Li 0.00000000 3.01699500 -2.2627226300000025 0 0 0
Li 3.03135590 3.00263410 0.63324841
Li 1.50994566 1.50952328 2.51018492
Li 1.50849750 4.52549250 -0.7541591300000015 0 0 0
Li 4.52446672 4.52404434 2.51043018
Li 4.52549250 1.50849750 -0.7541591300000015 0 0 0
Ga 1.50849750 1.50849750 -0.7541591300000015 0 0 0
Ga 1.51320401 4.52078599 2.10624994
Ga 4.52549250 4.52549250 -0.7541591300000015 0 0 0
Ga 4.51788967 1.51610033 2.18644832
Rh 0.00000000 0.00000000 -2.2627226300000025 0 0 0
Rh 3.01699500 3.01699500 -2.2627226300000025 0 0 0
Rh 3.01409868 6.02958519 0.86746694
Rh 0.00440481 3.01989132 0.86746694
C 4.53255227 1.50143773 4.24143997
O 4.52422536 1.50976464 5.40321291
