&CONTROL
calculation = 'relax'
prefix = 'scf'
pseudo_dir = '/vol0403/data/hp230205/u10028/POT_HYBRID_KKJUS_GBRV'
outdir = './data'
tprnfor = .true.
nstep = 70
disk_io = 'non'
/
&SYSTEM
ibrav = 0
ecutwfc = 50.0
ecutrho = 400
occupations = 'smearing'
smearing = 'mp'
degauss = 0.01
assume_isolated = 'esm'
esm_bc = 'bc1'
input_dft = 'BEEF-VDW'
nosym = .true.
nspin = 1
ntyp = 6
nat = 34
/
&ELECTRONS
electron_maxstep = 200
mixing_beta = 0.1
conv_thr = 1e-06
/
&IONS
ion_dynamics = 'bfgs'
upscale = 1.0
/
&CELL
/

K_POINTS {automatic}
6 6 1 0 0 0

ATOMIC_SPECIES
C 12.01 C.pbe-n-rrkjus_psl.1.0.0.UPF
In 114.8 In.pbe-dn-rrkjus_psl.1.0.0.UPF
O 15.99 O.pbe-n-rrkjus_psl.1.0.0.UPF
Pd 106.4 Pd.pbe-n-rrkjus_psl.1.0.0.UPF
Pt 195.0 Pt.pbe-n-rrkjus_psl.1.0.0.UPF
Y 88.90 Y.pbe-spn-rrkjus_psl.1.0.0.UPF


CELL_PARAMETERS {angstrom}
6.82696000 0.00000000 0.00000000
-0.00000000 9.65478000 0.00000000
0.00000000 0.00000000 27.24110000

ATOMIC_POSITIONS {angstrom}
Y 0.00000000 2.41369500 -1.2067807299999984 0 0 0
Y 0.00000000 7.24108500 -1.2067807299999984 0 0 0
Y 3.41348000 4.82739000 -3.6206145999999997 0 0 0
Y 3.41348000 0.00000000 -3.6206145999999997 0 0 0
Y 6.71806999 7.42249832 3.64840052
Y 6.71800172 2.23228168 3.64840052
Y 3.48325153 -0.00000000 1.27842482
Y 3.40235206 4.82739000 1.23020808
In 0.00000000 0.00000000 -3.6206145999999997 0 0 0
In 0.00000000 4.82739000 -3.6206145999999997 0 0 0
In 3.41348000 7.24108500 -1.2067807299999984 0 0 0
In 3.41348000 2.41369500 -1.2067807299999984 0 0 0
In 6.80531854 4.82739000 1.22040128
In 0.03147229 0.00000000 1.21522547
In 3.31339677 2.55349621 3.73911339
In 3.31346504 7.10138033 3.73911339
Pd 5.12022000 0.00000000 -1.2067807299999984 0 0 0
Pd 5.12022000 4.82739000 -1.2067807299999984 0 0 0
Pd 1.70674000 2.41369500 -3.6206145999999997 0 0 0
Pd 1.70674000 7.24108500 -3.6206145999999997 0 0 0
Pd 5.12226809 4.82739000 3.51355708
Pd 4.48381079 -0.00000000 4.43485108
Pd 1.69158415 7.22457533 1.25663194
Pd 1.69151588 2.43020467 1.25690435
Pt 1.70674000 0.00000000 -1.2067807299999984 0 0 0
Pt 1.70674000 4.82739000 -1.2067807299999984 0 0 0
Pt 5.12022000 2.41369500 -3.6206145999999997 0 0 0
Pt 5.12022000 7.24108500 -3.6206145999999997 0 0 0
Pt 1.61293757 4.82748655 3.45335425
Pt 1.79801646 0.00009655 3.47759883
Pt 5.15899713 7.25257419 1.24900444
Pt 5.15906540 2.40220581 1.24873202
C 5.68644806 -0.00000000 5.94128391
O 6.07988577 9.65468345 7.03147273
