&CONTROL
calculation = 'relax'
prefix = 'scf'
pseudo_dir = '/vol0004/mdt0/data/hp150275/u10028/POT_KKJUS'
outdir = './data'
tprnfor = .true.
nstep = 50
disk_io = 'non'
/
&SYSTEM
ibrav = 0
ecutwfc = 50.0
ecutrho = 400
occupations = 'smearing'
smearing = 'mp'
degauss = 0.01
assume_isolated = 'esm'
esm_bc = 'bc1'
input_dft = 'BEEF-VDW'
nosym = .true.
nspin = 1
ntyp = 5
nat = 18
/
&ELECTRONS
electron_maxstep = 200
mixing_beta = 0.1
conv_thr = 1e-06
/
&IONS
ion_dynamics = 'bfgs'
upscale = 1.0
/
&CELL
/

K_POINTS {automatic}
8 8 1 0 0 0

ATOMIC_SPECIES
Al 26.98 Al.pbe-nl-rrkjus_psl.1.0.0.UPF
C 12.01 C.pbe-n-rrkjus_psl.1.0.0.UPF
Li 6.941 Li.pbe-sl-rrkjus_psl.1.0.0.UPF
O 15.99 O.pbe-n-rrkjus_psl.1.0.0.UPF
Pt 195.0 Pt.pbe-n-rrkjus_psl.1.0.0.UPF

CELL_PARAMETERS {angstrom}
6.07419000 0.00000000 0.00000000
0.00000000 6.07419000 0.00000000
0.00000000 0.00000000 24.55560000

ATOMIC_POSITIONS {angstrom}
Li 0.00000000 0.00000000 -0.7592591499999983 0 0 0
Li 3.03709500 0.00000000 2.48060671
Li 0.00000000 3.03709500 2.48036116
Li 3.03709500 3.03709500 -0.7592591499999983 0 0 0
Li 1.47876156 1.47894378 0.67405122
Li 1.51854750 4.55564250 -2.2777774599999994 0 0 0
Li 4.59542844 4.59518548 0.67405122
Li 4.55564250 1.51854750 -2.2777774599999994 0 0 0
Al 0.00000000 0.00000000 2.19428842
Al 3.03709500 3.03709500 2.02313588
Al 3.03709500 0.00000000 -0.7592591499999983 0 0 0
Al 0.00000000 3.03709500 -0.7592591499999983 0 0 0
Pt 1.51854750 1.51854750 -2.2777774599999994 0 0 0
Pt 1.50870731 4.56530046 0.77448362
Pt 4.55564250 4.55564250 -2.2777774599999994 0 0 0
Pt 4.56548269 1.50888954 0.77448362
C 0.00000000 0.00000000 4.15578974
O 0.00000000 0.00000000 5.32218074
