&CONTROL
calculation = 'relax'
prefix = 'scf'
pseudo_dir = '/vol0403/data/hp230205/u10028/POT_HYBRID_KKJUS_GBRV'
outdir = './data'
tprnfor = .true.
nstep = 50
disk_io = 'non'
/
&SYSTEM
ibrav = 0
ecutwfc = 50.0
ecutrho = 400
occupations = 'smearing'
smearing = 'mp'
degauss = 0.01
assume_isolated = 'esm'
esm_bc = 'bc1'
input_dft = 'BEEF-VDW'
nosym = .true.
nspin = 1
ntyp = 5
nat = 33
/
&ELECTRONS
electron_maxstep = 200
mixing_beta = 0.1
conv_thr = 1e-06
/
&IONS
ion_dynamics = 'bfgs'
upscale = 1.0
/
&CELL
/

K_POINTS {automatic}
6 6 1 0 0 0

ATOMIC_SPECIES
C 12.01 C.pbe-n-rrkjus_psl.1.0.0.UPF
Cu 63.54 Cu.pbe-dn-rrkjus_psl.1.0.0.UPF
Ge 72.64 Ge.pbe-dn-rrkjus_psl.1.0.0.UPF
Li 6.941 Li.pbe-sl-rrkjus_psl.1.0.0.UPF
Sn 118.7 Sn.pbe-dn-rrkjus_psl.1.0.0.UPF


CELL_PARAMETERS {angstrom}
6.57410000 0.00000000 0.00000000
0.00000000 9.29718000 0.00000000
0.00000000 0.00000000 26.97290000

ATOMIC_POSITIONS {angstrom}
Li 0.00000000 2.32429500 -1.1622622599999985 0 0 0
Li 0.00000000 6.97288500 -1.1622622599999985 0 0 0
Li 3.28705000 4.64859000 -3.48651705 0 0 0
Li 3.28705000 0.00000000 -3.48651705 0 0 0
Li 0.61145704 6.97288500 3.68503760
Li 6.21732359 2.32429500 4.42787126
Li 3.23919055 0.08878807 1.27312088
Li 3.23919055 4.55980193 1.27312088
Cu 0.00000000 0.00000000 -3.48651705 0 0 0
Cu 0.00000000 4.64859000 -3.48651705 0 0 0
Cu 3.28705000 6.97288500 -1.1622622599999985 0 0 0
Cu 3.28705000 2.32429500 -1.1622622599999985 0 0 0
Cu 6.56989258 4.73031221 1.24722690
Cu 6.56989258 9.21545779 1.24722690
Cu 3.61227073 2.32429500 3.40236161
Cu 3.48046002 6.97288500 3.04038529
Sn 4.93057500 0.00000000 -1.1622622599999985 0 0 0
Sn 4.93057500 4.64859000 -1.1622622599999985 0 0 0
Sn 1.64352500 2.32429500 -3.48651705 0 0 0
Sn 1.64352500 6.97288500 -3.48651705 0 0 0
Sn 4.97797426 4.80413182 3.62812478
Sn 4.97797426 9.14163818 3.62812478
Sn 1.69782707 6.97288500 1.08700787
Sn 1.41165649 2.32429500 1.56469793
Ge 1.64352500 0.00000000 -1.1622622599999985 0 0 0
Ge 1.64352500 4.64859000 -1.1622622599999985 0 0 0
Ge 4.93057500 2.32429500 -3.48651705 0 0 0
Ge 4.93057500 6.97288500 -3.48651705 0 0 0
Ge 1.63057402 4.27010180 3.89812351
Ge 1.63050828 0.37839523 3.89812351
Ge 5.20879091 6.97288500 1.26880522
Ge 5.01045031 2.32429500 1.32760614
C 1.68776869 2.32429500 4.04242852
