&CONTROL
calculation = 'relax'
prefix = 'scf'
pseudo_dir = '/vol0403/data/hp230205/u10028/POT_HYBRID_KKJUS_GBRV'
outdir = './data'
tprnfor = .true.
nstep = 50
disk_io = 'non'
/
&SYSTEM
ibrav = 0
ecutwfc = 50.0
ecutrho = 400
occupations = 'smearing'
smearing = 'mp'
degauss = 0.01
assume_isolated = 'esm'
esm_bc = 'bc1'
input_dft = 'BEEF-VDW'
nosym = .true.
nspin = 1
ntyp = 5
nat = 33
/
&ELECTRONS
electron_maxstep = 200
mixing_beta = 0.1
conv_thr = 1e-06
/
&IONS
ion_dynamics = 'bfgs'
upscale = 1.0
/
&CELL
/

K_POINTS {automatic}
9 6 2 0  0  0

ATOMIC_SPECIES
C 12.01 C.pbe-n-rrkjus_psl.1.0.0.UPF
Ca 40.07 Ca.pbe-spn-rrkjus_psl.1.0.0.UPF
Ge 72.64 Ge.pbe-dn-rrkjus_psl.1.0.0.UPF
Li 6.941 Li.pbe-sl-rrkjus_psl.1.0.0.UPF
Pd 106.4 Pd.pbe-n-rrkjus_psl.1.0.0.UPF


CELL_PARAMETERS {angstrom}
6.62107000 0.00000000 0.00000000
0.00000000 9.36360000 0.00000000
0.00000000 0.00000000 27.02270000

ATOMIC_POSITIONS {angstrom}
Li 4.96580250 0.00000000 -1.1703531399999996 0 0 0
Li 4.96580250 4.68180000 -1.1703531399999996 0 0 0
Li 1.65526750 2.34090000 -3.5113296399999996 0 0 0
Li 1.65526750 7.02270000 -3.5113296399999996 0 0 0
Li 6.18421180 4.68180000 4.87840803
Li 4.95885038 0.00009364 3.45674378
Li 1.77358602 6.94788484 1.42382606
Li 1.77371844 2.41543426 1.42409629
Ca 0.00000000 0.00000000 -3.5113296399999996 0 0 0
Ca 0.00000000 4.68180000 -3.5113296399999996 0 0 0
Ca 3.31053500 7.02270000 -1.1703531399999996 0 0 0
Ca 3.31053500 2.34090000 -1.1703531399999996 0 0 0
Ca 6.34808328 4.68142546 1.25952805
Ca 0.01443393 9.36341273 1.17683859
Ca 3.26359161 2.44155870 4.00152142
Ca 3.26398888 6.92185403 4.00098096
Ge 0.00000000 2.34090000 -1.1703531399999996 0 0 0
Ge 0.00000000 7.02270000 -1.1703531399999996 0 0 0
Ge 3.31053500 4.68180000 -3.5113296399999996 0 0 0
Ge 3.31053500 0.00000000 -3.5113296399999996 0 0 0
Ge 6.53221524 7.00378553 3.54672938
Ge 6.53228145 2.35981447 3.54699960
Ge 3.35972955 9.36350636 1.09090640
Ge 3.24233798 4.68189364 1.19980788
Pd 1.65526750 0.00000000 -1.1703531399999996 0 0 0
Pd 1.65526750 4.68180000 -1.1703531399999996 0 0 0
Pd 4.96580250 2.34090000 -3.5113296399999996 0 0 0
Pd 4.96580250 7.02270000 -3.5113296399999996 0 0 0
Pd 1.56853148 4.68170636 3.23326606
Pd 1.07360650 0.00000000 3.82992727
Pd 4.69400758 7.07682161 1.46408989
Pd 4.69314684 2.28668476 1.46463034
C 2.85328391 0.00000000 2.98222517
