&CONTROL
calculation = 'relax'
prefix = 'scf'
pseudo_dir = '/vol0004/mdt0/data/hp150275/u10028/POT_KKJUS'
outdir = './data'
tprnfor = .true.
nstep = 50
disk_io = 'non'
/
&SYSTEM
ibrav = 0
ecutwfc = 50.0
ecutrho = 400
occupations = 'smearing'
smearing = 'mp'
degauss = 0.01
assume_isolated = 'esm'
esm_bc = 'bc1'
input_dft = 'BEEF-VDW'
nosym = .true.
nspin = 1
ntyp = 4
nat = 34
/
&ELECTRONS
electron_maxstep = 200
mixing_beta = 0.1
conv_thr = 1e-06
/
&IONS
ion_dynamics = 'bfgs'
upscale = 1.0
/
&CELL
/

K_POINTS {automatic}
9 6 2 0  0  0

ATOMIC_SPECIES
C 12.01 C.pbe-n-rrkjus_psl.1.0.0.UPF
In 114.8 In.pbe-dn-rrkjus_psl.1.0.0.UPF
O 15.99 O.pbe-n-rrkjus_psl.1.0.0.UPF
Pd 106.4 Pd.pbe-n-rrkjus_psl.1.0.0.UPF

CELL_PARAMETERS {angstrom}
6.68646000 0.00000000 0.00000000
0.00000000 9.45609000 0.00000000
0.00000000 0.00000000 27.09210000

ATOMIC_POSITIONS {angstrom}
In 0.00000000 0.00000000 -3.546084969999999 0 0 0
In 0.00000000 2.36402250 -1.182028319999997 0 0 0
In 0.03176069 0.00000000 1.22320831
In 6.64206191 2.41357241 3.67748165
In 0.00000000 4.72804500 -3.546084969999999 0 0 0
In 0.00000000 7.09206750 -1.182028319999997 0 0 0
In 0.00387815 4.72804500 1.17064964
In 6.64206191 7.04251759 3.67748165
In 3.34323000 0.00000000 -3.546084969999999 0 0 0
In 3.34323000 2.36402250 -1.182028319999997 0 0 0
In 3.31213796 0.00000000 1.22320831
In 3.38736064 2.41489626 3.67504336
In 3.34323000 4.72804500 -3.546084969999999 0 0 0
In 3.34323000 7.09206750 -1.182028319999997 0 0 0
In 3.33881694 4.72804500 1.17092056
In 3.38736064 7.04119374 3.67504336
Pd 1.67161500 2.36402250 -3.546084969999999 0 0 0
Pd 1.67161500 0.00000000 -1.182028319999997 0 0 0
Pd 1.67121381 2.33915298 1.23512884
Pd 1.67081262 0.00000000 3.71811980
Pd 1.67161500 7.09206750 -3.546084969999999 0 0 0
Pd 1.67161500 4.72804500 -1.182028319999997 0 0 0
Pd 1.67121381 7.11703158 1.23512884
Pd 1.67001025 4.72804500 3.42200315
Pd 5.01484500 2.36402250 -3.546084969999999 0 0 0
Pd 5.01484500 0.00000000 -1.182028319999997 0 0 0
Pd 5.01484500 2.34804171 1.09695913
Pd 5.01598170 0.00000000 3.38840895
Pd 5.01484500 7.09206750 -3.546084969999999 0 0 0
Pd 5.01484500 4.72804500 -1.182028319999997 0 0 0
Pd 5.01484500 7.10804829 1.09695913
Pd 5.01558051 4.72804500 3.42254499
C 1.68532224 0.00000000 5.69069560
O 1.68973531 0.00000000 6.83967157
