&CONTROL
calculation = 'relax'
prefix = 'scf'
pseudo_dir = '/vol0004/mdt0/data/hp150275/u10028/POT_KKJUS'
outdir = './data'
tprnfor = .true.
nstep = 50
disk_io = 'non'
/
&SYSTEM
ibrav = 0
ecutwfc = 50.0
ecutrho = 400
occupations = 'smearing'
smearing = 'mp'
degauss = 0.01
assume_isolated = 'esm'
esm_bc = 'bc1'
input_dft = 'BEEF-VDW'
nosym = .true.
nspin = 1
ntyp = 2
nat = 32
/
&ELECTRONS
electron_maxstep = 200
mixing_beta = 0.1
conv_thr = 1e-06
/
&IONS
ion_dynamics = 'bfgs'
upscale = 1.0
/
&CELL
/

K_POINTS {automatic}
8 6 1 0 0 0

ATOMIC_SPECIES
Pt 195.0 Pt.pbe-n-rrkjus_psl.1.0.0.UPF
Ti 47.86 Ti.pbe-spn-rrkjus_psl.1.0.0.UPF

CELL_PARAMETERS {angstrom}
6.37073000 0.00000000 0.00000000
0.00000000 9.00957000 0.00000000
0.00000000 0.00000000 26.75720000

ATOMIC_POSITIONS {angstrom}
Ti 1.59268250 2.25239250 -3.378631640000002 0 0 0
Ti 1.59268250 0.00000000 -1.1262105499999997 0 0 0
Ti 1.59268250 2.27500652 1.06600685
Ti 1.59268250 0.00036038 3.48512530
Ti 1.59268250 6.75717750 -3.378631640000002 0 0 0
Ti 1.59268250 4.50478500 -1.1262105499999997 0 0 0
Ti 1.59274621 6.73492386 1.06627442
Ti 1.59268250 4.50460481 3.44097592
Ti 4.77804750 2.25239250 -3.378631640000002 0 0 0
Ti 4.77804750 0.00000000 -1.1262105499999997 0 0 0
Ti 4.77804750 2.23194078 1.06092298
Ti 4.77804750 0.00018019 3.48806859
Ti 4.77804750 6.75717750 -3.378631640000002 0 0 0
Ti 4.77804750 4.50478500 -1.1262105499999997 0 0 0
Ti 4.77798379 6.77789951 1.06119055
Ti 4.77804750 4.50451471 3.53569641
Pt 0.00000000 0.00000000 -3.378631640000002 0 0 0
Pt 0.00000000 2.25239250 -1.1262105499999997 0 0 0
Pt 0.01484380 9.00938981 1.33090313
Pt 6.36735351 2.25581614 3.20818828
Pt 0.00000000 4.50478500 -3.378631640000002 0 0 0
Pt 0.00000000 6.75717750 -1.1262105499999997 0 0 0
Pt 6.25127881 4.50568596 1.33411399
Pt 6.36741722 6.75411425 3.20738556
Pt 3.18536500 0.00000000 -3.378631640000002 0 0 0
Pt 3.18536500 2.25239250 -1.1262105499999997 0 0 0
Pt 3.17058491 9.00947990 1.33090313
Pt 3.18874149 2.25581614 3.20818828
Pt 3.18536500 4.50478500 -3.378631640000002 0 0 0
Pt 3.18536500 6.75717750 -1.1262105499999997 0 0 0
Pt 3.30481619 4.50541567 1.33411399
Pt 3.18874149 6.75402415 3.20738556
