&CONTROL
calculation = 'relax'
prefix = 'scf'
pseudo_dir = '/vol0403/data/hp230205/u10028/POT_HYBRID_KKJUS_GBRV'
outdir = './data'
tprnfor = .true.
nstep = 50
disk_io = 'non'
/
&SYSTEM
ibrav = 0
ecutwfc = 50.0
ecutrho = 400
occupations = 'smearing'
smearing = 'mp'
degauss = 0.01
assume_isolated = 'esm'
esm_bc = 'bc1'
input_dft = 'BEEF-VDW'
nosym = .true.
nspin = 1
ntyp = 6
nat = 18
/
&ELECTRONS
electron_maxstep = 200
mixing_beta = 0.1
conv_thr = 1e-06
/
&IONS
ion_dynamics = 'bfgs'
upscale = 1.0
/
&CELL
/

K_POINTS {automatic}
8 8 1 0 0 0

ATOMIC_SPECIES
C 12.01 C.pbe-n-rrkjus_psl.1.0.0.UPF
Ga 69.72 Ga.pbe-dnl-rrkjus_psl.1.0.0.UPF
In 114.8 In.pbe-dn-rrkjus_psl.1.0.0.UPF
O 15.99 O.pbe-n-rrkjus_psl.1.0.0.UPF
Pd 106.4 Pd.pbe-n-rrkjus_psl.1.0.0.UPF
Sc 44.95 Sc.pbe-spn-rrkjus_psl.1.0.0.UPF


CELL_PARAMETERS {angstrom}
6.68246000 0.00000000 0.00000000
0.00000000 6.68246000 0.00000000
0.00000000 0.00000000 25.01180000

ATOMIC_POSITIONS {angstrom}
Sc 5.01184500 1.67061500 -0.8353941200000001 0 0 0
Sc 5.02333883 5.00950614 2.49692799
Sc 1.67342163 1.65918799 2.49717811
Sc 1.67061500 5.01184500 -0.8353941200000001 0 0 0
In 1.67061500 1.67061500 -0.8353941200000001 0 0 0
In 1.68404674 4.99848008 2.89611632
In 5.02995447 1.65243871 2.71077888
In 5.01184500 5.01184500 -0.8353941200000001 0 0 0
Ga 0.00000000 0.00000000 -2.50593224 0 0 0
Ga 0.06448574 3.39275177 1.00647483
Ga 3.28990871 6.61770696 1.00672495
Ga 3.34123000 3.34123000 -2.50593224 0 0 0
Pd 0.00000000 3.34123000 -2.50593224 0 0 0
Pd 0.06882934 6.61403161 0.89367161
Pd 3.30420917 3.37825083 0.91218035
Pd 3.34123000 0.00000000 -2.50593224 0 0 0
C 4.55937563 2.12589100 6.40377115
O 5.22855718 1.45336823 7.03156733
