&CONTROL
calculation = 'relax'
prefix = 'scf'
pseudo_dir = '/vol0004/mdt0/data/hp150275/u10028/POT_KKJUS'
outdir = './data'
tprnfor = .true.
nstep = 50
disk_io = 'non'
/
&SYSTEM
ibrav = 0
ecutwfc = 50.0
ecutrho = 400
occupations = 'smearing'
smearing = 'mp'
degauss = 0.01
assume_isolated = 'esm'
esm_bc = 'bc1'
input_dft = 'BEEF-VDW'
nosym = .true.
nspin = 1
ntyp = 4
nat = 33
/
&ELECTRONS
electron_maxstep = 200
mixing_beta = 0.1
conv_thr = 1e-06
/
&IONS
ion_dynamics = 'bfgs'
upscale = 1.0
/
&CELL
/

K_POINTS {automatic}
8 6 1 0 0 0

ATOMIC_SPECIES
C 12.01 C.pbe-n-rrkjus_psl.1.0.0.UPF
In 114.8 In.pbe-dn-rrkjus_psl.1.0.0.UPF
Ni 58.69 Ni.pbe-spn-rrkjus_psl.1.0.0.UPF
Ti 47.86 Ti.pbe-spn-rrkjus_psl.1.0.0.UPF

CELL_PARAMETERS {angstrom}
6.14958000 0.00000000 0.00000000
0.00000000 8.69682000 0.00000000
0.00000000 0.00000000 26.52260000

ATOMIC_POSITIONS {angstrom}
Ti 0.00000000 0.00000000 -3.2612188999999994 0 0 0
Ti 3.07479000 2.17420500 -1.0871613700000005 0 0 0
Ti 3.07479000 6.52261500 -1.0871613700000005 0 0 0
Ti 0.00000000 4.34841000 -3.2612188999999994 0 0 0
Ti 0.00000000 4.34841000 1.17680776
Ti 3.07479000 6.65724177 3.24610101
Ti 3.07479000 2.03957823 3.24610101
Ti 0.00000000 0.00000000 1.10121835
In 0.00000000 6.52261500 -1.0871613700000005 0 0 0
In 3.07479000 0.00000000 -3.2612188999999994 0 0 0
In 0.00000000 2.17420500 -1.0871613700000005 0 0 0
In 3.07479000 4.34841000 -3.2612188999999994 0 0 0
In 0.00000000 2.27595779 3.55561976
In 3.07479000 4.34849697 1.03889024
In 0.00000000 6.42086221 3.55588498
In 3.07479000 8.69673303 1.06779988
Ni 1.53739500 0.00000000 -1.0871613700000005 0 0 0
Ni 4.61218500 4.34841000 -1.0871613700000005 0 0 0
Ni 4.61218500 0.00000000 -1.0871613700000005 0 0 0
Ni 1.53739500 4.34841000 -1.0871613700000005 0 0 0
Ni 4.61218500 6.52261500 -3.2612188999999994 0 0 0
Ni 1.53739500 2.17420500 -3.2612188999999994 0 0 0
Ni 1.53739500 6.52261500 -3.2612188999999994 0 0 0
Ni 4.61218500 2.17420500 -3.2612188999999994 0 0 0
Ni 1.59507806 4.34841000 3.14955875
Ni 4.88049118 8.69673303 3.19199491
Ni 4.55450194 4.34849697 3.14955875
Ni 1.26915032 8.69673303 3.19199491
Ni 4.64041157 2.18264092 1.16725963
Ni 1.50916843 6.51417908 1.16752485
Ni 1.50916843 2.18272788 1.16752485
Ni 4.64041157 6.51417908 1.16752485
C 3.07479000 0.00000000 3.67470623
