&CONTROL
calculation = 'relax'
prefix = 'scf'
pseudo_dir = '/vol0004/mdt0/data/hp150275/u10028/POT_KKJUS'
outdir = './data'
tprnfor = .true.
nstep = 50
disk_io = 'non'
/
&SYSTEM
ibrav = 0
ecutwfc = 50.0
ecutrho = 400
occupations = 'smearing'
smearing = 'mp'
degauss = 0.01
assume_isolated = 'esm'
esm_bc = 'bc1'
input_dft = 'BEEF-VDW'
nosym = .true.
nspin = 1
ntyp = 5
nat = 18
/
&ELECTRONS
electron_maxstep = 200
mixing_beta = 0.1
conv_thr = 1e-06
/
&IONS
ion_dynamics = 'bfgs'
upscale = 1.0
/
&CELL
/

K_POINTS {automatic}
10 10 2 0  0  0

ATOMIC_SPECIES
C 12.01 C.pbe-n-rrkjus_psl.1.0.0.UPF
Ga 69.72 Ga.pbe-dnl-rrkjus_psl.1.0.0.UPF
Ir 192.2 Ir.pbe-n-rrkjus_psl.0.2.3.UPF
Li 6.941 Li.pbe-sl-rrkjus_psl.1.0.0.UPF
O 15.99 O.pbe-n-rrkjus_psl.1.0.0.UPF

CELL_PARAMETERS {angstrom}
6.01864000 0.00000000 0.00000000
0.00000000 6.01864000 0.00000000
0.00000000 0.00000000 24.51400000

ATOMIC_POSITIONS {angstrom}
Li 0.00000000 0.00000000 -0.7523346599999989 0 0 0
Li 3.00932000 0.00000000 2.61025072
Li 0.00000000 3.00932000 2.63378416
Li 3.00932000 3.00932000 -0.7523346599999989 0 0 0
Li 1.50706746 1.50929435 0.85627402
Li 1.50466000 4.51398000 -2.2570039800000004 0 0 0
Li 4.51163273 4.50940583 0.85627402
Li 4.51398000 1.50466000 -2.2570039800000004 0 0 0
Ga 1.50466000 1.50466000 -2.2570039800000004 0 0 0
Ga 1.50405814 4.50832248 0.79596958
Ga 4.51398000 4.51398000 -2.2570039800000004 0 0 0
Ga 4.51458186 1.51031752 0.79596958
Ir 0.00000000 0.00000000 2.10330120
Ir 3.00932000 3.00932000 2.11065540
Ir 3.00932000 0.00000000 -0.7523346599999989 0 0 0
Ir 0.00000000 3.00932000 -0.7523346599999989 0 0 0
C 0.00000000 3.00932000 4.75203890
O 0.00000000 3.00932000 5.89046906
