&CONTROL
calculation = 'relax'
prefix = 'scf'
pseudo_dir = '/vol0403/data/hp230205/u10028/POT_HYBRID_KKJUS_GBRV'
outdir = './data'
tprnfor = .true.
nstep = 50
disk_io = 'non'
/
&SYSTEM
ibrav = 0
ecutwfc = 50.0
ecutrho = 400
occupations = 'smearing'
smearing = 'mp'
degauss = 0.01
assume_isolated = 'esm'
esm_bc = 'bc1'
input_dft = 'BEEF-VDW'
nosym = .true.
nspin = 1
ntyp = 6
nat = 34
/
&ELECTRONS
electron_maxstep = 200
mixing_beta = 0.1
conv_thr = 1e-06
/
&IONS
ion_dynamics = 'bfgs'
upscale = 1.0
/
&CELL
/

K_POINTS {automatic}
9 6 2 0  0  0

ATOMIC_SPECIES
Al 26.98 Al.pbe-nl-rrkjus_psl.1.0.0.UPF
C 12.01 C.pbe-n-rrkjus_psl.1.0.0.UPF
Li 6.941 Li.pbe-sl-rrkjus_psl.1.0.0.UPF
Mg 24.30 Mg.pbe-spnl-rrkjus_psl.1.0.0.UPF
O 15.99 O.pbe-n-rrkjus_psl.1.0.0.UPF
Pd 106.4 Pd.pbe-n-rrkjus_psl.1.0.0.UPF


CELL_PARAMETERS {angstrom}
6.28130000 0.00000000 0.00000000
0.00000000 8.88310000 0.00000000
0.00000000 0.00000000 26.66230000

ATOMIC_POSITIONS {angstrom}
Li 1.57032500 0.00000000 -1.1104847899999974 0 0 0
Li 1.57032500 4.44155000 -1.1104847899999974 0 0 0
Li 4.71097500 2.22077500 -3.331187759999999 0 0 0
Li 4.71097500 6.66232500 -3.331187759999999 0 0 0
Li 1.72584999 4.44155000 3.62793916
Li 1.71146581 0.00000000 3.48769546
Li 4.74420308 6.65450787 1.06969148
Li 4.74420308 2.22850330 1.06969148
Mg 0.00000000 2.22077500 -1.1104847899999974 0 0 0
Mg 0.00000000 6.66232500 -1.1104847899999974 0 0 0
Mg 3.14065000 4.44155000 -3.331187759999999 0 0 0
Mg 3.14065000 0.00000000 -3.331187759999999 0 0 0
Mg 6.21321071 6.65966007 3.46183303
Mg 6.21321071 2.22335110 3.46156641
Mg 3.09950748 8.88301117 1.04489554
Mg 3.08882928 4.44155000 1.08302263
Al 0.00000000 0.00000000 -3.331187759999999 0 0 0
Al 0.00000000 4.44155000 -3.331187759999999 0 0 0
Al 3.14065000 6.66232500 -1.1104847899999974 0 0 0
Al 3.14065000 2.22077500 -1.1104847899999974 0 0 0
Al 0.02462270 4.44155000 1.17954015
Al 0.01312792 0.00000000 1.14727877
Al 3.27230605 2.23205654 3.26906460
Al 3.27230605 6.65095463 3.26906460
Pd 4.71097500 0.00000000 -1.1104847899999974 0 0 0
Pd 4.71097500 4.44155000 -1.1104847899999974 0 0 0
Pd 1.57032500 2.22077500 -3.331187759999999 0 0 0
Pd 1.57032500 6.66232500 -3.331187759999999 0 0 0
Pd 4.63987068 4.44155000 3.18481173
Pd 4.62661714 0.00000000 3.13308687
Pd 1.53609191 6.67227407 1.17874028
Pd 1.53615473 2.21073710 1.17874028
C 1.44953560 0.00000000 5.50336534
O 1.41410907 0.00000000 6.64904437
