&CONTROL
calculation = 'relax'
prefix = 'scf'
pseudo_dir = '/vol0004/mdt0/data/hp150275/u10028/POT_KKJUS'
outdir = './data'
tprnfor = .true.
nstep = 50
disk_io = 'non'
/
&SYSTEM
ibrav = 0
ecutwfc = 50.0
ecutrho = 400
occupations = 'smearing'
smearing = 'mp'
degauss = 0.01
assume_isolated = 'esm'
esm_bc = 'bc1'
input_dft = 'BEEF-VDW'
nosym = .true.
nspin = 1
ntyp = 5
nat = 18
/
&ELECTRONS
electron_maxstep = 200
mixing_beta = 0.1
conv_thr = 1e-06
/
&IONS
ion_dynamics = 'bfgs'
upscale = 1.0
/
&CELL
/

K_POINTS {automatic}
9 9 2 0  0  0

ATOMIC_SPECIES
Au 196.9 Au.pbe-n-rrkjus_psl.1.0.0.UPF
C 12.01 C.pbe-n-rrkjus_psl.1.0.0.UPF
Ge 72.64 Ge.pbe-dn-rrkjus_psl.1.0.0.UPF
Li 6.941 Li.pbe-sl-rrkjus_psl.1.0.0.UPF
O 15.99 O.pbe-n-rrkjus_psl.1.0.0.UPF

CELL_PARAMETERS {angstrom}
6.30953000 0.00000000 0.00000000
0.00000000 6.30953000 0.00000000
0.00000000 0.00000000 24.73210000

ATOMIC_POSITIONS {angstrom}
Li 0.00807620 0.00959049 0.77881383
Li 3.15476500 0.00000000 -2.3661200099999995 0 0 0
Li 0.00000000 3.15476500 -2.3661200099999995 0 0 0
Li 3.14687809 3.14441737 0.78944863
Li 1.58419679 1.58425989 2.77543626
Li 1.57738250 4.73214750 -0.7887066699999998 0 0 0
Li 4.74653323 4.74672251 2.71533726
Li 4.73214750 1.57738250 -0.7887066699999998 0 0 0
Ge 0.00000000 0.00000000 -2.3661200099999995 0 0 0
Ge 3.15476500 3.15476500 -2.3661200099999995 0 0 0
Ge 3.15350309 6.30927762 0.96455190
Ge 6.30858357 3.15299833 0.96380994
Au 1.57738250 1.57738250 -0.7887066699999998 0 0 0
Au 1.57126226 4.73517607 2.28969782
Au 4.73214750 4.73214750 -0.7887066699999998 0 0 0
Au 4.73536536 1.57195630 2.29068710
C 1.56709797 1.56697178 4.89918169
O 1.55858010 1.55851701 6.03809489
