&CONTROL
calculation = 'relax'
prefix = 'scf'
pseudo_dir = '/vol0403/data/hp230205/u10028/POT_HYBRID_KKJUS_GBRV'
outdir = './data'
tprnfor = .true.
nstep = 70
disk_io = 'non'
/
&SYSTEM
ibrav = 0
ecutwfc = 50.0
ecutrho = 400
occupations = 'smearing'
smearing = 'mp'
degauss = 0.01
assume_isolated = 'esm'
esm_bc = 'bc1'
input_dft = 'BEEF-VDW'
nosym = .true.
nspin = 1
ntyp = 6
nat = 34
/
&ELECTRONS
electron_maxstep = 200
mixing_beta = 0.1
conv_thr = 1e-06
/
&IONS
ion_dynamics = 'bfgs'
upscale = 1.0
/
&CELL
/

K_POINTS {automatic}
6 6 1 0 0 0

ATOMIC_SPECIES
C 12.01 C.pbe-n-rrkjus_psl.1.0.0.UPF
Ga 69.72 Ga.pbe-dnl-rrkjus_psl.1.0.0.UPF
O 15.99 O.pbe-n-rrkjus_psl.1.0.0.UPF
Pd 106.4 Pd.pbe-n-rrkjus_psl.1.0.0.UPF
Sn 118.7 Sn.pbe-dn-rrkjus_psl.1.0.0.UPF
Y 88.90 Y.pbe-spn-rrkjus_psl.1.0.0.UPF


CELL_PARAMETERS {angstrom}
8.88338000 0.00000000 0.00000000
-0.00000000 8.54550000 0.00000000
0.00000000 0.00000000 26.61870000

ATOMIC_POSITIONS {angstrom}
Y 2.22084500 2.13637500 -3.309236779999999 0 0 0
Y 2.22084500 2.13637500 1.10307893
Y 2.22084500 6.40912500 -3.309236779999999 0 0 0
Y 2.22084500 6.40912500 1.10307893
Y 6.66253500 2.13637500 -3.309236779999999 0 0 0
Y 6.66253500 2.13637500 1.10307893
Y 6.66253500 6.40912500 -3.309236779999999 0 0 0
Y 6.66253500 6.40912500 1.10307893
Ga 0.00000000 0.00000000 -3.309236779999999 0 0 0
Ga 0.00000000 0.00000000 1.10307893
Ga 0.00000000 4.27275000 -3.309236779999999 0 0 0
Ga 0.00000000 4.27275000 1.10307893
Ga 4.44169000 0.00000000 -3.309236779999999 0 0 0
Ga 4.44169000 -0.00000000 1.10307893
Ga 4.44169000 4.27275000 -3.309236779999999 0 0 0
Ga 4.44169000 4.27275000 1.10307893
Sn 0.00000000 2.13637500 -1.1030789299999988 0 0 0
Sn 0.00000000 2.13637500 3.30923678
Sn 0.00000000 6.40912500 -1.1030789299999988 0 0 0
Sn 0.00000000 6.40912500 3.30923678
Sn 4.44169000 2.13637500 -1.1030789299999988 0 0 0
Sn 4.44169000 2.13637500 3.30923678
Sn 4.44169000 6.40912500 -1.1030789299999988 0 0 0
Sn 4.44169000 6.40912500 3.30923678
Pd 2.22084500 0.00000000 -1.1030789299999988 0 0 0
Pd 2.22084500 -0.00000000 3.30923678
Pd 2.22084500 4.27275000 -1.1030789299999988 0 0 0
Pd 2.22084500 4.27275000 3.30923678
Pd 6.66253500 0.00000000 -1.1030789299999988 0 0 0
Pd 6.66253500 -0.00000000 3.30923678
Pd 6.66253500 4.27275000 -1.1030789299999988 0 0 0
Pd 6.66253500 4.27275000 3.30923678
C 2.22084500 -0.00000000 5.20927959
O 2.22084500 -0.00000000 6.35947362
