&CONTROL
calculation = 'relax'
prefix = 'scf'
pseudo_dir = '/vol0004/mdt0/data/hp150275/u10028/POT_KKJUS'
outdir = './data'
tprnfor = .true.
nstep = 50
disk_io = 'non'
/
&SYSTEM
ibrav = 0
ecutwfc = 50.0
ecutrho = 400
occupations = 'smearing'
smearing = 'mp'
degauss = 0.01
assume_isolated = 'esm'
esm_bc = 'bc1'
input_dft = 'BEEF-VDW'
nosym = .true.
nspin = 1
ntyp = 3
nat = 17
/
&ELECTRONS
electron_maxstep = 200
mixing_beta = 0.1
conv_thr = 1e-06
/
&IONS
ion_dynamics = 'bfgs'
upscale = 1.0
/
&CELL
/

K_POINTS {automatic}
8 8 1 0 0 0

ATOMIC_SPECIES
Al 26.98 Al.pbe-nl-rrkjus_psl.1.0.0.UPF
C 12.01 C.pbe-n-rrkjus_psl.1.0.0.UPF
Y 88.90 Y.pbe-spn-rrkjus_psl.1.0.0.UPF

CELL_PARAMETERS {angstrom}
7.18582000 0.00000000 0.00000000
0.00000000 7.18582000 0.00000000
0.00000000 0.00000000 25.38940000

ATOMIC_POSITIONS {angstrom}
Y 0.00000000 0.00000000 -3.17469058 0 0 0
Y 7.18524513 7.18574814 0.00203115
Y 0.00000000 3.59291000 -3.17469058 0 0 0
Y 0.00007186 3.59291000 0.54358705
Y 3.59291000 0.00000000 -3.17469058 0 0 0
Y 3.59312557 0.00000000 0.54282537
Y 3.59291000 3.59291000 -3.17469058 0 0 0
Y 3.59291000 3.59291000 1.22833917
Al 1.79645500 1.79645500 -1.3781366299999966 0 0 0
Al 1.43946346 1.43939160 2.36959270
Al 1.79645500 5.38936500 -1.3781366299999966 0 0 0
Al 1.43946346 5.74642840 2.36959270
Al 5.38936500 1.79645500 -1.3781366299999966 0 0 0
Al 5.74642840 1.43939160 2.36959270
Al 5.38936500 5.38936500 -1.3781366299999966 0 0 0
Al 5.74642840 5.74642840 2.36959270
C 0.00000000 0.00000000 2.39675936
