&CONTROL
calculation = 'relax'
prefix = 'scf'
pseudo_dir = '/vol0004/mdt0/data/hp150275/u10028/POT_KKJUS'
outdir = './data'
tprnfor = .true.
nstep = 50
disk_io = 'non'
/
&SYSTEM
ibrav = 0
ecutwfc = 50.0
ecutrho = 400
occupations = 'smearing'
smearing = 'mp'
degauss = 0.01
assume_isolated = 'esm'
esm_bc = 'bc1'
input_dft = 'BEEF-VDW'
nosym = .true.
nspin = 1
ntyp = 4
nat = 34
/
&ELECTRONS
electron_maxstep = 200
mixing_beta = 0.1
conv_thr = 1e-06
/
&IONS
ion_dynamics = 'bfgs'
upscale = 1.0
/
&CELL
/

K_POINTS {automatic}
8 6 1 0 0 0

ATOMIC_SPECIES
Al 26.98 Al.pbe-nl-rrkjus_psl.1.0.0.UPF
C 12.01 C.pbe-n-rrkjus_psl.1.0.0.UPF
O 15.99 O.pbe-n-rrkjus_psl.1.0.0.UPF
Pt 195.0 Pt.pbe-n-rrkjus_psl.1.0.0.UPF

CELL_PARAMETERS {angstrom}
6.19423000 0.00000000 0.00000000
0.00000000 8.75996000 0.00000000
0.00000000 0.00000000 26.57000000

ATOMIC_POSITIONS {angstrom}
Al 0.00000000 0.00000000 -3.285114799999999 0 0 0
Al 0.00000000 2.18999000 -1.0949497000000008 0 0 0
Al 0.00000000 8.75303963 1.12417670
Al 0.00000000 2.18999000 3.36402770
Al 0.00000000 4.37998000 -3.285114799999999 0 0 0
Al 0.00000000 6.56997000 -1.0949497000000008 0 0 0
Al 0.00000000 4.38690037 1.12417670
Al 0.00000000 6.56997000 3.31487320
Al 3.09711500 0.00000000 -3.285114799999999 0 0 0
Al 3.09711500 2.18999000 -1.0949497000000008 0 0 0
Al 3.09711500 0.00245279 1.10770330
Al 3.09711500 2.18999000 3.31327900
Al 3.09711500 4.37998000 -3.285114799999999 0 0 0
Al 3.09711500 6.56997000 -1.0949497000000008 0 0 0
Al 3.09711500 4.37752721 1.10770330
Al 3.09711500 6.56997000 3.31726450
Pt 1.54855750 2.18999000 -3.285114799999999 0 0 0
Pt 1.54855750 0.00000000 -1.0949497000000008 0 0 0
Pt 1.54292075 2.18999000 1.02294500
Pt 1.55574281 4.39469673 3.15811020
Pt 1.54855750 6.56997000 -3.285114799999999 0 0 0
Pt 1.54855750 4.37998000 -1.0949497000000008 0 0 0
Pt 1.54973440 6.56997000 0.99318660
Pt 1.55574281 8.74524327 3.15811020
Pt 4.64567250 2.18999000 -3.285114799999999 0 0 0
Pt 4.64567250 0.00000000 -1.0949497000000008 0 0 0
Pt 4.65130925 2.18999000 1.02294500
Pt 4.63848719 4.39469673 3.15811020
Pt 4.64567250 6.56997000 -3.285114799999999 0 0 0
Pt 4.64567250 4.37998000 -1.0949497000000008 0 0 0
Pt 4.64449560 6.56997000 0.99318660
Pt 4.63848719 8.74524327 3.15811020
C 0.00000000 2.18999000 5.41629450
O 0.00000000 2.18999000 6.56066440
