&CONTROL
calculation = 'relax'
prefix = 'scf'
pseudo_dir = '/vol0004/mdt0/data/hp150275/u10028/POT_HYBRID_KKJUS_GBRV'
outdir = './data'
tprnfor = .true.
nstep = 50
disk_io = 'non'
/
&SYSTEM
ibrav = 0
ecutwfc = 50.0
ecutrho = 400
occupations = 'smearing'
smearing = 'mp'
degauss = 0.01
assume_isolated = 'esm'
esm_bc = 'bc1'
input_dft = 'BEEF-VDW'
nosym = .true.
nspin = 2
ntyp = 4
nat = 33
starting_magnetization(1) = 0.0
starting_magnetization(2) = 0.0
starting_magnetization(3) = 0.001
starting_magnetization(4) = 0.0
/
&ELECTRONS
electron_maxstep = 300
mixing_beta = 0.1
conv_thr = 1e-06
/
&IONS
ion_dynamics = 'bfgs'
upscale = 1.0
/
&CELL
/

K_POINTS {automatic}
9 6 2 0  0  0

ATOMIC_SPECIES
C 12.01 C.pbe-n-rrkjus_psl.1.0.0.UPF
Cu 63.54 Cu.pbe-dn-rrkjus_psl.1.0.0.UPF
Ni 58.69 ni_pbe_v1.4.uspp.F.UPF
Sb 121.7 Sb.pbe-n-rrkjus_psl.1.0.0.UPF

CELL_PARAMETERS {angstrom}
6.01864000 0.00000000 0.00000000
0.00000000 8.51164000 0.00000000
0.00000000 0.00000000 26.38370000

ATOMIC_POSITIONS {angstrom}
Cu 0.00000000 0.00000000 -3.1919000299999993 0 0 0
Cu 3.00932000 2.12791000 -1.0640546200000003 0 0 0
Cu 3.00932000 6.38373000 -1.0640546200000003 0 0 0
Cu 0.00000000 4.25582000 -3.1919000299999993 0 0 0
Cu 0.03990358 4.23105113 1.06379078
Cu 2.87143296 6.38381512 3.20087048
Cu 3.22304191 2.12782488 3.07132652
Cu 0.03984340 0.02485399 1.06405462
Ni 1.50466000 0.00000000 -1.0640546200000003 0 0 0
Ni 4.51398000 4.25582000 -1.0640546200000003 0 0 0
Ni 4.51398000 0.00000000 -1.0640546200000003 0 0 0
Ni 1.50466000 4.25582000 -1.0640546200000003 0 0 0
Ni 4.51398000 6.38373000 -3.1919000299999993 0 0 0
Ni 1.50466000 2.12791000 -3.1919000299999993 0 0 0
Ni 1.50466000 6.38373000 -3.1919000299999993 0 0 0
Ni 4.51398000 2.12791000 -3.1919000299999993 0 0 0
Ni 1.52608636 3.93314373 3.24308440
Ni 4.55857812 8.32668206 3.03650003
Ni 4.55869850 4.44077794 3.03623620
Ni 1.52620673 0.32259116 3.24308440
Ni 4.51620690 2.12791000 0.92105497
Ni 1.37501849 6.38381512 1.14426107
Ni 1.48461793 2.12791000 1.09175751
Ni 4.63663988 6.38381512 1.24240843
Sb 0.00000000 6.38373000 -1.0640546200000003 0 0 0
Sb 3.00932000 0.00000000 -3.1919000299999993 0 0 0
Sb 0.00000000 2.12791000 -1.0640546200000003 0 0 0
Sb 3.00932000 4.25582000 -3.1919000299999993 0 0 0
Sb 5.64253519 2.12782488 3.31009900
Sb 2.98265742 4.30331495 1.06299927
Sb 0.16924416 6.38373000 3.55705043
Sb 2.98265742 8.46414505 1.06299927
C 1.62822268 2.12791000 3.98103649
