&CONTROL
calculation = 'relax'
prefix = 'scf'
pseudo_dir = '/vol0403/data/hp230205/u10028/POT_HYBRID_KKJUS_GBRV'
outdir = './data'
tprnfor = .true.
nstep = 70
disk_io = 'non'
/
&SYSTEM
ibrav = 0
ecutwfc = 50.0
ecutrho = 400
occupations = 'smearing'
smearing = 'mp'
degauss = 0.01
assume_isolated = 'esm'
esm_bc = 'bc1'
input_dft = 'BEEF-VDW'
nosym = .true.
nspin = 1
ntyp = 5
nat = 17
/
&ELECTRONS
electron_maxstep = 200
mixing_beta = 0.1
conv_thr = 1e-06
/
&IONS
ion_dynamics = 'bfgs'
upscale = 1.0
/
&CELL
/

K_POINTS {automatic}
6 6 1 0 0 0

ATOMIC_SPECIES
Al 26.98 Al.pbe-nl-rrkjus_psl.1.0.0.UPF
C 12.01 C.pbe-n-rrkjus_psl.1.0.0.UPF
In 114.8 In.pbe-dn-rrkjus_psl.1.0.0.UPF
Pd 106.4 Pd.pbe-n-rrkjus_psl.1.0.0.UPF
Y 88.90 Y.pbe-spn-rrkjus_psl.1.0.0.UPF


CELL_PARAMETERS {angstrom}
6.02485000 0.00000000 0.00000000
-0.00000000 9.21652000 0.00000000
0.00000000 0.00000000 24.50330000

ATOMIC_POSITIONS {angstrom}
Y 1.38204034 2.30413000 -0.7505360799999998 0 0 0
Y 4.20835772 2.21426893 2.33957508
Y 1.38204034 6.91239000 -0.7505360799999998 0 0 0
Y 4.20829748 7.00225107 2.33957508
Al 0.00000000 0.00000000 -2.2516082399999995 0 0 0
Al 2.13321864 -0.00000000 1.65838334
Al 0.00000000 4.60826000 -2.2516082399999995 0 0 0
Al 2.64478865 4.60826000 0.96371479
In 3.01242500 0.00000000 -2.2516082399999995 0 0 0
In 5.41423145 -0.00000000 0.51432427
In 3.01242500 4.60826000 -2.2516082399999995 0 0 0
In 5.54225952 4.60826000 0.67261558
Pd 4.39446534 2.30413000 -0.7505360799999998 0 0 0
Pd 1.29094461 2.51371366 1.96271433
Pd 4.39446534 6.91239000 -0.7505360799999998 0 0 0
Pd 1.29094461 6.70289850 1.96271433
C 3.97152087 -0.00000000 2.33834992
