&CONTROL
calculation = 'relax'
prefix = 'scf'
pseudo_dir = '/vol0403/data/hp230205/u10028/POT_HYBRID_KKJUS_GBRV'
outdir = './data'
tprnfor = .true.
nstep = 50
disk_io = 'non'
/
&SYSTEM
ibrav = 0
ecutwfc = 50.0
ecutrho = 400
occupations = 'smearing'
smearing = 'mp'
degauss = 0.01
assume_isolated = 'esm'
esm_bc = 'bc1'
input_dft = 'BEEF-VDW'
nosym = .true.
nspin = 1
ntyp = 5
nat = 33
/
&ELECTRONS
electron_maxstep = 200
mixing_beta = 0.1
conv_thr = 1e-06
/
&IONS
ion_dynamics = 'bfgs'
upscale = 1.0
/
&CELL
/

K_POINTS {automatic}
6 6 1 0 0 0

ATOMIC_SPECIES
Au 196.9 Au.pbe-n-rrkjus_psl.1.0.0.UPF
C 12.01 C.pbe-n-rrkjus_psl.1.0.0.UPF
In 114.8 In.pbe-dn-rrkjus_psl.1.0.0.UPF
Li 6.941 Li.pbe-sl-rrkjus_psl.1.0.0.UPF
Mg 24.30 Mg.pbe-spnl-rrkjus_psl.1.0.0.UPF


CELL_PARAMETERS {angstrom}
6.64779000 0.00000000 0.00000000
0.00000000 9.40140000 0.00000000
0.00000000 0.00000000 27.05110000

ATOMIC_POSITIONS {angstrom}
Li 0.00000000 2.35035000 -1.17509978 0 0 0
Li 0.00000000 7.05105000 -1.17509978 0 0 0
Li 3.32389500 4.70070000 -3.525569860000001 0 0 0
Li 3.32389500 0.00000000 -3.525569860000001 0 0 0
Li 0.36031022 7.05105000 3.98165141
Li 6.31420390 2.35035000 4.37470389
Li 3.20350352 0.00940140 1.41883019
Li 3.20350352 4.69129860 1.41883019
Mg 4.98584250 0.00000000 -1.17509978 0 0 0
Mg 4.98584250 4.70070000 -1.17509978 0 0 0
Mg 1.66194750 2.35035000 -3.525569860000001 0 0 0
Mg 1.66194750 7.05105000 -3.525569860000001 0 0 0
Mg 4.96676334 4.86663471 3.72574800
Mg 4.96676334 9.23546529 3.72574800
Mg 1.61235499 7.05114401 1.18537920
Mg 1.44935118 2.35035000 1.58411242
In 1.66194750 0.00000000 -1.17509978 0 0 0
In 1.66194750 4.70070000 -1.17509978 0 0 0
In 4.98584250 2.35035000 -3.525569860000001 0 0 0
In 4.98584250 7.05105000 -3.525569860000001 0 0 0
In 1.51157449 4.59060961 4.11798895
In 1.51157449 0.11009039 4.11798895
In 4.99335450 7.05105000 1.27572988
In 5.03909130 2.35035000 1.22352125
Au 0.00000000 0.00000000 -3.525569860000001 0 0 0
Au 0.00000000 4.70070000 -3.525569860000001 0 0 0
Au 3.32389500 7.05105000 -1.17509978 0 0 0
Au 3.32389500 2.35035000 -1.17509978 0 0 0
Au 0.03662932 4.74451052 1.18186256
Au 0.03662932 9.35758948 1.18186256
Au 3.73080623 2.35035000 3.64486521
Au 3.17259130 7.05105000 3.47471380
C 1.61089247 2.35035000 3.83476394
