&CONTROL
calculation = 'relax'
prefix = 'scf'
pseudo_dir = '/vol0403/data/hp230205/u10028/POT_HYBRID_KKJUS_GBRV'
outdir = './data'
tprnfor = .true.
nstep = 50
disk_io = 'non'
/
&SYSTEM
ibrav = 0
ecutwfc = 50.0
ecutrho = 400
occupations = 'smearing'
smearing = 'mp'
degauss = 0.01
assume_isolated = 'esm'
esm_bc = 'bc1'
input_dft = 'BEEF-VDW'
nosym = .true.
nspin = 1
ntyp = 6
nat = 18
/
&ELECTRONS
electron_maxstep = 200
mixing_beta = 0.1
conv_thr = 1e-06
/
&IONS
ion_dynamics = 'bfgs'
upscale = 1.0
/
&CELL
/

K_POINTS {automatic}
12 7 2 0  0  0

ATOMIC_SPECIES
C 12.01 C.pbe-n-rrkjus_psl.1.0.0.UPF
Ge 72.64 Ge.pbe-dn-rrkjus_psl.1.0.0.UPF
Li 6.941 Li.pbe-sl-rrkjus_psl.1.0.0.UPF
O 15.99 O.pbe-n-rrkjus_psl.1.0.0.UPF
Pd 106.4 Pd.pbe-n-rrkjus_psl.1.0.0.UPF
V 50.94 V.pbe-spnl-rrkjus_psl.1.0.0.UPF


CELL_PARAMETERS {angstrom}
5.17268000 0.00000000 0.00000000
0.00000000 9.40562000 0.00000000
0.00000000 0.00000000 23.56350000

ATOMIC_POSITIONS {angstrom}
Li 4.80474727 2.39833904 0.75026184
Li 2.34575865 2.35140500 -1.7816362300000002 0 0 0
Li 5.06374336 7.13171731 0.87349895
Li 2.34575865 7.05421500 -1.7816362300000002 0 0 0
V 3.29122110 0.03122666 1.46965550
V 4.15019634 0.00000000 -0.5938002000000004 0 0 0
V 3.32179164 4.67054872 1.40980421
V 4.15019634 4.70281000 -0.5938002000000004 0 0 0
Ge 0.66681018 0.26326330 1.77574536
Ge 1.56385634 0.00000000 -0.5938002000000004 0 0 0
Ge 0.71538164 4.61486745 1.77645227
Ge 1.56385634 4.70281000 -0.5938002000000004 0 0 0
Pd 2.20873436 2.39081455 0.80869932
Pd 4.93209865 2.35140500 -1.7816362300000002 0 0 0
Pd 2.44874671 6.98818755 0.67768626
Pd 4.93209865 7.05421500 -1.7816362300000002 0 0 0
C 3.36684569 7.82594612 2.66291114
O 3.45648823 7.12155924 3.60427296
