&CONTROL
calculation = 'relax'
prefix = 'scf'
pseudo_dir = '/vol0403/data/hp230205/u10028/POT_HYBRID_KKJUS_GBRV'
outdir = './data'
tprnfor = .true.
nstep = 50
disk_io = 'non'
/
&SYSTEM
ibrav = 0
ecutwfc = 50.0
ecutrho = 400
occupations = 'smearing'
smearing = 'mp'
degauss = 0.01
assume_isolated = 'esm'
esm_bc = 'bc1'
input_dft = 'BEEF-VDW'
nosym = .true.
nspin = 1
ntyp = 5
nat = 33
/
&ELECTRONS
electron_maxstep = 200
mixing_beta = 0.1
conv_thr = 1e-06
/
&IONS
ion_dynamics = 'bfgs'
upscale = 1.0
/
&CELL
/

K_POINTS {automatic}
6 6 1 0 0 0

ATOMIC_SPECIES
Ag 107.8 Ag.pbe-n-rrkjus_psl.1.0.0.UPF
Al 26.98 Al.pbe-nl-rrkjus_psl.1.0.0.UPF
C 12.01 C.pbe-n-rrkjus_psl.1.0.0.UPF
Li 6.941 Li.pbe-sl-rrkjus_psl.1.0.0.UPF
Mg 24.30 Mg.pbe-spnl-rrkjus_psl.1.0.0.UPF


CELL_PARAMETERS {angstrom}
6.43596000 0.00000000 0.00000000
0.00000000 9.10182000 0.00000000
0.00000000 0.00000000 26.82640000

ATOMIC_POSITIONS {angstrom}
Li 0.00000000 2.27545500 -1.1377076200000005 0 0 0
Li 0.00000000 6.82636500 -1.1377076200000005 0 0 0
Li 3.21798000 4.55091000 -3.4131228699999987 0 0 0
Li 3.21798000 0.00000000 -3.4131228699999987 0 0 0
Li 0.22706067 7.03024577 4.11248712
Li 0.22706067 2.07148321 4.11248712
Li 3.31252425 0.00000000 1.13234234
Li 3.23902559 4.55091000 1.25949948
Mg 4.82697000 0.00000000 -1.1377076200000005 0 0 0
Mg 4.82697000 4.55091000 -1.1377076200000005 0 0 0
Mg 1.60899000 2.27545500 -3.4131228699999987 0 0 0
Mg 1.60899000 6.82636500 -3.4131228699999987 0 0 0
Mg 5.02133599 4.55091000 3.58481183
Mg 4.58871076 0.00000000 3.72135821
Mg 1.54520964 6.83482969 1.16507055
Mg 1.54520964 2.26699031 1.16507055
Al 1.60899000 0.00000000 -1.1377076200000005 0 0 0
Al 1.60899000 4.55091000 -1.1377076200000005 0 0 0
Al 4.82697000 2.27545500 -3.4131228699999987 0 0 0
Al 4.82697000 6.82636500 -3.4131228699999987 0 0 0
Al 1.51071289 4.55091000 3.52364764
Al 1.89841512 0.00000000 3.43914448
Al 4.87363071 6.80015176 1.23267308
Al 4.87363071 2.30166824 1.23267308
Ag 0.00000000 0.00000000 -3.4131228699999987 0 0 0
Ag 0.00000000 4.55091000 -3.4131228699999987 0 0 0
Ag 3.21798000 6.82636500 -1.1377076200000005 0 0 0
Ag 3.21798000 2.27545500 -1.1377076200000005 0 0 0
Ag 6.43370741 4.55091000 1.06420329
Ag 6.34778735 0.00000000 1.28686241
Ag 3.17048262 2.44037998 3.34417902
Ag 3.17048262 6.66144002 3.34417902
C 0.14834888 0.00000000 4.02127736
