&CONTROL
calculation = 'relax'
prefix = 'scf'
pseudo_dir = '/vol0403/data/hp230205/u10028/POT_HYBRID_KKJUS_GBRV'
outdir = './data'
tprnfor = .true.
nstep = 70
disk_io = 'non'
/
&SYSTEM
ibrav = 0
ecutwfc = 50.0
ecutrho = 400
occupations = 'smearing'
smearing = 'mp'
degauss = 0.01
assume_isolated = 'esm'
esm_bc = 'bc1'
input_dft = 'BEEF-VDW'
nosym = .true.
nspin = 1
ntyp = 5
nat = 33
/
&ELECTRONS
electron_maxstep = 200
mixing_beta = 0.1
conv_thr = 1e-06
/
&IONS
ion_dynamics = 'bfgs'
upscale = 1.0
/
&CELL
/

K_POINTS {automatic}
9 6 2 0  0  0

ATOMIC_SPECIES
C 12.01 C.pbe-n-rrkjus_psl.1.0.0.UPF
In 114.8 In.pbe-dn-rrkjus_psl.1.0.0.UPF
Pd 106.4 Pd.pbe-n-rrkjus_psl.1.0.0.UPF
Pt 195.0 Pt.pbe-n-rrkjus_psl.1.0.0.UPF
Y 88.90 Y.pbe-spn-rrkjus_psl.1.0.0.UPF


CELL_PARAMETERS {angstrom}
6.82696000 0.00000000 0.00000000
-0.00000000 9.65478000 0.00000000
0.00000000 0.00000000 27.24110000

ATOMIC_POSITIONS {angstrom}
Y 0.00000000 2.41369500 -1.2067807299999984 0 0 0
Y 0.00000000 7.24108500 -1.2067807299999984 0 0 0
Y 3.41348000 4.82739000 -3.6206145999999997 0 0 0
Y 3.41348000 0.00000000 -3.6206145999999997 0 0 0
Y 0.07229751 7.24108500 3.69389316
Y 6.58392022 2.41369500 3.71459640
Y 3.39115584 9.61162313 1.20868761
Y 3.39115584 4.87054687 1.20868761
In 0.00000000 0.00000000 -3.6206145999999997 0 0 0
In 0.00000000 4.82739000 -3.6206145999999997 0 0 0
In 3.41348000 7.24108500 -1.2067807299999984 0 0 0
In 3.41348000 2.41369500 -1.2067807299999984 0 0 0
In 0.00894332 4.80421853 1.29694877
In 0.00894332 0.02317147 1.29694877
In 3.68846995 2.41369500 3.60644923
In 3.29646591 7.24108500 3.69471039
Pd 5.12022000 0.00000000 -1.2067807299999984 0 0 0
Pd 5.12022000 4.82739000 -1.2067807299999984 0 0 0
Pd 1.70674000 2.41369500 -3.6206145999999997 0 0 0
Pd 1.70674000 7.24108500 -3.6206145999999997 0 0 0
Pd 5.01467520 4.97752183 3.53180861
Pd 5.01467520 9.50464817 3.53180861
Pd 1.59525574 7.24108500 1.25363542
Pd 1.67362924 2.41369500 1.29912806
Pt 1.70674000 0.00000000 -1.2067807299999984 0 0 0
Pt 1.70674000 4.82739000 -1.2067807299999984 0 0 0
Pt 5.12022000 2.41369500 -3.6206145999999997 0 0 0
Pt 5.12022000 7.24108500 -3.6206145999999997 0 0 0
Pt 1.78361157 4.61884675 3.57920813
Pt 1.78361157 0.20844670 3.57920813
Pt 5.20234833 7.24108500 1.32991050
Pt 5.10820455 2.41369500 1.10680589
C 1.80334148 2.41379155 4.49314703
