&CONTROL
calculation = 'relax'
prefix = 'scf'
pseudo_dir = '/vol0403/data/hp230205/u10028/POT_HYBRID_KKJUS_GBRV'
outdir = './data'
tprnfor = .true.
nstep = 70
disk_io = 'non'
/
&SYSTEM
ibrav = 0
ecutwfc = 50.0
ecutrho = 400
occupations = 'smearing'
smearing = 'mp'
degauss = 0.01
assume_isolated = 'esm'
esm_bc = 'bc1'
input_dft = 'BEEF-VDW'
nosym = .true.
nspin = 1
ntyp = 6
nat = 34
/
&ELECTRONS
electron_maxstep = 200
mixing_beta = 0.1
conv_thr = 1e-06
/
&IONS
ion_dynamics = 'bfgs'
upscale = 1.0
/
&CELL
/

K_POINTS {automatic}
6 6 1 0 0 0

ATOMIC_SPECIES
Ag 107.8 Ag.pbe-n-rrkjus_psl.1.0.0.UPF
C 12.01 C.pbe-n-rrkjus_psl.1.0.0.UPF
Cu 63.54 Cu.pbe-dn-rrkjus_psl.1.0.0.UPF
Ge 72.64 Ge.pbe-dn-rrkjus_psl.1.0.0.UPF
Li 6.941 Li.pbe-sl-rrkjus_psl.1.0.0.UPF
O 15.99 O.pbe-n-rrkjus_psl.1.0.0.UPF


CELL_PARAMETERS {angstrom}
6.23049000 0.00000000 0.00000000
-0.00000000 8.81124000 0.00000000
0.00000000 0.00000000 26.60840000

ATOMIC_POSITIONS {angstrom}
Li 1.55762250 0.00000000 -1.101321679999998 0 0 0
Li 1.55762250 4.40562000 -1.101321679999998 0 0 0
Li 4.67286750 2.20281000 -3.30423111 0 0 0
Li 4.67286750 6.60843000 -3.30423111 0 0 0
Li 1.44366684 4.40368153 3.51284097
Li 1.44366684 0.00193847 3.51284097
Li 4.62339741 6.60843000 1.04757271
Li 4.56439467 2.20281000 1.04411362
Cu 0.00000000 2.20281000 -1.101321679999998 0 0 0
Cu 0.00000000 6.60843000 -1.101321679999998 0 0 0
Cu 3.11524500 4.40562000 -3.30423111 0 0 0
Cu 3.11524500 0.00000000 -3.30423111 0 0 0
Cu 6.13653421 6.60843000 3.11903665
Cu 6.03740711 2.20281000 3.05916775
Cu 3.14321990 0.00607976 1.39454624
Cu 3.14321990 4.39962836 1.39454624
Ag 0.00000000 0.00000000 -3.30423111 0 0 0
Ag 0.00000000 4.40562000 -3.30423111 0 0 0
Ag 3.11524500 6.60843000 -1.101321679999998 0 0 0
Ag 3.11524500 2.20281000 -1.101321679999998 0 0 0
Ag 6.20170514 4.38262266 1.14815246
Ag 6.20176744 0.02299734 1.14815246
Ag 3.24415384 2.20281000 3.54290846
Ag 3.17474618 6.60843000 3.37713813
Ge 4.67286750 0.00000000 -1.101321679999998 0 0 0
Ge 4.67286750 4.40562000 -1.101321679999998 0 0 0
Ge 1.55762250 2.20281000 -3.30423111 0 0 0
Ge 1.55762250 6.60843000 -3.30423111 0 0 0
Ge 4.81722795 4.44271532 3.48516823
Ge 4.81722795 8.77414468 3.48516823
Ge 1.58447591 6.60843000 1.17928429
Ge 1.64553471 2.20281000 1.28172663
C 2.78116613 2.20281000 5.80887980
O 3.21244064 2.20272189 6.86709587
