&CONTROL
calculation = 'relax'
prefix = 'scf'
pseudo_dir = '/vol0004/mdt0/data/hp150275/u10028/POT_KKJUS'
outdir = './data'
tprnfor = .true.
nstep = 50
disk_io = 'non'
/
&SYSTEM
ibrav = 0
ecutwfc = 50.0
ecutrho = 400
occupations = 'smearing'
smearing = 'mp'
degauss = 0.01
assume_isolated = 'esm'
esm_bc = 'bc1'
input_dft = 'BEEF-VDW'
nosym = .true.
nspin = 1
ntyp = 5
nat = 34
/
&ELECTRONS
electron_maxstep = 200
mixing_beta = 0.1
conv_thr = 1e-06
/
&IONS
ion_dynamics = 'bfgs'
upscale = 1.0
/
&CELL
/

K_POINTS {automatic}
8 6 1 0 0 0

ATOMIC_SPECIES
C 12.01 C.pbe-n-rrkjus_psl.1.0.0.UPF
In 114.8 In.pbe-dn-rrkjus_psl.1.0.0.UPF
Ir 192.2 Ir.pbe-n-rrkjus_psl.0.2.3.UPF
Li 6.941 Li.pbe-sl-rrkjus_psl.1.0.0.UPF
O 15.99 O.pbe-n-rrkjus_psl.1.0.0.UPF

CELL_PARAMETERS {angstrom}
6.17944000 0.00000000 0.00000000
0.00000000 8.73904000 0.00000000
0.00000000 0.00000000 26.55430000

ATOMIC_POSITIONS {angstrom}
Li 1.54486000 0.00000000 -1.0924439000000028 0 0 0
Li 4.63458000 4.36952000 -1.0924439000000028 0 0 0
Li 4.63458000 0.00000000 -1.0924439000000028 0 0 0
Li 1.54486000 4.36952000 -1.0924439000000028 0 0 0
Li 4.63458000 6.55428000 -3.2770661600000004 0 0 0
Li 1.54486000 2.18476000 -3.2770661600000004 0 0 0
Li 1.54486000 6.55428000 -3.2770661600000004 0 0 0
Li 4.63458000 2.18476000 -3.2770661600000004 0 0 0
Li 1.40829438 4.36593699 3.70220051
Li 4.77046589 0.00358301 3.70352822
Li 4.77083665 4.36584960 3.70193496
Li 1.40909770 0.00332084 3.70379376
Li 4.67004999 2.18510956 0.98489899
Li 1.52619809 6.55497912 1.01278100
Li 1.50939001 2.18528434 0.98463344
Li 4.65336550 6.55515390 1.01278100
In 0.00000000 0.00000000 -3.2770661600000004 0 0 0
In 3.08972000 2.18476000 -1.0924439000000028 0 0 0
In 3.08972000 6.55428000 -1.0924439000000028 0 0 0
In 0.00000000 4.36952000 -3.2770661600000004 0 0 0
In 6.17925462 4.37965729 1.23557158
In 3.08996718 6.55436739 3.13526620
In 3.08928744 2.18449783 3.09755910
In 0.00043256 8.72986401 1.23955472
Ir 0.00000000 6.55428000 -1.0924439000000028 0 0 0
Ir 3.08972000 0.00000000 -3.2770661600000004 0 0 0
Ir 0.00000000 2.18476000 -1.0924439000000028 0 0 0
Ir 3.08972000 4.36952000 -3.2770661600000004 0 0 0
Ir 0.00024718 2.18589608 3.08773400
Ir 3.08978179 4.36051879 1.27991726
Ir 6.17937821 6.55323132 3.11030516
Ir 3.08972000 0.00952555 1.27912063
C 3.08953462 2.18624564 7.04724568
O 3.08965821 2.18275002 8.18270754
