&CONTROL
calculation = 'relax'
prefix = 'scf'
pseudo_dir = '/vol0004/mdt0/data/hp150275/u10028/POT_KKJUS'
outdir = './data'
tprnfor = .true.
nstep = 50
disk_io = 'non'
/
&SYSTEM
ibrav = 0
ecutwfc = 50.0
ecutrho = 400
occupations = 'smearing'
smearing = 'mp'
degauss = 0.01
assume_isolated = 'esm'
esm_bc = 'bc1'
input_dft = 'BEEF-VDW'
nosym = .true.
nspin = 1
ntyp = 4
nat = 33
/
&ELECTRONS
electron_maxstep = 200
mixing_beta = 0.1
conv_thr = 1e-06
/
&IONS
ion_dynamics = 'bfgs'
upscale = 1.0
/
&CELL
/

K_POINTS {automatic}
8 6 1 0 0 0

ATOMIC_SPECIES
Au 196.9 Au.pbe-n-rrkjus_psl.1.0.0.UPF
C 12.01 C.pbe-n-rrkjus_psl.1.0.0.UPF
In 114.8 In.pbe-dn-rrkjus_psl.1.0.0.UPF
Li 6.941 Li.pbe-sl-rrkjus_psl.1.0.0.UPF

CELL_PARAMETERS {angstrom}
6.60991000 0.00000000 0.00000000
0.00000000 9.34782000 0.00000000
0.00000000 0.00000000 27.01090000

ATOMIC_POSITIONS {angstrom}
Li 0.00000000 7.01086500 -1.1684915300000007 0 0 0
Li 3.30495500 0.00000000 -3.5054745999999994 0 0 0
Li 0.00000000 2.33695500 -1.1684915300000007 0 0 0
Li 3.30495500 4.67391000 -3.5054745999999994 0 0 0
Li 1.65247750 2.33695500 -3.5054745999999994 0 0 0
Li 1.65247750 7.01086500 -3.5054745999999994 0 0 0
Li 4.95743250 4.67391000 -1.1684915300000007 0 0 0
Li 4.95743250 0.00000000 -1.1684915300000007 0 0 0
Li 0.19010101 2.33695500 3.76856077
Li 3.35413273 4.70756215 1.02911529
Li 0.04309661 7.01086500 3.51843983
Li 3.35413273 9.31416785 1.02911529
Li 1.91548582 7.01086500 1.41807225
Li 1.85295607 2.33695500 1.35567707
Li 4.77645316 0.22855420 3.45658487
Li 4.77645316 4.44535580 3.45658487
In 0.00000000 0.00000000 -3.5054745999999994 0 0 0
In 3.30495500 2.33695500 -1.1684915300000007 0 0 0
In 3.30495500 7.01086500 -1.1684915300000007 0 0 0
In 0.00000000 4.67391000 -3.5054745999999994 0 0 0
In 6.59199714 4.73392300 1.12419366
In 3.47476359 7.01086500 4.06324969
In 2.89461179 2.33695500 4.29392277
In 6.59199714 9.28780700 1.12419366
Au 1.65247750 0.00000000 -1.1684915300000007 0 0 0
Au 1.65247750 4.67391000 -1.1684915300000007 0 0 0
Au 4.95743250 7.01086500 -3.5054745999999994 0 0 0
Au 4.95743250 2.33695500 -3.5054745999999994 0 0 0
Au 1.82664863 4.82001643 3.27047977
Au 1.82664863 9.20171357 3.27047977
Au 4.74677467 2.33695500 1.24439216
Au 4.80461138 7.01086500 1.38295808
C 4.85372301 2.33695500 3.35745487
