&CONTROL
calculation = 'relax'
prefix = 'scf'
pseudo_dir = '/vol0403/data/hp230205/u10028/POT_HYBRID_KKJUS_GBRV'
outdir = './data'
tprnfor = .true.
nstep = 50
disk_io = 'non'
/
&SYSTEM
ibrav = 0
ecutwfc = 50.0
ecutrho = 400
occupations = 'smearing'
smearing = 'mp'
degauss = 0.01
assume_isolated = 'esm'
esm_bc = 'bc1'
input_dft = 'BEEF-VDW'
nosym = .true.
nspin = 1
ntyp = 6
nat = 34
/
&ELECTRONS
electron_maxstep = 200
mixing_beta = 0.1
conv_thr = 1e-06
/
&IONS
ion_dynamics = 'bfgs'
upscale = 1.0
/
&CELL
/

K_POINTS {automatic}
6 10 2 0  0  0

ATOMIC_SPECIES
C 12.01 C.pbe-n-rrkjus_psl.1.0.0.UPF
Ge 72.64 Ge.pbe-dn-rrkjus_psl.1.0.0.UPF
Li 6.941 Li.pbe-sl-rrkjus_psl.1.0.0.UPF
O 15.99 O.pbe-n-rrkjus_psl.1.0.0.UPF
Pd 106.4 Pd.pbe-n-rrkjus_psl.1.0.0.UPF
V 50.94 V.pbe-spnl-rrkjus_psl.1.0.0.UPF


CELL_PARAMETERS {angstrom}
9.40562000 0.00000000 0.00000000
0.00000000 5.68832000 0.00000000
0.00000000 0.00000000 26.48090000

ATOMIC_POSITIONS {angstrom}
Li 2.51590929 1.41747246 3.75843414
Li 2.35140500 1.42208000 -1.0801559099999984 0 0 0
Li 2.51525090 4.25890207 3.76240627
Li 2.35140500 4.26624000 -1.0801559099999984 0 0 0
Li 7.24345607 1.39739269 3.85323576
Li 7.05421500 1.42208000 -1.0801559099999984 0 0 0
Li 7.22003608 4.26544364 3.75843414
Li 7.05421500 4.26624000 -1.0801559099999984 0 0 0
V 0.02737035 1.42111299 1.03619762
V 0.00000000 1.42208000 -3.240467729999999 0 0 0
V 0.04335991 4.25372570 1.03593281
V 0.00000000 4.26624000 -3.240467729999999 0 0 0
V 4.78689624 1.41900831 1.03540319
V 4.70281000 1.42208000 -3.240467729999999 0 0 0
V 4.77645600 4.25799194 1.03884571
V 4.70281000 4.26624000 -3.240467729999999 0 0 0
Ge 0.23137825 5.66482724 3.16949892
Ge 0.00000000 0.00000000 -1.0801559099999984 0 0 0
Ge 0.19065192 2.83323843 3.20154081
Ge 0.00000000 2.84416000 -1.0801559099999984 0 0 0
Ge 4.81116274 5.67853609 3.19624463
Ge 4.70281000 0.00000000 -1.0801559099999984 0 0 0
Ge 4.82687013 2.82709504 3.21080912
Ge 4.70281000 2.84416000 -1.0801559099999984 0 0 0
Pd 2.43041221 5.68052700 1.51656114
Pd 2.35140500 0.00000000 -3.240467729999999 0 0 0
Pd 2.44000594 2.83852856 1.52900717
Pd 2.35140500 2.84416000 -3.240467729999999 0 0 0
Pd 7.12240575 5.67961687 1.58779476
Pd 7.05421500 0.00000000 -3.240467729999999 0 0 0
Pd 7.12146518 2.82811894 1.60130002
Pd 7.05421500 2.84416000 -3.240467729999999 0 0 0
C 7.73480566 0.53674988 5.71987440
O 8.02844912 0.03026186 6.70416945
