&CONTROL
calculation = 'relax'
prefix = 'scf'
pseudo_dir = '/vol0403/data/hp230205/u10028/POT_HYBRID_KKJUS_GBRV'
outdir = './data'
tprnfor = .true.
nstep = 70
disk_io = 'non'
/
&SYSTEM
ibrav = 0
ecutwfc = 50.0
ecutrho = 400
occupations = 'smearing'
smearing = 'mp'
degauss = 0.01
assume_isolated = 'esm'
esm_bc = 'bc1'
input_dft = 'BEEF-VDW'
nosym = .true.
nspin = 1
ntyp = 6
nat = 34
/
&ELECTRONS
electron_maxstep = 200
mixing_beta = 0.1
conv_thr = 1e-06
/
&IONS
ion_dynamics = 'bfgs'
upscale = 1.0
/
&CELL
/

K_POINTS {automatic}
9 6 2 0  0  0

ATOMIC_SPECIES
Au 196.9 Au.pbe-n-rrkjus_psl.1.0.0.UPF
C 12.01 C.pbe-n-rrkjus_psl.1.0.0.UPF
In 114.8 In.pbe-dn-rrkjus_psl.1.0.0.UPF
O 15.99 O.pbe-n-rrkjus_psl.1.0.0.UPF
Pd 106.4 Pd.pbe-n-rrkjus_psl.1.0.0.UPF
Y 88.90 Y.pbe-spn-rrkjus_psl.1.0.0.UPF


CELL_PARAMETERS {angstrom}
6.93157000 0.00000000 0.00000000
-0.00000000 9.80272000 0.00000000
0.00000000 0.00000000 27.35200000

ATOMIC_POSITIONS {angstrom}
Y 5.19867750 0.00000000 -1.2253696000000005 0 0 0
Y 5.19867750 4.90136000 -1.2253696000000005 0 0 0
Y 1.73289250 2.45068000 -3.6761088000000015 0 0 0
Y 1.73289250 7.35204000 -3.6761088000000015 0 0 0
Y 5.02303152 4.77961022 3.60772880
Y 5.02289288 0.12469060 3.61073752
Y 1.71237505 7.35302027 1.30769912
Y 1.77864086 2.45107211 1.33094832
In 1.73289250 0.00000000 -1.2253696000000005 0 0 0
In 1.73289250 4.90136000 -1.2253696000000005 0 0 0
In 5.19867750 2.45068000 -3.6761088000000015 0 0 0
In 5.19867750 7.35204000 -3.6761088000000015 0 0 0
In 1.54185843 5.01556169 3.84213544
In 1.54185843 9.69038083 3.84186192
In 5.16131634 7.35262816 1.20403504
In 5.18356668 2.45117014 1.20458208
Pd 0.00000000 2.45068000 -1.2253696000000005 0 0 0
Pd 0.00000000 7.35204000 -1.2253696000000005 0 0 0
Pd 3.46578500 4.90136000 -3.6761088000000015 0 0 0
Pd 3.46578500 0.00000000 -3.6761088000000015 0 0 0
Pd 6.71946396 7.35311830 3.51910832
Pd 6.91424108 2.45166027 3.52485224
Pd 3.43771214 9.79174095 1.21114656
Pd 3.43660309 4.91410354 1.20977896
Au 0.00000000 0.00000000 -3.6761088000000015 0 0 0
Au 0.00000000 4.90136000 -3.6761088000000015 0 0 0
Au 3.46578500 7.35204000 -1.2253696000000005 0 0 0
Au 3.46578500 2.45068000 -1.2253696000000005 0 0 0
Au 6.92817353 4.87763742 1.26530352
Au 6.92699516 0.02529102 1.26639760
Au 3.05938705 2.45215041 4.02812904
Au 3.45344681 7.35311830 3.81040712
C 4.01081435 2.42117381 6.96764848
O 3.17701579 2.45675769 7.74280416
