&CONTROL
calculation = 'relax'
prefix = 'scf'
pseudo_dir = '/vol0403/data/hp230205/u10028/POT_HYBRID_KKJUS_GBRV'
outdir = './data'
tprnfor = .true.
nstep = 50
disk_io = 'non'
/
&SYSTEM
ibrav = 0
ecutwfc = 50.0
ecutrho = 400
occupations = 'smearing'
smearing = 'mp'
degauss = 0.01
assume_isolated = 'esm'
esm_bc = 'bc1'
input_dft = 'BEEF-VDW'
nosym = .true.
nspin = 1
ntyp = 5
nat = 33
/
&ELECTRONS
electron_maxstep = 200
mixing_beta = 0.1
conv_thr = 1e-06
/
&IONS
ion_dynamics = 'bfgs'
upscale = 1.0
/
&CELL
/

K_POINTS {automatic}
6 6 1 0 0 0

ATOMIC_SPECIES
C 12.01 C.pbe-n-rrkjus_psl.1.0.0.UPF
Li 6.941 Li.pbe-sl-rrkjus_psl.1.0.0.UPF
Mg 24.30 Mg.pbe-spnl-rrkjus_psl.1.0.0.UPF
Pb 207.2 Pb.pbe-dn-rrkjus_psl.1.0.0.UPF
Pd 106.4 Pd.pbe-n-rrkjus_psl.1.0.0.UPF


CELL_PARAMETERS {angstrom}
6.68280000 0.00000000 0.00000000
0.00000000 9.45090000 0.00000000
0.00000000 0.00000000 27.08820000

ATOMIC_POSITIONS {angstrom}
Li 0.00000000 0.00000000 -3.5442200899999996 0 0 0
Li 0.00000000 4.72545000 -3.5442200899999996 0 0 0
Li 3.34140000 7.08817500 -1.1813164 0 0 0
Li 3.34140000 2.36272500 -1.1813164 0 0 0
Li 0.17248307 4.67904608 1.38041467
Li 0.17248307 0.04640392 1.38041467
Li 3.64586837 2.36272500 3.90638932
Li 3.13770826 7.08817500 3.46376813
Mg 5.01210000 0.00000000 -1.1813164 0 0 0
Mg 5.01210000 4.72545000 -1.1813164 0 0 0
Mg 1.67070000 2.36272500 -3.5442200899999996 0 0 0
Mg 1.67070000 7.08817500 -3.5442200899999996 0 0 0
Mg 5.10258511 4.84906777 3.59243708
Mg 5.10245146 9.32671517 3.59243708
Mg 1.64690923 7.08817500 1.12659824
Mg 1.81110563 2.36272500 1.47413984
Pd 0.00000000 2.36272500 -1.1813164 0 0 0
Pd 0.00000000 7.08817500 -1.1813164 0 0 0
Pd 3.34140000 4.72545000 -3.5442200899999996 0 0 0
Pd 3.34140000 0.00000000 -3.5442200899999996 0 0 0
Pd 0.09342554 7.08817500 3.35785327
Pd 6.36596845 2.36272500 3.42232319
Pd 3.21756772 9.37226851 1.35332647
Pd 3.21756772 4.80417600 1.35332647
Pb 1.67070000 0.00000000 -1.1813164 0 0 0
Pb 1.67070000 4.72545000 -1.1813164 0 0 0
Pb 5.01210000 2.36272500 -3.5442200899999996 0 0 0
Pb 5.01210000 7.08817500 -3.5442200899999996 0 0 0
Pb 1.71794740 4.67725041 4.24580447
Pb 1.71794740 0.04829410 4.24580447
Pb 5.01437215 7.08817500 1.17102289
Pb 4.90196746 2.36272500 1.10655297
C 1.64804531 2.36272500 3.79424417
