&CONTROL
calculation = 'relax'
prefix = 'scf'
pseudo_dir = '/vol0403/data/hp230205/u10028/POT_HYBRID_KKJUS_GBRV'
outdir = './data'
tprnfor = .true.
nstep = 50
disk_io = 'non'
/
&SYSTEM
ibrav = 0
ecutwfc = 50.0
ecutrho = 400
occupations = 'smearing'
smearing = 'mp'
degauss = 0.01
assume_isolated = 'esm'
esm_bc = 'bc1'
input_dft = 'BEEF-VDW'
nosym = .true.
nspin = 1
ntyp = 4
nat = 16
/
&ELECTRONS
electron_maxstep = 200
mixing_beta = 0.1
conv_thr = 1e-06
/
&IONS
ion_dynamics = 'bfgs'
upscale = 1.0
/
&CELL
/

K_POINTS {automatic}
6 6 1 0 0 0

ATOMIC_SPECIES
Li 6.941 Li.pbe-sl-rrkjus_psl.1.0.0.UPF
Pb 207.2 Pb.pbe-dn-rrkjus_psl.1.0.0.UPF
Sn 118.7 Sn.pbe-dn-rrkjus_psl.1.0.0.UPF
Y 88.90 Y.pbe-spn-rrkjus_psl.1.0.0.UPF


CELL_PARAMETERS {angstrom}
6.55220000 0.00000000 0.00000000
0.00000000 9.36828000 0.00000000
0.00000000 0.00000000 24.89710000

ATOMIC_POSITIONS {angstrom}
Li 0.00000000 0.00000000 -2.4486297899999983 0 0 0
Li 2.94337928 9.36818632 0.78151997
Li 0.00000000 4.68414000 -2.4486297899999983 0 0 0
Li 2.94344481 4.68423368 0.78151997
Y 4.77760215 2.34207000 -0.8161269399999966 0 0 0
Y 1.01015267 2.34207000 2.40655369
Y 4.77760215 7.02621000 -0.8161269399999966 0 0 0
Y 1.00753179 7.02621000 2.40705163
Sn 3.27610000 0.00000000 -2.4486297899999983 0 0 0
Sn 5.96839898 0.00056210 1.09173783
Sn 3.27610000 4.68414000 -2.4486297899999983 0 0 0
Sn 5.96820241 4.68357790 1.09198681
Pb 1.50150215 2.34207000 -0.8161269399999966 0 0 0
Pb 4.33480448 2.34169527 2.77229209
Pb 1.50150215 7.02621000 -0.8161269399999966 0 0 0
Pb 4.33074211 7.02658473 2.77378591
