&CONTROL
calculation = 'relax'
prefix = 'scf'
pseudo_dir = '/vol0403/data/hp230205/u10028/POT_HYBRID_KKJUS_GBRV'
outdir = './data'
tprnfor = .true.
nstep = 70
disk_io = 'non'
/
&SYSTEM
ibrav = 0
ecutwfc = 50.0
ecutrho = 400
occupations = 'smearing'
smearing = 'mp'
degauss = 0.01
assume_isolated = 'esm'
esm_bc = 'bc1'
input_dft = 'BEEF-VDW'
nosym = .true.
nspin = 1
ntyp = 5
nat = 33
/
&ELECTRONS
electron_maxstep = 200
mixing_beta = 0.1
conv_thr = 1e-06
/
&IONS
ion_dynamics = 'bfgs'
upscale = 1.0
/
&CELL
/

K_POINTS {automatic}
9 6 2 0  0  0

ATOMIC_SPECIES
C 12.01 C.pbe-n-rrkjus_psl.1.0.0.UPF
Cu 63.54 Cu.pbe-dn-rrkjus_psl.1.0.0.UPF
Pd 106.4 Pd.pbe-n-rrkjus_psl.1.0.0.UPF
Sn 118.7 Sn.pbe-dn-rrkjus_psl.1.0.0.UPF
Y 88.90 Y.pbe-spn-rrkjus_psl.1.0.0.UPF


CELL_PARAMETERS {angstrom}
6.76496000 0.00000000 0.00000000
-0.00000000 9.56710000 0.00000000
0.00000000 0.00000000 27.17530000

ATOMIC_POSITIONS {angstrom}
Y 1.69124000 0.00000000 -1.1959849499999997 0 0 0
Y 1.69124000 4.78355000 -1.1959849499999997 0 0 0
Y 5.07372000 2.39177500 -3.5876831100000004 0 0 0
Y 5.07372000 7.17532500 -3.5876831100000004 0 0 0
Y 1.87024084 5.01000326 3.71051546
Y 1.87024084 9.34064674 3.71051546
Y 4.99714065 7.17532500 1.25196607
Y 5.09475903 2.39177500 1.24924854
Cu 0.00000000 0.00000000 -3.5876831100000004 0 0 0
Cu 0.00000000 4.78355000 -3.5876831100000004 0 0 0
Cu 3.38248000 7.17532500 -1.1959849499999997 0 0 0
Cu 3.38248000 2.39177500 -1.1959849499999997 0 0 0
Cu 0.07488811 4.82813269 1.29762058
Cu 0.07488811 9.52251731 1.29762058
Cu 3.13021464 2.39177500 3.62491327
Cu 3.88951375 7.17532500 4.28989286
Sn 5.07372000 0.00000000 -1.1959849499999997 0 0 0
Sn 5.07372000 4.78355000 -1.1959849499999997 0 0 0
Sn 1.69124000 2.39177500 -3.5876831100000004 0 0 0
Sn 1.69124000 7.17532500 -3.5876831100000004 0 0 0
Sn 5.20266014 4.74030671 3.67410056
Sn 5.20266014 0.04324329 3.67410056
Sn 1.67013332 7.17532500 1.14978694
Sn 1.68007782 2.39177500 1.20060475
Pd 0.00000000 2.39177500 -1.1959849499999997 0 0 0
Pd 0.00000000 7.17532500 -1.1959849499999997 0 0 0
Pd 3.38248000 4.78355000 -3.5876831100000004 0 0 0
Pd 3.38248000 0.00000000 -3.5876831100000004 0 0 0
Pd 6.74574751 7.17532500 3.47816665
Pd 0.37822891 2.39177500 3.67437231
Pd 3.33573413 0.00899307 1.23919368
Pd 3.33573413 4.77455693 1.23919368
C 5.04835140 2.39177500 3.68415542
