&CONTROL
calculation = 'relax'
prefix = 'scf'
pseudo_dir = '/vol0403/data/hp230205/u10028/POT_HYBRID_KKJUS_GBRV'
outdir = './data'
tprnfor = .true.
nstep = 50
disk_io = 'non'
/
&SYSTEM
ibrav = 0
ecutwfc = 50.0
ecutrho = 400
occupations = 'smearing'
smearing = 'mp'
degauss = 0.01
assume_isolated = 'esm'
esm_bc = 'bc1'
input_dft = 'BEEF-VDW'
nosym = .true.
nspin = 1
ntyp = 6
nat = 34
/
&ELECTRONS
electron_maxstep = 200
mixing_beta = 0.1
conv_thr = 1e-06
/
&IONS
ion_dynamics = 'bfgs'
upscale = 1.0
/
&CELL
/

K_POINTS {automatic}
6 6 1 0 0 0

ATOMIC_SPECIES
C 12.01 C.pbe-n-rrkjus_psl.1.0.0.UPF
Ge 72.64 Ge.pbe-dn-rrkjus_psl.1.0.0.UPF
In 114.8 In.pbe-dn-rrkjus_psl.1.0.0.UPF
Li 6.941 Li.pbe-sl-rrkjus_psl.1.0.0.UPF
O 15.99 O.pbe-n-rrkjus_psl.1.0.0.UPF
Sc 44.95 Sc.pbe-spn-rrkjus_psl.1.0.0.UPF


CELL_PARAMETERS {angstrom}
8.22048000 0.00000000 0.00000000
0.00000000 8.97372000 0.00000000
0.00000000 0.00000000 26.09470000

ATOMIC_POSITIONS {angstrom}
Li 0.00000000 2.24343000 -1.0158666700000012 0 0 0
Li 8.15504498 2.38395846 3.46172290
Li 0.00000000 6.73029000 -1.0158666700000012 0 0 0
Li 8.21554771 6.62000298 3.05960357
Li 4.11024000 2.24343000 -1.0158666700000012 0 0 0
Li 4.10267716 2.04699527 2.89259749
Li 4.11024000 6.73029000 -1.0158666700000012 0 0 0
Li 4.11303496 6.94108268 3.03611834
Sc 2.05512000 0.00000000 -1.0158666700000012 0 0 0
Sc 1.70780472 0.01112741 3.02307099
Sc 2.05512000 4.48686000 -1.0158666700000012 0 0 0
Sc 2.29836400 4.50157690 2.94269932
Sc 6.16536000 0.00000000 -1.0158666700000012 0 0 0
Sc 6.50988032 0.02162667 3.10944445
Sc 6.16536000 4.48686000 -1.0158666700000012 0 0 0
Sc 5.89827660 4.50238454 2.93617564
In 2.05512000 2.24343000 -3.0473390699999996 0 0 0
In 1.97620339 2.22745678 1.05866198
In 2.05512000 6.73029000 -3.0473390699999996 0 0 0
In 2.08726208 6.75721116 1.02917497
In 6.16536000 2.24343000 -3.0473390699999996 0 0 0
In 6.23827566 2.22045728 1.04926789
In 6.16536000 6.73029000 -3.0473390699999996 0 0 0
In 6.15179621 6.76806936 1.03909095
Ge 0.00000000 0.00000000 -3.0473390699999996 0 0 0
Ge 8.20543652 8.90166103 0.86373457
Ge 0.00000000 4.48686000 -3.0473390699999996 0 0 0
Ge 8.21439684 4.47250205 1.25097992
Ge 4.11024000 0.00000000 -3.0473390699999996 0 0 0
Ge 4.12947592 8.95415729 1.13433661
Ge 4.11024000 4.48686000 -3.0473390699999996 0 0 0
Ge 4.10933575 4.47052783 0.93001511
C 0.13440485 0.45057048 4.24691242
O 7.27117897 1.01412010 4.75001824
