&CONTROL
calculation = 'relax'
prefix = 'scf'
pseudo_dir = '/vol0403/data/hp230205/u10028/POT_HYBRID_KKJUS_GBRV'
outdir = './data'
tprnfor = .true.
nstep = 50
disk_io = 'non'
/
&SYSTEM
ibrav = 0
ecutwfc = 50.0
ecutrho = 400
occupations = 'smearing'
smearing = 'mp'
degauss = 0.01
assume_isolated = 'esm'
esm_bc = 'bc1'
input_dft = 'BEEF-VDW'
nosym = .true.
nspin = 1
ntyp = 6
nat = 18
/
&ELECTRONS
electron_maxstep = 200
mixing_beta = 0.1
conv_thr = 1e-06
/
&IONS
ion_dynamics = 'bfgs'
upscale = 1.0
/
&CELL
/

K_POINTS {automatic}
6 6 1 0 0 0

ATOMIC_SPECIES
Al 26.98 Al.pbe-nl-rrkjus_psl.1.0.0.UPF
C 12.01 C.pbe-n-rrkjus_psl.1.0.0.UPF
In 114.8 In.pbe-dn-rrkjus_psl.1.0.0.UPF
Li 6.941 Li.pbe-sl-rrkjus_psl.1.0.0.UPF
O 15.99 O.pbe-n-rrkjus_psl.1.0.0.UPF
Sc 44.95 Sc.pbe-spn-rrkjus_psl.1.0.0.UPF


CELL_PARAMETERS {angstrom}
6.04255000 0.00000000 0.00000000
0.00000000 8.49254000 0.00000000
0.00000000 0.00000000 24.52830000

ATOMIC_POSITIONS {angstrom}
Li 4.47184955 2.12313500 -0.7547357900000016 0 0 0
Li 1.30839335 2.12313500 2.15849040
Li 4.47184955 6.36940500 -0.7547357900000016 0 0 0
Li 1.29793974 6.36940500 2.16462247
Sc 1.45057455 2.12313500 -0.7547357900000016 0 0 0
Sc 4.24712712 2.12313500 2.19356587
Sc 1.45057455 6.36940500 -0.7547357900000016 0 0 0
Sc 4.24912116 6.36940500 2.07901871
Al 0.00000000 0.00000000 -2.264207370000001 0 0 0
Al 2.83721893 0.01664538 0.81213201
Al 0.00000000 4.24627000 -2.264207370000001 0 0 0
Al 2.83727935 4.22970955 0.81213201
In 3.02127500 0.00000000 -2.264207370000001 0 0 0
In 5.86937052 0.01630568 0.80011315
In 3.02127500 4.24627000 -2.264207370000001 0 0 0
In 5.86924967 4.22987940 0.80035843
C 1.33552440 2.12313500 4.15043364
O 1.33449717 2.12321993 5.30694299
