&CONTROL
calculation = 'relax'
prefix = 'scf'
pseudo_dir = '/vol0403/data/hp230205/u10028/POT_HYBRID_KKJUS_GBRV'
outdir = './data'
tprnfor = .true.
nstep = 50
disk_io = 'non'
/
&SYSTEM
ibrav = 0
ecutwfc = 50.0
ecutrho = 400
occupations = 'smearing'
smearing = 'mp'
degauss = 0.01
assume_isolated = 'esm'
esm_bc = 'bc1'
input_dft = 'BEEF-VDW'
nosym = .true.
nspin = 2
ntyp = 5
nat = 33
starting_magnetization(1) = 0.0
starting_magnetization(2) = 0.0
starting_magnetization(3) = 0.1
starting_magnetization(4) = 0.0
starting_magnetization(5) = 0.0
/
&ELECTRONS
electron_maxstep = 400
mixing_beta = 0.05
conv_thr = 1e-06
/
&IONS
ion_dynamics = 'bfgs'
upscale = 1.0
/
&CELL
/

K_POINTS {automatic}
6 6 1 0 0 0

ATOMIC_SPECIES
Al 26.98 Al.pbe-nl-rrkjus_psl.1.0.0.UPF
C 12.01 C.pbe-n-rrkjus_psl.1.0.0.UPF
Fe 55.84 fe_pbe_v1.5.uspp.F.UPF
Li 6.941 Li.pbe-sl-rrkjus_psl.1.0.0.UPF
Pd 106.4 Pd.pbe-n-rrkjus_psl.1.0.0.UPF


CELL_PARAMETERS {angstrom}
8.84236000 0.00000000 0.00000000
0.00000000 5.67696000 0.00000000
0.00000000 0.00000000 26.45530000

ATOMIC_POSITIONS {angstrom}
Li 2.21059000 0.00000000 -1.0759370500000003 0 0 0
Li 2.08246420 0.00000000 3.63945562
Li 2.21059000 2.83848000 -1.0759370500000003 0 0 0
Li 2.37160938 2.83848000 3.52411051
Li 6.63177000 0.00000000 -1.0759370500000003 0 0 0
Li 6.75998422 0.00000000 3.63945562
Li 6.63177000 2.83848000 -1.0759370500000003 0 0 0
Li 6.47075062 2.83848000 3.52411051
Al 0.00000000 0.00000000 -3.2275466 0 0 0
Al 0.00000000 0.00000000 0.94630608
Al 0.00000000 2.83848000 -3.2275466 0 0 0
Al 0.00000000 2.83842323 0.81746877
Al 4.42118000 0.00000000 -3.2275466 0 0 0
Al 4.42118000 0.00000000 0.75873800
Al 4.42118000 2.83848000 -3.2275466 0 0 0
Al 4.42118000 2.83853677 0.94921616
Fe 0.00000000 1.41924000 -1.0759370500000003 0 0 0
Fe 0.00000000 1.57785426 2.98389329
Fe 0.00000000 4.25772000 -1.0759370500000003 0 0 0
Fe 0.00000000 4.09904897 2.98389329
Fe 4.42118000 1.41924000 -1.0759370500000003 0 0 0
Fe 4.42118000 1.06289722 2.86193435
Fe 4.42118000 4.25772000 -1.0759370500000003 0 0 0
Fe 4.42118000 4.61428986 2.86193435
Pd 2.21059000 1.41924000 -3.2275466 0 0 0
Pd 2.20687621 1.42293002 1.21641469
Pd 2.21059000 4.25772000 -3.2275466 0 0 0
Pd 2.20687621 4.25402998 1.21641469
Pd 6.63177000 1.41924000 -3.2275466 0 0 0
Pd 6.63548379 1.42293002 1.21641469
Pd 6.63177000 4.25772000 -3.2275466 0 0 0
Pd 6.63548379 4.25402998 1.21641469
C 0.00000000 5.67684646 3.75850447
