&CONTROL
calculation = 'relax'
prefix = 'scf'
pseudo_dir = '/vol0403/data/hp230205/u10028/POT_HYBRID_KKJUS_GBRV'
outdir = './data'
tprnfor = .true.
nstep = 50
disk_io = 'non'
/
&SYSTEM
ibrav = 0
ecutwfc = 50.0
ecutrho = 400
occupations = 'smearing'
smearing = 'mp'
degauss = 0.01
assume_isolated = 'esm'
esm_bc = 'bc1'
input_dft = 'BEEF-VDW'
nosym = .true.
nspin = 1
ntyp = 6
nat = 34
/
&ELECTRONS
electron_maxstep = 200
mixing_beta = 0.1
conv_thr = 1e-06
/
&IONS
ion_dynamics = 'bfgs'
upscale = 1.0
/
&CELL
/

K_POINTS {automatic}
6 6 1 0 0 0

ATOMIC_SPECIES
C 12.01 C.pbe-n-rrkjus_psl.1.0.0.UPF
Ge 72.64 Ge.pbe-dn-rrkjus_psl.1.0.0.UPF
Li 6.941 Li.pbe-sl-rrkjus_psl.1.0.0.UPF
O 15.99 O.pbe-n-rrkjus_psl.1.0.0.UPF
Pd 106.4 Pd.pbe-n-rrkjus_psl.1.0.0.UPF
V 50.94 V.pbe-spnl-rrkjus_psl.1.0.0.UPF


CELL_PARAMETERS {angstrom}
5.68832000 0.00000000 0.00000000
0.00000000 8.64114000 0.00000000
0.00000000 0.00000000 27.05420000

ATOMIC_POSITIONS {angstrom}
Li 1.42208000 0.00000000 -1.1757755300000028 0 0 0
Li 1.43954314 8.63776996 3.77676632
Li 1.42208000 4.32057000 -1.1757755300000028 0 0 0
Li 1.43954314 4.32394004 3.77676632
Li 4.26624000 0.00000000 -1.1757755300000028 0 0 0
Li 4.24883374 8.63776996 3.77676632
Li 4.26624000 4.32057000 -1.1757755300000028 0 0 0
Li 4.24883374 4.32394004 3.77703686
V 1.42208000 2.16028500 -3.5270560500000023 0 0 0
V 1.37446876 2.16028500 1.12680743
V 1.42208000 6.48085500 -3.5270560500000023 0 0 0
V 1.43686963 6.48085500 1.16576548
V 4.26624000 2.16028500 -3.5270560500000023 0 0 0
V 4.31385124 2.16028500 1.12680743
V 4.26624000 6.48085500 -3.5270560500000023 0 0 0
V 4.25145037 6.48085500 1.16576548
Ge 0.00000000 0.00000000 -3.5270560500000023 0 0 0
Ge 0.00005688 8.63198039 1.25531488
Ge 0.00000000 4.32057000 -3.5270560500000023 0 0 0
Ge 0.00000000 4.32964320 1.25531488
Ge 2.84416000 0.00000000 -3.5270560500000023 0 0 0
Ge 2.84416000 0.02557777 1.22907231
Ge 2.84416000 4.32057000 -3.5270560500000023 0 0 0
Ge 2.84421688 4.29490581 1.22907231
Pd 0.00000000 2.16028500 -1.1757755300000028 0 0 0
Pd 0.00000000 2.16028500 3.51136462
Pd 0.00000000 6.48085500 -1.1757755300000028 0 0 0
Pd 0.00000000 6.48085500 3.36337814
Pd 2.84416000 2.16028500 -1.1757755300000028 0 0 0
Pd 2.84416000 2.16028500 3.29736590
Pd 2.84416000 6.48085500 -1.1757755300000028 0 0 0
Pd 2.84416000 6.48085500 3.39990131
C 0.00000000 2.16037141 5.43708257
O 5.68826312 2.16037141 6.59608450
