&CONTROL
calculation = 'relax'
prefix = 'scf'
pseudo_dir = '/vol0004/mdt0/data/hp150275/u10028/POT_KKJUS'
outdir = './data'
tprnfor = .true.
nstep = 50
disk_io = 'non'
/
&SYSTEM
ibrav = 0
ecutwfc = 50.0
ecutrho = 400
occupations = 'smearing'
smearing = 'mp'
degauss = 0.01
assume_isolated = 'esm'
esm_bc = 'bc1'
input_dft = 'BEEF-VDW'
nosym = .true.
nspin = 1
ntyp = 4
nat = 34
/
&ELECTRONS
electron_maxstep = 200
mixing_beta = 0.1
conv_thr = 1e-06
/
&IONS
ion_dynamics = 'bfgs'
upscale = 1.0
/
&CELL
/

K_POINTS {automatic}
8 6 1 0 0 0

ATOMIC_SPECIES
C 12.01 C.pbe-n-rrkjus_psl.1.0.0.UPF
O 15.99 O.pbe-n-rrkjus_psl.1.0.0.UPF
Pt 195.0 Pt.pbe-n-rrkjus_psl.1.0.0.UPF
Zr 91.22 Zr.pbe-spn-rrkjus_psl.1.0.0.UPF

CELL_PARAMETERS {angstrom}
6.75388000 0.00000000 0.00000000
0.00000000 9.55143000 0.00000000
0.00000000 0.00000000 27.16360000

ATOMIC_POSITIONS {angstrom}
Zr 1.68847000 2.38785750 -3.5817923 0 0 0
Zr 1.68847000 0.00000000 -1.1938402199999985 0 0 0
Zr 1.68792969 2.29081497 1.13000576
Zr 1.68813231 4.77571500 3.66192492
Zr 1.68847000 7.16357250 -3.5817923 0 0 0
Zr 1.68847000 4.77571500 -1.1938402199999985 0 0 0
Zr 1.68792969 7.26051951 1.13000576
Zr 1.68907785 0.00000000 3.58396538
Zr 5.06541000 2.38785750 -3.5817923 0 0 0
Zr 5.06541000 0.00000000 -1.1938402199999985 0 0 0
Zr 5.06493723 2.46226314 1.11479414
Zr 5.06493723 4.77571500 3.45466665
Zr 5.06541000 7.16357250 -3.5817923 0 0 0
Zr 5.06541000 4.77571500 -1.1938402199999985 0 0 0
Zr 5.06493723 7.08916686 1.11479414
Zr 5.06493723 0.00000000 3.69859578
Pt 0.00000000 0.00000000 -3.5817923 0 0 0
Pt 0.00000000 2.38785750 -1.1938402199999985 0 0 0
Pt 6.51594081 0.00000000 1.37447816
Pt 6.74753135 2.39645379 3.32591118
Pt 0.00000000 4.77571500 -3.5817923 0 0 0
Pt 0.00000000 7.16357250 -1.1938402199999985 0 0 0
Pt 0.24050567 4.77571500 1.34215348
Pt 6.74759889 7.15497621 3.32591118
Pt 3.37694000 0.00000000 -3.5817923 0 0 0
Pt 3.37694000 2.38785750 -1.1938402199999985 0 0 0
Pt 3.61096194 0.00000000 1.37719452
Pt 3.38328865 2.40094296 3.32563955
Pt 3.37694000 4.77571500 -3.5817923 0 0 0
Pt 3.37694000 7.16357250 -1.1938402199999985 0 0 0
Pt 3.13285478 4.77571500 1.33998039
Pt 3.38328865 7.15048704 3.32563955
C 1.70697563 0.00000000 5.85484234
O 1.71298658 0.00000000 7.01038189
