&CONTROL
calculation = 'relax'
prefix = 'scf'
pseudo_dir = '/vol0004/mdt0/data/hp150275/u10028/POT_KKJUS'
outdir = './data'
tprnfor = .true.
nstep = 50
disk_io = 'non'
/
&SYSTEM
ibrav = 0
ecutwfc = 50.0
ecutrho = 400
occupations = 'smearing'
smearing = 'mp'
degauss = 0.01
assume_isolated = 'esm'
esm_bc = 'bc1'
input_dft = 'BEEF-VDW'
nosym = .true.
nspin = 1
ntyp = 3
nat = 33
/
&ELECTRONS
electron_maxstep = 200
mixing_beta = 0.1
conv_thr = 1e-06
/
&IONS
ion_dynamics = 'bfgs'
upscale = 1.0
/
&CELL
/

K_POINTS {automatic}
8 6 1 0 0 0

ATOMIC_SPECIES
C 12.01 C.pbe-n-rrkjus_psl.1.0.0.UPF
Ni 58.69 Ni.pbe-spn-rrkjus_psl.1.0.0.UPF
Ti 47.86 Ti.pbe-spn-rrkjus_psl.1.0.0.UPF

CELL_PARAMETERS {angstrom}
6.05499000 0.00000000 0.00000000
0.00000000 8.56306000 0.00000000
0.00000000 0.00000000 26.42230000

ATOMIC_POSITIONS {angstrom}
Ti 1.51374750 2.14076500 -3.2111021199999996 0 0 0
Ti 1.51374750 4.28153000 -1.0703673699999996 0 0 0
Ti 1.51368695 2.15121193 1.07855829
Ti 1.46542868 4.28161563 3.25602003
Ti 1.51374750 6.42229500 -3.2111021199999996 0 0 0
Ti 1.51374750 0.00000000 -1.0703673699999996 0 0 0
Ti 1.51368695 6.41159118 1.07935096
Ti 1.68340832 0.00000000 3.22299215
Ti 4.54124250 2.14076500 -3.2111021199999996 0 0 0
Ti 4.54124250 4.28153000 -1.0703673699999996 0 0 0
Ti 4.54130305 2.15129756 1.07855829
Ti 4.58956132 4.28153000 3.25602003
Ti 4.54124250 6.42229500 -3.2111021199999996 0 0 0
Ti 4.54124250 0.00000000 -1.0703673699999996 0 0 0
Ti 4.54130305 6.41159118 1.07908673
Ti 4.37152113 0.00008563 3.22299215
Ni 0.00000000 0.00000000 -3.2111021199999996 0 0 0
Ni 0.00000000 2.14076500 -1.0703673699999996 0 0 0
Ni 0.00024220 4.28187252 1.08437119
Ni 0.00000000 2.04074846 3.17543201
Ni 0.00000000 4.28153000 -3.2111021199999996 0 0 0
Ni 0.00000000 6.42229500 -1.0703673699999996 0 0 0
Ni 0.00006055 8.56177554 1.00801074
Ni 6.05480835 6.52188339 3.17939536
Ni 3.02749500 0.00000000 -3.2111021199999996 0 0 0
Ni 3.02749500 2.14076500 -1.0703673699999996 0 0 0
Ni 3.02731335 4.28144437 1.31635899
Ni 3.02755555 2.24257978 3.03671494
Ni 3.02749500 4.28153000 -3.2111021199999996 0 0 0
Ni 3.02749500 6.42229500 -1.0703673699999996 0 0 0
Ni 3.02737390 8.56297437 0.88012681
Ni 3.02767665 6.32082274 3.03750761
C 0.00000000 8.56280311 4.07775356
