&CONTROL
calculation = 'relax'
prefix = 'scf'
pseudo_dir = '/vol0004/mdt0/data/hp150275/u10028/POT_KKJUS'
outdir = './data'
tprnfor = .true.
nstep = 50
disk_io = 'non'
/
&SYSTEM
ibrav = 0
ecutwfc = 50.0
ecutrho = 400
occupations = 'smearing'
smearing = 'mp'
degauss = 0.01
assume_isolated = 'esm'
esm_bc = 'bc1'
input_dft = 'BEEF-VDW'
nosym = .true.
nspin = 1
ntyp = 3
nat = 32
/
&ELECTRONS
electron_maxstep = 200
mixing_beta = 0.1
conv_thr = 1e-06
/
&IONS
ion_dynamics = 'bfgs'
upscale = 1.0
/
&CELL
/

K_POINTS {automatic}
9 6 2 0  0  0

ATOMIC_SPECIES
Ge 72.64 Ge.pbe-dn-rrkjus_psl.1.0.0.UPF
Li 6.941 Li.pbe-sl-rrkjus_psl.1.0.0.UPF
Pd 106.4 Pd.pbe-n-rrkjus_psl.1.0.0.UPF

CELL_PARAMETERS {angstrom}
6.09904000 0.00000000 0.00000000
0.00000000 8.62534000 0.00000000
0.00000000 0.00000000 26.46900000

ATOMIC_POSITIONS {angstrom}
Li 1.52476000 0.00000000 -1.0780823700000006 0 0 0
Li 4.57428000 4.31267000 -1.0780823700000006 0 0 0
Li 4.57428000 0.00000000 -1.0780823700000006 0 0 0
Li 1.52476000 4.31267000 -1.0780823700000006 0 0 0
Li 4.57428000 6.46900500 -3.2345118 0 0 0
Li 1.52476000 2.15633500 -3.2345118 0 0 0
Li 1.52476000 6.46900500 -3.2345118 0 0 0
Li 4.57428000 2.15633500 -3.2345118 0 0 0
Li 1.51359876 4.31267000 3.47670315
Li 4.58544124 0.00000000 3.47670315
Li 4.58544124 4.31267000 3.47670315
Li 1.51359876 0.00000000 3.47670315
Li 4.56580233 2.15633500 0.95023710
Li 1.53323767 6.46900500 0.95023710
Li 1.53323767 2.15633500 0.95023710
Li 4.56580233 6.46900500 0.95023710
Ge 0.00000000 0.00000000 -3.2345118 0 0 0
Ge 3.04952000 2.15633500 -1.0780823700000006 0 0 0
Ge 3.04952000 6.46900500 -1.0780823700000006 0 0 0
Ge 0.00000000 4.31267000 -3.2345118 0 0 0
Ge 0.00000000 4.31267000 1.13816700
Ge 3.04952000 6.46900500 3.02196573
Ge 3.04952000 2.15633500 3.02196573
Ge 0.00000000 0.00000000 1.13816700
Pd 0.00000000 6.46900500 -1.0780823700000006 0 0 0
Pd 3.04952000 0.00000000 -3.2345118 0 0 0
Pd 0.00000000 2.15633500 -1.0780823700000006 0 0 0
Pd 3.04952000 4.31267000 -3.2345118 0 0 0
Pd 0.00000000 2.15633500 2.91688380
Pd 3.04952000 4.31267000 1.17760581
Pd 0.00000000 6.46900500 2.91688380
Pd 3.04952000 0.00000000 1.17760581
