&CONTROL
calculation = 'relax'
prefix = 'scf'
pseudo_dir = '/vol0403/data/hp230205/u10028/POT_HYBRID_KKJUS_GBRV'
outdir = './data'
tprnfor = .true.
nstep = 50
disk_io = 'non'
/
&SYSTEM
ibrav = 0
ecutwfc = 50.0
ecutrho = 400
occupations = 'smearing'
smearing = 'mp'
degauss = 0.01
assume_isolated = 'esm'
esm_bc = 'bc1'
input_dft = 'BEEF-VDW'
nosym = .true.
nspin = 1
ntyp = 5
nat = 33
/
&ELECTRONS
electron_maxstep = 200
mixing_beta = 0.1
conv_thr = 1e-06
/
&IONS
ion_dynamics = 'bfgs'
upscale = 1.0
/
&CELL
/

K_POINTS {automatic}
6 6 1 0 0 0

ATOMIC_SPECIES
C 12.01 C.pbe-n-rrkjus_psl.1.0.0.UPF
Ga 69.72 Ga.pbe-dnl-rrkjus_psl.1.0.0.UPF
Ge 72.64 Ge.pbe-dn-rrkjus_psl.1.0.0.UPF
Li 6.941 Li.pbe-sl-rrkjus_psl.1.0.0.UPF
Pd 106.4 Pd.pbe-n-rrkjus_psl.1.0.0.UPF


CELL_PARAMETERS {angstrom}
6.27488000 0.00000000 0.00000000
0.00000000 8.87402000 0.00000000
0.00000000 0.00000000 26.65550000

ATOMIC_POSITIONS {angstrom}
Li 4.70616000 0.00000000 -1.109135349999999 0 0 0
Li 4.70616000 4.43701000 -1.109135349999999 0 0 0
Li 1.56872000 2.21850500 -3.3276726200000013 0 0 0
Li 1.56872000 6.65551500 -3.3276726200000013 0 0 0
Li 4.86503996 4.43701000 3.48307419
Li 3.97777193 8.87384252 4.69723221
Li 1.42853918 6.76147080 1.20456205
Li 1.42753520 2.11343660 1.20456205
Ga 0.00000000 0.00000000 -3.3276726200000013 0 0 0
Ga 0.00000000 4.43701000 -3.3276726200000013 0 0 0
Ga 3.13744000 6.65551500 -1.109135349999999 0 0 0
Ga 3.13744000 2.21850500 -1.109135349999999 0 0 0
Ga 6.24300361 4.43780866 1.06248823
Ga 5.86017318 0.00017748 1.55481531
Ga 2.96638677 2.26340754 3.53558552
Ga 2.96619852 6.61034624 3.53558552
Ge 0.00000000 2.21850500 -1.109135349999999 0 0 0
Ge 0.00000000 6.65551500 -1.109135349999999 0 0 0
Ge 3.13744000 4.43701000 -3.3276726200000013 0 0 0
Ge 3.13744000 0.00000000 -3.3276726200000013 0 0 0
Ge 5.79679689 6.95226223 3.70351517
Ge 5.79660865 1.92175777 3.70378172
Ge 3.16435924 0.00088740 1.15738181
Ge 3.14076569 4.43727622 1.19389985
Pd 1.56872000 0.00000000 -1.109135349999999 0 0 0
Pd 1.56872000 4.43701000 -1.109135349999999 0 0 0
Pd 4.70616000 2.21850500 -3.3276726200000013 0 0 0
Pd 4.70616000 6.65551500 -3.3276726200000013 0 0 0
Pd 1.54675792 4.43674378 3.14321656
Pd 1.67018481 8.87393126 3.19252923
Pd 4.68244095 6.60369072 1.01397522
Pd 4.68300569 2.27121668 1.01397522
C 5.88596294 0.00000000 3.89810032
