&CONTROL
calculation = 'relax'
prefix = 'scf'
pseudo_dir = '/vol0004/mdt0/data/hp150275/u10028/POT_KKJUS'
outdir = './data'
tprnfor = .true.
nstep = 50
disk_io = 'non'
/
&SYSTEM
ibrav = 0
ecutwfc = 50.0
ecutrho = 400
occupations = 'smearing'
smearing = 'mp'
degauss = 0.01
assume_isolated = 'esm'
esm_bc = 'bc1'
input_dft = 'BEEF-VDW'
nosym = .true.
nspin = 1
ntyp = 3
nat = 33
/
&ELECTRONS
electron_maxstep = 200
mixing_beta = 0.1
conv_thr = 1e-06
/
&IONS
ion_dynamics = 'bfgs'
upscale = 1.0
/
&CELL
/

K_POINTS {automatic}
9 6 2 0  0  0

ATOMIC_SPECIES
C 12.01 C.pbe-n-rrkjus_psl.1.0.0.UPF
Rh 102.9 Rh.pbe-spn-rrkjus_psl.1.0.0.UPF
Zr 91.22 Zr.pbe-spn-rrkjus_psl.1.0.0.UPF

CELL_PARAMETERS {angstrom}
6.65024000 0.00000000 0.00000000
0.00000000 9.40485000 0.00000000
0.00000000 0.00000000 27.05360000

ATOMIC_POSITIONS {angstrom}
Zr 1.66256000 2.35121250 -3.526707299999998 0 0 0
Zr 1.66256000 0.00000000 -1.1754789199999998 0 0 0
Zr 1.66103044 2.33917429 1.17737267
Zr 1.67925210 9.40475595 3.60435113
Zr 1.66256000 7.05363750 -3.526707299999998 0 0 0
Zr 1.66256000 4.70242500 -1.1754789199999998 0 0 0
Zr 1.66103044 7.06558166 1.17710214
Zr 1.66229399 4.70251905 3.51805014
Zr 4.98768000 2.35121250 -3.526707299999998 0 0 0
Zr 4.98768000 0.00000000 -1.1754789199999998 0 0 0
Zr 4.98920956 2.33917429 1.17737267
Zr 4.97098790 9.40475595 3.60435113
Zr 4.98768000 7.05363750 -3.526707299999998 0 0 0
Zr 4.98768000 4.70242500 -1.1754789199999998 0 0 0
Zr 4.98920956 7.06558166 1.17710214
Zr 4.98794601 4.70251905 3.51805014
Rh 0.00000000 0.00000000 -3.526707299999998 0 0 0
Rh 0.00000000 2.35121250 -1.1754789199999998 0 0 0
Rh 0.00000000 9.40466190 1.10622170
Rh 0.00000000 2.53611185 3.30135081
Rh 0.00000000 4.70242500 -3.526707299999998 0 0 0
Rh 0.00000000 7.05363750 -1.1754789199999998 0 0 0
Rh 0.00000000 4.70261310 1.21660039
Rh 0.00000000 6.86873815 3.30108027
Rh 3.32512000 0.00000000 -3.526707299999998 0 0 0
Rh 3.32512000 2.35121250 -1.1754789199999998 0 0 0
Rh 3.32512000 9.40466190 1.03750556
Rh 3.32512000 2.42344175 3.24697307
Rh 3.32512000 4.70242500 -3.526707299999998 0 0 0
Rh 3.32512000 7.05363750 -1.1754789199999998 0 0 0
Rh 3.32512000 4.70242500 1.13165209
Rh 3.32512000 6.98140825 3.24670254
C 0.00000000 0.00018810 4.71868891
