&CONTROL
calculation = 'relax'
prefix = 'scf'
pseudo_dir = '/vol0403/data/hp230205/u10028/POT_HYBRID_KKJUS_GBRV'
outdir = './data'
tprnfor = .true.
nstep = 70
disk_io = 'non'
/
&SYSTEM
ibrav = 0
ecutwfc = 50.0
ecutrho = 400
occupations = 'smearing'
smearing = 'mp'
degauss = 0.01
assume_isolated = 'esm'
esm_bc = 'bc1'
input_dft = 'BEEF-VDW'
nosym = .true.
nspin = 1
ntyp = 6
nat = 34
/
&ELECTRONS
electron_maxstep = 200
mixing_beta = 0.1
conv_thr = 1e-06
/
&IONS
ion_dynamics = 'bfgs'
upscale = 1.0
/
&CELL
/

K_POINTS {automatic}
6 6 1 0 0 0

ATOMIC_SPECIES
C 12.01 C.pbe-n-rrkjus_psl.1.0.0.UPF
Cu 63.54 Cu.pbe-dn-rrkjus_psl.1.0.0.UPF
In 114.8 In.pbe-dn-rrkjus_psl.1.0.0.UPF
Li 6.941 Li.pbe-sl-rrkjus_psl.1.0.0.UPF
O 15.99 O.pbe-n-rrkjus_psl.1.0.0.UPF
Pt 195.0 Pt.pbe-n-rrkjus_psl.1.0.0.UPF


CELL_PARAMETERS {angstrom}
6.33470000 0.00000000 0.00000000
-0.00000000 8.95862000 0.00000000
0.00000000 0.00000000 26.71900000

ATOMIC_POSITIONS {angstrom}
Li 4.75102500 0.00000000 -1.1197932900000005 0 0 0
Li 4.75102500 4.47931000 -1.1197932900000005 0 0 0
Li 1.58367500 2.23965500 -3.3593798700000015 0 0 0
Li 1.58367500 6.71896500 -3.3593798700000015 0 0 0
Li 4.51436061 4.51353193 3.55229105
Li 4.51436061 8.92439807 3.55229105
Li 1.41352496 6.71905459 1.18418608
Li 1.51887102 2.23974459 1.10937288
In 0.00000000 2.23965500 -1.1197932900000005 0 0 0
In 0.00000000 6.71896500 -1.1197932900000005 0 0 0
In 3.16735000 4.47931000 -3.3593798700000015 0 0 0
In 3.16735000 0.00000000 -3.3593798700000015 0 0 0
In 0.05454177 6.71896500 3.72382703
In 0.00538450 2.23965500 3.57152873
In 3.20155738 8.92305428 1.08105074
In 3.20155738 4.51505489 1.08105074
Cu 0.00000000 0.00000000 -3.3593798700000015 0 0 0
Cu 0.00000000 4.47931000 -3.3593798700000015 0 0 0
Cu 3.16735000 6.71896500 -1.1197932900000005 0 0 0
Cu 3.16735000 2.23965500 -1.1197932900000005 0 0 0
Cu 6.26869243 4.45628635 1.08933363
Cu 6.26869243 0.02320283 1.08933363
Cu 3.00739883 2.23965500 3.14589506
Cu 2.99739000 6.71896500 3.13868093
Pt 1.58367500 0.00000000 -1.1197932900000005 0 0 0
Pt 1.58367500 4.47931000 -1.1197932900000005 0 0 0
Pt 4.75102500 2.23965500 -3.3593798700000015 0 0 0
Pt 4.75102500 6.71896500 -3.3593798700000015 0 0 0
Pt 1.54338631 4.47662241 3.20868471
Pt 1.54338631 0.00277717 3.20868471
Pt 4.84579211 6.71905459 1.21598169
Pt 4.76806534 2.23974459 1.15693270
C 5.65390979 2.23857997 7.15240911
O 0.21297261 2.23965500 7.85324848
