&CONTROL
calculation = 'relax'
prefix = 'scf'
pseudo_dir = '/vol0004/mdt0/data/hp150275/u10028/POT_KKJUS'
outdir = './data'
tprnfor = .true.
nstep = 50
disk_io = 'non'
/
&SYSTEM
ibrav = 0
ecutwfc = 50.0
ecutrho = 400
occupations = 'smearing'
smearing = 'mp'
degauss = 0.01
assume_isolated = 'esm'
esm_bc = 'bc1'
input_dft = 'BEEF-VDW'
nosym = .true.
nspin = 1
ntyp = 5
nat = 18
/
&ELECTRONS
electron_maxstep = 200
mixing_beta = 0.1
conv_thr = 1e-06
/
&IONS
ion_dynamics = 'bfgs'
upscale = 1.0
/
&CELL
/

K_POINTS {automatic}
8 8 1 0 0 0

ATOMIC_SPECIES
C 12.01 C.pbe-n-rrkjus_psl.1.0.0.UPF
In 114.8 In.pbe-dn-rrkjus_psl.1.0.0.UPF
Li 6.941 Li.pbe-sl-rrkjus_psl.1.0.0.UPF
O 15.99 O.pbe-n-rrkjus_psl.1.0.0.UPF
Pd 106.4 Pd.pbe-n-rrkjus_psl.1.0.0.UPF

CELL_PARAMETERS {angstrom}
6.70566000 0.00000000 0.00000000
0.00000000 6.70566000 0.00000000
0.00000000 0.00000000 25.02920000

ATOMIC_POSITIONS {angstrom}
Li 0.00000000 0.00026823 2.70315360
Li 3.35276294 3.35249472 2.65860162
Li 3.35283000 0.00000000 -0.8382279100000005 0 0 0
Li 0.00000000 3.35283000 -0.8382279100000005 0 0 0
In 1.67654911 1.67641500 0.84398462
In 5.02924500 5.02924500 -2.5146837200000007 0 0 0
In 5.02917794 1.67480564 0.84673784
In 1.67641500 5.02924500 -2.5146837200000007 0 0 0
In 5.02897677 5.02911089 0.84298346
In 1.67641500 1.67641500 -2.5146837200000007 0 0 0
In 1.67581149 5.03031791 0.84573667
In 5.02924500 1.67641500 -2.5146837200000007 0 0 0
Pd 0.00000000 0.00000000 -0.8382279100000005 0 0 0
Pd 3.35256177 0.00033528 2.19931580
Pd 0.00006706 3.35256177 2.19881522
Pd 3.35283000 3.35283000 -0.8382279100000005 0 0 0
C 6.70559294 0.00013411 4.81036195
O 0.00000000 6.70545883 5.94994142
