&CONTROL
calculation = 'relax'
prefix = 'scf'
pseudo_dir = '/vol0004/mdt0/data/hp150275/u10028/POT_KKJUS'
outdir = './data'
tprnfor = .true.
nstep = 50
disk_io = 'non'
/
&SYSTEM
ibrav = 0
ecutwfc = 50.0
ecutrho = 400
occupations = 'smearing'
smearing = 'mp'
degauss = 0.01
assume_isolated = 'esm'
esm_bc = 'bc1'
input_dft = 'BEEF-VDW'
nosym = .true.
nspin = 1
ntyp = 3
nat = 33
/
&ELECTRONS
electron_maxstep = 200
mixing_beta = 0.1
conv_thr = 1e-06
/
&IONS
ion_dynamics = 'bfgs'
upscale = 1.0
/
&CELL
/

K_POINTS {automatic}
8 6 1 0 0 0

ATOMIC_SPECIES
C 12.01 C.pbe-n-rrkjus_psl.1.0.0.UPF
Os 190.2 Os.pbe-spn-rrkjus_psl.1.0.0.UPF
V 50.94 V.pbe-spnl-rrkjus_psl.1.0.0.UPF

CELL_PARAMETERS {angstrom}
6.04788000 0.00000000 0.00000000
0.00000000 8.55299000 0.00000000
0.00000000 0.00000000 26.41470000

ATOMIC_POSITIONS {angstrom}
V 0.00000000 0.00000000 -3.2072728700000006 0 0 0
V 0.00000000 2.13824750 -1.0690029099999983 0 0 0
V 0.00000000 0.00000000 1.12553037
V 0.00000000 2.07298819 3.37896842
V 0.00000000 4.27649500 -3.2072728700000006 0 0 0
V 0.00000000 6.41474250 -1.0690029099999983 0 0 0
V 0.00000000 4.27649500 1.11285131
V 0.00000000 6.48008734 3.37870428
V 3.02394000 0.00000000 -3.2072728700000006 0 0 0
V 3.02394000 2.13824750 -1.0690029099999983 0 0 0
V 3.02394000 0.00000000 0.97285340
V 3.02394000 2.23301463 3.30949776
V 3.02394000 4.27649500 -3.2072728700000006 0 0 0
V 3.02394000 6.41474250 -1.0690029099999983 0 0 0
V 3.02394000 4.27649500 1.12183231
V 3.02394000 6.32006090 3.30949776
Os 1.51197000 2.13824750 -3.2072728700000006 0 0 0
Os 1.51197000 0.00000000 -1.0690029099999983 0 0 0
Os 1.51251431 2.12712861 1.16647315
Os 1.48058150 4.27632394 3.11138751
Os 1.51197000 6.41474250 -3.2072728700000006 0 0 0
Os 1.51197000 4.27649500 -1.0690029099999983 0 0 0
Os 1.51251431 6.42577586 1.16620901
Os 1.69909141 0.00017106 3.13965124
Os 4.53591000 2.13824750 -3.2072728700000006 0 0 0
Os 4.53591000 0.00000000 -1.0690029099999983 0 0 0
Os 4.53536569 2.12712861 1.16647315
Os 4.56729850 4.27632394 3.11138751
Os 4.53591000 6.41474250 -3.2072728700000006 0 0 0
Os 4.53591000 4.27649500 -1.0690029099999983 0 0 0
Os 4.53536569 6.42577586 1.16620901
Os 4.34878859 0.00017106 3.13965124
C 0.00000000 0.00000000 4.05492060
