&CONTROL
calculation = 'relax'
prefix = 'scf'
pseudo_dir = '/vol0403/data/hp230205/u10028/POT_HYBRID_KKJUS_GBRV'
outdir = './data'
tprnfor = .true.
nstep = 50
disk_io = 'non'
/
&SYSTEM
ibrav = 0
ecutwfc = 50.0
ecutrho = 400
occupations = 'smearing'
smearing = 'mp'
degauss = 0.01
assume_isolated = 'esm'
esm_bc = 'bc1'
input_dft = 'BEEF-VDW'
nosym = .true.
nspin = 1
ntyp = 6
nat = 18
/
&ELECTRONS
electron_maxstep = 200
mixing_beta = 0.1
conv_thr = 1e-06
/
&IONS
ion_dynamics = 'bfgs'
upscale = 1.0
/
&CELL
/

K_POINTS {automatic}
9 9 2 0  0  0

ATOMIC_SPECIES
C 12.01 C.pbe-n-rrkjus_psl.1.0.0.UPF
In 114.8 In.pbe-dn-rrkjus_psl.1.0.0.UPF
Li 6.941 Li.pbe-sl-rrkjus_psl.1.0.0.UPF
O 15.99 O.pbe-n-rrkjus_psl.1.0.0.UPF
Pd 106.4 Pd.pbe-n-rrkjus_psl.1.0.0.UPF
Ru 101.0 Ru.pbe-spn-rrkjus_psl.1.0.0.UPF


CELL_PARAMETERS {angstrom}
6.32045000 0.00000000 0.00000000
0.00000000 6.32045000 0.00000000
0.00000000 0.00000000 24.74030000

ATOMIC_POSITIONS {angstrom}
Li 0.00000000 3.16022500 2.51732552
Li 0.00000000 0.00000000 -0.7899577800000017 0 0 0
Li 3.16022500 3.16022500 -0.7899577800000017 0 0 0
Li 3.16022500 0.00000000 2.35206032
In 6.32032359 6.32032359 2.34043238
In 0.00000000 3.16022500 -0.7899577800000017 0 0 0
In 3.16022500 0.00000000 -0.7899577800000017 0 0 0
In 3.16035141 3.16035141 2.34043238
Pd 4.74665795 1.58643295 0.77783503
Pd 4.74033750 4.74033750 -2.370120740000001 0 0 0
Pd 1.58011250 1.58011250 -2.370120740000001 0 0 0
Pd 1.57379205 4.73401705 0.77783503
Ru 1.57436089 1.58586411 0.84290202
Ru 1.58011250 4.74033750 -2.370120740000001 0 0 0
Ru 4.74033750 1.58011250 -2.370120740000001 0 0 0
Ru 4.74608911 4.73458589 0.84290202
C 0.00000000 3.16022500 4.67072124
O 0.00000000 3.16022500 5.81174387
