&CONTROL
calculation = 'relax'
prefix = 'scf'
pseudo_dir = '/vol0004/mdt0/data/hp150275/u10028/POT_KKJUS'
outdir = './data'
tprnfor = .true.
nstep = 50
disk_io = 'non'
/
&SYSTEM
ibrav = 0
ecutwfc = 50.0
ecutrho = 400
occupations = 'smearing'
smearing = 'mp'
degauss = 0.01
assume_isolated = 'esm'
esm_bc = 'bc1'
input_dft = 'BEEF-VDW'
nosym = .true.
nspin = 1
ntyp = 5
nat = 34
/
&ELECTRONS
electron_maxstep = 200
mixing_beta = 0.1
conv_thr = 1e-06
/
&IONS
ion_dynamics = 'bfgs'
upscale = 1.0
/
&CELL
/

K_POINTS {automatic}
9 6 2 0  0  0

ATOMIC_SPECIES
C 12.01 C.pbe-n-rrkjus_psl.1.0.0.UPF
Ga 69.72 Ga.pbe-dnl-rrkjus_psl.1.0.0.UPF
Li 6.941 Li.pbe-sl-rrkjus_psl.1.0.0.UPF
O 15.99 O.pbe-n-rrkjus_psl.1.0.0.UPF
Pt 195.0 Pt.pbe-n-rrkjus_psl.1.0.0.UPF

CELL_PARAMETERS {angstrom}
6.10853000 0.00000000 0.00000000
0.00000000 8.63876000 0.00000000
0.00000000 0.00000000 26.47910000

ATOMIC_POSITIONS {angstrom}
Li 0.00000000 6.47907000 -1.0798176999999995 0 0 0
Li 3.05426500 0.00000000 -3.239453089999998 0 0 0
Li 0.00000000 2.15969000 -1.0798176999999995 0 0 0
Li 3.05426500 4.31938000 -3.239453089999998 0 0 0
Li 1.52713250 2.15969000 -3.239453089999998 0 0 0
Li 1.52713250 6.47907000 -3.239453089999998 0 0 0
Li 4.58139750 4.31938000 -1.0798176999999995 0 0 0
Li 4.58139750 0.00000000 -1.0798176999999995 0 0 0
Li 0.03885025 2.14768212 3.22462480
Li 3.08999990 4.31946639 1.04195258
Li 0.03866699 6.49125065 3.22436001
Li 3.13312612 8.63867361 1.07531625
Li 1.50147667 6.48788154 0.97681400
Li 1.50135450 2.15096485 0.97681400
Li 4.43784704 8.63858722 3.63425647
Li 4.45647806 4.31938000 3.42692512
Ga 1.52713250 0.00000000 -1.0798176999999995 0 0 0
Ga 1.52713250 4.31938000 -1.0798176999999995 0 0 0
Ga 4.58139750 6.47907000 -3.239453089999998 0 0 0
Ga 4.58139750 2.15969000 -3.239453089999998 0 0 0
Ga 1.60257285 4.31920722 3.26196033
Ga 1.63195487 0.00008639 3.23124457
Ga 4.60821395 2.16487326 1.06578377
Ga 4.60815286 6.47423229 1.06578377
Pt 0.00000000 0.00000000 -3.239453089999998 0 0 0
Pt 3.05426500 2.15969000 -1.0798176999999995 0 0 0
Pt 3.05426500 6.47907000 -1.0798176999999995 0 0 0
Pt 0.00000000 4.31938000 -3.239453089999998 0 0 0
Pt 6.10217713 4.31938000 1.13860130
Pt 2.95616201 6.46827155 3.01411595
Pt 2.95634526 2.17040206 3.01464554
Pt 6.07896471 0.00017278 1.17646641
C 5.32627165 8.63409507 5.56908431
O 5.73407711 8.63184899 6.63751600
