&CONTROL
calculation = 'relax'
prefix = 'scf'
pseudo_dir = '/vol0403/data/hp230205/u10028/POT_HYBRID_KKJUS_GBRV'
outdir = './data'
tprnfor = .true.
nstep = 100
disk_io = 'non'
/
&SYSTEM
ibrav = 0
ecutwfc = 50.0
ecutrho = 400
occupations = 'smearing'
smearing = 'mp'
degauss = 0.01
assume_isolated = 'esm'
esm_bc = 'bc1'
input_dft = 'BEEF-VDW'
nosym = .true.
nspin = 1
ntyp = 6
nat = 18
/
&ELECTRONS
electron_maxstep = 200
mixing_beta = 0.1
conv_thr = 1e-06
/
&IONS
ion_dynamics = 'bfgs'
upscale = 1.0
/
&CELL
/

K_POINTS {automatic}
8 8 1 0 0 0

ATOMIC_SPECIES
C 12.01 C.pbe-n-rrkjus_psl.1.0.0.UPF
Cu 63.54 Cu.pbe-dn-rrkjus_psl.1.0.0.UPF
Ge 72.64 Ge.pbe-dn-rrkjus_psl.1.0.0.UPF
O 15.99 O.pbe-n-rrkjus_psl.1.0.0.UPF
Pd 106.4 Pd.pbe-n-rrkjus_psl.1.0.0.UPF
Sc 44.95 Sc.pbe-spn-rrkjus_psl.1.0.0.UPF


CELL_PARAMETERS {angstrom}
6.33395000 0.00000000 0.00000000
-0.00000000 6.33395000 0.00000000
0.00000000 0.00000000 24.75050000

ATOMIC_POSITIONS {angstrom}
Sc 4.75046250 1.58348750 -0.7917684999999999 0 0 0
Sc 4.75046250 4.75046250 2.37530548
Sc 1.58348750 1.58348750 2.37530548
Sc 1.58348750 4.75046250 -0.7917684999999999 0 0 0
Cu 0.00000000 0.00000000 -2.375305479999998 0 0 0
Cu 0.00000000 3.16697500 0.79176849
Cu 3.16697500 -0.00000000 0.79176849
Cu 3.16697500 3.16697500 -2.375305479999998 0 0 0
Ge 1.58348750 1.58348750 -0.7917684999999999 0 0 0
Ge 1.58348750 4.75046250 2.37530548
Ge 4.75046250 1.58348750 2.37530548
Ge 4.75046250 4.75046250 -0.7917684999999999 0 0 0
Pd 0.00000000 3.16697500 -2.375305479999998 0 0 0
Pd 0.00000000 0.00000000 0.79176849
Pd 3.16697500 3.16697500 0.79176849
Pd 3.16697500 0.00000000 -2.375305479999998 0 0 0
C 1.58348750 1.58348750 4.27515387
O 1.58348750 1.58348750 5.42530960
