&CONTROL
calculation = 'relax'
prefix = 'scf'
pseudo_dir = '/vol0004/mdt0/data/hp150275/u10028/POT_KKJUS'
outdir = './data'
tprnfor = .true.
nstep = 50
disk_io = 'non'
/
&SYSTEM
ibrav = 0
ecutwfc = 50.0
ecutrho = 400
occupations = 'smearing'
smearing = 'mp'
degauss = 0.01
assume_isolated = 'esm'
esm_bc = 'bc1'
input_dft = 'BEEF-VDW'
nosym = .true.
nspin = 1
ntyp = 4
nat = 33
/
&ELECTRONS
electron_maxstep = 200
mixing_beta = 0.1
conv_thr = 1e-06
/
&IONS
ion_dynamics = 'bfgs'
upscale = 1.0
/
&CELL
/

K_POINTS {automatic}
9 6 2 0  0  0

ATOMIC_SPECIES
C 12.01 C.pbe-n-rrkjus_psl.1.0.0.UPF
In 114.8 In.pbe-dn-rrkjus_psl.1.0.0.UPF
Ir 192.2 Ir.pbe-n-rrkjus_psl.0.2.3.UPF
Li 6.941 Li.pbe-sl-rrkjus_psl.1.0.0.UPF

CELL_PARAMETERS {angstrom}
6.34973000 0.00000000 0.00000000
0.00000000 8.97987000 0.00000000
0.00000000 0.00000000 26.73490000

ATOMIC_POSITIONS {angstrom}
Li 0.00000000 6.73490250 -1.1225984499999981 0 0 0
Li 3.17486500 0.00000000 -3.367528 0 0 0
Li 0.00000000 2.24496750 -1.1225984499999981 0 0 0
Li 3.17486500 4.48993500 -3.367528 0 0 0
Li 1.58743250 0.00000000 -1.1225984499999981 0 0 0
Li 1.58743250 4.48993500 -1.1225984499999981 0 0 0
Li 4.76229750 6.73490250 -3.367528 0 0 0
Li 4.76229750 2.24496750 -3.367528 0 0 0
Li 6.19549506 2.24496750 3.50922297
Li 3.14825963 4.48481647 1.16430489
Li 0.15271101 6.73490250 3.34774418
Li 3.14825963 0.00511853 1.16430489
Li 1.65950194 4.42168799 3.67150382
Li 1.65950194 0.06824701 3.67150382
Li 4.83062059 2.24496750 0.94695016
Li 4.68737069 6.73490250 1.13837204
In 1.58743250 2.24496750 -3.367528 0 0 0
In 1.58743250 6.73490250 -3.367528 0 0 0
In 4.76229750 4.48993500 -1.1225984499999981 0 0 0
In 4.76229750 0.00000000 -1.1225984499999981 0 0 0
In 1.51504558 6.73490250 1.02795690
In 1.51987137 2.24496750 1.08490224
In 4.68032249 8.84858430 3.51430261
In 4.68032249 4.62122070 3.51430261
Ir 0.00000000 0.00000000 -3.367528 0 0 0
Ir 3.17486500 2.24496750 -1.1225984499999981 0 0 0
Ir 3.17486500 6.73490250 -1.1225984499999981 0 0 0
Ir 0.00000000 4.48993500 -3.367528 0 0 0
Ir 6.28032745 4.48400829 1.27445268
Ir 3.04894985 6.73490250 3.20872270
Ir 3.28103249 2.24496750 3.26085575
Ir 6.28032745 0.00592671 1.27445268
C 1.82180103 2.24496750 4.24389803
