&CONTROL
calculation = 'relax'
prefix = 'scf'
pseudo_dir = '/vol0004/mdt0/data/hp150275/u10028/POT_KKJUS'
outdir = './data'
tprnfor = .true.
nstep = 50
disk_io = 'non'
/
&SYSTEM
ibrav = 0
ecutwfc = 50.0
ecutrho = 400
occupations = 'smearing'
smearing = 'mp'
degauss = 0.01
assume_isolated = 'esm'
esm_bc = 'bc1'
input_dft = 'BEEF-VDW'
nosym = .true.
nspin = 1
ntyp = 4
nat = 34
/
&ELECTRONS
electron_maxstep = 200
mixing_beta = 0.1
conv_thr = 1e-06
/
&IONS
ion_dynamics = 'bfgs'
upscale = 1.0
/
&CELL
/

K_POINTS {automatic}
6 6 1 0 0 0

ATOMIC_SPECIES
C 12.01 C.pbe-n-rrkjus_psl.1.0.0.UPF
In 114.8 In.pbe-dn-rrkjus_psl.1.0.0.UPF
O 15.99 O.pbe-n-rrkjus_psl.1.0.0.UPF
Y 88.90 Y.pbe-spn-rrkjus_psl.1.0.0.UPF

CELL_PARAMETERS {angstrom}
9.34369000 0.00000000 0.00000000
0.00000000 9.34369000 0.00000000
0.00000000 0.00000000 27.00780000

ATOMIC_POSITIONS {angstrom}
Y 0.00233592 0.00242936 3.42782998
Y 0.00000000 0.00000000 -1.1680873500000004 0 0 0
Y 0.00233592 4.66941564 3.42782998
Y 0.00000000 4.67184500 -1.1680873500000004 0 0 0
Y 4.66950908 0.00242936 3.42782998
Y 4.67184500 0.00000000 -1.1680873500000004 0 0 0
Y 4.66950908 4.66941564 3.42782998
Y 4.67184500 4.67184500 -1.1680873500000004 0 0 0
In 9.34172783 2.33592250 1.19941640
In 2.33592250 9.34172783 1.19941640
In 2.33592250 2.33592250 3.71357250
In 0.00000000 2.33592250 -3.5039919700000013 0 0 0
In 2.33592250 0.00000000 -3.5039919700000013 0 0 0
In 2.33592250 2.33592250 -1.1680873500000004 0 0 0
In 9.34182126 7.00776750 1.20346757
In 2.33592250 4.67380717 1.19941640
In 2.33592250 7.00776750 3.71789375
In 0.00000000 7.00776750 -3.5039919700000013 0 0 0
In 2.33592250 4.67184500 -3.5039919700000013 0 0 0
In 2.33592250 7.00776750 -1.1680873500000004 0 0 0
In 4.67380717 2.33592250 1.19941640
In 7.00776750 9.34182126 1.20346757
In 7.00776750 2.33592250 3.71816383
In 4.67184500 2.33592250 -3.5039919700000013 0 0 0
In 7.00776750 0.00000000 -3.5039919700000013 0 0 0
In 7.00776750 2.33592250 -1.1680873500000004 0 0 0
In 4.67371374 7.00776750 1.20346757
In 7.00776750 4.67380717 1.20346757
In 7.00776750 7.00776750 3.71870398
In 4.67184500 7.00776750 -3.5039919700000013 0 0 0
In 7.00776750 4.67184500 -3.5039919700000013 0 0 0
In 7.00776750 7.00776750 -1.1680873500000004 0 0 0
C 2.33517500 2.33685687 7.73314337
O 2.33638968 2.33545532 8.86909144
