&CONTROL
calculation = 'relax'
prefix = 'scf'
pseudo_dir = '/vol0004/mdt0/data/hp150275/u10028/POT_KKJUS'
outdir = './data'
tprnfor = .true.
nstep = 50
disk_io = 'non'
/
&SYSTEM
ibrav = 0
ecutwfc = 50.0
ecutrho = 400
occupations = 'smearing'
smearing = 'mp'
degauss = 0.01
assume_isolated = 'esm'
esm_bc = 'bc1'
input_dft = 'BEEF-VDW'
nosym = .true.
nspin = 1
ntyp = 2
nat = 32
/
&ELECTRONS
electron_maxstep = 200
mixing_beta = 0.1
conv_thr = 1e-06
/
&IONS
ion_dynamics = 'bfgs'
upscale = 1.0
/
&CELL
/

K_POINTS {automatic}
9 6 2 0  0  0

ATOMIC_SPECIES
Rh 102.9 Rh.pbe-spn-rrkjus_psl.1.0.0.UPF
Si 28.08 Si.pbe-nl-rrkjus_psl.1.0.0.UPF

CELL_PARAMETERS {angstrom}
5.95743000 0.00000000 0.00000000
0.00000000 8.42507000 0.00000000
0.00000000 0.00000000 26.31880000

ATOMIC_POSITIONS {angstrom}
Si 1.48935750 2.10626750 -3.159308750000001 0 0 0
Si 1.48935750 0.00000000 -1.05301519 0 0 0
Si 1.48935750 2.10618325 1.12907652
Si 1.48935750 4.21236650 3.23326458
Si 1.48935750 6.31880250 -3.159308750000001 0 0 0
Si 1.48935750 4.21253500 -1.05301519 0 0 0
Si 1.48935750 6.31871825 1.12907652
Si 1.48935750 8.42490150 3.23379096
Si 4.46807250 2.10626750 -3.159308750000001 0 0 0
Si 4.46807250 0.00000000 -1.05301519 0 0 0
Si 4.46807250 2.10609900 1.12907652
Si 4.46807250 4.21236650 3.23352777
Si 4.46807250 6.31880250 -3.159308750000001 0 0 0
Si 4.46807250 4.21253500 -1.05301519 0 0 0
Si 4.46807250 6.31871825 1.12907652
Si 4.46807250 8.42490150 3.23379096
Rh 0.00000000 0.00000000 -3.159308750000001 0 0 0
Rh 0.00000000 2.10626750 -1.05301519 0 0 0
Rh 0.00023830 0.00160076 1.00011440
Rh 5.95737043 2.10466674 3.01639767
Rh 0.00000000 4.21253500 -3.159308750000001 0 0 0
Rh 0.00000000 6.31880250 -1.05301519 0 0 0
Rh 0.00005957 4.21211375 1.00327266
Rh 0.00011915 6.32031901 3.01613448
Rh 2.97871500 0.00000000 -3.159308750000001 0 0 0
Rh 2.97871500 2.10626750 -1.05301519 0 0 0
Rh 2.97829798 0.00168501 1.00064078
Rh 2.97877457 2.10475099 3.01639767
Rh 2.97871500 4.21253500 -3.159308750000001 0 0 0
Rh 2.97871500 6.31880250 -1.05301519 0 0 0
Rh 2.97871500 4.21211375 1.00300947
Rh 2.97865543 6.32023476 3.01587129
