&CONTROL
calculation = 'relax'
prefix = 'scf'
pseudo_dir = '/vol0403/data/hp230205/u10028/POT_HYBRID_KKJUS_GBRV'
outdir = './data'
tprnfor = .true.
nstep = 50
disk_io = 'non'
/
&SYSTEM
ibrav = 0
ecutwfc = 50.0
ecutrho = 400
occupations = 'smearing'
smearing = 'mp'
degauss = 0.01
assume_isolated = 'esm'
esm_bc = 'bc1'
input_dft = 'BEEF-VDW'
nosym = .true.
nspin = 1
ntyp = 5
nat = 33
/
&ELECTRONS
electron_maxstep = 200
mixing_beta = 0.1
conv_thr = 1e-06
/
&IONS
ion_dynamics = 'bfgs'
upscale = 1.0
/
&CELL
/

K_POINTS {automatic}
9 6 2 0  0  0

ATOMIC_SPECIES
C 12.01 C.pbe-n-rrkjus_psl.1.0.0.UPF
Ga 69.72 Ga.pbe-dnl-rrkjus_psl.1.0.0.UPF
In 114.8 In.pbe-dn-rrkjus_psl.1.0.0.UPF
Pd 106.4 Pd.pbe-n-rrkjus_psl.1.0.0.UPF
Sc 44.95 Sc.pbe-spn-rrkjus_psl.1.0.0.UPF


CELL_PARAMETERS {angstrom}
6.68246000 0.00000000 0.00000000
0.00000000 9.45042000 0.00000000
0.00000000 0.00000000 27.08780000

ATOMIC_POSITIONS {angstrom}
Sc 5.01184500 0.00000000 -1.181298960000003 0 0 0
Sc 5.01184500 4.72521000 -1.181298960000003 0 0 0
Sc 1.67061500 2.36260500 -3.543896870000001 0 0 0
Sc 1.67061500 7.08781500 -3.543896870000001 0 0 0
Sc 4.78023094 4.72521000 3.49161742
Sc 5.30159647 0.00000000 3.26922658
Sc 1.65083492 6.98386038 1.32161376
Sc 1.65096857 2.46655962 1.32161376
In 1.67061500 0.00000000 -1.181298960000003 0 0 0
In 1.67061500 4.72521000 -1.181298960000003 0 0 0
In 5.01184500 2.36260500 -3.543896870000001 0 0 0
In 5.01184500 7.08781500 -3.543896870000001 0 0 0
In 1.64228137 4.72521000 3.70994509
In 1.19749683 9.45032550 4.40312189
In 4.90612848 7.17636544 1.17696491
In 4.90606166 2.27405456 1.17696491
Ga 0.00000000 0.00000000 -3.543896870000001 0 0 0
Ga 0.00000000 4.72521000 -3.543896870000001 0 0 0
Ga 3.34123000 7.08781500 -1.181298960000003 0 0 0
Ga 3.34123000 2.36260500 -1.181298960000003 0 0 0
Ga 6.54807573 4.72521000 1.22491032
Ga 0.19232120 0.00000000 1.06292527
Ga 3.63946819 2.10716015 4.10949014
Ga 3.63960184 7.34325985 4.10949014
Pd 0.00000000 2.36260500 -1.181298960000003 0 0 0
Pd 0.00000000 7.08781500 -1.181298960000003 0 0 0
Pd 3.34123000 4.72521000 -3.543896870000001 0 0 0
Pd 3.34123000 0.00000000 -3.543896870000001 0 0 0
Pd 6.50858239 6.91430529 3.47834440
Pd 6.50864922 2.53611471 3.47834440
Pd 2.95424874 0.00000000 1.63827014
Pd 3.34056175 4.72521000 1.16206662
C 3.32913475 0.00000000 3.95942373
