&CONTROL
calculation = 'relax'
prefix = 'scf'
pseudo_dir = '/vol0004/mdt0/data/hp150275/u10028/POT_KKJUS'
outdir = './data'
tprnfor = .true.
nstep = 50
disk_io = 'non'
/
&SYSTEM
ibrav = 0
ecutwfc = 50.0
ecutrho = 400
occupations = 'smearing'
smearing = 'mp'
degauss = 0.01
assume_isolated = 'esm'
esm_bc = 'bc1'
input_dft = 'BEEF-VDW'
nosym = .true.
nspin = 1
ntyp = 3
nat = 17
/
&ELECTRONS
electron_maxstep = 200
mixing_beta = 0.1
conv_thr = 1e-06
/
&IONS
ion_dynamics = 'bfgs'
upscale = 1.0
/
&CELL
/

K_POINTS {automatic}
8 11 2 0  0  0

ATOMIC_SPECIES
C 12.01 C.pbe-n-rrkjus_psl.1.0.0.UPF
Rh 102.9 Rh.pbe-spn-rrkjus_psl.1.0.0.UPF
Sc 44.95 Sc.pbe-spn-rrkjus_psl.1.0.0.UPF

CELL_PARAMETERS {angstrom}
7.89001000 0.00000000 0.00000000
0.00000000 5.57908000 0.00000000
0.00000000 0.00000000 24.18430000

ATOMIC_POSITIONS {angstrom}
Sc 0.00000000 0.00000000 -2.09218379 0 0 0
Sc 0.00000000 2.78954000 0.34656102
Sc 3.94500500 0.00000000 -2.09218379 0 0 0
Sc 3.94492610 2.78954000 0.90110702
Rh 0.00000000 2.78954000 -2.09218379 0 0 0
Rh 1.97250250 4.18431000 -0.6974752100000003 0 0 0
Rh 1.97250250 1.39477000 -0.6974752100000003 0 0 0
Rh 0.00000000 0.00000000 0.46167829
Rh 1.47345937 1.40375232 2.15796509
Rh 1.47330157 4.17516031 2.15796509
Rh 3.94500500 2.78954000 -2.09218379 0 0 0
Rh 5.91750750 4.18431000 -0.6974752100000003 0 0 0
Rh 5.91750750 1.39477000 -0.6974752100000003 0 0 0
Rh 3.94500500 0.00000000 0.71295316
Rh 6.41670843 1.40386390 2.15796509
Rh 6.41662953 4.17527189 2.15796509
C 0.00000000 2.78954000 2.59932856
