&CONTROL
calculation = 'relax'
prefix = 'scf'
pseudo_dir = '/vol0004/mdt0/data/hp150275/u10028/POT_KKJUS'
outdir = './data'
tprnfor = .true.
nstep = 50
disk_io = 'non'
/
&SYSTEM
ibrav = 0
ecutwfc = 50.0
ecutrho = 400
occupations = 'smearing'
smearing = 'mp'
degauss = 0.01
assume_isolated = 'esm'
esm_bc = 'bc1'
input_dft = 'BEEF-VDW'
nosym = .true.
nspin = 1
ntyp = 4
nat = 34
/
&ELECTRONS
electron_maxstep = 200
mixing_beta = 0.1
conv_thr = 1e-06
/
&IONS
ion_dynamics = 'bfgs'
upscale = 1.0
/
&CELL
/

K_POINTS {automatic}
8 6 1 0 0 0

ATOMIC_SPECIES
C 12.01 C.pbe-n-rrkjus_psl.1.0.0.UPF
O 15.99 O.pbe-n-rrkjus_psl.1.0.0.UPF
Rh 102.9 Rh.pbe-spn-rrkjus_psl.1.0.0.UPF
Sc 44.95 Sc.pbe-spn-rrkjus_psl.1.0.0.UPF

CELL_PARAMETERS {angstrom}
6.47981000 0.00000000 0.00000000
0.00000000 9.16384000 0.00000000
0.00000000 0.00000000 26.87290000

ATOMIC_POSITIONS {angstrom}
Sc 1.61995250 2.29096000 -3.436506450000003 0 0 0
Sc 1.61995250 0.00000000 -1.1455917299999996 0 0 0
Sc 1.61995250 2.29086836 1.17837667
Sc 1.61995250 0.00000000 3.51658769
Sc 1.61995250 6.87288000 -3.436506450000003 0 0 0
Sc 1.61995250 4.58192000 -1.1455917299999996 0 0 0
Sc 1.61995250 6.87297164 1.17837667
Sc 1.61995250 4.58192000 3.49159590
Sc 4.85985750 2.29096000 -3.436506450000003 0 0 0
Sc 4.85985750 0.00000000 -1.1455917299999996 0 0 0
Sc 4.85985750 2.28876068 1.17864539
Sc 4.85985750 0.00000000 3.50637599
Sc 4.85985750 6.87288000 -3.436506450000003 0 0 0
Sc 4.85985750 4.58192000 -1.1455917299999996 0 0 0
Sc 4.85985750 6.87507932 1.17864539
Sc 4.85985750 4.58192000 3.50153887
Rh 0.00000000 0.00000000 -3.436506450000003 0 0 0
Rh 0.00000000 2.29096000 -1.1455917299999996 0 0 0
Rh 6.47443176 0.00000000 1.17273336
Rh 6.47028468 2.31276994 3.30348560
Rh 0.00000000 4.58192000 -3.436506450000003 0 0 0
Rh 0.00000000 6.87288000 -1.1455917299999996 0 0 0
Rh 6.47676449 4.58192000 1.17407700
Rh 6.47028468 6.85116170 3.30375433
Rh 3.23990500 0.00000000 -3.436506450000003 0 0 0
Rh 3.23990500 2.29096000 -1.1455917299999996 0 0 0
Rh 3.24528324 0.00000000 1.17273336
Rh 3.24943032 2.31276994 3.30375433
Rh 3.23990500 4.58192000 -3.436506450000003 0 0 0
Rh 3.23990500 6.87288000 -1.1455917299999996 0 0 0
Rh 3.24295051 4.58192000 1.17407700
Rh 3.24943032 6.85107006 3.30375433
C 1.61995250 0.00000000 5.85076779
O 1.61995250 0.00000000 6.99824062
