&CONTROL
calculation = 'relax'
prefix = 'scf'
pseudo_dir = '/vol0403/data/hp230205/u10028/POT_HYBRID_KKJUS_GBRV'
outdir = './data'
tprnfor = .true.
nstep = 70
disk_io = 'non'
/
&SYSTEM
ibrav = 0
ecutwfc = 50.0
ecutrho = 400
occupations = 'smearing'
smearing = 'mp'
degauss = 0.01
assume_isolated = 'esm'
esm_bc = 'bc1'
input_dft = 'BEEF-VDW'
nosym = .true.
nspin = 1
ntyp = 6
nat = 18
/
&ELECTRONS
electron_maxstep = 200
mixing_beta = 0.1
conv_thr = 1e-06
/
&IONS
ion_dynamics = 'bfgs'
upscale = 1.0
/
&CELL
/

K_POINTS {automatic}
6 6 1 0 0 0

ATOMIC_SPECIES
C 12.01 C.pbe-n-rrkjus_psl.1.0.0.UPF
Ge 72.64 Ge.pbe-dn-rrkjus_psl.1.0.0.UPF
In 114.8 In.pbe-dn-rrkjus_psl.1.0.0.UPF
O 15.99 O.pbe-n-rrkjus_psl.1.0.0.UPF
Pd 106.4 Pd.pbe-n-rrkjus_psl.1.0.0.UPF
Y 88.90 Y.pbe-spn-rrkjus_psl.1.0.0.UPF


CELL_PARAMETERS {angstrom}
6.17050000 0.00000000 0.00000000
-0.00000000 8.87204000 0.00000000
0.00000000 0.00000000 24.55830000

ATOMIC_POSITIONS {angstrom}
Y 1.24619418 2.20177417 0.79740800
Y 3.82830161 2.21801000 -2.2792558199999995 0 0 0
Y 1.24718146 6.67017711 0.79593450
Y 3.82830161 6.65403000 -2.2792558199999995 0 0 0
In 3.74857875 0.00115337 2.17709330
In 5.63743051 0.00000000 -0.7598337999999991 0 0 0
In 3.08080724 4.43637488 2.32960034
In 5.63743051 4.43602000 -0.7598337999999991 0 0 0
Ge 0.50943648 8.87026559 2.64075400
Ge 2.55218051 0.00000000 -0.7598337999999991 0 0 0
Ge 5.79736986 4.43770569 2.02335834
Ge 2.55218051 4.43602000 -0.7598337999999991 0 0 0
Pd 4.27936516 2.33237060 0.61518542
Pd 0.74305161 2.21801000 -2.2792558199999995 0 0 0
Pd 4.28004391 6.54126637 0.61518542
Pd 0.74305161 6.65403000 -2.2792558199999995 0 0 0
C 0.31895315 8.87133024 4.54746041
O 0.09243409 0.00053232 5.68598320
