&CONTROL
calculation = 'relax'
prefix = 'scf'
pseudo_dir = '/vol0403/data/hp230205/u10028/POT_HYBRID_KKJUS_GBRV'
outdir = './data'
tprnfor = .true.
nstep = 50
disk_io = 'non'
/
&SYSTEM
ibrav = 0
ecutwfc = 50.0
ecutrho = 400
occupations = 'smearing'
smearing = 'mp'
degauss = 0.01
assume_isolated = 'esm'
esm_bc = 'bc1'
input_dft = 'BEEF-VDW'
nosym = .true.
nspin = 1
ntyp = 6
nat = 34
/
&ELECTRONS
electron_maxstep = 200
mixing_beta = 0.1
conv_thr = 1e-06
/
&IONS
ion_dynamics = 'bfgs'
upscale = 1.0
/
&CELL
/

K_POINTS {automatic}
6 6 1 0 0 0

ATOMIC_SPECIES
Al 26.98 Al.pbe-nl-rrkjus_psl.1.0.0.UPF
C 12.01 C.pbe-n-rrkjus_psl.1.0.0.UPF
Cu 63.54 Cu.pbe-dn-rrkjus_psl.1.0.0.UPF
Ge 72.64 Ge.pbe-dn-rrkjus_psl.1.0.0.UPF
Li 6.941 Li.pbe-sl-rrkjus_psl.1.0.0.UPF
O 15.99 O.pbe-n-rrkjus_psl.1.0.0.UPF


CELL_PARAMETERS {angstrom}
7.61632000 0.00000000 0.00000000
0.00000000 7.77412000 0.00000000
0.00000000 0.00000000 25.83930000

ATOMIC_POSITIONS {angstrom}
Li 0.00000000 1.94353000 0.97310804
Li 0.00000000 1.94353000 -2.9195825100000015 0 0 0
Li 0.00000000 5.83059000 0.97310804
Li 0.00000000 5.83059000 -2.9195825100000015 0 0 0
Li 3.80816000 1.94353000 0.97310804
Li 3.80816000 1.94353000 -2.9195825100000015 0 0 0
Li 3.80816000 5.83059000 0.97310804
Li 3.80816000 5.83059000 -2.9195825100000015 0 0 0
Al 0.00000000 0.00000000 2.91958251
Al 0.00000000 0.00000000 -0.9731080400000032 0 0 0
Al 0.00000000 3.88706000 2.91958251
Al 0.00000000 3.88706000 -0.9731080400000032 0 0 0
Al 3.80816000 0.00000000 2.91958251
Al 3.80816000 0.00000000 -0.9731080400000032 0 0 0
Al 3.80816000 3.88706000 2.91958251
Al 3.80816000 3.88706000 -0.9731080400000032 0 0 0
Cu 1.90408000 0.00000000 0.97310804
Cu 1.90408000 0.00000000 -2.9195825100000015 0 0 0
Cu 1.90408000 3.88706000 0.97310804
Cu 1.90408000 3.88706000 -2.9195825100000015 0 0 0
Cu 5.71224000 0.00000000 0.97310804
Cu 5.71224000 0.00000000 -2.9195825100000015 0 0 0
Cu 5.71224000 3.88706000 0.97310804
Cu 5.71224000 3.88706000 -2.9195825100000015 0 0 0
Ge 1.90408000 1.94353000 2.91958251
Ge 1.90408000 1.94353000 -0.9731080400000032 0 0 0
Ge 1.90408000 5.83059000 2.91958251
Ge 1.90408000 5.83059000 -0.9731080400000032 0 0 0
Ge 5.71224000 1.94353000 2.91958251
Ge 5.71224000 1.94353000 -0.9731080400000032 0 0 0
Ge 5.71224000 5.83059000 2.91958251
Ge 5.71224000 5.83059000 -0.9731080400000032 0 0 0
C 0.00000000 0.00000000 4.81954624
O 0.00000000 0.00000000 5.96965348
