&CONTROL
calculation = 'relax'
prefix = 'scf'
pseudo_dir = '/vol0004/mdt0/data/hp150275/u10028/POT_HYBRID_KKJUS_GBRV'
outdir = './data'
tprnfor = .true.
nstep = 50
disk_io = 'non'
/
&SYSTEM
ibrav = 0
ecutwfc = 50.0
ecutrho = 400
occupations = 'smearing'
smearing = 'mp'
degauss = 0.01
assume_isolated = 'esm'
esm_bc = 'bc1'
input_dft = 'BEEF-VDW'
nosym = .true.
nspin = 2
ntyp = 3
nat = 17
starting_magnetization(1) = 0.0
starting_magnetization(2) = 0.0
starting_magnetization(3) = 0.1
/
&ELECTRONS
electron_maxstep = 200
mixing_beta = 0.1
conv_thr = 1e-06
/
&IONS
ion_dynamics = 'bfgs'
upscale = 1.0
/
&CELL
/

K_POINTS {automatic}
10 10 2 0  0  0

ATOMIC_SPECIES
Al 26.98 Al.pbe-nl-rrkjus_psl.1.0.0.UPF
C 12.01 C.pbe-n-rrkjus_psl.1.0.0.UPF
Mn 54.93 mn_pbe_v1.5.uspp.F.UPF

CELL_PARAMETERS {angstrom}
5.49208000 0.00000000 0.00000000
-0.00000000 5.49208000 0.00000000
0.00000000 0.00000000 25.31270000

ATOMIC_POSITIONS {angstrom}
Mn 1.37302000 1.37302000 -1.18767188 0 0 0
Mn 1.37302000 1.37302000 2.35408110
Mn 1.37302000 4.11906000 -1.18767188 0 0 0
Mn 1.37302000 4.11906000 2.35408110
Mn 4.11906000 1.37302000 -1.18767188 0 0 0
Mn 4.11906000 1.37302000 2.35408110
Mn 4.11906000 4.11906000 -1.18767188 0 0 0
Mn 4.11906000 4.11906000 2.35408110
Al 0.00000000 0.00000000 -2.95854838 0 0 0
Al 0.00000000 0.00000000 0.58320461
Al 0.00000000 2.74604000 -2.95854838 0 0 0
Al 0.00000000 2.74604000 0.58320461
Al 2.74604000 0.00000000 -2.95854838 0 0 0
Al 2.74604000 -0.00000000 0.58320461
Al 2.74604000 2.74604000 -2.95854838 0 0 0
Al 2.74604000 2.74604000 0.58320461
C 0.00000000 0.00000000 3.15421555
