&CONTROL
calculation = 'relax'
prefix = 'scf'
pseudo_dir = '/vol0004/mdt0/data/hp150275/u10028/POT_KKJUS'
outdir = './data'
tprnfor = .true.
nstep = 50
disk_io = 'non'
/
&SYSTEM
ibrav = 0
ecutwfc = 50.0
ecutrho = 400
occupations = 'smearing'
smearing = 'mp'
degauss = 0.01
assume_isolated = 'esm'
esm_bc = 'bc1'
input_dft = 'BEEF-VDW'
nosym = .true.
nspin = 1
ntyp = 3
nat = 16
/
&ELECTRONS
electron_maxstep = 200
mixing_beta = 0.1
conv_thr = 1e-06
/
&IONS
ion_dynamics = 'bfgs'
upscale = 1.0
/
&CELL
/

K_POINTS {automatic}
10 10 2 0  0  0

ATOMIC_SPECIES
Mg 24.30 Mg.pbe-spnl-rrkjus_psl.1.0.0.UPF
Ni 58.69 Ni.pbe-spn-rrkjus_psl.1.0.0.UPF
Sn 118.7 Sn.pbe-dn-rrkjus_psl.1.0.0.UPF

CELL_PARAMETERS {angstrom}
6.22749000 0.00000000 0.00000000
0.00000000 6.22749000 0.00000000
0.00000000 0.00000000 24.67060000

ATOMIC_POSITIONS {angstrom}
Mg 0.00000000 0.00000000 -2.335319000000002 0 0 0
Mg 3.11374500 3.11374500 -2.335319000000002 0 0 0
Mg 3.11212585 0.00193052 0.81092262
Mg 0.00217962 3.11411865 0.80968909
Ni 1.55687250 1.55687250 -0.7783574299999998 0 0 0
Ni 4.66943428 4.66831333 2.22158753
Ni 4.67061750 1.55687250 -0.7783574299999998 0 0 0
Ni 1.55930122 4.67597314 2.22652165
Ni 4.67061750 4.67061750 -0.7783574299999998 0 0 0
Ni 1.55737070 1.55743297 2.23293601
Ni 1.55687250 4.67061750 -0.7783574299999998 0 0 0
Ni 4.66713011 1.56341136 2.22504141
Sn 6.22344213 0.00435924 0.86643147
Sn 3.11374500 0.00000000 -2.335319000000002 0 0 0
Sn 0.00000000 3.11374500 -2.335319000000002 0 0 0
Sn 3.11461685 3.11156538 0.86445782
