&CONTROL
calculation = 'relax'
prefix = 'scf'
pseudo_dir = '/vol0004/mdt0/data/hp150275/u10028/POT_KKJUS'
outdir = './data'
tprnfor = .true.
nstep = 50
disk_io = 'non'
/
&SYSTEM
ibrav = 0
ecutwfc = 50.0
ecutrho = 400
occupations = 'smearing'
smearing = 'mp'
degauss = 0.01
assume_isolated = 'esm'
esm_bc = 'bc1'
input_dft = 'BEEF-VDW'
nosym = .true.
nspin = 1
ntyp = 5
nat = 18
/
&ELECTRONS
electron_maxstep = 200
mixing_beta = 0.1
conv_thr = 1e-06
/
&IONS
ion_dynamics = 'bfgs'
upscale = 1.0
/
&CELL
/

K_POINTS {automatic}
8 8 1 0 0 0

ATOMIC_SPECIES
C 12.01 C.pbe-n-rrkjus_psl.1.0.0.UPF
Cu 63.54 Cu.pbe-dn-rrkjus_psl.1.0.0.UPF
Li 6.941 Li.pbe-sl-rrkjus_psl.1.0.0.UPF
O 15.99 O.pbe-n-rrkjus_psl.1.0.0.UPF
Sn 118.7 Sn.pbe-dn-rrkjus_psl.1.0.0.UPF

CELL_PARAMETERS {angstrom}
6.34973000 0.00000000 0.00000000
0.00000000 6.34973000 0.00000000
0.00000000 0.00000000 24.76230000

ATOMIC_POSITIONS {angstrom}
Li 0.02857379 0.02857379 0.73717367
Li 3.17486500 0.00000000 -2.3811427700000003 0 0 0
Li 0.00000000 3.17486500 -2.3811427700000003 0 0 0
Li 3.14622772 3.14622772 0.73717367
Li 1.58743250 1.58743250 -0.7936317200000005 0 0 0
Li 1.58743250 4.76229750 2.68819529
Li 4.76229750 4.76229750 -0.7936317200000005 0 0 0
Li 4.76229750 1.58743250 2.68819529
Cu 1.58743250 1.58743250 2.37198072
Cu 1.58743250 4.76229750 -0.7936317200000005 0 0 0
Cu 4.76229750 4.76229750 2.06666156
Cu 4.76229750 1.58743250 -0.7936317200000005 0 0 0
Sn 0.00000000 0.00000000 -2.3811427700000003 0 0 0
Sn 3.17486500 3.17486500 -2.3811427700000003 0 0 0
Sn 3.11968585 0.05511566 0.85132787
Sn 0.05517915 3.11974934 0.85132787
C 1.58743250 1.58743250 4.20661952
O 1.58743250 1.58743250 5.36871426
