&CONTROL
calculation = 'relax'
prefix = 'scf'
pseudo_dir = '/vol0004/mdt0/data/hp150275/u10028/POT_KKJUS'
outdir = './data'
tprnfor = .true.
nstep = 50
disk_io = 'non'
/
&SYSTEM
ibrav = 0
ecutwfc = 50.0
ecutrho = 400
occupations = 'smearing'
smearing = 'mp'
degauss = 0.01
assume_isolated = 'esm'
esm_bc = 'bc1'
input_dft = 'BEEF-VDW'
nosym = .true.
nspin = 1
ntyp = 3
nat = 33
/
&ELECTRONS
electron_maxstep = 200
mixing_beta = 0.1
conv_thr = 1e-06
/
&IONS
ion_dynamics = 'bfgs'
upscale = 1.0
/
&CELL
/

K_POINTS {automatic}
8 6 1 0 0 0

ATOMIC_SPECIES
C 12.01 C.pbe-n-rrkjus_psl.1.0.0.UPF
Ga 69.72 Ga.pbe-dnl-rrkjus_psl.1.0.0.UPF
Rh 102.9 Rh.pbe-spn-rrkjus_psl.1.0.0.UPF

CELL_PARAMETERS {angstrom}
6.09666000 0.00000000 0.00000000
0.00000000 8.62198000 0.00000000
0.00000000 0.00000000 26.46650000

ATOMIC_POSITIONS {angstrom}
Ga 0.00000000 0.00000000 -3.2331476399999985 0 0 0
Ga 0.00000000 2.15549500 -1.0777158799999995 0 0 0
Ga 0.00000000 0.00000000 1.04622075
Ga 0.00000000 2.34543722 3.34615959
Ga 0.00000000 4.31099000 -3.2331476399999985 0 0 0
Ga 0.00000000 6.46648500 -1.0777158799999995 0 0 0
Ga 0.00000000 4.31099000 1.04860273
Ga 0.00000000 6.27654278 3.34615959
Ga 3.04833000 0.00000000 -3.2331476399999985 0 0 0
Ga 3.04833000 2.15549500 -1.0777158799999995 0 0 0
Ga 3.04833000 0.00000000 1.01975425
Ga 3.04833000 2.20610602 3.46605284
Ga 3.04833000 4.31099000 -3.2331476399999985 0 0 0
Ga 3.04833000 6.46648500 -1.0777158799999995 0 0 0
Ga 3.04833000 4.31099000 1.04357410
Ga 3.04833000 6.41587398 3.46605284
Rh 1.52416500 2.15549500 -3.2331476399999985 0 0 0
Rh 1.52416500 0.00000000 -1.0777158799999995 0 0 0
Rh 1.52209214 2.10109031 1.04939673
Rh 1.48252481 0.00000000 3.26252546
Rh 1.52416500 6.46648500 -3.2331476399999985 0 0 0
Rh 1.52416500 4.31099000 -1.0777158799999995 0 0 0
Rh 1.52209214 6.52088969 1.04939673
Rh 1.56464682 4.31099000 3.08811122
Rh 4.57249500 2.15549500 -3.2331476399999985 0 0 0
Rh 4.57249500 0.00000000 -1.0777158799999995 0 0 0
Rh 4.57456786 2.10109031 1.04939673
Rh 4.61413519 0.00000000 3.26252546
Rh 4.57249500 6.46648500 -3.2331476399999985 0 0 0
Rh 4.57249500 4.31099000 -1.0777158799999995 0 0 0
Rh 4.57456786 6.52088969 1.04939673
Rh 4.53201318 4.31099000 3.08811122
C 0.00000000 0.00000000 4.35956188
