&CONTROL
calculation = 'relax'
prefix = 'scf'
pseudo_dir = '/vol0004/mdt0/data/hp150275/u10028/POT_KKJUS'
outdir = './data'
tprnfor = .true.
nstep = 50
disk_io = 'non'
/
&SYSTEM
ibrav = 0
ecutwfc = 50.0
ecutrho = 400
occupations = 'smearing'
smearing = 'mp'
degauss = 0.01
assume_isolated = 'esm'
esm_bc = 'bc1'
input_dft = 'BEEF-VDW'
nosym = .true.
nspin = 1
ntyp = 4
nat = 34
/
&ELECTRONS
electron_maxstep = 200
mixing_beta = 0.1
conv_thr = 1e-06
/
&IONS
ion_dynamics = 'bfgs'
upscale = 1.0
/
&CELL
/

K_POINTS {automatic}
8 6 1 0 0 0

ATOMIC_SPECIES
C 12.01 C.pbe-n-rrkjus_psl.1.0.0.UPF
Ir 192.2 Ir.pbe-n-rrkjus_psl.0.2.3.UPF
O 15.99 O.pbe-n-rrkjus_psl.1.0.0.UPF
Y 88.90 Y.pbe-spn-rrkjus_psl.1.0.0.UPF

CELL_PARAMETERS {angstrom}
6.88160000 0.00000000 0.00000000
0.00000000 9.73205000 0.00000000
0.00000000 0.00000000 27.29900000

ATOMIC_POSITIONS {angstrom}
Y 1.72040000 2.43301250 -3.64960331 0 0 0
Y 1.72040000 0.00000000 -1.216443439999999 0 0 0
Y 1.75817998 2.43301250 1.23063892
Y 1.73891150 4.90125502 3.76453210
Y 1.72040000 7.29903750 -3.64960331 0 0 0
Y 1.72040000 4.86602500 -1.216443439999999 0 0 0
Y 1.71778499 7.29903750 1.25793792
Y 1.73891150 9.69681998 3.76453210
Y 5.16120000 2.43301250 -3.64960331 0 0 0
Y 5.16120000 0.00000000 -1.216443439999999 0 0 0
Y 5.12342002 2.43301250 1.23063892
Y 5.14268850 4.90125502 3.76453210
Y 5.16120000 7.29903750 -3.64960331 0 0 0
Y 5.16120000 4.86602500 -1.216443439999999 0 0 0
Y 5.16381501 7.29903750 1.25766493
Y 5.14268850 9.69681998 3.76453210
Ir 0.00000000 0.00000000 -3.64960331 0 0 0
Ir 0.00000000 2.43301250 -1.216443439999999 0 0 0
Ir 0.00000000 0.07522875 1.36931784
Ir 0.00000000 2.43301250 3.69601161
Ir 0.00000000 4.86602500 -3.64960331 0 0 0
Ir 0.00000000 7.29903750 -1.216443439999999 0 0 0
Ir 0.00000000 4.79079625 1.36931784
Ir 0.00000000 7.29903750 3.51829512
Ir 3.44080000 0.00000000 -3.64960331 0 0 0
Ir 3.44080000 2.43301250 -1.216443439999999 0 0 0
Ir 3.44080000 9.72718397 1.33028027
Ir 3.44080000 2.43301250 3.51365429
Ir 3.44080000 4.86602500 -3.64960331 0 0 0
Ir 3.44080000 7.29903750 -1.216443439999999 0 0 0
Ir 3.44080000 4.87079370 1.33028027
Ir 3.44080000 7.29903750 3.52375492
C 0.00000000 2.43301250 5.54688381
O 0.00000000 2.43301250 6.72237875
