&CONTROL
calculation = 'relax'
prefix = 'scf'
pseudo_dir = '/vol0004/mdt0/data/hp150275/u10028/POT_KKJUS'
outdir = './data'
tprnfor = .true.
nstep = 50
disk_io = 'non'
/
&SYSTEM
ibrav = 0
ecutwfc = 50.0
ecutrho = 400
occupations = 'smearing'
smearing = 'mp'
degauss = 0.01
assume_isolated = 'esm'
esm_bc = 'bc1'
input_dft = 'BEEF-VDW'
nosym = .true.
nspin = 1
ntyp = 4
nat = 33
/
&ELECTRONS
electron_maxstep = 200
mixing_beta = 0.1
conv_thr = 1e-06
/
&IONS
ion_dynamics = 'bfgs'
upscale = 1.0
/
&CELL
/

K_POINTS {automatic}
9 6 2 0  0  0

ATOMIC_SPECIES
C 12.01 C.pbe-n-rrkjus_psl.1.0.0.UPF
In 114.8 In.pbe-dn-rrkjus_psl.1.0.0.UPF
Li 6.941 Li.pbe-sl-rrkjus_psl.1.0.0.UPF
Pd 106.4 Pd.pbe-n-rrkjus_psl.1.0.0.UPF

CELL_PARAMETERS {angstrom}
6.46446000 0.00000000 0.00000000
0.00000000 9.14213000 0.00000000
0.00000000 0.00000000 26.85660000

ATOMIC_POSITIONS {angstrom}
Li 0.00000000 6.85659750 -1.1427483299999999 0 0 0
Li 3.23223000 0.00000000 -3.4282449899999996 0 0 0
Li 0.00000000 2.28553250 -1.1427483299999999 0 0 0
Li 3.23223000 4.57106500 -3.4282449899999996 0 0 0
Li 1.61611500 2.28553250 -3.4282449899999996 0 0 0
Li 1.61611500 6.85659750 -3.4282449899999996 0 0 0
Li 4.84834500 4.57106500 -1.1427483299999999 0 0 0
Li 4.84834500 0.00000000 -1.1427483299999999 0 0 0
Li 6.06424528 2.28553250 3.77764936
Li 3.20036021 4.48997431 1.19189591
Li 0.15624600 6.85659750 3.27543094
Li 3.20036021 0.08109069 1.19189591
Li 1.64009815 6.85659750 0.99073997
Li 1.49419528 2.28553250 1.32161329
Li 4.62596758 8.97903440 3.46396427
Li 4.62596758 4.73416060 3.46396427
In 1.61611500 0.00000000 -1.1427483299999999 0 0 0
In 1.61611500 4.57106500 -1.1427483299999999 0 0 0
In 4.84834500 6.85659750 -3.4282449899999996 0 0 0
In 4.84834500 2.28553250 -3.4282449899999996 0 0 0
In 1.50518487 4.49664806 3.66753730
In 1.50518487 0.07441694 3.66753730
In 5.01558058 2.28553250 1.01249382
In 4.78182571 6.85659750 1.16289078
Pd 0.00000000 0.00000000 -3.4282449899999996 0 0 0
Pd 3.23223000 2.28553250 -1.1427483299999999 0 0 0
Pd 3.23223000 6.85659750 -1.1427483299999999 0 0 0
Pd 0.00000000 4.57106500 -3.4282449899999996 0 0 0
Pd 0.00193934 4.66422330 1.16826210
Pd 2.91133421 6.85659750 3.17471869
Pd 3.50490092 2.28553250 3.16988450
Pd 0.00193934 9.04897170 1.16826210
C 1.59685091 2.28553250 3.68929114
