&CONTROL
calculation = 'relax'
prefix = 'scf'
pseudo_dir = '/vol0004/mdt0/data/hp150275/u10028/POT_HYBRID_KKJUS_GBRV'
outdir = './data'
tprnfor = .true.
nstep = 50
disk_io = 'non'
/
&SYSTEM
ibrav = 0
ecutwfc = 50.0
ecutrho = 400
occupations = 'smearing'
smearing = 'mp'
degauss = 0.01
assume_isolated = 'esm'
esm_bc = 'bc1'
input_dft = 'BEEF-VDW'
nosym = .true.
nspin = 1
ntyp = 3
nat = 34
/
&ELECTRONS
electron_maxstep = 200
mixing_beta = 0.1
conv_thr = 1e-06
/
&IONS
ion_dynamics = 'bfgs'
upscale = 1.0
/
&CELL
/

K_POINTS {automatic}
6 6 1 0 0 0

ATOMIC_SPECIES
C 12.01 C.pbe-n-rrkjus_psl.1.0.0.UPF
H 1.0 H.pbe-rrkjus_psl.1.0.0.UPF
Cu 63.54 Cu.pbe-dn-rrkjus_psl.1.0.0.UPF

CELL_PARAMETERS {angstrom}
7.30642000 0.00000000 0.00000000
-0.00000000 7.30642000 0.00000000
0.00000000 0.00000000 25.47980000

ATOMIC_POSITIONS {angstrom}
Cu 0.00000000 0.00000000 -2.739842890000002 0 0 0
Cu 1.82660500 1.82660500 -2.739842890000002 0 0 0
Cu 1.82660500 0.00000000 -0.9131960300000017 0 0 0
Cu 0.00000000 1.82660500 -0.9131960300000017 0 0 0
Cu 0.00000000 0.00000000 0.91319603
Cu 1.82660500 1.82660500 0.91319603
Cu 1.82660500 -0.00000000 2.73984289
Cu 0.00000000 1.82660500 2.73984289
Cu 0.00000000 3.65321000 -2.739842890000002 0 0 0
Cu 1.82660500 5.47981500 -2.739842890000002 0 0 0
Cu 1.82660500 3.65321000 -0.9131960300000017 0 0 0
Cu 0.00000000 5.47981500 -0.9131960300000017 0 0 0
Cu 0.00000000 3.65321000 0.91319603
Cu 1.82660500 5.47981500 0.91319603
Cu 1.82660500 3.65321000 2.73984289
Cu 0.00000000 5.47981500 2.73984289
Cu 3.65321000 0.00000000 -2.739842890000002 0 0 0
Cu 5.47981500 1.82660500 -2.739842890000002 0 0 0
Cu 5.47981500 0.00000000 -0.9131960300000017 0 0 0
Cu 3.65321000 1.82660500 -0.9131960300000017 0 0 0
Cu 3.65321000 -0.00000000 0.91319603
Cu 5.47981500 1.82660500 0.91319603
Cu 5.47981500 -0.00000000 2.73984289
Cu 3.65321000 1.82660500 2.73984289
Cu 3.65321000 3.65321000 -2.739842890000002 0 0 0
Cu 5.47981500 5.47981500 -2.739842890000002 0 0 0
Cu 5.47981500 3.65321000 -0.9131960300000017 0 0 0
Cu 3.65321000 5.47981500 -0.9131960300000017 0 0 0
Cu 3.65321000 3.65321000 0.91319603
Cu 5.47981500 5.47981500 0.91319603
Cu 5.47981500 3.65321000 2.73984289
Cu 3.65321000 5.47981500 2.73984289
C 0.00000000 0.00000000 3.53990861
H 0.00000000 0.00000000 4.73990861
