&CONTROL
calculation = 'relax'
prefix = 'scf'
pseudo_dir = '/vol0403/data/hp230205/u10028/POT_HYBRID_KKJUS_GBRV'
outdir = './data'
tprnfor = .true.
nstep = 70
disk_io = 'non'
/
&SYSTEM
ibrav = 0
ecutwfc = 50.0
ecutrho = 400
occupations = 'smearing'
smearing = 'mp'
degauss = 0.01
assume_isolated = 'esm'
esm_bc = 'bc1'
input_dft = 'BEEF-VDW'
nosym = .true.
nspin = 1
ntyp = 5
nat = 17
/
&ELECTRONS
electron_maxstep = 200
mixing_beta = 0.1
conv_thr = 1e-06
/
&IONS
ion_dynamics = 'bfgs'
upscale = 1.0
/
&CELL
/

K_POINTS {automatic}
11 7 2 0  0  0

ATOMIC_SPECIES
C 12.01 C.pbe-n-rrkjus_psl.1.0.0.UPF
Ga 69.72 Ga.pbe-dnl-rrkjus_psl.1.0.0.UPF
Pd 106.4 Pd.pbe-n-rrkjus_psl.1.0.0.UPF
Sn 118.7 Sn.pbe-dn-rrkjus_psl.1.0.0.UPF
Y 88.90 Y.pbe-spn-rrkjus_psl.1.0.0.UPF


CELL_PARAMETERS {angstrom}
6.14219000 0.00000000 0.00000000
-0.00000000 8.88338000 0.00000000
0.00000000 0.00000000 24.60430000

ATOMIC_POSITIONS {angstrom}
Y 1.44924973 2.22084500 0.69827003
Y 4.45843146 2.22084500 -2.3022243499999995 0 0 0
Y 1.59868921 6.66253500 0.81415629
Y 4.45843146 6.66253500 -2.3022243499999995 0 0 0
Ga 5.75044112 8.78815017 2.05175258
Ga 2.97226716 0.00000000 -0.7674081199999989 0 0 0
Ga 5.75044112 4.53709750 2.05175258
Ga 2.97226716 4.44169000 -0.7674081199999989 0 0 0
Sn 2.93928360 0.11566161 2.73476794
Sn 6.04336216 -0.00000000 -0.7674081199999989 0 0 0
Sn 2.93940645 4.32576189 2.73501399
Sn 6.04336216 4.44169000 -0.7674081199999989 0 0 0
Pd 4.57783563 2.22093383 0.88132603
Pd 1.38733646 2.22084500 -2.3022243499999995 0 0 0
Pd 4.64146872 6.66253500 0.62052045
Pd 1.38733646 6.66253500 -2.3022243499999995 0 0 0
C 2.99861716 2.22075617 2.43188901
