&CONTROL
calculation = 'relax'
prefix = 'scf'
pseudo_dir = '/vol0004/mdt0/data/hp150275/u10028/POT_KKJUS'
outdir = './data'
tprnfor = .true.
nstep = 50
disk_io = 'non'
/
&SYSTEM
ibrav = 0
ecutwfc = 50.0
ecutrho = 400
occupations = 'smearing'
smearing = 'mp'
degauss = 0.01
assume_isolated = 'esm'
esm_bc = 'bc1'
input_dft = 'BEEF-VDW'
nosym = .true.
nspin = 1
ntyp = 3
nat = 17
/
&ELECTRONS
electron_maxstep = 200
mixing_beta = 0.1
conv_thr = 1e-06
/
&IONS
ion_dynamics = 'bfgs'
upscale = 1.0
/
&CELL
/

K_POINTS {automatic}
6 8 1 0 0 0

ATOMIC_SPECIES
C 12.01 C.pbe-n-rrkjus_psl.1.0.0.UPF
Hf 178.4 Hf.pbe-spn-rrkjus_psl.1.0.0.UPF
Ir 192.2 Ir.pbe-n-rrkjus_psl.0.2.3.UPF

CELL_PARAMETERS {angstrom}
7.94591000 0.00000000 0.00000000
0.00000000 5.61861000 0.00000000
0.00000000 0.00000000 24.21400000

ATOMIC_POSITIONS {angstrom}
Hf 7.87916436 5.61787958 1.91484312
Hf 0.00000000 2.80930500 -0.7024481399999978 0 0 0
Hf 4.03970064 5.61787958 1.91484312
Hf 3.97295500 2.80930500 -0.7024481399999978 0 0 0
Ir 0.01239562 2.80879933 2.02719608
Ir 1.98647750 4.23985929 0.70390098
Ir 1.98647750 1.37903164 0.70486954
Ir 0.00000000 0.00000000 -0.7024481399999978 0 0 0
Ir 1.98647750 1.40465250 -2.1071022799999994 0 0 0
Ir 1.98647750 4.21395750 -2.1071022799999994 0 0 0
Ir 3.96055938 2.80879933 2.02719608
Ir 5.95943250 4.20654093 0.75087614
Ir 5.95943250 1.41111390 0.75305540
Ir 3.97295500 0.00000000 -0.7024481399999978 0 0 0
Ir 5.95943250 1.40465250 -2.1071022799999994 0 0 0
Ir 5.95943250 4.21395750 -2.1071022799999994 0 0 0
C 1.98647750 2.81065347 2.28991798
