&CONTROL
calculation = 'relax'
prefix = 'scf'
pseudo_dir = '/vol0004/mdt0/data/hp150275/u10028/POT_KKJUS'
outdir = './data'
tprnfor = .true.
nstep = 50
disk_io = 'non'
/
&SYSTEM
ibrav = 0
ecutwfc = 50.0
ecutrho = 400
occupations = 'smearing'
smearing = 'mp'
degauss = 0.01
assume_isolated = 'esm'
esm_bc = 'bc1'
input_dft = 'BEEF-VDW'
nosym = .true.
nspin = 1
ntyp = 4
nat = 33
/
&ELECTRONS
electron_maxstep = 200
mixing_beta = 0.1
conv_thr = 1e-06
/
&IONS
ion_dynamics = 'bfgs'
upscale = 1.0
/
&CELL
/

K_POINTS {automatic}
9 6 2 0  0  0

ATOMIC_SPECIES
Ag 107.8 Ag.pbe-n-rrkjus_psl.1.0.0.UPF
C 12.01 C.pbe-n-rrkjus_psl.1.0.0.UPF
Li 6.941 Li.pbe-sl-rrkjus_psl.1.0.0.UPF
Pb 207.2 Pb.pbe-dn-rrkjus_psl.1.0.0.UPF

CELL_PARAMETERS {angstrom}
6.84524000 0.00000000 0.00000000
0.00000000 9.68063000 0.00000000
0.00000000 0.00000000 27.26050000

ATOMIC_POSITIONS {angstrom}
Li 0.00000000 7.26047250 -1.2100935899999996 0 0 0
Li 3.42262000 0.00000000 -3.6302807799999997 0 0 0
Li 0.00000000 2.42015750 -1.2100935899999996 0 0 0
Li 3.42262000 4.84031500 -3.6302807799999997 0 0 0
Li 1.71131000 2.42015750 -3.6302807799999997 0 0 0
Li 1.71131000 7.26047250 -3.6302807799999997 0 0 0
Li 5.13393000 4.84031500 -1.2100935899999996 0 0 0
Li 5.13393000 0.00000000 -1.2100935899999996 0 0 0
Li 0.08419645 2.57001365 3.48552753
Li 3.34971819 4.84031500 0.93803381
Li 0.08419645 7.11061635 3.48552753
Li 3.63721827 0.00000000 1.66670697
Li 1.89859577 7.35447142 1.36057156
Li 1.89859577 2.32625539 1.36057156
Li 5.50261463 0.00000000 3.79166294
Li 4.78434359 4.84031500 3.32169193
Ag 1.71131000 0.00000000 -1.2100935899999996 0 0 0
Ag 1.71131000 4.84031500 -1.2100935899999996 0 0 0
Ag 5.13393000 7.26047250 -3.6302807799999997 0 0 0
Ag 5.13393000 2.42015750 -3.6302807799999997 0 0 0
Ag 1.90338743 4.84031500 3.35794839
Ag 1.40902420 0.00000000 3.44709023
Ag 4.94192102 2.50883207 1.43417490
Ag 4.94192102 7.17179793 1.43417490
Pb 0.00000000 0.00000000 -3.6302807799999997 0 0 0
Pb 3.42262000 2.42015750 -1.2100935899999996 0 0 0
Pb 3.42262000 7.26047250 -1.2100935899999996 0 0 0
Pb 0.00000000 4.84031500 -3.6302807799999997 0 0 0
Pb 6.84346024 4.84031500 1.19210167
Pb 3.54925694 7.42484960 4.28698623
Pb 3.54932539 2.25568360 4.28698623
Pb 6.70799294 0.00000000 1.09778033
C 3.49942359 0.00000000 3.94486696
