&CONTROL
calculation = 'relax'
prefix = 'scf'
pseudo_dir = '/vol0403/data/hp230205/u10028/POT_HYBRID_KKJUS_GBRV'
outdir = './data'
tprnfor = .true.
nstep = 50
disk_io = 'non'
/
&SYSTEM
ibrav = 0
ecutwfc = 50.0
ecutrho = 400
occupations = 'smearing'
smearing = 'mp'
degauss = 0.01
assume_isolated = 'esm'
esm_bc = 'bc1'
input_dft = 'BEEF-VDW'
nosym = .true.
nspin = 1
ntyp = 5
nat = 33
/
&ELECTRONS
electron_maxstep = 200
mixing_beta = 0.1
conv_thr = 1e-06
/
&IONS
ion_dynamics = 'bfgs'
upscale = 1.0
/
&CELL
/

K_POINTS {automatic}
6 6 1 0 0 0

ATOMIC_SPECIES
Au 196.9 Au.pbe-n-rrkjus_psl.1.0.0.UPF
C 12.01 C.pbe-n-rrkjus_psl.1.0.0.UPF
In 114.8 In.pbe-dn-rrkjus_psl.1.0.0.UPF
Li 6.941 Li.pbe-sl-rrkjus_psl.1.0.0.UPF
Mg 24.30 Mg.pbe-spnl-rrkjus_psl.1.0.0.UPF


CELL_PARAMETERS {angstrom}
6.64779000 0.00000000 0.00000000
0.00000000 9.40140000 0.00000000
0.00000000 0.00000000 27.05110000

ATOMIC_POSITIONS {angstrom}
Li 0.00000000 2.35035000 -1.17509978 0 0 0
Li 0.00000000 7.05105000 -1.17509978 0 0 0
Li 3.32389500 4.70070000 -3.525569860000001 0 0 0
Li 3.32389500 0.00000000 -3.525569860000001 0 0 0
Li 0.04746522 7.31372512 4.15342589
Li 0.04746522 2.08767488 4.15342589
Li 3.26313420 0.00000000 1.13641671
Li 3.19858416 4.70070000 1.42802757
Mg 4.98584250 0.00000000 -1.17509978 0 0 0
Mg 4.98584250 4.70070000 -1.17509978 0 0 0
Mg 1.66194750 2.35035000 -3.525569860000001 0 0 0
Mg 1.66194750 7.05105000 -3.525569860000001 0 0 0
Mg 5.04647034 4.70070000 3.62863455
Mg 4.69859149 0.00000000 3.55640812
Mg 1.55684594 7.04268275 1.25408900
Mg 1.55684594 2.35881126 1.25381849
In 1.66194750 0.00000000 -1.17509978 0 0 0
In 1.66194750 4.70070000 -1.17509978 0 0 0
In 4.98584250 2.35035000 -3.525569860000001 0 0 0
In 4.98584250 7.05105000 -3.525569860000001 0 0 0
In 1.43472604 4.70070000 4.07119055
In 2.02006395 0.00000000 3.98354499
In 5.01276605 7.04992183 1.25246593
In 5.01276605 2.35147817 1.25246593
Au 0.00000000 0.00000000 -3.525569860000001 0 0 0
Au 0.00000000 4.70070000 -3.525569860000001 0 0 0
Au 3.32389500 7.05105000 -1.17509978 0 0 0
Au 3.32389500 2.35035000 -1.17509978 0 0 0
Au 0.03902253 4.70070000 1.17726387
Au 0.05145389 0.00000000 1.31224886
Au 3.22643840 2.57842796 3.42899744
Au 3.22643840 6.82297204 3.42899744
C 6.61328797 0.00000000 4.14206443
