&CONTROL
calculation = 'relax'
prefix = 'scf'
pseudo_dir = '/vol0004/mdt0/data/hp150275/u10028/POT_HYBRID_KKJUS_GBRV'
outdir = './data'
tprnfor = .true.
nstep = 50
disk_io = 'non'
/
&SYSTEM
ibrav = 0
ecutwfc = 50.0
ecutrho = 400
occupations = 'smearing'
smearing = 'mp'
degauss = 0.01
assume_isolated = 'esm'
esm_bc = 'bc1'
input_dft = 'BEEF-VDW'
nosym = .true.
nspin = 2
ntyp = 4
nat = 33
starting_magnetization(1) = 0.0
starting_magnetization(2) = 0.0
starting_magnetization(3) = 0.1
starting_magnetization(4) = 0.001
/
&ELECTRONS
electron_maxstep = 300
mixing_beta = 0.1
conv_thr = 1e-06
/
&IONS
ion_dynamics = 'bfgs'
upscale = 1.0
/
&CELL
/

K_POINTS {automatic}
8 6 1 0 0 0

ATOMIC_SPECIES
Al 26.98 Al.pbe-nl-rrkjus_psl.1.0.0.UPF
C 12.01 C.pbe-n-rrkjus_psl.1.0.0.UPF
Mn 54.93 mn_pbe_v1.5.uspp.F.UPF
Ni 58.69 ni_pbe_v1.4.uspp.F.UPF

CELL_PARAMETERS {angstrom}
5.81764000 0.00000000 0.00000000
0.00000000 8.22738000 0.00000000
0.00000000 0.00000000 26.17050000

ATOMIC_POSITIONS {angstrom}
Mn 0.00000000 0.00000000 -3.085240250000002 0 0 0
Mn 2.90882000 2.05684500 -1.0285006500000016 0 0 0
Mn 2.90882000 6.17053500 -1.0285006500000016 0 0 0
Mn 0.00000000 4.11369000 -3.085240250000002 0 0 0
Mn 0.00000000 4.11369000 1.02300484
Mn 2.90882000 6.27033312 3.23702914
Mn 2.90882000 1.95704688 3.23702914
Mn 0.00000000 0.00000000 0.95888712
Al 0.00000000 6.17053500 -1.0285006500000016 0 0 0
Al 2.90882000 0.00000000 -3.085240250000002 0 0 0
Al 0.00000000 2.05684500 -1.0285006500000016 0 0 0
Al 2.90882000 4.11369000 -3.085240250000002 0 0 0
Al 0.00000000 2.14726391 3.08445513
Al 2.90882000 4.11369000 1.00677913
Al 0.00000000 6.08011609 3.08445513
Al 2.90882000 0.00000000 1.07063516
Ni 1.45441000 0.00000000 -1.0285006500000016 0 0 0
Ni 4.36323000 4.11369000 -1.0285006500000016 0 0 0
Ni 4.36323000 0.00000000 -1.0285006500000016 0 0 0
Ni 1.45441000 4.11369000 -1.0285006500000016 0 0 0
Ni 4.36323000 6.17053500 -3.085240250000002 0 0 0
Ni 1.45441000 2.05684500 -3.085240250000002 0 0 0
Ni 1.45441000 6.17053500 -3.085240250000002 0 0 0
Ni 4.36323000 2.05684500 -3.085240250000002 0 0 0
Ni 1.49495895 4.11369000 2.97323051
Ni 4.61426117 0.00000000 3.02373957
Ni 4.32268105 4.11369000 2.97323051
Ni 1.20337883 0.00000000 3.02373957
Ni 4.33931950 2.05289586 1.03975397
Ni 1.47826232 6.17448414 1.04001567
Ni 1.47832050 2.05289586 1.03975397
Ni 4.33937768 6.17448414 1.04001567
C 2.90882000 0.00000000 3.62827812
