&CONTROL
calculation = 'relax'
prefix = 'scf'
pseudo_dir = '/vol0403/data/hp230205/u10028/POT_HYBRID_KKJUS_GBRV'
outdir = './data'
tprnfor = .true.
nstep = 50
disk_io = 'non'
/
&SYSTEM
ibrav = 0
ecutwfc = 50.0
ecutrho = 400
occupations = 'smearing'
smearing = 'mp'
degauss = 0.01
assume_isolated = 'esm'
esm_bc = 'bc1'
input_dft = 'BEEF-VDW'
nosym = .true.
nspin = 1
ntyp = 4
nat = 16
/
&ELECTRONS
electron_maxstep = 200
mixing_beta = 0.1
conv_thr = 1e-06
/
&IONS
ion_dynamics = 'bfgs'
upscale = 1.0
/
&CELL
/

K_POINTS {automatic}
6 6 1 0 0 0

ATOMIC_SPECIES
Ge 72.64 Ge.pbe-dn-rrkjus_psl.1.0.0.UPF
Li 6.941 Li.pbe-sl-rrkjus_psl.1.0.0.UPF
Sn 118.7 Sn.pbe-dn-rrkjus_psl.1.0.0.UPF
Y 88.90 Y.pbe-spn-rrkjus_psl.1.0.0.UPF


CELL_PARAMETERS {angstrom}
6.38551000 0.00000000 0.00000000
0.00000000 8.52742000 0.00000000
0.00000000 0.00000000 24.76910000

ATOMIC_POSITIONS {angstrom}
Li 4.79315537 2.13185500 1.03609145
Li 1.15897007 2.13185500 -2.384521260000003 0 0 0
Li 4.79321923 6.39556500 1.03633914
Li 1.15897007 6.39556500 -2.384521260000003 0 0 0
Y 1.50212737 2.13202555 0.85255242
Y 4.35172507 2.13185500 -2.384521260000003 0 0 0
Y 1.50206352 6.39539445 0.85280011
Y 4.35172507 6.39556500 -2.384521260000003 0 0 0
Sn 3.38495885 8.52724945 2.21386216
Sn 6.09388376 0.00000000 -0.7948404200000034 0 0 0
Sn 3.38489500 4.26388055 2.21410985
Sn 6.09388376 4.26371000 -0.7948404200000034 0 0 0
Ge 6.14790517 0.00008527 2.01892934
Ge 2.90112876 0.00000000 -0.7948404200000034 0 0 0
Ge 6.14784132 4.26362473 2.01868165
Ge 2.90112876 4.26371000 -0.7948404200000034 0 0 0
