&CONTROL
calculation = 'relax'
prefix = 'scf'
pseudo_dir = '/vol0403/data/hp230205/u10028/POT_HYBRID_KKJUS_GBRV'
outdir = './data'
tprnfor = .true.
nstep = 50
disk_io = 'non'
/
&SYSTEM
ibrav = 0
ecutwfc = 50.0
ecutrho = 400
occupations = 'smearing'
smearing = 'mp'
degauss = 0.01
assume_isolated = 'esm'
esm_bc = 'bc1'
input_dft = 'BEEF-VDW'
nosym = .true.
nspin = 1
ntyp = 5
nat = 17
/
&ELECTRONS
electron_maxstep = 200
mixing_beta = 0.1
conv_thr = 1e-06
/
&IONS
ion_dynamics = 'bfgs'
upscale = 1.0
/
&CELL
/

K_POINTS {automatic}
6 6 1 0 0 0

ATOMIC_SPECIES
C 12.01 C.pbe-n-rrkjus_psl.1.0.0.UPF
Ge 72.64 Ge.pbe-dn-rrkjus_psl.1.0.0.UPF
In 114.8 In.pbe-dn-rrkjus_psl.1.0.0.UPF
Li 6.941 Li.pbe-sl-rrkjus_psl.1.0.0.UPF
Mg 24.30 Mg.pbe-spnl-rrkjus_psl.1.0.0.UPF


CELL_PARAMETERS {angstrom}
6.07136000 0.00000000 0.00000000
0.00000000 8.40992000 0.00000000
0.00000000 0.00000000 24.55010000

ATOMIC_POSITIONS {angstrom}
Li 4.38868258 2.10231180 0.69476783
Li 1.34170985 2.10248000 -2.27505777 0 0 0
Li 4.66420089 6.30752410 1.24886359
Li 1.34170985 6.30744000 -2.27505777 0 0 0
Mg 1.53477909 2.10239590 0.61473450
Mg 4.37738985 2.10248000 -2.27505777 0 0 0
Mg 1.71649490 6.30744000 0.78732171
Mg 4.37738985 6.30744000 -2.27505777 0 0 0
In 2.89986368 0.31125114 2.67154188
In 5.95393990 0.00000000 -0.7583525900000012 0 0 0
In 2.90010653 3.89379296 2.67080538
In 5.95393990 4.20496000 -0.7583525900000012 0 0 0
Ge 5.92066884 0.24195340 2.49969118
Ge 2.91825990 0.00000000 -0.7583525900000012 0 0 0
Ge 5.92097241 3.96300660 2.49944568
Ge 2.91825990 4.20496000 -0.7583525900000012 0 0 0
C 5.95618630 2.10239590 2.18201289
