&CONTROL
calculation = 'relax'
prefix = 'scf'
pseudo_dir = '/vol0403/data/hp230205/u10028/POT_HYBRID_KKJUS_GBRV'
outdir = './data'
tprnfor = .true.
nstep = 50
disk_io = 'non'
/
&SYSTEM
ibrav = 0
ecutwfc = 50.0
ecutrho = 400
occupations = 'smearing'
smearing = 'mp'
degauss = 0.01
assume_isolated = 'esm'
esm_bc = 'bc1'
input_dft = 'BEEF-VDW'
nosym = .true.
nspin = 1
ntyp = 5
nat = 33
/
&ELECTRONS
electron_maxstep = 200
mixing_beta = 0.1
conv_thr = 1e-06
/
&IONS
ion_dynamics = 'bfgs'
upscale = 1.0
/
&CELL
/

K_POINTS {automatic}
7 7 2 0  0  0

ATOMIC_SPECIES
C 12.01 C.pbe-n-rrkjus_psl.1.0.0.UPF
Ge 72.64 Ge.pbe-dn-rrkjus_psl.1.0.0.UPF
Li 6.941 Li.pbe-sl-rrkjus_psl.1.0.0.UPF
Pb 207.2 Pb.pbe-dn-rrkjus_psl.1.0.0.UPF
Y 88.90 Y.pbe-spn-rrkjus_psl.1.0.0.UPF


CELL_PARAMETERS {angstrom}
8.55406000 0.00000000 0.00000000
0.00000000 8.65500000 0.00000000
0.00000000 0.00000000 27.39600000

ATOMIC_POSITIONS {angstrom}
Li 2.13851500 0.00000000 -1.2325460400000026 0 0 0
Li 2.09121105 0.00000000 3.73407480
Li 2.13851500 4.32750000 -1.2325460400000026 0 0 0
Li 2.22636520 4.32750000 3.62476476
Li 6.41554500 0.00000000 -1.2325460400000026 0 0 0
Li 6.46284895 0.00000000 3.73407480
Li 6.41554500 4.32750000 -1.2325460400000026 0 0 0
Li 6.32778034 4.32750000 3.62476476
Y 2.13851500 2.16375000 -3.697912080000002 0 0 0
Y 2.11541904 2.10368430 1.29391308
Y 2.13851500 6.49125000 -3.697912080000002 0 0 0
Y 2.11541904 6.55131570 1.29391308
Y 6.41554500 2.16375000 -3.697912080000002 0 0 0
Y 6.43864096 2.10368430 1.29391308
Y 6.41554500 6.49125000 -3.697912080000002 0 0 0
Y 6.43864096 6.55131570 1.29391308
Ge 0.00000000 0.00000000 -3.697912080000002 0 0 0
Ge 0.00000000 0.00000000 0.80215488
Ge 0.00000000 4.32750000 -3.697912080000002 0 0 0
Ge 0.00000000 4.32750000 1.74211164
Ge 4.27703000 0.00000000 -3.697912080000002 0 0 0
Ge 4.27703000 0.00000000 1.82950488
Ge 4.27703000 4.32750000 -3.697912080000002 0 0 0
Ge 4.27703000 4.32750000 1.60677540
Pb 0.00000000 2.16375000 -1.2325460400000026 0 0 0
Pb 0.00000000 2.16011490 4.09570200
Pb 0.00000000 6.49125000 -1.2325460400000026 0 0 0
Pb 0.00000000 6.49488510 4.09570200
Pb 4.27703000 2.16375000 -1.2325460400000026 0 0 0
Pb 4.27703000 2.18227170 3.97187208
Pb 4.27703000 6.49125000 -1.2325460400000026 0 0 0
Pb 4.27703000 6.47272830 3.97159812
C 0.00000000 0.00000000 2.81356920
