&CONTROL
calculation = 'relax'
prefix = 'scf'
pseudo_dir = '/vol0004/mdt0/data/hp150275/u10028/POT_HYBRID_KKJUS_GBRV'
outdir = './data'
tprnfor = .true.
nstep = 50
disk_io = 'non'
/
&SYSTEM
ibrav = 0
ecutwfc = 50.0
ecutrho = 400
occupations = 'smearing'
smearing = 'mp'
degauss = 0.01
assume_isolated = 'esm'
esm_bc = 'bc1'
input_dft = 'BEEF-VDW'
nosym = .true.
nspin = 2
ntyp = 4
nat = 33
starting_magnetization(1) = 0.0
starting_magnetization(2) = 0.1
starting_magnetization(3) = 0.1
starting_magnetization(4) = 0.0
/
&ELECTRONS
electron_maxstep = 300
mixing_beta = 0.1
conv_thr = 1e-06
/
&IONS
ion_dynamics = 'bfgs'
upscale = 1.0
/
&CELL
/

K_POINTS {automatic}
8 6 1 0 0 0

ATOMIC_SPECIES
C 12.01 C.pbe-n-rrkjus_psl.1.0.0.UPF
Co 58.93 co_pbe_v1.2.uspp.F.UPF
Mn 54.93 mn_pbe_v1.5.uspp.F.UPF
Sn 118.7 Sn.pbe-dn-rrkjus_psl.1.0.0.UPF

CELL_PARAMETERS {angstrom}
6.01864000 0.00000000 0.00000000
0.00000000 8.51164000 0.00000000
0.00000000 0.00000000 26.38370000

ATOMIC_POSITIONS {angstrom}
Mn 0.00000000 0.00000000 -3.1919000299999993 0 0 0
Mn 3.00932000 2.12791000 -1.0640546200000003 0 0 0
Mn 3.00932000 6.38373000 -1.0640546200000003 0 0 0
Mn 0.00000000 4.25582000 -3.1919000299999993 0 0 0
Mn 0.00000000 4.25582000 1.09914494
Mn 3.00932000 6.42543704 3.20535571
Mn 3.00932000 2.08620296 3.20561955
Mn 0.00000000 0.00000000 1.00680199
Co 1.50466000 0.00000000 -1.0640546200000003 0 0 0
Co 4.51398000 4.25582000 -1.0640546200000003 0 0 0
Co 4.51398000 0.00000000 -1.0640546200000003 0 0 0
Co 1.50466000 4.25582000 -1.0640546200000003 0 0 0
Co 4.51398000 6.38373000 -3.1919000299999993 0 0 0
Co 1.50466000 2.12791000 -3.1919000299999993 0 0 0
Co 1.50466000 6.38373000 -3.1919000299999993 0 0 0
Co 4.51398000 2.12791000 -3.1919000299999993 0 0 0
Co 1.57531883 4.25582000 3.14863076
Co 4.68695571 0.00000000 3.13332821
Co 4.44326098 4.25582000 3.14863076
Co 1.33162410 0.00000000 3.13332821
Co 4.55310116 2.11548301 1.13186073
Co 1.46553884 6.39607188 1.13186073
Co 1.46553884 2.11556812 1.13186073
Co 4.55310116 6.39615699 1.13186073
Sn 0.00000000 6.38373000 -1.0640546200000003 0 0 0
Sn 3.00932000 0.00000000 -3.1919000299999993 0 0 0
Sn 0.00000000 2.12791000 -1.0640546200000003 0 0 0
Sn 3.00932000 4.25582000 -3.1919000299999993 0 0 0
Sn 0.00000000 2.20902593 3.44940494
Sn 3.00932000 4.25582000 1.03186651
Sn 0.00000000 6.30261407 3.44940494
Sn 3.00932000 0.00000000 1.02606209
C 3.00932000 0.00000000 3.65862768
