&CONTROL
calculation = 'relax'
prefix = 'scf'
pseudo_dir = '/vol0004/mdt0/data/hp150275/u10028/POT_KKJUS'
outdir = './data'
tprnfor = .true.
nstep = 50
disk_io = 'non'
/
&SYSTEM
ibrav = 0
ecutwfc = 50.0
ecutrho = 400
occupations = 'smearing'
smearing = 'mp'
degauss = 0.01
assume_isolated = 'esm'
esm_bc = 'bc1'
input_dft = 'BEEF-VDW'
nosym = .true.
nspin = 1
ntyp = 5
nat = 34
/
&ELECTRONS
electron_maxstep = 200
mixing_beta = 0.1
conv_thr = 1e-06
/
&IONS
ion_dynamics = 'bfgs'
upscale = 1.0
/
&CELL
/

K_POINTS {automatic}
9 6 2 0  0  0

ATOMIC_SPECIES
Al 26.98 Al.pbe-nl-rrkjus_psl.1.0.0.UPF
C 12.01 C.pbe-n-rrkjus_psl.1.0.0.UPF
Li 6.941 Li.pbe-sl-rrkjus_psl.1.0.0.UPF
O 15.99 O.pbe-n-rrkjus_psl.1.0.0.UPF
Pd 106.4 Pd.pbe-n-rrkjus_psl.1.0.0.UPF

CELL_PARAMETERS {angstrom}
6.13337000 0.00000000 0.00000000
0.00000000 8.67390000 0.00000000
0.00000000 0.00000000 26.50540000

ATOMIC_POSITIONS {angstrom}
Li 0.00000000 6.50542500 -1.08433591 0 0 0
Li 3.06668500 0.00000000 -3.2527426900000016 0 0 0
Li 0.00000000 2.16847500 -1.08433591 0 0 0
Li 3.06668500 4.33695000 -3.2527426900000016 0 0 0
Li 1.53334250 0.00000000 -1.08433591 0 0 0
Li 1.53334250 4.33695000 -1.08433591 0 0 0
Li 4.60002750 6.50542500 -3.2527426900000016 0 0 0
Li 4.60002750 2.16847500 -3.2527426900000016 0 0 0
Li 6.01499596 2.19059345 3.32218684
Li 3.03988217 4.33695000 0.98971164
Li 6.01499596 6.48330656 3.32218684
Li 3.07159170 0.00000000 1.08301064
Li 1.56321201 4.33695000 3.35187288
Li 1.51261171 0.00000000 3.40753422
Li 4.65829451 2.14210634 1.00269928
Li 4.65829451 6.53179366 1.00269928
Al 0.00000000 0.00000000 -3.2527426900000016 0 0 0
Al 3.06668500 2.16847500 -1.08433591 0 0 0
Al 3.06668500 6.50542500 -1.08433591 0 0 0
Al 0.00000000 4.33695000 -3.2527426900000016 0 0 0
Al 0.01005873 4.33695000 1.10103432
Al 3.12256000 6.52077780 3.08151780
Al 3.12256000 2.15303546 3.08151780
Al 6.12705263 0.00000000 1.12621445
Pd 1.53334250 2.16847500 -3.2527426900000016 0 0 0
Pd 1.53334250 6.50542500 -3.2527426900000016 0 0 0
Pd 4.60002750 4.33695000 -1.08433591 0 0 0
Pd 4.60002750 0.00000000 -1.08433591 0 0 0
Pd 1.49850496 6.50802717 1.09334775
Pd 1.49850496 2.16587283 1.09361280
Pd 4.54556317 0.00000000 3.29144057
Pd 4.45423730 4.33695000 3.02400109
C 4.96864304 0.00017348 5.21122669
O 5.04555550 0.00026022 6.36739224
