&CONTROL
calculation = 'relax'
prefix = 'scf'
pseudo_dir = '/vol0403/data/hp230205/u10028/POT_HYBRID_KKJUS_GBRV'
outdir = './data'
tprnfor = .true.
nstep = 50
disk_io = 'non'
/
&SYSTEM
ibrav = 0
ecutwfc = 50.0
ecutrho = 400
occupations = 'smearing'
smearing = 'mp'
degauss = 0.01
assume_isolated = 'esm'
esm_bc = 'bc1'
input_dft = 'BEEF-VDW'
nosym = .true.
nspin = 1
ntyp = 6
nat = 18
/
&ELECTRONS
electron_maxstep = 200
mixing_beta = 0.1
conv_thr = 1e-06
/
&IONS
ion_dynamics = 'bfgs'
upscale = 1.0
/
&CELL
/

K_POINTS {automatic}
6 6 1 0 0 0

ATOMIC_SPECIES
Al 26.98 Al.pbe-nl-rrkjus_psl.1.0.0.UPF
C 12.01 C.pbe-n-rrkjus_psl.1.0.0.UPF
In 114.8 In.pbe-dn-rrkjus_psl.1.0.0.UPF
O 15.99 O.pbe-n-rrkjus_psl.1.0.0.UPF
Pd 106.4 Pd.pbe-n-rrkjus_psl.1.0.0.UPF
Sc 44.95 Sc.pbe-spn-rrkjus_psl.1.0.0.UPF


CELL_PARAMETERS {angstrom}
5.88291000 0.00000000 0.00000000
0.00000000 8.60736000 0.00000000
0.00000000 0.00000000 24.41210000

ATOMIC_POSITIONS {angstrom}
Sc 1.46460927 2.15184000 -0.7352924499999993 0 0 0
Sc 4.35764792 2.15175393 2.13337342
Sc 1.46460927 6.45552000 -0.7352924499999993 0 0 0
Sc 4.33817549 6.45552000 2.08454922
Al 0.00000000 0.00000000 -2.20612148 0 0 0
Al 2.85256423 0.00895165 0.85613235
Al 0.00000000 4.30368000 -2.20612148 0 0 0
Al 2.85256423 4.29472835 0.85613235
In 2.94145500 0.00000000 -2.20612148 0 0 0
In 5.78090034 0.00361509 0.76336637
In 2.94145500 4.30368000 -2.20612148 0 0 0
In 5.78078268 4.30006491 0.76336637
Pd 4.40606427 2.15184000 -0.7352924499999993 0 0 0
Pd 1.58944462 2.15184000 1.87826697
Pd 4.40606427 6.45552000 -0.7352924499999993 0 0 0
Pd 1.57703168 6.45552000 1.86361971
C 4.37682621 2.15184000 4.48108508
O 4.39765171 2.15192607 5.63040674
