&CONTROL
calculation = 'relax'
prefix = 'scf'
pseudo_dir = '/vol0403/data/hp230205/u10028/POT_HYBRID_KKJUS_GBRV'
outdir = './data'
tprnfor = .true.
nstep = 50
disk_io = 'non'
/
&SYSTEM
ibrav = 0
ecutwfc = 50.0
ecutrho = 400
occupations = 'smearing'
smearing = 'mp'
degauss = 0.01
assume_isolated = 'esm'
esm_bc = 'bc1'
input_dft = 'BEEF-VDW'
nosym = .true.
nspin = 1
ntyp = 6
nat = 34
/
&ELECTRONS
electron_maxstep = 200
mixing_beta = 0.1
conv_thr = 1e-06
/
&IONS
ion_dynamics = 'bfgs'
upscale = 1.0
/
&CELL
/

K_POINTS {automatic}
6 6 1 0 0 0

ATOMIC_SPECIES
C 12.01 C.pbe-n-rrkjus_psl.1.0.0.UPF
Ge 72.64 Ge.pbe-dn-rrkjus_psl.1.0.0.UPF
Li 6.941 Li.pbe-sl-rrkjus_psl.1.0.0.UPF
O 15.99 O.pbe-n-rrkjus_psl.1.0.0.UPF
Pd 106.4 Pd.pbe-n-rrkjus_psl.1.0.0.UPF
V 50.94 V.pbe-spnl-rrkjus_psl.1.0.0.UPF


CELL_PARAMETERS {angstrom}
8.64114000 0.00000000 0.00000000
0.00000000 9.40562000 0.00000000
0.00000000 0.00000000 24.26620000

ATOMIC_POSITIONS {angstrom}
Li 8.63206680 2.33419272 0.75419350
Li 0.00000000 2.35140500 -2.13299898 0 0 0
Li 8.63267168 7.06757098 0.75273752
Li 0.00000000 7.05421500 -2.13299898 0 0 0
Li 4.33042090 2.34143504 0.75710544
Li 4.32057000 2.35140500 -2.13299898 0 0 0
Li 4.32998884 7.06625419 0.75759076
Li 4.32057000 7.05421500 -2.13299898 0 0 0
V 2.15726060 0.00009406 0.59185262
V 2.16028500 0.00000000 -2.13299898 0 0 0
V 2.16270452 4.70299811 0.32735104
V 2.16028500 4.70281000 -2.13299898 0 0 0
V 6.47860830 9.40533783 0.53628302
V 6.48085500 0.00000000 -2.13299898 0 0 0
V 6.48249682 4.70309217 0.33875615
V 6.48085500 4.70281000 -2.13299898 0 0 0
Ge 8.63949818 9.40270426 1.92503765
Ge 0.00000000 0.00000000 -0.7109996600000024 0 0 0
Ge 0.02073874 4.70121104 2.01749187
Ge 0.00000000 4.70281000 -0.7109996600000024 0 0 0
Ge 4.31253374 0.00169301 1.93959737
Ge 4.32057000 0.00000000 -0.7109996600000024 0 0 0
Ge 4.32091565 4.70450301 2.01749187
Ge 4.32057000 4.70281000 -0.7109996600000024 0 0 0
Pd 2.16088988 2.75236658 2.04103008
Pd 2.16028500 2.35140500 -0.7109996600000024 0 0 0
Pd 2.16063065 6.65409993 2.04103008
Pd 2.16028500 7.05421500 -0.7109996600000024 0 0 0
Pd 6.47999089 2.82413146 2.08495190
Pd 6.48085500 2.35140500 -0.7109996600000024 0 0 0
Pd 6.48007730 6.58346372 2.08446658
Pd 6.48085500 7.05421500 -0.7109996600000024 0 0 0
C 8.55611118 9.39913012 5.30313535
O 0.03594714 9.40524378 6.43127099
