&CONTROL
calculation = 'relax'
prefix = 'scf'
pseudo_dir = '/vol0004/mdt0/data/hp150275/u10028/POT_KKJUS'
outdir = './data'
tprnfor = .true.
nstep = 50
disk_io = 'non'
/
&SYSTEM
ibrav = 0
ecutwfc = 50.0
ecutrho = 400
occupations = 'smearing'
smearing = 'mp'
degauss = 0.01
assume_isolated = 'esm'
esm_bc = 'bc1'
input_dft = 'BEEF-VDW'
nosym = .true.
nspin = 1
ntyp = 3
nat = 33
/
&ELECTRONS
electron_maxstep = 200
mixing_beta = 0.1
conv_thr = 1e-06
/
&IONS
ion_dynamics = 'bfgs'
upscale = 1.0
/
&CELL
/

K_POINTS {automatic}
8 6 2 0  0  0

ATOMIC_SPECIES
C 12.01 C.pbe-n-rrkjus_psl.1.0.0.UPF
Ca 40.07 Ca.pbe-spn-rrkjus_psl.1.0.0.UPF
In 114.8 In.pbe-dn-rrkjus_psl.1.0.0.UPF

CELL_PARAMETERS {angstrom}
8.11767000 0.00000000 0.00000000
0.00000000 11.48010000 0.00000000
0.00000000 0.00000000 28.61010000

ATOMIC_POSITIONS {angstrom}
Ca 2.02941750 0.00000000 -1.4350826199999993 0 0 0
Ca 6.08825250 5.74005000 -1.4350826199999993 0 0 0
Ca 6.08825250 0.00000000 -1.4350826199999993 0 0 0
Ca 2.02941750 5.74005000 -1.4350826199999993 0 0 0
Ca 6.08825250 8.61007500 -4.30496175 0 0 0
Ca 2.02941750 2.87002500 -4.30496175 0 0 0
Ca 2.02941750 8.61007500 -4.30496175 0 0 0
Ca 6.08825250 2.87002500 -4.30496175 0 0 0
Ca 0.00000000 8.61007500 -1.4350826199999993 0 0 0
Ca 4.05883500 0.00000000 -4.30496175 0 0 0
Ca 0.00000000 2.87002500 -1.4350826199999993 0 0 0
Ca 4.05883500 5.74005000 -4.30496175 0 0 0
Ca 2.01561746 5.74016480 4.35445722
Ca 5.77279984 11.47964080 4.39451136
Ca 6.09994194 5.73959080 4.35560162
Ca 2.34511369 0.00000000 4.39279475
Ca 6.15790211 2.91077936 1.53922338
Ca 1.95871259 8.57069826 1.53979558
Ca 1.95911848 2.90813893 1.54008168
Ca 6.15847035 8.56794303 1.54008168
Ca 8.11710176 2.37695471 4.81136052
Ca 4.05363969 5.73890199 1.46369272
Ca 0.00032471 9.10234169 4.81422153
Ca 4.06078324 11.47768918 1.34496080
In 0.00000000 0.00000000 -4.30496175 0 0 0
In 4.05883500 2.87002500 -1.4350826199999993 0 0 0
In 4.05883500 8.61007500 -1.4350826199999993 0 0 0
In 0.00000000 5.74005000 -4.30496175 0 0 0
In 0.00251648 5.74108321 1.30090125
In 4.05875382 8.50767251 4.02229396
In 4.05924088 2.97300150 4.02286616
In 8.11750765 11.47998520 1.68685150
C 0.00008118 11.47952599 4.40996081
