&CONTROL
calculation = 'relax'
prefix = 'scf'
pseudo_dir = '/vol0004/mdt0/data/hp150275/u10028/POT_KKJUS'
outdir = './data'
tprnfor = .true.
nstep = 50
disk_io = 'non'
/
&SYSTEM
ibrav = 0
ecutwfc = 50.0
ecutrho = 400
occupations = 'smearing'
smearing = 'mp'
degauss = 0.01
assume_isolated = 'esm'
esm_bc = 'bc1'
input_dft = 'BEEF-VDW'
nosym = .true.
nspin = 1
ntyp = 4
nat = 33
/
&ELECTRONS
electron_maxstep = 200
mixing_beta = 0.1
conv_thr = 1e-06
/
&IONS
ion_dynamics = 'bfgs'
upscale = 1.0
/
&CELL
/

K_POINTS {automatic}
8 6 1 0 0 0

ATOMIC_SPECIES
Al 26.98 Al.pbe-nl-rrkjus_psl.1.0.0.UPF
C 12.01 C.pbe-n-rrkjus_psl.1.0.0.UPF
Ni 58.69 Ni.pbe-spn-rrkjus_psl.1.0.0.UPF
Ta 180.9 Ta.pbe-spn-rrkjus_psl.1.0.0.UPF

CELL_PARAMETERS {angstrom}
6.00328000 0.00000000 0.00000000
0.00000000 8.48992000 0.00000000
0.00000000 0.00000000 26.36740000

ATOMIC_POSITIONS {angstrom}
Ta 0.00000000 0.00000000 -3.183599879999999 0 0 0
Ta 3.00164000 2.12248000 -1.0612878499999994 0 0 0
Ta 3.00164000 6.36744000 -1.0612878499999994 0 0 0
Ta 0.00000000 4.24496000 -3.183599879999999 0 0 0
Ta 0.00000000 4.24496000 1.07631727
Ta 3.00164000 6.29137032 3.13139242
Ta 3.00164000 2.19846478 3.13139242
Ta 0.00000000 0.00000000 1.13959903
Al 0.00000000 6.36744000 -1.0612878499999994 0 0 0
Al 3.00164000 0.00000000 -3.183599879999999 0 0 0
Al 0.00000000 2.12248000 -1.0612878499999994 0 0 0
Al 3.00164000 4.24496000 -3.183599879999999 0 0 0
Al 0.00000000 2.10889613 3.26718453
Al 3.00164000 4.24496000 1.04335802
Al 0.00000000 6.38093897 3.26718453
Al 3.00164000 0.00000000 1.06102418
Ni 1.50082000 0.00000000 -1.0612878499999994 0 0 0
Ni 4.50246000 4.24496000 -1.0612878499999994 0 0 0
Ni 4.50246000 0.00000000 -1.0612878499999994 0 0 0
Ni 1.50082000 4.24496000 -1.0612878499999994 0 0 0
Ni 4.50246000 6.36744000 -3.183599879999999 0 0 0
Ni 1.50082000 2.12248000 -3.183599879999999 0 0 0
Ni 1.50082000 6.36744000 -3.183599879999999 0 0 0
Ni 4.50246000 2.12248000 -3.183599879999999 0 0 0
Ni 1.45945740 4.24496000 3.11267157
Ni 4.21784450 0.00000000 3.24371755
Ni 4.54388263 4.24496000 3.11267157
Ni 1.78543550 8.48983510 3.24345387
Ni 4.49429554 2.15932625 1.05443233
Ni 1.50892443 6.33059375 1.05443233
Ni 1.50904449 2.15924135 1.05443233
Ni 4.49435557 6.33059375 1.05443233
C 0.00012007 0.00000000 3.37792761
