&CONTROL
calculation = 'relax'
prefix = 'scf'
pseudo_dir = '/vol0403/data/hp230205/u10028/POT_HYBRID_KKJUS_GBRV'
outdir = './data'
tprnfor = .true.
nstep = 50
disk_io = 'non'
/
&SYSTEM
ibrav = 0
ecutwfc = 50.0
ecutrho = 400
occupations = 'smearing'
smearing = 'mp'
degauss = 0.01
assume_isolated = 'esm'
esm_bc = 'bc1'
input_dft = 'BEEF-VDW'
nosym = .true.
nspin = 1
ntyp = 6
nat = 18
/
&ELECTRONS
electron_maxstep = 200
mixing_beta = 0.1
conv_thr = 1e-06
/
&IONS
ion_dynamics = 'bfgs'
upscale = 1.0
/
&CELL
/

K_POINTS {automatic}
9 9 2 0  0  0

ATOMIC_SPECIES
Al 26.98 Al.pbe-nl-rrkjus_psl.1.0.0.UPF
C 12.01 C.pbe-n-rrkjus_psl.1.0.0.UPF
Li 6.941 Li.pbe-sl-rrkjus_psl.1.0.0.UPF
Nb 92.90 Nb.pbe-spn-rrkjus_psl.1.0.0.UPF
O 15.99 O.pbe-n-rrkjus_psl.1.0.0.UPF
Pd 106.4 Pd.pbe-n-rrkjus_psl.1.0.0.UPF


CELL_PARAMETERS {angstrom}
6.26744000 0.00000000 0.00000000
0.00000000 6.26744000 0.00000000
0.00000000 0.00000000 24.70060000

ATOMIC_POSITIONS {angstrom}
Li 1.56686000 1.56686000 -0.7835030300000021 0 0 0
Li 1.55996582 4.70728616 2.87391481
Li 4.70728616 1.55996582 2.87366780
Li 4.70058000 4.70058000 -0.7835030300000021 0 0 0
Nb 0.00000000 3.13372000 -2.350262090000001 0 0 0
Nb 0.02908092 0.02908092 0.79190124
Nb 3.10420036 3.10426303 0.79041920
Nb 3.13372000 0.00000000 -2.350262090000001 0 0 0
Al 0.00000000 0.00000000 -2.350262090000001 0 0 0
Al 0.01410174 3.12112245 0.80005243
Al 3.12118512 0.01410174 0.80005243
Al 3.13372000 3.13372000 -2.350262090000001 0 0 0
Pd 4.70058000 1.56686000 -0.7835030300000021 0 0 0
Pd 4.70083070 4.70083070 2.04619770
Pd 1.56911628 1.56911628 2.28505251
Pd 1.56686000 4.70058000 -0.7835030300000021 0 0 0
C 1.55413710 1.55413710 4.25418434
O 1.55601733 1.55601733 5.41659457
