&CONTROL
calculation = 'relax'
prefix = 'scf'
pseudo_dir = '/vol0004/mdt0/data/hp150275/u10028/POT_KKJUS'
outdir = './data'
tprnfor = .true.
nstep = 50
disk_io = 'non'
/
&SYSTEM
ibrav = 0
ecutwfc = 50.0
ecutrho = 400
occupations = 'smearing'
smearing = 'mp'
degauss = 0.01
assume_isolated = 'esm'
esm_bc = 'bc1'
input_dft = 'BEEF-VDW'
nosym = .true.
nspin = 1
ntyp = 4
nat = 34
/
&ELECTRONS
electron_maxstep = 200
mixing_beta = 0.1
conv_thr = 1e-06
/
&IONS
ion_dynamics = 'bfgs'
upscale = 1.0
/
&CELL
/

K_POINTS {automatic}
7 7 2 0  0  0

ATOMIC_SPECIES
C 12.01 C.pbe-n-rrkjus_psl.1.0.0.UPF
Ca 40.07 Ca.pbe-spn-rrkjus_psl.1.0.0.UPF
O 15.99 O.pbe-n-rrkjus_psl.1.0.0.UPF
Pb 207.2 Pb.pbe-dn-rrkjus_psl.1.0.0.UPF

CELL_PARAMETERS {angstrom}
10.21910000 0.00000000 0.00000000
0.00000000 10.21910000 0.00000000
0.00000000 0.00000000 27.66430000

ATOMIC_POSITIONS {angstrom}
Ca 0.00000000 2.55477500 -1.2772607300000018 0 0 0
Ca 2.55477500 0.00000000 -1.2772607300000018 0 0 0
Ca 2.55477500 2.55477500 -3.832058840000002 0 0 0
Ca 0.04670129 2.47036523 3.85253042
Ca 2.55610348 0.00000000 3.52332525
Ca 2.55487719 2.62804595 1.25568258
Ca 0.00000000 7.66432500 -1.2772607300000018 0 0 0
Ca 2.55477500 5.10955000 -1.2772607300000018 0 0 0
Ca 2.55477500 7.66432500 -3.832058840000002 0 0 0
Ca 0.04680348 7.74873477 3.85225378
Ca 2.55426405 5.10965219 3.75515208
Ca 2.55487719 7.59105405 1.25568258
Ca 5.10955000 2.55477500 -1.2772607300000018 0 0 0
Ca 7.66432500 0.00000000 -1.2772607300000018 0 0 0
Ca 7.66432500 2.55477500 -3.832058840000002 0 0 0
Ca 5.06162242 2.47016085 3.85446692
Ca 7.66299652 0.00000000 3.79111567
Ca 7.66340528 2.54905230 1.29883889
Ca 5.10955000 7.66432500 -1.2772607300000018 0 0 0
Ca 7.66432500 5.10955000 -1.2772607300000018 0 0 0
Ca 7.66432500 7.66432500 -3.832058840000002 0 0 0
Ca 5.06162242 7.74883696 3.85446692
Ca 7.66371185 5.10955000 3.76843095
Ca 7.66350747 7.67014989 1.29883889
Pb 0.00000000 0.00000000 -3.832058840000002 0 0 0
Pb 10.19620922 10.21879343 1.38764129
Pb 0.00000000 5.10955000 -3.832058840000002 0 0 0
Pb 10.20469107 5.10955000 1.47367726
Pb 5.10955000 0.00000000 -3.832058840000002 0 0 0
Pb 5.13233859 10.21879343 1.38653472
Pb 5.10955000 5.10955000 -3.832058840000002 0 0 0
Pb 5.12395893 5.10955000 1.47395390
C 2.57092118 0.00010219 6.02556118
O 2.57030803 0.00000000 7.18552528
