&CONTROL
calculation = 'relax'
prefix = 'scf'
pseudo_dir = '/vol0403/data/hp230205/u10028/POT_HYBRID_KKJUS_GBRV'
outdir = './data'
tprnfor = .true.
nstep = 50
disk_io = 'non'
/
&SYSTEM
ibrav = 0
ecutwfc = 50.0
ecutrho = 400
occupations = 'smearing'
smearing = 'mp'
degauss = 0.01
assume_isolated = 'esm'
esm_bc = 'bc1'
input_dft = 'BEEF-VDW'
nosym = .true.
nspin = 1
ntyp = 6
nat = 18
/
&ELECTRONS
electron_maxstep = 200
mixing_beta = 0.1
conv_thr = 1e-06
/
&IONS
ion_dynamics = 'bfgs'
upscale = 1.0
/
&CELL
/

K_POINTS {automatic}
6 6 1 0 0 0

ATOMIC_SPECIES
Al 26.98 Al.pbe-nl-rrkjus_psl.1.0.0.UPF
C 12.01 C.pbe-n-rrkjus_psl.1.0.0.UPF
Cu 63.54 Cu.pbe-dn-rrkjus_psl.1.0.0.UPF
Ge 72.64 Ge.pbe-dn-rrkjus_psl.1.0.0.UPF
Li 6.941 Li.pbe-sl-rrkjus_psl.1.0.0.UPF
O 15.99 O.pbe-n-rrkjus_psl.1.0.0.UPF


CELL_PARAMETERS {angstrom}
5.44580000 0.00000000 0.00000000
0.00000000 7.77412000 0.00000000
0.00000000 0.00000000 24.08340000

ATOMIC_POSITIONS {angstrom}
Li 4.05439810 1.94353000 -0.6805968799999995 0 0 0
Li 1.43545842 1.94353000 2.22554699
Li 4.05439810 5.83059000 -0.6805968799999995 0 0 0
Li 1.36150446 5.83059000 2.44639177
Al 0.00000000 0.00000000 -2.0417906499999994 0 0 0
Al 2.71358768 7.67437804 0.78680468
Al 0.00000000 3.88706000 -2.0417906499999994 0 0 0
Al 2.71369660 3.98687970 0.78704551
Cu 2.72290000 0.00000000 -2.0417906499999994 0 0 0
Cu 0.03773939 7.72141147 0.82991396
Cu 2.72290000 3.88706000 -2.0417906499999994 0 0 0
Cu 0.03773939 3.93992402 0.82991396
Ge 1.33149810 1.94353000 -0.6805968799999995 0 0 0
Ge 4.22229211 1.94353000 1.96472377
Ge 1.33149810 5.83059000 -0.6805968799999995 0 0 0
Ge 4.16663604 5.83082322 2.06563322
C 4.01763895 1.94353000 3.88272575
O 3.93649653 1.94345226 5.04667647
