&CONTROL
calculation = 'relax'
prefix = 'scf'
pseudo_dir = '/vol0004/mdt0/data/hp150275/u10028/POT_KKJUS'
outdir = './data'
tprnfor = .true.
nstep = 50
disk_io = 'non'
/
&SYSTEM
ibrav = 0
ecutwfc = 50.0
ecutrho = 400
occupations = 'smearing'
smearing = 'mp'
degauss = 0.01
assume_isolated = 'esm'
esm_bc = 'bc1'
input_dft = 'BEEF-VDW'
nosym = .true.
nspin = 1
ntyp = 5
nat = 34
/
&ELECTRONS
electron_maxstep = 200
mixing_beta = 0.1
conv_thr = 1e-06
/
&IONS
ion_dynamics = 'bfgs'
upscale = 1.0
/
&CELL
/

K_POINTS {automatic}
8 6 1 0 0 0

ATOMIC_SPECIES
C 12.01 C.pbe-n-rrkjus_psl.1.0.0.UPF
Ge 72.64 Ge.pbe-dn-rrkjus_psl.1.0.0.UPF
Li 6.941 Li.pbe-sl-rrkjus_psl.1.0.0.UPF
Mg 24.30 Mg.pbe-spnl-rrkjus_psl.1.0.0.UPF
O 15.99 O.pbe-n-rrkjus_psl.1.0.0.UPF

CELL_PARAMETERS {angstrom}
6.76484000 0.00000000 0.00000000
0.00000000 9.56693000 0.00000000
0.00000000 0.00000000 27.17520000

ATOMIC_POSITIONS {angstrom}
Li 0.00000000 0.00000000 -3.5876699000000016 0 0 0
Li 3.38242000 2.39173250 -1.1959805500000016 0 0 0
Li 3.38242000 7.17519750 -1.1959805500000016 0 0 0
Li 0.00000000 4.78346500 -3.5876699000000016 0 0 0
Li 0.00081178 4.76777523 1.34870518
Li 3.38242000 7.17519750 4.76082329
Li 3.38262295 2.39364589 4.68636324
Li 0.00101473 9.54454338 1.34680291
Mg 1.69121000 0.00000000 -1.1959805500000016 0 0 0
Mg 5.07363000 4.78346500 -1.1959805500000016 0 0 0
Mg 5.07363000 0.00000000 -1.1959805500000016 0 0 0
Mg 1.69121000 4.78346500 -1.1959805500000016 0 0 0
Mg 5.07363000 7.17519750 -3.5876699000000016 0 0 0
Mg 1.69121000 2.39173250 -3.5876699000000016 0 0 0
Mg 1.69121000 7.17519750 -3.5876699000000016 0 0 0
Mg 5.07363000 2.39173250 -3.5876699000000016 0 0 0
Mg 1.79958274 4.81130477 3.69935998
Mg 4.96532491 9.53794220 3.69881647
Mg 4.96518961 4.81130477 3.69908822
Mg 1.79958274 9.53784653 3.69908822
Mg 5.03006443 2.38302659 1.30875763
Mg 1.73748151 7.16668293 1.28212594
Mg 1.73538441 2.38321793 1.30930114
Mg 5.02769674 7.16677860 1.28185418
Ge 0.00000000 7.17519750 -1.1959805500000016 0 0 0
Ge 3.38242000 0.00000000 -3.5876699000000016 0 0 0
Ge 0.00000000 2.39173250 -1.1959805500000016 0 0 0
Ge 3.38242000 4.78346500 -3.5876699000000016 0 0 0
Ge 0.00013530 2.39278486 3.51565562
Ge 3.38228470 4.77542878 1.08211646
Ge 6.76456941 7.17443215 3.48902393
Ge 3.38228470 9.56233787 1.08320347
C 3.38242000 2.39412423 6.76907057
O 3.38214941 2.39699431 7.90961371
