&CONTROL
calculation = 'relax'
prefix = 'scf'
pseudo_dir = '/vol0004/mdt0/data/hp150275/u10028/POT_KKJUS'
outdir = './data'
tprnfor = .true.
nstep = 50
disk_io = 'non'
/
&SYSTEM
ibrav = 0
ecutwfc = 50.0
ecutrho = 400
occupations = 'smearing'
smearing = 'mp'
degauss = 0.01
assume_isolated = 'esm'
esm_bc = 'bc1'
input_dft = 'BEEF-VDW'
nosym = .true.
nspin = 1
ntyp = 4
nat = 33
/
&ELECTRONS
electron_maxstep = 200
mixing_beta = 0.1
conv_thr = 1e-06
/
&IONS
ion_dynamics = 'bfgs'
upscale = 1.0
/
&CELL
/

K_POINTS {automatic}
9 6 2 0  0  0

ATOMIC_SPECIES
Al 26.98 Al.pbe-nl-rrkjus_psl.1.0.0.UPF
Au 196.9 Au.pbe-n-rrkjus_psl.1.0.0.UPF
C 12.01 C.pbe-n-rrkjus_psl.1.0.0.UPF
Sc 44.95 Sc.pbe-spn-rrkjus_psl.1.0.0.UPF

CELL_PARAMETERS {angstrom}
6.63475000 0.00000000 0.00000000
0.00000000 9.38295000 0.00000000
0.00000000 0.00000000 27.03720000

ATOMIC_POSITIONS {angstrom}
Sc 0.00000000 0.00000000 -3.518621209999999 0 0 0
Sc 3.31737500 2.34573750 -1.17287374 0 0 0
Sc 3.31737500 7.03721250 -1.17287374 0 0 0
Sc 0.00000000 4.69147500 -3.518621209999999 0 0 0
Sc 0.00544050 4.69616647 1.23316669
Sc 3.06479007 7.03721250 3.49077289
Sc 3.28526281 2.34573750 3.46914313
Sc 0.00537415 9.37825852 1.23316669
Al 0.00000000 7.03721250 -1.17287374 0 0 0
Al 3.31737500 0.00000000 -3.518621209999999 0 0 0
Al 0.00000000 2.34573750 -1.17287374 0 0 0
Al 3.31737500 4.69147500 -3.518621209999999 0 0 0
Al 6.02342413 2.34564367 3.71491128
Al 3.31219990 4.69973200 1.13907724
Al 0.00955404 7.03730633 3.42615398
Al 3.31226624 9.37469300 1.13907724
Au 1.65868750 0.00000000 -1.17287374 0 0 0
Au 4.97606250 4.69147500 -1.17287374 0 0 0
Au 4.97606250 0.00000000 -1.17287374 0 0 0
Au 1.65868750 4.69147500 -1.17287374 0 0 0
Au 4.97606250 7.03721250 -3.518621209999999 0 0 0
Au 1.65868750 2.34573750 -3.518621209999999 0 0 0
Au 1.65868750 7.03721250 -3.518621209999999 0 0 0
Au 4.97606250 2.34573750 -3.518621209999999 0 0 0
Au 1.40358136 4.74589611 3.74978927
Au 4.82492290 9.30948150 3.50023591
Au 4.82505559 4.76484967 3.49996554
Au 1.40378041 9.32843506 3.74951890
Au 4.99364459 2.34573750 1.09554734
Au 1.63566492 7.03721250 1.05201745
Au 1.64336123 2.34583133 1.13015496
Au 4.92384702 7.03721250 1.22694814
C 1.26882959 2.34573750 3.68219627
