&CONTROL
calculation = 'relax'
prefix = 'scf'
pseudo_dir = '/vol0004/mdt0/data/hp150275/u10028/POT_HYBRID_KKJUS_GBRV'
outdir = './data'
tprnfor = .true.
nstep = 50
disk_io = 'non'
/
&SYSTEM
ibrav = 0
ecutwfc = 50.0
ecutrho = 400
occupations = 'smearing'
smearing = 'mp'
degauss = 0.01
assume_isolated = 'esm'
esm_bc = 'bc1'
input_dft = 'BEEF-VDW'
nosym = .true.
nspin = 2
ntyp = 5
nat = 34
starting_magnetization(1) = 0.0
starting_magnetization(2) = 0.1
starting_magnetization(3) = 0.0
starting_magnetization(4) = 0.0
starting_magnetization(5) = 0.0
/
&ELECTRONS
electron_maxstep = 300
mixing_beta = 0.1
conv_thr = 1e-06
/
&IONS
ion_dynamics = 'bfgs'
upscale = 1.0
/
&CELL
/

K_POINTS {automatic}
9 6 2 0  0  0

ATOMIC_SPECIES
C 12.01 C.pbe-n-rrkjus_psl.1.0.0.UPF
Fe 55.84 fe_pbe_v1.5.uspp.F.UPF
O 15.99 O.pbe-n-rrkjus_psl.1.0.0.UPF
Sn 118.7 Sn.pbe-dn-rrkjus_psl.1.0.0.UPF
V 50.94 V.pbe-spnl-rrkjus_psl.1.0.0.UPF

CELL_PARAMETERS {angstrom}
6.09904000 0.00000000 0.00000000
0.00000000 8.62534000 0.00000000
0.00000000 0.00000000 26.46900000

ATOMIC_POSITIONS {angstrom}
V 0.00000000 0.00000000 -3.2345118 0 0 0
V 3.04952000 2.15633500 -1.0780823700000006 0 0 0
V 3.04952000 6.46900500 -1.0780823700000006 0 0 0
V 0.00000000 4.31267000 -3.2345118 0 0 0
V 6.06445844 4.31258375 1.13366727
V 3.04079837 6.49160339 3.10296087
V 3.04098134 2.13373661 3.10296087
V 6.08440230 0.00000000 1.02037995
Fe 1.52476000 0.00000000 -1.0780823700000006 0 0 0
Fe 4.57428000 4.31267000 -1.0780823700000006 0 0 0
Fe 4.57428000 0.00000000 -1.0780823700000006 0 0 0
Fe 1.52476000 4.31267000 -1.0780823700000006 0 0 0
Fe 4.57428000 6.46900500 -3.2345118 0 0 0
Fe 1.52476000 2.15633500 -3.2345118 0 0 0
Fe 1.52476000 6.46900500 -3.2345118 0 0 0
Fe 4.57428000 2.15633500 -3.2345118 0 0 0
Fe 1.46663615 4.31275625 3.16992744
Fe 4.64130845 8.62525375 3.04208217
Fe 4.48431916 4.31275625 3.28321476
Fe 1.52274732 0.00000000 3.23609994
Fe 4.61636338 2.12649132 1.25039556
Fe 1.39314272 6.43735000 1.27077669
Fe 1.39338668 2.18790374 1.27077669
Fe 4.61666833 6.49893493 1.25039556
Sn 0.00000000 6.46900500 -1.0780823700000006 0 0 0
Sn 3.04952000 0.00000000 -3.2345118 0 0 0
Sn 0.00000000 2.15633500 -1.0780823700000006 0 0 0
Sn 3.04952000 4.31267000 -3.2345118 0 0 0
Sn 6.07208224 2.14227570 3.70354248
Sn 3.04762930 4.31267000 1.03679073
Sn 6.07208224 6.48297805 3.70354248
Sn 2.97706340 0.00000000 1.02355623
C 1.92284434 8.62525375 4.95473211
O 2.07495440 0.00000000 6.11804466
