&CONTROL
calculation = 'relax'
prefix = 'scf'
pseudo_dir = '/vol0403/data/hp230205/u10028/POT_HYBRID_KKJUS_GBRV'
outdir = './data'
tprnfor = .true.
nstep = 50
disk_io = 'non'
/
&SYSTEM
ibrav = 0
ecutwfc = 50.0
ecutrho = 400
occupations = 'smearing'
smearing = 'mp'
degauss = 0.01
assume_isolated = 'esm'
esm_bc = 'bc1'
input_dft = 'BEEF-VDW'
nosym = .true.
nspin = 1
ntyp = 5
nat = 33
/
&ELECTRONS
electron_maxstep = 200
mixing_beta = 0.1
conv_thr = 1e-06
/
&IONS
ion_dynamics = 'bfgs'
upscale = 1.0
/
&CELL
/

K_POINTS {automatic}
6 6 1 0 0 0

ATOMIC_SPECIES
C 12.01 C.pbe-n-rrkjus_psl.1.0.0.UPF
Hf 178.4 Hf.pbe-spn-rrkjus_psl.1.0.0.UPF
In 114.8 In.pbe-dn-rrkjus_psl.1.0.0.UPF
Li 6.941 Li.pbe-sl-rrkjus_psl.1.0.0.UPF
Pd 106.4 Pd.pbe-n-rrkjus_psl.1.0.0.UPF


CELL_PARAMETERS {angstrom}
6.51419000 0.00000000 0.00000000
0.00000000 9.21246000 0.00000000
0.00000000 0.00000000 26.90930000

ATOMIC_POSITIONS {angstrom}
Li 4.88564250 0.00000000 -1.1514489500000025 0 0 0
Li 4.88564250 4.60623000 -1.1514489500000025 0 0 0
Li 1.62854750 2.30311500 -3.4546159300000028 0 0 0
Li 1.62854750 6.90934500 -3.4546159300000028 0 0 0
Li 5.30294151 4.60623000 4.85981958
Li 5.01618687 0.00000000 4.72850220
Li 1.55682627 6.89755305 1.20607483
Li 1.55682627 2.31490695 1.20607483
Hf 0.00000000 0.00000000 -3.4546159300000028 0 0 0
Hf 0.00000000 4.60623000 -3.4546159300000028 0 0 0
Hf 3.25709500 6.90934500 -1.1514489500000025 0 0 0
Hf 3.25709500 2.30311500 -1.1514489500000025 0 0 0
Hf 6.44670299 4.60623000 1.29971919
Hf 6.33348637 0.00000000 1.40789458
Hf 3.47186784 2.38611926 3.38142264
Hf 3.47180270 6.82634074 3.38142264
In 0.00000000 2.30311500 -1.1514489500000025 0 0 0
In 0.00000000 6.90934500 -1.1514489500000025 0 0 0
In 3.25709500 4.60623000 -3.4546159300000028 0 0 0
In 3.25709500 0.00000000 -3.4546159300000028 0 0 0
In 0.01576434 6.87866751 3.75277098
In 0.01576434 2.33379249 3.75277098
In 3.22589203 0.00000000 1.15952174
In 3.25663901 4.60623000 1.11861960
Pd 1.62854750 0.00000000 -1.1514489500000025 0 0 0
Pd 1.62854750 4.60623000 -1.1514489500000025 0 0 0
Pd 4.88564250 2.30311500 -3.4546159300000028 0 0 0
Pd 4.88564250 6.90934500 -3.4546159300000028 0 0 0
Pd 1.75831016 4.60623000 3.40025915
Pd 2.22687585 0.00000000 3.75384735
Pd 4.87782547 6.88447136 1.11942688
Pd 4.87782547 2.32798864 1.11942688
C 0.20487128 0.00000000 3.43685580
