&CONTROL
calculation = 'relax'
prefix = 'scf'
pseudo_dir = '/vol0004/mdt0/data/hp150275/u10028/POT_KKJUS'
outdir = './data'
tprnfor = .true.
nstep = 50
disk_io = 'non'
/
&SYSTEM
ibrav = 0
ecutwfc = 50.0
ecutrho = 400
occupations = 'smearing'
smearing = 'mp'
degauss = 0.01
assume_isolated = 'esm'
esm_bc = 'bc1'
input_dft = 'BEEF-VDW'
nosym = .true.
nspin = 1
ntyp = 4
nat = 17
/
&ELECTRONS
electron_maxstep = 200
mixing_beta = 0.1
conv_thr = 1e-06
/
&IONS
ion_dynamics = 'bfgs'
upscale = 1.0
/
&CELL
/

K_POINTS {automatic}
10 10 2 0  0  0

ATOMIC_SPECIES
Au 196.9 Au.pbe-n-rrkjus_psl.1.0.0.UPF
C 12.01 C.pbe-n-rrkjus_psl.1.0.0.UPF
Ge 72.64 Ge.pbe-dn-rrkjus_psl.1.0.0.UPF
Li 6.941 Li.pbe-sl-rrkjus_psl.1.0.0.UPF

CELL_PARAMETERS {angstrom}
6.30953000 0.00000000 0.00000000
0.00000000 6.30953000 0.00000000
0.00000000 0.00000000 24.73210000

ATOMIC_POSITIONS {angstrom}
Li 0.00000000 0.00000000 -0.7887066699999998 0 0 0
Li 3.25016509 0.09811319 2.53405097
Li 6.21147990 3.05936491 2.53380364
Li 3.15476500 3.15476500 -0.7887066699999998 0 0 0
Li 1.57738250 1.57738250 -2.3661200099999995 0 0 0
Li 1.57107297 4.73845703 0.98260633
Li 4.73214750 4.73214750 -2.3661200099999995 0 0 0
Li 4.74318918 1.56627773 0.66331492
Ge 6.08276549 0.22676451 2.62061332
Ge 3.39572595 2.91386714 2.62555974
Ge 3.15476500 0.00000000 -0.7887066699999998 0 0 0
Ge 0.00000000 3.15476500 -0.7887066699999998 0 0 0
Au 1.57782417 1.57851822 0.77485669
Au 1.57738250 4.73214750 -2.3661200099999995 0 0 0
Au 4.73101178 4.73170583 0.77485669
Au 4.73214750 1.57738250 -2.3661200099999995 0 0 0
C 4.73978203 1.56974797 2.75985504
