&CONTROL
calculation = 'relax'
prefix = 'scf'
pseudo_dir = '/vol0004/mdt0/data/hp150275/u10028/POT_KKJUS'
outdir = './data'
tprnfor = .true.
nstep = 50
disk_io = 'non'
/
&SYSTEM
ibrav = 0
ecutwfc = 50.0
ecutrho = 400
occupations = 'smearing'
smearing = 'mp'
degauss = 0.01
assume_isolated = 'esm'
esm_bc = 'bc1'
input_dft = 'BEEF-VDW'
nosym = .true.
nspin = 1
ntyp = 4
nat = 33
/
&ELECTRONS
electron_maxstep = 200
mixing_beta = 0.1
conv_thr = 1e-06
/
&IONS
ion_dynamics = 'bfgs'
upscale = 1.0
/
&CELL
/

K_POINTS {automatic}
8 6 1 0 0 0

ATOMIC_SPECIES
C 12.01 C.pbe-n-rrkjus_psl.1.0.0.UPF
Ni 58.69 Ni.pbe-spn-rrkjus_psl.1.0.0.UPF
Sc 44.95 Sc.pbe-spn-rrkjus_psl.1.0.0.UPF
Sn 118.7 Sn.pbe-dn-rrkjus_psl.1.0.0.UPF

CELL_PARAMETERS {angstrom}
6.31539000 0.00000000 0.00000000
0.00000000 8.93131000 0.00000000
0.00000000 0.00000000 26.69850000

ATOMIC_POSITIONS {angstrom}
Sc 0.00000000 0.00000000 -3.349326819999998 0 0 0
Sc 3.15769500 2.23282750 -1.1165312699999994 0 0 0
Sc 3.15769500 6.69848250 -1.1165312699999994 0 0 0
Sc 0.00000000 4.46565500 -3.349326819999998 0 0 0
Sc 0.00000000 4.46538706 1.09730835
Sc 3.15775815 6.66713360 3.39231141
Sc 3.15763185 2.26444434 3.39177744
Sc 6.31444269 0.00062519 1.18114164
Ni 1.57884750 0.00000000 -1.1165312699999994 0 0 0
Ni 4.73654250 4.46565500 -1.1165312699999994 0 0 0
Ni 4.73654250 0.00000000 -1.1165312699999994 0 0 0
Ni 1.57884750 4.46565500 -1.1165312699999994 0 0 0
Ni 4.73654250 6.69848250 -3.349326819999998 0 0 0
Ni 1.57884750 2.23282750 -3.349326819999998 0 0 0
Ni 1.57884750 6.69848250 -3.349326819999998 0 0 0
Ni 4.73654250 2.23282750 -3.349326819999998 0 0 0
Ni 1.63833847 4.46556569 3.18352914
Ni 4.52655578 0.00026794 3.34318617
Ni 4.67698837 4.46565500 3.18326215
Ni 1.78902368 0.00000000 3.34291918
Ni 4.73389004 2.25283363 1.17526797
Ni 1.58200520 6.67802980 1.17500099
Ni 1.58105789 2.25292295 1.17553496
Ni 4.73344796 6.67811911 1.17446702
Sn 0.00000000 6.69848250 -1.1165312699999994 0 0 0
Sn 3.15769500 0.00000000 -3.349326819999998 0 0 0
Sn 0.00000000 2.23282750 -1.1165312699999994 0 0 0
Sn 3.15769500 4.46565500 -3.349326819999998 0 0 0
Sn 0.00000000 2.35724065 3.51058576
Sn 3.15775815 4.46574431 1.05726060
Sn 0.00006315 6.57424798 3.50978481
Sn 3.15763185 8.93104206 1.07915337
C 0.00012631 0.00000000 3.58427363
