&CONTROL
calculation = 'relax'
prefix = 'scf'
pseudo_dir = '/vol0004/mdt0/data/hp150275/u10028/POT_KKJUS'
outdir = './data'
tprnfor = .true.
nstep = 50
disk_io = 'non'
/
&SYSTEM
ibrav = 0
ecutwfc = 50.0
ecutrho = 400
occupations = 'smearing'
smearing = 'mp'
degauss = 0.01
assume_isolated = 'esm'
esm_bc = 'bc1'
input_dft = 'BEEF-VDW'
nosym = .true.
nspin = 1
ntyp = 4
nat = 17
/
&ELECTRONS
electron_maxstep = 200
mixing_beta = 0.1
conv_thr = 1e-06
/
&IONS
ion_dynamics = 'bfgs'
upscale = 1.0
/
&CELL
/

K_POINTS {automatic}
8 8 1 0 0 0

ATOMIC_SPECIES
Au 196.9 Au.pbe-n-rrkjus_psl.1.0.0.UPF
C 12.01 C.pbe-n-rrkjus_psl.1.0.0.UPF
Ga 69.72 Ga.pbe-dnl-rrkjus_psl.1.0.0.UPF
Li 6.941 Li.pbe-sl-rrkjus_psl.1.0.0.UPF

CELL_PARAMETERS {angstrom}
6.29417000 0.00000000 0.00000000
0.00000000 6.29417000 0.00000000
0.00000000 0.00000000 24.72060000

ATOMIC_POSITIONS {angstrom}
Li 0.00000000 6.29410706 0.77177713
Li 3.14708500 0.00000000 -2.3603228900000026 0 0 0
Li 0.00000000 3.14708500 -2.3603228900000026 0 0 0
Li 3.14708500 3.14708500 1.02986020
Li 1.53495924 1.53558865 3.05472454
Li 1.57354250 4.72062750 -0.7868567000000013 0 0 0
Li 4.75927370 4.75851840 3.05497175
Li 4.72062750 1.57354250 -0.7868567000000013 0 0 0
Ga 0.00000000 0.00000000 -2.3603228900000026 0 0 0
Ga 3.14708500 3.14708500 -2.3603228900000026 0 0 0
Ga 3.14721088 0.00012588 0.94185486
Ga 6.29410706 3.14714794 0.94160765
Au 1.57354250 1.57354250 -0.7868567000000013 0 0 0
Au 1.37949324 4.91379558 2.36773907
Au 4.72062750 4.72062750 -0.7868567000000013 0 0 0
Au 4.91480264 1.38050031 2.36773907
C 0.00006294 0.00000000 3.09798559
