&CONTROL
calculation = 'relax'
prefix = 'scf'
pseudo_dir = '/vol0004/mdt0/data/hp150275/u10028/POT_KKJUS'
outdir = './data'
tprnfor = .true.
nstep = 50
disk_io = 'non'
/
&SYSTEM
ibrav = 0
ecutwfc = 50.0
ecutrho = 400
occupations = 'smearing'
smearing = 'mp'
degauss = 0.01
assume_isolated = 'esm'
esm_bc = 'bc1'
input_dft = 'BEEF-VDW'
nosym = .true.
nspin = 1
ntyp = 2
nat = 33
/
&ELECTRONS
electron_maxstep = 200
mixing_beta = 0.1
conv_thr = 1e-06
/
&IONS
ion_dynamics = 'bfgs'
upscale = 1.0
/
&CELL
/

K_POINTS {automatic}
7 7 2 0  0  0

ATOMIC_SPECIES
C 12.01 C.pbe-n-rrkjus_psl.1.0.0.UPF
Sb 121.7 Sb.pbe-n-rrkjus_psl.1.0.0.UPF

CELL_PARAMETERS {angstrom}
9.64260000 0.00000000 0.00000000
0.00000000 9.64260000 0.00000000
0.00000000 0.00000000 27.23200000

ATOMIC_POSITIONS {angstrom}
Sb 0.00000000 0.00000000 -3.6158649599999997 0 0 0
Sb 2.41065000 2.41065000 -3.6158649599999997 0 0 0
Sb 2.41065000 0.00000000 -1.205288320000001 0 0 0
Sb 0.00000000 2.41065000 -1.205288320000001 0 0 0
Sb 0.00009643 0.00000000 1.42151040
Sb 2.17141709 2.17141709 2.22267584
Sb 2.25810407 9.64240715 4.29966048
Sb 0.00000000 2.25829692 4.29993280
Sb 0.00000000 4.82130000 -3.6158649599999997 0 0 0
Sb 2.41065000 7.23195000 -3.6158649599999997 0 0 0
Sb 2.41065000 4.82130000 -1.205288320000001 0 0 0
Sb 0.00000000 7.23195000 -1.205288320000001 0 0 0
Sb 0.00000000 4.82120357 0.75133088
Sb 2.17141709 7.47137576 2.22267584
Sb 2.63850464 4.82149285 3.81956032
Sb 0.00019285 7.38439951 4.29966048
Sb 4.82130000 0.00000000 -3.6158649599999997 0 0 0
Sb 7.23195000 2.41065000 -3.6158649599999997 0 0 0
Sb 7.23195000 0.00000000 -1.205288320000001 0 0 0
Sb 4.82130000 2.41065000 -1.205288320000001 0 0 0
Sb 4.82120357 0.00000000 0.75133088
Sb 7.47118291 2.17151352 2.22267584
Sb 7.38420665 9.64250357 4.29993280
Sb 4.82139643 2.63850464 3.81956032
Sb 4.82130000 4.82130000 -3.6158649599999997 0 0 0
Sb 7.23195000 7.23195000 -3.6158649599999997 0 0 0
Sb 7.23195000 4.82130000 -1.205288320000001 0 0 0
Sb 4.82130000 7.23195000 -1.205288320000001 0 0 0
Sb 4.82130000 4.82130000 1.73658464
Sb 7.47108648 7.47108648 2.22240352
Sb 7.00409536 4.82130000 3.81956032
Sb 4.82120357 7.00409536 3.81956032
C 0.00019285 9.64250357 3.72343136
