&CONTROL
calculation = 'relax'
prefix = 'scf'
pseudo_dir = '/vol0004/mdt0/data/hp150275/u10028/POT_HYBRID_KKJUS_GBRV'
outdir = './data'
tprnfor = .true.
nstep = 50
disk_io = 'non'
/
&SYSTEM
ibrav = 0
ecutwfc = 50.0
ecutrho = 400
occupations = 'smearing'
smearing = 'mp'
degauss = 0.01
assume_isolated = 'esm'
esm_bc = 'bc1'
input_dft = 'BEEF-VDW'
nosym = .true.
nspin = 2
ntyp = 3
nat = 32
starting_magnetization(1) = 0.1
starting_magnetization(2) = 0.0
starting_magnetization(3) = 0.0
/
&ELECTRONS
electron_maxstep = 300
mixing_beta = 0.1
conv_thr = 1e-06
/
&IONS
ion_dynamics = 'bfgs'
upscale = 1.0
/
&CELL
/

K_POINTS {automatic}
8 6 1 0 0 0

ATOMIC_SPECIES
Co 58.93 co_pbe_v1.2.uspp.F.UPF
Sc 44.95 Sc.pbe-spn-rrkjus_psl.1.0.0.UPF
Sn 118.7 Sn.pbe-dn-rrkjus_psl.1.0.0.UPF

CELL_PARAMETERS {angstrom}
6.22913000 0.00000000 0.00000000
0.00000000 8.80931000 0.00000000
0.00000000 0.00000000 26.60700000

ATOMIC_POSITIONS {angstrom}
Sc 0.00000000 0.00000000 -3.3035251199999998 0 0 0
Sc 3.11456500 2.20232750 -1.1012637299999994 0 0 0
Sc 3.11456500 6.60698250 -1.1012637299999994 0 0 0
Sc 0.00000000 4.40465500 -3.3035251199999998 0 0 0
Sc 0.00006229 4.40465500 1.13292606
Sc 3.11444042 6.60707059 3.36418908
Sc 3.11450271 2.20223941 3.36392301
Sc 0.00006229 0.00000000 1.13319213
Co 1.55728250 0.00000000 -1.1012637299999994 0 0 0
Co 4.67184750 4.40465500 -1.1012637299999994 0 0 0
Co 4.67184750 0.00000000 -1.1012637299999994 0 0 0
Co 1.55728250 4.40465500 -1.1012637299999994 0 0 0
Co 4.67184750 6.60698250 -3.3035251199999998 0 0 0
Co 1.55728250 2.20232750 -3.3035251199999998 0 0 0
Co 1.55728250 6.60698250 -3.3035251199999998 0 0 0
Co 4.67184750 2.20232750 -3.3035251199999998 0 0 0
Co 1.44254193 4.40465500 3.13377246
Co 4.78658807 0.00000000 3.13377246
Co 4.78652578 4.40465500 3.13377246
Co 1.44247963 0.00000000 3.13377246
Co 4.64817681 2.20250369 1.14090816
Co 1.58101549 6.60680631 1.14090816
Co 1.58101549 2.20250369 1.14064209
Co 4.64811451 6.60680631 1.14090816
Sn 0.00000000 6.60698250 -1.1012637299999994 0 0 0
Sn 3.11456500 0.00000000 -3.3035251199999998 0 0 0
Sn 0.00000000 2.20232750 -1.1012637299999994 0 0 0
Sn 3.11456500 4.40465500 -3.3035251199999998 0 0 0
Sn 6.22906771 2.20241559 3.46689210
Sn 3.11462729 4.40465500 1.14356886
Sn 6.22906771 6.60689441 3.46689210
Sn 3.11462729 0.00000000 1.14356886
