&CONTROL
calculation = 'relax'
prefix = 'scf'
pseudo_dir = '/vol0004/mdt0/data/hp150275/u10028/POT_HYBRID_KKJUS_GBRV'
outdir = './data'
tprnfor = .true.
nstep = 50
disk_io = 'non'
/
&SYSTEM
ibrav = 0
ecutwfc = 50.0
ecutrho = 400
occupations = 'smearing'
smearing = 'mp'
degauss = 0.01
assume_isolated = 'esm'
esm_bc = 'bc1'
input_dft = 'BEEF-VDW'
nosym = .true.
nspin = 2
ntyp = 3
nat = 17
starting_magnetization(1) = 0.0
starting_magnetization(2) = 0.001
starting_magnetization(3) = 0.0
/
&ELECTRONS
electron_maxstep = 400
mixing_beta = 0.1
conv_thr = 1e-06
/
&IONS
ion_dynamics = 'bfgs'
upscale = 1.0
/
&CELL
/

K_POINTS {automatic}
8 11 2 0  0  0

ATOMIC_SPECIES
C 12.01 C.pbe-n-rrkjus_psl.1.0.0.UPF
Ni 58.69 ni_pbe_v1.4.uspp.F.UPF
Sn 118.7 Sn.pbe-dn-rrkjus_psl.1.0.0.UPF

CELL_PARAMETERS {angstrom}
7.51544000 0.00000000 0.00000000
0.00000000 5.31422000 0.00000000
0.00000000 0.00000000 23.98570000

ATOMIC_POSITIONS {angstrom}
Ni 0.06891658 2.64403702 1.94260184
Ni 1.87886000 4.04449342 0.71429415
Ni 1.87878485 1.25739759 0.70086215
Ni 0.00000000 0.00000000 -0.664164030000002 0 0 0
Ni 1.87886000 1.32855500 -1.9927319600000004 0 0 0
Ni 1.87886000 3.98566500 -1.9927319600000004 0 0 0
Ni 3.68872826 2.64403702 1.94260184
Ni 5.63673031 3.98274218 0.64065805
Ni 5.63665515 1.31627915 0.63010434
Ni 3.75772000 0.00000000 -0.664164030000002 0 0 0
Ni 5.63658000 1.32855500 -1.9927319600000004 0 0 0
Ni 5.63658000 3.98566500 -1.9927319600000004 0 0 0
Sn 7.35708968 5.30901206 2.15247672
Sn 0.00000000 2.65711000 -0.664164030000002 0 0 0
Sn 3.91599517 5.30901206 2.15223686
Sn 3.75772000 2.65711000 -0.664164030000002 0 0 0
C 1.87878485 2.64563128 1.95123670
