&CONTROL
calculation = 'relax'
prefix = 'scf'
pseudo_dir = '/vol0004/mdt0/data/hp150275/u10028/POT_KKJUS'
outdir = './data'
tprnfor = .true.
nstep = 50
disk_io = 'non'
/
&SYSTEM
ibrav = 0
ecutwfc = 50.0
ecutrho = 400
occupations = 'smearing'
smearing = 'mp'
degauss = 0.01
assume_isolated = 'esm'
esm_bc = 'bc1'
input_dft = 'BEEF-VDW'
nosym = .true.
nspin = 1
ntyp = 5
nat = 18
/
&ELECTRONS
electron_maxstep = 200
mixing_beta = 0.1
conv_thr = 1e-06
/
&IONS
ion_dynamics = 'bfgs'
upscale = 1.0
/
&CELL
/

K_POINTS {automatic}
9 9 2 0  0  0

ATOMIC_SPECIES
C 12.01 C.pbe-n-rrkjus_psl.1.0.0.UPF
Ge 72.64 Ge.pbe-dn-rrkjus_psl.1.0.0.UPF
Li 6.941 Li.pbe-sl-rrkjus_psl.1.0.0.UPF
O 15.99 O.pbe-n-rrkjus_psl.1.0.0.UPF
Sn 118.7 Sn.pbe-dn-rrkjus_psl.1.0.0.UPF

CELL_PARAMETERS {angstrom}
6.92564000 0.00000000 0.00000000
0.00000000 6.92564000 0.00000000
0.00000000 0.00000000 25.19420000

ATOMIC_POSITIONS {angstrom}
Li 0.00000000 0.00000000 -0.8656727099999983 0 0 0
Li 3.46282000 0.00000000 2.33852564
Li 0.00000000 3.46282000 2.42897282
Li 3.46282000 3.46282000 -0.8656727099999983 0 0 0
Li 1.71880534 1.74401466 0.74096142
Li 1.73141000 5.19423000 -2.5970181399999994 0 0 0
Li 5.20683466 5.18162534 0.74096142
Li 5.19423000 1.73141000 -2.5970181399999994 0 0 0
Sn 0.00000000 0.00000000 2.43577526
Sn 3.46282000 3.46282000 2.43577526
Sn 3.46282000 0.00000000 -0.8656727099999983 0 0 0
Sn 0.00000000 3.46282000 -0.8656727099999983 0 0 0
Ge 1.73141000 1.73141000 -2.5970181399999994 0 0 0
Ge 1.72302998 5.18578072 0.73819006
Ge 5.19423000 5.19423000 -2.5970181399999994 0 0 0
Ge 5.20261002 1.73985928 0.73819006
C 0.00000000 3.46282000 4.55334777
O 0.00000000 3.46282000 5.69187366
