&CONTROL
calculation = 'relax'
prefix = 'scf'
pseudo_dir = '/vol0004/mdt0/data/hp150275/u10028/POT_KKJUS'
outdir = './data'
tprnfor = .true.
nstep = 50
disk_io = 'non'
/
&SYSTEM
ibrav = 0
ecutwfc = 50.0
ecutrho = 400
occupations = 'smearing'
smearing = 'mp'
degauss = 0.01
assume_isolated = 'esm'
esm_bc = 'bc1'
input_dft = 'BEEF-VDW'
nosym = .true.
nspin = 1
ntyp = 4
nat = 33
/
&ELECTRONS
electron_maxstep = 200
mixing_beta = 0.1
conv_thr = 1e-06
/
&IONS
ion_dynamics = 'bfgs'
upscale = 1.0
/
&CELL
/

K_POINTS {automatic}
8 6 1 0 0 0

ATOMIC_SPECIES
C 12.01 C.pbe-n-rrkjus_psl.1.0.0.UPF
Ga 69.72 Ga.pbe-dnl-rrkjus_psl.1.0.0.UPF
Ni 58.69 Ni.pbe-spn-rrkjus_psl.1.0.0.UPF
Sc 44.95 Sc.pbe-spn-rrkjus_psl.1.0.0.UPF

CELL_PARAMETERS {angstrom}
6.08368000 0.00000000 0.00000000
0.00000000 8.60362000 0.00000000
0.00000000 0.00000000 26.45270000

ATOMIC_POSITIONS {angstrom}
Sc 0.00000000 0.00000000 -3.226435819999999 0 0 0
Sc 3.04184000 2.15090500 -1.075566779999999 0 0 0
Sc 3.04184000 6.45271500 -1.075566779999999 0 0 0
Sc 0.00000000 4.30181000 -3.226435819999999 0 0 0
Sc 6.08361916 4.30189604 0.98589213
Sc 3.04177916 6.37717522 3.41239830
Sc 3.04190084 2.22635875 3.41266283
Sc 0.00006084 8.60344793 1.07609584
Ga 0.00000000 6.45271500 -1.075566779999999 0 0 0
Ga 3.04184000 0.00000000 -3.226435819999999 0 0 0
Ga 0.00000000 2.15090500 -1.075566779999999 0 0 0
Ga 3.04184000 4.30181000 -3.226435819999999 0 0 0
Ga 0.00012167 2.15124914 3.19257636
Ga 3.04177916 4.30146586 1.14963434
Ga 6.08355833 6.45245689 3.19257636
Ga 3.04202251 0.00034414 1.18772623
Ni 1.52092000 0.00000000 -1.075566779999999 0 0 0
Ni 4.56276000 4.30181000 -1.075566779999999 0 0 0
Ni 4.56276000 0.00000000 -1.075566779999999 0 0 0
Ni 1.52092000 4.30181000 -1.075566779999999 0 0 0
Ni 4.56276000 6.45271500 -3.226435819999999 0 0 0
Ni 1.52092000 2.15090500 -3.226435819999999 0 0 0
Ni 1.52092000 6.45271500 -3.226435819999999 0 0 0
Ni 4.56276000 2.15090500 -3.226435819999999 0 0 0
Ni 1.32709396 4.30181000 3.06057739
Ni 4.81663197 0.00008604 3.30738108
Ni 4.75652521 4.30181000 3.06031286
Ni 1.26741305 0.00000000 3.30738108
Ni 4.46894965 2.15658339 1.14064042
Ni 1.61515620 6.44686454 1.14064042
Ni 1.61485202 2.15666943 1.14064042
Ni 4.46852380 6.44677850 1.14037590
C 3.04202251 8.60353396 3.66316990
