&CONTROL
calculation = 'relax'
prefix = 'scf'
pseudo_dir = '/vol0403/data/hp230205/u10028/POT_HYBRID_KKJUS_GBRV'
outdir = './data'
tprnfor = .true.
nstep = 50
disk_io = 'non'
/
&SYSTEM
ibrav = 0
ecutwfc = 50.0
ecutrho = 400
occupations = 'smearing'
smearing = 'mp'
degauss = 0.01
assume_isolated = 'esm'
esm_bc = 'bc1'
input_dft = 'BEEF-VDW'
nosym = .true.
nspin = 1
ntyp = 6
nat = 34
/
&ELECTRONS
electron_maxstep = 200
mixing_beta = 0.1
conv_thr = 1e-06
/
&IONS
ion_dynamics = 'bfgs'
upscale = 1.0
/
&CELL
/

K_POINTS {automatic}
6 6 1 0 0 0

ATOMIC_SPECIES
C 12.01 C.pbe-n-rrkjus_psl.1.0.0.UPF
In 114.8 In.pbe-dn-rrkjus_psl.1.0.0.UPF
Li 6.941 Li.pbe-sl-rrkjus_psl.1.0.0.UPF
O 15.99 O.pbe-n-rrkjus_psl.1.0.0.UPF
Pd 106.4 Pd.pbe-n-rrkjus_psl.1.0.0.UPF
Ru 101.0 Ru.pbe-spn-rrkjus_psl.1.0.0.UPF


CELL_PARAMETERS {angstrom}
6.32045000 0.00000000 0.00000000
0.00000000 8.93846000 0.00000000
0.00000000 0.00000000 26.70380000

ATOMIC_POSITIONS {angstrom}
Li 0.00000000 2.23461500 -1.1172869900000002 0 0 0
Li 0.00000000 6.70384500 -1.1172869900000002 0 0 0
Li 3.16022500 4.46923000 -3.3518609800000014 0 0 0
Li 3.16022500 0.00000000 -3.3518609800000014 0 0 0
Li 6.31735298 6.89441297 3.56495730
Li 6.31735298 2.04413642 3.56495730
Li 3.20686992 8.93837062 0.94664971
Li 3.15384135 4.46931938 1.17843869
In 0.00000000 0.00000000 -3.3518609800000014 0 0 0
In 0.00000000 4.46923000 -3.3518609800000014 0 0 0
In 3.16022500 6.70384500 -1.1172869900000002 0 0 0
In 3.16022500 2.23461500 -1.1172869900000002 0 0 0
In 6.30268954 4.46949815 1.04144820
In 6.31248623 8.93819185 1.10794066
In 3.10384659 2.36922821 3.55000317
In 3.10397299 6.56932118 3.54973613
Pd 4.74033750 0.00000000 -1.1172869900000002 0 0 0
Pd 4.74033750 4.46923000 -1.1172869900000002 0 0 0
Pd 1.58011250 2.23461500 -3.3518609800000014 0 0 0
Pd 1.58011250 6.70384500 -3.3518609800000014 0 0 0
Pd 4.90770302 4.46923000 3.33877611
Pd 4.56033108 0.00000000 3.19110410
Pd 1.59471274 6.70250423 1.16829125
Pd 1.59458633 2.23604515 1.16829125
Ru 1.58011250 0.00000000 -1.1172869900000002 0 0 0
Ru 1.58011250 4.46923000 -1.1172869900000002 0 0 0
Ru 4.74033750 2.23461500 -3.3518609800000014 0 0 0
Ru 4.74033750 6.70384500 -3.3518609800000014 0 0 0
Ru 1.42431341 4.46923000 3.26453955
Ru 1.73237214 0.00000000 3.26988031
Ru 4.70690232 6.70849300 1.22730665
Ru 4.70709193 2.23005639 1.22703961
C 1.16662866 8.93837062 5.01070103
O 0.83215045 8.93828123 6.13813547
