&CONTROL
calculation = 'relax'
prefix = 'scf'
pseudo_dir = '/vol0403/data/hp230205/u10028/POT_HYBRID_KKJUS_GBRV'
outdir = './data'
tprnfor = .true.
nstep = 70
disk_io = 'non'
/
&SYSTEM
ibrav = 0
ecutwfc = 50.0
ecutrho = 400
occupations = 'smearing'
smearing = 'mp'
degauss = 0.01
assume_isolated = 'esm'
esm_bc = 'bc1'
input_dft = 'BEEF-VDW'
nosym = .true.
nspin = 1
ntyp = 5
nat = 33
/
&ELECTRONS
electron_maxstep = 200
mixing_beta = 0.1
conv_thr = 1e-06
/
&IONS
ion_dynamics = 'bfgs'
upscale = 1.0
/
&CELL
/

K_POINTS {automatic}
6 6 1 0 0 0

ATOMIC_SPECIES
C 12.01 C.pbe-n-rrkjus_psl.1.0.0.UPF
Ga 69.72 Ga.pbe-dnl-rrkjus_psl.1.0.0.UPF
Mg 24.30 Mg.pbe-spnl-rrkjus_psl.1.0.0.UPF
Pd 106.4 Pd.pbe-n-rrkjus_psl.1.0.0.UPF
Sc 44.95 Sc.pbe-spn-rrkjus_psl.1.0.0.UPF


CELL_PARAMETERS {angstrom}
6.56469000 0.00000000 0.00000000
-0.00000000 9.28388000 0.00000000
0.00000000 0.00000000 26.96290000

ATOMIC_POSITIONS {angstrom}
Mg 1.64117250 0.00000000 -1.1604832199999997 0 0 0
Mg 1.64117250 4.64194000 -1.1604832199999997 0 0 0
Mg 4.92351750 2.32097000 -3.481449650000002 0 0 0
Mg 4.92351750 6.96291000 -3.481449650000002 0 0 0
Mg 1.62699277 4.54557333 3.60224344
Mg 1.62705842 0.09645951 3.60224344
Mg 4.89765262 6.96291000 1.19176018
Mg 4.93086995 2.32097000 1.18313205
Sc 4.92351750 0.00000000 -1.1604832199999997 0 0 0
Sc 4.92351750 4.64194000 -1.1604832199999997 0 0 0
Sc 1.64117250 2.32097000 -3.481449650000002 0 0 0
Sc 1.64117250 6.96291000 -3.481449650000002 0 0 0
Sc 4.93428359 4.88861269 3.54481246
Sc 4.93434924 9.03720731 3.54481246
Sc 1.69821966 6.96291000 1.18259279
Sc 1.64064732 2.32097000 1.35111092
Ga 0.00000000 0.00000000 -3.481449650000002 0 0 0
Ga 0.00000000 4.64194000 -3.481449650000002 0 0 0
Ga 3.28234500 6.96291000 -1.1604832199999997 0 0 0
Ga 3.28234500 2.32097000 -1.1604832199999997 0 0 0
Ga 6.53711830 4.69198011 1.18043576
Ga 6.53718395 9.23383989 1.18043576
Ga 3.56278856 2.32097000 3.88616278
Ga 3.06065542 6.96291000 3.85623396
Pd 0.00000000 2.32097000 -1.1604832199999997 0 0 0
Pd 0.00000000 6.96291000 -1.1604832199999997 0 0 0
Pd 3.28234500 4.64194000 -3.481449650000002 0 0 0
Pd 3.28234500 0.00000000 -3.481449650000002 0 0 0
Pd 0.22214911 6.96300284 3.33638925
Pd 6.14113620 2.32097000 3.65616924
Pd 3.37123090 9.25918488 1.17935725
Pd 3.37129655 4.66654228 1.17935725
C 1.64222285 2.32097000 3.54319469
