&CONTROL
calculation = 'relax'
prefix = 'scf'
pseudo_dir = '/vol0004/mdt0/data/hp150275/u10028/POT_KKJUS'
outdir = './data'
tprnfor = .true.
nstep = 50
disk_io = 'non'
/
&SYSTEM
ibrav = 0
ecutwfc = 50.0
ecutrho = 400
occupations = 'smearing'
smearing = 'mp'
degauss = 0.01
assume_isolated = 'esm'
esm_bc = 'bc1'
input_dft = 'BEEF-VDW'
nosym = .true.
nspin = 1
ntyp = 3
nat = 33
/
&ELECTRONS
electron_maxstep = 200
mixing_beta = 0.1
conv_thr = 1e-06
/
&IONS
ion_dynamics = 'bfgs'
upscale = 1.0
/
&CELL
/

K_POINTS {automatic}
8 6 1 0 0 0

ATOMIC_SPECIES
C 12.01 C.pbe-n-rrkjus_psl.1.0.0.UPF
Os 190.2 Os.pbe-spn-rrkjus_psl.1.0.0.UPF
V 50.94 V.pbe-spnl-rrkjus_psl.1.0.0.UPF

CELL_PARAMETERS {angstrom}
6.04788000 0.00000000 0.00000000
0.00000000 8.55299000 0.00000000
0.00000000 0.00000000 26.41470000

ATOMIC_POSITIONS {angstrom}
V 0.00000000 0.00000000 -3.2072728700000006 0 0 0
V 0.00000000 2.13824750 -1.0690029099999983 0 0 0
V 0.00417304 8.54529231 1.13213404
V 5.74748180 2.13824750 3.31610144
V 0.00000000 4.27649500 -3.2072728700000006 0 0 0
V 0.00000000 6.41474250 -1.0690029099999983 0 0 0
V 0.00417304 4.28419269 1.13213404
V 0.01336581 6.41474250 3.36549693
V 3.02394000 0.00000000 -3.2072728700000006 0 0 0
V 3.02394000 2.13824750 -1.0690029099999983 0 0 0
V 3.01904122 8.54546337 1.13213404
V 3.32542682 2.13824750 3.31742217
V 3.02394000 4.27649500 -3.2072728700000006 0 0 0
V 3.02394000 6.41474250 -1.0690029099999983 0 0 0
V 3.01904122 4.28402163 1.13213404
V 3.00882030 6.41474250 3.36364790
Os 1.51197000 2.13824750 -3.2072728700000006 0 0 0
Os 1.51197000 0.00000000 -1.0690029099999983 0 0 0
Os 1.51172808 2.13816197 1.06002191
Os 1.51178856 4.18591884 3.13331171
Os 1.51197000 6.41474250 -3.2072728700000006 0 0 0
Os 1.51197000 4.27649500 -1.0690029099999983 0 0 0
Os 1.51136521 6.41482803 1.20715179
Os 1.51178856 0.09057616 3.13331171
Os 4.53591000 2.13824750 -3.2072728700000006 0 0 0
Os 4.53591000 0.00000000 -1.0690029099999983 0 0 0
Os 4.53560761 2.13824750 1.03889015
Os 4.53584952 4.38546009 3.10346310
Os 4.53591000 6.41474250 -3.2072728700000006 0 0 0
Os 4.53591000 4.27649500 -1.0690029099999983 0 0 0
Os 4.53566808 6.41482803 1.11179472
Os 4.53584952 8.44402491 3.10346310
C 1.51160713 2.13824750 3.86764037
