&CONTROL
calculation = 'relax'
prefix = 'scf'
pseudo_dir = '/vol0004/mdt0/data/hp150275/u10028/POT_KKJUS'
outdir = './data'
tprnfor = .true.
nstep = 50
disk_io = 'non'
/
&SYSTEM
ibrav = 0
ecutwfc = 50.0
ecutrho = 400
occupations = 'smearing'
smearing = 'mp'
degauss = 0.01
assume_isolated = 'esm'
esm_bc = 'bc1'
input_dft = 'BEEF-VDW'
nosym = .true.
nspin = 1
ntyp = 4
nat = 18
/
&ELECTRONS
electron_maxstep = 200
mixing_beta = 0.1
conv_thr = 1e-06
/
&IONS
ion_dynamics = 'bfgs'
upscale = 1.0
/
&CELL
/

K_POINTS {automatic}
9 9 3 0  0  0

ATOMIC_SPECIES
Bi 208.9 Bi.pbe-dn-rrkjus_psl.1.0.0.UPF
C 12.01 C.pbe-n-rrkjus_psl.1.0.0.UPF
K 39.09 K.pbe-spn-rrkjus_psl.1.0.0.UPF
O 15.99 O.pbe-n-rrkjus_psl.1.0.0.UPF

CELL_PARAMETERS {angstrom}
8.83903000 0.00000000 0.00000000
0.00000000 8.83903000 0.00000000
0.00000000 0.00000000 26.62930000

ATOMIC_POSITIONS {angstrom}
K 2.23530230 2.17996997 1.35729542
K 6.62927250 6.62927250 -3.3145489700000006 0 0 0
K 6.60293219 2.17820216 1.35516508
K 2.20975750 6.62927250 -3.3145489700000006 0 0 0
K 6.60187151 6.66003232 1.35436620
K 2.20975750 2.20975750 -3.3145489700000006 0 0 0
K 2.23600942 6.65826452 1.35756171
K 6.62927250 2.20975750 -3.3145489700000006 0 0 0
K 0.00000000 0.00000000 -1.1048496599999993 0 0 0
K 4.41880788 8.83796932 4.47665162
K 8.83107487 4.42252027 4.16881691
K 4.41951500 4.41951500 -1.1048496599999993 0 0 0
Bi 0.00008839 8.83699702 3.19311936
Bi 4.42243188 4.41951500 3.18300023
Bi 4.41951500 0.00000000 -1.1048496599999993 0 0 0
Bi 0.00000000 4.41951500 -1.1048496599999993 0 0 0
C 0.00972293 4.42561393 7.24876175
O 0.00256332 4.42039890 8.38396881
