&CONTROL
calculation = 'relax'
prefix = 'scf'
pseudo_dir = '/vol0004/mdt0/data/hp150275/u10028/POT_KKJUS'
outdir = './data'
tprnfor = .true.
nstep = 50
disk_io = 'non'
/
&SYSTEM
ibrav = 0
ecutwfc = 50.0
ecutrho = 400
occupations = 'smearing'
smearing = 'mp'
degauss = 0.01
assume_isolated = 'esm'
esm_bc = 'bc1'
input_dft = 'BEEF-VDW'
nosym = .true.
nspin = 1
ntyp = 5
nat = 34
/
&ELECTRONS
electron_maxstep = 200
mixing_beta = 0.1
conv_thr = 1e-06
/
&IONS
ion_dynamics = 'bfgs'
upscale = 1.0
/
&CELL
/

K_POINTS {automatic}
9 6 2 0  0  0

ATOMIC_SPECIES
C 12.01 C.pbe-n-rrkjus_psl.1.0.0.UPF
Ga 69.72 Ga.pbe-dnl-rrkjus_psl.1.0.0.UPF
Li 6.941 Li.pbe-sl-rrkjus_psl.1.0.0.UPF
O 15.99 O.pbe-n-rrkjus_psl.1.0.0.UPF
Rh 102.9 Rh.pbe-spn-rrkjus_psl.1.0.0.UPF

CELL_PARAMETERS {angstrom}
6.12388000 0.00000000 0.00000000
0.00000000 8.66047000 0.00000000
0.00000000 0.00000000 26.49540000

ATOMIC_POSITIONS {angstrom}
Li 0.00000000 0.00000000 -3.2478061300000007 0 0 0
Li 3.06194000 2.16511750 -1.0826020400000012 0 0 0
Li 3.06194000 6.49535250 -1.0826020400000012 0 0 0
Li 0.00000000 4.33023500 -3.2478061300000007 0 0 0
Li 0.01843288 4.33023500 1.03650005
Li 3.04075138 6.46356858 3.39485560
Li 3.04075138 2.19681482 3.39485560
Li 0.00373557 0.00000000 1.02908134
Ga 1.53097000 0.00000000 -1.0826020400000012 0 0 0
Ga 4.59291000 4.33023500 -1.0826020400000012 0 0 0
Ga 4.59291000 0.00000000 -1.0826020400000012 0 0 0
Ga 1.53097000 4.33023500 -1.0826020400000012 0 0 0
Ga 4.59291000 6.49535250 -3.2478061300000007 0 0 0
Ga 1.53097000 2.16511750 -3.2478061300000007 0 0 0
Ga 1.53097000 6.49535250 -3.2478061300000007 0 0 0
Ga 4.59291000 2.16511750 -3.2478061300000007 0 0 0
Ga 1.36721745 4.33023500 3.44917117
Ga 4.69909808 0.00000000 3.32331802
Ga 4.64900474 4.33023500 3.24356687
Ga 1.33402602 0.00000000 3.32967692
Ga 4.53828499 2.15204019 1.04815802
Ga 1.56477382 6.48894375 1.06299545
Ga 1.56477382 2.17152625 1.06299545
Ga 4.53828499 6.50842981 1.04815802
Rh 0.00000000 6.49535250 -1.0826020400000012 0 0 0
Rh 3.06194000 0.00000000 -3.2478061300000007 0 0 0
Rh 0.00000000 2.16511750 -1.0826020400000012 0 0 0
Rh 3.06194000 4.33023500 -3.2478061300000007 0 0 0
Rh 6.09675121 2.19291761 3.03292844
Rh 3.04442570 4.33023500 1.00788502
Rh 6.09668997 6.46755239 3.03292844
Rh 3.01454117 0.00000000 1.32265037
C 1.93202290 0.00000000 5.39949757
O 1.81989466 0.00000000 6.54568857
