&CONTROL
calculation = 'relax'
prefix = 'scf'
pseudo_dir = '/vol0004/mdt0/data/hp150275/u10028/POT_HYBRID_KKJUS_GBRV'
outdir = './data'
tprnfor = .true.
nstep = 50
disk_io = 'non'
/
&SYSTEM
ibrav = 0
ecutwfc = 50.0
ecutrho = 400
occupations = 'smearing'
smearing = 'mp'
degauss = 0.01
assume_isolated = 'esm'
esm_bc = 'bc1'
input_dft = 'BEEF-VDW'
nosym = .true.
nspin = 2
ntyp = 5
nat = 34
starting_magnetization(1) = 0.0
starting_magnetization(2) = 0.0
starting_magnetization(3) = 0.001
starting_magnetization(4) = 0.0
starting_magnetization(5) = 0.0
/
&ELECTRONS
electron_maxstep = 300
mixing_beta = 0.1
conv_thr = 1e-06
/
&IONS
ion_dynamics = 'bfgs'
upscale = 1.0
/
&CELL
/

K_POINTS {automatic}
8 6 1 0 0 0

ATOMIC_SPECIES
C 12.01 C.pbe-n-rrkjus_psl.1.0.0.UPF
Ga 69.72 Ga.pbe-dnl-rrkjus_psl.1.0.0.UPF
Ni 58.69 ni_pbe_v1.4.uspp.F.UPF
O 15.99 O.pbe-n-rrkjus_psl.1.0.0.UPF
Ta 180.9 Ta.pbe-spn-rrkjus_psl.1.0.0.UPF

CELL_PARAMETERS {angstrom}
5.98793000 0.00000000 0.00000000
0.00000000 8.46821000 0.00000000
0.00000000 0.00000000 26.35120000

ATOMIC_POSITIONS {angstrom}
Ta 0.00000000 0.00000000 -3.175583109999998 0 0 0
Ta 2.99396500 2.11705250 -1.058527699999999 0 0 0
Ta 2.99396500 6.35115750 -1.058527699999999 0 0 0
Ta 0.00000000 4.23410500 -3.175583109999998 0 0 0
Ta 0.00000000 4.26679229 1.07512896
Ta 2.99396500 6.35107282 3.21352884
Ta 2.99396500 2.11713718 3.18954925
Ta 0.00000000 8.43552271 1.07512896
Ga 0.00000000 6.35115750 -1.058527699999999 0 0 0
Ga 2.99396500 0.00000000 -3.175583109999998 0 0 0
Ga 0.00000000 2.11705250 -1.058527699999999 0 0 0
Ga 2.99396500 4.23410500 -3.175583109999998 0 0 0
Ga 0.00000000 2.11696782 3.26017046
Ga 2.99396500 4.18863071 1.03533865
Ga 0.00000000 6.35098814 3.22459634
Ga 2.99396500 0.04538961 1.03533865
Ni 1.49698250 0.00000000 -1.058527699999999 0 0 0
Ni 4.49094750 4.23410500 -1.058527699999999 0 0 0
Ni 4.49094750 0.00000000 -1.058527699999999 0 0 0
Ni 1.49698250 4.23410500 -1.058527699999999 0 0 0
Ni 4.49094750 6.35115750 -3.175583109999998 0 0 0
Ni 1.49698250 2.11705250 -3.175583109999998 0 0 0
Ni 1.49698250 6.35115750 -3.175583109999998 0 0 0
Ni 4.49094750 2.11705250 -3.175583109999998 0 0 0
Ni 1.52075458 4.24553708 3.07913772
Ni 4.46735506 8.45686260 3.07913772
Ni 4.46717542 4.24553708 3.07913772
Ni 1.52057494 8.45686260 3.07913772
Ni 4.55915002 2.11688314 1.06511550
Ni 1.60787896 6.35115750 1.13152053
Ni 1.42877998 2.11688314 1.06511550
Ni 4.38005104 6.35115750 1.13152053
C 2.99396500 2.11705250 5.30265198
O 2.99396500 2.11705250 6.45973317
