&CONTROL
calculation = 'relax'
prefix = 'scf'
pseudo_dir = '/vol0004/mdt0/data/hp150275/u10028/POT_KKJUS'
outdir = './data'
tprnfor = .true.
nstep = 50
disk_io = 'non'
/
&SYSTEM
ibrav = 0
ecutwfc = 50.0
ecutrho = 400
occupations = 'smearing'
smearing = 'mp'
degauss = 0.01
assume_isolated = 'esm'
esm_bc = 'bc1'
input_dft = 'BEEF-VDW'
nosym = .true.
nspin = 1
ntyp = 4
nat = 34
/
&ELECTRONS
electron_maxstep = 200
mixing_beta = 0.1
conv_thr = 1e-06
/
&IONS
ion_dynamics = 'bfgs'
upscale = 1.0
/
&CELL
/

K_POINTS {automatic}
8 6 1 0 0 0

ATOMIC_SPECIES
Au 196.9 Au.pbe-n-rrkjus_psl.1.0.0.UPF
C 12.01 C.pbe-n-rrkjus_psl.1.0.0.UPF
Li 6.941 Li.pbe-sl-rrkjus_psl.1.0.0.UPF
O 15.99 O.pbe-n-rrkjus_psl.1.0.0.UPF

CELL_PARAMETERS {angstrom}
6.35005000 0.00000000 0.00000000
0.00000000 8.98033000 0.00000000
0.00000000 0.00000000 26.73520000

ATOMIC_POSITIONS {angstrom}
Li 1.58751250 0.00000000 -1.1226110499999997 0 0 0
Li 4.76253750 4.49016500 -1.1226110499999997 0 0 0
Li 4.76253750 0.00000000 -1.1226110499999997 0 0 0
Li 1.58751250 4.49016500 -1.1226110499999997 0 0 0
Li 4.76253750 6.73524750 -3.3675657900000004 0 0 0
Li 1.58751250 2.24508250 -3.3675657900000004 0 0 0
Li 1.58751250 6.73524750 -3.3675657900000004 0 0 0
Li 4.76253750 2.24508250 -3.3675657900000004 0 0 0
Li 0.00000000 6.73524750 -1.1226110499999997 0 0 0
Li 3.17502500 0.00000000 -3.3675657900000004 0 0 0
Li 0.00000000 2.24508250 -1.1226110499999997 0 0 0
Li 3.17502500 4.49016500 -3.3675657900000004 0 0 0
Li 1.68054073 4.49411635 3.51888702
Li 4.66950927 8.97637865 3.51888702
Li 4.66950927 4.49411635 3.51888702
Li 1.68047723 8.97637865 3.51888702
Li 4.70824457 2.24508250 1.07716121
Li 1.59754558 6.73524750 1.03866252
Li 1.64180543 2.24508250 1.07716121
Li 4.75250442 6.73524750 1.03866252
Li 0.00000000 2.24508250 3.13390014
Li 3.17502500 4.41131770 1.19666755
Li 0.00000000 6.73524750 3.16838855
Li 3.17502500 0.07884730 1.19666755
Au 0.00000000 0.00000000 -3.3675657900000004 0 0 0
Au 3.17502500 2.24508250 -1.1226110499999997 0 0 0
Au 3.17502500 6.73524750 -1.1226110499999997 0 0 0
Au 0.00000000 4.49016500 -3.3675657900000004 0 0 0
Au 0.00000000 4.48809952 1.25361353
Au 3.17502500 6.73524750 3.15261478
Au 3.17502500 2.24508250 3.22185895
Au 6.34998650 0.00206548 1.25361353
C 3.17502500 2.24508250 5.38928162
O 3.17502500 2.24508250 6.54878724
