&CONTROL
calculation = 'relax'
prefix = 'scf'
pseudo_dir = '/vol0403/data/hp230205/u10028/POT_HYBRID_KKJUS_GBRV'
outdir = './data'
tprnfor = .true.
nstep = 70
disk_io = 'non'
/
&SYSTEM
ibrav = 0
ecutwfc = 50.0
ecutrho = 400
occupations = 'smearing'
smearing = 'mp'
degauss = 0.01
assume_isolated = 'esm'
esm_bc = 'bc1'
input_dft = 'BEEF-VDW'
nosym = .true.
nspin = 1
ntyp = 6
nat = 34
/
&ELECTRONS
electron_maxstep = 200
mixing_beta = 0.1
conv_thr = 1e-06
/
&IONS
ion_dynamics = 'bfgs'
upscale = 1.0
/
&CELL
/

K_POINTS {automatic}
6 6 1 0 0 0

ATOMIC_SPECIES
C 12.01 C.pbe-n-rrkjus_psl.1.0.0.UPF
Cu 63.54 Cu.pbe-dn-rrkjus_psl.1.0.0.UPF
In 114.8 In.pbe-dn-rrkjus_psl.1.0.0.UPF
Mg 24.30 Mg.pbe-spnl-rrkjus_psl.1.0.0.UPF
O 15.99 O.pbe-n-rrkjus_psl.1.0.0.UPF
Pd 106.4 Pd.pbe-n-rrkjus_psl.1.0.0.UPF


CELL_PARAMETERS {angstrom}
6.45956000 0.00000000 0.00000000
-0.00000000 9.13520000 0.00000000
0.00000000 0.00000000 26.85140000

ATOMIC_POSITIONS {angstrom}
Mg 1.61489000 0.00000000 -1.1419900400000031 0 0 0
Mg 1.61489000 4.56760000 -1.1419900400000031 0 0 0
Mg 4.84467000 2.28380000 -3.425701610000001 0 0 0
Mg 4.84467000 6.85140000 -3.425701610000001 0 0 0
Mg 1.57832889 4.58733203 3.51538529
Mg 1.57832889 9.11546797 3.51538529
Mg 4.86127107 6.85140000 1.12399960
Mg 4.84072967 2.28380000 1.10815728
In 4.84467000 0.00000000 -1.1419900400000031 0 0 0
In 4.84467000 4.56760000 -1.1419900400000031 0 0 0
In 1.61489000 2.28380000 -3.425701610000001 0 0 0
In 1.61489000 6.85140000 -3.425701610000001 0 0 0
In 4.87761376 4.64177782 3.74013151
In 4.87761376 9.06102218 3.74013151
In 1.66062368 6.85140000 1.11970338
In 1.61954088 2.28380000 1.17125807
Cu 0.00000000 0.00000000 -3.425701610000001 0 0 0
Cu 0.00000000 4.56760000 -3.425701610000001 0 0 0
Cu 3.22978000 6.85140000 -1.1419900400000031 0 0 0
Cu 3.22978000 2.28380000 -1.1419900400000031 0 0 0
Cu 6.44328191 4.57043191 1.21959059
Cu 6.44328191 9.13236809 1.21932207
Cu 3.36510778 2.28380000 3.44449759
Cu 3.27467394 6.85140000 3.34890661
Pd 0.00000000 2.28380000 -1.1419900400000031 0 0 0
Pd 0.00000000 6.85140000 -1.1419900400000031 0 0 0
Pd 3.22978000 4.56760000 -3.425701610000001 0 0 0
Pd 3.22978000 0.00000000 -3.425701610000001 0 0 0
Pd 0.00826824 6.85140000 3.30003706
Pd 6.30543490 2.28380000 3.29332421
Pd 3.28675332 0.03763702 1.31142238
Pd 3.28675332 4.52996298 1.31142238
C 2.70054825 2.28380000 5.20084767
O 2.48202133 2.28380000 6.33800446
