&CONTROL
calculation = 'relax'
prefix = 'scf'
pseudo_dir = '/vol0403/data/hp230205/u10028/POT_HYBRID_KKJUS_GBRV'
outdir = './data'
tprnfor = .true.
nstep = 70
disk_io = 'non'
/
&SYSTEM
ibrav = 0
ecutwfc = 50.0
ecutrho = 400
occupations = 'smearing'
smearing = 'mp'
degauss = 0.01
assume_isolated = 'esm'
esm_bc = 'bc1'
input_dft = 'BEEF-VDW'
nosym = .true.
nspin = 1
ntyp = 5
nat = 33
/
&ELECTRONS
electron_maxstep = 200
mixing_beta = 0.1
conv_thr = 1e-06
/
&IONS
ion_dynamics = 'bfgs'
upscale = 1.0
/
&CELL
/

K_POINTS {automatic}
9 6 2 0  0  0

ATOMIC_SPECIES
Al 26.98 Al.pbe-nl-rrkjus_psl.1.0.0.UPF
C 12.01 C.pbe-n-rrkjus_psl.1.0.0.UPF
Li 6.941 Li.pbe-sl-rrkjus_psl.1.0.0.UPF
Pd 106.4 Pd.pbe-n-rrkjus_psl.1.0.0.UPF
Pt 195.0 Pt.pbe-n-rrkjus_psl.1.0.0.UPF


CELL_PARAMETERS {angstrom}
6.06122000 0.00000000 0.00000000
-0.00000000 8.57186000 0.00000000
0.00000000 0.00000000 26.42890000

ATOMIC_POSITIONS {angstrom}
Li 0.00000000 2.14296500 -1.071427609999997 0 0 0
Li 0.00000000 6.42889500 -1.071427609999997 0 0 0
Li 3.03061000 4.28593000 -3.214547109999998 0 0 0
Li 3.03061000 0.00000000 -3.214547109999998 0 0 0
Li 0.00884938 6.36597755 3.83826915
Li 0.00884938 2.20588245 3.83826915
Li 3.05503672 -0.00000000 0.96650487
Li 3.01588124 4.28593000 1.04367726
Al 0.00000000 0.00000000 -3.214547109999998 0 0 0
Al 0.00000000 4.28593000 -3.214547109999998 0 0 0
Al 3.03061000 6.42889500 -1.071427609999997 0 0 0
Al 3.03061000 2.14296500 -1.071427609999997 0 0 0
Al 6.05764388 4.28593000 1.08649208
Al 6.02903492 -0.00000000 1.05134164
Al 2.98351432 2.21231135 3.17278944
Al 2.98351432 6.35954865 3.17278944
Pd 4.54591500 0.00000000 -1.071427609999997 0 0 0
Pd 4.54591500 4.28593000 -1.071427609999997 0 0 0
Pd 1.51530500 2.14296500 -3.214547109999998 0 0 0
Pd 1.51530500 6.42889500 -3.214547109999998 0 0 0
Pd 4.50281973 4.28593000 3.13869616
Pd 4.42141754 -0.00000000 3.24282603
Pd 1.47893768 6.47201146 1.06323465
Pd 1.47899829 2.09984854 1.06323465
Pt 1.51530500 0.00000000 -1.071427609999997 0 0 0
Pt 1.51530500 4.28593000 -1.071427609999997 0 0 0
Pt 4.54591500 2.14296500 -3.214547109999998 0 0 0
Pt 4.54591500 6.42889500 -3.214547109999998 0 0 0
Pt 1.53973172 4.28593000 3.11332442
Pt 1.58531209 -0.00000000 3.15561066
Pt 4.55694642 6.45135327 1.10737091
Pt 4.55694642 2.12050673 1.10737091
C 0.03867058 0.00000000 4.19532359
