&CONTROL
calculation = 'relax'
prefix = 'scf'
pseudo_dir = '/vol0403/data/hp230205/u10028/POT_HYBRID_KKJUS_GBRV'
outdir = './data'
tprnfor = .true.
nstep = 50
disk_io = 'non'
/
&SYSTEM
ibrav = 0
ecutwfc = 50.0
ecutrho = 400
occupations = 'smearing'
smearing = 'mp'
degauss = 0.01
assume_isolated = 'esm'
esm_bc = 'bc1'
input_dft = 'BEEF-VDW'
nosym = .true.
nspin = 1
ntyp = 4
nat = 32
/
&ELECTRONS
electron_maxstep = 200
mixing_beta = 0.1
conv_thr = 1e-06
/
&IONS
ion_dynamics = 'bfgs'
upscale = 1.0
/
&CELL
/

K_POINTS {automatic}
9 6 2 0  0  0

ATOMIC_SPECIES
Ga 69.72 Ga.pbe-dnl-rrkjus_psl.1.0.0.UPF
In 114.8 In.pbe-dn-rrkjus_psl.1.0.0.UPF
Li 6.941 Li.pbe-sl-rrkjus_psl.1.0.0.UPF
Pd 106.4 Pd.pbe-n-rrkjus_psl.1.0.0.UPF


CELL_PARAMETERS {angstrom}
6.46680000 0.00000000 0.00000000
0.00000000 9.14544000 0.00000000
0.00000000 0.00000000 26.85910000

ATOMIC_POSITIONS {angstrom}
Li 4.85010000 0.00000000 -1.1431233000000027 0 0 0
Li 4.85010000 4.57272000 -1.1431233000000027 0 0 0
Li 1.61670000 2.28636000 -3.4296384800000013 0 0 0
Li 1.61670000 6.85908000 -3.4296384800000013 0 0 0
Li 4.60280957 4.57272000 3.85186353
Li 4.60268023 0.00000000 3.85213212
Li 1.39527677 6.85908000 1.30508367
Li 1.39501810 2.28636000 1.30481508
In 0.00000000 2.28636000 -1.1431233000000027 0 0 0
In 0.00000000 6.85908000 -1.1431233000000027 0 0 0
In 3.23340000 4.57272000 -3.4296384800000013 0 0 0
In 3.23340000 0.00000000 -3.4296384800000013 0 0 0
In 6.38505965 6.85908000 3.97219230
In 6.38505965 2.28636000 3.97219230
In 3.22195376 9.14534855 1.20624218
In 3.22201843 4.57281145 1.20651077
Ga 0.00000000 0.00000000 -3.4296384800000013 0 0 0
Ga 0.00000000 4.57272000 -3.4296384800000013 0 0 0
Ga 3.23340000 6.85908000 -1.1431233000000027 0 0 0
Ga 3.23340000 2.28636000 -1.1431233000000027 0 0 0
Ga 6.29258441 4.57281145 1.36256214
Ga 6.29258441 9.14534855 1.36256214
Ga 3.09779120 2.28636000 3.52283956
Ga 3.09792054 6.85908000 3.52283956
Pd 1.61670000 0.00000000 -1.1431233000000027 0 0 0
Pd 1.61670000 4.57272000 -1.1431233000000027 0 0 0
Pd 4.85010000 2.28636000 -3.4296384800000013 0 0 0
Pd 4.85010000 6.85908000 -3.4296384800000013 0 0 0
Pd 1.53204959 4.57281145 3.33643740
Pd 1.53204959 0.00000000 3.33643740
Pd 4.86730169 6.85908000 1.11841292
Pd 4.86743102 2.28636000 1.11841292
