&CONTROL
calculation = 'relax'
prefix = 'scf'
pseudo_dir = '/vol0004/mdt0/data/hp150275/u10028/POT_KKJUS'
outdir = './data'
tprnfor = .true.
nstep = 50
disk_io = 'non'
/
&SYSTEM
ibrav = 0
ecutwfc = 50.0
ecutrho = 400
occupations = 'smearing'
smearing = 'mp'
degauss = 0.01
assume_isolated = 'esm'
esm_bc = 'bc1'
input_dft = 'BEEF-VDW'
nosym = .true.
nspin = 1
ntyp = 4
nat = 33
/
&ELECTRONS
electron_maxstep = 200
mixing_beta = 0.1
conv_thr = 1e-06
/
&IONS
ion_dynamics = 'bfgs'
upscale = 1.0
/
&CELL
/

K_POINTS {automatic}
9 6 2 0  0  0

ATOMIC_SPECIES
Al 26.98 Al.pbe-nl-rrkjus_psl.1.0.0.UPF
C 12.01 C.pbe-n-rrkjus_psl.1.0.0.UPF
Nb 92.90 Nb.pbe-spn-rrkjus_psl.1.0.0.UPF
Ru 101.0 Ru.pbe-spn-rrkjus_psl.1.0.0.UPF

CELL_PARAMETERS {angstrom}
6.19479000 0.00000000 0.00000000
0.00000000 8.76076000 0.00000000
0.00000000 0.00000000 26.57060000

ATOMIC_POSITIONS {angstrom}
Nb 0.00000000 0.00000000 -3.2851889799999974 0 0 0
Nb 3.09739500 2.19019000 -1.0949744300000006 0 0 0
Nb 3.09739500 6.57057000 -1.0949744300000006 0 0 0
Nb 0.00000000 4.38038000 -3.2851889799999974 0 0 0
Nb 6.19367494 4.39702544 1.11968508
Nb 3.03005763 6.57057000 3.29794287
Nb 3.45390516 2.19019000 3.39651980
Nb 6.19367494 8.74411456 1.11968508
Al 0.00000000 6.57057000 -1.0949744300000006 0 0 0
Al 3.09739500 0.00000000 -3.2851889799999974 0 0 0
Al 0.00000000 2.19019000 -1.0949744300000006 0 0 0
Al 3.09739500 4.38038000 -3.2851889799999974 0 0 0
Al 5.94111335 2.19019000 3.43185870
Al 3.09287280 4.37214489 1.12925050
Al 0.05773544 6.57057000 3.37659185
Al 3.09287280 0.00823511 1.12925050
Ru 1.54869750 0.00000000 -1.0949744300000006 0 0 0
Ru 4.64609250 4.38038000 -1.0949744300000006 0 0 0
Ru 4.64609250 0.00000000 -1.0949744300000006 0 0 0
Ru 1.54869750 4.38038000 -1.0949744300000006 0 0 0
Ru 4.64609250 6.57057000 -3.2851889799999974 0 0 0
Ru 1.54869750 2.19019000 -3.2851889799999974 0 0 0
Ru 1.54869750 6.57057000 -3.2851889799999974 0 0 0
Ru 4.64609250 2.19019000 -3.2851889799999974 0 0 0
Ru 1.50465254 4.33167017 3.17545241
Ru 4.70011107 8.67604345 3.16827834
Ru 4.70011107 4.46500894 3.16827834
Ru 1.50465254 0.04870983 3.17545241
Ru 4.64999522 2.19019000 1.07478077
Ru 1.55563566 6.57057000 1.11729373
Ru 1.57601652 2.19019000 1.16777787
Ru 4.61016272 6.57057000 1.09896002
C 1.56945005 2.19019000 3.59978489
