&CONTROL
calculation = 'relax'
prefix = 'scf'
pseudo_dir = '/vol0403/data/hp230205/u10028/POT_HYBRID_KKJUS_GBRV'
outdir = './data'
tprnfor = .true.
nstep = 50
disk_io = 'non'
/
&SYSTEM
ibrav = 0
ecutwfc = 50.0
ecutrho = 400
occupations = 'smearing'
smearing = 'mp'
degauss = 0.01
assume_isolated = 'esm'
esm_bc = 'bc1'
input_dft = 'BEEF-VDW'
nosym = .true.
nspin = 1
ntyp = 5
nat = 17
/
&ELECTRONS
electron_maxstep = 200
mixing_beta = 0.1
conv_thr = 1e-06
/
&IONS
ion_dynamics = 'bfgs'
upscale = 1.0
/
&CELL
/

K_POINTS {automatic}
8 11 2 0  0  0

ATOMIC_SPECIES
C 12.01 C.pbe-n-rrkjus_psl.1.0.0.UPF
Ge 72.64 Ge.pbe-dn-rrkjus_psl.1.0.0.UPF
In 114.8 In.pbe-dn-rrkjus_psl.1.0.0.UPF
Li 6.941 Li.pbe-sl-rrkjus_psl.1.0.0.UPF
Y 88.90 Y.pbe-spn-rrkjus_psl.1.0.0.UPF


CELL_PARAMETERS {angstrom}
8.49364000 0.00000000 0.00000000
0.00000000 6.33235000 0.00000000
0.00000000 0.00000000 24.73290000

ATOMIC_POSITIONS {angstrom}
Li 8.47028249 4.20265405 2.78071995
Li 0.00000000 6.07012739 -0.7887321800000002 0 0 0
Li 4.27026245 4.20265405 2.78071995
Li 4.24682000 6.07012739 -0.7887321800000002 0 0 0
Y 2.12341000 2.15160588 0.96483043
Y 2.12341000 4.35589692 -2.3664438700000012 0 0 0
Y 6.37014506 1.67370343 1.06895594
Y 6.37023000 4.35589692 -2.3664438700000012 0 0 0
In 2.12341000 5.23419386 0.99871450
In 2.12341000 1.18972192 -2.3664438700000012 0 0 0
In 6.37039987 4.78440704 0.86243622
In 6.37023000 1.18972192 -2.3664438700000012 0 0 0
Ge 0.23824660 0.65729793 2.82078724
Ge 0.00000000 2.90395239 -0.7887321800000002 0 0 0
Ge 4.00848846 0.65710796 2.82078724
Ge 4.24682000 2.90395239 -0.7887321800000002 0 0 0
C 2.12332506 0.60834886 2.83389568
