&CONTROL
calculation = 'relax'
prefix = 'scf'
pseudo_dir = '/vol0403/data/hp230205/u10028/POT_HYBRID_KKJUS_GBRV'
outdir = './data'
tprnfor = .true.
nstep = 50
disk_io = 'non'
/
&SYSTEM
ibrav = 0
ecutwfc = 50.0
ecutrho = 400
occupations = 'smearing'
smearing = 'mp'
degauss = 0.01
assume_isolated = 'esm'
esm_bc = 'bc1'
input_dft = 'BEEF-VDW'
nosym = .true.
nspin = 1
ntyp = 6
nat = 34
/
&ELECTRONS
electron_maxstep = 200
mixing_beta = 0.1
conv_thr = 1e-06
/
&IONS
ion_dynamics = 'bfgs'
upscale = 1.0
/
&CELL
/

K_POINTS {automatic}
6 6 1 0 0 0

ATOMIC_SPECIES
Ag 107.8 Ag.pbe-n-rrkjus_psl.1.0.0.UPF
C 12.01 C.pbe-n-rrkjus_psl.1.0.0.UPF
Li 6.941 Li.pbe-sl-rrkjus_psl.1.0.0.UPF
Mg 24.30 Mg.pbe-spnl-rrkjus_psl.1.0.0.UPF
O 15.99 O.pbe-n-rrkjus_psl.1.0.0.UPF
Sn 118.7 Sn.pbe-dn-rrkjus_psl.1.0.0.UPF


CELL_PARAMETERS {angstrom}
6.75899000 0.00000000 0.00000000
0.00000000 9.55866000 0.00000000
0.00000000 0.00000000 27.16900000

ATOMIC_POSITIONS {angstrom}
Li 5.06924250 0.00000000 -1.194892620000001 0 0 0
Li 5.06924250 4.77933000 -1.194892620000001 0 0 0
Li 1.68974750 2.38966500 -3.584406170000001 0 0 0
Li 1.68974750 7.16899500 -3.584406170000001 0 0 0
Li 5.05369682 4.69922843 3.76752523
Li 5.05383200 0.08019716 3.76725354
Li 1.62384735 7.16899500 1.28618046
Li 1.62310386 2.38966500 1.19434924
Mg 1.68974750 0.00000000 -1.194892620000001 0 0 0
Mg 1.68974750 4.77933000 -1.194892620000001 0 0 0
Mg 5.06924250 2.38966500 -3.584406170000001 0 0 0
Mg 5.06924250 7.16899500 -3.584406170000001 0 0 0
Mg 1.62817310 4.87415191 3.85202082
Mg 1.62803792 9.46336016 3.85174913
Mg 5.12878920 7.16889941 1.23021232
Mg 5.12034046 2.38956941 1.31226270
Ag 0.00000000 0.00000000 -3.584406170000001 0 0 0
Ag 0.00000000 4.77933000 -3.584406170000001 0 0 0
Ag 3.37949500 7.16899500 -1.194892620000001 0 0 0
Ag 3.37949500 2.38966500 -1.194892620000001 0 0 0
Ag 0.04379826 4.77063162 1.39485646
Ag 0.04366308 0.00869838 1.39485646
Ag 3.16165275 2.38966500 3.49339002
Ag 3.44776080 7.16899500 3.55125999
Sn 0.00000000 2.38966500 -1.194892620000001 0 0 0
Sn 0.00000000 7.16899500 -1.194892620000001 0 0 0
Sn 3.37949500 4.77933000 -3.584406170000001 0 0 0
Sn 3.37949500 0.00000000 -3.584406170000001 0 0 0
Sn 6.56615602 7.16889941 3.88217841
Sn 0.01770855 2.38966500 3.84604364
Sn 3.33684577 9.55531447 1.37909844
Sn 3.33664300 4.78267553 1.37909844
C 0.53024277 2.38966500 7.94937771
O 6.40799565 2.38966500 8.66582424
