&CONTROL
calculation = 'relax'
prefix = 'scf'
pseudo_dir = '/vol0004/mdt0/data/hp150275/u10028/POT_HYBRID_KKJUS_GBRV'
outdir = './data'
tprnfor = .true.
nstep = 50
disk_io = 'non'
/
&SYSTEM
ibrav = 0
ecutwfc = 50.0
ecutrho = 400
occupations = 'smearing'
smearing = 'mp'
degauss = 0.01
assume_isolated = 'esm'
esm_bc = 'bc1'
input_dft = 'BEEF-VDW'
nosym = .true.
nspin = 2
ntyp = 4
nat = 33
starting_magnetization(1) = 0.0
starting_magnetization(2) = 0.1
starting_magnetization(3) = 0.0
starting_magnetization(4) = 0.0
/
&ELECTRONS
electron_maxstep = 300
mixing_beta = 0.1
conv_thr = 1e-06
/
&IONS
ion_dynamics = 'bfgs'
upscale = 1.0
/
&CELL
/

K_POINTS {automatic}
9 6 2 0  0  0

ATOMIC_SPECIES
C 12.01 C.pbe-n-rrkjus_psl.1.0.0.UPF
Co 58.93 co_pbe_v1.2.uspp.F.UPF
Ge 72.64 Ge.pbe-dn-rrkjus_psl.1.0.0.UPF
Ti 47.86 Ti.pbe-spn-rrkjus_psl.1.0.0.UPF

CELL_PARAMETERS {angstrom}
5.88044000 0.00000000 0.00000000
0.00000000 8.31620000 0.00000000
0.00000000 0.00000000 26.23710000

ATOMIC_POSITIONS {angstrom}
Ti 0.00000000 0.00000000 -3.1185417100000024 0 0 0
Ti 2.94022000 2.07905000 -1.0395139000000029 0 0 0
Ti 2.94022000 6.23715000 -1.0395139000000029 0 0 0
Ti 0.00000000 4.15810000 -3.1185417100000024 0 0 0
Ti 0.00000000 4.15810000 1.01458866
Ti 2.94022000 6.23723316 3.17180302
Ti 2.94022000 2.07888368 3.17206539
Ti 0.00000000 8.31611684 0.99963351
Co 1.47011000 0.00000000 -1.0395139000000029 0 0 0
Co 4.41033000 4.15810000 -1.0395139000000029 0 0 0
Co 4.41033000 0.00000000 -1.0395139000000029 0 0 0
Co 1.47011000 4.15810000 -1.0395139000000029 0 0 0
Co 4.41033000 6.23715000 -3.1185417100000024 0 0 0
Co 1.47011000 2.07905000 -3.1185417100000024 0 0 0
Co 1.47011000 6.23715000 -3.1185417100000024 0 0 0
Co 4.41033000 2.07905000 -3.1185417100000024 0 0 0
Co 1.36620263 4.15801684 2.96190622
Co 4.60626626 0.00000000 3.05478555
Co 4.51429618 4.15801684 2.96190622
Co 1.27423254 0.00000000 3.05478555
Co 4.37204834 2.06291657 1.06155307
Co 1.50850927 6.25328343 1.06181544
Co 1.50845047 2.06299973 1.06155307
Co 4.37198953 6.25328343 1.06181544
Ge 0.00000000 6.23715000 -1.0395139000000029 0 0 0
Ge 2.94022000 0.00000000 -3.1185417100000024 0 0 0
Ge 0.00000000 2.07905000 -1.0395139000000029 0 0 0
Ge 2.94022000 4.15810000 -3.1185417100000024 0 0 0
Ge 0.00005880 2.09376967 3.17783755
Ge 2.94016120 4.15785051 1.07047368
Ge 0.00005880 6.22234716 3.17809992
Ge 2.94016120 0.00058213 1.04449895
C 2.94022000 0.00000000 3.72802954
