&CONTROL
calculation = 'relax'
prefix = 'scf'
pseudo_dir = '/vol0004/mdt0/data/hp150275/u10028/POT_KKJUS'
outdir = './data'
tprnfor = .true.
nstep = 50
disk_io = 'non'
/
&SYSTEM
ibrav = 0
ecutwfc = 50.0
ecutrho = 400
occupations = 'smearing'
smearing = 'mp'
degauss = 0.01
assume_isolated = 'esm'
esm_bc = 'bc1'
input_dft = 'BEEF-VDW'
nosym = .true.
nspin = 1
ntyp = 5
nat = 34
/
&ELECTRONS
electron_maxstep = 200
mixing_beta = 0.1
conv_thr = 1e-06
/
&IONS
ion_dynamics = 'bfgs'
upscale = 1.0
/
&CELL
/

K_POINTS {automatic}
9 6 2 0  0  0

ATOMIC_SPECIES
C 12.01 C.pbe-n-rrkjus_psl.1.0.0.UPF
O 15.99 O.pbe-n-rrkjus_psl.1.0.0.UPF
Pt 195.0 Pt.pbe-n-rrkjus_psl.1.0.0.UPF
Sc 44.95 Sc.pbe-spn-rrkjus_psl.1.0.0.UPF
Sn 118.7 Sn.pbe-dn-rrkjus_psl.1.0.0.UPF

CELL_PARAMETERS {angstrom}
6.65597000 0.00000000 0.00000000
0.00000000 9.41296000 0.00000000
0.00000000 0.00000000 27.05970000

ATOMIC_POSITIONS {angstrom}
Sc 0.00000000 0.00000000 -3.5299378600000004 0 0 0
Sc 3.32798500 2.35324000 -1.1765557599999994 0 0 0
Sc 3.32798500 7.05972000 -1.1765557599999994 0 0 0
Sc 0.00000000 4.70648000 -3.5299378600000004 0 0 0
Sc 0.00013312 4.69829072 1.23202814
Sc 3.32811812 7.05972000 3.45362951
Sc 3.32811812 2.35324000 3.44686459
Sc 0.00019968 0.00818928 1.23202814
Sn 0.00000000 7.05972000 -1.1765557599999994 0 0 0
Sn 3.32798500 0.00000000 -3.5299378600000004 0 0 0
Sn 0.00000000 2.35324000 -1.1765557599999994 0 0 0
Sn 3.32798500 4.70648000 -3.5299378600000004 0 0 0
Sn 0.00013312 2.35324000 3.72043815
Sn 3.32811812 4.71758729 1.13407203
Sn 0.00013312 7.05972000 3.76265129
Sn 3.32811812 9.40185271 1.13407203
Pt 1.66399250 0.00000000 -1.1765557599999994 0 0 0
Pt 4.99197750 4.70648000 -1.1765557599999994 0 0 0
Pt 4.99197750 0.00000000 -1.1765557599999994 0 0 0
Pt 1.66399250 4.70648000 -1.1765557599999994 0 0 0
Pt 4.99197750 7.05972000 -3.5299378600000004 0 0 0
Pt 1.66399250 2.35324000 -3.5299378600000004 0 0 0
Pt 1.66399250 7.05972000 -3.5299378600000004 0 0 0
Pt 4.99197750 2.35324000 -3.5299378600000004 0 0 0
Pt 1.72536054 4.70760956 3.38408608
Pt 4.93094226 9.41183044 3.38408608
Pt 4.93100881 4.70760956 3.38408608
Pt 1.72536054 9.41183044 3.38408608
Pt 5.04189727 2.35324000 1.20713322
Pt 1.57679929 7.05972000 1.23338113
Pt 1.61440552 2.35324000 1.20713322
Pt 5.07943695 7.05972000 1.23338113
C 6.64938059 2.35324000 7.77587539
O 0.00039936 2.35324000 8.91075921
