&CONTROL
calculation = 'relax'
prefix = 'scf'
pseudo_dir = '/vol0004/mdt0/data/hp150275/u10028/POT_KKJUS'
outdir = './data'
tprnfor = .true.
nstep = 50
disk_io = 'non'
/
&SYSTEM
ibrav = 0
ecutwfc = 50.0
ecutrho = 400
occupations = 'smearing'
smearing = 'mp'
degauss = 0.01
assume_isolated = 'esm'
esm_bc = 'bc1'
input_dft = 'BEEF-VDW'
nosym = .true.
nspin = 1
ntyp = 3
nat = 17
/
&ELECTRONS
electron_maxstep = 200
mixing_beta = 0.1
conv_thr = 1e-06
/
&IONS
ion_dynamics = 'bfgs'
upscale = 1.0
/
&CELL
/

K_POINTS {automatic}
9 9 2 0  0  0

ATOMIC_SPECIES
C 12.01 C.pbe-n-rrkjus_psl.1.0.0.UPF
Li 6.941 Li.pbe-sl-rrkjus_psl.1.0.0.UPF
Pb 207.2 Pb.pbe-dn-rrkjus_psl.1.0.0.UPF

CELL_PARAMETERS {angstrom}
7.21597000 0.00000000 0.00000000
0.00000000 7.21597000 0.00000000
0.00000000 0.00000000 25.41200000

ATOMIC_POSITIONS {angstrom}
Li 1.80399250 1.80399250 -1.7455502799999998 0 0 0
Li 1.46844990 1.46967661 1.81162148
Li 1.80399250 5.41197750 -1.7455502799999998 0 0 0
Li 1.46823342 5.74614907 1.81162148
Li 5.41197750 1.80399250 -1.7455502799999998 0 0 0
Li 5.74780874 1.46982093 1.81162148
Li 5.41197750 5.41197750 -1.7455502799999998 0 0 0
Li 5.74759226 5.74622123 1.81162148
Pb 0.00000000 0.00000000 -3.5495481600000005 0 0 0
Pb 0.00007216 7.21589784 -0.2729248799999979 0 0 0
Pb 0.00000000 3.60798500 -3.5495481600000005 0 0 0
Pb 7.21589784 3.60805716 -0.05641463999999985 0 0 0
Pb 3.60798500 0.00000000 -3.5495481600000005 0 0 0
Pb 3.60798500 0.00000000 -0.04904515999999859 0 0 0
Pb 3.60798500 3.60798500 -3.5495481600000005 0 0 0
Pb 3.60798500 3.60798500 0.17559692
C 0.00007216 0.00000000 2.01237628
