&CONTROL
calculation = 'relax'
prefix = 'scf'
pseudo_dir = '/vol0004/mdt0/data/hp150275/u10028/POT_KKJUS'
outdir = './data'
tprnfor = .true.
nstep = 50
disk_io = 'non'
/
&SYSTEM
ibrav = 0
ecutwfc = 50.0
ecutrho = 400
occupations = 'smearing'
smearing = 'mp'
degauss = 0.01
assume_isolated = 'esm'
esm_bc = 'bc1'
input_dft = 'BEEF-VDW'
nosym = .true.
nspin = 1
ntyp = 3
nat = 17
/
&ELECTRONS
electron_maxstep = 200
mixing_beta = 0.1
conv_thr = 1e-06
/
&IONS
ion_dynamics = 'bfgs'
upscale = 1.0
/
&CELL
/

K_POINTS {automatic}
8 11 2 0  0  0

ATOMIC_SPECIES
C 12.01 C.pbe-n-rrkjus_psl.1.0.0.UPF
Nb 92.90 Nb.pbe-spn-rrkjus_psl.1.0.0.UPF
Zn 65.40 Zn.pbe-dnl-rrkjus_psl.1.0.0.UPF

CELL_PARAMETERS {angstrom}
7.89001000 0.00000000 0.00000000
0.00000000 5.57908000 0.00000000
0.00000000 0.00000000 24.18430000

ATOMIC_POSITIONS {angstrom}
Nb 0.31007739 0.10047923 2.04913574
Nb 0.00000000 2.78954000 -0.6974752100000003 0 0 0
Nb 3.63484871 0.10053502 2.04889390
Nb 3.94500500 2.78954000 -0.6974752100000003 0 0 0
Zn 0.07243029 2.88053479 2.16667144
Zn 1.97258140 4.13911945 0.64886477
Zn 1.97266030 1.51879295 0.54874177
Zn 0.00000000 0.00000000 -0.6974752100000003 0 0 0
Zn 1.97250250 1.39477000 -2.09218379 0 0 0
Zn 1.97250250 4.18431000 -2.09218379 0 0 0
Zn 3.87265361 2.88059059 2.16618775
Zn 5.91742860 4.23948710 0.85999371
Zn 5.91758640 1.41273464 0.90860415
Zn 3.94500500 0.00000000 -0.6974752100000003 0 0 0
Zn 5.91750750 1.39477000 -2.09218379 0 0 0
Zn 5.91750750 4.18431000 -2.09218379 0 0 0
C 1.97258140 0.96384186 2.71783163
