&CONTROL
calculation = 'relax'
prefix = 'scf'
pseudo_dir = '/vol0004/mdt0/data/hp150275/u10028/POT_HYBRID_KKJUS_GBRV'
outdir = './data'
tprnfor = .true.
nstep = 50
disk_io = 'non'
/
&SYSTEM
ibrav = 0
ecutwfc = 50.0
ecutrho = 400
occupations = 'smearing'
smearing = 'mp'
degauss = 0.01
assume_isolated = 'esm'
esm_bc = 'bc1'
input_dft = 'BEEF-VDW'
nosym = .true.
nspin = 2
ntyp = 5
nat = 34
starting_magnetization(1) = 0.0
starting_magnetization(2) = 0.1
starting_magnetization(3) = 0.0
starting_magnetization(4) = 0.0
starting_magnetization(5) = 0.0
/
&ELECTRONS
electron_maxstep = 300
mixing_beta = 0.1
conv_thr = 1e-06
/
&IONS
ion_dynamics = 'bfgs'
upscale = 1.0
/
&CELL
/

K_POINTS {automatic}
8 6 1 0 0 0

ATOMIC_SPECIES
C 12.01 C.pbe-n-rrkjus_psl.1.0.0.UPF
Co 58.93 co_pbe_v1.2.uspp.F.UPF
Nb 92.90 Nb.pbe-spn-rrkjus_psl.1.0.0.UPF
O 15.99 O.pbe-n-rrkjus_psl.1.0.0.UPF
Sn 118.7 Sn.pbe-dn-rrkjus_psl.1.0.0.UPF

CELL_PARAMETERS {angstrom}
6.19479000 0.00000000 0.00000000
0.00000000 8.76076000 0.00000000
0.00000000 0.00000000 26.57060000

ATOMIC_POSITIONS {angstrom}
Nb 0.00000000 0.00000000 -3.2851889799999974 0 0 0
Nb 3.09739500 2.19019000 -1.0949744300000006 0 0 0
Nb 3.09739500 6.57057000 -1.0949744300000006 0 0 0
Nb 0.00000000 4.38038000 -3.2851889799999974 0 0 0
Nb 6.16325852 4.38038000 1.16113522
Nb 3.09566046 6.53727911 3.23948755
Nb 3.09559851 2.22348089 3.23948755
Nb 6.17874549 0.00000000 1.19169141
Co 1.54869750 0.00000000 -1.0949744300000006 0 0 0
Co 4.64609250 4.38038000 -1.0949744300000006 0 0 0
Co 4.64609250 0.00000000 -1.0949744300000006 0 0 0
Co 1.54869750 4.38038000 -1.0949744300000006 0 0 0
Co 4.64609250 6.57057000 -3.2851889799999974 0 0 0
Co 1.54869750 2.19019000 -3.2851889799999974 0 0 0
Co 1.54869750 6.57057000 -3.2851889799999974 0 0 0
Co 4.64609250 2.19019000 -3.2851889799999974 0 0 0
Co 1.57044121 4.38046761 3.10132043
Co 4.63537551 0.00000000 3.04180229
Co 4.53316148 4.38046761 3.10583743
Co 1.74810779 8.76067239 3.45178665
Co 4.64200394 2.16881375 1.15342975
Co 1.48662570 6.56040752 1.16644934
Co 1.48662570 2.20035248 1.16618363
Co 4.64200394 6.59194625 1.15369545
Sn 0.00000000 6.57057000 -1.0949744300000006 0 0 0
Sn 3.09739500 0.00000000 -3.2851889799999974 0 0 0
Sn 0.00000000 2.19019000 -1.0949744300000006 0 0 0
Sn 3.09739500 4.38038000 -3.2851889799999974 0 0 0
Sn 6.15340880 2.20911324 3.57162005
Sn 3.07918232 4.38038000 1.02190528
Sn 6.15347075 6.55173437 3.57162005
Sn 3.02696024 0.00000000 1.06654388
C 2.37824183 0.00000000 5.07339036
O 2.68699016 0.00008761 6.20370369
