&CONTROL
calculation = 'relax'
prefix = 'scf'
pseudo_dir = '/vol0004/mdt0/data/hp150275/u10028/POT_KKJUS'
outdir = './data'
tprnfor = .true.
nstep = 50
disk_io = 'non'
/
&SYSTEM
ibrav = 0
ecutwfc = 50.0
ecutrho = 400
occupations = 'smearing'
smearing = 'mp'
degauss = 0.01
assume_isolated = 'esm'
esm_bc = 'bc1'
input_dft = 'BEEF-VDW'
nosym = .true.
nspin = 1
ntyp = 5
nat = 34
/
&ELECTRONS
electron_maxstep = 200
mixing_beta = 0.1
conv_thr = 1e-06
/
&IONS
ion_dynamics = 'bfgs'
upscale = 1.0
/
&CELL
/

K_POINTS {automatic}
9 6 2 0  0  0

ATOMIC_SPECIES
C 12.01 C.pbe-n-rrkjus_psl.1.0.0.UPF
Ga 69.72 Ga.pbe-dnl-rrkjus_psl.1.0.0.UPF
Ni 58.69 Ni.pbe-spn-rrkjus_psl.1.0.0.UPF
O 15.99 O.pbe-n-rrkjus_psl.1.0.0.UPF
Ti 47.86 Ti.pbe-spn-rrkjus_psl.1.0.0.UPF

CELL_PARAMETERS {angstrom}
5.94410000 0.00000000 0.00000000
0.00000000 8.40623000 0.00000000
0.00000000 0.00000000 26.30470000

ATOMIC_POSITIONS {angstrom}
Ti 0.00000000 0.00000000 -3.1523552499999994 0 0 0
Ti 2.97205000 2.10155750 -1.0508727700000016 0 0 0
Ti 2.97205000 6.30467250 -1.0508727700000016 0 0 0
Ti 0.00000000 4.20311500 -3.1523552499999994 0 0 0
Ti 5.93898807 4.20286281 1.02535721
Ti 2.98126336 6.29466909 3.14840954
Ti 2.98132280 2.11105654 3.14867259
Ti 0.00766789 0.00025219 1.06034246
Ga 0.00000000 6.30467250 -1.0508727700000016 0 0 0
Ga 2.97205000 0.00000000 -3.1523552499999994 0 0 0
Ga 0.00000000 2.10155750 -1.0508727700000016 0 0 0
Ga 2.97205000 4.20311500 -3.1523552499999994 0 0 0
Ga 5.92436559 2.12643994 3.13499415
Ga 2.96961292 4.20336719 1.01509837
Ga 5.92525720 6.27869725 3.13552024
Ga 2.93638540 8.40580969 1.06849691
Ni 1.48602500 0.00000000 -1.0508727700000016 0 0 0
Ni 4.45807500 4.20311500 -1.0508727700000016 0 0 0
Ni 4.45807500 0.00000000 -1.0508727700000016 0 0 0
Ni 1.48602500 4.20311500 -1.0508727700000016 0 0 0
Ni 4.45807500 6.30467250 -3.1523552499999994 0 0 0
Ni 1.48602500 2.10155750 -3.1523552499999994 0 0 0
Ni 1.48602500 6.30467250 -3.1523552499999994 0 0 0
Ni 4.45807500 2.10155750 -3.1523552499999994 0 0 0
Ni 1.47199692 4.20261063 2.99242267
Ni 4.51959643 8.40530531 2.97769204
Ni 4.45379525 4.20286281 3.00820549
Ni 1.45143034 8.40564156 3.29177016
Ni 4.38722133 2.09911969 1.06297293
Ni 1.55182619 6.30887561 1.08980372
Ni 1.55337165 2.09743845 1.09006677
Ni 4.38751853 6.30711031 1.06428816
C 2.03240667 8.40597781 4.96264470
O 2.29002397 0.00050437 6.09848165
