&CONTROL
calculation = 'relax'
prefix = 'scf'
pseudo_dir = '/vol0004/mdt0/data/hp150275/u10028/POT_HYBRID_KKJUS_GBRV'
outdir = './data'
tprnfor = .true.
nstep = 70
disk_io = 'non'
/
&SYSTEM
ibrav = 0
ecutwfc = 50.0
ecutrho = 400
occupations = 'smearing'
smearing = 'mp'
degauss = 0.01
assume_isolated = 'esm'
esm_bc = 'bc1'
input_dft = 'BEEF-VDW'
nosym = .true.
nspin = 1
ntyp = 4
nat = 34
/
&ELECTRONS
electron_maxstep = 200
mixing_beta = 0.1
conv_thr = 1e-06
/
&IONS
ion_dynamics = 'bfgs'
upscale = 1.0
/
&CELL
/

K_POINTS {automatic}
7 7 2 0  0  0

ATOMIC_SPECIES
C 12.01 C.pbe-n-rrkjus_psl.1.0.0.UPF
O 15.99 O.pbe-n-rrkjus_psl.1.0.0.UPF
Rh 102.9 Rh.pbe-spn-rrkjus_psl.1.0.0.UPF
V 50.94 V.pbe-spnl-rrkjus_psl.1.0.0.UPF

CELL_PARAMETERS {angstrom}
7.76485000 0.00000000 0.00000000
-0.00000000 7.35846000 0.00000000
0.00000000 0.00000000 25.82360000

ATOMIC_POSITIONS {angstrom}
V 1.94121250 1.83961500 -2.9118691400000003 0 0 0
V 0.00000000 1.83961500 -0.9707091199999986 0 0 0
V 1.94121250 1.83961500 0.97070912
V 3.88242500 1.83961500 2.91186914
V 1.94121250 5.51884500 -2.9118691400000003 0 0 0
V 0.00000000 5.51884500 -0.9707091199999986 0 0 0
V 1.94121250 5.51884500 0.97070912
V 3.88242500 5.51884500 2.91186914
V 5.82363750 1.83961500 -2.9118691400000003 0 0 0
V 3.88242500 1.83961500 -0.9707091199999986 0 0 0
V 5.82363750 1.83961500 0.97070912
V 0.00000000 1.83961500 2.91186914
V 5.82363750 5.51884500 -2.9118691400000003 0 0 0
V 3.88242500 5.51884500 -0.9707091199999986 0 0 0
V 5.82363750 5.51884500 0.97070912
V 0.00000000 5.51884500 2.91186914
Rh 0.00000000 0.00000000 -2.9118691400000003 0 0 0
Rh 1.94121250 0.00000000 -0.9707091199999986 0 0 0
Rh 0.00000000 0.00000000 0.97070912
Rh 1.94121250 -0.00000000 2.91186914
Rh 0.00000000 3.67923000 -2.9118691400000003 0 0 0
Rh 1.94121250 3.67923000 -0.9707091199999986 0 0 0
Rh 0.00000000 3.67923000 0.97070912
Rh 1.94121250 3.67923000 2.91186914
Rh 3.88242500 0.00000000 -2.9118691400000003 0 0 0
Rh 5.82363750 0.00000000 -0.9707091199999986 0 0 0
Rh 3.88242500 -0.00000000 0.97070912
Rh 5.82363750 -0.00000000 2.91186914
Rh 3.88242500 3.67923000 -2.9118691400000003 0 0 0
Rh 5.82363750 3.67923000 -0.9707091199999986 0 0 0
Rh 3.88242500 3.67923000 0.97070912
Rh 5.82363750 3.67923000 2.91186914
C 1.94121250 -0.00000000 4.81171139
O 1.94121250 -0.00000000 5.96189453
