&CONTROL
calculation = 'relax'
prefix = 'scf'
pseudo_dir = '/vol0403/data/hp230205/u10028/POT_HYBRID_KKJUS_GBRV'
outdir = './data'
tprnfor = .true.
nstep = 50
disk_io = 'non'
/
&SYSTEM
ibrav = 0
ecutwfc = 50.0
ecutrho = 400
occupations = 'smearing'
smearing = 'mp'
degauss = 0.01
assume_isolated = 'esm'
esm_bc = 'bc1'
input_dft = 'BEEF-VDW'
nosym = .true.
nspin = 1
ntyp = 6
nat = 34
/
&ELECTRONS
electron_maxstep = 200
mixing_beta = 0.1
conv_thr = 1e-06
/
&IONS
ion_dynamics = 'bfgs'
upscale = 1.0
/
&CELL
/

K_POINTS {automatic}
7 7 2 0  0  0

ATOMIC_SPECIES
C 12.01 C.pbe-n-rrkjus_psl.1.0.0.UPF
Li 6.941 Li.pbe-sl-rrkjus_psl.1.0.0.UPF
O 15.99 O.pbe-n-rrkjus_psl.1.0.0.UPF
Pb 207.2 Pb.pbe-dn-rrkjus_psl.1.0.0.UPF
Sn 118.7 Sn.pbe-dn-rrkjus_psl.1.0.0.UPF
Y 88.90 Y.pbe-spn-rrkjus_psl.1.0.0.UPF


CELL_PARAMETERS {angstrom}
9.36828000 0.00000000 0.00000000
0.00000000 9.64462000 0.00000000
0.00000000 0.00000000 26.65380000

ATOMIC_POSITIONS {angstrom}
Li 0.00009368 9.59109236 1.62614834
Li 0.00000000 0.00000000 -1.1090646200000016 0 0 0
Li 0.00018737 4.74428502 3.16247337
Li 0.00000000 4.82231000 -1.1090646200000016 0 0 0
Li 4.68423368 9.56746304 3.25123052
Li 4.68414000 0.00000000 -1.1090646200000016 0 0 0
Li 4.68442105 4.78315284 3.26429089
Li 4.68414000 4.82231000 -1.1090646200000016 0 0 0
Y 1.74680949 1.59956023 3.50177624
Y 2.34207000 2.41115500 -1.1090646200000016 0 0 0
Y 1.78587522 7.82921318 3.31813156
Y 2.34207000 7.23346500 -1.1090646200000016 0 0 0
Y 7.62250102 1.59936733 3.50284240
Y 7.02621000 2.41115500 -1.1090646200000016 0 0 0
Y 7.58249847 7.82882739 3.31759849
Y 7.02621000 7.23346500 -1.1090646200000016 0 0 0
Sn 0.00009368 2.60771236 1.02030746
Sn 0.00000000 2.41115500 -3.3269273199999994 0 0 0
Sn 0.00000000 6.92252245 0.95873719
Sn 0.00000000 7.23346500 -3.3269273199999994 0 0 0
Sn 4.68404632 2.41385549 1.36840609
Sn 4.68414000 2.41115500 -3.3269273199999994 0 0 0
Sn 4.68498315 7.17521150 1.33455577
Sn 4.68414000 7.23346500 -3.3269273199999994 0 0 0
Pb 2.68410590 9.64413777 0.90569612
Pb 2.34207000 0.00000000 -3.3269273199999994 0 0 0
Pb 2.38928613 4.78054880 1.36307533
Pb 2.34207000 4.82231000 -3.3269273199999994 0 0 0
Pb 6.68464251 9.64365554 0.90489651
Pb 7.02621000 0.00000000 -3.3269273199999994 0 0 0
Pb 6.97918123 4.78064524 1.36334187
Pb 7.02621000 4.82231000 -3.3269273199999994 0 0 0
C 9.36781159 9.44507281 3.79203613
O 0.00018737 1.03380682 4.65908424
