&CONTROL
calculation = 'relax'
prefix = 'scf'
pseudo_dir = '/vol0004/mdt0/data/hp150275/u10028/POT_HYBRID_KKJUS_GBRV'
outdir = './data'
tprnfor = .true.
nstep = 50
disk_io = 'non'
/
&SYSTEM
ibrav = 0
ecutwfc = 50.0
ecutrho = 400
occupations = 'smearing'
smearing = 'mp'
degauss = 0.01
assume_isolated = 'esm'
esm_bc = 'bc1'
input_dft = 'BEEF-VDW'
nosym = .true.
nspin = 2
ntyp = 2
nat = 32
starting_magnetization(1) = 0.1
starting_magnetization(2) = 0.1
/
&ELECTRONS
electron_maxstep = 200
mixing_beta = 0.1
conv_thr = 1e-06
/
&IONS
ion_dynamics = 'bfgs'
upscale = 1.0
/
&CELL
/

K_POINTS {automatic}
9 6 2 0  0  0

ATOMIC_SPECIES
Ca 40.07 Ca.pbe-spn-rrkjus_psl.1.0.0.UPF
Ni 58.69 ni_pbe_v1.4.uspp.F.UPF

CELL_PARAMETERS {angstrom}
6.91175000 0.00000000 0.00000000
0.00000000 9.77469000 0.00000000
0.00000000 0.00000000 27.33100000

ATOMIC_POSITIONS {angstrom}
Ca 0.00000000 0.00000000 -3.665633719999999 0 0 0
Ca 0.00000000 2.44367250 -1.2219690099999987 0 0 0
Ca 0.00006912 0.00000000 1.22798183
Ca 0.00000000 2.44357475 3.78206378
Ca 0.00000000 4.88734500 -3.665633719999999 0 0 0
Ca 0.00000000 7.33101750 -1.2219690099999987 0 0 0
Ca 0.00000000 4.88734500 1.22798183
Ca 0.00000000 7.33101750 3.78206378
Ca 3.45587500 0.00000000 -3.665633719999999 0 0 0
Ca 3.45587500 2.44367250 -1.2219690099999987 0 0 0
Ca 3.45580588 0.00000000 1.22770852
Ca 3.45587500 2.44377025 3.78206378
Ca 3.45587500 4.88734500 -3.665633719999999 0 0 0
Ca 3.45587500 7.33101750 -1.2219690099999987 0 0 0
Ca 3.45587500 4.88734500 1.22798183
Ca 3.45587500 7.33082201 3.78206378
Ni 1.72793750 2.44367250 -3.665633719999999 0 0 0
Ni 1.72793750 0.00000000 -1.2219690099999987 0 0 0
Ni 1.72821397 2.44406349 1.36272366
Ni 1.72842132 9.77459225 3.40926894
Ni 1.72793750 7.33101750 -3.665633719999999 0 0 0
Ni 1.72793750 4.88734500 -1.2219690099999987 0 0 0
Ni 1.72793750 7.33062651 1.36272366
Ni 1.72745368 4.88724725 3.40899563
Ni 5.18381250 2.44367250 -3.665633719999999 0 0 0
Ni 5.18381250 0.00000000 -1.2219690099999987 0 0 0
Ni 5.18346691 2.44396574 1.36272366
Ni 5.18332868 0.00029324 3.40899563
Ni 5.18381250 7.33101750 -3.665633719999999 0 0 0
Ni 5.18381250 4.88734500 -1.2219690099999987 0 0 0
Ni 5.18388162 7.33062651 1.36299697
Ni 5.18429632 4.88705176 3.40899563
