&CONTROL
calculation = 'relax'
prefix = 'scf'
pseudo_dir = '/vol0403/data/hp230205/u10028/POT_HYBRID_KKJUS_GBRV'
outdir = './data'
tprnfor = .true.
nstep = 50
disk_io = 'non'
/
&SYSTEM
ibrav = 0
ecutwfc = 50.0
ecutrho = 400
occupations = 'smearing'
smearing = 'mp'
degauss = 0.01
assume_isolated = 'esm'
esm_bc = 'bc1'
input_dft = 'BEEF-VDW'
nosym = .true.
nspin = 1
ntyp = 6
nat = 18
/
&ELECTRONS
electron_maxstep = 200
mixing_beta = 0.1
conv_thr = 1e-06
/
&IONS
ion_dynamics = 'bfgs'
upscale = 1.0
/
&CELL
/

K_POINTS {automatic}
8 8 1 0 0 0

ATOMIC_SPECIES
C 12.01 C.pbe-n-rrkjus_psl.1.0.0.UPF
Cu 63.54 Cu.pbe-dn-rrkjus_psl.1.0.0.UPF
Ga 69.72 Ga.pbe-dnl-rrkjus_psl.1.0.0.UPF
Li 6.941 Li.pbe-sl-rrkjus_psl.1.0.0.UPF
O 15.99 O.pbe-n-rrkjus_psl.1.0.0.UPF
Pd 106.4 Pd.pbe-n-rrkjus_psl.1.0.0.UPF


CELL_PARAMETERS {angstrom}
6.02537000 0.00000000 0.00000000
0.00000000 6.02537000 0.00000000
0.00000000 0.00000000 24.51900000

ATOMIC_POSITIONS {angstrom}
Li 1.50634250 1.50634250 -0.7532236799999978 0 0 0
Li 1.50851163 4.51685837 2.54433663
Li 4.51987105 1.50549895 2.62157148
Li 4.51902750 4.51902750 -0.7532236799999978 0 0 0
Ga 4.51902750 1.50634250 -0.7532236799999978 0 0 0
Ga 4.51595456 4.51655710 2.26408446
Ga 1.50887316 1.50941544 2.26408446
Ga 1.50634250 4.51902750 -0.7532236799999978 0 0 0
Cu 0.00000000 0.00000000 -2.2594258499999995 0 0 0
Cu 6.02362264 3.01141967 0.80642991
Cu 3.01389007 0.00180761 0.80642991
Cu 3.01268500 3.01268500 -2.2594258499999995 0 0 0
Pd 0.00000000 3.01268500 -2.2594258499999995 0 0 0
Pd 0.00078330 6.02452645 0.86968893
Pd 3.01401058 3.01135942 0.86650146
Pd 3.01268500 0.00000000 -2.2594258499999995 0 0 0
C 4.52077486 1.50465540 4.72652763
O 4.52119663 1.50417337 5.86788708
