&CONTROL
calculation = 'relax'
prefix = 'scf'
pseudo_dir = '/vol0004/mdt0/data/hp150275/u10028/POT_KKJUS'
outdir = './data'
tprnfor = .true.
nstep = 50
disk_io = 'non'
/
&SYSTEM
ibrav = 0
ecutwfc = 50.0
ecutrho = 400
occupations = 'smearing'
smearing = 'mp'
degauss = 0.01
assume_isolated = 'esm'
esm_bc = 'bc1'
input_dft = 'BEEF-VDW'
nosym = .true.
nspin = 1
ntyp = 4
nat = 34
/
&ELECTRONS
electron_maxstep = 200
mixing_beta = 0.1
conv_thr = 1e-06
/
&IONS
ion_dynamics = 'bfgs'
upscale = 1.0
/
&CELL
/

K_POINTS {automatic}
8 6 1 0 0 0

ATOMIC_SPECIES
C 12.01 C.pbe-n-rrkjus_psl.1.0.0.UPF
Li 6.941 Li.pbe-sl-rrkjus_psl.1.0.0.UPF
O 15.99 O.pbe-n-rrkjus_psl.1.0.0.UPF
Pb 207.2 Pb.pbe-dn-rrkjus_psl.1.0.0.UPF

CELL_PARAMETERS {angstrom}
6.73051000 0.00000000 0.00000000
0.00000000 9.51837000 0.00000000
0.00000000 0.00000000 27.13880000

ATOMIC_POSITIONS {angstrom}
Li 1.68262750 0.00000000 -1.1897649900000005 0 0 0
Li 5.04788250 4.75918500 -1.1897649900000005 0 0 0
Li 5.04788250 0.00000000 -1.1897649900000005 0 0 0
Li 1.68262750 4.75918500 -1.1897649900000005 0 0 0
Li 5.04788250 7.13877750 -3.5692949799999987 0 0 0
Li 1.68262750 2.37959250 -3.5692949799999987 0 0 0
Li 1.68262750 7.13877750 -3.5692949799999987 0 0 0
Li 5.04788250 2.37959250 -3.5692949799999987 0 0 0
Li 0.00000000 7.13877750 -1.1897649900000005 0 0 0
Li 3.36525500 0.00000000 -3.5692949799999987 0 0 0
Li 0.00000000 2.37959250 -1.1897649900000005 0 0 0
Li 3.36525500 4.75918500 -3.5692949799999987 0 0 0
Li 1.81346861 4.80810942 3.55328308
Li 4.91697408 9.46944558 3.55328308
Li 4.91710869 4.80810942 3.55301170
Li 1.81340131 9.46944558 3.55301170
Li 5.11767789 2.37959250 1.07306815
Li 1.68969454 7.13887268 1.17945225
Li 1.61283211 2.37949732 1.07306815
Li 5.04081546 7.13877750 1.17945225
Li 0.00000000 2.37949732 3.31229054
Li 3.36525500 4.90338831 1.06438374
Li 0.00000000 7.13877750 3.39696360
Li 3.36525500 9.37416669 1.06438374
Pb 0.00000000 0.00000000 -3.5692949799999987 0 0 0
Pb 3.36525500 2.37959250 -1.1897649900000005 0 0 0
Pb 3.36525500 7.13877750 -1.1897649900000005 0 0 0
Pb 0.00000000 4.75918500 -3.5692949799999987 0 0 0
Pb 0.00013461 4.78793048 1.28827884
Pb 3.36525500 7.13877750 3.57255163
Pb 3.36518769 2.37949732 3.50958962
Pb 6.73037539 9.48971971 1.28800745
C 3.36525500 2.37959250 5.91490146
O 3.36525500 2.37968768 7.06748630
