&CONTROL
calculation = 'relax'
prefix = 'scf'
pseudo_dir = '/vol0004/mdt0/data/hp150275/u10028/POT_KKJUS'
outdir = './data'
tprnfor = .true.
nstep = 50
disk_io = 'non'
/
&SYSTEM
ibrav = 0
ecutwfc = 50.0
ecutrho = 400
occupations = 'smearing'
smearing = 'mp'
degauss = 0.01
assume_isolated = 'esm'
esm_bc = 'bc1'
input_dft = 'BEEF-VDW'
nosym = .true.
nspin = 1
ntyp = 4
nat = 18
/
&ELECTRONS
electron_maxstep = 200
mixing_beta = 0.1
conv_thr = 1e-06
/
&IONS
ion_dynamics = 'bfgs'
upscale = 1.0
/
&CELL
/

K_POINTS {automatic}
6 8 1 0 0 0

ATOMIC_SPECIES
C 12.01 C.pbe-n-rrkjus_psl.1.0.0.UPF
O 15.99 O.pbe-n-rrkjus_psl.1.0.0.UPF
Pd 106.4 Pd.pbe-n-rrkjus_psl.1.0.0.UPF
Ti 47.86 Ti.pbe-spn-rrkjus_psl.1.0.0.UPF

CELL_PARAMETERS {angstrom}
7.90864000 0.00000000 0.00000000
0.00000000 5.59226000 0.00000000
0.00000000 0.00000000 24.19420000

ATOMIC_POSITIONS {angstrom}
Ti 0.00000000 0.00000000 1.85303378
Ti 0.00000000 2.79613000 -0.6989704400000001 0 0 0
Ti 3.95432000 0.00000000 1.75262785
Ti 3.95432000 2.79613000 -0.6989704400000001 0 0 0
Pd 0.00000000 2.79613000 2.05457146
Pd 1.96948862 4.20823157 0.79236005
Pd 1.96948862 1.38402843 0.79236005
Pd 0.00000000 0.00000000 -0.6989704400000001 0 0 0
Pd 1.97716000 1.39806500 -2.097153259999999 0 0 0
Pd 1.97716000 4.19419500 -2.097153259999999 0 0 0
Pd 3.95432000 2.79613000 2.01924793
Pd 5.93915138 4.20823157 0.79236005
Pd 5.93915138 1.38402843 0.79236005
Pd 3.95432000 0.00000000 -0.6989704400000001 0 0 0
Pd 5.93148000 1.39806500 -2.097153259999999 0 0 0
Pd 5.93148000 4.19419500 -2.097153259999999 0 0 0
C 0.00000000 0.00000000 4.03026984
O 0.00000000 0.00000000 5.17997822
