&CONTROL
calculation = 'relax'
prefix = 'scf'
pseudo_dir = '/vol0004/mdt0/data/hp150275/u10028/POT_KKJUS'
outdir = './data'
tprnfor = .true.
nstep = 50
disk_io = 'non'
/
&SYSTEM
ibrav = 0
ecutwfc = 50.0
ecutrho = 400
occupations = 'smearing'
smearing = 'mp'
degauss = 0.01
assume_isolated = 'esm'
esm_bc = 'bc1'
input_dft = 'BEEF-VDW'
nosym = .true.
nspin = 1
ntyp = 2
nat = 32
/
&ELECTRONS
electron_maxstep = 200
mixing_beta = 0.1
conv_thr = 1e-06
/
&IONS
ion_dynamics = 'bfgs'
upscale = 1.0
/
&CELL
/

K_POINTS {automatic}
8 6 1 0 0 0

ATOMIC_SPECIES
Li 6.941 Li.pbe-sl-rrkjus_psl.1.0.0.UPF
Pd 106.4 Pd.pbe-n-rrkjus_psl.1.0.0.UPF

CELL_PARAMETERS {angstrom}
6.06651000 0.00000000 0.00000000
0.00000000 8.57934000 0.00000000
0.00000000 0.00000000 26.43450000

ATOMIC_POSITIONS {angstrom}
Li 0.00000000 0.00000000 -3.217342989999999 0 0 0
Li 0.00000000 2.14483500 -1.0724476599999981 0 0 0
Li 0.00000000 0.00000000 1.03385329
Li 0.00000000 2.14483500 3.34634336
Li 0.00000000 4.28967000 -3.217342989999999 0 0 0
Li 0.00000000 6.43450500 -1.0724476599999981 0 0 0
Li 0.00000000 4.28967000 1.03385329
Li 0.00000000 6.43450500 3.34634336
Li 3.03325500 0.00000000 -3.217342989999999 0 0 0
Li 3.03325500 2.14483500 -1.0724476599999981 0 0 0
Li 3.03325500 0.00000000 1.02486557
Li 3.03325500 2.14483500 3.35480239
Li 3.03325500 4.28967000 -3.217342989999999 0 0 0
Li 3.03325500 6.43450500 -1.0724476599999981 0 0 0
Li 3.03325500 4.28967000 1.02512991
Li 3.03325500 6.43450500 3.35453805
Pd 1.51662750 2.14483500 -3.217342989999999 0 0 0
Pd 1.51662750 0.00000000 -1.0724476599999981 0 0 0
Pd 1.51644550 2.14483500 1.09068747
Pd 1.51850812 0.00000000 3.08067663
Pd 1.51662750 6.43450500 -3.217342989999999 0 0 0
Pd 1.51662750 4.28967000 -1.0724476599999981 0 0 0
Pd 1.51644550 6.43450500 1.09068747
Pd 1.51850812 4.28967000 3.08067663
Pd 4.54988250 2.14483500 -3.217342989999999 0 0 0
Pd 4.54988250 0.00000000 -1.0724476599999981 0 0 0
Pd 4.55006450 2.14483500 1.09068747
Pd 4.54800188 0.00000000 3.08067663
Pd 4.54988250 6.43450500 -3.217342989999999 0 0 0
Pd 4.54988250 4.28967000 -1.0724476599999981 0 0 0
Pd 4.55006450 6.43450500 1.09068747
Pd 4.54800188 4.28967000 3.08067663
