&CONTROL
calculation = 'relax'
prefix = 'scf'
pseudo_dir = '/vol0403/data/hp230205/u10028/POT_HYBRID_KKJUS_GBRV'
outdir = './data'
tprnfor = .true.
nstep = 70
disk_io = 'non'
/
&SYSTEM
ibrav = 0
ecutwfc = 50.0
ecutrho = 400
occupations = 'smearing'
smearing = 'mp'
degauss = 0.01
assume_isolated = 'esm'
esm_bc = 'bc1'
input_dft = 'BEEF-VDW'
nosym = .true.
nspin = 1
ntyp = 4
nat = 16
/
&ELECTRONS
electron_maxstep = 200
mixing_beta = 0.1
conv_thr = 1e-06
/
&IONS
ion_dynamics = 'bfgs'
upscale = 1.0
/
&CELL
/

K_POINTS {automatic}
12 7 2 0  0  0

ATOMIC_SPECIES
Ge 72.64 Ge.pbe-dn-rrkjus_psl.1.0.0.UPF
In 114.8 In.pbe-dn-rrkjus_psl.1.0.0.UPF
Pd 106.4 Pd.pbe-n-rrkjus_psl.1.0.0.UPF
Sc 44.95 Sc.pbe-spn-rrkjus_psl.1.0.0.UPF


CELL_PARAMETERS {angstrom}
5.71274000 0.00000000 0.00000000
-0.00000000 9.28368000 0.00000000
0.00000000 0.00000000 24.27220000

ATOMIC_POSITIONS {angstrom}
Sc 2.89350281 -0.00000000 2.02575781
Sc 5.49554163 0.00000000 -0.7121463500000011 0 0 0
Sc 2.89344568 4.64184000 2.02575781
Sc 5.49554163 4.64184000 -0.7121463500000011 0 0 0
In 1.26474351 2.32092000 0.89006157
In 3.95875744 2.32092000 -2.13619632 0 0 0
In 1.26468638 6.96276000 0.89006157
In 3.95875744 6.96276000 -2.13619632 0 0 0
Ge 5.69217414 0.00009284 2.20852748
Ge 2.63917163 0.00000000 -0.7121463500000011 0 0 0
Ge 5.69217414 4.64174716 2.20852748
Ge 2.63917163 4.64184000 -0.7121463500000011 0 0 0
Pd 4.14247916 2.32092000 0.98617949
Pd 1.10238744 2.32092000 -2.13619632 0 0 0
Pd 4.14242203 6.96276000 0.98617949
Pd 1.10238744 6.96276000 -2.13619632 0 0 0
