&CONTROL
calculation = 'relax'
prefix = 'scf'
pseudo_dir = '/vol0004/mdt0/data/hp150275/u10028/POT_KKJUS'
outdir = './data'
tprnfor = .true.
nstep = 50
disk_io = 'non'
/
&SYSTEM
ibrav = 0
ecutwfc = 50.0
ecutrho = 400
occupations = 'smearing'
smearing = 'mp'
degauss = 0.01
assume_isolated = 'esm'
esm_bc = 'bc1'
input_dft = 'BEEF-VDW'
nosym = .true.
nspin = 1
ntyp = 4
nat = 18
/
&ELECTRONS
electron_maxstep = 200
mixing_beta = 0.1
conv_thr = 1e-06
/
&IONS
ion_dynamics = 'bfgs'
upscale = 1.0
/
&CELL
/

K_POINTS {automatic}
10 10 2 0  0  0

ATOMIC_SPECIES
C 12.01 C.pbe-n-rrkjus_psl.1.0.0.UPF
O 15.99 O.pbe-n-rrkjus_psl.1.0.0.UPF
Ru 101.0 Ru.pbe-spn-rrkjus_psl.1.0.0.UPF
V 50.94 V.pbe-spnl-rrkjus_psl.1.0.0.UPF

CELL_PARAMETERS {angstrom}
6.03636000 0.00000000 0.00000000
0.00000000 6.03636000 0.00000000
0.00000000 0.00000000 24.52730000

ATOMIC_POSITIONS {angstrom}
V 0.00000000 0.00000000 -2.0149176900000008 0 0 0
V 6.02694328 6.02694328 1.09342703
V 0.00000000 3.01818000 -2.0149176900000008 0 0 0
V 6.02706401 3.02789854 1.09367231
V 3.01818000 0.00000000 -2.0149176900000008 0 0 0
V 3.02783818 6.02706401 1.09367231
V 3.01818000 3.01818000 -2.0149176900000008 0 0 0
V 3.02777781 3.02777781 1.09416285
Ru 1.50909000 1.50909000 -0.5057529299999999 0 0 0
Ru 1.50884855 1.50872782 2.42452361
Ru 1.50909000 4.52727000 -0.5057529299999999 0 0 0
Ru 1.50915036 4.52696818 2.33598005
Ru 4.52727000 1.50909000 -0.5057529299999999 0 0 0
Ru 4.52684745 1.50909000 2.33598005
Ru 4.52727000 4.52727000 -0.5057529299999999 0 0 0
Ru 4.52727000 4.52733036 2.35167752
C 1.50752055 1.50752055 4.34329428
O 1.50806382 1.50806382 5.50319030
