&CONTROL
calculation = 'relax'
prefix = 'scf'
pseudo_dir = '/vol0004/mdt0/data/hp150275/u10028/POT_KKJUS'
outdir = './data'
tprnfor = .true.
nstep = 50
disk_io = 'non'
/
&SYSTEM
ibrav = 0
ecutwfc = 50.0
ecutrho = 400
occupations = 'smearing'
smearing = 'mp'
degauss = 0.01
assume_isolated = 'esm'
esm_bc = 'bc1'
input_dft = 'BEEF-VDW'
nosym = .true.
nspin = 1
ntyp = 2
nat = 32
/
&ELECTRONS
electron_maxstep = 200
mixing_beta = 0.1
conv_thr = 1e-06
/
&IONS
ion_dynamics = 'bfgs'
upscale = 1.0
/
&CELL
/

K_POINTS {automatic}
9 6 2 0  0  0

ATOMIC_SPECIES
In 114.8 In.pbe-dn-rrkjus_psl.1.0.0.UPF
Ni 58.69 Ni.pbe-spn-rrkjus_psl.1.0.0.UPF

CELL_PARAMETERS {angstrom}
6.37073000 0.00000000 0.00000000
0.00000000 9.00957000 0.00000000
0.00000000 0.00000000 26.75720000

ATOMIC_POSITIONS {angstrom}
In 0.00000000 0.00000000 -3.378631640000002 0 0 0
In 0.00000000 2.25239250 -1.1262105499999997 0 0 0
In 6.37041146 0.00009010 1.12085911
In 6.37066629 2.25221231 3.58011336
In 0.00000000 4.50478500 -3.378631640000002 0 0 0
In 0.00000000 6.75717750 -1.1262105499999997 0 0 0
In 6.37066629 4.50478500 1.12085911
In 6.37053888 6.75735769 3.58011336
In 3.18536500 0.00000000 -3.378631640000002 0 0 0
In 3.18536500 2.25239250 -1.1262105499999997 0 0 0
In 3.18561983 0.00000000 1.12112668
In 3.18549241 2.25221231 3.58011336
In 3.18536500 4.50478500 -3.378631640000002 0 0 0
In 3.18536500 6.75717750 -1.1262105499999997 0 0 0
In 3.18549241 4.50478500 1.12059154
In 3.18555612 6.75735769 3.58011336
Ni 1.59268250 2.25239250 -3.378631640000002 0 0 0
Ni 1.59268250 0.00000000 -1.1262105499999997 0 0 0
Ni 1.59274621 2.25203212 1.10373450
Ni 1.59255509 0.00018019 3.22638318
Ni 1.59268250 6.75717750 -3.378631640000002 0 0 0
Ni 1.59268250 4.50478500 -1.1262105499999997 0 0 0
Ni 1.59274621 6.75726760 1.10400207
Ni 1.59261879 4.50496519 3.22638318
Ni 4.77804750 2.25239250 -3.378631640000002 0 0 0
Ni 4.77804750 0.00000000 -1.1262105499999997 0 0 0
Ni 4.77798379 2.25239250 1.10293178
Ni 4.77804750 0.00009010 3.22798861
Ni 4.77804750 6.75717750 -3.378631640000002 0 0 0
Ni 4.77804750 4.50478500 -1.1262105499999997 0 0 0
Ni 4.77811121 6.75735769 1.10266421
Ni 4.77798379 4.50514538 3.22718589
