&CONTROL
calculation = 'relax'
prefix = 'scf'
pseudo_dir = '/vol0004/mdt0/data/hp150275/u10028/POT_KKJUS'
outdir = './data'
tprnfor = .true.
nstep = 50
disk_io = 'non'
/
&SYSTEM
ibrav = 0
ecutwfc = 50.0
ecutrho = 400
occupations = 'smearing'
smearing = 'mp'
degauss = 0.01
assume_isolated = 'esm'
esm_bc = 'bc1'
input_dft = 'BEEF-VDW'
nosym = .true.
nspin = 1
ntyp = 4
nat = 34
/
&ELECTRONS
electron_maxstep = 200
mixing_beta = 0.1
conv_thr = 1e-06
/
&IONS
ion_dynamics = 'bfgs'
upscale = 1.0
/
&CELL
/

K_POINTS {automatic}
8 6 1 0 0 0

ATOMIC_SPECIES
C 12.01 C.pbe-n-rrkjus_psl.1.0.0.UPF
Ir 192.2 Ir.pbe-n-rrkjus_psl.0.2.3.UPF
O 15.99 O.pbe-n-rrkjus_psl.1.0.0.UPF
Zr 91.22 Zr.pbe-spn-rrkjus_psl.1.0.0.UPF

CELL_PARAMETERS {angstrom}
6.65024000 0.00000000 0.00000000
0.00000000 9.40485000 0.00000000
0.00000000 0.00000000 27.05360000

ATOMIC_POSITIONS {angstrom}
Zr 1.66256000 2.35121250 -3.526707299999998 0 0 0
Zr 1.66256000 0.00000000 -1.1754789199999998 0 0 0
Zr 1.66216099 2.33936239 1.17060927
Zr 1.66309202 0.00000000 3.59515290
Zr 1.66256000 7.05363750 -3.526707299999998 0 0 0
Zr 1.66256000 4.70242500 -1.1754789199999998 0 0 0
Zr 1.66216099 7.06548761 1.17060927
Zr 1.66202798 4.70242500 3.53482338
Zr 4.98768000 2.35121250 -3.526707299999998 0 0 0
Zr 4.98768000 0.00000000 -1.1754789199999998 0 0 0
Zr 4.98728099 2.35732565 1.16763338
Zr 4.98787951 0.00000000 3.52589569
Zr 4.98768000 7.05363750 -3.526707299999998 0 0 0
Zr 4.98768000 4.70242500 -1.1754789199999998 0 0 0
Zr 4.98728099 7.04752435 1.16763338
Zr 4.98708148 4.70242500 3.53238855
Ir 0.00000000 0.00000000 -3.526707299999998 0 0 0
Ir 0.00000000 2.35121250 -1.1754789199999998 0 0 0
Ir 6.62922524 0.00000000 1.17060927
Ir 0.00066502 2.36644836 3.28106061
Ir 0.00000000 4.70242500 -3.526707299999998 0 0 0
Ir 0.00000000 7.05363750 -1.1754789199999998 0 0 0
Ir 0.00671674 4.70242500 1.19035840
Ir 0.00066502 7.03840164 3.28106061
Ir 3.32512000 0.00000000 -3.526707299999998 0 0 0
Ir 3.32512000 2.35121250 -1.1754789199999998 0 0 0
Ir 3.34527023 0.00000000 1.17277356
Ir 3.32365695 2.36936386 3.28133114
Ir 3.32512000 4.70242500 -3.526707299999998 0 0 0
Ir 3.32512000 7.05363750 -1.1754789199999998 0 0 0
Ir 3.31747222 4.70242500 1.19062894
Ir 3.32365695 7.03548614 3.28133114
C 1.67512895 0.00000000 5.90796517
O 1.67672501 0.00000000 7.05720210
