&CONTROL
calculation = 'relax'
prefix = 'scf'
pseudo_dir = '/vol0004/mdt0/data/hp150275/u10028/POT_KKJUS'
outdir = './data'
tprnfor = .true.
nstep = 50
disk_io = 'non'
/
&SYSTEM
ibrav = 0
ecutwfc = 50.0
ecutrho = 400
occupations = 'smearing'
smearing = 'mp'
degauss = 0.01
assume_isolated = 'esm'
esm_bc = 'bc1'
input_dft = 'BEEF-VDW'
nosym = .true.
nspin = 1
ntyp = 4
nat = 17
/
&ELECTRONS
electron_maxstep = 200
mixing_beta = 0.1
conv_thr = 1e-06
/
&IONS
ion_dynamics = 'bfgs'
upscale = 1.0
/
&CELL
/

K_POINTS {automatic}
10 10 2 0  0  0

ATOMIC_SPECIES
C 12.01 C.pbe-n-rrkjus_psl.1.0.0.UPF
Ge 72.64 Ge.pbe-dn-rrkjus_psl.1.0.0.UPF
Li 6.941 Li.pbe-sl-rrkjus_psl.1.0.0.UPF
Pd 106.4 Pd.pbe-n-rrkjus_psl.1.0.0.UPF

CELL_PARAMETERS {angstrom}
6.13924000 0.00000000 0.00000000
-0.00000000 6.13924000 0.00000000
0.00000000 0.00000000 24.60440000

ATOMIC_POSITIONS {angstrom}
Li 0.00000000 0.00000000 -2.3022337099999994 0 0 0
Li 3.06962000 3.06962000 -2.3022337099999994 0 0 0
Li 3.06962000 -0.00000000 0.76741124
Li 0.00000000 3.06962000 0.76741124
Ge 0.00000000 0.00000000 0.76741124
Ge 3.06962000 0.00000000 -2.3022337099999994 0 0 0
Ge 0.00000000 3.06962000 -2.3022337099999994 0 0 0
Ge 3.06962000 3.06962000 0.76741124
Pd 1.53481000 1.53481000 -0.7674112399999977 0 0 0
Pd 4.60443000 4.60443000 2.30223371
Pd 4.60443000 1.53481000 -0.7674112399999977 0 0 0
Pd 1.53481000 4.60443000 2.30223371
Pd 4.60443000 4.60443000 -0.7674112399999977 0 0 0
Pd 1.53481000 1.53481000 2.30223371
Pd 1.53481000 4.60443000 -0.7674112399999977 0 0 0
Pd 4.60443000 1.53481000 2.30223371
C 0.00000000 0.00000000 3.10212275
