&CONTROL
calculation = 'relax'
prefix = 'scf'
pseudo_dir = '/vol0403/data/hp230205/u10028/POT_HYBRID_KKJUS_GBRV'
outdir = './data'
tprnfor = .true.
nstep = 50
disk_io = 'non'
/
&SYSTEM
ibrav = 0
ecutwfc = 50.0
ecutrho = 400
occupations = 'smearing'
smearing = 'mp'
degauss = 0.01
assume_isolated = 'esm'
esm_bc = 'bc1'
input_dft = 'BEEF-VDW'
nosym = .true.
nspin = 2
ntyp = 5
nat = 17
starting_magnetization(1) = 0.0
starting_magnetization(2) = 0.0
starting_magnetization(3) = 0.0
starting_magnetization(4) = 0.1
starting_magnetization(5) = 0.0
/
&ELECTRONS
electron_maxstep = 400
mixing_beta = 0.05
conv_thr = 1e-06
/
&IONS
ion_dynamics = 'bfgs'
upscale = 1.0
/
&CELL
/

K_POINTS {automatic}
10 10 2 0  0  0

ATOMIC_SPECIES
C 12.01 C.pbe-n-rrkjus_psl.1.0.0.UPF
Ge 72.64 Ge.pbe-dn-rrkjus_psl.1.0.0.UPF
Li 6.941 Li.pbe-sl-rrkjus_psl.1.0.0.UPF
Mn 54.93 mn_pbe_v1.5.uspp.F.UPF
Pd 106.4 Pd.pbe-n-rrkjus_psl.1.0.0.UPF


CELL_PARAMETERS {angstrom}
6.14713000 0.00000000 0.00000000
0.00000000 6.14713000 0.00000000
0.00000000 0.00000000 24.61040000

ATOMIC_POSITIONS {angstrom}
Li 0.04007929 3.03520691 2.62863682
Li 0.00000000 0.00000000 23.84206331
Li 3.07356500 3.07356500 23.84206331
Li 3.03520691 0.04007929 2.62863682
Mn 1.53573749 1.53573749 0.63544053
Mn 1.53678250 4.61034750 22.30514383
Mn 4.61034750 1.53678250 22.30514383
Mn 4.61016309 4.61022456 0.85988738
Ge 0.11267689 0.11273836 2.36038346
Ge 0.00000000 3.07356500 23.84206331
Ge 3.07356500 0.00000000 23.84206331
Ge 2.95812190 2.95812190 2.36112178
Pd 4.61022456 1.53813487 0.80500618
Pd 4.61034750 4.61034750 22.30514383
Pd 1.53678250 1.53678250 22.30514383
Pd 1.53813487 4.61022456 0.80500618
C 1.53438512 1.53438512 2.50681534
