&CONTROL
calculation = 'relax'
prefix = 'scf'
pseudo_dir = '/vol0004/mdt0/data/hp150275/u10028/POT_KKJUS'
outdir = './data'
tprnfor = .true.
nstep = 50
disk_io = 'non'
/
&SYSTEM
ibrav = 0
ecutwfc = 50.0
ecutrho = 400
occupations = 'smearing'
smearing = 'mp'
degauss = 0.01
assume_isolated = 'esm'
esm_bc = 'bc1'
input_dft = 'BEEF-VDW'
nosym = .true.
nspin = 1
ntyp = 4
nat = 33
/
&ELECTRONS
electron_maxstep = 200
mixing_beta = 0.1
conv_thr = 1e-06
/
&IONS
ion_dynamics = 'bfgs'
upscale = 1.0
/
&CELL
/

K_POINTS {automatic}
9 6 2 0  0  0

ATOMIC_SPECIES
Au 196.9 Au.pbe-n-rrkjus_psl.1.0.0.UPF
C 12.01 C.pbe-n-rrkjus_psl.1.0.0.UPF
In 114.8 In.pbe-dn-rrkjus_psl.1.0.0.UPF
Y 88.90 Y.pbe-spn-rrkjus_psl.1.0.0.UPF

CELL_PARAMETERS {angstrom}
7.06522000 0.00000000 0.00000000
0.00000000 9.99173000 0.00000000
0.00000000 0.00000000 27.49380000

ATOMIC_POSITIONS {angstrom}
Y 0.00000000 0.00000000 -3.7468550600000015 0 0 0
Y 3.53261000 2.49793250 -1.2490433299999992 0 0 0
Y 3.53261000 7.49379750 -1.2490433299999992 0 0 0
Y 0.00000000 4.99586500 -3.7468550600000015 0 0 0
Y 0.00000000 4.99586500 1.54157737
Y 3.53261000 7.38039136 3.58271708
Y 3.53261000 2.61133864 3.58271708
Y 0.00000000 0.00000000 1.38018876
In 0.00000000 7.49379750 -1.2490433299999992 0 0 0
In 3.53261000 0.00000000 -3.7468550600000015 0 0 0
In 0.00000000 2.49793250 -1.2490433299999992 0 0 0
In 3.53261000 4.99586500 -3.7468550600000015 0 0 0
In 0.00000000 2.41749907 3.82658708
In 3.53261000 4.99586500 1.17645970
In 0.00000000 7.57423093 3.82658708
In 3.53261000 0.00000000 1.21330139
Au 1.76630500 0.00000000 -1.2490433299999992 0 0 0
Au 5.29891500 4.99586500 -1.2490433299999992 0 0 0
Au 5.29891500 0.00000000 -1.2490433299999992 0 0 0
Au 1.76630500 4.99586500 -1.2490433299999992 0 0 0
Au 5.29891500 7.49379750 -3.7468550600000015 0 0 0
Au 1.76630500 2.49793250 -3.7468550600000015 0 0 0
Au 1.76630500 7.49379750 -3.7468550600000015 0 0 0
Au 5.29891500 2.49793250 -3.7468550600000015 0 0 0
Au 1.74934847 4.99586500 4.06110920
Au 4.95271922 0.00000000 4.18345661
Au 5.31587153 4.99586500 4.06110920
Au 2.11250078 0.00000000 4.18345661
Au 5.32781175 2.51391927 1.20835251
Au 1.73740825 7.47781073 1.20835251
Au 1.73740825 2.51391927 1.20835251
Au 5.32781175 7.47781073 1.20835251
C 0.00000000 0.00000000 3.75482827
