&CONTROL
calculation = 'relax'
prefix = 'scf'
pseudo_dir = '/vol0403/data/hp230205/u10028/POT_HYBRID_KKJUS_GBRV'
outdir = './data'
tprnfor = .true.
nstep = 50
disk_io = 'non'
/
&SYSTEM
ibrav = 0
ecutwfc = 50.0
ecutrho = 400
occupations = 'smearing'
smearing = 'mp'
degauss = 0.01
assume_isolated = 'esm'
esm_bc = 'bc1'
input_dft = 'BEEF-VDW'
nosym = .true.
nspin = 1
ntyp = 5
nat = 33
/
&ELECTRONS
electron_maxstep = 200
mixing_beta = 0.1
conv_thr = 1e-06
/
&IONS
ion_dynamics = 'bfgs'
upscale = 1.0
/
&CELL
/

K_POINTS {automatic}
9 6 2 0  0  0

ATOMIC_SPECIES
Au 196.9 Au.pbe-n-rrkjus_psl.1.0.0.UPF
C 12.01 C.pbe-n-rrkjus_psl.1.0.0.UPF
Ge 72.64 Ge.pbe-dn-rrkjus_psl.1.0.0.UPF
Li 6.941 Li.pbe-sl-rrkjus_psl.1.0.0.UPF
Pd 106.4 Pd.pbe-n-rrkjus_psl.1.0.0.UPF


CELL_PARAMETERS {angstrom}
6.30991000 0.00000000 0.00000000
0.00000000 8.92356000 0.00000000
0.00000000 0.00000000 26.69270000

ATOMIC_POSITIONS {angstrom}
Li 1.57747750 0.00000000 -1.115487929999997 0 0 0
Li 1.57747750 4.46178000 -1.115487929999997 0 0 0
Li 4.73243250 2.23089000 -3.3464637999999987 0 0 0
Li 4.73243250 6.69267000 -3.3464637999999987 0 0 0
Li 1.57154618 4.56725648 3.54612519
Li 1.57154618 8.81799429 3.54612519
Li 4.67905066 6.69258076 1.06183561
Li 4.74845967 2.23089000 1.08559211
Ge 4.73243250 0.00000000 -1.115487929999997 0 0 0
Ge 4.73243250 4.46178000 -1.115487929999997 0 0 0
Ge 1.57747750 2.23089000 -3.3464637999999987 0 0 0
Ge 1.57747750 6.69267000 -3.3464637999999987 0 0 0
Ge 4.86475131 4.30945483 3.77087773
Ge 4.86462511 0.15321753 3.77114466
Ge 1.58605898 6.69267000 1.20090457
Ge 1.55381534 2.23080076 0.89447238
Pd 0.00000000 2.23089000 -1.115487929999997 0 0 0
Pd 0.00000000 6.69267000 -1.115487929999997 0 0 0
Pd 3.15495500 4.46178000 -3.3464637999999987 0 0 0
Pd 3.15495500 0.00000000 -3.3464637999999987 0 0 0
Pd 6.17557202 6.69231306 3.21406801
Pd 0.24696988 2.23062229 3.02561754
Pd 3.16448296 8.86154126 1.18141890
Pd 3.16435677 4.52353104 1.18141890
Au 0.00000000 0.00000000 -3.3464637999999987 0 0 0
Au 0.00000000 4.46178000 -3.3464637999999987 0 0 0
Au 3.15495500 6.69267000 -1.115487929999997 0 0 0
Au 3.15495500 2.23089000 -1.115487929999997 0 0 0
Au 6.22952175 4.51826613 1.20998009
Au 6.22926935 8.86662769 1.21024702
Au 2.98603871 2.23062229 3.06165269
Au 3.23262999 6.69249153 3.36941952
C 4.82859553 2.23222853 4.09038935
