&CONTROL
calculation = 'relax'
prefix = 'scf'
pseudo_dir = '/vol0403/data/hp230205/u10028/POT_HYBRID_KKJUS_GBRV'
outdir = './data'
tprnfor = .true.
nstep = 50
disk_io = 'non'
/
&SYSTEM
ibrav = 0
ecutwfc = 50.0
ecutrho = 400
occupations = 'smearing'
smearing = 'mp'
degauss = 0.01
assume_isolated = 'esm'
esm_bc = 'bc1'
input_dft = 'BEEF-VDW'
nosym = .true.
nspin = 1
ntyp = 5
nat = 17
/
&ELECTRONS
electron_maxstep = 200
mixing_beta = 0.1
conv_thr = 1e-06
/
&IONS
ion_dynamics = 'bfgs'
upscale = 1.0
/
&CELL
/

K_POINTS {automatic}
6 6 1 0 0 0

ATOMIC_SPECIES
C 12.01 C.pbe-n-rrkjus_psl.1.0.0.UPF
Ga 69.72 Ga.pbe-dnl-rrkjus_psl.1.0.0.UPF
Pd 106.4 Pd.pbe-n-rrkjus_psl.1.0.0.UPF
Sc 44.95 Sc.pbe-spn-rrkjus_psl.1.0.0.UPF
Y 88.90 Y.pbe-spn-rrkjus_psl.1.0.0.UPF


CELL_PARAMETERS {angstrom}
5.91305000 0.00000000 0.00000000
0.00000000 9.85606000 0.00000000
0.00000000 0.00000000 24.24990000

ATOMIC_POSITIONS {angstrom}
Y 0.80949655 2.46450780 0.83589405
Y 3.16762089 2.46401500 -2.1250187400000016 0 0 0
Y 1.29785534 7.39588886 0.70785458
Y 3.16762089 7.39204500 -2.1250187400000016 0 0 0
Sc 3.11647300 0.43553929 2.21328837
Sc 5.06825255 0.00000000 -0.7083395800000005 0 0 0
Sc 3.12764867 4.50274101 2.20140592
Sc 5.06825255 4.92803000 -0.7083395800000005 0 0 0
Ga 0.10690794 9.61350236 2.08912889
Ga 2.11172755 0.00000000 -0.7083395800000005 0 0 0
Ga 0.12092187 5.17275597 2.08500640
Ga 2.11172755 4.92803000 -0.7083395800000005 0 0 0
Pd 3.88611559 2.45869273 0.39284838
Pd 0.21109589 2.46401500 -2.1250187400000016 0 0 0
Pd 4.27111428 7.38869394 0.58005761
Pd 0.21109589 7.39204500 -2.1250187400000016 0 0 0
C 2.65407249 2.47022432 2.22129084
