&CONTROL
calculation = 'relax'
prefix = 'scf'
pseudo_dir = '/vol0004/mdt0/data/hp150275/u10028/POT_HYBRID_KKJUS_GBRV'
outdir = './data'
tprnfor = .true.
nstep = 50
disk_io = 'non'
/
&SYSTEM
ibrav = 0
ecutwfc = 50.0
ecutrho = 400
occupations = 'smearing'
smearing = 'mp'
degauss = 0.01
assume_isolated = 'esm'
esm_bc = 'bc1'
input_dft = 'BEEF-VDW'
nosym = .true.
nspin = 2
ntyp = 5
nat = 34
starting_magnetization(1) = 0.0
starting_magnetization(2) = 0.1
starting_magnetization(3) = 0.0
starting_magnetization(4) = 0.0
starting_magnetization(5) = 0.0
/
&ELECTRONS
electron_maxstep = 300
mixing_beta = 0.1
conv_thr = 1e-06
/
&IONS
ion_dynamics = 'bfgs'
upscale = 1.0
/
&CELL
/

K_POINTS {automatic}
8 6 1 0 0 0

ATOMIC_SPECIES
C 12.01 C.pbe-n-rrkjus_psl.1.0.0.UPF
Mn 54.93 mn_pbe_v1.5.uspp.F.UPF
O 15.99 O.pbe-n-rrkjus_psl.1.0.0.UPF
Sn 118.7 Sn.pbe-dn-rrkjus_psl.1.0.0.UPF
W 183.8 w_pbe_v1.2.uspp.F.UPF

CELL_PARAMETERS {angstrom}
6.10490000 0.00000000 0.00000000
0.00000000 8.63363000 0.00000000
0.00000000 0.00000000 26.47520000

ATOMIC_POSITIONS {angstrom}
Mn 1.52622500 0.00000000 -1.07912915 0 0 0
Mn 4.57867500 4.31681500 -1.07912915 0 0 0
Mn 4.57867500 0.00000000 -1.07912915 0 0 0
Mn 1.52622500 4.31681500 -1.07912915 0 0 0
Mn 4.57867500 6.47522250 -3.2376522100000003 0 0 0
Mn 1.52622500 2.15840750 -3.2376522100000003 0 0 0
Mn 1.52622500 6.47522250 -3.2376522100000003 0 0 0
Mn 4.57867500 2.15840750 -3.2376522100000003 0 0 0
Mn 1.44380885 4.31681500 3.29589765
Mn 4.59375410 0.00008634 3.17464123
Mn 4.75089423 4.31672866 3.42827365
Mn 1.44264892 0.00000000 3.34752429
Mn 4.58667242 2.14545706 1.14558190
Mn 1.59539352 6.45320674 1.17867590
Mn 1.59539352 2.18042326 1.17867590
Mn 4.58667242 6.48817295 1.14558190
Sn 0.00000000 0.00000000 -3.2376522100000003 0 0 0
Sn 3.05245000 2.15840750 -1.07912915 0 0 0
Sn 3.05245000 6.47522250 -1.07912915 0 0 0
Sn 0.00000000 4.31681500 -3.2376522100000003 0 0 0
Sn 6.10374007 4.31672866 1.08654221
Sn 3.06209574 6.47176905 3.62021885
Sn 3.06209574 2.16186095 3.62021885
Sn 0.06984006 0.00008634 1.06139077
W 0.00000000 6.47522250 -1.07912915 0 0 0
W 3.05245000 0.00000000 -3.2376522100000003 0 0 0
W 0.00000000 2.15840750 -1.07912915 0 0 0
W 3.05245000 4.31681500 -3.2376522100000003 0 0 0
W 0.02960877 2.09684972 3.12910389
W 3.08675954 4.31690134 1.16676206
W 0.02960877 6.53678028 3.12910389
W 3.07918946 8.63354366 1.13658034
C 1.19363005 0.00000000 5.14492562
O 1.07861373 0.00000000 6.30612789
