&CONTROL
calculation = 'relax'
prefix = 'scf'
pseudo_dir = '/vol0004/mdt0/data/hp150275/u10028/POT_KKJUS'
outdir = './data'
tprnfor = .true.
nstep = 50
disk_io = 'non'
/
&SYSTEM
ibrav = 0
ecutwfc = 50.0
ecutrho = 400
occupations = 'smearing'
smearing = 'mp'
degauss = 0.01
assume_isolated = 'esm'
esm_bc = 'bc1'
input_dft = 'BEEF-VDW'
nosym = .true.
nspin = 1
ntyp = 4
nat = 18
/
&ELECTRONS
electron_maxstep = 200
mixing_beta = 0.1
conv_thr = 1e-06
/
&IONS
ion_dynamics = 'bfgs'
upscale = 1.0
/
&CELL
/

K_POINTS {automatic}
8 11 2 0  0  0

ATOMIC_SPECIES
Al 26.98 Al.pbe-nl-rrkjus_psl.1.0.0.UPF
C 12.01 C.pbe-n-rrkjus_psl.1.0.0.UPF
O 15.99 O.pbe-n-rrkjus_psl.1.0.0.UPF
Zr 91.22 Zr.pbe-spn-rrkjus_psl.1.0.0.UPF

CELL_PARAMETERS {angstrom}
8.19423000 0.00000000 0.00000000
0.00000000 5.79419000 0.00000000
0.00000000 0.00000000 24.34560000

ATOMIC_POSITIONS {angstrom}
Zr 0.00000000 0.00000000 2.09932109
Zr 0.00000000 2.89709500 -0.7242816000000012 0 0 0
Zr 4.09711500 0.00000000 2.10199910
Zr 4.09711500 2.89709500 -0.7242816000000012 0 0 0
Al 0.00000000 2.89709500 2.04892570
Al 2.07715536 4.35056756 0.76177382
Al 2.07715536 1.44362244 0.76177382
Al 0.00000000 0.00000000 -0.7242816000000012 0 0 0
Al 2.04855750 1.44854750 -2.1728448 0 0 0
Al 2.04855750 4.34564250 -2.1728448 0 0 0
Al 4.09711500 2.89709500 2.24758579
Al 6.11707464 4.35056756 0.76177382
Al 6.11707464 1.44362244 0.76177382
Al 4.09711500 0.00000000 -0.7242816000000012 0 0 0
Al 6.14567250 1.44854750 -2.1728448 0 0 0
Al 6.14567250 4.34564250 -2.1728448 0 0 0
C 0.00000000 2.89709500 3.96930662
O 0.00000000 2.89709500 5.13740851
