&CONTROL
calculation = 'relax'
prefix = 'scf'
pseudo_dir = '/vol0004/mdt0/data/hp150275/u10028/POT_KKJUS'
outdir = './data'
tprnfor = .true.
nstep = 50
disk_io = 'non'
/
&SYSTEM
ibrav = 0
ecutwfc = 50.0
ecutrho = 400
occupations = 'smearing'
smearing = 'mp'
degauss = 0.01
assume_isolated = 'esm'
esm_bc = 'bc1'
input_dft = 'BEEF-VDW'
nosym = .true.
nspin = 1
ntyp = 4
nat = 34
/
&ELECTRONS
electron_maxstep = 200
mixing_beta = 0.1
conv_thr = 1e-06
/
&IONS
ion_dynamics = 'bfgs'
upscale = 1.0
/
&CELL
/

K_POINTS {automatic}
8 8 1 0 0 0

ATOMIC_SPECIES
C 12.01 C.pbe-n-rrkjus_psl.1.0.0.UPF
Ir 192.2 Ir.pbe-n-rrkjus_psl.0.2.3.UPF
O 15.99 O.pbe-n-rrkjus_psl.1.0.0.UPF
Ti 47.86 Ti.pbe-spn-rrkjus_psl.1.0.0.UPF

CELL_PARAMETERS {angstrom}
7.78093000 0.00000000 0.00000000
-0.00000000 7.78093000 0.00000000
0.00000000 0.00000000 25.83570000

ATOMIC_POSITIONS {angstrom}
Ti 0.00000000 0.00000000 2.91788396
Ti 0.00000000 0.00000000 -0.9727140999999975 0 0 0
Ti 0.00000000 3.89046500 2.91788396
Ti 0.00000000 3.89046500 -0.9727140999999975 0 0 0
Ti 3.89046500 -0.00000000 2.91788396
Ti 3.89046500 0.00000000 -0.9727140999999975 0 0 0
Ti 3.89046500 3.89046500 2.91788396
Ti 3.89046500 3.89046500 -0.9727140999999975 0 0 0
Ir 0.00000000 1.94523250 0.97271410
Ir 1.94523250 -0.00000000 0.97271410
Ir 1.94523250 1.94523250 2.91788396
Ir 0.00000000 1.94523250 -2.9178839599999975 0 0 0
Ir 1.94523250 0.00000000 -2.9178839599999975 0 0 0
Ir 1.94523250 1.94523250 -0.9727140999999975 0 0 0
Ir 0.00000000 5.83569750 0.97271410
Ir 1.94523250 3.89046500 0.97271410
Ir 1.94523250 5.83569750 2.91788396
Ir 0.00000000 5.83569750 -2.9178839599999975 0 0 0
Ir 1.94523250 3.89046500 -2.9178839599999975 0 0 0
Ir 1.94523250 5.83569750 -0.9727140999999975 0 0 0
Ir 3.89046500 1.94523250 0.97271410
Ir 5.83569750 -0.00000000 0.97271410
Ir 5.83569750 1.94523250 2.91788396
Ir 3.89046500 1.94523250 -2.9178839599999975 0 0 0
Ir 5.83569750 0.00000000 -2.9178839599999975 0 0 0
Ir 5.83569750 1.94523250 -0.9727140999999975 0 0 0
Ir 3.89046500 5.83569750 0.97271410
Ir 5.83569750 3.89046500 0.97271410
Ir 5.83569750 5.83569750 2.91788396
Ir 3.89046500 5.83569750 -2.9178839599999975 0 0 0
Ir 5.83569750 3.89046500 -2.9178839599999975 0 0 0
Ir 5.83569750 5.83569750 -0.9727140999999975 0 0 0
C 1.94523250 1.94523250 4.81784134
O 1.94523250 1.94523250 5.96778834
