&CONTROL
calculation = 'relax'
prefix = 'scf'
pseudo_dir = '/vol0403/data/hp230205/u10028/POT_HYBRID_KKJUS_GBRV'
outdir = './data'
tprnfor = .true.
nstep = 50
disk_io = 'non'
/
&SYSTEM
ibrav = 0
ecutwfc = 50.0
ecutrho = 400
occupations = 'smearing'
smearing = 'mp'
degauss = 0.01
assume_isolated = 'esm'
esm_bc = 'bc1'
input_dft = 'BEEF-VDW'
nosym = .true.
nspin = 1
ntyp = 4
nat = 32
/
&ELECTRONS
electron_maxstep = 200
mixing_beta = 0.1
conv_thr = 1e-06
/
&IONS
ion_dynamics = 'bfgs'
upscale = 1.0
/
&CELL
/

K_POINTS {automatic}
7 7 2 0  0  0

ATOMIC_SPECIES
Au 196.9 Au.pbe-n-rrkjus_psl.1.0.0.UPF
Ge 72.64 Ge.pbe-dn-rrkjus_psl.1.0.0.UPF
In 114.8 In.pbe-dn-rrkjus_psl.1.0.0.UPF
Li 6.941 Li.pbe-sl-rrkjus_psl.1.0.0.UPF


CELL_PARAMETERS {angstrom}
8.46544000 0.00000000 0.00000000
0.00000000 8.57796000 0.00000000
0.00000000 0.00000000 26.29600000

ATOMIC_POSITIONS {angstrom}
Li 2.11636000 0.00000000 -1.0492103999999998 0 0 0
Li 2.11636000 0.00000000 3.14789416
Li 2.11636000 4.28898000 -1.0492103999999998 0 0 0
Li 2.11636000 4.28898000 3.14789416
Li 6.34908000 0.00000000 -1.0492103999999998 0 0 0
Li 6.34908000 0.00000000 3.14789416
Li 6.34908000 4.28898000 -1.0492103999999998 0 0 0
Li 6.34908000 4.28898000 3.14789416
In 0.00000000 2.14449000 -1.0492103999999998 0 0 0
In 0.00000000 2.14449000 3.14789416
In 0.00000000 6.43347000 -1.0492103999999998 0 0 0
In 0.00000000 6.43347000 3.14789416
In 4.23272000 2.14449000 -1.0492103999999998 0 0 0
In 4.23272000 2.14449000 3.14789416
In 4.23272000 6.43347000 -1.0492103999999998 0 0 0
In 4.23272000 6.43347000 3.14789416
Ge 2.11636000 2.14449000 -3.14789416 0 0 0
Ge 2.11636000 2.14449000 1.04921040
Ge 2.11636000 6.43347000 -3.14789416 0 0 0
Ge 2.11636000 6.43347000 1.04921040
Ge 6.34908000 2.14449000 -3.14789416 0 0 0
Ge 6.34908000 2.14449000 1.04921040
Ge 6.34908000 6.43347000 -3.14789416 0 0 0
Ge 6.34908000 6.43347000 1.04921040
Au 0.00000000 0.00000000 -3.14789416 0 0 0
Au 0.00000000 0.00000000 1.04921040
Au 0.00000000 4.28898000 -3.14789416 0 0 0
Au 0.00000000 4.28898000 1.04921040
Au 4.23272000 0.00000000 -3.14789416 0 0 0
Au 4.23272000 0.00000000 1.04921040
Au 4.23272000 4.28898000 -3.14789416 0 0 0
Au 4.23272000 4.28898000 1.04921040
