&CONTROL
calculation = 'relax'
prefix = 'scf'
pseudo_dir = '/vol0004/mdt0/data/hp150275/u10028/POT_HYBRID_KKJUS_GBRV'
outdir = './data'
tprnfor = .true.
nstep = 50
disk_io = 'non'
/
&SYSTEM
ibrav = 0
ecutwfc = 50.0
ecutrho = 400
occupations = 'smearing'
smearing = 'mp'
degauss = 0.01
assume_isolated = 'esm'
esm_bc = 'bc1'
input_dft = 'BEEF-VDW'
nosym = .true.
nspin = 2
ntyp = 5
nat = 34
starting_magnetization(1) = 0.0
starting_magnetization(2) = 0.0
starting_magnetization(3) = 0.001
starting_magnetization(4) = 0.0
starting_magnetization(5) = 0.0
/
&ELECTRONS
electron_maxstep = 300
mixing_beta = 0.1
conv_thr = 1e-06
/
&IONS
ion_dynamics = 'bfgs'
upscale = 1.0
/
&CELL
/

K_POINTS {automatic}
9 6 2 0  0  0

ATOMIC_SPECIES
C 12.01 C.pbe-n-rrkjus_psl.1.0.0.UPF
Mg 24.30 Mg.pbe-spnl-rrkjus_psl.1.0.0.UPF
Ni 58.69 ni_pbe_v1.4.uspp.F.UPF
O 15.99 O.pbe-n-rrkjus_psl.1.0.0.UPF
Sn 118.7 Sn.pbe-dn-rrkjus_psl.1.0.0.UPF

CELL_PARAMETERS {angstrom}
6.21377000 0.00000000 0.00000000
0.00000000 8.78760000 0.00000000
0.00000000 0.00000000 26.59070000

ATOMIC_POSITIONS {angstrom}
Mg 0.00000000 0.00000000 -3.2953854499999977 0 0 0
Mg 3.10688500 2.19690000 -1.0984618199999971 0 0 0
Mg 3.10688500 6.59070000 -1.0984618199999971 0 0 0
Mg 0.00000000 4.39380000 -3.2953854499999977 0 0 0
Mg 0.00000000 4.38061860 1.01603065
Mg 3.10682286 6.59087575 3.44695244
Mg 3.10688500 2.19690000 3.44615472
Mg 0.00000000 0.01335715 1.01576474
Ni 1.55344250 0.00000000 -1.0984618199999971 0 0 0
Ni 4.66032750 4.39380000 -1.0984618199999971 0 0 0
Ni 4.66032750 0.00000000 -1.0984618199999971 0 0 0
Ni 1.55344250 4.39380000 -1.0984618199999971 0 0 0
Ni 4.66032750 6.59070000 -3.2953854499999977 0 0 0
Ni 1.55344250 2.19690000 -3.2953854499999977 0 0 0
Ni 1.55344250 6.59070000 -3.2953854499999977 0 0 0
Ni 4.66032750 2.19690000 -3.2953854499999977 0 0 0
Ni 1.40772959 4.39652416 3.11323916
Ni 4.80604041 8.78487584 3.11323916
Ni 4.80604041 4.39652416 3.11297325
Ni 1.40772959 8.78487584 3.11323916
Ni 4.64796210 2.19698788 1.16015224
Ni 1.52057166 6.59061212 1.17849982
Ni 1.56580790 2.19698788 1.16015224
Ni 4.69319834 6.59061212 1.17849982
Sn 0.00000000 6.59070000 -1.0984618199999971 0 0 0
Sn 3.10688500 0.00000000 -3.2953854499999977 0 0 0
Sn 0.00000000 2.19690000 -1.0984618199999971 0 0 0
Sn 3.10688500 4.39380000 -3.2953854499999977 0 0 0
Sn 0.00000000 2.19690000 3.44562291
Sn 3.10688500 4.40759653 1.12930703
Sn 0.00000000 6.59070000 3.49322026
Sn 3.10688500 8.77371559 1.12930703
C 6.21333504 2.19681212 7.56159736
O 0.00006214 2.19690000 8.69648843
