&CONTROL
calculation = 'relax'
prefix = 'scf'
pseudo_dir = '/vol0403/data/hp230205/u10028/POT_HYBRID_KKJUS_GBRV'
outdir = './data'
tprnfor = .true.
nstep = 50
disk_io = 'non'
/
&SYSTEM
ibrav = 0
ecutwfc = 50.0
ecutrho = 400
occupations = 'smearing'
smearing = 'mp'
degauss = 0.01
assume_isolated = 'esm'
esm_bc = 'bc1'
input_dft = 'BEEF-VDW'
nosym = .true.
nspin = 1
ntyp = 5
nat = 33
/
&ELECTRONS
electron_maxstep = 200
mixing_beta = 0.1
conv_thr = 1e-06
/
&IONS
ion_dynamics = 'bfgs'
upscale = 1.0
/
&CELL
/

K_POINTS {automatic}
8 8 1 0 0 0

ATOMIC_SPECIES
Ag 107.8 Ag.pbe-n-rrkjus_psl.1.0.0.UPF
C 12.01 C.pbe-n-rrkjus_psl.1.0.0.UPF
Li 6.941 Li.pbe-sl-rrkjus_psl.1.0.0.UPF
Pb 207.2 Pb.pbe-dn-rrkjus_psl.1.0.0.UPF
Y 88.90 Y.pbe-spn-rrkjus_psl.1.0.0.UPF


CELL_PARAMETERS {angstrom}
7.20907000 0.00000000 0.00000000
0.00000000 10.19520000 0.00000000
0.00000000 0.00000000 27.64640000

ATOMIC_POSITIONS {angstrom}
Li 1.80226750 0.00000000 -1.2744990399999985 0 0 0
Li 1.80226750 5.09760000 -1.2744990399999985 0 0 0
Li 5.40680250 2.54880000 -3.8232206600000005 0 0 0
Li 5.40680250 7.64640000 -3.8232206600000005 0 0 0
Li 2.12285484 5.29222637 3.97195829
Li 2.12653147 9.99578189 3.97389354
Li 5.52546379 7.63640870 1.14732560
Li 5.41768820 2.54849414 1.26841683
Y 5.40680250 0.00000000 -1.2744990399999985 0 0 0
Y 5.40680250 5.09760000 -1.2744990399999985 0 0 0
Y 1.80226750 2.54880000 -3.8232206600000005 0 0 0
Y 1.80226750 7.64640000 -3.8232206600000005 0 0 0
Y 5.99917178 4.55674464 3.72397008
Y 6.00515531 0.55125446 3.72231130
Y 1.99929138 7.64894880 1.32232731
Y 1.38104154 2.54849414 1.63196699
Ag 0.00000000 0.00000000 -3.8232206600000005 0 0 0
Ag 0.00000000 5.09760000 -3.8232206600000005 0 0 0
Ag 3.60453500 7.64640000 -1.2744990399999985 0 0 0
Ag 3.60453500 2.54880000 -1.2744990399999985 0 0 0
Ag 0.09876426 5.38479878 1.10751478
Ag 0.09141101 9.91044806 1.10585600
Ag 3.54592526 2.55155270 3.73889914
Ag 4.21975703 7.65190541 3.50390474
Pb 0.00000000 2.54880000 -1.2744990399999985 0 0 0
Pb 0.00000000 7.64640000 -1.2744990399999985 0 0 0
Pb 3.60453500 5.09760000 -3.8232206600000005 0 0 0
Pb 3.60453500 0.00000000 -3.8232206600000005 0 0 0
Pb 0.08744602 7.65139565 3.86800782
Pb 0.94424399 2.55665030 5.19752320
Pb 3.70495735 0.08788262 1.45226539
Pb 3.69919009 5.01389741 1.44728904
C 6.77674207 2.56184986 3.02534555
