&CONTROL
calculation = 'relax'
prefix = 'scf'
pseudo_dir = '/vol0403/data/hp230205/u10028/POT_HYBRID_KKJUS_GBRV'
outdir = './data'
tprnfor = .true.
nstep = 50
disk_io = 'non'
/
&SYSTEM
ibrav = 0
ecutwfc = 50.0
ecutrho = 400
occupations = 'smearing'
smearing = 'mp'
degauss = 0.01
assume_isolated = 'esm'
esm_bc = 'bc1'
input_dft = 'BEEF-VDW'
nosym = .true.
nspin = 1
ntyp = 6
nat = 34
/
&ELECTRONS
electron_maxstep = 200
mixing_beta = 0.1
conv_thr = 1e-06
/
&IONS
ion_dynamics = 'bfgs'
upscale = 1.0
/
&CELL
/

K_POINTS {automatic}
7 7 2 0  0  0

ATOMIC_SPECIES
C 12.01 C.pbe-n-rrkjus_psl.1.0.0.UPF
Ge 72.64 Ge.pbe-dn-rrkjus_psl.1.0.0.UPF
Li 6.941 Li.pbe-sl-rrkjus_psl.1.0.0.UPF
O 15.99 O.pbe-n-rrkjus_psl.1.0.0.UPF
Sn 118.7 Sn.pbe-dn-rrkjus_psl.1.0.0.UPF
Y 88.90 Y.pbe-spn-rrkjus_psl.1.0.0.UPF


CELL_PARAMETERS {angstrom}
8.60818000 0.00000000 0.00000000
0.00000000 8.52742000 0.00000000
0.00000000 0.00000000 27.07540000

ATOMIC_POSITIONS {angstrom}
Li 0.00000000 2.13185500 -1.1791336699999988 0 0 0
Li 0.00000000 2.13185500 3.68117138
Li 0.00000000 6.39556500 -1.1791336699999988 0 0 0
Li 0.00000000 6.39556500 3.61104610
Li 4.30409000 2.13185500 -1.1791336699999988 0 0 0
Li 4.30409000 2.13185500 3.67115349
Li 4.30409000 6.39556500 -1.1791336699999988 0 0 0
Li 4.30409000 6.39556500 3.67142424
Y 2.15204500 2.13185500 -3.5376717599999985 0 0 0
Y 2.13939098 2.13176973 1.16451295
Y 2.15204500 6.39556500 -3.5376717599999985 0 0 0
Y 2.14679401 6.39565027 1.14880922
Y 6.45613500 2.13185500 -3.5376717599999985 0 0 0
Y 6.46878902 2.13194027 1.16451295
Y 6.45613500 6.39556500 -3.5376717599999985 0 0 0
Y 6.46138599 6.39547973 1.14880922
Sn 2.15204500 0.00000000 -1.1791336699999988 0 0 0
Sn 2.21161361 8.51556689 3.63297717
Sn 2.15204500 4.26371000 -1.1791336699999988 0 0 0
Sn 2.21161361 4.27547784 3.63297717
Sn 6.45613500 0.00000000 -1.1791336699999988 0 0 0
Sn 6.39656639 8.51565216 3.63297717
Sn 6.45613500 4.26371000 -1.1791336699999988 0 0 0
Sn 6.39656639 4.27556311 3.63297717
Ge 0.00000000 0.00000000 -3.5376717599999985 0 0 0
Ge 8.60809392 8.52486177 1.55764776
Ge 0.00000000 4.26371000 -3.5376717599999985 0 0 0
Ge 0.00017216 4.26618295 1.55791852
Ge 4.30409000 0.00000000 -3.5376717599999985 0 0 0
Ge 4.30417608 0.00127911 1.50593375
Ge 4.30409000 4.26371000 -3.5376717599999985 0 0 0
Ge 4.30400392 4.26251616 1.50593375
C 8.60809392 2.13185500 5.76272814
O 0.00000000 2.13194027 6.90395625
