&CONTROL
calculation = 'relax'
prefix = 'scf'
pseudo_dir = '/vol0403/data/hp230205/u10028/POT_HYBRID_KKJUS_GBRV'
outdir = './data'
tprnfor = .true.
nstep = 70
disk_io = 'non'
/
&SYSTEM
ibrav = 0
ecutwfc = 50.0
ecutrho = 400
occupations = 'smearing'
smearing = 'mp'
degauss = 0.01
assume_isolated = 'esm'
esm_bc = 'bc1'
input_dft = 'BEEF-VDW'
nosym = .true.
nspin = 1
ntyp = 6
nat = 34
/
&ELECTRONS
electron_maxstep = 200
mixing_beta = 0.1
conv_thr = 1e-06
/
&IONS
ion_dynamics = 'bfgs'
upscale = 1.0
/
&CELL
/

K_POINTS {automatic}
6 6 1 0 0 0

ATOMIC_SPECIES
C 12.01 C.pbe-n-rrkjus_psl.1.0.0.UPF
Li 6.941 Li.pbe-sl-rrkjus_psl.1.0.0.UPF
O 15.99 O.pbe-n-rrkjus_psl.1.0.0.UPF
Pb 207.2 Pb.pbe-dn-rrkjus_psl.1.0.0.UPF
Pd 106.4 Pd.pbe-n-rrkjus_psl.1.0.0.UPF
Y 88.90 Y.pbe-spn-rrkjus_psl.1.0.0.UPF


CELL_PARAMETERS {angstrom}
6.89083000 0.00000000 0.00000000
-0.00000000 9.74510000 0.00000000
0.00000000 0.00000000 27.30880000

ATOMIC_POSITIONS {angstrom}
Li 0.00000000 0.00000000 -3.6544636200000014 0 0 0
Li 0.00000000 4.87255000 -3.6544636200000014 0 0 0
Li 3.44541500 7.30882500 -1.2182455700000006 0 0 0
Li 3.44541500 2.43627500 -1.2182455700000006 0 0 0
Li 0.00310087 4.90081079 1.28487904
Li 0.00310087 9.71693666 1.28487904
Li 2.07069442 2.43627500 5.04939712
Li 1.96554035 7.30882500 5.08025606
Y 5.16812250 0.00000000 -1.2182455700000006 0 0 0
Y 5.16812250 4.87255000 -1.2182455700000006 0 0 0
Y 1.72270750 2.43627500 -3.6544636200000014 0 0 0
Y 1.72270750 7.30882500 -3.6544636200000014 0 0 0
Y 4.92639218 4.93803707 3.59629587
Y 4.92639218 9.67961293 3.59629587
Y 1.77652488 7.30882500 1.34687002
Y 1.74131274 2.43627500 1.38264454
Pd 0.00000000 2.43627500 -1.2182455700000006 0 0 0
Pd 0.00000000 7.30882500 -1.2182455700000006 0 0 0
Pd 3.44541500 4.87255000 -3.6544636200000014 0 0 0
Pd 3.44541500 0.00000000 -3.6544636200000014 0 0 0
Pd 6.70567340 7.30882500 3.48050656
Pd 6.58763348 2.43627500 3.80111187
Pd 3.41144321 0.01549471 1.19503309
Pd 3.41144321 4.85705529 1.19503309
Pb 1.72270750 0.00000000 -1.2182455700000006 0 0 0
Pb 1.72270750 4.87255000 -1.2182455700000006 0 0 0
Pb 5.16812250 2.43627500 -3.6544636200000014 0 0 0
Pb 5.16812250 7.30882500 -3.6544636200000014 0 0 0
Pb 1.62871658 4.87820216 3.73065517
Pb 1.62871658 9.73944784 3.73065517
Pb 5.10265962 7.30882500 1.16390106
Pb 5.17804530 2.43627500 1.21524160
C 5.78471397 2.43627500 5.55624845
O 5.48868391 2.43637245 6.69120218
