&CONTROL
calculation = 'relax'
prefix = 'scf'
pseudo_dir = '/vol0403/data/hp230205/u10028/POT_HYBRID_KKJUS_GBRV'
outdir = './data'
tprnfor = .true.
nstep = 50
disk_io = 'non'
/
&SYSTEM
ibrav = 0
ecutwfc = 50.0
ecutrho = 400
occupations = 'smearing'
smearing = 'mp'
degauss = 0.01
assume_isolated = 'esm'
esm_bc = 'bc1'
input_dft = 'BEEF-VDW'
nosym = .true.
nspin = 1
ntyp = 6
nat = 34
/
&ELECTRONS
electron_maxstep = 200
mixing_beta = 0.1
conv_thr = 1e-06
/
&IONS
ion_dynamics = 'bfgs'
upscale = 1.0
/
&CELL
/

K_POINTS {automatic}
6 6 1 0 0 0

ATOMIC_SPECIES
C 12.01 C.pbe-n-rrkjus_psl.1.0.0.UPF
In 114.8 In.pbe-dn-rrkjus_psl.1.0.0.UPF
Li 6.941 Li.pbe-sl-rrkjus_psl.1.0.0.UPF
O 15.99 O.pbe-n-rrkjus_psl.1.0.0.UPF
Pd 106.4 Pd.pbe-n-rrkjus_psl.1.0.0.UPF
Sc 44.95 Sc.pbe-spn-rrkjus_psl.1.0.0.UPF


CELL_PARAMETERS {angstrom}
6.59012000 0.00000000 0.00000000
0.00000000 9.31984000 0.00000000
0.00000000 0.00000000 26.98990000

ATOMIC_POSITIONS {angstrom}
Li 4.94259000 0.00000000 -1.1648840800000002 0 0 0
Li 4.94259000 4.65992000 -1.1648840800000002 0 0 0
Li 1.64753000 2.32996000 -3.494922149999997 0 0 0
Li 1.64753000 6.98988000 -3.494922149999997 0 0 0
Li 3.88744589 4.66001320 4.94616907
Li 4.69842605 0.00009320 4.43794926
Li 1.68384156 6.97785741 1.19592247
Li 1.68377566 2.34226219 1.19592247
Sc 0.00000000 2.32996000 -1.1648840800000002 0 0 0
Sc 0.00000000 6.98988000 -1.1648840800000002 0 0 0
Sc 3.29506000 4.65992000 -3.494922149999997 0 0 0
Sc 3.29506000 0.00000000 -3.494922149999997 0 0 0
Sc 6.39874292 6.88018548 3.35565427
Sc 6.39867701 2.43993411 3.35565427
Sc 3.32544045 0.00018640 1.33977864
Sc 3.44893930 4.66010640 1.42101824
In 0.00000000 0.00000000 -3.494922149999997 0 0 0
In 0.00000000 4.65992000 -3.494922149999997 0 0 0
In 3.29506000 6.98988000 -1.1648840800000002 0 0 0
In 3.29506000 2.32996000 -1.1648840800000002 0 0 0
In 0.00579931 4.66001320 1.10982469
In 0.00836945 0.00018640 1.18242752
In 3.22678636 2.26155237 3.60450114
In 3.22691816 7.05856722 3.60477104
Pd 1.64753000 0.00000000 -1.1648840800000002 0 0 0
Pd 1.64753000 4.65992000 -1.1648840800000002 0 0 0
Pd 4.94259000 2.32996000 -3.494922149999997 0 0 0
Pd 4.94259000 6.98988000 -3.494922149999997 0 0 0
Pd 1.62716653 4.66010640 3.35106598
Pd 1.36613188 0.00027960 3.64147731
Pd 4.92163342 7.00609652 1.11495277
Pd 4.92176522 2.31411627 1.11495277
C 0.78343347 9.31974680 5.49487374
O 0.67937547 9.31946721 6.65732873
