&CONTROL
calculation = 'relax'
prefix = 'scf'
pseudo_dir = '/vol0004/mdt0/data/hp150275/u10028/POT_KKJUS'
outdir = './data'
tprnfor = .true.
nstep = 50
disk_io = 'non'
/
&SYSTEM
ibrav = 0
ecutwfc = 50.0
ecutrho = 400
occupations = 'smearing'
smearing = 'mp'
degauss = 0.01
assume_isolated = 'esm'
esm_bc = 'bc1'
input_dft = 'BEEF-VDW'
nosym = .true.
nspin = 1
ntyp = 3
nat = 32
/
&ELECTRONS
electron_maxstep = 200
mixing_beta = 0.1
conv_thr = 1e-06
/
&IONS
ion_dynamics = 'bfgs'
upscale = 1.0
/
&CELL
/

K_POINTS {automatic}
8 6 1 0 0 0

ATOMIC_SPECIES
Cu 63.54 Cu.pbe-dn-rrkjus_psl.1.0.0.UPF
Li 6.941 Li.pbe-sl-rrkjus_psl.1.0.0.UPF
Sb 121.7 Sb.pbe-n-rrkjus_psl.1.0.0.UPF

CELL_PARAMETERS {angstrom}
6.37457000 0.00000000 0.00000000
0.00000000 9.01500000 0.00000000
0.00000000 0.00000000 26.76130000

ATOMIC_POSITIONS {angstrom}
Li 0.00000000 6.76125000 -1.1269183399999996 0 0 0
Li 3.18728500 0.00000000 -3.3807550299999996 0 0 0
Li 0.00000000 2.25375000 -1.1269183399999996 0 0 0
Li 3.18728500 4.50750000 -3.3807550299999996 0 0 0
Li 1.59364250 0.00000000 -1.1269183399999996 0 0 0
Li 1.59364250 4.50750000 -1.1269183399999996 0 0 0
Li 4.78092750 6.76125000 -3.3807550299999996 0 0 0
Li 4.78092750 2.25375000 -3.3807550299999996 0 0 0
Li 6.14789029 2.25375000 3.52981547
Li 3.22113397 4.50750000 1.13976377
Li 6.14795404 6.76125000 3.52981547
Li 3.22113397 0.00000000 1.13976377
Li 1.70730108 4.50750000 3.30395010
Li 1.70736483 0.00000000 3.30395010
Li 4.86762165 2.25375000 1.03833844
Li 4.86768540 6.76125000 1.03833844
Cu 0.00000000 0.00000000 -3.3807550299999996 0 0 0
Cu 3.18728500 2.25375000 -1.1269183399999996 0 0 0
Cu 3.18728500 6.76125000 -1.1269183399999996 0 0 0
Cu 0.00000000 4.50750000 -3.3807550299999996 0 0 0
Cu 6.32822688 4.50750000 1.18846933
Cu 3.39146248 6.76125000 3.08076086
Cu 3.39146248 2.25375000 3.08076086
Cu 6.32822688 0.00000000 1.18846933
Sb 1.59364250 2.25375000 -3.3807550299999996 0 0 0
Sb 1.59364250 6.76125000 -3.3807550299999996 0 0 0
Sb 4.78092750 4.50750000 -1.1269183399999996 0 0 0
Sb 4.78092750 0.00000000 -1.1269183399999996 0 0 0
Sb 1.51899629 6.76125000 1.22834367
Sb 1.51899629 2.25375000 1.22834367
Sb 4.70283902 0.00000000 3.50171610
Sb 4.70283902 4.50750000 3.50171610
