&CONTROL
calculation = 'relax'
prefix = 'scf'
pseudo_dir = '/vol0004/mdt0/data/hp150275/u10028/POT_KKJUS'
outdir = './data'
tprnfor = .true.
nstep = 50
disk_io = 'non'
/
&SYSTEM
ibrav = 0
ecutwfc = 50.0
ecutrho = 400
occupations = 'smearing'
smearing = 'mp'
degauss = 0.01
assume_isolated = 'esm'
esm_bc = 'bc1'
input_dft = 'BEEF-VDW'
nosym = .true.
nspin = 1
ntyp = 3
nat = 32
/
&ELECTRONS
electron_maxstep = 200
mixing_beta = 0.1
conv_thr = 1e-06
/
&IONS
ion_dynamics = 'bfgs'
upscale = 1.0
/
&CELL
/

K_POINTS {automatic}
9 6 2 0  0  0

ATOMIC_SPECIES
Rh 102.9 Rh.pbe-spn-rrkjus_psl.1.0.0.UPF
Sn 118.7 Sn.pbe-dn-rrkjus_psl.1.0.0.UPF
V 50.94 V.pbe-spnl-rrkjus_psl.1.0.0.UPF

CELL_PARAMETERS {angstrom}
6.32488000 0.00000000 0.00000000
0.00000000 8.94473000 0.00000000
0.00000000 0.00000000 26.70850000

ATOMIC_POSITIONS {angstrom}
V 0.00000000 0.00000000 -3.3543205200000017 0 0 0
V 3.16244000 2.23618250 -1.1180178100000013 0 0 0
V 3.16244000 6.70854750 -1.1180178100000013 0 0 0
V 0.00000000 4.47236500 -3.3543205200000017 0 0 0
V 0.00000000 4.47227555 1.25369699
V 3.16244000 6.70854750 3.08990637
V 3.16244000 2.23618250 3.09017345
V 0.00000000 0.00008945 1.25396408
Sn 0.00000000 6.70854750 -1.1180178100000013 0 0 0
Sn 3.16244000 0.00000000 -3.3543205200000017 0 0 0
Sn 0.00000000 2.23618250 -1.1180178100000013 0 0 0
Sn 3.16244000 4.47236500 -3.3543205200000017 0 0 0
Sn 0.00000000 2.23627195 3.69218304
Sn 3.16244000 4.47236500 1.01919636
Sn 0.00000000 6.70845805 3.69164887
Sn 3.16244000 0.00000000 1.01919636
Rh 1.58122000 0.00000000 -1.1180178100000013 0 0 0
Rh 4.74366000 4.47236500 -1.1180178100000013 0 0 0
Rh 4.74366000 0.00000000 -1.1180178100000013 0 0 0
Rh 1.58122000 4.47236500 -1.1180178100000013 0 0 0
Rh 4.74366000 6.70854750 -3.3543205200000017 0 0 0
Rh 1.58122000 2.23618250 -3.3543205200000017 0 0 0
Rh 1.58122000 6.70854750 -3.3543205200000017 0 0 0
Rh 4.74366000 2.23618250 -3.3543205200000017 0 0 0
Rh 1.60651952 4.47227555 3.16896353
Rh 4.71836048 0.00008945 3.16896353
Rh 4.71836048 4.47227555 3.16896353
Rh 1.60658277 0.00008945 3.16896353
Rh 4.83796396 2.23609305 1.19013076
Rh 1.48697929 6.70863695 1.18986368
Rh 1.48691604 2.23609305 1.19013076
Rh 4.83790071 6.70863695 1.18986368
