&CONTROL
calculation = 'relax'
prefix = 'scf'
pseudo_dir = '/vol0403/data/hp230205/u10028/POT_HYBRID_KKJUS_GBRV'
outdir = './data'
tprnfor = .true.
nstep = 50
disk_io = 'non'
/
&SYSTEM
ibrav = 0
ecutwfc = 50.0
ecutrho = 400
occupations = 'smearing'
smearing = 'mp'
degauss = 0.01
assume_isolated = 'esm'
esm_bc = 'bc1'
input_dft = 'BEEF-VDW'
nosym = .true.
nspin = 1
ntyp = 5
nat = 33
/
&ELECTRONS
electron_maxstep = 200
mixing_beta = 0.1
conv_thr = 1e-06
/
&IONS
ion_dynamics = 'bfgs'
upscale = 1.0
/
&CELL
/

K_POINTS {automatic}
6 6 1 0 0 0

ATOMIC_SPECIES
C 12.01 C.pbe-n-rrkjus_psl.1.0.0.UPF
Li 6.941 Li.pbe-sl-rrkjus_psl.1.0.0.UPF
Pb 207.2 Pb.pbe-dn-rrkjus_psl.1.0.0.UPF
Sn 118.7 Sn.pbe-dn-rrkjus_psl.1.0.0.UPF
Y 88.90 Y.pbe-spn-rrkjus_psl.1.0.0.UPF


CELL_PARAMETERS {angstrom}
9.64462000 0.00000000 0.00000000
0.00000000 8.87168000 0.00000000
0.00000000 0.00000000 27.02620000

ATOMIC_POSITIONS {angstrom}
Li 0.00000000 0.00000000 -3.513135739999999 0 0 0
Li 9.63478249 0.04373738 1.19455804
Li 0.00000000 4.43584000 -3.513135739999999 0 0 0
Li 9.63478249 4.39210262 1.19455804
Li 4.82231000 0.00000000 -3.513135739999999 0 0 0
Li 4.83214751 0.04373738 1.19455804
Li 4.82231000 4.43584000 -3.513135739999999 0 0 0
Li 4.83214751 4.39210262 1.19455804
Y 2.41115500 0.00000000 -1.1710452499999988 0 0 0
Y 2.41115500 8.81117514 3.45881308
Y 2.41115500 4.43584000 -1.1710452499999988 0 0 0
Y 2.41115500 4.49634486 3.45881308
Y 7.23346500 0.00000000 -1.1710452499999988 0 0 0
Y 7.23346500 8.85331562 3.46286701
Y 7.23346500 4.43584000 -1.1710452499999988 0 0 0
Y 7.23346500 4.45420438 3.46286701
Sn 2.41115500 2.21792000 -3.513135739999999 0 0 0
Sn 2.41115500 2.21792000 1.21293586
Sn 2.41115500 6.65376000 -3.513135739999999 0 0 0
Sn 2.41115500 6.65376000 1.16564001
Sn 7.23346500 2.21792000 -3.513135739999999 0 0 0
Sn 7.23346500 2.21792000 1.24239441
Sn 7.23346500 6.65376000 -3.513135739999999 0 0 0
Sn 7.23346500 6.65376000 1.21266559
Pb 0.00000000 2.21792000 -1.1710452499999988 0 0 0
Pb 9.52801654 2.21792000 3.78961376
Pb 0.00000000 6.65376000 -1.1710452499999988 0 0 0
Pb 9.58453402 6.65376000 3.55529661
Pb 4.82231000 2.21792000 -1.1710452499999988 0 0 0
Pb 4.93891346 2.21792000 3.78961376
Pb 4.82231000 6.65376000 -1.1710452499999988 0 0 0
Pb 4.88239598 6.65376000 3.55529661
C 2.41115500 2.21792000 3.53448644
