&CONTROL
calculation = 'relax'
prefix = 'scf'
pseudo_dir = '/vol0004/mdt0/data/hp150275/u10028/POT_KKJUS'
outdir = './data'
tprnfor = .true.
nstep = 50
disk_io = 'non'
/
&SYSTEM
ibrav = 0
ecutwfc = 50.0
ecutrho = 400
occupations = 'smearing'
smearing = 'mp'
degauss = 0.01
assume_isolated = 'esm'
esm_bc = 'bc1'
input_dft = 'BEEF-VDW'
nosym = .true.
nspin = 1
ntyp = 3
nat = 33
/
&ELECTRONS
electron_maxstep = 200
mixing_beta = 0.1
conv_thr = 1e-06
/
&IONS
ion_dynamics = 'bfgs'
upscale = 1.0
/
&CELL
/

K_POINTS {automatic}
9 6 2 0  0  0

ATOMIC_SPECIES
C 12.01 C.pbe-n-rrkjus_psl.1.0.0.UPF
Hf 178.4 Hf.pbe-spn-rrkjus_psl.1.0.0.UPF
Pt 195.0 Pt.pbe-n-rrkjus_psl.1.0.0.UPF

CELL_PARAMETERS {angstrom}
6.65903000 0.00000000 0.00000000
0.00000000 9.41730000 0.00000000
0.00000000 0.00000000 27.06300000

ATOMIC_POSITIONS {angstrom}
Hf 0.00000000 0.00000000 -3.5314508700000005 0 0 0
Hf 0.00000000 2.35432500 -1.1772405 0 0 0
Hf 0.01311829 9.40929529 1.27899738
Hf 6.62979686 2.35432500 3.65404626
Hf 0.00000000 4.70865000 -3.5314508700000005 0 0 0
Hf 0.00000000 7.06297500 -1.1772405 0 0 0
Hf 0.01311829 4.71665470 1.27899738
Hf 0.04181871 7.06297500 3.62346507
Hf 3.32951500 0.00000000 -3.5314508700000005 0 0 0
Hf 3.32951500 2.35432500 -1.1772405 0 0 0
Hf 3.31719579 9.40901278 1.27926801
Hf 3.36400878 2.35432500 3.65215185
Hf 3.32951500 4.70865000 -3.5314508700000005 0 0 0
Hf 3.32951500 7.06297500 -1.1772405 0 0 0
Hf 3.31719579 4.71693722 1.27926801
Hf 3.28936105 7.06297500 3.62481822
Pt 1.66475750 2.35432500 -3.5314508700000005 0 0 0
Pt 1.66475750 0.00000000 -1.1772405 0 0 0
Pt 1.66315933 2.35432500 1.23082524
Pt 1.66582294 9.24524593 3.53605158
Pt 1.66475750 7.06297500 -3.5314508700000005 0 0 0
Pt 1.66475750 4.70865000 -1.1772405 0 0 0
Pt 1.66415819 7.06278665 0.86682789
Pt 1.66582294 4.88070407 3.53605158
Pt 4.99427250 2.35432500 -3.5314508700000005 0 0 0
Pt 4.99427250 0.00000000 -1.1772405 0 0 0
Pt 4.99380637 2.35423083 0.90336294
Pt 4.99567090 0.03569157 3.42536391
Pt 4.99427250 7.06297500 -3.5314508700000005 0 0 0
Pt 4.99427250 4.70865000 -1.1772405 0 0 0
Pt 4.99354001 7.06297500 1.55152179
Pt 4.99567090 4.67295843 3.42536391
C 1.66822020 2.35451335 4.73142429
