&CONTROL
calculation = 'relax'
prefix = 'scf'
pseudo_dir = '/vol0004/mdt0/data/hp150275/u10028/POT_KKJUS'
outdir = './data'
tprnfor = .true.
nstep = 50
disk_io = 'non'
/
&SYSTEM
ibrav = 0
ecutwfc = 50.0
ecutrho = 400
occupations = 'smearing'
smearing = 'mp'
degauss = 0.01
assume_isolated = 'esm'
esm_bc = 'bc1'
input_dft = 'BEEF-VDW'
nosym = .true.
nspin = 1
ntyp = 4
nat = 34
/
&ELECTRONS
electron_maxstep = 200
mixing_beta = 0.1
conv_thr = 1e-06
/
&IONS
ion_dynamics = 'bfgs'
upscale = 1.0
/
&CELL
/

K_POINTS {automatic}
9 6 2 0  0  0

ATOMIC_SPECIES
C 12.01 C.pbe-n-rrkjus_psl.1.0.0.UPF
O 15.99 O.pbe-n-rrkjus_psl.1.0.0.UPF
Pd 106.4 Pd.pbe-n-rrkjus_psl.1.0.0.UPF
Zr 91.22 Zr.pbe-spn-rrkjus_psl.1.0.0.UPF

CELL_PARAMETERS {angstrom}
6.75388000 0.00000000 0.00000000
0.00000000 9.55143000 0.00000000
0.00000000 0.00000000 27.16360000

ATOMIC_POSITIONS {angstrom}
Zr 0.00000000 0.00000000 -3.5817923 0 0 0
Zr 0.00000000 2.38785750 -1.1938402199999985 0 0 0
Zr 6.74854443 9.55133449 1.13326539
Zr 6.71322164 2.43752494 3.55951814
Zr 0.00000000 4.77571500 -3.5817923 0 0 0
Zr 0.00000000 7.16357250 -1.1938402199999985 0 0 0
Zr 0.03127046 4.77581051 1.10555852
Zr 6.71328918 7.11390506 3.55897487
Zr 3.37694000 0.00000000 -3.5817923 0 0 0
Zr 3.37694000 2.38785750 -1.1938402199999985 0 0 0
Zr 3.38254572 0.00000000 1.13272212
Zr 3.41712559 2.42959725 3.56223450
Zr 3.37694000 4.77571500 -3.5817923 0 0 0
Zr 3.37694000 7.16357250 -1.1938402199999985 0 0 0
Zr 3.34377845 4.77571500 1.10474361
Zr 3.41712559 7.12192827 3.56196287
Pd 1.68847000 2.38785750 -3.5817923 0 0 0
Pd 1.68847000 0.00000000 -1.1938402199999985 0 0 0
Pd 1.69015847 2.26235171 1.42853372
Pd 1.69313018 4.77571500 3.37018785
Pd 1.68847000 7.16357250 -3.5817923 0 0 0
Pd 1.68847000 4.77571500 -1.1938402199999985 0 0 0
Pd 1.69036109 7.28907829 1.42799045
Pd 1.67813656 0.00000000 3.64698494
Pd 5.06541000 2.38785750 -3.5817923 0 0 0
Pd 5.06541000 0.00000000 -1.1938402199999985 0 0 0
Pd 5.06311368 2.44593019 1.27831902
Pd 5.05926397 4.77581051 3.34003626
Pd 5.06541000 7.16357250 -3.5817923 0 0 0
Pd 5.06541000 4.77571500 -1.1938402199999985 0 0 0
Pd 5.06291106 7.10540429 1.27777574
Pd 5.07094818 0.00000000 3.34900024
C 1.70852902 0.00000000 5.59814632
O 1.71102796 0.00000000 6.75776041
