&CONTROL
calculation = 'relax'
prefix = 'scf'
pseudo_dir = '/vol0403/data/hp230205/u10028/POT_HYBRID_KKJUS_GBRV'
outdir = './data'
tprnfor = .true.
nstep = 50
disk_io = 'non'
/
&SYSTEM
ibrav = 0
ecutwfc = 50.0
ecutrho = 400
occupations = 'smearing'
smearing = 'mp'
degauss = 0.01
assume_isolated = 'esm'
esm_bc = 'bc1'
input_dft = 'BEEF-VDW'
nosym = .true.
nspin = 1
ntyp = 5
nat = 17
/
&ELECTRONS
electron_maxstep = 200
mixing_beta = 0.1
conv_thr = 1e-06
/
&IONS
ion_dynamics = 'bfgs'
upscale = 1.0
/
&CELL
/

K_POINTS {automatic}
8 8 1 0 0 0

ATOMIC_SPECIES
Ag 107.8 Ag.pbe-n-rrkjus_psl.1.0.0.UPF
C 12.01 C.pbe-n-rrkjus_psl.1.0.0.UPF
Ge 72.64 Ge.pbe-dn-rrkjus_psl.1.0.0.UPF
Li 6.941 Li.pbe-sl-rrkjus_psl.1.0.0.UPF
Pd 106.4 Pd.pbe-n-rrkjus_psl.1.0.0.UPF


CELL_PARAMETERS {angstrom}
6.28256000 0.00000000 0.00000000
0.00000000 6.28256000 0.00000000
0.00000000 0.00000000 24.71190000

ATOMIC_POSITIONS {angstrom}
Li 1.57064000 1.57064000 -0.7853441799999992 0 0 0
Li 1.57064000 4.71192000 2.35603255
Li 4.71192000 1.57064000 2.35603255
Li 4.71192000 4.71192000 -0.7853441799999992 0 0 0
Ag 0.00000000 0.00000000 -2.3560325499999983 0 0 0
Ag 0.00000000 3.14128000 0.78534418
Ag 3.14128000 0.00000000 0.78534418
Ag 3.14128000 3.14128000 -2.3560325499999983 0 0 0
Ge 4.71192000 1.57064000 -0.7853441799999992 0 0 0
Ge 4.71192000 4.71192000 2.35603255
Ge 1.57064000 1.57064000 2.35603255
Ge 1.57064000 4.71192000 -0.7853441799999992 0 0 0
Pd 0.00000000 3.14128000 -2.3560325499999983 0 0 0
Pd 0.00000000 0.00000000 0.78534418
Pd 3.14128000 3.14128000 0.78534418
Pd 3.14128000 0.00000000 -2.3560325499999983 0 0 0
C 0.00000000 0.00000000 3.15595675
