&CONTROL
calculation = 'relax'
prefix = 'scf'
pseudo_dir = '/vol0004/mdt0/data/hp150275/u10028/POT_KKJUS'
outdir = './data'
tprnfor = .true.
nstep = 50
disk_io = 'non'
/
&SYSTEM
ibrav = 0
ecutwfc = 50.0
ecutrho = 400
occupations = 'smearing'
smearing = 'mp'
degauss = 0.01
assume_isolated = 'esm'
esm_bc = 'bc1'
input_dft = 'BEEF-VDW'
nosym = .true.
nspin = 1
ntyp = 4
nat = 33
/
&ELECTRONS
electron_maxstep = 200
mixing_beta = 0.1
conv_thr = 1e-06
/
&IONS
ion_dynamics = 'bfgs'
upscale = 1.0
/
&CELL
/

K_POINTS {automatic}
9 6 2 0  0  0

ATOMIC_SPECIES
C 12.01 C.pbe-n-rrkjus_psl.1.0.0.UPF
Ga 69.72 Ga.pbe-dnl-rrkjus_psl.1.0.0.UPF
Li 6.941 Li.pbe-sl-rrkjus_psl.1.0.0.UPF
Pd 106.4 Pd.pbe-n-rrkjus_psl.1.0.0.UPF

CELL_PARAMETERS {angstrom}
6.14873000 0.00000000 0.00000000
0.00000000 8.69561000 0.00000000
0.00000000 0.00000000 26.52170000

ATOMIC_POSITIONS {angstrom}
Li 0.00000000 6.52170750 -1.086859269999998 0 0 0
Li 3.07436500 0.00000000 -3.2608430099999985 0 0 0
Li 0.00000000 2.17390250 -1.086859269999998 0 0 0
Li 3.07436500 4.34780500 -3.2608430099999985 0 0 0
Li 1.53718250 2.17390250 -3.2608430099999985 0 0 0
Li 1.53718250 6.52170750 -3.2608430099999985 0 0 0
Li 4.61154750 4.34780500 -1.086859269999998 0 0 0
Li 4.61154750 0.00000000 -1.086859269999998 0 0 0
Li 5.83895698 2.17390250 3.64116419
Li 3.06987643 4.19511009 1.16191568
Li 5.79566992 6.52170750 3.37196894
Li 3.06993791 0.15278187 1.16191568
Li 1.50459423 6.52170750 1.02426805
Li 1.43658928 2.17390250 1.23617644
Li 4.22239438 0.14973840 3.41281236
Li 4.22239438 4.19789268 3.41281236
Ga 1.53718250 0.00000000 -1.086859269999998 0 0 0
Ga 1.53718250 4.34780500 -1.086859269999998 0 0 0
Ga 4.61154750 6.52170750 -3.2608430099999985 0 0 0
Ga 4.61154750 2.17390250 -3.2608430099999985 0 0 0
Ga 1.28090343 4.45363057 3.36454286
Ga 1.28090343 8.58952356 3.36454286
Ga 4.77528818 2.17390250 0.97122465
Ga 4.50191564 6.52170750 1.12717225
Pd 0.00000000 0.00000000 -3.2608430099999985 0 0 0
Pd 3.07436500 2.17390250 -1.086859269999998 0 0 0
Pd 3.07436500 6.52170750 -1.086859269999998 0 0 0
Pd 0.00000000 4.34780500 -3.2608430099999985 0 0 0
Pd 6.09997057 4.44928277 1.08526796
Pd 2.81322844 6.52162054 3.07810850
Pd 2.26931178 2.17381554 3.68439456
Pd 6.09990908 8.59413223 1.08526796
C 3.97023496 2.17381554 2.72483946
