&CONTROL
calculation = 'relax'
prefix = 'scf'
pseudo_dir = '/vol0004/mdt0/data/hp150275/u10028/POT_KKJUS'
outdir = './data'
tprnfor = .true.
nstep = 50
disk_io = 'non'
/
&SYSTEM
ibrav = 0
ecutwfc = 50.0
ecutrho = 400
occupations = 'smearing'
smearing = 'mp'
degauss = 0.01
assume_isolated = 'esm'
esm_bc = 'bc1'
input_dft = 'BEEF-VDW'
nosym = .true.
nspin = 1
ntyp = 4
nat = 33
/
&ELECTRONS
electron_maxstep = 200
mixing_beta = 0.1
conv_thr = 1e-06
/
&IONS
ion_dynamics = 'bfgs'
upscale = 1.0
/
&CELL
/

K_POINTS {automatic}
9 6 2 0  0  0

ATOMIC_SPECIES
Al 26.98 Al.pbe-nl-rrkjus_psl.1.0.0.UPF
C 12.01 C.pbe-n-rrkjus_psl.1.0.0.UPF
Pd 106.4 Pd.pbe-n-rrkjus_psl.1.0.0.UPF
Zr 91.22 Zr.pbe-spn-rrkjus_psl.1.0.0.UPF

CELL_PARAMETERS {angstrom}
6.48931000 0.00000000 0.00000000
0.00000000 9.17726000 0.00000000
0.00000000 0.00000000 26.88290000

ATOMIC_POSITIONS {angstrom}
Zr 0.00000000 0.00000000 -3.441548860000001 0 0 0
Zr 3.24465500 2.29431500 -1.1470933399999979 0 0 0
Zr 3.24465500 6.88294500 -1.1470933399999979 0 0 0
Zr 0.00000000 4.58863000 -3.441548860000001 0 0 0
Zr 0.01933814 4.61515228 1.13768433
Zr 3.11772410 6.88294500 3.48859393
Zr 3.43044395 2.29431500 3.59182427
Zr 0.01933814 9.15073772 1.13768433
Al 0.00000000 6.88294500 -1.1470933399999979 0 0 0
Al 3.24465500 0.00000000 -3.441548860000001 0 0 0
Al 0.00000000 2.29431500 -1.1470933399999979 0 0 0
Al 3.24465500 4.58863000 -3.441548860000001 0 0 0
Al 6.22785570 2.29431500 3.38724540
Al 3.23044341 4.57183561 1.23500043
Al 0.02180408 6.88294500 3.31197328
Al 3.23044341 0.01679439 1.23500043
Pd 1.62232750 0.00000000 -1.1470933399999979 0 0 0
Pd 4.86698250 4.58863000 -1.1470933399999979 0 0 0
Pd 4.86698250 0.00000000 -1.1470933399999979 0 0 0
Pd 1.62232750 4.58863000 -1.1470933399999979 0 0 0
Pd 4.86698250 6.88294500 -3.441548860000001 0 0 0
Pd 1.62232750 2.29431500 -3.441548860000001 0 0 0
Pd 1.62232750 6.88294500 -3.441548860000001 0 0 0
Pd 4.86698250 2.29431500 -3.441548860000001 0 0 0
Pd 1.47969247 4.54283547 3.44826958
Pd 4.86711229 9.06502211 3.30095129
Pd 4.86711229 4.70086789 3.30095129
Pd 1.47969247 0.04579453 3.44826958
Pd 4.84887733 2.29431500 1.09762881
Pd 1.74951798 6.88294500 1.11322089
Pd 1.71810972 2.29431500 1.18499823
Pd 4.77055135 6.88294500 1.21591357
C 1.48715517 2.29431500 4.10905127
