&CONTROL
calculation = 'relax'
prefix = 'scf'
pseudo_dir = '/vol0004/mdt0/data/hp150275/u10028/POT_KKJUS'
outdir = './data'
tprnfor = .true.
nstep = 50
disk_io = 'non'
/
&SYSTEM
ibrav = 0
ecutwfc = 50.0
ecutrho = 400
occupations = 'smearing'
smearing = 'mp'
degauss = 0.01
assume_isolated = 'esm'
esm_bc = 'bc1'
input_dft = 'BEEF-VDW'
nosym = .true.
nspin = 1
ntyp = 3
nat = 17
/
&ELECTRONS
electron_maxstep = 200
mixing_beta = 0.1
conv_thr = 1e-06
/
&IONS
ion_dynamics = 'bfgs'
upscale = 1.0
/
&CELL
/

K_POINTS {automatic}
8 8 1 0 0 0

ATOMIC_SPECIES
C 12.01 C.pbe-n-rrkjus_psl.1.0.0.UPF
Ca 40.07 Ca.pbe-spn-rrkjus_psl.1.0.0.UPF
In 114.8 In.pbe-dn-rrkjus_psl.1.0.0.UPF

CELL_PARAMETERS {angstrom}
7.80577000 0.00000000 0.00000000
0.00000000 7.80577000 0.00000000
0.00000000 0.00000000 25.85430000

ATOMIC_POSITIONS {angstrom}
Ca 0.00000000 0.00000000 -3.398030649999999 0 0 0
Ca 0.00062446 0.00015612 0.17580924
Ca 0.00000000 3.90288500 -3.398030649999999 0 0 0
Ca 0.00241979 3.90241665 0.57112149
Ca 3.90288500 0.00000000 -3.398030649999999 0 0 0
Ca 3.90140190 7.80530165 0.57474109
Ca 3.90288500 3.90288500 -3.398030649999999 0 0 0
Ca 3.90265083 3.90311917 0.96152142
In 1.95144250 1.95144250 -1.4465480899999967 0 0 0
In 1.65099841 1.65076424 2.72892137
In 1.95144250 5.85432750 -1.4465480899999967 0 0 0
In 1.65092036 6.15508382 2.72866282
In 5.85432750 1.95144250 -1.4465480899999967 0 0 0
In 6.15484964 1.65107647 2.72866282
In 5.85432750 5.85432750 -1.4465480899999967 0 0 0
In 6.15492770 6.15461547 2.72892137
C 7.80553583 0.00000000 2.57663954
