&CONTROL
calculation = 'relax'
prefix = 'scf'
pseudo_dir = '/vol0004/mdt0/data/hp150275/u10028/POT_KKJUS'
outdir = './data'
tprnfor = .true.
nstep = 50
disk_io = 'non'
/
&SYSTEM
ibrav = 0
ecutwfc = 50.0
ecutrho = 400
occupations = 'smearing'
smearing = 'mp'
degauss = 0.01
assume_isolated = 'esm'
esm_bc = 'bc1'
input_dft = 'BEEF-VDW'
nosym = .true.
nspin = 1
ntyp = 4
nat = 18
/
&ELECTRONS
electron_maxstep = 200
mixing_beta = 0.1
conv_thr = 1e-06
/
&IONS
ion_dynamics = 'bfgs'
upscale = 1.0
/
&CELL
/

K_POINTS {automatic}
6 8 1 0 0 0

ATOMIC_SPECIES
Ag 107.8 Ag.pbe-n-rrkjus_psl.1.0.0.UPF
C 12.01 C.pbe-n-rrkjus_psl.1.0.0.UPF
O 15.99 O.pbe-n-rrkjus_psl.1.0.0.UPF
Pt 195.0 Pt.pbe-n-rrkjus_psl.1.0.0.UPF

CELL_PARAMETERS {angstrom}
8.08515000 0.00000000 0.00000000
0.00000000 5.71706000 0.00000000
0.00000000 0.00000000 24.28780000

ATOMIC_POSITIONS {angstrom}
Ag 0.00000000 0.00000000 -2.143884110000002 0 0 0
Ag 8.07358824 2.88951647 0.80781223
Ag 4.04257500 0.00000000 -2.143884110000002 0 0 0
Ag 4.05405591 2.88945929 0.80781223
Pt 0.00000000 2.85853000 -2.143884110000002 0 0 0
Pt 2.02128750 4.28779500 -0.7145470799999991 0 0 0
Pt 2.02128750 1.42926500 -0.7145470799999991 0 0 0
Pt 8.08280531 0.01234885 0.72280493
Pt 2.02120665 1.47500148 2.10599514
Pt 2.02112580 4.42163137 2.08656490
Pt 4.04257500 2.85853000 -2.143884110000002 0 0 0
Pt 6.06386250 4.28779500 -0.7145470799999991 0 0 0
Pt 6.06386250 1.42926500 -0.7145470799999991 0 0 0
Pt 4.04491969 0.01223451 0.72256205
Pt 6.06394335 1.40994134 2.08195022
Pt 6.06386250 4.40379415 2.07126358
C 2.02112580 1.63433594 3.95453960
O 2.02136835 1.68750460 5.10650995
