&CONTROL
calculation = 'relax'
prefix = 'scf'
pseudo_dir = '/vol0403/data/hp230205/u10028/POT_HYBRID_KKJUS_GBRV'
outdir = './data'
tprnfor = .true.
nstep = 50
disk_io = 'non'
/
&SYSTEM
ibrav = 0
ecutwfc = 50.0
ecutrho = 400
occupations = 'smearing'
smearing = 'mp'
degauss = 0.01
assume_isolated = 'esm'
esm_bc = 'bc1'
input_dft = 'BEEF-VDW'
nosym = .true.
nspin = 1
ntyp = 6
nat = 34
/
&ELECTRONS
electron_maxstep = 200
mixing_beta = 0.1
conv_thr = 1e-06
/
&IONS
ion_dynamics = 'bfgs'
upscale = 1.0
/
&CELL
/

K_POINTS {automatic}
6 6 1 0 0 0

ATOMIC_SPECIES
C 12.01 C.pbe-n-rrkjus_psl.1.0.0.UPF
Ge 72.64 Ge.pbe-dn-rrkjus_psl.1.0.0.UPF
In 114.8 In.pbe-dn-rrkjus_psl.1.0.0.UPF
Li 6.941 Li.pbe-sl-rrkjus_psl.1.0.0.UPF
Mg 24.30 Mg.pbe-spnl-rrkjus_psl.1.0.0.UPF
O 15.99 O.pbe-n-rrkjus_psl.1.0.0.UPF


CELL_PARAMETERS {angstrom}
8.40992000 0.00000000 0.00000000
0.00000000 8.75068000 0.00000000
0.00000000 0.00000000 26.31390000

ATOMIC_POSITIONS {angstrom}
Li 2.10248000 2.18767000 -3.1568785800000008 0 0 0
Li 2.12047723 2.18329466 1.09202685
Li 2.10248000 6.56301000 -3.1568785800000008 0 0 0
Li 2.11131042 6.56073482 1.10439438
Li 6.30744000 2.18767000 -3.1568785800000008 0 0 0
Li 6.28868588 2.18338217 1.09071115
Li 6.30744000 6.56301000 -3.1568785800000008 0 0 0
Li 6.29903008 6.56160989 1.10228927
Mg 2.10248000 0.00000000 -1.0522928600000014 0 0 0
Mg 2.10735775 8.73589135 3.14845814
Mg 2.10248000 4.37534000 -1.0522928600000014 0 0 0
Mg 2.09036972 4.37210225 3.14530047
Mg 6.30744000 0.00000000 -1.0522928600000014 0 0 0
Mg 6.30264635 8.74166680 3.14766872
Mg 6.30744000 4.37534000 -1.0522928600000014 0 0 0
Mg 6.32005488 4.36685184 3.14687930
In 0.00000000 2.18767000 -1.0522928600000014 0 0 0
In 0.00117739 2.16911856 3.45106798
In 0.00000000 6.56301000 -1.0522928600000014 0 0 0
In 8.40731292 6.56274748 3.51632646
In 4.20496000 2.18767000 -1.0522928600000014 0 0 0
In 4.20294162 2.18793252 3.57237506
In 4.20496000 6.56301000 -1.0522928600000014 0 0 0
In 4.20739888 6.54830886 3.58237435
Ge 0.00000000 0.00000000 -3.1568785800000008 0 0 0
Ge 8.40882671 8.72714067 1.17123169
Ge 0.00000000 4.37534000 -3.1568785800000008 0 0 0
Ge 8.40958360 4.38715342 1.17149483
Ge 4.20496000 0.00000000 -3.1568785800000008 0 0 0
Ge 4.20630559 0.00280022 1.19833501
Ge 4.20496000 4.37534000 -3.1568785800000008 0 0 0
Ge 4.20638969 4.36956455 1.20517662
C 8.40024859 2.52264603 7.39657415
O 0.01824953 1.91429876 8.35466325
