&CONTROL
calculation = 'relax'
prefix = 'scf'
pseudo_dir = '/vol0403/data/hp230205/u10028/POT_HYBRID_KKJUS_GBRV'
outdir = './data'
tprnfor = .true.
nstep = 50
disk_io = 'non'
/
&SYSTEM
ibrav = 0
ecutwfc = 50.0
ecutrho = 400
occupations = 'smearing'
smearing = 'mp'
degauss = 0.01
assume_isolated = 'esm'
esm_bc = 'bc1'
input_dft = 'BEEF-VDW'
nosym = .true.
nspin = 1
ntyp = 6
nat = 18
/
&ELECTRONS
electron_maxstep = 200
mixing_beta = 0.1
conv_thr = 1e-06
/
&IONS
ion_dynamics = 'bfgs'
upscale = 1.0
/
&CELL
/

K_POINTS {automatic}
9 9 2 0  0  0

ATOMIC_SPECIES
C 12.01 C.pbe-n-rrkjus_psl.1.0.0.UPF
Ge 72.64 Ge.pbe-dn-rrkjus_psl.1.0.0.UPF
Li 6.941 Li.pbe-sl-rrkjus_psl.1.0.0.UPF
O 15.99 O.pbe-n-rrkjus_psl.1.0.0.UPF
Pd 106.4 Pd.pbe-n-rrkjus_psl.1.0.0.UPF
Sc 44.95 Sc.pbe-spn-rrkjus_psl.1.0.0.UPF


CELL_PARAMETERS {angstrom}
6.30999000 0.00000000 0.00000000
0.00000000 6.30999000 0.00000000
0.00000000 0.00000000 24.73250000

ATOMIC_POSITIONS {angstrom}
Li 4.73249250 1.57749750 -0.7887194200000032 0 0 0
Li 4.74574348 4.74523868 2.95775968
Li 1.56664432 1.56639192 2.97358848
Li 1.57749750 4.73249250 -0.7887194200000032 0 0 0
Sc 0.00000000 3.15499500 -2.3661582700000032 0 0 0
Sc 0.00782439 0.00776129 0.80924740
Sc 3.14635031 3.14641341 0.81493588
Sc 3.15499500 0.00000000 -2.3661582700000032 0 0 0
Ge 0.00000000 0.00000000 -2.3661582700000032 0 0 0
Ge 6.30942210 3.15632010 0.93810373
Ge 3.15638320 6.30942210 0.93785640
Ge 3.15499500 3.15499500 -2.3661582700000032 0 0 0
Pd 1.57749750 1.57749750 -0.7887194200000032 0 0 0
Pd 1.57516280 4.73621539 2.25313075
Pd 4.73608919 1.57509970 2.25288343
Pd 4.73249250 4.73249250 -0.7887194200000032 0 0 0
C 1.56254282 1.56260592 5.06521600
O 1.55743173 1.55762103 6.20711553
