&CONTROL
calculation = 'relax'
prefix = 'scf'
pseudo_dir = '/vol0004/mdt0/data/hp150275/u10028/POT_KKJUS'
outdir = './data'
tprnfor = .true.
nstep = 50
disk_io = 'non'
/
&SYSTEM
ibrav = 0
ecutwfc = 50.0
ecutrho = 400
occupations = 'smearing'
smearing = 'mp'
degauss = 0.01
assume_isolated = 'esm'
esm_bc = 'bc1'
input_dft = 'BEEF-VDW'
nosym = .true.
nspin = 1
ntyp = 4
nat = 34
/
&ELECTRONS
electron_maxstep = 200
mixing_beta = 0.1
conv_thr = 1e-06
/
&IONS
ion_dynamics = 'bfgs'
upscale = 1.0
/
&CELL
/

K_POINTS {automatic}
6 6 1 0 0 0

ATOMIC_SPECIES
C 12.01 C.pbe-n-rrkjus_psl.1.0.0.UPF
Na 22.98 Na.pbe-spnl-rrkjus_psl.1.0.0.UPF
O 15.99 O.pbe-n-rrkjus_psl.1.0.0.UPF
Pb 207.2 Pb.pbe-dn-rrkjus_psl.1.0.0.UPF

CELL_PARAMETERS {angstrom}
10.02390000 0.00000000 0.00000000
0.00000000 10.02390000 0.00000000
0.00000000 0.00000000 27.51800000

ATOMIC_POSITIONS {angstrom}
Na 0.00000000 0.00000000 -3.758958800000002 0 0 0
Na 10.00726033 0.00000000 1.34783164
Na 0.00000000 5.01195000 -3.758958800000002 0 0 0
Na 10.00716009 5.01195000 1.35718776
Na 5.01195000 0.00000000 -3.758958800000002 0 0 0
Na 5.02177342 0.00000000 1.34865718
Na 5.01195000 5.01195000 -3.758958800000002 0 0 0
Na 5.02447987 5.01195000 1.35828848
Pb 0.00000000 2.50597500 -1.2528945399999998 0 0 0
Pb 2.50597500 0.00000000 -1.2528945399999998 0 0 0
Pb 2.50597500 2.50597500 -3.758958800000002 0 0 0
Pb 0.00300717 2.50216592 3.95075926
Pb 2.50276735 0.00000000 3.92296608
Pb 2.50286759 2.51088671 1.65052964
Pb 0.00000000 7.51792500 -1.2528945399999998 0 0 0
Pb 2.50597500 5.01195000 -1.2528945399999998 0 0 0
Pb 2.50597500 7.51792500 -3.758958800000002 0 0 0
Pb 0.00310741 7.52173408 3.95075926
Pb 2.50316831 5.01195000 3.94580602
Pb 2.50286759 7.51301329 1.65052964
Pb 5.01195000 2.50597500 -1.2528945399999998 0 0 0
Pb 7.51792500 0.00000000 -1.2528945399999998 0 0 0
Pb 7.51792500 2.50597500 -3.758958800000002 0 0 0
Pb 5.00503351 2.50186520 3.95185998
Pb 7.51351448 0.00000000 3.97304884
Pb 7.51551926 2.50637596 1.67612138
Pb 5.01195000 7.51792500 -1.2528945399999998 0 0 0
Pb 7.51792500 5.01195000 -1.2528945399999998 0 0 0
Pb 7.51792500 7.51792500 -3.758958800000002 0 0 0
Pb 5.00503351 7.52213504 3.95158480
Pb 7.51501807 5.01195000 3.97607582
Pb 7.51561950 7.51752404 1.67612138
C 2.67487771 10.02359928 7.94279552
O 2.40573600 0.00010024 9.04351552
