&CONTROL
calculation = 'relax'
prefix = 'scf'
pseudo_dir = '/vol0004/mdt0/data/hp150275/u10028/POT_KKJUS'
outdir = './data'
tprnfor = .true.
nstep = 50
disk_io = 'non'
/
&SYSTEM
ibrav = 0
ecutwfc = 50.0
ecutrho = 400
occupations = 'smearing'
smearing = 'mp'
degauss = 0.01
assume_isolated = 'esm'
esm_bc = 'bc1'
input_dft = 'BEEF-VDW'
nosym = .true.
nspin = 1
ntyp = 3
nat = 32
/
&ELECTRONS
electron_maxstep = 200
mixing_beta = 0.1
conv_thr = 1e-06
/
&IONS
ion_dynamics = 'bfgs'
upscale = 1.0
/
&CELL
/

K_POINTS {automatic}
9 6 2 0  0  0

ATOMIC_SPECIES
Au 196.9 Au.pbe-n-rrkjus_psl.1.0.0.UPF
Hf 178.4 Hf.pbe-spn-rrkjus_psl.1.0.0.UPF
In 114.8 In.pbe-dn-rrkjus_psl.1.0.0.UPF

CELL_PARAMETERS {angstrom}
6.82626000 0.00000000 0.00000000
0.00000000 9.65379000 0.00000000
0.00000000 0.00000000 27.24030000

ATOMIC_POSITIONS {angstrom}
Hf 0.00000000 0.00000000 -3.620235870000002 0 0 0
Hf 3.41313000 2.41344750 -1.2067452900000006 0 0 0
Hf 3.41313000 7.24034250 -1.2067452900000006 0 0 0
Hf 0.00000000 4.82689500 -3.620235870000002 0 0 0
Hf 0.00000000 4.82660539 1.30535518
Hf 3.41313000 7.24034250 3.41429920
Hf 3.41313000 2.41344750 3.41375440
Hf 0.00000000 0.00028961 1.30535518
In 0.00000000 7.24034250 -1.2067452900000006 0 0 0
In 3.41313000 0.00000000 -3.620235870000002 0 0 0
In 0.00000000 2.41344750 -1.2067452900000006 0 0 0
In 3.41313000 4.82689500 -3.620235870000002 0 0 0
In 0.00000000 2.41344750 4.01413061
In 3.41313000 4.82747423 1.13619291
In 0.00000000 7.24034250 4.01440301
In 3.41319826 9.65321077 1.13619291
Au 1.70656500 0.00000000 -1.2067452900000006 0 0 0
Au 5.11969500 4.82689500 -1.2067452900000006 0 0 0
Au 5.11969500 0.00000000 -1.2067452900000006 0 0 0
Au 1.70656500 4.82689500 -1.2067452900000006 0 0 0
Au 5.11969500 7.24034250 -3.620235870000002 0 0 0
Au 1.70656500 2.41344750 -3.620235870000002 0 0 0
Au 1.70656500 7.24034250 -3.620235870000002 0 0 0
Au 5.11969500 2.41344750 -3.620235870000002 0 0 0
Au 1.84786858 4.82679846 3.68343337
Au 4.97839142 0.00009654 3.68343337
Au 4.97839142 4.82679846 3.68343337
Au 1.84786858 0.00009654 3.68343337
Au 5.21225909 2.41344750 1.24351970
Au 1.61325003 7.24034250 1.24379210
Au 1.61406918 2.41344750 1.24351970
Au 5.21300997 7.24034250 1.24379210
