&CONTROL
calculation = 'relax'
prefix = 'scf'
pseudo_dir = '/vol0004/mdt0/data/hp150275/u10028/POT_KKJUS'
outdir = './data'
tprnfor = .true.
nstep = 50
disk_io = 'non'
/
&SYSTEM
ibrav = 0
ecutwfc = 50.0
ecutrho = 400
occupations = 'smearing'
smearing = 'mp'
degauss = 0.01
assume_isolated = 'esm'
esm_bc = 'bc1'
input_dft = 'BEEF-VDW'
nosym = .true.
nspin = 1
ntyp = 5
nat = 34
/
&ELECTRONS
electron_maxstep = 200
mixing_beta = 0.1
conv_thr = 1e-06
/
&IONS
ion_dynamics = 'bfgs'
upscale = 1.0
/
&CELL
/

K_POINTS {automatic}
8 6 1 0 0 0

ATOMIC_SPECIES
C 12.01 C.pbe-n-rrkjus_psl.1.0.0.UPF
O 15.99 O.pbe-n-rrkjus_psl.1.0.0.UPF
Pd 106.4 Pd.pbe-n-rrkjus_psl.1.0.0.UPF
Sc 44.95 Sc.pbe-spn-rrkjus_psl.1.0.0.UPF
Sn 118.7 Sn.pbe-dn-rrkjus_psl.1.0.0.UPF

CELL_PARAMETERS {angstrom}
6.62889000 0.00000000 0.00000000
0.00000000 9.37466000 0.00000000
0.00000000 0.00000000 27.03100000

ATOMIC_POSITIONS {angstrom}
Sc 0.00000000 0.00000000 -3.515381549999997 0 0 0
Sc 3.31444500 2.34366500 -1.1717938500000002 0 0 0
Sc 3.31444500 7.03099500 -1.1717938500000002 0 0 0
Sc 0.00000000 4.68733000 -3.515381549999997 0 0 0
Sc 6.62637102 4.68751749 1.18801245
Sc 3.33585631 7.01243317 3.49240520
Sc 3.33552487 2.36138311 3.49267551
Sc 0.02916712 0.00056248 1.23423546
Sn 0.00000000 7.03099500 -1.1717938500000002 0 0 0
Sn 3.31444500 0.00000000 -3.515381549999997 0 0 0
Sn 0.00000000 2.34366500 -1.1717938500000002 0 0 0
Sn 3.31444500 4.68733000 -3.515381549999997 0 0 0
Sn 6.61317953 2.36653917 3.60917912
Sn 3.30741838 4.68751749 1.15665649
Sn 6.61324582 7.00830832 3.60890881
Sn 3.28660366 0.00009375 1.19855454
Pd 1.65722250 0.00000000 -1.1717938500000002 0 0 0
Pd 4.97166750 4.68733000 -1.1717938500000002 0 0 0
Pd 4.97166750 0.00000000 -1.1717938500000002 0 0 0
Pd 1.65722250 4.68733000 -1.1717938500000002 0 0 0
Pd 4.97166750 7.03099500 -3.515381549999997 0 0 0
Pd 1.65722250 2.34366500 -3.515381549999997 0 0 0
Pd 1.65722250 7.03099500 -3.515381549999997 0 0 0
Pd 4.97166750 2.34366500 -3.515381549999997 0 0 0
Pd 1.65927746 4.68723625 3.38509213
Pd 5.01853375 0.00000000 3.36103454
Pd 4.95728281 4.68695501 3.39806701
Pd 1.71582189 9.37437876 3.76893233
Pd 4.94826752 2.33916516 1.19747330
Pd 1.67810350 7.03596357 1.25288685
Pd 1.67916413 2.33925891 1.25288685
Pd 4.94932814 7.03586982 1.19747330
C 2.28345374 9.37437876 5.63542288
O 2.46442244 9.37409752 6.77640139
