&CONTROL
calculation = 'relax'
prefix = 'scf'
pseudo_dir = '/vol0403/data/hp230205/u10028/POT_HYBRID_KKJUS_GBRV'
outdir = './data'
tprnfor = .true.
nstep = 50
disk_io = 'non'
/
&SYSTEM
ibrav = 0
ecutwfc = 50.0
ecutrho = 400
occupations = 'smearing'
smearing = 'mp'
degauss = 0.01
assume_isolated = 'esm'
esm_bc = 'bc1'
input_dft = 'BEEF-VDW'
nosym = .true.
nspin = 1
ntyp = 4
nat = 16
/
&ELECTRONS
electron_maxstep = 200
mixing_beta = 0.1
conv_thr = 1e-06
/
&IONS
ion_dynamics = 'bfgs'
upscale = 1.0
/
&CELL
/

K_POINTS {automatic}
10 10 2 0  0  0

ATOMIC_SPECIES
Cu 63.54 Cu.pbe-dn-rrkjus_psl.1.0.0.UPF
In 114.8 In.pbe-dn-rrkjus_psl.1.0.0.UPF
Li 6.941 Li.pbe-sl-rrkjus_psl.1.0.0.UPF
Y 88.90 Y.pbe-spn-rrkjus_psl.1.0.0.UPF


CELL_PARAMETERS {angstrom}
6.68415000 0.00000000 0.00000000
0.00000000 6.68415000 0.00000000
0.00000000 0.00000000 25.01310000

ATOMIC_POSITIONS {angstrom}
Li 0.00000000 3.34214184 3.11363069
Li 0.00000000 0.00000000 -0.8354375400000009 0 0 0
Li 3.34207500 3.34207500 -0.8354375400000009 0 0 0
Li 3.34207500 0.00000000 3.11363069
Y 5.01378091 1.67036909 0.85369710
Y 5.01311250 5.01311250 -2.5065627500000005 0 0 0
Y 1.67103750 1.67103750 -2.5065627500000005 0 0 0
Y 1.67030224 5.01371407 0.85394723
In 1.67030224 1.67043593 0.98501588
In 1.67103750 5.01311250 -2.5065627500000005 0 0 0
In 5.01311250 1.67103750 -2.5065627500000005 0 0 0
In 5.01384776 5.01378092 0.98501588
Cu 0.00020052 6.68388263 2.41676572
Cu 0.00000000 3.34207500 -0.8354375400000009 0 0 0
Cu 3.34207500 0.00000000 -0.8354375400000009 0 0 0
Cu 3.34200816 3.34214184 2.42226860
