&CONTROL
calculation = 'relax'
prefix = 'scf'
pseudo_dir = '/vol0004/mdt0/data/hp150275/u10028/POT_KKJUS'
outdir = './data'
tprnfor = .true.
nstep = 50
disk_io = 'non'
/
&SYSTEM
ibrav = 0
ecutwfc = 50.0
ecutrho = 400
occupations = 'smearing'
smearing = 'mp'
degauss = 0.01
assume_isolated = 'esm'
esm_bc = 'bc1'
input_dft = 'BEEF-VDW'
nosym = .true.
nspin = 1
ntyp = 5
nat = 34
/
&ELECTRONS
electron_maxstep = 200
mixing_beta = 0.1
conv_thr = 1e-06
/
&IONS
ion_dynamics = 'bfgs'
upscale = 1.0
/
&CELL
/

K_POINTS {automatic}
9 6 2 0  0  0

ATOMIC_SPECIES
Ag 107.8 Ag.pbe-n-rrkjus_psl.1.0.0.UPF
Al 26.98 Al.pbe-nl-rrkjus_psl.1.0.0.UPF
C 12.01 C.pbe-n-rrkjus_psl.1.0.0.UPF
Li 6.941 Li.pbe-sl-rrkjus_psl.1.0.0.UPF
O 15.99 O.pbe-n-rrkjus_psl.1.0.0.UPF

CELL_PARAMETERS {angstrom}
6.40528000 0.00000000 0.00000000
0.00000000 9.05843000 0.00000000
0.00000000 0.00000000 26.79380000

ATOMIC_POSITIONS {angstrom}
Li 0.00000000 0.00000000 -3.3969179599999997 0 0 0
Li 3.20264000 2.26460750 -1.1323059900000025 0 0 0
Li 3.20264000 6.79382250 -1.1323059900000025 0 0 0
Li 0.00000000 4.52921500 -3.3969179599999997 0 0 0
Li 0.00000000 4.52568221 1.02486285
Li 3.20264000 6.79382250 3.49605502
Li 3.20264000 2.26460750 3.53035109
Li 0.00000000 0.00353279 1.02486285
Al 0.00000000 6.79382250 -1.1323059900000025 0 0 0
Al 3.20264000 0.00000000 -3.3969179599999997 0 0 0
Al 0.00000000 2.26460750 -1.1323059900000025 0 0 0
Al 3.20264000 4.52921500 -3.3969179599999997 0 0 0
Al 0.00000000 2.26460750 3.35913871
Al 3.20264000 4.53048318 1.15909979
Al 0.00000000 6.79382250 3.42344383
Al 3.20264000 9.05716182 1.15909979
Ag 1.60132000 0.00000000 -1.1323059900000025 0 0 0
Ag 4.80396000 4.52921500 -1.1323059900000025 0 0 0
Ag 4.80396000 0.00000000 -1.1323059900000025 0 0 0
Ag 1.60132000 4.52921500 -1.1323059900000025 0 0 0
Ag 4.80396000 6.79382250 -3.3969179599999997 0 0 0
Ag 1.60132000 2.26460750 -3.3969179599999997 0 0 0
Ag 1.60132000 6.79382250 -3.3969179599999997 0 0 0
Ag 4.80396000 2.26460750 -3.3969179599999997 0 0 0
Ag 1.49678583 4.54334615 3.28733132
Ag 4.90849417 9.04429885 3.28733132
Ag 4.90855822 4.54334615 3.28733132
Ag 1.49672178 9.04429885 3.28733132
Ag 4.77411140 2.26460750 1.13177011
Ag 1.60343374 6.79382250 1.12078465
Ag 1.63116860 2.26460750 1.13177011
Ag 4.80184626 6.79382250 1.12078465
C 3.20264000 2.26460750 5.63446820
O 3.20264000 2.26460750 6.77454439
