&CONTROL
calculation = 'relax'
prefix = 'scf'
pseudo_dir = '/vol0403/data/hp230205/u10028/POT_HYBRID_KKJUS_GBRV'
outdir = './data'
tprnfor = .true.
nstep = 50
disk_io = 'non'
/
&SYSTEM
ibrav = 0
ecutwfc = 50.0
ecutrho = 400
occupations = 'smearing'
smearing = 'mp'
degauss = 0.01
assume_isolated = 'esm'
esm_bc = 'bc1'
input_dft = 'BEEF-VDW'
nosym = .true.
nspin = 1
ntyp = 4
nat = 16
/
&ELECTRONS
electron_maxstep = 200
mixing_beta = 0.1
conv_thr = 1e-06
/
&IONS
ion_dynamics = 'bfgs'
upscale = 1.0
/
&CELL
/

K_POINTS {automatic}
11 7 3 0  0  0

ATOMIC_SPECIES
Li 6.941 Li.pbe-sl-rrkjus_psl.1.0.0.UPF
Pb 207.2 Pb.pbe-dn-rrkjus_psl.1.0.0.UPF
Sn 118.7 Sn.pbe-dn-rrkjus_psl.1.0.0.UPF
Y 88.90 Y.pbe-spn-rrkjus_psl.1.0.0.UPF


CELL_PARAMETERS {angstrom}
6.45119000 0.00000000 0.00000000
0.00000000 9.64462000 0.00000000
0.00000000 0.00000000 24.83120000

ATOMIC_POSITIONS {angstrom}
Li 0.00000000 0.00000000 -2.4155791399999984 0 0 0
Li 3.07089546 0.00000000 0.75710329
Li 0.00000000 4.82231000 -2.4155791399999984 0 0 0
Li 3.07089546 4.82231000 0.75710329
Y 4.75065632 2.41115500 -0.8052758199999985 0 0 0
Y 1.36191072 2.41115500 2.36070218
Y 4.75065632 7.23346500 -0.8052758199999985 0 0 0
Y 1.36197523 7.23346500 2.36070218
Sn 1.52506132 2.41115500 -0.8052758199999985 0 0 0
Sn 4.57989332 2.41115500 2.57598869
Sn 1.52506132 7.23346500 -0.8052758199999985 0 0 0
Sn 4.57989332 7.23346500 2.57598869
Pb 3.22559500 0.00000000 -2.4155791399999984 0 0 0
Pb 6.15430624 0.00000000 1.04787664
Pb 3.22559500 4.82231000 -2.4155791399999984 0 0 0
Pb 6.15430624 4.82231000 1.04787664
