&CONTROL
calculation = 'relax'
prefix = 'scf'
pseudo_dir = '/vol0004/mdt0/data/hp150275/u10028/C2_project/TEST_MAG'
outdir = './data'
tprnfor = .true.
disk_io = 'non'
/
&SYSTEM
ibrav = 0
ecutwfc = 50.0
ecutrho = 400
occupations = 'smearing'
smearing = 'mp'
degauss = 0.01
input_dft = 'BEEF-VDW'
nspin = 2
starting_magnetization(1)=0.1
ntyp = 1
nat = 32
/
&ELECTRONS
electron_maxstep = 200
mixing_beta = 0.1
conv_thr = 1e-06
/
&IONS
ion_dynamics = 'bfgs'
upscale = 1.0
/
&CELL
/

K_POINTS {automatic}
6 6 1 0 0 0

ATOMIC_SPECIES
Ni 58.69 ni_pbe_v1.4.uspp.F.UPF           

CELL_PARAMETERS {angstrom}
7.06729000 0.00000000 0.00000000
-0.00000000 7.06729000 0.00000000
0.00000000 0.00000000 25.30050000

ATOMIC_POSITIONS {angstrom}
Ni 0.00000000 0.00000000 -2.6502273800000005 0 0 0
Ni 1.76682250 1.76682250 -2.6502273800000005 0 0 0
Ni 1.76682250 0.00000000 -0.8834934600000004 0 0 0
Ni 0.00000000 1.76682250 -0.8834934600000004 0 0 0
Ni 0.00000000 0.00000000 0.88349346
Ni 1.76682250 1.76682250 0.88349346
Ni 1.76682250 -0.00000000 2.65022738
Ni 0.00000000 1.76682250 2.65022738
Ni 0.00000000 3.53364500 -2.6502273800000005 0 0 0
Ni 1.76682250 5.30046750 -2.6502273800000005 0 0 0
Ni 1.76682250 3.53364500 -0.8834934600000004 0 0 0
Ni 0.00000000 5.30046750 -0.8834934600000004 0 0 0
Ni 0.00000000 3.53364500 0.88349346
Ni 1.76682250 5.30046750 0.88349346
Ni 1.76682250 3.53364500 2.65022738
Ni 0.00000000 5.30046750 2.65022738
Ni 3.53364500 0.00000000 -2.6502273800000005 0 0 0
Ni 5.30046750 1.76682250 -2.6502273800000005 0 0 0
Ni 5.30046750 0.00000000 -0.8834934600000004 0 0 0
Ni 3.53364500 1.76682250 -0.8834934600000004 0 0 0
Ni 3.53364500 -0.00000000 0.88349346
Ni 5.30046750 1.76682250 0.88349346
Ni 5.30046750 -0.00000000 2.65022738
Ni 3.53364500 1.76682250 2.65022738
Ni 3.53364500 3.53364500 -2.6502273800000005 0 0 0
Ni 5.30046750 5.30046750 -2.6502273800000005 0 0 0
Ni 5.30046750 3.53364500 -0.8834934600000004 0 0 0
Ni 3.53364500 5.30046750 -0.8834934600000004 0 0 0
Ni 3.53364500 3.53364500 0.88349346
Ni 5.30046750 5.30046750 0.88349346
Ni 5.30046750 3.53364500 2.65022738
Ni 3.53364500 5.30046750 2.65022738
