&CONTROL
calculation = 'relax'
prefix = 'scf'
pseudo_dir = '/vol0004/mdt0/data/hp150275/u10028/POT_KKJUS'
outdir = './data'
tprnfor = .true.
nstep = 50
disk_io = 'non'
/
&SYSTEM
ibrav = 0
ecutwfc = 50.0
ecutrho = 400
occupations = 'smearing'
smearing = 'mp'
degauss = 0.01
assume_isolated = 'esm'
esm_bc = 'bc1'
input_dft = 'BEEF-VDW'
nosym = .true.
nspin = 1
ntyp = 5
nat = 34
/
&ELECTRONS
electron_maxstep = 200
mixing_beta = 0.1
conv_thr = 1e-06
/
&IONS
ion_dynamics = 'bfgs'
upscale = 1.0
/
&CELL
/

K_POINTS {automatic}
9 6 2 0  0  0

ATOMIC_SPECIES
Al 26.98 Al.pbe-nl-rrkjus_psl.1.0.0.UPF
C 12.01 C.pbe-n-rrkjus_psl.1.0.0.UPF
Nb 92.90 Nb.pbe-spn-rrkjus_psl.1.0.0.UPF
O 15.99 O.pbe-n-rrkjus_psl.1.0.0.UPF
Ru 101.0 Ru.pbe-spn-rrkjus_psl.1.0.0.UPF

CELL_PARAMETERS {angstrom}
6.19479000 0.00000000 0.00000000
0.00000000 8.76076000 0.00000000
0.00000000 0.00000000 26.57060000

ATOMIC_POSITIONS {angstrom}
Nb 0.00000000 0.00000000 -3.2851889799999974 0 0 0
Nb 3.09739500 2.19019000 -1.0949744300000006 0 0 0
Nb 3.09739500 6.57057000 -1.0949744300000006 0 0 0
Nb 0.00000000 4.38038000 -3.2851889799999974 0 0 0
Nb 0.00811517 4.38038000 1.12101361
Nb 3.10743056 6.52002041 3.29342587
Nb 3.10743056 2.24073959 3.29342587
Nb 6.16722318 0.00000000 1.13297038
Al 0.00000000 6.57057000 -1.0949744300000006 0 0 0
Al 3.09739500 0.00000000 -3.2851889799999974 0 0 0
Al 0.00000000 2.19019000 -1.0949744300000006 0 0 0
Al 3.09739500 4.38038000 -3.2851889799999974 0 0 0
Al 0.01957554 2.17371977 3.36729214
Al 3.09535072 4.38038000 1.12074791
Al 0.01957554 6.58704023 3.36729214
Al 3.10619160 0.00000000 1.11941938
Ru 1.54869750 0.00000000 -1.0949744300000006 0 0 0
Ru 4.64609250 4.38038000 -1.0949744300000006 0 0 0
Ru 4.64609250 0.00000000 -1.0949744300000006 0 0 0
Ru 1.54869750 4.38038000 -1.0949744300000006 0 0 0
Ru 4.64609250 6.57057000 -3.2851889799999974 0 0 0
Ru 1.54869750 2.19019000 -3.2851889799999974 0 0 0
Ru 1.54869750 6.57057000 -3.2851889799999974 0 0 0
Ru 4.64609250 2.19019000 -3.2851889799999974 0 0 0
Ru 1.51499784 4.38038000 3.16455846
Ru 4.69088083 0.00000000 3.18076653
Ru 4.72476633 4.38038000 3.19166047
Ru 1.61095514 0.00000000 3.35134978
Ru 4.62211866 2.19658535 1.12021650
Ru 1.55557372 6.60701476 1.12393638
Ru 1.55557372 2.15365763 1.12393638
Ru 4.62211866 6.56417465 1.12021650
C 1.61052150 0.00000000 5.23998803
O 1.57545899 0.00000000 6.40431172
