&CONTROL
calculation = 'relax'
prefix = 'scf'
pseudo_dir = '/vol0004/mdt0/data/hp150275/u10028/POT_HYBRID_KKJUS_GBRV'
outdir = './data'
tprnfor = .true.
nstep = 50
disk_io = 'non'
/
&SYSTEM
ibrav = 0
ecutwfc = 50.0
ecutrho = 400
occupations = 'smearing'
smearing = 'mp'
degauss = 0.01
assume_isolated = 'esm'
esm_bc = 'bc1'
input_dft = 'BEEF-VDW'
nosym = .true.
nspin = 2
ntyp = 4
nat = 34
starting_magnetization(1) = 0.0
starting_magnetization(2) = 0.0
starting_magnetization(3) = 0.001
starting_magnetization(4) = 0.0
/
&ELECTRONS
electron_maxstep = 400
mixing_beta = 0.1
conv_thr = 1e-06
/
&IONS
ion_dynamics = 'bfgs'
upscale = 1.0
/
&CELL
/

K_POINTS {automatic}
6 6 1 0 0 0

ATOMIC_SPECIES
C 12.01 C.pbe-n-rrkjus_psl.1.0.0.UPF
Ge 72.64 Ge.pbe-dn-rrkjus_psl.1.0.0.UPF
Ni 58.69 ni_pbe_v1.4.uspp.F.UPF
O 15.99 O.pbe-n-rrkjus_psl.1.0.0.UPF

CELL_PARAMETERS {angstrom}
7.18728000 0.00000000 0.00000000
0.00000000 7.18728000 0.00000000
0.00000000 0.00000000 25.39050000

ATOMIC_POSITIONS {angstrom}
Ni 0.02120248 1.79682000 0.93513212
Ni 1.79682000 0.02134622 0.93487821
Ni 1.79682000 1.79682000 2.88994671
Ni 0.00000000 1.79682000 -2.6952015699999983 0 0 0
Ni 1.79682000 0.00000000 -2.6952015699999983 0 0 0
Ni 1.79682000 1.79682000 -0.8983158899999992 0 0 0
Ni 0.00093435 5.39046000 0.88612845
Ni 1.79682000 3.57229378 0.93487821
Ni 1.79682000 5.39046000 2.66549469
Ni 0.00000000 5.39046000 -2.6952015699999983 0 0 0
Ni 1.79682000 3.59364000 -2.6952015699999983 0 0 0
Ni 1.79682000 5.39046000 -0.8983158899999992 0 0 0
Ni 3.57243752 1.79682000 0.93513212
Ni 5.39046000 0.00114996 0.88638235
Ni 5.39046000 1.79682000 2.66498688
Ni 3.59364000 1.79682000 -2.6952015699999983 0 0 0
Ni 5.39046000 0.00000000 -2.6952015699999983 0 0 0
Ni 5.39046000 1.79682000 -0.8983158899999992 0 0 0
Ni 3.59270565 5.39046000 0.88612845
Ni 5.39046000 3.59249004 0.88612845
Ni 5.39046000 5.39046000 2.68225242
Ni 3.59364000 5.39046000 -2.6952015699999983 0 0 0
Ni 5.39046000 3.59364000 -2.6952015699999983 0 0 0
Ni 5.39046000 5.39046000 -0.8983158899999992 0 0 0
Ge 7.16392134 7.16384947 2.63502609
Ge 0.00000000 0.00000000 -0.8983158899999992 0 0 0
Ge 7.16392134 3.61707053 2.63502609
Ge 0.00000000 3.59364000 -0.8983158899999992 0 0 0
Ge 3.61699866 7.16384947 2.63502609
Ge 3.59364000 0.00000000 -0.8983158899999992 0 0 0
Ge 3.61699866 3.61707053 2.63502609
Ge 3.59364000 3.59364000 -0.8983158899999992 0 0 0
C 1.79682000 1.79682000 4.67261371
O 1.79682000 1.79682000 5.82559632
