&CONTROL
calculation = 'relax'
prefix = 'scf'
pseudo_dir = '/vol0004/mdt0/data/hp150275/u10028/POT_KKJUS'
outdir = './data'
tprnfor = .true.
nstep = 50
disk_io = 'non'
/
&SYSTEM
ibrav = 0
ecutwfc = 50.0
ecutrho = 400
occupations = 'smearing'
smearing = 'mp'
degauss = 0.01
assume_isolated = 'esm'
esm_bc = 'bc1'
input_dft = 'BEEF-VDW'
nosym = .true.
nspin = 1
ntyp = 5
nat = 34
/
&ELECTRONS
electron_maxstep = 200
mixing_beta = 0.1
conv_thr = 1e-06
/
&IONS
ion_dynamics = 'bfgs'
upscale = 1.0
/
&CELL
/

K_POINTS {automatic}
8 6 1 0 0 0

ATOMIC_SPECIES
C 12.01 C.pbe-n-rrkjus_psl.1.0.0.UPF
O 15.99 O.pbe-n-rrkjus_psl.1.0.0.UPF
Pt 195.0 Pt.pbe-n-rrkjus_psl.1.0.0.UPF
Sc 44.95 Sc.pbe-spn-rrkjus_psl.1.0.0.UPF
Sn 118.7 Sn.pbe-dn-rrkjus_psl.1.0.0.UPF

CELL_PARAMETERS {angstrom}
6.65597000 0.00000000 0.00000000
0.00000000 9.41296000 0.00000000
0.00000000 0.00000000 27.05970000

ATOMIC_POSITIONS {angstrom}
Sc 0.00000000 0.00000000 -3.5299378600000004 0 0 0
Sc 3.32798500 2.35324000 -1.1765557599999994 0 0 0
Sc 3.32798500 7.05972000 -1.1765557599999994 0 0 0
Sc 0.00000000 4.70648000 -3.5299378600000004 0 0 0
Sc 0.02482677 4.70648000 1.20009769
Sc 3.36765458 7.03138699 3.45281772
Sc 3.36765458 2.38157301 3.45281772
Sc 6.63766608 9.41286587 1.21931008
Sn 0.00000000 7.05972000 -1.1765557599999994 0 0 0
Sn 3.32798500 0.00000000 -3.5299378600000004 0 0 0
Sn 0.00000000 2.35324000 -1.1765557599999994 0 0 0
Sn 3.32798500 4.70648000 -3.5299378600000004 0 0 0
Sn 6.59466852 2.40181087 3.72666188
Sn 3.29324084 4.70638587 1.10024740
Sn 6.59460196 7.01114913 3.72666188
Sn 3.27606843 9.41286587 1.16600247
Pt 1.66399250 0.00000000 -1.1765557599999994 0 0 0
Pt 4.99197750 4.70648000 -1.1765557599999994 0 0 0
Pt 4.99197750 0.00000000 -1.1765557599999994 0 0 0
Pt 1.66399250 4.70648000 -1.1765557599999994 0 0 0
Pt 4.99197750 7.05972000 -3.5299378600000004 0 0 0
Pt 1.66399250 2.35324000 -3.5299378600000004 0 0 0
Pt 1.66399250 7.05972000 -3.5299378600000004 0 0 0
Pt 4.99197750 2.35324000 -3.5299378600000004 0 0 0
Pt 1.73980400 4.70638587 3.37109743
Pt 4.98492217 0.00000000 3.32049579
Pt 4.91050843 4.70648000 3.34241414
Pt 1.84090818 0.00000000 3.75047442
Pt 5.02938405 2.40011654 1.16221412
Pt 1.56228928 7.15930912 1.37327978
Pt 1.56222272 2.25355675 1.37327978
Pt 5.02931749 7.01274933 1.16221412
C 1.88829869 0.00009413 5.63924148
O 1.88017841 0.00009413 6.79658485
