&CONTROL
calculation = 'relax'
prefix = 'scf'
pseudo_dir = '/vol0004/mdt0/data/hp150275/u10028/POT_HYBRID_KKJUS_GBRV'
outdir = './data'
tprnfor = .true.
nstep = 50
disk_io = 'non'
/
&SYSTEM
ibrav = 0
ecutwfc = 50.0
ecutrho = 400
occupations = 'smearing'
smearing = 'mp'
degauss = 0.01
assume_isolated = 'esm'
esm_bc = 'bc1'
input_dft = 'BEEF-VDW'
nosym = .true.
nspin = 2
ntyp = 5
nat = 34
starting_magnetization(1) = 0.0
starting_magnetization(2) = 0.0
starting_magnetization(3) = 0.001
starting_magnetization(4) = 0.0
starting_magnetization(5) = 0.0
/
&ELECTRONS
electron_maxstep = 300
mixing_beta = 0.1
conv_thr = 1e-06
/
&IONS
ion_dynamics = 'bfgs'
upscale = 1.0
/
&CELL
/

K_POINTS {automatic}
8 6 1 0 0 0

ATOMIC_SPECIES
C 12.01 C.pbe-n-rrkjus_psl.1.0.0.UPF
Ga 69.72 Ga.pbe-dnl-rrkjus_psl.1.0.0.UPF
Ni 58.69 ni_pbe_v1.4.uspp.F.UPF
O 15.99 O.pbe-n-rrkjus_psl.1.0.0.UPF
Ti 47.86 Ti.pbe-spn-rrkjus_psl.1.0.0.UPF

CELL_PARAMETERS {angstrom}
5.91339000 0.00000000 0.00000000
0.00000000 8.36280000 0.00000000
0.00000000 0.00000000 26.27210000

ATOMIC_POSITIONS {angstrom}
Ti 0.00000000 0.00000000 -3.1361005799999973 0 0 0
Ti 2.95669500 2.09070000 -1.045366859999998 0 0 0
Ti 2.95669500 6.27210000 -1.045366859999998 0 0 0
Ti 0.00000000 4.18140000 -3.1361005799999973 0 0 0
Ti 5.90647133 4.18265442 1.03354441
Ti 2.95829162 6.27092921 3.16000819
Ti 2.95823248 2.09136902 3.15895730
Ti 0.01259552 8.36204735 1.06901175
Ga 0.00000000 6.27210000 -1.045366859999998 0 0 0
Ga 2.95669500 0.00000000 -3.1361005799999973 0 0 0
Ga 0.00000000 2.09070000 -1.045366859999998 0 0 0
Ga 2.95669500 4.18140000 -3.1361005799999973 0 0 0
Ga 5.89174699 2.12515474 3.14792302
Ga 2.95870555 4.17989470 1.01725571
Ga 5.89239747 6.23814703 3.14634670
Ga 2.91914497 0.00025088 1.08740222
Ni 1.47834750 0.00000000 -1.045366859999998 0 0 0
Ni 4.43504250 4.18140000 -1.045366859999998 0 0 0
Ni 4.43504250 0.00000000 -1.045366859999998 0 0 0
Ni 1.47834750 4.18140000 -1.045366859999998 0 0 0
Ni 4.43504250 6.27210000 -3.1361005799999973 0 0 0
Ni 1.47834750 2.09070000 -3.1361005799999973 0 0 0
Ni 1.47834750 6.27210000 -3.1361005799999973 0 0 0
Ni 4.43504250 2.09070000 -3.1361005799999973 0 0 0
Ni 1.47887971 4.18114912 2.99685845
Ni 4.50097680 8.36162921 2.98529872
Ni 4.41783454 4.18048009 3.01393531
Ni 1.42246596 8.36221460 3.32368337
Ni 4.36964041 2.08359162 1.07347801
Ni 1.54321739 6.27026018 1.09423297
Ni 1.53913715 2.09371061 1.09213120
Ni 4.36621064 6.28071368 1.07557977
C 1.94940815 0.00066902 5.00877586
O 2.16672523 0.00000000 6.15082405
