&CONTROL
calculation = 'relax'
prefix = 'scf'
pseudo_dir = '/vol0004/mdt0/data/hp150275/u10028/POT_HYBRID_KKJUS_GBRV'
outdir = './data'
tprnfor = .true.
nstep = 50
disk_io = 'non'
/
&SYSTEM
ibrav = 0
ecutwfc = 50.0
ecutrho = 400
occupations = 'smearing'
smearing = 'mp'
degauss = 0.01
assume_isolated = 'esm'
esm_bc = 'bc1'
input_dft = 'BEEF-VDW'
nosym = .true.
nspin = 2
ntyp = 2
nat = 16
starting_magnetization(1) = 0.01
starting_magnetization(2) = 0.0
/
&ELECTRONS
electron_maxstep = 200
mixing_beta = 0.1
conv_thr = 1e-06
/
&IONS
ion_dynamics = 'bfgs'
upscale = 1.0
/
&CELL
/

K_POINTS {automatic}
8 12 2 0  0  0

ATOMIC_SPECIES
Ni 58.69 ni_pbe_v1.4.uspp.F.UPF
Pt 195.0 Pt.pbe-n-rrkjus_psl.1.0.0.UPF

CELL_PARAMETERS {angstrom}
7.35757000 0.00000000 0.00000000
-0.00000000 5.20259000 0.00000000
0.00000000 0.00000000 23.90190000

ATOMIC_POSITIONS {angstrom}
Ni 0.00000000 2.60129500 21.95102692
Ni 1.83939250 3.90194250 23.25152930
Ni 1.83939250 1.30064750 23.25152930
Ni 0.00000000 0.00000000 0.65037070
Ni 1.83939250 1.30064750 1.95087308
Ni 1.83939250 3.90194250 1.95087308
Ni 3.67878500 2.60129500 21.95102692
Ni 5.51817750 3.90194250 23.25152930
Ni 5.51817750 1.30064750 23.25152930
Ni 3.67878500 -0.00000000 0.65037070
Ni 5.51817750 1.30064750 1.95087308
Ni 5.51817750 3.90194250 1.95087308
Pt 0.00000000 0.00000000 21.95102692
Pt 0.00000000 2.60129500 0.65037070
Pt 3.67878500 0.00000000 21.95102692
Pt 3.67878500 2.60129500 0.65037070
