&CONTROL
calculation = 'relax'
prefix = 'scf'
pseudo_dir = '/vol0403/data/hp230205/u10028/POT_HYBRID_KKJUS_GBRV'
outdir = './data'
tprnfor = .true.
nstep = 50
disk_io = 'non'
/
&SYSTEM
ibrav = 0
ecutwfc = 50.0
ecutrho = 400
occupations = 'smearing'
smearing = 'mp'
degauss = 0.01
assume_isolated = 'esm'
esm_bc = 'bc1'
input_dft = 'BEEF-VDW'
nosym = .true.
nspin = 1
ntyp = 4
nat = 32
/
&ELECTRONS
electron_maxstep = 200
mixing_beta = 0.1
conv_thr = 1e-06
/
&IONS
ion_dynamics = 'bfgs'
upscale = 1.0
/
&CELL
/

K_POINTS {automatic}
9 6 2 0  0  0

ATOMIC_SPECIES
Ag 107.8 Ag.pbe-n-rrkjus_psl.1.0.0.UPF
Al 26.98 Al.pbe-nl-rrkjus_psl.1.0.0.UPF
Li 6.941 Li.pbe-sl-rrkjus_psl.1.0.0.UPF
Pd 106.4 Pd.pbe-n-rrkjus_psl.1.0.0.UPF


CELL_PARAMETERS {angstrom}
6.21941000 0.00000000 0.00000000
0.00000000 8.79558000 0.00000000
0.00000000 0.00000000 26.59670000

ATOMIC_POSITIONS {angstrom}
Li 1.55485250 0.00000000 -1.0995075799999974 0 0 0
Li 1.55485250 4.39779000 -1.0995075799999974 0 0 0
Li 4.66455750 2.19889500 -3.2982567699999983 0 0 0
Li 4.66455750 6.59668500 -3.2982567699999983 0 0 0
Li 1.50969958 4.39779000 3.47432692
Li 1.50963739 0.00000000 3.47432692
Li 4.64453100 6.59668500 1.04844191
Li 4.64453100 2.19889500 1.04844191
Al 4.66455750 0.00000000 -1.0995075799999974 0 0 0
Al 4.66455750 4.39779000 -1.0995075799999974 0 0 0
Al 1.55485250 2.19889500 -3.2982567699999983 0 0 0
Al 1.55485250 6.59668500 -3.2982567699999983 0 0 0
Al 4.73831970 4.39779000 3.24852094
Al 4.73831970 0.00000000 3.24852094
Al 1.57786432 6.59668500 1.13355135
Al 1.57780212 2.19889500 1.13355135
Ag 0.00000000 0.00000000 -3.2982567699999983 0 0 0
Ag 0.00000000 4.39779000 -3.2982567699999983 0 0 0
Ag 3.10970500 6.59668500 -1.0995075799999974 0 0 0
Ag 3.10970500 2.19889500 -1.0995075799999974 0 0 0
Ag 0.03165680 4.39779000 1.05030368
Ag 0.03165680 0.00000000 1.05030368
Ag 3.17830509 2.19889500 3.31873623
Ag 3.17830509 6.59668500 3.31900219
Pd 0.00000000 2.19889500 -1.0995075799999974 0 0 0
Pd 0.00000000 6.59668500 -1.0995075799999974 0 0 0
Pd 3.10970500 4.39779000 -3.2982567699999983 0 0 0
Pd 3.10970500 0.00000000 -3.2982567699999983 0 0 0
Pd 6.13351995 6.59668500 3.11979291
Pd 6.13345775 2.19889500 3.11979291
Pd 3.10205513 0.00000000 1.09711388
Pd 3.10205513 4.39779000 1.09711388
