&CONTROL
calculation = 'relax'
prefix = 'scf'
pseudo_dir = '/vol0403/data/hp230205/u10028/POT_HYBRID_KKJUS_GBRV'
outdir = './data'
tprnfor = .true.
nstep = 50
disk_io = 'non'
/
&SYSTEM
ibrav = 0
ecutwfc = 50.0
ecutrho = 400
occupations = 'smearing'
smearing = 'mp'
degauss = 0.01
assume_isolated = 'esm'
esm_bc = 'bc1'
input_dft = 'BEEF-VDW'
nosym = .true.
nspin = 1
ntyp = 5
nat = 33
/
&ELECTRONS
electron_maxstep = 200
mixing_beta = 0.1
conv_thr = 1e-06
/
&IONS
ion_dynamics = 'bfgs'
upscale = 1.0
/
&CELL
/

K_POINTS {automatic}
6 6 1 0 0 0

ATOMIC_SPECIES
Ag 107.8 Ag.pbe-n-rrkjus_psl.1.0.0.UPF
C 12.01 C.pbe-n-rrkjus_psl.1.0.0.UPF
Li 6.941 Li.pbe-sl-rrkjus_psl.1.0.0.UPF
Mg 24.30 Mg.pbe-spnl-rrkjus_psl.1.0.0.UPF
Sn 118.7 Sn.pbe-dn-rrkjus_psl.1.0.0.UPF


CELL_PARAMETERS {angstrom}
6.75899000 0.00000000 0.00000000
0.00000000 9.55866000 0.00000000
0.00000000 0.00000000 27.16900000

ATOMIC_POSITIONS {angstrom}
Li 5.06924250 0.00000000 -1.194892620000001 0 0 0
Li 5.06924250 4.77933000 -1.194892620000001 0 0 0
Li 1.68974750 2.38966500 -3.584406170000001 0 0 0
Li 1.68974750 7.16899500 -3.584406170000001 0 0 0
Li 5.03281154 4.77933000 3.70693836
Li 5.27809529 0.00000000 4.08567422
Li 1.63128224 7.18046539 1.28781060
Li 1.63128224 2.37819461 1.28781060
Mg 1.68974750 0.00000000 -1.194892620000001 0 0 0
Mg 1.68974750 4.77933000 -1.194892620000001 0 0 0
Mg 5.06924250 2.38966500 -3.584406170000001 0 0 0
Mg 5.06924250 7.16899500 -3.584406170000001 0 0 0
Mg 1.74212967 4.77933000 3.95634978
Mg 1.38140238 0.00000000 3.95634978
Mg 5.16102958 7.09032723 1.29079919
Mg 5.16102958 2.46833277 1.29107088
Ag 0.00000000 0.00000000 -3.584406170000001 0 0 0
Ag 0.00000000 4.77933000 -3.584406170000001 0 0 0
Ag 3.37949500 7.16899500 -1.194892620000001 0 0 0
Ag 3.37949500 2.38966500 -1.194892620000001 0 0 0
Ag 0.16343238 4.77933000 1.44756432
Ag 6.75446148 0.00000000 1.30085172
Ag 3.40795035 2.34445254 3.63303868
Ag 3.40801794 7.21420746 3.63303868
Sn 0.00000000 2.38966500 -1.194892620000001 0 0 0
Sn 0.00000000 7.16899500 -1.194892620000001 0 0 0
Sn 3.37949500 4.77933000 -3.584406170000001 0 0 0
Sn 3.37949500 0.00000000 -3.584406170000001 0 0 0
Sn 6.67977464 7.05715868 3.88897066
Sn 6.67977464 2.50150132 3.88897066
Sn 3.41504729 0.00000000 1.25520780
Sn 3.29852230 4.77933000 1.37420802
C 3.39963679 0.00000000 3.42465245
