&CONTROL
calculation = 'relax'
prefix = 'scf'
pseudo_dir = '/vol0004/mdt0/data/hp150275/u10028/POT_HYBRID_KKJUS_GBRV'
outdir = './data'
tprnfor = .true.
nstep = 50
disk_io = 'non'
/
&SYSTEM
ibrav = 0
ecutwfc = 50.0
ecutrho = 400
occupations = 'smearing'
smearing = 'mp'
degauss = 0.01
assume_isolated = 'esm'
esm_bc = 'bc1'
input_dft = 'BEEF-VDW'
nosym = .true.
nspin = 2
ntyp = 5
nat = 34
starting_magnetization(1) = 0.0
starting_magnetization(2) = 0.0
starting_magnetization(3) = 0.1
starting_magnetization(4) = 0.1
starting_magnetization(5) = 0.0
/
&ELECTRONS
electron_maxstep = 300
mixing_beta = 0.1
conv_thr = 1e-06
/
&IONS
ion_dynamics = 'bfgs'
upscale = 1.0
/
&CELL
/

K_POINTS {automatic}
9 6 2 0  0  0

ATOMIC_SPECIES
Al 26.98 Al.pbe-nl-rrkjus_psl.1.0.0.UPF
C 12.01 C.pbe-n-rrkjus_psl.1.0.0.UPF
Co 58.93 co_pbe_v1.2.uspp.F.UPF
Mn 54.93 mn_pbe_v1.5.uspp.F.UPF
O 15.99 O.pbe-n-rrkjus_psl.1.0.0.UPF

CELL_PARAMETERS {angstrom}
5.71239000 0.00000000 0.00000000
0.00000000 8.07854000 0.00000000
0.00000000 0.00000000 26.05890000

ATOMIC_POSITIONS {angstrom}
Mn 0.00000000 0.00000000 -3.0293471200000006 0 0 0
Mn 2.85619500 2.01963500 -1.00978237 0 0 0
Mn 2.85619500 6.05890500 -1.00978237 0 0 0
Mn 0.00000000 4.03927000 -3.0293471200000006 0 0 0
Mn 0.00000000 4.04355163 1.03401715
Mn 2.85619500 6.05906657 3.03742538
Mn 2.85619500 2.01955421 3.05358190
Mn 0.00000000 8.07433916 1.03401715
Al 0.00000000 6.05890500 -1.00978237 0 0 0
Al 2.85619500 0.00000000 -3.0293471200000006 0 0 0
Al 0.00000000 2.01963500 -1.00978237 0 0 0
Al 2.85619500 4.03927000 -3.0293471200000006 0 0 0
Al 0.00000000 2.01987736 2.98218052
Al 2.85619500 4.04007785 1.01786063
Al 0.00000000 6.05874343 3.03221360
Al 2.85619500 8.07781293 1.01786063
Co 1.42809750 0.00000000 -1.00978237 0 0 0
Co 4.28429250 4.03927000 -1.00978237 0 0 0
Co 4.28429250 0.00000000 -1.00978237 0 0 0
Co 1.42809750 4.03927000 -1.00978237 0 0 0
Co 4.28429250 6.05890500 -3.0293471200000006 0 0 0
Co 1.42809750 2.01963500 -3.0293471200000006 0 0 0
Co 1.42809750 6.05890500 -3.0293471200000006 0 0 0
Co 4.28429250 2.01963500 -3.0293471200000006 0 0 0
Co 1.40627617 4.05268038 3.03481949
Co 4.30639945 8.06512962 3.03508008
Co 4.30611383 4.05268038 3.03481949
Co 1.40593343 8.06512962 3.03508008
Co 4.27892285 2.01931186 1.01290944
Co 1.43135356 6.05930893 1.00326765
Co 1.43341002 2.01931186 1.01290944
Co 4.28103644 6.05930893 1.00326765
C 0.00000000 2.01963500 4.97255930
O 0.00000000 2.01955421 6.12853210
