&CONTROL
calculation = 'relax'
prefix = 'scf'
pseudo_dir = '/vol0004/mdt0/data/hp150275/u10028/POT_KKJUS'
outdir = './data'
tprnfor = .true.
nstep = 50
disk_io = 'non'
/
&SYSTEM
ibrav = 0
ecutwfc = 50.0
ecutrho = 400
occupations = 'smearing'
smearing = 'mp'
degauss = 0.01
assume_isolated = 'esm'
esm_bc = 'bc1'
input_dft = 'BEEF-VDW'
nosym = .true.
nspin = 1
ntyp = 3
nat = 17
/
&ELECTRONS
electron_maxstep = 200
mixing_beta = 0.1
conv_thr = 1e-06
/
&IONS
ion_dynamics = 'bfgs'
upscale = 1.0
/
&CELL
/

K_POINTS {automatic}
6 8 1 0 0 0

ATOMIC_SPECIES
C 12.01 C.pbe-n-rrkjus_psl.1.0.0.UPF
Pt 195.0 Pt.pbe-n-rrkjus_psl.1.0.0.UPF
V 50.94 V.pbe-spnl-rrkjus_psl.1.0.0.UPF

CELL_PARAMETERS {angstrom}
7.87849000 0.00000000 0.00000000
0.00000000 5.57094000 0.00000000
0.00000000 0.00000000 24.17820000

ATOMIC_POSITIONS {angstrom}
V 0.03978637 5.55311299 1.89871405
V 0.00000000 2.78547000 -0.6963321600000008 0 0 0
V 3.89953741 5.55328012 1.89823048
V 3.93924500 2.78547000 -0.6963321600000008 0 0 0
Pt 7.86336330 2.77076272 1.93957520
Pt 1.96946493 4.15168733 0.76620716
Pt 1.96938615 1.38047893 0.75194202
Pt 0.00000000 0.00000000 -0.6963321600000008 0 0 0
Pt 1.96962250 1.39273500 -2.0889964799999987 0 0 0
Pt 1.96962250 4.17820500 -2.0889964799999987 0 0 0
Pt 3.95429292 2.77065130 1.93933342
Pt 5.90894628 4.21686732 0.87887757
Pt 5.90902507 1.32404531 0.87355837
Pt 3.93924500 0.00000000 -0.6963321600000008 0 0 0
Pt 5.90886750 1.39273500 -2.0889964799999987 0 0 0
Pt 5.90886750 4.17820500 -2.0889964799999987 0 0 0
C 1.96970128 5.55690123 2.36124301
