&CONTROL
calculation = 'relax'
prefix = 'scf'
pseudo_dir = '/vol0004/mdt0/data/hp150275/u10028/POT_HYBRID_KKJUS_GBRV'
outdir = './data'
tprnfor = .true.
nstep = 50
disk_io = 'non'
/
&SYSTEM
ibrav = 0
ecutwfc = 50.0
ecutrho = 400
occupations = 'smearing'
smearing = 'mp'
degauss = 0.01
assume_isolated = 'esm'
esm_bc = 'bc1'
input_dft = 'BEEF-VDW'
nosym = .true.
nspin = 2
ntyp = 4
nat = 34
starting_magnetization(1) = 0.0
starting_magnetization(2) = 0.1
starting_magnetization(3) = 0.0
starting_magnetization(4) = 0.0
/
&ELECTRONS
electron_maxstep = 200
mixing_beta = 0.1
conv_thr = 1e-06
/
&IONS
ion_dynamics = 'bfgs'
upscale = 1.0
/
&CELL
/

K_POINTS {automatic}
6 8 2 0  0  0

ATOMIC_SPECIES
C 12.01 C.pbe-n-rrkjus_psl.1.0.0.UPF
Mn 54.93 mn_pbe_v1.5.uspp.F.UPF
O 15.99 O.pbe-n-rrkjus_psl.1.0.0.UPF
Pd 106.4 Pd.pbe-n-rrkjus_psl.1.0.0.UPF

CELL_PARAMETERS {angstrom}
8.60668000 0.00000000 0.00000000
-0.00000000 6.84086000 0.00000000
0.00000000 0.00000000 26.45500000

ATOMIC_POSITIONS {angstrom}
Mn 0.00000000 0.00000000 23.22749000
Mn 2.15167000 0.00000000 25.37907515
Mn 0.00000000 0.00000000 1.07592485
Mn 2.15167000 -0.00000000 3.22751000
Mn 0.00000000 3.42043000 23.22749000
Mn 2.15167000 3.42043000 25.37907515
Mn 0.00000000 3.42043000 1.07592485
Mn 2.15167000 3.42043000 3.22751000
Mn 4.30334000 0.00000000 23.22749000
Mn 6.45501000 0.00000000 25.37907515
Mn 4.30334000 -0.00000000 1.07592485
Mn 6.45501000 -0.00000000 3.22751000
Mn 4.30334000 3.42043000 23.22749000
Mn 6.45501000 3.42043000 25.37907515
Mn 4.30334000 3.42043000 1.07592485
Mn 6.45501000 3.42043000 3.22751000
Pd 2.15167000 1.71021500 23.22749000
Pd 0.00000000 1.71021500 25.37907515
Pd 2.15167000 1.71021500 1.07592485
Pd 4.30334000 1.71021500 3.22751000
Pd 2.15167000 5.13064500 23.22749000
Pd 0.00000000 5.13064500 25.37907515
Pd 2.15167000 5.13064500 1.07592485
Pd 4.30334000 5.13064500 3.22751000
Pd 6.45501000 1.71021500 23.22749000
Pd 4.30334000 1.71021500 25.37907515
Pd 6.45501000 1.71021500 1.07592485
Pd 0.00000000 1.71021500 3.22751000
Pd 6.45501000 5.13064500 23.22749000
Pd 4.30334000 5.13064500 25.37907515
Pd 6.45501000 5.13064500 1.07592485
Pd 0.00000000 5.13064500 3.22751000
C 0.00000000 1.71021500 5.12750810
O 0.00000000 1.71021500 6.27750695
