&CONTROL
calculation = 'relax'
prefix = 'scf'
pseudo_dir = '/vol0004/mdt0/data/hp150275/u10028/POT_KKJUS'
outdir = './data'
tprnfor = .true.
nstep = 50
disk_io = 'non'
/
&SYSTEM
ibrav = 0
ecutwfc = 50.0
ecutrho = 400
occupations = 'smearing'
smearing = 'mp'
degauss = 0.01
assume_isolated = 'esm'
esm_bc = 'bc1'
input_dft = 'BEEF-VDW'
nosym = .true.
nspin = 1
ntyp = 3
nat = 18
/
&ELECTRONS
electron_maxstep = 200
mixing_beta = 0.1
conv_thr = 1e-06
/
&IONS
ion_dynamics = 'bfgs'
upscale = 1.0
/
&CELL
/

K_POINTS {automatic}
9 9 2 0  0  0

ATOMIC_SPECIES
C 12.01 C.pbe-n-rrkjus_psl.1.0.0.UPF
Nb 92.90 Nb.pbe-spn-rrkjus_psl.1.0.0.UPF
O 15.99 O.pbe-n-rrkjus_psl.1.0.0.UPF

CELL_PARAMETERS {angstrom}
6.65024000 0.00000000 0.00000000
-0.00000000 6.65024000 0.00000000
0.00000000 0.00000000 24.98770000

ATOMIC_POSITIONS {angstrom}
Nb 0.00000000 0.00000000 -2.493772459999999 0 0 0
Nb 1.66256000 1.66256000 -0.8313407800000014 0 0 0
Nb 0.00000000 0.00000000 0.83134078
Nb 1.66256000 1.66256000 2.49377246
Nb 0.00000000 3.32512000 -2.493772459999999 0 0 0
Nb 1.66256000 4.98768000 -0.8313407800000014 0 0 0
Nb 0.00000000 3.32512000 0.83134078
Nb 1.66256000 4.98768000 2.49377246
Nb 3.32512000 0.00000000 -2.493772459999999 0 0 0
Nb 4.98768000 1.66256000 -0.8313407800000014 0 0 0
Nb 3.32512000 -0.00000000 0.83134078
Nb 4.98768000 1.66256000 2.49377246
Nb 3.32512000 3.32512000 -2.493772459999999 0 0 0
Nb 4.98768000 4.98768000 -0.8313407800000014 0 0 0
Nb 3.32512000 3.32512000 0.83134078
Nb 4.98768000 4.98768000 2.49377246
C 1.66256000 1.66256000 4.39383717
O 1.66256000 1.66256000 5.54377112
