&CONTROL
calculation = 'relax'
prefix = 'scf'
pseudo_dir = '/vol0004/mdt0/data/hp150275/u10028/POT_HYBRID_KKJUS_GBRV'
outdir = './data'
tprnfor = .true.
nstep = 50
disk_io = 'non'
/
&SYSTEM
ibrav = 0
ecutwfc = 50.0
ecutrho = 400
occupations = 'smearing'
smearing = 'mp'
degauss = 0.01
assume_isolated = 'esm'
esm_bc = 'bc1'
input_dft = 'BEEF-VDW'
nosym = .true.
nspin = 2
ntyp = 4
nat = 17
starting_magnetization(1) = 0.1
starting_magnetization(2) = 0.1
starting_magnetization(3) = 0.1
starting_magnetization(4) = 0.1
/
&ELECTRONS
electron_maxstep = 200
mixing_beta = 0.1
conv_thr = 1e-06
/
&IONS
ion_dynamics = 'bfgs'
upscale = 1.0
/
&CELL
/

K_POINTS {automatic}
8 8 1 0 0 0

ATOMIC_SPECIES
C 12.01 C.pbe-n-rrkjus_psl.1.0.0.UPF
In 114.8 In.pbe-dn-rrkjus_psl.1.0.0.UPF
Ni 58.69 ni_pbe_v1.4.uspp.F.UPF
Zr 91.22 Zr.pbe-spn-rrkjus_psl.1.0.0.UPF

CELL_PARAMETERS {angstrom}
6.34973000 0.00000000 0.00000000
-0.00000000 6.34973000 0.00000000
0.00000000 0.00000000 24.76230000

ATOMIC_POSITIONS {angstrom}
Zr 0.00000000 0.00000000 -2.3811427700000003 0 0 0
Zr 3.17486500 3.17486500 -2.3811427700000003 0 0 0
Zr 3.17486500 -0.00000000 0.79363172
Zr 0.00000000 3.17486500 0.79363172
In 0.00000000 0.00000000 0.79363172
In 3.17486500 0.00000000 -2.3811427700000003 0 0 0
In 0.00000000 3.17486500 -2.3811427700000003 0 0 0
In 3.17486500 3.17486500 0.79363172
Ni 1.58743250 1.58743250 -0.7936317200000005 0 0 0
Ni 4.76229750 4.76229750 2.38114277
Ni 4.76229750 1.58743250 -0.7936317200000005 0 0 0
Ni 1.58743250 4.76229750 2.38114277
Ni 4.76229750 4.76229750 -0.7936317200000005 0 0 0
Ni 1.58743250 1.58743250 2.38114277
Ni 1.58743250 4.76229750 -0.7936317200000005 0 0 0
Ni 4.76229750 1.58743250 2.38114277
C 0.00000000 3.17486500 3.18121268
