&CONTROL
calculation = 'relax'
prefix = 'scf'
pseudo_dir = '/vol0403/data/hp230205/u10028/POT_HYBRID_KKJUS_GBRV'
outdir = './data'
tprnfor = .true.
nstep = 70
disk_io = 'non'
/
&SYSTEM
ibrav = 0
ecutwfc = 50.0
ecutrho = 400
occupations = 'smearing'
smearing = 'mp'
degauss = 0.01
assume_isolated = 'esm'
esm_bc = 'bc1'
input_dft = 'BEEF-VDW'
nosym = .true.
nspin = 1
ntyp = 6
nat = 34
/
&ELECTRONS
electron_maxstep = 200
mixing_beta = 0.1
conv_thr = 1e-06
/
&IONS
ion_dynamics = 'bfgs'
upscale = 1.0
/
&CELL
/

K_POINTS {automatic}
9 6 2 0  0  0

ATOMIC_SPECIES
C 12.01 C.pbe-n-rrkjus_psl.1.0.0.UPF
Cu 63.54 Cu.pbe-dn-rrkjus_psl.1.0.0.UPF
Ge 72.64 Ge.pbe-dn-rrkjus_psl.1.0.0.UPF
O 15.99 O.pbe-n-rrkjus_psl.1.0.0.UPF
Pd 106.4 Pd.pbe-n-rrkjus_psl.1.0.0.UPF
Y 88.90 Y.pbe-spn-rrkjus_psl.1.0.0.UPF


CELL_PARAMETERS {angstrom}
6.58158000 0.00000000 0.00000000
-0.00000000 9.30776000 0.00000000
0.00000000 0.00000000 26.98080000

ATOMIC_POSITIONS {angstrom}
Y 4.93618500 0.00000000 -1.1634120999999986 0 0 0
Y 4.93618500 4.65388000 -1.1634120999999986 0 0 0
Y 1.64539500 2.32694000 -3.4905060999999975 0 0 0
Y 1.64539500 6.98082000 -3.4905060999999975 0 0 0
Y 4.20121996 4.77283317 3.79592875
Y 4.20121996 9.18880683 3.79592875
Y 1.49112276 6.98082000 1.23302256
Y 1.49651966 2.32694000 1.24651296
Cu 0.00000000 0.00000000 -3.4905060999999975 0 0 0
Cu 0.00000000 4.65388000 -3.4905060999999975 0 0 0
Cu 3.29079000 6.98082000 -1.1634120999999986 0 0 0
Cu 3.29079000 2.32694000 -1.1634120999999986 0 0 0
Cu 6.04248278 4.58267564 1.67739634
Cu 6.04254860 0.07120436 1.67739634
Cu 2.05898149 2.32694000 4.04496154
Cu 2.08636086 6.98082000 4.15612243
Ge 1.64539500 0.00000000 -1.1634120999999986 0 0 0
Ge 1.64539500 4.65388000 -1.1634120999999986 0 0 0
Ge 4.93618500 2.32694000 -3.4905060999999975 0 0 0
Ge 4.93618500 6.98082000 -3.4905060999999975 0 0 0
Ge 1.29308302 4.66374623 3.37583770
Ge 1.29321465 9.29780070 3.37583770
Ge 4.79435195 6.98082000 1.07383584
Ge 4.82166551 2.32694000 1.08543758
Pd 0.00000000 2.32694000 -1.1634120999999986 0 0 0
Pd 0.00000000 6.98082000 -1.1634120999999986 0 0 0
Pd 3.29079000 4.65388000 -3.4905060999999975 0 0 0
Pd 3.29079000 0.00000000 -3.4905060999999975 0 0 0
Pd 6.06453108 6.98082000 3.38447155
Pd 5.91401034 2.32694000 3.61299893
Pd 3.23385933 9.30245458 1.14371611
Pd 3.23385933 4.65909235 1.14371611
C 5.74282344 2.32684692 5.54509402
O 5.88518302 2.32684692 6.69798360
