&CONTROL
calculation = 'relax'
prefix = 'scf'
pseudo_dir = '/vol0004/mdt0/data/hp150275/u10028/POT_HYBRID_KKJUS_GBRV'
outdir = './data'
tprnfor = .true.
nstep = 50
disk_io = 'non'
/
&SYSTEM
ibrav = 0
ecutwfc = 50.0
ecutrho = 400
occupations = 'smearing'
smearing = 'mp'
degauss = 0.01
assume_isolated = 'esm'
esm_bc = 'bc1'
input_dft = 'BEEF-VDW'
nosym = .true.
nspin = 2
ntyp = 5
nat = 34
starting_magnetization(1) = 0.0
starting_magnetization(2) = 0.1
starting_magnetization(3) = 0.001
starting_magnetization(4) = 0.0
starting_magnetization(5) = 0.0
/
&ELECTRONS
electron_maxstep = 300
mixing_beta = 0.1
conv_thr = 1e-06
/
&IONS
ion_dynamics = 'bfgs'
upscale = 1.0
/
&CELL
/

K_POINTS {automatic}
8 6 1 0 0 0

ATOMIC_SPECIES
C 12.01 C.pbe-n-rrkjus_psl.1.0.0.UPF
Mn 54.93 mn_pbe_v1.5.uspp.F.UPF
Ni 58.69 ni_pbe_v1.4.uspp.F.UPF
O 15.99 O.pbe-n-rrkjus_psl.1.0.0.UPF
Sb 121.7 Sb.pbe-n-rrkjus_psl.1.0.0.UPF

CELL_PARAMETERS {angstrom}
6.10266000 0.00000000 0.00000000
0.00000000 8.63046000 0.00000000
0.00000000 0.00000000 26.47280000

ATOMIC_POSITIONS {angstrom}
Mn 0.00000000 0.00000000 -3.236299800000001 0 0 0
Mn 3.05133000 2.15761500 -1.078766599999998 0 0 0
Mn 3.05133000 6.47284500 -1.078766599999998 0 0 0
Mn 0.00000000 4.31523000 -3.236299800000001 0 0 0
Mn 6.07464879 4.31531630 1.07003058
Mn 3.03405947 6.44315622 3.27256754
Mn 3.03424255 2.18704487 3.27203808
Mn 0.02459372 0.00000000 1.08591426
Ni 1.52566500 0.00000000 -1.078766599999998 0 0 0
Ni 4.57699500 4.31523000 -1.078766599999998 0 0 0
Ni 4.57699500 0.00000000 -1.078766599999998 0 0 0
Ni 1.52566500 4.31523000 -1.078766599999998 0 0 0
Ni 4.57699500 6.47284500 -3.236299800000001 0 0 0
Ni 1.52566500 2.15761500 -3.236299800000001 0 0 0
Ni 1.52566500 6.47284500 -3.236299800000001 0 0 0
Ni 4.57699500 2.15761500 -3.236299800000001 0 0 0
Ni 1.49930151 4.31514370 3.06793279
Ni 4.63277331 8.63037370 3.00836899
Ni 4.48637050 4.31540261 3.04966656
Ni 1.52651937 8.63037370 3.31995385
Ni 4.64253757 2.14208017 1.14468387
Ni 1.39519013 6.48518656 1.23998595
Ni 1.39586142 2.14535975 1.23972122
Ni 4.64302578 6.48846613 1.14468387
Sb 0.00000000 6.47284500 -1.078766599999998 0 0 0
Sb 3.05133000 0.00000000 -3.236299800000001 0 0 0
Sb 0.00000000 2.15761500 -1.078766599999998 0 0 0
Sb 3.05133000 4.31523000 -3.236299800000001 0 0 0
Sb 6.00373588 2.21250473 3.49573324
Sb 3.01538533 4.31548891 1.01734970
Sb 6.00367485 6.41786897 3.49652742
Sb 3.00409541 8.63020109 1.06632438
C 2.02943958 0.00000000 5.02056652
O 2.22228364 0.00008630 6.16260311
