&CONTROL
calculation = 'relax'
prefix = 'scf'
pseudo_dir = '/vol0004/mdt0/data/hp150275/u10028/POT_HYBRID_KKJUS_GBRV'
outdir = './data'
tprnfor = .true.
nstep = 50
disk_io = 'non'
/
&SYSTEM
ibrav = 0
ecutwfc = 50.0
ecutrho = 400
occupations = 'smearing'
smearing = 'mp'
degauss = 0.01
assume_isolated = 'esm'
esm_bc = 'bc1'
input_dft = 'BEEF-VDW'
nosym = .true.
nspin = 2
ntyp = 2
nat = 32
starting_magnetization(1) = 0.001
starting_magnetization(2) = 0.0
/
&ELECTRONS
electron_maxstep = 200
mixing_beta = 0.1
conv_thr = 1e-06
/
&IONS
ion_dynamics = 'bfgs'
upscale = 1.0
/
&CELL
/

K_POINTS {automatic}
7 7 2 0  0  0

ATOMIC_SPECIES
Ni 58.69 ni_pbe_v1.4.uspp.F.UPF
Sn 118.7 Sn.pbe-dn-rrkjus_psl.1.0.0.UPF

CELL_PARAMETERS {angstrom}
7.51544000 0.00000000 0.00000000
0.00000000 7.51544000 0.00000000
0.00000000 0.00000000 25.63660000

ATOMIC_POSITIONS {angstrom}
Ni 0.00000000 1.87886000 24.69727498
Ni 1.87886000 0.00000000 24.69727498
Ni 1.87886000 1.87886000 22.81836856
Ni 7.51288475 1.87923577 2.73927071
Ni 1.87818361 7.51491392 2.73978344
Ni 1.87938608 1.87765753 0.92240487
Ni 0.00000000 5.63658000 24.69727498
Ni 1.87886000 3.75772000 24.69727498
Ni 1.87886000 5.63658000 22.81836856
Ni 7.51273444 5.63582846 2.73978344
Ni 1.87818361 3.75711876 2.73952708
Ni 1.87870969 5.63763216 0.91984121
Ni 3.75772000 1.87886000 24.69727498
Ni 5.63658000 0.00000000 24.69727498
Ni 5.63658000 1.87886000 22.81836856
Ni 3.76020010 1.87938608 2.73875798
Ni 5.63725639 0.00037577 2.73824525
Ni 5.63620423 1.87803330 0.92419943
Ni 3.75772000 5.63658000 24.69727498
Ni 5.63658000 3.75772000 24.69727498
Ni 5.63658000 5.63658000 22.81836856
Ni 3.76057587 5.63582846 2.74029617
Ni 5.63710608 3.75696846 2.73952708
Ni 5.63688062 5.63725639 0.92214850
Sn 0.00000000 0.00000000 22.81836856
Sn 7.51536485 0.00022546 0.95752701
Sn 0.00000000 3.75772000 22.81836856
Sn 7.51513938 3.75749454 0.95752701
Sn 3.75772000 0.00000000 22.81836856
Sn 3.75779515 7.51536485 0.95778338
Sn 3.75772000 3.75772000 22.81836856
Sn 3.75809577 3.75794546 0.95727064
