&CONTROL
calculation = 'relax'
prefix = 'scf'
pseudo_dir = '/vol0403/data/hp230205/u10028/POT_HYBRID_KKJUS_GBRV'
outdir = './data'
tprnfor = .true.
nstep = 50
disk_io = 'non'
/
&SYSTEM
ibrav = 0
ecutwfc = 50.0
ecutrho = 400
occupations = 'smearing'
smearing = 'mp'
degauss = 0.01
assume_isolated = 'esm'
esm_bc = 'bc1'
input_dft = 'BEEF-VDW'
nosym = .true.
nspin = 2
ntyp = 6
nat = 34
starting_magnetization(1) = 0.0
starting_magnetization(2) = 0.0
starting_magnetization(3) = 0.1
starting_magnetization(4) = 0.0
starting_magnetization(5) = 0.0
starting_magnetization(6) = 0.0
/
&ELECTRONS
electron_maxstep = 400
mixing_beta = 0.1
conv_thr = 1e-06
/
&IONS
ion_dynamics = 'bfgs'
upscale = 1.0
/
&CELL
/

K_POINTS {automatic}
6 6 1 0 0 0

ATOMIC_SPECIES
Al 26.98 Al.pbe-nl-rrkjus_psl.1.0.0.UPF
C 12.01 C.pbe-n-rrkjus_psl.1.0.0.UPF
Fe 55.84 fe_pbe_v1.5.uspp.F.UPF
Li 6.941 Li.pbe-sl-rrkjus_psl.1.0.0.UPF
O 15.99 O.pbe-n-rrkjus_psl.1.0.0.UPF
Pd 106.4 Pd.pbe-n-rrkjus_psl.1.0.0.UPF


CELL_PARAMETERS {angstrom}
5.67696000 0.00000000 0.00000000
0.00000000 8.60712000 0.00000000
0.00000000 0.00000000 26.63180000

ATOMIC_POSITIONS {angstrom}
Li 0.00000000 2.15178000 -1.1052196999999992 0 0 0
Li 5.67690323 2.15160786 3.53084404
Li 0.00000000 6.45534000 -1.1052196999999992 0 0 0
Li 5.67673292 6.45490964 3.83790870
Li 2.83848000 2.15178000 -1.1052196999999992 0 0 0
Li 2.83859354 2.15212428 3.82645702
Li 2.83848000 6.45534000 -1.1052196999999992 0 0 0
Li 2.83853677 6.45499572 3.65494823
Al 0.00000000 0.00000000 -3.3159254199999992 0 0 0
Al 0.00005677 0.11981111 1.01786740
Al 0.00000000 4.30356000 -3.3159254199999992 0 0 0
Al 5.67690323 4.18245782 1.01866635
Al 2.83848000 0.00000000 -3.3159254199999992 0 0 0
Al 2.83830969 8.50262956 1.00987786
Al 2.83848000 4.30356000 -3.3159254199999992 0 0 0
Al 2.83842323 4.40641508 1.01120945
Fe 1.41924000 2.15178000 -3.3159254199999992 0 0 0
Fe 1.62588134 2.15057500 1.25009669
Fe 1.41924000 6.45534000 -3.3159254199999992 0 0 0
Fe 1.27209320 6.45542607 1.25515673
Fe 4.25772000 2.15178000 -3.3159254199999992 0 0 0
Fe 4.05068127 2.15066107 1.24956406
Fe 4.25772000 6.45534000 -3.3159254199999992 0 0 0
Fe 4.40469649 6.45542607 1.25435778
Pd 1.41924000 0.00000000 -1.1052196999999992 0 0 0
Pd 1.43048038 8.57510151 3.12417646
Pd 1.41924000 4.30356000 -1.1052196999999992 0 0 0
Pd 1.43031007 4.33523420 3.12604068
Pd 4.25772000 0.00000000 -1.1052196999999992 0 0 0
Pd 4.24642285 8.57510151 3.12391014
Pd 4.25772000 4.30356000 -1.1052196999999992 0 0 0
Pd 4.24670670 4.33514813 3.12577437
C 0.00056770 2.15272678 5.59800436
O 0.00096508 2.15307107 6.74397071
