&CONTROL
calculation = 'relax'
prefix = 'scf'
pseudo_dir = '/vol0004/mdt0/data/hp150275/u10028/POT_HYBRID_KKJUS_GBRV'
outdir = './data'
tprnfor = .true.
nstep = 50
disk_io = 'non'
/
&SYSTEM
ibrav = 0
ecutwfc = 50.0
ecutrho = 400
occupations = 'smearing'
smearing = 'mp'
degauss = 0.01
assume_isolated = 'esm'
esm_bc = 'bc1'
input_dft = 'BEEF-VDW'
nosym = .true.
nspin = 2
ntyp = 5
nat = 34
starting_magnetization(1) = 0.0
starting_magnetization(2) = 0.0
starting_magnetization(3) = 0.001
starting_magnetization(4) = 0.0
starting_magnetization(5) = 0.0
/
&ELECTRONS
electron_maxstep = 300
mixing_beta = 0.1
conv_thr = 1e-06
/
&IONS
ion_dynamics = 'bfgs'
upscale = 1.0
/
&CELL
/

K_POINTS {automatic}
9 6 2 0  0  0

ATOMIC_SPECIES
C 12.01 C.pbe-n-rrkjus_psl.1.0.0.UPF
In 114.8 In.pbe-dn-rrkjus_psl.1.0.0.UPF
Ni 58.69 ni_pbe_v1.4.uspp.F.UPF
O 15.99 O.pbe-n-rrkjus_psl.1.0.0.UPF
Zr 91.22 Zr.pbe-spn-rrkjus_psl.1.0.0.UPF

CELL_PARAMETERS {angstrom}
6.34973000 0.00000000 0.00000000
0.00000000 8.97987000 0.00000000
0.00000000 0.00000000 26.73490000

ATOMIC_POSITIONS {angstrom}
Zr 0.00000000 0.00000000 -3.367528 0 0 0
Zr 3.17486500 2.24496750 -1.1225984499999981 0 0 0
Zr 3.17486500 6.73490250 -1.1225984499999981 0 0 0
Zr 0.00000000 4.48993500 -3.367528 0 0 0
Zr 6.33595109 4.48984520 1.12981687
Zr 3.16991221 6.72628182 3.33972371
Zr 3.16984871 2.25349838 3.33972371
Zr 6.34484071 0.00000000 1.14906600
In 0.00000000 6.73490250 -1.1225984499999981 0 0 0
In 3.17486500 0.00000000 -3.367528 0 0 0
In 0.00000000 2.24496750 -1.1225984499999981 0 0 0
In 3.17486500 4.48993500 -3.367528 0 0 0
In 6.32744245 2.27361329 3.48542891
In 3.17130915 4.49011460 1.06912865
In 6.32750595 6.70625671 3.48489421
In 3.12444814 8.97969040 1.11832087
Ni 1.58743250 0.00000000 -1.1225984499999981 0 0 0
Ni 4.76229750 4.48993500 -1.1225984499999981 0 0 0
Ni 4.76229750 0.00000000 -1.1225984499999981 0 0 0
Ni 1.58743250 4.48993500 -1.1225984499999981 0 0 0
Ni 4.76229750 6.73490250 -3.367528 0 0 0
Ni 1.58743250 2.24496750 -3.367528 0 0 0
Ni 1.58743250 6.73490250 -3.367528 0 0 0
Ni 4.76229750 2.24496750 -3.367528 0 0 0
Ni 1.61187896 4.49020440 3.19909813
Ni 4.80788856 8.97933121 3.17102649
Ni 4.70622938 4.49029419 3.22128810
Ni 1.59371873 8.97960060 3.50521274
Ni 4.70680086 2.23482025 1.18970305
Ni 1.62095907 6.72502464 1.19692147
Ni 1.62076858 2.25484536 1.19745617
Ni 4.70661037 6.74495995 1.18916835
C 2.20697566 0.00000000 5.15368667
O 2.50496849 0.00000000 6.28323620
