&CONTROL
calculation = 'relax'
prefix = 'scf'
pseudo_dir = '/vol0004/mdt0/data/hp150275/u10028/POT_KKJUS'
outdir = './data'
tprnfor = .true.
nstep = 50
disk_io = 'non'
/
&SYSTEM
ibrav = 0
ecutwfc = 50.0
ecutrho = 400
occupations = 'smearing'
smearing = 'mp'
degauss = 0.01
assume_isolated = 'esm'
esm_bc = 'bc1'
input_dft = 'BEEF-VDW'
nosym = .true.
nspin = 1
ntyp = 3
nat = 33
/
&ELECTRONS
electron_maxstep = 200
mixing_beta = 0.1
conv_thr = 1e-06
/
&IONS
ion_dynamics = 'bfgs'
upscale = 1.0
/
&CELL
/

K_POINTS {automatic}
9 6 2 0  0  0

ATOMIC_SPECIES
Be 9.012 Be.pbe-n-rrkjus_psl.1.0.0.UPF
C 12.01 C.pbe-n-rrkjus_psl.1.0.0.UPF
Cu 63.54 Cu.pbe-dn-rrkjus_psl.1.0.0.UPF

CELL_PARAMETERS {angstrom}
5.39777000 0.00000000 0.00000000
0.00000000 7.63360000 0.00000000
0.00000000 0.00000000 25.72520000

ATOMIC_POSITIONS {angstrom}
Be 0.00000000 0.00000000 -2.8627002600000004 0 0 0
Be 0.00000000 1.90840000 -0.9541476700000011 0 0 0
Be 0.00831257 7.61779845 0.94694461
Be 5.15125384 1.90840000 2.96225678
Be 0.00000000 3.81680000 -2.8627002600000004 0 0 0
Be 0.00000000 5.72520000 -0.9541476700000011 0 0 0
Be 0.00831257 3.83260155 0.94668736
Be 0.13591585 5.72520000 2.76288648
Be 2.69888500 0.00000000 -2.8627002600000004 0 0 0
Be 2.69888500 1.90840000 -0.9541476700000011 0 0 0
Be 2.69057243 7.61779845 0.94668736
Be 2.94540116 1.90840000 2.96225678
Be 2.69888500 3.81680000 -2.8627002600000004 0 0 0
Be 2.69888500 5.72520000 -0.9541476700000011 0 0 0
Be 2.69057243 3.83260155 0.94668736
Be 2.56296915 5.72520000 2.76288648
Cu 1.34944250 1.90840000 -2.8627002600000004 0 0 0
Cu 1.34944250 0.00000000 -0.9541476700000011 0 0 0
Cu 1.34944250 1.90840000 0.98270264
Cu 1.34944250 0.01167941 2.89511401
Cu 1.34944250 5.72520000 -2.8627002600000004 0 0 0
Cu 1.34944250 3.81680000 -0.9541476700000011 0 0 0
Cu 1.34944250 5.72520000 0.88057360
Cu 1.34944250 3.80512059 2.89511401
Cu 4.04832750 1.90840000 -2.8627002600000004 0 0 0
Cu 4.04832750 0.00000000 -0.9541476700000011 0 0 0
Cu 4.04832750 1.90840000 0.92739346
Cu 4.04832750 7.48077533 2.84392086
Cu 4.04832750 5.72520000 -2.8627002600000004 0 0 0
Cu 4.04832750 3.81680000 -0.9541476700000011 0 0 0
Cu 4.04832750 5.72520000 0.91967590
Cu 4.04832750 3.96962467 2.84392086
C 1.34944250 1.90840000 3.31880805
