&CONTROL
calculation = 'relax'
prefix = 'scf'
pseudo_dir = '/vol0004/mdt0/data/hp150275/u10028/POT_KKJUS'
outdir = './data'
tprnfor = .true.
nstep = 50
disk_io = 'non'
/
&SYSTEM
ibrav = 0
ecutwfc = 50.0
ecutrho = 400
occupations = 'smearing'
smearing = 'mp'
degauss = 0.01
assume_isolated = 'esm'
esm_bc = 'bc1'
input_dft = 'BEEF-VDW'
nosym = .true.
nspin = 1
ntyp = 2
nat = 32
/
&ELECTRONS
electron_maxstep = 200
mixing_beta = 0.1
conv_thr = 1e-06
/
&IONS
ion_dynamics = 'bfgs'
upscale = 1.0
/
&CELL
/

K_POINTS {automatic}
8 6 2 0  0  0

ATOMIC_SPECIES
Ca 40.07 Ca.pbe-spn-rrkjus_psl.1.0.0.UPF
In 114.8 In.pbe-dn-rrkjus_psl.1.0.0.UPF

CELL_PARAMETERS {angstrom}
8.11767000 0.00000000 0.00000000
0.00000000 11.48010000 0.00000000
0.00000000 0.00000000 28.61010000

ATOMIC_POSITIONS {angstrom}
Ca 2.02941750 0.00000000 -1.4350826199999993 0 0 0
Ca 6.08825250 5.74005000 -1.4350826199999993 0 0 0
Ca 6.08825250 0.00000000 -1.4350826199999993 0 0 0
Ca 2.02941750 5.74005000 -1.4350826199999993 0 0 0
Ca 6.08825250 8.61007500 -4.30496175 0 0 0
Ca 2.02941750 2.87002500 -4.30496175 0 0 0
Ca 2.02941750 8.61007500 -4.30496175 0 0 0
Ca 6.08825250 2.87002500 -4.30496175 0 0 0
Ca 0.00000000 8.61007500 -1.4350826199999993 0 0 0
Ca 4.05883500 0.00000000 -4.30496175 0 0 0
Ca 0.00000000 2.87002500 -1.4350826199999993 0 0 0
Ca 4.05883500 5.74005000 -4.30496175 0 0 0
Ca 2.08932590 5.73936119 4.30067023
Ca 6.02655821 0.00080361 4.30295904
Ca 6.02704527 5.74016480 4.30181464
Ca 2.08932590 11.47964080 4.30210074
Ca 6.19443162 2.87071381 1.62047606
Ca 1.92267014 8.61018980 1.62190657
Ca 1.92291367 2.87036940 1.62018996
Ca 6.19418809 8.61041940 1.62219267
Ca 8.11726412 2.87025460 5.04911045
Ca 4.05915971 5.74211642 1.40160880
Ca 8.11653353 8.60961580 5.05054095
Ca 4.05891618 11.47987040 1.40332541
In 0.00000000 0.00000000 -4.30496175 0 0 0
In 4.05883500 2.87002500 -1.4350826199999993 0 0 0
In 4.05883500 8.61007500 -1.4350826199999993 0 0 0
In 0.00000000 5.74005000 -4.30496175 0 0 0
In 8.11661470 5.74349403 1.32436153
In 4.05842912 8.60777898 4.12872353
In 4.05851029 2.87151741 4.12757913
In 8.11661470 11.47642637 1.33151405
