&CONTROL
calculation = 'relax'
prefix = 'scf'
pseudo_dir = '/vol0004/mdt0/data/hp150275/u10028/POT_KKJUS'
outdir = './data'
tprnfor = .true.
nstep = 50
disk_io = 'non'
/
&SYSTEM
ibrav = 0
ecutwfc = 50.0
ecutrho = 400
occupations = 'smearing'
smearing = 'mp'
degauss = 0.01
assume_isolated = 'esm'
esm_bc = 'bc1'
input_dft = 'BEEF-VDW'
nosym = .true.
nspin = 1
ntyp = 2
nat = 32
/
&ELECTRONS
electron_maxstep = 200
mixing_beta = 0.1
conv_thr = 1e-06
/
&IONS
ion_dynamics = 'bfgs'
upscale = 1.0
/
&CELL
/

K_POINTS {automatic}
8 8 1 0 0 0

ATOMIC_SPECIES
Cu 63.54 Cu.pbe-dn-rrkjus_psl.1.0.0.UPF
Pd 106.4 Pd.pbe-n-rrkjus_psl.1.0.0.UPF

CELL_PARAMETERS {angstrom}
7.51398000 0.00000000 0.00000000
-0.00000000 7.51398000 0.00000000
0.00000000 0.00000000 25.63550000

ATOMIC_POSITIONS {angstrom}
Cu 0.00000000 1.87849500 -0.9392847199999999 0 0 0
Cu 1.87849500 0.00000000 -0.9392847199999999 0 0 0
Cu 1.87849500 1.87849500 -2.8178541599999996 0 0 0
Cu 0.00000000 1.87849500 2.81785416
Cu 1.87849500 -0.00000000 2.81785416
Cu 1.87849500 1.87849500 0.93928472
Cu 0.00000000 5.63548500 -0.9392847199999999 0 0 0
Cu 1.87849500 3.75699000 -0.9392847199999999 0 0 0
Cu 1.87849500 5.63548500 -2.8178541599999996 0 0 0
Cu 0.00000000 5.63548500 2.81785416
Cu 1.87849500 3.75699000 2.81785416
Cu 1.87849500 5.63548500 0.93928472
Cu 3.75699000 1.87849500 -0.9392847199999999 0 0 0
Cu 5.63548500 0.00000000 -0.9392847199999999 0 0 0
Cu 5.63548500 1.87849500 -2.8178541599999996 0 0 0
Cu 3.75699000 1.87849500 2.81785416
Cu 5.63548500 -0.00000000 2.81785416
Cu 5.63548500 1.87849500 0.93928472
Cu 3.75699000 5.63548500 -0.9392847199999999 0 0 0
Cu 5.63548500 3.75699000 -0.9392847199999999 0 0 0
Cu 5.63548500 5.63548500 -2.8178541599999996 0 0 0
Cu 3.75699000 5.63548500 2.81785416
Cu 5.63548500 3.75699000 2.81785416
Cu 5.63548500 5.63548500 0.93928472
Pd 0.00000000 0.00000000 -2.8178541599999996 0 0 0
Pd 0.00000000 0.00000000 0.93928472
Pd 0.00000000 3.75699000 -2.8178541599999996 0 0 0
Pd 0.00000000 3.75699000 0.93928472
Pd 3.75699000 0.00000000 -2.8178541599999996 0 0 0
Pd 3.75699000 -0.00000000 0.93928472
Pd 3.75699000 3.75699000 -2.8178541599999996 0 0 0
Pd 3.75699000 3.75699000 0.93928472
