&CONTROL
calculation = 'relax'
prefix = 'scf'
pseudo_dir = '/vol0403/data/hp230205/u10028/POT_HYBRID_KKJUS_GBRV'
outdir = './data'
tprnfor = .true.
nstep = 70
disk_io = 'non'
/
&SYSTEM
ibrav = 0
ecutwfc = 50.0
ecutrho = 400
occupations = 'smearing'
smearing = 'mp'
degauss = 0.01
assume_isolated = 'esm'
esm_bc = 'bc1'
input_dft = 'BEEF-VDW'
nosym = .true.
nspin = 1
ntyp = 4
nat = 32
/
&ELECTRONS
electron_maxstep = 200
mixing_beta = 0.1
conv_thr = 1e-06
/
&IONS
ion_dynamics = 'bfgs'
upscale = 1.0
/
&CELL
/

K_POINTS {automatic}
6 6 1 0 0 0

ATOMIC_SPECIES
Au 196.9 Au.pbe-n-rrkjus_psl.1.0.0.UPF
Ge 72.64 Ge.pbe-dn-rrkjus_psl.1.0.0.UPF
Li 6.941 Li.pbe-sl-rrkjus_psl.1.0.0.UPF
Mg 24.30 Mg.pbe-spnl-rrkjus_psl.1.0.0.UPF


CELL_PARAMETERS {angstrom}
6.50951000 0.00000000 0.00000000
-0.00000000 9.20584000 0.00000000
0.00000000 0.00000000 26.90440000

ATOMIC_POSITIONS {angstrom}
Li 4.88213250 0.00000000 -1.1507011899999995 0 0 0
Li 4.88213250 4.60292000 -1.1507011899999995 0 0 0
Li 1.62737750 2.30146000 -3.4521035599999976 0 0 0
Li 1.62737750 6.90438000 -3.4521035599999976 0 0 0
Li 4.87939851 4.60273588 3.60976335
Li 4.87939851 0.00018412 3.60976335
Li 1.58005336 6.90438000 1.07779026
Li 1.58024865 2.30155206 1.07725218
Mg 1.62737750 0.00000000 -1.1507011899999995 0 0 0
Mg 1.62737750 4.60292000 -1.1507011899999995 0 0 0
Mg 4.88213250 2.30146000 -3.4521035599999976 0 0 0
Mg 4.88213250 6.90438000 -3.4521035599999976 0 0 0
Mg 1.56065502 4.60328823 3.73809734
Mg 1.56058993 9.20547177 3.73836638
Mg 4.91591686 6.90447206 1.16765096
Mg 4.91650271 2.30136794 1.16792000
Ge 0.00000000 2.30146000 -1.1507011899999995 0 0 0
Ge 0.00000000 6.90438000 -1.1507011899999995 0 0 0
Ge 3.25475500 4.60292000 -3.4521035599999976 0 0 0
Ge 3.25475500 0.00000000 -3.4521035599999976 0 0 0
Ge 6.49121828 6.90438000 3.55111176
Ge 6.49199942 2.30146000 3.55084271
Ge 3.20176759 0.00064441 1.38719086
Ge 3.20170249 4.60227559 1.38745991
Au 0.00000000 0.00000000 -3.4521035599999976 0 0 0
Au 0.00000000 4.60292000 -3.4521035599999976 0 0 0
Au 3.25475500 6.90438000 -1.1507011899999995 0 0 0
Au 3.25475500 2.30146000 -1.1507011899999995 0 0 0
Au 0.07590089 4.60292000 1.29921348
Au 0.07609617 0.00000000 1.29921348
Au 3.09195215 2.30146000 3.28664150
Au 3.09253801 6.90438000 3.28717959
