&CONTROL
calculation = 'relax'
prefix = 'scf'
pseudo_dir = '/vol0403/data/hp230205/u10028/POT_HYBRID_KKJUS_GBRV'
outdir = './data'
tprnfor = .true.
nstep = 70
disk_io = 'non'
/
&SYSTEM
ibrav = 0
ecutwfc = 50.0
ecutrho = 400
occupations = 'smearing'
smearing = 'mp'
degauss = 0.01
assume_isolated = 'esm'
esm_bc = 'bc1'
input_dft = 'BEEF-VDW'
nosym = .true.
nspin = 1
ntyp = 6
nat = 18
/
&ELECTRONS
electron_maxstep = 200
mixing_beta = 0.1
conv_thr = 1e-06
/
&IONS
ion_dynamics = 'bfgs'
upscale = 1.0
/
&CELL
/

K_POINTS {automatic}
11 7 2 0  0  0

ATOMIC_SPECIES
C 12.01 C.pbe-n-rrkjus_psl.1.0.0.UPF
Ge 72.64 Ge.pbe-dn-rrkjus_psl.1.0.0.UPF
In 114.8 In.pbe-dn-rrkjus_psl.1.0.0.UPF
O 15.99 O.pbe-n-rrkjus_psl.1.0.0.UPF
Pd 106.4 Pd.pbe-n-rrkjus_psl.1.0.0.UPF
Sc 44.95 Sc.pbe-spn-rrkjus_psl.1.0.0.UPF


CELL_PARAMETERS {angstrom}
5.71274000 0.00000000 0.00000000
-0.00000000 9.28368000 0.00000000
0.00000000 0.00000000 24.27220000

ATOMIC_POSITIONS {angstrom}
Sc 2.85637000 0.00000000 -2.13619632 0 0 0
Sc 4.98567958 9.24840202 0.71554446
Sc 2.85637000 4.64184000 -2.13619632 0 0 0
Sc 4.98590809 4.67739649 0.71530173
In 1.31958581 2.32092000 -0.7121463500000011 0 0 0
In 3.43541333 2.32138418 2.08862281
In 1.31958581 6.96276000 -0.7121463500000011 0 0 0
In 3.39325331 6.96229582 2.35027713
Ge 0.00000000 0.00000000 -2.13619632 0 0 0
Ge 2.09017731 9.25777853 1.23254232
Ge 0.00000000 4.64184000 -2.13619632 0 0 0
Ge 2.08903476 4.66672026 1.23327048
Pd 4.17595581 2.32092000 -0.7121463500000011 0 0 0
Pd 0.55453567 2.32156986 2.05294268
Pd 4.17595581 6.96276000 -0.7121463500000011 0 0 0
Pd 0.47838485 6.96322418 1.88449361
C 0.57533005 2.32101284 4.03282603
O 0.66616261 2.32082716 5.18114381
