&CONTROL
calculation = 'relax'
prefix = 'scf'
pseudo_dir = '/vol0004/mdt0/data/hp150275/u10028/POT_HYBRID_KKJUS_GBRV'
outdir = './data'
tprnfor = .true.
nstep = 50
disk_io = 'non'
/
&SYSTEM
ibrav = 0
ecutwfc = 50.0
ecutrho = 400
occupations = 'smearing'
smearing = 'mp'
degauss = 0.01
assume_isolated = 'esm'
esm_bc = 'bc1'
input_dft = 'BEEF-VDW'
nosym = .true.
nspin = 2
ntyp = 3
nat = 33
starting_magnetization(1) = 0.0
starting_magnetization(2) = 0.1
starting_magnetization(3) = 0.0
/
&ELECTRONS
electron_maxstep = 400
mixing_beta = 0.1
conv_thr = 1e-06
/
&IONS
ion_dynamics = 'bfgs'
upscale = 1.0
/
&CELL
/

K_POINTS {automatic}
6 6 1 0 0 0

ATOMIC_SPECIES
C 12.01 C.pbe-n-rrkjus_psl.1.0.0.UPF
Mn 54.93 mn_pbe_v1.5.uspp.F.UPF
Pt 195.0 Pt.pbe-n-rrkjus_psl.1.0.0.UPF

CELL_PARAMETERS {angstrom}
8.81047000 0.00000000 0.00000000
0.00000000 8.81047000 0.00000000
0.00000000 0.00000000 26.60790000

ATOMIC_POSITIONS {angstrom}
Mn 0.00000000 2.20261750 -1.1013009800000013 0 0 0
Mn 2.20261750 0.00000000 -1.1013009800000013 0 0 0
Mn 2.20261750 2.20261750 -3.3039029400000004 0 0 0
Mn 8.79804724 2.01310429 2.17572798
Mn 1.99134243 8.81038190 2.20872178
Mn 2.18349878 2.16711131 0.53402055
Mn 0.00000000 6.60785250 -1.1013009800000013 0 0 0
Mn 2.20261750 4.40523500 -1.1013009800000013 0 0 0
Mn 2.20261750 6.60785250 -3.3039029400000004 0 0 0
Mn 8.79804724 6.79727761 2.17572798
Mn 2.21715478 4.40532310 2.06158009
Mn 2.18349878 6.64335869 0.53402055
Mn 4.40523500 2.20261750 -1.1013009800000013 0 0 0
Mn 6.60785250 0.00000000 -1.1013009800000013 0 0 0
Mn 6.60785250 2.20261750 -3.3039029400000004 0 0 0
Mn 4.41422168 2.22023844 2.04268848
Mn 6.78115444 0.00000000 2.10335450
Mn 6.64952602 2.25503980 0.53987429
Mn 4.40523500 6.60785250 -1.1013009800000013 0 0 0
Mn 6.60785250 4.40523500 -1.1013009800000013 0 0 0
Mn 6.60785250 6.60785250 -3.3039029400000004 0 0 0
Mn 4.41422168 6.59031966 2.04268848
Mn 6.61736781 4.40549931 2.01315371
Mn 6.64934981 6.55560641 0.53987429
Pt 0.00000000 0.00000000 -3.3039029400000004 0 0 0
Pt 0.00563870 8.81029379 0.31131243
Pt 0.00000000 4.40523500 -3.3039029400000004 0 0 0
Pt 0.05806100 4.40523500 0.64391118
Pt 4.40523500 0.00000000 -3.3039029400000004 0 0 0
Pt 4.37959653 8.81029379 0.64391118
Pt 4.40523500 4.40523500 -3.3039029400000004 0 0 0
Pt 4.37448646 4.40541121 0.51752365
C 8.77884041 8.81038190 2.47613117
