&CONTROL
calculation = 'relax'
prefix = 'scf'
pseudo_dir = '/vol0004/mdt0/data/hp150275/u10028/POT_KKJUS'
outdir = './data'
tprnfor = .true.
nstep = 50
disk_io = 'non'
/
&SYSTEM
ibrav = 0
ecutwfc = 50.0
ecutrho = 400
occupations = 'smearing'
smearing = 'mp'
degauss = 0.01
assume_isolated = 'esm'
esm_bc = 'bc1'
input_dft = 'BEEF-VDW'
nosym = .true.
nspin = 1
ntyp = 5
nat = 18
/
&ELECTRONS
electron_maxstep = 200
mixing_beta = 0.1
conv_thr = 1e-06
/
&IONS
ion_dynamics = 'bfgs'
upscale = 1.0
/
&CELL
/

K_POINTS {automatic}
9 9 2 0  0  0

ATOMIC_SPECIES
C 12.01 C.pbe-n-rrkjus_psl.1.0.0.UPF
Li 6.941 Li.pbe-sl-rrkjus_psl.1.0.0.UPF
O 15.99 O.pbe-n-rrkjus_psl.1.0.0.UPF
Pd 106.4 Pd.pbe-n-rrkjus_psl.1.0.0.UPF
Sb 121.7 Sb.pbe-n-rrkjus_psl.1.0.0.UPF

CELL_PARAMETERS {angstrom}
6.43375000 0.00000000 0.00000000
0.00000000 6.43375000 0.00000000
0.00000000 0.00000000 24.82530000

ATOMIC_POSITIONS {angstrom}
Li 0.00443929 0.00443929 0.71397563
Li 3.21687500 0.00000000 -2.412770909999999 0 0 0
Li 0.00000000 3.21687500 -2.412770909999999 0 0 0
Li 3.21243571 3.21243571 0.71397563
Li 1.60843750 1.60837316 2.77695806
Li 1.60843750 4.82531250 -0.804339719999998 0 0 0
Li 4.82537684 4.82531250 2.68287017
Li 4.82531250 1.60843750 -0.804339719999998 0 0 0
Sb 0.00000000 0.00000000 -2.412770909999999 0 0 0
Sb 3.21687500 3.21687500 -2.412770909999999 0 0 0
Sb 3.21179234 0.00508266 0.89594508
Sb 0.00501833 3.21172800 0.89619333
Pd 1.60843750 1.60843750 -0.804339719999998 0 0 0
Pd 1.60843750 4.82531250 2.23104971
Pd 4.82531250 4.82531250 -0.804339719999998 0 0 0
Pd 4.82505515 1.60843750 2.23129796
C 1.60869485 1.60863051 4.92111922
O 1.60863051 1.60863051 6.05935922
