&CONTROL
calculation = 'relax'
prefix = 'scf'
pseudo_dir = '/vol0004/mdt0/data/hp150275/u10028/POT_HYBRID_KKJUS_GBRV'
outdir = './data'
tprnfor = .true.
nstep = 50
disk_io = 'non'
/
&SYSTEM
ibrav = 0
ecutwfc = 50.0
ecutrho = 400
occupations = 'smearing'
smearing = 'mp'
degauss = 0.01
assume_isolated = 'esm'
esm_bc = 'bc1'
input_dft = 'BEEF-VDW'
nosym = .true.
nspin = 2
ntyp = 4
nat = 18
starting_magnetization(1) = 0.0
starting_magnetization(2) = 0.0
starting_magnetization(3) = 0.01
starting_magnetization(4) = 0.0
/
&ELECTRONS
electron_maxstep = 200
mixing_beta = 0.1
conv_thr = 1e-06
/
&IONS
ion_dynamics = 'bfgs'
upscale = 1.0
/
&CELL
/

K_POINTS {automatic}
6 8 1 0 0 0

ATOMIC_SPECIES
C 12.01 C.pbe-n-rrkjus_psl.1.0.0.UPF
In 114.8 In.pbe-dn-rrkjus_psl.1.0.0.UPF
Ni 58.69 ni_pbe_v1.4.uspp.F.UPF
O 15.99 O.pbe-n-rrkjus_psl.1.0.0.UPF

CELL_PARAMETERS {angstrom}
7.54029000 0.00000000 0.00000000
-0.00000000 5.33179000 0.00000000
0.00000000 0.00000000 23.99880000

ATOMIC_POSITIONS {angstrom}
In 0.00000000 0.00000000 1.99934003
In 0.00000000 2.66589500 -0.66644668 0 0 0
In 3.77014500 -0.00000000 1.99934003
In 3.77014500 2.66589500 -0.66644668 0 0 0
Ni 0.00000000 2.66589500 1.99934003
Ni 1.88507250 3.99884250 0.66644668
Ni 1.88507250 1.33294750 0.66644668
Ni 0.00000000 0.00000000 -0.66644668 0 0 0
Ni 1.88507250 1.33294750 -1.999340029999999 0 0 0
Ni 1.88507250 3.99884250 -1.999340029999999 0 0 0
Ni 3.77014500 2.66589500 1.99934003
Ni 5.65521750 3.99884250 0.66644668
Ni 5.65521750 1.33294750 0.66644668
Ni 3.77014500 0.00000000 -0.66644668 0 0 0
Ni 5.65521750 1.33294750 -1.999340029999999 0 0 0
Ni 5.65521750 3.99884250 -1.999340029999999 0 0 0
C 0.00000000 2.66589500 3.89932502
O 0.00000000 2.66589500 5.04934752
