&CONTROL
calculation = 'relax'
prefix = 'scf'
pseudo_dir = '/vol0403/data/hp230205/u10028/POT_HYBRID_KKJUS_GBRV'
outdir = './data'
tprnfor = .true.
nstep = 50
disk_io = 'non'
/
&SYSTEM
ibrav = 0
ecutwfc = 50.0
ecutrho = 400
occupations = 'smearing'
smearing = 'mp'
degauss = 0.01
assume_isolated = 'esm'
esm_bc = 'bc1'
input_dft = 'BEEF-VDW'
nosym = .true.
nspin = 1
ntyp = 6
nat = 34
/
&ELECTRONS
electron_maxstep = 200
mixing_beta = 0.1
conv_thr = 1e-06
/
&IONS
ion_dynamics = 'bfgs'
upscale = 1.0
/
&CELL
/

K_POINTS {automatic}
6 6 1 0 0 0

ATOMIC_SPECIES
C 12.01 C.pbe-n-rrkjus_psl.1.0.0.UPF
In 114.8 In.pbe-dn-rrkjus_psl.1.0.0.UPF
Li 6.941 Li.pbe-sl-rrkjus_psl.1.0.0.UPF
Mg 24.30 Mg.pbe-spnl-rrkjus_psl.1.0.0.UPF
O 15.99 O.pbe-n-rrkjus_psl.1.0.0.UPF
Pd 106.4 Pd.pbe-n-rrkjus_psl.1.0.0.UPF


CELL_PARAMETERS {angstrom}
6.52273000 0.00000000 0.00000000
0.00000000 9.22454000 0.00000000
0.00000000 0.00000000 26.91840000

ATOMIC_POSITIONS {angstrom}
Li 1.63068250 0.00000000 -1.1531842599999997 0 0 0
Li 1.63068250 4.61227000 -1.1531842599999997 0 0 0
Li 4.89204750 2.30613500 -3.4592835799999975 0 0 0
Li 4.89204750 6.91840500 -3.4592835799999975 0 0 0
Li 1.73198050 4.61227000 3.78418867
Li 1.54621315 0.00000000 3.78768806
Li 4.85473748 6.91453069 1.17821837
Li 4.85467226 2.30991706 1.17821837
Mg 0.00000000 2.30613500 -1.1531842599999997 0 0 0
Mg 0.00000000 6.91840500 -1.1531842599999997 0 0 0
Mg 3.26136500 4.61227000 -3.4592835799999975 0 0 0
Mg 3.26136500 0.00000000 -3.4592835799999975 0 0 0
Mg 6.41027813 6.82662083 3.50369894
Mg 6.41027813 2.39791917 3.50369894
Mg 3.22679453 0.00000000 1.28320013
Mg 3.20116020 4.61227000 1.15560691
In 0.00000000 0.00000000 -3.4592835799999975 0 0 0
In 0.00000000 4.61227000 -3.4592835799999975 0 0 0
In 3.26136500 6.91840500 -1.1531842599999997 0 0 0
In 3.26136500 2.30613500 -1.1531842599999997 0 0 0
In 0.01200182 4.61227000 1.19113920
In 6.50877136 0.00000000 1.21482739
In 3.22529430 2.29940109 3.60383539
In 3.22522908 6.92504667 3.60383539
Pd 4.89204750 0.00000000 -1.1531842599999997 0 0 0
Pd 4.89204750 4.61227000 -1.1531842599999997 0 0 0
Pd 1.63068250 2.30613500 -3.4592835799999975 0 0 0
Pd 1.63068250 6.91840500 -3.4592835799999975 0 0 0
Pd 4.77326859 4.61227000 3.30773299
Pd 4.97201617 0.00000000 3.58795354
Pd 1.61117954 6.92707607 1.13111117
Pd 1.61117954 2.29746393 1.13111117
C 5.27395334 0.00000000 5.52877018
O 5.30695836 0.00000000 6.68410790
