&CONTROL
calculation = 'relax'
prefix = 'scf'
pseudo_dir = '/vol0004/mdt0/data/hp150275/u10028/POT_KKJUS'
outdir = './data'
tprnfor = .true.
nstep = 50
disk_io = 'non'
/
&SYSTEM
ibrav = 0
ecutwfc = 50.0
ecutrho = 400
occupations = 'smearing'
smearing = 'mp'
degauss = 0.01
assume_isolated = 'esm'
esm_bc = 'bc1'
input_dft = 'BEEF-VDW'
nosym = .true.
nspin = 1
ntyp = 3
nat = 32
/
&ELECTRONS
electron_maxstep = 200
mixing_beta = 0.1
conv_thr = 1e-06
/
&IONS
ion_dynamics = 'bfgs'
upscale = 1.0
/
&CELL
/

K_POINTS {automatic}
9 6 2 0  0  0

ATOMIC_SPECIES
Ni 58.69 Ni.pbe-spn-rrkjus_psl.1.0.0.UPF
Sn 118.7 Sn.pbe-dn-rrkjus_psl.1.0.0.UPF
Ti 47.86 Ti.pbe-spn-rrkjus_psl.1.0.0.UPF

CELL_PARAMETERS {angstrom}
6.14888000 0.00000000 0.00000000
0.00000000 8.69583000 0.00000000
0.00000000 0.00000000 26.52190000

ATOMIC_POSITIONS {angstrom}
Ti 0.00000000 0.00000000 -3.2608676099999983 0 0 0
Ti 3.07444000 2.17395750 -1.086867459999997 0 0 0
Ti 3.07444000 6.52187250 -1.086867459999997 0 0 0
Ti 0.00000000 4.34791500 -3.2608676099999983 0 0 0
Ti 0.00000000 4.34800196 1.13168947
Ti 3.07444000 6.52187250 3.21047599
Ti 3.07444000 2.17395750 3.21047599
Ti 0.00000000 0.00000000 1.13168947
Ni 1.53722000 0.00000000 -1.086867459999997 0 0 0
Ni 4.61166000 4.34791500 -1.086867459999997 0 0 0
Ni 4.61166000 0.00000000 -1.086867459999997 0 0 0
Ni 1.53722000 4.34791500 -1.086867459999997 0 0 0
Ni 4.61166000 6.52187250 -3.2608676099999983 0 0 0
Ni 1.53722000 2.17395750 -3.2608676099999983 0 0 0
Ni 1.53722000 6.52187250 -3.2608676099999983 0 0 0
Ni 4.61166000 2.17395750 -3.2608676099999983 0 0 0
Ni 1.61039167 4.34791500 3.13913208
Ni 4.53805791 0.00008696 3.13886686
Ni 4.53848833 4.34791500 3.13913208
Ni 1.61082209 0.00008696 3.13886686
Ni 4.68968929 2.17395750 1.19162897
Ni 1.45919071 6.52187250 1.19162897
Ni 1.45919071 2.17395750 1.19162897
Ni 4.68962780 6.52195946 1.19162897
Sn 0.00000000 6.52187250 -1.086867459999997 0 0 0
Sn 3.07444000 0.00000000 -3.2608676099999983 0 0 0
Sn 0.00000000 2.17395750 -1.086867459999997 0 0 0
Sn 3.07444000 4.34791500 -3.2608676099999983 0 0 0
Sn 0.00000000 2.17378358 3.55605635
Sn 3.07444000 4.34782804 1.02374534
Sn 0.00000000 6.52213337 3.55632157
Sn 3.07444000 0.00017392 1.02348012
