&CONTROL
calculation = 'relax'
prefix = 'scf'
pseudo_dir = '/vol0004/mdt0/data/hp150275/u10028/POT_KKJUS'
outdir = './data'
tprnfor = .true.
nstep = 50
disk_io = 'non'
/
&SYSTEM
ibrav = 0
ecutwfc = 50.0
ecutrho = 400
occupations = 'smearing'
smearing = 'mp'
degauss = 0.01
assume_isolated = 'esm'
esm_bc = 'bc1'
input_dft = 'BEEF-VDW'
nosym = .true.
nspin = 1
ntyp = 3
nat = 33
/
&ELECTRONS
electron_maxstep = 200
mixing_beta = 0.1
conv_thr = 1e-06
/
&IONS
ion_dynamics = 'bfgs'
upscale = 1.0
/
&CELL
/

K_POINTS {automatic}
9 6 2 0  0  0

ATOMIC_SPECIES
C 12.01 C.pbe-n-rrkjus_psl.1.0.0.UPF
Li 6.941 Li.pbe-sl-rrkjus_psl.1.0.0.UPF
Pb 207.2 Pb.pbe-dn-rrkjus_psl.1.0.0.UPF

CELL_PARAMETERS {angstrom}
7.21597000 0.00000000 0.00000000
0.00000000 10.20490000 0.00000000
0.00000000 0.00000000 27.65370000

ATOMIC_POSITIONS {angstrom}
Li 0.00000000 0.00000000 -3.8267190100000015 0 0 0
Li 0.00000000 2.55122500 -1.2756651800000007 0 0 0
Li 0.00000000 0.00010205 1.35005363
Li 7.21589784 2.16354085 4.30734031
Li 0.00000000 5.10245000 -3.8267190100000015 0 0 0
Li 0.00000000 7.65367500 -1.2756651800000007 0 0 0
Li 0.00000000 5.10245000 1.16034925
Li 0.00007216 8.04135915 4.30706378
Li 3.60798500 0.00000000 -3.8267190100000015 0 0 0
Li 3.60798500 2.55122500 -1.2756651800000007 0 0 0
Li 3.60798500 0.00000000 1.14762855
Li 3.60798500 2.69011369 3.75371324
Li 3.60798500 5.10245000 -3.8267190100000015 0 0 0
Li 3.60798500 7.65367500 -1.2756651800000007 0 0 0
Li 3.60798500 5.10245000 1.30138312
Li 3.60798500 7.51468426 3.75343670
Pb 1.80399250 2.55122500 -3.8267190100000015 0 0 0
Pb 1.80399250 0.00000000 -1.2756651800000007 0 0 0
Pb 1.69019665 2.59857574 1.42499516
Pb 1.70960761 5.10245000 3.81759329
Pb 1.80399250 7.65367500 -3.8267190100000015 0 0 0
Pb 1.80399250 5.10245000 -1.2756651800000007 0 0 0
Pb 1.69019665 7.60642631 1.42499516
Pb 1.96671262 0.00010205 3.79159881
Pb 5.41197750 2.55122500 -3.8267190100000015 0 0 0
Pb 5.41197750 0.00000000 -1.2756651800000007 0 0 0
Pb 5.52570119 2.59857574 1.42499516
Pb 5.50636239 5.10234795 3.81759329
Pb 5.41197750 7.65367500 -3.8267190100000015 0 0 0
Pb 5.41197750 5.10245000 -1.2756651800000007 0 0 0
Pb 5.52584551 7.60632426 1.42499516
Pb 5.24925738 0.00000000 3.79159881
C 0.00000000 0.00000000 4.76556212
