&CONTROL
calculation = 'relax'
prefix = 'scf'
pseudo_dir = '/vol0004/mdt0/data/hp150275/u10028/POT_HYBRID_KKJUS_GBRV'
outdir = './data'
tprnfor = .true.
nstep = 50
disk_io = 'non'
/
&SYSTEM
ibrav = 0
ecutwfc = 50.0
ecutrho = 400
occupations = 'smearing'
smearing = 'mp'
degauss = 0.01
assume_isolated = 'esm'
esm_bc = 'bc1'
input_dft = 'BEEF-VDW'
nosym = .true.
nspin = 2
ntyp = 5
nat = 34
starting_magnetization(1) = 0.0
starting_magnetization(2) = 0.0
starting_magnetization(3) = 0.1
starting_magnetization(4) = 0.0
starting_magnetization(5) = 0.0
/
&ELECTRONS
electron_maxstep = 200
mixing_beta = 0.1
conv_thr = 1e-06
/
&IONS
ion_dynamics = 'bfgs'
upscale = 1.0
/
&CELL
/

K_POINTS {automatic}
9 6 2 0  0  0

ATOMIC_SPECIES
Al 26.98 Al.pbe-nl-rrkjus_psl.1.0.0.UPF
C 12.01 C.pbe-n-rrkjus_psl.1.0.0.UPF
Co 58.93 co_pbe_v1.2.uspp.F.UPF
O 15.99 O.pbe-n-rrkjus_psl.1.0.0.UPF
V 50.94 V.pbe-spnl-rrkjus_psl.1.0.0.UPF

CELL_PARAMETERS {angstrom}
5.76795000 0.00000000 0.00000000
0.00000000 8.15711000 0.00000000
0.00000000 0.00000000 26.11780000

ATOMIC_POSITIONS {angstrom}
Al 0.00000000 0.00000000 23.05888326
Al 2.88397500 2.03927750 25.09816109
Al 2.88397500 6.11783250 25.09816109
Al 0.00000000 4.07855500 23.05888326
Al 0.00000000 4.07570001 1.04340611
Al 2.88397500 6.11775093 3.11977121
Al 2.88397500 2.03935907 3.10697349
Al 0.00000000 0.00285499 1.04340611
V 0.00000000 6.11783250 25.09816109
V 2.88397500 0.00000000 23.05888326
V 0.00000000 2.03927750 25.09816109
V 2.88397500 4.07855500 23.05888326
V 0.00000000 2.03935907 3.00589760
V 2.88397500 4.07382388 1.09825349
V 0.00000000 6.11775093 3.06414030
V 2.88397500 0.00473112 1.09799231
Co 1.44198750 0.00000000 25.09816109
Co 4.32596250 4.07855500 25.09816109
Co 4.32596250 0.00000000 25.09816109
Co 1.44198750 4.07855500 25.09816109
Co 4.32596250 6.11783250 23.05888326
Co 1.44198750 2.03927750 23.05888326
Co 1.44198750 6.11783250 23.05888326
Co 4.32596250 2.03927750 23.05888326
Co 1.42664475 4.08499912 2.97690684
Co 4.34130525 8.15066588 2.97716802
Co 4.34130525 4.08499912 2.97690684
Co 1.42664475 8.15066588 2.97716802
Co 4.31656074 2.03927750 0.98673048
Co 1.43045160 6.11783250 1.01963891
Co 1.45138926 2.03927750 0.98673048
Co 4.33749840 6.11783250 1.01963891
C 0.00000000 2.03927750 5.00260341
O 0.00000000 2.03927750 6.16275609
