&CONTROL
calculation = 'relax'
prefix = 'scf'
pseudo_dir = '/vol0004/mdt0/data/hp150275/u10028/POT_HYBRID_KKJUS_GBRV'
outdir = './data'
tprnfor = .true.
nstep = 70
disk_io = 'non'
/
&SYSTEM
ibrav = 0
ecutwfc = 50.0
ecutrho = 400
occupations = 'smearing'
smearing = 'mp'
degauss = 0.01
assume_isolated = 'esm'
esm_bc = 'bc1'
input_dft = 'BEEF-VDW'
nosym = .true.
nspin = 1
ntyp = 2
nat = 32
/
&ELECTRONS
electron_maxstep = 200
mixing_beta = 0.1
conv_thr = 1e-06
/
&IONS
ion_dynamics = 'bfgs'
upscale = 1.0
/
&CELL
/

K_POINTS {automatic}
7 7 2 0  0  0

ATOMIC_SPECIES
Bi 208.9 Bi.pbe-dn-rrkjus_psl.1.0.0.UPF
Na 22.98 Na.pbe-spnl-rrkjus_psl.1.0.0.UPF

CELL_PARAMETERS {angstrom}
9.89650000 0.00000000 0.00000000
-0.00000000 9.78514000 0.00000000
0.00000000 0.00000000 27.42240000

ATOMIC_POSITIONS {angstrom}
Na 2.47412500 2.44628500 -3.7110733899999993 0 0 0
Na 4.94825000 2.44628500 -1.2370244600000007 0 0 0
Na 2.47412500 2.44628500 1.23702446
Na 4.94825000 2.44628500 3.71107339
Na 2.47412500 7.33885500 -3.7110733899999993 0 0 0
Na 4.94825000 7.33885500 -1.2370244600000007 0 0 0
Na 2.47412500 7.33885500 1.23702446
Na 4.94825000 7.33885500 3.71107339
Na 7.42237500 2.44628500 -3.7110733899999993 0 0 0
Na 0.00000000 2.44628500 -1.2370244600000007 0 0 0
Na 7.42237500 2.44628500 1.23702446
Na 0.00000000 2.44628500 3.71107339
Na 7.42237500 7.33885500 -3.7110733899999993 0 0 0
Na 0.00000000 7.33885500 -1.2370244600000007 0 0 0
Na 7.42237500 7.33885500 1.23702446
Na 0.00000000 7.33885500 3.71107339
Bi 0.00000000 0.00000000 -3.7110733899999993 0 0 0
Bi 2.47412500 0.00000000 -1.2370244600000007 0 0 0
Bi 4.94825000 -0.00000000 1.23702446
Bi 2.47412500 -0.00000000 3.71107339
Bi 0.00000000 4.89257000 -3.7110733899999993 0 0 0
Bi 2.47412500 4.89257000 -1.2370244600000007 0 0 0
Bi 4.94825000 4.89257000 1.23702446
Bi 2.47412500 4.89257000 3.71107339
Bi 4.94825000 0.00000000 -3.7110733899999993 0 0 0
Bi 7.42237500 0.00000000 -1.2370244600000007 0 0 0
Bi 0.00000000 0.00000000 1.23702446
Bi 7.42237500 -0.00000000 3.71107339
Bi 4.94825000 4.89257000 -3.7110733899999993 0 0 0
Bi 7.42237500 4.89257000 -1.2370244600000007 0 0 0
Bi 0.00000000 4.89257000 1.23702446
Bi 7.42237500 4.89257000 3.71107339
