&CONTROL
calculation = 'relax'
prefix = 'scf'
pseudo_dir = '/vol0004/mdt0/data/hp150275/u10028/POT_KKJUS'
outdir = './data'
tprnfor = .true.
nstep = 50
disk_io = 'non'
/
&SYSTEM
ibrav = 0
ecutwfc = 50.0
ecutrho = 400
occupations = 'smearing'
smearing = 'mp'
degauss = 0.01
assume_isolated = 'esm'
esm_bc = 'bc1'
input_dft = 'BEEF-VDW'
nosym = .true.
nspin = 1
ntyp = 4
nat = 34
/
&ELECTRONS
electron_maxstep = 200
mixing_beta = 0.1
conv_thr = 1e-06
/
&IONS
ion_dynamics = 'bfgs'
upscale = 1.0
/
&CELL
/

K_POINTS {automatic}
8 6 1 0 0 0

ATOMIC_SPECIES
C 12.01 C.pbe-n-rrkjus_psl.1.0.0.UPF
O 15.99 O.pbe-n-rrkjus_psl.1.0.0.UPF
Pt 195.0 Pt.pbe-n-rrkjus_psl.1.0.0.UPF
Ti 47.86 Ti.pbe-spn-rrkjus_psl.1.0.0.UPF

CELL_PARAMETERS {angstrom}
6.37073000 0.00000000 0.00000000
0.00000000 9.00957000 0.00000000
0.00000000 0.00000000 26.75720000

ATOMIC_POSITIONS {angstrom}
Ti 1.59268250 2.25239250 -3.378631640000002 0 0 0
Ti 1.59268250 0.00000000 -1.1262105499999997 0 0 0
Ti 1.59268250 2.12472689 1.06975286
Ti 1.59268250 0.00000000 3.44204621
Ti 1.59268250 6.75717750 -3.378631640000002 0 0 0
Ti 1.59268250 4.50478500 -1.1262105499999997 0 0 0
Ti 1.59268250 6.88484311 1.06975286
Ti 1.59268250 4.50478500 3.51000950
Ti 4.77804750 2.25239250 -3.378631640000002 0 0 0
Ti 4.77804750 0.00000000 -1.1262105499999997 0 0 0
Ti 4.77804750 2.37366131 1.06172570
Ti 4.77804750 0.00000000 3.51268522
Ti 4.77804750 6.75717750 -3.378631640000002 0 0 0
Ti 4.77804750 4.50478500 -1.1262105499999997 0 0 0
Ti 4.77804750 6.63608888 1.06172570
Ti 4.77804750 4.50487510 3.30424663
Pt 0.00000000 0.00000000 -3.378631640000002 0 0 0
Pt 0.00000000 2.25239250 -1.1262105499999997 0 0 0
Pt 6.17610420 0.00018019 1.24340708
Pt 0.00401356 2.25500528 3.17661478
Pt 0.00000000 4.50478500 -3.378631640000002 0 0 0
Pt 0.00000000 6.75717750 -1.1262105499999997 0 0 0
Pt 0.20813175 4.50469490 1.24287194
Pt 0.00407727 6.75456472 3.17661478
Pt 3.18536500 0.00000000 -3.378631640000002 0 0 0
Pt 3.18536500 2.25239250 -1.1262105499999997 0 0 0
Pt 3.37999080 0.00018019 1.24340708
Pt 3.18135144 2.25500528 3.17661478
Pt 3.18536500 4.50478500 -3.378631640000002 0 0 0
Pt 3.18536500 6.75717750 -1.1262105499999997 0 0 0
Pt 2.97723325 4.50469490 1.24287194
Pt 3.18128773 6.75456472 3.17661478
C 1.59268250 0.00000000 5.54971085
O 1.59268250 0.00000000 6.70428403
