&CONTROL
calculation = 'relax'
prefix = 'scf'
pseudo_dir = '/vol0004/mdt0/data/hp150275/u10028/POT_KKJUS'
outdir = './data'
tprnfor = .true.
nstep = 50
disk_io = 'non'
/
&SYSTEM
ibrav = 0
ecutwfc = 50.0
ecutrho = 400
occupations = 'smearing'
smearing = 'mp'
degauss = 0.01
assume_isolated = 'esm'
esm_bc = 'bc1'
input_dft = 'BEEF-VDW'
nosym = .true.
nspin = 1
ntyp = 4
nat = 33
/
&ELECTRONS
electron_maxstep = 200
mixing_beta = 0.1
conv_thr = 1e-06
/
&IONS
ion_dynamics = 'bfgs'
upscale = 1.0
/
&CELL
/

K_POINTS {automatic}
8 6 1 0 0 0

ATOMIC_SPECIES
C 12.01 C.pbe-n-rrkjus_psl.1.0.0.UPF
Li 6.941 Li.pbe-sl-rrkjus_psl.1.0.0.UPF
Na 22.98 Na.pbe-spnl-rrkjus_psl.1.0.0.UPF
Sb 121.7 Sb.pbe-n-rrkjus_psl.1.0.0.UPF

CELL_PARAMETERS {angstrom}
6.84524000 0.00000000 0.00000000
0.00000000 9.68063000 0.00000000
0.00000000 0.00000000 27.26050000

ATOMIC_POSITIONS {angstrom}
Na 0.00000000 0.00000000 -3.6302807799999997 0 0 0
Na 3.42262000 2.42015750 -1.2100935899999996 0 0 0
Na 3.42262000 7.26047250 -1.2100935899999996 0 0 0
Na 0.00000000 4.84031500 -3.6302807799999997 0 0 0
Na 0.06763097 4.81640384 1.15039310
Na 3.31631342 7.26085973 3.86335806
Na 3.71963496 2.42015750 5.42647513
Na 0.06817859 0.02303990 1.15039310
Li 1.71131000 0.00000000 -1.2100935899999996 0 0 0
Li 5.13393000 4.84031500 -1.2100935899999996 0 0 0
Li 5.13393000 0.00000000 -1.2100935899999996 0 0 0
Li 1.71131000 4.84031500 -1.2100935899999996 0 0 0
Li 5.13393000 7.26047250 -3.6302807799999997 0 0 0
Li 1.71131000 2.42015750 -3.6302807799999997 0 0 0
Li 1.71131000 7.26047250 -3.6302807799999997 0 0 0
Li 5.13393000 2.42015750 -3.6302807799999997 0 0 0
Li 1.23077415 4.56190008 4.16949348
Li 5.18259966 9.50657227 3.42664485
Li 5.18225739 5.01563121 3.42664485
Li 1.23056879 0.27812450 4.16976608
Li 4.89516803 2.42025431 1.19155645
Li 1.75450346 7.26027889 1.32376988
Li 2.04830117 2.42006069 1.95757651
Li 5.04898057 7.26047250 1.24689527
Sb 0.00000000 7.26047250 -1.2100935899999996 0 0 0
Sb 3.42262000 0.00000000 -3.6302807799999997 0 0 0
Sb 0.00000000 2.42015750 -1.2100935899999996 0 0 0
Sb 3.42262000 4.84031500 -3.6302807799999997 0 0 0
Sb 6.32520712 2.42044792 3.75976816
Sb 3.39386999 4.93179695 1.22699511
Sb 6.82388285 7.26056931 3.72187607
Sb 3.39400690 9.58914805 1.22754031
C 1.54024745 2.41986708 4.31860841
