&CONTROL
calculation = 'relax'
prefix = 'scf'
pseudo_dir = '/vol0403/data/hp230205/u10028/POT_HYBRID_KKJUS_GBRV'
outdir = './data'
tprnfor = .true.
nstep = 50
disk_io = 'non'
/
&SYSTEM
ibrav = 0
ecutwfc = 50.0
ecutrho = 400
occupations = 'smearing'
smearing = 'mp'
degauss = 0.01
assume_isolated = 'esm'
esm_bc = 'bc1'
input_dft = 'BEEF-VDW'
nosym = .true.
nspin = 1
ntyp = 6
nat = 18
/
&ELECTRONS
electron_maxstep = 200
mixing_beta = 0.1
conv_thr = 1e-06
/
&IONS
ion_dynamics = 'bfgs'
upscale = 1.0
/
&CELL
/

K_POINTS {automatic}
8 8 1 0 0 0

ATOMIC_SPECIES
C 12.01 C.pbe-n-rrkjus_psl.1.0.0.UPF
Hf 178.4 Hf.pbe-spn-rrkjus_psl.1.0.0.UPF
Li 6.941 Li.pbe-sl-rrkjus_psl.1.0.0.UPF
O 15.99 O.pbe-n-rrkjus_psl.1.0.0.UPF
Pd 106.4 Pd.pbe-n-rrkjus_psl.1.0.0.UPF
Sn 118.7 Sn.pbe-dn-rrkjus_psl.1.0.0.UPF


CELL_PARAMETERS {angstrom}
6.67688000 0.00000000 0.00000000
0.00000000 6.67688000 0.00000000
0.00000000 0.00000000 25.00770000

ATOMIC_POSITIONS {angstrom}
Li 0.00000000 3.33844000 -2.503770920000001 0 0 0
Li 0.00433997 0.00433997 0.83225626
Li 3.33383295 3.33383295 0.84676072
Li 3.33844000 0.00000000 -2.503770920000001 0 0 0
Hf 0.00000000 0.00000000 -2.503770920000001 0 0 0
Hf 6.67601201 3.33837323 0.90953005
Hf 3.33830646 6.67594524 0.90953005
Hf 3.33844000 3.33844000 -2.503770920000001 0 0 0
Sn 1.66922000 1.66922000 -0.8345069500000015 0 0 0
Sn 1.66254312 5.01393627 2.60855319
Sn 5.01386950 1.66254312 2.60855319
Sn 5.00766000 5.00766000 -0.8345069500000015 0 0 0
Pd 5.00766000 1.66922000 -0.8345069500000015 0 0 0
Pd 5.00912891 5.00912891 2.23743892
Pd 1.66601510 1.66601510 2.36722888
Pd 1.66922000 5.00766000 -0.8345069500000015 0 0 0
C 1.67589688 1.67589688 4.42111128
O 1.66935354 1.66928677 5.56771433
