&CONTROL
calculation = 'relax'
prefix = 'scf'
pseudo_dir = '/vol0004/mdt0/data/hp150275/u10028/POT_HYBRID_KKJUS_GBRV'
outdir = './data'
tprnfor = .true.
nstep = 50
disk_io = 'non'
/
&SYSTEM
ibrav = 0
ecutwfc = 50.0
ecutrho = 400
occupations = 'smearing'
smearing = 'mp'
degauss = 0.01
assume_isolated = 'esm'
esm_bc = 'bc1'
input_dft = 'BEEF-VDW'
nosym = .true.
nspin = 2
ntyp = 3
nat = 32
starting_magnetization(1) = 0.1
starting_magnetization(2) = 0.0
starting_magnetization(3) = 0.0
/
&ELECTRONS
electron_maxstep = 200
mixing_beta = 0.1
conv_thr = 1e-06
/
&IONS
ion_dynamics = 'bfgs'
upscale = 1.0
/
&CELL
/

K_POINTS {automatic}
9 6 2 0  0  0

ATOMIC_SPECIES
Co 58.93 co_pbe_v1.2.uspp.F.UPF
Ga 69.72 Ga.pbe-dnl-rrkjus_psl.1.0.0.UPF
V 50.94 V.pbe-spnl-rrkjus_psl.1.0.0.UPF

CELL_PARAMETERS {angstrom}
5.77968000 0.00000000 0.00000000
0.00000000 8.17370000 0.00000000
0.00000000 0.00000000 26.13030000

ATOMIC_POSITIONS {angstrom}
V 0.00000000 0.00000000 23.06521581
V 2.88984000 2.04342500 25.10860527
V 2.88984000 6.13027500 25.10860527
V 0.00000000 4.08685000 23.06521581
V 0.00000000 4.08685000 1.09407566
V 2.88984000 6.13019326 3.01151707
V 2.88984000 2.04350674 3.01151707
V 0.00000000 0.00000000 1.09407566
Ga 0.00000000 6.13027500 25.10860527
Ga 2.88984000 0.00000000 23.06521581
Ga 0.00000000 2.04342500 25.10860527
Ga 2.88984000 4.08685000 23.06521581
Ga 0.00000000 2.04326153 3.26994574
Ga 2.88984000 4.08685000 0.97884104
Ga 0.00000000 6.13043847 3.26994574
Ga 2.88984000 0.00000000 0.97884104
Co 1.44492000 0.00000000 25.10860527
Co 4.33476000 4.08685000 25.10860527
Co 4.33476000 0.00000000 25.10860527
Co 1.44492000 4.08685000 25.10860527
Co 4.33476000 6.13027500 23.06521581
Co 1.44492000 2.04342500 23.06521581
Co 1.44492000 6.13027500 23.06521581
Co 4.33476000 2.04342500 23.06521581
Co 1.45006392 4.08685000 2.92554839
Co 4.32955829 0.00000000 2.92554839
Co 4.32961608 4.08685000 2.92554839
Co 1.45012171 0.00000000 2.92554839
Co 4.34204240 2.04342500 1.03815682
Co 1.43763760 6.13027500 1.03815682
Co 1.43769540 2.04342500 1.03815682
Co 4.34204240 6.13027500 1.03815682
