&CONTROL
calculation = 'relax'
prefix = 'scf'
pseudo_dir = '/vol0004/mdt0/data/hp150275/u10028/POT_KKJUS'
outdir = './data'
tprnfor = .true.
nstep = 50
disk_io = 'non'
/
&SYSTEM
ibrav = 0
ecutwfc = 50.0
ecutrho = 400
occupations = 'smearing'
smearing = 'mp'
degauss = 0.01
assume_isolated = 'esm'
esm_bc = 'bc1'
input_dft = 'BEEF-VDW'
nosym = .true.
nspin = 1
ntyp = 3
nat = 16
/
&ELECTRONS
electron_maxstep = 200
mixing_beta = 0.1
conv_thr = 1e-06
/
&IONS
ion_dynamics = 'bfgs'
upscale = 1.0
/
&CELL
/

K_POINTS {automatic}
8 8 1 0 0 0

ATOMIC_SPECIES
Ag 107.8 Ag.pbe-n-rrkjus_psl.1.0.0.UPF
Li 6.941 Li.pbe-sl-rrkjus_psl.1.0.0.UPF
Pb 207.2 Pb.pbe-dn-rrkjus_psl.1.0.0.UPF

CELL_PARAMETERS {angstrom}
6.84524000 0.00000000 0.00000000
0.00000000 6.84524000 0.00000000
0.00000000 0.00000000 25.13390000

ATOMIC_POSITIONS {angstrom}
Li 0.00006845 6.84517155 0.78819910
Li 3.42262000 0.00000000 -2.566925210000001 0 0 0
Li 0.00000000 3.42262000 -2.566925210000001 0 0 0
Li 3.42248310 3.42262000 0.78819910
Li 1.71083083 1.71213143 2.78031202
Li 1.71131000 5.13393000 -0.8555579600000023 0 0 0
Li 5.13434071 5.13310857 2.78031202
Li 5.13393000 1.71131000 -0.8555579600000023 0 0 0
Ag 1.71131000 1.71131000 -0.8555579600000023 0 0 0
Ag 1.71103619 5.13310857 2.57873814
Ag 5.13393000 5.13393000 -0.8555579600000023 0 0 0
Ag 5.13406690 1.71219988 2.57949216
Pb 0.00000000 0.00000000 -2.566925210000001 0 0 0
Pb 3.42262000 3.42262000 -2.566925210000001 0 0 0
Pb 3.42467357 0.00123214 0.98575156
Pb 6.84366559 3.42159321 0.98424352
