&CONTROL
calculation = 'relax'
prefix = 'scf'
pseudo_dir = '/vol0004/mdt0/data/hp150275/u10028/POT_HYBRID_KKJUS_GBRV'
outdir = './data'
tprnfor = .true.
nstep = 70
disk_io = 'non'
/
&SYSTEM
ibrav = 0
ecutwfc = 50.0
ecutrho = 400
occupations = 'smearing'
smearing = 'mp'
degauss = 0.01
assume_isolated = 'esm'
esm_bc = 'bc1'
input_dft = 'BEEF-VDW'
nosym = .true.
nspin = 1
ntyp = 4
nat = 18
/
&ELECTRONS
electron_maxstep = 200
mixing_beta = 0.1
conv_thr = 1e-06
/
&IONS
ion_dynamics = 'bfgs'
upscale = 1.0
/
&CELL
/

K_POINTS {automatic}
9 9 2 0  0  0

ATOMIC_SPECIES
C 12.01 C.pbe-n-rrkjus_psl.1.0.0.UPF
Ca 40.07 Ca.pbe-spn-rrkjus_psl.1.0.0.UPF
O 15.99 O.pbe-n-rrkjus_psl.1.0.0.UPF
Pb 207.2 Pb.pbe-dn-rrkjus_psl.1.0.0.UPF

CELL_PARAMETERS {angstrom}
7.36738000 0.00000000 0.00000000
0.00000000 7.36738000 0.00000000
0.00000000 0.00000000 26.89040000

ATOMIC_POSITIONS {angstrom}
Ca 1.84184500 1.84184500 -1.9245459300000007 0 0 0
Ca 1.84272909 1.84103459 2.24131484
Ca 1.84184500 5.52553500 -1.9245459300000007 0 0 0
Ca 1.84155030 5.52546133 2.41879148
Ca 5.52553500 1.84184500 -1.9245459300000007 0 0 0
Ca 5.52686113 1.84118194 2.43573243
Ca 5.52553500 5.52553500 -1.9245459300000007 0 0 0
Ca 5.52634541 5.52509296 2.40776642
Pb 0.00000000 0.00000000 -4.2212549899999985 0 0 0
Pb 7.33231127 7.33209025 0.34769287
Pb 0.00000000 3.68369000 -4.2212549899999985 0 0 0
Pb 7.33127984 3.71625382 0.34876849
Pb 3.68369000 0.00000000 -4.2212549899999985 0 0 0
Pb 3.72155833 7.33290066 0.34796178
Pb 3.68369000 3.68369000 -4.2212549899999985 0 0 0
Pb 3.71956914 3.71890608 0.34796178
C 1.84110826 1.84103459 4.76390326
O 1.84044520 1.83904540 5.92099718
