&CONTROL
calculation = 'relax'
prefix = 'scf'
pseudo_dir = '/vol0004/mdt0/data/hp150275/u10028/POT_HYBRID_KKJUS_GBRV'
outdir = './data'
tprnfor = .true.
nstep = 50
disk_io = 'non'
/
&SYSTEM
ibrav = 0
ecutwfc = 50.0
ecutrho = 400
occupations = 'smearing'
smearing = 'mp'
degauss = 0.01
assume_isolated = 'esm'
esm_bc = 'bc1'
input_dft = 'BEEF-VDW'
nosym = .true.
nspin = 2
ntyp = 3
nat = 32
starting_magnetization(1) = 0.1
starting_magnetization(2) = 0.0
starting_magnetization(3) = 0.0
/
&ELECTRONS
electron_maxstep = 300
mixing_beta = 0.1
conv_thr = 1e-06
/
&IONS
ion_dynamics = 'bfgs'
upscale = 1.0
/
&CELL
/

K_POINTS {automatic}
9 6 2 0  0  0

ATOMIC_SPECIES
Co 58.93 co_pbe_v1.2.uspp.F.UPF
Ge 72.64 Ge.pbe-dn-rrkjus_psl.1.0.0.UPF
Li 6.941 Li.pbe-sl-rrkjus_psl.1.0.0.UPF

CELL_PARAMETERS {angstrom}
5.64259000 0.00000000 0.00000000
0.00000000 7.97982000 0.00000000
0.00000000 0.00000000 25.98490000

ATOMIC_POSITIONS {angstrom}
Li 0.00000000 0.00000000 -2.9924210799999997 0 0 0
Li 2.82129500 1.99495500 -0.9975603100000008 0 0 0
Li 2.82129500 5.98486500 -0.9975603100000008 0 0 0
Li 0.00000000 3.98991000 -2.9924210799999997 0 0 0
Li 0.00011285 3.99006960 0.86685626
Li 2.82129500 5.98614177 3.60384578
Li 2.82129500 1.99375803 3.60592457
Li 0.00000000 7.97966040 0.86581687
Co 1.41064750 0.00000000 -0.9975603100000008 0 0 0
Co 4.23194250 3.98991000 -0.9975603100000008 0 0 0
Co 4.23194250 0.00000000 -0.9975603100000008 0 0 0
Co 1.41064750 3.98991000 -0.9975603100000008 0 0 0
Co 4.23194250 5.98486500 -2.9924210799999997 0 0 0
Co 1.41064750 1.99495500 -2.9924210799999997 0 0 0
Co 1.41064750 5.98486500 -2.9924210799999997 0 0 0
Co 4.23194250 1.99495500 -2.9924210799999997 0 0 0
Co 1.31540058 3.98943121 2.81052678
Co 4.33023642 0.00047879 2.81000709
Co 4.32735870 3.98943121 2.81000709
Co 1.31235358 0.00047879 2.81026694
Co 4.20581731 1.99487520 1.08331048
Co 1.43677269 5.98486500 1.08201124
Co 1.43671627 1.99495500 1.08305063
Co 4.20587373 5.98502460 1.08227108
Ge 0.00000000 5.98486500 -0.9975603100000008 0 0 0
Ge 2.82129500 0.00000000 -2.9924210799999997 0 0 0
Ge 0.00000000 1.99495500 -0.9975603100000008 0 0 0
Ge 2.82129500 3.98991000 -2.9924210799999997 0 0 0
Ge 0.00000000 1.99623177 3.09454174
Ge 2.82129500 3.98991000 0.93909429
Ge 0.00011285 5.98358823 3.09246295
Ge 2.82112572 0.00000000 0.94039353
