&CONTROL
calculation = 'relax'
prefix = 'scf'
pseudo_dir = '/vol0403/data/hp230205/u10028/POT_HYBRID_KKJUS_GBRV'
outdir = './data'
tprnfor = .true.
nstep = 50
disk_io = 'non'
/
&SYSTEM
ibrav = 0
ecutwfc = 50.0
ecutrho = 400
occupations = 'smearing'
smearing = 'mp'
degauss = 0.01
assume_isolated = 'esm'
esm_bc = 'bc1'
input_dft = 'BEEF-VDW'
nosym = .true.
nspin = 1
ntyp = 5
nat = 33
/
&ELECTRONS
electron_maxstep = 200
mixing_beta = 0.1
conv_thr = 1e-06
/
&IONS
ion_dynamics = 'bfgs'
upscale = 1.0
/
&CELL
/

K_POINTS {automatic}
6 6 1 0 0 0

ATOMIC_SPECIES
C 12.01 C.pbe-n-rrkjus_psl.1.0.0.UPF
In 114.8 In.pbe-dn-rrkjus_psl.1.0.0.UPF
Mg 24.30 Mg.pbe-spnl-rrkjus_psl.1.0.0.UPF
Pd 106.4 Pd.pbe-n-rrkjus_psl.1.0.0.UPF
Sc 44.95 Sc.pbe-spn-rrkjus_psl.1.0.0.UPF


CELL_PARAMETERS {angstrom}
6.76782000 0.00000000 0.00000000
0.00000000 9.57114000 0.00000000
0.00000000 0.00000000 27.17840000

ATOMIC_POSITIONS {angstrom}
Mg 1.69195500 0.00000000 -1.1963931700000003 0 0 0
Mg 1.69195500 4.78557000 -1.1963931700000003 0 0 0
Mg 5.07586500 2.39278500 -3.5891795 0 0 0
Mg 5.07586500 7.17835500 -3.5891795 0 0 0
Mg 1.58867807 4.98857388 3.73431216
Mg 1.58867807 9.36813612 3.73431216
Mg 5.01942138 7.17835500 1.22520227
Mg 5.05055335 2.39278500 1.27575410
Sc 5.07586500 0.00000000 -1.1963931700000003 0 0 0
Sc 5.07586500 4.78557000 -1.1963931700000003 0 0 0
Sc 1.69195500 2.39278500 -3.5891795 0 0 0
Sc 1.69195500 7.17835500 -3.5891795 0 0 0
Sc 4.91736266 4.51049544 3.58238490
Sc 4.91743033 0.27507456 3.58238490
Sc 1.76849904 7.17835500 1.33581836
Sc 1.86649708 2.39278500 1.37196563
In 0.00000000 0.00000000 -3.5891795 0 0 0
In 0.00000000 4.78557000 -3.5891795 0 0 0
In 3.38391000 7.17835500 -1.1963931700000003 0 0 0
In 3.38391000 2.39278500 -1.1963931700000003 0 0 0
In 0.02456719 4.78174154 1.25047818
In 0.02456719 0.00382846 1.25047818
In 2.75558559 2.39278500 4.55102308
In 3.59330635 7.17835500 4.06045296
Pd 0.00000000 2.39278500 -1.1963931700000003 0 0 0
Pd 0.00000000 7.17835500 -1.1963931700000003 0 0 0
Pd 3.38391000 4.78557000 -3.5891795 0 0 0
Pd 3.38391000 0.00000000 -3.5891795 0 0 0
Pd 6.64484871 7.17835500 3.33288719
Pd 0.22733107 2.39278500 3.47666093
Pd 3.37497648 9.50222779 1.09229990
Pd 3.37504416 4.85448221 1.09229990
C 4.79581261 2.39278500 3.59624589
