&CONTROL
calculation = 'relax'
prefix = 'scf'
pseudo_dir = '/vol0004/mdt0/data/hp150275/u10028/POT_HYBRID_KKJUS_GBRV'
outdir = './data'
tprnfor = .true.
nstep = 70
disk_io = 'non'
/
&SYSTEM
ibrav = 0
ecutwfc = 50.0
ecutrho = 400
occupations = 'smearing'
smearing = 'mp'
degauss = 0.01
assume_isolated = 'esm'
esm_bc = 'bc1'
input_dft = 'BEEF-VDW'
nosym = .true.
nspin = 1
ntyp = 4
nat = 34
/
&ELECTRONS
electron_maxstep = 200
mixing_beta = 0.1
conv_thr = 1e-06
/
&IONS
ion_dynamics = 'bfgs'
upscale = 1.0
/
&CELL
/

K_POINTS {automatic}
6 8 1 0 0 0

ATOMIC_SPECIES
C 12.01 C.pbe-n-rrkjus_psl.1.0.0.UPF
Nb 92.90 Nb.pbe-spn-rrkjus_psl.1.0.0.UPF
O 15.99 O.pbe-n-rrkjus_psl.1.0.0.UPF
Rh 102.9 Rh.pbe-spn-rrkjus_psl.1.0.0.UPF

CELL_PARAMETERS {angstrom}
8.16211000 0.00000000 0.00000000
-0.00000000 7.72152000 0.00000000
0.00000000 0.00000000 26.12160000

ATOMIC_POSITIONS {angstrom}
Nb 0.00000000 0.00000000 -3.0606678699999996 0 0 0
Nb 2.04052750 0.00000000 -1.020309700000002 0 0 0
Nb 0.00000000 0.00000000 1.02030970
Nb 2.04052750 -0.00000000 3.06066787
Nb 0.00000000 3.86076000 -3.0606678699999996 0 0 0
Nb 2.04052750 3.86076000 -1.020309700000002 0 0 0
Nb 0.00000000 3.86076000 1.02030970
Nb 2.04052750 3.86076000 3.06066787
Nb 4.08105500 0.00000000 -3.0606678699999996 0 0 0
Nb 6.12158250 0.00000000 -1.020309700000002 0 0 0
Nb 4.08105500 -0.00000000 1.02030970
Nb 6.12158250 -0.00000000 3.06066787
Nb 4.08105500 3.86076000 -3.0606678699999996 0 0 0
Nb 6.12158250 3.86076000 -1.020309700000002 0 0 0
Nb 4.08105500 3.86076000 1.02030970
Nb 6.12158250 3.86076000 3.06066787
Rh 2.04052750 1.93038000 -3.0606678699999996 0 0 0
Rh 4.08105500 1.93038000 -1.020309700000002 0 0 0
Rh 2.04052750 1.93038000 1.02030970
Rh 4.08105500 1.93038000 3.06066787
Rh 2.04052750 5.79114000 -3.0606678699999996 0 0 0
Rh 4.08105500 5.79114000 -1.020309700000002 0 0 0
Rh 2.04052750 5.79114000 1.02030970
Rh 4.08105500 5.79114000 3.06066787
Rh 6.12158250 1.93038000 -3.0606678699999996 0 0 0
Rh 0.00000000 1.93038000 -1.020309700000002 0 0 0
Rh 6.12158250 1.93038000 1.02030970
Rh 0.00000000 1.93038000 3.06066787
Rh 6.12158250 5.79114000 -3.0606678699999996 0 0 0
Rh 0.00000000 5.79114000 -1.020309700000002 0 0 0
Rh 6.12158250 5.79114000 1.02030970
Rh 0.00000000 5.79114000 3.06066787
C 2.04052750 -0.00000000 4.96075306
O 2.04052750 -0.00000000 6.11088710
