&CONTROL
calculation = 'relax'
prefix = 'scf'
pseudo_dir = '/vol0403/data/hp230205/u10028/POT_HYBRID_KKJUS_GBRV'
outdir = './data'
tprnfor = .true.
nstep = 50
disk_io = 'non'
/
&SYSTEM
ibrav = 0
ecutwfc = 50.0
ecutrho = 400
occupations = 'smearing'
smearing = 'mp'
degauss = 0.01
assume_isolated = 'esm'
esm_bc = 'bc1'
input_dft = 'BEEF-VDW'
nosym = .true.
nspin = 1
ntyp = 6
nat = 18
/
&ELECTRONS
electron_maxstep = 200
mixing_beta = 0.1
conv_thr = 1e-06
/
&IONS
ion_dynamics = 'bfgs'
upscale = 1.0
/
&CELL
/

K_POINTS {automatic}
8 8 1 0 0 0

ATOMIC_SPECIES
C 12.01 C.pbe-n-rrkjus_psl.1.0.0.UPF
Ge 72.64 Ge.pbe-dn-rrkjus_psl.1.0.0.UPF
Li 6.941 Li.pbe-sl-rrkjus_psl.1.0.0.UPF
O 15.99 O.pbe-n-rrkjus_psl.1.0.0.UPF
Pb 207.2 Pb.pbe-dn-rrkjus_psl.1.0.0.UPF
Pd 106.4 Pd.pbe-n-rrkjus_psl.1.0.0.UPF


CELL_PARAMETERS {angstrom}
6.74945000 0.00000000 0.00000000
0.00000000 6.74945000 0.00000000
0.00000000 0.00000000 25.06210000

ATOMIC_POSITIONS {angstrom}
Li 1.84104748 1.53637730 0.86564493
Li 1.68736250 5.06208750 -2.5310214799999997 0 0 0
Li 5.06208750 1.68736250 -2.5310214799999997 0 0 0
Li 4.90833503 5.21314019 0.86564493
Ge 0.00000000 0.00000000 2.22150454
Ge 0.00000000 3.37472500 -0.8435902900000016 0 0 0
Ge 3.37472500 0.00000000 -0.8435902900000016 0 0 0
Ge 3.37472500 3.37472500 2.23178001
Pd 4.85838910 1.48217922 0.82429247
Pd 5.06208750 5.06208750 -2.5310214799999997 0 0 0
Pd 1.68736250 1.68736250 -2.5310214799999997 0 0 0
Pd 1.89106090 5.26727078 0.82404185
Pb 0.00000000 3.37472500 2.54004384
Pb 0.00000000 0.00000000 -0.8435902900000016 0 0 0
Pb 3.37472500 3.37472500 -0.8435902900000016 0 0 0
Pb 3.37472500 0.00006749 3.00294082
C 0.00020248 3.37472500 6.35775353
O 6.74938251 3.37479249 7.49281604
