&CONTROL
calculation = 'relax'
prefix = 'scf'
pseudo_dir = '/vol0403/data/hp230205/u10028/POT_HYBRID_KKJUS_GBRV'
outdir = './data'
tprnfor = .true.
nstep = 50
disk_io = 'non'
/
&SYSTEM
ibrav = 0
ecutwfc = 50.0
ecutrho = 400
occupations = 'smearing'
smearing = 'mp'
degauss = 0.01
assume_isolated = 'esm'
esm_bc = 'bc1'
input_dft = 'BEEF-VDW'
nosym = .true.
nspin = 1
ntyp = 6
nat = 34
/
&ELECTRONS
electron_maxstep = 200
mixing_beta = 0.1
conv_thr = 1e-06
/
&IONS
ion_dynamics = 'bfgs'
upscale = 1.0
/
&CELL
/

K_POINTS {automatic}
9 6 2 0  0  0

ATOMIC_SPECIES
C 12.01 C.pbe-n-rrkjus_psl.1.0.0.UPF
In 114.8 In.pbe-dn-rrkjus_psl.1.0.0.UPF
Li 6.941 Li.pbe-sl-rrkjus_psl.1.0.0.UPF
O 15.99 O.pbe-n-rrkjus_psl.1.0.0.UPF
Pd 106.4 Pd.pbe-n-rrkjus_psl.1.0.0.UPF
Y 88.90 Y.pbe-spn-rrkjus_psl.1.0.0.UPF


CELL_PARAMETERS {angstrom}
6.81638000 0.00000000 0.00000000
0.00000000 9.63982000 0.00000000
0.00000000 0.00000000 27.22990000

ATOMIC_POSITIONS {angstrom}
Li 5.11228500 0.00000000 -1.2049230699999995 0 0 0
Li 5.11228500 4.81991000 -1.2049230699999995 0 0 0
Li 1.70409500 2.40995500 -3.615041520000002 0 0 0
Li 1.70409500 7.22986500 -3.615041520000002 0 0 0
Li 3.67191574 4.81991000 5.01983207
Li 3.63278972 0.00000000 5.14400041
Li 1.59401046 7.22755144 1.29859393
Li 1.59421495 2.41207576 1.29859393
Y 0.00000000 2.40995500 -1.2049230699999995 0 0 0
Y 0.00000000 7.22986500 -1.2049230699999995 0 0 0
Y 3.40819000 4.81991000 -3.615041520000002 0 0 0
Y 3.40819000 0.00000000 -3.615041520000002 0 0 0
Y 6.38981094 7.20316270 3.57120138
Y 6.38987910 2.43665730 3.57092909
Y 3.43927269 0.00000000 1.42902515
Y 3.47587665 4.82000640 1.44182320
In 0.00000000 0.00000000 -3.615041520000002 0 0 0
In 0.00000000 4.81991000 -3.615041520000002 0 0 0
In 3.40819000 7.22986500 -1.2049230699999995 0 0 0
In 3.40819000 2.40995500 -1.2049230699999995 0 0 0
In 6.77132373 4.81981360 1.13439763
In 6.80690523 0.00000000 1.18014387
In 3.09702225 2.39279612 3.69128524
In 3.09674960 7.24721668 3.69128524
Pd 1.70409500 0.00000000 -1.2049230699999995 0 0 0
Pd 1.70409500 4.81991000 -1.2049230699999995 0 0 0
Pd 5.11228500 2.40995500 -3.615041520000002 0 0 0
Pd 5.11228500 7.22986500 -3.615041520000002 0 0 0
Pd 1.47220175 4.82010280 3.43723028
Pd 1.35700493 0.00000000 3.71905974
Pd 5.07152305 7.24586710 1.12513947
Pd 5.07131856 2.39414570 1.12486717
C 0.45063088 0.00038559 5.43127585
O 0.08411413 0.00077119 6.54824635
