&CONTROL
calculation = 'relax'
prefix = 'scf'
pseudo_dir = '/vol0004/mdt0/data/hp150275/u10028/POT_KKJUS'
outdir = './data'
tprnfor = .true.
nstep = 50
disk_io = 'non'
/
&SYSTEM
ibrav = 0
ecutwfc = 50.0
ecutrho = 400
occupations = 'smearing'
smearing = 'mp'
degauss = 0.01
assume_isolated = 'esm'
esm_bc = 'bc1'
input_dft = 'BEEF-VDW'
nosym = .true.
nspin = 1
ntyp = 4
nat = 34
/
&ELECTRONS
electron_maxstep = 200
mixing_beta = 0.1
conv_thr = 1e-06
/
&IONS
ion_dynamics = 'bfgs'
upscale = 1.0
/
&CELL
/

K_POINTS {automatic}
8 6 1 0 0 0

ATOMIC_SPECIES
C 12.01 C.pbe-n-rrkjus_psl.1.0.0.UPF
Cu 63.54 Cu.pbe-dn-rrkjus_psl.1.0.0.UPF
O 15.99 O.pbe-n-rrkjus_psl.1.0.0.UPF
Zn 65.40 Zn.pbe-dnl-rrkjus_psl.1.0.0.UPF

CELL_PARAMETERS {angstrom}
5.98486000 0.00000000 0.00000000
0.00000000 8.46387000 0.00000000
0.00000000 0.00000000 26.34790000

ATOMIC_POSITIONS {angstrom}
Zn 1.49621500 2.11596750 -3.1738680299999977 0 0 0
Zn 1.49621500 0.00000000 -1.0578681900000007 0 0 0
Zn 1.43983762 2.11596750 1.07130561
Zn 1.56492119 8.42392053 3.22972558
Zn 1.49621500 6.34790250 -3.1738680299999977 0 0 0
Zn 1.49621500 4.23193500 -1.0578681900000007 0 0 0
Zn 1.51249382 6.34790250 1.02625071
Zn 1.56492119 4.27188447 3.22972558
Zn 4.48864500 2.11596750 -3.1738680299999977 0 0 0
Zn 4.48864500 0.00000000 -1.0578681900000007 0 0 0
Zn 4.54502238 2.11596750 1.07130561
Zn 4.41993881 8.42383589 3.22972558
Zn 4.48864500 6.34790250 -3.1738680299999977 0 0 0
Zn 4.48864500 4.23193500 -1.0578681900000007 0 0 0
Zn 4.47236618 6.34790250 1.02625071
Zn 4.41993881 4.27196911 3.22972558
Cu 0.00000000 0.00000000 -3.1738680299999977 0 0 0
Cu 0.00000000 2.11596750 -1.0578681900000007 0 0 0
Cu 0.00000000 8.45303625 1.11530661
Cu 0.00000000 2.11596750 3.26239698
Cu 0.00000000 4.23193500 -3.1738680299999977 0 0 0
Cu 0.00000000 6.34790250 -1.0578681900000007 0 0 0
Cu 0.00000000 4.24276875 1.11530661
Cu 0.00000000 6.34790250 3.08507561
Cu 2.99243000 0.00000000 -3.1738680299999977 0 0 0
Cu 2.99243000 2.11596750 -1.0578681900000007 0 0 0
Cu 2.99243000 0.02962355 0.99516018
Cu 2.99243000 2.11596750 3.04634420
Cu 2.99243000 4.23193500 -3.1738680299999977 0 0 0
Cu 2.99243000 6.34790250 -1.0578681900000007 0 0 0
Cu 2.99243000 4.20231146 0.99516018
Cu 2.99243000 6.34790250 3.12934008
C 0.00000000 2.11596750 5.14390052
O 0.00000000 2.11596750 6.29266896
