&CONTROL
calculation = 'relax'
prefix = 'scf'
pseudo_dir = '/vol0403/data/hp230205/u10028/POT_HYBRID_KKJUS_GBRV'
outdir = './data'
tprnfor = .true.
nstep = 50
disk_io = 'non'
/
&SYSTEM
ibrav = 0
ecutwfc = 50.0
ecutrho = 400
occupations = 'smearing'
smearing = 'mp'
degauss = 0.01
assume_isolated = 'esm'
esm_bc = 'bc1'
input_dft = 'BEEF-VDW'
nosym = .true.
nspin = 1
ntyp = 6
nat = 18
/
&ELECTRONS
electron_maxstep = 200
mixing_beta = 0.1
conv_thr = 1e-06
/
&IONS
ion_dynamics = 'bfgs'
upscale = 1.0
/
&CELL
/

K_POINTS {automatic}
11 7 2 0  0  0

ATOMIC_SPECIES
C 12.01 C.pbe-n-rrkjus_psl.1.0.0.UPF
Ga 69.72 Ga.pbe-dnl-rrkjus_psl.1.0.0.UPF
O 15.99 O.pbe-n-rrkjus_psl.1.0.0.UPF
Pd 106.4 Pd.pbe-n-rrkjus_psl.1.0.0.UPF
Sc 44.95 Sc.pbe-spn-rrkjus_psl.1.0.0.UPF
Y 88.90 Y.pbe-spn-rrkjus_psl.1.0.0.UPF


CELL_PARAMETERS {angstrom}
5.91305000 0.00000000 0.00000000
0.00000000 9.85606000 0.00000000
0.00000000 0.00000000 24.24990000

ATOMIC_POSITIONS {angstrom}
Y 1.05589334 2.46401500 -0.7083395800000005 0 0 0
Y 2.95356847 2.46411356 2.20334591
Y 1.05589334 7.39204500 -0.7083395800000005 0 0 0
Y 3.01329028 7.39194644 2.14078117
Sc 2.95652500 0.00000000 -2.1250187400000016 0 0 0
Sc 4.84852361 0.02020492 0.66662975
Sc 2.95652500 4.92803000 -2.1250187400000016 0 0 0
Sc 4.84822796 4.90782508 0.66662975
Ga 0.00000000 0.00000000 -2.1250187400000016 0 0 0
Ga 1.89229426 9.85103341 0.89942879
Ga 0.00000000 4.92803000 -2.1250187400000016 0 0 0
Ga 1.89211687 4.93305659 0.89942879
Pd 4.01241834 2.46401500 -0.7083395800000005 0 0 0
Pd 5.83493861 2.46411356 1.77679017
Pd 4.01241834 7.39204500 -0.7083395800000005 0 0 0
Pd 5.86373516 7.39174932 1.75690525
C 3.16158957 2.46411356 4.74522043
O 3.24993054 2.46401500 5.89005821
