&CONTROL
calculation = 'relax'
prefix = 'scf'
pseudo_dir = '/vol0403/data/hp230205/u10028/POT_HYBRID_KKJUS_GBRV'
outdir = './data'
tprnfor = .true.
nstep = 50
disk_io = 'non'
/
&SYSTEM
ibrav = 0
ecutwfc = 50.0
ecutrho = 400
occupations = 'smearing'
smearing = 'mp'
degauss = 0.01
assume_isolated = 'esm'
esm_bc = 'bc1'
input_dft = 'BEEF-VDW'
nosym = .true.
nspin = 1
ntyp = 5
nat = 17
/
&ELECTRONS
electron_maxstep = 200
mixing_beta = 0.1
conv_thr = 1e-06
/
&IONS
ion_dynamics = 'bfgs'
upscale = 1.0
/
&CELL
/

K_POINTS {automatic}
9 9 2 0  0  0

ATOMIC_SPECIES
C 12.01 C.pbe-n-rrkjus_psl.1.0.0.UPF
Hf 178.4 Hf.pbe-spn-rrkjus_psl.1.0.0.UPF
Li 6.941 Li.pbe-sl-rrkjus_psl.1.0.0.UPF
Pd 106.4 Pd.pbe-n-rrkjus_psl.1.0.0.UPF
Sn 118.7 Sn.pbe-dn-rrkjus_psl.1.0.0.UPF


CELL_PARAMETERS {angstrom}
6.67688000 0.00000000 0.00000000
0.00000000 6.67688000 0.00000000
0.00000000 0.00000000 25.00770000

ATOMIC_POSITIONS {angstrom}
Li 6.58827780 3.25204117 2.58754672
Li 0.00000000 0.00000000 -0.8345069500000015 0 0 0
Li 3.33844000 3.33844000 -0.8345069500000015 0 0 0
Li 3.42483883 0.08860220 2.58754672
Hf 6.44619380 0.23061944 2.54328309
Hf 0.00000000 3.33844000 -0.8345069500000015 0 0 0
Hf 3.33844000 0.00000000 -0.8345069500000015 0 0 0
Hf 3.56478623 3.11209377 2.53002901
Sn 1.66581479 1.66427911 0.97104899
Sn 1.66922000 5.00766000 -2.503770920000001 0 0 0
Sn 5.00766000 1.66922000 -2.503770920000001 0 0 0
Sn 5.01260089 5.01106521 0.97104899
Pd 5.00906214 1.66781786 0.58568033
Pd 5.00766000 5.00766000 -2.503770920000001 0 0 0
Pd 1.66922000 1.66922000 -2.503770920000001 0 0 0
Pd 1.66808493 5.00879507 0.76823654
C 5.00438833 1.67249167 2.91164651
