&CONTROL
calculation = 'relax'
prefix = 'scf'
pseudo_dir = '/vol0403/data/hp230205/u10028/POT_HYBRID_KKJUS_GBRV'
outdir = './data'
tprnfor = .true.
nstep = 70
disk_io = 'non'
/
&SYSTEM
ibrav = 0
ecutwfc = 50.0
ecutrho = 400
occupations = 'smearing'
smearing = 'mp'
degauss = 0.01
assume_isolated = 'esm'
esm_bc = 'bc1'
input_dft = 'BEEF-VDW'
nosym = .true.
nspin = 1
ntyp = 6
nat = 34
/
&ELECTRONS
electron_maxstep = 200
mixing_beta = 0.1
conv_thr = 1e-06
/
&IONS
ion_dynamics = 'bfgs'
upscale = 1.0
/
&CELL
/

K_POINTS {automatic}
6 6 1 0 0 0

ATOMIC_SPECIES
C 12.01 C.pbe-n-rrkjus_psl.1.0.0.UPF
Cu 63.54 Cu.pbe-dn-rrkjus_psl.1.0.0.UPF
Li 6.941 Li.pbe-sl-rrkjus_psl.1.0.0.UPF
O 15.99 O.pbe-n-rrkjus_psl.1.0.0.UPF
Pd 106.4 Pd.pbe-n-rrkjus_psl.1.0.0.UPF
Y 88.90 Y.pbe-spn-rrkjus_psl.1.0.0.UPF


CELL_PARAMETERS {angstrom}
6.67076000 0.00000000 0.00000000
-0.00000000 9.43388000 0.00000000
0.00000000 0.00000000 27.07540000

ATOMIC_POSITIONS {angstrom}
Li 1.66769000 0.00000000 -1.1791336699999988 0 0 0
Li 1.66769000 4.71694000 -1.1791336699999988 0 0 0
Li 5.00307000 2.35847000 -3.5376717599999985 0 0 0
Li 5.00307000 7.07541000 -3.5376717599999985 0 0 0
Li 1.65755044 4.71694000 3.48514549
Li 1.67809639 -0.00000000 3.59967443
Li 5.02935279 7.07069306 1.28933055
Li 5.02935279 2.36328128 1.28933055
Y 5.00307000 0.00000000 -1.1791336699999988 0 0 0
Y 5.00307000 4.71694000 -1.1791336699999988 0 0 0
Y 1.66769000 2.35847000 -3.5376717599999985 0 0 0
Y 1.66769000 7.07541000 -3.5376717599999985 0 0 0
Y 5.02241520 4.71703434 3.71853544
Y 5.04909824 9.43378566 3.79840787
Y 1.68610130 7.10720218 1.12389985
Y 1.68610130 2.32677216 1.12389985
Cu 0.00000000 0.00000000 -3.5376717599999985 0 0 0
Cu 0.00000000 4.71694000 -3.5376717599999985 0 0 0
Cu 3.33538000 7.07541000 -1.1791336699999988 0 0 0
Cu 3.33538000 2.35847000 -1.1791336699999988 0 0 0
Cu 6.57116555 4.71694000 1.32588234
Cu 6.51119542 0.00009434 1.36270488
Cu 3.26927277 2.36111149 3.44886445
Cu 3.26907265 7.07276851 3.44913521
Pd 0.00000000 2.35847000 -1.1791336699999988 0 0 0
Pd 0.00000000 7.07541000 -1.1791336699999988 0 0 0
Pd 3.33538000 4.71694000 -3.5376717599999985 0 0 0
Pd 3.33538000 0.00000000 -3.5376717599999985 0 0 0
Pd 0.03708943 7.04852344 3.39579667
Pd 0.03695601 2.38526222 3.39579667
Pd 3.52669740 -0.00000000 1.41739719
Pd 3.46145736 4.71703434 1.34564738
C 1.69704134 -0.00000000 5.66417368
O 1.67022489 9.43378566 6.81352441
