&CONTROL
calculation = 'relax'
prefix = 'scf'
pseudo_dir = '/vol0403/data/hp230205/u10028/POT_HYBRID_KKJUS_GBRV'
outdir = './data'
tprnfor = .true.
nstep = 50
disk_io = 'non'
/
&SYSTEM
ibrav = 0
ecutwfc = 50.0
ecutrho = 400
occupations = 'smearing'
smearing = 'mp'
degauss = 0.01
assume_isolated = 'esm'
esm_bc = 'bc1'
input_dft = 'BEEF-VDW'
nosym = .true.
nspin = 1
ntyp = 6
nat = 34
/
&ELECTRONS
electron_maxstep = 200
mixing_beta = 0.1
conv_thr = 1e-06
/
&IONS
ion_dynamics = 'bfgs'
upscale = 1.0
/
&CELL
/

K_POINTS {automatic}
6 6 1 0 0 0

ATOMIC_SPECIES
C 12.01 C.pbe-n-rrkjus_psl.1.0.0.UPF
Cu 63.54 Cu.pbe-dn-rrkjus_psl.1.0.0.UPF
Ge 72.64 Ge.pbe-dn-rrkjus_psl.1.0.0.UPF
Li 6.941 Li.pbe-sl-rrkjus_psl.1.0.0.UPF
O 15.99 O.pbe-n-rrkjus_psl.1.0.0.UPF
Y 88.90 Y.pbe-spn-rrkjus_psl.1.0.0.UPF


CELL_PARAMETERS {angstrom}
6.66034000 0.00000000 0.00000000
0.00000000 9.41914000 0.00000000
0.00000000 0.00000000 27.06440000

ATOMIC_POSITIONS {angstrom}
Li 4.99525500 0.00000000 -1.1773013999999975 0 0 0
Li 4.99525500 4.70957000 -1.1773013999999975 0 0 0
Li 1.66508500 2.35478500 -3.5321748399999997 0 0 0
Li 1.66508500 7.06435500 -3.5321748399999997 0 0 0
Li 4.99738631 4.70957000 3.53623450
Li 4.97620643 0.00000000 3.54706026
Li 1.62672144 7.10975525 1.18975102
Li 1.62672144 2.30938475 1.18975102
Y 1.66508500 0.00000000 -1.1773013999999975 0 0 0
Y 1.66508500 4.70957000 -1.1773013999999975 0 0 0
Y 4.99525500 2.35478500 -3.5321748399999997 0 0 0
Y 4.99525500 7.06435500 -3.5321748399999997 0 0 0
Y 1.57650248 4.70966419 3.94923725
Y 1.56837686 9.41904581 3.50944075
Y 4.97554039 6.92043054 1.16918208
Y 4.97554039 2.49880365 1.16918208
Cu 0.00000000 0.00000000 -3.5321748399999997 0 0 0
Cu 0.00000000 4.70957000 -3.5321748399999997 0 0 0
Cu 3.33017000 7.06435500 -1.1773013999999975 0 0 0
Cu 3.33017000 2.35478500 -1.1773013999999975 0 0 0
Cu 0.32375913 4.70957000 1.46256018
Cu 6.43122430 0.00018838 1.14374154
Cu 3.35734419 2.39180222 3.41092633
Cu 3.35754400 7.02724359 3.41092633
Ge 0.00000000 2.35478500 -1.1773013999999975 0 0 0
Ge 0.00000000 7.06435500 -1.1773013999999975 0 0 0
Ge 3.33017000 4.70957000 -3.5321748399999997 0 0 0
Ge 3.33017000 0.00000000 -3.5321748399999997 0 0 0
Ge 6.50082486 7.05079144 3.65477658
Ge 6.50095806 2.36834856 3.65450593
Ge 3.43380489 0.00000000 1.26120104
Ge 3.04264312 4.70966419 1.49124844
C 1.63471385 9.41904581 5.99205816
O 1.64610303 0.00000000 7.13985936
