&CONTROL
calculation = 'relax'
prefix = 'scf'
pseudo_dir = '/vol0004/mdt0/data/hp150275/u10028/POT_KKJUS'
outdir = './data'
tprnfor = .true.
nstep = 50
disk_io = 'non'
/
&SYSTEM
ibrav = 0
ecutwfc = 50.0
ecutrho = 400
occupations = 'smearing'
smearing = 'mp'
degauss = 0.01
assume_isolated = 'esm'
esm_bc = 'bc1'
input_dft = 'BEEF-VDW'
nosym = .true.
nspin = 1
ntyp = 5
nat = 34
/
&ELECTRONS
electron_maxstep = 200
mixing_beta = 0.1
conv_thr = 1e-06
/
&IONS
ion_dynamics = 'bfgs'
upscale = 1.0
/
&CELL
/

K_POINTS {automatic}
9 6 2 0  0  0

ATOMIC_SPECIES
C 12.01 C.pbe-n-rrkjus_psl.1.0.0.UPF
Li 6.941 Li.pbe-sl-rrkjus_psl.1.0.0.UPF
O 15.99 O.pbe-n-rrkjus_psl.1.0.0.UPF
Pb 207.2 Pb.pbe-dn-rrkjus_psl.1.0.0.UPF
Pd 106.4 Pd.pbe-n-rrkjus_psl.1.0.0.UPF

CELL_PARAMETERS {angstrom}
6.57920000 0.00000000 0.00000000
0.00000000 9.30439000 0.00000000
0.00000000 0.00000000 26.97830000

ATOMIC_POSITIONS {angstrom}
Li 0.00000000 0.00000000 -3.489103540000002 0 0 0
Li 3.28960000 2.32609750 -1.1630345099999992 0 0 0
Li 3.28960000 6.97829250 -1.1630345099999992 0 0 0
Li 0.00000000 4.65219500 -3.489103540000002 0 0 0
Li 0.00000000 4.63684276 1.08048092
Li 3.28960000 6.97829250 3.44135195
Li 3.28960000 2.32609750 3.44027282
Li 0.00000000 0.01535224 1.08048092
Pd 1.64480000 0.00000000 -1.1630345099999992 0 0 0
Pd 4.93440000 4.65219500 -1.1630345099999992 0 0 0
Pd 4.93440000 0.00000000 -1.1630345099999992 0 0 0
Pd 1.64480000 4.65219500 -1.1630345099999992 0 0 0
Pd 4.93440000 6.97829250 -3.489103540000002 0 0 0
Pd 1.64480000 2.32609750 -3.489103540000002 0 0 0
Pd 1.64480000 6.97829250 -3.489103540000002 0 0 0
Pd 4.93440000 2.32609750 -3.489103540000002 0 0 0
Pd 1.48499123 4.65507936 3.24306144
Pd 5.09420877 9.30150564 3.24306144
Pd 5.09420877 4.65507936 3.24306144
Pd 1.48499123 9.30150564 3.24306144
Pd 4.99315226 2.32609750 1.25179312
Pd 1.52894029 6.97829250 1.29576775
Pd 1.58604774 2.32609750 1.25179312
Pd 5.05019392 6.97829250 1.29576775
Pb 0.00000000 6.97829250 -1.1630345099999992 0 0 0
Pb 3.28960000 0.00000000 -3.489103540000002 0 0 0
Pb 0.00000000 2.32609750 -1.1630345099999992 0 0 0
Pb 3.28960000 4.65219500 -3.489103540000002 0 0 0
Pb 0.00000000 2.32609750 3.80016334
Pb 3.28960000 4.67759598 1.13875404
Pb 0.00000000 6.97829250 3.90295066
Pb 3.28960000 9.27898902 1.13875404
C 0.00006579 2.32600446 7.68261049
O 0.00000000 2.32609750 8.81758757
