&CONTROL
calculation = 'relax'
prefix = 'scf'
pseudo_dir = '/vol0403/data/hp230205/u10028/POT_HYBRID_KKJUS_GBRV'
outdir = './data'
tprnfor = .true.
nstep = 50
disk_io = 'non'
/
&SYSTEM
ibrav = 0
ecutwfc = 50.0
ecutrho = 400
occupations = 'smearing'
smearing = 'mp'
degauss = 0.01
assume_isolated = 'esm'
esm_bc = 'bc1'
input_dft = 'BEEF-VDW'
nosym = .true.
nspin = 1
ntyp = 5
nat = 33
/
&ELECTRONS
electron_maxstep = 200
mixing_beta = 0.1
conv_thr = 1e-06
/
&IONS
ion_dynamics = 'bfgs'
upscale = 1.0
/
&CELL
/

K_POINTS {automatic}
6 6 1 0 0 0

ATOMIC_SPECIES
C 12.01 C.pbe-n-rrkjus_psl.1.0.0.UPF
Ge 72.64 Ge.pbe-dn-rrkjus_psl.1.0.0.UPF
In 114.8 In.pbe-dn-rrkjus_psl.1.0.0.UPF
Li 6.941 Li.pbe-sl-rrkjus_psl.1.0.0.UPF
Y 88.90 Y.pbe-spn-rrkjus_psl.1.0.0.UPF


CELL_PARAMETERS {angstrom}
8.57642000 0.00000000 0.00000000
0.00000000 9.31878000 0.00000000
0.00000000 0.00000000 26.37020000

ATOMIC_POSITIONS {angstrom}
Li 2.19513470 2.32969500 3.66282078
Li 2.14410500 2.32969500 -1.0616642499999998 0 0 0
Li 2.46297630 6.98908500 3.65939265
Li 2.14410500 6.98908500 -1.0616642499999998 0 0 0
Li 6.38102801 2.32969500 3.66308448
Li 6.43231500 2.32969500 -1.0616642499999998 0 0 0
Li 6.11370100 6.98908500 3.65992006
Li 6.43231500 6.98908500 -1.0616642499999998 0 0 0
Y 2.15302448 9.31645031 1.10754840
Y 2.14410500 0.00000000 -3.18499276 0 0 0
Y 2.15302448 4.66171969 1.10754840
Y 2.14410500 4.65939000 -3.18499276 0 0 0
Y 6.42348129 9.31654349 1.10754840
Y 6.43231500 0.00000000 -3.18499276 0 0 0
Y 6.42348129 4.66162651 1.10754840
Y 6.43231500 4.65939000 -3.18499276 0 0 0
In 0.00008576 2.32969500 1.06482868
In 0.00000000 2.32969500 -3.18499276 0 0 0
In 0.00000000 6.98908500 0.99784837
In 0.00000000 6.98908500 -3.18499276 0 0 0
In 4.28821000 2.32969500 1.44851509
In 4.28821000 2.32969500 -3.18499276 0 0 0
In 4.28829576 6.98908500 1.35015424
In 4.28821000 6.98908500 -3.18499276 0 0 0
Ge 0.00000000 0.42661375 3.46319837
Ge 0.00000000 0.00000000 -1.0616642499999998 0 0 0
Ge 0.00000000 4.23277625 3.46319837
Ge 0.00000000 4.65939000 -1.0616642499999998 0 0 0
Ge 4.28829576 9.25485317 3.25118196
Ge 4.28821000 0.00000000 -1.0616642499999998 0 0 0
Ge 4.28829576 4.72331683 3.25118196
Ge 4.28821000 4.65939000 -1.0616642499999998 0 0 0
C 8.57633424 2.32969500 3.59874119
