&CONTROL
calculation = 'relax'
prefix = 'scf'
pseudo_dir = '/vol0004/mdt0/data/hp150275/u10028/POT_HYBRID_KKJUS_GBRV'
outdir = './data'
tprnfor = .true.
nstep = 50
disk_io = 'non'
/
&SYSTEM
ibrav = 0
ecutwfc = 50.0
ecutrho = 400
occupations = 'smearing'
smearing = 'mp'
degauss = 0.01
assume_isolated = 'esm'
esm_bc = 'bc1'
input_dft = 'BEEF-VDW'
nosym = .true.
nspin = 2
ntyp = 5
nat = 18
starting_magnetization(1) = 0.1
starting_magnetization(2) = 0.1
starting_magnetization(3) = 0.1
starting_magnetization(4) = 0.1
starting_magnetization(5) = 0.1
/
&ELECTRONS
electron_maxstep = 200
mixing_beta = 0.1
conv_thr = 1e-06
/
&IONS
ion_dynamics = 'bfgs'
upscale = 1.0
/
&CELL
/

K_POINTS {automatic}
8 8 1 0 0 0

ATOMIC_SPECIES
C 12.01 C.pbe-n-rrkjus_psl.1.0.0.UPF
Ni 58.69 ni_pbe_v1.4.uspp.F.UPF
O 15.99 O.pbe-n-rrkjus_psl.1.0.0.UPF
Sc 44.95 Sc.pbe-spn-rrkjus_psl.1.0.0.UPF
Sn 118.7 Sn.pbe-dn-rrkjus_psl.1.0.0.UPF

CELL_PARAMETERS {angstrom}
6.29417000 0.00000000 0.00000000
0.00000000 6.29417000 0.00000000
0.00000000 0.00000000 24.72060000

ATOMIC_POSITIONS {angstrom}
Sc 0.00188825 6.29316293 2.36427818
Sc 3.14664441 3.14771442 2.37812172
Sc 3.14708500 0.00000000 -0.7868567000000013 0 0 0
Sc 0.00000000 3.14708500 -0.7868567000000013 0 0 0
Ni 1.57719312 1.58134727 0.87510924
Ni 4.72062750 4.72062750 -2.3603228900000026 0 0 0
Ni 4.71471098 1.58084374 0.88277263
Ni 1.57354250 4.72062750 -2.3603228900000026 0 0 0
Ni 4.71760630 4.71735453 0.87881733
Ni 1.57354250 1.57354250 -2.3603228900000026 0 0 0
Ni 1.57549369 4.71156390 0.88203101
Ni 4.72062750 1.57354250 -2.3603228900000026 0 0 0
Sn 0.00000000 0.00000000 -0.7868567000000013 0 0 0
Sn 3.14771442 6.29240763 2.46637426
Sn 6.29228175 3.14802913 2.46587985
Sn 3.14708500 3.14708500 -0.7868567000000013 0 0 0
C 5.74884311 3.15054679 6.96379302
O 0.34844525 3.13355253 7.66412762
