&CONTROL
calculation = 'relax'
prefix = 'scf'
pseudo_dir = '/vol0004/mdt0/data/hp150275/u10028/POT_KKJUS'
outdir = './data'
tprnfor = .true.
nstep = 50
disk_io = 'non'
/
&SYSTEM
ibrav = 0
ecutwfc = 50.0
ecutrho = 400
occupations = 'smearing'
smearing = 'mp'
degauss = 0.01
assume_isolated = 'esm'
esm_bc = 'bc1'
input_dft = 'BEEF-VDW'
nosym = .true.
nspin = 1
ntyp = 5
nat = 34
/
&ELECTRONS
electron_maxstep = 200
mixing_beta = 0.1
conv_thr = 1e-06
/
&IONS
ion_dynamics = 'bfgs'
upscale = 1.0
/
&CELL
/

K_POINTS {automatic}
9 6 2 0  0  0

ATOMIC_SPECIES
Ag 107.8 Ag.pbe-n-rrkjus_psl.1.0.0.UPF
C 12.01 C.pbe-n-rrkjus_psl.1.0.0.UPF
In 114.8 In.pbe-dn-rrkjus_psl.1.0.0.UPF
Mg 24.30 Mg.pbe-spnl-rrkjus_psl.1.0.0.UPF
O 15.99 O.pbe-n-rrkjus_psl.1.0.0.UPF

CELL_PARAMETERS {angstrom}
6.85111000 0.00000000 0.00000000
0.00000000 9.68893000 0.00000000
0.00000000 0.00000000 27.26670000

ATOMIC_POSITIONS {angstrom}
Mg 0.00000000 0.00000000 -3.633287769999999 0 0 0
Mg 3.42555500 2.42223250 -1.211186810000001 0 0 0
Mg 3.42555500 7.26669750 -1.211186810000001 0 0 0
Mg 0.00000000 4.84446500 -3.633287769999999 0 0 0
Mg 0.00000000 4.81249153 1.31234627
Mg 3.42555500 7.26640683 3.71399721
Mg 3.42555500 2.42203872 3.72599455
Mg 0.00000000 0.03187658 1.31234627
In 0.00000000 7.26669750 -1.211186810000001 0 0 0
In 3.42555500 0.00000000 -3.633287769999999 0 0 0
In 0.00000000 2.42223250 -1.211186810000001 0 0 0
In 3.42555500 4.84446500 -3.633287769999999 0 0 0
In 0.00000000 2.42203872 3.97603019
In 3.42555500 4.86684643 1.25835820
In 0.00000000 7.26660061 4.02483759
In 3.42555500 9.66645168 1.25835820
Ag 1.71277750 0.00000000 -1.211186810000001 0 0 0
Ag 5.13833250 4.84446500 -1.211186810000001 0 0 0
Ag 5.13833250 0.00000000 -1.211186810000001 0 0 0
Ag 1.71277750 4.84446500 -1.211186810000001 0 0 0
Ag 5.13833250 7.26669750 -3.633287769999999 0 0 0
Ag 1.71277750 2.42223250 -3.633287769999999 0 0 0
Ag 1.71277750 7.26669750 -3.633287769999999 0 0 0
Ag 5.13833250 2.42223250 -3.633287769999999 0 0 0
Ag 1.74723858 4.84456189 3.71945055
Ag 5.10380291 9.68854244 3.71945055
Ag 5.10387142 4.84456189 3.71945055
Ag 1.74730709 9.68854244 3.71945055
Ag 5.17998725 2.42223250 1.28862424
Ag 1.61049043 7.26660061 1.30362093
Ag 1.67112275 2.42213561 1.28862424
Ag 5.24061957 7.26669750 1.30362093
C 6.85090447 2.42601118 8.04122250
O 0.00013702 2.42165116 9.17578988
