&CONTROL
calculation = 'relax'
prefix = 'scf'
pseudo_dir = '/vol0004/mdt0/data/hp150275/u10028/POT_KKJUS'
outdir = './data'
tprnfor = .true.
nstep = 50
disk_io = 'non'
/
&SYSTEM
ibrav = 0
ecutwfc = 50.0
ecutrho = 400
occupations = 'smearing'
smearing = 'mp'
degauss = 0.01
assume_isolated = 'esm'
esm_bc = 'bc1'
input_dft = 'BEEF-VDW'
nosym = .true.
nspin = 1
ntyp = 4
nat = 34
/
&ELECTRONS
electron_maxstep = 200
mixing_beta = 0.1
conv_thr = 1e-06
/
&IONS
ion_dynamics = 'bfgs'
upscale = 1.0
/
&CELL
/

K_POINTS {automatic}
6 6 1 0 0 0

ATOMIC_SPECIES
C 12.01 C.pbe-n-rrkjus_psl.1.0.0.UPF
O 15.99 O.pbe-n-rrkjus_psl.1.0.0.UPF
Sn 118.7 Sn.pbe-dn-rrkjus_psl.1.0.0.UPF
Y 88.90 Y.pbe-spn-rrkjus_psl.1.0.0.UPF

CELL_PARAMETERS {angstrom}
9.50155000 0.00000000 0.00000000
0.00000000 9.50155000 0.00000000
0.00000000 0.00000000 27.12620000

ATOMIC_POSITIONS {angstrom}
Y 0.00000000 0.00000000 -3.5630263699999993 0 0 0
Y 9.44872138 0.00000000 1.03052434
Y 0.00000000 4.75077500 -3.5630263699999993 0 0 0
Y 9.46544411 4.75077500 1.04110356
Y 4.75077500 0.00000000 -3.5630263699999993 0 0 0
Y 4.80360362 0.00000000 1.03052434
Y 4.75077500 4.75077500 -3.5630263699999993 0 0 0
Y 4.78688089 4.75077500 1.04110356
Sn 0.00000000 2.37538750 -1.1875850400000019 0 0 0
Sn 2.37538750 0.00000000 -1.1875850400000019 0 0 0
Sn 2.37538750 2.37538750 -3.5630263699999993 0 0 0
Sn 0.00807632 2.37899809 3.64738885
Sn 2.37538750 0.00000000 3.55027706
Sn 2.37538750 2.36579093 1.34220438
Sn 0.00000000 7.12616250 -1.1875850400000019 0 0 0
Sn 2.37538750 4.75077500 -1.1875850400000019 0 0 0
Sn 2.37538750 7.12616250 -3.5630263699999993 0 0 0
Sn 0.00798130 7.12255191 3.64738885
Sn 2.37538750 4.75077500 3.55949996
Sn 2.37538750 7.13575907 1.34220438
Sn 4.75077500 2.37538750 -1.1875850400000019 0 0 0
Sn 7.12616250 0.00000000 -1.1875850400000019 0 0 0
Sn 7.12616250 2.37538750 -3.5630263699999993 0 0 0
Sn 4.74269868 2.37899809 3.64738885
Sn 7.12616250 0.00000000 3.71601814
Sn 7.12616250 2.37823797 1.46020335
Sn 4.75077500 7.12616250 -1.1875850400000019 0 0 0
Sn 7.12616250 4.75077500 -1.1875850400000019 0 0 0
Sn 7.12616250 7.12616250 -3.5630263699999993 0 0 0
Sn 4.74279370 7.12255191 3.64738885
Sn 7.12616250 4.75077500 3.71900202
Sn 7.12616250 7.12331204 1.46020335
C 2.37538750 9.50135997 7.56902359
O 2.37538750 0.00009502 8.70371253
