&CONTROL
calculation = 'relax'
prefix = 'scf'
pseudo_dir = '/vol0004/mdt0/data/hp150275/u10028/POT_KKJUS'
outdir = './data'
tprnfor = .true.
nstep = 50
disk_io = 'non'
/
&SYSTEM
ibrav = 0
ecutwfc = 50.0
ecutrho = 400
occupations = 'smearing'
smearing = 'mp'
degauss = 0.01
assume_isolated = 'esm'
esm_bc = 'bc1'
input_dft = 'BEEF-VDW'
nosym = .true.
nspin = 1
ntyp = 4
nat = 33
/
&ELECTRONS
electron_maxstep = 200
mixing_beta = 0.1
conv_thr = 1e-06
/
&IONS
ion_dynamics = 'bfgs'
upscale = 1.0
/
&CELL
/

K_POINTS {automatic}
8 6 1 0 0 0

ATOMIC_SPECIES
C 12.01 C.pbe-n-rrkjus_psl.1.0.0.UPF
Li 6.941 Li.pbe-sl-rrkjus_psl.1.0.0.UPF
Ni 58.69 Ni.pbe-spn-rrkjus_psl.1.0.0.UPF
Sn 118.7 Sn.pbe-dn-rrkjus_psl.1.0.0.UPF

CELL_PARAMETERS {angstrom}
6.05884000 0.00000000 0.00000000
0.00000000 8.56849000 0.00000000
0.00000000 0.00000000 26.42640000

ATOMIC_POSITIONS {angstrom}
Li 0.00000000 0.00000000 -3.213185980000002 0 0 0
Li 3.02942000 2.14212250 -1.0710619900000005 0 0 0
Li 3.02942000 6.42636750 -1.0710619900000005 0 0 0
Li 0.00000000 4.28424500 -3.213185980000002 0 0 0
Li 0.00000000 4.28424500 0.87973486
Li 3.02942000 6.28275961 3.46212266
Li 3.02942000 2.28555902 3.46212266
Li 0.00000000 8.56840432 1.14796282
Ni 1.51471000 0.00000000 -1.0710619900000005 0 0 0
Ni 4.54413000 4.28424500 -1.0710619900000005 0 0 0
Ni 4.54413000 0.00000000 -1.0710619900000005 0 0 0
Ni 1.51471000 4.28424500 -1.0710619900000005 0 0 0
Ni 4.54413000 6.42636750 -3.213185980000002 0 0 0
Ni 1.51471000 2.14212250 -3.213185980000002 0 0 0
Ni 1.51471000 6.42636750 -3.213185980000002 0 0 0
Ni 4.54413000 2.14212250 -3.213185980000002 0 0 0
Ni 1.31343534 4.28415932 2.91509618
Ni 4.36769658 0.00000000 3.13417104
Ni 4.74540466 4.28415932 2.91509618
Ni 1.69114342 0.00000000 3.13417104
Ni 4.59320660 2.15823126 1.16196881
Ni 1.46569398 6.41008737 1.16223307
Ni 1.46563340 2.15823126 1.16196881
Ni 4.59320660 6.41008737 1.16223307
Sn 0.00000000 6.42636750 -1.0710619900000005 0 0 0
Sn 3.02942000 0.00000000 -3.213185980000002 0 0 0
Sn 0.00000000 2.14212250 -1.0710619900000005 0 0 0
Sn 3.02942000 4.28424500 -3.213185980000002 0 0 0
Sn 0.00000000 2.18753550 3.46423678
Sn 3.02942000 4.28415932 1.04727823
Sn 0.00000000 6.38078313 3.46423678
Sn 3.02942000 0.00000000 0.98279782
C 0.00000000 8.56840432 3.75756982
