&CONTROL
calculation = 'relax'
prefix = 'scf'
pseudo_dir = '/vol0004/mdt0/data/hp150275/u10028/POT_HYBRID_KKJUS_GBRV'
outdir = './data'
tprnfor = .true.
nstep = 50
disk_io = 'non'
/
&SYSTEM
ibrav = 0
ecutwfc = 50.0
ecutrho = 400
occupations = 'smearing'
smearing = 'mp'
degauss = 0.01
assume_isolated = 'esm'
esm_bc = 'bc1'
input_dft = 'BEEF-VDW'
nosym = .true.
nspin = 2
ntyp = 5
nat = 34
starting_magnetization(1) = 0.0
starting_magnetization(2) = 0.0
starting_magnetization(3) = 0.001
starting_magnetization(4) = 0.0
starting_magnetization(5) = 0.0
/
&ELECTRONS
electron_maxstep = 300
mixing_beta = 0.1
conv_thr = 1e-06
/
&IONS
ion_dynamics = 'bfgs'
upscale = 1.0
/
&CELL
/

K_POINTS {automatic}
9 6 2 0  0  0

ATOMIC_SPECIES
C 12.01 C.pbe-n-rrkjus_psl.1.0.0.UPF
In 114.8 In.pbe-dn-rrkjus_psl.1.0.0.UPF
Ni 58.69 ni_pbe_v1.4.uspp.F.UPF
O 15.99 O.pbe-n-rrkjus_psl.1.0.0.UPF
Ti 47.86 Ti.pbe-spn-rrkjus_psl.1.0.0.UPF

CELL_PARAMETERS {angstrom}
6.16408000 0.00000000 0.00000000
0.00000000 8.71733000 0.00000000
0.00000000 0.00000000 26.53800000

ATOMIC_POSITIONS {angstrom}
Ti 0.00000000 0.00000000 -3.2689508399999987 0 0 0
Ti 3.08204000 2.17933250 -1.0896502800000007 0 0 0
Ti 3.08204000 6.53799750 -1.0896502800000007 0 0 0
Ti 0.00000000 4.35866500 -3.2689508399999987 0 0 0
Ti 6.14583432 4.35875217 1.15652604
Ti 3.08493712 6.51620418 3.16757568
Ti 3.08493712 2.20095148 3.16784106
Ti 6.15144364 0.00008717 1.16395668
In 0.00000000 6.53799750 -1.0896502800000007 0 0 0
In 3.08204000 0.00000000 -3.2689508399999987 0 0 0
In 0.00000000 2.17933250 -1.0896502800000007 0 0 0
In 3.08204000 4.35866500 -3.2689508399999987 0 0 0
In 6.14114962 2.20408972 3.51177354
In 3.07495131 4.35892652 0.99968646
In 6.14102634 6.51315311 3.51203892
In 3.02224842 8.71724283 1.05515088
Ni 1.54102000 0.00000000 -1.0896502800000007 0 0 0
Ni 4.62306000 4.35866500 -1.0896502800000007 0 0 0
Ni 4.62306000 0.00000000 -1.0896502800000007 0 0 0
Ni 1.54102000 4.35866500 -1.0896502800000007 0 0 0
Ni 4.62306000 6.53799750 -3.2689508399999987 0 0 0
Ni 1.54102000 2.17933250 -3.2689508399999987 0 0 0
Ni 1.54102000 6.53799750 -3.2689508399999987 0 0 0
Ni 4.62306000 2.17933250 -3.2689508399999987 0 0 0
Ni 1.59458586 4.35814196 3.11715348
Ni 4.63526488 0.00043587 3.08132718
Ni 4.53053716 4.35805479 3.13891464
Ni 1.63397433 0.00034869 3.38731032
Ni 4.64488084 2.16930757 1.17377574
Ni 1.48480359 6.52614193 1.20588672
Ni 1.48511179 2.19136242 1.20562134
Ni 4.64518905 6.54819678 1.17404112
C 2.28126437 0.00008717 5.02709334
O 2.60771404 8.71715565 6.14567004
