&CONTROL
calculation = 'relax'
prefix = 'scf'
pseudo_dir = '/vol0004/mdt0/data/hp150275/u10028/POT_HYBRID_KKJUS_GBRV'
outdir = './data'
tprnfor = .true.
nstep = 50
disk_io = 'non'
/
&SYSTEM
ibrav = 0
ecutwfc = 50.0
ecutrho = 400
occupations = 'smearing'
smearing = 'mp'
degauss = 0.01
assume_isolated = 'esm'
esm_bc = 'bc1'
input_dft = 'BEEF-VDW'
nosym = .true.
nspin = 2
ntyp = 4
nat = 34
starting_magnetization(1) = 0.1
starting_magnetization(2) = 0.1
starting_magnetization(3) = 0.1
starting_magnetization(4) = 0.1
/
&ELECTRONS
electron_maxstep = 200
mixing_beta = 0.1
conv_thr = 1e-06
/
&IONS
ion_dynamics = 'bfgs'
upscale = 1.0
/
&CELL
/

K_POINTS {automatic}
8 6 1 0 0 0

ATOMIC_SPECIES
C 12.01 C.pbe-n-rrkjus_psl.1.0.0.UPF
Ni 58.69 ni_pbe_v1.4.uspp.F.UPF
O 15.99 O.pbe-n-rrkjus_psl.1.0.0.UPF
Ti 47.86 Ti.pbe-spn-rrkjus_psl.1.0.0.UPF

CELL_PARAMETERS {angstrom}
6.03636000 0.00000000 0.00000000
0.00000000 8.53670000 0.00000000
0.00000000 0.00000000 26.40250000

ATOMIC_POSITIONS {angstrom}
Ti 1.50909000 2.13417500 -3.2013031199999986 0 0 0
Ti 1.50909000 0.00000000 -1.0671890499999996 0 0 0
Ti 1.49707764 2.13417500 1.04949937
Ti 1.53359762 8.51629729 3.24275505
Ti 1.50909000 6.40252500 -3.2013031199999986 0 0 0
Ti 1.50909000 4.26835000 -1.0671890499999996 0 0 0
Ti 1.50208782 6.40243963 1.05134755
Ti 1.53359762 4.28875271 3.24301907
Ti 4.52727000 2.13417500 -3.2013031199999986 0 0 0
Ti 4.52727000 0.00000000 -1.0671890499999996 0 0 0
Ti 4.53928236 2.13417500 1.04949937
Ti 4.50276238 8.51629729 3.24275505
Ti 4.52727000 6.40252500 -3.2013031199999986 0 0 0
Ti 4.52727000 4.26835000 -1.0671890499999996 0 0 0
Ti 4.53427218 6.40243963 1.05134755
Ti 4.50276238 4.28875271 3.24301907
Ni 0.00000000 0.00000000 -3.2013031199999986 0 0 0
Ni 0.00000000 2.13417500 -1.0671890499999996 0 0 0
Ni 0.00000000 0.02347593 1.20923450
Ni 0.00000000 2.13408963 3.27628623
Ni 0.00000000 4.26835000 -3.2013031199999986 0 0 0
Ni 0.00000000 6.40252500 -1.0671890499999996 0 0 0
Ni 0.00000000 4.24478871 1.20949852
Ni 0.00000000 6.40261037 2.96684892
Ni 3.01818000 0.00000000 -3.2013031199999986 0 0 0
Ni 3.01818000 2.13417500 -1.0671890499999996 0 0 0
Ni 3.01818000 8.51544362 1.16831062
Ni 3.01818000 2.13408963 2.92064455
Ni 3.01818000 4.26835000 -3.2013031199999986 0 0 0
Ni 3.01818000 6.40252500 -1.0671890499999996 0 0 0
Ni 3.01818000 4.28960638 1.16857465
Ni 3.01818000 6.40269573 2.97529772
C 0.00000000 2.13434573 5.06294340
O 0.00000000 2.13408963 6.23627050
