&CONTROL
calculation = 'relax'
prefix = 'scf'
pseudo_dir = '/vol0004/mdt0/data/hp150275/u10028/POT_HYBRID_KKJUS_GBRV'
outdir = './data'
tprnfor = .true.
nstep = 50
disk_io = 'non'
/
&SYSTEM
ibrav = 0
ecutwfc = 50.0
ecutrho = 400
occupations = 'smearing'
smearing = 'mp'
degauss = 0.01
assume_isolated = 'esm'
esm_bc = 'bc1'
input_dft = 'BEEF-VDW'
nosym = .true.
nspin = 2
ntyp = 4
nat = 34
starting_magnetization(1) = 0.0
starting_magnetization(2) = 0.1
starting_magnetization(3) = 0.0
starting_magnetization(4) = 0.0
/
&ELECTRONS
electron_maxstep = 200
mixing_beta = 0.1
conv_thr = 1e-06
/
&IONS
ion_dynamics = 'bfgs'
upscale = 1.0
/
&CELL
/

K_POINTS {automatic}
7 7 2 0  0  0

ATOMIC_SPECIES
C 12.01 C.pbe-n-rrkjus_psl.1.0.0.UPF
Fe 55.84 fe_pbe_v1.5.uspp.F.UPF
O 15.99 O.pbe-n-rrkjus_psl.1.0.0.UPF
Pt 195.0 Pt.pbe-n-rrkjus_psl.1.0.0.UPF

CELL_PARAMETERS {angstrom}
7.81947000 0.00000000 0.00000000
-0.00000000 7.52780000 0.00000000
0.00000000 0.00000000 25.86460000

ATOMIC_POSITIONS {angstrom}
Fe 0.00000000 0.00000000 -2.932269699999999 0 0 0
Fe 1.95486750 0.00000000 -0.9774232299999994 0 0 0
Fe 0.00000000 0.00000000 0.97742323
Fe 1.95486750 -0.00000000 2.93226970
Fe 0.00000000 3.76390000 -2.932269699999999 0 0 0
Fe 1.95486750 3.76390000 -0.9774232299999994 0 0 0
Fe 0.00000000 3.76390000 0.97742323
Fe 1.95486750 3.76390000 2.93226970
Fe 3.90973500 0.00000000 -2.932269699999999 0 0 0
Fe 5.86460250 0.00000000 -0.9774232299999994 0 0 0
Fe 3.90973500 -0.00000000 0.97742323
Fe 5.86460250 -0.00000000 2.93226970
Fe 3.90973500 3.76390000 -2.932269699999999 0 0 0
Fe 5.86460250 3.76390000 -0.9774232299999994 0 0 0
Fe 3.90973500 3.76390000 0.97742323
Fe 5.86460250 3.76390000 2.93226970
Pt 1.95486750 1.88195000 -2.932269699999999 0 0 0
Pt 0.00000000 1.88195000 -0.9774232299999994 0 0 0
Pt 1.95486750 1.88195000 0.97742323
Pt 0.00000000 1.88195000 2.93226970
Pt 1.95486750 5.64585000 -2.932269699999999 0 0 0
Pt 0.00000000 5.64585000 -0.9774232299999994 0 0 0
Pt 1.95486750 5.64585000 0.97742323
Pt 0.00000000 5.64585000 2.93226970
Pt 5.86460250 1.88195000 -2.932269699999999 0 0 0
Pt 3.90973500 1.88195000 -0.9774232299999994 0 0 0
Pt 5.86460250 1.88195000 0.97742323
Pt 3.90973500 1.88195000 2.93226970
Pt 5.86460250 5.64585000 -2.932269699999999 0 0 0
Pt 3.90973500 5.64585000 -0.9774232299999994 0 0 0
Pt 5.86460250 5.64585000 0.97742323
Pt 3.90973500 5.64585000 2.93226970
C 1.95486750 -0.00000000 4.83228322
O 1.95486750 -0.00000000 5.98222333
