&CONTROL
calculation = 'relax'
prefix = 'scf'
pseudo_dir = '/vol0004/mdt0/data/hp150275/u10028/POT_HYBRID_KKJUS_GBRV'
outdir = './data'
tprnfor = .true.
nstep = 50
disk_io = 'non'
/
&SYSTEM
ibrav = 0
ecutwfc = 50.0
ecutrho = 400
occupations = 'smearing'
smearing = 'mp'
degauss = 0.01
assume_isolated = 'esm'
esm_bc = 'bc1'
input_dft = 'BEEF-VDW'
nosym = .true.
nspin = 2
ntyp = 3
nat = 33
starting_magnetization(1) = 0.1
starting_magnetization(2) = 0.1
starting_magnetization(3) = 0.1
/
&ELECTRONS
electron_maxstep = 200
mixing_beta = 0.1
conv_thr = 1e-06
/
&IONS
ion_dynamics = 'bfgs'
upscale = 1.0
/
&CELL
/

K_POINTS {automatic}
9 6 2 0  0  0

ATOMIC_SPECIES
Au 196.9 Au.pbe-n-rrkjus_psl.1.0.0.UPF
C 12.01 C.pbe-n-rrkjus_psl.1.0.0.UPF
Mn 54.93 mn_pbe_v1.5.uspp.F.UPF

CELL_PARAMETERS {angstrom}
6.51708000 0.00000000 0.00000000
0.00000000 9.21654000 0.00000000
0.00000000 0.00000000 26.91240000

ATOMIC_POSITIONS {angstrom}
Mn 1.62927000 2.30413500 -3.4560904100000016 0 0 0
Mn 1.62927000 0.00000000 -1.152119840000001 0 0 0
Mn 1.60417924 2.30183087 1.19491056
Mn 1.73680182 0.00000000 3.47600558
Mn 1.62927000 6.91240500 -3.4560904100000016 0 0 0
Mn 1.62927000 4.60827000 -1.152119840000001 0 0 0
Mn 1.60417924 6.91470913 1.19491056
Mn 1.55262914 4.60827000 3.42783239
Mn 4.88781000 2.30413500 -3.4560904100000016 0 0 0
Mn 4.88781000 0.00000000 -1.152119840000001 0 0 0
Mn 4.91290076 2.30183087 1.19491056
Mn 4.78027818 0.00000000 3.47627471
Mn 4.88781000 6.91240500 -3.4560904100000016 0 0 0
Mn 4.88781000 4.60827000 -1.152119840000001 0 0 0
Mn 4.91290076 6.91470914 1.19491056
Mn 4.96445086 4.60827000 3.42783239
Au 0.00000000 0.00000000 -3.4560904100000016 0 0 0
Au 0.00000000 2.30413500 -1.152119840000001 0 0 0
Au 0.00000000 0.00000000 1.04931448
Au 0.00000000 2.30772945 3.57746533
Au 0.00000000 4.60827000 -3.4560904100000016 0 0 0
Au 0.00000000 6.91240500 -1.152119840000001 0 0 0
Au 0.00000000 4.60827000 1.05954119
Au 0.00000000 6.90881055 3.57746533
Au 3.25854000 0.00000000 -3.4560904100000016 0 0 0
Au 3.25854000 2.30413500 -1.152119840000001 0 0 0
Au 3.25854000 0.00000000 1.11363511
Au 3.25854000 2.34146199 3.39526838
Au 3.25854000 4.60827000 -3.4560904100000016 0 0 0
Au 3.25854000 6.91240500 -1.152119840000001 0 0 0
Au 3.25854000 4.60827000 1.14619912
Au 3.25854000 6.87507801 3.39526838
C 0.00000000 0.00000000 4.10548662
