&CONTROL
calculation = 'relax'
prefix = 'scf'
pseudo_dir = '/vol0403/data/hp230205/u10028/POT_HYBRID_KKJUS_GBRV'
outdir = './data'
tprnfor = .true.
nstep = 50
disk_io = 'non'
/
&SYSTEM
ibrav = 0
ecutwfc = 50.0
ecutrho = 400
occupations = 'smearing'
smearing = 'mp'
degauss = 0.01
assume_isolated = 'esm'
esm_bc = 'bc1'
input_dft = 'BEEF-VDW'
nosym = .true.
nspin = 1
ntyp = 5
nat = 33
/
&ELECTRONS
electron_maxstep = 200
mixing_beta = 0.1
conv_thr = 1e-06
/
&IONS
ion_dynamics = 'bfgs'
upscale = 1.0
/
&CELL
/

K_POINTS {automatic}
9 6 2 0  0  0

ATOMIC_SPECIES
Al 26.98 Al.pbe-nl-rrkjus_psl.1.0.0.UPF
C 12.01 C.pbe-n-rrkjus_psl.1.0.0.UPF
Ga 69.72 Ga.pbe-dnl-rrkjus_psl.1.0.0.UPF
Li 6.941 Li.pbe-sl-rrkjus_psl.1.0.0.UPF
Pd 106.4 Pd.pbe-n-rrkjus_psl.1.0.0.UPF


CELL_PARAMETERS {angstrom}
6.14517000 0.00000000 0.00000000
0.00000000 8.69058000 0.00000000
0.00000000 0.00000000 26.51790000

ATOMIC_POSITIONS {angstrom}
Li 4.60887750 0.00000000 -1.0864383600000025 0 0 0
Li 4.60887750 4.34529000 -1.0864383600000025 0 0 0
Li 1.53629250 2.17264500 -3.2590499100000017 0 0 0
Li 1.53629250 6.51793500 -3.2590499100000017 0 0 0
Li 4.87705272 4.34529000 4.06254228
Li 4.35661827 0.00000000 4.60377262
Li 1.48424291 6.55321875 1.18508495
Li 1.48424291 2.13736125 1.18508495
Al 0.00000000 0.00000000 -3.2590499100000017 0 0 0
Al 0.00000000 4.34529000 -3.2590499100000017 0 0 0
Al 3.07258500 6.51793500 -1.0864383600000025 0 0 0
Al 3.07258500 2.17264500 -1.0864383600000025 0 0 0
Al 6.07726587 4.34529000 1.15246793
Al 5.88295560 0.00000000 1.41632104
Al 3.16961723 2.25685672 3.33727771
Al 3.16961723 6.43381019 3.33727771
Ga 0.00000000 2.17264500 -1.0864383600000025 0 0 0
Ga 0.00000000 6.51793500 -1.0864383600000025 0 0 0
Ga 3.07258500 4.34529000 -3.2590499100000017 0 0 0
Ga 3.07258500 0.00000000 -3.2590499100000017 0 0 0
Ga 6.04844502 6.66437127 3.63984695
Ga 6.04844502 2.02620873 3.63984695
Ga 3.12420443 0.00000000 1.08511247
Ga 3.11664587 4.34529000 1.18720638
Pd 1.53629250 0.00000000 -1.0864383600000025 0 0 0
Pd 1.53629250 4.34529000 -1.0864383600000025 0 0 0
Pd 4.60887750 2.17264500 -3.2590499100000017 0 0 0
Pd 4.60887750 6.51793500 -3.2590499100000017 0 0 0
Pd 1.51730392 4.34529000 3.18055693
Pd 2.02692287 0.00000000 3.33727771
Pd 4.60433007 6.47865358 0.99733822
Pd 4.60433007 2.21192642 0.99733822
C 6.08494733 0.00000000 3.42664304
