&CONTROL
calculation = 'relax'
prefix = 'scf'
pseudo_dir = '/vol0403/data/hp230205/u10028/POT_HYBRID_KKJUS_GBRV'
outdir = './data'
tprnfor = .true.
nstep = 50
disk_io = 'non'
/
&SYSTEM
ibrav = 0
ecutwfc = 50.0
ecutrho = 400
occupations = 'smearing'
smearing = 'mp'
degauss = 0.01
assume_isolated = 'esm'
esm_bc = 'bc1'
input_dft = 'BEEF-VDW'
nosym = .true.
nspin = 1
ntyp = 6
nat = 34
/
&ELECTRONS
electron_maxstep = 200
mixing_beta = 0.1
conv_thr = 1e-06
/
&IONS
ion_dynamics = 'bfgs'
upscale = 1.0
/
&CELL
/

K_POINTS {automatic}
7 7 2 0  0  0

ATOMIC_SPECIES
C 12.01 C.pbe-n-rrkjus_psl.1.0.0.UPF
Cu 63.54 Cu.pbe-dn-rrkjus_psl.1.0.0.UPF
In 114.8 In.pbe-dn-rrkjus_psl.1.0.0.UPF
O 15.99 O.pbe-n-rrkjus_psl.1.0.0.UPF
Sn 118.7 Sn.pbe-dn-rrkjus_psl.1.0.0.UPF
Y 88.90 Y.pbe-spn-rrkjus_psl.1.0.0.UPF


CELL_PARAMETERS {angstrom}
8.84740000 0.00000000 0.00000000
0.00000000 9.14612000 0.00000000
0.00000000 0.00000000 26.62140000

ATOMIC_POSITIONS {angstrom}
Y 0.00000000 2.28653000 -1.1034570300000013 0 0 0
Y 0.00000000 2.28653000 3.33140200
Y 0.00000000 6.85959000 -1.1034570300000013 0 0 0
Y 0.00000000 6.85959000 3.33486278
Y 4.42370000 2.28653000 -1.1034570300000013 0 0 0
Y 4.42370000 2.28653000 3.31862372
Y 4.42370000 6.85959000 -1.1034570300000013 0 0 0
Y 4.42370000 6.85959000 3.31569537
In 2.21185000 0.00000000 -1.1034570300000013 0 0 0
In 2.21034594 0.00018292 3.39183257
In 2.21185000 4.57306000 -1.1034570300000013 0 0 0
In 2.21034594 4.57287708 3.39183257
In 6.63555000 0.00000000 -1.1034570300000013 0 0 0
In 6.63705406 0.00018292 3.39183257
In 6.63555000 4.57306000 -1.1034570300000013 0 0 0
In 6.63705406 4.57287708 3.39183257
Cu 0.00000000 0.00000000 -3.3106373 0 0 0
Cu 0.00000000 9.13176059 1.20967642
Cu 0.00000000 4.57306000 -3.3106373 0 0 0
Cu 0.00000000 4.58741941 1.20967642
Cu 4.42370000 0.00000000 -3.3106373 0 0 0
Cu 4.42370000 0.01234726 1.23363568
Cu 4.42370000 4.57306000 -3.3106373 0 0 0
Cu 4.42370000 4.56071274 1.23363568
Sn 2.21185000 2.28653000 -3.3106373 0 0 0
Sn 2.21494659 2.28653000 1.17480238
Sn 2.21185000 6.85959000 -3.3106373 0 0 0
Sn 2.20654156 6.85959000 1.17879559
Sn 6.63555000 2.28653000 -3.3106373 0 0 0
Sn 6.63245341 2.28653000 1.17480238
Sn 6.63555000 6.85959000 -3.3106373 0 0 0
Sn 6.64085844 6.85959000 1.17879559
C 0.00000000 2.28653000 5.82210018
O 0.00000000 2.28653000 6.97054738
