&CONTROL
calculation = 'relax'
prefix = 'scf'
pseudo_dir = '/vol0004/mdt0/data/hp150275/u10028/POT_KKJUS'
outdir = './data'
tprnfor = .true.
nstep = 50
disk_io = 'non'
/
&SYSTEM
ibrav = 0
ecutwfc = 50.0
ecutrho = 400
occupations = 'smearing'
smearing = 'mp'
degauss = 0.01
assume_isolated = 'esm'
esm_bc = 'bc1'
input_dft = 'BEEF-VDW'
nosym = .true.
nspin = 1
ntyp = 3
nat = 17
/
&ELECTRONS
electron_maxstep = 200
mixing_beta = 0.1
conv_thr = 1e-06
/
&IONS
ion_dynamics = 'bfgs'
upscale = 1.0
/
&CELL
/

K_POINTS {automatic}
6 8 1 0 0 0

ATOMIC_SPECIES
Ag 107.8 Ag.pbe-n-rrkjus_psl.1.0.0.UPF
C 12.01 C.pbe-n-rrkjus_psl.1.0.0.UPF
Pt 195.0 Pt.pbe-n-rrkjus_psl.1.0.0.UPF

CELL_PARAMETERS {angstrom}
8.08515000 0.00000000 0.00000000
0.00000000 5.71706000 0.00000000
0.00000000 0.00000000 24.28780000

ATOMIC_POSITIONS {angstrom}
Ag 0.00000000 0.00000000 -2.143884110000002 0 0 0
Ag 0.00000000 2.85853000 0.50882941
Ag 4.04257500 0.00000000 -2.143884110000002 0 0 0
Ag 4.04265585 2.85853000 1.12841119
Pt 0.00000000 2.85853000 -2.143884110000002 0 0 0
Pt 2.02128750 4.28779500 -0.7145470799999991 0 0 0
Pt 2.02128750 1.42926500 -0.7145470799999991 0 0 0
Pt 8.08506915 0.00000000 0.59383671
Pt 1.49914851 1.43789776 2.41687898
Pt 1.49914851 4.27916224 2.41687898
Pt 4.04257500 2.85853000 -2.143884110000002 0 0 0
Pt 6.06386250 4.28779500 -0.7145470799999991 0 0 0
Pt 6.06386250 1.42926500 -0.7145470799999991 0 0 0
Pt 4.04249415 0.00000000 0.84570120
Pt 6.58600149 1.43795493 2.41687898
Pt 6.58600149 4.27916224 2.41687898
C 0.00000000 2.85853000 2.71731906
