&CONTROL
calculation = 'relax'
prefix = 'scf'
pseudo_dir = '/vol0403/data/hp230205/u10028/POT_HYBRID_KKJUS_GBRV'
outdir = './data'
tprnfor = .true.
nstep = 50
disk_io = 'non'
/
&SYSTEM
ibrav = 0
ecutwfc = 50.0
ecutrho = 400
occupations = 'smearing'
smearing = 'mp'
degauss = 0.01
assume_isolated = 'esm'
esm_bc = 'bc1'
input_dft = 'BEEF-VDW'
nosym = .true.
nspin = 1
ntyp = 5
nat = 33
/
&ELECTRONS
electron_maxstep = 200
mixing_beta = 0.1
conv_thr = 1e-06
/
&IONS
ion_dynamics = 'bfgs'
upscale = 1.0
/
&CELL
/

K_POINTS {automatic}
7 7 2 0  0  0

ATOMIC_SPECIES
C 12.01 C.pbe-n-rrkjus_psl.1.0.0.UPF
In 114.8 In.pbe-dn-rrkjus_psl.1.0.0.UPF
Li 6.941 Li.pbe-sl-rrkjus_psl.1.0.0.UPF
Sn 118.7 Sn.pbe-dn-rrkjus_psl.1.0.0.UPF
Y 88.90 Y.pbe-spn-rrkjus_psl.1.0.0.UPF


CELL_PARAMETERS {angstrom}
8.86856000 0.00000000 0.00000000
0.00000000 9.04200000 0.00000000
0.00000000 0.00000000 27.02490000

ATOMIC_POSITIONS {angstrom}
Li 2.21714000 2.26050000 3.51242625
Li 2.21714000 2.26050000 -1.1707186699999994 0 0 0
Li 2.21714000 6.78150000 3.51242625
Li 2.21714000 6.78150000 -1.1707186699999994 0 0 0
Li 6.65142000 2.26050000 3.51242625
Li 6.65142000 2.26050000 -1.1707186699999994 0 0 0
Li 6.65142000 6.78150000 3.51242625
Li 6.65142000 6.78150000 -1.1707186699999994 0 0 0
Y 2.21714000 0.00000000 1.17071867
Y 2.21714000 0.00000000 -3.512426249999997 0 0 0
Y 2.21714000 4.52100000 1.17071867
Y 2.21714000 4.52100000 -3.512426249999997 0 0 0
Y 6.65142000 0.00000000 1.17071867
Y 6.65142000 0.00000000 -3.512426249999997 0 0 0
Y 6.65142000 4.52100000 1.17071867
Y 6.65142000 4.52100000 -3.512426249999997 0 0 0
In 0.00000000 0.00000000 3.51242625
In 0.00000000 0.00000000 -1.1707186699999994 0 0 0
In 0.00000000 4.52100000 3.51242625
In 0.00000000 4.52100000 -1.1707186699999994 0 0 0
In 4.43428000 0.00000000 3.51242625
In 4.43428000 0.00000000 -1.1707186699999994 0 0 0
In 4.43428000 4.52100000 3.51242625
In 4.43428000 4.52100000 -1.1707186699999994 0 0 0
Sn 0.00000000 2.26050000 1.17071867
Sn 0.00000000 2.26050000 -3.512426249999997 0 0 0
Sn 0.00000000 6.78150000 1.17071867
Sn 0.00000000 6.78150000 -3.512426249999997 0 0 0
Sn 4.43428000 2.26050000 1.17071867
Sn 4.43428000 2.26050000 -3.512426249999997 0 0 0
Sn 4.43428000 6.78150000 1.17071867
Sn 4.43428000 6.78150000 -3.512426249999997 0 0 0
C 0.00000000 2.26050000 4.31236329
