&CONTROL
calculation = 'relax'
prefix = 'scf'
pseudo_dir = '/vol0403/data/hp230205/u10028/POT_HYBRID_KKJUS_GBRV'
outdir = './data'
tprnfor = .true.
nstep = 50
disk_io = 'non'
/
&SYSTEM
ibrav = 0
ecutwfc = 50.0
ecutrho = 400
occupations = 'smearing'
smearing = 'mp'
degauss = 0.01
assume_isolated = 'esm'
esm_bc = 'bc1'
input_dft = 'BEEF-VDW'
nosym = .true.
nspin = 1
ntyp = 5
nat = 33
/
&ELECTRONS
electron_maxstep = 200
mixing_beta = 0.1
conv_thr = 1e-06
/
&IONS
ion_dynamics = 'bfgs'
upscale = 1.0
/
&CELL
/

K_POINTS {automatic}
6 6 1 0 0 0

ATOMIC_SPECIES
Al 26.98 Al.pbe-nl-rrkjus_psl.1.0.0.UPF
C 12.01 C.pbe-n-rrkjus_psl.1.0.0.UPF
Cu 63.54 Cu.pbe-dn-rrkjus_psl.1.0.0.UPF
Ge 72.64 Ge.pbe-dn-rrkjus_psl.1.0.0.UPF
Li 6.941 Li.pbe-sl-rrkjus_psl.1.0.0.UPF


CELL_PARAMETERS {angstrom}
7.78580000 0.00000000 0.00000000
0.00000000 7.61632000 0.00000000
0.00000000 0.00000000 25.83060000

ATOMIC_POSITIONS {angstrom}
Li 1.94645000 0.00000000 0.97174717
Li 1.94645000 0.00000000 -2.915241520000002 0 0 0
Li 1.94645000 3.80816000 0.97174717
Li 1.94645000 3.80816000 -2.915241520000002 0 0 0
Li 5.83935000 0.00000000 0.97174717
Li 5.83935000 0.00000000 -2.915241520000002 0 0 0
Li 5.83935000 3.80816000 0.97174717
Li 5.83935000 3.80816000 -2.915241520000002 0 0 0
Al 0.00000000 0.00000000 2.91524152
Al 0.00000000 0.00000000 -0.9717471700000004 0 0 0
Al 0.00000000 3.80816000 2.91524152
Al 0.00000000 3.80816000 -0.9717471700000004 0 0 0
Al 3.89290000 0.00000000 2.91524152
Al 3.89290000 0.00000000 -0.9717471700000004 0 0 0
Al 3.89290000 3.80816000 2.91524152
Al 3.89290000 3.80816000 -0.9717471700000004 0 0 0
Cu 1.94645000 1.90408000 2.91524152
Cu 1.94645000 1.90408000 -0.9717471700000004 0 0 0
Cu 1.94645000 5.71224000 2.91524152
Cu 1.94645000 5.71224000 -0.9717471700000004 0 0 0
Cu 5.83935000 1.90408000 2.91524152
Cu 5.83935000 1.90408000 -0.9717471700000004 0 0 0
Cu 5.83935000 5.71224000 2.91524152
Cu 5.83935000 5.71224000 -0.9717471700000004 0 0 0
Ge 0.00000000 1.90408000 0.97174717
Ge 0.00000000 1.90408000 -2.915241520000002 0 0 0
Ge 0.00000000 5.71224000 0.97174717
Ge 0.00000000 5.71224000 -2.915241520000002 0 0 0
Ge 3.89290000 1.90408000 0.97174717
Ge 3.89290000 1.90408000 -2.915241520000002 0 0 0
Ge 3.89290000 5.71224000 0.97174717
Ge 3.89290000 5.71224000 -2.915241520000002 0 0 0
C 0.00000000 1.90408000 3.71521520
