&CONTROL
calculation = 'relax'
prefix = 'scf'
pseudo_dir = '/vol0403/data/hp230205/u10028/POT_HYBRID_KKJUS_GBRV'
outdir = './data'
tprnfor = .true.
nstep = 50
disk_io = 'non'
/
&SYSTEM
ibrav = 0
ecutwfc = 50.0
ecutrho = 400
occupations = 'smearing'
smearing = 'mp'
degauss = 0.01
assume_isolated = 'esm'
esm_bc = 'bc1'
input_dft = 'BEEF-VDW'
nosym = .true.
nspin = 1
ntyp = 5
nat = 17
/
&ELECTRONS
electron_maxstep = 200
mixing_beta = 0.1
conv_thr = 1e-06
/
&IONS
ion_dynamics = 'bfgs'
upscale = 1.0
/
&CELL
/

K_POINTS {automatic}
8 8 1 0 0 0

ATOMIC_SPECIES
C 12.01 C.pbe-n-rrkjus_psl.1.0.0.UPF
Ge 72.64 Ge.pbe-dn-rrkjus_psl.1.0.0.UPF
Li 6.941 Li.pbe-sl-rrkjus_psl.1.0.0.UPF
Pd 106.4 Pd.pbe-n-rrkjus_psl.1.0.0.UPF
Zr 91.22 Zr.pbe-spn-rrkjus_psl.1.0.0.UPF


CELL_PARAMETERS {angstrom}
6.47880000 0.00000000 0.00000000
0.00000000 6.47880000 0.00000000
0.00000000 0.00000000 24.85910000

ATOMIC_POSITIONS {angstrom}
Li 1.61970000 1.61970000 -0.8099094800000017 0 0 0
Li 1.54623041 4.78556562 2.45359317
Li 4.93263438 1.69329917 2.45359317
Li 4.85910000 4.85910000 -0.8099094800000017 0 0 0
Zr 4.85910000 1.61970000 -0.8099094800000017 0 0 0
Zr 4.99087879 4.72751557 2.43146857
Zr 1.48805078 1.75147879 2.43146857
Zr 1.61970000 4.85910000 -0.8099094800000017 0 0 0
Ge 0.00000000 0.00000000 -2.4294798400000026 0 0 0
Ge 6.47867042 3.23927042 0.70202098
Ge 3.23901127 6.47860564 1.02668083
Ge 3.23940000 3.23940000 -2.4294798400000026 0 0 0
Pd 0.00000000 3.23940000 -2.4294798400000026 0 0 0
Pd 0.00006479 0.00006479 0.87330018
Pd 3.23946479 3.23946479 0.87330018
Pd 3.23940000 0.00000000 -2.4294798400000026 0 0 0
C 0.00006479 3.23940000 2.82101067
