&CONTROL
calculation = 'relax'
prefix = 'scf'
pseudo_dir = '/vol0004/mdt0/data/hp150275/u10028/POT_HYBRID_KKJUS_GBRV'
outdir = './data'
tprnfor = .true.
nstep = 50
disk_io = 'non'
/
&SYSTEM
ibrav = 0
ecutwfc = 50.0
ecutrho = 400
occupations = 'smearing'
smearing = 'mp'
degauss = 0.01
assume_isolated = 'esm'
esm_bc = 'bc1'
input_dft = 'BEEF-VDW'
nosym = .true.
nspin = 2
ntyp = 3
nat = 33
starting_magnetization(1) = 0.1
starting_magnetization(2) = 0.1
starting_magnetization(3) = 0.1
/
&ELECTRONS
electron_maxstep = 200
mixing_beta = 0.1
conv_thr = 1e-06
/
&IONS
ion_dynamics = 'bfgs'
upscale = 1.0
/
&CELL
/

K_POINTS {automatic}
9 6 2 0  0  0

ATOMIC_SPECIES
Al 26.98 Al.pbe-nl-rrkjus_psl.1.0.0.UPF
C 12.01 C.pbe-n-rrkjus_psl.1.0.0.UPF
Fe 55.84 fe_pbe_v1.5.uspp.F.UPF

CELL_PARAMETERS {angstrom}
5.75078000 0.00000000 0.00000000
0.00000000 8.13283000 0.00000000
0.00000000 0.00000000 26.09960000

ATOMIC_POSITIONS {angstrom}
Al 0.00000000 0.00000000 -3.049738259999998 0 0 0
Al 0.00000000 2.03320750 -1.0165794199999993 0 0 0
Al 0.00810860 4.06072202 0.99883169
Al 5.58538757 2.03320750 2.98187930
Al 0.00000000 4.06641500 -3.049738259999998 0 0 0
Al 0.00000000 6.09962250 -1.0165794199999993 0 0 0
Al 0.00810860 0.00569298 0.99883169
Al 0.00799358 6.09962250 3.05939511
Al 2.87539000 0.00000000 -3.049738259999998 0 0 0
Al 2.87539000 2.03320750 -1.0165794199999993 0 0 0
Al 2.86728140 4.06072202 0.99883169
Al 3.04078243 2.03320750 2.98187930
Al 2.87539000 4.06641500 -3.049738259999998 0 0 0
Al 2.87539000 6.09962250 -1.0165794199999993 0 0 0
Al 2.86728140 0.00569298 0.99883169
Al 2.86739642 6.09962250 3.05939511
Fe 1.43769500 2.03320750 -3.049738259999998 0 0 0
Fe 1.43769500 0.00000000 -1.0165794199999993 0 0 0
Fe 1.43769500 2.03320750 1.01605743
Fe 1.43769500 0.05741778 3.09175862
Fe 1.43769500 6.09962250 -3.049738259999998 0 0 0
Fe 1.43769500 4.06641500 -1.0165794199999993 0 0 0
Fe 1.43769500 6.09970383 1.03171719
Fe 1.43769500 4.00899722 3.09175862
Fe 4.31308500 2.03320750 -3.049738259999998 0 0 0
Fe 4.31308500 0.00000000 -1.0165794199999993 0 0 0
Fe 4.31308500 2.03312617 1.01240348
Fe 4.31308500 8.09875344 3.04216938
Fe 4.31308500 6.09962250 -3.049738259999998 0 0 0
Fe 4.31308500 4.06641500 -1.0165794199999993 0 0 0
Fe 4.31308500 6.09970383 1.02545328
Fe 4.31308500 4.10049156 3.04216938
C 1.43769500 2.03320750 3.96452924
