&CONTROL
calculation = 'relax'
prefix = 'scf'
pseudo_dir = '/vol0004/mdt0/data/hp150275/u10028/POT_KKJUS'
outdir = './data'
tprnfor = .true.
nstep = 50
disk_io = 'non'
/
&SYSTEM
ibrav = 0
ecutwfc = 50.0
ecutrho = 400
occupations = 'smearing'
smearing = 'mp'
degauss = 0.01
assume_isolated = 'esm'
esm_bc = 'bc1'
input_dft = 'BEEF-VDW'
nosym = .true.
nspin = 1
ntyp = 4
nat = 17
/
&ELECTRONS
electron_maxstep = 200
mixing_beta = 0.1
conv_thr = 1e-06
/
&IONS
ion_dynamics = 'bfgs'
upscale = 1.0
/
&CELL
/

K_POINTS {automatic}
8 8 1 0 0 0

ATOMIC_SPECIES
C 12.01 C.pbe-n-rrkjus_psl.1.0.0.UPF
Mg 24.30 Mg.pbe-spnl-rrkjus_psl.1.0.0.UPF
Ni 58.69 Ni.pbe-spn-rrkjus_psl.1.0.0.UPF
Sn 118.7 Sn.pbe-dn-rrkjus_psl.1.0.0.UPF

CELL_PARAMETERS {angstrom}
6.22749000 0.00000000 0.00000000
0.00000000 6.22749000 0.00000000
0.00000000 0.00000000 24.67060000

ATOMIC_POSITIONS {angstrom}
Mg 0.00000000 0.00000000 -2.335319000000002 0 0 0
Mg 3.11374500 3.11374500 -2.335319000000002 0 0 0
Mg 3.11411865 6.22742773 0.91133196
Mg 0.00174370 3.11355818 0.91083855
Ni 1.55687250 1.55687250 -0.7783574299999998 0 0 0
Ni 4.92930743 4.93117568 2.43400140
Ni 4.67061750 1.55687250 -0.7783574299999998 0 0 0
Ni 1.29868076 4.92787511 2.43424810
Ni 4.67061750 4.67061750 -0.7783574299999998 0 0 0
Ni 1.29693707 1.29693707 2.43252116
Ni 1.55687250 4.67061750 -0.7783574299999998 0 0 0
Ni 4.92706554 1.29967716 2.42857386
Sn 0.00199280 0.00224190 0.51783589
Sn 3.11374500 0.00000000 -2.335319000000002 0 0 0
Sn 0.00000000 3.11374500 -2.335319000000002 0 0 0
Sn 3.11685875 3.10926121 1.23821741
C 6.22244573 0.00130777 2.91088409
