&CONTROL
calculation = 'relax'
prefix = 'scf'
pseudo_dir = '/vol0403/data/hp230205/u10028/POT_HYBRID_KKJUS_GBRV'
outdir = './data'
tprnfor = .true.
nstep = 70
disk_io = 'non'
/
&SYSTEM
ibrav = 0
ecutwfc = 50.0
ecutrho = 400
occupations = 'smearing'
smearing = 'mp'
degauss = 0.01
assume_isolated = 'esm'
esm_bc = 'bc1'
input_dft = 'BEEF-VDW'
nosym = .true.
nspin = 1
ntyp = 6
nat = 34
/
&ELECTRONS
electron_maxstep = 200
mixing_beta = 0.1
conv_thr = 1e-06
/
&IONS
ion_dynamics = 'bfgs'
upscale = 1.0
/
&CELL
/

K_POINTS {automatic}
6 6 1 0 0 0

ATOMIC_SPECIES
C 12.01 C.pbe-n-rrkjus_psl.1.0.0.UPF
In 114.8 In.pbe-dn-rrkjus_psl.1.0.0.UPF
Li 6.941 Li.pbe-sl-rrkjus_psl.1.0.0.UPF
Mg 24.30 Mg.pbe-spnl-rrkjus_psl.1.0.0.UPF
O 15.99 O.pbe-n-rrkjus_psl.1.0.0.UPF
Sn 118.7 Sn.pbe-dn-rrkjus_psl.1.0.0.UPF


CELL_PARAMETERS {angstrom}
7.01918000 0.00000000 0.00000000
-0.00000000 9.92662000 0.00000000
0.00000000 0.00000000 27.44500000

ATOMIC_POSITIONS {angstrom}
Li 5.26438500 0.00000000 -1.2407884500000002 0 0 0
Li 5.26438500 4.96331000 -1.2407884500000002 0 0 0
Li 1.75479500 2.48165500 -3.7223653500000005 0 0 0
Li 1.75479500 7.44496500 -3.7223653500000005 0 0 0
Li 5.28979443 4.96331000 3.89334770
Li 5.26684171 -0.00000000 3.98144615
Li 1.76244591 7.45429602 1.30144190
Li 1.76237571 2.47232398 1.30144190
Mg 1.75479500 0.00000000 -1.2407884500000002 0 0 0
Mg 1.75479500 4.96331000 -1.2407884500000002 0 0 0
Mg 5.26438500 2.48165500 -3.7223653500000005 0 0 0
Mg 5.26438500 7.44496500 -3.7223653500000005 0 0 0
Mg 1.66193125 4.96331000 4.05033310
Mg 1.67954939 -0.00000000 3.98062280
Mg 5.23160543 7.43682517 1.35550855
Mg 5.23195639 2.48989409 1.35523410
In 0.00000000 0.00000000 -3.7223653500000005 0 0 0
In 0.00000000 4.96331000 -3.7223653500000005 0 0 0
In 3.50959000 7.44496500 -1.2407884500000002 0 0 0
In 3.50959000 2.48165500 -1.2407884500000002 0 0 0
In 0.03706127 4.96350853 1.37719010
In 0.01214318 9.92652073 1.37636675
In 3.50966019 2.51848276 4.09122615
In 3.50951981 7.40803797 4.09150060
Sn 0.00000000 2.48165500 -1.2407884500000002 0 0 0
Sn 0.00000000 7.44496500 -1.2407884500000002 0 0 0
Sn 3.50959000 4.96331000 -3.7223653500000005 0 0 0
Sn 3.50959000 0.00000000 -3.7223653500000005 0 0 0
Sn 6.97502936 7.43126626 3.89252435
Sn 6.97488897 2.49535374 3.89252435
Sn 3.46761530 0.00009927 1.42384660
Sn 3.45603366 4.96321073 1.41945540
C 5.25589179 -0.00000000 6.07989085
O 5.28052911 -0.00000000 7.22324955
