&CONTROL
calculation = 'relax'
prefix = 'scf'
pseudo_dir = '/vol0004/mdt0/data/hp150275/u10028/POT_KKJUS'
outdir = './data'
tprnfor = .true.
nstep = 50
disk_io = 'non'
/
&SYSTEM
ibrav = 0
ecutwfc = 50.0
ecutrho = 400
occupations = 'smearing'
smearing = 'mp'
degauss = 0.01
assume_isolated = 'esm'
esm_bc = 'bc1'
input_dft = 'BEEF-VDW'
nosym = .true.
nspin = 1
ntyp = 4
nat = 18
/
&ELECTRONS
electron_maxstep = 200
mixing_beta = 0.1
conv_thr = 1e-06
/
&IONS
ion_dynamics = 'bfgs'
upscale = 1.0
/
&CELL
/

K_POINTS {automatic}
9 9 2 0  0  0

ATOMIC_SPECIES
C 12.01 C.pbe-n-rrkjus_psl.1.0.0.UPF
Ca 40.07 Ca.pbe-spn-rrkjus_psl.1.0.0.UPF
In 114.8 In.pbe-dn-rrkjus_psl.1.0.0.UPF
O 15.99 O.pbe-n-rrkjus_psl.1.0.0.UPF

CELL_PARAMETERS {angstrom}
8.11767000 0.00000000 0.00000000
0.00000000 8.11767000 0.00000000
0.00000000 0.00000000 26.08830000

ATOMIC_POSITIONS {angstrom}
Ca 2.02941750 2.02941750 -1.0148348700000014 0 0 0
Ca 6.08833368 6.08817132 3.31269233
Ca 6.08825250 2.02941750 -1.0148348700000014 0 0 0
Ca 2.02957985 6.08825250 3.20364324
Ca 6.08825250 6.08825250 -1.0148348700000014 0 0 0
Ca 2.02925515 2.02966103 2.91797635
Ca 2.02941750 6.08825250 -1.0148348700000014 0 0 0
Ca 6.08809015 2.02957985 3.20390412
Ca 8.00978617 8.00986734 1.02187871
Ca 4.05883500 0.00000000 -3.0442437300000016 0 0 0
Ca 0.00000000 4.05883500 -3.0442437300000016 0 0 0
Ca 4.16680001 4.16647530 1.02161783
In 0.00000000 0.00000000 -3.0442437300000016 0 0 0
In 4.05883500 4.05883500 -3.0442437300000016 0 0 0
In 4.11866223 8.05776160 1.08788211
In 8.05776160 4.11874340 1.08814299
C 2.02941750 2.02949868 5.45741148
O 2.02949868 2.02933632 6.60347050
