&CONTROL
calculation = 'relax'
prefix = 'scf'
pseudo_dir = '/vol0004/mdt0/data/hp150275/u10028/POT_KKJUS'
outdir = './data'
tprnfor = .true.
nstep = 50
disk_io = 'non'
/
&SYSTEM
ibrav = 0
ecutwfc = 50.0
ecutrho = 400
occupations = 'smearing'
smearing = 'mp'
degauss = 0.01
assume_isolated = 'esm'
esm_bc = 'bc1'
input_dft = 'BEEF-VDW'
nosym = .true.
nspin = 1
ntyp = 4
nat = 34
/
&ELECTRONS
electron_maxstep = 200
mixing_beta = 0.1
conv_thr = 1e-06
/
&IONS
ion_dynamics = 'bfgs'
upscale = 1.0
/
&CELL
/

K_POINTS {automatic}
8 6 1 0 0 0

ATOMIC_SPECIES
C 12.01 C.pbe-n-rrkjus_psl.1.0.0.UPF
Nb 92.90 Nb.pbe-spn-rrkjus_psl.1.0.0.UPF
O 15.99 O.pbe-n-rrkjus_psl.1.0.0.UPF
Ru 101.0 Ru.pbe-spn-rrkjus_psl.1.0.0.UPF

CELL_PARAMETERS {angstrom}
6.35921000 0.00000000 0.00000000
0.00000000 8.99329000 0.00000000
0.00000000 0.00000000 26.74500000

ATOMIC_POSITIONS {angstrom}
Nb 0.00000000 0.00000000 -3.3725445 0 0 0
Nb 0.00000000 2.24832250 -1.1240923500000015 0 0 0
Nb 6.32410716 0.00000000 1.13505780
Nb 6.32537900 2.28744331 3.45251205
Nb 0.00000000 4.49664500 -3.3725445 0 0 0
Nb 0.00000000 6.74496750 -1.1240923500000015 0 0 0
Nb 0.02448296 4.49664500 1.14602325
Nb 6.32544259 6.70584669 3.45251205
Nb 3.17960500 0.00000000 -3.3725445 0 0 0
Nb 3.17960500 2.24832250 -1.1240923500000015 0 0 0
Nb 3.21470784 0.00000000 1.13505780
Nb 3.21343600 2.28744331 3.45251205
Nb 3.17960500 4.49664500 -3.3725445 0 0 0
Nb 3.17960500 6.74496750 -1.1240923500000015 0 0 0
Nb 3.15512204 4.49664500 1.14602325
Nb 3.21337241 6.70584669 3.45251205
Ru 1.58980250 2.24832250 -3.3725445 0 0 0
Ru 1.58980250 0.00000000 -1.1240923500000015 0 0 0
Ru 1.58980250 2.13266879 1.26156165
Ru 1.58980250 0.00000000 3.40758045
Ru 1.58980250 6.74496750 -3.3725445 0 0 0
Ru 1.58980250 4.49664500 -1.1240923500000015 0 0 0
Ru 1.58980250 6.86062121 1.26156165
Ru 1.58980250 4.49664500 3.20378355
Ru 4.76940750 2.24832250 -3.3725445 0 0 0
Ru 4.76940750 0.00000000 -1.1240923500000015 0 0 0
Ru 4.76940750 2.32008895 1.25113110
Ru 4.76940750 8.99320007 3.20164395
Ru 4.76940750 6.74496750 -3.3725445 0 0 0
Ru 4.76940750 4.49664500 -1.1240923500000015 0 0 0
Ru 4.76940750 6.67320105 1.25086365
Ru 4.76940750 4.49673493 3.25834335
C 1.58980250 0.00000000 5.29123080
O 1.58980250 0.00000000 6.45918495
