&CONTROL
calculation = 'relax'
prefix = 'scf'
pseudo_dir = '/vol0004/mdt0/data/hp150275/u10028/POT_KKJUS'
outdir = './data'
tprnfor = .true.
nstep = 50
disk_io = 'non'
/
&SYSTEM
ibrav = 0
ecutwfc = 50.0
ecutrho = 400
occupations = 'smearing'
smearing = 'mp'
degauss = 0.01
assume_isolated = 'esm'
esm_bc = 'bc1'
input_dft = 'BEEF-VDW'
nosym = .true.
nspin = 1
ntyp = 4
nat = 17
/
&ELECTRONS
electron_maxstep = 200
mixing_beta = 0.1
conv_thr = 1e-06
/
&IONS
ion_dynamics = 'bfgs'
upscale = 1.0
/
&CELL
/

K_POINTS {automatic}
10 10 2 0  0  0

ATOMIC_SPECIES
Al 26.98 Al.pbe-nl-rrkjus_psl.1.0.0.UPF
C 12.01 C.pbe-n-rrkjus_psl.1.0.0.UPF
Li 6.941 Li.pbe-sl-rrkjus_psl.1.0.0.UPF
Pt 195.0 Pt.pbe-n-rrkjus_psl.1.0.0.UPF

CELL_PARAMETERS {angstrom}
6.07419000 0.00000000 0.00000000
0.00000000 6.07419000 0.00000000
0.00000000 0.00000000 24.55560000

ATOMIC_POSITIONS {angstrom}
Li 0.00000000 0.00000000 -0.7592591499999983 0 0 0
Li 3.01121895 0.01955889 2.57661911
Li 0.01949815 3.01115821 2.57661911
Li 3.03709500 3.03709500 -0.7592591499999983 0 0 0
Li 1.51715044 1.51715044 0.56232324
Li 1.51854750 4.55564250 -2.2777774599999994 0 0 0
Li 4.55934776 4.55934776 0.89603384
Li 4.55564250 1.51854750 -2.2777774599999994 0 0 0
Al 0.19680376 0.19674301 2.25543186
Al 2.83792231 2.83798305 2.25592297
Al 3.03709500 0.00000000 -0.7592591499999983 0 0 0
Al 0.00000000 3.03709500 -0.7592591499999983 0 0 0
Pt 1.51854750 1.51854750 -2.2777774599999994 0 0 0
Pt 1.51866898 4.55546027 0.71628685
Pt 4.55564250 4.55564250 -2.2777774599999994 0 0 0
Pt 4.55546027 1.51866898 0.71653241
C 1.51702895 1.51702895 2.65691592
