&CONTROL
calculation = 'relax'
prefix = 'scf'
pseudo_dir = '/vol0004/mdt0/data/hp150275/u10028/POT_KKJUS'
outdir = './data'
tprnfor = .true.
nstep = 50
disk_io = 'non'
/
&SYSTEM
ibrav = 0
ecutwfc = 50.0
ecutrho = 400
occupations = 'smearing'
smearing = 'mp'
degauss = 0.01
assume_isolated = 'esm'
esm_bc = 'bc1'
input_dft = 'BEEF-VDW'
nosym = .true.
nspin = 1
ntyp = 5
nat = 34
/
&ELECTRONS
electron_maxstep = 200
mixing_beta = 0.1
conv_thr = 1e-06
/
&IONS
ion_dynamics = 'bfgs'
upscale = 1.0
/
&CELL
/

K_POINTS {automatic}
9 6 2 0  0  0

ATOMIC_SPECIES
Ag 107.8 Ag.pbe-n-rrkjus_psl.1.0.0.UPF
Al 26.98 Al.pbe-nl-rrkjus_psl.1.0.0.UPF
C 12.01 C.pbe-n-rrkjus_psl.1.0.0.UPF
Li 6.941 Li.pbe-sl-rrkjus_psl.1.0.0.UPF
O 15.99 O.pbe-n-rrkjus_psl.1.0.0.UPF

CELL_PARAMETERS {angstrom}
6.40528000 0.00000000 0.00000000
0.00000000 9.05843000 0.00000000
0.00000000 0.00000000 26.79380000

ATOMIC_POSITIONS {angstrom}
Li 0.00000000 0.00000000 -3.3969179599999997 0 0 0
Li 3.20264000 2.26460750 -1.1323059900000025 0 0 0
Li 3.20264000 6.79382250 -1.1323059900000025 0 0 0
Li 0.00000000 4.52921500 -3.3969179599999997 0 0 0
Li 0.00000000 4.51435917 1.04281470
Li 3.20244784 6.79391308 3.45773989
Li 3.20270405 2.26460750 3.49096420
Li 0.00000000 0.01467466 1.04281470
Al 0.00000000 6.79382250 -1.1323059900000025 0 0 0
Al 3.20264000 0.00000000 -3.3969179599999997 0 0 0
Al 0.00000000 2.26460750 -1.1323059900000025 0 0 0
Al 3.20264000 4.52921500 -3.3969179599999997 0 0 0
Al 0.00000000 2.26460750 3.33689985
Al 3.20264000 4.57034027 1.12694723
Al 0.00000000 6.79382250 3.44675443
Al 3.20264000 9.01721414 1.12694723
Ag 1.60132000 0.00000000 -1.1323059900000025 0 0 0
Ag 4.80396000 4.52921500 -1.1323059900000025 0 0 0
Ag 4.80396000 0.00000000 -1.1323059900000025 0 0 0
Ag 1.60132000 4.52921500 -1.1323059900000025 0 0 0
Ag 4.80396000 6.79382250 -3.3969179599999997 0 0 0
Ag 1.60132000 2.26460750 -3.3969179599999997 0 0 0
Ag 1.60132000 6.79382250 -3.3969179599999997 0 0 0
Ag 4.80396000 2.26460750 -3.3969179599999997 0 0 0
Ag 1.52599391 4.56870975 3.28304431
Ag 4.87928609 9.01893525 3.28304431
Ag 4.87922204 4.56880034 3.28304431
Ag 1.52605796 9.01893525 3.28304431
Ag 4.75713740 2.26460750 1.14007619
Ag 1.57986231 6.79382250 1.10953126
Ag 1.64814260 2.26460750 1.14007619
Ag 4.82541769 6.79382250 1.10953126
C 0.00000000 2.26460750 5.31240673
O 0.00000000 2.26460750 6.46963095
