&CONTROL
calculation = 'relax'
prefix = 'scf'
pseudo_dir = '/vol0403/data/hp230205/u10028/POT_HYBRID_KKJUS_GBRV'
outdir = './data'
tprnfor = .true.
nstep = 50
disk_io = 'non'
/
&SYSTEM
ibrav = 0
ecutwfc = 50.0
ecutrho = 400
occupations = 'smearing'
smearing = 'mp'
degauss = 0.01
assume_isolated = 'esm'
esm_bc = 'bc1'
input_dft = 'BEEF-VDW'
nosym = .true.
nspin = 1
ntyp = 6
nat = 34
/
&ELECTRONS
electron_maxstep = 200
mixing_beta = 0.1
conv_thr = 1e-06
/
&IONS
ion_dynamics = 'bfgs'
upscale = 1.0
/
&CELL
/

K_POINTS {automatic}
6 6 1 0 0 0

ATOMIC_SPECIES
C 12.01 C.pbe-n-rrkjus_psl.1.0.0.UPF
Li 6.941 Li.pbe-sl-rrkjus_psl.1.0.0.UPF
O 15.99 O.pbe-n-rrkjus_psl.1.0.0.UPF
Pb 207.2 Pb.pbe-dn-rrkjus_psl.1.0.0.UPF
Sn 118.7 Sn.pbe-dn-rrkjus_psl.1.0.0.UPF
Y 88.90 Y.pbe-spn-rrkjus_psl.1.0.0.UPF


CELL_PARAMETERS {angstrom}
9.64462000 0.00000000 0.00000000
0.00000000 8.87168000 0.00000000
0.00000000 0.00000000 27.02620000

ATOMIC_POSITIONS {angstrom}
Li 0.00000000 8.87159128 3.61070032
Li 0.00000000 0.00000000 -1.1710452499999988 0 0 0
Li 9.64452355 4.43575128 3.61151111
Li 0.00000000 4.43584000 -1.1710452499999988 0 0 0
Li 4.82221355 0.00000000 3.66799586
Li 4.82231000 0.00000000 -1.1710452499999988 0 0 0
Li 4.82231000 4.43601743 3.66259062
Li 4.82231000 4.43584000 -1.1710452499999988 0 0 0
Y 2.41308392 0.00000000 1.15537005
Y 2.41115500 0.00000000 -3.513135739999999 0 0 0
Y 2.41115500 4.43584000 1.14942429
Y 2.41115500 4.43584000 -3.513135739999999 0 0 0
Y 7.23153608 0.00000000 1.15537005
Y 7.23346500 0.00000000 -3.513135739999999 0 0 0
Y 7.23346500 4.43584000 1.14942429
Y 7.23346500 4.43584000 -3.513135739999999 0 0 0
Sn 2.48271808 2.22333172 3.56826919
Sn 2.41115500 2.21792000 -1.1710452499999988 0 0 0
Sn 2.48262163 6.64834828 3.56826919
Sn 2.41115500 6.65376000 -1.1710452499999988 0 0 0
Sn 7.16190192 2.22342044 3.56826919
Sn 7.23346500 2.21792000 -1.1710452499999988 0 0 0
Sn 7.16199837 6.64834828 3.56826919
Sn 7.23346500 6.65376000 -1.1710452499999988 0 0 0
Pb 0.00000000 2.21241956 1.38995747
Pb 0.00000000 2.21792000 -3.513135739999999 0 0 0
Pb 0.00000000 6.65926044 1.38995747
Pb 0.00000000 6.65376000 -3.513135739999999 0 0 0
Pb 4.82231000 2.21880717 1.31266253
Pb 4.82231000 2.21792000 -3.513135739999999 0 0 0
Pb 4.82231000 6.65287283 1.31266253
Pb 4.82231000 6.65376000 -3.513135739999999 0 0 0
C 0.00000000 8.87159128 5.69955532
O 9.64452355 8.87159128 6.84006096
