&CONTROL
calculation = 'relax'
prefix = 'scf'
pseudo_dir = '/vol0403/data/hp230205/u10028/POT_HYBRID_KKJUS_GBRV'
outdir = './data'
tprnfor = .true.
nstep = 50
disk_io = 'non'
/
&SYSTEM
ibrav = 0
ecutwfc = 50.0
ecutrho = 400
occupations = 'smearing'
smearing = 'mp'
degauss = 0.01
assume_isolated = 'esm'
esm_bc = 'bc1'
input_dft = 'BEEF-VDW'
nosym = .true.
nspin = 1
ntyp = 5
nat = 17
/
&ELECTRONS
electron_maxstep = 200
mixing_beta = 0.1
conv_thr = 1e-06
/
&IONS
ion_dynamics = 'bfgs'
upscale = 1.0
/
&CELL
/

K_POINTS {automatic}
6 6 1 0 0 0

ATOMIC_SPECIES
C 12.01 C.pbe-n-rrkjus_psl.1.0.0.UPF
Ge 72.64 Ge.pbe-dn-rrkjus_psl.1.0.0.UPF
In 114.8 In.pbe-dn-rrkjus_psl.1.0.0.UPF
Li 6.941 Li.pbe-sl-rrkjus_psl.1.0.0.UPF
Mg 24.30 Mg.pbe-spnl-rrkjus_psl.1.0.0.UPF


CELL_PARAMETERS {angstrom}
8.41850000 0.00000000 0.00000000
0.00000000 6.06838000 0.00000000
0.00000000 0.00000000 24.54770000

ATOMIC_POSITIONS {angstrom}
Li 0.00000000 3.03419000 -2.2738534500000007 0 0 0
Li 0.00000000 5.88365851 0.64216783
Li 4.20925000 3.03419000 -2.2738534500000007 0 0 0
Li 4.20925000 5.94743719 0.90384631
Mg 2.10462500 1.45689667 -0.7580329799999994 0 0 0
Mg 1.82774053 4.35102846 2.51638473
Mg 6.31387500 1.45689667 -0.7580329799999994 0 0 0
Mg 6.59067528 4.35102846 2.51638473
In 2.10462500 4.49108667 -0.7580329799999994 0 0 0
In 1.88203986 1.34894019 2.90816602
In 6.31387500 4.49108667 -0.7580329799999994 0 0 0
In 6.53654432 1.34894019 2.90816602
Ge 0.00000000 0.00000000 -2.2738534500000007 0 0 0
Ge 0.00000000 2.49592469 0.75336891
Ge 4.20925000 0.00000000 -2.2738534500000007 0 0 0
Ge 4.20925000 2.87058648 1.56442492
C 0.00000000 3.14384563 2.59272807
