&CONTROL
calculation = 'relax'
prefix = 'scf'
pseudo_dir = '/vol0004/mdt0/data/hp150275/u10028/POT_KKJUS'
outdir = './data'
tprnfor = .true.
nstep = 50
disk_io = 'non'
/
&SYSTEM
ibrav = 0
ecutwfc = 50.0
ecutrho = 400
occupations = 'smearing'
smearing = 'mp'
degauss = 0.01
assume_isolated = 'esm'
esm_bc = 'bc1'
input_dft = 'BEEF-VDW'
nosym = .true.
nspin = 1
ntyp = 5
nat = 18
/
&ELECTRONS
electron_maxstep = 200
mixing_beta = 0.1
conv_thr = 1e-06
/
&IONS
ion_dynamics = 'bfgs'
upscale = 1.0
/
&CELL
/

K_POINTS {automatic}
10 10 2 0  0  0

ATOMIC_SPECIES
Al 26.98 Al.pbe-nl-rrkjus_psl.1.0.0.UPF
C 12.01 C.pbe-n-rrkjus_psl.1.0.0.UPF
Li 6.941 Li.pbe-sl-rrkjus_psl.1.0.0.UPF
O 15.99 O.pbe-n-rrkjus_psl.1.0.0.UPF
Pt 195.0 Pt.pbe-n-rrkjus_psl.1.0.0.UPF

CELL_PARAMETERS {angstrom}
6.07419000 0.00000000 0.00000000
0.00000000 6.07419000 0.00000000
0.00000000 0.00000000 24.55560000

ATOMIC_POSITIONS {angstrom}
Li 0.01245209 0.01056909 0.79830256
Li 3.03709500 0.00000000 -2.2777774599999994 0 0 0
Li 0.00000000 3.03709500 -2.2777774599999994 0 0 0
Li 3.02506810 3.02664739 0.81328147
Li 1.51854750 1.51854750 -0.7592591499999983 0 0 0
Li 1.52638321 4.55072241 2.73647606
Li 4.55564250 4.55564250 -0.7592591499999983 0 0 0
Li 4.55066166 1.52638321 2.73573940
Al 0.00000000 0.00000000 -2.2777774599999994 0 0 0
Al 3.03709500 3.03709500 -2.2777774599999994 0 0 0
Al 3.01638201 0.02004483 0.78185030
Al 0.02107744 3.01741462 0.78185030
Pt 1.51508521 1.51514595 2.25911520
Pt 1.51854750 4.55564250 -0.7592591499999983 0 0 0
Pt 4.55697882 4.55697882 2.06709041
Pt 4.55564250 1.51854750 -0.7592591499999983 0 0 0
C 1.51186589 1.51198737 4.18304646
O 1.51569263 1.51575337 5.34722746
