&CONTROL
calculation = 'relax'
prefix = 'scf'
pseudo_dir = '/vol0004/mdt0/data/hp150275/u10028/POT_KKJUS'
outdir = './data'
tprnfor = .true.
nstep = 50
disk_io = 'non'
/
&SYSTEM
ibrav = 0
ecutwfc = 50.0
ecutrho = 400
occupations = 'smearing'
smearing = 'mp'
degauss = 0.01
assume_isolated = 'esm'
esm_bc = 'bc1'
input_dft = 'BEEF-VDW'
nosym = .true.
nspin = 1
ntyp = 2
nat = 32
/
&ELECTRONS
electron_maxstep = 200
mixing_beta = 0.1
conv_thr = 1e-06
/
&IONS
ion_dynamics = 'bfgs'
upscale = 1.0
/
&CELL
/

K_POINTS {automatic}
9 6 2 0  0  0

ATOMIC_SPECIES
Ag 107.8 Ag.pbe-n-rrkjus_psl.1.0.0.UPF
Mg 24.30 Mg.pbe-spnl-rrkjus_psl.1.0.0.UPF

CELL_PARAMETERS {angstrom}
6.75388000 0.00000000 0.00000000
0.00000000 9.55143000 0.00000000
0.00000000 0.00000000 27.16360000

ATOMIC_POSITIONS {angstrom}
Mg 1.68847000 2.38785750 -3.5817923 0 0 0
Mg 1.68847000 0.00000000 -1.1938402199999985 0 0 0
Mg 1.69157678 2.38785750 1.19818640
Mg 1.69238725 4.77571500 3.61330207
Mg 1.68847000 7.16357250 -3.5817923 0 0 0
Mg 1.68847000 4.77571500 -1.1938402199999985 0 0 0
Mg 1.69157678 7.16357250 1.19818640
Mg 1.69238725 0.00000000 3.61330207
Mg 5.06541000 2.38785750 -3.5817923 0 0 0
Mg 5.06541000 0.00000000 -1.1938402199999985 0 0 0
Mg 5.06230322 2.38785750 1.19818640
Mg 5.06149275 4.77571500 3.61330207
Mg 5.06541000 7.16357250 -3.5817923 0 0 0
Mg 5.06541000 4.77571500 -1.1938402199999985 0 0 0
Mg 5.06230322 7.16357250 1.19818640
Mg 5.06149275 0.00000000 3.61330207
Ag 0.00000000 0.00000000 -3.5817923 0 0 0
Ag 0.00000000 2.38785750 -1.1938402199999985 0 0 0
Ag 0.00000000 0.00000000 1.17075116
Ag 0.00000000 2.38785750 3.55055416
Ag 0.00000000 4.77571500 -3.5817923 0 0 0
Ag 0.00000000 7.16357250 -1.1938402199999985 0 0 0
Ag 0.00000000 4.77571500 1.17075116
Ag 0.00000000 7.16357250 3.55055416
Ag 3.37694000 0.00000000 -3.5817923 0 0 0
Ag 3.37694000 2.38785750 -1.1938402199999985 0 0 0
Ag 3.37694000 0.00000000 1.16912134
Ag 3.37694000 2.38785750 3.55245561
Ag 3.37694000 4.77571500 -3.5817923 0 0 0
Ag 3.37694000 7.16357250 -1.1938402199999985 0 0 0
Ag 3.37694000 4.77571500 1.16912134
Ag 3.37694000 7.16357250 3.55245561
