&CONTROL
calculation = 'relax'
prefix = 'scf'
pseudo_dir = '/vol0403/data/hp230205/u10028/POT_HYBRID_KKJUS_GBRV'
outdir = './data'
tprnfor = .true.
nstep = 50
disk_io = 'non'
/
&SYSTEM
ibrav = 0
ecutwfc = 50.0
ecutrho = 400
occupations = 'smearing'
smearing = 'mp'
degauss = 0.01
assume_isolated = 'esm'
esm_bc = 'bc1'
input_dft = 'BEEF-VDW'
nosym = .true.
nspin = 1
ntyp = 6
nat = 34
/
&ELECTRONS
electron_maxstep = 200
mixing_beta = 0.1
conv_thr = 1e-06
/
&IONS
ion_dynamics = 'bfgs'
upscale = 1.0
/
&CELL
/

K_POINTS {automatic}
9 6 2 0  0  0

ATOMIC_SPECIES
C 12.01 C.pbe-n-rrkjus_psl.1.0.0.UPF
Ge 72.64 Ge.pbe-dn-rrkjus_psl.1.0.0.UPF
Li 6.941 Li.pbe-sl-rrkjus_psl.1.0.0.UPF
O 15.99 O.pbe-n-rrkjus_psl.1.0.0.UPF
Pd 106.4 Pd.pbe-n-rrkjus_psl.1.0.0.UPF
V 50.94 V.pbe-spnl-rrkjus_psl.1.0.0.UPF


CELL_PARAMETERS {angstrom}
5.68832000 0.00000000 0.00000000
0.00000000 8.64114000 0.00000000
0.00000000 0.00000000 27.05420000

ATOMIC_POSITIONS {angstrom}
Li 1.43425300 8.64105359 1.28669775
Li 1.42208000 0.00000000 -3.5270560500000023 0 0 0
Li 1.41400259 4.32031077 1.28615667
Li 1.42208000 4.32057000 -3.5270560500000023 0 0 0
Li 4.25474959 8.64105359 1.28696829
Li 4.26624000 0.00000000 -3.5270560500000023 0 0 0
Li 4.27488625 4.32039718 1.28642721
Li 4.26624000 4.32057000 -3.5270560500000023 0 0 0
V 1.42822339 2.16106270 3.42668497
V 1.42208000 2.16028500 -1.1757755300000028 0 0 0
V 1.42742702 6.47964524 3.42695551
V 1.42208000 6.48085500 -1.1757755300000028 0 0 0
V 4.26083610 2.16063065 3.42668497
V 4.26624000 2.16028500 -1.1757755300000028 0 0 0
V 4.26146181 6.48007730 3.42722606
V 4.26624000 6.48085500 -1.1757755300000028 0 0 0
Ge 0.00017065 8.64105359 3.76756789
Ge 0.00000000 0.00000000 -1.1757755300000028 0 0 0
Ge 5.68814935 4.32022435 3.80950190
Ge 0.00000000 4.32057000 -1.1757755300000028 0 0 0
Ge 2.84472883 8.64088077 3.81653599
Ge 2.84416000 0.00000000 -1.1757755300000028 0 0 0
Ge 2.84495636 4.32065641 3.79976239
Ge 2.84416000 4.32057000 -1.1757755300000028 0 0 0
Pd 0.00034130 2.15268080 1.16847090
Pd 0.00000000 2.16028500 -3.5270560500000023 0 0 0
Pd 0.00034130 6.48811356 1.16738873
Pd 0.00000000 6.48085500 -3.5270560500000023 0 0 0
Pd 2.84444442 2.16875332 1.14980350
Pd 2.84416000 2.16028500 -3.5270560500000023 0 0 0
Pd 2.84455818 6.47204104 1.15061513
Pd 2.84416000 6.48085500 -3.5270560500000023 0 0 0
C 5.67318907 0.00924602 7.74588800
O 0.00295793 8.63958459 8.88081169
