&CONTROL
calculation = 'relax'
prefix = 'scf'
pseudo_dir = '/vol0004/mdt0/data/hp150275/u10028/POT_KKJUS'
outdir = './data'
tprnfor = .true.
nstep = 50
disk_io = 'non'
/
&SYSTEM
ibrav = 0
ecutwfc = 50.0
ecutrho = 400
occupations = 'smearing'
smearing = 'mp'
degauss = 0.01
assume_isolated = 'esm'
esm_bc = 'bc1'
input_dft = 'BEEF-VDW'
nosym = .true.
nspin = 1
ntyp = 4
nat = 33
/
&ELECTRONS
electron_maxstep = 200
mixing_beta = 0.1
conv_thr = 1e-06
/
&IONS
ion_dynamics = 'bfgs'
upscale = 1.0
/
&CELL
/

K_POINTS {automatic}
9 6 2 0  0  0

ATOMIC_SPECIES
Al 26.98 Al.pbe-nl-rrkjus_psl.1.0.0.UPF
C 12.01 C.pbe-n-rrkjus_psl.1.0.0.UPF
Ir 192.2 Ir.pbe-n-rrkjus_psl.0.2.3.UPF
Li 6.941 Li.pbe-sl-rrkjus_psl.1.0.0.UPF

CELL_PARAMETERS {angstrom}
6.04348000 0.00000000 0.00000000
0.00000000 8.54677000 0.00000000
0.00000000 0.00000000 26.41010000

ATOMIC_POSITIONS {angstrom}
Li 0.00000000 0.00000000 -3.2051297400000003 0 0 0
Li 3.02174000 2.13669250 -1.068288540000001 0 0 0
Li 3.02174000 6.41007750 -1.068288540000001 0 0 0
Li 0.00000000 4.27338500 -3.2051297400000003 0 0 0
Li 0.00000000 4.27338500 0.92884322
Li 3.02174000 6.20418581 3.89073593
Li 3.02174000 2.34249872 3.89073593
Li 0.00000000 0.00000000 1.12137285
Al 1.51087000 0.00000000 -1.068288540000001 0 0 0
Al 4.53261000 4.27338500 -1.068288540000001 0 0 0
Al 4.53261000 0.00000000 -1.068288540000001 0 0 0
Al 1.51087000 4.27338500 -1.068288540000001 0 0 0
Al 4.53261000 6.41007750 -3.2051297400000003 0 0 0
Al 1.51087000 2.13669250 -3.2051297400000003 0 0 0
Al 1.51087000 6.41007750 -3.2051297400000003 0 0 0
Al 4.53261000 2.13669250 -3.2051297400000003 0 0 0
Al 1.30762777 4.27338500 3.08390738
Al 4.26077427 0.00000000 3.13778398
Al 4.73585223 4.27338500 3.08390738
Al 1.78270573 0.00000000 3.13778398
Al 4.51623217 2.15387151 1.14434963
Al 1.52724783 6.39289849 1.14434963
Al 1.52724783 2.15387151 1.14434963
Al 4.51623217 6.39289849 1.14434963
Ir 0.00000000 6.41007750 -1.068288540000001 0 0 0
Ir 3.02174000 0.00000000 -3.2051297400000003 0 0 0
Ir 0.00000000 2.13669250 -1.068288540000001 0 0 0
Ir 3.02174000 4.27338500 -3.2051297400000003 0 0 0
Ir 0.00000000 1.98336345 3.16947610
Ir 3.02174000 4.27338500 1.05349889
Ir 0.00000000 6.56340655 3.16947610
Ir 3.02174000 0.00000000 0.92963552
C 0.00000000 0.00000000 3.84029264
