&CONTROL
calculation = 'relax'
prefix = 'scf'
pseudo_dir = '/vol0004/mdt0/data/hp150275/u10028/POT_KKJUS'
outdir = './data'
tprnfor = .true.
nstep = 50
disk_io = 'non'
/
&SYSTEM
ibrav = 0
ecutwfc = 50.0
ecutrho = 400
occupations = 'smearing'
smearing = 'mp'
degauss = 0.01
assume_isolated = 'esm'
esm_bc = 'bc1'
input_dft = 'BEEF-VDW'
nosym = .true.
nspin = 1
ntyp = 4
nat = 18
/
&ELECTRONS
electron_maxstep = 200
mixing_beta = 0.1
conv_thr = 1e-06
/
&IONS
ion_dynamics = 'bfgs'
upscale = 1.0
/
&CELL
/

K_POINTS {automatic}
8 11 2 0  0  0

ATOMIC_SPECIES
C 12.01 C.pbe-n-rrkjus_psl.1.0.0.UPF
Mg 24.30 Mg.pbe-spnl-rrkjus_psl.1.0.0.UPF
Ni 58.69 Ni.pbe-spn-rrkjus_psl.1.0.0.UPF
O 15.99 O.pbe-n-rrkjus_psl.1.0.0.UPF

CELL_PARAMETERS {angstrom}
7.35611000 0.00000000 0.00000000
0.00000000 5.20155000 0.00000000
0.00000000 0.00000000 23.90120000

ATOMIC_POSITIONS {angstrom}
Mg 7.35596288 0.00010403 2.10258856
Mg 0.00000000 2.60077500 -0.6501126399999997 0 0 0
Mg 3.67805500 5.20123791 2.06362961
Mg 3.67805500 2.60077500 -0.6501126399999997 0 0 0
Ni 0.00102986 2.60150322 1.99503316
Ni 1.83564369 3.92665010 0.62214824
Ni 1.83557013 1.27432773 0.62334330
Ni 0.00000000 0.00000000 -0.6501126399999997 0 0 0
Ni 1.83902750 1.30038750 -1.9505769300000004 0 0 0
Ni 1.83902750 3.90116250 -1.9505769300000004 0 0 0
Ni 3.67746651 2.60041089 1.79115593
Ni 5.52076055 3.92758637 0.62286527
Ni 5.52061343 1.27536804 0.62358231
Ni 3.67805500 0.00000000 -0.6501126399999997 0 0 0
Ni 5.51708250 1.30038750 -1.9505769300000004 0 0 0
Ni 5.51708250 3.90116250 -1.9505769300000004 0 0 0
C 7.35566863 2.60067097 3.75224939
O 7.35588932 2.60061895 4.91862795
