&CONTROL
calculation = 'relax'
prefix = 'scf'
pseudo_dir = '/vol0403/data/hp230205/u10028/POT_HYBRID_KKJUS_GBRV'
outdir = './data'
tprnfor = .true.
nstep = 50
disk_io = 'non'
/
&SYSTEM
ibrav = 0
ecutwfc = 50.0
ecutrho = 400
occupations = 'smearing'
smearing = 'mp'
degauss = 0.01
assume_isolated = 'esm'
esm_bc = 'bc1'
input_dft = 'BEEF-VDW'
nosym = .true.
nspin = 1
ntyp = 6
nat = 34
/
&ELECTRONS
electron_maxstep = 200
mixing_beta = 0.1
conv_thr = 1e-06
/
&IONS
ion_dynamics = 'bfgs'
upscale = 1.0
/
&CELL
/

K_POINTS {automatic}
6 6 1 0 0 0

ATOMIC_SPECIES
Ag 107.8 Ag.pbe-n-rrkjus_psl.1.0.0.UPF
Al 26.98 Al.pbe-nl-rrkjus_psl.1.0.0.UPF
C 12.01 C.pbe-n-rrkjus_psl.1.0.0.UPF
Ge 72.64 Ge.pbe-dn-rrkjus_psl.1.0.0.UPF
Li 6.941 Li.pbe-sl-rrkjus_psl.1.0.0.UPF
O 15.99 O.pbe-n-rrkjus_psl.1.0.0.UPF


CELL_PARAMETERS {angstrom}
7.71364000 0.00000000 0.00000000
0.00000000 8.02734000 0.00000000
0.00000000 0.00000000 26.41700000

ATOMIC_POSITIONS {angstrom}
Li 1.92841000 2.00683500 3.20860882
Li 1.92841000 2.00683500 -1.06962433 0 0 0
Li 1.92841000 6.02050500 3.20860882
Li 1.92841000 6.02050500 -1.06962433 0 0 0
Li 5.78523000 2.00683500 3.20860882
Li 5.78523000 2.00683500 -1.06962433 0 0 0
Li 5.78523000 6.02050500 3.20860882
Li 5.78523000 6.02050500 -1.06962433 0 0 0
Al 1.92841000 0.00000000 1.06962433
Al 1.92841000 0.00000000 -3.208608820000002 0 0 0
Al 1.92841000 4.01367000 1.06962433
Al 1.92841000 4.01367000 -3.208608820000002 0 0 0
Al 5.78523000 0.00000000 1.06962433
Al 5.78523000 0.00000000 -3.208608820000002 0 0 0
Al 5.78523000 4.01367000 1.06962433
Al 5.78523000 4.01367000 -3.208608820000002 0 0 0
Ag 0.00000000 0.00000000 3.20860882
Ag 0.00000000 0.00000000 -1.06962433 0 0 0
Ag 0.00000000 4.01367000 3.20860882
Ag 0.00000000 4.01367000 -1.06962433 0 0 0
Ag 3.85682000 0.00000000 3.20860882
Ag 3.85682000 0.00000000 -1.06962433 0 0 0
Ag 3.85682000 4.01367000 3.20860882
Ag 3.85682000 4.01367000 -1.06962433 0 0 0
Ge 0.00000000 2.00683500 1.06962433
Ge 0.00000000 2.00683500 -3.208608820000002 0 0 0
Ge 0.00000000 6.02050500 1.06962433
Ge 0.00000000 6.02050500 -3.208608820000002 0 0 0
Ge 3.85682000 2.00683500 1.06962433
Ge 3.85682000 2.00683500 -3.208608820000002 0 0 0
Ge 3.85682000 6.02050500 1.06962433
Ge 3.85682000 6.02050500 -3.208608820000002 0 0 0
C 1.92841000 2.00683500 5.10851946
O 1.92841000 2.00683500 6.25845147
