&CONTROL
calculation = 'relax'
prefix = 'scf'
pseudo_dir = '/vol0403/data/hp230205/u10028/POT_HYBRID_KKJUS_GBRV'
outdir = './data'
tprnfor = .true.
nstep = 50
disk_io = 'non'
/
&SYSTEM
ibrav = 0
ecutwfc = 50.0
ecutrho = 400
occupations = 'smearing'
smearing = 'mp'
degauss = 0.01
assume_isolated = 'esm'
esm_bc = 'bc1'
input_dft = 'BEEF-VDW'
nosym = .true.
nspin = 1
ntyp = 6
nat = 18
/
&ELECTRONS
electron_maxstep = 200
mixing_beta = 0.1
conv_thr = 1e-06
/
&IONS
ion_dynamics = 'bfgs'
upscale = 1.0
/
&CELL
/

K_POINTS {automatic}
11 7 2 0  0  0

ATOMIC_SPECIES
Ag 107.8 Ag.pbe-n-rrkjus_psl.1.0.0.UPF
Al 26.98 Al.pbe-nl-rrkjus_psl.1.0.0.UPF
C 12.01 C.pbe-n-rrkjus_psl.1.0.0.UPF
Ge 72.64 Ge.pbe-dn-rrkjus_psl.1.0.0.UPF
Li 6.941 Li.pbe-sl-rrkjus_psl.1.0.0.UPF
O 15.99 O.pbe-n-rrkjus_psl.1.0.0.UPF


CELL_PARAMETERS {angstrom}
5.56638000 0.00000000 0.00000000
0.00000000 8.55604000 0.00000000
0.00000000 0.00000000 24.17150000

ATOMIC_POSITIONS {angstrom}
Li 3.00706980 0.00017112 2.04128318
Li 5.45549771 0.00000000 -0.6951723400000027 0 0 0
Li 3.10225490 4.27810556 2.01276081
Li 5.45549771 4.27802000 -0.6951723400000027 0 0 0
Al 1.44197074 2.08673260 0.64223675
Al 4.00846157 2.13901000 -2.085758730000002 0 0 0
Al 1.44219339 6.46939296 0.64247847
Al 4.00846157 6.41703000 -2.085758730000002 0 0 0
Ag 0.26084057 0.00008556 1.95910008
Ag 2.67230771 0.00000000 -0.6951723400000027 0 0 0
Ag 0.38035075 4.27802000 1.81286250
Ag 2.67230771 4.27802000 -0.6951723400000027 0 0 0
Ge 4.18870095 2.11625093 0.70532437
Ge 1.22527157 2.13901000 -2.085758730000002 0 0 0
Ge 4.18892361 6.43978907 0.70532437
Ge 1.22527157 6.41703000 -2.085758730000002 0 0 0
C 5.52819463 0.00008556 4.11979046
O 0.11733929 8.55586888 5.25826811
