&CONTROL
calculation = 'relax'
prefix = 'scf'
pseudo_dir = '/vol0004/mdt0/data/hp150275/u10028/POT_KKJUS'
outdir = './data'
tprnfor = .true.
nstep = 50
disk_io = 'non'
/
&SYSTEM
ibrav = 0
ecutwfc = 50.0
ecutrho = 400
occupations = 'smearing'
smearing = 'mp'
degauss = 0.01
assume_isolated = 'esm'
esm_bc = 'bc1'
input_dft = 'BEEF-VDW'
nosym = .true.
nspin = 1
ntyp = 5
nat = 34
/
&ELECTRONS
electron_maxstep = 200
mixing_beta = 0.1
conv_thr = 1e-06
/
&IONS
ion_dynamics = 'bfgs'
upscale = 1.0
/
&CELL
/

K_POINTS {automatic}
8 6 1 0 0 0

ATOMIC_SPECIES
C 12.01 C.pbe-n-rrkjus_psl.1.0.0.UPF
Ga 69.72 Ga.pbe-dnl-rrkjus_psl.1.0.0.UPF
Ir 192.2 Ir.pbe-n-rrkjus_psl.0.2.3.UPF
Li 6.941 Li.pbe-sl-rrkjus_psl.1.0.0.UPF
O 15.99 O.pbe-n-rrkjus_psl.1.0.0.UPF

CELL_PARAMETERS {angstrom}
6.11439000 0.00000000 0.00000000
0.00000000 8.64705000 0.00000000
0.00000000 0.00000000 26.48530000

ATOMIC_POSITIONS {angstrom}
Li 0.00000000 0.00000000 -3.2425952799999997 0 0 0
Li 3.05719500 2.16176250 -1.0808650899999996 0 0 0
Li 3.05719500 6.48528750 -1.0808650899999996 0 0 0
Li 0.00000000 4.32352500 -3.2425952799999997 0 0 0
Li 0.00000000 4.34765027 1.05385009
Li 3.05719500 6.48528750 3.71827127
Li 3.05719500 2.16176250 3.54664652
Li 0.00000000 8.62292473 1.05385009
Ga 1.52859750 0.00000000 -1.0808650899999996 0 0 0
Ga 4.58579250 4.32352500 -1.0808650899999996 0 0 0
Ga 4.58579250 0.00000000 -1.0808650899999996 0 0 0
Ga 1.52859750 4.32352500 -1.0808650899999996 0 0 0
Ga 4.58579250 6.48528750 -3.2425952799999997 0 0 0
Ga 1.52859750 2.16176250 -3.2425952799999997 0 0 0
Ga 1.52859750 6.48528750 -3.2425952799999997 0 0 0
Ga 4.58579250 2.16176250 -3.2425952799999997 0 0 0
Ga 1.46867648 4.37514789 3.31648927
Ga 4.64577467 8.59542711 3.31648927
Ga 4.64571352 4.37514789 3.31648927
Ga 1.46861533 8.59534064 3.31648927
Ga 4.59924416 2.16176250 1.20481630
Ga 1.59793468 6.48528750 1.09172407
Ga 1.51514584 2.16176250 1.20481630
Ga 4.51645532 6.48528750 1.09172407
Ir 0.00000000 6.48528750 -1.0808650899999996 0 0 0
Ir 3.05719500 0.00000000 -3.2425952799999997 0 0 0
Ir 0.00000000 2.16176250 -1.0808650899999996 0 0 0
Ir 3.05719500 4.32352500 -3.2425952799999997 0 0 0
Ir 0.00000000 2.16176250 3.45024003
Ir 3.05713386 4.28322975 0.97836698
Ir 0.00000000 6.48528750 3.04607435
Ir 3.05725614 0.04029525 0.97836698
C 0.00000000 2.16176250 5.34076074
O 0.00000000 2.16176250 6.50108174
