&CONTROL
calculation = 'relax'
prefix = 'scf'
pseudo_dir = '/vol0004/mdt0/data/hp150275/u10028/POT_KKJUS'
outdir = './data'
tprnfor = .true.
nstep = 50
disk_io = 'non'
/
&SYSTEM
ibrav = 0
ecutwfc = 50.0
ecutrho = 400
occupations = 'smearing'
smearing = 'mp'
degauss = 0.01
assume_isolated = 'esm'
esm_bc = 'bc1'
input_dft = 'BEEF-VDW'
nosym = .true.
nspin = 1
ntyp = 2
nat = 16
/
&ELECTRONS
electron_maxstep = 200
mixing_beta = 0.1
conv_thr = 1e-06
/
&IONS
ion_dynamics = 'bfgs'
upscale = 1.0
/
&CELL
/

K_POINTS {automatic}
8 8 1 0 0 0

ATOMIC_SPECIES
Ru 101.0 Ru.pbe-spn-rrkjus_psl.1.0.0.UPF
Zr 91.22 Zr.pbe-spn-rrkjus_psl.1.0.0.UPF

CELL_PARAMETERS {angstrom}
6.54723000 0.00000000 0.00000000
-0.00000000 6.54723000 0.00000000
0.00000000 0.00000000 24.91040000

ATOMIC_POSITIONS {angstrom}
Zr 0.00000000 0.00000000 -2.4133195500000006 0 0 0
Zr 0.00000000 0.00000000 0.86040522
Zr 0.00000000 3.27361500 -2.4133195500000006 0 0 0
Zr 0.00000000 3.27361500 0.86040522
Zr 3.27361500 0.00000000 -2.4133195500000006 0 0 0
Zr 3.27361500 -0.00000000 0.86040522
Zr 3.27361500 3.27361500 -2.4133195500000006 0 0 0
Zr 3.27361500 3.27361500 0.86040522
Ru 1.63680750 1.63680750 -0.7764571700000005 0 0 0
Ru 1.63680750 1.63680750 2.49701850
Ru 1.63680750 4.91042250 -0.7764571700000005 0 0 0
Ru 1.63680750 4.91042250 2.49701850
Ru 4.91042250 1.63680750 -0.7764571700000005 0 0 0
Ru 4.91042250 1.63680750 2.49701850
Ru 4.91042250 4.91042250 -0.7764571700000005 0 0 0
Ru 4.91042250 4.91042250 2.49701850
