&CONTROL
calculation = 'relax'
prefix = 'scf'
pseudo_dir = '/vol0004/mdt0/data/hp150275/u10028/POT_KKJUS'
outdir = './data'
tprnfor = .true.
nstep = 50
disk_io = 'non'
/
&SYSTEM
ibrav = 0
ecutwfc = 50.0
ecutrho = 400
occupations = 'smearing'
smearing = 'mp'
degauss = 0.01
assume_isolated = 'esm'
esm_bc = 'bc1'
input_dft = 'BEEF-VDW'
nosym = .true.
nspin = 1
ntyp = 4
nat = 18
/
&ELECTRONS
electron_maxstep = 200
mixing_beta = 0.1
conv_thr = 1e-06
/
&IONS
ion_dynamics = 'bfgs'
upscale = 1.0
/
&CELL
/

K_POINTS {automatic}
6 8 1 0 0 0

ATOMIC_SPECIES
Au 196.9 Au.pbe-n-rrkjus_psl.1.0.0.UPF
C 12.01 C.pbe-n-rrkjus_psl.1.0.0.UPF
Li 6.941 Li.pbe-sl-rrkjus_psl.1.0.0.UPF
O 15.99 O.pbe-n-rrkjus_psl.1.0.0.UPF

CELL_PARAMETERS {angstrom}
8.24301000 0.00000000 0.00000000
0.00000000 5.82869000 0.00000000
0.00000000 0.00000000 24.37150000

ATOMIC_POSITIONS {angstrom}
Li 0.00000000 0.00000000 -2.1856361200000016 0 0 0
Li 8.20847179 2.91912453 0.83155558
Li 4.12150500 0.00000000 -2.1856361200000016 0 0 0
Li 4.15596078 2.91918281 0.83179930
Au 0.00000000 2.91434500 -2.1856361200000016 0 0 0
Au 2.06075250 4.37151750 -0.7284641300000025 0 0 0
Au 2.06075250 1.45717250 -0.7284641300000025 0 0 0
Au 8.22025929 0.02506337 0.77257655
Au 2.06075250 1.43449890 2.22584910
Au 2.06075250 4.24958131 2.10618503
Au 4.12150500 2.91434500 -2.1856361200000016 0 0 0
Au 6.18225750 4.37151750 -0.7284641300000025 0 0 0
Au 6.18225750 1.45717250 -0.7284641300000025 0 0 0
Au 4.14425571 0.02500508 0.77257655
Au 6.18225750 1.54279596 2.21926879
Au 6.18225750 4.33876026 2.23072340
C 2.06083493 1.40704577 4.29279601
O 2.06075250 1.60801900 5.41827188
