&CONTROL
calculation = 'relax'
prefix = 'scf'
pseudo_dir = '/vol0004/mdt0/data/hp150275/u10028/POT_KKJUS'
outdir = './data'
tprnfor = .true.
nstep = 50
disk_io = 'non'
/
&SYSTEM
ibrav = 0
ecutwfc = 50.0
ecutrho = 400
occupations = 'smearing'
smearing = 'mp'
degauss = 0.01
assume_isolated = 'esm'
esm_bc = 'bc1'
input_dft = 'BEEF-VDW'
nosym = .true.
nspin = 1
ntyp = 5
nat = 34
/
&ELECTRONS
electron_maxstep = 200
mixing_beta = 0.1
conv_thr = 1e-06
/
&IONS
ion_dynamics = 'bfgs'
upscale = 1.0
/
&CELL
/

K_POINTS {automatic}
9 6 2 0  0  0

ATOMIC_SPECIES
C 12.01 C.pbe-n-rrkjus_psl.1.0.0.UPF
In 114.8 In.pbe-dn-rrkjus_psl.1.0.0.UPF
Ir 192.2 Ir.pbe-n-rrkjus_psl.0.2.3.UPF
Li 6.941 Li.pbe-sl-rrkjus_psl.1.0.0.UPF
O 15.99 O.pbe-n-rrkjus_psl.1.0.0.UPF

CELL_PARAMETERS {angstrom}
6.17944000 0.00000000 0.00000000
0.00000000 8.73904000 0.00000000
0.00000000 0.00000000 26.55430000

ATOMIC_POSITIONS {angstrom}
Li 1.54486000 0.00000000 -1.0924439000000028 0 0 0
Li 4.63458000 4.36952000 -1.0924439000000028 0 0 0
Li 4.63458000 0.00000000 -1.0924439000000028 0 0 0
Li 1.54486000 4.36952000 -1.0924439000000028 0 0 0
Li 4.63458000 6.55428000 -3.2770661600000004 0 0 0
Li 1.54486000 2.18476000 -3.2770661600000004 0 0 0
Li 1.54486000 6.55428000 -3.2770661600000004 0 0 0
Li 4.63458000 2.18476000 -3.2770661600000004 0 0 0
Li 1.44289924 4.36952000 3.71839863
Li 4.81909808 0.00000000 3.82036714
Li 4.81996320 4.36952000 3.84107950
Li 1.44802818 0.00000000 3.74495293
Li 4.66139877 2.18589608 0.99074093
Li 1.53806262 6.55655215 1.03322781
Li 1.53806262 2.18248785 1.03322781
Li 4.66139877 6.55305653 0.99074093
In 0.00000000 0.00000000 -3.2770661600000004 0 0 0
In 3.08972000 2.18476000 -1.0924439000000028 0 0 0
In 3.08972000 6.55428000 -1.0924439000000028 0 0 0
In 0.00000000 4.36952000 -3.2770661600000004 0 0 0
In 6.17214826 4.36952000 1.26318805
In 3.16535635 6.55043482 3.13553174
In 3.16535635 2.18860518 3.13553174
In 6.17264262 0.00000000 1.27566857
Ir 0.00000000 6.55428000 -1.0924439000000028 0 0 0
Ir 3.08972000 0.00000000 -3.2770661600000004 0 0 0
Ir 0.00000000 2.18476000 -1.0924439000000028 0 0 0
Ir 3.08972000 4.36952000 -3.2770661600000004 0 0 0
Ir 6.15212688 2.20328676 3.10313550
Ir 3.09126486 4.36952000 1.29266332
Ir 6.15212688 6.53566584 3.10313550
Ir 3.09818583 0.00000000 1.31921762
C 1.50494082 0.00000000 5.82946548
O 1.38530686 0.00000000 6.96545843
