&CONTROL
calculation = 'relax'
prefix = 'scf'
pseudo_dir = '/vol0403/data/hp230205/u10028/POT_HYBRID_KKJUS_GBRV'
outdir = './data'
tprnfor = .true.
nstep = 50
disk_io = 'non'
/
&SYSTEM
ibrav = 0
ecutwfc = 50.0
ecutrho = 400
occupations = 'smearing'
smearing = 'mp'
degauss = 0.01
assume_isolated = 'esm'
esm_bc = 'bc1'
input_dft = 'BEEF-VDW'
nosym = .true.
nspin = 1
ntyp = 6
nat = 34
/
&ELECTRONS
electron_maxstep = 200
mixing_beta = 0.1
conv_thr = 1e-06
/
&IONS
ion_dynamics = 'bfgs'
upscale = 1.0
/
&CELL
/

K_POINTS {automatic}
6 6 1 0 0 0

ATOMIC_SPECIES
C 12.01 C.pbe-n-rrkjus_psl.1.0.0.UPF
Ge 72.64 Ge.pbe-dn-rrkjus_psl.1.0.0.UPF
Li 6.941 Li.pbe-sl-rrkjus_psl.1.0.0.UPF
Mg 24.30 Mg.pbe-spnl-rrkjus_psl.1.0.0.UPF
O 15.99 O.pbe-n-rrkjus_psl.1.0.0.UPF
Pd 106.4 Pd.pbe-n-rrkjus_psl.1.0.0.UPF


CELL_PARAMETERS {angstrom}
6.25843000 0.00000000 0.00000000
0.00000000 8.85076000 0.00000000
0.00000000 0.00000000 26.63810000

ATOMIC_POSITIONS {angstrom}
Li 1.56460750 0.00000000 -1.1062802900000008 0 0 0
Li 1.56460750 4.42538000 -1.1062802900000008 0 0 0
Li 4.69382250 2.21269000 -3.3191072600000027 0 0 0
Li 4.69382250 6.63807000 -3.3191072600000027 0 0 0
Li 2.30560561 4.42493746 4.54632453
Li 2.38001834 0.00203567 4.67791674
Li 4.74182466 6.64054821 1.19658345
Li 4.74194983 2.21215895 1.19525155
Mg 0.00000000 2.21269000 -1.1062802900000008 0 0 0
Mg 0.00000000 6.63807000 -1.1062802900000008 0 0 0
Mg 3.12921500 4.42538000 -3.3191072600000027 0 0 0
Mg 3.12921500 0.00000000 -3.3191072600000027 0 0 0
Mg 0.25077529 6.64161030 3.43471661
Mg 0.24676989 2.20985776 3.43311833
Mg 3.03721608 0.00168164 1.32497909
Mg 3.04635339 4.42653060 1.31086090
Ge 0.00000000 0.00000000 -3.3191072600000027 0 0 0
Ge 0.00000000 4.42538000 -3.3191072600000027 0 0 0
Ge 3.12921500 6.63807000 -1.1062802900000008 0 0 0
Ge 3.12921500 2.21269000 -1.1062802900000008 0 0 0
Ge 0.07084543 4.42653060 1.21549650
Ge 0.07560183 0.00079657 1.22162327
Ge 3.23285460 2.21109686 3.42272947
Ge 3.23360561 6.64054821 3.42299585
Pd 4.69382250 0.00000000 -1.1062802900000008 0 0 0
Pd 4.69382250 4.42538000 -1.1062802900000008 0 0 0
Pd 1.56460750 2.21269000 -3.3191072600000027 0 0 0
Pd 1.56460750 6.63807000 -3.3191072600000027 0 0 0
Pd 4.77461883 4.42591105 3.25251201
Pd 4.76785973 8.85031746 3.25197925
Pd 1.58951605 6.63603433 1.01517799
Pd 1.58826437 2.21693836 1.01491161
C 1.45852711 0.00008851 6.59106508
O 0.88757054 8.84925537 7.57694116
