&CONTROL
calculation = 'relax'
prefix = 'scf'
pseudo_dir = '/vol0004/mdt0/data/hp150275/u10028/POT_KKJUS'
outdir = './data'
tprnfor = .true.
nstep = 50
disk_io = 'non'
/
&SYSTEM
ibrav = 0
ecutwfc = 50.0
ecutrho = 400
occupations = 'smearing'
smearing = 'mp'
degauss = 0.01
assume_isolated = 'esm'
esm_bc = 'bc1'
input_dft = 'BEEF-VDW'
nosym = .true.
nspin = 1
ntyp = 3
nat = 33
/
&ELECTRONS
electron_maxstep = 200
mixing_beta = 0.1
conv_thr = 1e-06
/
&IONS
ion_dynamics = 'bfgs'
upscale = 1.0
/
&CELL
/

K_POINTS {automatic}
9 6 2 0  0  0

ATOMIC_SPECIES
Al 26.98 Al.pbe-nl-rrkjus_psl.1.0.0.UPF
Au 196.9 Au.pbe-n-rrkjus_psl.1.0.0.UPF
C 12.01 C.pbe-n-rrkjus_psl.1.0.0.UPF

CELL_PARAMETERS {angstrom}
6.49845000 0.00000000 0.00000000
0.00000000 9.19019000 0.00000000
0.00000000 0.00000000 26.89260000

ATOMIC_POSITIONS {angstrom}
Al 0.00000000 0.00000000 -3.446286690000001 0 0 0
Al 0.00000000 2.29754750 -1.1488518700000014 0 0 0
Al 6.46777732 9.16978778 1.28143239
Al 6.22726968 2.29754750 3.63345919
Al 0.00000000 4.59509500 -3.446286690000001 0 0 0
Al 0.00000000 6.89264250 -1.1488518700000014 0 0 0
Al 6.46777732 4.61549722 1.28143239
Al 6.41481495 6.89264250 3.56004239
Al 3.24922500 0.00000000 -3.446286690000001 0 0 0
Al 3.24922500 2.29754750 -1.1488518700000014 0 0 0
Al 3.27989768 9.16978778 1.28143239
Al 3.52040532 2.29754750 3.63345919
Al 3.24922500 4.59509500 -3.446286690000001 0 0 0
Al 3.24922500 6.89264250 -1.1488518700000014 0 0 0
Al 3.27989768 4.61549722 1.28143239
Al 3.33286005 6.89264250 3.56004239
Au 1.62461250 2.29754750 -3.446286690000001 0 0 0
Au 1.62461250 0.00000000 -1.1488518700000014 0 0 0
Au 1.62461250 2.29754750 1.14051517
Au 1.62467748 8.91733326 3.53261194
Au 1.62461250 6.89264250 -3.446286690000001 0 0 0
Au 1.62461250 4.59509500 -1.1488518700000014 0 0 0
Au 1.62461250 6.89264250 1.00201828
Au 1.62461250 4.86795174 3.53261194
Au 4.87383750 2.29754750 -3.446286690000001 0 0 0
Au 4.87383750 0.00000000 -1.1488518700000014 0 0 0
Au 4.87383750 2.29754750 1.11792538
Au 4.87383750 0.01911560 3.66277212
Au 4.87383750 6.89264250 -3.446286690000001 0 0 0
Au 4.87383750 4.59509500 -1.1488518700000014 0 0 0
Au 4.87383750 6.89264250 1.14105302
Au 4.87383750 4.57597940 3.66277212
C 1.62461250 2.29754750 3.51782101
