&CONTROL
calculation = 'relax'
prefix = 'scf'
pseudo_dir = '/vol0403/data/hp230205/u10028/POT_HYBRID_KKJUS_GBRV'
outdir = './data'
tprnfor = .true.
nstep = 50
disk_io = 'non'
/
&SYSTEM
ibrav = 0
ecutwfc = 50.0
ecutrho = 400
occupations = 'smearing'
smearing = 'mp'
degauss = 0.01
assume_isolated = 'esm'
esm_bc = 'bc1'
input_dft = 'BEEF-VDW'
nosym = .true.
nspin = 1
ntyp = 4
nat = 16
/
&ELECTRONS
electron_maxstep = 200
mixing_beta = 0.1
conv_thr = 1e-06
/
&IONS
ion_dynamics = 'bfgs'
upscale = 1.0
/
&CELL
/

K_POINTS {automatic}
6 6 1 0 0 0

ATOMIC_SPECIES
Ga 69.72 Ga.pbe-dnl-rrkjus_psl.1.0.0.UPF
Pd 106.4 Pd.pbe-n-rrkjus_psl.1.0.0.UPF
Sc 44.95 Sc.pbe-spn-rrkjus_psl.1.0.0.UPF
Y 88.90 Y.pbe-spn-rrkjus_psl.1.0.0.UPF


CELL_PARAMETERS {angstrom}
6.06401000 0.00000000 0.00000000
0.00000000 9.48206000 0.00000000
0.00000000 0.00000000 24.30750000

ATOMIC_POSITIONS {angstrom}
Y 3.03200500 0.00000000 -2.153887570000002 0 0 0
Y 5.09116088 0.00000000 0.71804355
Y 3.03200500 4.74103000 -2.153887570000002 0 0 0
Y 5.09116088 4.74103000 0.71804355
Sc 1.02960826 2.37051500 -0.7180435500000009 0 0 0
Sc 3.08876413 2.37051500 2.15388758
Sc 1.02960826 7.11154500 -0.7180435500000009 0 0 0
Sc 3.08876413 7.11154500 2.15388758
Ga 0.00000000 0.00000000 -2.153887570000002 0 0 0
Ga 2.05915588 0.00000000 0.71804355
Ga 0.00000000 4.74103000 -2.153887570000002 0 0 0
Ga 2.05915588 4.74103000 0.71804355
Pd 4.06161326 2.37051500 -0.7180435500000009 0 0 0
Pd 0.05675913 2.37051500 2.15388758
Pd 4.06161326 7.11154500 -0.7180435500000009 0 0 0
Pd 0.05675913 7.11154500 2.15388758
