&CONTROL
calculation = 'relax'
prefix = 'scf'
pseudo_dir = '/vol0403/data/hp230205/u10028/POT_HYBRID_KKJUS_GBRV'
outdir = './data'
tprnfor = .true.
nstep = 50
disk_io = 'non'
/
&SYSTEM
ibrav = 0
ecutwfc = 50.0
ecutrho = 400
occupations = 'smearing'
smearing = 'mp'
degauss = 0.01
assume_isolated = 'esm'
esm_bc = 'bc1'
input_dft = 'BEEF-VDW'
nosym = .true.
nspin = 1
ntyp = 4
nat = 16
/
&ELECTRONS
electron_maxstep = 200
mixing_beta = 0.1
conv_thr = 1e-06
/
&IONS
ion_dynamics = 'bfgs'
upscale = 1.0
/
&CELL
/

K_POINTS {automatic}
12 7 3 0  0  0

ATOMIC_SPECIES
Ga 69.72 Ga.pbe-dnl-rrkjus_psl.1.0.0.UPF
Pd 106.4 Pd.pbe-n-rrkjus_psl.1.0.0.UPF
Sc 44.95 Sc.pbe-spn-rrkjus_psl.1.0.0.UPF
Y 88.90 Y.pbe-spn-rrkjus_psl.1.0.0.UPF


CELL_PARAMETERS {angstrom}
6.06401000 0.00000000 0.00000000
0.00000000 9.48206000 0.00000000
0.00000000 0.00000000 24.30750000

ATOMIC_POSITIONS {angstrom}
Y 3.03200500 0.00000000 -2.153887570000002 0 0 0
Y 5.06678356 0.00000000 0.76422780
Y 3.03200500 4.74103000 -2.153887570000002 0 0 0
Y 5.06678356 4.74112482 0.76447087
Sc 1.02960826 2.37051500 -0.7180435500000009 0 0 0
Sc 3.04516390 2.37051500 1.87969897
Sc 1.02960826 7.11154500 -0.7180435500000009 0 0 0
Sc 3.04498198 7.11154500 1.87945590
Ga 0.00000000 0.00000000 -2.153887570000002 0 0 0
Ga 2.02453038 0.00028446 0.82086428
Ga 0.00000000 4.74103000 -2.153887570000002 0 0 0
Ga 2.02453038 4.74084036 0.82086428
Pd 4.06161326 2.37051500 -0.7180435500000009 0 0 0
Pd 0.16669963 2.37051500 1.76618295
Pd 4.06161326 7.11154500 -0.7180435500000009 0 0 0
Pd 0.16669963 7.11154500 1.76618295
