&CONTROL
calculation = 'relax'
prefix = 'scf'
pseudo_dir = '/vol0403/data/hp230205/u10028/POT_HYBRID_KKJUS_GBRV'
outdir = './data'
tprnfor = .true.
nstep = 50
disk_io = 'non'
/
&SYSTEM
ibrav = 0
ecutwfc = 50.0
ecutrho = 400
occupations = 'smearing'
smearing = 'mp'
degauss = 0.01
assume_isolated = 'esm'
esm_bc = 'bc1'
input_dft = 'BEEF-VDW'
nosym = .true.
nspin = 1
ntyp = 6
nat = 18
/
&ELECTRONS
electron_maxstep = 200
mixing_beta = 0.1
conv_thr = 1e-06
/
&IONS
ion_dynamics = 'bfgs'
upscale = 1.0
/
&CELL
/

K_POINTS {automatic}
9 9 2 0  0  0

ATOMIC_SPECIES
Al 26.98 Al.pbe-nl-rrkjus_psl.1.0.0.UPF
C 12.01 C.pbe-n-rrkjus_psl.1.0.0.UPF
Li 6.941 Li.pbe-sl-rrkjus_psl.1.0.0.UPF
O 15.99 O.pbe-n-rrkjus_psl.1.0.0.UPF
Pd 106.4 Pd.pbe-n-rrkjus_psl.1.0.0.UPF
Sc 44.95 Sc.pbe-spn-rrkjus_psl.1.0.0.UPF


CELL_PARAMETERS {angstrom}
6.37868000 0.00000000 0.00000000
0.00000000 6.37868000 0.00000000
0.00000000 0.00000000 24.78400000

ATOMIC_POSITIONS {angstrom}
Li 4.76283278 1.57349278 0.82035040
Li 4.78401000 4.78401000 -2.3919038399999977 0 0 0
Li 1.59467000 1.59467000 -2.3919038399999977 0 0 0
Li 1.61584722 4.80518722 0.82035040
Sc 0.00000000 3.18934000 2.46476880
Sc 0.00000000 0.00000000 -0.7973012799999992 0 0 0
Sc 3.18934000 3.18934000 -0.7973012799999992 0 0 0
Sc 3.18927621 0.00006379 2.49153552
Al 0.00000000 6.37861621 2.27665824
Al 0.00000000 3.18934000 -0.7973012799999992 0 0 0
Al 3.18934000 0.00000000 -0.7973012799999992 0 0 0
Al 3.18934000 3.18934000 2.27665824
Pd 1.61431633 1.57502367 0.79779696
Pd 1.59467000 4.78401000 -2.3919038399999977 0 0 0
Pd 4.78401000 1.59467000 -2.3919038399999977 0 0 0
Pd 4.76429988 4.80372012 0.79779696
C 0.00000000 3.18934000 4.78355984
O 0.00000000 3.18934000 5.93229824
