&CONTROL
calculation = 'relax'
prefix = 'scf'
pseudo_dir = '/vol0004/mdt0/data/hp150275/u10028/POT_HYBRID_KKJUS_GBRV'
outdir = './data'
tprnfor = .true.
nstep = 50
disk_io = 'non'
/
&SYSTEM
ibrav = 0
ecutwfc = 50.0
ecutrho = 400
occupations = 'smearing'
smearing = 'mp'
degauss = 0.01
assume_isolated = 'esm'
esm_bc = 'bc1'
input_dft = 'BEEF-VDW'
nosym = .true.
nspin = 2
ntyp = 4
nat = 17
starting_magnetization(1) = 0.1
starting_magnetization(2) = 0.1
starting_magnetization(3) = 0.1
starting_magnetization(4) = 0.1
/
&ELECTRONS
electron_maxstep = 200
mixing_beta = 0.1
conv_thr = 1e-06
/
&IONS
ion_dynamics = 'bfgs'
upscale = 1.0
/
&CELL
/

K_POINTS {automatic}
8 8 1 0 0 0

ATOMIC_SPECIES
C 12.01 C.pbe-n-rrkjus_psl.1.0.0.UPF
Co 58.93 co_pbe_v1.2.uspp.F.UPF
Ge 72.64 Ge.pbe-dn-rrkjus_psl.1.0.0.UPF
Mn 54.93 mn_pbe_v1.5.uspp.F.UPF

CELL_PARAMETERS {angstrom}
5.75846000 0.00000000 0.00000000
-0.00000000 5.75846000 0.00000000
0.00000000 0.00000000 24.31880000

ATOMIC_POSITIONS {angstrom}
Mn 0.00000000 0.00000000 2.15950944
Mn 2.87923000 2.87923000 2.15950944
Mn 2.87923000 0.00000000 -0.7198364799999979 0 0 0
Mn 0.00000000 2.87923000 -0.7198364799999979 0 0 0
Co 1.43961500 1.43961500 0.71983648
Co 4.31884500 4.31884500 -2.159509440000001 0 0 0
Co 4.31884500 1.43961500 0.71983648
Co 1.43961500 4.31884500 -2.159509440000001 0 0 0
Co 4.31884500 4.31884500 0.71983648
Co 1.43961500 1.43961500 -2.159509440000001 0 0 0
Co 1.43961500 4.31884500 0.71983648
Co 4.31884500 1.43961500 -2.159509440000001 0 0 0
Ge 0.00000000 0.00000000 -0.7198364799999979 0 0 0
Ge 2.87923000 -0.00000000 2.15950944
Ge 0.00000000 2.87923000 2.15950944
Ge 2.87923000 2.87923000 -0.7198364799999979 0 0 0
C 1.43961500 1.43961500 2.95935477
