&CONTROL
calculation = 'relax'
prefix = 'scf'
pseudo_dir = '/vol0004/mdt0/data/hp150275/u10028/POT_KKJUS'
outdir = './data'
tprnfor = .true.
nstep = 50
disk_io = 'non'
/
&SYSTEM
ibrav = 0
ecutwfc = 50.0
ecutrho = 400
occupations = 'smearing'
smearing = 'mp'
degauss = 0.01
assume_isolated = 'esm'
esm_bc = 'bc1'
input_dft = 'BEEF-VDW'
nosym = .true.
nspin = 1
ntyp = 4
nat = 33
/
&ELECTRONS
electron_maxstep = 200
mixing_beta = 0.1
conv_thr = 1e-06
/
&IONS
ion_dynamics = 'bfgs'
upscale = 1.0
/
&CELL
/

K_POINTS {automatic}
8 6 1 0 0 0

ATOMIC_SPECIES
Ag 107.8 Ag.pbe-n-rrkjus_psl.1.0.0.UPF
Bi 208.9 Bi.pbe-dn-rrkjus_psl.1.0.0.UPF
C 12.01 C.pbe-n-rrkjus_psl.1.0.0.UPF
Li 6.941 Li.pbe-sl-rrkjus_psl.1.0.0.UPF

CELL_PARAMETERS {angstrom}
6.92564000 0.00000000 0.00000000
0.00000000 9.79433000 0.00000000
0.00000000 0.00000000 27.34580000

ATOMIC_POSITIONS {angstrom}
Li 0.00000000 7.34574750 -1.2242714700000015 0 0 0
Li 3.46282000 0.00000000 -3.6728144 0 0 0
Li 0.00000000 2.44858250 -1.2242714700000015 0 0 0
Li 3.46282000 4.89716500 -3.6728144 0 0 0
Li 1.73141000 0.00000000 -1.2242714700000015 0 0 0
Li 1.73141000 4.89716500 -1.2242714700000015 0 0 0
Li 5.19423000 7.34574750 -3.6728144 0 0 0
Li 5.19423000 2.44858250 -3.6728144 0 0 0
Li 6.88117739 2.55534070 3.36872910
Li 3.53858650 4.89716500 0.98034693
Li 6.88110813 7.23898930 3.36872910
Li 3.05067516 0.00000000 2.13105819
Li 1.95316899 4.89716500 3.29735656
Li 1.47128296 0.00000000 4.54924729
Li 5.00959244 2.32654515 1.28689335
Li 5.00959244 7.46778485 1.28689335
Ag 1.73141000 2.44858250 -3.6728144 0 0 0
Ag 1.73141000 7.34574750 -3.6728144 0 0 0
Ag 5.19423000 4.89716500 -1.2242714700000015 0 0 0
Ag 5.19423000 0.00000000 -1.2242714700000015 0 0 0
Ag 1.92892925 7.25642321 1.33092009
Ag 1.92886000 2.53790679 1.33092009
Ag 5.48102075 0.00000000 3.69359721
Ag 4.94220596 4.89716500 3.36544761
Bi 0.00000000 0.00000000 -3.6728144 0 0 0
Bi 3.46282000 2.44858250 -1.2242714700000015 0 0 0
Bi 3.46282000 7.34574750 -1.2242714700000015 0 0 0
Bi 0.00000000 4.89716500 -3.6728144 0 0 0
Bi 6.90978028 4.89716500 1.21880231
Bi 3.35270232 7.40901887 3.97936082
Bi 3.35263307 2.38550701 3.97936082
Bi 0.12895542 0.00000000 1.34404607
C 3.50728261 0.00019589 4.54159046
