&CONTROL
calculation = 'relax'
prefix = 'scf'
pseudo_dir = '/vol0004/mdt0/data/hp150275/u10028/POT_KKJUS'
outdir = './data'
tprnfor = .true.
nstep = 50
disk_io = 'non'
/
&SYSTEM
ibrav = 0
ecutwfc = 50.0
ecutrho = 400
occupations = 'smearing'
smearing = 'mp'
degauss = 0.01
assume_isolated = 'esm'
esm_bc = 'bc1'
input_dft = 'BEEF-VDW'
nosym = .true.
nspin = 1
ntyp = 5
nat = 18
/
&ELECTRONS
electron_maxstep = 200
mixing_beta = 0.1
conv_thr = 1e-06
/
&IONS
ion_dynamics = 'bfgs'
upscale = 1.0
/
&CELL
/

K_POINTS {automatic}
10 10 2 0  0  0

ATOMIC_SPECIES
C 12.01 C.pbe-n-rrkjus_psl.1.0.0.UPF
Li 6.941 Li.pbe-sl-rrkjus_psl.1.0.0.UPF
Ni 58.69 Ni.pbe-spn-rrkjus_psl.1.0.0.UPF
O 15.99 O.pbe-n-rrkjus_psl.1.0.0.UPF
Sn 118.7 Sn.pbe-dn-rrkjus_psl.1.0.0.UPF

CELL_PARAMETERS {angstrom}
6.05884000 0.00000000 0.00000000
0.00000000 6.05884000 0.00000000
0.00000000 0.00000000 24.54410000

ATOMIC_POSITIONS {angstrom}
Li 0.00000000 0.00000000 -2.2720473400000003 0 0 0
Li 3.02942000 3.02942000 -2.2720473400000003 0 0 0
Li 3.03263119 6.05629529 0.80161031
Li 6.05623470 3.03293413 0.80185575
Ni 1.51471000 1.51471000 -0.7574309300000017 0 0 0
Ni 4.53758645 4.53704116 2.19620607
Ni 4.54413000 1.51471000 -0.7574309300000017 0 0 0
Ni 1.52331355 4.53970705 2.20945988
Ni 4.54413000 4.54413000 -0.7574309300000017 0 0 0
Ni 1.52543415 1.52622180 2.30616364
Ni 1.51471000 4.54413000 -0.7574309300000017 0 0 0
Ni 4.53716233 1.52264708 2.20749635
Sn 6.05847647 6.05811294 0.78737473
Sn 3.02942000 0.00000000 -2.2720473400000003 0 0 0
Sn 0.00000000 3.02942000 -2.2720473400000003 0 0 0
Sn 3.02875353 3.03014706 0.77043930
C 1.51301352 1.51361941 4.07481148
O 1.50907528 1.50883293 5.22887506
