&CONTROL
calculation = 'relax'
prefix = 'scf'
pseudo_dir = '/vol0403/data/hp230205/u10028/POT_HYBRID_KKJUS_GBRV'
outdir = './data'
tprnfor = .true.
nstep = 50
disk_io = 'non'
/
&SYSTEM
ibrav = 0
ecutwfc = 50.0
ecutrho = 400
occupations = 'smearing'
smearing = 'mp'
degauss = 0.01
assume_isolated = 'esm'
esm_bc = 'bc1'
input_dft = 'BEEF-VDW'
nosym = .true.
nspin = 1
ntyp = 6
nat = 34
/
&ELECTRONS
electron_maxstep = 200
mixing_beta = 0.1
conv_thr = 1e-06
/
&IONS
ion_dynamics = 'bfgs'
upscale = 1.0
/
&CELL
/

K_POINTS {automatic}
6 6 1 0 0 0

ATOMIC_SPECIES
C 12.01 C.pbe-n-rrkjus_psl.1.0.0.UPF
Ge 72.64 Ge.pbe-dn-rrkjus_psl.1.0.0.UPF
Li 6.941 Li.pbe-sl-rrkjus_psl.1.0.0.UPF
O 15.99 O.pbe-n-rrkjus_psl.1.0.0.UPF
Pb 207.2 Pb.pbe-dn-rrkjus_psl.1.0.0.UPF
Y 88.90 Y.pbe-spn-rrkjus_psl.1.0.0.UPF


CELL_PARAMETERS {angstrom}
8.55406000 0.00000000 0.00000000
0.00000000 8.65500000 0.00000000
0.00000000 0.00000000 27.39600000

ATOMIC_POSITIONS {angstrom}
Li 2.13851500 0.01635795 1.35500616
Li 2.13851500 0.00000000 -3.697912080000002 0 0 0
Li 2.13851500 4.31114205 1.35500616
Li 2.13851500 4.32750000 -3.697912080000002 0 0 0
Li 6.41554500 0.00848190 1.35089676
Li 6.41554500 0.00000000 -3.697912080000002 0 0 0
Li 6.41554500 4.31901810 1.35089676
Li 6.41554500 4.32750000 -3.697912080000002 0 0 0
Y 2.13851500 2.16375000 3.78722304
Y 2.13851500 2.16375000 -1.2325460400000026 0 0 0
Y 2.13851500 6.49125000 3.72722580
Y 2.13851500 6.49125000 -1.2325460400000026 0 0 0
Y 6.41554500 2.16375000 3.74147172
Y 6.41554500 2.16375000 -1.2325460400000026 0 0 0
Y 6.41554500 6.49125000 3.73544460
Y 6.41554500 6.49125000 -1.2325460400000026 0 0 0
Ge 8.54884202 8.64530640 3.59572500
Ge 0.00000000 0.00000000 -1.2325460400000026 0 0 0
Ge 8.54884202 4.33719360 3.59572500
Ge 0.00000000 4.32750000 -1.2325460400000026 0 0 0
Ge 4.28224798 8.64530640 3.59572500
Ge 4.27703000 0.00000000 -1.2325460400000026 0 0 0
Ge 4.28224798 4.33719360 3.59572500
Ge 4.27703000 4.32750000 -1.2325460400000026 0 0 0
Pb 0.01120582 2.16375000 1.28514636
Pb 0.00000000 2.16375000 -3.697912080000002 0 0 0
Pb 0.00573122 6.49125000 1.27117440
Pb 0.00000000 6.49125000 -3.697912080000002 0 0 0
Pb 4.26582418 2.16375000 1.28514636
Pb 4.27703000 2.16375000 -3.697912080000002 0 0 0
Pb 4.27129878 6.49125000 1.27117440
Pb 4.27703000 6.49125000 -3.697912080000002 0 0 0
C 2.13851500 2.16375000 6.27971112
O 2.13851500 2.16375000 7.42924728
