&CONTROL
calculation = 'relax'
prefix = 'scf'
pseudo_dir = '/vol0004/mdt0/data/hp150275/u10028/POT_KKJUS'
outdir = './data'
tprnfor = .true.
nstep = 50
disk_io = 'non'
/
&SYSTEM
ibrav = 0
ecutwfc = 50.0
ecutrho = 400
occupations = 'smearing'
smearing = 'mp'
degauss = 0.01
assume_isolated = 'esm'
esm_bc = 'bc1'
input_dft = 'BEEF-VDW'
nosym = .true.
nspin = 1
ntyp = 4
nat = 34
/
&ELECTRONS
electron_maxstep = 200
mixing_beta = 0.1
conv_thr = 1e-06
/
&IONS
ion_dynamics = 'bfgs'
upscale = 1.0
/
&CELL
/

K_POINTS {automatic}
8 6 2 0  0  0

ATOMIC_SPECIES
C 12.01 C.pbe-n-rrkjus_psl.1.0.0.UPF
Mg 24.30 Mg.pbe-spnl-rrkjus_psl.1.0.0.UPF
O 15.99 O.pbe-n-rrkjus_psl.1.0.0.UPF
Y 88.90 Y.pbe-spn-rrkjus_psl.1.0.0.UPF

CELL_PARAMETERS {angstrom}
7.58049000 0.00000000 0.00000000
0.00000000 10.72040000 0.00000000
0.00000000 0.00000000 28.04030000

ATOMIC_POSITIONS {angstrom}
Y 0.00000000 0.00000000 -4.020137809999998 0 0 0
Y 0.00000000 2.68010000 -1.3400459399999995 0 0 0
Y 0.00000000 5.37821027 1.35630931
Y 0.00000000 2.68449536 3.78123445
Y 0.00000000 5.36020000 -4.020137809999998 0 0 0
Y 0.00000000 8.04030000 -1.3400459399999995 0 0 0
Y 0.00000000 10.70389058 1.35602891
Y 0.00000000 8.04501698 3.83731505
Y 3.79024500 0.00000000 -4.020137809999998 0 0 0
Y 3.79024500 2.68010000 -1.3400459399999995 0 0 0
Y 3.79024500 5.36480977 1.40481903
Y 3.79024500 2.68503138 3.91751031
Y 3.79024500 5.36020000 -4.020137809999998 0 0 0
Y 3.79024500 8.04030000 -1.3400459399999995 0 0 0
Y 3.79024500 10.71600464 1.40453863
Y 3.79024500 8.04469536 3.85021359
Mg 1.89512250 2.68010000 -4.020137809999998 0 0 0
Mg 1.89512250 0.00000000 -1.3400459399999995 0 0 0
Mg 1.93507168 2.67559743 1.24442851
Mg 1.86783274 5.34562026 4.10369790
Mg 1.89512250 8.04030000 -4.020137809999998 0 0 0
Mg 1.89512250 5.36020000 -1.3400459399999995 0 0 0
Mg 1.90490133 8.04340892 1.27218841
Mg 1.86806015 0.02787304 4.10285670
Mg 5.68536750 2.68010000 -4.020137809999998 0 0 0
Mg 5.68536750 0.00000000 -1.3400459399999995 0 0 0
Mg 5.64541832 2.67559743 1.24442851
Mg 5.71265726 5.34562026 4.10369790
Mg 5.68536750 8.04030000 -4.020137809999998 0 0 0
Mg 5.68536750 5.36020000 -1.3400459399999995 0 0 0
Mg 5.67558867 8.04340892 1.27218841
Mg 5.71242985 0.02787304 4.10285670
C 0.00000000 2.67227411 6.20475758
O 0.00000000 2.67013003 7.36310238
