&CONTROL
calculation = 'relax'
prefix = 'scf'
pseudo_dir = '/vol0403/data/hp230205/u10028/POT_HYBRID_KKJUS_GBRV'
outdir = './data'
tprnfor = .true.
nstep = 50
disk_io = 'non'
/
&SYSTEM
ibrav = 0
ecutwfc = 50.0
ecutrho = 400
occupations = 'smearing'
smearing = 'mp'
degauss = 0.01
assume_isolated = 'esm'
esm_bc = 'bc1'
input_dft = 'BEEF-VDW'
nosym = .true.
nspin = 1
ntyp = 6
nat = 18
/
&ELECTRONS
electron_maxstep = 200
mixing_beta = 0.1
conv_thr = 1e-06
/
&IONS
ion_dynamics = 'bfgs'
upscale = 1.0
/
&CELL
/

K_POINTS {automatic}
6 6 1 0 0 0

ATOMIC_SPECIES
C 12.01 C.pbe-n-rrkjus_psl.1.0.0.UPF
Ge 72.64 Ge.pbe-dn-rrkjus_psl.1.0.0.UPF
Li 6.941 Li.pbe-sl-rrkjus_psl.1.0.0.UPF
O 15.99 O.pbe-n-rrkjus_psl.1.0.0.UPF
Pb 207.2 Pb.pbe-dn-rrkjus_psl.1.0.0.UPF
Y 88.90 Y.pbe-spn-rrkjus_psl.1.0.0.UPF


CELL_PARAMETERS {angstrom}
6.52719000 0.00000000 0.00000000
0.00000000 8.65500000 0.00000000
0.00000000 0.00000000 24.84630000

ATOMIC_POSITIONS {angstrom}
Li 3.17332396 8.65240350 2.99596685
Li 6.06617457 0.00000000 -0.8077532099999978 0 0 0
Li 3.70280962 4.32654795 2.89782397
Li 6.06617457 4.32750000 -0.8077532099999978 0 0 0
Y 1.48637171 2.27998665 0.82936949
Y 4.20390199 2.16375000 -2.4232596399999977 0 0 0
Y 1.48591480 6.37077240 0.82912103
Y 4.20390199 6.49125000 -2.4232596399999977 0 0 0
Ge 0.51584383 8.65456725 2.40114643
Ge 2.80257957 0.00000000 -0.8077532099999978 0 0 0
Ge 6.38365709 4.32715380 2.15715577
Ge 2.80257957 4.32750000 -0.8077532099999978 0 0 0
Pb 4.66158855 2.21377590 1.08503792
Pb 0.94030699 2.16375000 -2.4232596399999977 0 0 0
Pb 4.66400361 6.44079135 1.08727409
Pb 0.94030699 6.49125000 -2.4232596399999977 0 0 0
C 5.57454662 8.65015320 3.52593843
O 4.66805047 8.65015320 4.31033612
