&CONTROL
calculation = 'relax'
prefix = 'scf'
pseudo_dir = '/vol0004/mdt0/data/hp150275/u10028/POT_KKJUS'
outdir = './data'
tprnfor = .true.
nstep = 50
disk_io = 'non'
/
&SYSTEM
ibrav = 0
ecutwfc = 50.0
ecutrho = 400
occupations = 'smearing'
smearing = 'mp'
degauss = 0.01
assume_isolated = 'esm'
esm_bc = 'bc1'
input_dft = 'BEEF-VDW'
nosym = .true.
nspin = 1
ntyp = 4
nat = 33
/
&ELECTRONS
electron_maxstep = 200
mixing_beta = 0.1
conv_thr = 1e-06
/
&IONS
ion_dynamics = 'bfgs'
upscale = 1.0
/
&CELL
/

K_POINTS {automatic}
9 6 2 0  0  0

ATOMIC_SPECIES
C 12.01 C.pbe-n-rrkjus_psl.1.0.0.UPF
Li 6.941 Li.pbe-sl-rrkjus_psl.1.0.0.UPF
Pd 106.4 Pd.pbe-n-rrkjus_psl.1.0.0.UPF
Sb 121.7 Sb.pbe-n-rrkjus_psl.1.0.0.UPF

CELL_PARAMETERS {angstrom}
6.43375000 0.00000000 0.00000000
0.00000000 9.09870000 0.00000000
0.00000000 0.00000000 26.82400000

ATOMIC_POSITIONS {angstrom}
Li 0.00000000 6.82402500 -1.1373376000000022 0 0 0
Li 3.21687500 0.00000000 -3.412012800000003 0 0 0
Li 0.00000000 2.27467500 -1.1373376000000022 0 0 0
Li 3.21687500 4.54935000 -3.412012800000003 0 0 0
Li 1.60843750 2.27467500 -3.412012800000003 0 0 0
Li 1.60843750 6.82402500 -3.412012800000003 0 0 0
Li 4.82531250 4.54935000 -1.1373376000000022 0 0 0
Li 4.82531250 0.00000000 -1.1373376000000022 0 0 0
Li 6.28718917 2.27467500 3.20117616
Li 3.27812430 4.66226487 1.01984848
Li 0.27948210 6.82402500 3.31812880
Li 3.27812430 8.98578513 1.01984848
Li 1.62915418 6.82402500 1.06679048
Li 1.86385738 2.27467500 1.36104976
Li 4.71445899 8.87978528 3.37070384
Li 4.71452333 4.76826472 3.37070384
Sb 0.00000000 0.00000000 -3.412012800000003 0 0 0
Sb 3.21687500 2.27467500 -1.1373376000000022 0 0 0
Sb 3.21687500 6.82402500 -1.1373376000000022 0 0 0
Sb 0.00000000 4.54935000 -3.412012800000003 0 0 0
Sb 0.01441160 4.50567624 1.18374312
Sb 3.00809981 6.82402500 3.50831096
Sb 3.74437816 2.27467500 4.13894320
Sb 0.01441160 0.04367376 1.18374312
Pd 1.60843750 0.00000000 -1.1373376000000022 0 0 0
Pd 1.60843750 4.54935000 -1.1373376000000022 0 0 0
Pd 4.82531250 6.82402500 -3.412012800000003 0 0 0
Pd 4.82531250 2.27467500 -3.412012800000003 0 0 0
Pd 1.83342574 4.30177437 3.21136928
Pd 1.83342574 0.24757563 3.21136928
Pd 4.79089194 2.27467500 1.06813168
Pd 4.91017366 6.82402500 1.29908632
C 1.74123010 2.27467500 3.63626144
