&CONTROL
calculation = 'relax'
prefix = 'scf'
pseudo_dir = '/vol0403/data/hp230205/u10028/POT_HYBRID_KKJUS_GBRV'
outdir = './data'
tprnfor = .true.
nstep = 50
disk_io = 'non'
/
&SYSTEM
ibrav = 0
ecutwfc = 50.0
ecutrho = 400
occupations = 'smearing'
smearing = 'mp'
degauss = 0.01
assume_isolated = 'esm'
esm_bc = 'bc1'
input_dft = 'BEEF-VDW'
nosym = .true.
nspin = 1
ntyp = 5
nat = 17
/
&ELECTRONS
electron_maxstep = 200
mixing_beta = 0.1
conv_thr = 1e-06
/
&IONS
ion_dynamics = 'bfgs'
upscale = 1.0
/
&CELL
/

K_POINTS {automatic}
8 11 2 0  0  0

ATOMIC_SPECIES
C 12.01 C.pbe-n-rrkjus_psl.1.0.0.UPF
In 114.8 In.pbe-dn-rrkjus_psl.1.0.0.UPF
Li 6.941 Li.pbe-sl-rrkjus_psl.1.0.0.UPF
Pb 207.2 Pb.pbe-dn-rrkjus_psl.1.0.0.UPF
Y 88.90 Y.pbe-spn-rrkjus_psl.1.0.0.UPF


CELL_PARAMETERS {angstrom}
9.00122000 0.00000000 0.00000000
0.00000000 6.63002000 0.00000000
0.00000000 0.00000000 24.97230000

ATOMIC_POSITIONS {angstrom}
Li 2.25039501 1.81304527 0.88302053
Li 2.25030500 4.92245835 -2.4862421900000022 0 0 0
Li 6.75082499 1.59120480 1.05957469
Li 6.75091500 4.92245835 -2.4862421900000022 0 0 0
Y 2.25012498 5.09225316 0.79861415
Y 2.25030500 1.60744835 -2.4862421900000022 0 0 0
Y 6.75100501 4.98524464 0.94470211
Y 6.75091500 1.60744835 -2.4862421900000022 0 0 0
In 0.06570891 0.18703286 2.56465521
In 0.00000000 3.28159470 -0.8288306399999996 0 0 0
In 4.43472107 0.18743067 2.56465521
In 4.50061000 3.28159470 -0.8288306399999996 0 0 0
Pb 0.30586146 3.32263452 2.76418389
Pb 0.00000000 6.59660470 -0.8288306399999996 0 0 0
Pb 4.19564867 3.32309862 2.76393416
Pb 4.50061000 6.59660470 -0.8288306399999996 0 0 0
C 2.25012498 0.16044648 2.27148041
