&CONTROL
calculation = 'relax'
prefix = 'scf'
pseudo_dir = '/vol0004/mdt0/data/hp150275/u10028/POT_KKJUS'
outdir = './data'
tprnfor = .true.
nstep = 50
disk_io = 'non'
/
&SYSTEM
ibrav = 0
ecutwfc = 50.0
ecutrho = 400
occupations = 'smearing'
smearing = 'mp'
degauss = 0.01
assume_isolated = 'esm'
esm_bc = 'bc1'
input_dft = 'BEEF-VDW'
nosym = .true.
nspin = 1
ntyp = 3
nat = 32
/
&ELECTRONS
electron_maxstep = 200
mixing_beta = 0.1
conv_thr = 1e-06
/
&IONS
ion_dynamics = 'bfgs'
upscale = 1.0
/
&CELL
/

K_POINTS {automatic}
8 6 1 0 0 0

ATOMIC_SPECIES
Ag 107.8 Ag.pbe-n-rrkjus_psl.1.0.0.UPF
In 114.8 In.pbe-dn-rrkjus_psl.1.0.0.UPF
Li 6.941 Li.pbe-sl-rrkjus_psl.1.0.0.UPF

CELL_PARAMETERS {angstrom}
6.67495000 0.00000000 0.00000000
0.00000000 9.43981000 0.00000000
0.00000000 0.00000000 27.07990000

ATOMIC_POSITIONS {angstrom}
Li 0.00000000 7.07985750 -1.179871239999997 0 0 0
Li 3.33747500 0.00000000 -3.5398845299999984 0 0 0
Li 0.00000000 2.35995250 -1.179871239999997 0 0 0
Li 3.33747500 4.71990500 -3.5398845299999984 0 0 0
Li 1.66873750 0.00000000 -1.179871239999997 0 0 0
Li 1.66873750 4.71990500 -1.179871239999997 0 0 0
Li 5.00621250 7.07985750 -3.5398845299999984 0 0 0
Li 5.00621250 2.35995250 -3.5398845299999984 0 0 0
Li 6.56120885 2.35995250 3.45810323
Li 3.29782580 4.71990500 1.02795300
Li 6.56120885 7.07985750 3.45810323
Li 3.29775905 0.00000000 1.02795300
Li 1.78067641 4.71990500 3.46081122
Li 1.78067641 0.00000000 3.46081122
Li 4.94033074 2.35995250 1.20315996
Li 4.94033074 7.07985750 1.20315996
In 0.00000000 0.00000000 -3.5398845299999984 0 0 0
In 3.33747500 2.35995250 -1.179871239999997 0 0 0
In 3.33747500 7.07985750 -1.179871239999997 0 0 0
In 0.00000000 4.71990500 -3.5398845299999984 0 0 0
In 0.03858121 4.71990500 1.14114699
In 3.35009066 7.07985750 3.78549922
In 3.35002391 2.35995250 3.78549922
In 0.03858121 0.00000000 1.14114699
Ag 1.66873750 2.35995250 -3.5398845299999984 0 0 0
Ag 1.66873750 7.07985750 -3.5398845299999984 0 0 0
Ag 5.00621250 4.71990500 -1.179871239999997 0 0 0
Ag 5.00621250 0.00000000 -1.179871239999997 0 0 0
Ag 1.73288377 7.07985750 1.27790048
Ag 1.73288377 2.35995250 1.27790048
Ag 4.85963060 0.00000000 3.30266460
Ag 4.85963060 4.71990500 3.30266460
