&CONTROL
calculation = 'relax'
prefix = 'scf'
pseudo_dir = '/vol0403/data/hp230205/u10028/POT_HYBRID_KKJUS_GBRV'
outdir = './data'
tprnfor = .true.
nstep = 70
disk_io = 'non'
/
&SYSTEM
ibrav = 0
ecutwfc = 50.0
ecutrho = 400
occupations = 'smearing'
smearing = 'mp'
degauss = 0.01
assume_isolated = 'esm'
esm_bc = 'bc1'
input_dft = 'BEEF-VDW'
nosym = .true.
nspin = 1
ntyp = 4
nat = 16
/
&ELECTRONS
electron_maxstep = 200
mixing_beta = 0.1
conv_thr = 1e-06
/
&IONS
ion_dynamics = 'bfgs'
upscale = 1.0
/
&CELL
/

K_POINTS {automatic}
8 10 2 0  0  0

ATOMIC_SPECIES
Ge 72.64 Ge.pbe-dn-rrkjus_psl.1.0.0.UPF
In 114.8 In.pbe-dn-rrkjus_psl.1.0.0.UPF
Pd 106.4 Pd.pbe-n-rrkjus_psl.1.0.0.UPF
Y 88.90 Y.pbe-spn-rrkjus_psl.1.0.0.UPF


CELL_PARAMETERS {angstrom}
7.93684000 0.00000000 0.00000000
-0.00000000 6.48113000 0.00000000
0.00000000 0.00000000 24.85120000

ATOMIC_POSITIONS {angstrom}
Y 1.98421000 1.51813989 0.80840954
Y 1.98421000 4.55435486 -2.42547712 0 0 0
Y 5.95263000 1.51813989 0.80840954
Y 5.95263000 4.55435486 -2.42547712 0 0 0
In 1.98421000 4.75870489 0.80840954
In 1.98421000 1.31378986 -2.42547712 0 0 0
In 5.95263000 4.75870489 0.80840954
In 5.95263000 1.31378986 -2.42547712 0 0 0
Ge 0.00000000 0.00000000 2.42547712
Ge 0.00000000 3.03621497 -0.8084095399999995 0 0 0
Ge 3.96842000 -0.00000000 2.42547712
Ge 3.96842000 3.03621497 -0.8084095399999995 0 0 0
Pd 0.00000000 3.24056500 2.42547712
Pd 0.00000000 6.27677997 -0.8084095399999995 0 0 0
Pd 3.96842000 3.24056500 2.42547712
Pd 3.96842000 6.27677997 -0.8084095399999995 0 0 0
