&CONTROL
calculation = 'relax'
prefix = 'scf'
pseudo_dir = '/vol0004/mdt0/data/hp150275/u10028/POT_KKJUS'
outdir = './data'
tprnfor = .true.
nstep = 50
disk_io = 'non'
/
&SYSTEM
ibrav = 0
ecutwfc = 50.0
ecutrho = 400
occupations = 'smearing'
smearing = 'mp'
degauss = 0.01
assume_isolated = 'esm'
esm_bc = 'bc1'
input_dft = 'BEEF-VDW'
nosym = .true.
nspin = 1
ntyp = 4
nat = 18
/
&ELECTRONS
electron_maxstep = 200
mixing_beta = 0.1
conv_thr = 1e-06
/
&IONS
ion_dynamics = 'bfgs'
upscale = 1.0
/
&CELL
/

K_POINTS {automatic}
6 8 1 0 0 0

ATOMIC_SPECIES
C 12.01 C.pbe-n-rrkjus_psl.1.0.0.UPF
K 39.09 K.pbe-spn-rrkjus_psl.1.0.0.UPF
O 15.99 O.pbe-n-rrkjus_psl.1.0.0.UPF
Pd 106.4 Pd.pbe-n-rrkjus_psl.1.0.0.UPF

CELL_PARAMETERS {angstrom}
11.07580000 0.00000000 0.00000000
0.00000000 7.83179000 0.00000000
0.00000000 0.00000000 25.87380000

ATOMIC_POSITIONS {angstrom}
K 0.00000000 3.91589500 -2.936935039999998 0 0 0
K 2.76895000 5.87384250 -0.9790645900000001 0 0 0
K 2.76895000 1.95794750 -0.9790645900000001 0 0 0
K 0.08351153 7.76717773 0.77854264
K 2.76651332 3.73255280 2.44352167
K 2.74879204 7.57193121 4.52481014
K 5.53790000 3.91589500 -2.936935039999998 0 0 0
K 8.30685000 5.87384250 -0.9790645900000001 0 0 0
K 8.30685000 1.95794750 -0.9790645900000001 0 0 0
K 5.45549605 7.76890073 0.79225576
K 8.32922312 2.07996679 3.05802442
K 8.31836883 5.67154736 3.05931811
Pd 0.00000000 0.00000000 -2.936935039999998 0 0 0
Pd 10.95064346 3.91425032 0.48435754
Pd 5.53790000 0.00000000 -2.936935039999998 0 0 0
Pd 5.65696485 3.91503350 0.47918278
C 2.74757371 3.11877541 5.41616255
O 2.74314339 3.04774108 6.57220394
