&CONTROL
calculation = 'relax'
prefix = 'scf'
pseudo_dir = '/vol0004/mdt0/data/hp150275/u10028/POT_KKJUS'
outdir = './data'
tprnfor = .true.
nstep = 50
disk_io = 'non'
/
&SYSTEM
ibrav = 0
ecutwfc = 50.0
ecutrho = 400
occupations = 'smearing'
smearing = 'mp'
degauss = 0.01
assume_isolated = 'esm'
esm_bc = 'bc1'
input_dft = 'BEEF-VDW'
nosym = .true.
nspin = 1
ntyp = 4
nat = 17
/
&ELECTRONS
electron_maxstep = 200
mixing_beta = 0.1
conv_thr = 1e-06
/
&IONS
ion_dynamics = 'bfgs'
upscale = 1.0
/
&CELL
/

K_POINTS {automatic}
8 8 1 0 0 0

ATOMIC_SPECIES
Al 26.98 Al.pbe-nl-rrkjus_psl.1.0.0.UPF
C 12.01 C.pbe-n-rrkjus_psl.1.0.0.UPF
Li 6.941 Li.pbe-sl-rrkjus_psl.1.0.0.UPF
Pt 195.0 Pt.pbe-n-rrkjus_psl.1.0.0.UPF

CELL_PARAMETERS {angstrom}
6.07419000 0.00000000 0.00000000
0.00000000 6.07419000 0.00000000
0.00000000 0.00000000 24.55560000

ATOMIC_POSITIONS {angstrom}
Li 0.00000000 0.00000000 0.92181722
Li 3.03709500 0.00000000 -2.2777774599999994 0 0 0
Li 0.00000000 3.03709500 -2.2777774599999994 0 0 0
Li 3.03709500 3.03709500 0.91887055
Li 1.51854750 1.51854750 -0.7592591499999983 0 0 0
Li 1.57637379 4.61267914 2.94347977
Li 4.55564250 4.55564250 -0.7592591499999983 0 0 0
Li 4.49781621 1.46151086 2.94347977
Al 0.00000000 0.00000000 -2.2777774599999994 0 0 0
Al 3.03709500 3.03709500 -2.2777774599999994 0 0 0
Al 3.03709500 0.00000000 0.96110618
Al 0.00000000 3.03709500 0.64532117
Pt 1.37003355 1.66529993 2.24094406
Pt 1.51854750 4.55564250 -0.7592591499999983 0 0 0
Pt 4.70415645 4.40889007 2.24094406
Pt 4.55564250 1.51854750 -0.7592591499999983 0 0 0
C 0.00000000 3.03709500 2.77846614
