&CONTROL
calculation = 'relax'
prefix = 'scf'
pseudo_dir = '/vol0403/data/hp230205/u10028/POT_HYBRID_KKJUS_GBRV'
outdir = './data'
tprnfor = .true.
nstep = 50
disk_io = 'non'
/
&SYSTEM
ibrav = 0
ecutwfc = 50.0
ecutrho = 400
occupations = 'smearing'
smearing = 'mp'
degauss = 0.01
assume_isolated = 'esm'
esm_bc = 'bc1'
input_dft = 'BEEF-VDW'
nosym = .true.
nspin = 1
ntyp = 6
nat = 18
/
&ELECTRONS
electron_maxstep = 200
mixing_beta = 0.1
conv_thr = 1e-06
/
&IONS
ion_dynamics = 'bfgs'
upscale = 1.0
/
&CELL
/

K_POINTS {automatic}
8 11 2 0  0  0

ATOMIC_SPECIES
C 12.01 C.pbe-n-rrkjus_psl.1.0.0.UPF
Ge 72.64 Ge.pbe-dn-rrkjus_psl.1.0.0.UPF
In 114.8 In.pbe-dn-rrkjus_psl.1.0.0.UPF
Li 6.941 Li.pbe-sl-rrkjus_psl.1.0.0.UPF
Mg 24.30 Mg.pbe-spnl-rrkjus_psl.1.0.0.UPF
O 15.99 O.pbe-n-rrkjus_psl.1.0.0.UPF


CELL_PARAMETERS {angstrom}
8.41850000 0.00000000 0.00000000
0.00000000 6.06838000 0.00000000
0.00000000 0.00000000 24.54770000

ATOMIC_POSITIONS {angstrom}
Li 0.00000000 3.03419000 -2.2738534500000007 0 0 0
Li 0.00050511 5.74657381 0.77595280
Li 4.20925000 3.03419000 -2.2738534500000007 0 0 0
Li 4.20874489 5.74657381 0.77595280
Mg 2.10462500 1.45689667 -0.7580329799999994 0 0 0
Mg 2.10479337 3.93437349 2.30355617
Mg 6.31387500 1.45689667 -0.7580329799999994 0 0 0
Mg 6.31395918 3.92357177 2.27925394
In 2.10462500 4.49108667 -0.7580329799999994 0 0 0
In 2.10470918 0.88671169 2.69730128
In 6.31387500 4.49108667 -0.7580329799999994 0 0 0
In 6.31395918 0.88719716 2.74688763
Ge 0.00000000 0.00000000 -2.2738534500000007 0 0 0
Ge 0.00749247 2.42061610 1.24972341
Ge 4.20925000 0.00000000 -2.2738534500000007 0 0 0
Ge 4.20192591 2.42061610 1.24996888
C 2.10462500 2.04012867 6.18405658
O 2.10445663 1.17150076 6.91655995
