&CONTROL
calculation = 'relax'
prefix = 'scf'
pseudo_dir = '/vol0004/mdt0/data/hp150275/u10028/POT_HYBRID_KKJUS_GBRV'
outdir = './data'
tprnfor = .true.
nstep = 50
disk_io = 'non'
/
&SYSTEM
ibrav = 0
ecutwfc = 50.0
ecutrho = 400
occupations = 'smearing'
smearing = 'mp'
degauss = 0.01
assume_isolated = 'esm'
esm_bc = 'bc1'
input_dft = 'BEEF-VDW'
nosym = .true.
nspin = 2
ntyp = 5
nat = 18
starting_magnetization(1) = 0.0
starting_magnetization(2) = 0.001
starting_magnetization(3) = 0.0
starting_magnetization(4) = 0.0
starting_magnetization(5) = 0.0
/
&ELECTRONS
electron_maxstep = 200
mixing_beta = 0.1
conv_thr = 1e-06
/
&IONS
ion_dynamics = 'bfgs'
upscale = 1.0
/
&CELL
/

K_POINTS {automatic}
10 10 2 0  0  0

ATOMIC_SPECIES
C 12.01 C.pbe-n-rrkjus_psl.1.0.0.UPF
Ni 58.69 ni_pbe_v1.4.uspp.F.UPF
O 15.99 O.pbe-n-rrkjus_psl.1.0.0.UPF
Sn 118.7 Sn.pbe-dn-rrkjus_psl.1.0.0.UPF
V 50.94 V.pbe-spnl-rrkjus_psl.1.0.0.UPF

CELL_PARAMETERS {angstrom}
6.09179000 0.00000000 0.00000000
0.00000000 6.09179000 0.00000000
0.00000000 0.00000000 24.56880000

ATOMIC_POSITIONS {angstrom}
V 0.00000000 0.00000000 2.28440702
V 3.04589500 3.04589500 2.28440702
V 3.04589500 0.00000000 23.80741289
V 0.00000000 3.04589500 23.80741289
Ni 1.52294750 1.52294750 0.76138711
Ni 4.56884250 4.56884250 22.28439298
Ni 4.56884250 1.52294750 0.76138711
Ni 1.52294750 4.56884250 22.28439298
Ni 4.56884250 4.56884250 0.76138711
Ni 1.52294750 1.52294750 22.28439298
Ni 1.52294750 4.56884250 0.76138711
Ni 4.56884250 1.52294750 22.28439298
Sn 0.00000000 0.00000000 23.80741289
Sn 3.04589500 0.00000000 2.28440702
Sn 0.00000000 3.04589500 2.28440702
Sn 3.04589500 3.04589500 23.80741289
C 0.00000000 0.00000000 4.18431233
O 0.00000000 0.00000000 5.33437786
