&CONTROL
calculation = 'relax'
prefix = 'scf'
pseudo_dir = '/vol0403/data/hp230205/u10028/POT_HYBRID_KKJUS_GBRV'
outdir = './data'
tprnfor = .true.
nstep = 50
disk_io = 'non'
/
&SYSTEM
ibrav = 0
ecutwfc = 50.0
ecutrho = 400
occupations = 'smearing'
smearing = 'mp'
degauss = 0.01
assume_isolated = 'esm'
esm_bc = 'bc1'
input_dft = 'BEEF-VDW'
nosym = .true.
nspin = 1
ntyp = 6
nat = 18
/
&ELECTRONS
electron_maxstep = 200
mixing_beta = 0.1
conv_thr = 1e-06
/
&IONS
ion_dynamics = 'bfgs'
upscale = 1.0
/
&CELL
/

K_POINTS {automatic}
9 9 2 0  0  0

ATOMIC_SPECIES
C 12.01 C.pbe-n-rrkjus_psl.1.0.0.UPF
In 114.8 In.pbe-dn-rrkjus_psl.1.0.0.UPF
Mg 24.30 Mg.pbe-spnl-rrkjus_psl.1.0.0.UPF
O 15.99 O.pbe-n-rrkjus_psl.1.0.0.UPF
Pd 106.4 Pd.pbe-n-rrkjus_psl.1.0.0.UPF
Y 88.90 Y.pbe-spn-rrkjus_psl.1.0.0.UPF


CELL_PARAMETERS {angstrom}
6.99626000 0.00000000 0.00000000
0.00000000 6.99626000 0.00000000
0.00000000 0.00000000 25.24720000

ATOMIC_POSITIONS {angstrom}
Y 5.24719500 1.74906500 -0.8745630099999993 0 0 0
Y 5.24719500 5.24719500 2.94458094
Y 1.74906500 1.74906500 2.53128427
Y 1.74906500 5.24719500 -0.8745630099999993 0 0 0
Mg 1.74906500 1.74906500 -0.8745630099999993 0 0 0
Mg 1.74906500 5.24719500 2.65120847
Mg 5.24719500 1.74906500 2.65146094
Mg 5.24719500 5.24719500 -0.8745630099999993 0 0 0
In 0.00000000 0.00000000 -2.6236890200000005 0 0 0
In 6.88851760 3.60587240 1.03109565
In 3.60594237 6.88851760 1.03109565
In 3.49813000 3.49813000 -2.6236890200000005 0 0 0
Pd 0.00000000 3.49813000 -2.6236890200000005 0 0 0
Pd 6.82205313 6.82205313 1.04195194
Pd 3.67233687 3.67233687 1.04195194
Pd 3.49813000 0.00000000 -2.6236890200000005 0 0 0
C 1.74906500 1.74906500 5.00096538
O 1.74906500 1.74906500 6.15450994
