&CONTROL
calculation = 'relax'
prefix = 'scf'
pseudo_dir = '/vol0403/data/hp230205/u10028/POT_HYBRID_KKJUS_GBRV'
outdir = './data'
tprnfor = .true.
nstep = 50
disk_io = 'non'
/
&SYSTEM
ibrav = 0
ecutwfc = 50.0
ecutrho = 400
occupations = 'smearing'
smearing = 'mp'
degauss = 0.01
assume_isolated = 'esm'
esm_bc = 'bc1'
input_dft = 'BEEF-VDW'
nosym = .true.
nspin = 1
ntyp = 6
nat = 18
/
&ELECTRONS
electron_maxstep = 200
mixing_beta = 0.1
conv_thr = 1e-06
/
&IONS
ion_dynamics = 'bfgs'
upscale = 1.0
/
&CELL
/

K_POINTS {automatic}
11 7 2 0  0  0

ATOMIC_SPECIES
C 12.01 C.pbe-n-rrkjus_psl.1.0.0.UPF
In 114.8 In.pbe-dn-rrkjus_psl.1.0.0.UPF
Li 6.941 Li.pbe-sl-rrkjus_psl.1.0.0.UPF
O 15.99 O.pbe-n-rrkjus_psl.1.0.0.UPF
Pb 207.2 Pb.pbe-dn-rrkjus_psl.1.0.0.UPF
Y 88.90 Y.pbe-spn-rrkjus_psl.1.0.0.UPF


CELL_PARAMETERS {angstrom}
6.51578000 0.00000000 0.00000000
0.00000000 9.32892000 0.00000000
0.00000000 0.00000000 24.88170000

ATOMIC_POSITIONS {angstrom}
Li 1.55433932 2.33223000 -0.81363159 0 0 0
Li 4.18489002 2.33223000 2.57600240
Li 1.55433932 6.99669000 -0.81363159 0 0 0
Li 4.18404297 6.99669000 2.47796850
Y 3.25789000 0.00000000 -2.44089477 0 0 0
Y 6.11251838 9.32677435 0.90146399
Y 3.25789000 4.66446000 -2.44089477 0 0 0
Y 6.11245322 4.66660565 0.90146399
In 0.00000000 0.00000000 -2.44089477 0 0 0
In 2.79885330 0.00699669 1.01840798
In 0.00000000 4.66446000 -2.44089477 0 0 0
In 2.79878814 4.65746331 1.01840798
Pb 4.81222932 2.33223000 -0.81363159 0 0 0
Pb 1.16717167 2.33223000 2.45681906
Pb 4.81222932 6.99669000 -0.81363159 0 0 0
Pb 1.16528210 6.99669000 2.48294484
C 4.51172155 2.33223000 4.66009359
O 4.67937256 2.33232329 5.78723460
