&CONTROL
calculation = 'relax'
prefix = 'scf'
pseudo_dir = '/vol0004/mdt0/data/hp150275/u10028/POT_KKJUS'
outdir = './data'
tprnfor = .true.
nstep = 50
disk_io = 'non'
/
&SYSTEM
ibrav = 0
ecutwfc = 50.0
ecutrho = 400
occupations = 'smearing'
smearing = 'mp'
degauss = 0.01
assume_isolated = 'esm'
esm_bc = 'bc1'
input_dft = 'BEEF-VDW'
nosym = .true.
nspin = 1
ntyp = 2
nat = 32
/
&ELECTRONS
electron_maxstep = 200
mixing_beta = 0.1
conv_thr = 1e-06
/
&IONS
ion_dynamics = 'bfgs'
upscale = 1.0
/
&CELL
/

K_POINTS {automatic}
9 6 2 0  0  0

ATOMIC_SPECIES
Rh 102.9 Rh.pbe-spn-rrkjus_psl.1.0.0.UPF
Ti 47.86 Ti.pbe-spn-rrkjus_psl.1.0.0.UPF

CELL_PARAMETERS {angstrom}
6.24301000 0.00000000 0.00000000
0.00000000 8.82895000 0.00000000
0.00000000 0.00000000 26.62170000

ATOMIC_POSITIONS {angstrom}
Ti 1.56075250 2.20723750 -3.31094083 0 0 0
Ti 1.56075250 0.00000000 -1.1037356799999998 0 0 0
Ti 1.56087736 2.20723750 1.12929251
Ti 1.56093979 0.00000000 3.37616399
Ti 1.56075250 6.62171250 -3.31094083 0 0 0
Ti 1.56075250 4.41447500 -1.1037356799999998 0 0 0
Ti 1.56087736 6.62171250 1.12929251
Ti 1.56093979 4.41447500 3.37616399
Ti 4.68225750 2.20723750 -3.31094083 0 0 0
Ti 4.68225750 0.00000000 -1.1037356799999998 0 0 0
Ti 4.68213264 2.20723750 1.12929251
Ti 4.68207021 0.00000000 3.37616399
Ti 4.68225750 6.62171250 -3.31094083 0 0 0
Ti 4.68225750 4.41447500 -1.1037356799999998 0 0 0
Ti 4.68213264 6.62171250 1.12929251
Ti 4.68207021 4.41447500 3.37616399
Rh 0.00000000 0.00000000 -3.31094083 0 0 0
Rh 0.00000000 2.20723750 -1.1037356799999998 0 0 0
Rh 0.00000000 8.82886171 1.13381820
Rh 0.00000000 2.20723750 3.14748359
Rh 0.00000000 4.41447500 -3.31094083 0 0 0
Rh 0.00000000 6.62171250 -1.1037356799999998 0 0 0
Rh 0.00000000 4.41456329 1.13381820
Rh 0.00000000 6.62171250 3.14748359
Rh 3.12150500 0.00000000 -3.31094083 0 0 0
Rh 3.12150500 2.20723750 -1.1037356799999998 0 0 0
Rh 3.12150500 8.82886171 1.13381820
Rh 3.12150500 2.20723750 3.14774981
Rh 3.12150500 4.41447500 -3.31094083 0 0 0
Rh 3.12150500 6.62171250 -1.1037356799999998 0 0 0
Rh 3.12150500 4.41456329 1.13381820
Rh 3.12150500 6.62171250 3.14774981
