&CONTROL
calculation = 'relax'
prefix = 'scf'
pseudo_dir = '/vol0403/data/hp230205/u10028/POT_HYBRID_KKJUS_GBRV'
outdir = './data'
tprnfor = .true.
nstep = 50
disk_io = 'non'
/
&SYSTEM
ibrav = 0
ecutwfc = 50.0
ecutrho = 400
occupations = 'smearing'
smearing = 'mp'
degauss = 0.01
assume_isolated = 'esm'
esm_bc = 'bc1'
input_dft = 'BEEF-VDW'
nosym = .true.
nspin = 1
ntyp = 4
nat = 16
/
&ELECTRONS
electron_maxstep = 200
mixing_beta = 0.1
conv_thr = 1e-06
/
&IONS
ion_dynamics = 'bfgs'
upscale = 1.0
/
&CELL
/

K_POINTS {automatic}
6 6 1 0 0 0

ATOMIC_SPECIES
Al 26.98 Al.pbe-nl-rrkjus_psl.1.0.0.UPF
In 114.8 In.pbe-dn-rrkjus_psl.1.0.0.UPF
Pd 106.4 Pd.pbe-n-rrkjus_psl.1.0.0.UPF
Sc 44.95 Sc.pbe-spn-rrkjus_psl.1.0.0.UPF


CELL_PARAMETERS {angstrom}
5.88291000 0.00000000 0.00000000
0.00000000 8.60736000 0.00000000
0.00000000 0.00000000 24.41210000

ATOMIC_POSITIONS {angstrom}
Sc 1.50955471 2.15175393 0.63837641
Sc 4.39382782 2.15184000 -2.20612148 0 0 0
Sc 1.50967236 6.45552000 0.63837641
Sc 4.39382782 6.45552000 -2.20612148 0 0 0
Al 5.72730703 0.00000000 2.02449545
Al 2.92921855 0.00000000 -0.7352924499999993 0 0 0
Al 5.72730703 4.30376607 2.02449545
Al 2.92921855 4.30368000 -0.7352924499999993 0 0 0
In 2.97604651 8.60727393 2.30303751
In 5.87067355 0.00000000 -0.7352924499999993 0 0 0
In 2.97604651 4.30350785 2.30254927
In 5.87067355 4.30368000 -0.7352924499999993 0 0 0
Pd 4.45489243 2.15184000 0.79998452
Pd 1.45237282 2.15184000 -2.20612148 0 0 0
Pd 4.45489243 6.45552000 0.79998452
Pd 1.45237282 6.45552000 -2.20612148 0 0 0
