&CONTROL
calculation = 'relax'
prefix = 'scf'
pseudo_dir = '/vol0403/data/hp230205/u10028/POT_HYBRID_KKJUS_GBRV'
outdir = './data'
tprnfor = .true.
nstep = 50
disk_io = 'non'
/
&SYSTEM
ibrav = 0
ecutwfc = 50.0
ecutrho = 400
occupations = 'smearing'
smearing = 'mp'
degauss = 0.01
assume_isolated = 'esm'
esm_bc = 'bc1'
input_dft = 'BEEF-VDW'
nosym = .true.
nspin = 1
ntyp = 4
nat = 16
/
&ELECTRONS
electron_maxstep = 200
mixing_beta = 0.1
conv_thr = 1e-06
/
&IONS
ion_dynamics = 'bfgs'
upscale = 1.0
/
&CELL
/

K_POINTS {automatic}
6 6 1 0 0 0

ATOMIC_SPECIES
Ge 72.64 Ge.pbe-dn-rrkjus_psl.1.0.0.UPF
In 114.8 In.pbe-dn-rrkjus_psl.1.0.0.UPF
Li 6.941 Li.pbe-sl-rrkjus_psl.1.0.0.UPF
Mg 24.30 Mg.pbe-spnl-rrkjus_psl.1.0.0.UPF


CELL_PARAMETERS {angstrom}
6.07136000 0.00000000 0.00000000
0.00000000 8.40992000 0.00000000
0.00000000 0.00000000 24.55010000

ATOMIC_POSITIONS {angstrom}
Li 4.49480995 2.10248000 -0.7583525900000012 0 0 0
Li 1.29556751 2.10239590 2.20828150
Li 4.49480995 6.30744000 -0.7583525900000012 0 0 0
Li 1.29556751 6.30760820 2.20852700
Mg 1.45912995 2.10248000 -0.7583525900000012 0 0 0
Mg 4.17715639 2.10231180 2.15893579
Mg 1.45912995 6.30744000 -0.7583525900000012 0 0 0
Mg 4.17721711 6.30760820 2.15918130
In 3.03568000 0.00000000 -2.27505777 0 0 0
In 5.88284427 8.40983590 0.74460453
In 3.03568000 4.20496000 -2.27505777 0 0 0
In 5.88278356 4.20496000 0.74558654
Ge 0.00000000 0.00000000 -2.27505777 0 0 0
Ge 2.75548674 0.00000000 1.02005665
Ge 0.00000000 4.20496000 -2.27505777 0 0 0
Ge 2.75542602 4.20504410 1.02079316
