&CONTROL
calculation = 'relax'
prefix = 'scf'
pseudo_dir = '/vol0004/mdt0/data/hp150275/u10028/POT_KKJUS'
outdir = './data'
tprnfor = .true.
nstep = 50
disk_io = 'non'
/
&SYSTEM
ibrav = 0
ecutwfc = 50.0
ecutrho = 400
occupations = 'smearing'
smearing = 'mp'
degauss = 0.01
assume_isolated = 'esm'
esm_bc = 'bc1'
input_dft = 'BEEF-VDW'
nosym = .true.
nspin = 1
ntyp = 4
nat = 33
/
&ELECTRONS
electron_maxstep = 200
mixing_beta = 0.1
conv_thr = 1e-06
/
&IONS
ion_dynamics = 'bfgs'
upscale = 1.0
/
&CELL
/

K_POINTS {automatic}
8 6 1 0 0 0

ATOMIC_SPECIES
C 12.01 C.pbe-n-rrkjus_psl.1.0.0.UPF
Cu 63.54 Cu.pbe-dn-rrkjus_psl.1.0.0.UPF
Ni 58.69 Ni.pbe-spn-rrkjus_psl.1.0.0.UPF
Sn 118.7 Sn.pbe-dn-rrkjus_psl.1.0.0.UPF

CELL_PARAMETERS {angstrom}
6.14873000 0.00000000 0.00000000
0.00000000 8.69561000 0.00000000
0.00000000 0.00000000 26.52170000

ATOMIC_POSITIONS {angstrom}
Cu 1.53718250 0.00000000 -1.086859269999998 0 0 0
Cu 4.61154750 4.34780500 -1.086859269999998 0 0 0
Cu 4.61154750 0.00000000 -1.086859269999998 0 0 0
Cu 1.53718250 4.34780500 -1.086859269999998 0 0 0
Cu 4.61154750 6.52170750 -3.2608430099999985 0 0 0
Cu 1.53718250 2.17390250 -3.2608430099999985 0 0 0
Cu 1.53718250 6.52170750 -3.2608430099999985 0 0 0
Cu 4.61154750 2.17390250 -3.2608430099999985 0 0 0
Cu 1.69588122 4.34893543 3.22636480
Cu 4.26678821 0.00043478 3.47991226
Cu 4.45284878 4.34832674 3.22636480
Cu 1.88194179 8.69552304 3.47991226
Cu 4.79035257 2.19216328 1.19984171
Cu 1.35837743 6.50344672 1.19984171
Cu 1.35831594 2.19207632 1.19957649
Cu 4.79041406 6.50344672 1.19931127
Ni 0.00000000 0.00000000 -3.2608430099999985 0 0 0
Ni 3.07436500 2.17390250 -1.086859269999998 0 0 0
Ni 3.07436500 6.52170750 -1.086859269999998 0 0 0
Ni 0.00000000 4.34780500 -3.2608430099999985 0 0 0
Ni 0.00000000 4.34789196 1.04309846
Ni 3.07473392 6.47666424 3.00464339
Ni 3.07405756 2.21955445 3.00570426
Ni 0.00000000 0.00008696 1.38257622
Sn 0.00000000 6.52170750 -1.086859269999998 0 0 0
Sn 3.07436500 0.00000000 -3.2608430099999985 0 0 0
Sn 0.00000000 2.17390250 -1.086859269999998 0 0 0
Sn 3.07436500 4.34780500 -3.2608430099999985 0 0 0
Sn 0.00036892 2.25494559 3.74486404
Sn 3.07436500 4.34745718 1.00649851
Sn 6.14836108 6.44136006 3.74512926
Sn 3.07436500 0.00008696 1.06484625
C 0.00000000 0.00026087 3.25712998
