&CONTROL
calculation = 'relax'
prefix = 'scf'
pseudo_dir = '/vol0403/data/hp230205/u10028/POT_HYBRID_KKJUS_GBRV'
outdir = './data'
tprnfor = .true.
nstep = 50
disk_io = 'non'
/
&SYSTEM
ibrav = 0
ecutwfc = 50.0
ecutrho = 400
occupations = 'smearing'
smearing = 'mp'
degauss = 0.01
assume_isolated = 'esm'
esm_bc = 'bc1'
input_dft = 'BEEF-VDW'
nosym = .true.
nspin = 1
ntyp = 6
nat = 18
/
&ELECTRONS
electron_maxstep = 200
mixing_beta = 0.1
conv_thr = 1e-06
/
&IONS
ion_dynamics = 'bfgs'
upscale = 1.0
/
&CELL
/

K_POINTS {automatic}
11 7 2 0  0  0

ATOMIC_SPECIES
C 12.01 C.pbe-n-rrkjus_psl.1.0.0.UPF
Ge 72.64 Ge.pbe-dn-rrkjus_psl.1.0.0.UPF
In 114.8 In.pbe-dn-rrkjus_psl.1.0.0.UPF
Li 6.941 Li.pbe-sl-rrkjus_psl.1.0.0.UPF
Mg 24.30 Mg.pbe-spnl-rrkjus_psl.1.0.0.UPF
O 15.99 O.pbe-n-rrkjus_psl.1.0.0.UPF


CELL_PARAMETERS {angstrom}
5.94975000 0.00000000 0.00000000
0.00000000 8.75068000 0.00000000
0.00000000 0.00000000 24.46230000

ATOMIC_POSITIONS {angstrom}
Li 4.46379994 2.18767000 -0.7436539199999999 0 0 0
Li 1.61833200 2.18767000 2.36183506
Li 4.46379994 6.56301000 -0.7436539199999999 0 0 0
Li 1.62975552 6.56309751 2.32734322
Mg 2.97487500 0.00000000 -2.2312063799999997 0 0 0
Mg 0.01178051 8.72407793 0.72286096
Mg 2.97487500 4.37534000 -2.2312063799999997 0 0 0
Mg 0.01201850 4.40202957 0.72286096
In 1.48892494 2.18767000 -0.7436539199999999 0 0 0
In 4.49456014 2.18775751 2.39779465
In 1.48892494 6.56301000 -0.7436539199999999 0 0 0
In 4.54917885 6.56301000 2.52450936
Ge 0.00000000 0.00000000 -2.2312063799999997 0 0 0
Ge 3.02461491 8.70220123 1.15217433
Ge 0.00000000 4.37534000 -2.2312063799999997 0 0 0
Ge 3.02467441 4.42390627 1.15217433
C 1.52474243 2.18767000 4.44553378
O 1.48761599 2.18767000 5.58670007
