&CONTROL
calculation = 'relax'
prefix = 'scf'
pseudo_dir = '/vol0004/mdt0/data/hp150275/u10028/POT_KKJUS'
outdir = './data'
tprnfor = .true.
nstep = 50
disk_io = 'non'
/
&SYSTEM
ibrav = 0
ecutwfc = 50.0
ecutrho = 400
occupations = 'smearing'
smearing = 'mp'
degauss = 0.01
assume_isolated = 'esm'
esm_bc = 'bc1'
input_dft = 'BEEF-VDW'
nosym = .true.
nspin = 1
ntyp = 4
nat = 33
/
&ELECTRONS
electron_maxstep = 200
mixing_beta = 0.1
conv_thr = 1e-06
/
&IONS
ion_dynamics = 'bfgs'
upscale = 1.0
/
&CELL
/

K_POINTS {automatic}
9 6 2 0  0  0

ATOMIC_SPECIES
Au 196.9 Au.pbe-n-rrkjus_psl.1.0.0.UPF
Bi 208.9 Bi.pbe-dn-rrkjus_psl.1.0.0.UPF
C 12.01 C.pbe-n-rrkjus_psl.1.0.0.UPF
Li 6.941 Li.pbe-sl-rrkjus_psl.1.0.0.UPF

CELL_PARAMETERS {angstrom}
6.87958000 0.00000000 0.00000000
0.00000000 9.72919000 0.00000000
0.00000000 0.00000000 27.29690000

ATOMIC_POSITIONS {angstrom}
Li 0.00000000 7.29689250 -1.21607689 0 0 0
Li 3.43979000 0.00000000 -3.648503650000002 0 0 0
Li 0.00000000 2.43229750 -1.21607689 0 0 0
Li 3.43979000 4.86459500 -3.648503650000002 0 0 0
Li 1.71989500 2.43229750 -3.648503650000002 0 0 0
Li 1.71989500 7.29689250 -3.648503650000002 0 0 0
Li 5.15968500 4.86459500 -1.21607689 0 0 0
Li 5.15968500 0.00000000 -1.21607689 0 0 0
Li 0.03921361 2.48211095 3.38563451
Li 3.36046844 4.86459500 0.94529165
Li 0.03914481 7.24707905 3.38536154
Li 3.93167997 0.00000000 2.18948435
Li 2.03429181 7.43601992 1.43445209
Li 2.03422301 2.29336467 1.43445209
Li 5.40783145 0.00000000 4.78787626
Li 4.87328808 4.86459500 3.18882386
Bi 0.00000000 0.00000000 -3.648503650000002 0 0 0
Bi 3.43979000 2.43229750 -1.21607689 0 0 0
Bi 3.43979000 7.29689250 -1.21607689 0 0 0
Bi 0.00000000 4.86459500 -3.648503650000002 0 0 0
Bi 0.01568544 4.86459500 1.19478531
Bi 3.69006912 7.36723454 4.11391580
Bi 3.68993153 2.36185816 4.11391580
Bi 6.74673531 0.00000000 1.28268133
Au 1.71989500 0.00000000 -1.21607689 0 0 0
Au 1.71989500 4.86459500 -1.21607689 0 0 0
Au 5.15968500 7.29689250 -3.648503650000002 0 0 0
Au 5.15968500 2.43229750 -3.648503650000002 0 0 0
Au 2.04199694 4.86469229 3.27617394
Au 1.47250530 9.72909271 3.61028799
Au 4.90403981 2.55624738 1.37576376
Au 4.90403981 7.17303991 1.37576376
C 3.33088625 9.72909271 4.55476073
