&CONTROL
calculation = 'relax'
prefix = 'scf'
pseudo_dir = '/vol0403/data/hp230205/u10028/POT_HYBRID_KKJUS_GBRV'
outdir = './data'
tprnfor = .true.
nstep = 50
disk_io = 'non'
/
&SYSTEM
ibrav = 0
ecutwfc = 50.0
ecutrho = 400
occupations = 'smearing'
smearing = 'mp'
degauss = 0.01
assume_isolated = 'esm'
esm_bc = 'bc1'
input_dft = 'BEEF-VDW'
nosym = .true.
nspin = 1
ntyp = 5
nat = 17
/
&ELECTRONS
electron_maxstep = 200
mixing_beta = 0.1
conv_thr = 1e-06
/
&IONS
ion_dynamics = 'bfgs'
upscale = 1.0
/
&CELL
/

K_POINTS {automatic}
11 8 2 0  0  0

ATOMIC_SPECIES
Al 26.98 Al.pbe-nl-rrkjus_psl.1.0.0.UPF
C 12.01 C.pbe-n-rrkjus_psl.1.0.0.UPF
In 114.8 In.pbe-dn-rrkjus_psl.1.0.0.UPF
Pd 106.4 Pd.pbe-n-rrkjus_psl.1.0.0.UPF
Sc 44.95 Sc.pbe-spn-rrkjus_psl.1.0.0.UPF


CELL_PARAMETERS {angstrom}
5.97945000 0.00000000 0.00000000
0.00000000 8.33700000 0.00000000
0.00000000 0.00000000 24.48170000

ATOMIC_POSITIONS {angstrom}
Sc 2.98972500 0.00000000 -2.2408099999999997 0 0 0
Sc 5.88581181 0.00008337 0.99028476
Sc 2.98972500 4.16850000 -2.2408099999999997 0 0 0
Sc 5.89627585 4.16841663 0.93275277
Al 0.00000000 0.00000000 -2.2408099999999997 0 0 0
Al 2.94117187 0.00000000 0.76774611
Al 0.00000000 4.16850000 -2.2408099999999997 0 0 0
Al 2.93848111 4.16824989 0.84975981
In 1.44092786 2.08425000 -0.7469366700000002 0 0 0
In 4.44243238 2.18712858 2.66801567
In 1.44092786 6.25275000 -0.7469366700000002 0 0 0
In 4.44225299 6.14970468 2.66752603
Pd 4.43065286 2.08425000 -0.7469366700000002 0 0 0
Pd 1.53205468 2.19930060 2.01361983
Pd 4.43065286 6.25275000 -0.7469366700000002 0 0 0
Pd 1.53145673 6.13744929 2.01337501
C 4.20755958 8.33691663 2.25109232
