&CONTROL
calculation = 'relax'
prefix = 'scf'
pseudo_dir = '/vol0403/data/hp230205/u10028/POT_HYBRID_KKJUS_GBRV'
outdir = './data'
tprnfor = .true.
nstep = 50
disk_io = 'non'
/
&SYSTEM
ibrav = 0
ecutwfc = 50.0
ecutrho = 400
occupations = 'smearing'
smearing = 'mp'
degauss = 0.01
assume_isolated = 'esm'
esm_bc = 'bc1'
input_dft = 'BEEF-VDW'
nosym = .true.
nspin = 1
ntyp = 6
nat = 34
/
&ELECTRONS
electron_maxstep = 200
mixing_beta = 0.1
conv_thr = 1e-06
/
&IONS
ion_dynamics = 'bfgs'
upscale = 1.0
/
&CELL
/

K_POINTS {automatic}
6 6 1 0 0 0

ATOMIC_SPECIES
C 12.01 C.pbe-n-rrkjus_psl.1.0.0.UPF
Ga 69.72 Ga.pbe-dnl-rrkjus_psl.1.0.0.UPF
Ge 72.64 Ge.pbe-dn-rrkjus_psl.1.0.0.UPF
O 15.99 O.pbe-n-rrkjus_psl.1.0.0.UPF
Pd 106.4 Pd.pbe-n-rrkjus_psl.1.0.0.UPF
Sc 44.95 Sc.pbe-spn-rrkjus_psl.1.0.0.UPF


CELL_PARAMETERS {angstrom}
7.83718000 0.00000000 0.00000000
0.00000000 8.08666000 0.00000000
0.00000000 0.00000000 26.43810000

ATOMIC_POSITIONS {angstrom}
Sc 0.00039186 2.02441446 1.18284059
Sc 0.00000000 2.02166500 -3.2191030599999984 0 0 0
Sc 0.00062697 6.06192207 1.18284059
Sc 0.00000000 6.06499500 -3.2191030599999984 0 0 0
Sc 3.91913860 2.01843034 1.18125431
Sc 3.91859000 2.02166500 -3.2191030599999984 0 0 0
Sc 3.91898186 6.06790620 1.18125431
Sc 3.91859000 6.06499500 -3.2191030599999984 0 0 0
Ga 0.00031349 8.08649827 3.35631680
Ga 0.00000000 0.00000000 -1.0731224799999985 0 0 0
Ga 0.00070535 4.04316827 3.40126156
Ga 0.00000000 4.04333000 -1.0731224799999985 0 0 0
Ga 3.91937372 8.08649827 3.39914652
Ga 3.91859000 0.00000000 -1.0731224799999985 0 0 0
Ga 3.91882512 4.04316827 3.39835337
Ga 3.91859000 4.04333000 -1.0731224799999985 0 0 0
Ge 1.96250824 8.08657913 1.09665239
Ge 1.95929500 0.00000000 -3.2191030599999984 0 0 0
Ge 1.95561153 4.04316827 1.14053963
Ge 1.95929500 4.04333000 -3.2191030599999984 0 0 0
Ge 5.87569059 8.08641740 1.09718115
Ge 5.87788500 0.00000000 -3.2191030599999984 0 0 0
Ge 5.88243056 4.04308740 1.13974649
Ge 5.87788500 4.04333000 -3.2191030599999984 0 0 0
Pd 1.97293169 2.01988593 3.26299030
Pd 1.95929500 2.02166500 -1.0731224799999985 0 0 0
Pd 1.97261821 6.06645060 3.26299030
Pd 1.95929500 6.06499500 -1.0731224799999985 0 0 0
Pd 5.86550226 2.02077547 3.26272592
Pd 5.87788500 2.02166500 -1.0731224799999985 0 0 0
Pd 5.86542388 6.06564193 3.26272592
Pd 5.87788500 6.06499500 -1.0731224799999985 0 0 0
C 7.81547101 0.00638846 7.13537881
O 0.00266464 8.08601307 8.27195273
