&CONTROL
calculation = 'relax'
prefix = 'scf'
pseudo_dir = '/vol0004/mdt0/data/hp150275/u10028/POT_KKJUS'
outdir = './data'
tprnfor = .true.
nstep = 50
disk_io = 'non'
/
&SYSTEM
ibrav = 0
ecutwfc = 50.0
ecutrho = 400
occupations = 'smearing'
smearing = 'mp'
degauss = 0.01
assume_isolated = 'esm'
esm_bc = 'bc1'
input_dft = 'BEEF-VDW'
nosym = .true.
nspin = 1
ntyp = 5
nat = 34
/
&ELECTRONS
electron_maxstep = 200
mixing_beta = 0.1
conv_thr = 1e-06
/
&IONS
ion_dynamics = 'bfgs'
upscale = 1.0
/
&CELL
/

K_POINTS {automatic}
8 6 1 0 0 0

ATOMIC_SPECIES
C 12.01 C.pbe-n-rrkjus_psl.1.0.0.UPF
In 114.8 In.pbe-dn-rrkjus_psl.1.0.0.UPF
Li 6.941 Li.pbe-sl-rrkjus_psl.1.0.0.UPF
O 15.99 O.pbe-n-rrkjus_psl.1.0.0.UPF
Pd 106.4 Pd.pbe-n-rrkjus_psl.1.0.0.UPF

CELL_PARAMETERS {angstrom}
6.70566000 0.00000000 0.00000000
0.00000000 9.48324000 0.00000000
0.00000000 0.00000000 27.11240000

ATOMIC_POSITIONS {angstrom}
Li 0.00000000 0.00000000 -3.5563335100000018 0 0 0
Li 3.35283000 2.37081000 -1.1853541300000003 0 0 0
Li 3.35283000 7.11243000 -1.1853541300000003 0 0 0
Li 0.00000000 4.74162000 -3.5563335100000018 0 0 0
Li 0.00000000 4.77414751 1.27482505
Li 3.35283000 7.11243000 4.02320904
Li 3.35283000 2.37081000 3.83559123
Li 0.00000000 9.45071249 1.27482505
In 1.67641500 0.00000000 -1.1853541300000003 0 0 0
In 5.02924500 4.74162000 -1.1853541300000003 0 0 0
In 5.02924500 0.00000000 -1.1853541300000003 0 0 0
In 1.67641500 4.74162000 -1.1853541300000003 0 0 0
In 5.02924500 7.11243000 -3.5563335100000018 0 0 0
In 1.67641500 2.37081000 -3.5563335100000018 0 0 0
In 1.67641500 7.11243000 -3.5563335100000018 0 0 0
In 5.02924500 2.37081000 -3.5563335100000018 0 0 0
In 1.71128443 4.81473578 3.75669414
In 4.99437557 9.41012422 3.75669414
In 4.99444262 4.81473578 3.75696527
In 1.71121738 9.41012422 3.75669414
In 5.01590074 2.37081000 1.35453550
In 1.76144277 7.11243000 1.24066342
In 1.68982632 2.37081000 1.35453550
In 4.94421723 7.11243000 1.24066342
Pd 0.00000000 7.11243000 -1.1853541300000003 0 0 0
Pd 3.35283000 0.00000000 -3.5563335100000018 0 0 0
Pd 0.00000000 2.37081000 -1.1853541300000003 0 0 0
Pd 3.35283000 4.74162000 -3.5563335100000018 0 0 0
Pd 0.00000000 2.37081000 3.72903950
Pd 3.35283000 4.71042014 1.08232701
Pd 0.00000000 7.11243000 3.35190601
Pd 3.35283000 0.03119986 1.08232701
C 0.00000000 2.37081000 5.68899489
O 0.00000000 2.37090483 6.84181414
