&CONTROL
calculation = 'relax'
prefix = 'scf'
pseudo_dir = '/vol0004/mdt0/data/hp150275/u10028/POT_HYBRID_KKJUS_GBRV'
outdir = './data'
tprnfor = .true.
nstep = 50
disk_io = 'non'
/
&SYSTEM
ibrav = 0
ecutwfc = 50.0
ecutrho = 400
occupations = 'smearing'
smearing = 'mp'
degauss = 0.01
assume_isolated = 'esm'
esm_bc = 'bc1'
input_dft = 'BEEF-VDW'
nosym = .true.
nspin = 2
ntyp = 5
nat = 34
starting_magnetization(1) = 0.0
starting_magnetization(2) = 0.0
starting_magnetization(3) = 0.0
starting_magnetization(4) = 0.001
starting_magnetization(5) = 0.0
/
&ELECTRONS
electron_maxstep = 300
mixing_beta = 0.1
conv_thr = 1e-06
/
&IONS
ion_dynamics = 'bfgs'
upscale = 1.0
/
&CELL
/

K_POINTS {automatic}
8 6 1 0 0 0

ATOMIC_SPECIES
Al 26.98 Al.pbe-nl-rrkjus_psl.1.0.0.UPF
C 12.01 C.pbe-n-rrkjus_psl.1.0.0.UPF
Nb 92.90 Nb.pbe-spn-rrkjus_psl.1.0.0.UPF
Ni 58.69 ni_pbe_v1.4.uspp.F.UPF
O 15.99 O.pbe-n-rrkjus_psl.1.0.0.UPF

CELL_PARAMETERS {angstrom}
6.00915000 0.00000000 0.00000000
0.00000000 8.49821000 0.00000000
0.00000000 0.00000000 26.37370000

ATOMIC_POSITIONS {angstrom}
Nb 0.00000000 0.00000000 -3.186734170000001 0 0 0
Nb 3.00457500 2.12455250 -1.062332640000001 0 0 0
Nb 3.00457500 6.37365750 -1.062332640000001 0 0 0
Nb 0.00000000 4.24910500 -3.186734170000001 0 0 0
Nb 5.99568950 4.24986984 1.04518973
Nb 2.98612691 6.40501589 3.20915182
Nb 2.98618700 2.09370400 3.20783313
Nb 0.03689618 8.49787007 1.05995900
Al 0.00000000 6.37365750 -1.062332640000001 0 0 0
Al 3.00457500 0.00000000 -3.186734170000001 0 0 0
Al 0.00000000 2.12455250 -1.062332640000001 0 0 0
Al 3.00457500 4.24910500 -3.186734170000001 0 0 0
Al 5.98823816 2.17528681 3.16431653
Al 3.00854104 4.24817020 1.01670613
Al 5.98823816 6.32343308 3.16247037
Al 2.98342279 0.00118975 1.09318987
Ni 1.50228750 0.00000000 -1.062332640000001 0 0 0
Ni 4.50686250 4.24910500 -1.062332640000001 0 0 0
Ni 4.50686250 0.00000000 -1.062332640000001 0 0 0
Ni 1.50228750 4.24910500 -1.062332640000001 0 0 0
Ni 4.50686250 6.37365750 -3.186734170000001 0 0 0
Ni 1.50228750 2.12455250 -3.186734170000001 0 0 0
Ni 1.50228750 6.37365750 -3.186734170000001 0 0 0
Ni 4.50686250 2.12455250 -3.186734170000001 0 0 0
Ni 1.59182384 4.24969987 3.01504138
Ni 4.56899711 0.00008498 3.02163481
Ni 4.40224320 4.24944493 3.03930519
Ni 1.37236968 0.00000000 3.39007540
Ni 4.44562926 2.11155024 1.11428883
Ni 1.57109227 6.34756800 1.11639872
Ni 1.56718632 2.15089695 1.11666246
Ni 4.44088203 6.38708467 1.11376135
C 2.01643037 8.49787007 5.03764044
O 2.29477420 8.49753014 6.16959964
