&CONTROL
calculation = 'relax'
prefix = 'scf'
pseudo_dir = '/vol0403/data/hp230205/u10028/POT_HYBRID_KKJUS_GBRV'
outdir = './data'
tprnfor = .true.
nstep = 50
disk_io = 'non'
/
&SYSTEM
ibrav = 0
ecutwfc = 50.0
ecutrho = 400
occupations = 'smearing'
smearing = 'mp'
degauss = 0.01
assume_isolated = 'esm'
esm_bc = 'bc1'
input_dft = 'BEEF-VDW'
nosym = .true.
nspin = 1
ntyp = 6
nat = 18
/
&ELECTRONS
electron_maxstep = 200
mixing_beta = 0.1
conv_thr = 1e-06
/
&IONS
ion_dynamics = 'bfgs'
upscale = 1.0
/
&CELL
/

K_POINTS {automatic}
11 7 2 0  0  0

ATOMIC_SPECIES
C 12.01 C.pbe-n-rrkjus_psl.1.0.0.UPF
Ge 72.64 Ge.pbe-dn-rrkjus_psl.1.0.0.UPF
In 114.8 In.pbe-dn-rrkjus_psl.1.0.0.UPF
Li 6.941 Li.pbe-sl-rrkjus_psl.1.0.0.UPF
O 15.99 O.pbe-n-rrkjus_psl.1.0.0.UPF
Y 88.90 Y.pbe-spn-rrkjus_psl.1.0.0.UPF


CELL_PARAMETERS {angstrom}
6.03525000 0.00000000 0.00000000
0.00000000 9.31878000 0.00000000
0.00000000 0.00000000 24.52620000

ATOMIC_POSITIONS {angstrom}
Li 4.10240084 2.33146557 0.60383504
Li 1.46493623 2.32969500 -2.263032469999999 0 0 0
Li 4.10234048 6.98722124 0.60383504
Li 1.46493623 6.98908500 -2.263032469999999 0 0 0
Y 2.77802557 0.00000000 2.29467127
Y 6.00597904 0.00000000 -0.7544259099999984 0 0 0
Y 2.79818331 4.65939000 2.28338922
Y 6.00597904 4.65939000 -0.7544259099999984 0 0 0
In 0.98947924 2.33482033 1.18927544
In 4.48256123 2.32969500 -2.263032469999999 0 0 0
In 0.98959994 6.98395967 1.18927544
In 4.48256123 6.98908500 -2.263032469999999 0 0 0
Ge 5.79794397 0.00000000 2.34985522
Ge 2.98835404 0.00000000 -0.7544259099999984 0 0 0
Ge 5.81098011 4.65939000 2.33293214
Ge 2.98835404 4.65939000 -0.7544259099999984 0 0 0
C 2.93687335 0.00000000 4.83484981
O 3.00362322 0.00000000 5.97605389
