&CONTROL
calculation = 'relax'
prefix = 'scf'
pseudo_dir = '/vol0403/data/hp230205/u10028/POT_HYBRID_KKJUS_GBRV'
outdir = './data'
tprnfor = .true.
nstep = 50
disk_io = 'non'
/
&SYSTEM
ibrav = 0
ecutwfc = 50.0
ecutrho = 400
occupations = 'smearing'
smearing = 'mp'
degauss = 0.01
assume_isolated = 'esm'
esm_bc = 'bc1'
input_dft = 'BEEF-VDW'
nosym = .true.
nspin = 1
ntyp = 5
nat = 33
/
&ELECTRONS
electron_maxstep = 200
mixing_beta = 0.1
conv_thr = 1e-06
/
&IONS
ion_dynamics = 'bfgs'
upscale = 1.0
/
&CELL
/

K_POINTS {automatic}
6 6 1 0 0 0

ATOMIC_SPECIES
C 12.01 C.pbe-n-rrkjus_psl.1.0.0.UPF
Ga 69.72 Ga.pbe-dnl-rrkjus_psl.1.0.0.UPF
Li 6.941 Li.pbe-sl-rrkjus_psl.1.0.0.UPF
Mg 24.30 Mg.pbe-spnl-rrkjus_psl.1.0.0.UPF
Pd 106.4 Pd.pbe-n-rrkjus_psl.1.0.0.UPF


CELL_PARAMETERS {angstrom}
6.27706000 0.00000000 0.00000000
0.00000000 8.87710000 0.00000000
0.00000000 0.00000000 26.65780000

ATOMIC_POSITIONS {angstrom}
Li 1.56926500 0.00000000 -1.1097642100000016 0 0 0
Li 1.56926500 4.43855000 -1.1097642100000016 0 0 0
Li 4.70779500 2.21927500 -3.3290260600000003 0 0 0
Li 4.70779500 6.65782500 -3.3290260600000003 0 0 0
Li 1.64546851 4.43855000 3.51349804
Li 1.77804002 0.00000000 4.16501467
Li 4.71815215 6.70327575 1.15374958
Li 4.71815215 2.17382425 1.15374958
Mg 0.00000000 2.21927500 -1.1097642100000016 0 0 0
Mg 0.00000000 6.65782500 -1.1097642100000016 0 0 0
Mg 3.13853000 4.43855000 -3.3290260600000003 0 0 0
Mg 3.13853000 0.00000000 -3.3290260600000003 0 0 0
Mg 6.24077859 6.71028866 3.49963598
Mg 6.24077859 2.16690011 3.49963598
Mg 3.02359703 0.00000000 1.17560898
Mg 3.15867936 4.43855000 1.10230003
Ga 0.00000000 0.00000000 -3.3290260600000003 0 0 0
Ga 0.00000000 4.43855000 -3.3290260600000003 0 0 0
Ga 3.13853000 6.65782500 -1.1097642100000016 0 0 0
Ga 3.13853000 2.21927500 -1.1097642100000016 0 0 0
Ga 6.27436086 4.43855000 1.18893788
Ga 0.13062562 0.00000000 1.10789817
Ga 3.15811443 2.29304370 3.43885620
Ga 3.15811443 6.58405630 3.43885620
Pd 4.70779500 0.00000000 -1.1097642100000016 0 0 0
Pd 4.70779500 4.43855000 -1.1097642100000016 0 0 0
Pd 1.56926500 2.21927500 -3.3290260600000003 0 0 0
Pd 1.56926500 6.65782500 -3.3290260600000003 0 0 0
Pd 4.68783395 4.43855000 3.23625692
Pd 4.29382289 0.00000000 3.43832304
Pd 1.56587539 6.57065188 1.08657193
Pd 1.56587539 2.30644812 1.08657193
C 0.02410391 0.00000000 3.11149842
