&CONTROL
calculation = 'relax'
prefix = 'scf'
pseudo_dir = '/vol0403/data/hp230205/u10028/POT_HYBRID_KKJUS_GBRV'
outdir = './data'
tprnfor = .true.
nstep = 50
disk_io = 'non'
/
&SYSTEM
ibrav = 0
ecutwfc = 50.0
ecutrho = 400
occupations = 'smearing'
smearing = 'mp'
degauss = 0.01
assume_isolated = 'esm'
esm_bc = 'bc1'
input_dft = 'BEEF-VDW'
nosym = .true.
nspin = 1
ntyp = 5
nat = 33
/
&ELECTRONS
electron_maxstep = 200
mixing_beta = 0.1
conv_thr = 1e-06
/
&IONS
ion_dynamics = 'bfgs'
upscale = 1.0
/
&CELL
/

K_POINTS {automatic}
9 6 2 0  0  0

ATOMIC_SPECIES
Al 26.98 Al.pbe-nl-rrkjus_psl.1.0.0.UPF
C 12.01 C.pbe-n-rrkjus_psl.1.0.0.UPF
In 114.8 In.pbe-dn-rrkjus_psl.1.0.0.UPF
Li 6.941 Li.pbe-sl-rrkjus_psl.1.0.0.UPF
Pd 106.4 Pd.pbe-n-rrkjus_psl.1.0.0.UPF


CELL_PARAMETERS {angstrom}
6.39489000 0.00000000 0.00000000
0.00000000 9.04374000 0.00000000
0.00000000 0.00000000 26.78280000

ATOMIC_POSITIONS {angstrom}
Li 4.79616750 0.00000000 -1.1305019900000026 0 0 0
Li 4.79616750 4.52187000 -1.1305019900000026 0 0 0
Li 1.59872250 2.26093500 -3.3915059600000035 0 0 0
Li 1.59872250 6.78280500 -3.3915059600000035 0 0 0
Li 4.71917302 4.75583155 3.75682336
Li 4.71917302 8.80977845 3.75709118
Li 1.37829064 6.78280500 1.18272845
Li 1.33589252 2.26093500 1.49260544
Al 0.00000000 0.00000000 -3.3915059600000035 0 0 0
Al 0.00000000 4.52187000 -3.3915059600000035 0 0 0
Al 3.19744500 6.78280500 -1.1305019900000026 0 0 0
Al 3.19744500 2.26093500 -1.1305019900000026 0 0 0
Al 6.25170841 4.55334222 1.26146988
Al 6.25170841 9.01217735 1.26146988
Al 3.49570267 2.26093500 3.26160938
Al 2.96198515 6.78280500 3.27714341
In 0.00000000 2.26093500 -1.1305019900000026 0 0 0
In 0.00000000 6.78280500 -1.1305019900000026 0 0 0
In 3.19744500 4.52187000 -3.3915059600000035 0 0 0
In 3.19744500 0.00000000 -3.3915059600000035 0 0 0
In 0.13717039 6.78280500 3.99599376
In 6.03498559 2.26093500 4.48799380
In 3.18689343 9.02212546 1.16424832
In 3.18689343 4.54348454 1.16424832
Pd 1.59872250 0.00000000 -1.1305019900000026 0 0 0
Pd 1.59872250 4.52187000 -1.1305019900000026 0 0 0
Pd 4.79616750 2.26093500 -3.3915059600000035 0 0 0
Pd 4.79616750 6.78280500 -3.3915059600000035 0 0 0
Pd 1.46020918 4.38431471 3.26000242
Pd 1.46020918 0.13755529 3.26000242
Pd 4.82238655 6.78280500 1.14657167
Pd 4.79348165 2.26093500 1.05952757
C 1.66324694 2.26093500 3.75575204
