&CONTROL
calculation = 'relax'
prefix = 'scf'
pseudo_dir = '/vol0004/mdt0/data/hp150275/u10028/POT_KKJUS'
outdir = './data'
tprnfor = .true.
nstep = 50
disk_io = 'non'
/
&SYSTEM
ibrav = 0
ecutwfc = 50.0
ecutrho = 400
occupations = 'smearing'
smearing = 'mp'
degauss = 0.01
assume_isolated = 'esm'
esm_bc = 'bc1'
input_dft = 'BEEF-VDW'
nosym = .true.
nspin = 1
ntyp = 5
nat = 18
/
&ELECTRONS
electron_maxstep = 200
mixing_beta = 0.1
conv_thr = 1e-06
/
&IONS
ion_dynamics = 'bfgs'
upscale = 1.0
/
&CELL
/

K_POINTS {automatic}
9 9 2 0  0  0

ATOMIC_SPECIES
C 12.01 C.pbe-n-rrkjus_psl.1.0.0.UPF
O 15.99 O.pbe-n-rrkjus_psl.1.0.0.UPF
Pt 195.0 Pt.pbe-n-rrkjus_psl.1.0.0.UPF
Sc 44.95 Sc.pbe-spn-rrkjus_psl.1.0.0.UPF
Sn 118.7 Sn.pbe-dn-rrkjus_psl.1.0.0.UPF

CELL_PARAMETERS {angstrom}
6.65597000 0.00000000 0.00000000
0.00000000 6.65597000 0.00000000
0.00000000 0.00000000 24.99200000

ATOMIC_POSITIONS {angstrom}
Sc 0.00000000 0.00000000 2.38898528
Sc 3.32791844 3.32805156 2.38998496
Sc 3.32798500 0.00000000 -0.8319836800000004 0 0 0
Sc 0.00000000 3.32798500 -0.8319836800000004 0 0 0
Sn 0.00000000 0.00000000 -0.8319836800000004 0 0 0
Sn 3.32791844 6.65590344 2.63640608
Sn 0.00000000 3.32805156 2.64415360
Sn 3.32798500 3.32798500 -0.8319836800000004 0 0 0
Pt 1.65700373 1.67138063 1.01342560
Pt 4.99197750 4.99197750 -2.4959510400000013 0 0 0
Pt 4.99876659 1.67138063 1.01367552
Pt 1.66399250 4.99197750 -2.4959510400000013 0 0 0
Pt 4.99889971 4.98452281 1.01317568
Pt 1.66399250 1.66399250 -2.4959510400000013 0 0 0
Pt 1.65707029 4.98452281 1.01342560
Pt 4.99197750 1.66399250 -2.4959510400000013 0 0 0
C 0.00039936 3.32771876 7.07373568
O 6.65570376 3.32911651 8.20687296
