&CONTROL
calculation = 'relax'
prefix = 'scf'
pseudo_dir = '/vol0403/data/hp230205/u10028/POT_HYBRID_KKJUS_GBRV'
outdir = './data'
tprnfor = .true.
nstep = 50
disk_io = 'non'
/
&SYSTEM
ibrav = 0
ecutwfc = 50.0
ecutrho = 400
occupations = 'smearing'
smearing = 'mp'
degauss = 0.01
assume_isolated = 'esm'
esm_bc = 'bc1'
input_dft = 'BEEF-VDW'
nosym = .true.
nspin = 2
ntyp = 6
nat = 34
starting_magnetization(1) = 0.0
starting_magnetization(2) = 0.0
starting_magnetization(3) = 0.1
starting_magnetization(4) = 0.0
starting_magnetization(5) = 0.0
starting_magnetization(6) = 0.0
/
&ELECTRONS
electron_maxstep = 400
mixing_beta = 0.05
conv_thr = 1e-06
/
&IONS
ion_dynamics = 'bfgs'
upscale = 1.0
/
&CELL
/

K_POINTS {automatic}
6 9 2 0  0  0

ATOMIC_SPECIES
Al 26.98 Al.pbe-nl-rrkjus_psl.1.0.0.UPF
C 12.01 C.pbe-n-rrkjus_psl.1.0.0.UPF
Fe 55.84 fe_pbe_v1.5.uspp.F.UPF
Li 6.941 Li.pbe-sl-rrkjus_psl.1.0.0.UPF
O 15.99 O.pbe-n-rrkjus_psl.1.0.0.UPF
Pd 106.4 Pd.pbe-n-rrkjus_psl.1.0.0.UPF


CELL_PARAMETERS {angstrom}
8.84236000 0.00000000 0.00000000
0.00000000 5.67696000 0.00000000
0.00000000 0.00000000 26.45530000

ATOMIC_POSITIONS {angstrom}
Li 2.21059000 0.00000000 -1.0759370500000003 0 0 0
Li 2.14055851 0.05512328 3.52331685
Li 2.21059000 2.83848000 -1.0759370500000003 0 0 0
Li 2.14055851 2.78335672 3.52331685
Li 6.63177000 0.00000000 -1.0759370500000003 0 0 0
Li 6.70180149 0.05512328 3.52331685
Li 6.63177000 2.83848000 -1.0759370500000003 0 0 0
Li 6.70180149 2.78335672 3.52331685
Al 0.00000000 0.00000000 -3.2275466 0 0 0
Al 0.00000000 5.63977591 0.86561742
Al 0.00000000 2.83848000 -3.2275466 0 0 0
Al 0.00000000 2.87566409 0.86561742
Al 4.42118000 0.00000000 -3.2275466 0 0 0
Al 4.42118000 5.67349705 0.87567043
Al 4.42118000 2.83848000 -3.2275466 0 0 0
Al 4.42118000 2.84194295 0.87567043
Fe 0.00000000 1.41924000 -1.0759370500000003 0 0 0
Fe 0.00000000 1.41929677 2.90214641
Fe 0.00000000 4.25772000 -1.0759370500000003 0 0 0
Fe 0.00000000 4.25766323 2.85928882
Fe 4.42118000 1.41924000 -1.0759370500000003 0 0 0
Fe 4.42118000 1.41924000 2.84315109
Fe 4.42118000 4.25772000 -1.0759370500000003 0 0 0
Fe 4.42118000 4.25772000 2.88177583
Pd 2.21059000 1.41924000 -3.2275466 0 0 0
Pd 2.19768015 1.41924000 1.15424474
Pd 2.21059000 4.25772000 -3.2275466 0 0 0
Pd 2.22703679 4.25772000 1.18995939
Pd 6.63177000 1.41924000 -3.2275466 0 0 0
Pd 6.64467985 1.41924000 1.15424474
Pd 6.63177000 4.25772000 -3.2275466 0 0 0
Pd 6.61532321 4.25772000 1.18995939
C 0.00000000 1.41924000 4.62332823
O 0.00000000 1.41924000 5.81170030
