&CONTROL
calculation = 'relax'
prefix = 'scf'
pseudo_dir = '/vol0403/data/hp230205/u10028/POT_HYBRID_KKJUS_GBRV'
outdir = './data'
tprnfor = .true.
nstep = 70
disk_io = 'non'
/
&SYSTEM
ibrav = 0
ecutwfc = 50.0
ecutrho = 400
occupations = 'smearing'
smearing = 'mp'
degauss = 0.01
assume_isolated = 'esm'
esm_bc = 'bc1'
input_dft = 'BEEF-VDW'
nosym = .true.
nspin = 1
ntyp = 5
nat = 33
/
&ELECTRONS
electron_maxstep = 200
mixing_beta = 0.1
conv_thr = 1e-06
/
&IONS
ion_dynamics = 'bfgs'
upscale = 1.0
/
&CELL
/

K_POINTS {automatic}
6 6 1 0 0 0

ATOMIC_SPECIES
Al 26.98 Al.pbe-nl-rrkjus_psl.1.0.0.UPF
C 12.01 C.pbe-n-rrkjus_psl.1.0.0.UPF
Cu 63.54 Cu.pbe-dn-rrkjus_psl.1.0.0.UPF
In 114.8 In.pbe-dn-rrkjus_psl.1.0.0.UPF
Li 6.941 Li.pbe-sl-rrkjus_psl.1.0.0.UPF


CELL_PARAMETERS {angstrom}
6.37467000 0.00000000 0.00000000
-0.00000000 9.01514000 0.00000000
0.00000000 0.00000000 26.76140000

ATOMIC_POSITIONS {angstrom}
Li 4.78100250 0.00000000 -1.1269225499999997 0 0 0
Li 4.78100250 4.50757000 -1.1269225499999997 0 0 0
Li 1.59366750 2.25378500 -3.38076766 0 0 0
Li 1.59366750 6.76135500 -3.38076766 0 0 0
Li 4.63005031 4.72591669 4.09235329
Li 4.62998657 8.79679331 4.09235329
Li 1.43914550 6.76135500 1.12585210
Li 1.29048819 2.25378500 1.47294746
Al 0.00000000 0.00000000 -3.38076766 0 0 0
Al 0.00000000 4.50757000 -3.38076766 0 0 0
Al 3.18733500 6.76135500 -1.1269225499999997 0 0 0
Al 3.18733500 2.25378500 -1.1269225499999997 0 0 0
Al 6.17884014 4.55255555 1.31050576
Al 6.17884014 8.97015445 1.31050576
Al 3.57555240 2.25378500 3.15918327
Al 3.03204804 6.76135500 3.34116079
In 0.00000000 2.25378500 -1.1269225499999997 0 0 0
In 0.00000000 6.76135500 -1.1269225499999997 0 0 0
In 3.18733500 4.50757000 -3.38076766 0 0 0
In 3.18733500 0.00000000 -3.38076766 0 0 0
In 0.09734121 6.76135500 3.71287664
In 6.15366019 2.25378500 4.56228347
In 3.18325521 8.96726961 1.18419195
In 3.18325521 4.55544039 1.18445956
Cu 1.59366750 0.00000000 -1.1269225499999997 0 0 0
Cu 1.59366750 4.50757000 -1.1269225499999997 0 0 0
Cu 4.78100250 2.25378500 -3.38076766 0 0 0
Cu 4.78100250 6.76135500 -3.38076766 0 0 0
Cu 1.46113811 4.27092258 3.26328512
Cu 1.46120186 0.23664742 3.26328512
Cu 4.82103543 6.76135500 1.07607589
Cu 4.80172018 2.25378500 0.99953829
C 1.73359151 2.25378500 3.60984525
