&CONTROL
calculation = 'relax'
prefix = 'scf'
pseudo_dir = '/vol0004/mdt0/data/hp150275/u10028/POT_KKJUS'
outdir = './data'
tprnfor = .true.
nstep = 50
disk_io = 'non'
/
&SYSTEM
ibrav = 0
ecutwfc = 50.0
ecutrho = 400
occupations = 'smearing'
smearing = 'mp'
degauss = 0.01
assume_isolated = 'esm'
esm_bc = 'bc1'
input_dft = 'BEEF-VDW'
nosym = .true.
nspin = 1
ntyp = 3
nat = 17
/
&ELECTRONS
electron_maxstep = 200
mixing_beta = 0.1
conv_thr = 1e-06
/
&IONS
ion_dynamics = 'bfgs'
upscale = 1.0
/
&CELL
/

K_POINTS {automatic}
8 8 1 0 0 0

ATOMIC_SPECIES
C 12.01 C.pbe-n-rrkjus_psl.1.0.0.UPF
Ru 101.0 Ru.pbe-spn-rrkjus_psl.1.0.0.UPF
V 50.94 V.pbe-spnl-rrkjus_psl.1.0.0.UPF

CELL_PARAMETERS {angstrom}
6.03636000 0.00000000 0.00000000
-0.00000000 6.03636000 0.00000000
0.00000000 0.00000000 24.52730000

ATOMIC_POSITIONS {angstrom}
V 1.50909000 1.50909000 -0.5057529299999999 0 0 0
V 1.50909000 1.50909000 2.51257661
V 1.50909000 4.52727000 -0.5057529299999999 0 0 0
V 1.50909000 4.52727000 2.51257661
V 4.52727000 1.50909000 -0.5057529299999999 0 0 0
V 4.52727000 1.50909000 2.51257661
V 4.52727000 4.52727000 -0.5057529299999999 0 0 0
V 4.52727000 4.52727000 2.51257661
Ru 0.00000000 0.00000000 -2.0149176900000008 0 0 0
Ru 0.00000000 0.00000000 1.00341184
Ru 0.00000000 3.01818000 -2.0149176900000008 0 0 0
Ru 0.00000000 3.01818000 1.00341184
Ru 3.01818000 0.00000000 -2.0149176900000008 0 0 0
Ru 3.01818000 -0.00000000 1.00341184
Ru 3.01818000 3.01818000 -2.0149176900000008 0 0 0
Ru 3.01818000 3.01818000 1.00341184
C 0.00000000 0.00000000 3.31241187
