&CONTROL
calculation = 'relax'
prefix = 'scf'
pseudo_dir = '/vol0403/data/hp230205/u10028/POT_HYBRID_KKJUS_GBRV'
outdir = './data'
tprnfor = .true.
nstep = 70
disk_io = 'non'
/
&SYSTEM
ibrav = 0
ecutwfc = 50.0
ecutrho = 400
occupations = 'smearing'
smearing = 'mp'
degauss = 0.01
assume_isolated = 'esm'
esm_bc = 'bc1'
input_dft = 'BEEF-VDW'
nosym = .true.
nspin = 1
ntyp = 4
nat = 32
/
&ELECTRONS
electron_maxstep = 200
mixing_beta = 0.1
conv_thr = 1e-06
/
&IONS
ion_dynamics = 'bfgs'
upscale = 1.0
/
&CELL
/

K_POINTS {automatic}
6 6 1 0 0 0

ATOMIC_SPECIES
Ge 72.64 Ge.pbe-dn-rrkjus_psl.1.0.0.UPF
In 114.8 In.pbe-dn-rrkjus_psl.1.0.0.UPF
Pd 106.4 Pd.pbe-n-rrkjus_psl.1.0.0.UPF
Y 88.90 Y.pbe-spn-rrkjus_psl.1.0.0.UPF


CELL_PARAMETERS {angstrom}
9.45024000 0.00000000 0.00000000
-0.00000000 7.93684000 0.00000000
0.00000000 0.00000000 26.65400000

ATOMIC_POSITIONS {angstrom}
Y 0.00000000 1.98421000 -1.1090729400000008 0 0 0
Y 0.00000000 1.98421000 3.32695228
Y 0.00000000 5.95263000 -1.1090729400000008 0 0 0
Y 0.00000000 5.95263000 3.32695228
Y 4.72512000 1.98421000 -1.1090729400000008 0 0 0
Y 4.72512000 1.98421000 3.32695228
Y 4.72512000 5.95263000 -1.1090729400000008 0 0 0
Y 4.72512000 5.95263000 3.32695228
In 2.36256000 1.98421000 -3.3269522800000004 0 0 0
In 2.36256000 1.98421000 1.10907294
In 2.36256000 5.95263000 -3.3269522800000004 0 0 0
In 2.36256000 5.95263000 1.10907294
In 7.08768000 1.98421000 -3.3269522800000004 0 0 0
In 7.08768000 1.98421000 1.10907294
In 7.08768000 5.95263000 -3.3269522800000004 0 0 0
In 7.08768000 5.95263000 1.10907294
Ge 0.00000000 0.00000000 -3.3269522800000004 0 0 0
Ge 0.00000000 0.00000000 1.10907294
Ge 0.00000000 3.96842000 -3.3269522800000004 0 0 0
Ge 0.00000000 3.96842000 1.10907294
Ge 4.72512000 0.00000000 -3.3269522800000004 0 0 0
Ge 4.72512000 -0.00000000 1.10907294
Ge 4.72512000 3.96842000 -3.3269522800000004 0 0 0
Ge 4.72512000 3.96842000 1.10907294
Pd 2.36256000 0.00000000 -1.1090729400000008 0 0 0
Pd 2.36256000 -0.00000000 3.32695228
Pd 2.36256000 3.96842000 -1.1090729400000008 0 0 0
Pd 2.36256000 3.96842000 3.32695228
Pd 7.08768000 0.00000000 -1.1090729400000008 0 0 0
Pd 7.08768000 -0.00000000 3.32695228
Pd 7.08768000 3.96842000 -1.1090729400000008 0 0 0
Pd 7.08768000 3.96842000 3.32695228
