&CONTROL
calculation = 'relax'
prefix = 'scf'
pseudo_dir = '/vol0004/mdt0/data/hp150275/u10028/POT_KKJUS'
outdir = './data'
tprnfor = .true.
nstep = 50
disk_io = 'non'
/
&SYSTEM
ibrav = 0
ecutwfc = 50.0
ecutrho = 400
occupations = 'smearing'
smearing = 'mp'
degauss = 0.01
assume_isolated = 'esm'
esm_bc = 'bc1'
input_dft = 'BEEF-VDW'
nosym = .true.
nspin = 1
ntyp = 5
nat = 18
/
&ELECTRONS
electron_maxstep = 200
mixing_beta = 0.1
conv_thr = 1e-06
/
&IONS
ion_dynamics = 'bfgs'
upscale = 1.0
/
&CELL
/

K_POINTS {automatic}
9 9 2 0  0  0

ATOMIC_SPECIES
C 12.01 C.pbe-n-rrkjus_psl.1.0.0.UPF
In 114.8 In.pbe-dn-rrkjus_psl.1.0.0.UPF
Li 6.941 Li.pbe-sl-rrkjus_psl.1.0.0.UPF
O 15.99 O.pbe-n-rrkjus_psl.1.0.0.UPF
Pt 195.0 Pt.pbe-n-rrkjus_psl.1.0.0.UPF

CELL_PARAMETERS {angstrom}
6.43375000 0.00000000 0.00000000
0.00000000 6.43375000 0.00000000
0.00000000 0.00000000 24.82530000

ATOMIC_POSITIONS {angstrom}
Li 0.02605669 6.39418244 0.69610141
Li 3.21687500 0.00000000 -2.412770909999999 0 0 0
Li 0.00000000 3.21687500 -2.412770909999999 0 0 0
Li 3.19345615 3.24621290 0.71943719
Li 1.59151674 1.60631436 2.42245277
Li 1.60843750 4.82531250 -0.804339719999998 0 0 0
Li 4.82833636 4.82878673 2.43809271
Li 4.82531250 1.60843750 -0.804339719999998 0 0 0
In 1.60843750 1.60843750 -0.804339719999998 0 0 0
In 1.60670039 4.83567084 2.45025711
In 4.82531250 4.82531250 -0.804339719999998 0 0 0
In 4.84416339 1.59608470 2.33506772
Pt 0.00000000 0.00000000 -2.412770909999999 0 0 0
Pt 3.21687500 3.21687500 -2.412770909999999 0 0 0
Pt 3.20014725 6.41670056 0.82693074
Pt 0.01827185 3.24016517 0.82717900
C 4.82486214 1.67502681 6.17305910
O 4.82859371 1.57626875 7.30434802
