&CONTROL
calculation = 'relax'
prefix = 'scf'
pseudo_dir = '/vol0004/mdt0/data/hp150275/u10028/POT_KKJUS'
outdir = './data'
tprnfor = .true.
nstep = 50
disk_io = 'non'
/
&SYSTEM
ibrav = 0
ecutwfc = 50.0
ecutrho = 400
occupations = 'smearing'
smearing = 'mp'
degauss = 0.01
assume_isolated = 'esm'
esm_bc = 'bc1'
input_dft = 'BEEF-VDW'
nosym = .true.
nspin = 1
ntyp = 3
nat = 16
/
&ELECTRONS
electron_maxstep = 200
mixing_beta = 0.1
conv_thr = 1e-06
/
&IONS
ion_dynamics = 'bfgs'
upscale = 1.0
/
&CELL
/

K_POINTS {automatic}
10 10 2 0  0  0

ATOMIC_SPECIES
Cu 63.54 Cu.pbe-dn-rrkjus_psl.1.0.0.UPF
Li 6.941 Li.pbe-sl-rrkjus_psl.1.0.0.UPF
Sb 121.7 Sb.pbe-n-rrkjus_psl.1.0.0.UPF

CELL_PARAMETERS {angstrom}
6.37457000 0.00000000 0.00000000
0.00000000 6.37457000 0.00000000
0.00000000 0.00000000 24.78090000

ATOMIC_POSITIONS {angstrom}
Li 0.00000000 0.00000000 0.87203987
Li 3.18728500 0.00000000 -2.39036561 0 0 0
Li 0.00000000 3.18728500 -2.39036561 0 0 0
Li 3.18728500 3.18728500 0.87203987
Li 1.59364250 1.59364250 -0.7967059299999981 0 0 0
Li 1.59370625 4.78086375 2.68847984
Li 4.78092750 4.78092750 -0.7967059299999981 0 0 0
Li 4.78086375 1.59364250 2.68847984
Cu 0.00000000 0.00000000 -2.39036561 0 0 0
Cu 3.18728500 3.18728500 -2.39036561 0 0 0
Cu 3.18734875 0.00000000 0.90945903
Cu 0.00000000 3.18734875 0.90970684
Sb 1.59364250 1.59357875 2.40994252
Sb 1.59364250 4.78092750 -0.7967059299999981 0 0 0
Sb 4.78086375 4.78099125 2.40994252
Sb 4.78092750 1.59364250 -0.7967059299999981 0 0 0
