&CONTROL
calculation = 'relax'
prefix = 'scf'
pseudo_dir = '/vol0004/mdt0/data/hp150275/u10028/POT_KKJUS'
outdir = './data'
tprnfor = .true.
nstep = 50
disk_io = 'non'
/
&SYSTEM
ibrav = 0
ecutwfc = 50.0
ecutrho = 400
occupations = 'smearing'
smearing = 'mp'
degauss = 0.01
assume_isolated = 'esm'
esm_bc = 'bc1'
input_dft = 'BEEF-VDW'
nosym = .true.
nspin = 1
ntyp = 3
nat = 33
/
&ELECTRONS
electron_maxstep = 200
mixing_beta = 0.1
conv_thr = 1e-06
/
&IONS
ion_dynamics = 'bfgs'
upscale = 1.0
/
&CELL
/

K_POINTS {automatic}
9 6 2 0  0  0

ATOMIC_SPECIES
C 12.01 C.pbe-n-rrkjus_psl.1.0.0.UPF
Ru 101.0 Ru.pbe-spn-rrkjus_psl.1.0.0.UPF
Ti 47.86 Ti.pbe-spn-rrkjus_psl.1.0.0.UPF

CELL_PARAMETERS {angstrom}
6.18271000 0.00000000 0.00000000
0.00000000 8.74368000 0.00000000
0.00000000 0.00000000 26.55780000

ATOMIC_POSITIONS {angstrom}
Ti 0.00000000 0.00000000 -3.2788259900000014 0 0 0
Ti 0.00000000 2.18592000 -1.0928534700000014 0 0 0
Ti 6.17924768 8.74044484 1.14304771
Ti 5.85001837 2.18592000 3.38399488
Ti 0.00000000 4.37184000 -3.2788259900000014 0 0 0
Ti 0.00000000 6.55776000 -1.0928534700000014 0 0 0
Ti 6.17924768 4.37498772 1.14331329
Ti 0.01823899 6.55776000 3.31680364
Ti 3.09135500 0.00000000 -3.2788259900000014 0 0 0
Ti 3.09135500 2.18592000 -1.0928534700000014 0 0 0
Ti 3.09370443 8.74079459 1.14304771
Ti 3.42070796 2.18592000 3.38293256
Ti 3.09135500 4.37184000 -3.2788259900000014 0 0 0
Ti 3.09135500 6.55776000 -1.0928534700000014 0 0 0
Ti 3.09370443 4.37472541 1.14304771
Ti 3.06872628 6.55776000 3.31653806
Ru 1.54567750 2.18592000 -3.2788259900000014 0 0 0
Ru 1.54567750 0.00000000 -1.0928534700000014 0 0 0
Ru 1.54518288 2.18592000 1.09869619
Ru 1.54437913 0.05587212 3.13196135
Ru 1.54567750 6.55776000 -3.2788259900000014 0 0 0
Ru 1.54567750 4.37184000 -1.0928534700000014 0 0 0
Ru 1.54407000 6.55776000 1.11409971
Ru 1.54431730 4.31605532 3.13196135
Ru 4.63703250 2.18592000 -3.2788259900000014 0 0 0
Ru 4.63703250 0.00000000 -1.0928534700000014 0 0 0
Ru 4.63591961 2.18592000 1.03469189
Ru 4.63548682 8.61191274 3.15692569
Ru 4.63703250 6.55776000 -3.2788259900000014 0 0 0
Ru 4.63703250 4.37184000 -1.0928534700000014 0 0 0
Ru 4.63703250 6.55776000 1.05673486
Ru 4.63548682 4.50360726 3.15692569
C 1.54357538 2.18592000 3.56485349
