&CONTROL
calculation = 'relax'
prefix = 'scf'
pseudo_dir = '/vol0004/mdt0/data/hp150275/u10028/POT_HYBRID_KKJUS_GBRV'
outdir = './data'
tprnfor = .true.
nstep = 50
disk_io = 'non'
/
&SYSTEM
ibrav = 0
ecutwfc = 50.0
ecutrho = 400
occupations = 'smearing'
smearing = 'mp'
degauss = 0.01
assume_isolated = 'esm'
esm_bc = 'bc1'
input_dft = 'BEEF-VDW'
nosym = .true.
nspin = 2
ntyp = 4
nat = 34
starting_magnetization(1) = 0.0
starting_magnetization(2) = 0.01
starting_magnetization(3) = 0.0
starting_magnetization(4) = 0.0
/
&ELECTRONS
electron_maxstep = 200
mixing_beta = 0.1
conv_thr = 1e-06
/
&IONS
ion_dynamics = 'bfgs'
upscale = 1.0
/
&CELL
/

K_POINTS {automatic}
7 7 2 0  0  0

ATOMIC_SPECIES
C 12.01 C.pbe-n-rrkjus_psl.1.0.0.UPF
Cr 51.99 cr_pbe_v1.5.uspp.F.UPF
O 15.99 O.pbe-n-rrkjus_psl.1.0.0.UPF
Pt 195.0 Pt.pbe-n-rrkjus_psl.1.0.0.UPF

CELL_PARAMETERS {angstrom}
7.90097000 0.00000000 0.00000000
-0.00000000 7.90097000 0.00000000
0.00000000 0.00000000 25.92570000

ATOMIC_POSITIONS {angstrom}
Cr 0.00000000 0.00000000 2.96278900
Cr 0.00000000 0.00000000 24.93819009
Cr 0.00000000 3.95048500 2.96278900
Cr 0.00000000 3.95048500 24.93819009
Cr 3.95048500 -0.00000000 2.96278900
Cr 3.95048500 0.00000000 24.93819009
Cr 3.95048500 3.95048500 2.96278900
Cr 3.95048500 3.95048500 24.93819009
Pt 0.00000000 1.97524250 0.98750991
Pt 1.97524250 -0.00000000 0.98750991
Pt 1.97524250 1.97524250 2.96278900
Pt 0.00000000 1.97524250 22.96291100
Pt 1.97524250 0.00000000 22.96291100
Pt 1.97524250 1.97524250 24.93819009
Pt 0.00000000 5.92572750 0.98750991
Pt 1.97524250 3.95048500 0.98750991
Pt 1.97524250 5.92572750 2.96278900
Pt 0.00000000 5.92572750 22.96291100
Pt 1.97524250 3.95048500 22.96291100
Pt 1.97524250 5.92572750 24.93819009
Pt 3.95048500 1.97524250 0.98750991
Pt 5.92572750 -0.00000000 0.98750991
Pt 5.92572750 1.97524250 2.96278900
Pt 3.95048500 1.97524250 22.96291100
Pt 5.92572750 0.00000000 22.96291100
Pt 5.92572750 1.97524250 24.93819009
Pt 3.95048500 5.92572750 0.98750991
Pt 5.92572750 3.95048500 0.98750991
Pt 5.92572750 5.92572750 2.96278900
Pt 3.95048500 5.92572750 22.96291100
Pt 5.92572750 3.95048500 22.96291100
Pt 5.92572750 5.92572750 24.93819009
C 1.97524250 1.97524250 4.86288355
O 1.97524250 1.97524250 6.01294760
