&CONTROL
calculation = 'relax'
prefix = 'scf'
pseudo_dir = '/vol0004/mdt0/data/hp150275/u10028/POT_KKJUS'
outdir = './data'
tprnfor = .true.
nstep = 50
disk_io = 'non'
/
&SYSTEM
ibrav = 0
ecutwfc = 50.0
ecutrho = 400
occupations = 'smearing'
smearing = 'mp'
degauss = 0.01
assume_isolated = 'esm'
esm_bc = 'bc1'
input_dft = 'BEEF-VDW'
nosym = .true.
nspin = 1
ntyp = 3
nat = 17
/
&ELECTRONS
electron_maxstep = 200
mixing_beta = 0.1
conv_thr = 1e-06
/
&IONS
ion_dynamics = 'bfgs'
upscale = 1.0
/
&CELL
/

K_POINTS {automatic}
8 8 1 0 0 0

ATOMIC_SPECIES
C 12.01 C.pbe-n-rrkjus_psl.1.0.0.UPF
Mg 24.30 Mg.pbe-spnl-rrkjus_psl.1.0.0.UPF
Sc 44.95 Sc.pbe-spn-rrkjus_psl.1.0.0.UPF

CELL_PARAMETERS {angstrom}
7.19733000 0.00000000 0.00000000
-0.00000000 7.19733000 0.00000000
0.00000000 0.00000000 25.39800000

ATOMIC_POSITIONS {angstrom}
Mg 0.00000000 0.00000000 -2.967248340000001 0 0 0
Mg 0.00000000 0.00000000 0.63139428
Mg 0.00000000 3.59866500 -2.967248340000001 0 0 0
Mg 0.00000000 3.59866500 0.63139428
Mg 3.59866500 0.00000000 -2.967248340000001 0 0 0
Mg 3.59866500 -0.00000000 0.63139428
Mg 3.59866500 3.59866500 -2.967248340000001 0 0 0
Mg 3.59866500 3.59866500 0.63139428
Sc 1.79933250 1.79933250 -1.1678000399999995 0 0 0
Sc 1.79933250 1.79933250 2.43084258
Sc 1.79933250 5.39799750 -1.1678000399999995 0 0 0
Sc 1.79933250 5.39799750 2.43084258
Sc 5.39799750 1.79933250 -1.1678000399999995 0 0 0
Sc 5.39799750 1.79933250 2.43084258
Sc 5.39799750 5.39799750 -1.1678000399999995 0 0 0
Sc 5.39799750 5.39799750 2.43084258
C 0.00000000 0.00000000 3.23087958
