&CONTROL
calculation = 'relax'
prefix = 'scf'
pseudo_dir = '/vol0004/mdt0/data/hp150275/u10028/POT_HYBRID_KKJUS_GBRV'
outdir = './data'
tprnfor = .true.
nstep = 50
disk_io = 'non'
/
&SYSTEM
ibrav = 0
ecutwfc = 50.0
ecutrho = 400
occupations = 'smearing'
smearing = 'mp'
degauss = 0.01
assume_isolated = 'esm'
esm_bc = 'bc1'
input_dft = 'BEEF-VDW'
nosym = .true.
nspin = 2
ntyp = 5
nat = 18
starting_magnetization(1) = 0.1
starting_magnetization(2) = 0.1
starting_magnetization(3) = 0.1
starting_magnetization(4) = 0.1
starting_magnetization(5) = 0.1
/
&ELECTRONS
electron_maxstep = 200
mixing_beta = 0.1
conv_thr = 1e-06
/
&IONS
ion_dynamics = 'bfgs'
upscale = 1.0
/
&CELL
/

K_POINTS {automatic}
9 9 2 0  0  0

ATOMIC_SPECIES
C 12.01 C.pbe-n-rrkjus_psl.1.0.0.UPF
Hf 178.4 Hf.pbe-spn-rrkjus_psl.1.0.0.UPF
Ni 58.69 ni_pbe_v1.4.uspp.F.UPF
O 15.99 O.pbe-n-rrkjus_psl.1.0.0.UPF
Sn 118.7 Sn.pbe-dn-rrkjus_psl.1.0.0.UPF

CELL_PARAMETERS {angstrom}
6.29417000 0.00000000 0.00000000
0.00000000 6.29417000 0.00000000
0.00000000 0.00000000 24.72060000

ATOMIC_POSITIONS {angstrom}
Hf 6.29385529 6.29404412 2.27973373
Hf 3.14695912 3.14689617 2.28121697
Hf 3.14708500 0.00000000 -0.7868567000000013 0 0 0
Hf 0.00000000 3.14708500 -0.7868567000000013 0 0 0
Ni 1.64863195 1.50109660 0.86843468
Ni 4.72062750 4.72062750 -2.3603228900000026 0 0 0
Ni 4.64522334 1.50109660 0.86843468
Ni 1.57354250 4.72062750 -2.3603228900000026 0 0 0
Ni 4.64516040 4.79301046 0.86843468
Ni 1.57354250 1.57354250 -2.3603228900000026 0 0 0
Ni 1.64863195 4.79294751 0.86868188
Ni 4.72062750 1.57354250 -2.3603228900000026 0 0 0
Sn 0.00000000 0.00000000 -0.7868567000000013 0 0 0
Sn 3.14683323 6.29404412 2.66166700
Sn 0.00006294 3.14714794 2.42929336
Sn 3.14708500 3.14708500 -0.7868567000000013 0 0 0
C 0.00692359 3.14702206 6.84834782
O 6.29240763 3.14683323 7.98327056
