&CONTROL
calculation = 'relax'
prefix = 'scf'
pseudo_dir = '/vol0004/mdt0/data/hp150275/u10028/POT_KKJUS'
outdir = './data'
tprnfor = .true.
nstep = 50
disk_io = 'non'
/
&SYSTEM
ibrav = 0
ecutwfc = 50.0
ecutrho = 400
occupations = 'smearing'
smearing = 'mp'
degauss = 0.01
assume_isolated = 'esm'
esm_bc = 'bc1'
input_dft = 'BEEF-VDW'
nosym = .true.
nspin = 1
ntyp = 5
nat = 18
/
&ELECTRONS
electron_maxstep = 200
mixing_beta = 0.1
conv_thr = 1e-06
/
&IONS
ion_dynamics = 'bfgs'
upscale = 1.0
/
&CELL
/

K_POINTS {automatic}
10 10 2 0  0  0

ATOMIC_SPECIES
C 12.01 C.pbe-n-rrkjus_psl.1.0.0.UPF
Ga 69.72 Ga.pbe-dnl-rrkjus_psl.1.0.0.UPF
Nb 92.90 Nb.pbe-spn-rrkjus_psl.1.0.0.UPF
Ni 58.69 Ni.pbe-spn-rrkjus_psl.1.0.0.UPF
O 15.99 O.pbe-n-rrkjus_psl.1.0.0.UPF

CELL_PARAMETERS {angstrom}
6.01786000 0.00000000 0.00000000
0.00000000 6.01786000 0.00000000
0.00000000 0.00000000 24.51340000

ATOMIC_POSITIONS {angstrom}
Nb 0.00210625 0.00300893 2.20056792
Nb 3.00778661 3.01242036 2.17997666
Nb 3.00893000 0.00000000 -0.7523162499999998 0 0 0
Nb 0.00000000 3.00893000 -0.7523162499999998 0 0 0
Ga 0.00000000 0.00000000 -0.7523162499999998 0 0 0
Ga 3.01025393 6.01641571 2.28660995
Ga 0.00132393 3.00568036 2.24591771
Ga 3.00893000 3.00893000 -0.7523162499999998 0 0 0
Ni 1.46631177 1.52961965 0.80673599
Ni 4.51339500 4.51339500 -2.2567036000000016 0 0 0
Ni 4.55533948 1.53034180 0.80771653
Ni 1.50446500 4.51339500 -2.2567036000000016 0 0 0
Ni 4.56310252 4.48775892 0.81016787
Ni 1.50446500 1.50446500 -2.2567036000000016 0 0 0
Ni 1.45794694 4.48685624 0.80722626
Ni 4.51339500 1.50446500 -2.2567036000000016 0 0 0
C 6.01442982 3.01278143 4.21949154
O 6.01659625 3.00844857 5.38412318
