&CONTROL
calculation = 'relax'
prefix = 'scf'
pseudo_dir = '/vol0004/mdt0/data/hp150275/u10028/POT_KKJUS'
outdir = './data'
tprnfor = .true.
nstep = 50
disk_io = 'non'
/
&SYSTEM
ibrav = 0
ecutwfc = 50.0
ecutrho = 400
occupations = 'smearing'
smearing = 'mp'
degauss = 0.01
assume_isolated = 'esm'
esm_bc = 'bc1'
input_dft = 'BEEF-VDW'
nosym = .true.
nspin = 1
ntyp = 4
nat = 33
/
&ELECTRONS
electron_maxstep = 200
mixing_beta = 0.1
conv_thr = 1e-06
/
&IONS
ion_dynamics = 'bfgs'
upscale = 1.0
/
&CELL
/

K_POINTS {automatic}
9 6 2 0  0  0

ATOMIC_SPECIES
Au 196.9 Au.pbe-n-rrkjus_psl.1.0.0.UPF
C 12.01 C.pbe-n-rrkjus_psl.1.0.0.UPF
Hf 178.4 Hf.pbe-spn-rrkjus_psl.1.0.0.UPF
In 114.8 In.pbe-dn-rrkjus_psl.1.0.0.UPF

CELL_PARAMETERS {angstrom}
6.82626000 0.00000000 0.00000000
0.00000000 9.65379000 0.00000000
0.00000000 0.00000000 27.24030000

ATOMIC_POSITIONS {angstrom}
Hf 0.00000000 0.00000000 -3.620235870000002 0 0 0
Hf 3.41313000 2.41344750 -1.2067452900000006 0 0 0
Hf 3.41313000 7.24034250 -1.2067452900000006 0 0 0
Hf 0.00000000 4.82689500 -3.620235870000002 0 0 0
Hf 0.00000000 4.82689500 1.28955580
Hf 3.41313000 7.30840172 3.38760371
Hf 3.41313000 2.34548482 3.38760371
Hf 0.00000000 9.65369346 1.55678315
In 0.00000000 7.24034250 -1.2067452900000006 0 0 0
In 3.41313000 0.00000000 -3.620235870000002 0 0 0
In 0.00000000 2.41344750 -1.2067452900000006 0 0 0
In 3.41313000 4.82689500 -3.620235870000002 0 0 0
In 0.00000000 2.52292148 4.00813774
In 3.41313000 4.82679846 1.13837214
In 0.00000000 7.13086852 4.00786534
In 3.41313000 0.00000000 1.20265925
Au 1.70656500 0.00000000 -1.2067452900000006 0 0 0
Au 5.11969500 4.82689500 -1.2067452900000006 0 0 0
Au 5.11969500 0.00000000 -1.2067452900000006 0 0 0
Au 1.70656500 4.82689500 -1.2067452900000006 0 0 0
Au 5.11969500 7.24034250 -3.620235870000002 0 0 0
Au 1.70656500 2.41344750 -3.620235870000002 0 0 0
Au 1.70656500 7.24034250 -3.620235870000002 0 0 0
Au 5.11969500 2.41344750 -3.620235870000002 0 0 0
Au 1.93422077 4.82689500 3.75534776
Au 4.79606201 0.00009654 4.29007485
Au 4.89203923 4.82699154 3.75534776
Au 2.03019799 0.00009654 4.29007485
Au 5.21321476 2.43178970 1.22908234
Au 1.61318176 7.22200030 1.22880993
Au 1.61311350 2.43178970 1.22908234
Au 5.21307824 7.22200030 1.22880993
C 0.00000000 9.65340385 3.63821447
