&CONTROL
calculation = 'relax'
prefix = 'scf'
pseudo_dir = '/vol0004/mdt0/data/hp150275/u10028/POT_HYBRID_KKJUS_GBRV'
outdir = './data'
tprnfor = .true.
nstep = 50
disk_io = 'non'
/
&SYSTEM
ibrav = 0
ecutwfc = 50.0
ecutrho = 400
occupations = 'smearing'
smearing = 'mp'
degauss = 0.01
assume_isolated = 'esm'
esm_bc = 'bc1'
input_dft = 'BEEF-VDW'
nosym = .true.
nspin = 2
ntyp = 4
nat = 33
starting_magnetization(1) = 0.0
starting_magnetization(2) = 0.1
starting_magnetization(3) = 0.0
starting_magnetization(4) = 0.0
/
&ELECTRONS
electron_maxstep = 300
mixing_beta = 0.1
conv_thr = 1e-06
/
&IONS
ion_dynamics = 'bfgs'
upscale = 1.0
/
&CELL
/

K_POINTS {automatic}
9 6 2 0  0  0

ATOMIC_SPECIES
C 12.01 C.pbe-n-rrkjus_psl.1.0.0.UPF
Fe 55.84 fe_pbe_v1.5.uspp.F.UPF
Ga 69.72 Ga.pbe-dnl-rrkjus_psl.1.0.0.UPF
V 50.94 V.pbe-spnl-rrkjus_psl.1.0.0.UPF

CELL_PARAMETERS {angstrom}
5.73361000 0.00000000 0.00000000
0.00000000 8.10855000 0.00000000
0.00000000 0.00000000 26.08140000

ATOMIC_POSITIONS {angstrom}
V 0.00000000 0.00000000 -3.0408304299999998 0 0 0
V 2.86680500 2.02713750 -1.013523199999998 0 0 0
V 2.86680500 6.08141250 -1.013523199999998 0 0 0
V 0.00000000 4.05427500 -3.0408304299999998 0 0 0
V 5.70981552 4.07357335 0.99291890
V 2.91525400 6.08141250 2.98292972
V 3.24837675 2.02713750 2.95424018
V 5.70981552 8.08925165 0.99291890
Ga 0.00000000 6.08141250 -1.013523199999998 0 0 0
Ga 2.86680500 0.00000000 -3.0408304299999998 0 0 0
Ga 0.00000000 2.02713750 -1.013523199999998 0 0 0
Ga 2.86680500 4.05427500 -3.0408304299999998 0 0 0
Ga 5.37244991 2.02705641 4.21866645
Ga 2.84163445 4.03100346 1.05760077
Ga 0.08221997 6.08149359 3.27425896
Ga 2.84163445 0.02327154 1.05760077
Fe 1.43340250 0.00000000 -1.013523199999998 0 0 0
Fe 4.30020750 4.05427500 -1.013523199999998 0 0 0
Fe 4.30020750 0.00000000 -1.013523199999998 0 0 0
Fe 1.43340250 4.05427500 -1.013523199999998 0 0 0
Fe 4.30020750 6.08141250 -3.0408304299999998 0 0 0
Fe 1.43340250 2.02713750 -3.0408304299999998 0 0 0
Fe 1.43340250 6.08141250 -3.0408304299999998 0 0 0
Fe 4.30020750 2.02713750 -3.0408304299999998 0 0 0
Fe 1.20245269 3.88002226 3.06143473
Fe 4.41981060 8.07798077 3.04369938
Fe 4.41975327 4.08484423 3.04369938
Fe 1.20245269 0.17425274 3.06143473
Fe 4.33323309 2.02705641 1.00387309
Fe 1.42176327 6.08149359 1.05968728
Fe 1.35078118 2.02705641 1.20548231
Fe 4.29802873 6.08149359 1.07142391
C 1.40800261 2.02713750 3.33398536
