&CONTROL
calculation = 'relax'
prefix = 'scf'
pseudo_dir = '/vol0004/mdt0/data/hp150275/u10028/POT_KKJUS'
outdir = './data'
tprnfor = .true.
nstep = 50
disk_io = 'non'
/
&SYSTEM
ibrav = 0
ecutwfc = 50.0
ecutrho = 400
occupations = 'smearing'
smearing = 'mp'
degauss = 0.01
assume_isolated = 'esm'
esm_bc = 'bc1'
input_dft = 'BEEF-VDW'
nosym = .true.
nspin = 1
ntyp = 3
nat = 33
/
&ELECTRONS
electron_maxstep = 200
mixing_beta = 0.1
conv_thr = 1e-06
/
&IONS
ion_dynamics = 'bfgs'
upscale = 1.0
/
&CELL
/

K_POINTS {automatic}
9 6 2 0  0  0

ATOMIC_SPECIES
C 12.01 C.pbe-n-rrkjus_psl.1.0.0.UPF
Rh 102.9 Rh.pbe-spn-rrkjus_psl.1.0.0.UPF
Zn 65.40 Zn.pbe-dnl-rrkjus_psl.1.0.0.UPF

CELL_PARAMETERS {angstrom}
6.06651000 0.00000000 0.00000000
0.00000000 8.57934000 0.00000000
0.00000000 0.00000000 26.43450000

ATOMIC_POSITIONS {angstrom}
Zn 1.51662750 2.14483500 -3.217342989999999 0 0 0
Zn 1.51662750 0.00000000 -1.0724476599999981 0 0 0
Zn 1.49939861 2.15418648 1.07376939
Zn 1.86830308 0.00017159 3.26228165
Zn 1.51662750 6.43450500 -3.217342989999999 0 0 0
Zn 1.51662750 4.28967000 -1.0724476599999981 0 0 0
Zn 1.49939861 6.42515352 1.07350505
Zn 1.39481198 4.28949841 3.32308099
Zn 4.54988250 2.14483500 -3.217342989999999 0 0 0
Zn 4.54988250 0.00000000 -1.0724476599999981 0 0 0
Zn 4.56711139 2.15418648 1.07376939
Zn 4.19820692 0.00017159 3.26228165
Zn 4.54988250 6.43450500 -3.217342989999999 0 0 0
Zn 4.54988250 4.28967000 -1.0724476599999981 0 0 0
Zn 4.56711139 6.42515352 1.07350505
Zn 4.67169802 4.28949841 3.32308099
Rh 0.00000000 0.00000000 -3.217342989999999 0 0 0
Rh 0.00000000 2.14483500 -1.0724476599999981 0 0 0
Rh 0.00000000 0.00000000 1.07561980
Rh 0.00000000 1.83529241 3.30140470
Rh 0.00000000 4.28967000 -3.217342989999999 0 0 0
Rh 0.00000000 6.43450500 -1.0724476599999981 0 0 0
Rh 0.00000000 4.28967000 1.13456874
Rh 0.00000000 6.74404759 3.30140470
Rh 3.03325500 0.00000000 -3.217342989999999 0 0 0
Rh 3.03325500 2.14483500 -1.0724476599999981 0 0 0
Rh 3.03325500 0.00000000 0.99182244
Rh 3.03325500 2.31959616 3.14385508
Rh 3.03325500 4.28967000 -3.217342989999999 0 0 0
Rh 3.03325500 6.43450500 -1.0724476599999981 0 0 0
Rh 3.03325500 4.28967000 1.06266690
Rh 3.03325500 6.25982964 3.14385508
C 0.00000000 0.00000000 3.83326684
