&CONTROL
calculation = 'relax'
prefix = 'scf'
pseudo_dir = '/vol0004/mdt0/data/hp150275/u10028/POT_HYBRID_KKJUS_GBRV'
outdir = './data'
tprnfor = .true.
nstep = 50
disk_io = 'non'
/
&SYSTEM
ibrav = 0
ecutwfc = 50.0
ecutrho = 400
occupations = 'smearing'
smearing = 'mp'
degauss = 0.01
assume_isolated = 'esm'
esm_bc = 'bc1'
input_dft = 'BEEF-VDW'
nosym = .true.
nspin = 2
ntyp = 4
nat = 33
starting_magnetization(1) = 0.0
starting_magnetization(2) = 0.1
starting_magnetization(3) = 0.0
starting_magnetization(4) = 0.0
/
&ELECTRONS
electron_maxstep = 300
mixing_beta = 0.1
conv_thr = 1e-06
/
&IONS
ion_dynamics = 'bfgs'
upscale = 1.0
/
&CELL
/

K_POINTS {automatic}
8 6 1 0 0 0

ATOMIC_SPECIES
C 12.01 C.pbe-n-rrkjus_psl.1.0.0.UPF
Co 58.93 co_pbe_v1.2.uspp.F.UPF
Ga 69.72 Ga.pbe-dnl-rrkjus_psl.1.0.0.UPF
Ta 180.9 Ta.pbe-spn-rrkjus_psl.1.0.0.UPF

CELL_PARAMETERS {angstrom}
5.95946000 0.00000000 0.00000000
0.00000000 8.42794000 0.00000000
0.00000000 0.00000000 26.32100000

ATOMIC_POSITIONS {angstrom}
Ta 0.00000000 0.00000000 -3.1603624700000026 0 0 0
Ta 2.97973000 2.10698500 -1.0533664200000032 0 0 0
Ta 2.97973000 6.32095500 -1.0533664200000032 0 0 0
Ta 0.00000000 4.21397000 -3.1603624700000026 0 0 0
Ta 0.00000000 4.21397000 1.08758372
Ta 2.97973000 6.30780741 3.14667555
Ta 2.97973000 2.12013259 3.14667555
Ta 0.00000000 0.00000000 1.04783901
Ga 0.00000000 6.32095500 -1.0533664200000032 0 0 0
Ga 2.97973000 0.00000000 -3.1603624700000026 0 0 0
Ga 0.00000000 2.10698500 -1.0533664200000032 0 0 0
Ga 2.97973000 4.21397000 -3.1603624700000026 0 0 0
Ga 0.00000000 2.14305658 3.19247409
Ga 2.97978959 4.21397000 1.06994865
Ga 0.00000000 6.28488342 3.19247409
Ga 2.97967041 0.00008428 1.05284000
Co 1.48986500 0.00000000 -1.0533664200000032 0 0 0
Co 4.46959500 4.21397000 -1.0533664200000032 0 0 0
Co 4.46959500 0.00000000 -1.0533664200000032 0 0 0
Co 1.48986500 4.21397000 -1.0533664200000032 0 0 0
Co 4.46959500 6.32095500 -3.1603624700000026 0 0 0
Co 1.48986500 2.10698500 -3.1603624700000026 0 0 0
Co 1.48986500 6.32095500 -3.1603624700000026 0 0 0
Co 4.46959500 2.10698500 -3.1603624700000026 0 0 0
Co 1.48551459 4.21397000 3.11430072
Co 4.38437472 0.00000000 3.14246419
Co 4.47394541 4.21397000 3.11430072
Co 1.57508528 0.00000000 3.14246419
Co 4.45839122 2.10133828 1.06757976
Co 1.50100919 6.32668600 1.06784297
Co 1.50100919 2.10125400 1.06784297
Co 4.45839122 6.32660172 1.06757976
C 0.00000000 0.00000000 3.97289174
