&CONTROL
calculation = 'relax'
prefix = 'scf'
pseudo_dir = '/vol0403/data/hp230205/u10028/POT_HYBRID_KKJUS_GBRV'
outdir = './data'
tprnfor = .true.
nstep = 50
disk_io = 'non'
/
&SYSTEM
ibrav = 0
ecutwfc = 50.0
ecutrho = 400
occupations = 'smearing'
smearing = 'mp'
degauss = 0.01
assume_isolated = 'esm'
esm_bc = 'bc1'
input_dft = 'BEEF-VDW'
nosym = .true.
nspin = 1
ntyp = 5
nat = 33
/
&ELECTRONS
electron_maxstep = 200
mixing_beta = 0.1
conv_thr = 1e-06
/
&IONS
ion_dynamics = 'bfgs'
upscale = 1.0
/
&CELL
/

K_POINTS {automatic}
9 6 2 0  0  0

ATOMIC_SPECIES
C 12.01 C.pbe-n-rrkjus_psl.1.0.0.UPF
In 114.8 In.pbe-dn-rrkjus_psl.1.0.0.UPF
Li 6.941 Li.pbe-sl-rrkjus_psl.1.0.0.UPF
Pd 106.4 Pd.pbe-n-rrkjus_psl.1.0.0.UPF
Sc 44.95 Sc.pbe-spn-rrkjus_psl.1.0.0.UPF


CELL_PARAMETERS {angstrom}
6.59012000 0.00000000 0.00000000
0.00000000 9.31984000 0.00000000
0.00000000 0.00000000 26.98990000

ATOMIC_POSITIONS {angstrom}
Li 4.94259000 0.00000000 -1.1648840800000002 0 0 0
Li 4.94259000 4.65992000 -1.1648840800000002 0 0 0
Li 1.64753000 2.32996000 -3.494922149999997 0 0 0
Li 1.64753000 6.98988000 -3.494922149999997 0 0 0
Li 4.20251952 4.97865853 4.93969150
Li 4.20245362 9.00100827 4.93996140
Li 1.72278917 6.98997320 1.10442671
Li 1.60805518 2.32996000 1.57054228
Sc 0.00000000 2.32996000 -1.1648840800000002 0 0 0
Sc 0.00000000 6.98988000 -1.1648840800000002 0 0 0
Sc 3.29506000 4.65992000 -3.494922149999997 0 0 0
Sc 3.29506000 0.00000000 -3.494922149999997 0 0 0
Sc 6.47360668 6.98988000 3.29384740
Sc 5.94329972 2.32996000 3.44903932
Sc 3.42706010 0.02162203 1.35111439
Sc 3.42692830 4.63839117 1.35111439
In 0.00000000 0.00000000 -3.494922149999997 0 0 0
In 0.00000000 4.65992000 -3.494922149999997 0 0 0
In 3.29506000 6.98988000 -1.1648840800000002 0 0 0
In 3.29506000 2.32996000 -1.1648840800000002 0 0 0
In 0.01001698 4.66746907 1.19349338
In 0.01008288 9.31238413 1.19349338
In 3.27812339 2.32996000 4.77586281
In 3.16062155 6.98997320 3.48304659
Pd 1.64753000 0.00000000 -1.1648840800000002 0 0 0
Pd 1.64753000 4.65992000 -1.1648840800000002 0 0 0
Pd 4.94259000 2.32996000 -3.494922149999997 0 0 0
Pd 4.94259000 6.98988000 -3.494922149999997 0 0 0
Pd 1.74769982 4.43913299 3.39344013
Pd 1.74769982 0.22088021 3.39344013
Pd 4.93843822 6.98988000 1.08850267
Pd 4.97811075 2.32996000 0.98054307
C 1.36731810 2.32996000 3.74862721
