&CONTROL
calculation = 'relax'
prefix = 'scf'
pseudo_dir = '/vol0403/data/hp230205/u10028/POT_HYBRID_KKJUS_GBRV'
outdir = './data'
tprnfor = .true.
nstep = 50
disk_io = 'non'
/
&SYSTEM
ibrav = 0
ecutwfc = 50.0
ecutrho = 400
occupations = 'smearing'
smearing = 'mp'
degauss = 0.01
assume_isolated = 'esm'
esm_bc = 'bc1'
input_dft = 'BEEF-VDW'
nosym = .true.
nspin = 2
ntyp = 6
nat = 34
starting_magnetization(1) = 0.0
starting_magnetization(2) = 0.0
starting_magnetization(3) = 0.1
starting_magnetization(4) = 0.0
starting_magnetization(5) = 0.0
starting_magnetization(6) = 0.0
/
&ELECTRONS
electron_maxstep = 400
mixing_beta = 0.05
conv_thr = 1e-06
/
&IONS
ion_dynamics = 'bfgs'
upscale = 1.0
/
&CELL
/

K_POINTS {automatic}
7 7 2 0  0  0

ATOMIC_SPECIES
Al 26.98 Al.pbe-nl-rrkjus_psl.1.0.0.UPF
C 12.01 C.pbe-n-rrkjus_psl.1.0.0.UPF
Fe 55.84 fe_pbe_v1.5.uspp.F.UPF
Li 6.941 Li.pbe-sl-rrkjus_psl.1.0.0.UPF
O 15.99 O.pbe-n-rrkjus_psl.1.0.0.UPF
Pd 106.4 Pd.pbe-n-rrkjus_psl.1.0.0.UPF


CELL_PARAMETERS {angstrom}
8.60712000 0.00000000 0.00000000
0.00000000 8.84236000 0.00000000
0.00000000 0.00000000 24.25770000

ATOMIC_POSITIONS {angstrom}
Li 2.15178000 2.21041315 2.32655601
Li 2.15178000 2.21059000 23.54816227
Li 2.15178000 6.63194685 2.28580307
Li 2.15178000 6.63177000 23.54816227
Li 6.45534000 2.21059000 2.29817450
Li 6.45534000 2.21059000 23.54816227
Li 6.45534000 6.63177000 2.29089719
Li 6.45534000 6.63177000 23.54816227
Al 0.00748819 0.00123793 1.92581880
Al 0.00000000 0.00000000 23.54816227
Al 0.00740212 4.41994207 1.92557623
Al 0.00000000 4.42118000 23.54816227
Al 4.29607181 0.00123793 1.92581880
Al 4.30356000 0.00000000 23.54816227
Al 4.29615788 4.41994207 1.92557623
Al 4.30356000 4.42118000 23.54816227
Fe 2.15178000 8.83608192 0.55016464
Fe 2.15178000 0.00000000 22.12884425
Fe 2.15178000 4.42745808 0.55089237
Fe 2.15178000 4.42118000 22.12884425
Fe 6.45534000 0.00344852 0.58339768
Fe 6.45534000 0.00000000 22.12884425
Fe 6.45534000 4.41773148 0.58315511
Fe 6.45534000 4.42118000 22.12884425
Pd 8.60341894 2.21059000 0.78037021
Pd 0.00000000 2.21059000 22.12884425
Pd 0.00137714 6.63177000 0.78837525
Pd 0.00000000 6.63177000 22.12884425
Pd 4.30726106 2.21059000 0.78037021
Pd 4.30356000 2.21059000 22.12884425
Pd 4.30218286 6.63177000 0.78837525
Pd 4.30356000 6.63177000 22.12884425
C 2.15178000 2.21050158 4.46317422
O 2.15178000 2.21059000 5.60401385
