&CONTROL
calculation = 'relax'
prefix = 'scf'
pseudo_dir = '/vol0004/mdt0/data/hp150275/u10028/POT_KKJUS'
outdir = './data'
tprnfor = .true.
nstep = 50
disk_io = 'non'
/
&SYSTEM
ibrav = 0
ecutwfc = 50.0
ecutrho = 400
occupations = 'smearing'
smearing = 'mp'
degauss = 0.01
assume_isolated = 'esm'
esm_bc = 'bc1'
input_dft = 'BEEF-VDW'
nosym = .true.
nspin = 1
ntyp = 4
nat = 33
/
&ELECTRONS
electron_maxstep = 200
mixing_beta = 0.1
conv_thr = 1e-06
/
&IONS
ion_dynamics = 'bfgs'
upscale = 1.0
/
&CELL
/

K_POINTS {automatic}
8 6 1 0 0 0

ATOMIC_SPECIES
Al 26.98 Al.pbe-nl-rrkjus_psl.1.0.0.UPF
C 12.01 C.pbe-n-rrkjus_psl.1.0.0.UPF
Ni 58.69 Ni.pbe-spn-rrkjus_psl.1.0.0.UPF
Sc 44.95 Sc.pbe-spn-rrkjus_psl.1.0.0.UPF

CELL_PARAMETERS {angstrom}
6.08368000 0.00000000 0.00000000
0.00000000 8.60362000 0.00000000
0.00000000 0.00000000 26.45270000

ATOMIC_POSITIONS {angstrom}
Sc 0.00000000 0.00000000 -3.226435819999999 0 0 0
Sc 3.04184000 2.15090500 -1.075566779999999 0 0 0
Sc 3.04184000 6.45271500 -1.075566779999999 0 0 0
Sc 0.00000000 4.30181000 -3.226435819999999 0 0 0
Sc 0.00000000 4.30181000 0.99144720
Sc 3.04184000 6.36444186 3.44996113
Sc 3.04184000 2.23935021 3.45022566
Sc 0.00000000 0.00000000 1.03482962
Al 0.00000000 6.45271500 -1.075566779999999 0 0 0
Al 3.04184000 0.00000000 -3.226435819999999 0 0 0
Al 0.00000000 2.15090500 -1.075566779999999 0 0 0
Al 3.04184000 4.30181000 -3.226435819999999 0 0 0
Al 6.08361916 2.15555095 3.13649664
Al 3.04184000 4.30181000 1.15413130
Al 0.00000000 6.44815508 3.13649664
Al 3.04184000 0.00000000 1.24618670
Ni 1.52092000 0.00000000 -1.075566779999999 0 0 0
Ni 4.56276000 4.30181000 -1.075566779999999 0 0 0
Ni 4.56276000 0.00000000 -1.075566779999999 0 0 0
Ni 1.52092000 4.30181000 -1.075566779999999 0 0 0
Ni 4.56276000 6.45271500 -3.226435819999999 0 0 0
Ni 1.52092000 2.15090500 -3.226435819999999 0 0 0
Ni 1.52092000 6.45271500 -3.226435819999999 0 0 0
Ni 4.56276000 2.15090500 -3.226435819999999 0 0 0
Ni 1.34534500 4.30189604 3.05369969
Ni 4.82508828 0.00043018 3.22828751
Ni 4.73833500 4.30189604 3.05369969
Ni 1.25883507 0.00017207 3.22855204
Ni 4.47186982 2.15968069 1.14381475
Ni 1.61181018 6.44385327 1.14381475
Ni 1.61174934 2.15976673 1.14381475
Ni 4.47186982 6.44393931 1.14381475
C 3.04196167 0.00000000 3.53408072
