&CONTROL
calculation = 'relax'
prefix = 'scf'
pseudo_dir = '/vol0004/mdt0/data/hp150275/u10028/POT_KKJUS'
outdir = './data'
tprnfor = .true.
nstep = 50
disk_io = 'non'
/
&SYSTEM
ibrav = 0
ecutwfc = 50.0
ecutrho = 400
occupations = 'smearing'
smearing = 'mp'
degauss = 0.01
assume_isolated = 'esm'
esm_bc = 'bc1'
input_dft = 'BEEF-VDW'
nosym = .true.
nspin = 1
ntyp = 4
nat = 33
/
&ELECTRONS
electron_maxstep = 200
mixing_beta = 0.1
conv_thr = 1e-06
/
&IONS
ion_dynamics = 'bfgs'
upscale = 1.0
/
&CELL
/

K_POINTS {automatic}
8 6 1 0 0 0

ATOMIC_SPECIES
Ag 107.8 Ag.pbe-n-rrkjus_psl.1.0.0.UPF
Al 26.98 Al.pbe-nl-rrkjus_psl.1.0.0.UPF
C 12.01 C.pbe-n-rrkjus_psl.1.0.0.UPF
Li 6.941 Li.pbe-sl-rrkjus_psl.1.0.0.UPF

CELL_PARAMETERS {angstrom}
6.40528000 0.00000000 0.00000000
0.00000000 9.05843000 0.00000000
0.00000000 0.00000000 26.79380000

ATOMIC_POSITIONS {angstrom}
Li 0.00000000 0.00000000 -3.3969179599999997 0 0 0
Li 3.20264000 2.26460750 -1.1323059900000025 0 0 0
Li 3.20264000 6.79382250 -1.1323059900000025 0 0 0
Li 0.00000000 4.52921500 -3.3969179599999997 0 0 0
Li 0.00000000 4.52921500 1.02700635
Li 3.20264000 6.63792692 3.51615037
Li 3.20264000 2.42050308 3.51615037
Li 0.00000000 0.00000000 1.11167476
Al 0.00000000 6.79382250 -1.1323059900000025 0 0 0
Al 3.20264000 0.00000000 -3.3969179599999997 0 0 0
Al 0.00000000 2.26460750 -1.1323059900000025 0 0 0
Al 3.20264000 4.52921500 -3.3969179599999997 0 0 0
Al 0.00000000 1.96776275 3.63966979
Al 3.20264000 4.52921500 1.23117511
Al 0.00000000 7.09066725 3.63966979
Al 3.20264000 0.00000000 0.90991745
Ag 1.60132000 0.00000000 -1.1323059900000025 0 0 0
Ag 4.80396000 4.52921500 -1.1323059900000025 0 0 0
Ag 4.80396000 0.00000000 -1.1323059900000025 0 0 0
Ag 1.60132000 4.52921500 -1.1323059900000025 0 0 0
Ag 4.80396000 6.79382250 -3.3969179599999997 0 0 0
Ag 1.60132000 2.26460750 -3.3969179599999997 0 0 0
Ag 1.60132000 6.79382250 -3.3969179599999997 0 0 0
Ag 4.80396000 2.26460750 -3.3969179599999997 0 0 0
Ag 1.42447022 4.52921500 3.40093703
Ag 4.52597085 0.00000000 3.10298998
Ag 4.98080978 4.52921500 3.40093703
Ag 1.87930915 0.00000000 3.10298998
Ag 4.82721117 2.31596880 1.15883185
Ag 1.57806883 6.74246120 1.15883185
Ag 1.57806883 2.31596880 1.15883185
Ag 4.82721117 6.74246120 1.15883185
C 0.00000000 0.00000000 4.09462852
