&CONTROL
calculation = 'relax'
prefix = 'scf'
pseudo_dir = '/vol0403/data/hp230205/u10028/POT_HYBRID_KKJUS_GBRV'
outdir = './data'
tprnfor = .true.
nstep = 50
disk_io = 'non'
/
&SYSTEM
ibrav = 0
ecutwfc = 50.0
ecutrho = 400
occupations = 'smearing'
smearing = 'mp'
degauss = 0.01
assume_isolated = 'esm'
esm_bc = 'bc1'
input_dft = 'BEEF-VDW'
nosym = .true.
nspin = 1
ntyp = 6
nat = 18
/
&ELECTRONS
electron_maxstep = 200
mixing_beta = 0.1
conv_thr = 1e-06
/
&IONS
ion_dynamics = 'bfgs'
upscale = 1.0
/
&CELL
/

K_POINTS {automatic}
6 6 1 0 0 0

ATOMIC_SPECIES
C 12.01 C.pbe-n-rrkjus_psl.1.0.0.UPF
In 114.8 In.pbe-dn-rrkjus_psl.1.0.0.UPF
O 15.99 O.pbe-n-rrkjus_psl.1.0.0.UPF
Pd 106.4 Pd.pbe-n-rrkjus_psl.1.0.0.UPF
Sc 44.95 Sc.pbe-spn-rrkjus_psl.1.0.0.UPF
Y 88.90 Y.pbe-spn-rrkjus_psl.1.0.0.UPF


CELL_PARAMETERS {angstrom}
6.06590000 0.00000000 0.00000000
0.00000000 10.11530000 0.00000000
0.00000000 0.00000000 24.38870000

ATOMIC_POSITIONS {angstrom}
Y 0.89817781 2.50009755 0.74044093
Y 3.35092448 2.52882500 -2.194251340000001 0 0 0
Y 0.90072549 7.61682090 0.73873372
Y 3.35092448 7.58647500 -2.194251340000001 0 0 0
Sc 3.88405643 0.00708071 2.01279941
Sc 5.26689965 0.00000000 -0.7314171099999989 0 0 0
Sc 3.70389920 5.05572809 1.97353360
Sc 5.26689965 5.05765000 -0.7314171099999989 0 0 0
In 0.83303005 0.00080922 2.70299962
In 2.23394965 0.00000000 -0.7314171099999989 0 0 0
In 0.66724900 5.06017882 2.55910629
In 2.23394965 5.05765000 -0.7314171099999989 0 0 0
Pd 3.92657839 2.57525423 0.45045929
Pd 0.31797448 2.52882500 -2.194251340000001 0 0 0
Pd 3.92809486 7.53923655 0.44997152
Pd 0.31797448 7.58647500 -2.194251340000001 0 0 0
C 4.11917071 0.00161845 4.28119240
O 4.23193579 10.11368155 5.42916851
