&CONTROL
calculation = 'relax'
prefix = 'scf'
pseudo_dir = '/vol0004/mdt0/data/hp150275/u10028/POT_KKJUS'
outdir = './data'
tprnfor = .true.
nstep = 50
disk_io = 'non'
/
&SYSTEM
ibrav = 0
ecutwfc = 50.0
ecutrho = 400
occupations = 'smearing'
smearing = 'mp'
degauss = 0.01
assume_isolated = 'esm'
esm_bc = 'bc1'
input_dft = 'BEEF-VDW'
nosym = .true.
nspin = 1
ntyp = 4
nat = 33
/
&ELECTRONS
electron_maxstep = 200
mixing_beta = 0.1
conv_thr = 1e-06
/
&IONS
ion_dynamics = 'bfgs'
upscale = 1.0
/
&CELL
/

K_POINTS {automatic}
9 6 2 0  0  0

ATOMIC_SPECIES
Al 26.98 Al.pbe-nl-rrkjus_psl.1.0.0.UPF
C 12.01 C.pbe-n-rrkjus_psl.1.0.0.UPF
Li 6.941 Li.pbe-sl-rrkjus_psl.1.0.0.UPF
Rh 102.9 Rh.pbe-spn-rrkjus_psl.1.0.0.UPF

CELL_PARAMETERS {angstrom}
6.01864000 0.00000000 0.00000000
0.00000000 8.51164000 0.00000000
0.00000000 0.00000000 26.38370000

ATOMIC_POSITIONS {angstrom}
Li 0.00000000 6.38373000 -1.0640546200000003 0 0 0
Li 3.00932000 0.00000000 -3.1919000299999993 0 0 0
Li 0.00000000 2.12791000 -1.0640546200000003 0 0 0
Li 3.00932000 4.25582000 -3.1919000299999993 0 0 0
Li 1.50466000 2.12791000 -3.1919000299999993 0 0 0
Li 1.50466000 6.38373000 -3.1919000299999993 0 0 0
Li 4.51398000 4.25582000 -1.0640546200000003 0 0 0
Li 4.51398000 0.00000000 -1.0640546200000003 0 0 0
Li 0.08077015 2.11054625 3.75334516
Li 2.99421321 4.25582000 1.02658977
Li 0.08077015 6.40109375 3.75334516
Li 3.09719214 0.00000000 0.92791473
Li 1.40047734 6.40611561 1.02527058
Li 1.40047734 2.10552439 1.02527058
Li 4.34545808 0.00000000 3.52222395
Li 4.52054032 4.25582000 3.25627625
Al 0.00000000 0.00000000 -3.1919000299999993 0 0 0
Al 3.00932000 2.12791000 -1.0640546200000003 0 0 0
Al 3.00932000 6.38373000 -1.0640546200000003 0 0 0
Al 0.00000000 4.25582000 -3.1919000299999993 0 0 0
Al 5.97018995 4.25582000 1.01366175
Al 2.87095147 6.29018708 3.09005894
Al 2.87095147 2.22145292 3.09005894
Al 5.92944376 0.00000000 1.06458229
Rh 1.50466000 0.00000000 -1.0640546200000003 0 0 0
Rh 1.50466000 4.25582000 -1.0640546200000003 0 0 0
Rh 4.51398000 6.38373000 -3.1919000299999993 0 0 0
Rh 4.51398000 2.12791000 -3.1919000299999993 0 0 0
Rh 1.45566827 4.25582000 2.97977508
Rh 1.60992601 0.00000000 3.03122329
Rh 4.51765137 2.13812397 1.19043254
Rh 4.51765137 6.37360115 1.19043254
C 0.27029712 0.00000000 4.16334786
