&CONTROL
calculation = 'relax'
prefix = 'scf'
pseudo_dir = '/vol0004/mdt0/data/hp150275/u10028/POT_KKJUS'
outdir = './data'
tprnfor = .true.
nstep = 50
disk_io = 'non'
/
&SYSTEM
ibrav = 0
ecutwfc = 50.0
ecutrho = 400
occupations = 'smearing'
smearing = 'mp'
degauss = 0.01
assume_isolated = 'esm'
esm_bc = 'bc1'
input_dft = 'BEEF-VDW'
nosym = .true.
nspin = 1
ntyp = 4
nat = 19
/
&ELECTRONS
electron_maxstep = 200
mixing_beta = 0.1
conv_thr = 1e-06
/
&IONS
ion_dynamics = 'bfgs'
upscale = 1.0
/
&CELL
/

K_POINTS {automatic}
8 8 1 0 0 0

ATOMIC_SPECIES
C 12.01 C.pbe-n-rrkjus_psl.1.0.0.UPF
H 1.007 H.pbe-rrkjus_psl.1.0.0.UPF
Li 6.941 Li.pbe-sl-rrkjus_psl.1.0.0.UPF
O 15.99 O.pbe-n-rrkjus_psl.1.0.0.UPF

CELL_PARAMETERS {angstrom}
6.78403000 0.00000000 0.00000000
0.00000000 6.78403000 0.00000000
0.00000000 0.00000000 25.08800000

ATOMIC_POSITIONS {angstrom}
Li 0.00000000 0.00000000 -2.543923200000002 0 0 0
Li 1.69600750 1.69600750 -0.8479744000000018 0 0 0
Li 0.01852040 0.00000000 0.90091008
Li 1.70062064 1.45985542 2.61768192
Li 0.00000000 3.39201500 -2.543923200000002 0 0 0
Li 1.69600750 5.08802250 -0.8479744000000018 0 0 0
Li 0.01126149 3.39201500 0.86829568
Li 1.70055280 5.32417458 2.61768192
Li 3.39201500 0.00000000 -2.543923200000002 0 0 0
Li 5.08802250 1.69600750 -0.8479744000000018 0 0 0
Li 3.53203738 0.00000000 0.74210304
Li 5.50062720 1.48482065 2.91121152
Li 3.39201500 3.39201500 -2.543923200000002 0 0 0
Li 5.08802250 5.08802250 -0.8479744000000018 0 0 0
Li 3.48719494 3.39201500 0.97140736
Li 5.50055936 5.29920935 2.91121152
H 6.45032356 0.00000000 4.88789504
C 0.21641056 0.00000000 2.87232512
O 5.97028560 0.00000000 4.05422080
