&CONTROL
calculation = 'relax'
prefix = 'scf'
pseudo_dir = '/vol0004/mdt0/data/hp150275/u10028/POT_KKJUS'
outdir = './data'
tprnfor = .true.
nstep = 50
disk_io = 'non'
/
&SYSTEM
ibrav = 0
ecutwfc = 50.0
ecutrho = 400
occupations = 'smearing'
smearing = 'mp'
degauss = 0.01
assume_isolated = 'esm'
esm_bc = 'bc1'
input_dft = 'BEEF-VDW'
nosym = .true.
nspin = 1
ntyp = 4
nat = 18
/
&ELECTRONS
electron_maxstep = 200
mixing_beta = 0.1
conv_thr = 1e-06
/
&IONS
ion_dynamics = 'bfgs'
upscale = 1.0
/
&CELL
/

K_POINTS {automatic}
8 11 2 0  0  0

ATOMIC_SPECIES
C 12.01 C.pbe-n-rrkjus_psl.1.0.0.UPF
O 15.99 O.pbe-n-rrkjus_psl.1.0.0.UPF
Pb 207.2 Pb.pbe-dn-rrkjus_psl.1.0.0.UPF
Pd 106.4 Pd.pbe-n-rrkjus_psl.1.0.0.UPF

CELL_PARAMETERS {angstrom}
8.32195000 0.00000000 0.00000000
0.00000000 5.88450000 0.00000000
0.00000000 0.00000000 24.41340000

ATOMIC_POSITIONS {angstrom}
Pd 0.00000000 2.94225000 2.07977755
Pd 2.08148613 4.44167945 0.74021429
Pd 2.08148613 1.44282056 0.74021429
Pd 0.00000000 0.00000000 -0.735575739999998 0 0 0
Pd 2.08048750 1.47112500 -2.2067272299999985 0 0 0
Pd 2.08048750 4.41337500 -2.2067272299999985 0 0 0
Pd 4.16097500 2.94225000 2.08002168
Pd 6.24046387 4.44167945 0.73997015
Pd 6.24046387 1.44276171 0.74021429
Pd 4.16097500 0.00000000 -0.735575739999998 0 0 0
Pd 6.24146250 1.47112500 -2.2067272299999985 0 0 0
Pd 6.24146250 4.41337500 -2.2067272299999985 0 0 0
Pb 0.00000000 0.00000000 2.20013561
Pb 0.00000000 2.94225000 -0.735575739999998 0 0 0
Pb 4.16097500 0.00000000 2.20721549
Pb 4.16097500 2.94225000 -0.735575739999998 0 0 0
C 0.00000000 0.00000000 6.11775391
O 0.00000000 0.00000000 7.25224460
