&CONTROL
calculation = 'relax'
prefix = 'scf'
pseudo_dir = '/vol0004/mdt0/data/hp150275/u10028/POT_KKJUS'
outdir = './data'
tprnfor = .true.
nstep = 50
disk_io = 'non'
/
&SYSTEM
ibrav = 0
ecutwfc = 50.0
ecutrho = 400
occupations = 'smearing'
smearing = 'mp'
degauss = 0.01
assume_isolated = 'esm'
esm_bc = 'bc1'
input_dft = 'BEEF-VDW'
nosym = .true.
nspin = 1
ntyp = 2
nat = 16
/
&ELECTRONS
electron_maxstep = 200
mixing_beta = 0.1
conv_thr = 1e-06
/
&IONS
ion_dynamics = 'bfgs'
upscale = 1.0
/
&CELL
/

K_POINTS {automatic}
7 10 3 0  0  0

ATOMIC_SPECIES
K 39.09 K.pbe-spn-rrkjus_psl.1.0.0.UPF
Pd 106.4 Pd.pbe-n-rrkjus_psl.1.0.0.UPF

CELL_PARAMETERS {angstrom}
11.07580000 0.00000000 0.00000000
0.00000000 7.83179000 0.00000000
0.00000000 0.00000000 25.87380000

ATOMIC_POSITIONS {angstrom}
K 0.00000000 3.91589500 -2.936935039999998 0 0 0
K 2.76895000 5.87384250 -0.9790645900000001 0 0 0
K 2.76895000 1.95794750 -0.9790645900000001 0 0 0
K 11.07568924 0.00000000 0.60130711
K 2.76762090 2.12758407 3.00679430
K 2.76739939 5.70420593 3.00679430
K 5.53790000 3.91589500 -2.936935039999998 0 0 0
K 8.30685000 5.87384250 -0.9790645900000001 0 0 0
K 8.30685000 1.95794750 -0.9790645900000001 0 0 0
K 5.53801076 0.00000000 0.60208333
K 8.30828985 2.12758407 3.00705304
K 8.30828985 5.70428425 3.00705304
Pd 0.00000000 0.00000000 -2.936935039999998 0 0 0
Pd 0.00011076 3.91589500 0.71308193
Pd 5.53790000 0.00000000 -2.936935039999998 0 0 0
Pd 5.53778924 3.91589500 0.71385814
