&CONTROL
calculation = 'relax'
prefix = 'scf'
pseudo_dir = '/vol0403/data/hp230205/u10028/POT_HYBRID_KKJUS_GBRV'
outdir = './data'
tprnfor = .true.
nstep = 50
disk_io = 'non'
/
&SYSTEM
ibrav = 0
ecutwfc = 50.0
ecutrho = 400
occupations = 'smearing'
smearing = 'mp'
degauss = 0.01
assume_isolated = 'esm'
esm_bc = 'bc1'
input_dft = 'BEEF-VDW'
nosym = .true.
nspin = 1
ntyp = 4
nat = 16
/
&ELECTRONS
electron_maxstep = 200
mixing_beta = 0.1
conv_thr = 1e-06
/
&IONS
ion_dynamics = 'bfgs'
upscale = 1.0
/
&CELL
/

K_POINTS {automatic}
6 6 1 0 0 0

ATOMIC_SPECIES
Ga 69.72 Ga.pbe-dnl-rrkjus_psl.1.0.0.UPF
Ge 72.64 Ge.pbe-dn-rrkjus_psl.1.0.0.UPF
Li 6.941 Li.pbe-sl-rrkjus_psl.1.0.0.UPF
Sc 44.95 Sc.pbe-spn-rrkjus_psl.1.0.0.UPF


CELL_PARAMETERS {angstrom}
5.66960000 0.00000000 0.00000000
0.00000000 8.37322000 0.00000000
0.00000000 0.00000000 24.25170000

ATOMIC_POSITIONS {angstrom}
Li 3.12088802 0.00008373 2.36720844
Li 5.62764496 0.00000000 -0.7086346699999986 0 0 0
Li 3.12043445 4.18669373 2.36720844
Li 5.62764496 4.18661000 -0.7086346699999986 0 0 0
Sc 1.59105985 2.09322127 0.74258705
Sc 4.18926744 2.09330500 -2.12590402 0 0 0
Sc 1.59111654 6.28008246 0.74258705
Sc 4.18926744 6.27991500 -2.12590402 0 0 0
Ga 0.27032653 0.00016746 2.07934076
Ga 2.79284496 0.00000000 -0.7086346699999986 0 0 0
Ga 0.27066670 4.18661000 2.07909824
Ga 2.79284496 4.18661000 -0.7086346699999986 0 0 0
Ge 4.45624890 2.09347246 1.11703330
Ge 1.35446744 2.09330500 -2.12590402 0 0 0
Ge 4.45619221 6.27983127 1.11703330
Ge 1.35446744 6.27991500 -2.12590402 0 0 0
