&CONTROL
calculation = 'relax'
prefix = 'scf'
pseudo_dir = '/vol0004/mdt0/data/hp150275/u10028/POT_KKJUS'
outdir = './data'
tprnfor = .true.
nstep = 50
disk_io = 'non'
/
&SYSTEM
ibrav = 0
ecutwfc = 50.0
ecutrho = 400
occupations = 'smearing'
smearing = 'mp'
degauss = 0.01
assume_isolated = 'esm'
esm_bc = 'bc1'
input_dft = 'BEEF-VDW'
nosym = .true.
nspin = 1
ntyp = 5
nat = 34
/
&ELECTRONS
electron_maxstep = 200
mixing_beta = 0.1
conv_thr = 1e-06
/
&IONS
ion_dynamics = 'bfgs'
upscale = 1.0
/
&CELL
/

K_POINTS {automatic}
9 6 2 0  0  0

ATOMIC_SPECIES
C 12.01 C.pbe-n-rrkjus_psl.1.0.0.UPF
In 114.8 In.pbe-dn-rrkjus_psl.1.0.0.UPF
Li 6.941 Li.pbe-sl-rrkjus_psl.1.0.0.UPF
Mg 24.30 Mg.pbe-spnl-rrkjus_psl.1.0.0.UPF
O 15.99 O.pbe-n-rrkjus_psl.1.0.0.UPF

CELL_PARAMETERS {angstrom}
6.75535000 0.00000000 0.00000000
0.00000000 9.55351000 0.00000000
0.00000000 0.00000000 27.16510000

ATOMIC_POSITIONS {angstrom}
Li 1.68883750 0.00000000 -1.1941777999999985 0 0 0
Li 5.06651250 4.77675500 -1.1941777999999985 0 0 0
Li 5.06651250 0.00000000 -1.1941777999999985 0 0 0
Li 1.68883750 4.77675500 -1.1941777999999985 0 0 0
Li 5.06651250 7.16513250 -3.5825333899999983 0 0 0
Li 1.68883750 2.38837750 -3.5825333899999983 0 0 0
Li 1.68883750 7.16513250 -3.5825333899999983 0 0 0
Li 5.06651250 2.38837750 -3.5825333899999983 0 0 0
Li 1.60155838 4.77665946 3.84196009
Li 5.14582031 0.00000000 3.78599999
Li 5.14514477 4.77675500 3.86070401
Li 1.61263715 0.00000000 3.80447225
Li 5.06063535 2.38694447 1.11974542
Li 1.68323056 7.16532357 1.13740274
Li 1.68316301 2.38818643 1.13713109
Li 5.06056779 7.16646999 1.11974542
Mg 0.00000000 0.00000000 -3.5825333899999983 0 0 0
Mg 3.37767500 2.38837750 -1.1941777999999985 0 0 0
Mg 3.37767500 7.16513250 -1.1941777999999985 0 0 0
Mg 0.00000000 4.77675500 -3.5825333899999983 0 0 0
Mg 6.73609725 4.77675500 1.31506249
Mg 3.38057980 7.14497459 3.48066426
Mg 3.38057980 2.40853541 3.48039261
Mg 6.74568985 9.55341446 1.29985003
In 0.00000000 7.16513250 -1.1941777999999985 0 0 0
In 3.37767500 0.00000000 -3.5825333899999983 0 0 0
In 0.00000000 2.38837750 -1.1941777999999985 0 0 0
In 3.37767500 4.77675500 -3.5825333899999983 0 0 0
In 6.72697753 2.39984171 3.52277017
In 3.38733515 4.77675500 1.32755844
In 6.72711264 7.15366829 3.52304182
In 3.38605163 0.00000000 1.33353476
C 1.80813698 0.00000000 5.84266971
O 1.84056266 0.00000000 6.98822197
