&CONTROL
calculation = 'relax'
prefix = 'scf'
pseudo_dir = '/vol0004/mdt0/data/hp150275/u10028/POT_KKJUS'
outdir = './data'
tprnfor = .true.
nstep = 50
disk_io = 'non'
/
&SYSTEM
ibrav = 0
ecutwfc = 50.0
ecutrho = 400
occupations = 'smearing'
smearing = 'mp'
degauss = 0.01
assume_isolated = 'esm'
esm_bc = 'bc1'
input_dft = 'BEEF-VDW'
nosym = .true.
nspin = 1
ntyp = 4
nat = 33
/
&ELECTRONS
electron_maxstep = 200
mixing_beta = 0.1
conv_thr = 1e-06
/
&IONS
ion_dynamics = 'bfgs'
upscale = 1.0
/
&CELL
/

K_POINTS {automatic}
8 6 1 0 0 0

ATOMIC_SPECIES
Al 26.98 Al.pbe-nl-rrkjus_psl.1.0.0.UPF
C 12.01 C.pbe-n-rrkjus_psl.1.0.0.UPF
Nb 92.90 Nb.pbe-spn-rrkjus_psl.1.0.0.UPF
Ni 58.69 Ni.pbe-spn-rrkjus_psl.1.0.0.UPF

CELL_PARAMETERS {angstrom}
6.01786000 0.00000000 0.00000000
0.00000000 8.51054000 0.00000000
0.00000000 0.00000000 26.38290000

ATOMIC_POSITIONS {angstrom}
Nb 0.00000000 0.00000000 -3.1915394100000007 0 0 0
Nb 3.00893000 2.12763500 -1.0637585299999976 0 0 0
Nb 3.00893000 6.38290500 -1.0637585299999976 0 0 0
Nb 0.00000000 4.25527000 -3.1915394100000007 0 0 0
Nb 0.00000000 4.25527000 1.04819262
Nb 3.00893000 6.47277630 3.28968380
Nb 3.00893000 2.03776370 3.28968380
Nb 0.00000000 0.00000000 1.01706079
Al 0.00000000 6.38290500 -1.0637585299999976 0 0 0
Al 3.00893000 0.00000000 -3.1915394100000007 0 0 0
Al 0.00000000 2.12763500 -1.0637585299999976 0 0 0
Al 3.00893000 4.25527000 -3.1915394100000007 0 0 0
Al 0.00000000 2.17291107 3.13534384
Al 3.00893000 4.25527000 1.07589466
Al 0.00000000 6.33762893 3.13534384
Al 3.00893000 0.00000000 1.11177541
Ni 1.50446500 0.00000000 -1.0637585299999976 0 0 0
Ni 4.51339500 4.25527000 -1.0637585299999976 0 0 0
Ni 4.51339500 0.00000000 -1.0637585299999976 0 0 0
Ni 1.50446500 4.25527000 -1.0637585299999976 0 0 0
Ni 4.51339500 6.38290500 -3.1915394100000007 0 0 0
Ni 1.50446500 2.12763500 -3.1915394100000007 0 0 0
Ni 1.50446500 6.38290500 -3.1915394100000007 0 0 0
Ni 4.51339500 2.12763500 -3.1915394100000007 0 0 0
Ni 1.50446500 4.25527000 3.06252703
Ni 4.76981601 0.00000000 3.13085874
Ni 4.51345518 4.25527000 3.06252703
Ni 1.24798381 0.00000000 3.13085874
Ni 4.40477263 2.12967753 1.10860946
Ni 1.61296702 6.38086247 1.10860946
Ni 1.61308737 2.12967753 1.10860946
Ni 4.40489298 6.38077737 1.10834563
C 3.00893000 0.00000000 3.82050775
