&CONTROL
calculation = 'relax'
prefix = 'scf'
pseudo_dir = '/vol0004/mdt0/data/hp150275/u10028/POT_KKJUS'
outdir = './data'
tprnfor = .true.
nstep = 50
disk_io = 'non'
/
&SYSTEM
ibrav = 0
ecutwfc = 50.0
ecutrho = 400
occupations = 'smearing'
smearing = 'mp'
degauss = 0.01
assume_isolated = 'esm'
esm_bc = 'bc1'
input_dft = 'BEEF-VDW'
nosym = .true.
nspin = 1
ntyp = 5
nat = 34
/
&ELECTRONS
electron_maxstep = 200
mixing_beta = 0.1
conv_thr = 1e-06
/
&IONS
ion_dynamics = 'bfgs'
upscale = 1.0
/
&CELL
/

K_POINTS {automatic}
9 6 2 0  0  0

ATOMIC_SPECIES
C 12.01 C.pbe-n-rrkjus_psl.1.0.0.UPF
Cu 63.54 Cu.pbe-dn-rrkjus_psl.1.0.0.UPF
In 114.8 In.pbe-dn-rrkjus_psl.1.0.0.UPF
O 15.99 O.pbe-n-rrkjus_psl.1.0.0.UPF
Ti 47.86 Ti.pbe-spn-rrkjus_psl.1.0.0.UPF

CELL_PARAMETERS {angstrom}
6.30953000 0.00000000 0.00000000
0.00000000 8.92302000 0.00000000
0.00000000 0.00000000 26.69230000

ATOMIC_POSITIONS {angstrom}
Ti 0.00000000 0.00000000 -3.346146730000001 0 0 0
Ti 3.15476500 2.23075500 -1.1154712199999999 0 0 0
Ti 3.15476500 6.69226500 -1.1154712199999999 0 0 0
Ti 0.00000000 4.46151000 -3.346146730000001 0 0 0
Ti 0.00006310 4.41082725 1.15097198
Ti 3.15495429 6.69217577 3.26580291
Ti 3.15495429 2.23057654 3.17184601
Ti 0.00018929 0.05068275 1.15123890
In 0.00000000 6.69226500 -1.1154712199999999 0 0 0
In 3.15476500 0.00000000 -3.346146730000001 0 0 0
In 0.00000000 2.23075500 -1.1154712199999999 0 0 0
In 3.15476500 4.46151000 -3.346146730000001 0 0 0
In 0.00050476 2.23084423 3.49482284
In 3.15482810 4.53378646 1.05541354
In 0.00031548 6.69208654 3.76121199
In 3.15489119 8.85002970 1.05541354
Cu 1.57738250 0.00000000 -1.1154712199999999 0 0 0
Cu 4.73214750 4.46151000 -1.1154712199999999 0 0 0
Cu 4.73214750 0.00000000 -1.1154712199999999 0 0 0
Cu 1.57738250 4.46151000 -1.1154712199999999 0 0 0
Cu 4.73214750 6.69226500 -3.346146730000001 0 0 0
Cu 1.57738250 2.23075500 -3.346146730000001 0 0 0
Cu 1.57738250 6.69226500 -3.346146730000001 0 0 0
Cu 4.73214750 2.23075500 -3.346146730000001 0 0 0
Cu 1.72704455 4.47605452 3.35442134
Cu 4.58273783 8.90802933 3.35442134
Cu 4.58286402 4.47614375 3.35415442
Cu 1.72736003 8.90811856 3.35468826
Cu 4.70116771 2.23030885 1.09545199
Cu 1.41560615 6.69226500 1.25507195
Cu 1.60867777 2.23030885 1.09545199
Cu 4.89430242 6.69226500 1.25507195
C 6.29817285 2.23334268 7.40871479
O 6.30902524 2.22905963 8.54340446
