&CONTROL
calculation = 'relax'
prefix = 'scf'
pseudo_dir = '/vol0403/data/hp230205/u10028/POT_HYBRID_KKJUS_GBRV'
outdir = './data'
tprnfor = .true.
nstep = 50
disk_io = 'non'
/
&SYSTEM
ibrav = 0
ecutwfc = 50.0
ecutrho = 400
occupations = 'smearing'
smearing = 'mp'
degauss = 0.01
assume_isolated = 'esm'
esm_bc = 'bc1'
input_dft = 'BEEF-VDW'
nosym = .true.
nspin = 1
ntyp = 6
nat = 34
/
&ELECTRONS
electron_maxstep = 200
mixing_beta = 0.1
conv_thr = 1e-06
/
&IONS
ion_dynamics = 'bfgs'
upscale = 1.0
/
&CELL
/

K_POINTS {automatic}
7 7 2 0  0  0

ATOMIC_SPECIES
C 12.01 C.pbe-n-rrkjus_psl.1.0.0.UPF
In 114.8 In.pbe-dn-rrkjus_psl.1.0.0.UPF
Li 6.941 Li.pbe-sl-rrkjus_psl.1.0.0.UPF
O 15.99 O.pbe-n-rrkjus_psl.1.0.0.UPF
Sn 118.7 Sn.pbe-dn-rrkjus_psl.1.0.0.UPF
Y 88.90 Y.pbe-spn-rrkjus_psl.1.0.0.UPF


CELL_PARAMETERS {angstrom}
8.86856000 0.00000000 0.00000000
0.00000000 9.04200000 0.00000000
0.00000000 0.00000000 27.02490000

ATOMIC_POSITIONS {angstrom}
Li 2.19904814 2.25959580 3.74970488
Li 2.21714000 2.26050000 -1.1707186699999994 0 0 0
Li 2.19913682 6.78231378 3.74943463
Li 2.21714000 6.78150000 -1.1707186699999994 0 0 0
Li 6.66844764 2.25923412 3.74943463
Li 6.65142000 2.26050000 -1.1707186699999994 0 0 0
Li 6.66835895 6.78258504 3.74943463
Li 6.65142000 6.78150000 -1.1707186699999994 0 0 0
Y 2.22964467 0.00009042 1.21747174
Y 2.21714000 0.00000000 -3.512426249999997 0 0 0
Y 2.23106364 4.52081916 1.21855274
Y 2.21714000 4.52100000 -3.512426249999997 0 0 0
Y 6.63811716 9.04181916 1.21774199
Y 6.65142000 0.00000000 -3.512426249999997 0 0 0
Y 6.63687556 4.52100000 1.21882299
Y 6.65142000 4.52100000 -3.512426249999997 0 0 0
In 0.00203977 9.04109580 3.67457565
In 0.00000000 0.00000000 -1.1707186699999994 0 0 0
In 8.86820526 4.52063832 3.69214184
In 0.00000000 4.52100000 -1.1707186699999994 0 0 0
In 4.43250629 9.04190958 3.84158953
In 4.43428000 0.00000000 -1.1707186699999994 0 0 0
In 4.43392526 4.52136168 3.83780605
In 4.43428000 4.52100000 -1.1707186699999994 0 0 0
Sn 8.86802789 2.26212756 1.40043032
Sn 0.00000000 2.26050000 -3.512426249999997 0 0 0
Sn 8.86811657 6.77951076 1.39934932
Sn 0.00000000 6.78150000 -3.512426249999997 0 0 0
Sn 4.43410263 2.25851076 1.54636478
Sn 4.43428000 2.26050000 -3.512426249999997 0 0 0
Sn 4.43401394 6.78367008 1.54636478
Sn 4.43428000 6.78150000 -3.512426249999997 0 0 0
C 0.08895166 0.01600434 7.85613843
O 8.84177695 9.03476640 8.98415776
