&CONTROL
calculation = 'relax'
prefix = 'scf'
pseudo_dir = '/vol0004/mdt0/data/hp150275/u10028/POT_KKJUS'
outdir = './data'
tprnfor = .true.
nstep = 50
disk_io = 'non'
/
&SYSTEM
ibrav = 0
ecutwfc = 50.0
ecutrho = 400
occupations = 'smearing'
smearing = 'mp'
degauss = 0.01
assume_isolated = 'esm'
esm_bc = 'bc1'
input_dft = 'BEEF-VDW'
nosym = .true.
nspin = 1
ntyp = 2
nat = 32
/
&ELECTRONS
electron_maxstep = 200
mixing_beta = 0.1
conv_thr = 1e-06
/
&IONS
ion_dynamics = 'bfgs'
upscale = 1.0
/
&CELL
/

K_POINTS {automatic}
9 6 2 0  0  0

ATOMIC_SPECIES
Ni 58.69 Ni.pbe-spn-rrkjus_psl.1.0.0.UPF
Sn 118.7 Sn.pbe-dn-rrkjus_psl.1.0.0.UPF

CELL_PARAMETERS {angstrom}
6.01786000 0.00000000 0.00000000
0.00000000 8.51054000 0.00000000
0.00000000 0.00000000 26.38290000

ATOMIC_POSITIONS {angstrom}
Ni 1.50446500 0.00000000 -1.0637585299999976 0 0 0
Ni 4.51339500 4.25527000 -1.0637585299999976 0 0 0
Ni 4.51339500 0.00000000 -1.0637585299999976 0 0 0
Ni 1.50446500 4.25527000 -1.0637585299999976 0 0 0
Ni 4.51339500 6.38290500 -3.1915394100000007 0 0 0
Ni 1.50446500 2.12763500 -3.1915394100000007 0 0 0
Ni 1.50446500 6.38290500 -3.1915394100000007 0 0 0
Ni 4.51339500 2.12763500 -3.1915394100000007 0 0 0
Ni 0.00000000 6.38290500 -1.0637585299999976 0 0 0
Ni 3.00893000 0.00000000 -3.1915394100000007 0 0 0
Ni 0.00000000 2.12763500 -1.0637585299999976 0 0 0
Ni 3.00893000 4.25527000 -3.1915394100000007 0 0 0
Ni 1.45770623 4.25527000 3.08257804
Ni 4.56015377 0.00000000 3.08257804
Ni 4.56015377 4.25527000 3.08257804
Ni 1.45770623 0.00000000 3.08257804
Ni 4.44846229 2.12763500 1.08776697
Ni 1.56909682 6.38290500 1.08776697
Ni 1.56939771 2.12763500 1.08776697
Ni 4.44882336 6.38290500 1.08776697
Ni 0.00000000 2.12772011 3.04643346
Ni 3.00893000 4.25535511 1.05373303
Ni 0.00000000 6.38281989 3.04643346
Ni 3.00893000 8.51045489 1.05373303
Sn 0.00000000 0.00000000 -3.1915394100000007 0 0 0
Sn 3.00893000 2.12763500 -1.0637585299999976 0 0 0
Sn 3.00893000 6.38290500 -1.0637585299999976 0 0 0
Sn 0.00000000 4.25527000 -3.1915394100000007 0 0 0
Sn 0.00000000 4.25518489 0.99358001
Sn 3.00893000 6.38290500 3.35089213
Sn 3.00893000 2.12763500 3.35089213
Sn 0.00000000 0.00008511 0.99358001
