&CONTROL
calculation = 'relax'
prefix = 'scf'
pseudo_dir = '/vol0403/data/hp230205/u10028/POT_HYBRID_KKJUS_GBRV'
outdir = './data'
tprnfor = .true.
nstep = 70
disk_io = 'non'
/
&SYSTEM
ibrav = 0
ecutwfc = 50.0
ecutrho = 400
occupations = 'smearing'
smearing = 'mp'
degauss = 0.01
assume_isolated = 'esm'
esm_bc = 'bc1'
input_dft = 'BEEF-VDW'
nosym = .true.
nspin = 1
ntyp = 4
nat = 16
/
&ELECTRONS
electron_maxstep = 200
mixing_beta = 0.1
conv_thr = 1e-06
/
&IONS
ion_dynamics = 'bfgs'
upscale = 1.0
/
&CELL
/

K_POINTS {automatic}
6 6 1 0 0 0

ATOMIC_SPECIES
Ge 72.64 Ge.pbe-dn-rrkjus_psl.1.0.0.UPF
Pd 106.4 Pd.pbe-n-rrkjus_psl.1.0.0.UPF
Sn 118.7 Sn.pbe-dn-rrkjus_psl.1.0.0.UPF
Y 88.90 Y.pbe-spn-rrkjus_psl.1.0.0.UPF


CELL_PARAMETERS {angstrom}
5.93056000 0.00000000 0.00000000
-0.00000000 9.60308000 0.00000000
0.00000000 0.00000000 24.43880000

ATOMIC_POSITIONS {angstrom}
Y 2.96528000 0.00000000 -2.2192874300000014 0 0 0
Y 5.78532059 -0.00000000 0.85853504
Y 2.96528000 4.80154000 -2.2192874300000014 0 0 0
Y 5.78532059 4.80154000 0.85853504
Sn 1.38786965 2.40077000 -0.7397624799999996 0 0 0
Sn 3.98770854 2.40077000 2.19998078
Sn 1.38786965 7.20231000 -0.7397624799999996 0 0 0
Sn 3.98764924 7.20231000 2.19973639
Ge 0.00000000 0.00000000 -2.2192874300000014 0 0 0
Ge 2.85663214 0.00009603 0.93038512
Ge 0.00000000 4.80154000 -2.2192874300000014 0 0 0
Ge 2.85663214 4.80144397 0.93038512
Pd 4.35314965 2.40077000 -0.7397624799999996 0 0 0
Pd 1.09495929 2.40077000 1.95925860
Pd 4.35314965 7.20231000 -0.7397624799999996 0 0 0
Pd 1.09489999 7.20231000 1.95901421
