&CONTROL
calculation = 'relax'
prefix = 'scf'
pseudo_dir = '/vol0004/mdt0/data/hp150275/u10028/POT_KKJUS'
outdir = './data'
tprnfor = .true.
nstep = 50
disk_io = 'non'
/
&SYSTEM
ibrav = 0
ecutwfc = 50.0
ecutrho = 400
occupations = 'smearing'
smearing = 'mp'
degauss = 0.01
assume_isolated = 'esm'
esm_bc = 'bc1'
input_dft = 'BEEF-VDW'
nosym = .true.
nspin = 1
ntyp = 5
nat = 18
/
&ELECTRONS
electron_maxstep = 200
mixing_beta = 0.1
conv_thr = 1e-06
/
&IONS
ion_dynamics = 'bfgs'
upscale = 1.0
/
&CELL
/

K_POINTS {automatic}
8 8 1 0 0 0

ATOMIC_SPECIES
Ag 107.8 Ag.pbe-n-rrkjus_psl.1.0.0.UPF
Bi 208.9 Bi.pbe-dn-rrkjus_psl.1.0.0.UPF
C 12.01 C.pbe-n-rrkjus_psl.1.0.0.UPF
Li 6.941 Li.pbe-sl-rrkjus_psl.1.0.0.UPF
O 15.99 O.pbe-n-rrkjus_psl.1.0.0.UPF

CELL_PARAMETERS {angstrom}
6.92564000 0.00000000 0.00000000
0.00000000 6.92564000 0.00000000
0.00000000 0.00000000 25.19420000

ATOMIC_POSITIONS {angstrom}
Li 0.00000000 0.00000000 -0.8656727099999983 0 0 0
Li 3.46282000 0.00000000 2.74541197
Li 0.00000000 3.46282000 2.67915123
Li 3.46282000 3.46282000 -0.8656727099999983 0 0 0
Li 1.74851633 1.71423441 1.01406655
Li 1.73141000 5.19423000 -2.5970181399999994 0 0 0
Li 5.17712367 5.21133633 1.01406655
Li 5.19423000 1.73141000 -2.5970181399999994 0 0 0
Ag 1.73141000 1.73141000 -2.5970181399999994 0 0 0
Ag 1.73563464 5.19845464 0.99995780
Ag 5.19423000 5.19423000 -2.5970181399999994 0 0 0
Ag 5.19007462 1.72711610 0.99995780
Bi 0.00000000 0.00000000 2.63128225
Bi 3.46282000 3.46282000 2.63103031
Bi 3.46282000 0.00000000 -0.8656727099999983 0 0 0
Bi 0.00000000 3.46282000 -0.8656727099999983 0 0 0
C 0.00000000 3.46282000 4.78185916
O 0.00000000 3.46282000 5.91988117
