&CONTROL
calculation = 'relax'
prefix = 'scf'
pseudo_dir = '/vol0004/mdt0/data/hp150275/u10028/POT_KKJUS'
outdir = './data'
tprnfor = .true.
nstep = 50
disk_io = 'non'
/
&SYSTEM
ibrav = 0
ecutwfc = 50.0
ecutrho = 400
occupations = 'smearing'
smearing = 'mp'
degauss = 0.01
assume_isolated = 'esm'
esm_bc = 'bc1'
input_dft = 'BEEF-VDW'
nosym = .true.
nspin = 1
ntyp = 5
nat = 34
/
&ELECTRONS
electron_maxstep = 200
mixing_beta = 0.1
conv_thr = 1e-06
/
&IONS
ion_dynamics = 'bfgs'
upscale = 1.0
/
&CELL
/

K_POINTS {automatic}
9 6 2 0  0  0

ATOMIC_SPECIES
Al 26.98 Al.pbe-nl-rrkjus_psl.1.0.0.UPF
C 12.01 C.pbe-n-rrkjus_psl.1.0.0.UPF
Ni 58.69 Ni.pbe-spn-rrkjus_psl.1.0.0.UPF
O 15.99 O.pbe-n-rrkjus_psl.1.0.0.UPF
Ta 180.9 Ta.pbe-spn-rrkjus_psl.1.0.0.UPF

CELL_PARAMETERS {angstrom}
6.00328000 0.00000000 0.00000000
0.00000000 8.48992000 0.00000000
0.00000000 0.00000000 26.36740000

ATOMIC_POSITIONS {angstrom}
Ta 0.00000000 0.00000000 -3.183599879999999 0 0 0
Ta 3.00164000 2.12248000 -1.0612878499999994 0 0 0
Ta 3.00164000 6.36744000 -1.0612878499999994 0 0 0
Ta 0.00000000 4.24496000 -3.183599879999999 0 0 0
Ta 0.00000000 4.27153345 1.06234255
Ta 3.00164000 6.36744000 3.22051424
Ta 3.00164000 2.12248000 3.20495747
Ta 0.00000000 8.46334655 1.06234255
Al 0.00000000 6.36744000 -1.0612878499999994 0 0 0
Al 3.00164000 0.00000000 -3.183599879999999 0 0 0
Al 0.00000000 2.12248000 -1.0612878499999994 0 0 0
Al 3.00164000 4.24496000 -3.183599879999999 0 0 0
Al 0.00000000 2.12248000 3.19810195
Al 3.00164000 4.21575468 1.05021354
Al 0.00000000 6.36744000 3.17015250
Al 3.00164000 0.02920532 1.05047722
Ni 1.50082000 0.00000000 -1.0612878499999994 0 0 0
Ni 4.50246000 4.24496000 -1.0612878499999994 0 0 0
Ni 4.50246000 0.00000000 -1.0612878499999994 0 0 0
Ni 1.50082000 4.24496000 -1.0612878499999994 0 0 0
Ni 4.50246000 6.36744000 -3.183599879999999 0 0 0
Ni 1.50082000 2.12248000 -3.183599879999999 0 0 0
Ni 1.50082000 6.36744000 -3.183599879999999 0 0 0
Ni 4.50246000 2.12248000 -3.183599879999999 0 0 0
Ni 1.52051076 4.25217643 3.05413594
Ni 4.48282927 8.48270357 3.05439962
Ni 4.48276924 4.25217643 3.05413594
Ni 1.52045073 8.48270357 3.05439962
Ni 4.55402818 2.12248000 1.05654172
Ni 1.61037986 6.36744000 1.13379820
Ni 1.44925182 2.12248000 1.05654172
Ni 4.39290014 6.36744000 1.13379820
C 3.00164000 2.12248000 5.31804091
O 3.00164000 2.12248000 6.47504242
