&CONTROL
calculation = 'relax'
prefix = 'scf'
pseudo_dir = '/vol0004/mdt0/data/hp150275/u10028/POT_HYBRID_KKJUS_GBRV'
outdir = './data'
tprnfor = .true.
nstep = 50
disk_io = 'non'
/
&SYSTEM
ibrav = 0
ecutwfc = 50.0
ecutrho = 400
occupations = 'smearing'
smearing = 'mp'
degauss = 0.01
assume_isolated = 'esm'
esm_bc = 'bc1'
input_dft = 'BEEF-VDW'
nosym = .true.
nspin = 2
ntyp = 5
nat = 34
starting_magnetization(1) = 0.0
starting_magnetization(2) = 0.1
starting_magnetization(3) = 0.0
starting_magnetization(4) = 0.0
starting_magnetization(5) = 0.0
/
&ELECTRONS
electron_maxstep = 300
mixing_beta = 0.1
conv_thr = 1e-06
/
&IONS
ion_dynamics = 'bfgs'
upscale = 1.0
/
&CELL
/

K_POINTS {automatic}
8 6 1 0 0 0

ATOMIC_SPECIES
C 12.01 C.pbe-n-rrkjus_psl.1.0.0.UPF
Co 58.93 co_pbe_v1.2.uspp.F.UPF
Nb 92.90 Nb.pbe-spn-rrkjus_psl.1.0.0.UPF
O 15.99 O.pbe-n-rrkjus_psl.1.0.0.UPF
Sn 118.7 Sn.pbe-dn-rrkjus_psl.1.0.0.UPF

CELL_PARAMETERS {angstrom}
6.19479000 0.00000000 0.00000000
0.00000000 8.76076000 0.00000000
0.00000000 0.00000000 26.57060000

ATOMIC_POSITIONS {angstrom}
Nb 0.00000000 0.00000000 -3.2851889799999974 0 0 0
Nb 3.09739500 2.19019000 -1.0949744300000006 0 0 0
Nb 3.09739500 6.57057000 -1.0949744300000006 0 0 0
Nb 0.00000000 4.38038000 -3.2851889799999974 0 0 0
Nb 0.00000000 4.37652527 1.16272946
Nb 3.09745695 6.57065761 3.21929390
Nb 3.09745695 2.19010239 3.21451119
Nb 0.00000000 0.00376713 1.16272946
Co 1.54869750 0.00000000 -1.0949744300000006 0 0 0
Co 4.64609250 4.38038000 -1.0949744300000006 0 0 0
Co 4.64609250 0.00000000 -1.0949744300000006 0 0 0
Co 1.54869750 4.38038000 -1.0949744300000006 0 0 0
Co 4.64609250 6.57057000 -3.2851889799999974 0 0 0
Co 1.54869750 2.19019000 -3.2851889799999974 0 0 0
Co 1.54869750 6.57057000 -3.2851889799999974 0 0 0
Co 4.64609250 2.19019000 -3.2851889799999974 0 0 0
Co 1.54590984 4.38511081 3.12523397
Co 4.64888016 8.75602919 3.12523397
Co 4.64881821 4.38511081 3.12523397
Co 1.54590984 8.75602919 3.12523397
Co 4.65557053 2.19027761 1.13987874
Co 1.49765243 6.57048239 1.17548334
Co 1.53915752 2.19027761 1.13987874
Co 4.69707562 6.57048239 1.17548334
Sn 0.00000000 6.57057000 -1.0949744300000006 0 0 0
Sn 3.09739500 0.00000000 -3.2851889799999974 0 0 0
Sn 0.00000000 2.19019000 -1.0949744300000006 0 0 0
Sn 3.09739500 4.38038000 -3.2851889799999974 0 0 0
Sn 0.00000000 2.19036522 3.66169439
Sn 3.09739500 4.38800186 1.04608452
Sn 0.00000000 6.57039478 3.70766152
Sn 3.09739500 8.75313814 1.04608452
C 0.00000000 2.19001478 7.29442682
O 0.00000000 2.19019000 8.43031997
