&CONTROL
calculation = 'relax'
prefix = 'scf'
pseudo_dir = '/vol0403/data/hp230205/u10028/POT_HYBRID_KKJUS_GBRV'
outdir = './data'
tprnfor = .true.
nstep = 50
disk_io = 'non'
/
&SYSTEM
ibrav = 0
ecutwfc = 50.0
ecutrho = 400
occupations = 'smearing'
smearing = 'mp'
degauss = 0.01
assume_isolated = 'esm'
esm_bc = 'bc1'
input_dft = 'BEEF-VDW'
nosym = .true.
nspin = 1
ntyp = 4
nat = 16
/
&ELECTRONS
electron_maxstep = 200
mixing_beta = 0.1
conv_thr = 1e-06
/
&IONS
ion_dynamics = 'bfgs'
upscale = 1.0
/
&CELL
/

K_POINTS {automatic}
11 8 2 0  0  0

ATOMIC_SPECIES
Ge 72.64 Ge.pbe-dn-rrkjus_psl.1.0.0.UPF
In 114.8 In.pbe-dn-rrkjus_psl.1.0.0.UPF
Li 6.941 Li.pbe-sl-rrkjus_psl.1.0.0.UPF
Y 88.90 Y.pbe-spn-rrkjus_psl.1.0.0.UPF


CELL_PARAMETERS {angstrom}
6.30439000 0.00000000 0.00000000
0.00000000 8.57642000 0.00000000
0.00000000 0.00000000 24.70800000

ATOMIC_POSITIONS {angstrom}
Li 4.86862822 2.14410500 1.20056172
Li 1.13895110 2.14410500 -2.3539311599999984 0 0 0
Li 4.86856518 6.43222924 1.20056172
Li 1.13895110 6.43231500 -2.3539311599999984 0 0 0
Y 1.57899752 2.14393347 0.86206212
Y 4.29114610 2.14410500 -2.3539311599999984 0 0 0
Y 1.57887143 6.43240076 0.86230920
Y 4.29114610 6.43231500 -2.3539311599999984 0 0 0
In 3.43337079 8.57624847 2.44559784
In 6.01300109 0.00000000 -0.7847260799999987 0 0 0
In 3.43330775 4.28829576 2.44535076
In 6.01300109 4.28821000 -0.7847260799999987 0 0 0
Ge 6.28799859 0.00000000 2.03025636
Ge 2.86080609 0.00000000 -0.7847260799999987 0 0 0
Ge 6.28812467 4.28821000 2.03025636
Ge 2.86080609 4.28821000 -0.7847260799999987 0 0 0
