&CONTROL
calculation = 'relax'
prefix = 'scf'
pseudo_dir = '/vol0004/mdt0/data/hp150275/u10028/POT_KKJUS'
outdir = './data'
tprnfor = .true.
nstep = 50
disk_io = 'non'
/
&SYSTEM
ibrav = 0
ecutwfc = 50.0
ecutrho = 400
occupations = 'smearing'
smearing = 'mp'
degauss = 0.01
assume_isolated = 'esm'
esm_bc = 'bc1'
input_dft = 'BEEF-VDW'
nosym = .true.
nspin = 1
ntyp = 4
nat = 33
/
&ELECTRONS
electron_maxstep = 200
mixing_beta = 0.1
conv_thr = 1e-06
/
&IONS
ion_dynamics = 'bfgs'
upscale = 1.0
/
&CELL
/

K_POINTS {automatic}
8 6 1 0 0 0

ATOMIC_SPECIES
C 12.01 C.pbe-n-rrkjus_psl.1.0.0.UPF
Ga 69.72 Ga.pbe-dnl-rrkjus_psl.1.0.0.UPF
Ni 58.69 Ni.pbe-spn-rrkjus_psl.1.0.0.UPF
Zr 91.22 Zr.pbe-spn-rrkjus_psl.1.0.0.UPF

CELL_PARAMETERS {angstrom}
6.14888000 0.00000000 0.00000000
0.00000000 8.69583000 0.00000000
0.00000000 0.00000000 26.52190000

ATOMIC_POSITIONS {angstrom}
Zr 0.00000000 0.00000000 -3.2608676099999983 0 0 0
Zr 3.07444000 2.17395750 -1.086867459999997 0 0 0
Zr 3.07444000 6.52187250 -1.086867459999997 0 0 0
Zr 0.00000000 4.34791500 -3.2608676099999983 0 0 0
Zr 0.02662465 4.40643794 1.24918149
Zr 2.61776268 6.53256837 3.26802852
Zr 2.81956892 2.15534842 2.99352685
Zr 0.03381884 8.63748098 1.25925981
Ga 0.00000000 6.52187250 -1.086867459999997 0 0 0
Ga 3.07444000 0.00000000 -3.2608676099999983 0 0 0
Ga 0.00000000 2.17395750 -1.086867459999997 0 0 0
Ga 3.07444000 4.34791500 -3.2608676099999983 0 0 0
Ga 5.49832850 2.17821846 3.59080004
Ga 3.03963734 4.33861046 1.01711486
Ga 5.90876624 6.50569826 3.41469463
Ga 3.04664706 8.69356908 1.01260614
Ni 1.53722000 0.00000000 -1.086867459999997 0 0 0
Ni 4.61166000 4.34791500 -1.086867459999997 0 0 0
Ni 4.61166000 0.00000000 -1.086867459999997 0 0 0
Ni 1.53722000 4.34791500 -1.086867459999997 0 0 0
Ni 4.61166000 6.52187250 -3.2608676099999983 0 0 0
Ni 1.53722000 2.17395750 -3.2608676099999983 0 0 0
Ni 1.53722000 6.52187250 -3.2608676099999983 0 0 0
Ni 4.61166000 2.17395750 -3.2608676099999983 0 0 0
Ni 0.96789520 4.13121492 3.72393998
Ni 4.41686348 8.61469791 3.10359274
Ni 4.39989257 4.42356872 3.08953613
Ni 0.93192425 0.17687318 3.77937075
Ni 4.73021041 2.17534883 0.99271472
Ni 1.58339809 6.52230729 0.94868836
Ni 1.44037514 2.17456621 0.84074423
Ni 4.39890875 6.51648109 1.30567314
C 1.19737140 2.13343493 4.24376922
