&CONTROL
calculation = 'relax'
prefix = 'scf'
pseudo_dir = '/vol0403/data/hp230205/u10028/POT_HYBRID_KKJUS_GBRV'
outdir = './data'
tprnfor = .true.
nstep = 50
disk_io = 'non'
/
&SYSTEM
ibrav = 0
ecutwfc = 50.0
ecutrho = 400
occupations = 'smearing'
smearing = 'mp'
degauss = 0.01
assume_isolated = 'esm'
esm_bc = 'bc1'
input_dft = 'BEEF-VDW'
nosym = .true.
nspin = 1
ntyp = 5
nat = 33
/
&ELECTRONS
electron_maxstep = 200
mixing_beta = 0.1
conv_thr = 1e-06
/
&IONS
ion_dynamics = 'bfgs'
upscale = 1.0
/
&CELL
/

K_POINTS {automatic}
6 6 1 0 0 0

ATOMIC_SPECIES
C 12.01 C.pbe-n-rrkjus_psl.1.0.0.UPF
Cu 63.54 Cu.pbe-dn-rrkjus_psl.1.0.0.UPF
Ge 72.64 Ge.pbe-dn-rrkjus_psl.1.0.0.UPF
In 114.8 In.pbe-dn-rrkjus_psl.1.0.0.UPF
Li 6.941 Li.pbe-sl-rrkjus_psl.1.0.0.UPF


CELL_PARAMETERS {angstrom}
6.49386000 0.00000000 0.00000000
0.00000000 9.18370000 0.00000000
0.00000000 0.00000000 26.88780000

ATOMIC_POSITIONS {angstrom}
Li 0.00000000 2.29592500 -1.1478401799999993 0 0 0
Li 0.00000000 6.88777500 -1.1478401799999993 0 0 0
Li 3.24693000 4.59185000 -3.443789419999998 0 0 0
Li 3.24693000 0.00000000 -3.443789419999998 0 0 0
Li 5.86837140 6.88777500 3.74977259
Li 0.38294292 2.29592500 3.78902878
Li 3.11231228 9.17056731 1.32798844
Li 3.11231228 4.60498269 1.32798844
In 1.62346500 0.00000000 -1.1478401799999993 0 0 0
In 1.62346500 4.59185000 -1.1478401799999993 0 0 0
In 4.87039500 2.29592500 -3.443789419999998 0 0 0
In 4.87039500 6.88777500 -3.443789419999998 0 0 0
In 1.76016075 4.76441172 4.09366755
In 1.76009581 9.01104644 4.09366755
In 4.86247249 6.88777500 1.10024878
In 4.96312732 2.29592500 1.24947607
Cu 0.00000000 0.00000000 -3.443789419999998 0 0 0
Cu 0.00000000 4.59185000 -3.443789419999998 0 0 0
Cu 3.24693000 6.88777500 -1.1478401799999993 0 0 0
Cu 3.24693000 2.29592500 -1.1478401799999993 0 0 0
Cu 0.06182155 4.57651322 1.15483101
Cu 0.06188649 0.01524494 1.15483101
Cu 2.95405691 2.29592500 3.15205679
Cu 3.03380151 6.88768316 3.03428823
Ge 4.87039500 0.00000000 -1.1478401799999993 0 0 0
Ge 4.87039500 4.59185000 -1.1478401799999993 0 0 0
Ge 1.62346500 2.29592500 -3.443789419999998 0 0 0
Ge 1.62346500 6.88777500 -3.443789419999998 0 0 0
Ge 4.95734779 4.21485912 3.82263853
Ge 4.95721791 0.37708272 3.82290740
Ge 1.26760147 6.88777500 1.34008795
Ge 1.51521235 2.29592500 1.16988818
C 4.78493580 2.29601684 3.95250660
