&CONTROL
calculation = 'relax'
prefix = 'scf'
pseudo_dir = '/vol0004/mdt0/data/hp150275/u10028/POT_KKJUS'
outdir = './data'
tprnfor = .true.
nstep = 50
disk_io = 'non'
/
&SYSTEM
ibrav = 0
ecutwfc = 50.0
ecutrho = 400
occupations = 'smearing'
smearing = 'mp'
degauss = 0.01
assume_isolated = 'esm'
esm_bc = 'bc1'
input_dft = 'BEEF-VDW'
nosym = .true.
nspin = 1
ntyp = 3
nat = 33
/
&ELECTRONS
electron_maxstep = 200
mixing_beta = 0.1
conv_thr = 1e-06
/
&IONS
ion_dynamics = 'bfgs'
upscale = 1.0
/
&CELL
/

K_POINTS {automatic}
8 6 1 0 0 0

ATOMIC_SPECIES
Bi 208.9 Bi.pbe-dn-rrkjus_psl.1.0.0.UPF
C 12.01 C.pbe-n-rrkjus_psl.1.0.0.UPF
K 39.09 K.pbe-spn-rrkjus_psl.1.0.0.UPF

CELL_PARAMETERS {angstrom}
8.83903000 0.00000000 0.00000000
0.00000000 12.50030000 0.00000000
0.00000000 0.00000000 29.37520000

ATOMIC_POSITIONS {angstrom}
K 2.20975750 0.00000000 -1.5624668899999996 0 0 0
K 6.62927250 6.25015000 -1.5624668899999996 0 0 0
K 6.62927250 0.00000000 -1.5624668899999996 0 0 0
K 2.20975750 6.25015000 -1.5624668899999996 0 0 0
K 6.62927250 9.37522500 -4.68769442 0 0 0
K 2.20975750 3.12507500 -4.68769442 0 0 0
K 2.20975750 9.37522500 -4.68769442 0 0 0
K 6.62927250 3.12507500 -4.68769442 0 0 0
K 0.00000000 9.37522500 -1.5624668899999996 0 0 0
K 4.41951500 0.00000000 -4.68769442 0 0 0
K 0.00000000 3.12507500 -1.5624668899999996 0 0 0
K 4.41951500 6.25015000 -4.68769442 0 0 0
K 2.37168853 6.03251978 5.05429691
K 6.42376505 12.10429050 5.09013466
K 6.42376505 6.64615950 5.08984090
K 2.37177692 0.21763022 5.05459066
K 6.63174743 3.12507500 1.43086599
K 2.11624056 9.37522500 1.39502825
K 2.12340018 3.12507500 1.71492418
K 6.63210099 9.37522500 1.62209854
K 8.62910304 3.12507500 4.59193126
K 4.36904414 6.39065337 1.68848650
K 0.45282351 9.37522500 4.49704937
K 4.36904414 12.35992163 1.68848650
Bi 0.00000000 0.00000000 -4.68769442 0 0 0
Bi 4.41951500 3.12507500 -1.5624668899999996 0 0 0
Bi 4.41951500 9.37522500 -1.5624668899999996 0 0 0
Bi 0.00000000 6.25015000 -4.68769442 0 0 0
Bi 8.75523600 6.26027524 1.86121267
Bi 4.17476226 9.37522500 4.37396728
Bi 4.77758411 3.12507500 4.65538170
Bi 8.75523600 12.49017476 1.86121267
C 2.63588714 3.12507500 4.68005686
