&CONTROL
calculation = 'relax'
prefix = 'scf'
pseudo_dir = '/vol0004/mdt0/data/hp150275/u10028/POT_KKJUS'
outdir = './data'
tprnfor = .true.
nstep = 50
disk_io = 'non'
/
&SYSTEM
ibrav = 0
ecutwfc = 50.0
ecutrho = 400
occupations = 'smearing'
smearing = 'mp'
degauss = 0.01
assume_isolated = 'esm'
esm_bc = 'bc1'
input_dft = 'BEEF-VDW'
nosym = .true.
nspin = 1
ntyp = 3
nat = 17
/
&ELECTRONS
electron_maxstep = 200
mixing_beta = 0.1
conv_thr = 1e-06
/
&IONS
ion_dynamics = 'bfgs'
upscale = 1.0
/
&CELL
/

K_POINTS {automatic}
6 8 1 0 0 0

ATOMIC_SPECIES
C 12.01 C.pbe-n-rrkjus_psl.1.0.0.UPF
Cu 63.54 Cu.pbe-dn-rrkjus_psl.1.0.0.UPF
Pd 106.4 Pd.pbe-n-rrkjus_psl.1.0.0.UPF

CELL_PARAMETERS {angstrom}
7.51398000 0.00000000 0.00000000
0.00000000 5.31318000 0.00000000
0.00000000 0.00000000 23.98490000

ATOMIC_POSITIONS {angstrom}
Cu 0.42326249 2.68368722 2.04087514
Cu 1.87849500 4.02085523 0.49912577
Cu 1.87849500 1.30661723 0.44228156
Cu 0.00000000 0.00000000 -0.664141879999999 0 0 0
Cu 1.87849500 1.32829500 -1.9924256400000004 0 0 0
Cu 1.87849500 3.98488500 -1.9924256400000004 0 0 0
Cu 3.33372751 2.68368722 2.04087514
Cu 5.63548500 3.94301714 0.85722033
Cu 5.63548500 1.27866990 0.79030245
Cu 3.75699000 0.00000000 -0.664141879999999 0 0 0
Cu 5.63548500 1.32829500 -1.9924256400000004 0 0 0
Cu 5.63548500 3.98488500 -1.9924256400000004 0 0 0
Pd 0.26313958 0.05440696 2.05190820
Pd 0.00000000 2.65659000 -0.664141879999999 0 0 0
Pd 3.49385042 0.05435383 2.05190820
Pd 3.75699000 2.65659000 -0.664141879999999 0 0 0
C 1.87849500 1.30571399 2.41455988
