&CONTROL
calculation = 'relax'
prefix = 'scf'
pseudo_dir = '/vol0004/mdt0/data/hp150275/u10028/POT_KKJUS'
outdir = './data'
tprnfor = .true.
nstep = 50
disk_io = 'non'
/
&SYSTEM
ibrav = 0
ecutwfc = 50.0
ecutrho = 400
occupations = 'smearing'
smearing = 'mp'
degauss = 0.01
assume_isolated = 'esm'
esm_bc = 'bc1'
input_dft = 'BEEF-VDW'
nosym = .true.
nspin = 1
ntyp = 4
nat = 34
/
&ELECTRONS
electron_maxstep = 200
mixing_beta = 0.1
conv_thr = 1e-06
/
&IONS
ion_dynamics = 'bfgs'
upscale = 1.0
/
&CELL
/

K_POINTS {automatic}
6 6 1 0 0 0

ATOMIC_SPECIES
C 12.01 C.pbe-n-rrkjus_psl.1.0.0.UPF
Ga 69.72 Ga.pbe-dnl-rrkjus_psl.1.0.0.UPF
Ni 58.69 Ni.pbe-spn-rrkjus_psl.1.0.0.UPF
O 15.99 O.pbe-n-rrkjus_psl.1.0.0.UPF

CELL_PARAMETERS {angstrom}
7.23991000 0.00000000 0.00000000
-0.00000000 7.23991000 0.00000000
0.00000000 0.00000000 25.42990000

ATOMIC_POSITIONS {angstrom}
Ga 0.00000000 0.00000000 2.71489612
Ga 0.00000000 0.00000000 -0.9050501400000002 0 0 0
Ga 0.00000000 3.61995500 2.71489612
Ga 0.00000000 3.61995500 -0.9050501400000002 0 0 0
Ga 3.61995500 -0.00000000 2.71489612
Ga 3.61995500 0.00000000 -0.9050501400000002 0 0 0
Ga 3.61995500 3.61995500 2.71489612
Ga 3.61995500 3.61995500 -0.9050501400000002 0 0 0
Ni 0.00000000 1.80997750 0.90505014
Ni 1.80997750 -0.00000000 0.90505014
Ni 1.80997750 1.80997750 2.71489612
Ni 0.00000000 1.80997750 -2.714896119999999 0 0 0
Ni 1.80997750 0.00000000 -2.714896119999999 0 0 0
Ni 1.80997750 1.80997750 -0.9050501400000002 0 0 0
Ni 0.00000000 5.42993250 0.90505014
Ni 1.80997750 3.61995500 0.90505014
Ni 1.80997750 5.42993250 2.71489612
Ni 0.00000000 5.42993250 -2.714896119999999 0 0 0
Ni 1.80997750 3.61995500 -2.714896119999999 0 0 0
Ni 1.80997750 5.42993250 -0.9050501400000002 0 0 0
Ni 3.61995500 1.80997750 0.90505014
Ni 5.42993250 -0.00000000 0.90505014
Ni 5.42993250 1.80997750 2.71489612
Ni 3.61995500 1.80997750 -2.714896119999999 0 0 0
Ni 5.42993250 0.00000000 -2.714896119999999 0 0 0
Ni 5.42993250 1.80997750 -0.9050501400000002 0 0 0
Ni 3.61995500 5.42993250 0.90505014
Ni 5.42993250 3.61995500 0.90505014
Ni 5.42993250 5.42993250 2.71489612
Ni 3.61995500 5.42993250 -2.714896119999999 0 0 0
Ni 5.42993250 3.61995500 -2.714896119999999 0 0 0
Ni 5.42993250 5.42993250 -0.9050501400000002 0 0 0
C 1.80997750 1.80997750 4.61501825
O 1.80997750 1.80997750 5.76495833
