&CONTROL
calculation = 'relax'
prefix = 'scf'
pseudo_dir = '/vol0004/mdt0/data/hp150275/u10028/POT_HYBRID_KKJUS_GBRV'
outdir = './data'
tprnfor = .true.
nstep = 50
disk_io = 'non'
/
&SYSTEM
ibrav = 0
ecutwfc = 50.0
ecutrho = 400
occupations = 'smearing'
smearing = 'mp'
degauss = 0.01
assume_isolated = 'esm'
esm_bc = 'bc1'
input_dft = 'BEEF-VDW'
nosym = .true.
nspin = 2
ntyp = 5
nat = 34
starting_magnetization(1) = 0.0
starting_magnetization(2) = 0.0
starting_magnetization(3) = 0.001
starting_magnetization(4) = 0.0
starting_magnetization(5) = 0.0
/
&ELECTRONS
electron_maxstep = 300
mixing_beta = 0.1
conv_thr = 1e-06
/
&IONS
ion_dynamics = 'bfgs'
upscale = 1.0
/
&CELL
/

K_POINTS {automatic}
8 6 1 0 0 0

ATOMIC_SPECIES
C 12.01 C.pbe-n-rrkjus_psl.1.0.0.UPF
In 114.8 In.pbe-dn-rrkjus_psl.1.0.0.UPF
Ni 58.69 ni_pbe_v1.4.uspp.F.UPF
O 15.99 O.pbe-n-rrkjus_psl.1.0.0.UPF
Sc 44.95 Sc.pbe-spn-rrkjus_psl.1.0.0.UPF

CELL_PARAMETERS {angstrom}
6.31539000 0.00000000 0.00000000
0.00000000 8.93131000 0.00000000
0.00000000 0.00000000 26.69850000

ATOMIC_POSITIONS {angstrom}
Sc 0.00000000 0.00000000 -3.349326819999998 0 0 0
Sc 3.15769500 2.23282750 -1.1165312699999994 0 0 0
Sc 3.15769500 6.69848250 -1.1165312699999994 0 0 0
Sc 0.00000000 4.46565500 -3.349326819999998 0 0 0
Sc 0.00000000 4.45091834 1.10184709
Sc 3.15769500 6.69848250 3.29726475
Sc 3.15769500 2.23282750 3.31088098
Sc 0.00000000 0.01473666 1.10184709
In 0.00000000 6.69848250 -1.1165312699999994 0 0 0
In 3.15769500 0.00000000 -3.349326819999998 0 0 0
In 0.00000000 2.23282750 -1.1165312699999994 0 0 0
In 3.15769500 4.46565500 -3.349326819999998 0 0 0
In 0.00000000 2.23282750 3.53461442
In 3.15769500 4.47163898 1.12721067
In 0.00000000 6.69848250 3.54102206
In 3.15769500 8.92532602 1.12721067
Ni 1.57884750 0.00000000 -1.1165312699999994 0 0 0
Ni 4.73654250 4.46565500 -1.1165312699999994 0 0 0
Ni 4.73654250 0.00000000 -1.1165312699999994 0 0 0
Ni 1.57884750 4.46565500 -1.1165312699999994 0 0 0
Ni 4.73654250 6.69848250 -3.349326819999998 0 0 0
Ni 1.57884750 2.23282750 -3.349326819999998 0 0 0
Ni 1.57884750 6.69848250 -3.349326819999998 0 0 0
Ni 4.73654250 2.23282750 -3.349326819999998 0 0 0
Ni 1.44312977 4.46136797 3.18299517
Ni 4.87232338 0.00428703 3.18299517
Ni 4.87226023 4.46136797 3.18299517
Ni 1.44312977 0.00428703 3.18299517
Ni 4.71860679 2.23282750 1.18407847
Ni 1.56969018 6.69848250 1.17233113
Ni 1.59678321 2.23282750 1.18407847
Ni 4.74569982 6.69848250 1.17233113
C 6.31475846 2.23309544 7.48065271
O 0.00012631 2.23282750 8.61560595
