&CONTROL
calculation = 'relax'
prefix = 'scf'
pseudo_dir = '/vol0004/mdt0/data/hp150275/u10028/POT_KKJUS'
outdir = './data'
tprnfor = .true.
nstep = 50
disk_io = 'non'
/
&SYSTEM
ibrav = 0
ecutwfc = 50.0
ecutrho = 400
occupations = 'smearing'
smearing = 'mp'
degauss = 0.01
assume_isolated = 'esm'
esm_bc = 'bc1'
input_dft = 'BEEF-VDW'
nosym = .true.
nspin = 1
ntyp = 5
nat = 18
/
&ELECTRONS
electron_maxstep = 200
mixing_beta = 0.1
conv_thr = 1e-06
/
&IONS
ion_dynamics = 'bfgs'
upscale = 1.0
/
&CELL
/

K_POINTS {automatic}
9 9 2 0  0  0

ATOMIC_SPECIES
Au 196.9 Au.pbe-n-rrkjus_psl.1.0.0.UPF
C 12.01 C.pbe-n-rrkjus_psl.1.0.0.UPF
Li 6.941 Li.pbe-sl-rrkjus_psl.1.0.0.UPF
O 15.99 O.pbe-n-rrkjus_psl.1.0.0.UPF
Sb 121.7 Sb.pbe-n-rrkjus_psl.1.0.0.UPF

CELL_PARAMETERS {angstrom}
6.66546000 0.00000000 0.00000000
0.00000000 6.66546000 0.00000000
0.00000000 0.00000000 24.99910000

ATOMIC_POSITIONS {angstrom}
Li 0.00000000 0.00000000 -0.8332199999999972 0 0 0
Li 3.33279665 0.00000000 2.70365266
Li 0.00000000 3.33266335 2.65990424
Li 3.33273000 3.33273000 -0.8332199999999972 0 0 0
Li 1.66636500 1.66636500 -2.4996600099999995 0 0 0
Li 1.67383032 5.00669362 1.00396386
Li 4.99909500 4.99909500 -2.4996600099999995 0 0 0
Li 4.99162968 1.65876638 1.00396386
Sb 6.66539335 0.00000000 2.54715830
Sb 3.33273000 3.33279665 2.54715830
Sb 3.33273000 0.00000000 -0.8332199999999972 0 0 0
Sb 0.00000000 3.33273000 -0.8332199999999972 0 0 0
Au 1.68549487 1.64890149 1.00321388
Au 1.66636500 4.99909500 -2.4996600099999995 0 0 0
Au 4.97983182 5.01655851 1.00321388
Au 4.99909500 1.66636500 -2.4996600099999995 0 0 0
C 0.00000000 3.33273000 4.78282781
O 0.00006665 3.33273000 5.91953689
