&CONTROL
calculation = 'relax'
prefix = 'scf'
pseudo_dir = '/vol0004/mdt0/data/hp150275/u10028/POT_HYBRID_KKJUS_GBRV'
outdir = './data'
tprnfor = .true.
nstep = 50
disk_io = 'non'
/
&SYSTEM
ibrav = 0
ecutwfc = 50.0
ecutrho = 400
occupations = 'smearing'
smearing = 'mp'
degauss = 0.01
assume_isolated = 'esm'
esm_bc = 'bc1'
input_dft = 'BEEF-VDW'
nosym = .true.
nspin = 2
ntyp = 4
nat = 33
starting_magnetization(1) = 0.0
starting_magnetization(2) = 0.0
starting_magnetization(3) = 0.0
starting_magnetization(4) = 0.001
/
&ELECTRONS
electron_maxstep = 200
mixing_beta = 0.1
conv_thr = 1e-06
/
&IONS
ion_dynamics = 'bfgs'
upscale = 1.0
/
&CELL
/

K_POINTS {automatic}
9 6 2 0  0  0

ATOMIC_SPECIES
C 12.01 C.pbe-n-rrkjus_psl.1.0.0.UPF
Ga 69.72 Ga.pbe-dnl-rrkjus_psl.1.0.0.UPF
Hf 178.4 Hf.pbe-spn-rrkjus_psl.1.0.0.UPF
Ni 58.69 ni_pbe_v1.4.uspp.F.UPF

CELL_PARAMETERS {angstrom}
6.08368000 0.00000000 0.00000000
0.00000000 8.60362000 0.00000000
0.00000000 0.00000000 26.45270000

ATOMIC_POSITIONS {angstrom}
Hf 0.00000000 0.00000000 23.22626418
Hf 3.04184000 2.15090500 25.37713322
Hf 3.04184000 6.45271500 25.37713322
Hf 0.00000000 4.30181000 23.22626418
Hf 0.01770351 4.32719068 1.30861507
Hf 2.52113783 6.45194067 3.18411150
Hf 2.64122967 2.15331401 3.02354361
Hf 0.01733849 8.57841139 1.30993770
Ga 0.00000000 6.45271500 25.37713322
Ga 3.04184000 0.00000000 23.22626418
Ga 0.00000000 2.15090500 25.37713322
Ga 3.04184000 4.30181000 23.22626418
Ga 5.17021545 2.15159329 3.98377662
Ga 3.01823532 4.29294827 1.03244888
Ga 5.78162529 6.45254293 3.43779289
Ga 3.01823532 0.00980813 1.03271341
Ni 1.52092000 0.00000000 25.37713322
Ni 4.56276000 4.30181000 25.37713322
Ni 4.56276000 0.00000000 25.37713322
Ni 1.52092000 4.30181000 25.37713322
Ni 4.56276000 6.45271500 23.22626418
Ni 1.52092000 2.15090500 23.22626418
Ni 1.52092000 6.45271500 23.22626418
Ni 4.56276000 2.15090500 23.22626418
Ni 0.77670343 4.10375467 3.76395468
Ni 4.27342018 8.53737213 3.14310981
Ni 4.27360269 4.36848806 3.14284529
Ni 0.78315213 0.19762515 3.76104489
Ni 4.60352066 2.15038878 1.05255293
Ni 1.50942184 6.45288707 0.92610903
Ni 1.44231885 2.15150725 0.82320802
Ni 4.38803671 6.45297311 1.27554919
C 0.99401248 2.15185140 4.25571038
