&CONTROL
calculation = 'relax'
prefix = 'scf'
pseudo_dir = '/vol0403/data/hp230205/u10028/POT_HYBRID_KKJUS_GBRV'
outdir = './data'
tprnfor = .true.
nstep = 50
disk_io = 'non'
/
&SYSTEM
ibrav = 0
ecutwfc = 50.0
ecutrho = 400
occupations = 'smearing'
smearing = 'mp'
degauss = 0.01
assume_isolated = 'esm'
esm_bc = 'bc1'
input_dft = 'BEEF-VDW'
nosym = .true.
nspin = 1
ntyp = 4
nat = 16
/
&ELECTRONS
electron_maxstep = 200
mixing_beta = 0.1
conv_thr = 1e-06
/
&IONS
ion_dynamics = 'bfgs'
upscale = 1.0
/
&CELL
/

K_POINTS {automatic}
12 8 2 0  0  0

ATOMIC_SPECIES
Ga 69.72 Ga.pbe-dnl-rrkjus_psl.1.0.0.UPF
In 114.8 In.pbe-dn-rrkjus_psl.1.0.0.UPF
Li 6.941 Li.pbe-sl-rrkjus_psl.1.0.0.UPF
Sc 44.95 Sc.pbe-spn-rrkjus_psl.1.0.0.UPF


CELL_PARAMETERS {angstrom}
5.87074000 0.00000000 0.00000000
0.00000000 8.86716000 0.00000000
0.00000000 0.00000000 24.40240000

ATOMIC_POSITIONS {angstrom}
Li 4.37792823 2.21679000 -0.7337801699999993 0 0 0
Li 2.00462288 2.21670133 2.28162440
Li 4.37792823 6.65037000 -0.7337801699999993 0 0 0
Li 2.00479900 6.65045867 2.28162440
Sc 2.93537000 0.00000000 -2.2010964800000004 0 0 0
Sc 0.22432098 8.86707133 0.82382502
Sc 2.93537000 4.43358000 -2.2010964800000004 0 0 0
Sc 0.22437968 4.43358000 0.82406905
In 1.44255823 2.21679000 -0.7337801699999993 0 0 0
In 4.90330076 2.21705601 2.36947304
In 1.44255823 6.65037000 -0.7337801699999993 0 0 0
In 4.90312463 6.65010399 2.36971706
Ga 0.00000000 0.00000000 -2.2010964800000004 0 0 0
Ga 3.20630465 0.00000000 0.84261487
Ga 0.00000000 4.43358000 -2.2010964800000004 0 0 0
Ga 3.20677431 4.43358000 0.84212682
