&CONTROL
calculation = 'relax'
prefix = 'scf'
pseudo_dir = '/vol0004/mdt0/data/hp150275/u10028/POT_KKJUS'
outdir = './data'
tprnfor = .true.
nstep = 50
disk_io = 'non'
/
&SYSTEM
ibrav = 0
ecutwfc = 50.0
ecutrho = 400
occupations = 'smearing'
smearing = 'mp'
degauss = 0.01
assume_isolated = 'esm'
esm_bc = 'bc1'
input_dft = 'BEEF-VDW'
nosym = .true.
nspin = 1
ntyp = 5
nat = 34
/
&ELECTRONS
electron_maxstep = 200
mixing_beta = 0.1
conv_thr = 1e-06
/
&IONS
ion_dynamics = 'bfgs'
upscale = 1.0
/
&CELL
/

K_POINTS {automatic}
8 6 1 0 0 0

ATOMIC_SPECIES
C 12.01 C.pbe-n-rrkjus_psl.1.0.0.UPF
Ge 72.64 Ge.pbe-dn-rrkjus_psl.1.0.0.UPF
Li 6.941 Li.pbe-sl-rrkjus_psl.1.0.0.UPF
O 15.99 O.pbe-n-rrkjus_psl.1.0.0.UPF
Zn 65.40 Zn.pbe-dnl-rrkjus_psl.1.0.0.UPF

CELL_PARAMETERS {angstrom}
6.18893000 0.00000000 0.00000000
0.00000000 8.75246000 0.00000000
0.00000000 0.00000000 26.56430000

ATOMIC_POSITIONS {angstrom}
Li 0.00000000 0.00000000 -3.282284909999998 0 0 0
Li 3.09446500 2.18811500 -1.0941835199999979 0 0 0
Li 3.09446500 6.56434500 -1.0941835199999979 0 0 0
Li 0.00000000 4.37623000 -3.282284909999998 0 0 0
Li 1.54723250 2.18811500 -3.282284909999998 0 0 0
Li 1.54723250 6.56434500 -3.282284909999998 0 0 0
Li 4.64169750 4.37623000 -1.0941835199999979 0 0 0
Li 4.64169750 0.00000000 -1.0941835199999979 0 0 0
Li 6.11695274 4.37623000 1.12792018
Li 3.01060500 6.56452005 3.38136975
Li 3.01060500 2.18793995 3.38136975
Li 6.07301134 0.00000000 1.10082459
Li 1.54661361 6.56845866 1.11490367
Li 1.54661361 2.18391382 1.11490367
Li 4.80310479 0.00000000 3.70173520
Li 4.83262599 4.37623000 3.70625114
Zn 1.54723250 0.00000000 -1.0941835199999979 0 0 0
Zn 1.54723250 4.37623000 -1.0941835199999979 0 0 0
Zn 4.64169750 6.56434500 -3.282284909999998 0 0 0
Zn 4.64169750 2.18811500 -3.282284909999998 0 0 0
Zn 1.43019983 4.37623000 3.26050218
Zn 1.35624212 0.00000000 3.20498279
Zn 4.64355418 2.19476687 1.18954935
Zn 4.64361607 6.55769313 1.18954935
Ge 0.00000000 6.56434500 -1.0941835199999979 0 0 0
Ge 3.09446500 0.00000000 -3.282284909999998 0 0 0
Ge 0.00000000 2.18811500 -1.0941835199999979 0 0 0
Ge 3.09446500 4.37623000 -3.282284909999998 0 0 0
Ge 0.04282740 2.20675774 3.37074403
Ge 3.15808720 4.37623000 1.26260118
Ge 0.04282740 6.54570226 3.37074403
Ge 3.15839665 0.00000000 1.27242997
C 4.38324778 0.00000000 5.75542124
O 4.33169400 0.00000000 6.89476406
