&CONTROL
calculation = 'relax'
prefix = 'scf'
pseudo_dir = '/vol0004/mdt0/data/hp150275/u10028/POT_KKJUS'
outdir = './data'
tprnfor = .true.
nstep = 50
disk_io = 'non'
/
&SYSTEM
ibrav = 0
ecutwfc = 50.0
ecutrho = 400
occupations = 'smearing'
smearing = 'mp'
degauss = 0.01
assume_isolated = 'esm'
esm_bc = 'bc1'
input_dft = 'BEEF-VDW'
nosym = .true.
nspin = 1
ntyp = 3
nat = 33
/
&ELECTRONS
electron_maxstep = 200
mixing_beta = 0.1
conv_thr = 1e-06
/
&IONS
ion_dynamics = 'bfgs'
upscale = 1.0
/
&CELL
/

K_POINTS {automatic}
9 6 2 0  0  0

ATOMIC_SPECIES
C 12.01 C.pbe-n-rrkjus_psl.1.0.0.UPF
Pd 106.4 Pd.pbe-n-rrkjus_psl.1.0.0.UPF
Zr 91.22 Zr.pbe-spn-rrkjus_psl.1.0.0.UPF

CELL_PARAMETERS {angstrom}
6.75388000 0.00000000 0.00000000
0.00000000 9.55143000 0.00000000
0.00000000 0.00000000 27.16360000

ATOMIC_POSITIONS {angstrom}
Zr 0.00000000 0.00000000 -3.5817923 0 0 0
Zr 0.00000000 2.38785750 -1.1938402199999985 0 0 0
Zr 6.73922408 9.50214462 1.14521738
Zr 0.04335991 2.25939077 3.64291040
Zr 0.00000000 4.77571500 -3.5817923 0 0 0
Zr 0.00000000 7.16357250 -1.1938402199999985 0 0 0
Zr 0.01235960 4.59270960 1.16124390
Zr 6.71727397 7.14313244 3.63802095
Zr 3.37694000 0.00000000 -3.5817923 0 0 0
Zr 3.37694000 2.38785750 -1.1938402199999985 0 0 0
Zr 3.37889863 9.38800503 1.10202725
Zr 3.29103065 2.33245921 3.65024457
Zr 3.37694000 4.77571500 -3.5817923 0 0 0
Zr 3.37694000 7.16357250 -1.1938402199999985 0 0 0
Zr 3.36782226 4.75689868 1.13896975
Zr 3.39382470 7.07741860 3.41419288
Pd 1.68847000 2.38785750 -3.5817923 0 0 0
Pd 1.68847000 0.00000000 -1.1938402199999985 0 0 0
Pd 1.81382201 2.19023841 1.14440247
Pd 1.61215116 4.92538591 3.43402231
Pd 1.68847000 7.16357250 -3.5817923 0 0 0
Pd 1.68847000 4.77571500 -1.1938402199999985 0 0 0
Pd 1.47788402 6.98744413 1.31145861
Pd 1.70197776 9.36651432 3.30526685
Pd 5.06541000 2.38785750 -3.5817923 0 0 0
Pd 5.06541000 0.00000000 -1.1938402199999985 0 0 0
Pd 4.96173794 2.29444451 1.17129443
Pd 5.08796796 4.67418330 3.31586065
Pd 5.06541000 7.16357250 -3.5817923 0 0 0
Pd 5.06541000 4.77571500 -1.1938402199999985 0 0 0
Pd 5.29578485 7.00119819 1.28538155
Pd 5.01563390 9.44359436 3.37073112
C 1.63646512 3.16276502 4.53577793
