&CONTROL
calculation = 'relax'
prefix = 'scf'
pseudo_dir = '/vol0004/mdt0/data/hp150275/u10028/POT_KKJUS'
outdir = './data'
tprnfor = .true.
nstep = 50
disk_io = 'non'
/
&SYSTEM
ibrav = 0
ecutwfc = 50.0
ecutrho = 400
occupations = 'smearing'
smearing = 'mp'
degauss = 0.01
assume_isolated = 'esm'
esm_bc = 'bc1'
input_dft = 'BEEF-VDW'
nosym = .true.
nspin = 1
ntyp = 4
nat = 33
/
&ELECTRONS
electron_maxstep = 200
mixing_beta = 0.1
conv_thr = 1e-06
/
&IONS
ion_dynamics = 'bfgs'
upscale = 1.0
/
&CELL
/

K_POINTS {automatic}
8 6 1 0 0 0

ATOMIC_SPECIES
C 12.01 C.pbe-n-rrkjus_psl.1.0.0.UPF
In 114.8 In.pbe-dn-rrkjus_psl.1.0.0.UPF
Li 6.941 Li.pbe-sl-rrkjus_psl.1.0.0.UPF
Mg 24.30 Mg.pbe-spnl-rrkjus_psl.1.0.0.UPF

CELL_PARAMETERS {angstrom}
6.75535000 0.00000000 0.00000000
0.00000000 9.55351000 0.00000000
0.00000000 0.00000000 27.16510000

ATOMIC_POSITIONS {angstrom}
Li 1.68883750 0.00000000 -1.1941777999999985 0 0 0
Li 5.06651250 4.77675500 -1.1941777999999985 0 0 0
Li 5.06651250 0.00000000 -1.1941777999999985 0 0 0
Li 1.68883750 4.77675500 -1.1941777999999985 0 0 0
Li 5.06651250 7.16513250 -3.5825333899999983 0 0 0
Li 1.68883750 2.38837750 -3.5825333899999983 0 0 0
Li 1.68883750 7.16513250 -3.5825333899999983 0 0 0
Li 5.06651250 2.38837750 -3.5825333899999983 0 0 0
Li 1.44510447 4.77675500 3.69363865
Li 4.78427398 0.00000000 3.69581186
Li 5.31024553 4.77675500 3.69363865
Li 1.97114358 0.00000000 3.69608351
Li 5.04617890 2.39229444 1.21156346
Li 1.70910355 7.16112003 1.21156346
Li 1.70917110 2.39229444 1.21156346
Li 5.04624645 7.16112003 1.21156346
Mg 0.00000000 0.00000000 -3.5825333899999983 0 0 0
Mg 3.37767500 2.38837750 -1.1941777999999985 0 0 0
Mg 3.37767500 7.16513250 -1.1941777999999985 0 0 0
Mg 0.00000000 4.77675500 -3.5825333899999983 0 0 0
Mg 0.00000000 4.77675500 1.08687565
Mg 3.37767500 6.96632396 3.66620190
Mg 3.37767500 2.58718604 3.66620190
Mg 0.00000000 0.00000000 1.19390615
In 0.00000000 7.16513250 -1.1941777999999985 0 0 0
In 3.37767500 0.00000000 -3.5825333899999983 0 0 0
In 0.00000000 2.38837750 -1.1941777999999985 0 0 0
In 3.37767500 4.77675500 -3.5825333899999983 0 0 0
In 0.00000000 2.17753153 3.87863298
In 3.37767500 4.77675500 1.35336528
In 0.00000000 7.37597847 3.87863298
In 3.37767500 0.00000000 1.09882829
C 0.00000000 0.00000000 3.36820075
