&CONTROL
calculation = 'relax'
prefix = 'scf'
pseudo_dir = '/vol0403/data/hp230205/u10028/POT_HYBRID_KKJUS_GBRV'
outdir = './data'
tprnfor = .true.
nstep = 70
disk_io = 'non'
/
&SYSTEM
ibrav = 0
ecutwfc = 50.0
ecutrho = 400
occupations = 'smearing'
smearing = 'mp'
degauss = 0.01
assume_isolated = 'esm'
esm_bc = 'bc1'
input_dft = 'BEEF-VDW'
nosym = .true.
nspin = 1
ntyp = 6
nat = 34
/
&ELECTRONS
electron_maxstep = 200
mixing_beta = 0.1
conv_thr = 1e-06
/
&IONS
ion_dynamics = 'bfgs'
upscale = 1.0
/
&CELL
/

K_POINTS {automatic}
6 6 1 0 0 0

ATOMIC_SPECIES
Al 26.98 Al.pbe-nl-rrkjus_psl.1.0.0.UPF
C 12.01 C.pbe-n-rrkjus_psl.1.0.0.UPF
Cu 63.54 Cu.pbe-dn-rrkjus_psl.1.0.0.UPF
O 15.99 O.pbe-n-rrkjus_psl.1.0.0.UPF
Pd 106.4 Pd.pbe-n-rrkjus_psl.1.0.0.UPF
Sc 44.95 Sc.pbe-spn-rrkjus_psl.1.0.0.UPF


CELL_PARAMETERS {angstrom}
6.32596000 0.00000000 0.00000000
-0.00000000 8.94626000 0.00000000
0.00000000 0.00000000 26.70970000

ATOMIC_POSITIONS {angstrom}
Sc 0.00000000 2.23656500 -1.1183351400000028 0 0 0
Sc 0.00000000 6.70969500 -1.1183351400000028 0 0 0
Sc 3.16298000 4.47313000 -3.3547383200000027 0 0 0
Sc 3.16298000 0.00000000 -3.3547383200000027 0 0 0
Sc 0.00000000 6.70969500 3.35473832
Sc 0.00000000 2.23656500 3.35473832
Sc 3.16298000 -0.00000000 1.11833514
Sc 3.16298000 4.47313000 1.11833514
Al 0.00000000 0.00000000 -3.3547383200000027 0 0 0
Al 0.00000000 4.47313000 -3.3547383200000027 0 0 0
Al 3.16298000 6.70969500 -1.1183351400000028 0 0 0
Al 3.16298000 2.23656500 -1.1183351400000028 0 0 0
Al 0.00000000 4.47313000 1.11833514
Al 0.00000000 0.00000000 1.11833514
Al 3.16298000 2.23656500 3.35473832
Al 3.16298000 6.70969500 3.35473832
Cu 4.74447000 0.00000000 -1.1183351400000028 0 0 0
Cu 4.74447000 4.47313000 -1.1183351400000028 0 0 0
Cu 1.58149000 2.23656500 -3.3547383200000027 0 0 0
Cu 1.58149000 6.70969500 -3.3547383200000027 0 0 0
Cu 4.74447000 4.47313000 3.35473832
Cu 4.74447000 -0.00000000 3.35473832
Cu 1.58149000 6.70969500 1.11833514
Cu 1.58149000 2.23656500 1.11833514
Pd 1.58149000 0.00000000 -1.1183351400000028 0 0 0
Pd 1.58149000 4.47313000 -1.1183351400000028 0 0 0
Pd 4.74447000 2.23656500 -3.3547383200000027 0 0 0
Pd 4.74447000 6.70969500 -3.3547383200000027 0 0 0
Pd 1.58149000 4.47313000 3.35473832
Pd 1.58149000 -0.00000000 3.35473832
Pd 4.74447000 6.70969500 1.11833514
Pd 4.74447000 2.23656500 1.11833514
C 4.74447000 -0.00000000 5.25486638
O 4.74447000 -0.00000000 6.40471896
