&CONTROL
calculation = 'relax'
prefix = 'scf'
pseudo_dir = '/vol0004/mdt0/data/hp150275/u10028/POT_HYBRID_KKJUS_GBRV'
outdir = './data'
tprnfor = .true.
nstep = 50
disk_io = 'non'
/
&SYSTEM
ibrav = 0
ecutwfc = 50.0
ecutrho = 400
occupations = 'smearing'
smearing = 'mp'
degauss = 0.01
assume_isolated = 'esm'
esm_bc = 'bc1'
input_dft = 'BEEF-VDW'
nosym = .true.
nspin = 2
ntyp = 4
nat = 33
starting_magnetization(1) = 0.0
starting_magnetization(2) = 0.0
starting_magnetization(3) = 0.001
starting_magnetization(4) = 0.0
/
&ELECTRONS
electron_maxstep = 200
mixing_beta = 0.1
conv_thr = 1e-06
/
&IONS
ion_dynamics = 'bfgs'
upscale = 1.0
/
&CELL
/

K_POINTS {automatic}
9 6 2 0  0  0

ATOMIC_SPECIES
C 12.01 C.pbe-n-rrkjus_psl.1.0.0.UPF
Cu 63.54 Cu.pbe-dn-rrkjus_psl.1.0.0.UPF
Ni 58.69 ni_pbe_v1.4.uspp.F.UPF
Sn 118.7 Sn.pbe-dn-rrkjus_psl.1.0.0.UPF

CELL_PARAMETERS {angstrom}
6.01864000 0.00000000 0.00000000
0.00000000 8.51164000 0.00000000
0.00000000 0.00000000 26.38370000

ATOMIC_POSITIONS {angstrom}
Cu 0.00000000 0.00000000 23.19179997
Cu 3.00932000 2.12791000 25.31964538
Cu 3.00932000 6.38373000 25.31964538
Cu 0.00000000 4.25582000 23.19179997
Cu 0.00000000 4.25513907 1.06906752
Cu 3.00932000 6.51089390 3.26287218
Cu 3.00932000 2.00083121 3.26208067
Cu 0.00000000 0.00068093 1.01181490
Ni 1.50466000 0.00000000 25.31964538
Ni 4.51398000 4.25582000 25.31964538
Ni 4.51398000 0.00000000 25.31964538
Ni 1.50466000 4.25582000 25.31964538
Ni 4.51398000 6.38373000 23.19179997
Ni 1.50466000 2.12791000 23.19179997
Ni 1.50466000 6.38373000 23.19179997
Ni 4.51398000 2.12791000 23.19179997
Ni 1.62009752 4.25547953 3.08873976
Ni 4.72854452 0.00025535 3.17184841
Ni 4.39854248 4.25547953 3.08873976
Ni 1.29009548 0.00025535 3.17184841
Ni 4.57819889 2.11880255 1.14320572
Ni 1.44026055 6.39283745 1.14346956
Ni 1.44044111 2.11880255 1.14320572
Ni 4.57837945 6.39283745 1.14346956
Sn 0.00000000 6.38373000 25.31964538
Sn 3.00932000 0.00000000 23.19179997
Sn 0.00000000 2.12791000 25.31964538
Sn 3.00932000 4.25582000 23.19179997
Sn 0.00000000 2.25745716 3.46602667
Sn 3.00932000 4.25582000 0.99492933
Sn 0.00000000 6.25418284 3.46629051
Sn 3.00932000 0.00008512 1.02025768
C 3.00932000 0.00000000 3.62802259
