&CONTROL
calculation = 'relax'
prefix = 'scf'
pseudo_dir = '/vol0004/mdt0/data/hp150275/u10028/POT_HYBRID_KKJUS_GBRV'
outdir = './data'
tprnfor = .true.
nstep = 50
disk_io = 'non'
/
&SYSTEM
ibrav = 0
ecutwfc = 50.0
ecutrho = 400
occupations = 'smearing'
smearing = 'mp'
degauss = 0.01
assume_isolated = 'esm'
esm_bc = 'bc1'
input_dft = 'BEEF-VDW'
nosym = .true.
nspin = 2
ntyp = 5
nat = 34
starting_magnetization(1) = 0.0
starting_magnetization(2) = 0.0
starting_magnetization(3) = 0.1
starting_magnetization(4) = 0.001
starting_magnetization(5) = 0.0
/
&ELECTRONS
electron_maxstep = 300
mixing_beta = 0.1
conv_thr = 1e-06
/
&IONS
ion_dynamics = 'bfgs'
upscale = 1.0
/
&CELL
/

K_POINTS {automatic}
9 6 2 0  0  0

ATOMIC_SPECIES
C 12.01 C.pbe-n-rrkjus_psl.1.0.0.UPF
Ga 69.72 Ga.pbe-dnl-rrkjus_psl.1.0.0.UPF
Mn 54.93 mn_pbe_v1.5.uspp.F.UPF
Ni 58.69 ni_pbe_v1.4.uspp.F.UPF
O 15.99 O.pbe-n-rrkjus_psl.1.0.0.UPF

CELL_PARAMETERS {angstrom}
5.88011000 0.00000000 0.00000000
0.00000000 8.31574000 0.00000000
0.00000000 0.00000000 26.23680000

ATOMIC_POSITIONS {angstrom}
Mn 0.00000000 0.00000000 -3.118506049999997 0 0 0
Mn 2.94005500 2.07893500 -1.0395020200000005 0 0 0
Mn 2.94005500 6.23680500 -1.0395020200000005 0 0 0
Mn 0.00000000 4.15787000 -3.118506049999997 0 0 0
Mn 5.87011381 4.15778684 0.95606899
Mn 2.95440247 6.18541373 3.12900077
Mn 2.95434367 2.13040943 3.12926314
Mn 0.01916916 0.00008316 0.99883498
Ga 0.00000000 6.23680500 -1.0395020200000005 0 0 0
Ga 2.94005500 0.00000000 -3.118506049999997 0 0 0
Ga 0.00000000 2.07893500 -1.0395020200000005 0 0 0
Ga 2.94005500 4.15787000 -3.118506049999997 0 0 0
Ga 5.84441773 2.08384129 3.11850605
Ga 2.93611533 4.15770369 1.01431469
Ga 5.84441773 6.23189871 3.11850605
Ga 2.91271249 0.00000000 1.01195338
Ni 1.47002750 0.00000000 -1.0395020200000005 0 0 0
Ni 4.41008250 4.15787000 -1.0395020200000005 0 0 0
Ni 4.41008250 0.00000000 -1.0395020200000005 0 0 0
Ni 1.47002750 4.15787000 -1.0395020200000005 0 0 0
Ni 4.41008250 6.23680500 -3.118506049999997 0 0 0
Ni 1.47002750 2.07893500 -3.118506049999997 0 0 0
Ni 1.47002750 6.23680500 -3.118506049999997 0 0 0
Ni 4.41008250 2.07893500 -3.118506049999997 0 0 0
Ni 1.37318209 4.15787000 2.94193238
Ni 4.46229788 0.00000000 2.91464611
Ni 4.48270186 4.15787000 2.94586790
Ni 1.43898052 0.00000000 3.12663946
Ni 4.39679345 2.06546350 1.01221574
Ni 1.46567622 6.24661757 1.04133859
Ni 1.46585262 2.06912243 1.04107622
Ni 4.39702866 6.25027650 1.01221574
C 2.09831725 8.31565684 4.77299866
O 2.39179354 0.00008316 5.89672080
