&CONTROL
calculation = 'relax'
prefix = 'scf'
pseudo_dir = '/vol0004/mdt0/data/hp150275/u10028/POT_KKJUS'
outdir = './data'
tprnfor = .true.
nstep = 50
disk_io = 'non'
/
&SYSTEM
ibrav = 0
ecutwfc = 50.0
ecutrho = 400
occupations = 'smearing'
smearing = 'mp'
degauss = 0.01
assume_isolated = 'esm'
esm_bc = 'bc1'
input_dft = 'BEEF-VDW'
nosym = .true.
nspin = 1
ntyp = 4
nat = 18
/
&ELECTRONS
electron_maxstep = 200
mixing_beta = 0.1
conv_thr = 1e-06
/
&IONS
ion_dynamics = 'bfgs'
upscale = 1.0
/
&CELL
/

K_POINTS {automatic}
9 9 2 0  0  0

ATOMIC_SPECIES
C 12.01 C.pbe-n-rrkjus_psl.1.0.0.UPF
Ir 192.2 Ir.pbe-n-rrkjus_psl.0.2.3.UPF
O 15.99 O.pbe-n-rrkjus_psl.1.0.0.UPF
Ti 47.86 Ti.pbe-spn-rrkjus_psl.1.0.0.UPF

CELL_PARAMETERS {angstrom}
6.26165000 0.00000000 0.00000000
-0.00000000 6.26165000 0.00000000
0.00000000 0.00000000 24.69620000

ATOMIC_POSITIONS {angstrom}
Ti 0.00000000 0.00000000 -1.8774051200000024 0 0 0
Ti 0.00000000 0.00000000 1.25333215
Ti 0.00000000 3.13082500 -1.8774051200000024 0 0 0
Ti 0.00000000 3.13082500 1.25333215
Ti 3.13082500 0.00000000 -1.8774051200000024 0 0 0
Ti 3.13082500 -0.00000000 1.25333215
Ti 3.13082500 3.13082500 -1.8774051200000024 0 0 0
Ti 3.13082500 3.13082500 1.25333215
Ir 1.56541250 1.56541250 -0.31215996999999973 0 0 0
Ir 1.56541250 1.56541250 2.81882427
Ir 1.56541250 4.69623750 -0.31215996999999973 0 0 0
Ir 1.56541250 4.69623750 2.81882427
Ir 4.69623750 1.56541250 -0.31215996999999973 0 0 0
Ir 4.69623750 1.56541250 2.81882427
Ir 4.69623750 4.69623750 -0.31215996999999973 0 0 0
Ir 4.69623750 4.69623750 2.81882427
C 1.56541250 1.56541250 4.71870293
O 1.56541250 1.56541250 5.86880497
