&CONTROL
calculation = 'relax'
prefix = 'scf'
pseudo_dir = '/vol0004/mdt0/data/hp150275/u10028/POT_KKJUS'
outdir = './data'
tprnfor = .true.
nstep = 50
disk_io = 'non'
/
&SYSTEM
ibrav = 0
ecutwfc = 50.0
ecutrho = 400
occupations = 'smearing'
smearing = 'mp'
degauss = 0.01
assume_isolated = 'esm'
esm_bc = 'bc1'
input_dft = 'BEEF-VDW'
nosym = .true.
nspin = 1
ntyp = 1
nat = 32
/
&ELECTRONS
electron_maxstep = 200
mixing_beta = 0.1
conv_thr = 1e-06
/
&IONS
ion_dynamics = 'bfgs'
upscale = 1.0
/
&CELL
/

K_POINTS {automatic}
6 6 1 0 0 0

ATOMIC_SPECIES
Sb 121.7 Sb.pbe-n-rrkjus_psl.1.0.0.UPF

CELL_PARAMETERS {angstrom}
9.64260000 0.00000000 0.00000000
-0.00000000 9.64260000 0.00000000
0.00000000 0.00000000 27.23200000

ATOMIC_POSITIONS {angstrom}
Sb 0.00000000 0.00000000 -3.6158649599999997 0 0 0
Sb 2.41065000 2.41065000 -3.6158649599999997 0 0 0
Sb 2.41065000 0.00000000 -1.205288320000001 0 0 0
Sb 0.00000000 2.41065000 -1.205288320000001 0 0 0
Sb 0.00000000 0.00000000 1.20528832
Sb 2.41065000 2.41065000 1.20528832
Sb 2.41065000 -0.00000000 3.61586496
Sb 0.00000000 2.41065000 3.61586496
Sb 0.00000000 4.82130000 -3.6158649599999997 0 0 0
Sb 2.41065000 7.23195000 -3.6158649599999997 0 0 0
Sb 2.41065000 4.82130000 -1.205288320000001 0 0 0
Sb 0.00000000 7.23195000 -1.205288320000001 0 0 0
Sb 0.00000000 4.82130000 1.20528832
Sb 2.41065000 7.23195000 1.20528832
Sb 2.41065000 4.82130000 3.61586496
Sb 0.00000000 7.23195000 3.61586496
Sb 4.82130000 0.00000000 -3.6158649599999997 0 0 0
Sb 7.23195000 2.41065000 -3.6158649599999997 0 0 0
Sb 7.23195000 0.00000000 -1.205288320000001 0 0 0
Sb 4.82130000 2.41065000 -1.205288320000001 0 0 0
Sb 4.82130000 -0.00000000 1.20528832
Sb 7.23195000 2.41065000 1.20528832
Sb 7.23195000 -0.00000000 3.61586496
Sb 4.82130000 2.41065000 3.61586496
Sb 4.82130000 4.82130000 -3.6158649599999997 0 0 0
Sb 7.23195000 7.23195000 -3.6158649599999997 0 0 0
Sb 7.23195000 4.82130000 -1.205288320000001 0 0 0
Sb 4.82130000 7.23195000 -1.205288320000001 0 0 0
Sb 4.82130000 4.82130000 1.20528832
Sb 7.23195000 7.23195000 1.20528832
Sb 7.23195000 4.82130000 3.61586496
Sb 4.82130000 7.23195000 3.61586496
