&CONTROL
calculation = 'relax'
prefix = 'scf'
pseudo_dir = '/vol0004/mdt0/data/hp150275/u10028/POT_HYBRID_KKJUS_GBRV'
outdir = './data'
tprnfor = .true.
nstep = 50
disk_io = 'non'
/
&SYSTEM
ibrav = 0
ecutwfc = 50.0
ecutrho = 400
occupations = 'smearing'
smearing = 'mp'
degauss = 0.01
assume_isolated = 'esm'
esm_bc = 'bc1'
input_dft = 'BEEF-VDW'
nosym = .true.
nspin = 2
ntyp = 3
nat = 32
starting_magnetization(1) = 0.0
starting_magnetization(2) = 0.001
starting_magnetization(3) = 0.0
/
&ELECTRONS
electron_maxstep = 300
mixing_beta = 0.1
conv_thr = 1e-06
/
&IONS
ion_dynamics = 'bfgs'
upscale = 1.0
/
&CELL
/

K_POINTS {automatic}
9 6 2 0  0  0

ATOMIC_SPECIES
Li 6.941 Li.pbe-sl-rrkjus_psl.1.0.0.UPF
Ni 58.69 ni_pbe_v1.4.uspp.F.UPF
Si 28.08 Si.pbe-nl-rrkjus_psl.1.0.0.UPF

CELL_PARAMETERS {angstrom}
5.56332000 0.00000000 0.00000000
0.00000000 7.86772000 0.00000000
0.00000000 0.00000000 25.90080000

ATOMIC_POSITIONS {angstrom}
Li 0.00000000 0.00000000 -2.95036013 0 0 0
Li 2.78166000 1.96693000 -0.9834533800000003 0 0 0
Li 2.78166000 5.90079000 -0.9834533800000003 0 0 0
Li 0.00000000 3.93386000 -2.95036013 0 0 0
Li 0.00000000 3.93393868 0.88010918
Li 2.78166000 5.90071132 3.52432186
Li 2.78166000 1.96700868 3.52432186
Li 0.00000000 7.86764132 0.88036819
Si 0.00000000 5.90079000 -0.9834533800000003 0 0 0
Si 2.78166000 0.00000000 -2.95036013 0 0 0
Si 0.00000000 1.96693000 -0.9834533800000003 0 0 0
Si 2.78166000 3.93386000 -2.95036013 0 0 0
Si 0.00000000 1.96685132 2.91902016
Si 2.78166000 3.93386000 1.00339699
Si 0.00000000 5.90086868 2.91927917
Si 2.78166000 0.00000000 1.00339699
Ni 1.39083000 0.00000000 -0.9834533800000003 0 0 0
Ni 4.17249000 3.93386000 -0.9834533800000003 0 0 0
Ni 4.17249000 0.00000000 -0.9834533800000003 0 0 0
Ni 1.39083000 3.93386000 -0.9834533800000003 0 0 0
Ni 4.17249000 5.90079000 -2.95036013 0 0 0
Ni 1.39083000 1.96693000 -2.95036013 0 0 0
Ni 1.39083000 5.90079000 -2.95036013 0 0 0
Ni 4.17249000 1.96693000 -2.95036013 0 0 0
Ni 1.28056500 3.93409603 2.79702739
Ni 4.28264374 7.86748397 2.79728640
Ni 4.28275500 3.93409603 2.79702739
Ni 1.28067626 7.86748397 2.79728640
Ni 4.14506283 1.96732339 0.99096461
Ni 1.41814590 5.90039661 0.99122362
Ni 1.41825717 1.96732339 0.99096461
Ni 4.14517410 5.90039661 0.99122362
