&CONTROL
calculation = 'relax'
prefix = 'scf'
pseudo_dir = '/vol0403/data/hp230205/u10028/POT_HYBRID_KKJUS_GBRV'
outdir = './data'
tprnfor = .true.
nstep = 50
disk_io = 'non'
/
&SYSTEM
ibrav = 0
ecutwfc = 50.0
ecutrho = 400
occupations = 'smearing'
smearing = 'mp'
degauss = 0.01
assume_isolated = 'esm'
esm_bc = 'bc1'
input_dft = 'BEEF-VDW'
nosym = .true.
nspin = 2
ntyp = 6
nat = 34
starting_magnetization(1) = 0.0
starting_magnetization(2) = 0.0
starting_magnetization(3) = 0.1
starting_magnetization(4) = 0.0
starting_magnetization(5) = 0.0
starting_magnetization(6) = 0.0
/
&ELECTRONS
electron_maxstep = 400
mixing_beta = 0.05
conv_thr = 1e-06
/
&IONS
ion_dynamics = 'bfgs'
upscale = 1.0
/
&CELL
/

K_POINTS {automatic}
6 9 2 0  0  0

ATOMIC_SPECIES
Al 26.98 Al.pbe-nl-rrkjus_psl.1.0.0.UPF
C 12.01 C.pbe-n-rrkjus_psl.1.0.0.UPF
Fe 55.84 fe_pbe_v1.5.uspp.F.UPF
Li 6.941 Li.pbe-sl-rrkjus_psl.1.0.0.UPF
O 15.99 O.pbe-n-rrkjus_psl.1.0.0.UPF
Pd 106.4 Pd.pbe-n-rrkjus_psl.1.0.0.UPF


CELL_PARAMETERS {angstrom}
8.84236000 0.00000000 0.00000000
0.00000000 5.67696000 0.00000000
0.00000000 0.00000000 26.45530000

ATOMIC_POSITIONS {angstrom}
Li 2.21059000 0.03905748 1.04339703
Li 2.21059000 0.00000000 23.22775340
Li 2.21059000 2.79942252 1.04339703
Li 2.21059000 2.83848000 23.22775340
Li 6.63177000 5.67298613 1.01799994
Li 6.63177000 0.00000000 23.22775340
Li 6.63177000 2.84245387 1.01799994
Li 6.63177000 2.83848000 23.22775340
Al 8.82838907 5.67372413 2.90849568
Al 0.00000000 0.00000000 25.37936295
Al 8.82838907 2.84171587 2.90849568
Al 0.00000000 2.83848000 25.37936295
Al 4.43515093 5.67372413 2.90849568
Al 4.42118000 0.00000000 25.37936295
Al 4.43515093 2.84171587 2.90849568
Al 4.42118000 2.83848000 25.37936295
Fe 0.00415591 1.41924000 0.93916315
Fe 0.00000000 1.41924000 23.22775340
Fe 0.01794999 4.25772000 0.92963924
Fe 0.00000000 4.25772000 23.22775340
Fe 4.41711251 1.41924000 0.93916315
Fe 4.42118000 1.41924000 23.22775340
Fe 4.40323001 4.25772000 0.92963924
Fe 4.42118000 4.25772000 23.22775340
Pd 2.21059000 1.41924000 3.37463807
Pd 2.21059000 1.41924000 25.37936295
Pd 2.21059000 4.25772000 3.07437041
Pd 2.21059000 4.25772000 25.37936295
Pd 6.63177000 1.41924000 3.08495253
Pd 6.63177000 1.41924000 25.37936295
Pd 6.63177000 4.25772000 3.09818018
Pd 6.63177000 4.25772000 25.37936295
C 2.21067842 1.41924000 5.34582247
O 2.21067842 1.41924000 6.49371794
