&CONTROL
calculation = 'relax'
prefix = 'scf'
pseudo_dir = '/vol0004/mdt0/data/hp150275/u10028/POT_HYBRID_KKJUS_GBRV'
outdir = './data'
tprnfor = .true.
nstep = 50
disk_io = 'non'
/
&SYSTEM
ibrav = 0
ecutwfc = 50.0
ecutrho = 400
occupations = 'smearing'
smearing = 'mp'
degauss = 0.01
assume_isolated = 'esm'
esm_bc = 'bc1'
input_dft = 'BEEF-VDW'
nosym = .true.
nspin = 2
ntyp = 3
nat = 32
starting_magnetization(1) = 0.1
starting_magnetization(2) = 0.0
starting_magnetization(3) = 0.0
/
&ELECTRONS
electron_maxstep = 300
mixing_beta = 0.1
conv_thr = 1e-06
/
&IONS
ion_dynamics = 'bfgs'
upscale = 1.0
/
&CELL
/

K_POINTS {automatic}
8 6 1 0 0 0

ATOMIC_SPECIES
Co 58.93 co_pbe_v1.2.uspp.F.UPF
Si 28.08 Si.pbe-nl-rrkjus_psl.1.0.0.UPF
V 50.94 V.pbe-spnl-rrkjus_psl.1.0.0.UPF

CELL_PARAMETERS {angstrom}
5.68381000 0.00000000 0.00000000
0.00000000 8.03813000 0.00000000
0.00000000 0.00000000 26.02860000

ATOMIC_POSITIONS {angstrom}
V 0.00000000 0.00000000 -3.0143721700000015 0 0 0
V 2.84190500 2.00953250 -1.0047039600000005 0 0 0
V 2.84190500 6.02859750 -1.0047039600000005 0 0 0
V 0.00000000 4.01906500 -3.0143721700000015 0 0 0
V 0.00000000 4.01906500 1.06222717
V 2.84190500 6.02859750 3.08543024
V 2.84190500 2.00953250 3.08543024
V 0.00000000 0.00000000 1.06222717
Co 1.42095250 0.00000000 -1.0047039600000005 0 0 0
Co 4.26285750 4.01906500 -1.0047039600000005 0 0 0
Co 4.26285750 0.00000000 -1.0047039600000005 0 0 0
Co 1.42095250 4.01906500 -1.0047039600000005 0 0 0
Co 4.26285750 6.02859750 -3.0143721700000015 0 0 0
Co 1.42095250 2.00953250 -3.0143721700000015 0 0 0
Co 1.42095250 6.02859750 -3.0143721700000015 0 0 0
Co 4.26285750 2.00953250 -3.0143721700000015 0 0 0
Co 1.42248713 4.01922576 2.90921662
Co 4.26137971 8.03796924 2.90921662
Co 4.26132287 4.01922576 2.90921662
Co 1.42243029 8.03796924 2.90921662
Co 4.25006893 2.00961288 1.00470396
Co 1.43379791 6.02851712 1.00470396
Co 1.43374107 2.00961288 1.00470396
Co 4.25001209 6.02851712 1.00470396
Si 0.00000000 6.02859750 -1.0047039600000005 0 0 0
Si 2.84190500 0.00000000 -3.0143721700000015 0 0 0
Si 0.00000000 2.00953250 -1.0047039600000005 0 0 0
Si 2.84190500 4.01906500 -3.0143721700000015 0 0 0
Si 0.00000000 2.00953250 3.03701705
Si 2.84190500 4.01906500 1.04270572
Si 0.00000000 6.02859750 3.03701705
Si 2.84190500 0.00000000 1.04270572
