&CONTROL
calculation = 'relax'
prefix = 'scf'
pseudo_dir = '/vol0403/data/hp230205/u10028/POT_HYBRID_KKJUS_GBRV'
outdir = './data'
tprnfor = .true.
nstep = 50
disk_io = 'non'
/
&SYSTEM
ibrav = 0
ecutwfc = 50.0
ecutrho = 400
occupations = 'smearing'
smearing = 'mp'
degauss = 0.01
assume_isolated = 'esm'
esm_bc = 'bc1'
input_dft = 'BEEF-VDW'
nosym = .true.
nspin = 1
ntyp = 5
nat = 17
/
&ELECTRONS
electron_maxstep = 200
mixing_beta = 0.1
conv_thr = 1e-06
/
&IONS
ion_dynamics = 'bfgs'
upscale = 1.0
/
&CELL
/

K_POINTS {automatic}
12 7 2 0  0  0

ATOMIC_SPECIES
C 12.01 C.pbe-n-rrkjus_psl.1.0.0.UPF
Ge 72.64 Ge.pbe-dn-rrkjus_psl.1.0.0.UPF
Li 6.941 Li.pbe-sl-rrkjus_psl.1.0.0.UPF
Pd 106.4 Pd.pbe-n-rrkjus_psl.1.0.0.UPF
V 50.94 V.pbe-spnl-rrkjus_psl.1.0.0.UPF


CELL_PARAMETERS {angstrom}
5.49597000 0.00000000 0.00000000
0.00000000 8.64114000 0.00000000
0.00000000 0.00000000 23.65060000

ATOMIC_POSITIONS {angstrom}
Li 2.84966044 8.26758352 2.50081444
Li 4.21986073 0.00000000 -0.6085299400000004 0 0 0
Li 2.85202371 4.68902821 2.49679384
Li 4.21986073 4.32057000 -0.6085299400000004 0 0 0
V 1.04060696 2.16037141 0.70407836
V 2.20778611 2.16028500 -1.8253533100000006 0 0 0
V 0.62917865 6.48033653 0.32377671
V 2.20778611 6.48085500 -1.8253533100000006 0 0 0
Ge 0.49139468 8.46408304 1.58080610
Ge 1.47187573 0.00000000 -0.6085299400000004 0 0 0
Ge 0.48936117 4.49702208 1.58411719
Ge 1.47187573 4.32057000 -0.6085299400000004 0 0 0
Pd 4.29554023 2.16261811 0.95619376
Pd 4.95577111 2.16028500 -1.8253533100000006 0 0 0
Pd 3.39931240 6.48068218 0.41293948
Pd 4.95577111 6.48085500 -1.8253533100000006 0 0 0
C 2.60497986 2.15337209 1.98735992
