&CONTROL
calculation = 'relax'
prefix = 'scf'
pseudo_dir = '/vol0403/data/hp230205/u10028/POT_HYBRID_KKJUS_GBRV'
outdir = './data'
tprnfor = .true.
nstep = 70
disk_io = 'non'
/
&SYSTEM
ibrav = 0
ecutwfc = 50.0
ecutrho = 400
occupations = 'smearing'
smearing = 'mp'
degauss = 0.01
assume_isolated = 'esm'
esm_bc = 'bc1'
input_dft = 'BEEF-VDW'
nosym = .true.
nspin = 1
ntyp = 5
nat = 33
/
&ELECTRONS
electron_maxstep = 200
mixing_beta = 0.1
conv_thr = 1e-06
/
&IONS
ion_dynamics = 'bfgs'
upscale = 1.0
/
&CELL
/

K_POINTS {automatic}
6 6 1 0 0 0

ATOMIC_SPECIES
Ag 107.8 Ag.pbe-n-rrkjus_psl.1.0.0.UPF
C 12.01 C.pbe-n-rrkjus_psl.1.0.0.UPF
Li 6.941 Li.pbe-sl-rrkjus_psl.1.0.0.UPF
Mg 24.30 Mg.pbe-spnl-rrkjus_psl.1.0.0.UPF
Pb 207.2 Pb.pbe-dn-rrkjus_psl.1.0.0.UPF


CELL_PARAMETERS {angstrom}
6.87998000 0.00000000 0.00000000
-0.00000000 9.72976000 0.00000000
0.00000000 0.00000000 27.29730000

ATOMIC_POSITIONS {angstrom}
Li 5.15998500 0.00000000 -1.216094720000001 0 0 0
Li 5.15998500 4.86488000 -1.216094720000001 0 0 0
Li 1.71999500 2.43244000 -3.6485571199999995 0 0 0
Li 1.71999500 7.29732000 -3.6485571199999995 0 0 0
Li 4.99844307 5.00479395 3.82708146
Li 4.99823667 9.58965146 3.82680849
Li 1.66481756 7.29751460 1.22947039
Li 1.70637264 2.43224540 1.49234339
Mg 1.71999500 0.00000000 -1.216094720000001 0 0 0
Mg 1.71999500 4.86488000 -1.216094720000001 0 0 0
Mg 5.15998500 2.43244000 -3.6485571199999995 0 0 0
Mg 5.15998500 7.29732000 -3.6485571199999995 0 0 0
Mg 1.45910616 4.58865211 3.58413549
Mg 1.45958776 0.27554680 3.58413549
Mg 5.17842335 7.29712540 1.46067852
Mg 5.95090750 2.43234270 2.33200834
Ag 0.00000000 0.00000000 -3.6485571199999995 0 0 0
Ag 0.00000000 4.86488000 -3.6485571199999995 0 0 0
Ag 3.43999000 7.29732000 -1.216094720000001 0 0 0
Ag 3.43999000 2.43244000 -1.216094720000001 0 0 0
Ag 6.79590664 4.95244784 1.10827038
Ag 6.79556265 9.64219216 1.10827038
Ag 3.53672252 2.43234270 3.80251389
Ag 3.08374464 7.29741730 3.47248953
Pb 0.00000000 2.43244000 -1.216094720000001 0 0 0
Pb 0.00000000 7.29732000 -1.216094720000001 0 0 0
Pb 3.43999000 4.86488000 -3.6485571199999995 0 0 0
Pb 3.43999000 0.00000000 -3.6485571199999995 0 0 0
Pb 0.00811838 7.29702811 4.15574095
Pb 6.33295279 2.43205081 5.43161675
Pb 3.59747274 0.21308174 1.29771364
Pb 3.59733514 4.65170096 1.29798662
C 0.96608679 2.43195351 3.56857603
