&CONTROL
calculation = 'relax'
prefix = 'scf'
pseudo_dir = '/vol0004/mdt0/data/hp150275/u10028/POT_KKJUS'
outdir = './data'
tprnfor = .true.
nstep = 50
disk_io = 'non'
/
&SYSTEM
ibrav = 0
ecutwfc = 50.0
ecutrho = 400
occupations = 'smearing'
smearing = 'mp'
degauss = 0.01
assume_isolated = 'esm'
esm_bc = 'bc1'
input_dft = 'BEEF-VDW'
nosym = .true.
nspin = 1
ntyp = 4
nat = 18
/
&ELECTRONS
electron_maxstep = 200
mixing_beta = 0.1
conv_thr = 1e-06
/
&IONS
ion_dynamics = 'bfgs'
upscale = 1.0
/
&CELL
/

K_POINTS {automatic}
6 8 1 0 0 0

ATOMIC_SPECIES
C 12.01 C.pbe-n-rrkjus_psl.1.0.0.UPF
Ga 69.72 Ga.pbe-dnl-rrkjus_psl.1.0.0.UPF
O 15.99 O.pbe-n-rrkjus_psl.1.0.0.UPF
Pt 195.0 Pt.pbe-n-rrkjus_psl.1.0.0.UPF

CELL_PARAMETERS {angstrom}
7.92728000 0.00000000 0.00000000
0.00000000 5.60543000 0.00000000
0.00000000 0.00000000 24.20410000

ATOMIC_POSITIONS {angstrom}
Ga 7.92712145 0.00000000 1.94237903
Ga 0.00000000 2.80271500 -0.700708689999999 0 0 0
Ga 3.96371927 0.00000000 1.93705412
Ga 3.96364000 2.80271500 -0.700708689999999 0 0 0
Pt 7.92704218 2.80271500 2.26792417
Pt 1.94345196 4.22453232 0.78977978
Pt 1.94353124 1.38089768 0.78977978
Pt 0.00000000 0.00000000 -0.700708689999999 0 0 0
Pt 1.98182000 1.40135750 -2.1021260800000015 0 0 0
Pt 1.98182000 4.20407250 -2.1021260800000015 0 0 0
Pt 3.96371927 2.80271500 1.92277370
Pt 5.98382804 4.22453232 0.78953774
Pt 5.98382804 1.38089768 0.78953774
Pt 3.96364000 0.00000000 -0.700708689999999 0 0 0
Pt 5.94546000 1.40135750 -2.1021260800000015 0 0 0
Pt 5.94546000 4.20407250 -2.1021260800000015 0 0 0
C 0.00015855 2.80271500 4.15608601
O 0.00007927 2.80277105 5.31158975
