&CONTROL
calculation = 'relax'
prefix = 'scf'
pseudo_dir = '/vol0403/data/hp230205/u10028/POT_HYBRID_KKJUS_GBRV'
outdir = './data'
tprnfor = .true.
nstep = 50
disk_io = 'non'
/
&SYSTEM
ibrav = 0
ecutwfc = 50.0
ecutrho = 400
occupations = 'smearing'
smearing = 'mp'
degauss = 0.01
assume_isolated = 'esm'
esm_bc = 'bc1'
input_dft = 'BEEF-VDW'
nosym = .true.
nspin = 1
ntyp = 6
nat = 18
/
&ELECTRONS
electron_maxstep = 200
mixing_beta = 0.1
conv_thr = 1e-06
/
&IONS
ion_dynamics = 'bfgs'
upscale = 1.0
/
&CELL
/

K_POINTS {automatic}
8 8 1 0 0 0

ATOMIC_SPECIES
Ag 107.8 Ag.pbe-n-rrkjus_psl.1.0.0.UPF
C 12.01 C.pbe-n-rrkjus_psl.1.0.0.UPF
In 114.8 In.pbe-dn-rrkjus_psl.1.0.0.UPF
Li 6.941 Li.pbe-sl-rrkjus_psl.1.0.0.UPF
O 15.99 O.pbe-n-rrkjus_psl.1.0.0.UPF
Sc 44.95 Sc.pbe-spn-rrkjus_psl.1.0.0.UPF


CELL_PARAMETERS {angstrom}
6.68683000 0.00000000 0.00000000
0.00000000 6.68683000 0.00000000
0.00000000 0.00000000 25.01510000

ATOMIC_POSITIONS {angstrom}
Li 0.00000000 3.34341500 3.13289112
Li 0.00000000 0.00000000 -0.8357544899999994 0 0 0
Li 3.34341500 3.34341500 -0.8357544899999994 0 0 0
Li 3.34348187 0.00000000 3.12938901
Sc 5.02508588 1.68046725 0.93556474
Sc 5.01512250 5.01512250 -2.507513620000001 0 0 0
Sc 1.67170750 1.67170750 -2.507513620000001 0 0 0
Sc 1.66181099 5.00642962 0.93556474
In 1.67491718 1.66936711 0.99710189
In 1.67170750 5.01512250 -2.507513620000001 0 0 0
In 5.01512250 1.67170750 -2.507513620000001 0 0 0
In 5.01177908 5.01752976 0.99710189
Ag 6.68676313 6.68676313 2.69712808
Ag 0.00000000 3.34341500 -0.8357544899999994 0 0 0
Ag 3.34341500 0.00000000 -0.8357544899999994 0 0 0
Ag 3.34334813 3.34334813 2.69787854
C 0.00006687 3.34341500 5.21514805
O 0.00013374 3.34341500 6.35633691
