&CONTROL
calculation = 'relax'
prefix = 'scf'
pseudo_dir = '/vol0004/mdt0/data/hp150275/u10028/POT_KKJUS'
outdir = './data'
tprnfor = .true.
nstep = 50
disk_io = 'non'
/
&SYSTEM
ibrav = 0
ecutwfc = 50.0
ecutrho = 400
occupations = 'smearing'
smearing = 'mp'
degauss = 0.01
assume_isolated = 'esm'
esm_bc = 'bc1'
input_dft = 'BEEF-VDW'
nosym = .true.
nspin = 1
ntyp = 5
nat = 34
/
&ELECTRONS
electron_maxstep = 200
mixing_beta = 0.1
conv_thr = 1e-06
/
&IONS
ion_dynamics = 'bfgs'
upscale = 1.0
/
&CELL
/

K_POINTS {automatic}
9 6 2 0  0  0

ATOMIC_SPECIES
C 12.01 C.pbe-n-rrkjus_psl.1.0.0.UPF
Ga 69.72 Ga.pbe-dnl-rrkjus_psl.1.0.0.UPF
Li 6.941 Li.pbe-sl-rrkjus_psl.1.0.0.UPF
O 15.99 O.pbe-n-rrkjus_psl.1.0.0.UPF
Pd 106.4 Pd.pbe-n-rrkjus_psl.1.0.0.UPF

CELL_PARAMETERS {angstrom}
6.24448000 0.00000000 0.00000000
0.00000000 8.83103000 0.00000000
0.00000000 0.00000000 26.62330000

ATOMIC_POSITIONS {angstrom}
Li 0.00000000 0.00000000 -3.3116722900000006 0 0 0
Li 3.12224000 2.20775750 -1.1038020199999998 0 0 0
Li 3.12224000 6.62327250 -1.1038020199999998 0 0 0
Li 0.00000000 4.41551500 -3.3116722900000006 0 0 0
Li 0.00000000 4.45057419 1.15465252
Li 3.12224000 6.62327250 4.43490931
Li 3.12224000 2.20775750 3.89978098
Li 0.00000000 8.79597081 1.15465252
Ga 1.56112000 0.00000000 -1.1038020199999998 0 0 0
Ga 4.68336000 4.41551500 -1.1038020199999998 0 0 0
Ga 4.68336000 0.00000000 -1.1038020199999998 0 0 0
Ga 1.56112000 4.41551500 -1.1038020199999998 0 0 0
Ga 4.68336000 6.62327250 -3.3116722900000006 0 0 0
Ga 1.56112000 2.20775750 -3.3116722900000006 0 0 0
Ga 1.56112000 6.62327250 -3.3116722900000006 0 0 0
Ga 4.68336000 2.20775750 -3.3116722900000006 0 0 0
Ga 1.65828411 4.51795495 3.42002912
Ga 4.58619589 8.72859005 3.42002912
Ga 4.58619589 4.51795495 3.42029535
Ga 1.65828411 8.72859005 3.42002912
Ga 4.63509017 2.20775750 1.37562591
Ga 1.69749944 6.62327250 1.21801597
Ga 1.60932739 2.20775750 1.37562591
Ga 4.54698056 6.62327250 1.21801597
Pd 0.00000000 6.62327250 -1.1038020199999998 0 0 0
Pd 3.12224000 0.00000000 -3.3116722900000006 0 0 0
Pd 0.00000000 2.20775750 -1.1038020199999998 0 0 0
Pd 3.12224000 4.41551500 -3.3116722900000006 0 0 0
Pd 0.00000000 2.20775750 3.52519115
Pd 3.12224000 4.36208727 0.96882189
Pd 0.00000000 6.62327250 3.16630907
Pd 3.12224000 0.05342773 0.96882189
C 0.00006244 2.20766919 5.49425042
O 0.00006244 2.20766919 6.64783801
