&CONTROL
calculation = 'relax'
prefix = 'scf'
pseudo_dir = '/vol0403/data/hp230205/u10028/POT_HYBRID_KKJUS_GBRV'
outdir = './data'
tprnfor = .true.
nstep = 50
disk_io = 'non'
/
&SYSTEM
ibrav = 0
ecutwfc = 50.0
ecutrho = 400
occupations = 'smearing'
smearing = 'mp'
degauss = 0.01
assume_isolated = 'esm'
esm_bc = 'bc1'
input_dft = 'BEEF-VDW'
nosym = .true.
nspin = 1
ntyp = 6
nat = 34
/
&ELECTRONS
electron_maxstep = 200
mixing_beta = 0.1
conv_thr = 1e-06
/
&IONS
ion_dynamics = 'bfgs'
upscale = 1.0
/
&CELL
/

K_POINTS {automatic}
9 6 2 0  0  0

ATOMIC_SPECIES
Al 26.98 Al.pbe-nl-rrkjus_psl.1.0.0.UPF
C 12.01 C.pbe-n-rrkjus_psl.1.0.0.UPF
Li 6.941 Li.pbe-sl-rrkjus_psl.1.0.0.UPF
O 15.99 O.pbe-n-rrkjus_psl.1.0.0.UPF
Pd 106.4 Pd.pbe-n-rrkjus_psl.1.0.0.UPF
Sc 44.95 Sc.pbe-spn-rrkjus_psl.1.0.0.UPF


CELL_PARAMETERS {angstrom}
6.37868000 0.00000000 0.00000000
0.00000000 9.02082000 0.00000000
0.00000000 0.00000000 26.76560000

ATOMIC_POSITIONS {angstrom}
Li 4.78401000 0.00000000 -1.1276347300000005 0 0 0
Li 4.78401000 4.51041000 -1.1276347300000005 0 0 0
Li 1.59467000 2.25520500 -3.3829041800000006 0 0 0
Li 1.59467000 6.76561500 -3.3829041800000006 0 0 0
Li 3.26473600 4.05512921 5.31698644
Li 3.21038964 0.48351595 5.33438408
Li 1.52629055 6.76426188 1.14958252
Li 1.48259659 2.25493438 1.15440033
Sc 0.00000000 2.25520500 -1.1276347300000005 0 0 0
Sc 0.00000000 6.76561500 -1.1276347300000005 0 0 0
Sc 3.18934000 4.51041000 -3.3829041800000006 0 0 0
Sc 3.18934000 0.00000000 -3.3829041800000006 0 0 0
Sc 6.09757157 6.76498354 3.35480030
Sc 6.04813680 2.25331063 3.45088881
Sc 3.26996652 8.99078067 1.26119507
Sc 3.27315586 4.53882558 1.26413929
Al 0.00000000 0.00000000 -3.3829041800000006 0 0 0
Al 0.00000000 4.51041000 -3.3829041800000006 0 0 0
Al 3.18934000 6.76561500 -1.1276347300000005 0 0 0
Al 3.18934000 2.25520500 -1.1276347300000005 0 0 0
Al 6.34506436 4.50283251 1.13539675
Al 6.34295939 0.00586353 1.13325550
Al 3.10214344 2.25421271 3.19099483
Al 2.89470877 6.76498354 3.50763188
Pd 1.59467000 0.00000000 -1.1276347300000005 0 0 0
Pd 1.59467000 4.51041000 -1.1276347300000005 0 0 0
Pd 4.78401000 2.25520500 -3.3829041800000006 0 0 0
Pd 4.78401000 6.76561500 -3.3829041800000006 0 0 0
Pd 1.54064258 4.52376081 3.22980495
Pd 1.53879276 9.00304898 3.22793136
Pd 4.80276332 6.76525417 1.04599965
Pd 4.76334308 2.25448333 0.99621563
C 4.46641552 2.25276938 4.86866264
O 3.81017692 2.25466375 5.98719706
