&CONTROL
calculation = 'relax'
prefix = 'scf'
pseudo_dir = '/vol0004/mdt0/data/hp150275/u10028/POT_HYBRID_KKJUS_GBRV'
outdir = './data'
tprnfor = .true.
nstep = 50
disk_io = 'non'
/
&SYSTEM
ibrav = 0
ecutwfc = 50.0
ecutrho = 400
occupations = 'smearing'
smearing = 'mp'
degauss = 0.01
assume_isolated = 'esm'
esm_bc = 'bc1'
input_dft = 'BEEF-VDW'
nosym = .true.
nspin = 2
ntyp = 3
nat = 17
starting_magnetization(1) = 0.0
starting_magnetization(2) = 0.1
starting_magnetization(3) = 0.0
/
&ELECTRONS
electron_maxstep = 300
mixing_beta = 0.1
conv_thr = 1e-06
/
&IONS
ion_dynamics = 'bfgs'
upscale = 1.0
/
&CELL
/

K_POINTS {automatic}
8 8 1 0 0 0

ATOMIC_SPECIES
C 12.01 C.pbe-n-rrkjus_psl.1.0.0.UPF
Co 58.93 co_pbe_v1.2.uspp.F.UPF
Ga 69.72 Ga.pbe-dnl-rrkjus_psl.1.0.0.UPF

CELL_PARAMETERS {angstrom}
5.76941000 0.00000000 0.00000000
0.00000000 5.76941000 0.00000000
0.00000000 0.00000000 24.32710000

ATOMIC_POSITIONS {angstrom}
Ga 1.44235250 1.44235250 -0.7816297200000015 0 0 0
Ga 1.43364069 1.43369839 2.11475480
Ga 1.44235250 4.32705750 -0.7816297200000015 0 0 0
Ga 1.43364069 4.33571161 2.11475480
Ga 4.32705750 1.44235250 -0.7816297200000015 0 0 0
Ga 4.33576931 1.43369839 2.11475480
Ga 4.32705750 4.32705750 -0.7816297200000015 0 0 0
Ga 4.33576931 4.33571162 2.11475480
Co 0.00000000 0.00000000 -2.223983480000001 0 0 0
Co 0.00000000 0.00000000 0.64174890
Co 0.00000000 2.88470500 -2.223983480000001 0 0 0
Co 0.00000000 2.88470500 0.66388656
Co 2.88470500 0.00000000 -2.223983480000001 0 0 0
Co 2.88470500 0.00000000 0.66388656
Co 2.88470500 2.88470500 -2.223983480000001 0 0 0
Co 2.88470500 2.88470500 0.68261843
C 0.00000000 0.00000000 2.88495079
