&CONTROL
calculation = 'relax'
prefix = 'scf'
pseudo_dir = '/vol0004/mdt0/data/hp150275/u10028/POT_KKJUS'
outdir = './data'
tprnfor = .true.
nstep = 50
disk_io = 'non'
/
&SYSTEM
ibrav = 0
ecutwfc = 50.0
ecutrho = 400
occupations = 'smearing'
smearing = 'mp'
degauss = 0.01
assume_isolated = 'esm'
esm_bc = 'bc1'
input_dft = 'BEEF-VDW'
nosym = .true.
nspin = 1
ntyp = 4
nat = 33
/
&ELECTRONS
electron_maxstep = 200
mixing_beta = 0.1
conv_thr = 1e-06
/
&IONS
ion_dynamics = 'bfgs'
upscale = 1.0
/
&CELL
/

K_POINTS {automatic}
8 6 1 0 0 0

ATOMIC_SPECIES
C 12.01 C.pbe-n-rrkjus_psl.1.0.0.UPF
In 114.8 In.pbe-dn-rrkjus_psl.1.0.0.UPF
Pt 195.0 Pt.pbe-n-rrkjus_psl.1.0.0.UPF
Sc 44.95 Sc.pbe-spn-rrkjus_psl.1.0.0.UPF

CELL_PARAMETERS {angstrom}
6.63475000 0.00000000 0.00000000
0.00000000 9.38295000 0.00000000
0.00000000 0.00000000 27.03720000

ATOMIC_POSITIONS {angstrom}
Sc 0.00000000 0.00000000 -3.518621209999999 0 0 0
Sc 3.31737500 2.34573750 -1.17287374 0 0 0
Sc 3.31737500 7.03721250 -1.17287374 0 0 0
Sc 0.00000000 4.69147500 -3.518621209999999 0 0 0
Sc 0.00000000 4.69147500 1.18179601
Sc 3.31737500 7.02051085 3.40695757
Sc 3.31737500 2.36234532 3.40695757
Sc 0.00000000 0.00000000 1.36673046
In 0.00000000 7.03721250 -1.17287374 0 0 0
In 3.31737500 0.00000000 -3.518621209999999 0 0 0
In 0.00000000 2.34573750 -1.17287374 0 0 0
In 3.31737500 4.69147500 -3.518621209999999 0 0 0
In 0.00000000 2.49398811 3.77682647
In 3.31737500 4.69147500 1.10311776
In 0.00000000 6.88896189 3.77682647
In 3.31737500 0.00000000 1.17395522
Pt 1.65868750 0.00000000 -1.17287374 0 0 0
Pt 4.97606250 4.69147500 -1.17287374 0 0 0
Pt 4.97606250 0.00000000 -1.17287374 0 0 0
Pt 1.65868750 4.69147500 -1.17287374 0 0 0
Pt 4.97606250 7.03721250 -3.518621209999999 0 0 0
Pt 1.65868750 2.34573750 -3.518621209999999 0 0 0
Pt 1.65868750 7.03721250 -3.518621209999999 0 0 0
Pt 4.97606250 2.34573750 -3.518621209999999 0 0 0
Pt 1.69643923 4.69147500 3.33612011
Pt 4.72148714 0.00000000 3.64434419
Pt 4.93831077 4.69147500 3.33612011
Pt 1.91326286 0.00000000 3.64434419
Pt 5.03471369 2.34395474 1.18071452
Pt 1.60003631 7.03899526 1.18071452
Pt 1.60003631 2.34395474 1.18071452
Pt 5.03471369 7.03899526 1.18071452
C 0.00000000 0.00000000 3.93039776
