&CONTROL
calculation = 'relax'
prefix = 'scf'
pseudo_dir = '/vol0004/mdt0/data/hp150275/u10028/POT_HYBRID_KKJUS_GBRV'
outdir = './data'
tprnfor = .true.
nstep = 50
disk_io = 'non'
/
&SYSTEM
ibrav = 0
ecutwfc = 50.0
ecutrho = 400
occupations = 'smearing'
smearing = 'mp'
degauss = 0.01
assume_isolated = 'esm'
esm_bc = 'bc1'
input_dft = 'BEEF-VDW'
nosym = .true.
nspin = 2
ntyp = 2
nat = 32
starting_magnetization(1) = 0.001
starting_magnetization(2) = 0.0
/
&ELECTRONS
electron_maxstep = 400
mixing_beta = 0.1
conv_thr = 1e-06
/
&IONS
ion_dynamics = 'bfgs'
upscale = 1.0
/
&CELL
/

K_POINTS {automatic}
7 8 2 0  0  0

ATOMIC_SPECIES
Ni 58.69 ni_pbe_v1.4.uspp.F.UPF
Pt 195.0 Pt.pbe-n-rrkjus_psl.1.0.0.UPF

CELL_PARAMETERS {angstrom}
7.96875000 0.00000000 0.00000000
0.00000000 7.03042000 0.00000000
0.00000000 0.00000000 25.97660000

ATOMIC_POSITIONS {angstrom}
Ni 1.99218750 1.75760500 -2.98834806 0 0 0
Ni 3.98437500 1.75760500 -0.996202610000001 0 0 0
Ni 1.99210781 1.75760500 0.92268883
Ni 3.98437500 1.75760500 2.80781069
Ni 1.99218750 5.27281500 -2.98834806 0 0 0
Ni 3.98437500 5.27281500 -0.996202610000001 0 0 0
Ni 1.99226719 5.27281500 0.92268883
Ni 3.98445469 5.27281500 2.80781069
Ni 5.97656250 1.75760500 -2.98834806 0 0 0
Ni 0.00000000 1.75760500 -0.996202610000001 0 0 0
Ni 5.97664219 1.75760500 0.92268883
Ni 0.00007969 1.75760500 2.80781069
Ni 5.97656250 5.27281500 -2.98834806 0 0 0
Ni 0.00000000 5.27281500 -0.996202610000001 0 0 0
Ni 5.97648281 5.27281500 0.92268883
Ni 0.00000000 5.27281500 2.80781069
Pt 0.00000000 0.00000000 -2.98834806 0 0 0
Pt 1.99218750 0.00000000 -0.996202610000001 0 0 0
Pt 3.98437500 0.00000000 0.92450719
Pt 1.99218750 7.03027939 2.84002168
Pt 0.00000000 3.51521000 -2.98834806 0 0 0
Pt 1.99218750 3.51521000 -0.996202610000001 0 0 0
Pt 3.98437500 3.51521000 0.92450719
Pt 1.99218750 3.51535061 2.84002168
Pt 3.98437500 0.00000000 -2.98834806 0 0 0
Pt 5.97656250 0.00000000 -0.996202610000001 0 0 0
Pt 0.00000000 0.00007030 0.92450719
Pt 5.97656250 7.03034970 2.84002168
Pt 3.98437500 3.51521000 -2.98834806 0 0 0
Pt 5.97656250 3.51521000 -0.996202610000001 0 0 0
Pt 0.00000000 3.51513970 0.92450719
Pt 5.97656250 3.51528030 2.84002168
