&CONTROL
calculation = 'relax'
prefix = 'scf'
pseudo_dir = '/vol0004/mdt0/data/hp150275/u10028/POT_KKJUS'
outdir = './data'
tprnfor = .true.
nstep = 50
disk_io = 'non'
/
&SYSTEM
ibrav = 0
ecutwfc = 50.0
ecutrho = 400
occupations = 'smearing'
smearing = 'mp'
degauss = 0.01
assume_isolated = 'esm'
esm_bc = 'bc1'
input_dft = 'BEEF-VDW'
nosym = .true.
nspin = 1
ntyp = 5
nat = 18
/
&ELECTRONS
electron_maxstep = 200
mixing_beta = 0.1
conv_thr = 1e-06
/
&IONS
ion_dynamics = 'bfgs'
upscale = 1.0
/
&CELL
/

K_POINTS {automatic}
8 8 1 0 0 0

ATOMIC_SPECIES
Ag 107.8 Ag.pbe-n-rrkjus_psl.1.0.0.UPF
C 12.01 C.pbe-n-rrkjus_psl.1.0.0.UPF
Li 6.941 Li.pbe-sl-rrkjus_psl.1.0.0.UPF
O 15.99 O.pbe-n-rrkjus_psl.1.0.0.UPF
Sn 118.7 Sn.pbe-dn-rrkjus_psl.1.0.0.UPF

CELL_PARAMETERS {angstrom}
6.65960000 0.00000000 0.00000000
0.00000000 6.65960000 0.00000000
0.00000000 0.00000000 24.99470000

ATOMIC_POSITIONS {angstrom}
Li 0.00000000 0.00000000 -0.8325734600000025 0 0 0
Li 3.32980000 0.00000000 2.65343735
Li 0.00000000 3.32980000 2.72692177
Li 3.32980000 3.32980000 -0.8325734600000025 0 0 0
Li 1.67129322 1.65830700 0.92030485
Li 1.66490000 4.99470000 -2.4974704200000026 0 0 0
Li 4.98830678 5.00129300 0.92030485
Li 4.99470000 1.66490000 -2.4974704200000026 0 0 0
Ag 1.66490000 1.66490000 -2.4974704200000026 0 0 0
Ag 1.66196978 4.99017147 0.90230867
Ag 4.99470000 4.99470000 -2.4974704200000026 0 0 0
Ag 4.99763022 1.66936193 0.90230867
Sn 0.00000000 0.00000000 2.63019228
Sn 3.32980000 3.32980000 2.63194191
Sn 3.32980000 0.00000000 -0.8325734600000025 0 0 0
Sn 0.00000000 3.32980000 -0.8325734600000025 0 0 0
C 0.00000000 3.32980000 4.84347297
O 0.00000000 3.32980000 5.98248145
