&CONTROL
calculation = 'relax'
prefix = 'scf'
pseudo_dir = '/vol0004/mdt0/data/hp150275/u10028/POT_KKJUS'
outdir = './data'
tprnfor = .true.
nstep = 50
disk_io = 'non'
/
&SYSTEM
ibrav = 0
ecutwfc = 50.0
ecutrho = 400
occupations = 'smearing'
smearing = 'mp'
degauss = 0.01
assume_isolated = 'esm'
esm_bc = 'bc1'
input_dft = 'BEEF-VDW'
nosym = .true.
nspin = 1
ntyp = 5
nat = 34
/
&ELECTRONS
electron_maxstep = 200
mixing_beta = 0.1
conv_thr = 1e-06
/
&IONS
ion_dynamics = 'bfgs'
upscale = 1.0
/
&CELL
/

K_POINTS {automatic}
9 6 2 0  0  0

ATOMIC_SPECIES
Al 26.98 Al.pbe-nl-rrkjus_psl.1.0.0.UPF
C 12.01 C.pbe-n-rrkjus_psl.1.0.0.UPF
Nb 92.90 Nb.pbe-spn-rrkjus_psl.1.0.0.UPF
O 15.99 O.pbe-n-rrkjus_psl.1.0.0.UPF
Ru 101.0 Ru.pbe-spn-rrkjus_psl.1.0.0.UPF

CELL_PARAMETERS {angstrom}
6.19479000 0.00000000 0.00000000
0.00000000 8.76076000 0.00000000
0.00000000 0.00000000 26.57060000

ATOMIC_POSITIONS {angstrom}
Nb 0.00000000 0.00000000 -3.2851889799999974 0 0 0
Nb 3.09739500 2.19019000 -1.0949744300000006 0 0 0
Nb 3.09739500 6.57057000 -1.0949744300000006 0 0 0
Nb 0.00000000 4.38038000 -3.2851889799999974 0 0 0
Nb 0.00000000 4.38274541 1.14227009
Nb 3.09739500 6.57057000 3.29262875
Nb 3.09739500 2.19019000 3.32052788
Nb 0.00000000 8.75839459 1.14227009
Al 0.00000000 6.57057000 -1.0949744300000006 0 0 0
Al 3.09739500 0.00000000 -3.2851889799999974 0 0 0
Al 0.00000000 2.19019000 -1.0949744300000006 0 0 0
Al 3.09739500 4.38038000 -3.2851889799999974 0 0 0
Al 0.00000000 2.19019000 3.33700165
Al 3.09739500 4.36697604 1.12818768
Al 0.00000000 6.57057000 3.39412844
Al 3.09739500 0.01340396 1.12818768
Ru 1.54869750 0.00000000 -1.0949744300000006 0 0 0
Ru 4.64609250 4.38038000 -1.0949744300000006 0 0 0
Ru 4.64609250 0.00000000 -1.0949744300000006 0 0 0
Ru 1.54869750 4.38038000 -1.0949744300000006 0 0 0
Ru 4.64609250 6.57057000 -3.2851889799999974 0 0 0
Ru 1.54869750 2.19019000 -3.2851889799999974 0 0 0
Ru 1.54869750 6.57057000 -3.2851889799999974 0 0 0
Ru 4.64609250 2.19019000 -3.2851889799999974 0 0 0
Ru 1.51295356 4.40026693 3.18820629
Ru 4.68183644 8.74087307 3.18820629
Ru 4.68183644 4.40026693 3.18820629
Ru 1.51295356 8.74087307 3.18820629
Ru 4.64243757 2.19019000 1.07690642
Ru 1.56963589 6.57057000 1.11330814
Ru 1.55235243 2.19019000 1.07690642
Ru 4.62515411 6.57057000 1.11330814
C 3.09739500 2.19019000 5.50888250
O 3.09739500 2.19019000 6.66098371
