&CONTROL
calculation = 'relax'
prefix = 'scf'
pseudo_dir = '/vol0004/mdt0/data/hp150275/u10028/POT_HYBRID_KKJUS_GBRV'
outdir = './data'
tprnfor = .true.
nstep = 50
disk_io = 'non'
/
&SYSTEM
ibrav = 0
ecutwfc = 50.0
ecutrho = 400
occupations = 'smearing'
smearing = 'mp'
degauss = 0.01
assume_isolated = 'esm'
esm_bc = 'bc1'
input_dft = 'BEEF-VDW'
nosym = .true.
nspin = 2
ntyp = 5
nat = 34
starting_magnetization(1) = 0.0
starting_magnetization(2) = 0.0
starting_magnetization(3) = 0.1
starting_magnetization(4) = 0.001
starting_magnetization(5) = 0.0
/
&ELECTRONS
electron_maxstep = 200
mixing_beta = 0.1
conv_thr = 1e-06
/
&IONS
ion_dynamics = 'bfgs'
upscale = 1.0
/
&CELL
/

K_POINTS {automatic}
9 6 2 0  0  0

ATOMIC_SPECIES
Al 26.98 Al.pbe-nl-rrkjus_psl.1.0.0.UPF
C 12.01 C.pbe-n-rrkjus_psl.1.0.0.UPF
Cr 51.99 cr_pbe_v1.5.uspp.F.UPF
Ni 58.69 ni_pbe_v1.4.uspp.F.UPF
O 15.99 O.pbe-n-rrkjus_psl.1.0.0.UPF

CELL_PARAMETERS {angstrom}
5.82350000 0.00000000 0.00000000
0.00000000 8.23567000 0.00000000
0.00000000 0.00000000 26.17680000

ATOMIC_POSITIONS {angstrom}
Al 0.00000000 0.00000000 23.08846114
Al 2.91175000 2.05891750 25.14726646
Al 2.91175000 6.17675250 25.14726646
Al 0.00000000 4.11783500 23.08846114
Al 5.82221883 4.11470545 1.04602493
Al 2.92368818 6.22320168 3.07080041
Al 2.92456170 2.00695042 3.07839168
Al 0.02259518 0.00321191 0.98450945
Cr 0.00000000 6.17675250 25.14726646
Cr 2.91175000 0.00000000 23.08846114
Cr 0.00000000 2.05891750 25.14726646
Cr 2.91175000 4.11783500 23.08846114
Cr 0.00768702 2.11912025 3.22053170
Cr 2.90901296 4.12170576 0.97115928
Cr 0.00914290 6.11745568 3.22655237
Cr 2.93015226 8.23138745 1.05597211
Ni 1.45587500 0.00000000 25.14726646
Ni 4.36762500 4.11783500 25.14726646
Ni 4.36762500 0.00000000 25.14726646
Ni 1.45587500 4.11783500 25.14726646
Ni 4.36762500 6.17675250 23.08846114
Ni 1.45587500 2.05891750 23.08846114
Ni 1.45587500 6.17675250 23.08846114
Ni 4.36762500 2.05891750 23.08846114
Ni 1.57543145 4.11141118 2.96844912
Ni 4.41962886 0.00757682 3.00378780
Ni 4.26128789 4.10984640 2.96190492
Ni 1.42262281 0.00527083 3.02734692
Ni 4.37816553 2.05430552 1.03398360
Ni 1.44515976 6.18902365 1.04209841
Ni 1.45127443 2.04746992 1.04078957
Ni 4.38259139 6.18218804 1.03686305
C 0.19718371 0.00148242 4.44770009
O 0.07727785 8.23484643 5.62696493
