&CONTROL
calculation = 'relax'
prefix = 'scf'
pseudo_dir = '/vol0004/mdt0/data/hp150275/u10028/POT_KKJUS'
outdir = './data'
tprnfor = .true.
nstep = 50
disk_io = 'non'
/
&SYSTEM
ibrav = 0
ecutwfc = 50.0
ecutrho = 400
occupations = 'smearing'
smearing = 'mp'
degauss = 0.01
assume_isolated = 'esm'
esm_bc = 'bc1'
input_dft = 'BEEF-VDW'
nosym = .true.
nspin = 1
ntyp = 4
nat = 34
/
&ELECTRONS
electron_maxstep = 200
mixing_beta = 0.1
conv_thr = 1e-06
/
&IONS
ion_dynamics = 'bfgs'
upscale = 1.0
/
&CELL
/

K_POINTS {automatic}
8 6 2 0  0  0

ATOMIC_SPECIES
Ag 107.8 Ag.pbe-n-rrkjus_psl.1.0.0.UPF
C 12.01 C.pbe-n-rrkjus_psl.1.0.0.UPF
O 15.99 O.pbe-n-rrkjus_psl.1.0.0.UPF
Y 88.90 Y.pbe-spn-rrkjus_psl.1.0.0.UPF

CELL_PARAMETERS {angstrom}
7.32505000 0.00000000 0.00000000
0.00000000 10.35920000 0.00000000
0.00000000 0.00000000 27.76940000

ATOMIC_POSITIONS {angstrom}
Y 1.83126250 2.58980000 -3.88466137 0 0 0
Y 1.83126250 0.00000000 -1.294887120000002 0 0 0
Y 1.83126250 2.58824612 1.27183852
Y 1.83126250 0.00000000 3.83634261
Y 1.83126250 7.76940000 -3.88466137 0 0 0
Y 1.83126250 5.17960000 -1.294887120000002 0 0 0
Y 1.83126250 7.77095388 1.27211621
Y 1.83126250 5.17960000 3.85244886
Y 5.49378750 2.58980000 -3.88466137 0 0 0
Y 5.49378750 0.00000000 -1.294887120000002 0 0 0
Y 5.49378750 2.58928204 1.28933324
Y 5.49378750 0.00000000 3.94353249
Y 5.49378750 7.76940000 -3.88466137 0 0 0
Y 5.49378750 5.17960000 -1.294887120000002 0 0 0
Y 5.49378750 7.76991796 1.28933324
Y 5.49378750 5.17960000 3.86577817
Ag 0.00000000 0.00000000 -3.88466137 0 0 0
Ag 0.00000000 2.58980000 -1.294887120000002 0 0 0
Ag 7.25707354 0.00000000 1.34098433
Ag 7.32417099 2.59238980 3.72248807
Ag 0.00000000 5.17960000 -3.88466137 0 0 0
Ag 0.00000000 7.76940000 -1.294887120000002 0 0 0
Ag 0.00644604 5.17960000 1.32460038
Ag 7.32417099 7.76681020 3.72248807
Ag 3.66252500 0.00000000 -3.88466137 0 0 0
Ag 3.66252500 2.58980000 -1.294887120000002 0 0 0
Ag 3.73050146 0.00000000 1.34098433
Ag 3.66340401 2.59238980 3.72248807
Ag 3.66252500 5.17960000 -3.88466137 0 0 0
Ag 3.66252500 7.76940000 -1.294887120000002 0 0 0
Ag 3.65607896 5.17960000 1.32460038
Ag 3.66340401 7.76681020 3.72248807
C 1.83126250 0.00000000 6.28893602
O 1.83126250 0.00000000 7.44386536
