&CONTROL
calculation = 'relax'
prefix = 'scf'
pseudo_dir = '/vol0004/mdt0/data/hp150275/u10028/POT_KKJUS'
outdir = './data'
tprnfor = .true.
nstep = 50
disk_io = 'non'
/
&SYSTEM
ibrav = 0
ecutwfc = 50.0
ecutrho = 400
occupations = 'smearing'
smearing = 'mp'
degauss = 0.01
assume_isolated = 'esm'
esm_bc = 'bc1'
input_dft = 'BEEF-VDW'
nosym = .true.
nspin = 1
ntyp = 3
nat = 33
/
&ELECTRONS
electron_maxstep = 200
mixing_beta = 0.1
conv_thr = 1e-06
/
&IONS
ion_dynamics = 'bfgs'
upscale = 1.0
/
&CELL
/

K_POINTS {automatic}
8 6 1 0 0 0

ATOMIC_SPECIES
C 12.01 C.pbe-n-rrkjus_psl.1.0.0.UPF
Cu 63.54 Cu.pbe-dn-rrkjus_psl.1.0.0.UPF
Sb 121.7 Sb.pbe-n-rrkjus_psl.1.0.0.UPF

CELL_PARAMETERS {angstrom}
6.30953000 0.00000000 0.00000000
0.00000000 8.92302000 0.00000000
0.00000000 0.00000000 26.69230000

ATOMIC_POSITIONS {angstrom}
Cu 1.57738250 0.00000000 -1.1154712199999999 0 0 0
Cu 4.73214750 4.46151000 -1.1154712199999999 0 0 0
Cu 4.73214750 0.00000000 -1.1154712199999999 0 0 0
Cu 1.57738250 4.46151000 -1.1154712199999999 0 0 0
Cu 4.73214750 6.69226500 -3.346146730000001 0 0 0
Cu 1.57738250 2.23075500 -3.346146730000001 0 0 0
Cu 1.57738250 6.69226500 -3.346146730000001 0 0 0
Cu 4.73214750 2.23075500 -3.346146730000001 0 0 0
Cu 0.00000000 6.69226500 -1.1154712199999999 0 0 0
Cu 3.15476500 0.00000000 -3.346146730000001 0 0 0
Cu 0.00000000 2.23075500 -1.1154712199999999 0 0 0
Cu 3.15476500 4.46151000 -3.346146730000001 0 0 0
Cu 1.31351796 4.46151000 3.33893981
Cu 5.05898115 0.00008923 3.52258283
Cu 4.99601204 4.46151000 3.33893981
Cu 1.25054885 0.00000000 3.52258283
Cu 4.54923423 2.24869027 1.18727350
Cu 1.76029577 6.67432973 1.18727350
Cu 1.76029577 2.24869027 1.18727350
Cu 4.54923423 6.67432973 1.18727350
Cu 0.00000000 2.27858239 3.10271295
Cu 3.15476500 4.46151000 1.26735040
Cu 0.00000000 6.64443761 3.10271295
Cu 3.15476500 0.00000000 1.53000264
Sb 0.00000000 0.00000000 -3.346146730000001 0 0 0
Sb 3.15476500 2.23075500 -1.1154712199999999 0 0 0
Sb 3.15476500 6.69226500 -1.1154712199999999 0 0 0
Sb 0.00000000 4.46151000 -3.346146730000001 0 0 0
Sb 0.00000000 4.46151000 1.01564202
Sb 3.15476500 6.43099897 3.60693050
Sb 3.15476500 2.49202103 3.60693050
Sb 0.00000000 0.00000000 1.15524274
C 3.15476500 8.92293077 3.58424204
