&CONTROL
calculation = 'relax'
prefix = 'scf'
pseudo_dir = '/vol0004/mdt0/data/hp150275/u10028/POT_KKJUS'
outdir = './data'
tprnfor = .true.
nstep = 50
disk_io = 'non'
/
&SYSTEM
ibrav = 0
ecutwfc = 50.0
ecutrho = 400
occupations = 'smearing'
smearing = 'mp'
degauss = 0.01
assume_isolated = 'esm'
esm_bc = 'bc1'
input_dft = 'BEEF-VDW'
nosym = .true.
nspin = 1
ntyp = 4
nat = 18
/
&ELECTRONS
electron_maxstep = 200
mixing_beta = 0.1
conv_thr = 1e-06
/
&IONS
ion_dynamics = 'bfgs'
upscale = 1.0
/
&CELL
/

K_POINTS {automatic}
8 8 1 0 0 0

ATOMIC_SPECIES
C 12.01 C.pbe-n-rrkjus_psl.1.0.0.UPF
Ca 40.07 Ca.pbe-spn-rrkjus_psl.1.0.0.UPF
In 114.8 In.pbe-dn-rrkjus_psl.1.0.0.UPF
O 15.99 O.pbe-n-rrkjus_psl.1.0.0.UPF

CELL_PARAMETERS {angstrom}
7.80577000 0.00000000 0.00000000
0.00000000 7.80577000 0.00000000
0.00000000 0.00000000 25.85430000

ATOMIC_POSITIONS {angstrom}
Ca 1.95144250 1.95144250 -1.4465480899999967 0 0 0
Ca 1.95128638 1.95175473 2.31085733
Ca 1.95144250 5.85432750 -1.4465480899999967 0 0 0
Ca 1.95191085 5.85526419 2.45021201
Ca 5.85432750 1.95144250 -1.4465480899999967 0 0 0
Ca 5.85385915 1.95105221 2.44840221
Ca 5.85432750 5.85432750 -1.4465480899999967 0 0 0
Ca 5.85432750 5.85424944 2.50890127
In 0.00000000 0.00000000 -3.398030649999999 0 0 0
In 7.76065265 7.75979401 0.55560891
In 0.00000000 3.90288500 -3.398030649999999 0 0 0
In 7.76057459 3.94901710 0.55586745
In 3.90288500 0.00000000 -3.398030649999999 0 0 0
In 3.94808041 7.75987207 0.55560891
In 3.90288500 3.90288500 -3.398030649999999 0 0 0
In 3.94815847 3.94893904 0.55586745
C 1.95144250 1.95128638 4.87974058
O 1.95144250 1.95128638 6.03051547
