&CONTROL
calculation = 'relax'
prefix = 'scf'
pseudo_dir = '/vol0004/mdt0/data/hp150275/u10028/POT_KKJUS'
outdir = './data'
tprnfor = .true.
nstep = 50
disk_io = 'non'
/
&SYSTEM
ibrav = 0
ecutwfc = 50.0
ecutrho = 400
occupations = 'smearing'
smearing = 'mp'
degauss = 0.01
assume_isolated = 'esm'
esm_bc = 'bc1'
input_dft = 'BEEF-VDW'
nosym = .true.
nspin = 1
ntyp = 4
nat = 18
/
&ELECTRONS
electron_maxstep = 200
mixing_beta = 0.1
conv_thr = 1e-06
/
&IONS
ion_dynamics = 'bfgs'
upscale = 1.0
/
&CELL
/

K_POINTS {automatic}
8 8 1 0 0 0

ATOMIC_SPECIES
As 74.92 As.pbe-n-rrkjus_psl.1.0.0.UPF
C 12.01 C.pbe-n-rrkjus_psl.1.0.0.UPF
Na 22.98 Na.pbe-spnl-rrkjus_psl.1.0.0.UPF
O 15.99 O.pbe-n-rrkjus_psl.1.0.0.UPF

CELL_PARAMETERS {angstrom}
7.20118000 0.00000000 0.00000000
0.00000000 7.20118000 0.00000000
0.00000000 0.00000000 25.40090000

ATOMIC_POSITIONS {angstrom}
Na 1.81224896 1.78884512 1.11179739
Na 5.40088500 5.40088500 -2.7003696800000014 0 0 0
Na 5.38878702 1.78877311 1.11154338
Na 1.80029500 5.40088500 -2.7003696800000014 0 0 0
Na 5.38878702 5.41233488 1.11179739
Na 1.80029500 1.80029500 -2.7003696800000014 0 0 0
Na 1.81224896 5.41240689 1.11179739
Na 5.40088500 1.80029500 -2.7003696800000014 0 0 0
Na 0.00000000 0.00000000 -0.9002079000000016 0 0 0
Na 3.60059000 0.00021604 3.46493677
Na 7.20089195 3.60044598 3.42683542
Na 3.60059000 3.60059000 -0.9002079000000016 0 0 0
As 0.00007201 7.20110799 2.55025036
As 3.60066201 3.60059000 2.54999635
As 3.60059000 0.00000000 -0.9002079000000016 0 0 0
As 0.00000000 3.60059000 -0.9002079000000016 0 0 0
C 0.00043207 3.60066201 6.07157713
O 0.00021604 3.60066201 7.20648934
