&CONTROL
calculation = 'relax'
prefix = 'scf'
pseudo_dir = '/vol0004/mdt0/data/hp150275/u10028/POT_HYBRID_KKJUS_GBRV'
outdir = './data'
tprnfor = .true.
nstep = 50
disk_io = 'non'
/
&SYSTEM
ibrav = 0
ecutwfc = 50.0
ecutrho = 400
occupations = 'smearing'
smearing = 'mp'
degauss = 0.01
assume_isolated = 'esm'
esm_bc = 'bc1'
input_dft = 'BEEF-VDW'
nosym = .true.
nspin = 2
ntyp = 3
nat = 17
starting_magnetization(1) = 0.0
starting_magnetization(2) = 0.0
starting_magnetization(3) = 0.001
/
&ELECTRONS
electron_maxstep = 400
mixing_beta = 0.1
conv_thr = 1e-06
/
&IONS
ion_dynamics = 'bfgs'
upscale = 1.0
/
&CELL
/

K_POINTS {automatic}
8 12 2 0  0  0

ATOMIC_SPECIES
C 12.01 C.pbe-n-rrkjus_psl.1.0.0.UPF
Ge 72.64 Ge.pbe-dn-rrkjus_psl.1.0.0.UPF
Ni 58.69 ni_pbe_v1.4.uspp.F.UPF

CELL_PARAMETERS {angstrom}
7.18728000 0.00000000 0.00000000
0.00000000 5.08218000 0.00000000
0.00000000 0.00000000 23.81160000

ATOMIC_POSITIONS {angstrom}
Ni 0.00000000 2.54109000 -1.9058804599999988 0 0 0
Ni 1.79682000 3.81163500 -0.6352934899999987 0 0 0
Ni 1.79682000 1.27054500 -0.6352934899999987 0 0 0
Ni 0.00007187 0.00000000 0.50623462
Ni 1.39253550 1.31018600 1.97755338
Ni 1.39253550 3.77199400 1.97755338
Ni 3.59364000 2.54109000 -1.9058804599999988 0 0 0
Ni 5.39046000 3.81163500 -0.6352934899999987 0 0 0
Ni 5.39046000 1.27054500 -0.6352934899999987 0 0 0
Ni 3.59378375 0.00000000 0.80364150
Ni 5.79452888 1.31003354 1.97707715
Ni 5.79460075 3.77214646 1.97707715
Ge 0.00000000 0.00000000 -1.9058804599999988 0 0 0
Ge 0.00035936 2.54109000 0.36003139
Ge 3.59364000 0.00000000 -1.9058804599999988 0 0 0
Ge 3.59320876 2.54109000 1.17295942
C 7.18713625 2.54109000 2.52426772
