&CONTROL
calculation = 'relax'
prefix = 'scf'
pseudo_dir = '/vol0004/mdt0/data/hp150275/u10028/POT_KKJUS'
outdir = './data'
tprnfor = .true.
nstep = 50
disk_io = 'non'
/
&SYSTEM
ibrav = 0
ecutwfc = 50.0
ecutrho = 400
occupations = 'smearing'
smearing = 'mp'
degauss = 0.01
assume_isolated = 'esm'
esm_bc = 'bc1'
input_dft = 'BEEF-VDW'
nosym = .true.
nspin = 1
ntyp = 3
nat = 17
/
&ELECTRONS
electron_maxstep = 200
mixing_beta = 0.1
conv_thr = 1e-06
/
&IONS
ion_dynamics = 'bfgs'
upscale = 1.0
/
&CELL
/

K_POINTS {automatic}
9 9 3 0  0  0

ATOMIC_SPECIES
Bi 208.9 Bi.pbe-dn-rrkjus_psl.1.0.0.UPF
C 12.01 C.pbe-n-rrkjus_psl.1.0.0.UPF
K 39.09 K.pbe-spn-rrkjus_psl.1.0.0.UPF

CELL_PARAMETERS {angstrom}
8.83903000 0.00000000 0.00000000
0.00000000 8.83903000 0.00000000
0.00000000 0.00000000 26.62930000

ATOMIC_POSITIONS {angstrom}
K 2.20975750 2.20975750 -1.1048496599999993 0 0 0
K 6.81126813 6.80994227 3.49296528
K 6.62927250 2.20975750 -1.1048496599999993 0 0 0
K 2.02776187 6.81003066 3.49296528
K 6.62927250 6.62927250 -1.1048496599999993 0 0 0
K 2.02776187 2.02899934 3.49296528
K 2.20975750 6.62927250 -1.1048496599999993 0 0 0
K 6.81126813 2.02908773 3.49296528
K 8.83894161 0.00000000 0.90326586
K 4.41951500 0.00000000 -3.3145489700000006 0 0 0
K 0.00000000 4.41951500 -3.3145489700000006 0 0 0
K 4.41951500 4.41951500 0.97516497
Bi 0.00000000 0.00000000 -3.3145489700000006 0 0 0
Bi 4.41951500 4.41951500 -3.3145489700000006 0 0 0
Bi 4.41951500 0.00008839 1.17674877
Bi 0.00000000 4.41951500 1.18473756
C 8.83894161 0.00008839 3.67670745
