&CONTROL
calculation = 'relax'
prefix = 'scf'
pseudo_dir = '/vol0403/data/hp230205/u10028/POT_HYBRID_KKJUS_GBRV'
outdir = './data'
tprnfor = .true.
nstep = 50
disk_io = 'non'
/
&SYSTEM
ibrav = 0
ecutwfc = 50.0
ecutrho = 400
occupations = 'smearing'
smearing = 'mp'
degauss = 0.01
assume_isolated = 'esm'
esm_bc = 'bc1'
input_dft = 'BEEF-VDW'
nosym = .true.
nspin = 1
ntyp = 6
nat = 18
/
&ELECTRONS
electron_maxstep = 200
mixing_beta = 0.1
conv_thr = 1e-06
/
&IONS
ion_dynamics = 'bfgs'
upscale = 1.0
/
&CELL
/

K_POINTS {automatic}
6 6 1 0 0 0

ATOMIC_SPECIES
Ag 107.8 Ag.pbe-n-rrkjus_psl.1.0.0.UPF
Al 26.98 Al.pbe-nl-rrkjus_psl.1.0.0.UPF
C 12.01 C.pbe-n-rrkjus_psl.1.0.0.UPF
Ge 72.64 Ge.pbe-dn-rrkjus_psl.1.0.0.UPF
Li 6.941 Li.pbe-sl-rrkjus_psl.1.0.0.UPF
O 15.99 O.pbe-n-rrkjus_psl.1.0.0.UPF


CELL_PARAMETERS {angstrom}
5.56638000 0.00000000 0.00000000
0.00000000 8.55604000 0.00000000
0.00000000 0.00000000 24.17150000

ATOMIC_POSITIONS {angstrom}
Li 2.94639626 8.55595444 2.11210567
Li 5.45549771 0.00000000 -0.6951723400000027 0 0 0
Li 2.97484046 4.27810556 2.03209801
Li 5.45549771 4.27802000 -0.6951723400000027 0 0 0
Al 1.41547477 2.13079620 0.64634591
Al 4.00846157 2.13901000 -2.085758730000002 0 0 0
Al 1.41553043 6.42524380 0.64634591
Al 4.00846157 6.41703000 -2.085758730000002 0 0 0
Ag 0.22220989 8.55595444 1.84404374
Ag 2.67230771 0.00000000 -0.6951723400000027 0 0 0
Ag 0.25260232 4.27802000 1.82688197
Ag 2.67230771 4.27802000 -0.6951723400000027 0 0 0
Ge 4.12624617 2.13712767 0.72973759
Ge 1.22527157 2.13901000 -2.085758730000002 0 0 0
Ge 4.12630183 6.41891233 0.72973759
Ge 1.22527157 6.41703000 -2.085758730000002 0 0 0
C 2.83078255 8.55595444 4.19858955
O 2.73476249 0.00000000 5.33658377
