&CONTROL
calculation = 'relax'
prefix = 'scf'
pseudo_dir = '/vol0004/mdt0/data/hp150275/u10028/POT_KKJUS'
outdir = './data'
tprnfor = .true.
nstep = 50
disk_io = 'non'
/
&SYSTEM
ibrav = 0
ecutwfc = 50.0
ecutrho = 400
occupations = 'smearing'
smearing = 'mp'
degauss = 0.01
assume_isolated = 'esm'
esm_bc = 'bc1'
input_dft = 'BEEF-VDW'
nosym = .true.
nspin = 1
ntyp = 4
nat = 33
/
&ELECTRONS
electron_maxstep = 200
mixing_beta = 0.1
conv_thr = 1e-06
/
&IONS
ion_dynamics = 'bfgs'
upscale = 1.0
/
&CELL
/

K_POINTS {automatic}
8 6 1 0 0 0

ATOMIC_SPECIES
Ag 107.8 Ag.pbe-n-rrkjus_psl.1.0.0.UPF
C 12.01 C.pbe-n-rrkjus_psl.1.0.0.UPF
In 114.8 In.pbe-dn-rrkjus_psl.1.0.0.UPF
Li 6.941 Li.pbe-sl-rrkjus_psl.1.0.0.UPF

CELL_PARAMETERS {angstrom}
6.67495000 0.00000000 0.00000000
0.00000000 9.43981000 0.00000000
0.00000000 0.00000000 27.07990000

ATOMIC_POSITIONS {angstrom}
Li 0.00000000 7.07985750 -1.179871239999997 0 0 0
Li 3.33747500 0.00000000 -3.5398845299999984 0 0 0
Li 0.00000000 2.35995250 -1.179871239999997 0 0 0
Li 3.33747500 4.71990500 -3.5398845299999984 0 0 0
Li 1.66873750 0.00000000 -1.179871239999997 0 0 0
Li 1.66873750 4.71990500 -1.179871239999997 0 0 0
Li 5.00621250 7.07985750 -3.5398845299999984 0 0 0
Li 5.00621250 2.35995250 -3.5398845299999984 0 0 0
Li 6.48644941 2.35995250 3.63168539
Li 3.26224831 4.72047139 1.10323513
Li 0.03878146 7.07985750 3.46568560
Li 3.26224831 9.43924361 1.10323513
Li 1.76499028 4.44001463 3.62247822
Li 1.76499028 0.27979597 3.62247822
Li 4.95688462 2.35995250 1.17743405
Li 4.84728194 7.07985750 1.32474871
In 0.00000000 0.00000000 -3.5398845299999984 0 0 0
In 3.33747500 2.35995250 -1.179871239999997 0 0 0
In 3.33747500 7.07985750 -1.179871239999997 0 0 0
In 0.00000000 4.71990500 -3.5398845299999984 0 0 0
In 0.02609905 4.75974100 1.13573101
In 3.07801969 7.07985750 3.89625601
In 3.79951504 2.35995250 4.08364892
In 0.02609905 9.39997400 1.13546021
Ag 1.66873750 2.35995250 -3.5398845299999984 0 0 0
Ag 1.66873750 7.07985750 -3.5398845299999984 0 0 0
Ag 5.00621250 4.71990500 -1.179871239999997 0 0 0
Ag 5.00621250 0.00000000 -1.179871239999997 0 0 0
Ag 1.75063914 7.07985750 1.23105225
Ag 1.77406821 2.35995250 1.23809303
Ag 4.86109909 9.23430534 3.34111806
Ag 4.86109909 4.92540966 3.34111806
C 1.77173198 2.35995250 3.45647844
