&CONTROL
calculation = 'relax'
prefix = 'scf'
pseudo_dir = '/vol0004/mdt0/data/hp150275/u10028/POT_KKJUS'
outdir = './data'
tprnfor = .true.
nstep = 50
disk_io = 'non'
/
&SYSTEM
ibrav = 0
ecutwfc = 50.0
ecutrho = 400
occupations = 'smearing'
smearing = 'mp'
degauss = 0.01
assume_isolated = 'esm'
esm_bc = 'bc1'
input_dft = 'BEEF-VDW'
nosym = .true.
nspin = 1
ntyp = 5
nat = 34
/
&ELECTRONS
electron_maxstep = 200
mixing_beta = 0.1
conv_thr = 1e-06
/
&IONS
ion_dynamics = 'bfgs'
upscale = 1.0
/
&CELL
/

K_POINTS {automatic}
8 6 1 0 0 0

ATOMIC_SPECIES
C 12.01 C.pbe-n-rrkjus_psl.1.0.0.UPF
In 114.8 In.pbe-dn-rrkjus_psl.1.0.0.UPF
Li 6.941 Li.pbe-sl-rrkjus_psl.1.0.0.UPF
O 15.99 O.pbe-n-rrkjus_psl.1.0.0.UPF
Pt 195.0 Pt.pbe-n-rrkjus_psl.1.0.0.UPF

CELL_PARAMETERS {angstrom}
6.69031000 0.00000000 0.00000000
0.00000000 9.46152000 0.00000000
0.00000000 0.00000000 27.09610000

ATOMIC_POSITIONS {angstrom}
Li 0.00000000 0.00000000 -3.547963329999998 0 0 0
Li 3.34515500 2.36538000 -1.1827447599999985 0 0 0
Li 3.34515500 7.09614000 -1.1827447599999985 0 0 0
Li 0.00000000 4.73076000 -3.547963329999998 0 0 0
Li 6.60467403 4.73076000 1.36754017
Li 3.54158250 7.09576154 3.88937419
Li 3.54171631 2.36575846 3.88937419
Li 6.58513833 0.00000000 1.35588884
In 1.67257750 0.00000000 -1.1827447599999985 0 0 0
In 5.01773250 4.73076000 -1.1827447599999985 0 0 0
In 5.01773250 0.00000000 -1.1827447599999985 0 0 0
In 1.67257750 4.73076000 -1.1827447599999985 0 0 0
In 5.01773250 7.09614000 -3.547963329999998 0 0 0
In 1.67257750 2.36538000 -3.547963329999998 0 0 0
In 1.67257750 7.09614000 -3.547963329999998 0 0 0
In 5.01773250 2.36538000 -3.547963329999998 0 0 0
In 1.78838677 4.73076000 3.65987023
In 5.25704489 0.00000000 4.10776876
In 5.26366830 4.73085462 4.16141904
In 1.80738725 0.00009462 3.66962482
In 4.93303318 2.37995074 1.27432958
In 1.70442338 7.10484460 1.21498912
In 1.70442338 2.35677002 1.21498912
In 4.93303318 7.08156926 1.27432958
Pt 0.00000000 7.09614000 -1.1827447599999985 0 0 0
Pt 3.34515500 0.00000000 -3.547963329999998 0 0 0
Pt 0.00000000 2.36538000 -1.1827447599999985 0 0 0
Pt 3.34515500 4.73076000 -3.547963329999998 0 0 0
Pt 0.01184185 2.37115153 3.37698694
Pt 3.32461575 4.73076000 1.08601169
Pt 0.01190875 7.09046309 3.37698694
Pt 3.35786659 0.00000000 1.07029595
C 2.30735411 9.46133077 7.59124338
O 1.39834169 0.00000000 8.27189741
