&CONTROL
calculation = 'relax'
prefix = 'scf'
pseudo_dir = '/vol0004/mdt0/data/hp150275/u10028/POT_KKJUS'
outdir = './data'
tprnfor = .true.
nstep = 50
disk_io = 'non'
/
&SYSTEM
ibrav = 0
ecutwfc = 50.0
ecutrho = 400
occupations = 'smearing'
smearing = 'mp'
degauss = 0.01
assume_isolated = 'esm'
esm_bc = 'bc1'
input_dft = 'BEEF-VDW'
nosym = .true.
nspin = 1
ntyp = 4
nat = 17
/
&ELECTRONS
electron_maxstep = 200
mixing_beta = 0.1
conv_thr = 1e-06
/
&IONS
ion_dynamics = 'bfgs'
upscale = 1.0
/
&CELL
/

K_POINTS {automatic}
10 10 2 0  0  0

ATOMIC_SPECIES
C 12.01 C.pbe-n-rrkjus_psl.1.0.0.UPF
Li 6.941 Li.pbe-sl-rrkjus_psl.1.0.0.UPF
Ni 58.69 Ni.pbe-spn-rrkjus_psl.1.0.0.UPF
Sn 118.7 Sn.pbe-dn-rrkjus_psl.1.0.0.UPF

CELL_PARAMETERS {angstrom}
6.05884000 0.00000000 0.00000000
0.00000000 6.05884000 0.00000000
0.00000000 0.00000000 24.54410000

ATOMIC_POSITIONS {angstrom}
Li 0.00000000 0.00000000 -2.2720473400000003 0 0 0
Li 3.02942000 3.02942000 -2.2720473400000003 0 0 0
Li 3.02923823 6.05877941 0.89978671
Li 6.05877941 3.02923823 0.55837828
Ni 1.51471000 1.51471000 -0.7574309300000017 0 0 0
Ni 4.78078829 4.30201875 2.28677380
Ni 4.54413000 1.51471000 -0.7574309300000017 0 0 0
Ni 1.27829406 4.30510876 2.28971909
Ni 4.54413000 4.54413000 -0.7574309300000017 0 0 0
Ni 1.27780936 1.75700301 2.28726468
Ni 1.51471000 4.54413000 -0.7574309300000017 0 0 0
Ni 4.78133359 1.75591242 2.28824644
Sn 0.00024235 6.05841588 0.82271823
Sn 3.02942000 0.00000000 -2.2720473400000003 0 0 0
Sn 0.00000000 3.02942000 -2.2720473400000003 0 0 0
Sn 3.02911706 3.02972294 0.81977294
C 0.00036353 3.02990471 2.68217925
