&CONTROL
calculation = 'relax'
prefix = 'scf'
pseudo_dir = '/vol0004/mdt0/data/hp150275/u10028/POT_HYBRID_KKJUS_GBRV'
outdir = './data'
tprnfor = .true.
nstep = 50
disk_io = 'non'
/
&SYSTEM
ibrav = 0
ecutwfc = 50.0
ecutrho = 400
occupations = 'smearing'
smearing = 'mp'
degauss = 0.01
assume_isolated = 'esm'
esm_bc = 'bc1'
input_dft = 'BEEF-VDW'
nosym = .true.
nspin = 2
ntyp = 4
nat = 33
starting_magnetization(1) = 0.0
starting_magnetization(2) = 0.1
starting_magnetization(3) = 0.1
starting_magnetization(4) = 0.0
/
&ELECTRONS
electron_maxstep = 300
mixing_beta = 0.1
conv_thr = 1e-06
/
&IONS
ion_dynamics = 'bfgs'
upscale = 1.0
/
&CELL
/

K_POINTS {automatic}
9 6 2 0  0  0

ATOMIC_SPECIES
C 12.01 C.pbe-n-rrkjus_psl.1.0.0.UPF
Co 58.93 co_pbe_v1.2.uspp.F.UPF
Mn 54.93 mn_pbe_v1.5.uspp.F.UPF
Sn 118.7 Sn.pbe-dn-rrkjus_psl.1.0.0.UPF

CELL_PARAMETERS {angstrom}
6.01864000 0.00000000 0.00000000
0.00000000 8.51164000 0.00000000
0.00000000 0.00000000 26.38370000

ATOMIC_POSITIONS {angstrom}
Mn 0.00000000 0.00000000 -3.1919000299999993 0 0 0
Mn 3.00932000 2.12791000 -1.0640546200000003 0 0 0
Mn 3.00932000 6.38373000 -1.0640546200000003 0 0 0
Mn 0.00000000 4.25582000 -3.1919000299999993 0 0 0
Mn 6.01851963 4.25590512 1.08357856
Mn 3.00932000 6.34806623 3.14520088
Mn 3.00932000 2.16365889 3.14520088
Mn 6.01845944 8.51146977 1.16352117
Co 1.50466000 0.00000000 -1.0640546200000003 0 0 0
Co 4.51398000 4.25582000 -1.0640546200000003 0 0 0
Co 4.51398000 0.00000000 -1.0640546200000003 0 0 0
Co 1.50466000 4.25582000 -1.0640546200000003 0 0 0
Co 4.51398000 6.38373000 -3.1919000299999993 0 0 0
Co 1.50466000 2.12791000 -3.1919000299999993 0 0 0
Co 1.50466000 6.38373000 -3.1919000299999993 0 0 0
Co 4.51398000 2.12791000 -3.1919000299999993 0 0 0
Co 1.60240271 4.25590512 3.14256251
Co 4.32848552 0.00008512 3.17343144
Co 4.41641785 4.25590512 3.14256251
Co 1.68979337 0.00008512 3.17316760
Co 4.55905961 2.13361280 1.12975003
Co 1.45927945 6.37794208 1.12948620
Co 1.45958039 2.13352768 1.12948620
Co 4.55930036 6.37777185 1.12975003
Sn 0.00000000 6.38373000 -1.0640546200000003 0 0 0
Sn 3.00932000 0.00000000 -3.1919000299999993 0 0 0
Sn 0.00000000 2.12791000 -1.0640546200000003 0 0 0
Sn 3.00932000 4.25582000 -3.1919000299999993 0 0 0
Sn 6.01845944 2.28324743 3.45943074
Sn 3.00932000 4.25599023 1.00891269
Sn 6.01845944 6.22839257 3.45916691
Sn 3.00944037 8.51112930 0.98305666
C 6.01851963 8.51155488 3.53145825
