&CONTROL
calculation = 'relax'
prefix = 'scf'
pseudo_dir = '/vol0403/data/hp230205/u10028/POT_HYBRID_KKJUS_GBRV'
outdir = './data'
tprnfor = .true.
nstep = 50
disk_io = 'non'
/
&SYSTEM
ibrav = 0
ecutwfc = 50.0
ecutrho = 400
occupations = 'smearing'
smearing = 'mp'
degauss = 0.01
assume_isolated = 'esm'
esm_bc = 'bc1'
input_dft = 'BEEF-VDW'
nosym = .true.
nspin = 1
ntyp = 6
nat = 18
/
&ELECTRONS
electron_maxstep = 200
mixing_beta = 0.1
conv_thr = 1e-06
/
&IONS
ion_dynamics = 'bfgs'
upscale = 1.0
/
&CELL
/

K_POINTS {automatic}
9 9 2 0  0  0

ATOMIC_SPECIES
Ag 107.8 Ag.pbe-n-rrkjus_psl.1.0.0.UPF
C 12.01 C.pbe-n-rrkjus_psl.1.0.0.UPF
In 114.8 In.pbe-dn-rrkjus_psl.1.0.0.UPF
Li 6.941 Li.pbe-sl-rrkjus_psl.1.0.0.UPF
O 15.99 O.pbe-n-rrkjus_psl.1.0.0.UPF
Y 88.90 Y.pbe-spn-rrkjus_psl.1.0.0.UPF


CELL_PARAMETERS {angstrom}
6.90709000 0.00000000 0.00000000
0.00000000 6.90709000 0.00000000
0.00000000 0.00000000 25.18030000

ATOMIC_POSITIONS {angstrom}
Li 0.00000000 3.45354500 -2.5900456599999977 0 0 0
Li 0.07618520 6.83097387 0.98102449
Li 3.37735980 3.52966113 0.98102449
Li 3.45354500 0.00000000 -2.5900456599999977 0 0 0
Y 5.18031750 1.72677250 -0.8634324899999974 0 0 0
Y 5.18031750 5.18031750 2.76857399
Y 1.72677250 1.72677250 2.76857399
Y 1.72677250 5.18031750 -0.8634324899999974 0 0 0
In 1.72677250 1.72677250 -0.8634324899999974 0 0 0
In 1.72677250 5.18031750 2.84889914
In 5.18031750 1.72677250 2.38432261
In 5.18031750 5.18031750 -0.8634324899999974 0 0 0
Ag 0.00000000 0.00000000 -2.5900456599999977 0 0 0
Ag 0.07107396 3.52461896 0.93519634
Ag 3.38247104 6.83601604 0.93519634
Ag 3.45354500 3.45354500 -2.5900456599999977 0 0 0
C 5.18031750 1.72677250 4.61252735
O 5.18031750 1.72677250 5.77862705
