&CONTROL
calculation = 'relax'
prefix = 'scf'
pseudo_dir = '/vol0004/mdt0/data/hp150275/u10028/POT_KKJUS'
outdir = './data'
tprnfor = .true.
nstep = 50
disk_io = 'non'
/
&SYSTEM
ibrav = 0
ecutwfc = 50.0
ecutrho = 400
occupations = 'smearing'
smearing = 'mp'
degauss = 0.01
assume_isolated = 'esm'
esm_bc = 'bc1'
input_dft = 'BEEF-VDW'
nosym = .true.
nspin = 1
ntyp = 3
nat = 33
/
&ELECTRONS
electron_maxstep = 200
mixing_beta = 0.1
conv_thr = 1e-06
/
&IONS
ion_dynamics = 'bfgs'
upscale = 1.0
/
&CELL
/

K_POINTS {automatic}
8 6 1 0 0 0

ATOMIC_SPECIES
Al 26.98 Al.pbe-nl-rrkjus_psl.1.0.0.UPF
C 12.01 C.pbe-n-rrkjus_psl.1.0.0.UPF
Os 190.2 Os.pbe-spn-rrkjus_psl.1.0.0.UPF

CELL_PARAMETERS {angstrom}
6.03636000 0.00000000 0.00000000
0.00000000 8.53670000 0.00000000
0.00000000 0.00000000 26.40250000

ATOMIC_POSITIONS {angstrom}
Al 0.00000000 0.00000000 -3.2013031199999986 0 0 0
Al 0.00000000 2.13417500 -1.0671890499999996 0 0 0
Al 0.00000000 0.00000000 1.02547310
Al 0.00000000 2.04863727 3.21582450
Al 0.00000000 4.26835000 -3.2013031199999986 0 0 0
Al 0.00000000 6.40252500 -1.0671890499999996 0 0 0
Al 0.00000000 4.26835000 0.97689250
Al 0.00000000 6.48806273 3.21582450
Al 3.01818000 0.00000000 -3.2013031199999986 0 0 0
Al 3.01818000 2.13417500 -1.0671890499999996 0 0 0
Al 3.01818000 0.00000000 0.91352650
Al 3.01818000 2.33658016 3.29635212
Al 3.01818000 4.26835000 -3.2013031199999986 0 0 0
Al 3.01818000 6.40252500 -1.0671890499999996 0 0 0
Al 3.01818000 4.26835000 1.07299760
Al 3.01818000 6.20011984 3.29635212
Os 1.50909000 2.13417500 -3.2013031199999986 0 0 0
Os 1.50909000 0.00000000 -1.0671890499999996 0 0 0
Os 1.51283254 2.11582110 1.06982930
Os 1.70901424 0.00000000 3.19971898
Os 1.50909000 6.40252500 -3.2013031199999986 0 0 0
Os 1.50909000 4.26835000 -1.0671890499999996 0 0 0
Os 1.51283254 6.42087890 1.06982930
Os 1.34502174 4.26835000 3.14242555
Os 4.52727000 2.13417500 -3.2013031199999986 0 0 0
Os 4.52727000 0.00000000 -1.0671890499999996 0 0 0
Os 4.52352746 2.11573573 1.06982930
Os 4.32734576 0.00000000 3.19971898
Os 4.52727000 6.40252500 -3.2013031199999986 0 0 0
Os 4.52727000 4.26835000 -1.0671890499999996 0 0 0
Os 4.52352746 6.42087891 1.06982930
Os 4.69133826 4.26835000 3.14242555
C 0.00000000 0.00000000 4.06123255
