&CONTROL
calculation = 'relax'
prefix = 'scf'
pseudo_dir = '/vol0004/mdt0/data/hp150275/u10028/POT_HYBRID_KKJUS_GBRV'
outdir = './data'
tprnfor = .true.
nstep = 50
disk_io = 'non'
/
&SYSTEM
ibrav = 0
ecutwfc = 50.0
ecutrho = 400
occupations = 'smearing'
smearing = 'mp'
degauss = 0.01
assume_isolated = 'esm'
esm_bc = 'bc1'
input_dft = 'BEEF-VDW'
nosym = .true.
nspin = 2
ntyp = 5
nat = 34
starting_magnetization(1) = 0.0
starting_magnetization(2) = 0.0
starting_magnetization(3) = 0.1
starting_magnetization(4) = 0.001
starting_magnetization(5) = 0.0
/
&ELECTRONS
electron_maxstep = 300
mixing_beta = 0.1
conv_thr = 1e-06
/
&IONS
ion_dynamics = 'bfgs'
upscale = 1.0
/
&CELL
/

K_POINTS {automatic}
9 6 2 0  0  0

ATOMIC_SPECIES
Al 26.98 Al.pbe-nl-rrkjus_psl.1.0.0.UPF
C 12.01 C.pbe-n-rrkjus_psl.1.0.0.UPF
Fe 55.84 fe_pbe_v1.5.uspp.F.UPF
Ni 58.69 ni_pbe_v1.4.uspp.F.UPF
O 15.99 O.pbe-n-rrkjus_psl.1.0.0.UPF

CELL_PARAMETERS {angstrom}
5.78917000 0.00000000 0.00000000
0.00000000 8.18712000 0.00000000
0.00000000 0.00000000 26.14030000

ATOMIC_POSITIONS {angstrom}
Al 0.00000000 0.00000000 -3.0701782400000006 0 0 0
Al 2.89458500 2.04678000 -1.0233927399999985 0 0 0
Al 2.89458500 6.14034000 -1.0233927399999985 0 0 0
Al 0.00000000 4.09356000 -3.0701782400000006 0 0 0
Al 5.63604645 3.77729155 1.07122949
Al 2.57664378 6.36761445 3.29393920
Al 2.99444818 1.91283872 3.16872717
Al 0.19156364 7.61172921 0.97163495
Fe 1.44729250 0.00000000 -1.0233927399999985 0 0 0
Fe 4.34187750 4.09356000 -1.0233927399999985 0 0 0
Fe 4.34187750 0.00000000 -1.0233927399999985 0 0 0
Fe 1.44729250 4.09356000 -1.0233927399999985 0 0 0
Fe 4.34187750 6.14034000 -3.0701782400000006 0 0 0
Fe 1.44729250 2.04678000 -3.0701782400000006 0 0 0
Fe 1.44729250 6.14034000 -3.0701782400000006 0 0 0
Fe 4.34187750 2.04678000 -3.0701782400000006 0 0 0
Fe 1.51687832 3.97607483 2.98313104
Fe 4.48359638 8.03361150 2.94182936
Fe 4.04176693 4.28718539 3.06651859
Fe 1.21103647 0.19215171 3.10938868
Fe 4.45430318 1.43037174 1.02077872
Fe 1.67451742 5.48381485 1.03881552
Fe 1.37527523 1.76841792 1.10102944
Fe 4.18446997 5.88514747 1.15827669
Ni 0.00000000 6.14034000 -1.0233927399999985 0 0 0
Ni 2.89458500 0.00000000 -3.0701782400000006 0 0 0
Ni 0.00000000 2.04678000 -1.0233927399999985 0 0 0
Ni 2.89458500 4.09356000 -3.0701782400000006 0 0 0
Ni 5.53334658 2.22968026 3.04795898
Ni 3.09905848 3.48656692 0.98548931
Ni 0.10200518 5.97627012 2.89895927
Ni 2.69821635 7.84850072 1.06992248
C 0.64144004 0.28941469 4.78785735
O 0.31875170 0.34803447 5.90849201
