&CONTROL
calculation = 'relax'
prefix = 'scf'
pseudo_dir = '/vol0403/data/hp230205/u10028/POT_HYBRID_KKJUS_GBRV'
outdir = './data'
tprnfor = .true.
nstep = 50
disk_io = 'non'
/
&SYSTEM
ibrav = 0
ecutwfc = 50.0
ecutrho = 400
occupations = 'smearing'
smearing = 'mp'
degauss = 0.01
assume_isolated = 'esm'
esm_bc = 'bc1'
input_dft = 'BEEF-VDW'
nosym = .true.
nspin = 1
ntyp = 6
nat = 34
/
&ELECTRONS
electron_maxstep = 200
mixing_beta = 0.1
conv_thr = 1e-06
/
&IONS
ion_dynamics = 'bfgs'
upscale = 1.0
/
&CELL
/

K_POINTS {automatic}
6 6 1 0 0 0

ATOMIC_SPECIES
C 12.01 C.pbe-n-rrkjus_psl.1.0.0.UPF
In 114.8 In.pbe-dn-rrkjus_psl.1.0.0.UPF
Li 6.941 Li.pbe-sl-rrkjus_psl.1.0.0.UPF
Mg 24.30 Mg.pbe-spnl-rrkjus_psl.1.0.0.UPF
O 15.99 O.pbe-n-rrkjus_psl.1.0.0.UPF
Pt 195.0 Pt.pbe-n-rrkjus_psl.1.0.0.UPF


CELL_PARAMETERS {angstrom}
6.50521000 0.00000000 0.00000000
0.00000000 9.19976000 0.00000000
0.00000000 0.00000000 26.89980000

ATOMIC_POSITIONS {angstrom}
Li 1.62630250 0.00000000 -1.1499664499999973 0 0 0
Li 1.62630250 4.59988000 -1.1499664499999973 0 0 0
Li 4.87890750 2.29994000 -3.449899349999999 0 0 0
Li 4.87890750 6.89982000 -3.449899349999999 0 0 0
Li 1.71366747 4.60733181 3.52737077
Li 1.71366747 9.19230819 3.52737077
Li 4.79525050 6.89982000 1.21291198
Li 4.84560082 2.29994000 1.18493619
Mg 0.00000000 2.29994000 -1.1499664499999973 0 0 0
Mg 0.00000000 6.89982000 -1.1499664499999973 0 0 0
Mg 3.25260500 4.59988000 -3.449899349999999 0 0 0
Mg 3.25260500 0.00000000 -3.449899349999999 0 0 0
Mg 6.38161101 6.89982000 3.51015490
Mg 6.36729955 2.29994000 3.50800292
Mg 3.21845265 0.00616384 1.11849368
Mg 3.21845265 4.59371616 1.11849368
In 0.00000000 0.00000000 -3.449899349999999 0 0 0
In 0.00000000 4.59988000 -3.449899349999999 0 0 0
In 3.25260500 6.89982000 -1.1499664499999973 0 0 0
In 3.25260500 2.29994000 -1.1499664499999973 0 0 0
In 0.02777725 4.60484787 1.16126437
In 0.02784230 9.19479213 1.16126437
In 3.30451658 2.29994000 3.66079378
In 3.26184240 6.89982000 3.74606615
Pt 4.87890750 0.00000000 -1.1499664499999973 0 0 0
Pt 4.87890750 4.59988000 -1.1499664499999973 0 0 0
Pt 1.62630250 2.29994000 -3.449899349999999 0 0 0
Pt 1.62630250 6.89982000 -3.449899349999999 0 0 0
Pt 4.79069685 4.62793927 3.26751871
Pt 4.79069685 9.17170073 3.26751871
Pt 1.65791782 6.89982000 1.19246813
Pt 1.64308594 2.29994000 1.26079363
C 0.12672149 2.29994000 5.75978518
O 0.13758519 2.29994000 6.90410267
