&CONTROL
calculation = 'relax'
prefix = 'scf'
pseudo_dir = '/vol0004/mdt0/data/hp150275/u10028/POT_KKJUS'
outdir = './data'
tprnfor = .true.
nstep = 50
disk_io = 'non'
/
&SYSTEM
ibrav = 0
ecutwfc = 50.0
ecutrho = 400
occupations = 'smearing'
smearing = 'mp'
degauss = 0.01
assume_isolated = 'esm'
esm_bc = 'bc1'
input_dft = 'BEEF-VDW'
nosym = .true.
nspin = 1
ntyp = 3
nat = 32
/
&ELECTRONS
electron_maxstep = 200
mixing_beta = 0.1
conv_thr = 1e-06
/
&IONS
ion_dynamics = 'bfgs'
upscale = 1.0
/
&CELL
/

K_POINTS {automatic}
8 6 1 0 0 0

ATOMIC_SPECIES
Ga 69.72 Ga.pbe-dnl-rrkjus_psl.1.0.0.UPF
Li 6.941 Li.pbe-sl-rrkjus_psl.1.0.0.UPF
Pt 195.0 Pt.pbe-n-rrkjus_psl.1.0.0.UPF

CELL_PARAMETERS {angstrom}
6.22326000 0.00000000 0.00000000
0.00000000 8.80102000 0.00000000
0.00000000 0.00000000 26.60080000

ATOMIC_POSITIONS {angstrom}
Li 0.00000000 0.00000000 -3.300361259999999 0 0 0
Li 3.11163000 2.20025500 -1.10020909 0 0 0
Li 3.11163000 6.60076500 -1.10020909 0 0 0
Li 0.00000000 4.40051000 -3.300361259999999 0 0 0
Li 0.00000000 4.40051000 1.18745971
Li 3.11163000 6.60076500 3.70735350
Li 3.11163000 2.20025500 3.70761950
Li 0.00000000 0.00000000 1.18745971
Ga 1.55581500 0.00000000 -1.10020909 0 0 0
Ga 4.66744500 4.40051000 -1.10020909 0 0 0
Ga 4.66744500 0.00000000 -1.10020909 0 0 0
Ga 1.55581500 4.40051000 -1.10020909 0 0 0
Ga 4.66744500 6.60076500 -3.300361259999999 0 0 0
Ga 1.55581500 2.20025500 -3.300361259999999 0 0 0
Ga 1.55581500 6.60076500 -3.300361259999999 0 0 0
Ga 4.66744500 2.20025500 -3.300361259999999 0 0 0
Ga 1.47621950 4.40051000 3.61159062
Ga 4.74710273 0.00000000 3.61159062
Ga 4.74704050 4.40051000 3.61159062
Ga 1.47615727 0.00000000 3.61159062
Ga 4.59407276 2.20025500 1.20209015
Ga 1.62912500 6.60076500 1.20182414
Ga 1.62918724 2.20025500 1.20209015
Ga 4.59413500 6.60076500 1.20182414
Pt 0.00000000 6.60076500 -1.10020909 0 0 0
Pt 3.11163000 0.00000000 -3.300361259999999 0 0 0
Pt 0.00000000 2.20025500 -1.10020909 0 0 0
Pt 3.11163000 4.40051000 -3.300361259999999 0 0 0
Pt 0.00000000 2.20025500 3.17586951
Pt 3.11163000 4.40051000 1.01189443
Pt 0.00000000 6.60076500 3.17586951
Pt 3.11163000 0.00000000 1.01189443
