&CONTROL
calculation = 'relax'
prefix = 'scf'
pseudo_dir = '/vol0004/mdt0/data/hp150275/u10028/POT_HYBRID_KKJUS_GBRV'
outdir = './data'
tprnfor = .true.
nstep = 50
disk_io = 'non'
/
&SYSTEM
ibrav = 0
ecutwfc = 50.0
ecutrho = 400
occupations = 'smearing'
smearing = 'mp'
degauss = 0.01
assume_isolated = 'esm'
esm_bc = 'bc1'
input_dft = 'BEEF-VDW'
nosym = .true.
nspin = 2
ntyp = 4
nat = 33
starting_magnetization(1) = 0.0
starting_magnetization(2) = 0.0
starting_magnetization(3) = 0.1
starting_magnetization(4) = 0.1
/
&ELECTRONS
electron_maxstep = 300
mixing_beta = 0.1
conv_thr = 1e-06
/
&IONS
ion_dynamics = 'bfgs'
upscale = 1.0
/
&CELL
/

K_POINTS {automatic}
8 6 1 0 0 0

ATOMIC_SPECIES
Al 26.98 Al.pbe-nl-rrkjus_psl.1.0.0.UPF
C 12.01 C.pbe-n-rrkjus_psl.1.0.0.UPF
Co 58.93 co_pbe_v1.2.uspp.F.UPF
Fe 55.84 fe_pbe_v1.5.uspp.F.UPF

CELL_PARAMETERS {angstrom}
5.71826000 0.00000000 0.00000000
0.00000000 8.08683000 0.00000000
0.00000000 0.00000000 26.06510000

ATOMIC_POSITIONS {angstrom}
Al 0.00000000 0.00000000 -3.0326743799999996 0 0 0
Al 2.85913000 2.02170750 -1.010804580000002 0 0 0
Al 2.85913000 6.06512250 -1.010804580000002 0 0 0
Al 0.00000000 4.04341500 -3.0326743799999996 0 0 0
Al 0.02373078 4.03144649 1.01575695
Al 2.77610086 6.06520337 3.12989721
Al 3.13423549 2.02162663 3.17837829
Al 0.02373078 0.01196851 1.01575695
Fe 0.00000000 6.06512250 -1.010804580000002 0 0 0
Fe 2.85913000 0.00000000 -3.0326743799999996 0 0 0
Fe 0.00000000 2.02170750 -1.010804580000002 0 0 0
Fe 2.85913000 4.04341500 -3.0326743799999996 0 0 0
Fe 5.46774303 2.02186924 2.94848411
Fe 2.85947310 4.05150183 1.04025814
Fe 0.04363032 6.06496076 3.00269952
Fe 2.85947310 8.07874317 1.04025814
Co 1.42956500 0.00000000 -1.010804580000002 0 0 0
Co 4.28869500 4.04341500 -1.010804580000002 0 0 0
Co 4.28869500 0.00000000 -1.010804580000002 0 0 0
Co 1.42956500 4.04341500 -1.010804580000002 0 0 0
Co 4.28869500 6.06512250 -3.0326743799999996 0 0 0
Co 1.42956500 2.02170750 -3.0326743799999996 0 0 0
Co 1.42956500 6.06512250 -3.0326743799999996 0 0 0
Co 4.28869500 2.02170750 -3.0326743799999996 0 0 0
Co 1.44529021 3.86825426 3.05039865
Co 4.30459176 8.01032859 2.96047406
Co 4.30442022 4.11991641 2.96047406
Co 1.44517585 0.17516074 3.05039865
Co 4.25918878 2.02178837 0.93704035
Co 1.43413961 6.06504163 1.03660903
Co 1.45604054 2.02178837 1.03374187
Co 4.29143976 6.06504163 1.04077944
C 1.31125420 2.02170750 3.71010633
