&CONTROL
calculation = 'relax'
prefix = 'scf'
pseudo_dir = '/vol0403/data/hp230205/u10028/POT_HYBRID_KKJUS_GBRV'
outdir = './data'
tprnfor = .true.
nstep = 50
disk_io = 'non'
/
&SYSTEM
ibrav = 0
ecutwfc = 50.0
ecutrho = 400
occupations = 'smearing'
smearing = 'mp'
degauss = 0.01
assume_isolated = 'esm'
esm_bc = 'bc1'
input_dft = 'BEEF-VDW'
nosym = .true.
nspin = 1
ntyp = 6
nat = 34
/
&ELECTRONS
electron_maxstep = 200
mixing_beta = 0.1
conv_thr = 1e-06
/
&IONS
ion_dynamics = 'bfgs'
upscale = 1.0
/
&CELL
/

K_POINTS {automatic}
6 6 1 0 0 0

ATOMIC_SPECIES
C 12.01 C.pbe-n-rrkjus_psl.1.0.0.UPF
Ge 72.64 Ge.pbe-dn-rrkjus_psl.1.0.0.UPF
Li 6.941 Li.pbe-sl-rrkjus_psl.1.0.0.UPF
O 15.99 O.pbe-n-rrkjus_psl.1.0.0.UPF
Pd 106.4 Pd.pbe-n-rrkjus_psl.1.0.0.UPF
Sn 118.7 Sn.pbe-dn-rrkjus_psl.1.0.0.UPF


CELL_PARAMETERS {angstrom}
6.61012000 0.00000000 0.00000000
0.00000000 9.34812000 0.00000000
0.00000000 0.00000000 27.01110000

ATOMIC_POSITIONS {angstrom}
Li 4.95759000 0.00000000 -1.1685001899999996 0 0 0
Li 4.95759000 4.67406000 -1.1685001899999996 0 0 0
Li 1.65253000 2.33703000 -3.505500559999998 0 0 0
Li 1.65253000 7.01109000 -3.505500559999998 0 0 0
Li 4.70984270 4.67406000 3.75346246
Li 4.79603867 0.00000000 3.76318645
Li 1.52178183 7.00482676 1.14878208
Li 1.52178183 2.34329324 1.14878208
Sn 0.00000000 2.33703000 -1.1685001899999996 0 0 0
Sn 0.00000000 7.01109000 -1.1685001899999996 0 0 0
Sn 3.30506000 4.67406000 -3.505500559999998 0 0 0
Sn 3.30506000 0.00000000 -3.505500559999998 0 0 0
Sn 0.14099386 6.97136049 3.74616946
Sn 0.14099386 2.37675951 3.74616946
Sn 3.39555254 0.00000000 1.11933998
Sn 3.43739460 4.67406000 1.08665655
Ge 0.00000000 0.00000000 -3.505500559999998 0 0 0
Ge 0.00000000 4.67406000 -3.505500559999998 0 0 0
Ge 3.30506000 7.01109000 -1.1685001899999996 0 0 0
Ge 3.30506000 2.33703000 -1.1685001899999996 0 0 0
Ge 6.46641599 4.67406000 1.32111290
Ge 6.46238382 0.00000000 1.25358515
Ge 3.10325304 2.32599922 3.41933515
Ge 3.10325304 7.02202730 3.41933515
Pd 1.65253000 0.00000000 -1.1685001899999996 0 0 0
Pd 1.65253000 4.67406000 -1.1685001899999996 0 0 0
Pd 4.95759000 2.33703000 -3.505500559999998 0 0 0
Pd 4.95759000 7.01109000 -3.505500559999998 0 0 0
Pd 1.73462769 4.67406000 3.14004037
Pd 1.60546595 0.00000000 3.13436804
Pd 5.06070787 7.02455129 1.30841768
Pd 5.06070787 2.32366219 1.30841768
C 4.89327353 0.00000000 5.88085669
O 4.93114952 0.00000000 7.01910445
