&CONTROL
calculation = 'relax'
prefix = 'scf'
pseudo_dir = '/vol0403/data/hp230205/u10028/POT_HYBRID_KKJUS_GBRV'
outdir = './data'
tprnfor = .true.
nstep = 50
disk_io = 'non'
/
&SYSTEM
ibrav = 0
ecutwfc = 50.0
ecutrho = 400
occupations = 'smearing'
smearing = 'mp'
degauss = 0.01
assume_isolated = 'esm'
esm_bc = 'bc1'
input_dft = 'BEEF-VDW'
nosym = .true.
nspin = 1
ntyp = 6
nat = 18
/
&ELECTRONS
electron_maxstep = 200
mixing_beta = 0.1
conv_thr = 1e-06
/
&IONS
ion_dynamics = 'bfgs'
upscale = 1.0
/
&CELL
/

K_POINTS {automatic}
8 8 1 0 0 0

ATOMIC_SPECIES
C 12.01 C.pbe-n-rrkjus_psl.1.0.0.UPF
In 114.8 In.pbe-dn-rrkjus_psl.1.0.0.UPF
Li 6.941 Li.pbe-sl-rrkjus_psl.1.0.0.UPF
O 15.99 O.pbe-n-rrkjus_psl.1.0.0.UPF
Pd 106.4 Pd.pbe-n-rrkjus_psl.1.0.0.UPF
Rh 102.9 Rh.pbe-spn-rrkjus_psl.1.0.0.UPF


CELL_PARAMETERS {angstrom}
6.29773000 0.00000000 0.00000000
0.00000000 6.29773000 0.00000000
0.00000000 0.00000000 24.72330000

ATOMIC_POSITIONS {angstrom}
Li 0.00000000 3.14886500 -2.3615696199999974 0 0 0
Li 0.02739513 6.27027190 0.92316802
Li 3.12751570 3.17027728 0.93182118
Li 3.14886500 0.00000000 -2.3615696199999974 0 0 0
In 0.00000000 0.00000000 -2.3615696199999974 0 0 0
In 0.01838937 3.16763224 0.83391691
In 3.13009776 6.27927765 0.83391691
In 3.14886500 3.14886500 -2.3615696199999974 0 0 0
Pd 4.72329750 1.57443250 -0.7871898699999988 0 0 0
Pd 4.72392727 4.72480896 2.38332612
Pd 1.57298402 1.57380273 2.38332612
Pd 1.57443250 4.72329750 -0.7871898699999988 0 0 0
Rh 1.57443250 1.57443250 -0.7871898699999988 0 0 0
Rh 1.57525120 4.72247880 2.33017102
Rh 4.72632041 1.57140959 2.33214889
Rh 4.72329750 4.72329750 -0.7871898699999988 0 0 0
C 4.72852462 1.56920538 4.18169896
O 4.72701316 1.57071684 5.33949110
