&CONTROL
calculation = 'relax'
prefix = 'scf'
pseudo_dir = '/vol0403/data/hp230205/u10028/POT_HYBRID_KKJUS_GBRV'
outdir = './data'
tprnfor = .true.
nstep = 50
disk_io = 'non'
/
&SYSTEM
ibrav = 0
ecutwfc = 50.0
ecutrho = 400
occupations = 'smearing'
smearing = 'mp'
degauss = 0.01
assume_isolated = 'esm'
esm_bc = 'bc1'
input_dft = 'BEEF-VDW'
nosym = .true.
nspin = 1
ntyp = 5
nat = 33
/
&ELECTRONS
electron_maxstep = 200
mixing_beta = 0.1
conv_thr = 1e-06
/
&IONS
ion_dynamics = 'bfgs'
upscale = 1.0
/
&CELL
/

K_POINTS {automatic}
6 6 1 0 0 0

ATOMIC_SPECIES
C 12.01 C.pbe-n-rrkjus_psl.1.0.0.UPF
Li 6.941 Li.pbe-sl-rrkjus_psl.1.0.0.UPF
Pd 106.4 Pd.pbe-n-rrkjus_psl.1.0.0.UPF
Sn 118.7 Sn.pbe-dn-rrkjus_psl.1.0.0.UPF
Y 88.90 Y.pbe-spn-rrkjus_psl.1.0.0.UPF


CELL_PARAMETERS {angstrom}
6.77715000 0.00000000 0.00000000
0.00000000 9.58434000 0.00000000
0.00000000 0.00000000 27.18830000

ATOMIC_POSITIONS {angstrom}
Li 0.00000000 0.00000000 -3.594021380000001 0 0 0
Li 0.00000000 4.79217000 -3.594021380000001 0 0 0
Li 3.38857500 7.18825500 -1.1979165000000016 0 0 0
Li 3.38857500 2.39608500 -1.1979165000000016 0 0 0
Li 6.74102779 4.79130741 1.21096688
Li 6.74102779 0.00086259 1.21096688
Li 3.58226595 2.39608500 5.21417217
Li 4.73783779 7.18835084 5.04669225
Y 1.69428750 0.00000000 -1.1979165000000016 0 0 0
Y 1.69428750 4.79217000 -1.1979165000000016 0 0 0
Y 5.08286250 2.39608500 -3.594021380000001 0 0 0
Y 5.08286250 7.18825500 -3.594021380000001 0 0 0
Y 1.83301576 4.82082718 3.53257582
Y 1.83301576 9.55568282 3.53257582
Y 5.02715433 7.18825500 1.30639782
Y 5.02390129 2.39608500 1.30313522
Sn 5.08286250 0.00000000 -1.1979165000000016 0 0 0
Sn 5.08286250 4.79217000 -1.1979165000000016 0 0 0
Sn 1.69428750 2.39608500 -3.594021380000001 0 0 0
Sn 1.69428750 7.18825500 -3.594021380000001 0 0 0
Sn 5.06585185 4.67744545 3.71555308
Sn 5.06571631 0.11472455 3.71528120
Sn 1.72614010 7.18825500 1.18812871
Sn 1.72885096 2.39608500 1.16746560
Pd 0.00000000 2.39608500 -1.1979165000000016 0 0 0
Pd 0.00000000 7.18825500 -1.1979165000000016 0 0 0
Pd 3.38857500 4.79217000 -3.594021380000001 0 0 0
Pd 3.38857500 0.00000000 -3.594021380000001 0 0 0
Pd 0.04940542 7.18835084 3.43524171
Pd 0.29677140 2.39608500 3.57308639
Pd 3.41371823 9.57341385 1.14789003
Pd 3.41378600 4.80309615 1.14789003
C 5.49206682 2.39608500 4.71254804
