&CONTROL
calculation = 'relax'
prefix = 'scf'
pseudo_dir = '/vol0004/mdt0/data/hp150275/u10028/POT_KKJUS'
outdir = './data'
tprnfor = .true.
nstep = 50
disk_io = 'non'
/
&SYSTEM
ibrav = 0
ecutwfc = 50.0
ecutrho = 400
occupations = 'smearing'
smearing = 'mp'
degauss = 0.01
assume_isolated = 'esm'
esm_bc = 'bc1'
input_dft = 'BEEF-VDW'
nosym = .true.
nspin = 1
ntyp = 4
nat = 18
/
&ELECTRONS
electron_maxstep = 200
mixing_beta = 0.1
conv_thr = 1e-06
/
&IONS
ion_dynamics = 'bfgs'
upscale = 1.0
/
&CELL
/

K_POINTS {automatic}
8 8 1 0 0 0

ATOMIC_SPECIES
Be 9.012 Be.pbe-n-rrkjus_psl.1.0.0.UPF
C 12.01 C.pbe-n-rrkjus_psl.1.0.0.UPF
O 15.99 O.pbe-n-rrkjus_psl.1.0.0.UPF
Ti 47.86 Ti.pbe-spn-rrkjus_psl.1.0.0.UPF

CELL_PARAMETERS {angstrom}
5.87849000 0.00000000 0.00000000
0.00000000 5.87849000 0.00000000
0.00000000 0.00000000 24.40890000

ATOMIC_POSITIONS {angstrom}
Ti 0.00000000 0.00000000 -2.706458829999999 0 0 0
Ti 0.03192020 0.03180263 0.34709456
Ti 0.00000000 2.93924500 -2.706458829999999 0 0 0
Ti 0.03221413 2.90656060 0.35246452
Ti 2.93924500 0.00000000 -2.706458829999999 0 0 0
Ti 2.91055797 0.03115600 0.33635464
Ti 2.93924500 2.93924500 -2.706458829999999 0 0 0
Ti 2.90979377 2.90614910 0.34196869
Be 1.46962250 1.46962250 -1.236798959999998 0 0 0
Be 1.52088293 1.42441691 2.00055344
Be 1.46962250 4.40886750 -1.236798959999998 0 0 0
Be 1.49936766 4.43743696 1.74718906
Be 4.40886750 1.46962250 -1.236798959999998 0 0 0
Be 4.37594796 1.45686618 1.75133857
Be 4.40886750 4.40886750 -1.236798959999998 0 0 0
Be 4.38323728 4.41768524 1.69031633
C 1.47173876 1.47697061 3.68672026
O 1.44040640 1.50894960 4.83564718
