&CONTROL
calculation = 'relax'
prefix = 'scf'
pseudo_dir = '/vol0004/mdt0/data/hp150275/u10028/POT_HYBRID_KKJUS_GBRV'
outdir = './data'
tprnfor = .true.
nstep = 50
disk_io = 'non'
/
&SYSTEM
ibrav = 0
ecutwfc = 50.0
ecutrho = 400
occupations = 'smearing'
smearing = 'mp'
degauss = 0.01
assume_isolated = 'esm'
esm_bc = 'bc1'
input_dft = 'BEEF-VDW'
nosym = .true.
nspin = 2
ntyp = 4
nat = 33
starting_magnetization(1) = 0.0
starting_magnetization(2) = 0.0
starting_magnetization(3) = 0.0
starting_magnetization(4) = 0.001
/
&ELECTRONS
electron_maxstep = 200
mixing_beta = 0.1
conv_thr = 1e-06
/
&IONS
ion_dynamics = 'bfgs'
upscale = 1.0
/
&CELL
/

K_POINTS {automatic}
9 6 2 0  0  0

ATOMIC_SPECIES
C 12.01 C.pbe-n-rrkjus_psl.1.0.0.UPF
Ga 69.72 Ga.pbe-dnl-rrkjus_psl.1.0.0.UPF
Hf 178.4 Hf.pbe-spn-rrkjus_psl.1.0.0.UPF
Ni 58.69 ni_pbe_v1.4.uspp.F.UPF

CELL_PARAMETERS {angstrom}
6.08368000 0.00000000 0.00000000
0.00000000 8.60362000 0.00000000
0.00000000 0.00000000 26.45270000

ATOMIC_POSITIONS {angstrom}
Hf 0.00000000 0.00000000 23.22626418
Hf 3.04184000 2.15090500 25.37713322
Hf 3.04184000 6.45271500 25.37713322
Hf 0.00000000 4.30181000 23.22626418
Hf 0.00000000 4.30172396 1.05757895
Hf 3.04184000 6.36788331 3.27537331
Hf 3.04184000 2.23590877 3.27590237
Hf 0.00000000 0.00000000 1.13667252
Ga 0.00000000 6.45271500 25.37713322
Ga 3.04184000 0.00000000 23.22626418
Ga 0.00000000 2.15090500 25.37713322
Ga 3.04184000 4.30181000 23.22626418
Ga 0.00000000 2.17602757 3.28039933
Ga 3.04184000 4.30129378 1.09090935
Ga 0.00000000 6.42759243 3.28066385
Ga 3.04184000 0.00043018 1.06604381
Ni 1.52092000 0.00000000 25.37713322
Ni 4.56276000 4.30181000 25.37713322
Ni 4.56276000 0.00000000 25.37713322
Ni 1.52092000 4.30181000 25.37713322
Ni 4.56276000 6.45271500 23.22626418
Ni 1.52092000 2.15090500 23.22626418
Ni 1.52092000 6.45271500 23.22626418
Ni 4.56276000 2.15090500 23.22626418
Ni 1.42102597 4.30172396 3.16797535
Ni 4.31132151 0.00000000 3.26108886
Ni 4.66265403 4.30172396 3.16797535
Ni 1.77235849 0.00000000 3.26108886
Ni 4.48689651 2.17284423 1.11683299
Ni 1.59623596 6.43068973 1.11709752
Ni 1.59678349 2.17284423 1.11683299
Ni 4.48744404 6.43077577 1.11709752
C 0.00000000 0.00000000 3.50895065
