&CONTROL
calculation = 'relax'
prefix = 'scf'
pseudo_dir = '/vol0403/data/hp230205/u10028/POT_HYBRID_KKJUS_GBRV'
outdir = './data'
tprnfor = .true.
nstep = 50
disk_io = 'non'
/
&SYSTEM
ibrav = 0
ecutwfc = 50.0
ecutrho = 400
occupations = 'smearing'
smearing = 'mp'
degauss = 0.01
assume_isolated = 'esm'
esm_bc = 'bc1'
input_dft = 'BEEF-VDW'
nosym = .true.
nspin = 1
ntyp = 5
nat = 17
/
&ELECTRONS
electron_maxstep = 200
mixing_beta = 0.1
conv_thr = 1e-06
/
&IONS
ion_dynamics = 'bfgs'
upscale = 1.0
/
&CELL
/

K_POINTS {automatic}
8 8 1 0 0 0

ATOMIC_SPECIES
Al 26.98 Al.pbe-nl-rrkjus_psl.1.0.0.UPF
C 12.01 C.pbe-n-rrkjus_psl.1.0.0.UPF
Li 6.941 Li.pbe-sl-rrkjus_psl.1.0.0.UPF
Nb 92.90 Nb.pbe-spn-rrkjus_psl.1.0.0.UPF
Pd 106.4 Pd.pbe-n-rrkjus_psl.1.0.0.UPF


CELL_PARAMETERS {angstrom}
6.26744000 0.00000000 0.00000000
0.00000000 6.26744000 0.00000000
0.00000000 0.00000000 24.70060000

ATOMIC_POSITIONS {angstrom}
Li 1.56648395 1.56617058 0.85562878
Li 1.56686000 4.70058000 -2.350262090000001 0 0 0
Li 4.70058000 1.56686000 -2.350262090000001 0 0 0
Li 4.70126942 4.70089337 0.85562878
Nb 6.19091456 3.05581572 2.48092826
Nb 0.00000000 0.00000000 -0.7835030300000021 0 0 0
Nb 3.13372000 3.13372000 -0.7835030300000021 0 0 0
Nb 3.21162428 0.07652544 2.48068126
Al 6.18865828 0.07878172 2.40559143
Al 0.00000000 3.13372000 -0.7835030300000021 0 0 0
Al 3.13372000 0.00000000 -0.7835030300000021 0 0 0
Al 3.21519672 3.05224328 2.40386239
Pd 4.70095605 1.56654663 0.55971560
Pd 4.70058000 4.70058000 -2.350262090000001 0 0 0
Pd 1.56686000 1.56686000 -2.350262090000001 0 0 0
Pd 1.56660930 4.70076802 0.81141471
C 4.70296163 1.56441570 2.77165433
