&CONTROL
calculation = 'relax'
prefix = 'scf'
pseudo_dir = '/vol0403/data/hp230205/u10028/POT_HYBRID_KKJUS_GBRV'
outdir = './data'
tprnfor = .true.
nstep = 50
disk_io = 'non'
/
&SYSTEM
ibrav = 0
ecutwfc = 50.0
ecutrho = 400
occupations = 'smearing'
smearing = 'mp'
degauss = 0.01
assume_isolated = 'esm'
esm_bc = 'bc1'
input_dft = 'BEEF-VDW'
nosym = .true.
nspin = 1
ntyp = 5
nat = 17
/
&ELECTRONS
electron_maxstep = 200
mixing_beta = 0.1
conv_thr = 1e-06
/
&IONS
ion_dynamics = 'bfgs'
upscale = 1.0
/
&CELL
/

K_POINTS {automatic}
6 6 1 0 0 0

ATOMIC_SPECIES
Al 26.98 Al.pbe-nl-rrkjus_psl.1.0.0.UPF
C 12.01 C.pbe-n-rrkjus_psl.1.0.0.UPF
Cu 63.54 Cu.pbe-dn-rrkjus_psl.1.0.0.UPF
Ge 72.64 Ge.pbe-dn-rrkjus_psl.1.0.0.UPF
Li 6.941 Li.pbe-sl-rrkjus_psl.1.0.0.UPF


CELL_PARAMETERS {angstrom}
5.44163000 0.00000000 0.00000000
0.00000000 7.78580000 0.00000000
0.00000000 0.00000000 24.08040000

ATOMIC_POSITIONS {angstrom}
Li 4.07746778 1.94645000 0.38697203
Li 1.27671523 1.94645000 -2.040091490000002 0 0 0
Li 4.00961065 5.83935000 1.12455468
Li 1.27671523 5.83935000 -2.040091490000002 0 0 0
Al 0.05866077 0.46683657 2.11425912
Al 2.66503829 0.00000000 -0.6800305000000009 0 0 0
Al 0.05871519 3.42606343 2.11425912
Al 2.66503829 3.89290000 -0.6800305000000009 0 0 0
Cu 1.40459354 1.94645000 0.43778167
Cu 3.99753023 1.94645000 -2.040091490000002 0 0 0
Cu 1.20417830 5.83935000 0.66100698
Cu 3.99753023 5.83935000 -2.040091490000002 0 0 0
Ge 2.72293724 0.41513886 2.12437289
Ge 5.38585329 0.00000000 -0.6800305000000009 0 0 0
Ge 2.72293724 3.47776114 2.12437289
Ge 5.38585329 3.89290000 -0.6800305000000009 0 0 0
C 4.15261669 1.94645000 2.51254894
