&CONTROL
calculation = 'relax'
prefix = 'scf'
pseudo_dir = '/vol0403/data/hp230205/u10028/POT_HYBRID_KKJUS_GBRV'
outdir = './data'
tprnfor = .true.
nstep = 50
disk_io = 'non'
/
&SYSTEM
ibrav = 0
ecutwfc = 50.0
ecutrho = 400
occupations = 'smearing'
smearing = 'mp'
degauss = 0.01
assume_isolated = 'esm'
esm_bc = 'bc1'
input_dft = 'BEEF-VDW'
nosym = .true.
nspin = 2
ntyp = 5
nat = 17
starting_magnetization(1) = 0.0
starting_magnetization(2) = 0.0
starting_magnetization(3) = 0.1
starting_magnetization(4) = 0.0
starting_magnetization(5) = 0.0
/
&ELECTRONS
electron_maxstep = 400
mixing_beta = 0.05
conv_thr = 1e-06
/
&IONS
ion_dynamics = 'bfgs'
upscale = 1.0
/
&CELL
/

K_POINTS {automatic}
6 6 1 0 0 0

ATOMIC_SPECIES
Al 26.98 Al.pbe-nl-rrkjus_psl.1.0.0.UPF
C 12.01 C.pbe-n-rrkjus_psl.1.0.0.UPF
Fe 55.84 fe_pbe_v1.5.uspp.F.UPF
Li 6.941 Li.pbe-sl-rrkjus_psl.1.0.0.UPF
Pd 106.4 Pd.pbe-n-rrkjus_psl.1.0.0.UPF


CELL_PARAMETERS {angstrom}
5.25393000 0.00000000 0.00000000
0.00000000 8.60712000 0.00000000
0.00000000 0.00000000 23.58290000

ATOMIC_POSITIONS {angstrom}
Li 3.39372354 2.15178000 -0.5971190299999982 0 0 0
Li 5.01104082 2.13103684 1.95572990
Li 3.39372354 6.45534000 -0.5971190299999982 0 0 0
Li 5.01125097 6.47616923 1.95596573
Al 0.00000000 0.00000000 -1.7913570799999974 0 0 0
Al 1.37821092 0.00017214 0.32214241
Al 0.00000000 4.30356000 -1.7913570799999974 0 0 0
Al 1.62325421 4.30330179 0.62541851
Fe 0.76675854 2.15178000 -0.5971190299999982 0 0 0
Fe 2.32906717 1.74638465 1.50458902
Fe 0.76675854 6.45534000 -0.5971190299999982 0 0 0
Fe 2.32864685 6.86013285 1.50388153
Pd 2.62696500 0.00000000 -1.7913570799999974 0 0 0
Pd 4.21580597 8.60694786 0.58556341
Pd 2.62696500 4.30356000 -1.7913570799999974 0 0 0
Pd 4.23818771 4.30381821 0.62471102
C 2.49335756 8.60668964 1.98096360
