&CONTROL
calculation = 'relax'
prefix = 'scf'
pseudo_dir = '/vol0403/data/hp230205/u10028/POT_HYBRID_KKJUS_GBRV'
outdir = './data'
tprnfor = .true.
nstep = 50
disk_io = 'non'
/
&SYSTEM
ibrav = 0
ecutwfc = 50.0
ecutrho = 400
occupations = 'smearing'
smearing = 'mp'
degauss = 0.01
assume_isolated = 'esm'
esm_bc = 'bc1'
input_dft = 'BEEF-VDW'
nosym = .true.
nspin = 1
ntyp = 6
nat = 18
/
&ELECTRONS
electron_maxstep = 200
mixing_beta = 0.1
conv_thr = 1e-06
/
&IONS
ion_dynamics = 'bfgs'
upscale = 1.0
/
&CELL
/

K_POINTS {automatic}
11 7 2 0  0  0

ATOMIC_SPECIES
C 12.01 C.pbe-n-rrkjus_psl.1.0.0.UPF
Ga 69.72 Ga.pbe-dnl-rrkjus_psl.1.0.0.UPF
Ge 72.64 Ge.pbe-dn-rrkjus_psl.1.0.0.UPF
Li 6.941 Li.pbe-sl-rrkjus_psl.1.0.0.UPF
O 15.99 O.pbe-n-rrkjus_psl.1.0.0.UPF
Sc 44.95 Sc.pbe-spn-rrkjus_psl.1.0.0.UPF


CELL_PARAMETERS {angstrom}
5.66960000 0.00000000 0.00000000
0.00000000 8.37322000 0.00000000
0.00000000 0.00000000 24.25170000

ATOMIC_POSITIONS {angstrom}
Li 3.14906593 0.00000000 2.49210469
Li 5.62764496 0.00000000 -0.7086346699999986 0 0 0
Li 3.13999457 4.18669373 2.36454075
Li 5.62764496 4.18661000 -0.7086346699999986 0 0 0
Sc 1.60177539 2.08736001 0.73434148
Sc 4.18926744 2.09330500 -2.12590402 0 0 0
Sc 1.60200218 6.28585999 0.73434148
Sc 4.18926744 6.27991500 -2.12590402 0 0 0
Ga 0.26975957 8.37313627 2.05533158
Ga 2.79284496 0.00000000 -0.7086346699999986 0 0 0
Ga 0.30604501 4.18669373 2.06163702
Ga 2.79284496 4.18661000 -0.7086346699999986 0 0 0
Ge 4.46078458 2.09564950 1.10587752
Ge 1.35446744 2.09330500 -2.12590402 0 0 0
Ge 4.46084128 6.27757050 1.10563500
Ge 1.35446744 6.27991500 -2.12590402 0 0 0
C 3.02648918 0.00000000 4.60612538
O 2.84205709 0.00000000 5.73067671
