&CONTROL
calculation = 'relax'
prefix = 'scf'
pseudo_dir = '/vol0004/mdt0/data/hp150275/u10028/POT_KKJUS'
outdir = './data'
tprnfor = .true.
nstep = 50
disk_io = 'non'
/
&SYSTEM
ibrav = 0
ecutwfc = 50.0
ecutrho = 400
occupations = 'smearing'
smearing = 'mp'
degauss = 0.01
assume_isolated = 'esm'
esm_bc = 'bc1'
input_dft = 'BEEF-VDW'
nosym = .true.
nspin = 1
ntyp = 5
nat = 18
/
&ELECTRONS
electron_maxstep = 200
mixing_beta = 0.1
conv_thr = 1e-06
/
&IONS
ion_dynamics = 'bfgs'
upscale = 1.0
/
&CELL
/

K_POINTS {automatic}
9 9 2 0  0  0

ATOMIC_SPECIES
Al 26.98 Al.pbe-nl-rrkjus_psl.1.0.0.UPF
C 12.01 C.pbe-n-rrkjus_psl.1.0.0.UPF
Hf 178.4 Hf.pbe-spn-rrkjus_psl.1.0.0.UPF
O 15.99 O.pbe-n-rrkjus_psl.1.0.0.UPF
Pd 106.4 Pd.pbe-n-rrkjus_psl.1.0.0.UPF

CELL_PARAMETERS {angstrom}
6.44324000 0.00000000 0.00000000
-0.00000000 6.44324000 0.00000000
0.00000000 0.00000000 24.83240000

ATOMIC_POSITIONS {angstrom}
Hf 0.00000000 0.00000000 2.41619252
Hf 3.22162000 3.22162000 2.41619252
Hf 3.22162000 0.00000000 -0.8053147299999992 0 0 0
Hf 0.00000000 3.22162000 -0.8053147299999992 0 0 0
Al 0.00000000 0.00000000 -0.8053147299999992 0 0 0
Al 3.22162000 -0.00000000 2.41619252
Al 0.00000000 3.22162000 2.41619252
Al 3.22162000 3.22162000 -0.8053147299999992 0 0 0
Pd 1.61081000 1.61081000 0.80531473
Pd 4.83243000 4.83243000 -2.416192519999999 0 0 0
Pd 4.83243000 1.61081000 0.80531473
Pd 1.61081000 4.83243000 -2.416192519999999 0 0 0
Pd 4.83243000 4.83243000 0.80531473
Pd 1.61081000 1.61081000 -2.416192519999999 0 0 0
Pd 1.61081000 4.83243000 0.80531473
Pd 4.83243000 1.61081000 -2.416192519999999 0 0 0
C 0.00000000 3.22162000 4.31611944
O 0.00000000 3.22162000 5.46610789
