&CONTROL
calculation = 'relax'
prefix = 'scf'
pseudo_dir = '/vol0403/data/hp230205/u10028/POT_HYBRID_KKJUS_GBRV'
outdir = './data'
tprnfor = .true.
nstep = 50
disk_io = 'non'
/
&SYSTEM
ibrav = 0
ecutwfc = 50.0
ecutrho = 400
occupations = 'smearing'
smearing = 'mp'
degauss = 0.01
assume_isolated = 'esm'
esm_bc = 'bc1'
input_dft = 'BEEF-VDW'
nosym = .true.
nspin = 1
ntyp = 6
nat = 18
/
&ELECTRONS
electron_maxstep = 200
mixing_beta = 0.1
conv_thr = 1e-06
/
&IONS
ion_dynamics = 'bfgs'
upscale = 1.0
/
&CELL
/

K_POINTS {automatic}
6 6 1 0 0 0

ATOMIC_SPECIES
C 12.01 C.pbe-n-rrkjus_psl.1.0.0.UPF
In 114.8 In.pbe-dn-rrkjus_psl.1.0.0.UPF
Li 6.941 Li.pbe-sl-rrkjus_psl.1.0.0.UPF
O 15.99 O.pbe-n-rrkjus_psl.1.0.0.UPF
Sn 118.7 Sn.pbe-dn-rrkjus_psl.1.0.0.UPF
Y 88.90 Y.pbe-spn-rrkjus_psl.1.0.0.UPF


CELL_PARAMETERS {angstrom}
6.44949000 0.00000000 0.00000000
0.00000000 9.04200000 0.00000000
0.00000000 0.00000000 24.82990000

ATOMIC_POSITIONS {angstrom}
Li 1.52440146 2.26050000 -0.8049853599999999 0 0 0
Li 4.17410993 2.28292416 2.27814332
Li 1.52440146 6.78150000 -0.8049853599999999 0 0 0
Li 4.35243833 6.75672492 2.69727204
Y 3.22474500 0.00000000 -2.414956069999999 0 0 0
Y 6.05781247 8.98810968 0.91572671
Y 3.22474500 4.52100000 -2.414956069999999 0 0 0
Y 6.03091810 4.55599254 0.92863826
In 0.00000000 0.00000000 -2.414956069999999 0 0 0
In 2.91742680 0.00090420 1.15657674
In 0.00000000 4.52100000 -2.414956069999999 0 0 0
In 2.86325109 4.55346078 1.09698498
Sn 4.74914646 2.26050000 -0.8049853599999999 0 0 0
Sn 0.97297006 2.25896286 2.19769445
Sn 4.74914646 6.78150000 -0.8049853599999999 0 0 0
Sn 1.21437447 6.78855276 2.38391870
C 2.98753276 2.26565394 3.94969219
O 2.78888847 2.21158278 5.09037780
