&CONTROL
calculation = 'relax'
prefix = 'scf'
pseudo_dir = '/vol0004/mdt0/data/hp150275/u10028/POT_KKJUS'
outdir = './data'
tprnfor = .true.
nstep = 50
disk_io = 'non'
/
&SYSTEM
ibrav = 0
ecutwfc = 50.0
ecutrho = 400
occupations = 'smearing'
smearing = 'mp'
degauss = 0.01
assume_isolated = 'esm'
esm_bc = 'bc1'
input_dft = 'BEEF-VDW'
nosym = .true.
nspin = 1
ntyp = 3
nat = 17
/
&ELECTRONS
electron_maxstep = 200
mixing_beta = 0.1
conv_thr = 1e-06
/
&IONS
ion_dynamics = 'bfgs'
upscale = 1.0
/
&CELL
/

K_POINTS {automatic}
6 8 1 0 0 0

ATOMIC_SPECIES
C 12.01 C.pbe-n-rrkjus_psl.1.0.0.UPF
Hf 178.4 Hf.pbe-spn-rrkjus_psl.1.0.0.UPF
Rh 102.9 Rh.pbe-spn-rrkjus_psl.1.0.0.UPF

CELL_PARAMETERS {angstrom}
7.89713000 0.00000000 0.00000000
0.00000000 5.58411000 0.00000000
0.00000000 0.00000000 24.18810000

ATOMIC_POSITIONS {angstrom}
Hf 7.79036080 0.00089346 1.84458451
Hf 0.00000000 2.79205500 -0.6980685700000002 0 0 0
Hf 4.05533420 0.00089346 1.84458451
Hf 3.94856500 2.79205500 -0.6980685700000002 0 0 0
Rh 0.02321756 2.79205500 2.08888432
Rh 1.97428250 4.21527712 0.73725329
Rh 1.97428250 1.37073148 0.73870457
Rh 0.00000000 0.00000000 -0.6980685700000002 0 0 0
Rh 1.97428250 1.39602750 -2.093963819999999 0 0 0
Rh 1.97428250 4.18808250 -2.093963819999999 0 0 0
Rh 3.92534744 2.79205500 2.08888432
Rh 5.92284750 4.17149769 0.73918834
Rh 5.92284750 1.41551604 0.74015586
Rh 3.94856500 0.00000000 -0.6980685700000002 0 0 0
Rh 5.92284750 1.39602750 -2.093963819999999 0 0 0
Rh 5.92284750 4.18808250 -2.093963819999999 0 0 0
C 1.97428250 2.79395360 2.15830416
