&CONTROL
calculation = 'relax'
prefix = 'scf'
pseudo_dir = '/vol0004/mdt0/data/hp150275/u10028/POT_KKJUS'
outdir = './data'
tprnfor = .true.
nstep = 50
disk_io = 'non'
/
&SYSTEM
ibrav = 0
ecutwfc = 50.0
ecutrho = 400
occupations = 'smearing'
smearing = 'mp'
degauss = 0.01
assume_isolated = 'esm'
esm_bc = 'bc1'
input_dft = 'BEEF-VDW'
nosym = .true.
nspin = 1
ntyp = 3
nat = 16
/
&ELECTRONS
electron_maxstep = 200
mixing_beta = 0.1
conv_thr = 1e-06
/
&IONS
ion_dynamics = 'bfgs'
upscale = 1.0
/
&CELL
/

K_POINTS {automatic}
8 8 1 0 0 0

ATOMIC_SPECIES
Ge 72.64 Ge.pbe-dn-rrkjus_psl.1.0.0.UPF
Li 6.941 Li.pbe-sl-rrkjus_psl.1.0.0.UPF
Ni 58.69 Ni.pbe-spn-rrkjus_psl.1.0.0.UPF

CELL_PARAMETERS {angstrom}
5.73354000 0.00000000 0.00000000
-0.00000000 5.73354000 0.00000000
0.00000000 0.00000000 24.30020000

ATOMIC_POSITIONS {angstrom}
Li 0.00000000 0.00000000 2.15008170
Li 2.86677000 2.86677000 2.15008170
Li 2.86677000 0.00000000 -0.7166129000000012 0 0 0
Li 0.00000000 2.86677000 -0.7166129000000012 0 0 0
Ni 1.43338500 1.43338500 0.71661290
Ni 4.30015500 4.30015500 -2.150081700000001 0 0 0
Ni 4.30015500 1.43338500 0.71661290
Ni 1.43338500 4.30015500 -2.150081700000001 0 0 0
Ni 4.30015500 4.30015500 0.71661290
Ni 1.43338500 1.43338500 -2.150081700000001 0 0 0
Ni 1.43338500 4.30015500 0.71661290
Ni 4.30015500 1.43338500 -2.150081700000001 0 0 0
Ge 0.00000000 0.00000000 -0.7166129000000012 0 0 0
Ge 2.86677000 -0.00000000 2.15008170
Ge 0.00000000 2.86677000 2.15008170
Ge 2.86677000 2.86677000 -0.7166129000000012 0 0 0
