&CONTROL
calculation = 'relax'
prefix = 'scf'
pseudo_dir = '/vol0004/mdt0/data/hp150275/u10028/POT_KKJUS'
outdir = './data'
tprnfor = .true.
nstep = 50
disk_io = 'non'
/
&SYSTEM
ibrav = 0
ecutwfc = 50.0
ecutrho = 400
occupations = 'smearing'
smearing = 'mp'
degauss = 0.01
assume_isolated = 'esm'
esm_bc = 'bc1'
input_dft = 'BEEF-VDW'
nosym = .true.
nspin = 1
ntyp = 4
nat = 34
/
&ELECTRONS
electron_maxstep = 200
mixing_beta = 0.1
conv_thr = 1e-06
/
&IONS
ion_dynamics = 'bfgs'
upscale = 1.0
/
&CELL
/

K_POINTS {automatic}
8 8 1 0 0 0

ATOMIC_SPECIES
C 12.01 C.pbe-n-rrkjus_psl.1.0.0.UPF
Ca 40.07 Ca.pbe-spn-rrkjus_psl.1.0.0.UPF
O 15.99 O.pbe-n-rrkjus_psl.1.0.0.UPF
Sn 118.7 Sn.pbe-dn-rrkjus_psl.1.0.0.UPF

CELL_PARAMETERS {angstrom}
9.62927000 0.00000000 0.00000000
-0.00000000 9.62927000 0.00000000
0.00000000 0.00000000 27.22200000

ATOMIC_POSITIONS {angstrom}
Ca 0.00000000 0.00000000 3.61099830
Ca 0.00000000 0.00000000 -1.2037568400000005 0 0 0
Ca 0.00000000 4.81463500 3.61099830
Ca 0.00000000 4.81463500 -1.2037568400000005 0 0 0
Ca 4.81463500 -0.00000000 3.61099830
Ca 4.81463500 0.00000000 -1.2037568400000005 0 0 0
Ca 4.81463500 4.81463500 3.61099830
Ca 4.81463500 4.81463500 -1.2037568400000005 0 0 0
Sn 0.00000000 2.40731750 1.20375684
Sn 2.40731750 -0.00000000 1.20375684
Sn 2.40731750 2.40731750 3.61099830
Sn 0.00000000 2.40731750 -3.610998300000002 0 0 0
Sn 2.40731750 0.00000000 -3.610998300000002 0 0 0
Sn 2.40731750 2.40731750 -1.2037568400000005 0 0 0
Sn 0.00000000 7.22195250 1.20375684
Sn 2.40731750 4.81463500 1.20375684
Sn 2.40731750 7.22195250 3.61099830
Sn 0.00000000 7.22195250 -3.610998300000002 0 0 0
Sn 2.40731750 4.81463500 -3.610998300000002 0 0 0
Sn 2.40731750 7.22195250 -1.2037568400000005 0 0 0
Sn 4.81463500 2.40731750 1.20375684
Sn 7.22195250 -0.00000000 1.20375684
Sn 7.22195250 2.40731750 3.61099830
Sn 4.81463500 2.40731750 -3.610998300000002 0 0 0
Sn 7.22195250 0.00000000 -3.610998300000002 0 0 0
Sn 7.22195250 2.40731750 -1.2037568400000005 0 0 0
Sn 4.81463500 7.22195250 1.20375684
Sn 7.22195250 4.81463500 1.20375684
Sn 7.22195250 7.22195250 3.61099830
Sn 4.81463500 7.22195250 -3.610998300000002 0 0 0
Sn 7.22195250 4.81463500 -3.610998300000002 0 0 0
Sn 7.22195250 7.22195250 -1.2037568400000005 0 0 0
C 2.40731750 2.40731750 5.51109390
O 2.40731750 2.40731750 6.66095118
