&CONTROL
calculation = 'relax'
prefix = 'scf'
pseudo_dir = '/vol0403/data/hp230205/u10028/POT_HYBRID_KKJUS_GBRV'
outdir = './data'
tprnfor = .true.
nstep = 70
disk_io = 'non'
/
&SYSTEM
ibrav = 0
ecutwfc = 50.0
ecutrho = 400
occupations = 'smearing'
smearing = 'mp'
degauss = 0.01
assume_isolated = 'esm'
esm_bc = 'bc1'
input_dft = 'BEEF-VDW'
nosym = .true.
nspin = 1
ntyp = 6
nat = 34
/
&ELECTRONS
electron_maxstep = 200
mixing_beta = 0.1
conv_thr = 1e-06
/
&IONS
ion_dynamics = 'bfgs'
upscale = 1.0
/
&CELL
/

K_POINTS {automatic}
9 6 2 0  0  0

ATOMIC_SPECIES
C 12.01 C.pbe-n-rrkjus_psl.1.0.0.UPF
Cu 63.54 Cu.pbe-dn-rrkjus_psl.1.0.0.UPF
Ga 69.72 Ga.pbe-dnl-rrkjus_psl.1.0.0.UPF
O 15.99 O.pbe-n-rrkjus_psl.1.0.0.UPF
Pd 106.4 Pd.pbe-n-rrkjus_psl.1.0.0.UPF
Y 88.90 Y.pbe-spn-rrkjus_psl.1.0.0.UPF


CELL_PARAMETERS {angstrom}
6.59466000 0.00000000 0.00000000
-0.00000000 9.32626000 0.00000000
0.00000000 0.00000000 26.99470000

ATOMIC_POSITIONS {angstrom}
Y 4.94599500 0.00000000 -1.165901090000002 0 0 0
Y 4.94599500 4.66313000 -1.165901090000002 0 0 0
Y 1.64866500 2.33156500 -3.4974333300000033 0 0 0
Y 1.64866500 6.99469500 -3.4974333300000033 0 0 0
Y 4.15496553 4.66313000 3.65211296
Y 4.12034357 0.00009326 3.66291084
Y 1.49843865 6.99721309 1.32678951
Y 1.49837270 2.32895365 1.32678951
Ga 1.64866500 0.00000000 -1.165901090000002 0 0 0
Ga 1.64866500 4.66313000 -1.165901090000002 0 0 0
Ga 4.94599500 2.33156500 -3.4974333300000033 0 0 0
Ga 4.94599500 6.99469500 -3.4974333300000033 0 0 0
Ga 1.05006771 4.66313000 3.56438019
Ga 1.00008019 -0.00000000 3.63510630
Ga 4.80684767 7.00094359 1.06710049
Ga 4.80691362 2.32531641 1.06710049
Cu 0.00000000 0.00000000 -3.4974333300000033 0 0 0
Cu 0.00000000 4.66313000 -3.4974333300000033 0 0 0
Cu 3.29733000 6.99469500 -1.165901090000002 0 0 0
Cu 3.29733000 2.33156500 -1.165901090000002 0 0 0
Cu 6.08977283 4.66313000 1.55003567
Cu 6.06438339 -0.00000000 1.57622053
Cu 2.10323491 2.33193805 4.14557608
Cu 2.10316897 6.99441521 4.14584603
Pd 0.00000000 2.33156500 -1.165901090000002 0 0 0
Pd 0.00000000 6.99469500 -1.165901090000002 0 0 0
Pd 3.29733000 4.66313000 -3.4974333300000033 0 0 0
Pd 3.29733000 0.00000000 -3.4974333300000033 0 0 0
Pd 6.08403548 6.98275739 3.35625105
Pd 6.08403548 2.34350261 3.35625105
Pd 3.19122192 -0.00000000 0.99907385
Pd 3.20803830 4.66313000 1.04820420
C 4.37799693 -0.00000000 6.18043656
O 4.53125683 0.00009326 7.31610359
