&CONTROL
calculation = 'relax'
prefix = 'scf'
pseudo_dir = '/vol0004/mdt0/data/hp150275/u10028/POT_KKJUS'
outdir = './data'
tprnfor = .true.
nstep = 50
disk_io = 'non'
/
&SYSTEM
ibrav = 0
ecutwfc = 50.0
ecutrho = 400
occupations = 'smearing'
smearing = 'mp'
degauss = 0.01
assume_isolated = 'esm'
esm_bc = 'bc1'
input_dft = 'BEEF-VDW'
nosym = .true.
nspin = 1
ntyp = 3
nat = 17
/
&ELECTRONS
electron_maxstep = 200
mixing_beta = 0.1
conv_thr = 1e-06
/
&IONS
ion_dynamics = 'bfgs'
upscale = 1.0
/
&CELL
/

K_POINTS {automatic}
8 12 2 0  0  0

ATOMIC_SPECIES
C 12.01 C.pbe-n-rrkjus_psl.1.0.0.UPF
Ni 58.69 Ni.pbe-spn-rrkjus_psl.1.0.0.UPF
Si 28.08 Si.pbe-nl-rrkjus_psl.1.0.0.UPF

CELL_PARAMETERS {angstrom}
7.08204000 0.00000000 0.00000000
0.00000000 5.00776000 0.00000000
0.00000000 0.00000000 23.75580000

ATOMIC_POSITIONS {angstrom}
Si 0.00000000 0.00000000 -1.877895989999999 0 0 0
Si 7.08196918 2.50388000 0.36132572
Si 3.54102000 0.00000000 -1.877895989999999 0 0 0
Si 3.54123246 2.50393008 0.96757373
Ni 0.00000000 2.50388000 -1.877895989999999 0 0 0
Ni 1.77051000 3.75582000 -0.6259653299999997 0 0 0
Ni 1.77051000 1.25194000 -0.6259653299999997 0 0 0
Ni 0.00007082 5.00755969 0.46110008
Ni 1.43885807 1.29665930 1.88644808
Ni 1.43928299 3.71059993 1.88621052
Ni 3.54102000 2.50388000 -1.877895989999999 0 0 0
Ni 5.31153000 3.75582000 -0.6259653299999997 0 0 0
Ni 5.31153000 1.25194000 -0.6259653299999997 0 0 0
Ni 3.54080754 5.00760977 0.79249349
Ni 5.64311111 1.29620860 1.88644808
Ni 5.64282783 3.71110070 1.88644808
C 0.00007082 2.50393008 2.39007104
