&CONTROL
calculation = 'relax'
prefix = 'scf'
pseudo_dir = '/vol0004/mdt0/data/hp150275/u10028/POT_KKJUS'
outdir = './data'
tprnfor = .true.
nstep = 50
disk_io = 'non'
/
&SYSTEM
ibrav = 0
ecutwfc = 50.0
ecutrho = 400
occupations = 'smearing'
smearing = 'mp'
degauss = 0.01
assume_isolated = 'esm'
esm_bc = 'bc1'
input_dft = 'BEEF-VDW'
nosym = .true.
nspin = 1
ntyp = 4
nat = 33
/
&ELECTRONS
electron_maxstep = 200
mixing_beta = 0.1
conv_thr = 1e-06
/
&IONS
ion_dynamics = 'bfgs'
upscale = 1.0
/
&CELL
/

K_POINTS {automatic}
8 6 1 0 0 0

ATOMIC_SPECIES
C 12.01 C.pbe-n-rrkjus_psl.1.0.0.UPF
Cu 63.54 Cu.pbe-dn-rrkjus_psl.1.0.0.UPF
Rh 102.9 Rh.pbe-spn-rrkjus_psl.1.0.0.UPF
Sn 118.7 Sn.pbe-dn-rrkjus_psl.1.0.0.UPF

CELL_PARAMETERS {angstrom}
6.25984000 0.00000000 0.00000000
0.00000000 8.85274000 0.00000000
0.00000000 0.00000000 26.63960000

ATOMIC_POSITIONS {angstrom}
Cu 0.00000000 0.00000000 -3.319826950000003 0 0 0
Cu 3.12992000 2.21318500 -1.1066089800000007 0 0 0
Cu 3.12992000 6.63955500 -1.1066089800000007 0 0 0
Cu 0.00000000 4.42637000 -3.319826950000003 0 0 0
Cu 0.00000000 4.42637000 1.11593284
Cu 3.12992000 6.70356031 3.37710209
Cu 3.12992000 2.14917969 3.37710209
Cu 0.00000000 0.00000000 1.10900655
Sn 0.00000000 6.63955500 -1.1066089800000007 0 0 0
Sn 3.12992000 0.00000000 -3.319826950000003 0 0 0
Sn 0.00000000 2.21318500 -1.1066089800000007 0 0 0
Sn 3.12992000 4.42637000 -3.319826950000003 0 0 0
Sn 0.00000000 2.41166343 3.38882352
Sn 3.12992000 4.42637000 1.01736632
Sn 0.00000000 6.44098804 3.38882352
Sn 3.12992000 8.85265147 1.03494846
Rh 1.56496000 0.00000000 -1.1066089800000007 0 0 0
Rh 4.69488000 4.42637000 -1.1066089800000007 0 0 0
Rh 4.69488000 0.00000000 -1.1066089800000007 0 0 0
Rh 1.56496000 4.42637000 -1.1066089800000007 0 0 0
Rh 4.69488000 6.63955500 -3.319826950000003 0 0 0
Rh 1.56496000 2.21318500 -3.319826950000003 0 0 0
Rh 1.56496000 6.63955500 -3.319826950000003 0 0 0
Rh 4.69488000 2.21318500 -3.319826950000003 0 0 0
Rh 1.69798160 4.42637000 3.23378104
Rh 4.77319060 0.00000000 3.38589316
Rh 4.56185840 4.42637000 3.23378104
Rh 1.48664940 0.00000000 3.38589316
Rh 4.70545913 2.17706582 1.14976514
Rh 1.55444347 6.67567418 1.14976514
Rh 1.55438087 2.17706582 1.14976514
Rh 4.70539653 6.67567418 1.14976514
C 0.00000000 0.00000000 4.46319858
