&CONTROL
calculation = 'relax'
prefix = 'scf'
pseudo_dir = '/vol0004/mdt0/data/hp150275/u10028/POT_KKJUS'
outdir = './data'
tprnfor = .true.
nstep = 50
disk_io = 'non'
/
&SYSTEM
ibrav = 0
ecutwfc = 50.0
ecutrho = 400
occupations = 'smearing'
smearing = 'mp'
degauss = 0.01
assume_isolated = 'esm'
esm_bc = 'bc1'
input_dft = 'BEEF-VDW'
nosym = .true.
nspin = 1
ntyp = 5
nat = 34
/
&ELECTRONS
electron_maxstep = 200
mixing_beta = 0.1
conv_thr = 1e-06
/
&IONS
ion_dynamics = 'bfgs'
upscale = 1.0
/
&CELL
/

K_POINTS {automatic}
9 6 2 0  0  0

ATOMIC_SPECIES
C 12.01 C.pbe-n-rrkjus_psl.1.0.0.UPF
Ni 58.69 Ni.pbe-spn-rrkjus_psl.1.0.0.UPF
O 15.99 O.pbe-n-rrkjus_psl.1.0.0.UPF
Sn 118.7 Sn.pbe-dn-rrkjus_psl.1.0.0.UPF
Zr 91.22 Zr.pbe-spn-rrkjus_psl.1.0.0.UPF

CELL_PARAMETERS {angstrom}
6.34847000 0.00000000 0.00000000
0.00000000 8.97809000 0.00000000
0.00000000 0.00000000 26.73360000

ATOMIC_POSITIONS {angstrom}
Zr 0.00000000 0.00000000 -3.3668295799999974 0 0 0
Zr 3.17423500 2.24452250 -1.1222765300000006 0 0 0
Zr 3.17423500 6.73356750 -1.1222765300000006 0 0 0
Zr 0.00000000 4.48904500 -3.3668295799999974 0 0 0
Zr 6.33291625 4.48904500 1.11960317
Zr 3.16458533 6.73724852 3.38153306
Zr 3.16452184 2.24093126 3.38126573
Zr 0.01898193 0.00008978 1.11238510
Ni 1.58711750 0.00000000 -1.1222765300000006 0 0 0
Ni 4.76135250 4.48904500 -1.1222765300000006 0 0 0
Ni 4.76135250 0.00000000 -1.1222765300000006 0 0 0
Ni 1.58711750 4.48904500 -1.1222765300000006 0 0 0
Ni 4.76135250 6.73356750 -3.3668295799999974 0 0 0
Ni 1.58711750 2.24452250 -3.3668295799999974 0 0 0
Ni 1.58711750 6.73356750 -3.3668295799999974 0 0 0
Ni 4.76135250 2.24452250 -3.3668295799999974 0 0 0
Ni 1.69269256 4.48931434 3.19840790
Ni 4.82559902 0.00000000 3.14200001
Ni 4.61641693 4.48913478 3.22647818
Ni 1.56235847 0.00017956 3.55423212
Ni 4.71805593 2.22629698 1.19873462
Ni 1.60686124 6.71713760 1.21958683
Ni 1.60692473 2.26104219 1.21931950
Ni 4.71792897 6.75197258 1.19900196
Sn 0.00000000 6.73356750 -1.1222765300000006 0 0 0
Sn 3.17423500 0.00000000 -3.3668295799999974 0 0 0
Sn 0.00000000 2.24452250 -1.1222765300000006 0 0 0
Sn 3.17423500 4.48904500 -3.3668295799999974 0 0 0
Sn 6.31507705 2.30296987 3.49675488
Sn 3.17486985 4.48922456 1.05196716
Sn 6.31507705 6.67512013 3.49675488
Sn 3.13074798 8.97791044 1.13136595
C 2.23459796 0.00000000 5.18070434
O 2.58941394 0.00000000 6.29282210
