&CONTROL
calculation = 'relax'
prefix = 'scf'
pseudo_dir = '/vol0004/mdt0/data/hp150275/u10028/POT_HYBRID_KKJUS_GBRV'
outdir = './data'
tprnfor = .true.
nstep = 50
disk_io = 'non'
/
&SYSTEM
ibrav = 0
ecutwfc = 50.0
ecutrho = 400
occupations = 'smearing'
smearing = 'mp'
degauss = 0.01
assume_isolated = 'esm'
esm_bc = 'bc1'
input_dft = 'BEEF-VDW'
nosym = .true.
nspin = 2
ntyp = 5
nat = 34
starting_magnetization(1) = 0.0
starting_magnetization(2) = 0.0
starting_magnetization(3) = 0.0
starting_magnetization(4) = 0.001
starting_magnetization(5) = 0.0
/
&ELECTRONS
electron_maxstep = 200
mixing_beta = 0.1
conv_thr = 1e-06
/
&IONS
ion_dynamics = 'bfgs'
upscale = 1.0
/
&CELL
/

K_POINTS {automatic}
9 6 2 0  0  0

ATOMIC_SPECIES
C 12.01 C.pbe-n-rrkjus_psl.1.0.0.UPF
In 114.8 In.pbe-dn-rrkjus_psl.1.0.0.UPF
Mg 24.30 Mg.pbe-spnl-rrkjus_psl.1.0.0.UPF
Ni 58.69 ni_pbe_v1.4.uspp.F.UPF
O 15.99 O.pbe-n-rrkjus_psl.1.0.0.UPF

CELL_PARAMETERS {angstrom}
6.23499000 0.00000000 0.00000000
0.00000000 8.81761000 0.00000000
0.00000000 0.00000000 26.61320000

ATOMIC_POSITIONS {angstrom}
Mg 0.00000000 0.00000000 23.30650990
Mg 3.11749500 2.20440250 25.51088126
Mg 3.11749500 6.61320750 25.51088126
Mg 0.00000000 4.40880500 23.30650990
Mg 0.00000000 4.39875292 0.99879340
Mg 3.11749500 6.61373656 3.39744111
Mg 3.11749500 2.20378527 3.42644950
Mg 0.00000000 0.00969937 0.99799500
In 0.00000000 6.61320750 25.51088126
In 3.11749500 0.00000000 23.30650990
In 0.00000000 2.20440250 25.51088126
In 3.11749500 4.40880500 23.30650990
In 6.23492765 2.20457885 3.49750674
In 3.11749500 4.41391921 1.10285101
In 0.00000000 6.61294297 3.54807182
In 3.11749500 8.81223126 1.10258488
Ni 1.55874750 0.00000000 25.51088126
Ni 4.67624250 4.40880500 25.51088126
Ni 4.67624250 0.00000000 25.51088126
Ni 1.55874750 4.40880500 25.51088126
Ni 4.67624250 6.61320750 23.30650990
Ni 1.55874750 2.20440250 23.30650990
Ni 1.55874750 6.61320750 23.30650990
Ni 4.67624250 2.20440250 23.30650990
Ni 1.39757301 4.42229594 3.09405063
Ni 4.83791579 8.80438359 3.09351837
Ni 4.83735464 4.42220777 3.09405063
Ni 1.39707421 8.80429541 3.09351837
Ni 4.69027123 2.20396162 1.16352910
Ni 1.51959176 6.61329568 1.15181930
Ni 1.54471877 2.20396162 1.16352910
Ni 4.71539824 6.61329568 1.15181930
C 3.11749500 2.20431432 5.70720074
O 3.11749500 2.20457885 6.84837476
