&CONTROL
calculation = 'relax'
prefix = 'scf'
pseudo_dir = '/vol0403/data/hp230205/u10028/POT_HYBRID_KKJUS_GBRV'
outdir = './data'
tprnfor = .true.
nstep = 50
disk_io = 'non'
/
&SYSTEM
ibrav = 0
ecutwfc = 50.0
ecutrho = 400
occupations = 'smearing'
smearing = 'mp'
degauss = 0.01
assume_isolated = 'esm'
esm_bc = 'bc1'
input_dft = 'BEEF-VDW'
nosym = .true.
nspin = 1
ntyp = 6
nat = 34
/
&ELECTRONS
electron_maxstep = 200
mixing_beta = 0.1
conv_thr = 1e-06
/
&IONS
ion_dynamics = 'bfgs'
upscale = 1.0
/
&CELL
/

K_POINTS {automatic}
6 6 1 0 0 0

ATOMIC_SPECIES
C 12.01 C.pbe-n-rrkjus_psl.1.0.0.UPF
Ga 69.72 Ga.pbe-dnl-rrkjus_psl.1.0.0.UPF
In 114.8 In.pbe-dn-rrkjus_psl.1.0.0.UPF
O 15.99 O.pbe-n-rrkjus_psl.1.0.0.UPF
Pd 106.4 Pd.pbe-n-rrkjus_psl.1.0.0.UPF
Sc 44.95 Sc.pbe-spn-rrkjus_psl.1.0.0.UPF


CELL_PARAMETERS {angstrom}
6.68246000 0.00000000 0.00000000
0.00000000 9.45042000 0.00000000
0.00000000 0.00000000 27.08780000

ATOMIC_POSITIONS {angstrom}
Sc 5.01184500 0.00000000 -1.181298960000003 0 0 0
Sc 5.01184500 4.72521000 -1.181298960000003 0 0 0
Sc 1.67061500 2.36260500 -3.543896870000001 0 0 0
Sc 1.67061500 7.08781500 -3.543896870000001 0 0 0
Sc 5.01184500 4.72521000 3.54389687
Sc 5.01184500 0.00000000 3.54389687
Sc 1.67061500 7.08781500 1.18129896
Sc 1.67061500 2.36260500 1.18129896
In 1.67061500 0.00000000 -1.181298960000003 0 0 0
In 1.67061500 4.72521000 -1.181298960000003 0 0 0
In 5.01184500 2.36260500 -3.543896870000001 0 0 0
In 5.01184500 7.08781500 -3.543896870000001 0 0 0
In 1.67061500 4.72521000 3.54389687
In 1.67061500 0.00000000 3.54389687
In 5.01184500 7.08781500 1.18129896
In 5.01184500 2.36260500 1.18129896
Ga 0.00000000 0.00000000 -3.543896870000001 0 0 0
Ga 0.00000000 4.72521000 -3.543896870000001 0 0 0
Ga 3.34123000 7.08781500 -1.181298960000003 0 0 0
Ga 3.34123000 2.36260500 -1.181298960000003 0 0 0
Ga 0.00000000 4.72521000 1.18129896
Ga 0.00000000 0.00000000 1.18129896
Ga 3.34123000 2.36260500 3.54389687
Ga 3.34123000 7.08781500 3.54389687
Pd 0.00000000 2.36260500 -1.181298960000003 0 0 0
Pd 0.00000000 7.08781500 -1.181298960000003 0 0 0
Pd 3.34123000 4.72521000 -3.543896870000001 0 0 0
Pd 3.34123000 0.00000000 -3.543896870000001 0 0 0
Pd 0.00000000 7.08781500 3.54389687
Pd 0.00000000 2.36260500 3.54389687
Pd 3.34123000 0.00000000 1.18129896
Pd 3.34123000 4.72521000 1.18129896
C 5.01184500 0.00000000 5.44383517
O 5.01184500 0.00000000 6.59398315
