&CONTROL
calculation = 'relax'
prefix = 'scf'
pseudo_dir = '/vol0403/data/hp230205/u10028/POT_HYBRID_KKJUS_GBRV'
outdir = './data'
tprnfor = .true.
nstep = 70
disk_io = 'non'
/
&SYSTEM
ibrav = 0
ecutwfc = 50.0
ecutrho = 400
occupations = 'smearing'
smearing = 'mp'
degauss = 0.01
assume_isolated = 'esm'
esm_bc = 'bc1'
input_dft = 'BEEF-VDW'
nosym = .true.
nspin = 1
ntyp = 5
nat = 33
/
&ELECTRONS
electron_maxstep = 200
mixing_beta = 0.1
conv_thr = 1e-06
/
&IONS
ion_dynamics = 'bfgs'
upscale = 1.0
/
&CELL
/

K_POINTS {automatic}
6 6 1 0 0 0

ATOMIC_SPECIES
C 12.01 C.pbe-n-rrkjus_psl.1.0.0.UPF
Ge 72.64 Ge.pbe-dn-rrkjus_psl.1.0.0.UPF
In 114.8 In.pbe-dn-rrkjus_psl.1.0.0.UPF
Pd 106.4 Pd.pbe-n-rrkjus_psl.1.0.0.UPF
Y 88.90 Y.pbe-spn-rrkjus_psl.1.0.0.UPF


CELL_PARAMETERS {angstrom}
7.93684000 0.00000000 0.00000000
-0.00000000 8.87204000 0.00000000
0.00000000 0.00000000 27.08770000

ATOMIC_POSITIONS {angstrom}
Y 1.98421000 2.21801000 -3.5438837900000024 0 0 0
Y 2.00627442 2.26370101 1.31510784
Y 1.98421000 6.65403000 -3.5438837900000024 0 0 0
Y 2.00667126 6.60798411 1.31510784
Y 5.95263000 2.21801000 -3.5438837900000024 0 0 0
Y 5.97890094 2.07996106 1.43591898
Y 5.95263000 6.65403000 -3.5438837900000024 0 0 0
Y 5.97826599 6.79145790 1.43564810
In 1.98421000 0.00000000 -1.181294600000001 0 0 0
In 2.32358928 0.00008872 3.89196074
In 1.98421000 4.43602000 -1.181294600000001 0 0 0
In 1.60244800 4.43655232 3.84645340
In 5.95263000 0.00000000 -1.181294600000001 0 0 0
In 5.40530551 8.87177384 4.12843636
In 5.95263000 4.43602000 -1.181294600000001 0 0 0
In 6.30605749 4.43628616 3.90144143
Ge 0.00000000 0.00000000 -3.5438837900000024 0 0 0
Ge 0.05111325 0.00026616 0.77470822
Ge 0.00000000 4.43602000 -3.5438837900000024 0 0 0
Ge 7.88898085 4.43593128 1.02824909
Ge 3.96842000 0.00000000 -3.5438837900000024 0 0 0
Ge 3.89048023 0.00008872 1.00522455
Ge 3.96842000 4.43602000 -3.5438837900000024 0 0 0
Ge 4.03635935 4.43655232 1.78264154
Pd 0.00000000 2.21801000 -1.181294600000001 0 0 0
Pd 0.19127784 1.83154394 3.49431330
Pd 0.00000000 6.65403000 -1.181294600000001 0 0 0
Pd 0.19056353 7.04200431 3.49350067
Pd 3.96842000 2.21801000 -1.181294600000001 0 0 0
Pd 3.91151286 2.41727602 3.58451534
Pd 3.96842000 6.65403000 -1.181294600000001 0 0 0
Pd 3.91167159 6.45432038 3.58451534
C 7.21982587 0.00133081 2.61613007
