&CONTROL
calculation = 'relax'
prefix = 'scf'
pseudo_dir = '/vol0004/mdt0/data/hp150275/u10028/POT_KKJUS'
outdir = './data'
tprnfor = .true.
nstep = 50
disk_io = 'non'
/
&SYSTEM
ibrav = 0
ecutwfc = 50.0
ecutrho = 400
occupations = 'smearing'
smearing = 'mp'
degauss = 0.01
assume_isolated = 'esm'
esm_bc = 'bc1'
input_dft = 'BEEF-VDW'
nosym = .true.
nspin = 1
ntyp = 5
nat = 34
/
&ELECTRONS
electron_maxstep = 200
mixing_beta = 0.1
conv_thr = 1e-06
/
&IONS
ion_dynamics = 'bfgs'
upscale = 1.0
/
&CELL
/

K_POINTS {automatic}
8 6 1 0 0 0

ATOMIC_SPECIES
Al 26.98 Al.pbe-nl-rrkjus_psl.1.0.0.UPF
C 12.01 C.pbe-n-rrkjus_psl.1.0.0.UPF
Hf 178.4 Hf.pbe-spn-rrkjus_psl.1.0.0.UPF
O 15.99 O.pbe-n-rrkjus_psl.1.0.0.UPF
Pd 106.4 Pd.pbe-n-rrkjus_psl.1.0.0.UPF

CELL_PARAMETERS {angstrom}
6.44324000 0.00000000 0.00000000
0.00000000 9.11212000 0.00000000
0.00000000 0.00000000 26.83410000

ATOMIC_POSITIONS {angstrom}
Hf 0.00000000 0.00000000 -3.4170542899999994 0 0 0
Hf 3.22162000 2.27803000 -1.1391075399999977 0 0 0
Hf 3.22162000 6.83409000 -1.1391075399999977 0 0 0
Hf 0.00000000 4.55606000 -3.4170542899999994 0 0 0
Hf 6.41437428 4.55606000 1.12730054
Hf 3.12664664 6.87828378 3.40954075
Hf 3.12664664 2.23383622 3.40954075
Hf 0.02545080 0.00000000 1.20619279
Al 0.00000000 6.83409000 -1.1391075399999977 0 0 0
Al 3.22162000 0.00000000 -3.4170542899999994 0 0 0
Al 0.00000000 2.27803000 -1.1391075399999977 0 0 0
Al 3.22162000 4.55606000 -3.4170542899999994 0 0 0
Al 6.38898792 2.31393175 3.31669476
Al 3.19513828 4.55606000 1.16889340
Al 6.38898792 6.79818825 3.31669476
Al 3.18263840 0.00000000 1.20941289
Pd 1.61081000 0.00000000 -1.1391075399999977 0 0 0
Pd 4.83243000 4.55606000 -1.1391075399999977 0 0 0
Pd 4.83243000 0.00000000 -1.1391075399999977 0 0 0
Pd 1.61081000 4.55606000 -1.1391075399999977 0 0 0
Pd 4.83243000 6.83409000 -3.4170542899999994 0 0 0
Pd 1.61081000 2.27803000 -3.4170542899999994 0 0 0
Pd 1.61081000 6.83409000 -3.4170542899999994 0 0 0
Pd 4.83243000 2.27803000 -3.4170542899999994 0 0 0
Pd 1.56139035 4.55606000 3.30998623
Pd 4.80498180 0.00000000 3.29388577
Pd 4.74841015 4.55606000 3.29039734
Pd 1.41326026 0.00000000 3.78977994
Pd 4.74654161 2.26910012 1.16782003
Pd 1.67749753 6.83636803 1.12569049
Pd 1.67749753 2.27584309 1.12569049
Pd 4.74654161 6.84301988 1.16782003
C 1.87066587 0.00000000 5.70385630
O 1.94225027 0.00000000 6.85638089
