&CONTROL
calculation = 'relax'
prefix = 'scf'
pseudo_dir = '/vol0403/data/hp230205/u10028/POT_HYBRID_KKJUS_GBRV'
outdir = './data'
tprnfor = .true.
nstep = 100
disk_io = 'non'
/
&SYSTEM
ibrav = 0
ecutwfc = 50.0
ecutrho = 400
occupations = 'smearing'
smearing = 'mp'
degauss = 0.01
assume_isolated = 'esm'
esm_bc = 'bc1'
input_dft = 'BEEF-VDW'
nosym = .true.
nspin = 1
ntyp = 5
nat = 17
/
&ELECTRONS
electron_maxstep = 200
mixing_beta = 0.1
conv_thr = 1e-06
/
&IONS
ion_dynamics = 'bfgs'
upscale = 1.0
/
&CELL
/

K_POINTS {automatic}
8 8 1 0 0 0

ATOMIC_SPECIES
Ag 107.8 Ag.pbe-n-rrkjus_psl.1.0.0.UPF
C 12.01 C.pbe-n-rrkjus_psl.1.0.0.UPF
Cu 63.54 Cu.pbe-dn-rrkjus_psl.1.0.0.UPF
Li 6.941 Li.pbe-sl-rrkjus_psl.1.0.0.UPF
Sn 118.7 Sn.pbe-dn-rrkjus_psl.1.0.0.UPF


CELL_PARAMETERS {angstrom}
6.43603000 0.00000000 0.00000000
-0.00000000 6.43603000 0.00000000
0.00000000 0.00000000 24.82700000

ATOMIC_POSITIONS {angstrom}
Li 1.60900750 1.60900750 -0.8043948000000007 0 0 0
Li 1.60900750 4.82702250 2.41343267
Li 4.82702250 1.60900750 2.41343267
Li 4.82702250 4.82702250 -0.8043948000000007 0 0 0
Cu 4.82702250 1.60900750 -0.8043948000000007 0 0 0
Cu 4.82702250 4.82702250 2.41343267
Cu 1.60900750 1.60900750 2.41343267
Cu 1.60900750 4.82702250 -0.8043948000000007 0 0 0
Ag 0.00000000 0.00000000 -2.4134326700000024 0 0 0
Ag 0.00000000 3.21801500 0.80439480
Ag 3.21801500 -0.00000000 0.80439480
Ag 3.21801500 3.21801500 -2.4134326700000024 0 0 0
Sn 0.00000000 3.21801500 -2.4134326700000024 0 0 0
Sn 0.00000000 0.00000000 0.80439480
Sn 3.21801500 3.21801500 0.80439480
Sn 3.21801500 0.00000000 -2.4134326700000024 0 0 0
C 0.00000000 0.00000000 3.21360688
