&CONTROL
calculation = 'relax'
prefix = 'scf'
pseudo_dir = '/vol0004/mdt0/data/hp150275/u10028/POT_HYBRID_KKJUS_GBRV'
outdir = './data'
tprnfor = .true.
nstep = 50
disk_io = 'non'
/
&SYSTEM
ibrav = 0
ecutwfc = 50.0
ecutrho = 400
occupations = 'smearing'
smearing = 'mp'
degauss = 0.01
assume_isolated = 'esm'
esm_bc = 'bc1'
input_dft = 'BEEF-VDW'
nosym = .true.
nspin = 2
ntyp = 4
nat = 33
starting_magnetization(1) = 0.0
starting_magnetization(2) = 0.0
starting_magnetization(3) = 0.001
starting_magnetization(4) = 0.0
/
&ELECTRONS
electron_maxstep = 300
mixing_beta = 0.1
conv_thr = 1e-06
/
&IONS
ion_dynamics = 'bfgs'
upscale = 1.0
/
&CELL
/

K_POINTS {automatic}
9 6 2 0  0  0

ATOMIC_SPECIES
C 12.01 C.pbe-n-rrkjus_psl.1.0.0.UPF
Li 6.941 Li.pbe-sl-rrkjus_psl.1.0.0.UPF
Ni 58.69 ni_pbe_v1.4.uspp.F.UPF
Si 28.08 Si.pbe-nl-rrkjus_psl.1.0.0.UPF

CELL_PARAMETERS {angstrom}
5.56332000 0.00000000 0.00000000
0.00000000 7.86772000 0.00000000
0.00000000 0.00000000 25.90080000

ATOMIC_POSITIONS {angstrom}
Li 0.00000000 0.00000000 -2.95036013 0 0 0
Li 2.78166000 1.96693000 -0.9834533800000003 0 0 0
Li 2.78166000 5.90079000 -0.9834533800000003 0 0 0
Li 0.00000000 3.93386000 -2.95036013 0 0 0
Li 0.01668996 3.93189307 0.94589722
Li 2.72524794 5.90079000 3.59995219
Li 3.08441587 1.96693000 4.31610931
Li 0.01668996 0.00196693 0.94589722
Si 0.00000000 5.90079000 -0.9834533800000003 0 0 0
Si 2.78166000 0.00000000 -2.95036013 0 0 0
Si 0.00000000 1.96693000 -0.9834533800000003 0 0 0
Si 2.78166000 3.93386000 -2.95036013 0 0 0
Si 5.21182944 1.96693000 2.92342330
Si 2.78221633 3.94479613 0.96195571
Si 0.02564691 5.90086868 2.88793920
Si 2.78221633 7.85686255 0.96195571
Ni 1.39083000 0.00000000 -0.9834533800000003 0 0 0
Ni 4.17249000 3.93386000 -0.9834533800000003 0 0 0
Ni 4.17249000 0.00000000 -0.9834533800000003 0 0 0
Ni 1.39083000 3.93386000 -0.9834533800000003 0 0 0
Ni 4.17249000 5.90079000 -2.95036013 0 0 0
Ni 1.39083000 1.96693000 -2.95036013 0 0 0
Ni 1.39083000 5.90079000 -2.95036013 0 0 0
Ni 4.17249000 1.96693000 -2.95036013 0 0 0
Ni 1.42293036 3.84227974 2.87576582
Ni 4.19390878 7.79848406 2.81489894
Ni 4.19396442 4.00309594 2.81489894
Ni 1.42298599 0.09158026 2.87576582
Ni 4.11719060 1.96693000 0.92388154
Ni 1.44167874 5.90079000 1.04742835
Ni 1.42176206 1.96693000 1.04406125
Ni 4.15040362 5.90079000 0.99174163
C 1.44640757 1.96693000 3.18579840
