&CONTROL
calculation = 'relax'
prefix = 'scf'
pseudo_dir = '/vol0403/data/hp230205/u10028/POT_HYBRID_KKJUS_GBRV'
outdir = './data'
tprnfor = .true.
nstep = 70
disk_io = 'non'
/
&SYSTEM
ibrav = 0
ecutwfc = 50.0
ecutrho = 400
occupations = 'smearing'
smearing = 'mp'
degauss = 0.01
assume_isolated = 'esm'
esm_bc = 'bc1'
input_dft = 'BEEF-VDW'
nosym = .true.
nspin = 1
ntyp = 5
nat = 33
/
&ELECTRONS
electron_maxstep = 200
mixing_beta = 0.1
conv_thr = 1e-06
/
&IONS
ion_dynamics = 'bfgs'
upscale = 1.0
/
&CELL
/

K_POINTS {automatic}
9 6 2 0  0  0

ATOMIC_SPECIES
Al 26.98 Al.pbe-nl-rrkjus_psl.1.0.0.UPF
C 12.01 C.pbe-n-rrkjus_psl.1.0.0.UPF
Li 6.941 Li.pbe-sl-rrkjus_psl.1.0.0.UPF
Mg 24.30 Mg.pbe-spnl-rrkjus_psl.1.0.0.UPF
Pt 195.0 Pt.pbe-n-rrkjus_psl.1.0.0.UPF


CELL_PARAMETERS {angstrom}
6.24880000 0.00000000 0.00000000
-0.00000000 8.83714000 0.00000000
0.00000000 0.00000000 26.62790000

ATOMIC_POSITIONS {angstrom}
Li 1.56220000 0.00000000 -1.1045252900000015 0 0 0
Li 1.56220000 4.41857000 -1.1045252900000015 0 0 0
Li 4.68660000 2.20928500 -3.3138421499999993 0 0 0
Li 4.68660000 6.62785500 -3.3138421499999993 0 0 0
Li 1.95537450 4.41857000 3.69142578
Li 1.29112706 -0.00000000 4.27564190
Li 4.72328046 6.63395263 1.12769156
Li 4.72328046 2.20318737 1.12795784
Mg 0.00000000 2.20928500 -1.1045252900000015 0 0 0
Mg 0.00000000 6.62785500 -1.1045252900000015 0 0 0
Mg 3.12440000 4.41857000 -3.3138421499999993 0 0 0
Mg 3.12440000 0.00000000 -3.3138421499999993 0 0 0
Mg 0.01762162 6.45243777 3.42195143
Mg 0.01762162 2.38470223 3.42195143
Mg 3.07103525 -0.00000000 1.17961597
Mg 3.09977973 4.41857000 1.05419856
Al 0.00000000 0.00000000 -3.3138421499999993 0 0 0
Al 0.00000000 4.41857000 -3.3138421499999993 0 0 0
Al 3.12440000 6.62785500 -1.1045252900000015 0 0 0
Al 3.12440000 2.20928500 -1.1045252900000015 0 0 0
Al 6.24417589 4.41857000 1.15511830
Al 0.12703810 0.00000000 1.04221601
Al 3.12315024 2.00753309 3.34100261
Al 3.12315024 6.82960691 3.34100261
Pt 4.68660000 0.00000000 -1.1045252900000015 0 0 0
Pt 4.68660000 4.41857000 -1.1045252900000015 0 0 0
Pt 1.56220000 2.20928500 -3.3138421499999993 0 0 0
Pt 1.56220000 6.62785500 -3.3138421499999993 0 0 0
Pt 4.55749979 4.41857000 3.15780266
Pt 5.12014174 -0.00000000 3.14235848
Pt 1.55295178 6.57447867 1.04461252
Pt 1.55295178 2.26266133 1.04461252
C 3.15151979 -0.00000000 3.58118627
