&CONTROL
calculation = 'relax'
prefix = 'scf'
pseudo_dir = '/vol0403/data/hp230205/u10028/POT_HYBRID_KKJUS_GBRV'
outdir = './data'
tprnfor = .true.
nstep = 50
disk_io = 'non'
/
&SYSTEM
ibrav = 0
ecutwfc = 50.0
ecutrho = 400
occupations = 'smearing'
smearing = 'mp'
degauss = 0.01
assume_isolated = 'esm'
esm_bc = 'bc1'
input_dft = 'BEEF-VDW'
nosym = .true.
nspin = 2
ntyp = 6
nat = 34
starting_magnetization(1) = 0.0
starting_magnetization(2) = 0.0
starting_magnetization(3) = 0.1
starting_magnetization(4) = 0.0
starting_magnetization(5) = 0.0
starting_magnetization(6) = 0.0
/
&ELECTRONS
electron_maxstep = 400
mixing_beta = 0.05
conv_thr = 1e-06
/
&IONS
ion_dynamics = 'bfgs'
upscale = 1.0
/
&CELL
/

K_POINTS {automatic}
6 6 1 0 0 0

ATOMIC_SPECIES
C 12.01 C.pbe-n-rrkjus_psl.1.0.0.UPF
In 114.8 In.pbe-dn-rrkjus_psl.1.0.0.UPF
Mn 54.93 mn_pbe_v1.5.uspp.F.UPF
O 15.99 O.pbe-n-rrkjus_psl.1.0.0.UPF
Pd 106.4 Pd.pbe-n-rrkjus_psl.1.0.0.UPF
Sc 44.95 Sc.pbe-spn-rrkjus_psl.1.0.0.UPF


CELL_PARAMETERS {angstrom}
6.62299000 0.00000000 0.00000000
0.00000000 9.36632000 0.00000000
0.00000000 0.00000000 27.02470000

ATOMIC_POSITIONS {angstrom}
Sc 0.00000000 2.34158000 -1.1707099999999997 0 0 0
Sc 0.00000000 7.02474000 -1.1707099999999997 0 0 0
Sc 3.31149500 4.68316000 -3.5124002599999997 0 0 0
Sc 3.31149500 0.00000000 -3.5124002599999997 0 0 0
Sc 0.04814914 7.02436535 3.45699962
Sc 6.61312174 2.34176733 3.48348383
Sc 3.36030644 9.34430915 1.19638347
Sc 3.36043890 4.70517085 1.19638347
Mn 4.96724250 0.00000000 -1.1707099999999997 0 0 0
Mn 4.96724250 4.68316000 -1.1707099999999997 0 0 0
Mn 1.65574750 2.34158000 -3.5124002599999997 0 0 0
Mn 1.65574750 7.02474000 -3.5124002599999997 0 0 0
Mn 4.83968371 4.67323170 3.82345456
Mn 4.84074339 0.00974097 3.82291406
Mn 1.63647460 7.02464634 1.26556670
Mn 1.69687627 2.34158000 1.22475940
In 0.00000000 0.00000000 -3.5124002599999997 0 0 0
In 0.00000000 4.68316000 -3.5124002599999997 0 0 0
In 3.31149500 7.02474000 -1.1707099999999997 0 0 0
In 3.31149500 2.34158000 -1.1707099999999997 0 0 0
In 6.57232413 4.66826755 1.19611322
In 6.57219167 0.01479879 1.19584297
In 3.29791787 2.34129901 3.64725351
In 3.33301972 7.02492733 3.66698154
Pd 1.65574750 0.00000000 -1.1707099999999997 0 0 0
Pd 1.65574750 4.68316000 -1.1707099999999997 0 0 0
Pd 4.96724250 2.34158000 -3.5124002599999997 0 0 0
Pd 4.96724250 7.02474000 -3.5124002599999997 0 0 0
Pd 1.74230998 4.69664750 3.30241834
Pd 1.74178014 9.35273884 3.30241834
Pd 4.98836984 7.02464634 1.13368617
Pd 4.94684369 2.34158000 1.12341678
C 6.30713961 2.34167366 5.72761492
O 6.19097236 2.34167366 6.87562417
