&CONTROL
calculation = 'relax'
prefix = 'scf'
pseudo_dir = '/vol0004/mdt0/data/hp150275/u10028/POT_HYBRID_KKJUS_GBRV'
outdir = './data'
tprnfor = .true.
nstep = 50
disk_io = 'non'
/
&SYSTEM
ibrav = 0
ecutwfc = 50.0
ecutrho = 400
occupations = 'smearing'
smearing = 'mp'
degauss = 0.01
assume_isolated = 'esm'
esm_bc = 'bc1'
input_dft = 'BEEF-VDW'
nosym = .true.
nspin = 2
ntyp = 4
nat = 18
starting_magnetization(1) = 0.01
starting_magnetization(2) = 0.01
starting_magnetization(3) = 0.01
starting_magnetization(4) = 0.01
/
&ELECTRONS
electron_maxstep = 200
mixing_beta = 0.1
conv_thr = 1e-06
/
&IONS
ion_dynamics = 'bfgs'
upscale = 1.0
/
&CELL
/

K_POINTS {automatic}
9 9 2 0  0  0

ATOMIC_SPECIES
C 12.01 C.pbe-n-rrkjus_psl.1.0.0.UPF
In 114.8 In.pbe-dn-rrkjus_psl.1.0.0.UPF
Ni 58.69 ni_pbe_v1.4.uspp.F.UPF
O 15.99 O.pbe-n-rrkjus_psl.1.0.0.UPF

CELL_PARAMETERS {angstrom}
6.35210000 0.00000000 0.00000000
0.00000000 6.35210000 0.00000000
0.00000000 0.00000000 24.76410000

ATOMIC_POSITIONS {angstrom}
In 1.58802500 1.58802500 -0.5371333299999996 0 0 0
In 1.58827908 1.58770740 2.52692876
In 1.58802500 4.76407500 -0.5371333299999996 0 0 0
In 1.58885077 4.76394796 2.74584341
In 4.76407500 1.58802500 -0.5371333299999996 0 0 0
In 4.76343979 1.58834261 2.74609105
In 4.76407500 4.76407500 -0.5371333299999996 0 0 0
In 4.76337627 4.76382092 2.92587842
Ni 0.00000000 0.00000000 -2.1252550600000006 0 0 0
Ni 6.29245378 6.29283491 1.13989152
Ni 0.00000000 3.17605000 -2.1252550600000006 0 0 0
Ni 6.29207266 3.23493397 1.13741511
Ni 3.17605000 0.00000000 -2.1252550600000006 0 0 0
Ni 3.23550566 6.29169153 1.13815804
Ni 3.17605000 3.17605000 -2.1252550600000006 0 0 0
Ni 3.23658551 3.23696664 1.13840568
C 1.58669106 1.58904134 5.70862033
O 1.58846965 1.58783444 6.84529252
