&CONTROL
calculation = 'relax'
prefix = 'scf'
pseudo_dir = '/vol0403/data/hp230205/u10028/POT_HYBRID_KKJUS_GBRV'
outdir = './data'
tprnfor = .true.
nstep = 50
disk_io = 'non'
/
&SYSTEM
ibrav = 0
ecutwfc = 50.0
ecutrho = 400
occupations = 'smearing'
smearing = 'mp'
degauss = 0.01
assume_isolated = 'esm'
esm_bc = 'bc1'
input_dft = 'BEEF-VDW'
nosym = .true.
nspin = 1
ntyp = 6
nat = 34
/
&ELECTRONS
electron_maxstep = 200
mixing_beta = 0.1
conv_thr = 1e-06
/
&IONS
ion_dynamics = 'bfgs'
upscale = 1.0
/
&CELL
/

K_POINTS {automatic}
8 8 1 0 0 0

ATOMIC_SPECIES
C 12.01 C.pbe-n-rrkjus_psl.1.0.0.UPF
Ca 40.07 Ca.pbe-spn-rrkjus_psl.1.0.0.UPF
Ge 72.64 Ge.pbe-dn-rrkjus_psl.1.0.0.UPF
Li 6.941 Li.pbe-sl-rrkjus_psl.1.0.0.UPF
O 15.99 O.pbe-n-rrkjus_psl.1.0.0.UPF
Pd 106.4 Pd.pbe-n-rrkjus_psl.1.0.0.UPF


CELL_PARAMETERS {angstrom}
6.62107000 0.00000000 0.00000000
0.00000000 9.36360000 0.00000000
0.00000000 0.00000000 27.02270000

ATOMIC_POSITIONS {angstrom}
Li 4.96580250 0.00000000 -1.1703531399999996 0 0 0
Li 4.96580250 4.68180000 -1.1703531399999996 0 0 0
Li 1.65526750 2.34090000 -3.5113296399999996 0 0 0
Li 1.65526750 7.02270000 -3.5113296399999996 0 0 0
Li 0.24835634 4.59743396 5.04216559
Li 0.24570791 0.08352331 5.04405718
Li 2.12642284 7.02251273 1.57920659
Li 1.89435434 2.34146182 1.36734862
Ca 0.00000000 0.00000000 -3.5113296399999996 0 0 0
Ca 0.00000000 4.68180000 -3.5113296399999996 0 0 0
Ca 3.31053500 7.02270000 -1.1703531399999996 0 0 0
Ca 3.31053500 2.34090000 -1.1703531399999996 0 0 0
Ca 6.60061089 4.77337601 1.45274035
Ca 6.59961773 9.27193036 1.45247013
Ca 3.89332158 2.34090000 3.68346424
Ca 4.07248774 7.02335545 3.82668455
Ge 0.00000000 2.34090000 -1.1703531399999996 0 0 0
Ge 0.00000000 7.02270000 -1.1703531399999996 0 0 0
Ge 3.31053500 4.68180000 -3.5113296399999996 0 0 0
Ge 3.31053500 0.00000000 -3.5113296399999996 0 0 0
Ge 0.79002607 7.02279364 3.91315719
Ge 0.49518983 2.34005728 3.57429253
Ge 3.44236050 0.04616255 1.10576888
Ge 3.44520756 4.63516927 1.10441775
Pd 1.65526750 0.00000000 -1.1703531399999996 0 0 0
Pd 1.65526750 4.68180000 -1.1703531399999996 0 0 0
Pd 4.96580250 2.34090000 -3.5113296399999996 0 0 0
Pd 4.96580250 7.02270000 -3.5113296399999996 0 0 0
Pd 2.07517576 4.75567880 3.27001693
Pd 2.07305702 9.29056392 3.27244897
Pd 4.83331489 7.02354272 1.00362308
Pd 5.09180146 2.33968273 0.97768129
C 3.53002347 2.34118091 6.28764184
O 3.36429809 2.34080636 7.42178456
