&CONTROL
calculation = 'relax'
prefix = 'scf'
pseudo_dir = '/vol0004/mdt0/data/hp150275/u10028/POT_KKJUS'
outdir = './data'
tprnfor = .true.
nstep = 50
disk_io = 'non'
/
&SYSTEM
ibrav = 0
ecutwfc = 50.0
ecutrho = 400
occupations = 'smearing'
smearing = 'mp'
degauss = 0.01
assume_isolated = 'esm'
esm_bc = 'bc1'
input_dft = 'BEEF-VDW'
nosym = .true.
nspin = 1
ntyp = 3
nat = 17
/
&ELECTRONS
electron_maxstep = 200
mixing_beta = 0.1
conv_thr = 1e-06
/
&IONS
ion_dynamics = 'bfgs'
upscale = 1.0
/
&CELL
/

K_POINTS {automatic}
8 8 1 0 0 0

ATOMIC_SPECIES
C 12.01 C.pbe-n-rrkjus_psl.1.0.0.UPF
Rh 102.9 Rh.pbe-spn-rrkjus_psl.1.0.0.UPF
Zn 65.40 Zn.pbe-dnl-rrkjus_psl.1.0.0.UPF

CELL_PARAMETERS {angstrom}
6.06651000 0.00000000 0.00000000
-0.00000000 6.06651000 0.00000000
0.00000000 0.00000000 24.54990000

ATOMIC_POSITIONS {angstrom}
Zn 0.00000000 0.00000000 -2.1058904200000015 0 0 0
Zn 0.00000000 0.00000000 0.92749522
Zn 0.00000000 3.03325500 -2.1058904200000015 0 0 0
Zn 0.00000000 3.03325500 0.92749522
Zn 3.03325500 0.00000000 -2.1058904200000015 0 0 0
Zn 3.03325500 -0.00000000 0.92749522
Zn 3.03325500 3.03325500 -2.1058904200000015 0 0 0
Zn 3.03325500 3.03325500 0.92749522
Rh 1.51662750 1.51662750 -0.5891976000000021 0 0 0
Rh 1.51662750 1.51662750 2.44394255
Rh 1.51662750 4.54988250 -0.5891976000000021 0 0 0
Rh 1.51662750 4.54988250 2.44394255
Rh 4.54988250 1.51662750 -0.5891976000000021 0 0 0
Rh 4.54988250 1.51662750 2.44394255
Rh 4.54988250 4.54988250 -0.5891976000000021 0 0 0
Rh 4.54988250 4.54988250 2.44394255
C 0.00000000 0.00000000 3.24402379
