&CONTROL
calculation = 'relax'
prefix = 'scf'
pseudo_dir = '/vol0004/mdt0/data/hp150275/u10028/POT_HYBRID_KKJUS_GBRV'
outdir = './data'
tprnfor = .true.
nstep = 50
disk_io = 'non'
/
&SYSTEM
ibrav = 0
ecutwfc = 50.0
ecutrho = 400
occupations = 'smearing'
smearing = 'mp'
degauss = 0.01
assume_isolated = 'esm'
esm_bc = 'bc1'
input_dft = 'BEEF-VDW'
nosym = .true.
nspin = 2
ntyp = 2
nat = 32
starting_magnetization(1) = 0.1
starting_magnetization(2) = 0.1
/
&ELECTRONS
electron_maxstep = 200
mixing_beta = 0.1
conv_thr = 1e-06
/
&IONS
ion_dynamics = 'bfgs'
upscale = 1.0
/
&CELL
/

K_POINTS {automatic}
9 7 2 0  0  0

ATOMIC_SPECIES
Be 9.012 Be.pbe-n-rrkjus_psl.1.0.0.UPF
Ni 58.69 ni_pbe_v1.4.uspp.F.UPF

CELL_PARAMETERS {angstrom}
5.22839000 0.00000000 0.00000000
0.00000000 7.39406000 0.00000000
0.00000000 0.00000000 25.54550000

ATOMIC_POSITIONS {angstrom}
Be 0.00000000 0.00000000 -2.772708569999999 0 0 0
Be 0.00000000 1.84851500 -0.924236190000002 0 0 0
Be 0.00000000 0.00000000 0.93062256
Be 0.00000000 1.84851500 2.79569952
Be 0.00000000 3.69703000 -2.772708569999999 0 0 0
Be 0.00000000 5.54554500 -0.924236190000002 0 0 0
Be 0.00000000 3.69703000 0.93062256
Be 0.00000000 5.54554500 2.79569952
Be 2.61419500 0.00000000 -2.772708569999999 0 0 0
Be 2.61419500 1.84851500 -0.924236190000002 0 0 0
Be 2.61419500 0.00000000 0.93062256
Be 2.61419500 1.84851500 2.79569952
Be 2.61419500 3.69703000 -2.772708569999999 0 0 0
Be 2.61419500 5.54554500 -0.924236190000002 0 0 0
Be 2.61419500 3.69703000 0.93062256
Be 2.61419500 5.54554500 2.79569952
Ni 1.30709750 1.84851500 -2.772708569999999 0 0 0
Ni 1.30709750 0.00000000 -0.924236190000002 0 0 0
Ni 1.30709750 1.84858894 0.92372528
Ni 1.30709750 0.00000000 2.73209123
Ni 1.30709750 5.54554500 -2.772708569999999 0 0 0
Ni 1.30709750 3.69703000 -0.924236190000002 0 0 0
Ni 1.30699293 5.54547106 0.92346983
Ni 1.30709750 3.69703000 2.73209123
Ni 3.92129250 1.84851500 -2.772708569999999 0 0 0
Ni 3.92129250 0.00000000 -0.924236190000002 0 0 0
Ni 3.92129250 1.84858894 0.92346983
Ni 3.92129250 0.00000000 2.73209123
Ni 3.92129250 5.54554500 -2.772708569999999 0 0 0
Ni 3.92129250 3.69703000 -0.924236190000002 0 0 0
Ni 3.92134478 5.54547106 0.92372528
Ni 3.92129250 3.69703000 2.73209123
