&CONTROL
calculation = 'relax'
prefix = 'scf'
pseudo_dir = '/vol0403/data/hp230205/u10028/POT_HYBRID_KKJUS_GBRV'
outdir = './data'
tprnfor = .true.
nstep = 70
disk_io = 'non'
/
&SYSTEM
ibrav = 0
ecutwfc = 50.0
ecutrho = 400
occupations = 'smearing'
smearing = 'mp'
degauss = 0.01
assume_isolated = 'esm'
esm_bc = 'bc1'
input_dft = 'BEEF-VDW'
nosym = .true.
nspin = 1
ntyp = 6
nat = 34
/
&ELECTRONS
electron_maxstep = 200
mixing_beta = 0.1
conv_thr = 1e-06
/
&IONS
ion_dynamics = 'bfgs'
upscale = 1.0
/
&CELL
/

K_POINTS {automatic}
9 6 2 0  0  0

ATOMIC_SPECIES
Al 26.98 Al.pbe-nl-rrkjus_psl.1.0.0.UPF
C 12.01 C.pbe-n-rrkjus_psl.1.0.0.UPF
Cu 63.54 Cu.pbe-dn-rrkjus_psl.1.0.0.UPF
In 114.8 In.pbe-dn-rrkjus_psl.1.0.0.UPF
O 15.99 O.pbe-n-rrkjus_psl.1.0.0.UPF
Pd 106.4 Pd.pbe-n-rrkjus_psl.1.0.0.UPF


CELL_PARAMETERS {angstrom}
6.36006000 0.00000000 0.00000000
-0.00000000 8.99448000 0.00000000
0.00000000 0.00000000 26.74590000

ATOMIC_POSITIONS {angstrom}
Al 0.00000000 0.00000000 -3.3729254500000003 0 0 0
Al 0.00000000 4.49724000 -3.3729254500000003 0 0 0
Al 3.18003000 6.74586000 -1.124397639999998 0 0 0
Al 3.18003000 2.24862000 -1.124397639999998 0 0 0
Al 0.10831182 4.49724000 1.28193099
Al 0.03847836 0.00000000 1.35013303
Al 3.20400743 2.30240699 3.32638758
Al 3.20400743 6.69216295 3.32638758
In 0.00000000 2.24862000 -1.124397639999998 0 0 0
In 0.00000000 6.74586000 -1.124397639999998 0 0 0
In 3.18003000 4.49724000 -3.3729254500000003 0 0 0
In 3.18003000 0.00000000 -3.3729254500000003 0 0 0
In 0.17903569 6.73065933 4.00466361
In 0.17903569 2.26382067 4.00466361
In 3.35372324 -0.00000000 1.22924156
In 3.19802897 4.49724000 1.10300092
Cu 1.59001500 0.00000000 -1.124397639999998 0 0 0
Cu 1.59001500 4.49724000 -1.124397639999998 0 0 0
Cu 4.77004500 2.24862000 -3.3729254500000003 0 0 0
Cu 4.77004500 6.74586000 -3.3729254500000003 0 0 0
Cu 1.78437843 4.49724000 3.46412897
Cu 1.68541590 -0.00000000 3.33922562
Cu 5.05364008 6.73029955 1.46032614
Cu 5.05364008 2.26409051 1.46032614
Pd 4.77004500 0.00000000 -1.124397639999998 0 0 0
Pd 4.77004500 4.49724000 -1.124397639999998 0 0 0
Pd 1.59001500 2.24862000 -3.3729254500000003 0 0 0
Pd 1.59001500 6.74586000 -3.3729254500000003 0 0 0
Pd 4.81189419 4.49724000 3.31221226
Pd 4.55087733 -0.00000000 3.85087468
Pd 1.54307776 6.80036655 1.15622526
Pd 1.54301416 2.19411345 1.15622526
C 4.33298168 -0.00000000 5.82445464
O 4.10306551 0.00008994 6.94885228
