&CONTROL
calculation = 'relax'
prefix = 'scf'
pseudo_dir = '/vol0004/mdt0/data/hp150275/u10028/POT_KKJUS'
outdir = './data'
tprnfor = .true.
nstep = 50
disk_io = 'non'
/
&SYSTEM
ibrav = 0
ecutwfc = 50.0
ecutrho = 400
occupations = 'smearing'
smearing = 'mp'
degauss = 0.01
assume_isolated = 'esm'
esm_bc = 'bc1'
input_dft = 'BEEF-VDW'
nosym = .true.
nspin = 1
ntyp = 2
nat = 32
/
&ELECTRONS
electron_maxstep = 200
mixing_beta = 0.1
conv_thr = 1e-06
/
&IONS
ion_dynamics = 'bfgs'
upscale = 1.0
/
&CELL
/

K_POINTS {automatic}
9 6 2 0  0  0

ATOMIC_SPECIES
Os 190.2 Os.pbe-spn-rrkjus_psl.1.0.0.UPF
Si 28.08 Si.pbe-nl-rrkjus_psl.1.0.0.UPF

CELL_PARAMETERS {angstrom}
5.90864000 0.00000000 0.00000000
0.00000000 8.35608000 0.00000000
0.00000000 0.00000000 26.26710000

ATOMIC_POSITIONS {angstrom}
Si 1.47716000 2.08902000 -3.1336650299999995 0 0 0
Si 1.47716000 0.00000000 -1.0446425700000006 0 0 0
Si 1.47716000 2.08902000 1.08719527
Si 1.47716000 0.00000000 3.20432353
Si 1.47716000 6.26706000 -3.1336650299999995 0 0 0
Si 1.47716000 4.17804000 -1.0446425700000006 0 0 0
Si 1.47716000 6.26706000 1.08719527
Si 1.47716000 4.17804000 3.20432353
Si 4.43148000 2.08902000 -3.1336650299999995 0 0 0
Si 4.43148000 0.00000000 -1.0446425700000006 0 0 0
Si 4.43148000 2.08902000 1.08719527
Si 4.43148000 0.00000000 3.20432353
Si 4.43148000 6.26706000 -3.1336650299999995 0 0 0
Si 4.43148000 4.17804000 -1.0446425700000006 0 0 0
Si 4.43148000 6.26706000 1.08719527
Si 4.43148000 4.17804000 3.20432353
Os 0.00000000 0.00000000 -3.1336650299999995 0 0 0
Os 0.00000000 2.08902000 -1.0446425700000006 0 0 0
Os 0.00000000 0.00000000 0.99473508
Os 0.00000000 2.08902000 3.05066099
Os 0.00000000 4.17804000 -3.1336650299999995 0 0 0
Os 0.00000000 6.26706000 -1.0446425700000006 0 0 0
Os 0.00000000 4.17804000 0.99473508
Os 0.00000000 6.26706000 3.05066099
Os 2.95432000 0.00000000 -3.1336650299999995 0 0 0
Os 2.95432000 2.08902000 -1.0446425700000006 0 0 0
Os 2.95432000 0.00000000 0.99473508
Os 2.95432000 2.08902000 3.05066099
Os 2.95432000 4.17804000 -3.1336650299999995 0 0 0
Os 2.95432000 6.26706000 -1.0446425700000006 0 0 0
Os 2.95432000 4.17804000 0.99473508
Os 2.95432000 6.26706000 3.05066099
