&CONTROL
calculation = 'relax'
prefix = 'scf'
pseudo_dir = '/vol0004/mdt0/data/hp150275/u10028/POT_KKJUS'
outdir = './data'
tprnfor = .true.
nstep = 50
disk_io = 'non'
/
&SYSTEM
ibrav = 0
ecutwfc = 50.0
ecutrho = 400
occupations = 'smearing'
smearing = 'mp'
degauss = 0.01
assume_isolated = 'esm'
esm_bc = 'bc1'
input_dft = 'BEEF-VDW'
nosym = .true.
nspin = 1
ntyp = 3
nat = 33
/
&ELECTRONS
electron_maxstep = 200
mixing_beta = 0.1
conv_thr = 1e-06
/
&IONS
ion_dynamics = 'bfgs'
upscale = 1.0
/
&CELL
/

K_POINTS {automatic}
8 6 1 0 0 0

ATOMIC_SPECIES
C 12.01 C.pbe-n-rrkjus_psl.1.0.0.UPF
Os 190.2 Os.pbe-spn-rrkjus_psl.1.0.0.UPF
Ti 47.86 Ti.pbe-spn-rrkjus_psl.1.0.0.UPF

CELL_PARAMETERS {angstrom}
6.19423000 0.00000000 0.00000000
0.00000000 8.75996000 0.00000000
0.00000000 0.00000000 26.57000000

ATOMIC_POSITIONS {angstrom}
Ti 1.54855750 2.18999000 -3.285114799999999 0 0 0
Ti 1.54855750 0.00000000 -1.0949497000000008 0 0 0
Ti 1.55357483 2.19804916 1.14304140
Ti 1.51956850 4.37998000 3.35552530
Ti 1.54855750 6.56997000 -3.285114799999999 0 0 0
Ti 1.54855750 4.37998000 -1.0949497000000008 0 0 0
Ti 1.55357483 6.56191084 1.14304140
Ti 1.88924015 0.00000000 3.40680540
Ti 4.64567250 2.18999000 -3.285114799999999 0 0 0
Ti 4.64567250 0.00000000 -1.0949497000000008 0 0 0
Ti 4.64065517 2.19804916 1.14304140
Ti 4.67466150 4.37998000 3.35552530
Ti 4.64567250 6.56997000 -3.285114799999999 0 0 0
Ti 4.64567250 4.37998000 -1.0949497000000008 0 0 0
Ti 4.64065517 6.56191084 1.14304140
Ti 4.30498985 0.00000000 3.40680540
Os 0.00000000 0.00000000 -3.285114799999999 0 0 0
Os 0.00000000 2.18999000 -1.0949497000000008 0 0 0
Os 0.00000000 0.00000000 1.09415260
Os 0.00000000 2.11447914 3.14429380
Os 0.00000000 4.37998000 -3.285114799999999 0 0 0
Os 0.00000000 6.56997000 -1.0949497000000008 0 0 0
Os 0.00000000 4.37998000 1.12470810
Os 0.00000000 6.64548086 3.14429380
Os 3.09711500 0.00000000 -3.285114799999999 0 0 0
Os 3.09711500 2.18999000 -1.0949497000000008 0 0 0
Os 3.09711500 0.00000000 1.05350050
Os 3.09711500 2.31823581 3.17272370
Os 3.09711500 4.37998000 -3.285114799999999 0 0 0
Os 3.09711500 6.56997000 -1.0949497000000008 0 0 0
Os 3.09711500 4.37998000 1.06758260
Os 3.09711500 6.44172419 3.17272370
C 0.00000000 0.00000000 3.52079070
