&CONTROL
calculation = 'relax'
prefix = 'scf'
pseudo_dir = '/vol0403/data/hp230205/u10028/POT_HYBRID_KKJUS_GBRV'
outdir = './data'
tprnfor = .true.
nstep = 50
disk_io = 'non'
/
&SYSTEM
ibrav = 0
ecutwfc = 50.0
ecutrho = 400
occupations = 'smearing'
smearing = 'mp'
degauss = 0.01
assume_isolated = 'esm'
esm_bc = 'bc1'
input_dft = 'BEEF-VDW'
nosym = .true.
nspin = 1
ntyp = 6
nat = 18
/
&ELECTRONS
electron_maxstep = 200
mixing_beta = 0.1
conv_thr = 1e-06
/
&IONS
ion_dynamics = 'bfgs'
upscale = 1.0
/
&CELL
/

K_POINTS {automatic}
8 8 1 0 0 0

ATOMIC_SPECIES
C 12.01 C.pbe-n-rrkjus_psl.1.0.0.UPF
Ge 72.64 Ge.pbe-dn-rrkjus_psl.1.0.0.UPF
Li 6.941 Li.pbe-sl-rrkjus_psl.1.0.0.UPF
O 15.99 O.pbe-n-rrkjus_psl.1.0.0.UPF
Pd 106.4 Pd.pbe-n-rrkjus_psl.1.0.0.UPF
Zr 91.22 Zr.pbe-spn-rrkjus_psl.1.0.0.UPF


CELL_PARAMETERS {angstrom}
6.47880000 0.00000000 0.00000000
0.00000000 6.47880000 0.00000000
0.00000000 0.00000000 24.85910000

ATOMIC_POSITIONS {angstrom}
Li 1.61548878 1.62391122 0.79847429
Li 1.61970000 4.85910000 -2.4294798400000026 0 0 0
Li 4.85910000 1.61970000 -2.4294798400000026 0 0 0
Li 4.86331122 4.85488878 0.79847429
Zr 4.85579581 1.61639581 0.83079112
Zr 4.85910000 4.85910000 -2.4294798400000026 0 0 0
Zr 1.61970000 1.61970000 -2.4294798400000026 0 0 0
Zr 1.62300419 4.86240419 0.83079112
Ge 0.00012958 0.00006479 2.28405411
Ge 0.00000000 3.23940000 -0.8099094800000017 0 0 0
Ge 3.23940000 0.00000000 -0.8099094800000017 0 0 0
Ge 3.23933521 3.23940000 2.28405411
Pd 0.00006479 3.23920564 2.40710665
Pd 0.00000000 0.00000000 -0.8099094800000017 0 0 0
Pd 3.23940000 3.23940000 -0.8099094800000017 0 0 0
Pd 3.23933521 0.00000000 2.29002029
C 0.00006479 3.23965915 4.44779017
O 0.00000000 3.23933521 5.59230314
