&CONTROL
calculation = 'relax'
prefix = 'scf'
pseudo_dir = '/vol0004/mdt0/data/hp150275/u10028/POT_HYBRID_KKJUS_GBRV'
outdir = './data'
tprnfor = .true.
nstep = 50
disk_io = 'non'
/
&SYSTEM
ibrav = 0
ecutwfc = 50.0
ecutrho = 400
occupations = 'smearing'
smearing = 'mp'
degauss = 0.01
assume_isolated = 'esm'
esm_bc = 'bc1'
input_dft = 'BEEF-VDW'
nosym = .true.
nspin = 2
ntyp = 4
nat = 33
starting_magnetization(1) = 0.0
starting_magnetization(2) = 0.1
starting_magnetization(3) = 0.0
starting_magnetization(4) = 0.0
/
&ELECTRONS
electron_maxstep = 300
mixing_beta = 0.1
conv_thr = 1e-06
/
&IONS
ion_dynamics = 'bfgs'
upscale = 1.0
/
&CELL
/

K_POINTS {automatic}
8 6 1 0 0 0

ATOMIC_SPECIES
C 12.01 C.pbe-n-rrkjus_psl.1.0.0.UPF
Co 58.93 co_pbe_v1.2.uspp.F.UPF
Ga 69.72 Ga.pbe-dnl-rrkjus_psl.1.0.0.UPF
V 50.94 V.pbe-spnl-rrkjus_psl.1.0.0.UPF

CELL_PARAMETERS {angstrom}
5.77968000 0.00000000 0.00000000
0.00000000 8.17370000 0.00000000
0.00000000 0.00000000 26.13030000

ATOMIC_POSITIONS {angstrom}
V 0.00000000 0.00000000 -3.0650841899999968 0 0 0
V 2.88984000 2.04342500 -1.0216947299999966 0 0 0
V 2.88984000 6.13027500 -1.0216947299999966 0 0 0
V 0.00000000 4.08685000 -3.0650841899999968 0 0 0
V 0.00000000 4.08685000 1.08153312
V 2.88984000 6.09807062 3.01622053
V 2.88984000 2.07562938 3.01648183
V 0.00000000 0.00000000 1.02169473
Ga 0.00000000 6.13027500 -1.0216947299999966 0 0 0
Ga 2.88984000 0.00000000 -3.0650841899999968 0 0 0
Ga 0.00000000 2.04342500 -1.0216947299999966 0 0 0
Ga 2.88984000 4.08685000 -3.0650841899999968 0 0 0
Ga 0.00000000 2.09737142 3.17744448
Ga 2.88984000 4.08685000 1.03031773
Ga 0.00000000 6.07632858 3.17744448
Ga 2.88984000 0.00000000 0.97100195
Co 1.44492000 0.00000000 -1.0216947299999966 0 0 0
Co 4.33476000 4.08685000 -1.0216947299999966 0 0 0
Co 4.33476000 0.00000000 -1.0216947299999966 0 0 0
Co 1.44492000 4.08685000 -1.0216947299999966 0 0 0
Co 4.33476000 6.13027500 -3.0650841899999968 0 0 0
Co 1.44492000 2.04342500 -3.0650841899999968 0 0 0
Co 1.44492000 6.13027500 -3.0650841899999968 0 0 0
Co 4.33476000 2.04342500 -3.0650841899999968 0 0 0
Co 1.44694289 4.08685000 2.96317602
Co 4.17830406 0.00000000 3.07135546
Co 4.33273711 4.08685000 2.96317602
Co 1.60137594 0.00000000 3.07135546
Co 4.32782438 2.02822192 1.04495070
Co 1.45185562 6.14547808 1.04495070
Co 1.45185562 2.02822192 1.04521200
Co 4.32782438 6.14547808 1.04495070
C 0.00000000 0.00000000 3.85996792
