&CONTROL
calculation = 'relax'
prefix = 'scf'
pseudo_dir = '/vol0004/mdt0/data/hp150275/u10028/POT_KKJUS'
outdir = './data'
tprnfor = .true.
nstep = 50
disk_io = 'non'
/
&SYSTEM
ibrav = 0
ecutwfc = 50.0
ecutrho = 400
occupations = 'smearing'
smearing = 'mp'
degauss = 0.01
assume_isolated = 'esm'
esm_bc = 'bc1'
input_dft = 'BEEF-VDW'
nosym = .true.
nspin = 1
ntyp = 3
nat = 33
/
&ELECTRONS
electron_maxstep = 200
mixing_beta = 0.1
conv_thr = 1e-06
/
&IONS
ion_dynamics = 'bfgs'
upscale = 1.0
/
&CELL
/

K_POINTS {automatic}
8 6 1 0 0 0

ATOMIC_SPECIES
Al 26.98 Al.pbe-nl-rrkjus_psl.1.0.0.UPF
C 12.01 C.pbe-n-rrkjus_psl.1.0.0.UPF
Ir 192.2 Ir.pbe-n-rrkjus_psl.0.2.3.UPF

CELL_PARAMETERS {angstrom}
6.03636000 0.00000000 0.00000000
0.00000000 8.53670000 0.00000000
0.00000000 0.00000000 26.40250000

ATOMIC_POSITIONS {angstrom}
Al 0.00000000 0.00000000 -3.2013031199999986 0 0 0
Al 0.00000000 2.13417500 -1.0671890499999996 0 0 0
Al 0.00615709 8.53268775 1.08250250
Al 5.75645399 2.13417500 3.36130228
Al 0.00000000 4.26835000 -3.2013031199999986 0 0 0
Al 0.00000000 6.40252500 -1.0671890499999996 0 0 0
Al 0.00615709 4.27236225 1.08250250
Al 0.07334177 6.40252500 3.31853022
Al 3.01818000 0.00000000 -3.2013031199999986 0 0 0
Al 3.01818000 2.13417500 -1.0671890499999996 0 0 0
Al 3.01190219 8.53268775 1.08250250
Al 3.29724092 2.13417500 3.36156630
Al 3.01818000 4.26835000 -3.2013031199999986 0 0 0
Al 3.01818000 6.40252500 -1.0671890499999996 0 0 0
Al 3.01190219 4.27236225 1.08250250
Al 2.94465714 6.40252500 3.31853022
Ir 1.50909000 2.13417500 -3.2013031199999986 0 0 0
Ir 1.50909000 0.00000000 -1.0671890499999996 0 0 0
Ir 1.50909000 2.13417500 1.01174380
Ir 1.50890891 0.08707434 3.13107247
Ir 1.50909000 6.40252500 -3.2013031199999986 0 0 0
Ir 1.50909000 4.26835000 -1.0671890499999996 0 0 0
Ir 1.50909000 6.40252500 1.07326162
Ir 1.50890891 4.18127566 3.13107247
Ir 4.52727000 2.13417500 -3.2013031199999986 0 0 0
Ir 4.52727000 0.00000000 -1.0671890499999996 0 0 0
Ir 4.52720964 2.13417500 1.01412002
Ir 4.52702855 8.48308952 3.09014860
Ir 4.52727000 6.40252500 -3.2013031199999986 0 0 0
Ir 4.52727000 4.26835000 -1.0671890499999996 0 0 0
Ir 4.52733036 6.40252500 1.02019260
Ir 4.52702855 4.32196048 3.09014860
C 1.50848636 2.13417500 3.89859315
