&CONTROL
calculation = 'relax'
prefix = 'scf'
pseudo_dir = '/vol0004/mdt0/data/hp150275/u10028/POT_KKJUS'
outdir = './data'
tprnfor = .true.
nstep = 50
disk_io = 'non'
/
&SYSTEM
ibrav = 0
ecutwfc = 50.0
ecutrho = 400
occupations = 'smearing'
smearing = 'mp'
degauss = 0.01
assume_isolated = 'esm'
esm_bc = 'bc1'
input_dft = 'BEEF-VDW'
nosym = .true.
nspin = 1
ntyp = 1
nat = 16
/
&ELECTRONS
electron_maxstep = 200
mixing_beta = 0.1
conv_thr = 1e-06
/
&IONS
ion_dynamics = 'bfgs'
upscale = 1.0
/
&CELL
/

K_POINTS {automatic}
10 10 2 0  0  0

ATOMIC_SPECIES
Ta 180.9 Ta.pbe-spn-rrkjus_psl.1.0.0.UPF

CELL_PARAMETERS {angstrom}
6.65024000 0.00000000 0.00000000
-0.00000000 6.65024000 0.00000000
0.00000000 0.00000000 24.98770000

ATOMIC_POSITIONS {angstrom}
Ta 0.00000000 0.00000000 -2.493772459999999 0 0 0
Ta 1.66256000 1.66256000 -0.8313407800000014 0 0 0
Ta 0.00000000 0.00000000 0.83134078
Ta 1.66256000 1.66256000 2.49377246
Ta 0.00000000 3.32512000 -2.493772459999999 0 0 0
Ta 1.66256000 4.98768000 -0.8313407800000014 0 0 0
Ta 0.00000000 3.32512000 0.83134078
Ta 1.66256000 4.98768000 2.49377246
Ta 3.32512000 0.00000000 -2.493772459999999 0 0 0
Ta 4.98768000 1.66256000 -0.8313407800000014 0 0 0
Ta 3.32512000 -0.00000000 0.83134078
Ta 4.98768000 1.66256000 2.49377246
Ta 3.32512000 3.32512000 -2.493772459999999 0 0 0
Ta 4.98768000 4.98768000 -0.8313407800000014 0 0 0
Ta 3.32512000 3.32512000 0.83134078
Ta 4.98768000 4.98768000 2.49377246
