&CONTROL
calculation = 'relax'
prefix = 'scf'
pseudo_dir = '/vol0004/mdt0/data/hp150275/u10028/POT_KKJUS'
outdir = './data'
tprnfor = .true.
nstep = 50
disk_io = 'non'
/
&SYSTEM
ibrav = 0
ecutwfc = 50.0
ecutrho = 400
occupations = 'smearing'
smearing = 'mp'
degauss = 0.01
assume_isolated = 'esm'
esm_bc = 'bc1'
input_dft = 'BEEF-VDW'
nosym = .true.
nspin = 1
ntyp = 4
nat = 17
/
&ELECTRONS
electron_maxstep = 200
mixing_beta = 0.1
conv_thr = 1e-06
/
&IONS
ion_dynamics = 'bfgs'
upscale = 1.0
/
&CELL
/

K_POINTS {automatic}
9 9 2 0  0  0

ATOMIC_SPECIES
C 12.01 C.pbe-n-rrkjus_psl.1.0.0.UPF
Ge 72.64 Ge.pbe-dn-rrkjus_psl.1.0.0.UPF
Li 6.941 Li.pbe-sl-rrkjus_psl.1.0.0.UPF
Sn 118.7 Sn.pbe-dn-rrkjus_psl.1.0.0.UPF

CELL_PARAMETERS {angstrom}
6.92564000 0.00000000 0.00000000
0.00000000 6.92564000 0.00000000
0.00000000 0.00000000 25.19420000

ATOMIC_POSITIONS {angstrom}
Li 6.92550149 0.00000000 0.73793812
Li 3.46282000 0.00000000 -2.5970181399999994 0 0 0
Li 0.00000000 3.46282000 -2.5970181399999994 0 0 0
Li 3.46275074 3.46282000 0.73894589
Li 1.73141000 1.73141000 -0.8656727099999983 0 0 0
Li 1.54116267 5.00412118 2.74843528
Li 5.19423000 5.19423000 -0.8656727099999983 0 0 0
Li 5.38426956 1.92151882 2.74843528
Sn 0.00000000 0.00000000 -2.5970181399999994 0 0 0
Sn 3.46282000 3.46282000 -2.5970181399999994 0 0 0
Sn 3.46385885 6.92487818 0.86189358
Sn 0.00020777 3.46295851 0.59609477
Ge 1.36213488 2.10047736 2.75674936
Ge 1.73141000 5.19423000 -0.8656727099999983 0 0 0
Ge 5.56329736 4.82530116 2.75674936
Ge 5.19423000 1.73141000 -0.8656727099999983 0 0 0
C 6.92550149 3.46282000 2.94998888
