&CONTROL
calculation = 'relax'
prefix = 'scf'
pseudo_dir = '/vol0403/data/hp230205/u10028/POT_HYBRID_KKJUS_GBRV'
outdir = './data'
tprnfor = .true.
nstep = 50
disk_io = 'non'
/
&SYSTEM
ibrav = 0
ecutwfc = 50.0
ecutrho = 400
occupations = 'smearing'
smearing = 'mp'
degauss = 0.01
assume_isolated = 'esm'
esm_bc = 'bc1'
input_dft = 'BEEF-VDW'
nosym = .true.
nspin = 1
ntyp = 6
nat = 34
/
&ELECTRONS
electron_maxstep = 200
mixing_beta = 0.1
conv_thr = 1e-06
/
&IONS
ion_dynamics = 'bfgs'
upscale = 1.0
/
&CELL
/

K_POINTS {automatic}
6 6 1 0 0 0

ATOMIC_SPECIES
Al 26.98 Al.pbe-nl-rrkjus_psl.1.0.0.UPF
C 12.01 C.pbe-n-rrkjus_psl.1.0.0.UPF
Li 6.941 Li.pbe-sl-rrkjus_psl.1.0.0.UPF
O 15.99 O.pbe-n-rrkjus_psl.1.0.0.UPF
Pd 106.4 Pd.pbe-n-rrkjus_psl.1.0.0.UPF
Ti 47.86 Ti.pbe-spn-rrkjus_psl.1.0.0.UPF


CELL_PARAMETERS {angstrom}
6.17553000 0.00000000 0.00000000
0.00000000 8.73352000 0.00000000
0.00000000 0.00000000 26.55010000

ATOMIC_POSITIONS {angstrom}
Li 4.63164750 0.00000000 -1.09174011 0 0 0
Li 4.63164750 4.36676000 -1.09174011 0 0 0
Li 1.54388250 2.18338000 -3.274954830000002 0 0 0
Li 1.54388250 6.55014000 -3.274954830000002 0 0 0
Li 4.36091226 4.22291893 4.51325150
Li 4.36085051 0.14384107 4.51325150
Li 1.54011543 6.55014000 1.11643170
Li 1.53146968 2.18338000 1.04421543
Ti 0.00000000 2.18338000 -1.09174011 0 0 0
Ti 0.00000000 6.55014000 -1.09174011 0 0 0
Ti 3.08776500 4.36676000 -3.274954830000002 0 0 0
Ti 3.08776500 0.00000000 -3.274954830000002 0 0 0
Ti 5.97501054 6.55014000 3.17565746
Ti 6.04911690 2.18338000 3.22318214
Ti 3.15334913 8.72932791 1.23696916
Ti 3.15328737 4.37095209 1.23696916
Al 0.00000000 0.00000000 -3.274954830000002 0 0 0
Al 0.00000000 4.36676000 -3.274954830000002 0 0 0
Al 3.08776500 6.55014000 -1.09174011 0 0 0
Al 3.08776500 2.18338000 -1.09174011 0 0 0
Al 6.13816804 4.36894338 1.12519324
Al 6.13816804 8.73124928 1.12519324
Al 2.99642891 2.18338000 3.18680850
Al 3.08480075 6.55014000 3.30389444
Pd 1.54388250 0.00000000 -1.09174011 0 0 0
Pd 1.54388250 4.36676000 -1.09174011 0 0 0
Pd 4.63164750 2.18338000 -3.274954830000002 0 0 0
Pd 4.63164750 6.55014000 -3.274954830000002 0 0 0
Pd 1.48898204 4.39383391 3.18840151
Pd 1.48910555 8.70653342 3.18840151
Pd 4.62436037 6.55014000 1.02297535
Pd 4.61837011 2.18338000 0.99881476
C 5.55661838 2.18338000 5.20992612
O 5.35634595 2.18338000 6.38290954
