&CONTROL
calculation = 'relax'
prefix = 'scf'
pseudo_dir = '/vol0403/data/hp230205/u10028/POT_HYBRID_KKJUS_GBRV'
outdir = './data'
tprnfor = .true.
nstep = 50
disk_io = 'non'
/
&SYSTEM
ibrav = 0
ecutwfc = 50.0
ecutrho = 400
occupations = 'smearing'
smearing = 'mp'
degauss = 0.01
assume_isolated = 'esm'
esm_bc = 'bc1'
input_dft = 'BEEF-VDW'
nosym = .true.
nspin = 1
ntyp = 6
nat = 34
/
&ELECTRONS
electron_maxstep = 200
mixing_beta = 0.1
conv_thr = 1e-06
/
&IONS
ion_dynamics = 'bfgs'
upscale = 1.0
/
&CELL
/

K_POINTS {automatic}
9 6 2 0  0  0

ATOMIC_SPECIES
Ag 107.8 Ag.pbe-n-rrkjus_psl.1.0.0.UPF
C 12.01 C.pbe-n-rrkjus_psl.1.0.0.UPF
Li 6.941 Li.pbe-sl-rrkjus_psl.1.0.0.UPF
Mg 24.30 Mg.pbe-spnl-rrkjus_psl.1.0.0.UPF
O 15.99 O.pbe-n-rrkjus_psl.1.0.0.UPF
Sn 118.7 Sn.pbe-dn-rrkjus_psl.1.0.0.UPF


CELL_PARAMETERS {angstrom}
6.75899000 0.00000000 0.00000000
0.00000000 9.55866000 0.00000000
0.00000000 0.00000000 27.16900000

ATOMIC_POSITIONS {angstrom}
Li 5.06924250 0.00000000 -1.194892620000001 0 0 0
Li 5.06924250 4.77933000 -1.194892620000001 0 0 0
Li 1.68974750 2.38966500 -3.584406170000001 0 0 0
Li 1.68974750 7.16899500 -3.584406170000001 0 0 0
Li 5.04693783 4.77933000 3.70557991
Li 5.11256763 0.00000000 3.77350241
Li 1.62371217 7.22768517 1.25249090
Li 1.62364458 2.33087924 1.25276259
Mg 1.68974750 0.00000000 -1.194892620000001 0 0 0
Mg 1.68974750 4.77933000 -1.194892620000001 0 0 0
Mg 5.06924250 2.38966500 -3.584406170000001 0 0 0
Mg 5.06924250 7.16899500 -3.584406170000001 0 0 0
Mg 1.65716917 4.77933000 3.98324709
Mg 1.60613879 0.00000000 3.78763029
Mg 5.11939421 7.09233455 1.25412104
Mg 5.11946180 2.46632545 1.25412104
Ag 0.00000000 0.00000000 -3.584406170000001 0 0 0
Ag 0.00000000 4.77933000 -3.584406170000001 0 0 0
Ag 3.37949500 7.16899500 -1.194892620000001 0 0 0
Ag 3.37949500 2.38966500 -1.194892620000001 0 0 0
Ag 0.14998199 4.77933000 1.47989543
Ag 6.69349539 0.00000000 1.35192944
Ag 3.33934660 2.40849556 3.51349508
Ag 3.33927901 7.15016444 3.51349508
Sn 0.00000000 2.38966500 -1.194892620000001 0 0 0
Sn 0.00000000 7.16899500 -1.194892620000001 0 0 0
Sn 3.37949500 4.77933000 -3.584406170000001 0 0 0
Sn 3.37949500 0.00000000 -3.584406170000001 0 0 0
Sn 6.65753756 7.13152505 3.84142491
Sn 6.65746997 2.42713495 3.84169660
Sn 3.40038028 0.00000000 1.38561900
Sn 3.25242599 4.77933000 1.39295463
C 1.79721544 0.00000000 6.04890616
O 1.78444095 0.00000000 7.19217768
