&CONTROL
calculation = 'relax'
prefix = 'scf'
pseudo_dir = '/vol0004/mdt0/data/hp150275/u10028/POT_KKJUS'
outdir = './data'
tprnfor = .true.
nstep = 50
disk_io = 'non'
/
&SYSTEM
ibrav = 0
ecutwfc = 50.0
ecutrho = 400
occupations = 'smearing'
smearing = 'mp'
degauss = 0.01
assume_isolated = 'esm'
esm_bc = 'bc1'
input_dft = 'BEEF-VDW'
nosym = .true.
nspin = 1
ntyp = 3
nat = 32
/
&ELECTRONS
electron_maxstep = 200
mixing_beta = 0.1
conv_thr = 1e-06
/
&IONS
ion_dynamics = 'bfgs'
upscale = 1.0
/
&CELL
/

K_POINTS {automatic}
8 6 1 0 0 0

ATOMIC_SPECIES
Ge 72.64 Ge.pbe-dn-rrkjus_psl.1.0.0.UPF
Li 6.941 Li.pbe-sl-rrkjus_psl.1.0.0.UPF
Sn 118.7 Sn.pbe-dn-rrkjus_psl.1.0.0.UPF

CELL_PARAMETERS {angstrom}
6.92564000 0.00000000 0.00000000
0.00000000 9.79433000 0.00000000
0.00000000 0.00000000 27.34580000

ATOMIC_POSITIONS {angstrom}
Li 0.00000000 7.34574750 -1.2242714700000015 0 0 0
Li 3.46282000 0.00000000 -3.6728144 0 0 0
Li 0.00000000 2.44858250 -1.2242714700000015 0 0 0
Li 3.46282000 4.89716500 -3.6728144 0 0 0
Li 1.73141000 0.00000000 -1.2242714700000015 0 0 0
Li 1.73141000 4.89716500 -1.2242714700000015 0 0 0
Li 5.19423000 7.34574750 -3.6728144 0 0 0
Li 5.19423000 2.44858250 -3.6728144 0 0 0
Li 6.71530831 2.44858250 3.51038035
Li 3.52882135 4.89706706 1.17833052
Li 6.71544683 7.34584544 3.51065380
Li 3.52895986 0.00000000 1.17860398
Li 1.85004621 4.89726294 3.62605308
Li 1.85025398 0.00000000 3.62605308
Li 5.12289591 2.44858250 1.18352622
Li 5.12275740 7.34564956 1.18379968
Sn 0.00000000 0.00000000 -3.6728144 0 0 0
Sn 3.46282000 2.44858250 -1.2242714700000015 0 0 0
Sn 3.46282000 7.34574750 -1.2242714700000015 0 0 0
Sn 0.00000000 4.89716500 -3.6728144 0 0 0
Sn 0.02666371 4.89726294 1.24341353
Sn 3.43442488 7.34564956 3.66789215
Sn 3.43421711 2.44868044 3.66734524
Sn 0.02583264 9.79423206 1.24396044
Ge 1.73141000 2.44858250 -3.6728144 0 0 0
Ge 1.73141000 7.34574750 -3.6728144 0 0 0
Ge 5.19423000 4.89716500 -1.2242714700000015 0 0 0
Ge 5.19423000 0.00000000 -1.2242714700000015 0 0 0
Ge 1.70654695 7.34623722 1.22345109
Ge 1.70640844 2.44809278 1.22290418
Ge 5.16701223 0.00009794 3.54428914
Ge 5.16770480 4.89716500 3.54319531
