&CONTROL
calculation = 'relax'
prefix = 'scf'
pseudo_dir = '/vol0004/mdt0/data/hp150275/u10028/POT_KKJUS'
outdir = './data'
tprnfor = .true.
nstep = 50
disk_io = 'non'
/
&SYSTEM
ibrav = 0
ecutwfc = 50.0
ecutrho = 400
occupations = 'smearing'
smearing = 'mp'
degauss = 0.01
assume_isolated = 'esm'
esm_bc = 'bc1'
input_dft = 'BEEF-VDW'
nosym = .true.
nspin = 1
ntyp = 5
nat = 34
/
&ELECTRONS
electron_maxstep = 200
mixing_beta = 0.1
conv_thr = 1e-06
/
&IONS
ion_dynamics = 'bfgs'
upscale = 1.0
/
&CELL
/

K_POINTS {automatic}
9 6 2 0  0  0

ATOMIC_SPECIES
C 12.01 C.pbe-n-rrkjus_psl.1.0.0.UPF
Ga 69.72 Ga.pbe-dnl-rrkjus_psl.1.0.0.UPF
O 15.99 O.pbe-n-rrkjus_psl.1.0.0.UPF
Pd 106.4 Pd.pbe-n-rrkjus_psl.1.0.0.UPF
Sc 44.95 Sc.pbe-spn-rrkjus_psl.1.0.0.UPF

CELL_PARAMETERS {angstrom}
6.43013000 0.00000000 0.00000000
0.00000000 9.09357000 0.00000000
0.00000000 0.00000000 26.82020000

ATOMIC_POSITIONS {angstrom}
Sc 0.00000000 0.00000000 -3.410188429999998 0 0 0
Sc 3.21506500 2.27339250 -1.1366400799999994 0 0 0
Sc 3.21506500 6.82017750 -1.1366400799999994 0 0 0
Sc 0.00000000 4.54678500 -3.410188429999998 0 0 0
Sc 0.00000000 4.55633325 1.12725301
Sc 3.21506500 6.82017750 3.39409631
Sc 3.21500070 2.27339250 3.35225680
Sc 0.00000000 9.08402175 1.12725301
Ga 0.00000000 6.82017750 -1.1366400799999994 0 0 0
Ga 3.21506500 0.00000000 -3.410188429999998 0 0 0
Ga 0.00000000 2.27339250 -1.1366400799999994 0 0 0
Ga 3.21506500 4.54678500 -3.410188429999998 0 0 0
Ga 0.00000000 2.27348344 3.47187489
Ga 3.21506500 4.54533003 1.19859474
Ga 0.00006430 6.81981376 3.39248710
Ga 3.21506500 0.00154591 1.19859474
Pd 1.60753250 0.00000000 -1.1366400799999994 0 0 0
Pd 4.82259750 4.54678500 -1.1366400799999994 0 0 0
Pd 4.82259750 0.00000000 -1.1366400799999994 0 0 0
Pd 1.60753250 4.54678500 -1.1366400799999994 0 0 0
Pd 4.82259750 6.82017750 -3.410188429999998 0 0 0
Pd 1.60753250 2.27339250 -3.410188429999998 0 0 0
Pd 1.60753250 6.82017750 -3.410188429999998 0 0 0
Pd 4.82259750 2.27339250 -3.410188429999998 0 0 0
Pd 1.52985653 4.55078617 3.30210302
Pd 4.90027347 9.08956883 3.30210302
Pd 4.90020917 4.55087711 3.30210302
Pd 1.52985653 9.08965976 3.30210302
Pd 4.80587916 2.27348344 1.11330650
Pd 1.64675629 6.82017750 1.13234884
Pd 1.62418654 2.27339250 1.11330650
Pd 4.78330941 6.82017750 1.13234884
C 0.00000000 2.27339250 5.65342996
O 0.00000000 2.27330156 6.80321193
