&CONTROL
calculation = 'relax'
prefix = 'scf'
pseudo_dir = '/vol0403/data/hp230205/u10028/POT_HYBRID_KKJUS_GBRV'
outdir = './data'
tprnfor = .true.
nstep = 50
disk_io = 'non'
/
&SYSTEM
ibrav = 0
ecutwfc = 50.0
ecutrho = 400
occupations = 'smearing'
smearing = 'mp'
degauss = 0.01
assume_isolated = 'esm'
esm_bc = 'bc1'
input_dft = 'BEEF-VDW'
nosym = .true.
nspin = 1
ntyp = 5
nat = 33
/
&ELECTRONS
electron_maxstep = 200
mixing_beta = 0.1
conv_thr = 1e-06
/
&IONS
ion_dynamics = 'bfgs'
upscale = 1.0
/
&CELL
/

K_POINTS {automatic}
6 6 1 0 0 0

ATOMIC_SPECIES
Ag 107.8 Ag.pbe-n-rrkjus_psl.1.0.0.UPF
Al 26.98 Al.pbe-nl-rrkjus_psl.1.0.0.UPF
C 12.01 C.pbe-n-rrkjus_psl.1.0.0.UPF
Li 6.941 Li.pbe-sl-rrkjus_psl.1.0.0.UPF
Sn 118.7 Sn.pbe-dn-rrkjus_psl.1.0.0.UPF


CELL_PARAMETERS {angstrom}
8.56020000 0.00000000 0.00000000
0.00000000 8.66686000 0.00000000
0.00000000 0.00000000 26.12070000

ATOMIC_POSITIONS {angstrom}
Li 2.14005000 0.00000000 1.03855903
Li 2.14005000 0.00000000 -3.0603012099999987 0 0 0
Li 2.14005000 4.33343000 1.01949092
Li 2.14005000 4.33343000 -3.0603012099999987 0 0 0
Li 6.42015000 0.00000000 0.93851675
Li 6.42015000 0.00000000 -3.0603012099999987 0 0 0
Li 6.42015000 4.33343000 0.91997105
Li 6.42015000 4.33343000 -3.0603012099999987 0 0 0
Al 8.50233305 2.20042909 0.98396677
Al 0.00000000 2.16671500 -3.0603012099999987 0 0 0
Al 8.50224745 6.46634425 0.98396677
Al 0.00000000 6.50014500 -3.0603012099999987 0 0 0
Al 4.33796695 2.20042909 0.98396677
Al 4.28010000 2.16671500 -3.0603012099999987 0 0 0
Al 4.33805255 6.46634425 0.98396677
Al 4.28010000 6.50014500 -3.0603012099999987 0 0 0
Ag 8.50336027 8.66677333 2.57550102
Ag 0.00000000 0.00000000 -1.0200133399999984 0 0 0
Ag 8.43487867 4.33343000 2.65229588
Ag 0.00000000 4.33343000 -1.0200133399999984 0 0 0
Ag 4.33693973 8.66677333 2.57550102
Ag 4.28010000 0.00000000 -1.0200133399999984 0 0 0
Ag 4.40542133 4.33343000 2.65229588
Ag 4.28010000 4.33343000 -1.0200133399999984 0 0 0
Sn 2.14005000 2.13239423 3.60491781
Sn 2.14005000 2.16671500 -1.0200133399999984 0 0 0
Sn 2.14005000 6.53472577 3.60491781
Sn 2.14005000 6.50014500 -1.0200133399999984 0 0 0
Sn 6.42015000 2.15345470 3.33587460
Sn 6.42015000 2.16671500 -1.0200133399999984 0 0 0
Sn 6.42015000 6.51331863 3.33587460
Sn 6.42015000 6.50014500 -1.0200133399999984 0 0 0
C 2.14005000 0.00026001 3.30191769
