&CONTROL
calculation = 'relax'
prefix = 'scf'
pseudo_dir = '/vol0403/data/hp230205/u10028/POT_HYBRID_KKJUS_GBRV'
outdir = './data'
tprnfor = .true.
nstep = 70
disk_io = 'non'
/
&SYSTEM
ibrav = 0
ecutwfc = 50.0
ecutrho = 400
occupations = 'smearing'
smearing = 'mp'
degauss = 0.01
assume_isolated = 'esm'
esm_bc = 'bc1'
input_dft = 'BEEF-VDW'
nosym = .true.
nspin = 1
ntyp = 6
nat = 18
/
&ELECTRONS
electron_maxstep = 200
mixing_beta = 0.1
conv_thr = 1e-06
/
&IONS
ion_dynamics = 'bfgs'
upscale = 1.0
/
&CELL
/

K_POINTS {automatic}
8 10 2 0  0  0

ATOMIC_SPECIES
Al 26.98 Al.pbe-nl-rrkjus_psl.1.0.0.UPF
C 12.01 C.pbe-n-rrkjus_psl.1.0.0.UPF
In 114.8 In.pbe-dn-rrkjus_psl.1.0.0.UPF
O 15.99 O.pbe-n-rrkjus_psl.1.0.0.UPF
Pd 106.4 Pd.pbe-n-rrkjus_psl.1.0.0.UPF
Y 88.90 Y.pbe-spn-rrkjus_psl.1.0.0.UPF


CELL_PARAMETERS {angstrom}
8.16174000 0.00000000 0.00000000
-0.00000000 6.39385000 0.00000000
0.00000000 0.00000000 24.79180000

ATOMIC_POSITIONS {angstrom}
Y 2.04043500 4.73317534 -0.7985438799999969 0 0 0
Y 2.04067985 1.36917904 2.42959640
Y 6.12130500 4.73317534 -0.7985438799999969 0 0 0
Y 6.12154985 1.26374445 2.34877513
Al 0.00000000 0.00000000 -2.39587955 0 0 0
Al 8.16051574 2.99609417 0.78515631
Al 4.08087000 0.00000000 -2.39587955 0 0 0
Al 4.08193103 2.99564660 0.78466047
In 2.04043500 1.53625034 -0.7985438799999969 0 0 0
In 2.03904750 4.57575875 2.47496539
In 6.12130500 1.53625034 -0.7985438799999969 0 0 0
In 6.11893810 4.46271548 2.58429723
Pd 0.00000000 3.19692500 -2.39587955 0 0 0
Pd 0.00799851 6.27991159 0.78143754
Pd 4.08087000 3.19692500 -2.39587955 0 0 0
Pd 4.07295311 6.27978372 0.78168545
C 2.04092470 0.28017851 4.64226455
O 2.04084309 6.25996278 5.72169952
