&CONTROL
calculation = 'relax'
prefix = 'scf'
pseudo_dir = '/vol0403/data/hp230205/u10028/POT_HYBRID_KKJUS_GBRV'
outdir = './data'
tprnfor = .true.
nstep = 70
disk_io = 'non'
/
&SYSTEM
ibrav = 0
ecutwfc = 50.0
ecutrho = 400
occupations = 'smearing'
smearing = 'mp'
degauss = 0.01
assume_isolated = 'esm'
esm_bc = 'bc1'
input_dft = 'BEEF-VDW'
nosym = .true.
nspin = 1
ntyp = 5
nat = 33
/
&ELECTRONS
electron_maxstep = 200
mixing_beta = 0.1
conv_thr = 1e-06
/
&IONS
ion_dynamics = 'bfgs'
upscale = 1.0
/
&CELL
/

K_POINTS {automatic}
6 6 1 0 0 0

ATOMIC_SPECIES
C 12.01 C.pbe-n-rrkjus_psl.1.0.0.UPF
Cu 63.54 Cu.pbe-dn-rrkjus_psl.1.0.0.UPF
Li 6.941 Li.pbe-sl-rrkjus_psl.1.0.0.UPF
Pd 106.4 Pd.pbe-n-rrkjus_psl.1.0.0.UPF
Si 28.08 Si.pbe-nl-rrkjus_psl.1.0.0.UPF


CELL_PARAMETERS {angstrom}
5.89837000 0.00000000 0.00000000
-0.00000000 8.34156000 0.00000000
0.00000000 0.00000000 26.25620000

ATOMIC_POSITIONS {angstrom}
Li 1.47459250 0.00000000 -1.0426336999999997 0 0 0
Li 1.47459250 4.17078000 -1.0426336999999997 0 0 0
Li 4.42377750 2.08539000 -3.1281636699999993 0 0 0
Li 4.42377750 6.25617000 -3.1281636699999993 0 0 0
Li 1.50573589 4.17078000 3.67481775
Li 1.61473777 -0.00000000 4.22856101
Li 4.43816952 6.23806881 0.97830601
Li 4.43816952 2.10349119 0.97830601
Cu 0.00000000 0.00000000 -3.1281636699999993 0 0 0
Cu 0.00000000 4.17078000 -3.1281636699999993 0 0 0
Cu 2.94918500 6.25617000 -1.0426336999999997 0 0 0
Cu 2.94918500 2.08539000 -1.0426336999999997 0 0 0
Cu 0.06281764 4.17078000 1.16367478
Cu 0.01722324 0.00000000 1.17155164
Cu 3.02214784 2.17155831 2.98743044
Cu 3.02214784 6.17000169 2.98743044
Si 4.42377750 0.00000000 -1.0426336999999997 0 0 0
Si 4.42377750 4.17078000 -1.0426336999999997 0 0 0
Si 1.47459250 2.08539000 -3.1281636699999993 0 0 0
Si 1.47459250 6.25617000 -3.1281636699999993 0 0 0
Si 4.46866410 4.17078000 3.14076664
Si 3.93722096 -0.00000000 3.28123731
Si 1.48025494 6.23406487 1.01769031
Si 1.48025494 2.10749513 1.01769031
Pd 0.00000000 2.08539000 -1.0426336999999997 0 0 0
Pd 0.00000000 6.25617000 -1.0426336999999997 0 0 0
Pd 2.94918500 4.17078000 -3.1281636699999993 0 0 0
Pd 2.94918500 0.00000000 -3.1281636699999993 0 0 0
Pd 0.02512706 6.24524256 2.99714523
Pd 0.02512706 2.09631744 2.99714523
Pd 2.91232019 -0.00000000 1.00298684
Pd 2.90878117 4.17078000 1.09225792
C 5.71652325 -0.00000000 3.35134137
