&CONTROL
calculation = 'relax'
prefix = 'scf'
pseudo_dir = '/vol0004/mdt0/data/hp150275/u10028/POT_KKJUS'
outdir = './data'
tprnfor = .true.
nstep = 50
disk_io = 'non'
/
&SYSTEM
ibrav = 0
ecutwfc = 50.0
ecutrho = 400
occupations = 'smearing'
smearing = 'mp'
degauss = 0.01
assume_isolated = 'esm'
esm_bc = 'bc1'
input_dft = 'BEEF-VDW'
nosym = .true.
nspin = 1
ntyp = 3
nat = 33
/
&ELECTRONS
electron_maxstep = 200
mixing_beta = 0.1
conv_thr = 1e-06
/
&IONS
ion_dynamics = 'bfgs'
upscale = 1.0
/
&CELL
/

K_POINTS {automatic}
8 6 1 0 0 0

ATOMIC_SPECIES
C 12.01 C.pbe-n-rrkjus_psl.1.0.0.UPF
Ru 101.0 Ru.pbe-spn-rrkjus_psl.1.0.0.UPF
Ta 180.9 Ta.pbe-spn-rrkjus_psl.1.0.0.UPF

CELL_PARAMETERS {angstrom}
6.35210000 0.00000000 0.00000000
0.00000000 8.98322000 0.00000000
0.00000000 0.00000000 26.73740000

ATOMIC_POSITIONS {angstrom}
Ta 1.58802500 2.24580500 -3.3686450299999997 0 0 0
Ta 1.58802500 0.00000000 -1.122970800000001 0 0 0
Ta 1.58802500 2.24580500 1.20906523
Ta 1.58802500 0.16259628 3.50340152
Ta 1.58802500 6.73741500 -3.3686450299999997 0 0 0
Ta 1.58802500 4.49161000 -1.122970800000001 0 0 0
Ta 1.58802500 6.73741500 1.23419838
Ta 1.58802500 4.32901372 3.50366890
Ta 4.76407500 2.24580500 -3.3686450299999997 0 0 0
Ta 4.76407500 0.00000000 -1.122970800000001 0 0 0
Ta 4.76407500 2.24580500 1.03687637
Ta 4.76407500 8.92330192 3.38522221
Ta 4.76407500 6.73741500 -3.3686450299999997 0 0 0
Ta 4.76407500 4.49161000 -1.122970800000001 0 0 0
Ta 4.76407500 6.73741500 1.20879785
Ta 4.76407500 4.55152808 3.38522221
Ru 0.00000000 0.00000000 -3.3686450299999997 0 0 0
Ru 0.00000000 2.24580500 -1.122970800000001 0 0 0
Ru 0.00692379 8.97181131 1.16013579
Ru 6.14527562 2.24580500 3.18469171
Ru 0.00000000 4.49161000 -3.3686450299999997 0 0 0
Ru 0.00000000 6.73741500 -1.122970800000001 0 0 0
Ru 0.00692379 4.50301869 1.16013579
Ru 0.03042656 6.73741500 3.26089330
Ru 3.17605000 0.00000000 -3.3686450299999997 0 0 0
Ru 3.17605000 2.24580500 -1.122970800000001 0 0 0
Ru 3.16912621 8.97181131 1.16013579
Ru 3.38287438 2.24580500 3.18469171
Ru 3.17605000 4.49161000 -3.3686450299999997 0 0 0
Ru 3.17605000 6.73741500 -1.122970800000001 0 0 0
Ru 3.16912621 4.50301869 1.16013579
Ru 3.14562344 6.73741500 3.26089330
C 1.58802500 2.24580500 4.07879037
