&CONTROL
calculation = 'relax'
prefix = 'scf'
pseudo_dir = '/vol0004/mdt0/data/hp150275/u10028/POT_HYBRID_KKJUS_GBRV'
outdir = './data'
tprnfor = .true.
nstep = 50
disk_io = 'non'
/
&SYSTEM
ibrav = 0
ecutwfc = 50.0
ecutrho = 400
occupations = 'smearing'
smearing = 'mp'
degauss = 0.01
assume_isolated = 'esm'
esm_bc = 'bc1'
input_dft = 'BEEF-VDW'
nosym = .true.
nspin = 2
ntyp = 4
nat = 34
starting_magnetization(1) = 0.0
starting_magnetization(2) = 0.001
starting_magnetization(3) = 0.0
starting_magnetization(4) = 0.0
/
&ELECTRONS
electron_maxstep = 300
mixing_beta = 0.1
conv_thr = 1e-06
/
&IONS
ion_dynamics = 'bfgs'
upscale = 1.0
/
&CELL
/

K_POINTS {automatic}
9 6 2 0  0  0

ATOMIC_SPECIES
C 12.01 C.pbe-n-rrkjus_psl.1.0.0.UPF
Ni 58.69 ni_pbe_v1.4.uspp.F.UPF
O 15.99 O.pbe-n-rrkjus_psl.1.0.0.UPF
Sn 118.7 Sn.pbe-dn-rrkjus_psl.1.0.0.UPF

CELL_PARAMETERS {angstrom}
5.96895000 0.00000000 0.00000000
0.00000000 8.44136000 0.00000000
0.00000000 0.00000000 26.33100000

ATOMIC_POSITIONS {angstrom}
Ni 1.49223750 0.00000000 -1.0550831699999996 0 0 0
Ni 4.47671250 4.22068000 -1.0550831699999996 0 0 0
Ni 4.47671250 0.00000000 -1.0550831699999996 0 0 0
Ni 1.49223750 4.22068000 -1.0550831699999996 0 0 0
Ni 4.47671250 6.33102000 -3.16551282 0 0 0
Ni 1.49223750 2.11034000 -3.16551282 0 0 0
Ni 1.49223750 6.33102000 -3.16551282 0 0 0
Ni 4.47671250 2.11034000 -3.16551282 0 0 0
Ni 0.00000000 6.33102000 -1.0550831699999996 0 0 0
Ni 2.98447500 0.00000000 -3.16551282 0 0 0
Ni 0.00000000 2.11034000 -1.0550831699999996 0 0 0
Ni 2.98447500 4.22068000 -3.16551282 0 0 0
Ni 1.51408386 4.24490670 3.05702910
Ni 4.45600024 8.41696447 3.05729241
Ni 4.45486614 4.24490670 3.05702910
Ni 1.51294976 8.41696447 3.05729241
Ni 4.55609954 2.11017117 1.07878107
Ni 1.65608518 6.33118883 1.16804316
Ni 1.41285046 2.11017117 1.07878107
Ni 4.31286482 6.33118883 1.16804316
Ni 0.00000000 2.11059324 3.22423095
Ni 2.98447500 4.14994140 1.02480252
Ni 0.00000000 6.33085117 3.02990817
Ni 2.98447500 0.07073860 1.02532914
Sn 0.00000000 0.00000000 -3.16551282 0 0 0
Sn 2.98447500 2.11034000 -1.0550831699999996 0 0 0
Sn 2.98447500 6.33102000 -1.0550831699999996 0 0 0
Sn 0.00000000 4.22068000 -3.16551282 0 0 0
Sn 0.00000000 4.30728835 1.00768737
Sn 2.98447500 6.33135765 3.52677414
Sn 2.98447500 2.10991793 3.22291440
Sn 0.00000000 8.35475165 1.00742406
C 0.00000000 2.11059324 4.97708562
O 0.00000000 2.11042441 6.13248990
