&CONTROL
calculation = 'relax'
prefix = 'scf'
pseudo_dir = '/vol0004/mdt0/data/hp150275/u10028/POT_KKJUS'
outdir = './data'
tprnfor = .true.
nstep = 50
disk_io = 'non'
/
&SYSTEM
ibrav = 0
ecutwfc = 50.0
ecutrho = 400
occupations = 'smearing'
smearing = 'mp'
degauss = 0.01
assume_isolated = 'esm'
esm_bc = 'bc1'
input_dft = 'BEEF-VDW'
nosym = .true.
nspin = 1
ntyp = 4
nat = 34
/
&ELECTRONS
electron_maxstep = 200
mixing_beta = 0.1
conv_thr = 1e-06
/
&IONS
ion_dynamics = 'bfgs'
upscale = 1.0
/
&CELL
/

K_POINTS {automatic}
6 6 1 0 0 0

ATOMIC_SPECIES
C 12.01 C.pbe-n-rrkjus_psl.1.0.0.UPF
In 114.8 In.pbe-dn-rrkjus_psl.1.0.0.UPF
Mg 24.30 Mg.pbe-spnl-rrkjus_psl.1.0.0.UPF
O 15.99 O.pbe-n-rrkjus_psl.1.0.0.UPF

CELL_PARAMETERS {angstrom}
9.42262000 0.00000000 0.00000000
-0.00000000 9.42262000 0.00000000
0.00000000 0.00000000 27.06700000

ATOMIC_POSITIONS {angstrom}
Mg 0.00000000 0.00000000 -3.5335968499999986 0 0 0
Mg 0.00000000 0.00000000 1.17795584
Mg 0.00000000 4.71131000 -3.5335968499999986 0 0 0
Mg 0.00000000 4.71131000 1.17795584
Mg 4.71131000 0.00000000 -3.5335968499999986 0 0 0
Mg 4.71131000 -0.00000000 1.17795584
Mg 4.71131000 4.71131000 -3.5335968499999986 0 0 0
Mg 4.71131000 4.71131000 1.17795584
In 0.00000000 2.35565500 -1.1779558399999992 0 0 0
In 2.35565500 0.00000000 -1.1779558399999992 0 0 0
In 2.35565500 2.35565500 -3.5335968499999986 0 0 0
In 0.00000000 2.35565500 3.53359685
In 2.35565500 -0.00000000 3.53359685
In 2.35565500 2.35565500 1.17795584
In 0.00000000 7.06696500 -1.1779558399999992 0 0 0
In 2.35565500 4.71131000 -1.1779558399999992 0 0 0
In 2.35565500 7.06696500 -3.5335968499999986 0 0 0
In 0.00000000 7.06696500 3.53359685
In 2.35565500 4.71131000 3.53359685
In 2.35565500 7.06696500 1.17795584
In 4.71131000 2.35565500 -1.1779558399999992 0 0 0
In 7.06696500 0.00000000 -1.1779558399999992 0 0 0
In 7.06696500 2.35565500 -3.5335968499999986 0 0 0
In 4.71131000 2.35565500 3.53359685
In 7.06696500 -0.00000000 3.53359685
In 7.06696500 2.35565500 1.17795584
In 4.71131000 7.06696500 -1.1779558399999992 0 0 0
In 7.06696500 4.71131000 -1.1779558399999992 0 0 0
In 7.06696500 7.06696500 -3.5335968499999986 0 0 0
In 4.71131000 7.06696500 3.53359685
In 7.06696500 4.71131000 3.53359685
In 7.06696500 7.06696500 1.17795584
C 2.35565500 -0.00000000 5.43342958
O 2.35565500 -0.00000000 6.58350641
