&CONTROL
calculation = 'relax'
prefix = 'scf'
pseudo_dir = '/vol0004/mdt0/data/hp150275/u10028/POT_KKJUS'
outdir = './data'
tprnfor = .true.
nstep = 50
disk_io = 'non'
/
&SYSTEM
ibrav = 0
ecutwfc = 50.0
ecutrho = 400
occupations = 'smearing'
smearing = 'mp'
degauss = 0.01
assume_isolated = 'esm'
esm_bc = 'bc1'
input_dft = 'BEEF-VDW'
nosym = .true.
nspin = 1
ntyp = 3
nat = 33
/
&ELECTRONS
electron_maxstep = 200
mixing_beta = 0.1
conv_thr = 1e-06
/
&IONS
ion_dynamics = 'bfgs'
upscale = 1.0
/
&CELL
/

K_POINTS {automatic}
8 6 1 0 0 0

ATOMIC_SPECIES
Al 26.98 Al.pbe-nl-rrkjus_psl.1.0.0.UPF
C 12.01 C.pbe-n-rrkjus_psl.1.0.0.UPF
Ru 101.0 Ru.pbe-spn-rrkjus_psl.1.0.0.UPF

CELL_PARAMETERS {angstrom}
6.00621000 0.00000000 0.00000000
0.00000000 8.49407000 0.00000000
0.00000000 0.00000000 26.37050000

ATOMIC_POSITIONS {angstrom}
Al 0.00000000 0.00000000 -3.1852926900000007 0 0 0
Al 0.00000000 2.12351750 -1.061676330000001 0 0 0
Al 0.00000000 0.00000000 1.04664515
Al 0.00000000 2.17414216 3.19847795
Al 0.00000000 4.24703500 -3.1852926900000007 0 0 0
Al 0.00000000 6.37055250 -1.061676330000001 0 0 0
Al 0.00000000 4.24703500 1.05429259
Al 0.00000000 6.31992784 3.19847795
Al 3.00310500 0.00000000 -3.1852926900000007 0 0 0
Al 3.00310500 2.12351750 -1.061676330000001 0 0 0
Al 3.00310500 0.00000000 0.96542400
Al 3.00310500 2.14364845 3.18977568
Al 3.00310500 4.24703500 -3.1852926900000007 0 0 0
Al 3.00310500 6.37055250 -1.061676330000001 0 0 0
Al 3.00310500 4.24703500 1.04980960
Al 3.00310500 6.35042155 3.18977568
Ru 1.50155250 2.12351750 -3.1852926900000007 0 0 0
Ru 1.50155250 0.00000000 -1.061676330000001 0 0 0
Ru 1.49332399 2.11069145 1.06563191
Ru 1.51752902 4.24703500 3.17342597
Ru 1.50155250 6.37055250 -3.1852926900000007 0 0 0
Ru 1.50155250 4.24703500 -1.061676330000001 0 0 0
Ru 1.49332399 6.38329361 1.06563191
Ru 1.50311411 0.00000000 3.24119816
Ru 4.50465750 2.12351750 -3.1852926900000007 0 0 0
Ru 4.50465750 0.00000000 -1.061676330000001 0 0 0
Ru 4.51288601 2.11069145 1.06563191
Ru 4.48868098 4.24703500 3.17342597
Ru 4.50465750 6.37055250 -3.1852926900000007 0 0 0
Ru 4.50465750 4.24703500 -1.061676330000001 0 0 0
Ru 4.51288601 6.38329361 1.06563191
Ru 4.50309589 0.00000000 3.24119816
C 0.00000000 0.00000000 4.32397089
