&CONTROL
calculation = 'relax'
prefix = 'scf'
pseudo_dir = '/vol0004/mdt0/data/hp150275/u10028/POT_KKJUS'
outdir = './data'
tprnfor = .true.
nstep = 50
disk_io = 'non'
/
&SYSTEM
ibrav = 0
ecutwfc = 50.0
ecutrho = 400
occupations = 'smearing'
smearing = 'mp'
degauss = 0.01
assume_isolated = 'esm'
esm_bc = 'bc1'
input_dft = 'BEEF-VDW'
nosym = .true.
nspin = 1
ntyp = 4
nat = 34
/
&ELECTRONS
electron_maxstep = 200
mixing_beta = 0.1
conv_thr = 1e-06
/
&IONS
ion_dynamics = 'bfgs'
upscale = 1.0
/
&CELL
/

K_POINTS {automatic}
6 6 1 0 0 0

ATOMIC_SPECIES
C 12.01 C.pbe-n-rrkjus_psl.1.0.0.UPF
O 15.99 O.pbe-n-rrkjus_psl.1.0.0.UPF
Rh 102.9 Rh.pbe-spn-rrkjus_psl.1.0.0.UPF
Zr 91.22 Zr.pbe-spn-rrkjus_psl.1.0.0.UPF

CELL_PARAMETERS {angstrom}
7.95743000 0.00000000 0.00000000
0.00000000 7.95743000 0.00000000
0.00000000 0.00000000 25.96810000

ATOMIC_POSITIONS {angstrom}
Zr 7.93459218 7.93459218 2.85649100
Zr 0.00000000 0.00000000 -0.9945782299999983 0 0 0
Zr 7.93459218 4.00163240 2.85649100
Zr 0.00000000 3.97871500 -0.9945782299999983 0 0 0
Zr 4.00155282 7.93459218 2.85649100
Zr 3.97871500 0.00000000 -0.9945782299999983 0 0 0
Zr 4.00155282 4.00163240 2.85649100
Zr 3.97871500 3.97871500 -0.9945782299999983 0 0 0
Rh 0.00023872 1.98919835 1.00756228
Rh 1.98919835 7.95727085 1.00730260
Rh 1.98943707 1.98959622 3.05852282
Rh 0.00000000 1.98935750 -2.9839943700000013 0 0 0
Rh 1.98935750 0.00000000 -2.9839943700000013 0 0 0
Rh 1.98935750 1.98935750 -0.9945782299999983 0 0 0
Rh 7.95321256 5.96823165 0.98912493
Rh 1.98951665 3.97887415 1.00756228
Rh 1.98927793 5.96759505 2.94634063
Rh 0.00000000 5.96807250 -2.9839943700000013 0 0 0
Rh 1.98935750 3.97871500 -2.9839943700000013 0 0 0
Rh 1.98935750 5.96807250 -0.9945782299999983 0 0 0
Rh 3.97847628 1.98951665 1.00782196
Rh 5.96823165 7.95265554 0.98990397
Rh 5.96791335 1.98888005 2.94660031
Rh 3.97871500 1.98935750 -2.9839943700000013 0 0 0
Rh 5.96807250 0.00000000 -2.9839943700000013 0 0 0
Rh 5.96807250 1.98935750 -0.9945782299999983 0 0 0
Rh 3.98293244 5.96791335 0.98912493
Rh 5.96799293 3.98356903 0.98938461
Rh 5.96807250 5.96823165 2.97854107
Rh 3.97871500 5.96807250 -2.9839943700000013 0 0 0
Rh 5.96807250 3.97871500 -2.9839943700000013 0 0 0
Rh 5.96807250 5.96807250 -0.9945782299999983 0 0 0
C 1.98935750 1.98935750 4.91212580
O 1.98927793 1.98935750 6.07965157
