&CONTROL
calculation = 'relax'
prefix = 'scf'
pseudo_dir = '/vol0004/mdt0/data/hp150275/u10028/POT_KKJUS'
outdir = './data'
tprnfor = .true.
nstep = 50
disk_io = 'non'
/
&SYSTEM
ibrav = 0
ecutwfc = 50.0
ecutrho = 400
occupations = 'smearing'
smearing = 'mp'
degauss = 0.01
assume_isolated = 'esm'
esm_bc = 'bc1'
input_dft = 'BEEF-VDW'
nosym = .true.
nspin = 1
ntyp = 3
nat = 33
/
&ELECTRONS
electron_maxstep = 200
mixing_beta = 0.1
conv_thr = 1e-06
/
&IONS
ion_dynamics = 'bfgs'
upscale = 1.0
/
&CELL
/

K_POINTS {automatic}
8 6 1 0 0 0

ATOMIC_SPECIES
Al 26.98 Al.pbe-nl-rrkjus_psl.1.0.0.UPF
C 12.01 C.pbe-n-rrkjus_psl.1.0.0.UPF
Ni 58.69 Ni.pbe-spn-rrkjus_psl.1.0.0.UPF

CELL_PARAMETERS {angstrom}
5.79956000 0.00000000 0.00000000
0.00000000 8.20182000 0.00000000
0.00000000 0.00000000 26.15140000

ATOMIC_POSITIONS {angstrom}
Al 1.44989000 2.05045500 -3.07566615 0 0 0
Al 1.44989000 0.00000000 -1.0251348799999995 0 0 0
Al 1.44989000 2.05045500 1.12215657
Al 1.44989000 0.02140675 3.20145439
Al 1.44989000 6.15136500 -3.07566615 0 0 0
Al 1.44989000 4.10091000 -1.0251348799999995 0 0 0
Al 1.44989000 6.15136500 0.98486172
Al 1.44989000 4.07950325 3.20145439
Al 4.34967000 2.05045500 -3.07566615 0 0 0
Al 4.34967000 0.00000000 -1.0251348799999995 0 0 0
Al 4.34967000 2.05045500 0.97152451
Al 4.34967000 8.09724680 3.15019764
Al 4.34967000 6.15136500 -3.07566615 0 0 0
Al 4.34967000 4.10091000 -1.0251348799999995 0 0 0
Al 4.34967000 6.15136500 1.02591942
Al 4.34967000 4.20548321 3.15019764
Ni 0.00000000 0.00000000 -3.07566615 0 0 0
Ni 0.00000000 2.05045500 -1.0251348799999995 0 0 0
Ni 0.01223707 8.19230589 1.01912006
Ni 5.53446211 2.05045500 3.07200496
Ni 0.00000000 4.10091000 -3.07566615 0 0 0
Ni 0.00000000 6.15136500 -1.0251348799999995 0 0 0
Ni 0.01229507 4.11042411 1.01938157
Ni 0.06570901 6.15136500 2.97393721
Ni 2.89978000 0.00000000 -3.07566615 0 0 0
Ni 2.89978000 2.05045500 -1.0251348799999995 0 0 0
Ni 2.88754293 8.19230589 1.01938157
Ni 3.16487789 2.05045500 3.07200496
Ni 2.89978000 4.10091000 -3.07566615 0 0 0
Ni 2.89978000 6.15136500 -1.0251348799999995 0 0 0
Ni 2.88748493 4.11042411 1.01938157
Ni 2.83407099 6.15136500 2.97393721
C 1.44989000 2.05045500 3.55162163
