&CONTROL
calculation = 'relax'
prefix = 'scf'
pseudo_dir = '/vol0004/mdt0/data/hp150275/u10028/POT_HYBRID_KKJUS_GBRV'
outdir = './data'
tprnfor = .true.
nstep = 50
disk_io = 'non'
/
&SYSTEM
ibrav = 0
ecutwfc = 50.0
ecutrho = 400
occupations = 'smearing'
smearing = 'mp'
degauss = 0.01
assume_isolated = 'esm'
esm_bc = 'bc1'
input_dft = 'BEEF-VDW'
nosym = .true.
nspin = 2
ntyp = 4
nat = 33
starting_magnetization(1) = 0.0
starting_magnetization(2) = 0.0
starting_magnetization(3) = 0.0
starting_magnetization(4) = 0.001
/
&ELECTRONS
electron_maxstep = 300
mixing_beta = 0.1
conv_thr = 1e-06
/
&IONS
ion_dynamics = 'bfgs'
upscale = 1.0
/
&CELL
/

K_POINTS {automatic}
9 6 2 0  0  0

ATOMIC_SPECIES
Al 26.98 Al.pbe-nl-rrkjus_psl.1.0.0.UPF
C 12.01 C.pbe-n-rrkjus_psl.1.0.0.UPF
Nb 92.90 Nb.pbe-spn-rrkjus_psl.1.0.0.UPF
Ni 58.69 ni_pbe_v1.4.uspp.F.UPF

CELL_PARAMETERS {angstrom}
6.00915000 0.00000000 0.00000000
0.00000000 8.49821000 0.00000000
0.00000000 0.00000000 26.37370000

ATOMIC_POSITIONS {angstrom}
Nb 0.00000000 0.00000000 -3.186734170000001 0 0 0
Nb 3.00457500 2.12455250 -1.062332640000001 0 0 0
Nb 3.00457500 6.37365750 -1.062332640000001 0 0 0
Nb 0.00000000 4.24910500 -3.186734170000001 0 0 0
Nb 0.00054082 4.31785552 1.15886038
Nb 2.72659172 6.37348754 3.17987701
Nb 2.98083886 2.12412759 3.03112934
Nb 0.00114174 8.43005436 1.15754169
Al 0.00000000 6.37365750 -1.062332640000001 0 0 0
Al 3.00457500 0.00000000 -3.186734170000001 0 0 0
Al 0.00000000 2.12455250 -1.062332640000001 0 0 0
Al 3.00457500 4.24910500 -3.186734170000001 0 0 0
Al 5.71986952 2.12497741 3.21680019
Al 2.95878528 4.21298761 1.06022274
Al 5.92231778 6.37331757 3.23684420
Al 2.95890546 0.03773205 1.06075021
Ni 1.50228750 0.00000000 -1.062332640000001 0 0 0
Ni 4.50686250 4.24910500 -1.062332640000001 0 0 0
Ni 4.50686250 0.00000000 -1.062332640000001 0 0 0
Ni 1.50228750 4.24910500 -1.062332640000001 0 0 0
Ni 4.50686250 6.37365750 -3.186734170000001 0 0 0
Ni 1.50228750 2.12455250 -3.186734170000001 0 0 0
Ni 1.50228750 6.37365750 -3.186734170000001 0 0 0
Ni 4.50686250 2.12455250 -3.186734170000001 0 0 0
Ni 1.25879674 4.13531397 3.45653712
Ni 4.38079053 8.41688213 3.06752505
Ni 4.38253319 4.33034789 3.06884373
Ni 1.25669354 0.11183644 3.45838328
Ni 4.66376141 2.12378766 0.88932116
Ni 1.59909491 6.37586703 0.96448621
Ni 1.38288569 2.12378766 0.96079389
Ni 4.32899166 6.37552711 1.21530010
C 1.39965122 2.12429755 4.15122038
