&CONTROL
calculation = 'relax'
prefix = 'scf'
pseudo_dir = '/vol0004/mdt0/data/hp150275/u10028/POT_KKJUS'
outdir = './data'
tprnfor = .true.
nstep = 50
disk_io = 'non'
/
&SYSTEM
ibrav = 0
ecutwfc = 50.0
ecutrho = 400
occupations = 'smearing'
smearing = 'mp'
degauss = 0.01
assume_isolated = 'esm'
esm_bc = 'bc1'
input_dft = 'BEEF-VDW'
nosym = .true.
nspin = 1
ntyp = 5
nat = 18
/
&ELECTRONS
electron_maxstep = 200
mixing_beta = 0.1
conv_thr = 1e-06
/
&IONS
ion_dynamics = 'bfgs'
upscale = 1.0
/
&CELL
/

K_POINTS {automatic}
8 8 1 0 0 0

ATOMIC_SPECIES
Al 26.98 Al.pbe-nl-rrkjus_psl.1.0.0.UPF
C 12.01 C.pbe-n-rrkjus_psl.1.0.0.UPF
Cu 63.54 Cu.pbe-dn-rrkjus_psl.1.0.0.UPF
O 15.99 O.pbe-n-rrkjus_psl.1.0.0.UPF
Zr 91.22 Zr.pbe-spn-rrkjus_psl.1.0.0.UPF

CELL_PARAMETERS {angstrom}
6.27295000 0.00000000 0.00000000
0.00000000 6.27295000 0.00000000
0.00000000 0.00000000 24.70470000

ATOMIC_POSITIONS {angstrom}
Zr 0.00000000 0.00000000 -2.352381529999999 0 0 0
Zr 3.13647500 3.13647500 -2.352381529999999 0 0 0
Zr 3.12311362 0.01386322 0.80883188
Zr 0.01342411 3.12305089 0.80858483
Al 0.01166769 0.01166769 0.88492235
Al 3.13647500 0.00000000 -2.352381529999999 0 0 0
Al 0.00000000 3.13647500 -2.352381529999999 0 0 0
Al 3.12392910 3.12380364 0.88838101
Cu 1.56823750 1.56823750 -0.7841271799999987 0 0 0
Cu 4.70508888 4.70477523 2.36078113
Cu 4.70471250 1.56823750 -0.7841271799999987 0 0 0
Cu 1.56811204 4.70458704 2.37881556
Cu 4.70471250 4.70471250 -0.7841271799999987 0 0 0
Cu 1.56447373 1.56597924 2.52926719
Cu 1.56823750 4.70471250 -0.7841271799999987 0 0 0
Cu 4.70521434 1.56842569 2.37906261
C 1.55813805 1.55732257 4.41991788
O 1.55857716 1.55826351 5.56720414
