&CONTROL
calculation = 'relax'
prefix = 'scf'
pseudo_dir = '/vol0004/mdt0/data/hp150275/u10028/POT_KKJUS'
outdir = './data'
tprnfor = .true.
nstep = 50
disk_io = 'non'
/
&SYSTEM
ibrav = 0
ecutwfc = 50.0
ecutrho = 400
occupations = 'smearing'
smearing = 'mp'
degauss = 0.01
assume_isolated = 'esm'
esm_bc = 'bc1'
input_dft = 'BEEF-VDW'
nosym = .true.
nspin = 1
ntyp = 3
nat = 34
/
&ELECTRONS
electron_maxstep = 200
mixing_beta = 0.1
conv_thr = 1e-06
/
&IONS
ion_dynamics = 'bfgs'
upscale = 1.0
/
&CELL
/

K_POINTS {automatic}
6 6 1 0 0 0

ATOMIC_SPECIES
C 12.01 C.pbe-n-rrkjus_psl.1.0.0.UPF
O 15.99 O.pbe-n-rrkjus_psl.1.0.0.UPF
Rh 102.9 Rh.pbe-spn-rrkjus_psl.1.0.0.UPF

CELL_PARAMETERS {angstrom}
7.69669000 0.00000000 0.00000000
-0.00000000 7.69669000 0.00000000
0.00000000 0.00000000 25.77250000

ATOMIC_POSITIONS {angstrom}
Rh 0.00000000 0.00000000 -2.8862622699999996 0 0 0
Rh 1.92417250 1.92417250 -2.8862622699999996 0 0 0
Rh 1.92417250 0.00000000 -0.9620874199999996 0 0 0
Rh 0.00000000 1.92417250 -0.9620874199999996 0 0 0
Rh 0.00000000 0.00000000 0.96208743
Rh 1.92417250 1.92417250 0.96208743
Rh 1.92417250 -0.00000000 2.88626228
Rh 0.00000000 1.92417250 2.88626228
Rh 0.00000000 3.84834500 -2.8862622699999996 0 0 0
Rh 1.92417250 5.77251750 -2.8862622699999996 0 0 0
Rh 1.92417250 3.84834500 -0.9620874199999996 0 0 0
Rh 0.00000000 5.77251750 -0.9620874199999996 0 0 0
Rh 0.00000000 3.84834500 0.96208743
Rh 1.92417250 5.77251750 0.96208743
Rh 1.92417250 3.84834500 2.88626228
Rh 0.00000000 5.77251750 2.88626228
Rh 3.84834500 0.00000000 -2.8862622699999996 0 0 0
Rh 5.77251750 1.92417250 -2.8862622699999996 0 0 0
Rh 5.77251750 0.00000000 -0.9620874199999996 0 0 0
Rh 3.84834500 1.92417250 -0.9620874199999996 0 0 0
Rh 3.84834500 -0.00000000 0.96208743
Rh 5.77251750 1.92417250 0.96208743
Rh 5.77251750 -0.00000000 2.88626228
Rh 3.84834500 1.92417250 2.88626228
Rh 3.84834500 3.84834500 -2.8862622699999996 0 0 0
Rh 5.77251750 5.77251750 -2.8862622699999996 0 0 0
Rh 5.77251750 3.84834500 -0.9620874199999996 0 0 0
Rh 3.84834500 5.77251750 -0.9620874199999996 0 0 0
Rh 3.84834500 3.84834500 0.96208743
Rh 5.77251750 5.77251750 0.96208743
Rh 5.77251750 3.84834500 2.88626228
Rh 3.84834500 5.77251750 2.88626228
C 1.92417250 -0.00000000 4.78621097
O 1.92417250 -0.00000000 5.93617993
