&CONTROL
calculation = 'relax'
prefix = 'scf'
pseudo_dir = '/vol0004/mdt0/data/hp150275/u10028/POT_HYBRID_KKJUS_GBRV'
outdir = './data'
tprnfor = .true.
nstep = 50
disk_io = 'non'
/
&SYSTEM
ibrav = 0
ecutwfc = 50.0
ecutrho = 400
occupations = 'smearing'
smearing = 'mp'
degauss = 0.01
assume_isolated = 'esm'
esm_bc = 'bc1'
input_dft = 'BEEF-VDW'
nosym = .true.
nspin = 2
ntyp = 4
nat = 34
starting_magnetization(1) = 0.0
starting_magnetization(2) = 0.0
starting_magnetization(3) = 0.1
starting_magnetization(4) = 0.0
/
&ELECTRONS
electron_maxstep = 300
mixing_beta = 0.1
conv_thr = 1e-06
/
&IONS
ion_dynamics = 'bfgs'
upscale = 1.0
/
&CELL
/

K_POINTS {automatic}
9 6 2 0  0  0

ATOMIC_SPECIES
Au 196.9 Au.pbe-n-rrkjus_psl.1.0.0.UPF
C 12.01 C.pbe-n-rrkjus_psl.1.0.0.UPF
Mn 54.93 mn_pbe_v1.5.uspp.F.UPF
O 15.99 O.pbe-n-rrkjus_psl.1.0.0.UPF

CELL_PARAMETERS {angstrom}
6.51708000 0.00000000 0.00000000
0.00000000 9.21654000 0.00000000
0.00000000 0.00000000 26.91240000

ATOMIC_POSITIONS {angstrom}
Mn 1.62927000 2.30413500 -3.4560904100000016 0 0 0
Mn 1.62927000 0.00000000 -1.152119840000001 0 0 0
Mn 1.54363557 2.30413500 1.23797040
Mn 1.64595372 9.19764609 3.41276144
Mn 1.62927000 6.91240500 -3.4560904100000016 0 0 0
Mn 1.62927000 4.60827000 -1.152119840000001 0 0 0
Mn 1.65045051 6.91240500 1.15373459
Mn 1.64588855 4.62716391 3.41276144
Mn 4.88781000 2.30413500 -3.4560904100000016 0 0 0
Mn 4.88781000 0.00000000 -1.152119840000001 0 0 0
Mn 4.97344443 2.30413500 1.23797040
Mn 4.87112628 9.19764609 3.41276144
Mn 4.88781000 6.91240500 -3.4560904100000016 0 0 0
Mn 4.88781000 4.60827000 -1.152119840000001 0 0 0
Mn 4.86656432 6.91240500 1.15373459
Mn 4.87112628 4.62716391 3.41276144
Au 0.00000000 0.00000000 -3.4560904100000016 0 0 0
Au 0.00000000 2.30413500 -1.152119840000001 0 0 0
Au 0.00000000 9.18981203 1.10798351
Au 0.00000000 2.30413500 3.62510028
Au 0.00000000 4.60827000 -3.4560904100000016 0 0 0
Au 0.00000000 6.91240500 -1.152119840000001 0 0 0
Au 0.00000000 4.63499797 1.10798351
Au 0.00000000 6.91240500 3.39795962
Au 3.25854000 0.00000000 -3.4560904100000016 0 0 0
Au 3.25854000 2.30413500 -1.152119840000001 0 0 0
Au 3.25854000 0.04211959 1.09452731
Au 3.25854000 2.30413500 3.38827116
Au 3.25854000 4.60827000 -3.4560904100000016 0 0 0
Au 3.25854000 6.91240500 -1.152119840000001 0 0 0
Au 3.25854000 4.56605825 1.09452731
Au 3.25854000 6.91240500 3.41572181
C 0.00006517 2.30413500 5.73583981
O 0.00000000 2.30413500 6.88365367
