&CONTROL
calculation = 'relax'
prefix = 'scf'
pseudo_dir = '/vol0403/data/hp230205/u10028/POT_HYBRID_KKJUS_GBRV'
outdir = './data'
tprnfor = .true.
nstep = 50
disk_io = 'non'
/
&SYSTEM
ibrav = 0
ecutwfc = 50.0
ecutrho = 400
occupations = 'smearing'
smearing = 'mp'
degauss = 0.01
assume_isolated = 'esm'
esm_bc = 'bc1'
input_dft = 'BEEF-VDW'
nosym = .true.
nspin = 1
ntyp = 5
nat = 33
/
&ELECTRONS
electron_maxstep = 200
mixing_beta = 0.1
conv_thr = 1e-06
/
&IONS
ion_dynamics = 'bfgs'
upscale = 1.0
/
&CELL
/

K_POINTS {automatic}
9 6 2 0  0  0

ATOMIC_SPECIES
Au 196.9 Au.pbe-n-rrkjus_psl.1.0.0.UPF
C 12.01 C.pbe-n-rrkjus_psl.1.0.0.UPF
In 114.8 In.pbe-dn-rrkjus_psl.1.0.0.UPF
Li 6.941 Li.pbe-sl-rrkjus_psl.1.0.0.UPF
Mg 24.30 Mg.pbe-spnl-rrkjus_psl.1.0.0.UPF


CELL_PARAMETERS {angstrom}
6.64779000 0.00000000 0.00000000
0.00000000 9.40140000 0.00000000
0.00000000 0.00000000 27.05110000

ATOMIC_POSITIONS {angstrom}
Li 0.00000000 2.35035000 -1.17509978 0 0 0
Li 0.00000000 7.05105000 -1.17509978 0 0 0
Li 3.32389500 4.70070000 -3.525569860000001 0 0 0
Li 3.32389500 0.00000000 -3.525569860000001 0 0 0
Li 0.27694693 6.89564486 3.67164580
Li 0.27694693 2.50575514 3.67164580
Li 3.12931419 0.00000000 1.74398442
Li 3.20017963 4.70070000 1.35417807
Mg 4.98584250 0.00000000 -1.17509978 0 0 0
Mg 4.98584250 4.70070000 -1.17509978 0 0 0
Mg 1.66194750 2.35035000 -3.525569860000001 0 0 0
Mg 1.66194750 7.05105000 -3.525569860000001 0 0 0
Mg 4.87907899 4.70070000 3.60807572
Mg 5.34721636 0.00000000 3.66948171
Mg 1.62983867 7.04221268 1.14399102
Mg 1.62983867 2.35909330 1.14399102
In 1.66194750 0.00000000 -1.17509978 0 0 0
In 1.66194750 4.70070000 -1.17509978 0 0 0
In 4.98584250 2.35035000 -3.525569860000001 0 0 0
In 4.98584250 7.05105000 -3.525569860000001 0 0 0
In 1.81178869 4.70070000 4.13394910
In 1.34331893 0.00000000 4.79859463
In 5.01063876 7.06261372 1.28709134
In 5.01063876 2.33878628 1.28709134
Au 0.00000000 0.00000000 -3.525569860000001 0 0 0
Au 0.00000000 4.70070000 -3.525569860000001 0 0 0
Au 3.32389500 7.05105000 -1.17509978 0 0 0
Au 3.32389500 2.35035000 -1.17509978 0 0 0
Au 0.05909885 4.70070000 1.30088740
Au 0.06235627 0.00000000 1.18673176
Au 3.15291384 2.22484131 3.47741890
Au 3.15291384 7.17655869 3.47741890
C 3.29630667 0.00000000 3.94946060
