&CONTROL
calculation = 'relax'
prefix = 'scf'
pseudo_dir = '/vol0403/data/hp230205/u10028/POT_HYBRID_KKJUS_GBRV'
outdir = './data'
tprnfor = .true.
nstep = 50
disk_io = 'non'
/
&SYSTEM
ibrav = 0
ecutwfc = 50.0
ecutrho = 400
occupations = 'smearing'
smearing = 'mp'
degauss = 0.01
assume_isolated = 'esm'
esm_bc = 'bc1'
input_dft = 'BEEF-VDW'
nosym = .true.
nspin = 1
ntyp = 5
nat = 33
/
&ELECTRONS
electron_maxstep = 200
mixing_beta = 0.1
conv_thr = 1e-06
/
&IONS
ion_dynamics = 'bfgs'
upscale = 1.0
/
&CELL
/

K_POINTS {automatic}
9 6 2 0  0  0

ATOMIC_SPECIES
Al 26.98 Al.pbe-nl-rrkjus_psl.1.0.0.UPF
C 12.01 C.pbe-n-rrkjus_psl.1.0.0.UPF
Li 6.941 Li.pbe-sl-rrkjus_psl.1.0.0.UPF
Nb 92.90 Nb.pbe-spn-rrkjus_psl.1.0.0.UPF
Pd 106.4 Pd.pbe-n-rrkjus_psl.1.0.0.UPF


CELL_PARAMETERS {angstrom}
6.26744000 0.00000000 0.00000000
0.00000000 8.86350000 0.00000000
0.00000000 0.00000000 26.64760000

ATOMIC_POSITIONS {angstrom}
Li 1.56686000 0.00000000 -1.1080072100000002 0 0 0
Li 1.56686000 4.43175000 -1.1080072100000002 0 0 0
Li 4.70058000 2.21587500 -3.32375515 0 0 0
Li 4.70058000 6.64762500 -3.32375515 0 0 0
Li 1.84080980 4.43175000 4.32410605
Li 2.35173151 0.00000000 4.64441020
Li 4.78995369 6.64549776 1.18768353
Li 4.78989102 2.21800224 1.18768353
Nb 0.00000000 2.21587500 -1.1080072100000002 0 0 0
Nb 0.00000000 6.64762500 -1.1080072100000002 0 0 0
Nb 3.13372000 4.43175000 -3.32375515 0 0 0
Nb 3.13372000 0.00000000 -3.32375515 0 0 0
Nb 0.34257827 6.96121563 3.35653170
Nb 0.34257827 1.90237300 3.35653170
Nb 3.02447852 0.00000000 1.19567781
Nb 3.11548175 4.43175000 1.22525665
Al 0.00000000 0.00000000 -3.32375515 0 0 0
Al 0.00000000 4.43175000 -3.32375515 0 0 0
Al 3.13372000 6.64762500 -1.1080072100000002 0 0 0
Al 3.13372000 2.21587500 -1.1080072100000002 0 0 0
Al 0.07746556 4.43175000 1.17489268
Al 0.01403907 0.00000000 1.07283238
Al 3.24634590 2.26338336 3.27765480
Al 3.24634590 6.60011664 3.27765480
Pd 4.70058000 0.00000000 -1.1080072100000002 0 0 0
Pd 4.70058000 4.43175000 -1.1080072100000002 0 0 0
Pd 1.56686000 2.21587500 -3.32375515 0 0 0
Pd 1.56686000 6.64762500 -3.32375515 0 0 0
Pd 4.88565750 4.43175000 3.21663180
Pd 4.62129688 0.00000000 3.11803568
Pd 1.56598256 6.63016390 0.99315605
Pd 1.56598256 2.23333610 0.99315605
C 0.39666628 0.00000000 4.03657845
