&CONTROL
calculation = 'relax'
prefix = 'scf'
pseudo_dir = '/vol0004/mdt0/data/hp150275/u10028/POT_HYBRID_KKJUS_GBRV'
outdir = './data'
tprnfor = .true.
nstep = 70
disk_io = 'non'
/
&SYSTEM
ibrav = 0
ecutwfc = 50.0
ecutrho = 400
occupations = 'smearing'
smearing = 'mp'
degauss = 0.01
assume_isolated = 'esm'
esm_bc = 'bc1'
input_dft = 'BEEF-VDW'
nosym = .true.
nspin = 1
ntyp = 4
nat = 18
/
&ELECTRONS
electron_maxstep = 200
mixing_beta = 0.1
conv_thr = 1e-06
/
&IONS
ion_dynamics = 'bfgs'
upscale = 1.0
/
&CELL
/

K_POINTS {automatic}
8 8 1 0 0 0

ATOMIC_SPECIES
C 12.01 C.pbe-n-rrkjus_psl.1.0.0.UPF
O 15.99 O.pbe-n-rrkjus_psl.1.0.0.UPF
Pt 195.0 Pt.pbe-n-rrkjus_psl.1.0.0.UPF
Zn 65.40 Zn.pbe-dnl-rrkjus_psl.1.0.0.UPF

CELL_PARAMETERS {angstrom}
5.78908000 0.00000000 0.00000000
-0.00000000 5.78908000 0.00000000
0.00000000 0.00000000 25.36900000

ATOMIC_POSITIONS {angstrom}
Zn 0.00000000 0.00000000 -2.238814250000001 0 0 0
Zn 0.00000000 0.00000000 1.34049796
Zn 0.00000000 2.89454000 -2.238814250000001 0 0 0
Zn 0.00000000 2.89454000 1.34049796
Zn 2.89454000 0.00000000 -2.238814250000001 0 0 0
Zn 2.89454000 -0.00000000 1.34049796
Zn 2.89454000 2.89454000 -2.238814250000001 0 0 0
Zn 2.89454000 2.89454000 1.34049796
Pt 1.44727000 1.44727000 -0.4492849899999989 0 0 0
Pt 1.44727000 1.44727000 3.13002722
Pt 1.44727000 4.34181000 -0.4492849899999989 0 0 0
Pt 1.44727000 4.34181000 3.13002722
Pt 4.34181000 1.44727000 -0.4492849899999989 0 0 0
Pt 4.34181000 1.44727000 3.13002722
Pt 4.34181000 4.34181000 -0.4492849899999989 0 0 0
Pt 4.34181000 4.34181000 3.13002722
C 1.44727000 1.44727000 5.03016532
O 1.44727000 1.44727000 6.18014209
