&CONTROL
calculation = 'relax'
prefix = 'scf'
pseudo_dir = '/vol0004/mdt0/data/hp150275/u10028/POT_HYBRID_KKJUS_GBRV'
outdir = './data'
tprnfor = .true.
nstep = 50
disk_io = 'non'
/
&SYSTEM
ibrav = 0
ecutwfc = 50.0
ecutrho = 400
occupations = 'smearing'
smearing = 'mp'
degauss = 0.01
assume_isolated = 'esm'
esm_bc = 'bc1'
input_dft = 'BEEF-VDW'
nosym = .true.
nspin = 2
ntyp = 3
nat = 33
starting_magnetization(1) = 0.1
starting_magnetization(2) = 0.1
starting_magnetization(3) = 0.1
/
&ELECTRONS
electron_maxstep = 200
mixing_beta = 0.1
conv_thr = 1e-06
/
&IONS
ion_dynamics = 'bfgs'
upscale = 1.0
/
&CELL
/

K_POINTS {automatic}
8 6 1 0 0 0

ATOMIC_SPECIES
Al 26.98 Al.pbe-nl-rrkjus_psl.1.0.0.UPF
C 12.01 C.pbe-n-rrkjus_psl.1.0.0.UPF
Fe 55.84 fe_pbe_v1.5.uspp.F.UPF

CELL_PARAMETERS {angstrom}
5.77088000 0.00000000 0.00000000
-0.00000000 8.16125000 0.00000000
0.00000000 0.00000000 26.12090000

ATOMIC_POSITIONS {angstrom}
Al 0.00000000 0.00000000 -3.060585849999999 0 0 0
Al 2.88544000 2.04031250 -1.0202823499999987 0 0 0
Al 2.88544000 6.12093750 -1.0202823499999987 0 0 0
Al 0.00000000 4.08062500 -3.060585849999999 0 0 0
Al 0.00000000 4.08062500 1.02028235
Al 2.88544000 6.12093750 3.06058585
Al 2.88544000 2.04031250 3.06058585
Al 0.00000000 0.00000000 1.02028235
Fe 1.44272000 0.00000000 -1.0202823499999987 0 0 0
Fe 4.32816000 4.08062500 -1.0202823499999987 0 0 0
Fe 4.32816000 0.00000000 -1.0202823499999987 0 0 0
Fe 1.44272000 4.08062500 -1.0202823499999987 0 0 0
Fe 4.32816000 6.12093750 -3.060585849999999 0 0 0
Fe 1.44272000 2.04031250 -3.060585849999999 0 0 0
Fe 1.44272000 6.12093750 -3.060585849999999 0 0 0
Fe 4.32816000 2.04031250 -3.060585849999999 0 0 0
Fe 0.00000000 6.12093750 -1.0202823499999987 0 0 0
Fe 2.88544000 0.00000000 -3.060585849999999 0 0 0
Fe 0.00000000 2.04031250 -1.0202823499999987 0 0 0
Fe 2.88544000 4.08062500 -3.060585849999999 0 0 0
Fe 1.44272000 4.08062500 3.06058585
Fe 4.32816000 -0.00000000 3.06058585
Fe 4.32816000 4.08062500 3.06058585
Fe 1.44272000 -0.00000000 3.06058585
Fe 4.32816000 2.04031250 1.02028235
Fe 1.44272000 6.12093750 1.02028235
Fe 1.44272000 2.04031250 1.02028235
Fe 4.32816000 6.12093750 1.02028235
Fe 0.00000000 2.04031250 3.06058585
Fe 2.88544000 4.08062500 1.02028235
Fe 0.00000000 6.12093750 3.06058585
Fe 2.88544000 -0.00000000 1.02028235
C 1.44272000 2.04031250 3.86040781
