&CONTROL
calculation = 'relax'
prefix = 'scf'
pseudo_dir = '/vol0004/mdt0/data/hp150275/u10028/POT_HYBRID_KKJUS_GBRV'
outdir = './data'
tprnfor = .true.
nstep = 50
disk_io = 'non'
/
&SYSTEM
ibrav = 0
ecutwfc = 50.0
ecutrho = 400
occupations = 'smearing'
smearing = 'mp'
degauss = 0.01
assume_isolated = 'esm'
esm_bc = 'bc1'
input_dft = 'BEEF-VDW'
nosym = .true.
nspin = 2
ntyp = 3
nat = 33
starting_magnetization(1) = 0.0
starting_magnetization(2) = 0.0
starting_magnetization(3) = 0.1
/
&ELECTRONS
electron_maxstep = 200
mixing_beta = 0.1
conv_thr = 1e-06
/
&IONS
ion_dynamics = 'bfgs'
upscale = 1.0
/
&CELL
/

K_POINTS {automatic}
9 6 2 0  0  0

ATOMIC_SPECIES
Al 26.98 Al.pbe-nl-rrkjus_psl.1.0.0.UPF
C 12.01 C.pbe-n-rrkjus_psl.1.0.0.UPF
Fe 55.84 fe_pbe_v1.5.uspp.F.UPF

CELL_PARAMETERS {angstrom}
5.77088000 0.00000000 0.00000000
0.00000000 8.16125000 0.00000000
0.00000000 0.00000000 26.12090000

ATOMIC_POSITIONS {angstrom}
Al 0.00000000 0.00000000 23.06031415
Al 2.88544000 2.04031250 25.10061765
Al 2.88544000 6.12093750 25.10061765
Al 0.00000000 4.08062500 23.06031415
Al 0.02423770 4.03990036 0.99860201
Al 2.79091299 6.12085589 3.16559187
Al 3.26147054 2.04039411 3.75592421
Al 0.02423770 0.04080625 0.99860201
Fe 1.44272000 0.00000000 25.10061765
Fe 4.32816000 4.08062500 25.10061765
Fe 4.32816000 0.00000000 25.10061765
Fe 1.44272000 4.08062500 25.10061765
Fe 4.32816000 6.12093750 23.06031415
Fe 1.44272000 2.04031250 23.06031415
Fe 1.44272000 6.12093750 23.06031415
Fe 4.32816000 2.04031250 23.06031415
Fe 0.00000000 6.12093750 25.10061765
Fe 2.88544000 0.00000000 23.06031415
Fe 0.00000000 2.04031250 25.10061765
Fe 2.88544000 4.08062500 23.06031415
Fe 1.50700760 3.91862419 3.05536167
Fe 4.31834950 8.07425108 3.00520955
Fe 4.31852263 4.16754231 3.00520955
Fe 1.50718073 0.16200081 3.05510046
Fe 4.21522388 2.04039411 1.03882819
Fe 1.43602578 6.12085589 1.03438764
Fe 1.58156737 2.04039411 1.27548355
Fe 4.35210915 6.12077428 1.06860602
Fe 5.44967282 2.04031250 2.95845313
Fe 2.88884482 4.13399958 0.97875012
Fe 0.09343055 6.12085589 3.01121735
Fe 2.88884482 8.10795704 0.97875012
C 1.37981741 2.04031250 3.45840716
