&CONTROL
calculation = 'relax'
prefix = 'scf'
pseudo_dir = '/vol0004/mdt0/data/hp150275/u10028/POT_KKJUS'
outdir = './data'
tprnfor = .true.
nstep = 50
disk_io = 'non'
/
&SYSTEM
ibrav = 0
ecutwfc = 50.0
ecutrho = 400
occupations = 'smearing'
smearing = 'mp'
degauss = 0.01
assume_isolated = 'esm'
esm_bc = 'bc1'
input_dft = 'BEEF-VDW'
nosym = .true.
nspin = 1
ntyp = 4
nat = 33
/
&ELECTRONS
electron_maxstep = 200
mixing_beta = 0.1
conv_thr = 1e-06
/
&IONS
ion_dynamics = 'bfgs'
upscale = 1.0
/
&CELL
/

K_POINTS {automatic}
8 6 1 0 0 0

ATOMIC_SPECIES
C 12.01 C.pbe-n-rrkjus_psl.1.0.0.UPF
Li 6.941 Li.pbe-sl-rrkjus_psl.1.0.0.UPF
Pt 195.0 Pt.pbe-n-rrkjus_psl.1.0.0.UPF
Sb 121.7 Sb.pbe-n-rrkjus_psl.1.0.0.UPF

CELL_PARAMETERS {angstrom}
6.40528000 0.00000000 0.00000000
0.00000000 9.05843000 0.00000000
0.00000000 0.00000000 26.79380000

ATOMIC_POSITIONS {angstrom}
Li 0.00000000 6.79382250 -1.1323059900000025 0 0 0
Li 3.20264000 0.00000000 -3.3969179599999997 0 0 0
Li 0.00000000 2.26460750 -1.1323059900000025 0 0 0
Li 3.20264000 4.52921500 -3.3969179599999997 0 0 0
Li 1.60132000 2.26460750 -3.3969179599999997 0 0 0
Li 1.60132000 6.79382250 -3.3969179599999997 0 0 0
Li 4.80396000 4.52921500 -1.1323059900000025 0 0 0
Li 4.80396000 0.00000000 -1.1323059900000025 0 0 0
Li 0.20676244 2.35854342 3.35136850
Li 3.22012641 4.52921500 0.95225165
Li 0.20682649 6.69979600 3.35136850
Li 3.33414040 0.00000000 1.27377725
Li 1.74114726 6.87163441 1.20304162
Li 1.74114726 2.18679559 1.20304162
Li 5.20473837 0.00000000 4.10802542
Li 4.66278763 4.52921500 3.20587817
Sb 0.00000000 0.00000000 -3.3969179599999997 0 0 0
Sb 3.20264000 2.26460750 -1.1323059900000025 0 0 0
Sb 3.20264000 6.79382250 -1.1323059900000025 0 0 0
Sb 0.00000000 4.52921500 -3.3969179599999997 0 0 0
Sb 0.06853650 4.52921500 1.12533960
Sb 3.30461206 6.86366300 3.59492415
Sb 3.30461206 2.19476700 3.59492415
Sb 6.26135336 0.00000000 1.13364568
Pt 1.60132000 0.00000000 -1.1323059900000025 0 0 0
Pt 1.60132000 4.52921500 -1.1323059900000025 0 0 0
Pt 4.80396000 6.79382250 -3.3969179599999997 0 0 0
Pt 4.80396000 2.26460750 -3.3969179599999997 0 0 0
Pt 1.83844347 4.52921500 3.09548771
Pt 1.46219732 0.00000000 3.23588723
Pt 4.76873096 2.35274602 1.24242851
Pt 4.76873096 6.70568398 1.24242851
C 3.10034768 0.00000000 4.33068189
