&CONTROL
calculation = 'relax'
prefix = 'scf'
pseudo_dir = '/vol0403/data/hp230205/u10028/POT_HYBRID_KKJUS_GBRV'
outdir = './data'
tprnfor = .true.
nstep = 50
disk_io = 'non'
/
&SYSTEM
ibrav = 0
ecutwfc = 50.0
ecutrho = 400
occupations = 'smearing'
smearing = 'mp'
degauss = 0.01
assume_isolated = 'esm'
esm_bc = 'bc1'
input_dft = 'BEEF-VDW'
nosym = .true.
nspin = 1
ntyp = 6
nat = 34
/
&ELECTRONS
electron_maxstep = 200
mixing_beta = 0.1
conv_thr = 1e-06
/
&IONS
ion_dynamics = 'bfgs'
upscale = 1.0
/
&CELL
/

K_POINTS {automatic}
9 6 2 0  0  0

ATOMIC_SPECIES
Al 26.98 Al.pbe-nl-rrkjus_psl.1.0.0.UPF
C 12.01 C.pbe-n-rrkjus_psl.1.0.0.UPF
Li 6.941 Li.pbe-sl-rrkjus_psl.1.0.0.UPF
O 15.99 O.pbe-n-rrkjus_psl.1.0.0.UPF
Pd 106.4 Pd.pbe-n-rrkjus_psl.1.0.0.UPF
Sc 44.95 Sc.pbe-spn-rrkjus_psl.1.0.0.UPF


CELL_PARAMETERS {angstrom}
6.37868000 0.00000000 0.00000000
0.00000000 9.02082000 0.00000000
0.00000000 0.00000000 26.76560000

ATOMIC_POSITIONS {angstrom}
Li 4.78401000 0.00000000 -1.1276347300000005 0 0 0
Li 4.78401000 4.51041000 -1.1276347300000005 0 0 0
Li 1.59467000 2.25520500 -3.3829041800000006 0 0 0
Li 1.59467000 6.76561500 -3.3829041800000006 0 0 0
Li 3.65083750 4.51041000 4.81325785
Li 4.13555339 0.00000000 4.35396015
Li 1.54568174 6.74982857 1.11880208
Li 1.54536280 2.27099144 1.11880208
Sc 0.00000000 2.25520500 -1.1276347300000005 0 0 0
Sc 0.00000000 6.76561500 -1.1276347300000005 0 0 0
Sc 3.18934000 4.51041000 -3.3829041800000006 0 0 0
Sc 3.18934000 0.00000000 -3.3829041800000006 0 0 0
Sc 6.14534789 6.74261191 3.36738014
Sc 6.14534789 2.27811788 3.36764779
Sc 3.24617404 9.02063958 1.22158198
Sc 3.32820386 4.51031979 1.28608708
Al 0.00000000 0.00000000 -3.3829041800000006 0 0 0
Al 0.00000000 4.51041000 -3.3829041800000006 0 0 0
Al 3.18934000 6.76561500 -1.1276347300000005 0 0 0
Al 3.18934000 2.25520500 -1.1276347300000005 0 0 0
Al 0.00491158 4.51022958 1.10622225
Al 6.35067759 9.02072979 1.14583534
Al 3.01309707 2.24618418 3.32321690
Al 3.01322465 6.77472603 3.32321690
Pd 1.59467000 0.00000000 -1.1276347300000005 0 0 0
Pd 1.59467000 4.51041000 -1.1276347300000005 0 0 0
Pd 4.78401000 2.25520500 -3.3829041800000006 0 0 0
Pd 4.78401000 6.76561500 -3.3829041800000006 0 0 0
Pd 1.55167770 4.51031979 3.19393905
Pd 1.54025986 9.02072979 3.24827322
Pd 4.79319530 6.79980391 1.05108511
Pd 4.79325909 2.22101609 1.05108511
C 6.12015210 0.00027062 4.98803722
O 0.42475630 0.00000000 5.95240178
