&CONTROL
calculation = 'relax'
prefix = 'scf'
pseudo_dir = '/vol0004/mdt0/data/hp150275/u10028/POT_KKJUS'
outdir = './data'
tprnfor = .true.
nstep = 50
disk_io = 'non'
/
&SYSTEM
ibrav = 0
ecutwfc = 50.0
ecutrho = 400
occupations = 'smearing'
smearing = 'mp'
degauss = 0.01
assume_isolated = 'esm'
esm_bc = 'bc1'
input_dft = 'BEEF-VDW'
nosym = .true.
nspin = 1
ntyp = 5
nat = 34
/
&ELECTRONS
electron_maxstep = 200
mixing_beta = 0.1
conv_thr = 1e-06
/
&IONS
ion_dynamics = 'bfgs'
upscale = 1.0
/
&CELL
/

K_POINTS {automatic}
9 6 2 0  0  0

ATOMIC_SPECIES
C 12.01 C.pbe-n-rrkjus_psl.1.0.0.UPF
Ge 72.64 Ge.pbe-dn-rrkjus_psl.1.0.0.UPF
Li 6.941 Li.pbe-sl-rrkjus_psl.1.0.0.UPF
Mg 24.30 Mg.pbe-spnl-rrkjus_psl.1.0.0.UPF
O 15.99 O.pbe-n-rrkjus_psl.1.0.0.UPF

CELL_PARAMETERS {angstrom}
6.76484000 0.00000000 0.00000000
0.00000000 9.56693000 0.00000000
0.00000000 0.00000000 27.17520000

ATOMIC_POSITIONS {angstrom}
Li 0.00000000 0.00000000 -3.5876699000000016 0 0 0
Li 3.38242000 2.39173250 -1.1959805500000016 0 0 0
Li 3.38242000 7.17519750 -1.1959805500000016 0 0 0
Li 0.00000000 4.78346500 -3.5876699000000016 0 0 0
Li 6.75022795 4.78346500 1.34788992
Li 3.55221748 7.15749868 4.61788174
Li 3.55214984 2.40952699 4.61788174
Li 0.08828116 0.00009567 1.40224032
Mg 1.69121000 0.00000000 -1.1959805500000016 0 0 0
Mg 5.07363000 4.78346500 -1.1959805500000016 0 0 0
Mg 5.07363000 0.00000000 -1.1959805500000016 0 0 0
Mg 1.69121000 4.78346500 -1.1959805500000016 0 0 0
Mg 5.07363000 7.17519750 -3.5876699000000016 0 0 0
Mg 1.69121000 2.39173250 -3.5876699000000016 0 0 0
Mg 1.69121000 7.17519750 -3.5876699000000016 0 0 0
Mg 5.07363000 2.39173250 -3.5876699000000016 0 0 0
Mg 1.86459285 4.78356067 3.71131706
Mg 4.95544825 0.00019134 3.68332661
Mg 5.05840911 4.78346500 3.74175329
Mg 1.69932781 0.00009567 3.90969602
Mg 5.04704418 2.36245769 1.27968017
Mg 1.76711150 7.16907466 1.31011639
Mg 1.76717915 2.39795100 1.31011639
Mg 5.04690888 7.20456798 1.27968017
Ge 0.00000000 7.17519750 -1.1959805500000016 0 0 0
Ge 3.38242000 0.00000000 -3.5876699000000016 0 0 0
Ge 0.00000000 2.39173250 -1.1959805500000016 0 0 0
Ge 3.38242000 4.78346500 -3.5876699000000016 0 0 0
Ge 0.00466774 2.40005573 3.48739342
Ge 3.43092390 4.78346500 1.10113910
Ge 0.00480304 7.16706561 3.48766517
Ge 3.35339884 0.00009567 1.10141086
C 1.32780280 0.00000000 6.17230318
O 1.42508119 9.56683433 7.31800961
