&CONTROL
calculation = 'relax'
prefix = 'scf'
pseudo_dir = '/vol0004/mdt0/data/hp150275/u10028/POT_KKJUS'
outdir = './data'
tprnfor = .true.
nstep = 50
disk_io = 'non'
/
&SYSTEM
ibrav = 0
ecutwfc = 50.0
ecutrho = 400
occupations = 'smearing'
smearing = 'mp'
degauss = 0.01
assume_isolated = 'esm'
esm_bc = 'bc1'
input_dft = 'BEEF-VDW'
nosym = .true.
nspin = 1
ntyp = 3
nat = 32
/
&ELECTRONS
electron_maxstep = 200
mixing_beta = 0.1
conv_thr = 1e-06
/
&IONS
ion_dynamics = 'bfgs'
upscale = 1.0
/
&CELL
/

K_POINTS {automatic}
9 6 2 0  0  0

ATOMIC_SPECIES
Nb 92.90 Nb.pbe-spn-rrkjus_psl.1.0.0.UPF
Ni 58.69 Ni.pbe-spn-rrkjus_psl.1.0.0.UPF
Sn 118.7 Sn.pbe-dn-rrkjus_psl.1.0.0.UPF

CELL_PARAMETERS {angstrom}
6.23466000 0.00000000 0.00000000
0.00000000 8.81715000 0.00000000
0.00000000 0.00000000 26.61290000

ATOMIC_POSITIONS {angstrom}
Nb 0.00000000 0.00000000 -3.306386700000001 0 0 0
Nb 3.11733000 2.20428750 -1.1020401900000003 0 0 0
Nb 3.11733000 6.61286250 -1.1020401900000003 0 0 0
Nb 0.00000000 4.40857500 -3.306386700000001 0 0 0
Nb 0.00000000 4.40857500 1.13131438
Nb 3.11733000 6.61286250 3.19062058
Nb 3.11733000 2.20428750 3.19088671
Nb 0.00000000 0.00000000 1.13131438
Ni 1.55866500 0.00000000 -1.1020401900000003 0 0 0
Ni 4.67599500 4.40857500 -1.1020401900000003 0 0 0
Ni 4.67599500 0.00000000 -1.1020401900000003 0 0 0
Ni 1.55866500 4.40857500 -1.1020401900000003 0 0 0
Ni 4.67599500 6.61286250 -3.306386700000001 0 0 0
Ni 1.55866500 2.20428750 -3.306386700000001 0 0 0
Ni 1.55866500 6.61286250 -3.306386700000001 0 0 0
Ni 4.67599500 2.20428750 -3.306386700000001 0 0 0
Ni 1.69869546 4.40839866 3.15283026
Ni 4.53596454 0.00008817 3.15256413
Ni 4.53590219 4.40848683 3.15256413
Ni 1.69850842 0.00000000 3.15283026
Ni 4.79538874 2.20411116 1.23883049
Ni 1.43908422 6.61295067 1.23936275
Ni 1.43927126 2.20419933 1.23909662
Ni 4.79563813 6.61303884 1.23936275
Sn 0.00000000 6.61286250 -1.1020401900000003 0 0 0
Sn 3.11733000 0.00000000 -3.306386700000001 0 0 0
Sn 0.00000000 2.20428750 -1.1020401900000003 0 0 0
Sn 3.11733000 4.40857500 -3.306386700000001 0 0 0
Sn 0.00000000 2.20446384 3.65900762
Sn 3.11733000 4.40857500 1.00383859
Sn 6.23459765 6.61277433 3.65900762
Sn 3.11733000 0.00000000 1.00383859
