&CONTROL
calculation = 'relax'
prefix = 'scf'
pseudo_dir = '/vol0004/mdt0/data/hp150275/u10028/POT_HYBRID_KKJUS_GBRV'
outdir = './data'
tprnfor = .true.
nstep = 50
disk_io = 'non'
/
&SYSTEM
ibrav = 0
ecutwfc = 50.0
ecutrho = 400
occupations = 'smearing'
smearing = 'mp'
degauss = 0.01
assume_isolated = 'esm'
esm_bc = 'bc1'
input_dft = 'BEEF-VDW'
nosym = .true.
nspin = 2
ntyp = 4
nat = 33
starting_magnetization(1) = 0.0
starting_magnetization(2) = 0.1
starting_magnetization(3) = 0.1
starting_magnetization(4) = 0.0
/
&ELECTRONS
electron_maxstep = 300
mixing_beta = 0.1
conv_thr = 1e-06
/
&IONS
ion_dynamics = 'bfgs'
upscale = 1.0
/
&CELL
/

K_POINTS {automatic}
8 6 1 0 0 0

ATOMIC_SPECIES
C 12.01 C.pbe-n-rrkjus_psl.1.0.0.UPF
Co 58.93 co_pbe_v1.2.uspp.F.UPF
Cr 51.99 cr_pbe_v1.5.uspp.F.UPF
Ga 69.72 Ga.pbe-dnl-rrkjus_psl.1.0.0.UPF

CELL_PARAMETERS {angstrom}
5.73361000 0.00000000 0.00000000
0.00000000 8.10855000 0.00000000
0.00000000 0.00000000 26.08140000

ATOMIC_POSITIONS {angstrom}
Cr 0.00000000 0.00000000 -3.0408304299999998 0 0 0
Cr 2.86680500 2.02713750 -1.013523199999998 0 0 0
Cr 2.86680500 6.08141250 -1.013523199999998 0 0 0
Cr 0.00000000 4.05427500 -3.0408304299999998 0 0 0
Cr 0.00000000 4.05427500 1.04299519
Cr 2.86680500 6.05100544 3.05387113
Cr 2.86680500 2.05754456 3.05387113
Cr 0.00000000 0.00000000 1.01247995
Ga 0.00000000 6.08141250 -1.013523199999998 0 0 0
Ga 2.86680500 0.00000000 -3.0408304299999998 0 0 0
Ga 0.00000000 2.02713750 -1.013523199999998 0 0 0
Ga 2.86680500 4.05427500 -3.0408304299999998 0 0 0
Ga 0.00000000 2.07051824 3.10133927
Ga 2.86680500 4.05451826 1.02056518
Ga 0.00000000 6.03811284 3.10107846
Ga 2.86680500 8.10830674 0.94023447
Co 1.43340250 0.00000000 -1.013523199999998 0 0 0
Co 4.30020750 4.05427500 -1.013523199999998 0 0 0
Co 4.30020750 0.00000000 -1.013523199999998 0 0 0
Co 1.43340250 4.05427500 -1.013523199999998 0 0 0
Co 4.30020750 6.08141250 -3.0408304299999998 0 0 0
Co 1.43340250 2.02713750 -3.0408304299999998 0 0 0
Co 1.43340250 6.08141250 -3.0408304299999998 0 0 0
Co 4.30020750 2.02713750 -3.0408304299999998 0 0 0
Co 1.42245130 4.05435609 2.99805693
Co 4.19241563 8.10846891 3.03431008
Co 4.31115870 4.05435609 2.99805693
Co 1.54119437 8.10846891 3.03431008
Co 4.29688201 2.01854244 1.01013262
Co 1.43678533 6.09000756 1.01013262
Co 1.43672799 2.01854244 1.01013262
Co 4.29682467 6.09000756 1.01013262
C 0.00000000 0.00000000 3.88065151
