&CONTROL
calculation = 'relax'
prefix = 'scf'
pseudo_dir = '/vol0004/mdt0/data/hp150275/u10028/POT_KKJUS'
outdir = './data'
tprnfor = .true.
nstep = 50
disk_io = 'non'
/
&SYSTEM
ibrav = 0
ecutwfc = 50.0
ecutrho = 400
occupations = 'smearing'
smearing = 'mp'
degauss = 0.01
assume_isolated = 'esm'
esm_bc = 'bc1'
input_dft = 'BEEF-VDW'
nosym = .true.
nspin = 1
ntyp = 4
nat = 18
/
&ELECTRONS
electron_maxstep = 200
mixing_beta = 0.1
conv_thr = 1e-06
/
&IONS
ion_dynamics = 'bfgs'
upscale = 1.0
/
&CELL
/

K_POINTS {automatic}
6 8 1 0 0 0

ATOMIC_SPECIES
Al 26.98 Al.pbe-nl-rrkjus_psl.1.0.0.UPF
C 12.01 C.pbe-n-rrkjus_psl.1.0.0.UPF
O 15.99 O.pbe-n-rrkjus_psl.1.0.0.UPF
Pt 195.0 Pt.pbe-n-rrkjus_psl.1.0.0.UPF

CELL_PARAMETERS {angstrom}
7.89001000 0.00000000 0.00000000
0.00000000 5.57908000 0.00000000
0.00000000 0.00000000 24.18430000

ATOMIC_POSITIONS {angstrom}
Al 0.00000000 0.00000000 -2.09218379 0 0 0
Al 7.87959519 2.83071361 0.71899924
Al 3.94500500 0.00000000 -2.09218379 0 0 0
Al 3.95534091 2.83076940 0.71899924
Pt 0.00000000 2.78954000 -2.09218379 0 0 0
Pt 1.97250250 4.18431000 -0.6974752100000003 0 0 0
Pt 1.97250250 1.39477000 -0.6974752100000003 0 0 0
Pt 7.88014749 0.02404583 0.71706450
Pt 1.97250250 1.34980262 2.12168864
Pt 1.97242360 4.05693960 2.02325854
Pt 3.94500500 2.78954000 -2.09218379 0 0 0
Pt 5.91750750 4.18431000 -0.6974752100000003 0 0 0
Pt 5.91750750 1.39477000 -0.6974752100000003 0 0 0
Pt 3.95486751 0.02387846 0.71706450
Pt 5.91742860 1.60058226 2.02422591
Pt 5.91750750 4.28233444 2.07041792
C 1.97258140 1.45251348 3.98968397
O 1.97258140 1.47382556 5.14279140
