&CONTROL
calculation = 'relax'
prefix = 'scf'
pseudo_dir = '/vol0403/data/hp230205/u10028/POT_HYBRID_KKJUS_GBRV'
outdir = './data'
tprnfor = .true.
nstep = 50
disk_io = 'non'
/
&SYSTEM
ibrav = 0
ecutwfc = 50.0
ecutrho = 400
occupations = 'smearing'
smearing = 'mp'
degauss = 0.01
assume_isolated = 'esm'
esm_bc = 'bc1'
input_dft = 'BEEF-VDW'
nosym = .true.
nspin = 1
ntyp = 5
nat = 33
/
&ELECTRONS
electron_maxstep = 200
mixing_beta = 0.1
conv_thr = 1e-06
/
&IONS
ion_dynamics = 'bfgs'
upscale = 1.0
/
&CELL
/

K_POINTS {automatic}
6 6 1 0 0 0

ATOMIC_SPECIES
C 12.01 C.pbe-n-rrkjus_psl.1.0.0.UPF
Ge 72.64 Ge.pbe-dn-rrkjus_psl.1.0.0.UPF
Hf 178.4 Hf.pbe-spn-rrkjus_psl.1.0.0.UPF
Li 6.941 Li.pbe-sl-rrkjus_psl.1.0.0.UPF
Pd 106.4 Pd.pbe-n-rrkjus_psl.1.0.0.UPF


CELL_PARAMETERS {angstrom}
6.42607000 0.00000000 0.00000000
0.00000000 9.08784000 0.00000000
0.00000000 0.00000000 26.81590000

ATOMIC_POSITIONS {angstrom}
Li 1.60651750 0.00000000 -1.1359215200000001 0 0 0
Li 1.60651750 4.54392000 -1.1359215200000001 0 0 0
Li 4.81955250 2.27196000 -3.4080327299999986 0 0 0
Li 4.81955250 6.81588000 -3.4080327299999986 0 0 0
Li 1.20893655 4.40124091 3.87248412
Li 1.20900081 0.14276997 3.87275228
Li 4.87719435 6.81588000 0.97100374
Li 4.78896441 2.27186912 1.19169860
Hf 4.81955250 0.00000000 -1.1359215200000001 0 0 0
Hf 4.81955250 4.54392000 -1.1359215200000001 0 0 0
Hf 1.60651750 2.27196000 -3.4080327299999986 0 0 0
Hf 1.60651750 6.81588000 -3.4080327299999986 0 0 0
Hf 4.33727595 5.01039883 3.28092536
Hf 4.33727595 8.62145205 3.28065721
Hf 1.77539462 6.81578912 1.36251588
Hf 1.50376464 2.27196000 1.47433818
Ge 0.00000000 0.00000000 -3.4080327299999986 0 0 0
Ge 0.00000000 4.54392000 -3.4080327299999986 0 0 0
Ge 3.21303500 6.81588000 -1.1359215200000001 0 0 0
Ge 3.21303500 2.27196000 -1.1359215200000001 0 0 0
Ge 6.34304518 4.61162441 1.24988910
Ge 6.34317370 9.02013559 1.24988910
Ge 3.36835311 2.27205088 3.93764676
Ge 2.48412588 6.81597088 4.11409538
Pd 0.00000000 2.27196000 -1.1359215200000001 0 0 0
Pd 0.00000000 6.81588000 -1.1359215200000001 0 0 0
Pd 3.21303500 4.54392000 -3.4080327299999986 0 0 0
Pd 3.21303500 0.00000000 -3.4080327299999986 0 0 0
Pd 6.33295625 6.81588000 3.27288060
Pd 5.83718495 2.27196000 3.60486144
Pd 3.15674263 0.09115104 0.97234453
Pd 3.15687115 4.45267809 0.97234453
C 1.49727431 2.27196000 3.59225796
