&CONTROL
calculation = 'relax'
prefix = 'scf'
pseudo_dir = '/vol0004/mdt0/data/hp150275/u10028/POT_HYBRID_KKJUS_GBRV'
outdir = './data'
tprnfor = .true.
nstep = 50
disk_io = 'non'
/
&SYSTEM
ibrav = 0
ecutwfc = 50.0
ecutrho = 400
occupations = 'smearing'
smearing = 'mp'
degauss = 0.01
assume_isolated = 'esm'
esm_bc = 'bc1'
input_dft = 'BEEF-VDW'
nosym = .true.
nspin = 2
ntyp = 4
nat = 33
starting_magnetization(1) = 0.0
starting_magnetization(2) = 0.1
starting_magnetization(3) = 0.0
starting_magnetization(4) = 0.0
/
&ELECTRONS
electron_maxstep = 300
mixing_beta = 0.1
conv_thr = 1e-06
/
&IONS
ion_dynamics = 'bfgs'
upscale = 1.0
/
&CELL
/

K_POINTS {automatic}
9 6 2 0  0  0

ATOMIC_SPECIES
C 12.01 C.pbe-n-rrkjus_psl.1.0.0.UPF
Co 58.93 co_pbe_v1.2.uspp.F.UPF
Si 28.08 Si.pbe-nl-rrkjus_psl.1.0.0.UPF
Ti 47.86 Ti.pbe-spn-rrkjus_psl.1.0.0.UPF

CELL_PARAMETERS {angstrom}
5.76208000 0.00000000 0.00000000
0.00000000 8.14881000 0.00000000
0.00000000 0.00000000 26.11160000

ATOMIC_POSITIONS {angstrom}
Ti 0.00000000 0.00000000 -3.055840549999999 0 0 0
Ti 2.88104000 2.03720250 -1.0186135199999988 0 0 0
Ti 2.88104000 6.11160750 -1.0186135199999988 0 0 0
Ti 0.00000000 4.07440500 -3.055840549999999 0 0 0
Ti 0.00000000 4.07440500 0.98780183
Ti 2.88104000 6.09759155 3.20206551
Ti 2.88104000 2.05121845 3.20206551
Ti 0.00000000 0.00000000 0.98022946
Co 1.44052000 0.00000000 -1.0186135199999988 0 0 0
Co 4.32156000 4.07440500 -1.0186135199999988 0 0 0
Co 4.32156000 0.00000000 -1.0186135199999988 0 0 0
Co 1.44052000 4.07440500 -1.0186135199999988 0 0 0
Co 4.32156000 6.11160750 -3.055840549999999 0 0 0
Co 1.44052000 2.03720250 -3.055840549999999 0 0 0
Co 1.44052000 6.11160750 -3.055840549999999 0 0 0
Co 4.32156000 2.03720250 -3.055840549999999 0 0 0
Co 1.32418360 4.07440500 2.91979911
Co 4.50848188 0.00000000 3.01458422
Co 4.43789640 4.07440500 2.91979911
Co 1.25359812 0.00000000 3.01458422
Co 4.26756931 2.02123083 1.04315842
Co 1.49456831 6.12757917 1.04315842
Co 1.49451069 2.02123083 1.04315842
Co 4.26751169 6.12757917 1.04315842
Si 0.00000000 6.11160750 -1.0186135199999988 0 0 0
Si 2.88104000 0.00000000 -3.055840549999999 0 0 0
Si 0.00000000 2.03720250 -1.0186135199999988 0 0 0
Si 2.88104000 4.07440500 -3.055840549999999 0 0 0
Si 0.00000000 2.04168435 3.01562868
Si 2.88104000 4.07440500 1.09303158
Si 0.00000000 6.10712565 3.01562868
Si 2.88104000 0.00000000 1.08128136
C 2.88104000 0.00000000 3.78200414
