&CONTROL
calculation = 'relax'
prefix = 'scf'
pseudo_dir = '/vol0004/mdt0/data/hp150275/u10028/POT_HYBRID_KKJUS_GBRV'
outdir = './data'
tprnfor = .true.
nstep = 50
disk_io = 'non'
/
&SYSTEM
ibrav = 0
ecutwfc = 50.0
ecutrho = 400
occupations = 'smearing'
smearing = 'mp'
degauss = 0.01
assume_isolated = 'esm'
esm_bc = 'bc1'
input_dft = 'BEEF-VDW'
nosym = .true.
nspin = 2
ntyp = 5
nat = 34
starting_magnetization(1) = 0.0
starting_magnetization(2) = 0.1
starting_magnetization(3) = 0.001
starting_magnetization(4) = 0.0
starting_magnetization(5) = 0.0
/
&ELECTRONS
electron_maxstep = 300
mixing_beta = 0.1
conv_thr = 1e-06
/
&IONS
ion_dynamics = 'bfgs'
upscale = 1.0
/
&CELL
/

K_POINTS {automatic}
9 6 2 0  0  0

ATOMIC_SPECIES
C 12.01 C.pbe-n-rrkjus_psl.1.0.0.UPF
Mn 54.93 mn_pbe_v1.5.uspp.F.UPF
Ni 58.69 ni_pbe_v1.4.uspp.F.UPF
O 15.99 O.pbe-n-rrkjus_psl.1.0.0.UPF
Sb 121.7 Sb.pbe-n-rrkjus_psl.1.0.0.UPF

CELL_PARAMETERS {angstrom}
6.10266000 0.00000000 0.00000000
0.00000000 8.63046000 0.00000000
0.00000000 0.00000000 26.47280000

ATOMIC_POSITIONS {angstrom}
Mn 0.00000000 0.00000000 -3.236299800000001 0 0 0
Mn 3.05133000 2.15761500 -1.078766599999998 0 0 0
Mn 3.05133000 6.47284500 -1.078766599999998 0 0 0
Mn 0.00000000 4.31523000 -3.236299800000001 0 0 0
Mn 0.00006103 4.29917734 1.04541087
Mn 3.05139103 6.47310391 3.27971519
Mn 3.05139103 2.15709717 3.27362645
Mn 0.00006103 0.01596635 1.04567560
Ni 1.52566500 0.00000000 -1.078766599999998 0 0 0
Ni 4.57699500 4.31523000 -1.078766599999998 0 0 0
Ni 4.57699500 0.00000000 -1.078766599999998 0 0 0
Ni 1.52566500 4.31523000 -1.078766599999998 0 0 0
Ni 4.57699500 6.47284500 -3.236299800000001 0 0 0
Ni 1.52566500 2.15761500 -3.236299800000001 0 0 0
Ni 1.52566500 6.47284500 -3.236299800000001 0 0 0
Ni 4.57699500 2.15761500 -3.236299800000001 0 0 0
Ni 1.48148174 4.31894110 3.05178438
Ni 4.62130031 8.62657629 3.05204911
Ni 4.62123928 4.31894110 3.05178438
Ni 1.48142072 8.62657629 3.05204911
Ni 4.62313111 2.15718348 1.14759588
Ni 1.39543424 6.47301761 1.19392328
Ni 1.47958992 2.15718348 1.14759588
Ni 4.70728679 6.47301761 1.19392328
Sb 0.00000000 6.47284500 -1.078766599999998 0 0 0
Sb 3.05133000 0.00000000 -3.236299800000001 0 0 0
Sb 0.00000000 2.15761500 -1.078766599999998 0 0 0
Sb 3.05133000 4.31523000 -3.236299800000001 0 0 0
Sb 0.00006103 2.15761500 3.46687789
Sb 3.05133000 4.34129399 1.05599999
Sb 0.00006103 6.47267239 3.55953269
Sb 3.05139103 8.60413710 1.05626472
C 6.10082920 2.16037675 7.43594479
O 0.00018308 2.15752870 8.57056900
