&CONTROL
calculation = 'relax'
prefix = 'scf'
pseudo_dir = '/vol0403/data/hp230205/u10028/POT_HYBRID_KKJUS_GBRV'
outdir = './data'
tprnfor = .true.
nstep = 70
disk_io = 'non'
/
&SYSTEM
ibrav = 0
ecutwfc = 50.0
ecutrho = 400
occupations = 'smearing'
smearing = 'mp'
degauss = 0.01
assume_isolated = 'esm'
esm_bc = 'bc1'
input_dft = 'BEEF-VDW'
nosym = .true.
nspin = 1
ntyp = 5
nat = 17
/
&ELECTRONS
electron_maxstep = 200
mixing_beta = 0.1
conv_thr = 1e-06
/
&IONS
ion_dynamics = 'bfgs'
upscale = 1.0
/
&CELL
/

K_POINTS {automatic}
6 6 1 0 0 0

ATOMIC_SPECIES
C 12.01 C.pbe-n-rrkjus_psl.1.0.0.UPF
Cu 63.54 Cu.pbe-dn-rrkjus_psl.1.0.0.UPF
Li 6.941 Li.pbe-sl-rrkjus_psl.1.0.0.UPF
Mg 24.30 Mg.pbe-spnl-rrkjus_psl.1.0.0.UPF
Pd 106.4 Pd.pbe-n-rrkjus_psl.1.0.0.UPF


CELL_PARAMETERS {angstrom}
5.49079000 0.00000000 0.00000000
-0.00000000 7.89062000 0.00000000
0.00000000 0.00000000 24.11290000

ATOMIC_POSITIONS {angstrom}
Li 1.30378809 1.97265500 0.68552975
Li 3.91141916 1.97265500 -2.0563481099999983 0 0 0
Li 1.30378809 5.91796500 0.68552975
Li 3.91141916 5.91796500 -2.0563481099999983 0 0 0
Mg 2.74539500 -0.00000000 2.05634811
Mg 5.35297117 -0.00000000 -0.6855297500000006 0 0 0
Mg 2.74539500 3.94531000 2.05634811
Mg 5.35297117 3.94531000 -0.6855297500000006 0 0 0
Cu 0.00000000 0.00000000 2.05634811
Cu 2.60757617 0.00000000 -0.6855297500000006 0 0 0
Cu 0.00000000 3.94531000 2.05634811
Cu 2.60757617 3.94531000 -0.6855297500000006 0 0 0
Pd 4.04918309 1.97265500 0.68552975
Pd 1.16602416 1.97265500 -2.0563481099999983 0 0 0
Pd 4.04918309 5.91796500 0.68552975
Pd 1.16602416 5.91796500 -2.0563481099999983 0 0 0
C 4.04918309 1.97265500 2.85641413
