&CONTROL
calculation = 'relax'
prefix = 'scf'
pseudo_dir = '/vol0004/mdt0/data/hp150275/u10028/POT_KKJUS'
outdir = './data'
tprnfor = .true.
nstep = 50
disk_io = 'non'
/
&SYSTEM
ibrav = 0
ecutwfc = 50.0
ecutrho = 400
occupations = 'smearing'
smearing = 'mp'
degauss = 0.01
assume_isolated = 'esm'
esm_bc = 'bc1'
input_dft = 'BEEF-VDW'
nosym = .true.
nspin = 1
ntyp = 3
nat = 33
/
&ELECTRONS
electron_maxstep = 200
mixing_beta = 0.1
conv_thr = 1e-06
/
&IONS
ion_dynamics = 'bfgs'
upscale = 1.0
/
&CELL
/

K_POINTS {automatic}
8 6 1 0 0 0

ATOMIC_SPECIES
C 12.01 C.pbe-n-rrkjus_psl.1.0.0.UPF
Rh 102.9 Rh.pbe-spn-rrkjus_psl.1.0.0.UPF
Ti 47.86 Ti.pbe-spn-rrkjus_psl.1.0.0.UPF

CELL_PARAMETERS {angstrom}
6.24301000 0.00000000 0.00000000
0.00000000 8.82895000 0.00000000
0.00000000 0.00000000 26.62170000

ATOMIC_POSITIONS {angstrom}
Ti 1.56075250 2.20723750 -3.31094083 0 0 0
Ti 1.56075250 0.00000000 -1.1037356799999998 0 0 0
Ti 1.56025306 2.20723750 1.18200348
Ti 1.56019063 0.15697873 3.49942247
Ti 1.56075250 6.62171250 -3.31094083 0 0 0
Ti 1.56075250 4.41447500 -1.1037356799999998 0 0 0
Ti 1.56125194 6.62171250 1.17188723
Ti 1.56019063 4.25749627 3.49968868
Ti 4.68225750 2.20723750 -3.31094083 0 0 0
Ti 4.68225750 0.00000000 -1.1037356799999998 0 0 0
Ti 4.68163320 2.20723750 1.00017727
Ti 4.68119619 8.75240300 3.34421795
Ti 4.68225750 6.62171250 -3.31094083 0 0 0
Ti 4.68225750 4.41447500 -1.1037356799999998 0 0 0
Ti 4.68250722 6.62171250 1.14792770
Ti 4.68119619 4.49102200 3.34421795
Rh 0.00000000 0.00000000 -3.31094083 0 0 0
Rh 0.00000000 2.20723750 -1.1037356799999998 0 0 0
Rh 0.00948938 8.82789053 1.13727902
Rh 6.01239321 2.20723750 3.11473890
Rh 0.00000000 4.41447500 -3.31094083 0 0 0
Rh 0.00000000 6.62171250 -1.1037356799999998 0 0 0
Rh 0.00948938 4.41553447 1.13754524
Rh 0.04938221 6.62180079 3.17543638
Rh 3.12150500 0.00000000 -3.31094083 0 0 0
Rh 3.12150500 2.20723750 -1.1037356799999998 0 0 0
Rh 3.11288965 8.82780224 1.13727902
Rh 3.34331915 2.20723750 3.11394025
Rh 3.12150500 4.41447500 -3.31094083 0 0 0
Rh 3.12150500 6.62171250 -1.1037356799999998 0 0 0
Rh 3.11288965 4.41562276 1.13727902
Rh 3.07237251 6.62180079 3.17570259
C 1.55488407 2.20723750 3.94373864
