&CONTROL
calculation = 'relax'
prefix = 'scf'
pseudo_dir = '/vol0004/mdt0/data/hp150275/u10028/POT_KKJUS'
outdir = './data'
tprnfor = .true.
nstep = 50
disk_io = 'non'
/
&SYSTEM
ibrav = 0
ecutwfc = 50.0
ecutrho = 400
occupations = 'smearing'
smearing = 'mp'
degauss = 0.01
assume_isolated = 'esm'
esm_bc = 'bc1'
input_dft = 'BEEF-VDW'
nosym = .true.
nspin = 1
ntyp = 1
nat = 32
/
&ELECTRONS
electron_maxstep = 200
mixing_beta = 0.1
conv_thr = 1e-06
/
&IONS
ion_dynamics = 'bfgs'
upscale = 1.0
/
&CELL
/

K_POINTS {automatic}
6 6 1 0 0 0

ATOMIC_SPECIES
Ni 58.69 Ni.pbe-spn-rrkjus_psl.1.0.0.UPF

CELL_PARAMETERS {angstrom}
7.11465000 0.00000000 0.00000000
-0.00000000 7.11465000 0.00000000
0.00000000 0.00000000 25.33600000

ATOMIC_POSITIONS {angstrom}
Ni 0.00000000 0.00000000 -2.667880799999999 0 0 0
Ni 1.77866250 1.77866250 -2.667880799999999 0 0 0
Ni 1.77866250 0.00000000 -0.8892935999999985 0 0 0
Ni 0.00000000 1.77866250 -0.8892935999999985 0 0 0
Ni 0.00000000 0.00000000 0.88929360
Ni 1.77866250 1.77866250 0.88929360
Ni 1.77866250 -0.00000000 2.66788080
Ni 0.00000000 1.77866250 2.66788080
Ni 0.00000000 3.55732500 -2.667880799999999 0 0 0
Ni 1.77866250 5.33598750 -2.667880799999999 0 0 0
Ni 1.77866250 3.55732500 -0.8892935999999985 0 0 0
Ni 0.00000000 5.33598750 -0.8892935999999985 0 0 0
Ni 0.00000000 3.55732500 0.88929360
Ni 1.77866250 5.33598750 0.88929360
Ni 1.77866250 3.55732500 2.66788080
Ni 0.00000000 5.33598750 2.66788080
Ni 3.55732500 0.00000000 -2.667880799999999 0 0 0
Ni 5.33598750 1.77866250 -2.667880799999999 0 0 0
Ni 5.33598750 0.00000000 -0.8892935999999985 0 0 0
Ni 3.55732500 1.77866250 -0.8892935999999985 0 0 0
Ni 3.55732500 -0.00000000 0.88929360
Ni 5.33598750 1.77866250 0.88929360
Ni 5.33598750 -0.00000000 2.66788080
Ni 3.55732500 1.77866250 2.66788080
Ni 3.55732500 3.55732500 -2.667880799999999 0 0 0
Ni 5.33598750 5.33598750 -2.667880799999999 0 0 0
Ni 5.33598750 3.55732500 -0.8892935999999985 0 0 0
Ni 3.55732500 5.33598750 -0.8892935999999985 0 0 0
Ni 3.55732500 3.55732500 0.88929360
Ni 5.33598750 5.33598750 0.88929360
Ni 5.33598750 3.55732500 2.66788080
Ni 3.55732500 5.33598750 2.66788080
