&CONTROL
calculation = 'relax'
prefix = 'scf'
pseudo_dir = '/vol0403/data/hp230205/u10028/POT_HYBRID_KKJUS_GBRV'
outdir = './data'
tprnfor = .true.
nstep = 70
disk_io = 'non'
/
&SYSTEM
ibrav = 0
ecutwfc = 50.0
ecutrho = 400
occupations = 'smearing'
smearing = 'mp'
degauss = 0.01
assume_isolated = 'esm'
esm_bc = 'bc1'
input_dft = 'BEEF-VDW'
nosym = .true.
nspin = 1
ntyp = 6
nat = 34
/
&ELECTRONS
electron_maxstep = 200
mixing_beta = 0.1
conv_thr = 1e-06
/
&IONS
ion_dynamics = 'bfgs'
upscale = 1.0
/
&CELL
/

K_POINTS {automatic}
8 6 2 0  0  0

ATOMIC_SPECIES
C 12.01 C.pbe-n-rrkjus_psl.1.0.0.UPF
In 114.8 In.pbe-dn-rrkjus_psl.1.0.0.UPF
Li 6.941 Li.pbe-sl-rrkjus_psl.1.0.0.UPF
Mg 24.30 Mg.pbe-spnl-rrkjus_psl.1.0.0.UPF
O 15.99 O.pbe-n-rrkjus_psl.1.0.0.UPF
Y 88.90 Y.pbe-spn-rrkjus_psl.1.0.0.UPF


CELL_PARAMETERS {angstrom}
7.08651000 0.00000000 0.00000000
-0.00000000 10.02180000 0.00000000
0.00000000 0.00000000 27.51640000

ATOMIC_POSITIONS {angstrom}
Li 0.00000000 2.50545000 -1.252821690000001 0 0 0
Li 0.00000000 7.51635000 -1.252821690000001 0 0 0
Li 3.54325500 5.01090000 -3.7581899100000022 0 0 0
Li 3.54325500 0.00000000 -3.7581899100000022 0 0 0
Li 6.58145443 7.51424542 4.75703523
Li 6.32804083 2.49703169 5.07567514
Li 3.44028801 10.01769106 1.40168542
Li 3.44156358 5.01079978 1.40966517
Y 1.77162750 0.00000000 -1.252821690000001 0 0 0
Y 1.77162750 5.01090000 -1.252821690000001 0 0 0
Y 5.31488250 2.50545000 -3.7581899100000022 0 0 0
Y 5.31488250 7.51635000 -3.7581899100000022 0 0 0
Y 1.50439521 4.93884326 3.86577904
Y 1.50914317 0.06063189 3.86495354
Y 5.25974945 7.51063757 1.48313396
Y 5.30531571 2.50635196 1.48010716
Mg 5.31488250 0.00000000 -1.252821690000001 0 0 0
Mg 5.31488250 5.01090000 -1.252821690000001 0 0 0
Mg 1.77162750 2.50545000 -3.7581899100000022 0 0 0
Mg 1.77162750 7.51635000 -3.7581899100000022 0 0 0
Mg 5.18555369 5.01631177 3.87761109
Mg 5.19384491 10.00376076 3.86935617
Mg 1.71699051 7.50542624 1.36453828
Mg 1.75362776 2.49693147 1.32986761
In 0.00000000 0.00000000 -3.7581899100000022 0 0 0
In 0.00000000 5.01090000 -3.7581899100000022 0 0 0
In 3.54325500 7.51635000 -1.252821690000001 0 0 0
In 3.54325500 2.50545000 -1.252821690000001 0 0 0
In 7.04172326 5.01831613 1.20604381
In 7.04122720 10.00315945 1.20549348
In 3.39188715 2.50264390 3.99070349
In 3.32243935 7.51153954 4.02179702
C 5.32005565 2.52248706 6.89505951
O 4.71841095 2.54102739 7.86858974
