&CONTROL
calculation = 'relax'
prefix = 'scf'
pseudo_dir = '/vol0004/mdt0/data/hp150275/u10028/POT_KKJUS'
outdir = './data'
tprnfor = .true.
nstep = 50
disk_io = 'non'
/
&SYSTEM
ibrav = 0
ecutwfc = 50.0
ecutrho = 400
occupations = 'smearing'
smearing = 'mp'
degauss = 0.01
assume_isolated = 'esm'
esm_bc = 'bc1'
input_dft = 'BEEF-VDW'
nosym = .true.
nspin = 1
ntyp = 5
nat = 34
/
&ELECTRONS
electron_maxstep = 200
mixing_beta = 0.1
conv_thr = 1e-06
/
&IONS
ion_dynamics = 'bfgs'
upscale = 1.0
/
&CELL
/

K_POINTS {automatic}
8 6 1 0 0 0

ATOMIC_SPECIES
C 12.01 C.pbe-n-rrkjus_psl.1.0.0.UPF
Ga 69.72 Ga.pbe-dnl-rrkjus_psl.1.0.0.UPF
Ir 192.2 Ir.pbe-n-rrkjus_psl.0.2.3.UPF
Li 6.941 Li.pbe-sl-rrkjus_psl.1.0.0.UPF
O 15.99 O.pbe-n-rrkjus_psl.1.0.0.UPF

CELL_PARAMETERS {angstrom}
5.92875000 0.00000000 0.00000000
0.00000000 8.38451000 0.00000000
0.00000000 0.00000000 26.28840000

ATOMIC_POSITIONS {angstrom}
Li 1.48218750 0.00000000 -1.0481185099999983 0 0 0
Li 4.44656250 4.19225500 -1.0481185099999983 0 0 0
Li 4.44656250 0.00000000 -1.0481185099999983 0 0 0
Li 1.48218750 4.19225500 -1.0481185099999983 0 0 0
Li 4.44656250 6.28838250 -3.14409264 0 0 0
Li 1.48218750 2.09612750 -3.14409264 0 0 0
Li 1.48218750 6.28838250 -3.14409264 0 0 0
Li 4.44656250 2.09612750 -3.14409264 0 0 0
Li 1.39260409 4.19225500 3.85598251
Li 4.54361614 0.00000000 4.01529022
Li 4.48379505 4.19225500 3.92590966
Li 1.43961907 0.00000000 3.68957694
Li 4.46885460 2.25576857 0.89801174
Li 1.46944069 6.43653679 1.02051569
Li 1.46944069 1.94797321 1.02051569
Li 4.46885460 6.12874143 0.89801174
Ga 0.00000000 0.00000000 -3.14409264 0 0 0
Ga 2.96437500 2.09612750 -1.0481185099999983 0 0 0
Ga 2.96437500 6.28838250 -1.0481185099999983 0 0 0
Ga 0.00000000 4.19225500 -3.14409264 0 0 0
Ga 0.18924570 4.19225500 1.45795466
Ga 3.15735581 6.29400012 2.97900149
Ga 3.15735581 2.09050988 2.97900149
Ga 5.69148143 0.00000000 1.49055228
Ir 0.00000000 6.28838250 -1.0481185099999983 0 0 0
Ir 2.96437500 0.00000000 -3.14409264 0 0 0
Ir 0.00000000 2.09612750 -1.0481185099999983 0 0 0
Ir 2.96437500 4.19225500 -3.14409264 0 0 0
Ir 5.77786331 2.13561854 3.02290312
Ir 2.79854786 4.19225500 1.54838676
Ir 5.77786331 6.24889146 3.02290312
Ir 3.09611182 0.00000000 1.47320194
C 1.50418316 0.00000000 5.78449954
O 1.35205144 0.00000000 6.91884400
