&CONTROL
calculation = 'relax'
prefix = 'scf'
pseudo_dir = '/vol0403/data/hp230205/u10028/POT_HYBRID_KKJUS_GBRV'
outdir = './data'
tprnfor = .true.
nstep = 50
disk_io = 'non'
/
&SYSTEM
ibrav = 0
ecutwfc = 50.0
ecutrho = 400
occupations = 'smearing'
smearing = 'mp'
degauss = 0.01
assume_isolated = 'esm'
esm_bc = 'bc1'
input_dft = 'BEEF-VDW'
nosym = .true.
nspin = 1
ntyp = 5
nat = 33
/
&ELECTRONS
electron_maxstep = 200
mixing_beta = 0.1
conv_thr = 1e-06
/
&IONS
ion_dynamics = 'bfgs'
upscale = 1.0
/
&CELL
/

K_POINTS {automatic}
9 6 2 0  0  0

ATOMIC_SPECIES
C 12.01 C.pbe-n-rrkjus_psl.1.0.0.UPF
Ge 72.64 Ge.pbe-dn-rrkjus_psl.1.0.0.UPF
In 114.8 In.pbe-dn-rrkjus_psl.1.0.0.UPF
Li 6.941 Li.pbe-sl-rrkjus_psl.1.0.0.UPF
Pd 106.4 Pd.pbe-n-rrkjus_psl.1.0.0.UPF


CELL_PARAMETERS {angstrom}
6.51863000 0.00000000 0.00000000
0.00000000 9.21874000 0.00000000
0.00000000 0.00000000 26.91410000

ATOMIC_POSITIONS {angstrom}
Li 4.88897250 0.00000000 -1.1524617600000013 0 0 0
Li 4.88897250 4.60937000 -1.1524617600000013 0 0 0
Li 1.62965750 2.30468500 -3.45711614 0 0 0
Li 1.62965750 6.91405500 -3.45711614 0 0 0
Li 4.57985907 4.43513581 3.93511056
Li 4.57979388 0.17423419 3.93511056
Li 1.55619254 6.91405500 1.21705560
Li 1.24844802 2.30468500 1.39172811
In 0.00000000 2.30468500 -1.1524617600000013 0 0 0
In 0.00000000 6.91405500 -1.1524617600000013 0 0 0
In 3.25931500 4.60937000 -3.45711614 0 0 0
In 3.25931500 0.00000000 -3.45711614 0 0 0
In 6.30618785 6.91405500 3.70553329
In 0.19060474 2.30468500 4.68386082
In 3.26824552 0.08130929 1.13308361
In 3.26824552 4.52806071 1.13308361
Ge 0.00000000 0.00000000 -3.45711614 0 0 0
Ge 0.00000000 4.60937000 -3.45711614 0 0 0
Ge 3.25931500 6.91405500 -1.1524617600000013 0 0 0
Ge 3.25931500 2.30468500 -1.1524617600000013 0 0 0
Ge 6.36687629 4.69482772 1.35189524
Ge 6.36681111 9.13328228 1.35216438
Ge 2.86969648 2.30468500 3.45280989
Ge 3.19862655 6.91405500 3.44123683
Pd 1.62965750 0.00000000 -1.1524617600000013 0 0 0
Pd 1.62965750 4.60937000 -1.1524617600000013 0 0 0
Pd 4.88897250 2.30468500 -3.45711614 0 0 0
Pd 4.88897250 6.91405500 -3.45711614 0 0 0
Pd 1.59686879 4.70644333 3.26333463
Pd 1.59686879 9.12166667 3.26333463
Pd 4.78226253 6.91414719 0.98909317
Pd 5.02488594 2.30468500 1.39657265
C 4.73943513 2.30468500 3.68830826
