&CONTROL
calculation = 'relax'
prefix = 'scf'
pseudo_dir = '/vol0004/mdt0/data/hp150275/u10028/POT_KKJUS'
outdir = './data'
tprnfor = .true.
nstep = 50
disk_io = 'non'
/
&SYSTEM
ibrav = 0
ecutwfc = 50.0
ecutrho = 400
occupations = 'smearing'
smearing = 'mp'
degauss = 0.01
assume_isolated = 'esm'
esm_bc = 'bc1'
input_dft = 'BEEF-VDW'
nosym = .true.
nspin = 1
ntyp = 5
nat = 18
/
&ELECTRONS
electron_maxstep = 200
mixing_beta = 0.1
conv_thr = 1e-06
/
&IONS
ion_dynamics = 'bfgs'
upscale = 1.0
/
&CELL
/

K_POINTS {automatic}
8 8 1 0 0 0

ATOMIC_SPECIES
C 12.01 C.pbe-n-rrkjus_psl.1.0.0.UPF
Ge 72.64 Ge.pbe-dn-rrkjus_psl.1.0.0.UPF
Ni 58.69 Ni.pbe-spn-rrkjus_psl.1.0.0.UPF
O 15.99 O.pbe-n-rrkjus_psl.1.0.0.UPF
Zn 65.40 Zn.pbe-dnl-rrkjus_psl.1.0.0.UPF

CELL_PARAMETERS {angstrom}
5.89777000 0.00000000 0.00000000
0.00000000 5.89777000 0.00000000
0.00000000 0.00000000 24.42330000

ATOMIC_POSITIONS {angstrom}
Zn 5.89765204 5.89771102 2.28138045
Zn 2.94864909 2.94923887 2.09722877
Zn 2.94888500 0.00000000 -0.7373394300000022 0 0 0
Zn 0.00000000 2.94888500 -0.7373394300000022 0 0 0
Ni 1.44312534 1.44336125 0.78520910
Ni 4.42332750 4.42332750 -2.2117740500000025 0 0 0
Ni 4.45523444 1.44259454 0.78496486
Ni 1.47444250 4.42332750 -2.2117740500000025 0 0 0
Ni 4.45464466 4.45470364 0.78496486
Ni 1.47444250 1.47444250 -2.2117740500000025 0 0 0
Ni 1.44241761 4.45541137 0.78496486
Ni 4.42332750 1.47444250 -2.2117740500000025 0 0 0
Ge 0.00000000 0.00000000 -0.7373394300000022 0 0 0
Ge 2.94888500 5.89771102 2.23180115
Ge 0.00005898 2.94900296 2.23204539
Ge 2.94888500 2.94888500 -0.7373394300000022 0 0 0
C 0.00023591 5.89735716 4.34685893
O 0.00017693 5.89765204 5.48889244
