&CONTROL
calculation = 'relax'
prefix = 'scf'
pseudo_dir = '/vol0004/mdt0/data/hp150275/u10028/POT_HYBRID_KKJUS_GBRV'
outdir = './data'
tprnfor = .true.
nstep = 50
disk_io = 'non'
/
&SYSTEM
ibrav = 0
ecutwfc = 50.0
ecutrho = 400
occupations = 'smearing'
smearing = 'mp'
degauss = 0.01
assume_isolated = 'esm'
esm_bc = 'bc1'
input_dft = 'BEEF-VDW'
nosym = .true.
nspin = 2
ntyp = 4
nat = 34
starting_magnetization(1) = 0.1
starting_magnetization(2) = 0.1
starting_magnetization(3) = 0.1
starting_magnetization(4) = 0.1
/
&ELECTRONS
electron_maxstep = 200
mixing_beta = 0.1
conv_thr = 1e-06
/
&IONS
ion_dynamics = 'bfgs'
upscale = 1.0
/
&CELL
/

K_POINTS {automatic}
8 6 1 0 0 0

ATOMIC_SPECIES
C 12.01 C.pbe-n-rrkjus_psl.1.0.0.UPF
Co 58.93 co_pbe_v1.2.uspp.F.UPF
Fe 55.84 fe_pbe_v1.5.uspp.F.UPF
O 15.99 O.pbe-n-rrkjus_psl.1.0.0.UPF

CELL_PARAMETERS {angstrom}
5.71351000 0.00000000 0.00000000
0.00000000 8.08012000 0.00000000
0.00000000 0.00000000 26.06010000

ATOMIC_POSITIONS {angstrom}
Fe 0.00000000 0.00000000 -3.030007829999999 0 0 0
Fe 0.00000000 2.02003000 -1.0100894799999978 0 0 0
Fe 5.70425411 0.00000000 1.02233772
Fe 5.69619806 2.04184632 3.08264923
Fe 0.00000000 4.04006000 -3.030007829999999 0 0 0
Fe 0.00000000 6.06009000 -1.0100894799999978 0 0 0
Fe 0.00674194 4.04006000 1.01973171
Fe 5.69619806 6.03827368 3.08264923
Fe 2.85675500 0.00000000 -3.030007829999999 0 0 0
Fe 2.85675500 2.02003000 -1.0100894799999978 0 0 0
Fe 2.86601089 0.00000000 1.02233772
Fe 2.87406694 2.04184632 3.08264923
Fe 2.85675500 4.04006000 -3.030007829999999 0 0 0
Fe 2.85675500 6.06009000 -1.0100894799999978 0 0 0
Fe 2.85001306 4.04006000 1.01973171
Fe 2.87406694 6.03827368 3.08264923
Co 1.42837750 2.02003000 -3.030007829999999 0 0 0
Co 1.42837750 0.00000000 -1.0100894799999978 0 0 0
Co 1.42837750 1.99740566 1.04136160
Co 1.42837750 4.04006000 2.92733103
Co 1.42837750 6.06009000 -3.030007829999999 0 0 0
Co 1.42837750 4.04006000 -1.0100894799999978 0 0 0
Co 1.42837750 6.08271434 1.04136160
Co 1.42837750 0.00000000 3.03078963
Co 4.28513250 2.02003000 -3.030007829999999 0 0 0
Co 4.28513250 0.00000000 -1.0100894799999978 0 0 0
Co 4.28513250 2.02164602 1.03432537
Co 4.28513250 4.04006000 2.91821000
Co 4.28513250 6.06009000 -3.030007829999999 0 0 0
Co 4.28513250 4.04006000 -1.0100894799999978 0 0 0
Co 4.28513250 6.05847398 1.03432537
Co 4.28513250 0.00000000 2.93150065
C 1.42837750 0.00000000 4.79062818
O 1.42837750 0.00000000 5.95369045
