&CONTROL
calculation = 'relax'
prefix = 'scf'
pseudo_dir = '/vol0403/data/hp230205/u10028/POT_HYBRID_KKJUS_GBRV'
outdir = './data'
tprnfor = .true.
nstep = 50
disk_io = 'non'
/
&SYSTEM
ibrav = 0
ecutwfc = 50.0
ecutrho = 400
occupations = 'smearing'
smearing = 'mp'
degauss = 0.01
assume_isolated = 'esm'
esm_bc = 'bc1'
input_dft = 'BEEF-VDW'
nosym = .true.
nspin = 1
ntyp = 4
nat = 32
/
&ELECTRONS
electron_maxstep = 200
mixing_beta = 0.1
conv_thr = 1e-06
/
&IONS
ion_dynamics = 'bfgs'
upscale = 1.0
/
&CELL
/

K_POINTS {automatic}
6 6 1 0 0 0

ATOMIC_SPECIES
Ge 72.64 Ge.pbe-dn-rrkjus_psl.1.0.0.UPF
In 114.8 In.pbe-dn-rrkjus_psl.1.0.0.UPF
Li 6.941 Li.pbe-sl-rrkjus_psl.1.0.0.UPF
Sc 44.95 Sc.pbe-spn-rrkjus_psl.1.0.0.UPF


CELL_PARAMETERS {angstrom}
8.12626000 0.00000000 0.00000000
0.00000000 8.22048000 0.00000000
0.00000000 0.00000000 26.73030000

ATOMIC_POSITIONS {angstrom}
Li 2.03156500 0.00000000 1.12160339
Li 2.03156500 0.00000000 -3.3650774699999992 0 0 0
Li 2.03156500 4.11024000 1.12160339
Li 2.03156500 4.11024000 -3.3650774699999992 0 0 0
Li 6.09469500 0.00000000 1.12160339
Li 6.09469500 0.00000000 -3.3650774699999992 0 0 0
Li 6.09469500 4.11024000 1.12160339
Li 6.09469500 4.11024000 -3.3650774699999992 0 0 0
Sc 2.03156500 2.05512000 3.36507747
Sc 2.03156500 2.05512000 -1.1216033900000006 0 0 0
Sc 2.03156500 6.16536000 3.36507747
Sc 2.03156500 6.16536000 -1.1216033900000006 0 0 0
Sc 6.09469500 2.05512000 3.36507747
Sc 6.09469500 2.05512000 -1.1216033900000006 0 0 0
Sc 6.09469500 6.16536000 3.36507747
Sc 6.09469500 6.16536000 -1.1216033900000006 0 0 0
In 0.00000000 2.05512000 1.12160339
In 0.00000000 2.05512000 -3.3650774699999992 0 0 0
In 0.00000000 6.16536000 1.12160339
In 0.00000000 6.16536000 -3.3650774699999992 0 0 0
In 4.06313000 2.05512000 1.12160339
In 4.06313000 2.05512000 -3.3650774699999992 0 0 0
In 4.06313000 6.16536000 1.12160339
In 4.06313000 6.16536000 -3.3650774699999992 0 0 0
Ge 0.00000000 0.00000000 3.36507747
Ge 0.00000000 0.00000000 -1.1216033900000006 0 0 0
Ge 0.00000000 4.11024000 3.36507747
Ge 0.00000000 4.11024000 -1.1216033900000006 0 0 0
Ge 4.06313000 0.00000000 3.36507747
Ge 4.06313000 0.00000000 -1.1216033900000006 0 0 0
Ge 4.06313000 4.11024000 3.36507747
Ge 4.06313000 4.11024000 -1.1216033900000006 0 0 0
