&CONTROL
calculation = 'relax'
prefix = 'scf'
pseudo_dir = '/vol0403/data/hp230205/u10028/POT_HYBRID_KKJUS_GBRV'
outdir = './data'
tprnfor = .true.
nstep = 70
disk_io = 'non'
/
&SYSTEM
ibrav = 0
ecutwfc = 50.0
ecutrho = 400
occupations = 'smearing'
smearing = 'mp'
degauss = 0.01
assume_isolated = 'esm'
esm_bc = 'bc1'
input_dft = 'BEEF-VDW'
nosym = .true.
nspin = 1
ntyp = 6
nat = 34
/
&ELECTRONS
electron_maxstep = 200
mixing_beta = 0.1
conv_thr = 1e-06
/
&IONS
ion_dynamics = 'bfgs'
upscale = 1.0
/
&CELL
/

K_POINTS {automatic}
6 7 2 0  0  0

ATOMIC_SPECIES
Al 26.98 Al.pbe-nl-rrkjus_psl.1.0.0.UPF
C 12.01 C.pbe-n-rrkjus_psl.1.0.0.UPF
In 114.8 In.pbe-dn-rrkjus_psl.1.0.0.UPF
O 15.99 O.pbe-n-rrkjus_psl.1.0.0.UPF
Pd 106.4 Pd.pbe-n-rrkjus_psl.1.0.0.UPF
Y 88.90 Y.pbe-spn-rrkjus_psl.1.0.0.UPF


CELL_PARAMETERS {angstrom}
9.21652000 0.00000000 0.00000000
-0.00000000 8.16174000 0.00000000
0.00000000 0.00000000 26.64850000

ATOMIC_POSITIONS {angstrom}
Y 2.30413000 2.04043500 3.32413389
Y 2.30413000 2.04043500 -1.1080446299999984 0 0 0
Y 2.30413000 6.12130500 3.32413389
Y 2.30413000 6.12130500 -1.1080446299999984 0 0 0
Y 6.91239000 2.04043500 3.32413389
Y 6.91239000 2.04043500 -1.1080446299999984 0 0 0
Y 6.91239000 6.12130500 3.32413389
Y 6.91239000 6.12130500 -1.1080446299999984 0 0 0
Al 0.00000000 0.00000000 3.32413389
Al 0.00000000 0.00000000 -1.1080446299999984 0 0 0
Al 0.00000000 4.08087000 3.32413389
Al 0.00000000 4.08087000 -1.1080446299999984 0 0 0
Al 4.60826000 -0.00000000 3.32413389
Al 4.60826000 0.00000000 -1.1080446299999984 0 0 0
Al 4.60826000 4.08087000 3.32413389
Al 4.60826000 4.08087000 -1.1080446299999984 0 0 0
In 0.00000000 2.04043500 1.10804463
In 0.00000000 2.04043500 -3.324133889999999 0 0 0
In 0.00000000 6.12130500 1.10804463
In 0.00000000 6.12130500 -3.324133889999999 0 0 0
In 4.60826000 2.04043500 1.10804463
In 4.60826000 2.04043500 -3.324133889999999 0 0 0
In 4.60826000 6.12130500 1.10804463
In 4.60826000 6.12130500 -3.324133889999999 0 0 0
Pd 2.30413000 -0.00000000 1.10804463
Pd 2.30413000 0.00000000 -3.324133889999999 0 0 0
Pd 2.30413000 4.08087000 1.10804463
Pd 2.30413000 4.08087000 -3.324133889999999 0 0 0
Pd 6.91239000 -0.00000000 1.10804463
Pd 6.91239000 0.00000000 -3.324133889999999 0 0 0
Pd 6.91239000 4.08087000 1.10804463
Pd 6.91239000 4.08087000 -3.324133889999999 0 0 0
C 2.30413000 2.04043500 5.22417194
O 2.30413000 2.04043500 6.37432120
