&CONTROL
calculation = 'relax'
prefix = 'scf'
pseudo_dir = '/vol0004/mdt0/data/hp150275/u10028/POT_HYBRID_KKJUS_GBRV'
outdir = './data'
tprnfor = .true.
nstep = 50
disk_io = 'non'
/
&SYSTEM
ibrav = 0
ecutwfc = 50.0
ecutrho = 400
occupations = 'smearing'
smearing = 'mp'
degauss = 0.01
assume_isolated = 'esm'
esm_bc = 'bc1'
input_dft = 'BEEF-VDW'
nosym = .true.
nspin = 2
ntyp = 5
nat = 34
starting_magnetization(1) = 0.0
starting_magnetization(2) = 0.0
starting_magnetization(3) = 0.1
starting_magnetization(4) = 0.1
starting_magnetization(5) = 0.0
/
&ELECTRONS
electron_maxstep = 300
mixing_beta = 0.1
conv_thr = 1e-06
/
&IONS
ion_dynamics = 'bfgs'
upscale = 1.0
/
&CELL
/

K_POINTS {automatic}
9 6 2 0  0  0

ATOMIC_SPECIES
Al 26.98 Al.pbe-nl-rrkjus_psl.1.0.0.UPF
C 12.01 C.pbe-n-rrkjus_psl.1.0.0.UPF
Co 58.93 co_pbe_v1.2.uspp.F.UPF
Mn 54.93 mn_pbe_v1.5.uspp.F.UPF
O 15.99 O.pbe-n-rrkjus_psl.1.0.0.UPF

CELL_PARAMETERS {angstrom}
5.71239000 0.00000000 0.00000000
0.00000000 8.07854000 0.00000000
0.00000000 0.00000000 26.05890000

ATOMIC_POSITIONS {angstrom}
Mn 0.00000000 0.00000000 -3.0293471200000006 0 0 0
Mn 2.85619500 2.01963500 -1.00978237 0 0 0
Mn 2.85619500 6.05890500 -1.00978237 0 0 0
Mn 0.00000000 4.03927000 -3.0293471200000006 0 0 0
Mn 0.00022850 4.03927000 1.01525474
Mn 2.86870513 6.01883544 3.06635076
Mn 2.86870513 2.05970456 3.06635076
Mn 5.70627774 0.00000000 1.03245362
Al 0.00000000 6.05890500 -1.00978237 0 0 0
Al 2.85619500 0.00000000 -3.0293471200000006 0 0 0
Al 0.00000000 2.01963500 -1.00978237 0 0 0
Al 2.85619500 4.03927000 -3.0293471200000006 0 0 0
Al 0.00731186 1.97819209 3.05540602
Al 2.85950819 4.03927000 1.02072711
Al 0.00731186 6.10034791 3.05540602
Al 2.85322456 0.00000000 1.00821884
Co 1.42809750 0.00000000 -1.00978237 0 0 0
Co 4.28429250 4.03927000 -1.00978237 0 0 0
Co 4.28429250 0.00000000 -1.00978237 0 0 0
Co 1.42809750 4.03927000 -1.00978237 0 0 0
Co 4.28429250 6.05890500 -3.0293471200000006 0 0 0
Co 1.42809750 2.01963500 -3.0293471200000006 0 0 0
Co 1.42809750 6.05890500 -3.0293471200000006 0 0 0
Co 4.28429250 2.01963500 -3.0293471200000006 0 0 0
Co 1.36663218 4.03927000 3.00641529
Co 4.29537454 0.00000000 3.00771824
Co 4.36815039 4.03927000 3.00380940
Co 1.44649140 0.00000000 3.07859845
Co 4.28183617 2.01414159 1.01864240
Co 1.42552692 6.06326741 1.02150888
Co 1.42552692 2.01527259 1.02150888
Co 4.28183617 6.06439841 1.01838181
C 1.95477986 0.00000000 4.74610746
O 2.22434754 8.07845921 5.88305726
