&CONTROL
calculation = 'relax'
prefix = 'scf'
pseudo_dir = '/vol0004/mdt0/data/hp150275/u10028/POT_KKJUS'
outdir = './data'
tprnfor = .true.
nstep = 50
disk_io = 'non'
/
&SYSTEM
ibrav = 0
ecutwfc = 50.0
ecutrho = 400
occupations = 'smearing'
smearing = 'mp'
degauss = 0.01
assume_isolated = 'esm'
esm_bc = 'bc1'
input_dft = 'BEEF-VDW'
nosym = .true.
nspin = 1
ntyp = 3
nat = 33
/
&ELECTRONS
electron_maxstep = 200
mixing_beta = 0.1
conv_thr = 1e-06
/
&IONS
ion_dynamics = 'bfgs'
upscale = 1.0
/
&CELL
/

K_POINTS {automatic}
9 6 2 0  0  0

ATOMIC_SPECIES
C 12.01 C.pbe-n-rrkjus_psl.1.0.0.UPF
Li 6.941 Li.pbe-sl-rrkjus_psl.1.0.0.UPF
Sb 121.7 Sb.pbe-n-rrkjus_psl.1.0.0.UPF

CELL_PARAMETERS {angstrom}
6.56971000 0.00000000 0.00000000
0.00000000 9.29097000 0.00000000
0.00000000 0.00000000 26.96820000

ATOMIC_POSITIONS {angstrom}
Li 1.64242750 0.00000000 -1.1612506899999993 0 0 0
Li 4.92728250 4.64548500 -1.1612506899999993 0 0 0
Li 4.92728250 0.00000000 -1.1612506899999993 0 0 0
Li 1.64242750 4.64548500 -1.1612506899999993 0 0 0
Li 4.92728250 6.96822750 -3.484021760000001 0 0 0
Li 1.64242750 2.32274250 -3.484021760000001 0 0 0
Li 1.64242750 6.96822750 -3.484021760000001 0 0 0
Li 4.92728250 2.32274250 -3.484021760000001 0 0 0
Li 0.00000000 6.96822750 -1.1612506899999993 0 0 0
Li 3.28485500 0.00000000 -3.484021760000001 0 0 0
Li 0.00000000 2.32274250 -1.1612506899999993 0 0 0
Li 3.28485500 4.64548500 -3.484021760000001 0 0 0
Li 1.83590546 4.64548500 3.52393469
Li 5.16024442 0.00000000 3.89906236
Li 4.73380454 4.64548500 3.52393469
Li 1.40946558 0.00000000 3.89906236
Li 4.86349062 2.30304564 1.12430426
Li 1.70621938 6.98792436 1.12430426
Li 1.70621938 2.30304564 1.12430426
Li 4.86349062 6.98792436 1.12430426
Li 0.00000000 2.42810210 3.13775007
Li 3.28485500 4.64548500 1.04528743
Li 0.00006570 6.86277499 3.13775007
Li 3.28485500 0.00000000 1.71248070
Sb 0.00000000 0.00000000 -3.484021760000001 0 0 0
Sb 3.28485500 2.32274250 -1.1612506899999993 0 0 0
Sb 3.28485500 6.96822750 -1.1612506899999993 0 0 0
Sb 0.00000000 4.64548500 -3.484021760000001 0 0 0
Sb 0.00000000 4.64548500 1.28476505
Sb 3.28485500 7.10090255 3.52690120
Sb 3.28485500 2.19006745 3.52690120
Sb 0.00000000 0.00000000 1.37618725
C 3.28485500 0.00000000 4.46647328
