&CONTROL
calculation = 'relax'
prefix = 'scf'
pseudo_dir = '/vol0004/mdt0/data/hp150275/u10028/POT_HYBRID_KKJUS_GBRV'
outdir = './data'
tprnfor = .true.
nstep = 50
disk_io = 'non'
/
&SYSTEM
ibrav = 0
ecutwfc = 50.0
ecutrho = 400
occupations = 'smearing'
smearing = 'mp'
degauss = 0.01
assume_isolated = 'esm'
esm_bc = 'bc1'
input_dft = 'BEEF-VDW'
nosym = .true.
nspin = 2
ntyp = 4
nat = 34
starting_magnetization(1) = 0.0
starting_magnetization(2) = 0.1
starting_magnetization(3) = 0.0
starting_magnetization(4) = 0.0
/
&ELECTRONS
electron_maxstep = 200
mixing_beta = 0.1
conv_thr = 1e-06
/
&IONS
ion_dynamics = 'bfgs'
upscale = 1.0
/
&CELL
/

K_POINTS {automatic}
7 7 2 0  0  0

ATOMIC_SPECIES
C 12.01 C.pbe-n-rrkjus_psl.1.0.0.UPF
Mn 54.93 mn_pbe_v1.5.uspp.F.UPF
O 15.99 O.pbe-n-rrkjus_psl.1.0.0.UPF
Pt 195.0 Pt.pbe-n-rrkjus_psl.1.0.0.UPF

CELL_PARAMETERS {angstrom}
8.81047000 0.00000000 0.00000000
0.00000000 8.81047000 0.00000000
0.00000000 0.00000000 26.60790000

ATOMIC_POSITIONS {angstrom}
Mn 0.00000000 2.20261750 25.50659902
Mn 2.20261750 0.00000000 25.50659902
Mn 2.20261750 2.20261750 23.30399706
Mn 8.79135128 2.23257310 2.05359772
Mn 2.20261750 0.00000000 2.40934535
Mn 2.20270560 1.95706970 0.81074271
Mn 0.00000000 6.60785250 25.50659902
Mn 2.20261750 4.40523500 25.50659902
Mn 2.20261750 6.60785250 23.30399706
Mn 8.79108697 6.57772069 2.05386380
Mn 2.20270560 4.40523500 1.86414947
Mn 2.20261750 6.85340030 0.81074271
Mn 4.40523500 2.20261750 25.50659902
Mn 6.60785250 0.00000000 25.50659902
Mn 6.60785250 2.20261750 23.30399706
Mn 4.42452993 2.23301362 2.05359772
Mn 6.60758819 0.00000000 1.90938290
Mn 6.60794060 2.21072313 0.67184948
Mn 4.40523500 6.60785250 25.50659902
Mn 6.60785250 4.40523500 25.50659902
Mn 6.60785250 6.60785250 23.30399706
Mn 4.42435372 6.57763259 2.05386380
Mn 6.60767629 4.40523500 2.04774398
Mn 6.60785250 6.59974687 0.67158340
Pt 0.00000000 0.00000000 23.30399706
Pt 0.14731106 0.00000000 0.59761343
Pt 0.00000000 4.40523500 23.30399706
Pt 8.75884065 4.40514690 0.56355532
Pt 4.40523500 0.00000000 23.30399706
Pt 4.25792394 0.00017621 0.59734736
Pt 4.40523500 4.40523500 23.30399706
Pt 4.45695246 4.40523500 0.56382140
C 2.20288181 8.81038190 4.29158819
O 2.20270560 0.00000000 5.46047324
