&CONTROL
calculation = 'relax'
prefix = 'scf'
pseudo_dir = '/vol0004/mdt0/data/hp150275/u10028/POT_HYBRID_KKJUS_GBRV'
outdir = './data'
tprnfor = .true.
nstep = 50
disk_io = 'non'
/
&SYSTEM
ibrav = 0
ecutwfc = 50.0
ecutrho = 400
occupations = 'smearing'
smearing = 'mp'
degauss = 0.01
assume_isolated = 'esm'
esm_bc = 'bc1'
input_dft = 'BEEF-VDW'
nosym = .true.
nspin = 2
ntyp = 3
nat = 32
starting_magnetization(1) = 0.0
starting_magnetization(2) = 0.001
starting_magnetization(3) = 0.0
/
&ELECTRONS
electron_maxstep = 300
mixing_beta = 0.1
conv_thr = 1e-06
/
&IONS
ion_dynamics = 'bfgs'
upscale = 1.0
/
&CELL
/

K_POINTS {automatic}
9 6 2 0  0  0

ATOMIC_SPECIES
Nb 92.90 Nb.pbe-spn-rrkjus_psl.1.0.0.UPF
Ni 58.69 ni_pbe_v1.4.uspp.F.UPF
Sn 118.7 Sn.pbe-dn-rrkjus_psl.1.0.0.UPF

CELL_PARAMETERS {angstrom}
6.22550000 0.00000000 0.00000000
0.00000000 8.80419000 0.00000000
0.00000000 0.00000000 26.60310000

ATOMIC_POSITIONS {angstrom}
Nb 0.00000000 0.00000000 -3.301444710000002 0 0 0
Nb 3.11275000 2.20104750 -1.1005702500000005 0 0 0
Nb 3.11275000 6.60314250 -1.1005702500000005 0 0 0
Nb 0.00000000 4.40209500 -3.301444710000002 0 0 0
Nb 0.00000000 4.40209500 1.13196191
Nb 3.11275000 6.60323054 3.17986854
Nb 3.11275000 2.20095946 3.17986854
Nb 0.00000000 0.00000000 1.13196191
Ni 1.55637500 0.00000000 -1.1005702500000005 0 0 0
Ni 4.66912500 4.40209500 -1.1005702500000005 0 0 0
Ni 4.66912500 0.00000000 -1.1005702500000005 0 0 0
Ni 1.55637500 4.40209500 -1.1005702500000005 0 0 0
Ni 4.66912500 6.60314250 -3.301444710000002 0 0 0
Ni 1.55637500 2.20104750 -3.301444710000002 0 0 0
Ni 1.55637500 6.60314250 -3.301444710000002 0 0 0
Ni 4.66912500 2.20104750 -3.301444710000002 0 0 0
Ni 1.70485317 4.40218304 3.14608261
Ni 4.52083359 8.80410196 3.14608261
Ni 4.52064683 4.40218304 3.14608261
Ni 1.70466641 8.80410196 3.14608261
Ni 4.79730805 2.20095946 1.23571400
Ni 1.42831646 6.60323054 1.23544796
Ni 1.42819196 2.20095946 1.23571400
Ni 4.79718354 6.60323054 1.23544796
Sn 0.00000000 6.60314250 -1.1005702500000005 0 0 0
Sn 3.11275000 0.00000000 -3.301444710000002 0 0 0
Sn 0.00000000 2.20104750 -1.1005702500000005 0 0 0
Sn 3.11275000 4.40209500 -3.301444710000002 0 0 0
Sn 0.00000000 2.20113554 3.64914723
Sn 3.11275000 4.40209500 0.99841434
Sn 0.00000000 6.60305446 3.64888120
Sn 3.11275000 0.00000000 0.99841434
