&CONTROL
calculation = 'relax'
prefix = 'scf'
pseudo_dir = '/vol0004/mdt0/data/hp150275/u10028/POT_KKJUS'
outdir = './data'
tprnfor = .true.
nstep = 50
disk_io = 'non'
/
&SYSTEM
ibrav = 0
ecutwfc = 50.0
ecutrho = 400
occupations = 'smearing'
smearing = 'mp'
degauss = 0.01
assume_isolated = 'esm'
esm_bc = 'bc1'
input_dft = 'BEEF-VDW'
nosym = .true.
nspin = 1
ntyp = 4
nat = 34
/
&ELECTRONS
electron_maxstep = 200
mixing_beta = 0.1
conv_thr = 1e-06
/
&IONS
ion_dynamics = 'bfgs'
upscale = 1.0
/
&CELL
/

K_POINTS {automatic}
9 6 2 0  0  0

ATOMIC_SPECIES
Ag 107.8 Ag.pbe-n-rrkjus_psl.1.0.0.UPF
C 12.01 C.pbe-n-rrkjus_psl.1.0.0.UPF
Ga 69.72 Ga.pbe-dnl-rrkjus_psl.1.0.0.UPF
O 15.99 O.pbe-n-rrkjus_psl.1.0.0.UPF

CELL_PARAMETERS {angstrom}
6.70510000 0.00000000 0.00000000
0.00000000 9.48244000 0.00000000
0.00000000 0.00000000 27.11180000

ATOMIC_POSITIONS {angstrom}
Ga 1.67627500 2.37061000 -3.555983689999998 0 0 0
Ga 1.67627500 0.00000000 -1.1853278999999972 0 0 0
Ga 1.69330595 2.37061000 1.20322168
Ga 1.68888059 0.00597394 3.85231566
Ga 1.67627500 7.11183000 -3.555983689999998 0 0 0
Ga 1.67627500 4.74122000 -1.1853278999999972 0 0 0
Ga 1.67902409 7.11183000 1.14818473
Ga 1.68901469 4.73515124 3.85204454
Ga 5.02882500 2.37061000 -3.555983689999998 0 0 0
Ga 5.02882500 0.00000000 -1.1853278999999972 0 0 0
Ga 5.01145879 2.37061000 1.20267945
Ga 5.01581711 0.00587911 3.85231566
Ga 5.02882500 7.11183000 -3.555983689999998 0 0 0
Ga 5.02882500 4.74122000 -1.1853278999999972 0 0 0
Ga 5.02580771 7.11183000 1.14818473
Ga 5.01581711 4.73524606 3.85258678
Ag 0.00000000 0.00000000 -3.555983689999998 0 0 0
Ag 0.00000000 2.37061000 -1.1853278999999972 0 0 0
Ag 6.70483180 9.47210414 1.25256516
Ag 6.70449654 2.37061000 3.44590978
Ag 0.00000000 4.74122000 -3.555983689999998 0 0 0
Ag 0.00000000 7.11183000 -1.1853278999999972 0 0 0
Ag 6.70496590 4.75155586 1.25256516
Ag 6.70496590 7.11173518 3.42693152
Ag 3.35255000 0.00000000 -3.555983689999998 0 0 0
Ag 3.35255000 2.37061000 -1.1853278999999972 0 0 0
Ag 3.35248295 0.00919797 1.25473410
Ag 3.35261705 2.37051518 3.53673431
Ag 3.35255000 4.74122000 -3.555983689999998 0 0 0
Ag 3.35255000 7.11183000 -1.1853278999999972 0 0 0
Ag 3.35241590 4.73202203 1.25473410
Ag 3.35241590 7.11183000 3.45322997
C 0.00710741 2.37136860 7.22773476
O 6.70409424 2.37042035 8.36263471
