&CONTROL
calculation = 'relax'
prefix = 'scf'
pseudo_dir = '/vol0403/data/hp230205/u10028/POT_HYBRID_KKJUS_GBRV'
outdir = './data'
tprnfor = .true.
nstep = 50
disk_io = 'non'
/
&SYSTEM
ibrav = 0
ecutwfc = 50.0
ecutrho = 400
occupations = 'smearing'
smearing = 'mp'
degauss = 0.01
assume_isolated = 'esm'
esm_bc = 'bc1'
input_dft = 'BEEF-VDW'
nosym = .true.
nspin = 1
ntyp = 6
nat = 34
/
&ELECTRONS
electron_maxstep = 200
mixing_beta = 0.1
conv_thr = 1e-06
/
&IONS
ion_dynamics = 'bfgs'
upscale = 1.0
/
&CELL
/

K_POINTS {automatic}
6 6 1 0 0 0

ATOMIC_SPECIES
Al 26.98 Al.pbe-nl-rrkjus_psl.1.0.0.UPF
C 12.01 C.pbe-n-rrkjus_psl.1.0.0.UPF
In 114.8 In.pbe-dn-rrkjus_psl.1.0.0.UPF
Li 6.941 Li.pbe-sl-rrkjus_psl.1.0.0.UPF
O 15.99 O.pbe-n-rrkjus_psl.1.0.0.UPF
Sc 44.95 Sc.pbe-spn-rrkjus_psl.1.0.0.UPF


CELL_PARAMETERS {angstrom}
8.37392000 0.00000000 0.00000000
0.00000000 8.49254000 0.00000000
0.00000000 0.00000000 26.53520000

ATOMIC_POSITIONS {angstrom}
Li 0.00000000 2.12313500 -1.0892699599999993 0 0 0
Li 0.00829018 2.11379321 3.67114492
Li 0.00000000 6.36940500 -1.0892699599999993 0 0 0
Li 0.00829018 6.37891664 3.67114492
Li 4.18696000 2.12313500 -1.0892699599999993 0 0 0
Li 4.17858608 2.11362336 3.67114492
Li 4.18696000 6.36940500 -1.0892699599999993 0 0 0
Li 4.17850234 6.37917142 3.67114492
Sc 2.09348000 2.12313500 -3.2675445299999986 0 0 0
Sc 2.09339626 2.12890993 1.17657077
Sc 2.09348000 6.36940500 -3.2675445299999986 0 0 0
Sc 2.09348000 6.36371500 1.17630542
Sc 6.28044000 2.12313500 -3.2675445299999986 0 0 0
Sc 6.28052374 2.11761485 1.17869358
Sc 6.28044000 6.36940500 -3.2675445299999986 0 0 0
Sc 6.28035626 6.37501008 1.17869358
Al 0.00000000 0.00000000 -3.2675445299999986 0 0 0
Al 8.36470869 0.00000000 1.14977022
Al 0.00000000 4.24627000 -3.2675445299999986 0 0 0
Al 0.00251218 4.24635493 1.14446318
Al 4.18696000 0.00000000 -3.2675445299999986 0 0 0
Al 4.19600383 0.00008493 1.14977022
Al 4.18696000 4.24627000 -3.2675445299999986 0 0 0
Al 4.18444782 4.24627000 1.14419782
In 2.09348000 0.00000000 -1.0892699599999993 0 0 0
In 2.09314504 0.00008493 3.38907574
In 2.09348000 4.24627000 -1.0892699599999993 0 0 0
In 2.09356374 4.24635493 3.39438278
In 6.28044000 0.00000000 -1.0892699599999993 0 0 0
In 6.28052374 0.00008493 3.40685433
In 6.28044000 4.24627000 -1.0892699599999993 0 0 0
In 6.28027252 4.24643985 3.38748363
C 2.09699705 8.48956761 7.64372971
O 2.09205643 0.00067940 8.77864022
