&CONTROL
calculation = 'relax'
prefix = 'scf'
pseudo_dir = '/vol0004/mdt0/data/hp150275/u10028/POT_KKJUS'
outdir = './data'
tprnfor = .true.
nstep = 50
disk_io = 'non'
/
&SYSTEM
ibrav = 0
ecutwfc = 50.0
ecutrho = 400
occupations = 'smearing'
smearing = 'mp'
degauss = 0.01
assume_isolated = 'esm'
esm_bc = 'bc1'
input_dft = 'BEEF-VDW'
nosym = .true.
nspin = 1
ntyp = 5
nat = 18
/
&ELECTRONS
electron_maxstep = 200
mixing_beta = 0.1
conv_thr = 1e-06
/
&IONS
ion_dynamics = 'bfgs'
upscale = 1.0
/
&CELL
/

K_POINTS {automatic}
8 8 1 0 0 0

ATOMIC_SPECIES
C 12.01 C.pbe-n-rrkjus_psl.1.0.0.UPF
Ni 58.69 Ni.pbe-spn-rrkjus_psl.1.0.0.UPF
O 15.99 O.pbe-n-rrkjus_psl.1.0.0.UPF
Sn 118.7 Sn.pbe-dn-rrkjus_psl.1.0.0.UPF
Ti 47.86 Ti.pbe-spn-rrkjus_psl.1.0.0.UPF

CELL_PARAMETERS {angstrom}
6.14888000 0.00000000 0.00000000
-0.00000000 6.14888000 0.00000000
0.00000000 0.00000000 24.61170000

ATOMIC_POSITIONS {angstrom}
Ti 0.00000000 0.00000000 2.30587017
Ti 3.07444000 3.07444000 2.30587017
Ti 3.07444000 0.00000000 -0.7686233899999984 0 0 0
Ti 0.00000000 3.07444000 -0.7686233899999984 0 0 0
Ni 1.53722000 1.53722000 0.76862339
Ni 4.61166000 4.61166000 -2.3058701699999986 0 0 0
Ni 4.61166000 1.53722000 0.76862339
Ni 1.53722000 4.61166000 -2.3058701699999986 0 0 0
Ni 4.61166000 4.61166000 0.76862339
Ni 1.53722000 1.53722000 -2.3058701699999986 0 0 0
Ni 1.53722000 4.61166000 0.76862339
Ni 4.61166000 1.53722000 -2.3058701699999986 0 0 0
Sn 0.00000000 0.00000000 -0.7686233899999984 0 0 0
Sn 3.07444000 -0.00000000 2.30587017
Sn 0.00000000 3.07444000 2.30587017
Sn 3.07444000 3.07444000 -0.7686233899999984 0 0 0
C 0.00000000 0.00000000 4.20589341
O 0.00000000 0.00000000 5.35575204
