&CONTROL
calculation = 'relax'
prefix = 'scf'
pseudo_dir = '/vol0004/mdt0/data/hp150275/u10028/POT_HYBRID_KKJUS_GBRV'
outdir = './data'
tprnfor = .true.
nstep = 50
disk_io = 'non'
/
&SYSTEM
ibrav = 0
ecutwfc = 50.0
ecutrho = 400
occupations = 'smearing'
smearing = 'mp'
degauss = 0.01
assume_isolated = 'esm'
esm_bc = 'bc1'
input_dft = 'BEEF-VDW'
nosym = .true.
nspin = 2
ntyp = 4
nat = 33
starting_magnetization(1) = 0.0
starting_magnetization(2) = 0.1
starting_magnetization(3) = 0.001
starting_magnetization(4) = 0.0
/
&ELECTRONS
electron_maxstep = 200
mixing_beta = 0.1
conv_thr = 1e-06
/
&IONS
ion_dynamics = 'bfgs'
upscale = 1.0
/
&CELL
/

K_POINTS {automatic}
9 6 2 0  0  0

ATOMIC_SPECIES
C 12.01 C.pbe-n-rrkjus_psl.1.0.0.UPF
Mn 54.93 mn_pbe_v1.5.uspp.F.UPF
Ni 58.69 ni_pbe_v1.4.uspp.F.UPF
Sb 121.7 Sb.pbe-n-rrkjus_psl.1.0.0.UPF

CELL_PARAMETERS {angstrom}
6.10266000 0.00000000 0.00000000
0.00000000 8.63046000 0.00000000
0.00000000 0.00000000 26.47280000

ATOMIC_POSITIONS {angstrom}
Mn 0.00000000 0.00000000 23.23650020
Mn 3.05133000 2.15761500 25.39403340
Mn 3.05133000 6.47284500 25.39403340
Mn 0.00000000 4.31523000 23.23650020
Mn 6.10217179 4.35993578 0.99775983
Mn 3.02813989 6.47293130 3.26859662
Mn 3.21518642 2.15752870 3.04357782
Mn 6.10217179 8.58575422 0.99775983
Ni 1.52566500 0.00000000 25.39403340
Ni 4.57699500 4.31523000 25.39403340
Ni 4.57699500 0.00000000 25.39403340
Ni 1.52566500 4.31523000 25.39403340
Ni 4.57699500 6.47284500 23.23650020
Ni 1.52566500 2.15761500 23.23650020
Ni 1.52566500 6.47284500 23.23650020
Ni 4.57699500 2.15761500 23.23650020
Ni 1.30261278 4.08695433 3.07402154
Ni 4.67860429 0.02554616 3.01789920
Ni 4.67860429 4.28968384 3.01789920
Ni 1.30267380 0.22810306 3.07402154
Ni 4.88682705 2.15744239 1.24369214
Ni 1.53066918 6.47293130 1.13594785
Ni 1.37682112 2.15735609 1.26910603
Ni 4.58035146 6.47293130 1.15447881
Sb 0.00000000 6.47284500 25.39403340
Sb 3.05133000 0.00000000 23.23650020
Sb 0.00000000 2.15761500 25.39403340
Sb 3.05133000 4.31523000 23.23650020
Sb 5.54329018 2.15778761 4.35371669
Sb 3.05047563 4.27483945 1.04964652
Sb 0.03954524 6.47275870 3.48434994
Sb 3.05071973 0.04021794 1.04991125
C 1.35948957 2.15735609 3.28977486
