&CONTROL
calculation = 'relax'
prefix = 'scf'
pseudo_dir = '/vol0004/mdt0/data/hp150275/u10028/POT_KKJUS'
outdir = './data'
tprnfor = .true.
nstep = 50
disk_io = 'non'
/
&SYSTEM
ibrav = 0
ecutwfc = 50.0
ecutrho = 400
occupations = 'smearing'
smearing = 'mp'
degauss = 0.01
assume_isolated = 'esm'
esm_bc = 'bc1'
input_dft = 'BEEF-VDW'
nosym = .true.
nspin = 1
ntyp = 4
nat = 18
/
&ELECTRONS
electron_maxstep = 200
mixing_beta = 0.1
conv_thr = 1e-06
/
&IONS
ion_dynamics = 'bfgs'
upscale = 1.0
/
&CELL
/

K_POINTS {automatic}
9 9 2 0  0  0

ATOMIC_SPECIES
C 12.01 C.pbe-n-rrkjus_psl.1.0.0.UPF
K 39.09 K.pbe-spn-rrkjus_psl.1.0.0.UPF
O 15.99 O.pbe-n-rrkjus_psl.1.0.0.UPF
Sb 121.7 Sb.pbe-n-rrkjus_psl.1.0.0.UPF

CELL_PARAMETERS {angstrom}
8.65338000 0.00000000 0.00000000
0.00000000 8.65338000 0.00000000
0.00000000 0.00000000 26.49000000

ATOMIC_POSITIONS {angstrom}
K 2.22357252 2.10467508 1.35310920
K 6.49003500 6.49003500 -3.2450249999999983 0 0 0
K 6.42954787 2.10424241 1.35310920
K 2.16334500 6.49003500 -3.2450249999999983 0 0 0
K 6.42972094 6.54887798 1.35284430
K 2.16334500 2.16334500 -3.2450249999999983 0 0 0
K 2.22400519 6.54896452 1.35337410
K 6.49003500 2.16334500 -3.2450249999999983 0 0 0
K 0.00000000 0.00000000 -1.081586699999999 0 0 0
K 4.32677653 0.00043267 4.53137940
K 8.65312040 4.32643040 4.03575150
K 4.32669000 4.32669000 -1.081586699999999 0 0 0
Sb 8.65329347 0.00025960 3.13932990
Sb 4.32651693 4.32669000 3.13800540
Sb 4.32669000 0.00000000 -1.081586699999999 0 0 0
Sb 0.00000000 4.32669000 -1.081586699999999 0 0 0
C 0.00077880 4.32547853 7.10382330
O 0.00017307 4.32634386 8.23918470
