&CONTROL
calculation = 'relax'
prefix = 'scf'
pseudo_dir = '/vol0004/mdt0/data/hp150275/u10028/POT_HYBRID_KKJUS_GBRV'
outdir = './data'
tprnfor = .true.
nstep = 50
disk_io = 'non'
/
&SYSTEM
ibrav = 0
ecutwfc = 50.0
ecutrho = 400
occupations = 'smearing'
smearing = 'mp'
degauss = 0.01
assume_isolated = 'esm'
esm_bc = 'bc1'
input_dft = 'BEEF-VDW'
nosym = .true.
nspin = 2
ntyp = 4
nat = 33
starting_magnetization(1) = 0.0
starting_magnetization(2) = 0.0
starting_magnetization(3) = 0.1
starting_magnetization(4) = 0.001
/
&ELECTRONS
electron_maxstep = 300
mixing_beta = 0.1
conv_thr = 1e-06
/
&IONS
ion_dynamics = 'bfgs'
upscale = 1.0
/
&CELL
/

K_POINTS {automatic}
9 6 2 0  0  0

ATOMIC_SPECIES
C 12.01 C.pbe-n-rrkjus_psl.1.0.0.UPF
In 114.8 In.pbe-dn-rrkjus_psl.1.0.0.UPF
Mn 54.93 mn_pbe_v1.5.uspp.F.UPF
Ni 58.69 ni_pbe_v1.4.uspp.F.UPF

CELL_PARAMETERS {angstrom}
6.11439000 0.00000000 0.00000000
0.00000000 8.64705000 0.00000000
0.00000000 0.00000000 26.48530000

ATOMIC_POSITIONS {angstrom}
Mn 0.00000000 0.00000000 -3.2425952799999997 0 0 0
Mn 3.05719500 2.16176250 -1.0808650899999996 0 0 0
Mn 3.05719500 6.48528750 -1.0808650899999996 0 0 0
Mn 0.00000000 4.32352500 -3.2425952799999997 0 0 0
Mn 6.09708628 4.36632790 1.01650581
Mn 3.11687145 6.48528750 3.20578071
Mn 3.36425967 2.16176250 3.14804276
Mn 6.09708628 8.60424710 1.01624096
In 0.00000000 6.48528750 -1.0808650899999996 0 0 0
In 3.05719500 0.00000000 -3.2425952799999997 0 0 0
In 0.00000000 2.16176250 -1.0808650899999996 0 0 0
In 3.05719500 4.32352500 -3.2425952799999997 0 0 0
In 5.70949509 2.16176250 4.43973084
In 3.03487748 4.28383504 1.09039980
In 0.11464481 6.48528750 3.51036166
In 3.03487748 0.03968996 1.09039980
Ni 1.52859750 0.00000000 -1.0808650899999996 0 0 0
Ni 4.58579250 4.32352500 -1.0808650899999996 0 0 0
Ni 4.58579250 0.00000000 -1.0808650899999996 0 0 0
Ni 1.52859750 4.32352500 -1.0808650899999996 0 0 0
Ni 4.58579250 6.48528750 -3.2425952799999997 0 0 0
Ni 1.52859750 2.16176250 -3.2425952799999997 0 0 0
Ni 1.52859750 6.48528750 -3.2425952799999997 0 0 0
Ni 4.58579250 2.16176250 -3.2425952799999997 0 0 0
Ni 1.31410470 4.04777058 3.13268128
Ni 4.74244317 0.00155647 3.08633201
Ni 4.74238203 4.32196853 3.08633201
Ni 1.31410470 0.27575442 3.13268128
Ni 4.73180413 2.16176250 1.12959805
Ni 1.51722473 6.48528750 1.15369967
Ni 1.30407710 2.16176250 1.30281191
Ni 4.62810408 6.48528750 1.16694232
C 1.53868624 2.16176250 3.21849366
