&CONTROL
calculation = 'relax'
prefix = 'scf'
pseudo_dir = '/vol0004/mdt0/data/hp150275/u10028/POT_KKJUS'
outdir = './data'
tprnfor = .true.
nstep = 50
disk_io = 'non'
/
&SYSTEM
ibrav = 0
ecutwfc = 50.0
ecutrho = 400
occupations = 'smearing'
smearing = 'mp'
degauss = 0.01
assume_isolated = 'esm'
esm_bc = 'bc1'
input_dft = 'BEEF-VDW'
nosym = .true.
nspin = 1
ntyp = 2
nat = 16
/
&ELECTRONS
electron_maxstep = 200
mixing_beta = 0.1
conv_thr = 1e-06
/
&IONS
ion_dynamics = 'bfgs'
upscale = 1.0
/
&CELL
/

K_POINTS {automatic}
8 8 1 0 0 0

ATOMIC_SPECIES
Be 9.012 Be.pbe-n-rrkjus_psl.1.0.0.UPF
Ni 58.69 Ni.pbe-spn-rrkjus_psl.1.0.0.UPF

CELL_PARAMETERS {angstrom}
5.23991000 0.00000000 0.00000000
0.00000000 5.23991000 0.00000000
0.00000000 0.00000000 23.92990000

ATOMIC_POSITIONS {angstrom}
Be 1.30997750 1.30997750 -1.1357130499999997 0 0 0
Be 1.30835313 1.31170667 1.36998678
Be 1.30997750 3.92993250 -1.1357130499999997 0 0 0
Be 1.30908672 3.92841293 1.36950818
Be 3.92993250 1.30997750 -1.1357130499999997 0 0 0
Be 3.93171407 1.31165427 1.36855098
Be 3.92993250 3.92993250 -1.1357130499999997 0 0 0
Be 3.93098048 3.92841293 1.36807238
Ni 0.00000000 0.00000000 -2.44563578 0 0 0
Ni 5.23833803 0.00078599 0.25700713
Ni 0.00000000 2.61995500 -2.44563578 0 0 0
Ni 0.00235796 2.62288935 0.25485344
Ni 2.61995500 0.00000000 -2.44563578 0 0 0
Ni 2.61806863 5.23901922 0.25844292
Ni 2.61995500 2.61995500 -2.44563578 0 0 0
Ni 2.61932621 2.61833063 0.25676783
