&CONTROL
calculation = 'relax'
prefix = 'scf'
pseudo_dir = '/vol0403/data/hp230205/u10028/POT_HYBRID_KKJUS_GBRV'
outdir = './data'
tprnfor = .true.
nstep = 50
disk_io = 'non'
/
&SYSTEM
ibrav = 0
ecutwfc = 50.0
ecutrho = 400
occupations = 'smearing'
smearing = 'mp'
degauss = 0.01
assume_isolated = 'esm'
esm_bc = 'bc1'
input_dft = 'BEEF-VDW'
nosym = .true.
nspin = 1
ntyp = 6
nat = 18
/
&ELECTRONS
electron_maxstep = 200
mixing_beta = 0.1
conv_thr = 1e-06
/
&IONS
ion_dynamics = 'bfgs'
upscale = 1.0
/
&CELL
/

K_POINTS {automatic}
6 6 1 0 0 0

ATOMIC_SPECIES
Al 26.98 Al.pbe-nl-rrkjus_psl.1.0.0.UPF
C 12.01 C.pbe-n-rrkjus_psl.1.0.0.UPF
Cu 63.54 Cu.pbe-dn-rrkjus_psl.1.0.0.UPF
Ge 72.64 Ge.pbe-dn-rrkjus_psl.1.0.0.UPF
Li 6.941 Li.pbe-sl-rrkjus_psl.1.0.0.UPF
O 15.99 O.pbe-n-rrkjus_psl.1.0.0.UPF


CELL_PARAMETERS {angstrom}
5.44163000 0.00000000 0.00000000
0.00000000 7.78580000 0.00000000
0.00000000 0.00000000 24.08040000

ATOMIC_POSITIONS {angstrom}
Li 4.05330694 1.94645000 -0.6800305000000009 0 0 0
Li 1.21903395 1.94645000 2.17060726
Li 4.05330694 5.83935000 -0.6800305000000009 0 0 0
Li 1.21070826 5.83935000 2.15471419
Al 0.00000000 0.00000000 -2.040091490000002 0 0 0
Al 2.60289488 7.78198496 0.65017080
Al 0.00000000 3.89290000 -2.040091490000002 0 0 0
Al 2.60294929 3.89671504 0.65017080
Cu 1.33249194 1.94645000 -0.6800305000000009 0 0 0
Cu 3.91525279 1.94645000 1.66804931
Cu 1.33249194 5.83935000 -0.6800305000000009 0 0 0
Cu 3.90621968 5.83935000 1.68418318
Ge 2.72081500 0.00000000 -2.040091490000002 0 0 0
Ge 5.38748578 7.76991697 0.81199109
Ge 2.72081500 3.89290000 -2.040091490000002 0 0 0
Ge 5.38754020 3.90878303 0.81175028
C 1.26485248 1.94645000 4.25837794
O 1.28373493 1.94637214 5.39882568
