&CONTROL
calculation = 'relax'
prefix = 'scf'
pseudo_dir = '/vol0403/data/hp230205/u10028/POT_HYBRID_KKJUS_GBRV'
outdir = './data'
tprnfor = .true.
nstep = 50
disk_io = 'non'
/
&SYSTEM
ibrav = 0
ecutwfc = 50.0
ecutrho = 400
occupations = 'smearing'
smearing = 'mp'
degauss = 0.01
assume_isolated = 'esm'
esm_bc = 'bc1'
input_dft = 'BEEF-VDW'
nosym = .true.
nspin = 1
ntyp = 6
nat = 34
/
&ELECTRONS
electron_maxstep = 200
mixing_beta = 0.1
conv_thr = 1e-06
/
&IONS
ion_dynamics = 'bfgs'
upscale = 1.0
/
&CELL
/

K_POINTS {automatic}
6 6 1 0 0 0

ATOMIC_SPECIES
C 12.01 C.pbe-n-rrkjus_psl.1.0.0.UPF
Ge 72.64 Ge.pbe-dn-rrkjus_psl.1.0.0.UPF
Li 6.941 Li.pbe-sl-rrkjus_psl.1.0.0.UPF
O 15.99 O.pbe-n-rrkjus_psl.1.0.0.UPF
Pd 106.4 Pd.pbe-n-rrkjus_psl.1.0.0.UPF
V 50.94 V.pbe-spnl-rrkjus_psl.1.0.0.UPF


CELL_PARAMETERS {angstrom}
8.64114000 0.00000000 0.00000000
0.00000000 9.40562000 0.00000000
0.00000000 0.00000000 24.26620000

ATOMIC_POSITIONS {angstrom}
Li 0.00000000 2.35140500 -0.7109996600000024 0 0 0
Li 0.01382582 2.24455716 2.36813846
Li 0.00000000 7.05421500 -0.7109996600000024 0 0 0
Li 0.01382582 7.16106284 2.36813846
Li 4.32057000 2.35140500 -0.7109996600000024 0 0 0
Li 4.30665776 2.24455716 2.36789580
Li 4.32057000 7.05421500 -0.7109996600000024 0 0 0
Li 4.30665776 7.16106284 2.36813846
V 2.16028500 0.00000000 -0.7109996600000024 0 0 0
V 2.16028500 0.00000000 1.93862672
V 2.16028500 4.70281000 -0.7109996600000024 0 0 0
V 2.16028500 4.70281000 1.58094293
V 6.48085500 0.00000000 -0.7109996600000024 0 0 0
V 6.48085500 0.00000000 1.61928353
V 6.48085500 4.70281000 -0.7109996600000024 0 0 0
V 6.48085500 4.70281000 1.63990980
Ge 0.00000000 0.00000000 -2.13299898 0 0 0
Ge 0.05374789 0.00000000 0.63553178
Ge 0.00000000 4.70281000 -2.13299898 0 0 0
Ge 8.63094345 4.70281000 0.56346116
Ge 4.32057000 0.00000000 -2.13299898 0 0 0
Ge 4.26682211 0.00000000 0.63553178
Ge 4.32057000 4.70281000 -2.13299898 0 0 0
Ge 4.33076655 4.70281000 0.56346116
Pd 2.16028500 2.35140500 -2.13299898 0 0 0
Pd 2.16028500 2.29986220 0.87261255
Pd 2.16028500 7.05421500 -2.13299898 0 0 0
Pd 2.16028500 7.10566374 0.87261255
Pd 6.48085500 2.35140500 -2.13299898 0 0 0
Pd 6.48085500 2.35733054 0.84470642
Pd 6.48085500 7.05421500 -2.13299898 0 0 0
Pd 6.48085500 7.04828946 0.84470642
C 2.16028500 0.00000000 3.93961757
O 2.16028500 0.00000000 5.11143237
