&CONTROL
calculation = 'relax'
prefix = 'scf'
pseudo_dir = '/vol0403/data/hp230205/u10028/POT_HYBRID_KKJUS_GBRV'
outdir = './data'
tprnfor = .true.
nstep = 50
disk_io = 'non'
/
&SYSTEM
ibrav = 0
ecutwfc = 50.0
ecutrho = 400
occupations = 'smearing'
smearing = 'mp'
degauss = 0.01
assume_isolated = 'esm'
esm_bc = 'bc1'
input_dft = 'BEEF-VDW'
nosym = .true.
nspin = 1
ntyp = 6
nat = 18
/
&ELECTRONS
electron_maxstep = 200
mixing_beta = 0.1
conv_thr = 1e-06
/
&IONS
ion_dynamics = 'bfgs'
upscale = 1.0
/
&CELL
/

K_POINTS {automatic}
6 6 1 0 0 0

ATOMIC_SPECIES
C 12.01 C.pbe-n-rrkjus_psl.1.0.0.UPF
Ge 72.64 Ge.pbe-dn-rrkjus_psl.1.0.0.UPF
In 114.8 In.pbe-dn-rrkjus_psl.1.0.0.UPF
Li 6.941 Li.pbe-sl-rrkjus_psl.1.0.0.UPF
Mg 24.30 Mg.pbe-spnl-rrkjus_psl.1.0.0.UPF
O 15.99 O.pbe-n-rrkjus_psl.1.0.0.UPF


CELL_PARAMETERS {angstrom}
6.07136000 0.00000000 0.00000000
0.00000000 8.40992000 0.00000000
0.00000000 0.00000000 24.55010000

ATOMIC_POSITIONS {angstrom}
Li 4.49480995 2.10248000 -0.7583525900000012 0 0 0
Li 1.32052080 2.10248000 2.22816708
Li 4.49480995 6.30744000 -0.7583525900000012 0 0 0
Li 1.32586360 6.30744000 2.21000000
Mg 1.45912995 2.10248000 -0.7583525900000012 0 0 0
Mg 4.22196303 2.10248000 2.06319040
Mg 1.45912995 6.30744000 -0.7583525900000012 0 0 0
Mg 4.20016685 6.30744000 2.15795379
In 3.03568000 0.00000000 -2.27505777 0 0 0
In 5.89073704 8.40268747 0.74681404
In 3.03568000 4.20496000 -2.27505777 0 0 0
In 5.89073704 4.21210843 0.74681404
Ge 0.00000000 0.00000000 -2.27505777 0 0 0
Ge 2.77534008 0.00008410 0.94468785
Ge 0.00000000 4.20496000 -2.27505777 0 0 0
Ge 2.77527937 4.20487590 0.94468785
C 4.41430372 2.10248000 4.24643080
O 4.39366109 2.10248000 5.39881249
