&CONTROL
calculation = 'relax'
prefix = 'scf'
pseudo_dir = '/vol0004/mdt0/data/hp150275/u10028/POT_KKJUS'
outdir = './data'
tprnfor = .true.
nstep = 50
disk_io = 'non'
/
&SYSTEM
ibrav = 0
ecutwfc = 50.0
ecutrho = 400
occupations = 'smearing'
smearing = 'mp'
degauss = 0.01
assume_isolated = 'esm'
esm_bc = 'bc1'
input_dft = 'BEEF-VDW'
nosym = .true.
nspin = 1
ntyp = 5
nat = 34
/
&ELECTRONS
electron_maxstep = 200
mixing_beta = 0.1
conv_thr = 1e-06
/
&IONS
ion_dynamics = 'bfgs'
upscale = 1.0
/
&CELL
/

K_POINTS {automatic}
8 6 1 0 0 0

ATOMIC_SPECIES
C 12.01 C.pbe-n-rrkjus_psl.1.0.0.UPF
In 114.8 In.pbe-dn-rrkjus_psl.1.0.0.UPF
O 15.99 O.pbe-n-rrkjus_psl.1.0.0.UPF
Pt 195.0 Pt.pbe-n-rrkjus_psl.1.0.0.UPF
Sc 44.95 Sc.pbe-spn-rrkjus_psl.1.0.0.UPF

CELL_PARAMETERS {angstrom}
6.63475000 0.00000000 0.00000000
0.00000000 9.38295000 0.00000000
0.00000000 0.00000000 27.03720000

ATOMIC_POSITIONS {angstrom}
Sc 0.00000000 0.00000000 -3.518621209999999 0 0 0
Sc 3.31737500 2.34573750 -1.17287374 0 0 0
Sc 3.31737500 7.03721250 -1.17287374 0 0 0
Sc 0.00000000 4.69147500 -3.518621209999999 0 0 0
Sc 6.63455096 4.69147500 1.18612196
Sc 3.35778063 6.99771028 3.40966129
Sc 3.35771428 2.38523972 3.40966129
Sc 6.62751812 9.38285617 1.16773667
In 0.00000000 7.03721250 -1.17287374 0 0 0
In 3.31737500 0.00000000 -3.518621209999999 0 0 0
In 0.00000000 2.34573750 -1.17287374 0 0 0
In 3.31737500 4.69147500 -3.518621209999999 0 0 0
In 6.59819253 2.35981193 3.71058533
In 3.28758497 4.69147500 1.13907724
In 6.59812618 7.02304425 3.71058533
In 3.28114927 0.00000000 1.17341448
Pt 1.65868750 0.00000000 -1.17287374 0 0 0
Pt 4.97606250 4.69147500 -1.17287374 0 0 0
Pt 4.97606250 0.00000000 -1.17287374 0 0 0
Pt 1.65868750 4.69147500 -1.17287374 0 0 0
Pt 4.97606250 7.03721250 -3.518621209999999 0 0 0
Pt 1.65868750 2.34573750 -3.518621209999999 0 0 0
Pt 1.65868750 7.03721250 -3.518621209999999 0 0 0
Pt 4.97606250 2.34573750 -3.518621209999999 0 0 0
Pt 1.61655684 4.69147500 3.37126847
Pt 5.03378483 0.00000000 3.30854216
Pt 4.99968221 4.69147500 3.35531652
Pt 1.72357536 0.00000000 3.68598148
Pt 4.98773966 2.36806892 1.16368109
Pt 1.60859514 7.09444849 1.26480022
Pt 1.60866149 2.28850151 1.26452984
Pt 4.98780601 7.01478725 1.16368109
C 2.03229027 0.00000000 5.55911869
O 2.14123287 0.00000000 6.71333676
