&CONTROL
calculation = 'relax'
prefix = 'scf'
pseudo_dir = '/vol0004/mdt0/data/hp150275/u10028/POT_HYBRID_KKJUS_GBRV'
outdir = './data'
tprnfor = .true.
nstep = 50
disk_io = 'non'
/
&SYSTEM
ibrav = 0
ecutwfc = 50.0
ecutrho = 400
occupations = 'smearing'
smearing = 'mp'
degauss = 0.01
assume_isolated = 'esm'
esm_bc = 'bc1'
input_dft = 'BEEF-VDW'
nosym = .true.
nspin = 2
ntyp = 3
nat = 33
starting_magnetization(1) = 0.1
starting_magnetization(2) = 0.1
starting_magnetization(3) = 0.1
/
&ELECTRONS
electron_maxstep = 200
mixing_beta = 0.1
conv_thr = 1e-06
/
&IONS
ion_dynamics = 'bfgs'
upscale = 1.0
/
&CELL
/

K_POINTS {automatic}
9 6 2 0  0  0

ATOMIC_SPECIES
Al 26.98 Al.pbe-nl-rrkjus_psl.1.0.0.UPF
C 12.01 C.pbe-n-rrkjus_psl.1.0.0.UPF
Co 58.93 co_pbe_v1.2.uspp.F.UPF

CELL_PARAMETERS {angstrom}
5.70199000 0.00000000 0.00000000
0.00000000 8.06383000 0.00000000
0.00000000 0.00000000 26.04790000

ATOMIC_POSITIONS {angstrom}
Al 0.00000000 0.00000000 -3.0239007099999995 0 0 0
Al 0.00000000 2.01595750 -1.0080537299999968 0 0 0
Al 0.00000000 0.00000000 0.98591301
Al 0.00000000 2.06434048 3.17315518
Al 0.00000000 4.03191500 -3.0239007099999995 0 0 0
Al 0.00000000 6.04787250 -1.0080537299999968 0 0 0
Al 0.00000000 4.03191500 1.00023936
Al 0.00000000 5.99948952 3.17315518
Al 2.85099500 0.00000000 -3.0239007099999995 0 0 0
Al 2.85099500 2.01595750 -1.0080537299999968 0 0 0
Al 2.85099500 0.00000000 0.92834716
Al 2.85099500 2.09578942 3.15023303
Al 2.85099500 4.03191500 -3.0239007099999995 0 0 0
Al 2.85099500 6.04787250 -1.0080537299999968 0 0 0
Al 2.85099500 4.03191500 1.01795193
Al 2.85099500 5.96804058 3.15023303
Co 1.42549750 2.01595750 -3.0239007099999995 0 0 0
Co 1.42549750 0.00000000 -1.0080537299999968 0 0 0
Co 1.42338776 1.98918558 1.02811061
Co 1.48536840 0.00000000 2.99498754
Co 1.42549750 6.04787250 -3.0239007099999995 0 0 0
Co 1.42549750 4.03191500 -1.0080537299999968 0 0 0
Co 1.42333074 6.07464442 1.02785013
Co 1.39772881 4.03191500 2.94966420
Co 4.27649250 2.01595750 -3.0239007099999995 0 0 0
Co 4.27649250 0.00000000 -1.0080537299999968 0 0 0
Co 4.27860224 1.98918558 1.02811061
Co 4.21662161 0.00000000 2.99498754
Co 4.27649250 6.04787250 -3.0239007099999995 0 0 0
Co 4.27649250 4.03191500 -1.0080537299999968 0 0 0
Co 4.27860224 6.07464442 1.02785013
Co 4.30426119 4.03191500 2.94992468
C 0.00000000 0.00000000 3.90249638
