&CONTROL
calculation = 'relax'
prefix = 'scf'
pseudo_dir = '/vol0004/mdt0/data/hp150275/u10028/POT_KKJUS'
outdir = './data'
tprnfor = .true.
nstep = 50
disk_io = 'non'
/
&SYSTEM
ibrav = 0
ecutwfc = 50.0
ecutrho = 400
occupations = 'smearing'
smearing = 'mp'
degauss = 0.01
assume_isolated = 'esm'
esm_bc = 'bc1'
input_dft = 'BEEF-VDW'
nosym = .true.
nspin = 1
ntyp = 4
nat = 17
/
&ELECTRONS
electron_maxstep = 200
mixing_beta = 0.1
conv_thr = 1e-06
/
&IONS
ion_dynamics = 'bfgs'
upscale = 1.0
/
&CELL
/

K_POINTS {automatic}
8 8 1 0 0 0

ATOMIC_SPECIES
Ag 107.8 Ag.pbe-n-rrkjus_psl.1.0.0.UPF
Bi 208.9 Bi.pbe-dn-rrkjus_psl.1.0.0.UPF
C 12.01 C.pbe-n-rrkjus_psl.1.0.0.UPF
Li 6.941 Li.pbe-sl-rrkjus_psl.1.0.0.UPF

CELL_PARAMETERS {angstrom}
6.92564000 0.00000000 0.00000000
0.00000000 6.92564000 0.00000000
0.00000000 0.00000000 25.19420000

ATOMIC_POSITIONS {angstrom}
Li 0.00000000 0.00000000 -0.8656727099999983 0 0 0
Li 3.19805278 0.26476722 2.69250415
Li 0.26476722 3.19805278 2.69250415
Li 3.46282000 3.46282000 -0.8656727099999983 0 0 0
Li 1.73141000 1.73141000 0.83266831
Li 1.73141000 5.19423000 -2.5970181399999994 0 0 0
Li 5.19423000 5.19423000 0.82989695
Li 5.19423000 1.73141000 -2.5970181399999994 0 0 0
Ag 1.73141000 1.73141000 -2.5970181399999994 0 0 0
Ag 1.73141000 5.19423000 0.97955050
Ag 5.19423000 5.19423000 -2.5970181399999994 0 0 0
Ag 5.19423000 1.73141000 0.97980244
Bi 0.17237918 0.17237918 2.78118774
Bi 3.29037156 3.29044082 2.78118774
Bi 3.46282000 0.00000000 -0.8656727099999983 0 0 0
Bi 0.00000000 3.46282000 -0.8656727099999983 0 0 0
C 1.73141000 1.73141000 3.09158028
