&CONTROL
calculation = 'relax'
prefix = 'scf'
pseudo_dir = '/vol0403/data/hp230205/u10028/POT_HYBRID_KKJUS_GBRV'
outdir = './data'
tprnfor = .true.
nstep = 70
disk_io = 'non'
/
&SYSTEM
ibrav = 0
ecutwfc = 50.0
ecutrho = 400
occupations = 'smearing'
smearing = 'mp'
degauss = 0.01
assume_isolated = 'esm'
esm_bc = 'bc1'
input_dft = 'BEEF-VDW'
nosym = .true.
nspin = 1
ntyp = 5
nat = 17
/
&ELECTRONS
electron_maxstep = 200
mixing_beta = 0.1
conv_thr = 1e-06
/
&IONS
ion_dynamics = 'bfgs'
upscale = 1.0
/
&CELL
/

K_POINTS {automatic}
10 10 2 0  0  0

ATOMIC_SPECIES
C 12.01 C.pbe-n-rrkjus_psl.1.0.0.UPF
Cu 63.54 Cu.pbe-dn-rrkjus_psl.1.0.0.UPF
Ge 72.64 Ge.pbe-dn-rrkjus_psl.1.0.0.UPF
Pd 106.4 Pd.pbe-n-rrkjus_psl.1.0.0.UPF
Y 88.90 Y.pbe-spn-rrkjus_psl.1.0.0.UPF


CELL_PARAMETERS {angstrom}
6.58158000 0.00000000 0.00000000
-0.00000000 6.58158000 0.00000000
0.00000000 0.00000000 24.93620000

ATOMIC_POSITIONS {angstrom}
Y 4.93572429 1.64513174 0.96353477
Y 4.93618500 4.93618500 -2.468185079999998 0 0 0
Y 1.64539500 1.64539500 -2.468185079999998 0 0 0
Y 1.64565826 4.93671153 0.96178923
Cu 0.25793212 0.25562857 2.77140927
Cu 0.00000000 3.29079000 -0.8226452399999999 0 0 0
Cu 3.29079000 0.00000000 -0.8226452399999999 0 0 0
Cu 3.03312114 3.03549051 2.77115991
Ge 1.64513174 1.64578989 0.51343636
Ge 1.64539500 4.93618500 -2.468185079999998 0 0 0
Ge 4.93618500 1.64539500 -2.468185079999998 0 0 0
Ge 4.93631663 4.93592174 1.66673561
Pd 0.12860407 3.16350224 2.51431705
Pd 0.00000000 0.00000000 -0.8226452399999999 0 0 0
Pd 3.29079000 3.29079000 -0.8226452399999999 0 0 0
Pd 3.16277827 0.12643215 2.51506513
C 1.64631642 1.64493429 2.54099878
