&CONTROL
calculation = 'relax'
prefix = 'scf'
pseudo_dir = '/vol0004/mdt0/data/hp150275/u10028/POT_KKJUS'
outdir = './data'
tprnfor = .true.
nstep = 50
disk_io = 'non'
/
&SYSTEM
ibrav = 0
ecutwfc = 50.0
ecutrho = 400
occupations = 'smearing'
smearing = 'mp'
degauss = 0.01
assume_isolated = 'esm'
esm_bc = 'bc1'
input_dft = 'BEEF-VDW'
nosym = .true.
nspin = 1
ntyp = 3
nat = 17
/
&ELECTRONS
electron_maxstep = 200
mixing_beta = 0.1
conv_thr = 1e-06
/
&IONS
ion_dynamics = 'bfgs'
upscale = 1.0
/
&CELL
/

K_POINTS {automatic}
8 11 2 0  0  0

ATOMIC_SPECIES
C 12.01 C.pbe-n-rrkjus_psl.1.0.0.UPF
Cu 63.54 Cu.pbe-dn-rrkjus_psl.1.0.0.UPF
Pt 195.0 Pt.pbe-n-rrkjus_psl.1.0.0.UPF

CELL_PARAMETERS {angstrom}
7.52549000 0.00000000 0.00000000
0.00000000 5.32133000 0.00000000
0.00000000 0.00000000 23.99100000

ATOMIC_POSITIONS {angstrom}
Cu 0.00000000 2.66066500 -1.9955713800000012 0 0 0
Cu 1.88137250 3.99099750 -0.6652704299999996 0 0 0
Cu 1.88137250 1.33033250 -0.6652704299999996 0 0 0
Cu 0.00000000 0.00000000 0.60529293
Cu 1.71430662 1.35922732 2.02292112
Cu 1.71423137 3.96215589 2.02292112
Cu 3.76274500 2.66066500 -1.9955713800000012 0 0 0
Cu 5.64411750 3.99099750 -0.6652704299999996 0 0 0
Cu 5.64411750 1.33033250 -0.6652704299999996 0 0 0
Cu 3.76274500 0.00000000 0.84136437
Cu 5.81125863 1.35917411 2.02292112
Cu 5.81118338 3.96215589 2.02292112
Pt 0.00000000 0.00000000 -1.9955713800000012 0 0 0
Pt 0.00000000 2.66066500 0.51628632
Pt 3.76274500 0.00000000 -1.9955713800000012 0 0 0
Pt 3.76274500 2.66066500 0.80249895
C 0.00000000 2.66066500 2.44228380
