&CONTROL
calculation = 'relax'
prefix = 'scf'
pseudo_dir = '/vol0403/data/hp230205/u10028/POT_HYBRID_KKJUS_GBRV'
outdir = './data'
tprnfor = .true.
nstep = 50
disk_io = 'non'
/
&SYSTEM
ibrav = 0
ecutwfc = 50.0
ecutrho = 400
occupations = 'smearing'
smearing = 'mp'
degauss = 0.01
assume_isolated = 'esm'
esm_bc = 'bc1'
input_dft = 'BEEF-VDW'
nosym = .true.
nspin = 1
ntyp = 5
nat = 17
/
&ELECTRONS
electron_maxstep = 200
mixing_beta = 0.1
conv_thr = 1e-06
/
&IONS
ion_dynamics = 'bfgs'
upscale = 1.0
/
&CELL
/

K_POINTS {automatic}
8 8 1 0 0 0

ATOMIC_SPECIES
Au 196.9 Au.pbe-n-rrkjus_psl.1.0.0.UPF
C 12.01 C.pbe-n-rrkjus_psl.1.0.0.UPF
In 114.8 In.pbe-dn-rrkjus_psl.1.0.0.UPF
Li 6.941 Li.pbe-sl-rrkjus_psl.1.0.0.UPF
Y 88.90 Y.pbe-spn-rrkjus_psl.1.0.0.UPF


CELL_PARAMETERS {angstrom}
6.89380000 0.00000000 0.00000000
0.00000000 6.89380000 0.00000000
0.00000000 0.00000000 25.17030000

ATOMIC_POSITIONS {angstrom}
Li 0.00000000 3.44690000 2.58524151
Li 0.00000000 0.00000000 -0.8618310700000009 0 0 0
Li 3.44690000 3.44690000 -0.8618310700000009 0 0 0
Li 3.44690000 0.00000000 2.58524151
Y 5.17035000 1.72345000 0.86183107
Y 5.17035000 5.17035000 -2.5852415099999995 0 0 0
Y 1.72345000 1.72345000 -2.5852415099999995 0 0 0
Y 1.72345000 5.17035000 0.86183107
In 1.72345000 1.72345000 0.86183107
In 1.72345000 5.17035000 -2.5852415099999995 0 0 0
In 5.17035000 1.72345000 -2.5852415099999995 0 0 0
In 5.17035000 5.17035000 0.86183107
Au 0.00000000 0.00000000 2.58524151
Au 0.00000000 3.44690000 -0.8618310700000009 0 0 0
Au 3.44690000 0.00000000 -0.8618310700000009 0 0 0
Au 3.44690000 3.44690000 2.58524151
C 5.17035000 1.72345000 3.38515365
