&CONTROL
calculation = 'relax'
prefix = 'scf'
pseudo_dir = '/vol0004/mdt0/data/hp150275/u10028/POT_KKJUS'
outdir = './data'
tprnfor = .true.
nstep = 50
disk_io = 'non'
/
&SYSTEM
ibrav = 0
ecutwfc = 50.0
ecutrho = 400
occupations = 'smearing'
smearing = 'mp'
degauss = 0.01
assume_isolated = 'esm'
esm_bc = 'bc1'
input_dft = 'BEEF-VDW'
nosym = .true.
nspin = 1
ntyp = 5
nat = 34
/
&ELECTRONS
electron_maxstep = 200
mixing_beta = 0.1
conv_thr = 1e-06
/
&IONS
ion_dynamics = 'bfgs'
upscale = 1.0
/
&CELL
/

K_POINTS {automatic}
9 6 2 0  0  0

ATOMIC_SPECIES
C 12.01 C.pbe-n-rrkjus_psl.1.0.0.UPF
Ge 72.64 Ge.pbe-dn-rrkjus_psl.1.0.0.UPF
Li 6.941 Li.pbe-sl-rrkjus_psl.1.0.0.UPF
Ni 58.69 Ni.pbe-spn-rrkjus_psl.1.0.0.UPF
O 15.99 O.pbe-n-rrkjus_psl.1.0.0.UPF

CELL_PARAMETERS {angstrom}
5.73354000 0.00000000 0.00000000
0.00000000 8.10846000 0.00000000
0.00000000 0.00000000 26.08130000

ATOMIC_POSITIONS {angstrom}
Li 0.00000000 0.00000000 -3.04055795 0 0 0
Li 2.86677000 2.02711500 -1.0135193200000003 0 0 0
Li 2.86677000 6.08134500 -1.0135193200000003 0 0 0
Li 0.00000000 4.05423000 -3.04055795 0 0 0
Li 0.00000000 4.05050011 0.87476680
Li 2.86677000 6.08118283 3.46151014
Li 2.86677000 2.02743934 3.55253387
Li 0.00000000 0.00364881 0.87528843
Ni 1.43338500 0.00000000 -1.0135193200000003 0 0 0
Ni 4.30015500 4.05423000 -1.0135193200000003 0 0 0
Ni 4.30015500 0.00000000 -1.0135193200000003 0 0 0
Ni 1.43338500 4.05423000 -1.0135193200000003 0 0 0
Ni 4.30015500 6.08134500 -3.04055795 0 0 0
Ni 1.43338500 2.02711500 -3.04055795 0 0 0
Ni 1.43338500 6.08134500 -3.04055795 0 0 0
Ni 4.30015500 2.02711500 -3.04055795 0 0 0
Ni 1.28775308 4.06006809 2.83816707
Ni 4.44561491 8.10302733 2.83921032
Ni 4.44584425 4.06006809 2.83816707
Ni 1.28781042 8.10310842 2.83921032
Ni 4.28541980 2.02727717 1.05238045
Ni 1.43688246 6.08126392 1.04768582
Ni 1.44812020 2.02727717 1.05238045
Ni 4.29671488 6.08110175 1.04768582
Ge 0.00000000 6.08134500 -1.0135193200000003 0 0 0
Ge 2.86677000 0.00000000 -3.04055795 0 0 0
Ge 0.00000000 2.02711500 -1.0135193200000003 0 0 0
Ge 2.86677000 4.05423000 -3.04055795 0 0 0
Ge 0.00000000 2.02784476 3.08515698
Ge 2.86677000 4.05609495 1.02577753
Ge 0.00000000 6.08093958 3.12167080
Ge 2.86677000 8.10667614 1.02577753
C 2.86694201 2.02735825 5.69876405
O 2.86694201 2.02711500 6.83564792
