&CONTROL
calculation = 'relax'
prefix = 'scf'
pseudo_dir = '/vol0004/mdt0/data/hp150275/u10028/POT_HYBRID_KKJUS_GBRV'
outdir = './data'
tprnfor = .true.
nstep = 50
disk_io = 'non'
/
&SYSTEM
ibrav = 0
ecutwfc = 50.0
ecutrho = 400
occupations = 'smearing'
smearing = 'mp'
degauss = 0.01
assume_isolated = 'esm'
esm_bc = 'bc1'
input_dft = 'BEEF-VDW'
nosym = .true.
nspin = 2
ntyp = 5
nat = 34
starting_magnetization(1) = 0.0
starting_magnetization(2) = 0.0
starting_magnetization(3) = 0.1
starting_magnetization(4) = 0.001
starting_magnetization(5) = 0.0
/
&ELECTRONS
electron_maxstep = 300
mixing_beta = 0.1
conv_thr = 1e-06
/
&IONS
ion_dynamics = 'bfgs'
upscale = 1.0
/
&CELL
/

K_POINTS {automatic}
8 6 1 0 0 0

ATOMIC_SPECIES
C 12.01 C.pbe-n-rrkjus_psl.1.0.0.UPF
Ga 69.72 Ga.pbe-dnl-rrkjus_psl.1.0.0.UPF
Mn 54.93 mn_pbe_v1.5.uspp.F.UPF
Ni 58.69 ni_pbe_v1.4.uspp.F.UPF
O 15.99 O.pbe-n-rrkjus_psl.1.0.0.UPF

CELL_PARAMETERS {angstrom}
5.88011000 0.00000000 0.00000000
0.00000000 8.31574000 0.00000000
0.00000000 0.00000000 26.23680000

ATOMIC_POSITIONS {angstrom}
Mn 0.00000000 0.00000000 -3.118506049999997 0 0 0
Mn 2.94005500 2.07893500 -1.0395020200000005 0 0 0
Mn 2.94005500 6.23680500 -1.0395020200000005 0 0 0
Mn 0.00000000 4.15787000 -3.118506049999997 0 0 0
Mn 0.00000000 4.15828579 0.97102397
Mn 2.94005500 6.23655553 3.13503523
Mn 2.94005500 2.07910131 3.13555997
Mn 0.00000000 8.31524106 0.97102397
Ga 0.00000000 6.23680500 -1.0395020200000005 0 0 0
Ga 2.94005500 0.00000000 -3.118506049999997 0 0 0
Ga 0.00000000 2.07893500 -1.0395020200000005 0 0 0
Ga 2.94005500 4.15787000 -3.118506049999997 0 0 0
Ga 0.00000000 2.07826974 3.16389571
Ga 2.94005500 4.16011525 1.02375994
Ga 0.00000000 6.23796920 3.17071728
Ga 2.94005500 8.31332844 1.02166099
Ni 1.47002750 0.00000000 -1.0395020200000005 0 0 0
Ni 4.41008250 4.15787000 -1.0395020200000005 0 0 0
Ni 4.41008250 0.00000000 -1.0395020200000005 0 0 0
Ni 1.47002750 4.15787000 -1.0395020200000005 0 0 0
Ni 4.41008250 6.23680500 -3.118506049999997 0 0 0
Ni 1.47002750 2.07893500 -3.118506049999997 0 0 0
Ni 1.47002750 6.23680500 -3.118506049999997 0 0 0
Ni 4.41008250 2.07893500 -3.118506049999997 0 0 0
Ni 1.38717675 4.15687211 2.95819920
Ni 4.49158082 0.00116420 2.95714973
Ni 4.49293325 4.15687211 2.95819920
Ni 1.38852918 0.00116420 2.95714973
Ni 4.41214054 2.07843606 1.02349757
Ni 1.46879268 6.23730394 1.02507178
Ni 1.46796946 2.07843606 1.02349757
Ni 4.41131732 6.23730394 1.02507178
C 0.00052921 2.07901816 7.12565251
O 5.88005120 2.07876869 8.26065648
