&CONTROL
calculation = 'relax'
prefix = 'scf'
pseudo_dir = '/vol0004/mdt0/data/hp150275/u10028/POT_KKJUS'
outdir = './data'
tprnfor = .true.
nstep = 50
disk_io = 'non'
/
&SYSTEM
ibrav = 0
ecutwfc = 50.0
ecutrho = 400
occupations = 'smearing'
smearing = 'mp'
degauss = 0.01
assume_isolated = 'esm'
esm_bc = 'bc1'
input_dft = 'BEEF-VDW'
nosym = .true.
nspin = 1
ntyp = 5
nat = 34
/
&ELECTRONS
electron_maxstep = 200
mixing_beta = 0.1
conv_thr = 1e-06
/
&IONS
ion_dynamics = 'bfgs'
upscale = 1.0
/
&CELL
/

K_POINTS {automatic}
8 6 2 0  0  0

ATOMIC_SPECIES
Ag 107.8 Ag.pbe-n-rrkjus_psl.1.0.0.UPF
C 12.01 C.pbe-n-rrkjus_psl.1.0.0.UPF
In 114.8 In.pbe-dn-rrkjus_psl.1.0.0.UPF
O 15.99 O.pbe-n-rrkjus_psl.1.0.0.UPF
Y 88.90 Y.pbe-spn-rrkjus_psl.1.0.0.UPF

CELL_PARAMETERS {angstrom}
7.06522000 0.00000000 0.00000000
0.00000000 9.99173000 0.00000000
0.00000000 0.00000000 27.49380000

ATOMIC_POSITIONS {angstrom}
Y 0.00000000 0.00000000 -3.7468550600000015 0 0 0
Y 3.53261000 2.49793250 -1.2490433299999992 0 0 0
Y 3.53261000 7.49379750 -1.2490433299999992 0 0 0
Y 0.00000000 4.99586500 -3.7468550600000015 0 0 0
Y 7.06317109 5.00845458 1.23557137
Y 3.45369149 7.64567180 3.82741190
Y 3.34199036 2.10575710 3.98275187
Y 0.03115762 0.05375551 1.26663937
In 0.00000000 7.49379750 -1.2490433299999992 0 0 0
In 3.53261000 0.00000000 -3.7468550600000015 0 0 0
In 0.00000000 2.49793250 -1.2490433299999992 0 0 0
In 3.53261000 4.99586500 -3.7468550600000015 0 0 0
In 6.96390475 2.57257072 3.65805009
In 3.50406651 5.03233481 1.11899766
In 6.94447539 7.33722709 3.73998161
In 3.36756646 0.00439636 1.22539867
Ag 1.76630500 0.00000000 -1.2490433299999992 0 0 0
Ag 5.29891500 4.99586500 -1.2490433299999992 0 0 0
Ag 5.29891500 0.00000000 -1.2490433299999992 0 0 0
Ag 1.76630500 4.99586500 -1.2490433299999992 0 0 0
Ag 5.29891500 7.49379750 -3.7468550600000015 0 0 0
Ag 1.76630500 2.49793250 -3.7468550600000015 0 0 0
Ag 1.76630500 7.49379750 -3.7468550600000015 0 0 0
Ag 5.29891500 2.49793250 -3.7468550600000015 0 0 0
Ag 1.77428870 4.94980312 3.73255829
Ag 5.48805094 9.91429409 3.59453941
Ag 4.96423553 4.95969494 3.71606201
Ag 1.22800589 9.90859881 4.23349532
Ag 5.17506169 2.51491844 1.32575104
Ag 1.71352781 7.47541272 1.19598030
Ag 1.76453869 2.57856576 1.28011133
Ag 5.22889867 7.56034242 1.30045674
C 3.60375677 9.59026229 5.17460810
O 3.73029486 0.66734765 5.84160769
