&CONTROL
calculation = 'relax'
prefix = 'scf'
pseudo_dir = '/vol0403/data/hp230205/u10028/POT_HYBRID_KKJUS_GBRV'
outdir = './data'
tprnfor = .true.
nstep = 50
disk_io = 'non'
/
&SYSTEM
ibrav = 0
ecutwfc = 50.0
ecutrho = 400
occupations = 'smearing'
smearing = 'mp'
degauss = 0.01
assume_isolated = 'esm'
esm_bc = 'bc1'
input_dft = 'BEEF-VDW'
nosym = .true.
nspin = 1
ntyp = 6
nat = 34
/
&ELECTRONS
electron_maxstep = 200
mixing_beta = 0.1
conv_thr = 1e-06
/
&IONS
ion_dynamics = 'bfgs'
upscale = 1.0
/
&CELL
/

K_POINTS {automatic}
6 6 1 0 0 0

ATOMIC_SPECIES
C 12.01 C.pbe-n-rrkjus_psl.1.0.0.UPF
Cu 63.54 Cu.pbe-dn-rrkjus_psl.1.0.0.UPF
In 114.8 In.pbe-dn-rrkjus_psl.1.0.0.UPF
Li 6.941 Li.pbe-sl-rrkjus_psl.1.0.0.UPF
O 15.99 O.pbe-n-rrkjus_psl.1.0.0.UPF
Sn 118.7 Sn.pbe-dn-rrkjus_psl.1.0.0.UPF


CELL_PARAMETERS {angstrom}
6.73938000 0.00000000 0.00000000
0.00000000 9.53092000 0.00000000
0.00000000 0.00000000 27.14820000

ATOMIC_POSITIONS {angstrom}
Li 0.00000000 2.38273000 -1.191263020000001 0 0 0
Li 0.00000000 7.14819000 -1.191263020000001 0 0 0
Li 3.36969000 4.76546000 -3.5740605300000006 0 0 0
Li 3.36969000 0.00000000 -3.5740605300000006 0 0 0
Li 0.00000000 7.14819000 3.57406053
Li 0.00000000 2.38273000 3.57406053
Li 3.36969000 0.00000000 1.19126302
Li 3.36969000 4.76546000 1.19126302
In 1.68484500 0.00000000 -1.191263020000001 0 0 0
In 1.68484500 4.76546000 -1.191263020000001 0 0 0
In 5.05453500 2.38273000 -3.5740605300000006 0 0 0
In 5.05453500 7.14819000 -3.5740605300000006 0 0 0
In 1.68484500 4.76546000 3.57406053
In 1.68484500 0.00000000 3.57406053
In 5.05453500 7.14819000 1.19126302
In 5.05453500 2.38273000 1.19126302
Cu 0.00000000 0.00000000 -3.5740605300000006 0 0 0
Cu 0.00000000 4.76546000 -3.5740605300000006 0 0 0
Cu 3.36969000 7.14819000 -1.191263020000001 0 0 0
Cu 3.36969000 2.38273000 -1.191263020000001 0 0 0
Cu 0.00000000 4.76546000 1.19126302
Cu 0.00000000 0.00000000 1.19126302
Cu 3.36969000 2.38273000 3.57406053
Cu 3.36969000 7.14819000 3.57406053
Sn 5.05453500 0.00000000 -1.191263020000001 0 0 0
Sn 5.05453500 4.76546000 -1.191263020000001 0 0 0
Sn 1.68484500 2.38273000 -3.5740605300000006 0 0 0
Sn 1.68484500 7.14819000 -3.5740605300000006 0 0 0
Sn 5.05453500 4.76546000 3.57406053
Sn 5.05453500 0.00000000 3.57406053
Sn 1.68484500 7.14819000 1.19126302
Sn 1.68484500 2.38273000 1.19126302
C 1.68484500 0.00000000 5.47416305
O 1.68484500 0.00000000 6.62416080
