&CONTROL
calculation = 'relax'
prefix = 'scf'
pseudo_dir = '/vol0004/mdt0/data/hp150275/u10028/POT_KKJUS'
outdir = './data'
tprnfor = .true.
nstep = 50
disk_io = 'non'
/
&SYSTEM
ibrav = 0
ecutwfc = 50.0
ecutrho = 400
occupations = 'smearing'
smearing = 'mp'
degauss = 0.01
assume_isolated = 'esm'
esm_bc = 'bc1'
input_dft = 'BEEF-VDW'
nosym = .true.
nspin = 1
ntyp = 4
nat = 33
/
&ELECTRONS
electron_maxstep = 200
mixing_beta = 0.1
conv_thr = 1e-06
/
&IONS
ion_dynamics = 'bfgs'
upscale = 1.0
/
&CELL
/

K_POINTS {automatic}
9 6 2 0  0  0

ATOMIC_SPECIES
Al 26.98 Al.pbe-nl-rrkjus_psl.1.0.0.UPF
C 12.01 C.pbe-n-rrkjus_psl.1.0.0.UPF
Li 6.941 Li.pbe-sl-rrkjus_psl.1.0.0.UPF
Pt 195.0 Pt.pbe-n-rrkjus_psl.1.0.0.UPF

CELL_PARAMETERS {angstrom}
6.09904000 0.00000000 0.00000000
0.00000000 8.62534000 0.00000000
0.00000000 0.00000000 26.46900000

ATOMIC_POSITIONS {angstrom}
Li 0.00000000 0.00000000 -3.2345118 0 0 0
Li 3.04952000 2.15633500 -1.0780823700000006 0 0 0
Li 3.04952000 6.46900500 -1.0780823700000006 0 0 0
Li 0.00000000 4.31267000 -3.2345118 0 0 0
Li 0.00000000 4.31267000 1.03467321
Li 3.04952000 6.24327985 4.39438338
Li 3.04952000 2.38206015 4.39438338
Li 0.00000000 0.00000000 1.21942683
Al 1.52476000 0.00000000 -1.0780823700000006 0 0 0
Al 4.57428000 4.31267000 -1.0780823700000006 0 0 0
Al 4.57428000 0.00000000 -1.0780823700000006 0 0 0
Al 1.52476000 4.31267000 -1.0780823700000006 0 0 0
Al 4.57428000 6.46900500 -3.2345118 0 0 0
Al 1.52476000 2.15633500 -3.2345118 0 0 0
Al 1.52476000 6.46900500 -3.2345118 0 0 0
Al 4.57428000 2.15633500 -3.2345118 0 0 0
Al 1.45846344 4.31267000 3.19242609
Al 4.28347777 0.00000000 3.27633282
Al 4.64057656 4.31267000 3.19242609
Al 1.81562322 0.00000000 3.27633282
Al 4.50414104 2.17539700 1.14663708
Al 1.59489896 6.45002925 1.14663708
Al 1.59489896 2.17539700 1.14663708
Al 4.50414104 6.45002925 1.14663708
Pt 0.00000000 6.46900500 -1.0780823700000006 0 0 0
Pt 3.04952000 0.00000000 -3.2345118 0 0 0
Pt 0.00000000 2.15633500 -1.0780823700000006 0 0 0
Pt 3.04952000 4.31267000 -3.2345118 0 0 0
Pt 0.00000000 2.10510048 3.11487192
Pt 3.04952000 4.31267000 0.97935300
Pt 0.00000000 6.52023952 3.11487192
Pt 3.04952000 0.00000000 0.94653144
C 0.00000000 0.00000000 3.83641686
