&CONTROL
calculation = 'relax'
prefix = 'scf'
pseudo_dir = '/vol0004/mdt0/data/hp150275/u10028/POT_KKJUS'
outdir = './data'
tprnfor = .true.
nstep = 50
disk_io = 'non'
/
&SYSTEM
ibrav = 0
ecutwfc = 50.0
ecutrho = 400
occupations = 'smearing'
smearing = 'mp'
degauss = 0.01
assume_isolated = 'esm'
esm_bc = 'bc1'
input_dft = 'BEEF-VDW'
nosym = .true.
nspin = 1
ntyp = 3
nat = 32
/
&ELECTRONS
electron_maxstep = 200
mixing_beta = 0.1
conv_thr = 1e-06
/
&IONS
ion_dynamics = 'bfgs'
upscale = 1.0
/
&CELL
/

K_POINTS {automatic}
9 6 2 0  0  0

ATOMIC_SPECIES
Cu 63.54 Cu.pbe-dn-rrkjus_psl.1.0.0.UPF
Rh 102.9 Rh.pbe-spn-rrkjus_psl.1.0.0.UPF
Sn 118.7 Sn.pbe-dn-rrkjus_psl.1.0.0.UPF

CELL_PARAMETERS {angstrom}
6.25984000 0.00000000 0.00000000
0.00000000 8.85274000 0.00000000
0.00000000 0.00000000 26.63960000

ATOMIC_POSITIONS {angstrom}
Cu 0.00000000 0.00000000 -3.319826950000003 0 0 0
Cu 3.12992000 2.21318500 -1.1066089800000007 0 0 0
Cu 3.12992000 6.63955500 -1.1066089800000007 0 0 0
Cu 0.00000000 4.42637000 -3.319826950000003 0 0 0
Cu 0.00000000 4.42663558 1.12046158
Cu 3.12992000 6.63946647 3.32542127
Cu 3.12992000 2.21327353 3.32568766
Cu 0.00000000 8.85247442 1.12072797
Sn 0.00000000 6.63955500 -1.1066089800000007 0 0 0
Sn 3.12992000 0.00000000 -3.319826950000003 0 0 0
Sn 0.00000000 2.21318500 -1.1066089800000007 0 0 0
Sn 3.12992000 4.42637000 -3.319826950000003 0 0 0
Sn 0.00000000 2.21327353 3.42878292
Sn 3.12992000 4.42645853 1.06265364
Sn 0.00000000 6.63946647 3.42878292
Sn 3.12992000 8.85265147 1.06292004
Rh 1.56496000 0.00000000 -1.1066089800000007 0 0 0
Rh 4.69488000 4.42637000 -1.1066089800000007 0 0 0
Rh 4.69488000 0.00000000 -1.1066089800000007 0 0 0
Rh 1.56496000 4.42637000 -1.1066089800000007 0 0 0
Rh 4.69488000 6.63955500 -3.319826950000003 0 0 0
Rh 1.56496000 2.21318500 -3.319826950000003 0 0 0
Rh 1.56496000 6.63955500 -3.319826950000003 0 0 0
Rh 4.69488000 2.21318500 -3.319826950000003 0 0 0
Rh 1.59193991 4.42645853 3.22419079
Rh 4.66783749 8.85265147 3.22419079
Rh 4.66790009 4.42645853 3.22419079
Rh 1.59200251 8.85265147 3.22419079
Rh 4.71265795 2.21318500 1.11593284
Rh 1.54724465 6.63955500 1.11593284
Rh 1.54718205 2.21318500 1.11593284
Rh 4.71259535 6.63955500 1.11593284
