&CONTROL
calculation = 'relax'
prefix = 'scf'
pseudo_dir = '/vol0004/mdt0/data/hp150275/u10028/POT_HYBRID_KKJUS_GBRV'
outdir = './data'
tprnfor = .true.
nstep = 50
disk_io = 'non'
/
&SYSTEM
ibrav = 0
ecutwfc = 50.0
ecutrho = 400
occupations = 'smearing'
smearing = 'mp'
degauss = 0.01
assume_isolated = 'esm'
esm_bc = 'bc1'
input_dft = 'BEEF-VDW'
nosym = .true.
nspin = 2
ntyp = 4
nat = 33
starting_magnetization(1) = 0.0
starting_magnetization(2) = 0.1
starting_magnetization(3) = 0.0
starting_magnetization(4) = 0.0
/
&ELECTRONS
electron_maxstep = 300
mixing_beta = 0.1
conv_thr = 1e-06
/
&IONS
ion_dynamics = 'bfgs'
upscale = 1.0
/
&CELL
/

K_POINTS {automatic}
8 6 1 0 0 0

ATOMIC_SPECIES
C 12.01 C.pbe-n-rrkjus_psl.1.0.0.UPF
Co 58.93 co_pbe_v1.2.uspp.F.UPF
Sn 118.7 Sn.pbe-dn-rrkjus_psl.1.0.0.UPF
Zr 91.22 Zr.pbe-spn-rrkjus_psl.1.0.0.UPF

CELL_PARAMETERS {angstrom}
6.31315000 0.00000000 0.00000000
0.00000000 8.92814000 0.00000000
0.00000000 0.00000000 26.69610000

ATOMIC_POSITIONS {angstrom}
Zr 0.00000000 0.00000000 -3.347957900000001 0 0 0
Zr 3.15657500 2.23203500 -1.1158969800000023 0 0 0
Zr 3.15657500 6.69610500 -1.1158969800000023 0 0 0
Zr 0.00000000 4.46407000 -3.347957900000001 0 0 0
Zr 0.00000000 4.46398072 1.09961236
Zr 3.15657500 6.60628791 3.38640029
Zr 3.15657500 2.32185209 3.38640029
Zr 0.00000000 0.00000000 1.09987932
Co 1.57828750 0.00000000 -1.1158969800000023 0 0 0
Co 4.73486250 4.46407000 -1.1158969800000023 0 0 0
Co 4.73486250 0.00000000 -1.1158969800000023 0 0 0
Co 1.57828750 4.46407000 -1.1158969800000023 0 0 0
Co 4.73486250 6.69610500 -3.347957900000001 0 0 0
Co 1.57828750 2.23203500 -3.347957900000001 0 0 0
Co 1.57828750 6.69610500 -3.347957900000001 0 0 0
Co 4.73486250 2.23203500 -3.347957900000001 0 0 0
Co 1.44141841 4.46415928 3.18431081
Co 4.86604976 8.92805072 3.27614539
Co 4.87179472 4.46415928 3.18431081
Co 1.44716337 8.92805072 3.27614539
Co 4.70266544 2.21935704 1.19331567
Co 1.61048456 6.70869368 1.19304871
Co 1.61054770 2.21935704 1.19304871
Co 4.70272857 6.70878296 1.19304871
Sn 0.00000000 6.69610500 -1.1158969800000023 0 0 0
Sn 3.15657500 0.00000000 -3.347957900000001 0 0 0
Sn 0.00000000 2.23203500 -1.1158969800000023 0 0 0
Sn 3.15657500 4.46407000 -3.347957900000001 0 0 0
Sn 0.00000000 2.21087531 3.51534245
Sn 3.15644874 4.46407000 1.11643090
Sn 0.00000000 6.71726469 3.51507549
Sn 3.15657500 8.92805072 1.10682031
C 3.15657500 0.00000000 3.75560735
