&CONTROL
calculation = 'relax'
prefix = 'scf'
pseudo_dir = '/vol0004/mdt0/data/hp150275/u10028/POT_KKJUS'
outdir = './data'
tprnfor = .true.
nstep = 50
disk_io = 'non'
/
&SYSTEM
ibrav = 0
ecutwfc = 50.0
ecutrho = 400
occupations = 'smearing'
smearing = 'mp'
degauss = 0.01
assume_isolated = 'esm'
esm_bc = 'bc1'
input_dft = 'BEEF-VDW'
nosym = .true.
nspin = 1
ntyp = 2
nat = 16
/
&ELECTRONS
electron_maxstep = 200
mixing_beta = 0.1
conv_thr = 1e-06
/
&IONS
ion_dynamics = 'bfgs'
upscale = 1.0
/
&CELL
/

K_POINTS {automatic}
8 11 2 0  0  0

ATOMIC_SPECIES
Pt 195.0 Pt.pbe-n-rrkjus_psl.1.0.0.UPF
Zr 91.22 Zr.pbe-spn-rrkjus_psl.1.0.0.UPF

CELL_PARAMETERS {angstrom}
8.14544000 0.00000000 0.00000000
0.00000000 5.75970000 0.00000000
0.00000000 0.00000000 24.31980000

ATOMIC_POSITIONS {angstrom}
Zr 0.00000000 0.00000000 1.92977613
Zr 0.00000000 2.87985000 -0.7198660799999992 0 0 0
Zr 4.07272000 0.00000000 1.92977613
Zr 4.07272000 2.87985000 -0.7198660799999992 0 0 0
Pt 0.00000000 2.87985000 1.99276441
Pt 2.03636000 4.35093498 0.88937509
Pt 2.03636000 1.40876502 0.88937509
Pt 0.00000000 0.00000000 -0.7198660799999992 0 0 0
Pt 2.03636000 1.43992500 -2.159841440000001 0 0 0
Pt 2.03636000 4.31977500 -2.159841440000001 0 0 0
Pt 4.07272000 2.87985000 1.99276441
Pt 6.10908000 4.35093498 0.88937509
Pt 6.10908000 1.40876502 0.88937509
Pt 4.07272000 0.00000000 -0.7198660799999992 0 0 0
Pt 6.10908000 1.43992500 -2.159841440000001 0 0 0
Pt 6.10908000 4.31977500 -2.159841440000001 0 0 0
