&CONTROL
calculation = 'relax'
prefix = 'scf'
pseudo_dir = '/vol0004/mdt0/data/hp150275/u10028/POT_KKJUS'
outdir = './data'
tprnfor = .true.
nstep = 50
disk_io = 'non'
/
&SYSTEM
ibrav = 0
ecutwfc = 50.0
ecutrho = 400
occupations = 'smearing'
smearing = 'mp'
degauss = 0.01
assume_isolated = 'esm'
esm_bc = 'bc1'
input_dft = 'BEEF-VDW'
nosym = .true.
nspin = 1
ntyp = 4
nat = 33
/
&ELECTRONS
electron_maxstep = 200
mixing_beta = 0.1
conv_thr = 1e-06
/
&IONS
ion_dynamics = 'bfgs'
upscale = 1.0
/
&CELL
/

K_POINTS {automatic}
8 6 1 0 0 0

ATOMIC_SPECIES
C 12.01 C.pbe-n-rrkjus_psl.1.0.0.UPF
Ge 72.64 Ge.pbe-dn-rrkjus_psl.1.0.0.UPF
Li 6.941 Li.pbe-sl-rrkjus_psl.1.0.0.UPF
Zn 65.40 Zn.pbe-dnl-rrkjus_psl.1.0.0.UPF

CELL_PARAMETERS {angstrom}
6.18893000 0.00000000 0.00000000
0.00000000 8.75246000 0.00000000
0.00000000 0.00000000 26.56430000

ATOMIC_POSITIONS {angstrom}
Li 0.00000000 0.00000000 -3.282284909999998 0 0 0
Li 3.09446500 2.18811500 -1.0941835199999979 0 0 0
Li 3.09446500 6.56434500 -1.0941835199999979 0 0 0
Li 0.00000000 4.37623000 -3.282284909999998 0 0 0
Li 1.54723250 2.18811500 -3.282284909999998 0 0 0
Li 1.54723250 6.56434500 -3.282284909999998 0 0 0
Li 4.64169750 4.37623000 -1.0941835199999979 0 0 0
Li 4.64169750 0.00000000 -1.0941835199999979 0 0 0
Li 0.04319873 4.37623000 1.10135588
Li 2.91312935 6.72433997 3.62868338
Li 2.91306746 2.02803251 3.62815209
Li 6.01570185 0.00000000 1.12473246
Li 1.56932698 6.65965929 1.28730598
Li 1.56920320 2.09262566 1.28704033
Li 4.66830990 0.00008752 3.98145728
Li 4.52757363 4.37623000 3.43981121
Zn 1.54723250 0.00000000 -1.0941835199999979 0 0 0
Zn 1.54723250 4.37623000 -1.0941835199999979 0 0 0
Zn 4.64169750 6.56434500 -3.282284909999998 0 0 0
Zn 4.64169750 2.18811500 -3.282284909999998 0 0 0
Zn 1.34770140 4.37614248 3.33514786
Zn 0.96702031 0.00000000 3.46743808
Zn 4.65271380 2.30758608 1.18875242
Zn 4.65283757 6.44487392 1.18875242
Ge 0.00000000 6.56434500 -1.0941835199999979 0 0 0
Ge 3.09446500 0.00000000 -3.282284909999998 0 0 0
Ge 0.00000000 2.18811500 -1.0941835199999979 0 0 0
Ge 3.09446500 4.37623000 -3.282284909999998 0 0 0
Ge 5.99973441 2.28019088 3.42281005
Ge 3.02137374 4.37570485 1.15953170
Ge 5.99961063 6.47244417 3.42307570
Ge 3.30717852 8.75237248 1.18131442
C 2.85179705 8.75228495 3.04214364
