&CONTROL
calculation = 'relax'
prefix = 'scf'
pseudo_dir = '/vol0403/data/hp230205/u10028/POT_HYBRID_KKJUS_GBRV'
outdir = './data'
tprnfor = .true.
nstep = 50
disk_io = 'non'
/
&SYSTEM
ibrav = 0
ecutwfc = 50.0
ecutrho = 400
occupations = 'smearing'
smearing = 'mp'
degauss = 0.01
assume_isolated = 'esm'
esm_bc = 'bc1'
input_dft = 'BEEF-VDW'
nosym = .true.
nspin = 1
ntyp = 5
nat = 17
/
&ELECTRONS
electron_maxstep = 200
mixing_beta = 0.1
conv_thr = 1e-06
/
&IONS
ion_dynamics = 'bfgs'
upscale = 1.0
/
&CELL
/

K_POINTS {automatic}
12 7 2 0  0  0

ATOMIC_SPECIES
Ag 107.8 Ag.pbe-n-rrkjus_psl.1.0.0.UPF
Al 26.98 Al.pbe-nl-rrkjus_psl.1.0.0.UPF
C 12.01 C.pbe-n-rrkjus_psl.1.0.0.UPF
Ge 72.64 Ge.pbe-dn-rrkjus_psl.1.0.0.UPF
Li 6.941 Li.pbe-sl-rrkjus_psl.1.0.0.UPF


CELL_PARAMETERS {angstrom}
5.56638000 0.00000000 0.00000000
0.00000000 8.55604000 0.00000000
0.00000000 0.00000000 24.17150000

ATOMIC_POSITIONS {angstrom}
Li 3.45956083 0.22724842 2.16794184
Li 5.45549771 0.00000000 -0.6951723400000027 0 0 0
Li 3.45956083 4.05094270 2.16794184
Li 5.45549771 4.27802000 -0.6951723400000027 0 0 0
Al 1.34617334 2.13901000 0.61637325
Al 4.00846157 2.13901000 -2.085758730000002 0 0 0
Al 1.64425299 6.41703000 0.79959322
Al 4.00846157 6.41703000 -2.085758730000002 0 0 0
Ag 0.59109389 8.50410484 2.00236706
Ag 2.67230771 0.00000000 -0.6951723400000027 0 0 0
Ag 0.59114956 4.32986960 2.00260878
Ag 2.67230771 4.27802000 -0.6951723400000027 0 0 0
Ge 3.94934661 2.13901000 0.47424483
Ge 1.22527157 2.13901000 -2.085758730000002 0 0 0
Ge 4.33264754 6.41703000 0.73070445
Ge 1.22527157 6.41703000 -2.085758730000002 0 0 0
C 5.32084698 2.13901000 1.89021130
