&CONTROL
calculation = 'relax'
prefix = 'scf'
pseudo_dir = '/vol0403/data/hp230205/u10028/POT_HYBRID_KKJUS_GBRV'
outdir = './data'
tprnfor = .true.
nstep = 50
disk_io = 'non'
/
&SYSTEM
ibrav = 0
ecutwfc = 50.0
ecutrho = 400
occupations = 'smearing'
smearing = 'mp'
degauss = 0.01
assume_isolated = 'esm'
esm_bc = 'bc1'
input_dft = 'BEEF-VDW'
nosym = .true.
nspin = 1
ntyp = 5
nat = 33
/
&ELECTRONS
electron_maxstep = 200
mixing_beta = 0.1
conv_thr = 1e-06
/
&IONS
ion_dynamics = 'bfgs'
upscale = 1.0
/
&CELL
/

K_POINTS {automatic}
7 7 2 0  0  0

ATOMIC_SPECIES
Ag 107.8 Ag.pbe-n-rrkjus_psl.1.0.0.UPF
Al 26.98 Al.pbe-nl-rrkjus_psl.1.0.0.UPF
C 12.01 C.pbe-n-rrkjus_psl.1.0.0.UPF
Li 6.941 Li.pbe-sl-rrkjus_psl.1.0.0.UPF
Sn 118.7 Sn.pbe-dn-rrkjus_psl.1.0.0.UPF


CELL_PARAMETERS {angstrom}
8.56020000 0.00000000 0.00000000
0.00000000 8.66686000 0.00000000
0.00000000 0.00000000 26.12070000

ATOMIC_POSITIONS {angstrom}
Li 2.17668766 8.63513929 0.97691418
Li 2.14005000 0.00000000 -3.0603012099999987 0 0 0
Li 2.17668766 4.36515071 0.97691418
Li 2.14005000 4.33343000 -3.0603012099999987 0 0 0
Li 6.38351234 8.63513929 0.97691418
Li 6.42015000 0.00000000 -3.0603012099999987 0 0 0
Li 6.38351234 4.36515071 0.97691418
Li 6.42015000 4.33343000 -3.0603012099999987 0 0 0
Al 0.00000000 2.16671500 0.82201843
Al 0.00000000 2.16671500 -3.0603012099999987 0 0 0
Al 0.00000000 6.50014500 0.98736246
Al 0.00000000 6.50014500 -3.0603012099999987 0 0 0
Al 4.28010000 2.16671500 1.11065216
Al 4.28010000 2.16671500 -3.0603012099999987 0 0 0
Al 4.28010000 6.50014500 1.01844609
Al 4.28010000 6.50014500 -3.0603012099999987 0 0 0
Ag 0.00000000 8.52489683 2.64759415
Ag 0.00000000 0.00000000 -1.0200133399999984 0 0 0
Ag 0.00000000 4.47539317 2.64759415
Ag 0.00000000 4.33343000 -1.0200133399999984 0 0 0
Ag 4.28010000 0.00164670 2.69278296
Ag 4.28010000 0.00000000 -1.0200133399999984 0 0 0
Ag 4.28010000 4.33178330 2.69278296
Ag 4.28010000 4.33343000 -1.0200133399999984 0 0 0
Sn 2.09664979 2.16671500 3.67126439
Sn 2.14005000 2.16671500 -1.0200133399999984 0 0 0
Sn 2.20159784 6.50014500 3.32176942
Sn 2.14005000 6.50014500 -1.0200133399999984 0 0 0
Sn 6.46355021 2.16671500 3.67126439
Sn 6.42015000 2.16671500 -1.0200133399999984 0 0 0
Sn 6.35860216 6.50014500 3.32176942
Sn 6.42015000 6.50014500 -1.0200133399999984 0 0 0
C 0.00000000 2.16671500 2.79517611
