&CONTROL
calculation = 'relax'
prefix = 'scf'
pseudo_dir = '/vol0403/data/hp230205/u10028/POT_HYBRID_KKJUS_GBRV'
outdir = './data'
tprnfor = .true.
nstep = 50
disk_io = 'non'
/
&SYSTEM
ibrav = 0
ecutwfc = 50.0
ecutrho = 400
occupations = 'smearing'
smearing = 'mp'
degauss = 0.01
assume_isolated = 'esm'
esm_bc = 'bc1'
input_dft = 'BEEF-VDW'
nosym = .true.
nspin = 1
ntyp = 6
nat = 18
/
&ELECTRONS
electron_maxstep = 200
mixing_beta = 0.1
conv_thr = 1e-06
/
&IONS
ion_dynamics = 'bfgs'
upscale = 1.0
/
&CELL
/

K_POINTS {automatic}
8 10 2 0  0  0

ATOMIC_SPECIES
C 12.01 C.pbe-n-rrkjus_psl.1.0.0.UPF
Ge 72.64 Ge.pbe-dn-rrkjus_psl.1.0.0.UPF
In 114.8 In.pbe-dn-rrkjus_psl.1.0.0.UPF
Li 6.941 Li.pbe-sl-rrkjus_psl.1.0.0.UPF
O 15.99 O.pbe-n-rrkjus_psl.1.0.0.UPF
Y 88.90 Y.pbe-spn-rrkjus_psl.1.0.0.UPF


CELL_PARAMETERS {angstrom}
8.49364000 0.00000000 0.00000000
0.00000000 6.33235000 0.00000000
0.00000000 0.00000000 24.73290000

ATOMIC_POSITIONS {angstrom}
Li 0.00000000 3.16617500 -2.3664438700000012 0 0 0
Li 8.48760952 5.85767704 0.66803563
Li 4.24682000 3.16617500 -2.3664438700000012 0 0 0
Li 4.25208606 5.85856357 0.67125091
Y 2.12341000 1.45194453 -0.7887321800000002 0 0 0
Y 2.12349494 3.68770735 2.44286853
Y 6.37023000 1.45194453 -0.7887321800000002 0 0 0
Y 6.37073962 3.73330027 2.42258755
In 2.12341000 4.61811953 -0.7887321800000002 0 0 0
In 2.12213595 0.54698839 2.60610567
In 6.37023000 4.61811953 -0.7887321800000002 0 0 0
In 6.37167392 0.55294080 2.61327821
Ge 0.00000000 0.00000000 -2.3664438700000012 0 0 0
Ge 8.46696997 2.27470677 1.18816852
Ge 4.24682000 0.00000000 -2.3664438700000012 0 0 0
Ge 4.27425446 2.27375691 1.19039448
C 2.12298532 2.83530971 4.76899778
O 2.12273051 2.46784344 5.86243929
