&CONTROL
calculation = 'relax'
prefix = 'scf'
pseudo_dir = '/vol0403/data/hp230205/u10028/POT_HYBRID_KKJUS_GBRV'
outdir = './data'
tprnfor = .true.
nstep = 50
disk_io = 'non'
/
&SYSTEM
ibrav = 0
ecutwfc = 50.0
ecutrho = 400
occupations = 'smearing'
smearing = 'mp'
degauss = 0.01
assume_isolated = 'esm'
esm_bc = 'bc1'
input_dft = 'BEEF-VDW'
nosym = .true.
nspin = 1
ntyp = 6
nat = 34
/
&ELECTRONS
electron_maxstep = 200
mixing_beta = 0.1
conv_thr = 1e-06
/
&IONS
ion_dynamics = 'bfgs'
upscale = 1.0
/
&CELL
/

K_POINTS {automatic}
7 6 2 0  0  0

ATOMIC_SPECIES
C 12.01 C.pbe-n-rrkjus_psl.1.0.0.UPF
Ge 72.64 Ge.pbe-dn-rrkjus_psl.1.0.0.UPF
Li 6.941 Li.pbe-sl-rrkjus_psl.1.0.0.UPF
O 15.99 O.pbe-n-rrkjus_psl.1.0.0.UPF
Pb 207.2 Pb.pbe-dn-rrkjus_psl.1.0.0.UPF
Y 88.90 Y.pbe-spn-rrkjus_psl.1.0.0.UPF


CELL_PARAMETERS {angstrom}
8.65500000 0.00000000 0.00000000
0.00000000 9.86128000 0.00000000
0.00000000 0.00000000 26.41550000

ATOMIC_POSITIONS {angstrom}
Li 8.64833565 2.36019876 1.44017306
Li 0.00000000 2.46532000 -3.2078983200000017 0 0 0
Li 8.65456725 7.28876789 1.45206004
Li 0.00000000 7.39596000 -3.2078983200000017 0 0 0
Li 4.32940410 2.35507089 1.43805982
Li 4.32750000 2.46532000 -3.2078983200000017 0 0 0
Li 4.33381815 7.28186499 1.47741892
Li 4.32750000 7.39596000 -3.2078983200000017 0 0 0
Y 2.16288450 9.83633096 1.01435520
Y 2.16375000 0.00000000 -3.2078983200000017 0 0 0
Y 2.16314415 4.91545363 1.01250612
Y 2.16375000 4.93064000 -3.2078983200000017 0 0 0
Y 6.49116345 9.84106438 1.01065703
Y 6.49125000 0.00000000 -3.2078983200000017 0 0 0
Y 6.48839385 4.90569096 1.00669470
Y 6.49125000 4.93064000 -3.2078983200000017 0 0 0
Ge 0.00051930 9.57273895 2.91362965
Ge 0.00000000 0.00000000 -1.0692994400000018 0 0 0
Ge 8.65430760 4.62750425 2.90940317
Ge 0.00000000 4.93064000 -1.0692994400000018 0 0 0
Ge 4.32421110 9.57431675 2.91310134
Ge 4.32750000 0.00000000 -1.0692994400000018 0 0 0
Ge 4.32204735 4.62119303 2.91178056
Ge 4.32750000 4.93064000 -1.0692994400000018 0 0 0
Pb 2.15795115 2.96272296 3.92058851
Pb 2.16375000 2.46532000 -1.0692994400000018 0 0 0
Pb 2.16141315 7.92511628 3.95123049
Pb 2.16375000 7.39596000 -1.0692994400000018 0 0 0
Pb 6.48744180 3.00295699 3.95492866
Pb 6.49125000 2.46532000 -1.0692994400000018 0 0 0
Pb 6.49142310 7.95124868 3.96523071
Pb 6.49125000 7.39596000 -1.0692994400000018 0 0 0
C 2.42331345 2.22243667 7.80815765
O 2.02925130 2.60968914 8.80164460
