&CONTROL
calculation = 'relax'
prefix = 'scf'
pseudo_dir = '/vol0004/mdt0/data/hp150275/u10028/POT_HYBRID_KKJUS_GBRV'
outdir = './data'
tprnfor = .true.
nstep = 50
disk_io = 'non'
/
&SYSTEM
ibrav = 0
ecutwfc = 50.0
ecutrho = 400
occupations = 'smearing'
smearing = 'mp'
degauss = 0.01
assume_isolated = 'esm'
esm_bc = 'bc1'
input_dft = 'BEEF-VDW'
nosym = .true.
nspin = 2
ntyp = 4
nat = 34
starting_magnetization(1) = 0.0
starting_magnetization(2) = 0.1
starting_magnetization(3) = 0.0
starting_magnetization(4) = 0.0
/
&ELECTRONS
electron_maxstep = 200
mixing_beta = 0.1
conv_thr = 1e-06
/
&IONS
ion_dynamics = 'bfgs'
upscale = 1.0
/
&CELL
/

K_POINTS {automatic}
7 7 2 0  0  0

ATOMIC_SPECIES
C 12.01 C.pbe-n-rrkjus_psl.1.0.0.UPF
Co 58.93 co_pbe_v1.2.uspp.F.UPF
O 15.99 O.pbe-n-rrkjus_psl.1.0.0.UPF
Pt 195.0 Pt.pbe-n-rrkjus_psl.1.0.0.UPF

CELL_PARAMETERS {angstrom}
7.70701000 0.00000000 0.00000000
-0.00000000 7.47602000 0.00000000
0.00000000 0.00000000 25.78030000

ATOMIC_POSITIONS {angstrom}
Co 0.00000000 0.00000000 -2.8902294300000015 0 0 0
Co 1.92675250 0.00000000 -0.9634098100000017 0 0 0
Co 0.00000000 0.00000000 0.96340981
Co 1.92675250 -0.00000000 2.89022943
Co 0.00000000 3.73801000 -2.8902294300000015 0 0 0
Co 1.92675250 3.73801000 -0.9634098100000017 0 0 0
Co 0.00000000 3.73801000 0.96340981
Co 1.92675250 3.73801000 2.89022943
Co 3.85350500 0.00000000 -2.8902294300000015 0 0 0
Co 5.78025750 0.00000000 -0.9634098100000017 0 0 0
Co 3.85350500 -0.00000000 0.96340981
Co 5.78025750 -0.00000000 2.89022943
Co 3.85350500 3.73801000 -2.8902294300000015 0 0 0
Co 5.78025750 3.73801000 -0.9634098100000017 0 0 0
Co 3.85350500 3.73801000 0.96340981
Co 5.78025750 3.73801000 2.89022943
Pt 1.92675250 1.86900500 -2.8902294300000015 0 0 0
Pt 3.85350500 1.86900500 -0.9634098100000017 0 0 0
Pt 1.92675250 1.86900500 0.96340981
Pt 3.85350500 1.86900500 2.89022943
Pt 1.92675250 5.60701500 -2.8902294300000015 0 0 0
Pt 3.85350500 5.60701500 -0.9634098100000017 0 0 0
Pt 1.92675250 5.60701500 0.96340981
Pt 3.85350500 5.60701500 2.89022943
Pt 5.78025750 1.86900500 -2.8902294300000015 0 0 0
Pt 0.00000000 1.86900500 -0.9634098100000017 0 0 0
Pt 5.78025750 1.86900500 0.96340981
Pt 0.00000000 1.86900500 2.89022943
Pt 5.78025750 5.60701500 -2.8902294300000015 0 0 0
Pt 0.00000000 5.60701500 -0.9634098100000017 0 0 0
Pt 5.78025750 5.60701500 0.96340981
Pt 0.00000000 5.60701500 2.89022943
C 1.92675250 -0.00000000 4.79023754
O 1.92675250 -0.00000000 5.94003892
