&CONTROL
calculation = 'relax'
prefix = 'scf'
pseudo_dir = '/vol0004/mdt0/data/hp150275/u10028/POT_KKJUS'
outdir = './data'
tprnfor = .true.
nstep = 50
disk_io = 'non'
/
&SYSTEM
ibrav = 0
ecutwfc = 50.0
ecutrho = 400
occupations = 'smearing'
smearing = 'mp'
degauss = 0.01
assume_isolated = 'esm'
esm_bc = 'bc1'
input_dft = 'BEEF-VDW'
nosym = .true.
nspin = 1
ntyp = 4
nat = 34
/
&ELECTRONS
electron_maxstep = 200
mixing_beta = 0.1
conv_thr = 1e-06
/
&IONS
ion_dynamics = 'bfgs'
upscale = 1.0
/
&CELL
/

K_POINTS {automatic}
8 6 2 0  0  0

ATOMIC_SPECIES
C 12.01 C.pbe-n-rrkjus_psl.1.0.0.UPF
In 114.8 In.pbe-dn-rrkjus_psl.1.0.0.UPF
O 15.99 O.pbe-n-rrkjus_psl.1.0.0.UPF
Y 88.90 Y.pbe-spn-rrkjus_psl.1.0.0.UPF

CELL_PARAMETERS {angstrom}
7.55034000 0.00000000 0.00000000
0.00000000 10.67780000 0.00000000
0.00000000 0.00000000 28.00830000

ATOMIC_POSITIONS {angstrom}
Y 1.88758500 2.66945000 -4.004066569999999 0 0 0
Y 1.88758500 0.00000000 -1.334595499999999 0 0 0
Y 1.88758500 2.67425501 1.32423242
Y 1.88879305 0.02818939 4.04439852
Y 1.88758500 8.00835000 -4.004066569999999 0 0 0
Y 1.88758500 5.33890000 -1.334595499999999 0 0 0
Y 1.88841554 8.01443635 1.32115151
Y 1.89045413 5.36740973 4.03515578
Y 5.66275500 2.66945000 -4.004066569999999 0 0 0
Y 5.66275500 0.00000000 -1.334595499999999 0 0 0
Y 5.66283050 2.67425501 1.32423242
Y 5.66192446 0.02797584 4.04439852
Y 5.66275500 8.00835000 -4.004066569999999 0 0 0
Y 5.66275500 5.33890000 -1.334595499999999 0 0 0
Y 5.66192446 8.01443635 1.32143159
Y 5.66011238 5.36751650 4.03543586
In 0.00000000 0.00000000 -4.004066569999999 0 0 0
In 0.00000000 2.66945000 -1.334595499999999 0 0 0
In 0.00007550 0.00437790 1.38977185
In 0.00000000 2.70692908 4.11918068
In 0.00000000 5.33890000 -4.004066569999999 0 0 0
In 0.00000000 8.00835000 -1.334595499999999 0 0 0
In 0.00000000 5.34466601 1.38529052
In 0.00015101 8.04380030 4.10685703
In 3.77517000 0.00000000 -4.004066569999999 0 0 0
In 3.77517000 2.66945000 -1.334595499999999 0 0 0
In 3.77517000 0.00683379 1.38781126
In 3.77547201 2.70062918 4.12394209
In 3.77517000 5.33890000 -4.004066569999999 0 0 0
In 3.77517000 8.00835000 -1.334595499999999 0 0 0
In 3.77532101 5.34285079 1.38220960
In 3.77517000 8.04230540 4.12338193
C 0.00000000 1.92349889 8.38820577
O 0.00007550 2.97312663 8.82037384
