&CONTROL
calculation = 'relax'
prefix = 'scf'
pseudo_dir = '/vol0403/data/hp230205/u10028/POT_HYBRID_KKJUS_GBRV'
outdir = './data'
tprnfor = .true.
nstep = 50
disk_io = 'non'
/
&SYSTEM
ibrav = 0
ecutwfc = 50.0
ecutrho = 400
occupations = 'smearing'
smearing = 'mp'
degauss = 0.01
assume_isolated = 'esm'
esm_bc = 'bc1'
input_dft = 'BEEF-VDW'
nosym = .true.
nspin = 1
ntyp = 5
nat = 17
/
&ELECTRONS
electron_maxstep = 200
mixing_beta = 0.1
conv_thr = 1e-06
/
&IONS
ion_dynamics = 'bfgs'
upscale = 1.0
/
&CELL
/

K_POINTS {automatic}
8 8 1 0 0 0

ATOMIC_SPECIES
C 12.01 C.pbe-n-rrkjus_psl.1.0.0.UPF
In 114.8 In.pbe-dn-rrkjus_psl.1.0.0.UPF
Li 6.941 Li.pbe-sl-rrkjus_psl.1.0.0.UPF
Pd 106.4 Pd.pbe-n-rrkjus_psl.1.0.0.UPF
Rh 102.9 Rh.pbe-spn-rrkjus_psl.1.0.0.UPF


CELL_PARAMETERS {angstrom}
6.29773000 0.00000000 0.00000000
0.00000000 6.29773000 0.00000000
0.00000000 0.00000000 24.72330000

ATOMIC_POSITIONS {angstrom}
Li 0.00000000 3.14886500 -2.3615696199999974 0 0 0
Li 0.00000000 0.00000000 0.69274687
Li 3.14886500 3.14886500 0.87916055
Li 3.14886500 0.00000000 -2.3615696199999974 0 0 0
In 0.00000000 0.00000000 -2.3615696199999974 0 0 0
In 0.00006298 3.14892798 0.89770302
In 3.14880202 6.29766702 0.89770302
In 3.14886500 3.14886500 -2.3615696199999974 0 0 0
Pd 4.72329750 1.57443250 -0.7871898699999988 0 0 0
Pd 4.71051311 4.71051311 2.48394995
Pd 1.58721689 1.58721689 2.48394995
Pd 1.57443250 4.72329750 -0.7871898699999988 0 0 0
Rh 1.57443250 1.57443250 -0.7871898699999988 0 0 0
Rh 1.28605944 5.01173353 2.52202383
Rh 5.01167056 1.28599647 2.52202383
Rh 4.72329750 4.72329750 -0.7871898699999988 0 0 0
C 0.00000000 0.00000000 2.85257435
