&CONTROL
calculation = 'relax'
prefix = 'scf'
pseudo_dir = '/vol0004/mdt0/data/hp150275/u10028/POT_KKJUS'
outdir = './data'
tprnfor = .true.
nstep = 50
disk_io = 'non'
/
&SYSTEM
ibrav = 0
ecutwfc = 50.0
ecutrho = 400
occupations = 'smearing'
smearing = 'mp'
degauss = 0.01
assume_isolated = 'esm'
esm_bc = 'bc1'
input_dft = 'BEEF-VDW'
nosym = .true.
nspin = 1
ntyp = 3
nat = 33
/
&ELECTRONS
electron_maxstep = 200
mixing_beta = 0.1
conv_thr = 1e-06
/
&IONS
ion_dynamics = 'bfgs'
upscale = 1.0
/
&CELL
/

K_POINTS {automatic}
8 6 1 0 0 0

ATOMIC_SPECIES
C 12.01 C.pbe-n-rrkjus_psl.1.0.0.UPF
Cu 63.54 Cu.pbe-dn-rrkjus_psl.1.0.0.UPF
Sb 121.7 Sb.pbe-n-rrkjus_psl.1.0.0.UPF

CELL_PARAMETERS {angstrom}
6.30953000 0.00000000 0.00000000
0.00000000 8.92302000 0.00000000
0.00000000 0.00000000 26.69230000

ATOMIC_POSITIONS {angstrom}
Cu 1.57738250 0.00000000 -1.1154712199999999 0 0 0
Cu 4.73214750 4.46151000 -1.1154712199999999 0 0 0
Cu 4.73214750 0.00000000 -1.1154712199999999 0 0 0
Cu 1.57738250 4.46151000 -1.1154712199999999 0 0 0
Cu 4.73214750 6.69226500 -3.346146730000001 0 0 0
Cu 1.57738250 2.23075500 -3.346146730000001 0 0 0
Cu 1.57738250 6.69226500 -3.346146730000001 0 0 0
Cu 4.73214750 2.23075500 -3.346146730000001 0 0 0
Cu 0.00000000 6.69226500 -1.1154712199999999 0 0 0
Cu 3.15476500 0.00000000 -3.346146730000001 0 0 0
Cu 0.00000000 2.23075500 -1.1154712199999999 0 0 0
Cu 3.15476500 4.46151000 -3.346146730000001 0 0 0
Cu 1.26562862 4.46151000 3.31091289
Cu 4.38562811 0.00000000 3.33733827
Cu 5.04390138 4.46151000 3.31091289
Cu 1.92390189 0.00000000 3.33733827
Cu 4.57352592 2.24672721 1.27562502
Cu 1.73600408 6.67629279 1.27562502
Cu 1.73600408 2.24672721 1.27562502
Cu 4.57352592 6.67629279 1.27562502
Cu 0.00000000 1.99741803 3.35175211
Cu 3.15476500 4.46151000 1.40534960
Cu 0.00000000 6.92569120 3.35175211
Cu 3.15476500 0.00000000 0.99135202
Sb 0.00000000 0.00000000 -3.346146730000001 0 0 0
Sb 3.15476500 2.23075500 -1.1154712199999999 0 0 0
Sb 3.15476500 6.69226500 -1.1154712199999999 0 0 0
Sb 0.00000000 4.46151000 -3.346146730000001 0 0 0
Sb 0.00000000 4.46151000 1.00549894
Sb 3.15476500 6.42680516 3.65684510
Sb 3.15482810 2.49621485 3.65684510
Sb 0.00000000 0.00000000 1.09064738
C 0.00000000 0.00000000 3.51804514
