&CONTROL
calculation = 'relax'
prefix = 'scf'
pseudo_dir = '/vol0004/mdt0/data/hp150275/u10028/POT_HYBRID_KKJUS_GBRV'
outdir = './data'
tprnfor = .true.
nstep = 50
disk_io = 'non'
/
&SYSTEM
ibrav = 0
ecutwfc = 50.0
ecutrho = 400
occupations = 'smearing'
smearing = 'mp'
degauss = 0.01
assume_isolated = 'esm'
esm_bc = 'bc1'
input_dft = 'BEEF-VDW'
nosym = .true.
nspin = 2
ntyp = 5
nat = 34
starting_magnetization(1) = 0.0
starting_magnetization(2) = 0.1
starting_magnetization(3) = 0.1
starting_magnetization(4) = 0.0
starting_magnetization(5) = 0.0
/
&ELECTRONS
electron_maxstep = 300
mixing_beta = 0.1
conv_thr = 1e-06
/
&IONS
ion_dynamics = 'bfgs'
upscale = 1.0
/
&CELL
/

K_POINTS {automatic}
8 6 1 0 0 0

ATOMIC_SPECIES
C 12.01 C.pbe-n-rrkjus_psl.1.0.0.UPF
Co 58.93 co_pbe_v1.2.uspp.F.UPF
Fe 55.84 fe_pbe_v1.5.uspp.F.UPF
Ge 72.64 Ge.pbe-dn-rrkjus_psl.1.0.0.UPF
O 15.99 O.pbe-n-rrkjus_psl.1.0.0.UPF

CELL_PARAMETERS {angstrom}
5.77744000 0.00000000 0.00000000
0.00000000 8.17053000 0.00000000
0.00000000 0.00000000 26.12790000

ATOMIC_POSITIONS {angstrom}
Fe 1.44436000 0.00000000 -1.0213396100000018 0 0 0
Fe 4.33308000 4.08526500 -1.0213396100000018 0 0 0
Fe 4.33308000 0.00000000 -1.0213396100000018 0 0 0
Fe 1.44436000 4.08526500 -1.0213396100000018 0 0 0
Fe 4.33308000 6.12789750 -3.064018830000002 0 0 0
Fe 1.44436000 2.04263250 -3.064018830000002 0 0 0
Fe 1.44436000 6.12789750 -3.064018830000002 0 0 0
Fe 4.33308000 2.04263250 -3.064018830000002 0 0 0
Fe 1.37503072 4.08542841 2.95245270
Fe 4.32585820 0.00016341 3.01724989
Fe 4.47688048 4.08518329 3.06663162
Fe 1.55424691 0.00008171 3.18159438
Fe 4.38773458 1.96566611 1.07803715
Fe 1.41772600 6.04807142 1.07176646
Fe 1.41847707 2.12294881 1.07202774
Fe 4.38790791 6.20494560 1.07908227
Co 0.00000000 0.00000000 -3.064018830000002 0 0 0
Co 2.88872000 2.04263250 -1.0213396100000018 0 0 0
Co 2.88872000 6.12789750 -1.0213396100000018 0 0 0
Co 0.00000000 4.08526500 -3.064018830000002 0 0 0
Co 5.63473723 4.08600035 0.91708929
Co 2.97439944 6.03025967 2.94069514
Co 2.97526605 2.13978010 2.94017259
Co 0.10295398 0.00261457 1.14570842
Ge 0.00000000 6.12789750 -1.0213396100000018 0 0 0
Ge 2.88872000 0.00000000 -3.064018830000002 0 0 0
Ge 0.00000000 2.04263250 -1.0213396100000018 0 0 0
Ge 2.88872000 4.08526500 -3.064018830000002 0 0 0
Ge 0.10185627 1.93943871 3.31249516
Ge 2.95481391 4.08526500 1.01977194
Ge 0.10150962 6.23199005 3.31249516
Ge 2.79535657 8.17044829 1.04328705
C 2.28705740 0.00049023 4.78166698
O 2.69061158 0.00098046 5.87851622
