&CONTROL
calculation = 'relax'
prefix = 'scf'
pseudo_dir = '/vol0004/mdt0/data/hp150275/u10028/POT_HYBRID_KKJUS_GBRV'
outdir = './data'
tprnfor = .true.
nstep = 50
disk_io = 'non'
/
&SYSTEM
ibrav = 0
ecutwfc = 50.0
ecutrho = 400
occupations = 'smearing'
smearing = 'mp'
degauss = 0.01
assume_isolated = 'esm'
esm_bc = 'bc1'
input_dft = 'BEEF-VDW'
nosym = .true.
nspin = 2
ntyp = 2
nat = 16
starting_magnetization(1) = 0.1
starting_magnetization(2) = 0.0
/
&ELECTRONS
electron_maxstep = 200
mixing_beta = 0.1
conv_thr = 1e-06
/
&IONS
ion_dynamics = 'bfgs'
upscale = 1.0
/
&CELL
/

K_POINTS {automatic}
8 12 2 0  0  0

ATOMIC_SPECIES
Fe 55.84 fe_pbe_v1.5.uspp.F.UPF
Pt 195.0 Pt.pbe-n-rrkjus_psl.1.0.0.UPF

CELL_PARAMETERS {angstrom}
7.52786000 0.00000000 0.00000000
-0.00000000 5.32300000 0.00000000
0.00000000 0.00000000 23.99230000

ATOMIC_POSITIONS {angstrom}
Fe 0.00000000 2.66150000 -1.99615936 0 0 0
Fe 1.88196500 3.99225000 -0.6653064800000017 0 0 0
Fe 1.88196500 1.33075000 -0.6653064800000017 0 0 0
Fe 0.00000000 0.00000000 0.66530648
Fe 1.88196500 1.33075000 1.99615936
Fe 1.88196500 3.99225000 1.99615936
Fe 3.76393000 2.66150000 -1.99615936 0 0 0
Fe 5.64589500 3.99225000 -0.6653064800000017 0 0 0
Fe 5.64589500 1.33075000 -0.6653064800000017 0 0 0
Fe 3.76393000 -0.00000000 0.66530648
Fe 5.64589500 1.33075000 1.99615936
Fe 5.64589500 3.99225000 1.99615936
Pt 0.00000000 0.00000000 -1.99615936 0 0 0
Pt 0.00000000 2.66150000 0.66530648
Pt 3.76393000 0.00000000 -1.99615936 0 0 0
Pt 3.76393000 2.66150000 0.66530648
