&CONTROL
calculation = 'relax'
prefix = 'scf'
pseudo_dir = '/vol0004/mdt0/data/hp150275/u10028/POT_KKJUS'
outdir = './data'
tprnfor = .true.
nstep = 50
disk_io = 'non'
/
&SYSTEM
ibrav = 0
ecutwfc = 50.0
ecutrho = 400
occupations = 'smearing'
smearing = 'mp'
degauss = 0.01
assume_isolated = 'esm'
esm_bc = 'bc1'
input_dft = 'BEEF-VDW'
nosym = .true.
nspin = 1
ntyp = 4
nat = 34
/
&ELECTRONS
electron_maxstep = 200
mixing_beta = 0.1
conv_thr = 1e-06
/
&IONS
ion_dynamics = 'bfgs'
upscale = 1.0
/
&CELL
/

K_POINTS {automatic}
9 6 2 0  0  0

ATOMIC_SPECIES
Ag 107.8 Ag.pbe-n-rrkjus_psl.1.0.0.UPF
C 12.01 C.pbe-n-rrkjus_psl.1.0.0.UPF
Li 6.941 Li.pbe-sl-rrkjus_psl.1.0.0.UPF
O 15.99 O.pbe-n-rrkjus_psl.1.0.0.UPF

CELL_PARAMETERS {angstrom}
6.44966000 0.00000000 0.00000000
0.00000000 9.12120000 0.00000000
0.00000000 0.00000000 26.84090000

ATOMIC_POSITIONS {angstrom}
Li 1.61241500 2.28030000 -3.4203358900000005 0 0 0
Li 1.61241500 0.00000000 -1.1402014300000012 0 0 0
Li 1.57242711 2.28030000 1.10155054
Li 1.64143847 9.11317334 3.47589655
Li 1.61241500 6.84090000 -3.4203358900000005 0 0 0
Li 1.61241500 4.56060000 -1.1402014300000012 0 0 0
Li 1.60196655 6.84090000 1.10772394
Li 1.64143847 4.56853544 3.47562814
Li 4.83724500 2.28030000 -3.4203358900000005 0 0 0
Li 4.83724500 0.00000000 -1.1402014300000012 0 0 0
Li 4.87723289 2.28030000 1.10155054
Li 4.80822153 9.11317334 3.47589655
Li 4.83724500 6.84090000 -3.4203358900000005 0 0 0
Li 4.83724500 4.56060000 -1.1402014300000012 0 0 0
Li 4.84769345 6.84090000 1.10772394
Li 4.80822153 4.56853544 3.47562814
Ag 0.00000000 0.00000000 -3.4203358900000005 0 0 0
Ag 0.00000000 2.28030000 -1.1402014300000012 0 0 0
Ag 0.00000000 0.02718118 1.20005664
Ag 0.00000000 2.28030000 3.32344024
Ag 0.00000000 4.56060000 -3.4203358900000005 0 0 0
Ag 0.00000000 6.84090000 -1.1402014300000012 0 0 0
Ag 0.00000000 4.53341882 1.20005664
Ag 0.00000000 6.84090000 3.29552570
Ag 3.22483000 0.00000000 -3.4203358900000005 0 0 0
Ag 3.22483000 2.28030000 -1.1402014300000012 0 0 0
Ag 3.22483000 0.00811787 1.13134394
Ag 3.22483000 2.28030000 3.22251845
Ag 3.22483000 4.56060000 -3.4203358900000005 0 0 0
Ag 3.22483000 6.84090000 -1.1402014300000012 0 0 0
Ag 3.22483000 4.55248213 1.13134394
Ag 3.22483000 6.84090000 3.28103162
C 0.00000000 2.28030000 5.58210197
O 0.00000000 2.28030000 6.73089249
