&CONTROL
calculation = 'relax'
prefix = 'scf'
pseudo_dir = '/vol0004/mdt0/data/hp150275/u10028/POT_KKJUS'
outdir = './data'
tprnfor = .true.
nstep = 50
disk_io = 'non'
/
&SYSTEM
ibrav = 0
ecutwfc = 50.0
ecutrho = 400
occupations = 'smearing'
smearing = 'mp'
degauss = 0.01
assume_isolated = 'esm'
esm_bc = 'bc1'
input_dft = 'BEEF-VDW'
nosym = .true.
nspin = 1
ntyp = 4
nat = 33
/
&ELECTRONS
electron_maxstep = 200
mixing_beta = 0.1
conv_thr = 1e-06
/
&IONS
ion_dynamics = 'bfgs'
upscale = 1.0
/
&CELL
/

K_POINTS {automatic}
8 6 1 0 0 0

ATOMIC_SPECIES
C 12.01 C.pbe-n-rrkjus_psl.1.0.0.UPF
Cu 63.54 Cu.pbe-dn-rrkjus_psl.1.0.0.UPF
In 114.8 In.pbe-dn-rrkjus_psl.1.0.0.UPF
Y 88.90 Y.pbe-spn-rrkjus_psl.1.0.0.UPF

CELL_PARAMETERS {angstrom}
6.69979000 0.00000000 0.00000000
0.00000000 9.47494000 0.00000000
0.00000000 0.00000000 27.10620000

ATOMIC_POSITIONS {angstrom}
Y 0.00000000 0.00000000 -3.5530807000000024 0 0 0
Y 3.34989500 2.36873500 -1.1842698800000022 0 0 0
Y 3.34989500 7.10620500 -1.1842698800000022 0 0 0
Y 0.00000000 4.73747000 -3.5530807000000024 0 0 0
Y 0.00000000 4.73794375 1.21815263
Y 3.34989500 6.92333866 3.59021619
Y 3.34989500 2.55131709 3.58994513
Y 0.00000000 9.47475050 1.20459953
In 0.00000000 7.10620500 -1.1842698800000022 0 0 0
In 3.34989500 0.00000000 -3.5530807000000024 0 0 0
In 0.00000000 2.36873500 -1.1842698800000022 0 0 0
In 3.34989500 4.73747000 -3.5530807000000024 0 0 0
In 0.00000000 2.34248942 3.58587920
In 3.34989500 4.73747000 1.16258492
In 0.00000000 7.13235583 3.58615026
In 3.34989500 0.00037900 1.18101713
Cu 1.67494750 0.00000000 -1.1842698800000022 0 0 0
Cu 5.02484250 4.73747000 -1.1842698800000022 0 0 0
Cu 5.02484250 0.00000000 -1.1842698800000022 0 0 0
Cu 1.67494750 4.73747000 -1.1842698800000022 0 0 0
Cu 5.02484250 7.10620500 -3.5530807000000024 0 0 0
Cu 1.67494750 2.36873500 -3.5530807000000024 0 0 0
Cu 1.67494750 7.10620500 -3.5530807000000024 0 0 0
Cu 5.02484250 2.36873500 -3.5530807000000024 0 0 0
Cu 1.45164350 4.73737525 3.72683144
Cu 4.76830754 9.47484525 3.64876558
Cu 5.24814650 4.73737525 3.72683144
Cu 1.93154946 9.47475050 3.64876558
Cu 4.97117718 2.37877844 1.20378634
Cu 1.72955079 7.09663531 1.20378634
Cu 1.72861282 2.37877844 1.20378634
Cu 4.97023921 7.09663531 1.20378634
C 0.00000000 9.47484525 3.66530036
