&CONTROL
calculation = 'relax'
prefix = 'scf'
pseudo_dir = '/vol0403/data/hp230205/u10028/POT_HYBRID_KKJUS_GBRV'
outdir = './data'
tprnfor = .true.
nstep = 50
disk_io = 'non'
/
&SYSTEM
ibrav = 0
ecutwfc = 50.0
ecutrho = 400
occupations = 'smearing'
smearing = 'mp'
degauss = 0.01
assume_isolated = 'esm'
esm_bc = 'bc1'
input_dft = 'BEEF-VDW'
nosym = .true.
nspin = 1
ntyp = 6
nat = 34
/
&ELECTRONS
electron_maxstep = 200
mixing_beta = 0.1
conv_thr = 1e-06
/
&IONS
ion_dynamics = 'bfgs'
upscale = 1.0
/
&CELL
/

K_POINTS {automatic}
6 6 1 0 0 0

ATOMIC_SPECIES
C 12.01 C.pbe-n-rrkjus_psl.1.0.0.UPF
Ge 72.64 Ge.pbe-dn-rrkjus_psl.1.0.0.UPF
Li 6.941 Li.pbe-sl-rrkjus_psl.1.0.0.UPF
O 15.99 O.pbe-n-rrkjus_psl.1.0.0.UPF
Pd 106.4 Pd.pbe-n-rrkjus_psl.1.0.0.UPF
Sc 44.95 Sc.pbe-spn-rrkjus_psl.1.0.0.UPF


CELL_PARAMETERS {angstrom}
6.30999000 0.00000000 0.00000000
0.00000000 8.92368000 0.00000000
0.00000000 0.00000000 26.69280000

ATOMIC_POSITIONS {angstrom}
Li 4.73249250 0.00000000 -1.1154921099999981 0 0 0
Li 4.73249250 4.46184000 -1.1154921099999981 0 0 0
Li 1.57749750 2.23092000 -3.346476339999999 0 0 0
Li 1.57749750 6.69276000 -3.346476339999999 0 0 0
Li 3.73885837 4.45380869 4.61758747
Li 3.73847978 0.00740665 4.61785440
Li 1.52499838 6.69249229 1.19690515
Li 1.54859775 2.23065229 1.16380608
Sc 0.00000000 2.23092000 -1.1154921099999981 0 0 0
Sc 0.00000000 6.69276000 -1.1154921099999981 0 0 0
Sc 3.15499500 4.46184000 -3.346476339999999 0 0 0
Sc 3.15499500 0.00000000 -3.346476339999999 0 0 0
Sc 6.06087159 6.69258153 3.34887869
Sc 6.06655059 2.23047382 3.33286301
Sc 3.20326642 8.90895593 1.28045362
Sc 3.20314022 4.47611789 1.28045362
Ge 0.00000000 0.00000000 -3.346476339999999 0 0 0
Ge 0.00000000 4.46184000 -3.346476339999999 0 0 0
Ge 3.15499500 6.69276000 -1.1154921099999981 0 0 0
Ge 3.15499500 2.23092000 -1.1154921099999981 0 0 0
Ge 6.24872000 4.45550419 1.11682675
Ge 6.24865690 0.00580039 1.11682675
Ge 3.12925024 2.23056305 3.34113778
Ge 3.11650406 6.69249229 3.37130064
Pd 1.57749750 0.00000000 -1.1154921099999981 0 0 0
Pd 1.57749750 4.46184000 -1.1154921099999981 0 0 0
Pd 4.73249250 2.23092000 -3.346476339999999 0 0 0
Pd 4.73249250 6.69276000 -3.346476339999999 0 0 0
Pd 1.42479574 4.48861104 3.24878069
Pd 1.42485884 8.89637354 3.24824683
Pd 4.73924419 6.69240305 1.05196325
Pd 4.69709346 2.23065229 1.01619490
C 0.58367408 2.23573879 5.47442635
O 1.00921980 2.23645268 6.55121390
