&CONTROL
calculation = 'relax'
prefix = 'scf'
pseudo_dir = '/vol0004/mdt0/data/hp150275/u10028/POT_KKJUS'
outdir = './data'
tprnfor = .true.
nstep = 50
disk_io = 'non'
/
&SYSTEM
ibrav = 0
ecutwfc = 50.0
ecutrho = 400
occupations = 'smearing'
smearing = 'mp'
degauss = 0.01
assume_isolated = 'esm'
esm_bc = 'bc1'
input_dft = 'BEEF-VDW'
nosym = .true.
nspin = 1
ntyp = 5
nat = 34
/
&ELECTRONS
electron_maxstep = 200
mixing_beta = 0.1
conv_thr = 1e-06
/
&IONS
ion_dynamics = 'bfgs'
upscale = 1.0
/
&CELL
/

K_POINTS {automatic}
8 6 1 0 0 0

ATOMIC_SPECIES
C 12.01 C.pbe-n-rrkjus_psl.1.0.0.UPF
Cu 63.54 Cu.pbe-dn-rrkjus_psl.1.0.0.UPF
Ni 58.69 Ni.pbe-spn-rrkjus_psl.1.0.0.UPF
O 15.99 O.pbe-n-rrkjus_psl.1.0.0.UPF
Sb 121.7 Sb.pbe-n-rrkjus_psl.1.0.0.UPF

CELL_PARAMETERS {angstrom}
6.01864000 0.00000000 0.00000000
0.00000000 8.51164000 0.00000000
0.00000000 0.00000000 26.38370000

ATOMIC_POSITIONS {angstrom}
Cu 0.00000000 0.00000000 -3.1919000299999993 0 0 0
Cu 3.00932000 2.12791000 -1.0640546200000003 0 0 0
Cu 3.00932000 6.38373000 -1.0640546200000003 0 0 0
Cu 0.00000000 4.25582000 -3.1919000299999993 0 0 0
Cu 6.01857981 4.19794085 0.92474868
Cu 3.00962093 6.38449605 3.16446098
Cu 3.00950056 2.12722907 3.36260257
Cu 0.00018056 0.05736845 0.92448485
Ni 1.50466000 0.00000000 -1.0640546200000003 0 0 0
Ni 4.51398000 4.25582000 -1.0640546200000003 0 0 0
Ni 4.51398000 0.00000000 -1.0640546200000003 0 0 0
Ni 1.50466000 4.25582000 -1.0640546200000003 0 0 0
Ni 4.51398000 6.38373000 -3.1919000299999993 0 0 0
Ni 1.50466000 2.12791000 -3.1919000299999993 0 0 0
Ni 1.50466000 6.38373000 -3.1919000299999993 0 0 0
Ni 4.51398000 2.12791000 -3.1919000299999993 0 0 0
Ni 1.36334233 4.30740054 2.96368102
Ni 4.65565879 8.45920830 2.96447253
Ni 4.65469580 4.30816659 2.96447253
Ni 1.36249972 8.45801667 2.96473637
Ni 4.49297495 2.12705884 1.24399145
Ni 1.35684220 6.38594303 1.20072219
Ni 1.52590580 2.12671837 1.24425529
Ni 4.66113575 6.38279372 1.20441591
Sb 0.00000000 6.38373000 -1.0640546200000003 0 0 0
Sb 3.00932000 0.00000000 -3.1919000299999993 0 0 0
Sb 0.00000000 2.12791000 -1.0640546200000003 0 0 0
Sb 3.00932000 4.25582000 -3.1919000299999993 0 0 0
Sb 0.00024075 2.12782488 3.43726844
Sb 3.00932000 4.29378191 1.05086277
Sb 0.00006019 6.38287884 3.65335094
Sb 3.00968112 8.47333762 1.05112661
C 3.00938019 2.12773977 5.24296886
O 3.00944037 2.12816535 6.38854912
