&CONTROL
calculation = 'relax'
prefix = 'scf'
pseudo_dir = '/vol0403/data/hp230205/u10028/POT_HYBRID_KKJUS_GBRV'
outdir = './data'
tprnfor = .true.
nstep = 50
disk_io = 'non'
/
&SYSTEM
ibrav = 0
ecutwfc = 50.0
ecutrho = 400
occupations = 'smearing'
smearing = 'mp'
degauss = 0.01
assume_isolated = 'esm'
esm_bc = 'bc1'
input_dft = 'BEEF-VDW'
nosym = .true.
nspin = 1
ntyp = 5
nat = 17
/
&ELECTRONS
electron_maxstep = 200
mixing_beta = 0.1
conv_thr = 1e-06
/
&IONS
ion_dynamics = 'bfgs'
upscale = 1.0
/
&CELL
/

K_POINTS {automatic}
11 8 2 0  0  0

ATOMIC_SPECIES
Al 26.98 Al.pbe-nl-rrkjus_psl.1.0.0.UPF
C 12.01 C.pbe-n-rrkjus_psl.1.0.0.UPF
In 114.8 In.pbe-dn-rrkjus_psl.1.0.0.UPF
Li 6.941 Li.pbe-sl-rrkjus_psl.1.0.0.UPF
Sc 44.95 Sc.pbe-spn-rrkjus_psl.1.0.0.UPF


CELL_PARAMETERS {angstrom}
6.04255000 0.00000000 0.00000000
0.00000000 8.49254000 0.00000000
0.00000000 0.00000000 24.52830000

ATOMIC_POSITIONS {angstrom}
Li 4.47184955 2.12313500 -0.7547357900000016 0 0 0
Li 1.15672535 1.39243686 2.47196207
Li 4.47184955 6.36940500 -0.7547357900000016 0 0 0
Li 1.15666492 7.10010314 2.47196207
Sc 1.45057455 2.12313500 -0.7547357900000016 0 0 0
Sc 4.34447260 1.71336995 2.31056586
Sc 1.45057455 6.36940500 -0.7547357900000016 0 0 0
Sc 4.34441217 6.77908513 2.31032058
Al 0.00000000 0.00000000 -2.264207370000001 0 0 0
Al 2.83486233 0.00000000 0.63209429
Al 0.00000000 4.24627000 -2.264207370000001 0 0 0
Al 2.91734314 4.24627000 0.89528295
In 3.02127500 0.00000000 -2.264207370000001 0 0 0
In 5.80042502 0.00000000 0.44616978
In 3.02127500 4.24627000 -2.264207370000001 0 0 0
In 5.90562582 4.24627000 0.99511313
C 5.49751199 8.49245507 2.74152809
