&CONTROL
calculation = 'relax'
prefix = 'scf'
pseudo_dir = '/vol0403/data/hp230205/u10028/POT_HYBRID_KKJUS_GBRV'
outdir = './data'
tprnfor = .true.
nstep = 50
disk_io = 'non'
/
&SYSTEM
ibrav = 0
ecutwfc = 50.0
ecutrho = 400
occupations = 'smearing'
smearing = 'mp'
degauss = 0.01
assume_isolated = 'esm'
esm_bc = 'bc1'
input_dft = 'BEEF-VDW'
nosym = .true.
nspin = 1
ntyp = 4
nat = 16
/
&ELECTRONS
electron_maxstep = 200
mixing_beta = 0.1
conv_thr = 1e-06
/
&IONS
ion_dynamics = 'bfgs'
upscale = 1.0
/
&CELL
/

K_POINTS {automatic}
6 6 1 0 0 0

ATOMIC_SPECIES
Li 6.941 Li.pbe-sl-rrkjus_psl.1.0.0.UPF
Pb 207.2 Pb.pbe-dn-rrkjus_psl.1.0.0.UPF
Sn 118.7 Sn.pbe-dn-rrkjus_psl.1.0.0.UPF
Y 88.90 Y.pbe-spn-rrkjus_psl.1.0.0.UPF


CELL_PARAMETERS {angstrom}
6.55220000 0.00000000 0.00000000
0.00000000 9.36828000 0.00000000
0.00000000 0.00000000 24.89710000

ATOMIC_POSITIONS {angstrom}
Li 0.15476296 0.00000000 2.54174494
Li 3.00306983 0.00000000 -0.8161269399999966 0 0 0
Li 0.15476296 4.68414000 2.54174494
Li 3.00306983 4.68414000 -0.8161269399999966 0 0 0
Y 4.88210974 2.34207000 0.81488208
Y 1.22847198 2.34207000 -2.4486297899999983 0 0 0
Y 4.88204422 7.02621000 0.81488208
Y 1.22847198 7.02621000 -2.4486297899999983 0 0 0
Sn 3.32465180 0.00000000 2.36273479
Sn 6.27916983 0.00000000 -0.8161269399999966 0 0 0
Sn 3.32465180 4.68414000 2.36298376
Sn 6.27916983 4.68414000 -0.8161269399999966 0 0 0
Pb 1.57272457 2.34207000 1.25431590
Pb 4.50457198 2.34207000 -2.4486297899999983 0 0 0
Pb 1.57279009 7.02621000 1.25431590
Pb 4.50457198 7.02621000 -2.4486297899999983 0 0 0
