&CONTROL
calculation = 'relax'
prefix = 'scf'
pseudo_dir = '/vol0403/data/hp230205/u10028/POT_HYBRID_KKJUS_GBRV'
outdir = './data'
tprnfor = .true.
nstep = 50
disk_io = 'non'
/
&SYSTEM
ibrav = 0
ecutwfc = 50.0
ecutrho = 400
occupations = 'smearing'
smearing = 'mp'
degauss = 0.01
assume_isolated = 'esm'
esm_bc = 'bc1'
input_dft = 'BEEF-VDW'
nosym = .true.
nspin = 1
ntyp = 6
nat = 18
/
&ELECTRONS
electron_maxstep = 200
mixing_beta = 0.1
conv_thr = 1e-06
/
&IONS
ion_dynamics = 'bfgs'
upscale = 1.0
/
&CELL
/

K_POINTS {automatic}
8 8 1 0 0 0

ATOMIC_SPECIES
C 12.01 C.pbe-n-rrkjus_psl.1.0.0.UPF
Ge 72.64 Ge.pbe-dn-rrkjus_psl.1.0.0.UPF
In 114.8 In.pbe-dn-rrkjus_psl.1.0.0.UPF
Li 6.941 Li.pbe-sl-rrkjus_psl.1.0.0.UPF
O 15.99 O.pbe-n-rrkjus_psl.1.0.0.UPF
Pd 106.4 Pd.pbe-n-rrkjus_psl.1.0.0.UPF


CELL_PARAMETERS {angstrom}
6.51863000 0.00000000 0.00000000
0.00000000 6.51863000 0.00000000
0.00000000 0.00000000 24.88900000

ATOMIC_POSITIONS {angstrom}
Li 4.57718643 1.31800180 1.03090238
Li 4.88897250 4.88897250 -2.44459758 0 0 0
Li 1.62965750 1.62965750 -2.44459758 0 0 0
Li 1.94137839 5.20101932 1.03090238
In 0.00000000 3.25931500 2.24747670
In 0.00000000 0.00000000 -0.8148658599999976 0 0 0
In 3.25931500 3.25931500 -0.8148658599999976 0 0 0
In 3.25924981 0.00032593 3.49441560
Ge 6.51856481 0.00019556 2.25096116
Ge 0.00000000 3.25931500 -0.8148658599999976 0 0 0
Ge 3.25931500 0.00000000 -0.8148658599999976 0 0 0
Ge 3.25931500 3.25957575 2.25021449
Pd 1.80155377 1.45782641 0.80764805
Pd 1.62965750 4.88897250 -2.44459758 0 0 0
Pd 4.88897250 1.62965750 -2.44459758 0 0 0
Pd 4.71694585 5.06112952 0.80764805
C 0.00117335 3.25403491 5.76777686
O 6.51830407 3.26016242 6.90321304
