&CONTROL
calculation = 'relax'
prefix = 'scf'
pseudo_dir = '/vol0403/data/hp230205/u10028/POT_HYBRID_KKJUS_GBRV'
outdir = './data'
tprnfor = .true.
nstep = 50
disk_io = 'non'
/
&SYSTEM
ibrav = 0
ecutwfc = 50.0
ecutrho = 400
occupations = 'smearing'
smearing = 'mp'
degauss = 0.01
assume_isolated = 'esm'
esm_bc = 'bc1'
input_dft = 'BEEF-VDW'
nosym = .true.
nspin = 1
ntyp = 6
nat = 18
/
&ELECTRONS
electron_maxstep = 200
mixing_beta = 0.1
conv_thr = 1e-06
/
&IONS
ion_dynamics = 'bfgs'
upscale = 1.0
/
&CELL
/

K_POINTS {automatic}
11 7 2 0  0  0

ATOMIC_SPECIES
C 12.01 C.pbe-n-rrkjus_psl.1.0.0.UPF
Cu 63.54 Cu.pbe-dn-rrkjus_psl.1.0.0.UPF
In 114.8 In.pbe-dn-rrkjus_psl.1.0.0.UPF
O 15.99 O.pbe-n-rrkjus_psl.1.0.0.UPF
Sn 118.7 Sn.pbe-dn-rrkjus_psl.1.0.0.UPF
Y 88.90 Y.pbe-spn-rrkjus_psl.1.0.0.UPF


CELL_PARAMETERS {angstrom}
6.35598000 0.00000000 0.00000000
0.00000000 8.84740000 0.00000000
0.00000000 0.00000000 24.76400000

ATOMIC_POSITIONS {angstrom}
Y 3.29627479 8.84713458 2.40186036
Y 6.24373339 0.00000000 -0.7939338400000011 0 0 0
Y 3.28712218 4.42414237 2.14134308
Y 6.24373339 4.42370000 -0.7939338400000011 0 0 0
In 1.84196300 2.15965034 0.61068024
In 4.59855153 2.21185000 -2.382049160000001 0 0 0
In 1.84374268 6.68828050 0.60968968
In 4.59855153 6.63555000 -2.382049160000001 0 0 0
Cu 0.09673802 8.84695763 2.08166184
Cu 3.06574339 0.00000000 -0.7939338400000011 0 0 0
Cu 0.22481101 4.42325763 1.91178080
Cu 3.06574339 4.42370000 -0.7939338400000011 0 0 0
Sn 5.05332190 2.18619254 1.15350712
Sn 1.42056153 2.21185000 -2.382049160000001 0 0 0
Sn 5.05516513 6.66085356 1.15425004
Sn 1.42056153 6.63555000 -2.382049160000001 0 0 0
C 0.99318543 0.00053084 3.67225356
O 1.95281130 0.00088474 4.41517356
