&CONTROL
calculation = 'relax'
prefix = 'scf'
pseudo_dir = '/vol0004/mdt0/data/hp150275/u10028/POT_KKJUS'
outdir = './data'
tprnfor = .true.
nstep = 50
disk_io = 'non'
/
&SYSTEM
ibrav = 0
ecutwfc = 50.0
ecutrho = 400
occupations = 'smearing'
smearing = 'mp'
degauss = 0.01
assume_isolated = 'esm'
esm_bc = 'bc1'
input_dft = 'BEEF-VDW'
nosym = .true.
nspin = 1
ntyp = 3
nat = 17
/
&ELECTRONS
electron_maxstep = 200
mixing_beta = 0.1
conv_thr = 1e-06
/
&IONS
ion_dynamics = 'bfgs'
upscale = 1.0
/
&CELL
/

K_POINTS {automatic}
8 11 2 0  0  0

ATOMIC_SPECIES
C 12.01 C.pbe-n-rrkjus_psl.1.0.0.UPF
Ge 72.64 Ge.pbe-dn-rrkjus_psl.1.0.0.UPF
Nb 92.90 Nb.pbe-spn-rrkjus_psl.1.0.0.UPF

CELL_PARAMETERS {angstrom}
8.21286000 0.00000000 0.00000000
0.00000000 5.80737000 0.00000000
0.00000000 0.00000000 24.35550000

ATOMIC_POSITIONS {angstrom}
Nb 0.05617596 2.68643129 2.21756828
Nb 2.05321500 4.24222571 0.77401779
Nb 2.05321500 1.27227862 0.78838754
Nb 0.00000000 0.00000000 -0.7260374600000006 0 0 0
Nb 2.05321500 1.45184250 -2.1778688099999997 0 0 0
Nb 2.05321500 4.35552750 -2.1778688099999997 0 0 0
Nb 4.05025404 2.68637321 2.21756828
Nb 6.15964500 4.23514072 0.72384546
Nb 6.15964500 1.29742453 0.72725523
Nb 4.10643000 0.00000000 -0.7260374600000006 0 0 0
Nb 6.15964500 1.45184250 -2.1778688099999997 0 0 0
Nb 6.15964500 4.35552750 -2.1778688099999997 0 0 0
Ge 8.11750870 5.62629620 2.12477382
Ge 0.00000000 2.90368500 -0.7260374600000006 0 0 0
Ge 4.20178130 5.62629620 2.12477382
Ge 4.10643000 2.90368500 -0.7260374600000006 0 0 0
C 2.05321500 2.76709566 2.42678202
