&CONTROL
calculation = 'relax'
prefix = 'scf'
pseudo_dir = '/vol0004/mdt0/data/hp150275/u10028/POT_KKJUS'
outdir = './data'
tprnfor = .true.
nstep = 50
disk_io = 'non'
/
&SYSTEM
ibrav = 0
ecutwfc = 50.0
ecutrho = 400
occupations = 'smearing'
smearing = 'mp'
degauss = 0.01
assume_isolated = 'esm'
esm_bc = 'bc1'
input_dft = 'BEEF-VDW'
nosym = .true.
nspin = 1
ntyp = 3
nat = 17
/
&ELECTRONS
electron_maxstep = 200
mixing_beta = 0.1
conv_thr = 1e-06
/
&IONS
ion_dynamics = 'bfgs'
upscale = 1.0
/
&CELL
/

K_POINTS {automatic}
8 11 2 0  0  0

ATOMIC_SPECIES
C 12.01 C.pbe-n-rrkjus_psl.1.0.0.UPF
In 114.8 In.pbe-dn-rrkjus_psl.1.0.0.UPF
Ni 58.69 Ni.pbe-spn-rrkjus_psl.1.0.0.UPF

CELL_PARAMETERS {angstrom}
7.55564000 0.00000000 0.00000000
0.00000000 5.34265000 0.00000000
0.00000000 0.00000000 24.00700000

ATOMIC_POSITIONS {angstrom}
In 7.40218495 5.34051294 2.14790629
In 0.00000000 2.67132500 -0.667874740000002 0 0 0
In 3.93127505 5.34072665 2.14766622
In 3.77782000 2.67132500 -0.667874740000002 0 0 0
Ni 0.07510306 2.66972220 1.97625624
Ni 1.88891000 4.07622824 0.70148454
Ni 1.88898556 1.26508609 0.70076433
Ni 0.00000000 0.00000000 -0.667874740000002 0 0 0
Ni 1.88891000 1.33566250 -2.0033841500000023 0 0 0
Ni 1.88891000 4.00698750 -2.0033841500000023 0 0 0
Ni 3.70279249 2.66998934 1.97625624
Ni 5.66680556 4.00848344 0.64290746
Ni 5.66680556 1.32471007 0.63762592
Ni 3.77782000 0.00000000 -0.667874740000002 0 0 0
Ni 5.66673000 1.33566250 -2.0033841500000023 0 0 0
Ni 5.66673000 4.00698750 -2.0033841500000023 0 0 0
C 1.88891000 2.67159213 1.91599867
