&CONTROL
calculation = 'relax'
prefix = 'scf'
pseudo_dir = '/vol0403/data/hp230205/u10028/POT_HYBRID_KKJUS_GBRV'
outdir = './data'
tprnfor = .true.
nstep = 50
disk_io = 'non'
/
&SYSTEM
ibrav = 0
ecutwfc = 50.0
ecutrho = 400
occupations = 'smearing'
smearing = 'mp'
degauss = 0.01
assume_isolated = 'esm'
esm_bc = 'bc1'
input_dft = 'BEEF-VDW'
nosym = .true.
nspin = 1
ntyp = 5
nat = 33
/
&ELECTRONS
electron_maxstep = 200
mixing_beta = 0.1
conv_thr = 1e-06
/
&IONS
ion_dynamics = 'bfgs'
upscale = 1.0
/
&CELL
/

K_POINTS {automatic}
9 6 2 0  0  0

ATOMIC_SPECIES
C 12.01 C.pbe-n-rrkjus_psl.1.0.0.UPF
Cu 63.54 Cu.pbe-dn-rrkjus_psl.1.0.0.UPF
Ga 69.72 Ga.pbe-dnl-rrkjus_psl.1.0.0.UPF
Li 6.941 Li.pbe-sl-rrkjus_psl.1.0.0.UPF
Pd 106.4 Pd.pbe-n-rrkjus_psl.1.0.0.UPF


CELL_PARAMETERS {angstrom}
6.02537000 0.00000000 0.00000000
0.00000000 8.52116000 0.00000000
0.00000000 0.00000000 26.39090000

ATOMIC_POSITIONS {angstrom}
Li 1.50634250 0.00000000 -1.0651367199999981 0 0 0
Li 1.50634250 4.26058000 -1.0651367199999981 0 0 0
Li 4.51902750 2.13029000 -3.195410169999999 0 0 0
Li 4.51902750 6.39087000 -3.195410169999999 0 0 0
Li 1.47290170 4.41626159 3.52265733
Li 1.47290170 8.36547841 3.52265733
Li 4.53463321 6.39087000 0.92315368
Li 4.51227909 2.13029000 1.08123517
Ga 4.51902750 0.00000000 -1.0651367199999981 0 0 0
Ga 4.51902750 4.26058000 -1.0651367199999981 0 0 0
Ga 1.50634250 2.13029000 -3.195410169999999 0 0 0
Ga 1.50634250 6.39087000 -3.195410169999999 0 0 0
Ga 4.50426534 4.15074225 3.46829208
Ga 4.50432560 0.10983775 3.46829208
Ga 1.48561523 6.39087000 1.12557189
Ga 1.57286258 2.13029000 0.88356733
Cu 0.00000000 0.00000000 -3.195410169999999 0 0 0
Cu 0.00000000 4.26058000 -3.195410169999999 0 0 0
Cu 3.01268500 6.39087000 -1.0651367199999981 0 0 0
Cu 3.01268500 2.13029000 -1.0651367199999981 0 0 0
Cu 0.00379598 4.26637439 1.12926661
Cu 0.00379598 8.51536561 1.12926661
Cu 2.76407823 2.13029000 3.02518887
Cu 3.19302432 6.39087000 3.03099486
Pd 0.00000000 2.13029000 -1.0651367199999981 0 0 0
Pd 0.00000000 6.39087000 -1.0651367199999981 0 0 0
Pd 3.01268500 4.26058000 -3.195410169999999 0 0 0
Pd 3.01268500 0.00000000 -3.195410169999999 0 0 0
Pd 5.79803279 6.39087000 3.05369104
Pd 0.24523256 2.13029000 2.96396198
Pd 3.03100212 8.47506052 1.14800415
Pd 3.03100212 4.30667948 1.14800415
C 4.44624103 2.13029000 3.84752931
