&CONTROL
calculation = 'relax'
prefix = 'scf'
pseudo_dir = '/vol0403/data/hp230205/u10028/POT_HYBRID_KKJUS_GBRV'
outdir = './data'
tprnfor = .true.
nstep = 50
disk_io = 'non'
/
&SYSTEM
ibrav = 0
ecutwfc = 50.0
ecutrho = 400
occupations = 'smearing'
smearing = 'mp'
degauss = 0.01
assume_isolated = 'esm'
esm_bc = 'bc1'
input_dft = 'BEEF-VDW'
nosym = .true.
nspin = 1
ntyp = 6
nat = 34
/
&ELECTRONS
electron_maxstep = 200
mixing_beta = 0.1
conv_thr = 1e-06
/
&IONS
ion_dynamics = 'bfgs'
upscale = 1.0
/
&CELL
/

K_POINTS {automatic}
6 6 1 0 0 0

ATOMIC_SPECIES
C 12.01 C.pbe-n-rrkjus_psl.1.0.0.UPF
Ga 69.72 Ga.pbe-dnl-rrkjus_psl.1.0.0.UPF
Li 6.941 Li.pbe-sl-rrkjus_psl.1.0.0.UPF
O 15.99 O.pbe-n-rrkjus_psl.1.0.0.UPF
Pd 106.4 Pd.pbe-n-rrkjus_psl.1.0.0.UPF
Sc 44.95 Sc.pbe-spn-rrkjus_psl.1.0.0.UPF


CELL_PARAMETERS {angstrom}
6.35289000 0.00000000 0.00000000
0.00000000 8.98434000 0.00000000
0.00000000 0.00000000 26.73830000

ATOMIC_POSITIONS {angstrom}
Li 4.76466750 0.00000000 -1.1230085999999986 0 0 0
Li 4.76466750 4.49217000 -1.1230085999999986 0 0 0
Li 1.58822250 2.24608500 -3.3690257999999993 0 0 0
Li 1.58822250 6.73825500 -3.3690257999999993 0 0 0
Li 3.58944638 4.49208016 4.68428278
Li 3.56689362 8.98389078 4.94979410
Li 1.52113598 6.71768086 1.16284867
Li 1.52183480 2.26459274 1.16258128
Sc 0.00000000 2.24608500 -1.1230085999999986 0 0 0
Sc 0.00000000 6.73825500 -1.1230085999999986 0 0 0
Sc 3.17644500 4.49217000 -3.3690257999999993 0 0 0
Sc 3.17644500 0.00000000 -3.3690257999999993 0 0 0
Sc 5.98213534 6.68785285 3.33774199
Sc 5.98372356 2.29891292 3.33747461
Sc 3.21831055 8.98371110 1.31819819
Sc 3.34301778 4.49100204 1.44493773
Ga 0.00000000 0.00000000 -3.3690257999999993 0 0 0
Ga 0.00000000 4.49217000 -3.3690257999999993 0 0 0
Ga 3.17644500 6.73825500 -1.1230085999999986 0 0 0
Ga 3.17644500 2.24608500 -1.1230085999999986 0 0 0
Ga 6.31921968 4.49118172 1.05856930
Ga 0.00298586 0.00000000 1.11578926
Ga 2.96057380 2.21670621 3.32972050
Ga 2.95993851 6.76727442 3.33025526
Pd 1.58822250 0.00000000 -1.1230085999999986 0 0 0
Pd 1.58822250 4.49217000 -1.1230085999999986 0 0 0
Pd 4.76466750 2.24608500 -3.3690257999999993 0 0 0
Pd 4.76466750 6.73825500 -3.3690257999999993 0 0 0
Pd 1.37489245 4.49378718 3.21233936
Pd 1.41402626 0.00197655 3.45432098
Pd 4.74179710 6.77320408 1.03664389
Pd 4.74211474 2.20933905 1.03691127
C 0.06479948 0.00062890 4.82653053
O 5.40116355 8.97553535 5.48669916
