&CONTROL
calculation = 'relax'
prefix = 'scf'
pseudo_dir = '/vol0004/mdt0/data/hp150275/u10028/POT_KKJUS'
outdir = './data'
tprnfor = .true.
nstep = 50
disk_io = 'non'
/
&SYSTEM
ibrav = 0
ecutwfc = 50.0
ecutrho = 400
occupations = 'smearing'
smearing = 'mp'
degauss = 0.01
assume_isolated = 'esm'
esm_bc = 'bc1'
input_dft = 'BEEF-VDW'
nosym = .true.
nspin = 1
ntyp = 2
nat = 16
/
&ELECTRONS
electron_maxstep = 200
mixing_beta = 0.1
conv_thr = 1e-06
/
&IONS
ion_dynamics = 'bfgs'
upscale = 1.0
/
&CELL
/

K_POINTS {automatic}
6 8 1 0 0 0

ATOMIC_SPECIES
Ca 40.07 Ca.pbe-spn-rrkjus_psl.1.0.0.UPF
Pb 207.2 Pb.pbe-dn-rrkjus_psl.1.0.0.UPF

CELL_PARAMETERS {angstrom}
10.04260000 0.00000000 0.00000000
0.00000000 7.10117000 0.00000000
0.00000000 0.00000000 25.32590000

ATOMIC_POSITIONS {angstrom}
Ca 10.04239915 0.00000000 2.39228451
Ca 0.00000000 3.55058500 -0.8876727899999999 0 0 0
Ca 5.02150085 0.00007101 2.39228451
Ca 5.02130000 3.55058500 -0.8876727899999999 0 0 0
Pb 0.00010043 3.55058500 2.55614309
Pb 2.51065000 5.24840374 0.92490187
Pb 2.51054957 1.85290829 0.92464861
Pb 0.00000000 0.00000000 -0.8876727899999999 0 0 0
Pb 2.51065000 1.77529250 -2.6630183900000013 0 0 0
Pb 2.51065000 5.32587750 -2.6630183900000013 0 0 0
Pb 5.02119957 3.55058500 2.55614309
Pb 7.53195000 5.24826171 0.92464861
Pb 7.53195000 1.85290829 0.92464861
Pb 5.02130000 0.00000000 -0.8876727899999999 0 0 0
Pb 7.53195000 1.77529250 -2.6630183900000013 0 0 0
Pb 7.53195000 5.32587750 -2.6630183900000013 0 0 0
