&CONTROL
calculation = 'relax'
prefix = 'scf'
pseudo_dir = '/vol0403/data/hp230205/u10028/POT_HYBRID_KKJUS_GBRV'
outdir = './data'
tprnfor = .true.
nstep = 50
disk_io = 'non'
/
&SYSTEM
ibrav = 0
ecutwfc = 50.0
ecutrho = 400
occupations = 'smearing'
smearing = 'mp'
degauss = 0.01
assume_isolated = 'esm'
esm_bc = 'bc1'
input_dft = 'BEEF-VDW'
nosym = .true.
nspin = 1
ntyp = 6
nat = 18
/
&ELECTRONS
electron_maxstep = 200
mixing_beta = 0.1
conv_thr = 1e-06
/
&IONS
ion_dynamics = 'bfgs'
upscale = 1.0
/
&CELL
/

K_POINTS {automatic}
8 8 1 0 0 0

ATOMIC_SPECIES
Au 196.9 Au.pbe-n-rrkjus_psl.1.0.0.UPF
C 12.01 C.pbe-n-rrkjus_psl.1.0.0.UPF
In 114.8 In.pbe-dn-rrkjus_psl.1.0.0.UPF
Li 6.941 Li.pbe-sl-rrkjus_psl.1.0.0.UPF
O 15.99 O.pbe-n-rrkjus_psl.1.0.0.UPF
Y 88.90 Y.pbe-spn-rrkjus_psl.1.0.0.UPF


CELL_PARAMETERS {angstrom}
6.89380000 0.00000000 0.00000000
0.00000000 6.89380000 0.00000000
0.00000000 0.00000000 25.17030000

ATOMIC_POSITIONS {angstrom}
Li 0.00000000 3.44690000 -2.5852415099999995 0 0 0
Li 6.88056390 6.88063284 0.97937637
Li 3.46020503 3.46006716 0.97912467
Li 3.44690000 0.00000000 -2.5852415099999995 0 0 0
Y 5.17035000 1.72345000 -0.8618310700000009 0 0 0
Y 5.17041894 5.17035000 2.75740637
Y 1.72338106 1.72345000 2.75287571
Y 1.72345000 5.17035000 -0.8618310700000009 0 0 0
In 1.72345000 1.72345000 -0.8618310700000009 0 0 0
In 1.72358788 5.17021212 2.74456951
In 5.17021212 1.72345000 2.74532462
In 5.17035000 5.17035000 -0.8618310700000009 0 0 0
Au 0.00000000 0.00000000 -2.5852415099999995 0 0 0
Au 6.87367010 3.46696096 0.92752556
Au 3.46702990 6.87373904 0.92752556
Au 3.44690000 3.44690000 -2.5852415099999995 0 0 0
C 1.72345000 1.72345000 5.24121157
O 1.72345000 1.72345000 6.38847384
