&CONTROL
calculation = 'relax'
prefix = 'scf'
pseudo_dir = '/vol0403/data/hp230205/u10028/POT_HYBRID_KKJUS_GBRV'
outdir = './data'
tprnfor = .true.
nstep = 70
disk_io = 'non'
/
&SYSTEM
ibrav = 0
ecutwfc = 50.0
ecutrho = 400
occupations = 'smearing'
smearing = 'mp'
degauss = 0.01
assume_isolated = 'esm'
esm_bc = 'bc1'
input_dft = 'BEEF-VDW'
nosym = .true.
nspin = 1
ntyp = 4
nat = 16
/
&ELECTRONS
electron_maxstep = 200
mixing_beta = 0.1
conv_thr = 1e-06
/
&IONS
ion_dynamics = 'bfgs'
upscale = 1.0
/
&CELL
/

K_POINTS {automatic}
6 6 1 0 0 0

ATOMIC_SPECIES
Ga 69.72 Ga.pbe-dnl-rrkjus_psl.1.0.0.UPF
Pd 106.4 Pd.pbe-n-rrkjus_psl.1.0.0.UPF
Sn 118.7 Sn.pbe-dn-rrkjus_psl.1.0.0.UPF
Y 88.90 Y.pbe-spn-rrkjus_psl.1.0.0.UPF


CELL_PARAMETERS {angstrom}
6.14219000 0.00000000 0.00000000
-0.00000000 8.88338000 0.00000000
0.00000000 0.00000000 24.60430000

ATOMIC_POSITIONS {angstrom}
Y 1.48616429 2.22084500 -0.7674081199999989 0 0 0
Y 4.33399069 2.22084500 2.09973096
Y 1.48616429 6.66253500 -0.7674081199999989 0 0 0
Y 4.33392926 6.66253500 2.09973096
Ga 0.00000000 0.00000000 -2.3022243499999995 0 0 0
Ga 2.91145948 -0.00000000 0.75535201
Ga 0.00000000 4.44169000 -2.3022243499999995 0 0 0
Ga 2.91139806 4.44169000 0.75559805
Sn 3.07109500 0.00000000 -2.3022243499999995 0 0 0
Sn 6.02260156 -0.00000000 0.84638792
Sn 3.07109500 4.44169000 -2.3022243499999995 0 0 0
Sn 6.02254014 4.44169000 0.84614188
Pd 4.55725929 2.22084500 -0.7674081199999989 0 0 0
Pd 1.41245801 2.22084500 1.97031234
Pd 4.55725929 6.66253500 -0.7674081199999989 0 0 0
Pd 1.41245801 6.66253500 1.97031234
