&CONTROL
calculation = 'relax'
prefix = 'scf'
pseudo_dir = '/vol0004/mdt0/data/hp150275/u10028/POT_HYBRID_KKJUS_GBRV'
outdir = './data'
tprnfor = .true.
nstep = 50
disk_io = 'non'
/
&SYSTEM
ibrav = 0
ecutwfc = 50.0
ecutrho = 400
occupations = 'smearing'
smearing = 'mp'
degauss = 0.01
assume_isolated = 'esm'
esm_bc = 'bc1'
input_dft = 'BEEF-VDW'
nosym = .true.
nspin = 2
ntyp = 5
nat = 34
starting_magnetization(1) = 0.0
starting_magnetization(2) = 0.1
starting_magnetization(3) = 0.0
starting_magnetization(4) = 0.0
starting_magnetization(5) = 0.0
/
&ELECTRONS
electron_maxstep = 200
mixing_beta = 0.1
conv_thr = 1e-06
/
&IONS
ion_dynamics = 'bfgs'
upscale = 1.0
/
&CELL
/

K_POINTS {automatic}
9 6 2 0  0  0

ATOMIC_SPECIES
C 12.01 C.pbe-n-rrkjus_psl.1.0.0.UPF
Co 58.93 co_pbe_v1.2.uspp.F.UPF
Ga 69.72 Ga.pbe-dnl-rrkjus_psl.1.0.0.UPF
Hf 178.4 Hf.pbe-spn-rrkjus_psl.1.0.0.UPF
O 15.99 O.pbe-n-rrkjus_psl.1.0.0.UPF

CELL_PARAMETERS {angstrom}
6.02813000 0.00000000 0.00000000
0.00000000 8.52506000 0.00000000
0.00000000 0.00000000 26.39380000

ATOMIC_POSITIONS {angstrom}
Hf 0.00000000 0.00000000 23.19698294
Hf 3.01406500 2.13126500 25.32828229
Hf 3.01406500 6.39379500 25.32828229
Hf 0.00000000 4.26253000 23.19698294
Hf 0.00000000 4.26253000 1.06551771
Hf 3.01406500 6.39379500 3.19681706
Hf 3.01406500 2.13126500 3.19681706
Hf 0.00000000 0.00000000 1.06551771
Ga 0.00000000 6.39379500 25.32828229
Ga 3.01406500 0.00000000 23.19698294
Ga 0.00000000 2.13126500 25.32828229
Ga 3.01406500 4.26253000 23.19698294
Ga 0.00000000 2.13126500 3.19681706
Ga 3.01406500 4.26253000 1.06551771
Ga 0.00000000 6.39379500 3.19681706
Ga 3.01406500 0.00000000 1.06551771
Co 1.50703250 0.00000000 25.32828229
Co 4.52109750 4.26253000 25.32828229
Co 4.52109750 0.00000000 25.32828229
Co 1.50703250 4.26253000 25.32828229
Co 4.52109750 6.39379500 23.19698294
Co 1.50703250 2.13126500 23.19698294
Co 1.50703250 6.39379500 23.19698294
Co 4.52109750 2.13126500 23.19698294
Co 1.50703250 4.26253000 3.19681706
Co 4.52109750 0.00000000 3.19681706
Co 4.52109750 4.26253000 3.19681706
Co 1.50703250 0.00000000 3.19681706
Co 4.52109750 2.13126500 1.06551771
Co 1.50703250 6.39379500 1.06551771
Co 1.50703250 2.13126500 1.06551771
Co 4.52109750 6.39379500 1.06551771
C 3.01406500 2.13126500 5.09690672
O 3.01406500 2.13126500 6.24688458
