&CONTROL
calculation = 'relax'
prefix = 'scf'
pseudo_dir = '/vol0004/mdt0/data/hp150275/u10028/POT_KKJUS'
outdir = './data'
tprnfor = .true.
nstep = 50
disk_io = 'non'
/
&SYSTEM
ibrav = 0
ecutwfc = 50.0
ecutrho = 400
occupations = 'smearing'
smearing = 'mp'
degauss = 0.01
assume_isolated = 'esm'
esm_bc = 'bc1'
input_dft = 'BEEF-VDW'
nosym = .true.
nspin = 1
ntyp = 5
nat = 34
/
&ELECTRONS
electron_maxstep = 200
mixing_beta = 0.1
conv_thr = 1e-06
/
&IONS
ion_dynamics = 'bfgs'
upscale = 1.0
/
&CELL
/

K_POINTS {automatic}
8 6 1 0 0 0

ATOMIC_SPECIES
C 12.01 C.pbe-n-rrkjus_psl.1.0.0.UPF
In 114.8 In.pbe-dn-rrkjus_psl.1.0.0.UPF
O 15.99 O.pbe-n-rrkjus_psl.1.0.0.UPF
Pt 195.0 Pt.pbe-n-rrkjus_psl.1.0.0.UPF
Sc 44.95 Sc.pbe-spn-rrkjus_psl.1.0.0.UPF

CELL_PARAMETERS {angstrom}
6.63475000 0.00000000 0.00000000
0.00000000 9.38295000 0.00000000
0.00000000 0.00000000 27.03720000

ATOMIC_POSITIONS {angstrom}
Sc 0.00000000 0.00000000 -3.518621209999999 0 0 0
Sc 3.31737500 2.34573750 -1.17287374 0 0 0
Sc 3.31737500 7.03721250 -1.17287374 0 0 0
Sc 0.00000000 4.69147500 -3.518621209999999 0 0 0
Sc 0.00000000 4.68772182 1.19909982
Sc 3.31737500 7.03721250 3.41209464
Sc 3.31737500 2.34573750 3.41101315
Sc 0.00000000 0.00375318 1.19909982
In 0.00000000 7.03721250 -1.17287374 0 0 0
In 3.31737500 0.00000000 -3.518621209999999 0 0 0
In 0.00000000 2.34573750 -1.17287374 0 0 0
In 3.31737500 4.69147500 -3.518621209999999 0 0 0
In 0.00000000 2.34573750 3.75925229
In 3.31737500 4.69813689 1.15719216
In 0.00000000 7.03721250 3.78710060
In 3.31737500 9.37619428 1.15719216
Pt 1.65868750 0.00000000 -1.17287374 0 0 0
Pt 4.97606250 4.69147500 -1.17287374 0 0 0
Pt 4.97606250 0.00000000 -1.17287374 0 0 0
Pt 1.65868750 4.69147500 -1.17287374 0 0 0
Pt 4.97606250 7.03721250 -3.518621209999999 0 0 0
Pt 1.65868750 2.34573750 -3.518621209999999 0 0 0
Pt 1.65868750 7.03721250 -3.518621209999999 0 0 0
Pt 4.97606250 2.34573750 -3.518621209999999 0 0 0
Pt 1.62040499 4.69166266 3.37992037
Pt 5.01427866 9.38276234 3.37992037
Pt 5.01427866 4.69166266 3.37992037
Pt 1.62040499 9.38266851 3.37992037
Pt 5.00153994 2.34573750 1.19288126
Pt 1.61642414 7.03721250 1.20234428
Pt 1.63321006 2.34573750 1.19288126
Pt 5.01825951 7.03721250 1.20234428
C 0.00046443 2.34573750 7.63503491
O 0.00006635 2.34573750 8.77005656
