&CONTROL
calculation = 'relax'
prefix = 'scf'
pseudo_dir = '/vol0004/mdt0/data/hp150275/u10028/POT_HYBRID_KKJUS_GBRV'
outdir = './data'
tprnfor = .true.
nstep = 50
disk_io = 'non'
/
&SYSTEM
ibrav = 0
ecutwfc = 50.0
ecutrho = 400
occupations = 'smearing'
smearing = 'mp'
degauss = 0.01
assume_isolated = 'esm'
esm_bc = 'bc1'
input_dft = 'BEEF-VDW'
nosym = .true.
nspin = 2
ntyp = 5
nat = 34
starting_magnetization(1) = 0.0
starting_magnetization(2) = 0.1
starting_magnetization(3) = 0.0
starting_magnetization(4) = 0.0
starting_magnetization(5) = 0.0
/
&ELECTRONS
electron_maxstep = 200
mixing_beta = 0.1
conv_thr = 1e-06
/
&IONS
ion_dynamics = 'bfgs'
upscale = 1.0
/
&CELL
/

K_POINTS {automatic}
9 6 2 0  0  0

ATOMIC_SPECIES
C 12.01 C.pbe-n-rrkjus_psl.1.0.0.UPF
Fe 55.84 fe_pbe_v1.5.uspp.F.UPF
Ga 69.72 Ga.pbe-dnl-rrkjus_psl.1.0.0.UPF
O 15.99 O.pbe-n-rrkjus_psl.1.0.0.UPF
Ti 47.86 Ti.pbe-spn-rrkjus_psl.1.0.0.UPF

CELL_PARAMETERS {angstrom}
5.88011000 0.00000000 0.00000000
0.00000000 8.31574000 0.00000000
0.00000000 0.00000000 26.23680000

ATOMIC_POSITIONS {angstrom}
Ti 0.00000000 0.00000000 23.11829395
Ti 2.94005500 2.07893500 25.19729798
Ti 2.94005500 6.23680500 25.19729798
Ti 0.00000000 4.15787000 23.11829395
Ti 0.00846736 4.15803631 0.94085165
Ti 2.89707140 6.17086118 3.09358109
Ti 2.89707140 2.14487882 3.09436819
Ti 0.00646812 8.31557369 1.01562653
Ga 0.00000000 6.23680500 25.19729798
Ga 2.94005500 0.00000000 23.11829395
Ga 0.00000000 2.07893500 25.19729798
Ga 2.94005500 4.15787000 23.11829395
Ga 0.02328524 1.99444708 3.21348326
Ga 2.94093702 4.15678895 1.01405232
Ga 0.02340284 6.32120976 3.21427037
Ga 2.92106224 0.00116420 0.99516182
Fe 1.47002750 0.00000000 25.19729798
Fe 4.41008250 4.15787000 25.19729798
Fe 4.41008250 0.00000000 25.19729798
Fe 1.47002750 4.15787000 25.19729798
Fe 4.41008250 6.23680500 23.11829395
Fe 1.47002750 2.07893500 23.11829395
Fe 1.47002750 6.23680500 23.11829395
Fe 4.41008250 2.07893500 23.11829395
Fe 1.31485140 4.15745421 3.00280176
Fe 4.38079955 0.00041579 3.05737430
Fe 4.58772062 4.15737106 3.00831149
Fe 1.58563046 0.00033263 3.13319866
Fe 4.39755787 2.07960026 1.08672826
Fe 1.48261094 6.23381133 1.06836250
Fe 1.48219933 2.08192867 1.06836250
Fe 4.39714626 6.23613974 1.08699062
C 1.97977424 8.31565684 4.85275853
O 2.18657770 0.00000000 6.00665299
