&CONTROL
calculation = 'relax'
prefix = 'scf'
pseudo_dir = '/vol0004/mdt0/data/hp150275/u10028/POT_KKJUS'
outdir = './data'
tprnfor = .true.
nstep = 50
disk_io = 'non'
/
&SYSTEM
ibrav = 0
ecutwfc = 50.0
ecutrho = 400
occupations = 'smearing'
smearing = 'mp'
degauss = 0.01
assume_isolated = 'esm'
esm_bc = 'bc1'
input_dft = 'BEEF-VDW'
nosym = .true.
nspin = 1
ntyp = 3
nat = 33
/
&ELECTRONS
electron_maxstep = 200
mixing_beta = 0.1
conv_thr = 1e-06
/
&IONS
ion_dynamics = 'bfgs'
upscale = 1.0
/
&CELL
/

K_POINTS {automatic}
8 6 1 0 0 0

ATOMIC_SPECIES
C 12.01 C.pbe-n-rrkjus_psl.1.0.0.UPF
Cu 63.54 Cu.pbe-dn-rrkjus_psl.1.0.0.UPF
Sb 121.7 Sb.pbe-n-rrkjus_psl.1.0.0.UPF

CELL_PARAMETERS {angstrom}
6.30953000 0.00000000 0.00000000
0.00000000 8.92302000 0.00000000
0.00000000 0.00000000 26.69230000

ATOMIC_POSITIONS {angstrom}
Cu 1.57738250 0.00000000 -1.1154712199999999 0 0 0
Cu 4.73214750 4.46151000 -1.1154712199999999 0 0 0
Cu 4.73214750 0.00000000 -1.1154712199999999 0 0 0
Cu 1.57738250 4.46151000 -1.1154712199999999 0 0 0
Cu 4.73214750 6.69226500 -3.346146730000001 0 0 0
Cu 1.57738250 2.23075500 -3.346146730000001 0 0 0
Cu 1.57738250 6.69226500 -3.346146730000001 0 0 0
Cu 4.73214750 2.23075500 -3.346146730000001 0 0 0
Cu 0.00000000 6.69226500 -1.1154712199999999 0 0 0
Cu 3.15476500 0.00000000 -3.346146730000001 0 0 0
Cu 0.00000000 2.23075500 -1.1154712199999999 0 0 0
Cu 3.15476500 4.46151000 -3.346146730000001 0 0 0
Cu 1.73524694 4.20524087 3.08936680
Cu 4.34165069 8.89607248 3.30957828
Cu 4.34152450 4.48917136 3.30957828
Cu 1.73549932 0.25653683 3.08909988
Cu 3.84698354 2.23129038 2.07345786
Cu 1.68678975 6.69280038 1.07836892
Cu 1.50065862 2.23093346 1.17953274
Cu 4.23230653 6.69253269 1.80413256
Cu 6.12018100 2.23093346 3.32265750
Cu 3.14580547 4.46070693 0.91207589
Cu 0.15067158 6.69137270 3.00128221
Cu 3.14605785 0.00151691 0.91207589
Sb 0.00000000 0.00000000 -3.346146730000001 0 0 0
Sb 3.15476500 2.23075500 -1.1154712199999999 0 0 0
Sb 3.15476500 6.69226500 -1.1154712199999999 0 0 0
Sb 0.00000000 4.46151000 -3.346146730000001 0 0 0
Sb 6.01045828 4.49247288 1.20275504
Sb 2.64747879 6.69244346 3.90535041
Sb 3.64318572 2.23102269 4.71706326
Sb 6.01064756 8.89161097 1.20302196
C 1.85430777 2.23084423 3.26767137
