&CONTROL
calculation = 'relax'
prefix = 'scf'
pseudo_dir = '/vol0403/data/hp230205/u10028/POT_HYBRID_KKJUS_GBRV'
outdir = './data'
tprnfor = .true.
nstep = 50
disk_io = 'non'
/
&SYSTEM
ibrav = 0
ecutwfc = 50.0
ecutrho = 400
occupations = 'smearing'
smearing = 'mp'
degauss = 0.01
assume_isolated = 'esm'
esm_bc = 'bc1'
input_dft = 'BEEF-VDW'
nosym = .true.
nspin = 1
ntyp = 4
nat = 32
/
&ELECTRONS
electron_maxstep = 200
mixing_beta = 0.1
conv_thr = 1e-06
/
&IONS
ion_dynamics = 'bfgs'
upscale = 1.0
/
&CELL
/

K_POINTS {automatic}
6 6 1 0 0 0

ATOMIC_SPECIES
Ag 107.8 Ag.pbe-n-rrkjus_psl.1.0.0.UPF
Ge 72.64 Ge.pbe-dn-rrkjus_psl.1.0.0.UPF
Li 6.941 Li.pbe-sl-rrkjus_psl.1.0.0.UPF
Mg 24.30 Mg.pbe-spnl-rrkjus_psl.1.0.0.UPF


CELL_PARAMETERS {angstrom}
6.50572000 0.00000000 0.00000000
0.00000000 9.20048000 0.00000000
0.00000000 0.00000000 26.90040000

ATOMIC_POSITIONS {angstrom}
Li 4.87929000 0.00000000 -1.1499921000000022 0 0 0
Li 4.87929000 4.60024000 -1.1499921000000022 0 0 0
Li 1.62643000 2.30012000 -3.4502453000000024 0 0 0
Li 1.62643000 6.90036000 -3.4502453000000024 0 0 0
Li 4.95293475 4.60033200 3.62536691
Li 4.95306486 9.20020399 3.62536691
Li 1.62662517 6.90026800 1.20298589
Li 1.62675529 2.30030401 1.20271688
Mg 1.62643000 0.00000000 -1.1499921000000022 0 0 0
Mg 1.62643000 4.60024000 -1.1499921000000022 0 0 0
Mg 4.87929000 2.30012000 -3.4502453000000024 0 0 0
Mg 4.87929000 6.90036000 -3.4502453000000024 0 0 0
Mg 1.51017278 4.60051601 3.69799799
Mg 1.50997761 9.20020399 3.69799799
Mg 4.89236650 6.90054401 1.18819067
Mg 4.89288695 2.30002800 1.18845967
Ag 0.00000000 0.00000000 -3.4502453000000024 0 0 0
Ag 0.00000000 4.60024000 -3.4502453000000024 0 0 0
Ag 3.25286000 6.90036000 -1.1499921000000022 0 0 0
Ag 3.25286000 2.30012000 -1.1499921000000022 0 0 0
Ag 0.04846761 4.60070002 1.28610812
Ag 0.04950853 9.20038800 1.28610812
Ag 3.25585263 2.30002800 3.49032690
Ag 3.25338046 6.90026800 3.49086491
Ge 0.00000000 2.30012000 -1.1499921000000022 0 0 0
Ge 0.00000000 6.90036000 -1.1499921000000022 0 0 0
Ge 3.25286000 4.60024000 -3.4502453000000024 0 0 0
Ge 3.25286000 0.00000000 -3.4502453000000024 0 0 0
Ge 6.43532811 6.90026800 3.58501631
Ge 6.43454742 2.30021200 3.58555432
Ge 3.21467142 0.00018401 1.37192040
Ge 3.21525694 4.60042401 1.37218940
