&CONTROL
calculation = 'relax'
prefix = 'scf'
pseudo_dir = '/vol0004/mdt0/data/hp150275/u10028/POT_KKJUS'
outdir = './data'
tprnfor = .true.
nstep = 50
disk_io = 'non'
/
&SYSTEM
ibrav = 0
ecutwfc = 50.0
ecutrho = 400
occupations = 'smearing'
smearing = 'mp'
degauss = 0.01
assume_isolated = 'esm'
esm_bc = 'bc1'
input_dft = 'BEEF-VDW'
nosym = .true.
nspin = 1
ntyp = 5
nat = 34
/
&ELECTRONS
electron_maxstep = 200
mixing_beta = 0.1
conv_thr = 1e-06
/
&IONS
ion_dynamics = 'bfgs'
upscale = 1.0
/
&CELL
/

K_POINTS {automatic}
9 6 2 0  0  0

ATOMIC_SPECIES
C 12.01 C.pbe-n-rrkjus_psl.1.0.0.UPF
In 114.8 In.pbe-dn-rrkjus_psl.1.0.0.UPF
Li 6.941 Li.pbe-sl-rrkjus_psl.1.0.0.UPF
O 15.99 O.pbe-n-rrkjus_psl.1.0.0.UPF
Pt 195.0 Pt.pbe-n-rrkjus_psl.1.0.0.UPF

CELL_PARAMETERS {angstrom}
6.43375000 0.00000000 0.00000000
0.00000000 9.09870000 0.00000000
0.00000000 0.00000000 26.82400000

ATOMIC_POSITIONS {angstrom}
Li 0.00000000 6.82402500 -1.1373376000000022 0 0 0
Li 3.21687500 0.00000000 -3.412012800000003 0 0 0
Li 0.00000000 2.27467500 -1.1373376000000022 0 0 0
Li 3.21687500 4.54935000 -3.412012800000003 0 0 0
Li 1.60843750 2.27467500 -3.412012800000003 0 0 0
Li 1.60843750 6.82402500 -3.412012800000003 0 0 0
Li 4.82531250 4.54935000 -1.1373376000000022 0 0 0
Li 4.82531250 0.00000000 -1.1373376000000022 0 0 0
Li 0.16110110 2.27467500 3.28620824
Li 3.17640671 4.54534657 1.16147920
Li 6.19119763 6.82393401 3.45251704
Li 3.17640671 0.00400343 1.16147920
Li 1.60206809 6.82402500 1.11882904
Li 1.58875022 2.27467500 1.00643648
Li 4.66562683 0.14621611 3.44071448
Li 4.66556249 4.40313389 3.44071448
In 1.60843750 0.00000000 -1.1373376000000022 0 0 0
In 1.60843750 4.54935000 -1.1373376000000022 0 0 0
In 4.82531250 6.82402500 -3.412012800000003 0 0 0
In 4.82531250 2.27467500 -3.412012800000003 0 0 0
In 1.62336380 4.64042799 3.58824648
In 1.62336380 9.00744004 3.58824648
In 4.84686556 2.27467500 1.11078184
In 4.87298659 6.82402500 1.06544928
Pt 0.00000000 0.00000000 -3.412012800000003 0 0 0
Pt 3.21687500 2.27467500 -1.1373376000000022 0 0 0
Pt 3.21687500 6.82402500 -1.1373376000000022 0 0 0
Pt 0.00000000 4.54935000 -3.412012800000003 0 0 0
Pt 0.02592801 4.54143413 1.21700488
Pt 3.23759168 6.82402500 3.19903024
Pt 2.98963495 2.27467500 3.11346168
Pt 0.02592801 0.00791587 1.21700488
C 5.72410737 2.27485697 5.16710712
O 5.39643649 2.27494796 6.26823232
