&CONTROL
calculation = 'relax'
prefix = 'scf'
pseudo_dir = '/vol0004/mdt0/data/hp150275/u10028/POT_KKJUS'
outdir = './data'
tprnfor = .true.
nstep = 50
disk_io = 'non'
/
&SYSTEM
ibrav = 0
ecutwfc = 50.0
ecutrho = 400
occupations = 'smearing'
smearing = 'mp'
degauss = 0.01
assume_isolated = 'esm'
esm_bc = 'bc1'
input_dft = 'BEEF-VDW'
nosym = .true.
nspin = 1
ntyp = 3
nat = 17
/
&ELECTRONS
electron_maxstep = 200
mixing_beta = 0.1
conv_thr = 1e-06
/
&IONS
ion_dynamics = 'bfgs'
upscale = 1.0
/
&CELL
/

K_POINTS {automatic}
6 8 1 0 0 0

ATOMIC_SPECIES
C 12.01 C.pbe-n-rrkjus_psl.1.0.0.UPF
Pt 195.0 Pt.pbe-n-rrkjus_psl.1.0.0.UPF
Zn 65.40 Zn.pbe-dnl-rrkjus_psl.1.0.0.UPF

CELL_PARAMETERS {angstrom}
7.90864000 0.00000000 0.00000000
0.00000000 5.59226000 0.00000000
0.00000000 0.00000000 24.19420000

ATOMIC_POSITIONS {angstrom}
Zn 7.78700512 5.58683551 2.00545724
Zn 0.00000000 2.79613000 -0.6989704400000001 0 0 0
Zn 4.07595488 5.58683551 2.00545724
Zn 3.95432000 2.79613000 -0.6989704400000001 0 0 0
Pt 7.90389482 2.79389310 2.11820221
Pt 1.97716000 4.23619287 0.78727927
Pt 1.97716000 1.33062234 0.80542492
Pt 0.00000000 0.00000000 -0.6989704400000001 0 0 0
Pt 1.97716000 1.39806500 -2.097153259999999 0 0 0
Pt 1.97716000 4.19419500 -2.097153259999999 0 0 0
Pt 3.95906518 2.79389310 2.11796027
Pt 5.93148000 4.18261902 0.78534373
Pt 5.93148000 1.40667708 0.78437596
Pt 3.95432000 0.00000000 -0.6989704400000001 0 0 0
Pt 5.93148000 1.39806500 -2.097153259999999 0 0 0
Pt 5.93148000 4.19419500 -2.097153259999999 0 0 0
C 1.97716000 2.79109697 2.20844658
