&CONTROL
calculation = 'relax'
prefix = 'scf'
pseudo_dir = '/vol0403/data/hp230205/u10028/POT_HYBRID_KKJUS_GBRV'
outdir = './data'
tprnfor = .true.
nstep = 70
disk_io = 'non'
/
&SYSTEM
ibrav = 0
ecutwfc = 50.0
ecutrho = 400
occupations = 'smearing'
smearing = 'mp'
degauss = 0.01
assume_isolated = 'esm'
esm_bc = 'bc1'
input_dft = 'BEEF-VDW'
nosym = .true.
nspin = 1
ntyp = 6
nat = 18
/
&ELECTRONS
electron_maxstep = 200
mixing_beta = 0.1
conv_thr = 1e-06
/
&IONS
ion_dynamics = 'bfgs'
upscale = 1.0
/
&CELL
/

K_POINTS {automatic}
11 7 2 0  0  0

ATOMIC_SPECIES
Al 26.98 Al.pbe-nl-rrkjus_psl.1.0.0.UPF
C 12.01 C.pbe-n-rrkjus_psl.1.0.0.UPF
In 114.8 In.pbe-dn-rrkjus_psl.1.0.0.UPF
O 15.99 O.pbe-n-rrkjus_psl.1.0.0.UPF
Pd 106.4 Pd.pbe-n-rrkjus_psl.1.0.0.UPF
Y 88.90 Y.pbe-spn-rrkjus_psl.1.0.0.UPF


CELL_PARAMETERS {angstrom}
6.02485000 0.00000000 0.00000000
-0.00000000 9.21652000 0.00000000
0.00000000 0.00000000 24.50330000

ATOMIC_POSITIONS {angstrom}
Y 1.31534525 2.29205636 0.68903280
Y 4.14618127 2.30413000 -2.2516082399999995 0 0 0
Y 1.31576699 6.92455581 0.68903280
Y 4.14618127 6.91239000 -2.2516082399999995 0 0 0
Al 5.68010808 9.21624350 2.14330365
Al 2.76414093 0.00000000 -0.7505360799999998 0 0 0
Al 5.61052107 4.60853650 2.03034344
Al 2.76414093 4.60826000 -0.7505360799999998 0 0 0
In 2.92036529 0.00027650 2.23029037
In 5.77656593 0.00000000 -0.7505360799999998 0 0 0
In 2.87469693 4.60807567 2.27219101
In 5.77656593 4.60826000 -0.7505360799999998 0 0 0
Pd 4.37566781 2.30035123 0.93357573
Pd 1.13375627 2.30413000 -2.2516082399999995 0 0 0
Pd 4.37602930 6.91635310 0.93406580
Pd 1.13375627 6.91239000 -2.2516082399999995 0 0 0
C 5.80614795 -0.00000000 4.15379942
O 5.88573621 0.00018433 5.30545452
