&CONTROL
calculation = 'relax'
prefix = 'scf'
pseudo_dir = '/vol0403/data/hp230205/u10028/POT_HYBRID_KKJUS_GBRV'
outdir = './data'
tprnfor = .true.
nstep = 50
disk_io = 'non'
/
&SYSTEM
ibrav = 0
ecutwfc = 50.0
ecutrho = 400
occupations = 'smearing'
smearing = 'mp'
degauss = 0.01
assume_isolated = 'esm'
esm_bc = 'bc1'
input_dft = 'BEEF-VDW'
nosym = .true.
nspin = 1
ntyp = 5
nat = 33
/
&ELECTRONS
electron_maxstep = 200
mixing_beta = 0.1
conv_thr = 1e-06
/
&IONS
ion_dynamics = 'bfgs'
upscale = 1.0
/
&CELL
/

K_POINTS {automatic}
6 6 1 0 0 0

ATOMIC_SPECIES
Al 26.98 Al.pbe-nl-rrkjus_psl.1.0.0.UPF
C 12.01 C.pbe-n-rrkjus_psl.1.0.0.UPF
Li 6.941 Li.pbe-sl-rrkjus_psl.1.0.0.UPF
Pd 106.4 Pd.pbe-n-rrkjus_psl.1.0.0.UPF
Sc 44.95 Sc.pbe-spn-rrkjus_psl.1.0.0.UPF


CELL_PARAMETERS {angstrom}
6.37868000 0.00000000 0.00000000
0.00000000 9.02082000 0.00000000
0.00000000 0.00000000 26.76560000

ATOMIC_POSITIONS {angstrom}
Li 4.78401000 0.00000000 -1.1276347300000005 0 0 0
Li 4.78401000 4.51041000 -1.1276347300000005 0 0 0
Li 1.59467000 2.25520500 -3.3829041800000006 0 0 0
Li 1.59467000 6.76561500 -3.3829041800000006 0 0 0
Li 3.97142995 4.28281471 4.83814986
Li 3.97142995 0.22759529 4.83814986
Li 1.55148634 6.76561500 1.15332970
Li 1.50300837 2.25520500 1.18250421
Sc 0.00000000 2.25520500 -1.1276347300000005 0 0 0
Sc 0.00000000 6.76561500 -1.1276347300000005 0 0 0
Sc 3.18934000 4.51041000 -3.3829041800000006 0 0 0
Sc 3.18934000 0.00000000 -3.3829041800000006 0 0 0
Sc 6.05993736 6.76561500 3.31973737
Sc 6.07830796 2.25520500 3.45463599
Sc 3.27755714 9.00701815 1.26788647
Sc 3.27755714 4.52421185 1.26788647
Al 0.00000000 0.00000000 -3.3829041800000006 0 0 0
Al 0.00000000 4.51041000 -3.3829041800000006 0 0 0
Al 3.18934000 6.76561500 -1.1276347300000005 0 0 0
Al 3.18934000 2.25520500 -1.1276347300000005 0 0 0
Al 6.34461785 4.51248479 1.13111426
Al 6.34461785 9.01874521 1.13111426
Al 2.87385049 2.25520500 3.43482945
Al 3.03963238 6.76561500 3.45115646
Pd 1.59467000 0.00000000 -1.1276347300000005 0 0 0
Pd 1.59467000 4.51041000 -1.1276347300000005 0 0 0
Pd 4.78401000 2.25520500 -3.3829041800000006 0 0 0
Pd 4.78401000 6.76561500 -3.3829041800000006 0 0 0
Pd 1.52354772 4.58762822 3.20946310
Pd 1.52354772 8.94369199 3.20946310
Pd 4.77826919 6.76561500 1.01869874
Pd 4.80608023 2.25520500 0.96677347
C 4.37966547 2.25520500 4.57397338
