&CONTROL
calculation = 'relax'
prefix = 'scf'
pseudo_dir = '/vol0403/data/hp230205/u10028/POT_HYBRID_KKJUS_GBRV'
outdir = './data'
tprnfor = .true.
nstep = 50
disk_io = 'non'
/
&SYSTEM
ibrav = 0
ecutwfc = 50.0
ecutrho = 400
occupations = 'smearing'
smearing = 'mp'
degauss = 0.01
assume_isolated = 'esm'
esm_bc = 'bc1'
input_dft = 'BEEF-VDW'
nosym = .true.
nspin = 1
ntyp = 6
nat = 34
/
&ELECTRONS
electron_maxstep = 200
mixing_beta = 0.1
conv_thr = 1e-06
/
&IONS
ion_dynamics = 'bfgs'
upscale = 1.0
/
&CELL
/

K_POINTS {automatic}
6 6 1 0 0 0

ATOMIC_SPECIES
C 12.01 C.pbe-n-rrkjus_psl.1.0.0.UPF
Cu 63.54 Cu.pbe-dn-rrkjus_psl.1.0.0.UPF
Ge 72.64 Ge.pbe-dn-rrkjus_psl.1.0.0.UPF
Li 6.941 Li.pbe-sl-rrkjus_psl.1.0.0.UPF
O 15.99 O.pbe-n-rrkjus_psl.1.0.0.UPF
Sn 118.7 Sn.pbe-dn-rrkjus_psl.1.0.0.UPF


CELL_PARAMETERS {angstrom}
6.57410000 0.00000000 0.00000000
0.00000000 9.29718000 0.00000000
0.00000000 0.00000000 26.97290000

ATOMIC_POSITIONS {angstrom}
Li 0.00000000 2.32429500 -1.1622622599999985 0 0 0
Li 0.00000000 6.97288500 -1.1622622599999985 0 0 0
Li 3.28705000 4.64859000 -3.48651705 0 0 0
Li 3.28705000 0.00000000 -3.48651705 0 0 0
Li 1.06250604 6.97390769 4.06751332
Li 1.06244030 2.32224962 4.06724359
Li 3.67459319 0.00018594 1.34163205
Li 3.71443224 4.64877594 1.36078280
Cu 0.00000000 0.00000000 -3.48651705 0 0 0
Cu 0.00000000 4.64859000 -3.48651705 0 0 0
Cu 3.28705000 6.97288500 -1.1622622599999985 0 0 0
Cu 3.28705000 2.32429500 -1.1622622599999985 0 0 0
Cu 0.11793935 4.64914783 1.02200318
Cu 0.11747917 9.29708703 1.00986538
Cu 3.64809957 2.32076207 3.30957483
Cu 3.64777087 6.97548821 3.30930510
Sn 4.93057500 0.00000000 -1.1622622599999985 0 0 0
Sn 4.93057500 4.64859000 -1.1622622599999985 0 0 0
Sn 1.64352500 2.32429500 -3.48651705 0 0 0
Sn 1.64352500 6.97288500 -3.48651705 0 0 0
Sn 5.57753218 4.64784623 3.71093158
Sn 5.56267471 9.29634325 3.69825432
Sn 1.85152952 6.96665589 1.23401017
Sn 1.85060915 2.33117491 1.23266153
Ge 1.64352500 0.00000000 -1.1622622599999985 0 0 0
Ge 1.64352500 4.64859000 -1.1622622599999985 0 0 0
Ge 4.93057500 2.32429500 -3.48651705 0 0 0
Ge 4.93057500 6.97288500 -3.48651705 0 0 0
Ge 2.74422656 4.64738137 3.96609522
Ge 2.73009225 9.29662217 3.95476660
Ge 5.51803658 6.98292595 1.54150123
Ge 5.51731343 2.31434702 1.54177096
C 4.23582411 0.00000000 7.82241073
O 5.36637209 0.00027892 7.92571694
