&CONTROL
calculation = 'relax'
prefix = 'scf'
pseudo_dir = '/vol0004/mdt0/data/hp150275/u10028/POT_KKJUS'
outdir = './data'
tprnfor = .true.
nstep = 50
disk_io = 'non'
/
&SYSTEM
ibrav = 0
ecutwfc = 50.0
ecutrho = 400
occupations = 'smearing'
smearing = 'mp'
degauss = 0.01
assume_isolated = 'esm'
esm_bc = 'bc1'
input_dft = 'BEEF-VDW'
nosym = .true.
nspin = 1
ntyp = 3
nat = 17
/
&ELECTRONS
electron_maxstep = 200
mixing_beta = 0.1
conv_thr = 1e-06
/
&IONS
ion_dynamics = 'bfgs'
upscale = 1.0
/
&CELL
/

K_POINTS {automatic}
7 11 3 0  0  0

ATOMIC_SPECIES
C 12.01 C.pbe-n-rrkjus_psl.1.0.0.UPF
Ca 40.07 Ca.pbe-spn-rrkjus_psl.1.0.0.UPF
Pb 207.2 Pb.pbe-dn-rrkjus_psl.1.0.0.UPF

CELL_PARAMETERS {angstrom}
10.04260000 0.00000000 0.00000000
0.00000000 7.10117000 0.00000000
0.00000000 0.00000000 25.32590000

ATOMIC_POSITIONS {angstrom}
Ca 0.00000000 0.00000000 -2.6630183900000013 0 0 0
Ca 0.00010043 3.55015893 0.73394458
Ca 5.02130000 0.00000000 -2.6630183900000013 0 0 0
Ca 5.02130000 3.55044298 0.86209364
Pb 0.00000000 3.55058500 -2.6630183900000013 0 0 0
Pb 2.51065000 5.32587750 -0.8876727899999999 0 0 0
Pb 2.51065000 1.77529250 -0.8876727899999999 0 0 0
Pb 10.04219830 7.10109899 0.60300968
Pb 1.99938123 1.57227005 2.77343931
Pb 1.99857783 5.52854489 2.77293279
Pb 5.02130000 3.55058500 -2.6630183900000013 0 0 0
Pb 7.53195000 5.32587750 -0.8876727899999999 0 0 0
Pb 7.53195000 1.77529250 -0.8876727899999999 0 0 0
Pb 5.02220383 0.00014202 1.24730058
Pb 8.04261621 1.57283814 2.77318605
Pb 8.04372090 5.52861590 2.77369257
C 10.04179659 0.00106518 3.05253073
