&CONTROL
calculation = 'relax'
prefix = 'scf'
pseudo_dir = '/vol0004/mdt0/data/hp150275/u10028/POT_KKJUS'
outdir = './data'
tprnfor = .true.
nstep = 50
disk_io = 'non'
/
&SYSTEM
ibrav = 0
ecutwfc = 50.0
ecutrho = 400
occupations = 'smearing'
smearing = 'mp'
degauss = 0.01
assume_isolated = 'esm'
esm_bc = 'bc1'
input_dft = 'BEEF-VDW'
nosym = .true.
nspin = 1
ntyp = 4
nat = 34
/
&ELECTRONS
electron_maxstep = 200
mixing_beta = 0.1
conv_thr = 1e-06
/
&IONS
ion_dynamics = 'bfgs'
upscale = 1.0
/
&CELL
/

K_POINTS {automatic}
8 6 1 0 0 0

ATOMIC_SPECIES
C 12.01 C.pbe-n-rrkjus_psl.1.0.0.UPF
O 15.99 O.pbe-n-rrkjus_psl.1.0.0.UPF
Os 190.2 Os.pbe-spn-rrkjus_psl.1.0.0.UPF
V 50.94 V.pbe-spnl-rrkjus_psl.1.0.0.UPF

CELL_PARAMETERS {angstrom}
6.04788000 0.00000000 0.00000000
0.00000000 8.55299000 0.00000000
0.00000000 0.00000000 26.41470000

ATOMIC_POSITIONS {angstrom}
V 0.00000000 0.00000000 -3.2072728700000006 0 0 0
V 0.00000000 2.13824750 -1.0690029099999983 0 0 0
V 0.00000000 0.01496773 1.11998328
V 0.00000000 2.13824750 3.37421378
V 0.00000000 4.27649500 -3.2072728700000006 0 0 0
V 0.00000000 6.41474250 -1.0690029099999983 0 0 0
V 0.00000000 4.26152727 1.11998328
V 0.00000000 6.41474250 3.34700664
V 3.02394000 0.00000000 -3.2072728700000006 0 0 0
V 3.02394000 2.13824750 -1.0690029099999983 0 0 0
V 3.02394000 8.54409489 1.12949257
V 3.02394000 2.13824750 3.28810186
V 3.02394000 4.27649500 -3.2072728700000006 0 0 0
V 3.02394000 6.41474250 -1.0690029099999983 0 0 0
V 3.02394000 4.28539011 1.12949257
V 3.02394000 6.41474250 3.35889325
Os 1.51197000 2.13824750 -3.2072728700000006 0 0 0
Os 1.51197000 0.00000000 -1.0690029099999983 0 0 0
Os 1.51819932 2.13824750 1.10175714
Os 1.50604308 4.29659453 3.09263308
Os 1.51197000 6.41474250 -3.2072728700000006 0 0 0
Os 1.51197000 4.27649500 -1.0690029099999983 0 0 0
Os 1.51148617 6.41474250 1.13451137
Os 1.50604308 8.53289047 3.09263308
Os 4.53591000 2.13824750 -3.2072728700000006 0 0 0
Os 4.53591000 0.00000000 -1.0690029099999983 0 0 0
Os 4.52968068 2.13824750 1.10175714
Os 4.54183692 4.29659453 3.09263308
Os 4.53591000 6.41474250 -3.2072728700000006 0 0 0
Os 4.53591000 4.27649500 -1.0690029099999983 0 0 0
Os 4.53639383 6.41474250 1.13451137
Os 4.54183692 8.53289047 3.09263308
C 0.00000000 2.13824750 5.37380657
O 0.00000000 2.13824750 6.52812896
