&CONTROL
calculation = 'relax'
prefix = 'scf'
pseudo_dir = '/vol0403/data/hp230205/u10028/POT_HYBRID_KKJUS_GBRV'
outdir = './data'
tprnfor = .true.
nstep = 50
disk_io = 'non'
/
&SYSTEM
ibrav = 0
ecutwfc = 50.0
ecutrho = 400
occupations = 'smearing'
smearing = 'mp'
degauss = 0.01
assume_isolated = 'esm'
esm_bc = 'bc1'
input_dft = 'BEEF-VDW'
nosym = .true.
nspin = 1
ntyp = 6
nat = 34
/
&ELECTRONS
electron_maxstep = 200
mixing_beta = 0.1
conv_thr = 1e-06
/
&IONS
ion_dynamics = 'bfgs'
upscale = 1.0
/
&CELL
/

K_POINTS {automatic}
6 6 1 0 0 0

ATOMIC_SPECIES
Al 26.98 Al.pbe-nl-rrkjus_psl.1.0.0.UPF
C 12.01 C.pbe-n-rrkjus_psl.1.0.0.UPF
Li 6.941 Li.pbe-sl-rrkjus_psl.1.0.0.UPF
Mg 24.30 Mg.pbe-spnl-rrkjus_psl.1.0.0.UPF
O 15.99 O.pbe-n-rrkjus_psl.1.0.0.UPF
Pd 106.4 Pd.pbe-n-rrkjus_psl.1.0.0.UPF


CELL_PARAMETERS {angstrom}
6.28130000 0.00000000 0.00000000
0.00000000 8.88310000 0.00000000
0.00000000 0.00000000 26.66230000

ATOMIC_POSITIONS {angstrom}
Li 1.57032500 0.00000000 -1.1104847899999974 0 0 0
Li 1.57032500 4.44155000 -1.1104847899999974 0 0 0
Li 4.71097500 2.22077500 -3.331187759999999 0 0 0
Li 4.71097500 6.66232500 -3.331187759999999 0 0 0
Li 1.77176629 4.45798374 3.73538823
Li 1.77151504 8.86586679 3.73485498
Li 4.74181618 6.66223617 1.06462564
Li 4.74106243 2.22041968 1.06195941
Mg 0.00000000 2.22077500 -1.1104847899999974 0 0 0
Mg 0.00000000 6.66232500 -1.1104847899999974 0 0 0
Mg 3.14065000 4.44155000 -3.331187759999999 0 0 0
Mg 3.14065000 0.00000000 -3.331187759999999 0 0 0
Mg 6.25077288 6.66205851 3.41090804
Mg 6.23318524 2.22068617 3.38291262
Mg 3.08700770 8.88132338 1.10381922
Mg 3.09071366 4.43773027 1.08728859
Al 0.00000000 0.00000000 -3.331187759999999 0 0 0
Al 0.00000000 4.44155000 -3.331187759999999 0 0 0
Al 3.14065000 6.66232500 -1.1104847899999974 0 0 0
Al 3.14065000 2.22077500 -1.1104847899999974 0 0 0
Al 0.04723538 4.45434166 1.17820704
Al 0.04641881 8.87021951 1.17820704
Al 3.25855000 2.22121916 3.22693817
Al 3.26916540 6.66125903 3.25466696
Pd 4.71097500 0.00000000 -1.1104847899999974 0 0 0
Pd 4.71097500 4.44155000 -1.1104847899999974 0 0 0
Pd 1.57032500 2.22077500 -3.331187759999999 0 0 0
Pd 1.57032500 6.66232500 -3.331187759999999 0 0 0
Pd 4.66675465 4.45451933 3.16054904
Pd 4.66876466 8.87004184 3.16374852
Pd 1.57089032 6.66161435 1.10035312
Pd 1.55663177 2.22033085 1.15154474
C 2.47922911 2.22050851 5.03730834
O 2.25316512 2.22068617 6.19151931
