&CONTROL
calculation = 'relax'
prefix = 'scf'
pseudo_dir = '/vol0004/mdt0/data/hp150275/u10028/POT_HYBRID_KKJUS_GBRV'
outdir = './data'
tprnfor = .true.
nstep = 50
disk_io = 'non'
/
&SYSTEM
ibrav = 0
ecutwfc = 50.0
ecutrho = 400
occupations = 'smearing'
smearing = 'mp'
degauss = 0.01
assume_isolated = 'esm'
esm_bc = 'bc1'
input_dft = 'BEEF-VDW'
nosym = .true.
nspin = 2
ntyp = 5
nat = 34
starting_magnetization(1) = 0.0
starting_magnetization(2) = 0.0
starting_magnetization(3) = 0.001
starting_magnetization(4) = 0.0
starting_magnetization(5) = 0.0
/
&ELECTRONS
electron_maxstep = 200
mixing_beta = 0.1
conv_thr = 1e-06
/
&IONS
ion_dynamics = 'bfgs'
upscale = 1.0
/
&CELL
/

K_POINTS {automatic}
9 6 2 0  0  0

ATOMIC_SPECIES
C 12.01 C.pbe-n-rrkjus_psl.1.0.0.UPF
Cu 63.54 Cu.pbe-dn-rrkjus_psl.1.0.0.UPF
Ni 58.69 ni_pbe_v1.4.uspp.F.UPF
O 15.99 O.pbe-n-rrkjus_psl.1.0.0.UPF
Sb 121.7 Sb.pbe-n-rrkjus_psl.1.0.0.UPF

CELL_PARAMETERS {angstrom}
6.01864000 0.00000000 0.00000000
0.00000000 8.51164000 0.00000000
0.00000000 0.00000000 26.38370000

ATOMIC_POSITIONS {angstrom}
Cu 0.00000000 0.00000000 23.19179997
Cu 3.00932000 2.12791000 25.31964538
Cu 3.00932000 6.38373000 25.31964538
Cu 0.00000000 4.25582000 23.19179997
Cu 0.00000000 4.24713813 0.94427262
Cu 3.00932000 6.38126162 3.18398492
Cu 3.00932000 2.13046349 3.17079307
Cu 0.00000000 0.00868187 0.94400879
Ni 1.50466000 0.00000000 25.31964538
Ni 4.51398000 4.25582000 25.31964538
Ni 4.51398000 0.00000000 25.31964538
Ni 1.50466000 4.25582000 25.31964538
Ni 4.51398000 6.38373000 23.19179997
Ni 1.50466000 2.12791000 23.19179997
Ni 1.50466000 6.38373000 23.19179997
Ni 4.51398000 2.12791000 23.19179997
Ni 1.38705577 4.25650093 2.97238764
Ni 4.63074162 8.51087395 2.97212381
Ni 4.63158423 4.25641581 2.97265148
Ni 1.38789838 8.51087395 2.97212381
Ni 4.59252325 2.12944210 1.17328314
Ni 1.37881024 6.38219790 1.21919078
Ni 1.42611675 2.12944210 1.17328314
Ni 4.63982976 6.38219790 1.21919078
Sb 0.00000000 6.38373000 25.31964538
Sb 3.00932000 0.00000000 23.19179997
Sb 0.00000000 2.12791000 25.31964538
Sb 3.00932000 4.25582000 23.19179997
Sb 0.00000000 2.12748442 3.51826639
Sb 3.00932000 4.27292840 1.04347534
Sb 0.00000000 6.38398535 3.59108541
Sb 3.00932000 8.49470184 1.04373917
C 0.00048149 2.12731419 7.66129881
O 6.01857981 2.12816535 8.79579791
