&CONTROL
calculation = 'relax'
prefix = 'scf'
pseudo_dir = '/vol0004/mdt0/data/hp150275/u10028/POT_KKJUS'
outdir = './data'
tprnfor = .true.
nstep = 50
disk_io = 'non'
/
&SYSTEM
ibrav = 0
ecutwfc = 50.0
ecutrho = 400
occupations = 'smearing'
smearing = 'mp'
degauss = 0.01
assume_isolated = 'esm'
esm_bc = 'bc1'
input_dft = 'BEEF-VDW'
nosym = .true.
nspin = 1
ntyp = 4
nat = 33
/
&ELECTRONS
electron_maxstep = 200
mixing_beta = 0.1
conv_thr = 1e-06
/
&IONS
ion_dynamics = 'bfgs'
upscale = 1.0
/
&CELL
/

K_POINTS {automatic}
8 6 1 0 0 0

ATOMIC_SPECIES
Au 196.9 Au.pbe-n-rrkjus_psl.1.0.0.UPF
C 12.01 C.pbe-n-rrkjus_psl.1.0.0.UPF
Li 6.941 Li.pbe-sl-rrkjus_psl.1.0.0.UPF
Sn 118.7 Sn.pbe-dn-rrkjus_psl.1.0.0.UPF

CELL_PARAMETERS {angstrom}
6.60404000 0.00000000 0.00000000
0.00000000 9.33952000 0.00000000
0.00000000 0.00000000 27.00460000

ATOMIC_POSITIONS {angstrom}
Li 0.00000000 7.00464000 -1.1674088599999983 0 0 0
Li 3.30202000 0.00000000 -3.5022265700000013 0 0 0
Li 0.00000000 2.33488000 -1.1674088599999983 0 0 0
Li 3.30202000 4.66976000 -3.5022265700000013 0 0 0
Li 1.65101000 2.33488000 -3.5022265700000013 0 0 0
Li 1.65101000 7.00464000 -3.5022265700000013 0 0 0
Li 4.95303000 4.66976000 -1.1674088599999983 0 0 0
Li 4.95303000 0.00000000 -1.1674088599999983 0 0 0
Li 0.17692223 2.12119178 3.60592424
Li 3.30756739 4.66976000 1.11447984
Li 0.17685619 7.21832822 3.60565419
Li 3.40814692 0.00000000 1.17334987
Li 1.82185651 7.09289846 1.43286408
Li 1.82185651 2.24662154 1.43286408
Li 4.98307838 0.00000000 3.89919419
Li 5.15557591 4.66976000 3.51977956
Sn 0.00000000 0.00000000 -3.5022265700000013 0 0 0
Sn 3.30202000 2.33488000 -1.1674088599999983 0 0 0
Sn 3.30202000 7.00464000 -1.1674088599999983 0 0 0
Sn 0.00000000 4.66976000 -3.5022265700000013 0 0 0
Sn 0.03374664 4.66976000 1.13203283
Sn 3.48376318 6.86109158 3.92700893
Sn 3.48376318 2.47842842 3.92700893
Sn 6.39350320 0.00000000 1.07289276
Au 1.65101000 0.00000000 -1.1674088599999983 0 0 0
Au 1.65101000 4.66976000 -1.1674088599999983 0 0 0
Au 4.95303000 7.00464000 -3.5022265700000013 0 0 0
Au 4.95303000 2.33488000 -3.5022265700000013 0 0 0
Au 1.74234387 4.66976000 3.29726166
Au 2.26366679 0.00000000 3.63697953
Au 4.77108870 2.43294496 1.33348715
Au 4.77108870 6.90666844 1.33348715
C 0.28846447 0.00000000 3.14900641
