&CONTROL
calculation = 'relax'
prefix = 'scf'
pseudo_dir = '/vol0004/mdt0/data/hp150275/u10028/POT_KKJUS'
outdir = './data'
tprnfor = .true.
nstep = 50
disk_io = 'non'
/
&SYSTEM
ibrav = 0
ecutwfc = 50.0
ecutrho = 400
occupations = 'smearing'
smearing = 'mp'
degauss = 0.01
assume_isolated = 'esm'
esm_bc = 'bc1'
input_dft = 'BEEF-VDW'
nosym = .true.
nspin = 1
ntyp = 4
nat = 17
/
&ELECTRONS
electron_maxstep = 200
mixing_beta = 0.1
conv_thr = 1e-06
/
&IONS
ion_dynamics = 'bfgs'
upscale = 1.0
/
&CELL
/

K_POINTS {automatic}
8 8 1 0 0 0

ATOMIC_SPECIES
Au 196.9 Au.pbe-n-rrkjus_psl.1.0.0.UPF
C 12.01 C.pbe-n-rrkjus_psl.1.0.0.UPF
Ge 72.64 Ge.pbe-dn-rrkjus_psl.1.0.0.UPF
Li 6.941 Li.pbe-sl-rrkjus_psl.1.0.0.UPF

CELL_PARAMETERS {angstrom}
6.30953000 0.00000000 0.00000000
0.00000000 6.30953000 0.00000000
0.00000000 0.00000000 24.73210000

ATOMIC_POSITIONS {angstrom}
Li 0.00000000 0.00000000 0.80230932
Li 3.15476500 0.00000000 -2.3661200099999995 0 0 0
Li 0.00000000 3.15476500 -2.3661200099999995 0 0 0
Li 3.15476500 3.15476500 0.82901999
Li 1.50955505 1.64009923 2.88598875
Li 1.57738250 4.73214750 -0.7887066699999998 0 0 0
Li 4.80003804 4.66949387 2.88598875
Li 4.73214750 1.57738250 -0.7887066699999998 0 0 0
Ge 0.00000000 0.00000000 -2.3661200099999995 0 0 0
Ge 3.15476500 3.15476500 -2.3661200099999995 0 0 0
Ge 3.15476500 0.00000000 1.15325782
Ge 0.00000000 3.15476500 0.59876414
Au 1.57738250 1.57738250 -0.7887066699999998 0 0 0
Au 1.56817059 4.72703678 2.39728245
Au 4.73214750 4.73214750 -0.7887066699999998 0 0 0
Au 4.74129632 1.58249322 2.39728245
C 0.00000000 3.15476500 2.53108311
