&CONTROL
calculation = 'relax'
prefix = 'scf'
pseudo_dir = '/vol0004/mdt0/data/hp150275/u10028/POT_KKJUS'
outdir = './data'
tprnfor = .true.
nstep = 50
disk_io = 'non'
/
&SYSTEM
ibrav = 0
ecutwfc = 50.0
ecutrho = 400
occupations = 'smearing'
smearing = 'mp'
degauss = 0.01
assume_isolated = 'esm'
esm_bc = 'bc1'
input_dft = 'BEEF-VDW'
nosym = .true.
nspin = 1
ntyp = 4
nat = 33
/
&ELECTRONS
electron_maxstep = 200
mixing_beta = 0.1
conv_thr = 1e-06
/
&IONS
ion_dynamics = 'bfgs'
upscale = 1.0
/
&CELL
/

K_POINTS {automatic}
8 6 1 0 0 0

ATOMIC_SPECIES
C 12.01 C.pbe-n-rrkjus_psl.1.0.0.UPF
Ga 69.72 Ga.pbe-dnl-rrkjus_psl.1.0.0.UPF
Hf 178.4 Hf.pbe-spn-rrkjus_psl.1.0.0.UPF
Ni 58.69 Ni.pbe-spn-rrkjus_psl.1.0.0.UPF

CELL_PARAMETERS {angstrom}
6.09904000 0.00000000 0.00000000
0.00000000 8.62534000 0.00000000
0.00000000 0.00000000 26.46900000

ATOMIC_POSITIONS {angstrom}
Hf 0.00000000 0.00000000 -3.2345118 0 0 0
Hf 3.04952000 2.15633500 -1.0780823700000006 0 0 0
Hf 3.04952000 6.46900500 -1.0780823700000006 0 0 0
Hf 0.00000000 4.31267000 -3.2345118 0 0 0
Hf 0.00000000 4.31275625 1.05558372
Hf 3.04952000 6.38456292 3.28056786
Hf 3.04952000 2.24077708 3.28056786
Hf 0.00000000 8.62525375 1.13472603
Ga 0.00000000 6.46900500 -1.0780823700000006 0 0 0
Ga 3.04952000 0.00000000 -3.2345118 0 0 0
Ga 0.00000000 2.15633500 -1.0780823700000006 0 0 0
Ga 3.04952000 4.31267000 -3.2345118 0 0 0
Ga 0.00000000 2.18583366 3.27739158
Ga 3.04952000 4.31241124 1.08919935
Ga 0.00000000 6.43942008 3.27765627
Ga 3.04952000 0.00017251 1.06564194
Ni 1.52476000 0.00000000 -1.0780823700000006 0 0 0
Ni 4.57428000 4.31267000 -1.0780823700000006 0 0 0
Ni 4.57428000 0.00000000 -1.0780823700000006 0 0 0
Ni 1.52476000 4.31267000 -1.0780823700000006 0 0 0
Ni 4.57428000 6.46900500 -3.2345118 0 0 0
Ni 1.52476000 2.15633500 -3.2345118 0 0 0
Ni 1.52476000 6.46900500 -3.2345118 0 0 0
Ni 4.57428000 2.15633500 -3.2345118 0 0 0
Ni 1.42577258 4.31267000 3.17178027
Ni 4.32531719 0.00000000 3.25701045
Ni 4.67326742 4.31267000 3.17178027
Ni 1.77372281 0.00008625 3.25701045
Ni 4.49694417 2.17556951 1.11619773
Ni 1.60227880 6.44985675 1.11619773
Ni 1.60209583 2.17556951 1.11619773
Ni 4.49676120 6.44985675 1.11619773
C 0.00000000 0.00000000 3.50264277
