&CONTROL
calculation = 'relax'
prefix = 'scf'
pseudo_dir = '/vol0403/data/hp230205/u10028/POT_HYBRID_KKJUS_GBRV'
outdir = './data'
tprnfor = .true.
nstep = 70
disk_io = 'non'
/
&SYSTEM
ibrav = 0
ecutwfc = 50.0
ecutrho = 400
occupations = 'smearing'
smearing = 'mp'
degauss = 0.01
assume_isolated = 'esm'
esm_bc = 'bc1'
input_dft = 'BEEF-VDW'
nosym = .true.
nspin = 1
ntyp = 5
nat = 33
/
&ELECTRONS
electron_maxstep = 200
mixing_beta = 0.1
conv_thr = 1e-06
/
&IONS
ion_dynamics = 'bfgs'
upscale = 1.0
/
&CELL
/

K_POINTS {automatic}
9 6 2 0  0  0

ATOMIC_SPECIES
C 12.01 C.pbe-n-rrkjus_psl.1.0.0.UPF
Cu 63.54 Cu.pbe-dn-rrkjus_psl.1.0.0.UPF
Ge 72.64 Ge.pbe-dn-rrkjus_psl.1.0.0.UPF
Pd 106.4 Pd.pbe-n-rrkjus_psl.1.0.0.UPF
Y 88.90 Y.pbe-spn-rrkjus_psl.1.0.0.UPF


CELL_PARAMETERS {angstrom}
6.58158000 0.00000000 0.00000000
-0.00000000 9.30776000 0.00000000
0.00000000 0.00000000 26.98080000

ATOMIC_POSITIONS {angstrom}
Y 4.93618500 0.00000000 -1.1634120999999986 0 0 0
Y 4.93618500 4.65388000 -1.1634120999999986 0 0 0
Y 1.64539500 2.32694000 -3.4905060999999975 0 0 0
Y 1.64539500 6.98082000 -3.4905060999999975 0 0 0
Y 4.39373118 4.65667233 3.71444674
Y 4.39373118 9.30496767 3.71444674
Y 1.59623060 6.98082000 1.25217893
Y 1.49336050 2.32694000 1.25298835
Cu 0.00000000 0.00000000 -3.4905060999999975 0 0 0
Cu 0.00000000 4.65388000 -3.4905060999999975 0 0 0
Cu 3.29079000 6.98082000 -1.1634120999999986 0 0 0
Cu 3.29079000 2.32694000 -1.1634120999999986 0 0 0
Cu 6.20991818 4.72657361 1.51038518
Cu 6.20991818 9.23506639 1.51038518
Cu 2.45117784 2.32694000 3.95133816
Cu 2.13137887 6.98082000 4.13237933
Ge 1.64539500 0.00000000 -1.1634120999999986 0 0 0
Ge 1.64539500 4.65388000 -1.1634120999999986 0 0 0
Ge 4.93618500 2.32694000 -3.4905060999999975 0 0 0
Ge 4.93618500 6.98082000 -3.4905060999999975 0 0 0
Ge 1.30604874 4.65127383 3.44733682
Ge 1.30604874 0.00260617 3.44733682
Ge 4.81712422 6.98082000 1.04334754
Ge 4.77059245 2.32694000 1.37979811
Pd 0.00000000 2.32694000 -1.1634120999999986 0 0 0
Pd 0.00000000 6.98082000 -1.1634120999999986 0 0 0
Pd 3.29079000 4.65388000 -3.4905060999999975 0 0 0
Pd 3.29079000 0.00000000 -3.4905060999999975 0 0 0
Pd 6.18925202 6.98082000 3.27304085
Pd 6.48167162 2.32694000 3.65212109
Pd 3.24346844 0.02010476 1.06924910
Pd 3.24346844 4.63377524 1.06924910
C 4.33805101 2.32694000 3.50561534
