&CONTROL
calculation = 'relax'
prefix = 'scf'
pseudo_dir = '/vol0004/mdt0/data/hp150275/u10028/POT_KKJUS'
outdir = './data'
tprnfor = .true.
nstep = 50
disk_io = 'non'
/
&SYSTEM
ibrav = 0
ecutwfc = 50.0
ecutrho = 400
occupations = 'smearing'
smearing = 'mp'
degauss = 0.01
assume_isolated = 'esm'
esm_bc = 'bc1'
input_dft = 'BEEF-VDW'
nosym = .true.
nspin = 1
ntyp = 5
nat = 34
/
&ELECTRONS
electron_maxstep = 200
mixing_beta = 0.1
conv_thr = 1e-06
/
&IONS
ion_dynamics = 'bfgs'
upscale = 1.0
/
&CELL
/

K_POINTS {automatic}
9 6 2 0  0  0

ATOMIC_SPECIES
Ag 107.8 Ag.pbe-n-rrkjus_psl.1.0.0.UPF
C 12.01 C.pbe-n-rrkjus_psl.1.0.0.UPF
In 114.8 In.pbe-dn-rrkjus_psl.1.0.0.UPF
Li 6.941 Li.pbe-sl-rrkjus_psl.1.0.0.UPF
O 15.99 O.pbe-n-rrkjus_psl.1.0.0.UPF

CELL_PARAMETERS {angstrom}
6.67495000 0.00000000 0.00000000
0.00000000 9.43981000 0.00000000
0.00000000 0.00000000 27.07990000

ATOMIC_POSITIONS {angstrom}
Li 0.00000000 7.07985750 -1.179871239999997 0 0 0
Li 3.33747500 0.00000000 -3.5398845299999984 0 0 0
Li 0.00000000 2.35995250 -1.179871239999997 0 0 0
Li 3.33747500 4.71990500 -3.5398845299999984 0 0 0
Li 1.66873750 0.00000000 -1.179871239999997 0 0 0
Li 1.66873750 4.71990500 -1.179871239999997 0 0 0
Li 5.00621250 7.07985750 -3.5398845299999984 0 0 0
Li 5.00621250 2.35995250 -3.5398845299999984 0 0 0
Li 6.55406666 2.35995250 3.45187485
Li 3.29629056 4.68507210 0.98624996
Li 6.55867237 7.07985750 3.46108202
Li 3.29629056 0.03483290 0.98624996
Li 1.78087666 4.79882181 3.38363351
Li 1.78087666 9.36089319 3.38363351
Li 5.07169376 2.35995250 1.13410621
Li 4.82832508 7.07985750 1.27952527
In 0.00000000 0.00000000 -3.5398845299999984 0 0 0
In 3.33747500 2.35995250 -1.179871239999997 0 0 0
In 3.33747500 7.07985750 -1.179871239999997 0 0 0
In 0.00000000 4.71990500 -3.5398845299999984 0 0 0
In 0.04004970 4.83743063 1.10675551
In 3.37465447 7.07985750 4.02461474
In 3.34448370 2.35995250 3.53880133
In 0.04004970 9.32228437 1.10648471
Ag 1.66873750 2.35995250 -3.5398845299999984 0 0 0
Ag 1.66873750 7.07985750 -3.5398845299999984 0 0 0
Ag 5.00621250 4.71990500 -1.179871239999997 0 0 0
Ag 5.00621250 0.00000000 -1.179871239999997 0 0 0
Ag 1.86144331 7.07985750 1.36293137
Ag 1.56067006 2.35995250 1.17418446
Ag 4.84975167 9.39959641 3.26258635
Ag 4.84975167 4.76011859 3.26258635
C 3.25216914 2.35995250 6.00821741
O 3.31644891 2.36004690 7.15261399
