&CONTROL
calculation = 'relax'
prefix = 'scf'
pseudo_dir = '/vol0004/mdt0/data/hp150275/u10028/POT_KKJUS'
outdir = './data'
tprnfor = .true.
nstep = 50
disk_io = 'non'
/
&SYSTEM
ibrav = 0
ecutwfc = 50.0
ecutrho = 400
occupations = 'smearing'
smearing = 'mp'
degauss = 0.01
assume_isolated = 'esm'
esm_bc = 'bc1'
input_dft = 'BEEF-VDW'
nosym = .true.
nspin = 1
ntyp = 4
nat = 34
/
&ELECTRONS
electron_maxstep = 200
mixing_beta = 0.1
conv_thr = 1e-06
/
&IONS
ion_dynamics = 'bfgs'
upscale = 1.0
/
&CELL
/

K_POINTS {automatic}
8 6 1 0 0 0

ATOMIC_SPECIES
C 12.01 C.pbe-n-rrkjus_psl.1.0.0.UPF
O 15.99 O.pbe-n-rrkjus_psl.1.0.0.UPF
Os 190.2 Os.pbe-spn-rrkjus_psl.1.0.0.UPF
Ti 47.86 Ti.pbe-spn-rrkjus_psl.1.0.0.UPF

CELL_PARAMETERS {angstrom}
6.19423000 0.00000000 0.00000000
0.00000000 8.75996000 0.00000000
0.00000000 0.00000000 26.57000000

ATOMIC_POSITIONS {angstrom}
Ti 1.54855750 2.18999000 -3.285114799999999 0 0 0
Ti 1.54855750 0.00000000 -1.0949497000000008 0 0 0
Ti 1.57314859 2.18999000 1.11168880
Ti 1.56088402 4.38865236 3.33984900
Ti 1.54855750 6.56997000 -3.285114799999999 0 0 0
Ti 1.54855750 4.37998000 -1.0949497000000008 0 0 0
Ti 1.54329240 6.56997000 1.13267910
Ti 1.56088402 8.75128764 3.33984900
Ti 4.64567250 2.18999000 -3.285114799999999 0 0 0
Ti 4.64567250 0.00000000 -1.0949497000000008 0 0 0
Ti 4.62108141 2.18999000 1.11168880
Ti 4.63334598 4.38865236 3.33984900
Ti 4.64567250 6.56997000 -3.285114799999999 0 0 0
Ti 4.64567250 4.37998000 -1.0949497000000008 0 0 0
Ti 4.65099954 6.56997000 1.13267910
Ti 4.63334598 8.75128764 3.33984900
Os 0.00000000 0.00000000 -3.285114799999999 0 0 0
Os 0.00000000 2.18999000 -1.0949497000000008 0 0 0
Os 0.00000000 0.03565304 1.10876610
Os 0.00000000 2.18999000 3.29972830
Os 0.00000000 4.37998000 -3.285114799999999 0 0 0
Os 0.00000000 6.56997000 -1.0949497000000008 0 0 0
Os 0.00000000 4.34432696 1.10876610
Os 0.00000000 6.56997000 3.15385900
Os 3.09711500 0.00000000 -3.285114799999999 0 0 0
Os 3.09711500 2.18999000 -1.0949497000000008 0 0 0
Os 3.09711500 8.74865965 1.09866950
Os 3.09711500 2.18999000 3.14243390
Os 3.09711500 4.37998000 -3.285114799999999 0 0 0
Os 3.09711500 6.56997000 -1.0949497000000008 0 0 0
Os 3.09711500 4.39128035 1.09866950
Os 3.09711500 6.56997000 3.16368990
C 0.00000000 2.18999000 5.18726110
O 0.00000000 2.18999000 6.35793530
