&CONTROL
calculation = 'relax'
prefix = 'scf'
pseudo_dir = '/vol0004/mdt0/data/hp150275/u10028/POT_KKJUS'
outdir = './data'
tprnfor = .true.
nstep = 50
disk_io = 'non'
/
&SYSTEM
ibrav = 0
ecutwfc = 50.0
ecutrho = 400
occupations = 'smearing'
smearing = 'mp'
degauss = 0.01
assume_isolated = 'esm'
esm_bc = 'bc1'
input_dft = 'BEEF-VDW'
nosym = .true.
nspin = 1
ntyp = 5
nat = 34
/
&ELECTRONS
electron_maxstep = 200
mixing_beta = 0.1
conv_thr = 1e-06
/
&IONS
ion_dynamics = 'bfgs'
upscale = 1.0
/
&CELL
/

K_POINTS {automatic}
8 6 1 0 0 0

ATOMIC_SPECIES
C 12.01 C.pbe-n-rrkjus_psl.1.0.0.UPF
Cu 63.54 Cu.pbe-dn-rrkjus_psl.1.0.0.UPF
In 114.8 In.pbe-dn-rrkjus_psl.1.0.0.UPF
O 15.99 O.pbe-n-rrkjus_psl.1.0.0.UPF
Y 88.90 Y.pbe-spn-rrkjus_psl.1.0.0.UPF

CELL_PARAMETERS {angstrom}
6.69979000 0.00000000 0.00000000
0.00000000 9.47494000 0.00000000
0.00000000 0.00000000 27.10620000

ATOMIC_POSITIONS {angstrom}
Y 0.00000000 0.00000000 -3.5530807000000024 0 0 0
Y 3.34989500 2.36873500 -1.1842698800000022 0 0 0
Y 3.34989500 7.10620500 -1.1842698800000022 0 0 0
Y 0.00000000 4.73747000 -3.5530807000000024 0 0 0
Y 0.00000000 4.71586714 1.14496589
Y 3.34996200 7.10629975 3.73794498
Y 3.35002900 2.36864025 3.62572531
Y 0.00013400 0.02150811 1.14496589
In 0.00000000 7.10620500 -1.1842698800000022 0 0 0
In 3.34989500 0.00000000 -3.5530807000000024 0 0 0
In 0.00000000 2.36873500 -1.1842698800000022 0 0 0
In 3.34989500 4.73747000 -3.5530807000000024 0 0 0
In 0.00020099 2.36873500 3.51079502
In 3.35009599 4.75509339 1.14252633
In 0.00006700 7.10611025 3.53031149
In 3.34982800 9.45731661 1.14252633
Cu 1.67494750 0.00000000 -1.1842698800000022 0 0 0
Cu 5.02484250 4.73747000 -1.1842698800000022 0 0 0
Cu 5.02484250 0.00000000 -1.1842698800000022 0 0 0
Cu 1.67494750 4.73747000 -1.1842698800000022 0 0 0
Cu 5.02484250 7.10620500 -3.5530807000000024 0 0 0
Cu 1.67494750 2.36873500 -3.5530807000000024 0 0 0
Cu 1.67494750 7.10620500 -3.5530807000000024 0 0 0
Cu 5.02484250 2.36873500 -3.5530807000000024 0 0 0
Cu 1.71152835 4.75708313 3.45414307
Cu 4.98879763 9.45532687 3.45414307
Cu 4.98859664 4.75708313 3.45441413
Cu 1.71099237 9.45551637 3.45468519
Cu 4.94866589 2.36873500 1.20541271
Cu 1.78803996 7.10601550 1.28402069
Cu 1.75132511 2.36882975 1.20541271
Cu 4.91188404 7.10639450 1.28402069
C 6.69697609 2.36901925 7.70927434
O 0.00026799 2.36854550 8.84258456
