&CONTROL
calculation = 'relax'
prefix = 'scf'
pseudo_dir = '/vol0403/data/hp230205/u10028/POT_HYBRID_KKJUS_GBRV'
outdir = './data'
tprnfor = .true.
nstep = 50
disk_io = 'non'
/
&SYSTEM
ibrav = 0
ecutwfc = 50.0
ecutrho = 400
occupations = 'smearing'
smearing = 'mp'
degauss = 0.01
assume_isolated = 'esm'
esm_bc = 'bc1'
input_dft = 'BEEF-VDW'
nosym = .true.
nspin = 1
ntyp = 6
nat = 18
/
&ELECTRONS
electron_maxstep = 200
mixing_beta = 0.1
conv_thr = 1e-06
/
&IONS
ion_dynamics = 'bfgs'
upscale = 1.0
/
&CELL
/

K_POINTS {automatic}
9 9 2 0  0  0

ATOMIC_SPECIES
C 12.01 C.pbe-n-rrkjus_psl.1.0.0.UPF
Cu 63.54 Cu.pbe-dn-rrkjus_psl.1.0.0.UPF
In 114.8 In.pbe-dn-rrkjus_psl.1.0.0.UPF
O 15.99 O.pbe-n-rrkjus_psl.1.0.0.UPF
Pd 106.4 Pd.pbe-n-rrkjus_psl.1.0.0.UPF
Y 88.90 Y.pbe-spn-rrkjus_psl.1.0.0.UPF


CELL_PARAMETERS {angstrom}
6.76944000 0.00000000 0.00000000
0.00000000 6.76944000 0.00000000
0.00000000 0.00000000 25.07710000

ATOMIC_POSITIONS {angstrom}
Y 5.07708000 1.69236000 -0.8461013500000014 0 0 0
Y 5.07721539 5.07762156 2.57717357
Y 1.69188614 1.69222461 2.57717357
Y 1.69236000 5.07708000 -0.8461013500000014 0 0 0
In 1.69236000 1.69236000 -0.8461013500000014 0 0 0
In 1.69432314 5.07511686 2.67046038
In 5.08046472 1.68897528 2.31336247
In 5.07708000 5.07708000 -0.8461013500000014 0 0 0
Cu 0.00000000 0.00000000 -2.5385548300000025 0 0 0
Cu 0.06891290 3.45512218 0.94666052
Cu 3.31431782 6.70052710 0.94666052
Cu 3.38472000 3.38472000 -2.5385548300000025 0 0 0
Pd 0.00000000 3.38472000 -2.5385548300000025 0 0 0
Pd 0.03377951 6.73566049 0.91080027
Pd 3.35791302 3.41152698 0.91456184
Pd 3.38472000 0.00000000 -2.5385548300000025 0 0 0
C 5.05724554 1.71226215 4.58434465
O 5.07850158 1.69093842 5.74792209
