&CONTROL
calculation = 'relax'
prefix = 'scf'
pseudo_dir = '/vol0403/data/hp230205/u10028/POT_HYBRID_KKJUS_GBRV'
outdir = './data'
tprnfor = .true.
nstep = 50
disk_io = 'non'
/
&SYSTEM
ibrav = 0
ecutwfc = 50.0
ecutrho = 400
occupations = 'smearing'
smearing = 'mp'
degauss = 0.01
assume_isolated = 'esm'
esm_bc = 'bc1'
input_dft = 'BEEF-VDW'
nosym = .true.
nspin = 1
ntyp = 5
nat = 17
/
&ELECTRONS
electron_maxstep = 200
mixing_beta = 0.1
conv_thr = 1e-06
/
&IONS
ion_dynamics = 'bfgs'
upscale = 1.0
/
&CELL
/

K_POINTS {automatic}
6 6 1 0 0 0

ATOMIC_SPECIES
Al 26.98 Al.pbe-nl-rrkjus_psl.1.0.0.UPF
C 12.01 C.pbe-n-rrkjus_psl.1.0.0.UPF
Ge 72.64 Ge.pbe-dn-rrkjus_psl.1.0.0.UPF
Li 6.941 Li.pbe-sl-rrkjus_psl.1.0.0.UPF
Pd 106.4 Pd.pbe-n-rrkjus_psl.1.0.0.UPF


CELL_PARAMETERS {angstrom}
7.42946000 0.00000000 0.00000000
0.00000000 5.69495000 0.00000000
0.00000000 0.00000000 24.27100000

ATOMIC_POSITIONS {angstrom}
Li 0.27838187 3.16827153 2.33220039
Li 0.00000000 5.66488066 -0.7118684299999991 0 0 0
Li 3.43634813 3.16827153 2.33220039
Li 3.71473000 5.66488066 -0.7118684299999991 0 0 0
Al 0.06107016 0.22512137 2.09410188
Al 0.00000000 2.81740566 -0.7118684299999991 0 0 0
Al 3.65365984 0.22512137 2.09410188
Al 3.71473000 2.81740566 -0.7118684299999991 0 0 0
Ge 1.85736500 4.15378263 0.45095518
Ge 1.85736500 1.37869045 -2.135605290000001 0 0 0
Ge 5.57209500 4.34257022 1.14025158
Ge 5.57209500 1.37869045 -2.135605290000001 0 0 0
Pd 1.85736500 1.47356831 0.74948848
Pd 1.85736500 4.22616545 -2.135605290000001 0 0 0
Pd 5.57209500 1.60648845 0.97302439
Pd 5.57209500 4.22616545 -2.135605290000001 0 0 0
C 1.85736500 5.04293517 2.25259151
