&CONTROL
calculation = 'relax'
prefix = 'scf'
pseudo_dir = '/vol0004/mdt0/data/hp150275/u10028/POT_HYBRID_KKJUS_GBRV'
outdir = './data'
tprnfor = .true.
nstep = 50
disk_io = 'non'
/
&SYSTEM
ibrav = 0
ecutwfc = 50.0
ecutrho = 400
occupations = 'smearing'
smearing = 'mp'
degauss = 0.01
assume_isolated = 'esm'
esm_bc = 'bc1'
input_dft = 'BEEF-VDW'
nosym = .true.
nspin = 2
ntyp = 5
nat = 34
starting_magnetization(1) = 0.0
starting_magnetization(2) = 0.1
starting_magnetization(3) = 0.1
starting_magnetization(4) = 0.0
starting_magnetization(5) = 0.0
/
&ELECTRONS
electron_maxstep = 300
mixing_beta = 0.1
conv_thr = 1e-06
/
&IONS
ion_dynamics = 'bfgs'
upscale = 1.0
/
&CELL
/

K_POINTS {automatic}
8 6 1 0 0 0

ATOMIC_SPECIES
C 12.01 C.pbe-n-rrkjus_psl.1.0.0.UPF
Co 58.93 co_pbe_v1.2.uspp.F.UPF
Fe 55.84 fe_pbe_v1.5.uspp.F.UPF
Ga 69.72 Ga.pbe-dnl-rrkjus_psl.1.0.0.UPF
O 15.99 O.pbe-n-rrkjus_psl.1.0.0.UPF

CELL_PARAMETERS {angstrom}
5.79866000 0.00000000 0.00000000
0.00000000 8.20054000 0.00000000
0.00000000 0.00000000 26.15040000

ATOMIC_POSITIONS {angstrom}
Ga 0.00000000 0.00000000 -3.0752870400000027 0 0 0
Ga 2.89933000 2.05013500 -1.0250956799999997 0 0 0
Ga 2.89933000 6.15040500 -1.0250956799999997 0 0 0
Ga 0.00000000 4.10027000 -3.0752870400000027 0 0 0
Ga 5.78311959 4.09977797 1.01542003
Ga 2.85062126 6.17254646 3.45316032
Ga 2.85085320 2.02659945 3.45525235
Ga 0.05804459 0.00221415 1.03189478
Fe 1.44966500 0.00000000 -1.0250956799999997 0 0 0
Fe 4.34899500 4.10027000 -1.0250956799999997 0 0 0
Fe 4.34899500 0.00000000 -1.0250956799999997 0 0 0
Fe 1.44966500 4.10027000 -1.0250956799999997 0 0 0
Fe 4.34899500 6.15040500 -3.0752870400000027 0 0 0
Fe 1.44966500 2.05013500 -3.0752870400000027 0 0 0
Fe 1.44966500 6.15040500 -3.0752870400000027 0 0 0
Fe 4.34899500 2.05013500 -3.0752870400000027 0 0 0
Fe 1.49698207 4.09928594 3.01801766
Fe 4.28161457 8.20012997 2.98872922
Fe 4.27326450 4.09936794 3.03658445
Fe 1.46468353 8.20045799 3.10012992
Fe 4.29384974 2.03603007 1.10720794
Fe 1.51379818 6.12908360 1.09988582
Fe 1.51536382 2.07358854 1.10014733
Fe 4.29512545 6.16647806 1.10720794
Co 0.00000000 6.15040500 -1.0250956799999997 0 0 0
Co 2.89933000 0.00000000 -3.0752870400000027 0 0 0
Co 0.00000000 2.05013500 -1.0250956799999997 0 0 0
Co 2.89933000 4.10027000 -3.0752870400000027 0 0 0
Co 5.78143798 2.07875488 2.94035098
Co 2.91539229 4.10133607 0.96050419
Co 5.78161194 6.12047303 2.94087398
Co 2.88541322 0.00106607 0.95056704
C 0.78165937 8.20004797 4.74106752
O 0.41025520 8.19955594 5.84827546
