&CONTROL
calculation = 'relax'
prefix = 'scf'
pseudo_dir = '/vol0004/mdt0/data/hp150275/u10028/POT_KKJUS'
outdir = './data'
tprnfor = .true.
nstep = 50
disk_io = 'non'
/
&SYSTEM
ibrav = 0
ecutwfc = 50.0
ecutrho = 400
occupations = 'smearing'
smearing = 'mp'
degauss = 0.01
assume_isolated = 'esm'
esm_bc = 'bc1'
input_dft = 'BEEF-VDW'
nosym = .true.
nspin = 1
ntyp = 3
nat = 16
/
&ELECTRONS
electron_maxstep = 200
mixing_beta = 0.1
conv_thr = 1e-06
/
&IONS
ion_dynamics = 'bfgs'
upscale = 1.0
/
&CELL
/

K_POINTS {automatic}
10 10 2 0  0  0

ATOMIC_SPECIES
Ni 58.69 Ni.pbe-spn-rrkjus_psl.1.0.0.UPF
Sc 44.95 Sc.pbe-spn-rrkjus_psl.1.0.0.UPF
Sn 118.7 Sn.pbe-dn-rrkjus_psl.1.0.0.UPF

CELL_PARAMETERS {angstrom}
6.31539000 0.00000000 0.00000000
-0.00000000 6.31539000 0.00000000
0.00000000 0.00000000 24.73650000

ATOMIC_POSITIONS {angstrom}
Sc 0.00000000 0.00000000 -2.3682725100000006 0 0 0
Sc 3.15769500 3.15769500 -2.3682725100000006 0 0 0
Sc 3.15769500 -0.00000000 0.78934172
Sc 0.00000000 3.15769500 0.78934172
Ni 1.57884750 1.57884750 -0.7893417099999986 0 0 0
Ni 4.73654250 4.73654250 2.36827251
Ni 4.73654250 1.57884750 -0.7893417099999986 0 0 0
Ni 1.57884750 4.73654250 2.36827251
Ni 4.73654250 4.73654250 -0.7893417099999986 0 0 0
Ni 1.57884750 1.57884750 2.36827251
Ni 1.57884750 4.73654250 -0.7893417099999986 0 0 0
Ni 4.73654250 1.57884750 2.36827251
Sn 0.00000000 0.00000000 0.78934172
Sn 3.15769500 0.00000000 -2.3682725100000006 0 0 0
Sn 0.00000000 3.15769500 -2.3682725100000006 0 0 0
Sn 3.15769500 3.15769500 0.78934172
