&CONTROL
calculation = 'relax'
prefix = 'scf'
pseudo_dir = '/vol0004/mdt0/data/hp150275/u10028/POT_KKJUS'
outdir = './data'
tprnfor = .true.
nstep = 50
disk_io = 'non'
/
&SYSTEM
ibrav = 0
ecutwfc = 50.0
ecutrho = 400
occupations = 'smearing'
smearing = 'mp'
degauss = 0.01
assume_isolated = 'esm'
esm_bc = 'bc1'
input_dft = 'BEEF-VDW'
nosym = .true.
nspin = 1
ntyp = 5
nat = 34
/
&ELECTRONS
electron_maxstep = 200
mixing_beta = 0.1
conv_thr = 1e-06
/
&IONS
ion_dynamics = 'bfgs'
upscale = 1.0
/
&CELL
/

K_POINTS {automatic}
9 6 2 0  0  0

ATOMIC_SPECIES
C 12.01 C.pbe-n-rrkjus_psl.1.0.0.UPF
Cu 63.54 Cu.pbe-dn-rrkjus_psl.1.0.0.UPF
In 114.8 In.pbe-dn-rrkjus_psl.1.0.0.UPF
O 15.99 O.pbe-n-rrkjus_psl.1.0.0.UPF
Y 88.90 Y.pbe-spn-rrkjus_psl.1.0.0.UPF

CELL_PARAMETERS {angstrom}
6.69979000 0.00000000 0.00000000
0.00000000 9.47494000 0.00000000
0.00000000 0.00000000 27.10620000

ATOMIC_POSITIONS {angstrom}
Y 0.00000000 0.00000000 -3.5530807000000024 0 0 0
Y 3.34989500 2.36873500 -1.1842698800000022 0 0 0
Y 3.34989500 7.10620500 -1.1842698800000022 0 0 0
Y 0.00000000 4.73747000 -3.5530807000000024 0 0 0
Y 0.00000000 4.77830699 1.15607943
Y 3.34989500 7.10620500 3.70894135
Y 3.34989500 2.36873500 3.57178397
Y 0.00000000 9.43410301 1.15607943
In 0.00000000 7.10620500 -1.1842698800000022 0 0 0
In 3.34989500 0.00000000 -3.5530807000000024 0 0 0
In 0.00000000 2.36873500 -1.1842698800000022 0 0 0
In 3.34989500 4.73747000 -3.5530807000000024 0 0 0
In 0.00000000 2.36873500 3.58018690
In 3.34989500 4.71482489 1.20080466
In 0.00000000 7.10620500 3.55904406
In 3.34989500 0.02264511 1.20080466
Cu 1.67494750 0.00000000 -1.1842698800000022 0 0 0
Cu 5.02484250 4.73747000 -1.1842698800000022 0 0 0
Cu 5.02484250 0.00000000 -1.1842698800000022 0 0 0
Cu 1.67494750 4.73747000 -1.1842698800000022 0 0 0
Cu 5.02484250 7.10620500 -3.5530807000000024 0 0 0
Cu 1.67494750 2.36873500 -3.5530807000000024 0 0 0
Cu 1.67494750 7.10620500 -3.5530807000000024 0 0 0
Cu 5.02484250 2.36873500 -3.5530807000000024 0 0 0
Cu 1.55388229 4.74893468 3.54494884
Cu 5.14597470 9.46357007 3.54494884
Cu 5.14590771 4.74893468 3.54494884
Cu 1.55381530 9.46347532 3.54494884
Cu 5.04788978 2.36873500 1.19240174
Cu 1.81591108 7.10620500 1.27670202
Cu 1.65190022 2.36873500 1.19240174
Cu 4.88387892 7.10620500 1.27670202
C 3.34989500 2.36873500 6.06690968
O 3.34989500 2.36873500 7.21295982
