&CONTROL
calculation = 'relax'
prefix = 'scf'
pseudo_dir = '/vol0004/mdt0/data/hp150275/u10028/POT_KKJUS'
outdir = './data'
tprnfor = .true.
nstep = 50
disk_io = 'non'
/
&SYSTEM
ibrav = 0
ecutwfc = 50.0
ecutrho = 400
occupations = 'smearing'
smearing = 'mp'
degauss = 0.01
assume_isolated = 'esm'
esm_bc = 'bc1'
input_dft = 'BEEF-VDW'
nosym = .true.
nspin = 1
ntyp = 3
nat = 33
/
&ELECTRONS
electron_maxstep = 200
mixing_beta = 0.1
conv_thr = 1e-06
/
&IONS
ion_dynamics = 'bfgs'
upscale = 1.0
/
&CELL
/

K_POINTS {automatic}
8 6 1 0 0 0

ATOMIC_SPECIES
Bi 208.9 Bi.pbe-dn-rrkjus_psl.1.0.0.UPF
C 12.01 C.pbe-n-rrkjus_psl.1.0.0.UPF
K 39.09 K.pbe-spn-rrkjus_psl.1.0.0.UPF

CELL_PARAMETERS {angstrom}
8.83903000 0.00000000 0.00000000
0.00000000 12.50030000 0.00000000
0.00000000 0.00000000 29.37520000

ATOMIC_POSITIONS {angstrom}
K 2.20975750 0.00000000 -1.5624668899999996 0 0 0
K 6.62927250 6.25015000 -1.5624668899999996 0 0 0
K 6.62927250 0.00000000 -1.5624668899999996 0 0 0
K 2.20975750 6.25015000 -1.5624668899999996 0 0 0
K 6.62927250 9.37522500 -4.68769442 0 0 0
K 2.20975750 3.12507500 -4.68769442 0 0 0
K 2.20975750 9.37522500 -4.68769442 0 0 0
K 6.62927250 3.12507500 -4.68769442 0 0 0
K 0.00000000 9.37522500 -1.5624668899999996 0 0 0
K 4.41951500 0.00000000 -4.68769442 0 0 0
K 0.00000000 3.12507500 -1.5624668899999996 0 0 0
K 4.41951500 6.25015000 -4.68769442 0 0 0
K 2.42684408 6.25015000 5.04519060
K 6.37453166 0.00000000 5.44351831
K 6.41218592 6.25015000 5.04519060
K 2.46449834 0.00000000 5.44351831
K 6.61380420 3.19870177 1.61504850
K 2.22522580 9.30159823 1.61504850
K 2.22522580 3.19870177 1.61504850
K 6.61380420 9.30147323 1.61504850
K 0.00000000 2.87631903 4.64304411
K 4.41951500 6.25015000 1.70111783
K 0.00000000 9.62398097 4.64304411
K 4.41951500 0.00000000 2.05949527
Bi 0.00000000 0.00000000 -4.68769442 0 0 0
Bi 4.41951500 3.12507500 -1.5624668899999996 0 0 0
Bi 4.41951500 9.37522500 -1.5624668899999996 0 0 0
Bi 0.00000000 6.25015000 -4.68769442 0 0 0
Bi 0.00000000 6.25015000 1.86415019
Bi 4.41951500 9.42860128 4.51114946
Bi 4.41951500 3.07157372 4.51114946
Bi 0.00000000 0.00000000 1.67996769
C 0.00000000 0.00000000 3.86283880
