&CONTROL
calculation = 'relax'
prefix = 'scf'
pseudo_dir = '/vol0403/data/hp230205/u10028/POT_HYBRID_KKJUS_GBRV'
outdir = './data'
tprnfor = .true.
nstep = 50
disk_io = 'non'
/
&SYSTEM
ibrav = 0
ecutwfc = 50.0
ecutrho = 400
occupations = 'smearing'
smearing = 'mp'
degauss = 0.01
assume_isolated = 'esm'
esm_bc = 'bc1'
input_dft = 'BEEF-VDW'
nosym = .true.
nspin = 1
ntyp = 6
nat = 34
/
&ELECTRONS
electron_maxstep = 200
mixing_beta = 0.1
conv_thr = 1e-06
/
&IONS
ion_dynamics = 'bfgs'
upscale = 1.0
/
&CELL
/

K_POINTS {automatic}
6 6 1 0 0 0

ATOMIC_SPECIES
Ag 107.8 Ag.pbe-n-rrkjus_psl.1.0.0.UPF
Al 26.98 Al.pbe-nl-rrkjus_psl.1.0.0.UPF
C 12.01 C.pbe-n-rrkjus_psl.1.0.0.UPF
Li 6.941 Li.pbe-sl-rrkjus_psl.1.0.0.UPF
Mg 24.30 Mg.pbe-spnl-rrkjus_psl.1.0.0.UPF
O 15.99 O.pbe-n-rrkjus_psl.1.0.0.UPF


CELL_PARAMETERS {angstrom}
6.43596000 0.00000000 0.00000000
0.00000000 9.10182000 0.00000000
0.00000000 0.00000000 26.82640000

ATOMIC_POSITIONS {angstrom}
Li 0.00000000 2.27545500 -1.1377076200000005 0 0 0
Li 0.00000000 6.82636500 -1.1377076200000005 0 0 0
Li 3.21798000 4.55091000 -3.4131228699999987 0 0 0
Li 3.21798000 0.00000000 -3.4131228699999987 0 0 0
Li 0.40411393 6.82636500 4.41079669
Li 0.40636651 2.27545500 4.44406142
Li 3.29469664 0.00145629 1.19887182
Li 3.29469664 4.54936269 1.19914008
Mg 4.82697000 0.00000000 -1.1377076200000005 0 0 0
Mg 4.82697000 4.55091000 -1.1377076200000005 0 0 0
Mg 1.60899000 2.27545500 -3.4131228699999987 0 0 0
Mg 1.60899000 6.82636500 -3.4131228699999987 0 0 0
Mg 5.01644466 4.56073997 3.53732910
Mg 5.01689518 9.09171698 3.53732910
Mg 1.57693892 6.82645602 1.28659414
Mg 1.57288426 2.27545500 1.28981331
Al 1.60899000 0.00000000 -1.1377076200000005 0 0 0
Al 1.60899000 4.55091000 -1.1377076200000005 0 0 0
Al 4.82697000 2.27545500 -3.4131228699999987 0 0 0
Al 4.82697000 6.82636500 -3.4131228699999987 0 0 0
Al 1.67347832 4.55354953 3.45819122
Al 1.67354268 9.09918047 3.45819122
Al 4.90967209 6.82636500 1.31288402
Al 4.91514265 2.27545500 1.32549242
Ag 0.00000000 0.00000000 -3.4131228699999987 0 0 0
Ag 0.00000000 4.55091000 -3.4131228699999987 0 0 0
Ag 3.21798000 6.82636500 -1.1377076200000005 0 0 0
Ag 3.21798000 2.27545500 -1.1377076200000005 0 0 0
Ag 0.02490717 4.55491480 1.06205718
Ag 0.02477845 9.09781520 1.06205718
Ag 3.22724778 2.27545500 3.45899602
Ag 3.23645121 6.82645602 3.46382477
C 6.28844780 2.27545500 6.46274802
O 5.95673842 2.27545500 7.55404598
