&CONTROL
calculation = 'relax'
prefix = 'scf'
pseudo_dir = '/vol0403/data/hp230205/u10028/POT_HYBRID_KKJUS_GBRV'
outdir = './data'
tprnfor = .true.
nstep = 50
disk_io = 'non'
/
&SYSTEM
ibrav = 0
ecutwfc = 50.0
ecutrho = 400
occupations = 'smearing'
smearing = 'mp'
degauss = 0.01
assume_isolated = 'esm'
esm_bc = 'bc1'
input_dft = 'BEEF-VDW'
nosym = .true.
nspin = 1
ntyp = 6
nat = 34
/
&ELECTRONS
electron_maxstep = 200
mixing_beta = 0.1
conv_thr = 1e-06
/
&IONS
ion_dynamics = 'bfgs'
upscale = 1.0
/
&CELL
/

K_POINTS {automatic}
9 6 2 0  0  0

ATOMIC_SPECIES
Ag 107.8 Ag.pbe-n-rrkjus_psl.1.0.0.UPF
Al 26.98 Al.pbe-nl-rrkjus_psl.1.0.0.UPF
C 12.01 C.pbe-n-rrkjus_psl.1.0.0.UPF
Li 6.941 Li.pbe-sl-rrkjus_psl.1.0.0.UPF
Mg 24.30 Mg.pbe-spnl-rrkjus_psl.1.0.0.UPF
O 15.99 O.pbe-n-rrkjus_psl.1.0.0.UPF


CELL_PARAMETERS {angstrom}
6.43596000 0.00000000 0.00000000
0.00000000 9.10182000 0.00000000
0.00000000 0.00000000 26.82640000

ATOMIC_POSITIONS {angstrom}
Li 0.00000000 2.27545500 -1.1377076200000005 0 0 0
Li 0.00000000 6.82636500 -1.1377076200000005 0 0 0
Li 3.21798000 4.55091000 -3.4131228699999987 0 0 0
Li 3.21798000 0.00000000 -3.4131228699999987 0 0 0
Li 0.39838592 6.82636500 4.42742906
Li 0.40501496 2.27545500 4.45532851
Li 3.29134994 0.00072815 1.20101793
Li 3.29134994 4.55018185 1.20101793
Mg 4.82697000 0.00000000 -1.1377076200000005 0 0 0
Mg 4.82697000 4.55091000 -1.1377076200000005 0 0 0
Mg 1.60899000 2.27545500 -3.4131228699999987 0 0 0
Mg 1.60899000 6.82636500 -3.4131228699999987 0 0 0
Mg 5.01843981 4.55764535 3.54135306
Mg 5.01895469 9.09462956 3.54028001
Mg 1.57809739 6.82645602 1.28927678
Mg 1.57281990 2.27545500 1.29115463
Al 1.60899000 0.00000000 -1.1377076200000005 0 0 0
Al 1.60899000 4.55091000 -1.1377076200000005 0 0 0
Al 4.82697000 2.27545500 -3.4131228699999987 0 0 0
Al 4.82697000 6.82636500 -3.4131228699999987 0 0 0
Al 1.65925485 4.55373156 3.46087386
Al 1.65938357 9.09899844 3.46087386
Al 4.90857797 6.82627398 1.32146846
Al 4.91314750 2.27554602 1.33434514
Ag 0.00000000 0.00000000 -3.4131228699999987 0 0 0
Ag 0.00000000 4.55091000 -3.4131228699999987 0 0 0
Ag 3.21798000 6.82636500 -1.1377076200000005 0 0 0
Ag 3.21798000 2.27545500 -1.1377076200000005 0 0 0
Ag 0.02252586 4.55336749 1.05937454
Ag 0.02226842 9.09954455 1.05937454
Ag 3.22763394 2.27518195 3.46650741
Ag 3.23143116 6.82682009 3.47160442
C 6.29250245 2.27545500 6.47079594
O 5.95603046 2.27545500 7.56075258
