&CONTROL
calculation = 'relax'
prefix = 'scf'
pseudo_dir = '/vol0004/mdt0/data/hp150275/u10028/POT_HYBRID_KKJUS_GBRV'
outdir = './data'
tprnfor = .true.
nstep = 50
disk_io = 'non'
/
&SYSTEM
ibrav = 0
ecutwfc = 50.0
ecutrho = 400
occupations = 'smearing'
smearing = 'mp'
degauss = 0.01
assume_isolated = 'esm'
esm_bc = 'bc1'
input_dft = 'BEEF-VDW'
nosym = .true.
nspin = 2
ntyp = 4
nat = 34
starting_magnetization(1) = 0.0
starting_magnetization(2) = 0.01
starting_magnetization(3) = 0.0
starting_magnetization(4) = 0.0
/
&ELECTRONS
electron_maxstep = 200
mixing_beta = 0.1
conv_thr = 1e-06
/
&IONS
ion_dynamics = 'bfgs'
upscale = 1.0
/
&CELL
/

K_POINTS {automatic}
7 7 2 0  0  0

ATOMIC_SPECIES
C 12.01 C.pbe-n-rrkjus_psl.1.0.0.UPF
Ni 58.69 ni_pbe_v1.4.uspp.F.UPF
O 15.99 O.pbe-n-rrkjus_psl.1.0.0.UPF
Si 28.08 Si.pbe-nl-rrkjus_psl.1.0.0.UPF

CELL_PARAMETERS {angstrom}
7.02942000 0.00000000 0.00000000
-0.00000000 7.02942000 0.00000000
0.00000000 0.00000000 25.27210000

ATOMIC_POSITIONS {angstrom}
Si 0.00000000 0.00000000 2.63613275
Si 0.00000000 0.00000000 24.39338908
Si 0.00000000 3.51471000 2.63613275
Si 0.00000000 3.51471000 24.39338908
Si 3.51471000 -0.00000000 2.63613275
Si 3.51471000 0.00000000 24.39338908
Si 3.51471000 3.51471000 2.63613275
Si 3.51471000 3.51471000 24.39338908
Ni 0.00000000 1.75735500 0.87871092
Ni 1.75735500 -0.00000000 0.87871092
Ni 1.75735500 1.75735500 2.63613275
Ni 0.00000000 1.75735500 22.63596725
Ni 1.75735500 0.00000000 22.63596725
Ni 1.75735500 1.75735500 24.39338908
Ni 0.00000000 5.27206500 0.87871092
Ni 1.75735500 3.51471000 0.87871092
Ni 1.75735500 5.27206500 2.63613275
Ni 0.00000000 5.27206500 22.63596725
Ni 1.75735500 3.51471000 22.63596725
Ni 1.75735500 5.27206500 24.39338908
Ni 3.51471000 1.75735500 0.87871092
Ni 5.27206500 -0.00000000 0.87871092
Ni 5.27206500 1.75735500 2.63613275
Ni 3.51471000 1.75735500 22.63596725
Ni 5.27206500 0.00000000 22.63596725
Ni 5.27206500 1.75735500 24.39338908
Ni 3.51471000 5.27206500 0.87871092
Ni 5.27206500 3.51471000 0.87871092
Ni 5.27206500 5.27206500 2.63613275
Ni 3.51471000 5.27206500 22.63596725
Ni 5.27206500 3.51471000 22.63596725
Ni 5.27206500 5.27206500 24.39338908
C 0.00000000 0.00000000 4.53608923
O 0.00000000 0.00000000 5.68596978
