&CONTROL
calculation = 'relax'
prefix = 'scf'
pseudo_dir = '/vol0004/mdt0/data/hp150275/u10028/POT_KKJUS'
outdir = './data'
tprnfor = .true.
nstep = 50
disk_io = 'non'
/
&SYSTEM
ibrav = 0
ecutwfc = 50.0
ecutrho = 400
occupations = 'smearing'
smearing = 'mp'
degauss = 0.01
assume_isolated = 'esm'
esm_bc = 'bc1'
input_dft = 'BEEF-VDW'
nosym = .true.
nspin = 1
ntyp = 4
nat = 18
/
&ELECTRONS
electron_maxstep = 200
mixing_beta = 0.1
conv_thr = 1e-06
/
&IONS
ion_dynamics = 'bfgs'
upscale = 1.0
/
&CELL
/

K_POINTS {automatic}
8 8 1 0 0 0

ATOMIC_SPECIES
Au 196.9 Au.pbe-n-rrkjus_psl.1.0.0.UPF
C 12.01 C.pbe-n-rrkjus_psl.1.0.0.UPF
Mg 24.30 Mg.pbe-spnl-rrkjus_psl.1.0.0.UPF
O 15.99 O.pbe-n-rrkjus_psl.1.0.0.UPF

CELL_PARAMETERS {angstrom}
6.67495000 0.00000000 0.00000000
0.00000000 6.67495000 0.00000000
0.00000000 0.00000000 25.00620000

ATOMIC_POSITIONS {angstrom}
Mg 1.66873750 1.66873750 -0.18329544999999925 0 0 0
Mg 1.67401071 1.67381046 3.03250187
Mg 1.66873750 5.00621250 -0.18329544999999925 0 0 0
Mg 1.67507870 5.00060554 3.06300944
Mg 5.00621250 1.66873750 -0.18329544999999925 0 0 0
Mg 5.00154003 1.67387721 3.05775814
Mg 5.00621250 5.00621250 -0.18329544999999925 0 0 0
Mg 5.00047204 5.00047204 3.08476483
Au 0.00000000 0.00000000 -1.8519591700000007 0 0 0
Au 6.66767430 6.66553832 1.59264488
Au 0.00000000 3.33747500 -1.8519591700000007 0 0 0
Au 6.66774105 3.34675318 1.58489296
Au 3.33747500 0.00000000 -1.8519591700000007 0 0 0
Au 3.34461720 6.66593882 1.58514302
Au 3.33747500 3.33747500 -1.8519591700000007 0 0 0
Au 3.34361595 3.34555169 1.57714103
C 1.67521220 1.67541245 5.25455281
O 1.67114048 1.67147423 6.40558819
