&CONTROL
calculation = 'relax'
prefix = 'scf'
pseudo_dir = '/vol0004/mdt0/data/hp150275/u10028/POT_KKJUS'
outdir = './data'
tprnfor = .true.
nstep = 50
disk_io = 'non'
/
&SYSTEM
ibrav = 0
ecutwfc = 50.0
ecutrho = 400
occupations = 'smearing'
smearing = 'mp'
degauss = 0.01
assume_isolated = 'esm'
esm_bc = 'bc1'
input_dft = 'BEEF-VDW'
nosym = .true.
nspin = 1
ntyp = 2
nat = 17
/
&ELECTRONS
electron_maxstep = 200
mixing_beta = 0.1
conv_thr = 1e-06
/
&IONS
ion_dynamics = 'bfgs'
upscale = 1.0
/
&CELL
/

K_POINTS {automatic}
8 8 1 0 0 0

ATOMIC_SPECIES
C 12.01 C.pbe-n-rrkjus_psl.1.0.0.UPF
Pb 207.2 Pb.pbe-dn-rrkjus_psl.1.0.0.UPF

CELL_PARAMETERS {angstrom}
8.09136000 0.00000000 0.00000000
0.00000000 8.09136000 0.00000000
0.00000000 0.00000000 26.06850000

ATOMIC_POSITIONS {angstrom}
Pb 0.00000000 0.00000000 -3.0343733999999998 0 0 0
Pb 2.02284000 2.02284000 -1.0114577999999987 0 0 0
Pb 0.00000000 0.00000000 1.04508617
Pb 1.68235557 1.68235557 3.41158459
Pb 0.00000000 4.04568000 -3.0343733999999998 0 0 0
Pb 2.02284000 6.06852000 -1.0114577999999987 0 0 0
Pb 0.00000000 4.04568000 1.04586822
Pb 1.68235557 6.40884260 3.41158459
Pb 4.04568000 0.00000000 -3.0343733999999998 0 0 0
Pb 6.06852000 2.02284000 -1.0114577999999987 0 0 0
Pb 4.04568000 0.00000000 1.04586822
Pb 6.40900443 1.68243648 3.41158459
Pb 4.04568000 4.04568000 -3.0343733999999998 0 0 0
Pb 6.06852000 6.06852000 -1.0114577999999987 0 0 0
Pb 4.04568000 4.04568000 0.79769610
Pb 6.40892352 6.40892352 3.41158459
C 0.00000000 8.09127909 3.86230896
