&CONTROL
calculation = 'relax'
prefix = 'scf'
pseudo_dir = '/vol0403/data/hp230205/u10028/POT_HYBRID_KKJUS_GBRV'
outdir = './data'
tprnfor = .true.
nstep = 70
disk_io = 'non'
/
&SYSTEM
ibrav = 0
ecutwfc = 50.0
ecutrho = 400
occupations = 'smearing'
smearing = 'mp'
degauss = 0.01
assume_isolated = 'esm'
esm_bc = 'bc1'
input_dft = 'BEEF-VDW'
nosym = .true.
nspin = 1
ntyp = 6
nat = 34
/
&ELECTRONS
electron_maxstep = 200
mixing_beta = 0.1
conv_thr = 1e-06
/
&IONS
ion_dynamics = 'bfgs'
upscale = 1.0
/
&CELL
/

K_POINTS {automatic}
9 6 2 0  0  0

ATOMIC_SPECIES
C 12.01 C.pbe-n-rrkjus_psl.1.0.0.UPF
Cu 63.54 Cu.pbe-dn-rrkjus_psl.1.0.0.UPF
Li 6.941 Li.pbe-sl-rrkjus_psl.1.0.0.UPF
O 15.99 O.pbe-n-rrkjus_psl.1.0.0.UPF
Pb 207.2 Pb.pbe-dn-rrkjus_psl.1.0.0.UPF
Pd 106.4 Pd.pbe-n-rrkjus_psl.1.0.0.UPF


CELL_PARAMETERS {angstrom}
6.46272000 0.00000000 0.00000000
-0.00000000 9.13966000 0.00000000
0.00000000 0.00000000 26.85470000

ATOMIC_POSITIONS {angstrom}
Li 0.00000000 2.28491500 -1.1423989399999996 0 0 0
Li 0.00000000 6.85474500 -1.1423989399999996 0 0 0
Li 3.23136000 4.56983000 -3.4274653599999994 0 0 0
Li 3.23136000 0.00000000 -3.4274653599999994 0 0 0
Li 0.20383419 6.85474500 3.63370946
Li 0.18082691 2.28491500 3.70568005
Li 3.36067903 0.00831709 1.16683672
Li 3.36074365 4.56142151 1.16683672
Cu 0.00000000 0.00000000 -3.4274653599999994 0 0 0
Cu 0.00000000 4.56983000 -3.4274653599999994 0 0 0
Cu 3.23136000 6.85474500 -1.1423989399999996 0 0 0
Cu 3.23136000 2.28491500 -1.1423989399999996 0 0 0
Cu 6.26463763 4.57896966 1.34327209
Cu 6.26470226 9.13052034 1.34327209
Cu 3.28687476 2.28491500 3.28244998
Cu 3.23995542 6.85474500 3.28916366
Pd 1.61568000 0.00000000 -1.1423989399999996 0 0 0
Pd 1.61568000 4.56983000 -1.1423989399999996 0 0 0
Pd 4.84704000 2.28491500 -3.4274653599999994 0 0 0
Pd 4.84704000 6.85474500 -3.4274653599999994 0 0 0
Pd 1.78603730 4.57321167 3.10789443
Pd 1.78597267 9.13627833 3.10789443
Pd 4.86558801 6.85474500 1.14750133
Pd 4.90585075 2.28491500 1.15367791
Pb 4.84704000 0.00000000 -1.1423989399999996 0 0 0
Pb 4.84704000 4.56983000 -1.1423989399999996 0 0 0
Pb 1.61568000 2.28491500 -3.4274653599999994 0 0 0
Pb 1.61568000 6.85474500 -3.4274653599999994 0 0 0
Pb 4.70712211 4.58436206 3.85338090
Pb 4.70718674 9.12512794 3.85338090
Pb 1.53987229 6.85474500 1.08868954
Pb 1.52184131 2.28491500 1.12118373
C 0.20822884 2.28491500 5.82720135
O 0.21604873 2.28482360 6.96772046
