&CONTROL
calculation = 'relax'
prefix = 'scf'
pseudo_dir = '/vol0004/mdt0/data/hp150275/u10028/POT_KKJUS'
outdir = './data'
tprnfor = .true.
nstep = 50
disk_io = 'non'
/
&SYSTEM
ibrav = 0
ecutwfc = 50.0
ecutrho = 400
occupations = 'smearing'
smearing = 'mp'
degauss = 0.01
assume_isolated = 'esm'
esm_bc = 'bc1'
input_dft = 'BEEF-VDW'
nosym = .true.
nspin = 1
ntyp = 3
nat = 33
/
&ELECTRONS
electron_maxstep = 200
mixing_beta = 0.1
conv_thr = 1e-06
/
&IONS
ion_dynamics = 'bfgs'
upscale = 1.0
/
&CELL
/

K_POINTS {automatic}
8 6 1 0 0 0

ATOMIC_SPECIES
C 12.01 C.pbe-n-rrkjus_psl.1.0.0.UPF
Hf 178.4 Hf.pbe-spn-rrkjus_psl.1.0.0.UPF
Ru 101.0 Ru.pbe-spn-rrkjus_psl.1.0.0.UPF

CELL_PARAMETERS {angstrom}
6.47981000 0.00000000 0.00000000
0.00000000 9.16384000 0.00000000
0.00000000 0.00000000 26.87290000

ATOMIC_POSITIONS {angstrom}
Hf 0.00000000 0.00000000 -3.436506450000003 0 0 0
Hf 0.00000000 2.29096000 -1.1455917299999996 0 0 0
Hf 0.00000000 0.00000000 1.13215528
Hf 0.00000000 2.33989491 3.53459254
Hf 0.00000000 4.58192000 -3.436506450000003 0 0 0
Hf 0.00000000 6.87288000 -1.1455917299999996 0 0 0
Hf 0.00000000 4.58192000 1.19665024
Hf 0.00000000 6.82394509 3.53459254
Hf 3.23990500 0.00000000 -3.436506450000003 0 0 0
Hf 3.23990500 2.29096000 -1.1455917299999996 0 0 0
Hf 3.23990500 0.00000000 1.11925629
Hf 3.23990500 2.31982610 3.46230444
Hf 3.23990500 4.58192000 -3.436506450000003 0 0 0
Hf 3.23990500 6.87288000 -1.1455917299999996 0 0 0
Hf 3.23990500 4.58192000 1.17300209
Hf 3.23990500 6.84401390 3.46230444
Ru 1.61995250 2.29096000 -3.436506450000003 0 0 0
Ru 1.61995250 0.00000000 -1.1455917299999996 0 0 0
Ru 1.63038499 2.26713402 1.17112098
Ru 1.55437682 0.00000000 3.35158809
Ru 1.61995250 6.87288000 -3.436506450000003 0 0 0
Ru 1.61995250 4.58192000 -1.1455917299999996 0 0 0
Ru 1.63038499 6.89670598 1.17112098
Ru 1.62623792 4.58192000 3.28951169
Ru 4.85985750 2.29096000 -3.436506450000003 0 0 0
Ru 4.85985750 0.00000000 -1.1455917299999996 0 0 0
Ru 4.84942501 2.26713402 1.17112098
Ru 4.92543318 0.00000000 3.35158809
Ru 4.85985750 6.87288000 -3.436506450000003 0 0 0
Ru 4.85985750 4.58192000 -1.1455917299999996 0 0 0
Ru 4.84942501 6.89670598 1.17112098
Ru 4.85357208 4.58192000 3.28951169
C 0.00000000 0.00000000 4.46950073
