&CONTROL
calculation = 'relax'
prefix = 'scf'
pseudo_dir = '/vol0403/data/hp230205/u10028/POT_HYBRID_KKJUS_GBRV'
outdir = './data'
tprnfor = .true.
nstep = 50
disk_io = 'non'
/
&SYSTEM
ibrav = 0
ecutwfc = 50.0
ecutrho = 400
occupations = 'smearing'
smearing = 'mp'
degauss = 0.01
assume_isolated = 'esm'
esm_bc = 'bc1'
input_dft = 'BEEF-VDW'
nosym = .true.
nspin = 1
ntyp = 6
nat = 18
/
&ELECTRONS
electron_maxstep = 200
mixing_beta = 0.1
conv_thr = 1e-06
/
&IONS
ion_dynamics = 'bfgs'
upscale = 1.0
/
&CELL
/

K_POINTS {automatic}
8 8 1 0 0 0

ATOMIC_SPECIES
Ag 107.8 Ag.pbe-n-rrkjus_psl.1.0.0.UPF
C 12.01 C.pbe-n-rrkjus_psl.1.0.0.UPF
In 114.8 In.pbe-dn-rrkjus_psl.1.0.0.UPF
Li 6.941 Li.pbe-sl-rrkjus_psl.1.0.0.UPF
O 15.99 O.pbe-n-rrkjus_psl.1.0.0.UPF
Y 88.90 Y.pbe-spn-rrkjus_psl.1.0.0.UPF


CELL_PARAMETERS {angstrom}
6.90709000 0.00000000 0.00000000
0.00000000 6.90709000 0.00000000
0.00000000 0.00000000 25.18030000

ATOMIC_POSITIONS {angstrom}
Li 0.00000000 3.45354500 -2.5900456599999977 0 0 0
Li 6.90377460 6.90377460 0.96188746
Li 3.45686040 3.45686040 0.96188746
Li 3.45354500 0.00000000 -2.5900456599999977 0 0 0
Y 5.18031750 1.72677250 -0.8634324899999974 0 0 0
Y 5.18031750 5.18045564 2.81943819
Y 1.72677250 1.72670343 2.83454637
Y 1.72677250 5.18031750 -0.8634324899999974 0 0 0
In 1.72677250 1.72677250 -0.8634324899999974 0 0 0
In 1.72677250 5.18024843 2.70083898
In 5.18038657 1.72684157 2.70134258
In 5.18031750 5.18031750 -0.8634324899999974 0 0 0
Ag 0.00000000 0.00000000 -2.5900456599999977 0 0 0
Ag 6.89900870 3.46169537 0.93217471
Ag 3.46162630 6.89900870 0.93217471
Ag 3.45354500 3.45354500 -2.5900456599999977 0 0 0
C 1.72670343 1.72663436 5.31933838
O 1.72663436 1.72663436 6.46756006
