&CONTROL
calculation = 'relax'
prefix = 'scf'
pseudo_dir = '/vol0004/mdt0/data/hp150275/u10028/POT_HYBRID_KKJUS_GBRV'
outdir = './data'
tprnfor = .true.
nstep = 50
disk_io = 'non'
/
&SYSTEM
ibrav = 0
ecutwfc = 50.0
ecutrho = 400
occupations = 'smearing'
smearing = 'mp'
degauss = 0.01
assume_isolated = 'esm'
esm_bc = 'bc1'
input_dft = 'BEEF-VDW'
nosym = .true.
nspin = 2
ntyp = 5
nat = 34
starting_magnetization(1) = 0.0
starting_magnetization(2) = 0.0
starting_magnetization(3) = 0.1
starting_magnetization(4) = 0.0
starting_magnetization(5) = 0.0
/
&ELECTRONS
electron_maxstep = 300
mixing_beta = 0.1
conv_thr = 1e-06
/
&IONS
ion_dynamics = 'bfgs'
upscale = 1.0
/
&CELL
/

K_POINTS {automatic}
9 6 2 0  0  0

ATOMIC_SPECIES
C 12.01 C.pbe-n-rrkjus_psl.1.0.0.UPF
Ga 69.72 Ga.pbe-dnl-rrkjus_psl.1.0.0.UPF
Mn 54.93 mn_pbe_v1.5.uspp.F.UPF
O 15.99 O.pbe-n-rrkjus_psl.1.0.0.UPF
V 50.94 V.pbe-spnl-rrkjus_psl.1.0.0.UPF

CELL_PARAMETERS {angstrom}
5.83886000 0.00000000 0.00000000
0.00000000 8.25739000 0.00000000
0.00000000 0.00000000 26.19300000

ATOMIC_POSITIONS {angstrom}
Mn 1.45971500 0.00000000 -1.03226613 0 0 0
Mn 4.37914500 4.12869500 -1.03226613 0 0 0
Mn 4.37914500 0.00000000 -1.03226613 0 0 0
Mn 1.45971500 4.12869500 -1.03226613 0 0 0
Mn 4.37914500 6.19304250 -3.096536460000003 0 0 0
Mn 1.45971500 2.06434750 -3.096536460000003 0 0 0
Mn 1.45971500 6.19304250 -3.096536460000003 0 0 0
Mn 4.37914500 2.06434750 -3.096536460000003 0 0 0
Mn 1.50023669 4.12514432 3.27988746
Mn 4.33856492 0.00355068 3.27962553
Mn 4.33862331 4.12514432 3.27988746
Mn 1.50029508 0.00355068 3.27962553
Mn 4.40717153 2.06434750 1.02047928
Mn 1.45165737 6.19304250 1.05505404
Mn 1.43168847 2.06434750 1.02047928
Mn 4.38720263 6.19304250 1.05505404
V 0.00000000 0.00000000 -3.096536460000003 0 0 0
V 2.91943000 2.06434750 -1.03226613 0 0 0
V 2.91943000 6.19304250 -1.03226613 0 0 0
V 0.00000000 4.12869500 -3.096536460000003 0 0 0
V 0.00000000 4.13042905 1.10351109
V 2.91943000 6.19304250 2.97552480
V 2.91943000 2.06434750 2.98050147
V 0.00000000 8.25565595 1.10351109
Ga 0.00000000 6.19304250 -1.03226613 0 0 0
Ga 2.91943000 0.00000000 -3.096536460000003 0 0 0
Ga 0.00000000 2.06434750 -1.03226613 0 0 0
Ga 2.91943000 4.12869500 -3.096536460000003 0 0 0
Ga 0.00000000 2.06434750 3.18061599
Ga 2.91943000 4.11680436 1.07050791
Ga 0.00000000 6.19304250 3.23352585
Ga 2.91943000 0.01189064 1.07050791
C 2.91943000 2.06434750 4.97483649
O 2.91943000 2.06434750 6.13885341
