&CONTROL
calculation = 'relax'
prefix = 'scf'
pseudo_dir = '/vol0004/mdt0/data/hp150275/u10028/POT_KKJUS'
outdir = './data'
tprnfor = .true.
nstep = 50
disk_io = 'non'
/
&SYSTEM
ibrav = 0
ecutwfc = 50.0
ecutrho = 400
occupations = 'smearing'
smearing = 'mp'
degauss = 0.01
assume_isolated = 'esm'
esm_bc = 'bc1'
input_dft = 'BEEF-VDW'
nosym = .true.
nspin = 1
ntyp = 4
nat = 18
/
&ELECTRONS
electron_maxstep = 200
mixing_beta = 0.1
conv_thr = 1e-06
/
&IONS
ion_dynamics = 'bfgs'
upscale = 1.0
/
&CELL
/

K_POINTS {automatic}
6 8 1 0 0 0

ATOMIC_SPECIES
C 12.01 C.pbe-n-rrkjus_psl.1.0.0.UPF
Na 22.98 Na.pbe-spnl-rrkjus_psl.1.0.0.UPF
O 15.99 O.pbe-n-rrkjus_psl.1.0.0.UPF
Pb 207.2 Pb.pbe-dn-rrkjus_psl.1.0.0.UPF

CELL_PARAMETERS {angstrom}
10.02390000 0.00000000 0.00000000
0.00000000 7.08799000 0.00000000
0.00000000 0.00000000 25.31600000

ATOMIC_POSITIONS {angstrom}
Na 0.00000000 0.00000000 -2.6579268399999982 0 0 0
Na 0.00050120 3.55356379 0.83618748
Na 5.01195000 0.00000000 -2.6579268399999982 0 0 0
Na 5.01104785 3.55370555 0.83593432
Pb 0.00000000 3.54399500 -2.6579268399999982 0 0 0
Pb 2.50597500 5.31599250 -0.8860600000000005 0 0 0
Pb 2.50597500 1.77199750 -0.8860600000000005 0 0 0
Pb 0.00350837 0.00694623 1.08555008
Pb 2.50587476 1.72188541 2.42932336
Pb 2.50567428 5.39332247 2.45337356
Pb 5.01195000 3.54399500 -2.6579268399999982 0 0 0
Pb 7.51792500 5.31599250 -0.8860600000000005 0 0 0
Pb 7.51792500 1.77199750 -0.8860600000000005 0 0 0
Pb 5.00753948 0.00694623 1.08555008
Pb 7.51752404 1.71486830 2.43615868
Pb 7.51762428 5.38751032 2.44122188
C 2.51950727 1.27073485 6.07330840
O 2.50366950 1.96089243 6.97557064
