&CONTROL
calculation = 'relax'
prefix = 'scf'
pseudo_dir = '/vol0403/data/hp230205/u10028/POT_HYBRID_KKJUS_GBRV'
outdir = './data'
tprnfor = .true.
nstep = 50
disk_io = 'non'
/
&SYSTEM
ibrav = 0
ecutwfc = 50.0
ecutrho = 400
occupations = 'smearing'
smearing = 'mp'
degauss = 0.01
assume_isolated = 'esm'
esm_bc = 'bc1'
input_dft = 'BEEF-VDW'
nosym = .true.
nspin = 1
ntyp = 6
nat = 34
/
&ELECTRONS
electron_maxstep = 200
mixing_beta = 0.1
conv_thr = 1e-06
/
&IONS
ion_dynamics = 'bfgs'
upscale = 1.0
/
&CELL
/

K_POINTS {automatic}
6 6 1 0 0 0

ATOMIC_SPECIES
C 12.01 C.pbe-n-rrkjus_psl.1.0.0.UPF
Ge 72.64 Ge.pbe-dn-rrkjus_psl.1.0.0.UPF
Li 6.941 Li.pbe-sl-rrkjus_psl.1.0.0.UPF
O 15.99 O.pbe-n-rrkjus_psl.1.0.0.UPF
Sn 118.7 Sn.pbe-dn-rrkjus_psl.1.0.0.UPF
Y 88.90 Y.pbe-spn-rrkjus_psl.1.0.0.UPF


CELL_PARAMETERS {angstrom}
9.43388000 0.00000000 0.00000000
0.00000000 8.60818000 0.00000000
0.00000000 0.00000000 26.39560000

ATOMIC_POSITIONS {angstrom}
Li 2.35847000 0.00000000 -1.0658543300000005 0 0 0
Li 2.35922471 8.59819451 1.46917910
Li 2.35847000 4.30409000 -1.0658543300000005 0 0 0
Li 2.35554550 4.29462100 3.24217155
Li 7.07541000 0.00000000 -1.0658543300000005 0 0 0
Li 7.07541000 0.00525099 3.09224454
Li 7.07541000 4.30409000 -1.0658543300000005 0 0 0
Li 7.07531566 4.30202404 3.30736868
Y 0.00000000 2.15204500 -1.0658543300000005 0 0 0
Y 0.54169339 1.67119207 3.29865813
Y 0.00000000 6.45613500 -1.0658543300000005 0 0 0
Y 0.51405212 6.90462118 3.28123704
Y 4.71694000 2.15204500 -1.0658543300000005 0 0 0
Y 4.18307673 1.67782036 3.29100341
Y 4.71694000 6.45613500 -1.0658543300000005 0 0 0
Y 4.21081234 6.89764855 3.27437418
Sn 2.35847000 2.15204500 -3.1978269400000023 0 0 0
Sn 2.35818698 2.57944114 0.93809962
Sn 2.35847000 6.45613500 -3.1978269400000023 0 0 0
Sn 2.35818698 6.01513794 0.92727743
Sn 7.07541000 2.15204500 -3.1978269400000023 0 0 0
Sn 7.07625905 2.21600378 1.24428858
Sn 7.07541000 6.45613500 -3.1978269400000023 0 0 0
Sn 7.07607037 6.39432827 1.24930375
Ge 0.00000000 0.00000000 -3.1978269400000023 0 0 0
Ge 9.18425954 0.00456234 1.00250489
Ge 0.00000000 4.30409000 -3.1978269400000023 0 0 0
Ge 9.33746575 4.29703129 1.23109078
Ge 4.71694000 0.00000000 -3.1978269400000023 0 0 0
Ge 4.97052269 0.00456234 0.99960137
Ge 4.71694000 4.30409000 -3.1978269400000023 0 0 0
Ge 4.82212776 4.29737562 1.23636990
C 2.36988499 8.53897023 3.29522670
O 2.32290427 0.07842052 4.65275241
