&CONTROL
calculation = 'relax'
prefix = 'scf'
pseudo_dir = '/vol0004/mdt0/data/hp150275/u10028/POT_KKJUS'
outdir = './data'
tprnfor = .true.
nstep = 50
disk_io = 'non'
/
&SYSTEM
ibrav = 0
ecutwfc = 50.0
ecutrho = 400
occupations = 'smearing'
smearing = 'mp'
degauss = 0.01
assume_isolated = 'esm'
esm_bc = 'bc1'
input_dft = 'BEEF-VDW'
nosym = .true.
nspin = 1
ntyp = 4
nat = 17
/
&ELECTRONS
electron_maxstep = 200
mixing_beta = 0.1
conv_thr = 1e-06
/
&IONS
ion_dynamics = 'bfgs'
upscale = 1.0
/
&CELL
/

K_POINTS {automatic}
8 8 1 0 0 0

ATOMIC_SPECIES
Ag 107.8 Ag.pbe-n-rrkjus_psl.1.0.0.UPF
C 12.01 C.pbe-n-rrkjus_psl.1.0.0.UPF
In 114.8 In.pbe-dn-rrkjus_psl.1.0.0.UPF
Li 6.941 Li.pbe-sl-rrkjus_psl.1.0.0.UPF

CELL_PARAMETERS {angstrom}
6.67495000 0.00000000 0.00000000
0.00000000 6.67495000 0.00000000
0.00000000 0.00000000 25.00620000

ATOMIC_POSITIONS {angstrom}
Li 0.00000000 0.00000000 -0.8344568899999985 0 0 0
Li 3.17400547 0.16807524 2.67466315
Li 0.16807524 3.17400547 2.67466315
Li 3.33747500 3.33747500 -0.8344568899999985 0 0 0
Li 1.67140748 1.67140748 0.74018352
Li 1.66873750 5.00621250 -2.5031206200000007 0 0 0
Li 5.00474401 5.00474401 1.20704927
Li 5.00621250 1.66873750 -2.5031206200000007 0 0 0
In 0.12929378 0.12929378 2.71242251
In 3.21719240 3.21719240 2.71767382
In 3.33747500 0.00000000 -0.8344568899999985 0 0 0
In 0.00000000 3.33747500 -0.8344568899999985 0 0 0
Ag 1.66873750 1.66873750 -2.5031206200000007 0 0 0
Ag 1.66827025 5.00634600 0.86121353
Ag 5.00621250 5.00621250 -2.5031206200000007 0 0 0
Ag 5.00634600 1.66827025 0.86121353
C 1.67561270 1.67561270 2.80469539
