&CONTROL
calculation = 'relax'
prefix = 'scf'
pseudo_dir = '/vol0004/mdt0/data/hp150275/u10028/POT_KKJUS'
outdir = './data'
tprnfor = .true.
nstep = 50
disk_io = 'non'
/
&SYSTEM
ibrav = 0
ecutwfc = 50.0
ecutrho = 400
occupations = 'smearing'
smearing = 'mp'
degauss = 0.01
assume_isolated = 'esm'
esm_bc = 'bc1'
input_dft = 'BEEF-VDW'
nosym = .true.
nspin = 1
ntyp = 3
nat = 33
/
&ELECTRONS
electron_maxstep = 200
mixing_beta = 0.1
conv_thr = 1e-06
/
&IONS
ion_dynamics = 'bfgs'
upscale = 1.0
/
&CELL
/

K_POINTS {automatic}
9 6 2 0  0  0

ATOMIC_SPECIES
C 12.01 C.pbe-n-rrkjus_psl.1.0.0.UPF
Os 190.2 Os.pbe-spn-rrkjus_psl.1.0.0.UPF
Ti 47.86 Ti.pbe-spn-rrkjus_psl.1.0.0.UPF

CELL_PARAMETERS {angstrom}
6.19423000 0.00000000 0.00000000
0.00000000 8.75996000 0.00000000
0.00000000 0.00000000 26.57000000

ATOMIC_POSITIONS {angstrom}
Ti 1.54855750 2.18999000 -3.285114799999999 0 0 0
Ti 1.54855750 0.00000000 -1.0949497000000008 0 0 0
Ti 1.54849556 2.18999000 1.10026370
Ti 1.54868138 4.43832133 3.40786820
Ti 1.54855750 6.56997000 -3.285114799999999 0 0 0
Ti 1.54855750 4.37998000 -1.0949497000000008 0 0 0
Ti 1.54861944 6.56997000 1.14277570
Ti 1.54868138 8.70161867 3.40786820
Ti 4.64567250 2.18999000 -3.285114799999999 0 0 0
Ti 4.64567250 0.00000000 -1.0949497000000008 0 0 0
Ti 4.64511502 2.18999000 1.05323480
Ti 4.64517696 4.39382074 3.32629830
Ti 4.64567250 6.56997000 -3.285114799999999 0 0 0
Ti 4.64567250 4.37998000 -1.0949497000000008 0 0 0
Ti 4.64561056 6.56997000 1.12816220
Ti 4.64517696 8.74611926 3.32629830
Os 0.00000000 0.00000000 -3.285114799999999 0 0 0
Os 0.00000000 2.18999000 -1.0949497000000008 0 0 0
Os 6.18586779 0.01988511 1.10982890
Os 0.02229923 2.18999000 3.21603280
Os 0.00000000 4.37998000 -3.285114799999999 0 0 0
Os 0.00000000 6.56997000 -1.0949497000000008 0 0 0
Os 6.18586779 4.36009489 1.10982890
Os 6.19200008 6.56997000 3.15465610
Os 3.09711500 0.00000000 -3.285114799999999 0 0 0
Os 3.09711500 2.18999000 -1.0949497000000008 0 0 0
Os 3.10498167 0.01979751 1.11009460
Os 3.07301945 2.18999000 3.21682990
Os 3.09711500 4.37998000 -3.285114799999999 0 0 0
Os 3.09711500 6.56997000 -1.0949497000000008 0 0 0
Os 3.10498167 4.36018249 1.11009460
Os 3.09928298 6.56997000 3.15492180
C 1.54626563 2.18999000 4.37368770
