&CONTROL
calculation = 'relax'
prefix = 'scf'
pseudo_dir = '/vol0004/mdt0/data/hp150275/u10028/POT_KKJUS'
outdir = './data'
tprnfor = .true.
nstep = 50
disk_io = 'non'
/
&SYSTEM
ibrav = 0
ecutwfc = 50.0
ecutrho = 400
occupations = 'smearing'
smearing = 'mp'
degauss = 0.01
assume_isolated = 'esm'
esm_bc = 'bc1'
input_dft = 'BEEF-VDW'
nosym = .true.
nspin = 1
ntyp = 2
nat = 16
/
&ELECTRONS
electron_maxstep = 200
mixing_beta = 0.1
conv_thr = 1e-06
/
&IONS
ion_dynamics = 'bfgs'
upscale = 1.0
/
&CELL
/

K_POINTS {automatic}
10 10 2 0  0  0

ATOMIC_SPECIES
Cu 63.54 Cu.pbe-dn-rrkjus_psl.1.0.0.UPF
Zn 65.40 Zn.pbe-dnl-rrkjus_psl.1.0.0.UPF

CELL_PARAMETERS {angstrom}
5.98486000 0.00000000 0.00000000
-0.00000000 5.98486000 0.00000000
0.00000000 0.00000000 24.48860000

ATOMIC_POSITIONS {angstrom}
Zn 1.49621500 1.49621500 -0.7586568300000032 0 0 0
Zn 1.49621500 1.49621500 2.23360521
Zn 1.49621500 4.48864500 -0.7586568300000032 0 0 0
Zn 1.49621500 4.48864500 2.23360521
Zn 4.48864500 1.49621500 -0.7586568300000032 0 0 0
Zn 4.48864500 1.49621500 2.23360521
Zn 4.48864500 4.48864500 -0.7586568300000032 0 0 0
Zn 4.48864500 4.48864500 2.23360521
Cu 0.00000000 0.00000000 -2.2549102900000015 0 0 0
Cu 0.00000000 0.00000000 0.73735175
Cu 0.00000000 2.99243000 -2.2549102900000015 0 0 0
Cu 0.00000000 2.99243000 0.73735175
Cu 2.99243000 0.00000000 -2.2549102900000015 0 0 0
Cu 2.99243000 -0.00000000 0.73735175
Cu 2.99243000 2.99243000 -2.2549102900000015 0 0 0
Cu 2.99243000 2.99243000 0.73735175
