&CONTROL
calculation = 'relax'
prefix = 'scf'
pseudo_dir = '/vol0004/mdt0/data/hp150275/u10028/POT_KKJUS'
outdir = './data'
tprnfor = .true.
nstep = 50
disk_io = 'non'
/
&SYSTEM
ibrav = 0
ecutwfc = 50.0
ecutrho = 400
occupations = 'smearing'
smearing = 'mp'
degauss = 0.01
assume_isolated = 'esm'
esm_bc = 'bc1'
input_dft = 'BEEF-VDW'
nosym = .true.
nspin = 1
ntyp = 4
nat = 18
/
&ELECTRONS
electron_maxstep = 200
mixing_beta = 0.1
conv_thr = 1e-06
/
&IONS
ion_dynamics = 'bfgs'
upscale = 1.0
/
&CELL
/

K_POINTS {automatic}
8 8 1 0 0 0

ATOMIC_SPECIES
C 12.01 C.pbe-n-rrkjus_psl.1.0.0.UPF
O 15.99 O.pbe-n-rrkjus_psl.1.0.0.UPF
Ru 101.0 Ru.pbe-spn-rrkjus_psl.1.0.0.UPF
Sc 44.95 Sc.pbe-spn-rrkjus_psl.1.0.0.UPF

CELL_PARAMETERS {angstrom}
6.43815000 0.00000000 0.00000000
0.00000000 6.43815000 0.00000000
0.00000000 0.00000000 24.82860000

ATOMIC_POSITIONS {angstrom}
Sc 0.00000000 0.00000000 -2.1049687100000014 0 0 0
Sc 6.42540246 6.42495179 1.17836536
Sc 0.00000000 3.21907500 -2.1049687100000014 0 0 0
Sc 6.42514494 3.23227321 1.17861364
Sc 3.21907500 0.00000000 -2.1049687100000014 0 0 0
Sc 3.23175816 6.42482303 1.17861364
Sc 3.21907500 3.21907500 -2.1049687100000014 0 0 0
Sc 3.23214444 3.23240197 1.17886193
Ru 1.60953750 1.60953750 -0.49557886000000195 0 0 0
Ru 1.60947312 1.60953750 2.66584678
Ru 1.60953750 4.82861250 -0.49557886000000195 0 0 0
Ru 1.60960188 4.82867688 2.62214845
Ru 4.82861250 1.60953750 -0.49557886000000195 0 0 0
Ru 4.82861250 1.60973064 2.62190016
Ru 4.82861250 4.82861250 -0.49557886000000195 0 0 0
Ru 4.82854812 4.82848374 2.59880956
C 1.60953750 1.60953750 4.54040608
O 1.60953750 1.60953750 5.70288113
