&CONTROL
calculation = 'relax'
prefix = 'scf'
pseudo_dir = '/vol0004/mdt0/data/hp150275/u10028/POT_KKJUS'
outdir = './data'
tprnfor = .true.
nstep = 50
disk_io = 'non'
/
&SYSTEM
ibrav = 0
ecutwfc = 50.0
ecutrho = 400
occupations = 'smearing'
smearing = 'mp'
degauss = 0.01
assume_isolated = 'esm'
esm_bc = 'bc1'
input_dft = 'BEEF-VDW'
nosym = .true.
nspin = 1
ntyp = 4
nat = 33
/
&ELECTRONS
electron_maxstep = 200
mixing_beta = 0.1
conv_thr = 1e-06
/
&IONS
ion_dynamics = 'bfgs'
upscale = 1.0
/
&CELL
/

K_POINTS {automatic}
8 6 1 0 0 0

ATOMIC_SPECIES
Bi 208.9 Bi.pbe-dn-rrkjus_psl.1.0.0.UPF
C 12.01 C.pbe-n-rrkjus_psl.1.0.0.UPF
Pd 106.4 Pd.pbe-n-rrkjus_psl.1.0.0.UPF
Y 88.90 Y.pbe-spn-rrkjus_psl.1.0.0.UPF

CELL_PARAMETERS {angstrom}
6.99655000 0.00000000 0.00000000
0.00000000 9.89462000 0.00000000
0.00000000 0.00000000 27.42100000

ATOMIC_POSITIONS {angstrom}
Y 0.00000000 0.00000000 -3.7106097200000008 0 0 0
Y 3.49827500 2.47365500 -1.236961309999998 0 0 0
Y 3.49827500 7.42096500 -1.236961309999998 0 0 0
Y 0.00000000 4.94731000 -3.7106097200000008 0 0 0
Y 0.00000000 4.94731000 1.22297660
Y 3.49827500 7.41334614 3.69470554
Y 3.49827500 2.48127386 3.69470554
Y 0.00000000 0.00000000 1.40230994
Bi 0.00000000 7.42096500 -1.236961309999998 0 0 0
Bi 3.49827500 0.00000000 -3.7106097200000008 0 0 0
Bi 0.00000000 2.47365500 -1.236961309999998 0 0 0
Bi 3.49827500 4.94731000 -3.7106097200000008 0 0 0
Bi 0.00000000 2.69648184 3.94889821
Bi 3.49827500 4.94731000 1.09793684
Bi 0.00000000 7.19813816 3.94889821
Bi 3.49827500 0.00000000 1.20570137
Pd 1.74913750 0.00000000 -1.236961309999998 0 0 0
Pd 5.24741250 4.94731000 -1.236961309999998 0 0 0
Pd 5.24741250 0.00000000 -1.236961309999998 0 0 0
Pd 1.74913750 4.94731000 -1.236961309999998 0 0 0
Pd 5.24741250 7.42096500 -3.7106097200000008 0 0 0
Pd 1.74913750 2.47365500 -3.7106097200000008 0 0 0
Pd 1.74913750 7.42096500 -3.7106097200000008 0 0 0
Pd 5.24741250 2.47365500 -3.7106097200000008 0 0 0
Pd 1.91740453 4.94731000 3.49946802
Pd 5.01120897 0.00000000 3.73885335
Pd 5.07914547 4.94731000 3.49946802
Pd 1.98534103 0.00000000 3.73885335
Pd 5.32934210 2.48820009 1.35816213
Pd 1.66720790 7.40641991 1.35816213
Pd 1.66720790 2.48820009 1.35816213
Pd 5.32934210 7.40641991 1.35816213
C 0.00000000 0.00000000 3.93738139
