&CONTROL
calculation = 'relax'
prefix = 'scf'
pseudo_dir = '/vol0004/mdt0/data/hp150275/u10028/POT_KKJUS'
outdir = './data'
tprnfor = .true.
nstep = 50
disk_io = 'non'
/
&SYSTEM
ibrav = 0
ecutwfc = 50.0
ecutrho = 400
occupations = 'smearing'
smearing = 'mp'
degauss = 0.01
assume_isolated = 'esm'
esm_bc = 'bc1'
input_dft = 'BEEF-VDW'
nosym = .true.
nspin = 1
ntyp = 4
nat = 34
/
&ELECTRONS
electron_maxstep = 200
mixing_beta = 0.1
conv_thr = 1e-06
/
&IONS
ion_dynamics = 'bfgs'
upscale = 1.0
/
&CELL
/

K_POINTS {automatic}
9 6 2 0  0  0

ATOMIC_SPECIES
C 12.01 C.pbe-n-rrkjus_psl.1.0.0.UPF
O 15.99 O.pbe-n-rrkjus_psl.1.0.0.UPF
Zn 65.40 Zn.pbe-dnl-rrkjus_psl.1.0.0.UPF
Zr 91.22 Zr.pbe-spn-rrkjus_psl.1.0.0.UPF

CELL_PARAMETERS {angstrom}
6.67495000 0.00000000 0.00000000
0.00000000 9.43980000 0.00000000
0.00000000 0.00000000 27.07990000

ATOMIC_POSITIONS {angstrom}
Zr 1.66873750 2.35995000 -3.5398845299999984 0 0 0
Zr 1.66873750 4.71990000 -1.179871239999997 0 0 0
Zr 1.66820350 2.37259933 1.19828557
Zr 1.67287597 0.00000000 3.48572473
Zr 1.66873750 7.07985000 -3.5398845299999984 0 0 0
Zr 1.66873750 0.00000000 -1.179871239999997 0 0 0
Zr 1.66820350 7.06720067 1.19828557
Zr 1.66953849 4.71990000 3.54692530
Zr 5.00621250 2.35995000 -3.5398845299999984 0 0 0
Zr 5.00621250 4.71990000 -1.179871239999997 0 0 0
Zr 5.00507776 2.35324774 1.22428228
Zr 5.00441026 0.00000000 3.60568868
Zr 5.00621250 7.07985000 -3.5398845299999984 0 0 0
Zr 5.00621250 0.00000000 -1.179871239999997 0 0 0
Zr 5.00507776 7.08655226 1.22428228
Zr 5.00601225 4.71990000 3.45079166
Zn 0.00000000 0.00000000 -3.5398845299999984 0 0 0
Zn 0.00000000 2.35995000 -1.179871239999997 0 0 0
Zn 6.65325641 0.00000000 1.17716325
Zn 0.00854394 2.36079958 3.66418127
Zn 0.00000000 4.71990000 -3.5398845299999984 0 0 0
Zn 0.00000000 7.07985000 -1.179871239999997 0 0 0
Zn 0.00861069 4.71990000 1.17228887
Zn 0.00854394 7.07890602 3.66418127
Zn 3.33747500 0.00000000 -3.5398845299999984 0 0 0
Zn 3.33747500 2.35995000 -1.179871239999997 0 0 0
Zn 3.35669886 0.00000000 1.17445526
Zn 3.33080005 2.36230995 3.66716006
Zn 3.33747500 4.71990000 -3.5398845299999984 0 0 0
Zn 3.33747500 7.07985000 -1.179871239999997 0 0 0
Zn 3.32873082 4.71999440 1.17228887
Zn 3.33080005 7.07749005 3.66743086
C 1.68375614 0.00000000 5.73552282
O 1.68502438 0.00000000 6.89318854
