&CONTROL
calculation = 'relax'
prefix = 'scf'
pseudo_dir = '/vol0004/mdt0/data/hp150275/u10028/POT_HYBRID_KKJUS_GBRV'
outdir = './data'
tprnfor = .true.
nstep = 50
disk_io = 'non'
/
&SYSTEM
ibrav = 0
ecutwfc = 50.0
ecutrho = 400
occupations = 'smearing'
smearing = 'mp'
degauss = 0.01
assume_isolated = 'esm'
esm_bc = 'bc1'
input_dft = 'BEEF-VDW'
nosym = .true.
nspin = 2
ntyp = 5
nat = 34
starting_magnetization(1) = 0.0
starting_magnetization(2) = 0.0
starting_magnetization(3) = 0.1
starting_magnetization(4) = 0.0
starting_magnetization(5) = 0.0
/
&ELECTRONS
electron_maxstep = 200
mixing_beta = 0.1
conv_thr = 1e-06
/
&IONS
ion_dynamics = 'bfgs'
upscale = 1.0
/
&CELL
/

K_POINTS {automatic}
9 6 2 0  0  0

ATOMIC_SPECIES
Al 26.98 Al.pbe-nl-rrkjus_psl.1.0.0.UPF
C 12.01 C.pbe-n-rrkjus_psl.1.0.0.UPF
Co 58.93 co_pbe_v1.2.uspp.F.UPF
Hf 178.4 Hf.pbe-spn-rrkjus_psl.1.0.0.UPF
O 15.99 O.pbe-n-rrkjus_psl.1.0.0.UPF

CELL_PARAMETERS {angstrom}
6.03399000 0.00000000 0.00000000
0.00000000 8.53335000 0.00000000
0.00000000 0.00000000 26.40000000

ATOMIC_POSITIONS {angstrom}
Hf 0.00000000 0.00000000 23.20005600
Hf 3.01699500 2.13333750 25.33344000
Hf 3.01699500 6.40001250 25.33344000
Hf 0.00000000 4.26667500 23.20005600
Hf 0.00000000 4.26667500 1.06656000
Hf 3.01699500 6.40001250 3.19994400
Hf 3.01699500 2.13333750 3.19994400
Hf 0.00000000 0.00000000 1.06656000
Al 0.00000000 6.40001250 25.33344000
Al 3.01699500 0.00000000 23.20005600
Al 0.00000000 2.13333750 25.33344000
Al 3.01699500 4.26667500 23.20005600
Al 0.00000000 2.13333750 3.19994400
Al 3.01699500 4.26667500 1.06656000
Al 0.00000000 6.40001250 3.19994400
Al 3.01699500 0.00000000 1.06656000
Co 1.50849750 0.00000000 25.33344000
Co 4.52549250 4.26667500 25.33344000
Co 4.52549250 0.00000000 25.33344000
Co 1.50849750 4.26667500 25.33344000
Co 4.52549250 6.40001250 23.20005600
Co 1.50849750 2.13333750 23.20005600
Co 1.50849750 6.40001250 23.20005600
Co 4.52549250 2.13333750 23.20005600
Co 1.50849750 4.26667500 3.19994400
Co 4.52549250 0.00000000 3.19994400
Co 4.52549250 4.26667500 3.19994400
Co 1.50849750 0.00000000 3.19994400
Co 4.52549250 2.13333750 1.06656000
Co 1.50849750 6.40001250 1.06656000
Co 1.50849750 2.13333750 1.06656000
Co 4.52549250 6.40001250 1.06656000
C 0.00000000 2.13333750 5.09995200
O 0.00000000 2.13333750 6.24993600
