&CONTROL
calculation = 'relax'
prefix = 'scf'
pseudo_dir = '/vol0004/mdt0/data/hp150275/u10028/POT_KKJUS'
outdir = './data'
tprnfor = .true.
nstep = 50
disk_io = 'non'
/
&SYSTEM
ibrav = 0
ecutwfc = 50.0
ecutrho = 400
occupations = 'smearing'
smearing = 'mp'
degauss = 0.01
assume_isolated = 'esm'
esm_bc = 'bc1'
input_dft = 'BEEF-VDW'
nosym = .true.
nspin = 1
ntyp = 4
nat = 18
/
&ELECTRONS
electron_maxstep = 200
mixing_beta = 0.1
conv_thr = 1e-06
/
&IONS
ion_dynamics = 'bfgs'
upscale = 1.0
/
&CELL
/

K_POINTS {automatic}
6 8 1 0 0 0

ATOMIC_SPECIES
C 12.01 C.pbe-n-rrkjus_psl.1.0.0.UPF
O 15.99 O.pbe-n-rrkjus_psl.1.0.0.UPF
Pt 195.0 Pt.pbe-n-rrkjus_psl.1.0.0.UPF
Sn 118.7 Sn.pbe-dn-rrkjus_psl.1.0.0.UPF

CELL_PARAMETERS {angstrom}
8.18271000 0.00000000 0.00000000
0.00000000 5.78605000 0.00000000
0.00000000 0.00000000 24.33950000

ATOMIC_POSITIONS {angstrom}
Sn 0.00065462 5.78581856 2.11704971
Sn 0.00000000 2.89302500 -0.7233699400000013 0 0 0
Sn 4.09143683 0.00000000 2.16718908
Sn 4.09135500 2.89302500 -0.7233699400000013 0 0 0
Pt 0.00016365 2.89302500 2.21343413
Pt 2.04305903 4.36592189 0.79176394
Pt 2.04305903 1.42018597 0.79176394
Pt 0.00000000 0.00000000 -0.7233699400000013 0 0 0
Pt 2.04567750 1.44651250 -2.1698664200000017 0 0 0
Pt 2.04567750 4.33953750 -2.1698664200000017 0 0 0
Pt 4.09110952 2.89302500 1.97198629
Pt 6.13956914 4.36586403 0.79225073
Pt 6.13956914 1.42024383 0.79225073
Pt 4.09135500 0.00000000 -0.7233699400000013 0 0 0
Pt 6.13703250 1.44651250 -2.1698664200000017 0 0 0
Pt 6.13703250 4.33953750 -2.1698664200000017 0 0 0
C 0.00008183 2.89302500 4.11483587
O 8.18262817 2.89308286 5.27047533
