&CONTROL
calculation = 'relax'
prefix = 'scf'
pseudo_dir = '/vol0004/mdt0/data/hp150275/u10028/POT_KKJUS'
outdir = './data'
tprnfor = .true.
nstep = 50
disk_io = 'non'
/
&SYSTEM
ibrav = 0
ecutwfc = 50.0
ecutrho = 400
occupations = 'smearing'
smearing = 'mp'
degauss = 0.01
assume_isolated = 'esm'
esm_bc = 'bc1'
input_dft = 'BEEF-VDW'
nosym = .true.
nspin = 1
ntyp = 4
nat = 34
/
&ELECTRONS
electron_maxstep = 200
mixing_beta = 0.1
conv_thr = 1e-06
/
&IONS
ion_dynamics = 'bfgs'
upscale = 1.0
/
&CELL
/

K_POINTS {automatic}
6 6 1 0 0 0

ATOMIC_SPECIES
Al 26.98 Al.pbe-nl-rrkjus_psl.1.0.0.UPF
C 12.01 C.pbe-n-rrkjus_psl.1.0.0.UPF
O 15.99 O.pbe-n-rrkjus_psl.1.0.0.UPF
Y 88.90 Y.pbe-spn-rrkjus_psl.1.0.0.UPF

CELL_PARAMETERS {angstrom}
8.49845000 0.00000000 0.00000000
-0.00000000 8.49845000 0.00000000
0.00000000 0.00000000 26.37380000

ATOMIC_POSITIONS {angstrom}
Y 0.00000000 0.00000000 3.18700999
Y 0.00000000 0.00000000 -1.0623366599999997 0 0 0
Y 0.00000000 4.24922500 3.18700999
Y 0.00000000 4.24922500 -1.0623366599999997 0 0 0
Y 4.24922500 -0.00000000 3.18700999
Y 4.24922500 0.00000000 -1.0623366599999997 0 0 0
Y 4.24922500 4.24922500 3.18700999
Y 4.24922500 4.24922500 -1.0623366599999997 0 0 0
Al 0.00000000 2.12461250 1.06233666
Al 2.12461250 -0.00000000 1.06233666
Al 2.12461250 2.12461250 3.18700999
Al 0.00000000 2.12461250 -3.18700999 0 0 0
Al 2.12461250 0.00000000 -3.18700999 0 0 0
Al 2.12461250 2.12461250 -1.0623366599999997 0 0 0
Al 0.00000000 6.37383750 1.06233666
Al 2.12461250 4.24922500 1.06233666
Al 2.12461250 6.37383750 3.18700999
Al 0.00000000 6.37383750 -3.18700999 0 0 0
Al 2.12461250 4.24922500 -3.18700999 0 0 0
Al 2.12461250 6.37383750 -1.0623366599999997 0 0 0
Al 4.24922500 2.12461250 1.06233666
Al 6.37383750 -0.00000000 1.06233666
Al 6.37383750 2.12461250 3.18700999
Al 4.24922500 2.12461250 -3.18700999 0 0 0
Al 6.37383750 0.00000000 -3.18700999 0 0 0
Al 6.37383750 2.12461250 -1.0623366599999997 0 0 0
Al 4.24922500 6.37383750 1.06233666
Al 6.37383750 4.24922500 1.06233666
Al 6.37383750 6.37383750 3.18700999
Al 4.24922500 6.37383750 -3.18700999 0 0 0
Al 6.37383750 4.24922500 -3.18700999 0 0 0
Al 6.37383750 6.37383750 -1.0623366599999997 0 0 0
C 2.12461250 2.12461250 5.08697854
O 2.12461250 2.12461250 6.23687622
