&CONTROL
calculation = 'relax'
prefix = 'scf'
pseudo_dir = '/vol0004/mdt0/data/hp150275/u10028/POT_KKJUS'
outdir = './data'
tprnfor = .true.
nstep = 50
disk_io = 'non'
/
&SYSTEM
ibrav = 0
ecutwfc = 50.0
ecutrho = 400
occupations = 'smearing'
smearing = 'mp'
degauss = 0.01
assume_isolated = 'esm'
esm_bc = 'bc1'
input_dft = 'BEEF-VDW'
nosym = .true.
nspin = 1
ntyp = 5
nat = 34
/
&ELECTRONS
electron_maxstep = 200
mixing_beta = 0.1
conv_thr = 1e-06
/
&IONS
ion_dynamics = 'bfgs'
upscale = 1.0
/
&CELL
/

K_POINTS {automatic}
8 6 1 0 0 0

ATOMIC_SPECIES
C 12.01 C.pbe-n-rrkjus_psl.1.0.0.UPF
Ga 69.72 Ga.pbe-dnl-rrkjus_psl.1.0.0.UPF
Li 6.941 Li.pbe-sl-rrkjus_psl.1.0.0.UPF
O 15.99 O.pbe-n-rrkjus_psl.1.0.0.UPF
Rh 102.9 Rh.pbe-spn-rrkjus_psl.1.0.0.UPF

CELL_PARAMETERS {angstrom}
6.03399000 0.00000000 0.00000000
0.00000000 8.53335000 0.00000000
0.00000000 0.00000000 26.40000000

ATOMIC_POSITIONS {angstrom}
Li 0.00000000 6.40001250 -1.066559999999999 0 0 0
Li 3.01699500 0.00000000 -3.1999439999999986 0 0 0
Li 0.00000000 2.13333750 -1.066559999999999 0 0 0
Li 3.01699500 4.26667500 -3.1999439999999986 0 0 0
Li 1.50849750 2.13333750 -3.1999439999999986 0 0 0
Li 1.50849750 6.40001250 -3.1999439999999986 0 0 0
Li 4.52549250 4.26667500 -1.066559999999999 0 0 0
Li 4.52549250 0.00000000 -1.066559999999999 0 0 0
Li 0.06939089 2.13495884 3.18938400
Li 3.09133376 4.26667500 1.01191200
Li 0.06939089 6.39839116 3.18938400
Li 3.05295758 0.00000000 1.05230400
Li 1.48677514 6.39813516 1.00953600
Li 1.48677514 2.13521484 1.00927200
Li 4.41488946 0.00000000 3.59119200
Li 4.38755549 4.26667500 3.73612800
Ga 1.50849750 0.00000000 -1.066559999999999 0 0 0
Ga 1.50849750 4.26667500 -1.066559999999999 0 0 0
Ga 4.52549250 6.40001250 -3.1999439999999986 0 0 0
Ga 4.52549250 2.13333750 -3.1999439999999986 0 0 0
Ga 1.65361496 4.26667500 3.12734400
Ga 1.70737781 0.00000000 3.20469600
Ga 4.56573921 2.10594545 1.00267200
Ga 4.56573921 6.42740455 1.00267200
Rh 0.00000000 0.00000000 -3.1999439999999986 0 0 0
Rh 3.01699500 2.13333750 -1.066559999999999 0 0 0
Rh 3.01699500 6.40001250 -1.066559999999999 0 0 0
Rh 0.00000000 4.26667500 -3.1999439999999986 0 0 0
Rh 5.95880648 4.26667500 1.22047200
Rh 3.04185504 6.34872707 2.96472000
Rh 3.04185504 2.18462293 2.96472000
Rh 6.00430277 0.00000000 1.26456000
C 1.31450472 0.00000000 5.28132000
O 1.37725822 0.00000000 6.43737600
