&CONTROL
calculation = 'relax'
prefix = 'scf'
pseudo_dir = '/vol0004/mdt0/data/hp150275/u10028/POT_HYBRID_KKJUS_GBRV'
outdir = './data'
tprnfor = .true.
nstep = 50
disk_io = 'non'
/
&SYSTEM
ibrav = 0
ecutwfc = 50.0
ecutrho = 400
occupations = 'smearing'
smearing = 'mp'
degauss = 0.01
assume_isolated = 'esm'
esm_bc = 'bc1'
input_dft = 'BEEF-VDW'
nosym = .true.
nspin = 2
ntyp = 4
nat = 18
starting_magnetization(1) = 0.0
starting_magnetization(2) = 0.1
starting_magnetization(3) = 0.001
starting_magnetization(4) = 0.0
/
&ELECTRONS
electron_maxstep = 400
mixing_beta = 0.1
conv_thr = 1e-06
/
&IONS
ion_dynamics = 'bfgs'
upscale = 1.0
/
&CELL
/

K_POINTS {automatic}
8 11 2 0  0  0

ATOMIC_SPECIES
C 12.01 C.pbe-n-rrkjus_psl.1.0.0.UPF
Mn 54.93 mn_pbe_v1.5.uspp.F.UPF
Ni 58.69 ni_pbe_v1.4.uspp.F.UPF
O 15.99 O.pbe-n-rrkjus_psl.1.0.0.UPF

CELL_PARAMETERS {angstrom}
7.18728000 0.00000000 0.00000000
0.00000000 5.08218000 0.00000000
0.00000000 0.00000000 23.81160000

ATOMIC_POSITIONS {angstrom}
Mn 0.00021562 0.00000000 1.93778801
Mn 0.00000000 2.54109000 -0.6352934899999987 0 0 0
Mn 3.59342438 0.00000000 1.88087828
Mn 3.59364000 2.54109000 -0.6352934899999987 0 0 0
Ni 0.00100622 2.54109000 1.94159786
Ni 1.78618283 3.81326130 0.61386305
Ni 1.78611095 1.26896952 0.61457740
Ni 0.00000000 0.00000000 -0.6352934899999987 0 0 0
Ni 1.79682000 1.27054500 -1.9058804599999988 0 0 0
Ni 1.79682000 3.81163500 -1.9058804599999988 0 0 0
Ni 3.59263378 2.54109000 1.77277362
Ni 5.40131279 3.81361705 0.61862537
Ni 5.40131279 1.26846131 0.61791102
Ni 3.59364000 0.00000000 -0.6352934899999987 0 0 0
Ni 5.39046000 1.27054500 -1.9058804599999988 0 0 0
Ni 5.39046000 3.81163500 -1.9058804599999988 0 0 0
C 0.00021562 2.54103918 3.70579931
O 7.18677689 2.54103918 4.86637669
