&CONTROL
calculation = 'relax'
prefix = 'scf'
pseudo_dir = '/vol0403/data/hp230205/u10028/POT_HYBRID_KKJUS_GBRV'
outdir = './data'
tprnfor = .true.
nstep = 50
disk_io = 'non'
/
&SYSTEM
ibrav = 0
ecutwfc = 50.0
ecutrho = 400
occupations = 'smearing'
smearing = 'mp'
degauss = 0.01
assume_isolated = 'esm'
esm_bc = 'bc1'
input_dft = 'BEEF-VDW'
nosym = .true.
nspin = 1
ntyp = 5
nat = 17
/
&ELECTRONS
electron_maxstep = 200
mixing_beta = 0.1
conv_thr = 1e-06
/
&IONS
ion_dynamics = 'bfgs'
upscale = 1.0
/
&CELL
/

K_POINTS {automatic}
11 8 2 0  0  0

ATOMIC_SPECIES
C 12.01 C.pbe-n-rrkjus_psl.1.0.0.UPF
Ge 72.64 Ge.pbe-dn-rrkjus_psl.1.0.0.UPF
In 114.8 In.pbe-dn-rrkjus_psl.1.0.0.UPF
Li 6.941 Li.pbe-sl-rrkjus_psl.1.0.0.UPF
Mg 24.30 Mg.pbe-spnl-rrkjus_psl.1.0.0.UPF


CELL_PARAMETERS {angstrom}
6.07136000 0.00000000 0.00000000
0.00000000 8.40992000 0.00000000
0.00000000 0.00000000 24.55010000

ATOMIC_POSITIONS {angstrom}
Li 4.51059548 2.10248000 0.68666630
Li 1.34170985 2.10248000 -2.27505777 0 0 0
Li 4.60014804 6.30744000 0.96923795
Li 1.34170985 6.30744000 -2.27505777 0 0 0
Mg 1.63441011 2.10248000 0.60319596
Mg 4.37738985 2.10248000 -2.27505777 0 0 0
Mg 1.64964923 6.30744000 0.79812375
Mg 4.37738985 6.30744000 -2.27505777 0 0 0
In 3.06567252 0.26911744 2.62612420
In 5.95393990 0.00000000 -0.7583525900000012 0 0 0
In 3.06573323 3.93575846 2.62612420
In 5.95393990 4.20496000 -0.7583525900000012 0 0 0
Ge 0.00303568 0.22715194 2.45181849
Ge 2.91825990 0.00000000 -0.7583525900000012 0 0 0
Ge 0.00303568 3.97789216 2.45181849
Ge 2.91825990 4.20496000 -0.7583525900000012 0 0 0
C 0.00516066 2.10248000 2.15967230
