&CONTROL
calculation = 'relax'
prefix = 'scf'
pseudo_dir = '/vol0403/data/hp230205/u10028/POT_HYBRID_KKJUS_GBRV'
outdir = './data'
tprnfor = .true.
nstep = 50
disk_io = 'non'
/
&SYSTEM
ibrav = 0
ecutwfc = 50.0
ecutrho = 400
occupations = 'smearing'
smearing = 'mp'
degauss = 0.01
assume_isolated = 'esm'
esm_bc = 'bc1'
input_dft = 'BEEF-VDW'
nosym = .true.
nspin = 1
ntyp = 6
nat = 34
/
&ELECTRONS
electron_maxstep = 200
mixing_beta = 0.1
conv_thr = 1e-06
/
&IONS
ion_dynamics = 'bfgs'
upscale = 1.0
/
&CELL
/

K_POINTS {automatic}
6 6 1 0 0 0

ATOMIC_SPECIES
Au 196.9 Au.pbe-n-rrkjus_psl.1.0.0.UPF
C 12.01 C.pbe-n-rrkjus_psl.1.0.0.UPF
In 114.8 In.pbe-dn-rrkjus_psl.1.0.0.UPF
Li 6.941 Li.pbe-sl-rrkjus_psl.1.0.0.UPF
O 15.99 O.pbe-n-rrkjus_psl.1.0.0.UPF
Y 88.90 Y.pbe-spn-rrkjus_psl.1.0.0.UPF


CELL_PARAMETERS {angstrom}
6.89380000 0.00000000 0.00000000
0.00000000 9.74930000 0.00000000
0.00000000 0.00000000 27.31200000

ATOMIC_POSITIONS {angstrom}
Li 0.00000000 2.43732500 -1.2186614400000018 0 0 0
Li 0.00000000 7.31197500 -1.2186614400000018 0 0 0
Li 3.44690000 4.87465000 -3.6559843200000017 0 0 0
Li 3.44690000 0.00000000 -3.6559843200000017 0 0 0
Li 1.25425797 7.31197500 4.97133024
Li 1.17532396 2.43703252 4.95057312
Li 3.57402167 0.00594707 1.37051616
Li 3.57388380 4.86870293 1.37051616
Y 5.17035000 0.00000000 -1.2186614400000018 0 0 0
Y 5.17035000 4.87465000 -1.2186614400000018 0 0 0
Y 1.72345000 2.43732500 -3.6559843200000017 0 0 0
Y 1.72345000 7.31197500 -3.6559843200000017 0 0 0
Y 5.46774853 4.68190634 3.76386672
Y 5.46795535 0.19303614 3.76386672
Y 1.69794294 7.31197500 1.41421536
Y 1.66712765 2.43732500 1.29158448
In 1.72345000 0.00000000 -1.2186614400000018 0 0 0
In 1.72345000 4.87465000 -1.2186614400000018 0 0 0
In 5.17035000 2.43732500 -3.6559843200000017 0 0 0
In 5.17035000 7.31197500 -3.6559843200000017 0 0 0
In 1.87552723 4.87026282 3.74010528
In 1.87594086 0.00419220 3.73983216
In 5.22701704 7.31197500 1.22658192
In 5.20626670 2.43742249 1.16567616
Au 0.00000000 0.00000000 -3.6559843200000017 0 0 0
Au 0.00000000 4.87465000 -3.6559843200000017 0 0 0
Au 3.44690000 7.31197500 -1.2186614400000018 0 0 0
Au 3.44690000 2.43732500 -1.2186614400000018 0 0 0
Au 0.00317115 4.88274192 1.20746352
Au 0.00324009 9.74120808 1.20719040
Au 3.50411854 2.43732500 3.49866720
Au 3.71465519 7.31187751 3.63631968
C 5.92411809 2.43625258 5.33075616
O 5.52076185 2.43771497 6.45109440
