&CONTROL
calculation = 'relax'
prefix = 'scf'
pseudo_dir = '/vol0004/mdt0/data/hp150275/u10028/POT_KKJUS'
outdir = './data'
tprnfor = .true.
nstep = 50
disk_io = 'non'
/
&SYSTEM
ibrav = 0
ecutwfc = 50.0
ecutrho = 400
occupations = 'smearing'
smearing = 'mp'
degauss = 0.01
assume_isolated = 'esm'
esm_bc = 'bc1'
input_dft = 'BEEF-VDW'
nosym = .true.
nspin = 1
ntyp = 5
nat = 18
/
&ELECTRONS
electron_maxstep = 200
mixing_beta = 0.1
conv_thr = 1e-06
/
&IONS
ion_dynamics = 'bfgs'
upscale = 1.0
/
&CELL
/

K_POINTS {automatic}
10 10 2 0  0  0

ATOMIC_SPECIES
C 12.01 C.pbe-n-rrkjus_psl.1.0.0.UPF
Ga 69.72 Ga.pbe-dnl-rrkjus_psl.1.0.0.UPF
Li 6.941 Li.pbe-sl-rrkjus_psl.1.0.0.UPF
O 15.99 O.pbe-n-rrkjus_psl.1.0.0.UPF
Pt 195.0 Pt.pbe-n-rrkjus_psl.1.0.0.UPF

CELL_PARAMETERS {angstrom}
6.10853000 0.00000000 0.00000000
0.00000000 6.10853000 0.00000000
0.00000000 0.00000000 24.58140000

ATOMIC_POSITIONS {angstrom}
Li 6.06894673 0.03952219 0.67574269
Li 3.05426500 0.00000000 -2.290740669999998 0 0 0
Li 0.00000000 3.05426500 -2.290740669999998 0 0 0
Li 3.08883928 3.01969072 0.68582106
Li 1.52627731 1.52432258 2.48124652
Li 1.52713250 4.58139750 -0.7634982800000003 0 0 0
Li 4.58420742 4.58213052 2.48149233
Li 4.58139750 1.52713250 -0.7634982800000003 0 0 0
Ga 1.52713250 1.52713250 -0.7634982800000003 0 0 0
Ga 1.52707141 4.58145859 2.08155295
Ga 4.58139750 4.58139750 -0.7634982800000003 0 0 0
Ga 4.57272339 1.53580661 2.21158856
Pt 0.00000000 0.00000000 -2.290740669999998 0 0 0
Pt 3.05426500 3.05426500 -2.290740669999998 0 0 0
Pt 3.05866314 0.00219907 0.78365503
Pt 6.10626984 3.04986686 0.78365503
C 4.58878882 1.51974118 4.20931894
O 4.58133641 1.52719359 5.37472311
