&CONTROL
calculation = 'relax'
prefix = 'scf'
pseudo_dir = '/vol0004/mdt0/data/hp150275/u10028/POT_KKJUS'
outdir = './data'
tprnfor = .true.
nstep = 50
disk_io = 'non'
/
&SYSTEM
ibrav = 0
ecutwfc = 50.0
ecutrho = 400
occupations = 'smearing'
smearing = 'mp'
degauss = 0.01
assume_isolated = 'esm'
esm_bc = 'bc1'
input_dft = 'BEEF-VDW'
nosym = .true.
nspin = 1
ntyp = 4
nat = 34
/
&ELECTRONS
electron_maxstep = 200
mixing_beta = 0.1
conv_thr = 1e-06
/
&IONS
ion_dynamics = 'bfgs'
upscale = 1.0
/
&CELL
/

K_POINTS {automatic}
9 6 2 0  0  0

ATOMIC_SPECIES
Al 26.98 Al.pbe-nl-rrkjus_psl.1.0.0.UPF
C 12.01 C.pbe-n-rrkjus_psl.1.0.0.UPF
O 15.99 O.pbe-n-rrkjus_psl.1.0.0.UPF
Rh 102.9 Rh.pbe-spn-rrkjus_psl.1.0.0.UPF

CELL_PARAMETERS {angstrom}
6.00621000 0.00000000 0.00000000
0.00000000 8.49407000 0.00000000
0.00000000 0.00000000 26.37050000

ATOMIC_POSITIONS {angstrom}
Al 0.00000000 0.00000000 -3.1852926900000007 0 0 0
Al 0.00000000 2.12351750 -1.061676330000001 0 0 0
Al 0.00000000 8.49135190 1.07987198
Al 0.00000000 2.12351750 3.32004595
Al 0.00000000 4.24703500 -3.1852926900000007 0 0 0
Al 0.00000000 6.37055250 -1.061676330000001 0 0 0
Al 0.00000000 4.24975310 1.07987198
Al 0.00000000 6.37055250 3.20243352
Al 3.00310500 0.00000000 -3.1852926900000007 0 0 0
Al 3.00310500 2.12351750 -1.061676330000001 0 0 0
Al 3.00310500 8.49390012 1.07934456
Al 3.00310500 2.12351750 3.24726337
Al 3.00310500 4.24703500 -3.1852926900000007 0 0 0
Al 3.00310500 6.37055250 -1.061676330000001 0 0 0
Al 3.00310500 4.24720488 1.07934456
Al 3.00310500 6.37055250 3.26203085
Rh 1.50155250 2.12351750 -3.1852926900000007 0 0 0
Rh 1.50155250 0.00000000 -1.061676330000001 0 0 0
Rh 1.49686766 2.12351750 1.03847029
Rh 1.50485592 4.26546713 3.09747893
Rh 1.50155250 6.37055250 -3.1852926900000007 0 0 0
Rh 1.50155250 4.24703500 -1.061676330000001 0 0 0
Rh 1.50449554 6.37055250 1.00418864
Rh 1.50485592 8.47563787 3.09747893
Rh 4.50465750 2.12351750 -3.1852926900000007 0 0 0
Rh 4.50465750 0.00000000 -1.061676330000001 0 0 0
Rh 4.50934234 2.12351750 1.03847029
Rh 4.50135408 4.26546713 3.09747893
Rh 4.50465750 6.37055250 -3.1852926900000007 0 0 0
Rh 4.50465750 4.24703500 -1.061676330000001 0 0 0
Rh 4.50171446 6.37055250 1.00418864
Rh 4.50135408 8.47563787 3.09747893
C 0.00000000 2.12351750 5.35637596
O 0.00000000 2.12351750 6.50481124
