&CONTROL
calculation = 'relax'
prefix = 'scf'
pseudo_dir = '/vol0004/mdt0/data/hp150275/u10028/POT_KKJUS'
outdir = './data'
tprnfor = .true.
nstep = 50
disk_io = 'non'
/
&SYSTEM
ibrav = 0
ecutwfc = 50.0
ecutrho = 400
occupations = 'smearing'
smearing = 'mp'
degauss = 0.01
assume_isolated = 'esm'
esm_bc = 'bc1'
input_dft = 'BEEF-VDW'
nosym = .true.
nspin = 1
ntyp = 3
nat = 17
/
&ELECTRONS
electron_maxstep = 200
mixing_beta = 0.1
conv_thr = 1e-06
/
&IONS
ion_dynamics = 'bfgs'
upscale = 1.0
/
&CELL
/

K_POINTS {automatic}
6 8 1 0 0 0

ATOMIC_SPECIES
C 12.01 C.pbe-n-rrkjus_psl.1.0.0.UPF
Na 22.98 Na.pbe-spnl-rrkjus_psl.1.0.0.UPF
Pb 207.2 Pb.pbe-dn-rrkjus_psl.1.0.0.UPF

CELL_PARAMETERS {angstrom}
10.02390000 0.00000000 0.00000000
0.00000000 7.08799000 0.00000000
0.00000000 0.00000000 25.31600000

ATOMIC_POSITIONS {angstrom}
Na 0.60865121 0.05202585 2.70678672
Na 0.00000000 3.54399500 -0.8860600000000005 0 0 0
Na 4.40710787 0.03621963 2.71716628
Na 5.01195000 3.54399500 -0.8860600000000005 0 0 0
Pb 0.80080937 3.48743284 2.86070800
Pb 2.50948336 5.24383676 0.56454680
Pb 2.50286759 1.76065672 0.55239512
Pb 0.00000000 0.00000000 -0.8860600000000005 0 0 0
Pb 2.50597500 1.77199750 -2.6579268399999982 0 0 0
Pb 2.50597500 5.31599250 -2.6579268399999982 0 0 0
Pb 4.24121233 3.49367027 2.83918940
Pb 7.51602046 5.45987870 0.70606324
Pb 7.50910397 1.87725415 0.89289532
Pb 5.01195000 0.00000000 -0.8860600000000005 0 0 0
Pb 7.51792500 1.77199750 -2.6579268399999982 0 0 0
Pb 7.51792500 5.31599250 -2.6579268399999982 0 0 0
C 2.50797978 1.82501567 2.88678348
