&CONTROL
calculation = 'relax'
prefix = 'scf'
pseudo_dir = '/vol0004/mdt0/data/hp150275/u10028/POT_HYBRID_KKJUS_GBRV'
outdir = './data'
tprnfor = .true.
nstep = 50
disk_io = 'non'
/
&SYSTEM
ibrav = 0
ecutwfc = 50.0
ecutrho = 400
occupations = 'smearing'
smearing = 'mp'
degauss = 0.01
assume_isolated = 'esm'
esm_bc = 'bc1'
input_dft = 'BEEF-VDW'
nosym = .true.
nspin = 2
ntyp = 4
nat = 33
starting_magnetization(1) = 0.0
starting_magnetization(2) = 0.0
starting_magnetization(3) = 0.001
starting_magnetization(4) = 0.0
/
&ELECTRONS
electron_maxstep = 200
mixing_beta = 0.1
conv_thr = 1e-06
/
&IONS
ion_dynamics = 'bfgs'
upscale = 1.0
/
&CELL
/

K_POINTS {automatic}
9 6 2 0  0  0

ATOMIC_SPECIES
C 12.01 C.pbe-n-rrkjus_psl.1.0.0.UPF
Cu 63.54 Cu.pbe-dn-rrkjus_psl.1.0.0.UPF
Ni 58.69 ni_pbe_v1.4.uspp.F.UPF
Sb 121.7 Sb.pbe-n-rrkjus_psl.1.0.0.UPF

CELL_PARAMETERS {angstrom}
6.01864000 0.00000000 0.00000000
0.00000000 8.51164000 0.00000000
0.00000000 0.00000000 26.38370000

ATOMIC_POSITIONS {angstrom}
Cu 0.00000000 0.00000000 23.19179997
Cu 3.00932000 2.12791000 25.31964538
Cu 3.00932000 6.38373000 25.31964538
Cu 0.00000000 4.25582000 23.19179997
Cu 0.00000000 4.25607535 1.02579826
Cu 3.00932000 6.33155365 3.27764705
Cu 3.00932000 2.18008635 3.27791089
Cu 0.00000000 8.51138465 1.12209876
Ni 1.50466000 0.00000000 25.31964538
Ni 4.51398000 4.25582000 25.31964538
Ni 4.51398000 0.00000000 25.31964538
Ni 1.50466000 4.25582000 25.31964538
Ni 4.51398000 6.38373000 23.19179997
Ni 1.50466000 2.12791000 23.19179997
Ni 1.50466000 6.38373000 23.19179997
Ni 4.51398000 2.12791000 23.19179997
Ni 1.58904133 4.25599023 2.97555369
Ni 4.29658672 8.51138465 3.03280632
Ni 4.42959867 4.25599023 2.97528985
Ni 1.72205328 8.51138465 3.03280632
Ni 4.62791286 2.13880490 1.25955784
Ni 1.39096789 6.37283510 1.25929400
Ni 1.39072714 2.13880490 1.25955784
Ni 4.62767211 6.37283510 1.25929400
Sb 0.00000000 6.38373000 25.31964538
Sb 3.00932000 0.00000000 23.19179997
Sb 0.00000000 2.12791000 25.31964538
Sb 3.00932000 4.25582000 23.19179997
Sb 0.00000000 2.29941955 3.64015909
Sb 3.00932000 4.25573488 0.94506413
Sb 0.00000000 6.21239069 3.64042293
Sb 3.00932000 0.00008512 0.92052729
C 0.00000000 0.00000000 3.52644534
