&CONTROL
calculation = 'relax'
prefix = 'scf'
pseudo_dir = '/vol0403/data/hp230205/u10028/POT_HYBRID_KKJUS_GBRV'
outdir = './data'
tprnfor = .true.
nstep = 50
disk_io = 'non'
/
&SYSTEM
ibrav = 0
ecutwfc = 50.0
ecutrho = 400
occupations = 'smearing'
smearing = 'mp'
degauss = 0.01
assume_isolated = 'esm'
esm_bc = 'bc1'
input_dft = 'BEEF-VDW'
nosym = .true.
nspin = 1
ntyp = 6
nat = 18
/
&ELECTRONS
electron_maxstep = 200
mixing_beta = 0.1
conv_thr = 1e-06
/
&IONS
ion_dynamics = 'bfgs'
upscale = 1.0
/
&CELL
/

K_POINTS {automatic}
8 8 1 0 0 0

ATOMIC_SPECIES
Ag 107.8 Ag.pbe-n-rrkjus_psl.1.0.0.UPF
Al 26.98 Al.pbe-nl-rrkjus_psl.1.0.0.UPF
C 12.01 C.pbe-n-rrkjus_psl.1.0.0.UPF
Li 6.941 Li.pbe-sl-rrkjus_psl.1.0.0.UPF
O 15.99 O.pbe-n-rrkjus_psl.1.0.0.UPF
Pd 106.4 Pd.pbe-n-rrkjus_psl.1.0.0.UPF


CELL_PARAMETERS {angstrom}
6.21941000 0.00000000 0.00000000
0.00000000 6.21941000 0.00000000
0.00000000 0.00000000 24.66460000

ATOMIC_POSITIONS {angstrom}
Li 1.55485250 1.55485250 -0.7774281899999984 0 0 0
Li 1.55031233 4.66915986 2.59002965
Li 4.66971961 1.54969039 2.64527835
Li 4.66455750 4.66455750 -0.7774281899999984 0 0 0
Al 4.66455750 1.55485250 -0.7774281899999984 0 0 0
Al 4.66325142 4.66505505 2.25064475
Al 1.55441714 1.55615858 2.25039810
Al 1.55485250 4.66455750 -0.7774281899999984 0 0 0
Ag 0.00000000 0.00000000 -2.3322845799999996 0 0 0
Ag 6.21250645 3.10410753 0.82947050
Ag 3.11530247 0.00696574 0.82947050
Ag 3.10970500 3.10970500 -2.3322845799999996 0 0 0
Pd 0.00000000 3.10970500 -2.3322845799999996 0 0 0
Pd 6.21754418 0.00192802 0.92640238
Pd 3.10945622 3.10989158 0.92911548
Pd 3.10970500 0.00000000 -2.3322845799999996 0 0 0
C 4.67320248 1.54620752 4.74349587
O 4.67506830 1.54434170 5.88546685
