&CONTROL
calculation = 'relax'
prefix = 'scf'
pseudo_dir = '/vol0403/data/hp230205/u10028/POT_HYBRID_KKJUS_GBRV'
outdir = './data'
tprnfor = .true.
nstep = 70
disk_io = 'non'
/
&SYSTEM
ibrav = 0
ecutwfc = 50.0
ecutrho = 400
occupations = 'smearing'
smearing = 'mp'
degauss = 0.01
assume_isolated = 'esm'
esm_bc = 'bc1'
input_dft = 'BEEF-VDW'
nosym = .true.
nspin = 1
ntyp = 6
nat = 34
/
&ELECTRONS
electron_maxstep = 200
mixing_beta = 0.1
conv_thr = 1e-06
/
&IONS
ion_dynamics = 'bfgs'
upscale = 1.0
/
&CELL
/

K_POINTS {automatic}
6 6 1 0 0 0

ATOMIC_SPECIES
Au 196.9 Au.pbe-n-rrkjus_psl.1.0.0.UPF
C 12.01 C.pbe-n-rrkjus_psl.1.0.0.UPF
Ge 72.64 Ge.pbe-dn-rrkjus_psl.1.0.0.UPF
Li 6.941 Li.pbe-sl-rrkjus_psl.1.0.0.UPF
Mg 24.30 Mg.pbe-spnl-rrkjus_psl.1.0.0.UPF
O 15.99 O.pbe-n-rrkjus_psl.1.0.0.UPF


CELL_PARAMETERS {angstrom}
6.50951000 0.00000000 0.00000000
-0.00000000 9.20584000 0.00000000
0.00000000 0.00000000 26.90440000

ATOMIC_POSITIONS {angstrom}
Li 4.88213250 0.00000000 -1.1507011899999995 0 0 0
Li 4.88213250 4.60292000 -1.1507011899999995 0 0 0
Li 1.62737750 2.30146000 -3.4521035599999976 0 0 0
Li 1.62737750 6.90438000 -3.4521035599999976 0 0 0
Li 4.87464656 4.60292000 3.59953968
Li 4.87113143 -0.00000000 3.67971479
Li 1.56814096 7.00730129 1.10603988
Li 1.56814096 2.19844665 1.10603988
Mg 1.62737750 0.00000000 -1.1507011899999995 0 0 0
Mg 1.62737750 4.60292000 -1.1507011899999995 0 0 0
Mg 4.88213250 2.30146000 -3.4521035599999976 0 0 0
Mg 4.88213250 6.90438000 -3.4521035599999976 0 0 0
Mg 1.59476485 4.60292000 3.93611372
Mg 1.54867752 -0.00000000 3.62590599
Mg 4.91422438 6.76491152 1.14666553
Mg 4.91422438 2.44083642 1.14666553
Ge 0.00000000 2.30146000 -1.1507011899999995 0 0 0
Ge 0.00000000 6.90438000 -1.1507011899999995 0 0 0
Ge 3.25475500 4.60292000 -3.4521035599999976 0 0 0
Ge 3.25475500 0.00000000 -3.4521035599999976 0 0 0
Ge 6.45925658 6.85789051 3.53604529
Ge 6.45932168 2.34794949 3.53604529
Ge 3.32460204 -0.00000000 1.38073381
Ge 3.06578392 4.60282794 1.44369010
Au 0.00000000 0.00000000 -3.4521035599999976 0 0 0
Au 0.00000000 4.60292000 -3.4521035599999976 0 0 0
Au 3.25475500 6.90438000 -1.1507011899999995 0 0 0
Au 3.25475500 2.30146000 -1.1507011899999995 0 0 0
Au 0.25035575 4.60292000 1.43588783
Au 6.33935141 -0.00000000 1.28226370
Au 3.14409333 2.32649988 3.29390569
Au 3.14409333 6.87934012 3.29390569
C 1.63505872 -0.00000000 5.90605389
O 1.62490389 0.00000000 7.04868376
