&CONTROL
calculation = 'relax'
prefix = 'scf'
pseudo_dir = '/vol0004/mdt0/data/hp150275/u10028/POT_KKJUS'
outdir = './data'
tprnfor = .true.
nstep = 50
disk_io = 'non'
/
&SYSTEM
ibrav = 0
ecutwfc = 50.0
ecutrho = 400
occupations = 'smearing'
smearing = 'mp'
degauss = 0.01
assume_isolated = 'esm'
esm_bc = 'bc1'
input_dft = 'BEEF-VDW'
nosym = .true.
nspin = 1
ntyp = 4
nat = 33
/
&ELECTRONS
electron_maxstep = 200
mixing_beta = 0.1
conv_thr = 1e-06
/
&IONS
ion_dynamics = 'bfgs'
upscale = 1.0
/
&CELL
/

K_POINTS {automatic}
9 6 2 0  0  0

ATOMIC_SPECIES
Al 26.98 Al.pbe-nl-rrkjus_psl.1.0.0.UPF
C 12.01 C.pbe-n-rrkjus_psl.1.0.0.UPF
Hf 178.4 Hf.pbe-spn-rrkjus_psl.1.0.0.UPF
Pd 106.4 Pd.pbe-n-rrkjus_psl.1.0.0.UPF

CELL_PARAMETERS {angstrom}
6.44324000 0.00000000 0.00000000
0.00000000 9.11212000 0.00000000
0.00000000 0.00000000 26.83410000

ATOMIC_POSITIONS {angstrom}
Hf 0.00000000 0.00000000 -3.4170542899999994 0 0 0
Hf 3.22162000 2.27803000 -1.1391075399999977 0 0 0
Hf 3.22162000 6.83409000 -1.1391075399999977 0 0 0
Hf 0.00000000 4.55606000 -3.4170542899999994 0 0 0
Hf 0.01565707 4.57082163 1.15815976
Hf 3.10319325 6.83409000 3.41276084
Hf 3.38160565 2.27803000 3.43154471
Hf 0.01565707 9.09735837 1.15815976
Al 0.00000000 6.83409000 -1.1391075399999977 0 0 0
Al 3.22162000 0.00000000 -3.4170542899999994 0 0 0
Al 0.00000000 2.27803000 -1.1391075399999977 0 0 0
Al 3.22162000 4.55606000 -3.4170542899999994 0 0 0
Al 6.14549788 2.27803000 3.56571521
Al 3.21517676 4.54084276 1.20297270
Al 0.01868540 6.83409000 3.33950375
Al 3.21517676 0.01512612 1.20297270
Pd 1.61081000 0.00000000 -1.1391075399999977 0 0 0
Pd 4.83243000 4.55606000 -1.1391075399999977 0 0 0
Pd 4.83243000 0.00000000 -1.1391075399999977 0 0 0
Pd 1.61081000 4.55606000 -1.1391075399999977 0 0 0
Pd 4.83243000 6.83409000 -3.4170542899999994 0 0 0
Pd 1.61081000 2.27803000 -3.4170542899999994 0 0 0
Pd 1.61081000 6.83409000 -3.4170542899999994 0 0 0
Pd 4.83243000 2.27803000 -3.4170542899999994 0 0 0
Pd 1.50082389 4.53537549 3.41624927
Pd 4.81812601 9.01024650 3.30113098
Pd 4.81812601 4.65793350 3.30113098
Pd 1.50082389 0.02068451 3.41624927
Pd 4.86548382 2.27803000 1.05350677
Pd 1.70314163 6.83409000 1.08436598
Pd 1.67524240 2.27803000 1.13615579
Pd 4.76310074 6.83409000 1.18794561
C 1.49341417 2.27803000 4.12171776
