&CONTROL
calculation = 'relax'
prefix = 'scf'
pseudo_dir = '/vol0004/mdt0/data/hp150275/u10028/POT_KKJUS'
outdir = './data'
tprnfor = .true.
nstep = 50
disk_io = 'non'
/
&SYSTEM
ibrav = 0
ecutwfc = 50.0
ecutrho = 400
occupations = 'smearing'
smearing = 'mp'
degauss = 0.01
assume_isolated = 'esm'
esm_bc = 'bc1'
input_dft = 'BEEF-VDW'
nosym = .true.
nspin = 1
ntyp = 2
nat = 16
/
&ELECTRONS
electron_maxstep = 200
mixing_beta = 0.1
conv_thr = 1e-06
/
&IONS
ion_dynamics = 'bfgs'
upscale = 1.0
/
&CELL
/

K_POINTS {automatic}
8 8 1 0 0 0

ATOMIC_SPECIES
Al 26.98 Al.pbe-nl-rrkjus_psl.1.0.0.UPF
Y 88.90 Y.pbe-spn-rrkjus_psl.1.0.0.UPF

CELL_PARAMETERS {angstrom}
7.18582000 0.00000000 0.00000000
-0.00000000 7.18582000 0.00000000
0.00000000 0.00000000 25.38940000

ATOMIC_POSITIONS {angstrom}
Y 1.79645500 1.79645500 -1.3781366299999966 0 0 0
Y 1.79645500 1.79645500 2.21471736
Y 1.79645500 5.38936500 -1.3781366299999966 0 0 0
Y 1.79645500 5.38936500 2.21471736
Y 5.38936500 1.79645500 -1.3781366299999966 0 0 0
Y 5.38936500 1.79645500 2.21471736
Y 5.38936500 5.38936500 -1.3781366299999966 0 0 0
Y 5.38936500 5.38936500 2.21471736
Al 0.00000000 0.00000000 -3.17469058 0 0 0
Al 0.00000000 0.00000000 0.41816342
Al 0.00000000 3.59291000 -3.17469058 0 0 0
Al 0.00000000 3.59291000 0.41816342
Al 3.59291000 0.00000000 -3.17469058 0 0 0
Al 3.59291000 -0.00000000 0.41816342
Al 3.59291000 3.59291000 -3.17469058 0 0 0
Al 3.59291000 3.59291000 0.41816342
