&CONTROL
calculation = 'relax'
prefix = 'scf'
pseudo_dir = '/vol0004/mdt0/data/hp150275/u10028/POT_KKJUS'
outdir = './data'
tprnfor = .true.
nstep = 50
disk_io = 'non'
/
&SYSTEM
ibrav = 0
ecutwfc = 50.0
ecutrho = 400
occupations = 'smearing'
smearing = 'mp'
degauss = 0.01
assume_isolated = 'esm'
esm_bc = 'bc1'
input_dft = 'BEEF-VDW'
nosym = .true.
nspin = 1
ntyp = 5
nat = 34
/
&ELECTRONS
electron_maxstep = 200
mixing_beta = 0.1
conv_thr = 1e-06
/
&IONS
ion_dynamics = 'bfgs'
upscale = 1.0
/
&CELL
/

K_POINTS {automatic}
9 6 2 0  0  0

ATOMIC_SPECIES
Ag 107.8 Ag.pbe-n-rrkjus_psl.1.0.0.UPF
C 12.01 C.pbe-n-rrkjus_psl.1.0.0.UPF
In 114.8 In.pbe-dn-rrkjus_psl.1.0.0.UPF
O 15.99 O.pbe-n-rrkjus_psl.1.0.0.UPF
Sc 44.95 Sc.pbe-spn-rrkjus_psl.1.0.0.UPF

CELL_PARAMETERS {angstrom}
6.85473000 0.00000000 0.00000000
0.00000000 9.69405000 0.00000000
0.00000000 0.00000000 27.27050000

ATOMIC_POSITIONS {angstrom}
Sc 0.00000000 0.00000000 -3.63515765 0 0 0
Sc 3.42736500 2.42351250 -1.211628319999999 0 0 0
Sc 3.42736500 7.27053750 -1.211628319999999 0 0 0
Sc 0.00000000 4.84702500 -3.63515765 0 0 0
Sc 0.00006855 4.84198409 1.33080040
Sc 3.42736500 7.27063444 3.55198262
Sc 3.42743355 2.42360944 3.54789205
Sc 0.00000000 0.00523479 1.33080040
In 0.00000000 7.27053750 -1.211628319999999 0 0 0
In 3.42736500 0.00000000 -3.63515765 0 0 0
In 0.00000000 2.42351250 -1.211628319999999 0 0 0
In 3.42736500 4.84702500 -3.63515765 0 0 0
In 0.00000000 2.42351250 3.69160758
In 3.42750209 4.84876993 1.22444545
In 0.00000000 7.27063444 3.71042423
In 3.42729645 9.69249895 1.22444545
Ag 1.71368250 0.00000000 -1.211628319999999 0 0 0
Ag 5.14104750 4.84702500 -1.211628319999999 0 0 0
Ag 5.14104750 0.00000000 -1.211628319999999 0 0 0
Ag 1.71368250 4.84702500 -1.211628319999999 0 0 0
Ag 5.14104750 7.27053750 -3.63515765 0 0 0
Ag 1.71368250 2.42351250 -3.63515765 0 0 0
Ag 1.71368250 7.27053750 -3.63515765 0 0 0
Ag 5.14104750 2.42351250 -3.63515765 0 0 0
Ag 1.77763713 4.84566783 3.78923597
Ag 5.07702432 0.00145411 3.78950868
Ag 5.07716142 4.84566783 3.78950868
Ag 1.77777423 0.00145411 3.78950868
Ag 5.15619645 2.42351250 1.18435782
Ag 1.69023932 7.27063444 1.20344717
Ag 1.69860209 2.42360944 1.18435782
Ag 5.16449068 7.27073138 1.20344717
C 0.00027419 2.42137981 7.82963325
O 6.85452436 2.42351250 8.96463147
