&CONTROL
calculation = 'relax'
prefix = 'scf'
pseudo_dir = '/vol0004/mdt0/data/hp150275/u10028/POT_KKJUS'
outdir = './data'
tprnfor = .true.
nstep = 50
disk_io = 'non'
/
&SYSTEM
ibrav = 0
ecutwfc = 50.0
ecutrho = 400
occupations = 'smearing'
smearing = 'mp'
degauss = 0.01
assume_isolated = 'esm'
esm_bc = 'bc1'
input_dft = 'BEEF-VDW'
nosym = .true.
nspin = 1
ntyp = 3
nat = 32
/
&ELECTRONS
electron_maxstep = 200
mixing_beta = 0.1
conv_thr = 1e-06
/
&IONS
ion_dynamics = 'bfgs'
upscale = 1.0
/
&CELL
/

K_POINTS {automatic}
8 6 1 0 0 0

ATOMIC_SPECIES
Al 26.98 Al.pbe-nl-rrkjus_psl.1.0.0.UPF
Li 6.941 Li.pbe-sl-rrkjus_psl.1.0.0.UPF
Rh 102.9 Rh.pbe-spn-rrkjus_psl.1.0.0.UPF

CELL_PARAMETERS {angstrom}
6.01864000 0.00000000 0.00000000
0.00000000 8.51164000 0.00000000
0.00000000 0.00000000 26.38370000

ATOMIC_POSITIONS {angstrom}
Li 0.00000000 6.38373000 -1.0640546200000003 0 0 0
Li 3.00932000 0.00000000 -3.1919000299999993 0 0 0
Li 0.00000000 2.12791000 -1.0640546200000003 0 0 0
Li 3.00932000 4.25582000 -3.1919000299999993 0 0 0
Li 1.50466000 2.12791000 -3.1919000299999993 0 0 0
Li 1.50466000 6.38373000 -3.1919000299999993 0 0 0
Li 4.51398000 4.25582000 -1.0640546200000003 0 0 0
Li 4.51398000 0.00000000 -1.0640546200000003 0 0 0
Li 0.09346948 2.12791000 3.50612989
Li 3.02857965 4.25582000 1.02579826
Li 0.09346948 6.38373000 3.50612989
Li 3.02857965 0.00000000 1.02579826
Li 1.42274631 6.38373000 1.01049571
Li 1.42274631 2.12791000 1.01049571
Li 4.46336324 0.00000000 3.29426878
Li 4.46336324 4.25582000 3.29426878
Al 0.00000000 0.00000000 -3.1919000299999993 0 0 0
Al 3.00932000 2.12791000 -1.0640546200000003 0 0 0
Al 3.00932000 6.38373000 -1.0640546200000003 0 0 0
Al 0.00000000 4.25582000 -3.1919000299999993 0 0 0
Al 5.99227836 4.25582000 1.06352695
Al 2.86607637 6.38373000 3.08557372
Al 2.86607637 2.12791000 3.08557372
Al 5.99227836 0.00000000 1.06352695
Rh 1.50466000 0.00000000 -1.0640546200000003 0 0 0
Rh 1.50466000 4.25582000 -1.0640546200000003 0 0 0
Rh 4.51398000 6.38373000 -3.1919000299999993 0 0 0
Rh 4.51398000 2.12791000 -3.1919000299999993 0 0 0
Rh 1.54739234 4.25582000 2.99692448
Rh 1.54739234 0.00000000 2.99692448
Rh 4.54527693 2.12791000 1.17644918
Rh 4.54527693 6.38373000 1.17644918
