&CONTROL
calculation = 'relax'
prefix = 'scf'
pseudo_dir = '/vol0004/mdt0/data/hp150275/u10028/POT_KKJUS'
outdir = './data'
tprnfor = .true.
nstep = 50
disk_io = 'non'
/
&SYSTEM
ibrav = 0
ecutwfc = 50.0
ecutrho = 400
occupations = 'smearing'
smearing = 'mp'
degauss = 0.01
assume_isolated = 'esm'
esm_bc = 'bc1'
input_dft = 'BEEF-VDW'
nosym = .true.
nspin = 1
ntyp = 4
nat = 34
/
&ELECTRONS
electron_maxstep = 200
mixing_beta = 0.1
conv_thr = 1e-06
/
&IONS
ion_dynamics = 'bfgs'
upscale = 1.0
/
&CELL
/

K_POINTS {automatic}
8 6 1 0 0 0

ATOMIC_SPECIES
Al 26.98 Al.pbe-nl-rrkjus_psl.1.0.0.UPF
C 12.01 C.pbe-n-rrkjus_psl.1.0.0.UPF
O 15.99 O.pbe-n-rrkjus_psl.1.0.0.UPF
Ru 101.0 Ru.pbe-spn-rrkjus_psl.1.0.0.UPF

CELL_PARAMETERS {angstrom}
6.00621000 0.00000000 0.00000000
0.00000000 8.49407000 0.00000000
0.00000000 0.00000000 26.37050000

ATOMIC_POSITIONS {angstrom}
Al 0.00000000 0.00000000 -3.1852926900000007 0 0 0
Al 0.00000000 2.12351750 -1.061676330000001 0 0 0
Al 0.00000000 8.49339047 1.05798446
Al 0.00000000 2.12351750 3.13597986
Al 0.00000000 4.24703500 -3.1852926900000007 0 0 0
Al 0.00000000 6.37055250 -1.061676330000001 0 0 0
Al 0.00000000 4.24771453 1.05798446
Al 0.00000000 6.37055250 3.15153846
Al 3.00310500 0.00000000 -3.1852926900000007 0 0 0
Al 3.00310500 2.12351750 -1.061676330000001 0 0 0
Al 3.00310500 0.00025482 1.05482000
Al 3.00310500 2.12351750 3.14019914
Al 3.00310500 4.24703500 -3.1852926900000007 0 0 0
Al 3.00310500 6.37055250 -1.061676330000001 0 0 0
Al 3.00310500 4.24678018 1.05482000
Al 3.00310500 6.37055250 3.15839479
Ru 1.50155250 2.12351750 -3.1852926900000007 0 0 0
Ru 1.50155250 0.00000000 -1.061676330000001 0 0 0
Ru 1.49890977 2.12343256 1.04901849
Ru 1.50978101 4.27056357 3.17421708
Ru 1.50155250 6.37055250 -3.1852926900000007 0 0 0
Ru 1.50155250 4.24703500 -1.061676330000001 0 0 0
Ru 1.49993082 6.37055250 1.03504212
Ru 1.50978101 8.47054143 3.17421708
Ru 4.50465750 2.12351750 -3.1852926900000007 0 0 0
Ru 4.50465750 0.00000000 -1.061676330000001 0 0 0
Ru 4.50730023 2.12343256 1.04901849
Ru 4.49642899 4.27056357 3.17421708
Ru 4.50465750 6.37055250 -3.1852926900000007 0 0 0
Ru 4.50465750 4.24703500 -1.061676330000001 0 0 0
Ru 4.50627918 6.37055250 1.03504212
Ru 4.49642899 8.47054143 3.17421708
C 0.00000000 2.12351750 5.14198379
O 0.00000000 2.12351750 6.29648429
