&CONTROL
calculation = 'relax'
prefix = 'scf'
pseudo_dir = '/vol0004/mdt0/data/hp150275/u10028/POT_HYBRID_KKJUS_GBRV'
outdir = './data'
tprnfor = .true.
nstep = 50
disk_io = 'non'
/
&SYSTEM
ibrav = 0
ecutwfc = 50.0
ecutrho = 400
occupations = 'smearing'
smearing = 'mp'
degauss = 0.01
assume_isolated = 'esm'
esm_bc = 'bc1'
input_dft = 'BEEF-VDW'
nosym = .true.
nspin = 2
ntyp = 4
nat = 34
starting_magnetization(1) = 0.0
starting_magnetization(2) = 0.1
starting_magnetization(3) = 0.0
starting_magnetization(4) = 0.0
/
&ELECTRONS
electron_maxstep = 300
mixing_beta = 0.1
conv_thr = 1e-06
/
&IONS
ion_dynamics = 'bfgs'
upscale = 1.0
/
&CELL
/

K_POINTS {automatic}
9 6 2 0  0  0

ATOMIC_SPECIES
C 12.01 C.pbe-n-rrkjus_psl.1.0.0.UPF
Fe 55.84 fe_pbe_v1.5.uspp.F.UPF
Ga 69.72 Ga.pbe-dnl-rrkjus_psl.1.0.0.UPF
O 15.99 O.pbe-n-rrkjus_psl.1.0.0.UPF

CELL_PARAMETERS {angstrom}
5.81108000 0.00000000 0.00000000
0.00000000 8.21811000 0.00000000
0.00000000 0.00000000 26.16360000

ATOMIC_POSITIONS {angstrom}
Ga 0.00000000 0.00000000 -3.081810439999998 0 0 0
Ga 2.90554000 2.05452750 -1.0271829399999994 0 0 0
Ga 2.90554000 6.16358250 -1.0271829399999994 0 0 0
Ga 0.00000000 4.10905500 -3.081810439999998 0 0 0
Ga 5.81102189 4.11554731 0.99918788
Ga 2.90542378 6.16391122 3.26888018
Ga 2.90548189 2.05452750 3.23434423
Ga 5.81102189 8.21161769 0.99866461
Fe 1.45277000 0.00000000 -1.0271829399999994 0 0 0
Fe 4.35831000 4.10905500 -1.0271829399999994 0 0 0
Fe 4.35831000 0.00000000 -1.0271829399999994 0 0 0
Fe 1.45277000 4.10905500 -1.0271829399999994 0 0 0
Fe 4.35831000 6.16358250 -3.081810439999998 0 0 0
Fe 1.45277000 2.05452750 -3.081810439999998 0 0 0
Fe 1.45277000 6.16358250 -3.081810439999998 0 0 0
Fe 4.35831000 2.05452750 -3.081810439999998 0 0 0
Fe 0.00000000 6.16358250 -1.0271829399999994 0 0 0
Fe 2.90554000 0.00000000 -3.081810439999998 0 0 0
Fe 0.00000000 2.05452750 -1.0271829399999994 0 0 0
Fe 2.90554000 4.10905500 -3.081810439999998 0 0 0
Fe 1.41284788 4.10963027 3.10378787
Fe 4.39817401 8.21769909 3.10326460
Fe 4.39805779 4.10971245 3.10378787
Fe 1.41273166 8.21778128 3.10326460
Fe 4.33448457 2.05460968 1.04366600
Fe 1.48874059 6.16358250 1.05831762
Fe 1.47647921 2.05460968 1.04366600
Fe 4.32216508 6.16358250 1.05831762
Fe 5.81096378 2.05460968 2.94549809
Fe 2.90548189 4.10379541 1.03634020
Fe 5.81102189 6.16366468 2.95491698
Fe 2.90548189 0.00525959 1.03607856
C 2.91076997 2.05337696 7.10995830
O 2.90507511 2.05592458 8.24467363
