&CONTROL
calculation = 'relax'
prefix = 'scf'
pseudo_dir = '/vol0004/mdt0/data/hp150275/u10028/POT_KKJUS'
outdir = './data'
tprnfor = .true.
nstep = 50
disk_io = 'non'
/
&SYSTEM
ibrav = 0
ecutwfc = 50.0
ecutrho = 400
occupations = 'smearing'
smearing = 'mp'
degauss = 0.01
assume_isolated = 'esm'
esm_bc = 'bc1'
input_dft = 'BEEF-VDW'
nosym = .true.
nspin = 1
ntyp = 5
nat = 34
/
&ELECTRONS
electron_maxstep = 200
mixing_beta = 0.1
conv_thr = 1e-06
/
&IONS
ion_dynamics = 'bfgs'
upscale = 1.0
/
&CELL
/

K_POINTS {automatic}
8 6 1 0 0 0

ATOMIC_SPECIES
C 12.01 C.pbe-n-rrkjus_psl.1.0.0.UPF
Ga 69.72 Ga.pbe-dnl-rrkjus_psl.1.0.0.UPF
O 15.99 O.pbe-n-rrkjus_psl.1.0.0.UPF
Pd 106.4 Pd.pbe-n-rrkjus_psl.1.0.0.UPF
Sc 44.95 Sc.pbe-spn-rrkjus_psl.1.0.0.UPF

CELL_PARAMETERS {angstrom}
6.43013000 0.00000000 0.00000000
0.00000000 9.09357000 0.00000000
0.00000000 0.00000000 26.82020000

ATOMIC_POSITIONS {angstrom}
Sc 0.00000000 0.00000000 -3.410188429999998 0 0 0
Sc 3.21506500 2.27339250 -1.1366400799999994 0 0 0
Sc 3.21506500 6.82017750 -1.1366400799999994 0 0 0
Sc 0.00000000 4.54678500 -3.410188429999998 0 0 0
Sc 0.00000000 4.55024056 1.12832581
Sc 3.21506500 6.82017750 3.40804281
Sc 3.21506500 2.27339250 3.41582067
Sc 0.00000000 9.09011444 1.12832581
Ga 0.00000000 6.82017750 -1.1366400799999994 0 0 0
Ga 3.21506500 0.00000000 -3.410188429999998 0 0 0
Ga 0.00000000 2.27339250 -1.1366400799999994 0 0 0
Ga 3.21506500 4.54678500 -3.410188429999998 0 0 0
Ga 0.00000000 2.27339250 3.38202722
Ga 3.21506500 4.54169260 1.21602787
Ga 6.43006570 6.82017750 3.40589720
Ga 3.21506500 0.00509240 1.21602787
Pd 1.60753250 0.00000000 -1.1366400799999994 0 0 0
Pd 4.82259750 4.54678500 -1.1366400799999994 0 0 0
Pd 4.82259750 0.00000000 -1.1366400799999994 0 0 0
Pd 1.60753250 4.54678500 -1.1366400799999994 0 0 0
Pd 4.82259750 6.82017750 -3.410188429999998 0 0 0
Pd 1.60753250 2.27339250 -3.410188429999998 0 0 0
Pd 1.60753250 6.82017750 -3.410188429999998 0 0 0
Pd 4.82259750 2.27339250 -3.410188429999998 0 0 0
Pd 1.52085435 4.55842477 3.31202650
Pd 4.90927565 9.08193023 3.31202650
Pd 4.90927565 4.55842477 3.31202650
Pd 1.52085435 9.08193023 3.31202650
Pd 4.79970624 2.27339250 1.11893874
Pd 1.64579177 6.82017750 1.14012670
Pd 1.63042376 2.27339250 1.11920695
Pd 4.78433823 6.82017750 1.14012670
C 3.21506500 2.27339250 5.77841209
O 3.21506500 2.27339250 6.92148901
