&CONTROL
calculation = 'relax'
prefix = 'scf'
pseudo_dir = '/vol0004/mdt0/data/hp150275/u10028/POT_HYBRID_KKJUS_GBRV'
outdir = './data'
tprnfor = .true.
nstep = 50
disk_io = 'non'
/
&SYSTEM
ibrav = 0
ecutwfc = 50.0
ecutrho = 400
occupations = 'smearing'
smearing = 'mp'
degauss = 0.01
assume_isolated = 'esm'
esm_bc = 'bc1'
input_dft = 'BEEF-VDW'
nosym = .true.
nspin = 2
ntyp = 5
nat = 18
starting_magnetization(1) = 0.0
starting_magnetization(2) = 0.0
starting_magnetization(3) = 0.1
starting_magnetization(4) = 0.0
starting_magnetization(5) = 0.0
/
&ELECTRONS
electron_maxstep = 200
mixing_beta = 0.1
conv_thr = 1e-06
/
&IONS
ion_dynamics = 'bfgs'
upscale = 1.0
/
&CELL
/

K_POINTS {automatic}
10 10 2 0  0  0

ATOMIC_SPECIES
C 12.01 C.pbe-n-rrkjus_psl.1.0.0.UPF
Ga 69.72 Ga.pbe-dnl-rrkjus_psl.1.0.0.UPF
Mn 54.93 mn_pbe_v1.5.uspp.F.UPF
O 15.99 O.pbe-n-rrkjus_psl.1.0.0.UPF
V 50.94 V.pbe-spnl-rrkjus_psl.1.0.0.UPF

CELL_PARAMETERS {angstrom}
5.83886000 0.00000000 0.00000000
0.00000000 5.83886000 0.00000000
0.00000000 0.00000000 24.37910000

ATOMIC_POSITIONS {angstrom}
Mn 1.45971500 1.45971500 23.64918975
Mn 4.37914500 4.37914500 2.18948697
Mn 4.37914500 1.45971500 23.64918975
Mn 1.45971500 4.37914500 2.18948697
Mn 4.37914500 4.37914500 23.64918975
Mn 1.45971500 1.45971500 2.18948697
Mn 1.45971500 4.37914500 23.64918975
Mn 4.37914500 1.45971500 2.18948697
V 0.00000000 0.00000000 22.18961303
V 2.91943000 2.91943000 22.18961303
V 2.91943000 0.00000000 0.72991025
V 0.00000000 2.91943000 0.72991025
Ga 0.00000000 0.00000000 0.72991025
Ga 2.91943000 0.00000000 22.18961303
Ga 0.00000000 2.91943000 22.18961303
Ga 2.91943000 2.91943000 0.72991025
C 1.45971500 1.45971500 4.08959403
O 1.45971500 1.45971500 5.23955617
