&CONTROL
calculation = 'relax'
prefix = 'scf'
pseudo_dir = '/vol0004/mdt0/data/hp150275/u10028/POT_HYBRID_KKJUS_GBRV'
outdir = './data'
tprnfor = .true.
nstep = 50
disk_io = 'non'
/
&SYSTEM
ibrav = 0
ecutwfc = 50.0
ecutrho = 400
occupations = 'smearing'
smearing = 'mp'
degauss = 0.01
assume_isolated = 'esm'
esm_bc = 'bc1'
input_dft = 'BEEF-VDW'
nosym = .true.
nspin = 2
ntyp = 5
nat = 18
starting_magnetization(1) = 0.1
starting_magnetization(2) = 0.1
starting_magnetization(3) = 0.1
starting_magnetization(4) = 0.1
starting_magnetization(5) = 0.1
/
&ELECTRONS
electron_maxstep = 200
mixing_beta = 0.1
conv_thr = 1e-06
/
&IONS
ion_dynamics = 'bfgs'
upscale = 1.0
/
&CELL
/

K_POINTS {automatic}
8 8 1 0 0 0

ATOMIC_SPECIES
C 12.01 C.pbe-n-rrkjus_psl.1.0.0.UPF
Nb 92.90 Nb.pbe-spn-rrkjus_psl.1.0.0.UPF
Ni 58.69 ni_pbe_v1.4.uspp.F.UPF
O 15.99 O.pbe-n-rrkjus_psl.1.0.0.UPF
Sn 118.7 Sn.pbe-dn-rrkjus_psl.1.0.0.UPF

CELL_PARAMETERS {angstrom}
6.22550000 0.00000000 0.00000000
0.00000000 6.22550000 0.00000000
0.00000000 0.00000000 24.66910000

ATOMIC_POSITIONS {angstrom}
Nb 0.00199216 6.22450392 2.18198189
Nb 3.11212745 3.11573824 2.17359440
Nb 3.11275000 0.00000000 -0.7783100999999988 0 0 0
Nb 0.00000000 3.11275000 -0.7783100999999988 0 0 0
Ni 1.56596227 1.53639115 0.83011521
Ni 4.66912500 4.66912500 -2.33468362 0 0 0
Ni 4.66209019 1.53813429 0.82912845
Ni 1.55637500 4.66912500 -2.33468362 0 0 0
Ni 4.66022253 4.68910886 0.82715492
Ni 1.55637500 1.55637500 -2.33468362 0 0 0
Ni 1.56677159 4.69147455 0.82814169
Ni 4.66912500 1.55637500 -2.33468362 0 0 0
Sn 0.00000000 0.00000000 -0.7783100999999988 0 0 0
Sn 3.11797942 0.00354854 2.56015920
Sn 0.00024902 3.11324804 2.52192209
Sn 3.11275000 3.11275000 -0.7783100999999988 0 0 0
C 0.05702558 3.11194068 6.57456184
O 6.18621709 3.11262549 7.70514669
