&CONTROL
calculation = 'relax'
prefix = 'scf'
pseudo_dir = '/vol0004/mdt0/data/hp150275/u10028/POT_HYBRID_KKJUS_GBRV'
outdir = './data'
tprnfor = .true.
nstep = 50
disk_io = 'non'
/
&SYSTEM
ibrav = 0
ecutwfc = 50.0
ecutrho = 400
occupations = 'smearing'
smearing = 'mp'
degauss = 0.01
assume_isolated = 'esm'
esm_bc = 'bc1'
input_dft = 'BEEF-VDW'
nosym = .true.
nspin = 2
ntyp = 4
nat = 34
starting_magnetization(1) = 0.1
starting_magnetization(2) = 0.1
starting_magnetization(3) = 0.1
starting_magnetization(4) = 0.1
/
&ELECTRONS
electron_maxstep = 200
mixing_beta = 0.1
conv_thr = 1e-06
/
&IONS
ion_dynamics = 'bfgs'
upscale = 1.0
/
&CELL
/

K_POINTS {automatic}
8 6 1 0 0 0

ATOMIC_SPECIES
C 12.01 C.pbe-n-rrkjus_psl.1.0.0.UPF
Ga 69.72 Ga.pbe-dnl-rrkjus_psl.1.0.0.UPF
Ni 58.69 ni_pbe_v1.4.uspp.F.UPF
O 15.99 O.pbe-n-rrkjus_psl.1.0.0.UPF

CELL_PARAMETERS {angstrom}
5.82971000 0.00000000 0.00000000
0.00000000 8.24446000 0.00000000
0.00000000 0.00000000 26.18330000

ATOMIC_POSITIONS {angstrom}
Ga 0.00000000 0.00000000 -3.0917240600000007 0 0 0
Ga 0.00000000 2.06111500 -1.0305746899999981 0 0 0
Ga 0.04279007 8.24421267 1.10257876
Ga 5.79449855 2.10365641 3.26191551
Ga 0.00000000 4.12223000 -3.0917240600000007 0 0 0
Ga 0.00000000 6.18334500 -1.0305746899999981 0 0 0
Ga 5.82877725 4.12247733 1.04549917
Ga 5.79455685 6.14088603 3.26165368
Ga 2.91485500 0.00000000 -3.0917240600000007 0 0 0
Ga 2.91485500 2.06111500 -1.0305746899999981 0 0 0
Ga 2.87206493 8.24413022 1.10257876
Ga 2.95006645 2.10365641 3.26165368
Ga 2.91485500 4.12223000 -3.0917240600000007 0 0 0
Ga 2.91485500 6.18334500 -1.0305746899999981 0 0 0
Ga 2.91578775 4.12247733 1.04549917
Ga 2.95000815 6.14088603 3.26165368
Ni 1.45742750 2.06111500 -3.0917240600000007 0 0 0
Ni 1.45742750 0.00000000 -1.0305746899999981 0 0 0
Ni 1.45742750 2.04833609 1.05911449
Ni 1.45742750 4.12239489 3.02129099
Ni 1.45742750 6.18334500 -3.0917240600000007 0 0 0
Ni 1.45742750 4.12223000 -1.0305746899999981 0 0 0
Ni 1.45742750 6.19604147 1.05911449
Ni 1.45742750 8.24429511 3.36717238
Ni 4.37228250 2.06111500 -3.0917240600000007 0 0 0
Ni 4.37228250 0.00000000 -1.0305746899999981 0 0 0
Ni 4.37228250 2.04099852 0.97480426
Ni 4.37228250 4.12239489 3.03045514
Ni 4.37228250 6.18334500 -3.0917240600000007 0 0 0
Ni 4.37228250 4.12223000 -1.0305746899999981 0 0 0
Ni 4.37228250 6.20346148 0.97454243
Ni 4.37228250 8.24429511 2.98672903
C 1.45742750 0.00000000 5.14946961
O 1.45742750 0.00008244 6.30205848
