&CONTROL
calculation = 'relax'
prefix = 'scf'
pseudo_dir = '/vol0004/mdt0/data/hp150275/u10028/POT_KKJUS'
outdir = './data'
tprnfor = .true.
nstep = 50
disk_io = 'non'
/
&SYSTEM
ibrav = 0
ecutwfc = 50.0
ecutrho = 400
occupations = 'smearing'
smearing = 'mp'
degauss = 0.01
assume_isolated = 'esm'
esm_bc = 'bc1'
input_dft = 'BEEF-VDW'
nosym = .true.
nspin = 1
ntyp = 5
nat = 34
/
&ELECTRONS
electron_maxstep = 200
mixing_beta = 0.1
conv_thr = 1e-06
/
&IONS
ion_dynamics = 'bfgs'
upscale = 1.0
/
&CELL
/

K_POINTS {automatic}
9 6 2 0  0  0

ATOMIC_SPECIES
C 12.01 C.pbe-n-rrkjus_psl.1.0.0.UPF
Cu 63.54 Cu.pbe-dn-rrkjus_psl.1.0.0.UPF
Li 6.941 Li.pbe-sl-rrkjus_psl.1.0.0.UPF
O 15.99 O.pbe-n-rrkjus_psl.1.0.0.UPF
Si 28.08 Si.pbe-nl-rrkjus_psl.1.0.0.UPF

CELL_PARAMETERS {angstrom}
5.78917000 0.00000000 0.00000000
0.00000000 8.18712000 0.00000000
0.00000000 0.00000000 26.14030000

ATOMIC_POSITIONS {angstrom}
Li 0.00000000 0.00000000 -3.0701782400000006 0 0 0
Li 2.89458500 2.04678000 -1.0233927399999985 0 0 0
Li 2.89458500 6.14034000 -1.0233927399999985 0 0 0
Li 0.00000000 4.09356000 -3.0701782400000006 0 0 0
Li 0.00000000 4.10927927 0.86576674
Li 2.89458500 6.14034000 3.47378447
Li 2.89458500 2.04678000 3.40085303
Li 0.00000000 8.17140073 0.86576674
Cu 1.44729250 0.00000000 -1.0233927399999985 0 0 0
Cu 4.34187750 4.09356000 -1.0233927399999985 0 0 0
Cu 4.34187750 0.00000000 -1.0233927399999985 0 0 0
Cu 1.44729250 4.09356000 -1.0233927399999985 0 0 0
Cu 4.34187750 6.14034000 -3.0701782400000006 0 0 0
Cu 1.44729250 2.04678000 -3.0701782400000006 0 0 0
Cu 1.44729250 6.14034000 -3.0701782400000006 0 0 0
Cu 4.34187750 2.04678000 -3.0701782400000006 0 0 0
Cu 1.31333111 4.12991081 2.88641193
Cu 4.47583889 8.15085106 2.88641193
Cu 4.47583889 4.12991081 2.88641193
Cu 1.31333111 8.15076919 2.88641193
Cu 4.25943972 2.04678000 1.08429964
Cu 1.47976974 6.14034000 1.10573469
Cu 1.52973028 2.04678000 1.08429964
Cu 4.30940026 6.14034000 1.10573469
Si 0.00000000 6.14034000 -1.0233927399999985 0 0 0
Si 2.89458500 0.00000000 -3.0701782400000006 0 0 0
Si 0.00000000 2.04678000 -1.0233927399999985 0 0 0
Si 2.89458500 4.09356000 -3.0701782400000006 0 0 0
Si 0.00000000 2.04678000 3.09840976
Si 2.89458500 4.11148979 1.06312600
Si 0.00000000 6.14034000 3.13448337
Si 2.89458500 8.16919021 1.06312600
C 0.00000000 2.04678000 4.91019395
O 0.00000000 2.04678000 6.07709694
