&CONTROL
calculation = 'relax'
prefix = 'scf'
pseudo_dir = '/vol0403/data/hp230205/u10028/POT_HYBRID_KKJUS_GBRV'
outdir = './data'
tprnfor = .true.
nstep = 50
disk_io = 'non'
/
&SYSTEM
ibrav = 0
ecutwfc = 50.0
ecutrho = 400
occupations = 'smearing'
smearing = 'mp'
degauss = 0.01
assume_isolated = 'esm'
esm_bc = 'bc1'
input_dft = 'BEEF-VDW'
nosym = .true.
nspin = 1
ntyp = 6
nat = 18
/
&ELECTRONS
electron_maxstep = 200
mixing_beta = 0.1
conv_thr = 1e-06
/
&IONS
ion_dynamics = 'bfgs'
upscale = 1.0
/
&CELL
/

K_POINTS {automatic}
6 6 1 0 0 0

ATOMIC_SPECIES
C 12.01 C.pbe-n-rrkjus_psl.1.0.0.UPF
Ge 72.64 Ge.pbe-dn-rrkjus_psl.1.0.0.UPF
Li 6.941 Li.pbe-sl-rrkjus_psl.1.0.0.UPF
O 15.99 O.pbe-n-rrkjus_psl.1.0.0.UPF
Sn 118.7 Sn.pbe-dn-rrkjus_psl.1.0.0.UPF
Y 88.90 Y.pbe-spn-rrkjus_psl.1.0.0.UPF


CELL_PARAMETERS {angstrom}
6.05842000 0.00000000 0.00000000
0.00000000 9.43388000 0.00000000
0.00000000 0.00000000 24.54360000

ATOMIC_POSITIONS {angstrom}
Li 4.55811287 2.35847000 -0.75717006 0 0 0
Li 1.74288627 2.35837566 2.42957096
Li 4.55811287 7.07541000 -0.75717006 0 0 0
Li 1.69496416 7.07541000 2.42638030
Y 3.02921000 0.00000000 -2.2717556200000004 0 0 0
Y 0.08833176 9.42991777 0.72550882
Y 3.02921000 4.71694000 -2.2717556200000004 0 0 0
Y 0.08827118 4.72090223 0.72550882
Sn 1.52890287 2.35847000 -0.75717006 0 0 0
Sn 4.56156617 2.35837566 2.22217754
Sn 1.52890287 7.07541000 -0.75717006 0 0 0
Sn 4.53369744 7.07559868 2.27322823
Ge 0.00000000 0.00000000 -2.2717556200000004 0 0 0
Ge 3.11463372 0.01679231 1.12851473
Ge 0.00000000 4.71694000 -2.2717556200000004 0 0 0
Ge 3.11463372 4.70024203 1.12876016
C 5.21508794 2.35818698 5.87966482
O 4.28984603 2.35865868 6.54136027
