&CONTROL
calculation = 'relax'
prefix = 'scf'
pseudo_dir = '/vol0403/data/hp230205/u10028/POT_HYBRID_KKJUS_GBRV'
outdir = './data'
tprnfor = .true.
nstep = 70
disk_io = 'non'
/
&SYSTEM
ibrav = 0
ecutwfc = 50.0
ecutrho = 400
occupations = 'smearing'
smearing = 'mp'
degauss = 0.01
assume_isolated = 'esm'
esm_bc = 'bc1'
input_dft = 'BEEF-VDW'
nosym = .true.
nspin = 1
ntyp = 4
nat = 32
/
&ELECTRONS
electron_maxstep = 200
mixing_beta = 0.1
conv_thr = 1e-06
/
&IONS
ion_dynamics = 'bfgs'
upscale = 1.0
/
&CELL
/

K_POINTS {automatic}
7 7 2 0  0  0

ATOMIC_SPECIES
Ge 72.64 Ge.pbe-dn-rrkjus_psl.1.0.0.UPF
In 114.8 In.pbe-dn-rrkjus_psl.1.0.0.UPF
Pd 106.4 Pd.pbe-n-rrkjus_psl.1.0.0.UPF
Y 88.90 Y.pbe-spn-rrkjus_psl.1.0.0.UPF


CELL_PARAMETERS {angstrom}
8.87204000 0.00000000 0.00000000
-0.00000000 9.45024000 0.00000000
0.00000000 0.00000000 25.95260000

ATOMIC_POSITIONS {angstrom}
Y 2.21801000 0.00000000 -0.9921679000000019 0 0 0
Y 2.21801000 -0.00000000 2.97624417
Y 2.21801000 4.72512000 -0.9921679000000019 0 0 0
Y 2.21801000 4.72512000 2.97624417
Y 6.65403000 0.00000000 -0.9921679000000019 0 0 0
Y 6.65403000 -0.00000000 2.97624417
Y 6.65403000 4.72512000 -0.9921679000000019 0 0 0
Y 6.65403000 4.72512000 2.97624417
In 0.00000000 2.36256000 -0.9921679000000019 0 0 0
In 0.00000000 2.36256000 2.97624417
In 0.00000000 7.08768000 -0.9921679000000019 0 0 0
In 0.00000000 7.08768000 2.97624417
In 4.43602000 2.36256000 -0.9921679000000019 0 0 0
In 4.43602000 2.36256000 2.97624417
In 4.43602000 7.08768000 -0.9921679000000019 0 0 0
In 4.43602000 7.08768000 2.97624417
Ge 0.00000000 0.00000000 -2.976244170000001 0 0 0
Ge 0.00000000 0.00000000 0.99216790
Ge 0.00000000 4.72512000 -2.976244170000001 0 0 0
Ge 0.00000000 4.72512000 0.99216790
Ge 4.43602000 0.00000000 -2.976244170000001 0 0 0
Ge 4.43602000 -0.00000000 0.99216790
Ge 4.43602000 4.72512000 -2.976244170000001 0 0 0
Ge 4.43602000 4.72512000 0.99216790
Pd 2.21801000 2.36256000 -2.976244170000001 0 0 0
Pd 2.21801000 2.36256000 0.99216790
Pd 2.21801000 7.08768000 -2.976244170000001 0 0 0
Pd 2.21801000 7.08768000 0.99216790
Pd 6.65403000 2.36256000 -2.976244170000001 0 0 0
Pd 6.65403000 2.36256000 0.99216790
Pd 6.65403000 7.08768000 -2.976244170000001 0 0 0
Pd 6.65403000 7.08768000 0.99216790
