&CONTROL
calculation = 'relax'
prefix = 'scf'
pseudo_dir = '/vol0403/data/hp230205/u10028/POT_HYBRID_KKJUS_GBRV'
outdir = './data'
tprnfor = .true.
nstep = 50
disk_io = 'non'
/
&SYSTEM
ibrav = 0
ecutwfc = 50.0
ecutrho = 400
occupations = 'smearing'
smearing = 'mp'
degauss = 0.01
assume_isolated = 'esm'
esm_bc = 'bc1'
input_dft = 'BEEF-VDW'
nosym = .true.
nspin = 1
ntyp = 4
nat = 16
/
&ELECTRONS
electron_maxstep = 200
mixing_beta = 0.1
conv_thr = 1e-06
/
&IONS
ion_dynamics = 'bfgs'
upscale = 1.0
/
&CELL
/

K_POINTS {automatic}
10 10 2 0  0  0

ATOMIC_SPECIES
Ga 69.72 Ga.pbe-dnl-rrkjus_psl.1.0.0.UPF
Li 6.941 Li.pbe-sl-rrkjus_psl.1.0.0.UPF
Pd 106.4 Pd.pbe-n-rrkjus_psl.1.0.0.UPF
Sc 44.95 Sc.pbe-spn-rrkjus_psl.1.0.0.UPF


CELL_PARAMETERS {angstrom}
6.35289000 0.00000000 0.00000000
0.00000000 6.35289000 0.00000000
0.00000000 0.00000000 24.76470000

ATOMIC_POSITIONS {angstrom}
Li 4.76466750 1.58822250 -0.7942039300000019 0 0 0
Li 4.76460397 4.76466750 2.93956989
Li 1.58822250 1.58822250 2.93956989
Li 1.58822250 4.76466750 -0.7942039300000019 0 0 0
Sc 0.00000000 3.17644500 -2.38236414 0 0 0
Sc 6.35225471 0.00031764 0.79866158
Sc 3.17733440 3.17650853 0.79890922
Sc 3.17644500 0.00000000 -2.38236414 0 0 0
Ga 0.00000000 0.00000000 -2.38236414 0 0 0
Ga 0.00057176 3.17669912 0.83531333
Ga 3.17593677 6.35276294 0.83531333
Ga 3.17644500 3.17644500 -2.38236414 0 0 0
Pd 1.58822250 1.58822250 -0.7942039300000019 0 0 0
Pd 1.58834956 4.76447691 2.23550947
Pd 4.76460397 1.58834956 2.23526182
Pd 4.76466750 4.76466750 -0.7942039300000019 0 0 0
