&CONTROL
calculation = 'relax'
prefix = 'scf'
pseudo_dir = '/vol0403/data/hp230205/u10028/POT_HYBRID_KKJUS_GBRV'
outdir = './data'
tprnfor = .true.
nstep = 70
disk_io = 'non'
/
&SYSTEM
ibrav = 0
ecutwfc = 50.0
ecutrho = 400
occupations = 'smearing'
smearing = 'mp'
degauss = 0.01
assume_isolated = 'esm'
esm_bc = 'bc1'
input_dft = 'BEEF-VDW'
nosym = .true.
nspin = 1
ntyp = 6
nat = 18
/
&ELECTRONS
electron_maxstep = 200
mixing_beta = 0.1
conv_thr = 1e-06
/
&IONS
ion_dynamics = 'bfgs'
upscale = 1.0
/
&CELL
/

K_POINTS {automatic}
6 6 1 0 0 0

ATOMIC_SPECIES
C 12.01 C.pbe-n-rrkjus_psl.1.0.0.UPF
Ge 72.64 Ge.pbe-dn-rrkjus_psl.1.0.0.UPF
In 114.8 In.pbe-dn-rrkjus_psl.1.0.0.UPF
O 15.99 O.pbe-n-rrkjus_psl.1.0.0.UPF
Pd 106.4 Pd.pbe-n-rrkjus_psl.1.0.0.UPF
Y 88.90 Y.pbe-spn-rrkjus_psl.1.0.0.UPF


CELL_PARAMETERS {angstrom}
7.93684000 0.00000000 0.00000000
-0.00000000 6.48113000 0.00000000
0.00000000 0.00000000 24.85120000

ATOMIC_POSITIONS {angstrom}
Y 1.96960621 1.60232977 0.96869978
Y 1.98421000 4.55435486 -2.42547712 0 0 0
Y 5.96715442 1.60239458 0.96869978
Y 5.95263000 4.55435486 -2.42547712 0 0 0
In 2.09159545 4.84807967 0.77510893
In 1.98421000 1.31378986 -2.42547712 0 0 0
In 5.84508582 4.84833892 0.77535744
In 5.95263000 1.31378986 -2.42547712 0 0 0
Ge 0.00000000 6.08480890 2.10290854
Ge 0.00000000 3.03621497 -0.8084095399999995 0 0 0
Ge 3.96842000 6.31067628 2.32806042
Ge 3.96842000 3.03621497 -0.8084095399999995 0 0 0
Pd 0.00007937 3.49229209 2.22716454
Pd 0.00000000 6.27677997 -0.8084095399999995 0 0 0
Pd 3.96826126 3.37465958 2.22443091
Pd 3.96842000 6.27677997 -0.8084095399999995 0 0 0
C 0.00007937 2.59634068 3.96202682
O 0.00000000 2.27228418 5.06666266
