&CONTROL
calculation = 'relax'
prefix = 'scf'
pseudo_dir = '/vol0403/data/hp230205/u10028/POT_HYBRID_KKJUS_GBRV'
outdir = './data'
tprnfor = .true.
nstep = 50
disk_io = 'non'
/
&SYSTEM
ibrav = 0
ecutwfc = 50.0
ecutrho = 400
occupations = 'smearing'
smearing = 'mp'
degauss = 0.01
assume_isolated = 'esm'
esm_bc = 'bc1'
input_dft = 'BEEF-VDW'
nosym = .true.
nspin = 1
ntyp = 6
nat = 34
/
&ELECTRONS
electron_maxstep = 200
mixing_beta = 0.1
conv_thr = 1e-06
/
&IONS
ion_dynamics = 'bfgs'
upscale = 1.0
/
&CELL
/

K_POINTS {automatic}
6 6 1 0 0 0

ATOMIC_SPECIES
Ag 107.8 Ag.pbe-n-rrkjus_psl.1.0.0.UPF
Al 26.98 Al.pbe-nl-rrkjus_psl.1.0.0.UPF
C 12.01 C.pbe-n-rrkjus_psl.1.0.0.UPF
Li 6.941 Li.pbe-sl-rrkjus_psl.1.0.0.UPF
O 15.99 O.pbe-n-rrkjus_psl.1.0.0.UPF
Sn 118.7 Sn.pbe-dn-rrkjus_psl.1.0.0.UPF


CELL_PARAMETERS {angstrom}
8.16098000 0.00000000 0.00000000
0.00000000 8.56020000 0.00000000
0.00000000 0.00000000 26.50010000

ATOMIC_POSITIONS {angstrom}
Li 2.07582687 2.18404943 3.21949715
Li 2.04024500 2.14005000 -1.0833240900000014 0 0 0
Li 2.07582687 6.37615057 3.21949715
Li 2.04024500 6.42015000 -1.0833240900000014 0 0 0
Li 6.08515313 2.18404943 3.21949715
Li 6.12073500 2.14005000 -1.0833240900000014 0 0 0
Li 6.08515313 6.37615057 3.21949715
Li 6.12073500 6.42015000 -1.0833240900000014 0 0 0
Al 2.03110470 0.00000000 1.05178897
Al 2.04024500 0.00000000 -3.24997226 0 0 0
Al 2.03608290 4.28010000 1.03694891
Al 2.04024500 4.28010000 -3.24997226 0 0 0
Al 6.12987530 0.00000000 1.05178897
Al 6.12073500 0.00000000 -3.24997226 0 0 0
Al 6.12489710 4.28010000 1.03694891
Al 6.12073500 4.28010000 -3.24997226 0 0 0
Ag 0.00000000 0.00000000 3.10581172
Ag 0.00000000 0.00000000 -1.0833240900000014 0 0 0
Ag 0.00000000 4.28010000 3.12065178
Ag 0.00000000 4.28010000 -1.0833240900000014 0 0 0
Ag 4.08049000 0.00000000 3.10819673
Ag 4.08049000 0.00000000 -1.0833240900000014 0 0 0
Ag 4.08049000 4.28010000 3.07586661
Ag 4.08049000 4.28010000 -1.0833240900000014 0 0 0
Sn 0.00000000 2.11120213 1.07272405
Sn 0.00000000 2.14005000 -3.24997226 0 0 0
Sn 0.00000000 6.44899787 1.07272405
Sn 0.00000000 6.42015000 -3.24997226 0 0 0
Sn 4.08049000 2.14141963 1.03615391
Sn 4.08049000 2.14005000 -3.24997226 0 0 0
Sn 4.08049000 6.41878037 1.03615391
Sn 4.08049000 6.42015000 -3.24997226 0 0 0
C 0.00000000 0.00000000 5.23191474
O 0.00000000 0.00000000 6.38069408
