&CONTROL
calculation = 'relax'
prefix = 'scf'
pseudo_dir = '/vol0004/mdt0/data/hp150275/u10028/POT_HYBRID_KKJUS_GBRV'
outdir = './data'
tprnfor = .true.
nstep = 50
disk_io = 'non'
/
&SYSTEM
ibrav = 0
ecutwfc = 50.0
ecutrho = 400
occupations = 'smearing'
smearing = 'mp'
degauss = 0.01
assume_isolated = 'esm'
esm_bc = 'bc1'
input_dft = 'BEEF-VDW'
nosym = .true.
nspin = 2
ntyp = 5
nat = 34
starting_magnetization(1) = 0.0
starting_magnetization(2) = 0.0
starting_magnetization(3) = 0.1
starting_magnetization(4) = 0.1
starting_magnetization(5) = 0.0
/
&ELECTRONS
electron_maxstep = 300
mixing_beta = 0.1
conv_thr = 1e-06
/
&IONS
ion_dynamics = 'bfgs'
upscale = 1.0
/
&CELL
/

K_POINTS {automatic}
8 6 1 0 0 0

ATOMIC_SPECIES
Al 26.98 Al.pbe-nl-rrkjus_psl.1.0.0.UPF
C 12.01 C.pbe-n-rrkjus_psl.1.0.0.UPF
Co 58.93 co_pbe_v1.2.uspp.F.UPF
Fe 55.84 fe_pbe_v1.5.uspp.F.UPF
O 15.99 O.pbe-n-rrkjus_psl.1.0.0.UPF

CELL_PARAMETERS {angstrom}
5.71826000 0.00000000 0.00000000
0.00000000 8.08683000 0.00000000
0.00000000 0.00000000 26.06510000

ATOMIC_POSITIONS {angstrom}
Al 0.00000000 0.00000000 -3.0326743799999996 0 0 0
Al 2.85913000 2.02170750 -1.010804580000002 0 0 0
Al 2.85913000 6.06512250 -1.010804580000002 0 0 0
Al 0.00000000 4.04341500 -3.0326743799999996 0 0 0
Al 5.71745944 4.04349587 0.99334096
Al 2.84111748 6.09730808 3.11191229
Al 2.84111748 1.98952192 3.11191229
Al 0.01109342 8.08674913 0.99594747
Fe 0.00000000 6.06512250 -1.010804580000002 0 0 0
Fe 2.85913000 0.00000000 -3.0326743799999996 0 0 0
Fe 0.00000000 2.02170750 -1.010804580000002 0 0 0
Fe 2.85913000 4.04341500 -3.0326743799999996 0 0 0
Fe 5.70648038 2.07677881 2.99357673
Fe 2.86067393 4.04341500 1.01315044
Fe 5.70648038 6.00997032 2.99357673
Fe 2.86650656 0.00000000 1.02592234
Co 1.42956500 0.00000000 -1.010804580000002 0 0 0
Co 4.28869500 4.04341500 -1.010804580000002 0 0 0
Co 4.28869500 0.00000000 -1.010804580000002 0 0 0
Co 1.42956500 4.04341500 -1.010804580000002 0 0 0
Co 4.28869500 6.06512250 -3.0326743799999996 0 0 0
Co 1.42956500 2.02170750 -3.0326743799999996 0 0 0
Co 1.42956500 6.06512250 -3.0326743799999996 0 0 0
Co 4.28869500 2.02170750 -3.0326743799999996 0 0 0
Co 1.45706983 4.04333413 2.95082997
Co 4.30487768 0.00008087 2.96933619
Co 4.24895309 4.04341500 2.97246400
Co 1.39348278 0.00000000 3.05847883
Co 4.28978147 2.01758322 1.02435843
Co 1.43728465 6.07417975 1.02487973
Co 1.43722747 2.01265025 1.02461908
Co 4.28972429 6.06924678 1.02435843
C 0.90908897 0.00016174 4.73733193
O 0.63844373 0.00016174 5.87116378
