&CONTROL
calculation = 'relax'
prefix = 'scf'
pseudo_dir = '/vol0004/mdt0/data/hp150275/u10028/POT_KKJUS'
outdir = './data'
tprnfor = .true.
nstep = 50
disk_io = 'non'
/
&SYSTEM
ibrav = 0
ecutwfc = 50.0
ecutrho = 400
occupations = 'smearing'
smearing = 'mp'
degauss = 0.01
assume_isolated = 'esm'
esm_bc = 'bc1'
input_dft = 'BEEF-VDW'
nosym = .true.
nspin = 1
ntyp = 4
nat = 18
/
&ELECTRONS
electron_maxstep = 200
mixing_beta = 0.1
conv_thr = 1e-06
/
&IONS
ion_dynamics = 'bfgs'
upscale = 1.0
/
&CELL
/

K_POINTS {automatic}
8 8 1 0 0 0

ATOMIC_SPECIES
C 12.01 C.pbe-n-rrkjus_psl.1.0.0.UPF
Ca 40.07 Ca.pbe-spn-rrkjus_psl.1.0.0.UPF
Ni 58.69 Ni.pbe-spn-rrkjus_psl.1.0.0.UPF
O 15.99 O.pbe-n-rrkjus_psl.1.0.0.UPF

CELL_PARAMETERS {angstrom}
6.93038000 0.00000000 0.00000000
0.00000000 6.93038000 0.00000000
0.00000000 0.00000000 25.19780000

ATOMIC_POSITIONS {angstrom}
Ca 1.73259500 1.73259500 -1.0295821099999998 0 0 0
Ca 1.73162475 1.73231778 2.27107771
Ca 1.73259500 5.19778500 -1.0295821099999998 0 0 0
Ca 1.73314943 5.19764639 2.40714583
Ca 5.19778500 1.73259500 -1.0295821099999998 0 0 0
Ca 5.19868595 1.73217918 2.40638990
Ca 5.19778500 5.19778500 -1.0295821099999998 0 0 0
Ca 5.19757709 5.19813152 2.49483418
Ni 0.00000000 0.00000000 -2.7621828400000012 0 0 0
Ni 6.85109645 6.84991829 0.83177938
Ni 0.00000000 3.46519000 -2.7621828400000012 0 0 0
Ni 6.85206671 3.54495867 0.83530707
Ni 3.46519000 0.00000000 -2.7621828400000012 0 0 0
Ni 3.54357260 6.85081924 0.83908674
Ni 3.46519000 3.46519000 -2.7621828400000012 0 0 0
Ni 3.54322608 3.54516659 0.83681894
C 1.73273361 1.73266430 4.86115958
O 1.73287222 1.73287222 6.01446288
