&CONTROL
calculation = 'relax'
prefix = 'scf'
pseudo_dir = '/vol0403/data/hp230205/u10028/POT_HYBRID_KKJUS_GBRV'
outdir = './data'
tprnfor = .true.
nstep = 50
disk_io = 'non'
/
&SYSTEM
ibrav = 0
ecutwfc = 50.0
ecutrho = 400
occupations = 'smearing'
smearing = 'mp'
degauss = 0.01
assume_isolated = 'esm'
esm_bc = 'bc1'
input_dft = 'BEEF-VDW'
nosym = .true.
nspin = 1
ntyp = 6
nat = 34
/
&ELECTRONS
electron_maxstep = 200
mixing_beta = 0.1
conv_thr = 1e-06
/
&IONS
ion_dynamics = 'bfgs'
upscale = 1.0
/
&CELL
/

K_POINTS {automatic}
6 6 1 0 0 0

ATOMIC_SPECIES
C 12.01 C.pbe-n-rrkjus_psl.1.0.0.UPF
In 114.8 In.pbe-dn-rrkjus_psl.1.0.0.UPF
Li 6.941 Li.pbe-sl-rrkjus_psl.1.0.0.UPF
O 15.99 O.pbe-n-rrkjus_psl.1.0.0.UPF
Pt 195.0 Pt.pbe-n-rrkjus_psl.1.0.0.UPF
Y 88.90 Y.pbe-spn-rrkjus_psl.1.0.0.UPF


CELL_PARAMETERS {angstrom}
6.80323000 0.00000000 0.00000000
0.00000000 9.62122000 0.00000000
0.00000000 0.00000000 27.21590000

ATOMIC_POSITIONS {angstrom}
Li 5.10242250 0.00000000 -1.2026706200000028 0 0 0
Li 5.10242250 4.81061000 -1.2026706200000028 0 0 0
Li 1.70080750 2.40530500 -3.6080118600000013 0 0 0
Li 1.70080750 7.21591500 -3.6080118600000013 0 0 0
Li 3.58128830 4.81061000 5.06760058
Li 3.67367617 0.00000000 5.10162046
Li 1.63658501 7.21447182 1.29221093
Li 1.63658501 2.40674818 1.29193877
Y 0.00000000 2.40530500 -1.2026706200000028 0 0 0
Y 0.00000000 7.21591500 -1.2026706200000028 0 0 0
Y 3.40161500 4.81061000 -3.6080118600000013 0 0 0
Y 3.40161500 0.00000000 -3.6080118600000013 0 0 0
Y 6.46123163 7.18089376 3.55358006
Y 6.46136769 2.44013382 3.55358006
Y 3.43406641 9.62112379 1.36161148
Y 3.47393333 4.81070621 1.39399840
In 0.00000000 0.00000000 -3.6080118600000013 0 0 0
In 0.00000000 4.81061000 -3.6080118600000013 0 0 0
In 3.40161500 7.21591500 -1.2026706200000028 0 0 0
In 3.40161500 2.40530500 -1.2026706200000028 0 0 0
In 6.75023284 4.81061000 1.11694054
In 0.00244916 0.00000000 1.17817631
In 3.17704038 2.38894893 3.68394422
In 3.17704038 7.23265592 3.68448854
Pt 1.70080750 0.00000000 -1.2026706200000028 0 0 0
Pt 1.70080750 4.81061000 -1.2026706200000028 0 0 0
Pt 5.10242250 2.40530500 -3.6080118600000013 0 0 0
Pt 5.10242250 7.21591500 -3.6080118600000013 0 0 0
Pt 1.51732439 4.81070621 3.37477160
Pt 1.39439002 0.00000000 3.67469082
Pt 5.06820225 7.23130895 1.12646610
Pt 5.06820225 2.38991105 1.12646610
C 0.80019591 0.00000000 5.48863055
O 0.62821026 0.00000000 6.65455971
