&CONTROL
calculation = 'relax'
prefix = 'scf'
pseudo_dir = '/vol0004/mdt0/data/hp150275/u10028/POT_KKJUS'
outdir = './data'
tprnfor = .true.
nstep = 50
disk_io = 'non'
/
&SYSTEM
ibrav = 0
ecutwfc = 50.0
ecutrho = 400
occupations = 'smearing'
smearing = 'mp'
degauss = 0.01
assume_isolated = 'esm'
esm_bc = 'bc1'
input_dft = 'BEEF-VDW'
nosym = .true.
nspin = 1
ntyp = 5
nat = 34
/
&ELECTRONS
electron_maxstep = 200
mixing_beta = 0.1
conv_thr = 1e-06
/
&IONS
ion_dynamics = 'bfgs'
upscale = 1.0
/
&CELL
/

K_POINTS {automatic}
8 6 1 0 0 0

ATOMIC_SPECIES
C 12.01 C.pbe-n-rrkjus_psl.1.0.0.UPF
Li 6.941 Li.pbe-sl-rrkjus_psl.1.0.0.UPF
Ni 58.69 Ni.pbe-spn-rrkjus_psl.1.0.0.UPF
O 15.99 O.pbe-n-rrkjus_psl.1.0.0.UPF
Sn 118.7 Sn.pbe-dn-rrkjus_psl.1.0.0.UPF

CELL_PARAMETERS {angstrom}
6.05884000 0.00000000 0.00000000
0.00000000 8.56849000 0.00000000
0.00000000 0.00000000 26.42640000

ATOMIC_POSITIONS {angstrom}
Li 0.00000000 0.00000000 -3.213185980000002 0 0 0
Li 3.02942000 2.14212250 -1.0710619900000005 0 0 0
Li 3.02942000 6.42636750 -1.0710619900000005 0 0 0
Li 0.00000000 4.28424500 -3.213185980000002 0 0 0
Li 6.05520470 4.28415932 0.88132044
Li 3.02675411 6.25182736 3.47031485
Li 3.02699646 2.31614853 3.47005058
Li 6.05581058 8.56840432 1.11572261
Ni 1.51471000 0.00000000 -1.0710619900000005 0 0 0
Ni 4.54413000 4.28424500 -1.0710619900000005 0 0 0
Ni 4.54413000 0.00000000 -1.0710619900000005 0 0 0
Ni 1.51471000 4.28424500 -1.0710619900000005 0 0 0
Ni 4.54413000 6.42636750 -3.213185980000002 0 0 0
Ni 1.51471000 2.14212250 -3.213185980000002 0 0 0
Ni 1.51471000 6.42636750 -3.213185980000002 0 0 0
Ni 4.54413000 2.14212250 -3.213185980000002 0 0 0
Ni 1.24557633 4.28398795 2.91694603
Ni 4.34752064 8.56814726 3.21582862
Ni 4.78999773 4.28398795 2.91694603
Ni 1.70423052 8.56763315 3.21477156
Ni 4.56448770 2.13895216 1.12629317
Ni 1.48223462 6.43090880 1.12999286
Ni 1.48211344 2.13766689 1.13052139
Ni 4.56515417 6.42962353 1.12629317
Sn 0.00000000 6.42636750 -1.0710619900000005 0 0 0
Sn 3.02942000 0.00000000 -3.213185980000002 0 0 0
Sn 0.00000000 2.14212250 -1.0710619900000005 0 0 0
Sn 3.02942000 4.28424500 -3.213185980000002 0 0 0
Sn 6.05199351 2.04281370 3.35509574
Sn 3.02251292 4.28364521 1.07608301
Sn 6.05229645 6.52524787 3.35456722
Sn 3.02705705 0.00042842 0.99336838
C 3.02548175 0.00008568 4.57810954
O 3.02342175 0.00051411 5.76412637
