&CONTROL
calculation = 'relax'
prefix = 'scf'
pseudo_dir = '/vol0004/mdt0/data/hp150275/u10028/POT_HYBRID_KKJUS_GBRV'
outdir = './data'
tprnfor = .true.
nstep = 50
disk_io = 'non'
/
&SYSTEM
ibrav = 0
ecutwfc = 50.0
ecutrho = 400
occupations = 'smearing'
smearing = 'mp'
degauss = 0.01
assume_isolated = 'esm'
esm_bc = 'bc1'
input_dft = 'BEEF-VDW'
nosym = .true.
nspin = 2
ntyp = 4
nat = 33
starting_magnetization(1) = 0.0
starting_magnetization(2) = 0.1
starting_magnetization(3) = 0.1
starting_magnetization(4) = 0.0
/
&ELECTRONS
electron_maxstep = 200
mixing_beta = 0.1
conv_thr = 1e-06
/
&IONS
ion_dynamics = 'bfgs'
upscale = 1.0
/
&CELL
/

K_POINTS {automatic}
9 6 2 0  0  0

ATOMIC_SPECIES
C 12.01 C.pbe-n-rrkjus_psl.1.0.0.UPF
Co 58.93 co_pbe_v1.2.uspp.F.UPF
Mn 54.93 mn_pbe_v1.5.uspp.F.UPF
Si 28.08 Si.pbe-nl-rrkjus_psl.1.0.0.UPF

CELL_PARAMETERS {angstrom}
5.64266000 0.00000000 0.00000000
0.00000000 7.97993000 0.00000000
0.00000000 0.00000000 25.98490000

ATOMIC_POSITIONS {angstrom}
Mn 0.00000000 0.00000000 22.99247892
Mn 2.82133000 1.99498250 24.98733969
Mn 2.82133000 5.98494750 24.98733969
Mn 0.00000000 3.98996500 22.99247892
Mn 0.00000000 3.98996500 0.97053601
Mn 2.82133000 5.99037385 3.19978059
Mn 2.82133000 1.98955615 3.19978059
Mn 0.00000000 0.00000000 0.94273217
Co 1.41066500 0.00000000 24.98733969
Co 4.23199500 3.98996500 24.98733969
Co 4.23199500 0.00000000 24.98733969
Co 1.41066500 3.98996500 24.98733969
Co 4.23199500 5.98494750 22.99247892
Co 1.41066500 1.99498250 22.99247892
Co 1.41066500 5.98494750 22.99247892
Co 4.23199500 1.99498250 22.99247892
Co 1.36123530 3.98996500 2.91056865
Co 4.40172621 0.00000000 2.97657030
Co 4.28142470 3.98996500 2.91056865
Co 1.24087736 0.00000000 2.97657030
Co 4.20378170 1.97575087 1.01497019
Co 1.43887830 6.00417913 1.01471035
Co 1.43887830 1.97575087 1.01471035
Co 4.20378170 6.00417913 1.01497019
Si 0.00000000 5.98494750 24.98733969
Si 2.82133000 0.00000000 22.99247892
Si 0.00000000 1.99498250 24.98733969
Si 2.82133000 3.98996500 22.99247892
Si 0.00000000 2.04397927 2.93733310
Si 2.82133000 3.98996500 1.03289977
Si 0.00000000 5.93595073 2.93733310
Si 2.82133000 0.00000000 0.99340273
C 2.82133000 0.00000000 3.75273926
