&CONTROL
calculation = 'relax'
prefix = 'scf'
pseudo_dir = '/vol0004/mdt0/data/hp150275/u10028/POT_KKJUS'
outdir = './data'
tprnfor = .true.
nstep = 50
disk_io = 'non'
/
&SYSTEM
ibrav = 0
ecutwfc = 50.0
ecutrho = 400
occupations = 'smearing'
smearing = 'mp'
degauss = 0.01
assume_isolated = 'esm'
esm_bc = 'bc1'
input_dft = 'BEEF-VDW'
nosym = .true.
nspin = 1
ntyp = 5
nat = 34
/
&ELECTRONS
electron_maxstep = 200
mixing_beta = 0.1
conv_thr = 1e-06
/
&IONS
ion_dynamics = 'bfgs'
upscale = 1.0
/
&CELL
/

K_POINTS {automatic}
8 6 1 0 0 0

ATOMIC_SPECIES
Ag 107.8 Ag.pbe-n-rrkjus_psl.1.0.0.UPF
C 12.01 C.pbe-n-rrkjus_psl.1.0.0.UPF
Mg 24.30 Mg.pbe-spnl-rrkjus_psl.1.0.0.UPF
O 15.99 O.pbe-n-rrkjus_psl.1.0.0.UPF
Zn 65.40 Zn.pbe-dnl-rrkjus_psl.1.0.0.UPF

CELL_PARAMETERS {angstrom}
6.56971000 0.00000000 0.00000000
0.00000000 9.29097000 0.00000000
0.00000000 0.00000000 26.96820000

ATOMIC_POSITIONS {angstrom}
Mg 0.00000000 0.00000000 -3.484021760000001 0 0 0
Mg 3.28485500 2.32274250 -1.1612506899999993 0 0 0
Mg 3.28485500 6.96822750 -1.1612506899999993 0 0 0
Mg 0.00000000 4.64548500 -3.484021760000001 0 0 0
Mg 0.00000000 4.64344099 1.14102454
Mg 3.28485500 6.96832041 3.65473046
Mg 3.28485500 2.32274250 3.63962827
Mg 0.00000000 0.00157946 1.14102454
Zn 0.00000000 6.96822750 -1.1612506899999993 0 0 0
Zn 3.28485500 0.00000000 -3.484021760000001 0 0 0
Zn 0.00000000 2.32274250 -1.1612506899999993 0 0 0
Zn 3.28485500 4.64548500 -3.484021760000001 0 0 0
Zn 0.00000000 2.32283541 3.49292126
Zn 3.28478930 4.63823804 1.22300787
Zn 0.00000000 6.96822750 3.51854105
Zn 3.28492070 0.00696823 1.22273819
Ag 1.64242750 0.00000000 -1.1612506899999993 0 0 0
Ag 4.92728250 4.64548500 -1.1612506899999993 0 0 0
Ag 4.92728250 0.00000000 -1.1612506899999993 0 0 0
Ag 1.64242750 4.64548500 -1.1612506899999993 0 0 0
Ag 4.92728250 6.96822750 -3.484021760000001 0 0 0
Ag 1.64242750 2.32274250 -3.484021760000001 0 0 0
Ag 1.64242750 6.96822750 -3.484021760000001 0 0 0
Ag 4.92728250 2.32274250 -3.484021760000001 0 0 0
Ag 1.56812408 4.66341657 3.49777554
Ag 5.00165162 9.27313134 3.49750586
Ag 5.00158592 4.66350948 3.49777554
Ag 1.56805838 9.27303843 3.49723618
Ag 4.88707587 2.32255668 1.19630935
Ag 1.68066321 6.96804168 1.17284702
Ag 1.68263413 2.32255668 1.19657903
Ag 4.88904679 6.96794877 1.17284702
C 3.28485500 2.32274250 5.89497884
O 3.28485500 2.32283541 7.03735179
