&CONTROL
calculation = 'relax'
prefix = 'scf'
pseudo_dir = '/vol0403/data/hp230205/u10028/POT_HYBRID_KKJUS_GBRV'
outdir = './data'
tprnfor = .true.
nstep = 50
disk_io = 'non'
/
&SYSTEM
ibrav = 0
ecutwfc = 50.0
ecutrho = 400
occupations = 'smearing'
smearing = 'mp'
degauss = 0.01
assume_isolated = 'esm'
esm_bc = 'bc1'
input_dft = 'BEEF-VDW'
nosym = .true.
nspin = 1
ntyp = 6
nat = 34
/
&ELECTRONS
electron_maxstep = 200
mixing_beta = 0.1
conv_thr = 1e-06
/
&IONS
ion_dynamics = 'bfgs'
upscale = 1.0
/
&CELL
/

K_POINTS {automatic}
7 7 2 0  0  0

ATOMIC_SPECIES
C 12.01 C.pbe-n-rrkjus_psl.1.0.0.UPF
Ge 72.64 Ge.pbe-dn-rrkjus_psl.1.0.0.UPF
In 114.8 In.pbe-dn-rrkjus_psl.1.0.0.UPF
Li 6.941 Li.pbe-sl-rrkjus_psl.1.0.0.UPF
Mg 24.30 Mg.pbe-spnl-rrkjus_psl.1.0.0.UPF
O 15.99 O.pbe-n-rrkjus_psl.1.0.0.UPF


CELL_PARAMETERS {angstrom}
8.41850000 0.00000000 0.00000000
0.00000000 8.40992000 0.00000000
0.00000000 0.00000000 26.56300000

ATOMIC_POSITIONS {angstrom}
Li 0.00000000 2.10248000 -1.0938643399999997 0 0 0
Li 8.41841581 2.10248000 3.47151847
Li 0.00000000 6.30744000 -1.0938643399999997 0 0 0
Li 0.00000000 6.30744000 3.36261017
Li 4.20925000 2.10248000 -1.0938643399999997 0 0 0
Li 4.20925000 2.10248000 3.29620267
Li 4.20925000 6.30744000 -1.0938643399999997 0 0 0
Li 4.20916581 6.30744000 3.27335849
Mg 2.10462500 2.10248000 -3.281593019999999 0 0 0
Mg 2.07322399 2.10248000 1.20649146
Mg 2.10462500 6.30744000 -3.281593019999999 0 0 0
Mg 2.08921914 6.30744000 1.18603795
Mg 6.31387500 2.10248000 -3.281593019999999 0 0 0
Mg 6.34519182 2.10248000 1.20649146
Mg 6.31387500 6.30744000 -3.281593019999999 0 0 0
Mg 6.32944923 6.30744000 1.18630358
In 2.10462500 0.00000000 -1.0938643399999997 0 0 0
In 2.14385521 8.38687682 3.61708371
In 2.10462500 4.20496000 -1.0938643399999997 0 0 0
In 2.14385521 4.22800318 3.61708371
In 6.31387500 0.00000000 -1.0938643399999997 0 0 0
In 6.27456061 8.38704502 3.61708371
In 6.31387500 4.20496000 -1.0938643399999997 0 0 0
In 6.27456061 4.22783498 3.61708371
Ge 0.00000000 0.00000000 -3.281593019999999 0 0 0
Ge 0.00000000 0.00555055 1.37463525
Ge 0.00000000 4.20496000 -3.281593019999999 0 0 0
Ge 0.00000000 4.19940945 1.37463525
Ge 4.20925000 0.00000000 -3.281593019999999 0 0 0
Ge 4.20925000 0.00243888 1.30025885
Ge 4.20925000 4.20496000 -3.281593019999999 0 0 0
Ge 4.20925000 4.20252112 1.30025885
C 0.00008419 2.10248000 5.56866732
O 0.00008419 2.10248000 6.71167321
