&CONTROL
calculation = 'relax'
prefix = 'scf'
pseudo_dir = '/vol0004/mdt0/data/hp150275/u10028/POT_KKJUS'
outdir = './data'
tprnfor = .true.
nstep = 50
disk_io = 'non'
/
&SYSTEM
ibrav = 0
ecutwfc = 50.0
ecutrho = 400
occupations = 'smearing'
smearing = 'mp'
degauss = 0.01
assume_isolated = 'esm'
esm_bc = 'bc1'
input_dft = 'BEEF-VDW'
nosym = .true.
nspin = 1
ntyp = 4
nat = 34
/
&ELECTRONS
electron_maxstep = 200
mixing_beta = 0.1
conv_thr = 1e-06
/
&IONS
ion_dynamics = 'bfgs'
upscale = 1.0
/
&CELL
/

K_POINTS {automatic}
8 6 1 0 0 0

ATOMIC_SPECIES
C 12.01 C.pbe-n-rrkjus_psl.1.0.0.UPF
O 15.99 O.pbe-n-rrkjus_psl.1.0.0.UPF
Pt 195.0 Pt.pbe-n-rrkjus_psl.1.0.0.UPF
Ti 47.86 Ti.pbe-spn-rrkjus_psl.1.0.0.UPF

CELL_PARAMETERS {angstrom}
6.37073000 0.00000000 0.00000000
0.00000000 9.00957000 0.00000000
0.00000000 0.00000000 26.75720000

ATOMIC_POSITIONS {angstrom}
Ti 1.59268250 2.25239250 -3.378631640000002 0 0 0
Ti 1.59268250 0.00000000 -1.1262105499999997 0 0 0
Ti 1.69678023 2.25221231 1.11711310
Ti 1.63619459 8.96515282 3.35508531
Ti 1.59268250 6.75717750 -3.378631640000002 0 0 0
Ti 1.59268250 4.50478500 -1.1262105499999997 0 0 0
Ti 1.46577756 6.75726760 1.06600685
Ti 1.63574863 4.54965266 3.35535288
Ti 4.77804750 2.25239250 -3.378631640000002 0 0 0
Ti 4.77804750 0.00000000 -1.1262105499999997 0 0 0
Ti 4.67445943 2.25248260 1.11711310
Ti 4.73466283 8.96515282 3.35481774
Ti 4.77804750 6.75717750 -3.378631640000002 0 0 0
Ti 4.77804750 4.50478500 -1.1262105499999997 0 0 0
Ti 4.90463391 6.75699731 1.06600685
Ti 4.73517249 4.54965266 3.35455016
Pt 0.00000000 0.00000000 -3.378631640000002 0 0 0
Pt 0.00000000 2.25239250 -1.1262105499999997 0 0 0
Pt 0.00012741 0.33182246 1.29103490
Pt 0.00012741 2.25266279 3.63014932
Pt 0.00000000 4.50478500 -3.378631640000002 0 0 0
Pt 0.00000000 6.75717750 -1.1262105499999997 0 0 0
Pt 0.00057337 4.17260215 1.29023218
Pt 0.00000000 6.75690721 3.22959404
Pt 3.18536500 0.00000000 -3.378631640000002 0 0 0
Pt 3.18536500 2.25239250 -1.1262105499999997 0 0 0
Pt 3.18530129 8.72171424 1.11095894
Pt 3.18549241 2.25266279 3.22343988
Pt 3.18536500 4.50478500 -3.378631640000002 0 0 0
Pt 3.18536500 6.75717750 -1.1262105499999997 0 0 0
Pt 3.18485534 4.79219028 1.11176166
Pt 3.18530129 6.75735769 3.20925857
C 0.00006371 2.25230240 5.51305349
O 0.00000000 2.25239250 6.67378082
