&CONTROL
calculation = 'relax'
prefix = 'scf'
pseudo_dir = '/vol0403/data/hp230205/u10028/POT_HYBRID_KKJUS_GBRV'
outdir = './data'
tprnfor = .true.
nstep = 50
disk_io = 'non'
/
&SYSTEM
ibrav = 0
ecutwfc = 50.0
ecutrho = 400
occupations = 'smearing'
smearing = 'mp'
degauss = 0.01
assume_isolated = 'esm'
esm_bc = 'bc1'
input_dft = 'BEEF-VDW'
nosym = .true.
nspin = 1
ntyp = 6
nat = 18
/
&ELECTRONS
electron_maxstep = 200
mixing_beta = 0.1
conv_thr = 1e-06
/
&IONS
ion_dynamics = 'bfgs'
upscale = 1.0
/
&CELL
/

K_POINTS {automatic}
11 7 2 0  0  0

ATOMIC_SPECIES
C 12.01 C.pbe-n-rrkjus_psl.1.0.0.UPF
Cu 63.54 Cu.pbe-dn-rrkjus_psl.1.0.0.UPF
In 114.8 In.pbe-dn-rrkjus_psl.1.0.0.UPF
O 15.99 O.pbe-n-rrkjus_psl.1.0.0.UPF
Sn 118.7 Sn.pbe-dn-rrkjus_psl.1.0.0.UPF
Y 88.90 Y.pbe-spn-rrkjus_psl.1.0.0.UPF


CELL_PARAMETERS {angstrom}
6.24938000 0.00000000 0.00000000
0.00000000 9.14612000 0.00000000
0.00000000 0.00000000 24.68700000

ATOMIC_POSITIONS {angstrom}
Y 1.55903283 2.28653000 -0.781096680000001 0 0 0
Y 4.68697251 2.28643854 2.36674269
Y 1.55903283 6.85959000 -0.781096680000001 0 0 0
Y 4.63035312 6.85977292 2.31959052
In 3.12469000 0.00000000 -2.343536910000001 0 0 0
In 0.19916774 9.14191278 1.01266074
In 3.12469000 4.57306000 -2.343536910000001 0 0 0
In 0.19898026 4.57717575 1.01241387
Cu 0.00000000 0.00000000 -2.343536910000001 0 0 0
Cu 3.16118638 9.13624219 0.79418079
Cu 0.00000000 4.57306000 -2.343536910000001 0 0 0
Cu 3.16118638 4.58312073 0.79442766
Sn 4.68372283 2.28653000 -0.781096680000001 0 0 0
Sn 1.62346394 2.28680438 2.56201686
Sn 4.68372283 6.85959000 -0.781096680000001 0 0 0
Sn 1.54972125 6.85922416 2.58546951
C 5.60744369 2.28634708 4.67152101
O 5.98146908 2.28625562 5.76194580
