&CONTROL
calculation = 'relax'
prefix = 'scf'
pseudo_dir = '/vol0004/mdt0/data/hp150275/u10028/POT_KKJUS'
outdir = './data'
tprnfor = .true.
nstep = 50
disk_io = 'non'
/
&SYSTEM
ibrav = 0
ecutwfc = 50.0
ecutrho = 400
occupations = 'smearing'
smearing = 'mp'
degauss = 0.01
assume_isolated = 'esm'
esm_bc = 'bc1'
input_dft = 'BEEF-VDW'
nosym = .true.
nspin = 1
ntyp = 2
nat = 32
/
&ELECTRONS
electron_maxstep = 200
mixing_beta = 0.1
conv_thr = 1e-06
/
&IONS
ion_dynamics = 'bfgs'
upscale = 1.0
/
&CELL
/

K_POINTS {automatic}
8 8 1 0 0 0

ATOMIC_SPECIES
Al 26.98 Al.pbe-nl-rrkjus_psl.1.0.0.UPF
Sc 44.95 Sc.pbe-spn-rrkjus_psl.1.0.0.UPF

CELL_PARAMETERS {angstrom}
8.18271000 0.00000000 0.00000000
-0.00000000 8.18271000 0.00000000
0.00000000 0.00000000 26.13700000

ATOMIC_POSITIONS {angstrom}
Sc 0.00000000 0.00000000 3.06848380
Sc 0.00000000 0.00000000 -1.022740810000002 0 0 0
Sc 0.00000000 4.09135500 3.06848380
Sc 0.00000000 4.09135500 -1.022740810000002 0 0 0
Sc 4.09135500 -0.00000000 3.06848380
Sc 4.09135500 0.00000000 -1.022740810000002 0 0 0
Sc 4.09135500 4.09135500 3.06848380
Sc 4.09135500 4.09135500 -1.022740810000002 0 0 0
Al 0.00000000 2.04567750 1.02274081
Al 2.04567750 -0.00000000 1.02274081
Al 2.04567750 2.04567750 3.06848380
Al 0.00000000 2.04567750 -3.068483799999999 0 0 0
Al 2.04567750 0.00000000 -3.068483799999999 0 0 0
Al 2.04567750 2.04567750 -1.022740810000002 0 0 0
Al 0.00000000 6.13703250 1.02274081
Al 2.04567750 4.09135500 1.02274081
Al 2.04567750 6.13703250 3.06848380
Al 0.00000000 6.13703250 -3.068483799999999 0 0 0
Al 2.04567750 4.09135500 -3.068483799999999 0 0 0
Al 2.04567750 6.13703250 -1.022740810000002 0 0 0
Al 4.09135500 2.04567750 1.02274081
Al 6.13703250 -0.00000000 1.02274081
Al 6.13703250 2.04567750 3.06848380
Al 4.09135500 2.04567750 -3.068483799999999 0 0 0
Al 6.13703250 0.00000000 -3.068483799999999 0 0 0
Al 6.13703250 2.04567750 -1.022740810000002 0 0 0
Al 4.09135500 6.13703250 1.02274081
Al 6.13703250 4.09135500 1.02274081
Al 6.13703250 6.13703250 3.06848380
Al 4.09135500 6.13703250 -3.068483799999999 0 0 0
Al 6.13703250 4.09135500 -3.068483799999999 0 0 0
Al 6.13703250 6.13703250 -1.022740810000002 0 0 0
