&CONTROL
calculation = 'relax'
prefix = 'scf'
pseudo_dir = '/vol0403/data/hp230205/u10028/POT_HYBRID_KKJUS_GBRV'
outdir = './data'
tprnfor = .true.
nstep = 50
disk_io = 'non'
/
&SYSTEM
ibrav = 0
ecutwfc = 50.0
ecutrho = 400
occupations = 'smearing'
smearing = 'mp'
degauss = 0.01
assume_isolated = 'esm'
esm_bc = 'bc1'
input_dft = 'BEEF-VDW'
nosym = .true.
nspin = 1
ntyp = 5
nat = 33
/
&ELECTRONS
electron_maxstep = 200
mixing_beta = 0.1
conv_thr = 1e-06
/
&IONS
ion_dynamics = 'bfgs'
upscale = 1.0
/
&CELL
/

K_POINTS {automatic}
9 6 2 0  0  0

ATOMIC_SPECIES
C 12.01 C.pbe-n-rrkjus_psl.1.0.0.UPF
In 114.8 In.pbe-dn-rrkjus_psl.1.0.0.UPF
Ir 192.2 Ir.pbe-n-rrkjus_psl.0.2.3.UPF
Li 6.941 Li.pbe-sl-rrkjus_psl.1.0.0.UPF
Pd 106.4 Pd.pbe-n-rrkjus_psl.1.0.0.UPF


CELL_PARAMETERS {angstrom}
6.33559000 0.00000000 0.00000000
0.00000000 8.95988000 0.00000000
0.00000000 0.00000000 26.71990000

ATOMIC_POSITIONS {angstrom}
Li 0.00000000 2.23997000 -1.1200982099999983 0 0 0
Li 0.00000000 6.71991000 -1.1200982099999983 0 0 0
Li 3.16779500 4.47994000 -3.360027429999999 0 0 0
Li 3.16779500 0.00000000 -3.360027429999999 0 0 0
Li 0.04770699 6.73666498 3.63283760
Li 0.04770699 2.22321502 3.63283760
Li 3.18483774 0.00000000 1.11234944
Li 3.14847145 4.47994000 1.12918297
In 0.00000000 0.00000000 -3.360027429999999 0 0 0
In 0.00000000 4.47994000 -3.360027429999999 0 0 0
In 3.16779500 6.71991000 -1.1200982099999983 0 0 0
In 3.16779500 2.23997000 -1.1200982099999983 0 0 0
In 0.01419172 4.47994000 1.03112094
In 6.27882311 0.00000000 1.04261050
In 3.18407747 2.41621084 3.52435481
In 3.18407747 6.54366916 3.52435481
Ir 1.58389750 0.00000000 -1.1200982099999983 0 0 0
Ir 1.58389750 4.47994000 -1.1200982099999983 0 0 0
Ir 4.75169250 2.23997000 -3.360027429999999 0 0 0
Ir 4.75169250 6.71991000 -3.360027429999999 0 0 0
Ir 1.51889435 4.47994000 3.23417670
Ir 1.63078087 0.00000000 3.33384192
Ir 4.73350936 6.72501713 1.21735864
Ir 4.73350936 2.23486287 1.21735864
Pd 4.75169250 0.00000000 -1.1200982099999983 0 0 0
Pd 4.75169250 4.47994000 -1.1200982099999983 0 0 0
Pd 1.58389750 2.23997000 -3.360027429999999 0 0 0
Pd 1.58389750 6.71991000 -3.360027429999999 0 0 0
Pd 4.92598458 4.47994000 3.28628050
Pd 4.79078309 0.00000000 3.38701452
Pd 1.60360118 6.78325635 1.20533469
Pd 1.60360118 2.17662365 1.20533469
C 3.06838959 0.00000000 4.41973866
