&CONTROL
calculation = 'relax'
prefix = 'scf'
pseudo_dir = '/vol0403/data/hp230205/u10028/POT_HYBRID_KKJUS_GBRV'
outdir = './data'
tprnfor = .true.
nstep = 50
disk_io = 'non'
/
&SYSTEM
ibrav = 0
ecutwfc = 50.0
ecutrho = 400
occupations = 'smearing'
smearing = 'mp'
degauss = 0.01
assume_isolated = 'esm'
esm_bc = 'bc1'
input_dft = 'BEEF-VDW'
nosym = .true.
nspin = 2
ntyp = 5
nat = 33
starting_magnetization(1) = 0.0
starting_magnetization(2) = 0.0
starting_magnetization(3) = 0.1
starting_magnetization(4) = 0.0
starting_magnetization(5) = 0.0
/
&ELECTRONS
electron_maxstep = 400
mixing_beta = 0.05
conv_thr = 1e-06
/
&IONS
ion_dynamics = 'bfgs'
upscale = 1.0
/
&CELL
/

K_POINTS {automatic}
9 6 2 0  0  0

ATOMIC_SPECIES
Al 26.98 Al.pbe-nl-rrkjus_psl.1.0.0.UPF
C 12.01 C.pbe-n-rrkjus_psl.1.0.0.UPF
Fe 55.84 fe_pbe_v1.5.uspp.F.UPF
Li 6.941 Li.pbe-sl-rrkjus_psl.1.0.0.UPF
Pd 106.4 Pd.pbe-n-rrkjus_psl.1.0.0.UPF


CELL_PARAMETERS {angstrom}
5.67696000 0.00000000 0.00000000
0.00000000 8.60712000 0.00000000
0.00000000 0.00000000 26.63180000

ATOMIC_POSITIONS {angstrom}
Li 0.00000000 2.15178000 25.52658030
Li 5.27400938 2.15178000 3.06904863
Li 0.00000000 6.45534000 25.52658030
Li 0.09832495 6.45534000 3.57212333
Li 2.83848000 2.15178000 25.52658030
Li 3.24086292 2.15178000 3.06532018
Li 2.83848000 6.45534000 25.52658030
Li 2.74043890 6.45534000 3.57425388
Al 0.00000000 0.00000000 23.31587458
Al 5.67429183 8.59963181 1.04210233
Al 0.00000000 4.30356000 23.31587458
Al 5.67429183 4.31104819 1.04210233
Al 2.83848000 0.00000000 23.31587458
Al 2.84160233 8.60496822 1.04183602
Al 2.83848000 4.30356000 23.31587458
Al 2.84160233 4.30571178 1.04183602
Fe 1.41924000 2.15178000 23.31587458
Fe 1.41515259 2.15178000 1.32466573
Fe 1.41924000 6.45534000 23.31587458
Fe 1.42468988 6.45534000 1.24769983
Fe 4.25772000 2.15178000 23.31587458
Fe 4.26192095 2.15178000 0.83304270
Fe 4.25772000 6.45534000 23.31587458
Fe 4.25209981 6.45534000 1.12599250
Pd 1.41924000 0.00000000 25.52658030
Pd 1.41929677 0.18729093 3.21978462
Pd 1.41924000 4.30356000 25.52658030
Pd 1.41924000 4.11626907 3.21978462
Pd 4.25772000 0.00000000 25.52658030
Pd 4.25766323 8.40433625 3.12098064
Pd 4.25772000 4.30356000 25.52658030
Pd 4.25766323 4.50634375 3.12098064
C 1.41941031 2.15178000 3.54975262
