&CONTROL
calculation = 'relax'
prefix = 'scf'
pseudo_dir = '/vol0004/mdt0/data/hp150275/u10028/POT_KKJUS'
outdir = './data'
tprnfor = .true.
nstep = 50
disk_io = 'non'
/
&SYSTEM
ibrav = 0
ecutwfc = 50.0
ecutrho = 400
occupations = 'smearing'
smearing = 'mp'
degauss = 0.01
assume_isolated = 'esm'
esm_bc = 'bc1'
input_dft = 'BEEF-VDW'
nosym = .true.
nspin = 1
ntyp = 2
nat = 32
/
&ELECTRONS
electron_maxstep = 200
mixing_beta = 0.1
conv_thr = 1e-06
/
&IONS
ion_dynamics = 'bfgs'
upscale = 1.0
/
&CELL
/

K_POINTS {automatic}
8 8 1 0 0 0

ATOMIC_SPECIES
Al 26.98 Al.pbe-nl-rrkjus_psl.1.0.0.UPF
Zr 91.22 Zr.pbe-spn-rrkjus_psl.1.0.0.UPF

CELL_PARAMETERS {angstrom}
8.19423000 0.00000000 0.00000000
-0.00000000 8.19423000 0.00000000
0.00000000 0.00000000 26.14570000

ATOMIC_POSITIONS {angstrom}
Zr 0.00000000 0.00000000 -3.0729041200000005 0 0 0
Zr 0.00000000 0.00000000 1.02438853
Zr 0.00000000 4.09711500 -3.0729041200000005 0 0 0
Zr 0.00000000 4.09711500 1.02438853
Zr 4.09711500 0.00000000 -3.0729041200000005 0 0 0
Zr 4.09711500 -0.00000000 1.02438853
Zr 4.09711500 4.09711500 -3.0729041200000005 0 0 0
Zr 4.09711500 4.09711500 1.02438853
Al 0.00000000 2.04855750 -1.024388530000003 0 0 0
Al 2.04855750 0.00000000 -1.024388530000003 0 0 0
Al 2.04855750 2.04855750 -3.0729041200000005 0 0 0
Al 0.00000000 2.04855750 3.07290412
Al 2.04855750 -0.00000000 3.07290412
Al 2.04855750 2.04855750 1.02438853
Al 0.00000000 6.14567250 -1.024388530000003 0 0 0
Al 2.04855750 4.09711500 -1.024388530000003 0 0 0
Al 2.04855750 6.14567250 -3.0729041200000005 0 0 0
Al 0.00000000 6.14567250 3.07290412
Al 2.04855750 4.09711500 3.07290412
Al 2.04855750 6.14567250 1.02438853
Al 4.09711500 2.04855750 -1.024388530000003 0 0 0
Al 6.14567250 0.00000000 -1.024388530000003 0 0 0
Al 6.14567250 2.04855750 -3.0729041200000005 0 0 0
Al 4.09711500 2.04855750 3.07290412
Al 6.14567250 -0.00000000 3.07290412
Al 6.14567250 2.04855750 1.02438853
Al 4.09711500 6.14567250 -1.024388530000003 0 0 0
Al 6.14567250 4.09711500 -1.024388530000003 0 0 0
Al 6.14567250 6.14567250 -3.0729041200000005 0 0 0
Al 4.09711500 6.14567250 3.07290412
Al 6.14567250 4.09711500 3.07290412
Al 6.14567250 6.14567250 1.02438853
