&CONTROL
calculation = 'relax'
prefix = 'scf'
pseudo_dir = '/vol0004/mdt0/data/hp150275/u10028/POT_KKJUS'
outdir = './data'
tprnfor = .true.
nstep = 50
disk_io = 'non'
/
&SYSTEM
ibrav = 0
ecutwfc = 50.0
ecutrho = 400
occupations = 'smearing'
smearing = 'mp'
degauss = 0.01
assume_isolated = 'esm'
esm_bc = 'bc1'
input_dft = 'BEEF-VDW'
nosym = .true.
nspin = 1
ntyp = 4
nat = 34
/
&ELECTRONS
electron_maxstep = 200
mixing_beta = 0.1
conv_thr = 1e-06
/
&IONS
ion_dynamics = 'bfgs'
upscale = 1.0
/
&CELL
/

K_POINTS {automatic}
8 6 1 0 0 0

ATOMIC_SPECIES
C 12.01 C.pbe-n-rrkjus_psl.1.0.0.UPF
Ir 192.2 Ir.pbe-n-rrkjus_psl.0.2.3.UPF
O 15.99 O.pbe-n-rrkjus_psl.1.0.0.UPF
Zr 91.22 Zr.pbe-spn-rrkjus_psl.1.0.0.UPF

CELL_PARAMETERS {angstrom}
6.65024000 0.00000000 0.00000000
0.00000000 9.40485000 0.00000000
0.00000000 0.00000000 27.05360000

ATOMIC_POSITIONS {angstrom}
Zr 1.66256000 2.35121250 -3.526707299999998 0 0 0
Zr 1.66256000 0.00000000 -1.1754789199999998 0 0 0
Zr 1.69614371 2.35121250 1.15464765
Zr 1.69926932 9.36252817 3.53401177
Zr 1.66256000 7.05363750 -3.526707299999998 0 0 0
Zr 1.66256000 4.70242500 -1.1754789199999998 0 0 0
Zr 1.63595904 7.05363750 1.14571996
Zr 1.69926932 4.74474682 3.53401177
Zr 4.98768000 2.35121250 -3.526707299999998 0 0 0
Zr 4.98768000 0.00000000 -1.1754789199999998 0 0 0
Zr 4.95409629 2.35121250 1.15464765
Zr 4.95097068 9.36252818 3.53401177
Zr 4.98768000 7.05363750 -3.526707299999998 0 0 0
Zr 4.98768000 4.70242500 -1.1754789199999998 0 0 0
Zr 5.01428096 7.05363750 1.14571996
Zr 4.95097068 4.74474683 3.53401177
Ir 0.00000000 0.00000000 -3.526707299999998 0 0 0
Ir 0.00000000 2.35121250 -1.1754789199999998 0 0 0
Ir 0.00000000 0.13524174 1.34131749
Ir 0.00000000 2.35111845 3.53779927
Ir 0.00000000 4.70242500 -3.526707299999998 0 0 0
Ir 0.00000000 7.05363750 -1.1754789199999998 0 0 0
Ir 0.00000000 4.56718326 1.34131749
Ir 0.00000000 7.05363750 3.30676153
Ir 3.32512000 0.00000000 -3.526707299999998 0 0 0
Ir 3.32512000 2.35121250 -1.1754789199999998 0 0 0
Ir 3.32512000 9.34164941 1.13868602
Ir 3.32512000 2.35121250 3.26699274
Ir 3.32512000 4.70242500 -3.526707299999998 0 0 0
Ir 3.32512000 7.05363750 -1.1754789199999998 0 0 0
Ir 3.32512000 4.76562559 1.13868602
Ir 3.32512000 7.05363750 3.25373647
C 0.00000000 2.35121250 5.40612089
O 0.00000000 2.35121250 6.57673016
