&CONTROL
calculation = 'relax'
prefix = 'scf'
pseudo_dir = '/vol0004/mdt0/data/hp150275/u10028/POT_KKJUS'
outdir = './data'
tprnfor = .true.
nstep = 50
disk_io = 'non'
/
&SYSTEM
ibrav = 0
ecutwfc = 50.0
ecutrho = 400
occupations = 'smearing'
smearing = 'mp'
degauss = 0.01
assume_isolated = 'esm'
esm_bc = 'bc1'
input_dft = 'BEEF-VDW'
nosym = .true.
nspin = 1
ntyp = 5
nat = 34
/
&ELECTRONS
electron_maxstep = 200
mixing_beta = 0.1
conv_thr = 1e-06
/
&IONS
ion_dynamics = 'bfgs'
upscale = 1.0
/
&CELL
/

K_POINTS {automatic}
9 6 2 0  0  0

ATOMIC_SPECIES
Al 26.98 Al.pbe-nl-rrkjus_psl.1.0.0.UPF
Au 196.9 Au.pbe-n-rrkjus_psl.1.0.0.UPF
C 12.01 C.pbe-n-rrkjus_psl.1.0.0.UPF
Hf 178.4 Hf.pbe-spn-rrkjus_psl.1.0.0.UPF
O 15.99 O.pbe-n-rrkjus_psl.1.0.0.UPF

CELL_PARAMETERS {angstrom}
6.63475000 0.00000000 0.00000000
0.00000000 9.38295000 0.00000000
0.00000000 0.00000000 27.03720000

ATOMIC_POSITIONS {angstrom}
Hf 0.00000000 0.00000000 -3.518621209999999 0 0 0
Hf 3.31737500 2.34573750 -1.17287374 0 0 0
Hf 3.31737500 7.03721250 -1.17287374 0 0 0
Hf 0.00000000 4.69147500 -3.518621209999999 0 0 0
Hf 0.00000000 4.70489262 1.28210402
Hf 3.31737500 7.03721250 3.41669096
Hf 3.31737500 2.34573750 3.46616904
Hf 0.00000000 9.36953238 1.28210402
Al 0.00000000 7.03721250 -1.17287374 0 0 0
Al 3.31737500 0.00000000 -3.518621209999999 0 0 0
Al 0.00000000 2.34573750 -1.17287374 0 0 0
Al 3.31737500 4.69147500 -3.518621209999999 0 0 0
Al 0.00000000 2.34573750 3.51997307
Al 3.31737500 4.67139549 1.17801080
Al 0.00000000 7.03721250 3.50591372
Al 3.31737500 0.02007951 1.17801080
Au 1.65868750 0.00000000 -1.17287374 0 0 0
Au 4.97606250 4.69147500 -1.17287374 0 0 0
Au 4.97606250 0.00000000 -1.17287374 0 0 0
Au 1.65868750 4.69147500 -1.17287374 0 0 0
Au 4.97606250 7.03721250 -3.518621209999999 0 0 0
Au 1.65868750 2.34573750 -3.518621209999999 0 0 0
Au 1.65868750 7.03721250 -3.518621209999999 0 0 0
Au 4.97606250 2.34573750 -3.518621209999999 0 0 0
Au 1.66671555 4.70160859 3.61919959
Au 4.96810080 9.37281641 3.61919959
Au 4.96803445 4.70160859 3.61919959
Au 1.66671555 9.37272258 3.61919959
Au 5.00625061 2.34573750 1.12069194
Au 1.67766288 7.03721250 1.12988459
Au 1.62843304 2.34573750 1.12069194
Au 4.95708712 7.03721250 1.12988459
C 3.31737500 2.34573750 5.67781200
O 3.31737500 2.34573750 6.83067821
