&CONTROL
calculation = 'relax'
prefix = 'scf'
pseudo_dir = '/vol0004/mdt0/data/hp150275/u10028/POT_KKJUS'
outdir = './data'
tprnfor = .true.
nstep = 50
disk_io = 'non'
/
&SYSTEM
ibrav = 0
ecutwfc = 50.0
ecutrho = 400
occupations = 'smearing'
smearing = 'mp'
degauss = 0.01
assume_isolated = 'esm'
esm_bc = 'bc1'
input_dft = 'BEEF-VDW'
nosym = .true.
nspin = 1
ntyp = 5
nat = 34
/
&ELECTRONS
electron_maxstep = 200
mixing_beta = 0.1
conv_thr = 1e-06
/
&IONS
ion_dynamics = 'bfgs'
upscale = 1.0
/
&CELL
/

K_POINTS {automatic}
8 6 1 0 0 0

ATOMIC_SPECIES
C 12.01 C.pbe-n-rrkjus_psl.1.0.0.UPF
Cu 63.54 Cu.pbe-dn-rrkjus_psl.1.0.0.UPF
Ga 69.72 Ga.pbe-dnl-rrkjus_psl.1.0.0.UPF
O 15.99 O.pbe-n-rrkjus_psl.1.0.0.UPF
Sc 44.95 Sc.pbe-spn-rrkjus_psl.1.0.0.UPF

CELL_PARAMETERS {angstrom}
6.23499000 0.00000000 0.00000000
0.00000000 8.81761000 0.00000000
0.00000000 0.00000000 26.61320000

ATOMIC_POSITIONS {angstrom}
Sc 0.00000000 0.00000000 -3.306690100000001 0 0 0
Sc 3.11749500 2.20440250 -1.1023187399999976 0 0 0
Sc 3.11749500 6.61320750 -1.1023187399999976 0 0 0
Sc 0.00000000 4.40880500 -3.306690100000001 0 0 0
Sc 6.19159447 4.40871682 1.12360930
Sc 2.87351984 6.86362762 3.45998213
Sc 2.87339514 1.95407055 3.46024826
Sc 0.08697811 8.81752182 1.13531911
Ga 0.00000000 6.61320750 -1.1023187399999976 0 0 0
Ga 3.11749500 0.00000000 -3.306690100000001 0 0 0
Ga 0.00000000 2.20440250 -1.1023187399999976 0 0 0
Ga 3.11749500 4.40880500 -3.306690100000001 0 0 0
Ga 6.16079362 2.30933206 3.20609220
Ga 3.10284277 4.40889318 1.01263226
Ga 6.16066892 6.50827794 3.20609220
Ga 3.13819517 0.00000000 1.04243904
Cu 1.55874750 0.00000000 -1.1023187399999976 0 0 0
Cu 4.67624250 4.40880500 -1.1023187399999976 0 0 0
Cu 4.67624250 0.00000000 -1.1023187399999976 0 0 0
Cu 1.55874750 4.40880500 -1.1023187399999976 0 0 0
Cu 4.67624250 6.61320750 -3.306690100000001 0 0 0
Cu 1.55874750 2.20440250 -3.306690100000001 0 0 0
Cu 1.55874750 6.61320750 -3.306690100000001 0 0 0
Cu 4.67624250 2.20440250 -3.306690100000001 0 0 0
Cu 1.62034920 4.40880500 3.26623804
Cu 4.70193066 0.00008818 3.19092268
Cu 4.37633948 4.40889318 3.23057635
Cu 0.74470721 0.00000000 4.07448092
Cu 4.55210385 2.20387344 1.24177191
Cu 1.60881447 6.55465857 1.11456082
Cu 1.60862742 2.26286325 1.11456082
Cu 4.55191680 6.61373656 1.24177191
C 2.34092700 8.81752182 5.16056561
O 2.62262384 0.00000000 6.31531236
