&CONTROL
calculation = 'relax'
prefix = 'scf'
pseudo_dir = '/vol0004/mdt0/data/hp150275/u10028/POT_KKJUS'
outdir = './data'
tprnfor = .true.
nstep = 50
disk_io = 'non'
/
&SYSTEM
ibrav = 0
ecutwfc = 50.0
ecutrho = 400
occupations = 'smearing'
smearing = 'mp'
degauss = 0.01
assume_isolated = 'esm'
esm_bc = 'bc1'
input_dft = 'BEEF-VDW'
nosym = .true.
nspin = 1
ntyp = 5
nat = 18
/
&ELECTRONS
electron_maxstep = 200
mixing_beta = 0.1
conv_thr = 1e-06
/
&IONS
ion_dynamics = 'bfgs'
upscale = 1.0
/
&CELL
/

K_POINTS {automatic}
9 9 2 0  0  0

ATOMIC_SPECIES
C 12.01 C.pbe-n-rrkjus_psl.1.0.0.UPF
Li 6.941 Li.pbe-sl-rrkjus_psl.1.0.0.UPF
O 15.99 O.pbe-n-rrkjus_psl.1.0.0.UPF
Pt 195.0 Pt.pbe-n-rrkjus_psl.1.0.0.UPF
Sb 121.7 Sb.pbe-n-rrkjus_psl.1.0.0.UPF

CELL_PARAMETERS {angstrom}
6.40528000 0.00000000 0.00000000
0.00000000 6.40528000 0.00000000
0.00000000 0.00000000 24.80400000

ATOMIC_POSITIONS {angstrom}
Li 0.00000000 0.00000000 -0.800673119999999 0 0 0
Li 3.20251189 0.00006405 2.43947340
Li 0.00012811 3.20251189 2.52083052
Li 3.20264000 3.20264000 -0.800673119999999 0 0 0
Li 1.60132000 1.60132000 -2.402019359999997 0 0 0
Li 1.59568335 4.79832335 0.79992900
Li 4.80396000 4.80396000 -2.402019359999997 0 0 0
Li 4.80953259 1.60695665 0.79992900
Sb 6.40521595 6.40521595 2.40350760
Sb 3.20264000 3.20264000 2.40325956
Sb 3.20264000 0.00000000 -0.800673119999999 0 0 0
Sb 0.00000000 3.20264000 -0.800673119999999 0 0 0
Pt 1.60215269 1.60029516 0.77214852
Pt 1.60132000 4.80396000 -2.402019359999997 0 0 0
Pt 4.80319137 4.80492079 0.77239656
Pt 4.80396000 1.60132000 -2.402019359999997 0 0 0
C 0.00012811 3.20270405 4.65199020
O 0.00006405 3.20270405 5.78900556
