&CONTROL
calculation = 'relax'
prefix = 'scf'
pseudo_dir = '/vol0004/mdt0/data/hp150275/u10028/POT_HYBRID_KKJUS_GBRV'
outdir = './data'
tprnfor = .true.
nstep = 50
disk_io = 'non'
/
&SYSTEM
ibrav = 0
ecutwfc = 50.0
ecutrho = 400
occupations = 'smearing'
smearing = 'mp'
degauss = 0.01
assume_isolated = 'esm'
esm_bc = 'bc1'
input_dft = 'BEEF-VDW'
nosym = .true.
nspin = 2
ntyp = 4
nat = 33
starting_magnetization(1) = 0.0
starting_magnetization(2) = 0.1
starting_magnetization(3) = 0.1
starting_magnetization(4) = 0.0
/
&ELECTRONS
electron_maxstep = 200
mixing_beta = 0.1
conv_thr = 1e-06
/
&IONS
ion_dynamics = 'bfgs'
upscale = 1.0
/
&CELL
/

K_POINTS {automatic}
9 6 2 0  0  0

ATOMIC_SPECIES
C 12.01 C.pbe-n-rrkjus_psl.1.0.0.UPF
Co 58.93 co_pbe_v1.2.uspp.F.UPF
Fe 55.84 fe_pbe_v1.5.uspp.F.UPF
Ge 72.64 Ge.pbe-dn-rrkjus_psl.1.0.0.UPF

CELL_PARAMETERS {angstrom}
5.77744000 0.00000000 0.00000000
0.00000000 8.17053000 0.00000000
0.00000000 0.00000000 26.12790000

ATOMIC_POSITIONS {angstrom}
Fe 1.44436000 0.00000000 25.10656039
Fe 4.33308000 4.08526500 25.10656039
Fe 4.33308000 0.00000000 25.10656039
Fe 1.44436000 4.08526500 25.10656039
Fe 4.33308000 6.12789750 23.06388117
Fe 1.44436000 2.04263250 23.06388117
Fe 1.44436000 6.12789750 23.06388117
Fe 4.33308000 2.04263250 23.06388117
Fe 1.30477705 3.93214927 3.02639466
Fe 4.35318549 8.05164879 3.10190429
Fe 4.35341659 4.20414621 3.10164301
Fe 1.30506592 0.15311573 3.02665594
Fe 4.53101509 2.04271421 1.05112542
Fe 1.45117738 6.12765238 1.01533019
Fe 1.28860022 2.04271421 1.19273863
Fe 4.27640331 6.12765238 1.10155226
Co 0.00000000 0.00000000 23.06388117
Co 2.88872000 2.04263250 25.10656039
Co 2.88872000 6.12789750 25.10656039
Co 0.00000000 4.08526500 23.06388117
Co 5.69574700 4.22996509 1.04903518
Co 2.74757714 6.12773409 2.94147898
Co 3.16482386 2.04279591 2.93886619
Co 5.69574700 8.02558480 1.04981902
Ge 0.00000000 6.12789750 25.10656039
Ge 2.88872000 0.00000000 23.06388117
Ge 0.00000000 2.04263250 25.10656039
Ge 2.88872000 4.08526500 23.06388117
Ge 5.29831690 2.04287762 4.06576252
Ge 2.88167152 3.99922932 1.03570996
Ge 0.17314988 6.12781579 3.36501224
Ge 2.88167152 0.08595398 1.03597123
C 1.34585465 2.04271421 3.21974112
