&CONTROL
calculation = 'relax'
prefix = 'scf'
pseudo_dir = '/vol0004/mdt0/data/hp150275/u10028/POT_HYBRID_KKJUS_GBRV'
outdir = './data'
tprnfor = .true.
nstep = 50
disk_io = 'non'
/
&SYSTEM
ibrav = 0
ecutwfc = 50.0
ecutrho = 400
occupations = 'smearing'
smearing = 'mp'
degauss = 0.01
assume_isolated = 'esm'
esm_bc = 'bc1'
input_dft = 'BEEF-VDW'
nosym = .true.
nspin = 2
ntyp = 4
nat = 33
starting_magnetization(1) = 0.0
starting_magnetization(2) = 0.0
starting_magnetization(3) = 0.1
starting_magnetization(4) = 0.001
/
&ELECTRONS
electron_maxstep = 300
mixing_beta = 0.1
conv_thr = 1e-06
/
&IONS
ion_dynamics = 'bfgs'
upscale = 1.0
/
&CELL
/

K_POINTS {automatic}
9 6 2 0  0  0

ATOMIC_SPECIES
C 12.01 C.pbe-n-rrkjus_psl.1.0.0.UPF
Ga 69.72 Ga.pbe-dnl-rrkjus_psl.1.0.0.UPF
Mn 54.93 mn_pbe_v1.5.uspp.F.UPF
Ni 58.69 ni_pbe_v1.4.uspp.F.UPF

CELL_PARAMETERS {angstrom}
5.88011000 0.00000000 0.00000000
0.00000000 8.31574000 0.00000000
0.00000000 0.00000000 26.23680000

ATOMIC_POSITIONS {angstrom}
Mn 0.00000000 0.00000000 -3.118506049999997 0 0 0
Mn 2.94005500 2.07893500 -1.0395020200000005 0 0 0
Mn 2.94005500 6.23680500 -1.0395020200000005 0 0 0
Mn 0.00000000 4.15787000 -3.118506049999997 0 0 0
Mn 0.00000000 4.15795316 1.00513181
Mn 2.94005500 6.35231063 3.22528982
Mn 2.94005500 1.96342937 3.22555219
Mn 0.00000000 0.00000000 0.95423242
Ga 0.00000000 6.23680500 -1.0395020200000005 0 0 0
Ga 2.94005500 0.00000000 -3.118506049999997 0 0 0
Ga 0.00000000 2.07893500 -1.0395020200000005 0 0 0
Ga 2.94005500 4.15787000 -3.118506049999997 0 0 0
Ga 0.00000000 2.16541870 3.13660944
Ga 2.94005500 4.15795316 1.00408234
Ga 0.00000000 6.15032130 3.13687181
Ga 2.94005500 8.31565684 1.02349757
Ni 1.47002750 0.00000000 -1.0395020200000005 0 0 0
Ni 4.41008250 4.15787000 -1.0395020200000005 0 0 0
Ni 4.41008250 0.00000000 -1.0395020200000005 0 0 0
Ni 1.47002750 4.15787000 -1.0395020200000005 0 0 0
Ni 4.41008250 6.23680500 -3.118506049999997 0 0 0
Ni 1.47002750 2.07893500 -3.118506049999997 0 0 0
Ni 1.47002750 6.23680500 -3.118506049999997 0 0 0
Ni 4.41008250 2.07893500 -3.118506049999997 0 0 0
Ni 1.48484538 4.15787000 2.96160998
Ni 4.65763513 8.31565684 3.03244934
Ni 4.39526462 4.15787000 2.96160998
Ni 1.22247487 8.31565684 3.03244934
Ni 4.38879650 2.07061926 1.04422464
Ni 1.49137230 6.24520390 1.04422464
Ni 1.49131350 2.07061926 1.04422464
Ni 4.38873770 6.24520390 1.04422464
C 2.94005500 0.00000000 3.63379680
