&CONTROL
calculation = 'relax'
prefix = 'scf'
pseudo_dir = '/vol0004/mdt0/data/hp150275/u10028/POT_KKJUS'
outdir = './data'
tprnfor = .true.
nstep = 50
disk_io = 'non'
/
&SYSTEM
ibrav = 0
ecutwfc = 50.0
ecutrho = 400
occupations = 'smearing'
smearing = 'mp'
degauss = 0.01
assume_isolated = 'esm'
esm_bc = 'bc1'
input_dft = 'BEEF-VDW'
nosym = .true.
nspin = 1
ntyp = 3
nat = 33
/
&ELECTRONS
electron_maxstep = 200
mixing_beta = 0.1
conv_thr = 1e-06
/
&IONS
ion_dynamics = 'bfgs'
upscale = 1.0
/
&CELL
/

K_POINTS {automatic}
9 6 2 0  0  0

ATOMIC_SPECIES
C 12.01 C.pbe-n-rrkjus_psl.1.0.0.UPF
Li 6.941 Li.pbe-sl-rrkjus_psl.1.0.0.UPF
Pd 106.4 Pd.pbe-n-rrkjus_psl.1.0.0.UPF

CELL_PARAMETERS {angstrom}
6.06651000 0.00000000 0.00000000
0.00000000 8.57934000 0.00000000
0.00000000 0.00000000 26.43450000

ATOMIC_POSITIONS {angstrom}
Li 0.00000000 0.00000000 -3.217342989999999 0 0 0
Li 0.00000000 2.14483500 -1.0724476599999981 0 0 0
Li 6.04394258 8.55300143 1.06821815
Li 5.78526660 2.14492079 3.64637493
Li 0.00000000 4.28967000 -3.217342989999999 0 0 0
Li 0.00000000 6.43450500 -1.0724476599999981 0 0 0
Li 6.04388192 4.31600857 1.06848249
Li 5.79151510 6.43441921 3.76559453
Li 3.03325500 0.00000000 -3.217342989999999 0 0 0
Li 3.03325500 2.14483500 -1.0724476599999981 0 0 0
Li 3.07990646 8.52503278 1.04680620
Li 3.22841463 2.14483500 4.57634064
Li 3.03325500 4.28967000 -3.217342989999999 0 0 0
Li 3.03325500 6.43450500 -1.0724476599999981 0 0 0
Li 3.07984580 4.34414881 1.04654186
Li 2.86666864 6.43450500 3.86445955
Pd 1.51662750 2.14483500 -3.217342989999999 0 0 0
Pd 1.51662750 0.00000000 -1.0724476599999981 0 0 0
Pd 1.55502851 2.14492079 1.08196409
Pd 1.54556475 0.20933590 3.25065047
Pd 1.51662750 6.43450500 -3.217342989999999 0 0 0
Pd 1.51662750 4.28967000 -1.0724476599999981 0 0 0
Pd 1.49339277 6.43450500 1.52156982
Pd 1.54544342 4.08033410 3.25091481
Pd 4.54988250 2.14483500 -3.217342989999999 0 0 0
Pd 4.54988250 0.00000000 -1.0724476599999981 0 0 0
Pd 4.57172194 2.14492079 1.01667087
Pd 4.49977313 0.01312639 3.23743321
Pd 4.54988250 6.43450500 -3.217342989999999 0 0 0
Pd 4.54988250 4.28967000 -1.0724476599999981 0 0 0
Pd 4.57748512 6.43459079 1.23158335
Pd 4.49940914 4.27654361 3.23743321
C 1.75419203 2.14483500 3.05529951
