&CONTROL
calculation = 'relax'
prefix = 'scf'
pseudo_dir = '/vol0403/data/hp230205/u10028/POT_HYBRID_KKJUS_GBRV'
outdir = './data'
tprnfor = .true.
nstep = 50
disk_io = 'non'
/
&SYSTEM
ibrav = 0
ecutwfc = 50.0
ecutrho = 400
occupations = 'smearing'
smearing = 'mp'
degauss = 0.01
assume_isolated = 'esm'
esm_bc = 'bc1'
input_dft = 'BEEF-VDW'
nosym = .true.
nspin = 1
ntyp = 6
nat = 34
/
&ELECTRONS
electron_maxstep = 200
mixing_beta = 0.1
conv_thr = 1e-06
/
&IONS
ion_dynamics = 'bfgs'
upscale = 1.0
/
&CELL
/

K_POINTS {automatic}
9 6 2 0  0  0

ATOMIC_SPECIES
C 12.01 C.pbe-n-rrkjus_psl.1.0.0.UPF
Cu 63.54 Cu.pbe-dn-rrkjus_psl.1.0.0.UPF
Ge 72.64 Ge.pbe-dn-rrkjus_psl.1.0.0.UPF
In 114.8 In.pbe-dn-rrkjus_psl.1.0.0.UPF
Li 6.941 Li.pbe-sl-rrkjus_psl.1.0.0.UPF
O 15.99 O.pbe-n-rrkjus_psl.1.0.0.UPF


CELL_PARAMETERS {angstrom}
6.49386000 0.00000000 0.00000000
0.00000000 9.18370000 0.00000000
0.00000000 0.00000000 26.88780000

ATOMIC_POSITIONS {angstrom}
Li 0.00000000 2.29592500 -1.1478401799999993 0 0 0
Li 0.00000000 6.88777500 -1.1478401799999993 0 0 0
Li 3.24693000 4.59185000 -3.443789419999998 0 0 0
Li 3.24693000 0.00000000 -3.443789419999998 0 0 0
Li 5.71342791 6.88777500 4.56985049
Li 6.32514952 2.29592500 3.74089961
Li 3.00529347 9.14053661 1.27017967
Li 3.00490384 4.63482972 1.27044855
In 1.62346500 0.00000000 -1.1478401799999993 0 0 0
In 1.62346500 4.59185000 -1.1478401799999993 0 0 0
In 4.87039500 2.29592500 -3.443789419999998 0 0 0
In 4.87039500 6.88777500 -3.443789419999998 0 0 0
In 1.44455916 4.88637126 3.88367383
In 1.44455916 8.88927058 3.88367383
In 4.92630713 6.88749949 1.13305189
In 4.72740020 2.29583316 1.26318884
Cu 0.00000000 0.00000000 -3.443789419999998 0 0 0
Cu 0.00000000 4.59185000 -3.443789419999998 0 0 0
Cu 3.24693000 6.88777500 -1.1478401799999993 0 0 0
Cu 3.24693000 2.29592500 -1.1478401799999993 0 0 0
Cu 0.03987230 4.55337030 1.14542028
Cu 0.03993724 0.03802052 1.14542028
Cu 2.82742664 2.29592500 3.41959040
Cu 3.29966014 6.88777500 3.21739415
Ge 4.87039500 0.00000000 -1.1478401799999993 0 0 0
Ge 4.87039500 4.59185000 -1.1478401799999993 0 0 0
Ge 1.62346500 2.29592500 -3.443789419999998 0 0 0
Ge 1.62346500 6.88777500 -3.443789419999998 0 0 0
Ge 4.79701438 4.70278910 3.27116975
Ge 4.79701438 9.07248539 3.27090087
Ge 1.44280581 6.88795867 1.32422415
Ge 1.42209040 2.29592500 1.34734766
C 3.36278046 2.29592500 5.22349291
O 3.64773104 2.29601684 6.34390753
