&CONTROL
calculation = 'relax'
prefix = 'scf'
pseudo_dir = '/vol0004/mdt0/data/hp150275/u10028/POT_KKJUS'
outdir = './data'
tprnfor = .true.
nstep = 50
disk_io = 'non'
/
&SYSTEM
ibrav = 0
ecutwfc = 50.0
ecutrho = 400
occupations = 'smearing'
smearing = 'mp'
degauss = 0.01
assume_isolated = 'esm'
esm_bc = 'bc1'
input_dft = 'BEEF-VDW'
nosym = .true.
nspin = 1
ntyp = 2
nat = 33
/
&ELECTRONS
electron_maxstep = 200
mixing_beta = 0.1
conv_thr = 1e-06
/
&IONS
ion_dynamics = 'bfgs'
upscale = 1.0
/
&CELL
/

K_POINTS {automatic}
6 6 1 0 0 0

ATOMIC_SPECIES
C 12.01 C.pbe-n-rrkjus_psl.1.0.0.UPF
Ge 72.64 Ge.pbe-dn-rrkjus_psl.1.0.0.UPF

CELL_PARAMETERS {angstrom}
8.62086000 0.00000000 0.00000000
0.00000000 8.62086000 0.00000000
0.00000000 0.00000000 26.46560000

ATOMIC_POSITIONS {angstrom}
Ge 0.00000000 0.00000000 -3.232773039999998 0 0 0
Ge 2.15521500 2.15521500 -3.232773039999998 0 0 0
Ge 2.15521500 0.00000000 -1.0776792299999975 0 0 0
Ge 0.00000000 2.15521500 -1.0776792299999975 0 0 0
Ge 0.00000000 0.00000000 1.47678048
Ge 2.09521381 2.09564486 1.28649282
Ge 2.10607610 0.00000000 3.50986787
Ge 0.00000000 2.10711060 3.50986787
Ge 0.00000000 4.31043000 -3.232773039999998 0 0 0
Ge 2.15521500 6.46564500 -3.232773039999998 0 0 0
Ge 2.15521500 4.31043000 -1.0776792299999975 0 0 0
Ge 0.00000000 6.46564500 -1.0776792299999975 0 0 0
Ge 0.00000000 4.31043000 1.17877782
Ge 2.09512761 6.52521514 1.28649282
Ge 2.23892355 4.31051621 3.18301771
Ge 0.00000000 6.51374940 3.50986787
Ge 4.31043000 0.00000000 -3.232773039999998 0 0 0
Ge 6.46564500 2.15521500 -3.232773039999998 0 0 0
Ge 6.46564500 0.00000000 -1.0776792299999975 0 0 0
Ge 4.31043000 2.15521500 -1.0776792299999975 0 0 0
Ge 4.31043000 0.00000000 1.17877782
Ge 6.52573239 2.09555865 1.28649282
Ge 6.51487011 0.00000000 3.51013253
Ge 4.31043000 2.23944080 3.18275306
Ge 4.31043000 4.31043000 -3.232773039999998 0 0 0
Ge 6.46564500 6.46564500 -3.232773039999998 0 0 0
Ge 6.46564500 4.31043000 -1.0776792299999975 0 0 0
Ge 4.31043000 6.46564500 -1.0776792299999975 0 0 0
Ge 4.31051621 4.31043000 1.20656670
Ge 6.52564619 6.52521514 1.28649282
Ge 6.38193645 4.31034379 3.18301771
Ge 4.31034379 6.38141920 3.18275306
C 0.00008621 0.00000000 3.67660115
