&CONTROL
calculation = 'relax'
prefix = 'scf'
pseudo_dir = '/vol0004/mdt0/data/hp150275/u10028/POT_HYBRID_KKJUS_GBRV'
outdir = './data'
tprnfor = .true.
nstep = 50
disk_io = 'non'
/
&SYSTEM
ibrav = 0
ecutwfc = 50.0
ecutrho = 400
occupations = 'smearing'
smearing = 'mp'
degauss = 0.01
assume_isolated = 'esm'
esm_bc = 'bc1'
input_dft = 'BEEF-VDW'
nosym = .true.
nspin = 2
ntyp = 3
nat = 33
starting_magnetization(1) = 0.1
starting_magnetization(2) = 0.1
starting_magnetization(3) = 0.1
/
&ELECTRONS
electron_maxstep = 200
mixing_beta = 0.1
conv_thr = 1e-06
/
&IONS
ion_dynamics = 'bfgs'
upscale = 1.0
/
&CELL
/

K_POINTS {automatic}
9 6 2 0  0  0

ATOMIC_SPECIES
C 12.01 C.pbe-n-rrkjus_psl.1.0.0.UPF
Fe 55.84 fe_pbe_v1.5.uspp.F.UPF
Ga 69.72 Ga.pbe-dnl-rrkjus_psl.1.0.0.UPF

CELL_PARAMETERS {angstrom}
5.81108000 0.00000000 0.00000000
-0.00000000 8.21811000 0.00000000
0.00000000 0.00000000 26.16360000

ATOMIC_POSITIONS {angstrom}
Ga 0.00000000 0.00000000 -3.081810439999998 0 0 0
Ga 2.90554000 2.05452750 -1.0271829399999994 0 0 0
Ga 2.90554000 6.16358250 -1.0271829399999994 0 0 0
Ga 0.00000000 4.10905500 -3.081810439999998 0 0 0
Ga 0.00000000 4.10905500 1.02718294
Ga 2.90554000 6.16358250 3.08181044
Ga 2.90554000 2.05452750 3.08181044
Ga 0.00000000 0.00000000 1.02718294
Fe 1.45277000 0.00000000 -1.0271829399999994 0 0 0
Fe 4.35831000 4.10905500 -1.0271829399999994 0 0 0
Fe 4.35831000 0.00000000 -1.0271829399999994 0 0 0
Fe 1.45277000 4.10905500 -1.0271829399999994 0 0 0
Fe 4.35831000 6.16358250 -3.081810439999998 0 0 0
Fe 1.45277000 2.05452750 -3.081810439999998 0 0 0
Fe 1.45277000 6.16358250 -3.081810439999998 0 0 0
Fe 4.35831000 2.05452750 -3.081810439999998 0 0 0
Fe 0.00000000 6.16358250 -1.0271829399999994 0 0 0
Fe 2.90554000 0.00000000 -3.081810439999998 0 0 0
Fe 0.00000000 2.05452750 -1.0271829399999994 0 0 0
Fe 2.90554000 4.10905500 -3.081810439999998 0 0 0
Fe 1.45277000 4.10905500 3.08181044
Fe 4.35831000 -0.00000000 3.08181044
Fe 4.35831000 4.10905500 3.08181044
Fe 1.45277000 -0.00000000 3.08181044
Fe 4.35831000 2.05452750 1.02718294
Fe 1.45277000 6.16358250 1.02718294
Fe 1.45277000 2.05452750 1.02718294
Fe 4.35831000 6.16358250 1.02718294
Fe 0.00000000 2.05452750 3.08181044
Fe 2.90554000 4.10905500 1.02718294
Fe 0.00000000 6.16358250 3.08181044
Fe 2.90554000 -0.00000000 1.02718294
C 1.45277000 2.05452750 3.88189333
