&CONTROL
calculation = 'relax'
prefix = 'scf'
pseudo_dir = '/vol0403/data/hp230205/u10028/POT_HYBRID_KKJUS_GBRV'
outdir = './data'
tprnfor = .true.
nstep = 70
disk_io = 'non'
/
&SYSTEM
ibrav = 0
ecutwfc = 50.0
ecutrho = 400
occupations = 'smearing'
smearing = 'mp'
degauss = 0.01
assume_isolated = 'esm'
esm_bc = 'bc1'
input_dft = 'BEEF-VDW'
nosym = .true.
nspin = 1
ntyp = 5
nat = 17
/
&ELECTRONS
electron_maxstep = 200
mixing_beta = 0.1
conv_thr = 1e-06
/
&IONS
ion_dynamics = 'bfgs'
upscale = 1.0
/
&CELL
/

K_POINTS {automatic}
6 6 1 0 0 0

ATOMIC_SPECIES
Al 26.98 Al.pbe-nl-rrkjus_psl.1.0.0.UPF
C 12.01 C.pbe-n-rrkjus_psl.1.0.0.UPF
Cu 63.54 Cu.pbe-dn-rrkjus_psl.1.0.0.UPF
In 114.8 In.pbe-dn-rrkjus_psl.1.0.0.UPF
Li 6.941 Li.pbe-sl-rrkjus_psl.1.0.0.UPF


CELL_PARAMETERS {angstrom}
6.37467000 0.00000000 0.00000000
-0.00000000 6.37467000 0.00000000
0.00000000 0.00000000 24.78100000

ATOMIC_POSITIONS {angstrom}
Li 4.78100250 1.59366750 -0.7969569599999993 0 0 0
Li 4.78100250 4.78100250 2.39062307
Li 1.59366750 1.59366750 2.39062307
Li 1.59366750 4.78100250 -0.7969569599999993 0 0 0
Al 0.00000000 0.00000000 -2.39062307 0 0 0
Al 0.00000000 3.18733500 0.79695696
Al 3.18733500 -0.00000000 0.79695696
Al 3.18733500 3.18733500 -2.39062307 0 0 0
In 0.00000000 3.18733500 -2.39062307 0 0 0
In 0.00000000 0.00000000 0.79695696
In 3.18733500 3.18733500 0.79695696
In 3.18733500 0.00000000 -2.39062307 0 0 0
Cu 1.59366750 1.59366750 -0.7969569599999993 0 0 0
Cu 1.59366750 4.78100250 2.39062307
Cu 4.78100250 1.59366750 2.39062307
Cu 4.78100250 4.78100250 -0.7969569599999993 0 0 0
C 0.00000000 3.18733500 3.19055375
