&CONTROL
calculation = 'relax'
prefix = 'scf'
pseudo_dir = '/vol0004/mdt0/data/hp150275/u10028/POT_KKJUS'
outdir = './data'
tprnfor = .true.
nstep = 50
disk_io = 'non'
/
&SYSTEM
ibrav = 0
ecutwfc = 50.0
ecutrho = 400
occupations = 'smearing'
smearing = 'mp'
degauss = 0.01
assume_isolated = 'esm'
esm_bc = 'bc1'
input_dft = 'BEEF-VDW'
nosym = .true.
nspin = 1
ntyp = 5
nat = 34
/
&ELECTRONS
electron_maxstep = 200
mixing_beta = 0.1
conv_thr = 1e-06
/
&IONS
ion_dynamics = 'bfgs'
upscale = 1.0
/
&CELL
/

K_POINTS {automatic}
9 6 2 0  0  0

ATOMIC_SPECIES
C 12.01 C.pbe-n-rrkjus_psl.1.0.0.UPF
Ga 69.72 Ga.pbe-dnl-rrkjus_psl.1.0.0.UPF
Ni 58.69 Ni.pbe-spn-rrkjus_psl.1.0.0.UPF
O 15.99 O.pbe-n-rrkjus_psl.1.0.0.UPF
Sc 44.95 Sc.pbe-spn-rrkjus_psl.1.0.0.UPF

CELL_PARAMETERS {angstrom}
6.08368000 0.00000000 0.00000000
0.00000000 8.60362000 0.00000000
0.00000000 0.00000000 26.45270000

ATOMIC_POSITIONS {angstrom}
Sc 0.00000000 0.00000000 -3.226435819999999 0 0 0
Sc 3.04184000 2.15090500 -1.075566779999999 0 0 0
Sc 3.04184000 6.45271500 -1.075566779999999 0 0 0
Sc 0.00000000 4.30181000 -3.226435819999999 0 0 0
Sc 0.03303438 4.28537709 1.01869348
Sc 3.10121672 6.44092804 3.32854324
Sc 3.15043369 2.17336045 3.43911553
Sc 0.02901915 0.00585046 1.03535868
Ga 0.00000000 6.45271500 -1.075566779999999 0 0 0
Ga 3.04184000 0.00000000 -3.226435819999999 0 0 0
Ga 0.00000000 2.15090500 -1.075566779999999 0 0 0
Ga 3.04184000 4.30181000 -3.226435819999999 0 0 0
Ga 0.08468483 2.14625905 3.20738988
Ga 3.08260066 4.29768026 1.19962995
Ga 0.04933864 6.45632852 3.22749393
Ga 3.08174894 8.59536052 1.20703670
Ni 1.52092000 0.00000000 -1.075566779999999 0 0 0
Ni 4.56276000 4.30181000 -1.075566779999999 0 0 0
Ni 4.56276000 0.00000000 -1.075566779999999 0 0 0
Ni 1.52092000 4.30181000 -1.075566779999999 0 0 0
Ni 4.56276000 6.45271500 -3.226435819999999 0 0 0
Ni 1.52092000 2.15090500 -3.226435819999999 0 0 0
Ni 1.52092000 6.45271500 -3.226435819999999 0 0 0
Ni 4.56276000 2.15090500 -3.226435819999999 0 0 0
Ni 1.41567234 4.30034738 3.10052097
Ni 4.77362035 8.59914612 3.14390340
Ni 4.78895122 4.30766046 3.12961894
Ni 1.42723133 8.59880197 3.11163110
Ni 4.50709433 2.14428021 1.15598299
Ni 1.62708022 6.44841319 1.14963434
Ni 1.65810698 2.14109687 1.16550596
Ni 4.53866863 6.44566003 1.11683299
C 4.17103184 2.14144102 5.56855788
O 4.61149028 2.10917744 6.63010473
