&CONTROL
calculation = 'relax'
prefix = 'scf'
pseudo_dir = '/vol0004/mdt0/data/hp150275/u10028/POT_KKJUS'
outdir = './data'
tprnfor = .true.
nstep = 50
disk_io = 'non'
/
&SYSTEM
ibrav = 0
ecutwfc = 50.0
ecutrho = 400
occupations = 'smearing'
smearing = 'mp'
degauss = 0.01
assume_isolated = 'esm'
esm_bc = 'bc1'
input_dft = 'BEEF-VDW'
nosym = .true.
nspin = 1
ntyp = 4
nat = 33
/
&ELECTRONS
electron_maxstep = 200
mixing_beta = 0.1
conv_thr = 1e-06
/
&IONS
ion_dynamics = 'bfgs'
upscale = 1.0
/
&CELL
/

K_POINTS {automatic}
9 6 2 0  0  0

ATOMIC_SPECIES
Al 26.98 Al.pbe-nl-rrkjus_psl.1.0.0.UPF
C 12.01 C.pbe-n-rrkjus_psl.1.0.0.UPF
Ni 58.69 Ni.pbe-spn-rrkjus_psl.1.0.0.UPF
Zr 91.22 Zr.pbe-spn-rrkjus_psl.1.0.0.UPF

CELL_PARAMETERS {angstrom}
6.14888000 0.00000000 0.00000000
0.00000000 8.69583000 0.00000000
0.00000000 0.00000000 26.52190000

ATOMIC_POSITIONS {angstrom}
Zr 0.00000000 0.00000000 -3.2608676099999983 0 0 0
Zr 3.07444000 2.17395750 -1.086867459999997 0 0 0
Zr 3.07444000 6.52187250 -1.086867459999997 0 0 0
Zr 0.00000000 4.34791500 -3.2608676099999983 0 0 0
Zr 0.01715538 4.38713319 1.03064103
Zr 3.00926187 6.52169858 3.37544221
Zr 3.41176756 2.17395750 3.67938319
Zr 0.01703240 8.65661181 1.03064103
Al 0.00000000 6.52187250 -1.086867459999997 0 0 0
Al 3.07444000 0.00000000 -3.2608676099999983 0 0 0
Al 0.00000000 2.17395750 -1.086867459999997 0 0 0
Al 3.07444000 4.34791500 -3.2608676099999983 0 0 0
Al 5.92303164 2.17378358 2.95215269
Al 3.06577008 4.33061030 1.18048977
Al 6.14703534 6.52187250 3.19588895
Al 3.06577008 0.01713079 1.18048977
Ni 1.53722000 0.00000000 -1.086867459999997 0 0 0
Ni 4.61166000 4.34791500 -1.086867459999997 0 0 0
Ni 4.61166000 0.00000000 -1.086867459999997 0 0 0
Ni 1.53722000 4.34791500 -1.086867459999997 0 0 0
Ni 4.61166000 6.52187250 -3.2608676099999983 0 0 0
Ni 1.53722000 2.17395750 -3.2608676099999983 0 0 0
Ni 1.53722000 6.52187250 -3.2608676099999983 0 0 0
Ni 4.61166000 2.17395750 -3.2608676099999983 0 0 0
Ni 1.37654977 4.16991136 3.25688932
Ni 4.66533972 8.59139308 3.08555785
Ni 4.66558568 4.45226496 3.08582306
Ni 1.37685721 0.17782972 3.25635888
Ni 4.46955938 2.17395750 1.09111097
Ni 1.69506175 6.52195946 1.14574608
Ni 1.73318481 2.17395750 1.38523884
Ni 4.47005129 6.52178554 1.19295506
C 1.43139778 2.17369663 3.81172747
