&CONTROL
calculation = 'relax'
prefix = 'scf'
pseudo_dir = '/vol0004/mdt0/data/hp150275/u10028/POT_KKJUS'
outdir = './data'
tprnfor = .true.
nstep = 50
disk_io = 'non'
/
&SYSTEM
ibrav = 0
ecutwfc = 50.0
ecutrho = 400
occupations = 'smearing'
smearing = 'mp'
degauss = 0.01
assume_isolated = 'esm'
esm_bc = 'bc1'
input_dft = 'BEEF-VDW'
nosym = .true.
nspin = 1
ntyp = 3
nat = 33
/
&ELECTRONS
electron_maxstep = 200
mixing_beta = 0.1
conv_thr = 1e-06
/
&IONS
ion_dynamics = 'bfgs'
upscale = 1.0
/
&CELL
/

K_POINTS {automatic}
8 6 1 0 0 0

ATOMIC_SPECIES
C 12.01 C.pbe-n-rrkjus_psl.1.0.0.UPF
Pt 195.0 Pt.pbe-n-rrkjus_psl.1.0.0.UPF
Ti 47.86 Ti.pbe-spn-rrkjus_psl.1.0.0.UPF

CELL_PARAMETERS {angstrom}
6.37073000 0.00000000 0.00000000
0.00000000 9.00957000 0.00000000
0.00000000 0.00000000 26.75720000

ATOMIC_POSITIONS {angstrom}
Ti 1.59268250 2.25239250 -3.378631640000002 0 0 0
Ti 1.59268250 0.00000000 -1.1262105499999997 0 0 0
Ti 1.59268250 2.25221231 1.16260034
Ti 1.59268250 0.18902078 3.57583221
Ti 1.59268250 6.75717750 -3.378631640000002 0 0 0
Ti 1.59268250 4.50478500 -1.1262105499999997 0 0 0
Ti 1.59268250 6.75699731 1.08446932
Ti 1.59268250 4.31576422 3.57583221
Ti 4.77804750 2.25239250 -3.378631640000002 0 0 0
Ti 4.77804750 0.00000000 -1.1262105499999997 0 0 0
Ti 4.77804750 2.25212221 0.99295969
Ti 4.77804750 8.87217406 3.25715396
Ti 4.77804750 6.75717750 -3.378631640000002 0 0 0
Ti 4.77804750 4.50478500 -1.1262105499999997 0 0 0
Ti 4.77804750 6.75717750 1.09089104
Ti 4.77804750 4.64209085 3.25715396
Pt 0.00000000 0.00000000 -3.378631640000002 0 0 0
Pt 0.00000000 2.25239250 -1.1262105499999997 0 0 0
Pt 0.17538620 8.98938856 1.22093104
Pt 6.09474998 2.25257269 3.21113157
Pt 0.00000000 4.50478500 -3.378631640000002 0 0 0
Pt 0.00000000 6.75717750 -1.1262105499999997 0 0 0
Pt 0.17532249 4.52460605 1.22039589
Pt 0.11091441 6.75681712 3.22290474
Pt 3.18536500 0.00000000 -3.378631640000002 0 0 0
Pt 3.18536500 2.25239250 -1.1262105499999997 0 0 0
Pt 3.00997880 8.98938856 1.22093104
Pt 3.46134502 2.25257269 3.21113157
Pt 3.18536500 4.50478500 -3.378631640000002 0 0 0
Pt 3.18536500 6.75717750 -1.1262105499999997 0 0 0
Pt 3.01004251 4.52460605 1.22039589
Pt 3.07445059 6.75681712 3.22290474
C 1.59268250 2.25230240 3.96300889
