&CONTROL
calculation = 'relax'
prefix = 'scf'
pseudo_dir = '/vol0403/data/hp230205/u10028/POT_HYBRID_KKJUS_GBRV'
outdir = './data'
tprnfor = .true.
nstep = 50
disk_io = 'non'
/
&SYSTEM
ibrav = 0
ecutwfc = 50.0
ecutrho = 400
occupations = 'smearing'
smearing = 'mp'
degauss = 0.01
assume_isolated = 'esm'
esm_bc = 'bc1'
input_dft = 'BEEF-VDW'
nosym = .true.
nspin = 2
ntyp = 4
nat = 16
starting_magnetization(1) = 0.0
starting_magnetization(2) = 0.0
starting_magnetization(3) = 0.001
starting_magnetization(4) = 0.0
/
&ELECTRONS
electron_maxstep = 400
mixing_beta = 0.05
conv_thr = 1e-06
/
&IONS
ion_dynamics = 'bfgs'
upscale = 1.0
/
&CELL
/

K_POINTS {automatic}
8 8 1 0 0 0

ATOMIC_SPECIES
Al 26.98 Al.pbe-nl-rrkjus_psl.1.0.0.UPF
Li 6.941 Li.pbe-sl-rrkjus_psl.1.0.0.UPF
Ni 58.69 ni_pbe_v1.4.uspp.F.UPF
Pd 106.4 Pd.pbe-n-rrkjus_psl.1.0.0.UPF


CELL_PARAMETERS {angstrom}
5.91240000 0.00000000 0.00000000
0.00000000 5.91240000 0.00000000
0.00000000 0.00000000 24.43430000

ATOMIC_POSITIONS {angstrom}
Li 0.00000000 2.95620000 -2.2171683800000004 0 0 0
Li 5.91228175 0.00011825 0.81683865
Li 2.95631825 2.95608175 0.81683865
Li 2.95620000 0.00000000 -2.2171683800000004 0 0 0
Al 0.00000000 0.00000000 -2.2171683800000004 0 0 0
Al 5.91234088 2.95614088 0.81415088
Al 2.95625912 0.00005912 0.81415088
Al 2.95620000 2.95620000 -2.2171683800000004 0 0 0
Ni 1.47810000 1.47810000 -0.7391375800000013 0 0 0
Ni 1.47810000 4.43430000 2.11552169
Ni 4.43430000 1.47810000 2.11576604
Ni 4.43430000 4.43430000 -0.7391375800000013 0 0 0
Pd 4.43430000 1.47810000 -0.7391375800000013 0 0 0
Pd 4.43430000 4.43430000 2.22572039
Pd 1.47810000 1.47810000 2.22572039
Pd 1.47810000 4.43430000 -0.7391375800000013 0 0 0
