&CONTROL
calculation = 'relax'
prefix = 'scf'
pseudo_dir = '/vol0403/data/hp230205/u10028/POT_HYBRID_KKJUS_GBRV'
outdir = './data'
tprnfor = .true.
nstep = 50
disk_io = 'non'
/
&SYSTEM
ibrav = 0
ecutwfc = 50.0
ecutrho = 400
occupations = 'smearing'
smearing = 'mp'
degauss = 0.01
assume_isolated = 'esm'
esm_bc = 'bc1'
input_dft = 'BEEF-VDW'
nosym = .true.
nspin = 1
ntyp = 5
nat = 17
/
&ELECTRONS
electron_maxstep = 200
mixing_beta = 0.1
conv_thr = 1e-06
/
&IONS
ion_dynamics = 'bfgs'
upscale = 1.0
/
&CELL
/

K_POINTS {automatic}
11 8 2 0  0  0

ATOMIC_SPECIES
C 12.01 C.pbe-n-rrkjus_psl.1.0.0.UPF
Cu 63.54 Cu.pbe-dn-rrkjus_psl.1.0.0.UPF
In 114.8 In.pbe-dn-rrkjus_psl.1.0.0.UPF
Sn 118.7 Sn.pbe-dn-rrkjus_psl.1.0.0.UPF
Y 88.90 Y.pbe-spn-rrkjus_psl.1.0.0.UPF


CELL_PARAMETERS {angstrom}
6.35598000 0.00000000 0.00000000
0.00000000 8.84740000 0.00000000
0.00000000 0.00000000 24.76400000

ATOMIC_POSITIONS {angstrom}
Y 3.30326637 8.81245277 2.36471436
Y 6.24373339 0.00000000 -0.7939338400000011 0 0 0
Y 3.30326637 4.45864723 2.36471436
Y 6.24373339 4.42370000 -0.7939338400000011 0 0 0
In 1.61041465 2.21185000 0.83776612
In 4.59855153 2.21185000 -2.382049160000001 0 0 0
In 2.06836301 6.63555000 0.49354652
In 4.59855153 6.63555000 -2.382049160000001 0 0 0
Cu 0.21203549 0.11899753 1.95610836
Cu 3.06574339 0.00000000 -0.7939338400000011 0 0 0
Cu 0.21209905 4.30470247 1.95610836
Cu 3.06574339 4.42370000 -0.7939338400000011 0 0 0
Sn 4.84986698 2.21185000 0.84049016
Sn 1.42056153 2.21185000 -2.382049160000001 0 0 0
Sn 5.45196896 6.63555000 1.66389316
Sn 1.42056153 6.63555000 -2.382049160000001 0 0 0
C 3.30167737 2.21185000 2.42761492
