&CONTROL
calculation = 'relax'
prefix = 'scf'
pseudo_dir = '/vol0004/mdt0/data/hp150275/u10028/POT_KKJUS'
outdir = './data'
tprnfor = .true.
nstep = 50
disk_io = 'non'
/
&SYSTEM
ibrav = 0
ecutwfc = 50.0
ecutrho = 400
occupations = 'smearing'
smearing = 'mp'
degauss = 0.01
assume_isolated = 'esm'
esm_bc = 'bc1'
input_dft = 'BEEF-VDW'
nosym = .true.
nspin = 1
ntyp = 4
nat = 34
/
&ELECTRONS
electron_maxstep = 200
mixing_beta = 0.1
conv_thr = 1e-06
/
&IONS
ion_dynamics = 'bfgs'
upscale = 1.0
/
&CELL
/

K_POINTS {automatic}
8 6 2 0  0  0

ATOMIC_SPECIES
Ag 107.8 Ag.pbe-n-rrkjus_psl.1.0.0.UPF
C 12.01 C.pbe-n-rrkjus_psl.1.0.0.UPF
In 114.8 In.pbe-dn-rrkjus_psl.1.0.0.UPF
O 15.99 O.pbe-n-rrkjus_psl.1.0.0.UPF

CELL_PARAMETERS {angstrom}
7.14855000 0.00000000 0.00000000
0.00000000 10.10960000 0.00000000
0.00000000 0.00000000 27.58220000

ATOMIC_POSITIONS {angstrom}
In 1.78713750 2.52740000 -3.791173390000001 0 0 0
In 1.78713750 0.00000000 -1.2638163999999996 0 0 0
In 1.79114069 2.52820877 1.24340558
In 1.83581913 5.10959403 3.95556330
In 1.78713750 7.58220000 -3.791173390000001 0 0 0
In 1.78713750 5.05480000 -1.2638163999999996 0 0 0
In 1.75146624 7.58189671 1.21692666
In 1.83088663 10.05723227 3.95970063
In 5.36141250 2.52740000 -3.791173390000001 0 0 0
In 5.36141250 0.00000000 -1.2638163999999996 0 0 0
In 5.35740931 2.52820877 1.24340558
In 5.31273087 5.10959403 3.95556330
In 5.36141250 7.58220000 -3.791173390000001 0 0 0
In 5.36141250 5.05480000 -1.2638163999999996 0 0 0
In 5.39708376 7.58189671 1.21692666
In 5.31766337 10.05723227 3.95970063
Ag 0.00000000 0.00000000 -3.791173390000001 0 0 0
Ag 0.00000000 2.52740000 -1.2638163999999996 0 0 0
Ag 0.00007149 5.02255038 1.34628718
Ag 7.14847851 2.51749259 3.63423067
Ag 0.00000000 5.05480000 -3.791173390000001 0 0 0
Ag 0.00000000 7.58220000 -1.2638163999999996 0 0 0
Ag 0.00000000 0.02992442 1.33911581
Ag 0.00000000 7.58129014 3.68056877
Ag 3.57427500 0.00000000 -3.791173390000001 0 0 0
Ag 3.57427500 2.52740000 -1.2638163999999996 0 0 0
Ag 3.57434649 5.08573538 1.26216147
Ag 3.57434649 2.52709671 3.63423067
Ag 3.57427500 5.05480000 -3.791173390000001 0 0 0
Ag 3.57427500 7.58220000 -1.2638163999999996 0 0 0
Ag 3.57427500 10.08038326 1.26574716
Ag 3.57427500 7.58705261 3.57492894
C 0.00000000 2.54984331 6.09483873
O 0.00000000 2.51496519 7.23398359
