&CONTROL
calculation = 'relax'
prefix = 'scf'
pseudo_dir = '/vol0004/mdt0/data/hp150275/u10028/POT_HYBRID_KKJUS_GBRV'
outdir = './data'
tprnfor = .true.
nstep = 50
disk_io = 'non'
/
&SYSTEM
ibrav = 0
ecutwfc = 50.0
ecutrho = 400
occupations = 'smearing'
smearing = 'mp'
degauss = 0.01
assume_isolated = 'esm'
esm_bc = 'bc1'
input_dft = 'BEEF-VDW'
nosym = .true.
nspin = 2
ntyp = 4
nat = 18
starting_magnetization(1) = 0.0
starting_magnetization(2) = 0.1
starting_magnetization(3) = 0.0
starting_magnetization(4) = 0.0
/
&ELECTRONS
electron_maxstep = 400
mixing_beta = 0.1
conv_thr = 1e-06
/
&IONS
ion_dynamics = 'bfgs'
upscale = 1.0
/
&CELL
/

K_POINTS {automatic}
8 11 2 0  0  0

ATOMIC_SPECIES
C 12.01 C.pbe-n-rrkjus_psl.1.0.0.UPF
Fe 55.84 fe_pbe_v1.5.uspp.F.UPF
O 15.99 O.pbe-n-rrkjus_psl.1.0.0.UPF
Pt 195.0 Pt.pbe-n-rrkjus_psl.1.0.0.UPF

CELL_PARAMETERS {angstrom}
7.52786000 0.00000000 0.00000000
0.00000000 5.32300000 0.00000000
0.00000000 0.00000000 23.99230000

ATOMIC_POSITIONS {angstrom}
Fe 0.00000000 2.66150000 -1.99615936 0 0 0
Fe 1.88196500 3.99225000 -0.6653064800000017 0 0 0
Fe 1.88196500 1.33075000 -0.6653064800000017 0 0 0
Fe 7.51641765 0.09182175 0.60196681
Fe 1.87993248 1.38738672 1.96496937
Fe 1.88076054 4.32137109 1.81693688
Fe 3.76393000 2.66150000 -1.99615936 0 0 0
Fe 5.64589500 3.99225000 -0.6653064800000017 0 0 0
Fe 5.64589500 1.33075000 -0.6653064800000017 0 0 0
Fe 3.77499595 0.09458971 0.60220673
Fe 5.64800280 1.41708906 1.84572764
Fe 5.64747585 4.24982997 1.74208090
Pt 0.00000000 0.00000000 -1.99615936 0 0 0
Pt 0.03372481 2.73527678 0.76967298
Pt 3.76393000 0.00000000 -1.99615936 0 0 0
Pt 3.72952768 2.73713983 0.77399160
C 1.88121221 0.27365543 3.48776065
O 1.88332001 5.29414934 4.62355613
