&CONTROL
calculation = 'relax'
prefix = 'scf'
pseudo_dir = '/vol0004/mdt0/data/hp150275/u10028/POT_HYBRID_KKJUS_GBRV'
outdir = './data'
tprnfor = .true.
nstep = 50
disk_io = 'non'
/
&SYSTEM
ibrav = 0
ecutwfc = 50.0
ecutrho = 400
occupations = 'smearing'
smearing = 'mp'
degauss = 0.01
assume_isolated = 'esm'
esm_bc = 'bc1'
input_dft = 'BEEF-VDW'
nosym = .true.
nspin = 2
ntyp = 4
nat = 18
starting_magnetization(1) = 0.0
starting_magnetization(2) = 0.1
starting_magnetization(3) = 0.0
starting_magnetization(4) = 0.0
/
&ELECTRONS
electron_maxstep = 400
mixing_beta = 0.1
conv_thr = 1e-06
/
&IONS
ion_dynamics = 'bfgs'
upscale = 1.0
/
&CELL
/

K_POINTS {automatic}
6 8 1 0 0 0

ATOMIC_SPECIES
C 12.01 C.pbe-n-rrkjus_psl.1.0.0.UPF
Fe 55.84 fe_pbe_v1.5.uspp.F.UPF
O 15.99 O.pbe-n-rrkjus_psl.1.0.0.UPF
Pt 195.0 Pt.pbe-n-rrkjus_psl.1.0.0.UPF

CELL_PARAMETERS {angstrom}
7.52786000 0.00000000 0.00000000
0.00000000 5.32300000 0.00000000
0.00000000 0.00000000 23.99230000

ATOMIC_POSITIONS {angstrom}
Fe 0.00000000 2.66150000 -1.99615936 0 0 0
Fe 1.88196500 3.99225000 -0.6653064800000017 0 0 0
Fe 1.88196500 1.33075000 -0.6653064800000017 0 0 0
Fe 0.08657039 0.01815143 0.64083433
Fe 1.88226611 1.27044041 1.97504614
Fe 1.88219084 4.17025112 1.99639928
Fe 3.76393000 2.66150000 -1.99615936 0 0 0
Fe 5.64589500 3.99225000 -0.6653064800000017 0 0 0
Fe 5.64589500 1.33075000 -0.6653064800000017 0 0 0
Fe 3.67735961 0.01820466 0.64035449
Fe 5.64566916 1.28593034 1.77111159
Fe 5.64566916 4.15076894 1.73176421
Pt 0.00000000 0.00000000 -1.99615936 0 0 0
Pt 0.04328520 2.67518011 0.76703383
Pt 3.76393000 0.00000000 -1.99615936 0 0 0
Pt 3.72064481 2.67523334 0.76655398
C 1.88204028 1.15668790 3.79390240
O 1.88196500 1.20464813 4.95584949
