&CONTROL
calculation = 'relax'
prefix = 'scf'
pseudo_dir = '/vol0403/data/hp230205/u10028/POT_HYBRID_KKJUS_GBRV'
outdir = './data'
tprnfor = .true.
nstep = 50
disk_io = 'non'
/
&SYSTEM
ibrav = 0
ecutwfc = 50.0
ecutrho = 400
occupations = 'smearing'
smearing = 'mp'
degauss = 0.01
assume_isolated = 'esm'
esm_bc = 'bc1'
input_dft = 'BEEF-VDW'
nosym = .true.
nspin = 2
ntyp = 5
nat = 33
starting_magnetization(1) = 0.0
starting_magnetization(2) = 0.0
starting_magnetization(3) = 0.1
starting_magnetization(4) = 0.0
starting_magnetization(5) = 0.0
/
&ELECTRONS
electron_maxstep = 400
mixing_beta = 0.05
conv_thr = 1e-06
/
&IONS
ion_dynamics = 'bfgs'
upscale = 1.0
/
&CELL
/

K_POINTS {automatic}
6 9 2 0  0  0

ATOMIC_SPECIES
Al 26.98 Al.pbe-nl-rrkjus_psl.1.0.0.UPF
C 12.01 C.pbe-n-rrkjus_psl.1.0.0.UPF
Fe 55.84 fe_pbe_v1.5.uspp.F.UPF
Li 6.941 Li.pbe-sl-rrkjus_psl.1.0.0.UPF
Pd 106.4 Pd.pbe-n-rrkjus_psl.1.0.0.UPF


CELL_PARAMETERS {angstrom}
8.84236000 0.00000000 0.00000000
0.00000000 5.67696000 0.00000000
0.00000000 0.00000000 26.45530000

ATOMIC_POSITIONS {angstrom}
Li 2.10943340 5.67667615 1.13255139
Li 2.21059000 0.00000000 23.22775340
Li 2.28681114 2.83876385 1.10847707
Li 2.21059000 2.83848000 23.22775340
Li 6.68774214 5.67684646 1.06509038
Li 6.63177000 0.00000000 23.22775340
Li 6.51973730 2.83853677 1.06720680
Li 6.63177000 2.83848000 23.22775340
Al 8.71237731 5.67673292 3.10532311
Al 0.00000000 0.00000000 25.37936295
Al 8.72882410 2.83842323 3.31220356
Al 0.00000000 2.83848000 25.37936295
Al 4.57857401 5.67673292 3.35797123
Al 4.42118000 0.00000000 25.37936295
Al 4.37838298 2.83830969 3.10876230
Al 4.42118000 2.83848000 25.37936295
Fe 8.84112207 1.57325592 1.07990535
Fe 0.00000000 1.41924000 23.22775340
Fe 8.84112207 4.10324992 1.08016990
Fe 0.00000000 4.25772000 23.22775340
Fe 4.39173494 1.27754308 1.09445576
Fe 4.42118000 1.41924000 23.22775340
Fe 4.39217706 4.39890600 1.09445576
Fe 4.42118000 4.25772000 23.22775340
Pd 2.04850954 1.43382979 3.35268017
Pd 2.21059000 1.41924000 25.37936295
Pd 2.04868639 4.24290313 3.35294472
Pd 2.21059000 4.25772000 25.37936295
Pd 6.60320918 1.44064214 3.17569421
Pd 6.63177000 1.41924000 25.37936295
Pd 6.60312075 4.23603401 3.17542966
Pd 6.63177000 4.25772000 25.37936295
C 2.92071993 0.00000000 4.41142128
