&CONTROL
calculation = 'relax'
prefix = 'scf'
pseudo_dir = '/vol0004/mdt0/data/hp150275/u10028/POT_KKJUS'
outdir = './data'
tprnfor = .true.
nstep = 50
disk_io = 'non'
/
&SYSTEM
ibrav = 0
ecutwfc = 50.0
ecutrho = 400
occupations = 'smearing'
smearing = 'mp'
degauss = 0.01
assume_isolated = 'esm'
esm_bc = 'bc1'
input_dft = 'BEEF-VDW'
nosym = .true.
nspin = 1
ntyp = 4
nat = 33
/
&ELECTRONS
electron_maxstep = 200
mixing_beta = 0.1
conv_thr = 1e-06
/
&IONS
ion_dynamics = 'bfgs'
upscale = 1.0
/
&CELL
/

K_POINTS {automatic}
8 6 1 0 0 0

ATOMIC_SPECIES
Au 196.9 Au.pbe-n-rrkjus_psl.1.0.0.UPF
C 12.01 C.pbe-n-rrkjus_psl.1.0.0.UPF
Ge 72.64 Ge.pbe-dn-rrkjus_psl.1.0.0.UPF
Li 6.941 Li.pbe-sl-rrkjus_psl.1.0.0.UPF

CELL_PARAMETERS {angstrom}
6.30953000 0.00000000 0.00000000
0.00000000 8.92302000 0.00000000
0.00000000 0.00000000 26.69230000

ATOMIC_POSITIONS {angstrom}
Li 0.00000000 6.69226500 -1.1154712199999999 0 0 0
Li 3.15476500 0.00000000 -3.346146730000001 0 0 0
Li 0.00000000 2.23075500 -1.1154712199999999 0 0 0
Li 3.15476500 4.46151000 -3.346146730000001 0 0 0
Li 1.57738250 2.23075500 -3.346146730000001 0 0 0
Li 1.57738250 6.69226500 -3.346146730000001 0 0 0
Li 4.73214750 4.46151000 -1.1154712199999999 0 0 0
Li 4.73214750 0.00000000 -1.1154712199999999 0 0 0
Li 0.09445366 2.34782502 3.50336437
Li 3.15697334 4.46151000 0.93182819
Li 0.09445366 6.57519498 3.50336437
Li 3.29937943 0.00000000 1.20168735
Li 1.64785995 6.70663106 1.22597734
Li 1.64785995 2.21638894 1.22597734
Li 5.07153712 0.00000000 3.25726137
Li 4.33483640 4.46151000 3.35628980
Ge 0.00000000 0.00000000 -3.346146730000001 0 0 0
Ge 3.15476500 2.23075500 -1.1154712199999999 0 0 0
Ge 3.15476500 6.69226500 -1.1154712199999999 0 0 0
Ge 0.00000000 4.46151000 -3.346146730000001 0 0 0
Ge 0.00220834 4.46151000 1.14376506
Ge 3.34215804 6.98842003 3.77135507
Ge 3.34215804 1.93459997 3.77135507
Ge 6.20655847 0.00000000 0.95878742
Au 1.57738250 0.00000000 -1.1154712199999999 0 0 0
Au 1.57738250 4.46151000 -1.1154712199999999 0 0 0
Au 4.73214750 6.69226500 -3.346146730000001 0 0 0
Au 4.73214750 2.23075500 -3.346146730000001 0 0 0
Au 1.59650038 4.46151000 3.23217061
Au 1.33560131 0.00000000 3.01596298
Au 4.70558438 2.28652388 1.25347041
Au 4.70558438 6.63649613 1.25347041
C 3.21786030 0.00000000 3.99530346
