&CONTROL
calculation = 'relax'
prefix = 'scf'
pseudo_dir = '/vol0004/mdt0/data/hp150275/u10028/POT_KKJUS'
outdir = './data'
tprnfor = .true.
nstep = 50
disk_io = 'non'
/
&SYSTEM
ibrav = 0
ecutwfc = 50.0
ecutrho = 400
occupations = 'smearing'
smearing = 'mp'
degauss = 0.01
assume_isolated = 'esm'
esm_bc = 'bc1'
input_dft = 'BEEF-VDW'
nosym = .true.
nspin = 1
ntyp = 5
nat = 34
/
&ELECTRONS
electron_maxstep = 200
mixing_beta = 0.1
conv_thr = 1e-06
/
&IONS
ion_dynamics = 'bfgs'
upscale = 1.0
/
&CELL
/

K_POINTS {automatic}
8 6 1 0 0 0

ATOMIC_SPECIES
Al 26.98 Al.pbe-nl-rrkjus_psl.1.0.0.UPF
C 12.01 C.pbe-n-rrkjus_psl.1.0.0.UPF
Ni 58.69 Ni.pbe-spn-rrkjus_psl.1.0.0.UPF
O 15.99 O.pbe-n-rrkjus_psl.1.0.0.UPF
Ti 47.86 Ti.pbe-spn-rrkjus_psl.1.0.0.UPF

CELL_PARAMETERS {angstrom}
5.94410000 0.00000000 0.00000000
0.00000000 8.40623000 0.00000000
0.00000000 0.00000000 26.30470000

ATOMIC_POSITIONS {angstrom}
Ti 0.00000000 0.00000000 -3.1523552499999994 0 0 0
Ti 2.97205000 2.10155750 -1.0508727700000016 0 0 0
Ti 2.97205000 6.30467250 -1.0508727700000016 0 0 0
Ti 0.00000000 4.20311500 -3.1523552499999994 0 0 0
Ti 5.94089019 4.20311500 1.01352009
Ti 2.97561646 6.30315938 3.16287713
Ti 2.97531926 2.10281843 3.16235103
Ti 5.94172236 0.00000000 1.04035089
Al 0.00000000 6.30467250 -1.0508727700000016 0 0 0
Al 2.97205000 0.00000000 -3.1523552499999994 0 0 0
Al 0.00000000 2.10155750 -1.0508727700000016 0 0 0
Al 2.97205000 4.20311500 -3.1523552499999994 0 0 0
Al 5.92133410 2.13560273 3.08396303
Al 2.96741360 4.20311500 1.02009627
Al 5.92115577 6.27029102 3.08422607
Al 2.94565820 0.00000000 1.06954910
Ni 1.48602500 0.00000000 -1.0508727700000016 0 0 0
Ni 4.45807500 4.20311500 -1.0508727700000016 0 0 0
Ni 4.45807500 0.00000000 -1.0508727700000016 0 0 0
Ni 1.48602500 4.20311500 -1.0508727700000016 0 0 0
Ni 4.45807500 6.30467250 -3.1523552499999994 0 0 0
Ni 1.48602500 2.10155750 -3.1523552499999994 0 0 0
Ni 1.48602500 6.30467250 -3.1523552499999994 0 0 0
Ni 4.45807500 2.10155750 -3.1523552499999994 0 0 0
Ni 1.47158084 4.20311500 2.96901149
Ni 4.52857203 8.40614594 2.95980484
Ni 4.45290363 4.20303094 2.97953337
Ni 1.40417474 8.40589375 3.24968264
Ni 4.37878071 2.10029657 1.06007941
Ni 1.55800805 6.31576872 1.08375364
Ni 1.55842414 2.09121784 1.08322755
Ni 4.37884015 6.30584937 1.05929027
C 1.87898945 8.40580969 4.95580548
O 2.05749077 0.00000000 6.10637306
