&CONTROL
calculation = 'relax'
prefix = 'scf'
pseudo_dir = '/vol0004/mdt0/data/hp150275/u10028/POT_KKJUS'
outdir = './data'
tprnfor = .true.
nstep = 50
disk_io = 'non'
/
&SYSTEM
ibrav = 0
ecutwfc = 50.0
ecutrho = 400
occupations = 'smearing'
smearing = 'mp'
degauss = 0.01
assume_isolated = 'esm'
esm_bc = 'bc1'
input_dft = 'BEEF-VDW'
nosym = .true.
nspin = 1
ntyp = 5
nat = 34
/
&ELECTRONS
electron_maxstep = 200
mixing_beta = 0.1
conv_thr = 1e-06
/
&IONS
ion_dynamics = 'bfgs'
upscale = 1.0
/
&CELL
/

K_POINTS {automatic}
8 6 1 0 0 0

ATOMIC_SPECIES
C 12.01 C.pbe-n-rrkjus_psl.1.0.0.UPF
Ga 69.72 Ga.pbe-dnl-rrkjus_psl.1.0.0.UPF
Ir 192.2 Ir.pbe-n-rrkjus_psl.0.2.3.UPF
Li 6.941 Li.pbe-sl-rrkjus_psl.1.0.0.UPF
O 15.99 O.pbe-n-rrkjus_psl.1.0.0.UPF

CELL_PARAMETERS {angstrom}
5.92875000 0.00000000 0.00000000
0.00000000 8.38451000 0.00000000
0.00000000 0.00000000 26.28840000

ATOMIC_POSITIONS {angstrom}
Li 1.48218750 0.00000000 -1.0481185099999983 0 0 0
Li 4.44656250 4.19225500 -1.0481185099999983 0 0 0
Li 4.44656250 0.00000000 -1.0481185099999983 0 0 0
Li 1.48218750 4.19225500 -1.0481185099999983 0 0 0
Li 4.44656250 6.28838250 -3.14409264 0 0 0
Li 1.48218750 2.09612750 -3.14409264 0 0 0
Li 1.48218750 6.28838250 -3.14409264 0 0 0
Li 4.44656250 2.09612750 -3.14409264 0 0 0
Li 1.41151680 4.23350679 3.81865298
Li 4.51723320 8.34342590 3.81865298
Li 4.51723320 4.23342294 3.81865298
Li 1.41151680 8.34325821 3.81865298
Li 4.47922991 2.09612750 0.96057814
Li 1.49185136 6.28838250 0.94480510
Li 1.44952009 2.09612750 0.96057814
Li 4.43689864 6.28838250 0.94480510
Ga 0.00000000 0.00000000 -3.14409264 0 0 0
Ga 2.96437500 2.09612750 -1.0481185099999983 0 0 0
Ga 2.96437500 6.28838250 -1.0481185099999983 0 0 0
Ga 0.00000000 4.19225500 -3.14409264 0 0 0
Ga 0.00005929 4.21288089 1.40064595
Ga 2.96455286 6.28838250 3.00029509
Ga 2.96431571 2.09612750 2.96322845
Ga 0.00000000 8.36388411 1.40064595
Ir 0.00000000 6.28838250 -1.0481185099999983 0 0 0
Ir 2.96437500 0.00000000 -3.14409264 0 0 0
Ir 0.00000000 2.09612750 -1.0481185099999983 0 0 0
Ir 2.96437500 4.19225500 -3.14409264 0 0 0
Ir 0.00005929 2.09612750 3.24845759
Ir 2.96437500 4.17875594 1.51132012
Ir 5.92863142 6.28838250 2.97374381
Ir 2.96437500 0.01349906 1.51132012
C 0.00005929 2.09612750 5.09364038
O 0.00000000 2.09612750 6.27136070
