&CONTROL
calculation = 'relax'
prefix = 'scf'
pseudo_dir = '/vol0403/data/hp230205/u10028/POT_HYBRID_KKJUS_GBRV'
outdir = './data'
tprnfor = .true.
nstep = 50
disk_io = 'non'
/
&SYSTEM
ibrav = 0
ecutwfc = 50.0
ecutrho = 400
occupations = 'smearing'
smearing = 'mp'
degauss = 0.01
assume_isolated = 'esm'
esm_bc = 'bc1'
input_dft = 'BEEF-VDW'
nosym = .true.
nspin = 1
ntyp = 5
nat = 33
/
&ELECTRONS
electron_maxstep = 200
mixing_beta = 0.1
conv_thr = 1e-06
/
&IONS
ion_dynamics = 'bfgs'
upscale = 1.0
/
&CELL
/

K_POINTS {automatic}
9 6 2 0  0  0

ATOMIC_SPECIES
C 12.01 C.pbe-n-rrkjus_psl.1.0.0.UPF
Ge 72.64 Ge.pbe-dn-rrkjus_psl.1.0.0.UPF
Li 6.941 Li.pbe-sl-rrkjus_psl.1.0.0.UPF
Mg 24.30 Mg.pbe-spnl-rrkjus_psl.1.0.0.UPF
Pd 106.4 Pd.pbe-n-rrkjus_psl.1.0.0.UPF


CELL_PARAMETERS {angstrom}
6.25843000 0.00000000 0.00000000
0.00000000 8.85076000 0.00000000
0.00000000 0.00000000 26.63810000

ATOMIC_POSITIONS {angstrom}
Li 1.56460750 0.00000000 -1.1062802900000008 0 0 0
Li 1.56460750 4.42538000 -1.1062802900000008 0 0 0
Li 4.69382250 2.21269000 -3.3191072600000027 0 0 0
Li 4.69382250 6.63807000 -3.3191072600000027 0 0 0
Li 2.02591638 4.29598189 4.28713581
Li 2.02616671 0.12930960 4.28740220
Li 4.74551713 6.63807000 1.21096803
Li 4.73694308 2.21269000 1.04794285
Mg 0.00000000 2.21269000 -1.1062802900000008 0 0 0
Mg 0.00000000 6.63807000 -1.1062802900000008 0 0 0
Mg 3.12921500 4.42538000 -3.3191072600000027 0 0 0
Mg 3.12921500 0.00000000 -3.3191072600000027 0 0 0
Mg 0.22561640 6.63815851 3.42006566
Mg 6.15810737 2.21251298 3.44137614
Mg 3.03671540 8.80084171 1.17101088
Mg 3.03671540 4.47529829 1.17101088
Ge 0.00000000 0.00000000 -3.3191072600000027 0 0 0
Ge 0.00000000 4.42538000 -3.3191072600000027 0 0 0
Ge 3.12921500 6.63807000 -1.1062802900000008 0 0 0
Ge 3.12921500 2.21269000 -1.1062802900000008 0 0 0
Ge 0.06978149 4.41086475 1.18379716
Ge 0.06978149 0.01451525 1.18379716
Ge 3.47949933 2.21269000 3.32470126
Ge 3.11187915 6.63798149 3.51676196
Pd 4.69382250 0.00000000 -1.1062802900000008 0 0 0
Pd 4.69382250 4.42538000 -1.1062802900000008 0 0 0
Pd 1.56460750 2.21269000 -3.3191072600000027 0 0 0
Pd 1.56460750 6.63807000 -3.3191072600000027 0 0 0
Pd 4.68712598 4.58610980 3.15954504
Pd 4.68700081 8.69003020 3.15954504
Pd 1.52198759 6.63807000 1.01038313
Pd 1.58851470 2.21269000 1.18246526
C 1.83384516 2.21260149 4.09347683
