&CONTROL
calculation = 'relax'
prefix = 'scf'
pseudo_dir = '/vol0004/mdt0/data/hp150275/u10028/POT_HYBRID_KKJUS_GBRV'
outdir = './data'
tprnfor = .true.
nstep = 50
disk_io = 'non'
/
&SYSTEM
ibrav = 0
ecutwfc = 50.0
ecutrho = 400
occupations = 'smearing'
smearing = 'mp'
degauss = 0.01
assume_isolated = 'esm'
esm_bc = 'bc1'
input_dft = 'BEEF-VDW'
nosym = .true.
nspin = 2
ntyp = 4
nat = 18
starting_magnetization(1) = 0.01
starting_magnetization(2) = 0.01
starting_magnetization(3) = 0.01
starting_magnetization(4) = 0.01
/
&ELECTRONS
electron_maxstep = 200
mixing_beta = 0.1
conv_thr = 1e-06
/
&IONS
ion_dynamics = 'bfgs'
upscale = 1.0
/
&CELL
/

K_POINTS {automatic}
8 8 1 0 0 0

ATOMIC_SPECIES
C 12.01 C.pbe-n-rrkjus_psl.1.0.0.UPF
In 114.8 In.pbe-dn-rrkjus_psl.1.0.0.UPF
Ni 58.69 ni_pbe_v1.4.uspp.F.UPF
O 15.99 O.pbe-n-rrkjus_psl.1.0.0.UPF

CELL_PARAMETERS {angstrom}
6.35210000 0.00000000 0.00000000
0.00000000 6.35210000 0.00000000
0.00000000 0.00000000 24.76410000

ATOMIC_POSITIONS {angstrom}
In 0.00000000 0.00000000 -2.1252550600000006 0 0 0
In 0.00825773 0.00514520 1.10670763
In 0.00000000 3.17605000 -2.1252550600000006 0 0 0
In 0.00819421 3.17090480 1.10645999
In 3.17605000 0.00000000 -2.1252550600000006 0 0 0
In 3.16779227 0.00501816 1.10670763
In 3.17605000 3.17605000 -2.1252550600000006 0 0 0
In 3.16785579 3.17096832 1.10670763
Ni 1.58802500 1.58802500 -0.5371333299999996 0 0 0
Ni 1.58808852 1.58808852 2.60047814
Ni 1.58802500 4.76407500 -0.5371333299999996 0 0 0
Ni 1.58796148 4.76401148 2.46229446
Ni 4.76407500 1.58802500 -0.5371333299999996 0 0 0
Ni 4.76401148 1.58802500 2.45957041
Ni 4.76407500 4.76407500 -0.5371333299999996 0 0 0
Ni 4.76407500 4.76407500 2.43604452
C 1.58802500 1.58802500 4.37210186
O 1.58802500 1.58802500 5.52462307
