&CONTROL
calculation = 'relax'
prefix = 'scf'
pseudo_dir = '/vol0004/mdt0/data/hp150275/u10028/POT_HYBRID_KKJUS_GBRV'
outdir = './data'
tprnfor = .true.
nstep = 50
disk_io = 'non'
/
&SYSTEM
ibrav = 0
ecutwfc = 50.0
ecutrho = 400
occupations = 'smearing'
smearing = 'mp'
degauss = 0.01
assume_isolated = 'esm'
esm_bc = 'bc1'
input_dft = 'BEEF-VDW'
nosym = .true.
nspin = 2
ntyp = 5
nat = 34
starting_magnetization(1) = 0.0
starting_magnetization(2) = 0.1
starting_magnetization(3) = 0.1
starting_magnetization(4) = 0.0
starting_magnetization(5) = 0.0
/
&ELECTRONS
electron_maxstep = 200
mixing_beta = 0.1
conv_thr = 1e-06
/
&IONS
ion_dynamics = 'bfgs'
upscale = 1.0
/
&CELL
/

K_POINTS {automatic}
9 6 2 0  0  0

ATOMIC_SPECIES
C 12.01 C.pbe-n-rrkjus_psl.1.0.0.UPF
Fe 55.84 fe_pbe_v1.5.uspp.F.UPF
Mn 54.93 mn_pbe_v1.5.uspp.F.UPF
O 15.99 O.pbe-n-rrkjus_psl.1.0.0.UPF
Si 28.08 Si.pbe-nl-rrkjus_psl.1.0.0.UPF

CELL_PARAMETERS {angstrom}
5.59397000 0.00000000 0.00000000
0.00000000 7.91107000 0.00000000
0.00000000 0.00000000 25.93330000

ATOMIC_POSITIONS {angstrom}
Mn 0.00000000 0.00000000 22.96653048
Mn 2.79698500 1.97776750 24.94446327
Mn 2.79698500 5.93330250 24.94446327
Mn 0.00000000 3.95553500 22.96653048
Mn 0.00005594 3.95806654 0.99402339
Mn 2.79698500 5.93330250 3.06609406
Mn 2.79698500 1.97776750 3.10162268
Mn 0.00005594 7.90853846 0.99402339
Fe 1.39849250 0.00000000 24.94446327
Fe 4.19547750 3.95553500 24.94446327
Fe 4.19547750 0.00000000 24.94446327
Fe 1.39849250 3.95553500 24.94446327
Fe 4.19547750 5.93330250 22.96653048
Fe 1.39849250 1.97776750 22.96653048
Fe 1.39849250 5.93330250 22.96653048
Fe 4.19547750 1.97776750 22.96653048
Fe 1.34311220 3.95743366 2.97662417
Fe 4.25091374 7.90917134 2.97662417
Fe 4.25085780 3.95743366 2.97662417
Fe 1.34305626 7.90917134 2.97662417
Fe 4.18568805 1.97776750 0.95797610
Fe 1.40833789 5.93330250 0.93697013
Fe 1.40828195 1.97776750 0.95797610
Fe 4.18568805 5.93330250 0.93697013
Si 0.00000000 5.93330250 24.94446327
Si 2.79698500 0.00000000 22.96653048
Si 0.00000000 1.97776750 24.94446327
Si 2.79698500 3.95553500 22.96653048
Si 0.00000000 1.97776750 2.97325284
Si 2.79698500 3.95925320 1.01373270
Si 0.00000000 5.93330250 2.90997559
Si 2.79692906 7.90735180 1.01373270
C 0.00005594 1.97776750 4.85626976
O 0.00000000 1.97776750 6.02015626
