&CONTROL
calculation = 'relax'
prefix = 'scf'
pseudo_dir = '/vol0004/mdt0/data/hp150275/u10028/POT_KKJUS'
outdir = './data'
tprnfor = .true.
nstep = 50
disk_io = 'non'
/
&SYSTEM
ibrav = 0
ecutwfc = 50.0
ecutrho = 400
occupations = 'smearing'
smearing = 'mp'
degauss = 0.01
assume_isolated = 'esm'
esm_bc = 'bc1'
input_dft = 'BEEF-VDW'
nosym = .true.
nspin = 1
ntyp = 4
nat = 33
/
&ELECTRONS
electron_maxstep = 200
mixing_beta = 0.1
conv_thr = 1e-06
/
&IONS
ion_dynamics = 'bfgs'
upscale = 1.0
/
&CELL
/

K_POINTS {automatic}
9 6 2 0  0  0

ATOMIC_SPECIES
Ag 107.8 Ag.pbe-n-rrkjus_psl.1.0.0.UPF
C 12.01 C.pbe-n-rrkjus_psl.1.0.0.UPF
Mg 24.30 Mg.pbe-spnl-rrkjus_psl.1.0.0.UPF
Zn 65.40 Zn.pbe-dnl-rrkjus_psl.1.0.0.UPF

CELL_PARAMETERS {angstrom}
6.56971000 0.00000000 0.00000000
0.00000000 9.29097000 0.00000000
0.00000000 0.00000000 26.96820000

ATOMIC_POSITIONS {angstrom}
Mg 0.00000000 0.00000000 -3.484021760000001 0 0 0
Mg 3.28485500 2.32274250 -1.1612506899999993 0 0 0
Mg 3.28485500 6.96822750 -1.1612506899999993 0 0 0
Mg 0.00000000 4.64548500 -3.484021760000001 0 0 0
Mg 0.01800101 4.63619403 1.14938468
Mg 3.14439460 6.96822750 3.64771873
Mg 3.56084852 2.32274250 3.89474744
Mg 0.01800101 0.00929097 1.14938468
Zn 0.00000000 6.96822750 -1.1612506899999993 0 0 0
Zn 3.28485500 0.00000000 -3.484021760000001 0 0 0
Zn 0.00000000 2.32274250 -1.1612506899999993 0 0 0
Zn 3.28485500 4.64548500 -3.484021760000001 0 0 0
Zn 6.18419942 2.32274250 3.77446927
Zn 3.29576072 4.65579798 1.18848857
Zn 0.16365148 6.96822750 3.53202515
Zn 3.29576072 9.28065702 1.18848857
Ag 1.64242750 0.00000000 -1.1612506899999993 0 0 0
Ag 4.92728250 4.64548500 -1.1612506899999993 0 0 0
Ag 4.92728250 0.00000000 -1.1612506899999993 0 0 0
Ag 1.64242750 4.64548500 -1.1612506899999993 0 0 0
Ag 4.92728250 6.96822750 -3.484021760000001 0 0 0
Ag 1.64242750 2.32274250 -3.484021760000001 0 0 0
Ag 1.64242750 6.96822750 -3.484021760000001 0 0 0
Ag 4.92728250 2.32274250 -3.484021760000001 0 0 0
Ag 1.56319680 4.59772941 3.55306035
Ag 4.99245402 9.13200150 3.50101172
Ag 4.99245402 4.80445350 3.50101172
Ag 1.56319680 0.04775559 3.55306035
Ag 4.88247708 2.32274250 1.16394751
Ag 1.67744405 6.96822750 1.13293408
Ag 1.68394807 2.32274250 1.24053720
Ag 4.90731058 6.96822750 1.22921056
C 1.51707743 2.32274250 3.58515251
