&CONTROL
calculation = 'relax'
prefix = 'scf'
pseudo_dir = '/vol0004/mdt0/data/hp150275/u10028/POT_KKJUS'
outdir = './data'
tprnfor = .true.
nstep = 50
disk_io = 'non'
/
&SYSTEM
ibrav = 0
ecutwfc = 50.0
ecutrho = 400
occupations = 'smearing'
smearing = 'mp'
degauss = 0.01
assume_isolated = 'esm'
esm_bc = 'bc1'
input_dft = 'BEEF-VDW'
nosym = .true.
nspin = 1
ntyp = 3
nat = 17
/
&ELECTRONS
electron_maxstep = 200
mixing_beta = 0.1
conv_thr = 1e-06
/
&IONS
ion_dynamics = 'bfgs'
upscale = 1.0
/
&CELL
/

K_POINTS {automatic}
9 9 2 0  0  0

ATOMIC_SPECIES
Bi 208.9 Bi.pbe-dn-rrkjus_psl.1.0.0.UPF
C 12.01 C.pbe-n-rrkjus_psl.1.0.0.UPF
Li 6.941 Li.pbe-sl-rrkjus_psl.1.0.0.UPF

CELL_PARAMETERS {angstrom}
6.74000000 0.00000000 0.00000000
0.00000000 6.74000000 0.00000000
0.00000000 0.00000000 25.05500000

ATOMIC_POSITIONS {angstrom}
Li 1.69005500 1.68985280 0.89245910
Li 5.05500000 5.05500000 -2.5275484000000006 0 0 0
Li 5.05385420 1.68971800 0.87391840
Li 1.68500000 5.05500000 -2.5275484000000006 0 0 0
Li 5.04994500 5.04994500 0.85462605
Li 1.68500000 1.68500000 -2.5275484000000006 0 0 0
Li 1.68951580 5.05385420 0.87391840
Li 5.05500000 1.68500000 -2.5275484000000006 0 0 0
Li 0.00000000 0.00000000 -0.8425996500000004 0 0 0
Li 3.15175880 0.21177080 3.13087280
Li 0.21183820 3.15175880 3.13062225
Li 3.37000000 3.37000000 -0.8425996500000004 0 0 0
Bi 0.09307940 0.09314680 2.63503435
Bi 3.28959180 3.28959180 2.63979480
Bi 3.37000000 0.00000000 -0.8425996500000004 0 0 0
Bi 0.00000000 3.37000000 -0.8425996500000004 0 0 0
C 1.69302060 1.69288580 3.26165990
