&CONTROL
calculation = 'relax'
prefix = 'scf'
pseudo_dir = '/vol0004/mdt0/data/hp150275/u10028/POT_KKJUS'
outdir = './data'
tprnfor = .true.
nstep = 50
disk_io = 'non'
/
&SYSTEM
ibrav = 0
ecutwfc = 50.0
ecutrho = 400
occupations = 'smearing'
smearing = 'mp'
degauss = 0.01
assume_isolated = 'esm'
esm_bc = 'bc1'
input_dft = 'BEEF-VDW'
nosym = .true.
nspin = 1
ntyp = 4
nat = 34
/
&ELECTRONS
electron_maxstep = 200
mixing_beta = 0.1
conv_thr = 1e-06
/
&IONS
ion_dynamics = 'bfgs'
upscale = 1.0
/
&CELL
/

K_POINTS {automatic}
8 6 1 0 0 0

ATOMIC_SPECIES
Ag 107.8 Ag.pbe-n-rrkjus_psl.1.0.0.UPF
C 12.01 C.pbe-n-rrkjus_psl.1.0.0.UPF
O 15.99 O.pbe-n-rrkjus_psl.1.0.0.UPF
Sc 44.95 Sc.pbe-spn-rrkjus_psl.1.0.0.UPF

CELL_PARAMETERS {angstrom}
6.93038000 0.00000000 0.00000000
0.00000000 9.80104000 0.00000000
0.00000000 0.00000000 27.35080000

ATOMIC_POSITIONS {angstrom}
Sc 1.73259500 2.45026000 -3.6754004999999985 0 0 0
Sc 1.73259500 0.00000000 -1.2250423300000008 0 0 0
Sc 1.73259500 2.44241917 1.20781133
Sc 1.73259500 0.00000000 3.56599730
Sc 1.73259500 7.35078000 -3.6754004999999985 0 0 0
Sc 1.73259500 4.90052000 -1.2250423300000008 0 0 0
Sc 1.73259500 7.35862083 1.20781133
Sc 1.73259500 4.90052000 3.60893806
Sc 5.19778500 2.45026000 -3.6754004999999985 0 0 0
Sc 5.19778500 0.00000000 -1.2250423300000008 0 0 0
Sc 5.19778500 2.45731675 1.22805092
Sc 5.19785430 0.00000000 3.68387925
Sc 5.19778500 7.35078000 -3.6754004999999985 0 0 0
Sc 5.19778500 4.90052000 -1.2250423300000008 0 0 0
Sc 5.19778500 7.34372325 1.22777741
Sc 5.19778500 4.90052000 3.63218624
Ag 0.00000000 0.00000000 -3.6754004999999985 0 0 0
Ag 0.00000000 2.45026000 -1.2250423300000008 0 0 0
Ag 6.85719519 0.00009801 1.22640987
Ag 0.00090095 2.45594460 3.53399687
Ag 0.00000000 4.90052000 -3.6754004999999985 0 0 0
Ag 0.00000000 7.35078000 -1.2250423300000008 0 0 0
Ag 0.00034652 4.90042199 1.22504233
Ag 0.00083165 7.34509540 3.53399687
Ag 3.46519000 0.00000000 -3.6754004999999985 0 0 0
Ag 3.46519000 2.45026000 -1.2250423300000008 0 0 0
Ag 3.53844412 0.00009801 1.22640987
Ag 3.46428905 2.45594460 3.53399687
Ag 3.46519000 4.90052000 -3.6754004999999985 0 0 0
Ag 3.46519000 7.35078000 -1.2250423300000008 0 0 0
Ag 3.46484348 4.90042199 1.22504233
Ag 3.46435835 7.34509540 3.53399687
C 1.73259500 0.00000000 5.82380584
O 1.73259500 0.00000000 6.97992416
