&CONTROL
calculation = 'relax'
prefix = 'scf'
pseudo_dir = '/vol0004/mdt0/data/hp150275/u10028/POT_KKJUS'
outdir = './data'
tprnfor = .true.
nstep = 50
disk_io = 'non'
/
&SYSTEM
ibrav = 0
ecutwfc = 50.0
ecutrho = 400
occupations = 'smearing'
smearing = 'mp'
degauss = 0.01
assume_isolated = 'esm'
esm_bc = 'bc1'
input_dft = 'BEEF-VDW'
nosym = .true.
nspin = 1
ntyp = 4
nat = 33
/
&ELECTRONS
electron_maxstep = 200
mixing_beta = 0.1
conv_thr = 1e-06
/
&IONS
ion_dynamics = 'bfgs'
upscale = 1.0
/
&CELL
/

K_POINTS {automatic}
9 6 2 0  0  0

ATOMIC_SPECIES
C 12.01 C.pbe-n-rrkjus_psl.1.0.0.UPF
Cu 63.54 Cu.pbe-dn-rrkjus_psl.1.0.0.UPF
Li 6.941 Li.pbe-sl-rrkjus_psl.1.0.0.UPF
Sb 121.7 Sb.pbe-n-rrkjus_psl.1.0.0.UPF

CELL_PARAMETERS {angstrom}
6.37457000 0.00000000 0.00000000
0.00000000 9.01500000 0.00000000
0.00000000 0.00000000 26.76130000

ATOMIC_POSITIONS {angstrom}
Li 0.00000000 6.76125000 -1.1269183399999996 0 0 0
Li 3.18728500 0.00000000 -3.3807550299999996 0 0 0
Li 0.00000000 2.25375000 -1.1269183399999996 0 0 0
Li 3.18728500 4.50750000 -3.3807550299999996 0 0 0
Li 1.59364250 0.00000000 -1.1269183399999996 0 0 0
Li 1.59364250 4.50750000 -1.1269183399999996 0 0 0
Li 4.78092750 6.76125000 -3.3807550299999996 0 0 0
Li 4.78092750 2.25375000 -3.3807550299999996 0 0 0
Li 6.32682447 2.25375000 4.82693568
Li 3.24032142 4.50272205 1.14083422
Li 6.21526950 6.76125000 3.74872290
Li 3.24032142 0.00468780 1.14083422
Li 1.58605676 4.49776380 3.26166724
Li 1.58605676 0.00973620 3.26166724
Li 4.92824381 2.25375000 1.40470064
Li 4.88062577 6.76125000 1.03325379
Cu 0.00000000 0.00000000 -3.3807550299999996 0 0 0
Cu 3.18728500 2.25375000 -1.1269183399999996 0 0 0
Cu 3.18728500 6.76125000 -1.1269183399999996 0 0 0
Cu 0.00000000 4.50750000 -3.3807550299999996 0 0 0
Cu 6.32905557 4.50127965 1.09400194
Cu 3.44105663 6.76125000 3.16559418
Cu 2.92172041 2.25375000 3.30609100
Cu 6.32905557 0.00622035 1.09400194
Sb 1.59364250 2.25375000 -3.3807550299999996 0 0 0
Sb 1.59364250 6.76125000 -3.3807550299999996 0 0 0
Sb 4.78092750 4.50750000 -1.1269183399999996 0 0 0
Sb 4.78092750 0.00000000 -1.1269183399999996 0 0 0
Sb 1.53690883 6.76125000 1.28534524
Sb 1.53219165 2.25375000 1.15020067
Sb 4.90312801 0.09195300 3.45060202
Sb 4.90312801 4.41554700 3.45060202
C 4.32935296 2.25375000 4.50927905
