&CONTROL
calculation = 'relax'
prefix = 'scf'
pseudo_dir = '/vol0403/data/hp230205/u10028/POT_HYBRID_KKJUS_GBRV'
outdir = './data'
tprnfor = .true.
nstep = 70
disk_io = 'non'
/
&SYSTEM
ibrav = 0
ecutwfc = 50.0
ecutrho = 400
occupations = 'smearing'
smearing = 'mp'
degauss = 0.01
assume_isolated = 'esm'
esm_bc = 'bc1'
input_dft = 'BEEF-VDW'
nosym = .true.
nspin = 1
ntyp = 5
nat = 33
/
&ELECTRONS
electron_maxstep = 200
mixing_beta = 0.1
conv_thr = 1e-06
/
&IONS
ion_dynamics = 'bfgs'
upscale = 1.0
/
&CELL
/

K_POINTS {automatic}
6 6 1 0 0 0

ATOMIC_SPECIES
C 12.01 C.pbe-n-rrkjus_psl.1.0.0.UPF
Mg 24.30 Mg.pbe-spnl-rrkjus_psl.1.0.0.UPF
Pd 106.4 Pd.pbe-n-rrkjus_psl.1.0.0.UPF
Sn 118.7 Sn.pbe-dn-rrkjus_psl.1.0.0.UPF
Y 88.90 Y.pbe-spn-rrkjus_psl.1.0.0.UPF


CELL_PARAMETERS {angstrom}
7.00634000 0.00000000 0.00000000
-0.00000000 9.90846000 0.00000000
0.00000000 0.00000000 27.43130000

ATOMIC_POSITIONS {angstrom}
Y 0.00000000 2.47711500 -1.2385231899999987 0 0 0
Y 0.00000000 7.43134500 -1.2385231899999987 0 0 0
Y 3.50317000 4.95423000 -3.7155695800000004 0 0 0
Y 3.50317000 0.00000000 -3.7155695800000004 0 0 0
Y 0.38317673 6.95098286 3.70267687
Y 0.38317673 2.95747714 3.70267687
Y 3.45216384 -0.00000000 1.53368398
Y 3.24365517 4.95423000 1.50542974
Mg 0.00000000 0.00000000 -3.7155695800000004 0 0 0
Mg 0.00000000 4.95423000 -3.7155695800000004 0 0 0
Mg 3.50317000 7.43134500 -1.2385231899999987 0 0 0
Mg 3.50317000 2.47711500 -1.2385231899999987 0 0 0
Mg 6.93627660 4.95423000 1.12413467
Mg 0.05093609 0.00000000 1.39927061
Mg 3.81313048 2.27181171 3.97452106
Mg 3.81313048 7.63664829 3.97479537
Sn 1.75158500 0.00000000 -1.2385231899999987 0 0 0
Sn 1.75158500 4.95423000 -1.2385231899999987 0 0 0
Sn 5.25475500 2.47711500 -3.7155695800000004 0 0 0
Sn 5.25475500 7.43134500 -3.7155695800000004 0 0 0
Sn 2.62793801 4.95423000 4.76234799
Sn 1.52871332 -0.00000000 4.38599056
Sn 5.26862755 7.37129973 1.31999416
Sn 5.26855749 2.53725935 1.31999416
Pd 5.25475500 0.00000000 -1.2385231899999987 0 0 0
Pd 5.25475500 4.95423000 -1.2385231899999987 0 0 0
Pd 1.75158500 2.47711500 -3.7155695800000004 0 0 0
Pd 1.75158500 7.43134500 -3.7155695800000004 0 0 0
Pd 5.24606714 4.95423000 3.49118155
Pd 5.77042162 -0.00000000 3.88290052
Pd 1.68390376 7.47969828 1.11288784
Pd 1.68390376 2.42876172 1.11288784
C 3.68862782 -0.00000000 3.86836193
