&CONTROL
calculation = 'relax'
prefix = 'scf'
pseudo_dir = '/vol0403/data/hp230205/u10028/POT_HYBRID_KKJUS_GBRV'
outdir = './data'
tprnfor = .true.
nstep = 50
disk_io = 'non'
/
&SYSTEM
ibrav = 0
ecutwfc = 50.0
ecutrho = 400
occupations = 'smearing'
smearing = 'mp'
degauss = 0.01
assume_isolated = 'esm'
esm_bc = 'bc1'
input_dft = 'BEEF-VDW'
nosym = .true.
nspin = 1
ntyp = 4
nat = 32
/
&ELECTRONS
electron_maxstep = 200
mixing_beta = 0.1
conv_thr = 1e-06
/
&IONS
ion_dynamics = 'bfgs'
upscale = 1.0
/
&CELL
/

K_POINTS {automatic}
9 6 2 0  0  0

ATOMIC_SPECIES
Ag 107.8 Ag.pbe-n-rrkjus_psl.1.0.0.UPF
Ge 72.64 Ge.pbe-dn-rrkjus_psl.1.0.0.UPF
Li 6.941 Li.pbe-sl-rrkjus_psl.1.0.0.UPF
Zn 65.40 Zn.pbe-dnl-rrkjus_psl.1.0.0.UPF


CELL_PARAMETERS {angstrom}
6.35563000 0.00000000 0.00000000
0.00000000 8.98822000 0.00000000
0.00000000 0.00000000 26.74120000

ATOMIC_POSITIONS {angstrom}
Li 4.76672250 0.00000000 -1.1233978100000002 0 0 0
Li 4.76672250 4.49411000 -1.1233978100000002 0 0 0
Li 1.58890750 2.24705500 -3.3704608500000006 0 0 0
Li 1.58890750 6.74116500 -3.3704608500000006 0 0 0
Li 4.90896150 4.49419988 3.68680924
Li 4.90896150 8.98813012 3.68654183
Li 1.58852616 6.74125488 1.12580452
Li 1.58852616 2.24714488 1.12580452
Zn 1.58890750 0.00000000 -1.1233978100000002 0 0 0
Zn 1.58890750 4.49411000 -1.1233978100000002 0 0 0
Zn 4.76672250 2.24705500 -3.3704608500000006 0 0 0
Zn 4.76672250 6.74116500 -3.3704608500000006 0 0 0
Zn 1.48721742 4.49402012 3.40361994
Zn 1.48715386 0.00008988 3.40361994
Zn 4.76138377 6.74134476 1.20549330
Zn 4.76144733 2.24714488 1.20522588
Ag 0.00000000 0.00000000 -3.3704608500000006 0 0 0
Ag 0.00000000 4.49411000 -3.3704608500000006 0 0 0
Ag 3.17781500 6.74116500 -1.1233978100000002 0 0 0
Ag 3.17781500 2.24705500 -1.1233978100000002 0 0 0
Ag 6.28775187 4.49428976 1.16618373
Ag 6.28775187 0.00008988 1.16618373
Ag 3.10567860 2.24696512 3.47181000
Ag 3.10542437 6.74125488 3.47207741
Ge 0.00000000 2.24705500 -1.1233978100000002 0 0 0
Ge 0.00000000 6.74116500 -1.1233978100000002 0 0 0
Ge 3.17781500 4.49411000 -3.3704608500000006 0 0 0
Ge 3.17781500 0.00000000 -3.3704608500000006 0 0 0
Ge 0.07067461 6.74116500 3.50951509
Ge 0.07035682 2.24705500 3.50924768
Ge 3.24747270 0.00008988 1.28999549
Ge 3.24753626 4.49419988 1.28999549
