&CONTROL
calculation = 'relax'
prefix = 'scf'
pseudo_dir = '/vol0004/mdt0/data/hp150275/u10028/POT_KKJUS'
outdir = './data'
tprnfor = .true.
nstep = 50
disk_io = 'non'
/
&SYSTEM
ibrav = 0
ecutwfc = 50.0
ecutrho = 400
occupations = 'smearing'
smearing = 'mp'
degauss = 0.01
assume_isolated = 'esm'
esm_bc = 'bc1'
input_dft = 'BEEF-VDW'
nosym = .true.
nspin = 1
ntyp = 4
nat = 34
/
&ELECTRONS
electron_maxstep = 200
mixing_beta = 0.1
conv_thr = 1e-06
/
&IONS
ion_dynamics = 'bfgs'
upscale = 1.0
/
&CELL
/

K_POINTS {automatic}
9 6 2 0  0  0

ATOMIC_SPECIES
C 12.01 C.pbe-n-rrkjus_psl.1.0.0.UPF
Cu 63.54 Cu.pbe-dn-rrkjus_psl.1.0.0.UPF
O 15.99 O.pbe-n-rrkjus_psl.1.0.0.UPF
Zr 91.22 Zr.pbe-spn-rrkjus_psl.1.0.0.UPF

CELL_PARAMETERS {angstrom}
6.62616000 0.00000000 0.00000000
0.00000000 9.37081000 0.00000000
0.00000000 0.00000000 27.02810000

ATOMIC_POSITIONS {angstrom}
Zr 1.65654000 2.34270250 -3.51392328 0 0 0
Zr 1.65654000 0.00000000 -1.1713978499999982 0 0 0
Zr 1.65654000 2.32246155 1.05950152
Zr 1.65654000 0.00009371 3.34094344
Zr 1.65654000 7.02810750 -3.51392328 0 0 0
Zr 1.65654000 4.68540500 -1.1713978499999982 0 0 0
Zr 1.65654000 7.04778620 1.06031236
Zr 1.65654000 4.68540500 3.38175587
Zr 4.96962000 2.34270250 -3.51392328 0 0 0
Zr 4.96962000 0.00000000 -1.1713978499999982 0 0 0
Zr 4.96962000 2.37784304 1.07950231
Zr 4.96962000 9.37071629 3.53203211
Zr 4.96962000 7.02810750 -3.51392328 0 0 0
Zr 4.96962000 4.68540500 -1.1713978499999982 0 0 0
Zr 4.96962000 6.99334179 1.08031316
Zr 4.96962000 4.68540500 3.36716070
Cu 0.00000000 0.00000000 -3.51392328 0 0 0
Cu 0.00000000 2.34270250 -1.1713978499999982 0 0 0
Cu 6.42810408 9.37006034 1.23302192
Cu 6.59660733 2.34045351 3.25823745
Cu 0.00000000 4.68540500 -3.51392328 0 0 0
Cu 0.00000000 7.02810750 -1.1713978499999982 0 0 0
Cu 0.04068462 4.68606096 1.22031872
Cu 6.59660733 7.03045020 3.25796717
Cu 3.31308000 0.00000000 -3.51392328 0 0 0
Cu 3.31308000 2.34270250 -1.1713978499999982 0 0 0
Cu 3.51113592 9.37006034 1.23302192
Cu 3.34263267 2.34045351 3.25823745
Cu 3.31308000 4.68540500 -3.51392328 0 0 0
Cu 3.31308000 7.02810750 -1.1713978499999982 0 0 0
Cu 3.27239538 4.68606096 1.22031872
Cu 3.34263267 7.03045020 3.25796717
C 1.65654000 9.37071629 5.58941108
O 1.65654000 0.00000000 6.74756517
