&CONTROL
calculation = 'relax'
prefix = 'scf'
pseudo_dir = '/vol0004/mdt0/data/hp150275/u10028/POT_KKJUS'
outdir = './data'
tprnfor = .true.
nstep = 50
disk_io = 'non'
/
&SYSTEM
ibrav = 0
ecutwfc = 50.0
ecutrho = 400
occupations = 'smearing'
smearing = 'mp'
degauss = 0.01
assume_isolated = 'esm'
esm_bc = 'bc1'
input_dft = 'BEEF-VDW'
nosym = .true.
nspin = 1
ntyp = 4
nat = 34
/
&ELECTRONS
electron_maxstep = 200
mixing_beta = 0.1
conv_thr = 1e-06
/
&IONS
ion_dynamics = 'bfgs'
upscale = 1.0
/
&CELL
/

K_POINTS {automatic}
9 6 2 0  0  0

ATOMIC_SPECIES
C 12.01 C.pbe-n-rrkjus_psl.1.0.0.UPF
O 15.99 O.pbe-n-rrkjus_psl.1.0.0.UPF
Pt 195.0 Pt.pbe-n-rrkjus_psl.1.0.0.UPF
Sc 44.95 Sc.pbe-spn-rrkjus_psl.1.0.0.UPF

CELL_PARAMETERS {angstrom}
6.65024000 0.00000000 0.00000000
0.00000000 9.40485000 0.00000000
0.00000000 0.00000000 27.05360000

ATOMIC_POSITIONS {angstrom}
Sc 1.66256000 2.35121250 -3.526707299999998 0 0 0
Sc 1.66256000 0.00000000 -1.1754789199999998 0 0 0
Sc 1.66222749 2.34039692 1.14571996
Sc 1.66282601 0.00000000 3.53157694
Sc 1.66256000 7.05363750 -3.526707299999998 0 0 0
Sc 1.66256000 4.70242500 -1.1754789199999998 0 0 0
Sc 1.66222749 7.06445308 1.14571996
Sc 1.66222749 4.70242500 3.48477422
Sc 4.98768000 2.35121250 -3.526707299999998 0 0 0
Sc 4.98768000 0.00000000 -1.1754789199999998 0 0 0
Sc 4.98754700 2.35008392 1.14247353
Sc 4.98701498 0.00000000 3.51074567
Sc 4.98768000 7.05363750 -3.526707299999998 0 0 0
Sc 4.98768000 4.70242500 -1.1754789199999998 0 0 0
Sc 4.98748049 7.05476608 1.14247353
Sc 4.98714798 4.70242500 3.48558582
Pt 0.00000000 0.00000000 -3.526707299999998 0 0 0
Pt 0.00000000 2.35121250 -1.1754789199999998 0 0 0
Pt 6.64106267 0.00000000 1.15708247
Pt 6.64777941 2.36607216 3.27050970
Pt 0.00000000 4.70242500 -3.526707299999998 0 0 0
Pt 0.00000000 7.05363750 -1.1754789199999998 0 0 0
Pt 6.64970798 4.70242500 1.15437711
Pt 6.64771291 7.03877784 3.27023917
Pt 3.32512000 0.00000000 -3.526707299999998 0 0 0
Pt 3.32512000 2.35121250 -1.1754789199999998 0 0 0
Pt 3.33343280 0.00000000 1.15681194
Pt 3.32698207 2.36682455 3.27023917
Pt 3.32512000 4.70242500 -3.526707299999998 0 0 0
Pt 3.32512000 7.05363750 -1.1754789199999998 0 0 0
Pt 3.32492049 4.70242500 1.15437711
Pt 3.32698207 7.03802545 3.27023917
C 1.67572748 0.00000000 5.85872762
O 1.67758954 0.00000000 7.00552972
