&CONTROL
calculation = 'relax'
prefix = 'scf'
pseudo_dir = '/vol0004/mdt0/data/hp150275/u10028/POT_KKJUS'
outdir = './data'
tprnfor = .true.
nstep = 50
disk_io = 'non'
/
&SYSTEM
ibrav = 0
ecutwfc = 50.0
ecutrho = 400
occupations = 'smearing'
smearing = 'mp'
degauss = 0.01
assume_isolated = 'esm'
esm_bc = 'bc1'
input_dft = 'BEEF-VDW'
nosym = .true.
nspin = 1
ntyp = 3
nat = 17
/
&ELECTRONS
electron_maxstep = 200
mixing_beta = 0.1
conv_thr = 1e-06
/
&IONS
ion_dynamics = 'bfgs'
upscale = 1.0
/
&CELL
/

K_POINTS {automatic}
8 8 1 0 0 0

ATOMIC_SPECIES
Bi 208.9 Bi.pbe-dn-rrkjus_psl.1.0.0.UPF
C 12.01 C.pbe-n-rrkjus_psl.1.0.0.UPF
K 39.09 K.pbe-spn-rrkjus_psl.1.0.0.UPF

CELL_PARAMETERS {angstrom}
8.83903000 0.00000000 0.00000000
0.00000000 8.83903000 0.00000000
0.00000000 0.00000000 26.62930000

ATOMIC_POSITIONS {angstrom}
K 2.20975750 2.20975750 -1.1048496599999993 0 0 0
K 6.71713246 6.54123576 3.77656733
K 6.62927250 2.20975750 -1.1048496599999993 0 0 0
K 2.12180915 6.54123576 3.77656733
K 6.62927250 6.62927250 -1.1048496599999993 0 0 0
K 2.12189754 2.29779424 3.77656733
K 2.20975750 6.62927250 -1.1048496599999993 0 0 0
K 6.71713246 2.29779424 3.77683362
K 0.00000000 0.00000000 0.96131773
K 4.41951500 0.00000000 -3.3145489700000006 0 0 0
K 0.00000000 4.41951500 -3.3145489700000006 0 0 0
K 4.41951500 4.41951500 0.96424695
Bi 0.00000000 0.00000000 -3.3145489700000006 0 0 0
Bi 4.41951500 4.41951500 -3.3145489700000006 0 0 0
Bi 4.41951500 0.00000000 1.54929267
Bi 0.00000000 4.41951500 1.10698000
C 8.83894161 4.41933822 3.28365898
