&CONTROL
calculation = 'relax'
prefix = 'scf'
pseudo_dir = '/vol0004/mdt0/data/hp150275/u10028/POT_KKJUS'
outdir = './data'
tprnfor = .true.
nstep = 50
disk_io = 'non'
/
&SYSTEM
ibrav = 0
ecutwfc = 50.0
ecutrho = 400
occupations = 'smearing'
smearing = 'mp'
degauss = 0.01
assume_isolated = 'esm'
esm_bc = 'bc1'
input_dft = 'BEEF-VDW'
nosym = .true.
nspin = 1
ntyp = 4
nat = 18
/
&ELECTRONS
electron_maxstep = 200
mixing_beta = 0.1
conv_thr = 1e-06
/
&IONS
ion_dynamics = 'bfgs'
upscale = 1.0
/
&CELL
/

K_POINTS {automatic}
6 8 1 0 0 0

ATOMIC_SPECIES
C 12.01 C.pbe-n-rrkjus_psl.1.0.0.UPF
Ga 69.72 Ga.pbe-dnl-rrkjus_psl.1.0.0.UPF
Ni 58.69 Ni.pbe-spn-rrkjus_psl.1.0.0.UPF
O 15.99 O.pbe-n-rrkjus_psl.1.0.0.UPF

CELL_PARAMETERS {angstrom}
7.23991000 0.00000000 0.00000000
0.00000000 5.11939000 0.00000000
0.00000000 0.00000000 23.83950000

ATOMIC_POSITIONS {angstrom}
Ga 7.23947561 0.00020478 1.86043458
Ga 0.00000000 2.55969500 -0.6398521800000019 0 0 0
Ga 3.62067899 0.00015358 1.88761161
Ga 3.61995500 2.55969500 -0.6398521800000019 0 0 0
Ni 0.00000000 2.55984858 1.82944323
Ni 1.81765180 3.85413276 0.66011575
Ni 1.81772420 1.26551321 0.66011575
Ni 0.00000000 0.00000000 -0.6398521800000019 0 0 0
Ni 1.80997750 1.27984750 -1.919794930000002 0 0 0
Ni 1.80997750 3.83954250 -1.919794930000002 0 0 0
Ni 3.62002740 2.55989978 1.84803804
Ni 5.42254779 3.85408157 0.66011575
Ni 5.42254779 1.26556440 0.66011575
Ni 3.61995500 0.00000000 -0.6398521800000019 0 0 0
Ni 5.42993250 1.27984750 -1.919794930000002 0 0 0
Ni 5.42993250 3.83954250 -1.919794930000002 0 0 0
C 7.23520406 5.11908284 5.70503075
O 0.00036200 0.00010239 6.83979094
