&CONTROL
calculation = 'relax'
prefix = 'scf'
pseudo_dir = '/vol0004/mdt0/data/hp150275/u10028/POT_KKJUS'
outdir = './data'
tprnfor = .true.
nstep = 50
disk_io = 'non'
/
&SYSTEM
ibrav = 0
ecutwfc = 50.0
ecutrho = 400
occupations = 'smearing'
smearing = 'mp'
degauss = 0.01
assume_isolated = 'esm'
esm_bc = 'bc1'
input_dft = 'BEEF-VDW'
nosym = .true.
nspin = 1
ntyp = 4
nat = 33
/
&ELECTRONS
electron_maxstep = 200
mixing_beta = 0.1
conv_thr = 1e-06
/
&IONS
ion_dynamics = 'bfgs'
upscale = 1.0
/
&CELL
/

K_POINTS {automatic}
9 6 2 0  0  0

ATOMIC_SPECIES
C 12.01 C.pbe-n-rrkjus_psl.1.0.0.UPF
Ga 69.72 Ga.pbe-dnl-rrkjus_psl.1.0.0.UPF
Li 6.941 Li.pbe-sl-rrkjus_psl.1.0.0.UPF
Pt 195.0 Pt.pbe-n-rrkjus_psl.1.0.0.UPF

CELL_PARAMETERS {angstrom}
6.10853000 0.00000000 0.00000000
0.00000000 8.63876000 0.00000000
0.00000000 0.00000000 26.47910000

ATOMIC_POSITIONS {angstrom}
Li 0.00000000 6.47907000 -1.0798176999999995 0 0 0
Li 3.05426500 0.00000000 -3.239453089999998 0 0 0
Li 0.00000000 2.15969000 -1.0798176999999995 0 0 0
Li 3.05426500 4.31938000 -3.239453089999998 0 0 0
Li 1.52713250 2.15969000 -3.239453089999998 0 0 0
Li 1.52713250 6.47907000 -3.239453089999998 0 0 0
Li 4.58139750 4.31938000 -1.0798176999999995 0 0 0
Li 4.58139750 0.00000000 -1.0798176999999995 0 0 0
Li 0.09853059 2.07822649 3.27625904
Li 3.08981664 4.31938000 1.03109615
Li 0.09840842 6.56053351 3.27599425
Li 3.14815311 0.00000000 1.23154294
Li 1.52627731 6.52926120 1.02977220
Li 1.52627731 2.10949880 1.03003699
Li 4.48824242 0.00000000 4.08916741
Li 4.54492958 4.31938000 3.36443445
Ga 1.52713250 0.00000000 -1.0798176999999995 0 0 0
Ga 1.52713250 4.31938000 -1.0798176999999995 0 0 0
Ga 4.58139750 6.47907000 -3.239453089999998 0 0 0
Ga 4.58139750 2.15969000 -3.239453089999998 0 0 0
Ga 1.68247242 4.31938000 3.18411177
Ga 1.99730605 0.00000000 3.78677609
Ga 4.62036992 2.22845453 1.01785660
Ga 4.62036992 6.41030547 1.01785660
Pt 0.00000000 0.00000000 -3.239453089999998 0 0 0
Pt 3.05426500 2.15969000 -1.0798176999999995 0 0 0
Pt 3.05426500 6.47907000 -1.0798176999999995 0 0 0
Pt 0.00000000 4.31938000 -3.239453089999998 0 0 0
Pt 0.04227103 4.31938000 1.14310275
Pt 3.09287091 6.43725840 3.05542335
Pt 3.09287091 2.20150160 3.05542335
Pt 6.06558703 0.00000000 1.20109198
C 0.16395295 0.00000000 3.19152592
