&CONTROL
calculation = 'relax'
prefix = 'scf'
pseudo_dir = '/vol0004/mdt0/data/hp150275/u10028/POT_HYBRID_KKJUS_GBRV'
outdir = './data'
tprnfor = .true.
nstep = 50
disk_io = 'non'
/
&SYSTEM
ibrav = 0
ecutwfc = 50.0
ecutrho = 400
occupations = 'smearing'
smearing = 'mp'
degauss = 0.01
assume_isolated = 'esm'
esm_bc = 'bc1'
input_dft = 'BEEF-VDW'
nosym = .true.
nspin = 2
ntyp = 4
nat = 33
starting_magnetization(1) = 0.0
starting_magnetization(2) = 0.0
starting_magnetization(3) = 0.1
starting_magnetization(4) = 0.001
/
&ELECTRONS
electron_maxstep = 300
mixing_beta = 0.1
conv_thr = 1e-06
/
&IONS
ion_dynamics = 'bfgs'
upscale = 1.0
/
&CELL
/

K_POINTS {automatic}
9 6 2 0  0  0

ATOMIC_SPECIES
C 12.01 C.pbe-n-rrkjus_psl.1.0.0.UPF
In 114.8 In.pbe-dn-rrkjus_psl.1.0.0.UPF
Mn 54.93 mn_pbe_v1.5.uspp.F.UPF
Ni 58.69 ni_pbe_v1.4.uspp.F.UPF

CELL_PARAMETERS {angstrom}
6.11439000 0.00000000 0.00000000
0.00000000 8.64705000 0.00000000
0.00000000 0.00000000 26.48530000

ATOMIC_POSITIONS {angstrom}
Mn 0.00000000 0.00000000 -3.2425952799999997 0 0 0
Mn 3.05719500 2.16176250 -1.0808650899999996 0 0 0
Mn 3.05719500 6.48528750 -1.0808650899999996 0 0 0
Mn 0.00000000 4.32352500 -3.2425952799999997 0 0 0
Mn 0.00000000 4.32352500 1.05120156
Mn 3.05719500 6.41412228 3.19121380
Mn 3.05719500 2.23275478 3.19174350
Mn 0.00000000 0.00000000 1.21832380
In 0.00000000 6.48528750 -1.0808650899999996 0 0 0
In 3.05719500 0.00000000 -3.2425952799999997 0 0 0
In 0.00000000 2.16176250 -1.0808650899999996 0 0 0
In 3.05719500 4.32352500 -3.2425952799999997 0 0 0
In 0.00000000 2.27529827 3.64570154
In 3.05719500 4.32343853 1.02047861
In 0.00000000 6.37175173 3.64543669
In 3.05719500 0.00008647 1.00988449
Ni 1.52859750 0.00000000 -1.0808650899999996 0 0 0
Ni 4.58579250 4.32352500 -1.0808650899999996 0 0 0
Ni 4.58579250 0.00000000 -1.0808650899999996 0 0 0
Ni 1.52859750 4.32352500 -1.0808650899999996 0 0 0
Ni 4.58579250 6.48528750 -3.2425952799999997 0 0 0
Ni 1.52859750 2.16176250 -3.2425952799999997 0 0 0
Ni 1.52859750 6.48528750 -3.2425952799999997 0 0 0
Ni 4.58579250 2.16176250 -3.2425952799999997 0 0 0
Ni 1.50059359 4.32352500 3.07600274
Ni 4.33449107 8.64696353 3.24683293
Ni 4.61379641 4.32352500 3.07600274
Ni 1.77989893 8.64696353 3.24656807
Ni 4.66534071 2.17568425 1.15396452
Ni 1.44929386 6.47136575 1.15343482
Ni 1.44904929 2.17568425 1.15396452
Ni 4.66509614 6.47136575 1.15343482
C 0.00000000 0.00000000 3.33926662
