&CONTROL
calculation = 'relax'
prefix = 'scf'
pseudo_dir = '/vol0004/mdt0/data/hp150275/u10028/POT_KKJUS'
outdir = './data'
tprnfor = .true.
nstep = 50
disk_io = 'non'
/
&SYSTEM
ibrav = 0
ecutwfc = 50.0
ecutrho = 400
occupations = 'smearing'
smearing = 'mp'
degauss = 0.01
assume_isolated = 'esm'
esm_bc = 'bc1'
input_dft = 'BEEF-VDW'
nosym = .true.
nspin = 1
ntyp = 4
nat = 34
/
&ELECTRONS
electron_maxstep = 200
mixing_beta = 0.1
conv_thr = 1e-06
/
&IONS
ion_dynamics = 'bfgs'
upscale = 1.0
/
&CELL
/

K_POINTS {automatic}
8 6 2 0  0  0

ATOMIC_SPECIES
C 12.01 C.pbe-n-rrkjus_psl.1.0.0.UPF
Ca 40.07 Ca.pbe-spn-rrkjus_psl.1.0.0.UPF
In 114.8 In.pbe-dn-rrkjus_psl.1.0.0.UPF
O 15.99 O.pbe-n-rrkjus_psl.1.0.0.UPF

CELL_PARAMETERS {angstrom}
8.11767000 0.00000000 0.00000000
0.00000000 11.48010000 0.00000000
0.00000000 0.00000000 28.61010000

ATOMIC_POSITIONS {angstrom}
Ca 2.02941750 0.00000000 -1.4350826199999993 0 0 0
Ca 6.08825250 5.74005000 -1.4350826199999993 0 0 0
Ca 6.08825250 0.00000000 -1.4350826199999993 0 0 0
Ca 2.02941750 5.74005000 -1.4350826199999993 0 0 0
Ca 6.08825250 8.61007500 -4.30496175 0 0 0
Ca 2.02941750 2.87002500 -4.30496175 0 0 0
Ca 2.02941750 8.61007500 -4.30496175 0 0 0
Ca 6.08825250 2.87002500 -4.30496175 0 0 0
Ca 0.00000000 8.61007500 -1.4350826199999993 0 0 0
Ca 4.05883500 0.00000000 -4.30496175 0 0 0
Ca 0.00000000 2.87002500 -1.4350826199999993 0 0 0
Ca 4.05883500 5.74005000 -4.30496175 0 0 0
Ca 2.03599281 5.74016480 4.26605201
Ca 5.92947087 11.47998520 4.43284889
Ca 6.11203727 5.74016480 4.40423879
Ca 2.04159401 11.47987040 4.13101234
Ca 6.28047893 2.86991020 1.75751844
Ca 1.89985949 8.61064901 1.60931812
Ca 1.89994066 2.86945100 1.60903202
Ca 6.28072246 8.61018980 1.75751844
Ca 0.20797471 2.74558072 5.40130078
Ca 4.10315748 5.74005000 1.43164940
Ca 0.20829941 8.73463408 5.40244518
Ca 4.14374583 0.00000000 1.37099599
In 0.00000000 0.00000000 -4.30496175 0 0 0
In 4.05883500 2.87002500 -1.4350826199999993 0 0 0
In 4.05883500 8.61007500 -1.4350826199999993 0 0 0
In 0.00000000 5.74005000 -4.30496175 0 0 0
In 8.11417940 5.74005000 1.30519276
In 3.99162069 8.60410535 4.09210260
In 3.99186422 2.87599465 4.09181650
In 8.07480870 0.00000000 1.29117381
C 1.91447129 11.47998520 6.61265241
O 1.94231490 0.00000000 7.78023059
