&CONTROL
calculation = 'relax'
prefix = 'scf'
pseudo_dir = '/vol0004/mdt0/data/hp150275/u10028/POT_KKJUS'
outdir = './data'
tprnfor = .true.
nstep = 50
disk_io = 'non'
/
&SYSTEM
ibrav = 0
ecutwfc = 50.0
ecutrho = 400
occupations = 'smearing'
smearing = 'mp'
degauss = 0.01
assume_isolated = 'esm'
esm_bc = 'bc1'
input_dft = 'BEEF-VDW'
nosym = .true.
nspin = 1
ntyp = 4
nat = 33
/
&ELECTRONS
electron_maxstep = 200
mixing_beta = 0.1
conv_thr = 1e-06
/
&IONS
ion_dynamics = 'bfgs'
upscale = 1.0
/
&CELL
/

K_POINTS {automatic}
8 6 1 0 0 0

ATOMIC_SPECIES
C 12.01 C.pbe-n-rrkjus_psl.1.0.0.UPF
Rh 102.9 Rh.pbe-spn-rrkjus_psl.1.0.0.UPF
Sn 118.7 Sn.pbe-dn-rrkjus_psl.1.0.0.UPF
V 50.94 V.pbe-spnl-rrkjus_psl.1.0.0.UPF

CELL_PARAMETERS {angstrom}
6.32488000 0.00000000 0.00000000
0.00000000 8.94473000 0.00000000
0.00000000 0.00000000 26.70850000

ATOMIC_POSITIONS {angstrom}
V 0.00000000 0.00000000 -3.3543205200000017 0 0 0
V 3.16244000 2.23618250 -1.1180178100000013 0 0 0
V 3.16244000 6.70854750 -1.1180178100000013 0 0 0
V 0.00000000 4.47236500 -3.3543205200000017 0 0 0
V 0.00000000 4.47227555 1.27185877
V 3.16244000 7.03994975 3.36607226
V 3.16244000 1.90495915 3.36607226
V 0.00000000 0.00000000 1.03655688
Sn 0.00000000 6.70854750 -1.1180178100000013 0 0 0
Sn 3.16244000 0.00000000 -3.3543205200000017 0 0 0
Sn 0.00000000 2.23618250 -1.1180178100000013 0 0 0
Sn 3.16244000 4.47236500 -3.3543205200000017 0 0 0
Sn 0.00000000 2.32384085 3.60244248
Sn 3.16244000 4.47236500 1.09344599
Sn 0.00000000 6.62097859 3.60217539
Sn 3.16244000 8.94464055 1.03361895
Rh 1.58122000 0.00000000 -1.1180178100000013 0 0 0
Rh 4.74366000 4.47236500 -1.1180178100000013 0 0 0
Rh 4.74366000 0.00000000 -1.1180178100000013 0 0 0
Rh 1.58122000 4.47236500 -1.1180178100000013 0 0 0
Rh 4.74366000 6.70854750 -3.3543205200000017 0 0 0
Rh 1.58122000 2.23618250 -3.3543205200000017 0 0 0
Rh 1.58122000 6.70854750 -3.3543205200000017 0 0 0
Rh 4.74366000 2.23618250 -3.3543205200000017 0 0 0
Rh 1.58596366 4.47227555 3.20208206
Rh 4.96831974 0.00017889 3.07414835
Rh 4.73891634 4.47227555 3.20208206
Rh 1.35656026 0.00017889 3.07414835
Rh 4.68679933 2.26185388 1.12549619
Rh 1.63808067 6.68287612 1.12522911
Rh 1.63808067 2.26185388 1.12549619
Rh 4.68679933 6.68287612 1.12522911
C 3.16244000 0.00008945 3.99345492
