&CONTROL
calculation = 'relax'
prefix = 'scf'
pseudo_dir = '/vol0004/mdt0/data/hp150275/u10028/POT_HYBRID_KKJUS_GBRV'
outdir = './data'
tprnfor = .true.
nstep = 50
disk_io = 'non'
/
&SYSTEM
ibrav = 0
ecutwfc = 50.0
ecutrho = 400
occupations = 'smearing'
smearing = 'mp'
degauss = 0.01
assume_isolated = 'esm'
esm_bc = 'bc1'
input_dft = 'BEEF-VDW'
nosym = .true.
nspin = 2
ntyp = 2
nat = 32
starting_magnetization(1) = 0.05
starting_magnetization(2) = 0.05
/
&ELECTRONS
electron_maxstep = 200
mixing_beta = 0.1
conv_thr = 1e-06
/
&IONS
ion_dynamics = 'bfgs'
upscale = 1.0
/
&CELL
/

K_POINTS {automatic}
8 6 1 0 0 0

ATOMIC_SPECIES
Co 58.93 co_pbe_v1.2.uspp.F.UPF
Sc 44.95 Sc.pbe-spn-rrkjus_psl.1.0.0.UPF

CELL_PARAMETERS {angstrom}
6.24301000 0.00000000 0.00000000
0.00000000 8.82895000 0.00000000
0.00000000 0.00000000 26.62170000

ATOMIC_POSITIONS {angstrom}
Sc 1.56075250 2.20723750 -3.31094083 0 0 0
Sc 1.56075250 0.00000000 -1.1037356799999998 0 0 0
Sc 1.56087736 2.20723750 1.13088982
Sc 1.56106465 0.00008829 3.37989103
Sc 1.56075250 6.62171250 -3.31094083 0 0 0
Sc 1.56075250 4.41447500 -1.1037356799999998 0 0 0
Sc 1.56093979 6.62171250 1.13115603
Sc 1.56106465 4.41438671 3.37989103
Sc 4.68225750 2.20723750 -3.31094083 0 0 0
Sc 4.68225750 0.00000000 -1.1037356799999998 0 0 0
Sc 4.68213264 2.20723750 1.13088982
Sc 4.68194535 0.00008829 3.37989103
Sc 4.68225750 6.62171250 -3.31094083 0 0 0
Sc 4.68225750 4.41447500 -1.1037356799999998 0 0 0
Sc 4.68207021 6.62171250 1.13115603
Sc 4.68194535 4.41438671 3.37989103
Co 0.00000000 0.00000000 -3.31094083 0 0 0
Co 0.00000000 2.20723750 -1.1037356799999998 0 0 0
Co 0.00000000 8.82877342 1.16496559
Co 0.00000000 2.20723750 3.18422154
Co 0.00000000 4.41447500 -3.31094083 0 0 0
Co 0.00000000 6.62171250 -1.1037356799999998 0 0 0
Co 0.00000000 4.41465158 1.16496559
Co 0.00000000 6.62171250 3.18448775
Co 3.12150500 0.00000000 -3.31094083 0 0 0
Co 3.12150500 2.20723750 -1.1037356799999998 0 0 0
Co 3.12150500 8.82886171 1.16496559
Co 3.12150500 2.20723750 3.18395532
Co 3.12150500 4.41447500 -3.31094083 0 0 0
Co 3.12150500 6.62171250 -1.1037356799999998 0 0 0
Co 3.12150500 4.41456329 1.16469937
Co 3.12156743 6.62171250 3.18448775
