&CONTROL
calculation = 'relax'
prefix = 'scf'
pseudo_dir = '/vol0403/data/hp230205/u10028/POT_HYBRID_KKJUS_GBRV'
outdir = './data'
tprnfor = .true.
nstep = 50
disk_io = 'non'
/
&SYSTEM
ibrav = 0
ecutwfc = 50.0
ecutrho = 400
occupations = 'smearing'
smearing = 'mp'
degauss = 0.01
assume_isolated = 'esm'
esm_bc = 'bc1'
input_dft = 'BEEF-VDW'
nosym = .true.
nspin = 1
ntyp = 6
nat = 34
/
&ELECTRONS
electron_maxstep = 200
mixing_beta = 0.1
conv_thr = 1e-06
/
&IONS
ion_dynamics = 'bfgs'
upscale = 1.0
/
&CELL
/

K_POINTS {automatic}
6 6 1 0 0 0

ATOMIC_SPECIES
C 12.01 C.pbe-n-rrkjus_psl.1.0.0.UPF
Cu 63.54 Cu.pbe-dn-rrkjus_psl.1.0.0.UPF
Ge 72.64 Ge.pbe-dn-rrkjus_psl.1.0.0.UPF
Li 6.941 Li.pbe-sl-rrkjus_psl.1.0.0.UPF
O 15.99 O.pbe-n-rrkjus_psl.1.0.0.UPF
Pd 106.4 Pd.pbe-n-rrkjus_psl.1.0.0.UPF


CELL_PARAMETERS {angstrom}
6.04231000 0.00000000 0.00000000
0.00000000 8.54512000 0.00000000
0.00000000 0.00000000 26.40880000

ATOMIC_POSITIONS {angstrom}
Li 1.51057750 0.00000000 -1.068235959999999 0 0 0
Li 1.51057750 4.27256000 -1.068235959999999 0 0 0
Li 4.53173250 2.13628000 -3.204443789999999 0 0 0
Li 4.53173250 6.40884000 -3.204443789999999 0 0 0
Li 1.53323616 4.30255337 3.52953612
Li 1.53323616 8.51521208 3.52953612
Li 4.52599231 6.40884000 0.93249473
Li 4.61995023 2.13628000 1.02783050
Cu 0.00000000 0.00000000 -3.204443789999999 0 0 0
Cu 0.00000000 4.27256000 -3.204443789999999 0 0 0
Cu 3.02115500 6.40884000 -1.068235959999999 0 0 0
Cu 3.02115500 2.13628000 -1.068235959999999 0 0 0
Cu 0.02012089 4.25068449 1.22695285
Cu 0.02000005 0.02196096 1.22695285
Cu 3.22272646 2.13628000 2.99106069
Cu 3.16514325 6.40884000 3.00215238
Ge 4.53173250 0.00000000 -1.068235959999999 0 0 0
Ge 4.53173250 4.27256000 -1.068235959999999 0 0 0
Ge 1.51057750 2.13628000 -3.204443789999999 0 0 0
Ge 1.51057750 6.40884000 -3.204443789999999 0 0 0
Ge 4.48399825 4.29093201 3.29898730
Ge 4.48387740 8.52708980 3.29898730
Ge 1.51196723 6.40884000 1.05899288
Ge 1.46084929 2.13619455 1.10045470
Pd 0.00000000 2.13628000 -1.068235959999999 0 0 0
Pd 0.00000000 6.40884000 -1.068235959999999 0 0 0
Pd 3.02115500 4.27256000 -3.204443789999999 0 0 0
Pd 3.02115500 0.00000000 -3.204443789999999 0 0 0
Pd 5.91590487 6.40901090 3.01377226
Pd 6.01155464 2.13645090 3.46483456
Pd 2.96937240 0.02828435 1.13769110
Pd 2.96937240 4.24419020 1.13769110
C 0.86030410 2.13636545 5.20543857
O 1.11317477 2.13628000 6.33362250
