&CONTROL
calculation = 'relax'
prefix = 'scf'
pseudo_dir = '/vol0403/data/hp230205/u10028/POT_HYBRID_KKJUS_GBRV'
outdir = './data'
tprnfor = .true.
nstep = 50
disk_io = 'non'
/
&SYSTEM
ibrav = 0
ecutwfc = 50.0
ecutrho = 400
occupations = 'smearing'
smearing = 'mp'
degauss = 0.01
assume_isolated = 'esm'
esm_bc = 'bc1'
input_dft = 'BEEF-VDW'
nosym = .true.
nspin = 1
ntyp = 6
nat = 18
/
&ELECTRONS
electron_maxstep = 200
mixing_beta = 0.1
conv_thr = 1e-06
/
&IONS
ion_dynamics = 'bfgs'
upscale = 1.0
/
&CELL
/

K_POINTS {automatic}
9 9 2 0  0  0

ATOMIC_SPECIES
C 12.01 C.pbe-n-rrkjus_psl.1.0.0.UPF
Cu 63.54 Cu.pbe-dn-rrkjus_psl.1.0.0.UPF
In 114.8 In.pbe-dn-rrkjus_psl.1.0.0.UPF
O 15.99 O.pbe-n-rrkjus_psl.1.0.0.UPF
Pd 106.4 Pd.pbe-n-rrkjus_psl.1.0.0.UPF
Y 88.90 Y.pbe-spn-rrkjus_psl.1.0.0.UPF


CELL_PARAMETERS {angstrom}
6.76944000 0.00000000 0.00000000
0.00000000 6.76944000 0.00000000
0.00000000 0.00000000 25.07710000

ATOMIC_POSITIONS {angstrom}
Y 5.07708000 1.69236000 -0.8461013500000014 0 0 0
Y 5.07802772 5.07789233 2.62281389
Y 1.69337542 1.69337542 2.56864735
Y 1.69236000 5.07708000 -0.8461013500000014 0 0 0
In 1.69236000 1.69236000 -0.8461013500000014 0 0 0
In 1.69175075 5.07464300 2.58419516
In 5.07464300 1.69175075 2.58444593
In 5.07708000 5.07708000 -0.8461013500000014 0 0 0
Cu 0.00000000 0.00000000 -2.5385548300000025 0 0 0
Cu 6.72902644 3.42587820 0.93487429
Cu 3.42594589 6.72902644 0.93487429
Cu 3.38472000 3.38472000 -2.5385548300000025 0 0 0
Pd 0.00000000 3.38472000 -2.5385548300000025 0 0 0
Pd 6.72611558 6.72611558 0.92108188
Pd 3.42865367 3.42865367 0.92007880
Pd 3.38472000 0.00000000 -2.5385548300000025 0 0 0
C 1.70745585 1.70752355 5.07660812
O 1.71327757 1.71334526 6.22413622
