&CONTROL
calculation = 'relax'
prefix = 'scf'
pseudo_dir = '/vol0004/mdt0/data/hp150275/u10028/POT_KKJUS'
outdir = './data'
tprnfor = .true.
nstep = 50
disk_io = 'non'
/
&SYSTEM
ibrav = 0
ecutwfc = 50.0
ecutrho = 400
occupations = 'smearing'
smearing = 'mp'
degauss = 0.01
assume_isolated = 'esm'
esm_bc = 'bc1'
input_dft = 'BEEF-VDW'
nosym = .true.
nspin = 1
ntyp = 5
nat = 34
/
&ELECTRONS
electron_maxstep = 200
mixing_beta = 0.1
conv_thr = 1e-06
/
&IONS
ion_dynamics = 'bfgs'
upscale = 1.0
/
&CELL
/

K_POINTS {automatic}
9 6 2 0  0  0

ATOMIC_SPECIES
C 12.01 C.pbe-n-rrkjus_psl.1.0.0.UPF
Cu 63.54 Cu.pbe-dn-rrkjus_psl.1.0.0.UPF
Ga 69.72 Ga.pbe-dnl-rrkjus_psl.1.0.0.UPF
O 15.99 O.pbe-n-rrkjus_psl.1.0.0.UPF
Sc 44.95 Sc.pbe-spn-rrkjus_psl.1.0.0.UPF

CELL_PARAMETERS {angstrom}
6.23499000 0.00000000 0.00000000
0.00000000 8.81761000 0.00000000
0.00000000 0.00000000 26.61320000

ATOMIC_POSITIONS {angstrom}
Sc 0.00000000 0.00000000 -3.306690100000001 0 0 0
Sc 3.11749500 2.20440250 -1.1023187399999976 0 0 0
Sc 3.11749500 6.61320750 -1.1023187399999976 0 0 0
Sc 0.00000000 4.40880500 -3.306690100000001 0 0 0
Sc 0.00000000 4.41356651 1.07810073
Sc 3.11749500 6.61320750 3.47009515
Sc 3.11743265 2.20440250 3.45732081
Sc 0.00000000 8.81284849 1.07810073
Ga 0.00000000 6.61320750 -1.1023187399999976 0 0 0
Ga 3.11749500 0.00000000 -3.306690100000001 0 0 0
Ga 0.00000000 2.20440250 -1.1023187399999976 0 0 0
Ga 3.11749500 4.40880500 -3.306690100000001 0 0 0
Ga 6.23492765 2.20431432 3.12838166
Ga 3.11749500 4.42520575 1.09220573
Ga 0.00006235 6.61329568 3.23962484
Ga 3.11749500 8.80129742 1.09220573
Cu 1.55874750 0.00000000 -1.1023187399999976 0 0 0
Cu 4.67624250 4.40880500 -1.1023187399999976 0 0 0
Cu 4.67624250 0.00000000 -1.1023187399999976 0 0 0
Cu 1.55874750 4.40880500 -1.1023187399999976 0 0 0
Cu 4.67624250 6.61320750 -3.306690100000001 0 0 0
Cu 1.55874750 2.20440250 -3.306690100000001 0 0 0
Cu 1.55874750 6.61320750 -3.306690100000001 0 0 0
Cu 4.67624250 2.20440250 -3.306690100000001 0 0 0
Cu 1.56997048 4.44116563 3.24787493
Cu 4.66489482 8.78524937 3.24787493
Cu 4.66501952 4.44107745 3.24787493
Cu 1.57003283 8.78524937 3.24787493
Cu 4.56033404 2.20440250 1.16352910
Cu 1.64079997 6.61329568 1.17018240
Cu 1.67459361 2.20440250 1.16352910
Cu 4.59419003 6.61320750 1.17018240
C 0.00006235 2.20440250 5.14087184
O 0.00000000 2.20440250 6.30094123
