&CONTROL
calculation = 'relax'
prefix = 'scf'
pseudo_dir = '/vol0004/mdt0/data/hp150275/u10028/POT_KKJUS'
outdir = './data'
tprnfor = .true.
nstep = 50
disk_io = 'non'
/
&SYSTEM
ibrav = 0
ecutwfc = 50.0
ecutrho = 400
occupations = 'smearing'
smearing = 'mp'
degauss = 0.01
assume_isolated = 'esm'
esm_bc = 'bc1'
input_dft = 'BEEF-VDW'
nosym = .true.
nspin = 1
ntyp = 4
nat = 33
/
&ELECTRONS
electron_maxstep = 200
mixing_beta = 0.1
conv_thr = 1e-06
/
&IONS
ion_dynamics = 'bfgs'
upscale = 1.0
/
&CELL
/

K_POINTS {automatic}
9 6 2 0  0  0

ATOMIC_SPECIES
C 12.01 C.pbe-n-rrkjus_psl.1.0.0.UPF
Ga 69.72 Ga.pbe-dnl-rrkjus_psl.1.0.0.UPF
Ir 192.2 Ir.pbe-n-rrkjus_psl.0.2.3.UPF
Li 6.941 Li.pbe-sl-rrkjus_psl.1.0.0.UPF

CELL_PARAMETERS {angstrom}
6.11439000 0.00000000 0.00000000
0.00000000 8.64705000 0.00000000
0.00000000 0.00000000 26.48530000

ATOMIC_POSITIONS {angstrom}
Li 0.00000000 0.00000000 -3.2425952799999997 0 0 0
Li 3.05719500 2.16176250 -1.0808650899999996 0 0 0
Li 3.05719500 6.48528750 -1.0808650899999996 0 0 0
Li 0.00000000 4.32352500 -3.2425952799999997 0 0 0
Li 0.05692497 4.27700387 1.14390011
Li 3.05218120 6.48528750 3.56147829
Li 3.46257906 2.16176250 4.62989529
Li 0.05692497 0.04652113 1.14390011
Ga 1.52859750 0.00000000 -1.0808650899999996 0 0 0
Ga 4.58579250 4.32352500 -1.0808650899999996 0 0 0
Ga 4.58579250 0.00000000 -1.0808650899999996 0 0 0
Ga 1.52859750 4.32352500 -1.0808650899999996 0 0 0
Ga 4.58579250 6.48528750 -3.2425952799999997 0 0 0
Ga 1.52859750 2.16176250 -3.2425952799999997 0 0 0
Ga 1.52859750 6.48528750 -3.2425952799999997 0 0 0
Ga 4.58579250 2.16176250 -3.2425952799999997 0 0 0
Ga 1.62116936 4.26239036 3.51989637
Ga 4.65188906 8.60701416 3.31542985
Ga 4.65188906 4.36356084 3.31569471
Ga 1.62116936 0.06113464 3.51989637
Ga 4.48031927 2.16176250 1.07318436
Ga 1.55476709 6.48528750 1.10999892
Ga 1.61432125 2.16176250 1.16853144
Ga 4.60725401 6.48528750 1.13383569
Ir 0.00000000 6.48528750 -1.0808650899999996 0 0 0
Ir 3.05719500 0.00000000 -3.2425952799999997 0 0 0
Ir 0.00000000 2.16176250 -1.0808650899999996 0 0 0
Ir 3.05719500 4.32352500 -3.2425952799999997 0 0 0
Ir 5.93181431 2.16176250 3.21134262
Ir 3.06135279 4.38154671 0.98154522
Ir 0.07074349 6.48528750 3.14936702
Ir 3.06135279 8.58902829 0.98154522
C 1.43156213 2.16176250 4.19368240
