&CONTROL
calculation = 'relax'
prefix = 'scf'
pseudo_dir = '/vol0004/mdt0/data/hp150275/u10028/POT_KKJUS'
outdir = './data'
tprnfor = .true.
nstep = 50
disk_io = 'non'
/
&SYSTEM
ibrav = 0
ecutwfc = 50.0
ecutrho = 400
occupations = 'smearing'
smearing = 'mp'
degauss = 0.01
assume_isolated = 'esm'
esm_bc = 'bc1'
input_dft = 'BEEF-VDW'
nosym = .true.
nspin = 1
ntyp = 5
nat = 34
/
&ELECTRONS
electron_maxstep = 200
mixing_beta = 0.1
conv_thr = 1e-06
/
&IONS
ion_dynamics = 'bfgs'
upscale = 1.0
/
&CELL
/

K_POINTS {automatic}
9 6 2 0  0  0

ATOMIC_SPECIES
C 12.01 C.pbe-n-rrkjus_psl.1.0.0.UPF
In 114.8 In.pbe-dn-rrkjus_psl.1.0.0.UPF
Ni 58.69 Ni.pbe-spn-rrkjus_psl.1.0.0.UPF
O 15.99 O.pbe-n-rrkjus_psl.1.0.0.UPF
Sc 44.95 Sc.pbe-spn-rrkjus_psl.1.0.0.UPF

CELL_PARAMETERS {angstrom}
6.35421000 0.00000000 0.00000000
0.00000000 8.98620000 0.00000000
0.00000000 0.00000000 26.73970000

ATOMIC_POSITIONS {angstrom}
Sc 0.00000000 0.00000000 -3.36973699 0 0 0
Sc 3.17710500 2.24655000 -1.1233347999999985 0 0 0
Sc 3.17710500 6.73965000 -1.1233347999999985 0 0 0
Sc 0.00000000 4.49310000 -3.36973699 0 0 0
Sc 6.34715683 4.49265069 1.07760991
Sc 3.19203739 6.70271672 3.32588389
Sc 3.19324469 2.28366301 3.32588389
Sc 6.35173186 8.98458248 1.10087345
In 0.00000000 6.73965000 -1.1233347999999985 0 0 0
In 3.17710500 0.00000000 -3.36973699 0 0 0
In 0.00000000 2.24655000 -1.1233347999999985 0 0 0
In 3.17710500 4.49310000 -3.36973699 0 0 0
In 6.33673592 2.23810297 3.48070675
In 3.17151330 4.49193179 1.11477809
In 6.33692655 6.74962468 3.48097415
In 3.14558812 8.98485207 1.11477809
Ni 1.58855250 0.00000000 -1.1233347999999985 0 0 0
Ni 4.76565750 4.49310000 -1.1233347999999985 0 0 0
Ni 4.76565750 0.00000000 -1.1233347999999985 0 0 0
Ni 1.58855250 4.49310000 -1.1233347999999985 0 0 0
Ni 4.76565750 6.73965000 -3.36973699 0 0 0
Ni 1.58855250 2.24655000 -3.36973699 0 0 0
Ni 1.58855250 6.73965000 -3.36973699 0 0 0
Ni 4.76565750 2.24655000 -3.36973699 0 0 0
Ni 1.44202442 4.49363917 3.14539091
Ni 4.88950105 0.00080876 3.11089670
Ni 4.88931043 4.49372903 3.14940187
Ni 1.59096710 0.00161752 3.42107722
Ni 4.74678550 2.23531725 1.16905968
Ni 1.59713068 6.74827675 1.21986511
Ni 1.59484317 2.23477808 1.22093470
Ni 4.74360839 6.74755786 1.17039667
C 2.28351245 0.00134793 5.04417701
O 2.61075426 0.00000000 6.16724441
