&CONTROL
calculation = 'relax'
prefix = 'scf'
pseudo_dir = '/vol0403/data/hp230205/u10028/POT_HYBRID_KKJUS_GBRV'
outdir = './data'
tprnfor = .true.
nstep = 70
disk_io = 'non'
/
&SYSTEM
ibrav = 0
ecutwfc = 50.0
ecutrho = 400
occupations = 'smearing'
smearing = 'mp'
degauss = 0.01
assume_isolated = 'esm'
esm_bc = 'bc1'
input_dft = 'BEEF-VDW'
nosym = .true.
nspin = 1
ntyp = 5
nat = 33
/
&ELECTRONS
electron_maxstep = 200
mixing_beta = 0.1
conv_thr = 1e-06
/
&IONS
ion_dynamics = 'bfgs'
upscale = 1.0
/
&CELL
/

K_POINTS {automatic}
6 6 1 0 0 0

ATOMIC_SPECIES
C 12.01 C.pbe-n-rrkjus_psl.1.0.0.UPF
Ge 72.64 Ge.pbe-dn-rrkjus_psl.1.0.0.UPF
In 114.8 In.pbe-dn-rrkjus_psl.1.0.0.UPF
Pd 106.4 Pd.pbe-n-rrkjus_psl.1.0.0.UPF
Sc 44.95 Sc.pbe-spn-rrkjus_psl.1.0.0.UPF


CELL_PARAMETERS {angstrom}
8.38060000 0.00000000 0.00000000
-0.00000000 9.28368000 0.00000000
0.00000000 0.00000000 25.82430000

ATOMIC_POSITIONS {angstrom}
Sc 2.09515000 0.00000000 -0.9707354400000021 0 0 0
Sc 2.09515000 -0.00000000 2.91220631
Sc 2.09515000 4.64184000 -0.9707354400000021 0 0 0
Sc 2.09515000 4.64184000 2.91220631
Sc 6.28545000 0.00000000 -0.9707354400000021 0 0 0
Sc 6.28545000 -0.00000000 2.91220631
Sc 6.28545000 4.64184000 -0.9707354400000021 0 0 0
Sc 6.28545000 4.64184000 2.91220631
In 0.00000000 2.32092000 -0.9707354400000021 0 0 0
In 0.00000000 2.32092000 2.91220631
In 0.00000000 6.96276000 -0.9707354400000021 0 0 0
In 0.00000000 6.96276000 2.91220631
In 4.19030000 2.32092000 -0.9707354400000021 0 0 0
In 4.19030000 2.32092000 2.91220631
In 4.19030000 6.96276000 -0.9707354400000021 0 0 0
In 4.19030000 6.96276000 2.91220631
Ge 0.00000000 0.00000000 -2.912206310000002 0 0 0
Ge 0.00000000 0.00000000 0.97073544
Ge 0.00000000 4.64184000 -2.912206310000002 0 0 0
Ge 0.00000000 4.64184000 0.97073544
Ge 4.19030000 0.00000000 -2.912206310000002 0 0 0
Ge 4.19030000 -0.00000000 0.97073544
Ge 4.19030000 4.64184000 -2.912206310000002 0 0 0
Ge 4.19030000 4.64184000 0.97073544
Pd 2.09515000 2.32092000 -2.912206310000002 0 0 0
Pd 2.09515000 2.32092000 0.97073544
Pd 2.09515000 6.96276000 -2.912206310000002 0 0 0
Pd 2.09515000 6.96276000 0.97073544
Pd 6.28545000 2.32092000 -2.912206310000002 0 0 0
Pd 6.28545000 2.32092000 0.97073544
Pd 6.28545000 6.96276000 -2.912206310000002 0 0 0
Pd 6.28545000 6.96276000 0.97073544
C 0.00000000 0.00000000 3.71224312
