&CONTROL
calculation = 'relax'
prefix = 'scf'
pseudo_dir = '/vol0004/mdt0/data/hp150275/u10028/POT_HYBRID_KKJUS_GBRV'
outdir = './data'
tprnfor = .true.
nstep = 50
disk_io = 'non'
/
&SYSTEM
ibrav = 0
ecutwfc = 50.0
ecutrho = 400
occupations = 'smearing'
smearing = 'mp'
degauss = 0.01
assume_isolated = 'esm'
esm_bc = 'bc1'
input_dft = 'BEEF-VDW'
nosym = .true.
nspin = 2
ntyp = 3
nat = 32
starting_magnetization(1) = 0.0
starting_magnetization(2) = 0.001
starting_magnetization(3) = 0.0
/
&ELECTRONS
electron_maxstep = 300
mixing_beta = 0.1
conv_thr = 1e-06
/
&IONS
ion_dynamics = 'bfgs'
upscale = 1.0
/
&CELL
/

K_POINTS {automatic}
8 6 1 0 0 0

ATOMIC_SPECIES
Al 26.98 Al.pbe-nl-rrkjus_psl.1.0.0.UPF
Ni 58.69 ni_pbe_v1.4.uspp.F.UPF
Sc 44.95 Sc.pbe-spn-rrkjus_psl.1.0.0.UPF

CELL_PARAMETERS {angstrom}
6.07419000 0.00000000 0.00000000
0.00000000 8.59020000 0.00000000
0.00000000 0.00000000 26.44270000

ATOMIC_POSITIONS {angstrom}
Sc 0.00000000 0.00000000 -3.2212497099999986 0 0 0
Sc 3.03709500 2.14755000 -1.073838049999999 0 0 0
Sc 3.03709500 6.44265000 -1.073838049999999 0 0 0
Sc 0.00000000 4.29510000 -3.2212497099999986 0 0 0
Sc 0.00000000 4.29510000 1.01487083
Sc 3.03709500 6.44256410 3.34923238
Sc 3.03709500 2.14755000 3.34923238
Sc 0.00000000 0.00000000 1.01487083
Al 0.00000000 6.44265000 -1.073838049999999 0 0 0
Al 3.03709500 0.00000000 -3.2212497099999986 0 0 0
Al 0.00000000 2.14755000 -1.073838049999999 0 0 0
Al 3.03709500 4.29510000 -3.2212497099999986 0 0 0
Al 0.00000000 2.14755000 3.16519119
Al 3.03709500 4.29510000 1.15739698
Al 0.00000000 6.44265000 3.16519119
Al 3.03709500 0.00000000 1.15739698
Ni 1.51854750 0.00000000 -1.073838049999999 0 0 0
Ni 4.55564250 4.29510000 -1.073838049999999 0 0 0
Ni 4.55564250 0.00000000 -1.073838049999999 0 0 0
Ni 1.51854750 4.29510000 -1.073838049999999 0 0 0
Ni 4.55564250 6.44265000 -3.2212497099999986 0 0 0
Ni 1.51854750 2.14755000 -3.2212497099999986 0 0 0
Ni 1.51854750 6.44265000 -3.2212497099999986 0 0 0
Ni 4.55564250 2.14755000 -3.2212497099999986 0 0 0
Ni 1.37149136 4.29510000 3.07660814
Ni 4.70263790 0.00000000 3.07660814
Ni 4.70269864 4.29510000 3.07660814
Ni 1.37155210 0.00000000 3.07660814
Ni 4.48657896 2.14755000 1.12804558
Ni 1.58761104 6.44265000 1.12804558
Ni 1.58755030 2.14755000 1.12804558
Ni 4.48651822 6.44265000 1.12804558
