&CONTROL
calculation = 'relax'
prefix = 'scf'
pseudo_dir = '/vol0403/data/hp230205/u10028/POT_HYBRID_KKJUS_GBRV'
outdir = './data'
tprnfor = .true.
nstep = 70
disk_io = 'non'
/
&SYSTEM
ibrav = 0
ecutwfc = 50.0
ecutrho = 400
occupations = 'smearing'
smearing = 'mp'
degauss = 0.01
assume_isolated = 'esm'
esm_bc = 'bc1'
input_dft = 'BEEF-VDW'
nosym = .true.
nspin = 1
ntyp = 6
nat = 34
/
&ELECTRONS
electron_maxstep = 200
mixing_beta = 0.1
conv_thr = 1e-06
/
&IONS
ion_dynamics = 'bfgs'
upscale = 1.0
/
&CELL
/

K_POINTS {automatic}
6 6 1 0 0 0

ATOMIC_SPECIES
C 12.01 C.pbe-n-rrkjus_psl.1.0.0.UPF
Ge 72.64 Ge.pbe-dn-rrkjus_psl.1.0.0.UPF
O 15.99 O.pbe-n-rrkjus_psl.1.0.0.UPF
Pd 106.4 Pd.pbe-n-rrkjus_psl.1.0.0.UPF
Sn 118.7 Sn.pbe-dn-rrkjus_psl.1.0.0.UPF
Y 88.90 Y.pbe-spn-rrkjus_psl.1.0.0.UPF


CELL_PARAMETERS {angstrom}
8.11456000 0.00000000 0.00000000
-0.00000000 8.65102000 0.00000000
0.00000000 0.00000000 27.20230000

ATOMIC_POSITIONS {angstrom}
Y 2.02864000 2.16275500 -3.601040470000001 0 0 0
Y 2.02864000 2.16275500 1.20043750
Y 2.02864000 6.48826500 -3.601040470000001 0 0 0
Y 2.02864000 6.48826500 1.20043750
Y 6.08592000 2.16275500 -3.601040470000001 0 0 0
Y 6.08592000 2.16275500 1.20043750
Y 6.08592000 6.48826500 -3.601040470000001 0 0 0
Y 6.08592000 6.48826500 1.20043750
Sn 2.02864000 0.00000000 -1.2004374999999996 0 0 0
Sn 2.02864000 -0.00000000 3.60104047
Sn 2.02864000 4.32551000 -1.2004374999999996 0 0 0
Sn 2.02864000 4.32551000 3.60104047
Sn 6.08592000 0.00000000 -1.2004374999999996 0 0 0
Sn 6.08592000 -0.00000000 3.60104047
Sn 6.08592000 4.32551000 -1.2004374999999996 0 0 0
Sn 6.08592000 4.32551000 3.60104047
Ge 0.00000000 0.00000000 -3.601040470000001 0 0 0
Ge 0.00000000 0.00000000 1.20043750
Ge 0.00000000 4.32551000 -3.601040470000001 0 0 0
Ge 0.00000000 4.32551000 1.20043750
Ge 4.05728000 0.00000000 -3.601040470000001 0 0 0
Ge 4.05728000 -0.00000000 1.20043750
Ge 4.05728000 4.32551000 -3.601040470000001 0 0 0
Ge 4.05728000 4.32551000 1.20043750
Pd 0.00000000 2.16275500 -1.2004374999999996 0 0 0
Pd 0.00000000 2.16275500 3.60104047
Pd 0.00000000 6.48826500 -1.2004374999999996 0 0 0
Pd 0.00000000 6.48826500 3.60104047
Pd 4.05728000 2.16275500 -1.2004374999999996 0 0 0
Pd 4.05728000 2.16275500 3.60104047
Pd 4.05728000 6.48826500 -1.2004374999999996 0 0 0
Pd 4.05728000 6.48826500 3.60104047
C 2.02864000 -0.00000000 5.50112113
O 2.02864000 -0.00000000 6.65123437
