&CONTROL
calculation = 'relax'
prefix = 'scf'
pseudo_dir = '/vol0004/mdt0/data/hp150275/u10028/POT_HYBRID_KKJUS_GBRV'
outdir = './data'
tprnfor = .true.
nstep = 50
disk_io = 'non'
/
&SYSTEM
ibrav = 0
ecutwfc = 50.0
ecutrho = 400
occupations = 'smearing'
smearing = 'mp'
degauss = 0.01
assume_isolated = 'esm'
esm_bc = 'bc1'
input_dft = 'BEEF-VDW'
nosym = .true.
nspin = 2
ntyp = 4
nat = 33
starting_magnetization(1) = 0.0
starting_magnetization(2) = 0.0
starting_magnetization(3) = 0.1
starting_magnetization(4) = 0.0
/
&ELECTRONS
electron_maxstep = 300
mixing_beta = 0.1
conv_thr = 1e-06
/
&IONS
ion_dynamics = 'bfgs'
upscale = 1.0
/
&CELL
/

K_POINTS {automatic}
8 6 1 0 0 0

ATOMIC_SPECIES
Al 26.98 Al.pbe-nl-rrkjus_psl.1.0.0.UPF
C 12.01 C.pbe-n-rrkjus_psl.1.0.0.UPF
Fe 55.84 fe_pbe_v1.5.uspp.F.UPF
Ti 47.86 Ti.pbe-spn-rrkjus_psl.1.0.0.UPF

CELL_PARAMETERS {angstrom}
5.83886000 0.00000000 0.00000000
0.00000000 8.25739000 0.00000000
0.00000000 0.00000000 26.19300000

ATOMIC_POSITIONS {angstrom}
Ti 0.00000000 0.00000000 -3.096536460000003 0 0 0
Ti 2.91943000 2.06434750 -1.03226613 0 0 0
Ti 2.91943000 6.19304250 -1.03226613 0 0 0
Ti 0.00000000 4.12869500 -3.096536460000003 0 0 0
Ti 0.00467109 4.14000762 1.02414630
Ti 2.89525712 6.19304250 3.07165311
Ti 3.13943824 2.06434750 2.95142724
Ti 0.00467109 8.24607738 1.02414630
Al 0.00000000 6.19304250 -1.03226613 0 0 0
Al 2.91943000 0.00000000 -3.096536460000003 0 0 0
Al 0.00000000 2.06434750 -1.03226613 0 0 0
Al 2.91943000 4.12869500 -3.096536460000003 0 0 0
Al 5.64057231 2.06434750 3.04755555
Al 2.89905238 4.12985103 1.03174227
Al 0.07018310 6.19304250 3.17825862
Al 2.89905238 8.25623397 1.03174227
Fe 1.45971500 0.00000000 -1.03226613 0 0 0
Fe 4.37914500 4.12869500 -1.03226613 0 0 0
Fe 4.37914500 0.00000000 -1.03226613 0 0 0
Fe 1.45971500 4.12869500 -1.03226613 0 0 0
Fe 4.37914500 6.19304250 -3.096536460000003 0 0 0
Fe 1.45971500 2.06434750 -3.096536460000003 0 0 0
Fe 1.45971500 6.19304250 -3.096536460000003 0 0 0
Fe 4.37914500 2.06434750 -3.096536460000003 0 0 0
Fe 1.38888963 3.90632349 3.24924165
Fe 4.43817587 8.17275175 3.07139118
Fe 4.43817587 4.21333325 3.07139118
Fe 1.38888963 0.22237151 3.24924165
Fe 4.39286632 2.06434750 0.93980484
Fe 1.46934912 6.19304250 1.09355775
Fe 1.45907273 2.06434750 1.04929158
Fe 4.35479695 6.19304250 1.08753336
C 1.46099955 2.06434750 3.97400196
