&CONTROL
calculation = 'relax'
prefix = 'scf'
pseudo_dir = '/vol0004/mdt0/data/hp150275/u10028/POT_KKJUS'
outdir = './data'
tprnfor = .true.
nstep = 50
disk_io = 'non'
/
&SYSTEM
ibrav = 0
ecutwfc = 50.0
ecutrho = 400
occupations = 'smearing'
smearing = 'mp'
degauss = 0.01
assume_isolated = 'esm'
esm_bc = 'bc1'
input_dft = 'BEEF-VDW'
nosym = .true.
nspin = 1
ntyp = 4
nat = 34
/
&ELECTRONS
electron_maxstep = 200
mixing_beta = 0.1
conv_thr = 1e-06
/
&IONS
ion_dynamics = 'bfgs'
upscale = 1.0
/
&CELL
/

K_POINTS {automatic}
9 6 2 0  0  0

ATOMIC_SPECIES
C 12.01 C.pbe-n-rrkjus_psl.1.0.0.UPF
O 15.99 O.pbe-n-rrkjus_psl.1.0.0.UPF
Os 190.2 Os.pbe-spn-rrkjus_psl.1.0.0.UPF
V 50.94 V.pbe-spnl-rrkjus_psl.1.0.0.UPF

CELL_PARAMETERS {angstrom}
6.04788000 0.00000000 0.00000000
0.00000000 8.55299000 0.00000000
0.00000000 0.00000000 26.41470000

ATOMIC_POSITIONS {angstrom}
V 0.00000000 0.00000000 -3.2072728700000006 0 0 0
V 0.00000000 2.13824750 -1.0690029099999983 0 0 0
V 6.01618911 0.00008553 1.10492690
V 6.01189511 2.17057780 3.30579971
V 0.00000000 4.27649500 -3.2072728700000006 0 0 0
V 0.00000000 6.41474250 -1.0690029099999983 0 0 0
V 0.02521966 4.27640947 1.08749320
V 6.01195559 6.38241220 3.30579971
V 3.02394000 0.00000000 -3.2072728700000006 0 0 0
V 3.02394000 2.13824750 -1.0690029099999983 0 0 0
V 3.05605424 0.00008553 1.10545520
V 3.06173925 2.16989356 3.30579971
V 3.02394000 4.27649500 -3.2072728700000006 0 0 0
V 3.02394000 6.41474250 -1.0690029099999983 0 0 0
V 2.99914369 4.27640947 1.08749320
V 3.06173925 6.38301091 3.30606385
Os 1.51197000 2.13824750 -3.2072728700000006 0 0 0
Os 1.51197000 0.00000000 -1.0690029099999983 0 0 0
Os 1.51209096 2.06708662 1.16066192
Os 1.51184904 4.27632394 3.06569008
Os 1.51197000 6.41474250 -3.2072728700000006 0 0 0
Os 1.51197000 4.27649500 -1.0690029099999983 0 0 0
Os 1.51209096 6.48598891 1.16066192
Os 1.51094186 0.00000000 3.26089472
Os 4.53591000 2.13824750 -3.2072728700000006 0 0 0
Os 4.53591000 0.00000000 -1.0690029099999983 0 0 0
Os 4.53609144 2.16741320 1.13530381
Os 4.53591000 4.27640947 3.08735014
Os 4.53591000 6.41474250 -3.2072728700000006 0 0 0
Os 4.53591000 4.27649500 -1.0690029099999983 0 0 0
Os 4.53609144 6.38557680 1.13530381
Os 4.53554713 0.00008553 3.08312378
C 1.50658739 0.00000000 5.15324382
O 1.50580116 0.00008553 6.32050942
