&CONTROL
calculation = 'relax'
prefix = 'scf'
pseudo_dir = '/vol0004/mdt0/data/hp150275/u10028/POT_KKJUS'
outdir = './data'
tprnfor = .true.
nstep = 50
disk_io = 'non'
/
&SYSTEM
ibrav = 0
ecutwfc = 50.0
ecutrho = 400
occupations = 'smearing'
smearing = 'mp'
degauss = 0.01
assume_isolated = 'esm'
esm_bc = 'bc1'
input_dft = 'BEEF-VDW'
nosym = .true.
nspin = 1
ntyp = 4
nat = 18
/
&ELECTRONS
electron_maxstep = 200
mixing_beta = 0.1
conv_thr = 1e-06
/
&IONS
ion_dynamics = 'bfgs'
upscale = 1.0
/
&CELL
/

K_POINTS {automatic}
6 8 1 0 0 0

ATOMIC_SPECIES
C 12.01 C.pbe-n-rrkjus_psl.1.0.0.UPF
Ni 58.69 Ni.pbe-spn-rrkjus_psl.1.0.0.UPF
O 15.99 O.pbe-n-rrkjus_psl.1.0.0.UPF
Si 28.08 Si.pbe-nl-rrkjus_psl.1.0.0.UPF

CELL_PARAMETERS {angstrom}
7.08204000 0.00000000 0.00000000
0.00000000 5.00776000 0.00000000
0.00000000 0.00000000 23.75580000

ATOMIC_POSITIONS {angstrom}
Si 0.00000000 0.00000000 -1.877895989999999 0 0 0
Si 7.07021299 2.49987379 0.62073905
Si 3.54102000 0.00000000 -1.877895989999999 0 0 0
Si 3.55284701 2.49982371 0.62073905
Ni 0.00000000 2.50388000 -1.877895989999999 0 0 0
Ni 1.77051000 3.75582000 -0.6259653299999997 0 0 0
Ni 1.77051000 1.25194000 -0.6259653299999997 0 0 0
Ni 0.00063738 4.99889626 0.62762824
Ni 1.77051000 1.19510192 1.85817868
Ni 1.77065164 3.62792181 1.76956954
Ni 3.54102000 2.50388000 -1.877895989999999 0 0 0
Ni 5.31153000 3.75582000 -0.6259653299999997 0 0 0
Ni 5.31153000 1.25194000 -0.6259653299999997 0 0 0
Ni 3.54052426 4.99894634 0.62786579
Ni 5.31160082 1.30562319 1.77384559
Ni 5.31145918 3.73458710 1.77788407
C 1.77051000 1.24442836 3.61753322
O 1.77051000 1.25694776 4.77230266
