&CONTROL
calculation = 'relax'
prefix = 'scf'
pseudo_dir = '/vol0403/data/hp230205/u10028/POT_HYBRID_KKJUS_GBRV'
outdir = './data'
tprnfor = .true.
nstep = 70
disk_io = 'non'
/
&SYSTEM
ibrav = 0
ecutwfc = 50.0
ecutrho = 400
occupations = 'smearing'
smearing = 'mp'
degauss = 0.01
assume_isolated = 'esm'
esm_bc = 'bc1'
input_dft = 'BEEF-VDW'
nosym = .true.
nspin = 1
ntyp = 6
nat = 18
/
&ELECTRONS
electron_maxstep = 200
mixing_beta = 0.1
conv_thr = 1e-06
/
&IONS
ion_dynamics = 'bfgs'
upscale = 1.0
/
&CELL
/

K_POINTS {automatic}
6 6 1 0 0 0

ATOMIC_SPECIES
Au 196.9 Au.pbe-n-rrkjus_psl.1.0.0.UPF
C 12.01 C.pbe-n-rrkjus_psl.1.0.0.UPF
In 114.8 In.pbe-dn-rrkjus_psl.1.0.0.UPF
Li 6.941 Li.pbe-sl-rrkjus_psl.1.0.0.UPF
O 15.99 O.pbe-n-rrkjus_psl.1.0.0.UPF
Pd 106.4 Pd.pbe-n-rrkjus_psl.1.0.0.UPF


CELL_PARAMETERS {angstrom}
5.60636000 0.00000000 0.00000000
-0.00000000 8.89782000 0.00000000
0.00000000 0.00000000 24.18540000

ATOMIC_POSITIONS {angstrom}
Li 2.85425394 -0.00000000 2.06688428
Li 5.33775929 0.00000000 -0.6975069400000002 0 0 0
Li 2.82196131 4.44891000 2.03423399
Li 5.33775929 4.44891000 -0.6975069400000002 0 0 0
In 1.19807913 2.20826097 0.77610949
In 3.80184091 2.22445500 -2.0927626600000018 0 0 0
In 1.19807913 6.68955903 0.77635134
In 3.80184091 6.67336500 -2.0927626600000018 0 0 0
Pd 3.98062773 2.19900723 0.75289150
Pd 0.99866091 2.22445500 -2.0927626600000018 0 0 0
Pd 3.98062773 6.69881277 0.75289150
Pd 0.99866091 6.67336500 -2.0927626600000018 0 0 0
Au 5.53336519 0.00008898 2.00545337
Au 2.53457929 0.00000000 -0.6975069400000002 0 0 0
Au 5.48913101 4.44891000 1.87436850
Au 2.53457929 4.44891000 -0.6975069400000002 0 0 0
C 5.22092275 8.89773102 4.16956296
O 0.21365838 8.89773102 5.15294132
