&CONTROL
calculation = 'relax'
prefix = 'scf'
pseudo_dir = '/vol0403/data/hp230205/u10028/POT_HYBRID_KKJUS_GBRV'
outdir = './data'
tprnfor = .true.
nstep = 70
disk_io = 'non'
/
&SYSTEM
ibrav = 0
ecutwfc = 50.0
ecutrho = 400
occupations = 'smearing'
smearing = 'mp'
degauss = 0.01
assume_isolated = 'esm'
esm_bc = 'bc1'
input_dft = 'BEEF-VDW'
nosym = .true.
nspin = 1
ntyp = 4
nat = 16
/
&ELECTRONS
electron_maxstep = 200
mixing_beta = 0.1
conv_thr = 1e-06
/
&IONS
ion_dynamics = 'bfgs'
upscale = 1.0
/
&CELL
/

K_POINTS {automatic}
6 6 1 0 0 0

ATOMIC_SPECIES
Ge 72.64 Ge.pbe-dn-rrkjus_psl.1.0.0.UPF
In 114.8 In.pbe-dn-rrkjus_psl.1.0.0.UPF
Pd 106.4 Pd.pbe-n-rrkjus_psl.1.0.0.UPF
Y 88.90 Y.pbe-spn-rrkjus_psl.1.0.0.UPF


CELL_PARAMETERS {angstrom}
5.95203000 0.00000000 0.00000000
-0.00000000 9.45024000 0.00000000
0.00000000 0.00000000 24.43650000

ATOMIC_POSITIONS {angstrom}
Y 2.97601500 0.00000000 -2.218345469999999 0 0 0
Y 5.49562834 -0.00000000 0.81006997
Y 2.97601500 4.72512000 -2.218345469999999 0 0 0
Y 5.49580690 4.72502550 0.80982561
In 1.32295771 2.36256000 -0.7394484899999973 0 0 0
In 3.74251742 2.36246550 2.24986855
In 1.32295771 7.08768000 -0.7394484899999973 0 0 0
In 3.73680347 7.08739649 2.24595871
Ge 0.00000000 0.00000000 -2.218345469999999 0 0 0
Ge 2.52663673 0.00330758 1.07202925
Ge 0.00000000 4.72512000 -2.218345469999999 0 0 0
Ge 2.52687482 4.72143441 1.07129616
Pd 4.29897271 2.36256000 -0.7394484899999973 0 0 0
Pd 0.83018914 2.36246550 1.96713825
Pd 4.29897271 7.08768000 -0.7394484899999973 0 0 0
Pd 0.82804641 7.08758550 1.96664952
