&CONTROL
calculation = 'relax'
prefix = 'scf'
pseudo_dir = '/vol0004/mdt0/data/hp150275/u10028/POT_KKJUS'
outdir = './data'
tprnfor = .true.
nstep = 50
disk_io = 'non'
/
&SYSTEM
ibrav = 0
ecutwfc = 50.0
ecutrho = 400
occupations = 'smearing'
smearing = 'mp'
degauss = 0.01
assume_isolated = 'esm'
esm_bc = 'bc1'
input_dft = 'BEEF-VDW'
nosym = .true.
nspin = 1
ntyp = 3
nat = 32
/
&ELECTRONS
electron_maxstep = 200
mixing_beta = 0.1
conv_thr = 1e-06
/
&IONS
ion_dynamics = 'bfgs'
upscale = 1.0
/
&CELL
/

K_POINTS {automatic}
9 6 2 0  0  0

ATOMIC_SPECIES
Al 26.98 Al.pbe-nl-rrkjus_psl.1.0.0.UPF
Cu 63.54 Cu.pbe-dn-rrkjus_psl.1.0.0.UPF
Sc 44.95 Sc.pbe-spn-rrkjus_psl.1.0.0.UPF

CELL_PARAMETERS {angstrom}
6.23499000 0.00000000 0.00000000
0.00000000 8.81761000 0.00000000
0.00000000 0.00000000 26.61320000

ATOMIC_POSITIONS {angstrom}
Sc 0.00000000 0.00000000 -3.306690100000001 0 0 0
Sc 3.11749500 2.20440250 -1.1023187399999976 0 0 0
Sc 3.11749500 6.61320750 -1.1023187399999976 0 0 0
Sc 0.00000000 4.40880500 -3.306690100000001 0 0 0
Sc 0.00000000 4.40880500 1.04164065
Sc 3.11749500 6.61320750 3.44933685
Sc 3.11749500 2.20440250 3.44933685
Sc 0.00000000 0.00000000 1.04164065
Al 0.00000000 6.61320750 -1.1023187399999976 0 0 0
Al 3.11749500 0.00000000 -3.306690100000001 0 0 0
Al 0.00000000 2.20440250 -1.1023187399999976 0 0 0
Al 3.11749500 4.40880500 -3.306690100000001 0 0 0
Al 0.00000000 2.20440250 3.17255957
Al 3.11749500 4.40880500 1.14702892
Al 0.00000000 6.61320750 3.17255957
Al 3.11749500 0.00000000 1.14702892
Cu 1.55874750 0.00000000 -1.1023187399999976 0 0 0
Cu 4.67624250 4.40880500 -1.1023187399999976 0 0 0
Cu 4.67624250 0.00000000 -1.1023187399999976 0 0 0
Cu 1.55874750 4.40880500 -1.1023187399999976 0 0 0
Cu 4.67624250 6.61320750 -3.306690100000001 0 0 0
Cu 1.55874750 2.20440250 -3.306690100000001 0 0 0
Cu 1.55874750 6.61320750 -3.306690100000001 0 0 0
Cu 4.67624250 2.20440250 -3.306690100000001 0 0 0
Cu 1.44938578 4.40880500 3.25506049
Cu 4.78579127 0.00000000 3.25506049
Cu 4.78566657 4.40880500 3.25506049
Cu 1.44926108 0.00000000 3.25506049
Cu 4.58433875 2.20440250 1.14756118
Cu 1.65071360 6.61320750 1.14782732
Cu 1.65065125 2.20440250 1.14782732
Cu 4.58433875 6.61320750 1.14782732
