&CONTROL
calculation = 'relax'
prefix = 'scf'
pseudo_dir = '/vol0403/data/hp230205/u10028/POT_HYBRID_KKJUS_GBRV'
outdir = './data'
tprnfor = .true.
nstep = 50
disk_io = 'non'
/
&SYSTEM
ibrav = 0
ecutwfc = 50.0
ecutrho = 400
occupations = 'smearing'
smearing = 'mp'
degauss = 0.01
assume_isolated = 'esm'
esm_bc = 'bc1'
input_dft = 'BEEF-VDW'
nosym = .true.
nspin = 1
ntyp = 6
nat = 34
/
&ELECTRONS
electron_maxstep = 200
mixing_beta = 0.1
conv_thr = 1e-06
/
&IONS
ion_dynamics = 'bfgs'
upscale = 1.0
/
&CELL
/

K_POINTS {automatic}
6 6 1 0 0 0

ATOMIC_SPECIES
Ag 107.8 Ag.pbe-n-rrkjus_psl.1.0.0.UPF
C 12.01 C.pbe-n-rrkjus_psl.1.0.0.UPF
In 114.8 In.pbe-dn-rrkjus_psl.1.0.0.UPF
Li 6.941 Li.pbe-sl-rrkjus_psl.1.0.0.UPF
Mg 24.30 Mg.pbe-spnl-rrkjus_psl.1.0.0.UPF
O 15.99 O.pbe-n-rrkjus_psl.1.0.0.UPF


CELL_PARAMETERS {angstrom}
6.69019000 0.00000000 0.00000000
0.00000000 9.46136000 0.00000000
0.00000000 0.00000000 27.09600000

ATOMIC_POSITIONS {angstrom}
Li 0.00000000 2.36534000 -1.1827404000000001 0 0 0
Li 0.00000000 7.09602000 -1.1827404000000001 0 0 0
Li 3.34509500 4.73068000 -3.5479502399999987 0 0 0
Li 3.34509500 0.00000000 -3.5479502399999987 0 0 0
Li 0.07874354 7.09602000 4.38738432
Li 0.11627550 2.36534000 3.97687992
Li 3.31331660 9.43098903 1.26348648
Li 3.31324970 4.76105097 1.26240264
Mg 5.01764250 0.00000000 -1.1827404000000001 0 0 0
Mg 5.01764250 4.73068000 -1.1827404000000001 0 0 0
Mg 1.67254750 2.36534000 -3.5479502399999987 0 0 0
Mg 1.67254750 7.09602000 -3.5479502399999987 0 0 0
Mg 5.07772041 4.79605800 3.61650312
Mg 5.07738590 9.39579278 3.61758696
Mg 1.56771222 7.09602000 1.41820464
Mg 1.69562866 2.36534000 1.42552056
In 1.67254750 0.00000000 -1.1827404000000001 0 0 0
In 1.67254750 4.73068000 -1.1827404000000001 0 0 0
In 5.01764250 2.36534000 -3.5479502399999987 0 0 0
In 5.01764250 7.09602000 -3.5479502399999987 0 0 0
In 1.56516995 4.78224441 3.79696248
In 1.56510305 9.40979559 3.79750440
In 5.04814977 7.09611461 1.30954968
In 5.01697348 2.36524539 1.41684984
Ag 0.00000000 0.00000000 -3.5479502399999987 0 0 0
Ag 0.00000000 4.73068000 -3.5479502399999987 0 0 0
Ag 3.34509500 7.09602000 -1.1827404000000001 0 0 0
Ag 3.34509500 2.36534000 -1.1827404000000001 0 0 0
Ag 0.02896852 4.70305283 1.13965776
Ag 0.02896852 0.02762717 1.14019968
Ag 3.29317913 2.36543461 3.80671704
Ag 3.35238731 7.09592539 3.67557240
C 3.63023090 2.36543461 6.07654896
O 3.44156754 2.36505616 7.20699408
