&CONTROL
calculation = 'relax'
prefix = 'scf'
pseudo_dir = '/vol0004/mdt0/data/hp150275/u10028/POT_KKJUS'
outdir = './data'
tprnfor = .true.
nstep = 50
disk_io = 'non'
/
&SYSTEM
ibrav = 0
ecutwfc = 50.0
ecutrho = 400
occupations = 'smearing'
smearing = 'mp'
degauss = 0.01
assume_isolated = 'esm'
esm_bc = 'bc1'
input_dft = 'BEEF-VDW'
nosym = .true.
nspin = 1
ntyp = 5
nat = 34
/
&ELECTRONS
electron_maxstep = 200
mixing_beta = 0.1
conv_thr = 1e-06
/
&IONS
ion_dynamics = 'bfgs'
upscale = 1.0
/
&CELL
/

K_POINTS {automatic}
9 6 2 0  0  0

ATOMIC_SPECIES
Al 26.98 Al.pbe-nl-rrkjus_psl.1.0.0.UPF
C 12.01 C.pbe-n-rrkjus_psl.1.0.0.UPF
Li 6.941 Li.pbe-sl-rrkjus_psl.1.0.0.UPF
O 15.99 O.pbe-n-rrkjus_psl.1.0.0.UPF
Pt 195.0 Pt.pbe-n-rrkjus_psl.1.0.0.UPF

CELL_PARAMETERS {angstrom}
6.07419000 0.00000000 0.00000000
0.00000000 8.59020000 0.00000000
0.00000000 0.00000000 26.44270000

ATOMIC_POSITIONS {angstrom}
Li 0.00000000 6.44265000 -1.073838049999999 0 0 0
Li 3.03709500 0.00000000 -3.2212497099999986 0 0 0
Li 0.00000000 2.14755000 -1.073838049999999 0 0 0
Li 3.03709500 4.29510000 -3.2212497099999986 0 0 0
Li 1.51854750 0.00000000 -1.073838049999999 0 0 0
Li 1.51854750 4.29510000 -1.073838049999999 0 0 0
Li 4.55564250 6.44265000 -3.2212497099999986 0 0 0
Li 4.55564250 2.14755000 -3.2212497099999986 0 0 0
Li 5.97912893 2.17856062 3.35742962
Li 3.01188711 4.29510000 0.96780282
Li 5.97961486 6.41138167 3.35716519
Li 3.04444477 8.59011410 1.07013607
Li 1.54229758 4.29518590 3.26435131
Li 1.50153977 0.00008590 3.33706874
Li 4.61893556 2.12203711 1.00667359
Li 4.61893556 6.46790519 1.00667359
Al 0.00000000 0.00000000 -3.2212497099999986 0 0 0
Al 3.03709500 2.14755000 -1.073838049999999 0 0 0
Al 3.03709500 6.44265000 -1.073838049999999 0 0 0
Al 0.00000000 4.29510000 -3.2212497099999986 0 0 0
Al 0.00340155 4.29501410 1.06934279
Al 3.11654541 6.44608608 3.06788205
Al 3.11654541 2.14419982 3.06761763
Al 6.05050066 0.00000000 1.12936772
Pt 1.51854750 2.14755000 -3.2212497099999986 0 0 0
Pt 1.51854750 6.44265000 -3.2212497099999986 0 0 0
Pt 4.55564250 4.29510000 -1.073838049999999 0 0 0
Pt 4.55564250 0.00000000 -1.073838049999999 0 0 0
Pt 1.49103142 6.44453984 1.09710762
Pt 1.49097068 2.14566016 1.09684320
Pt 4.50650230 0.00000000 3.28312563
Pt 4.43610244 4.29518590 2.98934723
C 4.74643281 0.00000000 5.20127909
O 4.81409928 8.59002820 6.36105591
