&CONTROL
calculation = 'relax'
prefix = 'scf'
pseudo_dir = '/vol0004/mdt0/data/hp150275/u10028/POT_KKJUS'
outdir = './data'
tprnfor = .true.
nstep = 50
disk_io = 'non'
/
&SYSTEM
ibrav = 0
ecutwfc = 50.0
ecutrho = 400
occupations = 'smearing'
smearing = 'mp'
degauss = 0.01
assume_isolated = 'esm'
esm_bc = 'bc1'
input_dft = 'BEEF-VDW'
nosym = .true.
nspin = 1
ntyp = 4
nat = 33
/
&ELECTRONS
electron_maxstep = 200
mixing_beta = 0.1
conv_thr = 1e-06
/
&IONS
ion_dynamics = 'bfgs'
upscale = 1.0
/
&CELL
/

K_POINTS {automatic}
8 6 1 0 0 0

ATOMIC_SPECIES
C 12.01 C.pbe-n-rrkjus_psl.1.0.0.UPF
In 114.8 In.pbe-dn-rrkjus_psl.1.0.0.UPF
Li 6.941 Li.pbe-sl-rrkjus_psl.1.0.0.UPF
Pd 106.4 Pd.pbe-n-rrkjus_psl.1.0.0.UPF

CELL_PARAMETERS {angstrom}
6.70566000 0.00000000 0.00000000
0.00000000 9.48324000 0.00000000
0.00000000 0.00000000 27.11240000

ATOMIC_POSITIONS {angstrom}
Li 0.00000000 0.00000000 -3.5563335100000018 0 0 0
Li 3.35283000 2.37081000 -1.1853541300000003 0 0 0
Li 3.35283000 7.11243000 -1.1853541300000003 0 0 0
Li 0.00000000 4.74162000 -3.5563335100000018 0 0 0
Li 0.02541445 4.74133550 1.35860236
Li 3.11625432 7.11243000 3.77025034
Li 3.65572466 2.37081000 3.94973443
Li 0.02541445 0.00028450 1.35860236
In 1.67641500 0.00000000 -1.1853541300000003 0 0 0
In 5.02924500 4.74162000 -1.1853541300000003 0 0 0
In 5.02924500 0.00000000 -1.1853541300000003 0 0 0
In 1.67641500 4.74162000 -1.1853541300000003 0 0 0
In 5.02924500 7.11243000 -3.5563335100000018 0 0 0
In 1.67641500 2.37081000 -3.5563335100000018 0 0 0
In 1.67641500 7.11243000 -3.5563335100000018 0 0 0
In 5.02924500 2.37081000 -3.5563335100000018 0 0 0
In 1.71812421 4.65295171 4.00477260
In 5.07698930 9.34952632 3.90391448
In 5.07698930 4.87533368 3.90391448
In 1.71812421 0.08866829 4.00477260
In 4.93087297 2.37081000 1.14061867
In 1.72831681 7.11243000 1.14712564
In 1.78504669 2.37081000 1.29136361
In 4.99041923 7.11243000 1.28106090
Pd 0.00000000 7.11243000 -1.1853541300000003 0 0 0
Pd 3.35283000 0.00000000 -3.5563335100000018 0 0 0
Pd 0.00000000 2.37081000 -1.1853541300000003 0 0 0
Pd 3.35283000 4.74162000 -3.5563335100000018 0 0 0
Pd 6.33034421 2.37081000 3.43188759
Pd 3.35759102 4.78173411 1.10293243
Pd 0.12264652 7.11243000 3.37630717
Pd 3.35759102 9.44312589 1.10293243
C 1.64798300 2.37081000 3.65420927
