&CONTROL
calculation = 'relax'
prefix = 'scf'
pseudo_dir = '/vol0004/mdt0/data/hp150275/u10028/POT_HYBRID_KKJUS_GBRV'
outdir = './data'
tprnfor = .true.
nstep = 50
disk_io = 'non'
/
&SYSTEM
ibrav = 0
ecutwfc = 50.0
ecutrho = 400
occupations = 'smearing'
smearing = 'mp'
degauss = 0.01
assume_isolated = 'esm'
esm_bc = 'bc1'
input_dft = 'BEEF-VDW'
nosym = .true.
nspin = 2
ntyp = 4
nat = 33
starting_magnetization(1) = 0.0
starting_magnetization(2) = 0.1
starting_magnetization(3) = 0.1
starting_magnetization(4) = 0.0
/
&ELECTRONS
electron_maxstep = 300
mixing_beta = 0.1
conv_thr = 1e-06
/
&IONS
ion_dynamics = 'bfgs'
upscale = 1.0
/
&CELL
/

K_POINTS {automatic}
8 6 1 0 0 0

ATOMIC_SPECIES
C 12.01 C.pbe-n-rrkjus_psl.1.0.0.UPF
Co 58.93 co_pbe_v1.2.uspp.F.UPF
Fe 55.84 fe_pbe_v1.5.uspp.F.UPF
In 114.8 In.pbe-dn-rrkjus_psl.1.0.0.UPF

CELL_PARAMETERS {angstrom}
6.01864000 0.00000000 0.00000000
0.00000000 8.51164000 0.00000000
0.00000000 0.00000000 26.38370000

ATOMIC_POSITIONS {angstrom}
In 0.00000000 0.00000000 -3.1919000299999993 0 0 0
In 3.00932000 2.12791000 -1.0640546200000003 0 0 0
In 3.00932000 6.38373000 -1.0640546200000003 0 0 0
In 0.00000000 4.25582000 -3.1919000299999993 0 0 0
In 0.00770386 4.21726227 1.10257482
In 2.87636824 6.38398535 3.63356316
In 3.36640591 2.12765465 4.49762934
In 0.00770386 0.03855773 1.10283866
Fe 0.00000000 6.38373000 -1.0640546200000003 0 0 0
Fe 3.00932000 0.00000000 -3.1919000299999993 0 0 0
Fe 0.00000000 2.12791000 -1.0640546200000003 0 0 0
Fe 3.00932000 4.25582000 -3.1919000299999993 0 0 0
Fe 5.66540602 2.12739930 3.13886879
Fe 3.02755648 4.29956983 1.05482033
Fe 5.92529089 6.38373000 3.07000733
Fe 3.02761667 8.46797529 1.05508416
Co 1.50466000 0.00000000 -1.0640546200000003 0 0 0
Co 4.51398000 4.25582000 -1.0640546200000003 0 0 0
Co 4.51398000 0.00000000 -1.0640546200000003 0 0 0
Co 1.50466000 4.25582000 -1.0640546200000003 0 0 0
Co 4.51398000 6.38373000 -3.1919000299999993 0 0 0
Co 1.50466000 2.12791000 -3.1919000299999993 0 0 0
Co 1.50466000 6.38373000 -3.1919000299999993 0 0 0
Co 4.51398000 2.12791000 -3.1919000299999993 0 0 0
Co 1.75545673 3.97595728 3.11354044
Co 4.35562958 0.03362098 3.11565113
Co 4.35599070 4.22245437 3.11565113
Co 1.75599841 0.28003296 3.11327660
Co 4.35815741 2.12748442 1.21866310
Co 1.51477132 6.38415558 1.17064477
Co 1.73511373 2.12748442 1.27169434
Co 4.46149746 6.38415558 1.18304511
C 1.49388663 2.12799512 3.15364366
