&CONTROL
calculation = 'relax'
prefix = 'scf'
pseudo_dir = '/vol0403/data/hp230205/u10028/POT_HYBRID_KKJUS_GBRV'
outdir = './data'
tprnfor = .true.
nstep = 50
disk_io = 'non'
/
&SYSTEM
ibrav = 0
ecutwfc = 50.0
ecutrho = 400
occupations = 'smearing'
smearing = 'mp'
degauss = 0.01
assume_isolated = 'esm'
esm_bc = 'bc1'
input_dft = 'BEEF-VDW'
nosym = .true.
nspin = 1
ntyp = 5
nat = 33
/
&ELECTRONS
electron_maxstep = 200
mixing_beta = 0.1
conv_thr = 1e-06
/
&IONS
ion_dynamics = 'bfgs'
upscale = 1.0
/
&CELL
/

K_POINTS {automatic}
6 6 1 0 0 0

ATOMIC_SPECIES
C 12.01 C.pbe-n-rrkjus_psl.1.0.0.UPF
Ga 69.72 Ga.pbe-dnl-rrkjus_psl.1.0.0.UPF
In 114.8 In.pbe-dn-rrkjus_psl.1.0.0.UPF
Li 6.941 Li.pbe-sl-rrkjus_psl.1.0.0.UPF
Sc 44.95 Sc.pbe-spn-rrkjus_psl.1.0.0.UPF


CELL_PARAMETERS {angstrom}
8.23116000 0.00000000 0.00000000
0.00000000 8.37318000 0.00000000
0.00000000 0.00000000 26.65040000

ATOMIC_POSITIONS {angstrom}
Li 0.00000000 2.09329500 -1.108390140000001 0 0 0
Li 8.22169417 1.78331988 3.90135206
Li 0.00000000 6.27988500 -1.108390140000001 0 0 0
Li 8.22399889 6.58860415 3.90001954
Li 4.11558000 2.09329500 -1.108390140000001 0 0 0
Li 4.10825427 2.32640433 3.57675018
Li 4.11558000 6.27988500 -1.108390140000001 0 0 0
Li 4.10685497 6.04694313 3.57675018
Sc 2.05779000 2.09329500 -3.325170410000002 0 0 0
Sc 1.96782342 2.07127354 1.24963726
Sc 2.05779000 6.27988500 -3.325170410000002 0 0 0
Sc 1.96403709 6.30332990 1.25150278
Sc 6.17337000 2.09329500 -3.325170410000002 0 0 0
Sc 6.26835759 2.05662047 1.26189644
Sc 6.17337000 6.27988500 -3.325170410000002 0 0 0
Sc 6.27165005 6.31731311 1.26269595
In 2.05779000 0.00000000 -1.108390140000001 0 0 0
In 2.22150777 0.00184210 3.58687734
In 2.05779000 4.18659000 -1.108390140000001 0 0 0
In 1.58392212 4.18499910 3.50479410
In 6.17337000 0.00000000 -1.108390140000001 0 0 0
In 5.95960677 8.37133790 3.61725879
In 6.17337000 4.18659000 -1.108390140000001 0 0 0
In 6.62904702 4.18684120 3.50346158
Ga 0.00000000 0.00000000 -3.325170410000002 0 0 0
Ga 0.00395096 0.00175837 0.74381266
Ga 0.00000000 4.18659000 -3.325170410000002 0 0 0
Ga 8.22605668 4.18608761 0.95008676
Ga 4.11558000 0.00000000 -3.325170410000002 0 0 0
Ga 4.10669035 8.37225895 1.18301126
Ga 4.11558000 4.18659000 -3.325170410000002 0 0 0
Ga 4.12043638 4.18792971 1.26882554
C 8.18638249 8.37209149 2.74339218
