&CONTROL
calculation = 'relax'
prefix = 'scf'
pseudo_dir = '/vol0403/data/hp230205/u10028/POT_HYBRID_KKJUS_GBRV'
outdir = './data'
tprnfor = .true.
nstep = 50
disk_io = 'non'
/
&SYSTEM
ibrav = 0
ecutwfc = 50.0
ecutrho = 400
occupations = 'smearing'
smearing = 'mp'
degauss = 0.01
assume_isolated = 'esm'
esm_bc = 'bc1'
input_dft = 'BEEF-VDW'
nosym = .true.
nspin = 1
ntyp = 6
nat = 34
/
&ELECTRONS
electron_maxstep = 200
mixing_beta = 0.1
conv_thr = 1e-06
/
&IONS
ion_dynamics = 'bfgs'
upscale = 1.0
/
&CELL
/

K_POINTS {automatic}
9 6 2 0  0  0

ATOMIC_SPECIES
C 12.01 C.pbe-n-rrkjus_psl.1.0.0.UPF
Cu 63.54 Cu.pbe-dn-rrkjus_psl.1.0.0.UPF
Ga 69.72 Ga.pbe-dnl-rrkjus_psl.1.0.0.UPF
Li 6.941 Li.pbe-sl-rrkjus_psl.1.0.0.UPF
O 15.99 O.pbe-n-rrkjus_psl.1.0.0.UPF
Pd 106.4 Pd.pbe-n-rrkjus_psl.1.0.0.UPF


CELL_PARAMETERS {angstrom}
6.02537000 0.00000000 0.00000000
0.00000000 8.52116000 0.00000000
0.00000000 0.00000000 26.39090000

ATOMIC_POSITIONS {angstrom}
Li 1.50634250 0.00000000 -1.0651367199999981 0 0 0
Li 1.50634250 4.26058000 -1.0651367199999981 0 0 0
Li 4.51902750 2.13029000 -3.195410169999999 0 0 0
Li 4.51902750 6.39087000 -3.195410169999999 0 0 0
Li 1.51158457 4.28869983 3.44480418
Li 1.51158457 8.49304017 3.44480418
Li 4.50589219 6.39087000 0.95403103
Li 4.58771672 2.13029000 1.02871728
Ga 4.51902750 0.00000000 -1.0651367199999981 0 0 0
Ga 4.51902750 4.26058000 -1.0651367199999981 0 0 0
Ga 1.50634250 2.13029000 -3.195410169999999 0 0 0
Ga 1.50634250 6.39087000 -3.195410169999999 0 0 0
Ga 4.47907930 4.26952722 3.22259280
Ga 4.47907930 8.51221278 3.22259280
Ga 1.50278753 6.39087000 1.07358181
Ga 1.43584567 2.13029000 1.10947344
Cu 0.00000000 0.00000000 -3.195410169999999 0 0 0
Cu 0.00000000 4.26058000 -3.195410169999999 0 0 0
Cu 3.01268500 6.39087000 -1.0651367199999981 0 0 0
Cu 3.01268500 2.13029000 -1.0651367199999981 0 0 0
Cu 0.01849789 4.25350744 1.11000125
Cu 0.01849789 0.00707256 1.11000125
Cu 3.15608881 2.13029000 2.97768525
Cu 3.11915329 6.39087000 3.01753551
Pd 0.00000000 2.13029000 -1.0651367199999981 0 0 0
Pd 0.00000000 6.39087000 -1.0651367199999981 0 0 0
Pd 3.01268500 4.26058000 -3.195410169999999 0 0 0
Pd 3.01268500 0.00000000 -3.195410169999999 0 0 0
Pd 5.89281186 6.39087000 3.03495350
Pd 5.98307190 2.13029000 3.36193675
Pd 2.96936259 0.02513742 1.05589991
Pd 2.96936259 4.23544258 1.05589991
C 0.62651797 2.13029000 5.20534112
O 0.84644398 2.13029000 6.33909418
