&CONTROL
calculation = 'relax'
prefix = 'scf'
pseudo_dir = '/vol0004/mdt0/data/hp150275/u10028/POT_KKJUS'
outdir = './data'
tprnfor = .true.
nstep = 50
disk_io = 'non'
/
&SYSTEM
ibrav = 0
ecutwfc = 50.0
ecutrho = 400
occupations = 'smearing'
smearing = 'mp'
degauss = 0.01
assume_isolated = 'esm'
esm_bc = 'bc1'
input_dft = 'BEEF-VDW'
nosym = .true.
nspin = 1
ntyp = 4
nat = 34
/
&ELECTRONS
electron_maxstep = 200
mixing_beta = 0.1
conv_thr = 1e-06
/
&IONS
ion_dynamics = 'bfgs'
upscale = 1.0
/
&CELL
/

K_POINTS {automatic}
9 6 2 0  0  0

ATOMIC_SPECIES
C 12.01 C.pbe-n-rrkjus_psl.1.0.0.UPF
O 15.99 O.pbe-n-rrkjus_psl.1.0.0.UPF
Ru 101.0 Ru.pbe-spn-rrkjus_psl.1.0.0.UPF
Ti 47.86 Ti.pbe-spn-rrkjus_psl.1.0.0.UPF

CELL_PARAMETERS {angstrom}
6.18271000 0.00000000 0.00000000
0.00000000 8.74368000 0.00000000
0.00000000 0.00000000 26.55780000

ATOMIC_POSITIONS {angstrom}
Ti 0.00000000 0.00000000 -3.2788259900000014 0 0 0
Ti 0.00000000 2.18592000 -1.0928534700000014 0 0 0
Ti 6.15872109 0.00000000 1.10719468
Ti 6.17053006 2.18889285 3.30989861
Ti 0.00000000 4.37184000 -3.2788259900000014 0 0 0
Ti 0.00000000 6.55776000 -1.0928534700000014 0 0 0
Ti 0.00537896 4.37184000 1.13322133
Ti 6.17053006 6.55478715 3.30989861
Ti 3.09135500 0.00000000 -3.2788259900000014 0 0 0
Ti 3.09135500 2.18592000 -1.0928534700000014 0 0 0
Ti 3.11670411 0.00000000 1.10746026
Ti 3.10508062 2.18836823 3.30989861
Ti 3.09135500 4.37184000 -3.2788259900000014 0 0 0
Ti 3.09135500 6.55776000 -1.0928534700000014 0 0 0
Ti 3.08616152 4.37184000 1.13322133
Ti 3.10508062 6.55531177 3.30989861
Ru 1.54567750 2.18592000 -3.2788259900000014 0 0 0
Ru 1.54567750 0.00000000 -1.0928534700000014 0 0 0
Ru 1.54611029 2.14499958 1.10746026
Ru 1.54456461 0.00000000 3.30458705
Ru 1.54567750 6.55776000 -3.2788259900000014 0 0 0
Ru 1.54567750 4.37184000 -1.0928534700000014 0 0 0
Ru 1.54611029 6.59868042 1.10746026
Ru 1.54604846 4.37184000 3.13567945
Ru 4.63703250 2.18592000 -3.2788259900000014 0 0 0
Ru 4.63703250 0.00000000 -1.0928534700000014 0 0 0
Ru 4.63740346 2.19457624 1.10321101
Ru 4.63690885 0.00000000 3.12824326
Ru 4.63703250 6.55776000 -3.2788259900000014 0 0 0
Ru 4.63703250 4.37184000 -1.0928534700000014 0 0 0
Ru 4.63734164 6.54910376 1.10321101
Ru 4.63734164 4.37184000 3.15559780
C 1.53856738 0.00000000 5.19311221
O 1.53930931 0.00000000 6.36112426
