&CONTROL
calculation = 'relax'
prefix = 'scf'
pseudo_dir = '/vol0004/mdt0/data/hp150275/u10028/POT_KKJUS'
outdir = './data'
tprnfor = .true.
nstep = 50
disk_io = 'non'
/
&SYSTEM
ibrav = 0
ecutwfc = 50.0
ecutrho = 400
occupations = 'smearing'
smearing = 'mp'
degauss = 0.01
assume_isolated = 'esm'
esm_bc = 'bc1'
input_dft = 'BEEF-VDW'
nosym = .true.
nspin = 1
ntyp = 2
nat = 32
/
&ELECTRONS
electron_maxstep = 200
mixing_beta = 0.1
conv_thr = 1e-06
/
&IONS
ion_dynamics = 'bfgs'
upscale = 1.0
/
&CELL
/

K_POINTS {automatic}
8 8 1 0 0 0

ATOMIC_SPECIES
Pd 106.4 Pd.pbe-n-rrkjus_psl.1.0.0.UPF
Sc 44.95 Sc.pbe-spn-rrkjus_psl.1.0.0.UPF

CELL_PARAMETERS {angstrom}
8.08515000 0.00000000 0.00000000
-0.00000000 8.08515000 0.00000000
0.00000000 0.00000000 26.06390000

ATOMIC_POSITIONS {angstrom}
Sc 0.00000000 0.00000000 -3.0320134900000006 0 0 0
Sc 0.00000000 0.00000000 1.01075804
Sc 0.00000000 4.04257500 -3.0320134900000006 0 0 0
Sc 0.00000000 4.04257500 1.01075804
Sc 4.04257500 0.00000000 -3.0320134900000006 0 0 0
Sc 4.04257500 -0.00000000 1.01075804
Sc 4.04257500 4.04257500 -3.0320134900000006 0 0 0
Sc 4.04257500 4.04257500 1.01075804
Pd 0.00000000 2.02128750 -1.010758039999999 0 0 0
Pd 2.02128750 0.00000000 -1.010758039999999 0 0 0
Pd 2.02128750 2.02128750 -3.0320134900000006 0 0 0
Pd 0.00000000 2.02128750 3.03201349
Pd 2.02128750 -0.00000000 3.03201349
Pd 2.02128750 2.02128750 1.01075804
Pd 0.00000000 6.06386250 -1.010758039999999 0 0 0
Pd 2.02128750 4.04257500 -1.010758039999999 0 0 0
Pd 2.02128750 6.06386250 -3.0320134900000006 0 0 0
Pd 0.00000000 6.06386250 3.03201349
Pd 2.02128750 4.04257500 3.03201349
Pd 2.02128750 6.06386250 1.01075804
Pd 4.04257500 2.02128750 -1.010758039999999 0 0 0
Pd 6.06386250 0.00000000 -1.010758039999999 0 0 0
Pd 6.06386250 2.02128750 -3.0320134900000006 0 0 0
Pd 4.04257500 2.02128750 3.03201349
Pd 6.06386250 -0.00000000 3.03201349
Pd 6.06386250 2.02128750 1.01075804
Pd 4.04257500 6.06386250 -1.010758039999999 0 0 0
Pd 6.06386250 4.04257500 -1.010758039999999 0 0 0
Pd 6.06386250 6.06386250 -3.0320134900000006 0 0 0
Pd 4.04257500 6.06386250 3.03201349
Pd 6.06386250 4.04257500 3.03201349
Pd 6.06386250 6.06386250 1.01075804
