&CONTROL
calculation = 'relax'
prefix = 'scf'
pseudo_dir = '/vol0004/mdt0/data/hp150275/u10028/POT_KKJUS'
outdir = './data'
tprnfor = .true.
nstep = 50
disk_io = 'non'
/
&SYSTEM
ibrav = 0
ecutwfc = 50.0
ecutrho = 400
occupations = 'smearing'
smearing = 'mp'
degauss = 0.01
assume_isolated = 'esm'
esm_bc = 'bc1'
input_dft = 'BEEF-VDW'
nosym = .true.
nspin = 1
ntyp = 4
nat = 18
/
&ELECTRONS
electron_maxstep = 200
mixing_beta = 0.1
conv_thr = 1e-06
/
&IONS
ion_dynamics = 'bfgs'
upscale = 1.0
/
&CELL
/

K_POINTS {automatic}
8 11 2 0  0  0

ATOMIC_SPECIES
Ag 107.8 Ag.pbe-n-rrkjus_psl.1.0.0.UPF
C 12.01 C.pbe-n-rrkjus_psl.1.0.0.UPF
O 15.99 O.pbe-n-rrkjus_psl.1.0.0.UPF
Pt 195.0 Pt.pbe-n-rrkjus_psl.1.0.0.UPF

CELL_PARAMETERS {angstrom}
8.32195000 0.00000000 0.00000000
0.00000000 5.88450000 0.00000000
0.00000000 0.00000000 24.41340000

ATOMIC_POSITIONS {angstrom}
Ag 0.00000000 2.94225000 -2.2067272299999985 0 0 0
Ag 2.08048750 4.41337500 -0.735575739999998 0 0 0
Ag 2.08048750 1.47112500 -0.735575739999998 0 0 0
Ag 0.00016644 0.00453107 0.72263664
Ag 2.08048750 1.53467760 2.21551605
Ag 2.08048750 4.39548612 2.12079206
Ag 4.16097500 2.94225000 -2.2067272299999985 0 0 0
Ag 6.24146250 4.41337500 -0.735575739999998 0 0 0
Ag 6.24146250 1.47112500 -0.735575739999998 0 0 0
Ag 4.16080856 0.00453107 0.72263664
Ag 6.24146250 1.50637316 2.13617250
Ag 6.24146250 4.38036296 2.13226636
Pt 0.00000000 0.00000000 -2.2067272299999985 0 0 0
Pt 0.01106819 2.94048465 0.73386680
Pt 4.16097500 0.00000000 -2.2067272299999985 0 0 0
Pt 4.14990681 2.94054350 0.73386680
C 2.08048750 1.28558672 4.41565166
O 2.08048750 1.55080113 5.52572896
