&CONTROL
calculation = 'relax'
prefix = 'scf'
pseudo_dir = '/vol0004/mdt0/data/hp150275/u10028/POT_HYBRID_KKJUS_GBRV'
outdir = './data'
tprnfor = .true.
nstep = 50
disk_io = 'non'
/
&SYSTEM
ibrav = 0
ecutwfc = 50.0
ecutrho = 400
occupations = 'smearing'
smearing = 'mp'
degauss = 0.01
assume_isolated = 'esm'
esm_bc = 'bc1'
input_dft = 'BEEF-VDW'
nosym = .true.
nspin = 2
ntyp = 5
nat = 18
starting_magnetization(1) = 0.1
starting_magnetization(2) = 0.1
starting_magnetization(3) = 0.1
starting_magnetization(4) = 0.1
starting_magnetization(5) = 0.1
/
&ELECTRONS
electron_maxstep = 200
mixing_beta = 0.1
conv_thr = 1e-06
/
&IONS
ion_dynamics = 'bfgs'
upscale = 1.0
/
&CELL
/

K_POINTS {automatic}
10 10 2 0  0  0

ATOMIC_SPECIES
C 12.01 C.pbe-n-rrkjus_psl.1.0.0.UPF
Ga 69.72 Ga.pbe-dnl-rrkjus_psl.1.0.0.UPF
Ni 58.69 ni_pbe_v1.4.uspp.F.UPF
O 15.99 O.pbe-n-rrkjus_psl.1.0.0.UPF
Ta 180.9 Ta.pbe-spn-rrkjus_psl.1.0.0.UPF

CELL_PARAMETERS {angstrom}
5.98793000 0.00000000 0.00000000
0.00000000 5.98793000 0.00000000
0.00000000 0.00000000 24.49090000

ATOMIC_POSITIONS {angstrom}
Ta 0.00000000 0.00000000 -2.2455706199999987 0 0 0
Ta 2.99396500 2.99396500 -2.2455706199999987 0 0 0
Ta 3.01504251 5.96852911 0.81187333
Ta 5.96805007 3.01552155 0.81358770
Ga 0.00197602 0.00221553 0.82362897
Ga 2.99396500 0.00000000 -2.2455706199999987 0 0 0
Ga 0.00000000 2.99396500 -2.2455706199999987 0 0 0
Ga 2.99372548 2.99426440 0.81554697
Ni 1.49698250 1.49698250 -0.7484418999999995 0 0 0
Ni 4.48873197 4.48980979 2.20442591
Ni 4.49094750 1.49698250 -0.7484418999999995 0 0 0
Ni 1.49907828 4.48974991 2.15495429
Ni 4.49094750 4.49094750 -0.7484418999999995 0 0 0
Ni 1.49829984 1.49841960 2.25144844
Ni 1.49698250 4.49094750 -0.7484418999999995 0 0 0
Ni 4.49016907 1.49829984 2.15495429
C 1.49710226 1.49698250 4.04565177
O 1.49566516 1.49560528 5.19770371
