&CONTROL
calculation = 'relax'
prefix = 'scf'
pseudo_dir = '/vol0403/data/hp230205/u10028/POT_HYBRID_KKJUS_GBRV'
outdir = './data'
tprnfor = .true.
nstep = 70
disk_io = 'non'
/
&SYSTEM
ibrav = 0
ecutwfc = 50.0
ecutrho = 400
occupations = 'smearing'
smearing = 'mp'
degauss = 0.01
assume_isolated = 'esm'
esm_bc = 'bc1'
input_dft = 'BEEF-VDW'
nosym = .true.
nspin = 1
ntyp = 6
nat = 18
/
&ELECTRONS
electron_maxstep = 200
mixing_beta = 0.1
conv_thr = 1e-06
/
&IONS
ion_dynamics = 'bfgs'
upscale = 1.0
/
&CELL
/

K_POINTS {automatic}
6 6 1 0 0 0

ATOMIC_SPECIES
C 12.01 C.pbe-n-rrkjus_psl.1.0.0.UPF
Ge 72.64 Ge.pbe-dn-rrkjus_psl.1.0.0.UPF
In 114.8 In.pbe-dn-rrkjus_psl.1.0.0.UPF
O 15.99 O.pbe-n-rrkjus_psl.1.0.0.UPF
Pd 106.4 Pd.pbe-n-rrkjus_psl.1.0.0.UPF
Sc 44.95 Sc.pbe-spn-rrkjus_psl.1.0.0.UPF


CELL_PARAMETERS {angstrom}
6.05174000 0.00000000 0.00000000
-0.00000000 8.38060000 0.00000000
0.00000000 0.00000000 24.46740000

ATOMIC_POSITIONS {angstrom}
Sc 1.23050029 2.09171395 0.71077797
Sc 3.73700997 2.09515000 -2.23362895 0 0 0
Sc 1.22989512 6.28913746 0.71151199
Sc 3.73700997 6.28545000 -2.23362895 0 0 0
In 3.44295592 8.38009716 2.30776517
In 5.51718981 0.00000000 -0.7445429800000021 0 0 0
In 2.99022525 4.18988097 2.34471094
In 5.51718981 4.19030000 -0.7445429800000021 0 0 0
Ge 0.39753880 0.00092187 2.43939978
Ge 2.49131981 0.00000000 -0.7445429800000021 0 0 0
Ge 5.75895682 4.19038381 2.03299627
Ge 2.49131981 4.19030000 -0.7445429800000021 0 0 0
Pd 4.15851366 2.14752875 0.60483413
Pd 0.71113997 2.09515000 -2.23362895 0 0 0
Pd 4.15772693 6.23273603 0.60434478
Pd 0.71113997 6.28545000 -2.23362895 0 0 0
C 0.47693763 0.00041903 4.39630243
O 0.28739713 8.38034858 5.54186610
