&CONTROL
calculation = 'relax'
prefix = 'scf'
pseudo_dir = '/vol0004/mdt0/data/hp150275/u10028/POT_KKJUS'
outdir = './data'
tprnfor = .true.
nstep = 50
disk_io = 'non'
/
&SYSTEM
ibrav = 0
ecutwfc = 50.0
ecutrho = 400
occupations = 'smearing'
smearing = 'mp'
degauss = 0.01
assume_isolated = 'esm'
esm_bc = 'bc1'
input_dft = 'BEEF-VDW'
nosym = .true.
nspin = 1
ntyp = 4
nat = 33
/
&ELECTRONS
electron_maxstep = 200
mixing_beta = 0.1
conv_thr = 1e-06
/
&IONS
ion_dynamics = 'bfgs'
upscale = 1.0
/
&CELL
/

K_POINTS {automatic}
8 6 1 0 0 0

ATOMIC_SPECIES
C 12.01 C.pbe-n-rrkjus_psl.1.0.0.UPF
Ga 69.72 Ga.pbe-dnl-rrkjus_psl.1.0.0.UPF
Ni 58.69 Ni.pbe-spn-rrkjus_psl.1.0.0.UPF
Ti 47.86 Ti.pbe-spn-rrkjus_psl.1.0.0.UPF

CELL_PARAMETERS {angstrom}
5.94410000 0.00000000 0.00000000
0.00000000 8.40623000 0.00000000
0.00000000 0.00000000 26.30470000

ATOMIC_POSITIONS {angstrom}
Ti 0.00000000 0.00000000 -3.1523552499999994 0 0 0
Ti 2.97205000 2.10155750 -1.0508727700000016 0 0 0
Ti 2.97205000 6.30467250 -1.0508727700000016 0 0 0
Ti 0.00000000 4.20311500 -3.1523552499999994 0 0 0
Ti 5.91122913 4.24926520 1.02903986
Ti 2.92776645 6.30433625 3.15340744
Ti 3.22717077 2.10080094 3.06423450
Ti 5.91111024 8.35932324 1.02930291
Ga 0.00000000 6.30467250 -1.0508727700000016 0 0 0
Ga 2.97205000 0.00000000 -3.1523552499999994 0 0 0
Ga 0.00000000 2.10155750 -1.0508727700000016 0 0 0
Ga 2.97205000 4.20311500 -3.1523552499999994 0 0 0
Ga 5.52165281 2.10214594 4.07275670
Ga 2.95338553 4.16780883 1.06455121
Ga 0.06675224 6.30366375 3.16024666
Ga 2.95344497 0.03429742 1.06507730
Ni 1.48602500 0.00000000 -1.0508727700000016 0 0 0
Ni 4.45807500 4.20311500 -1.0508727700000016 0 0 0
Ni 4.45807500 0.00000000 -1.0508727700000016 0 0 0
Ni 1.48602500 4.20311500 -1.0508727700000016 0 0 0
Ni 4.45807500 6.30467250 -3.1523552499999994 0 0 0
Ni 1.48602500 2.10155750 -3.1523552499999994 0 0 0
Ni 1.48602500 6.30467250 -3.1523552499999994 0 0 0
Ni 4.45807500 2.10155750 -3.1523552499999994 0 0 0
Ni 1.29932082 4.07298656 3.04634731
Ni 4.50622221 8.31863708 3.05055606
Ni 4.50598445 4.28978323 3.05002996
Ni 1.29878585 0.12861532 3.04687340
Ni 4.48922208 2.10155750 0.96354116
Ni 1.61394203 6.30400000 1.03298557
Ni 1.34443654 2.10138938 1.22001199
Ni 4.35036791 6.30391594 1.12058022
C 1.35151002 2.10105313 3.31860095
