&CONTROL
calculation = 'relax'
prefix = 'scf'
pseudo_dir = '/vol0004/mdt0/data/hp150275/u10028/POT_KKJUS'
outdir = './data'
tprnfor = .true.
nstep = 50
disk_io = 'non'
/
&SYSTEM
ibrav = 0
ecutwfc = 50.0
ecutrho = 400
occupations = 'smearing'
smearing = 'mp'
degauss = 0.01
assume_isolated = 'esm'
esm_bc = 'bc1'
input_dft = 'BEEF-VDW'
nosym = .true.
nspin = 1
ntyp = 4
nat = 17
/
&ELECTRONS
electron_maxstep = 200
mixing_beta = 0.1
conv_thr = 1e-06
/
&IONS
ion_dynamics = 'bfgs'
upscale = 1.0
/
&CELL
/

K_POINTS {automatic}
9 9 2 0  0  0

ATOMIC_SPECIES
Ag 107.8 Ag.pbe-n-rrkjus_psl.1.0.0.UPF
Bi 208.9 Bi.pbe-dn-rrkjus_psl.1.0.0.UPF
C 12.01 C.pbe-n-rrkjus_psl.1.0.0.UPF
Li 6.941 Li.pbe-sl-rrkjus_psl.1.0.0.UPF

CELL_PARAMETERS {angstrom}
6.92564000 0.00000000 0.00000000
0.00000000 6.92564000 0.00000000
0.00000000 0.00000000 25.19420000

ATOMIC_POSITIONS {angstrom}
Li 0.00000000 0.00000000 0.71173615
Li 3.46282000 0.00000000 -2.5970181399999994 0 0 0
Li 0.00000000 3.46282000 -2.5970181399999994 0 0 0
Li 3.46282000 3.46282000 0.71173615
Li 1.73141000 1.73141000 -0.8656727099999983 0 0 0
Li 1.48527275 4.94809275 3.17018619
Li 5.19423000 5.19423000 -0.8656727099999983 0 0 0
Li 5.44043650 1.97754725 3.17018619
Ag 1.59116579 1.87165421 2.80738971
Ag 1.73141000 5.19423000 -0.8656727099999983 0 0 0
Ag 5.33447421 5.05398579 2.80738971
Ag 5.19423000 1.73141000 -0.8656727099999983 0 0 0
Bi 0.00000000 0.00000000 -2.5970181399999994 0 0 0
Bi 3.46282000 3.46282000 -2.5970181399999994 0 0 0
Bi 3.46282000 0.00000000 1.45068204
Bi 6.92550149 3.46282000 0.70518566
C 0.00000000 3.46282000 3.09939048
