&CONTROL
calculation = 'relax'
prefix = 'scf'
pseudo_dir = '/vol0403/data/hp230205/u10028/POT_HYBRID_KKJUS_GBRV'
outdir = './data'
tprnfor = .true.
nstep = 50
disk_io = 'non'
/
&SYSTEM
ibrav = 0
ecutwfc = 50.0
ecutrho = 400
occupations = 'smearing'
smearing = 'mp'
degauss = 0.01
assume_isolated = 'esm'
esm_bc = 'bc1'
input_dft = 'BEEF-VDW'
nosym = .true.
nspin = 2
ntyp = 5
nat = 33
starting_magnetization(1) = 0.0
starting_magnetization(2) = 0.0
starting_magnetization(3) = 0.1
starting_magnetization(4) = 0.0
starting_magnetization(5) = 0.0
/
&ELECTRONS
electron_maxstep = 400
mixing_beta = 0.05
conv_thr = 1e-06
/
&IONS
ion_dynamics = 'bfgs'
upscale = 1.0
/
&CELL
/

K_POINTS {automatic}
9 6 2 0  0  0

ATOMIC_SPECIES
C 12.01 C.pbe-n-rrkjus_psl.1.0.0.UPF
In 114.8 In.pbe-dn-rrkjus_psl.1.0.0.UPF
Mn 54.93 mn_pbe_v1.5.uspp.F.UPF
Pd 106.4 Pd.pbe-n-rrkjus_psl.1.0.0.UPF
Sc 44.95 Sc.pbe-spn-rrkjus_psl.1.0.0.UPF


CELL_PARAMETERS {angstrom}
6.62299000 0.00000000 0.00000000
0.00000000 9.36632000 0.00000000
0.00000000 0.00000000 27.02470000

ATOMIC_POSITIONS {angstrom}
Sc 0.00000000 2.34158000 25.85399000
Sc 0.00000000 7.02474000 25.85399000
Sc 3.31149500 4.68316000 23.51229974
Sc 3.31149500 0.00000000 23.51229974
Sc 0.00066230 6.90204121 3.45267567
Sc 0.00066230 2.46418513 3.45267567
Sc 3.36825402 0.00000000 1.35663994
Sc 3.38699709 4.68316000 1.12909197
Mn 4.96724250 0.00000000 25.85399000
Mn 4.96724250 4.68316000 25.85399000
Mn 1.65574750 2.34158000 23.51229974
Mn 1.65574750 7.02474000 23.51229974
Mn 4.74504119 4.68316000 3.72589539
Mn 5.21189575 0.00000000 3.75967626
Mn 1.67601385 6.99926361 1.23610978
Mn 1.67601385 2.36715005 1.23610978
In 0.00000000 0.00000000 23.51229974
In 0.00000000 4.68316000 23.51229974
In 3.31149500 7.02474000 25.85399000
In 3.31149500 2.34158000 25.85399000
In 6.59325277 4.68316000 1.17800667
In 6.59192818 0.00000000 1.15503568
In 3.36792287 2.30786125 3.74643416
In 3.36792287 7.05845875 3.74643416
Pd 1.65574750 0.00000000 25.85399000
Pd 1.65574750 4.68316000 25.85399000
Pd 4.96724250 2.34158000 23.51229974
Pd 4.96724250 7.02474000 23.51229974
Pd 1.81953404 4.68316000 3.29295969
Pd 1.33863874 0.00000000 3.51645396
Pd 4.98260784 7.00788062 1.13368617
Pd 4.98267407 2.35843938 1.13368617
C 3.38534134 0.00000000 3.62482301
