&CONTROL
calculation = 'relax'
prefix = 'scf'
pseudo_dir = '/vol0004/mdt0/data/hp150275/u10028/POT_KKJUS'
outdir = './data'
tprnfor = .true.
nstep = 50
disk_io = 'non'
/
&SYSTEM
ibrav = 0
ecutwfc = 50.0
ecutrho = 400
occupations = 'smearing'
smearing = 'mp'
degauss = 0.01
assume_isolated = 'esm'
esm_bc = 'bc1'
input_dft = 'BEEF-VDW'
nosym = .true.
nspin = 1
ntyp = 3
nat = 17
/
&ELECTRONS
electron_maxstep = 200
mixing_beta = 0.1
conv_thr = 1e-06
/
&IONS
ion_dynamics = 'bfgs'
upscale = 1.0
/
&CELL
/

K_POINTS {automatic}
6 8 1 0 0 0

ATOMIC_SPECIES
C 12.01 C.pbe-n-rrkjus_psl.1.0.0.UPF
Ca 40.07 Ca.pbe-spn-rrkjus_psl.1.0.0.UPF
Pb 207.2 Pb.pbe-dn-rrkjus_psl.1.0.0.UPF

CELL_PARAMETERS {angstrom}
10.21910000 0.00000000 0.00000000
0.00000000 7.22598000 0.00000000
0.00000000 0.00000000 25.41950000

ATOMIC_POSITIONS {angstrom}
Ca 0.47171366 3.34259383 3.52060075
Ca 2.56315466 5.29787176 1.35943486
Ca 2.56622039 1.84183004 1.12760902
Ca 0.00000000 0.00000000 -0.9031548299999983 0 0 0
Ca 2.55477500 1.80649500 -2.7097187 0 0 0
Ca 2.55477500 5.41948500 -2.7097187 0 0 0
Ca 4.66389505 3.35393862 3.52060075
Ca 7.66125927 5.37901951 1.04601243
Ca 7.67117180 1.77354453 1.01779678
Ca 5.10955000 0.00000000 -0.9031548299999983 0 0 0
Ca 7.66432500 1.80649500 -2.7097187 0 0 0
Ca 7.66432500 5.41948500 -2.7097187 0 0 0
Pb 10.01533115 7.18804361 2.45094819
Pb 0.00000000 3.61299000 -0.9031548299999983 0 0 0
Pb 5.32118756 7.19534184 2.46518311
Pb 5.10955000 3.61299000 -0.9031548299999983 0 0 0
C 2.55671663 3.47143305 2.72624137
