&CONTROL
calculation = 'relax'
prefix = 'scf'
pseudo_dir = '/vol0004/mdt0/data/hp150275/u10028/POT_KKJUS'
outdir = './data'
tprnfor = .true.
nstep = 50
disk_io = 'non'
/
&SYSTEM
ibrav = 0
ecutwfc = 50.0
ecutrho = 400
occupations = 'smearing'
smearing = 'mp'
degauss = 0.01
assume_isolated = 'esm'
esm_bc = 'bc1'
input_dft = 'BEEF-VDW'
nosym = .true.
nspin = 1
ntyp = 3
nat = 33
/
&ELECTRONS
electron_maxstep = 200
mixing_beta = 0.1
conv_thr = 1e-06
/
&IONS
ion_dynamics = 'bfgs'
upscale = 1.0
/
&CELL
/

K_POINTS {automatic}
9 6 2 0  0  0

ATOMIC_SPECIES
C 12.01 C.pbe-n-rrkjus_psl.1.0.0.UPF
Ni 58.69 Ni.pbe-spn-rrkjus_psl.1.0.0.UPF
Sb 121.7 Sb.pbe-n-rrkjus_psl.1.0.0.UPF

CELL_PARAMETERS {angstrom}
5.97820000 0.00000000 0.00000000
0.00000000 8.45446000 0.00000000
0.00000000 0.00000000 26.34080000

ATOMIC_POSITIONS {angstrom}
Ni 1.49455000 0.00000000 -1.0567929000000014 0 0 0
Ni 4.48365000 4.22723000 -1.0567929000000014 0 0 0
Ni 4.48365000 0.00000000 -1.0567929000000014 0 0 0
Ni 1.49455000 4.22723000 -1.0567929000000014 0 0 0
Ni 4.48365000 6.34084500 -3.1703786900000033 0 0 0
Ni 1.49455000 2.11361500 -3.1703786900000033 0 0 0
Ni 1.49455000 6.34084500 -3.1703786900000033 0 0 0
Ni 4.48365000 2.11361500 -3.1703786900000033 0 0 0
Ni 0.00000000 6.34084500 -1.0567929000000014 0 0 0
Ni 2.98910000 0.00000000 -3.1703786900000033 0 0 0
Ni 0.00000000 2.11361500 -1.0567929000000014 0 0 0
Ni 2.98910000 4.22723000 -3.1703786900000033 0 0 0
Ni 1.30587801 4.22689182 3.07423477
Ni 4.25360886 0.00025363 3.11532642
Ni 4.67220243 4.22672273 3.07423477
Ni 1.72465092 0.00016909 3.11532642
Ni 4.43432985 2.09476155 1.16716085
Ni 1.54422884 6.35986753 1.16637062
Ni 1.54398971 2.09493064 1.16716085
Ni 4.43397116 6.35995208 1.16610722
Ni 0.00000000 1.85254128 3.27442485
Ni 2.98886087 4.22714546 1.07812894
Ni 5.97808044 6.60242599 3.27337122
Ni 2.98904022 0.00025363 0.97513642
Sb 0.00000000 0.00000000 -3.1703786900000033 0 0 0
Sb 2.98910000 2.11361500 -1.0567929000000014 0 0 0
Sb 2.98910000 6.34084500 -1.0567929000000014 0 0 0
Sb 0.00000000 4.22723000 -3.1703786900000033 0 0 0
Sb 5.97814022 4.22731454 0.95801490
Sb 2.98915978 6.19373740 3.41982606
Sb 2.98904022 2.26072260 3.42035288
Sb 0.00005978 0.00025363 0.96380987
C 0.00000000 8.45412182 3.66742958
