&CONTROL
calculation = 'relax'
prefix = 'scf'
pseudo_dir = '/vol0004/mdt0/data/hp150275/u10028/POT_KKJUS'
outdir = './data'
tprnfor = .true.
nstep = 50
disk_io = 'non'
/
&SYSTEM
ibrav = 0
ecutwfc = 50.0
ecutrho = 400
occupations = 'smearing'
smearing = 'mp'
degauss = 0.01
assume_isolated = 'esm'
esm_bc = 'bc1'
input_dft = 'BEEF-VDW'
nosym = .true.
nspin = 1
ntyp = 4
nat = 34
/
&ELECTRONS
electron_maxstep = 200
mixing_beta = 0.1
conv_thr = 1e-06
/
&IONS
ion_dynamics = 'bfgs'
upscale = 1.0
/
&CELL
/

K_POINTS {automatic}
9 6 2 0  0  0

ATOMIC_SPECIES
C 12.01 C.pbe-n-rrkjus_psl.1.0.0.UPF
Ni 58.69 Ni.pbe-spn-rrkjus_psl.1.0.0.UPF
O 15.99 O.pbe-n-rrkjus_psl.1.0.0.UPF
Sc 44.95 Sc.pbe-spn-rrkjus_psl.1.0.0.UPF

CELL_PARAMETERS {angstrom}
6.37073000 0.00000000 0.00000000
0.00000000 9.00957000 0.00000000
0.00000000 0.00000000 26.75720000

ATOMIC_POSITIONS {angstrom}
Sc 1.59268250 2.25239250 -3.378631640000002 0 0 0
Sc 1.59268250 0.00000000 -1.1262105499999997 0 0 0
Sc 1.59274621 2.24608580 1.10025606
Sc 1.59268250 0.00000000 3.43268119
Sc 1.59268250 6.75717750 -3.378631640000002 0 0 0
Sc 1.59268250 4.50478500 -1.1262105499999997 0 0 0
Sc 1.59268250 6.76339410 1.10025606
Sc 1.59268250 4.50478500 3.39495354
Sc 4.77804750 2.25239250 -3.378631640000002 0 0 0
Sc 4.77804750 0.00000000 -1.1262105499999997 0 0 0
Sc 4.77811121 2.24959953 1.10293178
Sc 4.77804750 0.00000000 3.43615962
Sc 4.77804750 6.75717750 -3.378631640000002 0 0 0
Sc 4.77804750 4.50478500 -1.1262105499999997 0 0 0
Sc 4.77804750 6.75988037 1.10293178
Sc 4.77804750 4.50478500 3.40030498
Ni 0.00000000 0.00000000 -3.378631640000002 0 0 0
Ni 0.00000000 2.25239250 -1.1262105499999997 0 0 0
Ni 6.35231859 9.00947990 1.18133038
Ni 6.36805429 2.26401485 3.12363553
Ni 0.00000000 4.50478500 -3.378631640000002 0 0 0
Ni 0.00000000 6.75717750 -1.1262105499999997 0 0 0
Ni 0.00159268 4.50469490 1.18400610
Ni 6.36811800 6.74555515 3.12390310
Ni 3.18536500 0.00000000 -3.378631640000002 0 0 0
Ni 3.18536500 2.25239250 -1.1262105499999997 0 0 0
Ni 3.20377641 9.00947990 1.18133038
Ni 3.18797700 2.26410494 3.12363553
Ni 3.18536500 4.50478500 -3.378631640000002 0 0 0
Ni 3.18536500 6.75717750 -1.1262105499999997 0 0 0
Ni 3.18389973 4.50487510 1.18454124
Ni 3.18791329 6.74555515 3.12390310
C 1.59268250 0.00000000 5.75868458
O 1.59268250 0.00000000 6.90870904
