&CONTROL
calculation = 'relax'
prefix = 'scf'
pseudo_dir = '/vol0004/mdt0/data/hp150275/u10028/POT_KKJUS'
outdir = './data'
tprnfor = .true.
nstep = 50
disk_io = 'non'
/
&SYSTEM
ibrav = 0
ecutwfc = 50.0
ecutrho = 400
occupations = 'smearing'
smearing = 'mp'
degauss = 0.01
assume_isolated = 'esm'
esm_bc = 'bc1'
input_dft = 'BEEF-VDW'
nosym = .true.
nspin = 1
ntyp = 4
nat = 34
/
&ELECTRONS
electron_maxstep = 200
mixing_beta = 0.1
conv_thr = 1e-06
/
&IONS
ion_dynamics = 'bfgs'
upscale = 1.0
/
&CELL
/

K_POINTS {automatic}
8 8 1 0 0 0

ATOMIC_SPECIES
C 12.01 C.pbe-n-rrkjus_psl.1.0.0.UPF
O 15.99 O.pbe-n-rrkjus_psl.1.0.0.UPF
Pd 106.4 Pd.pbe-n-rrkjus_psl.1.0.0.UPF
V 50.94 V.pbe-spnl-rrkjus_psl.1.0.0.UPF

CELL_PARAMETERS {angstrom}
7.84123000 0.00000000 0.00000000
-0.00000000 7.84123000 0.00000000
0.00000000 0.00000000 25.88090000

ATOMIC_POSITIONS {angstrom}
V 0.00000000 0.00000000 2.94032905
V 0.00000000 0.00000000 -0.9801096800000018 0 0 0
V 0.00000000 3.92061500 2.94032905
V 0.00000000 3.92061500 -0.9801096800000018 0 0 0
V 3.92061500 -0.00000000 2.94032905
V 3.92061500 0.00000000 -0.9801096800000018 0 0 0
V 3.92061500 3.92061500 2.94032905
V 3.92061500 3.92061500 -0.9801096800000018 0 0 0
Pd 0.00000000 1.96030750 0.98010968
Pd 1.96030750 -0.00000000 0.98010968
Pd 1.96030750 1.96030750 2.94032905
Pd 0.00000000 1.96030750 -2.940329049999999 0 0 0
Pd 1.96030750 0.00000000 -2.940329049999999 0 0 0
Pd 1.96030750 1.96030750 -0.9801096800000018 0 0 0
Pd 0.00000000 5.88092250 0.98010968
Pd 1.96030750 3.92061500 0.98010968
Pd 1.96030750 5.88092250 2.94032905
Pd 0.00000000 5.88092250 -2.940329049999999 0 0 0
Pd 1.96030750 3.92061500 -2.940329049999999 0 0 0
Pd 1.96030750 5.88092250 -0.9801096800000018 0 0 0
Pd 3.92061500 1.96030750 0.98010968
Pd 5.88092250 -0.00000000 0.98010968
Pd 5.88092250 1.96030750 2.94032905
Pd 3.92061500 1.96030750 -2.940329049999999 0 0 0
Pd 5.88092250 0.00000000 -2.940329049999999 0 0 0
Pd 5.88092250 1.96030750 -0.9801096800000018 0 0 0
Pd 3.92061500 5.88092250 0.98010968
Pd 5.88092250 3.92061500 0.98010968
Pd 5.88092250 5.88092250 2.94032905
Pd 3.92061500 5.88092250 -2.940329049999999 0 0 0
Pd 5.88092250 3.92061500 -2.940329049999999 0 0 0
Pd 5.88092250 5.88092250 -0.9801096800000018 0 0 0
C 1.96030750 1.96030750 4.84050473
O 1.96030750 1.96030750 5.99039311
