&CONTROL
calculation = 'relax'
prefix = 'scf'
pseudo_dir = '/vol0004/mdt0/data/hp150275/u10028/POT_KKJUS'
outdir = './data'
tprnfor = .true.
nstep = 50
disk_io = 'non'
/
&SYSTEM
ibrav = 0
ecutwfc = 50.0
ecutrho = 400
occupations = 'smearing'
smearing = 'mp'
degauss = 0.01
assume_isolated = 'esm'
esm_bc = 'bc1'
input_dft = 'BEEF-VDW'
nosym = .true.
nspin = 1
ntyp = 2
nat = 16
/
&ELECTRONS
electron_maxstep = 200
mixing_beta = 0.1
conv_thr = 1e-06
/
&IONS
ion_dynamics = 'bfgs'
upscale = 1.0
/
&CELL
/

K_POINTS {automatic}
8 12 2 0  0  0

ATOMIC_SPECIES
Ni 58.69 Ni.pbe-spn-rrkjus_psl.1.0.0.UPF
Si 28.08 Si.pbe-nl-rrkjus_psl.1.0.0.UPF

CELL_PARAMETERS {angstrom}
7.08204000 0.00000000 0.00000000
0.00000000 5.00776000 0.00000000
0.00000000 0.00000000 23.75580000

ATOMIC_POSITIONS {angstrom}
Si 0.00000000 0.00000000 -1.877895989999999 0 0 0
Si 0.00049574 2.50388000 0.66801310
Si 3.54102000 0.00000000 -1.877895989999999 0 0 0
Si 3.54059508 2.50382992 0.66801310
Ni 0.00000000 2.50388000 -1.877895989999999 0 0 0
Ni 1.77051000 3.75582000 -0.6259653299999997 0 0 0
Ni 1.77051000 1.25194000 -0.6259653299999997 0 0 0
Ni 0.00007082 0.00005008 0.65162159
Ni 1.77051000 1.29220239 1.79641360
Ni 1.77058082 3.71560769 1.79665115
Ni 3.54102000 2.50388000 -1.877895989999999 0 0 0
Ni 5.31153000 3.75582000 -0.6259653299999997 0 0 0
Ni 5.31153000 1.25194000 -0.6259653299999997 0 0 0
Ni 3.54087836 0.00000000 0.65114648
Ni 5.31153000 1.29260301 1.79522581
Ni 5.31138836 3.71505683 1.79475069
