&CONTROL
calculation = 'relax'
prefix = 'scf'
pseudo_dir = '/vol0403/data/hp230205/u10028/POT_HYBRID_KKJUS_GBRV'
outdir = './data'
tprnfor = .true.
nstep = 70
disk_io = 'non'
/
&SYSTEM
ibrav = 0
ecutwfc = 50.0
ecutrho = 400
occupations = 'smearing'
smearing = 'mp'
degauss = 0.01
assume_isolated = 'esm'
esm_bc = 'bc1'
input_dft = 'BEEF-VDW'
nosym = .true.
nspin = 1
ntyp = 6
nat = 34
/
&ELECTRONS
electron_maxstep = 200
mixing_beta = 0.1
conv_thr = 1e-06
/
&IONS
ion_dynamics = 'bfgs'
upscale = 1.0
/
&CELL
/

K_POINTS {automatic}
7 7 2 0  0  0

ATOMIC_SPECIES
Al 26.98 Al.pbe-nl-rrkjus_psl.1.0.0.UPF
C 12.01 C.pbe-n-rrkjus_psl.1.0.0.UPF
In 114.8 In.pbe-dn-rrkjus_psl.1.0.0.UPF
O 15.99 O.pbe-n-rrkjus_psl.1.0.0.UPF
Pd 106.4 Pd.pbe-n-rrkjus_psl.1.0.0.UPF
Y 88.90 Y.pbe-spn-rrkjus_psl.1.0.0.UPF


CELL_PARAMETERS {angstrom}
8.16174000 0.00000000 0.00000000
-0.00000000 8.86460000 0.00000000
0.00000000 0.00000000 26.91240000

ATOMIC_POSITIONS {angstrom}
Y 2.04043500 0.00000000 -1.152119840000001 0 0 0
Y 2.10148482 8.80210457 3.63129013
Y 2.04043500 4.43230000 -1.152119840000001 0 0 0
Y 2.10156643 4.49470678 3.63129013
Y 6.12130500 0.00000000 -1.152119840000001 0 0 0
Y 6.06017357 8.80219322 3.63129013
Y 6.12130500 4.43230000 -1.152119840000001 0 0 0
Y 6.06025518 4.49470678 3.63129013
Al 0.00000000 0.00000000 -3.4560904100000016 0 0 0
Al 0.00000000 8.73065589 1.28156849
Al 0.00000000 4.43230000 -3.4560904100000016 0 0 0
Al 0.00000000 4.56624411 1.28156849
Al 4.08087000 0.00000000 -3.4560904100000016 0 0 0
Al 4.08087000 0.21594166 1.21159625
Al 4.08087000 4.43230000 -3.4560904100000016 0 0 0
Al 4.08087000 4.21635834 1.21159625
In 2.04043500 2.21615000 -3.4560904100000016 0 0 0
In 1.82398566 2.21615000 1.20002392
In 2.04043500 6.64845000 -3.4560904100000016 0 0 0
In 2.20644479 6.64845000 1.12574569
In 6.12130500 2.21615000 -3.4560904100000016 0 0 0
In 6.33767273 2.21615000 1.20002392
In 6.12130500 6.64845000 -3.4560904100000016 0 0 0
In 5.95529521 6.64845000 1.12574569
Pd 0.00000000 2.21615000 -1.152119840000001 0 0 0
Pd 0.00000000 2.21615000 3.46470238
Pd 0.00000000 6.64845000 -1.152119840000001 0 0 0
Pd 0.00000000 6.64845000 3.02737588
Pd 4.08087000 2.21615000 -1.152119840000001 0 0 0
Pd 4.08087000 2.21615000 3.06290024
Pd 4.08087000 6.64845000 -1.152119840000001 0 0 0
Pd 4.08087000 6.64845000 3.28627316
C 0.00000000 2.21623865 5.37951964
O 0.00008162 2.21623865 6.54993991
