&CONTROL
calculation = 'relax'
prefix = 'scf'
pseudo_dir = '/vol0004/mdt0/data/hp150275/u10028/POT_HYBRID_KKJUS_GBRV'
outdir = './data'
tprnfor = .true.
nstep = 50
disk_io = 'non'
/
&SYSTEM
ibrav = 0
ecutwfc = 50.0
ecutrho = 400
occupations = 'smearing'
smearing = 'mp'
degauss = 0.01
assume_isolated = 'esm'
esm_bc = 'bc1'
input_dft = 'BEEF-VDW'
nosym = .true.
nspin = 2
ntyp = 4
nat = 34
starting_magnetization(1) = 0.1
starting_magnetization(2) = 0.1
starting_magnetization(3) = 0.1
starting_magnetization(4) = 0.1
/
&ELECTRONS
electron_maxstep = 200
mixing_beta = 0.1
conv_thr = 1e-06
/
&IONS
ion_dynamics = 'bfgs'
upscale = 1.0
/
&CELL
/

K_POINTS {automatic}
9 6 2 0  0  0

ATOMIC_SPECIES
Al 26.98 Al.pbe-nl-rrkjus_psl.1.0.0.UPF
C 12.01 C.pbe-n-rrkjus_psl.1.0.0.UPF
Ni 58.69 ni_pbe_v1.4.uspp.F.UPF
O 15.99 O.pbe-n-rrkjus_psl.1.0.0.UPF

CELL_PARAMETERS {angstrom}
5.79956000 0.00000000 0.00000000
0.00000000 8.20182000 0.00000000
0.00000000 0.00000000 26.15140000

ATOMIC_POSITIONS {angstrom}
Al 1.44989000 2.05045500 -3.07566615 0 0 0
Al 1.44989000 0.00000000 -1.0251348799999995 0 0 0
Al 1.44989000 2.06218360 1.02173520
Al 1.44989000 0.00000000 3.17530299
Al 1.44989000 6.15136500 -3.07566615 0 0 0
Al 1.44989000 4.10091000 -1.0251348799999995 0 0 0
Al 1.44989000 6.13963640 1.02173520
Al 1.44989000 4.10091000 3.12849198
Al 4.34967000 2.05045500 -3.07566615 0 0 0
Al 4.34967000 0.00000000 -1.0251348799999995 0 0 0
Al 4.34967000 2.04758436 1.00604436
Al 4.34967000 0.00000000 3.12378473
Al 4.34967000 6.15136500 -3.07566615 0 0 0
Al 4.34967000 4.10091000 -1.0251348799999995 0 0 0
Al 4.34967000 6.15431766 1.00578284
Al 4.34967000 4.10091000 3.13424529
Ni 0.00000000 0.00000000 -3.07566615 0 0 0
Ni 0.00000000 2.05045500 -1.0251348799999995 0 0 0
Ni 0.00916330 8.20149193 1.01362826
Ni 5.78471313 2.06538231 2.94961641
Ni 0.00000000 4.10091000 -3.07566615 0 0 0
Ni 0.00000000 6.15136500 -1.0251348799999995 0 0 0
Ni 5.79434040 4.10123807 0.98146204
Ni 5.78448114 6.13635567 2.94883186
Ni 2.89978000 0.00000000 -3.07566615 0 0 0
Ni 2.89978000 2.05045500 -1.0251348799999995 0 0 0
Ni 2.89061670 8.20140991 1.01362826
Ni 2.91462687 2.06546433 2.94961641
Ni 2.89978000 4.10091000 -3.07566615 0 0 0
Ni 2.89978000 6.15136500 -1.0251348799999995 0 0 0
Ni 2.90499960 4.10123807 0.98146204
Ni 2.91485886 6.13635567 2.94883186
C 1.44989000 0.00000000 5.21066645
O 1.44989000 0.00000000 6.35818988
