&CONTROL
calculation = 'relax'
prefix = 'scf'
pseudo_dir = '/vol0004/mdt0/data/hp150275/u10028/POT_KKJUS'
outdir = './data'
tprnfor = .true.
nstep = 50
disk_io = 'non'
/
&SYSTEM
ibrav = 0
ecutwfc = 50.0
ecutrho = 400
occupations = 'smearing'
smearing = 'mp'
degauss = 0.01
assume_isolated = 'esm'
esm_bc = 'bc1'
input_dft = 'BEEF-VDW'
nosym = .true.
nspin = 1
ntyp = 4
nat = 18
/
&ELECTRONS
electron_maxstep = 200
mixing_beta = 0.1
conv_thr = 1e-06
/
&IONS
ion_dynamics = 'bfgs'
upscale = 1.0
/
&CELL
/

K_POINTS {automatic}
6 8 1 0 0 0

ATOMIC_SPECIES
C 12.01 C.pbe-n-rrkjus_psl.1.0.0.UPF
Ga 69.72 Ga.pbe-dnl-rrkjus_psl.1.0.0.UPF
O 15.99 O.pbe-n-rrkjus_psl.1.0.0.UPF
Sc 44.95 Sc.pbe-spn-rrkjus_psl.1.0.0.UPF

CELL_PARAMETERS {angstrom}
8.31483000 0.00000000 0.00000000
0.00000000 5.87947000 0.00000000
0.00000000 0.00000000 24.40960000

ATOMIC_POSITIONS {angstrom}
Sc 0.00000000 0.00000000 -2.20491917 0 0 0
Sc 8.29429237 2.93908826 0.75572122
Sc 4.15741500 0.00000000 -2.20491917 0 0 0
Sc 4.17795263 2.93908826 0.75572122
Ga 0.00000000 2.93973500 -2.20491917 0 0 0
Ga 2.07870750 4.40960250 -0.7349730600000015 0 0 0
Ga 2.07870750 1.46986750 -0.7349730600000015 0 0 0
Ga 0.03118061 5.87535437 1.07402240
Ga 2.07870750 1.50091110 2.14609203
Ga 2.07862435 4.41859809 2.10728077
Ga 4.15741500 2.93973500 -2.20491917 0 0 0
Ga 6.23612250 4.40960250 -0.7349730600000015 0 0 0
Ga 6.23612250 1.46986750 -0.7349730600000015 0 0 0
Ga 4.12623439 5.87535437 1.07426650
Ga 6.23620565 1.42212620 2.15097395
Ga 6.23612250 4.45005325 2.15048576
C 2.07870750 1.35962744 4.30048333
O 2.07870750 1.47909827 5.44016755
