&CONTROL
calculation = 'relax'
prefix = 'scf'
pseudo_dir = '/vol0403/data/hp230205/u10028/POT_HYBRID_KKJUS_GBRV'
outdir = './data'
tprnfor = .true.
nstep = 50
disk_io = 'non'
/
&SYSTEM
ibrav = 0
ecutwfc = 50.0
ecutrho = 400
occupations = 'smearing'
smearing = 'mp'
degauss = 0.01
assume_isolated = 'esm'
esm_bc = 'bc1'
input_dft = 'BEEF-VDW'
nosym = .true.
nspin = 1
ntyp = 6
nat = 34
/
&ELECTRONS
electron_maxstep = 200
mixing_beta = 0.1
conv_thr = 1e-06
/
&IONS
ion_dynamics = 'bfgs'
upscale = 1.0
/
&CELL
/

K_POINTS {automatic}
9 6 2 0  0  0

ATOMIC_SPECIES
C 12.01 C.pbe-n-rrkjus_psl.1.0.0.UPF
In 114.8 In.pbe-dn-rrkjus_psl.1.0.0.UPF
Ir 192.2 Ir.pbe-n-rrkjus_psl.0.2.3.UPF
Li 6.941 Li.pbe-sl-rrkjus_psl.1.0.0.UPF
O 15.99 O.pbe-n-rrkjus_psl.1.0.0.UPF
Pd 106.4 Pd.pbe-n-rrkjus_psl.1.0.0.UPF


CELL_PARAMETERS {angstrom}
6.33559000 0.00000000 0.00000000
0.00000000 8.95988000 0.00000000
0.00000000 0.00000000 26.71990000

ATOMIC_POSITIONS {angstrom}
Li 0.00000000 2.23997000 -1.1200982099999983 0 0 0
Li 0.00000000 6.71991000 -1.1200982099999983 0 0 0
Li 3.16779500 4.47994000 -3.360027429999999 0 0 0
Li 3.16779500 0.00000000 -3.360027429999999 0 0 0
Li 6.26824268 6.71551966 3.48454216
Li 6.26792590 2.24660031 3.48454216
Li 3.17729838 0.00053759 1.00172905
Li 3.09575934 4.48011920 1.07333838
In 0.00000000 0.00000000 -3.360027429999999 0 0 0
In 0.00000000 4.47994000 -3.360027429999999 0 0 0
In 3.16779500 6.71991000 -1.1200982099999983 0 0 0
In 3.16779500 2.23997000 -1.1200982099999983 0 0 0
In 6.30112439 4.48038799 1.04474809
In 6.27223410 8.95952160 1.10406627
In 3.04006951 2.27159838 3.53611157
In 3.03804212 6.69150718 3.53931795
Ir 1.58389750 0.00000000 -1.1200982099999983 0 0 0
Ir 1.58389750 4.47994000 -1.1200982099999983 0 0 0
Ir 4.75169250 2.23997000 -3.360027429999999 0 0 0
Ir 4.75169250 6.71991000 -3.360027429999999 0 0 0
Ir 1.59207041 4.48047759 3.14199304
Ir 1.47207434 0.00161278 3.40411526
Ir 4.68516880 6.71292129 1.20212830
Ir 4.68668935 2.24821309 1.20533469
Pd 4.75169250 0.00000000 -1.1200982099999983 0 0 0
Pd 4.75169250 4.47994000 -1.1200982099999983 0 0 0
Pd 1.58389750 2.23997000 -3.360027429999999 0 0 0
Pd 1.58389750 6.71991000 -3.360027429999999 0 0 0
Pd 4.66451478 4.47949201 3.17940090
Pd 4.50105656 0.00412154 3.15535299
Pd 1.58307387 6.76488860 1.13666455
Pd 1.58098313 2.19463301 1.13719894
C 0.60048722 8.95916321 5.03002117
O 0.01108728 8.95952160 6.04404138
