&CONTROL
calculation = 'relax'
prefix = 'scf'
pseudo_dir = '/vol0403/data/hp230205/u10028/POT_HYBRID_KKJUS_GBRV'
outdir = './data'
tprnfor = .true.
nstep = 50
disk_io = 'non'
/
&SYSTEM
ibrav = 0
ecutwfc = 50.0
ecutrho = 400
occupations = 'smearing'
smearing = 'mp'
degauss = 0.01
assume_isolated = 'esm'
esm_bc = 'bc1'
input_dft = 'BEEF-VDW'
nosym = .true.
nspin = 1
ntyp = 6
nat = 18
/
&ELECTRONS
electron_maxstep = 200
mixing_beta = 0.1
conv_thr = 1e-06
/
&IONS
ion_dynamics = 'bfgs'
upscale = 1.0
/
&CELL
/

K_POINTS {automatic}
11 7 2 0  0  0

ATOMIC_SPECIES
C 12.01 C.pbe-n-rrkjus_psl.1.0.0.UPF
Ge 72.64 Ge.pbe-dn-rrkjus_psl.1.0.0.UPF
Li 6.941 Li.pbe-sl-rrkjus_psl.1.0.0.UPF
O 15.99 O.pbe-n-rrkjus_psl.1.0.0.UPF
Pd 106.4 Pd.pbe-n-rrkjus_psl.1.0.0.UPF
V 50.94 V.pbe-spnl-rrkjus_psl.1.0.0.UPF


CELL_PARAMETERS {angstrom}
5.49597000 0.00000000 0.00000000
0.00000000 8.64114000 0.00000000
0.00000000 0.00000000 23.65060000

ATOMIC_POSITIONS {angstrom}
Li 2.79052381 0.00008641 1.97269655
Li 4.21986073 0.00000000 -0.6085299400000004 0 0 0
Li 2.75403057 4.32065641 1.93461908
Li 4.21986073 4.32057000 -0.6085299400000004 0 0 0
V 0.63698292 2.16045782 0.38881586
V 2.20778611 2.16028500 -1.8253533100000006 0 0 0
V 0.63907139 6.48059577 0.38621430
V 2.20778611 6.48085500 -1.8253533100000006 0 0 0
Ge 0.14888583 8.63984383 1.63023586
Ge 1.47187573 0.00000000 -0.6085299400000004 0 0 0
Ge 0.12624243 4.32152053 1.64182465
Ge 1.47187573 4.32057000 -0.6085299400000004 0 0 0
Pd 3.44119170 2.17687599 0.50091971
Pd 4.95577111 2.16028500 -1.8253533100000006 0 0 0
Pd 3.44251073 6.46417760 0.50162923
Pd 4.95577111 6.48085500 -1.8253533100000006 0 0 0
C 2.79068869 0.00008641 4.09793946
O 2.69819151 0.00000000 5.23222224
