&CONTROL
calculation = 'relax'
prefix = 'scf'
pseudo_dir = '/vol0004/mdt0/data/hp150275/u10028/POT_HYBRID_KKJUS_GBRV'
outdir = './data'
tprnfor = .true.
nstep = 50
disk_io = 'non'
/
&SYSTEM
ibrav = 0
ecutwfc = 50.0
ecutrho = 400
occupations = 'smearing'
smearing = 'mp'
degauss = 0.01
assume_isolated = 'esm'
esm_bc = 'bc1'
input_dft = 'BEEF-VDW'
nosym = .true.
nspin = 2
ntyp = 5
nat = 34
starting_magnetization(1) = 0.0
starting_magnetization(2) = 0.0
starting_magnetization(3) = 0.001
starting_magnetization(4) = 0.0
starting_magnetization(5) = 0.0
/
&ELECTRONS
electron_maxstep = 300
mixing_beta = 0.1
conv_thr = 1e-06
/
&IONS
ion_dynamics = 'bfgs'
upscale = 1.0
/
&CELL
/

K_POINTS {automatic}
8 6 1 0 0 0

ATOMIC_SPECIES
Al 26.98 Al.pbe-nl-rrkjus_psl.1.0.0.UPF
C 12.01 C.pbe-n-rrkjus_psl.1.0.0.UPF
Ni 58.69 ni_pbe_v1.4.uspp.F.UPF
O 15.99 O.pbe-n-rrkjus_psl.1.0.0.UPF
Ti 47.86 Ti.pbe-spn-rrkjus_psl.1.0.0.UPF

CELL_PARAMETERS {angstrom}
5.91339000 0.00000000 0.00000000
0.00000000 8.36280000 0.00000000
0.00000000 0.00000000 26.27210000

ATOMIC_POSITIONS {angstrom}
Ti 0.00000000 0.00000000 -3.1361005799999973 0 0 0
Ti 2.95669500 2.09070000 -1.045366859999998 0 0 0
Ti 2.95669500 6.27210000 -1.045366859999998 0 0 0
Ti 0.00000000 4.18140000 -3.1361005799999973 0 0 0
Ti 0.00000000 4.18850838 1.04694318
Ti 2.95669500 6.27210000 3.17340696
Ti 2.95669500 2.09070000 3.14713486
Ti 0.00000000 8.35569162 1.04694318
Al 0.00000000 6.27210000 -1.045366859999998 0 0 0
Al 2.95669500 0.00000000 -3.1361005799999973 0 0 0
Al 0.00000000 2.09070000 -1.045366859999998 0 0 0
Al 2.95669500 4.18140000 -3.1361005799999973 0 0 0
Al 0.00000000 2.09070000 3.18076315
Al 2.95669500 4.17663320 1.02750183
Al 0.00000000 6.27210000 3.14161772
Al 2.95669500 0.00476680 1.02776455
Ni 1.47834750 0.00000000 -1.045366859999998 0 0 0
Ni 4.43504250 4.18140000 -1.045366859999998 0 0 0
Ni 4.43504250 0.00000000 -1.045366859999998 0 0 0
Ni 1.47834750 4.18140000 -1.045366859999998 0 0 0
Ni 4.43504250 6.27210000 -3.1361005799999973 0 0 0
Ni 1.47834750 2.09070000 -3.1361005799999973 0 0 0
Ni 1.47834750 6.27210000 -3.1361005799999973 0 0 0
Ni 4.43504250 2.09070000 -3.1361005799999973 0 0 0
Ni 1.46876781 4.19662030 2.98135791
Ni 4.44468133 8.34757970 2.98135791
Ni 4.44462219 4.19662030 2.98135791
Ni 1.46870867 8.34757970 2.98135791
Ni 4.40328760 2.09053274 1.08030875
Ni 1.54380873 6.27226726 1.05219760
Ni 1.51010240 2.09053274 1.08030875
Ni 4.36958127 6.27226726 1.05219760
C 0.00000000 2.09070000 5.19057880
O 0.00000000 2.09070000 6.34471215
