&CONTROL
calculation = 'relax'
prefix = 'scf'
pseudo_dir = '/vol0004/mdt0/data/hp150275/u10028/POT_HYBRID_KKJUS_GBRV'
outdir = './data'
tprnfor = .true.
nstep = 50
disk_io = 'non'
/
&SYSTEM
ibrav = 0
ecutwfc = 50.0
ecutrho = 400
occupations = 'smearing'
smearing = 'mp'
degauss = 0.01
assume_isolated = 'esm'
esm_bc = 'bc1'
input_dft = 'BEEF-VDW'
nosym = .true.
nspin = 2
ntyp = 3
nat = 16
starting_magnetization(1) = 0.1
starting_magnetization(2) = 0.1
starting_magnetization(3) = 0.1
/
&ELECTRONS
electron_maxstep = 200
mixing_beta = 0.1
conv_thr = 1e-06
/
&IONS
ion_dynamics = 'bfgs'
upscale = 1.0
/
&CELL
/

K_POINTS {automatic}
10 10 2 0  0  0

ATOMIC_SPECIES
Ge 72.64 Ge.pbe-dn-rrkjus_psl.1.0.0.UPF
Li 6.941 Li.pbe-sl-rrkjus_psl.1.0.0.UPF
Ni 58.69 ni_pbe_v1.4.uspp.F.UPF

CELL_PARAMETERS {angstrom}
5.71239000 0.00000000 0.00000000
-0.00000000 5.71239000 0.00000000
0.00000000 0.00000000 24.28430000

ATOMIC_POSITIONS {angstrom}
Li 0.00000000 0.00000000 2.14211810
Li 2.85619500 2.85619500 2.14211810
Li 2.85619500 0.00000000 -0.7139584200000009 0 0 0
Li 0.00000000 2.85619500 -0.7139584200000009 0 0 0
Ni 1.42809750 1.42809750 0.71395842
Ni 4.28429250 4.28429250 -2.142118100000001 0 0 0
Ni 4.28429250 1.42809750 0.71395842
Ni 1.42809750 4.28429250 -2.142118100000001 0 0 0
Ni 4.28429250 4.28429250 0.71395842
Ni 1.42809750 1.42809750 -2.142118100000001 0 0 0
Ni 1.42809750 4.28429250 0.71395842
Ni 4.28429250 1.42809750 -2.142118100000001 0 0 0
Ge 0.00000000 0.00000000 -0.7139584200000009 0 0 0
Ge 2.85619500 -0.00000000 2.14211810
Ge 0.00000000 2.85619500 2.14211810
Ge 2.85619500 2.85619500 -0.7139584200000009 0 0 0
