&CONTROL
calculation = 'relax'
prefix = 'scf'
pseudo_dir = '/vol0403/data/hp230205/u10028/POT_HYBRID_KKJUS_GBRV'
outdir = './data'
tprnfor = .true.
nstep = 70
disk_io = 'non'
/
&SYSTEM
ibrav = 0
ecutwfc = 50.0
ecutrho = 400
occupations = 'smearing'
smearing = 'mp'
degauss = 0.01
assume_isolated = 'esm'
esm_bc = 'bc1'
input_dft = 'BEEF-VDW'
nosym = .true.
nspin = 1
ntyp = 4
nat = 16
/
&ELECTRONS
electron_maxstep = 200
mixing_beta = 0.1
conv_thr = 1e-06
/
&IONS
ion_dynamics = 'bfgs'
upscale = 1.0
/
&CELL
/

K_POINTS {automatic}
10 10 2 0  0  0

ATOMIC_SPECIES
Cu 63.54 Cu.pbe-dn-rrkjus_psl.1.0.0.UPF
Pd 106.4 Pd.pbe-n-rrkjus_psl.1.0.0.UPF
Sn 118.7 Sn.pbe-dn-rrkjus_psl.1.0.0.UPF
Y 88.90 Y.pbe-spn-rrkjus_psl.1.0.0.UPF


CELL_PARAMETERS {angstrom}
6.76496000 0.00000000 0.00000000
-0.00000000 6.76496000 0.00000000
0.00000000 0.00000000 25.07370000

ATOMIC_POSITIONS {angstrom}
Y 1.69124000 1.69124000 0.84573590
Y 1.69124000 5.07372000 -2.5369569699999985 0 0 0
Y 5.07372000 1.69124000 -2.5369569699999985 0 0 0
Y 5.07372000 5.07372000 0.84573590
Cu 0.00000000 0.00000000 2.53695697
Cu 0.00000000 3.38248000 -0.8457358999999975 0 0 0
Cu 3.38248000 0.00000000 -0.8457358999999975 0 0 0
Cu 3.38248000 3.38248000 2.53695697
Sn 5.07372000 1.69124000 0.84573590
Sn 5.07372000 5.07372000 -2.5369569699999985 0 0 0
Sn 1.69124000 1.69124000 -2.5369569699999985 0 0 0
Sn 1.69124000 5.07372000 0.84573590
Pd 0.00000000 3.38248000 2.53695697
Pd 0.00000000 0.00000000 -0.8457358999999975 0 0 0
Pd 3.38248000 3.38248000 -0.8457358999999975 0 0 0
Pd 3.38248000 -0.00000000 2.53695697
