&CONTROL
calculation = 'relax'
prefix = 'scf'
pseudo_dir = '/vol0004/mdt0/data/hp150275/u10028/POT_HYBRID_KKJUS_GBRV'
outdir = './data'
tprnfor = .true.
nstep = 50
disk_io = 'non'
/
&SYSTEM
ibrav = 0
ecutwfc = 50.0
ecutrho = 400
occupations = 'smearing'
smearing = 'mp'
degauss = 0.01
assume_isolated = 'esm'
esm_bc = 'bc1'
input_dft = 'BEEF-VDW'
nosym = .true.
nspin = 2
ntyp = 3
nat = 33
starting_magnetization(1) = 0.0
starting_magnetization(2) = 0.01
starting_magnetization(3) = 0.0
/
&ELECTRONS
electron_maxstep = 300
mixing_beta = 0.1
conv_thr = 1e-06
/
&IONS
ion_dynamics = 'bfgs'
upscale = 1.0
/
&CELL
/

K_POINTS {automatic}
8 6 1 0 0 0

ATOMIC_SPECIES
C 12.01 C.pbe-n-rrkjus_psl.1.0.0.UPF
Ni 58.69 ni_pbe_v1.4.uspp.F.UPF
Ti 47.86 Ti.pbe-spn-rrkjus_psl.1.0.0.UPF

CELL_PARAMETERS {angstrom}
6.03636000 0.00000000 0.00000000
0.00000000 8.53670000 0.00000000
0.00000000 0.00000000 26.40250000

ATOMIC_POSITIONS {angstrom}
Ti 1.50909000 2.13417500 -3.2013031199999986 0 0 0
Ti 1.50909000 0.00000000 -1.0671890499999996 0 0 0
Ti 1.50770164 2.13417500 1.10784890
Ti 1.50884855 0.05941543 3.17490062
Ti 1.50909000 6.40252500 -3.2013031199999986 0 0 0
Ti 1.50909000 4.26835000 -1.0671890499999996 0 0 0
Ti 1.50776200 6.40235427 1.01438405
Ti 1.50884855 4.20961750 3.17463660
Ti 4.52727000 2.13417500 -3.2013031199999986 0 0 0
Ti 4.52727000 0.00000000 -1.0671890499999996 0 0 0
Ti 4.52570055 2.13400427 1.04289875
Ti 4.52678709 8.44313777 3.32433877
Ti 4.52727000 6.40252500 -3.2013031199999986 0 0 0
Ti 4.52727000 4.26835000 -1.0671890499999996 0 0 0
Ti 4.52570055 6.40252500 1.06190855
Ti 4.52684745 4.36387567 3.32618695
Ni 0.00000000 0.00000000 -3.2013031199999986 0 0 0
Ni 0.00000000 2.13417500 -1.0671890499999996 0 0 0
Ni 5.89529027 8.50912646 1.17068685
Ni 5.71486347 2.13707748 3.13635298
Ni 0.00000000 4.26835000 -3.2013031199999986 0 0 0
Ni 0.00000000 6.40252500 -1.0671890499999996 0 0 0
Ni 5.89456590 4.29524061 1.17015880
Ni 0.04346179 6.40030546 2.98533068
Ni 3.01818000 0.00000000 -3.2013031199999986 0 0 0
Ni 3.01818000 2.13417500 -1.0671890499999996 0 0 0
Ni 3.15297192 8.50895572 1.16936673
Ni 3.33774490 2.13707748 3.13661700
Ni 3.01818000 4.26835000 -3.2013031199999986 0 0 0
Ni 3.01818000 6.40252500 -1.0671890499999996 0 0 0
Ni 3.15345483 4.29532597 1.16910270
Ni 2.97441639 6.40039083 2.98559470
C 1.50764127 2.13391890 3.31298570
