&CONTROL
calculation = 'relax'
prefix = 'scf'
pseudo_dir = '/vol0004/mdt0/data/hp150275/u10028/POT_KKJUS'
outdir = './data'
tprnfor = .true.
nstep = 50
disk_io = 'non'
/
&SYSTEM
ibrav = 0
ecutwfc = 50.0
ecutrho = 400
occupations = 'smearing'
smearing = 'mp'
degauss = 0.01
assume_isolated = 'esm'
esm_bc = 'bc1'
input_dft = 'BEEF-VDW'
nosym = .true.
nspin = 1
ntyp = 2
nat = 32
/
&ELECTRONS
electron_maxstep = 200
mixing_beta = 0.1
conv_thr = 1e-06
/
&IONS
ion_dynamics = 'bfgs'
upscale = 1.0
/
&CELL
/

K_POINTS {automatic}
8 6 1 0 0 0

ATOMIC_SPECIES
Ru 101.0 Ru.pbe-spn-rrkjus_psl.1.0.0.UPF
Sc 44.95 Sc.pbe-spn-rrkjus_psl.1.0.0.UPF

CELL_PARAMETERS {angstrom}
6.43815000 0.00000000 0.00000000
0.00000000 9.10491000 0.00000000
0.00000000 0.00000000 26.82870000

ATOMIC_POSITIONS {angstrom}
Sc 1.60953750 2.27622750 -3.4142203600000016 0 0 0
Sc 1.60953750 0.00000000 -1.1380734500000003 0 0 0
Sc 1.60953750 2.27613645 1.13941489
Sc 1.60953750 0.00018210 3.36405069
Sc 1.60953750 6.82868250 -3.4142203600000016 0 0 0
Sc 1.60953750 4.55245500 -1.1380734500000003 0 0 0
Sc 1.60953750 6.82868250 1.13968318
Sc 1.60953750 4.55227290 3.36378241
Sc 4.82861250 2.27622750 -3.4142203600000016 0 0 0
Sc 4.82861250 0.00000000 -1.1380734500000003 0 0 0
Sc 4.82861250 2.27622750 1.13914660
Sc 4.82867688 0.00018210 3.36405069
Sc 4.82861250 6.82868250 -3.4142203600000016 0 0 0
Sc 4.82861250 4.55245500 -1.1380734500000003 0 0 0
Sc 4.82867688 6.82868250 1.13968318
Sc 4.82861250 4.55236395 3.36378241
Ru 0.00000000 0.00000000 -3.4142203600000016 0 0 0
Ru 0.00000000 2.27622750 -1.1380734500000003 0 0 0
Ru 0.00006438 0.00009105 1.15631697
Ru 6.43808562 2.27631855 3.35224607
Ru 0.00000000 4.55245500 -3.4142203600000016 0 0 0
Ru 0.00000000 6.82868250 -1.1380734500000003 0 0 0
Ru 0.00000000 4.55227290 1.15604868
Ru 0.00006438 6.82868250 3.35224607
Ru 3.21907500 0.00000000 -3.4142203600000016 0 0 0
Ru 3.21907500 2.27622750 -1.1380734500000003 0 0 0
Ru 3.21907500 0.00009105 1.15631697
Ru 3.21913938 2.27622750 3.35224607
Ru 3.21907500 4.55245500 -3.4142203600000016 0 0 0
Ru 3.21907500 6.82868250 -1.1380734500000003 0 0 0
Ru 3.21907500 4.55236395 1.15604868
Ru 3.21907500 6.82877355 3.35224607
