&CONTROL
calculation = 'relax'
prefix = 'scf'
pseudo_dir = '/vol0004/mdt0/data/hp150275/u10028/POT_HYBRID_KKJUS_GBRV'
outdir = './data'
tprnfor = .true.
nstep = 50
disk_io = 'non'
/
&SYSTEM
ibrav = 0
ecutwfc = 50.0
ecutrho = 400
occupations = 'smearing'
smearing = 'mp'
degauss = 0.01
assume_isolated = 'esm'
esm_bc = 'bc1'
input_dft = 'BEEF-VDW'
nosym = .true.
nspin = 2
ntyp = 3
nat = 17
starting_magnetization(1) = 0.1
starting_magnetization(2) = 0.1
starting_magnetization(3) = 0.1
/
&ELECTRONS
electron_maxstep = 200
mixing_beta = 0.1
conv_thr = 1e-06
/
&IONS
ion_dynamics = 'bfgs'
upscale = 1.0
/
&CELL
/

K_POINTS {automatic}
10 10 2 0  0  0

ATOMIC_SPECIES
C 12.01 C.pbe-n-rrkjus_psl.1.0.0.UPF
Ni 58.69 ni_pbe_v1.4.uspp.F.UPF
Sb 121.7 Sb.pbe-n-rrkjus_psl.1.0.0.UPF

CELL_PARAMETERS {angstrom}
5.96127000 0.00000000 0.00000000
-0.00000000 5.96127000 0.00000000
0.00000000 0.00000000 24.47100000

ATOMIC_POSITIONS {angstrom}
Ni 1.49031750 1.49031750 0.74514195
Ni 4.47095250 4.47095250 -2.2354258499999986 0 0 0
Ni 4.47095250 1.49031750 0.74514195
Ni 1.49031750 4.47095250 -2.2354258499999986 0 0 0
Ni 4.47095250 4.47095250 0.74514195
Ni 1.49031750 1.49031750 -2.2354258499999986 0 0 0
Ni 1.49031750 4.47095250 0.74514195
Ni 4.47095250 1.49031750 -2.2354258499999986 0 0 0
Ni 0.00000000 0.00000000 -0.7451419500000007 0 0 0
Ni 2.98063500 -0.00000000 2.23542585
Ni 0.00000000 2.98063500 2.23542585
Ni 2.98063500 2.98063500 -0.7451419500000007 0 0 0
Sb 0.00000000 0.00000000 2.23542585
Sb 2.98063500 2.98063500 2.23542585
Sb 2.98063500 0.00000000 -0.7451419500000007 0 0 0
Sb 0.00000000 2.98063500 -0.7451419500000007 0 0 0
C 1.49031750 1.49031750 3.03538284
