&CONTROL
calculation = 'relax'
prefix = 'scf'
pseudo_dir = '/vol0004/mdt0/data/hp150275/u10028/POT_KKJUS'
outdir = './data'
tprnfor = .true.
nstep = 50
disk_io = 'non'
/
&SYSTEM
ibrav = 0
ecutwfc = 50.0
ecutrho = 400
occupations = 'smearing'
smearing = 'mp'
degauss = 0.01
assume_isolated = 'esm'
esm_bc = 'bc1'
input_dft = 'BEEF-VDW'
nosym = .true.
nspin = 1
ntyp = 4
nat = 33
/
&ELECTRONS
electron_maxstep = 200
mixing_beta = 0.1
conv_thr = 1e-06
/
&IONS
ion_dynamics = 'bfgs'
upscale = 1.0
/
&CELL
/

K_POINTS {automatic}
8 6 1 0 0 0

ATOMIC_SPECIES
Al 26.98 Al.pbe-nl-rrkjus_psl.1.0.0.UPF
C 12.01 C.pbe-n-rrkjus_psl.1.0.0.UPF
Ni 58.69 Ni.pbe-spn-rrkjus_psl.1.0.0.UPF
Ta 180.9 Ta.pbe-spn-rrkjus_psl.1.0.0.UPF

CELL_PARAMETERS {angstrom}
6.00328000 0.00000000 0.00000000
0.00000000 8.48992000 0.00000000
0.00000000 0.00000000 26.36740000

ATOMIC_POSITIONS {angstrom}
Ta 0.00000000 0.00000000 -3.183599879999999 0 0 0
Ta 3.00164000 2.12248000 -1.0612878499999994 0 0 0
Ta 3.00164000 6.36744000 -1.0612878499999994 0 0 0
Ta 0.00000000 4.24496000 -3.183599879999999 0 0 0
Ta 0.00000000 4.24496000 1.06471561
Ta 3.00164000 6.46329120 3.25874697
Ta 3.00164000 2.02671370 3.25874697
Ta 0.00000000 0.00000000 1.01830899
Al 0.00000000 6.36744000 -1.0612878499999994 0 0 0
Al 3.00164000 0.00000000 -3.183599879999999 0 0 0
Al 0.00000000 2.12248000 -1.0612878499999994 0 0 0
Al 3.00164000 4.24496000 -3.183599879999999 0 0 0
Al 0.00000000 2.17630609 3.15934187
Al 3.00164000 4.24496000 1.06998909
Al 0.00000000 6.31369881 3.15934187
Al 3.00164000 0.00000000 1.09688384
Ni 1.50082000 0.00000000 -1.0612878499999994 0 0 0
Ni 4.50246000 4.24496000 -1.0612878499999994 0 0 0
Ni 4.50246000 0.00000000 -1.0612878499999994 0 0 0
Ni 1.50082000 4.24496000 -1.0612878499999994 0 0 0
Ni 4.50246000 6.36744000 -3.183599879999999 0 0 0
Ni 1.50082000 2.12248000 -3.183599879999999 0 0 0
Ni 1.50082000 6.36744000 -3.183599879999999 0 0 0
Ni 4.50246000 2.12248000 -3.183599879999999 0 0 0
Ni 1.52717440 4.24496000 3.07628456
Ni 4.76084117 0.00000000 3.12400955
Ni 4.47610560 4.24504490 3.07628456
Ni 1.24243883 0.00000000 3.12400955
Ni 4.40904896 2.12434778 1.10321202
Ni 1.59411097 6.36565712 1.10321202
Ni 1.59423104 2.12434778 1.10321202
Ni 4.40922906 6.36565712 1.10321202
C 3.00164000 0.00000000 3.83039220
