&CONTROL
calculation = 'relax'
prefix = 'scf'
pseudo_dir = '/vol0004/mdt0/data/hp150275/u10028/POT_KKJUS'
outdir = './data'
tprnfor = .true.
nstep = 50
disk_io = 'non'
/
&SYSTEM
ibrav = 0
ecutwfc = 50.0
ecutrho = 400
occupations = 'smearing'
smearing = 'mp'
degauss = 0.01
assume_isolated = 'esm'
esm_bc = 'bc1'
input_dft = 'BEEF-VDW'
nosym = .true.
nspin = 1
ntyp = 4
nat = 18
/
&ELECTRONS
electron_maxstep = 200
mixing_beta = 0.1
conv_thr = 1e-06
/
&IONS
ion_dynamics = 'bfgs'
upscale = 1.0
/
&CELL
/

K_POINTS {automatic}
8 11 2 0  0  0

ATOMIC_SPECIES
C 12.01 C.pbe-n-rrkjus_psl.1.0.0.UPF
O 15.99 O.pbe-n-rrkjus_psl.1.0.0.UPF
Pt 195.0 Pt.pbe-n-rrkjus_psl.1.0.0.UPF
V 50.94 V.pbe-spnl-rrkjus_psl.1.0.0.UPF

CELL_PARAMETERS {angstrom}
7.64728000 0.00000000 0.00000000
0.00000000 5.40744000 0.00000000
0.00000000 0.00000000 24.05560000

ATOMIC_POSITIONS {angstrom}
V 0.00015295 2.70366593 1.88692126
V 1.89461362 4.05206516 0.68366015
V 1.89461362 1.35532076 0.68366015
V 0.00000000 0.00000000 -0.6759623599999998 0 0 0
V 1.91182000 1.35186000 -2.0278870799999993 0 0 0
V 1.91182000 4.05558000 -2.0278870799999993 0 0 0
V 3.82348705 2.70366593 1.80248611
V 5.75266638 4.05206516 0.68366015
V 5.75274285 1.35537484 0.68341960
V 3.82364000 0.00000000 -0.6759623599999998 0 0 0
V 5.73546000 1.35186000 -2.0278870799999993 0 0 0
V 5.73546000 4.05558000 -2.0278870799999993 0 0 0
Pt 7.64697411 0.00000000 1.99805814
Pt 0.00000000 2.70372000 -0.6759623599999998 0 0 0
Pt 3.82394589 0.00000000 1.95139027
Pt 3.82364000 2.70372000 -0.6759623599999998 0 0 0
C 0.00000000 2.70372000 3.94944841
O 0.00000000 2.70372000 5.10147109
