&CONTROL
calculation = 'relax'
prefix = 'scf'
pseudo_dir = '/vol0004/mdt0/data/hp150275/u10028/POT_HYBRID_KKJUS_GBRV'
outdir = './data'
tprnfor = .true.
nstep = 50
disk_io = 'non'
/
&SYSTEM
ibrav = 0
ecutwfc = 50.0
ecutrho = 400
occupations = 'smearing'
smearing = 'mp'
degauss = 0.01
assume_isolated = 'esm'
esm_bc = 'bc1'
input_dft = 'BEEF-VDW'
nosym = .true.
nspin = 2
ntyp = 4
nat = 17
starting_magnetization(1) = 0.1
starting_magnetization(2) = 0.1
starting_magnetization(3) = 0.1
starting_magnetization(4) = 0.1
/
&ELECTRONS
electron_maxstep = 200
mixing_beta = 0.1
conv_thr = 1e-06
/
&IONS
ion_dynamics = 'bfgs'
upscale = 1.0
/
&CELL
/

K_POINTS {automatic}
8 8 1 0 0 0

ATOMIC_SPECIES
C 12.01 C.pbe-n-rrkjus_psl.1.0.0.UPF
Ge 72.64 Ge.pbe-dn-rrkjus_psl.1.0.0.UPF
Ni 58.69 ni_pbe_v1.4.uspp.F.UPF
Zn 65.40 Zn.pbe-dnl-rrkjus_psl.1.0.0.UPF

CELL_PARAMETERS {angstrom}
5.88011000 0.00000000 0.00000000
-0.00000000 5.88011000 0.00000000
0.00000000 0.00000000 24.41010000

ATOMIC_POSITIONS {angstrom}
Zn 0.00000000 0.00000000 -2.2049643299999993 0 0 0
Zn 2.94005500 2.94005500 -2.2049643299999993 0 0 0
Zn 2.94005500 -0.00000000 0.73498811
Zn 0.00000000 2.94005500 0.73498811
Ni 1.47002750 1.47002750 -0.7349881099999998 0 0 0
Ni 4.41008250 4.41008250 2.20496433
Ni 4.41008250 1.47002750 -0.7349881099999998 0 0 0
Ni 1.47002750 4.41008250 2.20496433
Ni 4.41008250 4.41008250 -0.7349881099999998 0 0 0
Ni 1.47002750 1.47002750 2.20496433
Ni 1.47002750 4.41008250 -0.7349881099999998 0 0 0
Ni 4.41008250 1.47002750 2.20496433
Ge 0.00000000 0.00000000 0.73498811
Ge 2.94005500 0.00000000 -2.2049643299999993 0 0 0
Ge 0.00000000 2.94005500 -2.2049643299999993 0 0 0
Ge 2.94005500 2.94005500 0.73498811
C 0.00000000 0.00000000 3.00512741
