&CONTROL
calculation = 'relax'
prefix = 'scf'
pseudo_dir = '/vol0004/mdt0/data/hp150275/u10028/POT_KKJUS'
outdir = './data'
tprnfor = .true.
nstep = 50
disk_io = 'non'
/
&SYSTEM
ibrav = 0
ecutwfc = 50.0
ecutrho = 400
occupations = 'smearing'
smearing = 'mp'
degauss = 0.01
assume_isolated = 'esm'
esm_bc = 'bc1'
input_dft = 'BEEF-VDW'
nosym = .true.
nspin = 1
ntyp = 4
nat = 18
/
&ELECTRONS
electron_maxstep = 200
mixing_beta = 0.1
conv_thr = 1e-06
/
&IONS
ion_dynamics = 'bfgs'
upscale = 1.0
/
&CELL
/

K_POINTS {automatic}
8 11 2 0  0  0

ATOMIC_SPECIES
C 12.01 C.pbe-n-rrkjus_psl.1.0.0.UPF
Hf 178.4 Hf.pbe-spn-rrkjus_psl.1.0.0.UPF
O 15.99 O.pbe-n-rrkjus_psl.1.0.0.UPF
Rh 102.9 Rh.pbe-spn-rrkjus_psl.1.0.0.UPF

CELL_PARAMETERS {angstrom}
7.89713000 0.00000000 0.00000000
0.00000000 5.58411000 0.00000000
0.00000000 0.00000000 24.18810000

ATOMIC_POSITIONS {angstrom}
Hf 0.00007897 0.00000000 1.90094278
Hf 0.00000000 2.79205500 -0.6980685700000002 0 0 0
Hf 3.94848603 0.00000000 1.83974689
Hf 3.94856500 2.79205500 -0.6980685700000002 0 0 0
Rh 0.00000000 2.79205500 2.02938159
Rh 1.96298960 4.17294956 0.71354895
Rh 1.96298960 1.41116044 0.71354895
Rh 0.00000000 0.00000000 -0.6980685700000002 0 0 0
Rh 1.97428250 1.39602750 -2.093963819999999 0 0 0
Rh 1.97428250 4.18808250 -2.093963819999999 0 0 0
Rh 3.94848603 2.79205500 1.98245668
Rh 5.93414040 4.17294956 0.71354895
Rh 5.93414040 1.41116044 0.71354895
Rh 3.94856500 0.00000000 -0.6980685700000002 0 0 0
Rh 5.92284750 1.39602750 -2.093963819999999 0 0 0
Rh 5.92284750 4.18808250 -2.093963819999999 0 0 0
C 0.00000000 0.00000000 4.25879877
O 0.00000000 0.00000000 5.40531471
