&CONTROL
calculation = 'relax'
prefix = 'scf'
pseudo_dir = '/vol0403/data/hp230205/u10028/POT_HYBRID_KKJUS_GBRV'
outdir = './data'
tprnfor = .true.
nstep = 50
disk_io = 'non'
/
&SYSTEM
ibrav = 0
ecutwfc = 50.0
ecutrho = 400
occupations = 'smearing'
smearing = 'mp'
degauss = 0.01
assume_isolated = 'esm'
esm_bc = 'bc1'
input_dft = 'BEEF-VDW'
nosym = .true.
nspin = 1
ntyp = 6
nat = 34
/
&ELECTRONS
electron_maxstep = 200
mixing_beta = 0.1
conv_thr = 1e-06
/
&IONS
ion_dynamics = 'bfgs'
upscale = 1.0
/
&CELL
/

K_POINTS {automatic}
6 6 1 0 0 0

ATOMIC_SPECIES
Ag 107.8 Ag.pbe-n-rrkjus_psl.1.0.0.UPF
C 12.01 C.pbe-n-rrkjus_psl.1.0.0.UPF
In 114.8 In.pbe-dn-rrkjus_psl.1.0.0.UPF
Li 6.941 Li.pbe-sl-rrkjus_psl.1.0.0.UPF
Mg 24.30 Mg.pbe-spnl-rrkjus_psl.1.0.0.UPF
O 15.99 O.pbe-n-rrkjus_psl.1.0.0.UPF


CELL_PARAMETERS {angstrom}
6.69019000 0.00000000 0.00000000
0.00000000 9.46136000 0.00000000
0.00000000 0.00000000 27.09600000

ATOMIC_POSITIONS {angstrom}
Li 0.00000000 2.36534000 -1.1827404000000001 0 0 0
Li 0.00000000 7.09602000 -1.1827404000000001 0 0 0
Li 3.34509500 4.73068000 -3.5479502399999987 0 0 0
Li 3.34509500 0.00000000 -3.5479502399999987 0 0 0
Li 6.66035175 7.09592539 4.29092256
Li 0.18357881 2.36524539 4.47869784
Li 3.31391871 0.00056768 1.25075136
Li 3.31398562 4.73011232 1.25048040
Mg 5.01764250 0.00000000 -1.1827404000000001 0 0 0
Mg 5.01764250 4.73068000 -1.1827404000000001 0 0 0
Mg 1.67254750 2.36534000 -3.5479502399999987 0 0 0
Mg 1.67254750 7.09602000 -3.5479502399999987 0 0 0
Mg 5.01369529 4.68554931 3.67394664
Mg 5.01416360 0.04522530 3.67394664
Mg 1.61588159 7.09592539 1.50193128
Mg 1.58022288 2.36543461 1.43256552
In 1.67254750 0.00000000 -1.1827404000000001 0 0 0
In 1.67254750 4.73068000 -1.1827404000000001 0 0 0
In 5.01764250 2.36534000 -3.5479502399999987 0 0 0
In 5.01764250 7.09602000 -3.5479502399999987 0 0 0
In 1.60256811 4.78224441 3.82161984
In 1.60276882 9.40970097 3.82189080
In 5.00646988 7.09602000 1.35615480
In 5.00780792 2.36534000 1.41522408
Ag 0.00000000 0.00000000 -3.5479502399999987 0 0 0
Ag 0.00000000 4.73068000 -3.5479502399999987 0 0 0
Ag 3.34509500 7.09602000 -1.1827404000000001 0 0 0
Ag 3.34509500 2.36534000 -1.1827404000000001 0 0 0
Ag 0.01873253 4.74600740 1.17108912
Ag 0.01900014 9.44603260 1.17108912
Ag 3.24327031 2.36534000 3.74710584
Ag 3.41487368 7.09620923 3.77176320
C 6.40003646 2.36524539 6.48678240
O 6.11396394 2.36524539 7.58986056
