&CONTROL
calculation = 'relax'
prefix = 'scf'
pseudo_dir = '/vol0004/mdt0/data/hp150275/u10028/POT_KKJUS'
outdir = './data'
tprnfor = .true.
nstep = 50
disk_io = 'non'
/
&SYSTEM
ibrav = 0
ecutwfc = 50.0
ecutrho = 400
occupations = 'smearing'
smearing = 'mp'
degauss = 0.01
assume_isolated = 'esm'
esm_bc = 'bc1'
input_dft = 'BEEF-VDW'
nosym = .true.
nspin = 1
ntyp = 3
nat = 34
/
&ELECTRONS
electron_maxstep = 200
mixing_beta = 0.1
conv_thr = 1e-06
/
&IONS
ion_dynamics = 'bfgs'
upscale = 1.0
/
&CELL
/

K_POINTS {automatic}
7 7 2 0  0  0

ATOMIC_SPECIES
Au 196.9 Au.pbe-n-rrkjus_psl.1.0.0.UPF
C 12.01 C.pbe-n-rrkjus_psl.1.0.0.UPF
O 15.99 O.pbe-n-rrkjus_psl.1.0.0.UPF

CELL_PARAMETERS {angstrom}
8.46843000 0.00000000 0.00000000
-0.00000000 8.46843000 0.00000000
0.00000000 0.00000000 26.35130000

ATOMIC_POSITIONS {angstrom}
Au 0.00000000 0.00000000 -3.1755951599999968 0 0 0
Au 2.11710750 2.11710750 -3.1755951599999968 0 0 0
Au 2.11710750 0.00000000 -1.0585317199999977 0 0 0
Au 0.00000000 2.11710750 -1.0585317199999977 0 0 0
Au 0.00000000 0.00000000 1.05853172
Au 2.11710750 2.11710750 1.05853172
Au 2.11710750 -0.00000000 3.17559516
Au 0.00000000 2.11710750 3.17559516
Au 0.00000000 4.23421500 -3.1755951599999968 0 0 0
Au 2.11710750 6.35132250 -3.1755951599999968 0 0 0
Au 2.11710750 4.23421500 -1.0585317199999977 0 0 0
Au 0.00000000 6.35132250 -1.0585317199999977 0 0 0
Au 0.00000000 4.23421500 1.05853172
Au 2.11710750 6.35132250 1.05853172
Au 2.11710750 4.23421500 3.17559516
Au 0.00000000 6.35132250 3.17559516
Au 4.23421500 0.00000000 -3.1755951599999968 0 0 0
Au 6.35132250 2.11710750 -3.1755951599999968 0 0 0
Au 6.35132250 0.00000000 -1.0585317199999977 0 0 0
Au 4.23421500 2.11710750 -1.0585317199999977 0 0 0
Au 4.23421500 -0.00000000 1.05853172
Au 6.35132250 2.11710750 1.05853172
Au 6.35132250 -0.00000000 3.17559516
Au 4.23421500 2.11710750 3.17559516
Au 4.23421500 4.23421500 -3.1755951599999968 0 0 0
Au 6.35132250 6.35132250 -3.1755951599999968 0 0 0
Au 6.35132250 4.23421500 -1.0585317199999977 0 0 0
Au 4.23421500 6.35132250 -1.0585317199999977 0 0 0
Au 4.23421500 4.23421500 1.05853172
Au 6.35132250 6.35132250 1.05853172
Au 6.35132250 4.23421500 3.17559516
Au 4.23421500 6.35132250 3.17559516
C 2.11710750 -0.00000000 5.07578741
O 2.11710750 -0.00000000 6.22575814
