&CONTROL
calculation = 'relax'
prefix = 'scf'
pseudo_dir = '/vol0004/mdt0/data/hp150275/u10028/POT_KKJUS'
outdir = './data'
tprnfor = .true.
nstep = 50
disk_io = 'non'
/
&SYSTEM
ibrav = 0
ecutwfc = 50.0
ecutrho = 400
occupations = 'smearing'
smearing = 'mp'
degauss = 0.01
assume_isolated = 'esm'
esm_bc = 'bc1'
input_dft = 'BEEF-VDW'
nosym = .true.
nspin = 1
ntyp = 4
nat = 18
/
&ELECTRONS
electron_maxstep = 200
mixing_beta = 0.1
conv_thr = 1e-06
/
&IONS
ion_dynamics = 'bfgs'
upscale = 1.0
/
&CELL
/

K_POINTS {automatic}
6 8 1 0 0 0

ATOMIC_SPECIES
C 12.01 C.pbe-n-rrkjus_psl.1.0.0.UPF
Nb 92.90 Nb.pbe-spn-rrkjus_psl.1.0.0.UPF
O 15.99 O.pbe-n-rrkjus_psl.1.0.0.UPF
Si 28.08 Si.pbe-nl-rrkjus_psl.1.0.0.UPF

CELL_PARAMETERS {angstrom}
8.14544000 0.00000000 0.00000000
0.00000000 5.75970000 0.00000000
0.00000000 0.00000000 24.31980000

ATOMIC_POSITIONS {angstrom}
Nb 0.00000000 2.87985000 -2.159841440000001 0 0 0
Nb 2.03636000 4.31977500 -0.7198660799999992 0 0 0
Nb 2.03636000 1.43992500 -0.7198660799999992 0 0 0
Nb 8.12483204 5.45973482 0.70430141
Nb 2.03636000 0.98675180 2.15059991
Nb 2.03627855 3.69283165 2.07423574
Nb 4.07272000 2.87985000 -2.159841440000001 0 0 0
Nb 6.10908000 4.31977500 -0.7198660799999992 0 0 0
Nb 6.10908000 1.43992500 -0.7198660799999992 0 0 0
Nb 4.09340942 5.45973482 0.70454461
Nb 6.10924291 1.08576105 2.08080209
Nb 6.10916145 3.63126046 1.92977613
Si 0.00000000 0.00000000 -2.159841440000001 0 0 0
Si 0.02761304 2.62521366 0.62501886
Si 4.07272000 0.00000000 -2.159841440000001 0 0 0
Si 4.04502550 2.62527126 0.62501886
C 2.03636000 2.19870788 3.83474606
O 2.03636000 3.15666118 4.57309519
