&CONTROL
calculation = 'relax'
prefix = 'scf'
pseudo_dir = '/vol0004/mdt0/data/hp150275/u10028/POT_KKJUS'
outdir = './data'
tprnfor = .true.
nstep = 50
disk_io = 'non'
/
&SYSTEM
ibrav = 0
ecutwfc = 50.0
ecutrho = 400
occupations = 'smearing'
smearing = 'mp'
degauss = 0.01
assume_isolated = 'esm'
esm_bc = 'bc1'
input_dft = 'BEEF-VDW'
nosym = .true.
nspin = 1
ntyp = 3
nat = 33
/
&ELECTRONS
electron_maxstep = 200
mixing_beta = 0.1
conv_thr = 1e-06
/
&IONS
ion_dynamics = 'bfgs'
upscale = 1.0
/
&CELL
/

K_POINTS {automatic}
8 6 1 0 0 0

ATOMIC_SPECIES
Ag 107.8 Ag.pbe-n-rrkjus_psl.1.0.0.UPF
C 12.01 C.pbe-n-rrkjus_psl.1.0.0.UPF
In 114.8 In.pbe-dn-rrkjus_psl.1.0.0.UPF

CELL_PARAMETERS {angstrom}
7.14855000 0.00000000 0.00000000
0.00000000 10.10960000 0.00000000
0.00000000 0.00000000 27.58220000

ATOMIC_POSITIONS {angstrom}
In 1.78713750 2.52740000 -3.791173390000001 0 0 0
In 1.78713750 0.00000000 -1.2638163999999996 0 0 0
In 1.78713750 2.52932082 1.34408061
In 1.78713750 4.87131076 4.09761163
In 1.78713750 7.58220000 -3.791173390000001 0 0 0
In 1.78713750 5.05480000 -1.2638163999999996 0 0 0
In 1.78713750 7.58199781 1.12452629
In 1.78713750 0.18995938 4.10450718
In 5.36141250 2.52740000 -3.791173390000001 0 0 0
In 5.36141250 0.00000000 -1.2638163999999996 0 0 0
In 5.36141250 2.52719781 1.24616380
In 5.36141250 5.28034518 3.99114434
In 5.36141250 7.58220000 -3.791173390000001 0 0 0
In 5.36141250 5.05480000 -1.2638163999999996 0 0 0
In 5.36141250 7.58351425 1.33773670
In 5.36141250 9.87990989 3.99142016
Ag 0.00000000 0.00000000 -3.791173390000001 0 0 0
Ag 0.00000000 2.52740000 -1.2638163999999996 0 0 0
Ag 0.01172362 5.07107646 1.30243148
Ag 6.73000240 2.52426602 3.97045769
Ag 0.00000000 5.05480000 -3.791173390000001 0 0 0
Ag 0.00000000 7.58220000 -1.2638163999999996 0 0 0
Ag 0.01586978 10.09382902 1.30546553
Ag 0.25870602 7.58088575 3.67477651
Ag 3.57427500 0.00000000 -3.791173390000001 0 0 0
Ag 3.57427500 2.52740000 -1.2638163999999996 0 0 0
Ag 3.56255138 5.07107646 1.30243148
Ag 3.99282260 2.52426602 3.97045769
Ag 3.57427500 5.05480000 -3.791173390000001 0 0 0
Ag 3.57427500 7.58220000 -1.2638163999999996 0 0 0
Ag 3.55840522 10.09382902 1.30546553
Ag 3.31556898 7.58088575 3.67477651
C 1.78713750 2.53649864 3.67339740
