&CONTROL
calculation = 'relax'
prefix = 'scf'
pseudo_dir = '/vol0403/data/hp230205/u10028/POT_HYBRID_KKJUS_GBRV'
outdir = './data'
tprnfor = .true.
nstep = 70
disk_io = 'non'
/
&SYSTEM
ibrav = 0
ecutwfc = 50.0
ecutrho = 400
occupations = 'smearing'
smearing = 'mp'
degauss = 0.01
assume_isolated = 'esm'
esm_bc = 'bc1'
input_dft = 'BEEF-VDW'
nosym = .true.
nspin = 1
ntyp = 5
nat = 17
/
&ELECTRONS
electron_maxstep = 200
mixing_beta = 0.1
conv_thr = 1e-06
/
&IONS
ion_dynamics = 'bfgs'
upscale = 1.0
/
&CELL
/

K_POINTS {automatic}
6 6 1 0 0 0

ATOMIC_SPECIES
Al 26.98 Al.pbe-nl-rrkjus_psl.1.0.0.UPF
C 12.01 C.pbe-n-rrkjus_psl.1.0.0.UPF
In 114.8 In.pbe-dn-rrkjus_psl.1.0.0.UPF
Pd 106.4 Pd.pbe-n-rrkjus_psl.1.0.0.UPF
Y 88.90 Y.pbe-spn-rrkjus_psl.1.0.0.UPF


CELL_PARAMETERS {angstrom}
6.02485000 0.00000000 0.00000000
-0.00000000 9.21652000 0.00000000
0.00000000 0.00000000 24.50330000

ATOMIC_POSITIONS {angstrom}
Y 1.48211310 2.30413000 0.59959575
Y 4.14618127 2.30413000 -2.2516082399999995 0 0 0
Y 1.01994686 6.91239000 1.00341013
Y 4.14618127 6.91239000 -2.2516082399999995 0 0 0
Al 6.01448726 0.41133329 2.50374719
Al 2.76414093 0.00000000 -0.7505360799999998 0 0 0
Al 6.01442701 4.19692671 2.50374719
Al 2.76414093 4.60826000 -0.7505360799999998 0 0 0
In 3.24564694 9.09449328 2.18005860
In 5.77656593 0.00000000 -0.7505360799999998 0 0 0
In 3.24564694 4.73028672 2.18005860
In 5.77656593 4.60826000 -0.7505360799999998 0 0 0
Pd 4.39060944 2.30413000 0.72921821
Pd 1.13375627 2.30413000 -2.2516082399999995 0 0 0
Pd 3.94489103 6.91239000 0.41067531
Pd 1.13375627 6.91239000 -2.2516082399999995 0 0 0
C 0.05283793 2.30413000 2.42607173
