&CONTROL
calculation = 'relax'
prefix = 'scf'
pseudo_dir = '/vol0403/data/hp230205/u10028/POT_HYBRID_KKJUS_GBRV'
outdir = './data'
tprnfor = .true.
nstep = 50
disk_io = 'non'
/
&SYSTEM
ibrav = 0
ecutwfc = 50.0
ecutrho = 400
occupations = 'smearing'
smearing = 'mp'
degauss = 0.01
assume_isolated = 'esm'
esm_bc = 'bc1'
input_dft = 'BEEF-VDW'
nosym = .true.
nspin = 1
ntyp = 6
nat = 34
/
&ELECTRONS
electron_maxstep = 200
mixing_beta = 0.1
conv_thr = 1e-06
/
&IONS
ion_dynamics = 'bfgs'
upscale = 1.0
/
&CELL
/

K_POINTS {automatic}
9 6 2 0  0  0

ATOMIC_SPECIES
Ag 107.8 Ag.pbe-n-rrkjus_psl.1.0.0.UPF
C 12.01 C.pbe-n-rrkjus_psl.1.0.0.UPF
Ge 72.64 Ge.pbe-dn-rrkjus_psl.1.0.0.UPF
Li 6.941 Li.pbe-sl-rrkjus_psl.1.0.0.UPF
O 15.99 O.pbe-n-rrkjus_psl.1.0.0.UPF
Pd 106.4 Pd.pbe-n-rrkjus_psl.1.0.0.UPF


CELL_PARAMETERS {angstrom}
6.28256000 0.00000000 0.00000000
0.00000000 8.88488000 0.00000000
0.00000000 0.00000000 26.66370000

ATOMIC_POSITIONS {angstrom}
Li 1.57064000 0.00000000 -1.1105430999999975 0 0 0
Li 1.57064000 4.44244000 -1.1105430999999975 0 0 0
Li 4.71192000 2.22122000 -3.33189595 0 0 0
Li 4.71192000 6.66366000 -3.33189595 0 0 0
Li 1.43908319 4.44244000 3.58306801
Li 1.52515427 0.00000000 3.50547664
Li 4.65248698 6.64206974 1.02175298
Li 4.65248698 2.24281026 1.02175298
Ag 0.00000000 0.00000000 -3.33189595 0 0 0
Ag 0.00000000 4.44244000 -3.33189595 0 0 0
Ag 3.14128000 6.66366000 -1.1105430999999975 0 0 0
Ag 3.14128000 2.22122000 -1.1105430999999975 0 0 0
Ag 6.24040402 4.44244000 1.16333723
Ag 0.02022984 0.00000000 1.09187851
Ag 3.24890025 2.18585818 3.35456010
Ag 3.24890025 6.69911067 3.35456010
Ge 4.71192000 0.00000000 -1.1105430999999975 0 0 0
Ge 4.71192000 4.44244000 -1.1105430999999975 0 0 0
Ge 1.57064000 2.22122000 -3.33189595 0 0 0
Ge 1.57064000 6.66366000 -3.33189595 0 0 0
Ge 4.86527729 4.44252885 3.54253918
Ge 4.83920467 0.00008885 3.68359015
Ge 1.60695320 6.61505971 1.13560698
Ge 1.60689037 2.26982029 1.13560698
Pd 0.00000000 2.22122000 -1.1105430999999975 0 0 0
Pd 0.00000000 6.66366000 -1.1105430999999975 0 0 0
Pd 3.14128000 4.44244000 -3.33189595 0 0 0
Pd 3.14128000 0.00000000 -3.33189595 0 0 0
Pd 6.18524315 6.70435275 3.08552336
Pd 6.18518032 2.18061610 3.08552336
Pd 3.05677957 0.00000000 1.03001873
Pd 3.12199254 4.44244000 1.44757227
C 4.81457703 0.00000000 5.71429755
O 4.69282102 0.00000000 6.86216983
