&CONTROL
calculation = 'relax'
prefix = 'scf'
pseudo_dir = '/vol0004/mdt0/data/hp150275/u10028/POT_KKJUS'
outdir = './data'
tprnfor = .true.
nstep = 50
disk_io = 'non'
/
&SYSTEM
ibrav = 0
ecutwfc = 50.0
ecutrho = 400
occupations = 'smearing'
smearing = 'mp'
degauss = 0.01
assume_isolated = 'esm'
esm_bc = 'bc1'
input_dft = 'BEEF-VDW'
nosym = .true.
nspin = 1
ntyp = 5
nat = 18
/
&ELECTRONS
electron_maxstep = 200
mixing_beta = 0.1
conv_thr = 1e-06
/
&IONS
ion_dynamics = 'bfgs'
upscale = 1.0
/
&CELL
/

K_POINTS {automatic}
9 9 2 0  0  0

ATOMIC_SPECIES
C 12.01 C.pbe-n-rrkjus_psl.1.0.0.UPF
In 114.8 In.pbe-dn-rrkjus_psl.1.0.0.UPF
O 15.99 O.pbe-n-rrkjus_psl.1.0.0.UPF
Pt 195.0 Pt.pbe-n-rrkjus_psl.1.0.0.UPF
Sc 44.95 Sc.pbe-spn-rrkjus_psl.1.0.0.UPF

CELL_PARAMETERS {angstrom}
6.63475000 0.00000000 0.00000000
0.00000000 6.63475000 0.00000000
0.00000000 0.00000000 24.97610000

ATOMIC_POSITIONS {angstrom}
Sc 0.00000000 0.00000000 -2.4881190800000006 0 0 0
Sc 3.31737500 3.31737500 -2.4881190800000006 0 0 0
Sc 3.36461442 6.58751058 0.90563339
Sc 6.58757693 3.36468077 0.90563339
In 6.63368844 6.63375479 0.87366398
In 3.31737500 0.00000000 -2.4881190800000006 0 0 0
In 0.00000000 3.31737500 -2.4881190800000006 0 0 0
In 3.31837021 3.31843656 0.87366398
Pt 1.65868750 1.65868750 -0.8294562799999987 0 0 0
Pt 4.97592980 4.97606250 2.35224910
Pt 4.97606250 1.65868750 -0.8294562799999987 0 0 0
Pt 1.65882020 4.97599615 2.30729212
Pt 4.97606250 4.97606250 -0.8294562799999987 0 0 0
Pt 1.65868750 1.65875385 2.36973237
Pt 1.65868750 4.97606250 -0.8294562799999987 0 0 0
Pt 4.97606250 1.65868750 2.30729212
C 1.65862115 1.65868750 4.28290163
O 1.65868750 1.65868750 5.43205199
