&CONTROL
calculation = 'relax'
prefix = 'scf'
pseudo_dir = '/vol0004/mdt0/data/hp150275/u10028/POT_KKJUS'
outdir = './data'
tprnfor = .true.
nstep = 50
disk_io = 'non'
/
&SYSTEM
ibrav = 0
ecutwfc = 50.0
ecutrho = 400
occupations = 'smearing'
smearing = 'mp'
degauss = 0.01
assume_isolated = 'esm'
esm_bc = 'bc1'
input_dft = 'BEEF-VDW'
nosym = .true.
nspin = 1
ntyp = 5
nat = 34
/
&ELECTRONS
electron_maxstep = 200
mixing_beta = 0.1
conv_thr = 1e-06
/
&IONS
ion_dynamics = 'bfgs'
upscale = 1.0
/
&CELL
/

K_POINTS {automatic}
8 6 1 0 0 0

ATOMIC_SPECIES
C 12.01 C.pbe-n-rrkjus_psl.1.0.0.UPF
Cu 63.54 Cu.pbe-dn-rrkjus_psl.1.0.0.UPF
Ni 58.69 Ni.pbe-spn-rrkjus_psl.1.0.0.UPF
O 15.99 O.pbe-n-rrkjus_psl.1.0.0.UPF
Sn 118.7 Sn.pbe-dn-rrkjus_psl.1.0.0.UPF

CELL_PARAMETERS {angstrom}
6.01864000 0.00000000 0.00000000
0.00000000 8.51164000 0.00000000
0.00000000 0.00000000 26.38370000

ATOMIC_POSITIONS {angstrom}
Cu 0.00000000 0.00000000 -3.1919000299999993 0 0 0
Cu 3.00932000 2.12791000 -1.0640546200000003 0 0 0
Cu 3.00932000 6.38373000 -1.0640546200000003 0 0 0
Cu 0.00000000 4.25582000 -3.1919000299999993 0 0 0
Cu 6.01857981 4.21973065 0.98543120
Cu 3.00932000 6.38509186 3.13332821
Cu 3.00919963 2.12714395 3.26999578
Cu 0.00012037 0.03617447 0.98490352
Ni 1.50466000 0.00000000 -1.0640546200000003 0 0 0
Ni 4.51398000 4.25582000 -1.0640546200000003 0 0 0
Ni 4.51398000 0.00000000 -1.0640546200000003 0 0 0
Ni 1.50466000 4.25582000 -1.0640546200000003 0 0 0
Ni 4.51398000 6.38373000 -3.1919000299999993 0 0 0
Ni 1.50466000 2.12791000 -3.1919000299999993 0 0 0
Ni 1.50466000 6.38373000 -3.1919000299999993 0 0 0
Ni 4.51398000 2.12791000 -3.1919000299999993 0 0 0
Ni 1.40499132 4.29318610 3.04969188
Ni 4.61515334 8.47469948 3.04890037
Ni 4.61346812 4.29301587 3.04995572
Ni 1.40378759 8.47452925 3.04916421
Ni 4.49875284 2.12791000 1.12579248
Ni 1.37862968 6.38381512 1.15455071
Ni 1.52012790 2.12799512 1.12579248
Ni 4.63995014 6.38390023 1.15455071
Sn 0.00000000 6.38373000 -1.0640546200000003 0 0 0
Sn 3.00932000 0.00000000 -3.1919000299999993 0 0 0
Sn 0.00000000 2.12791000 -1.0640546200000003 0 0 0
Sn 3.00932000 4.25582000 -3.1919000299999993 0 0 0
Sn 0.00006019 2.12773977 3.34413398
Sn 3.00938019 4.29480331 1.05719486
Sn 6.01839925 6.38449605 3.58422565
Sn 3.00919963 8.47308227 1.05693102
C 3.00932000 2.12765465 5.14561301
O 3.00932000 2.12791000 6.29304012
