&CONTROL
calculation = 'relax'
prefix = 'scf'
pseudo_dir = '/vol0004/mdt0/data/hp150275/u10028/POT_KKJUS'
outdir = './data'
tprnfor = .true.
nstep = 50
disk_io = 'non'
/
&SYSTEM
ibrav = 0
ecutwfc = 50.0
ecutrho = 400
occupations = 'smearing'
smearing = 'mp'
degauss = 0.01
assume_isolated = 'esm'
esm_bc = 'bc1'
input_dft = 'BEEF-VDW'
nosym = .true.
nspin = 1
ntyp = 5
nat = 18
/
&ELECTRONS
electron_maxstep = 200
mixing_beta = 0.1
conv_thr = 1e-06
/
&IONS
ion_dynamics = 'bfgs'
upscale = 1.0
/
&CELL
/

K_POINTS {automatic}
8 8 1 0 0 0

ATOMIC_SPECIES
C 12.01 C.pbe-n-rrkjus_psl.1.0.0.UPF
In 114.8 In.pbe-dn-rrkjus_psl.1.0.0.UPF
Li 6.941 Li.pbe-sl-rrkjus_psl.1.0.0.UPF
O 15.99 O.pbe-n-rrkjus_psl.1.0.0.UPF
Rh 102.9 Rh.pbe-spn-rrkjus_psl.1.0.0.UPF

CELL_PARAMETERS {angstrom}
6.34973000 0.00000000 0.00000000
0.00000000 6.34973000 0.00000000
0.00000000 0.00000000 24.76230000

ATOMIC_POSITIONS {angstrom}
Li 0.03378056 6.31582244 0.66610587
Li 3.17486500 0.00000000 -2.3811427700000003 0 0 0
Li 0.00000000 3.17486500 -2.3811427700000003 0 0 0
Li 3.14095744 3.20889955 0.66610587
Li 1.58736900 1.58749600 2.50767812
Li 1.58743250 4.76229750 -0.7936317200000005 0 0 0
Li 4.76223400 4.76236100 2.50792574
Li 4.76229750 1.58743250 -0.7936317200000005 0 0 0
In 1.58743250 1.58743250 -0.7936317200000005 0 0 0
In 1.58743250 4.76229750 2.47647762
In 4.76229750 4.76229750 -0.7936317200000005 0 0 0
In 4.76223400 1.58755949 2.36207580
Rh 0.00000000 0.00000000 -2.3811427700000003 0 0 0
Rh 3.17486500 3.17486500 -2.3811427700000003 0 0 0
Rh 3.15549832 6.33023633 0.93972928
Rh 0.01936668 3.19442217 0.93972928
C 4.76382144 1.58609906 6.43869325
O 4.76178952 1.58768649 7.57404470
