&CONTROL
calculation = 'relax'
prefix = 'scf'
pseudo_dir = '/vol0004/mdt0/data/hp150275/u10028/POT_HYBRID_KKJUS_GBRV'
outdir = './data'
tprnfor = .true.
nstep = 50
disk_io = 'non'
/
&SYSTEM
ibrav = 0
ecutwfc = 50.0
ecutrho = 400
occupations = 'smearing'
smearing = 'mp'
degauss = 0.01
assume_isolated = 'esm'
esm_bc = 'bc1'
input_dft = 'BEEF-VDW'
nosym = .true.
nspin = 2
ntyp = 5
nat = 34
starting_magnetization(1) = 0.0
starting_magnetization(2) = 0.1
starting_magnetization(3) = 0.0
starting_magnetization(4) = 0.0
starting_magnetization(5) = 0.0
/
&ELECTRONS
electron_maxstep = 300
mixing_beta = 0.1
conv_thr = 1e-06
/
&IONS
ion_dynamics = 'bfgs'
upscale = 1.0
/
&CELL
/

K_POINTS {automatic}
8 6 1 0 0 0

ATOMIC_SPECIES
C 12.01 C.pbe-n-rrkjus_psl.1.0.0.UPF
Co 58.93 co_pbe_v1.2.uspp.F.UPF
Ge 72.64 Ge.pbe-dn-rrkjus_psl.1.0.0.UPF
Li 6.941 Li.pbe-sl-rrkjus_psl.1.0.0.UPF
O 15.99 O.pbe-n-rrkjus_psl.1.0.0.UPF

CELL_PARAMETERS {angstrom}
5.64259000 0.00000000 0.00000000
0.00000000 7.97982000 0.00000000
0.00000000 0.00000000 25.98490000

ATOMIC_POSITIONS {angstrom}
Li 0.00000000 0.00000000 -2.9924210799999997 0 0 0
Li 2.82129500 1.99495500 -0.9975603100000008 0 0 0
Li 2.82129500 5.98486500 -0.9975603100000008 0 0 0
Li 0.00000000 3.98991000 -2.9924210799999997 0 0 0
Li 0.00005643 3.98432413 0.86945475
Li 2.82135143 5.98358823 3.85667886
Li 2.82129500 1.99240146 3.39648628
Li 0.00000000 0.00422930 0.86685626
Co 1.41064750 0.00000000 -0.9975603100000008 0 0 0
Co 4.23194250 3.98991000 -0.9975603100000008 0 0 0
Co 4.23194250 0.00000000 -0.9975603100000008 0 0 0
Co 1.41064750 3.98991000 -0.9975603100000008 0 0 0
Co 4.23194250 5.98486500 -2.9924210799999997 0 0 0
Co 1.41064750 1.99495500 -2.9924210799999997 0 0 0
Co 1.41064750 5.98486500 -2.9924210799999997 0 0 0
Co 4.23194250 1.99495500 -2.9924210799999997 0 0 0
Co 1.31105579 4.07481528 2.81598361
Co 4.33537117 7.88900965 2.81468437
Co 4.33153421 4.07449609 2.81598361
Co 1.30733168 7.88861066 2.81442452
Co 4.22488926 1.99487520 1.02406491
Co 1.43158151 5.98422661 1.25351158
Co 1.41781359 1.99455601 1.02432476
Co 4.21078279 5.98414682 1.25325173
Ge 0.00000000 5.98486500 -0.9975603100000008 0 0 0
Ge 2.82129500 0.00000000 -2.9924210799999997 0 0 0
Ge 0.00000000 1.99495500 -0.9975603100000008 0 0 0
Ge 2.82129500 3.98991000 -2.9924210799999997 0 0 0
Ge 5.64242072 1.99503480 2.97501120
Ge 2.82106930 3.93604622 0.93519655
Ge 0.00045141 5.97927913 3.42429012
Ge 2.82135143 0.05258701 0.93441700
C 0.00654540 1.94619830 6.98318203
O 5.60958085 2.04889858 8.11326533
