&CONTROL
calculation = 'relax'
prefix = 'scf'
pseudo_dir = '/vol0403/data/hp230205/u10028/POT_HYBRID_KKJUS_GBRV'
outdir = './data'
tprnfor = .true.
nstep = 50
disk_io = 'non'
/
&SYSTEM
ibrav = 0
ecutwfc = 50.0
ecutrho = 400
occupations = 'smearing'
smearing = 'mp'
degauss = 0.01
assume_isolated = 'esm'
esm_bc = 'bc1'
input_dft = 'BEEF-VDW'
nosym = .true.
nspin = 1
ntyp = 6
nat = 18
/
&ELECTRONS
electron_maxstep = 200
mixing_beta = 0.1
conv_thr = 1e-06
/
&IONS
ion_dynamics = 'bfgs'
upscale = 1.0
/
&CELL
/

K_POINTS {automatic}
6 6 1 0 0 0

ATOMIC_SPECIES
C 12.01 C.pbe-n-rrkjus_psl.1.0.0.UPF
In 114.8 In.pbe-dn-rrkjus_psl.1.0.0.UPF
O 15.99 O.pbe-n-rrkjus_psl.1.0.0.UPF
Pd 106.4 Pd.pbe-n-rrkjus_psl.1.0.0.UPF
Sc 44.95 Sc.pbe-spn-rrkjus_psl.1.0.0.UPF
Y 88.90 Y.pbe-spn-rrkjus_psl.1.0.0.UPF


CELL_PARAMETERS {angstrom}
6.06590000 0.00000000 0.00000000
0.00000000 10.11530000 0.00000000
0.00000000 0.00000000 24.38870000

ATOMIC_POSITIONS {angstrom}
Y 1.11697483 2.52882500 -0.7314171099999989 0 0 0
Y 3.18162521 2.52892615 2.16108271
Y 1.11697483 7.58647500 -0.7314171099999989 0 0 0
Y 3.25617512 7.58627269 2.10742757
Sc 3.03295000 0.00000000 -2.194251340000001 0 0 0
Sc 4.76573499 0.01921907 0.54581911
Sc 3.03295000 5.05765000 -2.194251340000001 0 0 0
Sc 4.76567433 5.03853208 0.54557522
In 0.00000000 0.00000000 -2.194251340000001 0 0 0
In 1.59411852 10.10821929 1.38722926
In 0.00000000 5.05765000 -2.194251340000001 0 0 0
In 1.59405786 5.06432610 1.38722926
Pd 4.14992483 2.52882500 -0.7314171099999989 0 0 0
Pd 6.04897614 2.52842039 1.68184475
Pd 4.14992483 7.58647500 -0.7314171099999989 0 0 0
Pd 0.02323240 7.58647500 1.69550242
C 3.28953757 2.52892615 4.71238461
O 3.35128843 2.52801578 5.85816574
