&CONTROL
calculation = 'relax'
prefix = 'scf'
pseudo_dir = '/vol0004/mdt0/data/hp150275/u10028/POT_KKJUS'
outdir = './data'
tprnfor = .true.
nstep = 50
disk_io = 'non'
/
&SYSTEM
ibrav = 0
ecutwfc = 50.0
ecutrho = 400
occupations = 'smearing'
smearing = 'mp'
degauss = 0.01
assume_isolated = 'esm'
esm_bc = 'bc1'
input_dft = 'BEEF-VDW'
nosym = .true.
nspin = 1
ntyp = 4
nat = 18
/
&ELECTRONS
electron_maxstep = 200
mixing_beta = 0.1
conv_thr = 1e-06
/
&IONS
ion_dynamics = 'bfgs'
upscale = 1.0
/
&CELL
/

K_POINTS {automatic}
9 9 2 0  0  0

ATOMIC_SPECIES
Ag 107.8 Ag.pbe-n-rrkjus_psl.1.0.0.UPF
C 12.01 C.pbe-n-rrkjus_psl.1.0.0.UPF
Mg 24.30 Mg.pbe-spnl-rrkjus_psl.1.0.0.UPF
O 15.99 O.pbe-n-rrkjus_psl.1.0.0.UPF

CELL_PARAMETERS {angstrom}
6.75388000 0.00000000 0.00000000
-0.00000000 6.75388000 0.00000000
0.00000000 0.00000000 25.06540000

ATOMIC_POSITIONS {angstrom}
Mg 1.68847000 1.68847000 -0.3105603099999996 0 0 0
Mg 1.68847000 1.68847000 3.06650104
Mg 1.68847000 5.06541000 -0.3105603099999996 0 0 0
Mg 1.68847000 5.06541000 3.06650104
Mg 5.06541000 1.68847000 -0.3105603099999996 0 0 0
Mg 5.06541000 1.68847000 3.06650104
Mg 5.06541000 5.06541000 -0.3105603099999996 0 0 0
Mg 5.06541000 5.06541000 3.06650104
Ag 0.00000000 0.00000000 -1.9989656499999988 0 0 0
Ag 0.00000000 0.00000000 1.37809569
Ag 0.00000000 3.37694000 -1.9989656499999988 0 0 0
Ag 0.00000000 3.37694000 1.37809569
Ag 3.37694000 0.00000000 -1.9989656499999988 0 0 0
Ag 3.37694000 -0.00000000 1.37809569
Ag 3.37694000 3.37694000 -1.9989656499999988 0 0 0
Ag 3.37694000 3.37694000 1.37809569
C 1.68847000 1.68847000 4.96645836
O 1.68847000 1.68847000 6.11645891
