&CONTROL
calculation = 'relax'
prefix = 'scf'
pseudo_dir = '/vol0403/data/hp230205/u10028/POT_HYBRID_KKJUS_GBRV'
outdir = './data'
tprnfor = .true.
nstep = 50
disk_io = 'non'
/
&SYSTEM
ibrav = 0
ecutwfc = 50.0
ecutrho = 400
occupations = 'smearing'
smearing = 'mp'
degauss = 0.01
assume_isolated = 'esm'
esm_bc = 'bc1'
input_dft = 'BEEF-VDW'
nosym = .true.
nspin = 2
ntyp = 4
nat = 32
starting_magnetization(1) = 0.0
starting_magnetization(2) = 0.0
starting_magnetization(3) = 0.001
starting_magnetization(4) = 0.0
/
&ELECTRONS
electron_maxstep = 200
mixing_beta = 0.1
conv_thr = 1e-06
/
&IONS
ion_dynamics = 'bfgs'
upscale = 1.0
/
&CELL
/

K_POINTS {automatic}
9 6 2 0  0  0

ATOMIC_SPECIES
Ga 69.72 Ga.pbe-dnl-rrkjus_psl.1.0.0.UPF
Li 6.941 Li.pbe-sl-rrkjus_psl.1.0.0.UPF
Ni 58.69 ni_pbe_v1.4.uspp.F.UPF
Pd 106.4 Pd.pbe-n-rrkjus_psl.1.0.0.UPF


CELL_PARAMETERS {angstrom}
5.93220000 0.00000000 0.00000000
0.00000000 8.38940000 0.00000000
0.00000000 0.00000000 26.29200000

ATOMIC_POSITIONS {angstrom}
Li 0.00000000 2.09735000 25.24321212
Li 0.00000000 6.29205000 25.24321212
Li 2.96610000 4.19470000 23.14589928
Li 2.96610000 0.00000000 23.14589928
Li 0.03755083 6.29205000 3.54100656
Li 0.03755083 2.09735000 3.54100656
Li 2.97588813 0.00000000 0.96202428
Li 2.97588813 4.19470000 0.96202428
Ga 0.00000000 0.00000000 23.14589928
Ga 0.00000000 4.19470000 23.14589928
Ga 2.96610000 6.29205000 25.24321212
Ga 2.96610000 2.09735000 25.24321212
Ga 5.92069153 4.19470000 1.03537896
Ga 5.92081018 0.00000000 1.03537896
Ga 2.90505766 2.09726611 3.23917440
Ga 2.90487970 6.29213389 3.23943732
Ni 1.48305000 0.00000000 25.24321212
Ni 1.48305000 4.19470000 25.24321212
Ni 4.44915000 2.09735000 23.14589928
Ni 4.44915000 6.29205000 23.14589928
Ni 1.58971096 4.19470000 2.94260064
Ni 1.58965163 0.00000000 2.94260064
Ni 4.46801440 6.29205000 1.08191580
Ni 4.46789575 2.09735000 1.08191580
Pd 4.44915000 0.00000000 25.24321212
Pd 4.44915000 4.19470000 25.24321212
Pd 1.48305000 2.09735000 23.14589928
Pd 1.48305000 6.29205000 23.14589928
Pd 4.37048903 4.19478389 3.04382484
Pd 4.37054835 8.38931611 3.04382484
Pd 1.45677035 6.29205000 1.05983052
Pd 1.45688900 2.09735000 1.05983052
