&CONTROL
calculation = 'relax'
prefix = 'scf'
pseudo_dir = '/vol0403/data/hp230205/u10028/POT_HYBRID_KKJUS_GBRV'
outdir = './data'
tprnfor = .true.
nstep = 50
disk_io = 'non'
/
&SYSTEM
ibrav = 0
ecutwfc = 50.0
ecutrho = 400
occupations = 'smearing'
smearing = 'mp'
degauss = 0.01
assume_isolated = 'esm'
esm_bc = 'bc1'
input_dft = 'BEEF-VDW'
nosym = .true.
nspin = 1
ntyp = 6
nat = 18
/
&ELECTRONS
electron_maxstep = 200
mixing_beta = 0.1
conv_thr = 1e-06
/
&IONS
ion_dynamics = 'bfgs'
upscale = 1.0
/
&CELL
/

K_POINTS {automatic}
6 6 1 0 0 0

ATOMIC_SPECIES
C 12.01 C.pbe-n-rrkjus_psl.1.0.0.UPF
Ge 72.64 Ge.pbe-dn-rrkjus_psl.1.0.0.UPF
Li 6.941 Li.pbe-sl-rrkjus_psl.1.0.0.UPF
O 15.99 O.pbe-n-rrkjus_psl.1.0.0.UPF
Sn 118.7 Sn.pbe-dn-rrkjus_psl.1.0.0.UPF
Y 88.90 Y.pbe-spn-rrkjus_psl.1.0.0.UPF


CELL_PARAMETERS {angstrom}
8.60818000 0.00000000 0.00000000
0.00000000 6.35836000 0.00000000
0.00000000 0.00000000 24.74450000

ATOMIC_POSITIONS {angstrom}
Li 0.00000000 3.17918000 -2.3722552199999996 0 0 0
Li 8.60645836 5.97310697 0.69730001
Li 4.30409000 3.17918000 -2.3722552199999996 0 0 0
Li 4.30581164 5.97310697 0.69730001
Y 2.15204500 1.42955008 -0.7908342199999971 0 0 0
Y 2.15204500 3.97130449 2.35468662
Y 6.45613500 1.42955008 -0.7908342199999971 0 0 0
Y 6.45613500 3.96202128 2.35097494
Sn 2.15204500 4.60873008 -0.7908342199999971 0 0 0
Sn 2.15195892 0.84566188 2.61277175
Sn 6.45613500 4.60873008 -0.7908342199999971 0 0 0
Sn 6.45604892 0.84013011 2.64493960
Ge 0.00000000 0.00000000 -2.3722552199999996 0 0 0
Ge 0.00034433 2.41941956 1.14121634
Ge 4.30409000 0.00000000 -2.3722552199999996 0 0 0
Ge 4.30374567 2.41954673 1.14121634
C 2.15195892 0.22394144 6.31380662
O 2.15187284 1.25768361 6.78692146
