&CONTROL
calculation = 'relax'
prefix = 'scf'
pseudo_dir = '/vol0004/mdt0/data/hp150275/u10028/POT_HYBRID_KKJUS_GBRV'
outdir = './data'
tprnfor = .true.
nstep = 50
disk_io = 'non'
/
&SYSTEM
ibrav = 0
ecutwfc = 50.0
ecutrho = 400
occupations = 'smearing'
smearing = 'mp'
degauss = 0.01
assume_isolated = 'esm'
esm_bc = 'bc1'
input_dft = 'BEEF-VDW'
nosym = .true.
nspin = 2
ntyp = 3
nat = 32
starting_magnetization(1) = 0.1
starting_magnetization(2) = 0.0
starting_magnetization(3) = 0.0
/
&ELECTRONS
electron_maxstep = 300
mixing_beta = 0.1
conv_thr = 1e-06
/
&IONS
ion_dynamics = 'bfgs'
upscale = 1.0
/
&CELL
/

K_POINTS {automatic}
8 6 1 0 0 0

ATOMIC_SPECIES
Co 58.93 co_pbe_v1.2.uspp.F.UPF
Ga 69.72 Ga.pbe-dnl-rrkjus_psl.1.0.0.UPF
Nb 92.90 Nb.pbe-spn-rrkjus_psl.1.0.0.UPF

CELL_PARAMETERS {angstrom}
5.97844000 0.00000000 0.00000000
0.00000000 8.45478000 0.00000000
0.00000000 0.00000000 26.34110000

ATOMIC_POSITIONS {angstrom}
Nb 0.00000000 0.00000000 -3.1704147999999996 0 0 0
Nb 2.98922000 2.11369500 -1.056804930000002 0 0 0
Nb 2.98922000 6.34108500 -1.056804930000002 0 0 0
Nb 0.00000000 4.22739000 -3.1704147999999996 0 0 0
Nb 5.97838022 4.22739000 1.12055039
Nb 2.98927978 6.34108500 3.16830751
Nb 2.98927978 2.11369500 3.16830751
Nb 0.00000000 0.00000000 1.12055039
Ga 0.00000000 6.34108500 -1.056804930000002 0 0 0
Ga 2.98922000 0.00000000 -3.1704147999999996 0 0 0
Ga 0.00000000 2.11369500 -1.056804930000002 0 0 0
Ga 2.98922000 4.22739000 -3.1704147999999996 0 0 0
Ga 0.00023914 2.11369500 3.24943810
Ga 2.98898086 4.22730545 1.08314603
Ga 0.00017935 6.34108500 3.24943810
Ga 2.98910043 0.00008455 1.08314603
Co 1.49461000 0.00000000 -1.056804930000002 0 0 0
Co 4.48383000 4.22739000 -1.056804930000002 0 0 0
Co 4.48383000 0.00000000 -1.056804930000002 0 0 0
Co 1.49461000 4.22739000 -1.056804930000002 0 0 0
Co 4.48383000 6.34108500 -3.1704147999999996 0 0 0
Co 1.49461000 2.11369500 -3.1704147999999996 0 0 0
Co 1.49461000 6.34108500 -3.1704147999999996 0 0 0
Co 4.48383000 2.11369500 -3.1704147999999996 0 0 0
Co 1.48271290 4.22730545 3.06057241
Co 4.49578688 0.00000000 3.06057241
Co 4.49572710 4.22739000 3.06057241
Co 1.48265312 0.00008455 3.06030900
Co 4.45304103 2.11361045 1.07498029
Co 1.52539897 6.34108500 1.07498029
Co 1.52539897 2.11369500 1.07498029
Co 4.45304103 6.34116955 1.07471688
