&CONTROL
calculation = 'relax'
prefix = 'scf'
pseudo_dir = '/vol0403/data/hp230205/u10028/POT_HYBRID_KKJUS_GBRV'
outdir = './data'
tprnfor = .true.
nstep = 50
disk_io = 'non'
/
&SYSTEM
ibrav = 0
ecutwfc = 50.0
ecutrho = 400
occupations = 'smearing'
smearing = 'mp'
degauss = 0.01
assume_isolated = 'esm'
esm_bc = 'bc1'
input_dft = 'BEEF-VDW'
nosym = .true.
nspin = 1
ntyp = 5
nat = 17
/
&ELECTRONS
electron_maxstep = 200
mixing_beta = 0.1
conv_thr = 1e-06
/
&IONS
ion_dynamics = 'bfgs'
upscale = 1.0
/
&CELL
/

K_POINTS {automatic}
6 6 1 0 0 0

ATOMIC_SPECIES
C 12.01 C.pbe-n-rrkjus_psl.1.0.0.UPF
In 114.8 In.pbe-dn-rrkjus_psl.1.0.0.UPF
Li 6.941 Li.pbe-sl-rrkjus_psl.1.0.0.UPF
Pb 207.2 Pb.pbe-dn-rrkjus_psl.1.0.0.UPF
Y 88.90 Y.pbe-spn-rrkjus_psl.1.0.0.UPF


CELL_PARAMETERS {angstrom}
9.00122000 0.00000000 0.00000000
0.00000000 6.63002000 0.00000000
0.00000000 0.00000000 24.97230000

ATOMIC_POSITIONS {angstrom}
Li 2.25057504 1.44116745 0.99264893
Li 2.25030500 4.92245835 -2.4862421900000022 0 0 0
Li 6.75163510 1.84201846 0.89226028
Li 6.75091500 4.92245835 -2.4862421900000022 0 0 0
Y 2.25030500 4.95965276 0.56537287
Y 2.25030500 1.60744835 -2.4862421900000022 0 0 0
Y 6.74920477 5.20721771 1.00488535
Y 6.75091500 1.60744835 -2.4862421900000022 0 0 0
In 0.25572466 0.10322941 2.77716948
In 0.00000000 3.28159470 -0.8288306399999996 0 0 0
In 4.24443528 0.10442282 2.77816837
In 4.50061000 3.28159470 -0.8288306399999996 0 0 0
Pb 0.20918835 3.27827969 2.55141989
Pb 0.00000000 6.59660470 -0.8288306399999996 0 0 0
Pb 4.29160167 3.27834599 2.55216906
Pb 4.50061000 6.59660470 -0.8288306399999996 0 0 0
C 2.25048502 5.89196617 2.57189718
