&CONTROL
calculation = 'relax'
prefix = 'scf'
pseudo_dir = '/vol0004/mdt0/data/hp150275/u10028/POT_KKJUS'
outdir = './data'
tprnfor = .true.
nstep = 50
disk_io = 'non'
/
&SYSTEM
ibrav = 0
ecutwfc = 50.0
ecutrho = 400
occupations = 'smearing'
smearing = 'mp'
degauss = 0.01
assume_isolated = 'esm'
esm_bc = 'bc1'
input_dft = 'BEEF-VDW'
nosym = .true.
nspin = 1
ntyp = 2
nat = 32
/
&ELECTRONS
electron_maxstep = 200
mixing_beta = 0.1
conv_thr = 1e-06
/
&IONS
ion_dynamics = 'bfgs'
upscale = 1.0
/
&CELL
/

K_POINTS {automatic}
7 7 2 0  0  0

ATOMIC_SPECIES
Al 26.98 Al.pbe-nl-rrkjus_psl.1.0.0.UPF
Zr 91.22 Zr.pbe-spn-rrkjus_psl.1.0.0.UPF

CELL_PARAMETERS {angstrom}
8.76540000 0.00000000 0.00000000
-0.00000000 8.76540000 0.00000000
0.00000000 0.00000000 26.57400000

ATOMIC_POSITIONS {angstrom}
Zr 0.00000000 2.19135000 -1.0956460200000002 0 0 0
Zr 2.19135000 0.00000000 -1.0956460200000002 0 0 0
Zr 2.19135000 2.19135000 -3.2869380600000007 0 0 0
Zr 0.00000000 2.19135000 3.28693806
Zr 2.19135000 -0.00000000 3.28693806
Zr 2.19135000 2.19135000 1.09564602
Zr 0.00000000 6.57405000 -1.0956460200000002 0 0 0
Zr 2.19135000 4.38270000 -1.0956460200000002 0 0 0
Zr 2.19135000 6.57405000 -3.2869380600000007 0 0 0
Zr 0.00000000 6.57405000 3.28693806
Zr 2.19135000 4.38270000 3.28693806
Zr 2.19135000 6.57405000 1.09564602
Zr 4.38270000 2.19135000 -1.0956460200000002 0 0 0
Zr 6.57405000 0.00000000 -1.0956460200000002 0 0 0
Zr 6.57405000 2.19135000 -3.2869380600000007 0 0 0
Zr 4.38270000 2.19135000 3.28693806
Zr 6.57405000 -0.00000000 3.28693806
Zr 6.57405000 2.19135000 1.09564602
Zr 4.38270000 6.57405000 -1.0956460200000002 0 0 0
Zr 6.57405000 4.38270000 -1.0956460200000002 0 0 0
Zr 6.57405000 6.57405000 -3.2869380600000007 0 0 0
Zr 4.38270000 6.57405000 3.28693806
Zr 6.57405000 4.38270000 3.28693806
Zr 6.57405000 6.57405000 1.09564602
Al 0.00000000 0.00000000 -3.2869380600000007 0 0 0
Al 0.00000000 0.00000000 1.09564602
Al 0.00000000 4.38270000 -3.2869380600000007 0 0 0
Al 0.00000000 4.38270000 1.09564602
Al 4.38270000 0.00000000 -3.2869380600000007 0 0 0
Al 4.38270000 -0.00000000 1.09564602
Al 4.38270000 4.38270000 -3.2869380600000007 0 0 0
Al 4.38270000 4.38270000 1.09564602
