&CONTROL
calculation = 'relax'
prefix = 'scf'
pseudo_dir = '/vol0403/data/hp230205/u10028/POT_HYBRID_KKJUS_GBRV'
outdir = './data'
tprnfor = .true.
nstep = 70
disk_io = 'non'
/
&SYSTEM
ibrav = 0
ecutwfc = 50.0
ecutrho = 400
occupations = 'smearing'
smearing = 'mp'
degauss = 0.01
assume_isolated = 'esm'
esm_bc = 'bc1'
input_dft = 'BEEF-VDW'
nosym = .true.
nspin = 1
ntyp = 6
nat = 34
/
&ELECTRONS
electron_maxstep = 200
mixing_beta = 0.1
conv_thr = 1e-06
/
&IONS
ion_dynamics = 'bfgs'
upscale = 1.0
/
&CELL
/

K_POINTS {automatic}
6 6 1 0 0 0

ATOMIC_SPECIES
C 12.01 C.pbe-n-rrkjus_psl.1.0.0.UPF
Cu 63.54 Cu.pbe-dn-rrkjus_psl.1.0.0.UPF
Li 6.941 Li.pbe-sl-rrkjus_psl.1.0.0.UPF
O 15.99 O.pbe-n-rrkjus_psl.1.0.0.UPF
Pd 106.4 Pd.pbe-n-rrkjus_psl.1.0.0.UPF
Y 88.90 Y.pbe-spn-rrkjus_psl.1.0.0.UPF


CELL_PARAMETERS {angstrom}
6.67076000 0.00000000 0.00000000
-0.00000000 9.43388000 0.00000000
0.00000000 0.00000000 27.07540000

ATOMIC_POSITIONS {angstrom}
Li 1.66769000 0.00000000 -1.1791336699999988 0 0 0
Li 1.66769000 4.71694000 -1.1791336699999988 0 0 0
Li 5.00307000 2.35847000 -3.5376717599999985 0 0 0
Li 5.00307000 7.07541000 -3.5376717599999985 0 0 0
Li 1.62779886 4.54580942 3.53631799
Li 1.62779886 0.17113058 3.53631799
Li 5.04642994 7.07541000 1.26306741
Li 5.01034113 2.35847000 1.10684235
Y 5.00307000 0.00000000 -1.1791336699999988 0 0 0
Y 5.00307000 4.71694000 -1.1791336699999988 0 0 0
Y 1.66769000 2.35847000 -3.5376717599999985 0 0 0
Y 1.66769000 7.07541000 -3.5376717599999985 0 0 0
Y 4.98852774 4.96920195 3.78026735
Y 4.98846104 9.18161805 3.78026735
Y 1.67215941 7.07541000 1.16261768
Y 1.65621629 2.35847000 1.16911577
Cu 0.00000000 0.00000000 -3.5376717599999985 0 0 0
Cu 0.00000000 4.71694000 -3.5376717599999985 0 0 0
Cu 3.33538000 7.07541000 -1.1791336699999988 0 0 0
Cu 3.33538000 2.35847000 -1.1791336699999988 0 0 0
Cu 6.49531901 4.62675211 1.41848021
Cu 6.49531901 0.09018789 1.41848021
Cu 3.58740131 2.35847000 3.25310931
Cu 2.92993121 7.07541000 3.70608075
Pd 0.00000000 2.35847000 -1.1791336699999988 0 0 0
Pd 0.00000000 7.07541000 -1.1791336699999988 0 0 0
Pd 3.33538000 4.71694000 -3.5376717599999985 0 0 0
Pd 3.33538000 0.00000000 -3.5376717599999985 0 0 0
Pd 0.24581751 7.07541000 3.55256323
Pd 6.39859299 2.35847000 3.50084922
Pd 3.48120281 0.00245281 1.38815576
Pd 3.48113611 4.71448719 1.38815576
C 6.47764150 2.35847000 5.45136104
O 0.13581667 2.35856434 6.56984581
