&CONTROL
calculation = 'relax'
prefix = 'scf'
pseudo_dir = '/vol0004/mdt0/data/hp150275/u10028/POT_KKJUS'
outdir = './data'
tprnfor = .true.
nstep = 50
disk_io = 'non'
/
&SYSTEM
ibrav = 0
ecutwfc = 50.0
ecutrho = 400
occupations = 'smearing'
smearing = 'mp'
degauss = 0.01
assume_isolated = 'esm'
esm_bc = 'bc1'
input_dft = 'BEEF-VDW'
nosym = .true.
nspin = 1
ntyp = 3
nat = 33
/
&ELECTRONS
electron_maxstep = 200
mixing_beta = 0.1
conv_thr = 1e-06
/
&IONS
ion_dynamics = 'bfgs'
upscale = 1.0
/
&CELL
/

K_POINTS {automatic}
8 6 2 0  0  0

ATOMIC_SPECIES
C 12.01 C.pbe-n-rrkjus_psl.1.0.0.UPF
Sb 121.7 Sb.pbe-n-rrkjus_psl.1.0.0.UPF
Sn 118.7 Sn.pbe-dn-rrkjus_psl.1.0.0.UPF

CELL_PARAMETERS {angstrom}
7.64519000 0.00000000 0.00000000
0.00000000 10.81190000 0.00000000
0.00000000 0.00000000 28.10890000

ATOMIC_POSITIONS {angstrom}
Sn 1.91129750 2.70297500 -4.054427739999998 0 0 0
Sn 1.91129750 0.00000000 -1.3514759099999978 0 0 0
Sn 1.91145040 2.35158825 1.57409840
Sn 1.91137395 10.74010898 4.07860139
Sn 1.91129750 8.10892500 -4.054427739999998 0 0 0
Sn 1.91129750 5.40595000 -1.3514759099999978 0 0 0
Sn 1.91106814 7.94328669 1.13166431
Sn 1.91129750 5.68824871 5.21391986
Sn 5.73389250 2.70297500 -4.054427739999998 0 0 0
Sn 5.73389250 0.00000000 -1.3514759099999978 0 0 0
Sn 5.73450412 2.46478884 1.42821321
Sn 5.73381605 0.62590089 4.22617311
Sn 5.73389250 8.10892500 -4.054427739999998 0 0 0
Sn 5.73389250 5.40595000 -1.3514759099999978 0 0 0
Sn 5.73373960 8.18352711 1.51675624
Sn 5.73373960 5.69733071 5.49163579
Sb 0.00000000 0.00000000 -4.054427739999998 0 0 0
Sb 0.00000000 2.70297500 -1.3514759099999978 0 0 0
Sb 7.56300421 10.73470303 1.76889308
Sb 0.10145167 3.06538989 4.67844532
Sb 0.00000000 5.40595000 -4.054427739999998 0 0 0
Sb 0.00000000 8.10892500 -1.3514759099999978 0 0 0
Sb 7.53242345 5.30237200 2.67877817
Sb 7.48578779 7.75148359 4.27845567
Sb 3.82259500 0.00000000 -4.054427739999998 0 0 0
Sb 3.82259500 2.70297500 -1.3514759099999978 0 0 0
Sb 3.90546886 10.73535175 1.76917417
Sb 3.72083752 3.06517365 4.67900749
Sb 3.82259500 5.40595000 -4.054427739999998 0 0 0
Sb 3.82259500 8.10892500 -1.3514759099999978 0 0 0
Sb 3.93574381 5.30172328 2.67934035
Sb 3.98169140 7.75137547 4.27817458
C 1.91129750 2.19459946 3.84136227
