&CONTROL
calculation = 'relax'
prefix = 'scf'
pseudo_dir = '/vol0403/data/hp230205/u10028/POT_HYBRID_KKJUS_GBRV'
outdir = './data'
tprnfor = .true.
nstep = 50
disk_io = 'non'
/
&SYSTEM
ibrav = 0
ecutwfc = 50.0
ecutrho = 400
occupations = 'smearing'
smearing = 'mp'
degauss = 0.01
assume_isolated = 'esm'
esm_bc = 'bc1'
input_dft = 'BEEF-VDW'
nosym = .true.
nspin = 1
ntyp = 5
nat = 17
/
&ELECTRONS
electron_maxstep = 200
mixing_beta = 0.1
conv_thr = 1e-06
/
&IONS
ion_dynamics = 'bfgs'
upscale = 1.0
/
&CELL
/

K_POINTS {automatic}
8 8 1 0 0 0

ATOMIC_SPECIES
Al 26.98 Al.pbe-nl-rrkjus_psl.1.0.0.UPF
C 12.01 C.pbe-n-rrkjus_psl.1.0.0.UPF
Cu 63.54 Cu.pbe-dn-rrkjus_psl.1.0.0.UPF
Li 6.941 Li.pbe-sl-rrkjus_psl.1.0.0.UPF
Pd 106.4 Pd.pbe-n-rrkjus_psl.1.0.0.UPF


CELL_PARAMETERS {angstrom}
6.00833000 0.00000000 0.00000000
0.00000000 6.00833000 0.00000000
0.00000000 0.00000000 24.50620000

ATOMIC_POSITIONS {angstrom}
Li 6.00664767 2.99911800 2.64519923
Li 0.00000000 0.00000000 -0.7511150300000011 0 0 0
Li 3.00416500 3.00416500 -0.7511150300000011 0 0 0
Li 3.00921200 0.00168233 2.64519923
Al 5.86533175 0.14299825 2.30970935
Al 0.00000000 3.00416500 -0.7511150300000011 0 0 0
Al 3.00416500 0.00000000 -0.7511150300000011 0 0 0
Al 3.14872542 2.85960458 2.31191491
Cu 1.50400517 1.50412533 0.79081507
Cu 1.50208250 4.50624750 -2.253100029999999 0 0 0
Cu 4.50624750 1.50208250 -2.253100029999999 0 0 0
Cu 4.50420467 4.50432483 0.79081507
Pd 4.50648783 1.50184217 0.52590305
Pd 4.50624750 4.50624750 -2.253100029999999 0 0 0
Pd 1.50208250 1.50208250 -2.253100029999999 0 0 0
Pd 1.50352450 4.50480550 1.14272411
C 4.50720883 1.50112117 2.73660735
