&CONTROL
calculation = 'relax'
prefix = 'scf'
pseudo_dir = '/vol0004/mdt0/data/hp150275/u10028/POT_KKJUS'
outdir = './data'
tprnfor = .true.
nstep = 50
disk_io = 'non'
/
&SYSTEM
ibrav = 0
ecutwfc = 50.0
ecutrho = 400
occupations = 'smearing'
smearing = 'mp'
degauss = 0.01
assume_isolated = 'esm'
esm_bc = 'bc1'
input_dft = 'BEEF-VDW'
nosym = .true.
nspin = 1
ntyp = 4
nat = 34
/
&ELECTRONS
electron_maxstep = 200
mixing_beta = 0.1
conv_thr = 1e-06
/
&IONS
ion_dynamics = 'bfgs'
upscale = 1.0
/
&CELL
/

K_POINTS {automatic}
8 6 1 0 0 0

ATOMIC_SPECIES
C 12.01 C.pbe-n-rrkjus_psl.1.0.0.UPF
O 15.99 O.pbe-n-rrkjus_psl.1.0.0.UPF
Rh 102.9 Rh.pbe-spn-rrkjus_psl.1.0.0.UPF
Zr 91.22 Zr.pbe-spn-rrkjus_psl.1.0.0.UPF

CELL_PARAMETERS {angstrom}
6.65024000 0.00000000 0.00000000
0.00000000 9.40485000 0.00000000
0.00000000 0.00000000 27.05360000

ATOMIC_POSITIONS {angstrom}
Zr 1.66256000 2.35121250 -3.526707299999998 0 0 0
Zr 1.66256000 0.00000000 -1.1754789199999998 0 0 0
Zr 1.66196148 2.33926834 1.15383604
Zr 1.66322502 0.00000000 3.55078500
Zr 1.66256000 7.05363750 -3.526707299999998 0 0 0
Zr 1.66256000 4.70242500 -1.1754789199999998 0 0 0
Zr 1.66196148 7.06558166 1.15383604
Zr 1.66182847 4.70242500 3.48585636
Zr 4.98768000 2.35121250 -3.526707299999998 0 0 0
Zr 4.98768000 0.00000000 -1.1754789199999998 0 0 0
Zr 4.98714798 2.35591493 1.15167175
Zr 4.98748049 0.00009405 3.49532512
Zr 4.98768000 7.05363750 -3.526707299999998 0 0 0
Zr 4.98768000 4.70242500 -1.1754789199999998 0 0 0
Zr 4.98714798 7.04893508 1.15167175
Zr 4.98701498 4.70242500 3.48883226
Rh 0.00000000 0.00000000 -3.526707299999998 0 0 0
Rh 0.00000000 2.35121250 -1.1754789199999998 0 0 0
Rh 6.62290751 0.00009405 1.17115034
Rh 6.64937547 2.37321985 3.25508915
Rh 0.00000000 4.70242500 -3.526707299999998 0 0 0
Rh 0.00000000 7.05363750 -1.1754789199999998 0 0 0
Rh 0.00565270 4.70233095 1.18792358
Rh 6.64937547 7.03163015 3.25535969
Rh 3.32512000 0.00000000 -3.526707299999998 0 0 0
Rh 3.32512000 2.35121250 -1.1754789199999998 0 0 0
Rh 3.35112244 0.00009405 1.17277356
Rh 3.32492049 2.37528892 3.25535969
Rh 3.32512000 4.70242500 -3.526707299999998 0 0 0
Rh 3.32512000 7.05363750 -1.1754789199999998 0 0 0
Rh 3.31793774 4.70233095 1.18792358
Rh 3.32492049 7.02956108 3.25535969
C 1.67599348 0.00000000 5.84465974
O 1.67705752 0.00000000 6.99660203
