&CONTROL
calculation = 'relax'
prefix = 'scf'
pseudo_dir = '/vol0403/data/hp230205/u10028/POT_HYBRID_KKJUS_GBRV'
outdir = './data'
tprnfor = .true.
nstep = 50
disk_io = 'non'
/
&SYSTEM
ibrav = 0
ecutwfc = 50.0
ecutrho = 400
occupations = 'smearing'
smearing = 'mp'
degauss = 0.01
assume_isolated = 'esm'
esm_bc = 'bc1'
input_dft = 'BEEF-VDW'
nosym = .true.
nspin = 1
ntyp = 5
nat = 33
/
&ELECTRONS
electron_maxstep = 200
mixing_beta = 0.1
conv_thr = 1e-06
/
&IONS
ion_dynamics = 'bfgs'
upscale = 1.0
/
&CELL
/

K_POINTS {automatic}
6 6 1 0 0 0

ATOMIC_SPECIES
C 12.01 C.pbe-n-rrkjus_psl.1.0.0.UPF
Ge 72.64 Ge.pbe-dn-rrkjus_psl.1.0.0.UPF
Li 6.941 Li.pbe-sl-rrkjus_psl.1.0.0.UPF
Pd 106.4 Pd.pbe-n-rrkjus_psl.1.0.0.UPF
Zn 65.40 Zn.pbe-dnl-rrkjus_psl.1.0.0.UPF


CELL_PARAMETERS {angstrom}
6.18512000 0.00000000 0.00000000
0.00000000 8.74708000 0.00000000
0.00000000 0.00000000 26.56030000

ATOMIC_POSITIONS {angstrom}
Li 4.63884000 0.00000000 -1.0934875500000025 0 0 0
Li 4.63884000 4.37354000 -1.0934875500000025 0 0 0
Li 1.54628000 2.18677000 -3.2801970500000017 0 0 0
Li 1.54628000 6.56031000 -3.2801970500000017 0 0 0
Li 4.48724271 4.29901488 3.58006284
Li 4.48730456 0.07452512 3.58006284
Li 1.46092534 6.56031000 1.18697981
Li 1.69818655 2.18677000 1.20636883
Zn 0.00000000 2.18677000 -1.0934875500000025 0 0 0
Zn 0.00000000 6.56031000 -1.0934875500000025 0 0 0
Zn 3.09256000 4.37354000 -3.2801970500000017 0 0 0
Zn 3.09256000 0.00000000 -3.2801970500000017 0 0 0
Zn 6.11813515 6.56039747 3.49958513
Zn 0.08529280 2.18677000 3.36492441
Zn 3.15373084 8.59820470 1.09375315
Zn 3.15373084 4.52241530 1.09375315
Ge 0.00000000 0.00000000 -3.2801970500000017 0 0 0
Ge 0.00000000 4.37354000 -3.2801970500000017 0 0 0
Ge 3.09256000 6.56031000 -1.0934875500000025 0 0 0
Ge 3.09256000 2.18677000 -1.0934875500000025 0 0 0
Ge 6.15908064 4.29079262 1.14182730
Ge 6.15908064 0.08265991 1.14182730
Ge 2.61092471 2.18677000 4.09931670
Ge 3.06522177 6.56031000 3.46080709
Pd 1.54628000 0.00000000 -1.0934875500000025 0 0 0
Pd 1.54628000 4.37354000 -1.0934875500000025 0 0 0
Pd 4.63884000 2.18677000 -3.2801970500000017 0 0 0
Pd 4.63884000 6.56031000 -3.2801970500000017 0 0 0
Pd 1.55704211 4.43870575 3.16014449
Pd 1.55710396 8.68191425 3.16014449
Pd 4.78412847 6.56031000 1.10437727
Pd 4.47728467 2.18677000 1.08073861
C 4.32228556 2.18677000 3.35615951
