&CONTROL
calculation = 'relax'
prefix = 'scf'
pseudo_dir = '/vol0403/data/hp230205/u10028/POT_HYBRID_KKJUS_GBRV'
outdir = './data'
tprnfor = .true.
nstep = 70
disk_io = 'non'
/
&SYSTEM
ibrav = 0
ecutwfc = 50.0
ecutrho = 400
occupations = 'smearing'
smearing = 'mp'
degauss = 0.01
assume_isolated = 'esm'
esm_bc = 'bc1'
input_dft = 'BEEF-VDW'
nosym = .true.
nspin = 1
ntyp = 6
nat = 34
/
&ELECTRONS
electron_maxstep = 200
mixing_beta = 0.1
conv_thr = 1e-06
/
&IONS
ion_dynamics = 'bfgs'
upscale = 1.0
/
&CELL
/

K_POINTS {automatic}
6 6 1 0 0 0

ATOMIC_SPECIES
C 12.01 C.pbe-n-rrkjus_psl.1.0.0.UPF
Cu 63.54 Cu.pbe-dn-rrkjus_psl.1.0.0.UPF
Li 6.941 Li.pbe-sl-rrkjus_psl.1.0.0.UPF
O 15.99 O.pbe-n-rrkjus_psl.1.0.0.UPF
Pd 106.4 Pd.pbe-n-rrkjus_psl.1.0.0.UPF
Y 88.90 Y.pbe-spn-rrkjus_psl.1.0.0.UPF


CELL_PARAMETERS {angstrom}
6.67076000 0.00000000 0.00000000
-0.00000000 9.43388000 0.00000000
0.00000000 0.00000000 27.07540000

ATOMIC_POSITIONS {angstrom}
Li 1.66769000 0.00000000 -1.1791336699999988 0 0 0
Li 1.66769000 4.71694000 -1.1791336699999988 0 0 0
Li 5.00307000 2.35847000 -3.5376717599999985 0 0 0
Li 5.00307000 7.07541000 -3.5376717599999985 0 0 0
Li 1.66108595 4.94910779 3.57774336
Li 1.66775671 9.19208966 3.54579438
Li 5.01401005 7.08446652 1.05973116
Li 5.05356765 2.34922480 1.31342765
Y 5.00307000 0.00000000 -1.1791336699999988 0 0 0
Y 5.00307000 4.71694000 -1.1791336699999988 0 0 0
Y 1.66769000 2.35847000 -3.5376717599999985 0 0 0
Y 1.66769000 7.07541000 -3.5376717599999985 0 0 0
Y 5.00273646 4.41524452 3.82467100
Y 5.04936507 0.23292250 3.81005029
Y 1.70484613 7.07154211 1.16153466
Y 1.68990363 2.36667748 1.12335835
Cu 0.00000000 0.00000000 -3.5376717599999985 0 0 0
Cu 0.00000000 4.71694000 -3.5376717599999985 0 0 0
Cu 3.33538000 7.07541000 -1.1791336699999988 0 0 0
Cu 3.33538000 2.35847000 -1.1791336699999988 0 0 0
Cu 6.52493719 4.75618494 1.38355294
Cu 6.53941274 9.39982369 1.36432941
Cu 2.97816080 2.33337588 3.63297717
Cu 3.71507966 7.06078749 3.23361502
Pd 0.00000000 2.35847000 -1.1791336699999988 0 0 0
Pd 0.00000000 7.07541000 -1.1791336699999988 0 0 0
Pd 3.33538000 4.71694000 -3.5376717599999985 0 0 0
Pd 3.33538000 0.00000000 -3.5376717599999985 0 0 0
Pd 6.43474851 7.08257975 3.23523955
Pd 0.29444735 2.31969675 3.50328601
Pd 3.50821939 9.42614422 1.41171136
Pd 3.48733991 4.72278901 1.38382369
C 4.10685339 2.80903211 5.41859980
O 3.94835614 2.12149093 6.37625670
