&CONTROL
calculation = 'relax'
prefix = 'scf'
pseudo_dir = '/vol0004/mdt0/data/hp150275/u10028/POT_HYBRID_KKJUS_GBRV'
outdir = './data'
tprnfor = .true.
nstep = 70
disk_io = 'non'
/
&SYSTEM
ibrav = 0
ecutwfc = 50.0
ecutrho = 400
occupations = 'smearing'
smearing = 'mp'
degauss = 0.01
assume_isolated = 'esm'
esm_bc = 'bc1'
input_dft = 'BEEF-VDW'
nosym = .true.
nspin = 1
ntyp = 3
nat = 33
/
&ELECTRONS
electron_maxstep = 200
mixing_beta = 0.1
conv_thr = 1e-06
/
&IONS
ion_dynamics = 'bfgs'
upscale = 1.0
/
&CELL
/

K_POINTS {automatic}
6 8 1 0 0 0

ATOMIC_SPECIES
Al 26.98 Al.pbe-nl-rrkjus_psl.1.0.0.UPF
C 12.01 C.pbe-n-rrkjus_psl.1.0.0.UPF
Ti 47.86 Ti.pbe-spn-rrkjus_psl.1.0.0.UPF

CELL_PARAMETERS {angstrom}
7.97088000 0.00000000 0.00000000
-0.00000000 8.16526000 0.00000000
0.00000000 0.00000000 25.97820000

ATOMIC_POSITIONS {angstrom}
Ti 1.99272000 2.04131500 -2.98905169 0 0 0
Ti 0.00000000 2.04131500 -0.9962639700000011 0 0 0
Ti 1.99272000 2.04131500 0.99626397
Ti 0.00000000 2.04131500 2.98905169
Ti 1.99272000 6.12394500 -2.98905169 0 0 0
Ti 0.00000000 6.12394500 -0.9962639700000011 0 0 0
Ti 1.99272000 6.12394500 0.99626397
Ti 0.00000000 6.12394500 2.98905169
Ti 5.97816000 2.04131500 -2.98905169 0 0 0
Ti 3.98544000 2.04131500 -0.9962639700000011 0 0 0
Ti 5.97816000 2.04131500 0.99626397
Ti 3.98544000 2.04131500 2.98905169
Ti 5.97816000 6.12394500 -2.98905169 0 0 0
Ti 3.98544000 6.12394500 -0.9962639700000011 0 0 0
Ti 5.97816000 6.12394500 0.99626397
Ti 3.98544000 6.12394500 2.98905169
Al 0.00000000 0.00000000 -2.98905169 0 0 0
Al 1.99272000 0.00000000 -0.9962639700000011 0 0 0
Al 0.00000000 0.00000000 0.99626397
Al 1.99272000 -0.00000000 2.98905169
Al 0.00000000 4.08263000 -2.98905169 0 0 0
Al 1.99272000 4.08263000 -0.9962639700000011 0 0 0
Al 0.00000000 4.08263000 0.99626397
Al 1.99272000 4.08263000 2.98905169
Al 3.98544000 0.00000000 -2.98905169 0 0 0
Al 5.97816000 0.00000000 -0.9962639700000011 0 0 0
Al 3.98544000 -0.00000000 0.99626397
Al 5.97816000 -0.00000000 2.98905169
Al 3.98544000 4.08263000 -2.98905169 0 0 0
Al 5.97816000 4.08263000 -0.9962639700000011 0 0 0
Al 3.98544000 4.08263000 0.99626397
Al 5.97816000 4.08263000 2.98905169
C 1.99272000 2.04131500 3.78918025
