&CONTROL
calculation = 'relax'
prefix = 'scf'
pseudo_dir = '/vol0403/data/hp230205/u10028/POT_HYBRID_KKJUS_GBRV'
outdir = './data'
tprnfor = .true.
nstep = 50
disk_io = 'non'
/
&SYSTEM
ibrav = 0
ecutwfc = 50.0
ecutrho = 400
occupations = 'smearing'
smearing = 'mp'
degauss = 0.01
assume_isolated = 'esm'
esm_bc = 'bc1'
input_dft = 'BEEF-VDW'
nosym = .true.
nspin = 1
ntyp = 6
nat = 34
/
&ELECTRONS
electron_maxstep = 200
mixing_beta = 0.1
conv_thr = 1e-06
/
&IONS
ion_dynamics = 'bfgs'
upscale = 1.0
/
&CELL
/

K_POINTS {automatic}
6 6 1 0 0 0

ATOMIC_SPECIES
C 12.01 C.pbe-n-rrkjus_psl.1.0.0.UPF
Ge 72.64 Ge.pbe-dn-rrkjus_psl.1.0.0.UPF
In 114.8 In.pbe-dn-rrkjus_psl.1.0.0.UPF
Li 6.941 Li.pbe-sl-rrkjus_psl.1.0.0.UPF
Mg 24.30 Mg.pbe-spnl-rrkjus_psl.1.0.0.UPF
O 15.99 O.pbe-n-rrkjus_psl.1.0.0.UPF


CELL_PARAMETERS {angstrom}
8.40992000 0.00000000 0.00000000
0.00000000 8.75068000 0.00000000
0.00000000 0.00000000 26.31390000

ATOMIC_POSITIONS {angstrom}
Li 2.10248000 2.18767000 3.42264897
Li 2.10248000 2.18767000 -1.0522928600000014 0 0 0
Li 2.10248000 6.56301000 3.48527606
Li 2.10248000 6.56301000 -1.0522928600000014 0 0 0
Li 6.30744000 2.18767000 3.48659175
Li 6.30744000 2.18767000 -1.0522928600000014 0 0 0
Li 6.30744000 6.56301000 3.48448664
Li 6.30744000 6.56301000 -1.0522928600000014 0 0 0
Mg 2.10248000 8.75015496 1.13018200
Mg 2.10248000 0.00000000 -3.1568785800000008 0 0 0
Mg 2.10248000 4.37586504 1.12991887
Mg 2.10248000 4.37534000 -3.1568785800000008 0 0 0
Mg 6.30744000 8.74534209 1.11044658
Mg 6.30744000 0.00000000 -3.1568785800000008 0 0 0
Mg 6.30744000 4.38067791 1.11044658
Mg 6.30744000 4.37534000 -3.1568785800000008 0 0 0
In 8.40243517 2.18767000 1.27517159
In 0.00000000 2.18767000 -3.1568785800000008 0 0 0
In 0.00470956 6.56301000 1.26754056
In 0.00000000 6.56301000 -3.1568785800000008 0 0 0
In 4.21244483 2.18767000 1.27517159
In 4.20496000 2.18767000 -3.1568785800000008 0 0 0
In 4.20025044 6.56301000 1.26754056
In 4.20496000 6.56301000 -3.1568785800000008 0 0 0
Ge 8.38654042 8.73431623 3.17740343
Ge 0.00000000 0.00000000 -1.0522928600000014 0 0 0
Ge 8.38654042 4.39170377 3.17740343
Ge 0.00000000 4.37534000 -1.0522928600000014 0 0 0
Ge 4.22833958 8.73431623 3.17740343
Ge 4.20496000 0.00000000 -1.0522928600000014 0 0 0
Ge 4.22833958 4.39170377 3.17740343
Ge 4.20496000 4.37534000 -1.0522928600000014 0 0 0
C 2.10248000 2.18767000 5.52091936
O 2.10248000 2.18767000 6.66057437
