&CONTROL
calculation = 'relax'
prefix = 'scf'
pseudo_dir = '/vol0004/mdt0/data/hp150275/u10028/POT_HYBRID_KKJUS_GBRV'
outdir = './data'
tprnfor = .true.
nstep = 50
disk_io = 'non'
/
&SYSTEM
ibrav = 0
ecutwfc = 50.0
ecutrho = 400
occupations = 'smearing'
smearing = 'mp'
degauss = 0.01
assume_isolated = 'esm'
esm_bc = 'bc1'
input_dft = 'BEEF-VDW'
nosym = .true.
nspin = 2
ntyp = 3
nat = 16
starting_magnetization(1) = 0.1
starting_magnetization(2) = 0.1
starting_magnetization(3) = 0.1
/
&ELECTRONS
electron_maxstep = 200
mixing_beta = 0.1
conv_thr = 1e-06
/
&IONS
ion_dynamics = 'bfgs'
upscale = 1.0
/
&CELL
/

K_POINTS {automatic}
8 8 1 0 0 0

ATOMIC_SPECIES
Al 26.98 Al.pbe-nl-rrkjus_psl.1.0.0.UPF
Cr 51.99 cr_pbe_v1.5.uspp.F.UPF
Fe 55.84 fe_pbe_v1.5.uspp.F.UPF

CELL_PARAMETERS {angstrom}
6.50665000 0.00000000 0.00000000
-0.00000000 6.50665000 0.00000000
0.00000000 0.00000000 24.88000000

ATOMIC_POSITIONS {angstrom}
Al 0.00000000 0.00000000 2.43998160
Al 3.25332500 3.25332500 2.43998160
Al 3.25332500 0.00000000 -0.8133271999999998 0 0 0
Al 0.00000000 3.25332500 -0.8133271999999998 0 0 0
Cr 0.00000000 0.00000000 -0.8133271999999998 0 0 0
Cr 3.25332500 -0.00000000 2.43998160
Cr 0.00000000 3.25332500 2.43998160
Cr 3.25332500 3.25332500 -0.8133271999999998 0 0 0
Fe 1.62666250 1.62666250 0.81332720
Fe 4.87998750 4.87998750 -2.4399815999999994 0 0 0
Fe 4.87998750 1.62666250 0.81332720
Fe 1.62666250 4.87998750 -2.4399815999999994 0 0 0
Fe 4.87998750 4.87998750 0.81332720
Fe 1.62666250 1.62666250 -2.4399815999999994 0 0 0
Fe 1.62666250 4.87998750 0.81332720
Fe 4.87998750 1.62666250 -2.4399815999999994 0 0 0
