&CONTROL
calculation = 'relax'
prefix = 'scf'
pseudo_dir = '/vol0004/mdt0/data/hp150275/u10028/POT_KKJUS'
outdir = './data'
tprnfor = .true.
nstep = 50
disk_io = 'non'
/
&SYSTEM
ibrav = 0
ecutwfc = 50.0
ecutrho = 400
occupations = 'smearing'
smearing = 'mp'
degauss = 0.01
assume_isolated = 'esm'
esm_bc = 'bc1'
input_dft = 'BEEF-VDW'
nosym = .true.
nspin = 1
ntyp = 3
nat = 17
/
&ELECTRONS
electron_maxstep = 200
mixing_beta = 0.1
conv_thr = 1e-06
/
&IONS
ion_dynamics = 'bfgs'
upscale = 1.0
/
&CELL
/

K_POINTS {automatic}
8 11 2 0  0  0

ATOMIC_SPECIES
C 12.01 C.pbe-n-rrkjus_psl.1.0.0.UPF
Ni 58.69 Ni.pbe-spn-rrkjus_psl.1.0.0.UPF
Sn 118.7 Sn.pbe-dn-rrkjus_psl.1.0.0.UPF

CELL_PARAMETERS {angstrom}
7.54412000 0.00000000 0.00000000
0.00000000 5.33450000 0.00000000
0.00000000 0.00000000 24.00090000

ATOMIC_POSITIONS {angstrom}
Ni 0.07129193 2.66084860 1.94311286
Ni 1.88595456 4.06387544 0.71186669
Ni 1.88595456 1.27259832 0.70874658
Ni 0.00000000 0.00000000 -0.6667450000000024 0 0 0
Ni 1.88603000 1.33362500 -2.0004750100000024 0 0 0
Ni 1.88603000 4.00087500 -2.0004750100000024 0 0 0
Ni 3.70076807 2.66084860 1.94311286
Ni 5.65809000 4.00620950 0.63554383
Ni 5.65809000 1.32653012 0.63314374
Ni 3.77206000 0.00000000 -0.6667450000000024 0 0 0
Ni 5.65809000 1.33362500 -2.0004750100000024 0 0 0
Ni 5.65809000 4.00087500 -2.0004750100000024 0 0 0
Sn 7.38358113 5.32868540 2.14544045
Sn 0.00000000 2.66725000 -0.6667450000000024 0 0 0
Sn 3.93252343 5.32868540 2.14544045
Sn 3.77206000 2.66725000 -0.6667450000000024 0 0 0
C 1.88603000 2.66655651 1.94983312
