&CONTROL
calculation = 'relax'
prefix = 'scf'
pseudo_dir = '/vol0004/mdt0/data/hp150275/u10028/POT_KKJUS'
outdir = './data'
tprnfor = .true.
nstep = 50
disk_io = 'non'
/
&SYSTEM
ibrav = 0
ecutwfc = 50.0
ecutrho = 400
occupations = 'smearing'
smearing = 'mp'
degauss = 0.01
assume_isolated = 'esm'
esm_bc = 'bc1'
input_dft = 'BEEF-VDW'
nosym = .true.
nspin = 1
ntyp = 4
nat = 33
/
&ELECTRONS
electron_maxstep = 200
mixing_beta = 0.1
conv_thr = 1e-06
/
&IONS
ion_dynamics = 'bfgs'
upscale = 1.0
/
&CELL
/

K_POINTS {automatic}
9 6 2 0  0  0

ATOMIC_SPECIES
Ag 107.8 Ag.pbe-n-rrkjus_psl.1.0.0.UPF
C 12.01 C.pbe-n-rrkjus_psl.1.0.0.UPF
Li 6.941 Li.pbe-sl-rrkjus_psl.1.0.0.UPF
Sb 121.7 Sb.pbe-n-rrkjus_psl.1.0.0.UPF

CELL_PARAMETERS {angstrom}
6.69979000 0.00000000 0.00000000
0.00000000 9.47494000 0.00000000
0.00000000 0.00000000 27.10620000

ATOMIC_POSITIONS {angstrom}
Li 0.00000000 7.10620500 -1.1842698800000022 0 0 0
Li 3.34989500 0.00000000 -3.5530807000000024 0 0 0
Li 0.00000000 2.36873500 -1.1842698800000022 0 0 0
Li 3.34989500 4.73747000 -3.5530807000000024 0 0 0
Li 1.67494750 0.00000000 -1.1842698800000022 0 0 0
Li 1.67494750 4.73747000 -1.1842698800000022 0 0 0
Li 5.02484250 7.10620500 -3.5530807000000024 0 0 0
Li 5.02484250 2.36873500 -3.5530807000000024 0 0 0
Li 0.05775219 2.38427390 3.31915419
Li 3.34085028 4.73747000 0.98666568
Li 0.05768519 7.09066610 3.31915419
Li 2.93464202 0.00000000 1.91234241
Li 1.85155396 4.73747000 3.54576202
Li 1.51924438 0.00000000 4.84170944
Li 4.87985904 2.26602665 1.22601343
Li 4.87979205 7.20891335 1.22601343
Ag 1.67494750 2.36873500 -3.5530807000000024 0 0 0
Ag 1.67494750 7.10620500 -3.5530807000000024 0 0 0
Ag 5.02484250 4.73747000 -1.1842698800000022 0 0 0
Ag 5.02484250 0.00000000 -1.1842698800000022 0 0 0
Ag 1.75889587 7.06110429 1.15607943
Ag 1.75889587 2.41383571 1.15607943
Ag 5.37256160 0.00000000 3.58506601
Ag 4.70238161 4.73747000 3.41998925
Sb 0.00000000 0.00000000 -3.5530807000000024 0 0 0
Sb 3.34989500 2.36873500 -1.1842698800000022 0 0 0
Sb 3.34989500 7.10620500 -1.1842698800000022 0 0 0
Sb 0.00000000 4.73747000 -3.5530807000000024 0 0 0
Sb 6.65114952 4.73747000 1.33362504
Sb 3.10910455 7.26017278 3.73794498
Sb 3.10910455 2.21476723 3.73794498
Sb 0.04857348 0.00000000 1.23143467
C 3.52931538 0.00000000 4.63759976
