&CONTROL
calculation = 'relax'
prefix = 'scf'
pseudo_dir = '/vol0004/mdt0/data/hp150275/u10028/POT_HYBRID_KKJUS_GBRV'
outdir = './data'
tprnfor = .true.
nstep = 70
disk_io = 'non'
/
&SYSTEM
ibrav = 0
ecutwfc = 50.0
ecutrho = 400
occupations = 'smearing'
smearing = 'mp'
degauss = 0.01
assume_isolated = 'esm'
esm_bc = 'bc1'
input_dft = 'BEEF-VDW'
nosym = .true.
nspin = 1
ntyp = 3
nat = 33
/
&ELECTRONS
electron_maxstep = 200
mixing_beta = 0.1
conv_thr = 1e-06
/
&IONS
ion_dynamics = 'bfgs'
upscale = 1.0
/
&CELL
/

K_POINTS {automatic}
6 8 1 0 0 0

ATOMIC_SPECIES
C 12.01 C.pbe-n-rrkjus_psl.1.0.0.UPF
Pt 195.0 Pt.pbe-n-rrkjus_psl.1.0.0.UPF
V 50.94 V.pbe-spnl-rrkjus_psl.1.0.0.UPF

CELL_PARAMETERS {angstrom}
7.54248000 0.00000000 0.00000000
-0.00000000 7.20000000 0.00000000
0.00000000 0.00000000 25.65690000

ATOMIC_POSITIONS {angstrom}
V 1.88562000 1.80000000 -2.828416660000002 0 0 0
V 0.00000000 1.80000000 -0.9428910700000017 0 0 0
V 1.88562000 1.80000000 0.94289107
V 0.00000000 1.80000000 2.82841666
V 1.88562000 5.40000000 -2.828416660000002 0 0 0
V 0.00000000 5.40000000 -0.9428910700000017 0 0 0
V 1.88562000 5.40000000 0.94289107
V 0.00000000 5.40000000 2.82841666
V 5.65686000 1.80000000 -2.828416660000002 0 0 0
V 3.77124000 1.80000000 -0.9428910700000017 0 0 0
V 5.65686000 1.80000000 0.94289107
V 3.77124000 1.80000000 2.82841666
V 5.65686000 5.40000000 -2.828416660000002 0 0 0
V 3.77124000 5.40000000 -0.9428910700000017 0 0 0
V 5.65686000 5.40000000 0.94289107
V 3.77124000 5.40000000 2.82841666
Pt 0.00000000 0.00000000 -2.828416660000002 0 0 0
Pt 1.88562000 0.00000000 -0.9428910700000017 0 0 0
Pt 0.00000000 0.00000000 0.94289107
Pt 1.88562000 -0.00000000 2.82841666
Pt 0.00000000 3.60000000 -2.828416660000002 0 0 0
Pt 1.88562000 3.60000000 -0.9428910700000017 0 0 0
Pt 0.00000000 3.60000000 0.94289107
Pt 1.88562000 3.60000000 2.82841666
Pt 3.77124000 0.00000000 -2.828416660000002 0 0 0
Pt 5.65686000 0.00000000 -0.9428910700000017 0 0 0
Pt 3.77124000 -0.00000000 0.94289107
Pt 5.65686000 -0.00000000 2.82841666
Pt 3.77124000 3.60000000 -2.828416660000002 0 0 0
Pt 5.65686000 3.60000000 -0.9428910700000017 0 0 0
Pt 3.77124000 3.60000000 0.94289107
Pt 5.65686000 3.60000000 2.82841666
C 0.00000000 0.00000000 3.62839880
