&CONTROL
calculation = 'relax'
prefix = 'scf'
pseudo_dir = '/vol0004/mdt0/data/hp150275/u10028/POT_HYBRID_KKJUS_GBRV'
outdir = './data'
tprnfor = .true.
nstep = 50
disk_io = 'non'
/
&SYSTEM
ibrav = 0
ecutwfc = 50.0
ecutrho = 400
occupations = 'smearing'
smearing = 'mp'
degauss = 0.01
assume_isolated = 'esm'
esm_bc = 'bc1'
input_dft = 'BEEF-VDW'
nosym = .true.
nspin = 2
ntyp = 5
nat = 34
starting_magnetization(1) = 0.0
starting_magnetization(2) = 0.1
starting_magnetization(3) = 0.0
starting_magnetization(4) = 0.001
starting_magnetization(5) = 0.0
/
&ELECTRONS
electron_maxstep = 300
mixing_beta = 0.1
conv_thr = 1e-06
/
&IONS
ion_dynamics = 'bfgs'
upscale = 1.0
/
&CELL
/

K_POINTS {automatic}
8 6 1 0 0 0

ATOMIC_SPECIES
C 12.01 C.pbe-n-rrkjus_psl.1.0.0.UPF
Fe 55.84 fe_pbe_v1.5.uspp.F.UPF
Ga 69.72 Ga.pbe-dnl-rrkjus_psl.1.0.0.UPF
Ni 58.69 ni_pbe_v1.4.uspp.F.UPF
O 15.99 O.pbe-n-rrkjus_psl.1.0.0.UPF

CELL_PARAMETERS {angstrom}
5.81401000 0.00000000 0.00000000
0.00000000 8.22225000 0.00000000
0.00000000 0.00000000 26.16670000

ATOMIC_POSITIONS {angstrom}
Ga 0.00000000 0.00000000 -3.0832222599999994 0 0 0
Ga 2.90700500 2.05556250 -1.0278279799999979 0 0 0
Ga 2.90700500 6.16668750 -1.0278279799999979 0 0 0
Ga 0.00000000 4.11112500 -3.0832222599999994 0 0 0
Ga 0.00000000 4.14171177 1.04038799
Ga 2.90694686 6.16693417 3.70101805
Ga 2.90706314 2.05523361 3.67877635
Ga 0.00000000 8.19174545 1.04091133
Fe 1.45350250 0.00000000 -1.0278279799999979 0 0 0
Fe 4.36050750 4.11112500 -1.0278279799999979 0 0 0
Fe 4.36050750 0.00000000 -1.0278279799999979 0 0 0
Fe 1.45350250 4.11112500 -1.0278279799999979 0 0 0
Fe 4.36050750 6.16668750 -3.0832222599999994 0 0 0
Fe 1.45350250 2.05556250 -3.0832222599999994 0 0 0
Fe 1.45350250 6.16668750 -3.0832222599999994 0 0 0
Fe 4.36050750 2.05556250 -3.0832222599999994 0 0 0
Fe 1.62803908 4.13735398 2.99373215
Fe 4.18597092 8.19585658 2.99294715
Fe 4.18591278 4.13743620 2.99373215
Fe 1.62792280 8.19593880 2.99294715
Fe 4.25701812 2.05515139 1.23323657
Fe 1.62629488 6.16742750 1.26201994
Fe 1.55693374 2.05515139 1.23323657
Fe 4.18771512 6.16742750 1.26228161
Ni 0.00000000 6.16668750 -1.0278279799999979 0 0 0
Ni 2.90700500 0.00000000 -3.0832222599999994 0 0 0
Ni 0.00000000 2.05556250 -1.0278279799999979 0 0 0
Ni 2.90700500 4.11112500 -3.0832222599999994 0 0 0
Ni 0.00000000 2.05506917 2.98457380
Ni 2.90700500 4.07897600 0.78473933
Ni 0.00005814 6.16718083 3.00236716
Ni 2.90694686 0.03190233 0.78473933
C 2.90752826 2.05531583 5.88462916
O 2.90706314 2.05548028 7.02628228
