&CONTROL
calculation = 'relax'
prefix = 'scf'
pseudo_dir = '/vol0004/mdt0/data/hp150275/u10028/POT_HYBRID_KKJUS_GBRV'
outdir = './data'
tprnfor = .true.
nstep = 50
disk_io = 'non'
/
&SYSTEM
ibrav = 0
ecutwfc = 50.0
ecutrho = 400
occupations = 'smearing'
smearing = 'mp'
degauss = 0.01
assume_isolated = 'esm'
esm_bc = 'bc1'
input_dft = 'BEEF-VDW'
nosym = .true.
nspin = 2
ntyp = 5
nat = 34
starting_magnetization(1) = 0.0
starting_magnetization(2) = 0.1
starting_magnetization(3) = 0.0
starting_magnetization(4) = 0.0
starting_magnetization(5) = 0.0
/
&ELECTRONS
electron_maxstep = 300
mixing_beta = 0.1
conv_thr = 1e-06
/
&IONS
ion_dynamics = 'bfgs'
upscale = 1.0
/
&CELL
/

K_POINTS {automatic}
8 6 1 0 0 0

ATOMIC_SPECIES
C 12.01 C.pbe-n-rrkjus_psl.1.0.0.UPF
Co 58.93 co_pbe_v1.2.uspp.F.UPF
Ga 69.72 Ga.pbe-dnl-rrkjus_psl.1.0.0.UPF
O 15.99 O.pbe-n-rrkjus_psl.1.0.0.UPF
V 50.94 V.pbe-spnl-rrkjus_psl.1.0.0.UPF

CELL_PARAMETERS {angstrom}
5.77968000 0.00000000 0.00000000
0.00000000 8.17370000 0.00000000
0.00000000 0.00000000 26.13030000

ATOMIC_POSITIONS {angstrom}
V 0.00000000 0.00000000 -3.0650841899999968 0 0 0
V 2.88984000 2.04342500 -1.0216947299999966 0 0 0
V 2.88984000 6.13027500 -1.0216947299999966 0 0 0
V 0.00000000 4.08685000 -3.0650841899999968 0 0 0
V 0.00011559 4.09412459 1.09773390
V 2.88984000 6.13035674 3.00785883
V 2.88984000 2.04326153 2.99923583
V 0.00011559 8.16642541 1.09773390
Ga 0.00000000 6.13027500 -1.0216947299999966 0 0 0
Ga 2.88984000 0.00000000 -3.0650841899999968 0 0 0
Ga 0.00000000 2.04342500 -1.0216947299999966 0 0 0
Ga 2.88984000 4.08685000 -3.0650841899999968 0 0 0
Ga 0.00000000 2.04391542 3.26654880
Ga 2.88978220 4.08856648 0.98406710
Ga 0.00000000 6.12970284 3.30626686
Ga 2.88978220 8.17190179 0.98354449
Co 1.44492000 0.00000000 -1.0216947299999966 0 0 0
Co 4.33476000 4.08685000 -1.0216947299999966 0 0 0
Co 4.33476000 0.00000000 -1.0216947299999966 0 0 0
Co 1.44492000 4.08685000 -1.0216947299999966 0 0 0
Co 4.33476000 6.13027500 -3.0650841899999968 0 0 0
Co 1.44492000 2.04342500 -3.0650841899999968 0 0 0
Co 1.44492000 6.13027500 -3.0650841899999968 0 0 0
Co 4.33476000 2.04342500 -3.0650841899999968 0 0 0
Co 1.44827221 4.09175422 2.93286487
Co 4.33163897 8.16871404 2.93312617
Co 4.33152338 4.09175422 2.93286487
Co 1.44821442 8.16871404 2.93286487
Co 4.34487444 2.04367021 1.03423727
Co 1.43018182 6.12994805 1.04181506
Co 1.43492115 2.04375195 1.03423727
Co 4.34967157 6.12994805 1.04181506
C 5.77840847 2.04375195 7.00213649
O 5.77956441 2.04342500 8.13723672
