&CONTROL
calculation = 'relax'
prefix = 'scf'
pseudo_dir = '/vol0403/data/hp230205/u10028/POT_HYBRID_KKJUS_GBRV'
outdir = './data'
tprnfor = .true.
nstep = 50
disk_io = 'non'
/
&SYSTEM
ibrav = 0
ecutwfc = 50.0
ecutrho = 400
occupations = 'smearing'
smearing = 'mp'
degauss = 0.01
assume_isolated = 'esm'
esm_bc = 'bc1'
input_dft = 'BEEF-VDW'
nosym = .true.
nspin = 1
ntyp = 4
nat = 16
/
&ELECTRONS
electron_maxstep = 200
mixing_beta = 0.1
conv_thr = 1e-06
/
&IONS
ion_dynamics = 'bfgs'
upscale = 1.0
/
&CELL
/

K_POINTS {automatic}
8 8 1 0 0 0

ATOMIC_SPECIES
In 114.8 In.pbe-dn-rrkjus_psl.1.0.0.UPF
Li 6.941 Li.pbe-sl-rrkjus_psl.1.0.0.UPF
Pt 195.0 Pt.pbe-n-rrkjus_psl.1.0.0.UPF
Y 88.90 Y.pbe-spn-rrkjus_psl.1.0.0.UPF


CELL_PARAMETERS {angstrom}
6.80323000 0.00000000 0.00000000
0.00000000 6.80323000 0.00000000
0.00000000 0.00000000 25.10240000

ATOMIC_POSITIONS {angstrom}
Li 5.09650369 1.70659025 0.87130430
Li 5.10242250 5.10242250 -2.5511569099999996 0 0 0
Li 1.70080750 1.70080750 -2.5511569099999996 0 0 0
Li 1.70665828 5.09657172 0.87130430
Y 6.80309394 3.40141090 2.55341613
Y 0.00000000 0.00000000 -0.8504693100000011 0 0 0
Y 3.40161500 3.40161500 -0.8504693100000011 0 0 0
Y 3.40175106 0.00006803 2.55366715
In 0.00000000 6.80316197 2.57600829
In 0.00000000 3.40161500 -0.8504693100000011 0 0 0
In 3.40161500 0.00000000 -0.8504693100000011 0 0 0
In 3.40161500 3.40161500 2.58153082
Pt 1.70278044 1.70284847 0.86201642
Pt 1.70080750 5.10242250 -2.5511569099999996 0 0 0
Pt 5.10242250 1.70080750 -2.5511569099999996 0 0 0
Pt 5.10044956 5.10044956 0.86176539
