&CONTROL
calculation = 'relax'
prefix = 'scf'
pseudo_dir = '/vol0004/mdt0/data/hp150275/u10028/POT_HYBRID_KKJUS_GBRV'
outdir = './data'
tprnfor = .true.
nstep = 50
disk_io = 'non'
/
&SYSTEM
ibrav = 0
ecutwfc = 50.0
ecutrho = 400
occupations = 'smearing'
smearing = 'mp'
degauss = 0.01
assume_isolated = 'esm'
esm_bc = 'bc1'
input_dft = 'BEEF-VDW'
nosym = .true.
nspin = 2
ntyp = 4
nat = 33
starting_magnetization(1) = 0.0
starting_magnetization(2) = 0.1
starting_magnetization(3) = 0.1
starting_magnetization(4) = 0.0
/
&ELECTRONS
electron_maxstep = 300
mixing_beta = 0.1
conv_thr = 1e-06
/
&IONS
ion_dynamics = 'bfgs'
upscale = 1.0
/
&CELL
/

K_POINTS {automatic}
9 6 2 0  0  0

ATOMIC_SPECIES
C 12.01 C.pbe-n-rrkjus_psl.1.0.0.UPF
Co 58.93 co_pbe_v1.2.uspp.F.UPF
Mn 54.93 mn_pbe_v1.5.uspp.F.UPF
Sb 121.7 Sb.pbe-n-rrkjus_psl.1.0.0.UPF

CELL_PARAMETERS {angstrom}
6.03986000 0.00000000 0.00000000
0.00000000 8.54165000 0.00000000
0.00000000 0.00000000 26.40620000

ATOMIC_POSITIONS {angstrom}
Mn 0.00000000 0.00000000 -3.2030720599999967 0 0 0
Mn 3.01993000 2.13541250 -1.0676026699999994 0 0 0
Mn 3.01993000 6.40623750 -1.0676026699999994 0 0 0
Mn 0.00000000 4.27082500 -3.2030720599999967 0 0 0
Mn 6.03979960 4.27082500 1.07077141
Mn 3.01993000 6.42733538 3.25403603
Mn 3.01993000 2.11431462 3.25403603
Mn 0.00000000 0.00000000 1.01162152
Co 1.50996500 0.00000000 -1.0676026699999994 0 0 0
Co 4.52989500 4.27082500 -1.0676026699999994 0 0 0
Co 4.52989500 0.00000000 -1.0676026699999994 0 0 0
Co 1.50996500 4.27082500 -1.0676026699999994 0 0 0
Co 4.52989500 6.40623750 -3.2030720599999967 0 0 0
Co 1.50996500 2.13541250 -3.2030720599999967 0 0 0
Co 1.50996500 6.40623750 -3.2030720599999967 0 0 0
Co 4.52989500 2.13541250 -3.2030720599999967 0 0 0
Co 1.50924022 4.27082500 3.07077700
Co 4.68222027 0.00000000 3.09797538
Co 4.53061978 4.27082500 3.07077700
Co 1.35757933 0.00000000 3.09797538
Co 4.55791995 2.11038547 1.10668384
Co 1.48194005 6.43134995 1.10668384
Co 1.48194005 2.11030005 1.10668384
Co 4.55791995 6.43126453 1.10668384
Sb 0.00000000 6.40623750 -1.0676026699999994 0 0 0
Sb 3.01993000 0.00000000 -3.2030720599999967 0 0 0
Sb 0.00000000 2.13541250 -1.0676026699999994 0 0 0
Sb 3.01993000 4.27082500 -3.2030720599999967 0 0 0
Sb 0.00000000 2.18802906 3.42884507
Sb 3.01986960 4.27082500 1.06152924
Sb 0.00000000 6.35362094 3.42884507
Sb 3.01993000 0.00000000 1.01927932
C 3.01993000 0.00000000 3.67125399
