&CONTROL
calculation = 'relax'
prefix = 'scf'
pseudo_dir = '/vol0004/mdt0/data/hp150275/u10028/POT_KKJUS'
outdir = './data'
tprnfor = .true.
nstep = 50
disk_io = 'non'
/
&SYSTEM
ibrav = 0
ecutwfc = 50.0
ecutrho = 400
occupations = 'smearing'
smearing = 'mp'
degauss = 0.01
assume_isolated = 'esm'
esm_bc = 'bc1'
input_dft = 'BEEF-VDW'
nosym = .true.
nspin = 1
ntyp = 4
nat = 33
/
&ELECTRONS
electron_maxstep = 200
mixing_beta = 0.1
conv_thr = 1e-06
/
&IONS
ion_dynamics = 'bfgs'
upscale = 1.0
/
&CELL
/

K_POINTS {automatic}
9 6 2 0  0  0

ATOMIC_SPECIES
Ag 107.8 Ag.pbe-n-rrkjus_psl.1.0.0.UPF
C 12.01 C.pbe-n-rrkjus_psl.1.0.0.UPF
In 114.8 In.pbe-dn-rrkjus_psl.1.0.0.UPF
Mg 24.30 Mg.pbe-spnl-rrkjus_psl.1.0.0.UPF

CELL_PARAMETERS {angstrom}
6.85111000 0.00000000 0.00000000
0.00000000 9.68893000 0.00000000
0.00000000 0.00000000 27.26670000

ATOMIC_POSITIONS {angstrom}
Mg 0.00000000 0.00000000 -3.633287769999999 0 0 0
Mg 3.42555500 2.42223250 -1.211186810000001 0 0 0
Mg 3.42555500 7.26669750 -1.211186810000001 0 0 0
Mg 0.00000000 4.84446500 -3.633287769999999 0 0 0
Mg 0.00000000 4.84446500 1.18228411
Mg 3.42555500 7.17097087 3.80561332
Mg 3.42555500 2.51795913 3.80588599
Mg 0.00000000 0.00000000 1.39959971
In 0.00000000 7.26669750 -1.211186810000001 0 0 0
In 3.42555500 0.00000000 -3.633287769999999 0 0 0
In 0.00000000 2.42223250 -1.211186810000001 0 0 0
In 3.42555500 4.84446500 -3.633287769999999 0 0 0
In 0.00000000 2.28900971 3.94821816
In 3.42555500 4.84446500 1.30634760
In 0.00000000 7.39992029 3.94821816
In 3.42555500 0.00000000 1.32679762
Ag 1.71277750 0.00000000 -1.211186810000001 0 0 0
Ag 5.13833250 4.84446500 -1.211186810000001 0 0 0
Ag 5.13833250 0.00000000 -1.211186810000001 0 0 0
Ag 1.71277750 4.84446500 -1.211186810000001 0 0 0
Ag 5.13833250 7.26669750 -3.633287769999999 0 0 0
Ag 1.71277750 2.42223250 -3.633287769999999 0 0 0
Ag 1.71277750 7.26669750 -3.633287769999999 0 0 0
Ag 5.13833250 2.42223250 -3.633287769999999 0 0 0
Ag 1.61912283 4.84446500 3.69054784
Ag 4.77392196 0.00000000 4.24406185
Ag 5.23198717 4.84446500 3.69054784
Ag 2.07725655 0.00000000 4.24406185
Ag 5.16237990 2.44306370 1.26053954
Ag 1.68873010 7.24586630 1.26053954
Ag 1.68873010 2.44306370 1.26053954
Ag 5.16237990 7.24586630 1.26026687
C 0.00000000 0.00000000 3.58966105
