&CONTROL
calculation = 'relax'
prefix = 'scf'
pseudo_dir = '/vol0403/data/hp230205/u10028/POT_HYBRID_KKJUS_GBRV'
outdir = './data'
tprnfor = .true.
nstep = 50
disk_io = 'non'
/
&SYSTEM
ibrav = 0
ecutwfc = 50.0
ecutrho = 400
occupations = 'smearing'
smearing = 'mp'
degauss = 0.01
assume_isolated = 'esm'
esm_bc = 'bc1'
input_dft = 'BEEF-VDW'
nosym = .true.
nspin = 2
ntyp = 4
nat = 32
starting_magnetization(1) = 0.0
starting_magnetization(2) = 0.1
starting_magnetization(3) = 0.0
starting_magnetization(4) = 0.0
/
&ELECTRONS
electron_maxstep = 200
mixing_beta = 0.1
conv_thr = 1e-06
/
&IONS
ion_dynamics = 'bfgs'
upscale = 1.0
/
&CELL
/

K_POINTS {automatic}
6 6 1 0 0 0

ATOMIC_SPECIES
Li 6.941 Li.pbe-sl-rrkjus_psl.1.0.0.UPF
Mn 54.93 mn_pbe_v1.5.uspp.F.UPF
Pd 106.4 Pd.pbe-n-rrkjus_psl.1.0.0.UPF
Sb 121.7 Sb.pbe-n-rrkjus_psl.1.0.0.UPF


CELL_PARAMETERS {angstrom}
6.44934000 0.00000000 0.00000000
0.00000000 9.12074000 0.00000000
0.00000000 0.00000000 26.84060000

ATOMIC_POSITIONS {angstrom}
Li 0.00000000 0.00000000 -3.4202976599999992 0 0 0
Li 0.00000000 4.56037000 -3.4202976599999992 0 0 0
Li 3.22467000 6.84055500 -1.1401886899999987 0 0 0
Li 3.22467000 2.28018500 -1.1401886899999987 0 0 0
Li 6.36904572 4.56037000 1.11656896
Li 6.36911021 0.00000000 1.11656896
Li 3.14818083 2.28018500 3.68843525
Li 3.14818083 6.84055500 3.68843525
Mn 0.00000000 2.28018500 -1.1401886899999987 0 0 0
Mn 0.00000000 6.84055500 -1.1401886899999987 0 0 0
Mn 3.22467000 4.56037000 -3.4202976599999992 0 0 0
Mn 3.22467000 0.00000000 -3.4202976599999992 0 0 0
Mn 6.36362827 6.84055500 3.39157822
Mn 6.36356378 2.28018500 3.39157822
Mn 3.29271054 0.00000000 1.22312614
Mn 3.29264604 4.56037000 1.22312614
Sb 4.83700500 0.00000000 -1.1401886899999987 0 0 0
Sb 4.83700500 4.56037000 -1.1401886899999987 0 0 0
Sb 1.61233500 2.28018500 -3.4202976599999992 0 0 0
Sb 1.61233500 6.84055500 -3.4202976599999992 0 0 0
Sb 4.84822685 4.56037000 3.60281374
Sb 4.84822685 0.00000000 3.60281374
Sb 1.66708990 6.84055500 1.20487453
Sb 1.66708990 2.28018500 1.20487453
Pd 1.61233500 0.00000000 -1.1401886899999987 0 0 0
Pd 1.61233500 4.56037000 -1.1401886899999987 0 0 0
Pd 4.83700500 2.28018500 -3.4202976599999992 0 0 0
Pd 4.83700500 6.84055500 -3.4202976599999992 0 0 0
Pd 1.42001568 4.56037000 3.15538094
Pd 1.42001568 0.00000000 3.15538094
Pd 4.76973838 6.84055500 1.11093243
Pd 4.76973838 2.28018500 1.11093243
