&CONTROL
calculation = 'relax'
prefix = 'scf'
pseudo_dir = '/vol0004/mdt0/data/hp150275/u10028/POT_HYBRID_KKJUS_GBRV'
outdir = './data'
tprnfor = .true.
nstep = 50
disk_io = 'non'
/
&SYSTEM
ibrav = 0
ecutwfc = 50.0
ecutrho = 400
occupations = 'smearing'
smearing = 'mp'
degauss = 0.01
assume_isolated = 'esm'
esm_bc = 'bc1'
input_dft = 'BEEF-VDW'
nosym = .true.
nspin = 2
ntyp = 4
nat = 33
starting_magnetization(1) = 0.0
starting_magnetization(2) = 0.1
starting_magnetization(3) = 0.1
starting_magnetization(4) = 0.0
/
&ELECTRONS
electron_maxstep = 300
mixing_beta = 0.1
conv_thr = 1e-06
/
&IONS
ion_dynamics = 'bfgs'
upscale = 1.0
/
&CELL
/

K_POINTS {automatic}
8 6 1 0 0 0

ATOMIC_SPECIES
C 12.01 C.pbe-n-rrkjus_psl.1.0.0.UPF
Co 58.93 co_pbe_v1.2.uspp.F.UPF
Fe 55.84 fe_pbe_v1.5.uspp.F.UPF
In 114.8 In.pbe-dn-rrkjus_psl.1.0.0.UPF

CELL_PARAMETERS {angstrom}
6.01864000 0.00000000 0.00000000
0.00000000 8.51164000 0.00000000
0.00000000 0.00000000 26.38370000

ATOMIC_POSITIONS {angstrom}
In 0.00000000 0.00000000 -3.1919000299999993 0 0 0
In 3.00932000 2.12791000 -1.0640546200000003 0 0 0
In 3.00932000 6.38373000 -1.0640546200000003 0 0 0
In 0.00000000 4.25582000 -3.1919000299999993 0 0 0
In 0.00006019 4.25582000 0.98384817
In 3.00925981 6.24064933 3.72326774
In 3.00932000 2.27099067 3.72300391
In 0.00012037 0.00000000 0.97092016
Fe 0.00000000 6.38373000 -1.0640546200000003 0 0 0
Fe 3.00932000 0.00000000 -3.1919000299999993 0 0 0
Fe 0.00000000 2.12791000 -1.0640546200000003 0 0 0
Fe 3.00932000 4.25582000 -3.1919000299999993 0 0 0
Fe 0.00012037 2.18110775 3.05021956
Fe 3.00925981 4.25573488 1.12843085
Fe 0.00012037 6.33053225 3.04995572
Fe 3.00919963 0.00000000 1.14083119
Co 1.50466000 0.00000000 -1.0640546200000003 0 0 0
Co 4.51398000 4.25582000 -1.0640546200000003 0 0 0
Co 4.51398000 0.00000000 -1.0640546200000003 0 0 0
Co 1.50466000 4.25582000 -1.0640546200000003 0 0 0
Co 4.51398000 6.38373000 -3.1919000299999993 0 0 0
Co 1.50466000 2.12791000 -3.1919000299999993 0 0 0
Co 1.50466000 6.38373000 -3.1919000299999993 0 0 0
Co 4.51398000 2.12791000 -3.1919000299999993 0 0 0
Co 1.42003792 4.25582000 3.11116590
Co 4.72336849 0.00000000 3.15812889
Co 4.59866226 4.25582000 3.11116590
Co 1.29527151 0.00000000 3.15812889
Co 4.42580692 2.13174024 1.18383662
Co 1.59289326 6.37989976 1.18410046
Co 1.59277289 2.13174024 1.18410046
Co 4.42568655 6.37989976 1.18383662
C 3.00925981 8.51155488 3.33912107
