&CONTROL
calculation = 'relax'
prefix = 'scf'
pseudo_dir = '/vol0403/data/hp230205/u10028/POT_HYBRID_KKJUS_GBRV'
outdir = './data'
tprnfor = .true.
nstep = 50
disk_io = 'non'
/
&SYSTEM
ibrav = 0
ecutwfc = 50.0
ecutrho = 400
occupations = 'smearing'
smearing = 'mp'
degauss = 0.01
assume_isolated = 'esm'
esm_bc = 'bc1'
input_dft = 'BEEF-VDW'
nosym = .true.
nspin = 1
ntyp = 4
nat = 16
/
&ELECTRONS
electron_maxstep = 200
mixing_beta = 0.1
conv_thr = 1e-06
/
&IONS
ion_dynamics = 'bfgs'
upscale = 1.0
/
&CELL
/

K_POINTS {automatic}
8 11 2 0  0  0

ATOMIC_SPECIES
Al 26.98 Al.pbe-nl-rrkjus_psl.1.0.0.UPF
Ge 72.64 Ge.pbe-dn-rrkjus_psl.1.0.0.UPF
Li 6.941 Li.pbe-sl-rrkjus_psl.1.0.0.UPF
Pd 106.4 Pd.pbe-n-rrkjus_psl.1.0.0.UPF


CELL_PARAMETERS {angstrom}
7.42946000 0.00000000 0.00000000
0.00000000 5.69495000 0.00000000
0.00000000 0.00000000 24.27100000

ATOMIC_POSITIONS {angstrom}
Li 0.00000000 2.84747500 -2.135605290000001 0 0 0
Li 0.00000000 5.66442507 0.78006994
Li 3.71473000 2.84747500 -2.135605290000001 0 0 0
Li 3.71473000 5.66448202 0.78031265
Al 0.00000000 0.00000000 -2.135605290000001 0 0 0
Al 0.00000000 2.75026220 0.82521400
Al 3.71473000 0.00000000 -2.135605290000001 0 0 0
Al 3.71473000 2.75026220 0.82521400
Ge 1.85736500 4.25617783 -0.7118684299999991 0 0 0
Ge 1.85729071 1.37299550 2.17395347
Ge 5.57209500 4.25617783 -0.7118684299999991 0 0 0
Ge 5.57209500 1.37299550 2.17395347
Pd 1.85736500 1.40870283 -0.7118684299999991 0 0 0
Pd 1.85736500 4.12906655 1.95842699
Pd 5.57209500 1.40870283 -0.7118684299999991 0 0 0
Pd 5.57209500 4.12906655 1.95842699
