&CONTROL
calculation = 'relax'
prefix = 'scf'
pseudo_dir = '/vol0403/data/hp230205/u10028/POT_HYBRID_KKJUS_GBRV'
outdir = './data'
tprnfor = .true.
nstep = 70
disk_io = 'non'
/
&SYSTEM
ibrav = 0
ecutwfc = 50.0
ecutrho = 400
occupations = 'smearing'
smearing = 'mp'
degauss = 0.01
assume_isolated = 'esm'
esm_bc = 'bc1'
input_dft = 'BEEF-VDW'
nosym = .true.
nspin = 1
ntyp = 6
nat = 34
/
&ELECTRONS
electron_maxstep = 200
mixing_beta = 0.1
conv_thr = 1e-06
/
&IONS
ion_dynamics = 'bfgs'
upscale = 1.0
/
&CELL
/

K_POINTS {automatic}
9 6 2 0  0  0

ATOMIC_SPECIES
Ag 107.8 Ag.pbe-n-rrkjus_psl.1.0.0.UPF
C 12.01 C.pbe-n-rrkjus_psl.1.0.0.UPF
Cu 63.54 Cu.pbe-dn-rrkjus_psl.1.0.0.UPF
In 114.8 In.pbe-dn-rrkjus_psl.1.0.0.UPF
Li 6.941 Li.pbe-sl-rrkjus_psl.1.0.0.UPF
O 15.99 O.pbe-n-rrkjus_psl.1.0.0.UPF


CELL_PARAMETERS {angstrom}
6.40797000 0.00000000 0.00000000
-0.00000000 9.06224000 0.00000000
0.00000000 0.00000000 26.79670000

ATOMIC_POSITIONS {angstrom}
Li 4.80597750 0.00000000 -1.1326965100000024 0 0 0
Li 4.80597750 4.53112000 -1.1326965100000024 0 0 0
Li 1.60199250 2.26556000 -3.398357490000002 0 0 0
Li 1.60199250 6.79668000 -3.398357490000002 0 0 0
Li 4.64398402 4.53112000 3.84934595
Li 4.74042397 -0.00000000 3.66284092
Li 1.54066823 6.79106141 1.18655788
Li 1.54066823 2.27117859 1.18655788
In 0.00000000 2.26556000 -1.1326965100000024 0 0 0
In 0.00000000 6.79668000 -1.1326965100000024 0 0 0
In 3.20398500 4.53112000 -3.398357490000002 0 0 0
In 3.20398500 0.00000000 -3.398357490000002 0 0 0
In 6.37246985 6.72590391 3.59504527
In 6.37246985 2.33633609 3.59477731
In 3.21084153 -0.00000000 1.18896958
In 3.25723523 4.53112000 1.16833612
Cu 1.60199250 0.00000000 -1.1326965100000024 0 0 0
Cu 1.60199250 4.53112000 -1.1326965100000024 0 0 0
Cu 4.80597750 2.26556000 -3.398357490000002 0 0 0
Cu 4.80597750 6.79668000 -3.398357490000002 0 0 0
Cu 1.52689109 4.53112000 3.30510498
Cu 1.54963939 -0.00000000 3.46963672
Cu 4.82359942 6.82576979 1.12492547
Cu 4.82366350 2.23647021 1.12492547
Ag 0.00000000 0.00000000 -3.398357490000002 0 0 0
Ag 0.00000000 4.53112000 -3.398357490000002 0 0 0
Ag 3.20398500 6.79668000 -1.1326965100000024 0 0 0
Ag 3.20398500 2.26556000 -1.1326965100000024 0 0 0
Ag 6.33184332 4.53112000 1.11152712
Ag 6.40668841 -0.00000000 1.25381759
Ag 3.17809680 2.31213991 3.34851563
Ag 3.17809680 6.75010009 3.34851563
C 1.88580149 -0.00000000 5.30387083
O 1.99691569 -0.00000000 6.45318129
