&CONTROL
calculation = 'relax'
prefix = 'scf'
pseudo_dir = '/vol0004/mdt0/data/hp150275/u10028/POT_KKJUS'
outdir = './data'
tprnfor = .true.
nstep = 50
disk_io = 'non'
/
&SYSTEM
ibrav = 0
ecutwfc = 50.0
ecutrho = 400
occupations = 'smearing'
smearing = 'mp'
degauss = 0.01
assume_isolated = 'esm'
esm_bc = 'bc1'
input_dft = 'BEEF-VDW'
nosym = .true.
nspin = 1
ntyp = 4
nat = 17
/
&ELECTRONS
electron_maxstep = 200
mixing_beta = 0.1
conv_thr = 1e-06
/
&IONS
ion_dynamics = 'bfgs'
upscale = 1.0
/
&CELL
/

K_POINTS {automatic}
10 10 2 0  0  0

ATOMIC_SPECIES
C 12.01 C.pbe-n-rrkjus_psl.1.0.0.UPF
Ge 72.64 Ge.pbe-dn-rrkjus_psl.1.0.0.UPF
Ni 58.69 Ni.pbe-spn-rrkjus_psl.1.0.0.UPF
Zn 65.40 Zn.pbe-dnl-rrkjus_psl.1.0.0.UPF

CELL_PARAMETERS {angstrom}
5.89777000 0.00000000 0.00000000
0.00000000 5.89777000 0.00000000
0.00000000 0.00000000 24.42330000

ATOMIC_POSITIONS {angstrom}
Zn 0.00000000 0.00000000 -2.2117740500000025 0 0 0
Zn 2.94888500 2.94888500 -2.2117740500000025 0 0 0
Zn 2.94888500 0.00035387 0.95250870
Zn 0.00011796 2.94906193 0.48309287
Ni 1.47444250 1.47444250 -0.7373394300000022 0 0 0
Ni 4.60267869 4.24468405 2.19174694
Ni 4.42332750 1.47444250 -0.7373394300000022 0 0 0
Ni 1.29733247 4.24527382 2.19394504
Ni 4.42332750 4.42332750 -0.7373394300000022 0 0 0
Ni 1.29509131 1.65308595 2.19443351
Ni 1.47444250 4.42332750 -0.7373394300000022 0 0 0
Ni 4.60208891 1.65285004 2.19296811
Ge 0.00058978 0.00000000 0.89877744
Ge 2.94888500 0.00000000 -2.2117740500000025 0 0 0
Ge 0.00000000 2.94888500 -2.2117740500000025 0 0 0
Ge 2.94923887 2.94841318 0.89902167
C 0.00029489 2.94882602 2.67948024
