&CONTROL
calculation = 'relax'
prefix = 'scf'
pseudo_dir = '/vol0403/data/hp230205/u10028/POT_HYBRID_KKJUS_GBRV'
outdir = './data'
tprnfor = .true.
nstep = 70
disk_io = 'non'
/
&SYSTEM
ibrav = 0
ecutwfc = 50.0
ecutrho = 400
occupations = 'smearing'
smearing = 'mp'
degauss = 0.01
assume_isolated = 'esm'
esm_bc = 'bc1'
input_dft = 'BEEF-VDW'
nosym = .true.
nspin = 1
ntyp = 6
nat = 34
/
&ELECTRONS
electron_maxstep = 200
mixing_beta = 0.1
conv_thr = 1e-06
/
&IONS
ion_dynamics = 'bfgs'
upscale = 1.0
/
&CELL
/

K_POINTS {automatic}
9 6 2 0  0  0

ATOMIC_SPECIES
Au 196.9 Au.pbe-n-rrkjus_psl.1.0.0.UPF
C 12.01 C.pbe-n-rrkjus_psl.1.0.0.UPF
Ge 72.64 Ge.pbe-dn-rrkjus_psl.1.0.0.UPF
Li 6.941 Li.pbe-sl-rrkjus_psl.1.0.0.UPF
Mg 24.30 Mg.pbe-spnl-rrkjus_psl.1.0.0.UPF
O 15.99 O.pbe-n-rrkjus_psl.1.0.0.UPF


CELL_PARAMETERS {angstrom}
6.50951000 0.00000000 0.00000000
-0.00000000 9.20584000 0.00000000
0.00000000 0.00000000 26.90440000

ATOMIC_POSITIONS {angstrom}
Li 4.88213250 0.00000000 -1.1507011899999995 0 0 0
Li 4.88213250 4.60292000 -1.1507011899999995 0 0 0
Li 1.62737750 2.30146000 -3.4521035599999976 0 0 0
Li 1.62737750 6.90438000 -3.4521035599999976 0 0 0
Li 4.96382685 4.37710074 3.68940037
Li 4.96454290 0.22508279 3.68993846
Li 1.65959957 6.90355147 1.24459754
Li 1.54112649 2.30173618 1.02909330
Mg 1.62737750 0.00000000 -1.1507011899999995 0 0 0
Mg 1.62737750 4.60292000 -1.1507011899999995 0 0 0
Mg 4.88213250 2.30146000 -3.4521035599999976 0 0 0
Mg 4.88213250 6.90438000 -3.4521035599999976 0 0 0
Mg 1.51059689 4.78040860 3.69827882
Mg 1.50981575 9.02264378 3.70150735
Mg 4.84841324 6.90622117 1.11115172
Mg 4.92366317 2.29869825 1.20370286
Ge 0.00000000 2.30146000 -1.1507011899999995 0 0 0
Ge 0.00000000 6.90438000 -1.1507011899999995 0 0 0
Ge 3.25475500 4.60292000 -3.4521035599999976 0 0 0
Ge 3.25475500 0.00000000 -3.4521035599999976 0 0 0
Ge 6.19073930 6.90143413 3.64070341
Ge 0.32026789 2.30007912 4.38918382
Ge 3.22064517 0.06572970 1.44234488
Ge 3.22403011 4.53507296 1.43965444
Au 0.00000000 0.00000000 -3.4521035599999976 0 0 0
Au 0.00000000 4.60292000 -3.4521035599999976 0 0 0
Au 3.25475500 6.90438000 -1.1507011899999995 0 0 0
Au 3.25475500 2.30146000 -1.1507011899999995 0 0 0
Au 0.00833217 4.65005390 1.20289572
Au 0.01334450 9.15898227 1.20343381
Au 2.92719646 2.29934266 3.25462527
Au 3.42888439 6.90299912 3.44430129
C 0.65654918 2.30182823 6.31015798
O 0.78029496 2.30320911 7.46570196
