&CONTROL
calculation = 'relax'
prefix = 'scf'
pseudo_dir = '/vol0004/mdt0/data/hp150275/u10028/POT_KKJUS'
outdir = './data'
tprnfor = .true.
nstep = 50
disk_io = 'non'
/
&SYSTEM
ibrav = 0
ecutwfc = 50.0
ecutrho = 400
occupations = 'smearing'
smearing = 'mp'
degauss = 0.01
assume_isolated = 'esm'
esm_bc = 'bc1'
input_dft = 'BEEF-VDW'
nosym = .true.
nspin = 1
ntyp = 3
nat = 34
/
&ELECTRONS
electron_maxstep = 200
mixing_beta = 0.1
conv_thr = 1e-06
/
&IONS
ion_dynamics = 'bfgs'
upscale = 1.0
/
&CELL
/

K_POINTS {automatic}
6 6 1 0 0 0

ATOMIC_SPECIES
C 12.01 C.pbe-n-rrkjus_psl.1.0.0.UPF
O 15.99 O.pbe-n-rrkjus_psl.1.0.0.UPF
Sb 121.7 Sb.pbe-n-rrkjus_psl.1.0.0.UPF

CELL_PARAMETERS {angstrom}
9.64260000 0.00000000 0.00000000
0.00000000 9.64260000 0.00000000
0.00000000 0.00000000 27.23200000

ATOMIC_POSITIONS {angstrom}
Sb 0.00000000 0.00000000 -3.6158649599999997 0 0 0
Sb 2.41065000 2.41065000 -3.6158649599999997 0 0 0
Sb 2.41065000 0.00000000 -1.205288320000001 0 0 0
Sb 0.00000000 2.41065000 -1.205288320000001 0 0 0
Sb 9.62967892 0.04416311 0.73934880
Sb 2.76038710 2.97734560 1.04815968
Sb 3.23538158 0.89512256 3.57147680
Sb 1.18902901 2.83367086 4.90094304
Sb 0.00000000 4.82130000 -3.6158649599999997 0 0 0
Sb 2.41065000 7.23195000 -3.6158649599999997 0 0 0
Sb 2.41065000 4.82130000 -1.205288320000001 0 0 0
Sb 0.00000000 7.23195000 -1.205288320000001 0 0 0
Sb 9.41368468 4.22789440 2.70631616
Sb 2.50138687 7.23869982 0.75623264
Sb 2.83405657 5.24769577 5.06733056
Sb 0.66514655 6.80275787 3.86939488
Sb 4.82130000 0.00000000 -3.6158649599999997 0 0 0
Sb 7.23195000 2.41065000 -3.6158649599999997 0 0 0
Sb 7.23195000 0.00000000 -1.205288320000001 0 0 0
Sb 4.82130000 2.41065000 -1.205288320000001 0 0 0
Sb 5.20536476 0.08205853 0.97082080
Sb 7.20890419 1.69883327 2.44625056
Sb 7.67878808 9.58570866 4.72638592
Sb 5.28935180 2.79751111 4.32498624
Sb 4.82130000 4.82130000 -3.6158649599999997 0 0 0
Sb 7.23195000 7.23195000 -3.6158649599999997 0 0 0
Sb 7.23195000 4.82130000 -1.205288320000001 0 0 0
Sb 4.82130000 7.23195000 -1.205288320000001 0 0 0
Sb 4.32451325 4.92765788 2.56634368
Sb 6.57933883 7.37456405 3.19485824
Sb 8.00162233 5.43389438 4.96902304
Sb 4.96468546 8.64131242 5.27293216
C 1.87047155 9.31012315 7.61924128
O 2.26707169 0.25282897 8.50564288
