&CONTROL
calculation = 'relax'
prefix = 'scf'
pseudo_dir = '/vol0403/data/hp230205/u10028/POT_HYBRID_KKJUS_GBRV'
outdir = './data'
tprnfor = .true.
nstep = 50
disk_io = 'non'
/
&SYSTEM
ibrav = 0
ecutwfc = 50.0
ecutrho = 400
occupations = 'smearing'
smearing = 'mp'
degauss = 0.01
assume_isolated = 'esm'
esm_bc = 'bc1'
input_dft = 'BEEF-VDW'
nosym = .true.
nspin = 1
ntyp = 6
nat = 18
/
&ELECTRONS
electron_maxstep = 200
mixing_beta = 0.1
conv_thr = 1e-06
/
&IONS
ion_dynamics = 'bfgs'
upscale = 1.0
/
&CELL
/

K_POINTS {automatic}
6 6 1 0 0 0

ATOMIC_SPECIES
C 12.01 C.pbe-n-rrkjus_psl.1.0.0.UPF
In 114.8 In.pbe-dn-rrkjus_psl.1.0.0.UPF
Li 6.941 Li.pbe-sl-rrkjus_psl.1.0.0.UPF
O 15.99 O.pbe-n-rrkjus_psl.1.0.0.UPF
Pb 207.2 Pb.pbe-dn-rrkjus_psl.1.0.0.UPF
Y 88.90 Y.pbe-spn-rrkjus_psl.1.0.0.UPF


CELL_PARAMETERS {angstrom}
6.48172000 0.00000000 0.00000000
0.00000000 9.42336000 0.00000000
0.00000000 0.00000000 24.85820000

ATOMIC_POSITIONS {angstrom}
Li 3.24086000 0.00000000 -2.4291433 0 0 0
Li 6.15763400 9.41506744 0.78104464
Li 3.24086000 4.71168000 -2.4291433 0 0 0
Li 6.15763400 4.71997256 0.78104464
Y 1.56248342 2.35584000 -0.8096315700000005 0 0 0
Y 4.36654031 2.35584000 2.40652234
Y 1.56248342 7.06752000 -0.8096315700000005 0 0 0
Y 4.36148457 7.06752000 2.39558473
In 0.00000000 0.00000000 -2.4291433 0 0 0
In 2.71298872 0.00028270 1.05075611
In 0.00000000 4.71168000 -2.4291433 0 0 0
In 2.71311836 4.71139730 1.05050753
Pb 4.80334342 2.35584000 -0.8096315700000005 0 0 0
Pb 1.18323799 2.35593423 2.61458548
Pb 4.80334342 7.06752000 -0.8096315700000005 0 0 0
Pb 1.17993231 7.06742577 2.66107031
C 0.50576861 2.35574577 6.25556603
O 1.53474166 2.35574577 6.74253817
