&CONTROL
calculation = 'relax'
prefix = 'scf'
pseudo_dir = '/vol0403/data/hp230205/u10028/POT_HYBRID_KKJUS_GBRV'
outdir = './data'
tprnfor = .true.
nstep = 70
disk_io = 'non'
/
&SYSTEM
ibrav = 0
ecutwfc = 50.0
ecutrho = 400
occupations = 'smearing'
smearing = 'mp'
degauss = 0.01
assume_isolated = 'esm'
esm_bc = 'bc1'
input_dft = 'BEEF-VDW'
nosym = .true.
nspin = 1
ntyp = 5
nat = 33
/
&ELECTRONS
electron_maxstep = 200
mixing_beta = 0.1
conv_thr = 1e-06
/
&IONS
ion_dynamics = 'bfgs'
upscale = 1.0
/
&CELL
/

K_POINTS {automatic}
9 6 2 0  0  0

ATOMIC_SPECIES
C 12.01 C.pbe-n-rrkjus_psl.1.0.0.UPF
Li 6.941 Li.pbe-sl-rrkjus_psl.1.0.0.UPF
Pb 207.2 Pb.pbe-dn-rrkjus_psl.1.0.0.UPF
Pd 106.4 Pd.pbe-n-rrkjus_psl.1.0.0.UPF
Y 88.90 Y.pbe-spn-rrkjus_psl.1.0.0.UPF


CELL_PARAMETERS {angstrom}
6.89083000 0.00000000 0.00000000
-0.00000000 9.74510000 0.00000000
0.00000000 0.00000000 27.30880000

ATOMIC_POSITIONS {angstrom}
Li 0.00000000 0.00000000 -3.6544636200000014 0 0 0
Li 0.00000000 4.87255000 -3.6544636200000014 0 0 0
Li 3.44541500 7.30882500 -1.2182455700000006 0 0 0
Li 3.44541500 2.43627500 -1.2182455700000006 0 0 0
Li 6.87436092 4.91786472 1.36325530
Li 6.87436092 9.69978529 1.36325530
Li 2.84067576 2.43627500 4.55374240
Li 2.06015145 7.30882500 5.07697901
Y 5.16812250 0.00000000 -1.2182455700000006 0 0 0
Y 5.16812250 4.87255000 -1.2182455700000006 0 0 0
Y 1.72270750 2.43627500 -3.6544636200000014 0 0 0
Y 1.72270750 7.30882500 -3.6544636200000014 0 0 0
Y 4.91536686 4.73816507 3.71672768
Y 4.91536686 0.13438493 3.71672768
Y 1.81084122 7.30882500 1.37609043
Y 1.82496742 2.43627500 1.40613011
Pd 0.00000000 2.43627500 -1.2182455700000006 0 0 0
Pd 0.00000000 7.30882500 -1.2182455700000006 0 0 0
Pd 3.44541500 4.87255000 -3.6544636200000014 0 0 0
Pd 3.44541500 0.00000000 -3.6544636200000014 0 0 0
Pd 6.82839908 7.30882500 3.43162381
Pd 0.05905441 2.43627500 3.62524320
Pd 3.44520828 9.73554980 1.16827046
Pd 3.44520828 4.88210020 1.16827046
Pb 1.72270750 0.00000000 -1.2182455700000006 0 0 0
Pb 1.72270750 4.87255000 -1.2182455700000006 0 0 0
Pb 5.16812250 2.43627500 -3.6544636200000014 0 0 0
Pb 5.16812250 7.30882500 -3.6544636200000014 0 0 0
Pb 1.61486601 4.87430412 3.78827674
Pb 1.61486601 9.74334588 3.78827674
Pb 5.13587342 7.30882500 1.16908973
Pb 5.15055088 2.43627500 1.20868749
C 4.79491515 2.43627500 3.80247731
