&CONTROL
calculation = 'relax'
prefix = 'scf'
pseudo_dir = '/vol0004/mdt0/data/hp150275/u10028/POT_KKJUS'
outdir = './data'
tprnfor = .true.
nstep = 50
disk_io = 'non'
/
&SYSTEM
ibrav = 0
ecutwfc = 50.0
ecutrho = 400
occupations = 'smearing'
smearing = 'mp'
degauss = 0.01
assume_isolated = 'esm'
esm_bc = 'bc1'
input_dft = 'BEEF-VDW'
nosym = .true.
nspin = 1
ntyp = 2
nat = 16
/
&ELECTRONS
electron_maxstep = 200
mixing_beta = 0.1
conv_thr = 1e-06
/
&IONS
ion_dynamics = 'bfgs'
upscale = 1.0
/
&CELL
/

K_POINTS {automatic}
8 11 2 0  0  0

ATOMIC_SPECIES
Sn 118.7 Sn.pbe-dn-rrkjus_psl.1.0.0.UPF
Ti 47.86 Ti.pbe-spn-rrkjus_psl.1.0.0.UPF

CELL_PARAMETERS {angstrom}
8.35210000 0.00000000 0.00000000
0.00000000 5.90582000 0.00000000
0.00000000 0.00000000 24.42940000

ATOMIC_POSITIONS {angstrom}
Ti 0.00000000 2.95291000 -2.2147694000000016 0 0 0
Ti 2.08802500 4.42936500 -0.7382564699999996 0 0 0
Ti 2.08802500 1.47645500 -0.7382564699999996 0 0 0
Ti 0.00000000 0.00005906 0.74680676
Ti 2.08802500 1.34292441 1.99612627
Ti 2.08802500 4.56289559 1.99637057
Ti 4.17605000 2.95291000 -2.2147694000000016 0 0 0
Ti 6.26407500 4.42936500 -0.7382564699999996 0 0 0
Ti 6.26407500 1.47645500 -0.7382564699999996 0 0 0
Ti 4.17605000 0.00005906 0.74680676
Ti 6.26407500 1.34292441 1.99637057
Ti 6.26407500 4.56283653 1.99637057
Sn 0.00000000 0.00000000 -2.2147694000000016 0 0 0
Sn 0.00000000 2.95296906 0.73996653
Sn 4.17605000 0.00000000 -2.2147694000000016 0 0 0
Sn 4.17605000 2.95296906 0.73996653
