&CONTROL
calculation = 'relax'
prefix = 'scf'
pseudo_dir = '/vol0004/mdt0/data/hp150275/u10028/POT_KKJUS'
outdir = './data'
tprnfor = .true.
nstep = 50
disk_io = 'non'
/
&SYSTEM
ibrav = 0
ecutwfc = 50.0
ecutrho = 400
occupations = 'smearing'
smearing = 'mp'
degauss = 0.01
assume_isolated = 'esm'
esm_bc = 'bc1'
input_dft = 'BEEF-VDW'
nosym = .true.
nspin = 1
ntyp = 4
nat = 33
/
&ELECTRONS
electron_maxstep = 200
mixing_beta = 0.1
conv_thr = 1e-06
/
&IONS
ion_dynamics = 'bfgs'
upscale = 1.0
/
&CELL
/

K_POINTS {automatic}
9 6 2 0  0  0

ATOMIC_SPECIES
C 12.01 C.pbe-n-rrkjus_psl.1.0.0.UPF
Ni 58.69 Ni.pbe-spn-rrkjus_psl.1.0.0.UPF
Sb 121.7 Sb.pbe-n-rrkjus_psl.1.0.0.UPF
Zr 91.22 Zr.pbe-spn-rrkjus_psl.1.0.0.UPF

CELL_PARAMETERS {angstrom}
6.34847000 0.00000000 0.00000000
0.00000000 8.97809000 0.00000000
0.00000000 0.00000000 26.73360000

ATOMIC_POSITIONS {angstrom}
Zr 0.00000000 0.00000000 -3.3668295799999974 0 0 0
Zr 3.17423500 2.24452250 -1.1222765300000006 0 0 0
Zr 3.17423500 6.73356750 -1.1222765300000006 0 0 0
Zr 0.00000000 4.48904500 -3.3668295799999974 0 0 0
Zr 0.00006348 4.48913478 1.05838322
Zr 3.17417152 6.71794562 3.35373012
Zr 3.17423500 2.26014438 3.35373012
Zr 0.00000000 0.00000000 1.29952030
Ni 1.58711750 0.00000000 -1.1222765300000006 0 0 0
Ni 4.76135250 4.48904500 -1.1222765300000006 0 0 0
Ni 4.76135250 0.00000000 -1.1222765300000006 0 0 0
Ni 1.58711750 4.48904500 -1.1222765300000006 0 0 0
Ni 4.76135250 6.73356750 -3.3668295799999974 0 0 0
Ni 1.58711750 2.24452250 -3.3668295799999974 0 0 0
Ni 1.58711750 6.73356750 -3.3668295799999974 0 0 0
Ni 4.76135250 2.24452250 -3.3668295799999974 0 0 0
Ni 1.78042841 4.48904500 3.11740510
Ni 4.52836365 8.97800022 3.41896010
Ni 4.56791462 4.48904500 3.11713776
Ni 1.82016983 0.00000000 3.41922744
Ni 4.83391551 2.27657428 1.23883502
Ni 1.51480843 6.70160550 1.23910236
Ni 1.51449100 2.27657428 1.23883502
Ni 4.83372506 6.70178506 1.23936970
Sb 0.00000000 6.73356750 -1.1222765300000006 0 0 0
Sb 3.17423500 0.00000000 -3.3668295799999974 0 0 0
Sb 0.00000000 2.24452250 -1.1222765300000006 0 0 0
Sb 3.17423500 4.48904500 -3.3668295799999974 0 0 0
Sb 0.00000000 2.58263737 3.66330521
Sb 3.17423500 4.48913478 0.98914320
Sb 6.34840652 6.39545263 3.66357254
Sb 3.17417152 0.00000000 1.09447358
C 0.00000000 0.00008978 3.59459986
