&CONTROL
calculation = 'relax'
prefix = 'scf'
pseudo_dir = '/vol0403/data/hp230205/u10028/POT_HYBRID_KKJUS_GBRV'
outdir = './data'
tprnfor = .true.
nstep = 50
disk_io = 'non'
/
&SYSTEM
ibrav = 0
ecutwfc = 50.0
ecutrho = 400
occupations = 'smearing'
smearing = 'mp'
degauss = 0.01
assume_isolated = 'esm'
esm_bc = 'bc1'
input_dft = 'BEEF-VDW'
nosym = .true.
nspin = 1
ntyp = 4
nat = 32
/
&ELECTRONS
electron_maxstep = 200
mixing_beta = 0.1
conv_thr = 1e-06
/
&IONS
ion_dynamics = 'bfgs'
upscale = 1.0
/
&CELL
/

K_POINTS {automatic}
9 6 2 0  0  0

ATOMIC_SPECIES
Cu 63.54 Cu.pbe-dn-rrkjus_psl.1.0.0.UPF
Ge 72.64 Ge.pbe-dn-rrkjus_psl.1.0.0.UPF
In 114.8 In.pbe-dn-rrkjus_psl.1.0.0.UPF
Li 6.941 Li.pbe-sl-rrkjus_psl.1.0.0.UPF


CELL_PARAMETERS {angstrom}
6.49386000 0.00000000 0.00000000
0.00000000 9.18370000 0.00000000
0.00000000 0.00000000 26.88780000

ATOMIC_POSITIONS {angstrom}
Li 0.00000000 2.29592500 -1.1478401799999993 0 0 0
Li 0.00000000 6.88777500 -1.1478401799999993 0 0 0
Li 3.24693000 4.59185000 -3.443789419999998 0 0 0
Li 3.24693000 0.00000000 -3.443789419999998 0 0 0
Li 6.30774597 6.88786684 3.79682624
Li 6.30761610 2.29592500 3.79682624
Li 3.02516468 0.00000000 1.24947607
Li 3.02516468 4.59185000 1.24947607
In 1.62346500 0.00000000 -1.1478401799999993 0 0 0
In 1.62346500 4.59185000 -1.1478401799999993 0 0 0
In 4.87039500 2.29592500 -3.443789419999998 0 0 0
In 4.87039500 6.88777500 -3.443789419999998 0 0 0
In 1.81964451 4.59185000 4.10845584
In 1.81970945 0.00000000 4.10845584
In 4.93091778 6.88777500 1.12256565
In 4.93091778 2.29592500 1.12256565
Cu 0.00000000 0.00000000 -3.443789419999998 0 0 0
Cu 0.00000000 4.59185000 -3.443789419999998 0 0 0
Cu 3.24693000 6.88777500 -1.1478401799999993 0 0 0
Cu 3.24693000 2.29592500 -1.1478401799999993 0 0 0
Cu 0.15507338 4.59185000 1.35111195
Cu 0.15507338 0.00009184 1.35111195
Cu 3.25485251 2.29592500 3.18082674
Cu 3.25485251 6.88768316 3.18055786
Ge 4.87039500 0.00000000 -1.1478401799999993 0 0 0
Ge 4.87039500 4.59185000 -1.1478401799999993 0 0 0
Ge 1.62346500 2.29592500 -3.443789419999998 0 0 0
Ge 1.62346500 6.88777500 -3.443789419999998 0 0 0
Ge 4.76753226 4.59203367 3.29617540
Ge 4.76753226 0.00009184 3.29617540
Ge 1.47891168 6.88777500 1.33820581
Ge 1.47878180 2.29583316 1.33847468
