&CONTROL
calculation = 'relax'
prefix = 'scf'
pseudo_dir = '/vol0403/data/hp230205/u10028/POT_HYBRID_KKJUS_GBRV'
outdir = './data'
tprnfor = .true.
nstep = 50
disk_io = 'non'
/
&SYSTEM
ibrav = 0
ecutwfc = 50.0
ecutrho = 400
occupations = 'smearing'
smearing = 'mp'
degauss = 0.01
assume_isolated = 'esm'
esm_bc = 'bc1'
input_dft = 'BEEF-VDW'
nosym = .true.
nspin = 1
ntyp = 6
nat = 34
/
&ELECTRONS
electron_maxstep = 200
mixing_beta = 0.1
conv_thr = 1e-06
/
&IONS
ion_dynamics = 'bfgs'
upscale = 1.0
/
&CELL
/

K_POINTS {automatic}
6 6 1 0 0 0

ATOMIC_SPECIES
C 12.01 C.pbe-n-rrkjus_psl.1.0.0.UPF
Ga 69.72 Ga.pbe-dnl-rrkjus_psl.1.0.0.UPF
In 114.8 In.pbe-dn-rrkjus_psl.1.0.0.UPF
Li 6.941 Li.pbe-sl-rrkjus_psl.1.0.0.UPF
O 15.99 O.pbe-n-rrkjus_psl.1.0.0.UPF
Pd 106.4 Pd.pbe-n-rrkjus_psl.1.0.0.UPF


CELL_PARAMETERS {angstrom}
6.46680000 0.00000000 0.00000000
0.00000000 9.14544000 0.00000000
0.00000000 0.00000000 26.85910000

ATOMIC_POSITIONS {angstrom}
Li 4.85010000 0.00000000 -1.1431233000000027 0 0 0
Li 4.85010000 4.57272000 -1.1431233000000027 0 0 0
Li 1.61670000 2.28636000 -3.4296384800000013 0 0 0
Li 1.61670000 6.85908000 -3.4296384800000013 0 0 0
Li 4.21363754 4.57272000 4.69792518
Li 4.46422604 0.00000000 4.03423682
Li 1.38150248 6.83228386 1.30696381
Li 1.38143782 2.31315614 1.30696381
In 0.00000000 2.28636000 -1.1431233000000027 0 0 0
In 0.00000000 6.85908000 -1.1431233000000027 0 0 0
In 3.23340000 4.57272000 -3.4296384800000013 0 0 0
In 3.23340000 0.00000000 -3.4296384800000013 0 0 0
In 6.13828656 6.70369897 3.76752596
In 6.13828656 2.44174103 3.76752596
In 3.10328798 0.00009145 1.34080627
In 3.25674515 4.57281145 1.21376273
Ga 0.00000000 0.00000000 -3.4296384800000013 0 0 0
Ga 0.00000000 4.57272000 -3.4296384800000013 0 0 0
Ga 3.23340000 6.85908000 -1.1431233000000027 0 0 0
Ga 3.23340000 2.28636000 -1.1431233000000027 0 0 0
Ga 6.24311339 4.57272000 1.32415363
Ga 6.22895110 0.00000000 1.54251811
Ga 3.11641559 2.39016074 3.47529895
Ga 3.11641559 6.75527926 3.47529895
Pd 1.61670000 0.00000000 -1.1431233000000027 0 0 0
Pd 1.61670000 4.57272000 -1.1431233000000027 0 0 0
Pd 4.85010000 2.28636000 -3.4296384800000013 0 0 0
Pd 4.85010000 6.85908000 -3.4296384800000013 0 0 0
Pd 1.52241406 4.57272000 3.31468153
Pd 1.42799878 0.00000000 3.65767224
Pd 4.80871248 6.91962281 1.04213308
Pd 4.80877715 2.22590864 1.04213308
C 1.66170893 0.00000000 5.60737431
O 1.80404320 0.00000000 6.75345210
