&CONTROL
calculation = 'relax'
prefix = 'scf'
pseudo_dir = '/vol0004/mdt0/data/hp150275/u10028/POT_HYBRID_KKJUS_GBRV'
outdir = './data'
tprnfor = .true.
nstep = 50
disk_io = 'non'
/
&SYSTEM
ibrav = 0
ecutwfc = 50.0
ecutrho = 400
occupations = 'smearing'
smearing = 'mp'
degauss = 0.01
assume_isolated = 'esm'
esm_bc = 'bc1'
input_dft = 'BEEF-VDW'
nosym = .true.
nspin = 2
ntyp = 2
nat = 16
starting_magnetization(1) = 0.1
starting_magnetization(2) = 0.1
/
&ELECTRONS
electron_maxstep = 200
mixing_beta = 0.1
conv_thr = 1e-06
/
&IONS
ion_dynamics = 'bfgs'
upscale = 1.0
/
&CELL
/

K_POINTS {automatic}
10 10 2 0  0  0

ATOMIC_SPECIES
Be 9.012 Be.pbe-n-rrkjus_psl.1.0.0.UPF
Co 58.93 co_pbe_v1.2.uspp.F.UPF

CELL_PARAMETERS {angstrom}
5.19112000 0.00000000 0.00000000
-0.00000000 5.19112000 0.00000000
0.00000000 0.00000000 23.89330000

ATOMIC_POSITIONS {angstrom}
Be 1.29778000 1.29778000 -1.1256133599999991 0 0 0
Be 1.29778000 1.29778000 1.46991582
Be 1.29778000 3.89334000 -1.1256133599999991 0 0 0
Be 1.29778000 3.89334000 1.46991582
Be 3.89334000 1.29778000 -1.1256133599999991 0 0 0
Be 3.89334000 1.29778000 1.46991582
Be 3.89334000 3.89334000 -1.1256133599999991 0 0 0
Be 3.89334000 3.89334000 1.46991582
Co 0.00000000 0.00000000 -2.4234974200000003 0 0 0
Co 0.00000000 0.00000000 0.17203176
Co 0.00000000 2.59556000 -2.4234974200000003 0 0 0
Co 0.00000000 2.59556000 0.17203176
Co 2.59556000 0.00000000 -2.4234974200000003 0 0 0
Co 2.59556000 -0.00000000 0.17203176
Co 2.59556000 2.59556000 -2.4234974200000003 0 0 0
Co 2.59556000 2.59556000 0.17203176
