&CONTROL
calculation = 'relax'
prefix = 'scf'
pseudo_dir = '/vol0403/data/hp230205/u10028/POT_HYBRID_KKJUS_GBRV'
outdir = './data'
tprnfor = .true.
nstep = 50
disk_io = 'non'
/
&SYSTEM
ibrav = 0
ecutwfc = 50.0
ecutrho = 400
occupations = 'smearing'
smearing = 'mp'
degauss = 0.01
assume_isolated = 'esm'
esm_bc = 'bc1'
input_dft = 'BEEF-VDW'
nosym = .true.
nspin = 1
ntyp = 6
nat = 18
/
&ELECTRONS
electron_maxstep = 200
mixing_beta = 0.1
conv_thr = 1e-06
/
&IONS
ion_dynamics = 'bfgs'
upscale = 1.0
/
&CELL
/

K_POINTS {automatic}
11 7 2 0  0  0

ATOMIC_SPECIES
C 12.01 C.pbe-n-rrkjus_psl.1.0.0.UPF
Ga 69.72 Ga.pbe-dnl-rrkjus_psl.1.0.0.UPF
O 15.99 O.pbe-n-rrkjus_psl.1.0.0.UPF
Pd 106.4 Pd.pbe-n-rrkjus_psl.1.0.0.UPF
Sc 44.95 Sc.pbe-spn-rrkjus_psl.1.0.0.UPF
Y 88.90 Y.pbe-spn-rrkjus_psl.1.0.0.UPF


CELL_PARAMETERS {angstrom}
6.06401000 0.00000000 0.00000000
0.00000000 9.48206000 0.00000000
0.00000000 0.00000000 24.30750000

ATOMIC_POSITIONS {angstrom}
Y 3.51421508 0.00009482 2.29535723
Y 5.09116088 0.00000000 -0.7180435500000009 0 0 0
Y 3.35370073 4.74121964 2.18038275
Y 5.09116088 4.74103000 -0.7180435500000009 0 0 0
Sc 0.95799230 2.34804252 0.59553375
Sc 3.08876413 2.37051500 -2.153887570000002 0 0 0
Sc 0.95823486 7.13363820 0.59383222
Sc 3.08876413 7.11154500 -2.153887570000002 0 0 0
Ga 0.49015393 0.00151713 2.07707588
Ga 2.05915588 0.00000000 -0.7180435500000009 0 0 0
Ga 0.41993269 4.74027144 2.00950103
Ga 2.05915588 4.74103000 -0.7180435500000009 0 0 0
Pd 3.67788271 2.37402336 0.44336880
Pd 0.05675913 2.37051500 -2.153887570000002 0 0 0
Pd 3.67854975 7.10813146 0.44336880
Pd 0.05675913 7.11154500 -2.153887570000002 0 0 0
C 4.97454996 0.00018964 4.28030768
O 5.53735073 9.48187036 5.29587503
