&CONTROL
calculation = 'relax'
prefix = 'scf'
pseudo_dir = '/vol0403/data/hp230205/u10028/POT_HYBRID_KKJUS_GBRV'
outdir = './data'
tprnfor = .true.
nstep = 50
disk_io = 'non'
/
&SYSTEM
ibrav = 0
ecutwfc = 50.0
ecutrho = 400
occupations = 'smearing'
smearing = 'mp'
degauss = 0.01
assume_isolated = 'esm'
esm_bc = 'bc1'
input_dft = 'BEEF-VDW'
nosym = .true.
nspin = 1
ntyp = 6
nat = 34
/
&ELECTRONS
electron_maxstep = 200
mixing_beta = 0.1
conv_thr = 1e-06
/
&IONS
ion_dynamics = 'bfgs'
upscale = 1.0
/
&CELL
/

K_POINTS {automatic}
7 7 2 0  0  0

ATOMIC_SPECIES
Ag 107.8 Ag.pbe-n-rrkjus_psl.1.0.0.UPF
Al 26.98 Al.pbe-nl-rrkjus_psl.1.0.0.UPF
C 12.01 C.pbe-n-rrkjus_psl.1.0.0.UPF
Li 6.941 Li.pbe-sl-rrkjus_psl.1.0.0.UPF
O 15.99 O.pbe-n-rrkjus_psl.1.0.0.UPF
Sn 118.7 Sn.pbe-dn-rrkjus_psl.1.0.0.UPF


CELL_PARAMETERS {angstrom}
8.66686000 0.00000000 0.00000000
0.00000000 8.16098000 0.00000000
0.00000000 0.00000000 26.42010000

ATOMIC_POSITIONS {angstrom}
Li 0.00000000 2.06260609 1.13791371
Li 0.00000000 2.04024500 -3.210042150000003 0 0 0
Li 0.00000000 6.09837391 1.13791371
Li 0.00000000 6.12073500 -3.210042150000003 0 0 0
Li 4.33343000 2.02457592 1.05786080
Li 4.33343000 2.04024500 -3.210042150000003 0 0 0
Li 4.33343000 6.13632247 1.05786080
Li 4.33343000 6.12073500 -3.210042150000003 0 0 0
Al 2.22088287 2.23145676 3.29379387
Al 2.16671500 2.04024500 -1.070014050000001 0 0 0
Al 2.22088287 5.92944163 3.29379387
Al 2.16671500 6.12073500 -1.070014050000001 0 0 0
Al 6.44597712 2.23145676 3.29379387
Al 6.50014500 2.04024500 -1.070014050000001 0 0 0
Al 6.44597712 5.92944163 3.29379387
Al 6.50014500 6.12073500 -1.070014050000001 0 0 0
Ag 0.00000000 0.00008161 3.34769087
Ag 0.00000000 0.00000000 -1.070014050000001 0 0 0
Ag 0.00000000 4.08049000 3.35852311
Ag 0.00000000 4.08049000 -1.070014050000001 0 0 0
Ag 4.33343000 0.00000000 3.27212939
Ag 4.33343000 0.00000000 -1.070014050000001 0 0 0
Ag 4.33343000 4.08040839 3.39815326
Ag 4.33343000 4.08049000 -1.070014050000001 0 0 0
Sn 2.12728079 0.00000000 1.18229947
Sn 2.16671500 0.00000000 -3.210042150000003 0 0 0
Sn 2.18465540 4.08049000 0.98784754
Sn 2.16671500 4.08049000 -3.210042150000003 0 0 0
Sn 6.53957921 0.00000000 1.18229947
Sn 6.50014500 0.00000000 -3.210042150000003 0 0 0
Sn 6.48220460 4.08049000 0.98784754
Sn 6.50014500 4.08049000 -3.210042150000003 0 0 0
C 0.00000000 8.16089839 5.61347865
O 0.00000000 0.00008161 6.75324176
