&CONTROL
calculation = 'relax'
prefix = 'scf'
pseudo_dir = '/vol0004/mdt0/data/hp150275/u10028/POT_HYBRID_KKJUS_GBRV'
outdir = './data'
tprnfor = .true.
nstep = 50
disk_io = 'non'
/
&SYSTEM
ibrav = 0
ecutwfc = 50.0
ecutrho = 400
occupations = 'smearing'
smearing = 'mp'
degauss = 0.01
assume_isolated = 'esm'
esm_bc = 'bc1'
input_dft = 'BEEF-VDW'
nosym = .true.
nspin = 2
ntyp = 5
nat = 34
starting_magnetization(1) = 0.0
starting_magnetization(2) = 0.0
starting_magnetization(3) = 0.0
starting_magnetization(4) = 0.001
starting_magnetization(5) = 0.0
/
&ELECTRONS
electron_maxstep = 200
mixing_beta = 0.1
conv_thr = 1e-06
/
&IONS
ion_dynamics = 'bfgs'
upscale = 1.0
/
&CELL
/

K_POINTS {automatic}
9 6 2 0  0  0

ATOMIC_SPECIES
Al 26.98 Al.pbe-nl-rrkjus_psl.1.0.0.UPF
C 12.01 C.pbe-n-rrkjus_psl.1.0.0.UPF
Hf 178.4 Hf.pbe-spn-rrkjus_psl.1.0.0.UPF
Ni 58.69 ni_pbe_v1.4.uspp.F.UPF
O 15.99 O.pbe-n-rrkjus_psl.1.0.0.UPF

CELL_PARAMETERS {angstrom}
6.09317000 0.00000000 0.00000000
0.00000000 8.61704000 0.00000000
0.00000000 0.00000000 26.46280000

ATOMIC_POSITIONS {angstrom}
Hf 0.00000000 0.00000000 23.23142749
Hf 3.04658500 2.15426000 25.38576404
Hf 3.04658500 6.46278000 25.38576404
Hf 0.00000000 4.30852000 23.23142749
Hf 0.00000000 4.31515512 1.05533646
Hf 3.04658500 6.46278000 3.31076091
Hf 3.04658500 2.15426000 3.30573298
Hf 0.00000000 8.61040488 1.05533646
Al 0.00000000 6.46278000 25.38576404
Al 3.04658500 0.00000000 23.23142749
Al 0.00000000 2.15426000 25.38576404
Al 3.04658500 4.30852000 23.23142749
Al 0.00000000 2.15426000 3.20120492
Al 3.04658500 4.30791681 1.10323413
Al 0.00000000 6.46278000 3.19776475
Al 3.04658500 0.00060319 1.10323413
Ni 1.52329250 0.00000000 25.38576404
Ni 4.56987750 4.30852000 25.38576404
Ni 4.56987750 0.00000000 25.38576404
Ni 1.52329250 4.30852000 25.38576404
Ni 4.56987750 6.46278000 23.23142749
Ni 1.52329250 2.15426000 23.23142749
Ni 1.52329250 6.46278000 23.23142749
Ni 4.56987750 2.15426000 23.23142749
Ni 1.49270479 4.32506472 3.08767950
Ni 4.60046521 8.60049528 3.08767950
Ni 4.60046521 4.32506472 3.08767950
Ni 1.49270479 8.60049528 3.08767950
Ni 4.49097095 2.15426000 1.15854138
Ni 1.61944272 6.46278000 1.12334586
Ni 1.60219905 2.15426000 1.15854138
Ni 4.47372728 6.46278000 1.12308123
C 0.00000000 2.15426000 5.20232185
O 0.00000000 2.15426000 6.35980472
