&CONTROL
calculation = 'relax'
prefix = 'scf'
pseudo_dir = '/vol0004/mdt0/data/hp150275/u10028/POT_KKJUS'
outdir = './data'
tprnfor = .true.
nstep = 50
disk_io = 'non'
/
&SYSTEM
ibrav = 0
ecutwfc = 50.0
ecutrho = 400
occupations = 'smearing'
smearing = 'mp'
degauss = 0.01
assume_isolated = 'esm'
esm_bc = 'bc1'
input_dft = 'BEEF-VDW'
nosym = .true.
nspin = 1
ntyp = 3
nat = 33
/
&ELECTRONS
electron_maxstep = 200
mixing_beta = 0.1
conv_thr = 1e-06
/
&IONS
ion_dynamics = 'bfgs'
upscale = 1.0
/
&CELL
/

K_POINTS {automatic}
8 6 1 0 0 0

ATOMIC_SPECIES
Al 26.98 Al.pbe-nl-rrkjus_psl.1.0.0.UPF
C 12.01 C.pbe-n-rrkjus_psl.1.0.0.UPF
Ti 47.86 Ti.pbe-spn-rrkjus_psl.1.0.0.UPF

CELL_PARAMETERS {angstrom}
6.37073000 0.00000000 0.00000000
0.00000000 9.00957000 0.00000000
0.00000000 0.00000000 26.75720000

ATOMIC_POSITIONS {angstrom}
Ti 0.00000000 0.00000000 -3.378631640000002 0 0 0
Ti 0.00000000 2.25239250 -1.1262105499999997 0 0 0
Ti 0.00000000 0.00000000 1.48101102
Ti 0.00000000 2.04346057 3.48218201
Ti 0.00000000 4.50478500 -3.378631640000002 0 0 0
Ti 0.00000000 6.75717750 -1.1262105499999997 0 0 0
Ti 0.00000000 4.50478500 1.19203326
Ti 0.00000000 6.96610943 3.48218201
Ti 3.18536500 0.00000000 -3.378631640000002 0 0 0
Ti 3.18536500 2.25239250 -1.1262105499999997 0 0 0
Ti 3.18536500 0.00000000 1.16340306
Ti 3.18536500 2.46285606 3.16109561
Ti 3.18536500 4.50478500 -3.378631640000002 0 0 0
Ti 3.18536500 6.75717750 -1.1262105499999997 0 0 0
Ti 3.18536500 4.50478500 1.14065944
Ti 3.18536500 6.54671394 3.16109561
Al 1.59268250 2.25239250 -3.378631640000002 0 0 0
Al 1.59268250 0.00000000 -1.1262105499999997 0 0 0
Al 1.51177423 2.23698614 1.10507236
Al 1.92619022 0.00000000 3.73396726
Al 1.59268250 6.75717750 -3.378631640000002 0 0 0
Al 1.59268250 4.50478500 -1.1262105499999997 0 0 0
Al 1.51177423 6.77258386 1.10507236
Al 1.43092967 4.50478500 3.62747360
Al 4.77804750 2.25239250 -3.378631640000002 0 0 0
Al 4.77804750 0.00000000 -1.1262105499999997 0 0 0
Al 4.85895577 2.23698614 1.10507236
Al 4.44453978 0.00000000 3.73396726
Al 4.77804750 6.75717750 -3.378631640000002 0 0 0
Al 4.77804750 4.50478500 -1.1262105499999997 0 0 0
Al 4.85895577 6.77258386 1.10507236
Al 4.93980033 4.50478500 3.62747360
C 0.00000000 0.00000000 3.74921886
