&CONTROL
calculation = 'relax'
prefix = 'scf'
pseudo_dir = '/vol0403/data/hp230205/u10028/POT_HYBRID_KKJUS_GBRV'
outdir = './data'
tprnfor = .true.
nstep = 50
disk_io = 'non'
/
&SYSTEM
ibrav = 0
ecutwfc = 50.0
ecutrho = 400
occupations = 'smearing'
smearing = 'mp'
degauss = 0.01
assume_isolated = 'esm'
esm_bc = 'bc1'
input_dft = 'BEEF-VDW'
nosym = .true.
nspin = 1
ntyp = 4
nat = 16
/
&ELECTRONS
electron_maxstep = 200
mixing_beta = 0.1
conv_thr = 1e-06
/
&IONS
ion_dynamics = 'bfgs'
upscale = 1.0
/
&CELL
/

K_POINTS {automatic}
6 6 1 0 0 0

ATOMIC_SPECIES
Ga 69.72 Ga.pbe-dnl-rrkjus_psl.1.0.0.UPF
In 114.8 In.pbe-dn-rrkjus_psl.1.0.0.UPF
Li 6.941 Li.pbe-sl-rrkjus_psl.1.0.0.UPF
Sc 44.95 Sc.pbe-spn-rrkjus_psl.1.0.0.UPF


CELL_PARAMETERS {angstrom}
8.23116000 0.00000000 0.00000000
0.00000000 6.09788000 0.00000000
0.00000000 0.00000000 24.56590000

ATOMIC_POSITIONS {angstrom}
Li 0.00000000 3.04894000 -2.2829090900000004 0 0 0
Li 0.00000000 5.73420244 0.81116602
Li 4.11558000 3.04894000 -2.2829090900000004 0 0 0
Li 4.11558000 5.73420244 0.81141168
Sc 2.05779000 1.43720934 -0.7610515800000002 0 0 0
Sc 2.05770769 3.87636134 2.32688205
Sc 6.17337000 1.43720934 -0.7610515800000002 0 0 0
Sc 6.17345231 3.87666623 2.32712771
In 2.05779000 4.48614934 -0.7610515800000002 0 0 0
In 2.05762538 0.90632790 2.59465036
In 6.17337000 4.48614934 -0.7610515800000002 0 0 0
In 6.17353462 0.90669378 2.59465036
Ga 0.00000000 0.00000000 -2.2829090900000004 0 0 0
Ga 0.00000000 2.61800282 0.86594797
Ga 4.11558000 0.00000000 -2.2829090900000004 0 0 0
Ga 4.11549769 2.61800282 0.86619363
