&CONTROL
calculation = 'relax'
prefix = 'scf'
pseudo_dir = '/vol0004/mdt0/data/hp150275/u10028/POT_KKJUS'
outdir = './data'
tprnfor = .true.
nstep = 50
disk_io = 'non'
/
&SYSTEM
ibrav = 0
ecutwfc = 50.0
ecutrho = 400
occupations = 'smearing'
smearing = 'mp'
degauss = 0.01
assume_isolated = 'esm'
esm_bc = 'bc1'
input_dft = 'BEEF-VDW'
nosym = .true.
nspin = 1
ntyp = 4
nat = 33
/
&ELECTRONS
electron_maxstep = 200
mixing_beta = 0.1
conv_thr = 1e-06
/
&IONS
ion_dynamics = 'bfgs'
upscale = 1.0
/
&CELL
/

K_POINTS {automatic}
9 6 2 0  0  0

ATOMIC_SPECIES
C 12.01 C.pbe-n-rrkjus_psl.1.0.0.UPF
Cu 63.54 Cu.pbe-dn-rrkjus_psl.1.0.0.UPF
Li 6.941 Li.pbe-sl-rrkjus_psl.1.0.0.UPF
Sb 121.7 Sb.pbe-n-rrkjus_psl.1.0.0.UPF

CELL_PARAMETERS {angstrom}
6.37457000 0.00000000 0.00000000
0.00000000 9.01500000 0.00000000
0.00000000 0.00000000 26.76130000

ATOMIC_POSITIONS {angstrom}
Li 0.00000000 6.76125000 -1.1269183399999996 0 0 0
Li 3.18728500 0.00000000 -3.3807550299999996 0 0 0
Li 0.00000000 2.25375000 -1.1269183399999996 0 0 0
Li 3.18728500 4.50750000 -3.3807550299999996 0 0 0
Li 1.59364250 0.00000000 -1.1269183399999996 0 0 0
Li 1.59364250 4.50750000 -1.1269183399999996 0 0 0
Li 4.78092750 6.76125000 -3.3807550299999996 0 0 0
Li 4.78092750 2.25375000 -3.3807550299999996 0 0 0
Li 6.35092035 2.06740995 3.73614509
Li 3.37590853 4.50750000 1.21951244
Li 6.35111158 6.94786050 3.73587748
Li 3.08924411 0.00009015 1.16839836
Li 1.61659095 4.50740985 3.24801898
Li 1.82982032 0.00027045 4.73541203
Li 4.98000532 2.11275540 1.10657975
Li 4.97994158 6.90224460 1.10657975
Cu 0.00000000 0.00000000 -3.3807550299999996 0 0 0
Cu 3.18728500 2.25375000 -1.1269183399999996 0 0 0
Cu 3.18728500 6.76125000 -1.1269183399999996 0 0 0
Cu 0.00000000 4.50750000 -3.3807550299999996 0 0 0
Cu 6.29680025 4.50740985 1.10470646
Cu 3.40038688 6.61935390 3.06497169
Cu 3.40057811 2.39573625 3.06497169
Cu 0.57046027 9.01490985 2.04001390
Sb 1.59364250 2.25375000 -3.3807550299999996 0 0 0
Sb 1.59364250 6.76125000 -3.3807550299999996 0 0 0
Sb 4.78092750 4.50750000 -1.1269183399999996 0 0 0
Sb 4.78092750 0.00000000 -1.1269183399999996 0 0 0
Sb 1.56782549 6.67912335 1.18820172
Sb 1.56776175 2.33578650 1.18846933
Sb 4.32724935 0.00000000 3.68422817
Sb 4.91772577 4.50759015 3.51375869
C 0.03372148 0.00009015 3.95371446
