&CONTROL
calculation = 'relax'
prefix = 'scf'
pseudo_dir = '/vol0004/mdt0/data/hp150275/u10028/POT_HYBRID_KKJUS_GBRV'
outdir = './data'
tprnfor = .true.
nstep = 50
disk_io = 'non'
/
&SYSTEM
ibrav = 0
ecutwfc = 50.0
ecutrho = 400
occupations = 'smearing'
smearing = 'mp'
degauss = 0.01
assume_isolated = 'esm'
esm_bc = 'bc1'
input_dft = 'BEEF-VDW'
nosym = .true.
nspin = 2
ntyp = 5
nat = 34
starting_magnetization(1) = 0.0
starting_magnetization(2) = 0.1
starting_magnetization(3) = 0.1
starting_magnetization(4) = 0.0
starting_magnetization(5) = 0.0
/
&ELECTRONS
electron_maxstep = 300
mixing_beta = 0.1
conv_thr = 1e-06
/
&IONS
ion_dynamics = 'bfgs'
upscale = 1.0
/
&CELL
/

K_POINTS {automatic}
8 6 1 0 0 0

ATOMIC_SPECIES
C 12.01 C.pbe-n-rrkjus_psl.1.0.0.UPF
Co 58.93 co_pbe_v1.2.uspp.F.UPF
Mn 54.93 mn_pbe_v1.5.uspp.F.UPF
O 15.99 O.pbe-n-rrkjus_psl.1.0.0.UPF
Si 28.08 Si.pbe-nl-rrkjus_psl.1.0.0.UPF

CELL_PARAMETERS {angstrom}
5.64266000 0.00000000 0.00000000
0.00000000 7.97993000 0.00000000
0.00000000 0.00000000 25.98490000

ATOMIC_POSITIONS {angstrom}
Mn 0.00000000 0.00000000 -2.9924210799999997 0 0 0
Mn 2.82133000 1.99498250 -0.9975603100000008 0 0 0
Mn 2.82133000 5.98494750 -0.9975603100000008 0 0 0
Mn 0.00000000 3.98996500 -2.9924210799999997 0 0 0
Mn 5.63560668 3.98996500 0.94818900
Mn 2.81698515 5.92980618 3.14391305
Mn 2.81698515 2.05012382 3.14391305
Mn 5.63831515 0.00000000 0.98118982
Co 1.41066500 0.00000000 -0.9975603100000008 0 0 0
Co 4.23199500 3.98996500 -0.9975603100000008 0 0 0
Co 4.23199500 0.00000000 -0.9975603100000008 0 0 0
Co 1.41066500 3.98996500 -0.9975603100000008 0 0 0
Co 4.23199500 5.98494750 -2.9924210799999997 0 0 0
Co 1.41066500 1.99498250 -2.9924210799999997 0 0 0
Co 1.41066500 5.98494750 -2.9924210799999997 0 0 0
Co 4.23199500 1.99498250 -2.9924210799999997 0 0 0
Co 1.30339803 3.98996500 2.88068601
Co 4.28300465 0.00000000 2.92044291
Co 4.32075404 3.98996500 2.90407242
Co 1.36981214 0.00000000 3.01190976
Co 4.20558735 1.99171073 0.99470197
Co 1.42448952 5.99659820 1.00249744
Co 1.42448952 1.98333180 1.00249744
Co 4.20558735 5.98821927 0.99470197
Si 0.00000000 5.98494750 -0.9975603100000008 0 0 0
Si 2.82133000 0.00000000 -2.9924210799999997 0 0 0
Si 0.00000000 1.99498250 -0.9975603100000008 0 0 0
Si 2.82133000 3.98996500 -2.9924210799999997 0 0 0
Si 5.63622737 1.99641889 2.92174216
Si 2.81489737 3.98996500 1.03471872
Si 5.63622737 5.98351111 2.92174216
Si 2.81698515 0.00000000 1.01003306
C 1.97318178 0.00000000 4.66091151
O 2.26095744 0.00000000 5.79411300
