&CONTROL
calculation = 'relax'
prefix = 'scf'
pseudo_dir = '/vol0004/mdt0/data/hp150275/u10028/POT_HYBRID_KKJUS_GBRV'
outdir = './data'
tprnfor = .true.
nstep = 50
disk_io = 'non'
/
&SYSTEM
ibrav = 0
ecutwfc = 50.0
ecutrho = 400
occupations = 'smearing'
smearing = 'mp'
degauss = 0.01
assume_isolated = 'esm'
esm_bc = 'bc1'
input_dft = 'BEEF-VDW'
nosym = .true.
nspin = 2
ntyp = 3
nat = 33
starting_magnetization(1) = 0.0
starting_magnetization(2) = 0.01
starting_magnetization(3) = 0.0
/
&ELECTRONS
electron_maxstep = 200
mixing_beta = 0.1
conv_thr = 1e-06
/
&IONS
ion_dynamics = 'bfgs'
upscale = 1.0
/
&CELL
/

K_POINTS {automatic}
7 7 2 0  0  0

ATOMIC_SPECIES
C 12.01 C.pbe-n-rrkjus_psl.1.0.0.UPF
Cr 51.99 cr_pbe_v1.5.uspp.F.UPF
Rh 102.9 Rh.pbe-spn-rrkjus_psl.1.0.0.UPF

CELL_PARAMETERS {angstrom}
7.63311000 0.00000000 0.00000000
-0.00000000 7.63311000 0.00000000
0.00000000 0.00000000 25.72480000

ATOMIC_POSITIONS {angstrom}
Cr 0.00000000 0.00000000 22.86240150
Cr 0.00000000 0.00000000 0.95413283
Cr 0.00000000 3.81655500 22.86240150
Cr 0.00000000 3.81655500 0.95413283
Cr 3.81655500 0.00000000 22.86240150
Cr 3.81655500 -0.00000000 0.95413283
Cr 3.81655500 3.81655500 22.86240150
Cr 3.81655500 3.81655500 0.95413283
Rh 0.00000000 1.90827750 24.77066717
Rh 1.90827750 0.00000000 24.77066717
Rh 1.90827750 1.90827750 22.86240150
Rh 0.00000000 1.90827750 2.86239850
Rh 1.90827750 -0.00000000 2.86239850
Rh 1.90827750 1.90827750 0.95413283
Rh 0.00000000 5.72483250 24.77066717
Rh 1.90827750 3.81655500 24.77066717
Rh 1.90827750 5.72483250 22.86240150
Rh 0.00000000 5.72483250 2.86239850
Rh 1.90827750 3.81655500 2.86239850
Rh 1.90827750 5.72483250 0.95413283
Rh 3.81655500 1.90827750 24.77066717
Rh 5.72483250 0.00000000 24.77066717
Rh 5.72483250 1.90827750 22.86240150
Rh 3.81655500 1.90827750 2.86239850
Rh 5.72483250 -0.00000000 2.86239850
Rh 5.72483250 1.90827750 0.95413283
Rh 3.81655500 5.72483250 24.77066717
Rh 5.72483250 3.81655500 24.77066717
Rh 5.72483250 5.72483250 22.86240150
Rh 3.81655500 5.72483250 2.86239850
Rh 5.72483250 3.81655500 2.86239850
Rh 5.72483250 5.72483250 0.95413283
C 0.00000000 0.00000000 3.66243978
