&CONTROL
calculation = 'relax'
prefix = 'scf'
pseudo_dir = '/vol0403/data/hp230205/u10028/POT_HYBRID_KKJUS_GBRV'
outdir = './data'
tprnfor = .true.
nstep = 50
disk_io = 'non'
/
&SYSTEM
ibrav = 0
ecutwfc = 50.0
ecutrho = 400
occupations = 'smearing'
smearing = 'mp'
degauss = 0.01
assume_isolated = 'esm'
esm_bc = 'bc1'
input_dft = 'BEEF-VDW'
nosym = .true.
nspin = 1
ntyp = 6
nat = 34
/
&ELECTRONS
electron_maxstep = 200
mixing_beta = 0.1
conv_thr = 1e-06
/
&IONS
ion_dynamics = 'bfgs'
upscale = 1.0
/
&CELL
/

K_POINTS {automatic}
6 6 1 0 0 0

ATOMIC_SPECIES
Au 196.9 Au.pbe-n-rrkjus_psl.1.0.0.UPF
C 12.01 C.pbe-n-rrkjus_psl.1.0.0.UPF
Ge 72.64 Ge.pbe-dn-rrkjus_psl.1.0.0.UPF
In 114.8 In.pbe-dn-rrkjus_psl.1.0.0.UPF
Li 6.941 Li.pbe-sl-rrkjus_psl.1.0.0.UPF
O 15.99 O.pbe-n-rrkjus_psl.1.0.0.UPF


CELL_PARAMETERS {angstrom}
8.57796000 0.00000000 0.00000000
0.00000000 8.39470000 0.00000000
0.00000000 0.00000000 26.34910000

ATOMIC_POSITIONS {angstrom}
Li 8.57787422 2.16776338 1.03762756
Li 0.00000000 2.09867500 -3.1745395700000003 0 0 0
Li 8.57778844 6.22693662 1.03762756
Li 0.00000000 6.29602500 -3.1745395700000003 0 0 0
Li 4.28889422 2.09313450 1.03868152
Li 4.28898000 2.09867500 -3.1745395700000003 0 0 0
Li 4.28889422 6.30156550 1.03868152
Li 4.28898000 6.29602500 -3.1745395700000003 0 0 0
In 2.14637715 2.10127736 3.67859785
In 2.14449000 2.09867500 -1.0581798599999992 0 0 0
In 2.14629137 6.29342264 3.67859785
In 2.14449000 6.29602500 -1.0581798599999992 0 0 0
In 6.43123973 2.10119341 3.67859785
In 6.43347000 2.09867500 -1.0581798599999992 0 0 0
In 6.43123973 6.29350659 3.67886134
In 6.43347000 6.29602500 -1.0581798599999992 0 0 0
Ge 2.16207482 0.00000000 0.97465321
Ge 2.14449000 0.00000000 -3.1745395700000003 0 0 0
Ge 2.14860742 4.19735000 0.96780244
Ge 2.14449000 4.19735000 -3.1745395700000003 0 0 0
Ge 6.41554206 8.39461605 0.97438972
Ge 6.43347000 0.00000000 -3.1745395700000003 0 0 0
Ge 6.42918102 4.19735000 0.96806593
Ge 6.43347000 4.19735000 -3.1745395700000003 0 0 0
Au 8.57770266 8.39461605 2.74583971
Au 0.00000000 0.00000000 -1.0581798599999992 0 0 0
Au 8.57787422 4.19735000 2.97270546
Au 0.00000000 4.19735000 -1.0581798599999992 0 0 0
Au 4.28880844 0.00000000 2.92448661
Au 4.28898000 0.00000000 -1.0581798599999992 0 0 0
Au 4.28898000 4.19743395 2.86968048
Au 4.28898000 4.19735000 -1.0581798599999992 0 0 0
C 0.01338162 0.00134315 6.72007446
O 8.57478615 8.39419632 7.85440322
