&CONTROL
calculation = 'relax'
prefix = 'scf'
pseudo_dir = '/vol0403/data/hp230205/u10028/POT_HYBRID_KKJUS_GBRV'
outdir = './data'
tprnfor = .true.
nstep = 50
disk_io = 'non'
/
&SYSTEM
ibrav = 0
ecutwfc = 50.0
ecutrho = 400
occupations = 'smearing'
smearing = 'mp'
degauss = 0.01
assume_isolated = 'esm'
esm_bc = 'bc1'
input_dft = 'BEEF-VDW'
nosym = .true.
nspin = 1
ntyp = 5
nat = 17
/
&ELECTRONS
electron_maxstep = 200
mixing_beta = 0.1
conv_thr = 1e-06
/
&IONS
ion_dynamics = 'bfgs'
upscale = 1.0
/
&CELL
/

K_POINTS {automatic}
6 6 1 0 0 0

ATOMIC_SPECIES
C 12.01 C.pbe-n-rrkjus_psl.1.0.0.UPF
Ge 72.64 Ge.pbe-dn-rrkjus_psl.1.0.0.UPF
In 114.8 In.pbe-dn-rrkjus_psl.1.0.0.UPF
Li 6.941 Li.pbe-sl-rrkjus_psl.1.0.0.UPF
Sc 44.95 Sc.pbe-spn-rrkjus_psl.1.0.0.UPF


CELL_PARAMETERS {angstrom}
6.05318000 0.00000000 0.00000000
0.00000000 8.22048000 0.00000000
0.00000000 0.00000000 24.51760000

ATOMIC_POSITIONS {angstrom}
Li 3.02659000 0.00000000 -2.2588064900000013 0 0 0
Li 5.68296751 0.00000000 0.55630434
Li 3.02659000 4.11024000 -2.2588064900000013 0 0 0
Li 5.68805218 4.11024000 0.90298321
Sc 1.36366039 2.05512000 -0.7529355000000031 0 0 0
Sc 3.78953281 1.76814304 2.36864534
Sc 1.36366039 6.16536000 -0.7529355000000031 0 0 0
Sc 3.78965387 6.45233696 2.36864534
In 4.39025039 2.05512000 -0.7529355000000031 0 0 0
In 0.78098128 1.72145072 2.76239799
In 4.39025039 6.16536000 -0.7529355000000031 0 0 0
In 0.78092075 6.49886487 2.76239799
Ge 0.00000000 0.00000000 -2.2588064900000013 0 0 0
Ge 2.38749526 0.00000000 0.74141222
Ge 0.00000000 4.11024000 -2.2588064900000013 0 0 0
Ge 2.53367955 4.11024000 1.23666774
C 2.69578371 0.00000000 2.81854330
