&CONTROL
calculation = 'relax'
prefix = 'scf'
pseudo_dir = '/vol0403/data/hp230205/u10028/POT_HYBRID_KKJUS_GBRV'
outdir = './data'
tprnfor = .true.
nstep = 50
disk_io = 'non'
/
&SYSTEM
ibrav = 0
ecutwfc = 50.0
ecutrho = 400
occupations = 'smearing'
smearing = 'mp'
degauss = 0.01
assume_isolated = 'esm'
esm_bc = 'bc1'
input_dft = 'BEEF-VDW'
nosym = .true.
nspin = 2
ntyp = 6
nat = 18
starting_magnetization(1) = 0.0
starting_magnetization(2) = 0.0
starting_magnetization(3) = 0.1
starting_magnetization(4) = 0.0
starting_magnetization(5) = 0.0
starting_magnetization(6) = 0.0
/
&ELECTRONS
electron_maxstep = 400
mixing_beta = 0.05
conv_thr = 1e-06
/
&IONS
ion_dynamics = 'bfgs'
upscale = 1.0
/
&CELL
/

K_POINTS {automatic}
6 6 1 0 0 0

ATOMIC_SPECIES
Al 26.98 Al.pbe-nl-rrkjus_psl.1.0.0.UPF
C 12.01 C.pbe-n-rrkjus_psl.1.0.0.UPF
Fe 55.84 fe_pbe_v1.5.uspp.F.UPF
Li 6.941 Li.pbe-sl-rrkjus_psl.1.0.0.UPF
O 15.99 O.pbe-n-rrkjus_psl.1.0.0.UPF
Pd 106.4 Pd.pbe-n-rrkjus_psl.1.0.0.UPF


CELL_PARAMETERS {angstrom}
5.15535000 0.00000000 0.00000000
0.00000000 8.84236000 0.00000000
0.00000000 0.00000000 23.55420000

ATOMIC_POSITIONS {angstrom}
Li 3.44093836 2.15656318 0.64302966
Li 4.92191575 2.21059000 -1.777164390000003 0 0 0
Li 3.44098991 6.68579682 0.64302966
Li 4.92191575 6.63177000 -1.777164390000003 0 0 0
Al 0.06134867 0.00000000 1.66575302
Al 1.56284435 0.00000000 -0.5923881300000033 0 0 0
Al 0.21008051 4.42118000 1.65939339
Al 1.56284435 4.42118000 -0.5923881300000033 0 0 0
Fe 2.67304897 0.00000000 1.54703986
Fe 4.14051935 0.00000000 -0.5923881300000033 0 0 0
Fe 2.95432487 4.42118000 1.25261236
Fe 4.14051935 4.42118000 -0.5923881300000033 0 0 0
Pd 0.84310594 2.20793729 0.68896035
Pd 2.34424075 2.21059000 -1.777164390000003 0 0 0
Pd 0.84315749 6.63442271 0.68896035
Pd 2.34424075 6.63177000 -1.777164390000003 0 0 0
C 2.50611874 0.00000000 3.30936510
O 2.45105960 0.00000000 4.47624017
