&CONTROL
calculation = 'relax'
prefix = 'scf'
pseudo_dir = '/vol0403/data/hp230205/u10028/POT_HYBRID_KKJUS_GBRV'
outdir = './data'
tprnfor = .true.
nstep = 50
disk_io = 'non'
/
&SYSTEM
ibrav = 0
ecutwfc = 50.0
ecutrho = 400
occupations = 'smearing'
smearing = 'mp'
degauss = 0.01
assume_isolated = 'esm'
esm_bc = 'bc1'
input_dft = 'BEEF-VDW'
nosym = .true.
nspin = 1
ntyp = 6
nat = 18
/
&ELECTRONS
electron_maxstep = 200
mixing_beta = 0.1
conv_thr = 1e-06
/
&IONS
ion_dynamics = 'bfgs'
upscale = 1.0
/
&CELL
/

K_POINTS {automatic}
9 9 2 0  0  0

ATOMIC_SPECIES
C 12.01 C.pbe-n-rrkjus_psl.1.0.0.UPF
Ge 72.64 Ge.pbe-dn-rrkjus_psl.1.0.0.UPF
Li 6.941 Li.pbe-sl-rrkjus_psl.1.0.0.UPF
Mg 24.30 Mg.pbe-spnl-rrkjus_psl.1.0.0.UPF
O 15.99 O.pbe-n-rrkjus_psl.1.0.0.UPF
Pd 106.4 Pd.pbe-n-rrkjus_psl.1.0.0.UPF


CELL_PARAMETERS {angstrom}
6.25843000 0.00000000 0.00000000
0.00000000 6.25843000 0.00000000
0.00000000 0.00000000 24.69380000

ATOMIC_POSITIONS {angstrom}
Li 1.54833558 1.58231886 0.85983812
Li 1.56460750 4.69382250 -2.346898750000001 0 0 0
Li 4.69382250 1.56460750 -2.346898750000001 0 0 0
Li 4.71015700 4.67611114 0.85983812
Mg 0.00000000 3.12921500 2.57334090
Mg 0.00000000 0.00000000 -0.7822995800000001 0 0 0
Mg 3.12921500 3.12921500 -0.7822995800000001 0 0 0
Mg 3.12921500 0.00000000 2.49975337
Ge 0.00000000 0.00000000 2.43110461
Ge 0.00000000 3.12921500 -0.7822995800000001 0 0 0
Ge 3.12921500 0.00000000 -0.7822995800000001 0 0 0
Ge 3.12915242 3.12921500 2.43554949
Pd 4.70671487 1.57931481 0.86601157
Pd 4.69382250 4.69382250 -2.346898750000001 0 0 0
Pd 1.56460750 1.56460750 -2.346898750000001 0 0 0
Pd 1.55171513 4.67911519 0.86601157
C 0.00000000 3.12921500 4.81356243
O 0.00000000 3.12921500 5.95540375
