&CONTROL
calculation = 'relax'
prefix = 'scf'
pseudo_dir = '/vol0403/data/hp230205/u10028/POT_HYBRID_KKJUS_GBRV'
outdir = './data'
tprnfor = .true.
nstep = 50
disk_io = 'non'
/
&SYSTEM
ibrav = 0
ecutwfc = 50.0
ecutrho = 400
occupations = 'smearing'
smearing = 'mp'
degauss = 0.01
assume_isolated = 'esm'
esm_bc = 'bc1'
input_dft = 'BEEF-VDW'
nosym = .true.
nspin = 1
ntyp = 4
nat = 16
/
&ELECTRONS
electron_maxstep = 200
mixing_beta = 0.1
conv_thr = 1e-06
/
&IONS
ion_dynamics = 'bfgs'
upscale = 1.0
/
&CELL
/

K_POINTS {automatic}
6 6 1 0 0 0

ATOMIC_SPECIES
Al 26.98 Al.pbe-nl-rrkjus_psl.1.0.0.UPF
In 114.8 In.pbe-dn-rrkjus_psl.1.0.0.UPF
Li 6.941 Li.pbe-sl-rrkjus_psl.1.0.0.UPF
Pd 106.4 Pd.pbe-n-rrkjus_psl.1.0.0.UPF


CELL_PARAMETERS {angstrom}
6.39489000 0.00000000 0.00000000
0.00000000 6.39489000 0.00000000
0.00000000 0.00000000 24.79620000

ATOMIC_POSITIONS {angstrom}
Li 4.79616750 1.59872250 0.79942949
Li 4.79616750 4.79616750 -2.3980405000000005 0 0 0
Li 1.59872250 1.59872250 -2.3980405000000005 0 0 0
Li 1.59872250 4.79616750 0.79942949
Al 0.00000000 0.00000000 2.39804050
Al 0.00000000 3.19744500 -0.7994294899999979 0 0 0
Al 3.19744500 0.00000000 -0.7994294899999979 0 0 0
Al 3.19744500 3.19744500 2.39804050
In 0.00000000 3.19744500 2.39804050
In 0.00000000 0.00000000 -0.7994294899999979 0 0 0
In 3.19744500 3.19744500 -0.7994294899999979 0 0 0
In 3.19744500 0.00000000 2.39804050
Pd 1.59872250 1.59872250 0.79942949
Pd 1.59872250 4.79616750 -2.3980405000000005 0 0 0
Pd 4.79616750 1.59872250 -2.3980405000000005 0 0 0
Pd 4.79616750 4.79616750 0.79942949
