&CONTROL
calculation = 'relax'
prefix = 'scf'
pseudo_dir = '/vol0004/mdt0/data/hp150275/u10028/POT_KKJUS'
outdir = './data'
tprnfor = .true.
nstep = 50
disk_io = 'non'
/
&SYSTEM
ibrav = 0
ecutwfc = 50.0
ecutrho = 400
occupations = 'smearing'
smearing = 'mp'
degauss = 0.01
assume_isolated = 'esm'
esm_bc = 'bc1'
input_dft = 'BEEF-VDW'
nosym = .true.
nspin = 1
ntyp = 5
nat = 34
/
&ELECTRONS
electron_maxstep = 200
mixing_beta = 0.1
conv_thr = 1e-06
/
&IONS
ion_dynamics = 'bfgs'
upscale = 1.0
/
&CELL
/

K_POINTS {automatic}
9 6 2 0  0  0

ATOMIC_SPECIES
C 12.01 C.pbe-n-rrkjus_psl.1.0.0.UPF
Li 6.941 Li.pbe-sl-rrkjus_psl.1.0.0.UPF
O 15.99 O.pbe-n-rrkjus_psl.1.0.0.UPF
Pd 106.4 Pd.pbe-n-rrkjus_psl.1.0.0.UPF
Sb 121.7 Sb.pbe-n-rrkjus_psl.1.0.0.UPF

CELL_PARAMETERS {angstrom}
6.43375000 0.00000000 0.00000000
0.00000000 9.09870000 0.00000000
0.00000000 0.00000000 26.82400000

ATOMIC_POSITIONS {angstrom}
Li 0.00000000 6.82402500 -1.1373376000000022 0 0 0
Li 3.21687500 0.00000000 -3.412012800000003 0 0 0
Li 0.00000000 2.27467500 -1.1373376000000022 0 0 0
Li 3.21687500 4.54935000 -3.412012800000003 0 0 0
Li 1.60843750 2.27467500 -3.412012800000003 0 0 0
Li 1.60843750 6.82402500 -3.412012800000003 0 0 0
Li 4.82531250 4.54935000 -1.1373376000000022 0 0 0
Li 4.82531250 0.00000000 -1.1373376000000022 0 0 0
Li 0.15942833 2.27467500 3.35380472
Li 3.29536675 4.54179808 1.02038496
Li 0.15917098 6.82402500 3.35568240
Li 3.29536675 0.00755192 1.02038496
Li 1.72810525 6.82402500 1.21003064
Li 1.67090921 2.27467500 1.16282040
Li 4.67058081 0.00991758 3.42596128
Li 4.67058081 4.53943242 3.42596128
Sb 0.00000000 0.00000000 -3.412012800000003 0 0 0
Sb 3.21687500 2.27467500 -1.1373376000000022 0 0 0
Sb 3.21687500 6.82402500 -1.1373376000000022 0 0 0
Sb 0.00000000 4.54935000 -3.412012800000003 0 0 0
Sb 6.39636991 4.55462725 1.17971952
Sb 3.20079062 6.82402500 3.63921208
Sb 3.15144376 2.27467500 3.54532808
Sb 6.39636991 9.09333177 1.17971952
Pd 1.60843750 0.00000000 -1.1373376000000022 0 0 0
Pd 1.60843750 4.54935000 -1.1373376000000022 0 0 0
Pd 4.82531250 6.82402500 -3.412012800000003 0 0 0
Pd 4.82531250 2.27467500 -3.412012800000003 0 0 0
Pd 1.80485989 4.57855683 3.07912696
Pd 1.80485989 9.06949317 3.07912696
Pd 4.78046926 2.27467500 1.26126448
Pd 4.76773044 6.82402500 1.25509496
C 6.40248197 2.27467500 5.44151664
O 6.41033115 2.27467500 6.58180488
