&CONTROL
calculation = 'relax'
prefix = 'scf'
pseudo_dir = '/vol0403/data/hp230205/u10028/POT_HYBRID_KKJUS_GBRV'
outdir = './data'
tprnfor = .true.
nstep = 70
disk_io = 'non'
/
&SYSTEM
ibrav = 0
ecutwfc = 50.0
ecutrho = 400
occupations = 'smearing'
smearing = 'mp'
degauss = 0.01
assume_isolated = 'esm'
esm_bc = 'bc1'
input_dft = 'BEEF-VDW'
nosym = .true.
nspin = 1
ntyp = 4
nat = 16
/
&ELECTRONS
electron_maxstep = 200
mixing_beta = 0.1
conv_thr = 1e-06
/
&IONS
ion_dynamics = 'bfgs'
upscale = 1.0
/
&CELL
/

K_POINTS {automatic}
6 6 1 0 0 0

ATOMIC_SPECIES
Cu 63.54 Cu.pbe-dn-rrkjus_psl.1.0.0.UPF
Li 6.941 Li.pbe-sl-rrkjus_psl.1.0.0.UPF
Mg 24.30 Mg.pbe-spnl-rrkjus_psl.1.0.0.UPF
Pd 106.4 Pd.pbe-n-rrkjus_psl.1.0.0.UPF


CELL_PARAMETERS {angstrom}
5.46655000 0.00000000 0.00000000
-0.00000000 7.95764000 0.00000000
0.00000000 0.00000000 24.09630000

ATOMIC_POSITIONS {angstrom}
Li 2.73327500 0.00000000 -2.048185499999999 0 0 0
Li 5.31873449 -0.00000000 0.67108196
Li 2.73327500 3.97882000 -2.048185499999999 0 0 0
Li 5.31878915 3.97882000 0.67108196
Mg 1.30956672 1.98941000 -0.682648180000001 0 0 0
Mg 3.84724856 1.98956915 2.12987196
Mg 1.30956672 5.96823000 -0.682648180000001 0 0 0
Mg 3.84631925 5.96815042 2.12987196
Cu 0.00000000 0.00000000 -2.048185499999999 0 0 0
Cu 2.61814946 7.95748085 0.70313003
Cu 0.00000000 3.97882000 -2.048185499999999 0 0 0
Cu 2.61798546 3.97897915 0.70313003
Pd 4.04284172 1.98941000 -0.682648180000001 0 0 0
Pd 1.13447312 1.98917127 1.88264392
Pd 4.04284172 5.96823000 -0.682648180000001 0 0 0
Pd 1.13343448 5.96830958 1.88288488
