&CONTROL
calculation = 'relax'
prefix = 'scf'
pseudo_dir = '/vol0004/mdt0/data/hp150275/u10028/POT_KKJUS'
outdir = './data'
tprnfor = .true.
nstep = 50
disk_io = 'non'
/
&SYSTEM
ibrav = 0
ecutwfc = 50.0
ecutrho = 400
occupations = 'smearing'
smearing = 'mp'
degauss = 0.01
assume_isolated = 'esm'
esm_bc = 'bc1'
input_dft = 'BEEF-VDW'
nosym = .true.
nspin = 1
ntyp = 5
nat = 18
/
&ELECTRONS
electron_maxstep = 200
mixing_beta = 0.1
conv_thr = 1e-06
/
&IONS
ion_dynamics = 'bfgs'
upscale = 1.0
/
&CELL
/

K_POINTS {automatic}
8 8 1 0 0 0

ATOMIC_SPECIES
C 12.01 C.pbe-n-rrkjus_psl.1.0.0.UPF
Ge 72.64 Ge.pbe-dn-rrkjus_psl.1.0.0.UPF
Li 6.941 Li.pbe-sl-rrkjus_psl.1.0.0.UPF
O 15.99 O.pbe-n-rrkjus_psl.1.0.0.UPF
Zn 65.40 Zn.pbe-dnl-rrkjus_psl.1.0.0.UPF

CELL_PARAMETERS {angstrom}
6.18893000 0.00000000 0.00000000
0.00000000 6.18893000 0.00000000
0.00000000 0.00000000 24.64170000

ATOMIC_POSITIONS {angstrom}
Li 0.00018567 6.18880622 2.90895269
Li 3.09446500 3.09452689 2.85819078
Li 3.09446500 0.00000000 -0.7735029600000018 0 0 0
Li 0.00000000 3.09446500 -0.7735029600000018 0 0 0
Li 1.54723250 1.54723250 -2.320755309999999 0 0 0
Li 1.53962012 4.64943366 0.88094077
Li 4.64169750 4.64169750 -2.320755309999999 0 0 0
Li 4.64930988 1.53949634 0.88094077
Zn 1.54122924 1.54129113 0.96447614
Zn 1.54723250 4.64169750 -2.320755309999999 0 0 0
Zn 4.64770076 4.64776265 0.96472255
Zn 4.64169750 1.54723250 -2.320755309999999 0 0 0
Ge 0.00000000 0.00000000 -0.7735029600000018 0 0 0
Ge 3.09446500 0.00006189 2.43041087
Ge 6.18886811 3.09446500 2.42991804
Ge 3.09446500 3.09446500 -0.7735029600000018 0 0 0
C 6.18874433 6.18874433 5.02123921
O 6.18874433 6.18880622 6.15919292
