&CONTROL
calculation = 'relax'
prefix = 'scf'
pseudo_dir = '/vol0004/mdt0/data/hp150275/u10028/POT_KKJUS'
outdir = './data'
tprnfor = .true.
nstep = 50
disk_io = 'non'
/
&SYSTEM
ibrav = 0
ecutwfc = 50.0
ecutrho = 400
occupations = 'smearing'
smearing = 'mp'
degauss = 0.01
assume_isolated = 'esm'
esm_bc = 'bc1'
input_dft = 'BEEF-VDW'
nosym = .true.
nspin = 1
ntyp = 3
nat = 32
/
&ELECTRONS
electron_maxstep = 200
mixing_beta = 0.1
conv_thr = 1e-06
/
&IONS
ion_dynamics = 'bfgs'
upscale = 1.0
/
&CELL
/

K_POINTS {automatic}
8 6 1 0 0 0

ATOMIC_SPECIES
In 114.8 In.pbe-dn-rrkjus_psl.1.0.0.UPF
Li 6.941 Li.pbe-sl-rrkjus_psl.1.0.0.UPF
Mg 24.30 Mg.pbe-spnl-rrkjus_psl.1.0.0.UPF

CELL_PARAMETERS {angstrom}
6.75535000 0.00000000 0.00000000
0.00000000 9.55351000 0.00000000
0.00000000 0.00000000 27.16510000

ATOMIC_POSITIONS {angstrom}
Li 1.68883750 0.00000000 -1.1941777999999985 0 0 0
Li 5.06651250 4.77675500 -1.1941777999999985 0 0 0
Li 5.06651250 0.00000000 -1.1941777999999985 0 0 0
Li 1.68883750 4.77675500 -1.1941777999999985 0 0 0
Li 5.06651250 7.16513250 -3.5825333899999983 0 0 0
Li 1.68883750 2.38837750 -3.5825333899999983 0 0 0
Li 1.68883750 7.16513250 -3.5825333899999983 0 0 0
Li 5.06651250 2.38837750 -3.5825333899999983 0 0 0
Li 1.60986746 4.77761482 3.72161870
Li 5.14453679 0.00000000 3.72352026
Li 5.14534743 4.77780589 3.72161870
Li 1.61061055 0.00019107 3.72352026
Li 5.05786565 2.38856857 1.14147750
Li 1.69734924 7.16532357 1.14174915
Li 1.69734924 2.38847304 1.14174915
Li 5.05786565 7.16522804 1.14174915
Mg 0.00000000 0.00000000 -3.5825333899999983 0 0 0
Mg 3.37767500 2.38837750 -1.1941777999999985 0 0 0
Mg 3.37767500 7.16513250 -1.1941777999999985 0 0 0
Mg 0.00000000 4.77675500 -3.5825333899999983 0 0 0
Mg 0.00000000 4.77608625 1.24035847
Mg 3.37733723 7.16360394 3.53879758
Mg 3.37821543 2.38837750 3.53906923
Mg 6.75528245 0.00105089 1.24226002
In 0.00000000 7.16513250 -1.1941777999999985 0 0 0
In 3.37767500 0.00000000 -3.5825333899999983 0 0 0
In 0.00000000 2.38837750 -1.1941777999999985 0 0 0
In 3.37767500 4.77675500 -3.5825333899999983 0 0 0
In 6.75507979 2.38809089 3.56433277
In 3.37781011 4.77599072 1.27757465
In 6.75507979 7.16694767 3.56813588
In 3.37781011 0.00066875 1.27866126
