&CONTROL
calculation = 'relax'
prefix = 'scf'
pseudo_dir = '/vol0004/mdt0/data/hp150275/u10028/POT_KKJUS'
outdir = './data'
tprnfor = .true.
nstep = 50
disk_io = 'non'
/
&SYSTEM
ibrav = 0
ecutwfc = 50.0
ecutrho = 400
occupations = 'smearing'
smearing = 'mp'
degauss = 0.01
assume_isolated = 'esm'
esm_bc = 'bc1'
input_dft = 'BEEF-VDW'
nosym = .true.
nspin = 1
ntyp = 3
nat = 33
/
&ELECTRONS
electron_maxstep = 200
mixing_beta = 0.1
conv_thr = 1e-06
/
&IONS
ion_dynamics = 'bfgs'
upscale = 1.0
/
&CELL
/

K_POINTS {automatic}
9 6 2 0  0  0

ATOMIC_SPECIES
C 12.01 C.pbe-n-rrkjus_psl.1.0.0.UPF
Rh 102.9 Rh.pbe-spn-rrkjus_psl.1.0.0.UPF
Zn 65.40 Zn.pbe-dnl-rrkjus_psl.1.0.0.UPF

CELL_PARAMETERS {angstrom}
6.06651000 0.00000000 0.00000000
0.00000000 8.57934000 0.00000000
0.00000000 0.00000000 26.43450000

ATOMIC_POSITIONS {angstrom}
Zn 1.51662750 2.14483500 -3.217342989999999 0 0 0
Zn 1.51662750 0.00000000 -1.0724476599999981 0 0 0
Zn 1.51717349 2.14483500 1.03543937
Zn 1.51705216 8.47981966 3.29558911
Zn 1.51662750 6.43450500 -3.217342989999999 0 0 0
Zn 1.51662750 4.28967000 -1.0724476599999981 0 0 0
Zn 1.51729482 6.43450500 1.05209310
Zn 1.51705216 4.38919034 3.29585346
Zn 4.54988250 2.14483500 -3.217342989999999 0 0 0
Zn 4.54988250 0.00000000 -1.0724476599999981 0 0 0
Zn 4.54848720 2.14483500 1.01323439
Zn 4.54836587 8.57770993 3.30166905
Zn 4.54988250 6.43450500 -3.217342989999999 0 0 0
Zn 4.54988250 4.28967000 -1.0724476599999981 0 0 0
Zn 4.54951851 6.43450500 1.01904997
Zn 4.54836587 4.29130007 3.30166905
Rh 0.00000000 0.00000000 -3.217342989999999 0 0 0
Rh 0.00000000 2.14483500 -1.0724476599999981 0 0 0
Rh 0.00370057 0.01818820 1.10178996
Rh 0.02820927 2.14483500 3.25514433
Rh 0.00000000 4.28967000 -3.217342989999999 0 0 0
Rh 0.00000000 6.43450500 -1.0724476599999981 0 0 0
Rh 0.00370057 4.27148180 1.10178996
Rh 6.01633996 6.43450500 3.11371975
Rh 3.03325500 0.00000000 -3.217342989999999 0 0 0
Rh 3.03325500 2.14483500 -1.0724476599999981 0 0 0
Rh 3.02943310 0.01801661 1.10152561
Rh 2.99940387 2.14483500 3.25805212
Rh 3.03325500 4.28967000 -3.217342989999999 0 0 0
Rh 3.03325500 6.43450500 -1.0724476599999981 0 0 0
Rh 3.02943310 4.27165339 1.10152561
Rh 3.08354637 6.43450500 3.11424844
C 1.51147097 2.14483500 4.31886861
