&CONTROL
calculation = 'relax'
prefix = 'scf'
pseudo_dir = '/vol0004/mdt0/data/hp150275/u10028/POT_KKJUS'
outdir = './data'
tprnfor = .true.
nstep = 50
disk_io = 'non'
/
&SYSTEM
ibrav = 0
ecutwfc = 50.0
ecutrho = 400
occupations = 'smearing'
smearing = 'mp'
degauss = 0.01
assume_isolated = 'esm'
esm_bc = 'bc1'
input_dft = 'BEEF-VDW'
nosym = .true.
nspin = 1
ntyp = 4
nat = 18
/
&ELECTRONS
electron_maxstep = 200
mixing_beta = 0.1
conv_thr = 1e-06
/
&IONS
ion_dynamics = 'bfgs'
upscale = 1.0
/
&CELL
/

K_POINTS {automatic}
6 8 1 0 0 0

ATOMIC_SPECIES
C 12.01 C.pbe-n-rrkjus_psl.1.0.0.UPF
In 114.8 In.pbe-dn-rrkjus_psl.1.0.0.UPF
O 15.99 O.pbe-n-rrkjus_psl.1.0.0.UPF
Pd 106.4 Pd.pbe-n-rrkjus_psl.1.0.0.UPF

CELL_PARAMETERS {angstrom}
8.16408000 0.00000000 0.00000000
0.00000000 5.77288000 0.00000000
0.00000000 0.00000000 24.32970000

ATOMIC_POSITIONS {angstrom}
In 0.00000000 0.00000000 -2.1648567099999987 0 0 0
In 8.15722217 2.90017945 0.75835675
In 4.08204000 0.00000000 -2.1648567099999987 0 0 0
In 4.08889783 2.90017945 0.75835675
Pd 0.00000000 2.88644000 -2.1648567099999987 0 0 0
Pd 2.04102000 4.32966000 -0.7216188999999993 0 0 0
Pd 2.04102000 1.44322000 -0.7216188999999993 0 0 0
Pd 0.00677619 0.00790885 0.70288503
Pd 2.04102000 1.38029561 2.12738897
Pd 2.04102000 4.26950659 2.08335221
Pd 4.08204000 2.88644000 -2.1648567099999987 0 0 0
Pd 6.12306000 4.32966000 -0.7216188999999993 0 0 0
Pd 6.12306000 1.44322000 -0.7216188999999993 0 0 0
Pd 4.07526381 0.00790885 0.70288503
Pd 6.12306000 1.46302098 2.06023900
Pd 6.12306000 4.35148149 2.06096889
C 2.04102000 1.49933239 4.04773219
O 2.04102000 1.45297617 5.19658062
