&CONTROL
calculation = 'relax'
prefix = 'scf'
pseudo_dir = '/vol0004/mdt0/data/hp150275/u10028/POT_KKJUS'
outdir = './data'
tprnfor = .true.
nstep = 50
disk_io = 'non'
/
&SYSTEM
ibrav = 0
ecutwfc = 50.0
ecutrho = 400
occupations = 'smearing'
smearing = 'mp'
degauss = 0.01
assume_isolated = 'esm'
esm_bc = 'bc1'
input_dft = 'BEEF-VDW'
nosym = .true.
nspin = 1
ntyp = 4
nat = 34
/
&ELECTRONS
electron_maxstep = 200
mixing_beta = 0.1
conv_thr = 1e-06
/
&IONS
ion_dynamics = 'bfgs'
upscale = 1.0
/
&CELL
/

K_POINTS {automatic}
9 6 2 0  0  0

ATOMIC_SPECIES
C 12.01 C.pbe-n-rrkjus_psl.1.0.0.UPF
O 15.99 O.pbe-n-rrkjus_psl.1.0.0.UPF
Os 190.2 Os.pbe-spn-rrkjus_psl.1.0.0.UPF
Ti 47.86 Ti.pbe-spn-rrkjus_psl.1.0.0.UPF

CELL_PARAMETERS {angstrom}
6.19423000 0.00000000 0.00000000
0.00000000 8.75996000 0.00000000
0.00000000 0.00000000 26.57000000

ATOMIC_POSITIONS {angstrom}
Ti 1.54855750 2.18999000 -3.285114799999999 0 0 0
Ti 1.54855750 0.00000000 -1.0949497000000008 0 0 0
Ti 1.54886721 2.18543482 1.14011870
Ti 1.54886721 4.37998000 3.31939010
Ti 1.54855750 6.56997000 -3.285114799999999 0 0 0
Ti 1.54855750 4.37998000 -1.0949497000000008 0 0 0
Ti 1.54886721 6.57452518 1.14011870
Ti 1.54775225 0.00000000 3.36057360
Ti 4.64567250 2.18999000 -3.285114799999999 0 0 0
Ti 4.64567250 0.00000000 -1.0949497000000008 0 0 0
Ti 4.64573444 2.19112879 1.14011870
Ti 4.64592027 4.37998000 3.32656400
Ti 4.64567250 6.56997000 -3.285114799999999 0 0 0
Ti 4.64567250 4.37998000 -1.0949497000000008 0 0 0
Ti 4.64573444 6.56883121 1.14011870
Ti 4.64554862 0.00000000 3.32736110
Os 0.00000000 0.00000000 -3.285114799999999 0 0 0
Os 0.00000000 2.18999000 -1.0949497000000008 0 0 0
Os 6.18568196 0.00000000 1.07395940
Os 6.19069929 2.20610833 3.16103290
Os 0.00000000 4.37998000 -3.285114799999999 0 0 0
Os 0.00000000 6.56997000 -1.0949497000000008 0 0 0
Os 0.00099108 4.37998000 1.08299320
Os 6.19069929 6.55385167 3.16103290
Os 3.09711500 0.00000000 -3.285114799999999 0 0 0
Os 3.09711500 2.18999000 -1.0949497000000008 0 0 0
Os 3.10560110 0.00000000 1.07395940
Os 3.10083154 2.20610833 3.16129860
Os 3.09711500 4.37998000 -3.285114799999999 0 0 0
Os 3.09711500 6.56997000 -1.0949497000000008 0 0 0
Os 3.09668140 4.37998000 1.08299320
Os 3.10083154 6.55385167 3.16129860
C 1.53598321 0.00000000 5.49520740
O 1.53418689 0.00000000 6.64648550
