&CONTROL
calculation = 'relax'
prefix = 'scf'
pseudo_dir = '/vol0004/mdt0/data/hp150275/u10028/POT_KKJUS'
outdir = './data'
tprnfor = .true.
nstep = 50
disk_io = 'non'
/
&SYSTEM
ibrav = 0
ecutwfc = 50.0
ecutrho = 400
occupations = 'smearing'
smearing = 'mp'
degauss = 0.01
assume_isolated = 'esm'
esm_bc = 'bc1'
input_dft = 'BEEF-VDW'
nosym = .true.
nspin = 1
ntyp = 5
nat = 18
/
&ELECTRONS
electron_maxstep = 200
mixing_beta = 0.1
conv_thr = 1e-06
/
&IONS
ion_dynamics = 'bfgs'
upscale = 1.0
/
&CELL
/

K_POINTS {automatic}
8 8 1 0 0 0

ATOMIC_SPECIES
Au 196.9 Au.pbe-n-rrkjus_psl.1.0.0.UPF
C 12.01 C.pbe-n-rrkjus_psl.1.0.0.UPF
In 114.8 In.pbe-dn-rrkjus_psl.1.0.0.UPF
O 15.99 O.pbe-n-rrkjus_psl.1.0.0.UPF
Y 88.90 Y.pbe-spn-rrkjus_psl.1.0.0.UPF

CELL_PARAMETERS {angstrom}
7.06522000 0.00000000 0.00000000
0.00000000 7.06522000 0.00000000
0.00000000 0.00000000 25.29890000

ATOMIC_POSITIONS {angstrom}
Y 0.00127174 0.00042391 2.54734624
Y 3.52985456 3.53670783 2.54051554
Y 3.53261000 0.00000000 -0.8831845999999999 0 0 0
Y 0.00000000 3.53261000 -0.8831845999999999 0 0 0
In 0.00000000 0.00000000 -0.8831845999999999 0 0 0
In 3.54002848 0.00105978 2.84637924
In 7.06514935 3.53805022 2.84486130
In 3.53261000 3.53261000 -0.8831845999999999 0 0 0
Au 1.76764739 1.76814196 1.01549785
Au 5.29891500 5.29891500 -2.6495537999999996 0 0 0
Au 5.29792587 1.77082674 1.01170301
Au 1.76630500 5.29891500 -2.6495537999999996 0 0 0
Au 5.29566500 5.29849109 1.01119703
Au 1.76630500 1.76630500 -2.6495537999999996 0 0 0
Au 1.76898978 5.29983348 1.01448589
Au 5.29891500 1.76630500 -2.6495537999999996 0 0 0
C 6.78119816 3.13822942 7.27419272
O 0.18461420 3.76774052 8.09033523
