&CONTROL
calculation = 'relax'
prefix = 'scf'
pseudo_dir = '/vol0403/data/hp230205/u10028/POT_HYBRID_KKJUS_GBRV'
outdir = './data'
tprnfor = .true.
nstep = 50
disk_io = 'non'
/
&SYSTEM
ibrav = 0
ecutwfc = 50.0
ecutrho = 400
occupations = 'smearing'
smearing = 'mp'
degauss = 0.01
assume_isolated = 'esm'
esm_bc = 'bc1'
input_dft = 'BEEF-VDW'
nosym = .true.
nspin = 1
ntyp = 5
nat = 17
/
&ELECTRONS
electron_maxstep = 200
mixing_beta = 0.1
conv_thr = 1e-06
/
&IONS
ion_dynamics = 'bfgs'
upscale = 1.0
/
&CELL
/

K_POINTS {automatic}
6 6 1 0 0 0

ATOMIC_SPECIES
C 12.01 C.pbe-n-rrkjus_psl.1.0.0.UPF
Ge 72.64 Ge.pbe-dn-rrkjus_psl.1.0.0.UPF
In 114.8 In.pbe-dn-rrkjus_psl.1.0.0.UPF
Li 6.941 Li.pbe-sl-rrkjus_psl.1.0.0.UPF
Sc 44.95 Sc.pbe-spn-rrkjus_psl.1.0.0.UPF


CELL_PARAMETERS {angstrom}
8.12626000 0.00000000 0.00000000
0.00000000 6.08490000 0.00000000
0.00000000 0.00000000 24.54620000

ATOMIC_POSITIONS {angstrom}
Li 2.03140247 4.66961311 1.11930672
Li 2.03156500 1.12211641 -2.2729781199999977 0 0 0
Li 6.09485753 4.47952083 0.71429442
Li 6.09469500 1.12211641 -2.2729781199999977 0 0 0
Sc 2.03148374 1.64347064 0.74104978
Sc 2.03156500 4.16456641 -2.2729781199999977 0 0 0
Sc 6.09461374 1.38437560 0.88489051
Sc 6.09469500 4.16456641 -2.2729781199999977 0 0 0
In 7.93651183 3.21982484 2.38196325
In 0.00000000 5.81886817 -0.7577411899999973 0 0 0
In 4.25279691 3.21964229 2.38147232
In 4.06313000 5.81886817 -0.7577411899999973 0 0 0
Ge 0.14554132 0.13733619 2.49904862
Ge 0.00000000 2.77641817 -0.7577411899999973 0 0 0
Ge 3.91742616 0.13757959 2.49855770
Ge 4.06313000 2.77641817 -0.7577411899999973 0 0 0
C 2.03140247 0.31093839 2.42639187
