&CONTROL
calculation = 'relax'
prefix = 'scf'
pseudo_dir = '/vol0004/mdt0/data/hp150275/u10028/POT_HYBRID_KKJUS_GBRV'
outdir = './data'
tprnfor = .true.
nstep = 50
disk_io = 'non'
/
&SYSTEM
ibrav = 0
ecutwfc = 50.0
ecutrho = 400
occupations = 'smearing'
smearing = 'mp'
degauss = 0.01
assume_isolated = 'esm'
esm_bc = 'bc1'
input_dft = 'BEEF-VDW'
nosym = .true.
nspin = 2
ntyp = 5
nat = 18
starting_magnetization(1) = 0.0
starting_magnetization(2) = 0.0
starting_magnetization(3) = 0.001
starting_magnetization(4) = 0.0
starting_magnetization(5) = 0.0
/
&ELECTRONS
electron_maxstep = 200
mixing_beta = 0.1
conv_thr = 1e-06
/
&IONS
ion_dynamics = 'bfgs'
upscale = 1.0
/
&CELL
/

K_POINTS {automatic}
10 10 2 0  0  0

ATOMIC_SPECIES
C 12.01 C.pbe-n-rrkjus_psl.1.0.0.UPF
Ga 69.72 Ga.pbe-dnl-rrkjus_psl.1.0.0.UPF
Ni 58.69 ni_pbe_v1.4.uspp.F.UPF
O 15.99 O.pbe-n-rrkjus_psl.1.0.0.UPF
V 50.94 V.pbe-spnl-rrkjus_psl.1.0.0.UPF

CELL_PARAMETERS {angstrom}
5.82350000 0.00000000 0.00000000
0.00000000 5.82350000 0.00000000
0.00000000 0.00000000 24.36760000

ATOMIC_POSITIONS {angstrom}
V 0.00000000 5.82344177 2.23475260
V 2.91175000 2.91175000 2.23475260
V 2.91175000 0.00000000 23.63973979
V 0.00000000 2.91175000 23.63973979
Ga 0.00000000 0.00000000 23.63973979
Ga 2.91175000 0.00011647 2.24084450
Ga 0.00023294 2.91145882 2.11632606
Ga 2.91175000 2.91175000 23.63973979
Ni 1.47602431 1.43531805 0.72639816
Ni 4.36762500 4.36762500 22.18377569
Ni 4.34747569 1.43543452 0.72615448
Ni 1.45587500 4.36762500 22.18377569
Ni 4.34753393 4.38789078 0.72615448
Ni 1.45587500 1.45587500 22.18377569
Ni 1.47596608 4.38800725 0.72615448
Ni 4.36762500 1.45587500 22.18377569
C 5.82344177 2.91186647 4.15175169
O 0.00000000 2.91186647 5.30677593
