&CONTROL
calculation = 'relax'
prefix = 'scf'
pseudo_dir = '/vol0403/data/hp230205/u10028/POT_HYBRID_KKJUS_GBRV'
outdir = './data'
tprnfor = .true.
nstep = 50
disk_io = 'non'
/
&SYSTEM
ibrav = 0
ecutwfc = 50.0
ecutrho = 400
occupations = 'smearing'
smearing = 'mp'
degauss = 0.01
assume_isolated = 'esm'
esm_bc = 'bc1'
input_dft = 'BEEF-VDW'
nosym = .true.
nspin = 1
ntyp = 6
nat = 34
/
&ELECTRONS
electron_maxstep = 200
mixing_beta = 0.1
conv_thr = 1e-06
/
&IONS
ion_dynamics = 'bfgs'
upscale = 1.0
/
&CELL
/

K_POINTS {automatic}
6 6 1 0 0 0

ATOMIC_SPECIES
Ag 107.8 Ag.pbe-n-rrkjus_psl.1.0.0.UPF
C 12.01 C.pbe-n-rrkjus_psl.1.0.0.UPF
Li 6.941 Li.pbe-sl-rrkjus_psl.1.0.0.UPF
O 15.99 O.pbe-n-rrkjus_psl.1.0.0.UPF
Sn 118.7 Sn.pbe-dn-rrkjus_psl.1.0.0.UPF
Y 88.90 Y.pbe-spn-rrkjus_psl.1.0.0.UPF


CELL_PARAMETERS {angstrom}
7.11214000 0.00000000 0.00000000
0.00000000 10.05810000 0.00000000
0.00000000 0.00000000 27.54360000

ATOMIC_POSITIONS {angstrom}
Li 1.77803500 0.00000000 -1.2573653399999998 0 0 0
Li 1.77803500 5.02905000 -1.2573653399999998 0 0 0
Li 5.33410500 2.51452500 -3.77182058 0 0 0
Li 5.33410500 7.54357500 -3.77182058 0 0 0
Li 1.73941608 5.02894942 3.66329880
Li 1.78151995 0.00010058 3.75006114
Li 5.38588138 7.55705285 1.24717421
Li 5.38602362 2.50114773 1.24717421
Y 5.33410500 0.00000000 -1.2573653399999998 0 0 0
Y 5.33410500 5.02905000 -1.2573653399999998 0 0 0
Y 1.77803500 2.51452500 -3.77182058 0 0 0
Y 1.77803500 7.54357500 -3.77182058 0 0 0
Y 5.44327635 5.02925116 3.92138233
Y 5.41994853 10.05789884 3.85307420
Y 1.76565988 7.51772568 1.27664586
Y 1.76509091 2.54057548 1.27664586
Ag 0.00000000 0.00000000 -3.77182058 0 0 0
Ag 0.00000000 5.02905000 -3.77182058 0 0 0
Ag 3.55607000 7.54357500 -1.2573653399999998 0 0 0
Ag 3.55607000 2.51452500 -1.2573653399999998 0 0 0
Ag 7.01562826 5.02945232 1.32760152
Ag 7.09315059 0.00000000 1.30171054
Ag 3.67306470 2.54862196 3.57488384
Ag 3.67214012 7.50937746 3.57543472
Sn 0.00000000 2.51452500 -1.2573653399999998 0 0 0
Sn 0.00000000 7.54357500 -1.2573653399999998 0 0 0
Sn 3.55607000 5.02905000 -3.77182058 0 0 0
Sn 3.55607000 0.00000000 -3.77182058 0 0 0
Sn 0.12026629 7.54639127 3.94176460
Sn 0.11983956 2.51170873 3.94176460
Sn 3.58146034 0.00010058 1.35982753
Sn 3.66168528 5.02814477 1.37690456
C 2.35603862 0.00010058 5.75330717
O 2.53327315 0.00000000 6.88865436
