&CONTROL
calculation = 'relax'
prefix = 'scf'
pseudo_dir = '/vol0004/mdt0/data/hp150275/u10028/POT_KKJUS'
outdir = './data'
tprnfor = .true.
nstep = 50
disk_io = 'non'
/
&SYSTEM
ibrav = 0
ecutwfc = 50.0
ecutrho = 400
occupations = 'smearing'
smearing = 'mp'
degauss = 0.01
assume_isolated = 'esm'
esm_bc = 'bc1'
input_dft = 'BEEF-VDW'
nosym = .true.
nspin = 1
ntyp = 5
nat = 34
/
&ELECTRONS
electron_maxstep = 200
mixing_beta = 0.1
conv_thr = 1e-06
/
&IONS
ion_dynamics = 'bfgs'
upscale = 1.0
/
&CELL
/

K_POINTS {automatic}
8 6 1 0 0 0

ATOMIC_SPECIES
Ag 107.8 Ag.pbe-n-rrkjus_psl.1.0.0.UPF
Al 26.98 Al.pbe-nl-rrkjus_psl.1.0.0.UPF
C 12.01 C.pbe-n-rrkjus_psl.1.0.0.UPF
O 15.99 O.pbe-n-rrkjus_psl.1.0.0.UPF
Sc 44.95 Sc.pbe-spn-rrkjus_psl.1.0.0.UPF

CELL_PARAMETERS {angstrom}
6.65011000 0.00000000 0.00000000
0.00000000 9.40467000 0.00000000
0.00000000 0.00000000 27.05350000

ATOMIC_POSITIONS {angstrom}
Sc 0.00000000 0.00000000 -3.5266942599999993 0 0 0
Sc 3.32505500 2.35116750 -1.1754745699999987 0 0 0
Sc 3.32505500 7.05350250 -1.1754745699999987 0 0 0
Sc 0.00000000 4.70233500 -3.5266942599999993 0 0 0
Sc 0.00000000 4.73214780 1.20712717
Sc 3.32505500 7.05350250 3.59405748
Sc 3.32505500 2.35116750 3.48638455
Sc 0.00000000 9.37485720 1.20712717
Al 0.00000000 7.05350250 -1.1754745699999987 0 0 0
Al 3.32505500 0.00000000 -3.5266942599999993 0 0 0
Al 0.00000000 2.35116750 -1.1754745699999987 0 0 0
Al 3.32505500 4.70233500 -3.5266942599999993 0 0 0
Al 0.00000000 2.35116750 3.39142676
Al 3.32505500 4.68644111 1.21389054
Al 0.00000000 7.05350250 3.37411252
Al 3.32505500 0.01589389 1.21389054
Ag 1.66252750 0.00000000 -1.1754745699999987 0 0 0
Ag 4.98758250 4.70233500 -1.1754745699999987 0 0 0
Ag 4.98758250 0.00000000 -1.1754745699999987 0 0 0
Ag 1.66252750 4.70233500 -1.1754745699999987 0 0 0
Ag 4.98758250 7.05350250 -3.5266942599999993 0 0 0
Ag 1.66252750 2.35116750 -3.5266942599999993 0 0 0
Ag 1.66252750 7.05350250 -3.5266942599999993 0 0 0
Ag 4.98758250 2.35116750 -3.5266942599999993 0 0 0
Ag 1.56523639 4.70920041 3.62895649
Ag 5.08494011 9.39771054 3.62895649
Ag 5.08487361 4.70920041 3.62895649
Ag 1.56523639 9.39771054 3.62895649
Ag 4.99443211 2.35116750 1.12786042
Ag 1.74478936 7.05350250 1.17249869
Ag 1.65567789 2.35116750 1.12786042
Ag 4.90532064 7.05350250 1.17249869
C 3.32505500 2.35116750 5.76537138
O 3.32505500 2.35116750 6.91406300
