&CONTROL
calculation = 'relax'
prefix = 'scf'
pseudo_dir = '/vol0403/data/hp230205/u10028/POT_HYBRID_KKJUS_GBRV'
outdir = './data'
tprnfor = .true.
nstep = 50
disk_io = 'non'
/
&SYSTEM
ibrav = 0
ecutwfc = 50.0
ecutrho = 400
occupations = 'smearing'
smearing = 'mp'
degauss = 0.01
assume_isolated = 'esm'
esm_bc = 'bc1'
input_dft = 'BEEF-VDW'
nosym = .true.
nspin = 1
ntyp = 5
nat = 33
/
&ELECTRONS
electron_maxstep = 200
mixing_beta = 0.1
conv_thr = 1e-06
/
&IONS
ion_dynamics = 'bfgs'
upscale = 1.0
/
&CELL
/

K_POINTS {automatic}
6 6 1 0 0 0

ATOMIC_SPECIES
C 12.01 C.pbe-n-rrkjus_psl.1.0.0.UPF
Cu 63.54 Cu.pbe-dn-rrkjus_psl.1.0.0.UPF
In 114.8 In.pbe-dn-rrkjus_psl.1.0.0.UPF
Sn 118.7 Sn.pbe-dn-rrkjus_psl.1.0.0.UPF
Y 88.90 Y.pbe-spn-rrkjus_psl.1.0.0.UPF


CELL_PARAMETERS {angstrom}
9.14612000 0.00000000 0.00000000
0.00000000 8.82850000 0.00000000
0.00000000 0.00000000 26.63560000

ATOMIC_POSITIONS {angstrom}
Y 2.28653000 2.20712500 -3.3177303400000007 0 0 0
Y 2.00757334 2.11583831 1.31579864
Y 2.28653000 6.62137500 -3.3177303400000007 0 0 0
Y 2.45271500 6.61678418 1.19647115
Y 6.85959000 2.20712500 -3.3177303400000007 0 0 0
Y 7.13818082 2.11627974 1.31579864
Y 6.85959000 6.62137500 -3.3177303400000007 0 0 0
Y 6.69349646 6.61651933 1.19647115
In 0.00000000 2.20712500 -1.10591011 0 0 0
In 0.00000000 2.89866140 4.20229861
In 0.00000000 6.62137500 -1.10591011 0 0 0
In 0.00009146 5.90238196 3.05403790
In 4.57306000 2.20712500 -1.10591011 0 0 0
In 4.57306000 1.25223444 3.38298756
In 4.57306000 6.62137500 -1.10591011 0 0 0
In 4.57306000 7.04673213 3.84165259
Cu 0.00000000 0.00000000 -3.3177303400000007 0 0 0
Cu 9.14584562 8.60249040 0.94316660
Cu 0.00000000 4.41425000 -3.3177303400000007 0 0 0
Cu 0.00009146 4.46051134 0.64245067
Cu 4.57306000 0.00000000 -3.3177303400000007 0 0 0
Cu 4.57306000 0.01174191 0.80039978
Cu 4.57306000 4.41425000 -3.3177303400000007 0 0 0
Cu 4.57296854 4.31775450 0.92851702
Sn 2.28653000 0.00000000 -1.10591011 0 0 0
Sn 1.51587793 8.74674809 3.67704458
Sn 2.28653000 4.41425000 -1.10591011 0 0 0
Sn 3.02846325 4.34070860 3.41867926
Sn 6.85959000 0.00000000 -1.10591011 0 0 0
Sn 7.63015061 8.74674809 3.67704458
Sn 6.85959000 4.41425000 -1.10591011 0 0 0
Sn 6.11783967 4.34097345 3.41894562
C 0.00027438 1.26733118 2.31623178
