&CONTROL
calculation = 'relax'
prefix = 'scf'
pseudo_dir = '/vol0004/mdt0/data/hp150275/u10028/POT_KKJUS'
outdir = './data'
tprnfor = .true.
nstep = 50
disk_io = 'non'
/
&SYSTEM
ibrav = 0
ecutwfc = 50.0
ecutrho = 400
occupations = 'smearing'
smearing = 'mp'
degauss = 0.01
assume_isolated = 'esm'
esm_bc = 'bc1'
input_dft = 'BEEF-VDW'
nosym = .true.
nspin = 1
ntyp = 3
nat = 33
/
&ELECTRONS
electron_maxstep = 200
mixing_beta = 0.1
conv_thr = 1e-06
/
&IONS
ion_dynamics = 'bfgs'
upscale = 1.0
/
&CELL
/

K_POINTS {automatic}
8 6 1 0 0 0

ATOMIC_SPECIES
Ag 107.8 Ag.pbe-n-rrkjus_psl.1.0.0.UPF
C 12.01 C.pbe-n-rrkjus_psl.1.0.0.UPF
Mg 24.30 Mg.pbe-spnl-rrkjus_psl.1.0.0.UPF

CELL_PARAMETERS {angstrom}
6.75388000 0.00000000 0.00000000
0.00000000 9.55143000 0.00000000
0.00000000 0.00000000 27.16360000

ATOMIC_POSITIONS {angstrom}
Mg 1.68847000 2.38785750 -3.5817923 0 0 0
Mg 1.68847000 0.00000000 -1.1938402199999985 0 0 0
Mg 1.69373803 2.38785750 1.23947507
Mg 1.69691235 4.58946211 3.60297990
Mg 1.68847000 7.16357250 -3.5817923 0 0 0
Mg 1.68847000 4.77571500 -1.1938402199999985 0 0 0
Mg 1.69184694 7.16357250 1.13869811
Mg 1.69691235 0.18625289 3.60297990
Mg 5.06541000 2.38785750 -3.5817923 0 0 0
Mg 5.06541000 0.00000000 -1.1938402199999985 0 0 0
Mg 5.06210060 2.38785750 1.18650605
Mg 5.06324876 4.92490834 3.62117952
Mg 5.06541000 7.16357250 -3.5817923 0 0 0
Mg 5.06541000 4.77571500 -1.1938402199999985 0 0 0
Mg 5.06264091 7.16357250 1.21855910
Mg 5.06324876 9.40261872 3.62036461
Ag 0.00000000 0.00000000 -3.5817923 0 0 0
Ag 0.00000000 2.38785750 -1.1938402199999985 0 0 0
Ag 6.73368590 9.51169605 1.14413083
Ag 6.39518143 2.38785750 3.74314408
Ag 0.00000000 4.77571500 -3.5817923 0 0 0
Ag 0.00000000 7.16357250 -1.1938402199999985 0 0 0
Ag 6.73361836 4.81535343 1.14413083
Ag 0.15723033 7.16357250 3.52800837
Ag 3.37694000 0.00000000 -3.5817923 0 0 0
Ag 3.37694000 2.38785750 -1.1938402199999985 0 0 0
Ag 3.39841734 9.51035885 1.13951302
Ag 3.75387404 2.38785750 3.75699752
Ag 3.37694000 4.77571500 -3.5817923 0 0 0
Ag 3.37694000 7.16357250 -1.1938402199999985 0 0 0
Ag 3.39848488 4.81669063 1.13951302
Ag 3.22052014 7.16357250 3.53289782
C 1.69954636 2.38785750 3.45520992
