&CONTROL
calculation = 'relax'
prefix = 'scf'
pseudo_dir = '/vol0004/mdt0/data/hp150275/u10028/POT_HYBRID_KKJUS_GBRV'
outdir = './data'
tprnfor = .true.
nstep = 50
disk_io = 'non'
/
&SYSTEM
ibrav = 0
ecutwfc = 50.0
ecutrho = 400
occupations = 'smearing'
smearing = 'mp'
degauss = 0.01
assume_isolated = 'esm'
esm_bc = 'bc1'
input_dft = 'BEEF-VDW'
nosym = .true.
nspin = 2
ntyp = 4
nat = 33
starting_magnetization(1) = 0.0
starting_magnetization(2) = 0.1
starting_magnetization(3) = 0.0
starting_magnetization(4) = 0.0
/
&ELECTRONS
electron_maxstep = 300
mixing_beta = 0.1
conv_thr = 1e-06
/
&IONS
ion_dynamics = 'bfgs'
upscale = 1.0
/
&CELL
/

K_POINTS {automatic}
9 6 2 0  0  0

ATOMIC_SPECIES
C 12.01 C.pbe-n-rrkjus_psl.1.0.0.UPF
Co 58.93 co_pbe_v1.2.uspp.F.UPF
Sn 118.7 Sn.pbe-dn-rrkjus_psl.1.0.0.UPF
Zr 91.22 Zr.pbe-spn-rrkjus_psl.1.0.0.UPF

CELL_PARAMETERS {angstrom}
6.31315000 0.00000000 0.00000000
0.00000000 8.92814000 0.00000000
0.00000000 0.00000000 26.69610000

ATOMIC_POSITIONS {angstrom}
Zr 0.00000000 0.00000000 -3.347957900000001 0 0 0
Zr 3.15657500 2.23203500 -1.1158969800000023 0 0 0
Zr 3.15657500 6.69610500 -1.1158969800000023 0 0 0
Zr 0.00000000 4.46407000 -3.347957900000001 0 0 0
Zr 0.00000000 4.46407000 1.11029080
Zr 3.15657500 6.67208830 3.35089447
Zr 3.15657500 2.25605170 3.35089447
Zr 0.00000000 0.00000000 1.16021251
Co 1.57828750 0.00000000 -1.1158969800000023 0 0 0
Co 4.73486250 4.46407000 -1.1158969800000023 0 0 0
Co 4.73486250 0.00000000 -1.1158969800000023 0 0 0
Co 1.57828750 4.46407000 -1.1158969800000023 0 0 0
Co 4.73486250 6.69610500 -3.347957900000001 0 0 0
Co 1.57828750 2.23203500 -3.347957900000001 0 0 0
Co 1.57828750 6.69610500 -3.347957900000001 0 0 0
Co 4.73486250 2.23203500 -3.347957900000001 0 0 0
Co 1.59747948 4.46407000 3.17389933
Co 4.58669287 0.00000000 3.25879293
Co 4.71567052 4.46407000 3.17389933
Co 1.72645713 0.00000000 3.25879293
Co 4.73359987 2.22882087 1.17836585
Co 1.57961326 6.69931913 1.17836585
Co 1.57961326 2.22882087 1.17836585
Co 4.73359987 6.69931913 1.17836585
Sn 0.00000000 6.69610500 -1.1158969800000023 0 0 0
Sn 3.15657500 0.00000000 -3.347957900000001 0 0 0
Sn 0.00000000 2.23203500 -1.1158969800000023 0 0 0
Sn 3.15657500 4.46407000 -3.347957900000001 0 0 0
Sn 0.00000000 2.37863506 3.58955761
Sn 3.15657500 4.46407000 1.07665371
Sn 0.00000000 6.54950494 3.58955761
Sn 3.15657500 0.00000000 1.06757704
C 0.00000000 0.00000000 3.58261662
