&CONTROL
calculation = 'relax'
prefix = 'scf'
pseudo_dir = '/vol0004/mdt0/data/hp150275/u10028/POT_KKJUS'
outdir = './data'
tprnfor = .true.
nstep = 50
disk_io = 'non'
/
&SYSTEM
ibrav = 0
ecutwfc = 50.0
ecutrho = 400
occupations = 'smearing'
smearing = 'mp'
degauss = 0.01
assume_isolated = 'esm'
esm_bc = 'bc1'
input_dft = 'BEEF-VDW'
nosym = .true.
nspin = 1
ntyp = 5
nat = 34
/
&ELECTRONS
electron_maxstep = 200
mixing_beta = 0.1
conv_thr = 1e-06
/
&IONS
ion_dynamics = 'bfgs'
upscale = 1.0
/
&CELL
/

K_POINTS {automatic}
8 6 1 0 0 0

ATOMIC_SPECIES
Al 26.98 Al.pbe-nl-rrkjus_psl.1.0.0.UPF
C 12.01 C.pbe-n-rrkjus_psl.1.0.0.UPF
Nb 92.90 Nb.pbe-spn-rrkjus_psl.1.0.0.UPF
Ni 58.69 Ni.pbe-spn-rrkjus_psl.1.0.0.UPF
O 15.99 O.pbe-n-rrkjus_psl.1.0.0.UPF

CELL_PARAMETERS {angstrom}
6.01786000 0.00000000 0.00000000
0.00000000 8.51054000 0.00000000
0.00000000 0.00000000 26.38290000

ATOMIC_POSITIONS {angstrom}
Nb 0.00000000 0.00000000 -3.1915394100000007 0 0 0
Nb 3.00893000 2.12763500 -1.0637585299999976 0 0 0
Nb 3.00893000 6.38290500 -1.0637585299999976 0 0 0
Nb 0.00000000 4.25527000 -3.1915394100000007 0 0 0
Nb 6.00486142 4.25586574 1.05083091
Nb 2.98371517 6.41796842 3.21370105
Nb 2.98245142 2.09308221 3.21343722
Nb 0.03791252 0.00085105 1.06824362
Al 0.00000000 6.38290500 -1.0637585299999976 0 0 0
Al 3.00893000 0.00000000 -3.1915394100000007 0 0 0
Al 0.00000000 2.12763500 -1.0637585299999976 0 0 0
Al 3.00893000 4.25527000 -3.1915394100000007 0 0 0
Al 5.99396910 2.18005993 3.17122458
Al 3.01043446 4.25595084 1.02312886
Al 5.99318677 6.33082050 3.17043309
Al 2.98949231 0.00085105 1.09805630
Ni 1.50446500 0.00000000 -1.0637585299999976 0 0 0
Ni 4.51339500 4.25527000 -1.0637585299999976 0 0 0
Ni 4.51339500 0.00000000 -1.0637585299999976 0 0 0
Ni 1.50446500 4.25527000 -1.0637585299999976 0 0 0
Ni 4.51339500 6.38290500 -3.1915394100000007 0 0 0
Ni 1.50446500 2.12763500 -3.1915394100000007 0 0 0
Ni 1.50446500 6.38290500 -3.1915394100000007 0 0 0
Ni 4.51339500 2.12763500 -3.1915394100000007 0 0 0
Ni 1.59310808 4.25544021 3.02902075
Ni 4.57586039 0.00017021 3.03508882
Ni 4.40850370 4.25527000 3.04880792
Ni 1.36087886 8.50977405 3.42159830
Ni 4.44443032 2.11818830 1.12338388
Ni 1.57234646 6.36375629 1.11916262
Ni 1.57186503 2.15027304 1.11757964
Ni 4.44418961 6.39388360 1.12074559
C 1.98023701 8.50951874 5.07976357
O 2.25272571 8.51019958 6.21264529
