&CONTROL
calculation = 'relax'
prefix = 'scf'
pseudo_dir = '/vol0004/mdt0/data/hp150275/u10028/POT_KKJUS'
outdir = './data'
tprnfor = .true.
nstep = 50
disk_io = 'non'
/
&SYSTEM
ibrav = 0
ecutwfc = 50.0
ecutrho = 400
occupations = 'smearing'
smearing = 'mp'
degauss = 0.01
assume_isolated = 'esm'
esm_bc = 'bc1'
input_dft = 'BEEF-VDW'
nosym = .true.
nspin = 1
ntyp = 4
nat = 34
/
&ELECTRONS
electron_maxstep = 200
mixing_beta = 0.1
conv_thr = 1e-06
/
&IONS
ion_dynamics = 'bfgs'
upscale = 1.0
/
&CELL
/

K_POINTS {automatic}
6 6 1 0 0 0

ATOMIC_SPECIES
C 12.01 C.pbe-n-rrkjus_psl.1.0.0.UPF
Ga 69.72 Ga.pbe-dnl-rrkjus_psl.1.0.0.UPF
O 15.99 O.pbe-n-rrkjus_psl.1.0.0.UPF
Sc 44.95 Sc.pbe-spn-rrkjus_psl.1.0.0.UPF

CELL_PARAMETERS {angstrom}
8.31483000 0.00000000 0.00000000
0.00000000 8.31483000 0.00000000
0.00000000 0.00000000 26.23610000

ATOMIC_POSITIONS {angstrom}
Sc 8.31075573 8.30925906 3.00691942
Sc 0.00000000 0.00000000 -1.0394742800000003 0 0 0
Sc 8.31399852 4.16040834 2.97412430
Sc 0.00000000 4.15741500 -1.0394742800000003 0 0 0
Sc 4.15674981 0.00166297 2.97228777
Sc 4.15741500 0.00000000 -1.0394742800000003 0 0 0
Sc 4.16173871 4.16456575 3.00560762
Sc 4.15741500 4.15741500 -1.0394742800000003 0 0 0
Ga 0.08206737 2.06640155 1.03790012
Ga 2.06922859 0.09129683 1.03265290
Ga 2.07546472 2.08353010 3.40859411
Ga 0.00000000 2.07870750 -3.118160490000001 0 0 0
Ga 2.07870750 0.00000000 -3.118160490000001 0 0 0
Ga 2.07870750 2.07870750 -1.0394742800000003 0 0 0
Ga 0.00033259 6.25183753 1.02924220
Ga 2.09142919 4.06337427 1.03553887
Ga 2.07887380 6.23495842 3.14098589
Ga 0.00000000 6.23612250 -3.118160490000001 0 0 0
Ga 2.07870750 4.15741500 -3.118160490000001 0 0 0
Ga 2.07870750 6.23612250 -1.0394742800000003 0 0 0
Ga 4.07701059 2.09076400 1.03396470
Ga 6.24884419 0.00365853 1.03317762
Ga 6.23620565 2.07845806 3.14098589
Ga 4.15741500 2.07870750 -3.118160490000001 0 0 0
Ga 6.23612250 0.00000000 -3.118160490000001 0 0 0
Ga 6.23612250 2.07870750 -1.0394742800000003 0 0 0
Ga 4.16049149 6.22656045 1.03107873
Ga 6.22190414 4.15267555 1.02819276
Ga 6.23246397 6.24036306 3.21602114
Ga 4.15741500 6.23612250 -3.118160490000001 0 0 0
Ga 6.23612250 4.15741500 -3.118160490000001 0 0 0
Ga 6.23612250 6.23612250 -1.0394742800000003 0 0 0
C 2.08386269 2.07147360 6.41472645
O 2.07596361 2.08203343 7.55284847
