&CONTROL
calculation = 'relax'
prefix = 'scf'
pseudo_dir = '/vol0403/data/hp230205/u10028/POT_HYBRID_KKJUS_GBRV'
outdir = './data'
tprnfor = .true.
nstep = 50
disk_io = 'non'
/
&SYSTEM
ibrav = 0
ecutwfc = 50.0
ecutrho = 400
occupations = 'smearing'
smearing = 'mp'
degauss = 0.01
assume_isolated = 'esm'
esm_bc = 'bc1'
input_dft = 'BEEF-VDW'
nosym = .true.
nspin = 1
ntyp = 6
nat = 34
/
&ELECTRONS
electron_maxstep = 200
mixing_beta = 0.1
conv_thr = 1e-06
/
&IONS
ion_dynamics = 'bfgs'
upscale = 1.0
/
&CELL
/

K_POINTS {automatic}
6 6 1 0 0 0

ATOMIC_SPECIES
Ag 107.8 Ag.pbe-n-rrkjus_psl.1.0.0.UPF
Al 26.98 Al.pbe-nl-rrkjus_psl.1.0.0.UPF
C 12.01 C.pbe-n-rrkjus_psl.1.0.0.UPF
Li 6.941 Li.pbe-sl-rrkjus_psl.1.0.0.UPF
O 15.99 O.pbe-n-rrkjus_psl.1.0.0.UPF
Sn 118.7 Sn.pbe-dn-rrkjus_psl.1.0.0.UPF


CELL_PARAMETERS {angstrom}
8.66686000 0.00000000 0.00000000
0.00000000 8.16098000 0.00000000
0.00000000 0.00000000 26.42010000

ATOMIC_POSITIONS {angstrom}
Li 0.00000000 2.04024500 -1.070014050000001 0 0 0
Li 0.00060668 2.04040822 3.09854933
Li 0.00000000 6.12073500 -1.070014050000001 0 0 0
Li 0.00060668 6.12040856 3.09854933
Li 4.33343000 2.04024500 -1.070014050000001 0 0 0
Li 4.33238998 2.04032661 3.09854933
Li 4.33343000 6.12073500 -1.070014050000001 0 0 0
Li 4.33238998 6.12040856 3.09854933
Al 2.16671500 2.04024500 -3.210042150000003 0 0 0
Al 2.16645499 2.04816115 1.08560191
Al 2.16671500 6.12073500 -3.210042150000003 0 0 0
Al 2.16645499 6.11265563 1.08560191
Al 6.50014500 2.04024500 -3.210042150000003 0 0 0
Al 6.49988499 2.04114271 1.08824392
Al 6.50014500 6.12073500 -3.210042150000003 0 0 0
Al 6.49988499 6.11959246 1.08824392
Ag 0.00000000 0.00000000 -3.210042150000003 0 0 0
Ag 0.00147337 8.16089839 1.09247114
Ag 0.00000000 4.08049000 -3.210042150000003 0 0 0
Ag 0.00164670 4.08032678 1.09960456
Ag 4.33343000 0.00000000 -3.210042150000003 0 0 0
Ag 4.33152329 8.16089839 1.09247114
Ag 4.33343000 4.08049000 -3.210042150000003 0 0 0
Ag 4.33134995 4.08040839 1.09960456
Sn 2.16671500 0.00000000 -1.070014050000001 0 0 0
Sn 2.16645499 8.16089839 3.21215576
Sn 2.16671500 4.08049000 -1.070014050000001 0 0 0
Sn 2.16645499 4.08040839 3.22985722
Sn 6.50014500 0.00000000 -1.070014050000001 0 0 0
Sn 6.49997166 8.16089839 3.21400517
Sn 6.50014500 4.08049000 -1.070014050000001 0 0 0
Sn 6.49988499 4.08040839 3.22378060
C 2.17815526 0.00465176 7.51202703
O 2.16515497 8.16057195 8.64703453
