&CONTROL
calculation = 'relax'
prefix = 'scf'
pseudo_dir = '/vol0004/mdt0/data/hp150275/u10028/POT_KKJUS'
outdir = './data'
tprnfor = .true.
nstep = 50
disk_io = 'non'
/
&SYSTEM
ibrav = 0
ecutwfc = 50.0
ecutrho = 400
occupations = 'smearing'
smearing = 'mp'
degauss = 0.01
assume_isolated = 'esm'
esm_bc = 'bc1'
input_dft = 'BEEF-VDW'
nosym = .true.
nspin = 1
ntyp = 4
nat = 34
/
&ELECTRONS
electron_maxstep = 200
mixing_beta = 0.1
conv_thr = 1e-06
/
&IONS
ion_dynamics = 'bfgs'
upscale = 1.0
/
&CELL
/

K_POINTS {automatic}
9 6 2 0  0  0

ATOMIC_SPECIES
Ag 107.8 Ag.pbe-n-rrkjus_psl.1.0.0.UPF
C 12.01 C.pbe-n-rrkjus_psl.1.0.0.UPF
Ga 69.72 Ga.pbe-dnl-rrkjus_psl.1.0.0.UPF
O 15.99 O.pbe-n-rrkjus_psl.1.0.0.UPF

CELL_PARAMETERS {angstrom}
6.70510000 0.00000000 0.00000000
0.00000000 9.48244000 0.00000000
0.00000000 0.00000000 27.11180000

ATOMIC_POSITIONS {angstrom}
Ga 1.67627500 2.37061000 -3.555983689999998 0 0 0
Ga 1.67627500 0.00000000 -1.1853278999999972 0 0 0
Ga 1.67721371 2.21936508 1.23385802
Ga 1.66320005 0.00000000 3.60288710
Ga 1.67627500 7.11183000 -3.555983689999998 0 0 0
Ga 1.67627500 4.74122000 -1.1853278999999972 0 0 0
Ga 1.67721371 7.26307492 1.23385802
Ga 1.69169673 4.74122000 3.96482963
Ga 5.02882500 2.37061000 -3.555983689999998 0 0 0
Ga 5.02882500 0.00000000 -1.1853278999999972 0 0 0
Ga 5.02822154 2.53000982 1.15523380
Ga 5.04686172 0.00000000 3.94883367
Ga 5.02882500 7.11183000 -3.555983689999998 0 0 0
Ga 5.02882500 4.74122000 -1.1853278999999972 0 0 0
Ga 5.02828859 6.95233536 1.15523380
Ga 5.01293391 4.74122000 3.66659983
Ag 0.00000000 0.00000000 -3.555983689999998 0 0 0
Ag 0.00000000 2.37061000 -1.1853278999999972 0 0 0
Ag 6.54290363 0.00000000 1.21894653
Ag 6.67278142 2.37933384 3.49932003
Ag 0.00000000 4.74122000 -3.555983689999998 0 0 0
Ag 0.00000000 7.11183000 -1.1853278999999972 0 0 0
Ag 0.17144941 4.74112518 1.28482820
Ag 6.67284847 7.10310616 3.49932003
Ag 3.35255000 0.00000000 -3.555983689999998 0 0 0
Ag 3.35255000 2.37061000 -1.1853278999999972 0 0 0
Ag 3.51883648 0.00000000 1.23575584
Ag 3.38701421 2.35591222 3.49986226
Ag 3.35255000 4.74122000 -3.555983689999998 0 0 0
Ag 3.35255000 7.11183000 -1.1853278999999972 0 0 0
Ag 3.18217341 4.74122000 1.27100118
Ag 3.38708126 7.12662261 3.49986226
C 1.94856911 0.00000000 7.32452389
O 1.44132830 0.00000000 8.34013192
