&CONTROL
calculation = 'relax'
prefix = 'scf'
pseudo_dir = '/vol0403/data/hp230205/u10028/POT_HYBRID_KKJUS_GBRV'
outdir = './data'
tprnfor = .true.
nstep = 50
disk_io = 'non'
/
&SYSTEM
ibrav = 0
ecutwfc = 50.0
ecutrho = 400
occupations = 'smearing'
smearing = 'mp'
degauss = 0.01
assume_isolated = 'esm'
esm_bc = 'bc1'
input_dft = 'BEEF-VDW'
nosym = .true.
nspin = 1
ntyp = 6
nat = 18
/
&ELECTRONS
electron_maxstep = 200
mixing_beta = 0.1
conv_thr = 1e-06
/
&IONS
ion_dynamics = 'bfgs'
upscale = 1.0
/
&CELL
/

K_POINTS {automatic}
6 6 1 0 0 0

ATOMIC_SPECIES
C 12.01 C.pbe-n-rrkjus_psl.1.0.0.UPF
In 114.8 In.pbe-dn-rrkjus_psl.1.0.0.UPF
Li 6.941 Li.pbe-sl-rrkjus_psl.1.0.0.UPF
O 15.99 O.pbe-n-rrkjus_psl.1.0.0.UPF
Sn 118.7 Sn.pbe-dn-rrkjus_psl.1.0.0.UPF
Y 88.90 Y.pbe-spn-rrkjus_psl.1.0.0.UPF


CELL_PARAMETERS {angstrom}
6.44949000 0.00000000 0.00000000
0.00000000 9.04200000 0.00000000
0.00000000 0.00000000 24.82990000

ATOMIC_POSITIONS {angstrom}
Li 1.52440146 2.26050000 -0.8049853599999999 0 0 0
Li 4.19120108 2.26050000 2.69876183
Li 1.52440146 6.78150000 -0.8049853599999999 0 0 0
Li 4.18829881 6.78150000 2.59100006
Y 3.22474500 0.00000000 -2.414956069999999 0 0 0
Y 6.06432646 9.03829278 0.90157367
Y 3.22474500 4.52100000 -2.414956069999999 0 0 0
Y 6.06439095 4.52470722 0.90182197
In 0.00000000 0.00000000 -2.414956069999999 0 0 0
In 2.82990722 0.00777612 1.12603597
In 0.00000000 4.52100000 -2.414956069999999 0 0 0
In 2.82997172 4.51313346 1.12603597
Sn 4.74914646 2.26050000 -0.8049853599999999 0 0 0
Sn 1.19650938 2.26050000 2.33028611
Sn 4.74914646 6.78150000 -0.8049853599999999 0 0 0
Sn 1.19779928 6.78150000 2.34866024
C 4.45775850 2.26050000 4.79515029
O 4.58732875 2.26050000 5.92590393
