&CONTROL
calculation = 'relax'
prefix = 'scf'
pseudo_dir = '/vol0004/mdt0/data/hp150275/u10028/POT_KKJUS'
outdir = './data'
tprnfor = .true.
nstep = 50
disk_io = 'non'
/
&SYSTEM
ibrav = 0
ecutwfc = 50.0
ecutrho = 400
occupations = 'smearing'
smearing = 'mp'
degauss = 0.01
assume_isolated = 'esm'
esm_bc = 'bc1'
input_dft = 'BEEF-VDW'
nosym = .true.
nspin = 1
ntyp = 3
nat = 33
/
&ELECTRONS
electron_maxstep = 200
mixing_beta = 0.1
conv_thr = 1e-06
/
&IONS
ion_dynamics = 'bfgs'
upscale = 1.0
/
&CELL
/

K_POINTS {automatic}
8 6 1 0 0 0

ATOMIC_SPECIES
Ag 107.8 Ag.pbe-n-rrkjus_psl.1.0.0.UPF
C 12.01 C.pbe-n-rrkjus_psl.1.0.0.UPF
Li 6.941 Li.pbe-sl-rrkjus_psl.1.0.0.UPF

CELL_PARAMETERS {angstrom}
6.44966000 0.00000000 0.00000000
0.00000000 9.12120000 0.00000000
0.00000000 0.00000000 26.84090000

ATOMIC_POSITIONS {angstrom}
Li 1.61241500 2.28030000 -3.4203358900000005 0 0 0
Li 1.61241500 0.00000000 -1.1402014300000012 0 0 0
Li 1.61241500 2.28030000 1.28353184
Li 1.61241500 0.17804582 3.76658350
Li 1.61241500 6.84090000 -3.4203358900000005 0 0 0
Li 1.61241500 4.56060000 -1.1402014300000012 0 0 0
Li 1.61241500 6.84090000 1.06209441
Li 1.61241500 4.38255418 3.76658350
Li 4.83724500 2.28030000 -3.4203358900000005 0 0 0
Li 4.83724500 0.00000000 -1.1402014300000012 0 0 0
Li 4.83724500 2.28030000 0.96251467
Li 4.83724500 9.05206130 3.53977789
Li 4.83724500 6.84090000 -3.4203358900000005 0 0 0
Li 4.83724500 4.56060000 -1.1402014300000012 0 0 0
Li 4.83724500 6.84090000 1.12597576
Li 4.83724500 4.62973870 3.53977789
Ag 0.00000000 0.00000000 -3.4203358900000005 0 0 0
Ag 0.00000000 2.28030000 -1.1402014300000012 0 0 0
Ag 0.00657865 0.00720575 1.18207324
Ag 6.17045422 2.28030000 3.22251845
Ag 0.00000000 4.56060000 -3.4203358900000005 0 0 0
Ag 0.00000000 6.84090000 -1.1402014300000012 0 0 0
Ag 0.00657865 4.55330304 1.18207324
Ag 0.08371659 6.84090000 3.27324776
Ag 3.22483000 0.00000000 -3.4203358900000005 0 0 0
Ag 3.22483000 2.28030000 -1.1402014300000012 0 0 0
Ag 3.21825135 0.00729696 1.18207324
Ag 3.50403578 2.28030000 3.22251845
Ag 3.22483000 4.56060000 -3.4203358900000005 0 0 0
Ag 3.22483000 6.84090000 -1.1402014300000012 0 0 0
Ag 3.21825135 4.55330304 1.18207324
Ag 3.14117791 6.84090000 3.27324776
C 1.61241500 2.28030000 3.94185457
