&CONTROL
calculation = 'relax'
prefix = 'scf'
pseudo_dir = '/vol0004/mdt0/data/hp150275/u10028/POT_KKJUS'
outdir = './data'
tprnfor = .true.
nstep = 50
disk_io = 'non'
/
&SYSTEM
ibrav = 0
ecutwfc = 50.0
ecutrho = 400
occupations = 'smearing'
smearing = 'mp'
degauss = 0.01
assume_isolated = 'esm'
esm_bc = 'bc1'
input_dft = 'BEEF-VDW'
nosym = .true.
nspin = 1
ntyp = 3
nat = 33
/
&ELECTRONS
electron_maxstep = 200
mixing_beta = 0.1
conv_thr = 1e-06
/
&IONS
ion_dynamics = 'bfgs'
upscale = 1.0
/
&CELL
/

K_POINTS {automatic}
8 6 1 0 0 0

ATOMIC_SPECIES
Al 26.98 Al.pbe-nl-rrkjus_psl.1.0.0.UPF
C 12.01 C.pbe-n-rrkjus_psl.1.0.0.UPF
Ti 47.86 Ti.pbe-spn-rrkjus_psl.1.0.0.UPF

CELL_PARAMETERS {angstrom}
6.37073000 0.00000000 0.00000000
0.00000000 9.00957000 0.00000000
0.00000000 0.00000000 26.75720000

ATOMIC_POSITIONS {angstrom}
Ti 0.00000000 0.00000000 -3.378631640000002 0 0 0
Ti 0.00000000 2.25239250 -1.1262105499999997 0 0 0
Ti 0.00535141 9.00920962 1.25170182
Ti 6.18961015 2.25239250 3.34518514
Ti 0.00000000 4.50478500 -3.378631640000002 0 0 0
Ti 0.00000000 6.75717750 -1.1262105499999997 0 0 0
Ti 0.00535141 4.50523548 1.25170182
Ti 0.08167276 6.75717750 3.29488161
Ti 3.18536500 0.00000000 -3.378631640000002 0 0 0
Ti 3.18536500 2.25239250 -1.1262105499999997 0 0 0
Ti 3.18001359 9.00911952 1.25170182
Ti 3.36648485 2.25239250 3.34518514
Ti 3.18536500 4.50478500 -3.378631640000002 0 0 0
Ti 3.18536500 6.75717750 -1.1262105499999997 0 0 0
Ti 3.18001359 4.50514538 1.25170182
Ti 3.10369224 6.75717750 3.29488161
Al 1.59268250 2.25239250 -3.378631640000002 0 0 0
Al 1.59268250 0.00000000 -1.1262105499999997 0 0 0
Al 1.59268250 2.25239250 1.18534396
Al 1.59268250 0.17217288 3.73182668
Al 1.59268250 6.75717750 -3.378631640000002 0 0 0
Al 1.59268250 4.50478500 -1.1262105499999997 0 0 0
Al 1.59268250 6.75717750 1.05102282
Al 1.59268250 4.33261212 3.73182668
Al 4.77804750 2.25239250 -3.378631640000002 0 0 0
Al 4.77804750 0.00000000 -1.1262105499999997 0 0 0
Al 4.77804750 2.25239250 1.01623846
Al 4.77804750 8.92668196 3.72192652
Al 4.77804750 6.75717750 -3.378631640000002 0 0 0
Al 4.77804750 4.50478500 -1.1262105499999997 0 0 0
Al 4.77804750 6.75717750 1.12406997
Al 4.77804750 4.58767304 3.72192652
C 1.59268250 2.25239250 4.23486204
