&CONTROL
calculation = 'relax'
prefix = 'scf'
pseudo_dir = '/vol0004/mdt0/data/hp150275/u10028/POT_KKJUS'
outdir = './data'
tprnfor = .true.
nstep = 50
disk_io = 'non'
/
&SYSTEM
ibrav = 0
ecutwfc = 50.0
ecutrho = 400
occupations = 'smearing'
smearing = 'mp'
degauss = 0.01
assume_isolated = 'esm'
esm_bc = 'bc1'
input_dft = 'BEEF-VDW'
nosym = .true.
nspin = 1
ntyp = 2
nat = 16
/
&ELECTRONS
electron_maxstep = 200
mixing_beta = 0.1
conv_thr = 1e-06
/
&IONS
ion_dynamics = 'bfgs'
upscale = 1.0
/
&CELL
/

K_POINTS {automatic}
8 11 2 0  0  0

ATOMIC_SPECIES
Ir 192.2 Ir.pbe-n-rrkjus_psl.0.2.3.UPF
Zr 91.22 Zr.pbe-spn-rrkjus_psl.1.0.0.UPF

CELL_PARAMETERS {angstrom}
7.98758000 0.00000000 0.00000000
0.00000000 5.64807000 0.00000000
0.00000000 0.00000000 24.23610000

ATOMIC_POSITIONS {angstrom}
Zr 0.00000000 0.00000000 1.93888800
Zr 0.00000000 2.82403500 -0.7059975899999991 0 0 0
Zr 3.99379000 0.00000000 1.93888800
Zr 3.99379000 2.82403500 -0.7059975899999991 0 0 0
Ir 0.00000000 2.82403500 1.96094285
Ir 1.99689500 4.22938778 0.71399551
Ir 1.99689500 1.41868222 0.71399551
Ir 0.00000000 0.00000000 -0.7059975899999991 0 0 0
Ir 1.99689500 1.41201750 -2.1179927800000016 0 0 0
Ir 1.99689500 4.23605250 -2.1179927800000016 0 0 0
Ir 3.99379000 2.82403500 1.96094285
Ir 5.99068500 4.22938778 0.71399551
Ir 5.99068500 1.41868222 0.71399551
Ir 3.99379000 0.00000000 -0.7059975899999991 0 0 0
Ir 5.99068500 1.41201750 -2.1179927800000016 0 0 0
Ir 5.99068500 4.23605250 -2.1179927800000016 0 0 0
