&CONTROL
calculation = 'relax'
prefix = 'scf'
pseudo_dir = '/vol0004/mdt0/data/hp150275/u10028/POT_HYBRID_KKJUS_GBRV'
outdir = './data'
tprnfor = .true.
nstep = 50
disk_io = 'non'
/
&SYSTEM
ibrav = 0
ecutwfc = 50.0
ecutrho = 400
occupations = 'smearing'
smearing = 'mp'
degauss = 0.01
assume_isolated = 'esm'
esm_bc = 'bc1'
input_dft = 'BEEF-VDW'
nosym = .true.
nspin = 2
ntyp = 5
nat = 34
starting_magnetization(1) = 0.0
starting_magnetization(2) = 0.1
starting_magnetization(3) = 0.0
starting_magnetization(4) = 0.1
starting_magnetization(5) = 0.0
/
&ELECTRONS
electron_maxstep = 200
mixing_beta = 0.1
conv_thr = 1e-06
/
&IONS
ion_dynamics = 'bfgs'
upscale = 1.0
/
&CELL
/

K_POINTS {automatic}
9 6 2 0  0  0

ATOMIC_SPECIES
C 12.01 C.pbe-n-rrkjus_psl.1.0.0.UPF
Co 58.93 co_pbe_v1.2.uspp.F.UPF
Ga 69.72 Ga.pbe-dnl-rrkjus_psl.1.0.0.UPF
Mn 54.93 mn_pbe_v1.5.uspp.F.UPF
O 15.99 O.pbe-n-rrkjus_psl.1.0.0.UPF

CELL_PARAMETERS {angstrom}
5.73361000 0.00000000 0.00000000
0.00000000 8.10855000 0.00000000
0.00000000 0.00000000 26.08140000

ATOMIC_POSITIONS {angstrom}
Mn 0.00000000 0.00000000 23.04056957
Mn 2.86680500 2.02713750 25.06787680
Mn 2.86680500 6.08141250 25.06787680
Mn 0.00000000 4.05427500 23.04056957
Mn 5.73177524 4.05427500 0.99683111
Mn 2.88136837 6.02967995 3.08177822
Mn 2.88136837 2.07887005 3.08151741
Mn 5.73246328 0.00000000 1.03490995
Ga 0.00000000 6.08141250 25.06787680
Ga 2.86680500 0.00000000 23.04056957
Ga 0.00000000 2.02713750 25.06787680
Ga 2.86680500 4.05427500 23.04056957
Ga 0.00670832 1.98781103 3.14306951
Ga 2.87293996 4.05435609 1.02004355
Ga 0.00676566 6.12073897 3.14333033
Ga 2.85986733 8.10846891 1.01482727
Co 1.43340250 0.00000000 25.06787680
Co 4.30020750 4.05427500 25.06787680
Co 4.30020750 0.00000000 25.06787680
Co 1.43340250 4.05427500 25.06787680
Co 4.30020750 6.08141250 23.04056957
Co 1.43340250 2.02713750 23.04056957
Co 1.43340250 6.08141250 23.04056957
Co 4.30020750 2.02713750 23.04056957
Co 1.34814372 4.05427500 2.98945007
Co 4.33157035 0.00000000 3.01605310
Co 4.40771269 4.05427500 2.99231902
Co 1.46241457 0.00000000 3.09925276
Co 4.30748918 2.02113717 1.03334507
Co 1.42164860 6.08279095 1.03908298
Co 1.42164860 2.02575905 1.03908298
Co 4.30754652 6.08741283 1.03334507
C 2.08703404 0.00016217 4.72803619
O 2.42480101 0.00040543 5.84744988
