&CONTROL
calculation = 'relax'
prefix = 'scf'
pseudo_dir = '/vol0004/mdt0/data/hp150275/u10028/POT_HYBRID_KKJUS_GBRV'
outdir = './data'
tprnfor = .true.
nstep = 50
disk_io = 'non'
/
&SYSTEM
ibrav = 0
ecutwfc = 50.0
ecutrho = 400
occupations = 'smearing'
smearing = 'mp'
degauss = 0.01
assume_isolated = 'esm'
esm_bc = 'bc1'
input_dft = 'BEEF-VDW'
nosym = .true.
nspin = 2
ntyp = 4
nat = 33
starting_magnetization(1) = 0.0
starting_magnetization(2) = 0.1
starting_magnetization(3) = 0.1
starting_magnetization(4) = 0.0
/
&ELECTRONS
electron_maxstep = 300
mixing_beta = 0.1
conv_thr = 1e-06
/
&IONS
ion_dynamics = 'bfgs'
upscale = 1.0
/
&CELL
/

K_POINTS {automatic}
8 6 1 0 0 0

ATOMIC_SPECIES
C 12.01 C.pbe-n-rrkjus_psl.1.0.0.UPF
Co 58.93 co_pbe_v1.2.uspp.F.UPF
Fe 55.84 fe_pbe_v1.5.uspp.F.UPF
Ga 69.72 Ga.pbe-dnl-rrkjus_psl.1.0.0.UPF

CELL_PARAMETERS {angstrom}
5.79866000 0.00000000 0.00000000
0.00000000 8.20054000 0.00000000
0.00000000 0.00000000 26.15040000

ATOMIC_POSITIONS {angstrom}
Ga 0.00000000 0.00000000 -3.0752870400000027 0 0 0
Ga 2.89933000 2.05013500 -1.0250956799999997 0 0 0
Ga 2.89933000 6.15040500 -1.0250956799999997 0 0 0
Ga 0.00000000 4.10027000 -3.0752870400000027 0 0 0
Ga 0.00000000 4.09961396 1.03398682
Ga 2.89933000 6.16680608 3.62209190
Ga 2.89933000 2.03365191 3.62183040
Ga 0.00000000 0.00090206 0.95344358
Fe 1.44966500 0.00000000 -1.0250956799999997 0 0 0
Fe 4.34899500 4.10027000 -1.0250956799999997 0 0 0
Fe 4.34899500 0.00000000 -1.0250956799999997 0 0 0
Fe 1.44966500 4.10027000 -1.0250956799999997 0 0 0
Fe 4.34899500 6.15040500 -3.0752870400000027 0 0 0
Fe 1.44966500 2.05013500 -3.0752870400000027 0 0 0
Fe 1.44966500 6.15040500 -3.0752870400000027 0 0 0
Fe 4.34899500 2.05013500 -3.0752870400000027 0 0 0
Fe 1.55607041 4.09994198 3.02769331
Fe 4.48421975 0.00032802 3.04939814
Fe 4.24264758 4.09994198 3.02769331
Fe 1.31444025 0.00024602 3.04939814
Fe 4.25215738 2.05677744 1.14852557
Fe 1.54632866 6.14384457 1.14878707
Fe 1.54650262 2.05677744 1.14852557
Fe 4.25233134 6.14384457 1.14878707
Co 0.00000000 6.15040500 -1.0250956799999997 0 0 0
Co 2.89933000 0.00000000 -3.0752870400000027 0 0 0
Co 0.00000000 2.05013500 -1.0250956799999997 0 0 0
Co 2.89933000 4.10027000 -3.0752870400000027 0 0 0
Co 0.00000000 2.11869151 2.94244301
Co 2.89933000 4.09953195 0.90349632
Co 0.00000000 6.08193049 2.94270451
Co 2.89933000 0.00073805 0.92807770
C 2.89933000 0.00000000 4.01800896
