&CONTROL
calculation = 'relax'
prefix = 'scf'
pseudo_dir = '/vol0403/data/hp230205/u10028/POT_HYBRID_KKJUS_GBRV'
outdir = './data'
tprnfor = .true.
nstep = 50
disk_io = 'non'
/
&SYSTEM
ibrav = 0
ecutwfc = 50.0
ecutrho = 400
occupations = 'smearing'
smearing = 'mp'
degauss = 0.01
assume_isolated = 'esm'
esm_bc = 'bc1'
input_dft = 'BEEF-VDW'
nosym = .true.
nspin = 1
ntyp = 5
nat = 17
/
&ELECTRONS
electron_maxstep = 200
mixing_beta = 0.1
conv_thr = 1e-06
/
&IONS
ion_dynamics = 'bfgs'
upscale = 1.0
/
&CELL
/

K_POINTS {automatic}
6 6 1 0 0 0

ATOMIC_SPECIES
C 12.01 C.pbe-n-rrkjus_psl.1.0.0.UPF
In 114.8 In.pbe-dn-rrkjus_psl.1.0.0.UPF
Pd 106.4 Pd.pbe-n-rrkjus_psl.1.0.0.UPF
Sc 44.95 Sc.pbe-spn-rrkjus_psl.1.0.0.UPF
Y 88.90 Y.pbe-spn-rrkjus_psl.1.0.0.UPF


CELL_PARAMETERS {angstrom}
6.25545000 0.00000000 0.00000000
0.00000000 9.64246000 0.00000000
0.00000000 0.00000000 24.46440000

ATOMIC_POSITIONS {angstrom}
Y 2.87769466 0.27760642 2.35249670
Y 5.29398733 0.00000000 -0.7439624000000009 0 0 0
Y 2.86555909 4.54757699 2.35445386
Y 5.29398733 4.82123000 -0.7439624000000009 0 0 0
Sc 0.70605264 2.40781869 0.80683591
Sc 3.24939350 2.41061500 -2.2321318600000026 0 0 0
Sc 1.16007320 7.23165215 0.35081950
Sc 3.24939350 7.23184500 -2.2321318600000026 0 0 0
In 5.91383988 8.80385525 2.42099702
In 2.16626234 0.00000000 -0.7439624000000009 0 0 0
In 5.89763826 5.67487698 2.42099702
In 2.16626234 4.82123000 -0.7439624000000009 0 0 0
Pd 3.76553068 2.41177210 0.32244079
Pd 0.12166850 2.41061500 -2.2321318600000026 0 0 0
Pd 4.01111965 7.23541271 0.44892174
Pd 0.12166850 7.23184500 -2.2321318600000026 0 0 0
C 2.30425756 2.41138640 2.12326528
