&CONTROL
calculation = 'relax'
prefix = 'scf'
pseudo_dir = '/vol0403/data/hp230205/u10028/POT_HYBRID_KKJUS_GBRV'
outdir = './data'
tprnfor = .true.
nstep = 50
disk_io = 'non'
/
&SYSTEM
ibrav = 0
ecutwfc = 50.0
ecutrho = 400
occupations = 'smearing'
smearing = 'mp'
degauss = 0.01
assume_isolated = 'esm'
esm_bc = 'bc1'
input_dft = 'BEEF-VDW'
nosym = .true.
nspin = 1
ntyp = 6
nat = 34
/
&ELECTRONS
electron_maxstep = 200
mixing_beta = 0.1
conv_thr = 1e-06
/
&IONS
ion_dynamics = 'bfgs'
upscale = 1.0
/
&CELL
/

K_POINTS {automatic}
9 6 2 0  0  0

ATOMIC_SPECIES
C 12.01 C.pbe-n-rrkjus_psl.1.0.0.UPF
Li 6.941 Li.pbe-sl-rrkjus_psl.1.0.0.UPF
Mg 24.30 Mg.pbe-spnl-rrkjus_psl.1.0.0.UPF
O 15.99 O.pbe-n-rrkjus_psl.1.0.0.UPF
Pd 106.4 Pd.pbe-n-rrkjus_psl.1.0.0.UPF
Sb 121.7 Sb.pbe-n-rrkjus_psl.1.0.0.UPF


CELL_PARAMETERS {angstrom}
6.57147000 0.00000000 0.00000000
0.00000000 9.29346000 0.00000000
0.00000000 0.00000000 26.97010000

ATOMIC_POSITIONS {angstrom}
Li 0.00000000 0.00000000 -3.4850763199999975 0 0 0
Li 0.00000000 4.64673000 -3.4850763199999975 0 0 0
Li 3.28573500 6.97009500 -1.161602209999998 0 0 0
Li 3.28573500 2.32336500 -1.161602209999998 0 0 0
Li 6.51318106 4.64245501 1.20879988
Li 6.51272106 0.00427499 1.20853018
Li 3.71590343 2.32327207 4.51506444
Li 3.97902508 6.97018793 4.62887826
Mg 1.64286750 0.00000000 -1.161602209999998 0 0 0
Mg 1.64286750 4.64673000 -1.161602209999998 0 0 0
Mg 4.92860250 2.32336500 -3.4850763199999975 0 0 0
Mg 4.92860250 6.97009500 -3.4850763199999975 0 0 0
Mg 1.64707324 4.68604134 3.45621831
Mg 1.64621895 9.25442747 3.45567891
Mg 4.75991287 6.97000207 1.32558041
Mg 4.78869590 2.32336500 1.29861031
Sb 4.92860250 0.00000000 -1.161602209999998 0 0 0
Sb 4.92860250 4.64673000 -1.161602209999998 0 0 0
Sb 1.64286750 2.32336500 -3.4850763199999975 0 0 0
Sb 1.64286750 6.97009500 -3.4850763199999975 0 0 0
Sb 4.87990791 4.64552185 3.57084124
Sb 4.87990791 0.00120815 3.57084124
Sb 1.65758759 6.97000207 1.22902746
Sb 1.64681038 2.32345793 1.24790653
Pd 0.00000000 2.32336500 -1.161602209999998 0 0 0
Pd 0.00000000 6.97009500 -1.161602209999998 0 0 0
Pd 3.28573500 4.64673000 -3.4850763199999975 0 0 0
Pd 3.28573500 0.00000000 -3.4850763199999975 0 0 0
Pd 6.50082670 6.97000207 3.35454104
Pd 6.51791252 2.32345793 3.35885625
Pd 3.27167205 0.00018587 1.03996706
Pd 3.27173777 4.64645120 1.03996706
C 3.24302044 2.32345793 6.57531038
O 2.97372160 2.32355087 7.68243298
