&CONTROL
calculation = 'relax'
prefix = 'scf'
pseudo_dir = '/vol0004/mdt0/data/hp150275/u10028/POT_HYBRID_KKJUS_GBRV'
outdir = './data'
tprnfor = .true.
nstep = 50
disk_io = 'non'
/
&SYSTEM
ibrav = 0
ecutwfc = 50.0
ecutrho = 400
occupations = 'smearing'
smearing = 'mp'
degauss = 0.01
assume_isolated = 'esm'
esm_bc = 'bc1'
input_dft = 'BEEF-VDW'
nosym = .true.
nspin = 2
ntyp = 2
nat = 32
starting_magnetization(1) = 0.1
starting_magnetization(2) = 0.1
/
&ELECTRONS
electron_maxstep = 200
mixing_beta = 0.1
conv_thr = 1e-06
/
&IONS
ion_dynamics = 'bfgs'
upscale = 1.0
/
&CELL
/

K_POINTS {automatic}
9 6 2 0  0  0

ATOMIC_SPECIES
Co 58.93 co_pbe_v1.2.uspp.F.UPF
Si 28.08 Si.pbe-nl-rrkjus_psl.1.0.0.UPF

CELL_PARAMETERS {angstrom}
5.56276000 0.00000000 0.00000000
0.00000000 7.86693000 0.00000000
0.00000000 0.00000000 25.90020000

ATOMIC_POSITIONS {angstrom}
Co 0.00000000 0.00000000 -2.950032780000001 0 0 0
Co 0.00000000 1.96673250 -0.9834305900000011 0 0 0
Co 0.00000000 0.00000000 0.93344321
Co 0.00000000 1.96673250 2.84306495
Co 0.00000000 3.93346500 -2.950032780000001 0 0 0
Co 0.00000000 5.90019750 -0.9834305900000011 0 0 0
Co 0.00000000 3.93346500 0.93344321
Co 0.00000000 5.90019750 2.84306495
Co 2.78138000 0.00000000 -2.950032780000001 0 0 0
Co 2.78138000 1.96673250 -0.9834305900000011 0 0 0
Co 2.78138000 0.00000000 0.93344321
Co 2.78138000 1.96673250 2.84306495
Co 2.78138000 3.93346500 -2.950032780000001 0 0 0
Co 2.78138000 5.90019750 -0.9834305900000011 0 0 0
Co 2.78138000 3.93346500 0.93344321
Co 2.78138000 5.90019750 2.84306495
Si 1.39069000 1.96673250 -2.950032780000001 0 0 0
Si 1.39069000 0.00000000 -0.9834305900000011 0 0 0
Si 1.39069000 1.96673250 1.01088481
Si 1.39069000 3.93346500 3.05984963
Si 1.39069000 5.90019750 -2.950032780000001 0 0 0
Si 1.39069000 3.93346500 -0.9834305900000011 0 0 0
Si 1.39069000 5.90019750 1.01088481
Si 1.39069000 0.00000000 3.05984963
Si 4.17207000 1.96673250 -2.950032780000001 0 0 0
Si 4.17207000 0.00000000 -0.9834305900000011 0 0 0
Si 4.17207000 1.96673250 1.01088481
Si 4.17207000 3.93346500 3.05984963
Si 4.17207000 5.90019750 -2.950032780000001 0 0 0
Si 4.17207000 3.93346500 -0.9834305900000011 0 0 0
Si 4.17207000 5.90019750 1.01088481
Si 4.17207000 0.00000000 3.05984963
