&CONTROL
calculation = 'relax'
prefix = 'scf'
pseudo_dir = '/vol0004/mdt0/data/hp150275/u10028/POT_KKJUS'
outdir = './data'
tprnfor = .true.
nstep = 50
disk_io = 'non'
/
&SYSTEM
ibrav = 0
ecutwfc = 50.0
ecutrho = 400
occupations = 'smearing'
smearing = 'mp'
degauss = 0.01
assume_isolated = 'esm'
esm_bc = 'bc1'
input_dft = 'BEEF-VDW'
nosym = .true.
nspin = 1
ntyp = 5
nat = 34
/
&ELECTRONS
electron_maxstep = 200
mixing_beta = 0.1
conv_thr = 1e-06
/
&IONS
ion_dynamics = 'bfgs'
upscale = 1.0
/
&CELL
/

K_POINTS {automatic}
8 6 1 0 0 0

ATOMIC_SPECIES
C 12.01 C.pbe-n-rrkjus_psl.1.0.0.UPF
Ni 58.69 Ni.pbe-spn-rrkjus_psl.1.0.0.UPF
O 15.99 O.pbe-n-rrkjus_psl.1.0.0.UPF
Sn 118.7 Sn.pbe-dn-rrkjus_psl.1.0.0.UPF
Zr 91.22 Zr.pbe-spn-rrkjus_psl.1.0.0.UPF

CELL_PARAMETERS {angstrom}
6.34847000 0.00000000 0.00000000
0.00000000 8.97809000 0.00000000
0.00000000 0.00000000 26.73360000

ATOMIC_POSITIONS {angstrom}
Zr 0.00000000 0.00000000 -3.3668295799999974 0 0 0
Zr 3.17423500 2.24452250 -1.1222765300000006 0 0 0
Zr 3.17423500 6.73356750 -1.1222765300000006 0 0 0
Zr 0.00000000 4.48904500 -3.3668295799999974 0 0 0
Zr 0.00000000 4.46812605 1.12361321
Zr 3.17417152 6.73392662 3.38687978
Zr 3.17423500 2.24515097 3.40666265
Zr 0.00000000 0.02136785 1.12414788
Ni 1.58711750 0.00000000 -1.1222765300000006 0 0 0
Ni 4.76135250 4.48904500 -1.1222765300000006 0 0 0
Ni 4.76135250 0.00000000 -1.1222765300000006 0 0 0
Ni 1.58711750 4.48904500 -1.1222765300000006 0 0 0
Ni 4.76135250 6.73356750 -3.3668295799999974 0 0 0
Ni 1.58711750 2.24452250 -3.3668295799999974 0 0 0
Ni 1.58711750 6.73356750 -3.3668295799999974 0 0 0
Ni 4.76135250 2.24452250 -3.3668295799999974 0 0 0
Ni 1.64425373 4.49012237 3.21578474
Ni 4.70275612 8.97800022 3.21631942
Ni 4.70415279 4.49021215 3.21578474
Ni 1.64552342 8.97800022 3.21605208
Ni 4.67926678 2.24470206 1.21477478
Ni 1.54299563 6.73374706 1.23535966
Ni 1.66920322 2.24470206 1.21477478
Ni 4.80547437 6.73374706 1.23535966
Sn 0.00000000 6.73356750 -1.1222765300000006 0 0 0
Sn 3.17423500 0.00000000 -3.3668295799999974 0 0 0
Sn 0.00000000 2.24452250 -1.1222765300000006 0 0 0
Sn 3.17423500 4.48904500 -3.3668295799999974 0 0 0
Sn 6.34840652 2.24479184 3.49755689
Sn 3.17423500 4.51705664 1.07923543
Sn 6.34840652 6.73428575 3.57134162
Sn 3.17423500 8.95043748 1.07870076
C 0.00069833 2.24604878 7.61399662
O 6.34827955 2.24380425 8.74883794
