&CONTROL
calculation = 'relax'
prefix = 'scf'
pseudo_dir = '/vol0004/mdt0/data/hp150275/u10028/POT_HYBRID_KKJUS_GBRV'
outdir = './data'
tprnfor = .true.
nstep = 50
disk_io = 'non'
/
&SYSTEM
ibrav = 0
ecutwfc = 50.0
ecutrho = 400
occupations = 'smearing'
smearing = 'mp'
degauss = 0.01
assume_isolated = 'esm'
esm_bc = 'bc1'
input_dft = 'BEEF-VDW'
nosym = .true.
nspin = 2
ntyp = 5
nat = 34
starting_magnetization(1) = 0.0
starting_magnetization(2) = 0.1
starting_magnetization(3) = 0.0
starting_magnetization(4) = 0.0
starting_magnetization(5) = 0.0
/
&ELECTRONS
electron_maxstep = 300
mixing_beta = 0.1
conv_thr = 1e-06
/
&IONS
ion_dynamics = 'bfgs'
upscale = 1.0
/
&CELL
/

K_POINTS {automatic}
8 6 1 0 0 0

ATOMIC_SPECIES
C 12.01 C.pbe-n-rrkjus_psl.1.0.0.UPF
Co 58.93 co_pbe_v1.2.uspp.F.UPF
Ga 69.72 Ga.pbe-dnl-rrkjus_psl.1.0.0.UPF
O 15.99 O.pbe-n-rrkjus_psl.1.0.0.UPF
V 50.94 V.pbe-spnl-rrkjus_psl.1.0.0.UPF

CELL_PARAMETERS {angstrom}
5.77968000 0.00000000 0.00000000
0.00000000 8.17370000 0.00000000
0.00000000 0.00000000 26.13030000

ATOMIC_POSITIONS {angstrom}
V 0.00000000 0.00000000 -3.0650841899999968 0 0 0
V 2.88984000 2.04342500 -1.0216947299999966 0 0 0
V 2.88984000 6.13027500 -1.0216947299999966 0 0 0
V 0.00000000 4.08685000 -3.0650841899999968 0 0 0
V 0.00005780 4.08088320 1.13771326
V 2.88984000 6.13019326 3.05306425
V 2.88984000 2.04350674 2.97388944
V 0.00000000 0.00596680 1.13745196
Ga 0.00000000 6.13027500 -1.0216947299999966 0 0 0
Ga 2.88984000 0.00000000 -3.0650841899999968 0 0 0
Ga 0.00000000 2.04342500 -1.0216947299999966 0 0 0
Ga 2.88984000 4.08685000 -3.0650841899999968 0 0 0
Ga 5.77962220 2.04309805 3.16255021
Ga 2.88989780 4.07957541 1.04860894
Ga 5.77962220 6.13060195 3.18476096
Ga 2.88989780 0.00727459 1.04887024
Co 1.44492000 0.00000000 -1.0216947299999966 0 0 0
Co 4.33476000 4.08685000 -1.0216947299999966 0 0 0
Co 4.33476000 0.00000000 -1.0216947299999966 0 0 0
Co 1.44492000 4.08685000 -1.0216947299999966 0 0 0
Co 4.33476000 6.13027500 -3.0650841899999968 0 0 0
Co 1.44492000 2.04342500 -3.0650841899999968 0 0 0
Co 1.44492000 6.13027500 -3.0650841899999968 0 0 0
Co 4.33476000 2.04342500 -3.0650841899999968 0 0 0
Co 1.46532227 4.09355243 2.95167869
Co 4.31424214 8.16699757 2.95167869
Co 4.31429993 4.09355243 2.95167869
Co 1.46543786 8.16699757 2.95167869
Co 4.34735970 2.04326153 0.97204716
Co 1.46826991 6.13043847 1.02326255
Co 1.43232030 2.04326153 0.97204716
Co 4.31141009 6.13043847 1.02326255
C 2.88984000 2.04342500 5.02093714
O 2.88984000 2.04342500 6.20176540
