&CONTROL
calculation = 'relax'
prefix = 'scf'
pseudo_dir = '/vol0004/mdt0/data/hp150275/u10028/POT_KKJUS'
outdir = './data'
tprnfor = .true.
nstep = 50
disk_io = 'non'
/
&SYSTEM
ibrav = 0
ecutwfc = 50.0
ecutrho = 400
occupations = 'smearing'
smearing = 'mp'
degauss = 0.01
assume_isolated = 'esm'
esm_bc = 'bc1'
input_dft = 'BEEF-VDW'
nosym = .true.
nspin = 1
ntyp = 4
nat = 33
/
&ELECTRONS
electron_maxstep = 200
mixing_beta = 0.1
conv_thr = 1e-06
/
&IONS
ion_dynamics = 'bfgs'
upscale = 1.0
/
&CELL
/

K_POINTS {automatic}
8 6 1 0 0 0

ATOMIC_SPECIES
Ag 107.8 Ag.pbe-n-rrkjus_psl.1.0.0.UPF
Al 26.98 Al.pbe-nl-rrkjus_psl.1.0.0.UPF
C 12.01 C.pbe-n-rrkjus_psl.1.0.0.UPF
Sc 44.95 Sc.pbe-spn-rrkjus_psl.1.0.0.UPF

CELL_PARAMETERS {angstrom}
6.65011000 0.00000000 0.00000000
0.00000000 9.40467000 0.00000000
0.00000000 0.00000000 27.05350000

ATOMIC_POSITIONS {angstrom}
Sc 0.00000000 0.00000000 -3.5266942599999993 0 0 0
Sc 3.32505500 2.35116750 -1.1754745699999987 0 0 0
Sc 3.32505500 7.05350250 -1.1754745699999987 0 0 0
Sc 0.00000000 4.70233500 -3.5266942599999993 0 0 0
Sc 0.00000000 4.70233500 1.86885578
Sc 3.32512150 6.85101995 3.38790981
Sc 3.32505500 2.55365005 3.38790981
Sc 0.00000000 0.00000000 1.27476092
Al 0.00000000 7.05350250 -1.1754745699999987 0 0 0
Al 3.32505500 0.00000000 -3.5266942599999993 0 0 0
Al 0.00000000 2.35116750 -1.1754745699999987 0 0 0
Al 3.32505500 4.70233500 -3.5266942599999993 0 0 0
Al 0.00000000 2.03310156 3.44228734
Al 3.32505500 4.70233500 1.14138717
Al 0.00000000 7.37156844 3.44228734
Al 3.32505500 0.00000000 1.10729976
Ag 1.66252750 0.00000000 -1.1754745699999987 0 0 0
Ag 4.98758250 4.70233500 -1.1754745699999987 0 0 0
Ag 4.98758250 0.00000000 -1.1754745699999987 0 0 0
Ag 1.66252750 4.70233500 -1.1754745699999987 0 0 0
Ag 4.98758250 7.05350250 -3.5266942599999993 0 0 0
Ag 1.66252750 2.35116750 -3.5266942599999993 0 0 0
Ag 1.66252750 7.05350250 -3.5266942599999993 0 0 0
Ag 4.98758250 2.35116750 -3.5266942599999993 0 0 0
Ag 1.52048115 4.70242905 4.33424123
Ag 4.64689736 0.00000000 4.22169867
Ag 5.12962885 4.70233500 4.33424123
Ag 2.00321264 0.00000000 4.22169867
Ag 5.03692632 2.40101225 1.10459440
Ag 1.61325018 7.00365775 1.10459440
Ag 1.61318368 2.40101225 1.10459440
Ag 5.03692632 7.00365775 1.10459440
C 0.00000000 0.00000000 3.43579450
