&CONTROL
calculation = 'relax'
prefix = 'scf'
pseudo_dir = '/vol0004/mdt0/data/hp150275/u10028/POT_KKJUS'
outdir = './data'
tprnfor = .true.
nstep = 50
disk_io = 'non'
/
&SYSTEM
ibrav = 0
ecutwfc = 50.0
ecutrho = 400
occupations = 'smearing'
smearing = 'mp'
degauss = 0.01
assume_isolated = 'esm'
esm_bc = 'bc1'
input_dft = 'BEEF-VDW'
nosym = .true.
nspin = 1
ntyp = 5
nat = 18
/
&ELECTRONS
electron_maxstep = 200
mixing_beta = 0.1
conv_thr = 1e-06
/
&IONS
ion_dynamics = 'bfgs'
upscale = 1.0
/
&CELL
/

K_POINTS {automatic}
8 8 1 0 0 0

ATOMIC_SPECIES
Au 196.9 Au.pbe-n-rrkjus_psl.1.0.0.UPF
C 12.01 C.pbe-n-rrkjus_psl.1.0.0.UPF
Ge 72.64 Ge.pbe-dn-rrkjus_psl.1.0.0.UPF
Li 6.941 Li.pbe-sl-rrkjus_psl.1.0.0.UPF
O 15.99 O.pbe-n-rrkjus_psl.1.0.0.UPF

CELL_PARAMETERS {angstrom}
6.30953000 0.00000000 0.00000000
0.00000000 6.30953000 0.00000000
0.00000000 0.00000000 24.73210000

ATOMIC_POSITIONS {angstrom}
Li 0.00000000 0.00000000 -0.7887066699999998 0 0 0
Li 3.15476500 0.00000000 2.59612854
Li 0.00000000 3.15476500 2.64089364
Li 3.15476500 3.15476500 -0.7887066699999998 0 0 0
Li 1.57738250 1.57738250 -2.3661200099999995 0 0 0
Li 1.57277654 4.72634273 0.88021544
Li 4.73214750 4.73214750 -2.3661200099999995 0 0 0
Li 4.73669036 1.58318727 0.88021544
Ge 6.30946690 0.00012619 2.40569137
Ge 3.15476500 3.15476500 2.40791726
Ge 3.15476500 0.00000000 -0.7887066699999998 0 0 0
Ge 0.00000000 3.15476500 -0.7887066699999998 0 0 0
Au 1.57498488 1.57971703 0.85127888
Au 1.57738250 4.73214750 -2.3661200099999995 0 0 0
Au 4.73460822 4.72981297 0.85103156
Au 4.73214750 1.57738250 -2.3661200099999995 0 0 0
C 0.00000000 3.15476500 4.76439174
O 0.00000000 3.15476500 5.90256299
