&CONTROL
calculation = 'relax'
prefix = 'scf'
pseudo_dir = '/vol0004/mdt0/data/hp150275/u10028/POT_KKJUS'
outdir = './data'
tprnfor = .true.
nstep = 50
disk_io = 'non'
/
&SYSTEM
ibrav = 0
ecutwfc = 50.0
ecutrho = 400
occupations = 'smearing'
smearing = 'mp'
degauss = 0.01
assume_isolated = 'esm'
esm_bc = 'bc1'
input_dft = 'BEEF-VDW'
nosym = .true.
nspin = 1
ntyp = 4
nat = 33
/
&ELECTRONS
electron_maxstep = 200
mixing_beta = 0.1
conv_thr = 1e-06
/
&IONS
ion_dynamics = 'bfgs'
upscale = 1.0
/
&CELL
/

K_POINTS {automatic}
8 6 1 0 0 0

ATOMIC_SPECIES
C 12.01 C.pbe-n-rrkjus_psl.1.0.0.UPF
Hf 178.4 Hf.pbe-spn-rrkjus_psl.1.0.0.UPF
In 114.8 In.pbe-dn-rrkjus_psl.1.0.0.UPF
Ni 58.69 Ni.pbe-spn-rrkjus_psl.1.0.0.UPF

CELL_PARAMETERS {angstrom}
6.31539000 0.00000000 0.00000000
0.00000000 8.93131000 0.00000000
0.00000000 0.00000000 26.69850000

ATOMIC_POSITIONS {angstrom}
Hf 0.00000000 0.00000000 -3.349326819999998 0 0 0
Hf 3.15769500 2.23282750 -1.1165312699999994 0 0 0
Hf 3.15769500 6.69848250 -1.1165312699999994 0 0 0
Hf 0.00000000 4.46565500 -3.349326819999998 0 0 0
Hf 0.00000000 4.46556569 1.15337520
Hf 3.15769500 6.67302827 3.26202273
Hf 3.15769500 2.25819242 3.26175574
Hf 0.00000000 0.00008931 1.24975678
In 0.00000000 6.69848250 -1.1165312699999994 0 0 0
In 3.15769500 0.00000000 -3.349326819999998 0 0 0
In 0.00000000 2.23282750 -1.1165312699999994 0 0 0
In 3.15769500 4.46565500 -3.349326819999998 0 0 0
In 0.00000000 2.36581471 3.64007349
In 3.15769500 4.46565500 1.03536783
In 0.00000000 6.56540598 3.64007349
In 3.15769500 8.93113137 1.09250262
Ni 1.57884750 0.00000000 -1.1165312699999994 0 0 0
Ni 4.73654250 4.46565500 -1.1165312699999994 0 0 0
Ni 4.73654250 0.00000000 -1.1165312699999994 0 0 0
Ni 1.57884750 4.46565500 -1.1165312699999994 0 0 0
Ni 4.73654250 6.69848250 -3.349326819999998 0 0 0
Ni 1.57884750 2.23282750 -3.349326819999998 0 0 0
Ni 1.57884750 6.69848250 -3.349326819999998 0 0 0
Ni 4.73654250 2.23282750 -3.349326819999998 0 0 0
Ni 1.65652680 4.46556569 3.22411086
Ni 4.50104161 8.93122069 3.43743188
Ni 4.65898951 4.46556569 3.22384388
Ni 1.81434839 0.00000000 3.43743188
Ni 4.74816282 2.25712066 1.15043837
Ni 1.56691141 6.67401071 1.15097234
Ni 1.56710087 2.25720998 1.15070535
Ni 4.74854174 6.67392140 1.15097234
C 0.00000000 0.00000000 3.52313406
