&CONTROL
calculation = 'relax'
prefix = 'scf'
pseudo_dir = '/vol0004/mdt0/data/hp150275/u10028/POT_KKJUS'
outdir = './data'
tprnfor = .true.
nstep = 50
disk_io = 'non'
/
&SYSTEM
ibrav = 0
ecutwfc = 50.0
ecutrho = 400
occupations = 'smearing'
smearing = 'mp'
degauss = 0.01
assume_isolated = 'esm'
esm_bc = 'bc1'
input_dft = 'BEEF-VDW'
nosym = .true.
nspin = 1
ntyp = 4
nat = 18
/
&ELECTRONS
electron_maxstep = 200
mixing_beta = 0.1
conv_thr = 1e-06
/
&IONS
ion_dynamics = 'bfgs'
upscale = 1.0
/
&CELL
/

K_POINTS {automatic}
8 8 1 0 0 0

ATOMIC_SPECIES
C 12.01 C.pbe-n-rrkjus_psl.1.0.0.UPF
Cu 63.54 Cu.pbe-dn-rrkjus_psl.1.0.0.UPF
O 15.99 O.pbe-n-rrkjus_psl.1.0.0.UPF
Sc 44.95 Sc.pbe-spn-rrkjus_psl.1.0.0.UPF

CELL_PARAMETERS {angstrom}
6.54723000 0.00000000 0.00000000
-0.00000000 6.54723000 0.00000000
0.00000000 0.00000000 24.91040000

ATOMIC_POSITIONS {angstrom}
Sc 0.00000000 0.00000000 -2.31492347 0 0 0
Sc 0.00000000 0.00000000 0.95855219
Sc 0.00000000 3.27361500 -2.31492347 0 0 0
Sc 0.00000000 3.27361500 0.95855219
Sc 3.27361500 0.00000000 -2.31492347 0 0 0
Sc 3.27361500 -0.00000000 0.95855219
Sc 3.27361500 3.27361500 -2.31492347 0 0 0
Sc 3.27361500 3.27361500 0.95855219
Cu 1.63680750 1.63680750 -0.6780610899999999 0 0 0
Cu 1.63680750 1.63680750 2.59541458
Cu 1.63680750 4.91042250 -0.6780610899999999 0 0 0
Cu 1.63680750 4.91042250 2.59541458
Cu 4.91042250 1.63680750 -0.6780610899999999 0 0 0
Cu 4.91042250 1.63680750 2.59541458
Cu 4.91042250 4.91042250 -0.6780610899999999 0 0 0
Cu 4.91042250 4.91042250 2.59541458
C 1.63680750 1.63680750 4.49533078
O 1.63680750 1.63680750 5.64544395
