&CONTROL
calculation = 'relax'
prefix = 'scf'
pseudo_dir = '/vol0004/mdt0/data/hp150275/u10028/POT_HYBRID_KKJUS_GBRV'
outdir = './data'
tprnfor = .true.
nstep = 50
disk_io = 'non'
/
&SYSTEM
ibrav = 0
ecutwfc = 50.0
ecutrho = 400
occupations = 'smearing'
smearing = 'mp'
degauss = 0.01
assume_isolated = 'esm'
esm_bc = 'bc1'
input_dft = 'BEEF-VDW'
nosym = .true.
nspin = 2
ntyp = 3
nat = 32
starting_magnetization(1) = 0.0
starting_magnetization(2) = 0.001
starting_magnetization(3) = 0.0
/
&ELECTRONS
electron_maxstep = 300
mixing_beta = 0.1
conv_thr = 1e-06
/
&IONS
ion_dynamics = 'bfgs'
upscale = 1.0
/
&CELL
/

K_POINTS {automatic}
8 6 1 0 0 0

ATOMIC_SPECIES
In 114.8 In.pbe-dn-rrkjus_psl.1.0.0.UPF
Ni 58.69 ni_pbe_v1.4.uspp.F.UPF
Ti 47.86 Ti.pbe-spn-rrkjus_psl.1.0.0.UPF

CELL_PARAMETERS {angstrom}
6.16408000 0.00000000 0.00000000
0.00000000 8.71733000 0.00000000
0.00000000 0.00000000 26.53800000

ATOMIC_POSITIONS {angstrom}
Ti 0.00000000 0.00000000 -3.2689508399999987 0 0 0
Ti 3.08204000 2.17933250 -1.0896502800000007 0 0 0
Ti 3.08204000 6.53799750 -1.0896502800000007 0 0 0
Ti 0.00000000 4.35866500 -3.2689508399999987 0 0 0
Ti 0.00000000 4.35892652 1.15944522
Ti 3.08204000 6.53799750 3.16147194
Ti 3.08204000 2.17933250 3.16120656
Ti 0.00000000 8.71706848 1.15917984
In 0.00000000 6.53799750 -1.0896502800000007 0 0 0
In 3.08204000 0.00000000 -3.2689508399999987 0 0 0
In 0.00000000 2.17933250 -1.0896502800000007 0 0 0
In 3.08204000 4.35866500 -3.2689508399999987 0 0 0
In 0.00000000 2.17898381 3.53380008
In 3.08204000 4.35849065 1.01056704
In 0.00000000 6.53834619 3.53459622
In 3.08204000 0.00017435 1.01056704
Ni 1.54102000 0.00000000 -1.0896502800000007 0 0 0
Ni 4.62306000 4.35866500 -1.0896502800000007 0 0 0
Ni 4.62306000 0.00000000 -1.0896502800000007 0 0 0
Ni 1.54102000 4.35866500 -1.0896502800000007 0 0 0
Ni 4.62306000 6.53799750 -3.2689508399999987 0 0 0
Ni 1.54102000 2.17933250 -3.2689508399999987 0 0 0
Ni 1.54102000 6.53799750 -3.2689508399999987 0 0 0
Ni 4.62306000 2.17933250 -3.2689508399999987 0 0 0
Ni 1.58342887 4.35901369 3.12511488
Ni 4.58021964 8.71698131 3.12431874
Ni 4.58065113 4.35901369 3.12511488
Ni 1.58386036 8.71706848 3.12431874
Ni 4.66664005 2.17898381 1.17802182
Ni 1.49916590 6.53834619 1.17775644
Ni 1.49743995 2.17898381 1.17802182
Ni 4.66497574 6.53834619 1.17775644
