&CONTROL
calculation = 'relax'
prefix = 'scf'
pseudo_dir = '/vol0004/mdt0/data/hp150275/u10028/POT_KKJUS'
outdir = './data'
tprnfor = .true.
nstep = 50
disk_io = 'non'
/
&SYSTEM
ibrav = 0
ecutwfc = 50.0
ecutrho = 400
occupations = 'smearing'
smearing = 'mp'
degauss = 0.01
assume_isolated = 'esm'
esm_bc = 'bc1'
input_dft = 'BEEF-VDW'
nosym = .true.
nspin = 1
ntyp = 5
nat = 34
/
&ELECTRONS
electron_maxstep = 200
mixing_beta = 0.1
conv_thr = 1e-06
/
&IONS
ion_dynamics = 'bfgs'
upscale = 1.0
/
&CELL
/

K_POINTS {automatic}
9 6 2 0  0  0

ATOMIC_SPECIES
C 12.01 C.pbe-n-rrkjus_psl.1.0.0.UPF
Ni 58.69 Ni.pbe-spn-rrkjus_psl.1.0.0.UPF
O 15.99 O.pbe-n-rrkjus_psl.1.0.0.UPF
Sc 44.95 Sc.pbe-spn-rrkjus_psl.1.0.0.UPF
Sn 118.7 Sn.pbe-dn-rrkjus_psl.1.0.0.UPF

CELL_PARAMETERS {angstrom}
6.31539000 0.00000000 0.00000000
0.00000000 8.93131000 0.00000000
0.00000000 0.00000000 26.69850000

ATOMIC_POSITIONS {angstrom}
Sc 0.00000000 0.00000000 -3.349326819999998 0 0 0
Sc 3.15769500 2.23282750 -1.1165312699999994 0 0 0
Sc 3.15769500 6.69848250 -1.1165312699999994 0 0 0
Sc 0.00000000 4.46565500 -3.349326819999998 0 0 0
Sc 0.00006315 4.46735195 1.09090071
Sc 3.15782131 6.69821456 3.40058795
Sc 3.15769500 2.23264887 3.39631618
Sc 0.00006315 8.92943442 1.09063372
Ni 1.57884750 0.00000000 -1.1165312699999994 0 0 0
Ni 4.73654250 4.46565500 -1.1165312699999994 0 0 0
Ni 4.73654250 0.00000000 -1.1165312699999994 0 0 0
Ni 1.57884750 4.46565500 -1.1165312699999994 0 0 0
Ni 4.73654250 6.69848250 -3.349326819999998 0 0 0
Ni 1.57884750 2.23282750 -3.349326819999998 0 0 0
Ni 1.57884750 6.69848250 -3.349326819999998 0 0 0
Ni 4.73654250 2.23282750 -3.349326819999998 0 0 0
Ni 1.48657965 4.46690538 3.18913583
Ni 4.82956819 8.92961305 3.18860185
Ni 4.82899981 4.46681607 3.18913583
Ni 1.48594811 8.92961305 3.18860185
Ni 4.67408329 2.23273819 1.19315596
Ni 1.63511762 6.69839319 1.20009757
Ni 1.64136986 2.23264887 1.19315596
Ni 4.68039868 6.69839319 1.20009757
Sn 0.00000000 6.69848250 -1.1165312699999994 0 0 0
Sn 3.15769500 0.00000000 -3.349326819999998 0 0 0
Sn 0.00000000 2.23282750 -1.1165312699999994 0 0 0
Sn 3.15769500 4.46565500 -3.349326819999998 0 0 0
Sn 0.00006315 2.23273819 3.43743188
Sn 3.15775815 4.46842371 1.12160398
Sn 0.00006315 6.69821456 3.45879067
Sn 3.15775815 8.92845198 1.12187097
C 6.31229546 2.23255956 7.57863621
O 0.00025262 2.23318475 8.71385643
