&CONTROL
calculation = 'relax'
prefix = 'scf'
pseudo_dir = '/vol0004/mdt0/data/hp150275/u10028/POT_KKJUS'
outdir = './data'
tprnfor = .true.
nstep = 50
disk_io = 'non'
/
&SYSTEM
ibrav = 0
ecutwfc = 50.0
ecutrho = 400
occupations = 'smearing'
smearing = 'mp'
degauss = 0.01
assume_isolated = 'esm'
esm_bc = 'bc1'
input_dft = 'BEEF-VDW'
nosym = .true.
nspin = 1
ntyp = 2
nat = 32
/
&ELECTRONS
electron_maxstep = 200
mixing_beta = 0.1
conv_thr = 1e-06
/
&IONS
ion_dynamics = 'bfgs'
upscale = 1.0
/
&CELL
/

K_POINTS {automatic}
8 6 1 0 0 0

ATOMIC_SPECIES
Rh 102.9 Rh.pbe-spn-rrkjus_psl.1.0.0.UPF
Zr 91.22 Zr.pbe-spn-rrkjus_psl.1.0.0.UPF

CELL_PARAMETERS {angstrom}
6.65024000 0.00000000 0.00000000
0.00000000 9.40485000 0.00000000
0.00000000 0.00000000 27.05360000

ATOMIC_POSITIONS {angstrom}
Zr 1.66256000 2.35121250 -3.526707299999998 0 0 0
Zr 1.66256000 0.00000000 -1.1754789199999998 0 0 0
Zr 1.66256000 2.35121250 1.15600033
Zr 1.66256000 0.00000000 3.49451351
Zr 1.66256000 7.05363750 -3.526707299999998 0 0 0
Zr 1.66256000 4.70242500 -1.1754789199999998 0 0 0
Zr 1.66256000 7.05363750 1.15600033
Zr 1.66256000 4.70242500 3.49478405
Zr 4.98768000 2.35121250 -3.526707299999998 0 0 0
Zr 4.98768000 0.00000000 -1.1754789199999998 0 0 0
Zr 4.98768000 2.35121250 1.15600033
Zr 4.98768000 0.00000000 3.49451351
Zr 4.98768000 7.05363750 -3.526707299999998 0 0 0
Zr 4.98768000 4.70242500 -1.1754789199999998 0 0 0
Zr 4.98768000 7.05363750 1.15600033
Zr 4.98768000 4.70242500 3.49478405
Rh 0.00000000 0.00000000 -3.526707299999998 0 0 0
Rh 0.00000000 2.35121250 -1.1754789199999998 0 0 0
Rh 0.00000000 0.00000000 1.20361466
Rh 0.00000000 2.35130655 3.26996863
Rh 0.00000000 4.70242500 -3.526707299999998 0 0 0
Rh 0.00000000 7.05363750 -1.1754789199999998 0 0 0
Rh 0.00000000 4.70242500 1.20334413
Rh 0.00000000 7.05354345 3.26996863
Rh 3.32512000 0.00000000 -3.526707299999998 0 0 0
Rh 3.32512000 2.35121250 -1.1754789199999998 0 0 0
Rh 3.32512000 0.00000000 1.20361466
Rh 3.32512000 2.35130655 3.27023917
Rh 3.32512000 4.70242500 -3.526707299999998 0 0 0
Rh 3.32512000 7.05363750 -1.1754789199999998 0 0 0
Rh 3.32512000 4.70242500 1.20361466
Rh 3.32512000 7.05354345 3.27023917
