&CONTROL
calculation = 'relax'
prefix = 'scf'
pseudo_dir = '/vol0004/mdt0/data/hp150275/u10028/POT_KKJUS'
outdir = './data'
tprnfor = .true.
nstep = 50
disk_io = 'non'
/
&SYSTEM
ibrav = 0
ecutwfc = 50.0
ecutrho = 400
occupations = 'smearing'
smearing = 'mp'
degauss = 0.01
assume_isolated = 'esm'
esm_bc = 'bc1'
input_dft = 'BEEF-VDW'
nosym = .true.
nspin = 1
ntyp = 4
nat = 34
/
&ELECTRONS
electron_maxstep = 200
mixing_beta = 0.1
conv_thr = 1e-06
/
&IONS
ion_dynamics = 'bfgs'
upscale = 1.0
/
&CELL
/

K_POINTS {automatic}
8 6 1 0 0 0

ATOMIC_SPECIES
C 12.01 C.pbe-n-rrkjus_psl.1.0.0.UPF
O 15.99 O.pbe-n-rrkjus_psl.1.0.0.UPF
Ru 101.0 Ru.pbe-spn-rrkjus_psl.1.0.0.UPF
V 50.94 V.pbe-spnl-rrkjus_psl.1.0.0.UPF

CELL_PARAMETERS {angstrom}
6.03636000 0.00000000 0.00000000
0.00000000 8.53670000 0.00000000
0.00000000 0.00000000 26.40250000

ATOMIC_POSITIONS {angstrom}
V 1.50909000 2.13417500 -3.2013031199999986 0 0 0
V 1.50909000 0.00000000 -1.0671890499999996 0 0 0
V 1.54470452 2.13417500 1.09147935
V 1.54216925 8.50656545 3.25674837
V 1.50909000 6.40252500 -3.2013031199999986 0 0 0
V 1.50909000 4.26835000 -1.0671890499999996 0 0 0
V 1.47794238 6.40252500 1.09042325
V 1.54216925 4.29848455 3.25674837
V 4.52727000 2.13417500 -3.2013031199999986 0 0 0
V 4.52727000 0.00000000 -1.0671890499999996 0 0 0
V 4.49165548 2.13417500 1.09147935
V 4.49419075 8.50656545 3.25674837
V 4.52727000 6.40252500 -3.2013031199999986 0 0 0
V 4.52727000 4.26835000 -1.0671890499999996 0 0 0
V 4.55841762 6.40252500 1.09042325
V 4.49419075 4.29848455 3.25674837
Ru 0.00000000 0.00000000 -3.2013031199999986 0 0 0
Ru 0.00000000 2.13417500 -1.0671890499999996 0 0 0
Ru 0.00000000 0.09287930 1.14718863
Ru 0.00000000 2.13426037 3.25991667
Ru 0.00000000 4.26835000 -3.2013031199999986 0 0 0
Ru 0.00000000 6.40252500 -1.0671890499999996 0 0 0
Ru 0.00000000 4.17547070 1.14718863
Ru 0.00000000 6.40235427 3.04869667
Ru 3.01818000 0.00000000 -3.2013031199999986 0 0 0
Ru 3.01818000 2.13417500 -1.0671890499999996 0 0 0
Ru 3.01818000 8.49068719 1.11392147
Ru 3.01818000 2.13434573 3.04711252
Ru 3.01818000 4.26835000 -3.2013031199999986 0 0 0
Ru 3.01818000 6.40252500 -1.0671890499999996 0 0 0
Ru 3.01818000 4.31427745 1.11392147
Ru 3.01818000 6.40235427 3.08988457
C 0.00000000 2.13417500 5.14848750
O 0.00000000 2.13417500 6.31310177
