&CONTROL
calculation = 'relax'
prefix = 'scf'
pseudo_dir = '/vol0004/mdt0/data/hp150275/u10028/POT_KKJUS'
outdir = './data'
tprnfor = .true.
nstep = 50
disk_io = 'non'
/
&SYSTEM
ibrav = 0
ecutwfc = 50.0
ecutrho = 400
occupations = 'smearing'
smearing = 'mp'
degauss = 0.01
assume_isolated = 'esm'
esm_bc = 'bc1'
input_dft = 'BEEF-VDW'
nosym = .true.
nspin = 1
ntyp = 5
nat = 34
/
&ELECTRONS
electron_maxstep = 200
mixing_beta = 0.1
conv_thr = 1e-06
/
&IONS
ion_dynamics = 'bfgs'
upscale = 1.0
/
&CELL
/

K_POINTS {automatic}
9 6 2 0  0  0

ATOMIC_SPECIES
Al 26.98 Al.pbe-nl-rrkjus_psl.1.0.0.UPF
C 12.01 C.pbe-n-rrkjus_psl.1.0.0.UPF
Cu 63.54 Cu.pbe-dn-rrkjus_psl.1.0.0.UPF
Hf 178.4 Hf.pbe-spn-rrkjus_psl.1.0.0.UPF
O 15.99 O.pbe-n-rrkjus_psl.1.0.0.UPF

CELL_PARAMETERS {angstrom}
6.21964000 0.00000000 0.00000000
0.00000000 8.79589000 0.00000000
0.00000000 0.00000000 26.59690000

ATOMIC_POSITIONS {angstrom}
Hf 0.00000000 0.00000000 -3.2985475400000013 0 0 0
Hf 3.10982000 2.19897250 -1.099515850000003 0 0 0
Hf 3.10982000 6.59691750 -1.099515850000003 0 0 0
Hf 0.00000000 4.39794500 -3.2985475400000013 0 0 0
Hf 0.00000000 4.41254618 1.11786771
Hf 3.10982000 6.59691750 3.29881351
Hf 3.10982000 2.19897250 3.27939777
Hf 0.00000000 8.78128882 1.11786771
Al 0.00000000 6.59691750 -1.099515850000003 0 0 0
Al 3.10982000 0.00000000 -3.2985475400000013 0 0 0
Al 0.00000000 2.19897250 -1.099515850000003 0 0 0
Al 3.10982000 4.39794500 -3.2985475400000013 0 0 0
Al 0.00000000 2.19897250 3.30838839
Al 3.10982000 4.38967686 1.12105933
Al 0.00000000 6.59691750 3.30040932
Al 3.10982000 0.00826814 1.12105933
Cu 1.55491000 0.00000000 -1.099515850000003 0 0 0
Cu 4.66473000 4.39794500 -1.099515850000003 0 0 0
Cu 4.66473000 0.00000000 -1.099515850000003 0 0 0
Cu 1.55491000 4.39794500 -1.099515850000003 0 0 0
Cu 4.66473000 6.59691750 -3.2985475400000013 0 0 0
Cu 1.55491000 2.19897250 -3.2985475400000013 0 0 0
Cu 1.55491000 6.59691750 -3.2985475400000013 0 0 0
Cu 4.66473000 2.19897250 -3.2985475400000013 0 0 0
Cu 1.51777875 4.40322253 3.34349630
Cu 4.70186125 8.79061247 3.34349630
Cu 4.70186125 4.40322253 3.34349630
Cu 1.51777875 8.79061247 3.34349630
Cu 4.68295355 2.19897250 1.07451476
Cu 1.60323660 6.59691750 1.10802685
Cu 1.53668645 2.19897250 1.07451476
Cu 4.61640340 6.59691750 1.10802685
C 3.10982000 2.19897250 5.49385566
O 3.10982000 2.19897250 6.64762919
