&CONTROL
calculation = 'relax'
prefix = 'scf'
pseudo_dir = '/vol0004/mdt0/data/hp150275/u10028/POT_KKJUS'
outdir = './data'
tprnfor = .true.
nstep = 50
disk_io = 'non'
/
&SYSTEM
ibrav = 0
ecutwfc = 50.0
ecutrho = 400
occupations = 'smearing'
smearing = 'mp'
degauss = 0.01
assume_isolated = 'esm'
esm_bc = 'bc1'
input_dft = 'BEEF-VDW'
nosym = .true.
nspin = 1
ntyp = 4
nat = 18
/
&ELECTRONS
electron_maxstep = 200
mixing_beta = 0.1
conv_thr = 1e-06
/
&IONS
ion_dynamics = 'bfgs'
upscale = 1.0
/
&CELL
/

K_POINTS {automatic}
7 11 2 0  0  0

ATOMIC_SPECIES
C 12.01 C.pbe-n-rrkjus_psl.1.0.0.UPF
In 114.8 In.pbe-dn-rrkjus_psl.1.0.0.UPF
O 15.99 O.pbe-n-rrkjus_psl.1.0.0.UPF
Zr 91.22 Zr.pbe-spn-rrkjus_psl.1.0.0.UPF

CELL_PARAMETERS {angstrom}
8.97917000 0.00000000 0.00000000
0.00000000 6.34923000 0.00000000
0.00000000 0.00000000 24.76190000

ATOMIC_POSITIONS {angstrom}
Zr 0.00000000 3.17461500 -2.380856680000001 0 0 0
Zr 2.24479250 4.76192250 -0.793618900000002 0 0 0
Zr 2.24479250 1.58730750 -0.793618900000002 0 0 0
Zr 8.93966165 0.11873060 0.74161891
Zr 2.24398437 1.88241971 2.19885672
Zr 2.24452312 5.29468639 2.31251384
Zr 4.48958500 3.17461500 -2.380856680000001 0 0 0
Zr 6.73437750 4.76192250 -0.793618900000002 0 0 0
Zr 6.73437750 1.58730750 -0.793618900000002 0 0 0
Zr 4.52936272 0.11873060 0.74211414
Zr 6.73464688 1.78680031 2.23575195
Zr 6.73545500 4.93297076 2.22485672
In 0.00000000 0.00000000 -2.380856680000001 0 0 0
In 8.97809250 3.33467909 0.79980937
In 4.48958500 0.00000000 -2.380856680000001 0 0 0
In 4.49021354 3.33486957 0.79510461
C 2.24443333 0.77295526 4.03396113
O 2.24506188 0.41555710 5.17077996
