&CONTROL
calculation = 'relax'
prefix = 'scf'
pseudo_dir = '/vol0403/data/hp230205/u10028/POT_HYBRID_KKJUS_GBRV'
outdir = './data'
tprnfor = .true.
nstep = 50
disk_io = 'non'
/
&SYSTEM
ibrav = 0
ecutwfc = 50.0
ecutrho = 400
occupations = 'smearing'
smearing = 'mp'
degauss = 0.01
assume_isolated = 'esm'
esm_bc = 'bc1'
input_dft = 'BEEF-VDW'
nosym = .true.
nspin = 1
ntyp = 5
nat = 33
/
&ELECTRONS
electron_maxstep = 200
mixing_beta = 0.1
conv_thr = 1e-06
/
&IONS
ion_dynamics = 'bfgs'
upscale = 1.0
/
&CELL
/

K_POINTS {automatic}
6 6 1 0 0 0

ATOMIC_SPECIES
C 12.01 C.pbe-n-rrkjus_psl.1.0.0.UPF
Cu 63.54 Cu.pbe-dn-rrkjus_psl.1.0.0.UPF
In 114.8 In.pbe-dn-rrkjus_psl.1.0.0.UPF
Li 6.941 Li.pbe-sl-rrkjus_psl.1.0.0.UPF
Mg 24.30 Mg.pbe-spnl-rrkjus_psl.1.0.0.UPF


CELL_PARAMETERS {angstrom}
6.43808000 0.00000000 0.00000000
0.00000000 9.10482000 0.00000000
0.00000000 0.00000000 26.82860000

ATOMIC_POSITIONS {angstrom}
Li 0.00000000 2.27620500 -1.1380692100000012 0 0 0
Li 0.00000000 6.82861500 -1.1380692100000012 0 0 0
Li 3.21904000 4.55241000 -3.4142076400000008 0 0 0
Li 3.21904000 0.00000000 -3.4142076400000008 0 0 0
Li 6.35515753 6.82861500 4.43584072
Li 0.17131731 2.27620500 4.34891606
Li 3.21266630 9.10145122 1.27999251
Li 3.21266630 4.55577878 1.27999251
Mg 4.82856000 0.00000000 -1.1380692100000012 0 0 0
Mg 4.82856000 4.55241000 -1.1380692100000012 0 0 0
Mg 1.60952000 2.27620500 -3.4142076400000008 0 0 0
Mg 1.60952000 6.82861500 -3.4142076400000008 0 0 0
Mg 4.76076702 4.44415369 3.74929685
Mg 4.76083140 0.10825631 3.74929685
Mg 1.56277954 6.82861500 1.27623650
Mg 1.49910693 2.27620500 1.27462679
In 1.60952000 0.00000000 -1.1380692100000012 0 0 0
In 1.60952000 4.55241000 -1.1380692100000012 0 0 0
In 4.82856000 2.27620500 -3.4142076400000008 0 0 0
In 4.82856000 6.82861500 -3.4142076400000008 0 0 0
In 1.48513629 4.67632660 3.62829986
In 1.48513629 8.98090340 3.62856815
In 4.91244818 6.82861500 1.35913688
In 4.91283447 2.27620500 1.27596822
Cu 0.00000000 0.00000000 -3.4142076400000008 0 0 0
Cu 0.00000000 4.55241000 -3.4142076400000008 0 0 0
Cu 3.21904000 6.82861500 -1.1380692100000012 0 0 0
Cu 3.21904000 2.27620500 -1.1380692100000012 0 0 0
Cu 0.01577330 4.57617358 1.07850972
Cu 0.01577330 9.08105642 1.07850972
Cu 2.81562991 2.27620500 3.56310637
Cu 3.20719393 6.82861500 3.43245108
C 4.70301744 2.27620500 3.61327585
