&CONTROL
calculation = 'relax'
prefix = 'scf'
pseudo_dir = '/vol0004/mdt0/data/hp150275/u10028/POT_KKJUS'
outdir = './data'
tprnfor = .true.
nstep = 50
disk_io = 'non'
/
&SYSTEM
ibrav = 0
ecutwfc = 50.0
ecutrho = 400
occupations = 'smearing'
smearing = 'mp'
degauss = 0.01
assume_isolated = 'esm'
esm_bc = 'bc1'
input_dft = 'BEEF-VDW'
nosym = .true.
nspin = 1
ntyp = 4
nat = 18
/
&ELECTRONS
electron_maxstep = 200
mixing_beta = 0.1
conv_thr = 1e-06
/
&IONS
ion_dynamics = 'bfgs'
upscale = 1.0
/
&CELL
/

K_POINTS {automatic}
8 8 1 0 0 0

ATOMIC_SPECIES
C 12.01 C.pbe-n-rrkjus_psl.1.0.0.UPF
O 15.99 O.pbe-n-rrkjus_psl.1.0.0.UPF
Pd 106.4 Pd.pbe-n-rrkjus_psl.1.0.0.UPF
Zr 91.22 Zr.pbe-spn-rrkjus_psl.1.0.0.UPF

CELL_PARAMETERS {angstrom}
6.75388000 0.00000000 0.00000000
-0.00000000 6.75388000 0.00000000
0.00000000 0.00000000 25.06540000

ATOMIC_POSITIONS {angstrom}
Zr 0.00000000 0.00000000 -2.5975274000000006 0 0 0
Zr 0.00000000 0.00000000 0.77928329
Zr 0.00000000 3.37694000 -2.5975274000000006 0 0 0
Zr 0.00000000 3.37694000 0.77928329
Zr 3.37694000 0.00000000 -2.5975274000000006 0 0 0
Zr 3.37694000 -0.00000000 0.77928329
Zr 3.37694000 3.37694000 -2.5975274000000006 0 0 0
Zr 3.37694000 3.37694000 0.77928329
Pd 1.68847000 1.68847000 -0.9091220600000014 0 0 0
Pd 1.68847000 1.68847000 2.46768863
Pd 1.68847000 5.06541000 -0.9091220600000014 0 0 0
Pd 1.68847000 5.06541000 2.46768863
Pd 5.06541000 1.68847000 -0.9091220600000014 0 0 0
Pd 5.06541000 1.68847000 2.46768863
Pd 5.06541000 5.06541000 -0.9091220600000014 0 0 0
Pd 5.06541000 5.06541000 2.46768863
C 1.68847000 1.68847000 4.36789660
O 1.68847000 1.68847000 5.51789716
