&CONTROL
calculation = 'relax'
prefix = 'scf'
pseudo_dir = '/vol0004/mdt0/data/hp150275/u10028/POT_KKJUS'
outdir = './data'
tprnfor = .true.
nstep = 50
disk_io = 'non'
/
&SYSTEM
ibrav = 0
ecutwfc = 50.0
ecutrho = 400
occupations = 'smearing'
smearing = 'mp'
degauss = 0.01
assume_isolated = 'esm'
esm_bc = 'bc1'
input_dft = 'BEEF-VDW'
nosym = .true.
nspin = 1
ntyp = 4
nat = 33
/
&ELECTRONS
electron_maxstep = 200
mixing_beta = 0.1
conv_thr = 1e-06
/
&IONS
ion_dynamics = 'bfgs'
upscale = 1.0
/
&CELL
/

K_POINTS {automatic}
9 6 2 0  0  0

ATOMIC_SPECIES
C 12.01 C.pbe-n-rrkjus_psl.1.0.0.UPF
Ge 72.64 Ge.pbe-dn-rrkjus_psl.1.0.0.UPF
Li 6.941 Li.pbe-sl-rrkjus_psl.1.0.0.UPF
Rh 102.9 Rh.pbe-spn-rrkjus_psl.1.0.0.UPF

CELL_PARAMETERS {angstrom}
5.94410000 0.00000000 0.00000000
0.00000000 8.40623000 0.00000000
0.00000000 0.00000000 26.30470000

ATOMIC_POSITIONS {angstrom}
Li 0.00000000 0.00000000 -3.1523552499999994 0 0 0
Li 2.97205000 2.10155750 -1.0508727700000016 0 0 0
Li 2.97205000 6.30467250 -1.0508727700000016 0 0 0
Li 0.00000000 4.20311500 -3.1523552499999994 0 0 0
Li 0.02853168 4.19748283 1.05192495
Li 2.86915763 6.30467250 3.72684990
Li 3.16356890 2.10164156 4.58254179
Li 0.02853168 0.00563217 1.05192495
Ge 0.00000000 6.30467250 -1.0508727700000016 0 0 0
Ge 2.97205000 0.00000000 -3.1523552499999994 0 0 0
Ge 0.00000000 2.10155750 -1.0508727700000016 0 0 0
Ge 2.97205000 4.20311500 -3.1523552499999994 0 0 0
Ge 5.47594268 2.10180969 3.32728150
Ge 3.01972168 4.25775550 1.00483954
Ge 0.01331478 6.30458844 3.13999204
Ge 3.01960280 8.35158951 1.00457649
Rh 1.48602500 0.00000000 -1.0508727700000016 0 0 0
Rh 4.45807500 4.20311500 -1.0508727700000016 0 0 0
Rh 4.45807500 0.00000000 -1.0508727700000016 0 0 0
Rh 1.48602500 4.20311500 -1.0508727700000016 0 0 0
Rh 4.45807500 6.30467250 -3.1523552499999994 0 0 0
Rh 1.48602500 2.10155750 -3.1523552499999994 0 0 0
Rh 1.48602500 6.30467250 -3.1523552499999994 0 0 0
Rh 4.45807500 2.10155750 -3.1523552499999994 0 0 0
Rh 1.53797643 4.00136548 3.10790031
Rh 4.47697724 8.31367741 3.08159560
Rh 4.47685836 4.29566759 3.08159560
Rh 1.53791699 0.20174952 3.10790031
Rh 4.45088264 2.10138938 1.03061815
Rh 1.53357780 6.30475656 1.14504359
Rh 1.55996960 2.10138938 1.05297714
Rh 4.48648780 6.30475656 1.03140729
C 1.65959272 2.10155750 3.10921554
