&CONTROL
calculation = 'relax'
prefix = 'scf'
pseudo_dir = '/vol0004/mdt0/data/hp150275/u10028/POT_HYBRID_KKJUS_GBRV'
outdir = './data'
tprnfor = .true.
nstep = 50
disk_io = 'non'
/
&SYSTEM
ibrav = 0
ecutwfc = 50.0
ecutrho = 400
occupations = 'smearing'
smearing = 'mp'
degauss = 0.01
assume_isolated = 'esm'
esm_bc = 'bc1'
input_dft = 'BEEF-VDW'
nosym = .true.
nspin = 2
ntyp = 3
nat = 17
starting_magnetization(1) = 0.1
starting_magnetization(2) = 0.1
starting_magnetization(3) = 0.1
/
&ELECTRONS
electron_maxstep = 200
mixing_beta = 0.1
conv_thr = 1e-06
/
&IONS
ion_dynamics = 'bfgs'
upscale = 1.0
/
&CELL
/

K_POINTS {automatic}
10 10 2 0  0  0

ATOMIC_SPECIES
C 12.01 C.pbe-n-rrkjus_psl.1.0.0.UPF
Fe 55.84 fe_pbe_v1.5.uspp.F.UPF
Rh 102.9 Rh.pbe-spn-rrkjus_psl.1.0.0.UPF

CELL_PARAMETERS {angstrom}
6.04788000 0.00000000 0.00000000
-0.00000000 6.04788000 0.00000000
0.00000000 0.00000000 24.53590000

ATOMIC_POSITIONS {angstrom}
Fe 0.00000000 0.00000000 -2.4921113600000027 0 0 0
Fe 0.00000000 0.00000000 0.53193831
Fe 0.00000000 3.02394000 -2.4921113600000027 0 0 0
Fe 0.00000000 3.02394000 0.53193831
Fe 3.02394000 0.00000000 -2.4921113600000027 0 0 0
Fe 3.02394000 -0.00000000 0.53193831
Fe 3.02394000 3.02394000 -2.4921113600000027 0 0 0
Fe 3.02394000 3.02394000 0.53193831
Rh 1.51197000 1.51197000 -0.9802092000000009 0 0 0
Rh 1.51197000 1.51197000 2.04384047
Rh 1.51197000 4.53591000 -0.9802092000000009 0 0 0
Rh 1.51197000 4.53591000 2.04384047
Rh 4.53591000 1.51197000 -0.9802092000000009 0 0 0
Rh 4.53591000 1.51197000 2.04384047
Rh 4.53591000 4.53591000 -0.9802092000000009 0 0 0
Rh 4.53591000 4.53591000 2.04384047
C 0.00000000 0.00000000 2.84395617
