&CONTROL
calculation = 'relax'
prefix = 'scf'
pseudo_dir = '/vol0004/mdt0/data/hp150275/u10028/POT_HYBRID_KKJUS_GBRV'
outdir = './data'
tprnfor = .true.
nstep = 50
disk_io = 'non'
/
&SYSTEM
ibrav = 0
ecutwfc = 50.0
ecutrho = 400
occupations = 'smearing'
smearing = 'mp'
degauss = 0.01
assume_isolated = 'esm'
esm_bc = 'bc1'
input_dft = 'BEEF-VDW'
nosym = .true.
nspin = 2
ntyp = 5
nat = 34
starting_magnetization(1) = 0.0
starting_magnetization(2) = 0.1
starting_magnetization(3) = 0.001
starting_magnetization(4) = 0.0
starting_magnetization(5) = 0.0
/
&ELECTRONS
electron_maxstep = 300
mixing_beta = 0.1
conv_thr = 1e-06
/
&IONS
ion_dynamics = 'bfgs'
upscale = 1.0
/
&CELL
/

K_POINTS {automatic}
9 6 2 0  0  0

ATOMIC_SPECIES
C 12.01 C.pbe-n-rrkjus_psl.1.0.0.UPF
Mn 54.93 mn_pbe_v1.5.uspp.F.UPF
Ni 58.69 ni_pbe_v1.4.uspp.F.UPF
O 15.99 O.pbe-n-rrkjus_psl.1.0.0.UPF
Sn 118.7 Sn.pbe-dn-rrkjus_psl.1.0.0.UPF

CELL_PARAMETERS {angstrom}
6.10266000 0.00000000 0.00000000
0.00000000 8.63046000 0.00000000
0.00000000 0.00000000 26.47280000

ATOMIC_POSITIONS {angstrom}
Mn 0.00000000 0.00000000 -3.236299800000001 0 0 0
Mn 3.05133000 2.15761500 -1.078766599999998 0 0 0
Mn 3.05133000 6.47284500 -1.078766599999998 0 0 0
Mn 0.00000000 4.31523000 -3.236299800000001 0 0 0
Mn 0.00000000 4.30944759 1.05282326
Mn 3.05133000 6.47284500 3.25906641
Mn 3.05133000 2.15778761 3.24847729
Mn 0.00000000 0.00586871 1.05282326
Ni 1.52566500 0.00000000 -1.078766599999998 0 0 0
Ni 4.57699500 4.31523000 -1.078766599999998 0 0 0
Ni 4.57699500 0.00000000 -1.078766599999998 0 0 0
Ni 1.52566500 4.31523000 -1.078766599999998 0 0 0
Ni 4.57699500 6.47284500 -3.236299800000001 0 0 0
Ni 1.52566500 2.15761500 -3.236299800000001 0 0 0
Ni 1.52566500 6.47284500 -3.236299800000001 0 0 0
Ni 4.57699500 2.15761500 -3.236299800000001 0 0 0
Ni 1.45646084 4.32912504 3.09069940
Ni 4.64619916 8.61665126 3.09069940
Ni 4.64626019 4.32912504 3.09069940
Ni 1.45646084 8.61665126 3.09069940
Ni 4.59981895 2.15787391 1.13541839
Ni 1.43394202 6.47258609 1.18201052
Ni 1.50284105 2.15787391 1.13541839
Ni 4.66871798 6.47258609 1.18201052
Sn 0.00000000 6.47284500 -1.078766599999998 0 0 0
Sn 3.05133000 0.00000000 -3.236299800000001 0 0 0
Sn 0.00000000 2.15761500 -1.078766599999998 0 0 0
Sn 3.05133000 4.31523000 -3.236299800000001 0 0 0
Sn 0.00000000 2.15770130 3.46025969
Sn 3.05133000 4.33620202 1.05229380
Sn 0.00000000 6.47284500 3.55370867
Sn 3.05133000 8.60957429 1.05229380
C 6.10241589 2.15632043 7.35917367
O 0.00006103 2.15787391 8.49326842
