&CONTROL
calculation = 'relax'
prefix = 'scf'
pseudo_dir = '/vol0004/mdt0/data/hp150275/u10028/POT_KKJUS'
outdir = './data'
tprnfor = .true.
nstep = 50
disk_io = 'non'
/
&SYSTEM
ibrav = 0
ecutwfc = 50.0
ecutrho = 400
occupations = 'smearing'
smearing = 'mp'
degauss = 0.01
assume_isolated = 'esm'
esm_bc = 'bc1'
input_dft = 'BEEF-VDW'
nosym = .true.
nspin = 1
ntyp = 4
nat = 33
/
&ELECTRONS
electron_maxstep = 200
mixing_beta = 0.1
conv_thr = 1e-06
/
&IONS
ion_dynamics = 'bfgs'
upscale = 1.0
/
&CELL
/

K_POINTS {automatic}
8 6 1 0 0 0

ATOMIC_SPECIES
Al 26.98 Al.pbe-nl-rrkjus_psl.1.0.0.UPF
C 12.01 C.pbe-n-rrkjus_psl.1.0.0.UPF
Ni 58.69 Ni.pbe-spn-rrkjus_psl.1.0.0.UPF
V 50.94 V.pbe-spnl-rrkjus_psl.1.0.0.UPF

CELL_PARAMETERS {angstrom}
5.81624000 0.00000000 0.00000000
0.00000000 8.22541000 0.00000000
0.00000000 0.00000000 26.16910000

ATOMIC_POSITIONS {angstrom}
Al 0.00000000 0.00000000 -3.0845518200000015 0 0 0
Al 2.90812000 2.05635250 -1.0281839400000017 0 0 0
Al 2.90812000 6.16905750 -1.0281839400000017 0 0 0
Al 0.00000000 4.11270500 -3.0845518200000015 0 0 0
Al 0.00000000 4.11262275 0.99207058
Al 2.90812000 6.15663713 3.20283615
Al 2.90812000 2.06844385 3.20335953
Al 0.00000000 0.00016451 1.02975408
V 0.00000000 6.16905750 -1.0281839400000017 0 0 0
V 2.90812000 0.00000000 -3.0845518200000015 0 0 0
V 0.00000000 2.05635250 -1.0281839400000017 0 0 0
V 2.90812000 4.11270500 -3.0845518200000015 0 0 0
V 0.00000000 2.11121598 3.02750318
V 2.90812000 4.11270500 1.06037193
V 0.00000000 6.11427627 3.02724149
V 2.90812000 0.00000000 1.20116169
Ni 1.45406000 0.00000000 -1.0281839400000017 0 0 0
Ni 4.36218000 4.11270500 -1.0281839400000017 0 0 0
Ni 4.36218000 0.00000000 -1.0281839400000017 0 0 0
Ni 1.45406000 4.11270500 -1.0281839400000017 0 0 0
Ni 4.36218000 6.16905750 -3.0845518200000015 0 0 0
Ni 1.45406000 2.05635250 -3.0845518200000015 0 0 0
Ni 1.45406000 6.16905750 -3.0845518200000015 0 0 0
Ni 4.36218000 2.05635250 -3.0845518200000015 0 0 0
Ni 1.44963966 4.11295176 2.98484755
Ni 4.66078576 8.22524549 3.20623813
Ni 4.36660034 4.11295176 2.98484755
Ni 1.15545424 8.22524549 3.20649982
Ni 4.34606902 2.09460066 1.02530534
Ni 1.46988017 6.13072709 1.02504365
Ni 1.47017098 2.09460066 1.02530534
Ni 4.34635983 6.13080934 1.02504365
C 2.90812000 8.22508098 3.31012946
