&CONTROL
calculation = 'relax'
prefix = 'scf'
pseudo_dir = '/vol0403/data/hp230205/u10028/POT_HYBRID_KKJUS_GBRV'
outdir = './data'
tprnfor = .true.
nstep = 70
disk_io = 'non'
/
&SYSTEM
ibrav = 0
ecutwfc = 50.0
ecutrho = 400
occupations = 'smearing'
smearing = 'mp'
degauss = 0.01
assume_isolated = 'esm'
esm_bc = 'bc1'
input_dft = 'BEEF-VDW'
nosym = .true.
nspin = 1
ntyp = 6
nat = 34
/
&ELECTRONS
electron_maxstep = 200
mixing_beta = 0.1
conv_thr = 1e-06
/
&IONS
ion_dynamics = 'bfgs'
upscale = 1.0
/
&CELL
/

K_POINTS {automatic}
6 6 1 0 0 0

ATOMIC_SPECIES
Ag 107.8 Ag.pbe-n-rrkjus_psl.1.0.0.UPF
C 12.01 C.pbe-n-rrkjus_psl.1.0.0.UPF
Li 6.941 Li.pbe-sl-rrkjus_psl.1.0.0.UPF
Mg 24.30 Mg.pbe-spnl-rrkjus_psl.1.0.0.UPF
O 15.99 O.pbe-n-rrkjus_psl.1.0.0.UPF
Pb 207.2 Pb.pbe-dn-rrkjus_psl.1.0.0.UPF


CELL_PARAMETERS {angstrom}
6.87998000 0.00000000 0.00000000
-0.00000000 9.72976000 0.00000000
0.00000000 0.00000000 27.29730000

ATOMIC_POSITIONS {angstrom}
Li 5.15998500 0.00000000 -1.216094720000001 0 0 0
Li 5.15998500 4.86488000 -1.216094720000001 0 0 0
Li 1.71999500 2.43244000 -3.6485571199999995 0 0 0
Li 1.71999500 7.29732000 -3.6485571199999995 0 0 0
Li 5.11024274 4.86488000 3.73290578
Li 5.18138174 -0.00000000 3.74873821
Li 1.62209288 7.31999034 1.30972445
Li 1.62209288 2.40976966 1.30999743
Mg 1.71999500 0.00000000 -1.216094720000001 0 0 0
Mg 1.71999500 4.86488000 -1.216094720000001 0 0 0
Mg 5.15998500 2.43244000 -3.6485571199999995 0 0 0
Mg 5.15998500 7.29732000 -3.6485571199999995 0 0 0
Mg 1.73609415 4.86488000 3.91825444
Mg 1.64087523 0.00009730 3.80142200
Mg 5.25128233 7.25684420 1.34657581
Mg 5.25135113 2.47291580 1.34657581
Ag 0.00000000 0.00000000 -3.6485571199999995 0 0 0
Ag 0.00000000 4.86488000 -3.6485571199999995 0 0 0
Ag 3.43999000 7.29732000 -1.216094720000001 0 0 0
Ag 3.43999000 2.43244000 -1.216094720000001 0 0 0
Ag 0.07223979 4.86488000 1.47787582
Ag 6.86119765 -0.00000000 1.36240824
Ag 3.36568622 2.44343463 3.57785711
Ag 3.36561742 7.28642267 3.57785711
Pb 0.00000000 2.43244000 -1.216094720000001 0 0 0
Pb 0.00000000 7.29732000 -1.216094720000001 0 0 0
Pb 3.43999000 4.86488000 -3.6485571199999995 0 0 0
Pb 3.43999000 0.00000000 -3.6485571199999995 0 0 0
Pb 6.77285871 7.25013066 4.04027337
Pb 6.77278991 2.47972663 4.04027337
Pb 3.44308599 -0.00000000 1.35176230
Pb 3.36809421 4.86488000 1.33238121
C 1.80757715 -0.00000000 6.04034654
O 1.79326679 9.72966270 7.18601422
