&CONTROL
calculation = 'relax'
prefix = 'scf'
pseudo_dir = '/vol0004/mdt0/data/hp150275/u10028/POT_KKJUS'
outdir = './data'
tprnfor = .true.
nstep = 50
disk_io = 'non'
/
&SYSTEM
ibrav = 0
ecutwfc = 50.0
ecutrho = 400
occupations = 'smearing'
smearing = 'mp'
degauss = 0.01
assume_isolated = 'esm'
esm_bc = 'bc1'
input_dft = 'BEEF-VDW'
nosym = .true.
nspin = 1
ntyp = 5
nat = 34
/
&ELECTRONS
electron_maxstep = 200
mixing_beta = 0.1
conv_thr = 1e-06
/
&IONS
ion_dynamics = 'bfgs'
upscale = 1.0
/
&CELL
/

K_POINTS {automatic}
9 6 2 0  0  0

ATOMIC_SPECIES
C 12.01 C.pbe-n-rrkjus_psl.1.0.0.UPF
Cu 63.54 Cu.pbe-dn-rrkjus_psl.1.0.0.UPF
In 114.8 In.pbe-dn-rrkjus_psl.1.0.0.UPF
O 15.99 O.pbe-n-rrkjus_psl.1.0.0.UPF
Sc 44.95 Sc.pbe-spn-rrkjus_psl.1.0.0.UPF

CELL_PARAMETERS {angstrom}
6.46446000 0.00000000 0.00000000
0.00000000 9.14213000 0.00000000
0.00000000 0.00000000 26.85660000

ATOMIC_POSITIONS {angstrom}
Sc 0.00000000 0.00000000 -3.4282449899999996 0 0 0
Sc 3.23223000 2.28553250 -1.1427483299999999 0 0 0
Sc 3.23223000 6.85659750 -1.1427483299999999 0 0 0
Sc 0.00000000 4.57106500 -3.4282449899999996 0 0 0
Sc 0.00012929 4.55607191 1.15268527
Sc 3.23235929 6.85668892 3.45751868
Sc 3.23235929 2.28534966 3.45563872
Sc 0.00019393 0.01508451 1.15268527
In 0.00000000 6.85659750 -1.1427483299999999 0 0 0
In 3.23223000 0.00000000 -3.4282449899999996 0 0 0
In 0.00000000 2.28553250 -1.1427483299999999 0 0 0
In 3.23223000 4.57106500 -3.4282449899999996 0 0 0
In 0.00025858 2.28562392 3.48303245
In 3.23229464 4.59099484 1.12341158
In 0.00012929 6.85650608 3.55097965
In 3.23229464 9.12220016 1.12341158
Cu 1.61611500 0.00000000 -1.1427483299999999 0 0 0
Cu 4.84834500 4.57106500 -1.1427483299999999 0 0 0
Cu 4.84834500 0.00000000 -1.1427483299999999 0 0 0
Cu 1.61611500 4.57106500 -1.1427483299999999 0 0 0
Cu 4.84834500 6.85659750 -3.4282449899999996 0 0 0
Cu 1.61611500 2.28553250 -3.4282449899999996 0 0 0
Cu 1.61611500 6.85659750 -3.4282449899999996 0 0 0
Cu 4.84834500 2.28553250 -3.4282449899999996 0 0 0
Cu 1.64210213 4.57344195 3.40085126
Cu 4.82326290 9.13975305 3.40085126
Cu 4.82268109 4.57344195 3.40085126
Cu 1.64145568 9.13975305 3.40085126
Cu 4.79384960 2.28553250 1.17954187
Cu 1.58974000 6.85668892 1.19458157
Cu 1.67073969 2.28553250 1.17954187
Cu 4.87497858 6.85650608 1.19458157
C 6.45857734 2.28571534 7.59773214
O 0.00038787 2.28553250 8.73242349
