&CONTROL
calculation = 'relax'
prefix = 'scf'
pseudo_dir = '/vol0403/data/hp230205/u10028/POT_HYBRID_KKJUS_GBRV'
outdir = './data'
tprnfor = .true.
nstep = 50
disk_io = 'non'
/
&SYSTEM
ibrav = 0
ecutwfc = 50.0
ecutrho = 400
occupations = 'smearing'
smearing = 'mp'
degauss = 0.01
assume_isolated = 'esm'
esm_bc = 'bc1'
input_dft = 'BEEF-VDW'
nosym = .true.
nspin = 1
ntyp = 6
nat = 18
/
&ELECTRONS
electron_maxstep = 200
mixing_beta = 0.1
conv_thr = 1e-06
/
&IONS
ion_dynamics = 'bfgs'
upscale = 1.0
/
&CELL
/

K_POINTS {automatic}
11 7 2 0  0  0

ATOMIC_SPECIES
C 12.01 C.pbe-n-rrkjus_psl.1.0.0.UPF
In 114.8 In.pbe-dn-rrkjus_psl.1.0.0.UPF
O 15.99 O.pbe-n-rrkjus_psl.1.0.0.UPF
Pd 106.4 Pd.pbe-n-rrkjus_psl.1.0.0.UPF
Sc 44.95 Sc.pbe-spn-rrkjus_psl.1.0.0.UPF
Y 88.90 Y.pbe-spn-rrkjus_psl.1.0.0.UPF


CELL_PARAMETERS {angstrom}
6.06590000 0.00000000 0.00000000
0.00000000 10.11530000 0.00000000
0.00000000 0.00000000 24.38870000

ATOMIC_POSITIONS {angstrom}
Y 0.90351580 2.52791462 0.72263718
Y 3.35092448 2.52882500 -2.194251340000001 0 0 0
Y 0.90345515 7.58758768 0.72239329
Y 3.35092448 7.58647500 -2.194251340000001 0 0 0
Sc 3.76340568 10.11519885 1.99597121
Sc 5.26689965 0.00000000 -0.7314171099999989 0 0 0
Sc 3.75030333 5.05744769 1.95743706
Sc 5.26689965 5.05765000 -0.7314171099999989 0 0 0
In 0.74828942 10.11509769 2.63154073
In 2.23394965 0.00000000 -0.7314171099999989 0 0 0
In 0.72790800 5.05785231 2.60739592
In 2.23394965 5.05765000 -0.7314171099999989 0 0 0
Pd 3.93634449 2.58567299 0.44167936
Pd 0.31797448 2.52882500 -2.194251340000001 0 0 0
Pd 3.93610185 7.52962701 0.44167936
Pd 0.31797448 7.58647500 -2.194251340000001 0 0 0
C 3.35177370 10.11519885 4.22314729
O 3.19381767 10.11519885 5.36819676
