&CONTROL
calculation = 'relax'
prefix = 'scf'
pseudo_dir = '/vol0004/mdt0/data/hp150275/u10028/POT_KKJUS'
outdir = './data'
tprnfor = .true.
nstep = 50
disk_io = 'non'
/
&SYSTEM
ibrav = 0
ecutwfc = 50.0
ecutrho = 400
occupations = 'smearing'
smearing = 'mp'
degauss = 0.01
assume_isolated = 'esm'
esm_bc = 'bc1'
input_dft = 'BEEF-VDW'
nosym = .true.
nspin = 1
ntyp = 4
nat = 17
/
&ELECTRONS
electron_maxstep = 200
mixing_beta = 0.1
conv_thr = 1e-06
/
&IONS
ion_dynamics = 'bfgs'
upscale = 1.0
/
&CELL
/

K_POINTS {automatic}
10 10 2 0  0  0

ATOMIC_SPECIES
C 12.01 C.pbe-n-rrkjus_psl.1.0.0.UPF
In 114.8 In.pbe-dn-rrkjus_psl.1.0.0.UPF
Li 6.941 Li.pbe-sl-rrkjus_psl.1.0.0.UPF
Rh 102.9 Rh.pbe-spn-rrkjus_psl.1.0.0.UPF

CELL_PARAMETERS {angstrom}
6.34973000 0.00000000 0.00000000
0.00000000 6.34973000 0.00000000
0.00000000 0.00000000 24.76230000

ATOMIC_POSITIONS {angstrom}
Li 6.34941251 6.34953951 0.64456267
Li 3.17486500 0.00000000 -2.3811427700000003 0 0 0
Li 0.00000000 3.17486500 -2.3811427700000003 0 0 0
Li 3.17505549 3.17511899 0.84563254
Li 1.50120317 1.50145716 2.61068929
Li 1.58743250 4.76229750 -0.7936317200000005 0 0 0
Li 4.84846334 4.84827284 2.61044167
Li 4.76229750 1.58743250 -0.7936317200000005 0 0 0
In 1.58743250 1.58743250 -0.7936317200000005 0 0 0
In 1.53053892 4.81906409 2.45815352
In 4.76229750 4.76229750 -0.7936317200000005 0 0 0
In 4.81887359 1.53085641 2.45815352
Rh 0.00000000 0.00000000 -2.3811427700000003 0 0 0
Rh 3.17486500 3.17486500 -2.3811427700000003 0 0 0
Rh 3.17435702 0.00082546 0.80527000
Rh 0.00120645 3.17359505 0.80675573
C 0.00000000 0.00006350 2.75876784
