&CONTROL
calculation = 'relax'
prefix = 'scf'
pseudo_dir = '/vol0004/mdt0/data/hp150275/u10028/POT_KKJUS'
outdir = './data'
tprnfor = .true.
nstep = 50
disk_io = 'non'
/
&SYSTEM
ibrav = 0
ecutwfc = 50.0
ecutrho = 400
occupations = 'smearing'
smearing = 'mp'
degauss = 0.01
assume_isolated = 'esm'
esm_bc = 'bc1'
input_dft = 'BEEF-VDW'
nosym = .true.
nspin = 1
ntyp = 3
nat = 33
/
&ELECTRONS
electron_maxstep = 200
mixing_beta = 0.1
conv_thr = 1e-06
/
&IONS
ion_dynamics = 'bfgs'
upscale = 1.0
/
&CELL
/

K_POINTS {automatic}
8 6 1 0 0 0

ATOMIC_SPECIES
Bi 208.9 Bi.pbe-dn-rrkjus_psl.1.0.0.UPF
C 12.01 C.pbe-n-rrkjus_psl.1.0.0.UPF
K 39.09 K.pbe-spn-rrkjus_psl.1.0.0.UPF

CELL_PARAMETERS {angstrom}
8.83903000 0.00000000 0.00000000
0.00000000 12.50030000 0.00000000
0.00000000 0.00000000 29.37520000

ATOMIC_POSITIONS {angstrom}
K 2.20975750 0.00000000 -1.5624668899999996 0 0 0
K 6.62927250 6.25015000 -1.5624668899999996 0 0 0
K 6.62927250 0.00000000 -1.5624668899999996 0 0 0
K 2.20975750 6.25015000 -1.5624668899999996 0 0 0
K 6.62927250 9.37522500 -4.68769442 0 0 0
K 2.20975750 3.12507500 -4.68769442 0 0 0
K 2.20975750 9.37522500 -4.68769442 0 0 0
K 6.62927250 3.12507500 -4.68769442 0 0 0
K 0.00000000 9.37522500 -1.5624668899999996 0 0 0
K 4.41951500 0.00000000 -4.68769442 0 0 0
K 0.00000000 3.12507500 -1.5624668899999996 0 0 0
K 4.41951500 6.25015000 -4.68769442 0 0 0
K 2.13648194 7.08442002 8.34050054
K 7.45086034 0.07062670 4.70737580
K 5.91366463 5.31300251 6.77832740
K 2.52531087 12.36242169 6.98777258
K 6.75257697 3.30745438 1.75575570
K 2.12304662 9.67985731 1.56657942
K 2.14063629 2.83219297 1.52427913
K 6.70670240 9.22722145 1.57979826
K 0.87170514 4.11409874 4.96617131
K 3.94477070 6.33465203 2.52714846
K 0.20586101 8.45532792 4.79667641
K 4.76901025 0.00800019 1.54249175
Bi 0.00000000 0.00000000 -4.68769442 0 0 0
Bi 4.41951500 3.12507500 -1.5624668899999996 0 0 0
Bi 4.41951500 9.37522500 -1.5624668899999996 0 0 0
Bi 0.00000000 6.25015000 -4.68769442 0 0 0
Bi 0.22954961 6.24827496 1.81479986
Bi 4.36771828 10.26562137 4.72500092
Bi 4.27853247 2.07817488 4.73087596
Bi 8.66781799 12.48779970 1.35096545
C 4.39609157 12.42229813 4.46091787
