&CONTROL
calculation = 'relax'
prefix = 'scf'
pseudo_dir = '/vol0403/data/hp230205/u10028/POT_HYBRID_KKJUS_GBRV'
outdir = './data'
tprnfor = .true.
nstep = 50
disk_io = 'non'
/
&SYSTEM
ibrav = 0
ecutwfc = 50.0
ecutrho = 400
occupations = 'smearing'
smearing = 'mp'
degauss = 0.01
assume_isolated = 'esm'
esm_bc = 'bc1'
input_dft = 'BEEF-VDW'
nosym = .true.
nspin = 1
ntyp = 5
nat = 33
/
&ELECTRONS
electron_maxstep = 200
mixing_beta = 0.1
conv_thr = 1e-06
/
&IONS
ion_dynamics = 'bfgs'
upscale = 1.0
/
&CELL
/

K_POINTS {automatic}
6 6 1 0 0 0

ATOMIC_SPECIES
Al 26.98 Al.pbe-nl-rrkjus_psl.1.0.0.UPF
C 12.01 C.pbe-n-rrkjus_psl.1.0.0.UPF
Li 6.941 Li.pbe-sl-rrkjus_psl.1.0.0.UPF
Nb 92.90 Nb.pbe-spn-rrkjus_psl.1.0.0.UPF
Pd 106.4 Pd.pbe-n-rrkjus_psl.1.0.0.UPF


CELL_PARAMETERS {angstrom}
6.26744000 0.00000000 0.00000000
0.00000000 8.86350000 0.00000000
0.00000000 0.00000000 26.64760000

ATOMIC_POSITIONS {angstrom}
Li 1.56686000 0.00000000 -1.1080072100000002 0 0 0
Li 1.56686000 4.43175000 -1.1080072100000002 0 0 0
Li 4.70058000 2.21587500 -3.32375515 0 0 0
Li 4.70058000 6.64762500 -3.32375515 0 0 0
Li 1.94723093 4.43175000 4.47546442
Li 1.44301539 0.00000000 4.78830724
Li 4.64429839 6.65046132 1.12959176
Li 4.64429839 2.21303868 1.12959176
Nb 0.00000000 2.21587500 -1.1080072100000002 0 0 0
Nb 0.00000000 6.64762500 -1.1080072100000002 0 0 0
Nb 3.13372000 4.43175000 -3.32375515 0 0 0
Nb 3.13372000 0.00000000 -3.32375515 0 0 0
Nb 0.17022367 6.61997088 3.18945124
Nb 0.17022367 2.24352912 3.18945124
Nb 2.97747272 0.00000000 1.41125690
Nb 3.07461804 4.43175000 1.26282976
Al 0.00000000 0.00000000 -3.32375515 0 0 0
Al 0.00000000 4.43175000 -3.32375515 0 0 0
Al 3.13372000 6.64762500 -1.1080072100000002 0 0 0
Al 3.13372000 2.21587500 -1.1080072100000002 0 0 0
Al 0.00971453 4.43175000 1.11573501
Al 6.24525326 0.00000000 1.10480950
Al 3.07204839 2.09683820 3.48070951
Al 3.07204839 6.76657317 3.48070951
Pd 4.70058000 0.00000000 -1.1080072100000002 0 0 0
Pd 4.70058000 4.43175000 -1.1080072100000002 0 0 0
Pd 1.56686000 2.21587500 -3.32375515 0 0 0
Pd 1.56686000 6.64762500 -3.32375515 0 0 0
Pd 4.80461950 4.43175000 3.20757161
Pd 5.12720464 0.00000000 3.35759760
Pd 1.58973616 6.59550762 1.01394118
Pd 1.58973616 2.26799238 1.01394118
C 2.96243086 0.00000000 3.39517072
