&CONTROL
calculation = 'relax'
prefix = 'scf'
pseudo_dir = '/vol0004/mdt0/data/hp150275/u10028/POT_KKJUS'
outdir = './data'
tprnfor = .true.
nstep = 50
disk_io = 'non'
/
&SYSTEM
ibrav = 0
ecutwfc = 50.0
ecutrho = 400
occupations = 'smearing'
smearing = 'mp'
degauss = 0.01
assume_isolated = 'esm'
esm_bc = 'bc1'
input_dft = 'BEEF-VDW'
nosym = .true.
nspin = 1
ntyp = 5
nat = 18
/
&ELECTRONS
electron_maxstep = 200
mixing_beta = 0.1
conv_thr = 1e-06
/
&IONS
ion_dynamics = 'bfgs'
upscale = 1.0
/
&CELL
/

K_POINTS {automatic}
9 9 2 0  0  0

ATOMIC_SPECIES
C 12.01 C.pbe-n-rrkjus_psl.1.0.0.UPF
Ge 72.64 Ge.pbe-dn-rrkjus_psl.1.0.0.UPF
Li 6.941 Li.pbe-sl-rrkjus_psl.1.0.0.UPF
O 15.99 O.pbe-n-rrkjus_psl.1.0.0.UPF
Zn 65.40 Zn.pbe-dnl-rrkjus_psl.1.0.0.UPF

CELL_PARAMETERS {angstrom}
6.18893000 0.00000000 0.00000000
0.00000000 6.18893000 0.00000000
0.00000000 0.00000000 24.64170000

ATOMIC_POSITIONS {angstrom}
Li 0.00000000 0.00000000 -2.320755309999999 0 0 0
Li 3.09446500 3.09446500 -2.320755309999999 0 0 0
Li 3.08932819 6.17946094 0.75157185
Li 0.00946906 3.09960181 0.75157185
Li 1.53757777 1.54426181 2.63247281
Li 1.54723250 4.64169750 -0.7735029600000018 0 0 0
Li 4.64460630 4.65135223 2.63247281
Li 4.64169750 1.54723250 -0.7735029600000018 0 0 0
Zn 1.54723250 1.54723250 -0.7735029600000018 0 0 0
Zn 1.54698494 4.64194506 2.38162031
Zn 4.64169750 4.64169750 -0.7735029600000018 0 0 0
Zn 4.64417307 1.54475693 2.24411962
Ge 0.03075898 6.15817102 0.98369666
Ge 3.09446500 0.00000000 -2.320755309999999 0 0 0
Ge 0.00000000 3.09446500 -2.320755309999999 0 0 0
Ge 3.06673859 3.12206763 0.99059634
C 4.64770076 1.54129113 4.22457305
O 4.64510141 1.54389048 5.38495070
