&CONTROL
calculation = 'relax'
prefix = 'scf'
pseudo_dir = '/vol0004/mdt0/data/hp150275/u10028/POT_KKJUS'
outdir = './data'
tprnfor = .true.
nstep = 50
disk_io = 'non'
/
&SYSTEM
ibrav = 0
ecutwfc = 50.0
ecutrho = 400
occupations = 'smearing'
smearing = 'mp'
degauss = 0.01
assume_isolated = 'esm'
esm_bc = 'bc1'
input_dft = 'BEEF-VDW'
nosym = .true.
nspin = 1
ntyp = 3
nat = 17
/
&ELECTRONS
electron_maxstep = 200
mixing_beta = 0.1
conv_thr = 1e-06
/
&IONS
ion_dynamics = 'bfgs'
upscale = 1.0
/
&CELL
/

K_POINTS {automatic}
6 8 1 0 0 0

ATOMIC_SPECIES
Au 196.9 Au.pbe-n-rrkjus_psl.1.0.0.UPF
C 12.01 C.pbe-n-rrkjus_psl.1.0.0.UPF
Ti 47.86 Ti.pbe-spn-rrkjus_psl.1.0.0.UPF

CELL_PARAMETERS {angstrom}
8.18271000 0.00000000 0.00000000
0.00000000 5.78605000 0.00000000
0.00000000 0.00000000 24.33950000

ATOMIC_POSITIONS {angstrom}
Ti 0.00000000 2.89302500 -2.1698664200000017 0 0 0
Ti 2.04567750 4.33953750 -0.7233699400000013 0 0 0
Ti 2.04567750 1.44651250 -0.7233699400000013 0 0 0
Ti 8.18254635 0.00000000 0.57854991
Ti 1.59210988 1.52097896 2.21684166
Ti 1.59219171 4.26507104 2.21684166
Ti 4.09135500 2.89302500 -2.1698664200000017 0 0 0
Ti 6.13703250 4.33953750 -0.7233699400000013 0 0 0
Ti 6.13703250 1.44651250 -0.7233699400000013 0 0 0
Ti 4.09143683 0.00000000 0.81074875
Ti 6.59051829 1.52097896 2.21684166
Ti 6.59051829 4.26507104 2.21684166
Au 0.00000000 0.00000000 -2.1698664200000017 0 0 0
Au 0.00008183 2.89302500 0.39722064
Au 4.09135500 0.00000000 -2.1698664200000017 0 0 0
Au 4.09135500 2.89302500 0.90542940
C 0.00000000 2.89302500 2.70217129
