&CONTROL
calculation = 'relax'
prefix = 'scf'
pseudo_dir = '/vol0004/mdt0/data/hp150275/u10028/POT_KKJUS'
outdir = './data'
tprnfor = .true.
nstep = 50
disk_io = 'non'
/
&SYSTEM
ibrav = 0
ecutwfc = 50.0
ecutrho = 400
occupations = 'smearing'
smearing = 'mp'
degauss = 0.01
assume_isolated = 'esm'
esm_bc = 'bc1'
input_dft = 'BEEF-VDW'
nosym = .true.
nspin = 1
ntyp = 2
nat = 32
/
&ELECTRONS
electron_maxstep = 200
mixing_beta = 0.1
conv_thr = 1e-06
/
&IONS
ion_dynamics = 'bfgs'
upscale = 1.0
/
&CELL
/

K_POINTS {automatic}
9 6 2 0  0  0

ATOMIC_SPECIES
Al 26.98 Al.pbe-nl-rrkjus_psl.1.0.0.UPF
Au 196.9 Au.pbe-n-rrkjus_psl.1.0.0.UPF

CELL_PARAMETERS {angstrom}
6.49845000 0.00000000 0.00000000
0.00000000 9.19019000 0.00000000
0.00000000 0.00000000 26.89260000

ATOMIC_POSITIONS {angstrom}
Al 0.00000000 0.00000000 -3.446286690000001 0 0 0
Al 0.00000000 2.29754750 -1.1488518700000014 0 0 0
Al 0.00000000 0.00000000 1.25400194
Al 0.00000000 2.29754750 3.50249222
Al 0.00000000 4.59509500 -3.446286690000001 0 0 0
Al 0.00000000 6.89264250 -1.1488518700000014 0 0 0
Al 0.00000000 4.59509500 1.25400194
Al 0.00000000 6.89264250 3.50222330
Al 3.24922500 0.00000000 -3.446286690000001 0 0 0
Al 3.24922500 2.29754750 -1.1488518700000014 0 0 0
Al 3.24922500 0.00000000 1.25400194
Al 3.24922500 2.29754750 3.50222330
Al 3.24922500 4.59509500 -3.446286690000001 0 0 0
Al 3.24922500 6.89264250 -1.1488518700000014 0 0 0
Al 3.24922500 4.59509500 1.25400194
Al 3.24922500 6.89264250 3.50222330
Au 1.62461250 2.29754750 -3.446286690000001 0 0 0
Au 1.62461250 0.00000000 -1.1488518700000014 0 0 0
Au 1.62454752 2.29754750 1.11846323
Au 1.62454752 0.00000000 3.52992268
Au 1.62461250 6.89264250 -3.446286690000001 0 0 0
Au 1.62461250 4.59509500 -1.1488518700000014 0 0 0
Au 1.62461250 6.89264250 1.11846323
Au 1.62454752 4.59509500 3.53019160
Au 4.87383750 2.29754750 -3.446286690000001 0 0 0
Au 4.87383750 0.00000000 -1.1488518700000014 0 0 0
Au 4.87390248 2.29754750 1.11846323
Au 4.87390248 0.00000000 3.52992268
Au 4.87383750 6.89264250 -3.446286690000001 0 0 0
Au 4.87383750 4.59509500 -1.1488518700000014 0 0 0
Au 4.87383750 6.89264250 1.11846323
Au 4.87390248 4.59509500 3.53019160
