&CONTROL
calculation = 'relax'
prefix = 'scf'
pseudo_dir = '/vol0403/data/hp230205/u10028/POT_HYBRID_KKJUS_GBRV'
outdir = './data'
tprnfor = .true.
nstep = 50
disk_io = 'non'
/
&SYSTEM
ibrav = 0
ecutwfc = 50.0
ecutrho = 400
occupations = 'smearing'
smearing = 'mp'
degauss = 0.01
assume_isolated = 'esm'
esm_bc = 'bc1'
input_dft = 'BEEF-VDW'
nosym = .true.
nspin = 1
ntyp = 5
nat = 33
/
&ELECTRONS
electron_maxstep = 200
mixing_beta = 0.1
conv_thr = 1e-06
/
&IONS
ion_dynamics = 'bfgs'
upscale = 1.0
/
&CELL
/

K_POINTS {automatic}
6 6 1 0 0 0

ATOMIC_SPECIES
C 12.01 C.pbe-n-rrkjus_psl.1.0.0.UPF
Cu 63.54 Cu.pbe-dn-rrkjus_psl.1.0.0.UPF
Ge 72.64 Ge.pbe-dn-rrkjus_psl.1.0.0.UPF
Li 6.941 Li.pbe-sl-rrkjus_psl.1.0.0.UPF
Sn 118.7 Sn.pbe-dn-rrkjus_psl.1.0.0.UPF


CELL_PARAMETERS {angstrom}
6.57410000 0.00000000 0.00000000
0.00000000 9.29718000 0.00000000
0.00000000 0.00000000 26.97290000

ATOMIC_POSITIONS {angstrom}
Li 0.00000000 2.32429500 -1.1622622599999985 0 0 0
Li 0.00000000 6.97288500 -1.1622622599999985 0 0 0
Li 3.28705000 4.64859000 -3.48651705 0 0 0
Li 3.28705000 0.00000000 -3.48651705 0 0 0
Li 5.85285549 6.75756231 3.82745451
Li 5.85489346 2.53720042 3.82826370
Li 3.03374993 0.00046486 1.42632695
Li 3.05537872 4.64821811 1.12099372
Cu 0.00000000 0.00000000 -3.48651705 0 0 0
Cu 0.00000000 4.64859000 -3.48651705 0 0 0
Cu 3.28705000 6.97288500 -1.1622622599999985 0 0 0
Cu 3.28705000 2.32429500 -1.1622622599999985 0 0 0
Cu 5.68081129 4.64821811 1.69066137
Cu 0.06383451 9.29708703 0.90251323
Cu 3.34694005 1.88295787 3.27181277
Cu 3.34273263 7.42091610 3.27343114
Sn 4.93057500 0.00000000 -1.1622622599999985 0 0 0
Sn 4.93057500 4.64859000 -1.1622622599999985 0 0 0
Sn 1.64352500 2.32429500 -3.48651705 0 0 0
Sn 1.64352500 6.97288500 -3.48651705 0 0 0
Sn 3.82237896 4.64914783 3.93561584
Sn 4.28111966 9.29578542 5.14912661
Sn 1.13284891 6.79196188 1.48458842
Sn 1.13219150 2.50428840 1.48431869
Ge 1.64352500 0.00000000 -1.1622622599999985 0 0 0
Ge 1.64352500 4.64859000 -1.1622622599999985 0 0 0
Ge 4.93057500 2.32429500 -3.48651705 0 0 0
Ge 4.93057500 6.97288500 -3.48651705 0 0 0
Ge 1.06927736 4.64784623 3.50324025
Ge 0.80493280 9.29662217 3.39400001
Ge 4.67267306 6.97130448 1.15012446
Ge 4.67392214 2.32522472 1.14688771
C 2.73186725 9.29690108 3.66399874
