&CONTROL
calculation = 'relax'
prefix = 'scf'
pseudo_dir = '/vol0004/mdt0/data/hp150275/u10028/POT_KKJUS'
outdir = './data'
tprnfor = .true.
nstep = 50
disk_io = 'non'
/
&SYSTEM
ibrav = 0
ecutwfc = 50.0
ecutrho = 400
occupations = 'smearing'
smearing = 'mp'
degauss = 0.01
assume_isolated = 'esm'
esm_bc = 'bc1'
input_dft = 'BEEF-VDW'
nosym = .true.
nspin = 1
ntyp = 3
nat = 17
/
&ELECTRONS
electron_maxstep = 200
mixing_beta = 0.1
conv_thr = 1e-06
/
&IONS
ion_dynamics = 'bfgs'
upscale = 1.0
/
&CELL
/

K_POINTS {automatic}
6 8 1 0 0 0

ATOMIC_SPECIES
C 12.01 C.pbe-n-rrkjus_psl.1.0.0.UPF
Ca 40.07 Ca.pbe-spn-rrkjus_psl.1.0.0.UPF
Pb 207.2 Pb.pbe-dn-rrkjus_psl.1.0.0.UPF

CELL_PARAMETERS {angstrom}
10.21910000 0.00000000 0.00000000
0.00000000 7.22598000 0.00000000
0.00000000 0.00000000 25.41950000

ATOMIC_POSITIONS {angstrom}
Ca 0.00000000 3.61299000 -2.7097187 0 0 0
Ca 2.55477500 5.41948500 -0.9031548299999983 0 0 0
Ca 2.55477500 1.80649500 -0.9031548299999983 0 0 0
Ca 10.21889562 7.22554644 0.50203513
Ca 1.78129132 1.95166494 2.96848921
Ca 1.78118913 5.27417054 2.96848921
Ca 5.10955000 3.61299000 -2.7097187 0 0 0
Ca 7.66432500 5.41948500 -0.9031548299999983 0 0 0
Ca 7.66432500 1.80649500 -0.9031548299999983 0 0 0
Ca 5.10955000 0.00028904 1.12938838
Ca 8.43801306 1.95166494 2.96848921
Ca 8.43811525 5.27431506 2.96848921
Pb 0.00000000 0.00000000 -2.7097187 0 0 0
Pb 0.00020438 3.61313452 0.60269634
Pb 5.10955000 0.00000000 -2.7097187 0 0 0
Pb 5.10944781 3.61320678 1.15709564
C 0.00010219 3.61291774 3.14540893
