&CONTROL
calculation = 'relax'
prefix = 'scf'
pseudo_dir = '/vol0004/mdt0/data/hp150275/u10028/POT_KKJUS'
outdir = './data'
tprnfor = .true.
nstep = 50
disk_io = 'non'
/
&SYSTEM
ibrav = 0
ecutwfc = 50.0
ecutrho = 400
occupations = 'smearing'
smearing = 'mp'
degauss = 0.01
assume_isolated = 'esm'
esm_bc = 'bc1'
input_dft = 'BEEF-VDW'
nosym = .true.
nspin = 1
ntyp = 2
nat = 16
/
&ELECTRONS
electron_maxstep = 200
mixing_beta = 0.1
conv_thr = 1e-06
/
&IONS
ion_dynamics = 'bfgs'
upscale = 1.0
/
&CELL
/

K_POINTS {automatic}
6 8 1 0 0 0

ATOMIC_SPECIES
Pd 106.4 Pd.pbe-n-rrkjus_psl.1.0.0.UPF
V 50.94 V.pbe-spnl-rrkjus_psl.1.0.0.UPF

CELL_PARAMETERS {angstrom}
7.84123000 0.00000000 0.00000000
0.00000000 5.54458000 0.00000000
0.00000000 0.00000000 24.15840000

ATOMIC_POSITIONS {angstrom}
V 0.00000000 0.00000000 -2.0793134900000005 0 0 0
V 0.00000000 2.77229000 0.73562328
V 3.92061500 0.00000000 -2.0793134900000005 0 0 0
V 3.92061500 2.77229000 0.73538170
Pd 0.00000000 2.77229000 -2.0793134900000005 0 0 0
Pd 1.96030750 4.15843500 -0.6931045000000005 0 0 0
Pd 1.96030750 1.38614500 -0.6931045000000005 0 0 0
Pd 0.00000000 0.00000000 0.62183722
Pd 1.96022909 1.44403042 2.03558678
Pd 1.96022909 4.10054958 2.03558678
Pd 3.92061500 2.77229000 -2.0793134900000005 0 0 0
Pd 5.88092250 4.15843500 -0.6931045000000005 0 0 0
Pd 5.88092250 1.38614500 -0.6931045000000005 0 0 0
Pd 3.92061500 0.00000000 0.62183722
Pd 5.88100091 1.44403042 2.03558678
Pd 5.88100091 4.10054958 2.03558678
