&CONTROL
calculation = 'relax'
prefix = 'scf'
pseudo_dir = '/vol0004/mdt0/data/hp150275/u10028/POT_KKJUS'
outdir = './data'
tprnfor = .true.
nstep = 50
disk_io = 'non'
/
&SYSTEM
ibrav = 0
ecutwfc = 50.0
ecutrho = 400
occupations = 'smearing'
smearing = 'mp'
degauss = 0.01
assume_isolated = 'esm'
esm_bc = 'bc1'
input_dft = 'BEEF-VDW'
nosym = .true.
nspin = 1
ntyp = 5
nat = 34
/
&ELECTRONS
electron_maxstep = 200
mixing_beta = 0.1
conv_thr = 1e-06
/
&IONS
ion_dynamics = 'bfgs'
upscale = 1.0
/
&CELL
/

K_POINTS {automatic}
8 6 1 0 0 0

ATOMIC_SPECIES
C 12.01 C.pbe-n-rrkjus_psl.1.0.0.UPF
Ga 69.72 Ga.pbe-dnl-rrkjus_psl.1.0.0.UPF
Ni 58.69 Ni.pbe-spn-rrkjus_psl.1.0.0.UPF
O 15.99 O.pbe-n-rrkjus_psl.1.0.0.UPF
V 50.94 V.pbe-spnl-rrkjus_psl.1.0.0.UPF

CELL_PARAMETERS {angstrom}
5.81624000 0.00000000 0.00000000
0.00000000 8.22541000 0.00000000
0.00000000 0.00000000 26.16910000

ATOMIC_POSITIONS {angstrom}
V 0.00000000 0.00000000 -3.0845518200000015 0 0 0
V 2.90812000 2.05635250 -1.0281839400000017 0 0 0
V 2.90812000 6.16905750 -1.0281839400000017 0 0 0
V 0.00000000 4.11270500 -3.0845518200000015 0 0 0
V 0.00000000 4.12940258 1.07424156
V 2.90812000 6.16905750 3.08978564
V 2.90812000 2.05643475 3.09842144
V 0.00000000 8.20863016 1.07424156
Ga 0.00000000 6.16905750 -1.0281839400000017 0 0 0
Ga 2.90812000 0.00000000 -3.0845518200000015 0 0 0
Ga 0.00000000 2.05635250 -1.0281839400000017 0 0 0
Ga 2.90812000 4.11270500 -3.0845518200000015 0 0 0
Ga 0.00000000 2.05602348 3.22115452
Ga 2.90817816 4.07445684 1.00541682
Ga 0.00000000 6.16922201 3.19315358
Ga 2.90812000 0.03800139 1.00463175
Ni 1.45406000 0.00000000 -1.0281839400000017 0 0 0
Ni 4.36218000 4.11270500 -1.0281839400000017 0 0 0
Ni 4.36218000 0.00000000 -1.0281839400000017 0 0 0
Ni 1.45406000 4.11270500 -1.0281839400000017 0 0 0
Ni 4.36218000 6.16905750 -3.0845518200000015 0 0 0
Ni 1.45406000 2.05635250 -3.0845518200000015 0 0 0
Ni 1.45406000 6.16905750 -3.0845518200000015 0 0 0
Ni 4.36218000 2.05635250 -3.0845518200000015 0 0 0
Ni 1.48331569 4.11550164 3.01232510
Ni 4.33251718 8.22253111 3.01284848
Ni 4.33298248 4.11550164 3.01232510
Ni 1.48372282 8.22244885 3.01284848
Ni 4.43069531 2.05651701 1.05042767
Ni 1.50093889 6.16897525 1.07999876
Ni 1.38548653 2.05651701 1.05042767
Ni 4.31530111 6.16897525 1.07999876
C 2.90812000 2.05643475 5.07889893
O 2.90812000 2.05643475 6.23452638
