&CONTROL
calculation = 'relax'
prefix = 'scf'
pseudo_dir = '/vol0403/data/hp230205/u10028/POT_HYBRID_KKJUS_GBRV'
outdir = './data'
tprnfor = .true.
nstep = 50
disk_io = 'non'
/
&SYSTEM
ibrav = 0
ecutwfc = 50.0
ecutrho = 400
occupations = 'smearing'
smearing = 'mp'
degauss = 0.01
assume_isolated = 'esm'
esm_bc = 'bc1'
input_dft = 'BEEF-VDW'
nosym = .true.
nspin = 1
ntyp = 4
nat = 32
/
&ELECTRONS
electron_maxstep = 200
mixing_beta = 0.1
conv_thr = 1e-06
/
&IONS
ion_dynamics = 'bfgs'
upscale = 1.0
/
&CELL
/

K_POINTS {automatic}
7 7 2 0  0  0

ATOMIC_SPECIES
Ag 107.8 Ag.pbe-n-rrkjus_psl.1.0.0.UPF
Al 26.98 Al.pbe-nl-rrkjus_psl.1.0.0.UPF
Li 6.941 Li.pbe-sl-rrkjus_psl.1.0.0.UPF
Sn 118.7 Sn.pbe-dn-rrkjus_psl.1.0.0.UPF


CELL_PARAMETERS {angstrom}
8.56020000 0.00000000 0.00000000
0.00000000 8.66686000 0.00000000
0.00000000 0.00000000 26.12070000

ATOMIC_POSITIONS {angstrom}
Li 2.13996440 0.00000000 1.00277367
Li 2.14005000 0.00000000 -3.0603012099999987 0 0 0
Li 2.13996440 4.33343000 1.00329609
Li 2.14005000 4.33343000 -3.0603012099999987 0 0 0
Li 6.42023560 0.00000000 1.00277367
Li 6.42015000 0.00000000 -3.0603012099999987 0 0 0
Li 6.42023560 4.33343000 1.00329609
Li 6.42015000 4.33343000 -3.0603012099999987 0 0 0
Al 0.00008560 2.16671500 1.04247714
Al 0.00000000 2.16671500 -3.0603012099999987 0 0 0
Al 0.00008560 6.50014500 1.04247714
Al 0.00000000 6.50014500 -3.0603012099999987 0 0 0
Al 4.28001440 2.16671500 1.04247714
Al 4.28010000 2.16671500 -3.0603012099999987 0 0 0
Al 4.28001440 6.50014500 1.04247714
Al 4.28010000 6.50014500 -3.0603012099999987 0 0 0
Ag 0.00000000 0.00000000 2.71942608
Ag 0.00000000 0.00000000 -1.0200133399999984 0 0 0
Ag 0.00000000 4.33343000 2.71968728
Ag 0.00000000 4.33343000 -1.0200133399999984 0 0 0
Ag 4.28010000 0.00000000 2.71916487
Ag 4.28010000 0.00000000 -1.0200133399999984 0 0 0
Ag 4.28010000 4.33351667 2.71942608
Ag 4.28010000 4.33343000 -1.0200133399999984 0 0 0
Sn 2.14047801 2.16498163 3.22460041
Sn 2.14005000 2.16671500 -1.0200133399999984 0 0 0
Sn 2.14030681 6.50187837 3.22460041
Sn 2.14005000 6.50014500 -1.0200133399999984 0 0 0
Sn 6.41972199 2.16498163 3.22381679
Sn 6.42015000 2.16671500 -1.0200133399999984 0 0 0
Sn 6.41997880 6.50205171 3.22407800
Sn 6.42015000 6.50014500 -1.0200133399999984 0 0 0
