&CONTROL
calculation = 'relax'
prefix = 'scf'
pseudo_dir = '/vol0004/mdt0/data/hp150275/u10028/POT_HYBRID_KKJUS_GBRV'
outdir = './data'
tprnfor = .true.
nstep = 50
disk_io = 'non'
/
&SYSTEM
ibrav = 0
ecutwfc = 50.0
ecutrho = 400
occupations = 'smearing'
smearing = 'mp'
degauss = 0.01
assume_isolated = 'esm'
esm_bc = 'bc1'
input_dft = 'BEEF-VDW'
nosym = .true.
nspin = 2
ntyp = 4
nat = 33
starting_magnetization(1) = 0.0
starting_magnetization(2) = 0.0
starting_magnetization(3) = 0.001
starting_magnetization(4) = 0.0
/
&ELECTRONS
electron_maxstep = 300
mixing_beta = 0.1
conv_thr = 1e-06
/
&IONS
ion_dynamics = 'bfgs'
upscale = 1.0
/
&CELL
/

K_POINTS {automatic}
9 6 2 0  0  0

ATOMIC_SPECIES
C 12.01 C.pbe-n-rrkjus_psl.1.0.0.UPF
In 114.8 In.pbe-dn-rrkjus_psl.1.0.0.UPF
Ni 58.69 ni_pbe_v1.4.uspp.F.UPF
Zr 91.22 Zr.pbe-spn-rrkjus_psl.1.0.0.UPF

CELL_PARAMETERS {angstrom}
6.34973000 0.00000000 0.00000000
0.00000000 8.97987000 0.00000000
0.00000000 0.00000000 26.73490000

ATOMIC_POSITIONS {angstrom}
Zr 0.00000000 0.00000000 -3.367528 0 0 0
Zr 3.17486500 2.24496750 -1.1225984499999981 0 0 0
Zr 3.17486500 6.73490250 -1.1225984499999981 0 0 0
Zr 0.00000000 4.48993500 -3.367528 0 0 0
Zr 0.00000000 4.48993500 1.14425372
Zr 3.17486500 6.70984866 3.30683978
Zr 3.17486500 2.26993154 3.30683978
Zr 0.00000000 8.97978020 1.23755852
In 0.00000000 6.73490250 -1.1225984499999981 0 0 0
In 3.17486500 0.00000000 -3.367528 0 0 0
In 0.00000000 2.24496750 -1.1225984499999981 0 0 0
In 3.17486500 4.48993500 -3.367528 0 0 0
In 0.00000000 2.37239186 3.59156647
In 3.17486500 4.48993500 1.04613664
In 0.00000000 6.60747814 3.59183381
In 3.17486500 0.00008980 1.11136979
Ni 1.58743250 0.00000000 -1.1225984499999981 0 0 0
Ni 4.76229750 4.48993500 -1.1225984499999981 0 0 0
Ni 4.76229750 0.00000000 -1.1225984499999981 0 0 0
Ni 1.58743250 4.48993500 -1.1225984499999981 0 0 0
Ni 4.76229750 6.73490250 -3.367528 0 0 0
Ni 1.58743250 2.24496750 -3.367528 0 0 0
Ni 1.58743250 6.73490250 -3.367528 0 0 0
Ni 4.76229750 2.24496750 -3.367528 0 0 0
Ni 1.65727953 4.49011460 3.23064532
Ni 4.54158089 8.97969040 3.45388173
Ni 4.69245047 4.49011460 3.23064532
Ni 1.80814911 8.97969040 3.45388173
Ni 4.75334438 2.26732738 1.15173949
Ni 1.59632212 6.71254262 1.15200684
Ni 1.59638562 2.26732738 1.15173949
Ni 4.75334438 6.71254262 1.15200684
C 0.00000000 0.00000000 3.57285204
