&CONTROL
calculation = 'relax'
prefix = 'scf'
pseudo_dir = '/vol0004/mdt0/data/hp150275/u10028/POT_HYBRID_KKJUS_GBRV'
outdir = './data'
tprnfor = .true.
nstep = 50
disk_io = 'non'
/
&SYSTEM
ibrav = 0
ecutwfc = 50.0
ecutrho = 400
occupations = 'smearing'
smearing = 'mp'
degauss = 0.01
assume_isolated = 'esm'
esm_bc = 'bc1'
input_dft = 'BEEF-VDW'
nosym = .true.
nspin = 2
ntyp = 4
nat = 33
starting_magnetization(1) = 0.0
starting_magnetization(2) = 0.0
starting_magnetization(3) = 0.001
starting_magnetization(4) = 0.0
/
&ELECTRONS
electron_maxstep = 200
mixing_beta = 0.1
conv_thr = 1e-06
/
&IONS
ion_dynamics = 'bfgs'
upscale = 1.0
/
&CELL
/

K_POINTS {automatic}
9 6 2 0  0  0

ATOMIC_SPECIES
C 12.01 C.pbe-n-rrkjus_psl.1.0.0.UPF
Nb 92.90 Nb.pbe-spn-rrkjus_psl.1.0.0.UPF
Ni 58.69 ni_pbe_v1.4.uspp.F.UPF
Sn 118.7 Sn.pbe-dn-rrkjus_psl.1.0.0.UPF

CELL_PARAMETERS {angstrom}
6.22550000 0.00000000 0.00000000
0.00000000 8.80419000 0.00000000
0.00000000 0.00000000 26.60310000

ATOMIC_POSITIONS {angstrom}
Nb 0.00000000 0.00000000 23.30165529
Nb 3.11275000 2.20104750 25.50252975
Nb 3.11275000 6.60314250 25.50252975
Nb 0.00000000 4.40209500 23.30165529
Nb 0.00000000 4.40200696 1.13435618
Nb 3.11275000 6.59645132 3.13943183
Nb 3.11275000 2.20800281 3.13969786
Nb 0.00000000 8.80401392 1.29876334
Ni 1.55637500 0.00000000 25.50252975
Ni 4.66912500 4.40209500 25.50252975
Ni 4.66912500 0.00000000 25.50252975
Ni 1.55637500 4.40209500 25.50252975
Ni 4.66912500 6.60314250 23.30165529
Ni 1.55637500 2.20104750 23.30165529
Ni 1.55637500 6.60314250 23.30165529
Ni 4.66912500 2.20104750 23.30165529
Ni 1.75696061 4.40209500 3.17135555
Ni 4.38798142 0.00017608 3.46904424
Ni 4.46853939 4.40209500 3.17135555
Ni 1.83751858 0.00017608 3.46904424
Ni 4.80527668 2.25598565 1.17825130
Ni 1.42022332 6.54811631 1.17825130
Ni 1.42022332 2.25598565 1.17825130
Ni 4.80527668 6.54811631 1.17798527
Sn 0.00000000 6.60314250 25.50252975
Sn 3.11275000 0.00000000 23.30165529
Sn 0.00000000 2.20104750 25.50252975
Sn 3.11275000 4.40209500 23.30165529
Sn 0.00000000 2.37220095 3.76433865
Sn 3.11275000 4.40209500 0.98005820
Sn 0.00000000 6.43190100 3.76433865
Sn 3.11275000 0.00008804 1.06332591
C 0.00000000 8.80401392 3.37247499
