&CONTROL
calculation = 'relax'
prefix = 'scf'
pseudo_dir = '/vol0004/mdt0/data/hp150275/u10028/POT_KKJUS'
outdir = './data'
tprnfor = .true.
nstep = 50
disk_io = 'non'
/
&SYSTEM
ibrav = 0
ecutwfc = 50.0
ecutrho = 400
occupations = 'smearing'
smearing = 'mp'
degauss = 0.01
assume_isolated = 'esm'
esm_bc = 'bc1'
input_dft = 'BEEF-VDW'
nosym = .true.
nspin = 1
ntyp = 4
nat = 34
/
&ELECTRONS
electron_maxstep = 200
mixing_beta = 0.1
conv_thr = 1e-06
/
&IONS
ion_dynamics = 'bfgs'
upscale = 1.0
/
&CELL
/

K_POINTS {automatic}
6 6 1 0 0 0

ATOMIC_SPECIES
C 12.01 C.pbe-n-rrkjus_psl.1.0.0.UPF
Ga 69.72 Ga.pbe-dnl-rrkjus_psl.1.0.0.UPF
O 15.99 O.pbe-n-rrkjus_psl.1.0.0.UPF
Sc 44.95 Sc.pbe-spn-rrkjus_psl.1.0.0.UPF

CELL_PARAMETERS {angstrom}
8.31483000 0.00000000 0.00000000
-0.00000000 8.31483000 0.00000000
0.00000000 0.00000000 26.23610000

ATOMIC_POSITIONS {angstrom}
Sc 0.00000000 0.00000000 -3.118160490000001 0 0 0
Sc 0.00000000 0.00000000 1.03947428
Sc 0.00000000 4.15741500 -3.118160490000001 0 0 0
Sc 0.00000000 4.15741500 1.03947428
Sc 4.15741500 0.00000000 -3.118160490000001 0 0 0
Sc 4.15741500 -0.00000000 1.03947428
Sc 4.15741500 4.15741500 -3.118160490000001 0 0 0
Sc 4.15741500 4.15741500 1.03947428
Ga 0.00000000 2.07870750 -1.0394742800000003 0 0 0
Ga 2.07870750 0.00000000 -1.0394742800000003 0 0 0
Ga 2.07870750 2.07870750 -3.118160490000001 0 0 0
Ga 0.00000000 2.07870750 3.11816048
Ga 2.07870750 -0.00000000 3.11816048
Ga 2.07870750 2.07870750 1.03947428
Ga 0.00000000 6.23612250 -1.0394742800000003 0 0 0
Ga 2.07870750 4.15741500 -1.0394742800000003 0 0 0
Ga 2.07870750 6.23612250 -3.118160490000001 0 0 0
Ga 0.00000000 6.23612250 3.11816048
Ga 2.07870750 4.15741500 3.11816048
Ga 2.07870750 6.23612250 1.03947428
Ga 4.15741500 2.07870750 -1.0394742800000003 0 0 0
Ga 6.23612250 0.00000000 -1.0394742800000003 0 0 0
Ga 6.23612250 2.07870750 -3.118160490000001 0 0 0
Ga 4.15741500 2.07870750 3.11816048
Ga 6.23612250 -0.00000000 3.11816048
Ga 6.23612250 2.07870750 1.03947428
Ga 4.15741500 6.23612250 -1.0394742800000003 0 0 0
Ga 6.23612250 4.15741500 -1.0394742800000003 0 0 0
Ga 6.23612250 6.23612250 -3.118160490000001 0 0 0
Ga 4.15741500 6.23612250 3.11816048
Ga 6.23612250 4.15741500 3.11816048
Ga 6.23612250 6.23612250 1.03947428
C 2.07870750 -0.00000000 5.01817885
O 2.07870750 -0.00000000 6.16810711
