&CONTROL
calculation = 'relax'
prefix = 'scf'
pseudo_dir = '/vol0004/mdt0/data/hp150275/u10028/POT_HYBRID_KKJUS_GBRV'
outdir = './data'
tprnfor = .true.
nstep = 50
disk_io = 'non'
/
&SYSTEM
ibrav = 0
ecutwfc = 50.0
ecutrho = 400
occupations = 'smearing'
smearing = 'mp'
degauss = 0.01
assume_isolated = 'esm'
esm_bc = 'bc1'
input_dft = 'BEEF-VDW'
nosym = .true.
nspin = 2
ntyp = 4
nat = 33
starting_magnetization(1) = 0.0
starting_magnetization(2) = 0.1
starting_magnetization(3) = 0.0
starting_magnetization(4) = 0.1
/
&ELECTRONS
electron_maxstep = 300
mixing_beta = 0.1
conv_thr = 1e-06
/
&IONS
ion_dynamics = 'bfgs'
upscale = 1.0
/
&CELL
/

K_POINTS {automatic}
9 6 2 0  0  0

ATOMIC_SPECIES
C 12.01 C.pbe-n-rrkjus_psl.1.0.0.UPF
Co 58.93 co_pbe_v1.2.uspp.F.UPF
Ge 72.64 Ge.pbe-dn-rrkjus_psl.1.0.0.UPF
Mn 54.93 mn_pbe_v1.5.uspp.F.UPF

CELL_PARAMETERS {angstrom}
5.75846000 0.00000000 0.00000000
0.00000000 8.14369000 0.00000000
0.00000000 0.00000000 26.10780000

ATOMIC_POSITIONS {angstrom}
Mn 0.00000000 0.00000000 -3.0538293700000025 0 0 0
Mn 2.87923000 2.03592250 -1.0179431200000018 0 0 0
Mn 2.87923000 6.10776750 -1.0179431200000018 0 0 0
Mn 0.00000000 4.07184500 -3.0538293700000025 0 0 0
Mn 0.00000000 4.07184500 0.96624968
Mn 2.87923000 6.04286229 3.17105339
Mn 2.87923000 2.10082771 3.17105339
Mn 0.00000000 0.00000000 1.00645569
Co 1.43961500 0.00000000 -1.0179431200000018 0 0 0
Co 4.31884500 4.07184500 -1.0179431200000018 0 0 0
Co 4.31884500 0.00000000 -1.0179431200000018 0 0 0
Co 1.43961500 4.07184500 -1.0179431200000018 0 0 0
Co 4.31884500 6.10776750 -3.0538293700000025 0 0 0
Co 1.43961500 2.03592250 -3.0538293700000025 0 0 0
Co 1.43961500 6.10776750 -3.0538293700000025 0 0 0
Co 4.31884500 2.03592250 -3.0538293700000025 0 0 0
Co 1.36204854 4.07184500 2.95096463
Co 4.26390929 0.00000000 3.03059342
Co 4.39646904 4.07184500 2.95096463
Co 1.49449312 0.00000000 3.03059342
Co 4.31337446 2.02452133 1.04587847
Co 1.44508554 6.11916867 1.04587847
Co 1.44508554 2.02460277 1.04587847
Co 4.31337446 6.11916867 1.04587847
Ge 0.00000000 6.10776750 -1.0179431200000018 0 0 0
Ge 2.87923000 0.00000000 -3.0538293700000025 0 0 0
Ge 0.00000000 2.03592250 -1.0179431200000018 0 0 0
Ge 2.87923000 4.07184500 -3.0538293700000025 0 0 0
Ge 0.00000000 2.10017621 3.09481861
Ge 2.87928758 4.07184500 1.03334672
Ge 0.00000000 6.04351379 3.09481861
Ge 2.87923000 0.00000000 0.94484128
C 0.00000000 0.00000000 3.94932691
