&CONTROL
calculation = 'relax'
prefix = 'scf'
pseudo_dir = '/vol0004/mdt0/data/hp150275/u10028/POT_HYBRID_KKJUS_GBRV'
outdir = './data'
tprnfor = .true.
nstep = 50
disk_io = 'non'
/
&SYSTEM
ibrav = 0
ecutwfc = 50.0
ecutrho = 400
occupations = 'smearing'
smearing = 'mp'
degauss = 0.01
assume_isolated = 'esm'
esm_bc = 'bc1'
input_dft = 'BEEF-VDW'
nosym = .true.
nspin = 2
ntyp = 5
nat = 34
starting_magnetization(1) = 0.0
starting_magnetization(2) = 0.1
starting_magnetization(3) = 0.0
starting_magnetization(4) = 0.0
starting_magnetization(5) = 0.0
/
&ELECTRONS
electron_maxstep = 300
mixing_beta = 0.1
conv_thr = 1e-06
/
&IONS
ion_dynamics = 'bfgs'
upscale = 1.0
/
&CELL
/

K_POINTS {automatic}
9 6 2 0  0  0

ATOMIC_SPECIES
C 12.01 C.pbe-n-rrkjus_psl.1.0.0.UPF
Co 58.93 co_pbe_v1.2.uspp.F.UPF
Ga 69.72 Ga.pbe-dnl-rrkjus_psl.1.0.0.UPF
O 15.99 O.pbe-n-rrkjus_psl.1.0.0.UPF
Ti 47.86 Ti.pbe-spn-rrkjus_psl.1.0.0.UPF

CELL_PARAMETERS {angstrom}
5.88011000 0.00000000 0.00000000
0.00000000 8.31574000 0.00000000
0.00000000 0.00000000 26.23680000

ATOMIC_POSITIONS {angstrom}
Ti 0.00000000 0.00000000 -3.118506049999997 0 0 0
Ti 2.94005500 2.07893500 -1.0395020200000005 0 0 0
Ti 2.94005500 6.23680500 -1.0395020200000005 0 0 0
Ti 0.00000000 4.15787000 -3.118506049999997 0 0 0
Ti 0.00000000 4.15787000 1.03950202
Ti 2.94005500 6.23680500 3.11850605
Ti 2.94005500 2.07893500 3.11850605
Ti 0.00000000 0.00000000 1.03950202
Ga 0.00000000 6.23680500 -1.0395020200000005 0 0 0
Ga 2.94005500 0.00000000 -3.118506049999997 0 0 0
Ga 0.00000000 2.07893500 -1.0395020200000005 0 0 0
Ga 2.94005500 4.15787000 -3.118506049999997 0 0 0
Ga 0.00000000 2.07893500 3.11850605
Ga 2.94005500 4.15787000 1.03950202
Ga 0.00000000 6.23680500 3.11850605
Ga 2.94005500 0.00000000 1.03950202
Co 1.47002750 0.00000000 -1.0395020200000005 0 0 0
Co 4.41008250 4.15787000 -1.0395020200000005 0 0 0
Co 4.41008250 0.00000000 -1.0395020200000005 0 0 0
Co 1.47002750 4.15787000 -1.0395020200000005 0 0 0
Co 4.41008250 6.23680500 -3.118506049999997 0 0 0
Co 1.47002750 2.07893500 -3.118506049999997 0 0 0
Co 1.47002750 6.23680500 -3.118506049999997 0 0 0
Co 4.41008250 2.07893500 -3.118506049999997 0 0 0
Co 1.47002750 4.15787000 3.11850605
Co 4.41008250 0.00000000 3.11850605
Co 4.41008250 4.15787000 3.11850605
Co 1.47002750 0.00000000 3.11850605
Co 4.41008250 2.07893500 1.03950202
Co 1.47002750 6.23680500 1.03950202
Co 1.47002750 2.07893500 1.03950202
Co 4.41008250 6.23680500 1.03950202
C 1.47002750 0.00000000 5.01831274
O 1.47002750 0.00000000 6.16827168
