&CONTROL
calculation = 'relax'
prefix = 'scf'
pseudo_dir = '/vol0004/mdt0/data/hp150275/u10028/POT_HYBRID_KKJUS_GBRV'
outdir = './data'
tprnfor = .true.
nstep = 70
disk_io = 'non'
/
&SYSTEM
ibrav = 0
ecutwfc = 50.0
ecutrho = 400
occupations = 'smearing'
smearing = 'mp'
degauss = 0.01
assume_isolated = 'esm'
esm_bc = 'bc1'
input_dft = 'BEEF-VDW'
nosym = .true.
nspin = 1
ntyp = 4
nat = 18
/
&ELECTRONS
electron_maxstep = 200
mixing_beta = 0.1
conv_thr = 1e-06
/
&IONS
ion_dynamics = 'bfgs'
upscale = 1.0
/
&CELL
/

K_POINTS {automatic}
10 10 2 0  0  0

ATOMIC_SPECIES
C 12.01 C.pbe-n-rrkjus_psl.1.0.0.UPF
Ir 192.2 Ir.pbe-n-rrkjus_psl.0.2.3.UPF
O 15.99 O.pbe-n-rrkjus_psl.1.0.0.UPF
V 50.94 V.pbe-spnl-rrkjus_psl.1.0.0.UPF

CELL_PARAMETERS {angstrom}
5.52004000 0.00000000 0.00000000
-0.00000000 5.52004000 0.00000000
0.00000000 0.00000000 25.54310000

ATOMIC_POSITIONS {angstrom}
V 0.00000000 0.00000000 -2.23476582 0 0 0
V 0.00000000 0.00000000 1.46055446
V 0.00000000 2.76002000 -2.23476582 0 0 0
V 0.00000000 2.76002000 1.46055446
V 2.76002000 0.00000000 -2.23476582 0 0 0
V 2.76002000 -0.00000000 1.46055446
V 2.76002000 2.76002000 -2.23476582 0 0 0
V 2.76002000 2.76002000 1.46055446
Ir 1.38001000 1.38001000 -0.3869779700000002 0 0 0
Ir 1.38001000 1.38001000 3.30834231
Ir 1.38001000 4.14003000 -0.3869779700000002 0 0 0
Ir 1.38001000 4.14003000 3.30834231
Ir 4.14003000 1.38001000 -0.3869779700000002 0 0 0
Ir 4.14003000 1.38001000 3.30834231
Ir 4.14003000 4.14003000 -0.3869779700000002 0 0 0
Ir 4.14003000 4.14003000 3.30834231
C 1.38001000 1.38001000 5.20823809
O 1.38001000 1.38001000 6.35818845
