&CONTROL
calculation = 'relax'
prefix = 'scf'
pseudo_dir = '/vol0403/data/hp230205/u10028/POT_HYBRID_KKJUS_GBRV'
outdir = './data'
tprnfor = .true.
nstep = 50
disk_io = 'non'
/
&SYSTEM
ibrav = 0
ecutwfc = 50.0
ecutrho = 400
occupations = 'smearing'
smearing = 'mp'
degauss = 0.01
assume_isolated = 'esm'
esm_bc = 'bc1'
input_dft = 'BEEF-VDW'
nosym = .true.
nspin = 2
ntyp = 6
nat = 34
starting_magnetization(1) = 0.0
starting_magnetization(2) = 0.0
starting_magnetization(3) = 0.0
starting_magnetization(4) = 0.1
starting_magnetization(5) = 0.0
starting_magnetization(6) = 0.0
/
&ELECTRONS
electron_maxstep = 200
mixing_beta = 0.1
conv_thr = 1e-06
/
&IONS
ion_dynamics = 'bfgs'
upscale = 1.0
/
&CELL
/

K_POINTS {automatic}
9 6 2 0  0  0

ATOMIC_SPECIES
Al 26.98 Al.pbe-nl-rrkjus_psl.1.0.0.UPF
C 12.01 C.pbe-n-rrkjus_psl.1.0.0.UPF
Li 6.941 Li.pbe-sl-rrkjus_psl.1.0.0.UPF
Mn 54.93 mn_pbe_v1.5.uspp.F.UPF
O 15.99 O.pbe-n-rrkjus_psl.1.0.0.UPF
Pd 106.4 Pd.pbe-n-rrkjus_psl.1.0.0.UPF


CELL_PARAMETERS {angstrom}
6.10222000 0.00000000 0.00000000
0.00000000 8.62984000 0.00000000
0.00000000 0.00000000 26.47240000

ATOMIC_POSITIONS {angstrom}
Li 0.00000000 2.15746000 25.39364970
Li 0.00000000 6.47238000 25.39364970
Li 3.05111000 4.31492000 23.23614910
Li 3.05111000 0.00000000 23.23614910
Li 5.98054173 6.47229370 3.58409824
Li 5.96614049 2.15754630 3.50282797
Li 3.03933272 8.62405801 0.98133187
Li 3.03945476 4.32061569 0.98106714
Mn 1.52555500 0.00000000 25.39364970
Mn 1.52555500 4.31492000 25.39364970
Mn 4.57666500 2.15746000 23.23614910
Mn 4.57666500 6.47238000 23.23614910
Mn 1.56387694 4.37204954 3.17748217
Mn 1.56381592 8.57271046 3.17801162
Mn 4.61083743 6.47238000 1.10601687
Mn 4.60534543 2.15737370 1.10098712
Al 0.00000000 0.00000000 23.23614910
Al 0.00000000 4.31492000 23.23614910
Al 3.05111000 6.47238000 25.39364970
Al 3.05111000 2.15746000 25.39364970
Al 0.02721590 4.31353923 1.03295305
Al 0.02752101 0.00138077 1.03268832
Al 3.11982100 2.15746000 3.24631041
Al 3.08290257 6.47246630 3.25372268
Pd 4.57666500 0.00000000 25.39364970
Pd 4.57666500 4.31492000 25.39364970
Pd 1.52555500 2.15746000 23.23614910
Pd 1.52555500 6.47238000 23.23614910
Pd 4.49837352 4.33148929 3.00567630
Pd 4.49849556 8.61335701 3.00620574
Pd 1.50279372 6.47220740 1.07742668
Pd 1.51957482 2.15754630 1.16796229
C 2.72439714 2.15737370 5.17535420
O 2.57879817 2.15746000 6.32822722
