&CONTROL
calculation = 'relax'
prefix = 'scf'
pseudo_dir = '/vol0403/data/hp230205/u10028/POT_HYBRID_KKJUS_GBRV'
outdir = './data'
tprnfor = .true.
nstep = 50
disk_io = 'non'
/
&SYSTEM
ibrav = 0
ecutwfc = 50.0
ecutrho = 400
occupations = 'smearing'
smearing = 'mp'
degauss = 0.01
assume_isolated = 'esm'
esm_bc = 'bc1'
input_dft = 'BEEF-VDW'
nosym = .true.
nspin = 1
ntyp = 5
nat = 33
/
&ELECTRONS
electron_maxstep = 200
mixing_beta = 0.1
conv_thr = 1e-06
/
&IONS
ion_dynamics = 'bfgs'
upscale = 1.0
/
&CELL
/

K_POINTS {automatic}
8 8 1 0 0 0

ATOMIC_SPECIES
C 12.01 C.pbe-n-rrkjus_psl.1.0.0.UPF
Ge 72.64 Ge.pbe-dn-rrkjus_psl.1.0.0.UPF
Li 6.941 Li.pbe-sl-rrkjus_psl.1.0.0.UPF
Pd 106.4 Pd.pbe-n-rrkjus_psl.1.0.0.UPF
Pt 195.0 Pt.pbe-n-rrkjus_psl.1.0.0.UPF


CELL_PARAMETERS {angstrom}
6.12898000 0.00000000 0.00000000
0.00000000 8.66768000 0.00000000
0.00000000 0.00000000 26.50080000

ATOMIC_POSITIONS {angstrom}
Li 0.00000000 2.16692000 -1.0833527000000025 0 0 0
Li 0.00000000 6.50076000 -1.0833527000000025 0 0 0
Li 3.06449000 4.33384000 -3.250323120000001 0 0 0
Li 3.06449000 0.00000000 -3.250323120000001 0 0 0
Li 0.04455768 6.39605443 4.16168563
Li 0.10210881 2.05077309 3.63776482
Li 3.08201888 8.63370269 1.10720342
Li 3.08195759 4.29396867 1.02982109
Ge 0.00000000 0.00000000 -3.250323120000001 0 0 0
Ge 0.00000000 4.33384000 -3.250323120000001 0 0 0
Ge 3.06449000 6.50076000 -1.0833527000000025 0 0 0
Ge 3.06449000 2.16692000 -1.0833527000000025 0 0 0
Ge 0.01734501 4.24863671 1.02637598
Ge 6.08503521 8.66637985 1.09713312
Ge 3.13852808 2.53148262 3.32956051
Ge 3.06743191 6.32887991 3.11278397
Pd 4.59673500 0.00000000 -1.0833527000000025 0 0 0
Pd 4.59673500 4.33384000 -1.0833527000000025 0 0 0
Pd 1.53224500 2.16692000 -3.250323120000001 0 0 0
Pd 1.53224500 6.50076000 -3.250323120000001 0 0 0
Pd 4.70950823 4.40638848 3.12894946
Pd 4.52275821 8.42489828 3.28556918
Pd 1.48584862 6.49165894 1.00252526
Pd 1.55657705 2.08657061 1.12972910
Pt 1.53224500 0.00000000 -1.0833527000000025 0 0 0
Pt 1.53224500 4.33384000 -1.0833527000000025 0 0 0
Pt 4.59673500 2.16692000 -3.250323120000001 0 0 0
Pt 4.59673500 6.50076000 -3.250323120000001 0 0 0
Pt 1.50564523 4.38133889 3.07939296
Pt 1.45477469 8.38207994 3.16366550
Pt 4.61990254 6.47562373 1.02134083
Pt 4.61156713 2.11084011 1.15225478
C 2.85273374 0.77038340 4.00241582
