&CONTROL
calculation = 'relax'
prefix = 'scf'
pseudo_dir = '/vol0403/data/hp230205/u10028/POT_HYBRID_KKJUS_GBRV'
outdir = './data'
tprnfor = .true.
nstep = 50
disk_io = 'non'
/
&SYSTEM
ibrav = 0
ecutwfc = 50.0
ecutrho = 400
occupations = 'smearing'
smearing = 'mp'
degauss = 0.01
assume_isolated = 'esm'
esm_bc = 'bc1'
input_dft = 'BEEF-VDW'
nosym = .true.
nspin = 1
ntyp = 5
nat = 33
/
&ELECTRONS
electron_maxstep = 200
mixing_beta = 0.1
conv_thr = 1e-06
/
&IONS
ion_dynamics = 'bfgs'
upscale = 1.0
/
&CELL
/

K_POINTS {automatic}
9 6 2 0  0  0

ATOMIC_SPECIES
C 12.01 C.pbe-n-rrkjus_psl.1.0.0.UPF
Ge 72.64 Ge.pbe-dn-rrkjus_psl.1.0.0.UPF
Li 6.941 Li.pbe-sl-rrkjus_psl.1.0.0.UPF
Pd 106.4 Pd.pbe-n-rrkjus_psl.1.0.0.UPF
Pt 195.0 Pt.pbe-n-rrkjus_psl.1.0.0.UPF


CELL_PARAMETERS {angstrom}
6.12898000 0.00000000 0.00000000
0.00000000 8.66768000 0.00000000
0.00000000 0.00000000 26.50080000

ATOMIC_POSITIONS {angstrom}
Li 0.00000000 2.16692000 -1.0833527000000025 0 0 0
Li 0.00000000 6.50076000 -1.0833527000000025 0 0 0
Li 3.06449000 4.33384000 -3.250323120000001 0 0 0
Li 3.06449000 0.00000000 -3.250323120000001 0 0 0
Li 0.04455768 6.39536101 4.16195064
Li 0.10125075 2.05111980 3.63802982
Li 3.08128341 8.63387605 1.10773344
Li 3.08232533 4.29379532 1.03035110
Ge 0.00000000 0.00000000 -3.250323120000001 0 0 0
Ge 0.00000000 4.33384000 -3.250323120000001 0 0 0
Ge 3.06449000 6.50076000 -1.0833527000000025 0 0 0
Ge 3.06449000 2.16692000 -1.0833527000000025 0 0 0
Ge 0.01660954 4.24993686 1.02796603
Ge 6.08436103 8.66585979 1.09554307
Ge 3.13816034 2.53070253 3.33009053
Ge 3.06694159 6.32775311 3.11145893
Pd 4.59673500 0.00000000 -1.0833527000000025 0 0 0
Pd 4.59673500 4.33384000 -1.0833527000000025 0 0 0
Pd 1.53224500 2.16692000 -3.250323120000001 0 0 0
Pd 1.53224500 6.50076000 -3.250323120000001 0 0 0
Pd 4.70963081 4.40708190 3.12974448
Pd 4.52171628 8.42533167 3.28530418
Pd 1.48603249 6.49174561 1.00173024
Pd 1.55682221 2.08648393 1.12999411
Pt 1.53224500 0.00000000 -1.0833527000000025 0 0 0
Pt 1.53224500 4.33384000 -1.0833527000000025 0 0 0
Pt 4.59673500 2.16692000 -3.250323120000001 0 0 0
Pt 4.59673500 6.50076000 -3.250323120000001 0 0 0
Pt 1.50497104 4.38090550 3.07833293
Pt 1.45428437 8.38294671 3.16525555
Pt 4.62002512 6.47579708 1.02134083
Pt 4.61168971 2.11066676 1.15251979
C 2.85267245 0.77055675 4.00241582
