&CONTROL
calculation = 'relax'
prefix = 'scf'
pseudo_dir = '/vol0004/mdt0/data/hp150275/u10028/POT_KKJUS'
outdir = './data'
tprnfor = .true.
nstep = 50
disk_io = 'non'
/
&SYSTEM
ibrav = 0
ecutwfc = 50.0
ecutrho = 400
occupations = 'smearing'
smearing = 'mp'
degauss = 0.01
assume_isolated = 'esm'
esm_bc = 'bc1'
input_dft = 'BEEF-VDW'
nosym = .true.
nspin = 1
ntyp = 5
nat = 18
/
&ELECTRONS
electron_maxstep = 200
mixing_beta = 0.1
conv_thr = 1e-06
/
&IONS
ion_dynamics = 'bfgs'
upscale = 1.0
/
&CELL
/

K_POINTS {automatic}
8 8 1 0 0 0

ATOMIC_SPECIES
C 12.01 C.pbe-n-rrkjus_psl.1.0.0.UPF
Ge 72.64 Ge.pbe-dn-rrkjus_psl.1.0.0.UPF
Li 6.941 Li.pbe-sl-rrkjus_psl.1.0.0.UPF
O 15.99 O.pbe-n-rrkjus_psl.1.0.0.UPF
Sn 118.7 Sn.pbe-dn-rrkjus_psl.1.0.0.UPF

CELL_PARAMETERS {angstrom}
6.92564000 0.00000000 0.00000000
0.00000000 6.92564000 0.00000000
0.00000000 0.00000000 25.19420000

ATOMIC_POSITIONS {angstrom}
Li 6.92377008 0.00193918 0.82611782
Li 3.46282000 0.00000000 -2.5970181399999994 0 0 0
Li 0.00000000 3.46282000 -2.5970181399999994 0 0 0
Li 3.46482844 3.46081156 0.82662170
Li 1.73141000 1.73141000 -0.8656727099999983 0 0 0
Li 1.73141000 5.19395297 2.47129908
Li 5.19423000 5.19423000 -0.8656727099999983 0 0 0
Li 5.19464554 1.73134074 2.52848991
Sn 0.00000000 0.00000000 -2.5970181399999994 0 0 0
Sn 3.46282000 3.46282000 -2.5970181399999994 0 0 0
Sn 3.46933010 0.00664861 0.72382937
Sn 6.91906064 3.45624064 0.72357742
Ge 1.73127149 1.73154851 2.27805956
Ge 1.73141000 5.19423000 -0.8656727099999983 0 0 0
Ge 5.19423000 5.19423000 2.27805956
Ge 5.19423000 1.73141000 -0.8656727099999983 0 0 0
C 5.19429926 1.73147926 4.64606242
O 5.19429926 1.73147926 5.78358055
