&CONTROL
calculation = 'relax'
prefix = 'scf'
pseudo_dir = '/vol0403/data/hp230205/u10028/POT_HYBRID_KKJUS_GBRV'
outdir = './data'
tprnfor = .true.
nstep = 50
disk_io = 'non'
/
&SYSTEM
ibrav = 0
ecutwfc = 50.0
ecutrho = 400
occupations = 'smearing'
smearing = 'mp'
degauss = 0.01
assume_isolated = 'esm'
esm_bc = 'bc1'
input_dft = 'BEEF-VDW'
nosym = .true.
nspin = 1
ntyp = 6
nat = 18
/
&ELECTRONS
electron_maxstep = 200
mixing_beta = 0.1
conv_thr = 1e-06
/
&IONS
ion_dynamics = 'bfgs'
upscale = 1.0
/
&CELL
/

K_POINTS {automatic}
8 8 1 0 0 0

ATOMIC_SPECIES
C 12.01 C.pbe-n-rrkjus_psl.1.0.0.UPF
Li 6.941 Li.pbe-sl-rrkjus_psl.1.0.0.UPF
O 15.99 O.pbe-n-rrkjus_psl.1.0.0.UPF
Pd 106.4 Pd.pbe-n-rrkjus_psl.1.0.0.UPF
Sn 118.7 Sn.pbe-dn-rrkjus_psl.1.0.0.UPF
Y 88.90 Y.pbe-spn-rrkjus_psl.1.0.0.UPF


CELL_PARAMETERS {angstrom}
6.77715000 0.00000000 0.00000000
0.00000000 6.77715000 0.00000000
0.00000000 0.00000000 25.08290000

ATOMIC_POSITIONS {angstrom}
Li 0.00000000 6.77708223 3.02725520
Li 0.00000000 3.38857500 -0.8470495299999996 0 0 0
Li 3.38857500 0.00000000 -0.8470495299999996 0 0 0
Li 3.38857500 3.38857500 3.01471375
Y 1.69909928 1.68812029 0.84504290
Y 1.69428750 5.08286250 -2.5413994299999985 0 0 0
Y 5.08286250 1.69428750 -2.5413994299999985 0 0 0
Y 5.07805072 5.08902971 0.84504290
Sn 5.11064881 1.72187050 0.97622647
Sn 5.08286250 5.08286250 -2.5413994299999985 0 0 0
Sn 1.69428750 1.69428750 -2.5413994299999985 0 0 0
Sn 1.66650118 5.05527950 0.97622647
Pd 0.00000000 3.38857500 2.56146575
Pd 0.00000000 0.00000000 -0.8470495299999996 0 0 0
Pd 3.38857500 3.38857500 -0.8470495299999996 0 0 0
Pd 3.38857500 0.00000000 2.31063675
C 0.00000000 3.38857500 4.51567449
O 0.00000000 3.38857500 5.67676193
