&CONTROL
calculation = 'relax'
prefix = 'scf'
pseudo_dir = '/vol0004/mdt0/data/hp150275/u10028/POT_KKJUS'
outdir = './data'
tprnfor = .true.
nstep = 50
disk_io = 'non'
/
&SYSTEM
ibrav = 0
ecutwfc = 50.0
ecutrho = 400
occupations = 'smearing'
smearing = 'mp'
degauss = 0.01
assume_isolated = 'esm'
esm_bc = 'bc1'
input_dft = 'BEEF-VDW'
nosym = .true.
nspin = 1
ntyp = 5
nat = 18
/
&ELECTRONS
electron_maxstep = 200
mixing_beta = 0.1
conv_thr = 1e-06
/
&IONS
ion_dynamics = 'bfgs'
upscale = 1.0
/
&CELL
/

K_POINTS {automatic}
8 8 1 0 0 0

ATOMIC_SPECIES
Al 26.98 Al.pbe-nl-rrkjus_psl.1.0.0.UPF
C 12.01 C.pbe-n-rrkjus_psl.1.0.0.UPF
O 15.99 O.pbe-n-rrkjus_psl.1.0.0.UPF
Pd 106.4 Pd.pbe-n-rrkjus_psl.1.0.0.UPF
Zr 91.22 Zr.pbe-spn-rrkjus_psl.1.0.0.UPF

CELL_PARAMETERS {angstrom}
6.48931000 0.00000000 0.00000000
-0.00000000 6.48931000 0.00000000
0.00000000 0.00000000 24.86700000

ATOMIC_POSITIONS {angstrom}
Zr 0.00000000 0.00000000 2.43348462
Zr 3.24465500 3.24465500 2.43348462
Zr 3.24465500 0.00000000 -0.8111615400000005 0 0 0
Zr 0.00000000 3.24465500 -0.8111615400000005 0 0 0
Al 0.00000000 0.00000000 -0.8111615400000005 0 0 0
Al 3.24465500 -0.00000000 2.43348462
Al 0.00000000 3.24465500 2.43348462
Al 3.24465500 3.24465500 -0.8111615400000005 0 0 0
Pd 1.62232750 1.62232750 0.81116154
Pd 4.86698250 4.86698250 -2.4334846200000015 0 0 0
Pd 4.86698250 1.62232750 0.81116154
Pd 1.62232750 4.86698250 -2.4334846200000015 0 0 0
Pd 4.86698250 4.86698250 0.81116154
Pd 1.62232750 1.62232750 -2.4334846200000015 0 0 0
Pd 1.62232750 4.86698250 0.81116154
Pd 4.86698250 1.62232750 -2.4334846200000015 0 0 0
C 0.00000000 0.00000000 4.33357209
O 0.00000000 0.00000000 5.48342217
