&CONTROL
calculation = 'relax'
prefix = 'scf'
pseudo_dir = '/vol0004/mdt0/data/hp150275/u10028/POT_KKJUS'
outdir = './data'
tprnfor = .true.
nstep = 50
disk_io = 'non'
/
&SYSTEM
ibrav = 0
ecutwfc = 50.0
ecutrho = 400
occupations = 'smearing'
smearing = 'mp'
degauss = 0.01
assume_isolated = 'esm'
esm_bc = 'bc1'
input_dft = 'BEEF-VDW'
nosym = .true.
nspin = 1
ntyp = 5
nat = 34
/
&ELECTRONS
electron_maxstep = 200
mixing_beta = 0.1
conv_thr = 1e-06
/
&IONS
ion_dynamics = 'bfgs'
upscale = 1.0
/
&CELL
/

K_POINTS {automatic}
8 6 1 0 0 0

ATOMIC_SPECIES
C 12.01 C.pbe-n-rrkjus_psl.1.0.0.UPF
In 114.8 In.pbe-dn-rrkjus_psl.1.0.0.UPF
Mg 24.30 Mg.pbe-spnl-rrkjus_psl.1.0.0.UPF
Ni 58.69 Ni.pbe-spn-rrkjus_psl.1.0.0.UPF
O 15.99 O.pbe-n-rrkjus_psl.1.0.0.UPF

CELL_PARAMETERS {angstrom}
6.24448000 0.00000000 0.00000000
0.00000000 8.83103000 0.00000000
0.00000000 0.00000000 26.62330000

ATOMIC_POSITIONS {angstrom}
Mg 0.00000000 0.00000000 -3.3116722900000006 0 0 0
Mg 3.12224000 2.20775750 -1.1038020199999998 0 0 0
Mg 3.12224000 6.62327250 -1.1038020199999998 0 0 0
Mg 0.00000000 4.41551500 -3.3116722900000006 0 0 0
Mg 0.00000000 4.41383710 1.02313342
Mg 3.12224000 6.62256602 3.41683432
Mg 3.12224000 2.20846398 3.42029535
Mg 0.00000000 0.00167790 1.02339965
In 0.00000000 6.62327250 -1.1038020199999998 0 0 0
In 3.12224000 0.00000000 -3.3116722900000006 0 0 0
In 0.00000000 2.20775750 -1.1038020199999998 0 0 0
In 3.12224000 4.41551500 -3.3116722900000006 0 0 0
In 0.00006244 2.20740426 3.51773663
In 3.12224000 4.42090193 1.10353579
In 0.00000000 6.62353743 3.55847028
In 3.12224000 8.82573138 1.10353579
Ni 1.56112000 0.00000000 -1.1038020199999998 0 0 0
Ni 4.68336000 4.41551500 -1.1038020199999998 0 0 0
Ni 4.68336000 0.00000000 -1.1038020199999998 0 0 0
Ni 1.56112000 4.41551500 -1.1038020199999998 0 0 0
Ni 4.68336000 6.62327250 -3.3116722900000006 0 0 0
Ni 1.56112000 2.20775750 -3.3116722900000006 0 0 0
Ni 1.56112000 6.62327250 -3.3116722900000006 0 0 0
Ni 4.68336000 2.20775750 -3.3116722900000006 0 0 0
Ni 1.43004836 4.41913572 3.13090008
Ni 4.81355741 8.82740928 3.13116631
Ni 4.81443164 4.41904741 3.13116631
Ni 1.43098504 8.82740928 3.13116631
Ni 4.69528696 2.20775750 1.15012656
Ni 1.53383162 6.62336081 1.15758108
Ni 1.54925549 2.20775750 1.15012656
Ni 4.71071082 6.62336081 1.15731485
C 6.24329355 2.20581467 7.39914754
O 0.00018733 2.20793412 8.53436505
