&CONTROL
calculation = 'relax'
prefix = 'scf'
pseudo_dir = '/vol0004/mdt0/data/hp150275/u10028/POT_KKJUS'
outdir = './data'
tprnfor = .true.
nstep = 50
disk_io = 'non'
/
&SYSTEM
ibrav = 0
ecutwfc = 50.0
ecutrho = 400
occupations = 'smearing'
smearing = 'mp'
degauss = 0.01
assume_isolated = 'esm'
esm_bc = 'bc1'
input_dft = 'BEEF-VDW'
nosym = .true.
nspin = 1
ntyp = 5
nat = 18
/
&ELECTRONS
electron_maxstep = 200
mixing_beta = 0.1
conv_thr = 1e-06
/
&IONS
ion_dynamics = 'bfgs'
upscale = 1.0
/
&CELL
/

K_POINTS {automatic}
8 8 1 0 0 0

ATOMIC_SPECIES
C 12.01 C.pbe-n-rrkjus_psl.1.0.0.UPF
In 114.8 In.pbe-dn-rrkjus_psl.1.0.0.UPF
Ir 192.2 Ir.pbe-n-rrkjus_psl.0.2.3.UPF
Li 6.941 Li.pbe-sl-rrkjus_psl.1.0.0.UPF
O 15.99 O.pbe-n-rrkjus_psl.1.0.0.UPF

CELL_PARAMETERS {angstrom}
6.57920000 0.00000000 0.00000000
0.00000000 6.57920000 0.00000000
0.00000000 0.00000000 24.93440000

ATOMIC_POSITIONS {angstrom}
Li 0.00000000 0.00000000 -2.4672588799999993 0 0 0
Li 3.28960000 3.28960000 -2.4672588799999993 0 0 0
Li 3.36091853 6.50774989 0.78668032
Li 6.50781568 3.36131328 0.78668032
In 1.64480000 1.64480000 -0.8223365099999995 0 0 0
In 4.93440000 4.93446579 2.76073677
In 4.93440000 1.64480000 -0.8223365099999995 0 0 0
In 1.64486579 4.93453158 2.52635341
In 4.93440000 4.93440000 -0.8223365099999995 0 0 0
In 1.64473421 1.64499738 2.36303309
In 1.64480000 4.93440000 -0.8223365099999995 0 0 0
In 4.93440000 1.64486579 2.52585472
Ir 6.57123917 6.57130496 0.79864883
Ir 3.28960000 0.00000000 -2.4672588799999993 0 0 0
Ir 0.00000000 3.28960000 -2.4672588799999993 0 0 0
Ir 3.29769242 3.29762662 0.79864883
C 1.64440525 1.64170778 5.63442637
O 1.64512896 1.64558950 6.76944026
