&CONTROL
calculation = 'relax'
prefix = 'scf'
pseudo_dir = '/vol0004/mdt0/data/hp150275/u10028/POT_HYBRID_KKJUS_GBRV'
outdir = './data'
tprnfor = .true.
nstep = 50
disk_io = 'non'
/
&SYSTEM
ibrav = 0
ecutwfc = 50.0
ecutrho = 400
occupations = 'smearing'
smearing = 'mp'
degauss = 0.01
assume_isolated = 'esm'
esm_bc = 'bc1'
input_dft = 'BEEF-VDW'
nosym = .true.
nspin = 2
ntyp = 5
nat = 34
starting_magnetization(1) = 0.0
starting_magnetization(2) = 0.0
starting_magnetization(3) = 0.0
starting_magnetization(4) = 0.001
starting_magnetization(5) = 0.0
/
&ELECTRONS
electron_maxstep = 300
mixing_beta = 0.1
conv_thr = 1e-06
/
&IONS
ion_dynamics = 'bfgs'
upscale = 1.0
/
&CELL
/

K_POINTS {automatic}
9 6 2 0  0  0

ATOMIC_SPECIES
C 12.01 C.pbe-n-rrkjus_psl.1.0.0.UPF
In 114.8 In.pbe-dn-rrkjus_psl.1.0.0.UPF
Mg 24.30 Mg.pbe-spnl-rrkjus_psl.1.0.0.UPF
Ni 58.69 ni_pbe_v1.4.uspp.F.UPF
O 15.99 O.pbe-n-rrkjus_psl.1.0.0.UPF

CELL_PARAMETERS {angstrom}
6.23499000 0.00000000 0.00000000
0.00000000 8.81761000 0.00000000
0.00000000 0.00000000 26.61320000

ATOMIC_POSITIONS {angstrom}
Mg 0.00000000 0.00000000 -3.306690100000001 0 0 0
Mg 3.11749500 2.20440250 -1.1023187399999976 0 0 0
Mg 3.11749500 6.61320750 -1.1023187399999976 0 0 0
Mg 0.00000000 4.40880500 -3.306690100000001 0 0 0
Mg 0.00000000 4.40016374 1.01263226
Mg 3.11749500 6.61294297 3.41287677
Mg 3.11749500 2.20484338 3.41101384
Mg 0.00000000 0.00881761 1.01210000
In 0.00000000 6.61320750 -1.1023187399999976 0 0 0
In 3.11749500 0.00000000 -3.306690100000001 0 0 0
In 0.00000000 2.20440250 -1.1023187399999976 0 0 0
In 3.11749500 4.40880500 -3.306690100000001 0 0 0
In 0.00000000 2.20440250 3.52917645
In 3.11749500 4.41823984 1.09912516
In 0.00000000 6.61320750 3.56324135
In 3.11749500 8.80826333 1.09912516
Ni 1.55874750 0.00000000 -1.1023187399999976 0 0 0
Ni 4.67624250 4.40880500 -1.1023187399999976 0 0 0
Ni 4.67624250 0.00000000 -1.1023187399999976 0 0 0
Ni 1.55874750 4.40880500 -1.1023187399999976 0 0 0
Ni 4.67624250 6.61320750 -3.306690100000001 0 0 0
Ni 1.55874750 2.20440250 -3.306690100000001 0 0 0
Ni 1.55874750 6.61320750 -3.306690100000001 0 0 0
Ni 4.67624250 2.20440250 -3.306690100000001 0 0 0
Ni 1.41278638 4.41180299 3.11347827
Ni 4.82189187 8.81478836 3.11347827
Ni 4.82226597 4.41180299 3.11347827
Ni 1.41309813 8.81478836 3.11347827
Ni 4.68983478 2.20431432 1.15368222
Ni 1.51678602 6.61329568 1.16778722
Ni 1.54515522 2.20431432 1.15368222
Ni 4.71820398 6.61338385 1.16778722
C 6.23424180 2.20166904 7.52514843
O 0.00006235 2.20466703 8.65860462
