&CONTROL
calculation = 'relax'
prefix = 'scf'
pseudo_dir = '/vol0004/mdt0/data/hp150275/u10028/POT_KKJUS'
outdir = './data'
tprnfor = .true.
nstep = 50
disk_io = 'non'
/
&SYSTEM
ibrav = 0
ecutwfc = 50.0
ecutrho = 400
occupations = 'smearing'
smearing = 'mp'
degauss = 0.01
assume_isolated = 'esm'
esm_bc = 'bc1'
input_dft = 'BEEF-VDW'
nosym = .true.
nspin = 1
ntyp = 4
nat = 33
/
&ELECTRONS
electron_maxstep = 200
mixing_beta = 0.1
conv_thr = 1e-06
/
&IONS
ion_dynamics = 'bfgs'
upscale = 1.0
/
&CELL
/

K_POINTS {automatic}
8 6 1 0 0 0

ATOMIC_SPECIES
Al 26.98 Al.pbe-nl-rrkjus_psl.1.0.0.UPF
C 12.01 C.pbe-n-rrkjus_psl.1.0.0.UPF
Ti 47.86 Ti.pbe-spn-rrkjus_psl.1.0.0.UPF
Zr 91.22 Zr.pbe-spn-rrkjus_psl.1.0.0.UPF

CELL_PARAMETERS {angstrom}
6.81091000 0.00000000 0.00000000
0.00000000 9.63207000 0.00000000
0.00000000 0.00000000 27.22410000

ATOMIC_POSITIONS {angstrom}
Zr 1.70272750 0.00000000 -1.2041219400000003 0 0 0
Zr 5.10818250 4.81603500 -1.2041219400000003 0 0 0
Zr 5.10818250 0.00000000 -1.2041219400000003 0 0 0
Zr 1.70272750 4.81603500 -1.2041219400000003 0 0 0
Zr 5.10818250 7.22405250 -3.6120935900000006 0 0 0
Zr 1.70272750 2.40801750 -3.6120935900000006 0 0 0
Zr 1.70272750 7.22405250 -3.6120935900000006 0 0 0
Zr 5.10818250 2.40801750 -3.6120935900000006 0 0 0
Zr 1.44977030 4.81603500 3.43050884
Zr 4.76559373 0.00000000 3.63468959
Zr 5.36113970 4.81603500 3.43050884
Zr 2.04531627 0.00000000 3.63468959
Zr 5.10470894 2.38567110 1.26537617
Zr 1.70620106 7.24630258 1.26537617
Zr 1.70620106 2.38567110 1.26537617
Zr 5.10470894 7.24630258 1.26537617
Ti 0.00000000 0.00000000 -3.6120935900000006 0 0 0
Ti 3.40545500 2.40801750 -1.2041219400000003 0 0 0
Ti 3.40545500 7.22405250 -1.2041219400000003 0 0 0
Ti 0.00000000 4.81603500 -3.6120935900000006 0 0 0
Ti 0.00000000 4.81593868 0.99122948
Ti 3.40545500 6.89338354 3.62597788
Ti 3.40545500 2.73887910 3.62625012
Ti 0.00000000 0.00000000 1.65876441
Al 0.00000000 7.22405250 -1.2041219400000003 0 0 0
Al 3.40545500 0.00000000 -3.6120935900000006 0 0 0
Al 0.00000000 2.40801750 -1.2041219400000003 0 0 0
Al 3.40545500 4.81603500 -3.6120935900000006 0 0 0
Al 0.00000000 2.12685738 3.69458261
Al 3.40545500 4.81603500 1.26973202
Al 0.00000000 7.50530894 3.69458261
Al 3.40545500 9.63197368 1.06800144
C 0.00000000 0.00000000 4.00738752
