&CONTROL
calculation = 'relax'
prefix = 'scf'
pseudo_dir = '/vol0004/mdt0/data/hp150275/u10028/POT_KKJUS'
outdir = './data'
tprnfor = .true.
nstep = 50
disk_io = 'non'
/
&SYSTEM
ibrav = 0
ecutwfc = 50.0
ecutrho = 400
occupations = 'smearing'
smearing = 'mp'
degauss = 0.01
assume_isolated = 'esm'
esm_bc = 'bc1'
input_dft = 'BEEF-VDW'
nosym = .true.
nspin = 1
ntyp = 4
nat = 18
/
&ELECTRONS
electron_maxstep = 200
mixing_beta = 0.1
conv_thr = 1e-06
/
&IONS
ion_dynamics = 'bfgs'
upscale = 1.0
/
&CELL
/

K_POINTS {automatic}
9 9 2 0  0  0

ATOMIC_SPECIES
Au 196.9 Au.pbe-n-rrkjus_psl.1.0.0.UPF
C 12.01 C.pbe-n-rrkjus_psl.1.0.0.UPF
Mg 24.30 Mg.pbe-spnl-rrkjus_psl.1.0.0.UPF
O 15.99 O.pbe-n-rrkjus_psl.1.0.0.UPF

CELL_PARAMETERS {angstrom}
6.67495000 0.00000000 0.00000000
0.00000000 6.67495000 0.00000000
0.00000000 0.00000000 25.00620000

ATOMIC_POSITIONS {angstrom}
Mg 0.00000000 0.00000000 -1.8519591700000007 0 0 0
Mg 6.67167927 6.67207977 1.53913161
Mg 0.00000000 3.33747500 -1.8519591700000007 0 0 0
Mg 0.02182709 3.33013256 1.57814128
Mg 3.33747500 0.00000000 -1.8519591700000007 0 0 0
Mg 3.33066655 0.02209408 1.57814128
Mg 3.33747500 3.33747500 -1.8519591700000007 0 0 0
Mg 3.33059980 3.33019930 1.59939655
Au 1.66873750 1.66873750 -0.18329544999999925 0 0 0
Au 1.56774551 1.56754526 3.20179385
Au 1.66873750 5.00621250 -0.18329544999999925 0 0 0
Au 1.66499953 5.04933268 3.08801564
Au 5.00621250 1.66873750 -0.18329544999999925 0 0 0
Au 5.04959967 1.66519978 3.08776558
Au 5.00621250 5.00621250 -0.18329544999999925 0 0 0
Au 5.00507776 5.00481076 3.05975863
C 1.90095901 1.90109251 5.57013105
O 1.46107981 1.46174730 6.52986901
