&CONTROL
calculation = 'relax'
prefix = 'scf'
pseudo_dir = '/vol0004/mdt0/data/hp150275/u10028/POT_KKJUS'
outdir = './data'
tprnfor = .true.
nstep = 50
disk_io = 'non'
/
&SYSTEM
ibrav = 0
ecutwfc = 50.0
ecutrho = 400
occupations = 'smearing'
smearing = 'mp'
degauss = 0.01
assume_isolated = 'esm'
esm_bc = 'bc1'
input_dft = 'BEEF-VDW'
nosym = .true.
nspin = 1
ntyp = 1
nat = 16
/
&ELECTRONS
electron_maxstep = 200
mixing_beta = 0.1
conv_thr = 1e-06
/
&IONS
ion_dynamics = 'bfgs'
upscale = 1.0
/
&CELL
/

K_POINTS {automatic}
9 9 3 0  0  0

ATOMIC_SPECIES
K 39.09 K.pbe-spn-rrkjus_psl.1.0.0.UPF

CELL_PARAMETERS {angstrom}
9.98137000 0.00000000 0.00000000
0.00000000 9.98137000 0.00000000
0.00000000 0.00000000 27.48600000

ATOMIC_POSITIONS {angstrom}
K 0.00000000 0.00000000 -3.7430434800000008 0 0 0
K 2.49534250 2.49534250 -1.2475895399999999 0 0 0
K 9.96759571 9.97078975 1.69643592
K 2.49793766 2.49065126 4.64898204
K 0.00000000 4.99068500 -3.7430434800000008 0 0 0
K 2.49534250 7.48602750 -1.2475895399999999 0 0 0
K 9.96759571 5.00665519 1.68406722
K 2.49743859 7.48882228 4.73583780
K 4.99068500 0.00000000 -3.7430434800000008 0 0 0
K 7.48602750 2.49534250 -1.2475895399999999 0 0 0
K 5.00615612 9.96839422 1.68269292
K 7.47444911 2.50652163 4.76359866
K 4.99068500 4.99068500 -3.7430434800000008 0 0 0
K 7.48602750 7.48602750 -1.2475895399999999 0 0 0
K 5.00406004 4.99986786 1.68296778
K 7.48752471 7.46885954 4.84385778
