&CONTROL
calculation = 'relax'
prefix = 'scf'
pseudo_dir = '/vol0004/mdt0/data/hp150275/u10028/POT_HYBRID_KKJUS_GBRV'
outdir = './data'
tprnfor = .true.
nstep = 50
disk_io = 'non'
/
&SYSTEM
ibrav = 0
ecutwfc = 50.0
ecutrho = 400
occupations = 'smearing'
smearing = 'mp'
degauss = 0.01
assume_isolated = 'esm'
esm_bc = 'bc1'
input_dft = 'BEEF-VDW'
nosym = .true.
nspin = 2
ntyp = 5
nat = 34
starting_magnetization(1) = 0.0
starting_magnetization(2) = 0.0
starting_magnetization(3) = 0.001
starting_magnetization(4) = 0.0
starting_magnetization(5) = 0.0
/
&ELECTRONS
electron_maxstep = 300
mixing_beta = 0.1
conv_thr = 1e-06
/
&IONS
ion_dynamics = 'bfgs'
upscale = 1.0
/
&CELL
/

K_POINTS {automatic}
8 6 1 0 0 0

ATOMIC_SPECIES
C 12.01 C.pbe-n-rrkjus_psl.1.0.0.UPF
Ga 69.72 Ga.pbe-dnl-rrkjus_psl.1.0.0.UPF
Ni 58.69 ni_pbe_v1.4.uspp.F.UPF
O 15.99 O.pbe-n-rrkjus_psl.1.0.0.UPF
V 50.94 V.pbe-spnl-rrkjus_psl.1.0.0.UPF

CELL_PARAMETERS {angstrom}
5.82350000 0.00000000 0.00000000
0.00000000 8.23567000 0.00000000
0.00000000 0.00000000 26.17680000

ATOMIC_POSITIONS {angstrom}
V 0.00000000 0.00000000 -3.0883388600000004 0 0 0
V 2.91175000 2.05891750 -1.0295335399999992 0 0 0
V 2.91175000 6.17675250 -1.0295335399999992 0 0 0
V 0.00000000 4.11783500 -3.0883388600000004 0 0 0
V 0.00000000 4.13430634 1.06251631
V 2.91175000 6.17675250 3.07525046
V 2.91175000 2.05883514 3.08205643
V 0.00000000 8.21928102 1.06277808
Ga 0.00000000 6.17675250 -1.0295335399999992 0 0 0
Ga 2.91175000 0.00000000 -3.0883388600000004 0 0 0
Ga 0.00000000 2.05891750 -1.0295335399999992 0 0 0
Ga 2.91175000 4.11783500 -3.0883388600000004 0 0 0
Ga 0.00000000 2.05899986 3.20037557
Ga 2.91175000 4.08151570 0.99079188
Ga 0.00000000 6.17650543 3.17446054
Ga 2.91175000 0.03631930 0.99105365
Ni 1.45587500 0.00000000 -1.0295335399999992 0 0 0
Ni 4.36762500 4.11783500 -1.0295335399999992 0 0 0
Ni 4.36762500 0.00000000 -1.0295335399999992 0 0 0
Ni 1.45587500 4.11783500 -1.0295335399999992 0 0 0
Ni 4.36762500 6.17675250 -3.0883388600000004 0 0 0
Ni 1.45587500 2.05891750 -3.0883388600000004 0 0 0
Ni 1.45587500 6.17675250 -3.0883388600000004 0 0 0
Ni 4.36762500 2.05891750 -3.0883388600000004 0 0 0
Ni 1.48755484 4.12310583 2.98755818
Ni 4.33611986 8.23031681 2.98755818
Ni 4.33594516 4.12310583 2.98755818
Ni 1.48738014 8.23031681 2.98755818
Ni 4.43133409 2.05916457 1.03843366
Ni 1.50327829 6.17650543 1.06879874
Ni 1.39216591 2.05916457 1.03843366
Ni 4.32022171 6.17650543 1.06879874
C 2.91175000 2.05891750 5.06416373
O 2.91175000 2.05891750 6.22091652
