&CONTROL
calculation = 'relax'
prefix = 'scf'
pseudo_dir = '/vol0004/mdt0/data/hp150275/u10028/POT_KKJUS'
outdir = './data'
tprnfor = .true.
nstep = 50
disk_io = 'non'
/
&SYSTEM
ibrav = 0
ecutwfc = 50.0
ecutrho = 400
occupations = 'smearing'
smearing = 'mp'
degauss = 0.01
assume_isolated = 'esm'
esm_bc = 'bc1'
input_dft = 'BEEF-VDW'
nosym = .true.
nspin = 1
ntyp = 4
nat = 34
/
&ELECTRONS
electron_maxstep = 200
mixing_beta = 0.1
conv_thr = 1e-06
/
&IONS
ion_dynamics = 'bfgs'
upscale = 1.0
/
&CELL
/

K_POINTS {automatic}
8 6 1 0 0 0

ATOMIC_SPECIES
C 12.01 C.pbe-n-rrkjus_psl.1.0.0.UPF
Li 6.941 Li.pbe-sl-rrkjus_psl.1.0.0.UPF
O 15.99 O.pbe-n-rrkjus_psl.1.0.0.UPF
Sb 121.7 Sb.pbe-n-rrkjus_psl.1.0.0.UPF

CELL_PARAMETERS {angstrom}
6.56971000 0.00000000 0.00000000
0.00000000 9.29097000 0.00000000
0.00000000 0.00000000 26.96820000

ATOMIC_POSITIONS {angstrom}
Li 1.64242750 0.00000000 -1.1612506899999993 0 0 0
Li 4.92728250 4.64548500 -1.1612506899999993 0 0 0
Li 4.92728250 0.00000000 -1.1612506899999993 0 0 0
Li 1.64242750 4.64548500 -1.1612506899999993 0 0 0
Li 4.92728250 6.96822750 -3.484021760000001 0 0 0
Li 1.64242750 2.32274250 -3.484021760000001 0 0 0
Li 1.64242750 6.96822750 -3.484021760000001 0 0 0
Li 4.92728250 2.32274250 -3.484021760000001 0 0 0
Li 0.00000000 6.96822750 -1.1612506899999993 0 0 0
Li 3.28485500 0.00000000 -3.484021760000001 0 0 0
Li 0.00000000 2.32274250 -1.1612506899999993 0 0 0
Li 3.28485500 4.64548500 -3.484021760000001 0 0 0
Li 1.85574598 4.64362681 3.52015915
Li 4.71396402 0.00185819 3.52015915
Li 4.71396402 4.64362681 3.52015915
Li 1.85574598 0.00185819 3.52015915
Li 4.91861048 2.32274250 1.13509154
Li 1.68867826 6.96822750 1.13293408
Li 1.65109952 2.32274250 1.13509154
Li 4.88103174 6.96822750 1.13293408
Li 0.00000000 2.32274250 3.29146881
Li 3.28485500 4.63052654 1.19900617
Li 0.00000000 6.96822750 3.21299135
Li 3.28485500 0.01495846 1.19873649
Sb 0.00000000 0.00000000 -3.484021760000001 0 0 0
Sb 3.28485500 2.32274250 -1.1612506899999993 0 0 0
Sb 3.28485500 6.96822750 -1.1612506899999993 0 0 0
Sb 0.00000000 4.64548500 -3.484021760000001 0 0 0
Sb 0.00000000 4.65654125 1.29474328
Sb 3.28485500 6.96822750 3.46217752
Sb 3.28485500 2.32274250 3.39799320
Sb 0.00000000 9.27991375 1.29474328
C 6.56964430 2.32274250 5.40685442
O 6.56964430 2.32274250 6.54895769
