&CONTROL
calculation = 'relax'
prefix = 'scf'
pseudo_dir = '/vol0004/mdt0/data/hp150275/u10028/POT_KKJUS'
outdir = './data'
tprnfor = .true.
nstep = 50
disk_io = 'non'
/
&SYSTEM
ibrav = 0
ecutwfc = 50.0
ecutrho = 400
occupations = 'smearing'
smearing = 'mp'
degauss = 0.01
assume_isolated = 'esm'
esm_bc = 'bc1'
input_dft = 'BEEF-VDW'
nosym = .true.
nspin = 1
ntyp = 3
nat = 17
/
&ELECTRONS
electron_maxstep = 200
mixing_beta = 0.1
conv_thr = 1e-06
/
&IONS
ion_dynamics = 'bfgs'
upscale = 1.0
/
&CELL
/

K_POINTS {automatic}
8 8 1 0 0 0

ATOMIC_SPECIES
C 12.01 C.pbe-n-rrkjus_psl.1.0.0.UPF
Os 190.2 Os.pbe-spn-rrkjus_psl.1.0.0.UPF
Zr 91.22 Zr.pbe-spn-rrkjus_psl.1.0.0.UPF

CELL_PARAMETERS {angstrom}
6.57738000 0.00000000 0.00000000
-0.00000000 6.57738000 0.00000000
0.00000000 0.00000000 24.93300000

ATOMIC_POSITIONS {angstrom}
Zr 1.64434500 1.64434500 -0.5330675400000011 0 0 0
Zr 1.64434500 1.64434500 2.75584449
Zr 1.64434500 4.93303500 -0.5330675400000011 0 0 0
Zr 1.64434500 4.93303500 2.75584449
Zr 4.93303500 1.64434500 -0.5330675400000011 0 0 0
Zr 4.93303500 1.64434500 2.75584449
Zr 4.93303500 4.93303500 -0.5330675400000011 0 0 0
Zr 4.93303500 4.93303500 2.75584449
Os 0.00000000 0.00000000 -2.177398889999999 0 0 0
Os 0.00000000 0.00000000 1.11126381
Os 0.00000000 3.28869000 -2.177398889999999 0 0 0
Os 0.00000000 3.28869000 1.11126381
Os 3.28869000 0.00000000 -2.177398889999999 0 0 0
Os 3.28869000 -0.00000000 1.11126381
Os 3.28869000 3.28869000 -2.177398889999999 0 0 0
Os 3.28869000 3.28869000 1.11126381
C 0.00000000 0.00000000 3.55569513
