&CONTROL
calculation = 'relax'
prefix = 'scf'
pseudo_dir = '/vol0403/data/hp230205/u10028/POT_HYBRID_KKJUS_GBRV'
outdir = './data'
tprnfor = .true.
nstep = 50
disk_io = 'non'
/
&SYSTEM
ibrav = 0
ecutwfc = 50.0
ecutrho = 400
occupations = 'smearing'
smearing = 'mp'
degauss = 0.01
assume_isolated = 'esm'
esm_bc = 'bc1'
input_dft = 'BEEF-VDW'
nosym = .true.
nspin = 1
ntyp = 5
nat = 17
/
&ELECTRONS
electron_maxstep = 200
mixing_beta = 0.1
conv_thr = 1e-06
/
&IONS
ion_dynamics = 'bfgs'
upscale = 1.0
/
&CELL
/

K_POINTS {automatic}
8 11 2 0  0  0

ATOMIC_SPECIES
Al 26.98 Al.pbe-nl-rrkjus_psl.1.0.0.UPF
C 12.01 C.pbe-n-rrkjus_psl.1.0.0.UPF
Cu 63.54 Cu.pbe-dn-rrkjus_psl.1.0.0.UPF
Ge 72.64 Ge.pbe-dn-rrkjus_psl.1.0.0.UPF
Li 6.941 Li.pbe-sl-rrkjus_psl.1.0.0.UPF


CELL_PARAMETERS {angstrom}
7.61632000 0.00000000 0.00000000
0.00000000 5.50126000 0.00000000
0.00000000 0.00000000 24.12590000

ATOMIC_POSITIONS {angstrom}
Li 0.44243203 2.55852600 2.52598173
Li 0.00000000 5.49713406 -0.6875881499999998 0 0 0
Li 3.36572797 2.55852600 2.52598173
Li 3.80816000 5.49713406 -0.6875881499999998 0 0 0
Al 0.34509546 5.17883115 2.07265607
Al 0.00000000 2.74650406 -0.6875881499999998 0 0 0
Al 3.46306454 5.17883115 2.07265607
Al 3.80816000 2.74650406 -0.6875881499999998 0 0 0
Cu 1.90408000 3.92327858 0.47745156
Cu 1.90408000 1.36909858 -2.0630057100000023 0 0 0
Cu 5.71224000 4.07434318 0.86081211
Cu 5.71224000 1.36909858 -2.0630057100000023 0 0 0
Ge 1.90408000 1.28294884 0.59470344
Ge 1.90408000 4.11972858 -2.0630057100000023 0 0 0
Ge 5.71224000 1.39033344 1.05333679
Ge 5.71224000 4.11972858 -2.0630057100000023 0 0 0
C 1.90408000 4.07813905 2.59281047
