&CONTROL
calculation = 'relax'
prefix = 'scf'
pseudo_dir = '/vol0004/mdt0/data/hp150275/u10028/POT_HYBRID_KKJUS_GBRV'
outdir = './data'
tprnfor = .true.
nstep = 50
disk_io = 'non'
/
&SYSTEM
ibrav = 0
ecutwfc = 50.0
ecutrho = 400
occupations = 'smearing'
smearing = 'mp'
degauss = 0.01
assume_isolated = 'esm'
esm_bc = 'bc1'
input_dft = 'BEEF-VDW'
nosym = .true.
nspin = 2
ntyp = 4
nat = 33
starting_magnetization(1) = 0.0
starting_magnetization(2) = 0.0
starting_magnetization(3) = 0.0
starting_magnetization(4) = 0.001
/
&ELECTRONS
electron_maxstep = 200
mixing_beta = 0.1
conv_thr = 1e-06
/
&IONS
ion_dynamics = 'bfgs'
upscale = 1.0
/
&CELL
/

K_POINTS {automatic}
9 6 2 0  0  0

ATOMIC_SPECIES
Al 26.98 Al.pbe-nl-rrkjus_psl.1.0.0.UPF
C 12.01 C.pbe-n-rrkjus_psl.1.0.0.UPF
Nb 92.90 Nb.pbe-spn-rrkjus_psl.1.0.0.UPF
Ni 58.69 ni_pbe_v1.4.uspp.F.UPF

CELL_PARAMETERS {angstrom}
6.00915000 0.00000000 0.00000000
0.00000000 8.49821000 0.00000000
0.00000000 0.00000000 26.37370000

ATOMIC_POSITIONS {angstrom}
Nb 0.00000000 0.00000000 23.18696583
Nb 3.00457500 2.12455250 25.31136736
Nb 3.00457500 6.37365750 25.31136736
Nb 0.00000000 4.24910500 23.18696583
Nb 0.00000000 4.24902002 1.04096994
Nb 3.00457500 6.45999931 3.28378939
Nb 3.00457500 2.03821069 3.28405312
Nb 0.00000000 0.00008498 1.01485998
Al 0.00000000 6.37365750 25.31136736
Al 3.00457500 0.00000000 23.18696583
Al 0.00000000 2.12455250 25.31136736
Al 3.00457500 4.24910500 23.18696583
Al 0.00000000 2.17078276 3.13345930
Al 3.00457500 4.24910500 1.07393706
Al 0.00000000 6.32742724 3.13319556
Al 3.00457500 0.00000000 1.11059651
Ni 1.50228750 0.00000000 25.31136736
Ni 4.50686250 4.24910500 25.31136736
Ni 4.50686250 0.00000000 25.31136736
Ni 1.50228750 4.24910500 25.31136736
Ni 4.50686250 6.37365750 23.18696583
Ni 1.50228750 2.12455250 23.18696583
Ni 1.50228750 6.37365750 23.18696583
Ni 4.50686250 2.12455250 23.18696583
Ni 1.50108567 4.24927496 3.05407446
Ni 4.76711879 8.49812502 3.12686587
Ni 4.50806433 4.24927496 3.05407446
Ni 1.24203121 8.49812502 3.12686587
Ni 4.40122164 2.12718695 1.10769540
Ni 1.60780817 6.37102305 1.10769540
Ni 1.60792836 2.12718695 1.10769540
Ni 4.40134183 6.37102305 1.10769540
C 3.00457500 0.00000000 3.81706560
