&CONTROL
calculation = 'relax'
prefix = 'scf'
pseudo_dir = '/vol0403/data/hp230205/u10028/POT_HYBRID_KKJUS_GBRV'
outdir = './data'
tprnfor = .true.
nstep = 50
disk_io = 'non'
/
&SYSTEM
ibrav = 0
ecutwfc = 50.0
ecutrho = 400
occupations = 'smearing'
smearing = 'mp'
degauss = 0.01
assume_isolated = 'esm'
esm_bc = 'bc1'
input_dft = 'BEEF-VDW'
nosym = .true.
nspin = 1
ntyp = 4
nat = 32
/
&ELECTRONS
electron_maxstep = 200
mixing_beta = 0.1
conv_thr = 1e-06
/
&IONS
ion_dynamics = 'bfgs'
upscale = 1.0
/
&CELL
/

K_POINTS {automatic}
6 6 1 0 0 0

ATOMIC_SPECIES
Ge 72.64 Ge.pbe-dn-rrkjus_psl.1.0.0.UPF
Li 6.941 Li.pbe-sl-rrkjus_psl.1.0.0.UPF
Pb 207.2 Pb.pbe-dn-rrkjus_psl.1.0.0.UPF
Y 88.90 Y.pbe-spn-rrkjus_psl.1.0.0.UPF


CELL_PARAMETERS {angstrom}
8.65500000 0.00000000 0.00000000
0.00000000 9.86128000 0.00000000
0.00000000 0.00000000 26.41550000

ATOMIC_POSITIONS {angstrom}
Li 0.00000000 2.46532000 1.06929944
Li 0.00000000 2.46532000 -3.2078983200000017 0 0 0
Li 0.00000000 7.39596000 1.06929944
Li 0.00000000 7.39596000 -3.2078983200000017 0 0 0
Li 4.32750000 2.46532000 1.06929944
Li 4.32750000 2.46532000 -3.2078983200000017 0 0 0
Li 4.32750000 7.39596000 1.06929944
Li 4.32750000 7.39596000 -3.2078983200000017 0 0 0
Y 2.16375000 0.00000000 1.06929944
Y 2.16375000 0.00000000 -3.2078983200000017 0 0 0
Y 2.16375000 4.93064000 1.06929944
Y 2.16375000 4.93064000 -3.2078983200000017 0 0 0
Y 6.49125000 0.00000000 1.06929944
Y 6.49125000 0.00000000 -3.2078983200000017 0 0 0
Y 6.49125000 4.93064000 1.06929944
Y 6.49125000 4.93064000 -3.2078983200000017 0 0 0
Ge 0.00000000 0.00000000 3.20789832
Ge 0.00000000 0.00000000 -1.0692994400000018 0 0 0
Ge 0.00000000 4.93064000 3.20789832
Ge 0.00000000 4.93064000 -1.0692994400000018 0 0 0
Ge 4.32750000 0.00000000 3.20789832
Ge 4.32750000 0.00000000 -1.0692994400000018 0 0 0
Ge 4.32750000 4.93064000 3.20789832
Ge 4.32750000 4.93064000 -1.0692994400000018 0 0 0
Pb 2.16375000 2.46532000 3.20789832
Pb 2.16375000 2.46532000 -1.0692994400000018 0 0 0
Pb 2.16375000 7.39596000 3.20789832
Pb 2.16375000 7.39596000 -1.0692994400000018 0 0 0
Pb 6.49125000 2.46532000 3.20789832
Pb 6.49125000 2.46532000 -1.0692994400000018 0 0 0
Pb 6.49125000 7.39596000 3.20789832
Pb 6.49125000 7.39596000 -1.0692994400000018 0 0 0
