&CONTROL
calculation = 'relax'
prefix = 'scf'
pseudo_dir = '/vol0403/data/hp230205/u10028/POT_HYBRID_KKJUS_GBRV'
outdir = './data'
tprnfor = .true.
nstep = 50
disk_io = 'non'
/
&SYSTEM
ibrav = 0
ecutwfc = 50.0
ecutrho = 400
occupations = 'smearing'
smearing = 'mp'
degauss = 0.01
assume_isolated = 'esm'
esm_bc = 'bc1'
input_dft = 'BEEF-VDW'
nosym = .true.
nspin = 1
ntyp = 4
nat = 32
/
&ELECTRONS
electron_maxstep = 200
mixing_beta = 0.1
conv_thr = 1e-06
/
&IONS
ion_dynamics = 'bfgs'
upscale = 1.0
/
&CELL
/

K_POINTS {automatic}
6 6 1 0 0 0

ATOMIC_SPECIES
Ge 72.64 Ge.pbe-dn-rrkjus_psl.1.0.0.UPF
Li 6.941 Li.pbe-sl-rrkjus_psl.1.0.0.UPF
Pb 207.2 Pb.pbe-dn-rrkjus_psl.1.0.0.UPF
Y 88.90 Y.pbe-spn-rrkjus_psl.1.0.0.UPF


CELL_PARAMETERS {angstrom}
8.65500000 0.00000000 0.00000000
0.00000000 9.86128000 0.00000000
0.00000000 0.00000000 26.41550000

ATOMIC_POSITIONS {angstrom}
Li 8.65439415 2.37479345 1.53474055
Li 0.00000000 2.46532000 -3.2078983200000017 0 0 0
Li 8.65352865 7.29221933 1.51968371
Li 0.00000000 7.39596000 -3.2078983200000017 0 0 0
Li 4.32810585 2.35773344 1.58519416
Li 4.32750000 2.46532000 -3.2078983200000017 0 0 0
Li 4.32914445 7.28679563 1.49907963
Li 4.32750000 7.39596000 -3.2078983200000017 0 0 0
Y 2.16245175 9.83741570 1.02703464
Y 2.16375000 0.00000000 -3.2078983200000017 0 0 0
Y 2.16651960 4.91072021 1.03654422
Y 2.16375000 4.93064000 -3.2078983200000017 0 0 0
Y 6.49272135 9.84017686 1.02888373
Y 6.49125000 0.00000000 -3.2078983200000017 0 0 0
Y 6.48874005 4.90726877 1.03258190
Y 6.49125000 4.93064000 -3.2078983200000017 0 0 0
Ge 0.00354855 9.58023352 2.94876227
Ge 0.00000000 0.00000000 -1.0692994400000018 0 0 0
Ge 8.65015320 4.68824974 2.96302664
Ge 0.00000000 4.93064000 -1.0692994400000018 0 0 0
Ge 4.32308595 9.57214727 2.94189423
Ge 4.32750000 0.00000000 -1.0692994400000018 0 0 0
Ge 4.33485675 4.68854558 2.97359284
Ge 4.32750000 4.93064000 -1.0692994400000018 0 0 0
Pb 2.15942250 3.08066387 4.02360896
Pb 2.16375000 2.46532000 -1.0692994400000018 0 0 0
Pb 2.16461550 7.94740278 3.99666515
Pb 2.16375000 7.39596000 -1.0692994400000018 0 0 0
Pb 6.49748160 3.05315090 4.01515600
Pb 6.49125000 2.46532000 -1.0692994400000018 0 0 0
Pb 6.48986520 7.95982799 4.00036332
Pb 6.49125000 7.39596000 -1.0692994400000018 0 0 0
