&CONTROL
calculation = 'relax'
prefix = 'scf'
pseudo_dir = '/vol0403/data/hp230205/u10028/POT_HYBRID_KKJUS_GBRV'
outdir = './data'
tprnfor = .true.
nstep = 70
disk_io = 'non'
/
&SYSTEM
ibrav = 0
ecutwfc = 50.0
ecutrho = 400
occupations = 'smearing'
smearing = 'mp'
degauss = 0.01
assume_isolated = 'esm'
esm_bc = 'bc1'
input_dft = 'BEEF-VDW'
nosym = .true.
nspin = 1
ntyp = 5
nat = 33
/
&ELECTRONS
electron_maxstep = 200
mixing_beta = 0.1
conv_thr = 1e-06
/
&IONS
ion_dynamics = 'bfgs'
upscale = 1.0
/
&CELL
/

K_POINTS {automatic}
6 6 1 0 0 0

ATOMIC_SPECIES
C 12.01 C.pbe-n-rrkjus_psl.1.0.0.UPF
Ge 72.64 Ge.pbe-dn-rrkjus_psl.1.0.0.UPF
Pd 106.4 Pd.pbe-n-rrkjus_psl.1.0.0.UPF
Sn 118.7 Sn.pbe-dn-rrkjus_psl.1.0.0.UPF
Y 88.90 Y.pbe-spn-rrkjus_psl.1.0.0.UPF


CELL_PARAMETERS {angstrom}
9.60308000 0.00000000 0.00000000
-0.00000000 8.11456000 0.00000000
0.00000000 0.00000000 26.48830000

ATOMIC_POSITIONS {angstrom}
Y 0.00000000 2.02864000 1.08125241
Y 0.00000000 2.02864000 -3.2440220999999987 0 0 0
Y 0.00000000 6.08592000 1.08125241
Y 0.00000000 6.08592000 -3.2440220999999987 0 0 0
Y 4.80154000 2.02864000 1.08125241
Y 4.80154000 2.02864000 -3.2440220999999987 0 0 0
Y 4.80154000 6.08592000 1.08125241
Y 4.80154000 6.08592000 -3.2440220999999987 0 0 0
Sn 2.40077000 2.02864000 3.24402210
Sn 2.40077000 2.02864000 -1.0812524099999976 0 0 0
Sn 2.40077000 6.08592000 3.24402210
Sn 2.40077000 6.08592000 -1.0812524099999976 0 0 0
Sn 7.20231000 2.02864000 3.24402210
Sn 7.20231000 2.02864000 -1.0812524099999976 0 0 0
Sn 7.20231000 6.08592000 3.24402210
Sn 7.20231000 6.08592000 -1.0812524099999976 0 0 0
Ge 0.00000000 0.00000000 3.24402210
Ge 0.00000000 0.00000000 -1.0812524099999976 0 0 0
Ge 0.00000000 4.05728000 3.24402210
Ge 0.00000000 4.05728000 -1.0812524099999976 0 0 0
Ge 4.80154000 -0.00000000 3.24402210
Ge 4.80154000 0.00000000 -1.0812524099999976 0 0 0
Ge 4.80154000 4.05728000 3.24402210
Ge 4.80154000 4.05728000 -1.0812524099999976 0 0 0
Pd 2.40077000 -0.00000000 1.08125241
Pd 2.40077000 0.00000000 -3.2440220999999987 0 0 0
Pd 2.40077000 4.05728000 1.08125241
Pd 2.40077000 4.05728000 -3.2440220999999987 0 0 0
Pd 7.20231000 -0.00000000 1.08125241
Pd 7.20231000 0.00000000 -3.2440220999999987 0 0 0
Pd 7.20231000 4.05728000 1.08125241
Pd 7.20231000 4.05728000 -3.2440220999999987 0 0 0
C 2.40077000 -0.00000000 4.04423364
