&CONTROL
calculation = 'relax'
prefix = 'scf'
pseudo_dir = '/vol0403/data/hp230205/u10028/POT_HYBRID_KKJUS_GBRV'
outdir = './data'
tprnfor = .true.
nstep = 70
disk_io = 'non'
/
&SYSTEM
ibrav = 0
ecutwfc = 50.0
ecutrho = 400
occupations = 'smearing'
smearing = 'mp'
degauss = 0.01
assume_isolated = 'esm'
esm_bc = 'bc1'
input_dft = 'BEEF-VDW'
nosym = .true.
nspin = 1
ntyp = 6
nat = 34
/
&ELECTRONS
electron_maxstep = 200
mixing_beta = 0.1
conv_thr = 1e-06
/
&IONS
ion_dynamics = 'bfgs'
upscale = 1.0
/
&CELL
/

K_POINTS {automatic}
7 6 2 0  0  0

ATOMIC_SPECIES
C 12.01 C.pbe-n-rrkjus_psl.1.0.0.UPF
Ge 72.64 Ge.pbe-dn-rrkjus_psl.1.0.0.UPF
In 114.8 In.pbe-dn-rrkjus_psl.1.0.0.UPF
O 15.99 O.pbe-n-rrkjus_psl.1.0.0.UPF
Pd 106.4 Pd.pbe-n-rrkjus_psl.1.0.0.UPF
Sc 44.95 Sc.pbe-spn-rrkjus_psl.1.0.0.UPF


CELL_PARAMETERS {angstrom}
8.38060000 0.00000000 0.00000000
-0.00000000 9.28368000 0.00000000
0.00000000 0.00000000 25.82430000

ATOMIC_POSITIONS {angstrom}
Sc 2.09515000 0.00000000 -0.9707354400000021 0 0 0
Sc 2.09238440 9.27551036 2.81071681
Sc 2.09515000 4.64184000 -0.9707354400000021 0 0 0
Sc 2.09238440 4.64824574 2.80865087
Sc 6.28545000 0.00000000 -0.9707354400000021 0 0 0
Sc 6.28720993 9.27551036 2.80968384
Sc 6.28545000 4.64184000 -0.9707354400000021 0 0 0
Sc 6.28796418 4.64824574 2.81071681
In 0.00000000 2.32092000 -0.9707354400000021 0 0 0
In 8.38034858 2.31999163 2.94939330
In 0.00000000 6.96276000 -0.9707354400000021 0 0 0
In 0.00025142 6.96285284 3.22777926
In 4.19030000 2.32092000 -0.9707354400000021 0 0 0
In 4.19071903 2.32110567 3.24998816
In 4.19030000 6.96276000 -0.9707354400000021 0 0 0
In 4.19030000 6.96201731 2.98167368
Ge 0.00000000 0.00000000 -2.912206310000002 0 0 0
Ge 8.38043239 9.16039273 1.04691712
Ge 0.00000000 4.64184000 -2.912206310000002 0 0 0
Ge 8.38051619 4.76419890 1.04485118
Ge 4.19030000 0.00000000 -2.912206310000002 0 0 0
Ge 4.19164090 0.13582024 1.03013133
Ge 4.19030000 4.64184000 -2.912206310000002 0 0 0
Ge 4.19021619 4.50286331 1.02884011
Pd 2.09515000 2.32092000 -2.912206310000002 0 0 0
Pd 2.19479533 2.32036298 1.05414793
Pd 2.09515000 6.96276000 -2.912206310000002 0 0 0
Pd 2.00187392 6.96313135 1.08952722
Pd 6.28545000 2.32092000 -2.912206310000002 0 0 0
Pd 6.18597228 2.32045582 1.05414793
Pd 6.28545000 6.96276000 -2.912206310000002 0 0 0
Pd 6.37864227 6.96294567 1.08952722
C 0.00201134 2.35007076 7.33280998
O 8.37976194 2.31275036 8.46701324
