&CONTROL
calculation = 'relax'
prefix = 'scf'
pseudo_dir = '/vol0004/mdt0/data/hp150275/u10028/POT_HYBRID_KKJUS_GBRV'
outdir = './data'
tprnfor = .true.
nstep = 50
disk_io = 'non'
/
&SYSTEM
ibrav = 0
ecutwfc = 50.0
ecutrho = 400
occupations = 'smearing'
smearing = 'mp'
degauss = 0.01
assume_isolated = 'esm'
esm_bc = 'bc1'
input_dft = 'BEEF-VDW'
nosym = .true.
nspin = 2
ntyp = 5
nat = 34
starting_magnetization(1) = 0.0
starting_magnetization(2) = 0.1
starting_magnetization(3) = 0.1
starting_magnetization(4) = 0.0
starting_magnetization(5) = 0.0
/
&ELECTRONS
electron_maxstep = 300
mixing_beta = 0.1
conv_thr = 1e-06
/
&IONS
ion_dynamics = 'bfgs'
upscale = 1.0
/
&CELL
/

K_POINTS {automatic}
8 6 1 0 0 0

ATOMIC_SPECIES
C 12.01 C.pbe-n-rrkjus_psl.1.0.0.UPF
Co 58.93 co_pbe_v1.2.uspp.F.UPF
Fe 55.84 fe_pbe_v1.5.uspp.F.UPF
In 114.8 In.pbe-dn-rrkjus_psl.1.0.0.UPF
O 15.99 O.pbe-n-rrkjus_psl.1.0.0.UPF

CELL_PARAMETERS {angstrom}
6.01864000 0.00000000 0.00000000
0.00000000 8.51164000 0.00000000
0.00000000 0.00000000 26.38370000

ATOMIC_POSITIONS {angstrom}
In 0.00000000 0.00000000 -3.1919000299999993 0 0 0
In 3.00932000 2.12791000 -1.0640546200000003 0 0 0
In 3.00932000 6.38373000 -1.0640546200000003 0 0 0
In 0.00000000 4.25582000 -3.1919000299999993 0 0 0
In 0.00288895 4.25582000 1.01049571
In 3.00558844 6.42152168 3.59398761
In 3.00558844 2.09020343 3.59425145
In 0.03755631 0.00000000 1.01656396
Fe 0.00000000 6.38373000 -1.0640546200000003 0 0 0
Fe 3.00932000 0.00000000 -3.1919000299999993 0 0 0
Fe 0.00000000 2.12791000 -1.0640546200000003 0 0 0
Fe 3.00932000 4.25582000 -3.1919000299999993 0 0 0
Fe 6.01207968 2.18595938 3.04626200
Fe 3.02924170 4.25590512 1.09492355
Fe 6.01207968 6.32568062 3.04626200
Fe 3.03562146 8.51155488 1.13001387
Co 1.50466000 0.00000000 -1.0640546200000003 0 0 0
Co 4.51398000 4.25582000 -1.0640546200000003 0 0 0
Co 4.51398000 0.00000000 -1.0640546200000003 0 0 0
Co 1.50466000 4.25582000 -1.0640546200000003 0 0 0
Co 4.51398000 6.38373000 -3.1919000299999993 0 0 0
Co 1.50466000 2.12791000 -3.1919000299999993 0 0 0
Co 1.50466000 6.38373000 -3.1919000299999993 0 0 0
Co 4.51398000 2.12791000 -3.1919000299999993 0 0 0
Co 1.53348929 4.25582000 3.08188000
Co 4.56519863 0.00000000 3.10351463
Co 4.50892434 4.25582000 3.09322499
Co 1.38970398 0.00000000 3.25390172
Co 4.45824739 2.11216347 1.16352117
Co 1.60113880 6.37709092 1.17750453
Co 1.60119899 2.13454908 1.17776837
Co 4.45830758 6.39947653 1.16352117
C 0.77044611 8.51155488 4.88520589
O 0.40011919 8.51146977 5.99384897
