&CONTROL
calculation = 'relax'
prefix = 'scf'
pseudo_dir = '/vol0004/mdt0/data/hp150275/u10028/POT_KKJUS'
outdir = './data'
tprnfor = .true.
nstep = 50
disk_io = 'non'
/
&SYSTEM
ibrav = 0
ecutwfc = 50.0
ecutrho = 400
occupations = 'smearing'
smearing = 'mp'
degauss = 0.01
assume_isolated = 'esm'
esm_bc = 'bc1'
input_dft = 'BEEF-VDW'
nosym = .true.
nspin = 1
ntyp = 5
nat = 18
/
&ELECTRONS
electron_maxstep = 200
mixing_beta = 0.1
conv_thr = 1e-06
/
&IONS
ion_dynamics = 'bfgs'
upscale = 1.0
/
&CELL
/

K_POINTS {automatic}
8 8 1 0 0 0

ATOMIC_SPECIES
C 12.01 C.pbe-n-rrkjus_psl.1.0.0.UPF
Ga 69.72 Ga.pbe-dnl-rrkjus_psl.1.0.0.UPF
Ir 192.2 Ir.pbe-n-rrkjus_psl.0.2.3.UPF
Li 6.941 Li.pbe-sl-rrkjus_psl.1.0.0.UPF
O 15.99 O.pbe-n-rrkjus_psl.1.0.0.UPF

CELL_PARAMETERS {angstrom}
6.01864000 0.00000000 0.00000000
0.00000000 6.01864000 0.00000000
0.00000000 0.00000000 24.51400000

ATOMIC_POSITIONS {angstrom}
Li 0.00000000 0.00000000 -0.7523346599999989 0 0 0
Li 3.00932000 0.00000000 2.68697954
Li 0.00000000 3.00932000 2.68697954
Li 3.00932000 3.00932000 -0.7523346599999989 0 0 0
Li 1.54763309 1.54763309 0.85039066
Li 1.50466000 4.51398000 -2.2570039800000004 0 0 0
Li 4.47094672 4.47094672 0.85039066
Li 4.51398000 1.50466000 -2.2570039800000004 0 0 0
Ga 1.50466000 1.50466000 -2.2570039800000004 0 0 0
Ga 1.53698010 4.48165990 0.78297716
Ga 4.51398000 4.51398000 -2.2570039800000004 0 0 0
Ga 4.48165990 1.53698010 0.78297716
Ir 0.00000000 0.00000000 2.15992854
Ir 3.00932000 3.00932000 2.14497500
Ir 3.00932000 0.00000000 -0.7523346599999989 0 0 0
Ir 0.00000000 3.00932000 -0.7523346599999989 0 0 0
C 0.00000000 0.00000000 4.01098068
O 0.00000000 0.00000000 5.18225960
