&CONTROL
calculation = 'relax'
prefix = 'scf'
pseudo_dir = '/vol0403/data/hp230205/u10028/POT_HYBRID_KKJUS_GBRV'
outdir = './data'
tprnfor = .true.
nstep = 50
disk_io = 'non'
/
&SYSTEM
ibrav = 0
ecutwfc = 50.0
ecutrho = 400
occupations = 'smearing'
smearing = 'mp'
degauss = 0.01
assume_isolated = 'esm'
esm_bc = 'bc1'
input_dft = 'BEEF-VDW'
nosym = .true.
nspin = 1
ntyp = 5
nat = 33
/
&ELECTRONS
electron_maxstep = 200
mixing_beta = 0.1
conv_thr = 1e-06
/
&IONS
ion_dynamics = 'bfgs'
upscale = 1.0
/
&CELL
/

K_POINTS {automatic}
6 6 1 0 0 0

ATOMIC_SPECIES
Au 196.9 Au.pbe-n-rrkjus_psl.1.0.0.UPF
C 12.01 C.pbe-n-rrkjus_psl.1.0.0.UPF
In 114.8 In.pbe-dn-rrkjus_psl.1.0.0.UPF
Li 6.941 Li.pbe-sl-rrkjus_psl.1.0.0.UPF
Y 88.90 Y.pbe-spn-rrkjus_psl.1.0.0.UPF


CELL_PARAMETERS {angstrom}
6.89380000 0.00000000 0.00000000
0.00000000 9.74930000 0.00000000
0.00000000 0.00000000 27.31200000

ATOMIC_POSITIONS {angstrom}
Li 0.00000000 2.43732500 -1.2186614400000018 0 0 0
Li 0.00000000 7.31197500 -1.2186614400000018 0 0 0
Li 3.44690000 4.87465000 -3.6559843200000017 0 0 0
Li 3.44690000 0.00000000 -3.6559843200000017 0 0 0
Li 1.12162126 7.12381351 5.42006640
Li 1.07377829 2.62470655 5.37991776
Li 3.62820694 0.00467966 0.89637984
Li 3.17149269 4.87406504 1.34183856
Y 5.17035000 0.00000000 -1.2186614400000018 0 0 0
Y 5.17035000 4.87465000 -1.2186614400000018 0 0 0
Y 1.72345000 2.43732500 -3.6559843200000017 0 0 0
Y 1.72345000 7.31197500 -3.6559843200000017 0 0 0
Y 5.33283687 4.88186448 3.64615200
Y 4.39155741 0.00653203 3.63631968
Y 1.70766320 7.64793588 1.55104848
Y 1.70387161 2.10263153 1.55733024
In 1.72345000 0.00000000 -1.2186614400000018 0 0 0
In 1.72345000 4.87465000 -1.2186614400000018 0 0 0
In 5.17035000 2.43732500 -3.6559843200000017 0 0 0
In 5.17035000 7.31197500 -3.6559843200000017 0 0 0
In 1.51236184 4.88040209 3.80893152
In 0.94948307 9.73955070 4.17846288
In 5.12305853 7.17324246 1.29049200
In 5.12478198 2.58093219 1.29158448
Au 0.00000000 0.00000000 -3.6559843200000017 0 0 0
Au 0.00000000 4.87465000 -3.6559843200000017 0 0 0
Au 3.44690000 7.31197500 -1.2186614400000018 0 0 0
Au 3.44690000 2.43732500 -1.2186614400000018 0 0 0
Au 0.16248687 4.87884220 1.18424832
Au 6.42640036 0.00009749 1.34975904
Au 3.42828674 2.73721347 4.00721664
Au 3.43001019 7.02700296 4.01131344
C 2.41958592 0.00204735 2.42858304
