&CONTROL
calculation = 'relax'
prefix = 'scf'
pseudo_dir = '/vol0403/data/hp230205/u10028/POT_HYBRID_KKJUS_GBRV'
outdir = './data'
tprnfor = .true.
nstep = 50
disk_io = 'non'
/
&SYSTEM
ibrav = 0
ecutwfc = 50.0
ecutrho = 400
occupations = 'smearing'
smearing = 'mp'
degauss = 0.01
assume_isolated = 'esm'
esm_bc = 'bc1'
input_dft = 'BEEF-VDW'
nosym = .true.
nspin = 1
ntyp = 6
nat = 18
/
&ELECTRONS
electron_maxstep = 200
mixing_beta = 0.1
conv_thr = 1e-06
/
&IONS
ion_dynamics = 'bfgs'
upscale = 1.0
/
&CELL
/

K_POINTS {automatic}
6 6 1 0 0 0

ATOMIC_SPECIES
C 12.01 C.pbe-n-rrkjus_psl.1.0.0.UPF
Ga 69.72 Ga.pbe-dnl-rrkjus_psl.1.0.0.UPF
Ge 72.64 Ge.pbe-dn-rrkjus_psl.1.0.0.UPF
O 15.99 O.pbe-n-rrkjus_psl.1.0.0.UPF
Pd 106.4 Pd.pbe-n-rrkjus_psl.1.0.0.UPF
Sc 44.95 Sc.pbe-spn-rrkjus_psl.1.0.0.UPF


CELL_PARAMETERS {angstrom}
5.81182000 0.00000000 0.00000000
0.00000000 8.08666000 0.00000000
0.00000000 0.00000000 24.34090000

ATOMIC_POSITIONS {angstrom}
Sc 4.18660266 2.05134304 0.65598726
Sc 1.05722818 2.02166500 -2.17047805 0 0 0
Sc 4.18648642 6.03572129 0.65720430
Sc 1.05722818 6.06499500 -2.17047805 0 0 0
Ga 0.02284045 8.08657913 2.03830697
Ga 2.64211149 0.00000000 -0.7234115500000016 0 0 0
Ga 0.01313471 4.04381520 2.06313468
Ga 2.64211149 4.04333000 -0.7234115500000016 0 0 0
Ge 2.72992809 0.00016173 1.90881338
Ge 5.54802149 0.00000000 -0.7234115500000016 0 0 0
Ge 2.68221305 4.04341087 2.02005129
Ge 5.54802149 4.04333000 -0.7234115500000016 0 0 0
Pd 1.26081623 2.02813433 0.82978128
Pd 3.96313818 2.02166500 -2.17047805 0 0 0
Pd 1.26151365 6.05852567 0.83099833
Pd 3.96313818 6.06499500 -2.17047805 0 0 0
C 3.21986452 8.08641740 4.95824133
O 2.27678048 8.08649827 5.59718996
