&CONTROL
calculation = 'relax'
prefix = 'scf'
pseudo_dir = '/vol0004/mdt0/data/hp150275/u10028/POT_KKJUS'
outdir = './data'
tprnfor = .true.
nstep = 50
disk_io = 'non'
/
&SYSTEM
ibrav = 0
ecutwfc = 50.0
ecutrho = 400
occupations = 'smearing'
smearing = 'mp'
degauss = 0.01
assume_isolated = 'esm'
esm_bc = 'bc1'
input_dft = 'BEEF-VDW'
nosym = .true.
nspin = 1
ntyp = 4
nat = 34
/
&ELECTRONS
electron_maxstep = 200
mixing_beta = 0.1
conv_thr = 1e-06
/
&IONS
ion_dynamics = 'bfgs'
upscale = 1.0
/
&CELL
/

K_POINTS {automatic}
8 6 1 0 0 0

ATOMIC_SPECIES
Al 26.98 Al.pbe-nl-rrkjus_psl.1.0.0.UPF
C 12.01 C.pbe-n-rrkjus_psl.1.0.0.UPF
O 15.99 O.pbe-n-rrkjus_psl.1.0.0.UPF
Ti 47.86 Ti.pbe-spn-rrkjus_psl.1.0.0.UPF

CELL_PARAMETERS {angstrom}
6.37073000 0.00000000 0.00000000
0.00000000 9.00957000 0.00000000
0.00000000 0.00000000 26.75720000

ATOMIC_POSITIONS {angstrom}
Ti 0.00000000 0.00000000 -3.378631640000002 0 0 0
Ti 0.00000000 2.25239250 -1.1262105499999997 0 0 0
Ti 0.00000000 8.98488378 1.20567943
Ti 0.00000000 2.25239250 3.37756136
Ti 0.00000000 4.50478500 -3.378631640000002 0 0 0
Ti 0.00000000 6.75717750 -1.1262105499999997 0 0 0
Ti 0.00000000 4.52947122 1.20567943
Ti 0.00000000 6.75717750 3.33394712
Ti 3.18536500 0.00000000 -3.378631640000002 0 0 0
Ti 3.18536500 2.25239250 -1.1262105499999997 0 0 0
Ti 3.18536500 0.02333479 1.22547976
Ti 3.18536500 2.25239250 3.27989758
Ti 3.18536500 4.50478500 -3.378631640000002 0 0 0
Ti 3.18536500 6.75717750 -1.1262105499999997 0 0 0
Ti 3.18536500 4.48145021 1.22547976
Ti 3.18536500 6.75717750 3.38103979
Al 1.59268250 2.25239250 -3.378631640000002 0 0 0
Al 1.59268250 0.00000000 -1.1262105499999997 0 0 0
Al 1.55987324 2.25239250 1.09758034
Al 1.57522670 8.99893871 3.66600397
Al 1.59268250 6.75717750 -3.378631640000002 0 0 0
Al 1.59268250 4.50478500 -1.1262105499999997 0 0 0
Al 1.62071371 6.75717750 1.12701326
Al 1.57522670 4.51541629 3.66600397
Al 4.77804750 2.25239250 -3.378631640000002 0 0 0
Al 4.77804750 0.00000000 -1.1262105499999997 0 0 0
Al 4.81085676 2.25239250 1.09758034
Al 4.79550330 8.99893871 3.66600397
Al 4.77804750 6.75717750 -3.378631640000002 0 0 0
Al 4.77804750 4.50478500 -1.1262105499999997 0 0 0
Al 4.75001629 6.75717750 1.12701326
Al 4.79550330 4.51541629 3.66600397
C 0.00000000 2.25239250 5.45204707
O 0.00000000 2.25239250 6.61143655
