&CONTROL
calculation = 'relax'
prefix = 'scf'
pseudo_dir = '/vol0403/data/hp230205/u10028/POT_HYBRID_KKJUS_GBRV'
outdir = './data'
tprnfor = .true.
nstep = 50
disk_io = 'non'
/
&SYSTEM
ibrav = 0
ecutwfc = 50.0
ecutrho = 400
occupations = 'smearing'
smearing = 'mp'
degauss = 0.01
assume_isolated = 'esm'
esm_bc = 'bc1'
input_dft = 'BEEF-VDW'
nosym = .true.
nspin = 1
ntyp = 6
nat = 34
/
&ELECTRONS
electron_maxstep = 200
mixing_beta = 0.1
conv_thr = 1e-06
/
&IONS
ion_dynamics = 'bfgs'
upscale = 1.0
/
&CELL
/

K_POINTS {automatic}
6 6 1 0 0 0

ATOMIC_SPECIES
C 12.01 C.pbe-n-rrkjus_psl.1.0.0.UPF
Ge 72.64 Ge.pbe-dn-rrkjus_psl.1.0.0.UPF
Li 6.941 Li.pbe-sl-rrkjus_psl.1.0.0.UPF
O 15.99 O.pbe-n-rrkjus_psl.1.0.0.UPF
Pb 207.2 Pb.pbe-dn-rrkjus_psl.1.0.0.UPF
Pd 106.4 Pd.pbe-n-rrkjus_psl.1.0.0.UPF


CELL_PARAMETERS {angstrom}
6.74945000 0.00000000 0.00000000
0.00000000 9.54516000 0.00000000
0.00000000 0.00000000 27.15890000

ATOMIC_POSITIONS {angstrom}
Li 1.68736250 0.00000000 -1.1930904799999986 0 0 0
Li 1.68736250 4.77258000 -1.1930904799999986 0 0 0
Li 5.06208750 2.38629000 -3.579543019999999 0 0 0
Li 5.06208750 7.15887000 -3.579543019999999 0 0 0
Li 2.11406273 4.77258000 3.91794291
Li 2.03759146 0.00000000 3.77888935
Li 5.37094233 7.09253114 1.37070968
Li 5.37100983 2.45272431 1.37070968
Ge 0.00000000 0.00000000 -3.579543019999999 0 0 0
Ge 0.00000000 4.77258000 -3.579543019999999 0 0 0
Ge 3.37472500 7.15887000 -1.1930904799999986 0 0 0
Ge 3.37472500 2.38629000 -1.1930904799999986 0 0 0
Ge 0.20207853 4.77258000 1.61731249
Ge 0.01964090 9.54506455 1.72486174
Ge 3.51572101 2.48412789 3.43261337
Ge 3.51578851 7.06103211 3.43261337
Pd 5.06208750 0.00000000 -1.1930904799999986 0 0 0
Pd 5.06208750 4.77258000 -1.1930904799999986 0 0 0
Pd 1.68736250 2.38629000 -3.579543019999999 0 0 0
Pd 1.68736250 7.15887000 -3.579543019999999 0 0 0
Pd 4.95477124 4.77258000 3.30415177
Pd 5.00201740 0.00000000 3.79735740
Pd 1.44208749 7.27722998 1.67081553
Pd 1.44201999 2.26783456 1.67081553
Pb 0.00000000 2.38629000 -1.1930904799999986 0 0 0
Pb 0.00000000 7.15887000 -1.1930904799999986 0 0 0
Pb 3.37472500 4.77258000 -3.579543019999999 0 0 0
Pb 3.37472500 0.00000000 -3.579543019999999 0 0 0
Pb 6.69241715 7.04432808 4.20718520
Pb 6.69248464 2.50073647 4.20718520
Pb 3.42480592 0.00000000 1.22133573
Pb 3.23251409 4.77248455 1.09450367
C 4.60892943 0.00000000 5.71667686
O 4.52368387 0.00000000 6.86848581
