&CONTROL
calculation = 'relax'
prefix = 'scf'
pseudo_dir = '/vol0004/mdt0/data/hp150275/u10028/POT_KKJUS'
outdir = './data'
tprnfor = .true.
nstep = 50
disk_io = 'non'
/
&SYSTEM
ibrav = 0
ecutwfc = 50.0
ecutrho = 400
occupations = 'smearing'
smearing = 'mp'
degauss = 0.01
assume_isolated = 'esm'
esm_bc = 'bc1'
input_dft = 'BEEF-VDW'
nosym = .true.
nspin = 1
ntyp = 5
nat = 34
/
&ELECTRONS
electron_maxstep = 200
mixing_beta = 0.1
conv_thr = 1e-06
/
&IONS
ion_dynamics = 'bfgs'
upscale = 1.0
/
&CELL
/

K_POINTS {automatic}
8 6 1 0 0 0

ATOMIC_SPECIES
Al 26.98 Al.pbe-nl-rrkjus_psl.1.0.0.UPF
C 12.01 C.pbe-n-rrkjus_psl.1.0.0.UPF
Ni 58.69 Ni.pbe-spn-rrkjus_psl.1.0.0.UPF
O 15.99 O.pbe-n-rrkjus_psl.1.0.0.UPF
Ti 47.86 Ti.pbe-spn-rrkjus_psl.1.0.0.UPF

CELL_PARAMETERS {angstrom}
5.94410000 0.00000000 0.00000000
0.00000000 8.40623000 0.00000000
0.00000000 0.00000000 26.30470000

ATOMIC_POSITIONS {angstrom}
Ti 0.00000000 0.00000000 -3.1523552499999994 0 0 0
Ti 2.97205000 2.10155750 -1.0508727700000016 0 0 0
Ti 2.97205000 6.30467250 -1.0508727700000016 0 0 0
Ti 0.00000000 4.20311500 -3.1523552499999994 0 0 0
Ti 0.00000000 4.21126904 1.04061393
Ti 2.97205000 6.30475656 3.16340322
Ti 2.97205000 2.10155750 3.13683547
Ti 0.00000000 8.39816002 1.04087698
Al 0.00000000 6.30467250 -1.0508727700000016 0 0 0
Al 2.97205000 0.00000000 -3.1523552499999994 0 0 0
Al 0.00000000 2.10155750 -1.0508727700000016 0 0 0
Al 2.97205000 4.20311500 -3.1523552499999994 0 0 0
Al 0.00000000 2.10164156 3.16577064
Al 2.97205000 4.19865970 1.02062236
Al 0.00000000 6.30458844 3.12552445
Al 2.97205000 0.00453936 1.02088541
Ni 1.48602500 0.00000000 -1.0508727700000016 0 0 0
Ni 4.45807500 4.20311500 -1.0508727700000016 0 0 0
Ni 4.45807500 0.00000000 -1.0508727700000016 0 0 0
Ni 1.48602500 4.20311500 -1.0508727700000016 0 0 0
Ni 4.45807500 6.30467250 -3.1523552499999994 0 0 0
Ni 1.48602500 2.10155750 -3.1523552499999994 0 0 0
Ni 1.48602500 6.30467250 -3.1523552499999994 0 0 0
Ni 4.45807500 2.10155750 -3.1523552499999994 0 0 0
Ni 1.47639556 4.21564028 2.97322024
Ni 4.46800165 8.39362066 2.97374633
Ni 4.46776388 4.21564028 2.97322024
Ni 1.47603891 8.39370472 2.97374633
Ni 4.42508524 2.10155750 1.07507309
Ni 1.55515488 6.30475656 1.04771620
Ni 1.51913364 2.10147344 1.07507309
Ni 4.38900456 6.30475656 1.04771620
C 0.00000000 2.10164156 5.17466058
O 0.00000000 2.10164156 6.32891082
