&CONTROL
calculation = 'relax'
prefix = 'scf'
pseudo_dir = '/vol0403/data/hp230205/u10028/POT_HYBRID_KKJUS_GBRV'
outdir = './data'
tprnfor = .true.
nstep = 50
disk_io = 'non'
/
&SYSTEM
ibrav = 0
ecutwfc = 50.0
ecutrho = 400
occupations = 'smearing'
smearing = 'mp'
degauss = 0.01
assume_isolated = 'esm'
esm_bc = 'bc1'
input_dft = 'BEEF-VDW'
nosym = .true.
nspin = 2
ntyp = 5
nat = 17
starting_magnetization(1) = 0.0
starting_magnetization(2) = 0.0
starting_magnetization(3) = 0.0
starting_magnetization(4) = 0.001
starting_magnetization(5) = 0.0
/
&ELECTRONS
electron_maxstep = 200
mixing_beta = 0.1
conv_thr = 1e-06
/
&IONS
ion_dynamics = 'bfgs'
upscale = 1.0
/
&CELL
/

K_POINTS {automatic}
6 6 1 0 0 0

ATOMIC_SPECIES
Al 26.98 Al.pbe-nl-rrkjus_psl.1.0.0.UPF
C 12.01 C.pbe-n-rrkjus_psl.1.0.0.UPF
Li 6.941 Li.pbe-sl-rrkjus_psl.1.0.0.UPF
Ni 58.69 ni_pbe_v1.4.uspp.F.UPF
Pd 106.4 Pd.pbe-n-rrkjus_psl.1.0.0.UPF


CELL_PARAMETERS {angstrom}
5.91240000 0.00000000 0.00000000
0.00000000 5.91240000 0.00000000
0.00000000 0.00000000 24.43430000

ATOMIC_POSITIONS {angstrom}
Li 0.00141898 2.95755985 2.57390916
Li 0.00000000 0.00000000 -0.7391375800000013 0 0 0
Li 2.95620000 2.95620000 -0.7391375800000013 0 0 0
Li 2.95478102 5.91104015 2.57390916
Al 5.76973379 0.14266621 2.20592860
Al 0.00000000 2.95620000 -0.7391375800000013 0 0 0
Al 2.95620000 0.00000000 -0.7391375800000013 0 0 0
Al 3.09886621 2.81353379 2.20592860
Ni 1.47810000 1.47810000 0.76992479
Ni 1.47810000 4.43430000 -2.2171683800000004 0 0 0
Ni 4.43430000 1.47810000 -2.2171683800000004 0 0 0
Ni 4.43430000 4.43430000 0.77016914
Pd 4.43430000 1.47810000 0.52240533
Pd 4.43430000 4.43430000 -2.2171683800000004 0 0 0
Pd 1.47810000 1.47810000 -2.2171683800000004 0 0 0
Pd 1.47810000 4.43430000 0.98543532
C 4.43430000 1.47810000 2.75692207
