&CONTROL
calculation = 'relax'
prefix = 'scf'
pseudo_dir = '/vol0004/mdt0/data/hp150275/u10028/POT_KKJUS'
outdir = './data'
tprnfor = .true.
nstep = 50
disk_io = 'non'
/
&SYSTEM
ibrav = 0
ecutwfc = 50.0
ecutrho = 400
occupations = 'smearing'
smearing = 'mp'
degauss = 0.01
assume_isolated = 'esm'
esm_bc = 'bc1'
input_dft = 'BEEF-VDW'
nosym = .true.
nspin = 1
ntyp = 2
nat = 16
/
&ELECTRONS
electron_maxstep = 200
mixing_beta = 0.1
conv_thr = 1e-06
/
&IONS
ion_dynamics = 'bfgs'
upscale = 1.0
/
&CELL
/

K_POINTS {automatic}
6 8 1 0 0 0

ATOMIC_SPECIES
Al 26.98 Al.pbe-nl-rrkjus_psl.1.0.0.UPF
Sc 44.95 Sc.pbe-spn-rrkjus_psl.1.0.0.UPF

CELL_PARAMETERS {angstrom}
8.18271000 0.00000000 0.00000000
0.00000000 5.78605000 0.00000000
0.00000000 0.00000000 24.33950000

ATOMIC_POSITIONS {angstrom}
Sc 0.00000000 0.00000000 -2.1698664200000017 0 0 0
Sc 0.00008183 2.89308286 0.76279993
Sc 4.09135500 0.00000000 -2.1698664200000017 0 0 0
Sc 4.09135500 2.89302500 0.76255653
Al 0.00000000 2.89302500 -2.1698664200000017 0 0 0
Al 2.04567750 4.33953750 -0.7233699400000013 0 0 0
Al 2.04567750 1.44651250 -0.7233699400000013 0 0 0
Al 0.00000000 0.00000000 0.93707075
Al 2.04567750 1.39513238 2.11315539
Al 2.04567750 4.39091762 2.11315539
Al 4.09135500 2.89302500 -2.1698664200000017 0 0 0
Al 6.13703250 4.33953750 -0.7233699400000013 0 0 0
Al 6.13703250 1.44651250 -0.7233699400000013 0 0 0
Al 4.09135500 0.00000000 0.93707075
Al 6.13703250 1.39513238 2.11315539
Al 6.13703250 4.39091762 2.11315539
