&CONTROL
calculation = 'relax'
prefix = 'scf'
pseudo_dir = '/vol0403/data/hp230205/u10028/POT_HYBRID_KKJUS_GBRV'
outdir = './data'
tprnfor = .true.
nstep = 50
disk_io = 'non'
/
&SYSTEM
ibrav = 0
ecutwfc = 50.0
ecutrho = 400
occupations = 'smearing'
smearing = 'mp'
degauss = 0.01
assume_isolated = 'esm'
esm_bc = 'bc1'
input_dft = 'BEEF-VDW'
nosym = .true.
nspin = 1
ntyp = 6
nat = 34
/
&ELECTRONS
electron_maxstep = 200
mixing_beta = 0.1
conv_thr = 1e-06
/
&IONS
ion_dynamics = 'bfgs'
upscale = 1.0
/
&CELL
/

K_POINTS {automatic}
6 6 1 0 0 0

ATOMIC_SPECIES
C 12.01 C.pbe-n-rrkjus_psl.1.0.0.UPF
Cu 63.54 Cu.pbe-dn-rrkjus_psl.1.0.0.UPF
In 114.8 In.pbe-dn-rrkjus_psl.1.0.0.UPF
O 15.99 O.pbe-n-rrkjus_psl.1.0.0.UPF
Pd 106.4 Pd.pbe-n-rrkjus_psl.1.0.0.UPF
Sc 44.95 Sc.pbe-spn-rrkjus_psl.1.0.0.UPF


CELL_PARAMETERS {angstrom}
6.53831000 0.00000000 0.00000000
0.00000000 9.24656000 0.00000000
0.00000000 0.00000000 26.93490000

ATOMIC_POSITIONS {angstrom}
Sc 4.90373250 0.00000000 -1.1557765599999996 0 0 0
Sc 4.90373250 4.62328000 -1.1557765599999996 0 0 0
Sc 1.63457750 2.31164000 -3.467329679999999 0 0 0
Sc 1.63457750 6.93492000 -3.467329679999999 0 0 0
Sc 4.91249384 4.56548900 3.48591476
Sc 4.91249384 0.05788347 3.48591476
Sc 1.58246717 6.93492000 1.21126245
Sc 1.62123935 2.31164000 1.17355359
In 1.63457750 0.00000000 -1.1557765599999996 0 0 0
In 1.63457750 4.62328000 -1.1557765599999996 0 0 0
In 4.90373250 2.31164000 -3.467329679999999 0 0 0
In 4.90373250 6.93492000 -3.467329679999999 0 0 0
In 1.63804280 4.71408122 3.61358618
In 1.63817357 9.15575878 3.61358618
In 4.88928283 6.93492000 1.11321942
In 4.88104456 2.31164000 1.19159998
Cu 0.00000000 0.00000000 -3.467329679999999 0 0 0
Cu 0.00000000 4.62328000 -3.467329679999999 0 0 0
Cu 3.26915500 6.93492000 -1.1557765599999996 0 0 0
Cu 3.26915500 2.31164000 -1.1557765599999996 0 0 0
Cu 6.51287597 4.61190673 1.20641417
Cu 6.51287597 0.01137327 1.20668352
Cu 3.06345977 2.31154753 3.57695472
Cu 3.34669936 6.93501247 3.37198013
Pd 0.00000000 2.31164000 -1.1557765599999996 0 0 0
Pd 0.00000000 6.93492000 -1.1557765599999996 0 0 0
Pd 3.26915500 4.62328000 -3.467329679999999 0 0 0
Pd 3.26915500 0.00000000 -3.467329679999999 0 0 0
Pd 6.40970144 6.93501247 3.42234839
Pd 0.14495433 2.31164000 3.38490888
Pd 3.27432026 9.24138193 1.23119428
Pd 3.27438565 4.62845807 1.23119428
C 4.09670890 2.31173247 5.13594673
O 4.44474314 2.31173247 6.25374508
