&CONTROL
calculation = 'relax'
prefix = 'scf'
pseudo_dir = '/vol0004/mdt0/data/hp150275/u10028/POT_HYBRID_KKJUS_GBRV'
outdir = './data'
tprnfor = .true.
nstep = 50
disk_io = 'non'
/
&SYSTEM
ibrav = 0
ecutwfc = 50.0
ecutrho = 400
occupations = 'smearing'
smearing = 'mp'
degauss = 0.01
assume_isolated = 'esm'
esm_bc = 'bc1'
input_dft = 'BEEF-VDW'
nosym = .true.
nspin = 2
ntyp = 3
nat = 33
starting_magnetization(1) = 0.1
starting_magnetization(2) = 0.1
starting_magnetization(3) = 0.1
/
&ELECTRONS
electron_maxstep = 200
mixing_beta = 0.1
conv_thr = 1e-06
/
&IONS
ion_dynamics = 'bfgs'
upscale = 1.0
/
&CELL
/

K_POINTS {automatic}
8 6 1 0 0 0

ATOMIC_SPECIES
C 12.01 C.pbe-n-rrkjus_psl.1.0.0.UPF
In 114.8 In.pbe-dn-rrkjus_psl.1.0.0.UPF
Ni 58.69 ni_pbe_v1.4.uspp.F.UPF

CELL_PARAMETERS {angstrom}
6.35210000 0.00000000 0.00000000
0.00000000 8.98322000 0.00000000
0.00000000 0.00000000 26.73740000

ATOMIC_POSITIONS {angstrom}
In 0.00000000 0.00000000 -3.3686450299999997 0 0 0
In 0.00000000 2.24580500 -1.122970800000001 0 0 0
In 0.00000000 0.00000000 1.19141854
In 0.00000000 2.37309723 3.64671399
In 0.00000000 4.49161000 -3.3686450299999997 0 0 0
In 0.00000000 6.73741500 -1.122970800000001 0 0 0
In 0.00000000 4.49161000 1.09035117
In 0.00000000 6.61012277 3.64671399
In 3.17605000 0.00000000 -3.3686450299999997 0 0 0
In 3.17605000 2.24580500 -1.122970800000001 0 0 0
In 3.17605000 0.00000000 1.13072465
In 3.17605000 2.31641311 3.62826518
In 3.17605000 4.49161000 -3.3686450299999997 0 0 0
In 3.17605000 6.73741500 -1.122970800000001 0 0 0
In 3.17605000 4.49161000 1.08901430
In 3.17605000 6.66671706 3.62826518
Ni 1.58802500 2.24580500 -3.3686450299999997 0 0 0
Ni 1.58802500 0.00000000 -1.122970800000001 0 0 0
Ni 1.57678178 2.26610708 1.13420051
Ni 1.78278039 0.00000000 3.41276174
Ni 1.58802500 6.73741500 -3.3686450299999997 0 0 0
Ni 1.58802500 4.49161000 -1.122970800000001 0 0 0
Ni 1.57678178 6.71711292 1.13420051
Ni 1.61279819 4.49161000 3.20822063
Ni 4.76407500 2.24580500 -3.3686450299999997 0 0 0
Ni 4.76407500 0.00000000 -1.122970800000001 0 0 0
Ni 4.77531822 2.26610708 1.13420051
Ni 4.56931961 0.00000000 3.41276174
Ni 4.76407500 6.73741500 -3.3686450299999997 0 0 0
Ni 4.76407500 4.49161000 -1.122970800000001 0 0 0
Ni 4.77531822 6.71711292 1.13420051
Ni 4.73930181 4.49161000 3.20822063
C 0.00000000 0.00000000 3.72211345
