&CONTROL
calculation = 'relax'
prefix = 'scf'
pseudo_dir = '/vol0004/mdt0/data/hp150275/u10028/POT_KKJUS'
outdir = './data'
tprnfor = .true.
nstep = 50
disk_io = 'non'
/
&SYSTEM
ibrav = 0
ecutwfc = 50.0
ecutrho = 400
occupations = 'smearing'
smearing = 'mp'
degauss = 0.01
assume_isolated = 'esm'
esm_bc = 'bc1'
input_dft = 'BEEF-VDW'
nosym = .true.
nspin = 1
ntyp = 4
nat = 33
/
&ELECTRONS
electron_maxstep = 200
mixing_beta = 0.1
conv_thr = 1e-06
/
&IONS
ion_dynamics = 'bfgs'
upscale = 1.0
/
&CELL
/

K_POINTS {automatic}
8 6 1 0 0 0

ATOMIC_SPECIES
C 12.01 C.pbe-n-rrkjus_psl.1.0.0.UPF
Ni 58.69 Ni.pbe-spn-rrkjus_psl.1.0.0.UPF
Rh 102.9 Rh.pbe-spn-rrkjus_psl.1.0.0.UPF
Sn 118.7 Sn.pbe-dn-rrkjus_psl.1.0.0.UPF

CELL_PARAMETERS {angstrom}
6.23499000 0.00000000 0.00000000
0.00000000 8.81761000 0.00000000
0.00000000 0.00000000 26.61320000

ATOMIC_POSITIONS {angstrom}
Ni 0.00000000 0.00000000 -3.306690100000001 0 0 0
Ni 3.11749500 2.20440250 -1.1023187399999976 0 0 0
Ni 3.11749500 6.61320750 -1.1023187399999976 0 0 0
Ni 0.00000000 4.40880500 -3.306690100000001 0 0 0
Ni 0.00000000 4.40889318 1.15235156
Ni 3.11749500 6.64539178 3.27102841
Ni 3.11749500 2.17230640 3.27102841
Ni 0.00000000 8.81752182 1.22234428
Sn 0.00000000 6.61320750 -1.1023187399999976 0 0 0
Sn 3.11749500 0.00000000 -3.306690100000001 0 0 0
Sn 0.00000000 2.20440250 -1.1023187399999976 0 0 0
Sn 3.11749500 4.40880500 -3.306690100000001 0 0 0
Sn 0.00000000 2.37511143 3.37029565
Sn 3.11749500 4.40880500 1.00810802
Sn 0.00000000 6.44241039 3.37029565
Sn 3.11749500 0.00008818 1.02567273
Rh 1.55874750 0.00000000 -1.1023187399999976 0 0 0
Rh 4.67624250 4.40880500 -1.1023187399999976 0 0 0
Rh 4.67624250 0.00000000 -1.1023187399999976 0 0 0
Rh 1.55874750 4.40880500 -1.1023187399999976 0 0 0
Rh 4.67624250 6.61320750 -3.306690100000001 0 0 0
Rh 1.55874750 2.20440250 -3.306690100000001 0 0 0
Rh 1.55874750 6.61320750 -3.306690100000001 0 0 0
Rh 4.67624250 2.20440250 -3.306690100000001 0 0 0
Rh 1.71574455 4.40871682 3.23031022
Rh 4.61158565 0.00000000 3.37801348
Rh 4.51924545 4.40871682 3.23031022
Rh 1.62340435 0.00000000 3.37801348
Rh 4.69806496 2.18553281 1.11668987
Rh 1.53698738 6.63207719 1.11668987
Rh 1.53692503 2.18553281 1.11668987
Rh 4.69800262 6.63207719 1.11668987
C 0.00000000 0.00000000 4.24693446
