&CONTROL
calculation = 'relax'
prefix = 'scf'
pseudo_dir = '/vol0403/data/hp230205/u10028/POT_HYBRID_KKJUS_GBRV'
outdir = './data'
tprnfor = .true.
nstep = 50
disk_io = 'non'
/
&SYSTEM
ibrav = 0
ecutwfc = 50.0
ecutrho = 400
occupations = 'smearing'
smearing = 'mp'
degauss = 0.01
assume_isolated = 'esm'
esm_bc = 'bc1'
input_dft = 'BEEF-VDW'
nosym = .true.
nspin = 1
ntyp = 6
nat = 34
/
&ELECTRONS
electron_maxstep = 200
mixing_beta = 0.1
conv_thr = 1e-06
/
&IONS
ion_dynamics = 'bfgs'
upscale = 1.0
/
&CELL
/

K_POINTS {automatic}
6 6 1 0 0 0

ATOMIC_SPECIES
C 12.01 C.pbe-n-rrkjus_psl.1.0.0.UPF
Ga 69.72 Ga.pbe-dnl-rrkjus_psl.1.0.0.UPF
Ge 72.64 Ge.pbe-dn-rrkjus_psl.1.0.0.UPF
O 15.99 O.pbe-n-rrkjus_psl.1.0.0.UPF
Pd 106.4 Pd.pbe-n-rrkjus_psl.1.0.0.UPF
Sc 44.95 Sc.pbe-spn-rrkjus_psl.1.0.0.UPF


CELL_PARAMETERS {angstrom}
8.58414000 0.00000000 0.00000000
0.00000000 7.83718000 0.00000000
0.00000000 0.00000000 26.06500000

ATOMIC_POSITIONS {angstrom}
Sc 2.14603500 7.77894975 0.97535230
Sc 2.14603500 0.00000000 -3.0324021000000023 0 0 0
Sc 2.14603500 3.97674188 0.97535230
Sc 2.14603500 3.91859000 -3.0324021000000023 0 0 0
Sc 6.43819084 0.00681835 0.99359780
Sc 6.43810500 0.00000000 -3.0324021000000023 0 0 0
Sc 6.43819084 3.91177165 0.99333715
Sc 6.43810500 3.91859000 -3.0324021000000023 0 0 0
Ga 8.56499737 7.61413386 3.10147435
Ga 0.00000000 0.00000000 -1.0108007000000008 0 0 0
Ga 8.56491153 4.14163614 3.10147435
Ga 0.00000000 3.91859000 -1.0108007000000008 0 0 0
Ga 4.31155600 7.61452572 3.10173500
Ga 4.29207000 0.00000000 -1.0108007000000008 0 0 0
Ga 4.31172768 4.14116591 3.10147435
Ga 4.29207000 3.91859000 -1.0108007000000008 0 0 0
Ge 2.14629252 1.95921663 2.82674925
Ge 2.14603500 1.95929500 -1.0108007000000008 0 0 0
Ge 2.14620668 5.87764988 3.25812500
Ge 2.14603500 5.87788500 -1.0108007000000008 0 0 0
Ge 6.43716074 1.95913826 3.28001960
Ge 6.43810500 1.95929500 -1.0108007000000008 0 0 0
Ge 6.43853421 5.87796337 3.28445065
Ge 6.43810500 5.87788500 -1.0108007000000008 0 0 0
Pd 8.52791388 1.95937337 1.34756050
Pd 0.00000000 1.95929500 -3.0324021000000023 0 0 0
Pd 8.55040433 5.87788500 0.96440500
Pd 0.00000000 5.87788500 -3.0324021000000023 0 0 0
Pd 4.34855364 1.95929500 1.34521465
Pd 4.29207000 1.95929500 -3.0324021000000023 0 0 0
Pd 4.32580567 5.87788500 0.96466565
Pd 4.29207000 5.87788500 -3.0324021000000023 0 0 0
C 2.14303055 1.95929500 4.76911305
O 2.14594916 1.95937337 5.92483515
