&CONTROL
calculation = 'relax'
prefix = 'scf'
pseudo_dir = '/vol0004/mdt0/data/hp150275/u10028/POT_KKJUS'
outdir = './data'
tprnfor = .true.
nstep = 50
disk_io = 'non'
/
&SYSTEM
ibrav = 0
ecutwfc = 50.0
ecutrho = 400
occupations = 'smearing'
smearing = 'mp'
degauss = 0.01
assume_isolated = 'esm'
esm_bc = 'bc1'
input_dft = 'BEEF-VDW'
nosym = .true.
nspin = 1
ntyp = 4
nat = 34
/
&ELECTRONS
electron_maxstep = 200
mixing_beta = 0.1
conv_thr = 1e-06
/
&IONS
ion_dynamics = 'bfgs'
upscale = 1.0
/
&CELL
/

K_POINTS {automatic}
9 6 2 0  0  0

ATOMIC_SPECIES
C 12.01 C.pbe-n-rrkjus_psl.1.0.0.UPF
Hf 178.4 Hf.pbe-spn-rrkjus_psl.1.0.0.UPF
O 15.99 O.pbe-n-rrkjus_psl.1.0.0.UPF
Rh 102.9 Rh.pbe-spn-rrkjus_psl.1.0.0.UPF

CELL_PARAMETERS {angstrom}
6.52860000 0.00000000 0.00000000
0.00000000 9.23283000 0.00000000
0.00000000 0.00000000 26.92460000

ATOMIC_POSITIONS {angstrom}
Hf 0.00000000 0.00000000 -3.462234310000003 0 0 0
Hf 0.00000000 2.30820750 -1.1539883600000032 0 0 0
Hf 0.00000000 0.01209501 1.17525879
Hf 0.00000000 2.30811517 3.57343291
Hf 0.00000000 4.61641500 -3.462234310000003 0 0 0
Hf 0.00000000 6.92462250 -1.1539883600000032 0 0 0
Hf 0.00000000 4.60431999 1.17525879
Hf 0.00000000 6.92471483 3.48862042
Hf 3.26430000 0.00000000 -3.462234310000003 0 0 0
Hf 3.26430000 2.30820750 -1.1539883600000032 0 0 0
Hf 3.26430000 9.23061412 1.16798915
Hf 3.26430000 2.30811517 3.49265911
Hf 3.26430000 4.61641500 -3.462234310000003 0 0 0
Hf 3.26430000 6.92462250 -1.1539883600000032 0 0 0
Hf 3.26430000 4.61863088 1.16798915
Hf 3.26430000 6.92471483 3.49077439
Rh 1.63215000 2.30820750 -3.462234310000003 0 0 0
Rh 1.63215000 0.00000000 -1.1539883600000032 0 0 0
Rh 1.64932022 2.30811517 1.15533459
Rh 1.63241114 9.21261010 3.25679962
Rh 1.63215000 6.92462250 -3.462234310000003 0 0 0
Rh 1.63215000 4.61641500 -1.1539883600000032 0 0 0
Rh 1.62953856 6.92471483 1.16664292
Rh 1.63241114 4.63663490 3.25679962
Rh 4.89645000 2.30820750 -3.462234310000003 0 0 0
Rh 4.89645000 0.00000000 -1.1539883600000032 0 0 0
Rh 4.87927978 2.30811517 1.15533459
Rh 4.89618886 9.21261010 3.25679962
Rh 4.89645000 6.92462250 -3.462234310000003 0 0 0
Rh 4.89645000 4.61641500 -1.1539883600000032 0 0 0
Rh 4.89906144 6.92471483 1.16664292
Rh 4.89618886 4.63663490 3.25679962
C 0.00000000 2.30820750 5.82513721
O 0.00000000 2.30820750 6.97777934
