&CONTROL
calculation = 'relax'
prefix = 'scf'
pseudo_dir = '/vol0403/data/hp230205/u10028/POT_HYBRID_KKJUS_GBRV'
outdir = './data'
tprnfor = .true.
nstep = 50
disk_io = 'non'
/
&SYSTEM
ibrav = 0
ecutwfc = 50.0
ecutrho = 400
occupations = 'smearing'
smearing = 'mp'
degauss = 0.01
assume_isolated = 'esm'
esm_bc = 'bc1'
input_dft = 'BEEF-VDW'
nosym = .true.
nspin = 1
ntyp = 4
nat = 16
/
&ELECTRONS
electron_maxstep = 200
mixing_beta = 0.1
conv_thr = 1e-06
/
&IONS
ion_dynamics = 'bfgs'
upscale = 1.0
/
&CELL
/

K_POINTS {automatic}
11 8 2 0  0  0

ATOMIC_SPECIES
Ge 72.64 Ge.pbe-dn-rrkjus_psl.1.0.0.UPF
In 114.8 In.pbe-dn-rrkjus_psl.1.0.0.UPF
Li 6.941 Li.pbe-sl-rrkjus_psl.1.0.0.UPF
Y 88.90 Y.pbe-spn-rrkjus_psl.1.0.0.UPF


CELL_PARAMETERS {angstrom}
6.30439000 0.00000000 0.00000000
0.00000000 8.57642000 0.00000000
0.00000000 0.00000000 24.70800000

ATOMIC_POSITIONS {angstrom}
Li 4.58259805 2.14410500 -0.7847260799999987 0 0 0
Li 0.96494993 2.14410500 2.24842800
Li 4.58259805 6.43231500 -0.7847260799999987 0 0 0
Li 0.96551733 6.43231500 2.24842800
Y 1.43040305 2.14410500 -0.7847260799999987 0 0 0
Y 4.05977498 2.14419076 2.25485208
Y 1.43040305 6.43231500 -0.7847260799999987 0 0 0
Y 4.06009020 6.43222924 2.25608748
In 3.15219500 0.00000000 -2.3539311599999984 0 0 0
In 5.83685644 0.00008576 0.70491924
In 3.15219500 4.28821000 -2.3539311599999984 0 0 0
In 5.83691948 4.28812424 0.70491924
Ge 0.00000000 0.00000000 -2.3539311599999984 0 0 0
Ge 2.57496505 8.57616271 1.08072792
Ge 0.00000000 4.28821000 -2.3539311599999984 0 0 0
Ge 2.57477592 4.28846729 1.08072792
