&CONTROL
calculation = 'relax'
prefix = 'scf'
pseudo_dir = '/vol0403/data/hp230205/u10028/POT_HYBRID_KKJUS_GBRV'
outdir = './data'
tprnfor = .true.
nstep = 50
disk_io = 'non'
/
&SYSTEM
ibrav = 0
ecutwfc = 50.0
ecutrho = 400
occupations = 'smearing'
smearing = 'mp'
degauss = 0.01
assume_isolated = 'esm'
esm_bc = 'bc1'
input_dft = 'BEEF-VDW'
nosym = .true.
nspin = 1
ntyp = 6
nat = 34
/
&ELECTRONS
electron_maxstep = 200
mixing_beta = 0.1
conv_thr = 1e-06
/
&IONS
ion_dynamics = 'bfgs'
upscale = 1.0
/
&CELL
/

K_POINTS {automatic}
6 6 1 0 0 0

ATOMIC_SPECIES
Au 196.9 Au.pbe-n-rrkjus_psl.1.0.0.UPF
C 12.01 C.pbe-n-rrkjus_psl.1.0.0.UPF
Ge 72.64 Ge.pbe-dn-rrkjus_psl.1.0.0.UPF
In 114.8 In.pbe-dn-rrkjus_psl.1.0.0.UPF
Li 6.941 Li.pbe-sl-rrkjus_psl.1.0.0.UPF
O 15.99 O.pbe-n-rrkjus_psl.1.0.0.UPF


CELL_PARAMETERS {angstrom}
8.46544000 0.00000000 0.00000000
0.00000000 8.57796000 0.00000000
0.00000000 0.00000000 26.29600000

ATOMIC_POSITIONS {angstrom}
Li 2.13227503 0.00000000 1.08786552
Li 2.11636000 0.00000000 -3.14789416 0 0 0
Li 2.10984161 4.28898000 0.93455984
Li 2.11636000 4.28898000 -3.14789416 0 0 0
Li 6.33308032 0.00000000 1.08733960
Li 6.34908000 0.00000000 -3.14789416 0 0 0
Li 6.35559839 4.28898000 0.93429688
Li 6.34908000 4.28898000 -3.14789416 0 0 0
In 8.46535535 2.11952814 1.08733960
In 0.00000000 2.14449000 -3.14789416 0 0 0
In 8.46535535 6.45851764 1.08733960
In 0.00000000 6.43347000 -3.14789416 0 0 0
In 4.23263535 2.14123038 1.06893240
In 4.23272000 2.14449000 -3.14789416 0 0 0
In 4.23263535 6.43672962 1.06893240
In 4.23272000 6.43347000 -3.14789416 0 0 0
Ge 2.12871954 2.86744047 3.63042576
Ge 2.11636000 2.14449000 -1.0492103999999998 0 0 0
Ge 2.12880420 5.71051953 3.63042576
Ge 2.11636000 6.43347000 -1.0492103999999998 0 0 0
Ge 6.33697442 2.86675423 3.63042576
Ge 6.34908000 2.14449000 -1.0492103999999998 0 0 0
Ge 6.33697442 5.71103421 3.63042576
Ge 6.34908000 6.43347000 -1.0492103999999998 0 0 0
Au 8.46357760 0.00034312 2.92832256
Au 0.00000000 0.00000000 -1.0492103999999998 0 0 0
Au 8.46527069 4.28898000 2.90991536
Au 0.00000000 4.28898000 -1.0492103999999998 0 0 0
Au 4.23314327 0.00000000 2.87704536
Au 4.23272000 0.00000000 -1.0492103999999998 0 0 0
Au 4.23305862 4.28889422 2.92148560
Au 4.23272000 4.28898000 -1.0492103999999998 0 0 0
C 0.00203171 8.57727376 5.06198000
O 8.46459346 0.00017156 6.20348936
