&CONTROL
calculation = 'relax'
prefix = 'scf'
pseudo_dir = '/vol0403/data/hp230205/u10028/POT_HYBRID_KKJUS_GBRV'
outdir = './data'
tprnfor = .true.
nstep = 50
disk_io = 'non'
/
&SYSTEM
ibrav = 0
ecutwfc = 50.0
ecutrho = 400
occupations = 'smearing'
smearing = 'mp'
degauss = 0.01
assume_isolated = 'esm'
esm_bc = 'bc1'
input_dft = 'BEEF-VDW'
nosym = .true.
nspin = 1
ntyp = 6
nat = 34
/
&ELECTRONS
electron_maxstep = 200
mixing_beta = 0.1
conv_thr = 1e-06
/
&IONS
ion_dynamics = 'bfgs'
upscale = 1.0
/
&CELL
/

K_POINTS {automatic}
7 7 2 0  0  0

ATOMIC_SPECIES
Ag 107.8 Ag.pbe-n-rrkjus_psl.1.0.0.UPF
Al 26.98 Al.pbe-nl-rrkjus_psl.1.0.0.UPF
C 12.01 C.pbe-n-rrkjus_psl.1.0.0.UPF
Li 6.941 Li.pbe-sl-rrkjus_psl.1.0.0.UPF
O 15.99 O.pbe-n-rrkjus_psl.1.0.0.UPF
Sn 118.7 Sn.pbe-dn-rrkjus_psl.1.0.0.UPF


CELL_PARAMETERS {angstrom}
8.56020000 0.00000000 0.00000000
0.00000000 8.66686000 0.00000000
0.00000000 0.00000000 26.12070000

ATOMIC_POSITIONS {angstrom}
Li 2.14013560 8.65559308 0.98553401
Li 2.14005000 0.00000000 -3.0603012099999987 0 0 0
Li 2.14005000 4.34452358 0.98553401
Li 2.14005000 4.33343000 -3.0603012099999987 0 0 0
Li 6.42023560 0.00572013 0.98135470
Li 6.42015000 0.00000000 -3.0603012099999987 0 0 0
Li 6.42015000 4.32770987 0.98135470
Li 6.42015000 4.33343000 -3.0603012099999987 0 0 0
Al 8.54385002 2.16662833 1.02654351
Al 0.00000000 2.16671500 -3.0603012099999987 0 0 0
Al 8.53272176 6.50005833 1.04770128
Al 0.00000000 6.50014500 -3.0603012099999987 0 0 0
Al 4.29662119 2.16662833 1.02654351
Al 4.28010000 2.16671500 -3.0603012099999987 0 0 0
Al 4.30766384 6.50005833 1.04770128
Al 4.28010000 6.50014500 -3.0603012099999987 0 0 0
Ag 8.55626231 0.00026001 2.68520796
Ag 0.00000000 0.00000000 -1.0200133399999984 0 0 0
Ag 8.55626231 4.33308333 2.68520796
Ag 0.00000000 4.33343000 -1.0200133399999984 0 0 0
Ag 4.28412329 0.00017334 2.68520796
Ag 4.28010000 0.00000000 -1.0200133399999984 0 0 0
Ag 4.28412329 4.33308333 2.68520796
Ag 4.28010000 4.33343000 -1.0200133399999984 0 0 0
Sn 2.14013560 2.16662833 3.17836678
Sn 2.14005000 2.16671500 -1.0200133399999984 0 0 0
Sn 2.14005000 6.50005833 3.20683834
Sn 2.14005000 6.50014500 -1.0200133399999984 0 0 0
Sn 6.42015000 2.16662833 3.23243663
Sn 6.42015000 2.16671500 -1.0200133399999984 0 0 0
Sn 6.42015000 6.50005833 3.26430388
Sn 6.42015000 6.50014500 -1.0200133399999984 0 0 0
C 2.13782435 2.16948840 7.25998736
O 2.14030681 2.16636833 8.39414815
