&CONTROL
calculation = 'relax'
prefix = 'scf'
pseudo_dir = '/vol0004/mdt0/data/hp150275/u10028/POT_KKJUS'
outdir = './data'
tprnfor = .true.
nstep = 50
disk_io = 'non'
/
&SYSTEM
ibrav = 0
ecutwfc = 50.0
ecutrho = 400
occupations = 'smearing'
smearing = 'mp'
degauss = 0.01
assume_isolated = 'esm'
esm_bc = 'bc1'
input_dft = 'BEEF-VDW'
nosym = .true.
nspin = 1
ntyp = 5
nat = 34
/
&ELECTRONS
electron_maxstep = 200
mixing_beta = 0.1
conv_thr = 1e-06
/
&IONS
ion_dynamics = 'bfgs'
upscale = 1.0
/
&CELL
/

K_POINTS {automatic}
9 6 2 0  0  0

ATOMIC_SPECIES
Al 26.98 Al.pbe-nl-rrkjus_psl.1.0.0.UPF
C 12.01 C.pbe-n-rrkjus_psl.1.0.0.UPF
Cu 63.54 Cu.pbe-dn-rrkjus_psl.1.0.0.UPF
O 15.99 O.pbe-n-rrkjus_psl.1.0.0.UPF
Ti 47.86 Ti.pbe-spn-rrkjus_psl.1.0.0.UPF

CELL_PARAMETERS {angstrom}
6.05884000 0.00000000 0.00000000
0.00000000 8.56849000 0.00000000
0.00000000 0.00000000 26.42640000

ATOMIC_POSITIONS {angstrom}
Ti 0.00000000 0.00000000 -3.213185980000002 0 0 0
Ti 3.02942000 2.14212250 -1.0710619900000005 0 0 0
Ti 3.02942000 6.42636750 -1.0710619900000005 0 0 0
Ti 0.00000000 4.28424500 -3.213185980000002 0 0 0
Ti 0.00000000 4.29041431 1.09933824
Ti 3.02942000 6.42636750 3.17513196
Ti 3.02942000 2.14212250 3.14817703
Ti 0.00000000 8.56232069 1.09933824
Al 0.00000000 6.42636750 -1.0710619900000005 0 0 0
Al 3.02942000 0.00000000 -3.213185980000002 0 0 0
Al 0.00000000 2.14212250 -1.0710619900000005 0 0 0
Al 3.02942000 4.28424500 -3.213185980000002 0 0 0
Al 0.00000000 2.14212250 3.21424303
Al 3.02942000 4.28013212 1.07608301
Al 0.00000000 6.42636750 3.21530009
Al 3.02942000 0.00411288 1.07608301
Cu 1.51471000 0.00000000 -1.0710619900000005 0 0 0
Cu 4.54413000 4.28424500 -1.0710619900000005 0 0 0
Cu 4.54413000 0.00000000 -1.0710619900000005 0 0 0
Cu 1.51471000 4.28424500 -1.0710619900000005 0 0 0
Cu 4.54413000 6.42636750 -3.213185980000002 0 0 0
Cu 1.51471000 2.14212250 -3.213185980000002 0 0 0
Cu 1.51471000 6.42636750 -3.213185980000002 0 0 0
Cu 4.54413000 2.14212250 -3.213185980000002 0 0 0
Cu 1.52470709 4.28441637 3.22930608
Cu 4.53413291 8.56831863 3.22957034
Cu 4.53413291 4.28441637 3.22930608
Cu 1.52470709 8.56831863 3.22957034
Cu 4.56224593 2.14229387 1.03406503
Cu 1.53827889 6.42619613 1.06022717
Cu 1.49659407 2.14229387 1.03406503
Cu 4.52050052 6.42619613 1.06022717
C 3.02942000 2.14212250 5.23348426
O 3.02942000 2.14212250 6.38884646
