&CONTROL
calculation = 'relax'
prefix = 'scf'
pseudo_dir = '/vol0004/mdt0/data/hp150275/u10028/POT_HYBRID_KKJUS_GBRV'
outdir = './data'
tprnfor = .true.
nstep = 50
disk_io = 'non'
/
&SYSTEM
ibrav = 0
ecutwfc = 50.0
ecutrho = 400
occupations = 'smearing'
smearing = 'mp'
degauss = 0.01
assume_isolated = 'esm'
esm_bc = 'bc1'
input_dft = 'BEEF-VDW'
nosym = .true.
nspin = 2
ntyp = 3
nat = 32
starting_magnetization(1) = 0.0
starting_magnetization(2) = 0.1
starting_magnetization(3) = 0.0
/
&ELECTRONS
electron_maxstep = 300
mixing_beta = 0.1
conv_thr = 1e-06
/
&IONS
ion_dynamics = 'bfgs'
upscale = 1.0
/
&CELL
/

K_POINTS {automatic}
8 6 1 0 0 0

ATOMIC_SPECIES
Al 26.98 Al.pbe-nl-rrkjus_psl.1.0.0.UPF
Fe 55.84 fe_pbe_v1.5.uspp.F.UPF
Ti 47.86 Ti.pbe-spn-rrkjus_psl.1.0.0.UPF

CELL_PARAMETERS {angstrom}
5.83886000 0.00000000 0.00000000
0.00000000 8.25739000 0.00000000
0.00000000 0.00000000 26.19300000

ATOMIC_POSITIONS {angstrom}
Ti 0.00000000 0.00000000 -3.096536460000003 0 0 0
Ti 2.91943000 2.06434750 -1.03226613 0 0 0
Ti 2.91943000 6.19304250 -1.03226613 0 0 0
Ti 0.00000000 4.12869500 -3.096536460000003 0 0 0
Ti 0.00000000 4.12861243 1.00004874
Ti 2.91943000 6.19320765 3.09915576
Ti 2.91943000 2.06418235 3.09889383
Ti 0.00000000 0.00008257 1.00004874
Al 0.00000000 6.19304250 -1.03226613 0 0 0
Al 2.91943000 0.00000000 -3.096536460000003 0 0 0
Al 0.00000000 2.06434750 -1.03226613 0 0 0
Al 2.91943000 4.12869500 -3.096536460000003 0 0 0
Al 0.00000000 2.06426493 3.20288004
Al 2.91943000 4.12869500 1.00947822
Al 0.00000000 6.19312507 3.20314197
Al 2.91943000 0.00000000 1.00947822
Fe 1.45971500 0.00000000 -1.03226613 0 0 0
Fe 4.37914500 4.12869500 -1.03226613 0 0 0
Fe 4.37914500 0.00000000 -1.03226613 0 0 0
Fe 1.45971500 4.12869500 -1.03226613 0 0 0
Fe 4.37914500 6.19304250 -3.096536460000003 0 0 0
Fe 1.45971500 2.06434750 -3.096536460000003 0 0 0
Fe 1.45971500 6.19304250 -3.096536460000003 0 0 0
Fe 4.37914500 2.06434750 -3.096536460000003 0 0 0
Fe 1.40640621 4.12886015 3.05541345
Fe 4.43239540 8.25722485 3.05541345
Fe 4.43245379 4.12886015 3.05541345
Fe 1.40646460 8.25722485 3.05541345
Fe 4.36443107 2.06459522 1.07653230
Fe 1.47442893 6.19279478 1.07653230
Fe 1.47442893 2.06459522 1.07653230
Fe 4.36443107 6.19279478 1.07679423
