&CONTROL
calculation = 'relax'
prefix = 'scf'
pseudo_dir = '/vol0004/mdt0/data/hp150275/u10028/POT_HYBRID_KKJUS_GBRV'
outdir = './data'
tprnfor = .true.
nstep = 70
disk_io = 'non'
/
&SYSTEM
ibrav = 0
ecutwfc = 50.0
ecutrho = 400
occupations = 'smearing'
smearing = 'mp'
degauss = 0.01
assume_isolated = 'esm'
esm_bc = 'bc1'
input_dft = 'BEEF-VDW'
nosym = .true.
nspin = 1
ntyp = 4
nat = 34
/
&ELECTRONS
electron_maxstep = 200
mixing_beta = 0.1
conv_thr = 1e-06
/
&IONS
ion_dynamics = 'bfgs'
upscale = 1.0
/
&CELL
/

K_POINTS {automatic}
6 8 1 0 0 0

ATOMIC_SPECIES
C 12.01 C.pbe-n-rrkjus_psl.1.0.0.UPF
Ir 192.2 Ir.pbe-n-rrkjus_psl.0.2.3.UPF
O 15.99 O.pbe-n-rrkjus_psl.1.0.0.UPF
Ti 47.86 Ti.pbe-spn-rrkjus_psl.1.0.0.UPF

CELL_PARAMETERS {angstrom}
8.32494000 0.00000000 0.00000000
-0.00000000 7.04360000 0.00000000
0.00000000 0.00000000 26.24370000

ATOMIC_POSITIONS {angstrom}
Ti 2.08123500 1.76090000 -3.121950550000001 0 0 0
Ti 0.00000000 1.76090000 -1.0405626999999988 0 0 0
Ti 2.08123500 1.76090000 1.04056270
Ti 0.00000000 1.76090000 3.12195055
Ti 2.08123500 5.28270000 -3.121950550000001 0 0 0
Ti 0.00000000 5.28270000 -1.0405626999999988 0 0 0
Ti 2.08123500 5.28270000 1.04056270
Ti 0.00000000 5.28270000 3.12195055
Ti 6.24370500 1.76090000 -3.121950550000001 0 0 0
Ti 4.16247000 1.76090000 -1.0405626999999988 0 0 0
Ti 6.24370500 1.76090000 1.04056270
Ti 4.16247000 1.76090000 3.12195055
Ti 6.24370500 5.28270000 -3.121950550000001 0 0 0
Ti 4.16247000 5.28270000 -1.0405626999999988 0 0 0
Ti 6.24370500 5.28270000 1.04056270
Ti 4.16247000 5.28270000 3.12195055
Ir 0.00000000 0.00000000 -3.121950550000001 0 0 0
Ir 2.08123500 0.00000000 -1.0405626999999988 0 0 0
Ir 0.00000000 0.00000000 1.04056270
Ir 2.08123500 -0.00000000 3.12195055
Ir 0.00000000 3.52180000 -3.121950550000001 0 0 0
Ir 2.08123500 3.52180000 -1.0405626999999988 0 0 0
Ir 0.00000000 3.52180000 1.04056270
Ir 2.08123500 3.52180000 3.12195055
Ir 4.16247000 0.00000000 -3.121950550000001 0 0 0
Ir 6.24370500 0.00000000 -1.0405626999999988 0 0 0
Ir 4.16247000 -0.00000000 1.04056270
Ir 6.24370500 -0.00000000 3.12195055
Ir 4.16247000 3.52180000 -3.121950550000001 0 0 0
Ir 6.24370500 3.52180000 -1.0405626999999988 0 0 0
Ir 4.16247000 3.52180000 1.04056270
Ir 6.24370500 3.52180000 3.12195055
C 0.00000000 1.76090000 5.02173199
O 0.00000000 1.76090000 6.17173093
