&CONTROL
calculation = 'relax'
prefix = 'scf'
pseudo_dir = '/vol0004/mdt0/data/hp150275/u10028/POT_KKJUS'
outdir = './data'
tprnfor = .true.
nstep = 50
disk_io = 'non'
/
&SYSTEM
ibrav = 0
ecutwfc = 50.0
ecutrho = 400
occupations = 'smearing'
smearing = 'mp'
degauss = 0.01
assume_isolated = 'esm'
esm_bc = 'bc1'
input_dft = 'BEEF-VDW'
nosym = .true.
nspin = 1
ntyp = 3
nat = 32
/
&ELECTRONS
electron_maxstep = 200
mixing_beta = 0.1
conv_thr = 1e-06
/
&IONS
ion_dynamics = 'bfgs'
upscale = 1.0
/
&CELL
/

K_POINTS {automatic}
8 6 1 0 0 0

ATOMIC_SPECIES
Mg 24.30 Mg.pbe-spnl-rrkjus_psl.1.0.0.UPF
Ni 58.69 Ni.pbe-spn-rrkjus_psl.1.0.0.UPF
Sb 121.7 Sb.pbe-n-rrkjus_psl.1.0.0.UPF

CELL_PARAMETERS {angstrom}
6.22749000 0.00000000 0.00000000
0.00000000 8.80700000 0.00000000
0.00000000 0.00000000 26.60530000

ATOMIC_POSITIONS {angstrom}
Mg 0.00000000 0.00000000 -3.3025158899999987 0 0 0
Mg 3.11374500 2.20175000 -1.1009273099999994 0 0 0
Mg 3.11374500 6.60525000 -1.1009273099999994 0 0 0
Mg 0.00000000 4.40350000 -3.3025158899999987 0 0 0
Mg 0.00000000 4.40350000 1.04452408
Mg 3.11374500 6.60542614 3.51748671
Mg 3.11374500 2.20157386 3.51748671
Mg 0.00006227 0.00008807 1.04452408
Ni 1.55687250 0.00000000 -1.1009273099999994 0 0 0
Ni 4.67061750 4.40350000 -1.1009273099999994 0 0 0
Ni 4.67061750 0.00000000 -1.1009273099999994 0 0 0
Ni 1.55687250 4.40350000 -1.1009273099999994 0 0 0
Ni 4.67061750 6.60525000 -3.3025158899999987 0 0 0
Ni 1.55687250 2.20175000 -3.3025158899999987 0 0 0
Ni 1.55687250 6.60525000 -3.3025158899999987 0 0 0
Ni 4.67061750 2.20175000 -3.3025158899999987 0 0 0
Ni 1.49683950 4.40350000 3.10191193
Ni 4.73027685 0.00000000 3.10244403
Ni 4.73065050 4.40350000 3.10191193
Ni 1.49727542 0.00000000 3.10244403
Ni 4.68114196 2.20166193 1.17861479
Ni 1.54641032 6.60507386 1.18021111
Ni 1.54641032 2.20175000 1.17861479
Ni 4.68101741 6.60525000 1.18021111
Sb 0.00000000 6.60525000 -1.1009273099999994 0 0 0
Sb 3.11374500 0.00000000 -3.3025158899999987 0 0 0
Sb 0.00000000 2.20175000 -1.1009273099999994 0 0 0
Sb 3.11374500 4.40350000 -3.3025158899999987 0 0 0
Sb 0.00000000 2.20166193 3.44778083
Sb 3.11380727 4.40358807 1.11609234
Sb 0.00000000 6.60533807 3.44804688
Sb 3.11374500 8.80691193 1.11582628
