&CONTROL
calculation = 'relax'
prefix = 'scf'
pseudo_dir = '/vol0403/data/hp230205/u10028/POT_HYBRID_KKJUS_GBRV'
outdir = './data'
tprnfor = .true.
nstep = 50
disk_io = 'non'
/
&SYSTEM
ibrav = 0
ecutwfc = 50.0
ecutrho = 400
occupations = 'smearing'
smearing = 'mp'
degauss = 0.01
assume_isolated = 'esm'
esm_bc = 'bc1'
input_dft = 'BEEF-VDW'
nosym = .true.
nspin = 1
ntyp = 4
nat = 32
/
&ELECTRONS
electron_maxstep = 200
mixing_beta = 0.1
conv_thr = 1e-06
/
&IONS
ion_dynamics = 'bfgs'
upscale = 1.0
/
&CELL
/

K_POINTS {automatic}
6 6 1 0 0 0

ATOMIC_SPECIES
Ge 72.64 Ge.pbe-dn-rrkjus_psl.1.0.0.UPF
In 114.8 In.pbe-dn-rrkjus_psl.1.0.0.UPF
Li 6.941 Li.pbe-sl-rrkjus_psl.1.0.0.UPF
Mg 24.30 Mg.pbe-spnl-rrkjus_psl.1.0.0.UPF


CELL_PARAMETERS {angstrom}
8.75068000 0.00000000 0.00000000
0.00000000 8.41850000 0.00000000
0.00000000 0.00000000 26.30740000

ATOMIC_POSITIONS {angstrom}
Li 2.18767000 0.00000000 1.05124370
Li 2.18767000 0.00000000 -3.1537311100000025 0 0 0
Li 2.18767000 4.20925000 1.05124370
Li 2.18767000 4.20925000 -3.1537311100000025 0 0 0
Li 6.56301000 0.00000000 1.05124370
Li 6.56301000 0.00000000 -3.1537311100000025 0 0 0
Li 6.56301000 4.20925000 1.05124370
Li 6.56301000 4.20925000 -3.1537311100000025 0 0 0
Mg 0.00000000 2.10462500 1.05124370
Mg 0.00000000 2.10462500 -3.1537311100000025 0 0 0
Mg 0.00000000 6.31387500 1.05124370
Mg 0.00000000 6.31387500 -3.1537311100000025 0 0 0
Mg 4.37534000 2.10462500 1.05124370
Mg 4.37534000 2.10462500 -3.1537311100000025 0 0 0
Mg 4.37534000 6.31387500 1.05124370
Mg 4.37534000 6.31387500 -3.1537311100000025 0 0 0
In 2.18767000 2.10462500 3.15373111
In 2.18767000 2.10462500 -1.0512437000000006 0 0 0
In 2.18767000 6.31387500 3.15373111
In 2.18767000 6.31387500 -1.0512437000000006 0 0 0
In 6.56301000 2.10462500 3.15373111
In 6.56301000 2.10462500 -1.0512437000000006 0 0 0
In 6.56301000 6.31387500 3.15373111
In 6.56301000 6.31387500 -1.0512437000000006 0 0 0
Ge 0.00000000 0.00000000 3.15373111
Ge 0.00000000 0.00000000 -1.0512437000000006 0 0 0
Ge 0.00000000 4.20925000 3.15373111
Ge 0.00000000 4.20925000 -1.0512437000000006 0 0 0
Ge 4.37534000 0.00000000 3.15373111
Ge 4.37534000 0.00000000 -1.0512437000000006 0 0 0
Ge 4.37534000 4.20925000 3.15373111
Ge 4.37534000 4.20925000 -1.0512437000000006 0 0 0
