&CONTROL
calculation = 'relax'
prefix = 'scf'
pseudo_dir = '/vol0403/data/hp230205/u10028/POT_HYBRID_KKJUS_GBRV'
outdir = './data'
tprnfor = .true.
nstep = 50
disk_io = 'non'
/
&SYSTEM
ibrav = 0
ecutwfc = 50.0
ecutrho = 400
occupations = 'smearing'
smearing = 'mp'
degauss = 0.01
assume_isolated = 'esm'
esm_bc = 'bc1'
input_dft = 'BEEF-VDW'
nosym = .true.
nspin = 1
ntyp = 4
nat = 32
/
&ELECTRONS
electron_maxstep = 200
mixing_beta = 0.1
conv_thr = 1e-06
/
&IONS
ion_dynamics = 'bfgs'
upscale = 1.0
/
&CELL
/

K_POINTS {automatic}
7 7 2 0  0  0

ATOMIC_SPECIES
Ge 72.64 Ge.pbe-dn-rrkjus_psl.1.0.0.UPF
In 114.8 In.pbe-dn-rrkjus_psl.1.0.0.UPF
Li 6.941 Li.pbe-sl-rrkjus_psl.1.0.0.UPF
Mg 24.30 Mg.pbe-spnl-rrkjus_psl.1.0.0.UPF


CELL_PARAMETERS {angstrom}
8.75068000 0.00000000 0.00000000
0.00000000 8.41850000 0.00000000
0.00000000 0.00000000 26.30740000

ATOMIC_POSITIONS {angstrom}
Li 2.18767000 0.00000000 1.07597266
Li 2.18767000 0.00000000 -3.1537311100000025 0 0 0
Li 2.18767000 4.20925000 1.07597266
Li 2.18767000 4.20925000 -3.1537311100000025 0 0 0
Li 6.56301000 0.00000000 1.07597266
Li 6.56301000 0.00000000 -3.1537311100000025 0 0 0
Li 6.56301000 4.20925000 1.07597266
Li 6.56301000 4.20925000 -3.1537311100000025 0 0 0
Mg 0.00008751 2.10454082 1.10070162
Mg 0.00000000 2.10462500 -3.1537311100000025 0 0 0
Mg 0.00008751 6.31395918 1.10096469
Mg 0.00000000 6.31387500 -3.1537311100000025 0 0 0
Mg 4.37525249 2.10470919 1.10043854
Mg 4.37534000 2.10462500 -3.1537311100000025 0 0 0
Mg 4.37516499 6.31387500 1.10122776
Mg 4.37534000 6.31387500 -3.1537311100000025 0 0 0
In 2.18740748 2.10454082 3.49967342
In 2.18767000 2.10462500 -1.0512437000000006 0 0 0
In 2.18740748 6.31395918 3.49967342
In 2.18767000 6.31387500 -1.0512437000000006 0 0 0
In 6.56327252 2.10462500 3.49967342
In 6.56301000 2.10462500 -1.0512437000000006 0 0 0
In 6.56327252 6.31387500 3.49967342
In 6.56301000 6.31387500 -1.0512437000000006 0 0 0
Ge 0.00008751 8.41824745 3.04929073
Ge 0.00000000 0.00000000 -1.0512437000000006 0 0 0
Ge 0.00026252 4.20950255 3.04929073
Ge 0.00000000 4.20925000 -1.0512437000000006 0 0 0
Ge 4.37534000 0.00042093 3.04981688
Ge 4.37534000 0.00000000 -1.0512437000000006 0 0 0
Ge 4.37498997 4.20874489 3.05007996
Ge 4.37534000 4.20925000 -1.0512437000000006 0 0 0
