&CONTROL
calculation = 'relax'
prefix = 'scf'
pseudo_dir = '/vol0004/mdt0/data/hp150275/u10028/POT_KKJUS'
outdir = './data'
tprnfor = .true.
nstep = 50
disk_io = 'non'
/
&SYSTEM
ibrav = 0
ecutwfc = 50.0
ecutrho = 400
occupations = 'smearing'
smearing = 'mp'
degauss = 0.01
assume_isolated = 'esm'
esm_bc = 'bc1'
input_dft = 'BEEF-VDW'
nosym = .true.
nspin = 1
ntyp = 4
nat = 18
/
&ELECTRONS
electron_maxstep = 200
mixing_beta = 0.1
conv_thr = 1e-06
/
&IONS
ion_dynamics = 'bfgs'
upscale = 1.0
/
&CELL
/

K_POINTS {automatic}
9 9 2 0  0  0

ATOMIC_SPECIES
C 12.01 C.pbe-n-rrkjus_psl.1.0.0.UPF
In 114.8 In.pbe-dn-rrkjus_psl.1.0.0.UPF
O 15.99 O.pbe-n-rrkjus_psl.1.0.0.UPF
Pd 106.4 Pd.pbe-n-rrkjus_psl.1.0.0.UPF

CELL_PARAMETERS {angstrom}
6.68646000 0.00000000 0.00000000
0.00000000 6.68646000 0.00000000
0.00000000 0.00000000 25.01480000

ATOMIC_POSITIONS {angstrom}
In 1.67161500 1.67161500 -0.8039756699999998 0 0 0
In 1.65750657 1.65743970 2.37040245
In 1.67161500 5.01484500 -0.8039756699999998 0 0 0
In 1.67315289 5.01471127 2.73136601
In 5.01484500 1.67161500 -0.8039756699999998 0 0 0
In 5.01457754 1.67295229 2.73161616
In 5.01484500 5.01484500 -0.8039756699999998 0 0 0
In 5.00909464 5.00916151 2.67208094
Pd 0.00000000 0.00000000 -2.4757147600000025 0 0 0
Pd 6.65403067 6.65389694 0.88452333
Pd 0.00000000 3.34323000 -2.4757147600000025 0 0 0
Pd 6.66519706 3.37164746 0.89277821
Pd 3.34323000 0.00000000 -2.4757147600000025 0 0 0
Pd 3.37164746 6.66513019 0.89277821
Pd 3.34323000 3.34323000 -2.4757147600000025 0 0 0
Pd 3.36108285 3.36121658 0.90003250
C 1.74048554 1.74075300 5.30188686
O 1.63229862 1.63223175 6.42705256
