&CONTROL
calculation = 'relax'
prefix = 'scf'
pseudo_dir = '/vol0004/mdt0/data/hp150275/u10028/POT_KKJUS'
outdir = './data'
tprnfor = .true.
nstep = 50
disk_io = 'non'
/
&SYSTEM
ibrav = 0
ecutwfc = 50.0
ecutrho = 400
occupations = 'smearing'
smearing = 'mp'
degauss = 0.01
assume_isolated = 'esm'
esm_bc = 'bc1'
input_dft = 'BEEF-VDW'
nosym = .true.
nspin = 1
ntyp = 5
nat = 34
/
&ELECTRONS
electron_maxstep = 200
mixing_beta = 0.1
conv_thr = 1e-06
/
&IONS
ion_dynamics = 'bfgs'
upscale = 1.0
/
&CELL
/

K_POINTS {automatic}
8 6 1 0 0 0

ATOMIC_SPECIES
Al 26.98 Al.pbe-nl-rrkjus_psl.1.0.0.UPF
Au 196.9 Au.pbe-n-rrkjus_psl.1.0.0.UPF
C 12.01 C.pbe-n-rrkjus_psl.1.0.0.UPF
Hf 178.4 Hf.pbe-spn-rrkjus_psl.1.0.0.UPF
O 15.99 O.pbe-n-rrkjus_psl.1.0.0.UPF

CELL_PARAMETERS {angstrom}
6.63475000 0.00000000 0.00000000
0.00000000 9.38295000 0.00000000
0.00000000 0.00000000 27.03720000

ATOMIC_POSITIONS {angstrom}
Hf 0.00000000 0.00000000 -3.518621209999999 0 0 0
Hf 3.31737500 2.34573750 -1.17287374 0 0 0
Hf 3.31737500 7.03721250 -1.17287374 0 0 0
Hf 0.00000000 4.69147500 -3.518621209999999 0 0 0
Hf 6.49469043 4.69147500 1.36916381
Hf 3.05218404 7.25883778 3.26771599
Hf 3.05218404 2.12411222 3.26798636
Hf 0.43802620 0.00000000 1.68603979
Al 0.00000000 7.03721250 -1.17287374 0 0 0
Al 3.31737500 0.00000000 -3.518621209999999 0 0 0
Al 0.00000000 2.34573750 -1.17287374 0 0 0
Al 3.31737500 4.69147500 -3.518621209999999 0 0 0
Al 6.59348186 2.45570567 3.52538051
Al 3.33940237 4.69147500 1.08148800
Al 6.59354820 6.92724433 3.52538051
Al 3.40880186 0.00000000 1.09311400
Au 1.65868750 0.00000000 -1.17287374 0 0 0
Au 4.97606250 4.69147500 -1.17287374 0 0 0
Au 4.97606250 0.00000000 -1.17287374 0 0 0
Au 1.65868750 4.69147500 -1.17287374 0 0 0
Au 4.97606250 7.03721250 -3.518621209999999 0 0 0
Au 1.65868750 2.34573750 -3.518621209999999 0 0 0
Au 1.65868750 7.03721250 -3.518621209999999 0 0 0
Au 4.97606250 2.34573750 -3.518621209999999 0 0 0
Au 1.54795352 4.69147500 3.71626314
Au 4.89943114 0.00000000 3.68462962
Au 4.54679418 4.69147500 3.43264291
Au 1.26989115 0.00000000 4.32757423
Au 5.10908924 2.14700662 1.16638481
Au 1.58504178 6.85959326 1.01362463
Au 1.58504178 2.52335674 1.01362463
Au 5.10908924 7.23594338 1.16638481
C 1.58762933 0.00000000 6.40808677
O 1.75024705 0.00000000 7.54175657
