&CONTROL
calculation = 'relax'
prefix = 'scf'
pseudo_dir = '/vol0004/mdt0/data/hp150275/u10028/POT_KKJUS'
outdir = './data'
tprnfor = .true.
nstep = 50
disk_io = 'non'
/
&SYSTEM
ibrav = 0
ecutwfc = 50.0
ecutrho = 400
occupations = 'smearing'
smearing = 'mp'
degauss = 0.01
assume_isolated = 'esm'
esm_bc = 'bc1'
input_dft = 'BEEF-VDW'
nosym = .true.
nspin = 1
ntyp = 4
nat = 34
/
&ELECTRONS
electron_maxstep = 200
mixing_beta = 0.1
conv_thr = 1e-06
/
&IONS
ion_dynamics = 'bfgs'
upscale = 1.0
/
&CELL
/

K_POINTS {automatic}
8 6 1 0 0 0

ATOMIC_SPECIES
Be 9.012 Be.pbe-n-rrkjus_psl.1.0.0.UPF
C 12.01 C.pbe-n-rrkjus_psl.1.0.0.UPF
Li 6.941 Li.pbe-sl-rrkjus_psl.1.0.0.UPF
O 15.99 O.pbe-n-rrkjus_psl.1.0.0.UPF

CELL_PARAMETERS {angstrom}
5.62306000 0.00000000 0.00000000
0.00000000 7.95221000 0.00000000
0.00000000 0.00000000 25.96420000

ATOMIC_POSITIONS {angstrom}
Li 0.00000000 0.00000000 -2.9819883700000034 0 0 0
Li 0.00000000 1.98805250 -0.9939095800000004 0 0 0
Li 0.05415007 7.95213048 0.86824285
Li 0.01310173 1.95497131 3.49244454
Li 0.00000000 3.97610500 -2.9819883700000034 0 0 0
Li 0.00000000 5.96415750 -0.9939095800000004 0 0 0
Li 0.00241792 3.97610500 0.85058719
Li 0.01304550 5.99723869 3.49244454
Li 2.81153000 0.00000000 -2.9819883700000034 0 0 0
Li 2.81153000 1.98805250 -0.9939095800000004 0 0 0
Li 2.75737993 0.00000000 0.86798321
Li 2.79848450 1.95481226 3.49244454
Li 2.81153000 3.97610500 -2.9819883700000034 0 0 0
Li 2.81153000 5.96415750 -0.9939095800000004 0 0 0
Li 2.80911208 3.97610500 0.85006791
Li 2.79848450 5.99739774 3.49244454
Be 1.40576500 1.98805250 -2.9819883700000034 0 0 0
Be 1.40576500 0.00000000 -0.9939095800000004 0 0 0
Be 1.40587746 1.99051769 1.40829821
Be 1.40576500 0.00000000 2.73974238
Be 1.40576500 5.96415750 -2.9819883700000034 0 0 0
Be 1.40576500 3.97610500 -0.9939095800000004 0 0 0
Be 1.40593369 5.96169231 1.40829821
Be 1.40643977 3.97610500 2.62238420
Be 4.21729500 1.98805250 -2.9819883700000034 0 0 0
Be 4.21729500 0.00000000 -0.9939095800000004 0 0 0
Be 4.21718254 1.99958320 1.40076859
Be 4.21729500 0.00000000 2.54241446
Be 4.21729500 5.96415750 -2.9819883700000034 0 0 0
Be 4.21729500 3.97610500 -0.9939095800000004 0 0 0
Be 4.21712631 5.95262680 1.40076859
Be 4.21667646 3.97610500 2.65925336
C 1.40576500 0.00023857 4.36769772
O 1.40576500 0.00039761 5.56127200
