&CONTROL
calculation = 'relax'
prefix = 'scf'
pseudo_dir = '/vol0403/data/hp230205/u10028/POT_HYBRID_KKJUS_GBRV'
outdir = './data'
tprnfor = .true.
nstep = 70
disk_io = 'non'
/
&SYSTEM
ibrav = 0
ecutwfc = 50.0
ecutrho = 400
occupations = 'smearing'
smearing = 'mp'
degauss = 0.01
assume_isolated = 'esm'
esm_bc = 'bc1'
input_dft = 'BEEF-VDW'
nosym = .true.
nspin = 1
ntyp = 6
nat = 18
/
&ELECTRONS
electron_maxstep = 200
mixing_beta = 0.1
conv_thr = 1e-06
/
&IONS
ion_dynamics = 'bfgs'
upscale = 1.0
/
&CELL
/

K_POINTS {automatic}
9 9 2 0  0  0

ATOMIC_SPECIES
Al 26.98 Al.pbe-nl-rrkjus_psl.1.0.0.UPF
C 12.01 C.pbe-n-rrkjus_psl.1.0.0.UPF
Ga 69.72 Ga.pbe-dnl-rrkjus_psl.1.0.0.UPF
O 15.99 O.pbe-n-rrkjus_psl.1.0.0.UPF
Pd 106.4 Pd.pbe-n-rrkjus_psl.1.0.0.UPF
Sc 44.95 Sc.pbe-spn-rrkjus_psl.1.0.0.UPF


CELL_PARAMETERS {angstrom}
6.45143000 0.00000000 0.00000000
-0.00000000 6.45143000 0.00000000
0.00000000 0.00000000 24.83860000

ATOMIC_POSITIONS {angstrom}
Sc 0.00000000 3.22571500 -2.419279639999999 0 0 0
Sc 0.00116126 6.45084937 0.91505402
Sc 3.22313443 3.22313443 0.91033469
Sc 3.22571500 0.00000000 -2.419279639999999 0 0 0
Al 0.00000000 0.00000000 -2.419279639999999 0 0 0
Al 6.42814034 3.25152072 0.86761230
Al 3.24294032 6.43633365 0.87804451
Al 3.22571500 3.22571500 -2.419279639999999 0 0 0
Ga 4.83857250 1.61285750 -0.8065093399999981 0 0 0
Ga 4.83541130 4.83934667 2.75658783
Ga 1.60130944 1.62382493 2.59141114
Ga 1.61285750 4.83857250 -0.8065093399999981 0 0 0
Pd 1.61285750 1.61285750 -0.8065093399999981 0 0 0
Pd 1.61492196 4.83121787 2.28390927
Pd 4.84695936 1.61853476 2.28490281
Pd 4.83857250 4.83857250 -0.8065093399999981 0 0 0
C 1.74756336 1.53724674 5.49280800
O 1.53485971 1.65543694 6.60259665
