&CONTROL
calculation = 'relax'
prefix = 'scf'
pseudo_dir = '/vol0004/mdt0/data/hp150275/u10028/POT_HYBRID_KKJUS_GBRV'
outdir = './data'
tprnfor = .true.
nstep = 50
disk_io = 'non'
/
&SYSTEM
ibrav = 0
ecutwfc = 50.0
ecutrho = 400
occupations = 'smearing'
smearing = 'mp'
degauss = 0.01
assume_isolated = 'esm'
esm_bc = 'bc1'
input_dft = 'BEEF-VDW'
nosym = .true.
nspin = 2
ntyp = 5
nat = 34
starting_magnetization(1) = 0.0
starting_magnetization(2) = 0.0
starting_magnetization(3) = 0.001
starting_magnetization(4) = 0.0
starting_magnetization(5) = 0.0
/
&ELECTRONS
electron_maxstep = 300
mixing_beta = 0.1
conv_thr = 1e-06
/
&IONS
ion_dynamics = 'bfgs'
upscale = 1.0
/
&CELL
/

K_POINTS {automatic}
9 6 2 0  0  0

ATOMIC_SPECIES
C 12.01 C.pbe-n-rrkjus_psl.1.0.0.UPF
Li 6.941 Li.pbe-sl-rrkjus_psl.1.0.0.UPF
Ni 58.69 ni_pbe_v1.4.uspp.F.UPF
O 15.99 O.pbe-n-rrkjus_psl.1.0.0.UPF
Si 28.08 Si.pbe-nl-rrkjus_psl.1.0.0.UPF

CELL_PARAMETERS {angstrom}
5.56332000 0.00000000 0.00000000
0.00000000 7.86772000 0.00000000
0.00000000 0.00000000 25.90080000

ATOMIC_POSITIONS {angstrom}
Li 0.00000000 0.00000000 -2.95036013 0 0 0
Li 2.78166000 1.96693000 -0.9834533800000003 0 0 0
Li 2.78166000 5.90079000 -0.9834533800000003 0 0 0
Li 0.00000000 3.93386000 -2.95036013 0 0 0
Li 0.00000000 3.94605497 0.87570605
Li 2.78166000 5.90071132 3.52121376
Li 2.78166000 1.96693000 3.44610144
Li 0.00000000 7.85552503 0.87570605
Si 0.00000000 5.90079000 -0.9834533800000003 0 0 0
Si 2.78166000 0.00000000 -2.95036013 0 0 0
Si 0.00000000 1.96693000 -0.9834533800000003 0 0 0
Si 2.78166000 3.93386000 -2.95036013 0 0 0
Si 0.00000000 1.96685132 2.97237581
Si 2.78166000 3.93598428 0.98371238
Si 0.00000000 5.90079000 2.90088960
Si 2.78166000 7.86559572 0.98371238
Ni 1.39083000 0.00000000 -0.9834533800000003 0 0 0
Ni 4.17249000 3.93386000 -0.9834533800000003 0 0 0
Ni 4.17249000 0.00000000 -0.9834533800000003 0 0 0
Ni 1.39083000 3.93386000 -0.9834533800000003 0 0 0
Ni 4.17249000 5.90079000 -2.95036013 0 0 0
Ni 1.39083000 1.96693000 -2.95036013 0 0 0
Ni 1.39083000 5.90079000 -2.95036013 0 0 0
Ni 4.17249000 1.96693000 -2.95036013 0 0 0
Ni 1.29107967 3.95817125 2.77630675
Ni 4.27212906 7.84333007 2.77604774
Ni 4.27224033 3.95817125 2.77630675
Ni 1.29119094 7.84333007 2.77604774
Ni 4.14940222 1.96708735 1.01401632
Ni 1.42482189 5.90071132 0.97697818
Ni 1.41391778 1.96708735 1.01401632
Ni 4.13849811 5.90071132 0.97697818
C 0.00000000 1.96693000 4.82454202
O 0.00000000 1.96700868 5.98904198
