&CONTROL
calculation = 'relax'
prefix = 'scf'
pseudo_dir = '/vol0004/mdt0/data/hp150275/u10028/POT_HYBRID_KKJUS_GBRV'
outdir = './data'
tprnfor = .true.
nstep = 50
disk_io = 'non'
/
&SYSTEM
ibrav = 0
ecutwfc = 50.0
ecutrho = 400
occupations = 'smearing'
smearing = 'mp'
degauss = 0.01
assume_isolated = 'esm'
esm_bc = 'bc1'
input_dft = 'BEEF-VDW'
nosym = .true.
nspin = 2
ntyp = 5
nat = 34
starting_magnetization(1) = 0.0
starting_magnetization(2) = 0.1
starting_magnetization(3) = 0.0
starting_magnetization(4) = 0.0
starting_magnetization(5) = 0.0
/
&ELECTRONS
electron_maxstep = 200
mixing_beta = 0.1
conv_thr = 1e-06
/
&IONS
ion_dynamics = 'bfgs'
upscale = 1.0
/
&CELL
/

K_POINTS {automatic}
9 6 2 0  0  0

ATOMIC_SPECIES
C 12.01 C.pbe-n-rrkjus_psl.1.0.0.UPF
Co 58.93 co_pbe_v1.2.uspp.F.UPF
O 15.99 O.pbe-n-rrkjus_psl.1.0.0.UPF
Sn 118.7 Sn.pbe-dn-rrkjus_psl.1.0.0.UPF
Ti 47.86 Ti.pbe-spn-rrkjus_psl.1.0.0.UPF

CELL_PARAMETERS {angstrom}
6.11439000 0.00000000 0.00000000
0.00000000 8.64705000 0.00000000
0.00000000 0.00000000 26.48530000

ATOMIC_POSITIONS {angstrom}
Ti 0.00000000 0.00000000 23.24270472
Ti 3.05719500 2.16176250 25.40443491
Ti 3.05719500 6.48528750 25.40443491
Ti 0.00000000 4.32352500 23.24270472
Ti 0.00000000 4.33087499 1.13489511
Ti 3.05719500 6.48528750 3.15148585
Ti 3.05719500 2.16167603 3.19068409
Ti 0.00000000 8.63970001 1.13515996
Co 1.52859750 0.00000000 25.40443491
Co 4.58579250 4.32352500 25.40443491
Co 4.58579250 0.00000000 25.40443491
Co 1.52859750 4.32352500 25.40443491
Co 4.58579250 6.48528750 23.24270472
Co 1.52859750 2.16176250 23.24270472
Co 1.52859750 6.48528750 23.24270472
Co 4.58579250 2.16176250 23.24270472
Co 1.47974352 4.33822499 3.06964627
Co 4.63458533 8.63243649 3.06991112
Co 4.63458533 4.33813851 3.06964627
Co 1.47980467 8.63243649 3.06964627
Co 4.61770962 2.16184897 1.10231819
Co 1.52572374 6.48520103 1.13780849
Co 1.49661924 2.16184897 1.10231819
Co 4.58860512 6.48528750 1.13780849
Sn 0.00000000 6.48528750 25.40443491
Sn 3.05719500 0.00000000 23.24270472
Sn 0.00000000 2.16176250 25.40443491
Sn 3.05719500 4.32352500 23.24270472
Sn 0.00000000 2.16176250 3.45871533
Sn 3.05719500 4.30960325 1.04696391
Sn 0.00000000 6.48528750 3.51724784
Sn 3.05719500 0.01400822 1.04696391
C 3.05719500 2.16167603 5.33122604
O 3.05719500 2.16176250 6.48227717
