&CONTROL
calculation = 'relax'
prefix = 'scf'
pseudo_dir = '/vol0004/mdt0/data/hp150275/u10028/POT_KKJUS'
outdir = './data'
tprnfor = .true.
nstep = 70
disk_io = 'non'
/
&SYSTEM
ibrav = 0
ecutwfc = 50.0
ecutrho = 400
occupations = 'smearing'
smearing = 'mp'
degauss = 0.01
assume_isolated = 'esm'
esm_bc = 'bc1'
input_dft = 'BEEF-VDW'
nosym = .true.
nspin = 1
ntyp = 4
nat = 19
/
&ELECTRONS
electron_maxstep = 200
mixing_beta = 0.1
conv_thr = 1e-06
/
&IONS
ion_dynamics = 'bfgs'
upscale = 1.0
/
&CELL
/

K_POINTS {automatic}
8 8 1 0 0 0

ATOMIC_SPECIES
V 50.94 V.pbe-spnl-rrkjus_psl.1.0.0.UPF
C 12.01 C.pbe-n-rrkjus_psl.1.0.0.UPF
H 1.007 H.pbe-rrkjus_psl.1.0.0.UPF
O 15.99 O.pbe-n-rrkjus_psl.1.0.0.UPF


CELL_PARAMETERS {angstrom}
6.00621000 0.00000000 0.00000000
-0.00000000 6.00621000 0.00000000
0.00000000 0.00000000 24.50470000

ATOMIC_POSITIONS {angstrom}
V             0.0000000000        0.0000000000       -2.2522269800    0   0   0
V             1.5015525000        1.5015525000       -0.7508240100    0   0   0
V             0.0575886937        0.0000295066        0.5463825354
V             1.6214991291        1.4385032325        2.1440449333
V             0.0000000000        3.0031050000       -2.2522269800    0   0   0
V             1.5015525000        4.5046575000       -0.7508240100    0   0   0
V             0.0967928755        3.0031125009        0.7328346194
V             1.6216128103        4.5678135770        2.1439746829
V             3.0031050000        0.0000000000       -2.2522269800    0   0   0
V             4.5046575000        1.5015525000       -0.7508240100    0   0   0
V             3.0873147364        0.0000525094        0.6866874635
V             4.7535701797        1.3046436001        2.4068884016
V             3.0031050000        3.0031050000       -2.2522269800    0   0   0
V             4.5046575000        4.5046575000       -0.7508240100    0   0   0
V             3.1245816177        3.0031438575        0.7336697035
V             4.7535050562        4.7016417172        2.4067175518
C             0.3568899350        0.0000248880        2.6273658939
O            -1.9656263328        0.0001599209        3.8890136968
H            -1.3754250493       -0.0000075195        4.6639166903
