&CONTROL
calculation = 'relax'
prefix = 'scf'
pseudo_dir = '/vol0004/mdt0/data/hp150275/u10028/POT_KKJUS'
outdir = './data'
tprnfor = .true.
nstep = 50
disk_io = 'non'
/
&SYSTEM
ibrav = 0
ecutwfc = 50.0
ecutrho = 400
occupations = 'smearing'
smearing = 'mp'
degauss = 0.01
assume_isolated = 'esm'
esm_bc = 'bc1'
input_dft = 'BEEF-VDW'
nosym = .true.
nspin = 1
ntyp = 4
nat = 18
/
&ELECTRONS
electron_maxstep = 200
mixing_beta = 0.1
conv_thr = 1e-06
/
&IONS
ion_dynamics = 'bfgs'
upscale = 1.0
/
&CELL
/

K_POINTS {automatic}
9 9 2 0  0  0

ATOMIC_SPECIES
C 12.01 C.pbe-n-rrkjus_psl.1.0.0.UPF
Cu 63.54 Cu.pbe-dn-rrkjus_psl.1.0.0.UPF
O 15.99 O.pbe-n-rrkjus_psl.1.0.0.UPF
Sb 121.7 Sb.pbe-n-rrkjus_psl.1.0.0.UPF

CELL_PARAMETERS {angstrom}
6.30953000 0.00000000 0.00000000
0.00000000 6.30953000 0.00000000
0.00000000 0.00000000 24.73210000

ATOMIC_POSITIONS {angstrom}
Cu 1.48412765 1.67057426 0.90766807
Cu 4.73214750 4.73214750 -2.3661200099999995 0 0 0
Cu 4.82540235 1.67063735 0.90766807
Cu 1.57738250 4.73214750 -2.3661200099999995 0 0 0
Cu 4.82540235 4.63901884 0.90766807
Cu 1.57738250 1.57738250 -2.3661200099999995 0 0 0
Cu 1.48412765 4.63908193 0.90766807
Cu 4.73214750 1.57738250 -2.3661200099999995 0 0 0
Cu 0.00000000 0.00000000 -0.7887066699999998 0 0 0
Cu 3.15476500 0.00006310 1.93776003
Cu 0.00006310 3.15482810 2.51970635
Cu 3.15476500 3.15476500 -0.7887066699999998 0 0 0
Sb 0.00000000 0.00000000 2.44575737
Sb 3.15470190 3.15476500 2.44551005
Sb 3.15476500 0.00000000 -0.7887066699999998 0 0 0
Sb 0.00000000 3.15476500 -0.7887066699999998 0 0 0
C 0.00000000 3.15470190 4.39266828
O 6.30946690 3.15463881 5.53726987
