&CONTROL
calculation = 'relax'
prefix = 'scf'
pseudo_dir = '/vol0004/mdt0/data/hp150275/u10028/POT_KKJUS'
outdir = './data'
tprnfor = .true.
nstep = 50
disk_io = 'non'
/
&SYSTEM
ibrav = 0
ecutwfc = 50.0
ecutrho = 400
occupations = 'smearing'
smearing = 'mp'
degauss = 0.01
assume_isolated = 'esm'
esm_bc = 'bc1'
input_dft = 'BEEF-VDW'
nosym = .true.
nspin = 1
ntyp = 4
nat = 18
/
&ELECTRONS
electron_maxstep = 200
mixing_beta = 0.1
conv_thr = 1e-06
/
&IONS
ion_dynamics = 'bfgs'
upscale = 1.0
/
&CELL
/

K_POINTS {automatic}
8 8 1 0 0 0

ATOMIC_SPECIES
C 12.01 C.pbe-n-rrkjus_psl.1.0.0.UPF
O 15.99 O.pbe-n-rrkjus_psl.1.0.0.UPF
Pt 195.0 Pt.pbe-n-rrkjus_psl.1.0.0.UPF
Ti 47.86 Ti.pbe-spn-rrkjus_psl.1.0.0.UPF

CELL_PARAMETERS {angstrom}
6.37073000 0.00000000 0.00000000
-0.00000000 6.37073000 0.00000000
0.00000000 0.00000000 24.77800000

ATOMIC_POSITIONS {angstrom}
Ti 1.59268250 1.59268250 -0.3136894799999972 0 0 0
Ti 1.59268250 1.59268250 2.87152242
Ti 1.59268250 4.77804750 -0.3136894799999972 0 0 0
Ti 1.59268250 4.77804750 2.87152242
Ti 4.77804750 1.59268250 -0.3136894799999972 0 0 0
Ti 4.77804750 1.59268250 2.87152242
Ti 4.77804750 4.77804750 -0.3136894799999972 0 0 0
Ti 4.77804750 4.77804750 2.87152242
Pt 0.00000000 0.00000000 -1.9064193199999977 0 0 0
Pt 0.00000000 0.00000000 1.27879258
Pt 0.00000000 3.18536500 -1.9064193199999977 0 0 0
Pt 0.00000000 3.18536500 1.27879258
Pt 3.18536500 0.00000000 -1.9064193199999977 0 0 0
Pt 3.18536500 -0.00000000 1.27879258
Pt 3.18536500 3.18536500 -1.9064193199999977 0 0 0
Pt 3.18536500 3.18536500 1.27879258
C 1.59268250 1.59268250 4.77149946
O 1.59268250 1.59268250 5.92144644
