&CONTROL
calculation = 'relax'
prefix = 'scf'
pseudo_dir = '/vol0004/mdt0/data/hp150275/u10028/POT_KKJUS'
outdir = './data'
tprnfor = .true.
nstep = 50
disk_io = 'non'
/
&SYSTEM
ibrav = 0
ecutwfc = 50.0
ecutrho = 400
occupations = 'smearing'
smearing = 'mp'
degauss = 0.01
assume_isolated = 'esm'
esm_bc = 'bc1'
input_dft = 'BEEF-VDW'
nosym = .true.
nspin = 1
ntyp = 4
nat = 34
/
&ELECTRONS
electron_maxstep = 200
mixing_beta = 0.1
conv_thr = 1e-06
/
&IONS
ion_dynamics = 'bfgs'
upscale = 1.0
/
&CELL
/

K_POINTS {automatic}
6 6 1 0 0 0

ATOMIC_SPECIES
C 12.01 C.pbe-n-rrkjus_psl.1.0.0.UPF
O 15.99 O.pbe-n-rrkjus_psl.1.0.0.UPF
Pt 195.0 Pt.pbe-n-rrkjus_psl.1.0.0.UPF
Y 88.90 Y.pbe-spn-rrkjus_psl.1.0.0.UPF

CELL_PARAMETERS {angstrom}
8.32195000 0.00000000 0.00000000
-0.00000000 8.32195000 0.00000000
0.00000000 0.00000000 26.24150000

ATOMIC_POSITIONS {angstrom}
Y 0.00000000 0.00000000 3.12063918
Y 0.00000000 0.00000000 -1.0402130599999992 0 0 0
Y 0.00000000 4.16097500 3.12063918
Y 0.00000000 4.16097500 -1.0402130599999992 0 0 0
Y 4.16097500 -0.00000000 3.12063918
Y 4.16097500 0.00000000 -1.0402130599999992 0 0 0
Y 4.16097500 4.16097500 3.12063918
Y 4.16097500 4.16097500 -1.0402130599999992 0 0 0
Pt 0.00000000 2.08048750 1.04021306
Pt 2.08048750 -0.00000000 1.04021306
Pt 2.08048750 2.08048750 3.12063918
Pt 0.00000000 2.08048750 -3.1206391799999977 0 0 0
Pt 2.08048750 0.00000000 -3.1206391799999977 0 0 0
Pt 2.08048750 2.08048750 -1.0402130599999992 0 0 0
Pt 0.00000000 6.24146250 1.04021306
Pt 2.08048750 4.16097500 1.04021306
Pt 2.08048750 6.24146250 3.12063918
Pt 0.00000000 6.24146250 -3.1206391799999977 0 0 0
Pt 2.08048750 4.16097500 -3.1206391799999977 0 0 0
Pt 2.08048750 6.24146250 -1.0402130599999992 0 0 0
Pt 4.16097500 2.08048750 1.04021306
Pt 6.24146250 -0.00000000 1.04021306
Pt 6.24146250 2.08048750 3.12063918
Pt 4.16097500 2.08048750 -3.1206391799999977 0 0 0
Pt 6.24146250 0.00000000 -3.1206391799999977 0 0 0
Pt 6.24146250 2.08048750 -1.0402130599999992 0 0 0
Pt 4.16097500 6.24146250 1.04021306
Pt 6.24146250 4.16097500 1.04021306
Pt 6.24146250 6.24146250 3.12063918
Pt 4.16097500 6.24146250 -3.1206391799999977 0 0 0
Pt 6.24146250 4.16097500 -3.1206391799999977 0 0 0
Pt 6.24146250 6.24146250 -1.0402130599999992 0 0 0
C 2.08048750 2.08048750 5.02078619
O 2.08048750 2.08048750 6.17068872
