&CONTROL
calculation = 'relax'
prefix = 'scf'
pseudo_dir = '/vol0004/mdt0/data/hp150275/u10028/POT_HYBRID_KKJUS_GBRV'
outdir = './data'
tprnfor = .true.
nstep = 50
disk_io = 'non'
/
&SYSTEM
ibrav = 0
ecutwfc = 50.0
ecutrho = 400
occupations = 'smearing'
smearing = 'mp'
degauss = 0.01
assume_isolated = 'esm'
esm_bc = 'bc1'
input_dft = 'BEEF-VDW'
nosym = .true.
nspin = 2
ntyp = 5
nat = 34
starting_magnetization(1) = 0.0
starting_magnetization(2) = 0.1
starting_magnetization(3) = 0.1
starting_magnetization(4) = 0.0
starting_magnetization(5) = 0.0
/
&ELECTRONS
electron_maxstep = 200
mixing_beta = 0.1
conv_thr = 1e-06
/
&IONS
ion_dynamics = 'bfgs'
upscale = 1.0
/
&CELL
/

K_POINTS {automatic}
9 6 2 0  0  0

ATOMIC_SPECIES
C 12.01 C.pbe-n-rrkjus_psl.1.0.0.UPF
Co 58.93 co_pbe_v1.2.uspp.F.UPF
Fe 55.84 fe_pbe_v1.5.uspp.F.UPF
Ga 69.72 Ga.pbe-dnl-rrkjus_psl.1.0.0.UPF
O 15.99 O.pbe-n-rrkjus_psl.1.0.0.UPF

CELL_PARAMETERS {angstrom}
5.74310000 0.00000000 0.00000000
0.00000000 8.12197000 0.00000000
0.00000000 0.00000000 26.09150000

ATOMIC_POSITIONS {angstrom}
Ga 0.00000000 0.00000000 23.04583921
Ga 2.87155000 2.03049250 25.07627973
Ga 2.87155000 6.09147750 25.07627973
Ga 0.00000000 4.06098500 23.04583921
Ga 5.74304257 4.05984792 1.00034811
Ga 2.87160743 6.09107140 3.22308299
Ga 2.87160743 2.03122348 3.23247594
Ga 5.74304257 0.00097464 1.00008720
Fe 0.00000000 6.09147750 25.07627973
Fe 2.87155000 0.00000000 23.04583921
Fe 0.00000000 2.03049250 25.07627973
Fe 2.87155000 4.06098500 23.04583921
Fe 5.74304257 2.03089860 2.99347779
Fe 2.87155000 4.06147232 1.02226497
Fe 5.74304257 6.09107140 2.99060773
Fe 2.87155000 8.12140146 1.02226497
Co 1.43577500 0.00000000 25.07627973
Co 4.30732500 4.06098500 25.07627973
Co 4.30732500 0.00000000 25.07627973
Co 1.43577500 4.06098500 25.07627973
Co 4.30732500 6.09147750 23.04583921
Co 1.43577500 2.03049250 23.04583921
Co 1.43577500 6.09147750 23.04583921
Co 4.30732500 2.03049250 23.04583921
Co 1.46081492 4.05976670 2.98538943
Co 4.28205536 0.00138073 2.98512851
Co 4.28228508 4.05968548 2.98538943
Co 1.46104464 0.00138073 2.98512851
Co 4.29227808 2.03065494 1.04392091
Co 1.44961587 6.09123384 1.04287726
Co 1.45076449 2.03065494 1.04392091
Co 4.29342670 6.09123384 1.04287726
C 2.87241146 2.03097982 7.15976851
O 2.87143514 2.03000518 8.29448785
