&CONTROL
calculation = 'relax'
prefix = 'scf'
pseudo_dir = '/vol0403/data/hp230205/u10028/POT_HYBRID_KKJUS_GBRV'
outdir = './data'
tprnfor = .true.
nstep = 50
disk_io = 'non'
/
&SYSTEM
ibrav = 0
ecutwfc = 50.0
ecutrho = 400
occupations = 'smearing'
smearing = 'mp'
degauss = 0.01
assume_isolated = 'esm'
esm_bc = 'bc1'
input_dft = 'BEEF-VDW'
nosym = .true.
nspin = 2
ntyp = 4
nat = 32
starting_magnetization(1) = 0.0
starting_magnetization(2) = 0.1
starting_magnetization(3) = 0.0
starting_magnetization(4) = 0.0
/
&ELECTRONS
electron_maxstep = 400
mixing_beta = 0.05
conv_thr = 1e-06
/
&IONS
ion_dynamics = 'bfgs'
upscale = 1.0
/
&CELL
/

K_POINTS {automatic}
9 6 2 0  0  0

ATOMIC_SPECIES
In 114.8 In.pbe-dn-rrkjus_psl.1.0.0.UPF
Mn 54.93 mn_pbe_v1.5.uspp.F.UPF
Pd 106.4 Pd.pbe-n-rrkjus_psl.1.0.0.UPF
Sc 44.95 Sc.pbe-spn-rrkjus_psl.1.0.0.UPF


CELL_PARAMETERS {angstrom}
6.62299000 0.00000000 0.00000000
0.00000000 9.36632000 0.00000000
0.00000000 0.00000000 27.02470000

ATOMIC_POSITIONS {angstrom}
Sc 0.00000000 2.34158000 25.85399000
Sc 0.00000000 7.02474000 25.85399000
Sc 3.31149500 4.68316000 23.51229974
Sc 3.31149500 0.00000000 23.51229974
Sc 0.05059964 7.02474000 3.46943099
Sc 0.05059964 2.34158000 3.46943099
Sc 3.34639816 0.00000000 1.15449518
Sc 3.34646439 4.68316000 1.15449518
Mn 4.96724250 0.00000000 25.85399000
Mn 4.96724250 4.68316000 25.85399000
Mn 1.65574750 2.34158000 23.51229974
Mn 1.65574750 7.02474000 23.51229974
Mn 4.84167061 4.68316000 3.67616994
Mn 4.84173684 0.00000000 3.67616994
Mn 1.65978752 7.02474000 1.27313362
Mn 1.65972129 2.34158000 1.27313362
In 0.00000000 0.00000000 23.51229974
In 0.00000000 4.68316000 23.51229974
In 3.31149500 7.02474000 25.85399000
In 3.31149500 2.34158000 25.85399000
In 6.57358249 4.68306634 1.18692482
In 6.57351626 0.00009366 1.18665458
In 3.32460852 2.34158000 3.69400624
In 3.32467475 7.02474000 3.69427649
Pd 1.65574750 0.00000000 25.85399000
Pd 1.65574750 4.68316000 25.85399000
Pd 4.96724250 2.34158000 23.51229974
Pd 4.96724250 7.02474000 23.51229974
Pd 1.74959527 4.68316000 3.29593241
Pd 1.74952904 0.00000000 3.29593241
Pd 4.96975924 7.02474000 1.15665716
Pd 4.96975924 2.34158000 1.15665716
