&CONTROL
calculation = 'relax'
prefix = 'scf'
pseudo_dir = '/vol0004/mdt0/data/hp150275/u10028/POT_KKJUS'
outdir = './data'
tprnfor = .true.
nstep = 50
disk_io = 'non'
/
&SYSTEM
ibrav = 0
ecutwfc = 50.0
ecutrho = 400
occupations = 'smearing'
smearing = 'mp'
degauss = 0.01
assume_isolated = 'esm'
esm_bc = 'bc1'
input_dft = 'BEEF-VDW'
nosym = .true.
nspin = 1
ntyp = 4
nat = 33
/
&ELECTRONS
electron_maxstep = 200
mixing_beta = 0.1
conv_thr = 1e-06
/
&IONS
ion_dynamics = 'bfgs'
upscale = 1.0
/
&CELL
/

K_POINTS {automatic}
9 6 2 0  0  0

ATOMIC_SPECIES
C 12.01 C.pbe-n-rrkjus_psl.1.0.0.UPF
Ga 69.72 Ga.pbe-dnl-rrkjus_psl.1.0.0.UPF
Li 6.941 Li.pbe-sl-rrkjus_psl.1.0.0.UPF
Rh 102.9 Rh.pbe-spn-rrkjus_psl.1.0.0.UPF

CELL_PARAMETERS {angstrom}
6.03399000 0.00000000 0.00000000
0.00000000 8.53335000 0.00000000
0.00000000 0.00000000 26.40000000

ATOMIC_POSITIONS {angstrom}
Li 0.00000000 6.40001250 -1.066559999999999 0 0 0
Li 3.01699500 0.00000000 -3.1999439999999986 0 0 0
Li 0.00000000 2.13333750 -1.066559999999999 0 0 0
Li 3.01699500 4.26667500 -3.1999439999999986 0 0 0
Li 1.50849750 2.13333750 -3.1999439999999986 0 0 0
Li 1.50849750 6.40001250 -3.1999439999999986 0 0 0
Li 4.52549250 4.26667500 -1.066559999999999 0 0 0
Li 4.52549250 0.00000000 -1.066559999999999 0 0 0
Li 5.77555421 2.13333750 3.68992800
Li 3.06007769 4.21061089 1.11091200
Li 0.14409168 6.40001250 3.19070400
Li 3.06007769 0.05606411 1.11091200
Li 1.44755420 6.40001250 0.93561600
Li 1.45153663 2.13333750 1.20859200
Li 4.30543288 8.34203229 3.68332800
Li 4.30549322 4.45799271 3.68332800
Ga 1.50849750 0.00000000 -1.066559999999999 0 0 0
Ga 1.50849750 4.26667500 -1.066559999999999 0 0 0
Ga 4.52549250 6.40001250 -3.1999439999999986 0 0 0
Ga 4.52549250 2.13333750 -3.1999439999999986 0 0 0
Ga 1.58241388 4.13457874 3.30501600
Ga 1.58241388 0.13209626 3.30501600
Ga 4.63301820 2.13333750 0.87172800
Ga 4.50684747 6.40001250 1.07844000
Rh 0.00000000 0.00000000 -3.1999439999999986 0 0 0
Rh 3.01699500 2.13333750 -1.066559999999999 0 0 0
Rh 3.01699500 6.40001250 -1.066559999999999 0 0 0
Rh 0.00000000 4.26667500 -3.1999439999999986 0 0 0
Rh 5.97171922 4.27418435 1.23182400
Rh 2.77877307 6.40001250 2.94043200
Rh 3.41511766 2.13333750 2.99112000
Rh 5.97171922 8.52584065 1.23182400
C 1.68360389 2.13333750 3.74721600
