&CONTROL
calculation = 'relax'
prefix = 'scf'
pseudo_dir = '/vol0403/data/hp230205/u10028/POT_HYBRID_KKJUS_GBRV'
outdir = './data'
tprnfor = .true.
nstep = 70
disk_io = 'non'
/
&SYSTEM
ibrav = 0
ecutwfc = 50.0
ecutrho = 400
occupations = 'smearing'
smearing = 'mp'
degauss = 0.01
assume_isolated = 'esm'
esm_bc = 'bc1'
input_dft = 'BEEF-VDW'
nosym = .true.
nspin = 1
ntyp = 6
nat = 34
/
&ELECTRONS
electron_maxstep = 200
mixing_beta = 0.1
conv_thr = 1e-06
/
&IONS
ion_dynamics = 'bfgs'
upscale = 1.0
/
&CELL
/

K_POINTS {automatic}
7 6 2 0  0  0

ATOMIC_SPECIES
C 12.01 C.pbe-n-rrkjus_psl.1.0.0.UPF
Ge 72.64 Ge.pbe-dn-rrkjus_psl.1.0.0.UPF
O 15.99 O.pbe-n-rrkjus_psl.1.0.0.UPF
Pd 106.4 Pd.pbe-n-rrkjus_psl.1.0.0.UPF
Sn 118.7 Sn.pbe-dn-rrkjus_psl.1.0.0.UPF
Y 88.90 Y.pbe-spn-rrkjus_psl.1.0.0.UPF


CELL_PARAMETERS {angstrom}
8.65102000 0.00000000 0.00000000
-0.00000000 9.60308000 0.00000000
0.00000000 0.00000000 26.08590000

ATOMIC_POSITIONS {angstrom}
Y 2.16275500 0.00000000 -1.0142197899999985 0 0 0
Y 2.16275500 -0.00000000 3.04292023
Y 2.16275500 4.80154000 -1.0142197899999985 0 0 0
Y 2.16275500 4.80154000 3.04292023
Y 6.48826500 0.00000000 -1.0142197899999985 0 0 0
Y 6.48826500 -0.00000000 3.04292023
Y 6.48826500 4.80154000 -1.0142197899999985 0 0 0
Y 6.48826500 4.80154000 3.04292023
Sn 0.00000000 2.40077000 -1.0142197899999985 0 0 0
Sn 0.00000000 2.40077000 3.04292023
Sn 0.00000000 7.20231000 -1.0142197899999985 0 0 0
Sn 0.00000000 7.20231000 3.04292023
Sn 4.32551000 2.40077000 -1.0142197899999985 0 0 0
Sn 4.32551000 2.40077000 3.04292023
Sn 4.32551000 7.20231000 -1.0142197899999985 0 0 0
Sn 4.32551000 7.20231000 3.04292023
Ge 0.00000000 0.00000000 -3.0429202399999973 0 0 0
Ge 0.00000000 0.00000000 1.01421979
Ge 0.00000000 4.80154000 -3.0429202399999973 0 0 0
Ge 0.00000000 4.80154000 1.01421979
Ge 4.32551000 0.00000000 -3.0429202399999973 0 0 0
Ge 4.32551000 -0.00000000 1.01421979
Ge 4.32551000 4.80154000 -3.0429202399999973 0 0 0
Ge 4.32551000 4.80154000 1.01421979
Pd 2.16275500 2.40077000 -3.0429202399999973 0 0 0
Pd 2.16275500 2.40077000 1.01421979
Pd 2.16275500 7.20231000 -3.0429202399999973 0 0 0
Pd 2.16275500 7.20231000 1.01421979
Pd 6.48826500 2.40077000 -3.0429202399999973 0 0 0
Pd 6.48826500 2.40077000 1.01421979
Pd 6.48826500 7.20231000 -3.0429202399999973 0 0 0
Pd 6.48826500 7.20231000 1.01421979
C 2.16275500 -0.00000000 4.94301719
O 2.16275500 -0.00000000 6.09288366
