&CONTROL
calculation = 'relax'
prefix = 'scf'
pseudo_dir = '/vol0403/data/hp230205/u10028/POT_HYBRID_KKJUS_GBRV'
outdir = './data'
tprnfor = .true.
nstep = 50
disk_io = 'non'
/
&SYSTEM
ibrav = 0
ecutwfc = 50.0
ecutrho = 400
occupations = 'smearing'
smearing = 'mp'
degauss = 0.01
assume_isolated = 'esm'
esm_bc = 'bc1'
input_dft = 'BEEF-VDW'
nosym = .true.
nspin = 1
ntyp = 4
nat = 32
/
&ELECTRONS
electron_maxstep = 200
mixing_beta = 0.1
conv_thr = 1e-06
/
&IONS
ion_dynamics = 'bfgs'
upscale = 1.0
/
&CELL
/

K_POINTS {automatic}
9 6 2 0  0  0

ATOMIC_SPECIES
Ag 107.8 Ag.pbe-n-rrkjus_psl.1.0.0.UPF
Li 6.941 Li.pbe-sl-rrkjus_psl.1.0.0.UPF
Sn 118.7 Sn.pbe-dn-rrkjus_psl.1.0.0.UPF
Y 88.90 Y.pbe-spn-rrkjus_psl.1.0.0.UPF


CELL_PARAMETERS {angstrom}
7.11214000 0.00000000 0.00000000
0.00000000 10.05810000 0.00000000
0.00000000 0.00000000 27.54360000

ATOMIC_POSITIONS {angstrom}
Li 1.77803500 0.00000000 -1.2573653399999998 0 0 0
Li 1.77803500 5.02905000 -1.2573653399999998 0 0 0
Li 5.33410500 2.51452500 -3.77182058 0 0 0
Li 5.33410500 7.54357500 -3.77182058 0 0 0
Li 1.69660100 5.02905000 3.65723921
Li 1.70698472 0.00000000 3.66192162
Li 5.35572591 7.54498313 1.28325632
Li 5.35572591 2.51311687 1.28325632
Y 5.33410500 0.00000000 -1.2573653399999998 0 0 0
Y 5.33410500 5.02905000 -1.2573653399999998 0 0 0
Y 1.77803500 2.51452500 -3.77182058 0 0 0
Y 1.77803500 7.54357500 -3.77182058 0 0 0
Y 5.42421581 5.02905000 3.84150589
Y 5.42421581 0.00000000 3.84123046
Y 1.74787953 7.54307209 1.29510007
Y 1.74787953 2.51502791 1.29537551
Ag 0.00000000 0.00000000 -3.77182058 0 0 0
Ag 0.00000000 5.02905000 -3.77182058 0 0 0
Ag 3.55607000 7.54357500 -1.2573653399999998 0 0 0
Ag 3.55607000 2.51452500 -1.2573653399999998 0 0 0
Ag 7.04251215 5.02905000 1.28105284
Ag 7.04443243 0.00000000 1.28215458
Ag 3.57562839 2.51472616 3.65503572
Ag 3.57555726 7.54327326 3.65503572
Sn 0.00000000 2.51452500 -1.2573653399999998 0 0 0
Sn 0.00000000 7.54357500 -1.2573653399999998 0 0 0
Sn 3.55607000 5.02905000 -3.77182058 0 0 0
Sn 3.55607000 0.00000000 -3.77182058 0 0 0
Sn 0.12389348 7.54488255 3.99382200
Sn 0.12382236 2.51321745 3.99382200
Sn 3.59219967 0.00000000 1.34385224
Sn 3.59347986 5.02905000 1.34522942
