&CONTROL
calculation = 'relax'
prefix = 'scf'
pseudo_dir = '/vol0403/data/hp230205/u10028/POT_HYBRID_KKJUS_GBRV'
outdir = './data'
tprnfor = .true.
nstep = 70
disk_io = 'non'
/
&SYSTEM
ibrav = 0
ecutwfc = 50.0
ecutrho = 400
occupations = 'smearing'
smearing = 'mp'
degauss = 0.01
assume_isolated = 'esm'
esm_bc = 'bc1'
input_dft = 'BEEF-VDW'
nosym = .true.
nspin = 1
ntyp = 4
nat = 32
/
&ELECTRONS
electron_maxstep = 200
mixing_beta = 0.1
conv_thr = 1e-06
/
&IONS
ion_dynamics = 'bfgs'
upscale = 1.0
/
&CELL
/

K_POINTS {automatic}
8 7 2 0  0  0

ATOMIC_SPECIES
Ge 72.64 Ge.pbe-dn-rrkjus_psl.1.0.0.UPF
In 114.8 In.pbe-dn-rrkjus_psl.1.0.0.UPF
Pd 106.4 Pd.pbe-n-rrkjus_psl.1.0.0.UPF
Sc 44.95 Sc.pbe-spn-rrkjus_psl.1.0.0.UPF


CELL_PARAMETERS {angstrom}
7.76578000 0.00000000 0.00000000
-0.00000000 8.38060000 0.00000000
0.00000000 0.00000000 26.96280000

ATOMIC_POSITIONS {angstrom}
Sc 1.94144500 2.09515000 -3.481436740000003 0 0 0
Sc 1.94144500 2.09515000 1.16047891
Sc 1.94144500 6.28545000 -3.481436740000003 0 0 0
Sc 1.94144500 6.28545000 1.16047891
Sc 5.82433500 2.09515000 -3.481436740000003 0 0 0
Sc 5.82433500 2.09515000 1.16047891
Sc 5.82433500 6.28545000 -3.481436740000003 0 0 0
Sc 5.82433500 6.28545000 1.16047891
In 1.94144500 0.00000000 -1.160478910000002 0 0 0
In 1.94144500 -0.00000000 3.48143674
In 1.94144500 4.19030000 -1.160478910000002 0 0 0
In 1.94144500 4.19030000 3.48143674
In 5.82433500 0.00000000 -1.160478910000002 0 0 0
In 5.82433500 -0.00000000 3.48143674
In 5.82433500 4.19030000 -1.160478910000002 0 0 0
In 5.82433500 4.19030000 3.48143674
Ge 0.00000000 0.00000000 -3.481436740000003 0 0 0
Ge 0.00000000 0.00000000 1.16047891
Ge 0.00000000 4.19030000 -3.481436740000003 0 0 0
Ge 0.00000000 4.19030000 1.16047891
Ge 3.88289000 0.00000000 -3.481436740000003 0 0 0
Ge 3.88289000 -0.00000000 1.16047891
Ge 3.88289000 4.19030000 -3.481436740000003 0 0 0
Ge 3.88289000 4.19030000 1.16047891
Pd 0.00000000 2.09515000 -1.160478910000002 0 0 0
Pd 0.00000000 2.09515000 3.48143674
Pd 0.00000000 6.28545000 -1.160478910000002 0 0 0
Pd 0.00000000 6.28545000 3.48143674
Pd 3.88289000 2.09515000 -1.160478910000002 0 0 0
Pd 3.88289000 2.09515000 3.48143674
Pd 3.88289000 6.28545000 -1.160478910000002 0 0 0
Pd 3.88289000 6.28545000 3.48143674
