&CONTROL
calculation = 'relax'
prefix = 'scf'
pseudo_dir = '/vol0403/data/hp230205/u10028/POT_HYBRID_KKJUS_GBRV'
outdir = './data'
tprnfor = .true.
nstep = 50
disk_io = 'non'
/
&SYSTEM
ibrav = 0
ecutwfc = 50.0
ecutrho = 400
occupations = 'smearing'
smearing = 'mp'
degauss = 0.01
assume_isolated = 'esm'
esm_bc = 'bc1'
input_dft = 'BEEF-VDW'
nosym = .true.
nspin = 1
ntyp = 6
nat = 34
/
&ELECTRONS
electron_maxstep = 200
mixing_beta = 0.1
conv_thr = 1e-06
/
&IONS
ion_dynamics = 'bfgs'
upscale = 1.0
/
&CELL
/

K_POINTS {automatic}
9 6 2 0  0  0

ATOMIC_SPECIES
Al 26.98 Al.pbe-nl-rrkjus_psl.1.0.0.UPF
C 12.01 C.pbe-n-rrkjus_psl.1.0.0.UPF
Li 6.941 Li.pbe-sl-rrkjus_psl.1.0.0.UPF
Mg 24.30 Mg.pbe-spnl-rrkjus_psl.1.0.0.UPF
O 15.99 O.pbe-n-rrkjus_psl.1.0.0.UPF
Pd 106.4 Pd.pbe-n-rrkjus_psl.1.0.0.UPF


CELL_PARAMETERS {angstrom}
6.28130000 0.00000000 0.00000000
0.00000000 8.88310000 0.00000000
0.00000000 0.00000000 26.66230000

ATOMIC_POSITIONS {angstrom}
Li 1.57032500 0.00000000 -1.1104847899999974 0 0 0
Li 1.57032500 4.44155000 -1.1104847899999974 0 0 0
Li 4.71097500 2.22077500 -3.331187759999999 0 0 0
Li 4.71097500 6.66232500 -3.331187759999999 0 0 0
Li 1.75518366 4.44155000 3.66713274
Li 1.68433060 0.00000000 3.57994702
Li 4.74244431 6.66561175 1.07902328
Li 4.74244431 2.21748825 1.07902328
Mg 0.00000000 2.22077500 -1.1104847899999974 0 0 0
Mg 0.00000000 6.66232500 -1.1104847899999974 0 0 0
Mg 3.14065000 4.44155000 -3.331187759999999 0 0 0
Mg 3.14065000 0.00000000 -3.331187759999999 0 0 0
Mg 6.23720527 6.60769394 3.40584220
Mg 6.23714246 2.27540607 3.40584220
Mg 3.14328815 0.00000000 1.13928008
Mg 3.07909326 4.44155000 1.05556046
Al 0.00000000 0.00000000 -3.331187759999999 0 0 0
Al 0.00000000 4.44155000 -3.331187759999999 0 0 0
Al 3.14065000 6.66232500 -1.1104847899999974 0 0 0
Al 3.14065000 2.22077500 -1.1104847899999974 0 0 0
Al 0.01991172 4.44155000 1.16220966
Al 0.01545200 0.00000000 1.18753884
Al 3.21476934 2.24733547 3.22187233
Al 3.21476934 6.63576453 3.22187233
Pd 4.71097500 0.00000000 -1.1104847899999974 0 0 0
Pd 4.71097500 4.44155000 -1.1104847899999974 0 0 0
Pd 1.57032500 2.22077500 -3.331187759999999 0 0 0
Pd 1.57032500 6.66232500 -3.331187759999999 0 0 0
Pd 4.61443142 4.44155000 3.14561815
Pd 4.69206829 0.00000000 3.40477571
Pd 1.54205915 6.67431719 1.10435247
Pd 1.54205915 2.20887165 1.10435247
C 4.84118635 0.00000000 5.37405319
O 4.80412668 0.00000000 6.52959727
