&CONTROL
calculation = 'relax'
prefix = 'scf'
pseudo_dir = '/vol0004/mdt0/data/hp150275/u10028/POT_HYBRID_KKJUS_GBRV'
outdir = './data'
tprnfor = .true.
nstep = 50
disk_io = 'non'
/
&SYSTEM
ibrav = 0
ecutwfc = 50.0
ecutrho = 400
occupations = 'smearing'
smearing = 'mp'
degauss = 0.01
assume_isolated = 'esm'
esm_bc = 'bc1'
input_dft = 'BEEF-VDW'
nosym = .true.
nspin = 2
ntyp = 4
nat = 33
starting_magnetization(1) = 0.0
starting_magnetization(2) = 0.0
starting_magnetization(3) = 0.001
starting_magnetization(4) = 0.0
/
&ELECTRONS
electron_maxstep = 200
mixing_beta = 0.1
conv_thr = 1e-06
/
&IONS
ion_dynamics = 'bfgs'
upscale = 1.0
/
&CELL
/

K_POINTS {automatic}
9 6 2 0  0  0

ATOMIC_SPECIES
C 12.01 C.pbe-n-rrkjus_psl.1.0.0.UPF
Mg 24.30 Mg.pbe-spnl-rrkjus_psl.1.0.0.UPF
Ni 58.69 ni_pbe_v1.4.uspp.F.UPF
Sb 121.7 Sb.pbe-n-rrkjus_psl.1.0.0.UPF

CELL_PARAMETERS {angstrom}
6.21377000 0.00000000 0.00000000
0.00000000 8.78760000 0.00000000
0.00000000 0.00000000 26.59070000

ATOMIC_POSITIONS {angstrom}
Mg 0.00000000 0.00000000 23.29531455
Mg 3.10688500 2.19690000 25.49223818
Mg 3.10688500 6.59070000 25.49223818
Mg 0.00000000 4.39380000 23.29531455
Mg 0.00000000 4.39397575 1.02746465
Mg 3.10688500 6.54843164 3.54427440
Mg 3.10688500 2.23916836 3.54454031
Mg 0.00000000 8.78742425 1.12159573
Ni 1.55344250 0.00000000 25.49223818
Ni 4.66032750 4.39380000 25.49223818
Ni 4.66032750 0.00000000 25.49223818
Ni 1.55344250 4.39380000 25.49223818
Ni 4.66032750 6.59070000 23.29531455
Ni 1.55344250 2.19690000 23.29531455
Ni 1.55344250 6.59070000 23.29531455
Ni 4.66032750 2.19690000 23.29531455
Ni 1.53275065 4.39388788 3.06484408
Ni 4.86637611 8.78751212 3.42674351
Ni 4.68101935 4.39388788 3.06484408
Ni 1.34739389 8.78751212 3.42674351
Ni 4.65591572 2.19769088 1.20376099
Ni 1.55791641 6.58990912 1.20376099
Ni 1.55785428 2.19769088 1.20376099
Ni 4.65585359 6.58990912 1.20376099
Sb 0.00000000 6.59070000 25.49223818
Sb 3.10688500 0.00000000 23.29531455
Sb 0.00000000 2.19690000 25.49223818
Sb 3.10688500 4.39380000 23.29531455
Sb 0.00000000 2.27273699 3.45865235
Sb 3.10688500 4.39380000 1.06283028
Sb 0.00000000 6.51486301 3.45865235
Sb 3.10688500 0.00000000 1.08862326
C 3.10688500 0.00000000 3.74822507
