&CONTROL
calculation = 'relax'
prefix = 'scf'
pseudo_dir = '/vol0403/data/hp230205/u10028/POT_HYBRID_KKJUS_GBRV'
outdir = './data'
tprnfor = .true.
nstep = 50
disk_io = 'non'
/
&SYSTEM
ibrav = 0
ecutwfc = 50.0
ecutrho = 400
occupations = 'smearing'
smearing = 'mp'
degauss = 0.01
assume_isolated = 'esm'
esm_bc = 'bc1'
input_dft = 'BEEF-VDW'
nosym = .true.
nspin = 1
ntyp = 4
nat = 32
/
&ELECTRONS
electron_maxstep = 200
mixing_beta = 0.1
conv_thr = 1e-06
/
&IONS
ion_dynamics = 'bfgs'
upscale = 1.0
/
&CELL
/

K_POINTS {automatic}
6 6 1 0 0 0

ATOMIC_SPECIES
Hf 178.4 Hf.pbe-spn-rrkjus_psl.1.0.0.UPF
Li 6.941 Li.pbe-sl-rrkjus_psl.1.0.0.UPF
Pd 106.4 Pd.pbe-n-rrkjus_psl.1.0.0.UPF
Sn 118.7 Sn.pbe-dn-rrkjus_psl.1.0.0.UPF


CELL_PARAMETERS {angstrom}
6.67688000 0.00000000 0.00000000
0.00000000 9.44254000 0.00000000
0.00000000 0.00000000 27.08190000

ATOMIC_POSITIONS {angstrom}
Li 0.00000000 2.36063500 -1.1802291999999994 0 0 0
Li 0.00000000 7.08190500 -1.1802291999999994 0 0 0
Li 3.33844000 4.72127000 -3.5409584200000026 0 0 0
Li 3.33844000 0.00000000 -3.5409584200000026 0 0 0
Li 6.49106243 7.08190500 4.00757956
Li 6.49112920 2.36063500 4.00757956
Li 3.41181891 0.00000000 0.96221991
Li 3.41181891 4.72127000 0.96221991
Hf 0.00000000 0.00000000 -3.5409584200000026 0 0 0
Hf 0.00000000 4.72127000 -3.5409584200000026 0 0 0
Hf 3.33844000 7.08190500 -1.1802291999999994 0 0 0
Hf 3.33844000 2.36063500 -1.1802291999999994 0 0 0
Hf 0.42972400 4.72127000 1.78253066
Hf 0.42972400 0.00000000 1.78253066
Hf 2.86558336 2.36063500 3.05456750
Hf 2.86558336 7.08190500 3.05456750
Sn 1.66922000 0.00000000 -1.1802291999999994 0 0 0
Sn 1.66922000 4.72127000 -1.1802291999999994 0 0 0
Sn 5.00766000 2.36063500 -3.5409584200000026 0 0 0
Sn 5.00766000 7.08190500 -3.5409584200000026 0 0 0
Sn 1.84054874 4.72127000 4.38591371
Sn 1.84054874 0.00000000 4.38591371
Sn 5.24054957 7.08190500 1.31563870
Sn 5.24054957 2.36063500 1.31563870
Pd 5.00766000 0.00000000 -1.1802291999999994 0 0 0
Pd 5.00766000 4.72127000 -1.1802291999999994 0 0 0
Pd 1.66922000 2.36063500 -3.5409584200000026 0 0 0
Pd 1.66922000 7.08190500 -3.5409584200000026 0 0 0
Pd 4.61292285 4.72127000 3.09166970
Pd 4.61292285 0.00000000 3.09166970
Pd 1.47579079 7.08190500 0.84035136
Pd 1.47579079 2.36063500 0.84035136
