&CONTROL
calculation = 'relax'
prefix = 'scf'
pseudo_dir = '/vol0403/data/hp230205/u10028/POT_HYBRID_KKJUS_GBRV'
outdir = './data'
tprnfor = .true.
nstep = 50
disk_io = 'non'
/
&SYSTEM
ibrav = 0
ecutwfc = 50.0
ecutrho = 400
occupations = 'smearing'
smearing = 'mp'
degauss = 0.01
assume_isolated = 'esm'
esm_bc = 'bc1'
input_dft = 'BEEF-VDW'
nosym = .true.
nspin = 1
ntyp = 6
nat = 18
/
&ELECTRONS
electron_maxstep = 200
mixing_beta = 0.1
conv_thr = 1e-06
/
&IONS
ion_dynamics = 'bfgs'
upscale = 1.0
/
&CELL
/

K_POINTS {automatic}
11 8 2 0  0  0

ATOMIC_SPECIES
C 12.01 C.pbe-n-rrkjus_psl.1.0.0.UPF
Ge 72.64 Ge.pbe-dn-rrkjus_psl.1.0.0.UPF
In 114.8 In.pbe-dn-rrkjus_psl.1.0.0.UPF
Li 6.941 Li.pbe-sl-rrkjus_psl.1.0.0.UPF
O 15.99 O.pbe-n-rrkjus_psl.1.0.0.UPF
Sc 44.95 Sc.pbe-spn-rrkjus_psl.1.0.0.UPF


CELL_PARAMETERS {angstrom}
6.05318000 0.00000000 0.00000000
0.00000000 8.22048000 0.00000000
0.00000000 0.00000000 24.51760000

ATOMIC_POSITIONS {angstrom}
Li 3.02659000 0.00000000 -2.2588064900000013 0 0 0
Li 5.60578947 8.21826047 0.73037930
Li 3.02659000 4.11024000 -2.2588064900000013 0 0 0
Li 5.60578947 4.11254173 0.73037930
Sc 1.36366039 2.05512000 -0.7529355000000031 0 0 0
Sc 3.60357912 2.05503780 2.26493589
Sc 1.36366039 6.16536000 -0.7529355000000031 0 0 0
Sc 3.54171562 6.16536000 2.27057494
In 4.39025039 2.05512000 -0.7529355000000031 0 0 0
In 0.61016054 2.05520220 2.65648196
In 4.39025039 6.16536000 -0.7529355000000031 0 0 0
In 0.54006472 6.16544220 2.65525608
Ge 0.00000000 0.00000000 -2.2588064900000013 0 0 0
Ge 2.31909432 8.21423244 1.02017734
Ge 0.00000000 4.11024000 -2.2588064900000013 0 0 0
Ge 2.31915485 4.11640536 1.02017734
C 3.89970068 2.05495559 4.55169244
O 4.04963795 2.05495559 5.69200602
