&CONTROL
calculation = 'relax'
prefix = 'scf'
pseudo_dir = '/vol0004/mdt0/data/hp150275/u10028/POT_HYBRID_KKJUS_GBRV'
outdir = './data'
tprnfor = .true.
nstep = 50
disk_io = 'non'
/
&SYSTEM
ibrav = 0
ecutwfc = 50.0
ecutrho = 400
occupations = 'smearing'
smearing = 'mp'
degauss = 0.01
assume_isolated = 'esm'
esm_bc = 'bc1'
input_dft = 'BEEF-VDW'
nosym = .true.
nspin = 2
ntyp = 5
nat = 34
starting_magnetization(1) = 0.0
starting_magnetization(2) = 0.0
starting_magnetization(3) = 0.001
starting_magnetization(4) = 0.0
starting_magnetization(5) = 0.0
/
&ELECTRONS
electron_maxstep = 300
mixing_beta = 0.1
conv_thr = 1e-06
/
&IONS
ion_dynamics = 'bfgs'
upscale = 1.0
/
&CELL
/

K_POINTS {automatic}
9 6 2 0  0  0

ATOMIC_SPECIES
C 12.01 C.pbe-n-rrkjus_psl.1.0.0.UPF
Nb 92.90 Nb.pbe-spn-rrkjus_psl.1.0.0.UPF
Ni 58.69 ni_pbe_v1.4.uspp.F.UPF
O 15.99 O.pbe-n-rrkjus_psl.1.0.0.UPF
Sn 118.7 Sn.pbe-dn-rrkjus_psl.1.0.0.UPF

CELL_PARAMETERS {angstrom}
6.22550000 0.00000000 0.00000000
0.00000000 8.80419000 0.00000000
0.00000000 0.00000000 26.60310000

ATOMIC_POSITIONS {angstrom}
Nb 0.00000000 0.00000000 -3.301444710000002 0 0 0
Nb 3.11275000 2.20104750 -1.1005702500000005 0 0 0
Nb 3.11275000 6.60314250 -1.1005702500000005 0 0 0
Nb 0.00000000 4.40209500 -3.301444710000002 0 0 0
Nb 6.19599113 4.40200696 1.11626608
Nb 3.07788720 6.58923188 3.18332695
Nb 3.07776269 2.21522225 3.18306092
Nb 6.22120441 0.00026413 1.13834665
Ni 1.55637500 0.00000000 -1.1005702500000005 0 0 0
Ni 4.66912500 4.40209500 -1.1005702500000005 0 0 0
Ni 4.66912500 0.00000000 -1.1005702500000005 0 0 0
Ni 1.55637500 4.40209500 -1.1005702500000005 0 0 0
Ni 4.66912500 6.60314250 -3.301444710000002 0 0 0
Ni 1.55637500 2.20104750 -3.301444710000002 0 0 0
Ni 1.55637500 6.60314250 -3.301444710000002 0 0 0
Ni 4.66912500 2.20104750 -3.301444710000002 0 0 0
Ni 1.68704825 4.40279934 3.12054363
Ni 4.60132931 8.80339762 3.07052980
Ni 4.41500009 4.40297542 3.19529834
Ni 1.62560256 8.80339762 3.51639776
Ni 4.74071825 2.18722492 1.20911090
Ni 1.41536743 6.58386132 1.24981364
Ni 1.41636351 2.22076889 1.24928158
Ni 4.74165208 6.61670095 1.20911090
Sn 0.00000000 6.60314250 -1.1005702500000005 0 0 0
Sn 3.11275000 0.00000000 -3.301444710000002 0 0 0
Sn 0.00000000 2.20104750 -1.1005702500000005 0 0 0
Sn 3.11275000 4.40209500 -3.301444710000002 0 0 0
Sn 6.16175088 2.26549417 3.60205974
Sn 3.10141959 4.40253521 0.98005820
Sn 6.16162637 6.53860779 3.60312386
Sn 3.02665133 8.80383783 1.05321673
C 2.29994872 8.80339762 5.13493036
O 2.63046052 0.00008804 6.24986628
