&CONTROL
calculation = 'relax'
prefix = 'scf'
pseudo_dir = '/vol0004/mdt0/data/hp150275/u10028/POT_KKJUS'
outdir = './data'
tprnfor = .true.
nstep = 50
disk_io = 'non'
/
&SYSTEM
ibrav = 0
ecutwfc = 50.0
ecutrho = 400
occupations = 'smearing'
smearing = 'mp'
degauss = 0.01
assume_isolated = 'esm'
esm_bc = 'bc1'
input_dft = 'BEEF-VDW'
nosym = .true.
nspin = 1
ntyp = 3
nat = 17
/
&ELECTRONS
electron_maxstep = 200
mixing_beta = 0.1
conv_thr = 1e-06
/
&IONS
ion_dynamics = 'bfgs'
upscale = 1.0
/
&CELL
/

K_POINTS {automatic}
6 8 1 0 0 0

ATOMIC_SPECIES
C 12.01 C.pbe-n-rrkjus_psl.1.0.0.UPF
Ir 192.2 Ir.pbe-n-rrkjus_psl.0.2.3.UPF
Zr 91.22 Zr.pbe-spn-rrkjus_psl.1.0.0.UPF

CELL_PARAMETERS {angstrom}
7.98758000 0.00000000 0.00000000
0.00000000 5.64807000 0.00000000
0.00000000 0.00000000 24.23610000

ATOMIC_POSITIONS {angstrom}
Zr 7.92312023 5.64710983 1.95924632
Zr 0.00000000 2.82403500 -0.7059975899999991 0 0 0
Zr 4.05824977 5.64710983 1.95924632
Zr 3.99379000 2.82403500 -0.7059975899999991 0 0 0
Ir 0.01685379 2.82397852 2.02153310
Ir 1.99689500 4.26553543 0.69315246
Ir 1.99689500 1.37982350 0.69194066
Ir 0.00000000 0.00000000 -0.7059975899999991 0 0 0
Ir 1.99689500 1.41201750 -2.1179927800000016 0 0 0
Ir 1.99689500 4.23605250 -2.1179927800000016 0 0 0
Ir 3.97693621 2.82397852 2.02153310
Ir 5.99068500 4.23249422 0.76804201
Ir 5.99068500 1.41642299 0.77070798
Ir 3.99379000 0.00000000 -0.7059975899999991 0 0 0
Ir 5.99068500 1.41201750 -2.1179927800000016 0 0 0
Ir 5.99068500 4.23605250 -2.1179927800000016 0 0 0
C 1.99689500 2.81923414 2.26559063
