&CONTROL
calculation = 'relax'
prefix = 'scf'
pseudo_dir = '/vol0004/mdt0/data/hp150275/u10028/POT_KKJUS'
outdir = './data'
tprnfor = .true.
nstep = 50
disk_io = 'non'
/
&SYSTEM
ibrav = 0
ecutwfc = 50.0
ecutrho = 400
occupations = 'smearing'
smearing = 'mp'
degauss = 0.01
assume_isolated = 'esm'
esm_bc = 'bc1'
input_dft = 'BEEF-VDW'
nosym = .true.
nspin = 1
ntyp = 3
nat = 33
/
&ELECTRONS
electron_maxstep = 200
mixing_beta = 0.1
conv_thr = 1e-06
/
&IONS
ion_dynamics = 'bfgs'
upscale = 1.0
/
&CELL
/

K_POINTS {automatic}
8 6 2 0  0  0

ATOMIC_SPECIES
C 12.01 C.pbe-n-rrkjus_psl.1.0.0.UPF
Mg 24.30 Mg.pbe-spnl-rrkjus_psl.1.0.0.UPF
Y 88.90 Y.pbe-spn-rrkjus_psl.1.0.0.UPF

CELL_PARAMETERS {angstrom}
7.58049000 0.00000000 0.00000000
0.00000000 10.72040000 0.00000000
0.00000000 0.00000000 28.04030000

ATOMIC_POSITIONS {angstrom}
Y 0.00000000 0.00000000 -4.020137809999998 0 0 0
Y 0.00000000 2.68010000 -1.3400459399999995 0 0 0
Y 7.51939125 5.40286719 1.33471828
Y 7.32275334 2.67666947 4.12837337
Y 0.00000000 5.36020000 -4.020137809999998 0 0 0
Y 0.00000000 8.04030000 -1.3400459399999995 0 0 0
Y 7.51901223 10.67612475 1.33499868
Y 0.13720687 8.03729829 3.84460553
Y 3.79024500 0.00000000 -4.020137809999998 0 0 0
Y 3.79024500 2.68010000 -1.3400459399999995 0 0 0
Y 3.85134375 5.40286719 1.33471828
Y 4.04798166 2.67677668 4.12837337
Y 3.79024500 5.36020000 -4.020137809999998 0 0 0
Y 3.79024500 8.04030000 -1.3400459399999995 0 0 0
Y 3.85172277 10.67612475 1.33499868
Y 3.65303813 8.03719108 3.84460553
Mg 1.89512250 2.68010000 -4.020137809999998 0 0 0
Mg 1.89512250 0.00000000 -1.3400459399999995 0 0 0
Mg 1.89512250 2.67591904 1.52006466
Mg 1.89504670 5.07900391 4.06640431
Mg 1.89512250 8.04030000 -4.020137809999998 0 0 0
Mg 1.89512250 5.36020000 -1.3400459399999995 0 0 0
Mg 1.89512250 8.04308730 1.19087154
Mg 1.89512250 0.27358461 4.06836713
Mg 5.68536750 2.68010000 -4.020137809999998 0 0 0
Mg 5.68536750 0.00000000 -1.3400459399999995 0 0 0
Mg 5.68536750 2.67699108 1.28901259
Mg 5.68544330 5.50878474 4.10453911
Mg 5.68536750 8.04030000 -4.020137809999998 0 0 0
Mg 5.68536750 5.36020000 -1.3400459399999995 0 0 0
Mg 5.68536750 8.04244408 1.31593128
Mg 5.68529170 10.56827752 4.10341750
C 1.89512250 2.66895078 3.80478831
