&CONTROL
calculation = 'relax'
prefix = 'scf'
pseudo_dir = '/vol0004/mdt0/data/hp150275/u10028/POT_KKJUS'
outdir = './data'
tprnfor = .true.
nstep = 50
disk_io = 'non'
/
&SYSTEM
ibrav = 0
ecutwfc = 50.0
ecutrho = 400
occupations = 'smearing'
smearing = 'mp'
degauss = 0.01
assume_isolated = 'esm'
esm_bc = 'bc1'
input_dft = 'BEEF-VDW'
nosym = .true.
nspin = 1
ntyp = 5
nat = 18
/
&ELECTRONS
electron_maxstep = 200
mixing_beta = 0.1
conv_thr = 1e-06
/
&IONS
ion_dynamics = 'bfgs'
upscale = 1.0
/
&CELL
/

K_POINTS {automatic}
10 10 2 0  0  0

ATOMIC_SPECIES
C 12.01 C.pbe-n-rrkjus_psl.1.0.0.UPF
Ga 69.72 Ga.pbe-dnl-rrkjus_psl.1.0.0.UPF
Li 6.941 Li.pbe-sl-rrkjus_psl.1.0.0.UPF
O 15.99 O.pbe-n-rrkjus_psl.1.0.0.UPF
Rh 102.9 Rh.pbe-spn-rrkjus_psl.1.0.0.UPF

CELL_PARAMETERS {angstrom}
6.03399000 0.00000000 0.00000000
0.00000000 6.03399000 0.00000000
0.00000000 0.00000000 24.52550000

ATOMIC_POSITIONS {angstrom}
Li 0.00000000 0.00000000 -0.7541591300000015 0 0 0
Li 3.01741738 0.00006034 2.67401526
Li 0.00000000 3.01729670 2.67426052
Li 3.01699500 3.01699500 -0.7541591300000015 0 0 0
Li 1.50849750 1.50849750 -2.2627226300000025 0 0 0
Li 1.54633062 4.48765938 0.83656481
Li 4.52549250 4.52549250 -2.2627226300000025 0 0 0
Li 4.48790074 1.54645130 0.83656481
Ga 1.54289124 1.54252920 0.77108172
Ga 1.50849750 4.52549250 -2.2627226300000025 0 0 0
Ga 4.49079706 4.49073672 0.77059121
Ga 4.52549250 1.50849750 -2.2627226300000025 0 0 0
Rh 6.03362796 6.03356762 2.15064110
Rh 3.01681398 3.01687432 2.12709662
Rh 3.01699500 0.00000000 -0.7541591300000015 0 0 0
Rh 0.00000000 3.01699500 -0.7541591300000015 0 0 0
C 6.03392966 0.00018102 4.00354262
O 0.00024136 0.00084476 5.17218270
