&CONTROL
calculation = 'relax'
prefix = 'scf'
pseudo_dir = '/vol0004/mdt0/data/hp150275/u10028/POT_HYBRID_KKJUS_GBRV'
outdir = './data'
tprnfor = .true.
nstep = 50
disk_io = 'non'
/
&SYSTEM
ibrav = 0
ecutwfc = 50.0
ecutrho = 400
occupations = 'smearing'
smearing = 'mp'
degauss = 0.01
assume_isolated = 'esm'
esm_bc = 'bc1'
input_dft = 'BEEF-VDW'
nosym = .true.
nspin = 2
ntyp = 3
nat = 32
starting_magnetization(1) = 0.0
starting_magnetization(2) = 0.001
starting_magnetization(3) = 0.0
/
&ELECTRONS
electron_maxstep = 300
mixing_beta = 0.1
conv_thr = 1e-06
/
&IONS
ion_dynamics = 'bfgs'
upscale = 1.0
/
&CELL
/

K_POINTS {automatic}
8 6 1 0 0 0

ATOMIC_SPECIES
Ga 69.72 Ga.pbe-dnl-rrkjus_psl.1.0.0.UPF
Ni 58.69 ni_pbe_v1.4.uspp.F.UPF
Sc 44.95 Sc.pbe-spn-rrkjus_psl.1.0.0.UPF

CELL_PARAMETERS {angstrom}
6.06833000 0.00000000 0.00000000
0.00000000 8.58191000 0.00000000
0.00000000 0.00000000 26.43640000

ATOMIC_POSITIONS {angstrom}
Sc 0.00000000 0.00000000 -3.2181029700000003 0 0 0
Sc 3.03416500 2.14547750 -1.0727891099999987 0 0 0
Sc 3.03416500 6.43643250 -1.0727891099999987 0 0 0
Sc 0.00000000 4.29095500 -3.2181029700000003 0 0 0
Sc 0.00000000 4.29164155 1.01885886
Sc 3.03416500 6.43668996 3.32358421
Sc 3.03416500 2.14522004 3.32305548
Sc 0.00000000 8.58130927 1.01859449
Ga 0.00000000 6.43643250 -1.0727891099999987 0 0 0
Ga 3.03416500 0.00000000 -3.2181029700000003 0 0 0
Ga 0.00000000 2.14547750 -1.0727891099999987 0 0 0
Ga 3.03416500 4.29095500 -3.2181029700000003 0 0 0
Ga 0.00000000 2.14522004 3.22259716
Ga 3.03416500 4.29061172 1.15844305
Ga 0.00000000 6.43643250 3.22259716
Ga 3.03416500 0.00042910 1.15817868
Ni 1.51708250 0.00000000 -1.0727891099999987 0 0 0
Ni 4.55124750 4.29095500 -1.0727891099999987 0 0 0
Ni 4.55124750 0.00000000 -1.0727891099999987 0 0 0
Ni 1.51708250 4.29095500 -1.0727891099999987 0 0 0
Ni 4.55124750 6.43643250 -3.2181029700000003 0 0 0
Ni 1.51708250 2.14547750 -3.2181029700000003 0 0 0
Ni 1.51708250 6.43643250 -3.2181029700000003 0 0 0
Ni 4.55124750 2.14547750 -3.2181029700000003 0 0 0
Ni 1.35960934 4.29086918 3.09200134
Ni 4.70884203 0.00017164 3.09200134
Ni 4.70872066 4.29086918 3.09200134
Ni 1.35948797 0.00017164 3.09200134
Ni 4.47666772 2.14522004 1.13650084
Ni 1.59239048 6.43668996 1.13676520
Ni 1.59160159 2.14522004 1.13650084
Ni 4.47593952 6.43668996 1.13676520
