&CONTROL
calculation = 'relax'
prefix = 'scf'
pseudo_dir = '/vol0004/mdt0/data/hp150275/u10028/POT_KKJUS'
outdir = './data'
tprnfor = .true.
nstep = 50
disk_io = 'non'
/
&SYSTEM
ibrav = 0
ecutwfc = 50.0
ecutrho = 400
occupations = 'smearing'
smearing = 'mp'
degauss = 0.01
assume_isolated = 'esm'
esm_bc = 'bc1'
input_dft = 'BEEF-VDW'
nosym = .true.
nspin = 1
ntyp = 5
nat = 34
/
&ELECTRONS
electron_maxstep = 200
mixing_beta = 0.1
conv_thr = 1e-06
/
&IONS
ion_dynamics = 'bfgs'
upscale = 1.0
/
&CELL
/

K_POINTS {automatic}
8 6 1 0 0 0

ATOMIC_SPECIES
Au 196.9 Au.pbe-n-rrkjus_psl.1.0.0.UPF
C 12.01 C.pbe-n-rrkjus_psl.1.0.0.UPF
In 114.8 In.pbe-dn-rrkjus_psl.1.0.0.UPF
O 15.99 O.pbe-n-rrkjus_psl.1.0.0.UPF
Y 88.90 Y.pbe-spn-rrkjus_psl.1.0.0.UPF

CELL_PARAMETERS {angstrom}
7.06522000 0.00000000 0.00000000
0.00000000 9.99173000 0.00000000
0.00000000 0.00000000 27.49380000

ATOMIC_POSITIONS {angstrom}
Y 0.00000000 0.00000000 -3.7468550600000015 0 0 0
Y 3.53261000 2.49793250 -1.2490433299999992 0 0 0
Y 3.53261000 7.49379750 -1.2490433299999992 0 0 0
Y 0.00000000 4.99586500 -3.7468550600000015 0 0 0
Y 0.00000000 5.02284267 1.36891630
Y 3.53261000 7.49349775 3.61625951
Y 3.53261000 2.49803242 3.59371460
Y 0.00000000 9.96375316 1.36891630
In 0.00000000 7.49379750 -1.2490433299999992 0 0 0
In 3.53261000 0.00000000 -3.7468550600000015 0 0 0
In 0.00000000 2.49793250 -1.2490433299999992 0 0 0
In 3.53261000 4.99586500 -3.7468550600000015 0 0 0
In 0.00000000 2.49763275 3.94536030
In 3.53261000 4.97658096 1.21605077
In 0.00000000 7.49319800 3.92858908
In 3.53261000 0.01888437 1.21605077
Au 1.76630500 0.00000000 -1.2490433299999992 0 0 0
Au 5.29891500 4.99586500 -1.2490433299999992 0 0 0
Au 5.29891500 0.00000000 -1.2490433299999992 0 0 0
Au 1.76630500 4.99586500 -1.2490433299999992 0 0 0
Au 5.29891500 7.49379750 -3.7468550600000015 0 0 0
Au 1.76630500 2.49793250 -3.7468550600000015 0 0 0
Au 1.76630500 7.49379750 -3.7468550600000015 0 0 0
Au 5.29891500 2.49793250 -3.7468550600000015 0 0 0
Au 1.77746805 5.01035301 3.85243126
Au 5.28754000 9.97664249 3.85243126
Au 5.28775195 5.01035301 3.85243126
Au 1.77768000 9.97664249 3.85243126
Au 5.38228460 2.49743291 1.21770040
Au 1.75591913 7.49319800 1.22429891
Au 1.68293540 2.49743291 1.21770040
Au 5.30930087 7.49319800 1.22429891
C 3.53261000 2.50612572 6.09839978
O 3.53261000 2.50792423 7.24241680
