&CONTROL
calculation = 'relax'
prefix = 'scf'
pseudo_dir = '/vol0004/mdt0/data/hp150275/u10028/POT_HYBRID_KKJUS_GBRV'
outdir = './data'
tprnfor = .true.
nstep = 50
disk_io = 'non'
/
&SYSTEM
ibrav = 0
ecutwfc = 50.0
ecutrho = 400
occupations = 'smearing'
smearing = 'mp'
degauss = 0.01
assume_isolated = 'esm'
esm_bc = 'bc1'
input_dft = 'BEEF-VDW'
nosym = .true.
nspin = 2
ntyp = 5
nat = 18
starting_magnetization(1) = 0.0
starting_magnetization(2) = 0.001
starting_magnetization(3) = 0.0
starting_magnetization(4) = 0.0
starting_magnetization(5) = 0.0
/
&ELECTRONS
electron_maxstep = 300
mixing_beta = 0.1
conv_thr = 1e-06
/
&IONS
ion_dynamics = 'bfgs'
upscale = 1.0
/
&CELL
/

K_POINTS {automatic}
8 8 1 0 0 0

ATOMIC_SPECIES
C 12.01 C.pbe-n-rrkjus_psl.1.0.0.UPF
Ni 58.69 ni_pbe_v1.4.uspp.F.UPF
O 15.99 O.pbe-n-rrkjus_psl.1.0.0.UPF
Sn 118.7 Sn.pbe-dn-rrkjus_psl.1.0.0.UPF
V 50.94 V.pbe-spnl-rrkjus_psl.1.0.0.UPF

CELL_PARAMETERS {angstrom}
6.09179000 0.00000000 0.00000000
0.00000000 6.09179000 0.00000000
0.00000000 0.00000000 24.56880000

ATOMIC_POSITIONS {angstrom}
V 6.09172908 6.09124174 2.09105057
V 3.04595592 3.04595592 2.09547295
V 3.04589500 0.00000000 -0.7613871100000011 0 0 0
V 0.00000000 3.04589500 -0.7613871100000011 0 0 0
Ni 1.73372343 1.31479104 0.93926522
Ni 4.56884250 4.56884250 -2.2844070199999997 0 0 0
Ni 4.35812748 1.31466920 0.93852816
Ni 1.52294750 4.56884250 -2.2844070199999997 0 0 0
Ni 4.35794473 4.77730355 0.93926522
Ni 1.52294750 1.52294750 -2.2844070199999997 0 0 0
Ni 1.73390619 4.77742539 0.93951091
Ni 4.56884250 1.52294750 -2.2844070199999997 0 0 0
Sn 0.00000000 0.00000000 -0.7613871100000011 0 0 0
Sn 3.04613867 0.00030459 3.01410038
Sn 6.09172908 3.04595592 2.10235222
Sn 3.04589500 3.04589500 -0.7613871100000011 0 0 0
C 6.09154633 3.04382379 5.81469790
O 0.00018275 3.04820988 6.94928508
