&CONTROL
calculation = 'relax'
prefix = 'scf'
pseudo_dir = '/vol0004/mdt0/data/hp150275/u10028/POT_KKJUS'
outdir = './data'
tprnfor = .true.
nstep = 50
disk_io = 'non'
/
&SYSTEM
ibrav = 0
ecutwfc = 50.0
ecutrho = 400
occupations = 'smearing'
smearing = 'mp'
degauss = 0.01
assume_isolated = 'esm'
esm_bc = 'bc1'
input_dft = 'BEEF-VDW'
nosym = .true.
nspin = 1
ntyp = 4
nat = 33
/
&ELECTRONS
electron_maxstep = 200
mixing_beta = 0.1
conv_thr = 1e-06
/
&IONS
ion_dynamics = 'bfgs'
upscale = 1.0
/
&CELL
/

K_POINTS {automatic}
9 6 2 0  0  0

ATOMIC_SPECIES
C 12.01 C.pbe-n-rrkjus_psl.1.0.0.UPF
Li 6.941 Li.pbe-sl-rrkjus_psl.1.0.0.UPF
Pd 106.4 Pd.pbe-n-rrkjus_psl.1.0.0.UPF
Sn 118.7 Sn.pbe-dn-rrkjus_psl.1.0.0.UPF

CELL_PARAMETERS {angstrom}
6.41477000 0.00000000 0.00000000
0.00000000 9.07185000 0.00000000
0.00000000 0.00000000 26.80390000

ATOMIC_POSITIONS {angstrom}
Li 0.00000000 0.00000000 -3.4019509899999996 0 0 0
Li 3.20738500 2.26796250 -1.134073009999998 0 0 0
Li 3.20738500 6.80388750 -1.134073009999998 0 0 0
Li 0.00000000 4.53592500 -3.4019509899999996 0 0 0
Li 0.00000000 4.53592500 1.08100129
Li 3.20738500 6.82275695 3.58797005
Li 3.20738500 2.24909305 3.58797005
Li 0.00000000 0.00000000 1.05232111
Sn 0.00000000 6.80388750 -1.134073009999998 0 0 0
Sn 3.20738500 0.00000000 -3.4019509899999996 0 0 0
Sn 0.00000000 2.26796250 -1.134073009999998 0 0 0
Sn 3.20738500 4.53592500 -3.4019509899999996 0 0 0
Sn 0.00000000 2.34661544 3.53945499
Sn 3.20738500 4.53592500 1.10994950
Sn 0.00000000 6.72523456 3.53945499
Sn 3.20738500 0.00000000 1.11611440
Pd 1.60369250 0.00000000 -1.134073009999998 0 0 0
Pd 4.81107750 4.53592500 -1.134073009999998 0 0 0
Pd 4.81107750 0.00000000 -1.134073009999998 0 0 0
Pd 1.60369250 4.53592500 -1.134073009999998 0 0 0
Pd 4.81107750 6.80388750 -3.4019509899999996 0 0 0
Pd 1.60369250 2.26796250 -3.4019509899999996 0 0 0
Pd 1.60369250 6.80388750 -3.4019509899999996 0 0 0
Pd 4.81107750 2.26796250 -3.4019509899999996 0 0 0
Pd 1.53960895 4.53592500 3.21057114
Pd 5.03553030 0.00000000 3.37889963
Pd 4.87516105 4.53592500 3.21057114
Pd 1.37923970 0.00000000 3.37889963
Pd 4.83481215 2.23829755 1.17213455
Pd 1.57995785 6.83355245 1.17213455
Pd 1.57995785 2.23829755 1.17213455
Pd 4.83481215 6.83355245 1.17213455
C 3.20738500 0.00000000 3.81499909
