&CONTROL
calculation = 'relax'
prefix = 'scf'
pseudo_dir = '/vol0004/mdt0/data/hp150275/u10028/POT_KKJUS'
outdir = './data'
tprnfor = .true.
nstep = 50
disk_io = 'non'
/
&SYSTEM
ibrav = 0
ecutwfc = 50.0
ecutrho = 400
occupations = 'smearing'
smearing = 'mp'
degauss = 0.01
assume_isolated = 'esm'
esm_bc = 'bc1'
input_dft = 'BEEF-VDW'
nosym = .true.
nspin = 1
ntyp = 5
nat = 18
/
&ELECTRONS
electron_maxstep = 200
mixing_beta = 0.1
conv_thr = 1e-06
/
&IONS
ion_dynamics = 'bfgs'
upscale = 1.0
/
&CELL
/

K_POINTS {automatic}
9 9 2 0  0  0

ATOMIC_SPECIES
C 12.01 C.pbe-n-rrkjus_psl.1.0.0.UPF
Ge 72.64 Ge.pbe-dn-rrkjus_psl.1.0.0.UPF
Li 6.941 Li.pbe-sl-rrkjus_psl.1.0.0.UPF
Mg 24.30 Mg.pbe-spnl-rrkjus_psl.1.0.0.UPF
O 15.99 O.pbe-n-rrkjus_psl.1.0.0.UPF

CELL_PARAMETERS {angstrom}
6.76484000 0.00000000 0.00000000
-0.00000000 6.76484000 0.00000000
0.00000000 0.00000000 25.07360000

ATOMIC_POSITIONS {angstrom}
Li 0.00000000 0.00000000 -2.5366961099999976 0 0 0
Li 3.38242000 3.38242000 -2.5366961099999976 0 0 0
Li 3.38242000 -0.00000000 0.84548179
Li 0.00000000 3.38242000 0.84548179
Mg 1.69121000 1.69121000 -0.8454817899999973 0 0 0
Mg 5.07363000 5.07363000 2.53669611
Mg 5.07363000 1.69121000 -0.8454817899999973 0 0 0
Mg 1.69121000 5.07363000 2.53669611
Mg 5.07363000 5.07363000 -0.8454817899999973 0 0 0
Mg 1.69121000 1.69121000 2.53669611
Mg 1.69121000 5.07363000 -0.8454817899999973 0 0 0
Mg 5.07363000 1.69121000 2.53669611
Ge 0.00000000 0.00000000 0.84548179
Ge 3.38242000 0.00000000 -2.5366961099999976 0 0 0
Ge 0.00000000 3.38242000 -2.5366961099999976 0 0 0
Ge 3.38242000 3.38242000 0.84548179
C 1.69121000 1.69121000 4.43677352
O 1.69121000 1.69121000 5.58689955
