&CONTROL
calculation = 'relax'
prefix = 'scf'
pseudo_dir = '/vol0004/mdt0/data/hp150275/u10028/POT_KKJUS'
outdir = './data'
tprnfor = .true.
nstep = 50
disk_io = 'non'
/
&SYSTEM
ibrav = 0
ecutwfc = 50.0
ecutrho = 400
occupations = 'smearing'
smearing = 'mp'
degauss = 0.01
assume_isolated = 'esm'
esm_bc = 'bc1'
input_dft = 'BEEF-VDW'
nosym = .true.
nspin = 1
ntyp = 5
nat = 18
/
&ELECTRONS
electron_maxstep = 200
mixing_beta = 0.1
conv_thr = 1e-06
/
&IONS
ion_dynamics = 'bfgs'
upscale = 1.0
/
&CELL
/

K_POINTS {automatic}
9 9 2 0  0  0

ATOMIC_SPECIES
Au 196.9 Au.pbe-n-rrkjus_psl.1.0.0.UPF
C 12.01 C.pbe-n-rrkjus_psl.1.0.0.UPF
Li 6.941 Li.pbe-sl-rrkjus_psl.1.0.0.UPF
O 15.99 O.pbe-n-rrkjus_psl.1.0.0.UPF
Sb 121.7 Sb.pbe-n-rrkjus_psl.1.0.0.UPF

CELL_PARAMETERS {angstrom}
6.66546000 0.00000000 0.00000000
0.00000000 6.66546000 0.00000000
0.00000000 0.00000000 24.99910000

ATOMIC_POSITIONS {angstrom}
Li 0.01106466 0.01033146 0.68022551
Li 3.33273000 0.00000000 -2.4996600099999995 0 0 0
Li 0.00000000 3.33273000 -2.4996600099999995 0 0 0
Li 3.32453148 3.32479810 0.68197545
Li 1.67203064 1.67223060 2.69565295
Li 1.66636500 4.99909500 -0.8332199999999972 0 0 0
Li 4.99276281 4.99382929 2.66015423
Li 4.99909500 1.66636500 -0.8332199999999972 0 0 0
Sb 0.00000000 0.00000000 -2.4996600099999995 0 0 0
Sb 3.33273000 3.33273000 -2.4996600099999995 0 0 0
Sb 3.33499626 6.66006098 1.08221104
Sb 6.66059421 3.33632935 1.08246103
Au 1.66636500 1.66636500 -0.8332199999999972 0 0 0
Au 1.67069755 4.99229623 2.28616770
Au 4.99909500 4.99909500 -0.8332199999999972 0 0 0
Au 4.99242954 1.67036428 2.28391778
C 1.67409693 1.67409693 4.78982756
O 1.67476348 1.67483013 5.92978652
