&CONTROL
calculation = 'relax'
prefix = 'scf'
pseudo_dir = '/vol0403/data/hp230205/u10028/POT_HYBRID_KKJUS_GBRV'
outdir = './data'
tprnfor = .true.
nstep = 50
disk_io = 'non'
/
&SYSTEM
ibrav = 0
ecutwfc = 50.0
ecutrho = 400
occupations = 'smearing'
smearing = 'mp'
degauss = 0.01
assume_isolated = 'esm'
esm_bc = 'bc1'
input_dft = 'BEEF-VDW'
nosym = .true.
nspin = 1
ntyp = 6
nat = 18
/
&ELECTRONS
electron_maxstep = 200
mixing_beta = 0.1
conv_thr = 1e-06
/
&IONS
ion_dynamics = 'bfgs'
upscale = 1.0
/
&CELL
/

K_POINTS {automatic}
6 6 1 0 0 0

ATOMIC_SPECIES
C 12.01 C.pbe-n-rrkjus_psl.1.0.0.UPF
Ge 72.64 Ge.pbe-dn-rrkjus_psl.1.0.0.UPF
In 114.8 In.pbe-dn-rrkjus_psl.1.0.0.UPF
Li 6.941 Li.pbe-sl-rrkjus_psl.1.0.0.UPF
O 15.99 O.pbe-n-rrkjus_psl.1.0.0.UPF
Sc 44.95 Sc.pbe-spn-rrkjus_psl.1.0.0.UPF


CELL_PARAMETERS {angstrom}
8.12626000 0.00000000 0.00000000
0.00000000 6.08490000 0.00000000
0.00000000 0.00000000 24.54620000

ATOMIC_POSITIONS {angstrom}
Li 2.03505929 4.73727720 1.13305259
Li 2.03156500 1.12211641 -2.2729781199999977 0 0 0
Li 6.09120071 4.73727720 1.13256167
Li 6.09469500 1.12211641 -2.2729781199999977 0 0 0
Sc 2.02490147 1.55523959 0.82254316
Sc 2.03156500 4.16456641 -2.2729781199999977 0 0 0
Sc 6.10119601 1.55554384 0.82180678
Sc 6.09469500 4.16456641 -2.2729781199999977 0 0 0
In 8.12617874 3.27264177 2.46247478
In 0.00000000 5.81886817 -0.7577411899999973 0 0 0
In 4.06337379 3.25548235 2.47548427
In 4.06313000 5.81886817 -0.7577411899999973 0 0 0
Ge 0.00000000 0.12297583 2.06875374
Ge 0.00000000 2.77641817 -0.7577411899999973 0 0 0
Ge 4.06304874 0.11676923 2.05132593
Ge 4.06313000 2.77641817 -0.7577411899999973 0 0 0
C 8.12617874 3.03648680 5.62991643
O 0.00008126 3.08650468 6.76419633
