&CONTROL
calculation = 'relax'
prefix = 'scf'
pseudo_dir = '/vol0004/mdt0/data/hp150275/u10028/POT_HYBRID_KKJUS_GBRV'
outdir = './data'
tprnfor = .true.
nstep = 50
disk_io = 'non'
/
&SYSTEM
ibrav = 0
ecutwfc = 50.0
ecutrho = 400
occupations = 'smearing'
smearing = 'mp'
degauss = 0.01
assume_isolated = 'esm'
esm_bc = 'bc1'
input_dft = 'BEEF-VDW'
nosym = .true.
nspin = 2
ntyp = 5
nat = 34
starting_magnetization(1) = 0.0
starting_magnetization(2) = 0.1
starting_magnetization(3) = 0.0
starting_magnetization(4) = 0.0
starting_magnetization(5) = 0.0
/
&ELECTRONS
electron_maxstep = 300
mixing_beta = 0.1
conv_thr = 1e-06
/
&IONS
ion_dynamics = 'bfgs'
upscale = 1.0
/
&CELL
/

K_POINTS {automatic}
8 6 1 0 0 0

ATOMIC_SPECIES
C 12.01 C.pbe-n-rrkjus_psl.1.0.0.UPF
Fe 55.84 fe_pbe_v1.5.uspp.F.UPF
O 15.99 O.pbe-n-rrkjus_psl.1.0.0.UPF
Sn 118.7 Sn.pbe-dn-rrkjus_psl.1.0.0.UPF
Ti 47.86 Ti.pbe-spn-rrkjus_psl.1.0.0.UPF

CELL_PARAMETERS {angstrom}
6.02174000 0.00000000 0.00000000
0.00000000 8.51603000 0.00000000
0.00000000 0.00000000 26.38700000

ATOMIC_POSITIONS {angstrom}
Ti 0.00000000 0.00000000 -3.1936186100000015 0 0 0
Ti 3.01087000 2.12900750 -1.06445158 0 0 0
Ti 3.01087000 6.38702250 -1.06445158 0 0 0
Ti 0.00000000 4.25801500 -3.1936186100000015 0 0 0
Ti 0.00024087 4.25537503 1.12646103
Ti 3.01093022 6.38710766 3.20127084
Ti 3.01105065 2.12917782 3.20153471
Ti 0.00030109 0.00323609 1.12751651
Fe 1.50543500 0.00000000 -1.06445158 0 0 0
Fe 4.51630500 4.25801500 -1.06445158 0 0 0
Fe 4.51630500 0.00000000 -1.06445158 0 0 0
Fe 1.50543500 4.25801500 -1.06445158 0 0 0
Fe 4.51630500 6.38702250 -3.1936186100000015 0 0 0
Fe 1.50543500 2.12900750 -3.1936186100000015 0 0 0
Fe 1.50543500 6.38702250 -3.1936186100000015 0 0 0
Fe 4.51630500 2.12900750 -3.1936186100000015 0 0 0
Fe 1.53560392 4.25741888 3.22950493
Fe 4.48541347 0.00170321 3.22976880
Fe 4.48649739 4.25724856 3.22897719
Fe 1.53650718 0.00153289 3.23056041
Fe 4.54153609 2.13173263 1.16894410
Fe 1.47068956 6.38523413 1.17501311
Fe 1.48056521 2.13164747 1.16947184
Fe 4.55135153 6.38523413 1.17448537
Sn 0.00000000 6.38702250 -1.06445158 0 0 0
Sn 3.01087000 0.00000000 -3.1936186100000015 0 0 0
Sn 0.00000000 2.12900750 -1.06445158 0 0 0
Sn 3.01087000 4.25801500 -3.1936186100000015 0 0 0
Sn 0.00030109 2.13105135 3.53005286
Sn 3.01105065 4.26295430 1.06365997
Sn 6.02149913 6.38548961 3.54324636
Sn 3.01099043 8.51219779 1.06339610
C 6.01330956 2.11095352 7.42767663
O 0.00054196 2.13088103 8.56337311
