&CONTROL
calculation = 'relax'
prefix = 'scf'
pseudo_dir = '/vol0403/data/hp230205/u10028/POT_HYBRID_KKJUS_GBRV'
outdir = './data'
tprnfor = .true.
nstep = 50
disk_io = 'non'
/
&SYSTEM
ibrav = 0
ecutwfc = 50.0
ecutrho = 400
occupations = 'smearing'
smearing = 'mp'
degauss = 0.01
assume_isolated = 'esm'
esm_bc = 'bc1'
input_dft = 'BEEF-VDW'
nosym = .true.
nspin = 1
ntyp = 5
nat = 33
/
&ELECTRONS
electron_maxstep = 200
mixing_beta = 0.1
conv_thr = 1e-06
/
&IONS
ion_dynamics = 'bfgs'
upscale = 1.0
/
&CELL
/

K_POINTS {automatic}
6 6 1 0 0 0

ATOMIC_SPECIES
C 12.01 C.pbe-n-rrkjus_psl.1.0.0.UPF
In 114.8 In.pbe-dn-rrkjus_psl.1.0.0.UPF
Pd 106.4 Pd.pbe-n-rrkjus_psl.1.0.0.UPF
Sn 118.7 Sn.pbe-dn-rrkjus_psl.1.0.0.UPF
Y 88.90 Y.pbe-spn-rrkjus_psl.1.0.0.UPF


CELL_PARAMETERS {angstrom}
8.73372000 0.00000000 0.00000000
0.00000000 9.06394000 0.00000000
0.00000000 0.00000000 26.87300000

ATOMIC_POSITIONS {angstrom}
Y 0.02305702 2.31384260 1.25281926
Y 0.00000000 2.26598500 -3.4365192400000026 0 0 0
Y 0.02305702 6.75009740 1.25281926
Y 0.00000000 6.79795500 -3.4365192400000026 0 0 0
Y 4.34380298 2.31384260 1.25281926
Y 4.36686000 2.26598500 -3.4365192400000026 0 0 0
Y 4.34380298 6.75009740 1.25281926
Y 4.36686000 6.79795500 -3.4365192400000026 0 0 0
In 8.49563879 0.00000000 3.87132438
In 0.00000000 0.00000000 -1.1455959900000003 0 0 0
In 8.19694557 4.53197000 3.86944327
In 0.00000000 4.53197000 -1.1455959900000003 0 0 0
In 4.60494121 0.00000000 3.87132438
In 4.36686000 0.00000000 -1.1455959900000003 0 0 0
In 4.90363443 4.53197000 3.86944327
In 4.36686000 4.53197000 -1.1455959900000003 0 0 0
Sn 2.18343000 0.00000000 0.98838894
Sn 2.18343000 0.00000000 -3.4365192400000026 0 0 0
Sn 2.18343000 4.53197000 1.96119154
Sn 2.18343000 4.53197000 -3.4365192400000026 0 0 0
Sn 6.55029000 0.00000000 1.13619044
Sn 6.55029000 0.00000000 -3.4365192400000026 0 0 0
Sn 6.55029000 4.53197000 1.05745255
Sn 6.55029000 4.53197000 -3.4365192400000026 0 0 0
Pd 2.18343000 1.88819998 3.20326160
Pd 2.18343000 2.26598500 -1.1455959900000003 0 0 0
Pd 2.18343000 7.17574002 3.20326160
Pd 2.18343000 6.79795500 -1.1455959900000003 0 0 0
Pd 6.55029000 2.18105588 3.27581870
Pd 6.55029000 2.26598500 -1.1455959900000003 0 0 0
Pd 6.55029000 6.88288412 3.27581870
Pd 6.55029000 6.79795500 -1.1455959900000003 0 0 0
C 2.18343000 0.00000000 3.94146291
