&CONTROL
calculation = 'relax'
prefix = 'scf'
pseudo_dir = '/vol0004/mdt0/data/hp150275/u10028/POT_KKJUS'
outdir = './data'
tprnfor = .true.
nstep = 50
disk_io = 'non'
/
&SYSTEM
ibrav = 0
ecutwfc = 50.0
ecutrho = 400
occupations = 'smearing'
smearing = 'mp'
degauss = 0.01
assume_isolated = 'esm'
esm_bc = 'bc1'
input_dft = 'BEEF-VDW'
nosym = .true.
nspin = 1
ntyp = 4
nat = 17
/
&ELECTRONS
electron_maxstep = 200
mixing_beta = 0.1
conv_thr = 1e-06
/
&IONS
ion_dynamics = 'bfgs'
upscale = 1.0
/
&CELL
/

K_POINTS {automatic}
8 8 1 0 0 0

ATOMIC_SPECIES
C 12.01 C.pbe-n-rrkjus_psl.1.0.0.UPF
In 114.8 In.pbe-dn-rrkjus_psl.1.0.0.UPF
Ni 58.69 Ni.pbe-spn-rrkjus_psl.1.0.0.UPF
Sc 44.95 Sc.pbe-spn-rrkjus_psl.1.0.0.UPF

CELL_PARAMETERS {angstrom}
6.35421000 0.00000000 0.00000000
-0.00000000 6.35421000 0.00000000
0.00000000 0.00000000 24.76570000

ATOMIC_POSITIONS {angstrom}
Sc 0.00000000 0.00000000 2.38270800
Sc 3.17710500 3.17710500 2.38270800
Sc 3.17710500 0.00000000 -0.7942359999999979 0 0 0
Sc 0.00000000 3.17710500 -0.7942359999999979 0 0 0
In 0.00000000 0.00000000 -0.7942359999999979 0 0 0
In 3.17710500 -0.00000000 2.38270800
In 0.00000000 3.17710500 2.38270800
In 3.17710500 3.17710500 -0.7942359999999979 0 0 0
Ni 1.58855250 1.58855250 0.79423600
Ni 4.76565750 4.76565750 -2.3827079999999974 0 0 0
Ni 4.76565750 1.58855250 0.79423600
Ni 1.58855250 4.76565750 -2.3827079999999974 0 0 0
Ni 4.76565750 4.76565750 0.79423600
Ni 1.58855250 1.58855250 -2.3827079999999974 0 0 0
Ni 1.58855250 4.76565750 0.79423600
Ni 4.76565750 1.58855250 -2.3827079999999974 0 0 0
C 1.58855250 1.58855250 3.18288776
