&CONTROL
calculation = 'relax'
prefix = 'scf'
pseudo_dir = '/vol0403/data/hp230205/u10028/POT_HYBRID_KKJUS_GBRV'
outdir = './data'
tprnfor = .true.
nstep = 50
disk_io = 'non'
/
&SYSTEM
ibrav = 0
ecutwfc = 50.0
ecutrho = 400
occupations = 'smearing'
smearing = 'mp'
degauss = 0.01
assume_isolated = 'esm'
esm_bc = 'bc1'
input_dft = 'BEEF-VDW'
nosym = .true.
nspin = 1
ntyp = 5
nat = 17
/
&ELECTRONS
electron_maxstep = 200
mixing_beta = 0.1
conv_thr = 1e-06
/
&IONS
ion_dynamics = 'bfgs'
upscale = 1.0
/
&CELL
/

K_POINTS {automatic}
6 6 1 0 0 0

ATOMIC_SPECIES
Al 26.98 Al.pbe-nl-rrkjus_psl.1.0.0.UPF
C 12.01 C.pbe-n-rrkjus_psl.1.0.0.UPF
In 114.8 In.pbe-dn-rrkjus_psl.1.0.0.UPF
Pd 106.4 Pd.pbe-n-rrkjus_psl.1.0.0.UPF
Sc 44.95 Sc.pbe-spn-rrkjus_psl.1.0.0.UPF


CELL_PARAMETERS {angstrom}
8.30234000 0.00000000 0.00000000
0.00000000 5.99150000 0.00000000
0.00000000 0.00000000 24.49130000

ATOMIC_POSITIONS {angstrom}
Sc 2.07558500 4.44581283 -0.7484541299999989 0 0 0
Sc 1.77130424 1.38265846 2.25270977
Sc 6.22675500 4.44581283 -0.7484541299999989 0 0 0
Sc 6.53103576 1.38253863 2.25246486
Al 0.00000000 0.00000000 -2.2456072999999996 0 0 0
Al 0.00000000 2.95728457 0.54076790
Al 4.15117000 0.00000000 -2.2456072999999996 0 0 0
Al 4.15117000 3.05662364 1.18905262
In 2.07558500 1.45006283 -0.7484541299999989 0 0 0
In 1.75453351 4.36912163 2.63820284
In 6.22675500 1.45006283 -0.7484541299999989 0 0 0
In 6.54780649 4.36900180 2.63820284
Pd 0.00000000 2.99575000 -2.2456072999999996 0 0 0
Pd 0.00000000 5.65735404 0.59954702
Pd 4.15117000 2.99575000 -2.2456072999999996 0 0 0
Pd 4.15117000 5.76783731 0.71490105
C 0.00000000 2.46993596 2.50570490
