&CONTROL
calculation = 'relax'
prefix = 'scf'
pseudo_dir = '/vol0403/data/hp230205/u10028/POT_HYBRID_KKJUS_GBRV'
outdir = './data'
tprnfor = .true.
nstep = 50
disk_io = 'non'
/
&SYSTEM
ibrav = 0
ecutwfc = 50.0
ecutrho = 400
occupations = 'smearing'
smearing = 'mp'
degauss = 0.01
assume_isolated = 'esm'
esm_bc = 'bc1'
input_dft = 'BEEF-VDW'
nosym = .true.
nspin = 1
ntyp = 6
nat = 34
/
&ELECTRONS
electron_maxstep = 200
mixing_beta = 0.1
conv_thr = 1e-06
/
&IONS
ion_dynamics = 'bfgs'
upscale = 1.0
/
&CELL
/

K_POINTS {automatic}
6 6 1 0 0 0

ATOMIC_SPECIES
Ag 107.8 Ag.pbe-n-rrkjus_psl.1.0.0.UPF
Al 26.98 Al.pbe-nl-rrkjus_psl.1.0.0.UPF
C 12.01 C.pbe-n-rrkjus_psl.1.0.0.UPF
Li 6.941 Li.pbe-sl-rrkjus_psl.1.0.0.UPF
Mg 24.30 Mg.pbe-spnl-rrkjus_psl.1.0.0.UPF
O 15.99 O.pbe-n-rrkjus_psl.1.0.0.UPF


CELL_PARAMETERS {angstrom}
6.43596000 0.00000000 0.00000000
0.00000000 9.10182000 0.00000000
0.00000000 0.00000000 26.82640000

ATOMIC_POSITIONS {angstrom}
Li 0.00000000 2.27545500 -1.1377076200000005 0 0 0
Li 0.00000000 6.82636500 -1.1377076200000005 0 0 0
Li 3.21798000 4.55091000 -3.4131228699999987 0 0 0
Li 3.21798000 0.00000000 -3.4131228699999987 0 0 0
Li 0.33737302 6.83546682 4.27532337
Li 0.33724430 2.26644420 4.27532337
Li 3.25447189 9.10172898 1.11597824
Li 3.29057763 4.55081898 1.21335807
Mg 4.82697000 0.00000000 -1.1377076200000005 0 0 0
Mg 4.82697000 4.55091000 -1.1377076200000005 0 0 0
Mg 1.60899000 2.27545500 -3.4131228699999987 0 0 0
Mg 1.60899000 6.82636500 -3.4131228699999987 0 0 0
Mg 4.98207664 4.55091000 3.59339628
Mg 4.88598775 0.00009102 3.44611934
Mg 1.55840335 6.78786430 1.25574378
Mg 1.55840335 2.31386468 1.25601205
Al 1.60899000 0.00000000 -1.1377076200000005 0 0 0
Al 1.60899000 4.55091000 -1.1377076200000005 0 0 0
Al 4.82697000 2.27545500 -3.4131228699999987 0 0 0
Al 4.82697000 6.82636500 -3.4131228699999987 0 0 0
Al 1.62231244 4.55091000 3.47053137
Al 1.74562543 0.00000000 3.36483535
Al 4.89744376 6.83783329 1.29651991
Al 4.89737940 2.26389569 1.29651991
Ag 0.00000000 0.00000000 -3.4131228699999987 0 0 0
Ag 0.00000000 4.55091000 -3.4131228699999987 0 0 0
Ag 3.21798000 6.82636500 -1.1377076200000005 0 0 0
Ag 3.21798000 2.27545500 -1.1377076200000005 0 0 0
Ag 6.39901759 4.55081898 1.09344406
Ag 0.03880884 9.10163796 1.10551594
Ag 3.20858350 2.32624316 3.44209538
Ag 3.20858350 6.77575888 3.44182712
C 0.52324355 0.00000000 4.92318093
O 0.27095392 0.00009102 6.10246947
