&CONTROL
calculation = 'relax'
prefix = 'scf'
pseudo_dir = '/vol0403/data/hp230205/u10028/POT_HYBRID_KKJUS_GBRV'
outdir = './data'
tprnfor = .true.
nstep = 50
disk_io = 'non'
/
&SYSTEM
ibrav = 0
ecutwfc = 50.0
ecutrho = 400
occupations = 'smearing'
smearing = 'mp'
degauss = 0.01
assume_isolated = 'esm'
esm_bc = 'bc1'
input_dft = 'BEEF-VDW'
nosym = .true.
nspin = 1
ntyp = 5
nat = 33
/
&ELECTRONS
electron_maxstep = 200
mixing_beta = 0.1
conv_thr = 1e-06
/
&IONS
ion_dynamics = 'bfgs'
upscale = 1.0
/
&CELL
/

K_POINTS {automatic}
6 6 1 0 0 0

ATOMIC_SPECIES
C 12.01 C.pbe-n-rrkjus_psl.1.0.0.UPF
Cu 63.54 Cu.pbe-dn-rrkjus_psl.1.0.0.UPF
In 114.8 In.pbe-dn-rrkjus_psl.1.0.0.UPF
Li 6.941 Li.pbe-sl-rrkjus_psl.1.0.0.UPF
Pd 106.4 Pd.pbe-n-rrkjus_psl.1.0.0.UPF


CELL_PARAMETERS {angstrom}
6.33486000 0.00000000 0.00000000
0.00000000 8.95884000 0.00000000
0.00000000 0.00000000 26.71910000

ATOMIC_POSITIONS {angstrom}
Li 1.58371500 0.00000000 -1.1197974800000026 0 0 0
Li 1.58371500 4.47942000 -1.1197974800000026 0 0 0
Li 4.75114500 2.23971000 -3.3596596299999995 0 0 0
Li 4.75114500 6.71913000 -3.3596596299999995 0 0 0
Li 1.47564229 4.47942000 3.44035132
Li 1.37903567 0.00000000 3.50901940
Li 4.73055670 6.67155856 1.00490535
Li 4.73049336 2.28728144 1.00490535
In 4.75114500 0.00000000 -1.1197974800000026 0 0 0
In 4.75114500 4.47942000 -1.1197974800000026 0 0 0
In 1.58371500 2.23971000 -3.3596596299999995 0 0 0
In 1.58371500 6.71913000 -3.3596596299999995 0 0 0
In 4.50642936 4.47942000 3.53253221
In 5.25096545 0.00000000 4.45754745
In 1.59302724 6.79259249 1.13716490
In 1.59309059 2.16624751 1.13716490
Cu 0.00000000 0.00000000 -3.3596596299999995 0 0 0
Cu 0.00000000 4.47942000 -3.3596596299999995 0 0 0
Cu 3.16743000 6.71913000 -1.1197974800000026 0 0 0
Cu 3.16743000 2.23971000 -1.1197974800000026 0 0 0
Cu 6.29146621 4.47942000 1.23789590
Cu 6.13005398 0.00000000 1.35813185
Cu 3.39238088 1.94630799 3.25866144
Cu 3.39238088 7.01253201 3.25866144
Pd 0.00000000 2.23971000 -1.1197974800000026 0 0 0
Pd 0.00000000 6.71913000 -1.1197974800000026 0 0 0
Pd 3.16743000 4.47942000 -3.3596596299999995 0 0 0
Pd 3.16743000 0.00000000 -3.3596596299999995 0 0 0
Pd 6.11313990 6.65605977 3.13441762
Pd 6.11313990 2.30278023 3.13441762
Pd 3.41163885 0.00000000 1.28091365
Pd 3.10319452 4.47942000 1.13182108
C 3.32022682 0.00000000 3.33908593
