&CONTROL
calculation = 'relax'
prefix = 'scf'
pseudo_dir = '/vol0004/mdt0/data/hp150275/u10028/POT_KKJUS'
outdir = './data'
tprnfor = .true.
nstep = 50
disk_io = 'non'
/
&SYSTEM
ibrav = 0
ecutwfc = 50.0
ecutrho = 400
occupations = 'smearing'
smearing = 'mp'
degauss = 0.01
assume_isolated = 'esm'
esm_bc = 'bc1'
input_dft = 'BEEF-VDW'
nosym = .true.
nspin = 1
ntyp = 5
nat = 34
/
&ELECTRONS
electron_maxstep = 200
mixing_beta = 0.1
conv_thr = 1e-06
/
&IONS
ion_dynamics = 'bfgs'
upscale = 1.0
/
&CELL
/

K_POINTS {automatic}
8 6 1 0 0 0

ATOMIC_SPECIES
C 12.01 C.pbe-n-rrkjus_psl.1.0.0.UPF
In 114.8 In.pbe-dn-rrkjus_psl.1.0.0.UPF
O 15.99 O.pbe-n-rrkjus_psl.1.0.0.UPF
Pt 195.0 Pt.pbe-n-rrkjus_psl.1.0.0.UPF
Zr 91.22 Zr.pbe-spn-rrkjus_psl.1.0.0.UPF

CELL_PARAMETERS {angstrom}
6.69031000 0.00000000 0.00000000
0.00000000 9.46152000 0.00000000
0.00000000 0.00000000 27.09610000

ATOMIC_POSITIONS {angstrom}
Zr 0.00000000 0.00000000 -3.547963329999998 0 0 0
Zr 3.34515500 2.36538000 -1.1827447599999985 0 0 0
Zr 3.34515500 7.09614000 -1.1827447599999985 0 0 0
Zr 0.00000000 4.73076000 -3.547963329999998 0 0 0
Zr 0.00000000 4.75185919 1.23829177
Zr 3.34515500 7.09614000 3.40896034
Zr 3.34515500 2.36538000 3.43795317
Zr 0.00000000 9.44042081 1.23829177
In 0.00000000 7.09614000 -1.1827447599999985 0 0 0
In 3.34515500 0.00000000 -3.547963329999998 0 0 0
In 0.00000000 2.36538000 -1.1827447599999985 0 0 0
In 3.34515500 4.73076000 -3.547963329999998 0 0 0
In 0.00000000 2.36538000 3.79399592
In 3.34515500 4.68950777 1.11473355
In 0.00000000 7.09614000 3.78180268
In 3.34515500 0.04125223 1.11473355
Pt 1.67257750 0.00000000 -1.1827447599999985 0 0 0
Pt 5.01773250 4.73076000 -1.1827447599999985 0 0 0
Pt 5.01773250 0.00000000 -1.1827447599999985 0 0 0
Pt 1.67257750 4.73076000 -1.1827447599999985 0 0 0
Pt 5.01773250 7.09614000 -3.547963329999998 0 0 0
Pt 1.67257750 2.36538000 -3.547963329999998 0 0 0
Pt 1.67257750 7.09614000 -3.547963329999998 0 0 0
Pt 5.01773250 2.36538000 -3.547963329999998 0 0 0
Pt 1.73051558 4.74637151 3.40272824
Pt 4.95979442 9.44590849 3.40272824
Pt 4.95979442 4.74637151 3.40272824
Pt 1.73051558 9.44590849 3.40272824
Pt 5.11059400 2.36538000 1.17759651
Pt 1.66996828 7.09614000 1.19791858
Pt 1.57971600 2.36538000 1.17759651
Pt 5.02034172 7.09614000 1.19791858
C 3.34515500 2.36538000 5.75737933
O 3.34515500 2.36538000 6.90489916
