&CONTROL
calculation = 'relax'
prefix = 'scf'
pseudo_dir = '/vol0004/mdt0/data/hp150275/u10028/POT_HYBRID_KKJUS_GBRV'
outdir = './data'
tprnfor = .true.
nstep = 50
disk_io = 'non'
/
&SYSTEM
ibrav = 0
ecutwfc = 50.0
ecutrho = 400
occupations = 'smearing'
smearing = 'mp'
degauss = 0.01
assume_isolated = 'esm'
esm_bc = 'bc1'
input_dft = 'BEEF-VDW'
nosym = .true.
nspin = 2
ntyp = 5
nat = 34
starting_magnetization(1) = 0.0
starting_magnetization(2) = 0.0
starting_magnetization(3) = 0.001
starting_magnetization(4) = 0.0
starting_magnetization(5) = 0.0
/
&ELECTRONS
electron_maxstep = 300
mixing_beta = 0.1
conv_thr = 1e-06
/
&IONS
ion_dynamics = 'bfgs'
upscale = 1.0
/
&CELL
/

K_POINTS {automatic}
8 6 1 0 0 0

ATOMIC_SPECIES
Al 26.98 Al.pbe-nl-rrkjus_psl.1.0.0.UPF
C 12.01 C.pbe-n-rrkjus_psl.1.0.0.UPF
Ni 58.69 ni_pbe_v1.4.uspp.F.UPF
O 15.99 O.pbe-n-rrkjus_psl.1.0.0.UPF
Sc 44.95 Sc.pbe-spn-rrkjus_psl.1.0.0.UPF

CELL_PARAMETERS {angstrom}
6.07419000 0.00000000 0.00000000
0.00000000 8.59020000 0.00000000
0.00000000 0.00000000 26.44270000

ATOMIC_POSITIONS {angstrom}
Sc 0.00000000 0.00000000 -3.2212497099999986 0 0 0
Sc 3.03709500 2.14755000 -1.073838049999999 0 0 0
Sc 3.03709500 6.44265000 -1.073838049999999 0 0 0
Sc 0.00000000 4.29510000 -3.2212497099999986 0 0 0
Sc 0.00000000 4.30137085 1.01487083
Sc 3.03709500 6.44265000 3.35452092
Sc 3.03709500 2.14755000 3.35161222
Sc 0.00000000 8.58392915 1.01487083
Al 0.00000000 6.44265000 -1.073838049999999 0 0 0
Al 3.03709500 0.00000000 -3.2212497099999986 0 0 0
Al 0.00000000 2.14755000 -1.073838049999999 0 0 0
Al 3.03709500 4.29510000 -3.2212497099999986 0 0 0
Al 0.00000000 2.14755000 3.14615245
Al 3.03709500 4.29166392 1.15052188
Al 0.00000000 6.44265000 3.15329197
Al 3.03709500 0.00343608 1.15052188
Ni 1.51854750 0.00000000 -1.073838049999999 0 0 0
Ni 4.55564250 4.29510000 -1.073838049999999 0 0 0
Ni 4.55564250 0.00000000 -1.073838049999999 0 0 0
Ni 1.51854750 4.29510000 -1.073838049999999 0 0 0
Ni 4.55564250 6.44265000 -3.2212497099999986 0 0 0
Ni 1.51854750 2.14755000 -3.2212497099999986 0 0 0
Ni 1.51854750 6.44265000 -3.2212497099999986 0 0 0
Ni 4.55564250 2.14755000 -3.2212497099999986 0 0 0
Ni 1.37762629 4.30231577 3.07237731
Ni 4.69656371 8.58298423 3.07237731
Ni 4.69656371 4.30231577 3.07237731
Ni 1.37762629 8.58298423 3.07237731
Ni 4.50540895 2.14755000 1.09525663
Ni 1.59763345 6.44265000 1.12751673
Ni 1.56878105 2.14755000 1.09525663
Ni 4.47655655 6.44273590 1.12751673
C 3.03709500 2.14755000 5.73277736
O 3.03709500 2.14755000 6.87563085
