&CONTROL
calculation = 'relax'
prefix = 'scf'
pseudo_dir = '/vol0004/mdt0/data/hp150275/u10028/POT_HYBRID_KKJUS_GBRV'
outdir = './data'
tprnfor = .true.
nstep = 50
disk_io = 'non'
/
&SYSTEM
ibrav = 0
ecutwfc = 50.0
ecutrho = 400
occupations = 'smearing'
smearing = 'mp'
degauss = 0.01
assume_isolated = 'esm'
esm_bc = 'bc1'
input_dft = 'BEEF-VDW'
nosym = .true.
nspin = 2
ntyp = 2
nat = 32
starting_magnetization(1) = 0.1
starting_magnetization(2) = 0.1
/
&ELECTRONS
electron_maxstep = 200
mixing_beta = 0.1
conv_thr = 1e-06
/
&IONS
ion_dynamics = 'bfgs'
upscale = 1.0
/
&CELL
/

K_POINTS {automatic}
9 6 2 0  0  0

ATOMIC_SPECIES
Ga 69.72 Ga.pbe-dnl-rrkjus_psl.1.0.0.UPF
Ni 58.69 ni_pbe_v1.4.uspp.F.UPF

CELL_PARAMETERS {angstrom}
5.82971000 0.00000000 0.00000000
0.00000000 8.24446000 0.00000000
0.00000000 0.00000000 26.18330000

ATOMIC_POSITIONS {angstrom}
Ga 0.00000000 0.00000000 -3.0917240600000007 0 0 0
Ga 0.00000000 2.06111500 -1.0305746899999981 0 0 0
Ga 0.00000000 8.24380044 1.05911449
Ga 0.00000000 2.06127989 3.28783698
Ga 0.00000000 4.12223000 -3.0917240600000007 0 0 0
Ga 0.00000000 6.18334500 -1.0305746899999981 0 0 0
Ga 0.00000000 4.12288956 1.05911449
Ga 0.00000000 6.18318011 3.28731331
Ga 2.91485500 0.00000000 -3.0917240600000007 0 0 0
Ga 2.91485500 2.06111500 -1.0305746899999981 0 0 0
Ga 2.91485500 8.24380044 1.05911449
Ga 2.91485500 2.06127989 3.28783698
Ga 2.91485500 4.12223000 -3.0917240600000007 0 0 0
Ga 2.91485500 6.18334500 -1.0305746899999981 0 0 0
Ga 2.91485500 4.12288956 1.05911449
Ga 2.91485500 6.18318011 3.28731331
Ni 1.45742750 2.06111500 -3.0917240600000007 0 0 0
Ni 1.45742750 0.00000000 -1.0305746899999981 0 0 0
Ni 1.45742750 2.06127989 0.99863106
Ni 1.45742750 4.12255978 3.02390932
Ni 1.45742750 6.18334500 -3.0917240600000007 0 0 0
Ni 1.45742750 4.12223000 -1.0305746899999981 0 0 0
Ni 1.45742750 6.18318011 0.99836923
Ni 1.45742750 8.24413022 3.02364748
Ni 4.37228250 2.06111500 -3.0917240600000007 0 0 0
Ni 4.37228250 0.00000000 -1.0305746899999981 0 0 0
Ni 4.37228250 2.06127989 0.99863106
Ni 4.37228250 4.12255978 3.02390932
Ni 4.37228250 6.18334500 -3.0917240600000007 0 0 0
Ni 4.37228250 4.12223000 -1.0305746899999981 0 0 0
Ni 4.37228250 6.18318011 0.99836923
Ni 4.37228250 8.24413022 3.02364748
