&CONTROL
calculation = 'relax'
prefix = 'scf'
pseudo_dir = '/vol0403/data/hp230205/u10028/POT_HYBRID_KKJUS_GBRV'
outdir = './data'
tprnfor = .true.
nstep = 70
disk_io = 'non'
/
&SYSTEM
ibrav = 0
ecutwfc = 50.0
ecutrho = 400
occupations = 'smearing'
smearing = 'mp'
degauss = 0.01
assume_isolated = 'esm'
esm_bc = 'bc1'
input_dft = 'BEEF-VDW'
nosym = .true.
nspin = 1
ntyp = 5
nat = 17
/
&ELECTRONS
electron_maxstep = 200
mixing_beta = 0.1
conv_thr = 1e-06
/
&IONS
ion_dynamics = 'bfgs'
upscale = 1.0
/
&CELL
/

K_POINTS {automatic}
6 6 1 0 0 0

ATOMIC_SPECIES
Ag 107.8 Ag.pbe-n-rrkjus_psl.1.0.0.UPF
C 12.01 C.pbe-n-rrkjus_psl.1.0.0.UPF
Li 6.941 Li.pbe-sl-rrkjus_psl.1.0.0.UPF
Mg 24.30 Mg.pbe-spnl-rrkjus_psl.1.0.0.UPF
Pd 106.4 Pd.pbe-n-rrkjus_psl.1.0.0.UPF


CELL_PARAMETERS {angstrom}
6.38329000 0.00000000 0.00000000
-0.00000000 6.38329000 0.00000000
0.00000000 0.00000000 24.78750000

ATOMIC_POSITIONS {angstrom}
Li 4.78746750 1.59582250 -0.797909630000003 0 0 0
Li 4.78746750 4.78746750 2.39372888
Li 1.59582250 1.59582250 2.39372888
Li 1.59582250 4.78746750 -0.797909630000003 0 0 0
Mg 1.59582250 1.59582250 -0.797909630000003 0 0 0
Mg 1.59582250 4.78746750 2.39372888
Mg 4.78746750 1.59582250 2.39372888
Mg 4.78746750 4.78746750 -0.797909630000003 0 0 0
Ag 0.00000000 0.00000000 -2.3937288700000003 0 0 0
Ag 0.00000000 3.19164500 0.79790963
Ag 3.19164500 -0.00000000 0.79790963
Ag 3.19164500 3.19164500 -2.3937288700000003 0 0 0
Pd 0.00000000 3.19164500 -2.3937288700000003 0 0 0
Pd 0.00000000 0.00000000 0.79790963
Pd 3.19164500 3.19164500 0.79790963
Pd 3.19164500 0.00000000 -2.3937288700000003 0 0 0
C 0.00000000 0.00000000 3.19362150
