&CONTROL
calculation = 'relax'
prefix = 'scf'
pseudo_dir = '/vol0403/data/hp230205/u10028/POT_HYBRID_KKJUS_GBRV'
outdir = './data'
tprnfor = .true.
nstep = 50
disk_io = 'non'
/
&SYSTEM
ibrav = 0
ecutwfc = 50.0
ecutrho = 400
occupations = 'smearing'
smearing = 'mp'
degauss = 0.01
assume_isolated = 'esm'
esm_bc = 'bc1'
input_dft = 'BEEF-VDW'
nosym = .true.
nspin = 2
ntyp = 6
nat = 18
starting_magnetization(1) = 0.0
starting_magnetization(2) = 0.1
starting_magnetization(3) = 0.0
starting_magnetization(4) = 0.0
starting_magnetization(5) = 0.0
starting_magnetization(6) = 0.0
/
&ELECTRONS
electron_maxstep = 400
mixing_beta = 0.05
conv_thr = 1e-06
/
&IONS
ion_dynamics = 'bfgs'
upscale = 1.0
/
&CELL
/

K_POINTS {automatic}
10 10 2 0  0  0

ATOMIC_SPECIES
C 12.01 C.pbe-n-rrkjus_psl.1.0.0.UPF
Co 58.93 co_pbe_v1.2.uspp.F.UPF
Ge 72.64 Ge.pbe-dn-rrkjus_psl.1.0.0.UPF
Li 6.941 Li.pbe-sl-rrkjus_psl.1.0.0.UPF
O 15.99 O.pbe-n-rrkjus_psl.1.0.0.UPF
Pd 106.4 Pd.pbe-n-rrkjus_psl.1.0.0.UPF


CELL_PARAMETERS {angstrom}
5.88348000 0.00000000 0.00000000
0.00000000 5.88348000 0.00000000
0.00000000 0.00000000 24.41260000

ATOMIC_POSITIONS {angstrom}
Li 4.40566749 1.46392749 0.76924103
Li 4.41261000 4.41261000 22.20618921
Li 1.47087000 1.47087000 22.20618921
Li 1.47781251 4.41955251 0.76924103
Co 0.00000000 0.00000000 2.14464691
Co 0.00000000 2.94174000 23.67704836
Co 2.94174000 0.00000000 23.67704836
Co 2.94174000 2.94174000 2.14440278
Ge 1.47257621 1.46898729 0.78047082
Ge 1.47087000 4.41261000 22.20618921
Ge 4.41261000 1.47087000 22.20618921
Ge 4.41090379 4.41449271 0.78047082
Pd 0.00000000 2.94174000 2.36509269
Pd 0.00000000 0.00000000 23.67704836
Pd 2.94174000 2.94174000 23.67704836
Pd 2.94174000 0.00000000 2.26500103
C 0.00000000 2.94174000 4.31248579
O 0.00000000 2.94174000 5.46158687
