&CONTROL
calculation = 'relax'
prefix = 'scf'
pseudo_dir = '/vol0004/mdt0/data/hp150275/u10028/POT_KKJUS'
outdir = './data'
tprnfor = .true.
nstep = 50
disk_io = 'non'
/
&SYSTEM
ibrav = 0
ecutwfc = 50.0
ecutrho = 400
occupations = 'smearing'
smearing = 'mp'
degauss = 0.01
assume_isolated = 'esm'
esm_bc = 'bc1'
input_dft = 'BEEF-VDW'
nosym = .true.
nspin = 1
ntyp = 4
nat = 33
/
&ELECTRONS
electron_maxstep = 200
mixing_beta = 0.1
conv_thr = 1e-06
/
&IONS
ion_dynamics = 'bfgs'
upscale = 1.0
/
&CELL
/

K_POINTS {automatic}
8 6 1 0 0 0

ATOMIC_SPECIES
Al 26.98 Al.pbe-nl-rrkjus_psl.1.0.0.UPF
C 12.01 C.pbe-n-rrkjus_psl.1.0.0.UPF
Cu 63.54 Cu.pbe-dn-rrkjus_psl.1.0.0.UPF
Sc 44.95 Sc.pbe-spn-rrkjus_psl.1.0.0.UPF

CELL_PARAMETERS {angstrom}
6.23499000 0.00000000 0.00000000
0.00000000 8.81761000 0.00000000
0.00000000 0.00000000 26.61320000

ATOMIC_POSITIONS {angstrom}
Sc 0.00000000 0.00000000 -3.306690100000001 0 0 0
Sc 3.11749500 2.20440250 -1.1023187399999976 0 0 0
Sc 3.11749500 6.61320750 -1.1023187399999976 0 0 0
Sc 0.00000000 4.40880500 -3.306690100000001 0 0 0
Sc 0.00000000 4.40880500 1.16060165
Sc 3.11749500 6.38747668 3.39238460
Sc 3.11743265 2.43013332 3.39238460
Sc 0.00006235 0.00000000 1.07597168
Al 0.00000000 6.61320750 -1.1023187399999976 0 0 0
Al 3.11749500 0.00000000 -3.306690100000001 0 0 0
Al 0.00000000 2.20440250 -1.1023187399999976 0 0 0
Al 3.11749500 4.40880500 -3.306690100000001 0 0 0
Al 0.00000000 2.03810238 3.21753588
Al 3.11749500 4.40880500 1.08874601
Al 0.00000000 6.77950762 3.21753588
Al 3.11749500 0.00000000 1.03844706
Cu 1.55874750 0.00000000 -1.1023187399999976 0 0 0
Cu 4.67624250 4.40880500 -1.1023187399999976 0 0 0
Cu 4.67624250 0.00000000 -1.1023187399999976 0 0 0
Cu 1.55874750 4.40880500 -1.1023187399999976 0 0 0
Cu 4.67624250 6.61320750 -3.306690100000001 0 0 0
Cu 1.55874750 2.20440250 -3.306690100000001 0 0 0
Cu 1.55874750 6.61320750 -3.306690100000001 0 0 0
Cu 4.67624250 2.20440250 -3.306690100000001 0 0 0
Cu 1.26969336 4.40880500 3.51374080
Cu 4.34672328 0.00000000 3.28460114
Cu 4.96523429 4.40871682 3.51374080
Cu 1.88826672 0.00000000 3.28460114
Cu 4.61071276 2.21630627 1.10843978
Cu 1.62427724 6.60130373 1.10843978
Cu 1.62427724 2.21630627 1.10843978
Cu 4.61077511 6.60130373 1.10843978
C 0.00000000 0.00000000 3.47807911
