&CONTROL
calculation = 'relax'
prefix = 'scf'
pseudo_dir = '/vol0004/mdt0/data/hp150275/u10028/POT_KKJUS'
outdir = './data'
tprnfor = .true.
nstep = 50
disk_io = 'non'
/
&SYSTEM
ibrav = 0
ecutwfc = 50.0
ecutrho = 400
occupations = 'smearing'
smearing = 'mp'
degauss = 0.01
assume_isolated = 'esm'
esm_bc = 'bc1'
input_dft = 'BEEF-VDW'
nosym = .true.
nspin = 1
ntyp = 4
nat = 18
/
&ELECTRONS
electron_maxstep = 200
mixing_beta = 0.1
conv_thr = 1e-06
/
&IONS
ion_dynamics = 'bfgs'
upscale = 1.0
/
&CELL
/

K_POINTS {automatic}
6 8 1 0 0 0

ATOMIC_SPECIES
Au 196.9 Au.pbe-n-rrkjus_psl.1.0.0.UPF
C 12.01 C.pbe-n-rrkjus_psl.1.0.0.UPF
Cu 63.54 Cu.pbe-dn-rrkjus_psl.1.0.0.UPF
O 15.99 O.pbe-n-rrkjus_psl.1.0.0.UPF

CELL_PARAMETERS {angstrom}
7.64441000 0.00000000 0.00000000
0.00000000 5.40542000 0.00000000
0.00000000 0.00000000 24.05410000

ATOMIC_POSITIONS {angstrom}
Cu 0.00000000 2.70271000 2.00346599
Cu 1.92753798 4.05103796 0.70622838
Cu 1.92753798 1.35438204 0.70622838
Cu 0.00000000 0.00000000 -0.6756796699999974 0 0 0
Cu 1.91110250 1.35135500 -2.0270390099999993 0 0 0
Cu 1.91110250 4.05406500 -2.0270390099999993 0 0 0
Cu 3.82220500 2.70271000 1.95102805
Cu 5.71687202 4.05103796 0.70622838
Cu 5.71687202 1.35438204 0.70622838
Cu 3.82220500 0.00000000 -0.6756796699999974 0 0 0
Cu 5.73330750 1.35135500 -2.0270390099999993 0 0 0
Cu 5.73330750 4.05406500 -2.0270390099999993 0 0 0
Au 0.00000000 0.00000000 1.97748756
Au 0.00000000 2.70271000 -0.6756796699999974 0 0 0
Au 3.82220500 0.00000000 2.05494176
Au 3.82220500 2.70271000 -0.6756796699999974 0 0 0
C 0.00000000 2.70271000 3.87150740
O 0.00000000 2.70271000 5.01720418
