&CONTROL
calculation = 'relax'
prefix = 'scf'
pseudo_dir = '/vol0004/mdt0/data/hp150275/u10028/POT_KKJUS'
outdir = './data'
tprnfor = .true.
nstep = 50
disk_io = 'non'
/
&SYSTEM
ibrav = 0
ecutwfc = 50.0
ecutrho = 400
occupations = 'smearing'
smearing = 'mp'
degauss = 0.01
assume_isolated = 'esm'
esm_bc = 'bc1'
input_dft = 'BEEF-VDW'
nosym = .true.
nspin = 1
ntyp = 5
nat = 34
/
&ELECTRONS
electron_maxstep = 200
mixing_beta = 0.1
conv_thr = 1e-06
/
&IONS
ion_dynamics = 'bfgs'
upscale = 1.0
/
&CELL
/

K_POINTS {automatic}
8 6 1 0 0 0

ATOMIC_SPECIES
C 12.01 C.pbe-n-rrkjus_psl.1.0.0.UPF
In 114.8 In.pbe-dn-rrkjus_psl.1.0.0.UPF
Li 6.941 Li.pbe-sl-rrkjus_psl.1.0.0.UPF
O 15.99 O.pbe-n-rrkjus_psl.1.0.0.UPF
Pd 106.4 Pd.pbe-n-rrkjus_psl.1.0.0.UPF

CELL_PARAMETERS {angstrom}
6.46446000 0.00000000 0.00000000
0.00000000 9.14213000 0.00000000
0.00000000 0.00000000 26.85660000

ATOMIC_POSITIONS {angstrom}
Li 0.00000000 6.85659750 -1.1427483299999999 0 0 0
Li 3.23223000 0.00000000 -3.4282449899999996 0 0 0
Li 0.00000000 2.28553250 -1.1427483299999999 0 0 0
Li 3.23223000 4.57106500 -3.4282449899999996 0 0 0
Li 1.61611500 2.28553250 -3.4282449899999996 0 0 0
Li 1.61611500 6.85659750 -3.4282449899999996 0 0 0
Li 4.84834500 4.57106500 -1.1427483299999999 0 0 0
Li 4.84834500 0.00000000 -1.1427483299999999 0 0 0
Li 0.00407261 2.27437910 3.44409038
Li 3.18387584 4.57106500 1.13039429
Li 0.00413725 6.86775090 3.44409038
Li 3.23041995 0.00000000 1.11830882
Li 1.58366341 6.85998009 1.06405849
Li 1.58366341 2.28214991 1.06405849
Li 4.71912044 0.00000000 3.40165696
Li 4.68511738 4.57106500 3.36164062
In 1.61611500 0.00000000 -1.1427483299999999 0 0 0
In 1.61611500 4.57106500 -1.1427483299999999 0 0 0
In 4.84834500 6.85659750 -3.4282449899999996 0 0 0
In 4.84834500 2.28553250 -3.4282449899999996 0 0 0
In 1.59853167 4.57106500 3.57837338
In 1.65354422 0.00000000 3.52600301
In 4.88642067 2.28900651 1.12824577
In 4.88635602 6.85312349 1.12851433
Pd 0.00000000 0.00000000 -3.4282449899999996 0 0 0
Pd 3.23223000 2.28553250 -1.1427483299999999 0 0 0
Pd 3.23223000 6.85659750 -1.1427483299999999 0 0 0
Pd 0.00000000 4.57106500 -3.4282449899999996 0 0 0
Pd 0.02721538 4.57106500 1.19082164
Pd 3.07979803 6.83163949 3.16343891
Pd 3.07979803 2.31039909 3.16343891
Pd 0.02016912 0.00000000 1.18706172
C 4.90381007 0.00000000 5.46424384
O 4.90141822 0.00000000 6.60914069
