&CONTROL
calculation = 'relax'
prefix = 'scf'
pseudo_dir = '/vol0403/data/hp230205/u10028/POT_HYBRID_KKJUS_GBRV'
outdir = './data'
tprnfor = .true.
nstep = 50
disk_io = 'non'
/
&SYSTEM
ibrav = 0
ecutwfc = 50.0
ecutrho = 400
occupations = 'smearing'
smearing = 'mp'
degauss = 0.01
assume_isolated = 'esm'
esm_bc = 'bc1'
input_dft = 'BEEF-VDW'
nosym = .true.
nspin = 1
ntyp = 5
nat = 17
/
&ELECTRONS
electron_maxstep = 200
mixing_beta = 0.1
conv_thr = 1e-06
/
&IONS
ion_dynamics = 'bfgs'
upscale = 1.0
/
&CELL
/

K_POINTS {automatic}
10 10 2 0  0  0

ATOMIC_SPECIES
C 12.01 C.pbe-n-rrkjus_psl.1.0.0.UPF
Cu 63.54 Cu.pbe-dn-rrkjus_psl.1.0.0.UPF
Ga 69.72 Ga.pbe-dnl-rrkjus_psl.1.0.0.UPF
Li 6.941 Li.pbe-sl-rrkjus_psl.1.0.0.UPF
Pd 106.4 Pd.pbe-n-rrkjus_psl.1.0.0.UPF


CELL_PARAMETERS {angstrom}
6.02537000 0.00000000 0.00000000
0.00000000 6.02537000 0.00000000
0.00000000 0.00000000 24.51900000

ATOMIC_POSITIONS {angstrom}
Li 1.50441438 1.50441438 0.65661882
Li 1.50634250 4.51902750 -2.2594258499999995 0 0 0
Li 4.51902750 1.50634250 -2.2594258499999995 0 0 0
Li 4.51667761 4.51661735 0.88758780
Ga 4.51661735 1.50929493 0.84884778
Ga 4.51902750 4.51902750 -2.2594258499999995 0 0 0
Ga 1.50634250 1.50634250 -2.2594258499999995 0 0 0
Ga 1.50929493 4.51661735 0.84884778
Cu 0.13388372 0.13388372 2.32342044
Cu 0.00000000 3.01268500 -0.7532236799999978 0 0 0
Cu 3.01268500 0.00000000 -0.7532236799999978 0 0 0
Cu 2.87783722 2.87783722 2.32807905
Pd 0.10767336 2.90489113 2.35578552
Pd 0.00000000 0.00000000 -0.7532236799999978 0 0 0
Pd 3.01268500 3.01268500 -0.7532236799999978 0 0 0
Pd 2.90489113 0.10767336 2.35578552
C 1.50507717 1.50507717 2.80816107
