&CONTROL
calculation = 'relax'
prefix = 'scf'
pseudo_dir = '/vol0403/data/hp230205/u10028/POT_HYBRID_KKJUS_GBRV'
outdir = './data'
tprnfor = .true.
nstep = 70
disk_io = 'non'
/
&SYSTEM
ibrav = 0
ecutwfc = 50.0
ecutrho = 400
occupations = 'smearing'
smearing = 'mp'
degauss = 0.01
assume_isolated = 'esm'
esm_bc = 'bc1'
input_dft = 'BEEF-VDW'
nosym = .true.
nspin = 1
ntyp = 6
nat = 34
/
&ELECTRONS
electron_maxstep = 200
mixing_beta = 0.1
conv_thr = 1e-06
/
&IONS
ion_dynamics = 'bfgs'
upscale = 1.0
/
&CELL
/

K_POINTS {automatic}
9 6 2 0  0  0

ATOMIC_SPECIES
C 12.01 C.pbe-n-rrkjus_psl.1.0.0.UPF
Cu 63.54 Cu.pbe-dn-rrkjus_psl.1.0.0.UPF
Li 6.941 Li.pbe-sl-rrkjus_psl.1.0.0.UPF
O 15.99 O.pbe-n-rrkjus_psl.1.0.0.UPF
Pb 207.2 Pb.pbe-dn-rrkjus_psl.1.0.0.UPF
Pd 106.4 Pd.pbe-n-rrkjus_psl.1.0.0.UPF


CELL_PARAMETERS {angstrom}
6.46272000 0.00000000 0.00000000
-0.00000000 9.13966000 0.00000000
0.00000000 0.00000000 26.85470000

ATOMIC_POSITIONS {angstrom}
Li 0.00000000 2.28491500 -1.1423989399999996 0 0 0
Li 0.00000000 6.85474500 -1.1423989399999996 0 0 0
Li 3.23136000 4.56983000 -3.4274653599999994 0 0 0
Li 3.23136000 0.00000000 -3.4274653599999994 0 0 0
Li 0.19065024 6.78820828 3.60470638
Li 0.19065024 2.35145172 3.60470638
Li 3.31298415 -0.00000000 1.12601757
Li 3.44017048 4.56983000 1.23504765
Cu 0.00000000 0.00000000 -3.4274653599999994 0 0 0
Cu 0.00000000 4.56983000 -3.4274653599999994 0 0 0
Cu 3.23136000 6.85474500 -1.1423989399999996 0 0 0
Cu 3.23136000 2.28491500 -1.1423989399999996 0 0 0
Cu 6.22463340 4.56983000 1.42732731
Cu 6.36067365 -0.00000000 1.22806543
Cu 3.28874895 2.26581311 3.27922742
Cu 3.28874895 6.87384689 3.27922742
Pd 1.61568000 0.00000000 -1.1423989399999996 0 0 0
Pd 1.61568000 4.56983000 -1.1423989399999996 0 0 0
Pd 4.84704000 2.28491500 -3.4274653599999994 0 0 0
Pd 4.84704000 6.85474500 -3.4274653599999994 0 0 0
Pd 1.81395625 4.56983000 3.14092571
Pd 1.76936348 -0.00000000 3.10064366
Pd 4.90164998 6.88143281 1.13004578
Pd 4.90171461 2.25822719 1.13004578
Pb 4.84704000 0.00000000 -1.1423989399999996 0 0 0
Pb 4.84704000 4.56983000 -1.1423989399999996 0 0 0
Pb 1.61568000 2.28491500 -3.4274653599999994 0 0 0
Pb 1.61568000 6.85474500 -3.4274653599999994 0 0 0
Pb 4.67881540 4.56983000 3.96805047
Pb 4.81569581 -0.00000000 3.71964450
Pb 1.56029449 6.80648760 1.08976373
Pb 1.56029449 2.33326380 1.08976373
C 5.25858601 -0.00000000 7.51179668
O 4.53650630 0.00009140 8.38833409
