&CONTROL
calculation = 'relax'
prefix = 'scf'
pseudo_dir = '/vol0403/data/hp230205/u10028/POT_HYBRID_KKJUS_GBRV'
outdir = './data'
tprnfor = .true.
nstep = 70
disk_io = 'non'
/
&SYSTEM
ibrav = 0
ecutwfc = 50.0
ecutrho = 400
occupations = 'smearing'
smearing = 'mp'
degauss = 0.01
assume_isolated = 'esm'
esm_bc = 'bc1'
input_dft = 'BEEF-VDW'
nosym = .true.
nspin = 1
ntyp = 5
nat = 17
/
&ELECTRONS
electron_maxstep = 200
mixing_beta = 0.1
conv_thr = 1e-06
/
&IONS
ion_dynamics = 'bfgs'
upscale = 1.0
/
&CELL
/

K_POINTS {automatic}
6 6 1 0 0 0

ATOMIC_SPECIES
Al 26.98 Al.pbe-nl-rrkjus_psl.1.0.0.UPF
C 12.01 C.pbe-n-rrkjus_psl.1.0.0.UPF
Li 6.941 Li.pbe-sl-rrkjus_psl.1.0.0.UPF
Mg 24.30 Mg.pbe-spnl-rrkjus_psl.1.0.0.UPF
Pt 195.0 Pt.pbe-n-rrkjus_psl.1.0.0.UPF


CELL_PARAMETERS {angstrom}
6.24880000 0.00000000 0.00000000
-0.00000000 6.24880000 0.00000000
0.00000000 0.00000000 24.68660000

ATOMIC_POSITIONS {angstrom}
Li 1.56220000 1.56220000 -0.781084019999998 0 0 0
Li 1.56220000 4.68660000 2.34325207
Li 4.68660000 1.56220000 2.34325207
Li 4.68660000 4.68660000 -0.781084019999998 0 0 0
Mg 0.00000000 3.12440000 -2.3432520699999984 0 0 0
Mg 0.00000000 0.00000000 0.78108402
Mg 3.12440000 3.12440000 0.78108402
Mg 3.12440000 0.00000000 -2.3432520699999984 0 0 0
Al 0.00000000 0.00000000 -2.3432520699999984 0 0 0
Al 0.00000000 3.12440000 0.78108402
Al 3.12440000 -0.00000000 0.78108402
Al 3.12440000 3.12440000 -2.3432520699999984 0 0 0
Pt 4.68660000 1.56220000 -0.781084019999998 0 0 0
Pt 4.68660000 4.68660000 2.34325207
Pt 1.56220000 1.56220000 2.34325207
Pt 1.56220000 4.68660000 -0.781084019999998 0 0 0
C 0.00000000 3.12440000 3.14334478
