&CONTROL
calculation = 'relax'
prefix = 'scf'
pseudo_dir = '/vol0004/mdt0/data/hp150275/u10028/POT_KKJUS'
outdir = './data'
tprnfor = .true.
nstep = 50
disk_io = 'non'
/
&SYSTEM
ibrav = 0
ecutwfc = 50.0
ecutrho = 400
occupations = 'smearing'
smearing = 'mp'
degauss = 0.01
assume_isolated = 'esm'
esm_bc = 'bc1'
input_dft = 'BEEF-VDW'
nosym = .true.
nspin = 1
ntyp = 4
nat = 34
/
&ELECTRONS
electron_maxstep = 200
mixing_beta = 0.1
conv_thr = 1e-06
/
&IONS
ion_dynamics = 'bfgs'
upscale = 1.0
/
&CELL
/

K_POINTS {automatic}
9 6 2 0  0  0

ATOMIC_SPECIES
Al 26.98 Al.pbe-nl-rrkjus_psl.1.0.0.UPF
C 12.01 C.pbe-n-rrkjus_psl.1.0.0.UPF
O 15.99 O.pbe-n-rrkjus_psl.1.0.0.UPF
Ti 47.86 Ti.pbe-spn-rrkjus_psl.1.0.0.UPF

CELL_PARAMETERS {angstrom}
6.37073000 0.00000000 0.00000000
0.00000000 9.00957000 0.00000000
0.00000000 0.00000000 26.75720000

ATOMIC_POSITIONS {angstrom}
Ti 0.00000000 0.00000000 -3.378631640000002 0 0 0
Ti 0.00000000 2.25239250 -1.1262105499999997 0 0 0
Ti 0.02975131 0.00000000 1.23564750
Ti 6.29886817 2.33374892 3.31682251
Ti 0.00000000 4.50478500 -3.378631640000002 0 0 0
Ti 0.00000000 6.75717750 -1.1262105499999997 0 0 0
Ti 6.32212133 4.50478500 1.23323935
Ti 6.29886817 6.67573099 3.31682251
Ti 3.18536500 0.00000000 -3.378631640000002 0 0 0
Ti 3.18536500 2.25239250 -1.1262105499999997 0 0 0
Ti 3.15561369 0.00000000 1.23564750
Ti 3.25722683 2.33374892 3.31682251
Ti 3.18536500 4.50478500 -3.378631640000002 0 0 0
Ti 3.18536500 6.75717750 -1.1262105499999997 0 0 0
Ti 3.23397367 4.50478500 1.23323935
Ti 3.25722683 6.67573099 3.31682251
Al 1.59268250 2.25239250 -3.378631640000002 0 0 0
Al 1.59268250 0.00000000 -1.1262105499999997 0 0 0
Al 1.59268250 2.28780011 1.12433754
Al 1.59268250 9.00947990 3.49261732
Al 1.59268250 6.75717750 -3.378631640000002 0 0 0
Al 1.59268250 4.50478500 -1.1262105499999997 0 0 0
Al 1.59268250 6.72176989 1.12433754
Al 1.59268250 4.50478500 3.62105188
Al 4.77804750 2.25239250 -3.378631640000002 0 0 0
Al 4.77804750 0.00000000 -1.1262105499999997 0 0 0
Al 4.77804750 2.21004752 1.07697730
Al 4.77804750 9.00947990 3.66707426
Al 4.77804750 6.75717750 -3.378631640000002 0 0 0
Al 4.77804750 4.50478500 -1.1262105499999997 0 0 0
Al 4.77804750 6.79961257 1.07697730
Al 4.77804750 4.50478500 3.81156314
C 1.59268250 0.00000000 5.44214691
O 1.59268250 0.00000000 6.60180396
