&CONTROL
calculation = 'relax'
prefix = 'scf'
pseudo_dir = '/vol0004/mdt0/data/hp150275/u10028/POT_KKJUS'
outdir = './data'
tprnfor = .true.
nstep = 50
disk_io = 'non'
/
&SYSTEM
ibrav = 0
ecutwfc = 50.0
ecutrho = 400
occupations = 'smearing'
smearing = 'mp'
degauss = 0.01
assume_isolated = 'esm'
esm_bc = 'bc1'
input_dft = 'BEEF-VDW'
nosym = .true.
nspin = 1
ntyp = 3
nat = 17
/
&ELECTRONS
electron_maxstep = 200
mixing_beta = 0.1
conv_thr = 1e-06
/
&IONS
ion_dynamics = 'bfgs'
upscale = 1.0
/
&CELL
/

K_POINTS {automatic}
6 8 1 0 0 0

ATOMIC_SPECIES
C 12.01 C.pbe-n-rrkjus_psl.1.0.0.UPF
Ni 58.69 Ni.pbe-spn-rrkjus_psl.1.0.0.UPF
Si 28.08 Si.pbe-nl-rrkjus_psl.1.0.0.UPF

CELL_PARAMETERS {angstrom}
7.08204000 0.00000000 0.00000000
0.00000000 5.00776000 0.00000000
0.00000000 0.00000000 23.75580000

ATOMIC_POSITIONS {angstrom}
Si 0.06097636 4.98848012 1.76054234
Si 0.00000000 2.50388000 -0.6259653299999997 0 0 0
Si 3.47997282 4.98843005 1.76054234
Si 3.54102000 2.50388000 -0.6259653299999997 0 0 0
Ni 0.20984085 2.42931445 1.93776061
Ni 1.77029754 3.81391002 0.64544509
Ni 1.77051000 1.29876256 0.41430115
Ni 0.00000000 0.00000000 -0.6259653299999997 0 0 0
Ni 1.77051000 1.25194000 -1.877895989999999 0 0 0
Ni 1.77051000 3.75582000 -1.877895989999999 0 0 0
Ni 3.33110833 2.42936453 1.93799816
Ni 5.31174246 3.71029946 0.77752733
Ni 5.31145918 1.22519856 0.80864743
Ni 3.54102000 0.00000000 -0.6259653299999997 0 0 0
Ni 5.31153000 1.25194000 -1.877895989999999 0 0 0
Ni 5.31153000 3.75582000 -1.877895989999999 0 0 0
C 1.77051000 1.32930989 2.26178972
