&CONTROL
calculation = 'relax'
prefix = 'scf'
pseudo_dir = '/vol0004/mdt0/data/hp150275/u10028/POT_HYBRID_KKJUS_GBRV'
outdir = './data'
tprnfor = .true.
nstep = 50
disk_io = 'non'
/
&SYSTEM
ibrav = 0
ecutwfc = 50.0
ecutrho = 400
occupations = 'smearing'
smearing = 'mp'
degauss = 0.01
assume_isolated = 'esm'
esm_bc = 'bc1'
input_dft = 'BEEF-VDW'
nosym = .true.
nspin = 2
ntyp = 3
nat = 32
starting_magnetization(1) = 0.0
starting_magnetization(2) = 0.1
starting_magnetization(3) = 0.1
/
&ELECTRONS
electron_maxstep = 200
mixing_beta = 0.1
conv_thr = 1e-06
/
&IONS
ion_dynamics = 'bfgs'
upscale = 1.0
/
&CELL
/

K_POINTS {automatic}
9 6 2 0  0  0

ATOMIC_SPECIES
Al 26.98 Al.pbe-nl-rrkjus_psl.1.0.0.UPF
Co 58.93 co_pbe_v1.2.uspp.F.UPF
Cr 51.99 cr_pbe_v1.5.uspp.F.UPF

CELL_PARAMETERS {angstrom}
5.71826000 0.00000000 0.00000000
0.00000000 8.08683000 0.00000000
0.00000000 0.00000000 26.06510000

ATOMIC_POSITIONS {angstrom}
Al 0.00000000 0.00000000 23.03242562
Al 2.85913000 2.02170750 25.05429542
Al 2.85913000 6.06512250 25.05429542
Al 0.00000000 4.04341500 23.03242562
Al 0.00000000 4.04341500 1.02096997
Al 2.85913000 6.06512250 3.08298003
Al 2.85913000 2.02170750 3.08298003
Al 0.00000000 0.00000000 1.02096997
Cr 0.00000000 6.06512250 25.05429542
Cr 2.85913000 0.00000000 23.03242562
Cr 0.00000000 2.02170750 25.05429542
Cr 2.85913000 4.04341500 23.03242562
Cr 0.00000000 2.02170750 3.05743623
Cr 2.85913000 4.04341500 1.06840845
Cr 0.00000000 6.06512250 3.05743623
Cr 2.85913000 0.00000000 1.06840845
Co 1.42956500 0.00000000 25.05429542
Co 4.28869500 4.04341500 25.05429542
Co 4.28869500 0.00000000 25.05429542
Co 1.42956500 4.04341500 25.05429542
Co 4.28869500 6.06512250 23.03242562
Co 1.42956500 2.02170750 23.03242562
Co 1.42956500 6.06512250 23.03242562
Co 4.28869500 2.02170750 23.03242562
Co 1.44637668 4.04341500 2.96151666
Co 4.27182613 0.00000000 2.96125601
Co 4.27188332 4.04341500 2.96151666
Co 1.44643387 0.00000000 2.96125601
Co 4.29126822 2.02154576 0.99829333
Co 1.42704897 6.06528424 0.99829333
Co 1.42699178 2.02154576 0.99855398
Co 4.29121103 6.06528424 0.99829333
