&CONTROL
calculation = 'relax'
prefix = 'scf'
pseudo_dir = '/vol0403/data/hp230205/u10028/POT_HYBRID_KKJUS_GBRV'
outdir = './data'
tprnfor = .true.
nstep = 70
disk_io = 'non'
/
&SYSTEM
ibrav = 0
ecutwfc = 50.0
ecutrho = 400
occupations = 'smearing'
smearing = 'mp'
degauss = 0.01
assume_isolated = 'esm'
esm_bc = 'bc1'
input_dft = 'BEEF-VDW'
nosym = .true.
nspin = 1
ntyp = 5
nat = 33
/
&ELECTRONS
electron_maxstep = 200
mixing_beta = 0.1
conv_thr = 1e-06
/
&IONS
ion_dynamics = 'bfgs'
upscale = 1.0
/
&CELL
/

K_POINTS {automatic}
9 6 2 0  0  0

ATOMIC_SPECIES
Ag 107.8 Ag.pbe-n-rrkjus_psl.1.0.0.UPF
C 12.01 C.pbe-n-rrkjus_psl.1.0.0.UPF
Li 6.941 Li.pbe-sl-rrkjus_psl.1.0.0.UPF
Mg 24.30 Mg.pbe-spnl-rrkjus_psl.1.0.0.UPF
Pd 106.4 Pd.pbe-n-rrkjus_psl.1.0.0.UPF


CELL_PARAMETERS {angstrom}
6.38329000 0.00000000 0.00000000
-0.00000000 9.02734000 0.00000000
0.00000000 0.00000000 26.77050000

ATOMIC_POSITIONS {angstrom}
Li 4.78746750 0.00000000 -1.1283765799999976 0 0 0
Li 4.78746750 4.51367000 -1.1283765799999976 0 0 0
Li 1.59582250 2.25683500 -3.385129729999999 0 0 0
Li 1.59582250 6.77050500 -3.385129729999999 0 0 0
Li 4.84236379 4.40651547 3.69513212
Li 4.84236379 0.10715453 3.69513212
Li 1.59122653 6.77050500 1.19958611
Li 1.65027196 2.25683500 1.01272801
Mg 1.59582250 0.00000000 -1.1283765799999976 0 0 0
Mg 1.59582250 4.51367000 -1.1283765799999976 0 0 0
Mg 4.78746750 2.25683500 -3.385129729999999 0 0 0
Mg 4.78746750 6.77050500 -3.385129729999999 0 0 0
Mg 1.53945805 4.66550986 3.54146944
Mg 1.53945805 8.87550014 3.54146944
Mg 4.77067945 6.77050500 1.09866132
Mg 4.70078242 2.25683500 1.28766105
Ag 0.00000000 0.00000000 -3.385129729999999 0 0 0
Ag 0.00000000 4.51367000 -3.385129729999999 0 0 0
Ag 3.19164500 6.77050500 -1.1283765799999976 0 0 0
Ag 3.19164500 2.25683500 -1.1283765799999976 0 0 0
Ag 6.37760887 4.49426122 1.16424905
Ag 6.37760887 0.01940878 1.16424905
Ag 2.90809926 2.25683500 3.60839569
Ag 3.32818357 6.77050500 3.41430957
Pd 0.00000000 2.25683500 -1.1283765799999976 0 0 0
Pd 0.00000000 6.77050500 -1.1283765799999976 0 0 0
Pd 3.19164500 4.51367000 -3.385129729999999 0 0 0
Pd 3.19164500 0.00000000 -3.385129729999999 0 0 0
Pd 6.28511500 6.77050500 3.26118231
Pd 0.30231261 2.25683500 3.17765835
Pd 3.14625981 9.02327770 1.20386938
Pd 3.14625981 4.51773230 1.20386938
C 4.92981487 2.25683500 3.82148887
