&CONTROL
calculation = 'relax'
prefix = 'scf'
pseudo_dir = '/vol0004/mdt0/data/hp150275/u10028/POT_KKJUS'
outdir = './data'
tprnfor = .true.
nstep = 50
disk_io = 'non'
/
&SYSTEM
ibrav = 0
ecutwfc = 50.0
ecutrho = 400
occupations = 'smearing'
smearing = 'mp'
degauss = 0.01
assume_isolated = 'esm'
esm_bc = 'bc1'
input_dft = 'BEEF-VDW'
nosym = .true.
nspin = 1
ntyp = 5
nat = 34
/
&ELECTRONS
electron_maxstep = 200
mixing_beta = 0.1
conv_thr = 1e-06
/
&IONS
ion_dynamics = 'bfgs'
upscale = 1.0
/
&CELL
/

K_POINTS {automatic}
8 6 1 0 0 0

ATOMIC_SPECIES
C 12.01 C.pbe-n-rrkjus_psl.1.0.0.UPF
Li 6.941 Li.pbe-sl-rrkjus_psl.1.0.0.UPF
O 15.99 O.pbe-n-rrkjus_psl.1.0.0.UPF
Pt 195.0 Pt.pbe-n-rrkjus_psl.1.0.0.UPF
Sb 121.7 Sb.pbe-n-rrkjus_psl.1.0.0.UPF

CELL_PARAMETERS {angstrom}
6.40528000 0.00000000 0.00000000
0.00000000 9.05843000 0.00000000
0.00000000 0.00000000 26.79380000

ATOMIC_POSITIONS {angstrom}
Li 0.00000000 6.79382250 -1.1323059900000025 0 0 0
Li 3.20264000 0.00000000 -3.3969179599999997 0 0 0
Li 0.00000000 2.26460750 -1.1323059900000025 0 0 0
Li 3.20264000 4.52921500 -3.3969179599999997 0 0 0
Li 1.60132000 2.26460750 -3.3969179599999997 0 0 0
Li 1.60132000 6.79382250 -3.3969179599999997 0 0 0
Li 4.80396000 4.52921500 -1.1323059900000025 0 0 0
Li 4.80396000 0.00000000 -1.1323059900000025 0 0 0
Li 0.14033968 2.38599046 3.41004693
Li 3.28750996 4.52921500 0.94930433
Li 0.14053184 6.67234895 3.41031486
Li 3.13704993 0.00009058 1.27672457
Li 1.66383553 6.77262577 1.18026689
Li 1.66383553 2.28598539 1.18026689
Li 4.89132802 0.00009058 3.51481068
Li 4.55991883 4.52930558 3.27420236
Sb 0.00000000 0.00000000 -3.3969179599999997 0 0 0
Sb 3.20264000 2.26460750 -1.1323059900000025 0 0 0
Sb 3.20264000 6.79382250 -1.1323059900000025 0 0 0
Sb 0.00000000 4.52921500 -3.3969179599999997 0 0 0
Sb 6.35826524 4.52921500 1.12694723
Sb 3.16074947 6.85107178 3.51775800
Sb 3.16068542 2.20744881 3.51775800
Sb 6.40118062 0.00009058 1.12962661
Pt 1.60132000 0.00000000 -1.1323059900000025 0 0 0
Pt 1.60132000 4.52921500 -1.1323059900000025 0 0 0
Pt 4.80396000 6.79382250 -3.3969179599999997 0 0 0
Pt 4.80396000 2.26460750 -3.3969179599999997 0 0 0
Pt 1.82153353 4.52921500 2.99742241
Pt 1.32032037 0.00000000 3.54615943
Pt 4.77218981 2.23806630 1.24859108
Pt 4.77225386 6.82045428 1.24859108
C 0.69843173 9.05833942 5.33250208
O 0.39936921 9.05815825 6.45623405
