&CONTROL
calculation = 'relax'
prefix = 'scf'
pseudo_dir = '/vol0403/data/hp230205/u10028/POT_HYBRID_KKJUS_GBRV'
outdir = './data'
tprnfor = .true.
nstep = 50
disk_io = 'non'
/
&SYSTEM
ibrav = 0
ecutwfc = 50.0
ecutrho = 400
occupations = 'smearing'
smearing = 'mp'
degauss = 0.01
assume_isolated = 'esm'
esm_bc = 'bc1'
input_dft = 'BEEF-VDW'
nosym = .true.
nspin = 1
ntyp = 5
nat = 33
/
&ELECTRONS
electron_maxstep = 200
mixing_beta = 0.1
conv_thr = 1e-06
/
&IONS
ion_dynamics = 'bfgs'
upscale = 1.0
/
&CELL
/

K_POINTS {automatic}
9 6 2 0  0  0

ATOMIC_SPECIES
C 12.01 C.pbe-n-rrkjus_psl.1.0.0.UPF
Ge 72.64 Ge.pbe-dn-rrkjus_psl.1.0.0.UPF
Li 6.941 Li.pbe-sl-rrkjus_psl.1.0.0.UPF
Pd 106.4 Pd.pbe-n-rrkjus_psl.1.0.0.UPF
Y 88.90 Y.pbe-spn-rrkjus_psl.1.0.0.UPF


CELL_PARAMETERS {angstrom}
6.55453000 0.00000000 0.00000000
0.00000000 9.26950000 0.00000000
0.00000000 0.00000000 26.95210000

ATOMIC_POSITIONS {angstrom}
Li 4.91589750 0.00000000 -1.1586707800000013 0 0 0
Li 4.91589750 4.63475000 -1.1586707800000013 0 0 0
Li 1.63863250 2.31737500 -3.4760123400000005 0 0 0
Li 1.63863250 6.95212500 -3.4760123400000005 0 0 0
Li 3.32478534 4.63475000 4.87159207
Li 3.85812745 0.00000000 4.58212652
Li 1.50177391 7.01246945 1.34032793
Li 1.50170837 2.25703056 1.34032793
Y 0.00000000 2.31737500 -1.1586707800000013 0 0 0
Y 0.00000000 6.95212500 -1.1586707800000013 0 0 0
Y 3.27726500 4.63475000 -3.4760123400000005 0 0 0
Y 3.27726500 0.00000000 -3.4760123400000005 0 0 0
Y 5.99437987 7.02016313 3.57007517
Y 5.99437987 2.24942957 3.57007517
Y 3.54370664 0.00000000 1.64812092
Y 3.23695464 4.63475000 1.36404578
Ge 0.00000000 0.00000000 -3.4760123400000005 0 0 0
Ge 0.00000000 4.63475000 -3.4760123400000005 0 0 0
Ge 3.27726500 6.95212500 -1.1586707800000013 0 0 0
Ge 3.27726500 2.31737500 -1.1586707800000013 0 0 0
Ge 6.46892784 4.63475000 1.07997065
Ge 6.46689593 0.00000000 1.18508384
Ge 2.85711963 2.36233208 3.58813307
Ge 2.85718517 6.90716793 3.58813307
Pd 1.63863250 0.00000000 -1.1586707800000013 0 0 0
Pd 1.63863250 4.63475000 -1.1586707800000013 0 0 0
Pd 4.91589750 2.31737500 -3.4760123400000005 0 0 0
Pd 4.91589750 6.95212500 -3.4760123400000005 0 0 0
Pd 1.27918207 4.63475000 3.27171542
Pd 1.36819259 0.00009270 3.40216358
Pd 4.87119561 6.85034589 0.96973656
Pd 4.87119561 2.41915411 0.96973656
C 5.56984296 0.00000000 3.20622182
