&CONTROL
calculation = 'relax'
prefix = 'scf'
pseudo_dir = '/vol0004/mdt0/data/hp150275/u10028/POT_HYBRID_KKJUS_GBRV'
outdir = './data'
tprnfor = .true.
nstep = 50
disk_io = 'non'
/
&SYSTEM
ibrav = 0
ecutwfc = 50.0
ecutrho = 400
occupations = 'smearing'
smearing = 'mp'
degauss = 0.01
assume_isolated = 'esm'
esm_bc = 'bc1'
input_dft = 'BEEF-VDW'
nosym = .true.
nspin = 2
ntyp = 4
nat = 33
starting_magnetization(1) = 0.0
starting_magnetization(2) = 0.1
starting_magnetization(3) = 0.0
starting_magnetization(4) = 0.0
/
&ELECTRONS
electron_maxstep = 200
mixing_beta = 0.1
conv_thr = 1e-06
/
&IONS
ion_dynamics = 'bfgs'
upscale = 1.0
/
&CELL
/

K_POINTS {automatic}
9 6 2 0  0  0

ATOMIC_SPECIES
C 12.01 C.pbe-n-rrkjus_psl.1.0.0.UPF
Fe 55.84 fe_pbe_v1.5.uspp.F.UPF
Ga 69.72 Ga.pbe-dnl-rrkjus_psl.1.0.0.UPF
Ti 47.86 Ti.pbe-spn-rrkjus_psl.1.0.0.UPF

CELL_PARAMETERS {angstrom}
5.88011000 0.00000000 0.00000000
0.00000000 8.31574000 0.00000000
0.00000000 0.00000000 26.23680000

ATOMIC_POSITIONS {angstrom}
Ti 0.00000000 0.00000000 23.11829395
Ti 2.94005500 2.07893500 25.19729798
Ti 2.94005500 6.23680500 25.19729798
Ti 0.00000000 4.15787000 23.11829395
Ti 0.00000000 4.15778684 0.97286054
Ti 2.94011380 6.21543355 3.07626480
Ti 2.94011380 2.10030645 3.07626480
Ti 5.88005120 0.00008316 0.93770323
Ga 0.00000000 6.23680500 25.19729798
Ga 2.94005500 0.00000000 23.11829395
Ga 0.00000000 2.07893500 25.19729798
Ga 2.94005500 4.15787000 23.11829395
Ga 0.00017640 2.10097171 3.26779344
Ga 2.93993740 4.15828579 1.01693837
Ga 0.00017640 6.21476829 3.26726870
Ga 2.93999620 8.31532421 1.02192336
Fe 1.47002750 0.00000000 25.19729798
Fe 4.41008250 4.15787000 25.19729798
Fe 4.41008250 0.00000000 25.19729798
Fe 1.47002750 4.15787000 25.19729798
Fe 4.41008250 6.23680500 23.11829395
Fe 1.47002750 2.07893500 23.11829395
Fe 1.47002750 6.23680500 23.11829395
Fe 4.41008250 2.07893500 23.11829395
Fe 1.37900340 4.15795316 3.03218698
Fe 4.61294630 8.31565684 3.07206691
Fe 4.50128301 4.15795316 3.03218698
Fe 1.26734011 8.31565684 3.07180454
Fe 4.40526081 2.07569186 1.08410458
Fe 1.47473159 6.24004814 1.08410458
Fe 1.47484919 2.07569186 1.08410458
Fe 4.40531961 6.24004814 1.08410458
C 2.93993740 0.00000000 3.70699747
