&CONTROL
calculation = 'relax'
prefix = 'scf'
pseudo_dir = '/vol0004/mdt0/data/hp150275/u10028/POT_HYBRID_KKJUS_GBRV'
outdir = './data'
tprnfor = .true.
nstep = 50
disk_io = 'non'
/
&SYSTEM
ibrav = 0
ecutwfc = 50.0
ecutrho = 400
occupations = 'smearing'
smearing = 'mp'
degauss = 0.01
assume_isolated = 'esm'
esm_bc = 'bc1'
input_dft = 'BEEF-VDW'
nosym = .true.
nspin = 2
ntyp = 5
nat = 34
starting_magnetization(1) = 0.0
starting_magnetization(2) = 0.001
starting_magnetization(3) = 0.0
starting_magnetization(4) = 0.0
starting_magnetization(5) = 0.0
/
&ELECTRONS
electron_maxstep = 200
mixing_beta = 0.1
conv_thr = 1e-06
/
&IONS
ion_dynamics = 'bfgs'
upscale = 1.0
/
&CELL
/

K_POINTS {automatic}
9 6 2 0  0  0

ATOMIC_SPECIES
C 12.01 C.pbe-n-rrkjus_psl.1.0.0.UPF
Ni 58.69 ni_pbe_v1.4.uspp.F.UPF
O 15.99 O.pbe-n-rrkjus_psl.1.0.0.UPF
Sb 121.7 Sb.pbe-n-rrkjus_psl.1.0.0.UPF
Ti 47.86 Ti.pbe-spn-rrkjus_psl.1.0.0.UPF

CELL_PARAMETERS {angstrom}
6.14873000 0.00000000 0.00000000
0.00000000 8.69561000 0.00000000
0.00000000 0.00000000 26.52170000

ATOMIC_POSITIONS {angstrom}
Ti 0.00000000 0.00000000 23.26085699
Ti 3.07436500 2.17390250 25.43484073
Ti 3.07436500 6.52170750 25.43484073
Ti 0.00000000 4.34780500 23.26085699
Ti 0.00000000 4.36032668 1.13062007
Ti 3.07436500 6.52170750 3.18764312
Ti 3.07436500 2.17390250 3.21787786
Ti 0.00000000 8.68300137 1.13062007
Ni 1.53718250 0.00000000 25.43484073
Ni 4.61154750 4.34780500 25.43484073
Ni 4.61154750 0.00000000 25.43484073
Ni 1.53718250 4.34780500 25.43484073
Ni 4.61154750 6.52170750 23.26085699
Ni 1.53718250 2.17390250 23.26085699
Ni 1.53718250 6.52170750 23.26085699
Ni 4.61154750 2.17390250 23.26085699
Ni 1.65450027 4.35902234 3.08473893
Ni 4.49422973 8.68439266 3.08473893
Ni 4.49422973 4.35902234 3.08473893
Ni 1.65450027 8.68439266 3.08473893
Ni 4.76870904 2.17381554 1.16218089
Ni 1.46167610 6.52179446 1.19931127
Ni 1.38002096 2.17381554 1.16218089
Ni 4.68705390 6.52170750 1.19931127
Sb 0.00000000 6.52170750 25.43484073
Sb 3.07436500 0.00000000 23.26085699
Sb 0.00000000 2.17390250 25.43484073
Sb 3.07436500 4.34780500 23.26085699
Sb 0.00000000 2.17390250 3.52181654
Sb 3.07436500 4.31797906 1.00145939
Sb 0.00000000 6.52170750 3.53560783
Sb 3.07436500 0.02982594 1.00145939
C 3.07436500 2.17390250 5.32529214
O 3.07436500 2.17390250 6.47766001
