&CONTROL
calculation = 'relax'
prefix = 'scf'
pseudo_dir = '/vol0004/mdt0/data/hp150275/u10028/POT_HYBRID_KKJUS_GBRV'
outdir = './data'
tprnfor = .true.
nstep = 50
disk_io = 'non'
/
&SYSTEM
ibrav = 0
ecutwfc = 50.0
ecutrho = 400
occupations = 'smearing'
smearing = 'mp'
degauss = 0.01
assume_isolated = 'esm'
esm_bc = 'bc1'
input_dft = 'BEEF-VDW'
nosym = .true.
nspin = 2
ntyp = 4
nat = 34
starting_magnetization(1) = 0.0
starting_magnetization(2) = 0.1
starting_magnetization(3) = 0.0
starting_magnetization(4) = 0.0
/
&ELECTRONS
electron_maxstep = 300
mixing_beta = 0.1
conv_thr = 1e-06
/
&IONS
ion_dynamics = 'bfgs'
upscale = 1.0
/
&CELL
/

K_POINTS {automatic}
9 6 2 0  0  0

ATOMIC_SPECIES
C 12.01 C.pbe-n-rrkjus_psl.1.0.0.UPF
Mn 54.93 mn_pbe_v1.5.uspp.F.UPF
O 15.99 O.pbe-n-rrkjus_psl.1.0.0.UPF
V 50.94 V.pbe-spnl-rrkjus_psl.1.0.0.UPF

CELL_PARAMETERS {angstrom}
5.76229000 0.00000000 0.00000000
0.00000000 8.14911000 0.00000000
0.00000000 0.00000000 26.11180000

ATOMIC_POSITIONS {angstrom}
Mn 0.00000000 0.00000000 -3.055863949999999 0 0 0
Mn 0.00000000 2.03727750 -1.0186213199999976 0 0 0
Mn 5.75456853 0.00000000 1.03011051
Mn 0.00639614 2.05496107 3.01982967
Mn 0.00000000 4.07455500 -3.055863949999999 0 0 0
Mn 0.00000000 6.11183250 -1.0186213199999976 0 0 0
Mn 5.76148328 4.07455500 1.06248914
Mn 0.00639614 6.09414893 3.01982967
Mn 2.88114500 0.00000000 -3.055863949999999 0 0 0
Mn 2.88114500 2.03727750 -1.0186213199999976 0 0 0
Mn 2.88886647 0.00000000 1.03011051
Mn 2.87474886 2.05496107 3.01982967
Mn 2.88114500 4.07455500 -3.055863949999999 0 0 0
Mn 2.88114500 6.11183250 -1.0186213199999976 0 0 0
Mn 2.88195172 4.07455500 1.06248914
Mn 2.87474886 6.09414893 3.01982967
V 1.44057250 2.03727750 -3.055863949999999 0 0 0
V 1.44057250 0.00000000 -1.0186213199999976 0 0 0
V 1.44057250 2.04477468 1.04316641
V 1.44057250 4.07455500 3.20887910
V 1.44057250 6.11183250 -3.055863949999999 0 0 0
V 1.44057250 4.07455500 -1.0186213199999976 0 0 0
V 1.44057250 6.10433532 1.04316641
V 1.44057250 0.00000000 3.14359960
V 4.32171750 2.03727750 -3.055863949999999 0 0 0
V 4.32171750 0.00000000 -1.0186213199999976 0 0 0
V 4.32171750 2.04950117 1.04943324
V 4.32171750 4.07455500 3.21723488
V 4.32171750 6.11183250 -3.055863949999999 0 0 0
V 4.32171750 4.07455500 -1.0186213199999976 0 0 0
V 4.32171750 6.09960884 1.04943324
V 4.32171750 0.00000000 3.13707165
C 1.44057250 0.00000000 5.13279653
O 1.44057250 0.00000000 6.28824368
