&CONTROL
calculation = 'relax'
prefix = 'scf'
pseudo_dir = '/vol0004/mdt0/data/hp150275/u10028/POT_KKJUS'
outdir = './data'
tprnfor = .true.
nstep = 50
disk_io = 'non'
/
&SYSTEM
ibrav = 0
ecutwfc = 50.0
ecutrho = 400
occupations = 'smearing'
smearing = 'mp'
degauss = 0.01
assume_isolated = 'esm'
esm_bc = 'bc1'
input_dft = 'BEEF-VDW'
nosym = .true.
nspin = 1
ntyp = 5
nat = 34
/
&ELECTRONS
electron_maxstep = 200
mixing_beta = 0.1
conv_thr = 1e-06
/
&IONS
ion_dynamics = 'bfgs'
upscale = 1.0
/
&CELL
/

K_POINTS {automatic}
8 6 1 0 0 0

ATOMIC_SPECIES
C 12.01 C.pbe-n-rrkjus_psl.1.0.0.UPF
Ni 58.69 Ni.pbe-spn-rrkjus_psl.1.0.0.UPF
O 15.99 O.pbe-n-rrkjus_psl.1.0.0.UPF
Rh 102.9 Rh.pbe-spn-rrkjus_psl.1.0.0.UPF
Sn 118.7 Sn.pbe-dn-rrkjus_psl.1.0.0.UPF

CELL_PARAMETERS {angstrom}
6.23499000 0.00000000 0.00000000
0.00000000 8.81761000 0.00000000
0.00000000 0.00000000 26.61320000

ATOMIC_POSITIONS {angstrom}
Ni 0.00000000 0.00000000 -3.306690100000001 0 0 0
Ni 3.11749500 2.20440250 -1.1023187399999976 0 0 0
Ni 3.11749500 6.61320750 -1.1023187399999976 0 0 0
Ni 0.00000000 4.40880500 -3.306690100000001 0 0 0
Ni 0.00000000 4.39822387 1.14356920
Ni 3.11749500 6.61329568 3.27315747
Ni 3.11749500 2.20431432 3.27794784
Ni 0.00000000 0.01040478 1.14410147
Sn 0.00000000 6.61320750 -1.1023187399999976 0 0 0
Sn 3.11749500 0.00000000 -3.306690100000001 0 0 0
Sn 0.00000000 2.20440250 -1.1023187399999976 0 0 0
Sn 3.11749500 4.40880500 -3.306690100000001 0 0 0
Sn 0.00000000 2.20431432 3.44055450
Sn 3.11749500 4.42379494 1.02993084
Sn 0.00000000 6.61347203 3.47461939
Sn 3.11749500 8.80279642 1.02966471
Rh 1.55874750 0.00000000 -1.1023187399999976 0 0 0
Rh 4.67624250 4.40880500 -1.1023187399999976 0 0 0
Rh 4.67624250 0.00000000 -1.1023187399999976 0 0 0
Rh 1.55874750 4.40880500 -1.1023187399999976 0 0 0
Rh 4.67624250 6.61320750 -3.306690100000001 0 0 0
Rh 1.55874750 2.20440250 -3.306690100000001 0 0 0
Rh 1.55874750 6.61320750 -3.306690100000001 0 0 0
Rh 4.67624250 2.20440250 -3.306690100000001 0 0 0
Rh 1.62390315 4.40959858 3.19571306
Rh 4.61102450 8.81681642 3.19544692
Rh 4.61108685 4.40959858 3.19571306
Rh 1.62396550 8.81681642 3.19544692
Rh 4.69382517 2.20431432 1.11136723
Rh 1.50456544 6.61338385 1.12999647
Rh 1.54116483 2.20431432 1.11136723
Rh 4.73042456 6.61338385 1.12999647
C 6.23474060 2.20625420 7.31197670
O 0.00006235 2.20413797 8.44676355
