&CONTROL
calculation = 'relax'
prefix = 'scf'
pseudo_dir = '/vol0403/data/hp230205/u10028/POT_HYBRID_KKJUS_GBRV'
outdir = './data'
tprnfor = .true.
nstep = 50
disk_io = 'non'
/
&SYSTEM
ibrav = 0
ecutwfc = 50.0
ecutrho = 400
occupations = 'smearing'
smearing = 'mp'
degauss = 0.01
assume_isolated = 'esm'
esm_bc = 'bc1'
input_dft = 'BEEF-VDW'
nosym = .true.
nspin = 1
ntyp = 5
nat = 33
/
&ELECTRONS
electron_maxstep = 200
mixing_beta = 0.1
conv_thr = 1e-06
/
&IONS
ion_dynamics = 'bfgs'
upscale = 1.0
/
&CELL
/

K_POINTS {automatic}
6 6 1 0 0 0

ATOMIC_SPECIES
C 12.01 C.pbe-n-rrkjus_psl.1.0.0.UPF
In 114.8 In.pbe-dn-rrkjus_psl.1.0.0.UPF
Li 6.941 Li.pbe-sl-rrkjus_psl.1.0.0.UPF
Pd 106.4 Pd.pbe-n-rrkjus_psl.1.0.0.UPF
Ru 101.0 Ru.pbe-spn-rrkjus_psl.1.0.0.UPF


CELL_PARAMETERS {angstrom}
6.32045000 0.00000000 0.00000000
0.00000000 8.93846000 0.00000000
0.00000000 0.00000000 26.70380000

ATOMIC_POSITIONS {angstrom}
Li 0.00000000 2.23461500 -1.1172869900000002 0 0 0
Li 0.00000000 6.70384500 -1.1172869900000002 0 0 0
Li 3.16022500 4.46923000 -3.3518609800000014 0 0 0
Li 3.16022500 0.00000000 -3.3518609800000014 0 0 0
Li 6.31659453 6.79367652 3.58498515
Li 6.31665773 2.14487286 3.58498515
Li 3.18386348 0.00000000 1.06014086
Li 3.14069481 4.46923000 1.16562087
In 0.00000000 0.00000000 -3.3518609800000014 0 0 0
In 0.00000000 4.46923000 -3.3518609800000014 0 0 0
In 3.16022500 6.70384500 -1.1172869900000002 0 0 0
In 3.16022500 2.23461500 -1.1172869900000002 0 0 0
In 0.00467713 4.46923000 1.02489184
In 6.27943028 0.00000000 1.06895311
In 3.14309658 2.43841189 3.50941340
In 3.14322299 6.50013750 3.50941340
Pd 4.74033750 0.00000000 -1.1172869900000002 0 0 0
Pd 4.74033750 4.46923000 -1.1172869900000002 0 0 0
Pd 1.58011250 2.23461500 -3.3518609800000014 0 0 0
Pd 1.58011250 6.70384500 -3.3518609800000014 0 0 0
Pd 4.95327346 4.46923000 3.32462310
Pd 4.68553920 0.00000000 3.34037834
Pd 1.60564712 6.74067146 1.19419394
Pd 1.60564712 2.19778854 1.19419394
Ru 1.58011250 0.00000000 -1.1172869900000002 0 0 0
Ru 1.58011250 4.46923000 -1.1172869900000002 0 0 0
Ru 4.74033750 2.23461500 -3.3518609800000014 0 0 0
Ru 4.74033750 6.70384500 -3.3518609800000014 0 0 0
Ru 1.40832267 4.46923000 3.27281773
Ru 1.71960483 0.00000000 3.32942978
Ru 4.73161528 6.70652654 1.21822736
Ru 4.73155207 2.23193346 1.21822736
C 2.99778944 0.00000000 4.49798807
