&CONTROL
calculation = 'relax'
prefix = 'scf'
pseudo_dir = '/vol0004/mdt0/data/hp150275/u10028/POT_HYBRID_KKJUS_GBRV'
outdir = './data'
tprnfor = .true.
nstep = 50
disk_io = 'non'
/
&SYSTEM
ibrav = 0
ecutwfc = 50.0
ecutrho = 400
occupations = 'smearing'
smearing = 'mp'
degauss = 0.01
assume_isolated = 'esm'
esm_bc = 'bc1'
input_dft = 'BEEF-VDW'
nosym = .true.
nspin = 2
ntyp = 5
nat = 34
starting_magnetization(1) = 0.0
starting_magnetization(2) = 0.1
starting_magnetization(3) = 0.1
starting_magnetization(4) = 0.0
starting_magnetization(5) = 0.0
/
&ELECTRONS
electron_maxstep = 200
mixing_beta = 0.1
conv_thr = 1e-06
/
&IONS
ion_dynamics = 'bfgs'
upscale = 1.0
/
&CELL
/

K_POINTS {automatic}
9 6 2 0  0  0

ATOMIC_SPECIES
C 12.01 C.pbe-n-rrkjus_psl.1.0.0.UPF
Co 58.93 co_pbe_v1.2.uspp.F.UPF
Cr 51.99 cr_pbe_v1.5.uspp.F.UPF
In 114.8 In.pbe-dn-rrkjus_psl.1.0.0.UPF
O 15.99 O.pbe-n-rrkjus_psl.1.0.0.UPF

CELL_PARAMETERS {angstrom}
6.00915000 0.00000000 0.00000000
0.00000000 8.49821000 0.00000000
0.00000000 0.00000000 26.37370000

ATOMIC_POSITIONS {angstrom}
Cr 0.00000000 0.00000000 23.18696583
Cr 3.00457500 2.12455250 25.31136736
Cr 3.00457500 6.37365750 25.31136736
Cr 0.00000000 4.24910500 23.18696583
Cr 0.00000000 4.26083253 1.13538778
Cr 3.00457500 6.37365750 3.07596463
Cr 3.00457500 2.12455250 3.07649211
Cr 0.00000000 8.48648247 1.13538778
In 0.00000000 6.37365750 25.31136736
In 3.00457500 0.00000000 23.18696583
In 0.00000000 2.12455250 25.31136736
In 3.00457500 4.24910500 23.18696583
In 0.00000000 2.12446752 3.42515242
In 3.00457500 4.25105959 1.04677215
In 0.00000000 6.37374248 3.41855899
In 3.00457500 8.49625541 1.04677215
Co 1.50228750 0.00000000 25.31136736
Co 4.50686250 4.24910500 25.31136736
Co 4.50686250 0.00000000 25.31136736
Co 1.50228750 4.24910500 25.31136736
Co 4.50686250 6.37365750 23.18696583
Co 1.50228750 2.12455250 23.18696583
Co 1.50228750 6.37365750 23.18696583
Co 4.50686250 2.12455250 23.18696583
Co 1.57373629 4.17576545 3.16220663
Co 4.43541371 0.07333955 3.16220663
Co 4.43541371 4.17576545 3.16220663
Co 1.57373629 0.07333955 3.16220663
Co 4.51112900 2.12438254 1.06839859
Co 1.48498115 6.37382746 1.05283810
Co 1.49802100 2.12438254 1.06866232
Co 4.52416885 6.37382746 1.05257437
C 3.00457500 2.12455250 5.02366238
O 3.00457500 2.12455250 6.18094033
