&CONTROL
calculation = 'relax'
prefix = 'scf'
pseudo_dir = '/vol0004/mdt0/data/hp150275/u10028/POT_KKJUS'
outdir = './data'
tprnfor = .true.
nstep = 50
disk_io = 'non'
/
&SYSTEM
ibrav = 0
ecutwfc = 50.0
ecutrho = 400
occupations = 'smearing'
smearing = 'mp'
degauss = 0.01
assume_isolated = 'esm'
esm_bc = 'bc1'
input_dft = 'BEEF-VDW'
nosym = .true.
nspin = 1
ntyp = 5
nat = 34
/
&ELECTRONS
electron_maxstep = 200
mixing_beta = 0.1
conv_thr = 1e-06
/
&IONS
ion_dynamics = 'bfgs'
upscale = 1.0
/
&CELL
/

K_POINTS {automatic}
9 6 2 0  0  0

ATOMIC_SPECIES
C 12.01 C.pbe-n-rrkjus_psl.1.0.0.UPF
Ga 69.72 Ga.pbe-dnl-rrkjus_psl.1.0.0.UPF
Ir 192.2 Ir.pbe-n-rrkjus_psl.0.2.3.UPF
Li 6.941 Li.pbe-sl-rrkjus_psl.1.0.0.UPF
O 15.99 O.pbe-n-rrkjus_psl.1.0.0.UPF

CELL_PARAMETERS {angstrom}
6.11439000 0.00000000 0.00000000
0.00000000 8.64705000 0.00000000
0.00000000 0.00000000 26.48530000

ATOMIC_POSITIONS {angstrom}
Li 0.00000000 0.00000000 -3.2425952799999997 0 0 0
Li 3.05719500 2.16176250 -1.0808650899999996 0 0 0
Li 3.05719500 6.48528750 -1.0808650899999996 0 0 0
Li 0.00000000 4.32352500 -3.2425952799999997 0 0 0
Li 0.03362915 4.32361147 1.09728598
Li 3.04900172 6.48969750 3.48228724
Li 3.04912401 2.15717956 3.48228724
Li 6.11157738 0.00008647 0.98869625
Ga 1.52859750 0.00000000 -1.0808650899999996 0 0 0
Ga 4.58579250 4.32352500 -1.0808650899999996 0 0 0
Ga 4.58579250 0.00000000 -1.0808650899999996 0 0 0
Ga 1.52859750 4.32352500 -1.0808650899999996 0 0 0
Ga 4.58579250 6.48528750 -3.2425952799999997 0 0 0
Ga 1.52859750 2.16176250 -3.2425952799999997 0 0 0
Ga 1.52859750 6.48528750 -3.2425952799999997 0 0 0
Ga 4.58579250 2.16176250 -3.2425952799999997 0 0 0
Ga 1.37610461 4.32352500 3.56041888
Ga 4.70135447 0.00000000 3.26881573
Ga 4.63091670 4.32352500 3.32761309
Ga 1.39016771 0.00000000 3.25160028
Ga 4.55815546 2.17144720 1.09596171
Ga 1.56424439 6.47110634 1.10046421
Ga 1.56424439 2.17603013 1.10046421
Ga 4.55809431 6.47568927 1.09596171
Ir 0.00000000 6.48528750 -1.0808650899999996 0 0 0
Ir 3.05719500 0.00000000 -3.2425952799999997 0 0 0
Ir 0.00000000 2.16176250 -1.0808650899999996 0 0 0
Ir 3.05719500 4.32352500 -3.2425952799999997 0 0 0
Ir 6.11212768 2.17499249 3.09480730
Ir 3.05811216 4.32352500 0.98128036
Ir 6.11224996 6.47188457 3.09507216
Ir 3.05236463 0.00008647 1.06153082
C 2.61402401 8.64696353 6.71640723
O 1.92847861 0.00025941 7.62246934
