&CONTROL
calculation = 'relax'
prefix = 'scf'
pseudo_dir = '/vol0004/mdt0/data/hp150275/u10028/POT_KKJUS'
outdir = './data'
tprnfor = .true.
nstep = 50
disk_io = 'non'
/
&SYSTEM
ibrav = 0
ecutwfc = 50.0
ecutrho = 400
occupations = 'smearing'
smearing = 'mp'
degauss = 0.01
assume_isolated = 'esm'
esm_bc = 'bc1'
input_dft = 'BEEF-VDW'
nosym = .true.
nspin = 1
ntyp = 5
nat = 34
/
&ELECTRONS
electron_maxstep = 200
mixing_beta = 0.1
conv_thr = 1e-06
/
&IONS
ion_dynamics = 'bfgs'
upscale = 1.0
/
&CELL
/

K_POINTS {automatic}
8 6 1 0 0 0

ATOMIC_SPECIES
Al 26.98 Al.pbe-nl-rrkjus_psl.1.0.0.UPF
Au 196.9 Au.pbe-n-rrkjus_psl.1.0.0.UPF
C 12.01 C.pbe-n-rrkjus_psl.1.0.0.UPF
O 15.99 O.pbe-n-rrkjus_psl.1.0.0.UPF
Sc 44.95 Sc.pbe-spn-rrkjus_psl.1.0.0.UPF

CELL_PARAMETERS {angstrom}
6.63475000 0.00000000 0.00000000
0.00000000 9.38295000 0.00000000
0.00000000 0.00000000 27.03720000

ATOMIC_POSITIONS {angstrom}
Sc 0.00000000 0.00000000 -3.518621209999999 0 0 0
Sc 3.31737500 2.34573750 -1.17287374 0 0 0
Sc 3.31737500 7.03721250 -1.17287374 0 0 0
Sc 0.00000000 4.69147500 -3.518621209999999 0 0 0
Sc 0.00000000 4.71671514 1.17638857
Sc 3.31737500 7.03721250 3.60027355
Sc 3.31737500 2.34573750 3.55755478
Sc 0.00000000 9.35770986 1.17638857
Al 0.00000000 7.03721250 -1.17287374 0 0 0
Al 3.31737500 0.00000000 -3.518621209999999 0 0 0
Al 0.00000000 2.34573750 -1.17287374 0 0 0
Al 3.31737500 4.69147500 -3.518621209999999 0 0 0
Al 0.00000000 2.34573750 3.40560571
Al 3.31737500 4.67355357 1.22343330
Al 0.00000000 7.03721250 3.37640554
Al 3.31737500 0.01792143 1.22343330
Au 1.65868750 0.00000000 -1.17287374 0 0 0
Au 4.97606250 4.69147500 -1.17287374 0 0 0
Au 4.97606250 0.00000000 -1.17287374 0 0 0
Au 1.65868750 4.69147500 -1.17287374 0 0 0
Au 4.97606250 7.03721250 -3.518621209999999 0 0 0
Au 1.65868750 2.34573750 -3.518621209999999 0 0 0
Au 1.65868750 7.03721250 -3.518621209999999 0 0 0
Au 4.97606250 2.34573750 -3.518621209999999 0 0 0
Au 1.60919227 4.70310986 3.52781386
Au 5.02555774 9.37131514 3.52781386
Au 5.02562408 4.70310986 3.52781386
Au 1.60919227 9.37131514 3.52781386
Au 4.95284088 2.34573750 1.16043662
Au 1.75057879 7.03721250 1.18882568
Au 1.68197547 2.34573750 1.16043662
Au 4.88410487 7.03721250 1.18882568
C 3.31730865 2.34573750 5.87356133
O 3.31730865 2.34573750 7.01831638
