&CONTROL
calculation = 'relax'
prefix = 'scf'
pseudo_dir = '/vol0004/mdt0/data/hp150275/u10028/POT_KKJUS'
outdir = './data'
tprnfor = .true.
nstep = 50
disk_io = 'non'
/
&SYSTEM
ibrav = 0
ecutwfc = 50.0
ecutrho = 400
occupations = 'smearing'
smearing = 'mp'
degauss = 0.01
assume_isolated = 'esm'
esm_bc = 'bc1'
input_dft = 'BEEF-VDW'
nosym = .true.
nspin = 1
ntyp = 5
nat = 34
/
&ELECTRONS
electron_maxstep = 200
mixing_beta = 0.1
conv_thr = 1e-06
/
&IONS
ion_dynamics = 'bfgs'
upscale = 1.0
/
&CELL
/

K_POINTS {automatic}
9 6 2 0  0  0

ATOMIC_SPECIES
C 12.01 C.pbe-n-rrkjus_psl.1.0.0.UPF
Li 6.941 Li.pbe-sl-rrkjus_psl.1.0.0.UPF
O 15.99 O.pbe-n-rrkjus_psl.1.0.0.UPF
Pd 106.4 Pd.pbe-n-rrkjus_psl.1.0.0.UPF
Sn 118.7 Sn.pbe-dn-rrkjus_psl.1.0.0.UPF

CELL_PARAMETERS {angstrom}
6.41477000 0.00000000 0.00000000
0.00000000 9.07185000 0.00000000
0.00000000 0.00000000 26.80390000

ATOMIC_POSITIONS {angstrom}
Li 0.00000000 0.00000000 -3.4019509899999996 0 0 0
Li 3.20738500 2.26796250 -1.134073009999998 0 0 0
Li 3.20738500 6.80388750 -1.134073009999998 0 0 0
Li 0.00000000 4.53592500 -3.4019509899999996 0 0 0
Li 6.39931040 4.53592500 1.05634170
Li 3.20026461 6.77694411 3.46520819
Li 3.20026461 2.29490589 3.46520819
Li 0.01815380 0.00000000 1.11343401
Sn 0.00000000 6.80388750 -1.134073009999998 0 0 0
Sn 3.20738500 0.00000000 -3.4019509899999996 0 0 0
Sn 0.00000000 2.26796250 -1.134073009999998 0 0 0
Sn 3.20738500 4.53592500 -3.4019509899999996 0 0 0
Sn 6.38295274 2.27676219 3.50353777
Sn 3.18717847 4.53592500 1.13326889
Sn 6.38295274 6.79508781 3.50353777
Sn 3.19109148 0.00000000 1.11745459
Pd 1.60369250 0.00000000 -1.134073009999998 0 0 0
Pd 4.81107750 4.53592500 -1.134073009999998 0 0 0
Pd 4.81107750 0.00000000 -1.134073009999998 0 0 0
Pd 1.60369250 4.53592500 -1.134073009999998 0 0 0
Pd 4.81107750 6.80388750 -3.4019509899999996 0 0 0
Pd 1.60369250 2.26796250 -3.4019509899999996 0 0 0
Pd 1.60369250 6.80388750 -3.4019509899999996 0 0 0
Pd 4.81107750 2.26796250 -3.4019509899999996 0 0 0
Pd 1.45519057 4.53592500 3.20789075
Pd 4.93295813 0.00000000 3.20145782
Pd 4.89094139 4.53592500 3.21459173
Pd 1.62595175 0.00000000 3.48959974
Pd 4.81261704 2.25934424 1.13541320
Pd 1.56757734 6.83300814 1.18339218
Pd 1.56757734 2.23884186 1.18339218
Pd 4.81261704 6.81250576 1.13541320
C 2.59811015 0.00000000 5.19486386
O 2.95727312 0.00000000 6.29328768
