&CONTROL
calculation = 'relax'
prefix = 'scf'
pseudo_dir = '/vol0004/mdt0/data/hp150275/u10028/POT_HYBRID_KKJUS_GBRV'
outdir = './data'
tprnfor = .true.
nstep = 50
disk_io = 'non'
/
&SYSTEM
ibrav = 0
ecutwfc = 50.0
ecutrho = 400
occupations = 'smearing'
smearing = 'mp'
degauss = 0.01
assume_isolated = 'esm'
esm_bc = 'bc1'
input_dft = 'BEEF-VDW'
nosym = .true.
nspin = 2
ntyp = 4
nat = 33
starting_magnetization(1) = 0.0
starting_magnetization(2) = 0.1
starting_magnetization(3) = 0.0
starting_magnetization(4) = 0.0
/
&ELECTRONS
electron_maxstep = 200
mixing_beta = 0.1
conv_thr = 1e-06
/
&IONS
ion_dynamics = 'bfgs'
upscale = 1.0
/
&CELL
/

K_POINTS {automatic}
9 6 2 0  0  0

ATOMIC_SPECIES
C 12.01 C.pbe-n-rrkjus_psl.1.0.0.UPF
Mn 54.93 mn_pbe_v1.5.uspp.F.UPF
Sn 118.7 Sn.pbe-dn-rrkjus_psl.1.0.0.UPF
W 183.8 w_pbe_v1.2.uspp.F.UPF

CELL_PARAMETERS {angstrom}
6.10490000 0.00000000 0.00000000
0.00000000 8.63363000 0.00000000
0.00000000 0.00000000 26.47520000

ATOMIC_POSITIONS {angstrom}
Mn 1.52622500 0.00000000 25.39607085
Mn 4.57867500 4.31681500 25.39607085
Mn 4.57867500 0.00000000 25.39607085
Mn 1.52622500 4.31681500 25.39607085
Mn 4.57867500 6.47522250 23.23754779
Mn 1.52622500 2.15840750 23.23754779
Mn 1.52622500 6.47522250 23.23754779
Mn 4.57867500 2.15840750 23.23754779
Mn 1.52622500 4.31681500 3.23765221
Mn 4.57867500 0.00000000 3.23765221
Mn 4.57867500 4.31681500 3.23765221
Mn 1.52622500 0.00000000 3.23765221
Mn 4.57867500 2.15840750 1.07912915
Mn 1.52622500 6.47522250 1.07912915
Mn 1.52622500 2.15840750 1.07912915
Mn 4.57867500 6.47522250 1.07912915
Sn 0.00000000 0.00000000 23.23754779
Sn 3.05245000 2.15840750 25.39607085
Sn 3.05245000 6.47522250 25.39607085
Sn 0.00000000 4.31681500 23.23754779
Sn 0.00000000 4.31681500 1.07912915
Sn 3.05245000 6.47522250 3.23765221
Sn 3.05245000 2.15840750 3.23765221
Sn 0.00000000 0.00000000 1.07912915
W 0.00000000 6.47522250 25.39607085
W 3.05245000 0.00000000 23.23754779
W 0.00000000 2.15840750 25.39607085
W 3.05245000 4.31681500 23.23754779
W 0.00000000 2.15840750 3.23765221
W 3.05245000 4.31681500 1.07912915
W 0.00000000 6.47522250 3.23765221
W 3.05245000 0.00000000 1.07912915
C 1.52622500 2.15840750 4.03773275
