&CONTROL
calculation = 'relax'
prefix = 'scf'
pseudo_dir = '/vol0004/mdt0/data/hp150275/u10028/POT_KKJUS'
outdir = './data'
tprnfor = .true.
nstep = 50
disk_io = 'non'
/
&SYSTEM
ibrav = 0
ecutwfc = 50.0
ecutrho = 400
occupations = 'smearing'
smearing = 'mp'
degauss = 0.01
assume_isolated = 'esm'
esm_bc = 'bc1'
input_dft = 'BEEF-VDW'
nosym = .true.
nspin = 1
ntyp = 4
nat = 34
/
&ELECTRONS
electron_maxstep = 200
mixing_beta = 0.1
conv_thr = 1e-06
/
&IONS
ion_dynamics = 'bfgs'
upscale = 1.0
/
&CELL
/

K_POINTS {automatic}
9 6 2 0  0  0

ATOMIC_SPECIES
Al 26.98 Al.pbe-nl-rrkjus_psl.1.0.0.UPF
C 12.01 C.pbe-n-rrkjus_psl.1.0.0.UPF
Ir 192.2 Ir.pbe-n-rrkjus_psl.0.2.3.UPF
O 15.99 O.pbe-n-rrkjus_psl.1.0.0.UPF

CELL_PARAMETERS {angstrom}
6.03636000 0.00000000 0.00000000
0.00000000 8.53670000 0.00000000
0.00000000 0.00000000 26.40250000

ATOMIC_POSITIONS {angstrom}
Al 0.00000000 0.00000000 -3.2013031199999986 0 0 0
Al 0.00000000 2.13417500 -1.0671890499999996 0 0 0
Al 6.02138983 0.00000000 1.08303055
Al 6.02652073 2.17387066 3.27391000
Al 0.00000000 4.26835000 -3.2013031199999986 0 0 0
Al 0.00000000 6.40252500 -1.0671890499999996 0 0 0
Al 0.01195199 4.26835000 1.07431773
Al 6.02652073 6.36282935 3.27391000
Al 3.01818000 0.00000000 -3.2013031199999986 0 0 0
Al 3.01818000 2.13417500 -1.0671890499999996 0 0 0
Al 3.03315017 0.00000000 1.08303055
Al 3.02813999 2.17344382 3.27417402
Al 3.01818000 4.26835000 -3.2013031199999986 0 0 0
Al 3.01818000 6.40252500 -1.0671890499999996 0 0 0
Al 3.00652983 4.26835000 1.07431773
Al 3.02813999 6.36325618 3.27417402
Ir 1.50909000 2.13417500 -3.2013031199999986 0 0 0
Ir 1.50909000 0.00000000 -1.0671890499999996 0 0 0
Ir 1.50921073 2.07493030 1.04263472
Ir 1.50830527 0.00000000 3.32222657
Ir 1.50909000 6.40252500 -3.2013031199999986 0 0 0
Ir 1.50909000 4.26835000 -1.0671890499999996 0 0 0
Ir 1.50921073 6.46176970 1.04263472
Ir 1.50939182 4.26835000 3.09094067
Ir 4.52727000 2.13417500 -3.2013031199999986 0 0 0
Ir 4.52727000 0.00000000 -1.0671890499999996 0 0 0
Ir 4.52739073 2.13502867 1.01860845
Ir 4.52702855 0.00000000 3.11074255
Ir 4.52727000 6.40252500 -3.2013031199999986 0 0 0
Ir 4.52727000 4.26835000 -1.0671890499999996 0 0 0
Ir 4.52739073 6.40167133 1.01860845
Ir 4.52733036 4.26835000 3.10731022
C 1.50528709 0.00000000 5.19944432
O 1.50534746 0.00000000 6.35745797
