&CONTROL
calculation = 'relax'
prefix = 'scf'
pseudo_dir = '/vol0403/data/hp230205/u10028/POT_HYBRID_KKJUS_GBRV'
outdir = './data'
tprnfor = .true.
nstep = 50
disk_io = 'non'
/
&SYSTEM
ibrav = 0
ecutwfc = 50.0
ecutrho = 400
occupations = 'smearing'
smearing = 'mp'
degauss = 0.01
assume_isolated = 'esm'
esm_bc = 'bc1'
input_dft = 'BEEF-VDW'
nosym = .true.
nspin = 1
ntyp = 5
nat = 17
/
&ELECTRONS
electron_maxstep = 200
mixing_beta = 0.1
conv_thr = 1e-06
/
&IONS
ion_dynamics = 'bfgs'
upscale = 1.0
/
&CELL
/

K_POINTS {automatic}
8 11 2 0  0  0

ATOMIC_SPECIES
Al 26.98 Al.pbe-nl-rrkjus_psl.1.0.0.UPF
C 12.01 C.pbe-n-rrkjus_psl.1.0.0.UPF
Cu 63.54 Cu.pbe-dn-rrkjus_psl.1.0.0.UPF
Ge 72.64 Ge.pbe-dn-rrkjus_psl.1.0.0.UPF
Li 6.941 Li.pbe-sl-rrkjus_psl.1.0.0.UPF


CELL_PARAMETERS {angstrom}
7.61632000 0.00000000 0.00000000
0.00000000 5.50126000 0.00000000
0.00000000 0.00000000 24.12590000

ATOMIC_POSITIONS {angstrom}
Li 0.39231664 2.57783542 2.44226486
Li 0.00000000 5.49713406 -0.6875881499999998 0 0 0
Li 3.41576719 2.57783542 2.44226486
Li 3.80816000 5.49713406 -0.6875881499999998 0 0 0
Al 0.34242975 5.37258553 2.07579244
Al 0.00000000 2.74650406 -0.6875881499999998 0 0 0
Al 3.46573025 5.37253052 2.07579244
Al 3.80816000 2.74650406 -0.6875881499999998 0 0 0
Cu 1.90408000 4.03511920 0.55537822
Cu 1.90408000 1.36909858 -2.0630057100000023 0 0 0
Cu 5.71224000 4.04749703 0.78988197
Cu 5.71224000 1.36909858 -2.0630057100000023 0 0 0
Ge 1.90408000 1.42103047 0.46080469
Ge 1.90408000 4.11972858 -2.0630057100000023 0 0 0
Ge 5.71224000 1.29411640 1.15731942
Ge 5.71224000 4.11972858 -2.0630057100000023 0 0 0
C 1.90408000 1.06482389 2.49775443
