&CONTROL
calculation = 'relax'
prefix = 'scf'
pseudo_dir = '/vol0403/data/hp230205/u10028/POT_HYBRID_KKJUS_GBRV'
outdir = './data'
tprnfor = .true.
nstep = 50
disk_io = 'non'
/
&SYSTEM
ibrav = 0
ecutwfc = 50.0
ecutrho = 400
occupations = 'smearing'
smearing = 'mp'
degauss = 0.01
assume_isolated = 'esm'
esm_bc = 'bc1'
input_dft = 'BEEF-VDW'
nosym = .true.
nspin = 1
ntyp = 6
nat = 34
/
&ELECTRONS
electron_maxstep = 200
mixing_beta = 0.1
conv_thr = 1e-06
/
&IONS
ion_dynamics = 'bfgs'
upscale = 1.0
/
&CELL
/

K_POINTS {automatic}
6 6 1 0 0 0

ATOMIC_SPECIES
C 12.01 C.pbe-n-rrkjus_psl.1.0.0.UPF
In 114.8 In.pbe-dn-rrkjus_psl.1.0.0.UPF
Li 6.941 Li.pbe-sl-rrkjus_psl.1.0.0.UPF
O 15.99 O.pbe-n-rrkjus_psl.1.0.0.UPF
Pt 195.0 Pt.pbe-n-rrkjus_psl.1.0.0.UPF
Y 88.90 Y.pbe-spn-rrkjus_psl.1.0.0.UPF


CELL_PARAMETERS {angstrom}
6.80323000 0.00000000 0.00000000
0.00000000 9.62122000 0.00000000
0.00000000 0.00000000 27.21590000

ATOMIC_POSITIONS {angstrom}
Li 5.10242250 0.00000000 -1.2026706200000028 0 0 0
Li 5.10242250 4.81061000 -1.2026706200000028 0 0 0
Li 1.70080750 2.40530500 -3.6080118600000013 0 0 0
Li 1.70080750 7.21591500 -3.6080118600000013 0 0 0
Li 3.73817079 4.72247962 5.10760795
Li 3.73817079 0.08813038 5.10733579
Li 1.68121420 7.21591500 1.29275525
Li 1.48507708 2.40530500 1.28268537
Y 0.00000000 2.40530500 -1.2026706200000028 0 0 0
Y 0.00000000 7.21591500 -1.2026706200000028 0 0 0
Y 3.40161500 4.81061000 -3.6080118600000013 0 0 0
Y 3.40161500 0.00000000 -3.6080118600000013 0 0 0
Y 6.50055430 7.21591500 3.56419426
Y 6.42347370 2.40530500 3.68258343
Y 3.45678920 0.01597123 1.36950409
Y 3.45678920 4.79454256 1.36950409
In 0.00000000 0.00000000 -3.6080118600000013 0 0 0
In 0.00000000 4.81061000 -3.6080118600000013 0 0 0
In 3.40161500 7.21591500 -1.2026706200000028 0 0 0
In 3.40161500 2.40530500 -1.2026706200000028 0 0 0
In 6.74751155 4.81859561 1.15749223
In 6.74751155 9.61323439 1.15749223
In 3.07710093 2.40530500 3.59603687
In 3.16445440 7.21591500 3.81185895
Pt 1.70080750 0.00000000 -1.2026706200000028 0 0 0
Pt 1.70080750 4.81061000 -1.2026706200000028 0 0 0
Pt 5.10242250 2.40530500 -3.6080118600000013 0 0 0
Pt 5.10242250 7.21591500 -3.6080118600000013 0 0 0
Pt 1.54753073 4.84515018 3.41124091
Pt 1.54753073 9.58667982 3.41124091
Pt 5.06221541 7.21591500 1.12891553
Pt 5.09718401 2.40530500 1.09407918
C 5.09357830 2.40540121 5.71016798
O 4.63905450 2.40549742 6.80751307
