&CONTROL
calculation = 'relax'
prefix = 'scf'
pseudo_dir = '/vol0004/mdt0/data/hp150275/u10028/POT_HYBRID_KKJUS_GBRV'
outdir = './data'
tprnfor = .true.
nstep = 70
disk_io = 'non'
/
&SYSTEM
ibrav = 0
ecutwfc = 50.0
ecutrho = 400
occupations = 'smearing'
smearing = 'mp'
degauss = 0.01
assume_isolated = 'esm'
esm_bc = 'bc1'
input_dft = 'BEEF-VDW'
nosym = .true.
nspin = 1
ntyp = 2
nat = 16
/
&ELECTRONS
electron_maxstep = 200
mixing_beta = 0.1
conv_thr = 1e-06
/
&IONS
ion_dynamics = 'bfgs'
upscale = 1.0
/
&CELL
/

K_POINTS {automatic}
8 8 1 0 0 0

ATOMIC_SPECIES
Ca 40.07 Ca.pbe-spn-rrkjus_psl.1.0.0.UPF
Pb 207.2 Pb.pbe-dn-rrkjus_psl.1.0.0.UPF

CELL_PARAMETERS {angstrom}
7.36738000 0.00000000 0.00000000
-0.00000000 7.36738000 0.00000000
0.00000000 0.00000000 26.89040000

ATOMIC_POSITIONS {angstrom}
Ca 0.00000000 0.00000000 -4.2212549899999985 0 0 0
Ca 0.00000000 0.00000000 0.37216314
Ca 0.00000000 3.68369000 -4.2212549899999985 0 0 0
Ca 0.00000000 3.68369000 0.37216314
Ca 3.68369000 0.00000000 -4.2212549899999985 0 0 0
Ca 3.68369000 -0.00000000 0.37216314
Ca 3.68369000 3.68369000 -4.2212549899999985 0 0 0
Ca 3.68369000 3.68369000 0.37216314
Pb 1.84184500 1.84184500 -1.9245459300000007 0 0 0
Pb 1.84184500 1.84184500 2.66914110
Pb 1.84184500 5.52553500 -1.9245459300000007 0 0 0
Pb 1.84184500 5.52553500 2.66914110
Pb 5.52553500 1.84184500 -1.9245459300000007 0 0 0
Pb 5.52553500 1.84184500 2.66914110
Pb 5.52553500 5.52553500 -1.9245459300000007 0 0 0
Pb 5.52553500 5.52553500 2.66914110
