&CONTROL
calculation = 'relax'
prefix = 'scf'
pseudo_dir = '/vol0004/mdt0/data/hp150275/u10028/POT_HYBRID_KKJUS_GBRV'
outdir = './data'
tprnfor = .true.
nstep = 50
disk_io = 'non'
/
&SYSTEM
ibrav = 0
ecutwfc = 50.0
ecutrho = 400
occupations = 'smearing'
smearing = 'mp'
degauss = 0.01
assume_isolated = 'esm'
esm_bc = 'bc1'
input_dft = 'BEEF-VDW'
nosym = .true.
nspin = 2
ntyp = 4
nat = 33
starting_magnetization(1) = 0.0
starting_magnetization(2) = 0.0
starting_magnetization(3) = 0.0
starting_magnetization(4) = 0.001
/
&ELECTRONS
electron_maxstep = 200
mixing_beta = 0.1
conv_thr = 1e-06
/
&IONS
ion_dynamics = 'bfgs'
upscale = 1.0
/
&CELL
/

K_POINTS {automatic}
9 6 2 0  0  0

ATOMIC_SPECIES
C 12.01 C.pbe-n-rrkjus_psl.1.0.0.UPF
Ga 69.72 Ga.pbe-dnl-rrkjus_psl.1.0.0.UPF
Nb 92.90 Nb.pbe-spn-rrkjus_psl.1.0.0.UPF
Ni 58.69 ni_pbe_v1.4.uspp.F.UPF

CELL_PARAMETERS {angstrom}
6.00328000 0.00000000 0.00000000
0.00000000 8.48992000 0.00000000
0.00000000 0.00000000 26.36740000

ATOMIC_POSITIONS {angstrom}
Nb 0.00000000 0.00000000 23.18380012
Nb 3.00164000 2.12248000 25.30611215
Nb 3.00164000 6.36744000 25.30611215
Nb 0.00000000 4.24496000 23.18380012
Nb 0.07666189 4.24156403 1.37005010
Nb 2.57594742 6.36565712 2.99850073
Nb 2.75664614 2.12434778 2.96053167
Nb 0.07528113 0.00288657 1.37005010
Ga 0.00000000 6.36744000 25.30611215
Ga 3.00164000 0.00000000 23.18380012
Ga 0.00000000 2.12248000 25.30611215
Ga 3.00164000 4.24496000 23.18380012
Ga 5.30503850 2.12171591 3.76948350
Ga 3.02133076 4.24979925 1.00433427
Ga 5.82972518 6.36803429 3.39401173
Ga 3.02025017 8.48525054 1.00486161
Ni 1.50082000 0.00000000 25.30611215
Ni 4.50246000 4.24496000 25.30611215
Ni 4.50246000 0.00000000 25.30611215
Ni 1.50082000 4.24496000 25.30611215
Ni 4.50246000 6.36744000 23.18380012
Ni 1.50082000 2.12248000 23.18380012
Ni 1.50082000 6.36744000 23.18380012
Ni 4.50246000 2.12248000 23.18380012
Ni 1.02085776 4.09239614 3.68405313
Ni 4.21352213 8.40782247 3.13165610
Ni 4.21664384 4.32620853 3.13191977
Ni 1.02662091 0.15264876 3.68062537
Ni 4.68688076 2.12239510 0.99035954
Ni 1.42745992 6.36735510 0.89701895
Ni 1.42812028 2.12180081 0.85984091
Ni 4.60481592 6.36710040 1.10663978
C 1.21776535 2.12290450 4.17290472
