&CONTROL
calculation = 'relax'
prefix = 'scf'
pseudo_dir = '/vol0004/mdt0/data/hp150275/u10028/POT_HYBRID_KKJUS_GBRV'
outdir = './data'
tprnfor = .true.
nstep = 50
disk_io = 'non'
/
&SYSTEM
ibrav = 0
ecutwfc = 50.0
ecutrho = 400
occupations = 'smearing'
smearing = 'mp'
degauss = 0.01
assume_isolated = 'esm'
esm_bc = 'bc1'
input_dft = 'BEEF-VDW'
nosym = .true.
nspin = 2
ntyp = 4
nat = 33
starting_magnetization(1) = 0.0
starting_magnetization(2) = 0.0
starting_magnetization(3) = 0.0
starting_magnetization(4) = 0.001
/
&ELECTRONS
electron_maxstep = 300
mixing_beta = 0.1
conv_thr = 1e-06
/
&IONS
ion_dynamics = 'bfgs'
upscale = 1.0
/
&CELL
/

K_POINTS {automatic}
8 6 1 0 0 0

ATOMIC_SPECIES
C 12.01 C.pbe-n-rrkjus_psl.1.0.0.UPF
Ga 69.72 Ga.pbe-dnl-rrkjus_psl.1.0.0.UPF
Nb 92.90 Nb.pbe-spn-rrkjus_psl.1.0.0.UPF
Ni 58.69 ni_pbe_v1.4.uspp.F.UPF

CELL_PARAMETERS {angstrom}
6.00328000 0.00000000 0.00000000
0.00000000 8.48992000 0.00000000
0.00000000 0.00000000 26.36740000

ATOMIC_POSITIONS {angstrom}
Nb 0.00000000 0.00000000 -3.183599879999999 0 0 0
Nb 3.00164000 2.12248000 -1.0612878499999994 0 0 0
Nb 3.00164000 6.36744000 -1.0612878499999994 0 0 0
Nb 0.00000000 4.24496000 -3.183599879999999 0 0 0
Nb 0.06861749 4.25192173 1.35343864
Nb 2.57228541 6.36701550 3.02170404
Nb 2.76703182 2.12392329 2.95789493
Nb 0.06915779 8.48261867 1.35317497
Ga 0.00000000 6.36744000 -1.0612878499999994 0 0 0
Ga 3.00164000 0.00000000 -3.183599879999999 0 0 0
Ga 0.00000000 2.12248000 -1.0612878499999994 0 0 0
Ga 3.00164000 4.24496000 -3.183599879999999 0 0 0
Ga 5.32298831 2.12137631 3.73546956
Ga 3.01124525 4.24810127 1.00433427
Ga 5.82624327 6.36862859 3.38425579
Ga 3.01052485 8.48796732 1.00433427
Ni 1.50082000 0.00000000 -1.0612878499999994 0 0 0
Ni 4.50246000 4.24496000 -1.0612878499999994 0 0 0
Ni 4.50246000 0.00000000 -1.0612878499999994 0 0 0
Ni 1.50082000 4.24496000 -1.0612878499999994 0 0 0
Ni 4.50246000 6.36744000 -3.183599879999999 0 0 0
Ni 1.50082000 2.12248000 -3.183599879999999 0 0 0
Ni 1.50082000 6.36744000 -3.183599879999999 0 0 0
Ni 4.50246000 2.12248000 -3.183599879999999 0 0 0
Ni 1.03586596 4.09782969 3.66480493
Ni 4.21994564 8.40748288 3.12374588
Ni 4.22144646 4.32748202 3.12400955
Ni 1.03886760 0.14704541 3.66348656
Ni 4.69258388 2.12171591 0.98244932
Ni 1.43940645 6.36625141 0.89438221
Ni 1.41485303 2.12264980 0.86063194
Ni 4.56357339 6.36811919 1.12456961
C 1.22845119 2.12273470 4.16578553
