&CONTROL
calculation = 'relax'
prefix = 'scf'
pseudo_dir = '/vol0004/mdt0/data/hp150275/u10028/POT_HYBRID_KKJUS_GBRV'
outdir = './data'
tprnfor = .true.
nstep = 50
disk_io = 'non'
/
&SYSTEM
ibrav = 0
ecutwfc = 50.0
ecutrho = 400
occupations = 'smearing'
smearing = 'mp'
degauss = 0.01
assume_isolated = 'esm'
esm_bc = 'bc1'
input_dft = 'BEEF-VDW'
nosym = .true.
nspin = 2
ntyp = 5
nat = 34
starting_magnetization(1) = 0.0
starting_magnetization(2) = 0.1
starting_magnetization(3) = 0.0
starting_magnetization(4) = 0.0
starting_magnetization(5) = 0.0
/
&ELECTRONS
electron_maxstep = 200
mixing_beta = 0.1
conv_thr = 1e-06
/
&IONS
ion_dynamics = 'bfgs'
upscale = 1.0
/
&CELL
/

K_POINTS {automatic}
9 6 2 0  0  0

ATOMIC_SPECIES
C 12.01 C.pbe-n-rrkjus_psl.1.0.0.UPF
Fe 55.84 fe_pbe_v1.5.uspp.F.UPF
O 15.99 O.pbe-n-rrkjus_psl.1.0.0.UPF
Sn 118.7 Sn.pbe-dn-rrkjus_psl.1.0.0.UPF
V 50.94 V.pbe-spnl-rrkjus_psl.1.0.0.UPF

CELL_PARAMETERS {angstrom}
6.09904000 0.00000000 0.00000000
0.00000000 8.62534000 0.00000000
0.00000000 0.00000000 26.46900000

ATOMIC_POSITIONS {angstrom}
V 0.00000000 0.00000000 23.23448820
V 3.04952000 2.15633500 25.39091763
V 3.04952000 6.46900500 25.39091763
V 0.00000000 4.31267000 23.23448820
V 6.09836911 4.20166187 0.97167699
V 3.04805623 6.46865999 3.34594629
V 3.04823920 2.15693877 3.02540670
V 6.09855208 0.11178441 0.97220637
Fe 1.52476000 0.00000000 25.39091763
Fe 4.57428000 4.31267000 25.39091763
Fe 4.57428000 0.00000000 25.39091763
Fe 1.52476000 4.31267000 25.39091763
Fe 4.57428000 6.46900500 23.23448820
Fe 1.52476000 2.15633500 23.23448820
Fe 1.52476000 6.46900500 23.23448820
Fe 4.57428000 2.15633500 23.23448820
Fe 1.32513842 4.44360266 3.12572421
Fe 4.77463346 8.49259602 3.12545952
Fe 4.77359663 4.44420644 3.12493014
Fe 1.32385762 8.49302728 3.12625359
Fe 4.55561694 2.15702503 1.18845810
Fe 1.18723913 6.46909125 1.52884944
Fe 1.54238623 2.15702503 1.18898748
Fe 4.91021512 6.46917751 1.52884944
Sn 0.00000000 6.46900500 25.39091763
Sn 3.04952000 0.00000000 23.23448820
Sn 0.00000000 2.15633500 25.39091763
Sn 3.04952000 4.31267000 23.23448820
Sn 6.09843010 2.15607624 3.62254734
Sn 3.04897109 4.44903663 1.07675892
Sn 6.09830812 6.46753869 4.33456344
Sn 3.04903208 8.48983591 1.07755299
C 6.04122110 2.14115440 7.52698953
O 0.06849222 2.15297112 8.65456893
