&CONTROL
calculation = 'relax'
prefix = 'scf'
pseudo_dir = '/vol0403/data/hp230205/u10028/POT_HYBRID_KKJUS_GBRV'
outdir = './data'
tprnfor = .true.
nstep = 50
disk_io = 'non'
/
&SYSTEM
ibrav = 0
ecutwfc = 50.0
ecutrho = 400
occupations = 'smearing'
smearing = 'mp'
degauss = 0.01
assume_isolated = 'esm'
esm_bc = 'bc1'
input_dft = 'BEEF-VDW'
nosym = .true.
nspin = 2
ntyp = 5
nat = 33
starting_magnetization(1) = 0.0
starting_magnetization(2) = 0.0
starting_magnetization(3) = 0.0
starting_magnetization(4) = 0.001
starting_magnetization(5) = 0.0
/
&ELECTRONS
electron_maxstep = 200
mixing_beta = 0.1
conv_thr = 1e-06
/
&IONS
ion_dynamics = 'bfgs'
upscale = 1.0
/
&CELL
/

K_POINTS {automatic}
6 6 1 0 0 0

ATOMIC_SPECIES
C 12.01 C.pbe-n-rrkjus_psl.1.0.0.UPF
Ga 69.72 Ga.pbe-dnl-rrkjus_psl.1.0.0.UPF
Li 6.941 Li.pbe-sl-rrkjus_psl.1.0.0.UPF
Ni 58.69 ni_pbe_v1.4.uspp.F.UPF
Pd 106.4 Pd.pbe-n-rrkjus_psl.1.0.0.UPF


CELL_PARAMETERS {angstrom}
5.93220000 0.00000000 0.00000000
0.00000000 8.38940000 0.00000000
0.00000000 0.00000000 26.29200000

ATOMIC_POSITIONS {angstrom}
Li 0.00000000 2.09735000 -1.0487878800000026 0 0 0
Li 0.00000000 6.29205000 -1.0487878800000026 0 0 0
Li 2.96610000 4.19470000 -3.1461007200000033 0 0 0
Li 2.96610000 0.00000000 -3.1461007200000033 0 0 0
Li 0.04988980 6.15471552 3.62146008
Li 0.04988980 2.23468448 3.62146008
Li 3.00566777 0.00000000 1.07665740
Li 2.98763389 4.19470000 0.95098164
Ga 0.00000000 0.00000000 -3.1461007200000033 0 0 0
Ga 0.00000000 4.19470000 -3.1461007200000033 0 0 0
Ga 2.96610000 6.29205000 -1.0487878800000026 0 0 0
Ga 2.96610000 2.09735000 -1.0487878800000026 0 0 0
Ga 0.00557627 4.19470000 1.07034732
Ga 0.00261017 0.00000000 0.91022904
Ga 2.91941359 2.07243348 3.32015376
Ga 2.91941359 6.31696652 3.32015376
Ni 1.48305000 0.00000000 -1.0487878800000026 0 0 0
Ni 1.48305000 4.19470000 -1.0487878800000026 0 0 0
Ni 4.44915000 2.09735000 -3.1461007200000033 0 0 0
Ni 4.44915000 6.29205000 -3.1461007200000033 0 0 0
Ni 1.66012617 4.19470000 2.94102312
Ni 1.33664330 0.00000000 2.96941848
Ni 4.47946354 6.30027161 1.12056504
Ni 4.47952286 2.08912839 1.12056504
Pd 4.44915000 0.00000000 -1.0487878800000026 0 0 0
Pd 4.44915000 4.19470000 -1.0487878800000026 0 0 0
Pd 1.48305000 2.09735000 -3.1461007200000033 0 0 0
Pd 1.48305000 6.29205000 -3.1461007200000033 0 0 0
Pd 4.34011616 4.19470000 3.04277316
Pd 4.65547192 8.38931611 3.08010780
Pd 1.48566017 6.30354348 1.10137188
Pd 1.48560085 2.08585652 1.10137188
C 2.82770177 0.00000000 3.91119792
