&CONTROL
calculation = 'relax'
prefix = 'scf'
pseudo_dir = '/vol0403/data/hp230205/u10028/POT_HYBRID_KKJUS_GBRV'
outdir = './data'
tprnfor = .true.
nstep = 50
disk_io = 'non'
/
&SYSTEM
ibrav = 0
ecutwfc = 50.0
ecutrho = 400
occupations = 'smearing'
smearing = 'mp'
degauss = 0.01
assume_isolated = 'esm'
esm_bc = 'bc1'
input_dft = 'BEEF-VDW'
nosym = .true.
nspin = 1
ntyp = 4
nat = 16
/
&ELECTRONS
electron_maxstep = 200
mixing_beta = 0.1
conv_thr = 1e-06
/
&IONS
ion_dynamics = 'bfgs'
upscale = 1.0
/
&CELL
/

K_POINTS {automatic}
6 6 1 0 0 0

ATOMIC_SPECIES
Ge 72.64 Ge.pbe-dn-rrkjus_psl.1.0.0.UPF
In 114.8 In.pbe-dn-rrkjus_psl.1.0.0.UPF
Li 6.941 Li.pbe-sl-rrkjus_psl.1.0.0.UPF
Y 88.90 Y.pbe-spn-rrkjus_psl.1.0.0.UPF


CELL_PARAMETERS {angstrom}
6.03525000 0.00000000 0.00000000
0.00000000 9.31878000 0.00000000
0.00000000 0.00000000 24.52620000

ATOMIC_POSITIONS {angstrom}
Li 4.14567358 2.32978819 0.58617618
Li 1.46493623 2.32969500 -2.263032469999999 0 0 0
Li 4.14579428 6.98880544 0.58617618
Li 1.46493623 6.98908500 -2.263032469999999 0 0 0
Y 2.83723138 0.00000000 2.24120416
Y 6.00597904 0.00000000 -0.7544259099999984 0 0 0
Y 2.83747279 4.65948319 2.24144942
Y 6.00597904 4.65939000 -0.7544259099999984 0 0 0
In 1.02074183 2.33053369 1.17210710
In 4.48256123 2.32969500 -2.263032469999999 0 0 0
In 1.02044007 6.98815312 1.17210710
In 4.48256123 6.98908500 -2.263032469999999 0 0 0
Ge 5.83735415 0.00037275 2.31404697
Ge 2.98835404 0.00000000 -0.7544259099999984 0 0 0
Ge 5.83747486 4.65920362 2.31233014
Ge 2.98835404 4.65939000 -0.7544259099999984 0 0 0
