&CONTROL
calculation = 'relax'
prefix = 'scf'
pseudo_dir = '/vol0004/mdt0/data/hp150275/u10028/POT_KKJUS'
outdir = './data'
tprnfor = .true.
nstep = 50
disk_io = 'non'
/
&SYSTEM
ibrav = 0
ecutwfc = 50.0
ecutrho = 400
occupations = 'smearing'
smearing = 'mp'
degauss = 0.01
assume_isolated = 'esm'
esm_bc = 'bc1'
input_dft = 'BEEF-VDW'
nosym = .true.
nspin = 1
ntyp = 4
nat = 33
/
&ELECTRONS
electron_maxstep = 200
mixing_beta = 0.1
conv_thr = 1e-06
/
&IONS
ion_dynamics = 'bfgs'
upscale = 1.0
/
&CELL
/

K_POINTS {automatic}
9 6 2 0  0  0

ATOMIC_SPECIES
C 12.01 C.pbe-n-rrkjus_psl.1.0.0.UPF
In 114.8 In.pbe-dn-rrkjus_psl.1.0.0.UPF
Ni 58.69 Ni.pbe-spn-rrkjus_psl.1.0.0.UPF
Zr 91.22 Zr.pbe-spn-rrkjus_psl.1.0.0.UPF

CELL_PARAMETERS {angstrom}
6.34847000 0.00000000 0.00000000
0.00000000 8.97809000 0.00000000
0.00000000 0.00000000 26.73360000

ATOMIC_POSITIONS {angstrom}
Zr 0.00000000 0.00000000 -3.3668295799999974 0 0 0
Zr 3.17423500 2.24452250 -1.1222765300000006 0 0 0
Zr 3.17423500 6.73356750 -1.1222765300000006 0 0 0
Zr 0.00000000 4.48904500 -3.3668295799999974 0 0 0
Zr 0.00000000 4.48913478 1.15088148
Zr 3.17423500 6.70842885 3.32058046
Zr 3.17423500 2.26939181 3.32031312
Zr 0.00000000 0.00000000 1.24150838
In 0.00000000 6.73356750 -1.1222765300000006 0 0 0
In 3.17423500 0.00000000 -3.3668295799999974 0 0 0
In 0.00000000 2.24452250 -1.1222765300000006 0 0 0
In 3.17423500 4.48904500 -3.3668295799999974 0 0 0
In 0.00000000 2.37084423 3.60930334
In 3.17429848 4.48913478 1.05196716
In 0.00000000 6.60724577 3.60903600
In 3.17423500 0.00008978 1.11452378
Ni 1.58711750 0.00000000 -1.1222765300000006 0 0 0
Ni 4.76135250 4.48904500 -1.1222765300000006 0 0 0
Ni 4.76135250 0.00000000 -1.1222765300000006 0 0 0
Ni 1.58711750 4.48904500 -1.1222765300000006 0 0 0
Ni 4.76135250 6.73356750 -3.3668295799999974 0 0 0
Ni 1.58711750 2.24452250 -3.3668295799999974 0 0 0
Ni 1.58711750 6.73356750 -3.3668295799999974 0 0 0
Ni 4.76135250 2.24452250 -3.3668295799999974 0 0 0
Ni 1.65599840 4.48922456 3.24091433
Ni 4.53820378 8.97773088 3.45959518
Ni 4.69259857 4.48913478 3.24118166
Ni 1.81026622 8.97764110 3.45959518
Ni 4.75443267 2.26598014 1.15890156
Ni 1.59435476 6.71228943 1.15890156
Ni 1.59397385 2.26606992 1.15863422
Ni 4.75411524 6.71237921 1.15890156
C 0.00000000 0.00000000 3.57535166
