&CONTROL
calculation = 'relax'
prefix = 'scf'
pseudo_dir = '/vol0004/mdt0/data/hp150275/u10028/POT_KKJUS'
outdir = './data'
tprnfor = .true.
nstep = 50
disk_io = 'non'
/
&SYSTEM
ibrav = 0
ecutwfc = 50.0
ecutrho = 400
occupations = 'smearing'
smearing = 'mp'
degauss = 0.01
assume_isolated = 'esm'
esm_bc = 'bc1'
input_dft = 'BEEF-VDW'
nosym = .true.
nspin = 1
ntyp = 2
nat = 32
/
&ELECTRONS
electron_maxstep = 200
mixing_beta = 0.1
conv_thr = 1e-06
/
&IONS
ion_dynamics = 'bfgs'
upscale = 1.0
/
&CELL
/

K_POINTS {automatic}
7 7 2 0  0  0

ATOMIC_SPECIES
Ir 192.2 Ir.pbe-n-rrkjus_psl.0.2.3.UPF
V 50.94 V.pbe-spnl-rrkjus_psl.1.0.0.UPF

CELL_PARAMETERS {angstrom}
7.70199000 0.00000000 0.00000000
-0.00000000 7.70199000 0.00000000
0.00000000 0.00000000 25.77650000

ATOMIC_POSITIONS {angstrom}
V 0.00000000 0.00000000 2.88825682
V 0.00000000 0.00000000 -0.9627522800000001 0 0 0
V 0.00000000 3.85099500 2.88825682
V 0.00000000 3.85099500 -0.9627522800000001 0 0 0
V 3.85099500 -0.00000000 2.88825682
V 3.85099500 0.00000000 -0.9627522800000001 0 0 0
V 3.85099500 3.85099500 2.88825682
V 3.85099500 3.85099500 -0.9627522800000001 0 0 0
Ir 0.00000000 1.92549750 0.96275227
Ir 1.92549750 -0.00000000 0.96275227
Ir 1.92549750 1.92549750 2.88825682
Ir 0.00000000 1.92549750 -2.8882568299999996 0 0 0
Ir 1.92549750 0.00000000 -2.8882568299999996 0 0 0
Ir 1.92549750 1.92549750 -0.9627522800000001 0 0 0
Ir 0.00000000 5.77649250 0.96275227
Ir 1.92549750 3.85099500 0.96275227
Ir 1.92549750 5.77649250 2.88825682
Ir 0.00000000 5.77649250 -2.8882568299999996 0 0 0
Ir 1.92549750 3.85099500 -2.8882568299999996 0 0 0
Ir 1.92549750 5.77649250 -0.9627522800000001 0 0 0
Ir 3.85099500 1.92549750 0.96275227
Ir 5.77649250 -0.00000000 0.96275227
Ir 5.77649250 1.92549750 2.88825682
Ir 3.85099500 1.92549750 -2.8882568299999996 0 0 0
Ir 5.77649250 0.00000000 -2.8882568299999996 0 0 0
Ir 5.77649250 1.92549750 -0.9627522800000001 0 0 0
Ir 3.85099500 5.77649250 0.96275227
Ir 5.77649250 3.85099500 0.96275227
Ir 5.77649250 5.77649250 2.88825682
Ir 3.85099500 5.77649250 -2.8882568299999996 0 0 0
Ir 5.77649250 3.85099500 -2.8882568299999996 0 0 0
Ir 5.77649250 5.77649250 -0.9627522800000001 0 0 0
