&CONTROL
calculation = 'relax'
prefix = 'scf'
pseudo_dir = '/vol0403/data/hp230205/u10028/POT_HYBRID_KKJUS_GBRV'
outdir = './data'
tprnfor = .true.
nstep = 50
disk_io = 'non'
/
&SYSTEM
ibrav = 0
ecutwfc = 50.0
ecutrho = 400
occupations = 'smearing'
smearing = 'mp'
degauss = 0.01
assume_isolated = 'esm'
esm_bc = 'bc1'
input_dft = 'BEEF-VDW'
nosym = .true.
nspin = 1
ntyp = 6
nat = 34
/
&ELECTRONS
electron_maxstep = 200
mixing_beta = 0.1
conv_thr = 1e-06
/
&IONS
ion_dynamics = 'bfgs'
upscale = 1.0
/
&CELL
/

K_POINTS {automatic}
6 6 1 0 0 0

ATOMIC_SPECIES
C 12.01 C.pbe-n-rrkjus_psl.1.0.0.UPF
Ge 72.64 Ge.pbe-dn-rrkjus_psl.1.0.0.UPF
Li 6.941 Li.pbe-sl-rrkjus_psl.1.0.0.UPF
O 15.99 O.pbe-n-rrkjus_psl.1.0.0.UPF
Pd 106.4 Pd.pbe-n-rrkjus_psl.1.0.0.UPF
V 50.94 V.pbe-spnl-rrkjus_psl.1.0.0.UPF


CELL_PARAMETERS {angstrom}
9.40562000 0.00000000 0.00000000
0.00000000 5.68832000 0.00000000
0.00000000 0.00000000 26.48090000

ATOMIC_POSITIONS {angstrom}
Li 2.35140500 1.42208000 -3.240467729999999 0 0 0
Li 2.35131094 1.35205678 1.17892967
Li 2.35140500 4.26624000 -3.240467729999999 0 0 0
Li 2.35159311 4.33614945 1.17866486
Li 7.05421500 1.42208000 -3.240467729999999 0 0 0
Li 7.05440311 1.42793897 1.12570306
Li 7.05421500 4.26624000 -3.240467729999999 0 0 0
Li 7.05421500 4.26038103 1.12570306
V 0.00000000 1.42208000 -1.0801559099999984 0 0 0
V 0.00583148 1.17395548 3.25397299
V 0.00000000 4.26624000 -1.0801559099999984 0 0 0
V 0.00573743 4.51442140 3.25423780
V 4.70281000 1.42208000 -1.0801559099999984 0 0 0
V 4.69707257 1.17355730 3.25503223
V 4.70281000 4.26624000 -1.0801559099999984 0 0 0
V 4.69697852 4.51447828 3.25450261
Ge 0.00000000 0.00000000 -3.240467729999999 0 0 0
Ge 9.37185382 5.68820623 1.02322198
Ge 0.00000000 2.84416000 -3.240467729999999 0 0 0
Ge 0.03630569 2.84433065 1.19269974
Ge 4.70281000 0.00000000 -3.240467729999999 0 0 0
Ge 4.73676429 0.00056883 1.02375159
Ge 4.70281000 2.84416000 -3.240467729999999 0 0 0
Ge 4.66678648 2.84347740 1.19322935
Pd 2.35140500 0.00000000 -1.0801559099999984 0 0 0
Pd 2.35102878 5.68826312 3.89825329
Pd 2.35140500 2.84416000 -1.0801559099999984 0 0 0
Pd 2.35159311 2.84410312 3.19809829
Pd 7.05421500 0.00000000 -1.0801559099999984 0 0 0
Pd 7.05440311 0.00005688 3.32255852
Pd 7.05421500 2.84416000 -1.0801559099999984 0 0 0
Pd 7.05393283 2.84416000 3.25185452
C 2.35131094 0.00005688 5.81732411
O 2.35102878 0.00011377 6.96924326
