&CONTROL
calculation = 'relax'
prefix = 'scf'
pseudo_dir = '/vol0403/data/hp230205/u10028/POT_HYBRID_KKJUS_GBRV'
outdir = './data'
tprnfor = .true.
nstep = 50
disk_io = 'non'
/
&SYSTEM
ibrav = 0
ecutwfc = 50.0
ecutrho = 400
occupations = 'smearing'
smearing = 'mp'
degauss = 0.01
assume_isolated = 'esm'
esm_bc = 'bc1'
input_dft = 'BEEF-VDW'
nosym = .true.
nspin = 1
ntyp = 6
nat = 34
/
&ELECTRONS
electron_maxstep = 200
mixing_beta = 0.1
conv_thr = 1e-06
/
&IONS
ion_dynamics = 'bfgs'
upscale = 1.0
/
&CELL
/

K_POINTS {automatic}
9 6 2 0  0  0

ATOMIC_SPECIES
Ag 107.8 Ag.pbe-n-rrkjus_psl.1.0.0.UPF
C 12.01 C.pbe-n-rrkjus_psl.1.0.0.UPF
Ge 72.64 Ge.pbe-dn-rrkjus_psl.1.0.0.UPF
Li 6.941 Li.pbe-sl-rrkjus_psl.1.0.0.UPF
Mg 24.30 Mg.pbe-spnl-rrkjus_psl.1.0.0.UPF
O 15.99 O.pbe-n-rrkjus_psl.1.0.0.UPF


CELL_PARAMETERS {angstrom}
6.50572000 0.00000000 0.00000000
0.00000000 9.20048000 0.00000000
0.00000000 0.00000000 26.90040000

ATOMIC_POSITIONS {angstrom}
Li 4.87929000 0.00000000 -1.1499921000000022 0 0 0
Li 4.87929000 4.60024000 -1.1499921000000022 0 0 0
Li 1.62643000 2.30012000 -3.4502453000000024 0 0 0
Li 1.62643000 6.90036000 -3.4502453000000024 0 0 0
Li 4.92131695 4.60024000 3.64581121
Li 4.89425316 0.00000000 3.78138923
Li 1.61751716 6.90247611 1.13438987
Li 1.61745211 2.29791188 1.13438987
Mg 1.62643000 0.00000000 -1.1499921000000022 0 0 0
Mg 1.62643000 4.60024000 -1.1499921000000022 0 0 0
Mg 4.87929000 2.30012000 -3.4502453000000024 0 0 0
Mg 4.87929000 6.90036000 -3.4502453000000024 0 0 0
Mg 1.50522844 4.60033200 3.77466413
Mg 1.49781192 0.00000000 3.76686301
Mg 4.88657641 6.90072802 1.19975784
Mg 4.88677158 2.29947597 1.19975784
Ag 0.00000000 0.00000000 -3.4502453000000024 0 0 0
Ag 0.00000000 4.60024000 -3.4502453000000024 0 0 0
Ag 3.25286000 6.90036000 -1.1499921000000022 0 0 0
Ag 3.25286000 2.30012000 -1.1499921000000022 0 0 0
Ag 0.06225974 4.60024000 1.33506685
Ag 0.04040052 9.20038800 1.35847020
Ag 3.14805285 2.31309268 3.44217518
Ag 3.14818297 6.88738732 3.44244419
Ge 0.00000000 2.30012000 -1.1499921000000022 0 0 0
Ge 0.00000000 6.90036000 -1.1499921000000022 0 0 0
Ge 3.25286000 4.60024000 -3.4502453000000024 0 0 0
Ge 3.25286000 0.00000000 -3.4502453000000024 0 0 0
Ge 6.47110957 6.88849138 3.55946093
Ge 6.47123968 2.31208062 3.55972993
Ge 3.21642797 0.00000000 1.41361602
Ge 3.21727371 4.60014800 1.39128869
C 4.82438172 0.00000000 5.89091860
O 4.86491236 0.00000000 7.03230257
