&CONTROL
calculation = 'relax'
prefix = 'scf'
pseudo_dir = '/vol0403/data/hp230205/u10028/POT_HYBRID_KKJUS_GBRV'
outdir = './data'
tprnfor = .true.
nstep = 70
disk_io = 'non'
/
&SYSTEM
ibrav = 0
ecutwfc = 50.0
ecutrho = 400
occupations = 'smearing'
smearing = 'mp'
degauss = 0.01
assume_isolated = 'esm'
esm_bc = 'bc1'
input_dft = 'BEEF-VDW'
nosym = .true.
nspin = 1
ntyp = 6
nat = 34
/
&ELECTRONS
electron_maxstep = 200
mixing_beta = 0.1
conv_thr = 1e-06
/
&IONS
ion_dynamics = 'bfgs'
upscale = 1.0
/
&CELL
/

K_POINTS {automatic}
9 6 2 0  0  0

ATOMIC_SPECIES
Al 26.98 Al.pbe-nl-rrkjus_psl.1.0.0.UPF
C 12.01 C.pbe-n-rrkjus_psl.1.0.0.UPF
Li 6.941 Li.pbe-sl-rrkjus_psl.1.0.0.UPF
Mg 24.30 Mg.pbe-spnl-rrkjus_psl.1.0.0.UPF
O 15.99 O.pbe-n-rrkjus_psl.1.0.0.UPF
Pt 195.0 Pt.pbe-n-rrkjus_psl.1.0.0.UPF


CELL_PARAMETERS {angstrom}
6.24880000 0.00000000 0.00000000
-0.00000000 8.83714000 0.00000000
0.00000000 0.00000000 26.62790000

ATOMIC_POSITIONS {angstrom}
Li 1.56220000 0.00000000 -1.1045252900000015 0 0 0
Li 1.56220000 4.41857000 -1.1045252900000015 0 0 0
Li 4.68660000 2.20928500 -3.3138421499999993 0 0 0
Li 4.68660000 6.62785500 -3.3138421499999993 0 0 0
Li 1.71285857 4.41857000 3.53991303
Li 1.68567629 -0.00000000 3.41848980
Li 4.73671538 6.61672020 1.05126949
Li 4.73671538 2.22050817 1.05126949
Mg 0.00000000 2.20928500 -1.1045252900000015 0 0 0
Mg 0.00000000 6.62785500 -1.1045252900000015 0 0 0
Mg 3.12440000 4.41857000 -3.3138421499999993 0 0 0
Mg 3.12440000 0.00000000 -3.3138421499999993 0 0 0
Mg 6.16087938 6.62723640 3.47174560
Mg 6.16087938 2.20981523 3.47174560
Mg 3.07272242 -0.00000000 1.02384275
Mg 3.07147266 4.41857000 1.05020438
Al 0.00000000 0.00000000 -3.3138421499999993 0 0 0
Al 0.00000000 4.41857000 -3.3138421499999993 0 0 0
Al 3.12440000 6.62785500 -1.1045252900000015 0 0 0
Al 3.12440000 2.20928500 -1.1045252900000015 0 0 0
Al 0.01574698 4.41857000 1.16710086
Al 0.00443665 0.00000000 1.13381598
Al 3.26662269 2.21626634 3.22517125
Al 3.26662269 6.62087366 3.22517125
Pt 4.68660000 0.00000000 -1.1045252900000015 0 0 0
Pt 4.68660000 4.41857000 -1.1045252900000015 0 0 0
Pt 1.56220000 2.20928500 -3.3138421499999993 0 0 0
Pt 1.56220000 6.62785500 -3.3138421499999993 0 0 0
Pt 4.60892742 4.41857000 3.13969569
Pt 4.59680474 -0.00000000 3.09096663
Pt 1.52002060 6.63404100 1.16976365
Pt 1.52002060 2.20309900 1.16976365
C 1.45478313 8.83705163 5.43794974
O 1.45722016 8.83705163 6.58454711
