&CONTROL
calculation = 'relax'
prefix = 'scf'
pseudo_dir = '/vol0403/data/hp230205/u10028/POT_HYBRID_KKJUS_GBRV'
outdir = './data'
tprnfor = .true.
nstep = 50
disk_io = 'non'
/
&SYSTEM
ibrav = 0
ecutwfc = 50.0
ecutrho = 400
occupations = 'smearing'
smearing = 'mp'
degauss = 0.01
assume_isolated = 'esm'
esm_bc = 'bc1'
input_dft = 'BEEF-VDW'
nosym = .true.
nspin = 1
ntyp = 6
nat = 18
/
&ELECTRONS
electron_maxstep = 200
mixing_beta = 0.1
conv_thr = 1e-06
/
&IONS
ion_dynamics = 'bfgs'
upscale = 1.0
/
&CELL
/

K_POINTS {automatic}
8 8 1 0 0 0

ATOMIC_SPECIES
Ag 107.8 Ag.pbe-n-rrkjus_psl.1.0.0.UPF
C 12.01 C.pbe-n-rrkjus_psl.1.0.0.UPF
Li 6.941 Li.pbe-sl-rrkjus_psl.1.0.0.UPF
Mg 24.30 Mg.pbe-spnl-rrkjus_psl.1.0.0.UPF
O 15.99 O.pbe-n-rrkjus_psl.1.0.0.UPF
Sn 118.7 Sn.pbe-dn-rrkjus_psl.1.0.0.UPF


CELL_PARAMETERS {angstrom}
6.75899000 0.00000000 0.00000000
0.00000000 6.75899000 0.00000000
0.00000000 0.00000000 25.06920000

ATOMIC_POSITIONS {angstrom}
Li 5.06924250 1.68974750 -0.84483204 0 0 0
Li 5.06876937 5.05896884 2.59140320
Li 1.70015634 1.69008545 2.59140320
Li 1.68974750 5.06924250 -0.84483204 0 0 0
Mg 1.68974750 1.68974750 -0.84483204 0 0 0
Mg 1.69880455 5.06018545 2.73805802
Mg 5.06917491 1.68974750 2.55831186
Mg 5.06924250 5.06924250 -0.84483204 0 0 0
Ag 0.00000000 0.00000000 -2.53449612 0 0 0
Ag 0.00669140 3.38476701 0.84357858
Ag 3.37422299 6.75229860 0.84357858
Ag 3.37949500 3.37949500 -2.53449612 0 0 0
Sn 0.00000000 3.37949500 -2.53449612 0 0 0
Sn 0.03899937 6.71999063 1.08449359
Sn 3.34137430 3.41754811 1.07697283
Sn 3.37949500 0.00000000 -2.53449612 0 0 0
C 5.05687355 1.70204886 4.75462447
O 5.05193949 1.70705051 5.90655421
