&CONTROL
calculation = 'relax'
prefix = 'scf'
pseudo_dir = '/vol0403/data/hp230205/u10028/POT_HYBRID_KKJUS_GBRV'
outdir = './data'
tprnfor = .true.
nstep = 50
disk_io = 'non'
/
&SYSTEM
ibrav = 0
ecutwfc = 50.0
ecutrho = 400
occupations = 'smearing'
smearing = 'mp'
degauss = 0.01
assume_isolated = 'esm'
esm_bc = 'bc1'
input_dft = 'BEEF-VDW'
nosym = .true.
nspin = 1
ntyp = 6
nat = 34
/
&ELECTRONS
electron_maxstep = 200
mixing_beta = 0.1
conv_thr = 1e-06
/
&IONS
ion_dynamics = 'bfgs'
upscale = 1.0
/
&CELL
/

K_POINTS {automatic}
6 6 1 0 0 0

ATOMIC_SPECIES
C 12.01 C.pbe-n-rrkjus_psl.1.0.0.UPF
Cu 63.54 Cu.pbe-dn-rrkjus_psl.1.0.0.UPF
In 114.8 In.pbe-dn-rrkjus_psl.1.0.0.UPF
Li 6.941 Li.pbe-sl-rrkjus_psl.1.0.0.UPF
O 15.99 O.pbe-n-rrkjus_psl.1.0.0.UPF
Y 88.90 Y.pbe-spn-rrkjus_psl.1.0.0.UPF


CELL_PARAMETERS {angstrom}
6.68415000 0.00000000 0.00000000
0.00000000 9.45282000 0.00000000
0.00000000 0.00000000 27.08960000

ATOMIC_POSITIONS {angstrom}
Li 0.00000000 2.36320500 -1.1816483499999997 0 0 0
Li 0.00000000 7.08961500 -1.1816483499999997 0 0 0
Li 3.34207500 4.72641000 -3.5446741599999996 0 0 0
Li 3.34207500 0.00000000 -3.5446741599999996 0 0 0
Li 1.15355061 7.08970953 4.95224978
Li 1.11371307 2.36348858 5.02512080
Li 3.43899517 0.00680603 1.29867542
Li 3.43899517 4.71960397 1.29867542
Y 5.01311250 0.00000000 -1.1816483499999997 0 0 0
Y 5.01311250 4.72641000 -1.1816483499999997 0 0 0
Y 1.67103750 2.36320500 -3.5446741599999996 0 0 0
Y 1.67103750 7.08961500 -3.5446741599999996 0 0 0
Y 5.32793596 4.66553384 3.69475054
Y 5.32793596 0.06021446 3.69447965
Y 1.60800597 7.08961500 1.30490603
Y 1.59082770 2.36320500 1.24774698
In 1.67103750 0.00000000 -1.1816483499999997 0 0 0
In 1.67103750 4.72641000 -1.1816483499999997 0 0 0
In 5.01311250 2.36320500 -3.5446741599999996 0 0 0
In 5.01311250 7.08961500 -3.5446741599999996 0 0 0
In 1.85271270 4.74503206 3.57961974
In 1.85257901 9.43438700 3.57961974
In 5.04459485 7.08961500 1.20792526
In 5.00348732 2.36320500 1.17297968
Cu 0.00000000 0.00000000 -3.5446741599999996 0 0 0
Cu 0.00000000 4.72641000 -3.5446741599999996 0 0 0
Cu 3.34207500 7.08961500 -1.1816483499999997 0 0 0
Cu 3.34207500 2.36320500 -1.1816483499999997 0 0 0
Cu 6.65420501 4.71468850 1.16729086
Cu 6.65427185 0.01172150 1.16729086
Cu 3.31954941 2.36320500 3.45256952
Cu 3.50830981 7.08952047 3.46367626
C 4.79300344 2.36292142 4.55213638
O 5.95978866 2.36443387 5.04381262
