&CONTROL
calculation = 'relax'
prefix = 'scf'
pseudo_dir = '/vol0004/mdt0/data/hp150275/u10028/POT_HYBRID_KKJUS_GBRV'
outdir = './data'
tprnfor = .true.
nstep = 50
disk_io = 'non'
/
&SYSTEM
ibrav = 0
ecutwfc = 50.0
ecutrho = 400
occupations = 'smearing'
smearing = 'mp'
degauss = 0.01
assume_isolated = 'esm'
esm_bc = 'bc1'
input_dft = 'BEEF-VDW'
nosym = .true.
nspin = 2
ntyp = 5
nat = 34
starting_magnetization(1) = 0.0
starting_magnetization(2) = 0.1
starting_magnetization(3) = 0.0
starting_magnetization(4) = 0.0
starting_magnetization(5) = 0.0
/
&ELECTRONS
electron_maxstep = 200
mixing_beta = 0.1
conv_thr = 1e-06
/
&IONS
ion_dynamics = 'bfgs'
upscale = 1.0
/
&CELL
/

K_POINTS {automatic}
9 6 2 0  0  0

ATOMIC_SPECIES
C 12.01 C.pbe-n-rrkjus_psl.1.0.0.UPF
Co 58.93 co_pbe_v1.2.uspp.F.UPF
O 15.99 O.pbe-n-rrkjus_psl.1.0.0.UPF
Sc 44.95 Sc.pbe-spn-rrkjus_psl.1.0.0.UPF
Sn 118.7 Sn.pbe-dn-rrkjus_psl.1.0.0.UPF

CELL_PARAMETERS {angstrom}
6.22913000 0.00000000 0.00000000
0.00000000 8.80931000 0.00000000
0.00000000 0.00000000 26.60700000

ATOMIC_POSITIONS {angstrom}
Sc 0.00000000 0.00000000 23.30347488
Sc 3.11456500 2.20232750 25.50573627
Sc 3.11456500 6.60698250 25.50573627
Sc 0.00000000 4.40465500 23.30347488
Sc 6.22906771 4.47786037 1.08130848
Sc 3.11462729 6.60671822 3.38946573
Sc 3.11462729 2.20259178 3.35939982
Sc 0.00000000 8.73610463 1.08104241
Co 1.55728250 0.00000000 25.50573627
Co 4.67184750 4.40465500 25.50573627
Co 4.67184750 0.00000000 25.50573627
Co 1.55728250 4.40465500 25.50573627
Co 4.67184750 6.60698250 23.30347488
Co 1.55728250 2.20232750 23.30347488
Co 1.55728250 6.60698250 23.30347488
Co 4.67184750 2.20232750 23.30347488
Co 1.44808585 4.41778087 3.07364064
Co 4.78091957 8.79618413 3.07364064
Co 4.78104415 4.41778087 3.07364064
Co 1.44821043 8.79618413 3.07364064
Co 4.55517590 2.20197513 1.02117666
Co 1.59347375 6.60724678 1.14410100
Co 1.67395410 2.20206322 1.02144273
Co 4.63565625 6.60733487 1.14410100
Sn 0.00000000 6.60698250 25.50573627
Sn 3.11456500 0.00000000 23.30347488
Sn 0.00000000 2.20232750 25.50573627
Sn 3.11456500 4.40465500 23.30347488
Sn 0.00000000 2.20215131 3.12446001
Sn 3.11456500 4.42500451 1.12441182
Sn 0.00006229 6.60715869 3.51478470
Sn 3.11456500 8.78896049 1.12441182
C 0.00000000 2.20232750 5.71784430
O 0.00000000 2.20232750 6.84970608
