&CONTROL
calculation = 'relax'
prefix = 'scf'
pseudo_dir = '/vol0004/mdt0/data/hp150275/u10028/POT_HYBRID_KKJUS_GBRV'
outdir = './data'
tprnfor = .true.
nstep = 50
disk_io = 'non'
/
&SYSTEM
ibrav = 0
ecutwfc = 50.0
ecutrho = 400
occupations = 'smearing'
smearing = 'mp'
degauss = 0.01
assume_isolated = 'esm'
esm_bc = 'bc1'
input_dft = 'BEEF-VDW'
nosym = .true.
nspin = 2
ntyp = 4
nat = 33
starting_magnetization(1) = 0.0
starting_magnetization(2) = 0.1
starting_magnetization(3) = 0.0
starting_magnetization(4) = 0.0
/
&ELECTRONS
electron_maxstep = 200
mixing_beta = 0.1
conv_thr = 1e-06
/
&IONS
ion_dynamics = 'bfgs'
upscale = 1.0
/
&CELL
/

K_POINTS {automatic}
9 6 2 0  0  0

ATOMIC_SPECIES
C 12.01 C.pbe-n-rrkjus_psl.1.0.0.UPF
Fe 55.84 fe_pbe_v1.5.uspp.F.UPF
Si 28.08 Si.pbe-nl-rrkjus_psl.1.0.0.UPF
V 50.94 V.pbe-spnl-rrkjus_psl.1.0.0.UPF

CELL_PARAMETERS {angstrom}
5.64262000 0.00000000 0.00000000
0.00000000 7.97986000 0.00000000
0.00000000 0.00000000 25.98490000

ATOMIC_POSITIONS {angstrom}
V 0.00000000 0.00000000 22.99247892
V 2.82131000 1.99496500 24.98733969
V 2.82131000 5.98489500 24.98733969
V 0.00000000 3.98993000 22.99247892
V 0.00203134 3.99208456 1.02770279
V 2.82390561 5.98489500 2.99813776
V 2.98144756 1.99496500 2.95292404
V 0.00203134 7.97770544 1.02770279
Fe 1.41065500 0.00000000 24.98733969
Fe 4.23196500 3.98993000 24.98733969
Fe 4.23196500 0.00000000 24.98733969
Fe 1.41065500 3.98993000 24.98733969
Fe 4.23196500 5.98489500 22.99247892
Fe 1.41065500 1.99496500 22.99247892
Fe 1.41065500 5.98489500 22.99247892
Fe 4.23196500 1.99496500 22.99247892
Fe 1.39158294 3.97620464 2.99216124
Fe 4.24347594 7.95943156 2.96123920
Fe 4.24347594 4.01035844 2.96123920
Fe 1.39158294 0.01372536 2.99216124
Fe 4.23975182 1.99496500 0.95078749
Fe 1.41471769 5.98489500 0.99418227
Fe 1.41003431 1.99496500 0.96066175
Fe 4.22711235 5.98489500 0.99132394
Si 0.00000000 5.98489500 24.98733969
Si 2.82131000 0.00000000 22.99247892
Si 0.00000000 1.99496500 24.98733969
Si 2.82131000 3.98993000 22.99247892
Si 5.50166735 1.99496500 2.95422328
Si 2.81961721 3.98793504 1.01185201
Si 5.64120935 5.98489500 3.00463399
Si 2.81961721 0.00199497 1.01185201
C 1.39920048 1.99496500 3.92709794
