&CONTROL
calculation = 'relax'
prefix = 'scf'
pseudo_dir = '/vol0004/mdt0/data/hp150275/u10028/POT_KKJUS'
outdir = './data'
tprnfor = .true.
nstep = 50
disk_io = 'non'
/
&SYSTEM
ibrav = 0
ecutwfc = 50.0
ecutrho = 400
occupations = 'smearing'
smearing = 'mp'
degauss = 0.01
assume_isolated = 'esm'
esm_bc = 'bc1'
input_dft = 'BEEF-VDW'
nosym = .true.
nspin = 1
ntyp = 2
nat = 32
/
&ELECTRONS
electron_maxstep = 200
mixing_beta = 0.1
conv_thr = 1e-06
/
&IONS
ion_dynamics = 'bfgs'
upscale = 1.0
/
&CELL
/

K_POINTS {automatic}
9 6 2 0  0  0

ATOMIC_SPECIES
Be 9.012 Be.pbe-n-rrkjus_psl.1.0.0.UPF
Ni 58.69 Ni.pbe-spn-rrkjus_psl.1.0.0.UPF

CELL_PARAMETERS {angstrom}
5.23991000 0.00000000 0.00000000
0.00000000 7.41035000 0.00000000
0.00000000 0.00000000 25.55780000

ATOMIC_POSITIONS {angstrom}
Be 0.00000000 0.00000000 -2.7788995900000018 0 0 0
Be 0.00000000 1.85258750 -0.9262146700000002 0 0 0
Be 0.00000000 7.41027590 0.93490432
Be 0.00026200 1.85243929 2.79397870
Be 0.00000000 3.70517500 -2.7788995900000018 0 0 0
Be 0.00000000 5.55776250 -0.9262146700000002 0 0 0
Be 0.00010480 3.70539731 0.93260412
Be 0.00026200 5.55739198 2.79372312
Be 2.61995500 0.00000000 -2.7788995900000018 0 0 0
Be 2.61995500 1.85258750 -0.9262146700000002 0 0 0
Be 2.62016460 0.00022231 0.93515990
Be 2.61964061 1.85206878 2.79423427
Be 2.61995500 3.70517500 -2.7788995900000018 0 0 0
Be 2.61995500 5.55776250 -0.9262146700000002 0 0 0
Be 2.62005980 3.70510090 0.93234854
Be 2.62011220 5.55776250 2.79423427
Ni 1.30997750 1.85258750 -2.7788995900000018 0 0 0
Ni 1.30997750 0.00000000 -0.9262146700000002 0 0 0
Ni 1.30982030 1.85214288 0.92391447
Ni 1.31034429 3.70532321 2.74056289
Ni 1.30997750 5.55776250 -2.7788995900000018 0 0 0
Ni 1.30997750 3.70517500 -0.9262146700000002 0 0 0
Ni 1.31113028 5.55835533 0.92314774
Ni 1.30982030 7.40997948 2.74516330
Ni 3.92993250 1.85258750 -2.7788995900000018 0 0 0
Ni 3.92993250 0.00000000 -0.9262146700000002 0 0 0
Ni 3.92956571 1.85251340 0.92493678
Ni 3.92988010 3.70473038 2.74107405
Ni 3.92993250 5.55776250 -2.7788995900000018 0 0 0
Ni 3.92993250 3.70517500 -0.9262146700000002 0 0 0
Ni 3.93003730 5.55820712 0.92493678
Ni 3.93040409 7.41005359 2.74516330
