&CONTROL
calculation = 'relax'
prefix = 'scf'
pseudo_dir = '/vol0004/mdt0/data/hp150275/u10028/POT_KKJUS'
outdir = './data'
tprnfor = .true.
nstep = 50
disk_io = 'non'
/
&SYSTEM
ibrav = 0
ecutwfc = 50.0
ecutrho = 400
occupations = 'smearing'
smearing = 'mp'
degauss = 0.01
assume_isolated = 'esm'
esm_bc = 'bc1'
input_dft = 'BEEF-VDW'
nosym = .true.
nspin = 1
ntyp = 3
nat = 16
/
&ELECTRONS
electron_maxstep = 200
mixing_beta = 0.1
conv_thr = 1e-06
/
&IONS
ion_dynamics = 'bfgs'
upscale = 1.0
/
&CELL
/

K_POINTS {automatic}
10 10 2 0  0  0

ATOMIC_SPECIES
Al 26.98 Al.pbe-nl-rrkjus_psl.1.0.0.UPF
Li 6.941 Li.pbe-sl-rrkjus_psl.1.0.0.UPF
Rh 102.9 Rh.pbe-spn-rrkjus_psl.1.0.0.UPF

CELL_PARAMETERS {angstrom}
6.03986000 0.00000000 0.00000000
-0.00000000 6.03986000 0.00000000
0.00000000 0.00000000 24.52990000

ATOMIC_POSITIONS {angstrom}
Li 0.00000000 0.00000000 2.26484567
Li 3.01993000 3.01993000 2.26484567
Li 3.01993000 0.00000000 -0.755030320000003 0 0 0
Li 0.00000000 3.01993000 -0.755030320000003 0 0 0
Al 1.50996500 1.50996500 0.75503032
Al 4.52989500 4.52989500 -2.2648456699999997 0 0 0
Al 4.52989500 1.50996500 0.75503032
Al 1.50996500 4.52989500 -2.2648456699999997 0 0 0
Al 4.52989500 4.52989500 0.75503032
Al 1.50996500 1.50996500 -2.2648456699999997 0 0 0
Al 1.50996500 4.52989500 0.75503032
Al 4.52989500 1.50996500 -2.2648456699999997 0 0 0
Rh 0.00000000 0.00000000 -0.755030320000003 0 0 0
Rh 3.01993000 -0.00000000 2.26484567
Rh 0.00000000 3.01993000 2.26484567
Rh 3.01993000 3.01993000 -0.755030320000003 0 0 0
