&CONTROL
calculation = 'relax'
prefix = 'scf'
pseudo_dir = '/vol0403/data/hp230205/u10028/POT_HYBRID_KKJUS_GBRV'
outdir = './data'
tprnfor = .true.
nstep = 70
disk_io = 'non'
/
&SYSTEM
ibrav = 0
ecutwfc = 50.0
ecutrho = 400
occupations = 'smearing'
smearing = 'mp'
degauss = 0.01
assume_isolated = 'esm'
esm_bc = 'bc1'
input_dft = 'BEEF-VDW'
nosym = .true.
nspin = 1
ntyp = 5
nat = 17
/
&ELECTRONS
electron_maxstep = 200
mixing_beta = 0.1
conv_thr = 1e-06
/
&IONS
ion_dynamics = 'bfgs'
upscale = 1.0
/
&CELL
/

K_POINTS {automatic}
12 7 2 0  0  0

ATOMIC_SPECIES
C 12.01 C.pbe-n-rrkjus_psl.1.0.0.UPF
Ge 72.64 Ge.pbe-dn-rrkjus_psl.1.0.0.UPF
Pd 106.4 Pd.pbe-n-rrkjus_psl.1.0.0.UPF
Sn 118.7 Sn.pbe-dn-rrkjus_psl.1.0.0.UPF
Y 88.90 Y.pbe-spn-rrkjus_psl.1.0.0.UPF


CELL_PARAMETERS {angstrom}
5.93056000 0.00000000 0.00000000
-0.00000000 9.60308000 0.00000000
0.00000000 0.00000000 24.43880000

ATOMIC_POSITIONS {angstrom}
Y 2.96528000 0.00000000 -2.2192874300000014 0 0 0
Y 5.50694010 0.00019206 0.79792682
Y 2.96528000 4.80154000 -2.2192874300000014 0 0 0
Y 5.36223444 4.80154000 0.79768243
Sn 1.38786965 2.40077000 -0.7397624799999996 0 0 0
Sn 3.86352262 2.27016811 2.18800576
Sn 1.38786965 7.20231000 -0.7397624799999996 0 0 0
Sn 3.86411567 7.33291189 2.18825015
Ge 0.00000000 0.00000000 -2.2192874300000014 0 0 0
Ge 1.79915399 9.60298397 2.77478135
Ge 0.00000000 4.80154000 -2.2192874300000014 0 0 0
Ge 2.39653930 4.80221222 1.16353127
Pd 4.35314965 2.40077000 -0.7397624799999996 0 0 0
Pd 1.00635673 2.37138458 1.94312899
Pd 4.35314965 7.20231000 -0.7397624799999996 0 0 0
Pd 1.00683117 7.23179146 1.94337338
C 3.57766963 9.60298397 2.08414086
