&CONTROL
calculation = 'relax'
prefix = 'scf'
pseudo_dir = '/vol0004/mdt0/data/hp150275/u10028/POT_HYBRID_KKJUS_GBRV'
outdir = './data'
tprnfor = .true.
nstep = 70
disk_io = 'non'
/
&SYSTEM
ibrav = 0
ecutwfc = 50.0
ecutrho = 400
occupations = 'smearing'
smearing = 'mp'
degauss = 0.01
assume_isolated = 'esm'
esm_bc = 'bc1'
input_dft = 'BEEF-VDW'
nosym = .true.
nspin = 1
ntyp = 4
nat = 34
/
&ELECTRONS
electron_maxstep = 200
mixing_beta = 0.1
conv_thr = 1e-06
/
&IONS
ion_dynamics = 'bfgs'
upscale = 1.0
/
&CELL
/

K_POINTS {automatic}
6 8 1 0 0 0

ATOMIC_SPECIES
Au 196.9 Au.pbe-n-rrkjus_psl.1.0.0.UPF
C 12.01 C.pbe-n-rrkjus_psl.1.0.0.UPF
Cu 63.54 Cu.pbe-dn-rrkjus_psl.1.0.0.UPF
O 15.99 O.pbe-n-rrkjus_psl.1.0.0.UPF

CELL_PARAMETERS {angstrom}
8.22139000 0.00000000 0.00000000
-0.00000000 7.29474000 0.00000000
0.00000000 0.00000000 26.16600000

ATOMIC_POSITIONS {angstrom}
Cu 2.05534750 1.82368500 -3.0831397799999998 0 0 0
Cu 0.00000000 1.82368500 -1.0278004799999998 0 0 0
Cu 2.05534750 1.82368500 1.02780048
Cu 0.00000000 1.82368500 3.08313978
Cu 2.05534750 5.47105500 -3.0831397799999998 0 0 0
Cu 0.00000000 5.47105500 -1.0278004799999998 0 0 0
Cu 2.05534750 5.47105500 1.02780048
Cu 0.00000000 5.47105500 3.08313978
Cu 6.16604250 1.82368500 -3.0831397799999998 0 0 0
Cu 4.11069500 1.82368500 -1.0278004799999998 0 0 0
Cu 6.16604250 1.82368500 1.02780048
Cu 4.11069500 1.82368500 3.08313978
Cu 6.16604250 5.47105500 -3.0831397799999998 0 0 0
Cu 4.11069500 5.47105500 -1.0278004799999998 0 0 0
Cu 6.16604250 5.47105500 1.02780048
Cu 4.11069500 5.47105500 3.08313978
Au 0.00000000 0.00000000 -3.0831397799999998 0 0 0
Au 2.05534750 0.00000000 -1.0278004799999998 0 0 0
Au 0.00000000 0.00000000 1.02780048
Au 2.05534750 -0.00000000 3.08313978
Au 0.00000000 3.64737000 -3.0831397799999998 0 0 0
Au 2.05534750 3.64737000 -1.0278004799999998 0 0 0
Au 0.00000000 3.64737000 1.02780048
Au 2.05534750 3.64737000 3.08313978
Au 4.11069500 0.00000000 -3.0831397799999998 0 0 0
Au 6.16604250 0.00000000 -1.0278004799999998 0 0 0
Au 4.11069500 -0.00000000 1.02780048
Au 6.16604250 -0.00000000 3.08313978
Au 4.11069500 3.64737000 -3.0831397799999998 0 0 0
Au 6.16604250 3.64737000 -1.0278004799999998 0 0 0
Au 4.11069500 3.64737000 1.02780048
Au 6.16604250 3.64737000 3.08313978
C 0.00000000 1.82368500 4.98305304
O 0.00000000 1.82368500 6.13304874
