&CONTROL
calculation = 'relax'
prefix = 'scf'
pseudo_dir = '/vol0004/mdt0/data/hp150275/u10028/POT_KKJUS'
outdir = './data'
tprnfor = .true.
nstep = 50
disk_io = 'non'
/
&SYSTEM
ibrav = 0
ecutwfc = 50.0
ecutrho = 400
occupations = 'smearing'
smearing = 'mp'
degauss = 0.01
assume_isolated = 'esm'
esm_bc = 'bc1'
input_dft = 'BEEF-VDW'
nosym = .true.
nspin = 1
ntyp = 5
nat = 18
/
&ELECTRONS
electron_maxstep = 200
mixing_beta = 0.1
conv_thr = 1e-06
/
&IONS
ion_dynamics = 'bfgs'
upscale = 1.0
/
&CELL
/

K_POINTS {automatic}
8 8 1 0 0 0

ATOMIC_SPECIES
Al 26.98 Al.pbe-nl-rrkjus_psl.1.0.0.UPF
C 12.01 C.pbe-n-rrkjus_psl.1.0.0.UPF
Li 6.941 Li.pbe-sl-rrkjus_psl.1.0.0.UPF
O 15.99 O.pbe-n-rrkjus_psl.1.0.0.UPF
Pd 106.4 Pd.pbe-n-rrkjus_psl.1.0.0.UPF

CELL_PARAMETERS {angstrom}
6.13337000 0.00000000 0.00000000
0.00000000 6.13337000 0.00000000
0.00000000 0.00000000 24.60000000

ATOMIC_POSITIONS {angstrom}
Li 0.00870939 6.12459928 0.82237800
Li 3.06668500 0.00000000 -2.3001000000000005 0 0 0
Li 0.00000000 3.06668500 -2.3001000000000005 0 0 0
Li 3.06778901 3.06576499 0.81770400
Li 1.53334250 1.53334250 -0.7667820000000027 0 0 0
Li 1.53720652 4.59622481 2.71608600
Li 4.60002750 4.60002750 -0.7667820000000027 0 0 0
Li 4.60493420 1.52843580 2.72149800
Al 0.00000000 0.00000000 -2.3001000000000005 0 0 0
Al 3.06668500 3.06668500 -2.3001000000000005 0 0 0
Al 3.06742100 0.00018400 0.79433400
Al 6.13257266 3.06656233 0.79433400
Pd 1.53309717 1.53475318 2.12519400
Pd 1.53334250 4.60002750 -0.7667820000000027 0 0 0
Pd 4.59861682 4.60027283 2.12519400
Pd 4.60002750 1.53334250 -0.7667820000000027 0 0 0
C 4.60481153 1.52855847 4.83242400
O 4.60241951 1.53095049 5.97238800
