&CONTROL
calculation = 'relax'
prefix = 'scf'
pseudo_dir = '/vol0004/mdt0/data/hp150275/u10028/POT_KKJUS'
outdir = './data'
tprnfor = .true.
nstep = 50
disk_io = 'non'
/
&SYSTEM
ibrav = 0
ecutwfc = 50.0
ecutrho = 400
occupations = 'smearing'
smearing = 'mp'
degauss = 0.01
assume_isolated = 'esm'
esm_bc = 'bc1'
input_dft = 'BEEF-VDW'
nosym = .true.
nspin = 1
ntyp = 3
nat = 16
/
&ELECTRONS
electron_maxstep = 200
mixing_beta = 0.1
conv_thr = 1e-06
/
&IONS
ion_dynamics = 'bfgs'
upscale = 1.0
/
&CELL
/

K_POINTS {automatic}
8 8 1 0 0 0

ATOMIC_SPECIES
Ag 107.8 Ag.pbe-n-rrkjus_psl.1.0.0.UPF
In 114.8 In.pbe-dn-rrkjus_psl.1.0.0.UPF
Mg 24.30 Mg.pbe-spnl-rrkjus_psl.1.0.0.UPF

CELL_PARAMETERS {angstrom}
6.85111000 0.00000000 0.00000000
0.00000000 6.85111000 0.00000000
0.00000000 0.00000000 25.13830000

ATOMIC_POSITIONS {angstrom}
Mg 6.85090447 6.85021936 2.45148702
Mg 3.42678820 3.42699373 2.45576053
Mg 3.42555500 0.00000000 -0.8564618800000012 0 0 0
Mg 0.00000000 3.42555500 -0.8564618800000012 0 0 0
In 0.00000000 0.00000000 -0.8564618800000012 0 0 0
In 3.42856949 6.84857509 2.86300099
In 6.85090447 3.42802140 2.89065312
In 3.42555500 3.42555500 -0.8564618800000012 0 0 0
Ag 1.71168132 1.71517539 0.94746253
Ag 5.13833250 5.13833250 -2.569134260000002 0 0 0
Ag 5.13264608 1.71414772 0.95223880
Ag 1.71277750 5.13833250 -2.569134260000002 0 0 0
Ag 5.13415332 5.13367375 0.95500402
Ag 1.71277750 1.71277750 -2.569134260000002 0 0 0
Ag 1.71976563 5.13730483 0.95274157
Ag 5.13833250 1.71277750 -2.569134260000002 0 0 0
