&CONTROL
calculation = 'relax'
prefix = 'scf'
pseudo_dir = '/vol0004/mdt0/data/hp150275/u10028/POT_HYBRID_KKJUS_GBRV'
outdir = './data'
tprnfor = .true.
nstep = 50
disk_io = 'non'
/
&SYSTEM
ibrav = 0
ecutwfc = 50.0
ecutrho = 400
occupations = 'smearing'
smearing = 'mp'
degauss = 0.01
assume_isolated = 'esm'
esm_bc = 'bc1'
input_dft = 'BEEF-VDW'
nosym = .true.
nspin = 2
ntyp = 4
nat = 33
starting_magnetization(1) = 0.0
starting_magnetization(2) = 0.001
starting_magnetization(3) = 0.0
starting_magnetization(4) = 0.0
/
&ELECTRONS
electron_maxstep = 300
mixing_beta = 0.1
conv_thr = 1e-06
/
&IONS
ion_dynamics = 'bfgs'
upscale = 1.0
/
&CELL
/

K_POINTS {automatic}
9 6 2 0  0  0

ATOMIC_SPECIES
C 12.01 C.pbe-n-rrkjus_psl.1.0.0.UPF
Ni 58.69 ni_pbe_v1.4.uspp.F.UPF
Sn 118.7 Sn.pbe-dn-rrkjus_psl.1.0.0.UPF
Zr 91.22 Zr.pbe-spn-rrkjus_psl.1.0.0.UPF

CELL_PARAMETERS {angstrom}
6.34024000 0.00000000 0.00000000
0.00000000 8.96645000 0.00000000
0.00000000 0.00000000 26.72480000

ATOMIC_POSITIONS {angstrom}
Zr 0.00000000 0.00000000 -3.362514339999997 0 0 0
Zr 3.17012000 2.24161250 -1.1208381099999976 0 0 0
Zr 3.17012000 6.72483750 -1.1208381099999976 0 0 0
Zr 0.00000000 4.48322500 -3.362514339999997 0 0 0
Zr 6.27797884 4.53989296 1.08930285
Zr 3.11673518 6.72492716 3.34968643
Zr 3.40432847 2.24161250 3.19388085
Zr 6.27804225 8.90978204 1.08930285
Ni 1.58506000 0.00000000 -1.1208381099999976 0 0 0
Ni 4.75518000 4.48322500 -1.1208381099999976 0 0 0
Ni 4.75518000 0.00000000 -1.1208381099999976 0 0 0
Ni 1.58506000 4.48322500 -1.1208381099999976 0 0 0
Ni 4.75518000 6.72483750 -3.362514339999997 0 0 0
Ni 1.58506000 2.24161250 -3.362514339999997 0 0 0
Ni 1.58506000 6.72483750 -3.362514339999997 0 0 0
Ni 4.75518000 2.24161250 -3.362514339999997 0 0 0
Ni 1.18365941 4.18249027 3.29490059
Ni 4.78288685 8.87678550 3.21820042
Ni 4.78288685 4.57297916 3.21820042
Ni 1.18353260 0.30109339 3.29516784
Ni 4.82650770 2.24161250 1.03131003
Ni 1.69772606 6.72474784 1.13072629
Ni 1.23831227 2.24170216 1.47146749
Ni 4.60574054 6.72483750 1.24591018
Sn 0.00000000 6.72483750 -1.1208381099999976 0 0 0
Sn 3.17012000 0.00000000 -3.362514339999997 0 0 0
Sn 0.00000000 2.24161250 -1.1208381099999976 0 0 0
Sn 3.17012000 4.48322500 -3.362514339999997 0 0 0
Sn 5.89655000 2.24170216 4.72868611
Sn 3.09758765 4.43794443 1.11522590
Sn 0.06505086 6.72492716 3.53194957
Sn 3.09758765 0.04519091 1.11522590
C 1.34356026 2.24188149 3.49907806
