&CONTROL
calculation = 'relax'
prefix = 'scf'
pseudo_dir = '/vol0004/mdt0/data/hp150275/u10028/POT_KKJUS'
outdir = './data'
tprnfor = .true.
nstep = 50
disk_io = 'non'
/
&SYSTEM
ibrav = 0
ecutwfc = 50.0
ecutrho = 400
occupations = 'smearing'
smearing = 'mp'
degauss = 0.01
assume_isolated = 'esm'
esm_bc = 'bc1'
input_dft = 'BEEF-VDW'
nosym = .true.
nspin = 1
ntyp = 4
nat = 33
/
&ELECTRONS
electron_maxstep = 200
mixing_beta = 0.1
conv_thr = 1e-06
/
&IONS
ion_dynamics = 'bfgs'
upscale = 1.0
/
&CELL
/

K_POINTS {automatic}
8 6 1 0 0 0

ATOMIC_SPECIES
Au 196.9 Au.pbe-n-rrkjus_psl.1.0.0.UPF
C 12.01 C.pbe-n-rrkjus_psl.1.0.0.UPF
In 114.8 In.pbe-dn-rrkjus_psl.1.0.0.UPF
Ti 47.86 Ti.pbe-spn-rrkjus_psl.1.0.0.UPF

CELL_PARAMETERS {angstrom}
6.72102000 0.00000000 0.00000000
0.00000000 9.50495000 0.00000000
0.00000000 0.00000000 27.12870000

ATOMIC_POSITIONS {angstrom}
Ti 0.00000000 0.00000000 -3.564439889999999 0 0 0
Ti 3.36051000 2.37623750 -1.1882370599999987 0 0 0
Ti 3.36051000 7.12871250 -1.1882370599999987 0 0 0
Ti 0.00000000 4.75247500 -3.564439889999999 0 0 0
Ti 0.00000000 4.75237995 1.26935187
Ti 3.36051000 7.47288674 3.30970140
Ti 3.36051000 2.03196821 3.31051526
Ti 0.00000000 9.50485495 1.25605881
In 0.00000000 7.12871250 -1.1882370599999987 0 0 0
In 3.36051000 0.00000000 -3.564439889999999 0 0 0
In 0.00000000 2.37623750 -1.1882370599999987 0 0 0
In 3.36051000 4.75247500 -3.564439889999999 0 0 0
In 0.00000000 2.60007907 3.93393279
In 3.36051000 4.75257005 1.11444700
In 0.00000000 6.90544122 3.93556051
In 3.36051000 0.00009505 1.10739353
Au 1.68025500 0.00000000 -1.1882370599999987 0 0 0
Au 5.04076500 4.75247500 -1.1882370599999987 0 0 0
Au 5.04076500 0.00000000 -1.1882370599999987 0 0 0
Au 1.68025500 4.75247500 -1.1882370599999987 0 0 0
Au 5.04076500 7.12871250 -3.564439889999999 0 0 0
Au 1.68025500 2.37623750 -3.564439889999999 0 0 0
Au 1.68025500 7.12871250 -3.564439889999999 0 0 0
Au 5.04076500 2.37623750 -3.564439889999999 0 0 0
Au 1.90782874 4.75209480 3.60404779
Au 5.40524591 0.00076040 4.02508522
Au 4.81312405 4.75209480 3.60404779
Au 1.31577409 0.00076040 4.02508522
Au 5.14641943 2.37043948 1.24981921
Au 1.57413009 7.13432042 1.25009050
Au 1.57460057 2.37043948 1.24981921
Au 5.14688991 7.13432042 1.24981921
C 3.36051000 9.50485495 3.53188545
