&CONTROL
calculation = 'relax'
prefix = 'scf'
pseudo_dir = '/vol0004/mdt0/data/hp150275/u10028/POT_HYBRID_KKJUS_GBRV'
outdir = './data'
tprnfor = .true.
nstep = 50
disk_io = 'non'
/
&SYSTEM
ibrav = 0
ecutwfc = 50.0
ecutrho = 400
occupations = 'smearing'
smearing = 'mp'
degauss = 0.01
assume_isolated = 'esm'
esm_bc = 'bc1'
input_dft = 'BEEF-VDW'
nosym = .true.
nspin = 2
ntyp = 4
nat = 33
starting_magnetization(1) = 0.0
starting_magnetization(2) = 0.1
starting_magnetization(3) = 0.0
starting_magnetization(4) = 0.0
/
&ELECTRONS
electron_maxstep = 300
mixing_beta = 0.1
conv_thr = 1e-06
/
&IONS
ion_dynamics = 'bfgs'
upscale = 1.0
/
&CELL
/

K_POINTS {automatic}
9 6 2 0  0  0

ATOMIC_SPECIES
C 12.01 C.pbe-n-rrkjus_psl.1.0.0.UPF
Co 58.93 co_pbe_v1.2.uspp.F.UPF
Nb 92.90 Nb.pbe-spn-rrkjus_psl.1.0.0.UPF
Sn 118.7 Sn.pbe-dn-rrkjus_psl.1.0.0.UPF

CELL_PARAMETERS {angstrom}
6.19479000 0.00000000 0.00000000
0.00000000 8.76076000 0.00000000
0.00000000 0.00000000 26.57060000

ATOMIC_POSITIONS {angstrom}
Nb 0.00000000 0.00000000 -3.2851889799999974 0 0 0
Nb 3.09739500 2.19019000 -1.0949744300000006 0 0 0
Nb 3.09739500 6.57057000 -1.0949744300000006 0 0 0
Nb 0.00000000 4.38038000 -3.2851889799999974 0 0 0
Nb 0.00309740 4.37994196 1.21799630
Nb 3.12787337 6.57065761 3.22487372
Nb 3.25412319 2.19027761 3.12895386
Nb 0.00315934 0.00035043 1.21799630
Co 1.54869750 0.00000000 -1.0949744300000006 0 0 0
Co 4.64609250 4.38038000 -1.0949744300000006 0 0 0
Co 4.64609250 0.00000000 -1.0949744300000006 0 0 0
Co 1.54869750 4.38038000 -1.0949744300000006 0 0 0
Co 4.64609250 6.57057000 -3.2851889799999974 0 0 0
Co 1.54869750 2.19019000 -3.2851889799999974 0 0 0
Co 1.54869750 6.57057000 -3.2851889799999974 0 0 0
Co 4.64609250 2.19019000 -3.2851889799999974 0 0 0
Co 1.44276659 4.04440485 3.20733713
Co 4.62775592 8.69093674 3.14436480
Co 4.62775592 4.45029086 3.14436480
Co 1.44282854 0.33597515 3.20733713
Co 4.81589169 2.19010239 1.09258307
Co 1.58264495 6.57057000 1.13695597
Co 1.50198878 2.19027761 1.09630296
Co 4.67725229 6.57057000 1.19036288
Sn 0.00000000 6.57057000 -1.0949744300000006 0 0 0
Sn 3.09739500 0.00000000 -3.2851889799999974 0 0 0
Sn 0.00000000 2.19019000 -1.0949744300000006 0 0 0
Sn 3.09739500 4.38038000 -3.2851889799999974 0 0 0
Sn 5.59389537 2.19010239 4.52045618
Sn 3.08147439 4.38073043 1.09417731
Sn 0.11701958 6.57065761 3.58623388
Sn 3.08147439 8.76049718 1.09417731
C 1.45552786 2.19010239 3.97655600
