&CONTROL
calculation = 'relax'
prefix = 'scf'
pseudo_dir = '/vol0004/mdt0/data/hp150275/u10028/POT_HYBRID_KKJUS_GBRV'
outdir = './data'
tprnfor = .true.
nstep = 50
disk_io = 'non'
/
&SYSTEM
ibrav = 0
ecutwfc = 50.0
ecutrho = 400
occupations = 'smearing'
smearing = 'mp'
degauss = 0.01
assume_isolated = 'esm'
esm_bc = 'bc1'
input_dft = 'BEEF-VDW'
nosym = .true.
nspin = 2
ntyp = 4
nat = 33
starting_magnetization(1) = 0.0
starting_magnetization(2) = 0.1
starting_magnetization(3) = 0.0
starting_magnetization(4) = 0.1
/
&ELECTRONS
electron_maxstep = 300
mixing_beta = 0.1
conv_thr = 1e-06
/
&IONS
ion_dynamics = 'bfgs'
upscale = 1.0
/
&CELL
/

K_POINTS {automatic}
8 6 1 0 0 0

ATOMIC_SPECIES
C 12.01 C.pbe-n-rrkjus_psl.1.0.0.UPF
Co 58.93 co_pbe_v1.2.uspp.F.UPF
Ga 69.72 Ga.pbe-dnl-rrkjus_psl.1.0.0.UPF
Mn 54.93 mn_pbe_v1.5.uspp.F.UPF

CELL_PARAMETERS {angstrom}
5.73361000 0.00000000 0.00000000
0.00000000 8.10855000 0.00000000
0.00000000 0.00000000 26.08140000

ATOMIC_POSITIONS {angstrom}
Mn 0.00000000 0.00000000 -3.0408304299999998 0 0 0
Mn 2.86680500 2.02713750 -1.013523199999998 0 0 0
Mn 2.86680500 6.08141250 -1.013523199999998 0 0 0
Mn 0.00000000 4.05427500 -3.0408304299999998 0 0 0
Mn 5.70700605 4.08273601 0.98587692
Mn 2.80178586 6.08133141 3.10916369
Mn 3.17108768 2.02729967 2.99075414
Mn 5.70706339 8.08008899 0.98613773
Ga 0.00000000 6.08141250 -1.013523199999998 0 0 0
Ga 2.86680500 0.00000000 -3.0408304299999998 0 0 0
Ga 0.00000000 2.02713750 -1.013523199999998 0 0 0
Ga 2.86680500 4.05427500 -3.0408304299999998 0 0 0
Ga 5.33512410 2.02738076 4.01418827
Ga 2.85522311 4.04519342 1.03282344
Ga 0.05211851 6.08108816 3.14072219
Ga 2.85516577 0.00908158 1.03282344
Co 1.43340250 0.00000000 -1.013523199999998 0 0 0
Co 4.30020750 4.05427500 -1.013523199999998 0 0 0
Co 4.30020750 0.00000000 -1.013523199999998 0 0 0
Co 1.43340250 4.05427500 -1.013523199999998 0 0 0
Co 4.30020750 6.08141250 -3.0408304299999998 0 0 0
Co 1.43340250 2.02713750 -3.0408304299999998 0 0 0
Co 1.43340250 6.08141250 -3.0408304299999998 0 0 0
Co 4.30020750 2.02713750 -3.0408304299999998 0 0 0
Co 1.25571793 3.88731996 3.02596403
Co 4.37829927 8.07538603 3.02022612
Co 4.37784058 4.08735788 3.02048693
Co 1.25537391 0.16703613 3.02570321
Co 4.36012372 2.02721859 1.01847867
Co 1.42514610 6.08141250 1.04403844
Co 1.37635308 2.02705641 1.17027242
Co 4.27331687 6.08141250 1.06099135
C 1.39567535 2.02705641 3.18819034
