&CONTROL
calculation = 'relax'
prefix = 'scf'
pseudo_dir = '/vol0004/mdt0/data/hp150275/u10028/POT_HYBRID_KKJUS_GBRV'
outdir = './data'
tprnfor = .true.
nstep = 70
disk_io = 'non'
/
&SYSTEM
ibrav = 0
ecutwfc = 50.0
ecutrho = 400
occupations = 'smearing'
smearing = 'mp'
degauss = 0.01
assume_isolated = 'esm'
esm_bc = 'bc1'
input_dft = 'BEEF-VDW'
nosym = .true.
nspin = 1
ntyp = 4
nat = 34
/
&ELECTRONS
electron_maxstep = 200
mixing_beta = 0.1
conv_thr = 1e-06
/
&IONS
ion_dynamics = 'bfgs'
upscale = 1.0
/
&CELL
/

K_POINTS {automatic}
6 8 2 0  0  0

ATOMIC_SPECIES
C 12.01 C.pbe-n-rrkjus_psl.1.0.0.UPF
O 15.99 O.pbe-n-rrkjus_psl.1.0.0.UPF
Rh 102.9 Rh.pbe-spn-rrkjus_psl.1.0.0.UPF
Ti 47.86 Ti.pbe-spn-rrkjus_psl.1.0.0.UPF

CELL_PARAMETERS {angstrom}
8.39027000 0.00000000 0.00000000
-0.00000000 6.91892000 0.00000000
0.00000000 0.00000000 26.29270000

ATOMIC_POSITIONS {angstrom}
Ti 2.09756750 1.72973000 -3.1464474100000004 0 0 0
Ti 4.19513500 1.72973000 -1.0488157999999999 0 0 0
Ti 2.09756750 1.72973000 1.04881580
Ti 0.00000000 1.72973000 3.14644741
Ti 2.09756750 5.18919000 -3.1464474100000004 0 0 0
Ti 4.19513500 5.18919000 -1.0488157999999999 0 0 0
Ti 2.09756750 5.18919000 1.04881580
Ti 0.00000000 5.18919000 3.14644741
Ti 6.29270250 1.72973000 -3.1464474100000004 0 0 0
Ti 0.00000000 1.72973000 -1.0488157999999999 0 0 0
Ti 6.29270250 1.72973000 1.04881580
Ti 4.19513500 1.72973000 3.14644741
Ti 6.29270250 5.18919000 -3.1464474100000004 0 0 0
Ti 0.00000000 5.18919000 -1.0488157999999999 0 0 0
Ti 6.29270250 5.18919000 1.04881580
Ti 4.19513500 5.18919000 3.14644741
Rh 0.00000000 0.00000000 -3.1464474100000004 0 0 0
Rh 2.09756750 0.00000000 -1.0488157999999999 0 0 0
Rh 4.19513500 -0.00000000 1.04881580
Rh 2.09756750 -0.00000000 3.14644741
Rh 0.00000000 3.45946000 -3.1464474100000004 0 0 0
Rh 2.09756750 3.45946000 -1.0488157999999999 0 0 0
Rh 4.19513500 3.45946000 1.04881580
Rh 2.09756750 3.45946000 3.14644741
Rh 4.19513500 0.00000000 -3.1464474100000004 0 0 0
Rh 6.29270250 0.00000000 -1.0488157999999999 0 0 0
Rh 0.00000000 0.00000000 1.04881580
Rh 6.29270250 -0.00000000 3.14644741
Rh 4.19513500 3.45946000 -3.1464474100000004 0 0 0
Rh 6.29270250 3.45946000 -1.0488157999999999 0 0 0
Rh 0.00000000 3.45946000 1.04881580
Rh 6.29270250 3.45946000 3.14644741
C 0.00000000 1.72973000 5.04635791
O 0.00000000 1.72973000 6.19640061
