&CONTROL
calculation = 'relax'
prefix = 'scf'
pseudo_dir = '/vol0004/mdt0/data/hp150275/u10028/POT_HYBRID_KKJUS_GBRV'
outdir = './data'
tprnfor = .true.
nstep = 50
disk_io = 'non'
/
&SYSTEM
ibrav = 0
ecutwfc = 50.0
ecutrho = 400
occupations = 'smearing'
smearing = 'mp'
degauss = 0.01
assume_isolated = 'esm'
esm_bc = 'bc1'
input_dft = 'BEEF-VDW'
nosym = .true.
nspin = 2
ntyp = 3
nat = 32
starting_magnetization(1) = 0.1
starting_magnetization(2) = 0.0
starting_magnetization(3) = 0.0
/
&ELECTRONS
electron_maxstep = 300
mixing_beta = 0.1
conv_thr = 1e-06
/
&IONS
ion_dynamics = 'bfgs'
upscale = 1.0
/
&CELL
/

K_POINTS {automatic}
9 6 2 0  0  0

ATOMIC_SPECIES
Co 58.93 co_pbe_v1.2.uspp.F.UPF
Sn 118.7 Sn.pbe-dn-rrkjus_psl.1.0.0.UPF
Zr 91.22 Zr.pbe-spn-rrkjus_psl.1.0.0.UPF

CELL_PARAMETERS {angstrom}
6.31315000 0.00000000 0.00000000
0.00000000 8.92814000 0.00000000
0.00000000 0.00000000 26.69610000

ATOMIC_POSITIONS {angstrom}
Zr 0.00000000 0.00000000 -3.347957900000001 0 0 0
Zr 3.15657500 2.23203500 -1.1158969800000023 0 0 0
Zr 3.15657500 6.69610500 -1.1158969800000023 0 0 0
Zr 0.00000000 4.46407000 -3.347957900000001 0 0 0
Zr 6.31308687 4.46407000 1.11563002
Zr 3.15663813 6.69610500 3.34955967
Zr 3.15663813 2.23203500 3.34955967
Zr 0.00000000 0.00000000 1.11563002
Co 1.57828750 0.00000000 -1.1158969800000023 0 0 0
Co 4.73486250 4.46407000 -1.1158969800000023 0 0 0
Co 4.73486250 0.00000000 -1.1158969800000023 0 0 0
Co 1.57828750 4.46407000 -1.1158969800000023 0 0 0
Co 4.73486250 6.69610500 -3.347957900000001 0 0 0
Co 1.57828750 2.23203500 -3.347957900000001 0 0 0
Co 1.57828750 6.69610500 -3.347957900000001 0 0 0
Co 4.73486250 2.23203500 -3.347957900000001 0 0 0
Co 1.50032010 4.46415928 3.16188608
Co 4.81282990 8.92805072 3.16188608
Co 4.81289303 4.46415928 3.16188608
Co 1.50032010 8.92805072 3.16188608
Co 4.69868815 2.23203500 1.17783193
Co 1.61446185 6.69601572 1.17809889
Co 1.61446185 2.23212428 1.17783193
Co 4.69868815 6.69610500 1.17809889
Sn 0.00000000 6.69610500 -1.1158969800000023 0 0 0
Sn 3.15657500 0.00000000 -3.347957900000001 0 0 0
Sn 0.00000000 2.23203500 -1.1158969800000023 0 0 0
Sn 3.15657500 4.46407000 -3.347957900000001 0 0 0
Sn 0.00000000 2.23203500 3.52041471
Sn 3.15651187 4.46415928 1.11242649
Sn 0.00000000 6.69610500 3.52041471
Sn 3.15657500 8.92805072 1.11242649
