&CONTROL
calculation = 'relax'
prefix = 'scf'
pseudo_dir = '/vol0004/mdt0/data/hp150275/u10028/POT_KKJUS'
outdir = './data'
tprnfor = .true.
nstep = 50
disk_io = 'non'
/
&SYSTEM
ibrav = 0
ecutwfc = 50.0
ecutrho = 400
occupations = 'smearing'
smearing = 'mp'
degauss = 0.01
assume_isolated = 'esm'
esm_bc = 'bc1'
input_dft = 'BEEF-VDW'
nosym = .true.
nspin = 1
ntyp = 4
nat = 17
/
&ELECTRONS
electron_maxstep = 200
mixing_beta = 0.1
conv_thr = 1e-06
/
&IONS
ion_dynamics = 'bfgs'
upscale = 1.0
/
&CELL
/

K_POINTS {automatic}
10 10 2 0  0  0

ATOMIC_SPECIES
C 12.01 C.pbe-n-rrkjus_psl.1.0.0.UPF
In 114.8 In.pbe-dn-rrkjus_psl.1.0.0.UPF
Ir 192.2 Ir.pbe-n-rrkjus_psl.0.2.3.UPF
Li 6.941 Li.pbe-sl-rrkjus_psl.1.0.0.UPF

CELL_PARAMETERS {angstrom}
6.57920000 0.00000000 0.00000000
0.00000000 6.57920000 0.00000000
0.00000000 0.00000000 24.93440000

ATOMIC_POSITIONS {angstrom}
Li 0.00000000 0.00000000 -2.4672588799999993 0 0 0
Li 3.28960000 3.28960000 -2.4672588799999993 0 0 0
Li 3.28960000 0.00006579 0.87145728
Li 6.57913421 3.28953421 0.87120794
In 1.64480000 1.64480000 -0.8223365099999995 0 0 0
In 4.89097728 4.89091149 2.95273165
In 4.93440000 1.64480000 -0.8223365099999995 0 0 0
In 1.68565683 4.89360896 2.96295475
In 4.93440000 4.93440000 -0.8223365099999995 0 0 0
In 1.68802534 1.68809114 2.95298099
In 1.64480000 4.93440000 -0.8223365099999995 0 0 0
In 4.89367475 1.68539366 2.96320410
Ir 0.00000000 0.00000000 0.57872742
Ir 3.28960000 0.00000000 -2.4672588799999993 0 0 0
Ir 0.00000000 3.28960000 -2.4672588799999993 0 0 0
Ir 3.28960000 3.28966579 0.85475123
C 0.00006579 6.57854208 2.46850560
