&CONTROL
calculation = 'relax'
prefix = 'scf'
pseudo_dir = '/vol0403/data/hp230205/u10028/POT_HYBRID_KKJUS_GBRV'
outdir = './data'
tprnfor = .true.
nstep = 50
disk_io = 'non'
/
&SYSTEM
ibrav = 0
ecutwfc = 50.0
ecutrho = 400
occupations = 'smearing'
smearing = 'mp'
degauss = 0.01
assume_isolated = 'esm'
esm_bc = 'bc1'
input_dft = 'BEEF-VDW'
nosym = .true.
nspin = 1
ntyp = 6
nat = 34
/
&ELECTRONS
electron_maxstep = 200
mixing_beta = 0.1
conv_thr = 1e-06
/
&IONS
ion_dynamics = 'bfgs'
upscale = 1.0
/
&CELL
/

K_POINTS {automatic}
7 7 2 0  0  0

ATOMIC_SPECIES
C 12.01 C.pbe-n-rrkjus_psl.1.0.0.UPF
Ge 72.64 Ge.pbe-dn-rrkjus_psl.1.0.0.UPF
In 114.8 In.pbe-dn-rrkjus_psl.1.0.0.UPF
Li 6.941 Li.pbe-sl-rrkjus_psl.1.0.0.UPF
Mg 24.30 Mg.pbe-spnl-rrkjus_psl.1.0.0.UPF
O 15.99 O.pbe-n-rrkjus_psl.1.0.0.UPF


CELL_PARAMETERS {angstrom}
8.75068000 0.00000000 0.00000000
0.00000000 8.41850000 0.00000000
0.00000000 0.00000000 26.30740000

ATOMIC_POSITIONS {angstrom}
Li 2.18758249 8.41361727 1.08623255
Li 2.18767000 0.00000000 -3.1537311100000025 0 0 0
Li 2.18775751 4.21413273 1.08623255
Li 2.18767000 4.20925000 -3.1537311100000025 0 0 0
Li 6.56309751 8.41782652 1.12437828
Li 6.56301000 0.00000000 -3.1537311100000025 0 0 0
Li 6.56283499 4.21000767 1.12464135
Li 6.56301000 4.20925000 -3.1537311100000025 0 0 0
Mg 8.72556555 2.10470919 1.12464135
Mg 0.00000000 2.10462500 -3.1537311100000025 0 0 0
Mg 8.74971743 6.31387500 1.15778867
Mg 0.00000000 6.31387500 -3.1537311100000025 0 0 0
Mg 4.40062947 2.10454082 1.12490442
Mg 4.37534000 2.10462500 -3.1537311100000025 0 0 0
Mg 4.37604005 6.31387500 1.15805175
Mg 4.37534000 6.31387500 -3.1537311100000025 0 0 0
In 2.18775751 2.10462500 3.52492853
In 2.18767000 2.10462500 -1.0512437000000006 0 0 0
In 2.18749499 6.31387500 3.59017088
In 2.18767000 6.31387500 -1.0512437000000006 0 0 0
In 6.56309751 2.10462500 3.60043076
In 6.56301000 2.10462500 -1.0512437000000006 0 0 0
In 6.56309751 6.31387500 3.57912177
In 6.56301000 6.31387500 -1.0512437000000006 0 0 0
Ge 0.00271271 8.41294379 3.14820656
Ge 0.00000000 0.00000000 -1.0512437000000006 0 0 0
Ge 0.00253770 4.21489039 3.14846963
Ge 0.00000000 4.20925000 -1.0512437000000006 0 0 0
Ge 4.37288981 8.41285960 3.14846963
Ge 4.37534000 0.00000000 -1.0512437000000006 0 0 0
Ge 4.37271480 4.21489040 3.14846963
Ge 4.37534000 4.20925000 -1.0512437000000006 0 0 0
C 2.18644490 2.10369897 7.30161887
O 2.18784501 2.10479337 8.43415244
