&CONTROL
calculation = 'relax'
prefix = 'scf'
pseudo_dir = '/vol0403/data/hp230205/u10028/POT_HYBRID_KKJUS_GBRV'
outdir = './data'
tprnfor = .true.
nstep = 70
disk_io = 'non'
/
&SYSTEM
ibrav = 0
ecutwfc = 50.0
ecutrho = 400
occupations = 'smearing'
smearing = 'mp'
degauss = 0.01
assume_isolated = 'esm'
esm_bc = 'bc1'
input_dft = 'BEEF-VDW'
nosym = .true.
nspin = 1
ntyp = 4
nat = 32
/
&ELECTRONS
electron_maxstep = 200
mixing_beta = 0.1
conv_thr = 1e-06
/
&IONS
ion_dynamics = 'bfgs'
upscale = 1.0
/
&CELL
/

K_POINTS {automatic}
7 7 2 0  0  0

ATOMIC_SPECIES
Cu 63.54 Cu.pbe-dn-rrkjus_psl.1.0.0.UPF
Li 6.941 Li.pbe-sl-rrkjus_psl.1.0.0.UPF
Mg 24.30 Mg.pbe-spnl-rrkjus_psl.1.0.0.UPF
Pd 106.4 Pd.pbe-n-rrkjus_psl.1.0.0.UPF


CELL_PARAMETERS {angstrom}
7.95764000 0.00000000 0.00000000
-0.00000000 7.56776000 0.00000000
0.00000000 0.00000000 25.91800000

ATOMIC_POSITIONS {angstrom}
Li 0.00000000 1.89194000 0.98643908
Li 0.00000000 1.89194000 -2.9590580600000003 0 0 0
Li 0.00000000 5.67582000 0.98643908
Li 0.00000000 5.67582000 -2.9590580600000003 0 0 0
Li 3.97882000 1.89194000 0.98643908
Li 3.97882000 1.89194000 -2.9590580600000003 0 0 0
Li 3.97882000 5.67582000 0.98643908
Li 3.97882000 5.67582000 -2.9590580600000003 0 0 0
Mg 1.98941000 1.89194000 2.95905806
Mg 1.98941000 1.89194000 -0.9864390800000002 0 0 0
Mg 1.98941000 5.67582000 2.95905806
Mg 1.98941000 5.67582000 -0.9864390800000002 0 0 0
Mg 5.96823000 1.89194000 2.95905806
Mg 5.96823000 1.89194000 -0.9864390800000002 0 0 0
Mg 5.96823000 5.67582000 2.95905806
Mg 5.96823000 5.67582000 -0.9864390800000002 0 0 0
Cu 0.00000000 0.00000000 2.95905806
Cu 0.00000000 0.00000000 -0.9864390800000002 0 0 0
Cu 0.00000000 3.78388000 2.95905806
Cu 0.00000000 3.78388000 -0.9864390800000002 0 0 0
Cu 3.97882000 -0.00000000 2.95905806
Cu 3.97882000 0.00000000 -0.9864390800000002 0 0 0
Cu 3.97882000 3.78388000 2.95905806
Cu 3.97882000 3.78388000 -0.9864390800000002 0 0 0
Pd 1.98941000 -0.00000000 0.98643908
Pd 1.98941000 0.00000000 -2.9590580600000003 0 0 0
Pd 1.98941000 3.78388000 0.98643908
Pd 1.98941000 3.78388000 -2.9590580600000003 0 0 0
Pd 5.96823000 -0.00000000 0.98643908
Pd 5.96823000 0.00000000 -2.9590580600000003 0 0 0
Pd 5.96823000 3.78388000 0.98643908
Pd 5.96823000 3.78388000 -2.9590580600000003 0 0 0
