&CONTROL
calculation = 'relax'
prefix = 'scf'
pseudo_dir = '/vol0403/data/hp230205/u10028/POT_HYBRID_KKJUS_GBRV'
outdir = './data'
tprnfor = .true.
nstep = 50
disk_io = 'non'
/
&SYSTEM
ibrav = 0
ecutwfc = 50.0
ecutrho = 400
occupations = 'smearing'
smearing = 'mp'
degauss = 0.01
assume_isolated = 'esm'
esm_bc = 'bc1'
input_dft = 'BEEF-VDW'
nosym = .true.
nspin = 2
ntyp = 6
nat = 18
starting_magnetization(1) = 0.0
starting_magnetization(2) = 0.0
starting_magnetization(3) = 0.1
starting_magnetization(4) = 0.0
starting_magnetization(5) = 0.0
starting_magnetization(6) = 0.0
/
&ELECTRONS
electron_maxstep = 400
mixing_beta = 0.05
conv_thr = 1e-06
/
&IONS
ion_dynamics = 'bfgs'
upscale = 1.0
/
&CELL
/

K_POINTS {automatic}
12 7 2 0  0  0

ATOMIC_SPECIES
Al 26.98 Al.pbe-nl-rrkjus_psl.1.0.0.UPF
C 12.01 C.pbe-n-rrkjus_psl.1.0.0.UPF
Fe 55.84 fe_pbe_v1.5.uspp.F.UPF
Li 6.941 Li.pbe-sl-rrkjus_psl.1.0.0.UPF
O 15.99 O.pbe-n-rrkjus_psl.1.0.0.UPF
Pd 106.4 Pd.pbe-n-rrkjus_psl.1.0.0.UPF


CELL_PARAMETERS {angstrom}
5.15535000 0.00000000 0.00000000
0.00000000 8.84236000 0.00000000
0.00000000 0.00000000 23.55420000

ATOMIC_POSITIONS {angstrom}
Li 3.35907140 2.21059000 22.96181187
Li 4.82159264 2.21050158 1.91778296
Li 3.35907140 6.63177000 22.96181187
Li 4.97676868 6.63185842 1.90129502
Al 0.00000000 0.00000000 21.77703561
Al 1.37369456 8.83183759 0.63172364
Al 0.00000000 4.42118000 21.77703561
Al 1.37395233 4.43161398 0.63172364
Fe 2.57767500 0.00000000 21.77703561
Fe 3.79268789 8.82927331 0.11824208
Fe 2.57767500 4.42118000 21.77703561
Fe 3.79258478 4.43435512 0.11824208
Pd 0.78139640 2.21059000 22.96181187
Pd 2.27809761 2.21050158 1.78022644
Pd 0.78139640 6.63177000 22.96181187
Pd 2.45028630 6.63194685 1.66787290
C 2.38311209 2.21050158 3.71473288
O 2.42878849 2.21050158 4.86865314
