&CONTROL
calculation = 'relax'
prefix = 'scf'
pseudo_dir = '/vol0004/mdt0/data/hp150275/u10028/POT_KKJUS'
outdir = './data'
tprnfor = .true.
nstep = 50
disk_io = 'non'
/
&SYSTEM
ibrav = 0
ecutwfc = 50.0
ecutrho = 400
occupations = 'smearing'
smearing = 'mp'
degauss = 0.01
assume_isolated = 'esm'
esm_bc = 'bc1'
input_dft = 'BEEF-VDW'
nosym = .true.
nspin = 1
ntyp = 5
nat = 18
/
&ELECTRONS
electron_maxstep = 200
mixing_beta = 0.1
conv_thr = 1e-06
/
&IONS
ion_dynamics = 'bfgs'
upscale = 1.0
/
&CELL
/

K_POINTS {automatic}
10 10 2 0  0  0

ATOMIC_SPECIES
C 12.01 C.pbe-n-rrkjus_psl.1.0.0.UPF
Ga 69.72 Ga.pbe-dnl-rrkjus_psl.1.0.0.UPF
Li 6.941 Li.pbe-sl-rrkjus_psl.1.0.0.UPF
O 15.99 O.pbe-n-rrkjus_psl.1.0.0.UPF
Pt 195.0 Pt.pbe-n-rrkjus_psl.1.0.0.UPF

CELL_PARAMETERS {angstrom}
6.10853000 0.00000000 0.00000000
0.00000000 6.10853000 0.00000000
0.00000000 0.00000000 24.58140000

ATOMIC_POSITIONS {angstrom}
Li 0.01288900 0.01282791 0.65951896
Li 3.05426500 0.00000000 -2.290740669999998 0 0 0
Li 0.00000000 3.05426500 -2.290740669999998 0 0 0
Li 3.04498003 3.04504112 0.65460268
Li 1.52548320 1.52554428 2.54982862
Li 1.52713250 4.58139750 -0.7634982800000003 0 0 0
Li 4.57467812 4.57467812 2.46969326
Li 4.58139750 1.52713250 -0.7634982800000003 0 0 0
Ga 1.52713250 1.52713250 -0.7634982800000003 0 0 0
Ga 1.52792661 4.57742696 2.12432459
Ga 4.58139750 4.58139750 -0.7634982800000003 0 0 0
Ga 4.57736587 1.52798769 2.12432459
Pt 0.00000000 0.00000000 -2.290740669999998 0 0 0
Pt 3.05426500 3.05426500 -2.290740669999998 0 0 0
Pt 3.05933508 6.10101651 0.77382247
Pt 6.10101651 3.05939617 0.77382247
C 1.52187916 1.52194025 4.63654367
O 1.52139048 1.52151265 5.77933295
