&CONTROL
calculation = 'relax'
prefix = 'scf'
pseudo_dir = '/vol0403/data/hp230205/u10028/POT_HYBRID_KKJUS_GBRV'
outdir = './data'
tprnfor = .true.
nstep = 50
disk_io = 'non'
/
&SYSTEM
ibrav = 0
ecutwfc = 50.0
ecutrho = 400
occupations = 'smearing'
smearing = 'mp'
degauss = 0.01
assume_isolated = 'esm'
esm_bc = 'bc1'
input_dft = 'BEEF-VDW'
nosym = .true.
nspin = 1
ntyp = 6
nat = 34
/
&ELECTRONS
electron_maxstep = 200
mixing_beta = 0.1
conv_thr = 1e-06
/
&IONS
ion_dynamics = 'bfgs'
upscale = 1.0
/
&CELL
/

K_POINTS {automatic}
7 7 2 0  0  0

ATOMIC_SPECIES
C 12.01 C.pbe-n-rrkjus_psl.1.0.0.UPF
Li 6.941 Li.pbe-sl-rrkjus_psl.1.0.0.UPF
O 15.99 O.pbe-n-rrkjus_psl.1.0.0.UPF
Pb 207.2 Pb.pbe-dn-rrkjus_psl.1.0.0.UPF
Sn 118.7 Sn.pbe-dn-rrkjus_psl.1.0.0.UPF
Y 88.90 Y.pbe-spn-rrkjus_psl.1.0.0.UPF


CELL_PARAMETERS {angstrom}
8.87168000 0.00000000 0.00000000
0.00000000 9.36828000 0.00000000
0.00000000 0.00000000 27.23350000

ATOMIC_POSITIONS {angstrom}
Li 0.00000000 0.00000000 3.56486515
Li 0.00000000 0.00000000 -1.2056270500000004 0 0 0
Li 0.00000000 4.68414000 3.57031185
Li 0.00000000 4.68414000 -1.2056270500000004 0 0 0
Li 4.43584000 0.00000000 3.56050779
Li 4.43584000 0.00000000 -1.2056270500000004 0 0 0
Li 4.43584000 4.68414000 3.55805677
Li 4.43584000 4.68414000 -1.2056270500000004 0 0 0
Y 0.00000000 2.33738586 1.16559380
Y 0.00000000 2.34207000 -3.616608799999998 0 0 0
Y 0.00000000 7.03089414 1.16559380
Y 0.00000000 7.02621000 -3.616608799999998 0 0 0
Y 4.43584000 2.33879110 1.15252172
Y 4.43584000 2.34207000 -3.616608799999998 0 0 0
Y 4.43584000 7.02948890 1.15252172
Y 4.43584000 7.02621000 -3.616608799999998 0 0 0
Sn 2.21508106 0.00000000 1.46924732
Sn 2.21792000 0.00000000 -3.616608799999998 0 0 0
Sn 2.21854102 4.68414000 1.42485672
Sn 2.21792000 4.68414000 -3.616608799999998 0 0 0
Sn 6.65659894 0.00000000 1.46924732
Sn 6.65376000 0.00000000 -3.616608799999998 0 0 0
Sn 6.65313898 4.68414000 1.42485672
Sn 6.65376000 4.68414000 -3.616608799999998 0 0 0
Pb 2.23105009 2.38900508 3.73561919
Pb 2.21792000 2.34207000 -1.2056270500000004 0 0 0
Pb 2.23105009 6.97927492 3.73561919
Pb 2.21792000 7.02621000 -1.2056270500000004 0 0 0
Pb 6.64062991 2.38900508 3.73561919
Pb 6.65376000 2.34207000 -1.2056270500000004 0 0 0
Pb 6.64062991 6.97927492 3.73561919
Pb 6.65376000 7.02621000 -1.2056270500000004 0 0 0
C 0.00000000 0.00000000 5.63760683
O 0.00000000 0.00000000 6.78141384
