&CONTROL
calculation = 'relax'
prefix = 'scf'
pseudo_dir = '/vol0004/mdt0/data/hp150275/u10028/POT_KKJUS'
outdir = './data'
tprnfor = .true.
nstep = 50
disk_io = 'non'
/
&SYSTEM
ibrav = 0
ecutwfc = 50.0
ecutrho = 400
occupations = 'smearing'
smearing = 'mp'
degauss = 0.01
assume_isolated = 'esm'
esm_bc = 'bc1'
input_dft = 'BEEF-VDW'
nosym = .true.
nspin = 1
ntyp = 5
nat = 34
/
&ELECTRONS
electron_maxstep = 200
mixing_beta = 0.1
conv_thr = 1e-06
/
&IONS
ion_dynamics = 'bfgs'
upscale = 1.0
/
&CELL
/

K_POINTS {automatic}
9 6 2 0  0  0

ATOMIC_SPECIES
Al 26.98 Al.pbe-nl-rrkjus_psl.1.0.0.UPF
C 12.01 C.pbe-n-rrkjus_psl.1.0.0.UPF
Ir 192.2 Ir.pbe-n-rrkjus_psl.0.2.3.UPF
Li 6.941 Li.pbe-sl-rrkjus_psl.1.0.0.UPF
O 15.99 O.pbe-n-rrkjus_psl.1.0.0.UPF

CELL_PARAMETERS {angstrom}
6.04348000 0.00000000 0.00000000
0.00000000 8.54677000 0.00000000
0.00000000 0.00000000 26.41010000

ATOMIC_POSITIONS {angstrom}
Li 0.00000000 0.00000000 -3.2051297400000003 0 0 0
Li 3.02174000 2.13669250 -1.068288540000001 0 0 0
Li 3.02174000 6.41007750 -1.068288540000001 0 0 0
Li 0.00000000 4.27338500 -3.2051297400000003 0 0 0
Li 0.00000000 4.28936746 0.96291225
Li 3.02174000 6.41007750 3.63957588
Li 3.02174000 2.13669250 3.55453536
Li 0.00000000 8.53078754 0.96291225
Al 1.51087000 0.00000000 -1.068288540000001 0 0 0
Al 4.53261000 4.27338500 -1.068288540000001 0 0 0
Al 4.53261000 0.00000000 -1.068288540000001 0 0 0
Al 1.51087000 4.27338500 -1.068288540000001 0 0 0
Al 4.53261000 6.41007750 -3.2051297400000003 0 0 0
Al 1.51087000 2.13669250 -3.2051297400000003 0 0 0
Al 1.51087000 6.41007750 -3.2051297400000003 0 0 0
Al 4.53261000 2.13669250 -3.2051297400000003 0 0 0
Al 1.40329606 4.29757236 3.11348669
Al 4.64018394 8.52258264 3.11348669
Al 4.64018394 4.29757236 3.11348669
Al 1.40323562 8.52258264 3.11348669
Al 4.54747696 2.13669250 1.15385727
Al 1.54217523 6.41007750 1.08651151
Al 1.49600304 2.13669250 1.15385727
Al 4.50130477 6.41007750 1.08651151
Ir 0.00000000 6.41007750 -1.068288540000001 0 0 0
Ir 3.02174000 0.00000000 -3.2051297400000003 0 0 0
Ir 0.00000000 2.13669250 -1.068288540000001 0 0 0
Ir 3.02174000 4.27338500 -3.2051297400000003 0 0 0
Ir 0.00000000 2.13669250 3.36543904
Ir 3.02174000 4.24971045 1.05825271
Ir 0.00000000 6.41007750 3.05564857
Ir 3.02174000 0.02367455 1.05825271
C 0.00000000 2.13669250 5.27832259
O 0.00000000 2.13677797 6.43825418
