&CONTROL
calculation = 'relax'
prefix = 'scf'
pseudo_dir = '/vol0004/mdt0/data/hp150275/u10028/POT_KKJUS'
outdir = './data'
tprnfor = .true.
nstep = 50
disk_io = 'non'
/
&SYSTEM
ibrav = 0
ecutwfc = 50.0
ecutrho = 400
occupations = 'smearing'
smearing = 'mp'
degauss = 0.01
assume_isolated = 'esm'
esm_bc = 'bc1'
input_dft = 'BEEF-VDW'
nosym = .true.
nspin = 1
ntyp = 4
nat = 18
/
&ELECTRONS
electron_maxstep = 200
mixing_beta = 0.1
conv_thr = 1e-06
/
&IONS
ion_dynamics = 'bfgs'
upscale = 1.0
/
&CELL
/

K_POINTS {automatic}
7 10 3 0  0  0

ATOMIC_SPECIES
C 12.01 C.pbe-n-rrkjus_psl.1.0.0.UPF
K 39.09 K.pbe-spn-rrkjus_psl.1.0.0.UPF
O 15.99 O.pbe-n-rrkjus_psl.1.0.0.UPF
Pd 106.4 Pd.pbe-n-rrkjus_psl.1.0.0.UPF

CELL_PARAMETERS {angstrom}
11.07580000 0.00000000 0.00000000
0.00000000 7.83179000 0.00000000
0.00000000 0.00000000 25.87380000

ATOMIC_POSITIONS {angstrom}
K 0.00000000 3.91589500 2.54132464
K 2.89576791 5.94448525 1.13197875
K 2.89576791 1.88714812 1.13197875
K 0.00000000 0.00000000 -0.9790645900000001 0 0 0
K 2.76895000 1.95794750 -2.936935039999998 0 0 0
K 2.76895000 5.87384250 -2.936935039999998 0 0 0
K 5.53790000 3.91589500 3.44121540
K 8.18003209 5.94456356 1.13197875
K 8.18003209 1.88730475 1.13197875
K 5.53790000 0.00000000 -0.9790645900000001 0 0 0
K 8.30685000 1.95794750 -2.936935039999998 0 0 0
K 8.30685000 5.87384250 -2.936935039999998 0 0 0
Pd 0.00000000 7.83171168 2.11363072
Pd 0.00000000 3.91589500 -0.9790645900000001 0 0 0
Pd 5.53790000 0.00000000 2.21816087
Pd 5.53790000 3.91589500 -0.9790645900000001 0 0 0
C 0.00011076 3.91620827 5.59365682
O 0.00011076 3.91597332 6.73313897
