&CONTROL
calculation = 'relax'
prefix = 'scf'
pseudo_dir = '/vol0004/mdt0/data/hp150275/u10028/POT_KKJUS'
outdir = './data'
tprnfor = .true.
nstep = 50
disk_io = 'non'
/
&SYSTEM
ibrav = 0
ecutwfc = 50.0
ecutrho = 400
occupations = 'smearing'
smearing = 'mp'
degauss = 0.01
assume_isolated = 'esm'
esm_bc = 'bc1'
input_dft = 'BEEF-VDW'
nosym = .true.
nspin = 1
ntyp = 4
nat = 18
/
&ELECTRONS
electron_maxstep = 200
mixing_beta = 0.1
conv_thr = 1e-06
/
&IONS
ion_dynamics = 'bfgs'
upscale = 1.0
/
&CELL
/

K_POINTS {automatic}
6 8 1 0 0 0

ATOMIC_SPECIES
C 12.01 C.pbe-n-rrkjus_psl.1.0.0.UPF
Ca 40.07 Ca.pbe-spn-rrkjus_psl.1.0.0.UPF
O 15.99 O.pbe-n-rrkjus_psl.1.0.0.UPF
Sn 118.7 Sn.pbe-dn-rrkjus_psl.1.0.0.UPF

CELL_PARAMETERS {angstrom}
9.62927000 0.00000000 0.00000000
0.00000000 6.80892000 0.00000000
0.00000000 0.00000000 25.10670000

ATOMIC_POSITIONS {angstrom}
Ca 0.00000000 0.00000000 -2.5533513899999996 0 0 0
Ca 0.00202215 3.42413778 0.86894289
Ca 4.81463500 0.00000000 -2.5533513899999996 0 0 0
Ca 4.81251656 3.42427396 0.86869182
Sn 0.00000000 3.40446000 -2.5533513899999996 0 0 0
Sn 2.40731750 5.10669000 -0.8511171299999987 0 0 0
Sn 2.40731750 1.70223000 -0.8511171299999987 0 0 0
Sn 9.62821078 0.01579669 0.90861147
Sn 2.40712491 1.55951504 2.28019049
Sn 2.40741379 5.29032657 2.29826732
Sn 4.81463500 3.40446000 -2.5533513899999996 0 0 0
Sn 7.22195250 5.10669000 -0.8511171299999987 0 0 0
Sn 7.22195250 1.70223000 -0.8511171299999987 0 0 0
Sn 4.81569422 0.01586478 0.90861147
Sn 7.22195250 1.56291950 2.28973104
Sn 7.22195250 5.28937332 2.30002479
C 2.40760638 1.19612298 6.01857812
O 2.40731750 1.85754147 6.94124935
