&CONTROL
calculation = 'relax'
prefix = 'scf'
pseudo_dir = '/vol0004/mdt0/data/hp150275/u10028/POT_KKJUS'
outdir = './data'
tprnfor = .true.
nstep = 50
disk_io = 'non'
/
&SYSTEM
ibrav = 0
ecutwfc = 50.0
ecutrho = 400
occupations = 'smearing'
smearing = 'mp'
degauss = 0.01
assume_isolated = 'esm'
esm_bc = 'bc1'
input_dft = 'BEEF-VDW'
nosym = .true.
nspin = 1
ntyp = 1
nat = 32
/
&ELECTRONS
electron_maxstep = 200
mixing_beta = 0.1
conv_thr = 1e-06
/
&IONS
ion_dynamics = 'bfgs'
upscale = 1.0
/
&CELL
/

K_POINTS {automatic}
6 6 1 0 0 0

ATOMIC_SPECIES
Pb 207.2 Pb.pbe-dn-rrkjus_psl.1.0.0.UPF

CELL_PARAMETERS {angstrom}
10.17650000 0.00000000 0.00000000
-0.00000000 10.17650000 0.00000000
0.00000000 0.00000000 27.63240000

ATOMIC_POSITIONS {angstrom}
Pb 0.00000000 0.00000000 -3.8163107600000004 0 0 0
Pb 2.54412500 2.54412500 -3.8163107600000004 0 0 0
Pb 2.54412500 0.00000000 -1.272195700000001 0 0 0
Pb 0.00000000 2.54412500 -1.272195700000001 0 0 0
Pb 0.00000000 0.00000000 1.27219570
Pb 2.54412500 2.54412500 1.27219570
Pb 2.54412500 -0.00000000 3.81631076
Pb 0.00000000 2.54412500 3.81631076
Pb 0.00000000 5.08825000 -3.8163107600000004 0 0 0
Pb 2.54412500 7.63237500 -3.8163107600000004 0 0 0
Pb 2.54412500 5.08825000 -1.272195700000001 0 0 0
Pb 0.00000000 7.63237500 -1.272195700000001 0 0 0
Pb 0.00000000 5.08825000 1.27219570
Pb 2.54412500 7.63237500 1.27219570
Pb 2.54412500 5.08825000 3.81631076
Pb 0.00000000 7.63237500 3.81631076
Pb 5.08825000 0.00000000 -3.8163107600000004 0 0 0
Pb 7.63237500 2.54412500 -3.8163107600000004 0 0 0
Pb 7.63237500 0.00000000 -1.272195700000001 0 0 0
Pb 5.08825000 2.54412500 -1.272195700000001 0 0 0
Pb 5.08825000 -0.00000000 1.27219570
Pb 7.63237500 2.54412500 1.27219570
Pb 7.63237500 -0.00000000 3.81631076
Pb 5.08825000 2.54412500 3.81631076
Pb 5.08825000 5.08825000 -3.8163107600000004 0 0 0
Pb 7.63237500 7.63237500 -3.8163107600000004 0 0 0
Pb 7.63237500 5.08825000 -1.272195700000001 0 0 0
Pb 5.08825000 7.63237500 -1.272195700000001 0 0 0
Pb 5.08825000 5.08825000 1.27219570
Pb 7.63237500 7.63237500 1.27219570
Pb 7.63237500 5.08825000 3.81631076
Pb 5.08825000 7.63237500 3.81631076
