&CONTROL
calculation = 'relax'
prefix = 'scf'
pseudo_dir = '/vol0004/mdt0/data/hp150275/u10028/POT_KKJUS'
outdir = './data'
tprnfor = .true.
nstep = 50
disk_io = 'non'
/
&SYSTEM
ibrav = 0
ecutwfc = 50.0
ecutrho = 400
occupations = 'smearing'
smearing = 'mp'
degauss = 0.01
assume_isolated = 'esm'
esm_bc = 'bc1'
input_dft = 'BEEF-VDW'
nosym = .true.
nspin = 1
ntyp = 5
nat = 34
/
&ELECTRONS
electron_maxstep = 200
mixing_beta = 0.1
conv_thr = 1e-06
/
&IONS
ion_dynamics = 'bfgs'
upscale = 1.0
/
&CELL
/

K_POINTS {automatic}
8 6 1 0 0 0

ATOMIC_SPECIES
Al 26.98 Al.pbe-nl-rrkjus_psl.1.0.0.UPF
C 12.01 C.pbe-n-rrkjus_psl.1.0.0.UPF
Ni 58.69 Ni.pbe-spn-rrkjus_psl.1.0.0.UPF
O 15.99 O.pbe-n-rrkjus_psl.1.0.0.UPF
V 50.94 V.pbe-spnl-rrkjus_psl.1.0.0.UPF

CELL_PARAMETERS {angstrom}
5.81624000 0.00000000 0.00000000
0.00000000 8.22541000 0.00000000
0.00000000 0.00000000 26.16910000

ATOMIC_POSITIONS {angstrom}
Al 0.00000000 0.00000000 -3.0845518200000015 0 0 0
Al 2.90812000 2.05635250 -1.0281839400000017 0 0 0
Al 2.90812000 6.16905750 -1.0281839400000017 0 0 0
Al 0.00000000 4.11270500 -3.0845518200000015 0 0 0
Al 0.00000000 4.08769975 0.97401390
Al 2.90812000 6.16889299 3.14814273
Al 2.90812000 2.05635250 3.22507988
Al 0.00000000 0.02492299 0.97375221
V 0.00000000 6.16905750 -1.0281839400000017 0 0 0
V 2.90812000 0.00000000 -3.0845518200000015 0 0 0
V 0.00000000 2.05635250 -1.0281839400000017 0 0 0
V 2.90812000 4.11270500 -3.0845518200000015 0 0 0
V 0.00000000 2.05627025 3.02331612
V 2.90812000 4.12627693 1.06612913
V 0.00000000 6.16897525 3.07931800
V 2.90812000 8.21175582 1.06612913
Ni 1.45406000 0.00000000 -1.0281839400000017 0 0 0
Ni 4.36218000 4.11270500 -1.0281839400000017 0 0 0
Ni 4.36218000 0.00000000 -1.0281839400000017 0 0 0
Ni 1.45406000 4.11270500 -1.0281839400000017 0 0 0
Ni 4.36218000 6.16905750 -3.0845518200000015 0 0 0
Ni 1.45406000 2.05635250 -3.0845518200000015 0 0 0
Ni 1.45406000 6.16905750 -3.0845518200000015 0 0 0
Ni 4.36218000 2.05635250 -3.0845518200000015 0 0 0
Ni 1.39677004 4.12932033 2.94533221
Ni 4.41935364 8.20863016 2.94533221
Ni 4.41952813 4.12932033 2.94533221
Ni 1.39688636 8.20863016 2.94533221
Ni 4.29331572 2.05618799 1.09910220
Ni 1.42550226 6.16913975 1.04990429
Ni 1.52292428 2.05618799 1.09884051
Ni 4.39073774 6.16913975 1.04990429
C 2.90812000 2.05627025 5.23669860
O 2.90812000 2.05627025 6.38683055
