&CONTROL
calculation = 'relax'
prefix = 'scf'
pseudo_dir = '/vol0004/mdt0/data/hp150275/u10028/POT_HYBRID_KKJUS_GBRV'
outdir = './data'
tprnfor = .true.
nstep = 50
disk_io = 'non'
/
&SYSTEM
ibrav = 0
ecutwfc = 50.0
ecutrho = 400
occupations = 'smearing'
smearing = 'mp'
degauss = 0.01
assume_isolated = 'esm'
esm_bc = 'bc1'
input_dft = 'BEEF-VDW'
nosym = .true.
nspin = 2
ntyp = 4
nat = 33
starting_magnetization(1) = 0.0
starting_magnetization(2) = 0.0
starting_magnetization(3) = 0.1
starting_magnetization(4) = 0.0
/
&ELECTRONS
electron_maxstep = 300
mixing_beta = 0.1
conv_thr = 1e-06
/
&IONS
ion_dynamics = 'bfgs'
upscale = 1.0
/
&CELL
/

K_POINTS {automatic}
8 6 1 0 0 0

ATOMIC_SPECIES
Al 26.98 Al.pbe-nl-rrkjus_psl.1.0.0.UPF
C 12.01 C.pbe-n-rrkjus_psl.1.0.0.UPF
Co 58.93 co_pbe_v1.2.uspp.F.UPF
Ta 180.9 Ta.pbe-spn-rrkjus_psl.1.0.0.UPF

CELL_PARAMETERS {angstrom}
5.95946000 0.00000000 0.00000000
0.00000000 8.42794000 0.00000000
0.00000000 0.00000000 26.32100000

ATOMIC_POSITIONS {angstrom}
Ta 0.00000000 0.00000000 -3.1603624700000026 0 0 0
Ta 2.97973000 2.10698500 -1.0533664200000032 0 0 0
Ta 2.97973000 6.32095500 -1.0533664200000032 0 0 0
Ta 0.00000000 4.21397000 -3.1603624700000026 0 0 0
Ta 0.00000000 4.21397000 1.07179112
Ta 2.97973000 6.31151571 3.16510025
Ta 2.97973000 2.11642429 3.16510025
Ta 0.00000000 0.00000000 1.05705136
Al 0.00000000 6.32095500 -1.0533664200000032 0 0 0
Al 2.97973000 0.00000000 -3.1603624700000026 0 0 0
Al 0.00000000 2.10698500 -1.0533664200000032 0 0 0
Al 2.97973000 4.21397000 -3.1603624700000026 0 0 0
Al 0.00000000 2.10614221 3.16825877
Al 2.97973000 4.21397000 1.06257877
Al 0.00000000 6.32179779 3.16825877
Al 2.97973000 0.00000000 1.05520889
Co 1.48986500 0.00000000 -1.0533664200000032 0 0 0
Co 4.46959500 4.21397000 -1.0533664200000032 0 0 0
Co 4.46959500 0.00000000 -1.0533664200000032 0 0 0
Co 1.48986500 4.21397000 -1.0533664200000032 0 0 0
Co 4.46959500 6.32095500 -3.1603624700000026 0 0 0
Co 1.48986500 2.10698500 -3.1603624700000026 0 0 0
Co 1.48986500 6.32095500 -3.1603624700000026 0 0 0
Co 4.46959500 2.10698500 -3.1603624700000026 0 0 0
Co 1.48587216 4.21397000 3.13956888
Co 4.53300365 0.00000000 3.13140937
Co 4.47358784 4.21397000 3.13983209
Co 1.42645635 0.00000000 3.13140937
Co 4.46458905 2.10462518 1.05652494
Co 1.49487095 6.32331482 1.05652494
Co 1.49487095 2.10462518 1.05652494
Co 4.46458905 6.32331482 1.05652494
C 2.97973000 0.00000000 3.99394854
