&CONTROL
calculation = 'relax'
prefix = 'scf'
pseudo_dir = '/vol0403/data/hp230205/u10028/POT_HYBRID_KKJUS_GBRV'
outdir = './data'
tprnfor = .true.
nstep = 50
disk_io = 'non'
/
&SYSTEM
ibrav = 0
ecutwfc = 50.0
ecutrho = 400
occupations = 'smearing'
smearing = 'mp'
degauss = 0.01
assume_isolated = 'esm'
esm_bc = 'bc1'
input_dft = 'BEEF-VDW'
nosym = .true.
nspin = 1
ntyp = 6
nat = 18
/
&ELECTRONS
electron_maxstep = 200
mixing_beta = 0.1
conv_thr = 1e-06
/
&IONS
ion_dynamics = 'bfgs'
upscale = 1.0
/
&CELL
/

K_POINTS {automatic}
6 6 1 0 0 0

ATOMIC_SPECIES
C 12.01 C.pbe-n-rrkjus_psl.1.0.0.UPF
Ge 72.64 Ge.pbe-dn-rrkjus_psl.1.0.0.UPF
Li 6.941 Li.pbe-sl-rrkjus_psl.1.0.0.UPF
O 15.99 O.pbe-n-rrkjus_psl.1.0.0.UPF
Pd 106.4 Pd.pbe-n-rrkjus_psl.1.0.0.UPF
V 50.94 V.pbe-spnl-rrkjus_psl.1.0.0.UPF


CELL_PARAMETERS {angstrom}
5.17268000 0.00000000 0.00000000
0.00000000 9.40562000 0.00000000
0.00000000 0.00000000 23.56350000

ATOMIC_POSITIONS {angstrom}
Li 0.78190231 2.35140500 -0.5938002000000004 0 0 0
Li 2.14852436 2.35121689 1.95883375
Li 0.78190231 7.05421500 -0.5938002000000004 0 0 0
Li 2.34415512 7.05421500 1.88366619
V 2.58634000 0.00000000 -1.7816362300000002 0 0 0
V 3.52978511 0.02539517 0.22243944
V 2.58634000 4.70281000 -1.7816362300000002 0 0 0
V 3.52957820 4.67750888 0.22220381
Ge 0.00000000 0.00000000 -1.7816362300000002 0 0 0
Ge 0.95844588 9.37533390 0.67509427
Ge 0.00000000 4.70281000 -1.7816362300000002 0 0 0
Ge 0.95818724 4.73309610 0.67580118
Pd 3.36824231 2.35140500 -0.5938002000000004 0 0 0
Pd 4.76217612 2.35131094 1.78352131
Pd 3.36824231 7.05421500 -0.5938002000000004 0 0 0
Pd 4.97446290 7.05412094 1.62517460
C 4.99225692 2.35131094 3.71855594
O 4.92925368 2.35140500 4.87198926
