&CONTROL
calculation = 'relax'
prefix = 'scf'
pseudo_dir = '/vol0004/mdt0/data/hp150275/u10028/POT_KKJUS'
outdir = './data'
tprnfor = .true.
nstep = 50
disk_io = 'non'
/
&SYSTEM
ibrav = 0
ecutwfc = 50.0
ecutrho = 400
occupations = 'smearing'
smearing = 'mp'
degauss = 0.01
assume_isolated = 'esm'
esm_bc = 'bc1'
input_dft = 'BEEF-VDW'
nosym = .true.
nspin = 1
ntyp = 5
nat = 18
/
&ELECTRONS
electron_maxstep = 200
mixing_beta = 0.1
conv_thr = 1e-06
/
&IONS
ion_dynamics = 'bfgs'
upscale = 1.0
/
&CELL
/

K_POINTS {automatic}
8 8 1 0 0 0

ATOMIC_SPECIES
C 12.01 C.pbe-n-rrkjus_psl.1.0.0.UPF
Cu 63.54 Cu.pbe-dn-rrkjus_psl.1.0.0.UPF
Li 6.941 Li.pbe-sl-rrkjus_psl.1.0.0.UPF
O 15.99 O.pbe-n-rrkjus_psl.1.0.0.UPF
Sn 118.7 Sn.pbe-dn-rrkjus_psl.1.0.0.UPF

CELL_PARAMETERS {angstrom}
6.34973000 0.00000000 0.00000000
0.00000000 6.34973000 0.00000000
0.00000000 0.00000000 24.76230000

ATOMIC_POSITIONS {angstrom}
Li 0.00000000 0.00000000 -0.7936317200000005 0 0 0
Li 3.17448402 6.34960301 2.59731765
Li 0.00006350 3.17499199 2.69364299
Li 3.17486500 3.17486500 -0.7936317200000005 0 0 0
Li 1.58279720 1.59111534 0.86866148
Li 1.58743250 4.76229750 -2.3811427700000003 0 0 0
Li 4.76686931 4.75893214 0.86841386
Li 4.76229750 1.58743250 -2.3811427700000003 0 0 0
Cu 1.58743250 1.58743250 -2.3811427700000003 0 0 0
Cu 1.58457512 4.75912264 0.83993722
Cu 4.76229750 4.76229750 -2.3811427700000003 0 0 0
Cu 4.76528187 1.59028988 0.83869910
Sn 6.34941251 0.00031749 2.48514443
Sn 3.17727790 3.17423003 2.48588730
Sn 3.17486500 0.00000000 -0.7936317200000005 0 0 0
Sn 0.00000000 3.17486500 -0.7936317200000005 0 0 0
C 6.34966650 3.17499199 4.81527686
O 6.34903153 3.17435702 5.95459028
