&CONTROL
calculation = 'relax'
prefix = 'scf'
pseudo_dir = '/vol0004/mdt0/data/hp150275/u10028/POT_KKJUS'
outdir = './data'
tprnfor = .true.
nstep = 50
disk_io = 'non'
/
&SYSTEM
ibrav = 0
ecutwfc = 50.0
ecutrho = 400
occupations = 'smearing'
smearing = 'mp'
degauss = 0.01
assume_isolated = 'esm'
esm_bc = 'bc1'
input_dft = 'BEEF-VDW'
nosym = .true.
nspin = 1
ntyp = 4
nat = 33
/
&ELECTRONS
electron_maxstep = 200
mixing_beta = 0.1
conv_thr = 1e-06
/
&IONS
ion_dynamics = 'bfgs'
upscale = 1.0
/
&CELL
/

K_POINTS {automatic}
8 6 1 0 0 0

ATOMIC_SPECIES
C 12.01 C.pbe-n-rrkjus_psl.1.0.0.UPF
In 114.8 In.pbe-dn-rrkjus_psl.1.0.0.UPF
Li 6.941 Li.pbe-sl-rrkjus_psl.1.0.0.UPF
Ru 101.0 Ru.pbe-spn-rrkjus_psl.1.0.0.UPF

CELL_PARAMETERS {angstrom}
6.56971000 0.00000000 0.00000000
0.00000000 9.29097000 0.00000000
0.00000000 0.00000000 26.96820000

ATOMIC_POSITIONS {angstrom}
Li 0.00000000 0.00000000 -3.484021760000001 0 0 0
Li 3.28485500 2.32274250 -1.1612506899999993 0 0 0
Li 3.28485500 6.96822750 -1.1612506899999993 0 0 0
Li 0.00000000 4.64548500 -3.484021760000001 0 0 0
Li 0.00000000 4.64539209 1.18093748
Li 3.28485500 7.17485867 4.42440289
Li 3.28485500 2.11592551 4.42413321
Li 0.00000000 0.00009291 1.14749691
In 1.64242750 0.00000000 -1.1612506899999993 0 0 0
In 4.92728250 4.64548500 -1.1612506899999993 0 0 0
In 4.92728250 0.00000000 -1.1612506899999993 0 0 0
In 1.64242750 4.64548500 -1.1612506899999993 0 0 0
In 4.92728250 6.96822750 -3.484021760000001 0 0 0
In 1.64242750 2.32274250 -3.484021760000001 0 0 0
In 1.64242750 6.96822750 -3.484021760000001 0 0 0
In 4.92728250 2.32274250 -3.484021760000001 0 0 0
In 1.64269029 4.64529918 3.58272537
In 5.09704381 0.00037164 3.57463491
In 4.92701971 4.64529918 3.58272537
In 1.47266619 0.00037164 3.57463491
In 4.88247708 2.32199922 1.18417366
In 1.68703583 6.96897078 1.18390398
In 1.68723292 2.32199922 1.18417366
In 4.88267417 6.96897078 1.18390398
Ru 0.00000000 6.96822750 -1.1612506899999993 0 0 0
Ru 3.28485500 0.00000000 -3.484021760000001 0 0 0
Ru 0.00000000 2.32274250 -1.1612506899999993 0 0 0
Ru 3.28485500 4.64548500 -3.484021760000001 0 0 0
Ru 0.00000000 2.42773046 3.27313043
Ru 3.28485500 4.64548500 1.12861917
Ru 0.00000000 6.86370409 3.27286075
Ru 3.28485500 9.29078418 1.15585705
C 3.28485500 9.29078418 4.71377168
