&CONTROL
calculation = 'relax'
prefix = 'scf'
pseudo_dir = '/vol0004/mdt0/data/hp150275/u10028/POT_HYBRID_KKJUS_GBRV'
outdir = './data'
tprnfor = .true.
nstep = 50
disk_io = 'non'
/
&SYSTEM
ibrav = 0
ecutwfc = 50.0
ecutrho = 400
occupations = 'smearing'
smearing = 'mp'
degauss = 0.01
assume_isolated = 'esm'
esm_bc = 'bc1'
input_dft = 'BEEF-VDW'
nosym = .true.
nspin = 2
ntyp = 3
nat = 33
starting_magnetization(1) = 0.1
starting_magnetization(2) = 0.1
starting_magnetization(3) = 0.1
/
&ELECTRONS
electron_maxstep = 200
mixing_beta = 0.1
conv_thr = 1e-06
/
&IONS
ion_dynamics = 'bfgs'
upscale = 1.0
/
&CELL
/

K_POINTS {automatic}
8 6 1 0 0 0

ATOMIC_SPECIES
C 12.01 C.pbe-n-rrkjus_psl.1.0.0.UPF
Co 58.93 co_pbe_v1.2.uspp.F.UPF
Sc 44.95 Sc.pbe-spn-rrkjus_psl.1.0.0.UPF

CELL_PARAMETERS {angstrom}
6.24301000 0.00000000 0.00000000
0.00000000 8.82895000 0.00000000
0.00000000 0.00000000 26.62170000

ATOMIC_POSITIONS {angstrom}
Sc 1.56075250 2.20723750 -3.31094083 0 0 0
Sc 1.56075250 0.00000000 -1.1037356799999998 0 0 0
Sc 1.55507136 2.23593159 1.12929251
Sc 1.78431469 0.00017658 3.28272183
Sc 1.56075250 6.62171250 -3.31094083 0 0 0
Sc 1.56075250 4.41447500 -1.1037356799999998 0 0 0
Sc 1.55507136 6.59301841 1.12929251
Sc 1.54271020 4.41429842 3.41023977
Sc 4.68225750 2.20723750 -3.31094083 0 0 0
Sc 4.68225750 0.00000000 -1.1037356799999998 0 0 0
Sc 4.68793864 2.23593159 1.12929251
Sc 4.45869531 0.00017658 3.28272183
Sc 4.68225750 6.62171250 -3.31094083 0 0 0
Sc 4.68225750 4.41447500 -1.1037356799999998 0 0 0
Sc 4.68793864 6.59301841 1.12929251
Sc 4.70029980 4.41429842 3.41023977
Co 0.00000000 0.00000000 -3.31094083 0 0 0
Co 0.00000000 2.20723750 -1.1037356799999998 0 0 0
Co 0.00000000 8.82868513 1.11411814
Co 0.00000000 1.84913529 3.37083965
Co 0.00000000 4.41447500 -3.31094083 0 0 0
Co 0.00000000 6.62171250 -1.1037356799999998 0 0 0
Co 0.00000000 4.41473987 1.22513063
Co 0.00000000 6.97972642 3.37083965
Co 3.12150500 0.00000000 -3.31094083 0 0 0
Co 3.12150500 2.20723750 -1.1037356799999998 0 0 0
Co 3.12150500 8.82868513 0.95332308
Co 3.12150500 2.40518256 3.12884840
Co 3.12150500 4.41447500 -3.31094083 0 0 0
Co 3.12150500 6.62171250 -1.1037356799999998 0 0 0
Co 3.12150500 4.41473987 1.16070612
Co 3.12150500 6.42385573 3.12884840
C 0.00000000 8.82886171 4.36276420
