&CONTROL
calculation = 'relax'
prefix = 'scf'
pseudo_dir = '/vol0004/mdt0/data/hp150275/u10028/POT_HYBRID_KKJUS_GBRV'
outdir = './data'
tprnfor = .true.
nstep = 50
disk_io = 'non'
/
&SYSTEM
ibrav = 0
ecutwfc = 50.0
ecutrho = 400
occupations = 'smearing'
smearing = 'mp'
degauss = 0.01
assume_isolated = 'esm'
esm_bc = 'bc1'
input_dft = 'BEEF-VDW'
nosym = .true.
nspin = 2
ntyp = 3
nat = 32
starting_magnetization(1) = 0.1
starting_magnetization(2) = 0.1
starting_magnetization(3) = 0.0
/
&ELECTRONS
electron_maxstep = 300
mixing_beta = 0.1
conv_thr = 1e-06
/
&IONS
ion_dynamics = 'bfgs'
upscale = 1.0
/
&CELL
/

K_POINTS {automatic}
9 6 2 0  0  0

ATOMIC_SPECIES
Co 58.93 co_pbe_v1.2.uspp.F.UPF
Mn 54.93 mn_pbe_v1.5.uspp.F.UPF
Si 28.08 Si.pbe-nl-rrkjus_psl.1.0.0.UPF

CELL_PARAMETERS {angstrom}
5.64266000 0.00000000 0.00000000
0.00000000 7.97993000 0.00000000
0.00000000 0.00000000 25.98490000

ATOMIC_POSITIONS {angstrom}
Mn 0.00000000 0.00000000 -2.9924210799999997 0 0 0
Mn 2.82133000 1.99498250 -0.9975603100000008 0 0 0
Mn 2.82133000 5.98494750 -0.9975603100000008 0 0 0
Mn 0.00000000 3.98996500 -2.9924210799999997 0 0 0
Mn 0.00000000 3.98996500 0.96533904
Mn 2.82138643 5.98478790 3.14053501
Mn 2.82138643 1.99514210 3.14079486
Mn 5.64260357 0.00000000 0.96533904
Co 1.41066500 0.00000000 -0.9975603100000008 0 0 0
Co 4.23199500 3.98996500 -0.9975603100000008 0 0 0
Co 4.23199500 0.00000000 -0.9975603100000008 0 0 0
Co 1.41066500 3.98996500 -0.9975603100000008 0 0 0
Co 4.23199500 5.98494750 -2.9924210799999997 0 0 0
Co 1.41066500 1.99498250 -2.9924210799999997 0 0 0
Co 1.41066500 5.98494750 -2.9924210799999997 0 0 0
Co 4.23199500 1.99498250 -2.9924210799999997 0 0 0
Co 1.33539192 3.98996500 2.91394669
Co 4.30721166 0.00000000 2.91368684
Co 4.30726808 3.98996500 2.91368684
Co 1.33544834 0.00000000 2.91368684
Co 4.21343065 1.99522190 0.99626107
Co 1.42922935 5.98470810 0.99600122
Co 1.42922935 1.99522190 0.99600122
Co 4.21343065 5.98470810 0.99600122
Si 0.00000000 5.98494750 -0.9975603100000008 0 0 0
Si 2.82133000 0.00000000 -2.9924210799999997 0 0 0
Si 0.00000000 1.99498250 -0.9975603100000008 0 0 0
Si 2.82133000 3.98996500 -2.9924210799999997 0 0 0
Si 0.00005643 1.99498250 2.93603385
Si 2.82133000 3.98996500 1.03004144
Si 0.00005643 5.98494750 2.93603385
Si 2.82133000 0.00000000 1.03004144
