&CONTROL
calculation = 'relax'
prefix = 'scf'
pseudo_dir = '/vol0403/data/hp230205/u10028/POT_HYBRID_KKJUS_GBRV'
outdir = './data'
tprnfor = .true.
nstep = 50
disk_io = 'non'
/
&SYSTEM
ibrav = 0
ecutwfc = 50.0
ecutrho = 400
occupations = 'smearing'
smearing = 'mp'
degauss = 0.01
assume_isolated = 'esm'
esm_bc = 'bc1'
input_dft = 'BEEF-VDW'
nosym = .true.
nspin = 1
ntyp = 5
nat = 17
/
&ELECTRONS
electron_maxstep = 200
mixing_beta = 0.1
conv_thr = 1e-06
/
&IONS
ion_dynamics = 'bfgs'
upscale = 1.0
/
&CELL
/

K_POINTS {automatic}
6 6 1 0 0 0

ATOMIC_SPECIES
Al 26.98 Al.pbe-nl-rrkjus_psl.1.0.0.UPF
C 12.01 C.pbe-n-rrkjus_psl.1.0.0.UPF
In 114.8 In.pbe-dn-rrkjus_psl.1.0.0.UPF
Pd 106.4 Pd.pbe-n-rrkjus_psl.1.0.0.UPF
Sc 44.95 Sc.pbe-spn-rrkjus_psl.1.0.0.UPF


CELL_PARAMETERS {angstrom}
5.88291000 0.00000000 0.00000000
0.00000000 8.60736000 0.00000000
0.00000000 0.00000000 24.41210000

ATOMIC_POSITIONS {angstrom}
Sc 1.46460927 2.15184000 -0.7352924499999993 0 0 0
Sc 4.35905982 2.06645499 2.23956605
Sc 1.46460927 6.45552000 -0.7352924499999993 0 0 0
Sc 4.35911865 6.54107716 2.23932193
Al 0.00000000 0.00000000 -2.20612148 0 0 0
Al 2.80544212 0.00000000 0.95231602
Al 0.00000000 4.30368000 -2.20612148 0 0 0
Al 2.90309843 4.30368000 0.80633166
In 2.94145500 0.00000000 -2.20612148 0 0 0
In 5.84896561 8.60727393 0.71576277
In 2.94145500 4.30368000 -2.20612148 0 0 0
In 5.72071817 4.30368000 0.75775158
Pd 4.40606427 2.15184000 -0.7352924499999993 0 0 0
Pd 1.56526586 2.28396298 1.83993998
Pd 4.40606427 6.45552000 -0.7352924499999993 0 0 0
Pd 1.56520703 6.32339702 1.83993998
C 4.22263514 0.00008607 2.34063215
