&CONTROL
calculation = 'relax'
prefix = 'scf'
pseudo_dir = '/vol0004/mdt0/data/hp150275/u10028/POT_KKJUS'
outdir = './data'
tprnfor = .true.
nstep = 50
disk_io = 'non'
/
&SYSTEM
ibrav = 0
ecutwfc = 50.0
ecutrho = 400
occupations = 'smearing'
smearing = 'mp'
degauss = 0.01
assume_isolated = 'esm'
esm_bc = 'bc1'
input_dft = 'BEEF-VDW'
nosym = .true.
nspin = 1
ntyp = 4
nat = 34
/
&ELECTRONS
electron_maxstep = 200
mixing_beta = 0.1
conv_thr = 1e-06
/
&IONS
ion_dynamics = 'bfgs'
upscale = 1.0
/
&CELL
/

K_POINTS {automatic}
8 6 1 0 0 0

ATOMIC_SPECIES
Al 26.98 Al.pbe-nl-rrkjus_psl.1.0.0.UPF
C 12.01 C.pbe-n-rrkjus_psl.1.0.0.UPF
O 15.99 O.pbe-n-rrkjus_psl.1.0.0.UPF
Sc 44.95 Sc.pbe-spn-rrkjus_psl.1.0.0.UPF

CELL_PARAMETERS {angstrom}
6.75388000 0.00000000 0.00000000
0.00000000 9.55143000 0.00000000
0.00000000 0.00000000 27.16360000

ATOMIC_POSITIONS {angstrom}
Sc 1.68847000 2.38785750 -3.5817923 0 0 0
Sc 1.68847000 0.00000000 -1.1938402199999985 0 0 0
Sc 1.67084237 2.38785750 1.18895077
Sc 1.69968144 4.79281206 3.68854524
Sc 1.68847000 7.16357250 -3.5817923 0 0 0
Sc 1.68847000 4.77571500 -1.1938402199999985 0 0 0
Sc 1.71393213 7.16357250 1.15092173
Sc 1.69968144 9.53433294 3.68854524
Sc 5.06541000 2.38785750 -3.5817923 0 0 0
Sc 5.06541000 0.00000000 -1.1938402199999985 0 0 0
Sc 5.08310517 2.38785750 1.18867914
Sc 5.05419856 4.79271655 3.68827361
Sc 5.06541000 7.16357250 -3.5817923 0 0 0
Sc 5.06541000 4.77571500 -1.1938402199999985 0 0 0
Sc 5.03994787 7.16357250 1.15092173
Sc 5.05413102 9.53442845 3.68854524
Al 0.00000000 0.00000000 -3.5817923 0 0 0
Al 0.00000000 2.38785750 -1.1938402199999985 0 0 0
Al 0.00006754 9.53547911 1.26582376
Al 0.00000000 2.38776199 3.46906336
Al 0.00000000 4.77571500 -3.5817923 0 0 0
Al 0.00000000 7.16357250 -1.1938402199999985 0 0 0
Al 0.00000000 4.79166589 1.26582376
Al 0.00000000 7.16357250 3.51904438
Al 3.37694000 0.00000000 -3.5817923 0 0 0
Al 3.37694000 2.38785750 -1.1938402199999985 0 0 0
Al 3.37694000 0.02273240 1.26609540
Al 3.37694000 2.38785750 3.60678281
Al 3.37694000 4.77571500 -3.5817923 0 0 0
Al 3.37694000 7.16357250 -1.1938402199999985 0 0 0
Al 3.37694000 4.75298260 1.26609540
Al 3.37694000 7.16357250 3.58966974
C 0.00000000 2.38795301 5.40528476
O 0.00000000 2.38795301 6.57956719
