&CONTROL
calculation = 'relax'
prefix = 'scf'
pseudo_dir = '/vol0004/mdt0/data/hp150275/u10028/POT_HYBRID_KKJUS_GBRV'
outdir = './data'
tprnfor = .true.
nstep = 50
disk_io = 'non'
/
&SYSTEM
ibrav = 0
ecutwfc = 50.0
ecutrho = 400
occupations = 'smearing'
smearing = 'mp'
degauss = 0.01
assume_isolated = 'esm'
esm_bc = 'bc1'
input_dft = 'BEEF-VDW'
nosym = .true.
nspin = 2
ntyp = 4
nat = 33
starting_magnetization(1) = 0.0
starting_magnetization(2) = 0.1
starting_magnetization(3) = 0.001
starting_magnetization(4) = 0.0
/
&ELECTRONS
electron_maxstep = 200
mixing_beta = 0.1
conv_thr = 1e-06
/
&IONS
ion_dynamics = 'bfgs'
upscale = 1.0
/
&CELL
/

K_POINTS {automatic}
9 6 2 0  0  0

ATOMIC_SPECIES
C 12.01 C.pbe-n-rrkjus_psl.1.0.0.UPF
Mn 54.93 mn_pbe_v1.5.uspp.F.UPF
Ni 58.69 ni_pbe_v1.4.uspp.F.UPF
Sb 121.7 Sb.pbe-n-rrkjus_psl.1.0.0.UPF

CELL_PARAMETERS {angstrom}
6.10266000 0.00000000 0.00000000
0.00000000 8.63046000 0.00000000
0.00000000 0.00000000 26.47280000

ATOMIC_POSITIONS {angstrom}
Mn 0.00000000 0.00000000 23.23650020
Mn 3.05133000 2.15761500 25.39403340
Mn 3.05133000 6.47284500 25.39403340
Mn 0.00000000 4.31523000 23.23650020
Mn 0.00000000 4.31531630 1.10576886
Mn 3.05133000 6.66124794 3.37925292
Mn 3.05133000 1.96938467 3.37898819
Mn 0.00000000 8.63011478 1.04170468
Ni 1.52566500 0.00000000 25.39403340
Ni 4.57699500 4.31523000 25.39403340
Ni 4.57699500 0.00000000 25.39403340
Ni 1.52566500 4.31523000 25.39403340
Ni 4.57699500 6.47284500 23.23650020
Ni 1.52566500 2.15761500 23.23650020
Ni 1.52566500 6.47284500 23.23650020
Ni 4.57699500 2.15761500 23.23650020
Ni 1.64979310 4.31548891 3.07322735
Ni 4.81347308 8.63020109 3.18388366
Ni 4.45286690 4.31540261 3.07322735
Ni 1.28918693 8.63028739 3.18388366
Ni 4.60750830 2.13733342 1.18042215
Ni 1.49527375 6.49329919 1.18015742
Ni 1.49509067 2.13733342 1.18042215
Ni 4.60732522 6.49329919 1.18015742
Sb 0.00000000 6.47284500 25.39403340
Sb 3.05133000 0.00000000 23.23650020
Sb 0.00000000 2.15761500 25.39403340
Sb 3.05133000 4.31523000 23.23650020
Sb 0.00000000 2.27861405 3.47455500
Sb 3.05133000 4.31497109 1.01311406
Sb 0.00000000 6.35201856 3.47429027
Sb 3.05133000 0.00017261 1.02317372
C 3.05133000 0.00008630 3.74775430
