&CONTROL
calculation = 'relax'
prefix = 'scf'
pseudo_dir = '/vol0004/mdt0/data/hp150275/u10028/POT_KKJUS'
outdir = './data'
tprnfor = .true.
nstep = 50
disk_io = 'non'
/
&SYSTEM
ibrav = 0
ecutwfc = 50.0
ecutrho = 400
occupations = 'smearing'
smearing = 'mp'
degauss = 0.01
assume_isolated = 'esm'
esm_bc = 'bc1'
input_dft = 'BEEF-VDW'
nosym = .true.
nspin = 1
ntyp = 5
nat = 34
/
&ELECTRONS
electron_maxstep = 200
mixing_beta = 0.1
conv_thr = 1e-06
/
&IONS
ion_dynamics = 'bfgs'
upscale = 1.0
/
&CELL
/

K_POINTS {automatic}
9 6 2 0  0  0

ATOMIC_SPECIES
C 12.01 C.pbe-n-rrkjus_psl.1.0.0.UPF
In 114.8 In.pbe-dn-rrkjus_psl.1.0.0.UPF
Li 6.941 Li.pbe-sl-rrkjus_psl.1.0.0.UPF
O 15.99 O.pbe-n-rrkjus_psl.1.0.0.UPF
Ru 101.0 Ru.pbe-spn-rrkjus_psl.1.0.0.UPF

CELL_PARAMETERS {angstrom}
6.56971000 0.00000000 0.00000000
0.00000000 9.29097000 0.00000000
0.00000000 0.00000000 26.96820000

ATOMIC_POSITIONS {angstrom}
Li 0.00000000 0.00000000 -3.484021760000001 0 0 0
Li 3.28485500 2.32274250 -1.1612506899999993 0 0 0
Li 3.28485500 6.96822750 -1.1612506899999993 0 0 0
Li 0.00000000 4.64548500 -3.484021760000001 0 0 0
Li 6.55827870 4.64557791 1.17958907
Li 3.25548840 6.96683385 3.54496989
Li 3.25548840 2.32404324 3.54496989
Li 6.55433688 9.29087709 1.16448688
In 1.64242750 0.00000000 -1.1612506899999993 0 0 0
In 4.92728250 4.64548500 -1.1612506899999993 0 0 0
In 4.92728250 0.00000000 -1.1612506899999993 0 0 0
In 1.64242750 4.64548500 -1.1612506899999993 0 0 0
In 4.92728250 6.96822750 -3.484021760000001 0 0 0
In 1.64242750 2.32274250 -3.484021760000001 0 0 0
In 1.64242750 6.96822750 -3.484021760000001 0 0 0
In 4.92728250 2.32274250 -3.484021760000001 0 0 0
In 1.52384423 4.64594955 3.64178573
In 5.00414811 9.29050545 3.62884099
In 4.99442494 4.64585664 3.63099845
In 1.52620933 9.29050545 3.59216424
In 4.90691640 2.32367160 1.14345168
In 1.63638337 6.96516148 1.14587882
In 1.63658046 2.32580852 1.14560914
In 4.90704779 6.96720549 1.14372136
Ru 0.00000000 6.96822750 -1.1612506899999993 0 0 0
Ru 3.28485500 0.00000000 -3.484021760000001 0 0 0
Ru 0.00000000 2.32274250 -1.1612506899999993 0 0 0
Ru 3.28485500 4.64548500 -3.484021760000001 0 0 0
Ru 6.54914681 2.32422906 3.31708860
Ru 3.27270104 4.64529918 1.22058073
Ru 6.54927820 6.96674094 3.31708860
Ru 3.27204407 0.00018582 1.22300787
C 2.43762520 0.00009291 7.18756466
O 1.50170431 0.00000000 7.83129560
