&CONTROL
calculation = 'relax'
prefix = 'scf'
pseudo_dir = '/vol0004/mdt0/data/hp150275/u10028/POT_KKJUS'
outdir = './data'
tprnfor = .true.
nstep = 50
disk_io = 'non'
/
&SYSTEM
ibrav = 0
ecutwfc = 50.0
ecutrho = 400
occupations = 'smearing'
smearing = 'mp'
degauss = 0.01
assume_isolated = 'esm'
esm_bc = 'bc1'
input_dft = 'BEEF-VDW'
nosym = .true.
nspin = 1
ntyp = 3
nat = 33
/
&ELECTRONS
electron_maxstep = 200
mixing_beta = 0.1
conv_thr = 1e-06
/
&IONS
ion_dynamics = 'bfgs'
upscale = 1.0
/
&CELL
/

K_POINTS {automatic}
7 7 2 0  0  0

ATOMIC_SPECIES
C 12.01 C.pbe-n-rrkjus_psl.1.0.0.UPF
In 114.8 In.pbe-dn-rrkjus_psl.1.0.0.UPF
Sc 44.95 Sc.pbe-spn-rrkjus_psl.1.0.0.UPF

CELL_PARAMETERS {angstrom}
9.05810000 0.00000000 0.00000000
-0.00000000 9.05810000 0.00000000
0.00000000 0.00000000 26.79360000

ATOMIC_POSITIONS {angstrom}
Sc 0.00000000 2.26452500 1.13229754
Sc 2.26452500 -0.00000000 1.13229754
Sc 2.26452500 2.26452500 3.39689261
Sc 0.00000000 2.26452500 -3.396892610000002 0 0 0
Sc 2.26452500 0.00000000 -3.396892610000002 0 0 0
Sc 2.26452500 2.26452500 -1.1322975399999997 0 0 0
Sc 0.00000000 6.79357500 1.13229754
Sc 2.26452500 4.52905000 1.13229754
Sc 2.26452500 6.79357500 3.39689261
Sc 0.00000000 6.79357500 -3.396892610000002 0 0 0
Sc 2.26452500 4.52905000 -3.396892610000002 0 0 0
Sc 2.26452500 6.79357500 -1.1322975399999997 0 0 0
Sc 4.52905000 2.26452500 1.13229754
Sc 6.79357500 -0.00000000 1.13229754
Sc 6.79357500 2.26452500 3.39689261
Sc 4.52905000 2.26452500 -3.396892610000002 0 0 0
Sc 6.79357500 0.00000000 -3.396892610000002 0 0 0
Sc 6.79357500 2.26452500 -1.1322975399999997 0 0 0
Sc 4.52905000 6.79357500 1.13229754
Sc 6.79357500 4.52905000 1.13229754
Sc 6.79357500 6.79357500 3.39689261
Sc 4.52905000 6.79357500 -3.396892610000002 0 0 0
Sc 6.79357500 4.52905000 -3.396892610000002 0 0 0
Sc 6.79357500 6.79357500 -1.1322975399999997 0 0 0
In 0.00000000 0.00000000 3.39689261
In 0.00000000 0.00000000 -1.1322975399999997 0 0 0
In 0.00000000 4.52905000 3.39689261
In 0.00000000 4.52905000 -1.1322975399999997 0 0 0
In 4.52905000 -0.00000000 3.39689261
In 4.52905000 0.00000000 -1.1322975399999997 0 0 0
In 4.52905000 4.52905000 3.39689261
In 4.52905000 4.52905000 -1.1322975399999997 0 0 0
C 2.26452500 -0.00000000 4.19668157
