&CONTROL
calculation = 'relax'
prefix = 'scf'
pseudo_dir = '/vol0004/mdt0/data/hp150275/u10028/POT_KKJUS'
outdir = './data'
tprnfor = .true.
nstep = 50
disk_io = 'non'
/
&SYSTEM
ibrav = 0
ecutwfc = 50.0
ecutrho = 400
occupations = 'smearing'
smearing = 'mp'
degauss = 0.01
assume_isolated = 'esm'
esm_bc = 'bc1'
input_dft = 'BEEF-VDW'
nosym = .true.
nspin = 1
ntyp = 4
nat = 33
/
&ELECTRONS
electron_maxstep = 200
mixing_beta = 0.1
conv_thr = 1e-06
/
&IONS
ion_dynamics = 'bfgs'
upscale = 1.0
/
&CELL
/

K_POINTS {automatic}
8 6 1 0 0 0

ATOMIC_SPECIES
C 12.01 C.pbe-n-rrkjus_psl.1.0.0.UPF
In 114.8 In.pbe-dn-rrkjus_psl.1.0.0.UPF
Li 6.941 Li.pbe-sl-rrkjus_psl.1.0.0.UPF
Rh 102.9 Rh.pbe-spn-rrkjus_psl.1.0.0.UPF

CELL_PARAMETERS {angstrom}
6.34973000 0.00000000 0.00000000
0.00000000 8.97987000 0.00000000
0.00000000 0.00000000 26.73490000

ATOMIC_POSITIONS {angstrom}
Li 0.00000000 6.73490250 -1.1225984499999981 0 0 0
Li 3.17486500 0.00000000 -3.367528 0 0 0
Li 0.00000000 2.24496750 -1.1225984499999981 0 0 0
Li 3.17486500 4.48993500 -3.367528 0 0 0
Li 1.58743250 2.24496750 -3.367528 0 0 0
Li 1.58743250 6.73490250 -3.367528 0 0 0
Li 4.76229750 4.48993500 -1.1225984499999981 0 0 0
Li 4.76229750 0.00000000 -1.1225984499999981 0 0 0
Li 0.21785924 2.20069674 3.25871696
Li 3.31982934 4.48993500 1.03811617
Li 0.21785924 6.77908346 3.25871696
Li 3.03999673 0.00000000 1.19184184
Li 1.61841918 6.66827186 1.00229140
Li 1.61848268 2.31168793 1.00229140
Li 4.91589747 0.00000000 3.51724344
Li 4.66127330 4.48993500 3.44238572
In 1.58743250 0.00000000 -1.1225984499999981 0 0 0
In 1.58743250 4.48993500 -1.1225984499999981 0 0 0
In 4.76229750 6.73490250 -3.367528 0 0 0
In 4.76229750 2.24496750 -3.367528 0 0 0
In 1.77735292 4.48984520 3.34159515
In 1.12091784 8.97978020 4.80853911
In 4.81569873 2.16325068 1.11564738
In 4.81569873 6.81661932 1.11591473
Rh 0.00000000 0.00000000 -3.367528 0 0 0
Rh 3.17486500 2.24496750 -1.1225984499999981 0 0 0
Rh 3.17486500 6.73490250 -1.1225984499999981 0 0 0
Rh 0.00000000 4.48993500 -3.367528 0 0 0
Rh 6.34115786 4.48993500 1.26081788
Rh 2.92119329 7.13747007 3.17209589
Rh 2.92125678 1.84231013 3.17209589
Rh 0.19271431 0.00000000 1.32551634
C 2.89903273 0.00000000 3.32796035
