&CONTROL
calculation = 'relax'
prefix = 'scf'
pseudo_dir = '/vol0004/mdt0/data/hp150275/u10028/POT_KKJUS'
outdir = './data'
tprnfor = .true.
nstep = 50
disk_io = 'non'
/
&SYSTEM
ibrav = 0
ecutwfc = 50.0
ecutrho = 400
occupations = 'smearing'
smearing = 'mp'
degauss = 0.01
assume_isolated = 'esm'
esm_bc = 'bc1'
input_dft = 'BEEF-VDW'
nosym = .true.
nspin = 1
ntyp = 3
nat = 17
/
&ELECTRONS
electron_maxstep = 200
mixing_beta = 0.1
conv_thr = 1e-06
/
&IONS
ion_dynamics = 'bfgs'
upscale = 1.0
/
&CELL
/

K_POINTS {automatic}
6 8 1 0 0 0

ATOMIC_SPECIES
C 12.01 C.pbe-n-rrkjus_psl.1.0.0.UPF
K 39.09 K.pbe-spn-rrkjus_psl.1.0.0.UPF
Pd 106.4 Pd.pbe-n-rrkjus_psl.1.0.0.UPF

CELL_PARAMETERS {angstrom}
11.07580000 0.00000000 0.00000000
0.00000000 7.83179000 0.00000000
0.00000000 0.00000000 25.87380000

ATOMIC_POSITIONS {angstrom}
K 0.46352223 3.36062109 3.82983988
K 2.76053239 5.91370631 1.15293653
K 2.76607029 2.49223221 0.53843378
K 0.00000000 0.00000000 -0.9790645900000001 0 0 0
K 2.76895000 1.95794750 -2.936935039999998 0 0 0
K 2.76895000 5.87384250 -2.936935039999998 0 0 0
K 5.07016897 3.36203081 3.82958114
K 8.31050501 5.67781280 1.25410309
K 8.31150184 2.07299650 1.13327244
K 5.53790000 0.00000000 -0.9790645900000001 0 0 0
K 8.30685000 1.95794750 -2.936935039999998 0 0 0
K 8.30685000 5.87384250 -2.936935039999998 0 0 0
Pd 1.07723231 0.47985377 2.59203728
Pd 0.00000000 3.91589500 -0.9790645900000001 0 0 0
Pd 4.42744029 0.48604089 2.59695331
Pd 5.53790000 3.91589500 -0.9790645900000001 0 0 0
C 2.75045341 1.18009412 3.13771573
