&CONTROL
calculation = 'relax'
prefix = 'scf'
pseudo_dir = '/vol0004/mdt0/data/hp150275/u10028/POT_KKJUS'
outdir = './data'
tprnfor = .true.
nstep = 50
disk_io = 'non'
/
&SYSTEM
ibrav = 0
ecutwfc = 50.0
ecutrho = 400
occupations = 'smearing'
smearing = 'mp'
degauss = 0.01
assume_isolated = 'esm'
esm_bc = 'bc1'
input_dft = 'BEEF-VDW'
nosym = .true.
nspin = 1
ntyp = 3
nat = 17
/
&ELECTRONS
electron_maxstep = 200
mixing_beta = 0.1
conv_thr = 1e-06
/
&IONS
ion_dynamics = 'bfgs'
upscale = 1.0
/
&CELL
/

K_POINTS {automatic}
6 8 1 0 0 0

ATOMIC_SPECIES
Al 26.98 Al.pbe-nl-rrkjus_psl.1.0.0.UPF
C 12.01 C.pbe-n-rrkjus_psl.1.0.0.UPF
Ni 58.69 Ni.pbe-spn-rrkjus_psl.1.0.0.UPF

CELL_PARAMETERS {angstrom}
7.20976000 0.00000000 0.00000000
0.00000000 5.09807000 0.00000000
0.00000000 0.00000000 23.82360000

ATOMIC_POSITIONS {angstrom}
Al 0.00000000 0.00000000 -1.9118438999999974 0 0 0
Al 0.00000000 2.54898402 0.35092163
Al 3.60488000 0.00000000 -1.9118438999999974 0 0 0
Al 3.60459161 2.54903500 0.86122314
Ni 0.00000000 2.54903500 -1.9118438999999974 0 0 0
Ni 1.80244000 3.82355250 -0.6372812999999979 0 0 0
Ni 1.80244000 1.27451750 -0.6372812999999979 0 0 0
Ni 7.20968790 0.00000000 0.45598370
Ni 1.38362504 1.30184316 1.94376752
Ni 1.38355294 3.79632881 1.94376752
Ni 3.60488000 2.54903500 -1.9118438999999974 0 0 0
Ni 5.40732000 3.82355250 -0.6372812999999979 0 0 0
Ni 5.40732000 1.27451750 -0.6372812999999979 0 0 0
Ni 3.60488000 5.09801902 0.80071120
Ni 5.82505349 1.30194512 1.94305282
Ni 5.82490930 3.79617586 1.94305282
C 7.20918322 2.54903500 2.43739252
