&CONTROL
calculation = 'relax'
prefix = 'scf'
pseudo_dir = '/vol0004/mdt0/data/hp150275/u10028/POT_HYBRID_KKJUS_GBRV'
outdir = './data'
tprnfor = .true.
nstep = 50
disk_io = 'non'
/
&SYSTEM
ibrav = 0
ecutwfc = 50.0
ecutrho = 400
occupations = 'smearing'
smearing = 'mp'
degauss = 0.01
assume_isolated = 'esm'
esm_bc = 'bc1'
input_dft = 'BEEF-VDW'
nosym = .true.
nspin = 2
ntyp = 4
nat = 33
starting_magnetization(1) = 0.0
starting_magnetization(2) = 0.0
starting_magnetization(3) = 0.1
starting_magnetization(4) = 0.0
/
&ELECTRONS
electron_maxstep = 200
mixing_beta = 0.1
conv_thr = 1e-06
/
&IONS
ion_dynamics = 'bfgs'
upscale = 1.0
/
&CELL
/

K_POINTS {automatic}
9 6 2 0  0  0

ATOMIC_SPECIES
Al 26.98 Al.pbe-nl-rrkjus_psl.1.0.0.UPF
C 12.01 C.pbe-n-rrkjus_psl.1.0.0.UPF
Co 58.93 co_pbe_v1.2.uspp.F.UPF
Ta 180.9 Ta.pbe-spn-rrkjus_psl.1.0.0.UPF

CELL_PARAMETERS {angstrom}
5.95946000 0.00000000 0.00000000
0.00000000 8.42794000 0.00000000
0.00000000 0.00000000 26.32100000

ATOMIC_POSITIONS {angstrom}
Ta 0.00000000 0.00000000 23.16063753
Ta 2.97973000 2.10698500 25.26763358
Ta 2.97973000 6.32095500 25.26763358
Ta 0.00000000 4.21397000 23.16063753
Ta 5.94801784 4.22871890 1.11206225
Ta 2.97478365 6.32095500 3.15562469
Ta 3.13801326 2.10698500 3.13877925
Ta 5.94801784 8.41319111 1.11206225
Al 0.00000000 6.32095500 25.26763358
Al 2.97973000 0.00000000 23.16063753
Al 0.00000000 2.10698500 25.26763358
Al 2.97973000 4.21397000 23.16063753
Al 5.79998485 2.10698500 3.17852396
Al 2.97859770 4.21397000 1.08916298
Al 0.00643622 6.32095500 3.21616299
Al 2.97859770 0.00000000 1.08916298
Co 1.48986500 0.00000000 25.26763358
Co 4.46959500 4.21397000 25.26763358
Co 4.46959500 0.00000000 25.26763358
Co 1.48986500 4.21397000 25.26763358
Co 4.46959500 6.32095500 23.16063753
Co 1.48986500 2.10698500 23.16063753
Co 1.48986500 6.32095500 23.16063753
Co 4.46959500 2.10698500 23.16063753
Co 1.46847054 4.15775564 3.12482912
Co 4.46923743 8.36827018 3.03244241
Co 4.46923743 4.27363982 3.03244241
Co 1.46847054 0.05621436 3.12482912
Co 4.51494649 2.10698500 0.93965970
Co 1.52282081 6.32095500 1.07100149
Co 1.49785068 2.10698500 1.01809628
Co 4.44003608 6.32095500 1.07047507
C 1.49701635 2.10698500 4.13344984
