&CONTROL
calculation = 'relax'
prefix = 'scf'
pseudo_dir = '/vol0403/data/hp230205/u10028/POT_HYBRID_KKJUS_GBRV'
outdir = './data'
tprnfor = .true.
nstep = 50
disk_io = 'non'
/
&SYSTEM
ibrav = 0
ecutwfc = 50.0
ecutrho = 400
occupations = 'smearing'
smearing = 'mp'
degauss = 0.01
assume_isolated = 'esm'
esm_bc = 'bc1'
input_dft = 'BEEF-VDW'
nosym = .true.
nspin = 1
ntyp = 4
nat = 16
/
&ELECTRONS
electron_maxstep = 200
mixing_beta = 0.1
conv_thr = 1e-06
/
&IONS
ion_dynamics = 'bfgs'
upscale = 1.0
/
&CELL
/

K_POINTS {automatic}
8 8 1 0 0 0

ATOMIC_SPECIES
Ag 107.8 Ag.pbe-n-rrkjus_psl.1.0.0.UPF
Li 6.941 Li.pbe-sl-rrkjus_psl.1.0.0.UPF
Mg 24.30 Mg.pbe-spnl-rrkjus_psl.1.0.0.UPF
Sn 118.7 Sn.pbe-dn-rrkjus_psl.1.0.0.UPF


CELL_PARAMETERS {angstrom}
6.75899000 0.00000000 0.00000000
0.00000000 6.75899000 0.00000000
0.00000000 0.00000000 25.06920000

ATOMIC_POSITIONS {angstrom}
Li 5.06626854 1.69272146 0.94285261
Li 5.06924250 5.06924250 -2.53449612 0 0 0
Li 1.68974750 1.68974750 -2.53449612 0 0 0
Li 1.69278905 5.06626854 0.94285261
Mg 1.69650649 1.69650649 0.95689136
Mg 1.68974750 5.06924250 -2.53449612 0 0 0
Mg 5.06924250 1.68974750 -2.53449612 0 0 0
Mg 5.06248351 5.06248351 0.95689136
Ag 0.00000000 6.75892241 2.61346410
Ag 0.00000000 3.37949500 -0.84483204 0 0 0
Ag 3.37949500 0.00000000 -0.84483204 0 0 0
Ag 3.37942741 3.37963018 2.63101254
Sn 0.00006759 3.37963018 2.85212288
Sn 0.00000000 0.00000000 -0.84483204 0 0 0
Sn 3.37949500 3.37949500 -0.84483204 0 0 0
Sn 3.37949500 6.75892241 2.85212288
