&CONTROL
calculation = 'relax'
prefix = 'scf'
pseudo_dir = '/vol0403/data/hp230205/u10028/POT_HYBRID_KKJUS_GBRV'
outdir = './data'
tprnfor = .true.
nstep = 50
disk_io = 'non'
/
&SYSTEM
ibrav = 0
ecutwfc = 50.0
ecutrho = 400
occupations = 'smearing'
smearing = 'mp'
degauss = 0.01
assume_isolated = 'esm'
esm_bc = 'bc1'
input_dft = 'BEEF-VDW'
nosym = .true.
nspin = 2
ntyp = 5
nat = 33
starting_magnetization(1) = 0.0
starting_magnetization(2) = 0.0
starting_magnetization(3) = 0.1
starting_magnetization(4) = 0.0
starting_magnetization(5) = 0.0
/
&ELECTRONS
electron_maxstep = 200
mixing_beta = 0.1
conv_thr = 1e-06
/
&IONS
ion_dynamics = 'bfgs'
upscale = 1.0
/
&CELL
/

K_POINTS {automatic}
6 6 1 0 0 0

ATOMIC_SPECIES
C 12.01 C.pbe-n-rrkjus_psl.1.0.0.UPF
Li 6.941 Li.pbe-sl-rrkjus_psl.1.0.0.UPF
Mn 54.93 mn_pbe_v1.5.uspp.F.UPF
Pd 106.4 Pd.pbe-n-rrkjus_psl.1.0.0.UPF
Sb 121.7 Sb.pbe-n-rrkjus_psl.1.0.0.UPF


CELL_PARAMETERS {angstrom}
6.44934000 0.00000000 0.00000000
0.00000000 9.12074000 0.00000000
0.00000000 0.00000000 26.84060000

ATOMIC_POSITIONS {angstrom}
Li 0.00000000 0.00000000 -3.4202976599999992 0 0 0
Li 0.00000000 4.56037000 -3.4202976599999992 0 0 0
Li 3.22467000 6.84055500 -1.1401886899999987 0 0 0
Li 3.22467000 2.28018500 -1.1401886899999987 0 0 0
Li 6.38200889 4.52215410 1.11415331
Li 6.38200889 0.03821590 1.11442171
Li 2.82087682 2.28009379 4.34737198
Li 3.08355844 6.84055500 3.78237735
Mn 0.00000000 2.28018500 -1.1401886899999987 0 0 0
Mn 0.00000000 6.84055500 -1.1401886899999987 0 0 0
Mn 3.22467000 4.56037000 -3.4202976599999992 0 0 0
Mn 3.22467000 0.00000000 -3.4202976599999992 0 0 0
Mn 6.40987004 6.84055500 3.45035913
Mn 6.33060765 2.28018500 3.32018222
Mn 3.27432992 9.09848539 1.16354001
Mn 3.27439441 4.58271581 1.16354001
Sb 4.83700500 0.00000000 -1.1401886899999987 0 0 0
Sb 4.83700500 4.56037000 -1.1401886899999987 0 0 0
Sb 1.61233500 2.28018500 -3.4202976599999992 0 0 0
Sb 1.61233500 6.84055500 -3.4202976599999992 0 0 0
Sb 4.77534931 4.55544480 3.50779801
Sb 4.77528482 0.00492520 3.50779801
Sb 1.64309835 6.84055500 1.24164616
Sb 1.72874559 2.28018500 1.24137775
Pd 1.61233500 0.00000000 -1.1401886899999987 0 0 0
Pd 1.61233500 4.56037000 -1.1401886899999987 0 0 0
Pd 4.83700500 2.28018500 -3.4202976599999992 0 0 0
Pd 4.83700500 6.84055500 -3.4202976599999992 0 0 0
Pd 1.45593851 4.54249335 3.15833340
Pd 1.45600300 0.01796786 3.15833340
Pd 4.80579019 6.84064621 1.20460613
Pd 4.77270508 2.28018500 1.05349355
C 4.93954951 2.28018500 4.40722652
