&CONTROL
calculation = 'relax'
prefix = 'scf'
pseudo_dir = '/vol0004/mdt0/data/hp150275/u10028/POT_KKJUS'
outdir = './data'
tprnfor = .true.
nstep = 50
disk_io = 'non'
/
&SYSTEM
ibrav = 0
ecutwfc = 50.0
ecutrho = 400
occupations = 'smearing'
smearing = 'mp'
degauss = 0.01
assume_isolated = 'esm'
esm_bc = 'bc1'
input_dft = 'BEEF-VDW'
nosym = .true.
nspin = 1
ntyp = 5
nat = 34
/
&ELECTRONS
electron_maxstep = 200
mixing_beta = 0.1
conv_thr = 1e-06
/
&IONS
ion_dynamics = 'bfgs'
upscale = 1.0
/
&CELL
/

K_POINTS {automatic}
9 6 2 0  0  0

ATOMIC_SPECIES
C 12.01 C.pbe-n-rrkjus_psl.1.0.0.UPF
Ga 69.72 Ga.pbe-dnl-rrkjus_psl.1.0.0.UPF
Ni 58.69 Ni.pbe-spn-rrkjus_psl.1.0.0.UPF
O 15.99 O.pbe-n-rrkjus_psl.1.0.0.UPF
Ta 180.9 Ta.pbe-spn-rrkjus_psl.1.0.0.UPF

CELL_PARAMETERS {angstrom}
6.00328000 0.00000000 0.00000000
0.00000000 8.48992000 0.00000000
0.00000000 0.00000000 26.36740000

ATOMIC_POSITIONS {angstrom}
Ta 0.00000000 0.00000000 -3.183599879999999 0 0 0
Ta 3.00164000 2.12248000 -1.0612878499999994 0 0 0
Ta 3.00164000 6.36744000 -1.0612878499999994 0 0 0
Ta 0.00000000 4.24496000 -3.183599879999999 0 0 0
Ta 0.00000000 4.26278883 1.09055566
Ta 3.00164000 6.36727020 3.18307253
Ta 3.00164000 2.12231020 3.09078663
Ta 0.00000000 8.47200627 1.09055566
Ga 0.00000000 6.36744000 -1.0612878499999994 0 0 0
Ga 3.00164000 0.00000000 -3.183599879999999 0 0 0
Ga 0.00000000 2.12248000 -1.0612878499999994 0 0 0
Ga 3.00164000 4.24496000 -3.183599879999999 0 0 0
Ga 0.00000000 2.12222530 3.25742860
Ga 3.00164000 4.23816806 0.99642405
Ga 0.00000000 6.36727020 3.26138371
Ga 3.00164000 0.00670704 0.99642405
Ni 1.50082000 0.00000000 -1.0612878499999994 0 0 0
Ni 4.50246000 4.24496000 -1.0612878499999994 0 0 0
Ni 4.50246000 0.00000000 -1.0612878499999994 0 0 0
Ni 1.50082000 4.24496000 -1.0612878499999994 0 0 0
Ni 4.50246000 6.36744000 -3.183599879999999 0 0 0
Ni 1.50082000 2.12248000 -3.183599879999999 0 0 0
Ni 1.50082000 6.36744000 -3.183599879999999 0 0 0
Ni 4.50246000 2.12248000 -3.183599879999999 0 0 0
Ni 1.58672694 4.25455361 3.05149920
Ni 4.41649303 8.48024149 3.05149920
Ni 4.41661310 4.25463851 3.05149920
Ni 1.58672694 8.48024149 3.05149920
Ni 4.53559811 2.12248000 1.08238177
Ni 1.53906089 6.36744000 1.11112224
Ni 1.46780196 2.12239510 1.08238177
Ni 4.46421911 6.36735510 1.11112224
C 6.00321997 2.12197060 5.35706466
O 0.00000000 2.12248000 6.50483758
