&CONTROL
calculation = 'relax'
prefix = 'scf'
pseudo_dir = '/vol0403/data/hp230205/u10028/POT_HYBRID_KKJUS_GBRV'
outdir = './data'
tprnfor = .true.
nstep = 70
disk_io = 'non'
/
&SYSTEM
ibrav = 0
ecutwfc = 50.0
ecutrho = 400
occupations = 'smearing'
smearing = 'mp'
degauss = 0.01
assume_isolated = 'esm'
esm_bc = 'bc1'
input_dft = 'BEEF-VDW'
nosym = .true.
nspin = 1
ntyp = 4
nat = 16
/
&ELECTRONS
electron_maxstep = 200
mixing_beta = 0.1
conv_thr = 1e-06
/
&IONS
ion_dynamics = 'bfgs'
upscale = 1.0
/
&CELL
/

K_POINTS {automatic}
10 10 2 0  0  0

ATOMIC_SPECIES
Ag 107.8 Ag.pbe-n-rrkjus_psl.1.0.0.UPF
Li 6.941 Li.pbe-sl-rrkjus_psl.1.0.0.UPF
Mg 24.30 Mg.pbe-spnl-rrkjus_psl.1.0.0.UPF
Pb 207.2 Pb.pbe-dn-rrkjus_psl.1.0.0.UPF


CELL_PARAMETERS {angstrom}
6.87998000 0.00000000 0.00000000
-0.00000000 6.87998000 0.00000000
0.00000000 0.00000000 25.16000000

ATOMIC_POSITIONS {angstrom}
Li 5.15998500 1.71999500 0.85996880
Li 5.15998500 5.15998500 -2.5799063999999987 0 0 0
Li 1.71999500 1.71999500 -2.5799063999999987 0 0 0
Li 1.71999500 5.15998500 0.85996880
Mg 1.71999500 1.71999500 0.85996880
Mg 1.71999500 5.15998500 -2.5799063999999987 0 0 0
Mg 5.15998500 1.71999500 -2.5799063999999987 0 0 0
Mg 5.15998500 5.15998500 0.85996880
Ag 0.00000000 0.00000000 2.57990640
Ag 0.00000000 3.43999000 -0.8599688000000008 0 0 0
Ag 3.43999000 0.00000000 -0.8599688000000008 0 0 0
Ag 3.43999000 3.43999000 2.57990640
Pb 0.00000000 3.43999000 2.57990640
Pb 0.00000000 0.00000000 -0.8599688000000008 0 0 0
Pb 3.43999000 3.43999000 -0.8599688000000008 0 0 0
Pb 3.43999000 -0.00000000 2.57990640
