&CONTROL
calculation = 'relax'
prefix = 'scf'
pseudo_dir = '/vol0403/data/hp230205/u10028/POT_HYBRID_KKJUS_GBRV'
outdir = './data'
tprnfor = .true.
nstep = 50
disk_io = 'non'
/
&SYSTEM
ibrav = 0
ecutwfc = 50.0
ecutrho = 400
occupations = 'smearing'
smearing = 'mp'
degauss = 0.01
assume_isolated = 'esm'
esm_bc = 'bc1'
input_dft = 'BEEF-VDW'
nosym = .true.
nspin = 1
ntyp = 5
nat = 17
/
&ELECTRONS
electron_maxstep = 200
mixing_beta = 0.1
conv_thr = 1e-06
/
&IONS
ion_dynamics = 'bfgs'
upscale = 1.0
/
&CELL
/

K_POINTS {automatic}
9 9 2 0  0  0

ATOMIC_SPECIES
C 12.01 C.pbe-n-rrkjus_psl.1.0.0.UPF
In 114.8 In.pbe-dn-rrkjus_psl.1.0.0.UPF
Mg 24.30 Mg.pbe-spnl-rrkjus_psl.1.0.0.UPF
Pd 106.4 Pd.pbe-n-rrkjus_psl.1.0.0.UPF
Y 88.90 Y.pbe-spn-rrkjus_psl.1.0.0.UPF


CELL_PARAMETERS {angstrom}
6.99626000 0.00000000 0.00000000
0.00000000 6.99626000 0.00000000
0.00000000 0.00000000 25.24720000

ATOMIC_POSITIONS {angstrom}
Y 5.24719500 1.74906500 -0.8745630099999993 0 0 0
Y 5.37655585 5.11783415 2.82061718
Y 1.61970415 1.87842585 2.82061718
Y 1.74906500 5.24719500 -0.8745630099999993 0 0 0
Mg 1.74906500 1.74906500 -0.8745630099999993 0 0 0
Mg 1.61130864 5.10950860 2.67216365
Mg 5.38495136 1.88675140 2.67216365
Mg 5.24719500 5.24719500 -0.8745630099999993 0 0 0
In 0.00000000 0.00000000 -2.6236890200000005 0 0 0
In 0.00000000 3.49813000 0.77938106
In 3.49813000 0.00000000 1.11668366
In 3.49813000 3.49813000 -2.6236890200000005 0 0 0
Pd 0.00000000 3.49813000 -2.6236890200000005 0 0 0
Pd 0.00000000 0.00000000 1.02427890
Pd 3.49813000 3.49813000 1.02427890
Pd 3.49813000 0.00000000 -2.6236890200000005 0 0 0
C 0.00000000 3.49813000 3.14529618
