&CONTROL
calculation = 'relax'
prefix = 'scf'
pseudo_dir = '/vol0004/mdt0/data/hp150275/u10028/POT_KKJUS'
outdir = './data'
tprnfor = .true.
nstep = 50
disk_io = 'non'
/
&SYSTEM
ibrav = 0
ecutwfc = 50.0
ecutrho = 400
occupations = 'smearing'
smearing = 'mp'
degauss = 0.01
assume_isolated = 'esm'
esm_bc = 'bc1'
input_dft = 'BEEF-VDW'
nosym = .true.
nspin = 1
ntyp = 2
nat = 32
/
&ELECTRONS
electron_maxstep = 200
mixing_beta = 0.1
conv_thr = 1e-06
/
&IONS
ion_dynamics = 'bfgs'
upscale = 1.0
/
&CELL
/

K_POINTS {automatic}
7 7 2 0  0  0

ATOMIC_SPECIES
Ni 58.69 Ni.pbe-spn-rrkjus_psl.1.0.0.UPF
Sn 118.7 Sn.pbe-dn-rrkjus_psl.1.0.0.UPF

CELL_PARAMETERS {angstrom}
7.54412000 0.00000000 0.00000000
0.00000000 7.54412000 0.00000000
0.00000000 0.00000000 25.65810000

ATOMIC_POSITIONS {angstrom}
Ni 0.00000000 1.88603000 -0.9429351700000019 0 0 0
Ni 1.88603000 0.00000000 -0.9429351700000019 0 0 0
Ni 1.88603000 1.88603000 -2.8290621100000024 0 0 0
Ni 0.00150882 1.88595456 2.73617978
Ni 1.88829324 7.54366735 2.73874559
Ni 1.88814235 1.88572824 0.91188887
Ni 0.00000000 5.65809000 -0.9429351700000019 0 0 0
Ni 1.88603000 3.77206000 -0.9429351700000019 0 0 0
Ni 1.88603000 5.65809000 -2.8290621100000024 0 0 0
Ni 7.54230941 5.65620397 2.73438372
Ni 1.88708618 3.77206000 2.73874559
Ni 1.88716162 5.65756191 0.91060597
Ni 3.77206000 1.88603000 -0.9429351700000019 0 0 0
Ni 5.65809000 0.00000000 -0.9429351700000019 0 0 0
Ni 5.65809000 1.88603000 -2.8290621100000024 0 0 0
Ni 3.77341794 1.88693529 2.74182457
Ni 5.65816544 7.54366735 2.73746269
Ni 5.65778824 1.88565279 0.91368494
Ni 3.77206000 5.65809000 -0.9429351700000019 0 0 0
Ni 5.65809000 3.77206000 -0.9429351700000019 0 0 0
Ni 5.65809000 5.65809000 -2.8290621100000024 0 0 0
Ni 3.77296529 5.65763735 2.73592320
Ni 5.65801456 3.77206000 2.73746269
Ni 5.65778824 5.65763735 0.90932306
Sn 0.00000000 0.00000000 -2.8290621100000024 0 0 0
Sn 0.00150882 0.00022632 0.95756029
Sn 0.00000000 3.77206000 -2.8290621100000024 0 0 0
Sn 0.00105618 3.77047573 0.95627739
Sn 3.77206000 0.00000000 -2.8290621100000024 0 0 0
Sn 3.77251265 0.00113162 0.95807345
Sn 3.77206000 3.77206000 -2.8290621100000024 0 0 0
Sn 3.77221088 3.77100382 0.95756029
