&CONTROL
calculation = 'relax'
prefix = 'scf'
pseudo_dir = '/vol0403/data/hp230205/u10028/POT_HYBRID_KKJUS_GBRV'
outdir = './data'
tprnfor = .true.
nstep = 100
disk_io = 'non'
/
&SYSTEM
ibrav = 0
ecutwfc = 50.0
ecutrho = 400
occupations = 'smearing'
smearing = 'mp'
degauss = 0.01
assume_isolated = 'esm'
esm_bc = 'bc1'
input_dft = 'BEEF-VDW'
nosym = .true.
nspin = 1
ntyp = 5
nat = 17
/
&ELECTRONS
electron_maxstep = 200
mixing_beta = 0.1
conv_thr = 1e-06
/
&IONS
ion_dynamics = 'bfgs'
upscale = 1.0
/
&CELL
/

K_POINTS {automatic}
9 9 2 0  0  0

ATOMIC_SPECIES
C 12.01 C.pbe-n-rrkjus_psl.1.0.0.UPF
Li 6.941 Li.pbe-sl-rrkjus_psl.1.0.0.UPF
Pb 207.2 Pb.pbe-dn-rrkjus_psl.1.0.0.UPF
Pd 106.4 Pd.pbe-n-rrkjus_psl.1.0.0.UPF
Y 88.90 Y.pbe-spn-rrkjus_psl.1.0.0.UPF


CELL_PARAMETERS {angstrom}
6.89083000 0.00000000 0.00000000
-0.00000000 6.89083000 0.00000000
0.00000000 0.00000000 25.16810000

ATOMIC_POSITIONS {angstrom}
Li 0.00000000 0.00000000 -2.5840088299999984 0 0 0
Li 0.00000000 3.44541500 0.86125238
Li 3.44541500 -0.00000000 0.86125238
Li 3.44541500 3.44541500 -2.5840088299999984 0 0 0
Y 5.16812250 1.72270750 -0.8612523799999998 0 0 0
Y 5.16812250 5.16812250 2.58400883
Y 1.72270750 1.72270750 2.58400883
Y 1.72270750 5.16812250 -0.8612523799999998 0 0 0
Pd 0.00000000 3.44541500 -2.5840088299999984 0 0 0
Pd 0.00000000 0.00000000 0.86125238
Pd 3.44541500 3.44541500 0.86125238
Pd 3.44541500 0.00000000 -2.5840088299999984 0 0 0
Pb 1.72270750 1.72270750 -0.8612523799999998 0 0 0
Pb 1.72270750 5.16812250 2.58400883
Pb 5.16812250 1.72270750 2.58400883
Pb 5.16812250 5.16812250 -0.8612523799999998 0 0 0
C 0.00000000 3.44541500 3.38410273
