&CONTROL
calculation = 'relax'
prefix = 'scf'
pseudo_dir = '/vol0004/mdt0/data/hp150275/u10028/POT_HYBRID_KKJUS_GBRV'
outdir = './data'
tprnfor = .true.
nstep = 50
disk_io = 'non'
/
&SYSTEM
ibrav = 0
ecutwfc = 50.0
ecutrho = 400
occupations = 'smearing'
smearing = 'mp'
degauss = 0.01
assume_isolated = 'esm'
esm_bc = 'bc1'
input_dft = 'BEEF-VDW'
nosym = .true.
nspin = 2
ntyp = 2
nat = 32
starting_magnetization(1) = 0.1
starting_magnetization(2) = 0.0
/
&ELECTRONS
electron_maxstep = 200
mixing_beta = 0.1
conv_thr = 1e-06
/
&IONS
ion_dynamics = 'bfgs'
upscale = 1.0
/
&CELL
/

K_POINTS {automatic}
7 7 2 0  0  0

ATOMIC_SPECIES
Fe 55.84 fe_pbe_v1.5.uspp.F.UPF
Sn 118.7 Sn.pbe-dn-rrkjus_psl.1.0.0.UPF

CELL_PARAMETERS {angstrom}
7.64708000 0.00000000 0.00000000
-0.00000000 7.64708000 0.00000000
0.00000000 0.00000000 25.73530000

ATOMIC_POSITIONS {angstrom}
Fe 0.00000000 1.91177000 0.95580904
Fe 1.91177000 -0.00000000 0.95580904
Fe 1.91177000 1.91177000 2.86768448
Fe 0.00000000 1.91177000 -2.8676844799999976 0 0 0
Fe 1.91177000 0.00000000 -2.8676844799999976 0 0 0
Fe 1.91177000 1.91177000 -0.9558090399999983 0 0 0
Fe 0.00000000 5.73531000 0.95580904
Fe 1.91177000 3.82354000 0.95580904
Fe 1.91177000 5.73531000 2.86768448
Fe 0.00000000 5.73531000 -2.8676844799999976 0 0 0
Fe 1.91177000 3.82354000 -2.8676844799999976 0 0 0
Fe 1.91177000 5.73531000 -0.9558090399999983 0 0 0
Fe 3.82354000 1.91177000 0.95580904
Fe 5.73531000 -0.00000000 0.95580904
Fe 5.73531000 1.91177000 2.86768448
Fe 3.82354000 1.91177000 -2.8676844799999976 0 0 0
Fe 5.73531000 0.00000000 -2.8676844799999976 0 0 0
Fe 5.73531000 1.91177000 -0.9558090399999983 0 0 0
Fe 3.82354000 5.73531000 0.95580904
Fe 5.73531000 3.82354000 0.95580904
Fe 5.73531000 5.73531000 2.86768448
Fe 3.82354000 5.73531000 -2.8676844799999976 0 0 0
Fe 5.73531000 3.82354000 -2.8676844799999976 0 0 0
Fe 5.73531000 5.73531000 -0.9558090399999983 0 0 0
Sn 0.00000000 0.00000000 2.86768448
Sn 0.00000000 0.00000000 -0.9558090399999983 0 0 0
Sn 0.00000000 3.82354000 2.86768448
Sn 0.00000000 3.82354000 -0.9558090399999983 0 0 0
Sn 3.82354000 -0.00000000 2.86768448
Sn 3.82354000 0.00000000 -0.9558090399999983 0 0 0
Sn 3.82354000 3.82354000 2.86768448
Sn 3.82354000 3.82354000 -0.9558090399999983 0 0 0
