&CONTROL
calculation = 'relax'
prefix = 'scf'
pseudo_dir = '/vol0004/mdt0/data/hp150275/u10028/POT_HYBRID_KKJUS_GBRV'
outdir = './data'
tprnfor = .true.
nstep = 50
disk_io = 'non'
/
&SYSTEM
ibrav = 0
ecutwfc = 50.0
ecutrho = 400
occupations = 'smearing'
smearing = 'mp'
degauss = 0.01
assume_isolated = 'esm'
esm_bc = 'bc1'
input_dft = 'BEEF-VDW'
nosym = .true.
nspin = 2
ntyp = 4
nat = 33
starting_magnetization(1) = 0.0
starting_magnetization(2) = 0.1
starting_magnetization(3) = 0.0
starting_magnetization(4) = 0.0
/
&ELECTRONS
electron_maxstep = 200
mixing_beta = 0.1
conv_thr = 1e-06
/
&IONS
ion_dynamics = 'bfgs'
upscale = 1.0
/
&CELL
/

K_POINTS {automatic}
9 6 2 0  0  0

ATOMIC_SPECIES
C 12.01 C.pbe-n-rrkjus_psl.1.0.0.UPF
Co 58.93 co_pbe_v1.2.uspp.F.UPF
Ga 69.72 Ga.pbe-dnl-rrkjus_psl.1.0.0.UPF
Nb 92.90 Nb.pbe-spn-rrkjus_psl.1.0.0.UPF

CELL_PARAMETERS {angstrom}
5.97844000 0.00000000 0.00000000
0.00000000 8.45478000 0.00000000
0.00000000 0.00000000 26.34110000

ATOMIC_POSITIONS {angstrom}
Nb 0.00000000 0.00000000 23.17068520
Nb 2.98922000 2.11369500 25.28429507
Nb 2.98922000 6.34108500 25.28429507
Nb 0.00000000 4.22739000 23.17068520
Nb 5.97419531 4.23246287 1.08156557
Nb 2.98581229 6.34116955 3.16382952
Nb 3.15470322 2.11361045 3.11931306
Nb 5.97419531 8.44970713 1.08182898
Ga 0.00000000 6.34108500 25.28429507
Ga 2.98922000 0.00000000 23.17068520
Ga 0.00000000 2.11369500 25.28429507
Ga 2.98922000 4.22739000 23.17068520
Ga 5.82850072 2.11386410 3.13090315
Ga 2.98868194 4.22747455 1.06786819
Ga 0.00316857 6.34091590 3.18885357
Ga 2.98868194 8.45469545 1.06760478
Co 1.49461000 0.00000000 25.28429507
Co 4.48383000 4.22739000 25.28429507
Co 4.48383000 0.00000000 25.28429507
Co 1.49461000 4.22739000 25.28429507
Co 4.48383000 6.34108500 23.17068520
Co 1.49461000 2.11369500 23.17068520
Co 1.49461000 6.34108500 23.17068520
Co 4.48383000 2.11369500 23.17068520
Co 1.48624018 4.21462328 3.16093200
Co 4.48610181 8.43152936 3.13327385
Co 4.48610181 4.25064065 3.13327385
Co 1.48624018 0.01276672 3.16093200
Co 4.50553174 2.11377955 1.01755669
Co 1.50531141 6.34100045 1.06049269
Co 1.49640353 2.11377955 1.03309794
Co 4.47426450 6.34100045 1.06339021
C 1.47793015 2.11369500 4.11974804
