&CONTROL
calculation = 'relax'
prefix = 'scf'
pseudo_dir = '/vol0004/mdt0/data/hp150275/u10028/POT_KKJUS'
outdir = './data'
tprnfor = .true.
nstep = 50
disk_io = 'non'
/
&SYSTEM
ibrav = 0
ecutwfc = 50.0
ecutrho = 400
occupations = 'smearing'
smearing = 'mp'
degauss = 0.01
assume_isolated = 'esm'
esm_bc = 'bc1'
input_dft = 'BEEF-VDW'
nosym = .true.
nspin = 1
ntyp = 5
nat = 34
/
&ELECTRONS
electron_maxstep = 200
mixing_beta = 0.1
conv_thr = 1e-06
/
&IONS
ion_dynamics = 'bfgs'
upscale = 1.0
/
&CELL
/

K_POINTS {automatic}
9 6 2 0  0  0

ATOMIC_SPECIES
C 12.01 C.pbe-n-rrkjus_psl.1.0.0.UPF
Ge 72.64 Ge.pbe-dn-rrkjus_psl.1.0.0.UPF
Ni 58.69 Ni.pbe-spn-rrkjus_psl.1.0.0.UPF
O 15.99 O.pbe-n-rrkjus_psl.1.0.0.UPF
Zn 65.40 Zn.pbe-dnl-rrkjus_psl.1.0.0.UPF

CELL_PARAMETERS {angstrom}
5.89777000 0.00000000 0.00000000
0.00000000 8.34071000 0.00000000
0.00000000 0.00000000 26.25550000

ATOMIC_POSITIONS {angstrom}
Zn 0.00000000 0.00000000 -3.127817710000002 0 0 0
Zn 2.94888500 2.08517750 -1.0426059100000025 0 0 0
Zn 2.94888500 6.25553250 -1.0426059100000025 0 0 0
Zn 0.00000000 4.17035500 -3.127817710000002 0 0 0
Zn 0.00011796 4.16910389 0.95727553
Zn 2.94882602 6.25536569 3.25725733
Zn 2.94882602 2.08534431 3.26040799
Zn 5.89765204 0.00141792 0.95727553
Ni 1.47444250 0.00000000 -1.0426059100000025 0 0 0
Ni 4.42332750 4.17035500 -1.0426059100000025 0 0 0
Ni 4.42332750 0.00000000 -1.0426059100000025 0 0 0
Ni 1.47444250 4.17035500 -1.0426059100000025 0 0 0
Ni 4.42332750 6.25553250 -3.127817710000002 0 0 0
Ni 1.47444250 2.08517750 -3.127817710000002 0 0 0
Ni 1.47444250 6.25553250 -3.127817710000002 0 0 0
Ni 4.42332750 2.08517750 -3.127817710000002 0 0 0
Ni 1.40378722 4.16985456 2.94980543
Ni 4.49433665 0.00050044 2.95033053
Ni 4.49451358 4.16993796 2.94980543
Ni 1.40325642 0.00033363 2.95033053
Ni 4.41353720 2.08576135 0.99849667
Ni 1.47668365 6.25561591 1.00269755
Ni 1.48423280 2.08517750 0.99875922
Ni 4.42102737 6.25528228 1.00296010
Ge 0.00000000 6.25553250 -1.0426059100000025 0 0 0
Ge 2.94888500 0.00000000 -3.127817710000002 0 0 0
Ge 0.00000000 2.08517750 -1.0426059100000025 0 0 0
Ge 2.94888500 4.17035500 -3.127817710000002 0 0 0
Ge 5.89771102 2.08551113 3.14540890
Ge 2.94876704 4.17469217 1.05940942
Ge 0.00005898 6.25503206 3.16300009
Ge 2.94894398 8.33645624 1.05967198
C 0.00088467 2.08567794 7.05747840
O 5.89753409 2.08467706 8.19250367
