&CONTROL
calculation = 'relax'
prefix = 'scf'
pseudo_dir = '/vol0004/mdt0/data/hp150275/u10028/POT_KKJUS'
outdir = './data'
tprnfor = .true.
nstep = 50
disk_io = 'non'
/
&SYSTEM
ibrav = 0
ecutwfc = 50.0
ecutrho = 400
occupations = 'smearing'
smearing = 'mp'
degauss = 0.01
assume_isolated = 'esm'
esm_bc = 'bc1'
input_dft = 'BEEF-VDW'
nosym = .true.
nspin = 1
ntyp = 4
nat = 34
/
&ELECTRONS
electron_maxstep = 200
mixing_beta = 0.1
conv_thr = 1e-06
/
&IONS
ion_dynamics = 'bfgs'
upscale = 1.0
/
&CELL
/

K_POINTS {automatic}
8 6 1 0 0 0

ATOMIC_SPECIES
C 12.01 C.pbe-n-rrkjus_psl.1.0.0.UPF
O 15.99 O.pbe-n-rrkjus_psl.1.0.0.UPF
Pd 106.4 Pd.pbe-n-rrkjus_psl.1.0.0.UPF
Zr 91.22 Zr.pbe-spn-rrkjus_psl.1.0.0.UPF

CELL_PARAMETERS {angstrom}
6.75388000 0.00000000 0.00000000
0.00000000 9.55143000 0.00000000
0.00000000 0.00000000 27.16360000

ATOMIC_POSITIONS {angstrom}
Zr 0.00000000 0.00000000 -3.5817923 0 0 0
Zr 0.00000000 2.38785750 -1.1938402199999985 0 0 0
Zr 0.00000000 0.02034455 1.11017633
Zr 0.00000000 2.38795301 3.55164070
Zr 0.00000000 4.77571500 -3.5817923 0 0 0
Zr 0.00000000 7.16357250 -1.1938402199999985 0 0 0
Zr 0.00000000 4.75537045 1.11017633
Zr 0.00000000 7.16357250 3.37371912
Zr 3.37694000 0.00000000 -3.5817923 0 0 0
Zr 3.37694000 2.38785750 -1.1938402199999985 0 0 0
Zr 3.37694000 0.01528229 1.14005629
Zr 3.37694000 2.38795301 3.70946122
Zr 3.37694000 4.77571500 -3.5817923 0 0 0
Zr 3.37694000 7.16357250 -1.1938402199999985 0 0 0
Zr 3.37694000 4.76043271 1.14005629
Zr 3.37694000 7.16357250 3.63584786
Pd 1.68847000 2.38785750 -3.5817923 0 0 0
Pd 1.68847000 0.00000000 -1.1938402199999985 0 0 0
Pd 1.86312534 2.38785750 1.35519200
Pd 1.73365346 4.78440680 3.34954352
Pd 1.68847000 7.16357250 -3.5817923 0 0 0
Pd 1.68847000 4.77571500 -1.1938402199999985 0 0 0
Pd 1.86751536 7.16357250 1.26962666
Pd 1.73365346 9.54283371 3.34954352
Pd 5.06541000 2.38785750 -3.5817923 0 0 0
Pd 5.06541000 0.00000000 -1.1938402199999985 0 0 0
Pd 4.89068712 2.38785750 1.35519200
Pd 5.02022654 4.78440680 3.34954352
Pd 5.06541000 7.16357250 -3.5817923 0 0 0
Pd 5.06541000 4.77571500 -1.1938402199999985 0 0 0
Pd 4.88636464 7.16357250 1.26962666
Pd 5.02022654 9.54283371 3.34954352
C 0.00000000 2.38785750 5.81898639
O 0.00000000 2.38776199 6.97642739
