&CONTROL
calculation = 'relax'
prefix = 'scf'
pseudo_dir = '/vol0004/mdt0/data/hp150275/u10028/POT_KKJUS'
outdir = './data'
tprnfor = .true.
nstep = 50
disk_io = 'non'
/
&SYSTEM
ibrav = 0
ecutwfc = 50.0
ecutrho = 400
occupations = 'smearing'
smearing = 'mp'
degauss = 0.01
assume_isolated = 'esm'
esm_bc = 'bc1'
input_dft = 'BEEF-VDW'
nosym = .true.
nspin = 1
ntyp = 4
nat = 33
/
&ELECTRONS
electron_maxstep = 200
mixing_beta = 0.1
conv_thr = 1e-06
/
&IONS
ion_dynamics = 'bfgs'
upscale = 1.0
/
&CELL
/

K_POINTS {automatic}
9 6 2 0  0  0

ATOMIC_SPECIES
C 12.01 C.pbe-n-rrkjus_psl.1.0.0.UPF
Ga 69.72 Ga.pbe-dnl-rrkjus_psl.1.0.0.UPF
Ni 58.69 Ni.pbe-spn-rrkjus_psl.1.0.0.UPF
V 50.94 V.pbe-spnl-rrkjus_psl.1.0.0.UPF

CELL_PARAMETERS {angstrom}
5.81624000 0.00000000 0.00000000
0.00000000 8.22541000 0.00000000
0.00000000 0.00000000 26.16910000

ATOMIC_POSITIONS {angstrom}
V 0.00000000 0.00000000 -3.0845518200000015 0 0 0
V 2.90812000 2.05635250 -1.0281839400000017 0 0 0
V 2.90812000 6.16905750 -1.0281839400000017 0 0 0
V 0.00000000 4.11270500 -3.0845518200000015 0 0 0
V 0.00000000 4.11278725 1.07738185
V 2.90812000 6.33455275 3.18451778
V 2.90812000 1.89085725 3.18477947
V 0.00000000 0.00000000 0.98134125
Ga 0.00000000 6.16905750 -1.0281839400000017 0 0 0
Ga 2.90812000 0.00000000 -3.0845518200000015 0 0 0
Ga 0.00000000 2.05635250 -1.0281839400000017 0 0 0
Ga 2.90812000 4.11270500 -3.0845518200000015 0 0 0
Ga 0.00000000 2.15333008 3.15965713
Ga 2.90812000 4.11278725 1.00044469
Ga 0.00000000 6.07207992 3.15939544
Ga 2.90812000 0.00008225 1.02399688
Ni 1.45406000 0.00000000 -1.0281839400000017 0 0 0
Ni 4.36218000 4.11270500 -1.0281839400000017 0 0 0
Ni 4.36218000 0.00000000 -1.0281839400000017 0 0 0
Ni 1.45406000 4.11270500 -1.0281839400000017 0 0 0
Ni 4.36218000 6.16905750 -3.0845518200000015 0 0 0
Ni 1.45406000 2.05635250 -3.0845518200000015 0 0 0
Ni 1.45406000 6.16905750 -3.0845518200000015 0 0 0
Ni 4.36218000 2.05635250 -3.0845518200000015 0 0 0
Ni 1.53810467 4.11262275 3.01441863
Ni 4.60628759 0.00000000 3.00892312
Ni 4.27813533 4.11262275 3.01441863
Ni 1.20995241 0.00000000 3.00892312
Ni 4.30320333 2.06285057 1.07188634
Ni 1.51309484 6.16272393 1.07162464
Ni 1.51303667 2.06276832 1.07188634
Ni 4.30314516 6.16264168 1.07162464
C 2.90812000 0.00000000 3.79399612
