&CONTROL
calculation = 'relax'
prefix = 'scf'
pseudo_dir = '/vol0403/data/hp230205/u10028/POT_HYBRID_KKJUS_GBRV'
outdir = './data'
tprnfor = .true.
nstep = 50
disk_io = 'non'
/
&SYSTEM
ibrav = 0
ecutwfc = 50.0
ecutrho = 400
occupations = 'smearing'
smearing = 'mp'
degauss = 0.01
assume_isolated = 'esm'
esm_bc = 'bc1'
input_dft = 'BEEF-VDW'
nosym = .true.
nspin = 1
ntyp = 5
nat = 33
/
&ELECTRONS
electron_maxstep = 200
mixing_beta = 0.1
conv_thr = 1e-06
/
&IONS
ion_dynamics = 'bfgs'
upscale = 1.0
/
&CELL
/

K_POINTS {automatic}
9 6 2 0  0  0

ATOMIC_SPECIES
Ag 107.8 Ag.pbe-n-rrkjus_psl.1.0.0.UPF
C 12.01 C.pbe-n-rrkjus_psl.1.0.0.UPF
In 114.8 In.pbe-dn-rrkjus_psl.1.0.0.UPF
Li 6.941 Li.pbe-sl-rrkjus_psl.1.0.0.UPF
Sc 44.95 Sc.pbe-spn-rrkjus_psl.1.0.0.UPF


CELL_PARAMETERS {angstrom}
6.68683000 0.00000000 0.00000000
0.00000000 9.45660000 0.00000000
0.00000000 0.00000000 27.09240000

ATOMIC_POSITIONS {angstrom}
Li 0.00000000 2.36415000 -1.18204141 0 0 0
Li 0.00000000 7.09245000 -1.18204141 0 0 0
Li 3.34341500 4.72830000 -3.546124240000001 0 0 0
Li 3.34341500 0.00000000 -3.546124240000001 0 0 0
Li 0.22407567 6.86851771 4.46916230
Li 0.22420941 2.58808229 4.46916230
Li 3.19048720 0.00000000 1.57786138
Li 3.28905107 4.72830000 1.11485226
Sc 5.01512250 0.00000000 -1.18204141 0 0 0
Sc 5.01512250 4.72830000 -1.18204141 0 0 0
Sc 1.67170750 2.36415000 -3.546124240000001 0 0 0
Sc 1.67170750 7.09245000 -3.546124240000001 0 0 0
Sc 4.92411474 4.72830000 3.40009620
Sc 5.30780505 0.00000000 3.43179431
Sc 1.58999444 7.05831167 1.27036264
Sc 1.59006131 2.39838289 1.27036264
In 1.67170750 0.00000000 -1.18204141 0 0 0
In 1.67170750 4.72830000 -1.18204141 0 0 0
In 5.01512250 2.36415000 -3.546124240000001 0 0 0
In 5.01512250 7.09245000 -3.546124240000001 0 0 0
In 1.67752504 4.72830000 3.56292152
In 1.30627224 9.45650543 4.31636117
In 5.03097029 7.11013384 1.22755664
In 5.03090342 2.34646616 1.22755664
Ag 0.00000000 0.00000000 -3.546124240000001 0 0 0
Ag 0.00000000 4.72830000 -3.546124240000001 0 0 0
Ag 3.34341500 7.09245000 -1.18204141 0 0 0
Ag 3.34341500 2.36415000 -1.18204141 0 0 0
Ag 6.65841097 4.72830000 1.13544248
Ag 0.11601650 0.00000000 1.10943378
Ag 3.30389583 2.29256354 3.64284410
Ag 3.30389583 7.16403646 3.64311503
C 3.34903194 0.00000000 3.80052187
