&CONTROL
calculation = 'relax'
prefix = 'scf'
pseudo_dir = '/vol0004/mdt0/data/hp150275/u10028/POT_HYBRID_KKJUS_GBRV'
outdir = './data'
tprnfor = .true.
nstep = 50
disk_io = 'non'
/
&SYSTEM
ibrav = 0
ecutwfc = 50.0
ecutrho = 400
occupations = 'smearing'
smearing = 'mp'
degauss = 0.01
assume_isolated = 'esm'
esm_bc = 'bc1'
input_dft = 'BEEF-VDW'
nosym = .true.
nspin = 2
ntyp = 3
nat = 33
starting_magnetization(1) = 0.1
starting_magnetization(2) = 0.1
starting_magnetization(3) = 0.1
/
&ELECTRONS
electron_maxstep = 200
mixing_beta = 0.1
conv_thr = 1e-06
/
&IONS
ion_dynamics = 'bfgs'
upscale = 1.0
/
&CELL
/

K_POINTS {automatic}
8 6 1 0 0 0

ATOMIC_SPECIES
C 12.01 C.pbe-n-rrkjus_psl.1.0.0.UPF
Co 58.93 co_pbe_v1.2.uspp.F.UPF
Fe 55.84 fe_pbe_v1.5.uspp.F.UPF

CELL_PARAMETERS {angstrom}
5.71351000 0.00000000 0.00000000
0.00000000 8.08012000 0.00000000
0.00000000 0.00000000 26.06010000

ATOMIC_POSITIONS {angstrom}
Fe 0.00000000 0.00000000 -3.030007829999999 0 0 0
Fe 0.00000000 2.02003000 -1.0100894799999978 0 0 0
Fe 0.00000000 0.00008080 1.05387044
Fe 0.00000000 1.97041806 3.11730916
Fe 0.00000000 4.04006000 -3.030007829999999 0 0 0
Fe 0.00000000 6.06009000 -1.0100894799999978 0 0 0
Fe 0.00000000 4.03997920 1.01973171
Fe 0.00000000 6.10970194 3.11730916
Fe 2.85675500 0.00000000 -3.030007829999999 0 0 0
Fe 2.85675500 2.02003000 -1.0100894799999978 0 0 0
Fe 2.85675500 0.00000000 0.93607879
Fe 2.85675500 2.11044654 3.08655824
Fe 2.85675500 4.04006000 -3.030007829999999 0 0 0
Fe 2.85675500 6.06009000 -1.0100894799999978 0 0 0
Fe 2.85675500 4.03997920 1.03614958
Fe 2.85675500 5.96967346 3.08681884
Co 1.42837750 2.02003000 -3.030007829999999 0 0 0
Co 1.42837750 0.00000000 -1.0100894799999978 0 0 0
Co 1.42963447 2.01267709 1.04474941
Co 1.36587170 4.03997920 2.95260933
Co 1.42837750 6.06009000 -3.030007829999999 0 0 0
Co 1.42837750 4.04006000 -1.0100894799999978 0 0 0
Co 1.42963447 6.06744291 1.04474941
Co 1.64211991 0.00008080 2.95469414
Co 4.28513250 2.02003000 -3.030007829999999 0 0 0
Co 4.28513250 0.00000000 -1.0100894799999978 0 0 0
Co 4.28387553 2.01267709 1.04474941
Co 4.34763830 4.03997920 2.95260933
Co 4.28513250 6.06009000 -3.030007829999999 0 0 0
Co 4.28513250 4.04006000 -1.0100894799999978 0 0 0
Co 4.28387553 6.06744291 1.04474941
Co 4.07139009 0.00008080 2.95469414
C 0.00000000 0.00000000 3.61088746
