&CONTROL
calculation = 'relax'
prefix = 'scf'
pseudo_dir = '/vol0403/data/hp230205/u10028/POT_HYBRID_KKJUS_GBRV'
outdir = './data'
tprnfor = .true.
nstep = 50
disk_io = 'non'
/
&SYSTEM
ibrav = 0
ecutwfc = 50.0
ecutrho = 400
occupations = 'smearing'
smearing = 'mp'
degauss = 0.01
assume_isolated = 'esm'
esm_bc = 'bc1'
input_dft = 'BEEF-VDW'
nosym = .true.
nspin = 2
ntyp = 4
nat = 16
starting_magnetization(1) = 0.0
starting_magnetization(2) = 0.1
starting_magnetization(3) = 0.0
starting_magnetization(4) = 0.0
/
&ELECTRONS
electron_maxstep = 400
mixing_beta = 0.05
conv_thr = 1e-06
/
&IONS
ion_dynamics = 'bfgs'
upscale = 1.0
/
&CELL
/

K_POINTS {automatic}
13 7 2 0  0  0

ATOMIC_SPECIES
Al 26.98 Al.pbe-nl-rrkjus_psl.1.0.0.UPF
Fe 55.84 fe_pbe_v1.5.uspp.F.UPF
Li 6.941 Li.pbe-sl-rrkjus_psl.1.0.0.UPF
Pd 106.4 Pd.pbe-n-rrkjus_psl.1.0.0.UPF


CELL_PARAMETERS {angstrom}
5.15535000 0.00000000 0.00000000
0.00000000 8.84236000 0.00000000
0.00000000 0.00000000 23.55420000

ATOMIC_POSITIONS {angstrom}
Li 3.78624370 2.20837941 0.65951760
Li 4.92191575 2.21059000 21.77703561
Li 3.78670768 6.64087763 0.64844713
Li 4.92191575 6.63177000 21.77703561
Al 0.20080088 0.00008842 1.64526087
Al 1.56284435 0.00000000 22.96181187
Al 0.23183609 4.42064946 1.65750905
Al 1.56284435 4.42118000 22.96181187
Fe 2.94958195 8.84085680 1.27074909
Fe 4.14051935 0.00000000 22.96181187
Fe 2.97747239 4.43028763 1.25755874
Fe 4.14051935 4.42118000 22.96181187
Pd 1.27765039 2.21227005 0.94240354
Pd 2.34424075 2.21059000 21.77703561
Pd 1.27610379 6.63115103 0.94169692
Pd 2.34424075 6.63177000 21.77703561
