&CONTROL
calculation = 'relax'
prefix = 'scf'
pseudo_dir = '/vol0403/data/hp230205/u10028/POT_HYBRID_KKJUS_GBRV'
outdir = './data'
tprnfor = .true.
nstep = 50
disk_io = 'non'
/
&SYSTEM
ibrav = 0
ecutwfc = 50.0
ecutrho = 400
occupations = 'smearing'
smearing = 'mp'
degauss = 0.01
assume_isolated = 'esm'
esm_bc = 'bc1'
input_dft = 'BEEF-VDW'
nosym = .true.
nspin = 1
ntyp = 5
nat = 33
/
&ELECTRONS
electron_maxstep = 200
mixing_beta = 0.1
conv_thr = 1e-06
/
&IONS
ion_dynamics = 'bfgs'
upscale = 1.0
/
&CELL
/

K_POINTS {automatic}
9 6 2 0  0  0

ATOMIC_SPECIES
C 12.01 C.pbe-n-rrkjus_psl.1.0.0.UPF
In 114.8 In.pbe-dn-rrkjus_psl.1.0.0.UPF
Li 6.941 Li.pbe-sl-rrkjus_psl.1.0.0.UPF
Pd 106.4 Pd.pbe-n-rrkjus_psl.1.0.0.UPF
Rh 102.9 Rh.pbe-spn-rrkjus_psl.1.0.0.UPF


CELL_PARAMETERS {angstrom}
6.29773000 0.00000000 0.00000000
0.00000000 8.90634000 0.00000000
0.00000000 0.00000000 26.67980000

ATOMIC_POSITIONS {angstrom}
Li 0.00000000 2.22658500 -1.113348049999999 0 0 0
Li 0.00000000 6.67975500 -1.113348049999999 0 0 0
Li 3.14886500 4.45317000 -3.3397773599999994 0 0 0
Li 3.14886500 0.00000000 -3.3397773599999994 0 0 0
Li 6.28557538 6.67957687 3.56655566
Li 0.08438958 2.22658500 3.59083428
Li 3.11183435 0.00881728 1.09760697
Li 3.11183435 4.44435272 1.09760697
In 0.00000000 0.00000000 -3.3397773599999994 0 0 0
In 0.00000000 4.45317000 -3.3397773599999994 0 0 0
In 3.14886500 6.67975500 -1.113348049999999 0 0 0
In 3.14886500 2.22658500 -1.113348049999999 0 0 0
In 0.02978826 4.51872066 1.11201406
In 0.02978826 8.84078934 1.11201406
In 2.59120101 2.22649594 4.44378749
In 3.16612078 6.67975500 3.60364059
Pd 4.72329750 0.00000000 -1.113348049999999 0 0 0
Pd 4.72329750 4.45317000 -1.113348049999999 0 0 0
Pd 1.57443250 2.22658500 -3.3397773599999994 0 0 0
Pd 1.57443250 6.67975500 -3.3397773599999994 0 0 0
Pd 4.54689808 4.23140213 3.24292969
Pd 4.54689808 0.22185693 3.24292969
Pd 1.65000526 6.67975500 1.19685583
Pd 1.60566924 2.22658500 1.24487947
Rh 1.57443250 0.00000000 -1.113348049999999 0 0 0
Rh 1.57443250 4.45317000 -1.113348049999999 0 0 0
Rh 4.72329750 2.22658500 -3.3397773599999994 0 0 0
Rh 4.72329750 6.67975500 -3.3397773599999994 0 0 0
Rh 1.61014063 4.49200164 3.27761343
Rh 1.61007765 8.86741929 3.27761343
Rh 4.68941571 6.67975500 1.25555139
Rh 4.79773667 2.22658500 1.14242904
C 4.39726402 2.22658500 2.92357248
