&CONTROL
calculation = 'relax'
prefix = 'scf'
pseudo_dir = '/vol0004/mdt0/data/hp150275/u10028/POT_KKJUS'
outdir = './data'
tprnfor = .true.
nstep = 50
disk_io = 'non'
/
&SYSTEM
ibrav = 0
ecutwfc = 50.0
ecutrho = 400
occupations = 'smearing'
smearing = 'mp'
degauss = 0.01
assume_isolated = 'esm'
esm_bc = 'bc1'
input_dft = 'BEEF-VDW'
nosym = .true.
nspin = 1
ntyp = 3
nat = 17
/
&ELECTRONS
electron_maxstep = 200
mixing_beta = 0.1
conv_thr = 1e-06
/
&IONS
ion_dynamics = 'bfgs'
upscale = 1.0
/
&CELL
/

K_POINTS {automatic}
6 8 1 0 0 0

ATOMIC_SPECIES
C 12.01 C.pbe-n-rrkjus_psl.1.0.0.UPF
Pb 207.2 Pb.pbe-dn-rrkjus_psl.1.0.0.UPF
Pd 106.4 Pd.pbe-n-rrkjus_psl.1.0.0.UPF

CELL_PARAMETERS {angstrom}
8.32195000 0.00000000 0.00000000
0.00000000 5.88450000 0.00000000
0.00000000 0.00000000 24.41340000

ATOMIC_POSITIONS {angstrom}
Pd 0.09420447 2.92918641 2.17230433
Pd 2.08048750 4.48169405 0.79856231
Pd 2.08048750 1.40109945 0.74802658
Pd 0.00000000 0.00000000 -0.735575739999998 0 0 0
Pd 2.08048750 1.47112500 -2.2067272299999985 0 0 0
Pd 2.08048750 4.41337500 -2.2067272299999985 0 0 0
Pd 4.06677053 2.92918641 2.17230433
Pd 6.24146250 4.40566631 0.73166960
Pd 6.24146250 1.45965023 0.73362267
Pd 4.16097500 0.00000000 -0.735575739999998 0 0 0
Pd 6.24146250 1.47112500 -2.2067272299999985 0 0 0
Pd 6.24146250 4.41337500 -2.2067272299999985 0 0 0
Pb 8.12405403 5.87443751 2.36883220
Pb 0.00000000 2.94225000 -0.735575739999998 0 0 0
Pb 4.35887097 5.87443751 2.36883220
Pb 4.16097500 2.94225000 -0.735575739999998 0 0 0
C 2.08048750 2.91559322 2.03973957
