&CONTROL
calculation = 'relax'
prefix = 'scf'
pseudo_dir = '/vol0403/data/hp230205/u10028/POT_HYBRID_KKJUS_GBRV'
outdir = './data'
tprnfor = .true.
nstep = 50
disk_io = 'non'
/
&SYSTEM
ibrav = 0
ecutwfc = 50.0
ecutrho = 400
occupations = 'smearing'
smearing = 'mp'
degauss = 0.01
assume_isolated = 'esm'
esm_bc = 'bc1'
input_dft = 'BEEF-VDW'
nosym = .true.
nspin = 1
ntyp = 5
nat = 33
/
&ELECTRONS
electron_maxstep = 200
mixing_beta = 0.1
conv_thr = 1e-06
/
&IONS
ion_dynamics = 'bfgs'
upscale = 1.0
/
&CELL
/

K_POINTS {automatic}
6 6 1 0 0 0

ATOMIC_SPECIES
Al 26.98 Al.pbe-nl-rrkjus_psl.1.0.0.UPF
C 12.01 C.pbe-n-rrkjus_psl.1.0.0.UPF
Cu 63.54 Cu.pbe-dn-rrkjus_psl.1.0.0.UPF
Li 6.941 Li.pbe-sl-rrkjus_psl.1.0.0.UPF
Pd 106.4 Pd.pbe-n-rrkjus_psl.1.0.0.UPF


CELL_PARAMETERS {angstrom}
6.00833000 0.00000000 0.00000000
0.00000000 8.49706000 0.00000000
0.00000000 0.00000000 26.37280000

ATOMIC_POSITIONS {angstrom}
Li 0.00000000 2.12426500 -1.0620326599999999 0 0 0
Li 0.00000000 6.37279500 -1.0620326599999999 0 0 0
Li 3.00416500 4.24853000 -3.1863617000000026 0 0 0
Li 3.00416500 0.00000000 -3.1863617000000026 0 0 0
Li 5.93412712 6.39871103 3.49439600
Li 5.93412712 2.09834897 3.49439600
Li 3.15875933 0.00000000 1.24611480
Li 2.99887767 4.24853000 0.98766136
Al 0.00000000 0.00000000 -3.1863617000000026 0 0 0
Al 0.00000000 4.24853000 -3.1863617000000026 0 0 0
Al 3.00416500 6.37279500 -1.0620326599999999 0 0 0
Al 3.00416500 2.12426500 -1.0620326599999999 0 0 0
Al 0.01616241 4.24853000 1.06414248
Al 0.02733790 0.00000000 0.95100317
Al 2.96733394 2.17643695 3.22618462
Al 2.96733394 6.32062305 3.22618462
Cu 1.50208250 0.00000000 -1.0620326599999999 0 0 0
Cu 1.50208250 4.24853000 -1.0620326599999999 0 0 0
Cu 4.50624750 2.12426500 -3.1863617000000026 0 0 0
Cu 4.50624750 6.37279500 -3.1863617000000026 0 0 0
Cu 1.54942814 4.24853000 3.04684958
Cu 1.51313783 0.00000000 3.23515138
Cu 4.52277041 6.31526990 1.04119814
Cu 4.52277041 2.18187507 1.04119814
Pd 4.50624750 0.00000000 -1.0620326599999999 0 0 0
Pd 4.50624750 4.24853000 -1.0620326599999999 0 0 0
Pd 1.50208250 2.12426500 -3.1863617000000026 0 0 0
Pd 1.50208250 6.37279500 -3.1863617000000026 0 0 0
Pd 4.41786497 4.24853000 3.03709165
Pd 4.00809686 0.00000000 3.90660286
Pd 1.52683682 6.38239668 1.07601024
Pd 1.52683682 2.11466332 1.07601024
C 5.66567494 0.00000000 2.86540472
