&CONTROL
calculation = 'relax'
prefix = 'scf'
pseudo_dir = '/vol0004/mdt0/data/hp150275/u10028/POT_KKJUS'
outdir = './data'
tprnfor = .true.
nstep = 50
disk_io = 'non'
/
&SYSTEM
ibrav = 0
ecutwfc = 50.0
ecutrho = 400
occupations = 'smearing'
smearing = 'mp'
degauss = 0.01
assume_isolated = 'esm'
esm_bc = 'bc1'
input_dft = 'BEEF-VDW'
nosym = .true.
nspin = 1
ntyp = 4
nat = 34
/
&ELECTRONS
electron_maxstep = 200
mixing_beta = 0.1
conv_thr = 1e-06
/
&IONS
ion_dynamics = 'bfgs'
upscale = 1.0
/
&CELL
/

K_POINTS {automatic}
6 6 1 0 0 0

ATOMIC_SPECIES
C 12.01 C.pbe-n-rrkjus_psl.1.0.0.UPF
K 39.09 K.pbe-spn-rrkjus_psl.1.0.0.UPF
O 15.99 O.pbe-n-rrkjus_psl.1.0.0.UPF
Pd 106.4 Pd.pbe-n-rrkjus_psl.1.0.0.UPF

CELL_PARAMETERS {angstrom}
11.07580000 0.00000000 0.00000000
0.00000000 11.07580000 0.00000000
0.00000000 0.00000000 28.30690000

ATOMIC_POSITIONS {angstrom}
K 0.00420880 2.76828545 1.37628148
K 2.76828545 0.00376577 1.37599841
K 2.76817469 2.76817469 4.59590828
K 0.00000000 2.76895000 -4.153471440000001 0 0 0
K 2.76895000 0.00000000 -4.153471440000001 0 0 0
K 2.76895000 2.76895000 -1.3844904800000002 0 0 0
K 0.01318020 8.30696076 1.45667307
K 2.76828545 5.53402347 1.37769682
K 2.76728863 8.31028350 4.65903267
K 0.00000000 8.30685000 -4.153471440000001 0 0 0
K 2.76895000 5.53790000 -4.153471440000001 0 0 0
K 2.76895000 8.30685000 -1.3844904800000002 0 0 0
K 5.53358044 2.76828545 1.37769682
K 8.30696076 0.01395551 1.45639001
K 8.31028350 2.76717787 4.65422050
K 5.53790000 2.76895000 -4.153471440000001 0 0 0
K 8.30685000 0.00000000 -4.153471440000001 0 0 0
K 8.30685000 2.76895000 -1.3844904800000002 0 0 0
K 5.52516283 8.30673924 1.45893763
K 8.30673924 5.52427677 1.45893763
K 8.31216638 8.31205563 4.71564647
K 5.53790000 8.30685000 -4.153471440000001 0 0 0
K 8.30685000 5.53790000 -4.153471440000001 0 0 0
K 8.30685000 8.30685000 -1.3844904800000002 0 0 0
Pd 0.02270539 0.02248387 3.42513490
Pd 0.00000000 0.00000000 -1.3844904800000002 0 0 0
Pd 0.02336994 5.51364400 3.42428569
Pd 0.00000000 5.53790000 -1.3844904800000002 0 0 0
Pd 5.51331172 0.02325918 3.42428569
Pd 5.53790000 0.00000000 -1.3844904800000002 0 0 0
Pd 5.51209339 5.51242566 3.42400262
Pd 5.53790000 5.53790000 -1.3844904800000002 0 0 0
C 2.76042163 2.76042163 7.68702176
O 2.76529499 2.76540574 8.82127925
