&CONTROL
calculation = 'relax'
prefix = 'scf'
pseudo_dir = '/vol0403/data/hp230205/u10028/POT_HYBRID_KKJUS_GBRV'
outdir = './data'
tprnfor = .true.
nstep = 70
disk_io = 'non'
/
&SYSTEM
ibrav = 0
ecutwfc = 50.0
ecutrho = 400
occupations = 'smearing'
smearing = 'mp'
degauss = 0.01
assume_isolated = 'esm'
esm_bc = 'bc1'
input_dft = 'BEEF-VDW'
nosym = .true.
nspin = 1
ntyp = 4
nat = 32
/
&ELECTRONS
electron_maxstep = 200
mixing_beta = 0.1
conv_thr = 1e-06
/
&IONS
ion_dynamics = 'bfgs'
upscale = 1.0
/
&CELL
/

K_POINTS {automatic}
6 6 1 0 0 0

ATOMIC_SPECIES
Mg 24.30 Mg.pbe-spnl-rrkjus_psl.1.0.0.UPF
Pd 106.4 Pd.pbe-n-rrkjus_psl.1.0.0.UPF
Sn 118.7 Sn.pbe-dn-rrkjus_psl.1.0.0.UPF
Y 88.90 Y.pbe-spn-rrkjus_psl.1.0.0.UPF


CELL_PARAMETERS {angstrom}
7.00634000 0.00000000 0.00000000
-0.00000000 9.90846000 0.00000000
0.00000000 0.00000000 27.43130000

ATOMIC_POSITIONS {angstrom}
Y 0.00000000 2.47711500 -1.2385231899999987 0 0 0
Y 0.00000000 7.43134500 -1.2385231899999987 0 0 0
Y 3.50317000 4.95423000 -3.7155695800000004 0 0 0
Y 3.50317000 0.00000000 -3.7155695800000004 0 0 0
Y 0.11693581 7.43134500 3.84120494
Y 0.11693581 2.47711500 3.84120494
Y 3.42070538 -0.00000000 1.33069236
Y 3.42070538 4.95423000 1.33069236
Mg 0.00000000 0.00000000 -3.7155695800000004 0 0 0
Mg 0.00000000 4.95423000 -3.7155695800000004 0 0 0
Mg 3.50317000 7.43134500 -1.2385231899999987 0 0 0
Mg 3.50317000 2.47711500 -1.2385231899999987 0 0 0
Mg 0.07489777 4.95423000 1.39515592
Mg 0.07489777 0.00000000 1.39515592
Mg 3.54387684 2.47711500 3.73449718
Mg 3.54387684 7.43134500 3.73449718
Sn 1.75158500 0.00000000 -1.2385231899999987 0 0 0
Sn 1.75158500 4.95423000 -1.2385231899999987 0 0 0
Sn 5.25475500 2.47711500 -3.7155695800000004 0 0 0
Sn 5.25475500 7.43134500 -3.7155695800000004 0 0 0
Sn 2.00002982 4.95423000 4.27900849
Sn 2.00002982 -0.00000000 4.27900849
Sn 5.31451908 7.43134500 1.34221351
Sn 5.31451908 2.47711500 1.34221351
Pd 5.25475500 0.00000000 -1.2385231899999987 0 0 0
Pd 5.25475500 4.95423000 -1.2385231899999987 0 0 0
Pd 1.75158500 2.47711500 -3.7155695800000004 0 0 0
Pd 1.75158500 7.43134500 -3.7155695800000004 0 0 0
Pd 5.20297815 4.95423000 3.47691727
Pd 5.20297815 -0.00000000 3.47691727
Pd 1.57264308 7.43134500 1.29750049
Pd 1.57257301 2.47711500 1.29750049
