&CONTROL
calculation = 'relax'
prefix = 'scf'
pseudo_dir = '/vol0403/data/hp230205/u10028/POT_HYBRID_KKJUS_GBRV'
outdir = './data'
tprnfor = .true.
nstep = 50
disk_io = 'non'
/
&SYSTEM
ibrav = 0
ecutwfc = 50.0
ecutrho = 400
occupations = 'smearing'
smearing = 'mp'
degauss = 0.01
assume_isolated = 'esm'
esm_bc = 'bc1'
input_dft = 'BEEF-VDW'
nosym = .true.
nspin = 1
ntyp = 4
nat = 16
/
&ELECTRONS
electron_maxstep = 200
mixing_beta = 0.1
conv_thr = 1e-06
/
&IONS
ion_dynamics = 'bfgs'
upscale = 1.0
/
&CELL
/

K_POINTS {automatic}
10 10 2 0  0  0

ATOMIC_SPECIES
In 114.8 In.pbe-dn-rrkjus_psl.1.0.0.UPF
Li 6.941 Li.pbe-sl-rrkjus_psl.1.0.0.UPF
Pd 106.4 Pd.pbe-n-rrkjus_psl.1.0.0.UPF
Rh 102.9 Rh.pbe-spn-rrkjus_psl.1.0.0.UPF


CELL_PARAMETERS {angstrom}
6.29773000 0.00000000 0.00000000
0.00000000 6.29773000 0.00000000
0.00000000 0.00000000 24.72330000

ATOMIC_POSITIONS {angstrom}
Li 0.00000000 3.14886500 -2.3615696199999974 0 0 0
Li 0.00006298 6.29766702 0.93923817
Li 3.14880202 3.14892798 0.91797613
Li 3.14886500 0.00000000 -2.3615696199999974 0 0 0
In 0.00000000 0.00000000 -2.3615696199999974 0 0 0
In 0.00006298 3.14899095 0.84182836
In 3.14873905 6.29766702 0.84182836
In 3.14886500 3.14886500 -2.3615696199999974 0 0 0
Pd 4.72329750 1.57443250 -0.7871898699999988 0 0 0
Pd 4.72367536 4.72367536 2.37763976
Pd 1.57405464 1.57405464 2.37763976
Pd 1.57443250 4.72329750 -0.7871898699999988 0 0 0
Rh 1.57443250 1.57443250 -0.7871898699999988 0 0 0
Rh 1.57562907 4.72210093 2.33165442
Rh 4.72222689 1.57550311 2.33214889
Rh 4.72329750 4.72329750 -0.7871898699999988 0 0 0
