&CONTROL
calculation = 'relax'
prefix = 'scf'
pseudo_dir = '/vol0004/mdt0/data/hp150275/u10028/POT_KKJUS'
outdir = './data'
tprnfor = .true.
nstep = 50
disk_io = 'non'
/
&SYSTEM
ibrav = 0
ecutwfc = 50.0
ecutrho = 400
occupations = 'smearing'
smearing = 'mp'
degauss = 0.01
assume_isolated = 'esm'
esm_bc = 'bc1'
input_dft = 'BEEF-VDW'
nosym = .true.
nspin = 1
ntyp = 2
nat = 16
/
&ELECTRONS
electron_maxstep = 200
mixing_beta = 0.1
conv_thr = 1e-06
/
&IONS
ion_dynamics = 'bfgs'
upscale = 1.0
/
&CELL
/

K_POINTS {automatic}
6 8 1 0 0 0

ATOMIC_SPECIES
Pt 195.0 Pt.pbe-n-rrkjus_psl.1.0.0.UPF
Zn 65.40 Zn.pbe-dnl-rrkjus_psl.1.0.0.UPF

CELL_PARAMETERS {angstrom}
7.90864000 0.00000000 0.00000000
0.00000000 5.59226000 0.00000000
0.00000000 0.00000000 24.19420000

ATOMIC_POSITIONS {angstrom}
Zn 7.90856091 0.00000000 2.02674813
Zn 0.00000000 2.79613000 -0.6989704400000001 0 0 0
Zn 3.95439909 0.00000000 2.02674813
Zn 3.95432000 2.79613000 -0.6989704400000001 0 0 0
Pt 0.00000000 2.79613000 1.99771509
Pt 1.97716000 4.22204445 0.77711770
Pt 1.97716000 1.37021555 0.77711770
Pt 0.00000000 0.00000000 -0.6989704400000001 0 0 0
Pt 1.97716000 1.39806500 -2.097153259999999 0 0 0
Pt 1.97716000 4.19419500 -2.097153259999999 0 0 0
Pt 3.95432000 2.79613000 1.99771509
Pt 5.93148000 4.22204445 0.77711770
Pt 5.93148000 1.37021555 0.77711770
Pt 3.95432000 0.00000000 -0.6989704400000001 0 0 0
Pt 5.93148000 1.39806500 -2.097153259999999 0 0 0
Pt 5.93148000 4.19419500 -2.097153259999999 0 0 0
