&CONTROL
calculation = 'relax'
prefix = 'scf'
pseudo_dir = '/vol0403/data/hp230205/u10028/POT_HYBRID_KKJUS_GBRV'
outdir = './data'
tprnfor = .true.
nstep = 50
disk_io = 'non'
/
&SYSTEM
ibrav = 0
ecutwfc = 50.0
ecutrho = 400
occupations = 'smearing'
smearing = 'mp'
degauss = 0.01
assume_isolated = 'esm'
esm_bc = 'bc1'
input_dft = 'BEEF-VDW'
nosym = .true.
nspin = 1
ntyp = 6
nat = 18
/
&ELECTRONS
electron_maxstep = 200
mixing_beta = 0.1
conv_thr = 1e-06
/
&IONS
ion_dynamics = 'bfgs'
upscale = 1.0
/
&CELL
/

K_POINTS {automatic}
6 6 1 0 0 0

ATOMIC_SPECIES
C 12.01 C.pbe-n-rrkjus_psl.1.0.0.UPF
Li 6.941 Li.pbe-sl-rrkjus_psl.1.0.0.UPF
O 15.99 O.pbe-n-rrkjus_psl.1.0.0.UPF
Pb 207.2 Pb.pbe-dn-rrkjus_psl.1.0.0.UPF
Sn 118.7 Sn.pbe-dn-rrkjus_psl.1.0.0.UPF
Y 88.90 Y.pbe-spn-rrkjus_psl.1.0.0.UPF


CELL_PARAMETERS {angstrom}
6.55220000 0.00000000 0.00000000
0.00000000 9.36828000 0.00000000
0.00000000 0.00000000 24.89710000

ATOMIC_POSITIONS {angstrom}
Li 0.26090860 9.36790527 2.84897515
Li 3.00306983 0.00000000 -0.8161269399999966 0 0 0
Li 0.20488729 4.68310949 2.54473259
Li 3.00306983 4.68414000 -0.8161269399999966 0 0 0
Y 4.91316717 2.32464500 0.82309813
Y 1.22847198 2.34207000 -2.4486297899999983 0 0 0
Y 4.91028420 7.04335395 0.82210224
Y 1.22847198 7.02621000 -2.4486297899999983 0 0 0
Sn 3.36835498 9.36790527 2.34953933
Sn 6.27916983 0.00000000 -0.8161269399999966 0 0 0
Sn 3.35721624 4.68507683 2.35128212
Sn 6.27916983 4.68414000 -0.8161269399999966 0 0 0
Pb 1.59991620 2.32530078 1.24410809
Pb 4.50457198 2.34207000 -2.4486297899999983 0 0 0
Pb 1.59762293 7.04400973 1.24609985
Pb 4.50457198 7.02621000 -2.4486297899999983 0 0 0
C 0.97752272 9.36640634 4.82953946
O 1.44476010 9.36528215 5.86974030
