&CONTROL
calculation = 'relax'
prefix = 'scf'
pseudo_dir = '/vol0004/mdt0/data/hp150275/u10028/POT_HYBRID_KKJUS_GBRV'
outdir = './data'
tprnfor = .true.
nstep = 50
disk_io = 'non'
/
&SYSTEM
ibrav = 0
ecutwfc = 50.0
ecutrho = 400
occupations = 'smearing'
smearing = 'mp'
degauss = 0.01
assume_isolated = 'esm'
esm_bc = 'bc1'
input_dft = 'BEEF-VDW'
nosym = .true.
nspin = 2
ntyp = 4
nat = 33
starting_magnetization(1) = 0.0
starting_magnetization(2) = 0.1
starting_magnetization(3) = 0.0
starting_magnetization(4) = 0.0
/
&ELECTRONS
electron_maxstep = 300
mixing_beta = 0.1
conv_thr = 1e-06
/
&IONS
ion_dynamics = 'bfgs'
upscale = 1.0
/
&CELL
/

K_POINTS {automatic}
9 6 2 0  0  0

ATOMIC_SPECIES
C 12.01 C.pbe-n-rrkjus_psl.1.0.0.UPF
Co 58.93 co_pbe_v1.2.uspp.F.UPF
Ge 72.64 Ge.pbe-dn-rrkjus_psl.1.0.0.UPF
Li 6.941 Li.pbe-sl-rrkjus_psl.1.0.0.UPF

CELL_PARAMETERS {angstrom}
5.64259000 0.00000000 0.00000000
0.00000000 7.97982000 0.00000000
0.00000000 0.00000000 25.98490000

ATOMIC_POSITIONS {angstrom}
Li 0.00000000 0.00000000 -2.9924210799999997 0 0 0
Li 2.82129500 1.99495500 -0.9975603100000008 0 0 0
Li 2.82129500 5.98486500 -0.9975603100000008 0 0 0
Li 0.00000000 3.98991000 -2.9924210799999997 0 0 0
Li 0.00005643 3.98991000 0.94377157
Li 2.82129500 6.06809452 3.85875765
Li 2.82129500 1.91172548 3.85875765
Li 0.00000000 0.00000000 0.95104734
Co 1.41064750 0.00000000 -0.9975603100000008 0 0 0
Co 4.23194250 3.98991000 -0.9975603100000008 0 0 0
Co 4.23194250 0.00000000 -0.9975603100000008 0 0 0
Co 1.41064750 3.98991000 -0.9975603100000008 0 0 0
Co 4.23194250 5.98486500 -2.9924210799999997 0 0 0
Co 1.41064750 1.99495500 -2.9924210799999997 0 0 0
Co 1.41064750 5.98486500 -2.9924210799999997 0 0 0
Co 4.23194250 1.99495500 -2.9924210799999997 0 0 0
Co 1.53986281 3.98991000 2.88796179
Co 4.26754724 0.00000000 2.94642781
Co 4.10278361 3.98991000 2.88822163
Co 1.37492991 0.00000000 2.94668766
Co 4.20011829 1.98298527 1.06200286
Co 1.44258456 5.99675493 1.06200286
Co 1.44241528 1.98306507 1.06200286
Co 4.20000544 5.99683473 1.06226271
Ge 0.00000000 5.98486500 -0.9975603100000008 0 0 0
Ge 2.82129500 0.00000000 -2.9924210799999997 0 0 0
Ge 0.00000000 1.99495500 -0.9975603100000008 0 0 0
Ge 2.82129500 3.98991000 -2.9924210799999997 0 0 0
Ge 0.00005643 2.12702102 2.98618471
Ge 2.82129500 3.98983020 0.89621920
Ge 0.00000000 5.85279898 2.98644456
Ge 2.82129500 0.00007980 0.91570788
C 5.64247715 0.00000000 4.00843067
