&CONTROL
calculation = 'relax'
prefix = 'scf'
pseudo_dir = '/vol0004/mdt0/data/hp150275/u10028/POT_HYBRID_KKJUS_GBRV'
outdir = './data'
tprnfor = .true.
nstep = 50
disk_io = 'non'
/
&SYSTEM
ibrav = 0
ecutwfc = 50.0
ecutrho = 400
occupations = 'smearing'
smearing = 'mp'
degauss = 0.01
assume_isolated = 'esm'
esm_bc = 'bc1'
input_dft = 'BEEF-VDW'
nosym = .true.
nspin = 2
ntyp = 5
nat = 18
starting_magnetization(1) = 0.1
starting_magnetization(2) = 0.1
starting_magnetization(3) = 0.1
starting_magnetization(4) = 0.1
starting_magnetization(5) = 0.1
/
&ELECTRONS
electron_maxstep = 200
mixing_beta = 0.1
conv_thr = 1e-06
/
&IONS
ion_dynamics = 'bfgs'
upscale = 1.0
/
&CELL
/

K_POINTS {automatic}
8 8 1 0 0 0

ATOMIC_SPECIES
Al 26.98 Al.pbe-nl-rrkjus_psl.1.0.0.UPF
C 12.01 C.pbe-n-rrkjus_psl.1.0.0.UPF
Co 58.93 co_pbe_v1.2.uspp.F.UPF
Hf 178.4 Hf.pbe-spn-rrkjus_psl.1.0.0.UPF
O 15.99 O.pbe-n-rrkjus_psl.1.0.0.UPF

CELL_PARAMETERS {angstrom}
6.03399000 0.00000000 0.00000000
-0.00000000 6.03399000 0.00000000
0.00000000 0.00000000 24.52550000

ATOMIC_POSITIONS {angstrom}
Hf 0.00000000 0.00000000 2.26272263
Hf 3.01699500 3.01699500 2.26272263
Hf 3.01699500 0.00000000 -0.7541591300000015 0 0 0
Hf 0.00000000 3.01699500 -0.7541591300000015 0 0 0
Al 0.00000000 0.00000000 -0.7541591300000015 0 0 0
Al 3.01699500 -0.00000000 2.26272263
Al 0.00000000 3.01699500 2.26272263
Al 3.01699500 3.01699500 -0.7541591300000015 0 0 0
Co 1.50849750 1.50849750 0.75415913
Co 4.52549250 4.52549250 -2.2627226300000025 0 0 0
Co 4.52549250 1.50849750 0.75415913
Co 1.50849750 4.52549250 -2.2627226300000025 0 0 0
Co 4.52549250 4.52549250 0.75415913
Co 1.50849750 1.50849750 -2.2627226300000025 0 0 0
Co 1.50849750 4.52549250 0.75415913
Co 4.52549250 1.50849750 -2.2627226300000025 0 0 0
C 0.00000000 0.00000000 4.16271311
O 0.00000000 0.00000000 5.31271381
