&CONTROL
calculation = 'relax'
prefix = 'scf'
pseudo_dir = '/vol0004/mdt0/data/hp150275/u10028/POT_KKJUS'
outdir = './data'
tprnfor = .true.
nstep = 50
disk_io = 'non'
/
&SYSTEM
ibrav = 0
ecutwfc = 50.0
ecutrho = 400
occupations = 'smearing'
smearing = 'mp'
degauss = 0.01
assume_isolated = 'esm'
esm_bc = 'bc1'
input_dft = 'BEEF-VDW'
nosym = .true.
nspin = 1
ntyp = 5
nat = 18
/
&ELECTRONS
electron_maxstep = 200
mixing_beta = 0.1
conv_thr = 1e-06
/
&IONS
ion_dynamics = 'bfgs'
upscale = 1.0
/
&CELL
/

K_POINTS {automatic}
9 9 2 0  0  0

ATOMIC_SPECIES
Ag 107.8 Ag.pbe-n-rrkjus_psl.1.0.0.UPF
Al 26.98 Al.pbe-nl-rrkjus_psl.1.0.0.UPF
C 12.01 C.pbe-n-rrkjus_psl.1.0.0.UPF
O 15.99 O.pbe-n-rrkjus_psl.1.0.0.UPF
Sc 44.95 Sc.pbe-spn-rrkjus_psl.1.0.0.UPF

CELL_PARAMETERS {angstrom}
6.65011000 0.00000000 0.00000000
-0.00000000 6.65011000 0.00000000
0.00000000 0.00000000 24.98760000

ATOMIC_POSITIONS {angstrom}
Sc 0.00000000 0.00000000 -2.493762480000001 0 0 0
Sc 3.32505500 3.32505500 -2.493762480000001 0 0 0
Sc 3.32505500 -0.00000000 0.83133745
Sc 0.00000000 3.32505500 0.83133745
Al 0.00000000 0.00000000 0.83133745
Al 3.32505500 0.00000000 -2.493762480000001 0 0 0
Al 0.00000000 3.32505500 -2.493762480000001 0 0 0
Al 3.32505500 3.32505500 0.83133745
Ag 1.66252750 1.66252750 -0.8313374499999995 0 0 0
Ag 4.98758250 4.98758250 2.49376248
Ag 4.98758250 1.66252750 -0.8313374499999995 0 0 0
Ag 1.66252750 4.98758250 2.49376248
Ag 4.98758250 4.98758250 -0.8313374499999995 0 0 0
Ag 1.66252750 1.66252750 2.49376248
Ag 1.66252750 4.98758250 -0.8313374499999995 0 0 0
Ag 4.98758250 1.66252750 2.49376248
C 1.66252750 1.66252750 4.39381958
O 1.66252750 1.66252750 5.54374894
