&CONTROL
calculation = 'relax'
prefix = 'scf'
pseudo_dir = '/vol0004/mdt0/data/hp150275/u10028/POT_KKJUS'
outdir = './data'
tprnfor = .true.
nstep = 50
disk_io = 'non'
/
&SYSTEM
ibrav = 0
ecutwfc = 50.0
ecutrho = 400
occupations = 'smearing'
smearing = 'mp'
degauss = 0.01
assume_isolated = 'esm'
esm_bc = 'bc1'
input_dft = 'BEEF-VDW'
nosym = .true.
nspin = 1
ntyp = 3
nat = 33
/
&ELECTRONS
electron_maxstep = 200
mixing_beta = 0.1
conv_thr = 1e-06
/
&IONS
ion_dynamics = 'bfgs'
upscale = 1.0
/
&CELL
/

K_POINTS {automatic}
8 6 1 0 0 0

ATOMIC_SPECIES
C 12.01 C.pbe-n-rrkjus_psl.1.0.0.UPF
Sc 44.95 Sc.pbe-spn-rrkjus_psl.1.0.0.UPF
Zn 65.40 Zn.pbe-dnl-rrkjus_psl.1.0.0.UPF

CELL_PARAMETERS {angstrom}
6.70510000 0.00000000 0.00000000
0.00000000 9.48244000 0.00000000
0.00000000 0.00000000 27.11180000

ATOMIC_POSITIONS {angstrom}
Sc 0.00000000 0.00000000 -3.555983689999998 0 0 0
Sc 0.00000000 2.37061000 -1.1853278999999972 0 0 0
Sc 0.00965534 9.46508713 1.19075026
Sc 6.53861237 2.37061000 3.57658866
Sc 0.00000000 4.74122000 -3.555983689999998 0 0 0
Sc 0.00000000 7.11183000 -1.1853278999999972 0 0 0
Sc 0.00978945 4.75866769 1.19075026
Sc 0.11901553 7.11173518 3.47491941
Sc 3.35255000 0.00000000 -3.555983689999998 0 0 0
Sc 3.35255000 2.37061000 -1.1853278999999972 0 0 0
Sc 3.34168774 9.46499231 1.18993690
Sc 3.52446876 2.37070482 3.57875760
Sc 3.35255000 4.74122000 -3.555983689999998 0 0 0
Sc 3.35255000 7.11183000 -1.1853278999999972 0 0 0
Sc 3.34155364 4.75866769 1.18993690
Sc 3.23172410 7.11183000 3.47546164
Zn 1.67627500 2.37061000 -3.555983689999998 0 0 0
Zn 1.67627500 0.00000000 -1.1853278999999972 0 0 0
Zn 1.67801833 2.37079965 1.19644373
Zn 1.67996280 0.22141497 3.76420231
Zn 1.67627500 7.11183000 -3.555983689999998 0 0 0
Zn 1.67627500 4.74122000 -1.1853278999999972 0 0 0
Zn 1.67714666 7.11164035 1.06739157
Zn 1.67996280 4.51980503 3.76393119
Zn 5.02882500 2.37061000 -3.555983689999998 0 0 0
Zn 5.02882500 0.00000000 -1.1853278999999972 0 0 0
Zn 5.02728283 2.37165307 1.09640119
Zn 5.02641116 9.36248713 3.48061288
Zn 5.02882500 7.11183000 -3.555983689999998 0 0 0
Zn 5.02882500 4.74122000 -1.1853278999999972 0 0 0
Zn 5.02694757 7.11145070 1.22111547
Zn 5.02634411 4.86107804 3.48034177
C 1.67888999 2.37061000 4.36039079
