&CONTROL
calculation = 'relax'
prefix = 'scf'
pseudo_dir = '/vol0004/mdt0/data/hp150275/u10028/POT_KKJUS'
outdir = './data'
tprnfor = .true.
nstep = 50
disk_io = 'non'
/
&SYSTEM
ibrav = 0
ecutwfc = 50.0
ecutrho = 400
occupations = 'smearing'
smearing = 'mp'
degauss = 0.01
assume_isolated = 'esm'
esm_bc = 'bc1'
input_dft = 'BEEF-VDW'
nosym = .true.
nspin = 1
ntyp = 5
nat = 34
/
&ELECTRONS
electron_maxstep = 200
mixing_beta = 0.1
conv_thr = 1e-06
/
&IONS
ion_dynamics = 'bfgs'
upscale = 1.0
/
&CELL
/

K_POINTS {automatic}
8 6 1 0 0 0

ATOMIC_SPECIES
C 12.01 C.pbe-n-rrkjus_psl.1.0.0.UPF
Li 6.941 Li.pbe-sl-rrkjus_psl.1.0.0.UPF
Mg 24.30 Mg.pbe-spnl-rrkjus_psl.1.0.0.UPF
O 15.99 O.pbe-n-rrkjus_psl.1.0.0.UPF
Pb 207.2 Pb.pbe-dn-rrkjus_psl.1.0.0.UPF

CELL_PARAMETERS {angstrom}
6.88544000 0.00000000 0.00000000
0.00000000 9.73748000 0.00000000
0.00000000 0.00000000 27.30310000

ATOMIC_POSITIONS {angstrom}
Li 1.72136000 0.00000000 -1.2171722000000003 0 0 0
Li 5.16408000 4.86874000 -1.2171722000000003 0 0 0
Li 5.16408000 0.00000000 -1.2171722000000003 0 0 0
Li 1.72136000 4.86874000 -1.2171722000000003 0 0 0
Li 5.16408000 7.30311000 -3.65151659 0 0 0
Li 1.72136000 2.43437000 -3.65151659 0 0 0
Li 1.72136000 7.30311000 -3.65151659 0 0 0
Li 5.16408000 2.43437000 -3.65151659 0 0 0
Li 1.60341241 4.86874000 3.87540201
Li 5.28423093 0.00000000 3.86830321
Li 5.28182102 4.86874000 3.87840536
Li 1.62103914 0.00000000 3.88632325
Li 5.19912689 2.43183826 1.14618414
Li 1.68266383 7.30603124 1.15219082
Li 1.68266383 2.43144876 1.15219082
Li 5.19912689 7.30564174 1.14618414
Mg 0.00000000 0.00000000 -3.65151659 0 0 0
Mg 3.44272000 2.43437000 -1.2171722000000003 0 0 0
Mg 3.44272000 7.30311000 -1.2171722000000003 0 0 0
Mg 0.00000000 4.86874000 -3.65151659 0 0 0
Mg 6.87944967 4.86874000 1.38972779
Mg 3.45614661 7.28188229 3.53138295
Mg 3.45614661 2.45559771 3.53138295
Mg 0.00199678 0.00000000 1.39355022
Pb 0.00000000 7.30311000 -1.2171722000000003 0 0 0
Pb 3.44272000 0.00000000 -3.65151659 0 0 0
Pb 0.00000000 2.43437000 -1.2171722000000003 0 0 0
Pb 3.44272000 4.86874000 -3.65151659 0 0 0
Pb 6.86416399 2.44985259 3.62940108
Pb 3.43734936 4.86874000 1.35095739
Pb 6.86409514 7.28772478 3.62940108
Pb 3.43583456 0.00000000 1.35259557
C 1.83496976 0.00000000 5.94743427
O 1.85865567 0.00000000 7.09116113
