&CONTROL
calculation = 'relax'
prefix = 'scf'
pseudo_dir = '/vol0004/mdt0/data/hp150275/u10028/POT_KKJUS'
outdir = './data'
tprnfor = .true.
nstep = 50
disk_io = 'non'
/
&SYSTEM
ibrav = 0
ecutwfc = 50.0
ecutrho = 400
occupations = 'smearing'
smearing = 'mp'
degauss = 0.01
assume_isolated = 'esm'
esm_bc = 'bc1'
input_dft = 'BEEF-VDW'
nosym = .true.
nspin = 1
ntyp = 2
nat = 32
/
&ELECTRONS
electron_maxstep = 200
mixing_beta = 0.1
conv_thr = 1e-06
/
&IONS
ion_dynamics = 'bfgs'
upscale = 1.0
/
&CELL
/

K_POINTS {automatic}
9 6 2 0  0  0

ATOMIC_SPECIES
Be 9.012 Be.pbe-n-rrkjus_psl.1.0.0.UPF
Rh 102.9 Rh.pbe-spn-rrkjus_psl.1.0.0.UPF

CELL_PARAMETERS {angstrom}
5.57428000 0.00000000 0.00000000
0.00000000 7.88322000 0.00000000
0.00000000 0.00000000 25.91240000

ATOMIC_POSITIONS {angstrom}
Be 0.00000000 0.00000000 -2.9560865900000017 0 0 0
Be 0.00000000 1.97080500 -0.9854485700000026 0 0 0
Be 0.00005574 0.00000000 1.02664929
Be 0.00000000 1.97072617 2.79957570
Be 0.00000000 3.94161000 -2.9560865900000017 0 0 0
Be 0.00000000 5.91241500 -0.9854485700000026 0 0 0
Be 0.00000000 3.94161000 1.02664929
Be 0.00000000 5.91249383 2.79957570
Be 2.78714000 0.00000000 -2.9560865900000017 0 0 0
Be 2.78714000 1.97080500 -0.9854485700000026 0 0 0
Be 2.78708426 0.00000000 1.02664929
Be 2.78708426 1.97080500 2.79957570
Be 2.78714000 3.94161000 -2.9560865900000017 0 0 0
Be 2.78714000 5.91241500 -0.9854485700000026 0 0 0
Be 2.78719574 3.94161000 1.02664929
Be 2.78714000 5.91241500 2.79957570
Rh 1.39357000 1.97080500 -2.9560865900000017 0 0 0
Rh 1.39357000 0.00000000 -0.9854485700000026 0 0 0
Rh 1.39351426 1.97096266 0.96160916
Rh 1.39357000 3.94168883 2.97448440
Rh 1.39357000 5.91241500 -2.9560865900000017 0 0 0
Rh 1.39357000 3.94161000 -0.9854485700000026 0 0 0
Rh 1.39357000 5.91225734 0.96160916
Rh 1.39345851 7.88314117 2.97474352
Rh 4.18071000 1.97080500 -2.9560865900000017 0 0 0
Rh 4.18071000 0.00000000 -0.9854485700000026 0 0 0
Rh 4.18076574 1.97096266 0.96160916
Rh 4.18071000 3.94168883 2.97448440
Rh 4.18071000 5.91241500 -2.9560865900000017 0 0 0
Rh 4.18071000 3.94161000 -0.9854485700000026 0 0 0
Rh 4.18076574 5.91225734 0.96160916
Rh 4.18071000 7.88314117 2.97448440
