&CONTROL
calculation = 'relax'
prefix = 'scf'
pseudo_dir = '/vol0403/data/hp230205/u10028/POT_HYBRID_KKJUS_GBRV'
outdir = './data'
tprnfor = .true.
nstep = 50
disk_io = 'non'
/
&SYSTEM
ibrav = 0
ecutwfc = 50.0
ecutrho = 400
occupations = 'smearing'
smearing = 'mp'
degauss = 0.01
assume_isolated = 'esm'
esm_bc = 'bc1'
input_dft = 'BEEF-VDW'
nosym = .true.
nspin = 1
ntyp = 4
nat = 16
/
&ELECTRONS
electron_maxstep = 200
mixing_beta = 0.1
conv_thr = 1e-06
/
&IONS
ion_dynamics = 'bfgs'
upscale = 1.0
/
&CELL
/

K_POINTS {automatic}
6 6 1 0 0 0

ATOMIC_SPECIES
Al 26.98 Al.pbe-nl-rrkjus_psl.1.0.0.UPF
In 114.8 In.pbe-dn-rrkjus_psl.1.0.0.UPF
Li 6.941 Li.pbe-sl-rrkjus_psl.1.0.0.UPF
Sc 44.95 Sc.pbe-spn-rrkjus_psl.1.0.0.UPF


CELL_PARAMETERS {angstrom}
6.04255000 0.00000000 0.00000000
0.00000000 8.49254000 0.00000000
0.00000000 0.00000000 24.52830000

ATOMIC_POSITIONS {angstrom}
Li 4.47184955 2.12313500 -0.7547357900000016 0 0 0
Li 1.29485804 2.12305007 2.17345266
Li 4.47184955 6.36940500 -0.7547357900000016 0 0 0
Li 1.29497889 6.36932007 2.17369795
Sc 1.45057455 2.12313500 -0.7547357900000016 0 0 0
Sc 4.24597903 2.12313500 2.12635833
Sc 1.45057455 6.36940500 -0.7547357900000016 0 0 0
Sc 4.24622074 6.36974470 2.12758474
Al 0.00000000 0.00000000 -2.264207370000001 0 0 0
Al 2.81552617 0.00016985 0.83494333
Al 0.00000000 4.24627000 -2.264207370000001 0 0 0
Al 2.81558660 4.24618507 0.83518861
In 3.02127500 0.00000000 -2.264207370000001 0 0 0
In 5.85933988 0.00016985 0.80477352
In 3.02127500 4.24627000 -2.264207370000001 0 0 0
In 5.85933988 4.24627000 0.80501881
