&CONTROL
calculation = 'relax'
prefix = 'scf'
pseudo_dir = '/vol0004/mdt0/data/hp150275/u10028/POT_KKJUS'
outdir = './data'
tprnfor = .true.
nstep = 50
disk_io = 'non'
/
&SYSTEM
ibrav = 0
ecutwfc = 50.0
ecutrho = 400
occupations = 'smearing'
smearing = 'mp'
degauss = 0.01
assume_isolated = 'esm'
esm_bc = 'bc1'
input_dft = 'BEEF-VDW'
nosym = .true.
nspin = 1
ntyp = 3
nat = 33
/
&ELECTRONS
electron_maxstep = 200
mixing_beta = 0.1
conv_thr = 1e-06
/
&IONS
ion_dynamics = 'bfgs'
upscale = 1.0
/
&CELL
/

K_POINTS {automatic}
8 6 1 0 0 0

ATOMIC_SPECIES
C 12.01 C.pbe-n-rrkjus_psl.1.0.0.UPF
Os 190.2 Os.pbe-spn-rrkjus_psl.1.0.0.UPF
Si 28.08 Si.pbe-nl-rrkjus_psl.1.0.0.UPF

CELL_PARAMETERS {angstrom}
5.90864000 0.00000000 0.00000000
0.00000000 8.35608000 0.00000000
0.00000000 0.00000000 26.26710000

ATOMIC_POSITIONS {angstrom}
Si 1.47716000 2.08902000 -3.1336650299999995 0 0 0
Si 1.47716000 0.00000000 -1.0446425700000006 0 0 0
Si 1.49388145 2.10180480 1.07563774
Si 1.77672805 0.00000000 3.39817473
Si 1.47716000 6.26706000 -3.1336650299999995 0 0 0
Si 1.47716000 4.17804000 -1.0446425700000006 0 0 0
Si 1.49388145 6.25427520 1.07563774
Si 1.41517837 4.17804000 3.21588105
Si 4.43148000 2.08902000 -3.1336650299999995 0 0 0
Si 4.43148000 0.00000000 -1.0446425700000006 0 0 0
Si 4.41475855 2.10180480 1.07563774
Si 4.13191195 0.00000000 3.39817473
Si 4.43148000 6.26706000 -3.1336650299999995 0 0 0
Si 4.43148000 4.17804000 -1.0446425700000006 0 0 0
Si 4.41475855 6.25427520 1.07563774
Si 4.49346163 4.17804000 3.21588105
Os 0.00000000 0.00000000 -3.1336650299999995 0 0 0
Os 0.00000000 2.08902000 -1.0446425700000006 0 0 0
Os 0.00000000 0.00000000 0.97529742
Os 0.00000000 2.17492050 3.00206686
Os 0.00000000 4.17804000 -3.1336650299999995 0 0 0
Os 0.00000000 6.26706000 -1.0446425700000006 0 0 0
Os 0.00000000 4.17804000 0.94246355
Os 0.00000000 6.18115950 3.00206686
Os 2.95432000 0.00000000 -3.1336650299999995 0 0 0
Os 2.95432000 2.08902000 -1.0446425700000006 0 0 0
Os 2.95432000 0.00000000 1.02730628
Os 2.95432000 2.10080207 3.06694660
Os 2.95432000 4.17804000 -3.1336650299999995 0 0 0
Os 2.95432000 6.26706000 -1.0446425700000006 0 0 0
Os 2.95432000 4.17804000 1.01391006
Os 2.95432000 6.25527793 3.06694660
C 0.00000000 0.00000000 3.18646190
