&CONTROL
calculation = 'relax'
prefix = 'scf'
pseudo_dir = '/vol0004/mdt0/data/hp150275/u10028/POT_HYBRID_KKJUS_GBRV'
outdir = './data'
tprnfor = .true.
nstep = 50
disk_io = 'non'
/
&SYSTEM
ibrav = 0
ecutwfc = 50.0
ecutrho = 400
occupations = 'smearing'
smearing = 'mp'
degauss = 0.01
assume_isolated = 'esm'
esm_bc = 'bc1'
input_dft = 'BEEF-VDW'
nosym = .true.
nspin = 2
ntyp = 4
nat = 33
starting_magnetization(1) = 0.0
starting_magnetization(2) = 0.1
starting_magnetization(3) = 0.1
starting_magnetization(4) = 0.0
/
&ELECTRONS
electron_maxstep = 200
mixing_beta = 0.1
conv_thr = 1e-06
/
&IONS
ion_dynamics = 'bfgs'
upscale = 1.0
/
&CELL
/

K_POINTS {automatic}
9 6 2 0  0  0

ATOMIC_SPECIES
C 12.01 C.pbe-n-rrkjus_psl.1.0.0.UPF
Co 58.93 co_pbe_v1.2.uspp.F.UPF
Mn 54.93 mn_pbe_v1.5.uspp.F.UPF
Sb 121.7 Sb.pbe-n-rrkjus_psl.1.0.0.UPF

CELL_PARAMETERS {angstrom}
6.03986000 0.00000000 0.00000000
0.00000000 8.54165000 0.00000000
0.00000000 0.00000000 26.40620000

ATOMIC_POSITIONS {angstrom}
Mn 0.00000000 0.00000000 23.20312794
Mn 3.01993000 2.13541250 25.33859733
Mn 3.01993000 6.40623750 25.33859733
Mn 0.00000000 4.27082500 23.20312794
Mn 0.00000000 4.27082500 1.05149488
Mn 3.01993000 6.42861662 3.22762983
Mn 3.01993000 2.11303338 3.22762983
Mn 0.00000000 0.00000000 1.02825743
Co 1.50996500 0.00000000 25.33859733
Co 4.52989500 4.27082500 25.33859733
Co 4.52989500 0.00000000 25.33859733
Co 1.50996500 4.27082500 25.33859733
Co 4.52989500 6.40623750 23.20312794
Co 1.50996500 2.13541250 23.20312794
Co 1.50996500 6.40623750 23.20312794
Co 4.52989500 2.13541250 23.20312794
Co 1.56045823 4.27082500 3.04331455
Co 4.63704212 0.00000000 3.14524248
Co 4.47940177 4.27082500 3.04331455
Co 1.40281788 0.00000000 3.14524248
Co 4.56184586 2.11952503 1.09849792
Co 1.47801414 6.42212497 1.09849792
Co 1.47801414 2.11952503 1.09849792
Co 4.56184586 6.42221039 1.09849792
Sb 0.00000000 6.40623750 25.33859733
Sb 3.01993000 0.00000000 23.20312794
Sb 0.00000000 2.13541250 25.33859733
Sb 3.01993000 4.27082500 23.20312794
Sb 0.00000000 2.29001637 3.37920141
Sb 3.01993000 4.27082500 1.02139182
Sb 0.00000000 6.25154822 3.37920141
Sb 3.01993000 0.00000000 1.05836050
C 0.00000000 0.00000000 4.25747163
