&CONTROL
calculation = 'relax'
prefix = 'scf'
pseudo_dir = '/vol0403/data/hp230205/u10028/POT_HYBRID_KKJUS_GBRV'
outdir = './data'
tprnfor = .true.
nstep = 50
disk_io = 'non'
/
&SYSTEM
ibrav = 0
ecutwfc = 50.0
ecutrho = 400
occupations = 'smearing'
smearing = 'mp'
degauss = 0.01
assume_isolated = 'esm'
esm_bc = 'bc1'
input_dft = 'BEEF-VDW'
nosym = .true.
nspin = 1
ntyp = 6
nat = 34
/
&ELECTRONS
electron_maxstep = 200
mixing_beta = 0.1
conv_thr = 1e-06
/
&IONS
ion_dynamics = 'bfgs'
upscale = 1.0
/
&CELL
/

K_POINTS {automatic}
6 6 1 0 0 0

ATOMIC_SPECIES
Ag 107.8 Ag.pbe-n-rrkjus_psl.1.0.0.UPF
Al 26.98 Al.pbe-nl-rrkjus_psl.1.0.0.UPF
C 12.01 C.pbe-n-rrkjus_psl.1.0.0.UPF
Li 6.941 Li.pbe-sl-rrkjus_psl.1.0.0.UPF
O 15.99 O.pbe-n-rrkjus_psl.1.0.0.UPF
Sn 118.7 Sn.pbe-dn-rrkjus_psl.1.0.0.UPF


CELL_PARAMETERS {angstrom}
8.16098000 0.00000000 0.00000000
0.00000000 8.56020000 0.00000000
0.00000000 0.00000000 26.50010000

ATOMIC_POSITIONS {angstrom}
Li 2.04024500 2.14005000 -3.24997226 0 0 0
Li 2.04726344 2.14005000 1.03853892
Li 2.04024500 6.42015000 -3.24997226 0 0 0
Li 2.04057144 6.42015000 1.04410394
Li 6.12073500 2.14005000 -3.24997226 0 0 0
Li 6.11355334 2.14005000 1.03853892
Li 6.12073500 6.42015000 -3.24997226 0 0 0
Li 6.12032695 6.42015000 1.04410394
Al 2.04024500 0.00000000 -1.0833240900000014 0 0 0
Al 2.03910246 8.55805995 3.02843143
Al 2.04024500 4.28010000 -1.0833240900000014 0 0 0
Al 2.03910246 4.28215445 3.02843143
Al 6.12073500 0.00000000 -1.0833240900000014 0 0 0
Al 6.12171432 8.55805995 3.02843143
Al 6.12073500 4.28010000 -1.0833240900000014 0 0 0
Al 6.12171432 4.28215445 3.02843143
Ag 0.00000000 0.00000000 -3.24997226 0 0 0
Ag 8.16089839 8.55300943 1.03217889
Ag 0.00000000 4.28010000 -3.24997226 0 0 0
Ag 8.16089839 4.28729057 1.03217889
Ag 4.08049000 0.00000000 -3.24997226 0 0 0
Ag 4.08040839 0.00162644 1.02634887
Ag 4.08049000 4.28010000 -3.24997226 0 0 0
Ag 4.08040839 4.27847356 1.02634887
Sn 0.00000000 2.14005000 -1.0833240900000014 0 0 0
Sn 8.16089839 2.14005000 3.41904290
Sn 0.00000000 6.42015000 -1.0833240900000014 0 0 0
Sn 8.16089839 6.42015000 3.44845801
Sn 4.08049000 2.14005000 -1.0833240900000014 0 0 0
Sn 4.08040839 2.14005000 3.43679797
Sn 4.08049000 6.42015000 -1.0833240900000014 0 0 0
Sn 4.08040839 6.42015000 3.42858294
C 0.00261151 2.14124843 7.45951315
O 8.16057195 2.13987880 8.59424743
