&CONTROL
calculation = 'relax'
prefix = 'scf'
pseudo_dir = '/vol0004/mdt0/data/hp150275/u10028/POT_HYBRID_KKJUS_GBRV'
outdir = './data'
tprnfor = .true.
nstep = 70
disk_io = 'non'
/
&SYSTEM
ibrav = 0
ecutwfc = 50.0
ecutrho = 400
occupations = 'smearing'
smearing = 'mp'
degauss = 0.01
assume_isolated = 'esm'
esm_bc = 'bc1'
input_dft = 'BEEF-VDW'
nosym = .true.
nspin = 1
ntyp = 4
nat = 34
/
&ELECTRONS
electron_maxstep = 200
mixing_beta = 0.1
conv_thr = 1e-06
/
&IONS
ion_dynamics = 'bfgs'
upscale = 1.0
/
&CELL
/

K_POINTS {automatic}
6 8 1 0 0 0

ATOMIC_SPECIES
C 12.01 C.pbe-n-rrkjus_psl.1.0.0.UPF
Ca 40.07 Ca.pbe-spn-rrkjus_psl.1.0.0.UPF
O 15.99 O.pbe-n-rrkjus_psl.1.0.0.UPF
Pb 207.2 Pb.pbe-dn-rrkjus_psl.1.0.0.UPF

CELL_PARAMETERS {angstrom}
10.41900000 0.00000000 0.00000000
0.00000000 9.18716000 0.00000000
0.00000000 0.00000000 27.81430000

ATOMIC_POSITIONS {angstrom}
Ca 0.00000000 0.00000000 -3.9070747200000007 0 0 0
Ca 2.60475000 0.00000000 -1.3022655299999997 0 0 0
Ca 0.00083352 9.17971840 1.29030538
Ca 2.60318715 0.00643101 4.02166964
Ca 0.00000000 4.59358000 -3.9070747200000007 0 0 0
Ca 2.60475000 4.59358000 -1.3022655299999997 0 0 0
Ca 0.00083352 4.60111347 1.29058352
Ca 2.60297877 4.58724086 4.02194778
Ca 5.20950000 0.00000000 -3.9070747200000007 0 0 0
Ca 7.81425000 0.00000000 -1.3022655299999997 0 0 0
Ca 5.21022933 0.00927903 1.29670267
Ca 7.81779246 0.00689037 4.02111335
Ca 5.20950000 4.59358000 -3.9070747200000007 0 0 0
Ca 7.81425000 4.59358000 -1.3022655299999997 0 0 0
Ca 5.21012514 4.58420910 1.29670267
Ca 7.81768827 4.58696524 4.02111335
Pb 2.60475000 2.29679000 -3.9070747200000007 0 0 0
Pb 0.00000000 2.29679000 -1.3022655299999997 0 0 0
Pb 2.59464357 2.29679000 1.44189331
Pb 0.00208380 2.29688187 3.81556567
Pb 2.60475000 6.89037000 -3.9070747200000007 0 0 0
Pb 0.00000000 6.89037000 -1.3022655299999997 0 0 0
Pb 2.61443967 6.89046187 1.45969446
Pb 0.00072933 6.89037000 3.83364497
Pb 7.81425000 2.29679000 -3.9070747200000007 0 0 0
Pb 5.20950000 2.29679000 -1.3022655299999997 0 0 0
Pb 7.82571090 2.29679000 1.44105888
Pb 5.21012514 2.29679000 3.85283684
Pb 7.81425000 6.89037000 -3.9070747200000007 0 0 0
Pb 5.20950000 6.89037000 -1.3022655299999997 0 0 0
Pb 7.80581061 6.89037000 1.45969446
Pb 5.21085447 6.89037000 3.81862525
C 10.38076227 2.29669813 8.54594368
O 0.00395922 2.29697374 9.68048897
