&CONTROL
calculation = 'relax'
prefix = 'scf'
pseudo_dir = '/vol0403/data/hp230205/u10028/POT_HYBRID_KKJUS_GBRV'
outdir = './data'
tprnfor = .true.
nstep = 50
disk_io = 'non'
/
&SYSTEM
ibrav = 0
ecutwfc = 50.0
ecutrho = 400
occupations = 'smearing'
smearing = 'mp'
degauss = 0.01
assume_isolated = 'esm'
esm_bc = 'bc1'
input_dft = 'BEEF-VDW'
nosym = .true.
nspin = 1
ntyp = 6
nat = 18
/
&ELECTRONS
electron_maxstep = 200
mixing_beta = 0.1
conv_thr = 1e-06
/
&IONS
ion_dynamics = 'bfgs'
upscale = 1.0
/
&CELL
/

K_POINTS {automatic}
9 9 2 0  0  0

ATOMIC_SPECIES
Ag 107.8 Ag.pbe-n-rrkjus_psl.1.0.0.UPF
C 12.01 C.pbe-n-rrkjus_psl.1.0.0.UPF
In 114.8 In.pbe-dn-rrkjus_psl.1.0.0.UPF
Li 6.941 Li.pbe-sl-rrkjus_psl.1.0.0.UPF
O 15.99 O.pbe-n-rrkjus_psl.1.0.0.UPF
Sc 44.95 Sc.pbe-spn-rrkjus_psl.1.0.0.UPF


CELL_PARAMETERS {angstrom}
6.68683000 0.00000000 0.00000000
0.00000000 6.68683000 0.00000000
0.00000000 0.00000000 25.01510000

ATOMIC_POSITIONS {angstrom}
Li 0.00000000 3.34341500 -2.507513620000001 0 0 0
Li 6.67452623 6.67459310 0.96258105
Li 3.35230848 3.35230848 0.95982939
Li 3.34341500 0.00000000 -2.507513620000001 0 0 0
Sc 5.01512250 1.67170750 -0.8357544899999994 0 0 0
Sc 5.01806471 5.01813157 2.72214318
Sc 1.67204184 1.67197497 2.72714620
Sc 1.67170750 5.01512250 -0.8357544899999994 0 0 0
In 1.67170750 1.67170750 -0.8357544899999994 0 0 0
In 1.67010266 5.01666047 2.73915345
In 5.01666047 1.67010266 2.73915345
In 5.01512250 5.01512250 -0.8357544899999994 0 0 0
Ag 0.00000000 0.00000000 -2.507513620000001 0 0 0
Ag 6.67385755 3.35618685 0.91880462
Ag 3.35632058 6.67405815 0.91880462
Ag 3.34341500 3.34341500 -2.507513620000001 0 0 0
C 1.68541550 1.68541550 5.02253178
O 1.68280764 1.68280764 6.17097502
