&CONTROL
calculation = 'relax'
prefix = 'scf'
pseudo_dir = '/vol0004/mdt0/data/hp150275/u10028/POT_KKJUS'
outdir = './data'
tprnfor = .true.
nstep = 50
disk_io = 'non'
/
&SYSTEM
ibrav = 0
ecutwfc = 50.0
ecutrho = 400
occupations = 'smearing'
smearing = 'mp'
degauss = 0.01
assume_isolated = 'esm'
esm_bc = 'bc1'
input_dft = 'BEEF-VDW'
nosym = .true.
nspin = 1
ntyp = 5
nat = 18
/
&ELECTRONS
electron_maxstep = 200
mixing_beta = 0.1
conv_thr = 1e-06
/
&IONS
ion_dynamics = 'bfgs'
upscale = 1.0
/
&CELL
/

K_POINTS {automatic}
10 10 2 0  0  0

ATOMIC_SPECIES
C 12.01 C.pbe-n-rrkjus_psl.1.0.0.UPF
Cu 63.54 Cu.pbe-dn-rrkjus_psl.1.0.0.UPF
Ni 58.69 Ni.pbe-spn-rrkjus_psl.1.0.0.UPF
O 15.99 O.pbe-n-rrkjus_psl.1.0.0.UPF
Sn 118.7 Sn.pbe-dn-rrkjus_psl.1.0.0.UPF

CELL_PARAMETERS {angstrom}
6.01864000 0.00000000 0.00000000
0.00000000 6.01864000 0.00000000
0.00000000 0.00000000 24.51400000

ATOMIC_POSITIONS {angstrom}
Cu 0.00000000 0.00000000 -2.2570039800000004 0 0 0
Cu 3.00932000 3.00932000 -2.2570039800000004 0 0 0
Cu 3.00221800 0.00523622 0.79400846
Cu 0.00589827 3.00209763 0.79425360
Ni 1.50466000 1.50466000 -0.7523346599999989 0 0 0
Ni 4.50645670 4.50609558 2.19081618
Ni 4.51398000 1.50466000 -0.7523346599999989 0 0 0
Ni 1.51212311 4.50507241 2.20282804
Ni 4.51398000 4.51398000 -0.7523346599999989 0 0 0
Ni 1.51435001 1.51302591 2.29794236
Ni 1.50466000 4.51398000 -0.7523346599999989 0 0 0
Ni 4.50483167 1.51314628 2.20209262
Sn 6.01424639 6.01412602 0.80553004
Sn 3.00932000 0.00000000 -2.2570039800000004 0 0 0
Sn 0.00000000 3.00932000 -2.2570039800000004 0 0 0
Sn 3.01377379 3.01491734 0.78322230
C 1.50580354 1.50514149 4.06687260
O 1.50213217 1.50189143 5.22099172
