&CONTROL
calculation = 'relax'
prefix = 'scf'
pseudo_dir = '/vol0403/data/hp230205/u10028/POT_HYBRID_KKJUS_GBRV'
outdir = './data'
tprnfor = .true.
nstep = 70
disk_io = 'non'
/
&SYSTEM
ibrav = 0
ecutwfc = 50.0
ecutrho = 400
occupations = 'smearing'
smearing = 'mp'
degauss = 0.01
assume_isolated = 'esm'
esm_bc = 'bc1'
input_dft = 'BEEF-VDW'
nosym = .true.
nspin = 1
ntyp = 5
nat = 33
/
&ELECTRONS
electron_maxstep = 200
mixing_beta = 0.1
conv_thr = 1e-06
/
&IONS
ion_dynamics = 'bfgs'
upscale = 1.0
/
&CELL
/

K_POINTS {automatic}
6 6 1 0 0 0

ATOMIC_SPECIES
C 12.01 C.pbe-n-rrkjus_psl.1.0.0.UPF
Cu 63.54 Cu.pbe-dn-rrkjus_psl.1.0.0.UPF
In 114.8 In.pbe-dn-rrkjus_psl.1.0.0.UPF
Li 6.941 Li.pbe-sl-rrkjus_psl.1.0.0.UPF
Pt 195.0 Pt.pbe-n-rrkjus_psl.1.0.0.UPF


CELL_PARAMETERS {angstrom}
6.33470000 0.00000000 0.00000000
-0.00000000 8.95862000 0.00000000
0.00000000 0.00000000 26.71900000

ATOMIC_POSITIONS {angstrom}
Li 4.75102500 0.00000000 -1.1197932900000005 0 0 0
Li 4.75102500 4.47931000 -1.1197932900000005 0 0 0
Li 1.58367500 2.23965500 -3.3593798700000015 0 0 0
Li 1.58367500 6.71896500 -3.3593798700000015 0 0 0
Li 4.51341040 4.38605077 3.58194914
Li 4.51322036 0.09316965 3.58194914
Li 1.51126938 6.71896500 1.11338073
Li 1.27973609 2.23965500 1.43721501
In 0.00000000 2.23965500 -1.1197932900000005 0 0 0
In 0.00000000 6.71896500 -1.1197932900000005 0 0 0
In 3.16735000 4.47931000 -3.3593798700000015 0 0 0
In 3.16735000 0.00000000 -3.3593798700000015 0 0 0
In 6.28471922 6.71896500 3.53706122
In 0.28183080 2.23956541 4.30309495
In 3.17222772 0.05097455 1.07837884
In 3.17222772 4.42833545 1.07837884
Cu 0.00000000 0.00000000 -3.3593798700000015 0 0 0
Cu 0.00000000 4.47931000 -3.3593798700000015 0 0 0
Cu 3.16735000 6.71896500 -1.1197932900000005 0 0 0
Cu 3.16735000 2.23965500 -1.1197932900000005 0 0 0
Cu 6.25767005 4.53207627 1.06582091
Cu 6.25767005 8.90585373 1.06582091
Cu 2.81013627 2.23965500 3.63779185
Cu 2.99225889 6.71887541 3.12799333
Pt 1.58367500 0.00000000 -1.1197932900000005 0 0 0
Pt 1.58367500 4.47931000 -1.1197932900000005 0 0 0
Pt 4.75102500 2.23965500 -3.3593798700000015 0 0 0
Pt 4.75102500 6.71896500 -3.3593798700000015 0 0 0
Pt 1.49429238 4.49731683 3.20815033
Pt 1.49429238 8.94052359 3.20815033
Pt 4.72726987 6.71896500 1.13074808
Pt 4.89767330 2.23965500 1.36881437
C 4.63326293 2.23956541 3.34334847
