&CONTROL
calculation = 'relax'
prefix = 'scf'
pseudo_dir = '/vol0403/data/hp230205/u10028/POT_HYBRID_KKJUS_GBRV'
outdir = './data'
tprnfor = .true.
nstep = 50
disk_io = 'non'
/
&SYSTEM
ibrav = 0
ecutwfc = 50.0
ecutrho = 400
occupations = 'smearing'
smearing = 'mp'
degauss = 0.01
assume_isolated = 'esm'
esm_bc = 'bc1'
input_dft = 'BEEF-VDW'
nosym = .true.
nspin = 1
ntyp = 6
nat = 18
/
&ELECTRONS
electron_maxstep = 200
mixing_beta = 0.1
conv_thr = 1e-06
/
&IONS
ion_dynamics = 'bfgs'
upscale = 1.0
/
&CELL
/

K_POINTS {automatic}
6 6 1 0 0 0

ATOMIC_SPECIES
C 12.01 C.pbe-n-rrkjus_psl.1.0.0.UPF
Ge 72.64 Ge.pbe-dn-rrkjus_psl.1.0.0.UPF
In 114.8 In.pbe-dn-rrkjus_psl.1.0.0.UPF
Li 6.941 Li.pbe-sl-rrkjus_psl.1.0.0.UPF
O 15.99 O.pbe-n-rrkjus_psl.1.0.0.UPF
Y 88.90 Y.pbe-spn-rrkjus_psl.1.0.0.UPF


CELL_PARAMETERS {angstrom}
6.30439000 0.00000000 0.00000000
0.00000000 8.57642000 0.00000000
0.00000000 0.00000000 24.70800000

ATOMIC_POSITIONS {angstrom}
Li 4.58259805 2.14410500 -0.7847260799999987 0 0 0
Li 0.95234115 2.14401924 2.17702188
Li 4.58259805 6.43231500 -0.7847260799999987 0 0 0
Li 0.97024562 6.43231500 2.22273168
Y 1.43040305 2.14410500 -0.7847260799999987 0 0 0
Y 4.04054659 2.14410500 2.32823484
Y 1.43040305 6.43231500 -0.7847260799999987 0 0 0
Y 4.08057947 6.43222924 2.27511264
In 3.15219500 0.00000000 -2.3539311599999984 0 0 0
In 5.83269554 0.00291598 0.71801448
In 3.15219500 4.28821000 -2.3539311599999984 0 0 0
In 5.83269554 4.28529402 0.71801448
Ge 0.00000000 0.00000000 -2.3539311599999984 0 0 0
Ge 2.63391110 8.57281790 1.01722836
Ge 0.00000000 4.28821000 -2.3539311599999984 0 0 0
Ge 2.63378501 4.29181210 1.01722836
C 1.13920327 2.14419076 4.16725128
O 1.18680142 2.14427653 5.32531524
