&CONTROL
calculation = 'relax'
prefix = 'scf'
pseudo_dir = '/vol0004/mdt0/data/hp150275/u10028/POT_KKJUS'
outdir = './data'
tprnfor = .true.
nstep = 50
disk_io = 'non'
/
&SYSTEM
ibrav = 0
ecutwfc = 50.0
ecutrho = 400
occupations = 'smearing'
smearing = 'mp'
degauss = 0.01
assume_isolated = 'esm'
esm_bc = 'bc1'
input_dft = 'BEEF-VDW'
nosym = .true.
nspin = 1
ntyp = 4
nat = 33
/
&ELECTRONS
electron_maxstep = 200
mixing_beta = 0.1
conv_thr = 1e-06
/
&IONS
ion_dynamics = 'bfgs'
upscale = 1.0
/
&CELL
/

K_POINTS {automatic}
8 6 1 0 0 0

ATOMIC_SPECIES
Au 196.9 Au.pbe-n-rrkjus_psl.1.0.0.UPF
C 12.01 C.pbe-n-rrkjus_psl.1.0.0.UPF
Li 6.941 Li.pbe-sl-rrkjus_psl.1.0.0.UPF
Pb 207.2 Pb.pbe-dn-rrkjus_psl.1.0.0.UPF

CELL_PARAMETERS {angstrom}
6.82040000 0.00000000 0.00000000
0.00000000 9.64550000 0.00000000
0.00000000 0.00000000 27.23410000

ATOMIC_POSITIONS {angstrom}
Li 0.00000000 7.23412500 -1.2056536100000024 0 0 0
Li 3.41020000 0.00000000 -3.6169608200000027 0 0 0
Li 0.00000000 2.41137500 -1.2056536100000024 0 0 0
Li 3.41020000 4.82275000 -3.6169608200000027 0 0 0
Li 1.70510000 0.00000000 -1.2056536100000024 0 0 0
Li 1.70510000 4.82275000 -1.2056536100000024 0 0 0
Li 5.11530000 7.23412500 -3.6169608200000027 0 0 0
Li 5.11530000 2.41137500 -3.6169608200000027 0 0 0
Li 0.06308870 2.41166436 3.61042464
Li 3.39730944 4.89837072 1.04306603
Li 6.77613560 7.23422146 3.48242437
Li 3.39737765 9.56987928 1.04306603
Li 2.08356400 4.50898189 3.56167560
Li 2.08349579 0.31463621 3.56140326
Li 4.79214945 2.41127855 1.53518622
Li 4.88081465 7.23412500 1.43659877
Pb 0.00000000 0.00000000 -3.6169608200000027 0 0 0
Pb 3.41020000 2.41137500 -1.2056536100000024 0 0 0
Pb 3.41020000 7.23412500 -1.2056536100000024 0 0 0
Pb 0.00000000 4.82275000 -3.6169608200000027 0 0 0
Pb 0.04917508 4.71472040 1.18277696
Pb 3.14720538 7.23451082 4.11071505
Pb 4.05936567 2.41156791 4.63306509
Pb 0.04924329 0.10812606 1.18250462
Au 1.70510000 2.41137500 -3.6169608200000027 0 0 0
Au 1.70510000 7.23412500 -3.6169608200000027 0 0 0
Au 5.11530000 4.82275000 -1.2056536100000024 0 0 0
Au 5.11530000 0.00000000 -1.2056536100000024 0 0 0
Au 1.82677594 7.23422146 1.41344979
Au 2.05744186 2.41137500 1.39574763
Au 4.92589749 9.41381509 3.30104526
Au 4.92596570 5.05482073 3.30131760
C 2.10907229 2.41185728 3.54587982
