&CONTROL
calculation = 'relax'
prefix = 'scf'
pseudo_dir = '/vol0004/mdt0/data/hp150275/u10028/POT_KKJUS'
outdir = './data'
tprnfor = .true.
nstep = 50
disk_io = 'non'
/
&SYSTEM
ibrav = 0
ecutwfc = 50.0
ecutrho = 400
occupations = 'smearing'
smearing = 'mp'
degauss = 0.01
assume_isolated = 'esm'
esm_bc = 'bc1'
input_dft = 'BEEF-VDW'
nosym = .true.
nspin = 1
ntyp = 5
nat = 34
/
&ELECTRONS
electron_maxstep = 200
mixing_beta = 0.1
conv_thr = 1e-06
/
&IONS
ion_dynamics = 'bfgs'
upscale = 1.0
/
&CELL
/

K_POINTS {automatic}
9 6 2 0  0  0

ATOMIC_SPECIES
C 12.01 C.pbe-n-rrkjus_psl.1.0.0.UPF
Cu 63.54 Cu.pbe-dn-rrkjus_psl.1.0.0.UPF
Li 6.941 Li.pbe-sl-rrkjus_psl.1.0.0.UPF
O 15.99 O.pbe-n-rrkjus_psl.1.0.0.UPF
Si 28.08 Si.pbe-nl-rrkjus_psl.1.0.0.UPF

CELL_PARAMETERS {angstrom}
5.78917000 0.00000000 0.00000000
0.00000000 8.18712000 0.00000000
0.00000000 0.00000000 26.14030000

ATOMIC_POSITIONS {angstrom}
Li 0.00000000 0.00000000 -3.0701782400000006 0 0 0
Li 2.89458500 2.04678000 -1.0233927399999985 0 0 0
Li 2.89458500 6.14034000 -1.0233927399999985 0 0 0
Li 0.00000000 4.09356000 -3.0701782400000006 0 0 0
Li 0.00613652 4.09396936 0.91255787
Li 2.92312561 6.12666751 3.40764951
Li 2.92272037 2.05963378 3.40634249
Li 0.07624337 8.18687439 0.94758587
Cu 1.44729250 0.00000000 -1.0233927399999985 0 0 0
Cu 4.34187750 4.09356000 -1.0233927399999985 0 0 0
Cu 4.34187750 0.00000000 -1.0233927399999985 0 0 0
Cu 1.44729250 4.09356000 -1.0233927399999985 0 0 0
Cu 4.34187750 6.14034000 -3.0701782400000006 0 0 0
Cu 1.44729250 2.04678000 -3.0701782400000006 0 0 0
Cu 1.44729250 6.14034000 -3.0701782400000006 0 0 0
Cu 4.34187750 2.04678000 -3.0701782400000006 0 0 0
Cu 1.31587834 4.09323252 2.95202408
Cu 4.51144229 8.18687439 2.88353649
Cu 4.48197541 4.09331439 2.95960477
Cu 1.31859925 8.18654690 3.20506218
Cu 4.30424790 2.03196131 1.06181899
Cu 1.50981554 6.14304175 1.12716974
Cu 1.50923662 2.04424199 1.12612412
Cu 4.30366898 6.15491307 1.06286460
Si 0.00000000 6.14034000 -1.0233927399999985 0 0 0
Si 2.89458500 0.00000000 -3.0701782400000006 0 0 0
Si 0.00000000 2.04678000 -1.0233927399999985 0 0 0
Si 2.89458500 4.09356000 -3.0701782400000006 0 0 0
Si 5.76080307 2.06258114 3.03776426
Si 2.90245827 4.09339626 1.10834872
Si 5.76115042 6.12388389 3.03776426
Si 2.87316507 0.00016374 1.08639087
C 1.98377488 0.00049123 4.95280264
O 2.16740736 0.00130994 6.09251972
