&CONTROL
calculation = 'relax'
prefix = 'scf'
pseudo_dir = '/vol0004/mdt0/data/hp150275/u10028/POT_KKJUS'
outdir = './data'
tprnfor = .true.
nstep = 50
disk_io = 'non'
/
&SYSTEM
ibrav = 0
ecutwfc = 50.0
ecutrho = 400
occupations = 'smearing'
smearing = 'mp'
degauss = 0.01
assume_isolated = 'esm'
esm_bc = 'bc1'
input_dft = 'BEEF-VDW'
nosym = .true.
nspin = 1
ntyp = 3
nat = 17
/
&ELECTRONS
electron_maxstep = 200
mixing_beta = 0.1
conv_thr = 1e-06
/
&IONS
ion_dynamics = 'bfgs'
upscale = 1.0
/
&CELL
/

K_POINTS {automatic}
6 8 1 0 0 0

ATOMIC_SPECIES
Au 196.9 Au.pbe-n-rrkjus_psl.1.0.0.UPF
C 12.01 C.pbe-n-rrkjus_psl.1.0.0.UPF
V 50.94 V.pbe-spnl-rrkjus_psl.1.0.0.UPF

CELL_PARAMETERS {angstrom}
7.78093000 0.00000000 0.00000000
0.00000000 5.50195000 0.00000000
0.00000000 0.00000000 24.12650000

ATOMIC_POSITIONS {angstrom}
V 0.48763088 2.82415094 1.98561095
V 1.94523250 4.15413731 0.55587456
V 1.94523250 1.33147190 0.71052543
V 0.00000000 0.00000000 -0.6878465200000008 0 0 0
V 1.94523250 1.37548750 -2.0632982800000015 0 0 0
V 1.94523250 4.12646250 -2.0632982800000015 0 0 0
V 3.40291193 2.82420595 1.98561095
V 5.83569750 4.21818001 0.34669781
V 5.83569750 1.31419578 0.28855294
V 3.89046500 0.00000000 -0.6878465200000008 0 0 0
V 5.83569750 1.37548750 -2.0632982800000015 0 0 0
V 5.83569750 4.12646250 -2.0632982800000015 0 0 0
Au 7.62663416 0.00423650 2.04689226
Au 0.00000000 2.75097500 -0.6878465200000008 0 0 0
Au 4.04476084 0.00423650 2.04689226
Au 3.89046500 2.75097500 -0.6878465200000008 0 0 0
C 1.94523250 1.94312368 2.73208486
