&CONTROL
calculation = 'relax'
prefix = 'scf'
pseudo_dir = '/vol0004/mdt0/data/hp150275/u10028/POT_KKJUS'
outdir = './data'
tprnfor = .true.
nstep = 50
disk_io = 'non'
/
&SYSTEM
ibrav = 0
ecutwfc = 50.0
ecutrho = 400
occupations = 'smearing'
smearing = 'mp'
degauss = 0.01
assume_isolated = 'esm'
esm_bc = 'bc1'
input_dft = 'BEEF-VDW'
nosym = .true.
nspin = 1
ntyp = 3
nat = 17
/
&ELECTRONS
electron_maxstep = 200
mixing_beta = 0.1
conv_thr = 1e-06
/
&IONS
ion_dynamics = 'bfgs'
upscale = 1.0
/
&CELL
/

K_POINTS {automatic}
6 8 1 0 0 0

ATOMIC_SPECIES
C 12.01 C.pbe-n-rrkjus_psl.1.0.0.UPF
Pt 195.0 Pt.pbe-n-rrkjus_psl.1.0.0.UPF
Y 88.90 Y.pbe-spn-rrkjus_psl.1.0.0.UPF

CELL_PARAMETERS {angstrom}
8.32195000 0.00000000 0.00000000
0.00000000 5.88450000 0.00000000
0.00000000 0.00000000 24.41340000

ATOMIC_POSITIONS {angstrom}
Y 0.00000000 0.00000000 -2.2067272299999985 0 0 0
Y 0.00000000 2.94225000 0.45189203
Y 4.16097500 0.00000000 -2.2067272299999985 0 0 0
Y 4.16097500 2.94225000 1.02365386
Pt 0.00000000 2.94225000 -2.2067272299999985 0 0 0
Pt 2.08048750 4.41337500 -0.735575739999998 0 0 0
Pt 2.08048750 1.47112500 -0.735575739999998 0 0 0
Pt 0.00000000 0.00000000 0.58323613
Pt 1.49012837 1.54585815 2.41350872
Pt 1.48987871 4.33852416 2.41375286
Pt 4.16097500 2.94225000 -2.2067272299999985 0 0 0
Pt 6.24146250 4.41337500 -0.735575739999998 0 0 0
Pt 6.24146250 1.47112500 -0.735575739999998 0 0 0
Pt 4.16097500 0.00000000 0.69407296
Pt 6.83207129 1.54597584 2.41375286
Pt 6.83182163 4.33864185 2.41350872
C 0.00000000 2.94225000 2.95524207
