&CONTROL
calculation = 'relax'
prefix = 'scf'
pseudo_dir = '/vol0004/mdt0/data/hp150275/u10028/POT_KKJUS'
outdir = './data'
tprnfor = .true.
nstep = 50
disk_io = 'non'
/
&SYSTEM
ibrav = 0
ecutwfc = 50.0
ecutrho = 400
occupations = 'smearing'
smearing = 'mp'
degauss = 0.01
assume_isolated = 'esm'
esm_bc = 'bc1'
input_dft = 'BEEF-VDW'
nosym = .true.
nspin = 1
ntyp = 2
nat = 32
/
&ELECTRONS
electron_maxstep = 200
mixing_beta = 0.1
conv_thr = 1e-06
/
&IONS
ion_dynamics = 'bfgs'
upscale = 1.0
/
&CELL
/

K_POINTS {automatic}
8 8 1 0 0 0

ATOMIC_SPECIES
Ir 192.2 Ir.pbe-n-rrkjus_psl.0.2.3.UPF
Nb 92.90 Nb.pbe-spn-rrkjus_psl.1.0.0.UPF

CELL_PARAMETERS {angstrom}
7.87138000 0.00000000 0.00000000
-0.00000000 7.87138000 0.00000000
0.00000000 0.00000000 25.90350000

ATOMIC_POSITIONS {angstrom}
Nb 0.00000000 0.00000000 -2.9517038200000023 0 0 0
Nb 0.00000000 0.00000000 0.98381493
Nb 0.00000000 3.93569000 -2.9517038200000023 0 0 0
Nb 0.00000000 3.93569000 0.98381493
Nb 3.93569000 0.00000000 -2.9517038200000023 0 0 0
Nb 3.93569000 -0.00000000 0.98381493
Nb 3.93569000 3.93569000 -2.9517038200000023 0 0 0
Nb 3.93569000 3.93569000 0.98381493
Ir 0.00000000 1.96784500 -0.9838149300000012 0 0 0
Ir 1.96784500 0.00000000 -0.9838149300000012 0 0 0
Ir 1.96784500 1.96784500 -2.9517038200000023 0 0 0
Ir 0.00000000 1.96784500 2.95170383
Ir 1.96784500 -0.00000000 2.95170383
Ir 1.96784500 1.96784500 0.98381493
Ir 0.00000000 5.90353500 -0.9838149300000012 0 0 0
Ir 1.96784500 3.93569000 -0.9838149300000012 0 0 0
Ir 1.96784500 5.90353500 -2.9517038200000023 0 0 0
Ir 0.00000000 5.90353500 2.95170383
Ir 1.96784500 3.93569000 2.95170383
Ir 1.96784500 5.90353500 0.98381493
Ir 3.93569000 1.96784500 -0.9838149300000012 0 0 0
Ir 5.90353500 0.00000000 -0.9838149300000012 0 0 0
Ir 5.90353500 1.96784500 -2.9517038200000023 0 0 0
Ir 3.93569000 1.96784500 2.95170383
Ir 5.90353500 -0.00000000 2.95170383
Ir 5.90353500 1.96784500 0.98381493
Ir 3.93569000 5.90353500 -0.9838149300000012 0 0 0
Ir 5.90353500 3.93569000 -0.9838149300000012 0 0 0
Ir 5.90353500 5.90353500 -2.9517038200000023 0 0 0
Ir 3.93569000 5.90353500 2.95170383
Ir 5.90353500 3.93569000 2.95170383
Ir 5.90353500 5.90353500 0.98381493
