&CONTROL
calculation = 'relax'
prefix = 'scf'
pseudo_dir = '/vol0004/mdt0/data/hp150275/u10028/POT_KKJUS'
outdir = './data'
tprnfor = .true.
nstep = 50
disk_io = 'non'
/
&SYSTEM
ibrav = 0
ecutwfc = 50.0
ecutrho = 400
occupations = 'smearing'
smearing = 'mp'
degauss = 0.01
assume_isolated = 'esm'
esm_bc = 'bc1'
input_dft = 'BEEF-VDW'
nosym = .true.
nspin = 1
ntyp = 3
nat = 33
/
&ELECTRONS
electron_maxstep = 200
mixing_beta = 0.1
conv_thr = 1e-06
/
&IONS
ion_dynamics = 'bfgs'
upscale = 1.0
/
&CELL
/

K_POINTS {automatic}
8 6 1 0 0 0

ATOMIC_SPECIES
C 12.01 C.pbe-n-rrkjus_psl.1.0.0.UPF
Ca 40.07 Ca.pbe-spn-rrkjus_psl.1.0.0.UPF
Pd 106.4 Pd.pbe-n-rrkjus_psl.1.0.0.UPF

CELL_PARAMETERS {angstrom}
7.14855000 0.00000000 0.00000000
0.00000000 10.10960000 0.00000000
0.00000000 0.00000000 27.58220000

ATOMIC_POSITIONS {angstrom}
Ca 0.00000000 0.00000000 -3.791173390000001 0 0 0
Ca 0.00000000 2.52740000 -1.2638163999999996 0 0 0
Ca 0.00000000 5.05480000 1.22685626
Ca 0.00000000 2.57906006 3.90481205
Ca 0.00000000 5.05480000 -3.791173390000001 0 0 0
Ca 0.00000000 7.58220000 -1.2638163999999996 0 0 0
Ca 0.00000000 0.00000000 1.34601136
Ca 0.00000000 7.53053994 3.90481205
Ca 3.57427500 0.00000000 -3.791173390000001 0 0 0
Ca 3.57427500 2.52740000 -1.2638163999999996 0 0 0
Ca 3.57427500 5.05480000 1.21609920
Ca 3.57427500 2.61757763 3.87640239
Ca 3.57427500 5.05480000 -3.791173390000001 0 0 0
Ca 3.57427500 7.58220000 -1.2638163999999996 0 0 0
Ca 3.57427500 0.00000000 1.22382221
Ca 3.57427500 7.49202237 3.87640239
Pd 1.78713750 2.52740000 -3.791173390000001 0 0 0
Pd 1.78713750 0.00000000 -1.2638163999999996 0 0 0
Pd 1.80100569 2.54256440 1.37497267
Pd 1.78091826 5.05480000 3.57354983
Pd 1.78713750 7.58220000 -3.791173390000001 0 0 0
Pd 1.78713750 5.05480000 -1.2638163999999996 0 0 0
Pd 1.80100569 7.56693450 1.37497267
Pd 1.95319832 0.00000000 3.75669564
Pd 5.36141250 2.52740000 -3.791173390000001 0 0 0
Pd 5.36141250 0.00000000 -1.2638163999999996 0 0 0
Pd 5.34754431 2.54256440 1.37497267
Pd 5.36763174 5.05480000 3.57354983
Pd 5.36141250 7.58220000 -3.791173390000001 0 0 0
Pd 5.36141250 5.05480000 -1.2638163999999996 0 0 0
Pd 5.34754431 7.56693450 1.37497267
Pd 5.19535168 0.00000000 3.75669564
C 0.00000000 0.00000000 4.00824530
