&CONTROL
calculation = 'relax'
prefix = 'scf'
pseudo_dir = '/vol0403/data/hp230205/u10028/POT_HYBRID_KKJUS_GBRV'
outdir = './data'
tprnfor = .true.
nstep = 50
disk_io = 'non'
/
&SYSTEM
ibrav = 0
ecutwfc = 50.0
ecutrho = 400
occupations = 'smearing'
smearing = 'mp'
degauss = 0.01
assume_isolated = 'esm'
esm_bc = 'bc1'
input_dft = 'BEEF-VDW'
nosym = .true.
nspin = 1
ntyp = 6
nat = 18
/
&ELECTRONS
electron_maxstep = 200
mixing_beta = 0.1
conv_thr = 1e-06
/
&IONS
ion_dynamics = 'bfgs'
upscale = 1.0
/
&CELL
/

K_POINTS {automatic}
6 6 1 0 0 0

ATOMIC_SPECIES
Ag 107.8 Ag.pbe-n-rrkjus_psl.1.0.0.UPF
Al 26.98 Al.pbe-nl-rrkjus_psl.1.0.0.UPF
C 12.01 C.pbe-n-rrkjus_psl.1.0.0.UPF
Ge 72.64 Ge.pbe-dn-rrkjus_psl.1.0.0.UPF
Li 6.941 Li.pbe-sl-rrkjus_psl.1.0.0.UPF
O 15.99 O.pbe-n-rrkjus_psl.1.0.0.UPF


CELL_PARAMETERS {angstrom}
5.75991000 0.00000000 0.00000000
0.00000000 8.02734000 0.00000000
0.00000000 0.00000000 24.29680000

ATOMIC_POSITIONS {angstrom}
Li 1.29125662 2.00683500 -0.7160267000000005 0 0 0
Li 3.94352238 2.00675473 2.38448795
Li 1.29125662 6.02050500 -0.7160267000000005 0 0 0
Li 3.92284430 6.02050500 2.38351608
Al 2.87995500 0.00000000 -2.1483230600000027 0 0 0
Al 5.45354039 7.98326990 0.83896850
Al 2.87995500 4.01367000 -2.1483230600000027 0 0 0
Al 5.45354039 4.05774010 0.83896850
Ag 0.00000000 0.00000000 -2.1483230600000027 0 0 0
Ag 2.60082976 8.00943903 0.86132156
Ag 0.00000000 4.01367000 -2.1483230600000027 0 0 0
Ag 2.60088736 4.03149069 0.86107859
Ge 4.17121162 2.00683500 -0.7160267000000005 0 0 0
Ge 1.01743050 2.00691527 2.07567562
Ge 4.17121162 6.02050500 -0.7160267000000005 0 0 0
Ge 1.03246387 6.02066555 2.20614944
C 3.87469146 2.00675473 4.49539394
O 3.83310491 2.00683500 5.63321308
