&CONTROL
calculation = 'relax'
prefix = 'scf'
pseudo_dir = '/vol0004/mdt0/data/hp150275/u10028/POT_HYBRID_KKJUS_GBRV'
outdir = './data'
tprnfor = .true.
nstep = 50
disk_io = 'non'
/
&SYSTEM
ibrav = 0
ecutwfc = 50.0
ecutrho = 400
occupations = 'smearing'
smearing = 'mp'
degauss = 0.01
assume_isolated = 'esm'
esm_bc = 'bc1'
input_dft = 'BEEF-VDW'
nosym = .true.
nspin = 2
ntyp = 5
nat = 34
starting_magnetization(1) = 0.0
starting_magnetization(2) = 0.0
starting_magnetization(3) = 0.001
starting_magnetization(4) = 0.0
starting_magnetization(5) = 0.0
/
&ELECTRONS
electron_maxstep = 300
mixing_beta = 0.1
conv_thr = 1e-06
/
&IONS
ion_dynamics = 'bfgs'
upscale = 1.0
/
&CELL
/

K_POINTS {automatic}
8 6 1 0 0 0

ATOMIC_SPECIES
C 12.01 C.pbe-n-rrkjus_psl.1.0.0.UPF
In 114.8 In.pbe-dn-rrkjus_psl.1.0.0.UPF
Ni 58.69 ni_pbe_v1.4.uspp.F.UPF
O 15.99 O.pbe-n-rrkjus_psl.1.0.0.UPF
Ti 47.86 Ti.pbe-spn-rrkjus_psl.1.0.0.UPF

CELL_PARAMETERS {angstrom}
6.16408000 0.00000000 0.00000000
0.00000000 8.71733000 0.00000000
0.00000000 0.00000000 26.53800000

ATOMIC_POSITIONS {angstrom}
Ti 0.00000000 0.00000000 -3.2689508399999987 0 0 0
Ti 3.08204000 2.17933250 -1.0896502800000007 0 0 0
Ti 3.08204000 6.53799750 -1.0896502800000007 0 0 0
Ti 0.00000000 4.35866500 -3.2689508399999987 0 0 0
Ti 0.00000000 4.35648567 1.16395668
Ti 3.08204000 6.53817185 3.17076024
Ti 3.08204000 2.17924533 3.16094118
Ti 0.00000000 0.00200499 1.16501820
In 0.00000000 6.53799750 -1.0896502800000007 0 0 0
In 3.08204000 0.00000000 -3.2689508399999987 0 0 0
In 0.00000000 2.17933250 -1.0896502800000007 0 0 0
In 3.08204000 4.35866500 -3.2689508399999987 0 0 0
In 0.00000000 2.17985554 3.53088090
In 3.08204000 4.37200251 1.01879382
In 0.00000000 6.53712577 3.57864930
In 3.08204000 8.70381814 1.01905920
Ni 1.54102000 0.00000000 -1.0896502800000007 0 0 0
Ni 4.62306000 4.35866500 -1.0896502800000007 0 0 0
Ni 4.62306000 0.00000000 -1.0896502800000007 0 0 0
Ni 1.54102000 4.35866500 -1.0896502800000007 0 0 0
Ni 4.62306000 6.53799750 -3.2689508399999987 0 0 0
Ni 1.54102000 2.17933250 -3.2689508399999987 0 0 0
Ni 1.54102000 6.53799750 -3.2689508399999987 0 0 0
Ni 4.62306000 2.17933250 -3.2689508399999987 0 0 0
Ni 1.57923730 4.35918804 3.13068786
Ni 4.58465778 8.71698131 3.13228014
Ni 4.58484270 4.35918804 3.13068786
Ni 1.57942222 8.71698131 3.13228014
Ni 4.65394204 2.17985554 1.17404112
Ni 1.47192066 6.53695142 1.20429444
Ni 1.51019960 2.17985554 1.17377574
Ni 4.69215934 6.53695142 1.20429444
C 6.16278554 2.17941967 7.46540478
O 0.00024656 2.17924533 8.60070042
