&CONTROL
calculation = 'relax'
prefix = 'scf'
pseudo_dir = '/vol0403/data/hp230205/u10028/POT_HYBRID_KKJUS_GBRV'
outdir = './data'
tprnfor = .true.
nstep = 50
disk_io = 'non'
/
&SYSTEM
ibrav = 0
ecutwfc = 50.0
ecutrho = 400
occupations = 'smearing'
smearing = 'mp'
degauss = 0.01
assume_isolated = 'esm'
esm_bc = 'bc1'
input_dft = 'BEEF-VDW'
nosym = .true.
nspin = 1
ntyp = 5
nat = 33
/
&ELECTRONS
electron_maxstep = 200
mixing_beta = 0.1
conv_thr = 1e-06
/
&IONS
ion_dynamics = 'bfgs'
upscale = 1.0
/
&CELL
/

K_POINTS {automatic}
9 6 2 0  0  0

ATOMIC_SPECIES
C 12.01 C.pbe-n-rrkjus_psl.1.0.0.UPF
Cu 63.54 Cu.pbe-dn-rrkjus_psl.1.0.0.UPF
Li 6.941 Li.pbe-sl-rrkjus_psl.1.0.0.UPF
Pd 106.4 Pd.pbe-n-rrkjus_psl.1.0.0.UPF
Sb 121.7 Sb.pbe-n-rrkjus_psl.1.0.0.UPF


CELL_PARAMETERS {angstrom}
6.37250000 0.00000000 0.00000000
0.00000000 9.01208000 0.00000000
0.00000000 0.00000000 26.75910000

ATOMIC_POSITIONS {angstrom}
Li 1.59312500 0.00000000 -1.1265581100000013 0 0 0
Li 1.59312500 4.50604000 -1.1265581100000013 0 0 0
Li 4.77937500 2.25302000 -3.3794067400000003 0 0 0
Li 4.77937500 6.75906000 -3.3794067400000003 0 0 0
Li 1.58987502 4.43502481 3.58839531
Li 1.58987502 0.07101519 3.58839531
Li 4.77255642 6.75906000 0.93951200
Li 4.82385505 2.25302000 1.06260386
Cu 0.00000000 0.00000000 -3.3794067400000003 0 0 0
Cu 0.00000000 4.50604000 -3.3794067400000003 0 0 0
Cu 3.18625000 6.75906000 -1.1265581100000013 0 0 0
Cu 3.18625000 2.25302000 -1.1265581100000013 0 0 0
Cu 6.21981490 4.52523573 1.36498169
Cu 6.21981490 8.99288427 1.36498169
Cu 3.47938500 2.25302000 3.38823724
Cu 3.39737092 6.75906000 3.04277726
Sb 4.77937500 0.00000000 -1.1265581100000013 0 0 0
Sb 4.77937500 4.50604000 -1.1265581100000013 0 0 0
Sb 1.59312500 2.25302000 -3.3794067400000003 0 0 0
Sb 1.59312500 6.75906000 -3.3794067400000003 0 0 0
Sb 4.77555150 4.58850053 3.78480710
Sb 4.77561523 8.92961947 3.78480710
Sb 1.64805595 6.75906000 1.08775742
Sb 1.61166897 2.25302000 1.03343644
Pd 0.00000000 2.25302000 -1.1265581100000013 0 0 0
Pd 0.00000000 6.75906000 -1.1265581100000013 0 0 0
Pd 3.18625000 4.50604000 -3.3794067400000003 0 0 0
Pd 3.18625000 0.00000000 -3.3794067400000003 0 0 0
Pd 6.26015282 6.75906000 3.04598835
Pd 6.07694345 2.25302000 3.43613603
Pd 3.32453325 0.04262714 1.35481323
Pd 3.32453325 4.46341286 1.35481323
C 1.63881583 2.25302000 3.25069547
