&CONTROL
calculation = 'relax'
prefix = 'scf'
pseudo_dir = '/vol0004/mdt0/data/hp150275/u10028/POT_KKJUS'
outdir = './data'
tprnfor = .true.
nstep = 50
disk_io = 'non'
/
&SYSTEM
ibrav = 0
ecutwfc = 50.0
ecutrho = 400
occupations = 'smearing'
smearing = 'mp'
degauss = 0.01
assume_isolated = 'esm'
esm_bc = 'bc1'
input_dft = 'BEEF-VDW'
nosym = .true.
nspin = 1
ntyp = 4
nat = 33
/
&ELECTRONS
electron_maxstep = 200
mixing_beta = 0.1
conv_thr = 1e-06
/
&IONS
ion_dynamics = 'bfgs'
upscale = 1.0
/
&CELL
/

K_POINTS {automatic}
9 6 2 0  0  0

ATOMIC_SPECIES
C 12.01 C.pbe-n-rrkjus_psl.1.0.0.UPF
Cu 63.54 Cu.pbe-dn-rrkjus_psl.1.0.0.UPF
Hf 178.4 Hf.pbe-spn-rrkjus_psl.1.0.0.UPF
In 114.8 In.pbe-dn-rrkjus_psl.1.0.0.UPF

CELL_PARAMETERS {angstrom}
6.35005000 0.00000000 0.00000000
0.00000000 8.98033000 0.00000000
0.00000000 0.00000000 26.73520000

ATOMIC_POSITIONS {angstrom}
Hf 0.00000000 0.00000000 -3.3675657900000004 0 0 0
Hf 3.17502500 2.24508250 -1.1226110499999997 0 0 0
Hf 3.17502500 6.73524750 -1.1226110499999997 0 0 0
Hf 0.00000000 4.49016500 -3.3675657900000004 0 0 0
Hf 0.00000000 4.49016500 1.23543359
Hf 3.17502500 6.94475860 3.41007476
Hf 3.17502500 2.03557140 3.41007476
Hf 0.00000000 0.00000000 1.33007620
In 0.00000000 6.73524750 -1.1226110499999997 0 0 0
In 3.17502500 0.00000000 -3.3675657900000004 0 0 0
In 0.00000000 2.24508250 -1.1226110499999997 0 0 0
In 3.17502500 4.49016500 -3.3675657900000004 0 0 0
In 0.00000000 2.42792202 3.66459386
In 3.17502500 4.49016500 1.13731541
In 0.00000000 6.55240798 3.66459386
In 3.17502500 0.00000000 1.11378843
Cu 1.58751250 0.00000000 -1.1226110499999997 0 0 0
Cu 4.76253750 4.49016500 -1.1226110499999997 0 0 0
Cu 4.76253750 0.00000000 -1.1226110499999997 0 0 0
Cu 1.58751250 4.49016500 -1.1226110499999997 0 0 0
Cu 4.76253750 6.73524750 -3.3675657900000004 0 0 0
Cu 1.58751250 2.24508250 -3.3675657900000004 0 0 0
Cu 1.58751250 6.73524750 -3.3675657900000004 0 0 0
Cu 4.76253750 2.24508250 -3.3675657900000004 0 0 0
Cu 1.81878132 4.49016500 3.53653226
Cu 5.12531586 0.00000000 3.81538039
Cu 4.53126868 4.49016500 3.53653226
Cu 1.22473414 0.00000000 3.81538039
Cu 4.79143023 2.25352401 1.18009173
Cu 1.55861977 6.72680599 1.18009173
Cu 1.55861977 2.25352401 1.18009173
Cu 4.79143023 6.72680599 1.18009173
C 3.17502500 0.00000000 4.01990467
