&CONTROL
calculation = 'relax'
prefix = 'scf'
pseudo_dir = '/vol0403/data/hp230205/u10028/POT_HYBRID_KKJUS_GBRV'
outdir = './data'
tprnfor = .true.
nstep = 50
disk_io = 'non'
/
&SYSTEM
ibrav = 0
ecutwfc = 50.0
ecutrho = 400
occupations = 'smearing'
smearing = 'mp'
degauss = 0.01
assume_isolated = 'esm'
esm_bc = 'bc1'
input_dft = 'BEEF-VDW'
nosym = .true.
nspin = 1
ntyp = 5
nat = 33
/
&ELECTRONS
electron_maxstep = 200
mixing_beta = 0.1
conv_thr = 1e-06
/
&IONS
ion_dynamics = 'bfgs'
upscale = 1.0
/
&CELL
/

K_POINTS {automatic}
6 6 1 0 0 0

ATOMIC_SPECIES
C 12.01 C.pbe-n-rrkjus_psl.1.0.0.UPF
Ge 72.64 Ge.pbe-dn-rrkjus_psl.1.0.0.UPF
Li 6.941 Li.pbe-sl-rrkjus_psl.1.0.0.UPF
Pd 106.4 Pd.pbe-n-rrkjus_psl.1.0.0.UPF
Sc 44.95 Sc.pbe-spn-rrkjus_psl.1.0.0.UPF


CELL_PARAMETERS {angstrom}
6.30999000 0.00000000 0.00000000
0.00000000 8.92368000 0.00000000
0.00000000 0.00000000 26.69280000

ATOMIC_POSITIONS {angstrom}
Li 4.73249250 0.00000000 -1.1154921099999981 0 0 0
Li 4.73249250 4.46184000 -1.1154921099999981 0 0 0
Li 1.57749750 2.23092000 -3.346476339999999 0 0 0
Li 1.57749750 6.69276000 -3.346476339999999 0 0 0
Li 4.73249250 4.46184000 3.34647634
Li 4.73249250 0.00000000 3.34647634
Li 1.57749750 6.69276000 1.11549211
Li 1.57749750 2.23092000 1.11549211
Sc 0.00000000 2.23092000 -1.1154921099999981 0 0 0
Sc 0.00000000 6.69276000 -1.1154921099999981 0 0 0
Sc 3.15499500 4.46184000 -3.346476339999999 0 0 0
Sc 3.15499500 0.00000000 -3.346476339999999 0 0 0
Sc 0.00000000 6.69276000 3.34647634
Sc 0.00000000 2.23092000 3.34647634
Sc 3.15499500 0.00000000 1.11549211
Sc 3.15499500 4.46184000 1.11549211
Ge 0.00000000 0.00000000 -3.346476339999999 0 0 0
Ge 0.00000000 4.46184000 -3.346476339999999 0 0 0
Ge 3.15499500 6.69276000 -1.1154921099999981 0 0 0
Ge 3.15499500 2.23092000 -1.1154921099999981 0 0 0
Ge 0.00000000 4.46184000 1.11549211
Ge 0.00000000 0.00000000 1.11549211
Ge 3.15499500 2.23092000 3.34647634
Ge 3.15499500 6.69276000 3.34647634
Pd 1.57749750 0.00000000 -1.1154921099999981 0 0 0
Pd 1.57749750 4.46184000 -1.1154921099999981 0 0 0
Pd 4.73249250 2.23092000 -3.346476339999999 0 0 0
Pd 4.73249250 6.69276000 -3.346476339999999 0 0 0
Pd 1.57749750 4.46184000 3.34647634
Pd 1.57749750 0.00000000 3.34647634
Pd 4.73249250 6.69276000 1.11549211
Pd 4.73249250 2.23092000 1.11549211
C 3.15499500 0.00000000 4.14645955
