&CONTROL
calculation = 'relax'
prefix = 'scf'
pseudo_dir = '/vol0004/mdt0/data/hp150275/u10028/POT_KKJUS'
outdir = './data'
tprnfor = .true.
nstep = 50
disk_io = 'non'
/
&SYSTEM
ibrav = 0
ecutwfc = 50.0
ecutrho = 400
occupations = 'smearing'
smearing = 'mp'
degauss = 0.01
assume_isolated = 'esm'
esm_bc = 'bc1'
input_dft = 'BEEF-VDW'
nosym = .true.
nspin = 1
ntyp = 3
nat = 33
/
&ELECTRONS
electron_maxstep = 200
mixing_beta = 0.1
conv_thr = 1e-06
/
&IONS
ion_dynamics = 'bfgs'
upscale = 1.0
/
&CELL
/

K_POINTS {automatic}
8 6 1 0 0 0

ATOMIC_SPECIES
C 12.01 C.pbe-n-rrkjus_psl.1.0.0.UPF
K 39.09 K.pbe-spn-rrkjus_psl.1.0.0.UPF
Sb 121.7 Sb.pbe-n-rrkjus_psl.1.0.0.UPF

CELL_PARAMETERS {angstrom}
8.65338000 0.00000000 0.00000000
0.00000000 12.23770000 0.00000000
0.00000000 0.00000000 29.17830000

ATOMIC_POSITIONS {angstrom}
K 2.16334500 0.00000000 -1.5298182699999998 0 0 0
K 6.49003500 6.11885000 -1.5298182699999998 0 0 0
K 6.49003500 0.00000000 -1.5298182699999998 0 0 0
K 2.16334500 6.11885000 -1.5298182699999998 0 0 0
K 6.49003500 9.17827500 -4.589163020000001 0 0 0
K 2.16334500 3.05942500 -4.589163020000001 0 0 0
K 2.16334500 9.17827500 -4.589163020000001 0 0 0
K 6.49003500 3.05942500 -4.589163020000001 0 0 0
K 0.00000000 9.17827500 -1.5298182699999998 0 0 0
K 4.32669000 0.00000000 -4.589163020000001 0 0 0
K 0.00000000 3.05942500 -1.5298182699999998 0 0 0
K 4.32669000 6.11885000 -4.589163020000001 0 0 0
K 2.46621330 6.11885000 5.41986923
K 6.89579199 0.00000000 5.21678826
K 6.18716670 6.11897238 5.42016101
K 1.75750148 0.00000000 5.21649647
K 6.56817502 2.96225766 1.52573331
K 2.08520498 9.27544234 1.52573331
K 2.08520498 2.96213529 1.52573331
K 6.56817502 9.27544234 1.52573331
K 8.65329347 3.41860150 4.52759681
K 4.32669000 6.11885000 1.42973670
K 0.00008653 8.81909850 4.52759681
K 4.32677653 0.00000000 1.32236056
Sb 0.00000000 0.00000000 -4.589163020000001 0 0 0
Sb 4.32669000 3.05942500 -1.5298182699999998 0 0 0
Sb 4.32669000 9.17827500 -1.5298182699999998 0 0 0
Sb 0.00000000 6.11885000 -4.589163020000001 0 0 0
Sb 0.00000000 6.11885000 1.90154981
Sb 4.32669000 10.17063009 4.37353539
Sb 4.32669000 2.06719228 4.37353539
Sb 0.00000000 0.00000000 1.63427658
C 4.32660347 0.00000000 4.17599830
