&CONTROL
calculation = 'relax'
prefix = 'scf'
pseudo_dir = '/vol0004/mdt0/data/hp150275/u10028/POT_KKJUS'
outdir = './data'
tprnfor = .true.
nstep = 50
disk_io = 'non'
/
&SYSTEM
ibrav = 0
ecutwfc = 50.0
ecutrho = 400
occupations = 'smearing'
smearing = 'mp'
degauss = 0.01
assume_isolated = 'esm'
esm_bc = 'bc1'
input_dft = 'BEEF-VDW'
nosym = .true.
nspin = 1
ntyp = 5
nat = 34
/
&ELECTRONS
electron_maxstep = 200
mixing_beta = 0.1
conv_thr = 1e-06
/
&IONS
ion_dynamics = 'bfgs'
upscale = 1.0
/
&CELL
/

K_POINTS {automatic}
9 6 2 0  0  0

ATOMIC_SPECIES
Au 196.9 Au.pbe-n-rrkjus_psl.1.0.0.UPF
C 12.01 C.pbe-n-rrkjus_psl.1.0.0.UPF
Cu 63.54 Cu.pbe-dn-rrkjus_psl.1.0.0.UPF
O 15.99 O.pbe-n-rrkjus_psl.1.0.0.UPF
Zn 65.40 Zn.pbe-dnl-rrkjus_psl.1.0.0.UPF

CELL_PARAMETERS {angstrom}
6.22913000 0.00000000 0.00000000
0.00000000 8.80931000 0.00000000
0.00000000 0.00000000 26.60700000

ATOMIC_POSITIONS {angstrom}
Zn 1.55728250 0.00000000 -1.1012637299999994 0 0 0
Zn 4.67184750 4.40465500 -1.1012637299999994 0 0 0
Zn 4.67184750 0.00000000 -1.1012637299999994 0 0 0
Zn 1.55728250 4.40465500 -1.1012637299999994 0 0 0
Zn 4.67184750 6.60698250 -3.3035251199999998 0 0 0
Zn 1.55728250 2.20232750 -3.3035251199999998 0 0 0
Zn 1.55728250 6.60698250 -3.3035251199999998 0 0 0
Zn 4.67184750 2.20232750 -3.3035251199999998 0 0 0
Zn 1.69525773 4.45019913 3.43975296
Zn 4.53387227 8.76367777 3.44001903
Zn 4.53387227 4.45028723 3.44001903
Zn 1.69525773 8.76367777 3.44001903
Zn 4.81337333 2.20232750 1.24041834
Zn 1.61820339 6.60698250 1.11084225
Zn 1.41575667 2.20232750 1.24041834
Zn 4.61092661 6.60698250 1.11084225
Cu 0.00000000 0.00000000 -3.3035251199999998 0 0 0
Cu 3.11456500 2.20232750 -1.1012637299999994 0 0 0
Cu 3.11456500 6.60698250 -1.1012637299999994 0 0 0
Cu 0.00000000 4.40465500 -3.3035251199999998 0 0 0
Cu 0.00000000 4.45363476 1.22418807
Cu 3.11456500 6.60698250 3.31150722
Cu 3.11462729 2.20232750 3.19762926
Cu 0.00000000 8.76024214 1.22445414
Au 0.00000000 6.60698250 -1.1012637299999994 0 0 0
Au 3.11456500 0.00000000 -3.3035251199999998 0 0 0
Au 0.00000000 2.20232750 -1.1012637299999994 0 0 0
Au 3.11456500 4.40465500 -3.3035251199999998 0 0 0
Au 6.22906771 2.20223941 3.58688967
Au 3.11456500 4.31242152 1.02144273
Au 0.00000000 6.60698250 3.27505563
Au 3.11456500 0.09214538 1.02144273
C 0.00024917 2.20259178 5.69868726
O 0.00000000 2.20232750 6.84278826
