&CONTROL
calculation = 'relax'
prefix = 'scf'
pseudo_dir = '/vol0403/data/hp230205/u10028/POT_HYBRID_KKJUS_GBRV'
outdir = './data'
tprnfor = .true.
nstep = 70
disk_io = 'non'
/
&SYSTEM
ibrav = 0
ecutwfc = 50.0
ecutrho = 400
occupations = 'smearing'
smearing = 'mp'
degauss = 0.01
assume_isolated = 'esm'
esm_bc = 'bc1'
input_dft = 'BEEF-VDW'
nosym = .true.
nspin = 1
ntyp = 5
nat = 33
/
&ELECTRONS
electron_maxstep = 200
mixing_beta = 0.1
conv_thr = 1e-06
/
&IONS
ion_dynamics = 'bfgs'
upscale = 1.0
/
&CELL
/

K_POINTS {automatic}
9 6 2 0  0  0

ATOMIC_SPECIES
C 12.01 C.pbe-n-rrkjus_psl.1.0.0.UPF
Cu 63.54 Cu.pbe-dn-rrkjus_psl.1.0.0.UPF
Ga 69.72 Ga.pbe-dnl-rrkjus_psl.1.0.0.UPF
Pd 106.4 Pd.pbe-n-rrkjus_psl.1.0.0.UPF
Y 88.90 Y.pbe-spn-rrkjus_psl.1.0.0.UPF


CELL_PARAMETERS {angstrom}
6.59466000 0.00000000 0.00000000
-0.00000000 9.32626000 0.00000000
0.00000000 0.00000000 26.99470000

ATOMIC_POSITIONS {angstrom}
Y 4.94599500 0.00000000 -1.165901090000002 0 0 0
Y 4.94599500 4.66313000 -1.165901090000002 0 0 0
Y 1.64866500 2.33156500 -3.4974333300000033 0 0 0
Y 1.64866500 6.99469500 -3.4974333300000033 0 0 0
Y 4.17079272 4.66313000 3.66911962
Y 4.27663701 -0.00000000 3.54980305
Y 1.54374396 6.95962826 1.34379617
Y 1.54374396 2.36663174 1.34379617
Ga 1.64866500 0.00000000 -1.165901090000002 0 0 0
Ga 1.64866500 4.66313000 -1.165901090000002 0 0 0
Ga 4.94599500 2.33156500 -3.4974333300000033 0 0 0
Ga 4.94599500 6.99469500 -3.4974333300000033 0 0 0
Ga 1.18347768 4.66313000 3.57382833
Ga 0.64792535 0.00000000 3.58300653
Ga 4.79530702 7.00784503 1.10975212
Ga 4.79530702 2.31850824 1.10975212
Cu 0.00000000 0.00000000 -3.4974333300000033 0 0 0
Cu 0.00000000 4.66313000 -3.4974333300000033 0 0 0
Cu 3.29733000 6.99469500 -1.165901090000002 0 0 0
Cu 3.29733000 2.33156500 -1.165901090000002 0 0 0
Cu 6.11727256 4.66313000 1.57730032
Cu 6.25430960 -0.00000000 1.32247035
Cu 2.11161013 2.03144595 4.30970385
Cu 2.11154419 7.29481405 4.30970385
Pd 0.00000000 2.33156500 -1.165901090000002 0 0 0
Pd 0.00000000 6.99469500 -1.165901090000002 0 0 0
Pd 3.29733000 4.66313000 -3.4974333300000033 0 0 0
Pd 3.29733000 0.00000000 -3.4974333300000033 0 0 0
Pd 6.12287802 6.88212704 3.36866861
Pd 6.12294397 2.44413296 3.36866861
Pd 3.22782228 -0.00000000 0.93347673
Pd 3.24364947 4.66313000 1.06953001
C 2.27153064 -0.00000000 4.59638757
