&CONTROL
calculation = 'relax'
prefix = 'scf'
pseudo_dir = '/vol0403/data/hp230205/u10028/POT_HYBRID_KKJUS_GBRV'
outdir = './data'
tprnfor = .true.
nstep = 70
disk_io = 'non'
/
&SYSTEM
ibrav = 0
ecutwfc = 50.0
ecutrho = 400
occupations = 'smearing'
smearing = 'mp'
degauss = 0.01
assume_isolated = 'esm'
esm_bc = 'bc1'
input_dft = 'BEEF-VDW'
nosym = .true.
nspin = 1
ntyp = 5
nat = 33
/
&ELECTRONS
electron_maxstep = 200
mixing_beta = 0.1
conv_thr = 1e-06
/
&IONS
ion_dynamics = 'bfgs'
upscale = 1.0
/
&CELL
/

K_POINTS {automatic}
9 6 2 0  0  0

ATOMIC_SPECIES
C 12.01 C.pbe-n-rrkjus_psl.1.0.0.UPF
Cu 63.54 Cu.pbe-dn-rrkjus_psl.1.0.0.UPF
Ga 69.72 Ga.pbe-dnl-rrkjus_psl.1.0.0.UPF
Pd 106.4 Pd.pbe-n-rrkjus_psl.1.0.0.UPF
Sc 44.95 Sc.pbe-spn-rrkjus_psl.1.0.0.UPF


CELL_PARAMETERS {angstrom}
6.33027000 0.00000000 0.00000000
-0.00000000 8.95236000 0.00000000
0.00000000 0.00000000 26.71430000

ATOMIC_POSITIONS {angstrom}
Sc 4.74770250 0.00000000 -1.119062030000002 0 0 0
Sc 4.74770250 4.47618000 -1.119062030000002 0 0 0
Sc 1.58256750 2.23809000 -3.3571860800000017 0 0 0
Sc 1.58256750 6.71427000 -3.3571860800000017 0 0 0
Sc 4.32446065 4.47618000 3.46457757
Sc 4.60153657 8.95227048 3.30322320
Sc 1.58130145 6.62062831 1.25129781
Sc 1.58130145 2.33182121 1.25129781
Ga 1.58256750 0.00000000 -1.119062030000002 0 0 0
Ga 1.58256750 4.47618000 -1.119062030000002 0 0 0
Ga 4.74770250 2.23809000 -3.3571860800000017 0 0 0
Ga 4.74770250 6.71427000 -3.3571860800000017 0 0 0
Ga 1.51217490 4.47609048 3.42156754
Ga 1.05057161 -0.00000000 3.36065894
Ga 4.70446676 6.76055370 1.11265060
Ga 4.70446676 2.19189582 1.11265060
Cu 0.00000000 0.00000000 -3.3571860800000017 0 0 0
Cu 0.00000000 4.47618000 -3.3571860800000017 0 0 0
Cu 3.16513500 6.71427000 -1.119062030000002 0 0 0
Cu 3.16513500 2.23809000 -1.119062030000002 0 0 0
Cu 6.09623992 4.47618000 1.34720215
Cu 0.04665409 0.00000000 1.03250770
Cu 2.58844740 2.02744097 3.94409925
Cu 2.58832080 6.92473998 3.94409925
Pd 0.00000000 2.23809000 -1.119062030000002 0 0 0
Pd 0.00000000 6.71427000 -1.119062030000002 0 0 0
Pd 3.16513500 4.47618000 -3.3571860800000017 0 0 0
Pd 3.16513500 0.00000000 -3.3571860800000017 0 0 0
Pd 6.16030225 6.57738842 3.29681176
Pd 6.16030225 2.37488206 3.29681176
Pd 3.06904150 0.00008952 1.04506342
Pd 3.21824597 4.47618000 1.04800199
C 2.75379406 8.95218095 4.24356656
