&CONTROL
calculation = 'relax'
prefix = 'scf'
pseudo_dir = '/vol0403/data/hp230205/u10028/POT_HYBRID_KKJUS_GBRV'
outdir = './data'
tprnfor = .true.
nstep = 50
disk_io = 'non'
/
&SYSTEM
ibrav = 0
ecutwfc = 50.0
ecutrho = 400
occupations = 'smearing'
smearing = 'mp'
degauss = 0.01
assume_isolated = 'esm'
esm_bc = 'bc1'
input_dft = 'BEEF-VDW'
nosym = .true.
nspin = 1
ntyp = 6
nat = 18
/
&ELECTRONS
electron_maxstep = 200
mixing_beta = 0.1
conv_thr = 1e-06
/
&IONS
ion_dynamics = 'bfgs'
upscale = 1.0
/
&CELL
/

K_POINTS {automatic}
6 6 1 0 0 0

ATOMIC_SPECIES
C 12.01 C.pbe-n-rrkjus_psl.1.0.0.UPF
Ga 69.72 Ga.pbe-dnl-rrkjus_psl.1.0.0.UPF
Ge 72.64 Ge.pbe-dn-rrkjus_psl.1.0.0.UPF
O 15.99 O.pbe-n-rrkjus_psl.1.0.0.UPF
Pd 106.4 Pd.pbe-n-rrkjus_psl.1.0.0.UPF
Sc 44.95 Sc.pbe-spn-rrkjus_psl.1.0.0.UPF


CELL_PARAMETERS {angstrom}
7.83718000 0.00000000 0.00000000
0.00000000 5.89664000 0.00000000
0.00000000 0.00000000 24.41460000

ATOMIC_POSITIONS {angstrom}
Sc 0.00000000 2.94749447 2.14091627
Sc 0.00000000 5.72086116 -0.7358560400000016 0 0 0
Sc 3.91859000 2.94342579 2.14848480
Sc 3.91859000 5.72086116 -0.7358560400000016 0 0 0
Ga 0.00000000 5.89439928 2.41948686
Ga 0.00000000 2.77254116 -0.7358560400000016 0 0 0
Ga 3.91859000 5.86933856 2.44658707
Ga 3.91859000 2.77254116 -0.7358560400000016 0 0 0
Ge 1.96940496 4.46959415 0.94167112
Ge 1.95929500 1.21046226 -2.207323989999999 0 0 0
Ge 5.86777504 4.46959415 0.94167112
Ge 5.87788500 1.21046226 -2.207323989999999 0 0 0
Pd 1.97426401 1.35711170 0.77491940
Pd 1.95929500 4.15878226 -2.207323989999999 0 0 0
Pd 5.86291599 1.35711170 0.77491940
Pd 5.87788500 4.15878226 -2.207323989999999 0 0 0
C 0.00000000 2.96488956 4.46030327
O 0.00000000 2.97202449 5.60901020
