&CONTROL
calculation = 'relax'
prefix = 'scf'
pseudo_dir = '/vol0403/data/hp230205/u10028/POT_HYBRID_KKJUS_GBRV'
outdir = './data'
tprnfor = .true.
nstep = 50
disk_io = 'non'
/
&SYSTEM
ibrav = 0
ecutwfc = 50.0
ecutrho = 400
occupations = 'smearing'
smearing = 'mp'
degauss = 0.01
assume_isolated = 'esm'
esm_bc = 'bc1'
input_dft = 'BEEF-VDW'
nosym = .true.
nspin = 2
ntyp = 4
nat = 16
starting_magnetization(1) = 0.0
starting_magnetization(2) = 0.1
starting_magnetization(3) = 0.0
starting_magnetization(4) = 0.0
/
&ELECTRONS
electron_maxstep = 400
mixing_beta = 0.05
conv_thr = 1e-06
/
&IONS
ion_dynamics = 'bfgs'
upscale = 1.0
/
&CELL
/

K_POINTS {automatic}
13 7 2 0  0  0

ATOMIC_SPECIES
Al 26.98 Al.pbe-nl-rrkjus_psl.1.0.0.UPF
Fe 55.84 fe_pbe_v1.5.uspp.F.UPF
Li 6.941 Li.pbe-sl-rrkjus_psl.1.0.0.UPF
Pd 106.4 Pd.pbe-n-rrkjus_psl.1.0.0.UPF


CELL_PARAMETERS {angstrom}
5.15535000 0.00000000 0.00000000
0.00000000 8.84236000 0.00000000
0.00000000 0.00000000 23.55420000

ATOMIC_POSITIONS {angstrom}
Li 3.35907140 2.21059000 22.96181187
Li 5.02229042 2.20988261 1.89210889
Li 3.35907140 6.63177000 22.96181187
Li 5.02187799 6.63247739 1.89375768
Al 0.00000000 0.00000000 21.77703561
Al 1.40235831 8.84227158 0.64538508
Al 0.00000000 4.42118000 21.77703561
Al 1.40266763 4.42126842 0.64562062
Fe 2.57767500 0.00000000 21.77703561
Fe 3.83248719 0.00000000 0.16393723
Fe 2.57767500 4.42118000 21.77703561
Fe 3.83217787 4.42109158 0.16252398
Pd 0.78139640 2.21059000 22.96181187
Pd 2.48786880 2.21076685 1.66198435
Pd 0.78139640 6.63177000 22.96181187
Pd 2.48776570 6.63159315 1.66198435
