&CONTROL
calculation = 'relax'
prefix = 'scf'
pseudo_dir = '/vol0403/data/hp230205/u10028/POT_HYBRID_KKJUS_GBRV'
outdir = './data'
tprnfor = .true.
nstep = 70
disk_io = 'non'
/
&SYSTEM
ibrav = 0
ecutwfc = 50.0
ecutrho = 400
occupations = 'smearing'
smearing = 'mp'
degauss = 0.01
assume_isolated = 'esm'
esm_bc = 'bc1'
input_dft = 'BEEF-VDW'
nosym = .true.
nspin = 1
ntyp = 6
nat = 18
/
&ELECTRONS
electron_maxstep = 200
mixing_beta = 0.1
conv_thr = 1e-06
/
&IONS
ion_dynamics = 'bfgs'
upscale = 1.0
/
&CELL
/

K_POINTS {automatic}
11 7 2 0  0  0

ATOMIC_SPECIES
C 12.01 C.pbe-n-rrkjus_psl.1.0.0.UPF
Ge 72.64 Ge.pbe-dn-rrkjus_psl.1.0.0.UPF
In 114.8 In.pbe-dn-rrkjus_psl.1.0.0.UPF
O 15.99 O.pbe-n-rrkjus_psl.1.0.0.UPF
Pd 106.4 Pd.pbe-n-rrkjus_psl.1.0.0.UPF
Sc 44.95 Sc.pbe-spn-rrkjus_psl.1.0.0.UPF


CELL_PARAMETERS {angstrom}
5.71274000 0.00000000 0.00000000
-0.00000000 9.28368000 0.00000000
0.00000000 0.00000000 24.27220000

ATOMIC_POSITIONS {angstrom}
Sc 2.85637000 0.00000000 -2.13619632 0 0 0
Sc 5.04920525 0.00315645 0.75340909
Sc 2.85637000 4.64184000 -2.13619632 0 0 0
Sc 5.04897674 4.63859071 0.75365181
In 1.31958581 2.32092000 -0.7121463500000011 0 0 0
In 3.50967895 2.32073433 2.31993688
In 1.31958581 6.96276000 -0.7121463500000011 0 0 0
In 3.46340575 6.96276000 2.27600419
Ge 0.00000000 0.00000000 -2.13619632 0 0 0
Ge 2.15701637 0.01550375 1.27598955
Ge 0.00000000 4.64184000 -2.13619632 0 0 0
Ge 2.15673073 4.62624342 1.27671772
Pd 4.17595581 2.32092000 -0.7121463500000011 0 0 0
Pd 0.58864073 2.32092000 1.90536770
Pd 4.17595581 6.96276000 -0.7121463500000011 0 0 0
Pd 0.55647800 6.96257433 1.88182367
C 3.37411563 2.32092000 6.49621161
O 4.26341786 2.32110567 7.20083357
