&CONTROL
calculation = 'relax'
prefix = 'scf'
pseudo_dir = '/vol0004/mdt0/data/hp150275/u10028/POT_KKJUS'
outdir = './data'
tprnfor = .true.
nstep = 50
disk_io = 'non'
/
&SYSTEM
ibrav = 0
ecutwfc = 50.0
ecutrho = 400
occupations = 'smearing'
smearing = 'mp'
degauss = 0.01
assume_isolated = 'esm'
esm_bc = 'bc1'
input_dft = 'BEEF-VDW'
nosym = .true.
nspin = 1
ntyp = 3
nat = 17
/
&ELECTRONS
electron_maxstep = 200
mixing_beta = 0.1
conv_thr = 1e-06
/
&IONS
ion_dynamics = 'bfgs'
upscale = 1.0
/
&CELL
/

K_POINTS {automatic}
8 11 2 0  0  0

ATOMIC_SPECIES
C 12.01 C.pbe-n-rrkjus_psl.1.0.0.UPF
Pd 106.4 Pd.pbe-n-rrkjus_psl.1.0.0.UPF
V 50.94 V.pbe-spnl-rrkjus_psl.1.0.0.UPF

CELL_PARAMETERS {angstrom}
7.84123000 0.00000000 0.00000000
0.00000000 5.54458000 0.00000000
0.00000000 0.00000000 24.15840000

ATOMIC_POSITIONS {angstrom}
V 0.00000000 0.00000000 -2.0793134900000005 0 0 0
V 0.00000000 2.77229000 0.49983730
V 3.92061500 0.00000000 -2.0793134900000005 0 0 0
V 3.92061500 2.77229000 0.59719565
Pd 0.00000000 2.77229000 -2.0793134900000005 0 0 0
Pd 1.96030750 4.15843500 -0.6931045000000005 0 0 0
Pd 1.96030750 1.38614500 -0.6931045000000005 0 0 0
Pd 0.00000000 0.00000000 0.44693040
Pd 1.54621214 1.41237086 2.18826787
Pd 1.54621214 4.13226458 2.18826787
Pd 3.92061500 2.77229000 -2.0793134900000005 0 0 0
Pd 5.88092250 4.15843500 -0.6931045000000005 0 0 0
Pd 5.88092250 1.38614500 -0.6931045000000005 0 0 0
Pd 3.92061500 0.00000000 0.78853018
Pd 6.29501786 1.41231542 2.18826787
Pd 6.29501786 4.13220914 2.18826787
C 0.00000000 0.00000000 2.51537261
