&CONTROL
calculation = 'relax'
prefix = 'scf'
pseudo_dir = '/vol0004/mdt0/data/hp150275/u10028/POT_KKJUS'
outdir = './data'
tprnfor = .true.
nstep = 50
disk_io = 'non'
/
&SYSTEM
ibrav = 0
ecutwfc = 50.0
ecutrho = 400
occupations = 'smearing'
smearing = 'mp'
degauss = 0.01
assume_isolated = 'esm'
esm_bc = 'bc1'
input_dft = 'BEEF-VDW'
nosym = .true.
nspin = 1
ntyp = 5
nat = 34
/
&ELECTRONS
electron_maxstep = 200
mixing_beta = 0.1
conv_thr = 1e-06
/
&IONS
ion_dynamics = 'bfgs'
upscale = 1.0
/
&CELL
/

K_POINTS {automatic}
8 6 1 0 0 0

ATOMIC_SPECIES
C 12.01 C.pbe-n-rrkjus_psl.1.0.0.UPF
Ga 69.72 Ga.pbe-dnl-rrkjus_psl.1.0.0.UPF
Nb 92.90 Nb.pbe-spn-rrkjus_psl.1.0.0.UPF
Ni 58.69 Ni.pbe-spn-rrkjus_psl.1.0.0.UPF
O 15.99 O.pbe-n-rrkjus_psl.1.0.0.UPF

CELL_PARAMETERS {angstrom}
6.01786000 0.00000000 0.00000000
0.00000000 8.51054000 0.00000000
0.00000000 0.00000000 26.38290000

ATOMIC_POSITIONS {angstrom}
Nb 0.00000000 0.00000000 -3.1915394100000007 0 0 0
Nb 3.00893000 2.12763500 -1.0637585299999976 0 0 0
Nb 3.00893000 6.38290500 -1.0637585299999976 0 0 0
Nb 0.00000000 4.25527000 -3.1915394100000007 0 0 0
Nb 0.00000000 4.29629080 1.06718830
Nb 3.00893000 6.38281989 3.25353923
Nb 3.00893000 2.12772011 3.17359904
Nb 0.00000000 8.46951920 1.06718830
Ga 0.00000000 6.38290500 -1.0637585299999976 0 0 0
Ga 3.00893000 0.00000000 -3.1915394100000007 0 0 0
Ga 0.00000000 2.12763500 -1.0637585299999976 0 0 0
Ga 3.00893000 4.25527000 -3.1915394100000007 0 0 0
Ga 0.00000000 2.12746479 3.22979462
Ga 3.00893000 4.20463229 1.03922243
Ga 0.00000000 6.38307521 3.20288406
Ga 3.00893000 0.05063771 1.03869477
Ni 1.50446500 0.00000000 -1.0637585299999976 0 0 0
Ni 4.51339500 4.25527000 -1.0637585299999976 0 0 0
Ni 4.51339500 0.00000000 -1.0637585299999976 0 0 0
Ni 1.50446500 4.25527000 -1.0637585299999976 0 0 0
Ni 4.51339500 6.38290500 -3.1915394100000007 0 0 0
Ni 1.50446500 2.12763500 -3.1915394100000007 0 0 0
Ni 1.50446500 6.38290500 -3.1915394100000007 0 0 0
Ni 4.51339500 2.12763500 -3.1915394100000007 0 0 0
Ni 1.51842644 4.26378054 3.07703763
Ni 4.49907249 8.50202946 3.07650997
Ni 4.49937339 4.26378054 3.07703763
Ni 1.51884769 8.50202946 3.07650997
Ni 4.59692290 2.12763500 1.05083091
Ni 1.63463131 6.38290500 1.14950295
Ni 1.42093710 2.12763500 1.05109474
Ni 4.38316851 6.38290500 1.14950295
C 3.00893000 2.12763500 5.30560119
O 3.00893000 2.12754989 6.46090838
