&CONTROL
calculation = 'relax'
prefix = 'scf'
pseudo_dir = '/vol0403/data/hp230205/u10028/POT_HYBRID_KKJUS_GBRV'
outdir = './data'
tprnfor = .true.
nstep = 50
disk_io = 'non'
/
&SYSTEM
ibrav = 0
ecutwfc = 50.0
ecutrho = 400
occupations = 'smearing'
smearing = 'mp'
degauss = 0.01
assume_isolated = 'esm'
esm_bc = 'bc1'
input_dft = 'BEEF-VDW'
nosym = .true.
nspin = 1
ntyp = 5
nat = 33
/
&ELECTRONS
electron_maxstep = 200
mixing_beta = 0.1
conv_thr = 1e-06
/
&IONS
ion_dynamics = 'bfgs'
upscale = 1.0
/
&CELL
/

K_POINTS {automatic}
6 6 1 0 0 0

ATOMIC_SPECIES
C 12.01 C.pbe-n-rrkjus_psl.1.0.0.UPF
In 114.8 In.pbe-dn-rrkjus_psl.1.0.0.UPF
Mg 24.30 Mg.pbe-spnl-rrkjus_psl.1.0.0.UPF
Pd 106.4 Pd.pbe-n-rrkjus_psl.1.0.0.UPF
Sc 44.95 Sc.pbe-spn-rrkjus_psl.1.0.0.UPF


CELL_PARAMETERS {angstrom}
6.76782000 0.00000000 0.00000000
0.00000000 9.57114000 0.00000000
0.00000000 0.00000000 27.17840000

ATOMIC_POSITIONS {angstrom}
Mg 1.69195500 0.00000000 -1.1963931700000003 0 0 0
Mg 1.69195500 4.78557000 -1.1963931700000003 0 0 0
Mg 5.07586500 2.39278500 -3.5891795 0 0 0
Mg 5.07586500 7.17835500 -3.5891795 0 0 0
Mg 1.57365351 4.78537858 3.69164207
Mg 1.85072806 0.00057427 4.18574538
Mg 4.98795102 7.14016615 1.29178935
Mg 4.98795102 2.43097385 1.29178935
Sc 5.07586500 0.00000000 -1.1963931700000003 0 0 0
Sc 5.07586500 4.78557000 -1.1963931700000003 0 0 0
Sc 1.69195500 2.39278500 -3.5891795 0 0 0
Sc 1.69195500 7.17835500 -3.5891795 0 0 0
Sc 5.09637149 4.78604856 3.59135378
Sc 4.67771415 9.57094858 3.51090571
Sc 1.81336969 7.18993608 1.34560258
Sc 1.81336969 2.38110821 1.34560258
In 0.00000000 0.00000000 -3.5891795 0 0 0
In 0.00000000 4.78557000 -3.5891795 0 0 0
In 3.38391000 7.17835500 -1.1963931700000003 0 0 0
In 3.38391000 2.39278500 -1.1963931700000003 0 0 0
In 0.04006549 4.78547429 1.21134129
In 6.75130652 0.00000000 1.23553006
In 3.30499722 2.54429615 4.21265200
In 3.30371133 7.02713099 4.21292378
Pd 0.00000000 2.39278500 -1.1963931700000003 0 0 0
Pd 0.00000000 7.17835500 -1.1963931700000003 0 0 0
Pd 3.38391000 4.78557000 -3.5891795 0 0 0
Pd 3.38391000 0.00000000 -3.5891795 0 0 0
Pd 0.07268639 7.27234359 3.35245564
Pd 0.07221264 2.29898783 3.35245564
Pd 3.38844444 0.00000000 1.01755930
Pd 3.37984931 4.78557000 1.24150931
C 6.67658979 0.00000000 3.53455092
