&CONTROL
calculation = 'relax'
prefix = 'scf'
pseudo_dir = '/vol0403/data/hp230205/u10028/POT_HYBRID_KKJUS_GBRV'
outdir = './data'
tprnfor = .true.
nstep = 50
disk_io = 'non'
/
&SYSTEM
ibrav = 0
ecutwfc = 50.0
ecutrho = 400
occupations = 'smearing'
smearing = 'mp'
degauss = 0.01
assume_isolated = 'esm'
esm_bc = 'bc1'
input_dft = 'BEEF-VDW'
nosym = .true.
nspin = 1
ntyp = 5
nat = 33
/
&ELECTRONS
electron_maxstep = 200
mixing_beta = 0.1
conv_thr = 1e-06
/
&IONS
ion_dynamics = 'bfgs'
upscale = 1.0
/
&CELL
/

K_POINTS {automatic}
9 6 2 0  0  0

ATOMIC_SPECIES
C 12.01 C.pbe-n-rrkjus_psl.1.0.0.UPF
In 114.8 In.pbe-dn-rrkjus_psl.1.0.0.UPF
Mg 24.30 Mg.pbe-spnl-rrkjus_psl.1.0.0.UPF
Pd 106.4 Pd.pbe-n-rrkjus_psl.1.0.0.UPF
Sc 44.95 Sc.pbe-spn-rrkjus_psl.1.0.0.UPF


CELL_PARAMETERS {angstrom}
6.76782000 0.00000000 0.00000000
0.00000000 9.57114000 0.00000000
0.00000000 0.00000000 27.17840000

ATOMIC_POSITIONS {angstrom}
Mg 1.69195500 0.00000000 -1.1963931700000003 0 0 0
Mg 1.69195500 4.78557000 -1.1963931700000003 0 0 0
Mg 5.07586500 2.39278500 -3.5891795 0 0 0
Mg 5.07586500 7.17835500 -3.5891795 0 0 0
Mg 1.57324744 4.78537858 3.69137029
Mg 1.84808861 0.00066998 4.19308355
Mg 4.98747727 7.13968759 1.29124578
Mg 4.98761263 2.43135669 1.29124578
Sc 5.07586500 0.00000000 -1.1963931700000003 0 0 0
Sc 5.07586500 4.78557000 -1.1963931700000003 0 0 0
Sc 1.69195500 2.39278500 -3.5891795 0 0 0
Sc 1.69195500 7.17835500 -3.5891795 0 0 0
Sc 5.09806345 4.78595285 3.59352805
Sc 4.67473631 9.57085287 3.50275219
Sc 1.81289594 7.19089319 1.34560258
Sc 1.81282827 2.38015110 1.34560258
In 0.00000000 0.00000000 -3.5891795 0 0 0
In 0.00000000 4.78557000 -3.5891795 0 0 0
In 3.38391000 7.17835500 -1.1963931700000003 0 0 0
In 3.38391000 2.39278500 -1.1963931700000003 0 0 0
In 0.04148674 4.78547429 1.20726453
In 6.74670440 0.00000000 1.23607363
In 3.30425276 2.54487041 4.21292378
In 3.30303455 7.02655672 4.21319557
Pd 0.00000000 2.39278500 -1.1963931700000003 0 0 0
Pd 0.00000000 7.17835500 -1.1963931700000003 0 0 0
Pd 3.38391000 4.78557000 -3.5891795 0 0 0
Pd 3.38391000 0.00000000 -3.5891795 0 0 0
Pd 0.07207728 7.27263073 3.35245564
Pd 0.07160354 2.29870069 3.35245564
Pd 3.38824140 0.00000000 1.01674394
Pd 3.37998466 4.78566571 1.24232466
C 6.67638675 0.00000000 3.53726876
