&CONTROL
calculation = 'relax'
prefix = 'scf'
pseudo_dir = '/vol0004/mdt0/data/hp150275/u10028/POT_KKJUS'
outdir = './data'
tprnfor = .true.
nstep = 50
disk_io = 'non'
/
&SYSTEM
ibrav = 0
ecutwfc = 50.0
ecutrho = 400
occupations = 'smearing'
smearing = 'mp'
degauss = 0.01
assume_isolated = 'esm'
esm_bc = 'bc1'
input_dft = 'BEEF-VDW'
nosym = .true.
nspin = 1
ntyp = 5
nat = 18
/
&ELECTRONS
electron_maxstep = 200
mixing_beta = 0.1
conv_thr = 1e-06
/
&IONS
ion_dynamics = 'bfgs'
upscale = 1.0
/
&CELL
/

K_POINTS {automatic}
8 8 1 0 0 0

ATOMIC_SPECIES
Au 196.9 Au.pbe-n-rrkjus_psl.1.0.0.UPF
C 12.01 C.pbe-n-rrkjus_psl.1.0.0.UPF
Cu 63.54 Cu.pbe-dn-rrkjus_psl.1.0.0.UPF
O 15.99 O.pbe-n-rrkjus_psl.1.0.0.UPF
Zn 65.40 Zn.pbe-dnl-rrkjus_psl.1.0.0.UPF

CELL_PARAMETERS {angstrom}
6.22913000 0.00000000 0.00000000
-0.00000000 6.22913000 0.00000000
0.00000000 0.00000000 24.67180000

ATOMIC_POSITIONS {angstrom}
Zn 1.55728250 1.55728250 -0.7786420100000022 0 0 0
Zn 4.67184750 4.67184750 2.33592602
Zn 4.67184750 1.55728250 -0.7786420100000022 0 0 0
Zn 1.55728250 4.67184750 2.33592602
Zn 4.67184750 4.67184750 -0.7786420100000022 0 0 0
Zn 1.55728250 1.55728250 2.33592602
Zn 1.55728250 4.67184750 -0.7786420100000022 0 0 0
Zn 4.67184750 1.55728250 2.33592602
Cu 0.00000000 0.00000000 -2.3359260200000023 0 0 0
Cu 3.11456500 3.11456500 -2.3359260200000023 0 0 0
Cu 3.11456500 -0.00000000 0.77864201
Cu 0.00000000 3.11456500 0.77864201
Au 0.00000000 0.00000000 0.77864201
Au 3.11456500 0.00000000 -2.3359260200000023 0 0 0
Au 0.00000000 3.11456500 -2.3359260200000023 0 0 0
Au 3.11456500 3.11456500 0.77864201
C 1.55728250 1.55728250 4.23590134
O 1.55728250 1.55728250 5.38585394
