&CONTROL
calculation = 'relax'
prefix = 'scf'
pseudo_dir = '/vol0403/data/hp230205/u10028/POT_HYBRID_KKJUS_GBRV'
outdir = './data'
tprnfor = .true.
nstep = 50
disk_io = 'non'
/
&SYSTEM
ibrav = 0
ecutwfc = 50.0
ecutrho = 400
occupations = 'smearing'
smearing = 'mp'
degauss = 0.01
assume_isolated = 'esm'
esm_bc = 'bc1'
input_dft = 'BEEF-VDW'
nosym = .true.
nspin = 1
ntyp = 6
nat = 18
/
&ELECTRONS
electron_maxstep = 200
mixing_beta = 0.1
conv_thr = 1e-06
/
&IONS
ion_dynamics = 'bfgs'
upscale = 1.0
/
&CELL
/

K_POINTS {automatic}
6 6 1 0 0 0

ATOMIC_SPECIES
C 12.01 C.pbe-n-rrkjus_psl.1.0.0.UPF
Ge 72.64 Ge.pbe-dn-rrkjus_psl.1.0.0.UPF
Li 6.941 Li.pbe-sl-rrkjus_psl.1.0.0.UPF
O 15.99 O.pbe-n-rrkjus_psl.1.0.0.UPF
Sn 118.7 Sn.pbe-dn-rrkjus_psl.1.0.0.UPF
Y 88.90 Y.pbe-spn-rrkjus_psl.1.0.0.UPF


CELL_PARAMETERS {angstrom}
6.38551000 0.00000000 0.00000000
0.00000000 8.52742000 0.00000000
0.00000000 0.00000000 24.76910000

ATOMIC_POSITIONS {angstrom}
Li 4.64335131 2.13185500 -0.7948404200000034 0 0 0
Li 1.19804939 2.13185500 2.34513839
Li 4.64335131 6.39556500 -0.7948404200000034 0 0 0
Li 1.22103722 6.39556500 2.19404688
Y 1.45059631 2.13185500 -0.7948404200000034 0 0 0
Y 4.35115037 2.13185500 2.15986552
Y 1.45059631 6.39556500 -0.7948404200000034 0 0 0
Y 4.36136719 6.39556500 2.22327442
Sn 3.19275500 0.00000000 -2.384521260000003 0 0 0
Sn 6.10933669 8.51522579 0.75174219
Sn 3.19275500 4.26371000 -2.384521260000003 0 0 0
Sn 6.10940055 4.27590421 0.75198988
Ge 0.00000000 0.00000000 -2.384521260000003 0 0 0
Ge 2.83273995 8.49714766 0.86716619
Ge 0.00000000 4.26371000 -2.384521260000003 0 0 0
Ge 2.83286766 4.29398234 0.86691850
C 4.36468765 2.13185500 4.60036494
O 4.34872388 2.13185500 5.75832037
