&CONTROL
calculation = 'relax'
prefix = 'scf'
pseudo_dir = '/vol0004/mdt0/data/hp150275/u10028/POT_KKJUS'
outdir = './data'
tprnfor = .true.
nstep = 50
disk_io = 'non'
/
&SYSTEM
ibrav = 0
ecutwfc = 50.0
ecutrho = 400
occupations = 'smearing'
smearing = 'mp'
degauss = 0.01
assume_isolated = 'esm'
esm_bc = 'bc1'
input_dft = 'BEEF-VDW'
nosym = .true.
nspin = 1
ntyp = 3
nat = 32
/
&ELECTRONS
electron_maxstep = 200
mixing_beta = 0.1
conv_thr = 1e-06
/
&IONS
ion_dynamics = 'bfgs'
upscale = 1.0
/
&CELL
/

K_POINTS {automatic}
9 6 2 0  0  0

ATOMIC_SPECIES
In 114.8 In.pbe-dn-rrkjus_psl.1.0.0.UPF
Ni 58.69 Ni.pbe-spn-rrkjus_psl.1.0.0.UPF
Sc 44.95 Sc.pbe-spn-rrkjus_psl.1.0.0.UPF

CELL_PARAMETERS {angstrom}
6.35421000 0.00000000 0.00000000
0.00000000 8.98620000 0.00000000
0.00000000 0.00000000 26.73970000

ATOMIC_POSITIONS {angstrom}
Sc 0.00000000 0.00000000 -3.36973699 0 0 0
Sc 3.17710500 2.24655000 -1.1233347999999985 0 0 0
Sc 3.17710500 6.73965000 -1.1233347999999985 0 0 0
Sc 0.00000000 4.49310000 -3.36973699 0 0 0
Sc 6.35408292 4.49265069 1.09365373
Sc 3.17729563 6.73947028 3.30208555
Sc 3.17697792 2.24663986 3.30315514
Sc 0.00012708 0.00035945 1.09338633
In 0.00000000 6.73965000 -1.1233347999999985 0 0 0
In 3.17710500 0.00000000 -3.36973699 0 0 0
In 0.00000000 2.24655000 -1.1233347999999985 0 0 0
In 3.17710500 4.49310000 -3.36973699 0 0 0
In 0.00019063 2.24637028 3.50290070
In 3.17729563 4.49345945 1.11370850
In 0.00000000 6.73973986 3.50343549
In 3.17691437 8.98575069 1.11317371
Ni 1.58855250 0.00000000 -1.1233347999999985 0 0 0
Ni 4.76565750 4.49310000 -1.1233347999999985 0 0 0
Ni 4.76565750 0.00000000 -1.1233347999999985 0 0 0
Ni 1.58855250 4.49310000 -1.1233347999999985 0 0 0
Ni 4.76565750 6.73965000 -3.36973699 0 0 0
Ni 1.58855250 2.24655000 -3.36973699 0 0 0
Ni 1.58855250 6.73965000 -3.36973699 0 0 0
Ni 4.76565750 2.24655000 -3.36973699 0 0 0
Ni 1.46909335 4.49310000 3.16999144
Ni 4.88492602 0.00017972 3.16918924
Ni 4.88556144 4.49265069 3.17025883
Ni 1.46960169 0.00008986 3.16945664
Ni 4.76324290 2.24672972 1.16932708
Ni 1.58963272 6.73911083 1.16799010
Ni 1.59026814 2.24681959 1.16852489
Ni 4.76502208 6.73965000 1.16772270
