&CONTROL
calculation = 'relax'
prefix = 'scf'
pseudo_dir = '/vol0004/mdt0/data/hp150275/u10028/POT_KKJUS'
outdir = './data'
tprnfor = .true.
nstep = 50
disk_io = 'non'
/
&SYSTEM
ibrav = 0
ecutwfc = 50.0
ecutrho = 400
occupations = 'smearing'
smearing = 'mp'
degauss = 0.01
assume_isolated = 'esm'
esm_bc = 'bc1'
input_dft = 'BEEF-VDW'
nosym = .true.
nspin = 1
ntyp = 5
nat = 18
/
&ELECTRONS
electron_maxstep = 200
mixing_beta = 0.1
conv_thr = 1e-06
/
&IONS
ion_dynamics = 'bfgs'
upscale = 1.0
/
&CELL
/

K_POINTS {automatic}
8 8 1 0 0 0

ATOMIC_SPECIES
Au 196.9 Au.pbe-n-rrkjus_psl.1.0.0.UPF
C 12.01 C.pbe-n-rrkjus_psl.1.0.0.UPF
In 114.8 In.pbe-dn-rrkjus_psl.1.0.0.UPF
Li 6.941 Li.pbe-sl-rrkjus_psl.1.0.0.UPF
O 15.99 O.pbe-n-rrkjus_psl.1.0.0.UPF

CELL_PARAMETERS {angstrom}
6.60991000 0.00000000 0.00000000
0.00000000 6.60991000 0.00000000
0.00000000 0.00000000 24.95740000

ATOMIC_POSITIONS {angstrom}
Li 6.59906975 6.59920195 0.87899963
Li 3.30495500 0.00000000 -2.478768970000001 0 0 0
Li 0.00000000 3.30495500 -2.478768970000001 0 0 0
Li 3.31579525 3.31559696 0.87899963
Li 1.65247750 1.65221310 2.79722539
Li 1.65247750 4.95743250 -0.8263395100000004 0 0 0
Li 4.95703591 4.95763080 2.82168364
Li 4.95743250 1.65247750 -0.8263395100000004 0 0 0
In 0.00000000 0.00000000 -2.478768970000001 0 0 0
In 3.30495500 3.30495500 -2.478768970000001 0 0 0
In 3.30892095 6.60620845 0.83806949
In 6.60594405 3.30872265 0.83831907
Au 1.65247750 1.65247750 -0.8263395100000004 0 0 0
Au 1.65254360 4.95743250 2.33626221
Au 4.95743250 4.95743250 -0.8263395100000004 0 0 0
Au 4.95743250 1.65241140 2.33651179
C 1.65254360 1.65247750 4.90862143
O 1.65247750 1.65254360 6.04817632
