&CONTROL
calculation = 'relax'
prefix = 'scf'
pseudo_dir = '/vol0403/data/hp230205/u10028/POT_HYBRID_KKJUS_GBRV'
outdir = './data'
tprnfor = .true.
nstep = 50
disk_io = 'non'
/
&SYSTEM
ibrav = 0
ecutwfc = 50.0
ecutrho = 400
occupations = 'smearing'
smearing = 'mp'
degauss = 0.01
assume_isolated = 'esm'
esm_bc = 'bc1'
input_dft = 'BEEF-VDW'
nosym = .true.
nspin = 1
ntyp = 4
nat = 16
/
&ELECTRONS
electron_maxstep = 200
mixing_beta = 0.1
conv_thr = 1e-06
/
&IONS
ion_dynamics = 'bfgs'
upscale = 1.0
/
&CELL
/

K_POINTS {automatic}
8 11 2 0  0  0

ATOMIC_SPECIES
Al 26.98 Al.pbe-nl-rrkjus_psl.1.0.0.UPF
In 114.8 In.pbe-dn-rrkjus_psl.1.0.0.UPF
Li 6.941 Li.pbe-sl-rrkjus_psl.1.0.0.UPF
Sc 44.95 Sc.pbe-spn-rrkjus_psl.1.0.0.UPF


CELL_PARAMETERS {angstrom}
8.37392000 0.00000000 0.00000000
0.00000000 6.08380000 0.00000000
0.00000000 0.00000000 24.56130000

ATOMIC_POSITIONS {angstrom}
Li 0.00008374 3.18511265 2.50598944
Li 0.00000000 6.00562317 -0.7601722399999993 0 0 0
Li 4.18679252 3.18517349 2.50623505
Li 4.18696000 6.00562317 -0.7601722399999993 0 0 0
Sc 2.09348000 1.64353857 0.80020715
Sc 2.09348000 4.44561517 -2.280762320000001 0 0 0
Sc 6.28035626 1.64372108 0.80069838
Sc 6.28044000 4.44561517 -2.280762320000001 0 0 0
Al 0.00025122 0.27151999 2.11767529
Al 0.00000000 2.96372317 -0.7601722399999993 0 0 0
Al 4.18670878 0.27127664 2.11792090
Al 4.18696000 2.96372317 -0.7601722399999993 0 0 0
In 2.09339626 4.67175002 0.99424142
In 2.09348000 1.40371517 -2.280762320000001 0 0 0
In 6.28044000 4.67187170 0.99473265
In 6.28044000 1.40371517 -2.280762320000001 0 0 0
