&CONTROL
calculation = 'relax'
prefix = 'scf'
pseudo_dir = '/vol0004/mdt0/data/hp150275/u10028/POT_KKJUS'
outdir = './data'
tprnfor = .true.
nstep = 50
disk_io = 'non'
/
&SYSTEM
ibrav = 0
ecutwfc = 50.0
ecutrho = 400
occupations = 'smearing'
smearing = 'mp'
degauss = 0.01
assume_isolated = 'esm'
esm_bc = 'bc1'
input_dft = 'BEEF-VDW'
nosym = .true.
nspin = 1
ntyp = 4
nat = 33
/
&ELECTRONS
electron_maxstep = 200
mixing_beta = 0.1
conv_thr = 1e-06
/
&IONS
ion_dynamics = 'bfgs'
upscale = 1.0
/
&CELL
/

K_POINTS {automatic}
9 6 2 0  0  0

ATOMIC_SPECIES
Ag 107.8 Ag.pbe-n-rrkjus_psl.1.0.0.UPF
C 12.01 C.pbe-n-rrkjus_psl.1.0.0.UPF
In 114.8 In.pbe-dn-rrkjus_psl.1.0.0.UPF
Sc 44.95 Sc.pbe-spn-rrkjus_psl.1.0.0.UPF

CELL_PARAMETERS {angstrom}
6.85473000 0.00000000 0.00000000
0.00000000 9.69405000 0.00000000
0.00000000 0.00000000 27.27050000

ATOMIC_POSITIONS {angstrom}
Sc 0.00000000 0.00000000 -3.63515765 0 0 0
Sc 3.42736500 2.42351250 -1.211628319999999 0 0 0
Sc 3.42736500 7.27053750 -1.211628319999999 0 0 0
Sc 0.00000000 4.84702500 -3.63515765 0 0 0
Sc 0.00006855 4.84702500 1.68149903
Sc 3.42722791 7.40499397 3.43062890
Sc 3.42729645 2.28915297 3.43062890
Sc 6.85459291 0.00009694 1.52823882
In 0.00000000 7.27053750 -1.211628319999999 0 0 0
In 3.42736500 0.00000000 -3.63515765 0 0 0
In 0.00000000 2.42351250 -1.211628319999999 0 0 0
In 3.42736500 4.84702500 -3.63515765 0 0 0
In 0.00006855 2.37387896 3.77041933
In 3.42729645 4.84721888 1.23698988
In 0.00000000 7.32026798 3.77041933
In 3.42736500 9.69395306 1.18981191
Ag 1.71368250 0.00000000 -1.211628319999999 0 0 0
Ag 5.14104750 4.84702500 -1.211628319999999 0 0 0
Ag 5.14104750 0.00000000 -1.211628319999999 0 0 0
Ag 1.71368250 4.84702500 -1.211628319999999 0 0 0
Ag 5.14104750 7.27053750 -3.63515765 0 0 0
Ag 1.71368250 2.42351250 -3.63515765 0 0 0
Ag 1.71368250 7.27053750 -3.63515765 0 0 0
Ag 5.14104750 2.42351250 -3.63515765 0 0 0
Ag 1.91109872 4.84702500 3.98012947
Ag 4.84526590 0.00000000 4.53917472
Ag 4.94342563 4.84712194 3.97985677
Ag 2.00925846 0.00000000 4.53917472
Ag 5.21363909 2.46810513 1.16908633
Ag 1.64122800 7.22613875 1.16908633
Ag 1.64115946 2.46800819 1.16908633
Ag 5.21350200 7.22604181 1.16908633
C 0.00000000 0.00000000 3.66106462
