&CONTROL
calculation = 'relax'
prefix = 'scf'
pseudo_dir = '/vol0004/mdt0/data/hp150275/u10028/POT_HYBRID_KKJUS_GBRV'
outdir = './data'
tprnfor = .true.
nstep = 50
disk_io = 'non'
/
&SYSTEM
ibrav = 0
ecutwfc = 50.0
ecutrho = 400
occupations = 'smearing'
smearing = 'mp'
degauss = 0.01
assume_isolated = 'esm'
esm_bc = 'bc1'
input_dft = 'BEEF-VDW'
nosym = .true.
nspin = 2
ntyp = 5
nat = 34
starting_magnetization(1) = 0.0
starting_magnetization(2) = 0.0
starting_magnetization(3) = 0.1
starting_magnetization(4) = 0.0
starting_magnetization(5) = 0.0
/
&ELECTRONS
electron_maxstep = 300
mixing_beta = 0.1
conv_thr = 1e-06
/
&IONS
ion_dynamics = 'bfgs'
upscale = 1.0
/
&CELL
/

K_POINTS {automatic}
9 6 2 0  0  0

ATOMIC_SPECIES
Al 26.98 Al.pbe-nl-rrkjus_psl.1.0.0.UPF
C 12.01 C.pbe-n-rrkjus_psl.1.0.0.UPF
Fe 55.84 fe_pbe_v1.5.uspp.F.UPF
O 15.99 O.pbe-n-rrkjus_psl.1.0.0.UPF
V 50.94 V.pbe-spnl-rrkjus_psl.1.0.0.UPF

CELL_PARAMETERS {angstrom}
5.71239000 0.00000000 0.00000000
0.00000000 8.07854000 0.00000000
0.00000000 0.00000000 26.05890000

ATOMIC_POSITIONS {angstrom}
Al 0.00000000 0.00000000 -3.0293471200000006 0 0 0
Al 2.85619500 2.01963500 -1.00978237 0 0 0
Al 2.85619500 6.05890500 -1.00978237 0 0 0
Al 0.00000000 4.03927000 -3.0293471200000006 0 0 0
Al 5.70793434 4.03927000 1.00952179
Al 2.81815048 6.10002477 3.20889295
Al 2.81809336 1.97851523 3.20889295
Al 0.01342412 0.00000000 1.00691590
V 0.00000000 6.05890500 -1.00978237 0 0 0
V 2.85619500 0.00000000 -3.0293471200000006 0 0 0
V 0.00000000 2.01963500 -1.00978237 0 0 0
V 2.85619500 4.03927000 -3.0293471200000006 0 0 0
V 5.69525283 2.02496684 2.99077995
V 2.86007943 4.03927000 1.04678601
V 5.69525283 6.05357316 2.99077995
V 2.86413522 0.00000000 1.05408251
Fe 1.42809750 0.00000000 -1.00978237 0 0 0
Fe 4.28429250 4.03927000 -1.00978237 0 0 0
Fe 4.28429250 0.00000000 -1.00978237 0 0 0
Fe 1.42809750 4.03927000 -1.00978237 0 0 0
Fe 4.28429250 6.05890500 -3.0293471200000006 0 0 0
Fe 1.42809750 2.01963500 -3.0293471200000006 0 0 0
Fe 1.42809750 6.05890500 -3.0293471200000006 0 0 0
Fe 4.28429250 2.01963500 -3.0293471200000006 0 0 0
Fe 1.44489193 4.03927000 3.01475414
Fe 4.27258210 0.00000000 3.01788121
Fe 4.23139577 4.03927000 3.05540602
Fe 1.34429674 0.00000000 3.09423379
Fe 4.27932272 2.01721144 1.05095544
Fe 1.44055051 6.06310584 1.04444071
Fe 1.44055051 2.01543416 1.04444071
Fe 4.27932272 6.06132856 1.05095544
C 0.90415709 0.00000000 4.80343704
O 0.66360835 0.00008079 5.94924687
