&CONTROL
calculation = 'relax'
prefix = 'scf'
pseudo_dir = '/vol0004/mdt0/data/hp150275/u10028/POT_KKJUS'
outdir = './data'
tprnfor = .true.
nstep = 50
disk_io = 'non'
/
&SYSTEM
ibrav = 0
ecutwfc = 50.0
ecutrho = 400
occupations = 'smearing'
smearing = 'mp'
degauss = 0.01
assume_isolated = 'esm'
esm_bc = 'bc1'
input_dft = 'BEEF-VDW'
nosym = .true.
nspin = 1
ntyp = 4
nat = 34
/
&ELECTRONS
electron_maxstep = 200
mixing_beta = 0.1
conv_thr = 1e-06
/
&IONS
ion_dynamics = 'bfgs'
upscale = 1.0
/
&CELL
/

K_POINTS {automatic}
8 8 1 0 0 0

ATOMIC_SPECIES
C 12.01 C.pbe-n-rrkjus_psl.1.0.0.UPF
Mg 24.30 Mg.pbe-spnl-rrkjus_psl.1.0.0.UPF
O 15.99 O.pbe-n-rrkjus_psl.1.0.0.UPF
Pd 106.4 Pd.pbe-n-rrkjus_psl.1.0.0.UPF

CELL_PARAMETERS {angstrom}
8.03636000 0.00000000 0.00000000
-0.00000000 8.03636000 0.00000000
0.00000000 0.00000000 26.02730000

ATOMIC_POSITIONS {angstrom}
Mg 0.00000000 0.00000000 3.01370107
Mg 0.00000000 0.00000000 -1.0046537800000017 0 0 0
Mg 0.00000000 4.01818000 3.01370107
Mg 0.00000000 4.01818000 -1.0046537800000017 0 0 0
Mg 4.01818000 -0.00000000 3.01370107
Mg 4.01818000 0.00000000 -1.0046537800000017 0 0 0
Mg 4.01818000 4.01818000 3.01370107
Mg 4.01818000 4.01818000 -1.0046537800000017 0 0 0
Pd 0.00000000 2.00909000 1.00465378
Pd 2.00909000 -0.00000000 1.00465378
Pd 2.00909000 2.00909000 3.01370107
Pd 0.00000000 2.00909000 -3.0137010699999998 0 0 0
Pd 2.00909000 0.00000000 -3.0137010699999998 0 0 0
Pd 2.00909000 2.00909000 -1.0046537800000017 0 0 0
Pd 0.00000000 6.02727000 1.00465378
Pd 2.00909000 4.01818000 1.00465378
Pd 2.00909000 6.02727000 3.01370107
Pd 0.00000000 6.02727000 -3.0137010699999998 0 0 0
Pd 2.00909000 4.01818000 -3.0137010699999998 0 0 0
Pd 2.00909000 6.02727000 -1.0046537800000017 0 0 0
Pd 4.01818000 2.00909000 1.00465378
Pd 6.02727000 -0.00000000 1.00465378
Pd 6.02727000 2.00909000 3.01370107
Pd 4.01818000 2.00909000 -3.0137010699999998 0 0 0
Pd 6.02727000 0.00000000 -3.0137010699999998 0 0 0
Pd 6.02727000 2.00909000 -1.0046537800000017 0 0 0
Pd 4.01818000 6.02727000 1.00465378
Pd 6.02727000 4.01818000 1.00465378
Pd 6.02727000 6.02727000 3.01370107
Pd 4.01818000 6.02727000 -3.0137010699999998 0 0 0
Pd 6.02727000 4.01818000 -3.0137010699999998 0 0 0
Pd 6.02727000 6.02727000 -1.0046537800000017 0 0 0
C 0.00000000 0.00000000 4.91369397
O 0.00000000 0.00000000 6.06358008
