&CONTROL
calculation = 'relax'
prefix = 'scf'
pseudo_dir = '/vol0403/data/hp230205/u10028/POT_HYBRID_KKJUS_GBRV'
outdir = './data'
tprnfor = .true.
nstep = 50
disk_io = 'non'
/
&SYSTEM
ibrav = 0
ecutwfc = 50.0
ecutrho = 400
occupations = 'smearing'
smearing = 'mp'
degauss = 0.01
assume_isolated = 'esm'
esm_bc = 'bc1'
input_dft = 'BEEF-VDW'
nosym = .true.
nspin = 1
ntyp = 6
nat = 18
/
&ELECTRONS
electron_maxstep = 200
mixing_beta = 0.1
conv_thr = 1e-06
/
&IONS
ion_dynamics = 'bfgs'
upscale = 1.0
/
&CELL
/

K_POINTS {automatic}
9 9 2 0  0  0

ATOMIC_SPECIES
C 12.01 C.pbe-n-rrkjus_psl.1.0.0.UPF
Cu 63.54 Cu.pbe-dn-rrkjus_psl.1.0.0.UPF
Li 6.941 Li.pbe-sl-rrkjus_psl.1.0.0.UPF
O 15.99 O.pbe-n-rrkjus_psl.1.0.0.UPF
Pd 106.4 Pd.pbe-n-rrkjus_psl.1.0.0.UPF
Sb 121.7 Sb.pbe-n-rrkjus_psl.1.0.0.UPF


CELL_PARAMETERS {angstrom}
6.37250000 0.00000000 0.00000000
0.00000000 6.37250000 0.00000000
0.00000000 0.00000000 24.77940000

ATOMIC_POSITIONS {angstrom}
Li 1.59465440 1.59465440 0.79170183
Li 1.59312500 4.77937500 -2.3897253399999983 0 0 0
Li 4.77937500 1.59312500 -2.3897253399999983 0 0 0
Li 4.77790933 4.77784560 0.79170183
Cu 6.37230883 0.00006373 2.51733925
Cu 0.00000000 3.18625000 -0.7966577099999981 0 0 0
Cu 3.18625000 0.00000000 -0.7966577099999981 0 0 0
Cu 3.18637745 3.18637745 2.31117464
Sb 4.79970327 1.57279673 0.90320913
Sb 4.77937500 4.77937500 -2.3897253399999983 0 0 0
Sb 1.59312500 1.59312500 -2.3897253399999983 0 0 0
Sb 1.57279672 4.79970327 0.90345692
Pd 6.37243628 3.18625000 2.30919229
Pd 0.00000000 0.00000000 -0.7966577099999981 0 0 0
Pd 3.18625000 3.18625000 -0.7966577099999981 0 0 0
Pd 3.18631372 6.37243628 2.30919229
C 0.00000000 6.37243628 4.39908688
O 6.37243628 6.37243628 5.54364737
