&CONTROL
calculation = 'relax'
prefix = 'scf'
pseudo_dir = '/vol0004/mdt0/data/hp150275/u10028/POT_KKJUS'
outdir = './data'
tprnfor = .true.
nstep = 50
disk_io = 'non'
/
&SYSTEM
ibrav = 0
ecutwfc = 50.0
ecutrho = 400
occupations = 'smearing'
smearing = 'mp'
degauss = 0.01
assume_isolated = 'esm'
esm_bc = 'bc1'
input_dft = 'BEEF-VDW'
nosym = .true.
nspin = 1
ntyp = 4
nat = 34
/
&ELECTRONS
electron_maxstep = 200
mixing_beta = 0.1
conv_thr = 1e-06
/
&IONS
ion_dynamics = 'bfgs'
upscale = 1.0
/
&CELL
/

K_POINTS {automatic}
8 6 1 0 0 0

ATOMIC_SPECIES
Al 26.98 Al.pbe-nl-rrkjus_psl.1.0.0.UPF
C 12.01 C.pbe-n-rrkjus_psl.1.0.0.UPF
O 15.99 O.pbe-n-rrkjus_psl.1.0.0.UPF
Pd 106.4 Pd.pbe-n-rrkjus_psl.1.0.0.UPF

CELL_PARAMETERS {angstrom}
6.18271000 0.00000000 0.00000000
0.00000000 8.74368000 0.00000000
0.00000000 0.00000000 26.55780000

ATOMIC_POSITIONS {angstrom}
Al 0.00000000 0.00000000 -3.2788259900000014 0 0 0
Al 0.00000000 2.18592000 -1.0928534700000014 0 0 0
Al 0.02609104 0.00000000 1.14225098
Al 6.13825632 2.22614093 3.26156342
Al 0.00000000 4.37184000 -3.2788259900000014 0 0 0
Al 0.00000000 6.55776000 -1.0928534700000014 0 0 0
Al 0.01100522 4.37184000 1.10427332
Al 6.13825632 6.51753907 3.26156342
Al 3.09135500 0.00000000 -3.2788259900000014 0 0 0
Al 3.09135500 2.18592000 -1.0928534700000014 0 0 0
Al 3.06501666 0.00000000 1.14278213
Al 3.13617965 2.22517912 3.26315689
Al 3.09135500 4.37184000 -3.2788259900000014 0 0 0
Al 3.09135500 6.55776000 -1.0928534700000014 0 0 0
Al 3.08102987 4.37184000 1.10427332
Al 3.13617965 6.51850088 3.26315689
Pd 1.54567750 2.18592000 -3.2788259900000014 0 0 0
Pd 1.54567750 0.00000000 -1.0928534700000014 0 0 0
Pd 1.54604846 2.14202673 1.08515171
Pd 1.54462644 0.00000000 3.47455697
Pd 1.54567750 6.55776000 -3.2788259900000014 0 0 0
Pd 1.54567750 4.37184000 -1.0928534700000014 0 0 0
Pd 1.54604846 6.60165327 1.08515171
Pd 1.54654308 4.37184000 3.19410661
Pd 4.63703250 2.18592000 -3.2788259900000014 0 0 0
Pd 4.63703250 0.00000000 -1.0928534700000014 0 0 0
Pd 4.63703250 2.18408383 0.98821574
Pd 4.63622875 0.00000000 3.14550583
Pd 4.63703250 6.55776000 -3.2788259900000014 0 0 0
Pd 4.63703250 4.37184000 -1.0928534700000014 0 0 0
Pd 4.63703250 6.55959617 0.98821574
Pd 4.63721798 4.37184000 3.18613927
C 1.53423949 0.00000000 5.46798544
O 1.53120996 0.00000000 6.61501682
