&CONTROL
calculation = 'relax'
prefix = 'scf'
pseudo_dir = '/vol0403/data/hp230205/u10028/POT_HYBRID_KKJUS_GBRV'
outdir = './data'
tprnfor = .true.
nstep = 70
disk_io = 'non'
/
&SYSTEM
ibrav = 0
ecutwfc = 50.0
ecutrho = 400
occupations = 'smearing'
smearing = 'mp'
degauss = 0.01
assume_isolated = 'esm'
esm_bc = 'bc1'
input_dft = 'BEEF-VDW'
nosym = .true.
nspin = 1
ntyp = 4
nat = 32
/
&ELECTRONS
electron_maxstep = 200
mixing_beta = 0.1
conv_thr = 1e-06
/
&IONS
ion_dynamics = 'bfgs'
upscale = 1.0
/
&CELL
/

K_POINTS {automatic}
6 6 1 0 0 0

ATOMIC_SPECIES
Au 196.9 Au.pbe-n-rrkjus_psl.1.0.0.UPF
In 114.8 In.pbe-dn-rrkjus_psl.1.0.0.UPF
Li 6.941 Li.pbe-sl-rrkjus_psl.1.0.0.UPF
Pd 106.4 Pd.pbe-n-rrkjus_psl.1.0.0.UPF


CELL_PARAMETERS {angstrom}
7.53916000 0.00000000 0.00000000
-0.00000000 8.29976000 0.00000000
0.00000000 0.00000000 26.67340000

ATOMIC_POSITIONS {angstrom}
Li 1.88479000 2.07494000 3.33657561
Li 1.88479000 2.07494000 -1.1122807800000025 0 0 0
Li 1.88479000 6.22482000 3.33657561
Li 1.88479000 6.22482000 -1.1122807800000025 0 0 0
Li 5.65437000 2.07494000 3.33657561
Li 5.65437000 2.07494000 -1.1122807800000025 0 0 0
Li 5.65437000 6.22482000 3.33657561
Li 5.65437000 6.22482000 -1.1122807800000025 0 0 0
In 1.88479000 -0.00000000 1.11228078
In 1.88479000 0.00000000 -3.3365756100000006 0 0 0
In 1.88479000 4.14988000 1.11228078
In 1.88479000 4.14988000 -3.3365756100000006 0 0 0
In 5.65437000 -0.00000000 1.11228078
In 5.65437000 0.00000000 -3.3365756100000006 0 0 0
In 5.65437000 4.14988000 1.11228078
In 5.65437000 4.14988000 -3.3365756100000006 0 0 0
Pd 0.00000000 2.07494000 1.11228078
Pd 0.00000000 2.07494000 -3.3365756100000006 0 0 0
Pd 0.00000000 6.22482000 1.11228078
Pd 0.00000000 6.22482000 -3.3365756100000006 0 0 0
Pd 3.76958000 2.07494000 1.11228078
Pd 3.76958000 2.07494000 -3.3365756100000006 0 0 0
Pd 3.76958000 6.22482000 1.11228078
Pd 3.76958000 6.22482000 -3.3365756100000006 0 0 0
Au 0.00000000 0.00000000 3.33657561
Au 0.00000000 0.00000000 -1.1122807800000025 0 0 0
Au 0.00000000 4.14988000 3.33657561
Au 0.00000000 4.14988000 -1.1122807800000025 0 0 0
Au 3.76958000 -0.00000000 3.33657561
Au 3.76958000 0.00000000 -1.1122807800000025 0 0 0
Au 3.76958000 4.14988000 3.33657561
Au 3.76958000 4.14988000 -1.1122807800000025 0 0 0
