&CONTROL
calculation = 'relax'
prefix = 'scf'
pseudo_dir = '/vol0403/data/hp230205/u10028/POT_HYBRID_KKJUS_GBRV'
outdir = './data'
tprnfor = .true.
nstep = 50
disk_io = 'non'
/
&SYSTEM
ibrav = 0
ecutwfc = 50.0
ecutrho = 400
occupations = 'smearing'
smearing = 'mp'
degauss = 0.01
assume_isolated = 'esm'
esm_bc = 'bc1'
input_dft = 'BEEF-VDW'
nosym = .true.
nspin = 1
ntyp = 5
nat = 33
/
&ELECTRONS
electron_maxstep = 200
mixing_beta = 0.1
conv_thr = 1e-06
/
&IONS
ion_dynamics = 'bfgs'
upscale = 1.0
/
&CELL
/

K_POINTS {automatic}
6 6 1 0 0 0

ATOMIC_SPECIES
C 12.01 C.pbe-n-rrkjus_psl.1.0.0.UPF
Ga 69.72 Ga.pbe-dnl-rrkjus_psl.1.0.0.UPF
Pd 106.4 Pd.pbe-n-rrkjus_psl.1.0.0.UPF
Sc 44.95 Sc.pbe-spn-rrkjus_psl.1.0.0.UPF
Y 88.90 Y.pbe-spn-rrkjus_psl.1.0.0.UPF


CELL_PARAMETERS {angstrom}
9.85606000 0.00000000 0.00000000
0.00000000 7.06732000 0.00000000
0.00000000 0.00000000 27.11150000

ATOMIC_POSITIONS {angstrom}
Y 2.46411356 2.12493110 3.82001035
Y 2.46401500 1.76683000 -1.1853147799999988 0 0 0
Y 2.46411356 4.94238890 3.81919700
Y 2.46401500 5.30049000 -1.1853147799999988 0 0 0
Y 7.39204500 1.68640390 3.63782107
Y 7.39204500 1.76683000 -1.1853147799999988 0 0 0
Y 7.39204500 5.38091610 3.63782107
Y 7.39204500 5.30049000 -1.1853147799999988 0 0 0
Sc 0.03784727 1.77375597 1.19643049
Sc 0.00000000 1.76683000 -3.55567323 0 0 0
Sc 0.03774871 5.29363470 1.19615938
Sc 0.00000000 5.30049000 -3.55567323 0 0 0
Sc 4.89037985 1.77368530 1.19643049
Sc 4.92803000 1.76683000 -3.55567323 0 0 0
Sc 4.89047841 5.29363470 1.19615938
Sc 4.92803000 5.30049000 -3.55567323 0 0 0
Ga 0.28040491 0.00000000 3.63754996
Ga 0.00000000 0.00000000 -1.1853147799999988 0 0 0
Ga 9.68899978 3.53358933 3.57600685
Ga 0.00000000 3.53366000 -1.1853147799999988 0 0 0
Ga 4.64801934 0.00000000 3.63754996
Ga 4.92803000 0.00000000 -1.1853147799999988 0 0 0
Ga 5.09528734 3.53373067 3.57600685
Ga 4.92803000 3.53366000 -1.1853147799999988 0 0 0
Pd 2.46401500 0.00028269 1.59578289
Pd 2.46401500 0.00000000 -3.55567323 0 0 0
Pd 2.46421212 3.53344798 1.12783840
Pd 2.46401500 3.53366000 -3.55567323 0 0 0
Pd 7.39214356 0.00000000 1.14220750
Pd 7.39204500 0.00000000 -3.55567323 0 0 0
Pd 7.39234068 3.53366000 1.39868228
Pd 7.39204500 3.53366000 -3.55567323 0 0 0
C 2.46450780 0.00007067 3.90758049
