&CONTROL
calculation = 'relax'
prefix = 'scf'
pseudo_dir = '/vol0004/mdt0/data/hp150275/u10028/POT_KKJUS'
outdir = './data'
tprnfor = .true.
nstep = 50
disk_io = 'non'
/
&SYSTEM
ibrav = 0
ecutwfc = 50.0
ecutrho = 400
occupations = 'smearing'
smearing = 'mp'
degauss = 0.01
assume_isolated = 'esm'
esm_bc = 'bc1'
input_dft = 'BEEF-VDW'
nosym = .true.
nspin = 1
ntyp = 5
nat = 34
/
&ELECTRONS
electron_maxstep = 200
mixing_beta = 0.1
conv_thr = 1e-06
/
&IONS
ion_dynamics = 'bfgs'
upscale = 1.0
/
&CELL
/

K_POINTS {automatic}
8 6 1 0 0 0

ATOMIC_SPECIES
Ag 107.8 Ag.pbe-n-rrkjus_psl.1.0.0.UPF
C 12.01 C.pbe-n-rrkjus_psl.1.0.0.UPF
Li 6.941 Li.pbe-sl-rrkjus_psl.1.0.0.UPF
O 15.99 O.pbe-n-rrkjus_psl.1.0.0.UPF
Sn 118.7 Sn.pbe-dn-rrkjus_psl.1.0.0.UPF

CELL_PARAMETERS {angstrom}
6.65960000 0.00000000 0.00000000
0.00000000 9.41809000 0.00000000
0.00000000 0.00000000 27.06360000

ATOMIC_POSITIONS {angstrom}
Li 0.00000000 7.06356750 -1.1772665999999994 0 0 0
Li 3.32980000 0.00000000 -3.5317998000000017 0 0 0
Li 0.00000000 2.35452250 -1.1772665999999994 0 0 0
Li 3.32980000 4.70904500 -3.5317998000000017 0 0 0
Li 1.66490000 0.00000000 -1.1772665999999994 0 0 0
Li 1.66490000 4.70904500 -1.1772665999999994 0 0 0
Li 4.99470000 7.06356750 -3.5317998000000017 0 0 0
Li 4.99470000 2.35452250 -3.5317998000000017 0 0 0
Li 6.57282541 2.38946361 3.39918816
Li 3.24076115 4.70904500 1.06116376
Li 6.57282541 7.02862639 3.39918816
Li 3.31821230 0.00000000 1.13748311
Li 1.77251914 4.70904500 3.60297707
Li 1.77758043 0.00000000 3.54343715
Li 4.89473940 2.35273306 1.26278758
Li 4.89467281 7.06526276 1.26278758
Ag 1.66490000 2.35452250 -3.5317998000000017 0 0 0
Ag 1.66490000 7.06356750 -3.5317998000000017 0 0 0
Ag 4.99470000 4.70904500 -1.1772665999999994 0 0 0
Ag 4.99470000 0.00000000 -1.1772665999999994 0 0 0
Ag 1.71957532 7.08664182 1.22056836
Ag 1.71964191 2.33144818 1.22056836
Ag 4.82621212 0.00000000 3.43734784
Ag 4.77666470 4.70904500 3.28497977
Sn 0.00000000 0.00000000 -3.5317998000000017 0 0 0
Sn 3.32980000 2.35452250 -1.1772665999999994 0 0 0
Sn 3.32980000 7.06356750 -1.1772665999999994 0 0 0
Sn 0.00000000 4.70904500 -3.5317998000000017 0 0 0
Sn 0.03889206 4.70904500 1.22354536
Sn 3.23316920 7.05047635 3.71231401
Sn 3.23316920 2.36751946 3.71231401
Sn 0.00372938 0.00000000 1.21975645
C 5.63462096 0.00009418 5.65006777
O 5.31622549 0.00009418 6.75047375
