&CONTROL
calculation = 'relax'
prefix = 'scf'
pseudo_dir = '/vol0403/data/hp230205/u10028/POT_HYBRID_KKJUS_GBRV'
outdir = './data'
tprnfor = .true.
nstep = 70
disk_io = 'non'
/
&SYSTEM
ibrav = 0
ecutwfc = 50.0
ecutrho = 400
occupations = 'smearing'
smearing = 'mp'
degauss = 0.01
assume_isolated = 'esm'
esm_bc = 'bc1'
input_dft = 'BEEF-VDW'
nosym = .true.
nspin = 1
ntyp = 5
nat = 33
/
&ELECTRONS
electron_maxstep = 200
mixing_beta = 0.1
conv_thr = 1e-06
/
&IONS
ion_dynamics = 'bfgs'
upscale = 1.0
/
&CELL
/

K_POINTS {automatic}
9 6 2 0  0  0

ATOMIC_SPECIES
C 12.01 C.pbe-n-rrkjus_psl.1.0.0.UPF
Cu 63.54 Cu.pbe-dn-rrkjus_psl.1.0.0.UPF
Ge 72.64 Ge.pbe-dn-rrkjus_psl.1.0.0.UPF
Pd 106.4 Pd.pbe-n-rrkjus_psl.1.0.0.UPF
Y 88.90 Y.pbe-spn-rrkjus_psl.1.0.0.UPF


CELL_PARAMETERS {angstrom}
6.58158000 0.00000000 0.00000000
-0.00000000 9.30776000 0.00000000
0.00000000 0.00000000 26.98080000

ATOMIC_POSITIONS {angstrom}
Y 4.93618500 0.00000000 -1.1634120999999986 0 0 0
Y 4.93618500 4.65388000 -1.1634120999999986 0 0 0
Y 1.64539500 2.32694000 -3.4905060999999975 0 0 0
Y 1.64539500 6.98082000 -3.4905060999999975 0 0 0
Y 4.57321086 4.56229164 3.45003490
Y 4.94224005 9.19104069 3.82048128
Y 1.78492450 6.87731771 1.26270144
Y 1.60531318 1.79565306 1.28617474
Cu 0.00000000 0.00000000 -3.4905060999999975 0 0 0
Cu 0.00000000 4.65388000 -3.4905060999999975 0 0 0
Cu 3.29079000 6.98082000 -1.1634120999999986 0 0 0
Cu 3.29079000 2.32694000 -1.1634120999999986 0 0 0
Cu 0.16960732 4.36589791 1.22250005
Cu 6.31134033 8.73272659 1.25109970
Cu 2.65882669 2.31623608 4.11592104
Cu 2.44183200 6.77940007 4.12347566
Ge 1.64539500 0.00000000 -1.1634120999999986 0 0 0
Ge 1.64539500 4.65388000 -1.1634120999999986 0 0 0
Ge 4.93618500 2.32694000 -3.4905060999999975 0 0 0
Ge 4.93618500 6.98082000 -3.4905060999999975 0 0 0
Ge 1.53521935 4.51714901 3.45192355
Ge 2.05858659 9.20323386 3.72928618
Ge 4.93940997 6.66714849 1.14047842
Ge 4.89465523 2.30720755 1.15073112
Pd 0.00000000 2.32694000 -1.1634120999999986 0 0 0
Pd 0.00000000 6.98082000 -1.1634120999999986 0 0 0
Pd 3.29079000 4.65388000 -3.4905060999999975 0 0 0
Pd 3.29079000 0.00000000 -3.4905060999999975 0 0 0
Pd 6.39341263 6.67580470 3.35937941
Pd 6.48897717 2.46404330 3.47027050
Pd 3.63211074 9.09908002 1.31315554
Pd 3.06892494 4.26341947 1.06034544
C 0.37607148 0.33331089 2.87588347
