&CONTROL
calculation = 'relax'
prefix = 'scf'
pseudo_dir = '/vol0403/data/hp230205/u10028/POT_HYBRID_KKJUS_GBRV'
outdir = './data'
tprnfor = .true.
nstep = 50
disk_io = 'non'
/
&SYSTEM
ibrav = 0
ecutwfc = 50.0
ecutrho = 400
occupations = 'smearing'
smearing = 'mp'
degauss = 0.01
assume_isolated = 'esm'
esm_bc = 'bc1'
input_dft = 'BEEF-VDW'
nosym = .true.
nspin = 1
ntyp = 5
nat = 17
/
&ELECTRONS
electron_maxstep = 200
mixing_beta = 0.1
conv_thr = 1e-06
/
&IONS
ion_dynamics = 'bfgs'
upscale = 1.0
/
&CELL
/

K_POINTS {automatic}
6 6 1 0 0 0

ATOMIC_SPECIES
C 12.01 C.pbe-n-rrkjus_psl.1.0.0.UPF
Ge 72.64 Ge.pbe-dn-rrkjus_psl.1.0.0.UPF
In 114.8 In.pbe-dn-rrkjus_psl.1.0.0.UPF
Li 6.941 Li.pbe-sl-rrkjus_psl.1.0.0.UPF
Y 88.90 Y.pbe-spn-rrkjus_psl.1.0.0.UPF


CELL_PARAMETERS {angstrom}
6.30439000 0.00000000 0.00000000
0.00000000 8.57642000 0.00000000
0.00000000 0.00000000 24.70800000

ATOMIC_POSITIONS {angstrom}
Li 4.58259805 2.14410500 -0.7847260799999987 0 0 0
Li 0.95681727 1.38157550 2.46215220
Li 4.58259805 6.43231500 -0.7847260799999987 0 0 0
Li 0.95681727 7.19484450 2.46215220
Y 1.43040305 2.14410500 -0.7847260799999987 0 0 0
Y 4.25943502 1.84607441 2.36529684
Y 1.43040305 6.43231500 -0.7847260799999987 0 0 0
Y 4.25943502 6.73034560 2.36529684
In 3.15219500 0.00000000 -2.3539311599999984 0 0 0
In 5.80388448 0.00000000 0.43016628
In 3.15219500 4.28821000 -2.3539311599999984 0 0 0
In 5.90532211 4.28821000 0.81363444
Ge 0.00000000 0.00000000 -2.3539311599999984 0 0 0
Ge 2.70319634 0.00000000 0.77854908
Ge 0.00000000 4.28821000 -2.3539311599999984 0 0 0
Ge 2.73673570 4.28821000 1.13088516
C 5.59527221 0.00000000 2.75642448
