&CONTROL
calculation = 'relax'
prefix = 'scf'
pseudo_dir = '/vol0004/mdt0/data/hp150275/u10028/POT_KKJUS'
outdir = './data'
tprnfor = .true.
nstep = 50
disk_io = 'non'
/
&SYSTEM
ibrav = 0
ecutwfc = 50.0
ecutrho = 400
occupations = 'smearing'
smearing = 'mp'
degauss = 0.01
assume_isolated = 'esm'
esm_bc = 'bc1'
input_dft = 'BEEF-VDW'
nosym = .true.
nspin = 1
ntyp = 5
nat = 34
/
&ELECTRONS
electron_maxstep = 200
mixing_beta = 0.1
conv_thr = 1e-06
/
&IONS
ion_dynamics = 'bfgs'
upscale = 1.0
/
&CELL
/

K_POINTS {automatic}
8 6 1 0 0 0

ATOMIC_SPECIES
C 12.01 C.pbe-n-rrkjus_psl.1.0.0.UPF
Ni 58.69 Ni.pbe-spn-rrkjus_psl.1.0.0.UPF
O 15.99 O.pbe-n-rrkjus_psl.1.0.0.UPF
Sc 44.95 Sc.pbe-spn-rrkjus_psl.1.0.0.UPF
Sn 118.7 Sn.pbe-dn-rrkjus_psl.1.0.0.UPF

CELL_PARAMETERS {angstrom}
6.31539000 0.00000000 0.00000000
0.00000000 8.93131000 0.00000000
0.00000000 0.00000000 26.69850000

ATOMIC_POSITIONS {angstrom}
Sc 0.00000000 0.00000000 -3.349326819999998 0 0 0
Sc 3.15769500 2.23282750 -1.1165312699999994 0 0 0
Sc 3.15769500 6.69848250 -1.1165312699999994 0 0 0
Sc 0.00000000 4.46565500 -3.349326819999998 0 0 0
Sc 0.00000000 4.47583669 1.08609498
Sc 3.15769500 6.69848250 3.40592764
Sc 3.15769500 2.23273819 3.39978699
Sc 0.00000000 8.92103899 1.08636196
Ni 1.57884750 0.00000000 -1.1165312699999994 0 0 0
Ni 4.73654250 4.46565500 -1.1165312699999994 0 0 0
Ni 4.73654250 0.00000000 -1.1165312699999994 0 0 0
Ni 1.57884750 4.46565500 -1.1165312699999994 0 0 0
Ni 4.73654250 6.69848250 -3.349326819999998 0 0 0
Ni 1.57884750 2.23282750 -3.349326819999998 0 0 0
Ni 1.57884750 6.69848250 -3.349326819999998 0 0 0
Ni 4.73654250 2.23282750 -3.349326819999998 0 0 0
Ni 1.48083265 4.47744433 3.18433009
Ni 4.83537835 8.91952067 3.18459708
Ni 4.83436789 4.47744433 3.18433009
Ni 1.48013795 8.91960998 3.18486406
Ni 4.70850217 2.23273819 1.15657902
Ni 1.64793787 6.69839319 1.20330139
Ni 1.60701414 2.23291681 1.15657902
Ni 4.66757844 6.69839319 1.20330139
Sn 0.00000000 6.69848250 -1.1165312699999994 0 0 0
Sn 3.15769500 0.00000000 -3.349326819999998 0 0 0
Sn 0.00000000 2.23282750 -1.1165312699999994 0 0 0
Sn 3.15769500 4.46565500 -3.349326819999998 0 0 0
Sn 0.00006315 2.23264887 3.42114579
Sn 3.15769500 4.45788476 1.12640971
Sn 0.00000000 6.69839319 3.45131509
Sn 3.15769500 0.00768093 1.12640971
C 3.15769500 2.23282750 5.75432770
O 3.15769500 2.23291681 6.89809144
