&CONTROL
calculation = 'relax'
prefix = 'scf'
pseudo_dir = '/vol0403/data/hp230205/u10028/POT_HYBRID_KKJUS_GBRV'
outdir = './data'
tprnfor = .true.
nstep = 70
disk_io = 'non'
/
&SYSTEM
ibrav = 0
ecutwfc = 50.0
ecutrho = 400
occupations = 'smearing'
smearing = 'mp'
degauss = 0.01
assume_isolated = 'esm'
esm_bc = 'bc1'
input_dft = 'BEEF-VDW'
nosym = .true.
nspin = 1
ntyp = 5
nat = 17
/
&ELECTRONS
electron_maxstep = 200
mixing_beta = 0.1
conv_thr = 1e-06
/
&IONS
ion_dynamics = 'bfgs'
upscale = 1.0
/
&CELL
/

K_POINTS {automatic}
6 6 1 0 0 0

ATOMIC_SPECIES
Al 26.98 Al.pbe-nl-rrkjus_psl.1.0.0.UPF
C 12.01 C.pbe-n-rrkjus_psl.1.0.0.UPF
In 114.8 In.pbe-dn-rrkjus_psl.1.0.0.UPF
Pd 106.4 Pd.pbe-n-rrkjus_psl.1.0.0.UPF
Y 88.90 Y.pbe-spn-rrkjus_psl.1.0.0.UPF


CELL_PARAMETERS {angstrom}
6.02485000 0.00000000 0.00000000
-0.00000000 9.21652000 0.00000000
0.00000000 0.00000000 24.50330000

ATOMIC_POSITIONS {angstrom}
Y 1.42963666 2.30413000 0.60547654
Y 4.14618127 2.30413000 -2.2516082399999995 0 0 0
Y 0.97313377 6.91239000 1.01027106
Y 4.14618127 6.91239000 -2.2516082399999995 0 0 0
Al 5.92815116 0.41124112 2.48806508
Al 2.76414093 0.00000000 -0.7505360799999998 0 0 0
Al 5.92821141 4.19701888 2.48831011
Al 2.76414093 4.60826000 -0.7505360799999998 0 0 0
In 3.16382948 9.08601408 2.19402548
In 5.77656593 0.00000000 -0.7505360799999998 0 0 0
In 3.16388973 4.73885809 2.19402548
In 5.77656593 4.60826000 -0.7505360799999998 0 0 0
Pd 4.31782925 2.30403783 0.71598643
Pd 1.13375627 2.30413000 -2.2516082399999995 0 0 0
Pd 3.90609100 6.91239000 0.40528458
Pd 1.13375627 6.91239000 -2.2516082399999995 0 0 0
C 5.98418226 2.30413000 2.41259492
