&CONTROL
calculation = 'relax'
prefix = 'scf'
pseudo_dir = '/vol0004/mdt0/data/hp150275/u10028/POT_HYBRID_KKJUS_GBRV'
outdir = './data'
tprnfor = .true.
nstep = 50
disk_io = 'non'
/
&SYSTEM
ibrav = 0
ecutwfc = 50.0
ecutrho = 400
occupations = 'smearing'
smearing = 'mp'
degauss = 0.01
assume_isolated = 'esm'
esm_bc = 'bc1'
input_dft = 'BEEF-VDW'
nosym = .true.
nspin = 2
ntyp = 3
nat = 16
starting_magnetization(1) = 0.1
starting_magnetization(2) = 0.1
starting_magnetization(3) = 0.1
/
&ELECTRONS
electron_maxstep = 200
mixing_beta = 0.1
conv_thr = 1e-06
/
&IONS
ion_dynamics = 'bfgs'
upscale = 1.0
/
&CELL
/

K_POINTS {automatic}
10 10 2 0  0  0

ATOMIC_SPECIES
Ga 69.72 Ga.pbe-dnl-rrkjus_psl.1.0.0.UPF
Ni 58.69 ni_pbe_v1.4.uspp.F.UPF
V 50.94 V.pbe-spnl-rrkjus_psl.1.0.0.UPF

CELL_PARAMETERS {angstrom}
5.82350000 0.00000000 0.00000000
-0.00000000 5.82350000 0.00000000
0.00000000 0.00000000 24.36760000

ATOMIC_POSITIONS {angstrom}
V 0.00000000 0.00000000 -2.1838243099999985 0 0 0
V 2.91175000 2.91175000 -2.1838243099999985 0 0 0
V 2.91175000 -0.00000000 0.72786021
V 0.00000000 2.91175000 0.72786021
Ga 0.00000000 0.00000000 0.72786021
Ga 2.91175000 0.00000000 -2.1838243099999985 0 0 0
Ga 0.00000000 2.91175000 -2.1838243099999985 0 0 0
Ga 2.91175000 2.91175000 0.72786021
Ni 1.45587500 1.45587500 -0.7278602099999993 0 0 0
Ni 4.36762500 4.36762500 2.18382431
Ni 4.36762500 1.45587500 -0.7278602099999993 0 0 0
Ni 1.45587500 4.36762500 2.18382431
Ni 4.36762500 4.36762500 -0.7278602099999993 0 0 0
Ni 1.45587500 1.45587500 2.18382431
Ni 1.45587500 4.36762500 -0.7278602099999993 0 0 0
Ni 4.36762500 1.45587500 2.18382431
