&CONTROL
calculation = 'relax'
prefix = 'scf'
pseudo_dir = '/vol0004/mdt0/data/hp150275/u10028/POT_KKJUS'
outdir = './data'
tprnfor = .true.
nstep = 50
disk_io = 'non'
/
&SYSTEM
ibrav = 0
ecutwfc = 50.0
ecutrho = 400
occupations = 'smearing'
smearing = 'mp'
degauss = 0.01
assume_isolated = 'esm'
esm_bc = 'bc1'
input_dft = 'BEEF-VDW'
nosym = .true.
nspin = 1
ntyp = 4
nat = 33
/
&ELECTRONS
electron_maxstep = 200
mixing_beta = 0.1
conv_thr = 1e-06
/
&IONS
ion_dynamics = 'bfgs'
upscale = 1.0
/
&CELL
/

K_POINTS {automatic}
8 6 1 0 0 0

ATOMIC_SPECIES
C 12.01 C.pbe-n-rrkjus_psl.1.0.0.UPF
In 114.8 In.pbe-dn-rrkjus_psl.1.0.0.UPF
Li 6.941 Li.pbe-sl-rrkjus_psl.1.0.0.UPF
Rh 102.9 Rh.pbe-spn-rrkjus_psl.1.0.0.UPF

CELL_PARAMETERS {angstrom}
6.34973000 0.00000000 0.00000000
0.00000000 8.97987000 0.00000000
0.00000000 0.00000000 26.73490000

ATOMIC_POSITIONS {angstrom}
Li 0.00000000 6.73490250 -1.1225984499999981 0 0 0
Li 3.17486500 0.00000000 -3.367528 0 0 0
Li 0.00000000 2.24496750 -1.1225984499999981 0 0 0
Li 3.17486500 4.48993500 -3.367528 0 0 0
Li 1.58743250 2.24496750 -3.367528 0 0 0
Li 1.58743250 6.73490250 -3.367528 0 0 0
Li 4.76229750 4.48993500 -1.1225984499999981 0 0 0
Li 4.76229750 0.00000000 -1.1225984499999981 0 0 0
Li 0.16242609 2.24496750 3.73994516
Li 3.17359505 4.48077553 1.19077245
Li 6.14958651 6.73490250 3.40682831
Li 3.17359505 0.00915947 1.19077245
Li 1.61657776 6.73490250 1.14532312
Li 1.55295347 2.24496750 0.97074422
Li 4.62628628 0.10362770 3.66883033
Li 4.62628628 4.38630730 3.66883033
In 1.58743250 0.00000000 -1.1225984499999981 0 0 0
In 1.58743250 4.48993500 -1.1225984499999981 0 0 0
In 4.76229750 6.73490250 -3.367528 0 0 0
In 4.76229750 2.24496750 -3.367528 0 0 0
In 1.60337032 4.65040528 3.54772123
In 1.60337032 8.81939972 3.54772123
In 4.84166913 2.24496750 1.14746191
In 4.83360497 6.73490250 1.03517533
Rh 0.00000000 0.00000000 -3.367528 0 0 0
Rh 3.17486500 2.24496750 -1.1225984499999981 0 0 0
Rh 3.17486500 6.73490250 -1.1225984499999981 0 0 0
Rh 0.00000000 4.48993500 -3.367528 0 0 0
Rh 0.07619676 4.49020440 1.25199537
Rh 3.24744241 6.73490250 3.17530407
Rh 2.84867937 2.24496750 3.20711860
Rh 0.07619676 8.97960060 1.25199537
C 4.50938775 2.24496750 3.80704976
