&CONTROL
calculation = 'relax'
prefix = 'scf'
pseudo_dir = '/vol0004/mdt0/data/hp150275/u10028/POT_KKJUS'
outdir = './data'
tprnfor = .true.
nstep = 50
disk_io = 'non'
/
&SYSTEM
ibrav = 0
ecutwfc = 50.0
ecutrho = 400
occupations = 'smearing'
smearing = 'mp'
degauss = 0.01
assume_isolated = 'esm'
esm_bc = 'bc1'
input_dft = 'BEEF-VDW'
nosym = .true.
nspin = 1
ntyp = 4
nat = 34
/
&ELECTRONS
electron_maxstep = 200
mixing_beta = 0.1
conv_thr = 1e-06
/
&IONS
ion_dynamics = 'bfgs'
upscale = 1.0
/
&CELL
/

K_POINTS {automatic}
8 6 1 0 0 0

ATOMIC_SPECIES
C 12.01 C.pbe-n-rrkjus_psl.1.0.0.UPF
O 15.99 O.pbe-n-rrkjus_psl.1.0.0.UPF
Pt 195.0 Pt.pbe-n-rrkjus_psl.1.0.0.UPF
Sc 44.95 Sc.pbe-spn-rrkjus_psl.1.0.0.UPF

CELL_PARAMETERS {angstrom}
6.65024000 0.00000000 0.00000000
0.00000000 9.40485000 0.00000000
0.00000000 0.00000000 27.05360000

ATOMIC_POSITIONS {angstrom}
Sc 1.66256000 2.35121250 -3.526707299999998 0 0 0
Sc 1.66256000 0.00000000 -1.1754789199999998 0 0 0
Sc 1.67898609 2.35121250 1.14815478
Sc 1.69873731 9.37042825 3.50344120
Sc 1.66256000 7.05363750 -3.526707299999998 0 0 0
Sc 1.66256000 4.70242500 -1.1754789199999998 0 0 0
Sc 1.64074721 7.05363750 1.14301460
Sc 1.69873731 4.73684675 3.50344120
Sc 4.98768000 2.35121250 -3.526707299999998 0 0 0
Sc 4.98768000 0.00000000 -1.1754789199999998 0 0 0
Sc 4.97125391 2.35121250 1.14815478
Sc 4.95150269 9.37042825 3.50344120
Sc 4.98768000 7.05363750 -3.526707299999998 0 0 0
Sc 4.98768000 4.70242500 -1.1754789199999998 0 0 0
Sc 5.00942628 7.05363750 1.14301460
Sc 4.95150269 4.73684675 3.50344120
Pt 0.00000000 0.00000000 -3.526707299999998 0 0 0
Pt 0.00000000 2.35121250 -1.1754789199999998 0 0 0
Pt 0.00000000 0.11060104 1.28477546
Pt 0.00000000 2.35121250 3.54483321
Pt 0.00000000 4.70242500 -3.526707299999998 0 0 0
Pt 0.00000000 7.05363750 -1.1754789199999998 0 0 0
Pt 0.00000000 4.59182396 1.28477546
Pt 0.00000000 7.05363750 3.30811421
Pt 3.32512000 0.00000000 -3.526707299999998 0 0 0
Pt 3.32512000 2.35121250 -1.1754789199999998 0 0 0
Pt 3.32512000 9.36723060 1.15329497
Pt 3.32512000 2.35121250 3.27050970
Pt 3.32512000 4.70242500 -3.526707299999998 0 0 0
Pt 3.32512000 7.05363750 -1.1754789199999998 0 0 0
Pt 3.32512000 4.74004440 1.15329497
Pt 3.32512000 7.05363750 3.26536952
C 0.00000000 2.35121250 5.45644058
O 0.00000000 2.35121250 6.62136860
