&CONTROL
calculation = 'relax'
prefix = 'scf'
pseudo_dir = '/vol0004/mdt0/data/hp150275/u10028/POT_HYBRID_KKJUS_GBRV'
outdir = './data'
tprnfor = .true.
nstep = 50
disk_io = 'non'
/
&SYSTEM
ibrav = 0
ecutwfc = 50.0
ecutrho = 400
occupations = 'smearing'
smearing = 'mp'
degauss = 0.01
assume_isolated = 'esm'
esm_bc = 'bc1'
input_dft = 'BEEF-VDW'
nosym = .true.
nspin = 2
ntyp = 4
nat = 33
starting_magnetization(1) = 0.0
starting_magnetization(2) = 0.0
starting_magnetization(3) = 0.0
starting_magnetization(4) = 0.001
/
&ELECTRONS
electron_maxstep = 300
mixing_beta = 0.1
conv_thr = 1e-06
/
&IONS
ion_dynamics = 'bfgs'
upscale = 1.0
/
&CELL
/

K_POINTS {automatic}
9 6 2 0  0  0

ATOMIC_SPECIES
C 12.01 C.pbe-n-rrkjus_psl.1.0.0.UPF
In 114.8 In.pbe-dn-rrkjus_psl.1.0.0.UPF
Mg 24.30 Mg.pbe-spnl-rrkjus_psl.1.0.0.UPF
Ni 58.69 ni_pbe_v1.4.uspp.F.UPF

CELL_PARAMETERS {angstrom}
6.23499000 0.00000000 0.00000000
0.00000000 8.81761000 0.00000000
0.00000000 0.00000000 26.61320000

ATOMIC_POSITIONS {angstrom}
Mg 0.00000000 0.00000000 -3.306690100000001 0 0 0
Mg 3.11749500 2.20440250 -1.1023187399999976 0 0 0
Mg 3.11749500 6.61320750 -1.1023187399999976 0 0 0
Mg 0.00000000 4.40880500 -3.306690100000001 0 0 0
Mg 0.00000000 4.40889318 1.01689037
Mg 3.11749500 6.55218964 3.46636930
Mg 3.11749500 2.26542036 3.46636930
Mg 0.00000000 8.81752182 1.05734244
In 0.00000000 6.61320750 -1.1023187399999976 0 0 0
In 3.11749500 0.00000000 -3.306690100000001 0 0 0
In 0.00000000 2.20440250 -1.1023187399999976 0 0 0
In 3.11749500 4.40880500 -3.306690100000001 0 0 0
In 0.00000000 2.26004162 3.50602297
In 3.11749500 4.40880500 1.07703620
In 0.00000000 6.55756838 3.50602297
In 3.11749500 0.00000000 1.09140733
Ni 1.55874750 0.00000000 -1.1023187399999976 0 0 0
Ni 4.67624250 4.40880500 -1.1023187399999976 0 0 0
Ni 4.67624250 0.00000000 -1.1023187399999976 0 0 0
Ni 1.55874750 4.40880500 -1.1023187399999976 0 0 0
Ni 4.67624250 6.61320750 -3.306690100000001 0 0 0
Ni 1.55874750 2.20440250 -3.306690100000001 0 0 0
Ni 1.55874750 6.61320750 -3.306690100000001 0 0 0
Ni 4.67624250 2.20440250 -3.306690100000001 0 0 0
Ni 1.46815310 4.40880500 3.09777648
Ni 4.86379100 0.00000000 3.29231897
Ni 4.76683690 4.40880500 3.09777648
Ni 1.37119900 0.00000000 3.29231897
Ni 4.69688032 2.20510791 1.13931109
Ni 1.53804733 6.61250209 1.13904496
Ni 1.53810968 2.20510791 1.13931109
Ni 4.69694267 6.61250209 1.13904496
C 3.11749500 0.00000000 3.62391944
