&CONTROL
calculation = 'relax'
prefix = 'scf'
pseudo_dir = '/vol0004/mdt0/data/hp150275/u10028/POT_KKJUS'
outdir = './data'
tprnfor = .true.
nstep = 50
disk_io = 'non'
/
&SYSTEM
ibrav = 0
ecutwfc = 50.0
ecutrho = 400
occupations = 'smearing'
smearing = 'mp'
degauss = 0.01
assume_isolated = 'esm'
esm_bc = 'bc1'
input_dft = 'BEEF-VDW'
nosym = .true.
nspin = 1
ntyp = 3
nat = 17
/
&ELECTRONS
electron_maxstep = 200
mixing_beta = 0.1
conv_thr = 1e-06
/
&IONS
ion_dynamics = 'bfgs'
upscale = 1.0
/
&CELL
/

K_POINTS {automatic}
8 11 2 0  0  0

ATOMIC_SPECIES
C 12.01 C.pbe-n-rrkjus_psl.1.0.0.UPF
Rh 102.9 Rh.pbe-spn-rrkjus_psl.1.0.0.UPF
Sc 44.95 Sc.pbe-spn-rrkjus_psl.1.0.0.UPF

CELL_PARAMETERS {angstrom}
7.89001000 0.00000000 0.00000000
0.00000000 5.57908000 0.00000000
0.00000000 0.00000000 24.18430000

ATOMIC_POSITIONS {angstrom}
Sc 7.77008185 5.57483990 1.90523915
Sc 0.00000000 2.78954000 -0.6974752100000003 0 0 0
Sc 4.06493315 5.57483990 1.90523915
Sc 3.94500500 2.78954000 -0.6974752100000003 0 0 0
Rh 0.00560191 2.78580202 2.08589587
Rh 1.97250250 4.20478522 0.66023139
Rh 1.97250250 1.36804621 0.65757112
Rh 0.00000000 0.00000000 -0.6974752100000003 0 0 0
Rh 1.97250250 1.39477000 -2.09218379 0 0 0
Rh 1.97250250 4.18431000 -2.09218379 0 0 0
Rh 3.93940309 2.78574623 2.08589587
Rh 5.91750750 4.15133764 0.67208170
Rh 5.91750750 1.42272119 0.67183985
Rh 3.94500500 0.00000000 -0.6974752100000003 0 0 0
Rh 5.91750750 1.39477000 -2.09218379 0 0 0
Rh 5.91750750 4.18431000 -2.09218379 0 0 0
C 1.97250250 2.78345880 2.04454072
