&CONTROL
calculation = 'relax'
prefix = 'scf'
pseudo_dir = '/vol0403/data/hp230205/u10028/POT_HYBRID_KKJUS_GBRV'
outdir = './data'
tprnfor = .true.
nstep = 50
disk_io = 'non'
/
&SYSTEM
ibrav = 0
ecutwfc = 50.0
ecutrho = 400
occupations = 'smearing'
smearing = 'mp'
degauss = 0.01
assume_isolated = 'esm'
esm_bc = 'bc1'
input_dft = 'BEEF-VDW'
nosym = .true.
nspin = 1
ntyp = 5
nat = 17
/
&ELECTRONS
electron_maxstep = 200
mixing_beta = 0.1
conv_thr = 1e-06
/
&IONS
ion_dynamics = 'bfgs'
upscale = 1.0
/
&CELL
/

K_POINTS {automatic}
6 6 1 0 0 0

ATOMIC_SPECIES
C 12.01 C.pbe-n-rrkjus_psl.1.0.0.UPF
In 114.8 In.pbe-dn-rrkjus_psl.1.0.0.UPF
Pd 106.4 Pd.pbe-n-rrkjus_psl.1.0.0.UPF
Sn 118.7 Sn.pbe-dn-rrkjus_psl.1.0.0.UPF
Y 88.90 Y.pbe-spn-rrkjus_psl.1.0.0.UPF


CELL_PARAMETERS {angstrom}
6.32964000 0.00000000 0.00000000
0.00000000 9.06394000 0.00000000
0.00000000 0.00000000 24.74170000

ATOMIC_POSITIONS {angstrom}
Y 4.80191809 2.26598500 0.68237609
Y 1.35428977 2.26598500 -2.3707496900000002 0 0 0
Y 4.60386365 6.79795500 0.84319714
Y 1.35428977 6.79795500 -2.3707496900000002 0 0 0
In 0.43528934 8.94565558 2.22279433
In 3.01271875 0.00000000 -0.7902499000000027 0 0 0
In 0.43535264 4.65025442 2.22279433
In 3.01271875 4.53197000 -0.7902499000000027 0 0 0
Sn 3.39907998 0.18064432 2.80694586
Sn 6.17753875 0.00000000 -0.7902499000000027 0 0 0
Sn 3.39914327 4.35132568 2.80694586
Sn 6.17753875 4.53197000 -0.7902499000000027 0 0 0
Pd 1.59582884 2.26598500 0.83404271
Pd 4.51910977 2.26598500 -2.3707496900000002 0 0 0
Pd 1.45505764 6.79795500 0.44980411
Pd 4.51910977 6.79795500 -2.3707496900000002 0 0 0
C 3.19931654 2.26598500 2.36307977
