&CONTROL
calculation = 'relax'
prefix = 'scf'
pseudo_dir = '/vol0004/mdt0/data/hp150275/u10028/POT_KKJUS'
outdir = './data'
tprnfor = .true.
nstep = 50
disk_io = 'non'
/
&SYSTEM
ibrav = 0
ecutwfc = 50.0
ecutrho = 400
occupations = 'smearing'
smearing = 'mp'
degauss = 0.01
assume_isolated = 'esm'
esm_bc = 'bc1'
input_dft = 'BEEF-VDW'
nosym = .true.
nspin = 1
ntyp = 4
nat = 18
/
&ELECTRONS
electron_maxstep = 200
mixing_beta = 0.1
conv_thr = 1e-06
/
&IONS
ion_dynamics = 'bfgs'
upscale = 1.0
/
&CELL
/

K_POINTS {automatic}
6 8 1 0 0 0

ATOMIC_SPECIES
C 12.01 C.pbe-n-rrkjus_psl.1.0.0.UPF
In 114.8 In.pbe-dn-rrkjus_psl.1.0.0.UPF
Mg 24.30 Mg.pbe-spnl-rrkjus_psl.1.0.0.UPF
O 15.99 O.pbe-n-rrkjus_psl.1.0.0.UPF

CELL_PARAMETERS {angstrom}
9.03947000 0.00000000 0.00000000
0.00000000 6.39187000 0.00000000
0.00000000 0.00000000 24.79390000

ATOMIC_POSITIONS {angstrom}
Mg 0.00000000 3.19593500 -2.3970742499999993 0 0 0
Mg 2.25986750 4.79390250 -0.7991074000000005 0 0 0
Mg 2.25986750 1.59796750 -0.7991074000000005 0 0 0
Mg 9.02130067 6.37486763 0.86208390
Mg 2.25986750 1.55776264 2.29864247
Mg 2.25986750 4.77766715 2.36657775
Mg 4.51973500 3.19593500 -2.3970742499999993 0 0 0
Mg 6.77960250 4.79390250 -0.7991074000000005 0 0 0
Mg 6.77960250 1.59796750 -0.7991074000000005 0 0 0
Mg 4.53790433 6.37486763 0.86208390
Mg 6.77960250 1.58185999 2.43996770
Mg 6.77960250 4.76731232 2.44418266
In 0.00000000 0.00000000 -2.3970742499999993 0 0 0
In 9.02030632 3.17043144 1.00811997
In 4.51973500 0.00000000 -2.3970742499999993 0 0 0
In 4.53889868 3.17049536 1.00811997
C 2.25986750 1.60499856 4.50182842
O 2.25986750 1.61861324 5.65226538
