&CONTROL
calculation = 'relax'
prefix = 'scf'
pseudo_dir = '/vol0004/mdt0/data/hp150275/u10028/POT_KKJUS'
outdir = './data'
tprnfor = .true.
nstep = 50
disk_io = 'non'
/
&SYSTEM
ibrav = 0
ecutwfc = 50.0
ecutrho = 400
occupations = 'smearing'
smearing = 'mp'
degauss = 0.01
assume_isolated = 'esm'
esm_bc = 'bc1'
input_dft = 'BEEF-VDW'
nosym = .true.
nspin = 1
ntyp = 3
nat = 17
/
&ELECTRONS
electron_maxstep = 200
mixing_beta = 0.1
conv_thr = 1e-06
/
&IONS
ion_dynamics = 'bfgs'
upscale = 1.0
/
&CELL
/

K_POINTS {automatic}
8 11 2 0  0  0

ATOMIC_SPECIES
C 12.01 C.pbe-n-rrkjus_psl.1.0.0.UPF
Ir 192.2 Ir.pbe-n-rrkjus_psl.0.2.3.UPF
Ti 47.86 Ti.pbe-spn-rrkjus_psl.1.0.0.UPF

CELL_PARAMETERS {angstrom}
7.78093000 0.00000000 0.00000000
0.00000000 5.50195000 0.00000000
0.00000000 0.00000000 24.12650000

ATOMIC_POSITIONS {angstrom}
Ti 0.00000000 0.00000000 -2.0632982800000015 0 0 0
Ti 0.00000000 2.75097500 0.53464324
Ti 3.89046500 0.00000000 -2.0632982800000015 0 0 0
Ti 3.89046500 2.75097500 0.72669018
Ir 0.00000000 2.75097500 -2.0632982800000015 0 0 0
Ir 1.94523250 4.12646250 -0.6878465200000008 0 0 0
Ir 1.94523250 1.37548750 -0.6878465200000008 0 0 0
Ir 0.00000000 0.00000000 0.47673964
Ir 1.64434394 1.40855422 2.03265763
Ir 1.64434394 4.09339578 2.03265763
Ir 3.89046500 2.75097500 -2.0632982800000015 0 0 0
Ir 5.83569750 4.12646250 -0.6878465200000008 0 0 0
Ir 5.83569750 1.37548750 -0.6878465200000008 0 0 0
Ir 3.89038719 0.00000000 0.74357873
Ir 6.13658606 1.40855422 2.03265763
Ir 6.13658606 4.09339578 2.03265763
C 7.78085219 0.00000000 2.56295809
