&CONTROL
calculation = 'relax'
prefix = 'scf'
pseudo_dir = '/vol0403/data/hp230205/u10028/POT_HYBRID_KKJUS_GBRV'
outdir = './data'
tprnfor = .true.
nstep = 70
disk_io = 'non'
/
&SYSTEM
ibrav = 0
ecutwfc = 50.0
ecutrho = 400
occupations = 'smearing'
smearing = 'mp'
degauss = 0.01
assume_isolated = 'esm'
esm_bc = 'bc1'
input_dft = 'BEEF-VDW'
nosym = .true.
nspin = 1
ntyp = 6
nat = 18
/
&ELECTRONS
electron_maxstep = 200
mixing_beta = 0.1
conv_thr = 1e-06
/
&IONS
ion_dynamics = 'bfgs'
upscale = 1.0
/
&CELL
/

K_POINTS {automatic}
11 7 2 0  0  0

ATOMIC_SPECIES
C 12.01 C.pbe-n-rrkjus_psl.1.0.0.UPF
Ge 72.64 Ge.pbe-dn-rrkjus_psl.1.0.0.UPF
In 114.8 In.pbe-dn-rrkjus_psl.1.0.0.UPF
O 15.99 O.pbe-n-rrkjus_psl.1.0.0.UPF
Pd 106.4 Pd.pbe-n-rrkjus_psl.1.0.0.UPF
Sc 44.95 Sc.pbe-spn-rrkjus_psl.1.0.0.UPF


CELL_PARAMETERS {angstrom}
5.71274000 0.00000000 0.00000000
-0.00000000 9.28368000 0.00000000
0.00000000 0.00000000 24.27220000

ATOMIC_POSITIONS {angstrom}
Sc 2.91138369 -0.00000000 2.06896233
Sc 5.49554163 0.00000000 -0.7121463500000011 0 0 0
Sc 2.89087495 4.64184000 2.02624326
Sc 5.49554163 4.64184000 -0.7121463500000011 0 0 0
In 1.27862547 2.31637100 0.88884796
In 3.95875744 2.32092000 -2.13619632 0 0 0
In 1.27868259 6.96740184 0.88884796
In 3.95875744 6.96276000 -2.13619632 0 0 0
Ge 5.69017468 -0.00000000 2.23352784
Ge 2.63917163 0.00000000 -0.7121463500000011 0 0 0
Ge 5.68429055 4.64193284 2.20779931
Ge 2.63917163 4.64184000 -0.7121463500000011 0 0 0
Pd 4.16258800 2.32092000 0.98278138
Pd 1.10238744 2.32092000 -2.13619632 0 0 0
Pd 4.16264513 6.96276000 0.98278138
Pd 1.10238744 6.96276000 -2.13619632 0 0 0
C 2.81889443 -0.00000000 4.41778312
O 2.80501247 -0.00000000 5.56197463
