&CONTROL
calculation = 'relax'
prefix = 'scf'
pseudo_dir = '/vol0004/mdt0/data/hp150275/u10028/POT_KKJUS'
outdir = './data'
tprnfor = .true.
nstep = 50
disk_io = 'non'
/
&SYSTEM
ibrav = 0
ecutwfc = 50.0
ecutrho = 400
occupations = 'smearing'
smearing = 'mp'
degauss = 0.01
assume_isolated = 'esm'
esm_bc = 'bc1'
input_dft = 'BEEF-VDW'
nosym = .true.
nspin = 1
ntyp = 4
nat = 33
/
&ELECTRONS
electron_maxstep = 200
mixing_beta = 0.1
conv_thr = 1e-06
/
&IONS
ion_dynamics = 'bfgs'
upscale = 1.0
/
&CELL
/

K_POINTS {automatic}
9 6 2 0  0  0

ATOMIC_SPECIES
C 12.01 C.pbe-n-rrkjus_psl.1.0.0.UPF
Ni 58.69 Ni.pbe-spn-rrkjus_psl.1.0.0.UPF
Sn 118.7 Sn.pbe-dn-rrkjus_psl.1.0.0.UPF
Zr 91.22 Zr.pbe-spn-rrkjus_psl.1.0.0.UPF

CELL_PARAMETERS {angstrom}
6.34847000 0.00000000 0.00000000
0.00000000 8.97809000 0.00000000
0.00000000 0.00000000 26.73360000

ATOMIC_POSITIONS {angstrom}
Zr 0.00000000 0.00000000 -3.3668295799999974 0 0 0
Zr 3.17423500 2.24452250 -1.1222765300000006 0 0 0
Zr 3.17423500 6.73356750 -1.1222765300000006 0 0 0
Zr 0.00000000 4.48904500 -3.3668295799999974 0 0 0
Zr 0.00000000 4.48958369 1.10971174
Zr 3.17423500 6.71273833 3.34464070
Zr 3.17423500 2.26553123 3.34464070
Zr 0.00000000 8.97791044 1.21664614
Ni 1.58711750 0.00000000 -1.1222765300000006 0 0 0
Ni 4.76135250 4.48904500 -1.1222765300000006 0 0 0
Ni 4.76135250 0.00000000 -1.1222765300000006 0 0 0
Ni 1.58711750 4.48904500 -1.1222765300000006 0 0 0
Ni 4.76135250 6.73356750 -3.3668295799999974 0 0 0
Ni 1.58711750 2.24452250 -3.3668295799999974 0 0 0
Ni 1.58711750 6.73356750 -3.3668295799999974 0 0 0
Ni 4.76135250 2.24452250 -3.3668295799999974 0 0 0
Ni 1.74284547 4.48931434 3.19947725
Ni 4.54544104 0.00026934 3.40291994
Ni 4.60568802 4.48931434 3.19920991
Ni 1.80315593 0.00026934 3.40291994
Ni 4.81817131 2.27397064 1.19124922
Ni 1.53271111 6.70456827 1.19017987
Ni 1.53042566 2.27379107 1.19124922
Ni 4.81544146 6.70456827 1.19017987
Sn 0.00000000 6.73356750 -1.1222765300000006 0 0 0
Sn 3.17423500 0.00000000 -3.3668295799999974 0 0 0
Sn 0.00000000 2.24452250 -1.1222765300000006 0 0 0
Sn 3.17423500 4.48904500 -3.3668295799999974 0 0 0
Sn 0.00000000 2.42929159 3.67881070
Sn 3.17423500 4.48877566 1.02282754
Sn 6.34840652 6.54888819 3.67774135
Sn 3.17423500 0.00089781 1.09661227
C 0.00000000 8.97782066 3.57454966
