&CONTROL
calculation = 'relax'
prefix = 'scf'
pseudo_dir = '/vol0004/mdt0/data/hp150275/u10028/POT_KKJUS'
outdir = './data'
tprnfor = .true.
nstep = 50
disk_io = 'non'
/
&SYSTEM
ibrav = 0
ecutwfc = 50.0
ecutrho = 400
occupations = 'smearing'
smearing = 'mp'
degauss = 0.01
assume_isolated = 'esm'
esm_bc = 'bc1'
input_dft = 'BEEF-VDW'
nosym = .true.
nspin = 1
ntyp = 3
nat = 33
/
&ELECTRONS
electron_maxstep = 200
mixing_beta = 0.1
conv_thr = 1e-06
/
&IONS
ion_dynamics = 'bfgs'
upscale = 1.0
/
&CELL
/

K_POINTS {automatic}
8 6 1 0 0 0

ATOMIC_SPECIES
Ag 107.8 Ag.pbe-n-rrkjus_psl.1.0.0.UPF
C 12.01 C.pbe-n-rrkjus_psl.1.0.0.UPF
Sc 44.95 Sc.pbe-spn-rrkjus_psl.1.0.0.UPF

CELL_PARAMETERS {angstrom}
6.93038000 0.00000000 0.00000000
0.00000000 9.80104000 0.00000000
0.00000000 0.00000000 27.35080000

ATOMIC_POSITIONS {angstrom}
Sc 1.73259500 2.45026000 -3.6754004999999985 0 0 0
Sc 1.73259500 0.00000000 -1.2250423300000008 0 0 0
Sc 1.73259500 2.45026000 1.27947042
Sc 1.73259500 0.28687644 3.60346790
Sc 1.73259500 7.35078000 -3.6754004999999985 0 0 0
Sc 1.73259500 4.90052000 -1.2250423300000008 0 0 0
Sc 1.73259500 7.35068199 1.21081992
Sc 1.73259500 4.61364356 3.60346790
Sc 5.19778500 2.45026000 -3.6754004999999985 0 0 0
Sc 5.19778500 0.00000000 -1.2250423300000008 0 0 0
Sc 5.19778500 2.45026000 1.23352108
Sc 5.19778500 9.61550631 3.62097241
Sc 5.19778500 7.35078000 -3.6754004999999985 0 0 0
Sc 5.19778500 4.90052000 -1.2250423300000008 0 0 0
Sc 5.19778500 7.35068199 1.25485470
Sc 5.19778500 5.08605369 3.62097241
Ag 0.00000000 0.00000000 -3.6754004999999985 0 0 0
Ag 0.00000000 2.45026000 -1.2250423300000008 0 0 0
Ag 6.89773791 9.77575332 1.19249488
Ag 6.53735815 2.45026000 3.78261564
Ag 0.00000000 4.90052000 -3.6754004999999985 0 0 0
Ag 0.00000000 7.35078000 -1.2250423300000008 0 0 0
Ag 6.89773791 4.92580668 1.19222137
Ag 0.16383418 7.35078000 3.58322831
Ag 3.46519000 0.00000000 -3.6754004999999985 0 0 0
Ag 3.46519000 2.45026000 -1.2250423300000008 0 0 0
Ag 3.49783209 9.77565531 1.19249488
Ag 3.85821185 2.45026000 3.78261564
Ag 3.46519000 4.90052000 -3.6754004999999985 0 0 0
Ag 3.46519000 7.35078000 -1.2250423300000008 0 0 0
Ag 3.49783209 4.92580668 1.19222137
Ag 3.30135582 7.35078000 3.58322831
C 1.73259500 2.45026000 3.42240560
