&CONTROL
calculation = 'relax'
prefix = 'scf'
pseudo_dir = '/vol0403/data/hp230205/u10028/POT_HYBRID_KKJUS_GBRV'
outdir = './data'
tprnfor = .true.
nstep = 50
disk_io = 'non'
/
&SYSTEM
ibrav = 0
ecutwfc = 50.0
ecutrho = 400
occupations = 'smearing'
smearing = 'mp'
degauss = 0.01
assume_isolated = 'esm'
esm_bc = 'bc1'
input_dft = 'BEEF-VDW'
nosym = .true.
nspin = 1
ntyp = 6
nat = 34
/
&ELECTRONS
electron_maxstep = 200
mixing_beta = 0.1
conv_thr = 1e-06
/
&IONS
ion_dynamics = 'bfgs'
upscale = 1.0
/
&CELL
/

K_POINTS {automatic}
6 6 1 0 0 0

ATOMIC_SPECIES
C 12.01 C.pbe-n-rrkjus_psl.1.0.0.UPF
Cu 63.54 Cu.pbe-dn-rrkjus_psl.1.0.0.UPF
In 114.8 In.pbe-dn-rrkjus_psl.1.0.0.UPF
Li 6.941 Li.pbe-sl-rrkjus_psl.1.0.0.UPF
O 15.99 O.pbe-n-rrkjus_psl.1.0.0.UPF
Y 88.90 Y.pbe-spn-rrkjus_psl.1.0.0.UPF


CELL_PARAMETERS {angstrom}
6.68415000 0.00000000 0.00000000
0.00000000 9.45282000 0.00000000
0.00000000 0.00000000 27.08960000

ATOMIC_POSITIONS {angstrom}
Li 0.00000000 2.36320500 -1.1816483499999997 0 0 0
Li 0.00000000 7.08961500 -1.1816483499999997 0 0 0
Li 3.34207500 4.72641000 -3.5446741599999996 0 0 0
Li 3.34207500 0.00000000 -3.5446741599999996 0 0 0
Li 1.09392799 7.12355062 4.94683186
Li 1.09386115 2.32917485 4.94683186
Li 3.39407769 0.00000000 1.26264626
Li 3.40423759 4.72641000 1.28242166
Y 5.01311250 0.00000000 -1.1816483499999997 0 0 0
Y 5.01311250 4.72641000 -1.1816483499999997 0 0 0
Y 1.67103750 2.36320500 -3.5446741599999996 0 0 0
Y 1.67103750 7.08961500 -3.5446741599999996 0 0 0
Y 5.30641300 4.72650453 3.58828842
Y 5.32065024 0.00000000 3.55984434
Y 1.58848825 7.07817709 1.36016882
Y 1.58835456 2.37454838 1.36016882
In 1.67103750 0.00000000 -1.1816483499999997 0 0 0
In 1.67103750 4.72641000 -1.1816483499999997 0 0 0
In 5.01311250 2.36320500 -3.5446741599999996 0 0 0
In 5.01311250 7.08961500 -3.5446741599999996 0 0 0
In 1.86146893 4.72641000 3.67443334
In 1.88152138 0.00000000 3.62594296
In 5.02942183 7.09056028 1.17135430
In 5.02948867 2.36216519 1.17135430
Cu 0.00000000 0.00000000 -3.5446741599999996 0 0 0
Cu 0.00000000 4.72641000 -3.5446741599999996 0 0 0
Cu 3.34207500 7.08961500 -1.1816483499999997 0 0 0
Cu 3.34207500 2.36320500 -1.1816483499999997 0 0 0
Cu 6.67278694 4.72641000 1.12963632
Cu 0.02887553 0.00000000 1.08141683
Cu 3.46619967 2.37313046 3.45798744
Cu 3.46626651 7.07968954 3.45798744
C 5.41823883 0.00000000 6.00142998
O 5.40426896 0.00009453 7.16059397
