&CONTROL
calculation = 'relax'
prefix = 'scf'
pseudo_dir = '/vol0004/mdt0/data/hp150275/u10028/POT_HYBRID_KKJUS_GBRV'
outdir = './data'
tprnfor = .true.
nstep = 50
disk_io = 'non'
/
&SYSTEM
ibrav = 0
ecutwfc = 50.0
ecutrho = 400
occupations = 'smearing'
smearing = 'mp'
degauss = 0.01
assume_isolated = 'esm'
esm_bc = 'bc1'
input_dft = 'BEEF-VDW'
nosym = .true.
nspin = 2
ntyp = 4
nat = 34
starting_magnetization(1) = 0.0
starting_magnetization(2) = 0.1
starting_magnetization(3) = 0.0
starting_magnetization(4) = 0.0
/
&ELECTRONS
electron_maxstep = 200
mixing_beta = 0.1
conv_thr = 1e-06
/
&IONS
ion_dynamics = 'bfgs'
upscale = 1.0
/
&CELL
/

K_POINTS {automatic}
9 6 2 0  0  0

ATOMIC_SPECIES
C 12.01 C.pbe-n-rrkjus_psl.1.0.0.UPF
Co 58.93 co_pbe_v1.2.uspp.F.UPF
O 15.99 O.pbe-n-rrkjus_psl.1.0.0.UPF
Sc 44.95 Sc.pbe-spn-rrkjus_psl.1.0.0.UPF

CELL_PARAMETERS {angstrom}
6.24301000 0.00000000 0.00000000
0.00000000 8.82895000 0.00000000
0.00000000 0.00000000 26.62170000

ATOMIC_POSITIONS {angstrom}
Sc 1.56075250 2.20723750 23.31075917
Sc 1.56075250 0.00000000 25.51796432
Sc 1.56143923 2.21041592 1.11864383
Sc 1.56106465 8.82877342 3.35326933
Sc 1.56075250 6.62171250 23.31075917
Sc 1.56075250 4.41447500 25.51796432
Sc 1.56143923 6.61853408 1.11891005
Sc 1.56193867 4.41465158 3.36764505
Sc 4.68225750 2.20723750 23.31075917
Sc 4.68225750 0.00000000 25.51796432
Sc 4.68256965 2.20670776 1.12077357
Sc 4.68288180 8.82877342 3.41236951
Sc 4.68225750 6.62171250 23.31075917
Sc 4.68225750 4.41447500 25.51796432
Sc 4.68256965 6.62233053 1.12103979
Sc 4.68275694 4.41465158 3.38654646
Co 0.00000000 0.00000000 23.31075917
Co 0.00000000 2.20723750 25.51796432
Co 6.22740247 0.00026487 1.15351826
Co 6.21772581 2.22727922 3.17942963
Co 0.00000000 4.41447500 23.31075917
Co 0.00000000 6.62171250 25.51796432
Co 0.00249720 4.41421013 1.15990747
Co 6.21772581 6.60175907 3.17969585
Co 3.12150500 0.00000000 23.31075917
Co 3.12150500 2.20723750 25.51796432
Co 3.13823627 0.00026487 1.15351826
Co 3.14803779 2.22692606 3.17996207
Co 3.12150500 4.41447500 23.31075917
Co 3.12150500 6.62171250 25.51796432
Co 3.12019397 4.41421013 1.15990747
Co 3.14803779 6.60202394 3.17996207
C 1.54302235 0.00000000 5.67255184
O 1.53784065 8.82886171 6.82314171
