&CONTROL
calculation = 'relax'
prefix = 'scf'
pseudo_dir = '/vol0403/data/hp230205/u10028/POT_HYBRID_KKJUS_GBRV'
outdir = './data'
tprnfor = .true.
nstep = 50
disk_io = 'non'
/
&SYSTEM
ibrav = 0
ecutwfc = 50.0
ecutrho = 400
occupations = 'smearing'
smearing = 'mp'
degauss = 0.01
assume_isolated = 'esm'
esm_bc = 'bc1'
input_dft = 'BEEF-VDW'
nosym = .true.
nspin = 1
ntyp = 4
nat = 16
/
&ELECTRONS
electron_maxstep = 200
mixing_beta = 0.1
conv_thr = 1e-06
/
&IONS
ion_dynamics = 'bfgs'
upscale = 1.0
/
&CELL
/

K_POINTS {automatic}
8 8 1 0 0 0

ATOMIC_SPECIES
Al 26.98 Al.pbe-nl-rrkjus_psl.1.0.0.UPF
Li 6.941 Li.pbe-sl-rrkjus_psl.1.0.0.UPF
Pd 106.4 Pd.pbe-n-rrkjus_psl.1.0.0.UPF
Ti 47.86 Ti.pbe-spn-rrkjus_psl.1.0.0.UPF


CELL_PARAMETERS {angstrom}
6.17553000 0.00000000 0.00000000
0.00000000 6.17553000 0.00000000
0.00000000 0.00000000 24.63160000

ATOMIC_POSITIONS {angstrom}
Li 4.63164750 1.54388250 -0.7719543399999971 0 0 0
Li 4.63220330 4.63232681 2.92943619
Li 1.54332670 1.54320319 2.92918987
Li 1.54388250 4.63164750 -0.7719543399999971 0 0 0
Ti 0.00000000 3.08776500 -2.315863029999999 0 0 0
Ti 0.00000000 0.00000000 0.78944278
Ti 3.08776500 3.08776500 0.79018173
Ti 3.08776500 0.00000000 -2.315863029999999 0 0 0
Al 0.00000000 0.00000000 -2.315863029999999 0 0 0
Al 0.00000000 3.08776500 0.82318807
Al 3.08776500 0.00000000 0.82318807
Al 3.08776500 3.08776500 -2.315863029999999 0 0 0
Pd 1.54388250 1.54388250 -0.7719543399999971 0 0 0
Pd 1.54357372 4.63195628 2.17201449
Pd 4.63195628 1.54357372 2.17201449
Pd 4.63164750 4.63164750 -0.7719543399999971 0 0 0
