&CONTROL
calculation = 'relax'
prefix = 'scf'
pseudo_dir = '/vol0004/mdt0/data/hp150275/u10028/POT_HYBRID_KKJUS_GBRV'
outdir = './data'
tprnfor = .true.
nstep = 50
disk_io = 'non'
/
&SYSTEM
ibrav = 0
ecutwfc = 50.0
ecutrho = 400
occupations = 'smearing'
smearing = 'mp'
degauss = 0.01
assume_isolated = 'esm'
esm_bc = 'bc1'
input_dft = 'BEEF-VDW'
nosym = .true.
nspin = 2
ntyp = 4
nat = 34
starting_magnetization(1) = 0.0
starting_magnetization(2) = 0.1
starting_magnetization(3) = 0.0
starting_magnetization(4) = 0.0
/
&ELECTRONS
electron_maxstep = 200
mixing_beta = 0.1
conv_thr = 1e-06
/
&IONS
ion_dynamics = 'bfgs'
upscale = 1.0
/
&CELL
/

K_POINTS {automatic}
7 7 2 0  0  0

ATOMIC_SPECIES
C 12.01 C.pbe-n-rrkjus_psl.1.0.0.UPF
Mn 54.93 mn_pbe_v1.5.uspp.F.UPF
O 15.99 O.pbe-n-rrkjus_psl.1.0.0.UPF
Rh 102.9 Rh.pbe-spn-rrkjus_psl.1.0.0.UPF

CELL_PARAMETERS {angstrom}
7.76363000 0.00000000 0.00000000
-0.00000000 7.76363000 0.00000000
0.00000000 0.00000000 25.82270000

ATOMIC_POSITIONS {angstrom}
Mn 0.00000000 1.94090750 0.97041707
Mn 1.94090750 -0.00000000 0.97041707
Mn 1.94090750 1.94090750 2.91125120
Mn 0.00000000 1.94090750 22.91144880
Mn 1.94090750 0.00000000 22.91144880
Mn 1.94090750 1.94090750 24.85228293
Mn 0.00000000 5.82272250 0.97041707
Mn 1.94090750 3.88181500 0.97041707
Mn 1.94090750 5.82272250 2.91125120
Mn 0.00000000 5.82272250 22.91144880
Mn 1.94090750 3.88181500 22.91144880
Mn 1.94090750 5.82272250 24.85228293
Mn 3.88181500 1.94090750 0.97041707
Mn 5.82272250 -0.00000000 0.97041707
Mn 5.82272250 1.94090750 2.91125120
Mn 3.88181500 1.94090750 22.91144880
Mn 5.82272250 0.00000000 22.91144880
Mn 5.82272250 1.94090750 24.85228293
Mn 3.88181500 5.82272250 0.97041707
Mn 5.82272250 3.88181500 0.97041707
Mn 5.82272250 5.82272250 2.91125120
Mn 3.88181500 5.82272250 22.91144880
Mn 5.82272250 3.88181500 22.91144880
Mn 5.82272250 5.82272250 24.85228293
Rh 0.00000000 0.00000000 2.91125120
Rh 0.00000000 0.00000000 24.85228293
Rh 0.00000000 3.88181500 2.91125120
Rh 0.00000000 3.88181500 24.85228293
Rh 3.88181500 -0.00000000 2.91125120
Rh 3.88181500 0.00000000 24.85228293
Rh 3.88181500 3.88181500 2.91125120
Rh 3.88181500 3.88181500 24.85228293
C 0.00000000 0.00000000 4.81128546
O 0.00000000 0.00000000 5.96142852
