&CONTROL
calculation = 'relax'
prefix = 'scf'
pseudo_dir = '/vol0004/mdt0/data/hp150275/u10028/POT_KKJUS'
outdir = './data'
tprnfor = .true.
nstep = 50
disk_io = 'non'
/
&SYSTEM
ibrav = 0
ecutwfc = 50.0
ecutrho = 400
occupations = 'smearing'
smearing = 'mp'
degauss = 0.01
assume_isolated = 'esm'
esm_bc = 'bc1'
input_dft = 'BEEF-VDW'
nosym = .true.
nspin = 1
ntyp = 4
nat = 33
/
&ELECTRONS
electron_maxstep = 200
mixing_beta = 0.1
conv_thr = 1e-06
/
&IONS
ion_dynamics = 'bfgs'
upscale = 1.0
/
&CELL
/

K_POINTS {automatic}
9 6 2 0  0  0

ATOMIC_SPECIES
C 12.01 C.pbe-n-rrkjus_psl.1.0.0.UPF
Mg 24.30 Mg.pbe-spnl-rrkjus_psl.1.0.0.UPF
Ni 58.69 Ni.pbe-spn-rrkjus_psl.1.0.0.UPF
Sb 121.7 Sb.pbe-n-rrkjus_psl.1.0.0.UPF

CELL_PARAMETERS {angstrom}
6.22749000 0.00000000 0.00000000
0.00000000 8.80700000 0.00000000
0.00000000 0.00000000 26.60530000

ATOMIC_POSITIONS {angstrom}
Mg 0.00000000 0.00000000 -3.3025158899999987 0 0 0
Mg 3.11374500 2.20175000 -1.1009273099999994 0 0 0
Mg 3.11374500 6.60525000 -1.1009273099999994 0 0 0
Mg 0.00000000 4.40350000 -3.3025158899999987 0 0 0
Mg 0.00000000 4.40341193 1.05942305
Mg 3.11380727 6.57548234 3.67605430
Mg 3.11374500 2.23160573 3.67605430
Mg 0.00000000 0.00026421 1.19670639
Ni 1.55687250 0.00000000 -1.1009273099999994 0 0 0
Ni 4.67061750 4.40350000 -1.1009273099999994 0 0 0
Ni 4.67061750 0.00000000 -1.1009273099999994 0 0 0
Ni 1.55687250 4.40350000 -1.1009273099999994 0 0 0
Ni 4.67061750 6.60525000 -3.3025158899999987 0 0 0
Ni 1.55687250 2.20175000 -3.3025158899999987 0 0 0
Ni 1.55687250 6.60525000 -3.3025158899999987 0 0 0
Ni 4.67061750 2.20175000 -3.3025158899999987 0 0 0
Ni 1.71175018 4.40350000 3.05960950
Ni 4.46616900 0.00008807 3.21977341
Ni 4.51573982 4.40350000 3.05960950
Ni 1.76132100 0.00000000 3.22003946
Ni 4.64508479 2.20377561 1.26747649
Ni 1.58190701 6.60340053 1.26721044
Ni 1.58221838 2.20377561 1.26721044
Ni 4.64576981 6.60340053 1.26667833
Sb 0.00000000 6.60525000 -1.1009273099999994 0 0 0
Sb 3.11374500 0.00000000 -3.3025158899999987 0 0 0
Sb 0.00000000 2.20175000 -1.1009273099999994 0 0 0
Sb 3.11374500 4.40350000 -3.3025158899999987 0 0 0
Sb 0.00006227 2.45979510 3.48476219
Sb 3.11374500 4.40367614 0.98439610
Sb 6.22742773 6.34720490 3.48476219
Sb 3.11368273 0.00000000 1.02669853
C 6.22742773 0.00000000 3.56537625
