&CONTROL
calculation = 'relax'
prefix = 'scf'
pseudo_dir = '/vol0004/mdt0/data/hp150275/u10028/POT_KKJUS'
outdir = './data'
tprnfor = .true.
nstep = 50
disk_io = 'non'
/
&SYSTEM
ibrav = 0
ecutwfc = 50.0
ecutrho = 400
occupations = 'smearing'
smearing = 'mp'
degauss = 0.01
assume_isolated = 'esm'
esm_bc = 'bc1'
input_dft = 'BEEF-VDW'
nosym = .true.
nspin = 1
ntyp = 2
nat = 16
/
&ELECTRONS
electron_maxstep = 200
mixing_beta = 0.1
conv_thr = 1e-06
/
&IONS
ion_dynamics = 'bfgs'
upscale = 1.0
/
&CELL
/

K_POINTS {automatic}
8 12 2 0  0  0

ATOMIC_SPECIES
Ga 69.72 Ga.pbe-dnl-rrkjus_psl.1.0.0.UPF
Ni 58.69 Ni.pbe-spn-rrkjus_psl.1.0.0.UPF

CELL_PARAMETERS {angstrom}
7.23991000 0.00000000 0.00000000
0.00000000 5.11939000 0.00000000
0.00000000 0.00000000 23.83950000

ATOMIC_POSITIONS {angstrom}
Ga 0.00000000 0.00000000 -1.919794930000002 0 0 0
Ga 0.00050679 2.55964381 0.68800797
Ga 3.61995500 0.00000000 -1.919794930000002 0 0 0
Ga 3.61952061 2.55964381 0.68800797
Ni 0.00000000 2.55969500 -1.919794930000002 0 0 0
Ni 1.80997750 3.83954250 -0.6398521800000019 0 0 0
Ni 1.80997750 1.27984750 -0.6398521800000019 0 0 0
Ni 0.00000000 5.11933881 0.67632662
Ni 1.80976030 1.28046183 1.81227879
Ni 1.80961550 3.83887698 1.81299398
Ni 3.61995500 2.55969500 -1.919794930000002 0 0 0
Ni 5.42993250 3.83954250 -0.6398521800000019 0 0 0
Ni 5.42993250 1.27984750 -0.6398521800000019 0 0 0
Ni 3.62002740 5.11933881 0.67680341
Ni 5.43029450 1.28061541 1.81180200
Ni 5.43036689 3.83892817 1.81204039
