&CONTROL
calculation = 'relax'
prefix = 'scf'
pseudo_dir = '/vol0004/mdt0/data/hp150275/u10028/POT_KKJUS'
outdir = './data'
tprnfor = .true.
nstep = 50
disk_io = 'non'
/
&SYSTEM
ibrav = 0
ecutwfc = 50.0
ecutrho = 400
occupations = 'smearing'
smearing = 'mp'
degauss = 0.01
assume_isolated = 'esm'
esm_bc = 'bc1'
input_dft = 'BEEF-VDW'
nosym = .true.
nspin = 1
ntyp = 4
nat = 34
/
&ELECTRONS
electron_maxstep = 200
mixing_beta = 0.1
conv_thr = 1e-06
/
&IONS
ion_dynamics = 'bfgs'
upscale = 1.0
/
&CELL
/

K_POINTS {automatic}
9 6 2 0  0  0

ATOMIC_SPECIES
Be 9.012 Be.pbe-n-rrkjus_psl.1.0.0.UPF
C 12.01 C.pbe-n-rrkjus_psl.1.0.0.UPF
O 15.99 O.pbe-n-rrkjus_psl.1.0.0.UPF
Pd 106.4 Pd.pbe-n-rrkjus_psl.1.0.0.UPF

CELL_PARAMETERS {angstrom}
5.70199000 0.00000000 0.00000000
0.00000000 8.06383000 0.00000000
0.00000000 0.00000000 26.04790000

ATOMIC_POSITIONS {angstrom}
Be 0.00000000 0.00000000 -3.0239007099999995 0 0 0
Be 0.00000000 2.01595750 -1.0080537299999968 0 0 0
Be 0.00775471 0.00000000 1.04608366
Be 5.68744993 2.04434218 2.91163426
Be 0.00000000 4.03191500 -3.0239007099999995 0 0 0
Be 0.00000000 6.04787250 -1.0080537299999968 0 0 0
Be 0.00650027 4.03191500 1.06197288
Be 5.68744993 6.01948782 2.91163426
Be 2.85099500 0.00000000 -3.0239007099999995 0 0 0
Be 2.85099500 2.01595750 -1.0080537299999968 0 0 0
Be 2.84324029 0.00000000 1.04608366
Be 2.86553507 2.04434218 2.91163426
Be 2.85099500 4.03191500 -3.0239007099999995 0 0 0
Be 2.85099500 6.04787250 -1.0080537299999968 0 0 0
Be 2.84449473 4.03191500 1.06197288
Be 2.86553507 6.01948782 2.91163426
Pd 1.42549750 2.01595750 -3.0239007099999995 0 0 0
Pd 1.42549750 0.00000000 -1.0080537299999968 0 0 0
Pd 1.42549750 1.97604154 0.99424834
Pd 1.42549750 0.00000000 3.14111626
Pd 1.42549750 6.04787250 -3.0239007099999995 0 0 0
Pd 1.42549750 4.03191500 -1.0080537299999968 0 0 0
Pd 1.42549750 6.08778846 0.99424834
Pd 1.42549750 4.03191500 2.97571210
Pd 4.27649250 2.01595750 -3.0239007099999995 0 0 0
Pd 4.27649250 0.00000000 -1.0080537299999968 0 0 0
Pd 4.27649250 2.01910239 0.96377230
Pd 4.27649250 0.00000000 2.95904144
Pd 4.27649250 6.04787250 -3.0239007099999995 0 0 0
Pd 4.27649250 4.03191500 -1.0080537299999968 0 0 0
Pd 4.27649250 6.04472761 0.96377230
Pd 4.27649250 4.03191500 2.99681089
C 1.42549750 0.00000000 5.10356505
O 1.42549750 0.00000000 6.25045408
