&CONTROL
calculation = 'relax'
prefix = 'scf'
pseudo_dir = '/vol0004/mdt0/data/hp150275/u10028/POT_KKJUS'
outdir = './data'
tprnfor = .true.
nstep = 50
disk_io = 'non'
/
&SYSTEM
ibrav = 0
ecutwfc = 50.0
ecutrho = 400
occupations = 'smearing'
smearing = 'mp'
degauss = 0.01
assume_isolated = 'esm'
esm_bc = 'bc1'
input_dft = 'BEEF-VDW'
nosym = .true.
nspin = 1
ntyp = 4
nat = 33
/
&ELECTRONS
electron_maxstep = 200
mixing_beta = 0.1
conv_thr = 1e-06
/
&IONS
ion_dynamics = 'bfgs'
upscale = 1.0
/
&CELL
/

K_POINTS {automatic}
9 6 2 0  0  0

ATOMIC_SPECIES
C 12.01 C.pbe-n-rrkjus_psl.1.0.0.UPF
Cu 63.54 Cu.pbe-dn-rrkjus_psl.1.0.0.UPF
In 114.8 In.pbe-dn-rrkjus_psl.1.0.0.UPF
Ti 47.86 Ti.pbe-spn-rrkjus_psl.1.0.0.UPF

CELL_PARAMETERS {angstrom}
6.30953000 0.00000000 0.00000000
0.00000000 8.92302000 0.00000000
0.00000000 0.00000000 26.69230000

ATOMIC_POSITIONS {angstrom}
Ti 0.00000000 0.00000000 -3.346146730000001 0 0 0
Ti 3.15476500 2.23075500 -1.1154712199999999 0 0 0
Ti 3.15476500 6.69226500 -1.1154712199999999 0 0 0
Ti 0.00000000 4.46151000 -3.346146730000001 0 0 0
Ti 0.00000000 4.46151000 1.15497582
Ti 3.15476500 6.92667274 3.29089367
Ti 3.15476500 1.99634726 3.29089367
Ti 0.00000000 0.00000000 1.12241121
In 0.00000000 6.69226500 -1.1154712199999999 0 0 0
In 3.15476500 0.00000000 -3.346146730000001 0 0 0
In 0.00000000 2.23075500 -1.1154712199999999 0 0 0
In 3.15476500 4.46151000 -3.346146730000001 0 0 0
In 0.00000000 2.41662151 3.55407974
In 3.15476500 4.46133154 1.06502277
In 0.00000000 6.50639849 3.55381282
In 3.15476500 0.00000000 1.08023738
Cu 1.57738250 0.00000000 -1.1154712199999999 0 0 0
Cu 4.73214750 4.46151000 -1.1154712199999999 0 0 0
Cu 4.73214750 0.00000000 -1.1154712199999999 0 0 0
Cu 1.57738250 4.46151000 -1.1154712199999999 0 0 0
Cu 4.73214750 6.69226500 -3.346146730000001 0 0 0
Cu 1.57738250 2.23075500 -3.346146730000001 0 0 0
Cu 1.57738250 6.69226500 -3.346146730000001 0 0 0
Cu 4.73214750 2.23075500 -3.346146730000001 0 0 0
Cu 1.82774465 4.46133154 3.39873056
Cu 5.07772046 0.00017846 3.47240131
Cu 4.48178535 4.46133154 3.39873056
Cu 1.23180954 0.00017846 3.47240131
Cu 4.77688207 2.24244416 1.15257351
Cu 1.53264793 6.68057584 1.15230659
Cu 1.53264793 2.24244416 1.15257351
Cu 4.77688207 6.68057584 1.15230659
C 3.15476500 8.92293077 3.72571123
