&CONTROL
calculation = 'relax'
prefix = 'scf'
pseudo_dir = '/vol0004/mdt0/data/hp150275/u10028/POT_KKJUS'
outdir = './data'
tprnfor = .true.
nstep = 50
disk_io = 'non'
/
&SYSTEM
ibrav = 0
ecutwfc = 50.0
ecutrho = 400
occupations = 'smearing'
smearing = 'mp'
degauss = 0.01
assume_isolated = 'esm'
esm_bc = 'bc1'
input_dft = 'BEEF-VDW'
nosym = .true.
nspin = 1
ntyp = 3
nat = 17
/
&ELECTRONS
electron_maxstep = 200
mixing_beta = 0.1
conv_thr = 1e-06
/
&IONS
ion_dynamics = 'bfgs'
upscale = 1.0
/
&CELL
/

K_POINTS {automatic}
8 8 1 0 0 0

ATOMIC_SPECIES
C 12.01 C.pbe-n-rrkjus_psl.1.0.0.UPF
In 114.8 In.pbe-dn-rrkjus_psl.1.0.0.UPF
Rh 102.9 Rh.pbe-spn-rrkjus_psl.1.0.0.UPF

CELL_PARAMETERS {angstrom}
6.51708000 0.00000000 0.00000000
0.00000000 6.51708000 0.00000000
0.00000000 0.00000000 24.88780000

ATOMIC_POSITIONS {angstrom}
In 0.00000000 0.00000000 -2.3994327999999996 0 0 0
In 6.51668898 0.00006517 0.66475314
In 0.00000000 3.25854000 -2.3994327999999996 0 0 0
In 0.00000000 3.25854000 1.08212154
In 3.25854000 0.00000000 -2.3994327999999996 0 0 0
In 3.25854000 0.00000000 1.08261930
In 3.25854000 3.25854000 -2.3994327999999996 0 0 0
In 3.25847483 3.25840966 1.30436960
Rh 1.62927000 1.62927000 -0.7700285299999976 0 0 0
Rh 1.39928225 1.39986878 2.58210925
Rh 1.62927000 4.88781000 -0.7700285299999976 0 0 0
Rh 1.39908673 5.11721122 2.58186037
Rh 4.88781000 1.62927000 -0.7700285299999976 0 0 0
Rh 5.11714605 1.39993395 2.58111374
Rh 4.88781000 4.88781000 -0.7700285299999976 0 0 0
Rh 5.11714605 5.11740673 2.58111374
C 6.51681932 0.00006517 3.09728671
