&CONTROL
calculation = 'relax'
prefix = 'scf'
pseudo_dir = '/vol0004/mdt0/data/hp150275/u10028/POT_HYBRID_KKJUS_GBRV'
outdir = './data'
tprnfor = .true.
nstep = 50
disk_io = 'non'
/
&SYSTEM
ibrav = 0
ecutwfc = 50.0
ecutrho = 400
occupations = 'smearing'
smearing = 'mp'
degauss = 0.01
assume_isolated = 'esm'
esm_bc = 'bc1'
input_dft = 'BEEF-VDW'
nosym = .true.
nspin = 2
ntyp = 5
nat = 18
starting_magnetization(1) = 0.1
starting_magnetization(2) = 0.1
starting_magnetization(3) = 0.1
starting_magnetization(4) = 0.1
starting_magnetization(5) = 0.1
/
&ELECTRONS
electron_maxstep = 200
mixing_beta = 0.1
conv_thr = 1e-06
/
&IONS
ion_dynamics = 'bfgs'
upscale = 1.0
/
&CELL
/

K_POINTS {automatic}
8 8 1 0 0 0

ATOMIC_SPECIES
Al 26.98 Al.pbe-nl-rrkjus_psl.1.0.0.UPF
C 12.01 C.pbe-n-rrkjus_psl.1.0.0.UPF
Fe 55.84 fe_pbe_v1.5.uspp.F.UPF
O 15.99 O.pbe-n-rrkjus_psl.1.0.0.UPF
Ti 47.86 Ti.pbe-spn-rrkjus_psl.1.0.0.UPF

CELL_PARAMETERS {angstrom}
5.83886000 0.00000000 0.00000000
-0.00000000 5.83886000 0.00000000
0.00000000 0.00000000 24.37910000

ATOMIC_POSITIONS {angstrom}
Ti 0.00000000 0.00000000 2.18948697
Ti 2.91943000 2.91943000 2.18948697
Ti 2.91943000 0.00000000 -0.7299102499999996 0 0 0
Ti 0.00000000 2.91943000 -0.7299102499999996 0 0 0
Al 0.00000000 0.00000000 -0.7299102499999996 0 0 0
Al 2.91943000 -0.00000000 2.18948697
Al 0.00000000 2.91943000 2.18948697
Al 2.91943000 2.91943000 -0.7299102499999996 0 0 0
Fe 1.45971500 1.45971500 0.72991025
Fe 4.37914500 4.37914500 -2.189486970000001 0 0 0
Fe 4.37914500 1.45971500 0.72991025
Fe 1.45971500 4.37914500 -2.189486970000001 0 0 0
Fe 4.37914500 4.37914500 0.72991025
Fe 1.45971500 1.45971500 -2.189486970000001 0 0 0
Fe 1.45971500 4.37914500 0.72991025
Fe 4.37914500 1.45971500 -2.189486970000001 0 0 0
C 0.00000000 0.00000000 4.08959403
O 0.00000000 0.00000000 5.23955617
