&CONTROL
calculation = 'relax'
prefix = 'scf'
pseudo_dir = '/vol0004/mdt0/data/hp150275/u10028/POT_KKJUS'
outdir = './data'
tprnfor = .true.
nstep = 50
disk_io = 'non'
/
&SYSTEM
ibrav = 0
ecutwfc = 50.0
ecutrho = 400
occupations = 'smearing'
smearing = 'mp'
degauss = 0.01
assume_isolated = 'esm'
esm_bc = 'bc1'
input_dft = 'BEEF-VDW'
nosym = .true.
nspin = 1
ntyp = 4
nat = 33
/
&ELECTRONS
electron_maxstep = 200
mixing_beta = 0.1
conv_thr = 1e-06
/
&IONS
ion_dynamics = 'bfgs'
upscale = 1.0
/
&CELL
/

K_POINTS {automatic}
8 6 1 0 0 0

ATOMIC_SPECIES
Au 196.9 Au.pbe-n-rrkjus_psl.1.0.0.UPF
Bi 208.9 Bi.pbe-dn-rrkjus_psl.1.0.0.UPF
C 12.01 C.pbe-n-rrkjus_psl.1.0.0.UPF
Li 6.941 Li.pbe-sl-rrkjus_psl.1.0.0.UPF

CELL_PARAMETERS {angstrom}
6.87958000 0.00000000 0.00000000
0.00000000 9.72919000 0.00000000
0.00000000 0.00000000 27.29690000

ATOMIC_POSITIONS {angstrom}
Li 0.00000000 7.29689250 -1.21607689 0 0 0
Li 3.43979000 0.00000000 -3.648503650000002 0 0 0
Li 0.00000000 2.43229750 -1.21607689 0 0 0
Li 3.43979000 4.86459500 -3.648503650000002 0 0 0
Li 1.71989500 2.43229750 -3.648503650000002 0 0 0
Li 1.71989500 7.29689250 -3.648503650000002 0 0 0
Li 5.15968500 4.86459500 -1.21607689 0 0 0
Li 5.15968500 0.00000000 -1.21607689 0 0 0
Li 0.22413672 2.43239479 3.49591398
Li 3.44887105 4.87043251 1.03755517
Li 0.15396500 7.29679521 3.40583421
Li 3.44887105 9.72335249 1.03755517
Li 1.92580083 7.29689250 1.34000482
Li 2.04674385 2.43229750 1.50187544
Li 4.76238926 9.50464029 3.57234530
Li 4.76232046 5.08924200 3.57234530
Bi 0.00000000 0.00000000 -3.648503650000002 0 0 0
Bi 3.43979000 2.43229750 -1.21607689 0 0 0
Bi 3.43979000 7.29689250 -1.21607689 0 0 0
Bi 0.00000000 4.86459500 -3.648503650000002 0 0 0
Bi 6.68695176 5.01753787 1.26957882
Bi 2.95127102 7.29689250 4.17451492
Bi 4.40871005 2.43229750 4.47641863
Bi 6.68695176 9.57614984 1.26957882
Au 1.71989500 0.00000000 -1.21607689 0 0 0
Au 1.71989500 4.86459500 -1.21607689 0 0 0
Au 5.15968500 7.29689250 -3.648503650000002 0 0 0
Au 5.15968500 2.43229750 -3.648503650000002 0 0 0
Au 1.97987433 4.56415761 3.31684632
Au 1.97987433 0.30053468 3.31684632
Au 5.19848583 2.43220021 1.30315401
Au 4.74945564 7.29689250 1.77648225
C 2.32694914 2.43239479 3.71456215
