&CONTROL
calculation = 'relax'
prefix = 'scf'
pseudo_dir = '/vol0004/mdt0/data/hp150275/u10028/POT_KKJUS'
outdir = './data'
tprnfor = .true.
nstep = 50
disk_io = 'non'
/
&SYSTEM
ibrav = 0
ecutwfc = 50.0
ecutrho = 400
occupations = 'smearing'
smearing = 'mp'
degauss = 0.01
assume_isolated = 'esm'
esm_bc = 'bc1'
input_dft = 'BEEF-VDW'
nosym = .true.
nspin = 1
ntyp = 4
nat = 34
/
&ELECTRONS
electron_maxstep = 200
mixing_beta = 0.1
conv_thr = 1e-06
/
&IONS
ion_dynamics = 'bfgs'
upscale = 1.0
/
&CELL
/

K_POINTS {automatic}
9 6 2 0  0  0

ATOMIC_SPECIES
C 12.01 C.pbe-n-rrkjus_psl.1.0.0.UPF
O 15.99 O.pbe-n-rrkjus_psl.1.0.0.UPF
Ru 101.0 Ru.pbe-spn-rrkjus_psl.1.0.0.UPF
Si 28.08 Si.pbe-nl-rrkjus_psl.1.0.0.UPF

CELL_PARAMETERS {angstrom}
5.87849000 0.00000000 0.00000000
0.00000000 8.31345000 0.00000000
0.00000000 0.00000000 26.23510000

ATOMIC_POSITIONS {angstrom}
Si 1.46962250 2.07836250 -3.1175169300000007 0 0 0
Si 1.46962250 0.00000000 -1.0391723099999979 0 0 0
Si 1.46962250 2.05791141 1.07485205
Si 1.46962250 0.00000000 3.48926830
Si 1.46962250 6.23508750 -3.1175169300000007 0 0 0
Si 1.46962250 4.15672500 -1.0391723099999979 0 0 0
Si 1.46962250 6.25553859 1.07485205
Si 1.46962250 4.15672500 3.11043346
Si 4.40886750 2.07836250 -3.1175169300000007 0 0 0
Si 4.40886750 0.00000000 -1.0391723099999979 0 0 0
Si 4.40886750 2.07329130 1.08088612
Si 4.40886750 0.00000000 3.18966346
Si 4.40886750 6.23508750 -3.1175169300000007 0 0 0
Si 4.40886750 4.15672500 -1.0391723099999979 0 0 0
Si 4.40886750 6.24015870 1.08088612
Si 4.40886750 4.15672500 3.13299564
Ru 0.00000000 0.00000000 -3.1175169300000007 0 0 0
Ru 0.00000000 2.07836250 -1.0391723099999979 0 0 0
Ru 5.86391134 0.00000000 0.95259648
Ru 0.01410838 2.06206814 3.02595643
Ru 0.00000000 4.15672500 -3.1175169300000007 0 0 0
Ru 0.00000000 6.23508750 -1.0391723099999979 0 0 0
Ru 0.00041149 4.15672500 0.98197979
Ru 0.01410838 6.25138186 3.02595643
Ru 2.93924500 0.00000000 -3.1175169300000007 0 0 0
Ru 2.93924500 2.07836250 -1.0391723099999979 0 0 0
Ru 2.95382366 0.00000000 0.95259648
Ru 2.92513662 2.06206814 3.02595643
Ru 2.93924500 4.15672500 -3.1175169300000007 0 0 0
Ru 2.93924500 6.23508750 -1.0391723099999979 0 0 0
Ru 2.93883351 4.15672500 0.98197979
Ru 2.92513662 6.25138186 3.02595643
C 1.46962250 0.00000000 5.36927557
O 1.46962250 0.00000000 6.52335762
