&CONTROL
calculation = 'relax'
prefix = 'scf'
pseudo_dir = '/vol0004/mdt0/data/hp150275/u10028/POT_HYBRID_KKJUS_GBRV'
outdir = './data'
tprnfor = .true.
nstep = 50
disk_io = 'non'
/
&SYSTEM
ibrav = 0
ecutwfc = 50.0
ecutrho = 400
occupations = 'smearing'
smearing = 'mp'
degauss = 0.01
assume_isolated = 'esm'
esm_bc = 'bc1'
input_dft = 'BEEF-VDW'
nosym = .true.
nspin = 2
ntyp = 5
nat = 34
starting_magnetization(1) = 0.0
starting_magnetization(2) = 0.1
starting_magnetization(3) = 0.001
starting_magnetization(4) = 0.0
starting_magnetization(5) = 0.0
/
&ELECTRONS
electron_maxstep = 300
mixing_beta = 0.1
conv_thr = 1e-06
/
&IONS
ion_dynamics = 'bfgs'
upscale = 1.0
/
&CELL
/

K_POINTS {automatic}
9 6 2 0  0  0

ATOMIC_SPECIES
C 12.01 C.pbe-n-rrkjus_psl.1.0.0.UPF
Mn 54.93 mn_pbe_v1.5.uspp.F.UPF
Ni 58.69 ni_pbe_v1.4.uspp.F.UPF
O 15.99 O.pbe-n-rrkjus_psl.1.0.0.UPF
Sb 121.7 Sb.pbe-n-rrkjus_psl.1.0.0.UPF

CELL_PARAMETERS {angstrom}
6.10266000 0.00000000 0.00000000
0.00000000 8.63046000 0.00000000
0.00000000 0.00000000 26.47280000

ATOMIC_POSITIONS {angstrom}
Mn 0.00000000 0.00000000 -3.236299800000001 0 0 0
Mn 3.05133000 2.15761500 -1.078766599999998 0 0 0
Mn 3.05133000 6.47284500 -1.078766599999998 0 0 0
Mn 0.00000000 4.31523000 -3.236299800000001 0 0 0
Mn 0.00000000 4.32101241 1.07929606
Mn 3.05133000 6.47293130 3.29348105
Mn 3.05133000 2.15744239 3.21512156
Mn 0.00000000 8.62467759 1.07929606
Ni 1.52566500 0.00000000 -1.078766599999998 0 0 0
Ni 4.57699500 4.31523000 -1.078766599999998 0 0 0
Ni 4.57699500 0.00000000 -1.078766599999998 0 0 0
Ni 1.52566500 4.31523000 -1.078766599999998 0 0 0
Ni 4.57699500 6.47284500 -3.236299800000001 0 0 0
Ni 1.52566500 2.15761500 -3.236299800000001 0 0 0
Ni 1.52566500 6.47284500 -3.236299800000001 0 0 0
Ni 4.57699500 2.15761500 -3.236299800000001 0 0 0
Ni 1.53860264 4.32230698 3.07958082
Ni 4.56387428 8.62329672 3.07958082
Ni 4.56405736 4.32239328 3.07958082
Ni 1.53884675 8.62329672 3.07958082
Ni 4.62691476 2.15735609 1.12509400
Ni 1.45444696 6.47319022 1.15950864
Ni 1.47574524 2.15735609 1.12509400
Ni 4.64821304 6.47319022 1.15950864
Sb 0.00000000 6.47284500 -1.078766599999998 0 0 0
Sb 3.05133000 0.00000000 -3.236299800000001 0 0 0
Sb 0.00000000 2.15761500 -1.078766599999998 0 0 0
Sb 3.05133000 4.31523000 -3.236299800000001 0 0 0
Sb 0.00000000 2.15761500 3.39434242
Sb 3.05133000 4.30858455 1.04832288
Sb 0.00000000 6.47284500 3.48540885
Sb 3.05133000 0.00664545 1.04805815
C 3.05133000 2.15761500 5.13889994
O 3.05133000 2.15761500 6.29284929
