&CONTROL
calculation = 'relax'
prefix = 'scf'
pseudo_dir = '/vol0004/mdt0/data/hp150275/u10028/POT_KKJUS'
outdir = './data'
tprnfor = .true.
nstep = 50
disk_io = 'non'
/
&SYSTEM
ibrav = 0
ecutwfc = 50.0
ecutrho = 400
occupations = 'smearing'
smearing = 'mp'
degauss = 0.01
assume_isolated = 'esm'
esm_bc = 'bc1'
input_dft = 'BEEF-VDW'
nosym = .true.
nspin = 1
ntyp = 5
nat = 34
/
&ELECTRONS
electron_maxstep = 200
mixing_beta = 0.1
conv_thr = 1e-06
/
&IONS
ion_dynamics = 'bfgs'
upscale = 1.0
/
&CELL
/

K_POINTS {automatic}
9 6 2 0  0  0

ATOMIC_SPECIES
C 12.01 C.pbe-n-rrkjus_psl.1.0.0.UPF
Mg 24.30 Mg.pbe-spnl-rrkjus_psl.1.0.0.UPF
Ni 58.69 Ni.pbe-spn-rrkjus_psl.1.0.0.UPF
O 15.99 O.pbe-n-rrkjus_psl.1.0.0.UPF
Sn 118.7 Sn.pbe-dn-rrkjus_psl.1.0.0.UPF

CELL_PARAMETERS {angstrom}
6.22749000 0.00000000 0.00000000
0.00000000 8.80700000 0.00000000
0.00000000 0.00000000 26.60530000

ATOMIC_POSITIONS {angstrom}
Mg 0.00000000 0.00000000 -3.3025158899999987 0 0 0
Mg 3.11374500 2.20175000 -1.1009273099999994 0 0 0
Mg 3.11374500 6.60525000 -1.1009273099999994 0 0 0
Mg 0.00000000 4.40350000 -3.3025158899999987 0 0 0
Mg 6.22730318 4.39319581 1.02111141
Mg 3.11368273 6.60489772 3.43660660
Mg 3.11368273 2.20254263 3.44432214
Mg 6.22736545 0.01021612 1.02137747
Ni 1.55687250 0.00000000 -1.1009273099999994 0 0 0
Ni 4.67061750 4.40350000 -1.1009273099999994 0 0 0
Ni 4.67061750 0.00000000 -1.1009273099999994 0 0 0
Ni 1.55687250 4.40350000 -1.1009273099999994 0 0 0
Ni 4.67061750 6.60525000 -3.3025158899999987 0 0 0
Ni 1.55687250 2.20175000 -3.3025158899999987 0 0 0
Ni 1.55687250 6.60525000 -3.3025158899999987 0 0 0
Ni 4.67061750 2.20175000 -3.3025158899999987 0 0 0
Ni 1.42130004 4.40367614 3.12372827
Ni 4.80463308 0.00061649 3.12559064
Ni 4.80488218 4.40279544 3.12505854
Ni 1.42161142 0.00017614 3.12426038
Ni 4.65342963 2.20183807 1.14961501
Ni 1.53376851 6.60489772 1.15600028
Ni 1.57462085 2.20175000 1.15014712
Ni 4.69284964 6.60516193 1.15626634
Sn 0.00000000 6.60525000 -1.1009273099999994 0 0 0
Sn 3.11374500 0.00000000 -3.3025158899999987 0 0 0
Sn 0.00000000 2.20175000 -1.1009273099999994 0 0 0
Sn 3.11374500 4.40350000 -3.3025158899999987 0 0 0
Sn 6.22742773 2.20183807 3.43660660
Sn 3.11380727 4.41336384 1.12673446
Sn 6.22730318 6.60525000 3.46188164
Sn 3.11374500 8.79713616 1.12700051
C 0.00392332 2.20456824 7.48779563
O 6.22717863 2.20148579 8.62251168
