&CONTROL
calculation = 'relax'
prefix = 'scf'
pseudo_dir = '/vol0004/mdt0/data/hp150275/u10028/POT_KKJUS'
outdir = './data'
tprnfor = .true.
nstep = 50
disk_io = 'non'
/
&SYSTEM
ibrav = 0
ecutwfc = 50.0
ecutrho = 400
occupations = 'smearing'
smearing = 'mp'
degauss = 0.01
assume_isolated = 'esm'
esm_bc = 'bc1'
input_dft = 'BEEF-VDW'
nosym = .true.
nspin = 1
ntyp = 3
nat = 17
/
&ELECTRONS
electron_maxstep = 200
mixing_beta = 0.1
conv_thr = 1e-06
/
&IONS
ion_dynamics = 'bfgs'
upscale = 1.0
/
&CELL
/

K_POINTS {automatic}
8 11 2 0  0  0

ATOMIC_SPECIES
C 12.01 C.pbe-n-rrkjus_psl.1.0.0.UPF
Pt 195.0 Pt.pbe-n-rrkjus_psl.1.0.0.UPF
Zr 91.22 Zr.pbe-spn-rrkjus_psl.1.0.0.UPF

CELL_PARAMETERS {angstrom}
8.14544000 0.00000000 0.00000000
0.00000000 5.75970000 0.00000000
0.00000000 0.00000000 24.31980000

ATOMIC_POSITIONS {angstrom}
Zr 0.00000000 0.00000000 -2.159841440000001 0 0 0
Zr 0.00024436 2.87985000 0.62963962
Zr 4.07272000 0.00000000 -2.159841440000001 0 0 0
Zr 4.07214982 2.87990760 0.86894645
Pt 0.00000000 2.87985000 -2.159841440000001 0 0 0
Pt 2.03636000 4.31977500 -0.7198660799999992 0 0 0
Pt 2.03636000 1.43992500 -0.7198660799999992 0 0 0
Pt 0.00048873 5.75964240 0.46937214
Pt 1.64757815 1.46590125 2.22064094
Pt 1.64774106 4.29374116 2.22064094
Pt 4.07272000 2.87985000 -2.159841440000001 0 0 0
Pt 6.10908000 4.31977500 -0.7198660799999992 0 0 0
Pt 6.10908000 1.43992500 -0.7198660799999992 0 0 0
Pt 4.07280145 0.00000000 0.67122648
Pt 6.49892076 1.46561326 2.22185693
Pt 6.49867640 4.29385635 2.22161373
C 8.14201892 0.00034558 2.58689713
