&CONTROL
calculation = 'relax'
prefix = 'scf'
pseudo_dir = '/vol0004/mdt0/data/hp150275/u10028/POT_KKJUS'
outdir = './data'
tprnfor = .true.
nstep = 50
disk_io = 'non'
/
&SYSTEM
ibrav = 0
ecutwfc = 50.0
ecutrho = 400
occupations = 'smearing'
smearing = 'mp'
degauss = 0.01
assume_isolated = 'esm'
esm_bc = 'bc1'
input_dft = 'BEEF-VDW'
nosym = .true.
nspin = 1
ntyp = 4
nat = 18
/
&ELECTRONS
electron_maxstep = 200
mixing_beta = 0.1
conv_thr = 1e-06
/
&IONS
ion_dynamics = 'bfgs'
upscale = 1.0
/
&CELL
/

K_POINTS {automatic}
8 8 1 0 0 0

ATOMIC_SPECIES
C 12.01 C.pbe-n-rrkjus_psl.1.0.0.UPF
Ca 40.07 Ca.pbe-spn-rrkjus_psl.1.0.0.UPF
Ni 58.69 Ni.pbe-spn-rrkjus_psl.1.0.0.UPF
O 15.99 O.pbe-n-rrkjus_psl.1.0.0.UPF

CELL_PARAMETERS {angstrom}
6.93038000 0.00000000 0.00000000
0.00000000 6.93038000 0.00000000
0.00000000 0.00000000 25.19780000

ATOMIC_POSITIONS {angstrom}
Ca 0.00000000 0.00000000 -2.7621828400000012 0 0 0
Ca 6.91679646 6.90868791 0.58232116
Ca 0.00000000 3.46519000 -2.7621828400000012 0 0 0
Ca 6.91201449 3.48722861 0.51605094
Ca 3.46519000 0.00000000 -2.7621828400000012 0 0 0
Ca 3.47814981 6.92739994 0.61205456
Ca 3.46519000 3.46519000 -2.7621828400000012 0 0 0
Ca 3.48258525 3.46671468 0.54603633
Ni 1.73259500 1.73259500 -1.0295821099999998 0 0 0
Ni 1.69420069 1.77092000 1.69001645
Ni 1.73259500 5.19778500 -1.0295821099999998 0 0 0
Ni 1.73294152 5.15058911 1.71118260
Ni 5.19778500 1.73259500 -1.0295821099999998 0 0 0
Ni 5.23915937 1.77001905 1.73285271
Ni 5.19778500 5.19778500 -1.0295821099999998 0 0 0
Ni 5.19896316 5.15786601 1.75351490
C 1.72122918 1.74361430 3.44605113
O 1.74236684 1.72476367 4.60162224
