&CONTROL
calculation = 'relax'
prefix = 'scf'
pseudo_dir = '/vol0004/mdt0/data/hp150275/u10028/POT_HYBRID_KKJUS_GBRV'
outdir = './data'
tprnfor = .true.
nstep = 50
disk_io = 'non'
/
&SYSTEM
ibrav = 0
ecutwfc = 50.0
ecutrho = 400
occupations = 'smearing'
smearing = 'mp'
degauss = 0.01
assume_isolated = 'esm'
esm_bc = 'bc1'
input_dft = 'BEEF-VDW'
nosym = .true.
nspin = 2
ntyp = 3
nat = 32
starting_magnetization(1) = 0.0
starting_magnetization(2) = 0.1
starting_magnetization(3) = 0.0
/
&ELECTRONS
electron_maxstep = 300
mixing_beta = 0.1
conv_thr = 1e-06
/
&IONS
ion_dynamics = 'bfgs'
upscale = 1.0
/
&CELL
/

K_POINTS {automatic}
8 6 1 0 0 0

ATOMIC_SPECIES
Al 26.98 Al.pbe-nl-rrkjus_psl.1.0.0.UPF
Co 58.93 co_pbe_v1.2.uspp.F.UPF
Ta 180.9 Ta.pbe-spn-rrkjus_psl.1.0.0.UPF

CELL_PARAMETERS {angstrom}
5.95946000 0.00000000 0.00000000
0.00000000 8.42794000 0.00000000
0.00000000 0.00000000 26.32100000

ATOMIC_POSITIONS {angstrom}
Ta 0.00000000 0.00000000 -3.1603624700000026 0 0 0
Ta 2.97973000 2.10698500 -1.0533664200000032 0 0 0
Ta 2.97973000 6.32095500 -1.0533664200000032 0 0 0
Ta 0.00000000 4.21397000 -3.1603624700000026 0 0 0
Ta 0.00005959 4.21397000 1.10811410
Ta 2.97967041 6.32095500 3.16009926
Ta 2.97967041 2.10698500 3.16009926
Ta 0.00005959 0.00000000 1.10811410
Al 0.00000000 6.32095500 -1.0533664200000032 0 0 0
Al 2.97973000 0.00000000 -3.1603624700000026 0 0 0
Al 0.00000000 2.10698500 -1.0533664200000032 0 0 0
Al 2.97973000 4.21397000 -3.1603624700000026 0 0 0
Al 0.00000000 2.10698500 3.20537138
Al 2.97973000 4.21397000 1.08442520
Al 0.00000000 6.32095500 3.20537138
Al 2.97973000 0.00000000 1.08442520
Co 1.48986500 0.00000000 -1.0533664200000032 0 0 0
Co 4.46959500 4.21397000 -1.0533664200000032 0 0 0
Co 4.46959500 0.00000000 -1.0533664200000032 0 0 0
Co 1.48986500 4.21397000 -1.0533664200000032 0 0 0
Co 4.46959500 6.32095500 -3.1603624700000026 0 0 0
Co 1.48986500 2.10698500 -3.1603624700000026 0 0 0
Co 1.48986500 6.32095500 -3.1603624700000026 0 0 0
Co 4.46959500 2.10698500 -3.1603624700000026 0 0 0
Co 1.48664689 4.21397000 3.08113626
Co 4.47287270 0.00000000 3.08113626
Co 4.47281311 4.21397000 3.08113626
Co 1.48664689 0.00000000 3.08113626
Co 4.44772378 2.10698500 1.06205235
Co 1.51179581 6.32095500 1.06178914
Co 1.51179581 2.10698500 1.06205235
Co 4.44772378 6.32095500 1.06205235
