&CONTROL
calculation = 'relax'
prefix = 'scf'
pseudo_dir = '/vol0004/mdt0/data/hp150275/u10028/POT_KKJUS'
outdir = './data'
tprnfor = .true.
nstep = 50
disk_io = 'non'
/
&SYSTEM
ibrav = 0
ecutwfc = 50.0
ecutrho = 400
occupations = 'smearing'
smearing = 'mp'
degauss = 0.01
assume_isolated = 'esm'
esm_bc = 'bc1'
input_dft = 'BEEF-VDW'
nosym = .true.
nspin = 1
ntyp = 4
nat = 33
/
&ELECTRONS
electron_maxstep = 200
mixing_beta = 0.1
conv_thr = 1e-06
/
&IONS
ion_dynamics = 'bfgs'
upscale = 1.0
/
&CELL
/

K_POINTS {automatic}
9 6 2 0  0  0

ATOMIC_SPECIES
C 12.01 C.pbe-n-rrkjus_psl.1.0.0.UPF
In 114.8 In.pbe-dn-rrkjus_psl.1.0.0.UPF
Li 6.941 Li.pbe-sl-rrkjus_psl.1.0.0.UPF
Pt 195.0 Pt.pbe-n-rrkjus_psl.1.0.0.UPF

CELL_PARAMETERS {angstrom}
6.43375000 0.00000000 0.00000000
0.00000000 9.09870000 0.00000000
0.00000000 0.00000000 26.82400000

ATOMIC_POSITIONS {angstrom}
Li 0.00000000 6.82402500 -1.1373376000000022 0 0 0
Li 3.21687500 0.00000000 -3.412012800000003 0 0 0
Li 0.00000000 2.27467500 -1.1373376000000022 0 0 0
Li 3.21687500 4.54935000 -3.412012800000003 0 0 0
Li 1.60843750 2.27467500 -3.412012800000003 0 0 0
Li 1.60843750 6.82402500 -3.412012800000003 0 0 0
Li 4.82531250 4.54935000 -1.1373376000000022 0 0 0
Li 4.82531250 0.00000000 -1.1373376000000022 0 0 0
Li 0.13884033 2.08705981 3.41040336
Li 3.23386010 4.54935000 1.11802432
Li 0.13864731 7.01154921 3.41067160
Li 2.91242995 0.00000000 1.46459040
Li 1.58778516 6.79445422 1.05927976
Li 1.58778516 2.30424578 1.05927976
Li 4.65404608 0.00000000 3.74033856
Li 4.66543381 4.54935000 3.37231328
In 1.60843750 0.00000000 -1.1373376000000022 0 0 0
In 1.60843750 4.54935000 -1.1373376000000022 0 0 0
In 4.82531250 6.82402500 -3.412012800000003 0 0 0
In 4.82531250 2.27467500 -3.412012800000003 0 0 0
In 1.56932030 4.54944099 3.43669088
In 2.06008675 0.00000000 4.37660384
In 4.83624988 2.23800724 1.09871104
In 4.83637855 6.86069276 1.09897928
Pt 0.00000000 0.00000000 -3.412012800000003 0 0 0
Pt 3.21687500 2.27467500 -1.1373376000000022 0 0 0
Pt 3.21687500 6.82402500 -1.1373376000000022 0 0 0
Pt 0.00000000 4.54935000 -3.412012800000003 0 0 0
Pt 6.38684796 4.54935000 1.14511656
Pt 3.10801595 6.79763877 3.19178776
Pt 3.10795161 2.30106123 3.19178776
Pt 0.15852760 0.00000000 1.32537384
C 0.14089913 0.00000000 3.26340784
