&CONTROL
calculation = 'relax'
prefix = 'scf'
pseudo_dir = '/vol0004/mdt0/data/hp150275/u10028/POT_HYBRID_KKJUS_GBRV'
outdir = './data'
tprnfor = .true.
nstep = 50
disk_io = 'non'
/
&SYSTEM
ibrav = 0
ecutwfc = 50.0
ecutrho = 400
occupations = 'smearing'
smearing = 'mp'
degauss = 0.01
assume_isolated = 'esm'
esm_bc = 'bc1'
input_dft = 'BEEF-VDW'
nosym = .true.
nspin = 2
ntyp = 4
nat = 34
starting_magnetization(1) = 0.0
starting_magnetization(2) = 0.1
starting_magnetization(3) = 0.0
starting_magnetization(4) = 0.0
/
&ELECTRONS
electron_maxstep = 200
mixing_beta = 0.1
conv_thr = 1e-06
/
&IONS
ion_dynamics = 'bfgs'
upscale = 1.0
/
&CELL
/

K_POINTS {automatic}
9 6 2 0  0  0

ATOMIC_SPECIES
C 12.01 C.pbe-n-rrkjus_psl.1.0.0.UPF
Fe 55.84 fe_pbe_v1.5.uspp.F.UPF
O 15.99 O.pbe-n-rrkjus_psl.1.0.0.UPF
V 50.94 V.pbe-spnl-rrkjus_psl.1.0.0.UPF

CELL_PARAMETERS {angstrom}
5.79956000 0.00000000 0.00000000
0.00000000 8.20182000 0.00000000
0.00000000 0.00000000 26.15140000

ATOMIC_POSITIONS {angstrom}
V 1.44989000 2.05045500 23.07573385
V 1.44989000 0.00000000 25.12626512
V 1.46148912 2.05045500 1.02984213
V 1.45023797 0.00902200 3.13476832
V 1.44989000 6.15136500 23.07573385
V 1.44989000 4.10091000 25.12626512
V 1.44565632 6.15136500 1.06070078
V 1.45023797 4.09188800 3.13476832
V 4.34967000 2.05045500 23.07573385
V 4.34967000 0.00000000 25.12626512
V 4.33807088 2.05045500 1.02984213
V 4.34932203 0.00902200 3.13476832
V 4.34967000 6.15136500 23.07573385
V 4.34967000 4.10091000 25.12626512
V 4.35390368 6.15136500 1.06070078
V 4.34932203 4.09188800 3.13476832
Fe 0.00000000 0.00000000 23.07573385
Fe 0.00000000 2.05045500 25.12626512
Fe 0.00000000 0.05142541 1.09129792
Fe 0.00000000 2.05045500 3.10521724
Fe 0.00000000 4.10091000 23.07573385
Fe 0.00000000 6.15136500 25.12626512
Fe 0.00000000 4.04948459 1.09129792
Fe 0.00000000 6.15136500 2.96007697
Fe 2.89978000 0.00000000 23.07573385
Fe 2.89978000 2.05045500 25.12626512
Fe 2.89978000 8.18394003 1.07717617
Fe 2.89978000 2.05045500 2.90698962
Fe 2.89978000 4.10091000 23.07573385
Fe 2.89978000 6.15136500 25.12626512
Fe 2.89978000 4.11878997 1.07743768
Fe 2.89978000 6.15136500 2.99276622
C 0.00000000 2.05045500 4.87723610
O 0.00000000 2.05045500 6.04829579
