&CONTROL
calculation = 'relax'
prefix = 'scf'
pseudo_dir = '/vol0004/mdt0/data/hp150275/u10028/POT_KKJUS'
outdir = './data'
tprnfor = .true.
nstep = 50
disk_io = 'non'
/
&SYSTEM
ibrav = 0
ecutwfc = 50.0
ecutrho = 400
occupations = 'smearing'
smearing = 'mp'
degauss = 0.01
assume_isolated = 'esm'
esm_bc = 'bc1'
input_dft = 'BEEF-VDW'
nosym = .true.
nspin = 1
ntyp = 4
nat = 17
/
&ELECTRONS
electron_maxstep = 200
mixing_beta = 0.1
conv_thr = 1e-06
/
&IONS
ion_dynamics = 'bfgs'
upscale = 1.0
/
&CELL
/

K_POINTS {automatic}
8 8 1 0 0 0

ATOMIC_SPECIES
Ag 107.8 Ag.pbe-n-rrkjus_psl.1.0.0.UPF
C 12.01 C.pbe-n-rrkjus_psl.1.0.0.UPF
Ge 72.64 Ge.pbe-dn-rrkjus_psl.1.0.0.UPF
Li 6.941 Li.pbe-sl-rrkjus_psl.1.0.0.UPF

CELL_PARAMETERS {angstrom}
6.51415000 0.00000000 0.00000000
0.00000000 6.51415000 0.00000000
0.00000000 0.00000000 24.88560000

ATOMIC_POSITIONS {angstrom}
Li 0.00000000 0.00000000 -2.4427705000000017 0 0 0
Li 3.25707500 3.25707500 -2.4427705000000017 0 0 0
Li 3.25720528 0.00000000 0.91678550
Li 6.51408486 3.25687958 0.77468873
Ag 1.62853750 1.62853750 -0.8142568300000015 0 0 0
Ag 4.97348838 4.79584751 2.54206404
Ag 4.88561250 1.62853750 -0.8142568300000015 0 0 0
Ag 1.53929365 4.79500067 2.54106862
Ag 4.88561250 4.88561250 -0.8142568300000015 0 0 0
Ag 1.53916336 1.72032187 2.53982434
Ag 1.62853750 4.88561250 -0.8142568300000015 0 0 0
Ag 4.97570319 1.71960532 2.54007319
Ge 0.00078170 6.51317288 0.94590166
Ge 3.25707500 0.00000000 -2.4427705000000017 0 0 0
Ge 0.00000000 3.25707500 -2.4427705000000017 0 0 0
Ge 3.25603274 3.25798698 0.94415966
C 6.51395458 3.25720528 3.10995343
