&CONTROL
calculation = 'relax'
prefix = 'scf'
pseudo_dir = '/vol0004/mdt0/data/hp150275/u10028/POT_KKJUS'
outdir = './data'
tprnfor = .true.
nstep = 50
disk_io = 'non'
/
&SYSTEM
ibrav = 0
ecutwfc = 50.0
ecutrho = 400
occupations = 'smearing'
smearing = 'mp'
degauss = 0.01
assume_isolated = 'esm'
esm_bc = 'bc1'
input_dft = 'BEEF-VDW'
nosym = .true.
nspin = 1
ntyp = 4
nat = 33
/
&ELECTRONS
electron_maxstep = 200
mixing_beta = 0.1
conv_thr = 1e-06
/
&IONS
ion_dynamics = 'bfgs'
upscale = 1.0
/
&CELL
/

K_POINTS {automatic}
8 6 1 0 0 0

ATOMIC_SPECIES
C 12.01 C.pbe-n-rrkjus_psl.1.0.0.UPF
Ni 58.69 Ni.pbe-spn-rrkjus_psl.1.0.0.UPF
Sn 118.7 Sn.pbe-dn-rrkjus_psl.1.0.0.UPF
V 50.94 V.pbe-spnl-rrkjus_psl.1.0.0.UPF

CELL_PARAMETERS {angstrom}
6.08368000 0.00000000 0.00000000
0.00000000 8.60362000 0.00000000
0.00000000 0.00000000 26.45270000

ATOMIC_POSITIONS {angstrom}
V 0.00000000 0.00000000 -3.226435819999999 0 0 0
V 3.04184000 2.15090500 -1.075566779999999 0 0 0
V 3.04184000 6.45271500 -1.075566779999999 0 0 0
V 0.00000000 4.30181000 -3.226435819999999 0 0 0
V 6.04225014 4.32564203 1.08535428
V 3.01957373 6.45280104 3.01957570
V 3.25452545 2.15081896 2.98042571
V 6.04243265 8.57961590 1.08535428
Ni 1.52092000 0.00000000 -1.075566779999999 0 0 0
Ni 4.56276000 4.30181000 -1.075566779999999 0 0 0
Ni 4.56276000 0.00000000 -1.075566779999999 0 0 0
Ni 1.52092000 4.30181000 -1.075566779999999 0 0 0
Ni 4.56276000 6.45271500 -3.226435819999999 0 0 0
Ni 1.52092000 2.15090500 -3.226435819999999 0 0 0
Ni 1.52092000 6.45271500 -3.226435819999999 0 0 0
Ni 4.56276000 2.15090500 -3.226435819999999 0 0 0
Ni 1.39529201 4.11296054 3.12168313
Ni 4.55260025 8.55105188 3.05396422
Ni 4.55266109 4.35446415 3.05396422
Ni 1.39498782 0.18902153 3.12194765
Ni 4.68181762 2.15081896 1.07424415
Ni 1.40143652 6.45254293 1.18455191
Ni 1.12590666 2.15099104 1.49616471
Ni 4.69416749 6.45262896 1.23322487
Sn 0.00000000 6.45271500 -1.075566779999999 0 0 0
Sn 3.04184000 0.00000000 -3.226435819999999 0 0 0
Sn 0.00000000 2.15090500 -1.075566779999999 0 0 0
Sn 3.04184000 4.30181000 -3.226435819999999 0 0 0
Sn 5.57143414 2.15116311 4.40199381
Sn 2.99018956 4.28004284 1.02689381
Sn 0.09539210 6.45245689 3.61105808
Sn 2.99006788 0.02185319 1.02689381
C 1.46975625 2.15081896 3.48858208
