&CONTROL
calculation = 'relax'
prefix = 'scf'
pseudo_dir = '/vol0004/mdt0/data/hp150275/u10028/POT_KKJUS'
outdir = './data'
tprnfor = .true.
nstep = 50
disk_io = 'non'
/
&SYSTEM
ibrav = 0
ecutwfc = 50.0
ecutrho = 400
occupations = 'smearing'
smearing = 'mp'
degauss = 0.01
assume_isolated = 'esm'
esm_bc = 'bc1'
input_dft = 'BEEF-VDW'
nosym = .true.
nspin = 1
ntyp = 3
nat = 16
/
&ELECTRONS
electron_maxstep = 200
mixing_beta = 0.1
conv_thr = 1e-06
/
&IONS
ion_dynamics = 'bfgs'
upscale = 1.0
/
&CELL
/

K_POINTS {automatic}
10 10 2 0  0  0

ATOMIC_SPECIES
In 114.8 In.pbe-dn-rrkjus_psl.1.0.0.UPF
Li 6.941 Li.pbe-sl-rrkjus_psl.1.0.0.UPF
Rh 102.9 Rh.pbe-spn-rrkjus_psl.1.0.0.UPF

CELL_PARAMETERS {angstrom}
6.34973000 0.00000000 0.00000000
0.00000000 6.34973000 0.00000000
0.00000000 0.00000000 24.76230000

ATOMIC_POSITIONS {angstrom}
Li 0.00012699 6.34960301 0.63341963
Li 3.17486500 0.00000000 -2.3811427700000003 0 0 0
Li 0.00000000 3.17486500 -2.3811427700000003 0 0 0
Li 3.17499199 3.17467451 0.63341963
Li 1.58755949 1.58730551 2.44081991
Li 1.58743250 4.76229750 -0.7936317200000005 0 0 0
Li 4.76242449 4.76217051 2.44081991
Li 4.76229750 1.58743250 -0.7936317200000005 0 0 0
In 1.58743250 1.58743250 -0.7936317200000005 0 0 0
In 1.58755949 4.76210701 2.40144785
In 4.76229750 4.76229750 -0.7936317200000005 0 0 0
In 4.76255149 1.58724201 2.40169548
Rh 0.00000000 0.00000000 -2.3811427700000003 0 0 0
Rh 3.17486500 3.17486500 -2.3811427700000003 0 0 0
Rh 3.17365855 0.00165093 0.93056723
Rh 6.34903153 3.17562697 0.93081486
