&CONTROL
calculation = 'relax'
prefix = 'scf'
pseudo_dir = '/vol0004/mdt0/data/hp150275/u10028/POT_HYBRID_KKJUS_GBRV'
outdir = './data'
tprnfor = .true.
nstep = 50
disk_io = 'non'
/
&SYSTEM
ibrav = 0
ecutwfc = 50.0
ecutrho = 400
occupations = 'smearing'
smearing = 'mp'
degauss = 0.01
assume_isolated = 'esm'
esm_bc = 'bc1'
input_dft = 'BEEF-VDW'
nosym = .true.
nspin = 2
ntyp = 4
nat = 33
starting_magnetization(1) = 0.0
starting_magnetization(2) = 0.0
starting_magnetization(3) = 0.1
starting_magnetization(4) = 0.0
/
&ELECTRONS
electron_maxstep = 200
mixing_beta = 0.1
conv_thr = 1e-06
/
&IONS
ion_dynamics = 'bfgs'
upscale = 1.0
/
&CELL
/

K_POINTS {automatic}
9 6 2 0  0  0

ATOMIC_SPECIES
Al 26.98 Al.pbe-nl-rrkjus_psl.1.0.0.UPF
C 12.01 C.pbe-n-rrkjus_psl.1.0.0.UPF
Co 58.93 co_pbe_v1.2.uspp.F.UPF
Ta 180.9 Ta.pbe-spn-rrkjus_psl.1.0.0.UPF

CELL_PARAMETERS {angstrom}
5.95946000 0.00000000 0.00000000
0.00000000 8.42794000 0.00000000
0.00000000 0.00000000 26.32100000

ATOMIC_POSITIONS {angstrom}
Ta 0.00000000 0.00000000 23.16063753
Ta 2.97973000 2.10698500 25.26763358
Ta 2.97973000 6.32095500 25.26763358
Ta 0.00000000 4.21397000 23.16063753
Ta 0.00000000 4.21397000 1.07021186
Ta 2.97973000 6.31615107 3.15878321
Ta 2.97973000 2.11178893 3.15878321
Ta 0.00000000 0.00000000 1.04941827
Al 0.00000000 6.32095500 25.26763358
Al 2.97973000 0.00000000 23.16063753
Al 0.00000000 2.10698500 25.26763358
Al 2.97973000 4.21397000 23.16063753
Al 0.00000000 2.11355879 3.17141729
Al 2.97973000 4.21397000 1.06284198
Al 0.00000000 6.31438121 3.17141729
Al 2.97973000 0.00000000 1.05389284
Co 1.48986500 0.00000000 25.26763358
Co 4.46959500 4.21397000 25.26763358
Co 4.46959500 0.00000000 25.26763358
Co 1.48986500 4.21397000 25.26763358
Co 4.46959500 6.32095500 23.16063753
Co 1.48986500 2.10698500 23.16063753
Co 1.48986500 6.32095500 23.16063753
Co 4.46959500 2.10698500 23.16063753
Co 1.48736203 4.21397000 3.13983209
Co 4.42621013 0.00000000 3.14483308
Co 4.47209797 4.21397000 3.13983209
Co 1.53324987 0.00000000 3.14483308
Co 4.46578095 2.10395094 1.05863062
Co 1.49367905 6.32398906 1.05889383
Co 1.49367905 2.10395094 1.05863062
Co 4.46578095 6.32398906 1.05889383
C 0.00000000 0.00000000 3.97447100
