&CONTROL
calculation = 'relax'
prefix = 'scf'
pseudo_dir = '/vol0004/mdt0/data/hp150275/u10028/POT_KKJUS'
outdir = './data'
tprnfor = .true.
nstep = 50
disk_io = 'non'
/
&SYSTEM
ibrav = 0
ecutwfc = 50.0
ecutrho = 400
occupations = 'smearing'
smearing = 'mp'
degauss = 0.01
assume_isolated = 'esm'
esm_bc = 'bc1'
input_dft = 'BEEF-VDW'
nosym = .true.
nspin = 1
ntyp = 4
nat = 18
/
&ELECTRONS
electron_maxstep = 200
mixing_beta = 0.1
conv_thr = 1e-06
/
&IONS
ion_dynamics = 'bfgs'
upscale = 1.0
/
&CELL
/

K_POINTS {automatic}
8 11 2 0  0  0

ATOMIC_SPECIES
C 12.01 C.pbe-n-rrkjus_psl.1.0.0.UPF
Ge 72.64 Ge.pbe-dn-rrkjus_psl.1.0.0.UPF
Nb 92.90 Nb.pbe-spn-rrkjus_psl.1.0.0.UPF
O 15.99 O.pbe-n-rrkjus_psl.1.0.0.UPF

CELL_PARAMETERS {angstrom}
8.21286000 0.00000000 0.00000000
0.00000000 5.80737000 0.00000000
0.00000000 0.00000000 24.35550000

ATOMIC_POSITIONS {angstrom}
Nb 0.00000000 2.90368500 -2.1778688099999997 0 0 0
Nb 2.05321500 4.35552750 -0.7260374600000006 0 0 0
Nb 2.05321500 1.45184250 -0.7260374600000006 0 0 0
Nb 0.01289419 5.50108931 0.72214057
Nb 2.05288649 1.00467501 2.18980300
Nb 2.05305074 3.75411626 2.13037558
Nb 4.10643000 2.90368500 -2.1778688099999997 0 0 0
Nb 6.15964500 4.35552750 -0.7260374600000006 0 0 0
Nb 6.15964500 1.45184250 -0.7260374600000006 0 0 0
Nb 4.09337155 5.50126353 0.72238413
Nb 6.15989139 1.06147109 2.04829755
Nb 6.15980926 3.71067714 1.90849698
Ge 0.00000000 0.00000000 -2.1778688099999997 0 0 0
Ge 0.04705969 2.62940291 0.68122333
Ge 4.10643000 0.00000000 -2.1778688099999997 0 0 0
Ge 4.05945244 2.62980943 0.68024911
C 2.05305074 2.26946212 3.83282503
O 2.05313287 3.30648418 4.47313113
