&CONTROL
calculation = 'relax'
prefix = 'scf'
pseudo_dir = '/vol0004/mdt0/data/hp150275/u10028/POT_HYBRID_KKJUS_GBRV'
outdir = './data'
tprnfor = .true.
nstep = 50
disk_io = 'non'
/
&SYSTEM
ibrav = 0
ecutwfc = 50.0
ecutrho = 400
occupations = 'smearing'
smearing = 'mp'
degauss = 0.01
assume_isolated = 'esm'
esm_bc = 'bc1'
input_dft = 'BEEF-VDW'
nosym = .true.
nspin = 2
ntyp = 4
nat = 18
starting_magnetization(1) = 0.0
starting_magnetization(2) = 0.001
starting_magnetization(3) = 0.0
starting_magnetization(4) = 0.0
/
&ELECTRONS
electron_maxstep = 400
mixing_beta = 0.1
conv_thr = 1e-06
/
&IONS
ion_dynamics = 'bfgs'
upscale = 1.0
/
&CELL
/

K_POINTS {automatic}
8 8 1 0 0 0

ATOMIC_SPECIES
C 12.01 C.pbe-n-rrkjus_psl.1.0.0.UPF
Ni 58.69 ni_pbe_v1.4.uspp.F.UPF
O 15.99 O.pbe-n-rrkjus_psl.1.0.0.UPF
Pt 195.0 Pt.pbe-n-rrkjus_psl.1.0.0.UPF

CELL_PARAMETERS {angstrom}
5.63476000 0.00000000 0.00000000
0.00000000 5.63476000 0.00000000
0.00000000 0.00000000 25.27280000

ATOMIC_POSITIONS {angstrom}
Ni 1.40869000 1.40869000 -0.40638661999999925 0 0 0
Ni 1.40869000 1.40869000 3.10880713
Ni 1.40869000 4.22607000 -0.40638661999999925 0 0 0
Ni 1.40869000 4.22607000 3.10880713
Ni 4.22607000 1.40869000 -0.40638661999999925 0 0 0
Ni 4.22607000 1.40869000 3.10880713
Ni 4.22607000 4.22607000 -0.40638661999999925 0 0 0
Ni 4.22607000 4.22607000 3.10880713
Pt 0.00000000 0.00000000 -2.16410986 0 0 0
Pt 0.00000000 0.00000000 1.35108389
Pt 0.00000000 2.81738000 -2.16410986 0 0 0
Pt 0.00000000 2.81738000 1.35108389
Pt 2.81738000 0.00000000 -2.16410986 0 0 0
Pt 2.81738000 0.00000000 1.35108389
Pt 2.81738000 2.81738000 -2.16410986 0 0 0
Pt 2.81738000 2.81738000 1.35108389
C 1.40869000 1.40869000 5.00881623
O 1.40869000 1.40869000 6.15872863
