&CONTROL
calculation = 'relax'
prefix = 'scf'
pseudo_dir = '/vol0004/mdt0/data/hp150275/u10028/POT_KKJUS'
outdir = './data'
tprnfor = .true.
nstep = 50
disk_io = 'non'
/
&SYSTEM
ibrav = 0
ecutwfc = 50.0
ecutrho = 400
occupations = 'smearing'
smearing = 'mp'
degauss = 0.01
assume_isolated = 'esm'
esm_bc = 'bc1'
input_dft = 'BEEF-VDW'
nosym = .true.
nspin = 1
ntyp = 3
nat = 17
/
&ELECTRONS
electron_maxstep = 200
mixing_beta = 0.1
conv_thr = 1e-06
/
&IONS
ion_dynamics = 'bfgs'
upscale = 1.0
/
&CELL
/

K_POINTS {automatic}
8 11 2 0  0  0

ATOMIC_SPECIES
C 12.01 C.pbe-n-rrkjus_psl.1.0.0.UPF
V 50.94 V.pbe-spnl-rrkjus_psl.1.0.0.UPF
Zn 65.40 Zn.pbe-dnl-rrkjus_psl.1.0.0.UPF

CELL_PARAMETERS {angstrom}
7.64728000 0.00000000 0.00000000
0.00000000 5.40744000 0.00000000
0.00000000 0.00000000 24.05560000

ATOMIC_POSITIONS {angstrom}
V 0.34894539 0.09003388 1.99036034
V 0.00000000 2.70372000 -0.6759623599999998 0 0 0
V 3.47461814 0.09003388 1.99011979
V 3.82364000 2.70372000 -0.6759623599999998 0 0 0
Zn 0.11363858 2.77650414 2.17895625
Zn 1.91128469 4.01226641 0.63554895
Zn 1.91120822 1.46974219 0.52657708
Zn 0.00000000 0.00000000 -0.6759623599999998 0 0 0
Zn 1.91182000 1.35186000 -2.0278870799999993 0 0 0
Zn 1.91182000 4.05558000 -2.0278870799999993 0 0 0
Zn 3.70977200 2.77650414 2.17943736
Zn 5.73607178 4.11165515 0.92012670
Zn 5.73607178 1.37143493 0.95741288
Zn 3.82364000 0.00000000 -0.6759623599999998 0 0 0
Zn 5.73546000 1.35186000 -2.0278870799999993 0 0 0
Zn 5.73546000 4.05558000 -2.0278870799999993 0 0 0
C 1.91182000 0.89812171 2.63216375
