&CONTROL
calculation = 'relax'
prefix = 'scf'
pseudo_dir = '/vol0004/mdt0/data/hp150275/u10028/POT_KKJUS'
outdir = './data'
tprnfor = .true.
nstep = 50
disk_io = 'non'
/
&SYSTEM
ibrav = 0
ecutwfc = 50.0
ecutrho = 400
occupations = 'smearing'
smearing = 'mp'
degauss = 0.01
assume_isolated = 'esm'
esm_bc = 'bc1'
input_dft = 'BEEF-VDW'
nosym = .true.
nspin = 1
ntyp = 4
nat = 18
/
&ELECTRONS
electron_maxstep = 200
mixing_beta = 0.1
conv_thr = 1e-06
/
&IONS
ion_dynamics = 'bfgs'
upscale = 1.0
/
&CELL
/

K_POINTS {automatic}
8 11 2 0  0  0

ATOMIC_SPECIES
C 12.01 C.pbe-n-rrkjus_psl.1.0.0.UPF
O 15.99 O.pbe-n-rrkjus_psl.1.0.0.UPF
Pt 195.0 Pt.pbe-n-rrkjus_psl.1.0.0.UPF
Sc 44.95 Sc.pbe-spn-rrkjus_psl.1.0.0.UPF

CELL_PARAMETERS {angstrom}
8.06651000 0.00000000 0.00000000
0.00000000 5.70388000 0.00000000
0.00000000 0.00000000 24.27790000

ATOMIC_POSITIONS {angstrom}
Sc 0.00000000 0.00000000 2.01725071
Sc 0.00000000 2.85194000 -0.7130419199999984 0 0 0
Sc 4.03325500 0.00005704 1.96286822
Sc 4.03325500 2.85194000 -0.7130419199999984 0 0 0
Pt 0.00000000 2.85194000 1.96650990
Pt 2.00960964 4.31675342 0.83127530
Pt 2.00960964 1.38718362 0.83127530
Pt 0.00000000 0.00000000 -0.7130419199999984 0 0 0
Pt 2.01662750 1.42597000 -2.138882989999999 0 0 0
Pt 2.01662750 4.27791000 -2.138882989999999 0 0 0
Pt 4.03325500 2.85194000 1.95072927
Pt 6.05690036 4.31675342 0.83127530
Pt 6.05690036 1.38718362 0.83127530
Pt 4.03325500 0.00000000 -0.7130419199999984 0 0 0
Pt 6.04988250 1.42597000 -2.138882989999999 0 0 0
Pt 6.04988250 4.27791000 -2.138882989999999 0 0 0
C 0.00000000 0.00000000 4.48631314
O 0.00000000 0.00000000 5.62518943
