&CONTROL
calculation = 'relax'
prefix = 'scf'
pseudo_dir = '/vol0004/mdt0/data/hp150275/u10028/POT_HYBRID_KKJUS_GBRV'
outdir = './data'
tprnfor = .true.
nstep = 50
disk_io = 'non'
/
&SYSTEM
ibrav = 0
ecutwfc = 50.0
ecutrho = 400
occupations = 'smearing'
smearing = 'mp'
degauss = 0.01
assume_isolated = 'esm'
esm_bc = 'bc1'
input_dft = 'BEEF-VDW'
nosym = .true.
nspin = 2
ntyp = 5
nat = 34
starting_magnetization(1) = 0.0
starting_magnetization(2) = 0.1
starting_magnetization(3) = 0.0
starting_magnetization(4) = 0.0
starting_magnetization(5) = 0.0
/
&ELECTRONS
electron_maxstep = 300
mixing_beta = 0.1
conv_thr = 1e-06
/
&IONS
ion_dynamics = 'bfgs'
upscale = 1.0
/
&CELL
/

K_POINTS {automatic}
8 6 1 0 0 0

ATOMIC_SPECIES
C 12.01 C.pbe-n-rrkjus_psl.1.0.0.UPF
Co 58.93 co_pbe_v1.2.uspp.F.UPF
Nb 92.90 Nb.pbe-spn-rrkjus_psl.1.0.0.UPF
O 15.99 O.pbe-n-rrkjus_psl.1.0.0.UPF
Sn 118.7 Sn.pbe-dn-rrkjus_psl.1.0.0.UPF

CELL_PARAMETERS {angstrom}
6.19479000 0.00000000 0.00000000
0.00000000 8.76076000 0.00000000
0.00000000 0.00000000 26.57060000

ATOMIC_POSITIONS {angstrom}
Nb 0.00000000 0.00000000 -3.2851889799999974 0 0 0
Nb 3.09739500 2.19019000 -1.0949744300000006 0 0 0
Nb 3.09739500 6.57057000 -1.0949744300000006 0 0 0
Nb 0.00000000 4.38038000 -3.2851889799999974 0 0 0
Nb 0.00000000 4.39194420 1.18451735
Nb 3.09739500 6.57057000 3.22567084
Nb 3.09739500 2.19019000 3.27137227
Nb 0.00000000 8.74919580 1.18451735
Co 1.54869750 0.00000000 -1.0949744300000006 0 0 0
Co 4.64609250 4.38038000 -1.0949744300000006 0 0 0
Co 4.64609250 0.00000000 -1.0949744300000006 0 0 0
Co 1.54869750 4.38038000 -1.0949744300000006 0 0 0
Co 4.64609250 6.57057000 -3.2851889799999974 0 0 0
Co 1.54869750 2.19019000 -3.2851889799999974 0 0 0
Co 1.54869750 6.57057000 -3.2851889799999974 0 0 0
Co 4.64609250 2.19019000 -3.2851889799999974 0 0 0
Co 1.58462728 4.39877760 3.12417115
Co 4.61016272 8.74236240 3.12417115
Co 4.61016272 4.39877760 3.12417115
Co 1.58462728 8.74236240 3.12417115
Co 4.72482828 2.19010239 1.10081996
Co 1.55216658 6.57057000 1.15714963
Co 1.46996172 2.19010239 1.10081996
Co 4.64262342 6.57065761 1.15688392
Sn 0.00000000 6.57057000 -1.0949744300000006 0 0 0
Sn 3.09739500 0.00000000 -3.2851889799999974 0 0 0
Sn 0.00000000 2.19019000 -1.0949744300000006 0 0 0
Sn 3.09739500 4.38038000 -3.2851889799999974 0 0 0
Sn 0.00000000 2.19019000 3.55275493
Sn 3.09739500 4.35068102 1.04953870
Sn 0.00000000 6.57057000 3.60563042
Sn 3.09739500 0.02969898 1.04953870
C 3.09739500 2.19019000 5.40260010
O 3.09739500 2.19019000 6.55868690
