&CONTROL
calculation = 'relax'
prefix = 'scf'
pseudo_dir = '/vol0403/data/hp230205/u10028/POT_HYBRID_KKJUS_GBRV'
outdir = './data'
tprnfor = .true.
nstep = 50
disk_io = 'non'
/
&SYSTEM
ibrav = 0
ecutwfc = 50.0
ecutrho = 400
occupations = 'smearing'
smearing = 'mp'
degauss = 0.01
assume_isolated = 'esm'
esm_bc = 'bc1'
input_dft = 'BEEF-VDW'
nosym = .true.
nspin = 1
ntyp = 6
nat = 18
/
&ELECTRONS
electron_maxstep = 200
mixing_beta = 0.1
conv_thr = 1e-06
/
&IONS
ion_dynamics = 'bfgs'
upscale = 1.0
/
&CELL
/

K_POINTS {automatic}
11 8 2 0  0  0

ATOMIC_SPECIES
C 12.01 C.pbe-n-rrkjus_psl.1.0.0.UPF
Ge 72.64 Ge.pbe-dn-rrkjus_psl.1.0.0.UPF
In 114.8 In.pbe-dn-rrkjus_psl.1.0.0.UPF
Li 6.941 Li.pbe-sl-rrkjus_psl.1.0.0.UPF
O 15.99 O.pbe-n-rrkjus_psl.1.0.0.UPF
Y 88.90 Y.pbe-spn-rrkjus_psl.1.0.0.UPF


CELL_PARAMETERS {angstrom}
6.30439000 0.00000000 0.00000000
0.00000000 8.57642000 0.00000000
0.00000000 0.00000000 24.70800000

ATOMIC_POSITIONS {angstrom}
Li 4.92675470 2.14573452 1.24009452
Li 1.13895110 2.14410500 -2.3539311599999984 0 0 0
Li 4.92662861 6.43077124 1.23984744
Li 1.13895110 6.43231500 -2.3539311599999984 0 0 0
Y 1.62363260 2.13887338 0.86527416
Y 4.29114610 2.14410500 -2.3539311599999984 0 0 0
Y 1.62363260 6.43754662 0.86527416
Y 4.29114610 6.43231500 -2.3539311599999984 0 0 0
In 3.50599737 0.00000000 2.42434896
In 6.01300109 0.00000000 -0.7847260799999987 0 0 0
In 3.50341257 4.28821000 2.41150080
In 6.01300109 4.28821000 -0.7847260799999987 0 0 0
Ge 0.03751112 0.00000000 2.04631656
Ge 2.86080609 0.00000000 -0.7847260799999987 0 0 0
Ge 0.04671553 4.28821000 2.04384576
Ge 2.86080609 4.28821000 -0.7847260799999987 0 0 0
C 3.42612075 0.00000000 5.65244916
O 2.99193741 8.57633424 6.70031544
