&CONTROL
calculation = 'relax'
prefix = 'scf'
pseudo_dir = '/vol0004/mdt0/data/hp150275/u10028/POT_KKJUS'
outdir = './data'
tprnfor = .true.
nstep = 50
disk_io = 'non'
/
&SYSTEM
ibrav = 0
ecutwfc = 50.0
ecutrho = 400
occupations = 'smearing'
smearing = 'mp'
degauss = 0.01
assume_isolated = 'esm'
esm_bc = 'bc1'
input_dft = 'BEEF-VDW'
nosym = .true.
nspin = 1
ntyp = 3
nat = 33
/
&ELECTRONS
electron_maxstep = 200
mixing_beta = 0.1
conv_thr = 1e-06
/
&IONS
ion_dynamics = 'bfgs'
upscale = 1.0
/
&CELL
/

K_POINTS {automatic}
6 6 1 0 0 0

ATOMIC_SPECIES
C 12.01 C.pbe-n-rrkjus_psl.1.0.0.UPF
Ni 58.69 Ni.pbe-spn-rrkjus_psl.1.0.0.UPF
Sn 118.7 Sn.pbe-dn-rrkjus_psl.1.0.0.UPF

CELL_PARAMETERS {angstrom}
7.54412000 0.00000000 0.00000000
0.00000000 7.54412000 0.00000000
0.00000000 0.00000000 25.65810000

ATOMIC_POSITIONS {angstrom}
Ni 0.00000000 1.88603000 -0.9429351700000019 0 0 0
Ni 1.88603000 0.00000000 -0.9429351700000019 0 0 0
Ni 1.88603000 1.88603000 -2.8290621100000024 0 0 0
Ni 0.00045265 1.79783924 2.87216771
Ni 1.80032880 7.54396912 2.87524669
Ni 1.87448750 1.87448750 0.95345500
Ni 0.00000000 5.65809000 -0.9429351700000019 0 0 0
Ni 1.88603000 3.77206000 -0.9429351700000019 0 0 0
Ni 1.88603000 5.65809000 -2.8290621100000024 0 0 0
Ni 0.00060353 5.74597900 2.87242430
Ni 1.88029647 3.77198456 2.75157464
Ni 1.87494014 5.66970794 0.95396816
Ni 3.77206000 1.88603000 -0.9429351700000019 0 0 0
Ni 5.65809000 0.00000000 -0.9429351700000019 0 0 0
Ni 5.65809000 1.88603000 -2.8290621100000024 0 0 0
Ni 3.77213544 1.87954206 2.75516678
Ni 5.74492282 0.00000000 2.87396378
Ni 5.66933074 1.87463838 0.95242867
Ni 3.77206000 5.65809000 -0.9429351700000019 0 0 0
Ni 5.65809000 3.77206000 -0.9429351700000019 0 0 0
Ni 5.65809000 5.65809000 -2.8290621100000024 0 0 0
Ni 3.77160735 5.66450250 2.75439704
Ni 5.66374809 3.77206000 2.75260097
Ni 5.66970794 5.66955706 0.95396816
Sn 0.00000000 0.00000000 -2.8290621100000024 0 0 0
Sn 7.54381824 7.54359191 0.86159900
Sn 0.00000000 3.77206000 -2.8290621100000024 0 0 0
Sn 0.00098074 3.77175824 0.98501446
Sn 3.77206000 0.00000000 -2.8290621100000024 0 0 0
Sn 3.77206000 0.00007544 0.98552762
Sn 3.77206000 3.77206000 -2.8290621100000024 0 0 0
Sn 3.77190912 3.77243721 0.96217875
C 0.00022632 7.54396912 3.40970491
