&CONTROL
calculation = 'relax'
prefix = 'scf'
pseudo_dir = '/vol0403/data/hp230205/u10028/POT_HYBRID_KKJUS_GBRV'
outdir = './data'
tprnfor = .true.
nstep = 70
disk_io = 'non'
/
&SYSTEM
ibrav = 0
ecutwfc = 50.0
ecutrho = 400
occupations = 'smearing'
smearing = 'mp'
degauss = 0.01
assume_isolated = 'esm'
esm_bc = 'bc1'
input_dft = 'BEEF-VDW'
nosym = .true.
nspin = 1
ntyp = 4
nat = 32
/
&ELECTRONS
electron_maxstep = 200
mixing_beta = 0.1
conv_thr = 1e-06
/
&IONS
ion_dynamics = 'bfgs'
upscale = 1.0
/
&CELL
/

K_POINTS {automatic}
6 6 1 0 0 0

ATOMIC_SPECIES
Al 26.98 Al.pbe-nl-rrkjus_psl.1.0.0.UPF
Li 6.941 Li.pbe-sl-rrkjus_psl.1.0.0.UPF
Pd 106.4 Pd.pbe-n-rrkjus_psl.1.0.0.UPF
Pt 195.0 Pt.pbe-n-rrkjus_psl.1.0.0.UPF


CELL_PARAMETERS {angstrom}
6.06122000 0.00000000 0.00000000
-0.00000000 8.57186000 0.00000000
0.00000000 0.00000000 26.42890000

ATOMIC_POSITIONS {angstrom}
Li 0.00000000 2.14296500 -1.071427609999997 0 0 0
Li 0.00000000 6.42889500 -1.071427609999997 0 0 0
Li 3.03061000 4.28593000 -3.214547109999998 0 0 0
Li 3.03061000 0.00000000 -3.214547109999998 0 0 0
Li 0.02733610 6.42889500 3.67705286
Li 0.02733610 2.14296500 3.67705286
Li 3.02563980 -0.00000000 1.05742029
Li 3.02563980 4.28593000 1.05742029
Al 0.00000000 0.00000000 -3.214547109999998 0 0 0
Al 0.00000000 4.28593000 -3.214547109999998 0 0 0
Al 3.03061000 6.42889500 -1.071427609999997 0 0 0
Al 3.03061000 2.14296500 -1.071427609999997 0 0 0
Al 6.05921980 4.28593000 1.09098499
Al 6.05921980 -0.00000000 1.09098499
Al 2.98842391 2.14296500 3.17913238
Al 2.98842391 6.42889500 3.17913238
Pd 4.54591500 0.00000000 -1.071427609999997 0 0 0
Pd 4.54591500 4.28593000 -1.071427609999997 0 0 0
Pd 1.51530500 2.14296500 -3.214547109999998 0 0 0
Pd 1.51530500 6.42889500 -3.214547109999998 0 0 0
Pd 4.50003156 4.28593000 3.14979630
Pd 4.50003156 -0.00000000 3.14979630
Pd 1.47911952 6.42889500 1.03892006
Pd 1.47911952 2.14296500 1.03892006
Pt 1.51530500 0.00000000 -1.071427609999997 0 0 0
Pt 1.51530500 4.28593000 -1.071427609999997 0 0 0
Pt 4.54591500 2.14296500 -3.214547109999998 0 0 0
Pt 4.54591500 6.42889500 -3.214547109999998 0 0 0
Pt 1.56858312 4.28593000 3.12151738
Pt 1.56858312 -0.00000000 3.12151738
Pt 4.56228029 6.42889500 1.08860639
Pt 4.56228029 2.14296500 1.08860639
