&CONTROL
calculation = 'relax'
prefix = 'scf'
pseudo_dir = '/vol0004/mdt0/data/hp150275/u10028/POT_KKJUS'
outdir = './data'
tprnfor = .true.
nstep = 50
disk_io = 'non'
/
&SYSTEM
ibrav = 0
ecutwfc = 50.0
ecutrho = 400
occupations = 'smearing'
smearing = 'mp'
degauss = 0.01
assume_isolated = 'esm'
esm_bc = 'bc1'
input_dft = 'BEEF-VDW'
nosym = .true.
nspin = 1
ntyp = 5
nat = 34
/
&ELECTRONS
electron_maxstep = 200
mixing_beta = 0.1
conv_thr = 1e-06
/
&IONS
ion_dynamics = 'bfgs'
upscale = 1.0
/
&CELL
/

K_POINTS {automatic}
8 6 1 0 0 0

ATOMIC_SPECIES
C 12.01 C.pbe-n-rrkjus_psl.1.0.0.UPF
Cu 63.54 Cu.pbe-dn-rrkjus_psl.1.0.0.UPF
O 15.99 O.pbe-n-rrkjus_psl.1.0.0.UPF
Rh 102.9 Rh.pbe-spn-rrkjus_psl.1.0.0.UPF
Sn 118.7 Sn.pbe-dn-rrkjus_psl.1.0.0.UPF

CELL_PARAMETERS {angstrom}
6.25984000 0.00000000 0.00000000
0.00000000 8.85274000 0.00000000
0.00000000 0.00000000 26.63960000

ATOMIC_POSITIONS {angstrom}
Cu 0.00000000 0.00000000 -3.319826950000003 0 0 0
Cu 3.12992000 2.21318500 -1.1066089800000007 0 0 0
Cu 3.12992000 6.63955500 -1.1066089800000007 0 0 0
Cu 0.00000000 4.42637000 -3.319826950000003 0 0 0
Cu 0.00000000 4.41742873 1.10048188
Cu 3.12992000 6.63955500 3.32701964
Cu 3.12985740 2.21318500 3.39654900
Cu 0.00000000 0.00894127 1.10074827
Sn 0.00000000 6.63955500 -1.1066089800000007 0 0 0
Sn 3.12992000 0.00000000 -3.319826950000003 0 0 0
Sn 0.00000000 2.21318500 -1.1066089800000007 0 0 0
Sn 3.12992000 4.42637000 -3.319826950000003 0 0 0
Sn 0.00006260 2.21309647 3.37017580
Sn 3.12992000 4.43469158 1.06158806
Sn 0.00000000 6.63955500 3.44370109
Sn 3.12992000 8.84441842 1.06158806
Rh 1.56496000 0.00000000 -1.1066089800000007 0 0 0
Rh 4.69488000 4.42637000 -1.1066089800000007 0 0 0
Rh 4.69488000 0.00000000 -1.1066089800000007 0 0 0
Rh 1.56496000 4.42637000 -1.1066089800000007 0 0 0
Rh 4.69488000 6.63955500 -3.319826950000003 0 0 0
Rh 1.56496000 2.21318500 -3.319826950000003 0 0 0
Rh 1.56496000 6.63955500 -3.319826950000003 0 0 0
Rh 4.69488000 2.21318500 -3.319826950000003 0 0 0
Rh 1.56884110 4.45416760 3.20660865
Rh 4.69093630 8.82494240 3.20660865
Rh 4.69093630 4.45416760 3.20660865
Rh 1.56884110 8.82494240 3.20660865
Rh 4.68373748 2.21318500 1.12818706
Rh 1.54085962 6.63955500 1.11140411
Rh 1.57610252 2.21318500 1.12818706
Rh 4.71898038 6.63955500 1.11140411
C 3.12992000 2.21318500 5.25865704
O 3.12992000 2.21318500 6.40629101
