&CONTROL
calculation = 'relax'
prefix = 'scf'
pseudo_dir = '/vol0004/mdt0/data/hp150275/u10028/POT_KKJUS'
outdir = './data'
tprnfor = .true.
nstep = 50
disk_io = 'non'
/
&SYSTEM
ibrav = 0
ecutwfc = 50.0
ecutrho = 400
occupations = 'smearing'
smearing = 'mp'
degauss = 0.01
assume_isolated = 'esm'
esm_bc = 'bc1'
input_dft = 'BEEF-VDW'
nosym = .true.
nspin = 1
ntyp = 2
nat = 16
/
&ELECTRONS
electron_maxstep = 200
mixing_beta = 0.1
conv_thr = 1e-06
/
&IONS
ion_dynamics = 'bfgs'
upscale = 1.0
/
&CELL
/

K_POINTS {automatic}
8 8 1 0 0 0

ATOMIC_SPECIES
Al 26.98 Al.pbe-nl-rrkjus_psl.1.0.0.UPF
Ir 192.2 Ir.pbe-n-rrkjus_psl.0.2.3.UPF

CELL_PARAMETERS {angstrom}
6.03636000 0.00000000 0.00000000
-0.00000000 6.03636000 0.00000000
0.00000000 0.00000000 24.52730000

ATOMIC_POSITIONS {angstrom}
Al 0.00000000 0.00000000 -2.8324126000000014 0 0 0
Al 0.00000000 0.00000000 0.18567166
Al 0.00000000 3.01818000 -2.8324126000000014 0 0 0
Al 0.00000000 3.01818000 0.18567166
Al 3.01818000 0.00000000 -2.8324126000000014 0 0 0
Al 3.01818000 -0.00000000 0.18567166
Al 3.01818000 3.01818000 -2.8324126000000014 0 0 0
Al 3.01818000 3.01818000 0.18567166
Ir 1.50909000 1.50909000 -1.3232478299999997 0 0 0
Ir 1.50909000 1.50909000 1.69483643
Ir 1.50909000 4.52727000 -1.3232478299999997 0 0 0
Ir 1.50909000 4.52727000 1.69483643
Ir 4.52727000 1.50909000 -1.3232478299999997 0 0 0
Ir 4.52727000 1.50909000 1.69483643
Ir 4.52727000 4.52727000 -1.3232478299999997 0 0 0
Ir 4.52727000 4.52727000 1.69483643
