&CONTROL
calculation = 'relax'
prefix = 'scf'
pseudo_dir = '/vol0403/data/hp230205/u10028/POT_HYBRID_KKJUS_GBRV'
outdir = './data'
tprnfor = .true.
nstep = 50
disk_io = 'non'
/
&SYSTEM
ibrav = 0
ecutwfc = 50.0
ecutrho = 400
occupations = 'smearing'
smearing = 'mp'
degauss = 0.01
assume_isolated = 'esm'
esm_bc = 'bc1'
input_dft = 'BEEF-VDW'
nosym = .true.
nspin = 1
ntyp = 6
nat = 18
/
&ELECTRONS
electron_maxstep = 200
mixing_beta = 0.1
conv_thr = 1e-06
/
&IONS
ion_dynamics = 'bfgs'
upscale = 1.0
/
&CELL
/

K_POINTS {automatic}
6 6 1 0 0 0

ATOMIC_SPECIES
C 12.01 C.pbe-n-rrkjus_psl.1.0.0.UPF
In 114.8 In.pbe-dn-rrkjus_psl.1.0.0.UPF
Li 6.941 Li.pbe-sl-rrkjus_psl.1.0.0.UPF
O 15.99 O.pbe-n-rrkjus_psl.1.0.0.UPF
Pb 207.2 Pb.pbe-dn-rrkjus_psl.1.0.0.UPF
Y 88.90 Y.pbe-spn-rrkjus_psl.1.0.0.UPF


CELL_PARAMETERS {angstrom}
6.48172000 0.00000000 0.00000000
0.00000000 9.42336000 0.00000000
0.00000000 0.00000000 24.85820000

ATOMIC_POSITIONS {angstrom}
Li 3.51963878 0.00000000 2.48035120
Li 6.36589166 0.00000000 -0.8096315700000005 0 0 0
Li 3.49047104 4.71168000 2.36152900
Li 6.36589166 4.71168000 -0.8096315700000005 0 0 0
Y 1.71402604 2.34434350 0.81062590
Y 4.68751509 2.35584000 -2.4291433 0 0 0
Y 1.71396122 7.07901650 0.81062590
Y 4.68751509 7.06752000 -2.4291433 0 0 0
In 0.30613164 0.00000000 2.40677092
In 3.12503166 0.00000000 -0.8096315700000005 0 0 0
In 0.34709611 4.71168000 2.38663578
In 3.12503166 4.71168000 -0.8096315700000005 0 0 0
Pb 4.96979399 2.36988081 1.20089964
Pb 1.44665509 2.35584000 -2.4291433 0 0 0
Pb 4.96979399 7.05347919 1.20089964
Pb 1.44665509 7.06752000 -2.4291433 0 0 0
C 3.40439380 0.00000000 4.57639462
O 3.26678688 0.00009423 5.70918279
