&CONTROL
calculation = 'relax'
prefix = 'scf'
pseudo_dir = '/vol0403/data/hp230205/u10028/POT_HYBRID_KKJUS_GBRV'
outdir = './data'
tprnfor = .true.
nstep = 50
disk_io = 'non'
/
&SYSTEM
ibrav = 0
ecutwfc = 50.0
ecutrho = 400
occupations = 'smearing'
smearing = 'mp'
degauss = 0.01
assume_isolated = 'esm'
esm_bc = 'bc1'
input_dft = 'BEEF-VDW'
nosym = .true.
nspin = 1
ntyp = 6
nat = 18
/
&ELECTRONS
electron_maxstep = 200
mixing_beta = 0.1
conv_thr = 1e-06
/
&IONS
ion_dynamics = 'bfgs'
upscale = 1.0
/
&CELL
/

K_POINTS {automatic}
9 9 2 0  0  0

ATOMIC_SPECIES
Au 196.9 Au.pbe-n-rrkjus_psl.1.0.0.UPF
C 12.01 C.pbe-n-rrkjus_psl.1.0.0.UPF
In 114.8 In.pbe-dn-rrkjus_psl.1.0.0.UPF
Li 6.941 Li.pbe-sl-rrkjus_psl.1.0.0.UPF
Mg 24.30 Mg.pbe-spnl-rrkjus_psl.1.0.0.UPF
O 15.99 O.pbe-n-rrkjus_psl.1.0.0.UPF


CELL_PARAMETERS {angstrom}
6.64779000 0.00000000 0.00000000
0.00000000 6.64779000 0.00000000
0.00000000 0.00000000 24.98580000

ATOMIC_POSITIONS {angstrom}
Li 0.00000000 3.32389500 -2.492833270000002 0 0 0
Li 0.03456851 6.63828366 1.00842689
Li 3.31106477 3.35626974 0.99793285
Li 3.32389500 0.00000000 -2.492833270000002 0 0 0
Mg 4.98584250 1.66194750 -0.8310277100000008 0 0 0
Mg 4.99807443 4.99342098 2.59502519
Mg 1.68082722 1.68089370 2.60177135
Mg 1.66194750 4.98584250 -0.8310277100000008 0 0 0
In 1.66194750 1.66194750 -0.8310277100000008 0 0 0
In 1.66786403 4.98763740 2.93033462
In 4.98531068 1.66101681 2.87036870
In 4.98584250 4.98584250 -0.8310277100000008 0 0 0
Au 0.00000000 0.00000000 -2.492833270000002 0 0 0
Au 0.01090238 3.33406612 0.89823951
Au 3.30508175 6.62877732 0.89449164
Au 3.32389500 3.32389500 -2.492833270000002 0 0 0
C 4.86817662 2.19689516 6.86684741
O 5.05903467 1.27591033 7.50473489
