&CONTROL
calculation = 'relax'
prefix = 'scf'
pseudo_dir = '/vol0004/mdt0/data/hp150275/u10028/POT_KKJUS'
outdir = './data'
tprnfor = .true.
nstep = 50
disk_io = 'non'
/
&SYSTEM
ibrav = 0
ecutwfc = 50.0
ecutrho = 400
occupations = 'smearing'
smearing = 'mp'
degauss = 0.01
assume_isolated = 'esm'
esm_bc = 'bc1'
input_dft = 'BEEF-VDW'
nosym = .true.
nspin = 1
ntyp = 3
nat = 32
/
&ELECTRONS
electron_maxstep = 200
mixing_beta = 0.1
conv_thr = 1e-06
/
&IONS
ion_dynamics = 'bfgs'
upscale = 1.0
/
&CELL
/

K_POINTS {automatic}
8 6 1 0 0 0

ATOMIC_SPECIES
Ga 69.72 Ga.pbe-dnl-rrkjus_psl.1.0.0.UPF
Li 6.941 Li.pbe-sl-rrkjus_psl.1.0.0.UPF
Mg 24.30 Mg.pbe-spnl-rrkjus_psl.1.0.0.UPF

CELL_PARAMETERS {angstrom}
6.69031000 0.00000000 0.00000000
0.00000000 9.46152000 0.00000000
0.00000000 0.00000000 27.09610000

ATOMIC_POSITIONS {angstrom}
Li 0.00000000 0.00000000 -3.547963329999998 0 0 0
Li 3.34515500 2.36538000 -1.1827447599999985 0 0 0
Li 3.34515500 7.09614000 -1.1827447599999985 0 0 0
Li 0.00000000 4.73076000 -3.547963329999998 0 0 0
Li 0.00000000 4.73057077 1.25915577
Li 3.34515500 7.09604538 3.79968610
Li 3.34515500 2.36547462 3.79941514
Li 0.00000000 0.00018923 1.25915577
Mg 1.67257750 0.00000000 -1.1827447599999985 0 0 0
Mg 5.01773250 4.73076000 -1.1827447599999985 0 0 0
Mg 5.01773250 0.00000000 -1.1827447599999985 0 0 0
Mg 1.67257750 4.73076000 -1.1827447599999985 0 0 0
Mg 5.01773250 7.09614000 -3.547963329999998 0 0 0
Mg 1.67257750 2.36538000 -3.547963329999998 0 0 0
Mg 1.67257750 7.09614000 -3.547963329999998 0 0 0
Mg 5.01773250 2.36538000 -3.547963329999998 0 0 0
Mg 1.60674485 4.73057077 3.70728840
Mg 5.08383276 0.00018923 3.70728840
Mg 5.08363205 4.73057077 3.70728840
Mg 1.60647724 0.00018923 3.70728840
Mg 5.01947198 2.36538000 1.25861384
Mg 1.67083802 7.09614000 1.25861384
Mg 1.67090492 2.36538000 1.25861384
Mg 5.01940508 7.09614000 1.25861384
Ga 0.00000000 7.09614000 -1.1827447599999985 0 0 0
Ga 3.34515500 0.00000000 -3.547963329999998 0 0 0
Ga 0.00000000 2.36538000 -1.1827447599999985 0 0 0
Ga 3.34515500 4.73076000 -3.547963329999998 0 0 0
Ga 0.00000000 2.36538000 3.59402670
Ga 3.34515500 4.73076000 1.26891036
Ga 0.00000000 7.09595077 3.59511055
Ga 3.34515500 0.00000000 1.26945229
