&CONTROL
calculation = 'relax'
prefix = 'scf'
pseudo_dir = '/vol0004/mdt0/data/hp150275/u10028/POT_KKJUS'
outdir = './data'
tprnfor = .true.
nstep = 50
disk_io = 'non'
/
&SYSTEM
ibrav = 0
ecutwfc = 50.0
ecutrho = 400
occupations = 'smearing'
smearing = 'mp'
degauss = 0.01
assume_isolated = 'esm'
esm_bc = 'bc1'
input_dft = 'BEEF-VDW'
nosym = .true.
nspin = 1
ntyp = 2
nat = 17
/
&ELECTRONS
electron_maxstep = 200
mixing_beta = 0.1
conv_thr = 1e-06
/
&IONS
ion_dynamics = 'bfgs'
upscale = 1.0
/
&CELL
/

K_POINTS {automatic}
8 8 1 0 0 0

ATOMIC_SPECIES
C 12.01 C.pbe-n-rrkjus_psl.1.0.0.UPF
V 50.94 V.pbe-spnl-rrkjus_psl.1.0.0.UPF

CELL_PARAMETERS {angstrom}
6.00621000 0.00000000 0.00000000
-0.00000000 6.00621000 0.00000000
0.00000000 0.00000000 24.50470000

ATOMIC_POSITIONS {angstrom}
V 0.00000000 0.00000000 -2.2522269799999997 0 0 0
V 1.50155250 1.50155250 -0.7508240099999988 0 0 0
V 0.00000000 0.00000000 0.75082401
V 1.50155250 1.50155250 2.25222698
V 0.00000000 3.00310500 -2.2522269799999997 0 0 0
V 1.50155250 4.50465750 -0.7508240099999988 0 0 0
V 0.00000000 3.00310500 0.75082401
V 1.50155250 4.50465750 2.25222698
V 3.00310500 0.00000000 -2.2522269799999997 0 0 0
V 4.50465750 1.50155250 -0.7508240099999988 0 0 0
V 3.00310500 -0.00000000 0.75082401
V 4.50465750 1.50155250 2.25222698
V 3.00310500 3.00310500 -2.2522269799999997 0 0 0
V 4.50465750 4.50465750 -0.7508240099999988 0 0 0
V 3.00310500 3.00310500 0.75082401
V 4.50465750 4.50465750 2.25222698
C 0.00000000 0.00000000 3.05230543
