&CONTROL
calculation = 'relax'
prefix = 'scf'
pseudo_dir = '/vol0403/data/hp230205/u10028/POT_HYBRID_KKJUS_GBRV'
outdir = './data'
tprnfor = .true.
nstep = 50
disk_io = 'non'
/
&SYSTEM
ibrav = 0
ecutwfc = 50.0
ecutrho = 400
occupations = 'smearing'
smearing = 'mp'
degauss = 0.01
assume_isolated = 'esm'
esm_bc = 'bc1'
input_dft = 'BEEF-VDW'
nosym = .true.
nspin = 1
ntyp = 6
nat = 18
/
&ELECTRONS
electron_maxstep = 200
mixing_beta = 0.1
conv_thr = 1e-06
/
&IONS
ion_dynamics = 'bfgs'
upscale = 1.0
/
&CELL
/

K_POINTS {automatic}
11 7 2 0  0  0

ATOMIC_SPECIES
Au 196.9 Au.pbe-n-rrkjus_psl.1.0.0.UPF
C 12.01 C.pbe-n-rrkjus_psl.1.0.0.UPF
Ge 72.64 Ge.pbe-dn-rrkjus_psl.1.0.0.UPF
In 114.8 In.pbe-dn-rrkjus_psl.1.0.0.UPF
Li 6.941 Li.pbe-sl-rrkjus_psl.1.0.0.UPF
O 15.99 O.pbe-n-rrkjus_psl.1.0.0.UPF


CELL_PARAMETERS {angstrom}
5.96101000 0.00000000 0.00000000
0.00000000 8.57796000 0.00000000
0.00000000 0.00000000 24.47060000

ATOMIC_POSITIONS {angstrom}
Li 3.05156024 0.00008578 2.17372340
Li 5.93597376 0.00000000 -0.7451297700000019 0 0 0
Li 3.07427169 4.28898000 1.99851390
Li 5.93597376 4.28898000 -0.7451297700000019 0 0 0
In 1.49710766 2.09473783 0.78428273
In 4.43326275 2.14449000 -2.235389310000002 0 0 0
In 1.49758454 6.48347951 0.78403802
In 4.43326275 6.43347000 -2.235389310000002 0 0 0
Ge 4.40453068 2.03392010 0.87653689
Ge 1.45275775 2.14449000 -2.235389310000002 0 0 0
Ge 4.40470951 6.54421146 0.87702630
Ge 1.45275775 6.43347000 -2.235389310000002 0 0 0
Au 5.87445613 8.57744532 2.11915396
Au 2.95546876 0.00000000 -0.7451297700000019 0 0 0
Au 5.83648450 4.28940890 1.80225969
Au 2.95546876 4.28898000 -0.7451297700000019 0 0 0
C 0.08214272 0.00034312 4.21726320
O 5.91618320 0.00025734 5.35759316
