&CONTROL
calculation = 'relax'
prefix = 'scf'
pseudo_dir = '/vol0004/mdt0/data/hp150275/u10028/POT_HYBRID_KKJUS_GBRV'
outdir = './data'
tprnfor = .true.
nstep = 50
disk_io = 'non'
/
&SYSTEM
ibrav = 0
ecutwfc = 50.0
ecutrho = 400
occupations = 'smearing'
smearing = 'mp'
degauss = 0.01
assume_isolated = 'esm'
esm_bc = 'bc1'
input_dft = 'BEEF-VDW'
nosym = .true.
nspin = 2
ntyp = 3
nat = 32
starting_magnetization(1) = 0.0
starting_magnetization(2) = 0.001
starting_magnetization(3) = 0.0
/
&ELECTRONS
electron_maxstep = 300
mixing_beta = 0.1
conv_thr = 1e-06
/
&IONS
ion_dynamics = 'bfgs'
upscale = 1.0
/
&CELL
/

K_POINTS {automatic}
8 6 1 0 0 0

ATOMIC_SPECIES
Mg 24.30 Mg.pbe-spnl-rrkjus_psl.1.0.0.UPF
Ni 58.69 ni_pbe_v1.4.uspp.F.UPF
Sb 121.7 Sb.pbe-n-rrkjus_psl.1.0.0.UPF

CELL_PARAMETERS {angstrom}
6.21377000 0.00000000 0.00000000
0.00000000 8.78760000 0.00000000
0.00000000 0.00000000 26.59070000

ATOMIC_POSITIONS {angstrom}
Mg 0.00000000 0.00000000 -3.2953854499999977 0 0 0
Mg 3.10688500 2.19690000 -1.0984618199999971 0 0 0
Mg 3.10688500 6.59070000 -1.0984618199999971 0 0 0
Mg 0.00000000 4.39380000 -3.2953854499999977 0 0 0
Mg 0.00000000 4.39397575 1.03464414
Mg 3.10688500 6.58990912 3.51342919
Mg 3.10688500 2.19769088 3.51342919
Mg 0.00000000 8.78742425 1.03491004
Ni 1.55344250 0.00000000 -1.0984618199999971 0 0 0
Ni 4.66032750 4.39380000 -1.0984618199999971 0 0 0
Ni 4.66032750 0.00000000 -1.0984618199999971 0 0 0
Ni 1.55344250 4.39380000 -1.0984618199999971 0 0 0
Ni 4.66032750 6.59070000 -3.2953854499999977 0 0 0
Ni 1.55344250 2.19690000 -3.2953854499999977 0 0 0
Ni 1.55344250 6.59070000 -3.2953854499999977 0 0 0
Ni 4.66032750 2.19690000 -3.2953854499999977 0 0 0
Ni 1.48272980 4.39397575 3.08319166
Ni 4.73060524 8.78742425 3.08319166
Ni 4.73104020 4.39397575 3.08319166
Ni 1.48316476 8.78742425 3.08319166
Ni 4.67350069 2.19733938 1.18248843
Ni 1.54051786 6.59026062 1.18275434
Ni 1.54026931 2.19733938 1.18248843
Ni 4.67325214 6.59034850 1.18275434
Sb 0.00000000 6.59070000 -1.0984618199999971 0 0 0
Sb 3.10688500 0.00000000 -3.2953854499999977 0 0 0
Sb 0.00000000 2.19690000 -1.0984618199999971 0 0 0
Sb 3.10688500 4.39380000 -3.2953854499999977 0 0 0
Sb 0.00000000 2.19681212 3.44562291
Sb 3.10688500 4.39371212 1.11255489
Sb 0.00000000 6.59078788 3.44615472
Sb 3.10688500 0.00008788 1.11255489
