&CONTROL
calculation = 'relax'
prefix = 'scf'
pseudo_dir = '/vol0403/data/hp230205/u10028/POT_HYBRID_KKJUS_GBRV'
outdir = './data'
tprnfor = .true.
nstep = 50
disk_io = 'non'
/
&SYSTEM
ibrav = 0
ecutwfc = 50.0
ecutrho = 400
occupations = 'smearing'
smearing = 'mp'
degauss = 0.01
assume_isolated = 'esm'
esm_bc = 'bc1'
input_dft = 'BEEF-VDW'
nosym = .true.
nspin = 2
ntyp = 5
nat = 17
starting_magnetization(1) = 0.0
starting_magnetization(2) = 0.0
starting_magnetization(3) = 0.1
starting_magnetization(4) = 0.0
starting_magnetization(5) = 0.0
/
&ELECTRONS
electron_maxstep = 400
mixing_beta = 0.05
conv_thr = 1e-06
/
&IONS
ion_dynamics = 'bfgs'
upscale = 1.0
/
&CELL
/

K_POINTS {automatic}
8 8 1 0 0 0

ATOMIC_SPECIES
Al 26.98 Al.pbe-nl-rrkjus_psl.1.0.0.UPF
C 12.01 C.pbe-n-rrkjus_psl.1.0.0.UPF
Co 58.93 co_pbe_v1.2.uspp.F.UPF
Li 6.941 Li.pbe-sl-rrkjus_psl.1.0.0.UPF
Pd 106.4 Pd.pbe-n-rrkjus_psl.1.0.0.UPF


CELL_PARAMETERS {angstrom}
5.87254000 0.00000000 0.00000000
0.00000000 5.87254000 0.00000000
0.00000000 0.00000000 24.40440000

ATOMIC_POSITIONS {angstrom}
Li 5.85920933 2.94954194 2.64592505
Li 0.00000000 0.00000000 -0.7340843499999998 0 0 0
Li 2.93627000 2.93627000 -0.7340843499999998 0 0 0
Li 2.94960067 5.85926806 2.64592505
Al 0.12690559 0.12649451 2.25179399
Al 0.00000000 2.93627000 -0.7340843499999998 0 0 0
Al 2.93627000 0.00000000 -0.7340843499999998 0 0 0
Al 2.80936441 2.80977549 2.25179399
Co 4.40440500 1.46813500 0.78411337
Co 4.40440500 4.40440500 -2.2022530600000003 0 0 0
Co 1.46813500 1.46813500 -2.2022530600000003 0 0 0
Co 1.46813500 4.40440500 0.78313720
Pd 1.46813500 1.46813500 0.58594964
Pd 1.46813500 4.40440500 -2.2022530600000003 0 0 0
Pd 4.40440500 1.46813500 -2.2022530600000003 0 0 0
Pd 4.40440500 4.40440500 0.98300923
C 1.46813500 1.46813500 2.79918468
