&CONTROL
calculation = 'relax'
prefix = 'scf'
pseudo_dir = '/vol0004/mdt0/data/hp150275/u10028/POT_KKJUS'
outdir = './data'
tprnfor = .true.
nstep = 50
disk_io = 'non'
/
&SYSTEM
ibrav = 0
ecutwfc = 50.0
ecutrho = 400
occupations = 'smearing'
smearing = 'mp'
degauss = 0.01
assume_isolated = 'esm'
esm_bc = 'bc1'
input_dft = 'BEEF-VDW'
nosym = .true.
nspin = 1
ntyp = 5
nat = 34
/
&ELECTRONS
electron_maxstep = 200
mixing_beta = 0.1
conv_thr = 1e-06
/
&IONS
ion_dynamics = 'bfgs'
upscale = 1.0
/
&CELL
/

K_POINTS {automatic}
8 6 1 0 0 0

ATOMIC_SPECIES
C 12.01 C.pbe-n-rrkjus_psl.1.0.0.UPF
Ga 69.72 Ga.pbe-dnl-rrkjus_psl.1.0.0.UPF
Li 6.941 Li.pbe-sl-rrkjus_psl.1.0.0.UPF
O 15.99 O.pbe-n-rrkjus_psl.1.0.0.UPF
Pt 195.0 Pt.pbe-n-rrkjus_psl.1.0.0.UPF

CELL_PARAMETERS {angstrom}
6.22326000 0.00000000 0.00000000
0.00000000 8.80102000 0.00000000
0.00000000 0.00000000 26.60080000

ATOMIC_POSITIONS {angstrom}
Li 0.00000000 0.00000000 -3.300361259999999 0 0 0
Li 3.11163000 2.20025500 -1.10020909 0 0 0
Li 3.11163000 6.60076500 -1.10020909 0 0 0
Li 0.00000000 4.40051000 -3.300361259999999 0 0 0
Li 6.17733234 4.40006995 1.15048460
Li 3.14840947 6.52437215 3.63526533
Li 3.14722705 2.27629581 3.63659537
Li 6.20950660 8.80093199 1.04541144
Ga 1.55581500 0.00000000 -1.10020909 0 0 0
Ga 4.66744500 4.40051000 -1.10020909 0 0 0
Ga 4.66744500 0.00000000 -1.10020909 0 0 0
Ga 1.55581500 4.40051000 -1.10020909 0 0 0
Ga 4.66744500 6.60076500 -3.300361259999999 0 0 0
Ga 1.55581500 2.20025500 -3.300361259999999 0 0 0
Ga 1.55581500 6.60076500 -3.300361259999999 0 0 0
Ga 4.66744500 2.20025500 -3.300361259999999 0 0 0
Ga 1.48804370 4.40077403 3.49135500
Ga 4.74013268 0.00026403 3.37537551
Ga 4.82246641 4.40051000 3.70868354
Ga 1.43738636 0.00000000 3.31924782
Ga 4.55063441 2.21838510 1.14622847
Ga 1.60989513 6.58835556 1.15633678
Ga 1.61039299 2.21187235 1.15660278
Ga 4.55138120 6.58193082 1.14569646
Pt 0.00000000 6.60076500 -1.10020909 0 0 0
Pt 3.11163000 0.00000000 -3.300361259999999 0 0 0
Pt 0.00000000 2.20025500 -1.10020909 0 0 0
Pt 3.11163000 4.40051000 -3.300361259999999 0 0 0
Pt 6.18224872 2.20254327 3.12479598
Pt 3.08997306 4.40042199 1.04381539
Pt 6.18206202 6.59882878 3.12506198
Pt 3.09787660 8.80049194 1.07254426
C 3.05674085 0.00299235 4.78122779
O 3.05350475 0.00396046 5.97134758
