&CONTROL
calculation = 'relax'
prefix = 'scf'
pseudo_dir = '/vol0004/mdt0/data/hp150275/u10028/POT_KKJUS'
outdir = './data'
tprnfor = .true.
nstep = 50
disk_io = 'non'
/
&SYSTEM
ibrav = 0
ecutwfc = 50.0
ecutrho = 400
occupations = 'smearing'
smearing = 'mp'
degauss = 0.01
assume_isolated = 'esm'
esm_bc = 'bc1'
input_dft = 'BEEF-VDW'
nosym = .true.
nspin = 1
ntyp = 5
nat = 34
/
&ELECTRONS
electron_maxstep = 200
mixing_beta = 0.1
conv_thr = 1e-06
/
&IONS
ion_dynamics = 'bfgs'
upscale = 1.0
/
&CELL
/

K_POINTS {automatic}
8 6 1 0 0 0

ATOMIC_SPECIES
C 12.01 C.pbe-n-rrkjus_psl.1.0.0.UPF
Li 6.941 Li.pbe-sl-rrkjus_psl.1.0.0.UPF
Na 22.98 Na.pbe-spnl-rrkjus_psl.1.0.0.UPF
O 15.99 O.pbe-n-rrkjus_psl.1.0.0.UPF
Sb 121.7 Sb.pbe-n-rrkjus_psl.1.0.0.UPF

CELL_PARAMETERS {angstrom}
6.84524000 0.00000000 0.00000000
0.00000000 9.68063000 0.00000000
0.00000000 0.00000000 27.26050000

ATOMIC_POSITIONS {angstrom}
Na 0.00000000 0.00000000 -3.6302807799999997 0 0 0
Na 3.42262000 2.42015750 -1.2100935899999996 0 0 0
Na 3.42262000 7.26047250 -1.2100935899999996 0 0 0
Na 0.00000000 4.84031500 -3.6302807799999997 0 0 0
Na 0.00000000 4.86103155 1.10486807
Na 3.42262000 7.26095653 3.97921518
Na 3.42262000 2.42083514 3.93369015
Na 6.84517155 9.66107513 1.10514067
Li 1.71131000 0.00000000 -1.2100935899999996 0 0 0
Li 5.13393000 4.84031500 -1.2100935899999996 0 0 0
Li 5.13393000 0.00000000 -1.2100935899999996 0 0 0
Li 1.71131000 4.84031500 -1.2100935899999996 0 0 0
Li 5.13393000 7.26047250 -3.6302807799999997 0 0 0
Li 1.71131000 2.42015750 -3.6302807799999997 0 0 0
Li 1.71131000 7.26047250 -3.6302807799999997 0 0 0
Li 5.13393000 2.42015750 -3.6302807799999997 0 0 0
Li 1.41484266 4.83402259 3.56321995
Li 5.43039734 0.00793812 3.56376517
Li 5.43046580 4.83402259 3.56349256
Li 1.41484266 0.00793812 3.56349256
Li 5.09128415 2.42083514 1.31995341
Li 1.80070883 7.26115014 1.34884954
Li 1.75388739 2.42083514 1.31968080
Li 5.04459962 7.26105334 1.34884954
Sb 0.00000000 7.26047250 -1.2100935899999996 0 0 0
Sb 3.42262000 0.00000000 -3.6302807799999997 0 0 0
Sb 0.00000000 2.42015750 -1.2100935899999996 0 0 0
Sb 3.42262000 4.84031500 -3.6302807799999997 0 0 0
Sb 0.00000000 2.42102876 3.62564650
Sb 3.42262000 4.83450662 1.39491979
Sb 0.00000000 7.26124695 3.63682331
Sb 3.42262000 0.00706686 1.39491979
C 6.84455548 2.39043797 8.51072810
O 0.00020536 2.42557865 9.64585532
