&CONTROL
calculation = 'relax'
prefix = 'scf'
pseudo_dir = '/vol0004/mdt0/data/hp150275/u10028/POT_KKJUS'
outdir = './data'
tprnfor = .true.
nstep = 50
disk_io = 'non'
/
&SYSTEM
ibrav = 0
ecutwfc = 50.0
ecutrho = 400
occupations = 'smearing'
smearing = 'mp'
degauss = 0.01
assume_isolated = 'esm'
esm_bc = 'bc1'
input_dft = 'BEEF-VDW'
nosym = .true.
nspin = 1
ntyp = 2
nat = 32
/
&ELECTRONS
electron_maxstep = 200
mixing_beta = 0.1
conv_thr = 1e-06
/
&IONS
ion_dynamics = 'bfgs'
upscale = 1.0
/
&CELL
/

K_POINTS {automatic}
9 6 2 0  0  0

ATOMIC_SPECIES
Au 196.9 Au.pbe-n-rrkjus_psl.1.0.0.UPF
Sc 44.95 Sc.pbe-spn-rrkjus_psl.1.0.0.UPF

CELL_PARAMETERS {angstrom}
6.85145000 0.00000000 0.00000000
0.00000000 9.68941000 0.00000000
0.00000000 0.00000000 27.26710000

ATOMIC_POSITIONS {angstrom}
Sc 1.71286250 2.42235250 -3.6336137499999985 0 0 0
Sc 1.71286250 4.84470500 -1.2112045800000004 0 0 0
Sc 1.71286250 2.42235250 1.21911204
Sc 1.71279399 0.00000000 3.63524977
Sc 1.71286250 7.26705750 -3.6336137499999985 0 0 0
Sc 1.71286250 0.00000000 -1.2112045800000004 0 0 0
Sc 1.71286250 7.26705750 1.21911204
Sc 1.71286250 4.84470500 3.63497710
Sc 5.13858750 2.42235250 -3.6336137499999985 0 0 0
Sc 5.13858750 4.84470500 -1.2112045800000004 0 0 0
Sc 5.13858750 2.42235250 1.21911204
Sc 5.13858750 0.00000000 3.63497710
Sc 5.13858750 7.26705750 -3.6336137499999985 0 0 0
Sc 5.13858750 0.00000000 -1.2112045800000004 0 0 0
Sc 5.13858750 7.26705750 1.21911204
Sc 5.13858750 4.84470500 3.63497710
Au 0.00000000 0.00000000 -3.6336137499999985 0 0 0
Au 0.00000000 2.42235250 -1.2112045800000004 0 0 0
Au 0.00000000 0.00009689 1.23301826
Au 0.00000000 2.42244939 3.49155215
Au 0.00000000 4.84470500 -3.6336137499999985 0 0 0
Au 0.00000000 7.26705750 -1.2112045800000004 0 0 0
Au 0.00000000 4.84460811 1.23301826
Au 0.00006851 7.26696061 3.49155215
Au 3.42572500 0.00000000 -3.6336137499999985 0 0 0
Au 3.42572500 2.42235250 -1.2112045800000004 0 0 0
Au 3.42572500 0.00000000 1.23301826
Au 3.42565649 2.42244939 3.49155215
Au 3.42572500 4.84470500 -3.6336137499999985 0 0 0
Au 3.42572500 7.26705750 -1.2112045800000004 0 0 0
Au 3.42572500 4.84460811 1.23301826
Au 3.42565649 7.26686371 3.49155215
