&CONTROL
calculation = 'relax'
prefix = 'scf'
pseudo_dir = '/vol0403/data/hp230205/u10028/POT_HYBRID_KKJUS_GBRV'
outdir = './data'
tprnfor = .true.
nstep = 50
disk_io = 'non'
/
&SYSTEM
ibrav = 0
ecutwfc = 50.0
ecutrho = 400
occupations = 'smearing'
smearing = 'mp'
degauss = 0.01
assume_isolated = 'esm'
esm_bc = 'bc1'
input_dft = 'BEEF-VDW'
nosym = .true.
nspin = 1
ntyp = 6
nat = 18
/
&ELECTRONS
electron_maxstep = 200
mixing_beta = 0.1
conv_thr = 1e-06
/
&IONS
ion_dynamics = 'bfgs'
upscale = 1.0
/
&CELL
/

K_POINTS {automatic}
6 6 1 0 0 0

ATOMIC_SPECIES
C 12.01 C.pbe-n-rrkjus_psl.1.0.0.UPF
Li 6.941 Li.pbe-sl-rrkjus_psl.1.0.0.UPF
O 15.99 O.pbe-n-rrkjus_psl.1.0.0.UPF
Pb 207.2 Pb.pbe-dn-rrkjus_psl.1.0.0.UPF
Sn 118.7 Sn.pbe-dn-rrkjus_psl.1.0.0.UPF
Y 88.90 Y.pbe-spn-rrkjus_psl.1.0.0.UPF


CELL_PARAMETERS {angstrom}
8.87168000 0.00000000 0.00000000
0.00000000 6.72279000 0.00000000
0.00000000 0.00000000 25.04000000

ATOMIC_POSITIONS {angstrom}
Li 0.00000000 0.00000000 2.52002560
Li 0.00000000 3.26371286 -0.8400919999999985 0 0 0
Li 4.43584000 0.00000000 2.52002560
Li 4.43584000 3.26371286 -0.8400919999999985 0 0 0
Y 0.00000000 3.36139500 2.52002560
Y 0.00000000 6.62510786 -0.8400919999999985 0 0 0
Y 4.43584000 3.36139500 2.52002560
Y 4.43584000 6.62510786 -0.8400919999999985 0 0 0
Sn 2.21792000 4.99321782 0.84009200
Sn 2.21792000 1.53414068 -2.5200256000000003 0 0 0
Sn 6.65376000 4.99321782 0.84009200
Sn 6.65376000 1.53414068 -2.5200256000000003 0 0 0
Pb 2.21792000 1.63182282 0.84009200
Pb 2.21792000 4.89553568 -2.5200256000000003 0 0 0
Pb 6.65376000 1.63182282 0.84009200
Pb 6.65376000 4.89553568 -2.5200256000000003 0 0 0
C 0.00000000 3.36139500 4.42006080
O 0.00000000 3.36139500 5.56989760
