&CONTROL
calculation = 'relax'
prefix = 'scf'
pseudo_dir = '/vol0004/mdt0/data/hp150275/u10028/POT_HYBRID_KKJUS_GBRV'
outdir = './data'
tprnfor = .true.
nstep = 50
disk_io = 'non'
/
&SYSTEM
ibrav = 0
ecutwfc = 50.0
ecutrho = 400
occupations = 'smearing'
smearing = 'mp'
degauss = 0.01
assume_isolated = 'esm'
esm_bc = 'bc1'
input_dft = 'BEEF-VDW'
nosym = .true.
nspin = 2
ntyp = 2
nat = 32
starting_magnetization(1) = 0.1
starting_magnetization(2) = 0.1
/
&ELECTRONS
electron_maxstep = 200
mixing_beta = 0.1
conv_thr = 1e-06
/
&IONS
ion_dynamics = 'bfgs'
upscale = 1.0
/
&CELL
/

K_POINTS {automatic}
9 6 2 0  0  0

ATOMIC_SPECIES
Ni 58.69 ni_pbe_v1.4.uspp.F.UPF
Zn 65.40 Zn.pbe-dnl-rrkjus_psl.1.0.0.UPF

CELL_PARAMETERS {angstrom}
5.79956000 0.00000000 0.00000000
0.00000000 8.20182000 0.00000000
0.00000000 0.00000000 26.15140000

ATOMIC_POSITIONS {angstrom}
Zn 1.44989000 2.05045500 -3.07566615 0 0 0
Zn 1.44989000 0.00000000 -1.0251348799999995 0 0 0
Zn 1.44989000 2.05045500 0.97361662
Zn 1.44989000 0.00041009 3.25532627
Zn 1.44989000 6.15136500 -3.07566615 0 0 0
Zn 1.44989000 4.10091000 -1.0251348799999995 0 0 0
Zn 1.44989000 6.15128298 0.97361662
Zn 1.44989000 4.10049991 3.25532627
Zn 4.34967000 2.05045500 -3.07566615 0 0 0
Zn 4.34967000 0.00000000 -1.0251348799999995 0 0 0
Zn 4.34967000 2.05045500 0.97361662
Zn 4.34967000 0.00041009 3.25532627
Zn 4.34967000 6.15136500 -3.07566615 0 0 0
Zn 4.34967000 4.10091000 -1.0251348799999995 0 0 0
Zn 4.34967000 6.15128298 0.97361662
Zn 4.34967000 4.10049991 3.25532627
Ni 0.00000000 0.00000000 -3.07566615 0 0 0
Ni 0.00000000 2.05045500 -1.0251348799999995 0 0 0
Ni 0.00000000 0.00016404 1.08946732
Ni 0.00000000 2.05045500 2.94961641
Ni 0.00000000 4.10091000 -3.07566615 0 0 0
Ni 0.00000000 6.15136500 -1.0251348799999995 0 0 0
Ni 0.00000000 4.10074596 1.08972884
Ni 0.00000000 6.15144702 2.94909338
Ni 2.89978000 0.00000000 -3.07566615 0 0 0
Ni 2.89978000 2.05045500 -1.0251348799999995 0 0 0
Ni 2.89978000 0.00008202 1.08946732
Ni 2.89978000 2.05045500 2.94961641
Ni 2.89978000 4.10091000 -3.07566615 0 0 0
Ni 2.89978000 6.15136500 -1.0251348799999995 0 0 0
Ni 2.89978000 4.10082798 1.08972884
Ni 2.89978000 6.15144702 2.94909338
