&CONTROL
calculation = 'relax'
prefix = 'scf'
pseudo_dir = '/vol0004/mdt0/data/hp150275/u10028/POT_KKJUS'
outdir = './data'
tprnfor = .true.
nstep = 50
disk_io = 'non'
/
&SYSTEM
ibrav = 0
ecutwfc = 50.0
ecutrho = 400
occupations = 'smearing'
smearing = 'mp'
degauss = 0.01
assume_isolated = 'esm'
esm_bc = 'bc1'
input_dft = 'BEEF-VDW'
nosym = .true.
nspin = 1
ntyp = 4
nat = 17
/
&ELECTRONS
electron_maxstep = 200
mixing_beta = 0.1
conv_thr = 1e-06
/
&IONS
ion_dynamics = 'bfgs'
upscale = 1.0
/
&CELL
/

K_POINTS {automatic}
9 9 2 0  0  0

ATOMIC_SPECIES
Au 196.9 Au.pbe-n-rrkjus_psl.1.0.0.UPF
Bi 208.9 Bi.pbe-dn-rrkjus_psl.1.0.0.UPF
C 12.01 C.pbe-n-rrkjus_psl.1.0.0.UPF
Li 6.941 Li.pbe-sl-rrkjus_psl.1.0.0.UPF

CELL_PARAMETERS {angstrom}
6.87958000 0.00000000 0.00000000
0.00000000 6.87958000 0.00000000
0.00000000 0.00000000 25.15970000

ATOMIC_POSITIONS {angstrom}
Li 0.00000000 0.00000000 -0.8599585500000018 0 0 0
Li 3.68202001 0.24223001 2.56377343
Li 6.63734999 3.19755999 2.56377343
Li 3.43979000 3.43979000 -0.8599585500000018 0 0 0
Li 1.71989500 1.71989500 -2.579875640000001 0 0 0
Li 1.71989500 5.15968500 0.83102489
Li 5.15968500 5.15968500 -2.579875640000001 0 0 0
Li 5.15968500 1.71989500 0.83102489
Bi 6.70628338 0.17336542 2.80052621
Bi 3.61308662 3.26635579 2.80052621
Bi 3.43979000 0.00000000 -0.8599585500000018 0 0 0
Bi 0.00000000 3.43979000 -0.8599585500000018 0 0 0
Au 1.71989500 1.71989500 1.01871625
Au 1.71989500 5.15968500 -2.579875640000001 0 0 0
Au 5.15968500 5.15968500 1.01846466
Au 5.15968500 1.71989500 -2.579875640000001 0 0 0
C 5.15968500 1.71989500 3.06898021
