&CONTROL
calculation = 'relax'
prefix = 'scf'
pseudo_dir = '/vol0403/data/hp230205/u10028/POT_HYBRID_KKJUS_GBRV'
outdir = './data'
tprnfor = .true.
nstep = 50
disk_io = 'non'
/
&SYSTEM
ibrav = 0
ecutwfc = 50.0
ecutrho = 400
occupations = 'smearing'
smearing = 'mp'
degauss = 0.01
assume_isolated = 'esm'
esm_bc = 'bc1'
input_dft = 'BEEF-VDW'
nosym = .true.
nspin = 1
ntyp = 5
nat = 33
/
&ELECTRONS
electron_maxstep = 200
mixing_beta = 0.1
conv_thr = 1e-06
/
&IONS
ion_dynamics = 'bfgs'
upscale = 1.0
/
&CELL
/

K_POINTS {automatic}
6 6 1 0 0 0

ATOMIC_SPECIES
C 12.01 C.pbe-n-rrkjus_psl.1.0.0.UPF
In 114.8 In.pbe-dn-rrkjus_psl.1.0.0.UPF
Pd 106.4 Pd.pbe-n-rrkjus_psl.1.0.0.UPF
Sc 44.95 Sc.pbe-spn-rrkjus_psl.1.0.0.UPF
Y 88.90 Y.pbe-spn-rrkjus_psl.1.0.0.UPF


CELL_PARAMETERS {angstrom}
10.11530000 0.00000000 0.00000000
0.00000000 7.36232000 0.00000000
0.00000000 0.00000000 27.23180000

ATOMIC_POSITIONS {angstrom}
Y 2.52882500 1.84058000 -3.6158384000000012 0 0 0
Y 2.61703042 1.90154001 1.15381137
Y 2.52882500 5.52174000 -3.6158384000000012 0 0 0
Y 2.61672696 5.46100086 1.15353905
Y 7.58647500 1.84058000 -3.6158384000000012 0 0 0
Y 7.71665891 1.73147042 1.41632592
Y 7.58647500 5.52174000 -3.6158384000000012 0 0 0
Y 7.71706352 5.63151219 1.41795983
Sc 0.00000000 1.84058000 -1.2052794700000007 0 0 0
Sc 0.13412888 1.58819967 3.68664108
Sc 0.00000000 5.52174000 -1.2052794700000007 0 0 0
Sc 0.13706232 5.77250062 3.68609645
Sc 5.05765000 1.84058000 -1.2052794700000007 0 0 0
Sc 4.88397030 1.85147623 3.76942576
Sc 5.05765000 5.52174000 -1.2052794700000007 0 0 0
Sc 4.88336338 5.51135913 3.76997039
In 0.00000000 0.00000000 -3.6158384000000012 0 0 0
In 0.22213199 0.00036812 1.07211597
In 0.00000000 3.68116000 -3.6158384000000012 0 0 0
In 0.01780293 3.68108638 1.42830791
In 5.05765000 0.00000000 -3.6158384000000012 0 0 0
In 5.07353102 7.36224638 1.32891184
In 5.05765000 3.68116000 -3.6158384000000012 0 0 0
In 5.22586744 3.68145449 1.31447899
Pd 2.52882500 0.00000000 -1.2052794700000007 0 0 0
Pd 2.61349006 0.00014725 3.32963219
Pd 2.52882500 3.68116000 -1.2052794700000007 0 0 0
Pd 2.65324319 3.68152812 3.33834636
Pd 7.58647500 0.00000000 -1.2052794700000007 0 0 0
Pd 6.89175620 0.00103072 3.65015047
Pd 7.58647500 3.68116000 -1.2052794700000007 0 0 0
Pd 7.33784093 3.67983478 3.43365766
C 9.00453891 7.36143652 2.99713191
