&CONTROL
calculation = 'relax'
prefix = 'scf'
pseudo_dir = '/vol0403/data/hp230205/u10028/POT_HYBRID_KKJUS_GBRV'
outdir = './data'
tprnfor = .true.
nstep = 50
disk_io = 'non'
/
&SYSTEM
ibrav = 0
ecutwfc = 50.0
ecutrho = 400
occupations = 'smearing'
smearing = 'mp'
degauss = 0.01
assume_isolated = 'esm'
esm_bc = 'bc1'
input_dft = 'BEEF-VDW'
nosym = .true.
nspin = 1
ntyp = 6
nat = 34
/
&ELECTRONS
electron_maxstep = 200
mixing_beta = 0.1
conv_thr = 1e-06
/
&IONS
ion_dynamics = 'bfgs'
upscale = 1.0
/
&CELL
/

K_POINTS {automatic}
6 6 1 0 0 0

ATOMIC_SPECIES
C 12.01 C.pbe-n-rrkjus_psl.1.0.0.UPF
Ge 72.64 Ge.pbe-dn-rrkjus_psl.1.0.0.UPF
In 114.8 In.pbe-dn-rrkjus_psl.1.0.0.UPF
Li 6.941 Li.pbe-sl-rrkjus_psl.1.0.0.UPF
O 15.99 O.pbe-n-rrkjus_psl.1.0.0.UPF
Sc 44.95 Sc.pbe-spn-rrkjus_psl.1.0.0.UPF


CELL_PARAMETERS {angstrom}
8.12626000 0.00000000 0.00000000
0.00000000 8.22048000 0.00000000
0.00000000 0.00000000 26.73030000

ATOMIC_POSITIONS {angstrom}
Li 2.03156500 0.00000000 -1.1216033900000006 0 0 0
Li 2.04643606 8.21949354 3.67755467
Li 2.03156500 4.11024000 -1.1216033900000006 0 0 0
Li 2.00336688 4.10941795 3.69332555
Li 6.09469500 0.00000000 -1.1216033900000006 0 0 0
Li 6.07779238 8.21850708 3.67675277
Li 6.09469500 4.11024000 -1.1216033900000006 0 0 0
Li 6.11273530 4.11015780 3.67595086
Sc 2.03156500 2.05512000 -3.3650774699999992 0 0 0
Sc 2.03148374 2.05454457 1.18949835
Sc 2.03156500 6.16536000 -3.3650774699999992 0 0 0
Sc 2.03562813 6.16536000 1.18522150
Sc 6.09469500 2.05512000 -3.3650774699999992 0 0 0
Sc 6.09339480 2.05191401 1.18629071
Sc 6.09469500 6.16536000 -3.3650774699999992 0 0 0
Sc 6.09030682 6.16757953 1.18335038
In 0.00000000 2.05512000 -1.1216033900000006 0 0 0
In 8.12252192 2.03613069 3.58987929
In 0.00000000 6.16536000 -1.1216033900000006 0 0 0
In 8.12325328 6.18048568 3.58907738
In 4.06313000 2.05512000 -1.1216033900000006 0 0 0
In 4.06394263 2.07361608 3.59682917
In 4.06313000 6.16536000 -1.1216033900000006 0 0 0
In 4.06329253 6.14349352 3.58667165
Ge 0.00000000 0.00000000 -3.3650774699999992 0 0 0
Ge 8.12227813 8.21636976 1.35923576
Ge 0.00000000 4.11024000 -3.3650774699999992 0 0 0
Ge 8.12309076 4.11015780 1.35923576
Ge 4.06313000 0.00000000 -3.3650774699999992 0 0 0
Ge 4.06345505 8.21998677 1.37233360
Ge 4.06313000 4.11024000 -3.3650774699999992 0 0 0
Ge 4.06369884 4.11106205 1.33972264
C 0.30172803 2.54728014 7.79990154
O 7.98851989 1.74035782 8.45960534
