&CONTROL
calculation = 'relax'
prefix = 'scf'
pseudo_dir = '/vol0403/data/hp230205/u10028/POT_HYBRID_KKJUS_GBRV'
outdir = './data'
tprnfor = .true.
nstep = 50
disk_io = 'non'
/
&SYSTEM
ibrav = 0
ecutwfc = 50.0
ecutrho = 400
occupations = 'smearing'
smearing = 'mp'
degauss = 0.01
assume_isolated = 'esm'
esm_bc = 'bc1'
input_dft = 'BEEF-VDW'
nosym = .true.
nspin = 2
ntyp = 5
nat = 33
starting_magnetization(1) = 0.0
starting_magnetization(2) = 0.0
starting_magnetization(3) = 0.1
starting_magnetization(4) = 0.0
starting_magnetization(5) = 0.0
/
&ELECTRONS
electron_maxstep = 400
mixing_beta = 0.05
conv_thr = 1e-06
/
&IONS
ion_dynamics = 'bfgs'
upscale = 1.0
/
&CELL
/

K_POINTS {automatic}
9 6 2 0  0  0

ATOMIC_SPECIES
Al 26.98 Al.pbe-nl-rrkjus_psl.1.0.0.UPF
C 12.01 C.pbe-n-rrkjus_psl.1.0.0.UPF
Fe 55.84 fe_pbe_v1.5.uspp.F.UPF
Li 6.941 Li.pbe-sl-rrkjus_psl.1.0.0.UPF
Pd 106.4 Pd.pbe-n-rrkjus_psl.1.0.0.UPF


CELL_PARAMETERS {angstrom}
5.67696000 0.00000000 0.00000000
0.00000000 8.60712000 0.00000000
0.00000000 0.00000000 26.63180000

ATOMIC_POSITIONS {angstrom}
Li 0.03445915 2.15539499 1.10255652
Li 0.00000000 2.15178000 23.31587458
Li 0.03440238 6.45172501 1.10255652
Li 0.00000000 6.45534000 23.31587458
Li 2.80402085 2.15539499 1.10255652
Li 2.83848000 2.15178000 23.31587458
Li 2.80407762 6.45172501 1.10229020
Li 2.83848000 6.45534000 23.31587458
Al 5.46492554 0.00000000 3.12071432
Al 0.00000000 0.00000000 25.52658030
Al 0.00919668 4.30364607 3.35720471
Al 0.00000000 4.30356000 25.52658030
Al 3.05051446 0.00008607 3.12071432
Al 2.83848000 0.00000000 25.52658030
Al 2.82928332 4.30356000 3.35720471
Al 2.83848000 4.30356000 25.52658030
Fe 1.41924000 1.75413106 3.54256204
Fe 1.41924000 2.15178000 25.52658030
Fe 1.41929677 6.85298894 3.54256204
Fe 1.41924000 6.45534000 25.52658030
Fe 4.25777677 2.21521447 3.16066202
Fe 4.25772000 2.15178000 25.52658030
Fe 4.25766323 6.39199160 3.16092834
Fe 4.25772000 6.45534000 25.52658030
Pd 1.41924000 0.00000000 1.05168978
Pd 1.41924000 0.00000000 23.31587458
Pd 1.41924000 4.30356000 1.13051991
Pd 1.41924000 4.30356000 23.31587458
Pd 4.25772000 0.00000000 0.93477618
Pd 4.25772000 0.00000000 23.31587458
Pd 4.25772000 4.30356000 1.09323539
Pd 4.25772000 4.30356000 23.31587458
C 1.41924000 0.00000000 4.15322921
