&CONTROL
calculation = 'relax'
prefix = 'scf'
pseudo_dir = '/vol0004/mdt0/data/hp150275/u10028/POT_KKJUS'
outdir = './data'
tprnfor = .true.
nstep = 50
disk_io = 'non'
/
&SYSTEM
ibrav = 0
ecutwfc = 50.0
ecutrho = 400
occupations = 'smearing'
smearing = 'mp'
degauss = 0.01
assume_isolated = 'esm'
esm_bc = 'bc1'
input_dft = 'BEEF-VDW'
nosym = .true.
nspin = 1
ntyp = 5
nat = 34
/
&ELECTRONS
electron_maxstep = 200
mixing_beta = 0.1
conv_thr = 1e-06
/
&IONS
ion_dynamics = 'bfgs'
upscale = 1.0
/
&CELL
/

K_POINTS {automatic}
8 6 1 0 0 0

ATOMIC_SPECIES
C 12.01 C.pbe-n-rrkjus_psl.1.0.0.UPF
Ge 72.64 Ge.pbe-dn-rrkjus_psl.1.0.0.UPF
Li 6.941 Li.pbe-sl-rrkjus_psl.1.0.0.UPF
O 15.99 O.pbe-n-rrkjus_psl.1.0.0.UPF
Sn 118.7 Sn.pbe-dn-rrkjus_psl.1.0.0.UPF

CELL_PARAMETERS {angstrom}
6.92564000 0.00000000 0.00000000
0.00000000 9.79433000 0.00000000
0.00000000 0.00000000 27.34580000

ATOMIC_POSITIONS {angstrom}
Li 0.00000000 7.34574750 -1.2242714700000015 0 0 0
Li 3.46282000 0.00000000 -3.6728144 0 0 0
Li 0.00000000 2.44858250 -1.2242714700000015 0 0 0
Li 3.46282000 4.89716500 -3.6728144 0 0 0
Li 1.73141000 0.00000000 -1.2242714700000015 0 0 0
Li 1.73141000 4.89716500 -1.2242714700000015 0 0 0
Li 5.19423000 7.34574750 -3.6728144 0 0 0
Li 5.19423000 2.44858250 -3.6728144 0 0 0
Li 0.28561339 2.22732859 3.09937297
Li 4.21840732 4.91185650 1.47284479
Li 0.30590552 7.58756951 3.11687428
Li 3.54613545 0.00685603 0.91745159
Li 2.17617460 4.90362926 3.87134491
Li 2.69414322 9.78727808 3.41549042
Li 5.22892746 2.29099173 1.11981051
Li 5.23384466 7.52645289 1.13485070
Sn 0.00000000 0.00000000 -3.6728144 0 0 0
Sn 3.46282000 2.44858250 -1.2242714700000015 0 0 0
Sn 3.46282000 7.34574750 -1.2242714700000015 0 0 0
Sn 0.00000000 4.89716500 -3.6728144 0 0 0
Sn 0.68771605 4.95759602 1.19583183
Sn 4.41128640 6.78884190 3.90279258
Sn 4.38988617 3.00734903 3.86833687
Sn 0.11725109 0.01038199 0.95710300
Ge 1.73141000 2.44858250 -3.6728144 0 0 0
Ge 1.73141000 7.34574750 -3.6728144 0 0 0
Ge 5.19423000 4.89716500 -1.2242714700000015 0 0 0
Ge 5.19423000 0.00000000 -1.2242714700000015 0 0 0
Ge 2.58547992 7.21773561 1.70036184
Ge 2.55029767 2.61293136 1.65168632
Ge 5.41363428 0.00362390 3.17621467
Ge 6.47810514 4.89285549 3.74774189
C 1.90302736 0.02340845 5.38329419
O 1.53756134 0.03770817 6.46235946
