&CONTROL
calculation = 'relax'
prefix = 'scf'
pseudo_dir = '/vol0004/mdt0/data/hp150275/u10028/POT_KKJUS'
outdir = './data'
tprnfor = .true.
nstep = 50
disk_io = 'non'
/
&SYSTEM
ibrav = 0
ecutwfc = 50.0
ecutrho = 400
occupations = 'smearing'
smearing = 'mp'
degauss = 0.01
assume_isolated = 'esm'
esm_bc = 'bc1'
input_dft = 'BEEF-VDW'
nosym = .true.
nspin = 1
ntyp = 3
nat = 17
/
&ELECTRONS
electron_maxstep = 200
mixing_beta = 0.1
conv_thr = 1e-06
/
&IONS
ion_dynamics = 'bfgs'
upscale = 1.0
/
&CELL
/

K_POINTS {automatic}
6 8 1 0 0 0

ATOMIC_SPECIES
C 12.01 C.pbe-n-rrkjus_psl.1.0.0.UPF
Ga 69.72 Ga.pbe-dnl-rrkjus_psl.1.0.0.UPF
Pt 195.0 Pt.pbe-n-rrkjus_psl.1.0.0.UPF

CELL_PARAMETERS {angstrom}
7.92728000 0.00000000 0.00000000
0.00000000 5.60543000 0.00000000
0.00000000 0.00000000 24.20410000

ATOMIC_POSITIONS {angstrom}
Ga 0.00000000 0.00000000 -2.1021260800000015 0 0 0
Ga 7.92720073 2.80316343 0.55887267
Ga 3.96364000 0.00000000 -2.1021260800000015 0 0 0
Ga 3.96110327 2.80198629 1.39657657
Pt 0.00000000 2.80271500 -2.1021260800000015 0 0 0
Pt 1.98182000 4.20407250 -0.700708689999999 0 0 0
Pt 1.98182000 1.40135750 -0.700708689999999 0 0 0
Pt 7.92704218 5.60425286 0.48868078
Pt 1.57047344 1.40886878 2.22169434
Pt 1.56785744 4.19992448 2.22338863
Pt 3.96364000 2.80271500 -2.1021260800000015 0 0 0
Pt 5.94546000 4.20407250 -0.700708689999999 0 0 0
Pt 5.94546000 1.40135750 -0.700708689999999 0 0 0
Pt 3.96403636 5.60010484 1.00011341
Pt 6.35450765 1.40931721 2.22048413
Pt 6.35752001 4.20059713 2.22266250
C 7.92529818 5.60537395 2.60557136
