&CONTROL
calculation = 'relax'
prefix = 'scf'
pseudo_dir = '/vol0403/data/hp230205/u10028/POT_HYBRID_KKJUS_GBRV'
outdir = './data'
tprnfor = .true.
nstep = 50
disk_io = 'non'
/
&SYSTEM
ibrav = 0
ecutwfc = 50.0
ecutrho = 400
occupations = 'smearing'
smearing = 'mp'
degauss = 0.01
assume_isolated = 'esm'
esm_bc = 'bc1'
input_dft = 'BEEF-VDW'
nosym = .true.
nspin = 1
ntyp = 5
nat = 17
/
&ELECTRONS
electron_maxstep = 200
mixing_beta = 0.1
conv_thr = 1e-06
/
&IONS
ion_dynamics = 'bfgs'
upscale = 1.0
/
&CELL
/

K_POINTS {automatic}
11 8 2 0  0  0

ATOMIC_SPECIES
Ag 107.8 Ag.pbe-n-rrkjus_psl.1.0.0.UPF
Al 26.98 Al.pbe-nl-rrkjus_psl.1.0.0.UPF
C 12.01 C.pbe-n-rrkjus_psl.1.0.0.UPF
Ge 72.64 Ge.pbe-dn-rrkjus_psl.1.0.0.UPF
Li 6.941 Li.pbe-sl-rrkjus_psl.1.0.0.UPF


CELL_PARAMETERS {angstrom}
5.75991000 0.00000000 0.00000000
0.00000000 8.02734000 0.00000000
0.00000000 0.00000000 24.29680000

ATOMIC_POSITIONS {angstrom}
Li 1.29125662 2.00683500 -0.7160267000000005 0 0 0
Li 3.99207842 1.48305107 2.67702142
Li 1.29125662 6.02050500 -0.7160267000000005 0 0 0
Li 3.99202082 6.54428894 2.67702142
Al 2.87995500 0.00000000 -2.1483230600000027 0 0 0
Al 5.45544116 8.02725973 0.59162708
Al 2.87995500 4.01367000 -2.1483230600000027 0 0 0
Al 5.16393211 4.01367000 0.76146171
Ag 0.00000000 0.00000000 -2.1483230600000027 0 0 0
Ag 2.63567722 0.00008027 0.60328954
Ag 0.00000000 4.01367000 -2.1483230600000027 0 0 0
Ag 2.29382656 4.01367000 1.08946851
Ge 4.17121162 2.00683500 -0.7160267000000005 0 0 0
Ge 1.14518531 1.39458978 2.58347874
Ge 4.17121162 6.02050500 -0.7160267000000005 0 0 0
Ge 1.14530050 6.63250940 2.58323578
C 2.51397032 8.02717945 2.96663928
