&CONTROL
calculation = 'relax'
prefix = 'scf'
pseudo_dir = '/vol0004/mdt0/data/hp150275/u10028/POT_KKJUS'
outdir = './data'
tprnfor = .true.
nstep = 50
disk_io = 'non'
/
&SYSTEM
ibrav = 0
ecutwfc = 50.0
ecutrho = 400
occupations = 'smearing'
smearing = 'mp'
degauss = 0.01
assume_isolated = 'esm'
esm_bc = 'bc1'
input_dft = 'BEEF-VDW'
nosym = .true.
nspin = 1
ntyp = 3
nat = 33
/
&ELECTRONS
electron_maxstep = 200
mixing_beta = 0.1
conv_thr = 1e-06
/
&IONS
ion_dynamics = 'bfgs'
upscale = 1.0
/
&CELL
/

K_POINTS {automatic}
9 6 2 0  0  0

ATOMIC_SPECIES
C 12.01 C.pbe-n-rrkjus_psl.1.0.0.UPF
Cu 63.54 Cu.pbe-dn-rrkjus_psl.1.0.0.UPF
Zr 91.22 Zr.pbe-spn-rrkjus_psl.1.0.0.UPF

CELL_PARAMETERS {angstrom}
6.62616000 0.00000000 0.00000000
0.00000000 9.37081000 0.00000000
0.00000000 0.00000000 27.02810000

ATOMIC_POSITIONS {angstrom}
Zr 1.65654000 2.34270250 -3.51392328 0 0 0
Zr 1.65654000 0.00000000 -1.1713978499999982 0 0 0
Zr 1.65654000 2.34270250 1.16247858
Zr 1.65654000 0.16361434 3.46581326
Zr 1.65654000 7.02810750 -3.51392328 0 0 0
Zr 1.65654000 4.68540500 -1.1713978499999982 0 0 0
Zr 1.65654000 7.02810750 1.09220552
Zr 1.65654000 4.52169695 3.46554298
Zr 4.96962000 2.34270250 -3.51392328 0 0 0
Zr 4.96962000 0.00000000 -1.1713978499999982 0 0 0
Zr 4.96962000 2.34260879 1.03896016
Zr 4.96962000 9.21338039 3.30932056
Zr 4.96962000 7.02810750 -3.51392328 0 0 0
Zr 4.96962000 4.68540500 -1.1713978499999982 0 0 0
Zr 4.96962000 7.02820121 1.07085332
Zr 4.96962000 4.84292832 3.30932056
Cu 0.00000000 0.00000000 -3.51392328 0 0 0
Cu 0.00000000 2.34270250 -1.1713978499999982 0 0 0
Cu 0.07209262 0.00318608 1.17031673
Cu 6.27424464 2.34288992 3.38662093
Cu 0.00000000 4.68540500 -3.51392328 0 0 0
Cu 0.00000000 7.02810750 -1.1713978499999982 0 0 0
Cu 0.07196010 4.68221892 1.17004645
Cu 0.11337360 7.02773267 3.29391455
Cu 3.31308000 0.00000000 -3.51392328 0 0 0
Cu 3.31308000 2.34270250 -1.1713978499999982 0 0 0
Cu 3.24098738 0.00318608 1.17031673
Cu 3.66499536 2.34288992 3.38662093
Cu 3.31308000 4.68540500 -3.51392328 0 0 0
Cu 3.31308000 7.02810750 -1.1713978499999982 0 0 0
Cu 3.24111990 4.68221892 1.17004645
Cu 3.19970640 7.02773267 3.29391455
C 1.65654000 2.34270250 3.47284057
