&CONTROL
calculation = 'relax'
prefix = 'scf'
pseudo_dir = '/vol0004/mdt0/data/hp150275/u10028/POT_KKJUS'
outdir = './data'
tprnfor = .true.
nstep = 50
disk_io = 'non'
/
&SYSTEM
ibrav = 0
ecutwfc = 50.0
ecutrho = 400
occupations = 'smearing'
smearing = 'mp'
degauss = 0.01
assume_isolated = 'esm'
esm_bc = 'bc1'
input_dft = 'BEEF-VDW'
nosym = .true.
nspin = 1
ntyp = 5
nat = 34
/
&ELECTRONS
electron_maxstep = 200
mixing_beta = 0.1
conv_thr = 1e-06
/
&IONS
ion_dynamics = 'bfgs'
upscale = 1.0
/
&CELL
/

K_POINTS {automatic}
8 6 1 0 0 0

ATOMIC_SPECIES
Au 196.9 Au.pbe-n-rrkjus_psl.1.0.0.UPF
C 12.01 C.pbe-n-rrkjus_psl.1.0.0.UPF
In 114.8 In.pbe-dn-rrkjus_psl.1.0.0.UPF
O 15.99 O.pbe-n-rrkjus_psl.1.0.0.UPF
Sc 44.95 Sc.pbe-spn-rrkjus_psl.1.0.0.UPF

CELL_PARAMETERS {angstrom}
6.85473000 0.00000000 0.00000000
0.00000000 9.69405000 0.00000000
0.00000000 0.00000000 27.27050000

ATOMIC_POSITIONS {angstrom}
Sc 0.00000000 0.00000000 -3.63515765 0 0 0
Sc 3.42736500 2.42351250 -1.211628319999999 0 0 0
Sc 3.42736500 7.27053750 -1.211628319999999 0 0 0
Sc 0.00000000 4.84702500 -3.63515765 0 0 0
Sc 6.83423436 4.84702500 1.33434557
Sc 3.40625243 7.31299744 3.45299071
Sc 3.40625243 2.38105256 3.45299071
Sc 0.09219612 0.00000000 1.41806600
In 0.00000000 7.27053750 -1.211628319999999 0 0 0
In 3.42736500 0.00000000 -3.63515765 0 0 0
In 0.00000000 2.42351250 -1.211628319999999 0 0 0
In 3.42736500 4.84702500 -3.63515765 0 0 0
In 6.82079909 2.53751453 3.84759484
In 3.45649760 4.84702500 1.13554362
In 6.82079909 7.15653547 3.84759484
In 3.40076865 0.00000000 1.21680971
Au 1.71368250 0.00000000 -1.211628319999999 0 0 0
Au 5.14104750 4.84702500 -1.211628319999999 0 0 0
Au 5.14104750 0.00000000 -1.211628319999999 0 0 0
Au 1.71368250 4.84702500 -1.211628319999999 0 0 0
Au 5.14104750 7.27053750 -3.63515765 0 0 0
Au 1.71368250 2.42351250 -3.63515765 0 0 0
Au 1.71368250 7.27053750 -3.63515765 0 0 0
Au 5.14104750 2.42351250 -3.63515765 0 0 0
Au 1.85852294 4.84702500 3.65615593
Au 5.10787061 0.00000000 3.67824504
Au 4.93766766 4.84702500 3.72269595
Au 1.58097493 0.00000000 3.89886339
Au 5.21699791 2.39443035 1.22062758
Au 1.66158655 7.22390912 1.20808315
Au 1.66158655 2.47014088 1.20808315
Au 5.21692936 7.29961965 1.22062758
C 2.01823815 0.00000000 6.09222970
O 1.54073766 0.00000000 7.13641714
