&CONTROL
calculation = 'relax'
prefix = 'scf'
pseudo_dir = '/vol0004/mdt0/data/hp150275/u10028/POT_KKJUS'
outdir = './data'
tprnfor = .true.
nstep = 50
disk_io = 'non'
/
&SYSTEM
ibrav = 0
ecutwfc = 50.0
ecutrho = 400
occupations = 'smearing'
smearing = 'mp'
degauss = 0.01
assume_isolated = 'esm'
esm_bc = 'bc1'
input_dft = 'BEEF-VDW'
nosym = .true.
nspin = 1
ntyp = 4
nat = 33
/
&ELECTRONS
electron_maxstep = 200
mixing_beta = 0.1
conv_thr = 1e-06
/
&IONS
ion_dynamics = 'bfgs'
upscale = 1.0
/
&CELL
/

K_POINTS {automatic}
8 6 1 0 0 0

ATOMIC_SPECIES
Al 26.98 Al.pbe-nl-rrkjus_psl.1.0.0.UPF
Au 196.9 Au.pbe-n-rrkjus_psl.1.0.0.UPF
C 12.01 C.pbe-n-rrkjus_psl.1.0.0.UPF
Ti 47.86 Ti.pbe-spn-rrkjus_psl.1.0.0.UPF

CELL_PARAMETERS {angstrom}
6.49880000 0.00000000 0.00000000
0.00000000 9.19068000 0.00000000
0.00000000 0.00000000 26.89300000

ATOMIC_POSITIONS {angstrom}
Ti 0.00000000 0.00000000 -3.446606880000001 0 0 0
Ti 3.24940000 2.29767000 -1.1488689600000015 0 0 0
Ti 3.24940000 6.89301000 -1.1488689600000015 0 0 0
Ti 0.00000000 4.59534000 -3.446606880000001 0 0 0
Ti 0.06550790 4.64855404 1.25617203
Ti 3.07035806 6.89301000 3.32047871
Ti 3.28904268 2.29767000 3.33849702
Ti 0.06544292 9.13746596 1.25590310
Al 0.00000000 6.89301000 -1.1488689600000015 0 0 0
Al 3.24940000 0.00000000 -3.446606880000001 0 0 0
Al 0.00000000 2.29767000 -1.1488689600000015 0 0 0
Al 3.24940000 4.59534000 -3.446606880000001 0 0 0
Al 5.99923724 2.29767000 3.73893379
Al 3.26668681 4.56436741 1.13999427
Al 0.12328224 6.89291809 3.42347890
Al 3.26668681 0.03097259 1.13999427
Au 1.62470000 0.00000000 -1.1488689600000015 0 0 0
Au 4.87410000 4.59534000 -1.1488689600000015 0 0 0
Au 4.87410000 0.00000000 -1.1488689600000015 0 0 0
Au 1.62470000 4.59534000 -1.1488689600000015 0 0 0
Au 4.87410000 6.89301000 -3.446606880000001 0 0 0
Au 1.62470000 2.29767000 -3.446606880000001 0 0 0
Au 1.62470000 6.89301000 -3.446606880000001 0 0 0
Au 4.87410000 2.29767000 -3.446606880000001 0 0 0
Au 1.60682830 4.64258010 3.71768832
Au 4.75926620 9.11118062 3.42697499
Au 4.75920122 4.67483938 3.42697499
Au 1.60682830 9.14334800 3.71768832
Au 5.02428727 2.29739428 1.06576959
Au 1.65745395 6.89328572 1.03995231
Au 1.61417194 2.29748619 1.12493419
Au 4.87117554 6.89319381 1.12735456
C 1.42388708 2.29767000 3.77443255
