&CONTROL
calculation = 'relax'
prefix = 'scf'
pseudo_dir = '/vol0004/mdt0/data/hp150275/u10028/POT_KKJUS'
outdir = './data'
tprnfor = .true.
nstep = 50
disk_io = 'non'
/
&SYSTEM
ibrav = 0
ecutwfc = 50.0
ecutrho = 400
occupations = 'smearing'
smearing = 'mp'
degauss = 0.01
assume_isolated = 'esm'
esm_bc = 'bc1'
input_dft = 'BEEF-VDW'
nosym = .true.
nspin = 1
ntyp = 3
nat = 17
/
&ELECTRONS
electron_maxstep = 200
mixing_beta = 0.1
conv_thr = 1e-06
/
&IONS
ion_dynamics = 'bfgs'
upscale = 1.0
/
&CELL
/

K_POINTS {automatic}
8 11 2 0  0  0

ATOMIC_SPECIES
C 12.01 C.pbe-n-rrkjus_psl.1.0.0.UPF
Pd 106.4 Pd.pbe-n-rrkjus_psl.1.0.0.UPF
Ti 47.86 Ti.pbe-spn-rrkjus_psl.1.0.0.UPF

CELL_PARAMETERS {angstrom}
7.90864000 0.00000000 0.00000000
0.00000000 5.59226000 0.00000000
0.00000000 0.00000000 24.19420000

ATOMIC_POSITIONS {angstrom}
Ti 0.00000000 0.00000000 -2.097153259999999 0 0 0
Ti 0.00000000 2.79613000 0.52428831
Ti 3.95432000 0.00000000 -2.097153259999999 0 0 0
Ti 3.95432000 2.79613000 0.56807982
Pd 0.00000000 2.79613000 -2.097153259999999 0 0 0
Pd 1.97716000 4.19419500 -0.6989704400000001 0 0 0
Pd 1.97716000 1.39806500 -0.6989704400000001 0 0 0
Pd 0.00000000 0.00000000 0.43501172
Pd 1.55199151 1.41377925 2.18159101
Pd 1.55199151 4.17848075 2.18159101
Pd 3.95432000 2.79613000 -2.097153259999999 0 0 0
Pd 5.93148000 4.19419500 -0.6989704400000001 0 0 0
Pd 5.93148000 1.39806500 -0.6989704400000001 0 0 0
Pd 3.95432000 0.00000000 0.79066646
Pd 6.35664849 1.41377925 2.18159101
Pd 6.35664849 4.17848075 2.18159101
C 0.00000000 0.00000000 2.53119720
