&CONTROL
calculation = 'relax'
prefix = 'scf'
pseudo_dir = '/vol0004/mdt0/data/hp150275/u10028/POT_HYBRID_KKJUS_GBRV'
outdir = './data'
tprnfor = .true.
nstep = 50
disk_io = 'non'
/
&SYSTEM
ibrav = 0
ecutwfc = 50.0
ecutrho = 400
occupations = 'smearing'
smearing = 'mp'
degauss = 0.01
assume_isolated = 'esm'
esm_bc = 'bc1'
input_dft = 'BEEF-VDW'
nosym = .true.
nspin = 2
ntyp = 3
nat = 32
starting_magnetization(1) = 0.1
starting_magnetization(2) = 0.0
starting_magnetization(3) = 0.0
/
&ELECTRONS
electron_maxstep = 300
mixing_beta = 0.1
conv_thr = 1e-06
/
&IONS
ion_dynamics = 'bfgs'
upscale = 1.0
/
&CELL
/

K_POINTS {automatic}
9 6 2 0  0  0

ATOMIC_SPECIES
Fe 55.84 fe_pbe_v1.5.uspp.F.UPF
Ga 69.72 Ga.pbe-dnl-rrkjus_psl.1.0.0.UPF
V 50.94 V.pbe-spnl-rrkjus_psl.1.0.0.UPF

CELL_PARAMETERS {angstrom}
5.73361000 0.00000000 0.00000000
0.00000000 8.10855000 0.00000000
0.00000000 0.00000000 26.08140000

ATOMIC_POSITIONS {angstrom}
V 0.00000000 0.00000000 -3.0408304299999998 0 0 0
V 2.86680500 2.02713750 -1.013523199999998 0 0 0
V 2.86680500 6.08141250 -1.013523199999998 0 0 0
V 0.00000000 4.05427500 -3.0408304299999998 0 0 0
V 0.00005734 4.05419391 1.03647484
V 2.86674766 6.08141250 2.96936739
V 2.86674766 2.02713750 2.96910658
V 0.00005734 0.00008109 1.03647484
Ga 0.00000000 6.08141250 -1.013523199999998 0 0 0
Ga 2.86680500 0.00000000 -3.0408304299999998 0 0 0
Ga 0.00000000 2.02713750 -1.013523199999998 0 0 0
Ga 2.86680500 4.05427500 -3.0408304299999998 0 0 0
Ga 5.73355266 2.02705641 3.33242048
Ga 2.86686234 4.05443717 1.00282983
Ga 5.73355266 6.08149359 3.33242048
Ga 2.86680500 8.10838783 1.00282983
Fe 1.43340250 0.00000000 -1.013523199999998 0 0 0
Fe 4.30020750 4.05427500 -1.013523199999998 0 0 0
Fe 4.30020750 0.00000000 -1.013523199999998 0 0 0
Fe 1.43340250 4.05427500 -1.013523199999998 0 0 0
Fe 4.30020750 6.08141250 -3.0408304299999998 0 0 0
Fe 1.43340250 2.02713750 -3.0408304299999998 0 0 0
Fe 1.43340250 6.08141250 -3.0408304299999998 0 0 0
Fe 4.30020750 2.02713750 -3.0408304299999998 0 0 0
Fe 1.40611052 4.05435609 3.04708996
Fe 4.32755682 8.10846891 3.04708996
Fe 4.32744215 4.05435609 3.04708996
Fe 1.40605318 8.10846891 3.04708996
Fe 4.32514870 2.02713750 1.06203461
Fe 1.40840396 6.08141250 1.06203461
Fe 1.40851863 2.02713750 1.06203461
Fe 4.32526338 6.08141250 1.06203461
