&CONTROL
calculation = 'relax'
prefix = 'scf'
pseudo_dir = '/vol0004/mdt0/data/hp150275/u10028/POT_HYBRID_KKJUS_GBRV'
outdir = './data'
tprnfor = .true.
nstep = 50
disk_io = 'non'
/
&SYSTEM
ibrav = 0
ecutwfc = 50.0
ecutrho = 400
occupations = 'smearing'
smearing = 'mp'
degauss = 0.01
assume_isolated = 'esm'
esm_bc = 'bc1'
input_dft = 'BEEF-VDW'
nosym = .true.
nspin = 2
ntyp = 3
nat = 33
starting_magnetization(1) = 0.1
starting_magnetization(2) = 0.1
starting_magnetization(3) = 0.1
/
&ELECTRONS
electron_maxstep = 200
mixing_beta = 0.1
conv_thr = 1e-06
/
&IONS
ion_dynamics = 'bfgs'
upscale = 1.0
/
&CELL
/

K_POINTS {automatic}
9 6 2 0  0  0

ATOMIC_SPECIES
Be 9.012 Be.pbe-n-rrkjus_psl.1.0.0.UPF
C 12.01 C.pbe-n-rrkjus_psl.1.0.0.UPF
Ni 58.69 ni_pbe_v1.4.uspp.F.UPF

CELL_PARAMETERS {angstrom}
5.22839000 0.00000000 0.00000000
0.00000000 7.39406000 0.00000000
0.00000000 0.00000000 25.54550000

ATOMIC_POSITIONS {angstrom}
Be 0.00000000 0.00000000 -2.772708569999999 0 0 0
Be 0.00000000 1.84851500 -0.924236190000002 0 0 0
Be 0.00000000 0.00000000 0.88898340
Be 0.00000000 1.75010006 3.04323542
Be 0.00000000 3.69703000 -2.772708569999999 0 0 0
Be 0.00000000 5.54554500 -0.924236190000002 0 0 0
Be 0.00000000 3.69703000 0.89817978
Be 0.00000000 5.64395994 3.04323542
Be 2.61419500 0.00000000 -2.772708569999999 0 0 0
Be 2.61419500 1.84851500 -0.924236190000002 0 0 0
Be 2.61419500 0.00000000 0.78961141
Be 2.61419500 1.96312293 2.81358137
Be 2.61419500 3.69703000 -2.772708569999999 0 0 0
Be 2.61419500 5.54554500 -0.924236190000002 0 0 0
Be 2.61419500 3.69703000 0.95540170
Be 2.61419500 5.43093707 2.81358137
Ni 1.30709750 1.84851500 -2.772708569999999 0 0 0
Ni 1.30709750 0.00000000 -0.924236190000002 0 0 0
Ni 1.29658844 1.82625888 0.95054806
Ni 1.43357225 0.00000000 2.70399118
Ni 1.30709750 5.54554500 -2.772708569999999 0 0 0
Ni 1.30709750 3.69703000 -0.924236190000002 0 0 0
Ni 1.29664072 5.56780112 0.95054806
Ni 1.24754614 3.69703000 2.71497574
Ni 3.92129250 1.84851500 -2.772708569999999 0 0 0
Ni 3.92129250 0.00000000 -0.924236190000002 0 0 0
Ni 3.93180156 1.82625888 0.95054806
Ni 3.79481775 0.00000000 2.70399118
Ni 3.92129250 5.54554500 -2.772708569999999 0 0 0
Ni 3.92129250 3.69703000 -0.924236190000002 0 0 0
Ni 3.93180156 5.56780112 0.95054806
Ni 3.98084386 3.69703000 2.71497574
C 0.00000000 0.00000000 3.71533752
