&CONTROL
calculation = 'relax'
prefix = 'scf'
pseudo_dir = '/vol0004/mdt0/data/hp150275/u10028/POT_HYBRID_KKJUS_GBRV'
outdir = './data'
tprnfor = .true.
nstep = 50
disk_io = 'non'
/
&SYSTEM
ibrav = 0
ecutwfc = 50.0
ecutrho = 400
occupations = 'smearing'
smearing = 'mp'
degauss = 0.01
assume_isolated = 'esm'
esm_bc = 'bc1'
input_dft = 'BEEF-VDW'
nosym = .true.
nspin = 2
ntyp = 5
nat = 34
starting_magnetization(1) = 0.0
starting_magnetization(2) = 0.0
starting_magnetization(3) = 0.001
starting_magnetization(4) = 0.0
starting_magnetization(5) = 0.0
/
&ELECTRONS
electron_maxstep = 300
mixing_beta = 0.1
conv_thr = 1e-06
/
&IONS
ion_dynamics = 'bfgs'
upscale = 1.0
/
&CELL
/

K_POINTS {automatic}
9 6 2 0  0  0

ATOMIC_SPECIES
C 12.01 C.pbe-n-rrkjus_psl.1.0.0.UPF
Ga 69.72 Ga.pbe-dnl-rrkjus_psl.1.0.0.UPF
Ni 58.69 ni_pbe_v1.4.uspp.F.UPF
O 15.99 O.pbe-n-rrkjus_psl.1.0.0.UPF
Zr 91.22 Zr.pbe-spn-rrkjus_psl.1.0.0.UPF

CELL_PARAMETERS {angstrom}
6.13924000 0.00000000 0.00000000
0.00000000 8.68219000 0.00000000
0.00000000 0.00000000 26.51160000

ATOMIC_POSITIONS {angstrom}
Zr 0.00000000 0.00000000 -3.2558895999999997 0 0 0
Zr 3.06962000 2.17054750 -1.085384900000001 0 0 0
Zr 3.06962000 6.51164250 -1.085384900000001 0 0 0
Zr 0.00000000 4.34109500 -3.2558895999999997 0 0 0
Zr 0.00000000 4.36679428 1.06019888
Zr 3.06962000 6.51138203 3.39242434
Zr 3.06962000 2.17072114 3.34178718
Zr 0.00000000 8.65657754 1.06019888
Ga 0.00000000 6.51164250 -1.085384900000001 0 0 0
Ga 3.06962000 0.00000000 -3.2558895999999997 0 0 0
Ga 0.00000000 2.17054750 -1.085384900000001 0 0 0
Ga 3.06962000 4.34109500 -3.2558895999999997 0 0 0
Ga 0.00000000 2.17028703 3.20233616
Ga 3.06962000 4.32364380 1.12965928
Ga 0.00000000 6.51303165 3.22566637
Ga 3.06962000 0.01753802 1.12992439
Ni 1.53481000 0.00000000 -1.085384900000001 0 0 0
Ni 4.60443000 4.34109500 -1.085384900000001 0 0 0
Ni 4.60443000 0.00000000 -1.085384900000001 0 0 0
Ni 1.53481000 4.34109500 -1.085384900000001 0 0 0
Ni 4.60443000 6.51164250 -3.2558895999999997 0 0 0
Ni 1.53481000 2.17054750 -3.2558895999999997 0 0 0
Ni 1.53481000 6.51164250 -3.2558895999999997 0 0 0
Ni 4.60443000 2.17054750 -3.2558895999999997 0 0 0
Ni 1.45831507 4.35142681 3.14692692
Ni 4.68031101 8.67211866 3.14692692
Ni 4.68092493 4.35142681 3.14692692
Ni 1.45892899 8.67211866 3.14692692
Ni 4.55635975 2.17020021 1.10659418
Ni 1.68129227 6.51198979 1.19355223
Ni 1.58288025 2.17028703 1.10659418
Ni 4.45794773 6.51198979 1.19355223
C 3.06962000 2.17037386 5.68223123
O 3.06962000 2.17037386 6.82965328
