&CONTROL
calculation = 'relax'
prefix = 'scf'
pseudo_dir = '/vol0403/data/hp230205/u10028/POT_HYBRID_KKJUS_GBRV'
outdir = './data'
tprnfor = .true.
nstep = 50
disk_io = 'non'
/
&SYSTEM
ibrav = 0
ecutwfc = 50.0
ecutrho = 400
occupations = 'smearing'
smearing = 'mp'
degauss = 0.01
assume_isolated = 'esm'
esm_bc = 'bc1'
input_dft = 'BEEF-VDW'
nosym = .true.
nspin = 1
ntyp = 6
nat = 34
/
&ELECTRONS
electron_maxstep = 200
mixing_beta = 0.1
conv_thr = 1e-06
/
&IONS
ion_dynamics = 'bfgs'
upscale = 1.0
/
&CELL
/

K_POINTS {automatic}
6 6 1 0 0 0

ATOMIC_SPECIES
C 12.01 C.pbe-n-rrkjus_psl.1.0.0.UPF
Ca 40.07 Ca.pbe-spn-rrkjus_psl.1.0.0.UPF
Ge 72.64 Ge.pbe-dn-rrkjus_psl.1.0.0.UPF
Li 6.941 Li.pbe-sl-rrkjus_psl.1.0.0.UPF
O 15.99 O.pbe-n-rrkjus_psl.1.0.0.UPF
Pd 106.4 Pd.pbe-n-rrkjus_psl.1.0.0.UPF


CELL_PARAMETERS {angstrom}
6.62107000 0.00000000 0.00000000
0.00000000 9.36360000 0.00000000
0.00000000 0.00000000 27.02270000

ATOMIC_POSITIONS {angstrom}
Li 4.96580250 0.00000000 -1.1703531399999996 0 0 0
Li 4.96580250 4.68180000 -1.1703531399999996 0 0 0
Li 1.65526750 2.34090000 -3.5113296399999996 0 0 0
Li 1.65526750 7.02270000 -3.5113296399999996 0 0 0
Li 0.31642094 4.68151909 5.07459283
Li 0.15877326 0.00009364 4.96542112
Li 2.11894103 7.04114629 1.55245411
Li 2.11847756 2.32217280 1.55191366
Ca 0.00000000 0.00000000 -3.5113296399999996 0 0 0
Ca 0.00000000 4.68180000 -3.5113296399999996 0 0 0
Ca 3.31053500 7.02270000 -1.1703531399999996 0 0 0
Ca 3.31053500 2.34090000 -1.1703531399999996 0 0 0
Ca 0.03853463 4.68180000 1.38356224
Ca 0.10553986 9.36322546 1.48759964
Ca 4.08248555 2.44549141 3.78101618
Ca 4.08288282 6.91810859 3.78101618
Ge 0.00000000 2.34090000 -1.1703531399999996 0 0 0
Ge 0.00000000 7.02270000 -1.1703531399999996 0 0 0
Ge 3.31053500 4.68180000 -3.5113296399999996 0 0 0
Ge 3.31053500 0.00000000 -3.5113296399999996 0 0 0
Ge 0.61297866 6.97653745 3.67616811
Ge 0.61225034 2.38678164 3.67562765
Ge 3.51479501 0.00000000 1.19548425
Ge 3.51790691 4.68151909 1.11441615
Pd 1.65526750 0.00000000 -1.1703531399999996 0 0 0
Pd 1.65526750 4.68180000 -1.1703531399999996 0 0 0
Pd 4.96580250 2.34090000 -3.5113296399999996 0 0 0
Pd 4.96580250 7.02270000 -3.5113296399999996 0 0 0
Pd 2.10013719 4.68180000 3.24164309
Pd 2.32300241 9.36322546 3.62644634
Pd 4.97699211 7.05594078 1.00686580
Pd 4.97725695 2.30728468 1.00740626
C 3.04595704 0.00009364 5.41940248
O 3.18115929 0.00028091 6.58840449
