&CONTROL
calculation = 'relax'
prefix = 'scf'
pseudo_dir = '/vol0004/mdt0/data/hp150275/u10028/POT_KKJUS'
outdir = './data'
tprnfor = .true.
nstep = 50
disk_io = 'non'
/
&SYSTEM
ibrav = 0
ecutwfc = 50.0
ecutrho = 400
occupations = 'smearing'
smearing = 'mp'
degauss = 0.01
assume_isolated = 'esm'
esm_bc = 'bc1'
input_dft = 'BEEF-VDW'
nosym = .true.
nspin = 1
ntyp = 3
nat = 33
/
&ELECTRONS
electron_maxstep = 200
mixing_beta = 0.1
conv_thr = 1e-06
/
&IONS
ion_dynamics = 'bfgs'
upscale = 1.0
/
&CELL
/

K_POINTS {automatic}
8 6 1 0 0 0

ATOMIC_SPECIES
C 12.01 C.pbe-n-rrkjus_psl.1.0.0.UPF
Ca 40.07 Ca.pbe-spn-rrkjus_psl.1.0.0.UPF
In 114.8 In.pbe-dn-rrkjus_psl.1.0.0.UPF

CELL_PARAMETERS {angstrom}
7.80577000 0.00000000 0.00000000
0.00000000 11.03900000 0.00000000
0.00000000 0.00000000 28.27930000

ATOMIC_POSITIONS {angstrom}
Ca 0.00000000 0.00000000 -4.139523929999999 0 0 0
Ca 0.00000000 2.75975000 -1.3797470499999989 0 0 0
Ca 0.00000000 0.00000000 1.51944679
Ca 0.00000000 2.48741787 4.19240623
Ca 0.00000000 5.51950000 -4.139523929999999 0 0 0
Ca 0.00000000 8.27925000 -1.3797470499999989 0 0 0
Ca 0.00000000 5.51950000 1.28444581
Ca 0.00000000 8.55158213 4.19268902
Ca 3.90288500 0.00000000 -4.139523929999999 0 0 0
Ca 3.90288500 2.75975000 -1.3797470499999989 0 0 0
Ca 3.90288500 0.00000000 1.38059543
Ca 3.90272888 3.00293917 4.17656982
Ca 3.90288500 5.51950000 -4.139523929999999 0 0 0
Ca 3.90288500 8.27925000 -1.3797470499999989 0 0 0
Ca 3.90288500 5.51950000 1.38087822
Ca 3.90296306 8.03584005 4.17656982
In 1.95144250 2.75975000 -4.139523929999999 0 0 0
In 1.95144250 0.00000000 -1.3797470499999989 0 0 0
In 1.99429618 2.79993196 1.45949467
In 2.18717675 11.03888961 4.16525810
In 1.95144250 8.27925000 -4.139523929999999 0 0 0
In 1.95144250 5.51950000 -1.3797470499999989 0 0 0
In 1.99429618 8.23895765 1.45949467
In 1.64834445 5.51950000 4.13443366
In 5.85432750 2.75975000 -4.139523929999999 0 0 0
In 5.85432750 0.00000000 -1.3797470499999989 0 0 0
In 5.81155188 2.79993196 1.45949467
In 5.61867130 0.00011039 4.16525810
In 5.85432750 8.27925000 -4.139523929999999 0 0 0
In 5.85432750 5.51950000 -1.3797470499999989 0 0 0
In 5.81147382 8.23906804 1.45949467
In 6.15742555 5.51950000 4.13415087
C 0.00007806 0.00000000 4.19353740
