&CONTROL
calculation = 'relax'
prefix = 'scf'
pseudo_dir = '/vol0004/mdt0/data/hp150275/u10028/POT_HYBRID_KKJUS_GBRV'
outdir = './data'
tprnfor = .true.
nstep = 50
disk_io = 'non'
/
&SYSTEM
ibrav = 0
ecutwfc = 50.0
ecutrho = 400
occupations = 'smearing'
smearing = 'mp'
degauss = 0.01
assume_isolated = 'esm'
esm_bc = 'bc1'
input_dft = 'BEEF-VDW'
nosym = .true.
nspin = 2
ntyp = 5
nat = 34
starting_magnetization(1) = 0.0
starting_magnetization(2) = 0.0
starting_magnetization(3) = 0.1
starting_magnetization(4) = 0.0
starting_magnetization(5) = 0.0
/
&ELECTRONS
electron_maxstep = 200
mixing_beta = 0.1
conv_thr = 1e-06
/
&IONS
ion_dynamics = 'bfgs'
upscale = 1.0
/
&CELL
/

K_POINTS {automatic}
9 6 2 0  0  0

ATOMIC_SPECIES
Al 26.98 Al.pbe-nl-rrkjus_psl.1.0.0.UPF
C 12.01 C.pbe-n-rrkjus_psl.1.0.0.UPF
Co 58.93 co_pbe_v1.2.uspp.F.UPF
O 15.99 O.pbe-n-rrkjus_psl.1.0.0.UPF
Zr 91.22 Zr.pbe-spn-rrkjus_psl.1.0.0.UPF

CELL_PARAMETERS {angstrom}
6.08368000 0.00000000 0.00000000
0.00000000 8.60362000 0.00000000
0.00000000 0.00000000 26.45270000

ATOMIC_POSITIONS {angstrom}
Zr 0.00000000 0.00000000 23.22626418
Zr 3.04184000 2.15090500 25.37713322
Zr 3.04184000 6.45271500 25.37713322
Zr 0.00000000 4.30181000 23.22626418
Zr 0.00000000 4.30181000 1.07556678
Zr 3.04184000 6.45271500 3.22643582
Zr 3.04184000 2.15090500 3.22643582
Zr 0.00000000 0.00000000 1.07556678
Al 0.00000000 6.45271500 25.37713322
Al 3.04184000 0.00000000 23.22626418
Al 0.00000000 2.15090500 25.37713322
Al 3.04184000 4.30181000 23.22626418
Al 0.00000000 2.15090500 3.22643582
Al 3.04184000 4.30181000 1.07556678
Al 0.00000000 6.45271500 3.22643582
Al 3.04184000 0.00000000 1.07556678
Co 1.52092000 0.00000000 25.37713322
Co 4.56276000 4.30181000 25.37713322
Co 4.56276000 0.00000000 25.37713322
Co 1.52092000 4.30181000 25.37713322
Co 4.56276000 6.45271500 23.22626418
Co 1.52092000 2.15090500 23.22626418
Co 1.52092000 6.45271500 23.22626418
Co 4.56276000 2.15090500 23.22626418
Co 1.52092000 4.30181000 3.22643582
Co 4.56276000 0.00000000 3.22643582
Co 4.56276000 4.30181000 3.22643582
Co 1.52092000 0.00000000 3.22643582
Co 4.56276000 2.15090500 1.07556678
Co 1.52092000 6.45271500 1.07556678
Co 1.52092000 2.15090500 1.07556678
Co 4.56276000 6.45271500 1.07556678
C 3.04184000 2.15090500 5.12626873
O 3.04184000 2.15090500 6.27643213
