&CONTROL
calculation = 'relax'
prefix = 'scf'
pseudo_dir = '/vol0004/mdt0/data/hp150275/u10028/POT_KKJUS'
outdir = './data'
tprnfor = .true.
nstep = 50
disk_io = 'non'
/
&SYSTEM
ibrav = 0
ecutwfc = 50.0
ecutrho = 400
occupations = 'smearing'
smearing = 'mp'
degauss = 0.01
assume_isolated = 'esm'
esm_bc = 'bc1'
input_dft = 'BEEF-VDW'
nosym = .true.
nspin = 1
ntyp = 3
nat = 32
/
&ELECTRONS
electron_maxstep = 200
mixing_beta = 0.1
conv_thr = 1e-06
/
&IONS
ion_dynamics = 'bfgs'
upscale = 1.0
/
&CELL
/

K_POINTS {automatic}
8 6 1 0 0 0

ATOMIC_SPECIES
Au 196.9 Au.pbe-n-rrkjus_psl.1.0.0.UPF
Li 6.941 Li.pbe-sl-rrkjus_psl.1.0.0.UPF
Pb 207.2 Pb.pbe-dn-rrkjus_psl.1.0.0.UPF

CELL_PARAMETERS {angstrom}
6.82040000 0.00000000 0.00000000
0.00000000 9.64550000 0.00000000
0.00000000 0.00000000 27.23410000

ATOMIC_POSITIONS {angstrom}
Li 0.00000000 7.23412500 -1.2056536100000024 0 0 0
Li 3.41020000 0.00000000 -3.6169608200000027 0 0 0
Li 0.00000000 2.41137500 -1.2056536100000024 0 0 0
Li 3.41020000 4.82275000 -3.6169608200000027 0 0 0
Li 1.70510000 0.00000000 -1.2056536100000024 0 0 0
Li 1.70510000 4.82275000 -1.2056536100000024 0 0 0
Li 5.11530000 7.23412500 -3.6169608200000027 0 0 0
Li 5.11530000 2.41137500 -3.6169608200000027 0 0 0
Li 6.66946455 2.41137500 3.48433075
Li 3.40119707 4.82275000 0.99921913
Li 6.66946455 7.23412500 3.48460310
Li 3.40126528 0.00000000 0.99921913
Li 2.04441490 4.82275000 3.33372618
Li 2.04421029 0.00000000 3.33372618
Li 4.85353305 2.41137500 1.44776476
Li 4.85353305 7.23412500 1.44776476
Pb 0.00000000 0.00000000 -3.6169608200000027 0 0 0
Pb 3.41020000 2.41137500 -1.2056536100000024 0 0 0
Pb 3.41020000 7.23412500 -1.2056536100000024 0 0 0
Pb 0.00000000 4.82275000 -3.6169608200000027 0 0 0
Pb 0.07509260 4.82284645 1.15445350
Pb 3.45071318 7.23422146 4.19949822
Pb 3.45071318 2.41127855 4.19977056
Pb 0.07495620 9.64540355 1.15445350
Au 1.70510000 2.41137500 -3.6169608200000027 0 0 0
Au 1.70510000 7.23412500 -3.6169608200000027 0 0 0
Au 5.11530000 4.82275000 -1.2056536100000024 0 0 0
Au 5.11530000 0.00000000 -1.2056536100000024 0 0 0
Au 1.92915014 7.23412500 1.59019910
Au 1.92921834 2.41137500 1.59019910
Au 4.88238334 0.00000000 3.24412599
Au 4.88224693 4.82275000 3.24412599
