&CONTROL
calculation = 'relax'
prefix = 'scf'
pseudo_dir = '/vol0004/mdt0/data/hp150275/u10028/POT_KKJUS'
outdir = './data'
tprnfor = .true.
nstep = 50
disk_io = 'non'
/
&SYSTEM
ibrav = 0
ecutwfc = 50.0
ecutrho = 400
occupations = 'smearing'
smearing = 'mp'
degauss = 0.01
assume_isolated = 'esm'
esm_bc = 'bc1'
input_dft = 'BEEF-VDW'
nosym = .true.
nspin = 1
ntyp = 5
nat = 34
/
&ELECTRONS
electron_maxstep = 200
mixing_beta = 0.1
conv_thr = 1e-06
/
&IONS
ion_dynamics = 'bfgs'
upscale = 1.0
/
&CELL
/

K_POINTS {automatic}
8 6 1 0 0 0

ATOMIC_SPECIES
C 12.01 C.pbe-n-rrkjus_psl.1.0.0.UPF
Hf 178.4 Hf.pbe-spn-rrkjus_psl.1.0.0.UPF
Ni 58.69 Ni.pbe-spn-rrkjus_psl.1.0.0.UPF
O 15.99 O.pbe-n-rrkjus_psl.1.0.0.UPF
Sn 118.7 Sn.pbe-dn-rrkjus_psl.1.0.0.UPF

CELL_PARAMETERS {angstrom}
6.28964000 0.00000000 0.00000000
0.00000000 8.89490000 0.00000000
0.00000000 0.00000000 26.67120000

ATOMIC_POSITIONS {angstrom}
Hf 0.00000000 0.00000000 -3.335500269999997 0 0 0
Hf 3.14482000 2.22372500 -1.1119223299999987 0 0 0
Hf 3.14482000 6.67117500 -1.1119223299999987 0 0 0
Hf 0.00000000 4.44745000 -3.335500269999997 0 0 0
Hf 0.00000000 4.47102149 1.14286092
Hf 3.14482000 6.67135290 3.37470694
Hf 3.14482000 2.22381395 3.36830585
Hf 0.00000000 8.87132852 1.14286092
Ni 1.57241000 0.00000000 -1.1119223299999987 0 0 0
Ni 4.71723000 4.44745000 -1.1119223299999987 0 0 0
Ni 4.71723000 0.00000000 -1.1119223299999987 0 0 0
Ni 1.57241000 4.44745000 -1.1119223299999987 0 0 0
Ni 4.71723000 6.67117500 -3.335500269999997 0 0 0
Ni 1.57241000 2.22372500 -3.335500269999997 0 0 0
Ni 1.57241000 6.67117500 -3.335500269999997 0 0 0
Ni 4.71723000 2.22372500 -3.335500269999997 0 0 0
Ni 1.61455059 4.46648509 3.21734686
Ni 4.67534100 8.87622071 3.21788028
Ni 4.67515231 4.46648509 3.21761357
Ni 1.61429900 8.87622071 3.21761357
Ni 4.80610261 2.22372500 1.16473130
Ni 1.63203579 6.67117500 1.20660509
Ni 1.48353739 2.22372500 1.16473130
Ni 4.65760421 6.67117500 1.20660509
Sn 0.00000000 6.67117500 -1.1119223299999987 0 0 0
Sn 3.14482000 0.00000000 -3.335500269999997 0 0 0
Sn 0.00000000 2.22372500 -1.1119223299999987 0 0 0
Sn 3.14482000 4.44745000 -3.335500269999997 0 0 0
Sn 0.00000000 2.22390290 3.58354243
Sn 3.14482000 4.41382728 1.08311743
Sn 0.00000000 6.67117500 3.54753631
Sn 3.14482000 0.03362272 1.08338414
C 3.14482000 2.22372500 5.61455431
O 3.14482000 2.22372500 6.76568330
