&CONTROL
calculation = 'relax'
prefix = 'scf'
pseudo_dir = '/vol0403/data/hp230205/u10028/POT_HYBRID_KKJUS_GBRV'
outdir = './data'
tprnfor = .true.
nstep = 50
disk_io = 'non'
/
&SYSTEM
ibrav = 0
ecutwfc = 50.0
ecutrho = 400
occupations = 'smearing'
smearing = 'mp'
degauss = 0.01
assume_isolated = 'esm'
esm_bc = 'bc1'
input_dft = 'BEEF-VDW'
nosym = .true.
nspin = 1
ntyp = 5
nat = 17
/
&ELECTRONS
electron_maxstep = 200
mixing_beta = 0.1
conv_thr = 1e-06
/
&IONS
ion_dynamics = 'bfgs'
upscale = 1.0
/
&CELL
/

K_POINTS {automatic}
8 8 1 0 0 0

ATOMIC_SPECIES
C 12.01 C.pbe-n-rrkjus_psl.1.0.0.UPF
In 114.8 In.pbe-dn-rrkjus_psl.1.0.0.UPF
Mg 24.30 Mg.pbe-spnl-rrkjus_psl.1.0.0.UPF
Pd 106.4 Pd.pbe-n-rrkjus_psl.1.0.0.UPF
Sc 44.95 Sc.pbe-spn-rrkjus_psl.1.0.0.UPF


CELL_PARAMETERS {angstrom}
6.76782000 0.00000000 0.00000000
0.00000000 6.76782000 0.00000000
0.00000000 0.00000000 25.07590000

ATOMIC_POSITIONS {angstrom}
Mg 1.69195500 1.69195500 -0.8460608700000023 0 0 0
Mg 1.69195500 5.07586500 2.53793184
Mg 5.07586500 1.69195500 2.53793184
Mg 5.07586500 5.07586500 -0.8460608700000023 0 0 0
Sc 5.07586500 1.69195500 -0.8460608700000023 0 0 0
Sc 5.07586500 5.07586500 2.53793184
Sc 1.69195500 1.69195500 2.53793184
Sc 1.69195500 5.07586500 -0.8460608700000023 0 0 0
In 0.00000000 0.00000000 -2.5379318400000024 0 0 0
In 0.00000000 3.38391000 0.84606087
In 3.38391000 0.00000000 0.84606087
In 3.38391000 3.38391000 -2.5379318400000024 0 0 0
Pd 0.00000000 3.38391000 -2.5379318400000024 0 0 0
Pd 0.00000000 0.00000000 0.84606087
Pd 3.38391000 3.38391000 0.84606087
Pd 3.38391000 0.00000000 -2.5379318400000024 0 0 0
C 0.00000000 3.38391000 3.33785305
