&CONTROL
calculation = 'relax'
prefix = 'scf'
pseudo_dir = '/vol0004/mdt0/data/hp150275/u10028/POT_KKJUS'
outdir = './data'
tprnfor = .true.
nstep = 50
disk_io = 'non'
/
&SYSTEM
ibrav = 0
ecutwfc = 50.0
ecutrho = 400
occupations = 'smearing'
smearing = 'mp'
degauss = 0.01
assume_isolated = 'esm'
esm_bc = 'bc1'
input_dft = 'BEEF-VDW'
nosym = .true.
nspin = 1
ntyp = 5
nat = 34
/
&ELECTRONS
electron_maxstep = 200
mixing_beta = 0.1
conv_thr = 1e-06
/
&IONS
ion_dynamics = 'bfgs'
upscale = 1.0
/
&CELL
/

K_POINTS {automatic}
8 6 1 0 0 0

ATOMIC_SPECIES
C 12.01 C.pbe-n-rrkjus_psl.1.0.0.UPF
In 114.8 In.pbe-dn-rrkjus_psl.1.0.0.UPF
Ir 192.2 Ir.pbe-n-rrkjus_psl.0.2.3.UPF
Li 6.941 Li.pbe-sl-rrkjus_psl.1.0.0.UPF
O 15.99 O.pbe-n-rrkjus_psl.1.0.0.UPF

CELL_PARAMETERS {angstrom}
6.57920000 0.00000000 0.00000000
0.00000000 9.30439000 0.00000000
0.00000000 0.00000000 26.97830000

ATOMIC_POSITIONS {angstrom}
Li 0.00000000 0.00000000 -3.489103540000002 0 0 0
Li 3.28960000 2.32609750 -1.1630345099999992 0 0 0
Li 3.28960000 6.97829250 -1.1630345099999992 0 0 0
Li 0.00000000 4.65219500 -3.489103540000002 0 0 0
Li 0.00815821 4.65219500 1.20188326
Li 3.26927027 6.97950207 3.66554162
Li 3.26927027 2.32488793 3.66554162
Li 6.57248922 0.00000000 1.19648760
In 1.64480000 0.00000000 -1.1630345099999992 0 0 0
In 4.93440000 4.65219500 -1.1630345099999992 0 0 0
In 4.93440000 0.00000000 -1.1630345099999992 0 0 0
In 1.64480000 4.65219500 -1.1630345099999992 0 0 0
In 4.93440000 6.97829250 -3.489103540000002 0 0 0
In 1.64480000 2.32609750 -3.489103540000002 0 0 0
In 1.64480000 6.97829250 -3.489103540000002 0 0 0
In 4.93440000 2.32609750 -3.489103540000002 0 0 0
In 1.55913882 4.65219500 3.70519972
In 5.00295526 0.00000000 3.66284379
In 4.98663885 4.65219500 3.64989421
In 1.57492890 0.00000000 3.63856332
In 4.90696474 2.32488793 1.17247692
In 1.67151155 6.97661771 1.16950931
In 1.67151155 2.32777229 1.16950931
In 4.90696474 6.97950207 1.17247692
Ir 0.00000000 6.97829250 -1.1630345099999992 0 0 0
Ir 3.28960000 0.00000000 -3.489103540000002 0 0 0
Ir 0.00000000 2.32609750 -1.1630345099999992 0 0 0
Ir 3.28960000 4.65219500 -3.489103540000002 0 0 0
Ir 6.57847629 2.32488793 3.31860068
Ir 3.28788941 4.65219500 1.08803484
Ir 6.57841050 6.97950207 3.31860068
Ir 3.29124480 0.00000000 1.10341247
C 2.44831770 0.00000000 7.35860111
O 1.51157120 0.00000000 7.99987530
