&CONTROL
calculation = 'relax'
prefix = 'scf'
pseudo_dir = '/vol0004/mdt0/data/hp150275/u10028/POT_KKJUS'
outdir = './data'
tprnfor = .true.
nstep = 50
disk_io = 'non'
/
&SYSTEM
ibrav = 0
ecutwfc = 50.0
ecutrho = 400
occupations = 'smearing'
smearing = 'mp'
degauss = 0.01
assume_isolated = 'esm'
esm_bc = 'bc1'
input_dft = 'BEEF-VDW'
nosym = .true.
nspin = 1
ntyp = 5
nat = 34
/
&ELECTRONS
electron_maxstep = 200
mixing_beta = 0.1
conv_thr = 1e-06
/
&IONS
ion_dynamics = 'bfgs'
upscale = 1.0
/
&CELL
/

K_POINTS {automatic}
8 6 1 0 0 0

ATOMIC_SPECIES
Al 26.98 Al.pbe-nl-rrkjus_psl.1.0.0.UPF
C 12.01 C.pbe-n-rrkjus_psl.1.0.0.UPF
Ni 58.69 Ni.pbe-spn-rrkjus_psl.1.0.0.UPF
O 15.99 O.pbe-n-rrkjus_psl.1.0.0.UPF
Zr 91.22 Zr.pbe-spn-rrkjus_psl.1.0.0.UPF

CELL_PARAMETERS {angstrom}
6.14888000 0.00000000 0.00000000
0.00000000 8.69583000 0.00000000
0.00000000 0.00000000 26.52190000

ATOMIC_POSITIONS {angstrom}
Zr 0.00000000 0.00000000 -3.2608676099999983 0 0 0
Zr 3.07444000 2.17395750 -1.086867459999997 0 0 0
Zr 3.07444000 6.52187250 -1.086867459999997 0 0 0
Zr 0.00000000 4.34791500 -3.2608676099999983 0 0 0
Zr 0.00000000 4.35165421 1.05291943
Zr 3.07444000 6.52187250 3.38552054
Zr 3.07450149 2.17395750 3.38711185
Zr 0.00012298 8.69209079 1.05291943
Al 0.00000000 6.52187250 -1.086867459999997 0 0 0
Al 3.07444000 0.00000000 -3.2608676099999983 0 0 0
Al 0.00000000 2.17395750 -1.086867459999997 0 0 0
Al 3.07444000 4.34791500 -3.2608676099999983 0 0 0
Al 0.00006149 2.17395750 3.20835424
Al 3.07444000 4.34652367 1.12983294
Al 0.00000000 6.52187250 3.18846282
Al 3.07450149 0.00139133 1.12983294
Ni 1.53722000 0.00000000 -1.086867459999997 0 0 0
Ni 4.61166000 4.34791500 -1.086867459999997 0 0 0
Ni 4.61166000 0.00000000 -1.086867459999997 0 0 0
Ni 1.53722000 4.34791500 -1.086867459999997 0 0 0
Ni 4.61166000 6.52187250 -3.2608676099999983 0 0 0
Ni 1.53722000 2.17395750 -3.2608676099999983 0 0 0
Ni 1.53722000 6.52187250 -3.2608676099999983 0 0 0
Ni 4.61166000 2.17395750 -3.2608676099999983 0 0 0
Ni 1.48052733 4.36504579 3.10783624
Ni 4.66835267 8.67861226 3.10810146
Ni 4.66835267 4.36530666 3.10810146
Ni 1.48058882 8.67861226 3.10810146
Ni 4.50534586 2.17395750 1.19242462
Ni 1.66050504 6.52187250 1.15715050
Ni 1.64359562 2.17395750 1.19242462
Ni 4.48849793 6.52187250 1.15688528
C 0.00000000 2.17395750 5.20704463
O 0.00000000 2.17395750 6.36711253
