&CONTROL
calculation = 'relax'
prefix = 'scf'
pseudo_dir = '/vol0004/mdt0/data/hp150275/u10028/POT_KKJUS'
outdir = './data'
tprnfor = .true.
nstep = 50
disk_io = 'non'
/
&SYSTEM
ibrav = 0
ecutwfc = 50.0
ecutrho = 400
occupations = 'smearing'
smearing = 'mp'
degauss = 0.01
assume_isolated = 'esm'
esm_bc = 'bc1'
input_dft = 'BEEF-VDW'
nosym = .true.
nspin = 1
ntyp = 4
nat = 33
/
&ELECTRONS
electron_maxstep = 200
mixing_beta = 0.1
conv_thr = 1e-06
/
&IONS
ion_dynamics = 'bfgs'
upscale = 1.0
/
&CELL
/

K_POINTS {automatic}
8 6 1 0 0 0

ATOMIC_SPECIES
C 12.01 C.pbe-n-rrkjus_psl.1.0.0.UPF
Hf 178.4 Hf.pbe-spn-rrkjus_psl.1.0.0.UPF
Ni 58.69 Ni.pbe-spn-rrkjus_psl.1.0.0.UPF
Sn 118.7 Sn.pbe-dn-rrkjus_psl.1.0.0.UPF

CELL_PARAMETERS {angstrom}
6.28964000 0.00000000 0.00000000
0.00000000 8.89490000 0.00000000
0.00000000 0.00000000 26.67120000

ATOMIC_POSITIONS {angstrom}
Hf 0.00000000 0.00000000 -3.335500269999997 0 0 0
Hf 3.14482000 2.22372500 -1.1119223299999987 0 0 0
Hf 3.14482000 6.67117500 -1.1119223299999987 0 0 0
Hf 0.00000000 4.44745000 -3.335500269999997 0 0 0
Hf 6.23303324 4.49388138 1.13032546
Hf 3.10859167 6.67135290 3.32643206
Hf 3.40118573 2.22408080 3.16720500
Hf 6.23322193 8.84864652 1.13005874
Ni 1.57241000 0.00000000 -1.1119223299999987 0 0 0
Ni 4.71723000 4.44745000 -1.1119223299999987 0 0 0
Ni 4.71723000 0.00000000 -1.1119223299999987 0 0 0
Ni 1.57241000 4.44745000 -1.1119223299999987 0 0 0
Ni 4.71723000 6.67117500 -3.335500269999997 0 0 0
Ni 1.57241000 2.22372500 -3.335500269999997 0 0 0
Ni 1.57241000 6.67117500 -3.335500269999997 0 0 0
Ni 4.71723000 2.22372500 -3.335500269999997 0 0 0
Ni 1.28610559 4.18736312 3.28749211
Ni 4.73131879 8.81351167 3.25095257
Ni 4.73138169 4.52954993 3.25121928
Ni 1.28541373 0.26159901 3.28749211
Ni 4.80352386 2.22354710 1.01323889
Ni 1.65404953 6.67099710 1.13139230
Ni 1.24616637 2.22408080 1.48771954
Ni 4.60571468 6.67126395 1.22420808
Sn 0.00000000 6.67117500 -1.1119223299999987 0 0 0
Sn 3.14482000 0.00000000 -3.335500269999997 0 0 0
Sn 0.00000000 2.22372500 -1.1119223299999987 0 0 0
Sn 3.14482000 4.44745000 -3.335500269999997 0 0 0
Sn 5.84238370 2.22372500 4.71706843
Sn 3.08230098 4.39870595 1.12099054
Sn 0.06516067 6.67153080 3.55873822
Sn 3.08217519 0.04892195 1.12125725
C 1.37950674 2.22461449 3.58034189
