&CONTROL
calculation = 'relax'
prefix = 'scf'
pseudo_dir = '/vol0403/data/hp230205/u10028/POT_HYBRID_KKJUS_GBRV'
outdir = './data'
tprnfor = .true.
nstep = 50
disk_io = 'non'
/
&SYSTEM
ibrav = 0
ecutwfc = 50.0
ecutrho = 400
occupations = 'smearing'
smearing = 'mp'
degauss = 0.01
assume_isolated = 'esm'
esm_bc = 'bc1'
input_dft = 'BEEF-VDW'
nosym = .true.
nspin = 1
ntyp = 6
nat = 18
/
&ELECTRONS
electron_maxstep = 200
mixing_beta = 0.1
conv_thr = 1e-06
/
&IONS
ion_dynamics = 'bfgs'
upscale = 1.0
/
&CELL
/

K_POINTS {automatic}
9 9 2 0  0  0

ATOMIC_SPECIES
C 12.01 C.pbe-n-rrkjus_psl.1.0.0.UPF
In 114.8 In.pbe-dn-rrkjus_psl.1.0.0.UPF
Li 6.941 Li.pbe-sl-rrkjus_psl.1.0.0.UPF
O 15.99 O.pbe-n-rrkjus_psl.1.0.0.UPF
Pt 195.0 Pt.pbe-n-rrkjus_psl.1.0.0.UPF
Y 88.90 Y.pbe-spn-rrkjus_psl.1.0.0.UPF


CELL_PARAMETERS {angstrom}
6.80323000 0.00000000 0.00000000
0.00000000 6.80323000 0.00000000
0.00000000 0.00000000 25.10240000

ATOMIC_POSITIONS {angstrom}
Li 5.10242250 1.70080750 -0.8504693100000011 0 0 0
Li 5.08065216 5.08003987 3.14382458
Li 1.71727132 1.71727132 3.20432136
Li 1.70080750 5.10242250 -0.8504693100000011 0 0 0
Y 0.00000000 3.40161500 -2.5511569099999996 0 0 0
Y 0.00557865 0.00557865 0.88862496
Y 3.39603635 3.39610438 0.87657581
Y 3.40161500 0.00000000 -2.5511569099999996 0 0 0
In 0.00000000 0.00000000 -2.5511569099999996 0 0 0
In 6.79771938 3.40814610 0.92201115
In 3.40821413 6.79771938 0.92201115
In 3.40161500 3.40161500 -2.5511569099999996 0 0 0
Pt 1.70080750 1.70080750 -0.8504693100000011 0 0 0
Pt 1.70740663 5.09745614 2.32121893
Pt 5.09745614 1.70754270 2.32096790
Pt 5.10242250 5.10242250 -0.8504693100000011 0 0 0
C 1.71665903 1.71665903 5.33024362
O 1.71652296 1.71652296 6.46888848
