&CONTROL
calculation = 'relax'
prefix = 'scf'
pseudo_dir = '/vol0004/mdt0/data/hp150275/u10028/POT_KKJUS'
outdir = './data'
tprnfor = .true.
nstep = 50
disk_io = 'non'
/
&SYSTEM
ibrav = 0
ecutwfc = 50.0
ecutrho = 400
occupations = 'smearing'
smearing = 'mp'
degauss = 0.01
assume_isolated = 'esm'
esm_bc = 'bc1'
input_dft = 'BEEF-VDW'
nosym = .true.
nspin = 1
ntyp = 3
nat = 17
/
&ELECTRONS
electron_maxstep = 200
mixing_beta = 0.1
conv_thr = 1e-06
/
&IONS
ion_dynamics = 'bfgs'
upscale = 1.0
/
&CELL
/

K_POINTS {automatic}
6 8 1 0 0 0

ATOMIC_SPECIES
Al 26.98 Al.pbe-nl-rrkjus_psl.1.0.0.UPF
C 12.01 C.pbe-n-rrkjus_psl.1.0.0.UPF
Sc 44.95 Sc.pbe-spn-rrkjus_psl.1.0.0.UPF

CELL_PARAMETERS {angstrom}
8.18271000 0.00000000 0.00000000
0.00000000 5.78605000 0.00000000
0.00000000 0.00000000 24.33950000

ATOMIC_POSITIONS {angstrom}
Sc 0.00000000 0.00000000 -2.1698664200000017 0 0 0
Sc 0.00008183 2.89319858 0.60507997
Sc 4.09135500 0.00000000 -2.1698664200000017 0 0 0
Sc 4.09176414 2.89308286 1.02517974
Al 0.00000000 2.89302500 -2.1698664200000017 0 0 0
Al 2.04567750 4.33953750 -0.7233699400000013 0 0 0
Al 2.04567750 1.44651250 -0.7233699400000013 0 0 0
Al 0.00000000 0.00098363 0.50382765
Al 1.71141380 1.37216176 2.27720362
Al 1.71305034 4.41336750 2.27793381
Al 4.09135500 2.89302500 -2.1698664200000017 0 0 0
Al 6.13703250 4.33953750 -0.7233699400000013 0 0 0
Al 6.13703250 1.44651250 -0.7233699400000013 0 0 0
Al 4.09127317 0.00011572 1.22452025
Al 6.47113255 1.37216176 2.27720362
Al 6.46949601 4.41336750 2.27769041
C 8.18254635 5.78442991 2.50477795
