&CONTROL
calculation = 'relax'
prefix = 'scf'
pseudo_dir = '/vol0403/data/hp230205/u10028/POT_HYBRID_KKJUS_GBRV'
outdir = './data'
tprnfor = .true.
nstep = 50
disk_io = 'non'
/
&SYSTEM
ibrav = 0
ecutwfc = 50.0
ecutrho = 400
occupations = 'smearing'
smearing = 'mp'
degauss = 0.01
assume_isolated = 'esm'
esm_bc = 'bc1'
input_dft = 'BEEF-VDW'
nosym = .true.
nspin = 1
ntyp = 5
nat = 33
/
&ELECTRONS
electron_maxstep = 200
mixing_beta = 0.1
conv_thr = 1e-06
/
&IONS
ion_dynamics = 'bfgs'
upscale = 1.0
/
&CELL
/

K_POINTS {automatic}
6 6 1 0 0 0

ATOMIC_SPECIES
C 12.01 C.pbe-n-rrkjus_psl.1.0.0.UPF
Ga 69.72 Ga.pbe-dnl-rrkjus_psl.1.0.0.UPF
Li 6.941 Li.pbe-sl-rrkjus_psl.1.0.0.UPF
Pd 106.4 Pd.pbe-n-rrkjus_psl.1.0.0.UPF
Sc 44.95 Sc.pbe-spn-rrkjus_psl.1.0.0.UPF


CELL_PARAMETERS {angstrom}
6.35289000 0.00000000 0.00000000
0.00000000 8.98434000 0.00000000
0.00000000 0.00000000 26.73830000

ATOMIC_POSITIONS {angstrom}
Li 4.76466750 0.00000000 -1.1230085999999986 0 0 0
Li 4.76466750 4.49217000 -1.1230085999999986 0 0 0
Li 1.58822250 2.24608500 -3.3690257999999993 0 0 0
Li 1.58822250 6.73825500 -3.3690257999999993 0 0 0
Li 4.76466750 4.49217000 3.36902580
Li 4.76466750 0.00000000 3.36902580
Li 1.58822250 6.73825500 1.12300860
Li 1.58822250 2.24608500 1.12300860
Sc 0.00000000 2.24608500 -1.1230085999999986 0 0 0
Sc 0.00000000 6.73825500 -1.1230085999999986 0 0 0
Sc 3.17644500 4.49217000 -3.3690257999999993 0 0 0
Sc 3.17644500 0.00000000 -3.3690257999999993 0 0 0
Sc 0.00000000 6.73825500 3.36902580
Sc 0.00000000 2.24608500 3.36902580
Sc 3.17644500 0.00000000 1.12300860
Sc 3.17644500 4.49217000 1.12300860
Ga 0.00000000 0.00000000 -3.3690257999999993 0 0 0
Ga 0.00000000 4.49217000 -3.3690257999999993 0 0 0
Ga 3.17644500 6.73825500 -1.1230085999999986 0 0 0
Ga 3.17644500 2.24608500 -1.1230085999999986 0 0 0
Ga 0.00000000 4.49217000 1.12300860
Ga 0.00000000 0.00000000 1.12300860
Ga 3.17644500 2.24608500 3.36902580
Ga 3.17644500 6.73825500 3.36902580
Pd 1.58822250 0.00000000 -1.1230085999999986 0 0 0
Pd 1.58822250 4.49217000 -1.1230085999999986 0 0 0
Pd 4.76466750 2.24608500 -3.3690257999999993 0 0 0
Pd 4.76466750 6.73825500 -3.3690257999999993 0 0 0
Pd 1.58822250 4.49217000 3.36902580
Pd 1.58822250 0.00000000 3.36902580
Pd 4.76466750 6.73825500 1.12300860
Pd 4.76466750 2.24608500 1.12300860
C 0.00000000 0.00000000 4.16903574
