&CONTROL
calculation = 'relax'
prefix = 'scf'
pseudo_dir = '/vol0403/data/hp230205/u10028/POT_HYBRID_KKJUS_GBRV'
outdir = './data'
tprnfor = .true.
nstep = 50
disk_io = 'non'
/
&SYSTEM
ibrav = 0
ecutwfc = 50.0
ecutrho = 400
occupations = 'smearing'
smearing = 'mp'
degauss = 0.01
assume_isolated = 'esm'
esm_bc = 'bc1'
input_dft = 'BEEF-VDW'
nosym = .true.
nspin = 1
ntyp = 5
nat = 33
/
&ELECTRONS
electron_maxstep = 200
mixing_beta = 0.1
conv_thr = 1e-06
/
&IONS
ion_dynamics = 'bfgs'
upscale = 1.0
/
&CELL
/

K_POINTS {automatic}
9 6 2 0  0  0

ATOMIC_SPECIES
C 12.01 C.pbe-n-rrkjus_psl.1.0.0.UPF
Ga 69.72 Ga.pbe-dnl-rrkjus_psl.1.0.0.UPF
Li 6.941 Li.pbe-sl-rrkjus_psl.1.0.0.UPF
Pd 106.4 Pd.pbe-n-rrkjus_psl.1.0.0.UPF
Sc 44.95 Sc.pbe-spn-rrkjus_psl.1.0.0.UPF


CELL_PARAMETERS {angstrom}
6.35289000 0.00000000 0.00000000
0.00000000 8.98434000 0.00000000
0.00000000 0.00000000 26.73830000

ATOMIC_POSITIONS {angstrom}
Li 4.76466750 0.00000000 -1.1230085999999986 0 0 0
Li 4.76466750 4.49217000 -1.1230085999999986 0 0 0
Li 1.58822250 2.24608500 -3.3690257999999993 0 0 0
Li 1.58822250 6.73825500 -3.3690257999999993 0 0 0
Li 3.79959998 4.49208016 4.73829414
Li 3.96865038 0.00000000 4.74952423
Li 1.69247342 6.89000050 1.16846371
Li 1.69247342 2.09433950 1.16846371
Sc 0.00000000 2.24608500 -1.1230085999999986 0 0 0
Sc 0.00000000 6.73825500 -1.1230085999999986 0 0 0
Sc 3.17644500 4.49217000 -3.3690257999999993 0 0 0
Sc 3.17644500 0.00000000 -3.3690257999999993 0 0 0
Sc 5.93493337 6.86987558 3.34683301
Sc 5.93499690 2.11428473 3.34683301
Sc 3.74540983 8.98425016 1.94574609
Sc 3.24334093 4.49217000 1.45429614
Ga 0.00000000 0.00000000 -3.3690257999999993 0 0 0
Ga 0.00000000 4.49217000 -3.3690257999999993 0 0 0
Ga 3.17644500 6.73825500 -1.1230085999999986 0 0 0
Ga 3.17644500 2.24608500 -1.1230085999999986 0 0 0
Ga 0.01829632 4.49217000 1.10723300
Ga 0.05819247 8.98425016 1.11792832
Ga 2.83917007 2.28696375 3.58426912
Ga 2.83917007 6.69719657 3.58426912
Pd 1.58822250 0.00000000 -1.1230085999999986 0 0 0
Pd 1.58822250 4.49217000 -1.1230085999999986 0 0 0
Pd 4.76466750 2.24608500 -3.3690257999999993 0 0 0
Pd 4.76466750 6.73825500 -3.3690257999999993 0 0 0
Pd 1.38531119 4.49208016 3.29415856
Pd 1.48613156 8.98425016 3.39041644
Pd 4.71987963 6.65110690 0.93717741
Pd 4.71987963 2.33305341 0.93717741
C 5.53959302 8.98425016 3.25993354
