&CONTROL
calculation = 'relax'
prefix = 'scf'
pseudo_dir = '/vol0004/mdt0/data/hp150275/u10028/POT_HYBRID_KKJUS_GBRV'
outdir = './data'
tprnfor = .true.
nstep = 50
disk_io = 'non'
/
&SYSTEM
ibrav = 0
ecutwfc = 50.0
ecutrho = 400
occupations = 'smearing'
smearing = 'mp'
degauss = 0.01
assume_isolated = 'esm'
esm_bc = 'bc1'
input_dft = 'BEEF-VDW'
nosym = .true.
nspin = 2
ntyp = 4
nat = 33
starting_magnetization(1) = 0.0
starting_magnetization(2) = 0.1
starting_magnetization(3) = 0.0
starting_magnetization(4) = 0.0
/
&ELECTRONS
electron_maxstep = 300
mixing_beta = 0.1
conv_thr = 1e-06
/
&IONS
ion_dynamics = 'bfgs'
upscale = 1.0
/
&CELL
/

K_POINTS {automatic}
8 6 1 0 0 0

ATOMIC_SPECIES
C 12.01 C.pbe-n-rrkjus_psl.1.0.0.UPF
Co 58.93 co_pbe_v1.2.uspp.F.UPF
Ge 72.64 Ge.pbe-dn-rrkjus_psl.1.0.0.UPF
Zn 65.40 Zn.pbe-dnl-rrkjus_psl.1.0.0.UPF

CELL_PARAMETERS {angstrom}
5.75846000 0.00000000 0.00000000
0.00000000 8.14369000 0.00000000
0.00000000 0.00000000 26.10780000

ATOMIC_POSITIONS {angstrom}
Zn 0.00000000 0.00000000 -3.0538293700000025 0 0 0
Zn 2.87923000 2.03592250 -1.0179431200000018 0 0 0
Zn 2.87923000 6.10776750 -1.0179431200000018 0 0 0
Zn 0.00000000 4.07184500 -3.0538293700000025 0 0 0
Zn 0.01779364 4.07705696 1.03151918
Zn 2.78196961 6.10768606 3.38409304
Zn 3.17746064 2.03763267 4.21484323
Zn 0.01785123 8.13831516 1.03151918
Co 1.43961500 0.00000000 -1.0179431200000018 0 0 0
Co 4.31884500 4.07184500 -1.0179431200000018 0 0 0
Co 4.31884500 0.00000000 -1.0179431200000018 0 0 0
Co 1.43961500 4.07184500 -1.0179431200000018 0 0 0
Co 4.31884500 6.10776750 -3.0538293700000025 0 0 0
Co 1.43961500 2.03592250 -3.0538293700000025 0 0 0
Co 1.43961500 6.10776750 -3.0538293700000025 0 0 0
Co 4.31884500 2.03592250 -3.0538293700000025 0 0 0
Co 1.51528116 3.88706467 2.99273711
Co 4.29379570 8.04906032 2.98803771
Co 4.29454430 4.16590462 2.98751555
Co 1.51551150 0.18412883 2.99299819
Co 4.31896017 2.03592250 0.95345686
Co 1.47606605 6.10776750 1.06102099
Co 1.50416734 2.03584106 1.10096593
Co 4.28625212 6.10768606 1.01011078
Ge 0.00000000 6.10776750 -1.0179431200000018 0 0 0
Ge 2.87923000 0.00000000 -3.0538293700000025 0 0 0
Ge 0.00000000 2.03592250 -1.0179431200000018 0 0 0
Ge 2.87923000 4.07184500 -3.0538293700000025 0 0 0
Ge 5.36222037 2.03559675 3.21099832
Ge 2.90036355 4.07233362 1.02212037
Ge 5.74141496 6.10784894 3.11439946
Ge 2.90042113 8.14311994 1.02185929
C 1.56094575 2.03567819 3.08855274
