&CONTROL
calculation = 'relax'
prefix = 'scf'
pseudo_dir = '/vol0004/mdt0/data/hp150275/u10028/POT_KKJUS'
outdir = './data'
tprnfor = .true.
nstep = 50
disk_io = 'non'
/
&SYSTEM
ibrav = 0
ecutwfc = 50.0
ecutrho = 400
occupations = 'smearing'
smearing = 'mp'
degauss = 0.01
assume_isolated = 'esm'
esm_bc = 'bc1'
input_dft = 'BEEF-VDW'
nosym = .true.
nspin = 1
ntyp = 4
nat = 34
/
&ELECTRONS
electron_maxstep = 200
mixing_beta = 0.1
conv_thr = 1e-06
/
&IONS
ion_dynamics = 'bfgs'
upscale = 1.0
/
&CELL
/

K_POINTS {automatic}
9 6 2 0  0  0

ATOMIC_SPECIES
C 12.01 C.pbe-n-rrkjus_psl.1.0.0.UPF
Cu 63.54 Cu.pbe-dn-rrkjus_psl.1.0.0.UPF
O 15.99 O.pbe-n-rrkjus_psl.1.0.0.UPF
Zr 91.22 Zr.pbe-spn-rrkjus_psl.1.0.0.UPF

CELL_PARAMETERS {angstrom}
6.62616000 0.00000000 0.00000000
0.00000000 9.37081000 0.00000000
0.00000000 0.00000000 27.02810000

ATOMIC_POSITIONS {angstrom}
Zr 1.65654000 2.34270250 -3.51392328 0 0 0
Zr 1.65654000 0.00000000 -1.1713978499999982 0 0 0
Zr 1.62811377 2.34270250 1.10409788
Zr 1.66396130 0.00374832 3.34688962
Zr 1.65654000 7.02810750 -3.51392328 0 0 0
Zr 1.65654000 4.68540500 -1.1713978499999982 0 0 0
Zr 1.66979232 7.02810750 1.08004288
Zr 1.66402756 4.68156297 3.34743018
Zr 4.96962000 2.34270250 -3.51392328 0 0 0
Zr 4.96962000 0.00000000 -1.1713978499999982 0 0 0
Zr 4.99804623 2.34270250 1.10409788
Zr 4.96219870 0.00374832 3.34688962
Zr 4.96962000 7.02810750 -3.51392328 0 0 0
Zr 4.96962000 4.68540500 -1.1713978499999982 0 0 0
Zr 4.95636768 7.02810750 1.08004288
Zr 4.96213244 4.68165668 3.34743018
Cu 0.00000000 0.00000000 -3.51392328 0 0 0
Cu 0.00000000 2.34270250 -1.1713978499999982 0 0 0
Cu 0.00000000 9.30774445 1.13058542
Cu 0.00000000 2.34279621 3.51392328
Cu 0.00000000 4.68540500 -3.51392328 0 0 0
Cu 0.00000000 7.02810750 -1.1713978499999982 0 0 0
Cu 0.00000000 4.74856426 1.13085570
Cu 0.00000000 7.02792008 3.26039970
Cu 3.31308000 0.00000000 -3.51392328 0 0 0
Cu 3.31308000 2.34270250 -1.1713978499999982 0 0 0
Cu 3.31308000 0.01977241 1.14058582
Cu 3.31308000 2.34279621 3.28445471
Cu 3.31308000 4.68540500 -3.51392328 0 0 0
Cu 3.31308000 7.02810750 -1.1713978499999982 0 0 0
Cu 3.31308000 4.66572630 1.14085610
Cu 3.31308000 7.02792008 3.27526516
C 0.00000000 2.34317104 5.36264532
O 0.00000000 2.34260879 6.52647531
