&CONTROL
calculation = 'relax'
prefix = 'scf'
pseudo_dir = '/vol0004/mdt0/data/hp150275/u10028/POT_KKJUS'
outdir = './data'
tprnfor = .true.
nstep = 50
disk_io = 'non'
/
&SYSTEM
ibrav = 0
ecutwfc = 50.0
ecutrho = 400
occupations = 'smearing'
smearing = 'mp'
degauss = 0.01
assume_isolated = 'esm'
esm_bc = 'bc1'
input_dft = 'BEEF-VDW'
nosym = .true.
nspin = 1
ntyp = 4
nat = 18
/
&ELECTRONS
electron_maxstep = 200
mixing_beta = 0.1
conv_thr = 1e-06
/
&IONS
ion_dynamics = 'bfgs'
upscale = 1.0
/
&CELL
/

K_POINTS {automatic}
6 8 1 0 0 0

ATOMIC_SPECIES
C 12.01 C.pbe-n-rrkjus_psl.1.0.0.UPF
Ge 72.64 Ge.pbe-dn-rrkjus_psl.1.0.0.UPF
Ni 58.69 Ni.pbe-spn-rrkjus_psl.1.0.0.UPF
O 15.99 O.pbe-n-rrkjus_psl.1.0.0.UPF

CELL_PARAMETERS {angstrom}
7.20976000 0.00000000 0.00000000
0.00000000 5.09807000 0.00000000
0.00000000 0.00000000 23.82360000

ATOMIC_POSITIONS {angstrom}
Ni 0.00036049 2.54898402 1.82202893
Ni 1.80748683 3.83701140 0.68683439
Ni 1.80748683 1.26085467 0.68683439
Ni 0.00000000 0.00000000 -0.6372812999999979 0 0 0
Ni 1.80244000 1.27451750 -1.9118438999999974 0 0 0
Ni 1.80244000 3.82355250 -1.9118438999999974 0 0 0
Ni 3.60480790 2.54908598 1.83346426
Ni 5.40205688 3.83696042 0.68731086
Ni 5.40205688 1.26110958 0.68731086
Ni 3.60488000 0.00000000 -0.6372812999999979 0 0 0
Ni 5.40732000 1.27451750 -1.9118438999999974 0 0 0
Ni 5.40732000 3.82355250 -1.9118438999999974 0 0 0
Ge 0.00000000 0.00000000 1.86252905
Ge 0.00000000 2.54903500 -0.6372812999999979 0 0 0
Ge 3.60502420 5.09801902 1.87634674
Ge 3.60488000 2.54903500 -0.6372812999999979 0 0 0
C 7.20860644 0.00040785 5.78579950
O 0.00079307 5.09801902 6.92027933
