&CONTROL
calculation = 'relax'
prefix = 'scf'
pseudo_dir = '/vol0004/mdt0/data/hp150275/u10028/POT_KKJUS'
outdir = './data'
tprnfor = .true.
nstep = 50
disk_io = 'non'
/
&SYSTEM
ibrav = 0
ecutwfc = 50.0
ecutrho = 400
occupations = 'smearing'
smearing = 'mp'
degauss = 0.01
assume_isolated = 'esm'
esm_bc = 'bc1'
input_dft = 'BEEF-VDW'
nosym = .true.
nspin = 1
ntyp = 3
nat = 33
/
&ELECTRONS
electron_maxstep = 200
mixing_beta = 0.1
conv_thr = 1e-06
/
&IONS
ion_dynamics = 'bfgs'
upscale = 1.0
/
&CELL
/

K_POINTS {automatic}
9 6 2 0  0  0

ATOMIC_SPECIES
C 12.01 C.pbe-n-rrkjus_psl.1.0.0.UPF
Ir 192.2 Ir.pbe-n-rrkjus_psl.0.2.3.UPF
Sc 44.95 Sc.pbe-spn-rrkjus_psl.1.0.0.UPF

CELL_PARAMETERS {angstrom}
6.46830000 0.00000000 0.00000000
0.00000000 9.14755000 0.00000000
0.00000000 0.00000000 26.86070000

ATOMIC_POSITIONS {angstrom}
Sc 1.61707500 2.28688750 -3.430380000000003 0 0 0
Sc 1.61707500 0.00000000 -1.143460000000001 0 0 0
Sc 1.63550966 2.27984389 1.18160219
Sc 1.93227526 0.00009148 3.75620029
Sc 1.61707500 6.86066250 -3.430380000000003 0 0 0
Sc 1.61707500 4.57377500 -1.143460000000001 0 0 0
Sc 1.63550966 6.86761464 1.18160219
Sc 1.59133117 4.57377500 3.55904275
Sc 4.85122500 2.28688750 -3.430380000000003 0 0 0
Sc 4.85122500 0.00000000 -1.143460000000001 0 0 0
Sc 4.83285503 2.27993536 1.18160219
Sc 4.53596006 9.14745852 3.75673750
Sc 4.85122500 6.86066250 -3.430380000000003 0 0 0
Sc 4.85122500 4.57377500 -1.143460000000001 0 0 0
Sc 4.83285503 6.86761464 1.18160219
Sc 4.87696883 4.57386648 3.55904275
Ir 0.00000000 0.00000000 -3.430380000000003 0 0 0
Ir 0.00000000 2.28688750 -1.143460000000001 0 0 0
Ir 0.00006468 0.00000000 1.12922383
Ir 6.46823532 2.20986513 3.24692142
Ir 0.00000000 4.57377500 -3.430380000000003 0 0 0
Ir 0.00000000 6.86066250 -1.143460000000001 0 0 0
Ir 0.00006468 4.57377500 1.24069573
Ir 0.00006468 6.93768487 3.24692142
Ir 3.23415000 0.00000000 -3.430380000000003 0 0 0
Ir 3.23415000 2.28688750 -1.143460000000001 0 0 0
Ir 3.23421468 0.00009148 1.21813275
Ir 3.23421468 2.38641284 3.35382700
Ir 3.23415000 4.57377500 -3.430380000000003 0 0 0
Ir 3.23415000 6.86066250 -1.143460000000001 0 0 0
Ir 3.23415000 4.57377500 1.18133359
Ir 3.23408532 6.76122863 3.35382700
C 6.46823532 0.00000000 3.17735220
