&CONTROL
calculation = 'relax'
prefix = 'scf'
pseudo_dir = '/vol0403/data/hp230205/u10028/POT_HYBRID_KKJUS_GBRV'
outdir = './data'
tprnfor = .true.
nstep = 50
disk_io = 'non'
/
&SYSTEM
ibrav = 0
ecutwfc = 50.0
ecutrho = 400
occupations = 'smearing'
smearing = 'mp'
degauss = 0.01
assume_isolated = 'esm'
esm_bc = 'bc1'
input_dft = 'BEEF-VDW'
nosym = .true.
nspin = 1
ntyp = 5
nat = 33
/
&ELECTRONS
electron_maxstep = 200
mixing_beta = 0.1
conv_thr = 1e-06
/
&IONS
ion_dynamics = 'bfgs'
upscale = 1.0
/
&CELL
/

K_POINTS {automatic}
6 6 1 0 0 0

ATOMIC_SPECIES
C 12.01 C.pbe-n-rrkjus_psl.1.0.0.UPF
In 114.8 In.pbe-dn-rrkjus_psl.1.0.0.UPF
Li 6.941 Li.pbe-sl-rrkjus_psl.1.0.0.UPF
Pd 106.4 Pd.pbe-n-rrkjus_psl.1.0.0.UPF
Sc 44.95 Sc.pbe-spn-rrkjus_psl.1.0.0.UPF


CELL_PARAMETERS {angstrom}
6.59012000 0.00000000 0.00000000
0.00000000 9.31984000 0.00000000
0.00000000 0.00000000 26.98990000

ATOMIC_POSITIONS {angstrom}
Li 4.94259000 0.00000000 -1.1648840800000002 0 0 0
Li 4.94259000 4.65992000 -1.1648840800000002 0 0 0
Li 1.64753000 2.32996000 -3.494922149999997 0 0 0
Li 1.64753000 6.98988000 -3.494922149999997 0 0 0
Li 4.51205746 4.36345589 4.96452221
Li 4.51225516 0.29646411 4.96425231
Li 1.74802933 6.98988000 1.21724449
Li 1.68792744 2.32996000 1.19808166
Sc 0.00000000 2.32996000 -1.1648840800000002 0 0 0
Sc 0.00000000 6.98988000 -1.1648840800000002 0 0 0
Sc 3.29506000 4.65992000 -3.494922149999997 0 0 0
Sc 3.29506000 0.00000000 -3.494922149999997 0 0 0
Sc 6.45317731 6.98988000 3.34215932
Sc 6.52349389 2.32996000 3.50274922
Sc 3.44004264 9.30064113 1.34652611
Sc 3.44004264 4.67911887 1.34652611
In 0.00000000 0.00000000 -3.494922149999997 0 0 0
In 0.00000000 4.65992000 -3.494922149999997 0 0 0
In 3.29506000 6.98988000 -1.1648840800000002 0 0 0
In 3.29506000 2.32996000 -1.1648840800000002 0 0 0
In 0.00830355 4.66383433 1.17621984
In 0.00830355 9.31601887 1.17621984
In 3.11541333 2.32996000 3.63931812
In 3.42093129 6.98988000 3.76266196
Pd 1.64753000 0.00000000 -1.1648840800000002 0 0 0
Pd 1.64753000 4.65992000 -1.1648840800000002 0 0 0
Pd 4.94259000 2.32996000 -3.494922149999997 0 0 0
Pd 4.94259000 6.98988000 -3.494922149999997 0 0 0
Pd 1.70341422 4.79338011 3.35916295
Pd 1.70341422 9.18628669 3.35916295
Pd 4.94259000 6.98988000 1.10739560
Pd 4.97521109 2.32996000 1.05395559
C 4.94054706 2.32996000 4.74509432
