&CONTROL
calculation = 'relax'
prefix = 'scf'
pseudo_dir = '/vol0004/mdt0/data/hp150275/u10028/POT_KKJUS'
outdir = './data'
tprnfor = .true.
nstep = 50
disk_io = 'non'
/
&SYSTEM
ibrav = 0
ecutwfc = 50.0
ecutrho = 400
occupations = 'smearing'
smearing = 'mp'
degauss = 0.01
assume_isolated = 'esm'
esm_bc = 'bc1'
input_dft = 'BEEF-VDW'
nosym = .true.
nspin = 1
ntyp = 4
nat = 34
/
&ELECTRONS
electron_maxstep = 200
mixing_beta = 0.1
conv_thr = 1e-06
/
&IONS
ion_dynamics = 'bfgs'
upscale = 1.0
/
&CELL
/

K_POINTS {automatic}
9 6 2 0  0  0

ATOMIC_SPECIES
C 12.01 C.pbe-n-rrkjus_psl.1.0.0.UPF
O 15.99 O.pbe-n-rrkjus_psl.1.0.0.UPF
Rh 102.9 Rh.pbe-spn-rrkjus_psl.1.0.0.UPF
Ti 47.86 Ti.pbe-spn-rrkjus_psl.1.0.0.UPF

CELL_PARAMETERS {angstrom}
6.24301000 0.00000000 0.00000000
0.00000000 8.82895000 0.00000000
0.00000000 0.00000000 26.62170000

ATOMIC_POSITIONS {angstrom}
Ti 1.56075250 2.20723750 -3.31094083 0 0 0
Ti 1.56075250 0.00000000 -1.1037356799999998 0 0 0
Ti 1.56156409 2.19920316 1.12529926
Ti 1.56000334 0.00000000 3.44085473
Ti 1.56075250 6.62171250 -3.31094083 0 0 0
Ti 1.56075250 4.41447500 -1.1037356799999998 0 0 0
Ti 1.56156409 6.62974684 1.12529926
Ti 1.56193867 4.41447500 3.36711262
Ti 4.68225750 2.20723750 -3.31094083 0 0 0
Ti 4.68225750 0.00000000 -1.1037356799999998 0 0 0
Ti 4.68263208 2.20794382 1.12370196
Ti 4.68194535 0.00000000 3.36445045
Ti 4.68225750 6.62171250 -3.31094083 0 0 0
Ti 4.68225750 4.41447500 -1.1037356799999998 0 0 0
Ti 4.68263208 6.62100618 1.12370196
Ti 4.68275694 4.41447500 3.36897614
Rh 0.00000000 0.00000000 -3.31094083 0 0 0
Rh 0.00000000 2.20723750 -1.1037356799999998 0 0 0
Rh 6.23839017 8.82877342 1.11145598
Rh 0.00355852 2.22198185 3.13550383
Rh 0.00000000 4.41447500 -3.31094083 0 0 0
Rh 0.00000000 6.62171250 -1.1037356799999998 0 0 0
Rh 0.00124860 4.41465158 1.12370196
Rh 0.00355852 6.60696815 3.13550383
Rh 3.12150500 0.00000000 -3.31094083 0 0 0
Rh 3.12150500 2.20723750 -1.1037356799999998 0 0 0
Rh 3.12781044 8.82877342 1.11012489
Rh 3.11925752 2.21995119 3.13550383
Rh 3.12150500 4.41447500 -3.31094083 0 0 0
Rh 3.12150500 6.62171250 -1.1037356799999998 0 0 0
Rh 3.12175472 4.41456329 1.12396817
Rh 3.11925752 6.60899881 3.13550383
C 1.54420852 0.00000000 5.56287043
O 1.53996328 0.00000000 6.71505761
