&CONTROL
calculation = 'relax'
prefix = 'scf'
pseudo_dir = '/vol0004/mdt0/data/hp150275/u10028/POT_HYBRID_KKJUS_GBRV'
outdir = './data'
tprnfor = .true.
nstep = 50
disk_io = 'non'
/
&SYSTEM
ibrav = 0
ecutwfc = 50.0
ecutrho = 400
occupations = 'smearing'
smearing = 'mp'
degauss = 0.01
assume_isolated = 'esm'
esm_bc = 'bc1'
input_dft = 'BEEF-VDW'
nosym = .true.
nspin = 2
ntyp = 5
nat = 34
starting_magnetization(1) = 0.0
starting_magnetization(2) = 0.0
starting_magnetization(3) = 0.1
starting_magnetization(4) = 0.1
starting_magnetization(5) = 0.0
/
&ELECTRONS
electron_maxstep = 300
mixing_beta = 0.1
conv_thr = 1e-06
/
&IONS
ion_dynamics = 'bfgs'
upscale = 1.0
/
&CELL
/

K_POINTS {automatic}
8 6 1 0 0 0

ATOMIC_SPECIES
Al 26.98 Al.pbe-nl-rrkjus_psl.1.0.0.UPF
C 12.01 C.pbe-n-rrkjus_psl.1.0.0.UPF
Co 58.93 co_pbe_v1.2.uspp.F.UPF
Fe 55.84 fe_pbe_v1.5.uspp.F.UPF
O 15.99 O.pbe-n-rrkjus_psl.1.0.0.UPF

CELL_PARAMETERS {angstrom}
5.71826000 0.00000000 0.00000000
0.00000000 8.08683000 0.00000000
0.00000000 0.00000000 26.06510000

ATOMIC_POSITIONS {angstrom}
Al 0.00000000 0.00000000 -3.0326743799999996 0 0 0
Al 2.85913000 2.02170750 -1.010804580000002 0 0 0
Al 2.85913000 6.06512250 -1.010804580000002 0 0 0
Al 0.00000000 4.04341500 -3.0326743799999996 0 0 0
Al 0.00005718 4.02893957 1.00011789
Al 2.85913000 6.06528424 3.11764661
Al 2.85907282 2.02162663 3.06082469
Al 0.00005718 0.01439456 0.99985724
Fe 0.00000000 6.06512250 -1.010804580000002 0 0 0
Fe 2.85913000 0.00000000 -3.0326743799999996 0 0 0
Fe 0.00000000 2.02170750 -1.010804580000002 0 0 0
Fe 2.85913000 4.04341500 -3.0326743799999996 0 0 0
Fe 5.71814563 2.02219271 3.03319569
Fe 2.85924437 4.04365760 1.04807767
Fe 5.71820282 6.06471816 2.97533117
Fe 2.85924437 8.08650653 1.04781702
Co 1.42956500 0.00000000 -1.010804580000002 0 0 0
Co 4.28869500 4.04341500 -1.010804580000002 0 0 0
Co 4.28869500 0.00000000 -1.010804580000002 0 0 0
Co 1.42956500 4.04341500 -1.010804580000002 0 0 0
Co 4.28869500 6.06512250 -3.0326743799999996 0 0 0
Co 1.42956500 2.02170750 -3.0326743799999996 0 0 0
Co 1.42956500 6.06512250 -3.0326743799999996 0 0 0
Co 4.28869500 2.02170750 -3.0326743799999996 0 0 0
Co 1.42201690 4.04236371 2.98158679
Co 4.29658620 0.00121302 2.98132614
Co 4.29624310 4.04236371 2.98158679
Co 1.42167380 0.00113216 2.98132614
Co 4.29092512 2.02203097 1.00220310
Co 1.43128048 6.06471816 1.01992736
Co 1.42733488 2.02203097 1.00194244
Co 4.28703670 6.06471816 1.01992736
C 0.00000000 2.02178837 4.83533670
O 0.00000000 2.02178837 5.99705821
