&CONTROL
calculation = 'relax'
prefix = 'scf'
pseudo_dir = '/vol0004/mdt0/data/hp150275/u10028/POT_KKJUS'
outdir = './data'
tprnfor = .true.
nstep = 50
disk_io = 'non'
/
&SYSTEM
ibrav = 0
ecutwfc = 50.0
ecutrho = 400
occupations = 'smearing'
smearing = 'mp'
degauss = 0.01
assume_isolated = 'esm'
esm_bc = 'bc1'
input_dft = 'BEEF-VDW'
nosym = .true.
nspin = 1
ntyp = 4
nat = 17
/
&ELECTRONS
electron_maxstep = 200
mixing_beta = 0.1
conv_thr = 1e-06
/
&IONS
ion_dynamics = 'bfgs'
upscale = 1.0
/
&CELL
/

K_POINTS {automatic}
10 10 2 0  0  0

ATOMIC_SPECIES
C 12.01 C.pbe-n-rrkjus_psl.1.0.0.UPF
Ga 69.72 Ga.pbe-dnl-rrkjus_psl.1.0.0.UPF
Li 6.941 Li.pbe-sl-rrkjus_psl.1.0.0.UPF
Pd 106.4 Pd.pbe-n-rrkjus_psl.1.0.0.UPF

CELL_PARAMETERS {angstrom}
6.24448000 0.00000000 0.00000000
0.00000000 6.24448000 0.00000000
0.00000000 0.00000000 24.68340000

ATOMIC_POSITIONS {angstrom}
Li 0.00000000 0.00000000 -2.3417141599999987 0 0 0
Li 3.12224000 3.12224000 -2.3417141599999987 0 0 0
Li 3.12224000 0.00000000 0.87922271
Li 0.00000000 3.12224000 0.87897587
Ga 1.56112000 1.56112000 -0.7804891099999978 0 0 0
Ga 4.74592969 4.74549258 2.65149083
Ga 4.68336000 1.56112000 -0.7804891099999978 0 0 0
Ga 1.49842542 4.74561747 2.65149083
Ga 4.68336000 4.68336000 -0.7804891099999978 0 0 0
Ga 1.49836298 1.49873764 2.65149083
Ga 1.56112000 4.68336000 -0.7804891099999978 0 0 0
Ga 4.74592969 1.49904987 2.65149083
Pd 0.00000000 0.00000000 0.57142071
Pd 3.12224000 0.00000000 -2.3417141599999987 0 0 0
Pd 0.00000000 3.12224000 -2.3417141599999987 0 0 0
Pd 3.12236489 3.12224000 0.81109652
C 6.24416778 6.24441756 2.83908467
