&CONTROL
calculation = 'relax'
prefix = 'scf'
pseudo_dir = '/vol0004/mdt0/data/hp150275/u10028/POT_KKJUS'
outdir = './data'
tprnfor = .true.
nstep = 50
disk_io = 'non'
/
&SYSTEM
ibrav = 0
ecutwfc = 50.0
ecutrho = 400
occupations = 'smearing'
smearing = 'mp'
degauss = 0.01
assume_isolated = 'esm'
esm_bc = 'bc1'
input_dft = 'BEEF-VDW'
nosym = .true.
nspin = 1
ntyp = 3
nat = 34
/
&ELECTRONS
electron_maxstep = 200
mixing_beta = 0.1
conv_thr = 1e-06
/
&IONS
ion_dynamics = 'bfgs'
upscale = 1.0
/
&CELL
/

K_POINTS {automatic}
6 6 2 0  0  0

ATOMIC_SPECIES
C 12.01 C.pbe-n-rrkjus_psl.1.0.0.UPF
Ca 40.07 Ca.pbe-spn-rrkjus_psl.1.0.0.UPF
O 15.99 O.pbe-n-rrkjus_psl.1.0.0.UPF

CELL_PARAMETERS {angstrom}
11.12370000 0.00000000 0.00000000
0.00000000 11.12370000 0.00000000
0.00000000 0.00000000 28.34280000

ATOMIC_POSITIONS {angstrom}
Ca 0.00000000 0.00000000 -4.171493300000002 0 0 0
Ca 2.78092500 2.78092500 -4.171493300000002 0 0 0
Ca 2.78092500 0.00000000 -1.3904977699999996 0 0 0
Ca 0.00000000 2.78092500 -1.3904977699999996 0 0 0
Ca 11.08087375 0.00011124 1.34628300
Ca 2.78192613 2.82252764 1.34656643
Ca 2.78059129 0.00077866 3.95920573
Ca 0.04894428 2.73175825 4.13974937
Ca 0.00000000 5.56185000 -4.171493300000002 0 0 0
Ca 2.78092500 8.34277500 -4.171493300000002 0 0 0
Ca 2.78092500 5.56185000 -1.3904977699999996 0 0 0
Ca 0.00000000 8.34277500 -1.3904977699999996 0 0 0
Ca 11.10056270 5.56351856 1.41770686
Ca 2.78136995 8.30261844 1.34599957
Ca 2.78192613 5.56251742 4.12869568
Ca 0.05272634 8.39539010 4.13804880
Ca 5.56185000 0.00000000 -4.171493300000002 0 0 0
Ca 8.34277500 2.78092500 -4.171493300000002 0 0 0
Ca 8.34277500 0.00000000 -1.3904977699999996 0 0 0
Ca 5.56185000 2.78092500 -1.3904977699999996 0 0 0
Ca 5.60234027 11.12314382 1.34486586
Ca 8.34166263 2.80506343 1.41458915
Ca 8.34355366 11.12347753 4.13039624
Ca 5.51090345 2.72864361 4.13833223
Ca 5.56185000 5.56185000 -4.171493300000002 0 0 0
Ca 8.34277500 8.34277500 -4.171493300000002 0 0 0
Ca 8.34277500 5.56185000 -1.3904977699999996 0 0 0
Ca 5.56185000 8.34277500 -1.3904977699999996 0 0 0
Ca 5.58754575 5.56018145 1.41600629
Ca 8.34566716 8.31663431 1.41345544
Ca 8.34333119 5.56185000 4.13946594
Ca 5.51501922 8.39016196 4.13861566
C 2.76156976 0.00011124 6.48880063
O 2.76512935 0.00033371 7.64235259
