&CONTROL
calculation = 'relax'
prefix = 'scf'
pseudo_dir = '/vol0403/data/hp230205/u10028/POT_HYBRID_KKJUS_GBRV'
outdir = './data'
tprnfor = .true.
nstep = 50
disk_io = 'non'
/
&SYSTEM
ibrav = 0
ecutwfc = 50.0
ecutrho = 400
occupations = 'smearing'
smearing = 'mp'
degauss = 0.01
assume_isolated = 'esm'
esm_bc = 'bc1'
input_dft = 'BEEF-VDW'
nosym = .true.
nspin = 1
ntyp = 4
nat = 32
/
&ELECTRONS
electron_maxstep = 200
mixing_beta = 0.1
conv_thr = 1e-06
/
&IONS
ion_dynamics = 'bfgs'
upscale = 1.0
/
&CELL
/

K_POINTS {automatic}
9 6 2 0  0  0

ATOMIC_SPECIES
Ag 107.8 Ag.pbe-n-rrkjus_psl.1.0.0.UPF
In 114.8 In.pbe-dn-rrkjus_psl.1.0.0.UPF
Li 6.941 Li.pbe-sl-rrkjus_psl.1.0.0.UPF
Sc 44.95 Sc.pbe-spn-rrkjus_psl.1.0.0.UPF


CELL_PARAMETERS {angstrom}
6.68683000 0.00000000 0.00000000
0.00000000 9.45660000 0.00000000
0.00000000 0.00000000 27.09240000

ATOMIC_POSITIONS {angstrom}
Li 0.00000000 2.36415000 -1.18204141 0 0 0
Li 0.00000000 7.09245000 -1.18204141 0 0 0
Li 3.34341500 4.72830000 -3.546124240000001 0 0 0
Li 3.34341500 0.00000000 -3.546124240000001 0 0 0
Li 0.53628377 7.09245000 4.66287296
Li 0.53641750 2.36415000 4.66287296
Li 3.32141533 0.00000000 1.24299931
Li 3.32141533 4.72830000 1.24299931
Sc 5.01512250 0.00000000 -1.18204141 0 0 0
Sc 5.01512250 4.72830000 -1.18204141 0 0 0
Sc 1.67170750 2.36415000 -3.546124240000001 0 0 0
Sc 1.67170750 7.09245000 -3.546124240000001 0 0 0
Sc 5.19185542 4.72830000 3.51686444
Sc 5.19185542 0.00000000 3.51686444
Sc 1.61486944 7.09245000 1.38577626
Sc 1.61486944 2.36415000 1.38604718
In 1.67170750 0.00000000 -1.18204141 0 0 0
In 1.67170750 4.72830000 -1.18204141 0 0 0
In 5.01512250 2.36415000 -3.546124240000001 0 0 0
In 5.01512250 7.09245000 -3.546124240000001 0 0 0
In 1.66990206 4.72830000 3.65259737
In 1.66983519 0.00000000 3.65259737
In 5.01853278 7.09235543 1.22322186
In 5.01859965 2.36415000 1.22322186
Ag 0.00000000 0.00000000 -3.546124240000001 0 0 0
Ag 0.00000000 4.72830000 -3.546124240000001 0 0 0
Ag 3.34341500 7.09245000 -1.18204141 0 0 0
Ag 3.34341500 2.36415000 -1.18204141 0 0 0
Ag 0.01263811 4.72830000 1.13462971
Ag 0.01263811 0.00000000 1.13462971
Ag 3.43703062 2.36415000 3.64826258
Ag 3.43689688 7.09245000 3.64826258
