&CONTROL
calculation = 'relax'
prefix = 'scf'
pseudo_dir = '/vol0004/mdt0/data/hp150275/u10028/POT_HYBRID_KKJUS_GBRV'
outdir = './data'
tprnfor = .true.
nstep = 70
disk_io = 'non'
/
&SYSTEM
ibrav = 0
ecutwfc = 50.0
ecutrho = 400
occupations = 'smearing'
smearing = 'mp'
degauss = 0.01
assume_isolated = 'esm'
esm_bc = 'bc1'
input_dft = 'BEEF-VDW'
nosym = .true.
nspin = 1
ntyp = 2
nat = 16
/
&ELECTRONS
electron_maxstep = 200
mixing_beta = 0.1
conv_thr = 1e-06
/
&IONS
ion_dynamics = 'bfgs'
upscale = 1.0
/
&CELL
/

K_POINTS {automatic}
10 10 2 0  0  0

ATOMIC_SPECIES
Au 196.9 Au.pbe-n-rrkjus_psl.1.0.0.UPF
Cu 63.54 Cu.pbe-dn-rrkjus_psl.1.0.0.UPF

CELL_PARAMETERS {angstrom}
5.81340000 0.00000000 0.00000000
-0.00000000 5.81340000 0.00000000
0.00000000 0.00000000 25.47110000

ATOMIC_POSITIONS {angstrom}
Cu 0.00000000 0.00000000 -2.2684561700000003 0 0 0
Cu 0.00000000 0.00000000 1.37875064
Cu 0.00000000 2.90670000 -2.2684561700000003 0 0 0
Cu 0.00000000 2.90670000 1.37875064
Cu 2.90670000 0.00000000 -2.2684561700000003 0 0 0
Cu 2.90670000 -0.00000000 1.37875064
Cu 2.90670000 2.90670000 -2.2684561700000003 0 0 0
Cu 2.90670000 2.90670000 1.37875064
Au 1.45335000 1.45335000 -0.4447254100000002 0 0 0
Au 1.45335000 1.45335000 3.20248140
Au 1.45335000 4.36005000 -0.4447254100000002 0 0 0
Au 1.45335000 4.36005000 3.20248140
Au 4.36005000 1.45335000 -0.4447254100000002 0 0 0
Au 4.36005000 1.45335000 3.20248140
Au 4.36005000 4.36005000 -0.4447254100000002 0 0 0
Au 4.36005000 4.36005000 3.20248140
