&CONTROL
calculation = 'relax'
prefix = 'scf'
pseudo_dir = '/vol0004/mdt0/data/hp150275/u10028/POT_KKJUS'
outdir = './data'
tprnfor = .true.
nstep = 50
disk_io = 'non'
/
&SYSTEM
ibrav = 0
ecutwfc = 50.0
ecutrho = 400
occupations = 'smearing'
smearing = 'mp'
degauss = 0.01
assume_isolated = 'esm'
esm_bc = 'bc1'
input_dft = 'BEEF-VDW'
nosym = .true.
nspin = 1
ntyp = 4
nat = 18
/
&ELECTRONS
electron_maxstep = 200
mixing_beta = 0.1
conv_thr = 1e-06
/
&IONS
ion_dynamics = 'bfgs'
upscale = 1.0
/
&CELL
/

K_POINTS {automatic}
8 11 2 0  0  0

ATOMIC_SPECIES
C 12.01 C.pbe-n-rrkjus_psl.1.0.0.UPF
In 114.8 In.pbe-dn-rrkjus_psl.1.0.0.UPF
Ni 58.69 Ni.pbe-spn-rrkjus_psl.1.0.0.UPF
O 15.99 O.pbe-n-rrkjus_psl.1.0.0.UPF

CELL_PARAMETERS {angstrom}
7.55564000 0.00000000 0.00000000
0.00000000 5.34265000 0.00000000
0.00000000 0.00000000 24.00700000

ATOMIC_POSITIONS {angstrom}
In 0.00015111 5.34259657 2.04059500
In 0.00000000 2.67132500 -0.667874740000002 0 0 0
In 3.77774444 0.00000000 2.12966097
In 3.77782000 2.67132500 -0.667874740000002 0 0 0
Ni 7.55556444 2.67143185 2.06004067
Ni 1.90795021 4.05426995 0.62058095
Ni 1.90795021 1.28854033 0.62058095
Ni 0.00000000 0.00000000 -0.667874740000002 0 0 0
Ni 1.88891000 1.33566250 -2.0033841500000023 0 0 0
Ni 1.88891000 4.00698750 -2.0033841500000023 0 0 0
Ni 3.77774444 2.67132500 1.88815055
Ni 5.64784090 4.05410967 0.62082102
Ni 5.64784090 1.28843347 0.62082102
Ni 3.77782000 0.00000000 -0.667874740000002 0 0 0
Ni 5.66673000 1.33566250 -2.0033841500000023 0 0 0
Ni 5.66673000 4.00698750 -2.0033841500000023 0 0 0
C 7.55556444 2.67127157 3.82815622
O 7.55548889 2.67121815 4.98673404
