&CONTROL
calculation = 'relax'
prefix = 'scf'
pseudo_dir = '/vol0004/mdt0/data/hp150275/u10028/POT_HYBRID_KKJUS_GBRV'
outdir = './data'
tprnfor = .true.
nstep = 50
disk_io = 'non'
/
&SYSTEM
ibrav = 0
ecutwfc = 50.0
ecutrho = 400
occupations = 'smearing'
smearing = 'mp'
degauss = 0.01
assume_isolated = 'esm'
esm_bc = 'bc1'
input_dft = 'BEEF-VDW'
nosym = .true.
nspin = 2
ntyp = 5
nat = 34
starting_magnetization(1) = 0.0
starting_magnetization(2) = 0.0
starting_magnetization(3) = 0.0
starting_magnetization(4) = 0.001
starting_magnetization(5) = 0.0
/
&ELECTRONS
electron_maxstep = 300
mixing_beta = 0.1
conv_thr = 1e-06
/
&IONS
ion_dynamics = 'bfgs'
upscale = 1.0
/
&CELL
/

K_POINTS {automatic}
8 6 1 0 0 0

ATOMIC_SPECIES
C 12.01 C.pbe-n-rrkjus_psl.1.0.0.UPF
Hf 178.4 Hf.pbe-spn-rrkjus_psl.1.0.0.UPF
In 114.8 In.pbe-dn-rrkjus_psl.1.0.0.UPF
Ni 58.69 ni_pbe_v1.4.uspp.F.UPF
O 15.99 O.pbe-n-rrkjus_psl.1.0.0.UPF

CELL_PARAMETERS {angstrom}
6.30953000 0.00000000 0.00000000
0.00000000 8.92302000 0.00000000
0.00000000 0.00000000 26.69230000

ATOMIC_POSITIONS {angstrom}
Hf 0.00000000 0.00000000 -3.346146730000001 0 0 0
Hf 3.15476500 2.23075500 -1.1154712199999999 0 0 0
Hf 3.15476500 6.69226500 -1.1154712199999999 0 0 0
Hf 0.00000000 4.46151000 -3.346146730000001 0 0 0
Hf 0.00000000 4.47498376 1.15871274
Hf 3.15476500 6.69226500 3.28475444
Hf 3.15476500 2.23075500 3.29756674
Hf 0.00000000 8.90954624 1.15871274
In 0.00000000 6.69226500 -1.1154712199999999 0 0 0
In 3.15476500 0.00000000 -3.346146730000001 0 0 0
In 0.00000000 2.23075500 -1.1154712199999999 0 0 0
In 3.15476500 4.46151000 -3.346146730000001 0 0 0
In 0.00000000 2.23075500 3.55221128
In 3.15476500 4.43679323 1.07116200
In 0.00000000 6.69226500 3.55808359
In 3.15476500 0.02471677 1.07116200
Ni 1.57738250 0.00000000 -1.1154712199999999 0 0 0
Ni 4.73214750 4.46151000 -1.1154712199999999 0 0 0
Ni 4.73214750 0.00000000 -1.1154712199999999 0 0 0
Ni 1.57738250 4.46151000 -1.1154712199999999 0 0 0
Ni 4.73214750 6.69226500 -3.346146730000001 0 0 0
Ni 1.57738250 2.23075500 -3.346146730000001 0 0 0
Ni 1.57738250 6.69226500 -3.346146730000001 0 0 0
Ni 4.73214750 2.23075500 -3.346146730000001 0 0 0
Ni 1.59580633 4.47873143 3.21562138
Ni 4.71372367 8.90579857 3.21562138
Ni 4.71372367 4.47873143 3.21562138
Ni 1.59580633 8.90579857 3.21562138
Ni 4.79101541 2.23075500 1.14483275
Ni 1.60640634 6.69235423 1.17579581
Ni 1.51851459 2.23075500 1.14483275
Ni 4.70312366 6.69235423 1.17579581
C 3.15476500 2.23075500 5.56000609
O 3.15476500 2.23075500 6.71124499
