&CONTROL
calculation = 'relax'
prefix = 'scf'
pseudo_dir = '/vol0004/mdt0/data/hp150275/u10028/POT_KKJUS'
outdir = './data'
tprnfor = .true.
nstep = 50
disk_io = 'non'
/
&SYSTEM
ibrav = 0
ecutwfc = 50.0
ecutrho = 400
occupations = 'smearing'
smearing = 'mp'
degauss = 0.01
assume_isolated = 'esm'
esm_bc = 'bc1'
input_dft = 'BEEF-VDW'
nosym = .true.
nspin = 1
ntyp = 3
nat = 32
/
&ELECTRONS
electron_maxstep = 200
mixing_beta = 0.1
conv_thr = 1e-06
/
&IONS
ion_dynamics = 'bfgs'
upscale = 1.0
/
&CELL
/

K_POINTS {automatic}
9 6 2 0  0  0

ATOMIC_SPECIES
Ag 107.8 Ag.pbe-n-rrkjus_psl.1.0.0.UPF
Li 6.941 Li.pbe-sl-rrkjus_psl.1.0.0.UPF
Sn 118.7 Sn.pbe-dn-rrkjus_psl.1.0.0.UPF

CELL_PARAMETERS {angstrom}
6.77071000 0.00000000 0.00000000
0.00000000 9.57522000 0.00000000
0.00000000 0.00000000 27.18140000

ATOMIC_POSITIONS {angstrom}
Li 0.00000000 0.00000000 -3.5906629400000014 0 0 0
Li 3.38535500 2.39380500 -1.1967970399999999 0 0 0
Li 3.38535500 7.18141500 -1.1967970399999999 0 0 0
Li 0.00000000 4.78761000 -3.5906629400000014 0 0 0
Li 0.00000000 4.78761000 1.11742735
Li 3.38535500 7.18141500 3.55097810
Li 3.38535500 2.39380500 3.55097810
Li 0.00000000 0.00000000 1.11742735
Ag 1.69267750 0.00000000 -1.1967970399999999 0 0 0
Ag 5.07803250 4.78761000 -1.1967970399999999 0 0 0
Ag 5.07803250 0.00000000 -1.1967970399999999 0 0 0
Ag 1.69267750 4.78761000 -1.1967970399999999 0 0 0
Ag 5.07803250 7.18141500 -3.5906629400000014 0 0 0
Ag 1.69267750 2.39380500 -3.5906629400000014 0 0 0
Ag 1.69267750 7.18141500 -3.5906629400000014 0 0 0
Ag 5.07803250 2.39380500 -3.5906629400000014 0 0 0
Ag 1.61603306 4.78761000 3.46263855
Ag 5.15474464 0.00000000 3.46263855
Ag 5.15467694 4.78761000 3.46263855
Ag 1.61596536 0.00000000 3.46263855
Ag 5.21175402 2.39380500 1.34711018
Ag 1.55888827 7.18141500 1.34711018
Ag 1.55895598 2.39380500 1.34711018
Ag 5.21182173 7.18141500 1.34711018
Sn 0.00000000 7.18141500 -1.1967970399999999 0 0 0
Sn 3.38535500 0.00000000 -3.5906629400000014 0 0 0
Sn 0.00000000 2.39380500 -1.1967970399999999 0 0 0
Sn 3.38535500 4.78761000 -3.5906629400000014 0 0 0
Sn 0.00006771 2.39380500 3.91466523
Sn 3.38535500 4.78761000 1.19652523
Sn 6.77064229 7.18141500 3.91493704
Sn 3.38535500 0.00000000 1.19652523
