&CONTROL
calculation = 'relax'
prefix = 'scf'
pseudo_dir = '/vol0403/data/hp230205/u10028/POT_HYBRID_KKJUS_GBRV'
outdir = './data'
tprnfor = .true.
nstep = 50
disk_io = 'non'
/
&SYSTEM
ibrav = 0
ecutwfc = 50.0
ecutrho = 400
occupations = 'smearing'
smearing = 'mp'
degauss = 0.01
assume_isolated = 'esm'
esm_bc = 'bc1'
input_dft = 'BEEF-VDW'
nosym = .true.
nspin = 1
ntyp = 6
nat = 18
/
&ELECTRONS
electron_maxstep = 200
mixing_beta = 0.1
conv_thr = 1e-06
/
&IONS
ion_dynamics = 'bfgs'
upscale = 1.0
/
&CELL
/

K_POINTS {automatic}
6 6 1 0 0 0

ATOMIC_SPECIES
C 12.01 C.pbe-n-rrkjus_psl.1.0.0.UPF
Ga 69.72 Ga.pbe-dnl-rrkjus_psl.1.0.0.UPF
O 15.99 O.pbe-n-rrkjus_psl.1.0.0.UPF
Pd 106.4 Pd.pbe-n-rrkjus_psl.1.0.0.UPF
Sc 44.95 Sc.pbe-spn-rrkjus_psl.1.0.0.UPF
Y 88.90 Y.pbe-spn-rrkjus_psl.1.0.0.UPF


CELL_PARAMETERS {angstrom}
6.06401000 0.00000000 0.00000000
0.00000000 9.48206000 0.00000000
0.00000000 0.00000000 24.30750000

ATOMIC_POSITIONS {angstrom}
Y 3.51888436 0.00000000 2.23337310
Y 5.09116088 0.00000000 -0.7180435500000009 0 0 0
Y 3.32920213 4.74112482 2.17625048
Y 5.09116088 4.74103000 -0.7180435500000009 0 0 0
Sc 0.94653132 2.39071179 0.57438623
Sc 3.08876413 2.37051500 -2.153887570000002 0 0 0
Sc 0.94659196 7.09144303 0.57438623
Sc 3.08876413 7.11154500 -2.153887570000002 0 0 0
Ga 0.62744311 0.00000000 1.94411385
Ga 2.05915588 0.00000000 -0.7180435500000009 0 0 0
Ga 0.35419882 4.74093518 2.05276837
Ga 2.05915588 4.74103000 -0.7180435500000009 0 0 0
Pd 3.67636670 2.43271731 0.42781200
Pd 0.05675913 2.37051500 -2.153887570000002 0 0 0
Pd 3.67679118 7.04924787 0.42805508
Pd 0.05675913 7.11154500 -2.153887570000002 0 0 0
C 2.08753544 0.00009482 4.16849318
O 1.49865943 0.00018964 5.17409445
