&CONTROL
calculation = 'relax'
prefix = 'scf'
pseudo_dir = '/vol0004/mdt0/data/hp150275/u10028/POT_HYBRID_KKJUS_GBRV'
outdir = './data'
tprnfor = .true.
nstep = 50
disk_io = 'non'
/
&SYSTEM
ibrav = 0
ecutwfc = 50.0
ecutrho = 400
occupations = 'smearing'
smearing = 'mp'
degauss = 0.01
assume_isolated = 'esm'
esm_bc = 'bc1'
input_dft = 'BEEF-VDW'
nosym = .true.
nspin = 2
ntyp = 3
nat = 32
starting_magnetization(1) = 0.1
starting_magnetization(2) = 0.0
starting_magnetization(3) = 0.0
/
&ELECTRONS
electron_maxstep = 300
mixing_beta = 0.1
conv_thr = 1e-06
/
&IONS
ion_dynamics = 'bfgs'
upscale = 1.0
/
&CELL
/

K_POINTS {automatic}
9 6 2 0  0  0

ATOMIC_SPECIES
Co 58.93 co_pbe_v1.2.uspp.F.UPF
Ga 69.72 Ga.pbe-dnl-rrkjus_psl.1.0.0.UPF
Ti 47.86 Ti.pbe-spn-rrkjus_psl.1.0.0.UPF

CELL_PARAMETERS {angstrom}
5.88011000 0.00000000 0.00000000
0.00000000 8.31574000 0.00000000
0.00000000 0.00000000 26.23680000

ATOMIC_POSITIONS {angstrom}
Ti 0.00000000 0.00000000 -3.118506049999997 0 0 0
Ti 2.94005500 2.07893500 -1.0395020200000005 0 0 0
Ti 2.94005500 6.23680500 -1.0395020200000005 0 0 0
Ti 0.00000000 4.15787000 -3.118506049999997 0 0 0
Ti 0.00000000 4.15787000 1.07229802
Ti 2.94005500 6.23680500 3.10643712
Ti 2.94005500 2.07893500 3.10643712
Ti 0.00000000 0.00000000 1.07229802
Ga 0.00000000 6.23680500 -1.0395020200000005 0 0 0
Ga 2.94005500 0.00000000 -3.118506049999997 0 0 0
Ga 0.00000000 2.07893500 -1.0395020200000005 0 0 0
Ga 2.94005500 4.15787000 -3.118506049999997 0 0 0
Ga 0.00005880 2.07918447 3.16232150
Ga 2.93999620 4.15787000 1.06154093
Ga 0.00005880 6.23655553 3.16232150
Ga 2.93999620 0.00000000 1.06127856
Co 1.47002750 0.00000000 -1.0395020200000005 0 0 0
Co 4.41008250 4.15787000 -1.0395020200000005 0 0 0
Co 4.41008250 0.00000000 -1.0395020200000005 0 0 0
Co 1.47002750 4.15787000 -1.0395020200000005 0 0 0
Co 4.41008250 6.23680500 -3.118506049999997 0 0 0
Co 1.47002750 2.07893500 -3.118506049999997 0 0 0
Co 1.47002750 6.23680500 -3.118506049999997 0 0 0
Co 4.41008250 2.07893500 -3.118506049999997 0 0 0
Co 1.44503703 4.15787000 3.06026035
Co 4.43513177 0.00000000 3.06052272
Co 4.43507297 4.15787000 3.06026035
Co 1.44497823 0.00000000 3.06026035
Co 4.39961590 2.07901816 1.04369990
Co 1.48049410 6.23672184 1.04369990
Co 1.48049410 2.07901816 1.04369990
Co 4.39961590 6.23672184 1.04369990
