&CONTROL
calculation = 'relax'
prefix = 'scf'
pseudo_dir = '/vol0004/mdt0/data/hp150275/u10028/POT_KKJUS'
outdir = './data'
tprnfor = .true.
nstep = 50
disk_io = 'non'
/
&SYSTEM
ibrav = 0
ecutwfc = 50.0
ecutrho = 400
occupations = 'smearing'
smearing = 'mp'
degauss = 0.01
assume_isolated = 'esm'
esm_bc = 'bc1'
input_dft = 'BEEF-VDW'
nosym = .true.
nspin = 1
ntyp = 5
nat = 34
/
&ELECTRONS
electron_maxstep = 200
mixing_beta = 0.1
conv_thr = 1e-06
/
&IONS
ion_dynamics = 'bfgs'
upscale = 1.0
/
&CELL
/

K_POINTS {automatic}
8 6 1 0 0 0

ATOMIC_SPECIES
Au 196.9 Au.pbe-n-rrkjus_psl.1.0.0.UPF
C 12.01 C.pbe-n-rrkjus_psl.1.0.0.UPF
Li 6.941 Li.pbe-sl-rrkjus_psl.1.0.0.UPF
O 15.99 O.pbe-n-rrkjus_psl.1.0.0.UPF
Sn 118.7 Sn.pbe-dn-rrkjus_psl.1.0.0.UPF

CELL_PARAMETERS {angstrom}
6.60404000 0.00000000 0.00000000
0.00000000 9.33952000 0.00000000
0.00000000 0.00000000 27.00460000

ATOMIC_POSITIONS {angstrom}
Li 0.00000000 7.00464000 -1.1674088599999983 0 0 0
Li 3.30202000 0.00000000 -3.5022265700000013 0 0 0
Li 0.00000000 2.33488000 -1.1674088599999983 0 0 0
Li 3.30202000 4.66976000 -3.5022265700000013 0 0 0
Li 1.65101000 2.33488000 -3.5022265700000013 0 0 0
Li 1.65101000 7.00464000 -3.5022265700000013 0 0 0
Li 4.95303000 4.66976000 -1.1674088599999983 0 0 0
Li 4.95303000 0.00000000 -1.1674088599999983 0 0 0
Li 0.12772213 2.32899610 3.44416668
Li 3.35293715 4.66976000 0.99160891
Li 0.12811838 7.01071069 3.44335655
Li 3.39870315 0.00000000 1.04048724
Li 1.78064731 7.01089748 1.28298855
Li 1.78058126 2.32862252 1.28298855
Li 4.80556179 0.00009340 3.51761920
Li 4.74460650 4.66985340 3.37908560
Sn 0.00000000 0.00000000 -3.5022265700000013 0 0 0
Sn 3.30202000 2.33488000 -1.1674088599999983 0 0 0
Sn 3.30202000 7.00464000 -1.1674088599999983 0 0 0
Sn 0.00000000 4.66976000 -3.5022265700000013 0 0 0
Sn 6.54724526 4.66919963 1.15957752
Sn 3.27930210 6.99511369 3.87191955
Sn 3.27950022 2.34449971 3.87191955
Sn 6.55114164 0.00009340 1.18766231
Au 1.65101000 0.00000000 -1.1674088599999983 0 0 0
Au 1.65101000 4.66976000 -1.1674088599999983 0 0 0
Au 4.95303000 7.00464000 -3.5022265700000013 0 0 0
Au 4.95303000 2.33488000 -3.5022265700000013 0 0 0
Au 1.81908282 4.66994679 3.19383404
Au 1.89311411 9.33933321 3.20031515
Au 4.83065714 2.33758846 1.38695626
Au 4.83006278 7.00127777 1.38695626
C 5.32014858 0.00018679 5.52541121
O 5.45255959 0.00018679 6.66554542
