&CONTROL
calculation = 'relax'
prefix = 'scf'
pseudo_dir = '/vol0004/mdt0/data/hp150275/u10028/POT_KKJUS'
outdir = './data'
tprnfor = .true.
nstep = 50
disk_io = 'non'
/
&SYSTEM
ibrav = 0
ecutwfc = 50.0
ecutrho = 400
occupations = 'smearing'
smearing = 'mp'
degauss = 0.01
assume_isolated = 'esm'
esm_bc = 'bc1'
input_dft = 'BEEF-VDW'
nosym = .true.
nspin = 1
ntyp = 4
nat = 17
/
&ELECTRONS
electron_maxstep = 200
mixing_beta = 0.1
conv_thr = 1e-06
/
&IONS
ion_dynamics = 'bfgs'
upscale = 1.0
/
&CELL
/

K_POINTS {automatic}
8 8 1 0 0 0

ATOMIC_SPECIES
C 12.01 C.pbe-n-rrkjus_psl.1.0.0.UPF
Cu 63.54 Cu.pbe-dn-rrkjus_psl.1.0.0.UPF
Li 6.941 Li.pbe-sl-rrkjus_psl.1.0.0.UPF
Sn 118.7 Sn.pbe-dn-rrkjus_psl.1.0.0.UPF

CELL_PARAMETERS {angstrom}
6.34973000 0.00000000 0.00000000
0.00000000 6.34973000 0.00000000
0.00000000 0.00000000 24.76230000

ATOMIC_POSITIONS {angstrom}
Li 0.00000000 0.00000000 -0.7936317200000005 0 0 0
Li 3.23360000 0.05879850 2.75926309
Li 6.29099500 3.11606650 2.75926309
Li 3.17486500 3.17486500 -0.7936317200000005 0 0 0
Li 1.58743250 1.58743250 0.88946182
Li 1.58743250 4.76229750 -2.3811427700000003 0 0 0
Li 4.76229750 4.76229750 0.88946182
Li 4.76229750 1.58743250 -2.3811427700000003 0 0 0
Cu 1.58743250 1.58743250 -2.3811427700000003 0 0 0
Cu 1.58743250 4.76229750 0.72603064
Cu 4.76229750 4.76229750 -2.3811427700000003 0 0 0
Cu 4.76229750 1.58743250 0.72850687
Sn 6.29937664 0.05041686 2.83528335
Sn 3.22521836 3.12444814 2.83528335
Sn 3.17486500 0.00000000 -0.7936317200000005 0 0 0
Sn 0.00000000 3.17486500 -0.7936317200000005 0 0 0
C 4.76229750 1.58743250 2.68522381
