&CONTROL
calculation = 'relax'
prefix = 'scf'
pseudo_dir = '/vol0004/mdt0/data/hp150275/u10028/POT_KKJUS'
outdir = './data'
tprnfor = .true.
nstep = 50
disk_io = 'non'
/
&SYSTEM
ibrav = 0
ecutwfc = 50.0
ecutrho = 400
occupations = 'smearing'
smearing = 'mp'
degauss = 0.01
assume_isolated = 'esm'
esm_bc = 'bc1'
input_dft = 'BEEF-VDW'
nosym = .true.
nspin = 1
ntyp = 4
nat = 18
/
&ELECTRONS
electron_maxstep = 200
mixing_beta = 0.1
conv_thr = 1e-06
/
&IONS
ion_dynamics = 'bfgs'
upscale = 1.0
/
&CELL
/

K_POINTS {automatic}
6 8 1 0 0 0

ATOMIC_SPECIES
C 12.01 C.pbe-n-rrkjus_psl.1.0.0.UPF
Ca 40.07 Ca.pbe-spn-rrkjus_psl.1.0.0.UPF
O 15.99 O.pbe-n-rrkjus_psl.1.0.0.UPF
Pb 207.2 Pb.pbe-dn-rrkjus_psl.1.0.0.UPF

CELL_PARAMETERS {angstrom}
10.04260000 0.00000000 0.00000000
0.00000000 7.10117000 0.00000000
0.00000000 0.00000000 25.32590000

ATOMIC_POSITIONS {angstrom}
Ca 0.00000000 0.00000000 -2.6630183900000013 0 0 0
Ca 10.03516848 3.55527177 0.83423515
Ca 5.02130000 0.00000000 -2.6630183900000013 0 0 0
Ca 5.02883195 3.55612391 0.83550144
Pb 0.00000000 3.55058500 -2.6630183900000013 0 0 0
Pb 2.51065000 5.32587750 -0.8876727899999999 0 0 0
Pb 2.51065000 1.77529250 -0.8876727899999999 0 0 0
Pb 0.00271150 0.00639105 1.04519989
Pb 2.51135298 1.74845008 2.42090278
Pb 2.51044915 5.37906526 2.41837019
Pb 5.02130000 3.55058500 -2.6630183900000013 0 0 0
Pb 7.53195000 5.32587750 -0.8876727899999999 0 0 0
Pb 7.53195000 1.77529250 -0.8876727899999999 0 0 0
Pb 5.01858850 0.00553891 1.04595967
Pb 7.53225128 1.74411836 2.41786367
Pb 7.53094574 5.37828413 2.41988974
C 2.53204074 1.17353935 6.18027938
O 2.50452401 2.05656984 6.90561315
