&CONTROL
calculation = 'relax'
prefix = 'scf'
pseudo_dir = '/vol0004/mdt0/data/hp150275/u10028/POT_HYBRID_KKJUS_GBRV'
outdir = './data'
tprnfor = .true.
nstep = 50
disk_io = 'non'
/
&SYSTEM
ibrav = 0
ecutwfc = 50.0
ecutrho = 400
occupations = 'smearing'
smearing = 'mp'
degauss = 0.01
assume_isolated = 'esm'
esm_bc = 'bc1'
input_dft = 'BEEF-VDW'
nosym = .true.
nspin = 2
ntyp = 3
nat = 33
starting_magnetization(1) = 0.1
starting_magnetization(2) = 0.1
starting_magnetization(3) = 0.1
/
&ELECTRONS
electron_maxstep = 200
mixing_beta = 0.1
conv_thr = 1e-06
/
&IONS
ion_dynamics = 'bfgs'
upscale = 1.0
/
&CELL
/

K_POINTS {automatic}
8 6 1 0 0 0

ATOMIC_SPECIES
C 12.01 C.pbe-n-rrkjus_psl.1.0.0.UPF
Fe 55.84 fe_pbe_v1.5.uspp.F.UPF
Rh 102.9 Rh.pbe-spn-rrkjus_psl.1.0.0.UPF

CELL_PARAMETERS {angstrom}
6.04788000 0.00000000 0.00000000
0.00000000 8.55299000 0.00000000
0.00000000 0.00000000 26.41470000

ATOMIC_POSITIONS {angstrom}
Fe 0.00000000 0.00000000 -3.2072728700000006 0 0 0
Fe 0.00000000 2.13824750 -1.0690029099999983 0 0 0
Fe 0.00000000 0.00008553 1.09066296
Fe 0.00000000 2.04775687 3.37817598
Fe 0.00000000 4.27649500 -3.2072728700000006 0 0 0
Fe 0.00000000 6.41474250 -1.0690029099999983 0 0 0
Fe 0.00000000 4.27640947 1.07428585
Fe 0.00000000 6.50523313 3.37817598
Fe 3.02394000 0.00000000 -3.2072728700000006 0 0 0
Fe 3.02394000 2.13824750 -1.0690029099999983 0 0 0
Fe 3.02394000 0.00008553 0.97681561
Fe 3.02394000 2.23284357 3.27093230
Fe 3.02394000 4.27649500 -3.2072728700000006 0 0 0
Fe 3.02394000 6.41474250 -1.0690029099999983 0 0 0
Fe 3.02394000 4.27640947 1.10704008
Fe 3.02394000 6.32006090 3.27093230
Rh 1.51197000 2.13824750 -3.2072728700000006 0 0 0
Rh 1.51197000 0.00000000 -1.0690029099999983 0 0 0
Rh 1.50906702 2.13037875 1.12183231
Rh 1.45348700 4.27666606 3.12195339
Rh 1.51197000 6.41474250 -3.2072728700000006 0 0 0
Rh 1.51197000 4.27649500 -1.0690029099999983 0 0 0
Rh 1.50906702 6.42261125 1.12183231
Rh 1.66770291 8.55290447 3.12723633
Rh 4.53591000 2.13824750 -3.2072728700000006 0 0 0
Rh 4.53591000 0.00000000 -1.0690029099999983 0 0 0
Rh 4.53881298 2.13037875 1.12183231
Rh 4.59439300 4.27666606 3.12195339
Rh 4.53591000 6.41474250 -3.2072728700000006 0 0 0
Rh 4.53591000 4.27649500 -1.0690029099999983 0 0 0
Rh 4.53881298 6.42261125 1.12183231
Rh 4.38011661 8.55290447 3.12723633
C 0.00000000 0.00000000 3.99469508
