&CONTROL
calculation = 'relax'
prefix = 'scf'
pseudo_dir = '/vol0403/data/hp230205/u10028/POT_HYBRID_KKJUS_GBRV'
outdir = './data'
tprnfor = .true.
nstep = 50
disk_io = 'non'
/
&SYSTEM
ibrav = 0
ecutwfc = 50.0
ecutrho = 400
occupations = 'smearing'
smearing = 'mp'
degauss = 0.01
assume_isolated = 'esm'
esm_bc = 'bc1'
input_dft = 'BEEF-VDW'
nosym = .true.
nspin = 1
ntyp = 6
nat = 34
/
&ELECTRONS
electron_maxstep = 200
mixing_beta = 0.1
conv_thr = 1e-06
/
&IONS
ion_dynamics = 'bfgs'
upscale = 1.0
/
&CELL
/

K_POINTS {automatic}
6 6 1 0 0 0

ATOMIC_SPECIES
C 12.01 C.pbe-n-rrkjus_psl.1.0.0.UPF
Ge 72.64 Ge.pbe-dn-rrkjus_psl.1.0.0.UPF
Li 6.941 Li.pbe-sl-rrkjus_psl.1.0.0.UPF
O 15.99 O.pbe-n-rrkjus_psl.1.0.0.UPF
Pd 106.4 Pd.pbe-n-rrkjus_psl.1.0.0.UPF
Zr 91.22 Zr.pbe-spn-rrkjus_psl.1.0.0.UPF


CELL_PARAMETERS {angstrom}
6.47880000 0.00000000 0.00000000
0.00000000 9.16240000 0.00000000
0.00000000 0.00000000 26.87180000

ATOMIC_POSITIONS {angstrom}
Li 1.61970000 0.00000000 -1.145276120000002 0 0 0
Li 1.61970000 4.58120000 -1.145276120000002 0 0 0
Li 4.85910000 2.29060000 -3.4358283500000013 0 0 0
Li 4.85910000 6.87180000 -3.4358283500000013 0 0 0
Li 1.57408925 4.58120000 3.65778942
Li 1.53463336 0.00000000 3.67740583
Li 4.79806970 6.91614602 1.11356739
Li 4.79806970 2.24616236 1.11356739
Zr 4.85910000 0.00000000 -1.145276120000002 0 0 0
Zr 4.85910000 4.58120000 -1.145276120000002 0 0 0
Zr 1.61970000 2.29060000 -3.4358283500000013 0 0 0
Zr 1.61970000 6.87180000 -3.4358283500000013 0 0 0
Zr 4.70322007 4.58120000 3.56131965
Zr 4.69434412 0.00000000 3.28185293
Zr 1.60084669 6.77220471 1.21541151
Zr 1.60084669 2.39019529 1.21541151
Ge 0.00000000 0.00000000 -3.4358283500000013 0 0 0
Ge 0.00000000 4.58120000 -3.4358283500000013 0 0 0
Ge 3.23940000 6.87180000 -1.145276120000002 0 0 0
Ge 3.23940000 2.29060000 -1.145276120000002 0 0 0
Ge 6.28910074 4.58120000 1.34278385
Ge 0.08493707 0.00000000 1.21406792
Ge 3.14675316 2.29664718 3.61103248
Ge 3.14675316 6.86584444 3.61103248
Pd 0.00000000 2.29060000 -1.145276120000002 0 0 0
Pd 0.00000000 6.87180000 -1.145276120000002 0 0 0
Pd 3.23940000 4.58120000 -3.4358283500000013 0 0 0
Pd 3.23940000 0.00000000 -3.4358283500000013 0 0 0
Pd 6.31572860 6.83817399 3.26949191
Pd 6.31572860 2.32431763 3.26949191
Pd 3.00046186 9.16230838 1.02730891
Pd 3.39346586 4.58110838 1.22374177
C 4.71034675 0.00000000 5.54123388
O 4.71747343 0.00000000 6.69645256
