&CONTROL
calculation = 'relax'
prefix = 'scf'
pseudo_dir = '/vol0004/mdt0/data/hp150275/u10028/POT_KKJUS'
outdir = './data'
tprnfor = .true.
nstep = 50
disk_io = 'non'
/
&SYSTEM
ibrav = 0
ecutwfc = 50.0
ecutrho = 400
occupations = 'smearing'
smearing = 'mp'
degauss = 0.01
assume_isolated = 'esm'
esm_bc = 'bc1'
input_dft = 'BEEF-VDW'
nosym = .true.
nspin = 1
ntyp = 4
nat = 33
/
&ELECTRONS
electron_maxstep = 200
mixing_beta = 0.1
conv_thr = 1e-06
/
&IONS
ion_dynamics = 'bfgs'
upscale = 1.0
/
&CELL
/

K_POINTS {automatic}
9 6 2 0  0  0

ATOMIC_SPECIES
Ag 107.8 Ag.pbe-n-rrkjus_psl.1.0.0.UPF
Au 196.9 Au.pbe-n-rrkjus_psl.1.0.0.UPF
C 12.01 C.pbe-n-rrkjus_psl.1.0.0.UPF
Zn 65.40 Zn.pbe-dnl-rrkjus_psl.1.0.0.UPF

CELL_PARAMETERS {angstrom}
6.35005000 0.00000000 0.00000000
0.00000000 8.98033000 0.00000000
0.00000000 0.00000000 26.73520000

ATOMIC_POSITIONS {angstrom}
Zn 1.58751250 0.00000000 -1.1226110499999997 0 0 0
Zn 4.76253750 4.49016500 -1.1226110499999997 0 0 0
Zn 4.76253750 0.00000000 -1.1226110499999997 0 0 0
Zn 1.58751250 4.49016500 -1.1226110499999997 0 0 0
Zn 4.76253750 6.73524750 -3.3675657900000004 0 0 0
Zn 1.58751250 2.24508250 -3.3675657900000004 0 0 0
Zn 1.58751250 6.73524750 -3.3675657900000004 0 0 0
Zn 4.76253750 2.24508250 -3.3675657900000004 0 0 0
Zn 1.52324999 4.32708221 4.11481463
Zn 4.79250974 8.79057563 3.57503094
Zn 4.79250974 4.67991937 3.57503094
Zn 1.52318649 0.16308279 4.11481463
Zn 4.66919176 2.24508250 1.09079616
Zn 1.60846767 6.73524750 1.27419963
Zn 1.72880111 2.24508250 1.25842586
Zn 4.77079256 6.73524750 1.37285252
Ag 0.00000000 0.00000000 -3.3675657900000004 0 0 0
Ag 3.17502500 2.24508250 -1.1226110499999997 0 0 0
Ag 3.17502500 6.73524750 -1.1226110499999997 0 0 0
Ag 0.00000000 4.49016500 -3.3675657900000004 0 0 0
Ag 0.06661202 4.50435392 1.22260070
Ag 3.01843277 6.73524750 3.83917472
Ag 3.50116357 2.24508250 3.66138564
Ag 0.06661202 8.96614108 1.22260070
Au 0.00000000 6.73524750 -1.1226110499999997 0 0 0
Au 3.17502500 0.00000000 -3.3675657900000004 0 0 0
Au 0.00000000 2.24508250 -1.1226110499999997 0 0 0
Au 3.17502500 4.49016500 -3.3675657900000004 0 0 0
Au 6.14297487 2.24508250 3.21891808
Au 3.17515200 4.55293751 1.17688350
Au 0.17005434 6.73524750 3.64106689
Au 3.17515200 8.91755749 1.17688350
C 1.51143890 2.24508250 4.35275791
