&CONTROL
calculation = 'relax'
prefix = 'scf'
pseudo_dir = '/vol0004/mdt0/data/hp150275/u10028/POT_KKJUS'
outdir = './data'
tprnfor = .true.
nstep = 50
disk_io = 'non'
/
&SYSTEM
ibrav = 0
ecutwfc = 50.0
ecutrho = 400
occupations = 'smearing'
smearing = 'mp'
degauss = 0.01
assume_isolated = 'esm'
esm_bc = 'bc1'
input_dft = 'BEEF-VDW'
nosym = .true.
nspin = 1
ntyp = 3
nat = 16
/
&ELECTRONS
electron_maxstep = 200
mixing_beta = 0.1
conv_thr = 1e-06
/
&IONS
ion_dynamics = 'bfgs'
upscale = 1.0
/
&CELL
/

K_POINTS {automatic}
8 8 1 0 0 0

ATOMIC_SPECIES
Al 26.98 Al.pbe-nl-rrkjus_psl.1.0.0.UPF
Au 196.9 Au.pbe-n-rrkjus_psl.1.0.0.UPF
Hf 178.4 Hf.pbe-spn-rrkjus_psl.1.0.0.UPF

CELL_PARAMETERS {angstrom}
6.63475000 0.00000000 0.00000000
-0.00000000 6.63475000 0.00000000
0.00000000 0.00000000 24.97610000

ATOMIC_POSITIONS {angstrom}
Hf 0.00000000 0.00000000 2.48811908
Hf 3.31737500 3.31737500 2.48811908
Hf 3.31737500 0.00000000 -0.8294562799999987 0 0 0
Hf 0.00000000 3.31737500 -0.8294562799999987 0 0 0
Al 0.00000000 0.00000000 -0.8294562799999987 0 0 0
Al 3.31737500 -0.00000000 2.48811908
Al 0.00000000 3.31737500 2.48811908
Al 3.31737500 3.31737500 -0.8294562799999987 0 0 0
Au 1.65868750 1.65868750 0.82945628
Au 4.97606250 4.97606250 -2.4881190800000006 0 0 0
Au 4.97606250 1.65868750 0.82945628
Au 1.65868750 4.97606250 -2.4881190800000006 0 0 0
Au 4.97606250 4.97606250 0.82945628
Au 1.65868750 1.65868750 -2.4881190800000006 0 0 0
Au 1.65868750 4.97606250 0.82945628
Au 4.97606250 1.65868750 -2.4881190800000006 0 0 0
