&CONTROL
calculation = 'relax'
prefix = 'scf'
pseudo_dir = '/vol0004/mdt0/data/hp150275/u10028/POT_KKJUS'
outdir = './data'
tprnfor = .true.
nstep = 50
disk_io = 'non'
/
&SYSTEM
ibrav = 0
ecutwfc = 50.0
ecutrho = 400
occupations = 'smearing'
smearing = 'mp'
degauss = 0.01
assume_isolated = 'esm'
esm_bc = 'bc1'
input_dft = 'BEEF-VDW'
nosym = .true.
nspin = 1
ntyp = 5
nat = 18
/
&ELECTRONS
electron_maxstep = 200
mixing_beta = 0.1
conv_thr = 1e-06
/
&IONS
ion_dynamics = 'bfgs'
upscale = 1.0
/
&CELL
/

K_POINTS {automatic}
9 9 2 0  0  0

ATOMIC_SPECIES
C 12.01 C.pbe-n-rrkjus_psl.1.0.0.UPF
In 114.8 In.pbe-dn-rrkjus_psl.1.0.0.UPF
Ir 192.2 Ir.pbe-n-rrkjus_psl.0.2.3.UPF
Li 6.941 Li.pbe-sl-rrkjus_psl.1.0.0.UPF
O 15.99 O.pbe-n-rrkjus_psl.1.0.0.UPF

CELL_PARAMETERS {angstrom}
6.34973000 0.00000000 0.00000000
0.00000000 6.34973000 0.00000000
0.00000000 0.00000000 24.76230000

ATOMIC_POSITIONS {angstrom}
Li 6.34719011 0.00241290 0.61484791
Li 3.17486500 0.00000000 -2.3811427700000003 0 0 0
Li 0.00000000 3.17486500 -2.3811427700000003 0 0 0
Li 3.17746839 3.17232511 0.61460029
Li 1.58743250 1.58743250 -0.7936317200000005 0 0 0
Li 1.58762299 4.76223400 2.38956195
Li 4.76229750 4.76229750 -0.7936317200000005 0 0 0
Li 4.76223400 1.58743250 2.54085960
In 1.58736900 1.58749600 2.38535236
In 1.58743250 4.76229750 -0.7936317200000005 0 0 0
In 4.76210701 4.76217051 2.38559998
In 4.76229750 1.58743250 -0.7936317200000005 0 0 0
Ir 0.00000000 0.00000000 -2.3811427700000003 0 0 0
Ir 3.17486500 3.17486500 -2.3811427700000003 0 0 0
Ir 3.17435702 6.34922202 0.89862387
Ir 0.00044448 3.17537298 0.89862387
C 4.76236100 1.58755949 4.69022724
O 4.76236100 1.58755949 5.83226452
