&CONTROL
calculation = 'relax'
prefix = 'scf'
pseudo_dir = '/vol0004/mdt0/data/hp150275/u10028/POT_KKJUS'
outdir = './data'
tprnfor = .true.
nstep = 50
disk_io = 'non'
/
&SYSTEM
ibrav = 0
ecutwfc = 50.0
ecutrho = 400
occupations = 'smearing'
smearing = 'mp'
degauss = 0.01
assume_isolated = 'esm'
esm_bc = 'bc1'
input_dft = 'BEEF-VDW'
nosym = .true.
nspin = 1
ntyp = 2
nat = 32
/
&ELECTRONS
electron_maxstep = 200
mixing_beta = 0.1
conv_thr = 1e-06
/
&IONS
ion_dynamics = 'bfgs'
upscale = 1.0
/
&CELL
/

K_POINTS {automatic}
6 6 1 0 0 0

ATOMIC_SPECIES
Ca 40.07 Ca.pbe-spn-rrkjus_psl.1.0.0.UPF
Pb 207.2 Pb.pbe-dn-rrkjus_psl.1.0.0.UPF

CELL_PARAMETERS {angstrom}
10.21910000 0.00000000 0.00000000
0.00000000 10.21910000 0.00000000
0.00000000 0.00000000 27.66430000

ATOMIC_POSITIONS {angstrom}
Ca 10.21899781 2.55508157 1.36246678
Ca 2.55487719 0.00000000 1.36246678
Ca 2.55467281 2.55436624 4.09708283
Ca 0.00000000 2.55477500 -3.832058840000002 0 0 0
Ca 2.55477500 0.00000000 -3.832058840000002 0 0 0
Ca 2.55477500 2.55477500 -1.2772607300000018 0 0 0
Ca 0.00010219 7.66412062 1.36246678
Ca 2.55477500 5.10955000 1.36246678
Ca 2.55477500 7.66463157 4.09735947
Ca 0.00000000 7.66432500 -3.832058840000002 0 0 0
Ca 2.55477500 5.10955000 -3.832058840000002 0 0 0
Ca 2.55477500 7.66432500 -1.2772607300000018 0 0 0
Ca 5.10955000 2.55497938 1.36219013
Ca 7.66422281 0.00000000 1.36191349
Ca 7.66442719 2.55426405 4.09680619
Ca 5.10955000 2.55477500 -3.832058840000002 0 0 0
Ca 7.66432500 0.00000000 -3.832058840000002 0 0 0
Ca 7.66432500 2.55477500 -1.2772607300000018 0 0 0
Ca 5.10944781 7.66401843 1.36246678
Ca 7.66432500 5.10955000 1.36274342
Ca 7.66452938 7.66463157 4.09735947
Ca 5.10955000 7.66432500 -3.832058840000002 0 0 0
Ca 7.66432500 5.10955000 -3.832058840000002 0 0 0
Ca 7.66432500 7.66432500 -1.2772607300000018 0 0 0
Pb 10.21889562 0.00020438 3.57810056
Pb 0.00000000 0.00000000 -1.2772607300000018 0 0 0
Pb 0.00010219 5.10955000 3.57920713
Pb 0.00000000 5.10955000 -1.2772607300000018 0 0 0
Pb 5.10965219 0.00000000 3.57948378
Pb 5.10955000 0.00000000 -1.2772607300000018 0 0 0
Pb 5.10995876 5.10955000 3.57837720
Pb 5.10955000 5.10955000 -1.2772607300000018 0 0 0
