&CONTROL
calculation = 'relax'
prefix = 'scf'
pseudo_dir = '/vol0004/mdt0/data/hp150275/u10028/POT_KKJUS'
outdir = './data'
tprnfor = .true.
nstep = 50
disk_io = 'non'
/
&SYSTEM
ibrav = 0
ecutwfc = 50.0
ecutrho = 400
occupations = 'smearing'
smearing = 'mp'
degauss = 0.01
assume_isolated = 'esm'
esm_bc = 'bc1'
input_dft = 'BEEF-VDW'
nosym = .true.
nspin = 1
ntyp = 4
nat = 33
/
&ELECTRONS
electron_maxstep = 200
mixing_beta = 0.1
conv_thr = 1e-06
/
&IONS
ion_dynamics = 'bfgs'
upscale = 1.0
/
&CELL
/

K_POINTS {automatic}
9 6 2 0  0  0

ATOMIC_SPECIES
C 12.01 C.pbe-n-rrkjus_psl.1.0.0.UPF
Ge 72.64 Ge.pbe-dn-rrkjus_psl.1.0.0.UPF
Li 6.941 Li.pbe-sl-rrkjus_psl.1.0.0.UPF
Mg 24.30 Mg.pbe-spnl-rrkjus_psl.1.0.0.UPF

CELL_PARAMETERS {angstrom}
6.76484000 0.00000000 0.00000000
0.00000000 9.56693000 0.00000000
0.00000000 0.00000000 27.17520000

ATOMIC_POSITIONS {angstrom}
Li 0.00000000 0.00000000 -3.5876699000000016 0 0 0
Li 3.38242000 2.39173250 -1.1959805500000016 0 0 0
Li 3.38242000 7.17519750 -1.1959805500000016 0 0 0
Li 0.00000000 4.78346500 -3.5876699000000016 0 0 0
Li 0.00000000 4.78346500 1.39327250
Li 3.38242000 7.48191328 3.90752201
Li 3.38242000 2.08501672 3.90725026
Li 0.00000000 0.00000000 1.19163252
Mg 1.69121000 0.00000000 -1.1959805500000016 0 0 0
Mg 5.07363000 4.78346500 -1.1959805500000016 0 0 0
Mg 5.07363000 0.00000000 -1.1959805500000016 0 0 0
Mg 1.69121000 4.78346500 -1.1959805500000016 0 0 0
Mg 5.07363000 7.17519750 -3.5876699000000016 0 0 0
Mg 1.69121000 2.39173250 -3.5876699000000016 0 0 0
Mg 1.69121000 7.17519750 -3.5876699000000016 0 0 0
Mg 5.07363000 2.39173250 -3.5876699000000016 0 0 0
Mg 1.82515383 4.78346500 3.79691894
Mg 5.38176846 0.00000000 3.84366029
Mg 4.93968617 4.78346500 3.79691894
Mg 1.38307154 0.00000000 3.84366029
Mg 5.07680947 2.41785022 1.20848114
Mg 1.68803053 7.14907978 1.20848114
Mg 1.68803053 2.41785022 1.20848114
Mg 5.07680947 7.14907978 1.20848114
Ge 0.00000000 7.17519750 -1.1959805500000016 0 0 0
Ge 3.38242000 0.00000000 -3.5876699000000016 0 0 0
Ge 0.00000000 2.39173250 -1.1959805500000016 0 0 0
Ge 3.38242000 4.78346500 -3.5876699000000016 0 0 0
Ge 0.00000000 2.49036755 3.46945778
Ge 3.38242000 4.78346500 1.11037867
Ge 0.00000000 7.07656245 3.46945778
Ge 3.38242000 0.00000000 1.35060744
C 3.38242000 0.00000000 3.39336722
