&CONTROL
calculation = 'relax'
prefix = 'scf'
pseudo_dir = '/vol0004/mdt0/data/hp150275/u10028/POT_KKJUS'
outdir = './data'
tprnfor = .true.
nstep = 50
disk_io = 'non'
/
&SYSTEM
ibrav = 0
ecutwfc = 50.0
ecutrho = 400
occupations = 'smearing'
smearing = 'mp'
degauss = 0.01
assume_isolated = 'esm'
esm_bc = 'bc1'
input_dft = 'BEEF-VDW'
nosym = .true.
nspin = 1
ntyp = 3
nat = 16
/
&ELECTRONS
electron_maxstep = 200
mixing_beta = 0.1
conv_thr = 1e-06
/
&IONS
ion_dynamics = 'bfgs'
upscale = 1.0
/
&CELL
/

K_POINTS {automatic}
10 10 2 0  0  0

ATOMIC_SPECIES
Ga 69.72 Ga.pbe-dnl-rrkjus_psl.1.0.0.UPF
Pd 106.4 Pd.pbe-n-rrkjus_psl.1.0.0.UPF
Sc 44.95 Sc.pbe-spn-rrkjus_psl.1.0.0.UPF

CELL_PARAMETERS {angstrom}
6.43013000 0.00000000 0.00000000
-0.00000000 6.43013000 0.00000000
0.00000000 0.00000000 24.82260000

ATOMIC_POSITIONS {angstrom}
Sc 0.00000000 0.00000000 -2.41126736 0 0 0
Sc 3.21506500 3.21506500 -2.41126736 0 0 0
Sc 3.21506500 -0.00000000 0.80375579
Sc 0.00000000 3.21506500 0.80375579
Ga 0.00000000 0.00000000 0.80375579
Ga 3.21506500 0.00000000 -2.41126736 0 0 0
Ga 0.00000000 3.21506500 -2.41126736 0 0 0
Ga 3.21506500 3.21506500 0.80375579
Pd 1.60753250 1.60753250 -0.8037557900000003 0 0 0
Pd 4.82259750 4.82259750 2.41126736
Pd 4.82259750 1.60753250 -0.8037557900000003 0 0 0
Pd 1.60753250 4.82259750 2.41126736
Pd 4.82259750 4.82259750 -0.8037557900000003 0 0 0
Pd 1.60753250 1.60753250 2.41126736
Pd 1.60753250 4.82259750 -0.8037557900000003 0 0 0
Pd 4.82259750 1.60753250 2.41126736
