&CONTROL
calculation = 'relax'
prefix = 'scf'
pseudo_dir = '/vol0004/mdt0/data/hp150275/u10028/POT_HYBRID_KKJUS_GBRV'
outdir = './data'
tprnfor = .true.
nstep = 50
disk_io = 'non'
/
&SYSTEM
ibrav = 0
ecutwfc = 50.0
ecutrho = 400
occupations = 'smearing'
smearing = 'mp'
degauss = 0.01
assume_isolated = 'esm'
esm_bc = 'bc1'
input_dft = 'BEEF-VDW'
nosym = .true.
nspin = 2
ntyp = 3
nat = 32
starting_magnetization(1) = 0.1
starting_magnetization(2) = 0.0
starting_magnetization(3) = 0.0
/
&ELECTRONS
electron_maxstep = 300
mixing_beta = 0.1
conv_thr = 1e-06
/
&IONS
ion_dynamics = 'bfgs'
upscale = 1.0
/
&CELL
/

K_POINTS {automatic}
8 6 1 0 0 0

ATOMIC_SPECIES
Fe 55.84 fe_pbe_v1.5.uspp.F.UPF
Si 28.08 Si.pbe-nl-rrkjus_psl.1.0.0.UPF
V 50.94 V.pbe-spnl-rrkjus_psl.1.0.0.UPF

CELL_PARAMETERS {angstrom}
5.64262000 0.00000000 0.00000000
0.00000000 7.97986000 0.00000000
0.00000000 0.00000000 25.98490000

ATOMIC_POSITIONS {angstrom}
V 0.00000000 0.00000000 -2.9924210799999997 0 0 0
V 2.82131000 1.99496500 -0.9975603100000008 0 0 0
V 2.82131000 5.98489500 -0.9975603100000008 0 0 0
V 0.00000000 3.98993000 -2.9924210799999997 0 0 0
V 0.00000000 3.98993000 1.04927026
V 2.82131000 5.98481520 3.01476810
V 2.82131000 1.99504480 3.01476810
V 0.00000000 0.00000000 1.04927026
Fe 1.41065500 0.00000000 -0.9975603100000008 0 0 0
Fe 4.23196500 3.98993000 -0.9975603100000008 0 0 0
Fe 4.23196500 0.00000000 -0.9975603100000008 0 0 0
Fe 1.41065500 3.98993000 -0.9975603100000008 0 0 0
Fe 4.23196500 5.98489500 -2.9924210799999997 0 0 0
Fe 1.41065500 1.99496500 -2.9924210799999997 0 0 0
Fe 1.41065500 5.98489500 -2.9924210799999997 0 0 0
Fe 4.23196500 1.99496500 -2.9924210799999997 0 0 0
Fe 1.36686827 3.99000980 2.90251333
Fe 4.27575173 7.97978020 2.90225348
Fe 4.27575173 3.99000980 2.90251333
Fe 1.36686827 7.97978020 2.90225348
Fe 4.21735061 1.99488520 0.99080424
Fe 1.42532581 5.98497480 0.99080424
Fe 1.42532581 1.99488520 0.99080424
Fe 4.21729419 5.98497480 0.99080424
Si 0.00000000 5.98489500 -0.9975603100000008 0 0 0
Si 2.82131000 0.00000000 -2.9924210799999997 0 0 0
Si 0.00000000 1.99496500 -0.9975603100000008 0 0 0
Si 2.82131000 3.98993000 -2.9924210799999997 0 0 0
Si 0.00000000 1.99496500 3.05920228
Si 2.82131000 3.98993000 1.01600959
Si 0.00000000 5.98489500 3.05920228
Si 2.82131000 0.00000000 1.01600959
