&CONTROL
calculation = 'relax'
prefix = 'scf'
pseudo_dir = '/vol0403/data/hp230205/u10028/POT_HYBRID_KKJUS_GBRV'
outdir = './data'
tprnfor = .true.
nstep = 50
disk_io = 'non'
/
&SYSTEM
ibrav = 0
ecutwfc = 50.0
ecutrho = 400
occupations = 'smearing'
smearing = 'mp'
degauss = 0.01
assume_isolated = 'esm'
esm_bc = 'bc1'
input_dft = 'BEEF-VDW'
nosym = .true.
nspin = 1
ntyp = 6
nat = 18
/
&ELECTRONS
electron_maxstep = 200
mixing_beta = 0.1
conv_thr = 1e-06
/
&IONS
ion_dynamics = 'bfgs'
upscale = 1.0
/
&CELL
/

K_POINTS {automatic}
9 9 2 0  0  0

ATOMIC_SPECIES
Au 196.9 Au.pbe-n-rrkjus_psl.1.0.0.UPF
C 12.01 C.pbe-n-rrkjus_psl.1.0.0.UPF
Ge 72.64 Ge.pbe-dn-rrkjus_psl.1.0.0.UPF
Li 6.941 Li.pbe-sl-rrkjus_psl.1.0.0.UPF
O 15.99 O.pbe-n-rrkjus_psl.1.0.0.UPF
Pd 106.4 Pd.pbe-n-rrkjus_psl.1.0.0.UPF


CELL_PARAMETERS {angstrom}
6.30991000 0.00000000 0.00000000
0.00000000 6.30991000 0.00000000
0.00000000 0.00000000 24.73240000

ATOMIC_POSITIONS {angstrom}
Li 1.63988251 1.63988251 0.82408357
Li 1.57747750 4.73243250 -2.3661487099999974 0 0 0
Li 4.73243250 1.57747750 -2.3661487099999974 0 0 0
Li 4.67002749 4.67002749 0.82408357
Ge 4.67185736 1.63817883 0.85524639
Ge 4.73243250 4.73243250 -2.3661487099999974 0 0 0
Ge 1.57747750 1.57747750 -2.3661487099999974 0 0 0
Ge 1.63811574 4.67173117 0.85524639
Pd 0.00000000 3.15495500 2.21354980
Pd 0.00000000 0.00000000 -0.7887162399999994 0 0 0
Pd 3.15495500 3.15495500 -0.7887162399999994 0 0 0
Pd 3.15495500 0.00000000 2.21305515
Au 0.00000000 6.30984690 2.27216559
Au 0.00000000 3.15495500 -0.7887162399999994 0 0 0
Au 3.15495500 0.00000000 -0.7887162399999994 0 0 0
Au 3.15495500 3.15495500 2.56029805
C 6.30984690 0.00006310 4.34053620
O 0.00000000 0.00000000 5.48317308
