&CONTROL
calculation = 'relax'
prefix = 'scf'
pseudo_dir = '/vol0004/mdt0/data/hp150275/u10028/POT_HYBRID_KKJUS_GBRV'
outdir = './data'
tprnfor = .true.
nstep = 50
disk_io = 'non'
/
&SYSTEM
ibrav = 0
ecutwfc = 50.0
ecutrho = 400
occupations = 'smearing'
smearing = 'mp'
degauss = 0.01
assume_isolated = 'esm'
esm_bc = 'bc1'
input_dft = 'BEEF-VDW'
nosym = .true.
nspin = 2
ntyp = 5
nat = 18
starting_magnetization(1) = 0.0
starting_magnetization(2) = 0.1
starting_magnetization(3) = 0.0
starting_magnetization(4) = 0.0
starting_magnetization(5) = 0.0
/
&ELECTRONS
electron_maxstep = 300
mixing_beta = 0.1
conv_thr = 1e-06
/
&IONS
ion_dynamics = 'bfgs'
upscale = 1.0
/
&CELL
/

K_POINTS {automatic}
10 10 2 0  0  0

ATOMIC_SPECIES
C 12.01 C.pbe-n-rrkjus_psl.1.0.0.UPF
Co 58.93 co_pbe_v1.2.uspp.F.UPF
Ge 72.64 Ge.pbe-dn-rrkjus_psl.1.0.0.UPF
O 15.99 O.pbe-n-rrkjus_psl.1.0.0.UPF
Zn 65.40 Zn.pbe-dnl-rrkjus_psl.1.0.0.UPF

CELL_PARAMETERS {angstrom}
5.75846000 0.00000000 0.00000000
0.00000000 5.75846000 0.00000000
0.00000000 0.00000000 24.31880000

ATOMIC_POSITIONS {angstrom}
Zn 0.00000000 0.00000000 -2.159509440000001 0 0 0
Zn 2.87923000 2.87923000 -2.159509440000001 0 0 0
Zn 2.87180159 0.00742841 0.77674247
Zn 0.00742841 2.87180159 0.77674247
Co 1.43961500 1.43961500 -0.7198364799999979 0 0 0
Co 4.31890258 4.31878742 2.15659118
Co 4.31884500 1.43961500 -0.7198364799999979 0 0 0
Co 1.43955742 4.31878742 2.18139636
Co 4.31884500 4.31884500 -0.7198364799999979 0 0 0
Co 1.43961500 1.43961500 2.21130848
Co 1.43961500 4.31884500 -0.7198364799999979 0 0 0
Co 4.31890258 1.43967258 2.18139636
Ge 0.00886803 0.00892561 0.77674247
Ge 2.87923000 0.00000000 -2.159509440000001 0 0 0
Ge 0.00000000 2.87923000 -2.159509440000001 0 0 0
Ge 2.87036197 2.87030439 0.77674247
C 1.43961500 1.43961500 3.95934383
O 1.43961500 1.43961500 5.11862102
