&CONTROL
calculation = 'relax'
prefix = 'scf'
pseudo_dir = '/vol0004/mdt0/data/hp150275/u10028/POT_HYBRID_KKJUS_GBRV'
outdir = './data'
tprnfor = .true.
nstep = 50
disk_io = 'non'
/
&SYSTEM
ibrav = 0
ecutwfc = 50.0
ecutrho = 400
occupations = 'smearing'
smearing = 'mp'
degauss = 0.01
assume_isolated = 'esm'
esm_bc = 'bc1'
input_dft = 'BEEF-VDW'
nosym = .true.
nspin = 2
ntyp = 4
nat = 33
starting_magnetization(1) = 0.0
starting_magnetization(2) = 0.0
starting_magnetization(3) = 0.0
starting_magnetization(4) = 0.001
/
&ELECTRONS
electron_maxstep = 300
mixing_beta = 0.1
conv_thr = 1e-06
/
&IONS
ion_dynamics = 'bfgs'
upscale = 1.0
/
&CELL
/

K_POINTS {automatic}
9 6 2 0  0  0

ATOMIC_SPECIES
C 12.01 C.pbe-n-rrkjus_psl.1.0.0.UPF
In 114.8 In.pbe-dn-rrkjus_psl.1.0.0.UPF
Mg 24.30 Mg.pbe-spnl-rrkjus_psl.1.0.0.UPF
Ni 58.69 ni_pbe_v1.4.uspp.F.UPF

CELL_PARAMETERS {angstrom}
6.23499000 0.00000000 0.00000000
0.00000000 8.81761000 0.00000000
0.00000000 0.00000000 26.61320000

ATOMIC_POSITIONS {angstrom}
Mg 0.00000000 0.00000000 -3.306690100000001 0 0 0
Mg 3.11749500 2.20440250 -1.1023187399999976 0 0 0
Mg 3.11749500 6.61320750 -1.1023187399999976 0 0 0
Mg 0.00000000 4.40880500 -3.306690100000001 0 0 0
Mg 0.00000000 4.40880500 1.00065632
Mg 3.11749500 6.50422184 3.44774006
Mg 3.11749500 2.31382904 3.44800619
Mg 0.00000000 0.00000000 1.17310986
In 0.00000000 6.61320750 -1.1023187399999976 0 0 0
In 3.11749500 0.00000000 -3.306690100000001 0 0 0
In 0.00000000 2.20440250 -1.1023187399999976 0 0 0
In 3.11749500 4.40880500 -3.306690100000001 0 0 0
In 0.00000000 2.30492325 3.53396683
In 3.11749500 4.40845230 1.06426187
In 0.00000000 6.51259857 3.53396683
In 3.11749500 0.00017635 1.04323744
Ni 1.55874750 0.00000000 -1.1023187399999976 0 0 0
Ni 4.67624250 4.40880500 -1.1023187399999976 0 0 0
Ni 4.67624250 0.00000000 -1.1023187399999976 0 0 0
Ni 1.55874750 4.40880500 -1.1023187399999976 0 0 0
Ni 4.67624250 6.61320750 -3.306690100000001 0 0 0
Ni 1.55874750 2.20440250 -3.306690100000001 0 0 0
Ni 1.55874750 6.61320750 -3.306690100000001 0 0 0
Ni 4.67624250 2.20440250 -3.306690100000001 0 0 0
Ni 1.46553440 4.40862865 3.07914724
Ni 4.48489066 0.00035270 3.25080238
Ni 4.76945560 4.40862865 3.07914724
Ni 1.75009934 0.00035270 3.25080238
Ni 4.68939833 2.22027420 1.14410147
Ni 1.54577872 6.59724763 1.14356920
Ni 1.54552932 2.22027420 1.14410147
Ni 4.68921128 6.59724763 1.14356920
C 0.00000000 0.00000000 3.61540322
