&CONTROL
calculation = 'relax'
prefix = 'scf'
pseudo_dir = '/vol0004/mdt0/data/hp150275/u10028/POT_KKJUS'
outdir = './data'
tprnfor = .true.
nstep = 50
disk_io = 'non'
/
&SYSTEM
ibrav = 0
ecutwfc = 50.0
ecutrho = 400
occupations = 'smearing'
smearing = 'mp'
degauss = 0.01
assume_isolated = 'esm'
esm_bc = 'bc1'
input_dft = 'BEEF-VDW'
nosym = .true.
nspin = 1
ntyp = 4
nat = 17
/
&ELECTRONS
electron_maxstep = 200
mixing_beta = 0.1
conv_thr = 1e-06
/
&IONS
ion_dynamics = 'bfgs'
upscale = 1.0
/
&CELL
/

K_POINTS {automatic}
10 10 2 0  0  0

ATOMIC_SPECIES
C 12.01 C.pbe-n-rrkjus_psl.1.0.0.UPF
Cu 63.54 Cu.pbe-dn-rrkjus_psl.1.0.0.UPF
Li 6.941 Li.pbe-sl-rrkjus_psl.1.0.0.UPF
Sb 121.7 Sb.pbe-n-rrkjus_psl.1.0.0.UPF

CELL_PARAMETERS {angstrom}
6.37457000 0.00000000 0.00000000
0.00000000 6.37457000 0.00000000
0.00000000 0.00000000 24.78090000

ATOMIC_POSITIONS {angstrom}
Li 0.00000000 0.00000000 -0.7967059299999981 0 0 0
Li 3.29380406 0.10645532 3.13825318
Li 6.26805094 3.08076594 3.13850099
Li 3.18728500 3.18728500 -0.7967059299999981 0 0 0
Li 1.59364250 1.59364250 0.79001509
Li 1.59364250 4.78092750 -2.39036561 0 0 0
Li 4.78092750 4.78092750 0.79001509
Li 4.78092750 1.59364250 -2.39036561 0 0 0
Cu 6.13622483 0.23834517 2.54821995
Cu 3.42563017 2.94893983 2.54821995
Cu 3.18728500 0.00000000 -0.7967059299999981 0 0 0
Cu 0.00000000 3.18728500 -0.7967059299999981 0 0 0
Sb 1.59364250 1.59364250 -2.39036561 0 0 0
Sb 1.59364250 4.78092750 1.41251130
Sb 4.78092750 4.78092750 -2.39036561 0 0 0
Sb 4.78092750 1.59364250 0.63042610
C 4.78092750 1.59364250 2.94991834
