&CONTROL
calculation = 'relax'
prefix = 'scf'
pseudo_dir = '/vol0403/data/hp230205/u10028/POT_HYBRID_KKJUS_GBRV'
outdir = './data'
tprnfor = .true.
nstep = 50
disk_io = 'non'
/
&SYSTEM
ibrav = 0
ecutwfc = 50.0
ecutrho = 400
occupations = 'smearing'
smearing = 'mp'
degauss = 0.01
assume_isolated = 'esm'
esm_bc = 'bc1'
input_dft = 'BEEF-VDW'
nosym = .true.
nspin = 1
ntyp = 6
nat = 34
/
&ELECTRONS
electron_maxstep = 200
mixing_beta = 0.1
conv_thr = 1e-06
/
&IONS
ion_dynamics = 'bfgs'
upscale = 1.0
/
&CELL
/

K_POINTS {automatic}
7 7 2 0  0  0

ATOMIC_SPECIES
C 12.01 C.pbe-n-rrkjus_psl.1.0.0.UPF
Ge 72.64 Ge.pbe-dn-rrkjus_psl.1.0.0.UPF
In 114.8 In.pbe-dn-rrkjus_psl.1.0.0.UPF
Li 6.941 Li.pbe-sl-rrkjus_psl.1.0.0.UPF
O 15.99 O.pbe-n-rrkjus_psl.1.0.0.UPF
Y 88.90 Y.pbe-spn-rrkjus_psl.1.0.0.UPF


CELL_PARAMETERS {angstrom}
8.57642000 0.00000000 0.00000000
0.00000000 9.31878000 0.00000000
0.00000000 0.00000000 26.37020000

ATOMIC_POSITIONS {angstrom}
Li 2.05130814 2.50703138 3.58977533
Li 2.14410500 2.32969500 -1.0616642499999998 0 0 0
Li 2.05130814 6.81174862 3.58977533
Li 2.14410500 6.98908500 -1.0616642499999998 0 0 0
Li 6.52511186 2.50703138 3.58977533
Li 6.43231500 2.32969500 -1.0616642499999998 0 0 0
Li 6.52511186 6.81184180 3.58977533
Li 6.43231500 6.98908500 -1.0616642499999998 0 0 0
Y 2.15473976 0.00000000 1.11888759
Y 2.14410500 0.00000000 -3.18499276 0 0 0
Y 2.21837680 4.65939000 1.08381522
Y 2.14410500 4.65939000 -3.18499276 0 0 0
Y 6.42168024 0.00000000 1.11888759
Y 6.43231500 0.00000000 -3.18499276 0 0 0
Y 6.35812897 4.65939000 1.08381522
Y 6.43231500 4.65939000 -3.18499276 0 0 0
In 0.00000000 2.43518359 1.19720708
In 0.00000000 2.32969500 -3.18499276 0 0 0
In 0.00000000 6.88359641 1.19747078
In 0.00000000 6.98908500 -3.18499276 0 0 0
In 4.28821000 2.30136591 1.54898555
In 4.28821000 2.32969500 -3.18499276 0 0 0
In 4.28821000 7.01741409 1.54898555
In 4.28821000 6.98908500 -3.18499276 0 0 0
Ge 0.00000000 0.00000000 3.16864323
Ge 0.00000000 0.00000000 -1.0616642499999998 0 0 0
Ge 0.00000000 4.65939000 3.15176630
Ge 0.00000000 4.65939000 -1.0616642499999998 0 0 0
Ge 4.28821000 0.00000000 3.31236082
Ge 4.28821000 0.00000000 -1.0616642499999998 0 0 0
Ge 4.28821000 4.65939000 3.32818294
Ge 4.28821000 4.65939000 -1.0616642499999998 0 0 0
C 0.00000000 0.00000000 5.04699258
O 0.00000000 0.00000000 6.21967537
