&CONTROL
calculation = 'relax'
prefix = 'scf'
pseudo_dir = '/vol0004/mdt0/data/hp150275/u10028/POT_KKJUS'
outdir = './data'
tprnfor = .true.
nstep = 50
disk_io = 'non'
/
&SYSTEM
ibrav = 0
ecutwfc = 50.0
ecutrho = 400
occupations = 'smearing'
smearing = 'mp'
degauss = 0.01
assume_isolated = 'esm'
esm_bc = 'bc1'
input_dft = 'BEEF-VDW'
nosym = .true.
nspin = 1
ntyp = 3
nat = 33
/
&ELECTRONS
electron_maxstep = 200
mixing_beta = 0.1
conv_thr = 1e-06
/
&IONS
ion_dynamics = 'bfgs'
upscale = 1.0
/
&CELL
/

K_POINTS {automatic}
8 6 1 0 0 0

ATOMIC_SPECIES
Be 9.012 Be.pbe-n-rrkjus_psl.1.0.0.UPF
C 12.01 C.pbe-n-rrkjus_psl.1.0.0.UPF
Ni 58.69 Ni.pbe-spn-rrkjus_psl.1.0.0.UPF

CELL_PARAMETERS {angstrom}
5.23991000 0.00000000 0.00000000
0.00000000 7.41035000 0.00000000
0.00000000 0.00000000 25.55780000

ATOMIC_POSITIONS {angstrom}
Be 0.00000000 0.00000000 -2.7788995900000018 0 0 0
Be 0.00000000 1.85258750 -0.9262146700000002 0 0 0
Be 0.00000000 0.00000000 0.89375627
Be 0.00000000 1.75180674 3.04188936
Be 0.00000000 3.70517500 -2.7788995900000018 0 0 0
Be 0.00000000 5.55776250 -0.9262146700000002 0 0 0
Be 0.00000000 3.70517500 0.90551285
Be 0.00000000 5.65861736 3.04188936
Be 2.61995500 0.00000000 -2.7788995900000018 0 0 0
Be 2.61995500 1.85258750 -0.9262146700000002 0 0 0
Be 2.61995500 0.00000000 0.79331411
Be 2.61995500 1.96648458 2.81468051
Be 2.61995500 3.70517500 -2.7788995900000018 0 0 0
Be 2.61995500 5.55776250 -0.9262146700000002 0 0 0
Be 2.61995500 3.70517500 0.96250675
Be 2.61990260 5.44386542 2.81468051
Ni 1.30997750 1.85258750 -2.7788995900000018 0 0 0
Ni 1.30997750 0.00000000 -0.9262146700000002 0 0 0
Ni 1.30133165 1.82983773 0.95151689
Ni 1.25480125 3.70517500 2.72650610
Ni 1.30997750 5.55776250 -2.7788995900000018 0 0 0
Ni 1.30997750 3.70517500 -0.9262146700000002 0 0 0
Ni 1.30138405 5.58051227 0.95177247
Ni 1.43929848 0.00007410 2.71653856
Ni 3.92993250 1.85258750 -2.7788995900000018 0 0 0
Ni 3.92993250 0.00000000 -0.9262146700000002 0 0 0
Ni 3.93847355 1.82976362 0.95151689
Ni 3.98516115 3.70517500 2.72650610
Ni 3.92993250 5.55776250 -2.7788995900000018 0 0 0
Ni 3.92993250 3.70517500 -0.9262146700000002 0 0 0
Ni 3.93852595 5.58051227 0.95151689
Ni 3.80061152 0.00000000 2.71653856
C 0.00000000 0.00000000 3.72147126
