&CONTROL
calculation = 'relax'
prefix = 'scf'
pseudo_dir = '/vol0004/mdt0/data/hp150275/u10028/POT_KKJUS'
outdir = './data'
tprnfor = .true.
nstep = 50
disk_io = 'non'
/
&SYSTEM
ibrav = 0
ecutwfc = 50.0
ecutrho = 400
occupations = 'smearing'
smearing = 'mp'
degauss = 0.01
assume_isolated = 'esm'
esm_bc = 'bc1'
input_dft = 'BEEF-VDW'
nosym = .true.
nspin = 1
ntyp = 4
nat = 34
/
&ELECTRONS
electron_maxstep = 200
mixing_beta = 0.1
conv_thr = 1e-06
/
&IONS
ion_dynamics = 'bfgs'
upscale = 1.0
/
&CELL
/

K_POINTS {automatic}
8 6 2 0  0  0

ATOMIC_SPECIES
As 74.92 As.pbe-n-rrkjus_psl.1.0.0.UPF
C 12.01 C.pbe-n-rrkjus_psl.1.0.0.UPF
Na 22.98 Na.pbe-spnl-rrkjus_psl.1.0.0.UPF
O 15.99 O.pbe-n-rrkjus_psl.1.0.0.UPF

CELL_PARAMETERS {angstrom}
7.20118000 0.00000000 0.00000000
0.00000000 10.18400000 0.00000000
0.00000000 0.00000000 27.63800000

ATOMIC_POSITIONS {angstrom}
Na 1.80029500 0.00000000 -1.2730062800000006 0 0 0
Na 5.40088500 5.09200000 -1.2730062800000006 0 0 0
Na 5.40088500 0.00000000 -1.2730062800000006 0 0 0
Na 1.80029500 5.09200000 -1.2730062800000006 0 0 0
Na 5.40088500 7.63800000 -3.819018840000002 0 0 0
Na 1.80029500 2.54600000 -3.819018840000002 0 0 0
Na 1.80029500 7.63800000 -3.819018840000002 0 0 0
Na 5.40088500 2.54600000 -3.819018840000002 0 0 0
Na 0.00000000 7.63800000 -1.2730062800000006 0 0 0
Na 3.60059000 0.00000000 -3.819018840000002 0 0 0
Na 0.00000000 2.54600000 -1.2730062800000006 0 0 0
Na 3.60059000 5.09200000 -3.819018840000002 0 0 0
Na 1.92134684 5.26675744 4.21037292
Na 5.27796086 10.00751128 4.21286034
Na 5.27976115 5.26675744 4.21037292
Na 1.92321914 10.00751128 4.21286034
Na 5.47390497 2.54610184 1.22491616
Na 1.67967524 7.63667608 1.29760410
Na 1.72720302 2.54610184 1.22491616
Na 5.52150477 7.63667608 1.29760410
Na 0.00000000 2.54335216 3.97849010
Na 3.60059000 5.36808824 1.31031758
Na 0.00000000 7.63922208 3.82924490
Na 3.60059000 9.90414368 1.30948844
As 0.00000000 0.00000000 -3.819018840000002 0 0 0
As 3.60059000 2.54600000 -1.2730062800000006 0 0 0
As 3.60059000 7.63800000 -1.2730062800000006 0 0 0
As 0.00000000 5.09200000 -3.819018840000002 0 0 0
As 0.00000000 5.04556096 1.60604418
As 3.60059000 7.63718528 3.59294000
As 3.60059000 2.54681472 3.89585248
As 0.00000000 0.04480960 1.60797884
C 3.60059000 2.56229440 5.69480990
O 3.60059000 2.57044160 6.86914852
