&CONTROL
calculation = 'relax'
prefix = 'scf'
pseudo_dir = '/vol0004/mdt0/data/hp150275/u10028/POT_HYBRID_KKJUS_GBRV'
outdir = './data'
tprnfor = .true.
nstep = 50
disk_io = 'non'
/
&SYSTEM
ibrav = 0
ecutwfc = 50.0
ecutrho = 400
occupations = 'smearing'
smearing = 'mp'
degauss = 0.01
assume_isolated = 'esm'
esm_bc = 'bc1'
input_dft = 'BEEF-VDW'
nosym = .true.
nspin = 2
ntyp = 2
nat = 32
starting_magnetization(1) = 0.1
starting_magnetization(2) = 0.0
/
&ELECTRONS
electron_maxstep = 200
mixing_beta = 0.1
conv_thr = 1e-06
/
&IONS
ion_dynamics = 'bfgs'
upscale = 1.0
/
&CELL
/

K_POINTS {automatic}
7 7 2 0  0  0

ATOMIC_SPECIES
Mn 54.93 mn_pbe_v1.5.uspp.F.UPF
Zn 65.40 Zn.pbe-dnl-rrkjus_psl.1.0.0.UPF

CELL_PARAMETERS {angstrom}
7.64553000 0.00000000 0.00000000
-0.00000000 7.64553000 0.00000000
0.00000000 0.00000000 25.73410000

ATOMIC_POSITIONS {angstrom}
Mn 0.00000000 0.00000000 -2.867036080000002 0 0 0
Mn 0.00000000 0.00000000 0.95576447
Mn 0.00000000 3.82276500 -2.867036080000002 0 0 0
Mn 0.00000000 3.82276500 0.95576447
Mn 3.82276500 0.00000000 -2.867036080000002 0 0 0
Mn 3.82276500 -0.00000000 0.95576447
Mn 3.82276500 3.82276500 -2.867036080000002 0 0 0
Mn 3.82276500 3.82276500 0.95576447
Zn 0.00000000 1.91138250 -0.9557644700000019 0 0 0
Zn 1.91138250 0.00000000 -0.9557644700000019 0 0 0
Zn 1.91138250 1.91138250 -2.867036080000002 0 0 0
Zn 0.00000000 1.91138250 2.86703608
Zn 1.91138250 -0.00000000 2.86703608
Zn 1.91138250 1.91138250 0.95576447
Zn 0.00000000 5.73414750 -0.9557644700000019 0 0 0
Zn 1.91138250 3.82276500 -0.9557644700000019 0 0 0
Zn 1.91138250 5.73414750 -2.867036080000002 0 0 0
Zn 0.00000000 5.73414750 2.86703608
Zn 1.91138250 3.82276500 2.86703608
Zn 1.91138250 5.73414750 0.95576447
Zn 3.82276500 1.91138250 -0.9557644700000019 0 0 0
Zn 5.73414750 0.00000000 -0.9557644700000019 0 0 0
Zn 5.73414750 1.91138250 -2.867036080000002 0 0 0
Zn 3.82276500 1.91138250 2.86703608
Zn 5.73414750 -0.00000000 2.86703608
Zn 5.73414750 1.91138250 0.95576447
Zn 3.82276500 5.73414750 -0.9557644700000019 0 0 0
Zn 5.73414750 3.82276500 -0.9557644700000019 0 0 0
Zn 5.73414750 5.73414750 -2.867036080000002 0 0 0
Zn 3.82276500 5.73414750 2.86703608
Zn 5.73414750 3.82276500 2.86703608
Zn 5.73414750 5.73414750 0.95576447
