&CONTROL
calculation = 'relax'
prefix = 'scf'
pseudo_dir = '/vol0403/data/hp230205/u10028/POT_HYBRID_KKJUS_GBRV'
outdir = './data'
tprnfor = .true.
nstep = 50
disk_io = 'non'
/
&SYSTEM
ibrav = 0
ecutwfc = 50.0
ecutrho = 400
occupations = 'smearing'
smearing = 'mp'
degauss = 0.01
assume_isolated = 'esm'
esm_bc = 'bc1'
input_dft = 'BEEF-VDW'
nosym = .true.
nspin = 2
ntyp = 5
nat = 33
starting_magnetization(1) = 0.0
starting_magnetization(2) = 0.0
starting_magnetization(3) = 0.1
starting_magnetization(4) = 0.0
starting_magnetization(5) = 0.0
/
&ELECTRONS
electron_maxstep = 400
mixing_beta = 0.05
conv_thr = 1e-06
/
&IONS
ion_dynamics = 'bfgs'
upscale = 1.0
/
&CELL
/

K_POINTS {automatic}
7 7 2 0  0  0

ATOMIC_SPECIES
Al 26.98 Al.pbe-nl-rrkjus_psl.1.0.0.UPF
C 12.01 C.pbe-n-rrkjus_psl.1.0.0.UPF
Fe 55.84 fe_pbe_v1.5.uspp.F.UPF
Li 6.941 Li.pbe-sl-rrkjus_psl.1.0.0.UPF
Pd 106.4 Pd.pbe-n-rrkjus_psl.1.0.0.UPF


CELL_PARAMETERS {angstrom}
8.60712000 0.00000000 0.00000000
0.00000000 8.84236000 0.00000000
0.00000000 0.00000000 24.25770000

ATOMIC_POSITIONS {angstrom}
Li 2.15178000 2.21059000 22.12884425
Li 2.15789106 2.10306690 0.71802792
Li 2.15178000 6.63177000 22.12884425
Li 2.15789106 6.73929310 0.71802792
Li 6.45534000 2.21059000 22.12884425
Li 6.44931502 2.10306690 0.71778534
Li 6.45534000 6.63177000 22.12884425
Li 6.44931502 6.73929310 0.71778534
Al 0.00000000 0.00000000 22.12884425
Al 0.00000000 0.00000000 0.47690638
Al 0.00000000 4.42118000 22.12884425
Al 8.60703393 4.42118000 0.64404194
Al 4.30356000 0.00000000 22.12884425
Al 4.30347393 0.00000000 0.82209345
Al 4.30356000 4.42118000 22.12884425
Al 4.30364607 4.42118000 0.67897302
Fe 2.15178000 0.00000000 23.54816227
Fe 1.74552394 0.00000000 2.08591962
Fe 2.15178000 4.42118000 23.54816227
Fe 2.12552828 4.42118000 1.55564630
Fe 6.45534000 0.00000000 23.54816227
Fe 6.86142392 0.00000000 2.08567705
Fe 6.45534000 4.42118000 23.54816227
Fe 6.48167779 4.42118000 1.55588888
Pd 0.00000000 2.21059000 23.54816227
Pd 8.60703393 2.30440744 2.15408376
Pd 0.00000000 6.63177000 23.54816227
Pd 8.60703393 6.53795256 2.15384118
Pd 4.30356000 2.21059000 23.54816227
Pd 4.30373214 2.23755920 2.13564791
Pd 4.30356000 6.63177000 23.54816227
Pd 4.30373214 6.60480080 2.13564791
C 8.60703393 0.00000000 2.49393414
