&CONTROL
calculation = 'relax'
prefix = 'scf'
pseudo_dir = '/vol0004/mdt0/data/hp150275/u10028/POT_KKJUS'
outdir = './data'
tprnfor = .true.
nstep = 50
disk_io = 'non'
/
&SYSTEM
ibrav = 0
ecutwfc = 50.0
ecutrho = 400
occupations = 'smearing'
smearing = 'mp'
degauss = 0.01
assume_isolated = 'esm'
esm_bc = 'bc1'
input_dft = 'BEEF-VDW'
nosym = .true.
nspin = 1
ntyp = 4
nat = 33
/
&ELECTRONS
electron_maxstep = 200
mixing_beta = 0.1
conv_thr = 1e-06
/
&IONS
ion_dynamics = 'bfgs'
upscale = 1.0
/
&CELL
/

K_POINTS {automatic}
8 6 1 0 0 0

ATOMIC_SPECIES
Au 196.9 Au.pbe-n-rrkjus_psl.1.0.0.UPF
C 12.01 C.pbe-n-rrkjus_psl.1.0.0.UPF
In 114.8 In.pbe-dn-rrkjus_psl.1.0.0.UPF
Sc 44.95 Sc.pbe-spn-rrkjus_psl.1.0.0.UPF

CELL_PARAMETERS {angstrom}
6.85473000 0.00000000 0.00000000
0.00000000 9.69405000 0.00000000
0.00000000 0.00000000 27.27050000

ATOMIC_POSITIONS {angstrom}
Sc 0.00000000 0.00000000 -3.63515765 0 0 0
Sc 3.42736500 2.42351250 -1.211628319999999 0 0 0
Sc 3.42736500 7.27053750 -1.211628319999999 0 0 0
Sc 0.00000000 4.84702500 -3.63515765 0 0 0
Sc 0.00000000 4.84702500 1.49687774
Sc 3.42736500 7.30184928 3.44208251
Sc 3.42736500 2.39220072 3.44208251
Sc 0.00000000 0.00000000 1.47942462
In 0.00000000 7.27053750 -1.211628319999999 0 0 0
In 3.42736500 0.00000000 -3.63515765 0 0 0
In 0.00000000 2.42351250 -1.211628319999999 0 0 0
In 3.42736500 4.84702500 -3.63515765 0 0 0
In 0.00000000 2.46442139 3.80750721
In 3.42736500 4.84702500 1.17535855
In 0.00000000 7.22972555 3.80750721
In 3.42736500 0.00000000 1.18517593
Au 1.71368250 0.00000000 -1.211628319999999 0 0 0
Au 5.14104750 4.84702500 -1.211628319999999 0 0 0
Au 5.14104750 0.00000000 -1.211628319999999 0 0 0
Au 1.71368250 4.84702500 -1.211628319999999 0 0 0
Au 5.14104750 7.27053750 -3.63515765 0 0 0
Au 1.71368250 2.42351250 -3.63515765 0 0 0
Au 1.71368250 7.27053750 -3.63515765 0 0 0
Au 5.14104750 2.42351250 -3.63515765 0 0 0
Au 1.89423609 4.84702500 3.82414221
Au 4.81332286 0.00000000 4.20020241
Au 4.96049391 4.84702500 3.82414221
Au 2.04140714 0.00000000 4.20020241
Au 5.19273216 2.45007420 1.20235634
Au 1.66199784 7.24397580 1.20235634
Au 1.66199784 2.45007420 1.20235634
Au 5.19273216 7.24397580 1.20235634
C 0.00000000 0.00000000 3.64088445
