&CONTROL
calculation = 'relax'
prefix = 'scf'
pseudo_dir = '/vol0004/mdt0/data/hp150275/u10028/POT_KKJUS'
outdir = './data'
tprnfor = .true.
nstep = 50
disk_io = 'non'
/
&SYSTEM
ibrav = 0
ecutwfc = 50.0
ecutrho = 400
occupations = 'smearing'
smearing = 'mp'
degauss = 0.01
assume_isolated = 'esm'
esm_bc = 'bc1'
input_dft = 'BEEF-VDW'
nosym = .true.
nspin = 1
ntyp = 5
nat = 18
/
&ELECTRONS
electron_maxstep = 200
mixing_beta = 0.1
conv_thr = 1e-06
/
&IONS
ion_dynamics = 'bfgs'
upscale = 1.0
/
&CELL
/

K_POINTS {automatic}
8 8 1 0 0 0

ATOMIC_SPECIES
C 12.01 C.pbe-n-rrkjus_psl.1.0.0.UPF
Ga 69.72 Ga.pbe-dnl-rrkjus_psl.1.0.0.UPF
Nb 92.90 Nb.pbe-spn-rrkjus_psl.1.0.0.UPF
Ni 58.69 Ni.pbe-spn-rrkjus_psl.1.0.0.UPF
O 15.99 O.pbe-n-rrkjus_psl.1.0.0.UPF

CELL_PARAMETERS {angstrom}
6.01786000 0.00000000 0.00000000
-0.00000000 6.01786000 0.00000000
0.00000000 0.00000000 24.51340000

ATOMIC_POSITIONS {angstrom}
Nb 0.00000000 0.00000000 2.25670360
Nb 3.00893000 3.00893000 2.25670360
Nb 3.00893000 0.00000000 -0.7523162499999998 0 0 0
Nb 0.00000000 3.00893000 -0.7523162499999998 0 0 0
Ga 0.00000000 0.00000000 -0.7523162499999998 0 0 0
Ga 3.00893000 -0.00000000 2.25670360
Ga 0.00000000 3.00893000 2.25670360
Ga 3.00893000 3.00893000 -0.7523162499999998 0 0 0
Ni 1.50446500 1.50446500 0.75231625
Ni 4.51339500 4.51339500 -2.2567036000000016 0 0 0
Ni 4.51339500 1.50446500 0.75231625
Ni 1.50446500 4.51339500 -2.2567036000000016 0 0 0
Ni 4.51339500 4.51339500 0.75231625
Ni 1.50446500 1.50446500 -2.2567036000000016 0 0 0
Ni 1.50446500 4.51339500 0.75231625
Ni 4.51339500 1.50446500 -2.2567036000000016 0 0 0
C 0.00000000 0.00000000 4.15673724
O 0.00000000 0.00000000 5.30666083
