&CONTROL
calculation = 'relax'
prefix = 'scf'
pseudo_dir = '/vol0004/mdt0/data/hp150275/u10028/POT_HYBRID_KKJUS_GBRV'
outdir = './data'
tprnfor = .true.
nstep = 50
disk_io = 'non'
/
&SYSTEM
ibrav = 0
ecutwfc = 50.0
ecutrho = 400
occupations = 'smearing'
smearing = 'mp'
degauss = 0.01
assume_isolated = 'esm'
esm_bc = 'bc1'
input_dft = 'BEEF-VDW'
nosym = .true.
nspin = 2
ntyp = 4
nat = 33
starting_magnetization(1) = 0.0
starting_magnetization(2) = 0.0
starting_magnetization(3) = 0.1
starting_magnetization(4) = 0.1
/
&ELECTRONS
electron_maxstep = 300
mixing_beta = 0.1
conv_thr = 1e-06
/
&IONS
ion_dynamics = 'bfgs'
upscale = 1.0
/
&CELL
/

K_POINTS {automatic}
8 6 1 0 0 0

ATOMIC_SPECIES
Al 26.98 Al.pbe-nl-rrkjus_psl.1.0.0.UPF
C 12.01 C.pbe-n-rrkjus_psl.1.0.0.UPF
Cr 51.99 cr_pbe_v1.5.uspp.F.UPF
Fe 55.84 fe_pbe_v1.5.uspp.F.UPF

CELL_PARAMETERS {angstrom}
6.50665000 0.00000000 0.00000000
0.00000000 9.20179000 0.00000000
0.00000000 0.00000000 26.90130000

ATOMIC_POSITIONS {angstrom}
Al 0.00000000 0.00000000 -3.4506297499999974 0 0 0
Al 3.25332500 2.30044750 -1.1502995899999995 0 0 0
Al 3.25332500 6.90134250 -1.1502995899999995 0 0 0
Al 0.00000000 4.60089500 -3.4506297499999974 0 0 0
Al 0.00000000 4.60089500 1.15029959
Al 3.25332500 6.90134250 3.45062975
Al 3.25332500 2.30044750 3.45062975
Al 0.00000000 0.00000000 1.15029959
Cr 0.00000000 6.90134250 -1.1502995899999995 0 0 0
Cr 3.25332500 0.00000000 -3.4506297499999974 0 0 0
Cr 0.00000000 2.30044750 -1.1502995899999995 0 0 0
Cr 3.25332500 4.60089500 -3.4506297499999974 0 0 0
Cr 0.00000000 2.30044750 3.45062975
Cr 3.25332500 4.60089500 1.15029959
Cr 0.00000000 6.90134250 3.45062975
Cr 3.25332500 0.00000000 1.15029959
Fe 1.62666250 0.00000000 -1.1502995899999995 0 0 0
Fe 4.87998750 4.60089500 -1.1502995899999995 0 0 0
Fe 4.87998750 0.00000000 -1.1502995899999995 0 0 0
Fe 1.62666250 4.60089500 -1.1502995899999995 0 0 0
Fe 4.87998750 6.90134250 -3.4506297499999974 0 0 0
Fe 1.62666250 2.30044750 -3.4506297499999974 0 0 0
Fe 1.62666250 6.90134250 -3.4506297499999974 0 0 0
Fe 4.87998750 2.30044750 -3.4506297499999974 0 0 0
Fe 1.62666250 4.60089500 3.45062975
Fe 4.87998750 0.00000000 3.45062975
Fe 4.87998750 4.60089500 3.45062975
Fe 1.62666250 0.00000000 3.45062975
Fe 4.87998750 2.30044750 1.15029959
Fe 1.62666250 6.90134250 1.15029959
Fe 1.62666250 2.30044750 1.15029959
Fe 4.87998750 6.90134250 1.15029959
C 1.62666250 2.30044750 4.25067441
