&CONTROL
calculation = 'relax'
prefix = 'scf'
pseudo_dir = '/vol0004/mdt0/data/hp150275/u10028/POT_KKJUS'
outdir = './data'
tprnfor = .true.
nstep = 50
disk_io = 'non'
/
&SYSTEM
ibrav = 0
ecutwfc = 50.0
ecutrho = 400
occupations = 'smearing'
smearing = 'mp'
degauss = 0.01
assume_isolated = 'esm'
esm_bc = 'bc1'
input_dft = 'BEEF-VDW'
nosym = .true.
nspin = 1
ntyp = 4
nat = 34
/
&ELECTRONS
electron_maxstep = 200
mixing_beta = 0.1
conv_thr = 1e-06
/
&IONS
ion_dynamics = 'bfgs'
upscale = 1.0
/
&CELL
/

K_POINTS {automatic}
8 6 2 0  0  0

ATOMIC_SPECIES
Ag 107.8 Ag.pbe-n-rrkjus_psl.1.0.0.UPF
C 12.01 C.pbe-n-rrkjus_psl.1.0.0.UPF
In 114.8 In.pbe-dn-rrkjus_psl.1.0.0.UPF
O 15.99 O.pbe-n-rrkjus_psl.1.0.0.UPF

CELL_PARAMETERS {angstrom}
7.14855000 0.00000000 0.00000000
0.00000000 10.10960000 0.00000000
0.00000000 0.00000000 27.58220000

ATOMIC_POSITIONS {angstrom}
In 1.78713750 2.52740000 -3.791173390000001 0 0 0
In 1.78713750 0.00000000 -1.2638163999999996 0 0 0
In 1.78713750 2.33450883 1.23954407
In 1.78713750 5.05480000 4.26862127
In 1.78713750 7.58220000 -3.791173390000001 0 0 0
In 1.78713750 5.05480000 -1.2638163999999996 0 0 0
In 1.78720899 7.77509117 1.23954407
In 1.78713750 0.00000000 3.88633198
In 5.36141250 2.52740000 -3.791173390000001 0 0 0
In 5.36141250 0.00000000 -1.2638163999999996 0 0 0
In 5.36141250 2.73424242 1.20616961
In 5.36141250 5.05480000 3.95694241
In 5.36141250 7.58220000 -3.791173390000001 0 0 0
In 5.36141250 5.05480000 -1.2638163999999996 0 0 0
In 5.36134101 7.37535758 1.20616961
In 5.36141250 0.00000000 4.24103907
Ag 0.00000000 0.00000000 -3.791173390000001 0 0 0
Ag 0.00000000 2.52740000 -1.2638163999999996 0 0 0
Ag 0.27650591 5.05480000 1.44613475
Ag 7.12045620 2.52345726 3.61437149
Ag 0.00000000 5.05480000 -3.791173390000001 0 0 0
Ag 0.00000000 7.58220000 -1.2638163999999996 0 0 0
Ag 6.87197260 0.00000000 1.39621096
Ag 7.12031323 7.58614274 3.61437149
Ag 3.57427500 0.00000000 -3.791173390000001 0 0 0
Ag 3.57427500 2.52740000 -1.2638163999999996 0 0 0
Ag 3.29776909 5.05480000 1.44613475
Ag 3.60236880 2.52345726 3.61437149
Ag 3.57427500 5.05480000 -3.791173390000001 0 0 0
Ag 3.57427500 7.58220000 -1.2638163999999996 0 0 0
Ag 3.85085240 0.00000000 1.39648679
Ag 3.60251177 7.58614274 3.61437149
C 1.78713750 0.00000000 7.73680710
O 1.78713750 0.00010110 8.87153881
