&CONTROL
calculation = 'relax'
prefix = 'scf'
pseudo_dir = '/vol0004/mdt0/data/hp150275/u10028/POT_HYBRID_KKJUS_GBRV'
outdir = './data'
tprnfor = .true.
nstep = 50
disk_io = 'non'
/
&SYSTEM
ibrav = 0
ecutwfc = 50.0
ecutrho = 400
occupations = 'smearing'
smearing = 'mp'
degauss = 0.01
assume_isolated = 'esm'
esm_bc = 'bc1'
input_dft = 'BEEF-VDW'
nosym = .true.
nspin = 2
ntyp = 4
nat = 17
starting_magnetization(1) = 0.1
starting_magnetization(2) = 0.1
starting_magnetization(3) = 0.1
starting_magnetization(4) = 0.1
/
&ELECTRONS
electron_maxstep = 200
mixing_beta = 0.1
conv_thr = 1e-06
/
&IONS
ion_dynamics = 'bfgs'
upscale = 1.0
/
&CELL
/

K_POINTS {automatic}
8 8 1 0 0 0

ATOMIC_SPECIES
C 12.01 C.pbe-n-rrkjus_psl.1.0.0.UPF
Ga 69.72 Ga.pbe-dnl-rrkjus_psl.1.0.0.UPF
Ni 58.69 ni_pbe_v1.4.uspp.F.UPF
Sc 44.95 Sc.pbe-spn-rrkjus_psl.1.0.0.UPF

CELL_PARAMETERS {angstrom}
6.06833000 0.00000000 0.00000000
-0.00000000 6.06833000 0.00000000
0.00000000 0.00000000 24.55120000

ATOMIC_POSITIONS {angstrom}
Sc 0.00000000 0.00000000 2.27565073
Sc 3.03416500 3.03416500 2.27565073
Sc 3.03416500 0.00000000 -0.7586320800000017 0 0 0
Sc 0.00000000 3.03416500 -0.7586320800000017 0 0 0
Ga 0.00000000 0.00000000 -0.7586320800000017 0 0 0
Ga 3.03416500 -0.00000000 2.27565073
Ga 0.00000000 3.03416500 2.27565073
Ga 3.03416500 3.03416500 -0.7586320800000017 0 0 0
Ni 1.51708250 1.51708250 0.75863208
Ni 4.55124750 4.55124750 -2.2756507300000024 0 0 0
Ni 4.55124750 1.51708250 0.75863208
Ni 1.51708250 4.55124750 -2.2756507300000024 0 0 0
Ni 4.55124750 4.55124750 0.75863208
Ni 1.51708250 1.51708250 -2.2756507300000024 0 0 0
Ni 1.51708250 4.55124750 0.75863208
Ni 4.55124750 1.51708250 -2.2756507300000024 0 0 0
C 1.51708250 1.51708250 3.07552882
