&CONTROL
calculation = 'relax'
prefix = 'scf'
pseudo_dir = '/vol0004/mdt0/data/hp150275/u10028/POT_KKJUS'
outdir = './data'
tprnfor = .true.
nstep = 50
disk_io = 'non'
/
&SYSTEM
ibrav = 0
ecutwfc = 50.0
ecutrho = 400
occupations = 'smearing'
smearing = 'mp'
degauss = 0.01
assume_isolated = 'esm'
esm_bc = 'bc1'
input_dft = 'BEEF-VDW'
nosym = .true.
nspin = 1
ntyp = 4
nat = 17
/
&ELECTRONS
electron_maxstep = 200
mixing_beta = 0.1
conv_thr = 1e-06
/
&IONS
ion_dynamics = 'bfgs'
upscale = 1.0
/
&CELL
/

K_POINTS {automatic}
8 8 1 0 0 0

ATOMIC_SPECIES
C 12.01 C.pbe-n-rrkjus_psl.1.0.0.UPF
Pd 106.4 Pd.pbe-n-rrkjus_psl.1.0.0.UPF
Sc 44.95 Sc.pbe-spn-rrkjus_psl.1.0.0.UPF
Sn 118.7 Sn.pbe-dn-rrkjus_psl.1.0.0.UPF

CELL_PARAMETERS {angstrom}
6.62889000 0.00000000 0.00000000
-0.00000000 6.62889000 0.00000000
0.00000000 0.00000000 24.97170000

ATOMIC_POSITIONS {angstrom}
Sc 0.00000000 0.00000000 2.48593274
Sc 3.31444500 3.31444500 2.48593274
Sc 3.31444500 0.00000000 -0.8285610099999978 0 0 0
Sc 0.00000000 3.31444500 -0.8285610099999978 0 0 0
Sn 0.00000000 0.00000000 -0.8285610099999978 0 0 0
Sn 3.31444500 -0.00000000 2.48593274
Sn 0.00000000 3.31444500 2.48593274
Sn 3.31444500 3.31444500 -0.8285610099999978 0 0 0
Pd 1.65722250 1.65722250 0.82856101
Pd 4.97166750 4.97166750 -2.485932739999999 0 0 0
Pd 4.97166750 1.65722250 0.82856101
Pd 1.65722250 4.97166750 -2.485932739999999 0 0 0
Pd 4.97166750 4.97166750 0.82856101
Pd 1.65722250 1.65722250 -2.485932739999999 0 0 0
Pd 1.65722250 4.97166750 0.82856101
Pd 4.97166750 1.65722250 -2.485932739999999 0 0 0
C 1.65722250 1.65722250 3.28577629
