&CONTROL
calculation = 'relax'
prefix = 'scf'
pseudo_dir = '/vol0403/data/hp230205/u10028/POT_HYBRID_KKJUS_GBRV'
outdir = './data'
tprnfor = .true.
nstep = 50
disk_io = 'non'
/
&SYSTEM
ibrav = 0
ecutwfc = 50.0
ecutrho = 400
occupations = 'smearing'
smearing = 'mp'
degauss = 0.01
assume_isolated = 'esm'
esm_bc = 'bc1'
input_dft = 'BEEF-VDW'
nosym = .true.
nspin = 1
ntyp = 5
nat = 17
/
&ELECTRONS
electron_maxstep = 200
mixing_beta = 0.1
conv_thr = 1e-06
/
&IONS
ion_dynamics = 'bfgs'
upscale = 1.0
/
&CELL
/

K_POINTS {automatic}
12 7 2 0  0  0

ATOMIC_SPECIES
C 12.01 C.pbe-n-rrkjus_psl.1.0.0.UPF
Ge 72.64 Ge.pbe-dn-rrkjus_psl.1.0.0.UPF
Li 6.941 Li.pbe-sl-rrkjus_psl.1.0.0.UPF
Pb 207.2 Pb.pbe-dn-rrkjus_psl.1.0.0.UPF
Y 88.90 Y.pbe-spn-rrkjus_psl.1.0.0.UPF


CELL_PARAMETERS {angstrom}
6.08443000 0.00000000 0.00000000
0.00000000 9.86128000 0.00000000
0.00000000 0.00000000 24.56300000

ATOMIC_POSITIONS {angstrom}
Li 1.50328012 2.46532000 -0.7604704799999986 0 0 0
Li 4.68878345 1.44595949 3.33835733
Li 1.50328012 7.39596000 -0.7604704799999986 0 0 0
Li 4.72833224 8.40112027 3.33737481
Y 3.04221500 0.00000000 -2.2814114399999994 0 0 0
Y 5.72362330 9.85753271 0.77373450
Y 3.04221500 4.93064000 -2.2814114399999994 0 0 0
Y 6.03703229 4.93389422 0.67843006
Ge 0.00000000 0.00000000 -2.2814114399999994 0 0 0
Ge 2.67398530 9.85378543 0.54554423
Ge 0.00000000 4.93064000 -2.2814114399999994 0 0 0
Ge 2.96281319 4.93892348 0.81819353
Pb 4.54549512 2.46532000 -0.7604704799999986 0 0 0
Pb 1.88751187 1.85727348 2.64003124
Pb 4.54549512 7.39596000 -0.7604704799999986 0 0 0
Pb 1.90588685 7.96801285 2.63708368
C 3.68813809 9.83544345 2.27527069
