&CONTROL
calculation = 'relax'
prefix = 'scf'
pseudo_dir = '/vol0004/mdt0/data/hp150275/u10028/C2_project/TEST_MAG'
outdir = './data'
tprnfor = .true.
disk_io = 'non'
/
&SYSTEM
ibrav = 0
ecutwfc = 50.0
ecutrho = 400
occupations = 'smearing'
smearing = 'mp'
degauss = 0.01
starting_magnetization(1)=0.1
input_dft = 'BEEF-VDW'
nspin = 2
ntyp = 1
nat = 32
/
&ELECTRONS
electron_maxstep = 200
mixing_beta = 0.1
conv_thr = 1e-06
/
&IONS
ion_dynamics = 'bfgs'
upscale = 1.0
/
&CELL
/

K_POINTS {automatic}
6 6 1 0 0 0

ATOMIC_SPECIES
Co 58.93 co_pbe_v1.2.uspp.F.UPF           

CELL_PARAMETERS {angstrom}
7.08825000 0.00000000 0.00000000
-0.00000000 7.08825000 0.00000000
0.00000000 0.00000000 25.31620000

ATOMIC_POSITIONS {angstrom}
Co 0.00000000 0.00000000 -2.6582009999999983 0 0 0
Co 1.77206250 1.77206250 -2.6582009999999983 0 0 0
Co 1.77206250 0.00000000 -0.886066999999997 0 0 0
Co 0.00000000 1.77206250 -0.886066999999997 0 0 0
Co 0.00000000 0.00000000 0.88606700
Co 1.77206250 1.77206250 0.88606700
Co 1.77206250 -0.00000000 2.65820100
Co 0.00000000 1.77206250 2.65820100
Co 0.00000000 3.54412500 -2.6582009999999983 0 0 0
Co 1.77206250 5.31618750 -2.6582009999999983 0 0 0
Co 1.77206250 3.54412500 -0.886066999999997 0 0 0
Co 0.00000000 5.31618750 -0.886066999999997 0 0 0
Co 0.00000000 3.54412500 0.88606700
Co 1.77206250 5.31618750 0.88606700
Co 1.77206250 3.54412500 2.65820100
Co 0.00000000 5.31618750 2.65820100
Co 3.54412500 0.00000000 -2.6582009999999983 0 0 0
Co 5.31618750 1.77206250 -2.6582009999999983 0 0 0
Co 5.31618750 0.00000000 -0.886066999999997 0 0 0
Co 3.54412500 1.77206250 -0.886066999999997 0 0 0
Co 3.54412500 -0.00000000 0.88606700
Co 5.31618750 1.77206250 0.88606700
Co 5.31618750 -0.00000000 2.65820100
Co 3.54412500 1.77206250 2.65820100
Co 3.54412500 3.54412500 -2.6582009999999983 0 0 0
Co 5.31618750 5.31618750 -2.6582009999999983 0 0 0
Co 5.31618750 3.54412500 -0.886066999999997 0 0 0
Co 3.54412500 5.31618750 -0.886066999999997 0 0 0
Co 3.54412500 3.54412500 0.88606700
Co 5.31618750 5.31618750 0.88606700
Co 5.31618750 3.54412500 2.65820100
Co 3.54412500 5.31618750 2.65820100
