&CONTROL
calculation = 'relax'
prefix = 'scf'
pseudo_dir = '/vol0004/mdt0/data/hp150275/u10028/POT_KKJUS'
outdir = './data'
tprnfor = .true.
nstep = 50
disk_io = 'non'
/
&SYSTEM
ibrav = 0
ecutwfc = 50.0
ecutrho = 400
occupations = 'smearing'
smearing = 'mp'
degauss = 0.01
assume_isolated = 'esm'
esm_bc = 'bc1'
input_dft = 'BEEF-VDW'
nosym = .true.
nspin = 1
ntyp = 5
nat = 34
/
&ELECTRONS
electron_maxstep = 200
mixing_beta = 0.1
conv_thr = 1e-06
/
&IONS
ion_dynamics = 'bfgs'
upscale = 1.0
/
&CELL
/

K_POINTS {automatic}
9 6 2 0  0  0

ATOMIC_SPECIES
Au 196.9 Au.pbe-n-rrkjus_psl.1.0.0.UPF
Bi 208.9 Bi.pbe-dn-rrkjus_psl.1.0.0.UPF
C 12.01 C.pbe-n-rrkjus_psl.1.0.0.UPF
Li 6.941 Li.pbe-sl-rrkjus_psl.1.0.0.UPF
O 15.99 O.pbe-n-rrkjus_psl.1.0.0.UPF

CELL_PARAMETERS {angstrom}
6.87958000 0.00000000 0.00000000
0.00000000 9.72919000 0.00000000
0.00000000 0.00000000 27.29690000

ATOMIC_POSITIONS {angstrom}
Li 0.00000000 7.29689250 -1.21607689 0 0 0
Li 3.43979000 0.00000000 -3.648503650000002 0 0 0
Li 0.00000000 2.43229750 -1.21607689 0 0 0
Li 3.43979000 4.86459500 -3.648503650000002 0 0 0
Li 1.71989500 2.43229750 -3.648503650000002 0 0 0
Li 1.71989500 7.29689250 -3.648503650000002 0 0 0
Li 5.15968500 4.86459500 -1.21607689 0 0 0
Li 5.15968500 0.00000000 -1.21607689 0 0 0
Li 0.15128196 2.43239479 3.42794470
Li 3.38330865 4.86449771 1.02581750
Li 0.15135076 7.29689250 3.42794470
Li 3.38984425 0.00000000 1.01926625
Li 1.89504911 7.30000584 1.37985830
Li 1.89511790 2.42918416 1.37985830
Li 4.65403587 0.00000000 3.48936273
Li 4.64275336 4.86449771 3.46616036
Bi 0.00000000 0.00000000 -3.648503650000002 0 0 0
Bi 3.43979000 2.43229750 -1.21607689 0 0 0
Bi 3.43979000 7.29689250 -1.21607689 0 0 0
Bi 0.00000000 4.86459500 -3.648503650000002 0 0 0
Bi 6.60164497 4.86459500 1.23190910
Bi 3.08796828 7.29504395 4.22173855
Bi 3.08851865 2.43414605 4.22173855
Bi 6.60480957 0.00009729 1.23900629
Au 1.71989500 0.00000000 -1.21607689 0 0 0
Au 1.71989500 4.86459500 -1.21607689 0 0 0
Au 5.15968500 7.29689250 -3.648503650000002 0 0 0
Au 5.15968500 2.43229750 -3.648503650000002 0 0 0
Au 1.79364410 4.86469229 3.22403686
Au 1.81049907 9.72909271 3.20738575
Au 4.81625637 2.43560542 1.82971121
Au 4.81625637 7.29358458 1.82971121
C 0.33455398 0.00038917 6.59411213
O 1.13224128 9.72909271 7.40319225
