&CONTROL
calculation = 'relax'
prefix = 'scf'
pseudo_dir = '/vol0004/mdt0/data/hp150275/u10028/POT_KKJUS'
outdir = './data'
tprnfor = .true.
nstep = 50
disk_io = 'non'
/
&SYSTEM
ibrav = 0
ecutwfc = 50.0
ecutrho = 400
occupations = 'smearing'
smearing = 'mp'
degauss = 0.01
assume_isolated = 'esm'
esm_bc = 'bc1'
input_dft = 'BEEF-VDW'
nosym = .true.
nspin = 1
ntyp = 4
nat = 34
/
&ELECTRONS
electron_maxstep = 200
mixing_beta = 0.1
conv_thr = 1e-06
/
&IONS
ion_dynamics = 'bfgs'
upscale = 1.0
/
&CELL
/

K_POINTS {automatic}
8 6 1 0 0 0

ATOMIC_SPECIES
C 12.01 C.pbe-n-rrkjus_psl.1.0.0.UPF
O 15.99 O.pbe-n-rrkjus_psl.1.0.0.UPF
Sc 44.95 Sc.pbe-spn-rrkjus_psl.1.0.0.UPF
Zn 65.40 Zn.pbe-dnl-rrkjus_psl.1.0.0.UPF

CELL_PARAMETERS {angstrom}
6.70510000 0.00000000 0.00000000
0.00000000 9.48244000 0.00000000
0.00000000 0.00000000 27.11180000

ATOMIC_POSITIONS {angstrom}
Sc 0.00000000 0.00000000 -3.555983689999998 0 0 0
Sc 0.00000000 2.37061000 -1.1853278999999972 0 0 0
Sc 0.00000000 9.48063834 1.15713162
Sc 0.00000000 2.37061000 3.45539891
Sc 0.00000000 4.74122000 -3.555983689999998 0 0 0
Sc 0.00000000 7.11183000 -1.1853278999999972 0 0 0
Sc 0.00000000 4.74302166 1.15713162
Sc 0.00000000 7.11183000 3.52399176
Sc 3.35255000 0.00000000 -3.555983689999998 0 0 0
Sc 3.35255000 2.37061000 -1.1853278999999972 0 0 0
Sc 3.35255000 9.46850081 1.18017665
Sc 3.35255000 2.37061000 3.62755884
Sc 3.35255000 4.74122000 -3.555983689999998 0 0 0
Sc 3.35255000 7.11183000 -1.1853278999999972 0 0 0
Sc 3.35255000 4.75515919 1.18017665
Sc 3.35255000 7.11183000 3.55191692
Zn 1.67627500 2.37061000 -3.555983689999998 0 0 0
Zn 1.67627500 0.00000000 -1.1853278999999972 0 0 0
Zn 1.73400591 2.37061000 1.16607852
Zn 1.68780777 0.00436192 3.50501350
Zn 1.67627500 7.11183000 -3.555983689999998 0 0 0
Zn 1.67627500 4.74122000 -1.1853278999999972 0 0 0
Zn 1.67976165 7.11183000 1.18885243
Zn 1.68780777 4.73695290 3.50528462
Zn 5.02882500 2.37061000 -3.555983689999998 0 0 0
Zn 5.02882500 0.00000000 -1.1853278999999972 0 0 0
Zn 4.97109409 2.37061000 1.16607852
Zn 5.01729223 0.00426710 3.50528462
Zn 5.02882500 7.11183000 -3.555983689999998 0 0 0
Zn 5.02882500 4.74122000 -1.1853278999999972 0 0 0
Zn 5.02533835 7.11183000 1.18885243
Zn 5.01729223 4.73685808 3.50528462
C 0.00000000 2.37061000 5.70866061
O 0.00000000 2.37061000 6.86389441
