&CONTROL
calculation = 'relax'
prefix = 'scf'
pseudo_dir = '/vol0004/mdt0/data/hp150275/u10028/POT_HYBRID_KKJUS_GBRV'
outdir = './data'
tprnfor = .true.
nstep = 50
disk_io = 'non'
/
&SYSTEM
ibrav = 0
ecutwfc = 50.0
ecutrho = 400
occupations = 'smearing'
smearing = 'mp'
degauss = 0.01
assume_isolated = 'esm'
esm_bc = 'bc1'
input_dft = 'BEEF-VDW'
nosym = .true.
nspin = 2
ntyp = 4
nat = 34
starting_magnetization(1) = 0.0
starting_magnetization(2) = 0.1
starting_magnetization(3) = 0.0
starting_magnetization(4) = 0.0
/
&ELECTRONS
electron_maxstep = 300
mixing_beta = 0.1
conv_thr = 1e-06
/
&IONS
ion_dynamics = 'bfgs'
upscale = 1.0
/
&CELL
/

K_POINTS {automatic}
8 6 1 0 0 0

ATOMIC_SPECIES
C 12.01 C.pbe-n-rrkjus_psl.1.0.0.UPF
Mn 54.93 mn_pbe_v1.5.uspp.F.UPF
O 15.99 O.pbe-n-rrkjus_psl.1.0.0.UPF
V 50.94 V.pbe-spnl-rrkjus_psl.1.0.0.UPF

CELL_PARAMETERS {angstrom}
5.76229000 0.00000000 0.00000000
0.00000000 8.14911000 0.00000000
0.00000000 0.00000000 26.11180000

ATOMIC_POSITIONS {angstrom}
Mn 0.00000000 0.00000000 -3.055863949999999 0 0 0
Mn 0.00000000 2.03727750 -1.0186213199999976 0 0 0
Mn 0.00000000 0.01760208 1.06953933
Mn 0.00000000 2.03727750 3.05168607
Mn 0.00000000 4.07455500 -3.055863949999999 0 0 0
Mn 0.00000000 6.11183250 -1.0186213199999976 0 0 0
Mn 0.00000000 4.05695292 1.06953933
Mn 0.00000000 6.11183250 3.01669625
Mn 2.88114500 0.00000000 -3.055863949999999 0 0 0
Mn 2.88114500 2.03727750 -1.0186213199999976 0 0 0
Mn 2.88114500 8.14576886 1.05805014
Mn 2.88114500 2.03727750 2.97778967
Mn 2.88114500 4.07455500 -3.055863949999999 0 0 0
Mn 2.88114500 6.11183250 -1.0186213199999976 0 0 0
Mn 2.88114500 4.07789614 1.05805014
Mn 2.88114500 6.11183250 3.03262445
V 1.44057250 2.03727750 -3.055863949999999 0 0 0
V 1.44057250 0.00000000 -1.0186213199999976 0 0 0
V 1.44794823 2.03727750 1.03376616
V 1.43809472 4.06078300 3.16788358
V 1.44057250 6.11183250 -3.055863949999999 0 0 0
V 1.44057250 4.07455500 -1.0186213199999976 0 0 0
V 1.44201307 6.11183250 1.05387225
V 1.43809472 0.01377200 3.16788358
V 4.32171750 2.03727750 -3.055863949999999 0 0 0
V 4.32171750 0.00000000 -1.0186213199999976 0 0 0
V 4.31434177 2.03727750 1.03376616
V 4.32419528 4.06078300 3.16788358
V 4.32171750 6.11183250 -3.055863949999999 0 0 0
V 4.32171750 4.07455500 -1.0186213199999976 0 0 0
V 4.32027693 6.11183250 1.05387225
V 4.32419528 0.01377200 3.16788358
C 0.00000000 2.03727750 4.87663977
O 0.00000000 2.03727750 6.05062630
