&CONTROL
calculation = 'relax'
prefix = 'scf'
pseudo_dir = '/vol0004/mdt0/data/hp150275/u10028/POT_HYBRID_KKJUS_GBRV'
outdir = './data'
tprnfor = .true.
nstep = 50
disk_io = 'non'
/
&SYSTEM
ibrav = 0
ecutwfc = 50.0
ecutrho = 400
occupations = 'smearing'
smearing = 'mp'
degauss = 0.01
assume_isolated = 'esm'
esm_bc = 'bc1'
input_dft = 'BEEF-VDW'
nosym = .true.
nspin = 2
ntyp = 5
nat = 18
starting_magnetization(1) = 0.1
starting_magnetization(2) = 0.1
starting_magnetization(3) = 0.1
starting_magnetization(4) = 0.1
starting_magnetization(5) = 0.1
/
&ELECTRONS
electron_maxstep = 200
mixing_beta = 0.1
conv_thr = 1e-06
/
&IONS
ion_dynamics = 'bfgs'
upscale = 1.0
/
&CELL
/

K_POINTS {automatic}
8 8 1 0 0 0

ATOMIC_SPECIES
C 12.01 C.pbe-n-rrkjus_psl.1.0.0.UPF
Li 6.941 Li.pbe-sl-rrkjus_psl.1.0.0.UPF
Ni 58.69 ni_pbe_v1.4.uspp.F.UPF
O 15.99 O.pbe-n-rrkjus_psl.1.0.0.UPF
Sn 118.7 Sn.pbe-dn-rrkjus_psl.1.0.0.UPF

CELL_PARAMETERS {angstrom}
6.04935000 0.00000000 0.00000000
-0.00000000 6.04935000 0.00000000
0.00000000 0.00000000 24.53700000

ATOMIC_POSITIONS {angstrom}
Li 0.00000000 0.00000000 -2.2684456500000003 0 0 0
Li 3.02467500 3.02467500 -2.2684456500000003 0 0 0
Li 3.02467500 -0.00000000 0.75623034
Li 0.00000000 3.02467500 0.75623034
Ni 1.51233750 1.51233750 -0.7562303399999983 0 0 0
Ni 4.53701250 4.53701250 2.26844565
Ni 4.53701250 1.51233750 -0.7562303399999983 0 0 0
Ni 1.51233750 4.53701250 2.26844565
Ni 4.53701250 4.53701250 -0.7562303399999983 0 0 0
Ni 1.51233750 1.51233750 2.26844565
Ni 1.51233750 4.53701250 -0.7562303399999983 0 0 0
Ni 4.53701250 1.51233750 2.26844565
Sn 0.00000000 0.00000000 0.75623034
Sn 3.02467500 0.00000000 -2.2684456500000003 0 0 0
Sn 0.00000000 3.02467500 -2.2684456500000003 0 0 0
Sn 3.02467500 3.02467500 0.75623034
C 1.51233750 1.51233750 4.16859093
O 1.51233750 1.51233750 5.31839475
