&CONTROL
calculation = 'relax'
prefix = 'scf'
pseudo_dir = '/vol0004/mdt0/data/hp150275/u10028/POT_HYBRID_KKJUS_GBRV'
outdir = './data'
tprnfor = .true.
nstep = 50
disk_io = 'non'
/
&SYSTEM
ibrav = 0
ecutwfc = 50.0
ecutrho = 400
occupations = 'smearing'
smearing = 'mp'
degauss = 0.01
assume_isolated = 'esm'
esm_bc = 'bc1'
input_dft = 'BEEF-VDW'
nosym = .true.
nspin = 2
ntyp = 3
nat = 18
starting_magnetization(1) = 0.0
starting_magnetization(2) = 0.01
/
&ELECTRONS
electron_maxstep = 200
mixing_beta = 0.1
conv_thr = 1e-06
/
&IONS
ion_dynamics = 'bfgs'
upscale = 1.0
/
&CELL
/

K_POINTS {automatic}
8 8 1 0 0 0

ATOMIC_SPECIES
C 12.01 C.pbe-n-rrkjus_psl.1.0.0.UPF
W 183.8 w_pbe_v1.2.uspp.F.UPF
H 1.0 H.pbe-rrkjus_psl.1.0.0.UPF

CELL_PARAMETERS {angstrom}
6.36689000 0.00000000 0.00000000
-0.00000000 6.36689000 0.00000000
0.00000000 0.00000000 24.77520000

ATOMIC_POSITIONS {angstrom}
W 0.00000000 0.00000000 -2.3875860200000005 0 0 0
W 1.59172250 1.59172250 -0.7957794200000023 0 0 0
W 0.00000000 0.00000000 0.79577942
W 1.59172250 1.59172250 2.38758602
W 0.00000000 3.18344500 -2.3875860200000005 0 0 0
W 1.59172250 4.77516750 -0.7957794200000023 0 0 0
W 0.00000000 3.18344500 0.79577942
W 1.59172250 4.77516750 2.38758602
W 3.18344500 0.00000000 -2.3875860200000005 0 0 0
W 4.77516750 1.59172250 -0.7957794200000023 0 0 0
W 3.18344500 -0.00000000 0.79577942
W 4.77516750 1.59172250 2.38758602
W 3.18344500 3.18344500 -2.3875860200000005 0 0 0
W 4.77516750 4.77516750 -0.7957794200000023 0 0 0
W 3.18344500 3.18344500 0.79577942
W 4.77516750 4.77516750 2.38758602
C 0.00000000 0.00000000 3.18757723
H 0.00000000 0.00000000 4.48757723

