&CONTROL
calculation = 'relax'
prefix = 'scf'
pseudo_dir = '/vol0004/mdt0/data/hp150275/u10028/POT_KKJUS'
outdir = './data'
tprnfor = .true.
nstep = 50
disk_io = 'non'
/
&SYSTEM
ibrav = 0
ecutwfc = 50.0
ecutrho = 400
occupations = 'smearing'
smearing = 'mp'
degauss = 0.01
assume_isolated = 'esm'
esm_bc = 'bc1'
input_dft = 'BEEF-VDW'
nosym = .true.
nspin = 1
ntyp = 4
nat = 17
/
&ELECTRONS
electron_maxstep = 200
mixing_beta = 0.1
conv_thr = 1e-06
/
&IONS
ion_dynamics = 'bfgs'
upscale = 1.0
/
&CELL
/

K_POINTS {automatic}
8 8 1 0 0 0

ATOMIC_SPECIES
Ag 107.8 Ag.pbe-n-rrkjus_psl.1.0.0.UPF
C 12.01 C.pbe-n-rrkjus_psl.1.0.0.UPF
In 114.8 In.pbe-dn-rrkjus_psl.1.0.0.UPF
Sc 44.95 Sc.pbe-spn-rrkjus_psl.1.0.0.UPF

CELL_PARAMETERS {angstrom}
6.85473000 0.00000000 0.00000000
-0.00000000 6.85473000 0.00000000
0.00000000 0.00000000 25.14100000

ATOMIC_POSITIONS {angstrom}
Sc 0.00000000 0.00000000 -2.570415839999999 0 0 0
Sc 3.42736500 3.42736500 -2.570415839999999 0 0 0
Sc 3.42736500 -0.00000000 0.85680528
Sc 0.00000000 3.42736500 0.85680528
In 0.00000000 0.00000000 0.85680528
In 3.42736500 0.00000000 -2.570415839999999 0 0 0
In 0.00000000 3.42736500 -2.570415839999999 0 0 0
In 3.42736500 3.42736500 0.85680528
Ag 1.71368250 1.71368250 -0.8568052799999997 0 0 0
Ag 5.14104750 5.14104750 2.57041584
Ag 5.14104750 1.71368250 -0.8568052799999997 0 0 0
Ag 1.71368250 5.14104750 2.57041584
Ag 5.14104750 5.14104750 -0.8568052799999997 0 0 0
Ag 1.71368250 1.71368250 2.57041584
Ag 1.71368250 5.14104750 -0.8568052799999997 0 0 0
Ag 5.14104750 1.71368250 2.57041584
C 0.00000000 3.42736500 3.37040246
