&CONTROL
calculation = 'relax'
prefix = 'scf'
pseudo_dir = '/vol0004/mdt0/data/hp150275/u10028/POT_KKJUS'
outdir = './data'
tprnfor = .true.
nstep = 50
disk_io = 'non'
/
&SYSTEM
ibrav = 0
ecutwfc = 50.0
ecutrho = 400
occupations = 'smearing'
smearing = 'mp'
degauss = 0.01
assume_isolated = 'esm'
esm_bc = 'bc1'
input_dft = 'BEEF-VDW'
nosym = .true.
nspin = 1
ntyp = 4
nat = 33
/
&ELECTRONS
electron_maxstep = 200
mixing_beta = 0.1
conv_thr = 1e-06
/
&IONS
ion_dynamics = 'bfgs'
upscale = 1.0
/
&CELL
/

K_POINTS {automatic}
8 6 1 0 0 0

ATOMIC_SPECIES
C 12.01 C.pbe-n-rrkjus_psl.1.0.0.UPF
Pt 195.0 Pt.pbe-n-rrkjus_psl.1.0.0.UPF
Sc 44.95 Sc.pbe-spn-rrkjus_psl.1.0.0.UPF
Sn 118.7 Sn.pbe-dn-rrkjus_psl.1.0.0.UPF

CELL_PARAMETERS {angstrom}
6.65597000 0.00000000 0.00000000
0.00000000 9.41296000 0.00000000
0.00000000 0.00000000 27.05970000

ATOMIC_POSITIONS {angstrom}
Sc 0.00000000 0.00000000 -3.5299378600000004 0 0 0
Sc 3.32798500 2.35324000 -1.1765557599999994 0 0 0
Sc 3.32798500 7.05972000 -1.1765557599999994 0 0 0
Sc 0.00000000 4.70648000 -3.5299378600000004 0 0 0
Sc 6.63673425 4.70403263 1.15923755
Sc 3.48366814 7.05972000 3.49124249
Sc 3.50370261 2.35324000 3.42521683
Sc 6.63666769 0.00244737 1.15923755
Sn 0.00000000 7.05972000 -1.1765557599999994 0 0 0
Sn 3.32798500 0.00000000 -3.5299378600000004 0 0 0
Sn 0.00000000 2.35324000 -1.1765557599999994 0 0 0
Sn 3.32798500 4.70648000 -3.5299378600000004 0 0 0
Sn 6.10305857 2.35324000 4.88562883
Sn 3.30508846 4.70600935 1.21822769
Sn 0.13977537 7.05972000 3.75588636
Sn 3.30508846 0.00047065 1.21822769
Pt 1.66399250 0.00000000 -1.1765557599999994 0 0 0
Pt 4.99197750 4.70648000 -1.1765557599999994 0 0 0
Pt 4.99197750 0.00000000 -1.1765557599999994 0 0 0
Pt 1.66399250 4.70648000 -1.1765557599999994 0 0 0
Pt 4.99197750 7.05972000 -3.5299378600000004 0 0 0
Pt 1.66399250 2.35324000 -3.5299378600000004 0 0 0
Pt 1.66399250 7.05972000 -3.5299378600000004 0 0 0
Pt 4.99197750 2.35324000 -3.5299378600000004 0 0 0
Pt 1.42138239 4.34944643 3.34295534
Pt 5.09348104 0.01797875 3.38354489
Pt 5.09348104 4.68850125 3.38354489
Pt 1.42144895 0.35703357 3.34295534
Pt 5.04475934 2.35324000 1.09672964
Pt 1.72722422 7.05972000 1.45067052
Pt 1.64202780 2.35324000 1.07968203
Pt 5.04349471 7.05972000 1.21525113
C 1.44774003 2.35324000 4.06057858
