&CONTROL
calculation = 'relax'
prefix = 'scf'
pseudo_dir = '/vol0004/mdt0/data/hp150275/u10028/POT_KKJUS'
outdir = './data'
tprnfor = .true.
nstep = 50
disk_io = 'non'
/
&SYSTEM
ibrav = 0
ecutwfc = 50.0
ecutrho = 400
occupations = 'smearing'
smearing = 'mp'
degauss = 0.01
assume_isolated = 'esm'
esm_bc = 'bc1'
input_dft = 'BEEF-VDW'
nosym = .true.
nspin = 1
ntyp = 5
nat = 34
/
&ELECTRONS
electron_maxstep = 200
mixing_beta = 0.1
conv_thr = 1e-06
/
&IONS
ion_dynamics = 'bfgs'
upscale = 1.0
/
&CELL
/

K_POINTS {automatic}
9 6 2 0  0  0

ATOMIC_SPECIES
Au 196.9 Au.pbe-n-rrkjus_psl.1.0.0.UPF
C 12.01 C.pbe-n-rrkjus_psl.1.0.0.UPF
In 114.8 In.pbe-dn-rrkjus_psl.1.0.0.UPF
O 15.99 O.pbe-n-rrkjus_psl.1.0.0.UPF
Ti 47.86 Ti.pbe-spn-rrkjus_psl.1.0.0.UPF

CELL_PARAMETERS {angstrom}
6.72102000 0.00000000 0.00000000
0.00000000 9.50495000 0.00000000
0.00000000 0.00000000 27.12870000

ATOMIC_POSITIONS {angstrom}
Ti 0.00000000 0.00000000 -3.564439889999999 0 0 0
Ti 3.36051000 2.37623750 -1.1882370599999987 0 0 0
Ti 3.36051000 7.12871250 -1.1882370599999987 0 0 0
Ti 0.00000000 4.75247500 -3.564439889999999 0 0 0
Ti 0.00000000 4.75000371 1.23869644
Ti 3.36051000 7.12871250 3.35690534
Ti 3.36051000 2.37623750 3.45538252
Ti 0.00000000 0.00247129 1.23869644
In 0.00000000 7.12871250 -1.1882370599999987 0 0 0
In 3.36051000 0.00000000 -3.564439889999999 0 0 0
In 0.00000000 2.37623750 -1.1882370599999987 0 0 0
In 3.36051000 4.75247500 -3.564439889999999 0 0 0
In 0.00000000 2.37623750 3.93528922
In 3.36051000 4.74591658 1.13208065
In 0.00000000 7.12871250 3.96947138
In 3.36051000 0.00655842 1.13208065
Au 1.68025500 0.00000000 -1.1882370599999987 0 0 0
Au 5.04076500 4.75247500 -1.1882370599999987 0 0 0
Au 5.04076500 0.00000000 -1.1882370599999987 0 0 0
Au 1.68025500 4.75247500 -1.1882370599999987 0 0 0
Au 5.04076500 7.12871250 -3.564439889999999 0 0 0
Au 1.68025500 2.37623750 -3.564439889999999 0 0 0
Au 1.68025500 7.12871250 -3.564439889999999 0 0 0
Au 5.04076500 2.37623750 -3.564439889999999 0 0 0
Au 1.80338409 4.76340569 3.59889334
Au 4.91770312 9.49401931 3.59862205
Au 4.91763591 4.76340569 3.59889334
Au 1.80331688 9.49401931 3.59862205
Au 5.14117704 2.37623750 1.26256970
Au 1.57493662 7.12871250 1.26148455
Au 1.57984296 2.37614245 1.26256970
Au 5.14608338 7.12871250 1.26148455
C 3.36051000 2.37623750 5.55134588
O 3.36051000 2.37623750 6.70512949
