&CONTROL
calculation = 'relax'
prefix = 'scf'
pseudo_dir = '/vol0004/mdt0/data/hp150275/u10028/POT_KKJUS'
outdir = './data'
tprnfor = .true.
nstep = 50
disk_io = 'non'
/
&SYSTEM
ibrav = 0
ecutwfc = 50.0
ecutrho = 400
occupations = 'smearing'
smearing = 'mp'
degauss = 0.01
assume_isolated = 'esm'
esm_bc = 'bc1'
input_dft = 'BEEF-VDW'
nosym = .true.
nspin = 1
ntyp = 3
nat = 17
/
&ELECTRONS
electron_maxstep = 200
mixing_beta = 0.1
conv_thr = 1e-06
/
&IONS
ion_dynamics = 'bfgs'
upscale = 1.0
/
&CELL
/

K_POINTS {automatic}
6 8 1 0 0 0

ATOMIC_SPECIES
Al 26.98 Al.pbe-nl-rrkjus_psl.1.0.0.UPF
C 12.01 C.pbe-n-rrkjus_psl.1.0.0.UPF
Sc 44.95 Sc.pbe-spn-rrkjus_psl.1.0.0.UPF

CELL_PARAMETERS {angstrom}
8.18271000 0.00000000 0.00000000
0.00000000 5.78605000 0.00000000
0.00000000 0.00000000 24.33950000

ATOMIC_POSITIONS {angstrom}
Sc 0.00000000 0.00000000 -2.1698664200000017 0 0 0
Sc 8.18262817 2.89331430 0.47194291
Sc 4.09135500 0.00000000 -2.1698664200000017 0 0 0
Sc 4.09135500 2.89377719 0.99597234
Al 0.00000000 2.89302500 -2.1698664200000017 0 0 0
Al 2.04567750 4.33953750 -0.7233699400000013 0 0 0
Al 2.04567750 1.44651250 -0.7233699400000013 0 0 0
Al 0.00000000 0.00000000 0.61311201
Al 1.55340567 1.42817072 2.36312205
Al 1.55340567 4.35776356 2.36312205
Al 4.09135500 2.89302500 -2.1698664200000017 0 0 0
Al 6.13703250 4.33953750 -0.7233699400000013 0 0 0
Al 6.13703250 1.44651250 -0.7233699400000013 0 0 0
Al 4.09135500 5.78593428 1.28634258
Al 6.62938616 1.42811286 2.36312205
Al 6.62930433 4.35776356 2.36312205
C 0.00000000 2.89296714 2.67077333
