&CONTROL
calculation = 'relax'
prefix = 'scf'
pseudo_dir = '/vol0004/mdt0/data/hp150275/u10028/POT_KKJUS'
outdir = './data'
tprnfor = .true.
nstep = 50
disk_io = 'non'
/
&SYSTEM
ibrav = 0
ecutwfc = 50.0
ecutrho = 400
occupations = 'smearing'
smearing = 'mp'
degauss = 0.01
assume_isolated = 'esm'
esm_bc = 'bc1'
input_dft = 'BEEF-VDW'
nosym = .true.
nspin = 1
ntyp = 5
nat = 34
/
&ELECTRONS
electron_maxstep = 200
mixing_beta = 0.1
conv_thr = 1e-06
/
&IONS
ion_dynamics = 'bfgs'
upscale = 1.0
/
&CELL
/

K_POINTS {automatic}
9 6 2 0  0  0

ATOMIC_SPECIES
C 12.01 C.pbe-n-rrkjus_psl.1.0.0.UPF
In 114.8 In.pbe-dn-rrkjus_psl.1.0.0.UPF
Ni 58.69 Ni.pbe-spn-rrkjus_psl.1.0.0.UPF
O 15.99 O.pbe-n-rrkjus_psl.1.0.0.UPF
Ti 47.86 Ti.pbe-spn-rrkjus_psl.1.0.0.UPF

CELL_PARAMETERS {angstrom}
6.14958000 0.00000000 0.00000000
0.00000000 8.69682000 0.00000000
0.00000000 0.00000000 26.52260000

ATOMIC_POSITIONS {angstrom}
Ti 0.00000000 0.00000000 -3.2612188999999994 0 0 0
Ti 3.07479000 2.17420500 -1.0871613700000005 0 0 0
Ti 3.07479000 6.52261500 -1.0871613700000005 0 0 0
Ti 0.00000000 4.34841000 -3.2612188999999994 0 0 0
Ti 0.00000000 4.35771560 1.17733821
Ti 3.07479000 6.52261500 3.19597330
Ti 3.07479000 2.17420500 3.19491240
Ti 0.00000000 8.68751440 1.17733821
In 0.00000000 6.52261500 -1.0871613700000005 0 0 0
In 3.07479000 0.00000000 -3.2612188999999994 0 0 0
In 0.00000000 2.17420500 -1.0871613700000005 0 0 0
In 3.07479000 4.34841000 -3.2612188999999994 0 0 0
In 6.14951850 2.17429197 3.55164137
In 3.07472850 4.32640705 1.03252482
In 0.00000000 6.52261500 3.58028577
In 3.07479000 0.02191599 1.03279004
Ni 1.53739500 0.00000000 -1.0871613700000005 0 0 0
Ni 4.61218500 4.34841000 -1.0871613700000005 0 0 0
Ni 4.61218500 0.00000000 -1.0871613700000005 0 0 0
Ni 1.53739500 4.34841000 -1.0871613700000005 0 0 0
Ni 4.61218500 6.52261500 -3.2612188999999994 0 0 0
Ni 1.53739500 2.17420500 -3.2612188999999994 0 0 0
Ni 1.53739500 6.52261500 -3.2612188999999994 0 0 0
Ni 4.61218500 2.17420500 -3.2612188999999994 0 0 0
Ni 1.56912683 4.35980283 3.15247624
Ni 4.58045317 8.68542717 3.15247624
Ni 4.58051466 4.35980283 3.15221101
Ni 1.56900384 8.68551413 3.15247624
Ni 4.70461319 2.17446590 1.14842858
Ni 1.50461774 6.52244106 1.19192564
Ni 1.44502831 2.17437894 1.14842858
Ni 4.64502376 6.52244106 1.19192564
C 3.07479000 2.17420500 5.31751607
O 3.07479000 2.17420500 6.47045350
