&CONTROL
calculation = 'relax'
prefix = 'scf'
pseudo_dir = '/vol0004/mdt0/data/hp150275/u10028/POT_HYBRID_KKJUS_GBRV'
outdir = './data'
tprnfor = .true.
nstep = 50
disk_io = 'non'
/
&SYSTEM
ibrav = 0
ecutwfc = 50.0
ecutrho = 400
occupations = 'smearing'
smearing = 'mp'
degauss = 0.01
assume_isolated = 'esm'
esm_bc = 'bc1'
input_dft = 'BEEF-VDW'
nosym = .true.
nspin = 2
ntyp = 4
nat = 17
starting_magnetization(1) = 0.1
starting_magnetization(2) = 0.1
starting_magnetization(3) = 0.1
starting_magnetization(4) = 0.1
/
&ELECTRONS
electron_maxstep = 200
mixing_beta = 0.1
conv_thr = 1e-06
/
&IONS
ion_dynamics = 'bfgs'
upscale = 1.0
/
&CELL
/

K_POINTS {automatic}
10 10 2 0  0  0

ATOMIC_SPECIES
C 12.01 C.pbe-n-rrkjus_psl.1.0.0.UPF
In 114.8 In.pbe-dn-rrkjus_psl.1.0.0.UPF
Mn 54.93 mn_pbe_v1.5.uspp.F.UPF
Ni 58.69 ni_pbe_v1.4.uspp.F.UPF

CELL_PARAMETERS {angstrom}
6.11439000 0.00000000 0.00000000
0.00000000 6.11439000 0.00000000
0.00000000 0.00000000 24.58580000

ATOMIC_POSITIONS {angstrom}
Mn 0.00000000 0.00000000 -2.29287171 0 0 0
Mn 3.05719500 3.05719500 -2.29287171 0 0 0
Mn 3.05719500 6.11414542 0.91090389
Mn 6.11420657 3.05750072 0.91065803
In 0.00000000 6.11432886 0.52957813
In 3.05719500 0.00000000 -2.29287171 0 0 0
In 0.00000000 3.05719500 -2.29287171 0 0 0
In 3.05640013 3.05633899 1.09603496
Ni 1.52859750 1.52859750 -0.7643725199999984 0 0 0
Ni 4.81881190 4.81868962 2.40719568
Ni 4.58579250 1.52859750 -0.7643725199999984 0 0 0
Ni 1.29533352 4.81905648 2.40572053
Ni 4.58579250 4.58579250 -0.7643725199999984 0 0 0
Ni 1.29521123 1.29521123 2.40645810
Ni 1.52859750 4.58579250 -0.7643725199999984 0 0 0
Ni 4.81905648 1.29563924 2.40572053
C 6.11408428 6.11432886 2.91267973
