&CONTROL
calculation = 'relax'
prefix = 'scf'
pseudo_dir = '/vol0403/data/hp230205/u10028/POT_HYBRID_KKJUS_GBRV'
outdir = './data'
tprnfor = .true.
nstep = 50
disk_io = 'non'
/
&SYSTEM
ibrav = 0
ecutwfc = 50.0
ecutrho = 400
occupations = 'smearing'
smearing = 'mp'
degauss = 0.01
assume_isolated = 'esm'
esm_bc = 'bc1'
input_dft = 'BEEF-VDW'
nosym = .true.
nspin = 1
ntyp = 5
nat = 33
/
&ELECTRONS
electron_maxstep = 200
mixing_beta = 0.1
conv_thr = 1e-06
/
&IONS
ion_dynamics = 'bfgs'
upscale = 1.0
/
&CELL
/

K_POINTS {automatic}
7 7 2 0  0  0

ATOMIC_SPECIES
C 12.01 C.pbe-n-rrkjus_psl.1.0.0.UPF
Ge 72.64 Ge.pbe-dn-rrkjus_psl.1.0.0.UPF
In 114.8 In.pbe-dn-rrkjus_psl.1.0.0.UPF
Li 6.941 Li.pbe-sl-rrkjus_psl.1.0.0.UPF
Mg 24.30 Mg.pbe-spnl-rrkjus_psl.1.0.0.UPF


CELL_PARAMETERS {angstrom}
8.75068000 0.00000000 0.00000000
0.00000000 8.41850000 0.00000000
0.00000000 0.00000000 26.30740000

ATOMIC_POSITIONS {angstrom}
Li 2.17576908 8.40991313 1.12253676
Li 2.18767000 0.00000000 -3.1537311100000025 0 0 0
Li 2.17576908 4.21792105 1.12279983
Li 2.18767000 4.20925000 -3.1537311100000025 0 0 0
Li 6.57596101 8.41058661 1.12332598
Li 6.56301000 0.00000000 -3.1537311100000025 0 0 0
Li 6.57587350 4.21716339 1.12332598
Li 6.56301000 4.20925000 -3.1537311100000025 0 0 0
Mg 0.00035003 2.10462500 0.93470192
Mg 0.00000000 2.10462500 -3.1537311100000025 0 0 0
Mg 8.75050499 6.31387500 1.20382662
Mg 0.00000000 6.31387500 -3.1537311100000025 0 0 0
Mg 4.37542751 2.10462500 1.11385532
Mg 4.37534000 2.10462500 -3.1537311100000025 0 0 0
Mg 4.37551501 6.31387500 1.09123095
Mg 4.37534000 6.31387500 -3.1537311100000025 0 0 0
In 2.59282648 2.10470919 4.26969102
In 2.18767000 2.10462500 -1.0512437000000006 0 0 0
In 2.50278199 6.31379081 3.86718780
In 2.18767000 6.31387500 -1.0512437000000006 0 0 0
In 6.15697845 2.10454082 4.26916487
In 6.56301000 2.10462500 -1.0512437000000006 0 0 0
In 6.24921062 6.31395919 3.86508321
In 6.56301000 6.31387500 -1.0512437000000006 0 0 0
Ge 0.00070005 0.19455154 3.27132519
Ge 0.00000000 0.00000000 -1.0512437000000006 0 0 0
Ge 0.00035003 4.01478265 3.27132519
Ge 0.00000000 4.20925000 -1.0512437000000006 0 0 0
Ge 4.37560252 0.00446181 2.82751935
Ge 4.37534000 0.00000000 -1.0512437000000006 0 0 0
Ge 4.37586504 4.20478820 2.82751935
Ge 4.37534000 4.20925000 -1.0512437000000006 0 0 0
C 8.74516707 2.10470919 3.09822250
