&CONTROL
calculation = 'relax'
prefix = 'scf'
pseudo_dir = '/vol0004/mdt0/data/hp150275/u10028/POT_KKJUS'
outdir = './data'
tprnfor = .true.
nstep = 50
disk_io = 'non'
/
&SYSTEM
ibrav = 0
ecutwfc = 50.0
ecutrho = 400
occupations = 'smearing'
smearing = 'mp'
degauss = 0.01
assume_isolated = 'esm'
esm_bc = 'bc1'
input_dft = 'BEEF-VDW'
nosym = .true.
nspin = 1
ntyp = 3
nat = 33
/
&ELECTRONS
electron_maxstep = 200
mixing_beta = 0.1
conv_thr = 1e-06
/
&IONS
ion_dynamics = 'bfgs'
upscale = 1.0
/
&CELL
/

K_POINTS {automatic}
9 6 2 0  0  0

ATOMIC_SPECIES
C 12.01 C.pbe-n-rrkjus_psl.1.0.0.UPF
Mg 24.30 Mg.pbe-spnl-rrkjus_psl.1.0.0.UPF
Sc 44.95 Sc.pbe-spn-rrkjus_psl.1.0.0.UPF

CELL_PARAMETERS {angstrom}
7.19733000 0.00000000 0.00000000
0.00000000 10.17860000 0.00000000
0.00000000 0.00000000 27.63390000

ATOMIC_POSITIONS {angstrom}
Mg 0.00000000 0.00000000 -3.817070610000002 0 0 0
Mg 0.00000000 2.54465000 -1.2722647600000023 0 0 0
Mg 0.00000000 5.08930000 1.03848196
Mg 0.00000000 2.31156006 4.07489489
Mg 0.00000000 5.08930000 -3.817070610000002 0 0 0
Mg 0.00000000 7.63395000 -1.2722647600000023 0 0 0
Mg 0.00000000 0.00010179 1.44912172
Mg 7.19725803 7.86693815 4.07489489
Mg 3.59866500 0.00000000 -3.817070610000002 0 0 0
Mg 3.59866500 2.54465000 -1.2722647600000023 0 0 0
Mg 3.59866500 5.08930000 1.29575357
Mg 3.59866500 2.77285421 3.93202763
Mg 3.59866500 5.08930000 -3.817070610000002 0 0 0
Mg 3.59866500 7.63395000 -1.2722647600000023 0 0 0
Mg 3.59866500 0.00020357 1.16863763
Mg 3.59866500 7.40564400 3.93202763
Sc 1.79933250 2.54465000 -3.817070610000002 0 0 0
Sc 1.79933250 0.00000000 -1.2722647600000023 0 0 0
Sc 1.85575957 2.60409302 1.30459642
Sc 1.58535588 5.08930000 3.54985079
Sc 1.79933250 7.63395000 -3.817070610000002 0 0 0
Sc 1.79933250 5.08930000 -1.2722647600000023 0 0 0
Sc 1.85583154 7.57460876 1.30459642
Sc 2.05073524 10.17849821 3.80049027
Sc 5.39799750 2.54465000 -3.817070610000002 0 0 0
Sc 5.39799750 0.00000000 -1.2722647600000023 0 0 0
Sc 5.34157043 2.60409302 1.30459642
Sc 5.61197412 5.08930000 3.54985079
Sc 5.39799750 7.63395000 -3.817070610000002 0 0 0
Sc 5.39799750 5.08930000 -1.2722647600000023 0 0 0
Sc 5.34149846 7.57460876 1.30459642
Sc 5.14652279 0.00000000 3.80049027
C 0.00000000 0.00000000 3.87924688
