&CONTROL
calculation = 'relax'
prefix = 'scf'
pseudo_dir = '/vol0403/data/hp230205/u10028/POT_HYBRID_KKJUS_GBRV'
outdir = './data'
tprnfor = .true.
nstep = 50
disk_io = 'non'
/
&SYSTEM
ibrav = 0
ecutwfc = 50.0
ecutrho = 400
occupations = 'smearing'
smearing = 'mp'
degauss = 0.01
assume_isolated = 'esm'
esm_bc = 'bc1'
input_dft = 'BEEF-VDW'
nosym = .true.
nspin = 1
ntyp = 5
nat = 33
/
&ELECTRONS
electron_maxstep = 200
mixing_beta = 0.1
conv_thr = 1e-06
/
&IONS
ion_dynamics = 'bfgs'
upscale = 1.0
/
&CELL
/

K_POINTS {automatic}
9 6 2 0  0  0

ATOMIC_SPECIES
Ag 107.8 Ag.pbe-n-rrkjus_psl.1.0.0.UPF
C 12.01 C.pbe-n-rrkjus_psl.1.0.0.UPF
In 114.8 In.pbe-dn-rrkjus_psl.1.0.0.UPF
Li 6.941 Li.pbe-sl-rrkjus_psl.1.0.0.UPF
Y 88.90 Y.pbe-spn-rrkjus_psl.1.0.0.UPF


CELL_PARAMETERS {angstrom}
6.90709000 0.00000000 0.00000000
0.00000000 9.76810000 0.00000000
0.00000000 0.00000000 27.32610000

ATOMIC_POSITIONS {angstrom}
Li 0.00000000 2.44202500 -1.220930150000001 0 0 0
Li 0.00000000 7.32607500 -1.220930150000001 0 0 0
Li 3.45354500 4.88405000 -3.6630636999999986 0 0 0
Li 3.45354500 0.00000000 -3.6630636999999986 0 0 0
Li 0.87802928 7.32607500 5.18266813
Li 0.04565586 2.44202500 4.65746048
Li 3.46024488 9.75706205 1.24825625
Li 3.46031395 4.89518563 1.24825625
Y 5.18031750 0.00000000 -1.220930150000001 0 0 0
Y 5.18031750 4.88405000 -1.220930150000001 0 0 0
Y 1.72677250 2.44202500 -3.6630636999999986 0 0 0
Y 1.72677250 7.32607500 -3.6630636999999986 0 0 0
Y 5.40383093 5.19330805 3.65841827
Y 5.40383093 9.45884195 3.65841827
Y 1.69209891 7.32607500 1.62262382
Y 1.68905979 2.44202500 1.47588266
In 1.72677250 0.00000000 -1.220930150000001 0 0 0
In 1.72677250 4.88405000 -1.220930150000001 0 0 0
In 5.18031750 2.44202500 -3.6630636999999986 0 0 0
In 5.18031750 7.32607500 -3.6630636999999986 0 0 0
In 1.73340331 4.75462268 3.87374794
In 1.73340331 0.12942733 3.87374794
In 5.14626555 7.32607500 1.19688318
In 5.21740857 2.44202500 1.21191253
Ag 0.00000000 0.00000000 -3.6630636999999986 0 0 0
Ag 0.00000000 4.88405000 -3.6630636999999986 0 0 0
Ag 3.45354500 7.32607500 -1.220930150000001 0 0 0
Ag 3.45354500 2.44202500 -1.220930150000001 0 0 0
Ag 0.03633129 4.90456301 1.15671381
Ag 0.03633129 9.74758699 1.15671381
Ag 4.07345633 2.44202500 3.89943447
Ag 3.40201811 7.32607500 4.17843395
C 1.88826026 2.44202500 3.75597244
