&CONTROL
calculation = 'relax'
prefix = 'scf'
pseudo_dir = '/vol0004/mdt0/data/hp150275/u10028/POT_KKJUS'
outdir = './data'
tprnfor = .true.
nstep = 50
disk_io = 'non'
/
&SYSTEM
ibrav = 0
ecutwfc = 50.0
ecutrho = 400
occupations = 'smearing'
smearing = 'mp'
degauss = 0.01
assume_isolated = 'esm'
esm_bc = 'bc1'
input_dft = 'BEEF-VDW'
nosym = .true.
nspin = 1
ntyp = 5
nat = 34
/
&ELECTRONS
electron_maxstep = 200
mixing_beta = 0.1
conv_thr = 1e-06
/
&IONS
ion_dynamics = 'bfgs'
upscale = 1.0
/
&CELL
/

K_POINTS {automatic}
8 6 1 0 0 0

ATOMIC_SPECIES
C 12.01 C.pbe-n-rrkjus_psl.1.0.0.UPF
Nb 92.90 Nb.pbe-spn-rrkjus_psl.1.0.0.UPF
Ni 58.69 Ni.pbe-spn-rrkjus_psl.1.0.0.UPF
O 15.99 O.pbe-n-rrkjus_psl.1.0.0.UPF
Sn 118.7 Sn.pbe-dn-rrkjus_psl.1.0.0.UPF

CELL_PARAMETERS {angstrom}
6.23466000 0.00000000 0.00000000
0.00000000 8.81715000 0.00000000
0.00000000 0.00000000 26.61290000

ATOMIC_POSITIONS {angstrom}
Nb 0.00000000 0.00000000 -3.306386700000001 0 0 0
Nb 3.11733000 2.20428750 -1.1020401900000003 0 0 0
Nb 3.11733000 6.61286250 -1.1020401900000003 0 0 0
Nb 0.00000000 4.40857500 -3.306386700000001 0 0 0
Nb 0.00000000 4.42982433 1.14781438
Nb 3.11733000 6.61286250 3.23240283
Nb 3.11733000 2.20428750 3.26859638
Nb 0.00000000 8.79590067 1.14781438
Ni 1.55866500 0.00000000 -1.1020401900000003 0 0 0
Ni 4.67599500 4.40857500 -1.1020401900000003 0 0 0
Ni 4.67599500 0.00000000 -1.1020401900000003 0 0 0
Ni 1.55866500 4.40857500 -1.1020401900000003 0 0 0
Ni 4.67599500 6.61286250 -3.306386700000001 0 0 0
Ni 1.55866500 2.20428750 -3.306386700000001 0 0 0
Ni 1.55866500 6.61286250 -3.306386700000001 0 0 0
Ni 4.67599500 2.20428750 -3.306386700000001 0 0 0
Ni 1.68466748 4.42083084 3.16214478
Ni 4.55005487 8.80480599 3.16214478
Ni 4.54999252 4.42091901 3.16214478
Ni 1.68460513 8.80480599 3.16214478
Ni 4.84433082 2.20419933 1.17149986
Ni 1.55349023 6.61286250 1.21594340
Ni 1.39020449 2.20428750 1.17176599
Ni 4.68123211 6.61286250 1.21594340
Sn 0.00000000 6.61286250 -1.1020401900000003 0 0 0
Sn 3.11733000 0.00000000 -3.306386700000001 0 0 0
Sn 0.00000000 2.20428750 -1.1020401900000003 0 0 0
Sn 3.11733000 4.40857500 -3.306386700000001 0 0 0
Sn 0.00000000 2.20428750 3.60125763
Sn 3.11733000 4.36122690 1.01820955
Sn 0.00000000 6.61286250 3.59912860
Sn 3.11733000 0.04734810 1.01820955
C 3.11733000 2.20428750 5.39177354
O 3.11733000 2.20428750 6.54757179
