&CONTROL
calculation = 'relax'
prefix = 'scf'
pseudo_dir = '/vol0004/mdt0/data/hp150275/u10028/POT_HYBRID_KKJUS_GBRV'
outdir = './data'
tprnfor = .true.
nstep = 50
disk_io = 'non'
/
&SYSTEM
ibrav = 0
ecutwfc = 50.0
ecutrho = 400
occupations = 'smearing'
smearing = 'mp'
degauss = 0.01
assume_isolated = 'esm'
esm_bc = 'bc1'
input_dft = 'BEEF-VDW'
nosym = .true.
nspin = 2
ntyp = 4
nat = 33
starting_magnetization(1) = 0.0
starting_magnetization(2) = 0.0
starting_magnetization(3) = 0.1
starting_magnetization(4) = 0.0
/
&ELECTRONS
electron_maxstep = 300
mixing_beta = 0.1
conv_thr = 1e-06
/
&IONS
ion_dynamics = 'bfgs'
upscale = 1.0
/
&CELL
/

K_POINTS {automatic}
8 6 1 0 0 0

ATOMIC_SPECIES
Al 26.98 Al.pbe-nl-rrkjus_psl.1.0.0.UPF
C 12.01 C.pbe-n-rrkjus_psl.1.0.0.UPF
Co 58.93 co_pbe_v1.2.uspp.F.UPF
Zr 91.22 Zr.pbe-spn-rrkjus_psl.1.0.0.UPF

CELL_PARAMETERS {angstrom}
6.08368000 0.00000000 0.00000000
0.00000000 8.60362000 0.00000000
0.00000000 0.00000000 26.45270000

ATOMIC_POSITIONS {angstrom}
Zr 0.00000000 0.00000000 -3.226435819999999 0 0 0
Zr 3.04184000 2.15090500 -1.075566779999999 0 0 0
Zr 3.04184000 6.45271500 -1.075566779999999 0 0 0
Zr 0.00000000 4.30181000 -3.226435819999999 0 0 0
Zr 0.00000000 4.30181000 1.10995529
Zr 3.04184000 6.39954463 3.25606284
Zr 3.04184000 2.20407537 3.25606284
Zr 0.00000000 0.00000000 1.05414009
Al 0.00000000 6.45271500 -1.075566779999999 0 0 0
Al 3.04184000 0.00000000 -3.226435819999999 0 0 0
Al 0.00000000 2.15090500 -1.075566779999999 0 0 0
Al 3.04184000 4.30181000 -3.226435819999999 0 0 0
Al 0.00000000 2.15847619 3.23013920
Al 3.04184000 4.30181000 1.09858063
Al 0.00000000 6.44514381 3.23040372
Al 3.04184000 0.00000000 1.07715394
Co 1.52092000 0.00000000 -1.075566779999999 0 0 0
Co 4.56276000 4.30181000 -1.075566779999999 0 0 0
Co 4.56276000 0.00000000 -1.075566779999999 0 0 0
Co 1.52092000 4.30181000 -1.075566779999999 0 0 0
Co 4.56276000 6.45271500 -3.226435819999999 0 0 0
Co 1.52092000 2.15090500 -3.226435819999999 0 0 0
Co 1.52092000 6.45271500 -3.226435819999999 0 0 0
Co 4.56276000 2.15090500 -3.226435819999999 0 0 0
Co 1.48320118 4.30181000 3.17353042
Co 4.63545998 0.00000000 3.20183481
Co 4.60047882 4.30181000 3.17353042
Co 1.44822002 0.00000000 3.20183481
Co 4.55588544 2.14221534 1.08350259
Co 1.52779456 6.46140466 1.08376712
Co 1.52779456 2.14221534 1.08376712
Co 4.55588544 6.46140466 1.08376712
C 3.04184000 0.00000000 4.04223709
