&CONTROL
calculation = 'relax'
prefix = 'scf'
pseudo_dir = '/vol0004/mdt0/data/hp150275/u10028/POT_HYBRID_KKJUS_GBRV'
outdir = './data'
tprnfor = .true.
nstep = 50
disk_io = 'non'
/
&SYSTEM
ibrav = 0
ecutwfc = 50.0
ecutrho = 400
occupations = 'smearing'
smearing = 'mp'
degauss = 0.01
assume_isolated = 'esm'
esm_bc = 'bc1'
input_dft = 'BEEF-VDW'
nosym = .true.
nspin = 2
ntyp = 5
nat = 34
starting_magnetization(1) = 0.0
starting_magnetization(2) = 0.0
starting_magnetization(3) = 0.001
starting_magnetization(4) = 0.0
starting_magnetization(5) = 0.0
/
&ELECTRONS
electron_maxstep = 300
mixing_beta = 0.1
conv_thr = 1e-06
/
&IONS
ion_dynamics = 'bfgs'
upscale = 1.0
/
&CELL
/

K_POINTS {automatic}
9 6 2 0  0  0

ATOMIC_SPECIES
C 12.01 C.pbe-n-rrkjus_psl.1.0.0.UPF
Ga 69.72 Ga.pbe-dnl-rrkjus_psl.1.0.0.UPF
Ni 58.69 ni_pbe_v1.4.uspp.F.UPF
O 15.99 O.pbe-n-rrkjus_psl.1.0.0.UPF
Sc 44.95 Sc.pbe-spn-rrkjus_psl.1.0.0.UPF

CELL_PARAMETERS {angstrom}
6.06833000 0.00000000 0.00000000
0.00000000 8.58191000 0.00000000
0.00000000 0.00000000 26.43640000

ATOMIC_POSITIONS {angstrom}
Sc 0.00000000 0.00000000 -3.2181029700000003 0 0 0
Sc 3.03416500 2.14547750 -1.0727891099999987 0 0 0
Sc 3.03416500 6.43643250 -1.0727891099999987 0 0 0
Sc 0.00000000 4.29095500 -3.2181029700000003 0 0 0
Sc 0.00892045 4.29104082 1.01251412
Sc 3.05892379 6.39206403 3.36350317
Sc 3.05886310 2.18993179 3.36297444
Sc 0.02026822 8.58182418 1.04608835
Ga 0.00000000 6.43643250 -1.0727891099999987 0 0 0
Ga 3.03416500 0.00000000 -3.2181029700000003 0 0 0
Ga 0.00000000 2.14547750 -1.0727891099999987 0 0 0
Ga 3.03416500 4.29095500 -3.2181029700000003 0 0 0
Ga 6.05722496 2.13063080 3.19060912
Ga 3.03628892 4.29112664 1.17879908
Ga 6.05722496 6.45145084 3.19034475
Ga 3.02463772 8.58165254 1.15447759
Ni 1.51708250 0.00000000 -1.0727891099999987 0 0 0
Ni 4.55124750 4.29095500 -1.0727891099999987 0 0 0
Ni 4.55124750 0.00000000 -1.0727891099999987 0 0 0
Ni 1.51708250 4.29095500 -1.0727891099999987 0 0 0
Ni 4.55124750 6.43643250 -3.2181029700000003 0 0 0
Ni 1.51708250 2.14547750 -3.2181029700000003 0 0 0
Ni 1.51708250 6.43643250 -3.2181029700000003 0 0 0
Ni 4.55124750 2.14547750 -3.2181029700000003 0 0 0
Ni 1.34656243 4.29112664 3.09993226
Ni 4.70835656 8.58173836 3.04177218
Ni 4.74337083 4.29121246 3.10204718
Ni 1.44456596 0.00000000 3.36218135
Ni 4.46538063 2.14170146 1.14760412
Ni 1.62182188 6.45471197 1.19730456
Ni 1.62133641 2.12719803 1.19730456
Ni 4.46483448 6.44012272 1.14786849
C 2.07324494 0.00000000 5.00916907
O 2.35287359 8.58182418 6.14540554
