&CONTROL
calculation = 'relax'
prefix = 'scf'
pseudo_dir = '/vol0004/mdt0/data/hp150275/u10028/POT_KKJUS'
outdir = './data'
tprnfor = .true.
nstep = 50
disk_io = 'non'
/
&SYSTEM
ibrav = 0
ecutwfc = 50.0
ecutrho = 400
occupations = 'smearing'
smearing = 'mp'
degauss = 0.01
assume_isolated = 'esm'
esm_bc = 'bc1'
input_dft = 'BEEF-VDW'
nosym = .true.
nspin = 1
ntyp = 4
nat = 33
/
&ELECTRONS
electron_maxstep = 200
mixing_beta = 0.1
conv_thr = 1e-06
/
&IONS
ion_dynamics = 'bfgs'
upscale = 1.0
/
&CELL
/

K_POINTS {automatic}
9 6 2 0  0  0

ATOMIC_SPECIES
Al 26.98 Al.pbe-nl-rrkjus_psl.1.0.0.UPF
C 12.01 C.pbe-n-rrkjus_psl.1.0.0.UPF
Ni 58.69 Ni.pbe-spn-rrkjus_psl.1.0.0.UPF
Ti 47.86 Ti.pbe-spn-rrkjus_psl.1.0.0.UPF

CELL_PARAMETERS {angstrom}
5.94410000 0.00000000 0.00000000
0.00000000 8.40623000 0.00000000
0.00000000 0.00000000 26.30470000

ATOMIC_POSITIONS {angstrom}
Ti 0.00000000 0.00000000 -3.1523552499999994 0 0 0
Ti 2.97205000 2.10155750 -1.0508727700000016 0 0 0
Ti 2.97205000 6.30467250 -1.0508727700000016 0 0 0
Ti 0.00000000 4.20311500 -3.1523552499999994 0 0 0
Ti 0.00000000 4.20319906 1.02719854
Ti 2.97205000 6.37436015 3.21075168
Ti 2.97205000 2.03195392 3.21101473
Ti 0.00000000 8.40614594 1.00694392
Al 0.00000000 6.30467250 -1.0508727700000016 0 0 0
Al 2.97205000 0.00000000 -3.1523552499999994 0 0 0
Al 0.00000000 2.10155750 -1.0508727700000016 0 0 0
Al 2.97205000 4.20311500 -3.1523552499999994 0 0 0
Al 0.00000000 2.14838020 3.09316967
Al 2.97205000 4.20311500 1.05902722
Al 0.00000000 6.25784980 3.09290663
Al 2.97205000 0.00008406 1.13136515
Ni 1.48602500 0.00000000 -1.0508727700000016 0 0 0
Ni 4.45807500 4.20311500 -1.0508727700000016 0 0 0
Ni 4.45807500 0.00000000 -1.0508727700000016 0 0 0
Ni 1.48602500 4.20311500 -1.0508727700000016 0 0 0
Ni 4.45807500 6.30467250 -3.1523552499999994 0 0 0
Ni 1.48602500 2.10155750 -3.1523552499999994 0 0 0
Ni 1.48602500 6.30467250 -3.1523552499999994 0 0 0
Ni 4.45807500 2.10155750 -3.1523552499999994 0 0 0
Ni 1.43561903 4.20311500 2.98716173
Ni 4.74113304 0.00008406 3.07423029
Ni 4.50848097 4.20311500 2.98716173
Ni 1.20296696 0.00008406 3.07423029
Ni 4.37616530 2.10920717 1.04192917
Ni 1.56781582 6.29710689 1.04192917
Ni 1.56793470 2.10920717 1.04192917
Ni 4.37634362 6.29710689 1.04192917
C 2.97205000 0.00000000 3.58006967
