&CONTROL
calculation = 'relax'
prefix = 'scf'
pseudo_dir = '/vol0403/data/hp230205/u10028/POT_HYBRID_KKJUS_GBRV'
outdir = './data'
tprnfor = .true.
nstep = 50
disk_io = 'non'
/
&SYSTEM
ibrav = 0
ecutwfc = 50.0
ecutrho = 400
occupations = 'smearing'
smearing = 'mp'
degauss = 0.01
assume_isolated = 'esm'
esm_bc = 'bc1'
input_dft = 'BEEF-VDW'
nosym = .true.
nspin = 1
ntyp = 5
nat = 33
/
&ELECTRONS
electron_maxstep = 200
mixing_beta = 0.1
conv_thr = 1e-06
/
&IONS
ion_dynamics = 'bfgs'
upscale = 1.0
/
&CELL
/

K_POINTS {automatic}
6 6 1 0 0 0

ATOMIC_SPECIES
C 12.01 C.pbe-n-rrkjus_psl.1.0.0.UPF
Ga 69.72 Ga.pbe-dnl-rrkjus_psl.1.0.0.UPF
Ge 72.64 Ge.pbe-dn-rrkjus_psl.1.0.0.UPF
Pd 106.4 Pd.pbe-n-rrkjus_psl.1.0.0.UPF
Sc 44.95 Sc.pbe-spn-rrkjus_psl.1.0.0.UPF


CELL_PARAMETERS {angstrom}
8.08666000 0.00000000 0.00000000
0.00000000 8.58414000 0.00000000
0.00000000 0.00000000 25.87790000

ATOMIC_POSITIONS {angstrom}
Sc 2.02166500 2.16921218 3.01399901
Sc 2.02166500 2.14603500 -0.9797372899999992 0 0 0
Sc 2.02166500 6.41492782 3.01399901
Sc 2.02166500 6.43810500 -0.9797372899999992 0 0 0
Sc 6.06499500 2.05212451 2.98268675
Sc 6.06499500 2.14603500 -0.9797372899999992 0 0 0
Sc 6.06499500 6.53210133 2.98268675
Sc 6.06499500 6.43810500 -0.9797372899999992 0 0 0
Ga 0.00185993 0.00000000 3.22386878
Ga 0.00000000 0.00000000 -0.9797372899999992 0 0 0
Ga 8.02277539 4.29207000 2.97958141
Ga 0.00000000 4.29207000 -0.9797372899999992 0 0 0
Ga 4.04155093 0.00000000 3.22386878
Ga 4.04333000 0.00000000 -0.9797372899999992 0 0 0
Ga 4.10713375 4.29207000 2.97958141
Ga 4.04333000 4.29207000 -0.9797372899999992 0 0 0
Ge 8.08172714 2.18509284 1.07859087
Ge 0.00000000 2.14603500 -2.938953099999999 0 0 0
Ge 8.08172714 6.39896132 1.07833209
Ge 0.00000000 6.43810500 -2.938953099999999 0 0 0
Ge 4.04818200 2.18509284 1.07833209
Ge 4.04333000 2.14603500 -2.938953099999999 0 0 0
Ge 4.04826286 6.39896132 1.07859087
Ge 4.04333000 6.43810500 -2.938953099999999 0 0 0
Pd 2.02166500 0.00000000 1.00690909
Pd 2.02166500 0.00000000 -2.938953099999999 0 0 0
Pd 2.02166500 4.29207000 1.03977402
Pd 2.02166500 4.29207000 -2.938953099999999 0 0 0
Pd 6.06499500 0.00000000 0.89873947
Pd 6.06499500 0.00000000 -2.938953099999999 0 0 0
Pd 6.06499500 4.29207000 1.05478320
Pd 6.06499500 4.29207000 -2.938953099999999 0 0 0
C 2.02166500 0.00000000 3.33824910
