&CONTROL
calculation = 'relax'
prefix = 'scf'
pseudo_dir = '/vol0004/mdt0/data/hp150275/u10028/POT_HYBRID_KKJUS_GBRV'
outdir = './data'
tprnfor = .true.
nstep = 50
disk_io = 'non'
/
&SYSTEM
ibrav = 0
ecutwfc = 50.0
ecutrho = 400
occupations = 'smearing'
smearing = 'mp'
degauss = 0.01
assume_isolated = 'esm'
esm_bc = 'bc1'
input_dft = 'BEEF-VDW'
nosym = .true.
nspin = 2
ntyp = 4
nat = 33
starting_magnetization(1) = 0.0
starting_magnetization(2) = 0.1
starting_magnetization(3) = 0.0
starting_magnetization(4) = 0.0
/
&ELECTRONS
electron_maxstep = 200
mixing_beta = 0.1
conv_thr = 1e-06
/
&IONS
ion_dynamics = 'bfgs'
upscale = 1.0
/
&CELL
/

K_POINTS {automatic}
9 6 2 0  0  0

ATOMIC_SPECIES
C 12.01 C.pbe-n-rrkjus_psl.1.0.0.UPF
Co 58.93 co_pbe_v1.2.uspp.F.UPF
Sc 44.95 Sc.pbe-spn-rrkjus_psl.1.0.0.UPF
Sn 118.7 Sn.pbe-dn-rrkjus_psl.1.0.0.UPF

CELL_PARAMETERS {angstrom}
6.22913000 0.00000000 0.00000000
0.00000000 8.80931000 0.00000000
0.00000000 0.00000000 26.60700000

ATOMIC_POSITIONS {angstrom}
Sc 0.00000000 0.00000000 23.30347488
Sc 3.11456500 2.20232750 25.50573627
Sc 3.11456500 6.60698250 25.50573627
Sc 0.00000000 4.40465500 23.30347488
Sc 0.00000000 4.40465500 1.13665104
Sc 3.11456500 6.50805395 3.39771390
Sc 3.11456500 2.30125605 3.39771390
Sc 0.00000000 0.00000000 1.04379261
Co 1.55728250 0.00000000 25.50573627
Co 4.67184750 4.40465500 25.50573627
Co 4.67184750 0.00000000 25.50573627
Co 1.55728250 4.40465500 25.50573627
Co 4.67184750 6.60698250 23.30347488
Co 1.55728250 2.20232750 23.30347488
Co 1.55728250 6.60698250 23.30347488
Co 4.67184750 2.20232750 23.30347488
Co 1.44634169 4.40465500 3.14335098
Co 4.79400074 0.00000000 3.33305889
Co 4.78285060 4.40465500 3.14335098
Co 1.43506697 0.00000000 3.33305889
Co 4.64624578 2.17898283 1.14569742
Co 1.58288422 6.63023908 1.14569742
Co 1.58288422 2.17907092 1.14569742
Co 4.64624578 6.63032717 1.14569742
Sn 0.00000000 6.60698250 25.50573627
Sn 3.11456500 0.00000000 23.30347488
Sn 0.00000000 2.20232750 25.50573627
Sn 3.11456500 4.40465500 23.30347488
Sn 0.00000000 2.21307486 3.44108331
Sn 3.11456500 4.40465500 1.14410100
Sn 0.00000000 6.59623514 3.44108331
Sn 3.11456500 0.00000000 1.08051027
C 3.11456500 0.00000000 3.88036488
