&CONTROL
calculation = 'relax'
prefix = 'scf'
pseudo_dir = '/vol0004/mdt0/data/hp150275/u10028/POT_HYBRID_KKJUS_GBRV'
outdir = './data'
tprnfor = .true.
nstep = 50
disk_io = 'non'
/
&SYSTEM
ibrav = 0
ecutwfc = 50.0
ecutrho = 400
occupations = 'smearing'
smearing = 'mp'
degauss = 0.01
assume_isolated = 'esm'
esm_bc = 'bc1'
input_dft = 'BEEF-VDW'
nosym = .true.
nspin = 2
ntyp = 5
nat = 34
starting_magnetization(1) = 0.0
starting_magnetization(2) = 0.0
starting_magnetization(3) = 0.1
starting_magnetization(4) = 0.001
starting_magnetization(5) = 0.0
/
&ELECTRONS
electron_maxstep = 300
mixing_beta = 0.1
conv_thr = 1e-06
/
&IONS
ion_dynamics = 'bfgs'
upscale = 1.0
/
&CELL
/

K_POINTS {automatic}
9 6 2 0  0  0

ATOMIC_SPECIES
C 12.01 C.pbe-n-rrkjus_psl.1.0.0.UPF
Ga 69.72 Ga.pbe-dnl-rrkjus_psl.1.0.0.UPF
Mn 54.93 mn_pbe_v1.5.uspp.F.UPF
Ni 58.69 ni_pbe_v1.4.uspp.F.UPF
O 15.99 O.pbe-n-rrkjus_psl.1.0.0.UPF

CELL_PARAMETERS {angstrom}
5.88011000 0.00000000 0.00000000
0.00000000 8.31574000 0.00000000
0.00000000 0.00000000 26.23680000

ATOMIC_POSITIONS {angstrom}
Mn 0.00000000 0.00000000 -3.118506049999997 0 0 0
Mn 2.94005500 2.07893500 -1.0395020200000005 0 0 0
Mn 2.94005500 6.23680500 -1.0395020200000005 0 0 0
Mn 0.00000000 4.15787000 -3.118506049999997 0 0 0
Mn 0.00000000 4.15329634 0.99647366
Mn 2.94005500 6.23680500 3.13975786
Mn 2.94005500 2.07901816 3.06681955
Mn 0.00000000 0.00457366 0.99647366
Ga 0.00000000 6.23680500 -1.0395020200000005 0 0 0
Ga 2.94005500 0.00000000 -3.118506049999997 0 0 0
Ga 0.00000000 2.07893500 -1.0395020200000005 0 0 0
Ga 2.94005500 4.15787000 -3.118506049999997 0 0 0
Ga 0.00000000 2.07901816 3.10355107
Ga 2.94005500 4.15570791 1.01772547
Ga 0.00000000 6.23688816 3.16100966
Ga 2.94005500 0.00216209 1.01746310
Ni 1.47002750 0.00000000 -1.0395020200000005 0 0 0
Ni 4.41008250 4.15787000 -1.0395020200000005 0 0 0
Ni 4.41008250 0.00000000 -1.0395020200000005 0 0 0
Ni 1.47002750 4.15787000 -1.0395020200000005 0 0 0
Ni 4.41008250 6.23680500 -3.118506049999997 0 0 0
Ni 1.47002750 2.07893500 -3.118506049999997 0 0 0
Ni 1.47002750 6.23680500 -3.118506049999997 0 0 0
Ni 4.41008250 2.07893500 -3.118506049999997 0 0 0
Ni 1.42698509 4.15263108 2.97604022
Ni 4.45294850 0.00523892 2.97577786
Ni 4.45312491 4.15263108 2.97604022
Ni 1.42716150 0.00523892 2.97577786
Ni 4.39497062 2.07901816 1.00381997
Ni 1.46726385 6.23672184 1.02953203
Ni 1.48513938 2.07901816 1.00381997
Ni 4.41284615 6.23672184 1.02953203
C 2.94005500 2.07893500 4.97738333
O 2.94005500 2.07893500 6.13206490
