&CONTROL
calculation = 'relax'
prefix = 'scf'
pseudo_dir = '/vol0004/mdt0/data/hp150275/u10028/POT_KKJUS'
outdir = './data'
tprnfor = .true.
nstep = 50
disk_io = 'non'
/
&SYSTEM
ibrav = 0
ecutwfc = 50.0
ecutrho = 400
occupations = 'smearing'
smearing = 'mp'
degauss = 0.01
assume_isolated = 'esm'
esm_bc = 'bc1'
input_dft = 'BEEF-VDW'
nosym = .true.
nspin = 1
ntyp = 3
nat = 32
/
&ELECTRONS
electron_maxstep = 200
mixing_beta = 0.1
conv_thr = 1e-06
/
&IONS
ion_dynamics = 'bfgs'
upscale = 1.0
/
&CELL
/

K_POINTS {automatic}
8 6 1 0 0 0

ATOMIC_SPECIES
Al 26.98 Al.pbe-nl-rrkjus_psl.1.0.0.UPF
Hf 178.4 Hf.pbe-spn-rrkjus_psl.1.0.0.UPF
Ni 58.69 Ni.pbe-spn-rrkjus_psl.1.0.0.UPF

CELL_PARAMETERS {angstrom}
6.09904000 0.00000000 0.00000000
0.00000000 8.62534000 0.00000000
0.00000000 0.00000000 26.46900000

ATOMIC_POSITIONS {angstrom}
Hf 0.00000000 0.00000000 -3.2345118 0 0 0
Hf 3.04952000 2.15633500 -1.0780823700000006 0 0 0
Hf 3.04952000 6.46900500 -1.0780823700000006 0 0 0
Hf 0.00000000 4.31267000 -3.2345118 0 0 0
Hf 0.00000000 4.31275625 1.05928938
Hf 3.04952000 6.46900500 3.32794737
Hf 3.04952000 2.15633500 3.32768268
Hf 0.00000000 0.00000000 1.05928938
Al 0.00000000 6.46900500 -1.0780823700000006 0 0 0
Al 3.04952000 0.00000000 -3.2345118 0 0 0
Al 0.00000000 2.15633500 -1.0780823700000006 0 0 0
Al 3.04952000 4.31267000 -3.2345118 0 0 0
Al 0.00000000 2.15633500 3.19851396
Al 3.04952000 4.31267000 1.12890285
Al 0.00000000 6.46900500 3.19851396
Al 3.04952000 0.00000000 1.12890285
Ni 1.52476000 0.00000000 -1.0780823700000006 0 0 0
Ni 4.57428000 4.31267000 -1.0780823700000006 0 0 0
Ni 4.57428000 0.00000000 -1.0780823700000006 0 0 0
Ni 1.52476000 4.31267000 -1.0780823700000006 0 0 0
Ni 4.57428000 6.46900500 -3.2345118 0 0 0
Ni 1.52476000 2.15633500 -3.2345118 0 0 0
Ni 1.52476000 6.46900500 -3.2345118 0 0 0
Ni 4.57428000 2.15633500 -3.2345118 0 0 0
Ni 1.46261078 4.31267000 3.12175386
Ni 4.63642922 0.00000000 3.12175386
Ni 4.63642922 4.31258375 3.12201855
Ni 1.46261078 0.00000000 3.12175386
Ni 4.47700031 2.15633500 1.14822522
Ni 1.62216167 6.46900500 1.14875460
Ni 1.62203969 2.15633500 1.14796053
Ni 4.47687833 6.46909125 1.14875460
