&CONTROL
calculation = 'relax'
prefix = 'scf'
pseudo_dir = '/vol0004/mdt0/data/hp150275/u10028/POT_KKJUS'
outdir = './data'
tprnfor = .true.
nstep = 50
disk_io = 'non'
/
&SYSTEM
ibrav = 0
ecutwfc = 50.0
ecutrho = 400
occupations = 'smearing'
smearing = 'mp'
degauss = 0.01
assume_isolated = 'esm'
esm_bc = 'bc1'
input_dft = 'BEEF-VDW'
nosym = .true.
nspin = 1
ntyp = 5
nat = 34
/
&ELECTRONS
electron_maxstep = 200
mixing_beta = 0.1
conv_thr = 1e-06
/
&IONS
ion_dynamics = 'bfgs'
upscale = 1.0
/
&CELL
/

K_POINTS {automatic}
9 6 2 0  0  0

ATOMIC_SPECIES
Ag 107.8 Ag.pbe-n-rrkjus_psl.1.0.0.UPF
C 12.01 C.pbe-n-rrkjus_psl.1.0.0.UPF
In 114.8 In.pbe-dn-rrkjus_psl.1.0.0.UPF
Li 6.941 Li.pbe-sl-rrkjus_psl.1.0.0.UPF
O 15.99 O.pbe-n-rrkjus_psl.1.0.0.UPF

CELL_PARAMETERS {angstrom}
6.74000000 0.00000000 0.00000000
0.00000000 9.53179000 0.00000000
0.00000000 0.00000000 27.14880000

ATOMIC_POSITIONS {angstrom}
Li 0.00000000 0.00000000 -3.574411010000002 0 0 0
Li 3.37000000 2.38294750 -1.1915608300000002 0 0 0
Li 3.37000000 7.14884250 -1.1915608300000002 0 0 0
Li 0.00000000 4.76589500 -3.574411010000002 0 0 0
Li 6.73993260 4.74911905 1.06776230
Li 3.36993260 7.14884250 3.64825574
Li 3.36993260 2.38294750 3.53287334
Li 6.73993260 0.01677595 1.06776230
In 0.00000000 7.14884250 -1.1915608300000002 0 0 0
In 3.37000000 0.00000000 -3.574411010000002 0 0 0
In 0.00000000 2.38294750 -1.1915608300000002 0 0 0
In 3.37000000 4.76589500 -3.574411010000002 0 0 0
In 6.73986520 2.38294750 3.83992627
In 3.36993260 4.82213256 1.17282816
In 6.73986520 7.14893782 4.25666035
In 3.36993260 9.47555244 1.17282816
Ag 1.68500000 0.00000000 -1.1915608300000002 0 0 0
Ag 5.05500000 4.76589500 -1.1915608300000002 0 0 0
Ag 5.05500000 0.00000000 -1.1915608300000002 0 0 0
Ag 1.68500000 4.76589500 -1.1915608300000002 0 0 0
Ag 5.05500000 7.14884250 -3.574411010000002 0 0 0
Ag 1.68500000 2.38294750 -3.574411010000002 0 0 0
Ag 1.68500000 7.14884250 -3.574411010000002 0 0 0
Ag 5.05500000 2.38294750 -3.574411010000002 0 0 0
Ag 1.55458100 4.80716765 3.43649510
Ag 5.18514940 9.49051735 3.43649510
Ag 5.18514940 4.80716765 3.43649510
Ag 1.55458100 9.49061267 3.43649510
Ag 5.05459560 2.38294750 1.27762253
Ag 1.54164020 7.14884250 1.40522189
Ag 1.68520220 2.38294750 1.27762253
Ag 5.19815760 7.14884250 1.40522189
C 0.00451580 2.38208964 7.66111987
O 6.73939340 2.38323345 8.79539674
