&CONTROL
calculation = 'relax'
prefix = 'scf'
pseudo_dir = '/vol0004/mdt0/data/hp150275/u10028/POT_KKJUS'
outdir = './data'
tprnfor = .true.
nstep = 50
disk_io = 'non'
/
&SYSTEM
ibrav = 0
ecutwfc = 50.0
ecutrho = 400
occupations = 'smearing'
smearing = 'mp'
degauss = 0.01
assume_isolated = 'esm'
esm_bc = 'bc1'
input_dft = 'BEEF-VDW'
nosym = .true.
nspin = 1
ntyp = 4
nat = 33
/
&ELECTRONS
electron_maxstep = 200
mixing_beta = 0.1
conv_thr = 1e-06
/
&IONS
ion_dynamics = 'bfgs'
upscale = 1.0
/
&CELL
/

K_POINTS {automatic}
8 6 1 0 0 0

ATOMIC_SPECIES
C 12.01 C.pbe-n-rrkjus_psl.1.0.0.UPF
In 114.8 In.pbe-dn-rrkjus_psl.1.0.0.UPF
Ir 192.2 Ir.pbe-n-rrkjus_psl.0.2.3.UPF
Li 6.941 Li.pbe-sl-rrkjus_psl.1.0.0.UPF

CELL_PARAMETERS {angstrom}
6.17944000 0.00000000 0.00000000
0.00000000 8.73904000 0.00000000
0.00000000 0.00000000 26.55430000

ATOMIC_POSITIONS {angstrom}
Li 1.54486000 0.00000000 -1.0924439000000028 0 0 0
Li 4.63458000 4.36952000 -1.0924439000000028 0 0 0
Li 4.63458000 0.00000000 -1.0924439000000028 0 0 0
Li 1.54486000 4.36952000 -1.0924439000000028 0 0 0
Li 4.63458000 6.55428000 -3.2770661600000004 0 0 0
Li 1.54486000 2.18476000 -3.2770661600000004 0 0 0
Li 1.54486000 6.55428000 -3.2770661600000004 0 0 0
Li 4.63458000 2.18476000 -3.2770661600000004 0 0 0
Li 1.32258554 4.36952000 3.85940196
Li 4.30954146 0.00000000 3.30866578
Li 4.85685446 4.36952000 3.85940196
Li 1.86989854 0.00000000 3.30866578
Li 4.65676419 2.17497228 1.07890121
Li 1.52267581 6.56406772 1.07890121
Li 1.52267581 2.17497228 1.07890121
Li 4.65676419 6.56406772 1.07890121
In 0.00000000 0.00000000 -3.2770661600000004 0 0 0
In 3.08972000 2.18476000 -1.0924439000000028 0 0 0
In 3.08972000 6.55428000 -1.0924439000000028 0 0 0
In 0.00000000 4.36952000 -3.2770661600000004 0 0 0
In 0.00000000 4.36952000 1.30062961
In 3.08972000 6.37880008 3.21041487
In 3.08972000 2.36023992 3.21041487
In 0.00000000 0.00000000 1.03455553
Ir 0.00000000 6.55428000 -1.0924439000000028 0 0 0
Ir 3.08972000 0.00000000 -3.2770661600000004 0 0 0
Ir 0.00000000 2.18476000 -1.0924439000000028 0 0 0
Ir 3.08972000 4.36952000 -3.2770661600000004 0 0 0
Ir 0.00000000 1.78040462 3.32061522
Ir 3.08972000 4.36952000 1.27221651
Ir 0.00000000 6.95863538 3.32061522
Ir 3.08972000 0.00000000 1.06110983
C 0.00000000 0.00000000 3.92100794
