&CONTROL
calculation = 'relax'
prefix = 'scf'
pseudo_dir = '/vol0004/mdt0/data/hp150275/u10028/POT_KKJUS'
outdir = './data'
tprnfor = .true.
nstep = 50
disk_io = 'non'
/
&SYSTEM
ibrav = 0
ecutwfc = 50.0
ecutrho = 400
occupations = 'smearing'
smearing = 'mp'
degauss = 0.01
assume_isolated = 'esm'
esm_bc = 'bc1'
input_dft = 'BEEF-VDW'
nosym = .true.
nspin = 1
ntyp = 2
nat = 32
/
&ELECTRONS
electron_maxstep = 200
mixing_beta = 0.1
conv_thr = 1e-06
/
&IONS
ion_dynamics = 'bfgs'
upscale = 1.0
/
&CELL
/

K_POINTS {automatic}
9 6 2 0  0  0

ATOMIC_SPECIES
In 114.8 In.pbe-dn-rrkjus_psl.1.0.0.UPF
Y 88.90 Y.pbe-spn-rrkjus_psl.1.0.0.UPF

CELL_PARAMETERS {angstrom}
7.55034000 0.00000000 0.00000000
0.00000000 10.67780000 0.00000000
0.00000000 0.00000000 28.00830000

ATOMIC_POSITIONS {angstrom}
Y 1.88758500 2.66945000 -4.004066569999999 0 0 0
Y 1.88758500 0.00000000 -1.334595499999999 0 0 0
Y 1.88758500 2.66945000 1.30882786
Y 1.88758500 0.00000000 4.01723047
Y 1.88758500 8.00835000 -4.004066569999999 0 0 0
Y 1.88758500 5.33890000 -1.334595499999999 0 0 0
Y 1.88758500 8.00835000 1.30882786
Y 1.88758500 5.33890000 4.01695039
Y 5.66275500 2.66945000 -4.004066569999999 0 0 0
Y 5.66275500 0.00000000 -1.334595499999999 0 0 0
Y 5.66275500 2.66945000 1.30882786
Y 5.66275500 0.00000000 4.01723047
Y 5.66275500 8.00835000 -4.004066569999999 0 0 0
Y 5.66275500 5.33890000 -1.334595499999999 0 0 0
Y 5.66275500 8.00835000 1.30882786
Y 5.66275500 5.33890000 4.01695039
In 0.00000000 0.00000000 -4.004066569999999 0 0 0
In 0.00000000 2.66945000 -1.334595499999999 0 0 0
In 0.00000000 0.00000000 1.37072620
In 0.00000000 2.66934322 4.09117238
In 0.00000000 5.33890000 -4.004066569999999 0 0 0
In 0.00000000 8.00835000 -1.334595499999999 0 0 0
In 0.00000000 5.33890000 1.37044612
In 0.00000000 8.00845678 4.09117238
In 3.77517000 0.00000000 -4.004066569999999 0 0 0
In 3.77517000 2.66945000 -1.334595499999999 0 0 0
In 3.77517000 0.00000000 1.37072620
In 3.77517000 2.66934322 4.09117238
In 3.77517000 5.33890000 -4.004066569999999 0 0 0
In 3.77517000 8.00835000 -1.334595499999999 0 0 0
In 3.77517000 5.33890000 1.37044612
In 3.77517000 8.00845678 4.09117238
