&CONTROL
calculation = 'relax'
prefix = 'scf'
pseudo_dir = '/vol0004/mdt0/data/hp150275/u10028/POT_KKJUS'
outdir = './data'
tprnfor = .true.
nstep = 50
disk_io = 'non'
/
&SYSTEM
ibrav = 0
ecutwfc = 50.0
ecutrho = 400
occupations = 'smearing'
smearing = 'mp'
degauss = 0.01
assume_isolated = 'esm'
esm_bc = 'bc1'
input_dft = 'BEEF-VDW'
nosym = .true.
nspin = 1
ntyp = 4
nat = 33
/
&ELECTRONS
electron_maxstep = 200
mixing_beta = 0.1
conv_thr = 1e-06
/
&IONS
ion_dynamics = 'bfgs'
upscale = 1.0
/
&CELL
/

K_POINTS {automatic}
9 6 2 0  0  0

ATOMIC_SPECIES
Al 26.98 Al.pbe-nl-rrkjus_psl.1.0.0.UPF
Au 196.9 Au.pbe-n-rrkjus_psl.1.0.0.UPF
C 12.01 C.pbe-n-rrkjus_psl.1.0.0.UPF
Sc 44.95 Sc.pbe-spn-rrkjus_psl.1.0.0.UPF

CELL_PARAMETERS {angstrom}
6.63475000 0.00000000 0.00000000
0.00000000 9.38295000 0.00000000
0.00000000 0.00000000 27.03720000

ATOMIC_POSITIONS {angstrom}
Sc 0.00000000 0.00000000 -3.518621209999999 0 0 0
Sc 3.31737500 2.34573750 -1.17287374 0 0 0
Sc 3.31737500 7.03721250 -1.17287374 0 0 0
Sc 0.00000000 4.69147500 -3.518621209999999 0 0 0
Sc 0.00033174 4.69063053 1.31617090
Sc 3.31604805 7.25020547 3.39614269
Sc 3.31419032 2.13330751 3.40155013
Sc 6.63441826 0.00187659 1.36700083
Al 0.00000000 7.03721250 -1.17287374 0 0 0
Al 3.31737500 0.00000000 -3.518621209999999 0 0 0
Al 0.00000000 2.34573750 -1.17287374 0 0 0
Al 3.31737500 4.69147500 -3.518621209999999 0 0 0
Al 6.63362209 2.47146903 3.47536169
Al 3.31691057 4.69363308 1.17368485
Al 0.00033174 6.91119948 3.47319871
Al 3.31691057 0.00018766 1.16232923
Au 1.65868750 0.00000000 -1.17287374 0 0 0
Au 4.97606250 4.69147500 -1.17287374 0 0 0
Au 4.97606250 0.00000000 -1.17287374 0 0 0
Au 1.65868750 4.69147500 -1.17287374 0 0 0
Au 4.97606250 7.03721250 -3.518621209999999 0 0 0
Au 1.65868750 2.34573750 -3.518621209999999 0 0 0
Au 1.65868750 7.03721250 -3.518621209999999 0 0 0
Au 4.97606250 2.34573750 -3.518621209999999 0 0 0
Au 1.75064514 4.69016139 3.53511390
Au 5.32133489 0.00431616 3.96933133
Au 4.88105288 4.69438371 3.53159906
Au 1.30585149 9.37722640 3.97122394
Au 5.00047838 2.38692865 1.10690297
Au 1.62836669 6.99536454 1.10311776
Au 1.63241389 2.38702248 1.10419925
Au 5.00525540 6.99630284 1.10555111
C 3.31253163 9.38257468 3.20769341
