&CONTROL
calculation = 'relax'
prefix = 'scf'
pseudo_dir = '/vol0403/data/hp230205/u10028/POT_HYBRID_KKJUS_GBRV'
outdir = './data'
tprnfor = .true.
nstep = 50
disk_io = 'non'
/
&SYSTEM
ibrav = 0
ecutwfc = 50.0
ecutrho = 400
occupations = 'smearing'
smearing = 'mp'
degauss = 0.01
assume_isolated = 'esm'
esm_bc = 'bc1'
input_dft = 'BEEF-VDW'
nosym = .true.
nspin = 1
ntyp = 5
nat = 33
/
&ELECTRONS
electron_maxstep = 200
mixing_beta = 0.1
conv_thr = 1e-06
/
&IONS
ion_dynamics = 'bfgs'
upscale = 1.0
/
&CELL
/

K_POINTS {automatic}
9 6 2 0  0  0

ATOMIC_SPECIES
C 12.01 C.pbe-n-rrkjus_psl.1.0.0.UPF
Ge 72.64 Ge.pbe-dn-rrkjus_psl.1.0.0.UPF
Li 6.941 Li.pbe-sl-rrkjus_psl.1.0.0.UPF
Mg 24.30 Mg.pbe-spnl-rrkjus_psl.1.0.0.UPF
Pd 106.4 Pd.pbe-n-rrkjus_psl.1.0.0.UPF


CELL_PARAMETERS {angstrom}
6.25843000 0.00000000 0.00000000
0.00000000 8.85076000 0.00000000
0.00000000 0.00000000 26.63810000

ATOMIC_POSITIONS {angstrom}
Li 1.56460750 0.00000000 -1.1062802900000008 0 0 0
Li 1.56460750 4.42538000 -1.1062802900000008 0 0 0
Li 4.69382250 2.21269000 -3.3191072600000027 0 0 0
Li 4.69382250 6.63807000 -3.3191072600000027 0 0 0
Li 1.81087672 4.66877590 3.79033525
Li 1.81087672 8.60736410 3.79033525
Li 4.77430591 6.63807000 1.09855524
Li 4.58311087 2.21269000 1.44378502
Mg 0.00000000 2.21269000 -1.1062802900000008 0 0 0
Mg 0.00000000 6.63807000 -1.1062802900000008 0 0 0
Mg 3.12921500 4.42538000 -3.3191072600000027 0 0 0
Mg 3.12921500 0.00000000 -3.3191072600000027 0 0 0
Mg 6.04201349 6.63815851 3.46748148
Mg 0.36736984 2.21269000 3.34068412
Mg 3.05117238 8.74074505 1.13771325
Mg 3.05117238 4.53539495 1.13771325
Ge 0.00000000 0.00000000 -3.3191072600000027 0 0 0
Ge 0.00000000 4.42538000 -3.3191072600000027 0 0 0
Ge 3.12921500 6.63807000 -1.1062802900000008 0 0 0
Ge 3.12921500 2.21269000 -1.1062802900000008 0 0 0
Ge 0.03736283 4.37192141 1.27330118
Ge 0.03736283 0.05345859 1.27330118
Ge 2.85547127 2.21269000 4.33375249
Ge 3.30413812 6.63807000 3.39822242
Pd 4.69382250 0.00000000 -1.1062802900000008 0 0 0
Pd 4.69382250 4.42538000 -1.1062802900000008 0 0 0
Pd 1.56460750 2.21269000 -3.3191072600000027 0 0 0
Pd 1.56460750 6.63807000 -3.3191072600000027 0 0 0
Pd 4.57691503 4.29969921 3.30472269
Pd 4.57691503 0.12576930 3.30472269
Pd 1.38499056 6.63807000 1.24266736
Pd 1.57637335 2.21269000 0.96323370
C 4.60551605 2.21277851 3.76316439
