&CONTROL
calculation = 'relax'
prefix = 'scf'
pseudo_dir = '/vol0004/mdt0/data/hp150275/u10028/POT_KKJUS'
outdir = './data'
tprnfor = .true.
nstep = 50
disk_io = 'non'
/
&SYSTEM
ibrav = 0
ecutwfc = 50.0
ecutrho = 400
occupations = 'smearing'
smearing = 'mp'
degauss = 0.01
assume_isolated = 'esm'
esm_bc = 'bc1'
input_dft = 'BEEF-VDW'
nosym = .true.
nspin = 1
ntyp = 4
nat = 17
/
&ELECTRONS
electron_maxstep = 200
mixing_beta = 0.1
conv_thr = 1e-06
/
&IONS
ion_dynamics = 'bfgs'
upscale = 1.0
/
&CELL
/

K_POINTS {automatic}
8 8 1 0 0 0

ATOMIC_SPECIES
Al 26.98 Al.pbe-nl-rrkjus_psl.1.0.0.UPF
C 12.01 C.pbe-n-rrkjus_psl.1.0.0.UPF
Li 6.941 Li.pbe-sl-rrkjus_psl.1.0.0.UPF
Pt 195.0 Pt.pbe-n-rrkjus_psl.1.0.0.UPF

CELL_PARAMETERS {angstrom}
6.07419000 0.00000000 0.00000000
0.00000000 6.07419000 0.00000000
0.00000000 0.00000000 24.55560000

ATOMIC_POSITIONS {angstrom}
Li 0.00000000 0.00000000 -0.7592591499999983 0 0 0
Li 3.02907707 6.06252756 2.72567160
Li 0.01166244 3.04511293 2.72591716
Li 3.03709500 3.03709500 -0.7592591499999983 0 0 0
Li 1.51994456 1.52249572 0.77399251
Li 1.51854750 4.55564250 -2.2777774599999994 0 0 0
Li 4.55169428 4.55424544 0.77399251
Li 4.55564250 1.51854750 -2.2777774599999994 0 0 0
Al 5.94140821 0.13272105 2.41725326
Al 3.17546505 2.89872495 2.41356992
Al 3.03709500 0.00000000 -0.7592591499999983 0 0 0
Al 0.00000000 3.03709500 -0.7592591499999983 0 0 0
Pt 1.51854750 1.51854750 -2.2777774599999994 0 0 0
Pt 1.51818305 4.55600695 0.97780399
Pt 4.55564250 4.55564250 -2.2777774599999994 0 0 0
Pt 4.55673585 1.51739340 0.58393217
C 4.55952998 1.51466002 2.78828838
