&CONTROL
calculation = 'relax'
prefix = 'scf'
pseudo_dir = '/vol0403/data/hp230205/u10028/POT_HYBRID_KKJUS_GBRV'
outdir = './data'
tprnfor = .true.
nstep = 50
disk_io = 'non'
/
&SYSTEM
ibrav = 0
ecutwfc = 50.0
ecutrho = 400
occupations = 'smearing'
smearing = 'mp'
degauss = 0.01
assume_isolated = 'esm'
esm_bc = 'bc1'
input_dft = 'BEEF-VDW'
nosym = .true.
nspin = 1
ntyp = 5
nat = 17
/
&ELECTRONS
electron_maxstep = 200
mixing_beta = 0.1
conv_thr = 1e-06
/
&IONS
ion_dynamics = 'bfgs'
upscale = 1.0
/
&CELL
/

K_POINTS {automatic}
8 8 1 0 0 0

ATOMIC_SPECIES
C 12.01 C.pbe-n-rrkjus_psl.1.0.0.UPF
Ga 69.72 Ga.pbe-dnl-rrkjus_psl.1.0.0.UPF
Ge 72.64 Ge.pbe-dn-rrkjus_psl.1.0.0.UPF
Li 6.941 Li.pbe-sl-rrkjus_psl.1.0.0.UPF
Pd 106.4 Pd.pbe-n-rrkjus_psl.1.0.0.UPF


CELL_PARAMETERS {angstrom}
6.27488000 0.00000000 0.00000000
0.00000000 6.27488000 0.00000000
0.00000000 0.00000000 24.70620000

ATOMIC_POSITIONS {angstrom}
Li 4.70979943 1.56508057 0.59961947
Li 4.70616000 4.70616000 -2.35301849 0 0 0
Li 1.56872000 1.56872000 -2.35301849 0 0 0
Li 1.56577081 4.70910919 1.07743738
Ga 6.18213727 0.09280548 2.35203024
Ga 0.00000000 3.13744000 -0.7844218499999975 0 0 0
Ga 3.13744000 0.00000000 -0.7844218499999975 0 0 0
Ga 3.23520263 3.03961462 2.34955962
Ge 6.11443132 2.97586184 2.56376237
Ge 0.00000000 0.00000000 -0.7844218499999975 0 0 0
Ge 3.13744000 3.13744000 -0.7844218499999975 0 0 0
Ge 3.29908091 0.16038593 2.56376237
Pd 1.56978673 1.56915924 0.75502147
Pd 1.56872000 4.70616000 -2.35301849 0 0 0
Pd 4.70616000 1.56872000 -2.35301849 0 0 0
Pd 4.70565801 4.70509327 0.75502147
C 4.71299962 1.56188038 2.73052922
