&CONTROL
calculation = 'relax'
prefix = 'scf'
pseudo_dir = '/vol0004/mdt0/data/hp150275/u10028/POT_HYBRID_KKJUS_GBRV'
outdir = './data'
tprnfor = .true.
nstep = 50
disk_io = 'non'
/
&SYSTEM
ibrav = 0
ecutwfc = 50.0
ecutrho = 400
occupations = 'smearing'
smearing = 'mp'
degauss = 0.01
assume_isolated = 'esm'
esm_bc = 'bc1'
input_dft = 'BEEF-VDW'
nosym = .true.
nspin = 2
ntyp = 5
nat = 34
starting_magnetization(1) = 0.0
starting_magnetization(2) = 0.0
starting_magnetization(3) = 0.001
starting_magnetization(4) = 0.0
starting_magnetization(5) = 0.0
/
&ELECTRONS
electron_maxstep = 200
mixing_beta = 0.1
conv_thr = 1e-06
/
&IONS
ion_dynamics = 'bfgs'
upscale = 1.0
/
&CELL
/

K_POINTS {automatic}
9 6 2 0  0  0

ATOMIC_SPECIES
C 12.01 C.pbe-n-rrkjus_psl.1.0.0.UPF
Ga 69.72 Ga.pbe-dnl-rrkjus_psl.1.0.0.UPF
Ni 58.69 ni_pbe_v1.4.uspp.F.UPF
O 15.99 O.pbe-n-rrkjus_psl.1.0.0.UPF
Ti 47.86 Ti.pbe-spn-rrkjus_psl.1.0.0.UPF

CELL_PARAMETERS {angstrom}
5.91339000 0.00000000 0.00000000
0.00000000 8.36280000 0.00000000
0.00000000 0.00000000 26.27210000

ATOMIC_POSITIONS {angstrom}
Ti 0.00000000 0.00000000 23.13599942
Ti 2.95669500 2.09070000 25.22673314
Ti 2.95669500 6.27210000 25.22673314
Ti 0.00000000 4.18140000 23.13599942
Ti 0.00000000 4.19544950 1.05981651
Ti 2.95669500 6.27201637 3.17472056
Ti 2.95669500 2.09078363 3.14371949
Ti 0.00000000 8.34875050 1.06007923
Ga 0.00000000 6.27210000 25.22673314
Ga 2.95669500 0.00000000 23.13599942
Ga 0.00000000 2.09070000 25.22673314
Ga 2.95669500 4.18140000 23.13599942
Ga 0.00000000 2.09095088 3.16316084
Ga 2.95669500 4.16567794 1.04326509
Ga 0.00000000 6.27151460 3.18233947
Ga 2.95669500 0.01572206 1.04326509
Ni 1.47834750 0.00000000 25.22673314
Ni 4.43504250 4.18140000 25.22673314
Ni 4.43504250 0.00000000 25.22673314
Ni 1.47834750 4.18140000 25.22673314
Ni 4.43504250 6.27210000 23.13599942
Ni 1.47834750 2.09070000 23.13599942
Ni 1.47834750 6.27210000 23.13599942
Ni 4.43504250 2.09070000 23.13599942
Ni 1.45185551 4.19118448 3.03337667
Ni 4.46129795 8.35301552 3.03337667
Ni 4.46153449 4.19118448 3.03337667
Ni 1.45209205 8.35301552 3.03337667
Ni 4.42493060 2.09095088 1.02960360
Ni 1.55451196 6.27210000 1.08582589
Ni 1.48845940 2.09095088 1.02960360
Ni 4.35887804 6.27210000 1.08582589
C 2.95669500 2.09070000 5.28542108
O 2.95669500 2.09070000 6.43508817
