&CONTROL
calculation = 'relax'
prefix = 'scf'
pseudo_dir = '/vol0403/data/hp230205/u10028/POT_HYBRID_KKJUS_GBRV'
outdir = './data'
tprnfor = .true.
nstep = 50
disk_io = 'non'
/
&SYSTEM
ibrav = 0
ecutwfc = 50.0
ecutrho = 400
occupations = 'smearing'
smearing = 'mp'
degauss = 0.01
assume_isolated = 'esm'
esm_bc = 'bc1'
input_dft = 'BEEF-VDW'
nosym = .true.
nspin = 1
ntyp = 4
nat = 32
/
&ELECTRONS
electron_maxstep = 200
mixing_beta = 0.1
conv_thr = 1e-06
/
&IONS
ion_dynamics = 'bfgs'
upscale = 1.0
/
&CELL
/

K_POINTS {automatic}
6 6 1 0 0 0

ATOMIC_SPECIES
Cu 63.54 Cu.pbe-dn-rrkjus_psl.1.0.0.UPF
Ge 72.64 Ge.pbe-dn-rrkjus_psl.1.0.0.UPF
In 114.8 In.pbe-dn-rrkjus_psl.1.0.0.UPF
Li 6.941 Li.pbe-sl-rrkjus_psl.1.0.0.UPF


CELL_PARAMETERS {angstrom}
6.49386000 0.00000000 0.00000000
0.00000000 9.18370000 0.00000000
0.00000000 0.00000000 26.88780000

ATOMIC_POSITIONS {angstrom}
Li 0.00000000 2.29592500 -1.1478401799999993 0 0 0
Li 0.00000000 6.88777500 -1.1478401799999993 0 0 0
Li 3.24693000 4.59185000 -3.443789419999998 0 0 0
Li 3.24693000 0.00000000 -3.443789419999998 0 0 0
Li 0.00000000 6.88777500 3.44378942
Li 0.00000000 2.29592500 3.44378942
Li 3.24693000 0.00000000 1.14784018
Li 3.24693000 4.59185000 1.14784018
In 1.62346500 0.00000000 -1.1478401799999993 0 0 0
In 1.62346500 4.59185000 -1.1478401799999993 0 0 0
In 4.87039500 2.29592500 -3.443789419999998 0 0 0
In 4.87039500 6.88777500 -3.443789419999998 0 0 0
In 1.62346500 4.59185000 3.44378942
In 1.62346500 0.00000000 3.44378942
In 4.87039500 6.88777500 1.14784018
In 4.87039500 2.29592500 1.14784018
Cu 0.00000000 0.00000000 -3.443789419999998 0 0 0
Cu 0.00000000 4.59185000 -3.443789419999998 0 0 0
Cu 3.24693000 6.88777500 -1.1478401799999993 0 0 0
Cu 3.24693000 2.29592500 -1.1478401799999993 0 0 0
Cu 0.00000000 4.59185000 1.14784018
Cu 0.00000000 0.00000000 1.14784018
Cu 3.24693000 2.29592500 3.44378942
Cu 3.24693000 6.88777500 3.44378942
Ge 4.87039500 0.00000000 -1.1478401799999993 0 0 0
Ge 4.87039500 4.59185000 -1.1478401799999993 0 0 0
Ge 1.62346500 2.29592500 -3.443789419999998 0 0 0
Ge 1.62346500 6.88777500 -3.443789419999998 0 0 0
Ge 4.87039500 4.59185000 3.44378942
Ge 4.87039500 0.00000000 3.44378942
Ge 1.62346500 6.88777500 1.14784018
Ge 1.62346500 2.29592500 1.14784018
