&CONTROL
calculation = 'relax'
prefix = 'scf'
pseudo_dir = '/vol0403/data/hp230205/u10028/POT_HYBRID_KKJUS_GBRV'
outdir = './data'
tprnfor = .true.
nstep = 50
disk_io = 'non'
/
&SYSTEM
ibrav = 0
ecutwfc = 50.0
ecutrho = 400
occupations = 'smearing'
smearing = 'mp'
degauss = 0.01
assume_isolated = 'esm'
esm_bc = 'bc1'
input_dft = 'BEEF-VDW'
nosym = .true.
nspin = 1
ntyp = 6
nat = 18
/
&ELECTRONS
electron_maxstep = 200
mixing_beta = 0.1
conv_thr = 1e-06
/
&IONS
ion_dynamics = 'bfgs'
upscale = 1.0
/
&CELL
/

K_POINTS {automatic}
6 6 1 0 0 0

ATOMIC_SPECIES
C 12.01 C.pbe-n-rrkjus_psl.1.0.0.UPF
Ge 72.64 Ge.pbe-dn-rrkjus_psl.1.0.0.UPF
Li 6.941 Li.pbe-sl-rrkjus_psl.1.0.0.UPF
O 15.99 O.pbe-n-rrkjus_psl.1.0.0.UPF
Pb 207.2 Pb.pbe-dn-rrkjus_psl.1.0.0.UPF
Y 88.90 Y.pbe-spn-rrkjus_psl.1.0.0.UPF


CELL_PARAMETERS {angstrom}
6.52719000 0.00000000 0.00000000
0.00000000 8.65500000 0.00000000
0.00000000 0.00000000 24.84630000

ATOMIC_POSITIONS {angstrom}
Li 3.26359500 0.00000000 -2.4232596399999977 0 0 0
Li 6.03738966 0.00034620 0.70737416
Li 3.26359500 4.32750000 -2.4232596399999977 0 0 0
Li 6.03732439 4.32715380 0.70737416
Y 1.40132242 2.16375000 -0.8077532099999978 0 0 0
Y 3.75476605 2.16375000 2.38872328
Y 1.40132242 6.49125000 -0.8077532099999978 0 0 0
Y 3.74484472 6.49116345 2.37729398
Ge 0.00000000 0.00000000 -2.4232596399999977 0 0 0
Ge 2.26500020 8.63725725 1.12528893
Ge 0.00000000 4.32750000 -2.4232596399999977 0 0 0
Ge 2.26500020 4.34524275 1.12528893
Pb 4.66491742 2.16375000 -0.8077532099999978 0 0 0
Pb 0.56081616 2.16375000 2.83868978
Pb 4.66491742 6.49125000 -0.8077532099999978 0 0 0
Pb 0.55657349 6.49116345 2.79471182
C 4.12002760 2.16375000 4.84279233
O 4.28366425 2.16366345 5.98224365
