&CONTROL
calculation = 'relax'
prefix = 'scf'
pseudo_dir = '/vol0004/mdt0/data/hp150275/u10028/POT_KKJUS'
outdir = './data'
tprnfor = .true.
nstep = 50
disk_io = 'non'
/
&SYSTEM
ibrav = 0
ecutwfc = 50.0
ecutrho = 400
occupations = 'smearing'
smearing = 'mp'
degauss = 0.01
assume_isolated = 'esm'
esm_bc = 'bc1'
input_dft = 'BEEF-VDW'
nosym = .true.
nspin = 1
ntyp = 5
nat = 18
/
&ELECTRONS
electron_maxstep = 200
mixing_beta = 0.1
conv_thr = 1e-06
/
&IONS
ion_dynamics = 'bfgs'
upscale = 1.0
/
&CELL
/

K_POINTS {automatic}
10 10 2 0  0  0

ATOMIC_SPECIES
C 12.01 C.pbe-n-rrkjus_psl.1.0.0.UPF
Cu 63.54 Cu.pbe-dn-rrkjus_psl.1.0.0.UPF
Ni 58.69 Ni.pbe-spn-rrkjus_psl.1.0.0.UPF
O 15.99 O.pbe-n-rrkjus_psl.1.0.0.UPF
Sn 118.7 Sn.pbe-dn-rrkjus_psl.1.0.0.UPF

CELL_PARAMETERS {angstrom}
6.14873000 0.00000000 0.00000000
-0.00000000 6.14873000 0.00000000
0.00000000 0.00000000 24.61150000

ATOMIC_POSITIONS {angstrom}
Cu 1.53718250 1.53718250 -0.7686171500000007 0 0 0
Cu 4.61154750 4.61154750 2.30585143
Cu 4.61154750 1.53718250 -0.7686171500000007 0 0 0
Cu 1.53718250 4.61154750 2.30585143
Cu 4.61154750 4.61154750 -0.7686171500000007 0 0 0
Cu 1.53718250 1.53718250 2.30585143
Cu 1.53718250 4.61154750 -0.7686171500000007 0 0 0
Cu 4.61154750 1.53718250 2.30585143
Ni 0.00000000 0.00000000 -2.305851439999998 0 0 0
Ni 3.07436500 3.07436500 -2.305851439999998 0 0 0
Ni 3.07436500 -0.00000000 0.76861715
Ni 0.00000000 3.07436500 0.76861715
Sn 0.00000000 0.00000000 0.76861715
Sn 3.07436500 0.00000000 -2.305851439999998 0 0 0
Sn 0.00000000 3.07436500 -2.305851439999998 0 0 0
Sn 3.07436500 3.07436500 0.76861715
C 1.53718250 1.53718250 4.20585923
O 1.53718250 1.53718250 5.35570851
