&CONTROL
calculation = 'relax'
prefix = 'scf'
pseudo_dir = '/vol0004/mdt0/data/hp150275/u10028/POT_HYBRID_KKJUS_GBRV'
outdir = './data'
tprnfor = .true.
nstep = 50
disk_io = 'non'
/
&SYSTEM
ibrav = 0
ecutwfc = 50.0
ecutrho = 400
occupations = 'smearing'
smearing = 'mp'
degauss = 0.01
assume_isolated = 'esm'
esm_bc = 'bc1'
input_dft = 'BEEF-VDW'
nosym = .true.
nspin = 2
ntyp = 3
nat = 33
starting_magnetization(1) = 0.1
starting_magnetization(2) = 0.1
starting_magnetization(3) = 0.1
/
&ELECTRONS
electron_maxstep = 200
mixing_beta = 0.1
conv_thr = 1e-06
/
&IONS
ion_dynamics = 'bfgs'
upscale = 1.0
/
&CELL
/

K_POINTS {automatic}
8 6 1 0 0 0

ATOMIC_SPECIES
C 12.01 C.pbe-n-rrkjus_psl.1.0.0.UPF
Fe 55.84 fe_pbe_v1.5.uspp.F.UPF
V 50.94 V.pbe-spnl-rrkjus_psl.1.0.0.UPF

CELL_PARAMETERS {angstrom}
5.79956000 0.00000000 0.00000000
0.00000000 8.20182000 0.00000000
0.00000000 0.00000000 26.15140000

ATOMIC_POSITIONS {angstrom}
V 1.44989000 2.05045500 -3.07566615 0 0 0
V 1.44989000 0.00000000 -1.0251348799999995 0 0 0
V 1.44345249 2.04742033 1.05416293
V 1.57846625 8.20173798 3.07540464
V 1.44989000 6.15136500 -3.07566615 0 0 0
V 1.44989000 4.10091000 -1.0251348799999995 0 0 0
V 1.44351048 6.15448169 1.05416293
V 1.43939280 4.10107404 3.11724688
V 4.34967000 2.05045500 -3.07566615 0 0 0
V 4.34967000 0.00000000 -1.0251348799999995 0 0 0
V 4.35604952 2.04742033 1.05416293
V 4.22109375 8.20173798 3.07540464
V 4.34967000 6.15136500 -3.07566615 0 0 0
V 4.34967000 4.10091000 -1.0251348799999995 0 0 0
V 4.35604952 6.15448169 1.05416293
V 4.36016720 4.10107404 3.11724688
Fe 0.00000000 0.00000000 -3.07566615 0 0 0
Fe 0.00000000 2.05045500 -1.0251348799999995 0 0 0
Fe 0.00000000 0.00032807 0.99087655
Fe 0.00000000 1.96819075 3.18053327
Fe 0.00000000 4.10091000 -3.07566615 0 0 0
Fe 0.00000000 6.15136500 -1.0251348799999995 0 0 0
Fe 0.00000000 4.10058193 1.08214493
Fe 0.00000000 6.23362925 3.18079478
Fe 2.89978000 0.00000000 -3.07566615 0 0 0
Fe 2.89978000 2.05045500 -1.0251348799999995 0 0 0
Fe 2.89978000 0.00032807 0.90876115
Fe 2.89978000 2.10950810 2.93967887
Fe 2.89978000 4.10091000 -3.07566615 0 0 0
Fe 2.89978000 6.15136500 -1.0251348799999995 0 0 0
Fe 2.89978000 4.10058193 1.02670396
Fe 2.89978000 6.09231190 2.93994039
C 0.00000000 8.20173798 4.06340453
