&CONTROL
calculation = 'relax'
prefix = 'scf'
pseudo_dir = '/vol0004/mdt0/data/hp150275/u10028/POT_HYBRID_KKJUS_GBRV'
outdir = './data'
tprnfor = .true.
nstep = 50
disk_io = 'non'
/
&SYSTEM
ibrav = 0
ecutwfc = 50.0
ecutrho = 400
occupations = 'smearing'
smearing = 'mp'
degauss = 0.01
assume_isolated = 'esm'
esm_bc = 'bc1'
input_dft = 'BEEF-VDW'
nosym = .true.
nspin = 2
ntyp = 2
nat = 16
starting_magnetization(1) = 0.01
starting_magnetization(2) = 0.0
/
&ELECTRONS
electron_maxstep = 200
mixing_beta = 0.1
conv_thr = 1e-06
/
&IONS
ion_dynamics = 'bfgs'
upscale = 1.0
/
&CELL
/

K_POINTS {automatic}
10 10 2 0  0  0

ATOMIC_SPECIES
Ni 58.69 ni_pbe_v1.4.uspp.F.UPF
Pt 195.0 Pt.pbe-n-rrkjus_psl.1.0.0.UPF

CELL_PARAMETERS {angstrom}
5.63476000 0.00000000 0.00000000
-0.00000000 5.63476000 0.00000000
0.00000000 0.00000000 25.27280000

ATOMIC_POSITIONS {angstrom}
Ni 0.00000000 0.00000000 23.10869014
Ni 0.00000000 0.00000000 1.35108389
Ni 0.00000000 2.81738000 23.10869014
Ni 0.00000000 2.81738000 1.35108389
Ni 2.81738000 0.00000000 23.10869014
Ni 2.81738000 -0.00000000 1.35108389
Ni 2.81738000 2.81738000 23.10869014
Ni 2.81738000 2.81738000 1.35108389
Pt 1.40869000 1.40869000 24.86641338
Pt 1.40869000 1.40869000 3.10880713
Pt 1.40869000 4.22607000 24.86641338
Pt 1.40869000 4.22607000 3.10880713
Pt 4.22607000 1.40869000 24.86641338
Pt 4.22607000 1.40869000 3.10880713
Pt 4.22607000 4.22607000 24.86641338
Pt 4.22607000 4.22607000 3.10880713
