&CONTROL
calculation = 'relax'
prefix = 'scf'
pseudo_dir = '/vol0403/data/hp230205/u10028/POT_HYBRID_KKJUS_GBRV'
outdir = './data'
tprnfor = .true.
nstep = 50
disk_io = 'non'
/
&SYSTEM
ibrav = 0
ecutwfc = 50.0
ecutrho = 400
occupations = 'smearing'
smearing = 'mp'
degauss = 0.01
assume_isolated = 'esm'
esm_bc = 'bc1'
input_dft = 'BEEF-VDW'
nosym = .true.
nspin = 1
ntyp = 6
nat = 34
/
&ELECTRONS
electron_maxstep = 200
mixing_beta = 0.1
conv_thr = 1e-06
/
&IONS
ion_dynamics = 'bfgs'
upscale = 1.0
/
&CELL
/

K_POINTS {automatic}
9 6 2 0  0  0

ATOMIC_SPECIES
Al 26.98 Al.pbe-nl-rrkjus_psl.1.0.0.UPF
C 12.01 C.pbe-n-rrkjus_psl.1.0.0.UPF
Li 6.941 Li.pbe-sl-rrkjus_psl.1.0.0.UPF
O 15.99 O.pbe-n-rrkjus_psl.1.0.0.UPF
Pd 106.4 Pd.pbe-n-rrkjus_psl.1.0.0.UPF
Ti 47.86 Ti.pbe-spn-rrkjus_psl.1.0.0.UPF


CELL_PARAMETERS {angstrom}
6.17553000 0.00000000 0.00000000
0.00000000 8.73352000 0.00000000
0.00000000 0.00000000 26.55010000

ATOMIC_POSITIONS {angstrom}
Li 4.63164750 0.00000000 -1.09174011 0 0 0
Li 4.63164750 4.36676000 -1.09174011 0 0 0
Li 1.54388250 2.18338000 -3.274954830000002 0 0 0
Li 1.54388250 6.55014000 -3.274954830000002 0 0 0
Li 4.37289279 4.31086547 4.10278695
Li 3.74792916 8.71046351 4.85256178
Li 1.50880549 6.54638459 1.07926156
Li 1.45618997 2.13979974 1.10289115
Ti 0.00000000 2.18338000 -1.09174011 0 0 0
Ti 0.00000000 6.55014000 -1.09174011 0 0 0
Ti 3.08776500 4.36676000 -3.274954830000002 0 0 0
Ti 3.08776500 0.00000000 -3.274954830000002 0 0 0
Ti 5.98742336 6.71529086 3.27495483
Ti 5.97000836 1.84644080 3.40292632
Ti 3.20590289 8.72059439 1.17829344
Ti 3.15594285 4.34117079 1.20802955
Al 0.00000000 0.00000000 -3.274954830000002 0 0 0
Al 0.00000000 4.36676000 -3.274954830000002 0 0 0
Al 3.08776500 6.55014000 -1.09174011 0 0 0
Al 3.08776500 2.18338000 -1.09174011 0 0 0
Al 6.14020597 4.34632356 1.18944448
Al 6.17133064 8.71255955 1.06864153
Al 2.93183287 2.15552007 3.16530292
Al 3.00840944 6.48804467 3.18999452
Pd 1.54388250 0.00000000 -1.09174011 0 0 0
Pd 1.54388250 4.36676000 -1.09174011 0 0 0
Pd 4.63164750 2.18338000 -3.274954830000002 0 0 0
Pd 4.63164750 6.55014000 -3.274954830000002 0 0 0
Pd 1.46193322 4.31601825 3.20433157
Pd 1.65794454 8.66033310 3.11326473
Pd 4.66684802 6.52690884 1.00598329
Pd 4.67067685 2.14949394 1.06173850
C 5.86039270 8.36068603 4.33695883
O 5.55779173 0.71527529 5.01318988
