&CONTROL
calculation = 'relax'
prefix = 'scf'
pseudo_dir = '/vol0004/mdt0/data/hp150275/u10028/POT_KKJUS'
outdir = './data'
tprnfor = .true.
nstep = 50
disk_io = 'non'
/
&SYSTEM
ibrav = 0
ecutwfc = 50.0
ecutrho = 400
occupations = 'smearing'
smearing = 'mp'
degauss = 0.01
assume_isolated = 'esm'
esm_bc = 'bc1'
input_dft = 'BEEF-VDW'
nosym = .true.
nspin = 1
ntyp = 2
nat = 32
/
&ELECTRONS
electron_maxstep = 200
mixing_beta = 0.1
conv_thr = 1e-06
/
&IONS
ion_dynamics = 'bfgs'
upscale = 1.0
/
&CELL
/

K_POINTS {automatic}
8 6 1 0 0 0

ATOMIC_SPECIES
Y 88.90 Y.pbe-spn-rrkjus_psl.1.0.0.UPF
Zn 65.40 Zn.pbe-dnl-rrkjus_psl.1.0.0.UPF

CELL_PARAMETERS {angstrom}
7.16718000 0.00000000 0.00000000
0.00000000 10.13590000 0.00000000
0.00000000 0.00000000 27.60190000

ATOMIC_POSITIONS {angstrom}
Y 0.00000000 0.00000000 -3.8010576500000006 0 0 0
Y 0.00000000 2.53397500 -1.2669272100000022 0 0 0
Y 0.00000000 10.13539320 1.22248815
Y 0.00000000 2.53397500 3.73288096
Y 0.00000000 5.06795000 -3.8010576500000006 0 0 0
Y 0.00000000 7.60192500 -1.2669272100000022 0 0 0
Y 0.00007167 5.06754456 1.22248815
Y 0.00000000 7.60314131 3.73343299
Y 3.58359000 0.00000000 -3.8010576500000006 0 0 0
Y 3.58359000 2.53397500 -1.2669272100000022 0 0 0
Y 3.58359000 10.13519049 1.22221213
Y 3.58359000 2.53458315 3.73315698
Y 3.58359000 5.06795000 -3.8010576500000006 0 0 0
Y 3.58359000 7.60192500 -1.2669272100000022 0 0 0
Y 3.58351833 5.06764592 1.22276417
Y 3.58359000 7.60233044 3.73343299
Zn 1.79179500 2.53397500 -3.8010576500000006 0 0 0
Zn 1.79179500 0.00000000 -1.2669272100000022 0 0 0
Zn 1.79193834 2.53255597 1.26306294
Zn 1.79100661 5.06754456 3.74668191
Zn 1.79179500 7.60192500 -3.8010576500000006 0 0 0
Zn 1.79179500 5.06795000 -1.2669272100000022 0 0 0
Zn 1.79172333 7.60212772 1.26223489
Zn 1.79236837 0.00101359 3.74612987
Zn 5.37538500 2.53397500 -3.8010576500000006 0 0 0
Zn 5.37538500 0.00000000 -1.2669272100000022 0 0 0
Zn 5.37524166 2.53265733 1.26306294
Zn 5.37624506 5.06764592 3.74640589
Zn 5.37538500 7.60192500 -3.8010576500000006 0 0 0
Zn 5.37538500 5.06795000 -1.2669272100000022 0 0 0
Zn 5.37545667 7.60202636 1.26223489
Zn 5.37488330 0.00101359 3.74612987
