&CONTROL
calculation = 'relax'
prefix = 'scf'
pseudo_dir = '/vol0004/mdt0/data/hp150275/u10028/POT_KKJUS'
outdir = './data'
tprnfor = .true.
nstep = 50
disk_io = 'non'
/
&SYSTEM
ibrav = 0
ecutwfc = 50.0
ecutrho = 400
occupations = 'smearing'
smearing = 'mp'
degauss = 0.01
assume_isolated = 'esm'
esm_bc = 'bc1'
input_dft = 'BEEF-VDW'
nosym = .true.
nspin = 1
ntyp = 5
nat = 34
/
&ELECTRONS
electron_maxstep = 200
mixing_beta = 0.1
conv_thr = 1e-06
/
&IONS
ion_dynamics = 'bfgs'
upscale = 1.0
/
&CELL
/

K_POINTS {automatic}
9 6 2 0  0  0

ATOMIC_SPECIES
Ag 107.8 Ag.pbe-n-rrkjus_psl.1.0.0.UPF
C 12.01 C.pbe-n-rrkjus_psl.1.0.0.UPF
Mg 24.30 Mg.pbe-spnl-rrkjus_psl.1.0.0.UPF
O 15.99 O.pbe-n-rrkjus_psl.1.0.0.UPF
Zn 65.40 Zn.pbe-dnl-rrkjus_psl.1.0.0.UPF

CELL_PARAMETERS {angstrom}
6.56971000 0.00000000 0.00000000
0.00000000 9.29097000 0.00000000
0.00000000 0.00000000 26.96820000

ATOMIC_POSITIONS {angstrom}
Mg 0.00000000 0.00000000 -3.484021760000001 0 0 0
Mg 3.28485500 2.32274250 -1.1612506899999993 0 0 0
Mg 3.28485500 6.96822750 -1.1612506899999993 0 0 0
Mg 0.00000000 4.64548500 -3.484021760000001 0 0 0
Mg 0.00000000 4.63637985 1.17122893
Mg 3.28485500 6.96822750 3.63450431
Mg 3.28485500 2.32274250 3.59000678
Mg 0.00000000 0.00919806 1.17122893
Zn 0.00000000 6.96822750 -1.1612506899999993 0 0 0
Zn 3.28485500 0.00000000 -3.484021760000001 0 0 0
Zn 0.00000000 2.32274250 -1.1612506899999993 0 0 0
Zn 3.28485500 4.64548500 -3.484021760000001 0 0 0
Zn 0.00000000 2.32274250 3.38154260
Zn 3.28485500 4.65561216 1.15046341
Zn 0.00013139 6.96832041 3.48456112
Zn 3.28485500 9.28084284 1.15046341
Ag 1.64242750 0.00000000 -1.1612506899999993 0 0 0
Ag 4.92728250 4.64548500 -1.1612506899999993 0 0 0
Ag 4.92728250 0.00000000 -1.1612506899999993 0 0 0
Ag 1.64242750 4.64548500 -1.1612506899999993 0 0 0
Ag 4.92728250 6.96822750 -3.484021760000001 0 0 0
Ag 1.64242750 2.32274250 -3.484021760000001 0 0 0
Ag 1.64242750 6.96822750 -3.484021760000001 0 0 0
Ag 4.92728250 2.32274250 -3.484021760000001 0 0 0
Ag 1.63625197 4.67986159 3.47485257
Ag 4.93345803 9.25650050 3.47485257
Ag 4.93345803 4.67995450 3.47485257
Ag 1.63631767 9.25659341 3.47485257
Ag 4.88917818 2.32274250 1.18174652
Ag 1.67002028 6.96822750 1.14884532
Ag 1.68053182 2.32274250 1.18174652
Ag 4.89968972 6.96822750 1.14884532
C 0.00000000 2.32274250 5.42923802
O 0.00000000 2.32274250 6.57916207
