&CONTROL
calculation = 'relax'
prefix = 'scf'
pseudo_dir = '/vol0004/mdt0/data/hp150275/u10028/POT_KKJUS'
outdir = './data'
tprnfor = .true.
nstep = 50
disk_io = 'non'
/
&SYSTEM
ibrav = 0
ecutwfc = 50.0
ecutrho = 400
occupations = 'smearing'
smearing = 'mp'
degauss = 0.01
assume_isolated = 'esm'
esm_bc = 'bc1'
input_dft = 'BEEF-VDW'
nosym = .true.
nspin = 1
ntyp = 3
nat = 33
/
&ELECTRONS
electron_maxstep = 200
mixing_beta = 0.1
conv_thr = 1e-06
/
&IONS
ion_dynamics = 'bfgs'
upscale = 1.0
/
&CELL
/

K_POINTS {automatic}
8 8 1 0 0 0

ATOMIC_SPECIES
C 12.01 C.pbe-n-rrkjus_psl.1.0.0.UPF
Ni 58.69 Ni.pbe-spn-rrkjus_psl.1.0.0.UPF
Sn 118.7 Sn.pbe-dn-rrkjus_psl.1.0.0.UPF

CELL_PARAMETERS {angstrom}
7.54412000 0.00000000 0.00000000
-0.00000000 7.54412000 0.00000000
0.00000000 0.00000000 25.65810000

ATOMIC_POSITIONS {angstrom}
Ni 0.00000000 1.88603000 0.94293518
Ni 1.88603000 -0.00000000 0.94293518
Ni 1.88603000 1.88603000 2.82906211
Ni 0.00000000 1.88603000 -2.8290621100000024 0 0 0
Ni 1.88603000 0.00000000 -2.8290621100000024 0 0 0
Ni 1.88603000 1.88603000 -0.9429351700000019 0 0 0
Ni 0.00000000 5.65809000 0.94293518
Ni 1.88603000 3.77206000 0.94293518
Ni 1.88603000 5.65809000 2.82906211
Ni 0.00000000 5.65809000 -2.8290621100000024 0 0 0
Ni 1.88603000 3.77206000 -2.8290621100000024 0 0 0
Ni 1.88603000 5.65809000 -0.9429351700000019 0 0 0
Ni 3.77206000 1.88603000 0.94293518
Ni 5.65809000 -0.00000000 0.94293518
Ni 5.65809000 1.88603000 2.82906211
Ni 3.77206000 1.88603000 -2.8290621100000024 0 0 0
Ni 5.65809000 0.00000000 -2.8290621100000024 0 0 0
Ni 5.65809000 1.88603000 -0.9429351700000019 0 0 0
Ni 3.77206000 5.65809000 0.94293518
Ni 5.65809000 3.77206000 0.94293518
Ni 5.65809000 5.65809000 2.82906211
Ni 3.77206000 5.65809000 -2.8290621100000024 0 0 0
Ni 5.65809000 3.77206000 -2.8290621100000024 0 0 0
Ni 5.65809000 5.65809000 -0.9429351700000019 0 0 0
Sn 0.00000000 0.00000000 2.82906211
Sn 0.00000000 0.00000000 -0.9429351700000019 0 0 0
Sn 0.00000000 3.77206000 2.82906211
Sn 0.00000000 3.77206000 -0.9429351700000019 0 0 0
Sn 3.77206000 -0.00000000 2.82906211
Sn 3.77206000 0.00000000 -0.9429351700000019 0 0 0
Sn 3.77206000 3.77206000 2.82906211
Sn 3.77206000 3.77206000 -0.9429351700000019 0 0 0
C 1.88603000 -0.00000000 3.62908166
