&CONTROL
calculation = 'relax'
prefix = 'scf'
pseudo_dir = '/vol0004/mdt0/data/hp150275/u10028/POT_HYBRID_KKJUS_GBRV'
outdir = './data'
tprnfor = .true.
nstep = 50
disk_io = 'non'
/
&SYSTEM
ibrav = 0
ecutwfc = 50.0
ecutrho = 400
occupations = 'smearing'
smearing = 'mp'
degauss = 0.01
assume_isolated = 'esm'
esm_bc = 'bc1'
input_dft = 'BEEF-VDW'
nosym = .true.
nspin = 2
ntyp = 5
nat = 34
starting_magnetization(1) = 0.0
starting_magnetization(2) = 0.1
starting_magnetization(3) = 0.1
starting_magnetization(4) = 0.0
starting_magnetization(5) = 0.0
/
&ELECTRONS
electron_maxstep = 200
mixing_beta = 0.1
conv_thr = 1e-06
/
&IONS
ion_dynamics = 'bfgs'
upscale = 1.0
/
&CELL
/

K_POINTS {automatic}
9 6 2 0  0  0

ATOMIC_SPECIES
C 12.01 C.pbe-n-rrkjus_psl.1.0.0.UPF
Co 58.93 co_pbe_v1.2.uspp.F.UPF
Fe 55.84 fe_pbe_v1.5.uspp.F.UPF
Ge 72.64 Ge.pbe-dn-rrkjus_psl.1.0.0.UPF
O 15.99 O.pbe-n-rrkjus_psl.1.0.0.UPF

CELL_PARAMETERS {angstrom}
5.77744000 0.00000000 0.00000000
0.00000000 8.17053000 0.00000000
0.00000000 0.00000000 26.12790000

ATOMIC_POSITIONS {angstrom}
Fe 1.44436000 0.00000000 25.10656039
Fe 4.33308000 4.08526500 25.10656039
Fe 4.33308000 0.00000000 25.10656039
Fe 1.44436000 4.08526500 25.10656039
Fe 4.33308000 6.12789750 23.06388117
Fe 1.44436000 2.04263250 23.06388117
Fe 1.44436000 6.12789750 23.06388117
Fe 4.33308000 2.04263250 23.06388117
Fe 1.42546777 4.10446575 3.10922010
Fe 4.35185668 8.15181949 3.10869754
Fe 4.35197223 4.10446575 3.10948138
Fe 1.42552555 8.15181949 3.10869754
Fe 4.36294936 2.04230568 0.99495043
Fe 1.40334018 6.12748897 1.06105402
Fe 1.41449064 2.04238738 0.99495043
Fe 4.37409982 6.12757068 1.06105402
Co 0.00000000 0.00000000 23.06388117
Co 2.88872000 2.04263250 25.10656039
Co 2.88872000 6.12789750 25.10656039
Co 0.00000000 4.08526500 23.06388117
Co 5.77738223 4.10716202 1.15224039
Co 2.88872000 6.12789750 2.92188306
Co 2.88866223 2.04328614 3.08256964
Co 0.00011555 8.14757081 1.15171783
Ge 0.00000000 6.12789750 25.10656039
Ge 2.88872000 0.00000000 23.06388117
Ge 0.00000000 2.04263250 25.10656039
Ge 2.88872000 4.08526500 23.06388117
Ge 0.00005777 2.04287762 3.14553788
Ge 2.88872000 4.04212460 1.04328705
Ge 5.77738223 6.12814262 3.41387141
Ge 2.88872000 0.04265017 1.04302577
C 2.88872000 2.04287762 4.84228371
O 2.88872000 2.04246909 6.00393014
