&CONTROL
calculation = 'relax'
prefix = 'scf'
pseudo_dir = '/vol0403/data/hp230205/u10028/POT_HYBRID_KKJUS_GBRV'
outdir = './data'
tprnfor = .true.
nstep = 50
disk_io = 'non'
/
&SYSTEM
ibrav = 0
ecutwfc = 50.0
ecutrho = 400
occupations = 'smearing'
smearing = 'mp'
degauss = 0.01
assume_isolated = 'esm'
esm_bc = 'bc1'
input_dft = 'BEEF-VDW'
nosym = .true.
nspin = 2
ntyp = 5
nat = 33
starting_magnetization(1) = 0.0
starting_magnetization(2) = 0.0
starting_magnetization(3) = 0.1
starting_magnetization(4) = 0.0
starting_magnetization(5) = 0.0
/
&ELECTRONS
electron_maxstep = 200
mixing_beta = 0.1
conv_thr = 1e-06
/
&IONS
ion_dynamics = 'bfgs'
upscale = 1.0
/
&CELL
/

K_POINTS {automatic}
6 6 1 0 0 0

ATOMIC_SPECIES
C 12.01 C.pbe-n-rrkjus_psl.1.0.0.UPF
Li 6.941 Li.pbe-sl-rrkjus_psl.1.0.0.UPF
Mn 54.93 mn_pbe_v1.5.uspp.F.UPF
Pd 106.4 Pd.pbe-n-rrkjus_psl.1.0.0.UPF
Sb 121.7 Sb.pbe-n-rrkjus_psl.1.0.0.UPF


CELL_PARAMETERS {angstrom}
6.44934000 0.00000000 0.00000000
0.00000000 9.12074000 0.00000000
0.00000000 0.00000000 26.84060000

ATOMIC_POSITIONS {angstrom}
Li 0.00000000 0.00000000 -3.4202976599999992 0 0 0
Li 0.00000000 4.56037000 -3.4202976599999992 0 0 0
Li 3.22467000 6.84055500 -1.1401886899999987 0 0 0
Li 3.22467000 2.28018500 -1.1401886899999987 0 0 0
Li 6.44508344 4.56064362 0.94908362
Li 6.15099353 0.00000000 1.33317260
Li 3.00023297 2.54231507 3.70749208
Li 3.00003949 6.57815131 3.70749208
Mn 0.00000000 2.28018500 -1.1401886899999987 0 0 0
Mn 0.00000000 6.84055500 -1.1401886899999987 0 0 0
Mn 3.22467000 4.56037000 -3.4202976599999992 0 0 0
Mn 3.22467000 0.00000000 -3.4202976599999992 0 0 0
Mn 6.18478807 7.21103946 3.63019115
Mn 6.18472358 1.90951813 3.63019115
Mn 3.39712535 0.00018241 1.09778054
Mn 3.13341184 4.56027879 1.19843279
Sb 4.83700500 0.00000000 -1.1401886899999987 0 0 0
Sb 4.83700500 4.56037000 -1.1401886899999987 0 0 0
Sb 1.61233500 2.28018500 -3.4202976599999992 0 0 0
Sb 1.61233500 6.84055500 -3.4202976599999992 0 0 0
Sb 4.93851761 4.56027879 3.46700030
Sb 4.19413479 9.12064879 3.97240880
Sb 1.56183667 6.91643956 1.26043458
Sb 1.56157869 2.20448286 1.26043458
Pd 1.61233500 0.00000000 -1.1401886899999987 0 0 0
Pd 1.61233500 4.56037000 -1.1401886899999987 0 0 0
Pd 4.83700500 2.28018500 -3.4202976599999992 0 0 0
Pd 4.83700500 6.84055500 -3.4202976599999992 0 0 0
Pd 1.18242200 4.56037000 3.09230553
Pd 1.67792479 0.00000000 3.03647708
Pd 4.93671180 6.64418547 1.22688383
Pd 4.93716325 2.47682815 1.22688383
C 6.37768783 9.12064879 4.06044597
