&CONTROL
calculation = 'relax'
prefix = 'scf'
pseudo_dir = '/vol0004/mdt0/data/hp150275/u10028/POT_HYBRID_KKJUS_GBRV'
outdir = './data'
tprnfor = .true.
nstep = 50
disk_io = 'non'
/
&SYSTEM
ibrav = 0
ecutwfc = 50.0
ecutrho = 400
occupations = 'smearing'
smearing = 'mp'
degauss = 0.01
assume_isolated = 'esm'
esm_bc = 'bc1'
input_dft = 'BEEF-VDW'
nosym = .true.
nspin = 2
ntyp = 3
nat = 17
starting_magnetization(1) = 0.1
starting_magnetization(2) = 0.1
starting_magnetization(3) = 0.1
/
&ELECTRONS
electron_maxstep = 200
mixing_beta = 0.1
conv_thr = 1e-06
/
&IONS
ion_dynamics = 'bfgs'
upscale = 1.0
/
&CELL
/

K_POINTS {automatic}
10 10 2 0  0  0

ATOMIC_SPECIES
C 12.01 C.pbe-n-rrkjus_psl.1.0.0.UPF
Fe 55.84 fe_pbe_v1.5.uspp.F.UPF
Ga 69.72 Ga.pbe-dnl-rrkjus_psl.1.0.0.UPF

CELL_PARAMETERS {angstrom}
5.81108000 0.00000000 0.00000000
-0.00000000 5.81108000 0.00000000
0.00000000 0.00000000 24.35830000

ATOMIC_POSITIONS {angstrom}
Ga 0.00000000 0.00000000 -2.1790935199999986 0 0 0
Ga 2.90554000 2.90554000 -2.1790935199999986 0 0 0
Ga 2.90554000 -0.00000000 0.72636451
Ga 0.00000000 2.90554000 0.72636451
Fe 1.45277000 1.45277000 -0.7263645099999998 0 0 0
Fe 4.35831000 4.35831000 2.17909352
Fe 4.35831000 1.45277000 -0.7263645099999998 0 0 0
Fe 1.45277000 4.35831000 2.17909352
Fe 4.35831000 4.35831000 -0.7263645099999998 0 0 0
Fe 1.45277000 1.45277000 2.17909352
Fe 1.45277000 4.35831000 -0.7263645099999998 0 0 0
Fe 4.35831000 1.45277000 2.17909352
Fe 0.00000000 0.00000000 0.72636451
Fe 2.90554000 0.00000000 -2.1790935199999986 0 0 0
Fe 0.00000000 2.90554000 -2.1790935199999986 0 0 0
Fe 2.90554000 2.90554000 0.72636451
C 0.00000000 0.00000000 2.97926367
