&CONTROL
calculation = 'relax'
prefix = 'scf'
pseudo_dir = '/vol0004/mdt0/data/hp150275/u10028/POT_KKJUS'
outdir = './data'
tprnfor = .true.
nstep = 50
disk_io = 'non'
/
&SYSTEM
ibrav = 0
ecutwfc = 50.0
ecutrho = 400
occupations = 'smearing'
smearing = 'mp'
degauss = 0.01
assume_isolated = 'esm'
esm_bc = 'bc1'
input_dft = 'BEEF-VDW'
nosym = .true.
nspin = 1
ntyp = 2
nat = 32
/
&ELECTRONS
electron_maxstep = 200
mixing_beta = 0.1
conv_thr = 1e-06
/
&IONS
ion_dynamics = 'bfgs'
upscale = 1.0
/
&CELL
/

K_POINTS {automatic}
9 6 2 0  0  0

ATOMIC_SPECIES
Ag 107.8 Ag.pbe-n-rrkjus_psl.1.0.0.UPF
Sc 44.95 Sc.pbe-spn-rrkjus_psl.1.0.0.UPF

CELL_PARAMETERS {angstrom}
6.93038000 0.00000000 0.00000000
0.00000000 9.80104000 0.00000000
0.00000000 0.00000000 27.35080000

ATOMIC_POSITIONS {angstrom}
Sc 1.73259500 2.45026000 -3.6754004999999985 0 0 0
Sc 1.73259500 0.00000000 -1.2250423300000008 0 0 0
Sc 1.73259500 2.45026000 1.23406810
Sc 1.73259500 0.00000000 3.63355378
Sc 1.73259500 7.35078000 -3.6754004999999985 0 0 0
Sc 1.73259500 4.90052000 -1.2250423300000008 0 0 0
Sc 1.73259500 7.35078000 1.23406810
Sc 1.73259500 4.90052000 3.63355378
Sc 5.19778500 2.45026000 -3.6754004999999985 0 0 0
Sc 5.19778500 0.00000000 -1.2250423300000008 0 0 0
Sc 5.19778500 2.45026000 1.23406810
Sc 5.19778500 0.00000000 3.63355378
Sc 5.19778500 7.35078000 -3.6754004999999985 0 0 0
Sc 5.19778500 4.90052000 -1.2250423300000008 0 0 0
Sc 5.19778500 7.35078000 1.23406810
Sc 5.19778500 4.90052000 3.63328027
Ag 0.00000000 0.00000000 -3.6754004999999985 0 0 0
Ag 0.00000000 2.45026000 -1.2250423300000008 0 0 0
Ag 0.00000000 9.80094199 1.23488862
Ag 0.00000000 2.44996597 3.56244170
Ag 0.00000000 4.90052000 -3.6754004999999985 0 0 0
Ag 0.00000000 7.35078000 -1.2250423300000008 0 0 0
Ag 0.00000000 4.90061801 1.23461511
Ag 0.00000000 7.35107403 3.56216819
Ag 3.46519000 0.00000000 -3.6754004999999985 0 0 0
Ag 3.46519000 2.45026000 -1.2250423300000008 0 0 0
Ag 3.46519000 9.80094199 1.23488862
Ag 3.46519000 2.44996597 3.56216819
Ag 3.46519000 4.90052000 -3.6754004999999985 0 0 0
Ag 3.46519000 7.35078000 -1.2250423300000008 0 0 0
Ag 3.46519000 4.90061801 1.23461511
Ag 3.46519000 7.35107403 3.56216819
