&CONTROL
calculation = 'relax'
prefix = 'scf'
pseudo_dir = '/vol0004/mdt0/data/hp150275/u10028/POT_HYBRID_KKJUS_GBRV'
outdir = './data'
tprnfor = .true.
nstep = 70
disk_io = 'non'
/
&SYSTEM
ibrav = 0
ecutwfc = 50.0
ecutrho = 400
occupations = 'smearing'
smearing = 'mp'
degauss = 0.01
assume_isolated = 'esm'
esm_bc = 'bc1'
input_dft = 'BEEF-VDW'
nosym = .true.
nspin = 1
ntyp = 2
nat = 16
/
&ELECTRONS
electron_maxstep = 200
mixing_beta = 0.1
conv_thr = 1e-06
/
&IONS
ion_dynamics = 'bfgs'
upscale = 1.0
/
&CELL
/

K_POINTS {automatic}
10 10 2 0  0  0

ATOMIC_SPECIES
Pd 106.4 Pd.pbe-n-rrkjus_psl.1.0.0.UPF
Zn 65.40 Zn.pbe-dnl-rrkjus_psl.1.0.0.UPF

CELL_PARAMETERS {angstrom}
5.79546000 0.00000000 0.00000000
-0.00000000 5.79546000 0.00000000
0.00000000 0.00000000 25.17490000

ATOMIC_POSITIONS {angstrom}
Zn 0.00000000 0.00000000 -2.381545540000001 0 0 0
Zn 0.00000000 0.00000000 1.06842276
Zn 0.00000000 2.89773000 -2.381545540000001 0 0 0
Zn 0.00000000 2.89773000 1.06842276
Zn 2.89773000 0.00000000 -2.381545540000001 0 0 0
Zn 2.89773000 -0.00000000 1.06842276
Zn 2.89773000 2.89773000 -2.381545540000001 0 0 0
Zn 2.89773000 2.89773000 1.06842276
Pd 1.44886500 1.44886500 -0.6565613900000002 0 0 0
Pd 1.44886500 1.44886500 2.79340690
Pd 1.44886500 4.34659500 -0.6565613900000002 0 0 0
Pd 1.44886500 4.34659500 2.79340690
Pd 4.34659500 1.44886500 -0.6565613900000002 0 0 0
Pd 4.34659500 1.44886500 2.79340690
Pd 4.34659500 4.34659500 -0.6565613900000002 0 0 0
Pd 4.34659500 4.34659500 2.79340690
