&CONTROL
calculation = 'relax'
prefix = 'scf'
pseudo_dir = '/vol0004/mdt0/data/hp150275/u10028/POT_KKJUS'
outdir = './data'
tprnfor = .true.
nstep = 50
disk_io = 'non'
/
&SYSTEM
ibrav = 0
ecutwfc = 50.0
ecutrho = 400
occupations = 'smearing'
smearing = 'mp'
degauss = 0.01
assume_isolated = 'esm'
esm_bc = 'bc1'
input_dft = 'BEEF-VDW'
nosym = .true.
nspin = 1
ntyp = 5
nat = 34
/
&ELECTRONS
electron_maxstep = 200
mixing_beta = 0.1
conv_thr = 1e-06
/
&IONS
ion_dynamics = 'bfgs'
upscale = 1.0
/
&CELL
/

K_POINTS {automatic}
8 6 1 0 0 0

ATOMIC_SPECIES
Al 26.98 Al.pbe-nl-rrkjus_psl.1.0.0.UPF
C 12.01 C.pbe-n-rrkjus_psl.1.0.0.UPF
Li 6.941 Li.pbe-sl-rrkjus_psl.1.0.0.UPF
O 15.99 O.pbe-n-rrkjus_psl.1.0.0.UPF
Pd 106.4 Pd.pbe-n-rrkjus_psl.1.0.0.UPF

CELL_PARAMETERS {angstrom}
6.12388000 0.00000000 0.00000000
0.00000000 8.66047000 0.00000000
0.00000000 0.00000000 26.49540000

ATOMIC_POSITIONS {angstrom}
Li 0.00000000 0.00000000 -3.2478061300000007 0 0 0
Li 3.06194000 2.16511750 -1.0826020400000012 0 0 0
Li 3.06194000 6.49535250 -1.0826020400000012 0 0 0
Li 0.00000000 4.33023500 -3.2478061300000007 0 0 0
Li 0.00000000 4.32607797 1.11545634
Li 3.06194000 6.49535250 4.49706424
Li 3.06194000 2.16511750 4.06757381
Li 0.00000000 0.00415703 1.11545634
Al 1.53097000 0.00000000 -1.0826020400000012 0 0 0
Al 4.59291000 4.33023500 -1.0826020400000012 0 0 0
Al 4.59291000 0.00000000 -1.0826020400000012 0 0 0
Al 1.53097000 4.33023500 -1.0826020400000012 0 0 0
Al 4.59291000 6.49535250 -3.2478061300000007 0 0 0
Al 1.53097000 2.16511750 -3.2478061300000007 0 0 0
Al 1.53097000 6.49535250 -3.2478061300000007 0 0 0
Al 4.59291000 2.16511750 -3.2478061300000007 0 0 0
Al 1.63391242 4.42757868 3.23058412
Al 4.48996758 8.56312632 3.23058412
Al 4.48996758 4.42757868 3.23058412
Al 1.63391242 8.56312632 3.23058412
Al 4.54091826 2.16511750 1.28105259
Al 1.62252201 6.49535250 1.16791723
Al 1.58296174 2.16511750 1.28105259
Al 4.50135799 6.49535250 1.16791723
Pd 0.00000000 6.49535250 -1.0826020400000012 0 0 0
Pd 3.06194000 0.00000000 -3.2478061300000007 0 0 0
Pd 0.00000000 2.16511750 -1.0826020400000012 0 0 0
Pd 3.06194000 4.33023500 -3.2478061300000007 0 0 0
Pd 0.00000000 2.16511750 3.39485560
Pd 3.06194000 4.30104922 0.94615073
Pd 0.00000000 6.49535250 3.13811518
Pd 3.06194000 0.02918578 0.94615073
C 0.00000000 2.16511750 5.38307042
O 0.00000000 2.16511750 6.53747500
