&CONTROL
calculation = 'relax'
prefix = 'scf'
pseudo_dir = '/vol0004/mdt0/data/hp150275/u10028/POT_HYBRID_KKJUS_GBRV'
outdir = './data'
tprnfor = .true.
nstep = 50
disk_io = 'non'
/
&SYSTEM
ibrav = 0
ecutwfc = 50.0
ecutrho = 400
occupations = 'smearing'
smearing = 'mp'
degauss = 0.01
assume_isolated = 'esm'
esm_bc = 'bc1'
input_dft = 'BEEF-VDW'
nosym = .true.
nspin = 2
ntyp = 1
nat = 16
starting_magnetization(1) = 0.01
/
&ELECTRONS
electron_maxstep = 200
mixing_beta = 0.1
conv_thr = 1e-06
/
&IONS
ion_dynamics = 'bfgs'
upscale = 1.0
/
&CELL
/

K_POINTS {automatic}
10 10 2 0  0  0

ATOMIC_SPECIES
Cr 51.99 cr_pbe_v1.5.uspp.F.UPF

CELL_PARAMETERS {angstrom}
5.69815000 0.00000000 0.00000000
-0.00000000 5.69815000 0.00000000
0.00000000 0.00000000 24.27360000

ATOMIC_POSITIONS {angstrom}
Cr 0.00000000 0.00000000 22.13679499
Cr 1.42453750 1.42453750 23.56141258
Cr 0.00000000 0.00000000 0.71218742
Cr 1.42453750 1.42453750 2.13680501
Cr 0.00000000 2.84907500 22.13679499
Cr 1.42453750 4.27361250 23.56141258
Cr 0.00000000 2.84907500 0.71218742
Cr 1.42453750 4.27361250 2.13680501
Cr 2.84907500 0.00000000 22.13679499
Cr 4.27361250 1.42453750 23.56141258
Cr 2.84907500 -0.00000000 0.71218742
Cr 4.27361250 1.42453750 2.13680501
Cr 2.84907500 2.84907500 22.13679499
Cr 4.27361250 4.27361250 23.56141258
Cr 2.84907500 2.84907500 0.71218742
Cr 4.27361250 4.27361250 2.13680501
