&CONTROL
calculation = 'relax'
prefix = 'scf'
pseudo_dir = '/vol0004/mdt0/data/hp150275/u10028/POT_KKJUS'
outdir = './data'
tprnfor = .true.
nstep = 50
disk_io = 'non'
/
&SYSTEM
ibrav = 0
ecutwfc = 50.0
ecutrho = 400
occupations = 'smearing'
smearing = 'mp'
degauss = 0.01
assume_isolated = 'esm'
esm_bc = 'bc1'
input_dft = 'BEEF-VDW'
nosym = .true.
nspin = 1
ntyp = 4
nat = 34
/
&ELECTRONS
electron_maxstep = 200
mixing_beta = 0.1
conv_thr = 1e-06
/
&IONS
ion_dynamics = 'bfgs'
upscale = 1.0
/
&CELL
/

K_POINTS {automatic}
9 6 2 0  0  0

ATOMIC_SPECIES
C 12.01 C.pbe-n-rrkjus_psl.1.0.0.UPF
Ga 69.72 Ga.pbe-dnl-rrkjus_psl.1.0.0.UPF
O 15.99 O.pbe-n-rrkjus_psl.1.0.0.UPF
Rh 102.9 Rh.pbe-spn-rrkjus_psl.1.0.0.UPF

CELL_PARAMETERS {angstrom}
6.09666000 0.00000000 0.00000000
0.00000000 8.62198000 0.00000000
0.00000000 0.00000000 26.46650000

ATOMIC_POSITIONS {angstrom}
Ga 0.00000000 0.00000000 -3.2331476399999985 0 0 0
Ga 0.00000000 2.15549500 -1.0777158799999995 0 0 0
Ga 6.08690534 0.00000000 1.08830248
Ga 6.08934401 2.20920994 3.35409955
Ga 0.00000000 4.31099000 -3.2331476399999985 0 0 0
Ga 0.00000000 6.46648500 -1.0777158799999995 0 0 0
Ga 0.00627956 4.31099000 1.05310203
Ga 6.08934401 6.41277006 3.35409955
Ga 3.04833000 0.00000000 -3.2331476399999985 0 0 0
Ga 3.04833000 2.15549500 -1.0777158799999995 0 0 0
Ga 3.05960882 0.00000000 1.08883181
Ga 3.05808466 2.20826152 3.35489354
Ga 3.04833000 4.31099000 -3.2331476399999985 0 0 0
Ga 3.04833000 6.46648500 -1.0777158799999995 0 0 0
Ga 3.04198947 4.31099000 1.05283737
Ga 3.05808466 6.41371848 3.35489354
Rh 1.52416500 2.15549500 -3.2331476399999985 0 0 0
Rh 1.52416500 0.00000000 -1.0777158799999995 0 0 0
Rh 1.52446983 2.08367391 1.03272283
Rh 1.52337243 0.00000000 3.36098083
Rh 1.52416500 6.46648500 -3.2331476399999985 0 0 0
Rh 1.52416500 4.31099000 -1.0777158799999995 0 0 0
Rh 1.52446983 6.53830609 1.03272283
Rh 1.52477467 4.31099000 3.06455604
Rh 4.57249500 2.15549500 -3.2331476399999985 0 0 0
Rh 4.57249500 0.00000000 -1.0777158799999995 0 0 0
Rh 4.57304370 2.15678830 0.99540506
Rh 4.57286080 0.00000000 3.10134447
Rh 4.57249500 6.46648500 -3.2331476399999985 0 0 0
Rh 4.57249500 4.31099000 -1.0777158799999995 0 0 0
Rh 4.57304370 6.46519170 0.99540506
Rh 4.57304370 4.31099000 3.09234586
C 1.51654417 0.00000000 5.23533837
O 1.51495904 0.00000000 6.39060109
