&CONTROL
calculation = 'relax'
prefix = 'scf'
pseudo_dir = '/vol0403/data/hp230205/u10028/POT_HYBRID_KKJUS_GBRV'
outdir = './data'
tprnfor = .true.
nstep = 50
disk_io = 'non'
/
&SYSTEM
ibrav = 0
ecutwfc = 50.0
ecutrho = 400
occupations = 'smearing'
smearing = 'mp'
degauss = 0.01
assume_isolated = 'esm'
esm_bc = 'bc1'
input_dft = 'BEEF-VDW'
nosym = .true.
nspin = 1
ntyp = 6
nat = 18
/
&ELECTRONS
electron_maxstep = 200
mixing_beta = 0.1
conv_thr = 1e-06
/
&IONS
ion_dynamics = 'bfgs'
upscale = 1.0
/
&CELL
/

K_POINTS {automatic}
8 8 1 0 0 0

ATOMIC_SPECIES
C 12.01 C.pbe-n-rrkjus_psl.1.0.0.UPF
In 114.8 In.pbe-dn-rrkjus_psl.1.0.0.UPF
Li 6.941 Li.pbe-sl-rrkjus_psl.1.0.0.UPF
Mg 24.30 Mg.pbe-spnl-rrkjus_psl.1.0.0.UPF
O 15.99 O.pbe-n-rrkjus_psl.1.0.0.UPF
Pt 195.0 Pt.pbe-n-rrkjus_psl.1.0.0.UPF


CELL_PARAMETERS {angstrom}
6.50521000 0.00000000 0.00000000
0.00000000 6.50521000 0.00000000
0.00000000 0.00000000 24.87890000

ATOMIC_POSITIONS {angstrom}
Li 1.62630250 1.62630250 -0.8130424500000011 0 0 0
Li 1.62636755 4.87884245 2.94466660
Li 4.87877740 1.62636755 2.94416903
Li 4.87890750 4.87890750 -0.8130424500000011 0 0 0
Mg 0.00000000 3.25260500 -2.4393761400000002 0 0 0
Mg 0.01665334 0.01691355 0.88369853
Mg 3.23621187 3.23582156 0.88369853
Mg 3.25260500 0.00000000 -2.4393761400000002 0 0 0
In 0.00000000 0.00000000 -2.4393761400000002 0 0 0
In 0.04579668 3.20680832 0.89489403
In 3.20680832 0.04573163 0.89489403
In 3.25260500 3.25260500 -2.4393761400000002 0 0 0
Pt 4.87890750 1.62630250 -0.8130424500000011 0 0 0
Pt 4.87890750 4.87884245 2.18262590
Pt 1.62636755 1.62630250 2.51824226
Pt 1.62630250 4.87890750 -0.8130424500000011 0 0 0
C 1.62636755 1.62636755 4.42346842
O 1.62623745 1.62630250 5.58804973
