&CONTROL
calculation = 'relax'
prefix = 'scf'
pseudo_dir = '/vol0403/data/hp230205/u10028/POT_HYBRID_KKJUS_GBRV'
outdir = './data'
tprnfor = .true.
nstep = 70
disk_io = 'non'
/
&SYSTEM
ibrav = 0
ecutwfc = 50.0
ecutrho = 400
occupations = 'smearing'
smearing = 'mp'
degauss = 0.01
assume_isolated = 'esm'
esm_bc = 'bc1'
input_dft = 'BEEF-VDW'
nosym = .true.
nspin = 1
ntyp = 4
nat = 16
/
&ELECTRONS
electron_maxstep = 200
mixing_beta = 0.1
conv_thr = 1e-06
/
&IONS
ion_dynamics = 'bfgs'
upscale = 1.0
/
&CELL
/

K_POINTS {automatic}
6 6 1 0 0 0

ATOMIC_SPECIES
Ge 72.64 Ge.pbe-dn-rrkjus_psl.1.0.0.UPF
In 114.8 In.pbe-dn-rrkjus_psl.1.0.0.UPF
Pd 106.4 Pd.pbe-n-rrkjus_psl.1.0.0.UPF
Y 88.90 Y.pbe-spn-rrkjus_psl.1.0.0.UPF


CELL_PARAMETERS {angstrom}
5.95203000 0.00000000 0.00000000
-0.00000000 9.45024000 0.00000000
0.00000000 0.00000000 24.43650000

ATOMIC_POSITIONS {angstrom}
Y 2.99946600 -0.00000000 2.17411540
Y 5.62187090 0.00000000 -0.7394484899999973 0 0 0
Y 2.99946600 4.72512000 2.17411540
Y 5.62187090 4.72512000 -0.7394484899999973 0 0 0
In 1.26052091 2.36256000 0.88484566
In 3.96881360 2.36256000 -2.218345469999999 0 0 0
In 1.26052091 7.08768000 0.88484566
In 3.96881360 7.08768000 -2.218345469999999 0 0 0
Ge 5.94316148 -0.00000000 2.26379736
Ge 2.64585590 0.00000000 -0.7394484899999973 0 0 0
Ge 5.94316148 4.72512000 2.26379736
Ge 2.64585590 4.72512000 -0.7394484899999973 0 0 0
Pd 4.26724839 2.36256000 0.93640668
Pd 0.99279860 2.36256000 -2.218345469999999 0 0 0
Pd 4.26724839 7.08768000 0.93640668
Pd 0.99279860 7.08768000 -2.218345469999999 0 0 0
