&CONTROL
calculation = 'relax'
prefix = 'scf'
pseudo_dir = '/vol0004/mdt0/data/hp150275/u10028/POT_HYBRID_KKJUS_GBRV'
outdir = './data'
tprnfor = .true.
nstep = 50
disk_io = 'non'
/
&SYSTEM
ibrav = 0
ecutwfc = 50.0
ecutrho = 400
occupations = 'smearing'
smearing = 'mp'
degauss = 0.01
assume_isolated = 'esm'
esm_bc = 'bc1'
input_dft = 'BEEF-VDW'
nosym = .true.
nspin = 2
ntyp = 4
nat = 33
starting_magnetization(1) = 0.0
starting_magnetization(2) = 0.1
starting_magnetization(3) = 0.0
starting_magnetization(4) = 0.0
/
&ELECTRONS
electron_maxstep = 300
mixing_beta = 0.1
conv_thr = 1e-06
/
&IONS
ion_dynamics = 'bfgs'
upscale = 1.0
/
&CELL
/

K_POINTS {automatic}
9 6 2 0  0  0

ATOMIC_SPECIES
C 12.01 C.pbe-n-rrkjus_psl.1.0.0.UPF
Co 58.93 co_pbe_v1.2.uspp.F.UPF
Nb 92.90 Nb.pbe-spn-rrkjus_psl.1.0.0.UPF
Sn 118.7 Sn.pbe-dn-rrkjus_psl.1.0.0.UPF

CELL_PARAMETERS {angstrom}
6.19479000 0.00000000 0.00000000
0.00000000 8.76076000 0.00000000
0.00000000 0.00000000 26.57060000

ATOMIC_POSITIONS {angstrom}
Nb 0.00000000 0.00000000 -3.2851889799999974 0 0 0
Nb 3.09739500 2.19019000 -1.0949744300000006 0 0 0
Nb 3.09739500 6.57057000 -1.0949744300000006 0 0 0
Nb 0.00000000 4.38038000 -3.2851889799999974 0 0 0
Nb 6.19472805 4.38038000 1.18690870
Nb 3.09739500 6.71188106 3.29847428
Nb 3.09739500 2.04887894 3.29847428
Nb 6.19472805 0.00000000 1.10533696
Co 1.54869750 0.00000000 -1.0949744300000006 0 0 0
Co 4.64609250 4.38038000 -1.0949744300000006 0 0 0
Co 4.64609250 0.00000000 -1.0949744300000006 0 0 0
Co 1.54869750 4.38038000 -1.0949744300000006 0 0 0
Co 4.64609250 6.57057000 -3.2851889799999974 0 0 0
Co 1.54869750 2.19019000 -3.2851889799999974 0 0 0
Co 1.54869750 6.57057000 -3.2851889799999974 0 0 0
Co 4.64609250 2.19019000 -3.2851889799999974 0 0 0
Co 1.55290996 4.38046761 3.12815674
Co 4.84407799 0.00000000 3.10876020
Co 4.64188004 4.38046761 3.12842244
Co 1.35083591 0.00000000 3.10876020
Co 4.64472965 2.18528397 1.17043493
Co 1.55012230 6.57547603 1.17043493
Co 1.55006035 2.18528397 1.17016922
Co 4.64466770 6.57547603 1.17043493
Sn 0.00000000 6.57057000 -1.0949744300000006 0 0 0
Sn 3.09739500 0.00000000 -3.2851889799999974 0 0 0
Sn 0.00000000 2.19019000 -1.0949744300000006 0 0 0
Sn 3.09739500 4.38038000 -3.2851889799999974 0 0 0
Sn 0.00000000 2.24459432 3.56178893
Sn 3.09733305 4.38029239 1.08886319
Sn 0.00000000 6.51625329 3.56178893
Sn 3.09733305 0.00000000 1.05060152
C 3.09739500 0.00000000 3.86230242
