&CONTROL
calculation = 'relax'
prefix = 'scf'
pseudo_dir = '/vol0004/mdt0/data/hp150275/u10028/POT_KKJUS'
outdir = './data'
tprnfor = .true.
nstep = 50
disk_io = 'non'
/
&SYSTEM
ibrav = 0
ecutwfc = 50.0
ecutrho = 400
occupations = 'smearing'
smearing = 'mp'
degauss = 0.01
assume_isolated = 'esm'
esm_bc = 'bc1'
input_dft = 'BEEF-VDW'
nosym = .true.
nspin = 1
ntyp = 2
nat = 16
/
&ELECTRONS
electron_maxstep = 200
mixing_beta = 0.1
conv_thr = 1e-06
/
&IONS
ion_dynamics = 'bfgs'
upscale = 1.0
/
&CELL
/

K_POINTS {automatic}
10 10 2 0  0  0

ATOMIC_SPECIES
Ag 107.8 Ag.pbe-n-rrkjus_psl.1.0.0.UPF
Sc 44.95 Sc.pbe-spn-rrkjus_psl.1.0.0.UPF

CELL_PARAMETERS {angstrom}
6.93038000 0.00000000 0.00000000
-0.00000000 6.93038000 0.00000000
0.00000000 0.00000000 25.19780000

ATOMIC_POSITIONS {angstrom}
Sc 1.73259500 1.73259500 -0.5097514899999993 0 0 0
Sc 1.73259500 1.73259500 2.95544996
Sc 1.73259500 5.19778500 -0.5097514899999993 0 0 0
Sc 1.73259500 5.19778500 2.95544996
Sc 5.19778500 1.73259500 -0.5097514899999993 0 0 0
Sc 5.19778500 1.73259500 2.95544996
Sc 5.19778500 5.19778500 -0.5097514899999993 0 0 0
Sc 5.19778500 5.19778500 2.95544996
Ag 0.00000000 0.00000000 -2.242352220000001 0 0 0
Ag 0.00000000 0.00000000 1.22284923
Ag 0.00000000 3.46519000 -2.242352220000001 0 0 0
Ag 0.00000000 3.46519000 1.22284923
Ag 3.46519000 0.00000000 -2.242352220000001 0 0 0
Ag 3.46519000 -0.00000000 1.22284923
Ag 3.46519000 3.46519000 -2.242352220000001 0 0 0
Ag 3.46519000 3.46519000 1.22284923
