&CONTROL
calculation = 'relax'
prefix = 'scf'
pseudo_dir = '/vol0403/data/hp230205/u10028/POT_HYBRID_KKJUS_GBRV'
outdir = './data'
tprnfor = .true.
nstep = 50
disk_io = 'non'
/
&SYSTEM
ibrav = 0
ecutwfc = 50.0
ecutrho = 400
occupations = 'smearing'
smearing = 'mp'
degauss = 0.01
assume_isolated = 'esm'
esm_bc = 'bc1'
input_dft = 'BEEF-VDW'
nosym = .true.
nspin = 1
ntyp = 6
nat = 18
/
&ELECTRONS
electron_maxstep = 200
mixing_beta = 0.1
conv_thr = 1e-06
/
&IONS
ion_dynamics = 'bfgs'
upscale = 1.0
/
&CELL
/

K_POINTS {automatic}
6 6 1 0 0 0

ATOMIC_SPECIES
C 12.01 C.pbe-n-rrkjus_psl.1.0.0.UPF
Ge 72.64 Ge.pbe-dn-rrkjus_psl.1.0.0.UPF
In 114.8 In.pbe-dn-rrkjus_psl.1.0.0.UPF
Li 6.941 Li.pbe-sl-rrkjus_psl.1.0.0.UPF
O 15.99 O.pbe-n-rrkjus_psl.1.0.0.UPF
Sc 44.95 Sc.pbe-spn-rrkjus_psl.1.0.0.UPF


CELL_PARAMETERS {angstrom}
8.12626000 0.00000000 0.00000000
0.00000000 6.08490000 0.00000000
0.00000000 0.00000000 24.54620000

ATOMIC_POSITIONS {angstrom}
Li 2.03156500 4.43065909 -0.7577411899999973 0 0 0
Li 2.04196661 0.96250948 2.31642489
Li 6.09469500 4.43065909 -0.7577411899999973 0 0 0
Li 6.10152106 1.01094529 2.21873102
Sc 2.03156500 1.38820909 -0.7577411899999973 0 0 0
Sc 2.02644546 3.94526661 2.17307509
Sc 6.09469500 1.38820909 -0.7577411899999973 0 0 0
Sc 6.09672656 3.97599536 2.12570092
In 0.00000000 3.04245000 -2.2729781199999977 0 0 0
In 8.12187182 5.70806214 0.73417684
In 4.06313000 3.04245000 -2.2729781199999977 0 0 0
In 4.06914343 5.71919751 0.74497717
Ge 0.00000000 0.00000000 -2.2729781199999977 0 0 0
Ge 8.11008874 2.60263343 0.93152829
Ge 4.06313000 0.00000000 -2.2729781199999977 0 0 0
Ge 4.07962631 2.63184095 0.90182739
C 1.96468588 2.45732602 3.75949599
O 1.95217144 1.44771941 4.38910602
