&CONTROL
calculation = 'relax'
prefix = 'scf'
pseudo_dir = '/vol0004/mdt0/data/hp150275/u10028/POT_KKJUS'
outdir = './data'
tprnfor = .true.
nstep = 50
disk_io = 'non'
/
&SYSTEM
ibrav = 0
ecutwfc = 50.0
ecutrho = 400
occupations = 'smearing'
smearing = 'mp'
degauss = 0.01
assume_isolated = 'esm'
esm_bc = 'bc1'
input_dft = 'BEEF-VDW'
nosym = .true.
nspin = 1
ntyp = 2
nat = 32
/
&ELECTRONS
electron_maxstep = 200
mixing_beta = 0.1
conv_thr = 1e-06
/
&IONS
ion_dynamics = 'bfgs'
upscale = 1.0
/
&CELL
/

K_POINTS {automatic}
8 6 1 0 0 0

ATOMIC_SPECIES
Rh 102.9 Rh.pbe-spn-rrkjus_psl.1.0.0.UPF
Zn 65.40 Zn.pbe-dnl-rrkjus_psl.1.0.0.UPF

CELL_PARAMETERS {angstrom}
6.06651000 0.00000000 0.00000000
0.00000000 8.57934000 0.00000000
0.00000000 0.00000000 26.43450000

ATOMIC_POSITIONS {angstrom}
Zn 1.51662750 2.14483500 -3.217342989999999 0 0 0
Zn 1.51662750 0.00000000 -1.0724476599999981 0 0 0
Zn 1.51723415 2.14517817 1.05367917
Zn 1.51747681 0.00042897 3.29056656
Zn 1.51662750 6.43450500 -3.217342989999999 0 0 0
Zn 1.51662750 4.28967000 -1.0724476599999981 0 0 0
Zn 1.51723415 6.43424762 1.05367917
Zn 1.51753748 4.28924103 3.29003787
Zn 4.54988250 2.14483500 -3.217342989999999 0 0 0
Zn 4.54988250 0.00000000 -1.0724476599999981 0 0 0
Zn 4.54927585 2.14517817 1.05367917
Zn 4.54903319 0.00034317 3.29056656
Zn 4.54988250 6.43450500 -3.217342989999999 0 0 0
Zn 4.54988250 4.28967000 -1.0724476599999981 0 0 0
Zn 4.54927585 6.43424762 1.05367917
Zn 4.54897252 4.28924103 3.29003787
Rh 0.00000000 0.00000000 -3.217342989999999 0 0 0
Rh 0.00000000 2.14483500 -1.0724476599999981 0 0 0
Rh 0.00000000 8.57925421 1.07879194
Rh 0.00000000 2.14457762 3.13830384
Rh 0.00000000 4.28967000 -3.217342989999999 0 0 0
Rh 0.00000000 6.43450500 -1.0724476599999981 0 0 0
Rh 0.00000000 4.28967000 1.07826325
Rh 0.00000000 6.43459079 3.13830384
Rh 3.03325500 0.00000000 -3.217342989999999 0 0 0
Rh 3.03325500 2.14483500 -1.0724476599999981 0 0 0
Rh 3.03325500 8.57916841 1.07826325
Rh 3.03325500 2.14457762 3.13909687
Rh 3.03325500 4.28967000 -3.217342989999999 0 0 0
Rh 3.03325500 6.43450500 -1.0724476599999981 0 0 0
Rh 3.03325500 4.28967000 1.07773457
Rh 3.03325500 6.43467659 3.13909687
