&CONTROL
calculation = 'relax'
prefix = 'scf'
pseudo_dir = '/vol0403/data/hp230205/u10028/POT_HYBRID_KKJUS_GBRV'
outdir = './data'
tprnfor = .true.
nstep = 70
disk_io = 'non'
/
&SYSTEM
ibrav = 0
ecutwfc = 50.0
ecutrho = 400
occupations = 'smearing'
smearing = 'mp'
degauss = 0.01
assume_isolated = 'esm'
esm_bc = 'bc1'
input_dft = 'BEEF-VDW'
nosym = .true.
nspin = 1
ntyp = 4
nat = 32
/
&ELECTRONS
electron_maxstep = 200
mixing_beta = 0.1
conv_thr = 1e-06
/
&IONS
ion_dynamics = 'bfgs'
upscale = 1.0
/
&CELL
/

K_POINTS {automatic}
6 6 1 0 0 0

ATOMIC_SPECIES
Cu 63.54 Cu.pbe-dn-rrkjus_psl.1.0.0.UPF
Li 6.941 Li.pbe-sl-rrkjus_psl.1.0.0.UPF
Pb 207.2 Pb.pbe-dn-rrkjus_psl.1.0.0.UPF
Pd 106.4 Pd.pbe-n-rrkjus_psl.1.0.0.UPF


CELL_PARAMETERS {angstrom}
6.46272000 0.00000000 0.00000000
-0.00000000 9.13966000 0.00000000
0.00000000 0.00000000 26.85470000

ATOMIC_POSITIONS {angstrom}
Li 0.00000000 2.28491500 -1.1423989399999996 0 0 0
Li 0.00000000 6.85474500 -1.1423989399999996 0 0 0
Li 3.23136000 4.56983000 -3.4274653599999994 0 0 0
Li 3.23136000 0.00000000 -3.4274653599999994 0 0 0
Li 0.19750072 6.85474500 3.63558929
Li 0.19730684 2.28491500 3.63532074
Li 3.35311764 -0.00000000 1.16844800
Li 3.35318227 4.56983000 1.16844800
Cu 0.00000000 0.00000000 -3.4274653599999994 0 0 0
Cu 0.00000000 4.56983000 -3.4274653599999994 0 0 0
Cu 3.23136000 6.85474500 -1.1423989399999996 0 0 0
Cu 3.23136000 2.28491500 -1.1423989399999996 0 0 0
Cu 6.26741660 4.56983000 1.32474235
Cu 6.26748123 -0.00000000 1.32474235
Cu 3.24842158 2.28491500 3.28218143
Cu 3.24842158 6.85474500 3.28218143
Pd 1.61568000 0.00000000 -1.1423989399999996 0 0 0
Pd 1.61568000 4.56983000 -1.1423989399999996 0 0 0
Pd 4.84704000 2.28491500 -3.4274653599999994 0 0 0
Pd 4.84704000 6.85474500 -3.4274653599999994 0 0 0
Pd 1.76697228 4.56983000 3.11756212
Pd 1.76697228 -0.00000000 3.11756212
Pd 4.88297272 6.85474500 1.14132475
Pd 4.88297272 2.28491500 1.14105620
Pb 4.84704000 0.00000000 -1.1423989399999996 0 0 0
Pb 4.84704000 4.56983000 -1.1423989399999996 0 0 0
Pb 1.61568000 2.28491500 -3.4274653599999994 0 0 0
Pb 1.61568000 6.85474500 -3.4274653599999994 0 0 0
Pb 4.72980626 4.56983000 3.82598911
Pb 4.72987089 -0.00000000 3.82598911
Pb 1.53405585 6.85474500 1.08895809
Pb 1.53405585 2.28491500 1.08895809
