&CONTROL
calculation = 'relax'
prefix = 'scf'
pseudo_dir = '/vol0403/data/hp230205/u10028/POT_HYBRID_KKJUS_GBRV'
outdir = './data'
tprnfor = .true.
nstep = 50
disk_io = 'non'
/
&SYSTEM
ibrav = 0
ecutwfc = 50.0
ecutrho = 400
occupations = 'smearing'
smearing = 'mp'
degauss = 0.01
assume_isolated = 'esm'
esm_bc = 'bc1'
input_dft = 'BEEF-VDW'
nosym = .true.
nspin = 1
ntyp = 5
nat = 33
/
&ELECTRONS
electron_maxstep = 200
mixing_beta = 0.1
conv_thr = 1e-06
/
&IONS
ion_dynamics = 'bfgs'
upscale = 1.0
/
&CELL
/

K_POINTS {automatic}
6 6 1 0 0 0

ATOMIC_SPECIES
C 12.01 C.pbe-n-rrkjus_psl.1.0.0.UPF
Ge 72.64 Ge.pbe-dn-rrkjus_psl.1.0.0.UPF
Li 6.941 Li.pbe-sl-rrkjus_psl.1.0.0.UPF
Pd 106.4 Pd.pbe-n-rrkjus_psl.1.0.0.UPF
V 50.94 V.pbe-spnl-rrkjus_psl.1.0.0.UPF


CELL_PARAMETERS {angstrom}
5.68832000 0.00000000 0.00000000
0.00000000 8.64114000 0.00000000
0.00000000 0.00000000 27.05420000

ATOMIC_POSITIONS {angstrom}
Li 1.42208000 0.00000000 -1.1757755300000028 0 0 0
Li 1.75979556 0.00000000 3.40558270
Li 1.42208000 4.32057000 -1.1757755300000028 0 0 0
Li 1.32674376 4.32057000 3.63824882
Li 4.26624000 0.00000000 -1.1757755300000028 0 0 0
Li 3.92846756 0.00000000 3.40585324
Li 4.26624000 4.32057000 -1.1757755300000028 0 0 0
Li 4.36157624 4.32057000 3.63851936
V 1.42208000 2.16028500 -3.5270560500000023 0 0 0
V 1.39096489 2.16382787 1.20851111
V 1.42208000 6.48085500 -3.5270560500000023 0 0 0
V 1.39096489 6.47739854 1.20824057
V 4.26624000 2.16028500 -3.5270560500000023 0 0 0
V 4.29735511 2.16382787 1.20851111
V 4.26624000 6.48085500 -3.5270560500000023 0 0 0
V 4.29735511 6.47739854 1.20824057
Ge 0.00000000 0.00000000 -3.5270560500000023 0 0 0
Ge 5.68820623 0.00017282 1.11517412
Ge 0.00000000 4.32057000 -3.5270560500000023 0 0 0
Ge 0.00000000 4.32057000 1.17361120
Ge 2.84416000 0.00000000 -3.5270560500000023 0 0 0
Ge 2.84421688 0.00025923 1.00695732
Ge 2.84416000 4.32057000 -3.5270560500000023 0 0 0
Ge 2.84421688 4.32048359 1.23367152
Pd 0.00000000 2.16028500 -1.1757755300000028 0 0 0
Pd 0.00000000 1.74888032 3.52056305
Pd 0.00000000 6.48085500 -1.1757755300000028 0 0 0
Pd 0.00000000 6.89217326 3.52056305
Pd 2.84416000 2.16028500 -1.1757755300000028 0 0 0
Pd 2.84416000 2.31262830 3.39584318
Pd 2.84416000 6.48085500 -1.1757755300000028 0 0 0
Pd 2.84416000 6.32851170 3.39584318
C 0.00005688 0.00000000 4.37547577
