&CONTROL
calculation = 'relax'
prefix = 'scf'
pseudo_dir = '/vol0403/data/hp230205/u10028/POT_HYBRID_KKJUS_GBRV'
outdir = './data'
tprnfor = .true.
nstep = 50
disk_io = 'non'
/
&SYSTEM
ibrav = 0
ecutwfc = 50.0
ecutrho = 400
occupations = 'smearing'
smearing = 'mp'
degauss = 0.01
assume_isolated = 'esm'
esm_bc = 'bc1'
input_dft = 'BEEF-VDW'
nosym = .true.
nspin = 1
ntyp = 5
nat = 17
/
&ELECTRONS
electron_maxstep = 200
mixing_beta = 0.1
conv_thr = 1e-06
/
&IONS
ion_dynamics = 'bfgs'
upscale = 1.0
/
&CELL
/

K_POINTS {automatic}
8 11 2 0  0  0

ATOMIC_SPECIES
Ag 107.8 Ag.pbe-n-rrkjus_psl.1.0.0.UPF
Al 26.98 Al.pbe-nl-rrkjus_psl.1.0.0.UPF
C 12.01 C.pbe-n-rrkjus_psl.1.0.0.UPF
Ge 72.64 Ge.pbe-dn-rrkjus_psl.1.0.0.UPF
Li 6.941 Li.pbe-sl-rrkjus_psl.1.0.0.UPF


CELL_PARAMETERS {angstrom}
7.71364000 0.00000000 0.00000000
0.00000000 5.86609000 0.00000000
0.00000000 0.00000000 24.39060000

ATOMIC_POSITIONS {angstrom}
Li 1.92841000 1.37313435 -0.7317180000000008 0 0 0
Li 1.42841186 4.25203534 2.64467276
Li 5.78523000 1.37313435 -0.7317180000000008 0 0 0
Li 6.28538242 4.25180069 2.64491666
Al 1.92841000 4.30617935 -0.7317180000000008 0 0 0
Al 1.45733801 1.46259222 2.31052154
Al 5.78523000 4.30617935 -0.7317180000000008 0 0 0
Al 6.25676481 1.46276820 2.31052154
Ag 0.00000000 0.00000000 -2.1953979100000005 0 0 0
Ag 0.00015427 2.92653364 0.52049540
Ag 3.85682000 0.00000000 -2.1953979100000005 0 0 0
Ag 3.85735995 3.04057043 0.95196512
Ge 0.00000000 2.93304500 -2.1953979100000005 0 0 0
Ge 7.71310005 5.74430997 0.68244899
Ge 3.85682000 2.93304500 -2.1953979100000005 0 0 0
Ge 3.85396595 0.12488906 1.41489871
C 0.00053995 2.64824633 2.90394484
