&CONTROL
calculation = 'relax'
prefix = 'scf'
pseudo_dir = '/vol0403/data/hp230205/u10028/POT_HYBRID_KKJUS_GBRV'
outdir = './data'
tprnfor = .true.
nstep = 50
disk_io = 'non'
/
&SYSTEM
ibrav = 0
ecutwfc = 50.0
ecutrho = 400
occupations = 'smearing'
smearing = 'mp'
degauss = 0.01
assume_isolated = 'esm'
esm_bc = 'bc1'
input_dft = 'BEEF-VDW'
nosym = .true.
nspin = 1
ntyp = 4
nat = 16
/
&ELECTRONS
electron_maxstep = 200
mixing_beta = 0.1
conv_thr = 1e-06
/
&IONS
ion_dynamics = 'bfgs'
upscale = 1.0
/
&CELL
/

K_POINTS {automatic}
8 8 1 0 0 0

ATOMIC_SPECIES
Ag 107.8 Ag.pbe-n-rrkjus_psl.1.0.0.UPF
Li 6.941 Li.pbe-sl-rrkjus_psl.1.0.0.UPF
Pb 207.2 Pb.pbe-dn-rrkjus_psl.1.0.0.UPF
Y 88.90 Y.pbe-spn-rrkjus_psl.1.0.0.UPF


CELL_PARAMETERS {angstrom}
7.20907000 0.00000000 0.00000000
0.00000000 7.20907000 0.00000000
0.00000000 0.00000000 25.40680000

ATOMIC_POSITIONS {angstrom}
Li 1.80226750 1.80226750 -0.9011792000000014 0 0 0
Li 1.80226750 5.40680250 2.49469369
Li 5.40680250 1.80226750 2.49469369
Li 5.40680250 5.40680250 -0.9011792000000014 0 0 0
Y 5.40680250 1.80226750 -0.9011792000000014 0 0 0
Y 5.40680250 5.40680250 2.67228722
Y 1.80226750 1.80226750 2.67254129
Y 1.80226750 5.40680250 -0.9011792000000014 0 0 0
Ag 0.00000000 0.00000000 -2.7032835199999994 0 0 0
Ag 0.00000000 3.60453500 0.94132194
Ag 3.60453500 0.00000000 0.94132194
Ag 3.60453500 3.60453500 -2.7032835199999994 0 0 0
Pb 0.00000000 3.60453500 -2.7032835199999994 0 0 0
Pb 0.00000000 0.00000000 1.05260372
Pb 3.60453500 3.60453500 1.05260372
Pb 3.60453500 0.00000000 -2.7032835199999994 0 0 0
