&CONTROL
calculation = 'relax'
prefix = 'scf'
pseudo_dir = '/vol0004/mdt0/data/hp150275/u10028/POT_KKJUS'
outdir = './data'
tprnfor = .true.
nstep = 50
disk_io = 'non'
/
&SYSTEM
ibrav = 0
ecutwfc = 50.0
ecutrho = 400
occupations = 'smearing'
smearing = 'mp'
degauss = 0.01
assume_isolated = 'esm'
esm_bc = 'bc1'
input_dft = 'BEEF-VDW'
nosym = .true.
nspin = 1
ntyp = 2
nat = 32
/
&ELECTRONS
electron_maxstep = 200
mixing_beta = 0.1
conv_thr = 1e-06
/
&IONS
ion_dynamics = 'bfgs'
upscale = 1.0
/
&CELL
/

K_POINTS {automatic}
9 6 2 0  0  0

ATOMIC_SPECIES
Cu 63.54 Cu.pbe-dn-rrkjus_psl.1.0.0.UPF
Sn 118.7 Sn.pbe-dn-rrkjus_psl.1.0.0.UPF

CELL_PARAMETERS {angstrom}
6.23499000 0.00000000 0.00000000
0.00000000 8.81761000 0.00000000
0.00000000 0.00000000 26.61320000

ATOMIC_POSITIONS {angstrom}
Cu 1.55874750 0.00000000 -1.1023187399999976 0 0 0
Cu 4.67624250 4.40880500 -1.1023187399999976 0 0 0
Cu 4.67624250 0.00000000 -1.1023187399999976 0 0 0
Cu 1.55874750 4.40880500 -1.1023187399999976 0 0 0
Cu 4.67624250 6.61320750 -3.306690100000001 0 0 0
Cu 1.55874750 2.20440250 -3.306690100000001 0 0 0
Cu 1.55874750 6.61320750 -3.306690100000001 0 0 0
Cu 4.67624250 2.20440250 -3.306690100000001 0 0 0
Cu 0.00000000 6.61320750 -1.1023187399999976 0 0 0
Cu 3.11749500 0.00000000 -3.306690100000001 0 0 0
Cu 0.00000000 2.20440250 -1.1023187399999976 0 0 0
Cu 3.11749500 4.40880500 -3.306690100000001 0 0 0
Cu 1.75296744 4.40880500 3.10709110
Cu 4.48208491 0.00000000 3.10709110
Cu 4.48202256 4.40880500 3.10709110
Cu 1.75290509 0.00000000 3.10735723
Cu 4.43918818 2.20440250 1.37749923
Cu 1.79586417 6.61320750 1.37749923
Cu 1.79580182 2.20440250 1.37749923
Cu 4.43912583 6.61320750 1.37749923
Cu 0.00000000 2.20440250 3.13743015
Cu 3.11749500 4.40880500 0.92613936
Cu 0.00006235 6.61320750 3.13743015
Cu 3.11749500 0.00000000 0.92613936
Sn 0.00000000 0.00000000 -3.306690100000001 0 0 0
Sn 3.11749500 2.20440250 -1.1023187399999976 0 0 0
Sn 3.11749500 6.61320750 -1.1023187399999976 0 0 0
Sn 0.00000000 4.40880500 -3.306690100000001 0 0 0
Sn 0.00000000 4.40880500 1.11562534
Sn 3.11743265 6.61320750 3.92198728
Sn 3.11755735 2.20440250 3.92198728
Sn 0.00000000 0.00000000 1.11562534
