&CONTROL
calculation = 'relax'
prefix = 'scf'
pseudo_dir = '/vol0004/mdt0/data/hp150275/u10028/POT_KKJUS'
outdir = './data'
tprnfor = .true.
nstep = 50
disk_io = 'non'
/
&SYSTEM
ibrav = 0
ecutwfc = 50.0
ecutrho = 400
occupations = 'smearing'
smearing = 'mp'
degauss = 0.01
assume_isolated = 'esm'
esm_bc = 'bc1'
input_dft = 'BEEF-VDW'
nosym = .true.
nspin = 1
ntyp = 4
nat = 34
/
&ELECTRONS
electron_maxstep = 200
mixing_beta = 0.1
conv_thr = 1e-06
/
&IONS
ion_dynamics = 'bfgs'
upscale = 1.0
/
&CELL
/

K_POINTS {automatic}
8 6 1 0 0 0

ATOMIC_SPECIES
C 12.01 C.pbe-n-rrkjus_psl.1.0.0.UPF
Ca 40.07 Ca.pbe-spn-rrkjus_psl.1.0.0.UPF
In 114.8 In.pbe-dn-rrkjus_psl.1.0.0.UPF
O 15.99 O.pbe-n-rrkjus_psl.1.0.0.UPF

CELL_PARAMETERS {angstrom}
7.80577000 0.00000000 0.00000000
0.00000000 11.03900000 0.00000000
0.00000000 0.00000000 28.27930000

ATOMIC_POSITIONS {angstrom}
Ca 0.00000000 0.00000000 -4.139523929999999 0 0 0
Ca 0.00000000 2.75975000 -1.3797470499999989 0 0 0
Ca 0.01178671 0.00033117 1.40095652
Ca 0.00483958 2.79474363 4.21757480
Ca 0.00000000 5.51950000 -4.139523929999999 0 0 0
Ca 0.00000000 8.27925000 -1.3797470499999989 0 0 0
Ca 7.78375773 5.51938961 1.34185278
Ca 0.00452735 8.24370442 4.21757480
Ca 3.90288500 0.00000000 -4.139523929999999 0 0 0
Ca 3.90288500 2.75975000 -1.3797470499999989 0 0 0
Ca 3.89094217 0.00033117 1.40067373
Ca 3.89749902 2.79507480 4.21785759
Ca 3.90288500 5.51950000 -4.139523929999999 0 0 0
Ca 3.90288500 8.27925000 -1.3797470499999989 0 0 0
Ca 3.92419475 5.51916883 1.34072161
Ca 3.89804542 8.24293169 4.21785759
In 1.95144250 2.75975000 -4.139523929999999 0 0 0
In 1.95144250 0.00000000 -1.3797470499999989 0 0 0
In 1.95136444 2.85578930 1.39558345
In 1.95222308 11.03745454 4.13556483
In 1.95144250 8.27925000 -4.139523929999999 0 0 0
In 1.95144250 5.51950000 -1.3797470499999989 0 0 0
In 1.95136444 8.18332109 1.39530066
In 1.95113027 5.51927922 4.10332643
In 5.85432750 2.75975000 -4.139523929999999 0 0 0
In 5.85432750 0.00000000 -1.3797470499999989 0 0 0
In 5.85401527 2.74219799 1.49540938
In 5.85378110 11.03877922 4.19155785
In 5.85432750 8.27925000 -4.139523929999999 0 0 0
In 5.85432750 5.51950000 -1.3797470499999989 0 0 0
In 5.85409333 8.29724357 1.49540938
In 5.85417138 5.51927922 4.12425311
C 1.95292560 0.00143507 6.47002105
O 1.95167667 0.00033117 7.62947235
