&CONTROL
calculation = 'relax'
prefix = 'scf'
pseudo_dir = '/vol0004/mdt0/data/hp150275/u10028/POT_KKJUS'
outdir = './data'
tprnfor = .true.
nstep = 50
disk_io = 'non'
/
&SYSTEM
ibrav = 0
ecutwfc = 50.0
ecutrho = 400
occupations = 'smearing'
smearing = 'mp'
degauss = 0.01
assume_isolated = 'esm'
esm_bc = 'bc1'
input_dft = 'BEEF-VDW'
nosym = .true.
nspin = 1
ntyp = 4
nat = 33
/
&ELECTRONS
electron_maxstep = 200
mixing_beta = 0.1
conv_thr = 1e-06
/
&IONS
ion_dynamics = 'bfgs'
upscale = 1.0
/
&CELL
/

K_POINTS {automatic}
8 6 1 0 0 0

ATOMIC_SPECIES
Au 196.9 Au.pbe-n-rrkjus_psl.1.0.0.UPF
C 12.01 C.pbe-n-rrkjus_psl.1.0.0.UPF
In 114.8 In.pbe-dn-rrkjus_psl.1.0.0.UPF
Zr 91.22 Zr.pbe-spn-rrkjus_psl.1.0.0.UPF

CELL_PARAMETERS {angstrom}
6.87009000 0.00000000 0.00000000
0.00000000 9.71577000 0.00000000
0.00000000 0.00000000 27.28680000

ATOMIC_POSITIONS {angstrom}
Zr 0.00000000 0.00000000 -3.6433335400000004 0 0 0
Zr 3.43504500 2.42894250 -1.2145354699999977 0 0 0
Zr 3.43504500 7.28682750 -1.2145354699999977 0 0 0
Zr 0.00000000 4.85788500 -3.6433335400000004 0 0 0
Zr 0.00000000 4.85788500 1.33678033
Zr 3.43504500 7.54060341 3.42312906
Zr 3.43504500 2.17516659 3.42312906
Zr 0.00000000 0.00000000 1.34332916
In 0.00000000 7.28682750 -1.2145354699999977 0 0 0
In 3.43504500 0.00000000 -3.6433335400000004 0 0 0
In 0.00000000 2.42894250 -1.2145354699999977 0 0 0
In 3.43504500 4.85788500 -3.6433335400000004 0 0 0
In 0.00000000 2.64074629 3.88700466
In 3.43504500 4.85788500 1.15559598
In 0.00000000 7.07502371 3.88700466
In 3.43504500 0.00000000 1.14549986
Au 1.71752250 0.00000000 -1.2145354699999977 0 0 0
Au 5.15256750 4.85788500 -1.2145354699999977 0 0 0
Au 5.15256750 0.00000000 -1.2145354699999977 0 0 0
Au 1.71752250 4.85788500 -1.2145354699999977 0 0 0
Au 5.15256750 7.28682750 -3.6433335400000004 0 0 0
Au 1.71752250 2.42894250 -3.6433335400000004 0 0 0
Au 1.71752250 7.28682750 -3.6433335400000004 0 0 0
Au 5.15256750 2.42894250 -3.6433335400000004 0 0 0
Au 1.93812109 4.85788500 3.72301099
Au 5.53914746 0.00000000 4.03408051
Au 4.93196891 4.85788500 3.72301099
Au 1.33094254 0.00000000 4.03408051
Au 5.22065009 2.42146136 1.20662230
Au 1.64943991 7.29430864 1.20662230
Au 1.64943991 2.42146136 1.20662230
Au 5.22065009 7.29430864 1.20662230
C 3.43504500 0.00000000 3.63351029
