&CONTROL
calculation = 'relax'
prefix = 'scf'
pseudo_dir = '/vol0403/data/hp230205/u10028/POT_HYBRID_KKJUS_GBRV'
outdir = './data'
tprnfor = .true.
nstep = 50
disk_io = 'non'
/
&SYSTEM
ibrav = 0
ecutwfc = 50.0
ecutrho = 400
occupations = 'smearing'
smearing = 'mp'
degauss = 0.01
assume_isolated = 'esm'
esm_bc = 'bc1'
input_dft = 'BEEF-VDW'
nosym = .true.
nspin = 1
ntyp = 6
nat = 18
/
&ELECTRONS
electron_maxstep = 200
mixing_beta = 0.1
conv_thr = 1e-06
/
&IONS
ion_dynamics = 'bfgs'
upscale = 1.0
/
&CELL
/

K_POINTS {automatic}
9 9 2 0  0  0

ATOMIC_SPECIES
C 12.01 C.pbe-n-rrkjus_psl.1.0.0.UPF
In 114.8 In.pbe-dn-rrkjus_psl.1.0.0.UPF
Li 6.941 Li.pbe-sl-rrkjus_psl.1.0.0.UPF
Mg 24.30 Mg.pbe-spnl-rrkjus_psl.1.0.0.UPF
O 15.99 O.pbe-n-rrkjus_psl.1.0.0.UPF
Pd 106.4 Pd.pbe-n-rrkjus_psl.1.0.0.UPF


CELL_PARAMETERS {angstrom}
6.52273000 0.00000000 0.00000000
0.00000000 6.52273000 0.00000000
0.00000000 0.00000000 24.89210000

ATOMIC_POSITIONS {angstrom}
Li 1.63068250 1.63068250 -0.8154651999999984 0 0 0
Li 1.63068250 4.89211273 2.88474547
Li 4.89211273 1.63068250 2.88474547
Li 4.89204750 4.89204750 -0.8154651999999984 0 0 0
Mg 0.00000000 3.26136500 -2.446146670000001 0 0 0
Mg 0.01695910 0.01689387 0.88815013
Mg 3.24447113 3.24453636 0.88765229
Mg 3.26136500 0.00000000 -2.446146670000001 0 0 0
In 0.00000000 0.00000000 -2.446146670000001 0 0 0
In 0.03744047 3.22392453 0.90756597
In 3.22392453 0.03744047 0.90756597
In 3.26136500 3.26136500 -2.446146670000001 0 0 0
Pd 4.89204750 1.63068250 -0.8154651999999984 0 0 0
Pd 4.89204750 4.89204750 2.25447750
Pd 1.63061727 1.63061727 2.56961148
Pd 1.63068250 4.89204750 -0.8154651999999984 0 0 0
C 1.63055205 1.63055205 4.52812191
O 1.63061727 1.63061727 5.68635132
