&CONTROL
calculation = 'relax'
prefix = 'scf'
pseudo_dir = '/vol0004/mdt0/data/hp150275/u10028/POT_KKJUS'
outdir = './data'
tprnfor = .true.
nstep = 50
disk_io = 'non'
/
&SYSTEM
ibrav = 0
ecutwfc = 50.0
ecutrho = 400
occupations = 'smearing'
smearing = 'mp'
degauss = 0.01
assume_isolated = 'esm'
esm_bc = 'bc1'
input_dft = 'BEEF-VDW'
nosym = .true.
nspin = 1
ntyp = 5
nat = 18
/
&ELECTRONS
electron_maxstep = 200
mixing_beta = 0.1
conv_thr = 1e-06
/
&IONS
ion_dynamics = 'bfgs'
upscale = 1.0
/
&CELL
/

K_POINTS {automatic}
9 9 2 0  0  0

ATOMIC_SPECIES
C 12.01 C.pbe-n-rrkjus_psl.1.0.0.UPF
Cu 63.54 Cu.pbe-dn-rrkjus_psl.1.0.0.UPF
Hf 178.4 Hf.pbe-spn-rrkjus_psl.1.0.0.UPF
In 114.8 In.pbe-dn-rrkjus_psl.1.0.0.UPF
O 15.99 O.pbe-n-rrkjus_psl.1.0.0.UPF

CELL_PARAMETERS {angstrom}
6.35005000 0.00000000 0.00000000
0.00000000 6.35005000 0.00000000
0.00000000 0.00000000 24.76250000

ATOMIC_POSITIONS {angstrom}
Hf 0.00006350 0.00006350 2.39057175
Hf 3.17521550 3.17489800 2.39205750
Hf 3.17502500 0.00000000 -0.7936381299999979 0 0 0
Hf 0.00000000 3.17502500 -0.7936381299999979 0 0 0
In 0.00000000 0.00000000 -0.7936381299999979 0 0 0
In 3.17508850 6.34998650 2.79865775
In 0.00012700 3.17496150 2.70233163
In 3.17502500 3.17502500 -0.7936381299999979 0 0 0
Cu 1.61335720 1.56262030 0.91621250
Cu 4.76253750 4.76253750 -2.381162 0 0 0
Cu 4.73694680 1.56262030 0.91621250
Cu 1.58751250 4.76253750 -2.381162 0 0 0
Cu 4.73688330 4.78742970 0.91646012
Cu 1.58751250 1.58751250 -2.381162 0 0 0
Cu 1.61323020 4.78723919 0.91646012
Cu 4.76253750 1.58751250 -2.381162 0 0 0
C 6.34827199 3.17864453 7.23659300
O 0.00038100 3.17381849 8.37121075
