&CONTROL
calculation = 'relax'
prefix = 'scf'
pseudo_dir = '/vol0403/data/hp230205/u10028/POT_HYBRID_KKJUS_GBRV'
outdir = './data'
tprnfor = .true.
nstep = 50
disk_io = 'non'
/
&SYSTEM
ibrav = 0
ecutwfc = 50.0
ecutrho = 400
occupations = 'smearing'
smearing = 'mp'
degauss = 0.01
assume_isolated = 'esm'
esm_bc = 'bc1'
input_dft = 'BEEF-VDW'
nosym = .true.
nspin = 1
ntyp = 5
nat = 33
/
&ELECTRONS
electron_maxstep = 200
mixing_beta = 0.1
conv_thr = 1e-06
/
&IONS
ion_dynamics = 'bfgs'
upscale = 1.0
/
&CELL
/

K_POINTS {automatic}
9 6 2 0  0  0

ATOMIC_SPECIES
C 12.01 C.pbe-n-rrkjus_psl.1.0.0.UPF
In 114.8 In.pbe-dn-rrkjus_psl.1.0.0.UPF
Li 6.941 Li.pbe-sl-rrkjus_psl.1.0.0.UPF
Mg 24.30 Mg.pbe-spnl-rrkjus_psl.1.0.0.UPF
Pt 195.0 Pt.pbe-n-rrkjus_psl.1.0.0.UPF


CELL_PARAMETERS {angstrom}
6.50521000 0.00000000 0.00000000
0.00000000 9.19976000 0.00000000
0.00000000 0.00000000 26.89980000

ATOMIC_POSITIONS {angstrom}
Li 1.62630250 0.00000000 -1.1499664499999973 0 0 0
Li 1.62630250 4.59988000 -1.1499664499999973 0 0 0
Li 4.87890750 2.29994000 -3.449899349999999 0 0 0
Li 4.87890750 6.89982000 -3.449899349999999 0 0 0
Li 1.76362748 4.36501013 4.75696063
Li 1.76356243 0.23486987 4.75722963
Li 4.75849606 6.89982000 1.25675866
Li 4.85158562 2.29994000 1.15077344
Mg 0.00000000 2.29994000 -1.1499664499999973 0 0 0
Mg 0.00000000 6.89982000 -1.1499664499999973 0 0 0
Mg 3.25260500 4.59988000 -3.449899349999999 0 0 0
Mg 3.25260500 0.00000000 -3.449899349999999 0 0 0
Mg 6.46760989 6.89982000 3.45554831
Mg 6.32976449 2.29994000 3.55050460
Mg 3.13973961 9.19966800 1.20807002
Mg 3.13980466 4.59997200 1.20807002
In 0.00000000 0.00000000 -3.449899349999999 0 0 0
In 0.00000000 4.59988000 -3.449899349999999 0 0 0
In 3.25260500 6.89982000 -1.1499664499999973 0 0 0
In 3.25260500 2.29994000 -1.1499664499999973 0 0 0
In 0.02432949 4.60825178 1.19246813
In 0.02432949 9.19138822 1.19246813
In 3.34062049 2.29994000 3.54108967
In 3.09016991 6.89991200 3.71378639
Pt 4.87890750 0.00000000 -1.1499664499999973 0 0 0
Pt 4.87890750 4.59988000 -1.1499664499999973 0 0 0
Pt 1.62630250 2.29994000 -3.449899349999999 0 0 0
Pt 1.62630250 6.89982000 -3.449899349999999 0 0 0
Pt 4.77729612 4.71570498 3.26482873
Pt 4.77736117 9.08402702 3.26482873
Pt 1.62656271 6.89982000 1.10020182
Pt 1.59195499 2.29994000 1.07303302
C 1.56834108 2.29994000 4.67545424
