&CONTROL
calculation = 'relax'
prefix = 'scf'
pseudo_dir = '/vol0004/mdt0/data/hp150275/u10028/POT_HYBRID_KKJUS_GBRV'
outdir = './data'
tprnfor = .true.
nstep = 50
disk_io = 'non'
/
&SYSTEM
ibrav = 0
ecutwfc = 50.0
ecutrho = 400
occupations = 'smearing'
smearing = 'mp'
degauss = 0.01
assume_isolated = 'esm'
esm_bc = 'bc1'
input_dft = 'BEEF-VDW'
nosym = .true.
nspin = 2
ntyp = 4
nat = 33
starting_magnetization(1) = 0.0
starting_magnetization(2) = 0.1
starting_magnetization(3) = 0.0
starting_magnetization(4) = 0.0
/
&ELECTRONS
electron_maxstep = 200
mixing_beta = 0.1
conv_thr = 1e-06
/
&IONS
ion_dynamics = 'bfgs'
upscale = 1.0
/
&CELL
/

K_POINTS {automatic}
9 6 2 0  0  0

ATOMIC_SPECIES
C 12.01 C.pbe-n-rrkjus_psl.1.0.0.UPF
Co 58.93 co_pbe_v1.2.uspp.F.UPF
Ga 69.72 Ga.pbe-dnl-rrkjus_psl.1.0.0.UPF
Nb 92.90 Nb.pbe-spn-rrkjus_psl.1.0.0.UPF

CELL_PARAMETERS {angstrom}
5.97844000 0.00000000 0.00000000
0.00000000 8.45478000 0.00000000
0.00000000 0.00000000 26.34110000

ATOMIC_POSITIONS {angstrom}
Nb 0.00000000 0.00000000 23.17068520
Nb 2.98922000 2.11369500 25.28429507
Nb 2.98922000 6.34108500 25.28429507
Nb 0.00000000 4.22739000 23.17068520
Nb 5.97838022 4.22739000 1.10369209
Nb 2.98922000 6.32290722 3.16303929
Nb 2.98922000 2.13187278 3.16303929
Nb 0.00000000 0.00000000 1.05180012
Ga 0.00000000 6.34108500 25.28429507
Ga 2.98922000 0.00000000 23.17068520
Ga 0.00000000 2.11369500 25.28429507
Ga 2.98922000 4.22739000 23.17068520
Ga 0.00005978 2.16493097 3.21914583
Ga 2.98910043 4.22739000 1.07840463
Ga 0.00005978 6.28984903 3.21914583
Ga 2.98916022 0.00000000 1.04863919
Co 1.49461000 0.00000000 25.28429507
Co 4.48383000 4.22739000 25.28429507
Co 4.48383000 0.00000000 25.28429507
Co 1.49461000 4.22739000 25.28429507
Co 4.48383000 6.34108500 23.17068520
Co 1.49461000 2.11369500 23.17068520
Co 1.49461000 6.34108500 23.17068520
Co 4.48383000 2.11369500 23.17068520
Co 1.47577791 4.22739000 3.08717692
Co 4.37012007 0.00000000 3.15381990
Co 4.50272187 4.22739000 3.08717692
Co 1.60831993 0.00000000 3.15381990
Co 4.46703058 2.10177376 1.07998510
Co 1.51146920 6.35300624 1.07998510
Co 1.51146920 2.10177376 1.07998510
Co 4.46703058 6.35300624 1.07998510
C 0.00000000 0.00000000 3.95037477
