&CONTROL
calculation = 'relax'
prefix = 'scf'
pseudo_dir = '/vol0004/mdt0/data/hp150275/u10028/POT_HYBRID_KKJUS_GBRV'
outdir = './data'
tprnfor = .true.
nstep = 50
disk_io = 'non'
/
&SYSTEM
ibrav = 0
ecutwfc = 50.0
ecutrho = 400
occupations = 'smearing'
smearing = 'mp'
degauss = 0.01
assume_isolated = 'esm'
esm_bc = 'bc1'
input_dft = 'BEEF-VDW'
nosym = .true.
nspin = 2
ntyp = 5
nat = 34
starting_magnetization(1) = 0.0
starting_magnetization(2) = 0.0
starting_magnetization(3) = 0.1
starting_magnetization(4) = 0.1
starting_magnetization(5) = 0.0
/
&ELECTRONS
electron_maxstep = 300
mixing_beta = 0.1
conv_thr = 1e-06
/
&IONS
ion_dynamics = 'bfgs'
upscale = 1.0
/
&CELL
/

K_POINTS {automatic}
9 6 2 0  0  0

ATOMIC_SPECIES
Al 26.98 Al.pbe-nl-rrkjus_psl.1.0.0.UPF
C 12.01 C.pbe-n-rrkjus_psl.1.0.0.UPF
Co 58.93 co_pbe_v1.2.uspp.F.UPF
Mn 54.93 mn_pbe_v1.5.uspp.F.UPF
O 15.99 O.pbe-n-rrkjus_psl.1.0.0.UPF

CELL_PARAMETERS {angstrom}
5.71239000 0.00000000 0.00000000
0.00000000 8.07854000 0.00000000
0.00000000 0.00000000 26.05890000

ATOMIC_POSITIONS {angstrom}
Mn 0.00000000 0.00000000 -3.0293471200000006 0 0 0
Mn 2.85619500 2.01963500 -1.00978237 0 0 0
Mn 2.85619500 6.05890500 -1.00978237 0 0 0
Mn 0.00000000 4.03927000 -3.0293471200000006 0 0 0
Mn 0.00000000 4.03967393 1.04391953
Mn 2.85613788 6.05914736 3.05045483
Mn 2.85613788 2.01947343 3.00354881
Mn 0.00005712 8.07813607 1.04391953
Al 0.00000000 6.05890500 -1.00978237 0 0 0
Al 2.85619500 0.00000000 -3.0293471200000006 0 0 0
Al 0.00000000 2.01963500 -1.00978237 0 0 0
Al 2.85619500 4.03927000 -3.0293471200000006 0 0 0
Al 0.00000000 2.01971579 3.01657826
Al 2.85619500 4.03894686 1.02515713
Al 0.00000000 6.05882421 3.04237658
Al 2.85619500 0.00032314 1.02515713
Co 1.42809750 0.00000000 -1.00978237 0 0 0
Co 4.28429250 4.03927000 -1.00978237 0 0 0
Co 4.28429250 0.00000000 -1.00978237 0 0 0
Co 1.42809750 4.03927000 -1.00978237 0 0 0
Co 4.28429250 6.05890500 -3.0293471200000006 0 0 0
Co 1.42809750 2.01963500 -3.0293471200000006 0 0 0
Co 1.42809750 6.05890500 -3.0293471200000006 0 0 0
Co 4.28429250 2.01963500 -3.0293471200000006 0 0 0
Co 1.40004967 4.01511517 3.05749074
Co 4.31251171 0.02415483 3.05723015
Co 4.31239746 4.01511517 3.05723015
Co 1.39987829 0.02415483 3.05723015
Co 4.27195374 2.01923107 1.00431001
Co 1.43375277 6.05930893 1.01655769
Co 1.44037914 2.01923107 1.00431001
Co 4.27863723 6.05930893 1.01629710
C 2.85619500 2.01963500 4.85790014
O 2.85619500 2.01963500 6.01986649
