&CONTROL
calculation = 'relax'
prefix = 'scf'
pseudo_dir = '/vol0403/data/hp230205/u10028/POT_HYBRID_KKJUS_GBRV'
outdir = './data'
tprnfor = .true.
nstep = 50
disk_io = 'non'
/
&SYSTEM
ibrav = 0
ecutwfc = 50.0
ecutrho = 400
occupations = 'smearing'
smearing = 'mp'
degauss = 0.01
assume_isolated = 'esm'
esm_bc = 'bc1'
input_dft = 'BEEF-VDW'
nosym = .true.
nspin = 1
ntyp = 6
nat = 34
/
&ELECTRONS
electron_maxstep = 200
mixing_beta = 0.1
conv_thr = 1e-06
/
&IONS
ion_dynamics = 'bfgs'
upscale = 1.0
/
&CELL
/

K_POINTS {automatic}
9 6 2 0  0  0

ATOMIC_SPECIES
C 12.01 C.pbe-n-rrkjus_psl.1.0.0.UPF
Ge 72.64 Ge.pbe-dn-rrkjus_psl.1.0.0.UPF
Li 6.941 Li.pbe-sl-rrkjus_psl.1.0.0.UPF
O 15.99 O.pbe-n-rrkjus_psl.1.0.0.UPF
Pd 106.4 Pd.pbe-n-rrkjus_psl.1.0.0.UPF
V 50.94 V.pbe-spnl-rrkjus_psl.1.0.0.UPF


CELL_PARAMETERS {angstrom}
5.68832000 0.00000000 0.00000000
0.00000000 8.64114000 0.00000000
0.00000000 0.00000000 27.05420000

ATOMIC_POSITIONS {angstrom}
Li 1.42208000 0.02281261 1.27046523
Li 1.42208000 0.00000000 -3.5270560500000023 0 0 0
Li 1.42208000 4.29784380 1.27046523
Li 1.42208000 4.32057000 -3.5270560500000023 0 0 0
Li 4.26624000 8.62982011 1.23881182
Li 4.26624000 0.00000000 -3.5270560500000023 0 0 0
Li 4.26624000 4.33188989 1.23881182
Li 4.26624000 4.32057000 -3.5270560500000023 0 0 0
V 1.42208000 2.16028500 3.57196603
V 1.42208000 2.16028500 -1.1757755300000028 0 0 0
V 1.42208000 6.48085500 3.40287728
V 1.42208000 6.48085500 -1.1757755300000028 0 0 0
V 4.26624000 2.16028500 3.37501145
V 4.26624000 2.16028500 -1.1757755300000028 0 0 0
V 4.26624000 6.48085500 3.40991137
V 4.26624000 6.48085500 -1.1757755300000028 0 0 0
Ge 5.67603323 8.63275809 3.71075407
Ge 0.00000000 0.00000000 -1.1757755300000028 0 0 0
Ge 5.67597635 4.32895191 3.71075407
Ge 0.00000000 4.32057000 -1.1757755300000028 0 0 0
Ge 2.85650365 8.63275809 3.71075407
Ge 2.84416000 0.00000000 -1.1757755300000028 0 0 0
Ge 2.85650365 4.32895191 3.71075407
Ge 2.84416000 4.32057000 -1.1757755300000028 0 0 0
Pd 5.66818335 2.16028500 1.15548488
Pd 0.00000000 2.16028500 -3.5270560500000023 0 0 0
Pd 0.00989768 6.48085500 1.14439266
Pd 0.00000000 6.48085500 -3.5270560500000023 0 0 0
Pd 2.86429665 2.16028500 1.15548488
Pd 2.84416000 2.16028500 -3.5270560500000023 0 0 0
Pd 2.83426232 6.48085500 1.14439266
Pd 2.84416000 6.48085500 -3.5270560500000023 0 0 0
C 1.42208000 2.16028500 5.53880637
O 1.42208000 2.16028500 6.69807884
