&CONTROL
calculation = 'relax'
prefix = 'scf'
pseudo_dir = '/vol0403/data/hp230205/u10028/POT_HYBRID_KKJUS_GBRV'
outdir = './data'
tprnfor = .true.
nstep = 50
disk_io = 'non'
/
&SYSTEM
ibrav = 0
ecutwfc = 50.0
ecutrho = 400
occupations = 'smearing'
smearing = 'mp'
degauss = 0.01
assume_isolated = 'esm'
esm_bc = 'bc1'
input_dft = 'BEEF-VDW'
nosym = .true.
nspin = 1
ntyp = 6
nat = 18
/
&ELECTRONS
electron_maxstep = 200
mixing_beta = 0.1
conv_thr = 1e-06
/
&IONS
ion_dynamics = 'bfgs'
upscale = 1.0
/
&CELL
/

K_POINTS {automatic}
6 6 1 0 0 0

ATOMIC_SPECIES
Au 196.9 Au.pbe-n-rrkjus_psl.1.0.0.UPF
C 12.01 C.pbe-n-rrkjus_psl.1.0.0.UPF
Ge 72.64 Ge.pbe-dn-rrkjus_psl.1.0.0.UPF
In 114.8 In.pbe-dn-rrkjus_psl.1.0.0.UPF
Li 6.941 Li.pbe-sl-rrkjus_psl.1.0.0.UPF
O 15.99 O.pbe-n-rrkjus_psl.1.0.0.UPF


CELL_PARAMETERS {angstrom}
8.39470000 0.00000000 0.00000000
0.00000000 6.02588000 0.00000000
0.00000000 0.00000000 24.51900000

ATOMIC_POSITIONS {angstrom}
Li 2.09867500 1.48658460 -0.7532236799999978 0 0 0
Li 2.09859105 4.30537074 2.20671000
Li 6.29602500 1.48658460 -0.7532236799999978 0 0 0
Li 6.29610895 4.35628943 2.20940709
In 2.09867500 4.49952460 -0.7532236799999978 0 0 0
In 2.09850711 1.29863740 2.34082893
In 6.29602500 4.49952460 -0.7532236799999978 0 0 0
In 6.29619289 1.34780858 2.42909733
Ge 0.00000000 3.01294000 -2.2594258499999995 0 0 0
Ge 8.37933770 5.79394388 0.88685223
Ge 4.19735000 3.01294000 -2.2594258499999995 0 0 0
Ge 4.21271230 5.79388362 0.88734261
Au 0.00000000 0.00000000 -2.2594258499999995 0 0 0
Au 8.38689293 2.85506194 0.80961738
Au 4.19735000 0.00000000 -2.2594258499999995 0 0 0
Au 4.20524102 2.85518246 0.80986257
C 2.09867500 2.30658635 5.69674446
O 2.09884289 1.35130359 6.31192617
