&CONTROL
calculation = 'relax'
prefix = 'scf'
pseudo_dir = '/vol0403/data/hp230205/u10028/POT_HYBRID_KKJUS_GBRV'
outdir = './data'
tprnfor = .true.
nstep = 50
disk_io = 'non'
/
&SYSTEM
ibrav = 0
ecutwfc = 50.0
ecutrho = 400
occupations = 'smearing'
smearing = 'mp'
degauss = 0.01
assume_isolated = 'esm'
esm_bc = 'bc1'
input_dft = 'BEEF-VDW'
nosym = .true.
nspin = 1
ntyp = 6
nat = 34
/
&ELECTRONS
electron_maxstep = 200
mixing_beta = 0.1
conv_thr = 1e-06
/
&IONS
ion_dynamics = 'bfgs'
upscale = 1.0
/
&CELL
/

K_POINTS {automatic}
6 6 1 0 0 0

ATOMIC_SPECIES
C 12.01 C.pbe-n-rrkjus_psl.1.0.0.UPF
Ge 72.64 Ge.pbe-dn-rrkjus_psl.1.0.0.UPF
Li 6.941 Li.pbe-sl-rrkjus_psl.1.0.0.UPF
O 15.99 O.pbe-n-rrkjus_psl.1.0.0.UPF
Sn 118.7 Sn.pbe-dn-rrkjus_psl.1.0.0.UPF
Y 88.90 Y.pbe-spn-rrkjus_psl.1.0.0.UPF


CELL_PARAMETERS {angstrom}
8.52742000 0.00000000 0.00000000
0.00000000 9.43388000 0.00000000
0.00000000 0.00000000 26.45610000

ATOMIC_POSITIONS {angstrom}
Li 1.83817066 2.49403486 3.54802757
Li 2.13185500 2.35847000 -1.0759695899999997 0 0 0
Li 1.83817066 6.93984514 3.54802757
Li 2.13185500 7.07541000 -1.0759695899999997 0 0 0
Li 6.68916407 2.49412919 3.54802757
Li 6.39556500 2.35847000 -1.0759695899999997 0 0 0
Li 6.68924934 6.93984514 3.54802757
Li 6.39556500 7.07541000 -1.0759695899999997 0 0 0
Y 2.04231709 0.00000000 1.15586701
Y 2.13185500 0.00000000 -3.22817332 0 0 0
Y 2.21806722 4.71694000 1.06618083
Y 2.13185500 4.71694000 -3.22817332 0 0 0
Y 6.48510291 0.00000000 1.15586701
Y 6.39556500 0.00000000 -3.22817332 0 0 0
Y 6.30935278 4.71694000 1.06618083
Y 6.39556500 4.71694000 -3.22817332 0 0 0
Sn 0.00000000 2.51318563 1.01485600
Sn 0.00000000 2.35847000 -3.22817332 0 0 0
Sn 0.00000000 6.92069437 1.01485600
Sn 0.00000000 7.07541000 -3.22817332 0 0 0
Sn 4.26371000 2.29356491 1.52889802
Sn 4.26371000 2.35847000 -3.22817332 0 0 0
Sn 4.26371000 7.14031509 1.52889802
Sn 4.26371000 7.07541000 -3.22817332 0 0 0
Ge 0.00000000 9.43340831 3.45225649
Ge 0.00000000 0.00000000 -1.0759695899999997 0 0 0
Ge 0.00000000 4.71703434 3.11626402
Ge 0.00000000 4.71694000 -1.0759695899999997 0 0 0
Ge 4.26371000 0.00000000 3.33055843
Ge 4.26371000 0.00000000 -1.0759695899999997 0 0 0
Ge 4.26371000 4.71694000 3.32711914
Ge 4.26371000 4.71694000 -1.0759695899999997 0 0 0
C 0.00000000 0.00028302 5.34360308
O 0.00000000 0.00009434 6.51666655
