&CONTROL
calculation = 'relax'
prefix = 'scf'
pseudo_dir = '/vol0004/mdt0/data/hp150275/u10028/POT_KKJUS'
outdir = './data'
tprnfor = .true.
nstep = 50
disk_io = 'non'
/
&SYSTEM
ibrav = 0
ecutwfc = 50.0
ecutrho = 400
occupations = 'smearing'
smearing = 'mp'
degauss = 0.01
assume_isolated = 'esm'
esm_bc = 'bc1'
input_dft = 'BEEF-VDW'
nosym = .true.
nspin = 1
ntyp = 3
nat = 17
/
&ELECTRONS
electron_maxstep = 200
mixing_beta = 0.1
conv_thr = 1e-06
/
&IONS
ion_dynamics = 'bfgs'
upscale = 1.0
/
&CELL
/

K_POINTS {automatic}
8 8 1 0 0 0

ATOMIC_SPECIES
C 12.01 C.pbe-n-rrkjus_psl.1.0.0.UPF
Ru 101.0 Ru.pbe-spn-rrkjus_psl.1.0.0.UPF
Si 28.08 Si.pbe-nl-rrkjus_psl.1.0.0.UPF

CELL_PARAMETERS {angstrom}
5.87849000 0.00000000 0.00000000
-0.00000000 5.87849000 0.00000000
0.00000000 0.00000000 24.40890000

ATOMIC_POSITIONS {angstrom}
Si 0.00000000 0.00000000 -1.7891723699999993 0 0 0
Si 0.00000000 0.00000000 1.15014737
Si 0.00000000 2.93924500 -1.7891723699999993 0 0 0
Si 0.00000000 2.93924500 1.15014737
Si 2.93924500 0.00000000 -1.7891723699999993 0 0 0
Si 2.93924500 -0.00000000 1.15014737
Si 2.93924500 2.93924500 -1.7891723699999993 0 0 0
Si 2.93924500 2.93924500 1.15014737
Ru 1.46962250 1.46962250 -0.3195124999999983 0 0 0
Ru 1.46962250 1.46962250 2.61956315
Ru 1.46962250 4.40886750 -0.3195124999999983 0 0 0
Ru 1.46962250 4.40886750 2.61956315
Ru 4.40886750 1.46962250 -0.3195124999999983 0 0 0
Ru 4.40886750 1.46962250 2.61956315
Ru 4.40886750 4.40886750 -0.3195124999999983 0 0 0
Ru 4.40886750 4.40886750 2.61956315
C 0.00000000 0.00000000 3.41968689
