&CONTROL
calculation = 'relax'
prefix = 'scf'
pseudo_dir = '/vol0004/mdt0/data/hp150275/u10028/POT_KKJUS'
outdir = './data'
tprnfor = .true.
nstep = 50
disk_io = 'non'
/
&SYSTEM
ibrav = 0
ecutwfc = 50.0
ecutrho = 400
occupations = 'smearing'
smearing = 'mp'
degauss = 0.01
assume_isolated = 'esm'
esm_bc = 'bc1'
input_dft = 'BEEF-VDW'
nosym = .true.
nspin = 1
ntyp = 5
nat = 34
/
&ELECTRONS
electron_maxstep = 200
mixing_beta = 0.1
conv_thr = 1e-06
/
&IONS
ion_dynamics = 'bfgs'
upscale = 1.0
/
&CELL
/

K_POINTS {automatic}
8 6 1 0 0 0

ATOMIC_SPECIES
C 12.01 C.pbe-n-rrkjus_psl.1.0.0.UPF
Cu 63.54 Cu.pbe-dn-rrkjus_psl.1.0.0.UPF
Li 6.941 Li.pbe-sl-rrkjus_psl.1.0.0.UPF
O 15.99 O.pbe-n-rrkjus_psl.1.0.0.UPF
Sb 121.7 Sb.pbe-n-rrkjus_psl.1.0.0.UPF

CELL_PARAMETERS {angstrom}
6.37457000 0.00000000 0.00000000
0.00000000 9.01500000 0.00000000
0.00000000 0.00000000 26.76130000

ATOMIC_POSITIONS {angstrom}
Li 0.00000000 6.76125000 -1.1269183399999996 0 0 0
Li 3.18728500 0.00000000 -3.3807550299999996 0 0 0
Li 0.00000000 2.25375000 -1.1269183399999996 0 0 0
Li 3.18728500 4.50750000 -3.3807550299999996 0 0 0
Li 1.59364250 0.00000000 -1.1269183399999996 0 0 0
Li 1.59364250 4.50750000 -1.1269183399999996 0 0 0
Li 4.78092750 6.76125000 -3.3807550299999996 0 0 0
Li 4.78092750 2.25375000 -3.3807550299999996 0 0 0
Li 6.16114940 2.26474830 3.53837909
Li 3.25593912 4.50750000 1.12905925
Li 6.16108565 6.75043200 3.53837909
Li 3.19652813 0.00000000 1.11996040
Li 1.73789902 4.50759015 3.28066777
Li 1.70959593 0.00009015 3.29806261
Li 4.87488866 2.23833435 1.03994412
Li 4.87476117 6.77657550 1.03994412
Cu 0.00000000 0.00000000 -3.3807550299999996 0 0 0
Cu 3.18728500 2.25375000 -1.1269183399999996 0 0 0
Cu 3.18728500 6.76125000 -1.1269183399999996 0 0 0
Cu 0.00000000 4.50750000 -3.3807550299999996 0 0 0
Cu 6.30719080 4.50750000 1.20934315
Cu 3.39943069 6.76088940 3.07032395
Cu 3.39936694 2.25438105 3.07032395
Cu 6.35684870 0.00000000 1.16010236
Sb 1.59364250 2.25375000 -3.3807550299999996 0 0 0
Sb 1.59364250 6.76125000 -3.3807550299999996 0 0 0
Sb 4.78092750 4.50750000 -1.1269183399999996 0 0 0
Sb 4.78092750 0.00000000 -1.1269183399999996 0 0 0
Sb 1.52288477 6.74944035 1.22245618
Sb 1.52288477 2.26555965 1.22245618
Sb 4.72948472 0.00018030 3.44792589
Sb 4.69907802 4.50759015 3.53168876
C 3.91162739 0.00000000 7.23224132
O 4.96897732 0.00027045 7.64757670
