&CONTROL
calculation = 'relax'
prefix = 'scf'
pseudo_dir = '/vol0004/mdt0/data/hp150275/u10028/POT_HYBRID_KKJUS_GBRV'
outdir = './data'
tprnfor = .true.
nstep = 50
disk_io = 'non'
/
&SYSTEM
ibrav = 0
ecutwfc = 50.0
ecutrho = 400
occupations = 'smearing'
smearing = 'mp'
degauss = 0.01
assume_isolated = 'esm'
esm_bc = 'bc1'
input_dft = 'BEEF-VDW'
nosym = .true.
nspin = 2
ntyp = 5
nat = 34
starting_magnetization(1) = 0.0
starting_magnetization(2) = 0.0
starting_magnetization(3) = 0.001
starting_magnetization(4) = 0.0
starting_magnetization(5) = 0.0
/
&ELECTRONS
electron_maxstep = 200
mixing_beta = 0.1
conv_thr = 1e-06
/
&IONS
ion_dynamics = 'bfgs'
upscale = 1.0
/
&CELL
/

K_POINTS {automatic}
9 6 2 0  0  0

ATOMIC_SPECIES
C 12.01 C.pbe-n-rrkjus_psl.1.0.0.UPF
Mg 24.30 Mg.pbe-spnl-rrkjus_psl.1.0.0.UPF
Ni 58.69 ni_pbe_v1.4.uspp.F.UPF
O 15.99 O.pbe-n-rrkjus_psl.1.0.0.UPF
Sn 118.7 Sn.pbe-dn-rrkjus_psl.1.0.0.UPF

CELL_PARAMETERS {angstrom}
6.21377000 0.00000000 0.00000000
0.00000000 8.78760000 0.00000000
0.00000000 0.00000000 26.59070000

ATOMIC_POSITIONS {angstrom}
Mg 0.00000000 0.00000000 23.29531455
Mg 3.10688500 2.19690000 25.49223818
Mg 3.10688500 6.59070000 25.49223818
Mg 0.00000000 4.39380000 23.29531455
Mg 0.00000000 4.38387001 0.99449218
Mg 3.10688500 6.59078788 3.43897523
Mg 3.10688500 2.19690000 3.45040923
Mg 0.00000000 0.00992999 0.99449218
Ni 1.55344250 0.00000000 25.49223818
Ni 4.66032750 4.39380000 25.49223818
Ni 4.66032750 0.00000000 25.49223818
Ni 1.55344250 4.39380000 25.49223818
Ni 4.66032750 6.59070000 23.29531455
Ni 1.55344250 2.19690000 23.29531455
Ni 1.55344250 6.59070000 23.29531455
Ni 4.66032750 2.19690000 23.29531455
Ni 1.39523992 4.40979343 3.08186213
Ni 4.81859222 8.77169444 3.08186213
Ni 4.81853008 4.40979343 3.08186213
Ni 1.39517778 8.77169444 3.08186213
Ni 4.64168619 2.19690000 1.18195662
Ni 1.54064213 6.59070000 1.16094996
Ni 1.57208381 2.19690000 1.18195662
Ni 4.67312787 6.59070000 1.16094996
Sn 0.00000000 6.59070000 25.49223818
Sn 3.10688500 0.00000000 23.29531455
Sn 0.00000000 2.19690000 25.49223818
Sn 3.10688500 4.39380000 23.29531455
Sn 0.00000000 2.19690000 3.41770267
Sn 3.10688500 4.40126946 1.12079800
Sn 0.00000000 6.59070000 3.46822500
Sn 3.10688500 8.78013054 1.12079800
C 3.10688500 2.19690000 5.71460734
O 3.10688500 2.19690000 6.85508246
