&CONTROL
calculation = 'relax'
prefix = 'scf'
pseudo_dir = '/vol0004/mdt0/data/hp150275/u10028/POT_KKJUS'
outdir = './data'
tprnfor = .true.
nstep = 50
disk_io = 'non'
/
&SYSTEM
ibrav = 0
ecutwfc = 50.0
ecutrho = 400
occupations = 'smearing'
smearing = 'mp'
degauss = 0.01
assume_isolated = 'esm'
esm_bc = 'bc1'
input_dft = 'BEEF-VDW'
nosym = .true.
nspin = 1
ntyp = 2
nat = 32
/
&ELECTRONS
electron_maxstep = 200
mixing_beta = 0.1
conv_thr = 1e-06
/
&IONS
ion_dynamics = 'bfgs'
upscale = 1.0
/
&CELL
/

K_POINTS {automatic}
9 6 2 0  0  0

ATOMIC_SPECIES
Nb 92.90 Nb.pbe-spn-rrkjus_psl.1.0.0.UPF
Ru 101.0 Ru.pbe-spn-rrkjus_psl.1.0.0.UPF

CELL_PARAMETERS {angstrom}
6.35921000 0.00000000 0.00000000
0.00000000 8.99329000 0.00000000
0.00000000 0.00000000 26.74500000

ATOMIC_POSITIONS {angstrom}
Nb 0.00000000 0.00000000 -3.3725445 0 0 0
Nb 0.00000000 2.24832250 -1.1240923500000015 0 0 0
Nb 0.00000000 0.00000000 1.16982630
Nb 0.00000000 2.24832250 3.45598890
Nb 0.00000000 4.49664500 -3.3725445 0 0 0
Nb 0.00000000 6.74496750 -1.1240923500000015 0 0 0
Nb 0.00000000 4.49664500 1.16982630
Nb 0.00000000 6.74496750 3.45598890
Nb 3.17960500 0.00000000 -3.3725445 0 0 0
Nb 3.17960500 2.24832250 -1.1240923500000015 0 0 0
Nb 3.17960500 0.00000000 1.16982630
Nb 3.17960500 2.24832250 3.45598890
Nb 3.17960500 4.49664500 -3.3725445 0 0 0
Nb 3.17960500 6.74496750 -1.1240923500000015 0 0 0
Nb 3.17960500 4.49664500 1.16982630
Nb 3.17960500 6.74496750 3.45598890
Ru 1.58980250 2.24832250 -3.3725445 0 0 0
Ru 1.58980250 0.00000000 -1.1240923500000015 0 0 0
Ru 1.58980250 2.24832250 1.17731490
Ru 1.58980250 0.00008993 3.21421410
Ru 1.58980250 6.74496750 -3.3725445 0 0 0
Ru 1.58980250 4.49664500 -1.1240923500000015 0 0 0
Ru 1.58980250 6.74496750 1.17731490
Ru 1.58980250 4.49655507 3.21421410
Ru 4.76940750 2.24832250 -3.3725445 0 0 0
Ru 4.76940750 0.00000000 -1.1240923500000015 0 0 0
Ru 4.76940750 2.24832250 1.17731490
Ru 4.76940750 0.00008993 3.21421410
Ru 4.76940750 6.74496750 -3.3725445 0 0 0
Ru 4.76940750 4.49664500 -1.1240923500000015 0 0 0
Ru 4.76940750 6.74496750 1.17731490
Ru 4.76940750 4.49655507 3.21421410
