&CONTROL
calculation = 'relax'
prefix = 'scf'
pseudo_dir = '/vol0004/mdt0/data/hp150275/u10028/POT_KKJUS'
outdir = './data'
tprnfor = .true.
nstep = 50
disk_io = 'non'
/
&SYSTEM
ibrav = 0
ecutwfc = 50.0
ecutrho = 400
occupations = 'smearing'
smearing = 'mp'
degauss = 0.01
assume_isolated = 'esm'
esm_bc = 'bc1'
input_dft = 'BEEF-VDW'
nosym = .true.
nspin = 1
ntyp = 2
nat = 16
/
&ELECTRONS
electron_maxstep = 200
mixing_beta = 0.1
conv_thr = 1e-06
/
&IONS
ion_dynamics = 'bfgs'
upscale = 1.0
/
&CELL
/

K_POINTS {automatic}
8 11 2 0  0  0

ATOMIC_SPECIES
Ir 192.2 Ir.pbe-n-rrkjus_psl.0.2.3.UPF
Sc 44.95 Sc.pbe-spn-rrkjus_psl.1.0.0.UPF

CELL_PARAMETERS {angstrom}
7.92728000 0.00000000 0.00000000
0.00000000 5.60543000 0.00000000
0.00000000 0.00000000 24.20410000

ATOMIC_POSITIONS {angstrom}
Sc 0.00000000 0.00000000 -2.1021260800000015 0 0 0
Sc 0.00000000 2.80271500 0.67892500
Sc 3.96364000 0.00000000 -2.1021260800000015 0 0 0
Sc 3.96364000 2.80271500 0.67892500
Ir 0.00000000 2.80271500 -2.1021260800000015 0 0 0
Ir 1.98182000 4.20407250 -0.700708689999999 0 0 0
Ir 1.98182000 1.40135750 -0.700708689999999 0 0 0
Ir 0.00000000 0.00000000 0.64479722
Ir 1.98182000 1.40163777 1.94358923
Ir 1.98182000 4.20379223 1.94383127
Ir 3.96364000 2.80271500 -2.1021260800000015 0 0 0
Ir 5.94546000 4.20407250 -0.700708689999999 0 0 0
Ir 5.94546000 1.40135750 -0.700708689999999 0 0 0
Ir 3.96364000 0.00000000 0.64479722
Ir 5.94546000 1.40169383 1.94358923
Ir 5.94546000 4.20373617 1.94358923
