&CONTROL
calculation = 'relax'
prefix = 'scf'
pseudo_dir = '/vol0004/mdt0/data/hp150275/u10028/POT_KKJUS'
outdir = './data'
tprnfor = .true.
nstep = 50
disk_io = 'non'
/
&SYSTEM
ibrav = 0
ecutwfc = 50.0
ecutrho = 400
occupations = 'smearing'
smearing = 'mp'
degauss = 0.01
assume_isolated = 'esm'
esm_bc = 'bc1'
input_dft = 'BEEF-VDW'
nosym = .true.
nspin = 1
ntyp = 3
nat = 16
/
&ELECTRONS
electron_maxstep = 200
mixing_beta = 0.1
conv_thr = 1e-06
/
&IONS
ion_dynamics = 'bfgs'
upscale = 1.0
/
&CELL
/

K_POINTS {automatic}
8 8 1 0 0 0

ATOMIC_SPECIES
In 114.8 In.pbe-dn-rrkjus_psl.1.0.0.UPF
Li 6.941 Li.pbe-sl-rrkjus_psl.1.0.0.UPF
Pd 106.4 Pd.pbe-n-rrkjus_psl.1.0.0.UPF

CELL_PARAMETERS {angstrom}
6.70566000 0.00000000 0.00000000
-0.00000000 6.70566000 0.00000000
0.00000000 0.00000000 25.02920000

ATOMIC_POSITIONS {angstrom}
Li 0.00000000 0.00000000 2.51468372
Li 3.35283000 3.35283000 2.51468372
Li 3.35283000 0.00000000 -0.8382279100000005 0 0 0
Li 0.00000000 3.35283000 -0.8382279100000005 0 0 0
In 1.67641500 1.67641500 0.83822791
In 5.02924500 5.02924500 -2.5146837200000007 0 0 0
In 5.02924500 1.67641500 0.83822791
In 1.67641500 5.02924500 -2.5146837200000007 0 0 0
In 5.02924500 5.02924500 0.83822791
In 1.67641500 1.67641500 -2.5146837200000007 0 0 0
In 1.67641500 5.02924500 0.83822791
In 5.02924500 1.67641500 -2.5146837200000007 0 0 0
Pd 0.00000000 0.00000000 -0.8382279100000005 0 0 0
Pd 3.35283000 -0.00000000 2.51468372
Pd 0.00000000 3.35283000 2.51468372
Pd 3.35283000 3.35283000 -0.8382279100000005 0 0 0
