&CONTROL
calculation = 'relax'
prefix = 'scf'
pseudo_dir = '/vol0004/mdt0/data/hp150275/u10028/POT_KKJUS'
outdir = './data'
tprnfor = .true.
nstep = 50
disk_io = 'non'
/
&SYSTEM
ibrav = 0
ecutwfc = 50.0
ecutrho = 400
occupations = 'smearing'
smearing = 'mp'
degauss = 0.01
assume_isolated = 'esm'
esm_bc = 'bc1'
input_dft = 'BEEF-VDW'
nosym = .true.
nspin = 1
ntyp = 4
nat = 33
/
&ELECTRONS
electron_maxstep = 200
mixing_beta = 0.1
conv_thr = 1e-06
/
&IONS
ion_dynamics = 'bfgs'
upscale = 1.0
/
&CELL
/

K_POINTS {automatic}
8 6 1 0 0 0

ATOMIC_SPECIES
C 12.01 C.pbe-n-rrkjus_psl.1.0.0.UPF
Li 6.941 Li.pbe-sl-rrkjus_psl.1.0.0.UPF
Pd 106.4 Pd.pbe-n-rrkjus_psl.1.0.0.UPF
Sn 118.7 Sn.pbe-dn-rrkjus_psl.1.0.0.UPF

CELL_PARAMETERS {angstrom}
6.41477000 0.00000000 0.00000000
0.00000000 9.07185000 0.00000000
0.00000000 0.00000000 26.80390000

ATOMIC_POSITIONS {angstrom}
Li 0.00000000 0.00000000 -3.4019509899999996 0 0 0
Li 3.20738500 2.26796250 -1.134073009999998 0 0 0
Li 3.20738500 6.80388750 -1.134073009999998 0 0 0
Li 0.00000000 4.53592500 -3.4019509899999996 0 0 0
Li 0.00000000 4.53592500 1.04696033
Li 3.20738500 6.71289684 3.51372325
Li 3.20738500 2.35895316 3.51372325
Li 0.00000000 0.00000000 1.19920649
Sn 0.00000000 6.80388750 -1.134073009999998 0 0 0
Sn 3.20738500 0.00000000 -3.4019509899999996 0 0 0
Sn 0.00000000 2.26796250 -1.134073009999998 0 0 0
Sn 3.20738500 4.53592500 -3.4019509899999996 0 0 0
Sn 0.00000000 2.24283348 3.64854687
Sn 3.20738500 4.53592500 1.13702144
Sn 0.00000000 6.82901652 3.64854687
Sn 3.20738500 0.00000000 0.98665156
Pd 1.60369250 0.00000000 -1.134073009999998 0 0 0
Pd 4.81107750 4.53592500 -1.134073009999998 0 0 0
Pd 4.81107750 0.00000000 -1.134073009999998 0 0 0
Pd 1.60369250 4.53592500 -1.134073009999998 0 0 0
Pd 4.81107750 6.80388750 -3.4019509899999996 0 0 0
Pd 1.60369250 2.26796250 -3.4019509899999996 0 0 0
Pd 1.60369250 6.80388750 -3.4019509899999996 0 0 0
Pd 4.81107750 2.26796250 -3.4019509899999996 0 0 0
Pd 1.47956670 4.53592500 3.21995251
Pd 4.60323895 0.00000000 3.24193170
Pd 4.93520330 4.53592500 3.21995251
Pd 1.81153105 0.00000000 3.24193170
Pd 4.85790532 2.28420111 1.19411374
Pd 1.55686468 6.78764889 1.19411374
Pd 1.55686468 2.28420111 1.19411374
Pd 4.85796947 6.78764889 1.19411374
C 0.00000000 0.00000000 4.08169789
