&CONTROL
calculation = 'relax'
prefix = 'scf'
pseudo_dir = '/vol0004/mdt0/data/hp150275/u10028/POT_HYBRID_KKJUS_GBRV'
outdir = './data'
tprnfor = .true.
nstep = 50
disk_io = 'non'
/
&SYSTEM
ibrav = 0
ecutwfc = 50.0
ecutrho = 400
occupations = 'smearing'
smearing = 'mp'
degauss = 0.01
assume_isolated = 'esm'
esm_bc = 'bc1'
input_dft = 'BEEF-VDW'
nosym = .true.
nspin = 2
ntyp = 5
nat = 34
starting_magnetization(1) = 0.0
starting_magnetization(2) = 0.1
starting_magnetization(3) = 0.1
starting_magnetization(4) = 0.0
starting_magnetization(5) = 0.0
/
&ELECTRONS
electron_maxstep = 200
mixing_beta = 0.1
conv_thr = 1e-06
/
&IONS
ion_dynamics = 'bfgs'
upscale = 1.0
/
&CELL
/

K_POINTS {automatic}
9 6 2 0  0  0

ATOMIC_SPECIES
C 12.01 C.pbe-n-rrkjus_psl.1.0.0.UPF
Co 58.93 co_pbe_v1.2.uspp.F.UPF
Mn 54.93 mn_pbe_v1.5.uspp.F.UPF
O 15.99 O.pbe-n-rrkjus_psl.1.0.0.UPF
Si 28.08 Si.pbe-nl-rrkjus_psl.1.0.0.UPF

CELL_PARAMETERS {angstrom}
5.64266000 0.00000000 0.00000000
0.00000000 7.97993000 0.00000000
0.00000000 0.00000000 25.98490000

ATOMIC_POSITIONS {angstrom}
Mn 0.00000000 0.00000000 22.99247892
Mn 2.82133000 1.99498250 24.98733969
Mn 2.82133000 5.98494750 24.98733969
Mn 0.00000000 3.98996500 22.99247892
Mn 0.00000000 3.99203978 0.97937088
Mn 2.82133000 5.98494750 3.12650317
Mn 2.82133000 1.99498250 3.04620983
Mn 0.00000000 7.97785522 0.97937088
Co 1.41066500 0.00000000 24.98733969
Co 4.23199500 3.98996500 24.98733969
Co 4.23199500 0.00000000 24.98733969
Co 1.41066500 3.98996500 24.98733969
Co 4.23199500 5.98494750 22.99247892
Co 1.41066500 1.99498250 22.99247892
Co 1.41066500 5.98494750 22.99247892
Co 4.23199500 1.99498250 22.99247892
Co 1.34374305 3.97368594 2.93447476
Co 4.29886052 0.01627906 2.93447476
Co 4.29891695 3.97368594 2.93447476
Co 1.34374305 0.01627906 2.93447476
Co 4.21044004 1.99498250 0.98482771
Co 1.43030146 5.98494750 0.99678076
Co 1.43227639 1.99498250 0.98482771
Co 4.21241497 5.98494750 0.99678076
Si 0.00000000 5.98494750 24.98733969
Si 2.82133000 0.00000000 22.99247892
Si 0.00000000 1.99498250 24.98733969
Si 2.82133000 3.98996500 22.99247892
Si 0.00000000 1.99498250 2.91420653
Si 2.82133000 3.98860841 1.03056113
Si 0.00000000 5.98494750 2.93161642
Si 2.82133000 0.00135659 1.03056113
C 2.82133000 1.99498250 4.91608323
O 2.82133000 1.99498250 6.07293098
