&CONTROL
calculation = 'relax'
prefix = 'scf'
pseudo_dir = '/vol0004/mdt0/data/hp150275/u10028/POT_KKJUS'
outdir = './data'
tprnfor = .true.
nstep = 50
disk_io = 'non'
/
&SYSTEM
ibrav = 0
ecutwfc = 50.0
ecutrho = 400
occupations = 'smearing'
smearing = 'mp'
degauss = 0.01
assume_isolated = 'esm'
esm_bc = 'bc1'
input_dft = 'BEEF-VDW'
nosym = .true.
nspin = 1
ntyp = 4
nat = 33
/
&ELECTRONS
electron_maxstep = 200
mixing_beta = 0.1
conv_thr = 1e-06
/
&IONS
ion_dynamics = 'bfgs'
upscale = 1.0
/
&CELL
/

K_POINTS {automatic}
9 6 2 0  0  0

ATOMIC_SPECIES
C 12.01 C.pbe-n-rrkjus_psl.1.0.0.UPF
Ge 72.64 Ge.pbe-dn-rrkjus_psl.1.0.0.UPF
Li 6.941 Li.pbe-sl-rrkjus_psl.1.0.0.UPF
Mg 24.30 Mg.pbe-spnl-rrkjus_psl.1.0.0.UPF

CELL_PARAMETERS {angstrom}
6.76484000 0.00000000 0.00000000
0.00000000 9.56693000 0.00000000
0.00000000 0.00000000 27.17520000

ATOMIC_POSITIONS {angstrom}
Li 0.00000000 0.00000000 -3.5876699000000016 0 0 0
Li 3.38242000 2.39173250 -1.1959805500000016 0 0 0
Li 3.38242000 7.17519750 -1.1959805500000016 0 0 0
Li 0.00000000 4.78346500 -3.5876699000000016 0 0 0
Li 6.76477235 4.78375201 1.08483398
Li 3.38242000 6.92588330 4.51842050
Li 3.38242000 2.64181205 4.51896401
Li 0.00020295 9.56415559 1.51963718
Mg 1.69121000 0.00000000 -1.1959805500000016 0 0 0
Mg 5.07363000 4.78346500 -1.1959805500000016 0 0 0
Mg 5.07363000 0.00000000 -1.1959805500000016 0 0 0
Mg 1.69121000 4.78346500 -1.1959805500000016 0 0 0
Mg 5.07363000 7.17519750 -3.5876699000000016 0 0 0
Mg 1.69121000 2.39173250 -3.5876699000000016 0 0 0
Mg 1.69121000 7.17519750 -3.5876699000000016 0 0 0
Mg 5.07363000 2.39173250 -3.5876699000000016 0 0 0
Mg 1.63120587 4.78394335 3.54174382
Mg 4.71867885 0.00047835 3.92953392
Mg 5.13363413 4.78394335 3.54201557
Mg 2.04616115 0.00047835 3.92953392
Mg 5.02099954 2.38953211 1.30848588
Mg 1.74634345 7.17529317 1.30794238
Mg 1.74377281 2.38962778 1.30821413
Mg 5.01842891 7.17538884 1.30794238
Ge 0.00000000 7.17519750 -1.1959805500000016 0 0 0
Ge 3.38242000 0.00000000 -3.5876699000000016 0 0 0
Ge 0.00000000 2.39173250 -1.1959805500000016 0 0 0
Ge 3.38242000 4.78346500 -3.5876699000000016 0 0 0
Ge 0.00000000 2.04502696 3.57489756
Ge 3.38242000 4.78164728 1.04135366
Ge 0.00000000 7.52123336 3.57163654
Ge 3.38235235 9.56673866 1.07124638
C 0.00000000 9.56606898 3.61267109
