&CONTROL
calculation = 'relax'
prefix = 'scf'
pseudo_dir = '/vol0004/mdt0/data/hp150275/u10028/POT_HYBRID_KKJUS_GBRV'
outdir = './data'
tprnfor = .true.
nstep = 50
disk_io = 'non'
/
&SYSTEM
ibrav = 0
ecutwfc = 50.0
ecutrho = 400
occupations = 'smearing'
smearing = 'mp'
degauss = 0.01
assume_isolated = 'esm'
esm_bc = 'bc1'
input_dft = 'BEEF-VDW'
nosym = .true.
nspin = 2
ntyp = 5
nat = 18
starting_magnetization(1) = 0.1
starting_magnetization(2) = 0.1
starting_magnetization(3) = 0.1
starting_magnetization(4) = 0.1
starting_magnetization(5) = 0.1
/
&ELECTRONS
electron_maxstep = 200
mixing_beta = 0.1
conv_thr = 1e-06
/
&IONS
ion_dynamics = 'bfgs'
upscale = 1.0
/
&CELL
/

K_POINTS {automatic}
8 8 1 0 0 0

ATOMIC_SPECIES
C 12.01 C.pbe-n-rrkjus_psl.1.0.0.UPF
In 114.8 In.pbe-dn-rrkjus_psl.1.0.0.UPF
Ni 58.69 ni_pbe_v1.4.uspp.F.UPF
O 15.99 O.pbe-n-rrkjus_psl.1.0.0.UPF
Ti 47.86 Ti.pbe-spn-rrkjus_psl.1.0.0.UPF

CELL_PARAMETERS {angstrom}
6.16408000 0.00000000 0.00000000
0.00000000 6.16408000 0.00000000
0.00000000 0.00000000 24.62310000

ATOMIC_POSITIONS {angstrom}
Ti 0.00024656 6.16401836 2.18382274
Ti 3.08154687 3.08179344 2.19096344
Ti 3.08204000 0.00000000 -0.7704568000000016 0 0 0
Ti 0.00000000 3.08204000 -0.7704568000000016 0 0 0
In 0.00000000 0.00000000 -0.7704568000000016 0 0 0
In 3.08210164 6.16383344 2.56154109
In 0.00049313 3.08173180 2.52165167
In 3.08204000 3.08204000 -0.7704568000000016 0 0 0
Ni 1.54909494 1.53633530 0.85934619
Ni 4.62306000 4.62306000 -2.3116166299999996 0 0 0
Ni 4.61504670 1.53695171 0.86008488
Ni 1.54102000 4.62306000 -2.3116166299999996 0 0 0
Ni 4.61523162 4.62725157 0.85983865
Ni 1.54102000 1.54102000 -2.3116166299999996 0 0 0
Ni 1.54915659 4.62799126 0.85909996
Ni 4.62306000 1.54102000 -2.3116166299999996 0 0 0
C 6.15489552 3.08173180 6.54063405
O 0.01115698 3.08425907 7.67526650
