&CONTROL
calculation = 'relax'
prefix = 'scf'
pseudo_dir = '/vol0004/mdt0/data/hp150275/u10028/POT_HYBRID_KKJUS_GBRV'
outdir = './data'
tprnfor = .true.
nstep = 50
disk_io = 'non'
/
&SYSTEM
ibrav = 0
ecutwfc = 50.0
ecutrho = 400
occupations = 'smearing'
smearing = 'mp'
degauss = 0.01
assume_isolated = 'esm'
esm_bc = 'bc1'
input_dft = 'BEEF-VDW'
nosym = .true.
nspin = 2
ntyp = 5
nat = 34
starting_magnetization(1) = 0.0
starting_magnetization(2) = 0.1
starting_magnetization(3) = 0.1
starting_magnetization(4) = 0.0
starting_magnetization(5) = 0.0
/
&ELECTRONS
electron_maxstep = 200
mixing_beta = 0.1
conv_thr = 1e-06
/
&IONS
ion_dynamics = 'bfgs'
upscale = 1.0
/
&CELL
/

K_POINTS {automatic}
9 6 2 0  0  0

ATOMIC_SPECIES
C 12.01 C.pbe-n-rrkjus_psl.1.0.0.UPF
Co 58.93 co_pbe_v1.2.uspp.F.UPF
Mn 54.93 mn_pbe_v1.5.uspp.F.UPF
O 15.99 O.pbe-n-rrkjus_psl.1.0.0.UPF
Sn 118.7 Sn.pbe-dn-rrkjus_psl.1.0.0.UPF

CELL_PARAMETERS {angstrom}
6.01864000 0.00000000 0.00000000
0.00000000 8.51164000 0.00000000
0.00000000 0.00000000 26.38370000

ATOMIC_POSITIONS {angstrom}
Mn 0.00000000 0.00000000 23.19179997
Mn 3.00932000 2.12791000 25.31964538
Mn 3.00932000 6.38373000 25.31964538
Mn 0.00000000 4.25582000 23.19179997
Mn 0.00000000 4.25701163 1.08199554
Mn 3.00932000 6.38373000 3.12857915
Mn 3.00932000 2.12782488 3.13068984
Mn 0.00000000 8.51044837 1.08199554
Co 1.50466000 0.00000000 25.31964538
Co 4.51398000 4.25582000 25.31964538
Co 4.51398000 0.00000000 25.31964538
Co 1.50466000 4.25582000 25.31964538
Co 4.51398000 6.38373000 23.19179997
Co 1.50466000 2.12791000 23.19179997
Co 1.50466000 6.38373000 23.19179997
Co 4.51398000 2.12791000 23.19179997
Co 1.49057638 4.25394744 3.11881718
Co 4.52806362 0.00178744 3.11881718
Co 4.52806362 4.25394744 3.11881718
Co 1.49057638 0.00178744 3.11881718
Co 4.55580955 2.12782488 1.10468552
Co 1.46517772 6.38373000 1.10653238
Co 1.46283045 2.12782488 1.10494936
Co 4.55346228 6.38373000 1.10653238
Sn 0.00000000 6.38373000 25.31964538
Sn 3.00932000 0.00000000 23.19179997
Sn 0.00000000 2.12791000 25.31964538
Sn 3.00932000 4.25582000 23.19179997
Sn 0.00000000 2.12791000 3.40217812
Sn 3.00932000 4.25556465 1.03582406
Sn 0.00000000 6.38373000 3.41167625
Sn 3.00932000 0.00017023 1.03582406
C 6.01833907 2.12842070 7.41751342
O 0.00012037 2.12765465 8.55254019
