&CONTROL
calculation = 'relax'
prefix = 'scf'
pseudo_dir = '/vol0004/mdt0/data/hp150275/u10028/POT_KKJUS'
outdir = './data'
tprnfor = .true.
nstep = 50
disk_io = 'non'
/
&SYSTEM
ibrav = 0
ecutwfc = 50.0
ecutrho = 400
occupations = 'smearing'
smearing = 'mp'
degauss = 0.01
assume_isolated = 'esm'
esm_bc = 'bc1'
input_dft = 'BEEF-VDW'
nosym = .true.
nspin = 1
ntyp = 5
nat = 18
/
&ELECTRONS
electron_maxstep = 200
mixing_beta = 0.1
conv_thr = 1e-06
/
&IONS
ion_dynamics = 'bfgs'
upscale = 1.0
/
&CELL
/

K_POINTS {automatic}
10 10 2 0  0  0

ATOMIC_SPECIES
C 12.01 C.pbe-n-rrkjus_psl.1.0.0.UPF
Ga 69.72 Ga.pbe-dnl-rrkjus_psl.1.0.0.UPF
Hf 178.4 Hf.pbe-spn-rrkjus_psl.1.0.0.UPF
Ni 58.69 Ni.pbe-spn-rrkjus_psl.1.0.0.UPF
O 15.99 O.pbe-n-rrkjus_psl.1.0.0.UPF

CELL_PARAMETERS {angstrom}
6.09904000 0.00000000 0.00000000
0.00000000 6.09904000 0.00000000
0.00000000 0.00000000 24.57430000

ATOMIC_POSITIONS {angstrom}
Hf 0.00036594 6.09879604 2.31489906
Hf 3.04976396 3.04933703 2.35692111
Hf 3.04952000 0.00000000 -0.7622947900000021 0 0 0
Hf 0.00000000 3.04952000 -0.7622947900000021 0 0 0
Ga 0.00000000 0.00000000 -0.7622947900000021 0 0 0
Ga 3.04976396 6.09788118 2.32399155
Ga 6.09769821 3.05037387 2.32325432
Ga 3.04952000 3.04952000 -0.7622947900000021 0 0 0
Ni 1.57794363 1.57904146 0.85027078
Ni 4.57428000 4.57428000 -2.2871301000000024 0 0 0
Ni 4.52402391 1.57532104 0.84535592
Ni 1.52476000 4.57428000 -2.2871301000000024 0 0 0
Ni 4.52207222 4.52371896 0.84683038
Ni 1.52476000 1.52476000 -2.2871301000000024 0 0 0
Ni 1.57562599 4.52225519 0.84584741
Ni 4.57428000 1.52476000 -2.2871301000000024 0 0 0
C 0.00018297 6.09897901 4.57254000
O 0.00012198 0.00018297 5.72581190
