&CONTROL
calculation = 'relax'
prefix = 'scf'
pseudo_dir = '/vol0403/data/hp230205/u10028/POT_HYBRID_KKJUS_GBRV'
outdir = './data'
tprnfor = .true.
nstep = 50
disk_io = 'non'
/
&SYSTEM
ibrav = 0
ecutwfc = 50.0
ecutrho = 400
occupations = 'smearing'
smearing = 'mp'
degauss = 0.01
assume_isolated = 'esm'
esm_bc = 'bc1'
input_dft = 'BEEF-VDW'
nosym = .true.
nspin = 1
ntyp = 5
nat = 17
/
&ELECTRONS
electron_maxstep = 200
mixing_beta = 0.1
conv_thr = 1e-06
/
&IONS
ion_dynamics = 'bfgs'
upscale = 1.0
/
&CELL
/

K_POINTS {automatic}
6 6 1 0 0 0

ATOMIC_SPECIES
C 12.01 C.pbe-n-rrkjus_psl.1.0.0.UPF
Cu 63.54 Cu.pbe-dn-rrkjus_psl.1.0.0.UPF
In 114.8 In.pbe-dn-rrkjus_psl.1.0.0.UPF
Sn 118.7 Sn.pbe-dn-rrkjus_psl.1.0.0.UPF
Y 88.90 Y.pbe-spn-rrkjus_psl.1.0.0.UPF


CELL_PARAMETERS {angstrom}
6.35598000 0.00000000 0.00000000
0.00000000 8.84740000 0.00000000
0.00000000 0.00000000 24.76400000

ATOMIC_POSITIONS {angstrom}
Y 3.17799000 0.00000000 -2.382049160000001 0 0 0
Y 6.04707937 0.00000000 0.76124536
Y 3.17799000 4.42370000 -2.382049160000001 0 0 0
Y 6.26547084 4.42370000 0.86327304
In 1.53287170 2.21185000 -0.7939338400000011 0 0 0
In 4.12134455 2.38870953 2.24857120
In 1.53287170 6.63555000 -0.7939338400000011 0 0 0
In 4.12134455 6.45869047 2.24857120
Cu 0.00000000 0.00000000 -2.382049160000001 0 0 0
Cu 2.81836865 0.00000000 0.91874440
Cu 0.00000000 4.42370000 -2.382049160000001 0 0 0
Cu 3.08334946 4.42370000 0.47324004
Sn 4.71086170 2.21185000 -0.7939338400000011 0 0 0
Sn 1.15386461 2.07409598 2.86618536
Sn 4.71086170 6.63555000 -0.7939338400000011 0 0 0
Sn 1.15392817 6.77330402 2.86618536
C 1.39106978 0.00000000 2.35802808
