&CONTROL
calculation = 'relax'
prefix = 'scf'
pseudo_dir = '/vol0004/mdt0/data/hp150275/u10028/POT_KKJUS'
outdir = './data'
tprnfor = .true.
nstep = 50
disk_io = 'non'
/
&SYSTEM
ibrav = 0
ecutwfc = 50.0
ecutrho = 400
occupations = 'smearing'
smearing = 'mp'
degauss = 0.01
assume_isolated = 'esm'
esm_bc = 'bc1'
input_dft = 'BEEF-VDW'
nosym = .true.
nspin = 1
ntyp = 3
nat = 33
/
&ELECTRONS
electron_maxstep = 200
mixing_beta = 0.1
conv_thr = 1e-06
/
&IONS
ion_dynamics = 'bfgs'
upscale = 1.0
/
&CELL
/

K_POINTS {automatic}
8 6 1 0 0 0

ATOMIC_SPECIES
C 12.01 C.pbe-n-rrkjus_psl.1.0.0.UPF
Rh 102.9 Rh.pbe-spn-rrkjus_psl.1.0.0.UPF
Zr 91.22 Zr.pbe-spn-rrkjus_psl.1.0.0.UPF

CELL_PARAMETERS {angstrom}
6.65024000 0.00000000 0.00000000
0.00000000 9.40485000 0.00000000
0.00000000 0.00000000 27.05360000

ATOMIC_POSITIONS {angstrom}
Zr 1.66256000 2.35121250 -3.526707299999998 0 0 0
Zr 1.66256000 0.00000000 -1.1754789199999998 0 0 0
Zr 1.66369054 2.35121250 1.19522805
Zr 1.66375704 0.09150919 3.55538411
Zr 1.66256000 7.05363750 -3.526707299999998 0 0 0
Zr 1.66256000 4.70242500 -1.1754789199999998 0 0 0
Zr 1.66236049 7.05363750 1.18792358
Zr 1.66375704 4.61100986 3.55538411
Zr 4.98768000 2.35121250 -3.526707299999998 0 0 0
Zr 4.98768000 0.00000000 -1.1754789199999998 0 0 0
Zr 4.98827852 2.35121250 1.05536094
Zr 4.98894355 9.38227836 3.51318050
Zr 4.98768000 7.05363750 -3.526707299999998 0 0 0
Zr 4.98768000 4.70242500 -1.1754789199999998 0 0 0
Zr 4.98748049 7.05363750 1.17250302
Zr 4.98894355 4.72499664 3.51318050
Rh 0.00000000 0.00000000 -3.526707299999998 0 0 0
Rh 0.00000000 2.35121250 -1.1754789199999998 0 0 0
Rh 0.00585221 0.00489052 1.20063877
Rh 6.38609247 2.35121250 3.27700257
Rh 0.00000000 4.70242500 -3.526707299999998 0 0 0
Rh 0.00000000 7.05363750 -1.1754789199999998 0 0 0
Rh 0.00585221 4.69753448 1.20063877
Rh 0.03291869 7.05363750 3.27294453
Rh 3.32512000 0.00000000 -3.526707299999998 0 0 0
Rh 3.32512000 2.35121250 -1.1754789199999998 0 0 0
Rh 3.31893528 0.00460838 1.20063877
Rh 3.59618378 2.35121250 3.27862578
Rh 3.32512000 4.70242500 -3.526707299999998 0 0 0
Rh 3.32512000 7.05363750 -1.1754789199999998 0 0 0
Rh 3.31900178 4.69781662 1.20063877
Rh 3.29293284 7.05363750 3.27294453
C 1.66688266 2.35121250 3.70580213
