&CONTROL
calculation = 'relax'
prefix = 'scf'
pseudo_dir = '/vol0004/mdt0/data/hp150275/u10028/POT_KKJUS'
outdir = './data'
tprnfor = .true.
nstep = 50
disk_io = 'non'
/
&SYSTEM
ibrav = 0
ecutwfc = 50.0
ecutrho = 400
occupations = 'smearing'
smearing = 'mp'
degauss = 0.01
assume_isolated = 'esm'
esm_bc = 'bc1'
input_dft = 'BEEF-VDW'
nosym = .true.
nspin = 1
ntyp = 4
nat = 18
/
&ELECTRONS
electron_maxstep = 200
mixing_beta = 0.1
conv_thr = 1e-06
/
&IONS
ion_dynamics = 'bfgs'
upscale = 1.0
/
&CELL
/

K_POINTS {automatic}
9 9 2 0  0  0

ATOMIC_SPECIES
Al 26.98 Al.pbe-nl-rrkjus_psl.1.0.0.UPF
C 12.01 C.pbe-n-rrkjus_psl.1.0.0.UPF
O 15.99 O.pbe-n-rrkjus_psl.1.0.0.UPF
Pd 106.4 Pd.pbe-n-rrkjus_psl.1.0.0.UPF

CELL_PARAMETERS {angstrom}
6.18271000 0.00000000 0.00000000
-0.00000000 6.18271000 0.00000000
0.00000000 0.00000000 24.63700000

ATOMIC_POSITIONS {angstrom}
Al 0.00000000 0.00000000 -2.7788072300000017 0 0 0
Al 0.00000000 0.00000000 0.31264353
Al 0.00000000 3.09135500 -2.7788072300000017 0 0 0
Al 0.00000000 3.09135500 0.31264353
Al 3.09135500 0.00000000 -2.7788072300000017 0 0 0
Al 3.09135500 -0.00000000 0.31264353
Al 3.09135500 3.09135500 -2.7788072300000017 0 0 0
Al 3.09135500 3.09135500 0.31264353
Pd 1.54567750 1.54567750 -1.2330818500000014 0 0 0
Pd 1.54567750 1.54567750 1.85836891
Pd 1.54567750 4.63703250 -1.2330818500000014 0 0 0
Pd 1.54567750 4.63703250 1.85836891
Pd 4.63703250 1.54567750 -1.2330818500000014 0 0 0
Pd 4.63703250 1.54567750 1.85836891
Pd 4.63703250 4.63703250 -1.2330818500000014 0 0 0
Pd 4.63703250 4.63703250 1.85836891
C 1.54567750 1.54567750 3.75837435
O 1.54567750 1.54567750 4.90818314
