&CONTROL
calculation = 'relax'
prefix = 'scf'
pseudo_dir = '/vol0004/mdt0/data/hp150275/u10028/POT_KKJUS'
outdir = './data'
tprnfor = .true.
nstep = 50
disk_io = 'non'
/
&SYSTEM
ibrav = 0
ecutwfc = 50.0
ecutrho = 400
occupations = 'smearing'
smearing = 'mp'
degauss = 0.01
assume_isolated = 'esm'
esm_bc = 'bc1'
input_dft = 'BEEF-VDW'
nosym = .true.
nspin = 1
ntyp = 3
nat = 33
/
&ELECTRONS
electron_maxstep = 200
mixing_beta = 0.1
conv_thr = 1e-06
/
&IONS
ion_dynamics = 'bfgs'
upscale = 1.0
/
&CELL
/

K_POINTS {automatic}
8 6 1 0 0 0

ATOMIC_SPECIES
C 12.01 C.pbe-n-rrkjus_psl.1.0.0.UPF
Hf 178.4 Hf.pbe-spn-rrkjus_psl.1.0.0.UPF
Os 190.2 Os.pbe-spn-rrkjus_psl.1.0.0.UPF

CELL_PARAMETERS {angstrom}
6.49845000 0.00000000 0.00000000
0.00000000 9.19019000 0.00000000
0.00000000 0.00000000 26.89260000

ATOMIC_POSITIONS {angstrom}
Hf 0.00000000 0.00000000 -3.446286690000001 0 0 0
Hf 0.00000000 2.29754750 -1.1488518700000014 0 0 0
Hf 6.49773517 0.00147043 1.19456929
Hf 6.31779309 2.29754750 3.47936459
Hf 0.00000000 4.59509500 -3.446286690000001 0 0 0
Hf 0.00000000 6.89264250 -1.1488518700000014 0 0 0
Hf 6.49773517 4.59362457 1.19456929
Hf 0.01280195 6.89264250 3.49146626
Hf 3.24922500 0.00000000 -3.446286690000001 0 0 0
Hf 3.24922500 2.29754750 -1.1488518700000014 0 0 0
Hf 3.24993983 0.00147043 1.19456929
Hf 3.42988191 2.29754750 3.47936459
Hf 3.24922500 4.59509500 -3.446286690000001 0 0 0
Hf 3.24922500 6.89264250 -1.1488518700000014 0 0 0
Hf 3.24993983 4.59362457 1.19456929
Hf 3.23642305 6.89264250 3.49146626
Os 1.62461250 2.29754750 -3.446286690000001 0 0 0
Os 1.62461250 0.00000000 -1.1488518700000014 0 0 0
Os 1.62461250 2.29754750 1.10582371
Os 1.62461250 0.12967358 3.35781004
Os 1.62461250 6.89264250 -3.446286690000001 0 0 0
Os 1.62461250 4.59509500 -1.1488518700000014 0 0 0
Os 1.62461250 6.89264250 1.20451955
Os 1.62461250 4.46542142 3.35781004
Os 4.87383750 2.29754750 -3.446286690000001 0 0 0
Os 4.87383750 0.00000000 -1.1488518700000014 0 0 0
Os 4.87383750 2.29754750 1.06414018
Os 4.87383750 9.10334270 3.31128584
Os 4.87383750 6.89264250 -3.446286690000001 0 0 0
Os 4.87383750 4.59509500 -1.1488518700000014 0 0 0
Os 4.87383750 6.89264250 1.14589369
Os 4.87383750 4.68194230 3.31128584
C 1.62461250 2.29754750 4.43270726
