&CONTROL
calculation = 'relax'
prefix = 'scf'
pseudo_dir = '/vol0004/mdt0/data/hp150275/u10028/POT_KKJUS'
outdir = './data'
tprnfor = .true.
nstep = 50
disk_io = 'non'
/
&SYSTEM
ibrav = 0
ecutwfc = 50.0
ecutrho = 400
occupations = 'smearing'
smearing = 'mp'
degauss = 0.01
assume_isolated = 'esm'
esm_bc = 'bc1'
input_dft = 'BEEF-VDW'
nosym = .true.
nspin = 1
ntyp = 4
nat = 33
/
&ELECTRONS
electron_maxstep = 200
mixing_beta = 0.1
conv_thr = 1e-06
/
&IONS
ion_dynamics = 'bfgs'
upscale = 1.0
/
&CELL
/

K_POINTS {automatic}
9 6 2 0  0  0

ATOMIC_SPECIES
Ag 107.8 Ag.pbe-n-rrkjus_psl.1.0.0.UPF
C 12.01 C.pbe-n-rrkjus_psl.1.0.0.UPF
Ge 72.64 Ge.pbe-dn-rrkjus_psl.1.0.0.UPF
Li 6.941 Li.pbe-sl-rrkjus_psl.1.0.0.UPF

CELL_PARAMETERS {angstrom}
6.51415000 0.00000000 0.00000000
0.00000000 9.21240000 0.00000000
0.00000000 0.00000000 26.90930000

ATOMIC_POSITIONS {angstrom}
Li 0.00000000 0.00000000 -3.4546159300000028 0 0 0
Li 3.25707500 2.30310000 -1.1514489500000025 0 0 0
Li 3.25707500 6.90930000 -1.1514489500000025 0 0 0
Li 0.00000000 4.60620000 -3.4546159300000028 0 0 0
Li 0.00000000 4.60620000 1.03923717
Li 3.25707500 6.78797269 3.53346018
Li 3.25707500 2.42433518 3.53346018
Li 0.00000000 0.00000000 1.20096206
Ag 1.62853750 0.00000000 -1.1514489500000025 0 0 0
Ag 4.88561250 4.60620000 -1.1514489500000025 0 0 0
Ag 4.88561250 0.00000000 -1.1514489500000025 0 0 0
Ag 1.62853750 4.60620000 -1.1514489500000025 0 0 0
Ag 4.88561250 6.90930000 -3.4546159300000028 0 0 0
Ag 1.62853750 2.30310000 -3.4546159300000028 0 0 0
Ag 1.62853750 6.90930000 -3.4546159300000028 0 0 0
Ag 4.88561250 2.30310000 -3.4546159300000028 0 0 0
Ag 1.53883765 4.60620000 3.45649959
Ag 4.61657811 0.00000000 3.20920312
Ag 4.97537749 4.60620000 3.45649959
Ag 1.89757190 0.00000000 3.20920312
Ag 4.94717122 2.31479975 1.23540596
Ag 1.56704392 6.89750813 1.23540596
Ag 1.56697878 2.31489187 1.23540596
Ag 4.94710608 6.89760025 1.23540596
Ge 0.00000000 6.90930000 -1.1514489500000025 0 0 0
Ge 3.25707500 0.00000000 -3.4546159300000028 0 0 0
Ge 0.00000000 2.30310000 -1.1514489500000025 0 0 0
Ge 3.25707500 4.60620000 -3.4546159300000028 0 0 0
Ge 6.51408486 1.95127844 3.91153585
Ge 3.25727042 4.60610788 1.28545726
Ge 0.00000000 7.26112156 3.91153585
Ge 3.25700986 0.00009212 0.96496750
C 0.00000000 0.00000000 4.28638240
