&CONTROL
calculation = 'relax'
prefix = 'scf'
pseudo_dir = '/vol0004/mdt0/data/hp150275/u10028/POT_KKJUS'
outdir = './data'
tprnfor = .true.
nstep = 50
disk_io = 'non'
/
&SYSTEM
ibrav = 0
ecutwfc = 50.0
ecutrho = 400
occupations = 'smearing'
smearing = 'mp'
degauss = 0.01
assume_isolated = 'esm'
esm_bc = 'bc1'
input_dft = 'BEEF-VDW'
nosym = .true.
nspin = 1
ntyp = 2
nat = 32
/
&ELECTRONS
electron_maxstep = 200
mixing_beta = 0.1
conv_thr = 1e-06
/
&IONS
ion_dynamics = 'bfgs'
upscale = 1.0
/
&CELL
/

K_POINTS {automatic}
8 6 1 0 0 0

ATOMIC_SPECIES
Ni 58.69 Ni.pbe-spn-rrkjus_psl.1.0.0.UPF
Sc 44.95 Sc.pbe-spn-rrkjus_psl.1.0.0.UPF

CELL_PARAMETERS {angstrom}
6.37073000 0.00000000 0.00000000
0.00000000 9.00957000 0.00000000
0.00000000 0.00000000 26.75720000

ATOMIC_POSITIONS {angstrom}
Sc 1.59268250 2.25239250 -3.378631640000002 0 0 0
Sc 1.59268250 0.00000000 -1.1262105499999997 0 0 0
Sc 1.59274621 2.25257269 1.11336709
Sc 1.59261879 0.00000000 3.42465403
Sc 1.59268250 6.75717750 -3.378631640000002 0 0 0
Sc 1.59268250 4.50478500 -1.1262105499999997 0 0 0
Sc 1.59274621 6.75708740 1.11336709
Sc 1.59268250 4.50487510 3.42545674
Sc 4.77804750 2.25239250 -3.378631640000002 0 0 0
Sc 4.77804750 0.00000000 -1.1262105499999997 0 0 0
Sc 4.77804750 2.25248260 1.11336709
Sc 4.77817491 0.00000000 3.42465403
Sc 4.77804750 6.75717750 -3.378631640000002 0 0 0
Sc 4.77804750 4.50478500 -1.1262105499999997 0 0 0
Sc 4.77804750 6.75717750 1.11336709
Sc 4.77798379 4.50487510 3.42545674
Ni 0.00000000 0.00000000 -3.378631640000002 0 0 0
Ni 0.00000000 2.25239250 -1.1262105499999997 0 0 0
Ni 0.00019112 0.00000000 1.21263630
Ni 0.00006371 2.25266279 3.14825215
Ni 0.00000000 4.50478500 -3.378631640000002 0 0 0
Ni 0.00000000 6.75717750 -1.1262105499999997 0 0 0
Ni 6.37060259 4.50487510 1.21504445
Ni 6.37066629 6.75708740 3.14851972
Ni 3.18536500 0.00000000 -3.378631640000002 0 0 0
Ni 3.18536500 2.25239250 -1.1262105499999997 0 0 0
Ni 3.18536500 0.00000000 1.21397416
Ni 3.18530129 2.25221231 3.14851972
Ni 3.18536500 4.50478500 -3.378631640000002 0 0 0
Ni 3.18536500 6.75717750 -1.1262105499999997 0 0 0
Ni 3.18542871 4.50478500 1.21477688
Ni 3.18536500 6.75708740 3.14851972
