&CONTROL
calculation = 'relax'
prefix = 'scf'
pseudo_dir = '/vol0004/mdt0/data/hp150275/u10028/POT_KKJUS'
outdir = './data'
tprnfor = .true.
nstep = 50
disk_io = 'non'
/
&SYSTEM
ibrav = 0
ecutwfc = 50.0
ecutrho = 400
occupations = 'smearing'
smearing = 'mp'
degauss = 0.01
assume_isolated = 'esm'
esm_bc = 'bc1'
input_dft = 'BEEF-VDW'
nosym = .true.
nspin = 1
ntyp = 4
nat = 33
/
&ELECTRONS
electron_maxstep = 200
mixing_beta = 0.1
conv_thr = 1e-06
/
&IONS
ion_dynamics = 'bfgs'
upscale = 1.0
/
&CELL
/

K_POINTS {automatic}
9 6 2 0  0  0

ATOMIC_SPECIES
C 12.01 C.pbe-n-rrkjus_psl.1.0.0.UPF
Cu 63.54 Cu.pbe-dn-rrkjus_psl.1.0.0.UPF
Zn 65.40 Zn.pbe-dnl-rrkjus_psl.1.0.0.UPF
Zr 91.22 Zr.pbe-spn-rrkjus_psl.1.0.0.UPF

CELL_PARAMETERS {angstrom}
6.25397000 0.00000000 0.00000000
0.00000000 8.84445000 0.00000000
0.00000000 0.00000000 26.63330000

ATOMIC_POSITIONS {angstrom}
Zr 0.00000000 0.00000000 -3.3166448499999994 0 0 0
Zr 3.12698500 2.21111250 -1.1055482799999972 0 0 0
Zr 3.12698500 6.63333750 -1.1055482799999972 0 0 0
Zr 0.00000000 4.42222500 -3.3166448499999994 0 0 0
Zr 0.00000000 4.42222500 1.48693714
Zr 3.12698500 6.28398173 3.16403604
Zr 3.12698500 2.56046828 3.16403604
Zr 0.00000000 0.00000000 1.22566447
Zn 0.00000000 6.63333750 -1.1055482799999972 0 0 0
Zn 3.12698500 0.00000000 -3.3166448499999994 0 0 0
Zn 0.00000000 2.21111250 -1.1055482799999972 0 0 0
Zn 3.12698500 4.42222500 -3.3166448499999994 0 0 0
Zn 0.00000000 2.10108754 3.36378579
Zn 3.12698500 4.42222500 0.96439179
Zn 0.00000000 6.74336246 3.36378579
Zn 3.12698500 0.00000000 1.05947267
Cu 1.56349250 0.00000000 -1.1055482799999972 0 0 0
Cu 4.69047750 4.42222500 -1.1055482799999972 0 0 0
Cu 4.69047750 0.00000000 -1.1055482799999972 0 0 0
Cu 1.56349250 4.42222500 -1.1055482799999972 0 0 0
Cu 4.69047750 6.63333750 -3.3166448499999994 0 0 0
Cu 1.56349250 2.21111250 -3.3166448499999994 0 0 0
Cu 1.56349250 6.63333750 -3.3166448499999994 0 0 0
Cu 4.69047750 2.21111250 -3.3166448499999994 0 0 0
Cu 1.25560956 4.42222500 3.94625606
Cu 4.35288820 0.00000000 3.44981135
Cu 4.99836044 4.42222500 3.94625606
Cu 1.90108180 0.00000000 3.44981135
Cu 4.72018386 2.22756318 1.02777905
Cu 1.53378614 6.61688682 1.02777905
Cu 1.53378614 2.22756318 1.02777905
Cu 4.72018386 6.61688682 1.02777905
C 0.00000000 0.00000000 3.43835903
