&CONTROL
calculation = 'relax'
prefix = 'scf'
pseudo_dir = '/vol0403/data/hp230205/u10028/POT_HYBRID_KKJUS_GBRV'
outdir = './data'
tprnfor = .true.
nstep = 50
disk_io = 'non'
/
&SYSTEM
ibrav = 0
ecutwfc = 50.0
ecutrho = 400
occupations = 'smearing'
smearing = 'mp'
degauss = 0.01
assume_isolated = 'esm'
esm_bc = 'bc1'
input_dft = 'BEEF-VDW'
nosym = .true.
nspin = 1
ntyp = 6
nat = 18
/
&ELECTRONS
electron_maxstep = 200
mixing_beta = 0.1
conv_thr = 1e-06
/
&IONS
ion_dynamics = 'bfgs'
upscale = 1.0
/
&CELL
/

K_POINTS {automatic}
8 8 1 0 0 0

ATOMIC_SPECIES
Au 196.9 Au.pbe-n-rrkjus_psl.1.0.0.UPF
C 12.01 C.pbe-n-rrkjus_psl.1.0.0.UPF
Ge 72.64 Ge.pbe-dn-rrkjus_psl.1.0.0.UPF
Li 6.941 Li.pbe-sl-rrkjus_psl.1.0.0.UPF
O 15.99 O.pbe-n-rrkjus_psl.1.0.0.UPF
Pd 106.4 Pd.pbe-n-rrkjus_psl.1.0.0.UPF


CELL_PARAMETERS {angstrom}
6.30991000 0.00000000 0.00000000
0.00000000 6.30991000 0.00000000
0.00000000 0.00000000 24.73240000

ATOMIC_POSITIONS {angstrom}
Li 1.57747750 1.57747750 -0.7887162399999994 0 0 0
Li 1.56845433 4.74151877 2.53333973
Li 4.74126637 1.56864363 2.55906143
Li 4.73243250 4.73243250 -0.7887162399999994 0 0 0
Ge 4.73243250 1.57747750 -0.7887162399999994 0 0 0
Ge 4.73281109 4.73546126 2.38321406
Ge 1.57444874 1.57716200 2.38346139
Ge 1.57747750 4.73243250 -0.7887162399999994 0 0 0
Pd 0.00000000 3.15495500 -2.3661487099999974 0 0 0
Pd 0.00593132 6.30410488 1.02589995
Pd 3.14460675 3.16517705 1.04098672
Pd 3.15495500 0.00000000 -2.3661487099999974 0 0 0
Au 0.00000000 0.00000000 -2.3661487099999974 0 0 0
Au 6.30662885 3.15438711 0.89061372
Au 3.15539669 0.00334425 0.89061372
Au 3.15495500 3.15495500 -2.3661487099999974 0 0 0
C 4.74467373 1.56523627 4.70187656
O 4.74644050 1.56346950 5.83981429
