&CONTROL
calculation = 'relax'
prefix = 'scf'
pseudo_dir = '/vol0004/mdt0/data/hp150275/u10028/POT_HYBRID_KKJUS_GBRV'
outdir = './data'
tprnfor = .true.
nstep = 50
disk_io = 'non'
/
&SYSTEM
ibrav = 0
ecutwfc = 50.0
ecutrho = 400
occupations = 'smearing'
smearing = 'mp'
degauss = 0.01
assume_isolated = 'esm'
esm_bc = 'bc1'
input_dft = 'BEEF-VDW'
nosym = .true.
nspin = 2
ntyp = 3
nat = 33
starting_magnetization(1) = 0.0
starting_magnetization(2) = 0.1
starting_magnetization(3) = 0.0
/
&ELECTRONS
electron_maxstep = 200
mixing_beta = 0.1
conv_thr = 1e-06
/
&IONS
ion_dynamics = 'bfgs'
upscale = 1.0
/
&CELL
/

K_POINTS {automatic}
9 6 2 0  0  0

ATOMIC_SPECIES
C 12.01 C.pbe-n-rrkjus_psl.1.0.0.UPF
Co 58.93 co_pbe_v1.2.uspp.F.UPF
Ti 47.86 Ti.pbe-spn-rrkjus_psl.1.0.0.UPF

CELL_PARAMETERS {angstrom}
5.98862000 0.00000000 0.00000000
0.00000000 8.46918000 0.00000000
0.00000000 0.00000000 26.35190000

ATOMIC_POSITIONS {angstrom}
Ti 0.00000000 0.00000000 23.17596901
Ti 0.00000000 2.11729500 25.29334418
Ti 5.98730250 4.24653154 1.08095494
Ti 5.61073808 2.11729500 3.26684504
Ti 0.00000000 4.23459000 23.17596901
Ti 0.00000000 6.35188500 25.29334418
Ti 5.98736239 8.45723846 1.08095494
Ti 0.00772532 6.35180031 3.26948023
Ti 2.99431000 0.00000000 23.17596901
Ti 2.99431000 2.11729500 25.29334418
Ti 2.99353148 4.24551524 1.08227253
Ti 3.36488581 2.11729500 3.27369654
Ti 2.99431000 4.23459000 23.17596901
Ti 2.99431000 6.35188500 25.29334418
Ti 2.99353148 8.45825476 1.08227253
Ti 2.98382992 6.35188500 3.26948023
Co 1.49715500 2.11729500 23.17596901
Co 1.49715500 0.00000000 25.29334418
Co 1.49571773 2.11737969 1.16449046
Co 1.49481944 0.10916773 2.92321627
Co 1.49715500 6.35188500 23.17596901
Co 1.49715500 4.23459000 25.29334418
Co 1.49661602 6.35188500 1.14736173
Co 1.49487932 4.12559165 2.92321627
Co 4.49146500 2.11729500 23.17596901
Co 4.49146500 0.00000000 25.29334418
Co 4.48930910 2.11737969 0.94471562
Co 4.49008762 8.25109862 2.94587890
Co 4.49146500 6.35188500 23.17596901
Co 4.49146500 4.23459000 25.29334418
Co 4.49032716 6.35188500 1.06250861
Co 4.49002773 4.45258669 2.94587890
C 1.49517876 2.11737969 3.19279620
