&CONTROL
calculation = 'relax'
prefix = 'scf'
pseudo_dir = '/vol0004/mdt0/data/hp150275/u10028/POT_KKJUS'
outdir = './data'
tprnfor = .true.
nstep = 50
disk_io = 'non'
/
&SYSTEM
ibrav = 0
ecutwfc = 50.0
ecutrho = 400
occupations = 'smearing'
smearing = 'mp'
degauss = 0.01
assume_isolated = 'esm'
esm_bc = 'bc1'
input_dft = 'BEEF-VDW'
nosym = .true.
nspin = 1
ntyp = 3
nat = 17
/
&ELECTRONS
electron_maxstep = 200
mixing_beta = 0.1
conv_thr = 1e-06
/
&IONS
ion_dynamics = 'bfgs'
upscale = 1.0
/
&CELL
/

K_POINTS {automatic}
8 11 2 0  0  0

ATOMIC_SPECIES
Al 26.98 Al.pbe-nl-rrkjus_psl.1.0.0.UPF
C 12.01 C.pbe-n-rrkjus_psl.1.0.0.UPF
Li 6.941 Li.pbe-sl-rrkjus_psl.1.0.0.UPF

CELL_PARAMETERS {angstrom}
8.00621000 0.00000000 0.00000000
0.00000000 5.66125000 0.00000000
0.00000000 0.00000000 24.24590000

ATOMIC_POSITIONS {angstrom}
Li 0.47428788 0.00135870 2.46823262
Li 0.00000000 2.83062500 -0.7077378199999984 0 0 0
Li 3.52881712 0.00135870 2.46823262
Li 4.00310500 2.83062500 -0.7077378199999984 0 0 0
Al 0.47925173 2.78827885 2.25001952
Al 2.00155250 4.26201545 0.55062439
Al 2.00155250 1.33248841 0.53753160
Al 0.00000000 0.00000000 -0.7077378199999984 0 0 0
Al 2.00155250 1.41531250 -2.1229709999999997 0 0 0
Al 2.00155250 4.24593750 -2.1229709999999997 0 0 0
Al 3.52385327 2.78827885 2.25001952
Al 6.00465750 4.22595329 0.97807961
Al 6.00465750 1.35117054 0.84399978
Al 4.00310500 0.00000000 -0.7077378199999984 0 0 0
Al 6.00465750 1.41531250 -2.1229709999999997 0 0 0
Al 6.00465750 4.24593750 -2.1229709999999997 0 0 0
C 2.00155250 1.51438438 2.55139606
