&CONTROL
calculation = 'relax'
prefix = 'scf'
pseudo_dir = '/vol0403/data/hp230205/u10028/POT_HYBRID_KKJUS_GBRV'
outdir = './data'
tprnfor = .true.
nstep = 50
disk_io = 'non'
/
&SYSTEM
ibrav = 0
ecutwfc = 50.0
ecutrho = 400
occupations = 'smearing'
smearing = 'mp'
degauss = 0.01
assume_isolated = 'esm'
esm_bc = 'bc1'
input_dft = 'BEEF-VDW'
nosym = .true.
nspin = 1
ntyp = 5
nat = 17
/
&ELECTRONS
electron_maxstep = 200
mixing_beta = 0.1
conv_thr = 1e-06
/
&IONS
ion_dynamics = 'bfgs'
upscale = 1.0
/
&CELL
/

K_POINTS {automatic}
6 6 1 0 0 0

ATOMIC_SPECIES
C 12.01 C.pbe-n-rrkjus_psl.1.0.0.UPF
Li 6.941 Li.pbe-sl-rrkjus_psl.1.0.0.UPF
Pb 207.2 Pb.pbe-dn-rrkjus_psl.1.0.0.UPF
Sn 118.7 Sn.pbe-dn-rrkjus_psl.1.0.0.UPF
Y 88.90 Y.pbe-spn-rrkjus_psl.1.0.0.UPF


CELL_PARAMETERS {angstrom}
6.45119000 0.00000000 0.00000000
0.00000000 9.64462000 0.00000000
0.00000000 0.00000000 24.83120000

ATOMIC_POSITIONS {angstrom}
Li 0.27965909 9.53804695 2.32593850
Li 3.05005812 0.00000000 -0.8052758199999985 0 0 0
Li 0.27953006 4.92897950 2.32593850
Li 3.05005812 4.82231000 -0.8052758199999985 0 0 0
Y 4.95573965 2.41115500 0.79112203
Y 1.34952444 2.41115500 -2.4155791399999984 0 0 0
Y 4.69569218 7.23346500 0.80602075
Y 1.34952444 7.23346500 -2.4155791399999984 0 0 0
Sn 1.60254011 2.41115500 1.12286686
Sn 4.57511944 2.41115500 -2.4155791399999984 0 0 0
Sn 1.50712701 7.23346500 0.92074090
Sn 4.57511944 7.23346500 -2.4155791399999984 0 0 0
Pb 3.39642251 0.13589270 2.93926914
Pb 6.27565312 0.00000000 -0.8052758199999985 0 0 0
Pb 3.39642251 4.68651375 2.93926914
Pb 6.27565312 4.82231000 -0.8052758199999985 0 0 0
C 3.47744946 2.41125145 2.46350335
