&CONTROL
calculation = 'relax'
prefix = 'scf'
pseudo_dir = '/vol0004/mdt0/data/hp150275/u10028/POT_KKJUS'
outdir = './data'
tprnfor = .true.
nstep = 50
disk_io = 'non'
/
&SYSTEM
ibrav = 0
ecutwfc = 50.0
ecutrho = 400
occupations = 'smearing'
smearing = 'mp'
degauss = 0.01
assume_isolated = 'esm'
esm_bc = 'bc1'
input_dft = 'BEEF-VDW'
nosym = .true.
nspin = 1
ntyp = 5
nat = 34
/
&ELECTRONS
electron_maxstep = 200
mixing_beta = 0.1
conv_thr = 1e-06
/
&IONS
ion_dynamics = 'bfgs'
upscale = 1.0
/
&CELL
/

K_POINTS {automatic}
9 6 2 0  0  0

ATOMIC_SPECIES
C 12.01 C.pbe-n-rrkjus_psl.1.0.0.UPF
Cu 63.54 Cu.pbe-dn-rrkjus_psl.1.0.0.UPF
O 15.99 O.pbe-n-rrkjus_psl.1.0.0.UPF
Zn 65.40 Zn.pbe-dnl-rrkjus_psl.1.0.0.UPF
Zr 91.22 Zr.pbe-spn-rrkjus_psl.1.0.0.UPF

CELL_PARAMETERS {angstrom}
6.25397000 0.00000000 0.00000000
0.00000000 8.84445000 0.00000000
0.00000000 0.00000000 26.63330000

ATOMIC_POSITIONS {angstrom}
Zr 0.00000000 0.00000000 -3.3166448499999994 0 0 0
Zr 3.12698500 2.21111250 -1.1055482799999972 0 0 0
Zr 3.12698500 6.63333750 -1.1055482799999972 0 0 0
Zr 0.00000000 4.42222500 -3.3166448499999994 0 0 0
Zr 0.00000000 4.45795658 1.15082489
Zr 3.12698500 6.63333750 3.34967014
Zr 3.12698500 2.21111250 3.24366961
Zr 0.00000000 8.80871842 1.15082489
Zn 0.00000000 6.63333750 -1.1055482799999972 0 0 0
Zn 3.12698500 0.00000000 -3.3166448499999994 0 0 0
Zn 0.00000000 2.21111250 -1.1055482799999972 0 0 0
Zn 3.12698500 4.42222500 -3.3166448499999994 0 0 0
Zn 0.00000000 2.21111250 3.20025733
Zn 3.12698500 4.39171165 1.08983464
Zn 0.00000000 6.63333750 3.18987034
Zn 3.12698500 0.03051335 1.08983464
Cu 1.56349250 0.00000000 -1.1055482799999972 0 0 0
Cu 4.69047750 4.42222500 -1.1055482799999972 0 0 0
Cu 4.69047750 0.00000000 -1.1055482799999972 0 0 0
Cu 1.56349250 4.42222500 -1.1055482799999972 0 0 0
Cu 4.69047750 6.63333750 -3.3166448499999994 0 0 0
Cu 1.56349250 2.21111250 -3.3166448499999994 0 0 0
Cu 1.56349250 6.63333750 -3.3166448499999994 0 0 0
Cu 4.69047750 2.21111250 -3.3166448499999994 0 0 0
Cu 1.51671280 4.42019078 3.37790144
Cu 4.73725720 0.00203422 3.37790144
Cu 4.73725720 4.42019078 3.37790144
Cu 1.51671280 0.00203422 3.37790144
Cu 4.73187878 2.21111250 1.05015102
Cu 1.66993507 6.63333750 1.12685492
Cu 1.52209122 2.21111250 1.05015102
Cu 4.58403493 6.63333750 1.12685492
C 3.12698500 2.21111250 5.51229410
O 3.12698500 2.21111250 6.66604866
