&CONTROL
calculation = 'relax'
prefix = 'scf'
pseudo_dir = '/vol0004/mdt0/data/hp150275/u10028/POT_HYBRID_KKJUS_GBRV'
outdir = './data'
tprnfor = .true.
nstep = 50
disk_io = 'non'
/
&SYSTEM
ibrav = 0
ecutwfc = 50.0
ecutrho = 400
occupations = 'smearing'
smearing = 'mp'
degauss = 0.01
assume_isolated = 'esm'
esm_bc = 'bc1'
input_dft = 'BEEF-VDW'
nosym = .true.
nspin = 2
ntyp = 4
nat = 17
starting_magnetization(1) = 0.0
starting_magnetization(2) = 0.0
starting_magnetization(3) = 0.01
starting_magnetization(4) = 0.0
/
&ELECTRONS
electron_maxstep = 300
mixing_beta = 0.1
conv_thr = 1e-06
/
&IONS
ion_dynamics = 'bfgs'
upscale = 1.0
/
&CELL
/

K_POINTS {automatic}
8 8 1 0 0 0

ATOMIC_SPECIES
Al 26.98 Al.pbe-nl-rrkjus_psl.1.0.0.UPF
C 12.01 C.pbe-n-rrkjus_psl.1.0.0.UPF
Fe 55.84 fe_pbe_v1.5.uspp.F.UPF
V 50.94 V.pbe-spnl-rrkjus_psl.1.0.0.UPF

CELL_PARAMETERS {angstrom}
5.71239000 0.00000000 0.00000000
0.00000000 5.71239000 0.00000000
0.00000000 0.00000000 24.28430000

ATOMIC_POSITIONS {angstrom}
Al 0.00000000 0.00000000 2.14211810
Al 2.85619500 2.85619500 2.14211810
Al 2.85619500 0.00000000 -0.7139584200000009 0 0 0
Al 0.00000000 2.85619500 -0.7139584200000009 0 0 0
V 0.00000000 0.00000000 -0.7139584200000009 0 0 0
V 2.85619500 0.00000000 2.14211810
V 0.00000000 2.85619500 2.14211810
V 2.85619500 2.85619500 -0.7139584200000009 0 0 0
Fe 1.42809750 1.42809750 0.71395842
Fe 4.28429250 4.28429250 -2.142118100000001 0 0 0
Fe 4.28429250 1.42809750 0.71395842
Fe 1.42809750 4.28429250 -2.142118100000001 0 0 0
Fe 4.28429250 4.28429250 0.71395842
Fe 1.42809750 1.42809750 -2.142118100000001 0 0 0
Fe 1.42809750 4.28429250 0.71395842
Fe 4.28429250 1.42809750 -2.142118100000001 0 0 0
C 1.42809750 1.42809750 2.94204294
