&CONTROL
calculation = 'relax'
prefix = 'scf'
pseudo_dir = '/vol0403/data/hp230205/u10028/POT_HYBRID_KKJUS_GBRV'
outdir = './data'
tprnfor = .true.
nstep = 50
disk_io = 'non'
/
&SYSTEM
ibrav = 0
ecutwfc = 50.0
ecutrho = 400
occupations = 'smearing'
smearing = 'mp'
degauss = 0.01
assume_isolated = 'esm'
esm_bc = 'bc1'
input_dft = 'BEEF-VDW'
nosym = .true.
nspin = 2
ntyp = 5
nat = 33
starting_magnetization(1) = 0.0
starting_magnetization(2) = 0.0
starting_magnetization(3) = 0.1
starting_magnetization(4) = 0.0
starting_magnetization(5) = 0.0
/
&ELECTRONS
electron_maxstep = 200
mixing_beta = 0.1
conv_thr = 1e-06
/
&IONS
ion_dynamics = 'bfgs'
upscale = 1.0
/
&CELL
/

K_POINTS {automatic}
9 6 2 0  0  0

ATOMIC_SPECIES
Al 26.98 Al.pbe-nl-rrkjus_psl.1.0.0.UPF
C 12.01 C.pbe-n-rrkjus_psl.1.0.0.UPF
Co 58.93 co_pbe_v1.2.uspp.F.UPF
Li 6.941 Li.pbe-sl-rrkjus_psl.1.0.0.UPF
Pd 106.4 Pd.pbe-n-rrkjus_psl.1.0.0.UPF


CELL_PARAMETERS {angstrom}
5.87254000 0.00000000 0.00000000
0.00000000 8.30502000 0.00000000
0.00000000 0.00000000 26.22880000

ATOMIC_POSITIONS {angstrom}
Li 0.00000000 2.07625500 -1.0381359000000003 0 0 0
Li 0.00000000 6.22876500 -1.0381359000000003 0 0 0
Li 2.93627000 4.15251000 -3.1144077099999983 0 0 0
Li 2.93627000 0.00000000 -3.1144077099999983 0 0 0
Li 5.75473685 6.22909720 3.69563792
Li 0.42881287 2.07600585 4.03267800
Li 2.91976816 8.29081842 1.02948040
Li 2.91929836 4.16671158 1.03052955
Al 0.00000000 0.00000000 -3.1144077099999983 0 0 0
Al 0.00000000 4.15251000 -3.1144077099999983 0 0 0
Al 2.93627000 6.22876500 -1.0381359000000003 0 0 0
Al 2.93627000 2.07625500 -1.0381359000000003 0 0 0
Al 0.00640107 4.17601321 1.02423464
Al 0.00505038 8.28060324 1.02528379
Al 2.64393496 2.07675330 2.81041592
Al 2.97467641 6.22859890 3.13460389
Co 4.40440500 0.00000000 -1.0381359000000003 0 0 0
Co 4.40440500 4.15251000 -1.0381359000000003 0 0 0
Co 1.46813500 2.07625500 -3.1144077099999983 0 0 0
Co 1.46813500 6.22876500 -3.1144077099999983 0 0 0
Co 4.40763490 3.78584337 3.14824286
Co 4.40563823 0.36650053 3.14378397
Co 1.46572726 6.22585824 1.09662613
Co 1.34545764 2.07899566 0.91197538
Pd 1.46813500 0.00000000 -1.0381359000000003 0 0 0
Pd 1.46813500 4.15251000 -1.0381359000000003 0 0 0
Pd 4.40440500 2.07625500 -3.1144077099999983 0 0 0
Pd 4.40440500 6.22876500 -3.1144077099999983 0 0 0
Pd 1.44335288 4.23389920 3.08319544
Pd 1.44511464 8.22338165 3.08188400
Pd 4.45185512 6.22635654 1.14541170
Pd 4.42578105 2.07824820 0.96076094
C 4.42043703 2.07525840 3.65498328
