&CONTROL
calculation = 'relax'
prefix = 'scf'
pseudo_dir = '/vol0004/mdt0/data/hp150275/u10028/POT_KKJUS'
outdir = './data'
tprnfor = .true.
nstep = 50
disk_io = 'non'
/
&SYSTEM
ibrav = 0
ecutwfc = 50.0
ecutrho = 400
occupations = 'smearing'
smearing = 'mp'
degauss = 0.01
assume_isolated = 'esm'
esm_bc = 'bc1'
input_dft = 'BEEF-VDW'
nosym = .true.
nspin = 1
ntyp = 3
nat = 33
/
&ELECTRONS
electron_maxstep = 200
mixing_beta = 0.1
conv_thr = 1e-06
/
&IONS
ion_dynamics = 'bfgs'
upscale = 1.0
/
&CELL
/

K_POINTS {automatic}
9 6 2 0  0  0

ATOMIC_SPECIES
C 12.01 C.pbe-n-rrkjus_psl.1.0.0.UPF
Pt 195.0 Pt.pbe-n-rrkjus_psl.1.0.0.UPF
Ti 47.86 Ti.pbe-spn-rrkjus_psl.1.0.0.UPF

CELL_PARAMETERS {angstrom}
6.37073000 0.00000000 0.00000000
0.00000000 9.00957000 0.00000000
0.00000000 0.00000000 26.75720000

ATOMIC_POSITIONS {angstrom}
Ti 1.59268250 2.25239250 -3.378631640000002 0 0 0
Ti 1.59268250 0.00000000 -1.1262105499999997 0 0 0
Ti 1.53840388 2.24491456 1.28300774
Ti 1.69697135 9.00947990 3.37889922
Ti 1.59268250 6.75717750 -3.378631640000002 0 0 0
Ti 1.59268250 4.50478500 -1.1262105499999997 0 0 0
Ti 1.53840388 6.76474554 1.28300774
Ti 1.39748333 4.50487510 3.27615157
Ti 4.77804750 2.25239250 -3.378631640000002 0 0 0
Ti 4.77804750 0.00000000 -1.1262105499999997 0 0 0
Ti 4.83232612 2.24491456 1.28300774
Ti 4.67375865 9.00947990 3.37889922
Ti 4.77804750 6.75717750 -3.378631640000002 0 0 0
Ti 4.77804750 4.50478500 -1.1262105499999997 0 0 0
Ti 4.83232612 6.76474554 1.28300774
Ti 4.97324667 4.50487510 3.27615157
Pt 0.00000000 0.00000000 -3.378631640000002 0 0 0
Pt 0.00000000 2.25239250 -1.1262105499999997 0 0 0
Pt 0.00000000 0.00009010 0.92767212
Pt 0.00000000 2.25527556 3.60901114
Pt 0.00000000 4.50478500 -3.378631640000002 0 0 0
Pt 0.00000000 6.75717750 -1.1262105499999997 0 0 0
Pt 0.00000000 4.50478500 0.86318727
Pt 0.00000000 6.75420434 3.60901114
Pt 3.18536500 0.00000000 -3.378631640000002 0 0 0
Pt 3.18536500 2.25239250 -1.1262105499999997 0 0 0
Pt 3.18536500 0.00018019 0.89636620
Pt 3.18536500 2.25374394 3.32752539
Pt 3.18536500 4.50478500 -3.378631640000002 0 0 0
Pt 3.18536500 6.75717750 -1.1262105499999997 0 0 0
Pt 3.18536500 4.50469490 1.20460914
Pt 3.18536500 6.75573597 3.32752539
C 0.00000000 9.00947990 4.26590040
