&CONTROL
calculation = 'relax'
prefix = 'scf'
pseudo_dir = '/vol0403/data/hp230205/u10028/POT_HYBRID_KKJUS_GBRV'
outdir = './data'
tprnfor = .true.
nstep = 70
disk_io = 'non'
/
&SYSTEM
ibrav = 0
ecutwfc = 50.0
ecutrho = 400
occupations = 'smearing'
smearing = 'mp'
degauss = 0.01
assume_isolated = 'esm'
esm_bc = 'bc1'
input_dft = 'BEEF-VDW'
nosym = .true.
nspin = 1
ntyp = 5
nat = 33
/
&ELECTRONS
electron_maxstep = 200
mixing_beta = 0.1
conv_thr = 1e-06
/
&IONS
ion_dynamics = 'bfgs'
upscale = 1.0
/
&CELL
/

K_POINTS {automatic}
6 6 1 0 0 0

ATOMIC_SPECIES
Al 26.98 Al.pbe-nl-rrkjus_psl.1.0.0.UPF
C 12.01 C.pbe-n-rrkjus_psl.1.0.0.UPF
Cu 63.54 Cu.pbe-dn-rrkjus_psl.1.0.0.UPF
In 114.8 In.pbe-dn-rrkjus_psl.1.0.0.UPF
Pd 106.4 Pd.pbe-n-rrkjus_psl.1.0.0.UPF


CELL_PARAMETERS {angstrom}
6.36006000 0.00000000 0.00000000
-0.00000000 8.99448000 0.00000000
0.00000000 0.00000000 26.74590000

ATOMIC_POSITIONS {angstrom}
Al 0.00000000 0.00000000 -3.3729254500000003 0 0 0
Al 0.00000000 4.49724000 -3.3729254500000003 0 0 0
Al 3.18003000 6.74586000 -1.124397639999998 0 0 0
Al 3.18003000 2.24862000 -1.124397639999998 0 0 0
Al 6.31274115 4.49724000 1.25919697
Al 0.01920738 0.00000000 1.58201999
Al 3.19090570 2.30825340 3.39191504
Al 3.19090570 6.68622660 3.39191504
In 0.00000000 2.24862000 -1.124397639999998 0 0 0
In 0.00000000 6.74586000 -1.124397639999998 0 0 0
In 3.18003000 4.49724000 -3.3729254500000003 0 0 0
In 3.18003000 0.00000000 -3.3729254500000003 0 0 0
In 0.04655564 6.67795168 4.22157286
In 0.04655564 2.31652832 4.22157286
In 3.11668380 -0.00000000 1.04522977
In 3.15312695 4.49724000 1.09417477
Cu 1.59001500 0.00000000 -1.124397639999998 0 0 0
Cu 1.59001500 4.49724000 -1.124397639999998 0 0 0
Cu 4.77004500 2.24862000 -3.3729254500000003 0 0 0
Cu 4.77004500 6.74586000 -3.3729254500000003 0 0 0
Cu 1.69101275 4.49724000 3.43898782
Cu 1.91138883 -0.00000000 3.48820028
Cu 4.92796529 6.76016122 1.35574967
Cu 4.92796529 2.23431878 1.35574967
Pd 4.77004500 0.00000000 -1.124397639999998 0 0 0
Pd 4.77004500 4.49724000 -1.124397639999998 0 0 0
Pd 1.59001500 2.24862000 -3.3729254500000003 0 0 0
Pd 1.59001500 6.74586000 -3.3729254500000003 0 0 0
Pd 4.69302467 4.49724000 3.36864610
Pd 4.42736497 -0.00000000 3.42427758
Pd 1.39024552 6.69612053 1.33996959
Pd 1.39030912 2.29835947 1.33996959
C 0.06703503 0.00000000 3.76074100
