&CONTROL
calculation = 'relax'
prefix = 'scf'
pseudo_dir = '/vol0004/mdt0/data/hp150275/u10028/POT_HYBRID_KKJUS_GBRV'
outdir = './data'
tprnfor = .true.
nstep = 50
disk_io = 'non'
/
&SYSTEM
ibrav = 0
ecutwfc = 50.0
ecutrho = 400
occupations = 'smearing'
smearing = 'mp'
degauss = 0.01
assume_isolated = 'esm'
esm_bc = 'bc1'
input_dft = 'BEEF-VDW'
nosym = .true.
nspin = 2
ntyp = 4
nat = 33
starting_magnetization(1) = 0.0
starting_magnetization(2) = 0.1
starting_magnetization(3) = 0.0
starting_magnetization(4) = 0.0
/
&ELECTRONS
electron_maxstep = 300
mixing_beta = 0.1
conv_thr = 1e-06
/
&IONS
ion_dynamics = 'bfgs'
upscale = 1.0
/
&CELL
/

K_POINTS {automatic}
9 6 2 0  0  0

ATOMIC_SPECIES
C 12.01 C.pbe-n-rrkjus_psl.1.0.0.UPF
Co 58.93 co_pbe_v1.2.uspp.F.UPF
Ge 72.64 Ge.pbe-dn-rrkjus_psl.1.0.0.UPF
Ti 47.86 Ti.pbe-spn-rrkjus_psl.1.0.0.UPF

CELL_PARAMETERS {angstrom}
5.88044000 0.00000000 0.00000000
0.00000000 8.31620000 0.00000000
0.00000000 0.00000000 26.23710000

ATOMIC_POSITIONS {angstrom}
Ti 0.00000000 0.00000000 -3.1185417100000024 0 0 0
Ti 2.94022000 2.07905000 -1.0395139000000029 0 0 0
Ti 2.94022000 6.23715000 -1.0395139000000029 0 0 0
Ti 0.00000000 4.15810000 -3.1185417100000024 0 0 0
Ti 5.86027009 4.17581351 1.02062319
Ti 2.93398673 6.23706684 3.12510098
Ti 3.14879921 2.07921632 3.04638968
Ti 5.86027009 8.29856966 1.02062319
Co 1.47011000 0.00000000 -1.0395139000000029 0 0 0
Co 4.41033000 4.15810000 -1.0395139000000029 0 0 0
Co 4.41033000 0.00000000 -1.0395139000000029 0 0 0
Co 1.47011000 4.15810000 -1.0395139000000029 0 0 0
Co 4.41033000 6.23715000 -3.1185417100000024 0 0 0
Co 1.47011000 2.07905000 -3.1185417100000024 0 0 0
Co 1.47011000 6.23715000 -3.1185417100000024 0 0 0
Co 4.41033000 2.07905000 -3.1185417100000024 0 0 0
Co 1.32968509 4.07194417 2.94249077
Co 4.46625298 8.26247735 2.95534694
Co 4.46648820 4.21165633 2.95534694
Co 1.32980270 0.08623899 2.94249077
Co 4.42350219 2.07905000 0.99150001
Co 1.51821200 6.23715000 1.05079586
Co 1.41748006 2.07913316 1.11140356
Co 4.35534789 6.23715000 1.05315719
Ge 0.00000000 6.23715000 -1.0395139000000029 0 0 0
Ge 2.94022000 0.00000000 -3.1185417100000024 0 0 0
Ge 0.00000000 2.07905000 -1.0395139000000029 0 0 0
Ge 2.94022000 4.15810000 -3.1185417100000024 0 0 0
Ge 5.41088687 2.07830154 3.90014492
Ge 2.93087010 4.14795424 1.04869689
Ge 0.03469460 6.23731632 3.17888704
Ge 2.93081130 0.01022893 1.04895926
C 1.26729362 2.07913316 3.24290556
