&CONTROL
calculation = 'relax'
prefix = 'scf'
pseudo_dir = '/vol0403/data/hp230205/u10028/POT_HYBRID_KKJUS_GBRV'
outdir = './data'
tprnfor = .true.
nstep = 50
disk_io = 'non'
/
&SYSTEM
ibrav = 0
ecutwfc = 50.0
ecutrho = 400
occupations = 'smearing'
smearing = 'mp'
degauss = 0.01
assume_isolated = 'esm'
esm_bc = 'bc1'
input_dft = 'BEEF-VDW'
nosym = .true.
nspin = 2
ntyp = 6
nat = 34
starting_magnetization(1) = 0.0
starting_magnetization(2) = 0.0
starting_magnetization(3) = 0.1
starting_magnetization(4) = 0.0
starting_magnetization(5) = 0.0
starting_magnetization(6) = 0.0
/
&ELECTRONS
electron_maxstep = 400
mixing_beta = 0.05
conv_thr = 1e-06
/
&IONS
ion_dynamics = 'bfgs'
upscale = 1.0
/
&CELL
/

K_POINTS {automatic}
6 6 1 0 0 0

ATOMIC_SPECIES
C 12.01 C.pbe-n-rrkjus_psl.1.0.0.UPF
In 114.8 In.pbe-dn-rrkjus_psl.1.0.0.UPF
Mn 54.93 mn_pbe_v1.5.uspp.F.UPF
O 15.99 O.pbe-n-rrkjus_psl.1.0.0.UPF
Pd 106.4 Pd.pbe-n-rrkjus_psl.1.0.0.UPF
Sc 44.95 Sc.pbe-spn-rrkjus_psl.1.0.0.UPF


CELL_PARAMETERS {angstrom}
6.62299000 0.00000000 0.00000000
0.00000000 9.36632000 0.00000000
0.00000000 0.00000000 27.02470000

ATOMIC_POSITIONS {angstrom}
Sc 0.00000000 2.34158000 -1.1707099999999997 0 0 0
Sc 0.00000000 7.02474000 -1.1707099999999997 0 0 0
Sc 3.31149500 4.68316000 -3.5124002599999997 0 0 0
Sc 3.31149500 0.00000000 -3.5124002599999997 0 0 0
Sc 0.05609673 7.02483366 3.47888963
Sc 0.05159309 2.34129901 3.49294247
Sc 3.34997457 0.01161424 1.15881914
Sc 3.34997457 4.67173309 1.15935963
Mn 4.96724250 0.00000000 -1.1707099999999997 0 0 0
Mn 4.96724250 4.68316000 -1.1707099999999997 0 0 0
Mn 1.65574750 2.34158000 -3.5124002599999997 0 0 0
Mn 1.65574750 7.02474000 -3.5124002599999997 0 0 0
Mn 4.84074339 4.68746851 3.69860044
Mn 4.83994863 9.36191783 3.69778970
Mn 1.67204006 7.02483366 1.27691708
Mn 1.64395858 2.34167366 1.27799806
In 0.00000000 0.00000000 -3.5124002599999997 0 0 0
In 0.00000000 4.68316000 -3.5124002599999997 0 0 0
In 3.31149500 7.02474000 -1.1707099999999997 0 0 0
In 3.31149500 2.34158000 -1.1707099999999997 0 0 0
In 6.57762252 4.68906078 1.19368100
In 6.57768875 9.36032556 1.19368100
In 3.33666236 2.34176733 3.67076500
In 3.32540328 7.02455267 3.71292353
Pd 1.65574750 0.00000000 -1.1707099999999997 0 0 0
Pd 1.65574750 4.68316000 -1.1707099999999997 0 0 0
Pd 4.96724250 2.34158000 -3.5124002599999997 0 0 0
Pd 4.96724250 7.02474000 -3.5124002599999997 0 0 0
Pd 1.75495989 4.68316000 3.30755303
Pd 1.75548973 9.36622634 3.30728279
Pd 4.96148050 7.02474000 1.16611581
Pd 4.98346883 2.34167366 1.15098197
C 2.44679743 2.34158000 7.40801076
O 3.44614039 2.34167366 7.94796427
