&CONTROL
calculation = 'relax'
prefix = 'scf'
pseudo_dir = '/vol0004/mdt0/data/hp150275/u10028/POT_KKJUS'
outdir = './data'
tprnfor = .true.
nstep = 50
disk_io = 'non'
/
&SYSTEM
ibrav = 0
ecutwfc = 50.0
ecutrho = 400
occupations = 'smearing'
smearing = 'mp'
degauss = 0.01
assume_isolated = 'esm'
esm_bc = 'bc1'
input_dft = 'BEEF-VDW'
nosym = .true.
nspin = 1
ntyp = 3
nat = 33
/
&ELECTRONS
electron_maxstep = 200
mixing_beta = 0.1
conv_thr = 1e-06
/
&IONS
ion_dynamics = 'bfgs'
upscale = 1.0
/
&CELL
/

K_POINTS {automatic}
6 6 1 0 0 0

ATOMIC_SPECIES
C 12.01 C.pbe-n-rrkjus_psl.1.0.0.UPF
Pd 106.4 Pd.pbe-n-rrkjus_psl.1.0.0.UPF
Y 88.90 Y.pbe-spn-rrkjus_psl.1.0.0.UPF

CELL_PARAMETERS {angstrom}
8.33346000 0.00000000 0.00000000
-0.00000000 8.33346000 0.00000000
0.00000000 0.00000000 26.25010000

ATOMIC_POSITIONS {angstrom}
Y 0.00000000 0.00000000 3.12507440
Y 0.00000000 0.00000000 -1.0416039700000006 0 0 0
Y 0.00000000 4.16673000 3.12507440
Y 0.00000000 4.16673000 -1.0416039700000006 0 0 0
Y 4.16673000 -0.00000000 3.12507440
Y 4.16673000 0.00000000 -1.0416039700000006 0 0 0
Y 4.16673000 4.16673000 3.12507440
Y 4.16673000 4.16673000 -1.0416039700000006 0 0 0
Pd 0.00000000 2.08336500 1.04160397
Pd 2.08336500 -0.00000000 1.04160397
Pd 2.08336500 2.08336500 3.12507440
Pd 0.00000000 2.08336500 -3.125074399999999 0 0 0
Pd 2.08336500 0.00000000 -3.125074399999999 0 0 0
Pd 2.08336500 2.08336500 -1.0416039700000006 0 0 0
Pd 0.00000000 6.25009500 1.04160397
Pd 2.08336500 4.16673000 1.04160397
Pd 2.08336500 6.25009500 3.12507440
Pd 0.00000000 6.25009500 -3.125074399999999 0 0 0
Pd 2.08336500 4.16673000 -3.125074399999999 0 0 0
Pd 2.08336500 6.25009500 -1.0416039700000006 0 0 0
Pd 4.16673000 2.08336500 1.04160397
Pd 6.25009500 -0.00000000 1.04160397
Pd 6.25009500 2.08336500 3.12507440
Pd 4.16673000 2.08336500 -3.125074399999999 0 0 0
Pd 6.25009500 0.00000000 -3.125074399999999 0 0 0
Pd 6.25009500 2.08336500 -1.0416039700000006 0 0 0
Pd 4.16673000 6.25009500 1.04160397
Pd 6.25009500 4.16673000 1.04160397
Pd 6.25009500 6.25009500 3.12507440
Pd 4.16673000 6.25009500 -3.125074399999999 0 0 0
Pd 6.25009500 4.16673000 -3.125074399999999 0 0 0
Pd 6.25009500 6.25009500 -1.0416039700000006 0 0 0
C 2.08336500 -0.00000000 3.92517745
