&CONTROL
calculation = 'relax'
prefix = 'scf'
pseudo_dir = '/vol0004/mdt0/data/hp150275/u10028/POT_KKJUS'
outdir = './data'
tprnfor = .true.
nstep = 50
disk_io = 'non'
/
&SYSTEM
ibrav = 0
ecutwfc = 50.0
ecutrho = 400
occupations = 'smearing'
smearing = 'mp'
degauss = 0.01
assume_isolated = 'esm'
esm_bc = 'bc1'
input_dft = 'BEEF-VDW'
nosym = .true.
nspin = 1
ntyp = 3
nat = 33
/
&ELECTRONS
electron_maxstep = 200
mixing_beta = 0.1
conv_thr = 1e-06
/
&IONS
ion_dynamics = 'bfgs'
upscale = 1.0
/
&CELL
/

K_POINTS {automatic}
9 6 2 0  0  0

ATOMIC_SPECIES
C 12.01 C.pbe-n-rrkjus_psl.1.0.0.UPF
Li 6.941 Li.pbe-sl-rrkjus_psl.1.0.0.UPF
Pb 207.2 Pb.pbe-dn-rrkjus_psl.1.0.0.UPF

CELL_PARAMETERS {angstrom}
6.73051000 0.00000000 0.00000000
0.00000000 9.51837000 0.00000000
0.00000000 0.00000000 27.13880000

ATOMIC_POSITIONS {angstrom}
Li 1.68262750 0.00000000 -1.1897649900000005 0 0 0
Li 5.04788250 4.75918500 -1.1897649900000005 0 0 0
Li 5.04788250 0.00000000 -1.1897649900000005 0 0 0
Li 1.68262750 4.75918500 -1.1897649900000005 0 0 0
Li 5.04788250 7.13877750 -3.5692949799999987 0 0 0
Li 1.68262750 2.37959250 -3.5692949799999987 0 0 0
Li 1.68262750 7.13877750 -3.5692949799999987 0 0 0
Li 5.04788250 2.37959250 -3.5692949799999987 0 0 0
Li 0.00000000 7.13877750 -1.1897649900000005 0 0 0
Li 3.36525500 0.00000000 -3.5692949799999987 0 0 0
Li 0.00000000 2.37959250 -1.1897649900000005 0 0 0
Li 3.36525500 4.75918500 -3.5692949799999987 0 0 0
Li 1.71856842 4.75918500 3.70797424
Li 4.86568759 0.00000000 4.06756334
Li 5.01194158 4.75918500 3.70797424
Li 1.86468780 0.00000000 4.06756334
Li 4.95143429 2.42109259 1.24892758
Li 1.77921032 7.09727741 1.24865619
Li 1.77914301 2.42118778 1.24892758
Li 4.95129968 7.09727741 1.24892758
Li 6.73044269 2.09946687 3.53320037
Li 3.36525500 4.75918500 1.28746467
Li 6.73044269 7.41890313 3.53320037
Li 3.36525500 0.00000000 1.35504028
Pb 0.00000000 0.00000000 -3.5692949799999987 0 0 0
Pb 3.36525500 2.37959250 -1.1897649900000005 0 0 0
Pb 3.36525500 7.13877750 -1.1897649900000005 0 0 0
Pb 0.00000000 4.75918500 -3.5692949799999987 0 0 0
Pb 0.00000000 4.75918500 1.32952981
Pb 3.36525500 7.07690810 3.70688869
Pb 3.36525500 2.44146191 3.70716008
Pb 0.00013461 0.00000000 1.03805910
C 6.73024078 0.00000000 3.22626054
