&CONTROL
calculation = 'relax'
prefix = 'scf'
pseudo_dir = '/vol0004/mdt0/data/hp150275/u10028/POT_KKJUS'
outdir = './data'
tprnfor = .true.
nstep = 50
disk_io = 'non'
/
&SYSTEM
ibrav = 0
ecutwfc = 50.0
ecutrho = 400
occupations = 'smearing'
smearing = 'mp'
degauss = 0.01
assume_isolated = 'esm'
esm_bc = 'bc1'
input_dft = 'BEEF-VDW'
nosym = .true.
nspin = 1
ntyp = 4
nat = 18
/
&ELECTRONS
electron_maxstep = 200
mixing_beta = 0.1
conv_thr = 1e-06
/
&IONS
ion_dynamics = 'bfgs'
upscale = 1.0
/
&CELL
/

K_POINTS {automatic}
8 11 2 0  0  0

ATOMIC_SPECIES
C 12.01 C.pbe-n-rrkjus_psl.1.0.0.UPF
O 15.99 O.pbe-n-rrkjus_psl.1.0.0.UPF
Sn 118.7 Sn.pbe-dn-rrkjus_psl.1.0.0.UPF
Ti 47.86 Ti.pbe-spn-rrkjus_psl.1.0.0.UPF

CELL_PARAMETERS {angstrom}
8.35210000 0.00000000 0.00000000
0.00000000 5.90582000 0.00000000
0.00000000 0.00000000 24.42940000

ATOMIC_POSITIONS {angstrom}
Ti 8.35159887 2.95285094 2.08675935
Ti 2.08735683 4.39316232 0.65202069
Ti 2.08735683 1.51259862 0.65202069
Ti 0.00000000 0.00000000 -0.7382564699999996 0 0 0
Ti 2.08802500 1.47645500 -2.2147694000000016 0 0 0
Ti 2.08802500 4.42936500 -2.2147694000000016 0 0 0
Ti 4.17663465 2.95285094 2.08651505
Ti 6.26465965 4.39316232 0.65177639
Ti 6.26465965 1.51259862 0.65177639
Ti 4.17605000 0.00000000 -0.7382564699999996 0 0 0
Ti 6.26407500 1.47645500 -2.2147694000000016 0 0 0
Ti 6.26407500 4.42936500 -2.2147694000000016 0 0 0
Sn 8.35193296 5.90576094 2.28292743
Sn 0.00000000 2.95291000 -0.7382564699999996 0 0 0
Sn 4.17596648 5.90576094 2.28683613
Sn 4.17605000 2.95291000 -0.7382564699999996 0 0 0
C 0.00091873 5.90528848 6.54488055
O 8.35193296 5.90576094 7.67987048
