&CONTROL
calculation = 'relax'
prefix = 'scf'
pseudo_dir = '/vol0004/mdt0/data/hp150275/u10028/POT_KKJUS'
outdir = './data'
tprnfor = .true.
nstep = 50
disk_io = 'non'
/
&SYSTEM
ibrav = 0
ecutwfc = 50.0
ecutrho = 400
occupations = 'smearing'
smearing = 'mp'
degauss = 0.01
assume_isolated = 'esm'
esm_bc = 'bc1'
input_dft = 'BEEF-VDW'
nosym = .true.
nspin = 1
ntyp = 5
nat = 18
/
&ELECTRONS
electron_maxstep = 200
mixing_beta = 0.1
conv_thr = 1e-06
/
&IONS
ion_dynamics = 'bfgs'
upscale = 1.0
/
&CELL
/

K_POINTS {automatic}
9 9 2 0  0  0

ATOMIC_SPECIES
C 12.01 C.pbe-n-rrkjus_psl.1.0.0.UPF
Cu 63.54 Cu.pbe-dn-rrkjus_psl.1.0.0.UPF
In 114.8 In.pbe-dn-rrkjus_psl.1.0.0.UPF
O 15.99 O.pbe-n-rrkjus_psl.1.0.0.UPF
Zr 91.22 Zr.pbe-spn-rrkjus_psl.1.0.0.UPF

CELL_PARAMETERS {angstrom}
6.47982000 0.00000000 0.00000000
0.00000000 6.47982000 0.00000000
0.00000000 0.00000000 24.85990000

ATOMIC_POSITIONS {angstrom}
Zr 6.47949601 6.47962561 2.33732780
Zr 3.23965081 3.23984520 2.33683060
Zr 3.23991000 0.00000000 -0.8099355399999979 0 0 0
Zr 0.00000000 3.23991000 -0.8099355399999979 0 0 0
In 0.00000000 0.00000000 -0.8099355399999979 0 0 0
In 3.23958601 6.47969040 2.67293645
In 6.47949601 3.23971561 2.63490080
In 3.23991000 3.23991000 -0.8099355399999979 0 0 0
Cu 1.63246105 1.60680097 0.86984790
Cu 4.85986500 4.85986500 -2.4300552300000007 0 0 0
Cu 4.84697016 1.60686576 0.86984790
Cu 1.61995500 4.85986500 -2.4300552300000007 0 0 0
Cu 4.84697016 4.87282464 0.86984790
Cu 1.61995500 1.61995500 -2.4300552300000007 0 0 0
Cu 1.63246105 4.87275984 0.86984790
Cu 4.85986500 1.61995500 -2.4300552300000007 0 0 0
C 0.00680381 3.24392749 7.11689217
O 6.47871843 3.23926202 8.25075221
