&CONTROL
calculation = 'relax'
prefix = 'scf'
pseudo_dir = '/vol0403/data/hp230205/u10028/POT_HYBRID_KKJUS_GBRV'
outdir = './data'
tprnfor = .true.
nstep = 50
disk_io = 'non'
/
&SYSTEM
ibrav = 0
ecutwfc = 50.0
ecutrho = 400
occupations = 'smearing'
smearing = 'mp'
degauss = 0.01
assume_isolated = 'esm'
esm_bc = 'bc1'
input_dft = 'BEEF-VDW'
nosym = .true.
nspin = 1
ntyp = 5
nat = 33
/
&ELECTRONS
electron_maxstep = 200
mixing_beta = 0.1
conv_thr = 1e-06
/
&IONS
ion_dynamics = 'bfgs'
upscale = 1.0
/
&CELL
/

K_POINTS {automatic}
6 6 1 0 0 0

ATOMIC_SPECIES
C 12.01 C.pbe-n-rrkjus_psl.1.0.0.UPF
In 114.8 In.pbe-dn-rrkjus_psl.1.0.0.UPF
Li 6.941 Li.pbe-sl-rrkjus_psl.1.0.0.UPF
Mg 24.30 Mg.pbe-spnl-rrkjus_psl.1.0.0.UPF
Pd 106.4 Pd.pbe-n-rrkjus_psl.1.0.0.UPF


CELL_PARAMETERS {angstrom}
6.52273000 0.00000000 0.00000000
0.00000000 9.22454000 0.00000000
0.00000000 0.00000000 26.91840000

ATOMIC_POSITIONS {angstrom}
Li 1.63068250 0.00000000 -1.1531842599999997 0 0 0
Li 1.63068250 4.61227000 -1.1531842599999997 0 0 0
Li 4.89204750 2.30613500 -3.4592835799999975 0 0 0
Li 4.89204750 6.91840500 -3.4592835799999975 0 0 0
Li 1.63068250 4.61227000 3.45928358
Li 1.63068250 0.00000000 3.45928358
Li 4.89204750 6.91840500 1.15318426
Li 4.89204750 2.30613500 1.15318426
Mg 0.00000000 2.30613500 -1.1531842599999997 0 0 0
Mg 0.00000000 6.91840500 -1.1531842599999997 0 0 0
Mg 3.26136500 4.61227000 -3.4592835799999975 0 0 0
Mg 3.26136500 0.00000000 -3.4592835799999975 0 0 0
Mg 0.00000000 6.91840500 3.45928358
Mg 0.00000000 2.30613500 3.45928358
Mg 3.26136500 0.00000000 1.15318426
Mg 3.26136500 4.61227000 1.15318426
In 0.00000000 0.00000000 -3.4592835799999975 0 0 0
In 0.00000000 4.61227000 -3.4592835799999975 0 0 0
In 3.26136500 6.91840500 -1.1531842599999997 0 0 0
In 3.26136500 2.30613500 -1.1531842599999997 0 0 0
In 0.00000000 4.61227000 1.15318426
In 0.00000000 0.00000000 1.15318426
In 3.26136500 2.30613500 3.45928358
In 3.26136500 6.91840500 3.45928358
Pd 4.89204750 0.00000000 -1.1531842599999997 0 0 0
Pd 4.89204750 4.61227000 -1.1531842599999997 0 0 0
Pd 1.63068250 2.30613500 -3.4592835799999975 0 0 0
Pd 1.63068250 6.91840500 -3.4592835799999975 0 0 0
Pd 4.89204750 4.61227000 3.45928358
Pd 4.89204750 0.00000000 3.45928358
Pd 1.63068250 6.91840500 1.15318426
Pd 1.63068250 2.30613500 1.15318426
C 0.00000000 0.00000000 4.25929843
