&CONTROL
calculation = 'relax'
prefix = 'scf'
pseudo_dir = '/vol0403/data/hp230205/u10028/POT_HYBRID_KKJUS_GBRV'
outdir = './data'
tprnfor = .true.
nstep = 50
disk_io = 'non'
/
&SYSTEM
ibrav = 0
ecutwfc = 50.0
ecutrho = 400
occupations = 'smearing'
smearing = 'mp'
degauss = 0.01
assume_isolated = 'esm'
esm_bc = 'bc1'
input_dft = 'BEEF-VDW'
nosym = .true.
nspin = 1
ntyp = 6
nat = 34
/
&ELECTRONS
electron_maxstep = 200
mixing_beta = 0.1
conv_thr = 1e-06
/
&IONS
ion_dynamics = 'bfgs'
upscale = 1.0
/
&CELL
/

K_POINTS {automatic}
6 6 1 0 0 0

ATOMIC_SPECIES
Al 26.98 Al.pbe-nl-rrkjus_psl.1.0.0.UPF
C 12.01 C.pbe-n-rrkjus_psl.1.0.0.UPF
In 114.8 In.pbe-dn-rrkjus_psl.1.0.0.UPF
Li 6.941 Li.pbe-sl-rrkjus_psl.1.0.0.UPF
O 15.99 O.pbe-n-rrkjus_psl.1.0.0.UPF
Pd 106.4 Pd.pbe-n-rrkjus_psl.1.0.0.UPF


CELL_PARAMETERS {angstrom}
6.39489000 0.00000000 0.00000000
0.00000000 9.04374000 0.00000000
0.00000000 0.00000000 26.78280000

ATOMIC_POSITIONS {angstrom}
Li 4.79616750 0.00000000 -1.1305019900000026 0 0 0
Li 4.79616750 4.52187000 -1.1305019900000026 0 0 0
Li 1.59872250 2.26093500 -3.3915059600000035 0 0 0
Li 1.59872250 6.78280500 -3.3915059600000035 0 0 0
Li 4.31264987 4.52187000 4.75073306
Li 4.50149097 0.00000000 4.12455120
Li 1.39945773 6.77837357 1.25048893
Li 1.39945773 2.26545687 1.25048893
Al 0.00000000 0.00000000 -3.3915059600000035 0 0 0
Al 0.00000000 4.52187000 -3.3915059600000035 0 0 0
Al 3.19744500 6.78280500 -1.1305019900000026 0 0 0
Al 3.19744500 2.26093500 -1.1305019900000026 0 0 0
Al 6.22101294 4.52187000 1.32762340
Al 6.19971796 0.00000000 1.51403168
Al 3.12735701 2.37524787 3.34061864
Al 3.12735701 6.66849213 3.34061864
In 0.00000000 2.26093500 -1.1305019900000026 0 0 0
In 0.00000000 6.78280500 -1.1305019900000026 0 0 0
In 3.19744500 4.52187000 -3.3915059600000035 0 0 0
In 3.19744500 0.00000000 -3.3915059600000035 0 0 0
In 6.12112476 6.65293689 3.73084404
In 6.12112476 2.39080311 3.73084404
In 3.11073029 0.00000000 1.28530657
In 3.22257692 4.52187000 1.16398049
Pd 1.59872250 0.00000000 -1.1305019900000026 0 0 0
Pd 1.59872250 4.52187000 -1.1305019900000026 0 0 0
Pd 4.79616750 2.26093500 -3.3915059600000035 0 0 0
Pd 4.79616750 6.78280500 -3.3915059600000035 0 0 0
Pd 1.57717172 4.52187000 3.30981842
Pd 1.54641230 0.00000000 3.60389357
Pd 4.78145925 6.82169308 1.05631363
Pd 4.78145925 2.22204692 1.05631363
C 1.74375861 0.00000000 5.56894760
O 1.82925828 0.00000000 6.72087583
