&CONTROL
calculation = 'relax'
prefix = 'scf'
pseudo_dir = '/vol0004/mdt0/data/hp150275/u10028/POT_KKJUS'
outdir = './data'
tprnfor = .true.
nstep = 50
disk_io = 'non'
/
&SYSTEM
ibrav = 0
ecutwfc = 50.0
ecutrho = 400
occupations = 'smearing'
smearing = 'mp'
degauss = 0.01
assume_isolated = 'esm'
esm_bc = 'bc1'
input_dft = 'BEEF-VDW'
nosym = .true.
nspin = 1
ntyp = 4
nat = 17
/
&ELECTRONS
electron_maxstep = 200
mixing_beta = 0.1
conv_thr = 1e-06
/
&IONS
ion_dynamics = 'bfgs'
upscale = 1.0
/
&CELL
/

K_POINTS {automatic}
8 8 1 0 0 0

ATOMIC_SPECIES
C 12.01 C.pbe-n-rrkjus_psl.1.0.0.UPF
Ni 58.69 Ni.pbe-spn-rrkjus_psl.1.0.0.UPF
Sn 118.7 Sn.pbe-dn-rrkjus_psl.1.0.0.UPF
V 50.94 V.pbe-spnl-rrkjus_psl.1.0.0.UPF

CELL_PARAMETERS {angstrom}
6.08368000 0.00000000 0.00000000
0.00000000 6.08368000 0.00000000
0.00000000 0.00000000 24.56280000

ATOMIC_POSITIONS {angstrom}
V 0.00000000 0.00000000 -2.2813928600000004 0 0 0
V 3.04184000 3.04184000 -2.2813928600000004 0 0 0
V 3.04177916 0.00000000 0.89531406
V 0.00000000 3.04177916 0.89555969
Ni 1.52092000 1.52092000 -0.760464289999998 0 0 0
Ni 4.79941515 4.79868511 2.31872832
Ni 4.56276000 1.52092000 -0.760464289999998 0 0 0
Ni 1.28469071 4.79819842 2.32069334
Ni 4.56276000 4.56276000 -0.760464289999998 0 0 0
Ni 1.28396066 1.28469071 2.31823706
Ni 1.52092000 4.56276000 -0.760464289999998 0 0 0
Ni 4.79911097 1.28548158 2.32020209
Sn 0.00006084 0.00006084 0.49911610
Sn 3.04184000 0.00000000 -2.2813928600000004 0 0 0
Sn 0.00000000 3.04184000 -2.2813928600000004 0 0 0
Sn 3.04177916 3.04177916 1.14413522
C 6.08355833 6.08361916 2.97578322
