&CONTROL
calculation = 'relax'
prefix = 'scf'
pseudo_dir = '/vol0004/mdt0/data/hp150275/u10028/POT_HYBRID_KKJUS_GBRV'
outdir = './data'
tprnfor = .true.
nstep = 50
disk_io = 'non'
/
&SYSTEM
ibrav = 0
ecutwfc = 50.0
ecutrho = 400
occupations = 'smearing'
smearing = 'mp'
degauss = 0.01
assume_isolated = 'esm'
esm_bc = 'bc1'
input_dft = 'BEEF-VDW'
nosym = .true.
nspin = 2
ntyp = 3
nat = 32
starting_magnetization(1) = 0.1
starting_magnetization(2) = 0.0
starting_magnetization(3) = 0.0
/
&ELECTRONS
electron_maxstep = 200
mixing_beta = 0.1
conv_thr = 1e-06
/
&IONS
ion_dynamics = 'bfgs'
upscale = 1.0
/
&CELL
/

K_POINTS {automatic}
9 6 2 0  0  0

ATOMIC_SPECIES
Co 58.93 co_pbe_v1.2.uspp.F.UPF
Si 28.08 Si.pbe-nl-rrkjus_psl.1.0.0.UPF
Ti 47.86 Ti.pbe-spn-rrkjus_psl.1.0.0.UPF

CELL_PARAMETERS {angstrom}
5.76208000 0.00000000 0.00000000
0.00000000 8.14881000 0.00000000
0.00000000 0.00000000 26.11160000

ATOMIC_POSITIONS {angstrom}
Ti 0.00000000 0.00000000 23.05575945
Ti 2.88104000 2.03720250 25.09298648
Ti 2.88104000 6.11160750 25.09298648
Ti 0.00000000 4.07440500 23.05575945
Ti 0.00000000 4.07440500 0.99929093
Ti 2.88104000 6.11160750 3.15402016
Ti 2.88104000 2.03720250 3.15402016
Ti 0.00000000 0.00000000 0.99929093
Co 1.44052000 0.00000000 25.09298648
Co 4.32156000 4.07440500 25.09298648
Co 4.32156000 0.00000000 25.09298648
Co 1.44052000 4.07440500 25.09298648
Co 4.32156000 6.11160750 23.05575945
Co 1.44052000 2.03720250 23.05575945
Co 1.44052000 6.11160750 23.05575945
Co 4.32156000 2.03720250 23.05575945
Co 1.35956278 4.07448649 2.91013782
Co 4.40245960 8.14872851 2.91013782
Co 4.40251722 4.07448649 2.91013782
Co 1.35956278 8.14872851 2.91013782
Co 4.26975890 2.03695804 1.03219155
Co 1.49237872 6.11185196 1.03219155
Co 1.49232110 2.03695804 1.03219155
Co 4.26970128 6.11185196 1.03219155
Si 0.00000000 6.11160750 25.09298648
Si 2.88104000 0.00000000 23.05575945
Si 0.00000000 2.03720250 25.09298648
Si 2.88104000 4.07440500 23.05575945
Si 0.00000000 2.03720250 3.03808466
Si 2.88104000 4.07440500 1.07109783
Si 0.00000000 6.11160750 3.03808466
Si 2.88104000 0.00000000 1.07109783
