&CONTROL
calculation = 'relax'
prefix = 'scf'
pseudo_dir = '/vol0004/mdt0/data/hp150275/u10028/POT_KKJUS'
outdir = './data'
tprnfor = .true.
nstep = 50
disk_io = 'non'
/
&SYSTEM
ibrav = 0
ecutwfc = 50.0
ecutrho = 400
occupations = 'smearing'
smearing = 'mp'
degauss = 0.01
assume_isolated = 'esm'
esm_bc = 'bc1'
input_dft = 'BEEF-VDW'
nosym = .true.
nspin = 1
ntyp = 4
nat = 18
/
&ELECTRONS
electron_maxstep = 200
mixing_beta = 0.1
conv_thr = 1e-06
/
&IONS
ion_dynamics = 'bfgs'
upscale = 1.0
/
&CELL
/

K_POINTS {automatic}
6 8 1 0 0 0

ATOMIC_SPECIES
C 12.01 C.pbe-n-rrkjus_psl.1.0.0.UPF
Ir 192.2 Ir.pbe-n-rrkjus_psl.0.2.3.UPF
O 15.99 O.pbe-n-rrkjus_psl.1.0.0.UPF
Ti 47.86 Ti.pbe-spn-rrkjus_psl.1.0.0.UPF

CELL_PARAMETERS {angstrom}
7.78093000 0.00000000 0.00000000
0.00000000 5.50195000 0.00000000
0.00000000 0.00000000 24.12650000

ATOMIC_POSITIONS {angstrom}
Ti 0.00000000 0.00000000 1.87269893
Ti 0.00000000 2.75097500 -0.6878465200000008 0 0 0
Ti 3.89046500 0.00000000 1.80635106
Ti 3.89046500 2.75097500 -0.6878465200000008 0 0 0
Ir 0.00000000 2.75097500 1.93615163
Ir 1.93465044 4.11914491 0.69556700
Ir 1.93465044 1.38280509 0.69556700
Ir 0.00000000 0.00000000 -0.6878465200000008 0 0 0
Ir 1.94523250 1.37548750 -2.0632982800000015 0 0 0
Ir 1.94523250 4.12646250 -2.0632982800000015 0 0 0
Ir 3.89046500 2.75097500 1.89827302
Ir 5.84627956 4.11914491 0.69580826
Ir 5.84627956 1.38280509 0.69580826
Ir 3.89046500 0.00000000 -0.6878465200000008 0 0 0
Ir 5.83569750 1.37548750 -2.0632982800000015 0 0 0
Ir 5.83569750 4.12646250 -2.0632982800000015 0 0 0
C 0.00000000 0.00000000 4.09281946
O 0.00000000 0.00000000 5.23834568
