&CONTROL
calculation = 'relax'
prefix = 'scf'
pseudo_dir = '/vol0403/data/hp230205/u10028/POT_HYBRID_KKJUS_GBRV'
outdir = './data'
tprnfor = .true.
nstep = 70
disk_io = 'non'
/
&SYSTEM
ibrav = 0
ecutwfc = 50.0
ecutrho = 400
occupations = 'smearing'
smearing = 'mp'
degauss = 0.01
assume_isolated = 'esm'
esm_bc = 'bc1'
input_dft = 'BEEF-VDW'
nosym = .true.
nspin = 1
ntyp = 5
nat = 17
/
&ELECTRONS
electron_maxstep = 200
mixing_beta = 0.1
conv_thr = 1e-06
/
&IONS
ion_dynamics = 'bfgs'
upscale = 1.0
/
&CELL
/

K_POINTS {automatic}
6 6 1 0 0 0

ATOMIC_SPECIES
Ag 107.8 Ag.pbe-n-rrkjus_psl.1.0.0.UPF
C 12.01 C.pbe-n-rrkjus_psl.1.0.0.UPF
Cu 63.54 Cu.pbe-dn-rrkjus_psl.1.0.0.UPF
In 114.8 In.pbe-dn-rrkjus_psl.1.0.0.UPF
Li 6.941 Li.pbe-sl-rrkjus_psl.1.0.0.UPF


CELL_PARAMETERS {angstrom}
6.40797000 0.00000000 0.00000000
-0.00000000 6.40797000 0.00000000
0.00000000 0.00000000 24.80600000

ATOMIC_POSITIONS {angstrom}
Li 4.80597750 1.60199250 0.80098574
Li 4.80597750 4.80597750 -2.402957220000001 0 0 0
Li 1.60199250 1.60199250 -2.402957220000001 0 0 0
Li 1.60199250 4.80597750 0.80098574
In 0.00000000 3.20398500 2.40295722
In 0.00000000 0.00000000 -0.8009857400000016 0 0 0
In 3.20398500 3.20398500 -0.8009857400000016 0 0 0
In 3.20398500 -0.00000000 2.40295722
Cu 1.60199250 1.60199250 0.80098574
Cu 1.60199250 4.80597750 -2.402957220000001 0 0 0
Cu 4.80597750 1.60199250 -2.402957220000001 0 0 0
Cu 4.80597750 4.80597750 0.80098574
Ag 0.00000000 0.00000000 2.40295722
Ag 0.00000000 3.20398500 -0.8009857400000016 0 0 0
Ag 3.20398500 0.00000000 -0.8009857400000016 0 0 0
Ag 3.20398500 3.20398500 2.40295722
C 4.80597750 1.60199250 3.20295072
