&CONTROL
calculation = 'relax'
prefix = 'scf'
pseudo_dir = '/vol0403/data/hp230205/u10028/POT_HYBRID_KKJUS_GBRV'
outdir = './data'
tprnfor = .true.
nstep = 50
disk_io = 'non'
/
&SYSTEM
ibrav = 0
ecutwfc = 50.0
ecutrho = 400
occupations = 'smearing'
smearing = 'mp'
degauss = 0.01
assume_isolated = 'esm'
esm_bc = 'bc1'
input_dft = 'BEEF-VDW'
nosym = .true.
nspin = 1
ntyp = 5
nat = 33
/
&ELECTRONS
electron_maxstep = 200
mixing_beta = 0.1
conv_thr = 1e-06
/
&IONS
ion_dynamics = 'bfgs'
upscale = 1.0
/
&CELL
/

K_POINTS {automatic}
9 6 2 0  0  0

ATOMIC_SPECIES
Ag 107.8 Ag.pbe-n-rrkjus_psl.1.0.0.UPF
C 12.01 C.pbe-n-rrkjus_psl.1.0.0.UPF
Ge 72.64 Ge.pbe-dn-rrkjus_psl.1.0.0.UPF
Li 6.941 Li.pbe-sl-rrkjus_psl.1.0.0.UPF
Mg 24.30 Mg.pbe-spnl-rrkjus_psl.1.0.0.UPF


CELL_PARAMETERS {angstrom}
6.50572000 0.00000000 0.00000000
0.00000000 9.20048000 0.00000000
0.00000000 0.00000000 26.90040000

ATOMIC_POSITIONS {angstrom}
Li 4.87929000 0.00000000 -1.1499921000000022 0 0 0
Li 4.87929000 4.60024000 -1.1499921000000022 0 0 0
Li 1.62643000 2.30012000 -3.4502453000000024 0 0 0
Li 1.62643000 6.90036000 -3.4502453000000024 0 0 0
Li 5.02527836 4.60024000 3.62186986
Li 4.57195979 0.00000000 3.28480784
Li 1.67268567 6.83301249 1.23176932
Li 1.67268567 2.36746751 1.23176932
Mg 1.62643000 0.00000000 -1.1499921000000022 0 0 0
Mg 1.62643000 4.60024000 -1.1499921000000022 0 0 0
Mg 4.87929000 2.30012000 -3.4502453000000024 0 0 0
Mg 4.87929000 6.90036000 -3.4502453000000024 0 0 0
Mg 1.58622465 4.60024000 3.59658348
Mg 2.04253585 0.00000000 3.95247577
Mg 4.87200359 6.98334833 1.18038955
Mg 4.87200359 2.21713167 1.18038955
Ag 0.00000000 0.00000000 -3.4502453000000024 0 0 0
Ag 0.00000000 4.60024000 -3.4502453000000024 0 0 0
Ag 3.25286000 6.90036000 -1.1499921000000022 0 0 0
Ag 3.25286000 2.30012000 -1.1499921000000022 0 0 0
Ag 6.46434362 4.60024000 1.17285744
Ag 0.23251443 0.00000000 1.48813013
Ag 3.34257388 2.42303841 3.59658348
Ag 3.34257388 6.77744159 3.59658348
Ge 0.00000000 2.30012000 -1.1499921000000022 0 0 0
Ge 0.00000000 6.90036000 -1.1499921000000022 0 0 0
Ge 3.25286000 4.60024000 -3.4502453000000024 0 0 0
Ge 3.25286000 0.00000000 -3.4502453000000024 0 0 0
Ge 6.22024901 7.27932777 3.90297904
Ge 6.22024901 1.92115223 3.90297904
Ge 3.11259668 0.00000000 1.18227258
Ge 3.34933983 4.60024000 1.36277426
C 6.44150854 0.00000000 3.95973888
