&CONTROL
calculation = 'relax'
prefix = 'scf'
pseudo_dir = '/vol0004/mdt0/data/hp150275/u10028/POT_KKJUS'
outdir = './data'
tprnfor = .true.
nstep = 50
disk_io = 'non'
/
&SYSTEM
ibrav = 0
ecutwfc = 50.0
ecutrho = 400
occupations = 'smearing'
smearing = 'mp'
degauss = 0.01
assume_isolated = 'esm'
esm_bc = 'bc1'
input_dft = 'BEEF-VDW'
nosym = .true.
nspin = 1
ntyp = 4
nat = 33
/
&ELECTRONS
electron_maxstep = 200
mixing_beta = 0.1
conv_thr = 1e-06
/
&IONS
ion_dynamics = 'bfgs'
upscale = 1.0
/
&CELL
/

K_POINTS {automatic}
8 6 1 0 0 0

ATOMIC_SPECIES
C 12.01 C.pbe-n-rrkjus_psl.1.0.0.UPF
Ga 69.72 Ga.pbe-dnl-rrkjus_psl.1.0.0.UPF
Li 6.941 Li.pbe-sl-rrkjus_psl.1.0.0.UPF
Pt 195.0 Pt.pbe-n-rrkjus_psl.1.0.0.UPF

CELL_PARAMETERS {angstrom}
6.10853000 0.00000000 0.00000000
0.00000000 8.63876000 0.00000000
0.00000000 0.00000000 26.47910000

ATOMIC_POSITIONS {angstrom}
Li 0.00000000 6.47907000 -1.0798176999999995 0 0 0
Li 3.05426500 0.00000000 -3.239453089999998 0 0 0
Li 0.00000000 2.15969000 -1.0798176999999995 0 0 0
Li 3.05426500 4.31938000 -3.239453089999998 0 0 0
Li 1.52713250 2.15969000 -3.239453089999998 0 0 0
Li 1.52713250 6.47907000 -3.239453089999998 0 0 0
Li 4.58139750 4.31938000 -1.0798176999999995 0 0 0
Li 4.58139750 0.00000000 -1.0798176999999995 0 0 0
Li 6.07248967 2.15960361 4.28193526
Li 3.08095928 4.22487197 1.11344615
Li 5.94598202 6.47907000 3.18490615
Li 3.08102036 0.09459442 1.11344615
Li 1.55339918 6.47907000 1.01706223
Li 1.44943200 2.15969000 1.12297863
Li 4.37908299 0.07049228 3.40124040
Li 4.37908299 4.24888772 3.40124040
Ga 1.52713250 0.00000000 -1.0798176999999995 0 0 0
Ga 1.52713250 4.31938000 -1.0798176999999995 0 0 0
Ga 4.58139750 6.47907000 -3.239453089999998 0 0 0
Ga 4.58139750 2.15969000 -3.239453089999998 0 0 0
Ga 1.40453430 4.39574664 3.27122801
Ga 1.40447322 8.56239336 3.27122801
Ga 4.80802396 2.15969000 1.14919294
Ga 4.50534630 6.47907000 1.08961496
Pt 0.00000000 0.00000000 -3.239453089999998 0 0 0
Pt 3.05426500 2.15969000 -1.0798176999999995 0 0 0
Pt 3.05426500 6.47907000 -1.0798176999999995 0 0 0
Pt 0.00000000 4.31938000 -3.239453089999998 0 0 0
Pt 6.10077217 4.43021529 1.02924262
Pt 2.89403826 6.47907000 3.05065711
Pt 2.49215807 2.15969000 3.39991644
Pt 6.10077217 8.52801110 1.02924262
C 4.38824578 2.15969000 3.11870840
