&CONTROL
calculation = 'relax'
prefix = 'scf'
pseudo_dir = '/vol0004/mdt0/data/hp150275/u10028/POT_KKJUS'
outdir = './data'
tprnfor = .true.
nstep = 50
disk_io = 'non'
/
&SYSTEM
ibrav = 0
ecutwfc = 50.0
ecutrho = 400
occupations = 'smearing'
smearing = 'mp'
degauss = 0.01
assume_isolated = 'esm'
esm_bc = 'bc1'
input_dft = 'BEEF-VDW'
nosym = .true.
nspin = 1
ntyp = 5
nat = 34
/
&ELECTRONS
electron_maxstep = 200
mixing_beta = 0.1
conv_thr = 1e-06
/
&IONS
ion_dynamics = 'bfgs'
upscale = 1.0
/
&CELL
/

K_POINTS {automatic}
8 6 1 0 0 0

ATOMIC_SPECIES
C 12.01 C.pbe-n-rrkjus_psl.1.0.0.UPF
Li 6.941 Li.pbe-sl-rrkjus_psl.1.0.0.UPF
O 15.99 O.pbe-n-rrkjus_psl.1.0.0.UPF
Pd 106.4 Pd.pbe-n-rrkjus_psl.1.0.0.UPF
Sn 118.7 Sn.pbe-dn-rrkjus_psl.1.0.0.UPF

CELL_PARAMETERS {angstrom}
6.41477000 0.00000000 0.00000000
0.00000000 9.07185000 0.00000000
0.00000000 0.00000000 26.80390000

ATOMIC_POSITIONS {angstrom}
Li 0.00000000 0.00000000 -3.4019509899999996 0 0 0
Li 3.20738500 2.26796250 -1.134073009999998 0 0 0
Li 3.20738500 6.80388750 -1.134073009999998 0 0 0
Li 0.00000000 4.53592500 -3.4019509899999996 0 0 0
Li 0.00000000 4.53755793 1.05741385
Li 3.20738500 6.80388750 3.44751762
Li 3.20738500 2.26796250 3.44939389
Li 0.00000000 9.07021707 1.05741385
Sn 0.00000000 6.80388750 -1.134073009999998 0 0 0
Sn 3.20738500 0.00000000 -3.4019509899999996 0 0 0
Sn 0.00000000 2.26796250 -1.134073009999998 0 0 0
Sn 3.20738500 4.53592500 -3.4019509899999996 0 0 0
Sn 0.00000000 2.26796250 3.53221794
Sn 3.20738500 4.53937230 1.11933086
Sn 0.00000000 6.80388750 3.54990852
Sn 3.20738500 9.06840270 1.11933086
Pd 1.60369250 0.00000000 -1.134073009999998 0 0 0
Pd 4.81107750 4.53592500 -1.134073009999998 0 0 0
Pd 4.81107750 0.00000000 -1.134073009999998 0 0 0
Pd 1.60369250 4.53592500 -1.134073009999998 0 0 0
Pd 4.81107750 6.80388750 -3.4019509899999996 0 0 0
Pd 1.60369250 2.26796250 -3.4019509899999996 0 0 0
Pd 1.60369250 6.80388750 -3.4019509899999996 0 0 0
Pd 4.81107750 2.26796250 -3.4019509899999996 0 0 0
Pd 1.48873982 4.53583428 3.20065370
Pd 4.92603018 0.00000000 3.20065370
Pd 4.92603018 4.53583428 3.20065370
Pd 1.48873982 0.00000000 3.20065370
Pd 4.83718561 2.26796250 1.14881515
Pd 1.57174695 6.80388750 1.15685632
Pd 1.57758439 2.26796250 1.14881515
Pd 4.84302305 6.80388750 1.15685632
C 6.41464170 2.26796250 7.61230760
O 0.00000000 2.26796250 8.74718473
