&CONTROL
calculation = 'relax'
prefix = 'scf'
pseudo_dir = '/vol0403/data/hp230205/u10028/POT_HYBRID_KKJUS_GBRV'
outdir = './data'
tprnfor = .true.
nstep = 50
disk_io = 'non'
/
&SYSTEM
ibrav = 0
ecutwfc = 50.0
ecutrho = 400
occupations = 'smearing'
smearing = 'mp'
degauss = 0.01
assume_isolated = 'esm'
esm_bc = 'bc1'
input_dft = 'BEEF-VDW'
nosym = .true.
nspin = 1
ntyp = 5
nat = 17
/
&ELECTRONS
electron_maxstep = 200
mixing_beta = 0.1
conv_thr = 1e-06
/
&IONS
ion_dynamics = 'bfgs'
upscale = 1.0
/
&CELL
/

K_POINTS {automatic}
6 6 1 0 0 0

ATOMIC_SPECIES
Al 26.98 Al.pbe-nl-rrkjus_psl.1.0.0.UPF
C 12.01 C.pbe-n-rrkjus_psl.1.0.0.UPF
In 114.8 In.pbe-dn-rrkjus_psl.1.0.0.UPF
Pd 106.4 Pd.pbe-n-rrkjus_psl.1.0.0.UPF
Sc 44.95 Sc.pbe-spn-rrkjus_psl.1.0.0.UPF


CELL_PARAMETERS {angstrom}
8.30234000 0.00000000 0.00000000
0.00000000 5.99150000 0.00000000
0.00000000 0.00000000 24.49130000

ATOMIC_POSITIONS {angstrom}
Sc 2.07550198 4.51076069 0.73963726
Sc 2.07558500 1.35449841 -2.2456072999999996 0 0 0
Sc 6.22683802 4.47409271 0.83833720
Sc 6.22675500 1.35449841 -2.2456072999999996 0 0 0
Al 0.14529095 5.71091805 2.46676374
Al 0.00000000 2.90018558 -0.7484541299999989 0 0 0
Al 4.00604510 5.71085814 2.46651882
Al 4.15117000 2.90018558 -0.7484541299999989 0 0 0
In 2.07558500 1.51525035 0.80111042
In 2.07558500 4.35024841 -2.2456072999999996 0 0 0
In 6.22683802 1.36935733 1.21182952
In 6.22675500 4.35024841 -2.2456072999999996 0 0 0
Pd 8.27643670 3.13930634 1.92501618
Pd 0.00000000 5.89593558 -0.7484541299999989 0 0 0
Pd 4.17707330 3.13930634 1.92477127
Pd 4.15117000 5.89593558 -0.7484541299999989 0 0 0
C 2.07566802 5.89923090 2.41410744
