&CONTROL
calculation = 'relax'
prefix = 'scf'
pseudo_dir = '/vol0403/data/hp230205/u10028/POT_HYBRID_KKJUS_GBRV'
outdir = './data'
tprnfor = .true.
nstep = 50
disk_io = 'non'
/
&SYSTEM
ibrav = 0
ecutwfc = 50.0
ecutrho = 400
occupations = 'smearing'
smearing = 'mp'
degauss = 0.01
assume_isolated = 'esm'
esm_bc = 'bc1'
input_dft = 'BEEF-VDW'
nosym = .true.
nspin = 2
ntyp = 6
nat = 34
starting_magnetization(1) = 0.0
starting_magnetization(2) = 0.0
starting_magnetization(3) = 0.1
starting_magnetization(4) = 0.0
starting_magnetization(5) = 0.0
starting_magnetization(6) = 0.0
/
&ELECTRONS
electron_maxstep = 400
mixing_beta = 0.05
conv_thr = 1e-06
/
&IONS
ion_dynamics = 'bfgs'
upscale = 1.0
/
&CELL
/

K_POINTS {automatic}
9 6 2 0  0  0

ATOMIC_SPECIES
Al 26.98 Al.pbe-nl-rrkjus_psl.1.0.0.UPF
C 12.01 C.pbe-n-rrkjus_psl.1.0.0.UPF
Fe 55.84 fe_pbe_v1.5.uspp.F.UPF
Li 6.941 Li.pbe-sl-rrkjus_psl.1.0.0.UPF
O 15.99 O.pbe-n-rrkjus_psl.1.0.0.UPF
Pd 106.4 Pd.pbe-n-rrkjus_psl.1.0.0.UPF


CELL_PARAMETERS {angstrom}
5.67696000 0.00000000 0.00000000
0.00000000 8.60712000 0.00000000
0.00000000 0.00000000 26.63180000

ATOMIC_POSITIONS {angstrom}
Li 5.67559753 2.15178000 1.03091698
Li 0.00000000 2.15178000 -3.3159254199999992 0 0 0
Li 5.67077211 6.45534000 1.02186217
Li 0.00000000 6.45534000 -3.3159254199999992 0 0 0
Li 2.83984247 2.15178000 1.03091698
Li 2.83848000 2.15178000 -3.3159254199999992 0 0 0
Li 2.84466789 6.45534000 1.02186217
Li 2.83848000 6.45534000 -3.3159254199999992 0 0 0
Al 0.00278171 8.60178359 3.29941370
Al 0.00000000 0.00000000 -1.1052196999999992 0 0 0
Al 0.00272494 4.30889641 3.29941370
Al 0.00000000 4.30356000 -1.1052196999999992 0 0 0
Al 2.83575506 8.60161144 3.29941370
Al 2.83848000 0.00000000 -1.1052196999999992 0 0 0
Al 2.83569829 4.30906856 3.29941370
Al 2.83848000 4.30356000 -1.1052196999999992 0 0 0
Fe 1.41935354 2.15178000 3.29914738
Fe 1.41924000 2.15178000 -1.1052196999999992 0 0 0
Fe 1.41906969 6.45534000 3.13349759
Fe 1.41924000 6.45534000 -1.1052196999999992 0 0 0
Fe 4.25760646 2.15178000 3.14122081
Fe 4.25772000 2.15178000 -1.1052196999999992 0 0 0
Fe 4.25789031 6.45534000 3.14122081
Fe 4.25772000 6.45534000 -1.1052196999999992 0 0 0
Pd 1.41924000 8.60479608 1.07299522
Pd 1.41924000 0.00000000 -3.3159254199999992 0 0 0
Pd 1.41924000 4.30588392 1.07299522
Pd 1.41924000 4.30356000 -3.3159254199999992 0 0 0
Pd 4.25772000 0.00499213 1.06394041
Pd 4.25772000 0.00000000 -3.3159254199999992 0 0 0
Pd 4.25772000 4.29856787 1.06394041
Pd 4.25772000 4.30356000 -3.3159254199999992 0 0 0
C 1.41924000 2.15178000 5.03900288
O 1.41918323 2.15178000 6.20600835
