&CONTROL
calculation = 'relax'
prefix = 'scf'
pseudo_dir = '/vol0403/data/hp230205/u10028/POT_HYBRID_KKJUS_GBRV'
outdir = './data'
tprnfor = .true.
nstep = 70
disk_io = 'non'
/
&SYSTEM
ibrav = 0
ecutwfc = 50.0
ecutrho = 400
occupations = 'smearing'
smearing = 'mp'
degauss = 0.01
assume_isolated = 'esm'
esm_bc = 'bc1'
input_dft = 'BEEF-VDW'
nosym = .true.
nspin = 1
ntyp = 6
nat = 34
/
&ELECTRONS
electron_maxstep = 200
mixing_beta = 0.1
conv_thr = 1e-06
/
&IONS
ion_dynamics = 'bfgs'
upscale = 1.0
/
&CELL
/

K_POINTS {automatic}
6 6 1 0 0 0

ATOMIC_SPECIES
C 12.01 C.pbe-n-rrkjus_psl.1.0.0.UPF
Cu 63.54 Cu.pbe-dn-rrkjus_psl.1.0.0.UPF
Ga 69.72 Ga.pbe-dnl-rrkjus_psl.1.0.0.UPF
O 15.99 O.pbe-n-rrkjus_psl.1.0.0.UPF
Pd 106.4 Pd.pbe-n-rrkjus_psl.1.0.0.UPF
Sc 44.95 Sc.pbe-spn-rrkjus_psl.1.0.0.UPF


CELL_PARAMETERS {angstrom}
6.33027000 0.00000000 0.00000000
-0.00000000 8.95236000 0.00000000
0.00000000 0.00000000 26.71430000

ATOMIC_POSITIONS {angstrom}
Sc 4.74770250 0.00000000 -1.119062030000002 0 0 0
Sc 4.74770250 4.47618000 -1.119062030000002 0 0 0
Sc 1.58256750 2.23809000 -3.3571860800000017 0 0 0
Sc 1.58256750 6.71427000 -3.3571860800000017 0 0 0
Sc 4.73890342 4.46731716 3.45629613
Sc 4.73890342 0.00877331 3.45629613
Sc 1.57813631 6.71435952 1.09688916
Sc 1.52407581 2.23809000 1.14150204
Ga 1.58256750 0.00000000 -1.119062030000002 0 0 0
Ga 1.58256750 4.47618000 -1.119062030000002 0 0 0
Ga 4.74770250 2.23809000 -3.3571860800000017 0 0 0
Ga 4.74770250 6.71427000 -3.3571860800000017 0 0 0
Ga 1.58807483 4.49981423 3.28345461
Ga 1.58813814 8.92872577 3.28345461
Ga 4.73776398 6.71427000 1.18451206
Ga 4.80492814 2.23809000 1.27534068
Cu 0.00000000 0.00000000 -3.3571860800000017 0 0 0
Cu 0.00000000 4.47618000 -3.3571860800000017 0 0 0
Cu 3.16513500 6.71427000 -1.119062030000002 0 0 0
Cu 3.16513500 2.23809000 -1.119062030000002 0 0 0
Cu 6.23018843 4.48522188 1.18905349
Cu 6.23018843 8.94340764 1.18905349
Cu 2.98852047 2.23800048 3.30482605
Cu 3.04378372 6.71427000 3.34863750
Pd 0.00000000 2.23809000 -1.119062030000002 0 0 0
Pd 0.00000000 6.71427000 -1.119062030000002 0 0 0
Pd 3.16513500 4.47618000 -3.3571860800000017 0 0 0
Pd 3.16513500 0.00000000 -3.3571860800000017 0 0 0
Pd 0.05317427 6.71427000 3.28826319
Pd 0.10248707 2.23809000 3.69725912
Pd 3.25002392 0.01486092 1.14096775
Pd 3.24996062 4.46140861 1.14096775
C 6.01698494 2.23800048 5.60866729
O 5.98159873 2.23800048 6.76459505
