&CONTROL
calculation = 'relax'
prefix = 'scf'
pseudo_dir = '/vol0004/mdt0/data/hp150275/u10028/POT_HYBRID_KKJUS_GBRV'
outdir = './data'
tprnfor = .true.
nstep = 50
disk_io = 'non'
/
&SYSTEM
ibrav = 0
ecutwfc = 50.0
ecutrho = 400
occupations = 'smearing'
smearing = 'mp'
degauss = 0.01
assume_isolated = 'esm'
esm_bc = 'bc1'
input_dft = 'BEEF-VDW'
nosym = .true.
nspin = 2
ntyp = 4
nat = 33
starting_magnetization(1) = 0.0
starting_magnetization(2) = 0.0
starting_magnetization(3) = 0.1
starting_magnetization(4) = 0.0
/
&ELECTRONS
electron_maxstep = 300
mixing_beta = 0.1
conv_thr = 1e-06
/
&IONS
ion_dynamics = 'bfgs'
upscale = 1.0
/
&CELL
/

K_POINTS {automatic}
8 6 1 0 0 0

ATOMIC_SPECIES
Al 26.98 Al.pbe-nl-rrkjus_psl.1.0.0.UPF
C 12.01 C.pbe-n-rrkjus_psl.1.0.0.UPF
Fe 55.84 fe_pbe_v1.5.uspp.F.UPF
V 50.94 V.pbe-spnl-rrkjus_psl.1.0.0.UPF

CELL_PARAMETERS {angstrom}
5.71239000 0.00000000 0.00000000
0.00000000 8.07854000 0.00000000
0.00000000 0.00000000 26.05890000

ATOMIC_POSITIONS {angstrom}
Al 0.00000000 0.00000000 -3.0293471200000006 0 0 0
Al 2.85619500 2.01963500 -1.00978237 0 0 0
Al 2.85619500 6.05890500 -1.00978237 0 0 0
Al 0.00000000 4.03927000 -3.0293471200000006 0 0 0
Al 0.02810496 4.04476341 1.02255124
Al 2.79672902 6.05890500 3.24276952
Al 3.09011737 2.01963500 3.24876306
Al 0.02810496 8.07304659 1.02255124
V 0.00000000 6.05890500 -1.00978237 0 0 0
V 2.85619500 0.00000000 -3.0293471200000006 0 0 0
V 0.00000000 2.01963500 -1.00978237 0 0 0
V 2.85619500 4.03927000 -3.0293471200000006 0 0 0
V 5.51508405 2.01963500 2.85501308
V 2.86407810 4.04629833 1.06633019
V 5.70742022 6.05890500 3.02179004
V 2.86407810 8.07151167 1.06633019
Fe 1.42809750 0.00000000 -1.00978237 0 0 0
Fe 4.28429250 4.03927000 -1.00978237 0 0 0
Fe 4.28429250 0.00000000 -1.00978237 0 0 0
Fe 1.42809750 4.03927000 -1.00978237 0 0 0
Fe 4.28429250 6.05890500 -3.0293471200000006 0 0 0
Fe 1.42809750 2.01963500 -3.0293471200000006 0 0 0
Fe 1.42809750 6.05890500 -3.0293471200000006 0 0 0
Fe 4.28429250 2.01963500 -3.0293471200000006 0 0 0
Fe 1.46225759 3.87584114 3.18570053
Fe 4.29783086 7.99605811 3.02700182
Fe 4.29783086 4.12175189 3.02700182
Fe 1.46225759 0.16342886 3.18570053
Fe 4.23825064 2.01963500 0.93916276
Fe 1.45123268 6.05890500 1.08431083
Fe 1.46151498 2.01963500 1.03141126
Fe 4.27966546 6.05890500 1.06424548
C 1.31579191 2.01963500 3.93880274
