&CONTROL
calculation = 'relax'
prefix = 'scf'
pseudo_dir = '/vol0004/mdt0/data/hp150275/u10028/POT_KKJUS'
outdir = './data'
tprnfor = .true.
nstep = 50
disk_io = 'non'
/
&SYSTEM
ibrav = 0
ecutwfc = 50.0
ecutrho = 400
occupations = 'smearing'
smearing = 'mp'
degauss = 0.01
assume_isolated = 'esm'
esm_bc = 'bc1'
input_dft = 'BEEF-VDW'
nosym = .true.
nspin = 1
ntyp = 4
nat = 33
/
&ELECTRONS
electron_maxstep = 200
mixing_beta = 0.1
conv_thr = 1e-06
/
&IONS
ion_dynamics = 'bfgs'
upscale = 1.0
/
&CELL
/

K_POINTS {automatic}
8 6 1 0 0 0

ATOMIC_SPECIES
C 12.01 C.pbe-n-rrkjus_psl.1.0.0.UPF
Ga 69.72 Ga.pbe-dnl-rrkjus_psl.1.0.0.UPF
Ir 192.2 Ir.pbe-n-rrkjus_psl.0.2.3.UPF
Li 6.941 Li.pbe-sl-rrkjus_psl.1.0.0.UPF

CELL_PARAMETERS {angstrom}
6.01864000 0.00000000 0.00000000
0.00000000 8.51164000 0.00000000
0.00000000 0.00000000 26.38370000

ATOMIC_POSITIONS {angstrom}
Li 0.00000000 6.38373000 -1.0640546200000003 0 0 0
Li 3.00932000 0.00000000 -3.1919000299999993 0 0 0
Li 0.00000000 2.12791000 -1.0640546200000003 0 0 0
Li 3.00932000 4.25582000 -3.1919000299999993 0 0 0
Li 1.50466000 0.00000000 -1.0640546200000003 0 0 0
Li 1.50466000 4.25582000 -1.0640546200000003 0 0 0
Li 4.51398000 6.38373000 -3.1919000299999993 0 0 0
Li 4.51398000 2.12791000 -3.1919000299999993 0 0 0
Li 0.20162444 2.12791000 3.44017064
Li 2.94895304 4.22398647 1.10178331
Li 0.03857948 6.38373000 3.15469901
Li 2.94895304 0.03183353 1.10178331
Li 1.70965488 4.35378898 3.83750917
Li 1.70965488 8.41367102 3.83724533
Li 4.52679970 2.12791000 1.09756192
Li 4.56068465 6.38373000 0.97804376
Ga 1.50466000 2.12791000 -3.1919000299999993 0 0 0
Ga 1.50466000 6.38373000 -3.1919000299999993 0 0 0
Ga 4.51398000 4.25582000 -1.0640546200000003 0 0 0
Ga 4.51398000 0.00000000 -1.0640546200000003 0 0 0
Ga 1.50640541 6.38373000 1.02658977
Ga 1.42057960 2.12791000 0.89704580
Ga 4.47564126 8.50202185 3.20166200
Ga 4.47564126 4.26543815 3.20166200
Ir 0.00000000 0.00000000 -3.1919000299999993 0 0 0
Ir 3.00932000 2.12791000 -1.0640546200000003 0 0 0
Ir 3.00932000 6.38373000 -1.0640546200000003 0 0 0
Ir 0.00000000 4.25582000 -3.1919000299999993 0 0 0
Ir 0.05723727 4.23956277 1.21338636
Ir 3.09671065 6.38373000 2.99666065
Ir 2.81997359 2.12791000 3.07053501
Ir 0.05723727 0.01625723 1.21338636
C 4.30013772 2.12791000 4.13327044
