&CONTROL
calculation = 'relax'
prefix = 'scf'
pseudo_dir = '/vol0403/data/hp230205/u10028/POT_HYBRID_KKJUS_GBRV'
outdir = './data'
tprnfor = .true.
nstep = 50
disk_io = 'non'
/
&SYSTEM
ibrav = 0
ecutwfc = 50.0
ecutrho = 400
occupations = 'smearing'
smearing = 'mp'
degauss = 0.01
assume_isolated = 'esm'
esm_bc = 'bc1'
input_dft = 'BEEF-VDW'
nosym = .true.
nspin = 1
ntyp = 5
nat = 17
/
&ELECTRONS
electron_maxstep = 200
mixing_beta = 0.1
conv_thr = 1e-06
/
&IONS
ion_dynamics = 'bfgs'
upscale = 1.0
/
&CELL
/

K_POINTS {automatic}
6 6 1 0 0 0

ATOMIC_SPECIES
C 12.01 C.pbe-n-rrkjus_psl.1.0.0.UPF
Ge 72.64 Ge.pbe-dn-rrkjus_psl.1.0.0.UPF
In 114.8 In.pbe-dn-rrkjus_psl.1.0.0.UPF
Li 6.941 Li.pbe-sl-rrkjus_psl.1.0.0.UPF
Y 88.90 Y.pbe-spn-rrkjus_psl.1.0.0.UPF


CELL_PARAMETERS {angstrom}
6.03525000 0.00000000 0.00000000
0.00000000 9.31878000 0.00000000
0.00000000 0.00000000 24.52620000

ATOMIC_POSITIONS {angstrom}
Li 4.51183220 2.32969500 -0.7544259099999984 0 0 0
Li 1.74714452 1.39045516 2.93603140
Li 4.51183220 6.98908500 -0.7544259099999984 0 0 0
Li 1.74720487 7.92832484 2.93603140
Y 3.01762500 0.00000000 -2.263032469999999 0 0 0
Y 0.09354638 0.00000000 0.70071353
Y 3.01762500 4.65939000 -2.263032469999999 0 0 0
Y 5.89873264 4.65939000 0.85890752
In 1.49420720 2.32969500 -0.7544259099999984 0 0 0
In 4.67218879 1.69443377 3.00274267
In 1.49420720 6.98908500 -0.7544259099999984 0 0 0
In 4.67236984 7.62406667 3.00249740
Ge 0.00000000 0.00000000 -2.263032469999999 0 0 0
Ge 3.12807007 9.31868681 0.69556303
Ge 0.00000000 4.65939000 -2.263032469999999 0 0 0
Ge 2.84043006 4.65939000 0.73505021
C 0.16705572 0.00000000 2.97600911
