&CONTROL
calculation = 'relax'
prefix = 'scf'
pseudo_dir = '/vol0403/data/hp230205/u10028/POT_HYBRID_KKJUS_GBRV'
outdir = './data'
tprnfor = .true.
nstep = 50
disk_io = 'non'
/
&SYSTEM
ibrav = 0
ecutwfc = 50.0
ecutrho = 400
occupations = 'smearing'
smearing = 'mp'
degauss = 0.01
assume_isolated = 'esm'
esm_bc = 'bc1'
input_dft = 'BEEF-VDW'
nosym = .true.
nspin = 1
ntyp = 6
nat = 18
/
&ELECTRONS
electron_maxstep = 200
mixing_beta = 0.1
conv_thr = 1e-06
/
&IONS
ion_dynamics = 'bfgs'
upscale = 1.0
/
&CELL
/

K_POINTS {automatic}
9 9 2 0  0  0

ATOMIC_SPECIES
Ag 107.8 Ag.pbe-n-rrkjus_psl.1.0.0.UPF
C 12.01 C.pbe-n-rrkjus_psl.1.0.0.UPF
Ge 72.64 Ge.pbe-dn-rrkjus_psl.1.0.0.UPF
Li 6.941 Li.pbe-sl-rrkjus_psl.1.0.0.UPF
O 15.99 O.pbe-n-rrkjus_psl.1.0.0.UPF
Zn 65.40 Zn.pbe-dnl-rrkjus_psl.1.0.0.UPF


CELL_PARAMETERS {angstrom}
6.35563000 0.00000000 0.00000000
0.00000000 6.35563000 0.00000000
0.00000000 0.00000000 24.76670000

ATOMIC_POSITIONS {angstrom}
Li 4.75954064 1.58147141 0.98001832
Li 4.76672250 4.76672250 -2.3832995399999994 0 0 0
Li 1.58890750 1.58890750 -2.3832995399999994 0 0 0
Li 1.59621647 4.77415859 0.98026599
Zn 1.70457997 1.47361637 0.96218630
Zn 1.58890750 4.76672250 -2.3832995399999994 0 0 0
Zn 4.76672250 1.58890750 -2.3832995399999994 0 0 0
Zn 4.65085937 4.88214074 0.96268163
Ag 0.00000000 0.00000000 2.62898520
Ag 0.00000000 3.17781500 -0.7945157400000014 0 0 0
Ag 3.17781500 0.00000000 -0.7945157400000014 0 0 0
Ag 3.17787856 3.17775144 2.62848987
Ge 0.00006356 3.17781500 2.57004046
Ge 0.00000000 0.00000000 -0.7945157400000014 0 0 0
Ge 3.17781500 3.17781500 -0.7945157400000014 0 0 0
Ge 3.17756077 0.00025423 2.64780790
C 0.00012711 3.17768789 4.54840446
O 0.00006356 3.17775144 5.70674301
