&CONTROL
calculation = 'relax'
prefix = 'scf'
pseudo_dir = '/vol0004/mdt0/data/hp150275/u10028/POT_KKJUS'
outdir = './data'
tprnfor = .true.
nstep = 50
disk_io = 'non'
/
&SYSTEM
ibrav = 0
ecutwfc = 50.0
ecutrho = 400
occupations = 'smearing'
smearing = 'mp'
degauss = 0.01
assume_isolated = 'esm'
esm_bc = 'bc1'
input_dft = 'BEEF-VDW'
nosym = .true.
nspin = 1
ntyp = 2
nat = 16
/
&ELECTRONS
electron_maxstep = 200
mixing_beta = 0.1
conv_thr = 1e-06
/
&IONS
ion_dynamics = 'bfgs'
upscale = 1.0
/
&CELL
/

K_POINTS {automatic}
6 8 1 0 0 0

ATOMIC_SPECIES
In 114.8 In.pbe-dn-rrkjus_psl.1.0.0.UPF
Sc 44.95 Sc.pbe-spn-rrkjus_psl.1.0.0.UPF

CELL_PARAMETERS {angstrom}
9.05810000 0.00000000 0.00000000
0.00000000 6.40504000 0.00000000
0.00000000 0.00000000 24.80380000

ATOMIC_POSITIONS {angstrom}
Sc 0.00000000 3.20252000 2.44094196
Sc 2.26452500 4.77944085 0.81604502
Sc 2.26452500 1.62559915 0.81604502
Sc 0.00000000 0.00000000 -0.8006666599999974 0 0 0
Sc 2.26452500 1.60126000 -2.40199999 0 0 0
Sc 2.26452500 4.80378000 -2.40199999 0 0 0
Sc 4.52914058 3.20252000 2.44119000
Sc 6.79357500 4.77950490 0.81604502
Sc 6.79357500 1.62559915 0.81604502
Sc 4.52905000 0.00000000 -0.8006666599999974 0 0 0
Sc 6.79357500 1.60126000 -2.40199999 0 0 0
Sc 6.79357500 4.80378000 -2.40199999 0 0 0
In 0.00000000 0.00000000 2.22440478
In 0.00000000 3.20252000 -0.8006666599999974 0 0 0
In 4.52905000 0.00006405 2.22440478
In 4.52905000 3.20252000 -0.8006666599999974 0 0 0
