&CONTROL
calculation = 'relax'
prefix = 'scf'
pseudo_dir = '/vol0403/data/hp230205/u10028/POT_HYBRID_KKJUS_GBRV'
outdir = './data'
tprnfor = .true.
nstep = 50
disk_io = 'non'
/
&SYSTEM
ibrav = 0
ecutwfc = 50.0
ecutrho = 400
occupations = 'smearing'
smearing = 'mp'
degauss = 0.01
assume_isolated = 'esm'
esm_bc = 'bc1'
input_dft = 'BEEF-VDW'
nosym = .true.
nspin = 1
ntyp = 5
nat = 33
/
&ELECTRONS
electron_maxstep = 200
mixing_beta = 0.1
conv_thr = 1e-06
/
&IONS
ion_dynamics = 'bfgs'
upscale = 1.0
/
&CELL
/

K_POINTS {automatic}
6 6 1 0 0 0

ATOMIC_SPECIES
Ag 107.8 Ag.pbe-n-rrkjus_psl.1.0.0.UPF
C 12.01 C.pbe-n-rrkjus_psl.1.0.0.UPF
Li 6.941 Li.pbe-sl-rrkjus_psl.1.0.0.UPF
Mg 24.30 Mg.pbe-spnl-rrkjus_psl.1.0.0.UPF
Sn 118.7 Sn.pbe-dn-rrkjus_psl.1.0.0.UPF


CELL_PARAMETERS {angstrom}
6.75899000 0.00000000 0.00000000
0.00000000 9.55866000 0.00000000
0.00000000 0.00000000 27.16900000

ATOMIC_POSITIONS {angstrom}
Li 5.06924250 0.00000000 -1.194892620000001 0 0 0
Li 5.06924250 4.77933000 -1.194892620000001 0 0 0
Li 1.68974750 2.38966500 -3.584406170000001 0 0 0
Li 1.68974750 7.16899500 -3.584406170000001 0 0 0
Li 5.10222637 4.77933000 3.63521220
Li 4.80050506 0.00000000 3.70123287
Li 1.65899410 7.13372354 1.27286765
Li 1.65906169 2.42493646 1.27286765
Mg 1.68974750 0.00000000 -1.194892620000001 0 0 0
Mg 1.68974750 4.77933000 -1.194892620000001 0 0 0
Mg 5.06924250 2.38966500 -3.584406170000001 0 0 0
Mg 5.06924250 7.16899500 -3.584406170000001 0 0 0
Mg 1.67291761 4.77933000 3.73954116
Mg 2.11029186 0.00000000 4.06801437
Mg 5.10824187 7.20942813 1.23836302
Mg 5.10824187 2.34932745 1.23836302
Ag 0.00000000 0.00000000 -3.584406170000001 0 0 0
Ag 0.00000000 4.77933000 -3.584406170000001 0 0 0
Ag 3.37949500 7.16899500 -1.194892620000001 0 0 0
Ag 3.37949500 2.38966500 -1.194892620000001 0 0 0
Ag 0.00655622 4.77933000 1.19842459
Ag 0.12443301 0.00000000 1.59645044
Ag 3.41072153 2.47789143 3.55533534
Ag 3.41078912 7.08076857 3.55533534
Sn 0.00000000 2.38966500 -1.194892620000001 0 0 0
Sn 0.00000000 7.16899500 -1.194892620000001 0 0 0
Sn 3.37949500 4.77933000 -3.584406170000001 0 0 0
Sn 3.37949500 0.00000000 -3.584406170000001 0 0 0
Sn 6.52945470 7.38473396 4.06203719
Sn 6.52945470 2.17392604 4.06203719
Sn 3.28466637 0.00000000 1.29351609
Sn 3.39226949 4.77933000 1.31987002
C 0.01865481 0.00000000 4.05959198
