&CONTROL
calculation = 'relax'
prefix = 'scf'
pseudo_dir = '/vol0403/data/hp230205/u10028/POT_HYBRID_KKJUS_GBRV'
outdir = './data'
tprnfor = .true.
nstep = 70
disk_io = 'non'
/
&SYSTEM
ibrav = 0
ecutwfc = 50.0
ecutrho = 400
occupations = 'smearing'
smearing = 'mp'
degauss = 0.01
assume_isolated = 'esm'
esm_bc = 'bc1'
input_dft = 'BEEF-VDW'
nosym = .true.
nspin = 1
ntyp = 6
nat = 34
/
&ELECTRONS
electron_maxstep = 200
mixing_beta = 0.1
conv_thr = 1e-06
/
&IONS
ion_dynamics = 'bfgs'
upscale = 1.0
/
&CELL
/

K_POINTS {automatic}
9 6 2 0  0  0

ATOMIC_SPECIES
Al 26.98 Al.pbe-nl-rrkjus_psl.1.0.0.UPF
C 12.01 C.pbe-n-rrkjus_psl.1.0.0.UPF
Cu 63.54 Cu.pbe-dn-rrkjus_psl.1.0.0.UPF
O 15.99 O.pbe-n-rrkjus_psl.1.0.0.UPF
Pd 106.4 Pd.pbe-n-rrkjus_psl.1.0.0.UPF
Sc 44.95 Sc.pbe-spn-rrkjus_psl.1.0.0.UPF


CELL_PARAMETERS {angstrom}
6.32596000 0.00000000 0.00000000
-0.00000000 8.94626000 0.00000000
0.00000000 0.00000000 26.70970000

ATOMIC_POSITIONS {angstrom}
Sc 0.00000000 2.23656500 -1.1183351400000028 0 0 0
Sc 0.00000000 6.70969500 -1.1183351400000028 0 0 0
Sc 3.16298000 4.47313000 -3.3547383200000027 0 0 0
Sc 3.16298000 0.00000000 -3.3547383200000027 0 0 0
Sc 0.00581988 6.70880037 3.50885329
Sc 6.29401390 2.23701231 3.55906753
Sc 3.16291674 8.93445094 1.08040737
Sc 3.16114547 4.48422336 1.07853769
Al 0.00000000 0.00000000 -3.3547383200000027 0 0 0
Al 0.00000000 4.47313000 -3.3547383200000027 0 0 0
Al 3.16298000 6.70969500 -1.1183351400000028 0 0 0
Al 3.16298000 2.23656500 -1.1183351400000028 0 0 0
Al 0.00803397 4.44154970 1.18751326
Al 0.00746463 0.03077513 1.18831455
Al 3.12736485 2.23593876 3.30959893
Al 3.16367586 6.70960554 3.25190598
Cu 4.74447000 0.00000000 -1.1183351400000028 0 0 0
Cu 4.74447000 4.47313000 -1.1183351400000028 0 0 0
Cu 1.58149000 2.23656500 -3.3547383200000027 0 0 0
Cu 1.58149000 6.70969500 -3.3547383200000027 0 0 0
Cu 4.65653916 4.53691683 3.23588015
Cu 4.65881650 8.88211532 3.23801693
Cu 1.45073241 6.71094748 1.18323971
Cu 1.48615778 2.23486521 1.21315457
Pd 1.58149000 0.00000000 -1.1183351400000028 0 0 0
Pd 1.58149000 4.47313000 -1.1183351400000028 0 0 0
Pd 4.74447000 2.23656500 -3.3547383200000027 0 0 0
Pd 4.74447000 6.70969500 -3.3547383200000027 0 0 0
Pd 1.66492941 4.47769259 3.26900018
Pd 1.66379074 8.94142902 3.27006857
Pd 4.86377761 6.70924769 1.16374163
Pd 4.80671745 2.23567037 1.23318685
C 3.94328717 2.23933834 5.09380689
O 4.30797876 2.24148544 6.21374461
