&CONTROL
calculation = 'relax'
prefix = 'scf'
pseudo_dir = '/vol0403/data/hp230205/u10028/POT_HYBRID_KKJUS_GBRV'
outdir = './data'
tprnfor = .true.
nstep = 70
disk_io = 'non'
/
&SYSTEM
ibrav = 0
ecutwfc = 50.0
ecutrho = 400
occupations = 'smearing'
smearing = 'mp'
degauss = 0.01
assume_isolated = 'esm'
esm_bc = 'bc1'
input_dft = 'BEEF-VDW'
nosym = .true.
nspin = 1
ntyp = 5
nat = 33
/
&ELECTRONS
electron_maxstep = 200
mixing_beta = 0.1
conv_thr = 1e-06
/
&IONS
ion_dynamics = 'bfgs'
upscale = 1.0
/
&CELL
/

K_POINTS {automatic}
6 6 1 0 0 0

ATOMIC_SPECIES
C 12.01 C.pbe-n-rrkjus_psl.1.0.0.UPF
Ga 69.72 Ga.pbe-dnl-rrkjus_psl.1.0.0.UPF
Pd 106.4 Pd.pbe-n-rrkjus_psl.1.0.0.UPF
Sn 118.7 Sn.pbe-dn-rrkjus_psl.1.0.0.UPF
Y 88.90 Y.pbe-spn-rrkjus_psl.1.0.0.UPF


CELL_PARAMETERS {angstrom}
8.54550000 0.00000000 0.00000000
-0.00000000 8.82498000 0.00000000
0.00000000 0.00000000 26.66250000

ATOMIC_POSITIONS {angstrom}
Y 2.13637500 0.00000000 -1.110493120000001 0 0 0
Y 2.13637500 -0.00000000 3.33121275
Y 2.13637500 4.41249000 -1.110493120000001 0 0 0
Y 2.13637500 4.41249000 3.33121275
Y 6.40912500 0.00000000 -1.110493120000001 0 0 0
Y 6.40912500 -0.00000000 3.33121275
Y 6.40912500 4.41249000 -1.110493120000001 0 0 0
Y 6.40912500 4.41249000 3.33121275
Ga 0.00000000 0.00000000 -3.3312127500000024 0 0 0
Ga 0.00000000 0.00000000 1.11049313
Ga 0.00000000 4.41249000 -3.3312127500000024 0 0 0
Ga 0.00000000 4.41249000 1.11049313
Ga 4.27275000 0.00000000 -3.3312127500000024 0 0 0
Ga 4.27275000 -0.00000000 1.11049313
Ga 4.27275000 4.41249000 -3.3312127500000024 0 0 0
Ga 4.27275000 4.41249000 1.11049313
Sn 2.13637500 2.20624500 -3.3312127500000024 0 0 0
Sn 2.13637500 2.20624500 1.11049313
Sn 2.13637500 6.61873500 -3.3312127500000024 0 0 0
Sn 2.13637500 6.61873500 1.11049313
Sn 6.40912500 2.20624500 -3.3312127500000024 0 0 0
Sn 6.40912500 2.20624500 1.11049313
Sn 6.40912500 6.61873500 -3.3312127500000024 0 0 0
Sn 6.40912500 6.61873500 1.11049313
Pd 0.00000000 2.20624500 -1.110493120000001 0 0 0
Pd 0.00000000 2.20624500 3.33121275
Pd 0.00000000 6.61873500 -1.110493120000001 0 0 0
Pd 0.00000000 6.61873500 3.33121275
Pd 4.27275000 2.20624500 -1.110493120000001 0 0 0
Pd 4.27275000 2.20624500 3.33121275
Pd 4.27275000 6.61873500 -1.110493120000001 0 0 0
Pd 4.27275000 6.61873500 3.33121275
C 2.13637500 2.20624500 4.13135437
