&CONTROL
calculation = 'relax'
prefix = 'scf'
pseudo_dir = '/vol0004/mdt0/data/hp150275/u10028/POT_HYBRID_KKJUS_GBRV'
outdir = './data'
tprnfor = .true.
nstep = 50
disk_io = 'non'
/
&SYSTEM
ibrav = 0
ecutwfc = 50.0
ecutrho = 400
occupations = 'smearing'
smearing = 'mp'
degauss = 0.01
assume_isolated = 'esm'
esm_bc = 'bc1'
input_dft = 'BEEF-VDW'
nosym = .true.
nspin = 2
ntyp = 4
nat = 33
starting_magnetization(1) = 0.0
starting_magnetization(2) = 0.0
starting_magnetization(3) = 0.001
starting_magnetization(4) = 0.0
/
&ELECTRONS
electron_maxstep = 300
mixing_beta = 0.1
conv_thr = 1e-06
/
&IONS
ion_dynamics = 'bfgs'
upscale = 1.0
/
&CELL
/

K_POINTS {automatic}
8 6 1 0 0 0

ATOMIC_SPECIES
Al 26.98 Al.pbe-nl-rrkjus_psl.1.0.0.UPF
C 12.01 C.pbe-n-rrkjus_psl.1.0.0.UPF
Ni 58.69 ni_pbe_v1.4.uspp.F.UPF
Ti 47.86 Ti.pbe-spn-rrkjus_psl.1.0.0.UPF

CELL_PARAMETERS {angstrom}
5.91339000 0.00000000 0.00000000
0.00000000 8.36280000 0.00000000
0.00000000 0.00000000 26.27210000

ATOMIC_POSITIONS {angstrom}
Ti 0.00000000 0.00000000 -3.1361005799999973 0 0 0
Ti 2.95669500 2.09070000 -1.045366859999998 0 0 0
Ti 2.95669500 6.27210000 -1.045366859999998 0 0 0
Ti 0.00000000 4.18140000 -3.1361005799999973 0 0 0
Ti 0.01797671 4.21108794 1.06270644
Ti 2.90566244 6.27210000 3.17314424
Ti 3.15727719 2.09070000 3.13662602
Ti 0.01797671 8.33311206 1.06270644
Al 0.00000000 6.27210000 -1.045366859999998 0 0 0
Al 2.95669500 0.00000000 -3.1361005799999973 0 0 0
Al 0.00000000 2.09070000 -1.045366859999998 0 0 0
Al 2.95669500 4.18140000 -3.1361005799999973 0 0 0
Al 5.70245938 2.09070000 3.16499989
Al 2.93540680 4.16174742 1.07531705
Al 0.04174853 6.27210000 3.13504969
Al 2.93546593 0.01965258 1.07531705
Ni 1.47834750 0.00000000 -1.045366859999998 0 0 0
Ni 4.43504250 4.18140000 -1.045366859999998 0 0 0
Ni 4.43504250 0.00000000 -1.045366859999998 0 0 0
Ni 1.47834750 4.18140000 -1.045366859999998 0 0 0
Ni 4.43504250 6.27210000 -3.1361005799999973 0 0 0
Ni 1.47834750 2.09070000 -3.1361005799999973 0 0 0
Ni 1.47834750 6.27210000 -3.1361005799999973 0 0 0
Ni 4.43504250 2.09070000 -3.1361005799999973 0 0 0
Ni 1.39952201 4.04475185 3.17682233
Ni 4.45757252 8.27540874 2.98529872
Ni 4.45757252 4.26879126 2.98529872
Ni 1.39952201 0.13664815 3.17682233
Ni 4.45674464 2.09070000 0.95288907
Ni 1.57645064 6.27210000 1.03590890
Ni 1.47941191 2.09070000 1.02172197
Ni 4.36136166 6.27210000 1.10474180
C 1.48071286 2.09070000 3.97050247
