&CONTROL
calculation = 'relax'
prefix = 'scf'
pseudo_dir = '/vol0004/mdt0/data/hp150275/u10028/POT_HYBRID_KKJUS_GBRV'
outdir = './data'
tprnfor = .true.
nstep = 50
disk_io = 'non'
/
&SYSTEM
ibrav = 0
ecutwfc = 50.0
ecutrho = 400
occupations = 'smearing'
smearing = 'mp'
degauss = 0.01
assume_isolated = 'esm'
esm_bc = 'bc1'
input_dft = 'BEEF-VDW'
nosym = .true.
nspin = 2
ntyp = 3
nat = 32
starting_magnetization(1) = 0.1
starting_magnetization(2) = 0.001
starting_magnetization(3) = 0.0
/
&ELECTRONS
electron_maxstep = 300
mixing_beta = 0.1
conv_thr = 1e-06
/
&IONS
ion_dynamics = 'bfgs'
upscale = 1.0
/
&CELL
/

K_POINTS {automatic}
9 6 2 0  0  0

ATOMIC_SPECIES
Mn 54.93 mn_pbe_v1.5.uspp.F.UPF
Ni 58.69 ni_pbe_v1.4.uspp.F.UPF
Sn 118.7 Sn.pbe-dn-rrkjus_psl.1.0.0.UPF

CELL_PARAMETERS {angstrom}
6.10266000 0.00000000 0.00000000
0.00000000 8.63046000 0.00000000
0.00000000 0.00000000 26.47280000

ATOMIC_POSITIONS {angstrom}
Mn 0.00000000 0.00000000 -3.236299800000001 0 0 0
Mn 3.05133000 2.15761500 -1.078766599999998 0 0 0
Mn 3.05133000 6.47284500 -1.078766599999998 0 0 0
Mn 0.00000000 4.31523000 -3.236299800000001 0 0 0
Mn 0.00000000 4.31523000 1.05070543
Mn 3.05133000 6.47284500 3.23285834
Mn 3.05133000 2.15761500 3.23285834
Mn 0.00000000 0.00000000 1.05070543
Ni 1.52566500 0.00000000 -1.078766599999998 0 0 0
Ni 4.57699500 4.31523000 -1.078766599999998 0 0 0
Ni 4.57699500 0.00000000 -1.078766599999998 0 0 0
Ni 1.52566500 4.31523000 -1.078766599999998 0 0 0
Ni 4.57699500 6.47284500 -3.236299800000001 0 0 0
Ni 1.52566500 2.15761500 -3.236299800000001 0 0 0
Ni 1.52566500 6.47284500 -3.236299800000001 0 0 0
Ni 4.57699500 2.15761500 -3.236299800000001 0 0 0
Ni 1.46189220 4.31548891 3.08408120
Ni 4.64027958 8.63020109 3.08408120
Ni 4.64076780 4.31548891 3.08408120
Ni 1.46238042 8.63020109 3.08408120
Ni 4.63161381 2.15770130 1.14044822
Ni 1.47122927 6.47275870 1.14044822
Ni 1.47104619 2.15770130 1.14044822
Ni 4.63143073 6.47275870 1.14044822
Sn 0.00000000 6.47284500 -1.078766599999998 0 0 0
Sn 3.05133000 0.00000000 -3.236299800000001 0 0 0
Sn 0.00000000 2.15761500 -1.078766599999998 0 0 0
Sn 3.05133000 4.31523000 -3.236299800000001 0 0 0
Sn 0.00000000 2.15752870 3.48302630
Sn 3.05133000 4.31523000 1.05388217
Sn 0.00000000 6.47293130 3.48302630
Sn 3.05133000 0.00000000 1.05388217
