&CONTROL
calculation = 'relax'
prefix = 'scf'
pseudo_dir = '/vol0403/data/hp230205/u10028/POT_HYBRID_KKJUS_GBRV'
outdir = './data'
tprnfor = .true.
nstep = 100
disk_io = 'non'
/
&SYSTEM
ibrav = 0
ecutwfc = 50.0
ecutrho = 400
occupations = 'smearing'
smearing = 'mp'
degauss = 0.01
assume_isolated = 'esm'
esm_bc = 'bc1'
input_dft = 'BEEF-VDW'
nosym = .true.
nspin = 1
ntyp = 5
nat = 17
/
&ELECTRONS
electron_maxstep = 200
mixing_beta = 0.1
conv_thr = 1e-06
/
&IONS
ion_dynamics = 'bfgs'
upscale = 1.0
/
&CELL
/

K_POINTS {automatic}
8 8 1 0 0 0

ATOMIC_SPECIES
Ag 107.8 Ag.pbe-n-rrkjus_psl.1.0.0.UPF
Al 26.98 Al.pbe-nl-rrkjus_psl.1.0.0.UPF
C 12.01 C.pbe-n-rrkjus_psl.1.0.0.UPF
Cu 63.54 Cu.pbe-dn-rrkjus_psl.1.0.0.UPF
Li 6.941 Li.pbe-sl-rrkjus_psl.1.0.0.UPF


CELL_PARAMETERS {angstrom}
6.15237000 0.00000000 0.00000000
-0.00000000 6.15237000 0.00000000
0.00000000 0.00000000 24.61430000

ATOMIC_POSITIONS {angstrom}
Li 4.61427750 1.53809250 0.76895073
Li 4.61427750 4.61427750 -2.3070983399999996 0 0 0
Li 1.53809250 1.53809250 -2.3070983399999996 0 0 0
Li 1.53809250 4.61427750 0.76895073
Al 1.53809250 1.53809250 0.76895073
Al 1.53809250 4.61427750 -2.3070983399999996 0 0 0
Al 4.61427750 1.53809250 -2.3070983399999996 0 0 0
Al 4.61427750 4.61427750 0.76895073
Cu 0.00000000 3.07618500 2.30709834
Cu 0.00000000 0.00000000 -0.7689507300000002 0 0 0
Cu 3.07618500 3.07618500 -0.7689507300000002 0 0 0
Cu 3.07618500 -0.00000000 2.30709834
Ag 0.00000000 0.00000000 2.30709834
Ag 0.00000000 3.07618500 -0.7689507300000002 0 0 0
Ag 3.07618500 0.00000000 -0.7689507300000002 0 0 0
Ag 3.07618500 3.07618500 2.30709834
C 1.53809250 1.53809250 3.10706309
