&CONTROL
calculation = 'relax'
prefix = 'scf'
pseudo_dir = '/vol0004/mdt0/data/hp150275/u10028/POT_HYBRID_KKJUS_GBRV'
outdir = './data'
tprnfor = .true.
nstep = 50
disk_io = 'non'
/
&SYSTEM
ibrav = 0
ecutwfc = 50.0
ecutrho = 400
occupations = 'smearing'
smearing = 'mp'
degauss = 0.01
assume_isolated = 'esm'
esm_bc = 'bc1'
input_dft = 'BEEF-VDW'
nosym = .true.
nspin = 2
ntyp = 5
nat = 34
starting_magnetization(1) = 0.0
starting_magnetization(2) = 0.0
starting_magnetization(3) = 0.001
starting_magnetization(4) = 0.0
starting_magnetization(5) = 0.0
/
&ELECTRONS
electron_maxstep = 300
mixing_beta = 0.1
conv_thr = 1e-06
/
&IONS
ion_dynamics = 'bfgs'
upscale = 1.0
/
&CELL
/

K_POINTS {automatic}
8 6 1 0 0 0

ATOMIC_SPECIES
C 12.01 C.pbe-n-rrkjus_psl.1.0.0.UPF
Li 6.941 Li.pbe-sl-rrkjus_psl.1.0.0.UPF
Ni 58.69 ni_pbe_v1.4.uspp.F.UPF
O 15.99 O.pbe-n-rrkjus_psl.1.0.0.UPF
Sn 118.7 Sn.pbe-dn-rrkjus_psl.1.0.0.UPF

CELL_PARAMETERS {angstrom}
6.04935000 0.00000000 0.00000000
0.00000000 8.55507000 0.00000000
0.00000000 0.00000000 26.41630000

ATOMIC_POSITIONS {angstrom}
Li 0.00000000 0.00000000 -3.2082596300000006 0 0 0
Li 3.02467500 2.13876750 -1.0693318199999986 0 0 0
Li 3.02467500 6.41630250 -1.0693318199999986 0 0 0
Li 0.00000000 4.27753500 -3.2082596300000006 0 0 0
Li 0.00000000 4.25777279 0.90713574
Li 3.02467500 6.41613140 3.37838061
Li 3.02467500 2.13876750 3.46027114
Li 0.00000000 0.01976221 0.90792823
Ni 1.51233750 0.00000000 -1.0693318199999986 0 0 0
Ni 4.53701250 4.27753500 -1.0693318199999986 0 0 0
Ni 4.53701250 0.00000000 -1.0693318199999986 0 0 0
Ni 1.51233750 4.27753500 -1.0693318199999986 0 0 0
Ni 4.53701250 6.41630250 -3.2082596300000006 0 0 0
Ni 1.51233750 2.13876750 -3.2082596300000006 0 0 0
Ni 1.51233750 6.41630250 -3.2082596300000006 0 0 0
Ni 4.53701250 2.13876750 -3.2082596300000006 0 0 0
Ni 1.29770656 4.29053871 2.93036016
Ni 4.75176442 8.54198074 2.93062432
Ni 4.75164344 4.29053871 2.93036016
Ni 1.29758557 8.54206629 2.93062432
Ni 4.57010244 2.13885305 1.14171249
Ni 1.43799099 6.41604585 1.15518480
Ni 1.47924756 2.13876750 1.14171249
Ni 4.61135901 6.41604585 1.15492064
Sn 0.00000000 6.41630250 -1.0693318199999986 0 0 0
Sn 3.02467500 0.00000000 -3.2082596300000006 0 0 0
Sn 0.00000000 2.13876750 -1.0693318199999986 0 0 0
Sn 3.02467500 4.27753500 -3.2082596300000006 0 0 0
Sn 6.04928951 2.13868195 3.39211708
Sn 3.02455401 4.28839994 1.06008612
Sn 0.00000000 6.41638805 3.48325332
Sn 3.02473549 8.54437616 1.06087861
C 3.02467500 2.13885305 5.61161461
O 3.02467500 2.13876750 6.75015714
