&CONTROL
calculation = 'relax'
prefix = 'scf'
pseudo_dir = '/vol0403/data/hp230205/u10028/POT_HYBRID_KKJUS_GBRV'
outdir = './data'
tprnfor = .true.
nstep = 50
disk_io = 'non'
/
&SYSTEM
ibrav = 0
ecutwfc = 50.0
ecutrho = 400
occupations = 'smearing'
smearing = 'mp'
degauss = 0.01
assume_isolated = 'esm'
esm_bc = 'bc1'
input_dft = 'BEEF-VDW'
nosym = .true.
nspin = 1
ntyp = 6
nat = 34
/
&ELECTRONS
electron_maxstep = 200
mixing_beta = 0.1
conv_thr = 1e-06
/
&IONS
ion_dynamics = 'bfgs'
upscale = 1.0
/
&CELL
/

K_POINTS {automatic}
6 6 1 0 0 0

ATOMIC_SPECIES
C 12.01 C.pbe-n-rrkjus_psl.1.0.0.UPF
Ga 69.72 Ga.pbe-dnl-rrkjus_psl.1.0.0.UPF
In 114.8 In.pbe-dn-rrkjus_psl.1.0.0.UPF
O 15.99 O.pbe-n-rrkjus_psl.1.0.0.UPF
Pd 106.4 Pd.pbe-n-rrkjus_psl.1.0.0.UPF
Sc 44.95 Sc.pbe-spn-rrkjus_psl.1.0.0.UPF


CELL_PARAMETERS {angstrom}
6.68246000 0.00000000 0.00000000
0.00000000 9.45042000 0.00000000
0.00000000 0.00000000 27.08780000

ATOMIC_POSITIONS {angstrom}
Sc 5.01184500 0.00000000 -1.181298960000003 0 0 0
Sc 5.01184500 4.72521000 -1.181298960000003 0 0 0
Sc 1.67061500 2.36260500 -3.543896870000001 0 0 0
Sc 1.67061500 7.08781500 -3.543896870000001 0 0 0
Sc 4.99654217 4.54621905 3.51057888
Sc 4.99654217 0.17899095 3.51057888
Sc 1.69534010 7.08781500 1.25470690
Sc 1.70670028 2.36260500 1.20242744
In 1.67061500 0.00000000 -1.181298960000003 0 0 0
In 1.67061500 4.72521000 -1.181298960000003 0 0 0
In 5.01184500 2.36260500 -3.543896870000001 0 0 0
In 5.01184500 7.08781500 -3.543896870000001 0 0 0
In 1.74499078 4.93803346 3.73269884
In 1.74499078 9.23759654 3.73242796
In 4.92189909 7.08781500 1.18617476
In 5.03423124 2.36260500 1.26933431
Ga 0.00000000 0.00000000 -3.543896870000001 0 0 0
Ga 0.00000000 4.72521000 -3.543896870000001 0 0 0
Ga 3.34123000 7.08781500 -1.181298960000003 0 0 0
Ga 3.34123000 2.36260500 -1.181298960000003 0 0 0
Ga 0.07029948 4.73711753 1.24603880
Ga 0.07023265 9.43851247 1.24603880
Ga 3.06651407 2.36260500 3.89441301
Ga 3.72373401 7.08781500 4.05233488
Pd 0.00000000 2.36260500 -1.181298960000003 0 0 0
Pd 0.00000000 7.08781500 -1.181298960000003 0 0 0
Pd 3.34123000 4.72521000 -3.543896870000001 0 0 0
Pd 3.34123000 0.00000000 -3.543896870000001 0 0 0
Pd 6.48151843 7.08781500 3.44583904
Pd 0.21611076 2.36260500 3.68773309
Pd 3.30768405 0.02476010 1.19159232
Pd 3.30761723 4.70035540 1.19159232
C 6.38689479 2.36260500 5.59444333
O 6.37773982 2.36260500 6.75055064
