&CONTROL
calculation = 'relax'
prefix = 'scf'
pseudo_dir = '/vol0004/mdt0/data/hp150275/u10028/POT_HYBRID_KKJUS_GBRV'
outdir = './data'
tprnfor = .true.
nstep = 50
disk_io = 'non'
/
&SYSTEM
ibrav = 0
ecutwfc = 50.0
ecutrho = 400
occupations = 'smearing'
smearing = 'mp'
degauss = 0.01
assume_isolated = 'esm'
esm_bc = 'bc1'
input_dft = 'BEEF-VDW'
nosym = .true.
nspin = 2
ntyp = 4
nat = 34
starting_magnetization(1) = 0.1
starting_magnetization(2) = 0.1
starting_magnetization(3) = 0.1
starting_magnetization(4) = 0.1
/
&ELECTRONS
electron_maxstep = 200
mixing_beta = 0.1
conv_thr = 1e-06
/
&IONS
ion_dynamics = 'bfgs'
upscale = 1.0
/
&CELL
/

K_POINTS {automatic}
9 6 2 0  0  0

ATOMIC_SPECIES
C 12.01 C.pbe-n-rrkjus_psl.1.0.0.UPF
Fe 55.84 fe_pbe_v1.5.uspp.F.UPF
O 15.99 O.pbe-n-rrkjus_psl.1.0.0.UPF
Rh 102.9 Rh.pbe-spn-rrkjus_psl.1.0.0.UPF

CELL_PARAMETERS {angstrom}
6.04788000 0.00000000 0.00000000
0.00000000 8.55299000 0.00000000
0.00000000 0.00000000 26.41470000

ATOMIC_POSITIONS {angstrom}
Fe 0.00000000 0.00000000 -3.2072728700000006 0 0 0
Fe 0.00000000 2.13824750 -1.0690029099999983 0 0 0
Fe 6.03753813 8.55247682 1.08590832
Fe 6.01510049 2.15971550 3.26723424
Fe 0.00000000 4.27649500 -3.2072728700000006 0 0 0
Fe 0.00000000 6.41474250 -1.0690029099999983 0 0 0
Fe 0.01306342 4.27709371 1.08036123
Fe 6.01540288 6.39301791 3.26723424
Fe 3.02394000 0.00000000 -3.2072728700000006 0 0 0
Fe 3.02394000 2.13824750 -1.0690029099999983 0 0 0
Fe 3.03470523 8.55247682 1.08617246
Fe 3.05774765 2.15937339 3.26670595
Fe 3.02394000 4.27649500 -3.2072728700000006 0 0 0
Fe 3.02394000 6.41474250 -1.0690029099999983 0 0 0
Fe 3.01123945 4.27709371 1.08036123
Fe 3.05744526 6.39336003 3.26670595
Rh 1.51197000 2.13824750 -3.2072728700000006 0 0 0
Rh 1.51197000 0.00000000 -1.0690029099999983 0 0 0
Rh 1.51233287 2.09522596 1.11443619
Rh 1.51263527 4.27615288 3.10425554
Rh 1.51197000 6.41474250 -3.2072728700000006 0 0 0
Rh 1.51197000 4.27649500 -1.0690029099999983 0 0 0
Rh 1.51227239 6.45784957 1.11417205
Rh 1.51124425 0.00042765 3.28810186
Rh 4.53591000 2.13824750 -3.2072728700000006 0 0 0
Rh 4.53591000 0.00000000 -1.0690029099999983 0 0 0
Rh 4.53597048 2.14414906 1.08802149
Rh 4.53578904 4.27649500 3.10425554
Rh 4.53591000 6.41474250 -3.2072728700000006 0 0 0
Rh 4.53591000 4.27649500 -1.0690029099999983 0 0 0
Rh 4.53597048 6.40866988 1.08802149
Rh 4.53572856 0.00034212 3.11508557
C 1.50453111 0.00000000 5.15931920
O 1.50314010 8.55290447 6.31813209
