&CONTROL
calculation = 'relax'
prefix = 'scf'
pseudo_dir = '/vol0004/mdt0/data/hp150275/u10028/POT_KKJUS'
outdir = './data'
tprnfor = .true.
nstep = 50
disk_io = 'non'
/
&SYSTEM
ibrav = 0
ecutwfc = 50.0
ecutrho = 400
occupations = 'smearing'
smearing = 'mp'
degauss = 0.01
assume_isolated = 'esm'
esm_bc = 'bc1'
input_dft = 'BEEF-VDW'
nosym = .true.
nspin = 1
ntyp = 3
nat = 33
/
&ELECTRONS
electron_maxstep = 200
mixing_beta = 0.1
conv_thr = 1e-06
/
&IONS
ion_dynamics = 'bfgs'
upscale = 1.0
/
&CELL
/

K_POINTS {automatic}
6 6 1 0 0 0

ATOMIC_SPECIES
C 12.01 C.pbe-n-rrkjus_psl.1.0.0.UPF
Rh 102.9 Rh.pbe-spn-rrkjus_psl.1.0.0.UPF
V 50.94 V.pbe-spnl-rrkjus_psl.1.0.0.UPF

CELL_PARAMETERS {angstrom}
7.63897000 0.00000000 0.00000000
-0.00000000 7.63897000 0.00000000
0.00000000 0.00000000 25.72920000

ATOMIC_POSITIONS {angstrom}
V 0.00000000 0.00000000 -2.8646891299999986 0 0 0
V 0.00000000 0.00000000 0.95481061
V 0.00000000 3.81948500 -2.8646891299999986 0 0 0
V 0.00000000 3.81948500 0.95481061
V 3.81948500 0.00000000 -2.8646891299999986 0 0 0
V 3.81948500 -0.00000000 0.95481061
V 3.81948500 3.81948500 -2.8646891299999986 0 0 0
V 3.81948500 3.81948500 0.95481061
Rh 0.00000000 1.90974250 -0.9548106099999991 0 0 0
Rh 1.90974250 0.00000000 -0.9548106099999991 0 0 0
Rh 1.90974250 1.90974250 -2.8646891299999986 0 0 0
Rh 0.00000000 1.90974250 2.86468913
Rh 1.90974250 -0.00000000 2.86468913
Rh 1.90974250 1.90974250 0.95481061
Rh 0.00000000 5.72922750 -0.9548106099999991 0 0 0
Rh 1.90974250 3.81948500 -0.9548106099999991 0 0 0
Rh 1.90974250 5.72922750 -2.8646891299999986 0 0 0
Rh 0.00000000 5.72922750 2.86468913
Rh 1.90974250 3.81948500 2.86468913
Rh 1.90974250 5.72922750 0.95481061
Rh 3.81948500 1.90974250 -0.9548106099999991 0 0 0
Rh 5.72922750 0.00000000 -0.9548106099999991 0 0 0
Rh 5.72922750 1.90974250 -2.8646891299999986 0 0 0
Rh 3.81948500 1.90974250 2.86468913
Rh 5.72922750 -0.00000000 2.86468913
Rh 5.72922750 1.90974250 0.95481061
Rh 3.81948500 5.72922750 -0.9548106099999991 0 0 0
Rh 5.72922750 3.81948500 -0.9548106099999991 0 0 0
Rh 5.72922750 5.72922750 -2.8646891299999986 0 0 0
Rh 3.81948500 5.72922750 2.86468913
Rh 5.72922750 3.81948500 2.86468913
Rh 5.72922750 5.72922750 0.95481061
C 0.00000000 0.00000000 3.66460996
