&CONTROL
calculation = 'relax'
prefix = 'scf'
pseudo_dir = '/vol0004/mdt0/data/hp150275/u10028/POT_HYBRID_KKJUS_GBRV'
outdir = './data'
tprnfor = .true.
nstep = 50
disk_io = 'non'
/
&SYSTEM
ibrav = 0
ecutwfc = 50.0
ecutrho = 400
occupations = 'smearing'
smearing = 'mp'
degauss = 0.01
assume_isolated = 'esm'
esm_bc = 'bc1'
input_dft = 'BEEF-VDW'
nosym = .true.
nspin = 2
ntyp = 5
nat = 34
starting_magnetization(1) = 0.0
starting_magnetization(2) = 0.0
starting_magnetization(3) = 0.001
starting_magnetization(4) = 0.0
starting_magnetization(5) = 0.0
/
&ELECTRONS
electron_maxstep = 200
mixing_beta = 0.1
conv_thr = 1e-06
/
&IONS
ion_dynamics = 'bfgs'
upscale = 1.0
/
&CELL
/

K_POINTS {automatic}
9 6 2 0  0  0

ATOMIC_SPECIES
Al 26.98 Al.pbe-nl-rrkjus_psl.1.0.0.UPF
C 12.01 C.pbe-n-rrkjus_psl.1.0.0.UPF
Ni 58.69 ni_pbe_v1.4.uspp.F.UPF
O 15.99 O.pbe-n-rrkjus_psl.1.0.0.UPF
Sc 44.95 Sc.pbe-spn-rrkjus_psl.1.0.0.UPF

CELL_PARAMETERS {angstrom}
6.07419000 0.00000000 0.00000000
0.00000000 8.59020000 0.00000000
0.00000000 0.00000000 26.44270000

ATOMIC_POSITIONS {angstrom}
Sc 0.00000000 0.00000000 23.22145029
Sc 3.03709500 2.14755000 25.36886195
Sc 3.03709500 6.44265000 25.36886195
Sc 0.00000000 4.29510000 23.22145029
Sc 0.00000000 4.30411971 1.01645739
Sc 3.03709500 6.44265000 3.35478535
Sc 3.03709500 2.14755000 3.36113160
Sc 0.00000000 8.58118029 1.01645739
Al 0.00000000 6.44265000 25.36886195
Al 3.03709500 0.00000000 23.22145029
Al 0.00000000 2.14755000 25.36886195
Al 3.03709500 4.29510000 23.22145029
Al 0.00000000 2.14755000 3.15963822
Al 3.03709500 4.29235114 1.13544954
Al 0.00000000 6.44265000 3.13927734
Al 3.03709500 0.00274886 1.13518511
Ni 1.51854750 0.00000000 25.36886195
Ni 4.55564250 4.29510000 25.36886195
Ni 4.55564250 0.00000000 25.36886195
Ni 1.51854750 4.29510000 25.36886195
Ni 4.55564250 6.44265000 23.22145029
Ni 1.51854750 2.14755000 23.22145029
Ni 1.51854750 6.44265000 23.22145029
Ni 4.55564250 2.14755000 23.22145029
Ni 1.40417050 4.31382664 3.06074252
Ni 4.67001950 8.57138746 3.06074252
Ni 4.67001950 4.31382664 3.06074252
Ni 1.40417050 8.57138746 3.06074252
Ni 4.48487819 2.14755000 1.13888709
Ni 1.60176390 6.44265000 1.11588194
Ni 1.58931181 2.14755000 1.13888709
Ni 4.47242610 6.44256410 1.11588194
C 0.00000000 2.14755000 5.15817749
O 0.00000000 2.14755000 6.31848316
