&CONTROL
calculation = 'relax'
prefix = 'scf'
pseudo_dir = '/vol0403/data/hp230205/u10028/POT_HYBRID_KKJUS_GBRV'
outdir = './data'
tprnfor = .true.
nstep = 50
disk_io = 'non'
/
&SYSTEM
ibrav = 0
ecutwfc = 50.0
ecutrho = 400
occupations = 'smearing'
smearing = 'mp'
degauss = 0.01
assume_isolated = 'esm'
esm_bc = 'bc1'
input_dft = 'BEEF-VDW'
nosym = .true.
nspin = 1
ntyp = 6
nat = 34
/
&ELECTRONS
electron_maxstep = 200
mixing_beta = 0.1
conv_thr = 1e-06
/
&IONS
ion_dynamics = 'bfgs'
upscale = 1.0
/
&CELL
/

K_POINTS {automatic}
6 6 1 0 0 0

ATOMIC_SPECIES
C 12.01 C.pbe-n-rrkjus_psl.1.0.0.UPF
Hf 178.4 Hf.pbe-spn-rrkjus_psl.1.0.0.UPF
In 114.8 In.pbe-dn-rrkjus_psl.1.0.0.UPF
Li 6.941 Li.pbe-sl-rrkjus_psl.1.0.0.UPF
O 15.99 O.pbe-n-rrkjus_psl.1.0.0.UPF
Pd 106.4 Pd.pbe-n-rrkjus_psl.1.0.0.UPF


CELL_PARAMETERS {angstrom}
6.51419000 0.00000000 0.00000000
0.00000000 9.21246000 0.00000000
0.00000000 0.00000000 26.90930000

ATOMIC_POSITIONS {angstrom}
Li 4.88564250 0.00000000 -1.1514489500000025 0 0 0
Li 4.88564250 4.60623000 -1.1514489500000025 0 0 0
Li 1.62854750 2.30311500 -3.4546159300000028 0 0 0
Li 1.62854750 6.90934500 -3.4546159300000028 0 0 0
Li 5.31460191 4.60623000 4.69594194
Li 5.52240457 0.00000000 4.70885841
Li 1.58118934 6.91081899 1.21011122
Li 1.58125448 2.30182526 1.21011122
Hf 0.00000000 0.00000000 -3.4546159300000028 0 0 0
Hf 0.00000000 4.60623000 -3.4546159300000028 0 0 0
Hf 3.25709500 6.90934500 -1.1514489500000025 0 0 0
Hf 3.25709500 2.30311500 -1.1514489500000025 0 0 0
Hf 6.45901481 4.60632212 1.29541370
Hf 6.46650613 0.00036850 1.31075200
Hf 3.41161159 2.33351612 3.34401871
Hf 3.41161159 6.87875963 3.34428780
In 0.00000000 2.30311500 -1.1514489500000025 0 0 0
In 0.00000000 6.90934500 -1.1514489500000025 0 0 0
In 3.25709500 4.60623000 -3.4546159300000028 0 0 0
In 3.25709500 0.00000000 -3.4546159300000028 0 0 0
In 6.50910893 6.87719351 3.59642794
In 6.50917407 2.33535861 3.59669704
In 3.25650872 0.00000000 1.15333260
In 3.28640885 4.60604575 1.11539049
Pd 1.62854750 0.00000000 -1.1514489500000025 0 0 0
Pd 1.62854750 4.60623000 -1.1514489500000025 0 0 0
Pd 4.88564250 2.30311500 -3.4546159300000028 0 0 0
Pd 4.88564250 6.90934500 -3.4546159300000028 0 0 0
Pd 1.78124011 4.60604575 3.37577169
Pd 1.79016455 9.21236788 3.52727104
Pd 4.89645606 6.91404335 1.12077235
Pd 4.89632577 2.29850877 1.12077235
C 2.50359864 9.21227575 5.34741610
O 2.72755649 9.21227575 6.49402137
