&CONTROL
calculation = 'relax'
prefix = 'scf'
pseudo_dir = '/vol0403/data/hp230205/u10028/POT_HYBRID_KKJUS_GBRV'
outdir = './data'
tprnfor = .true.
nstep = 100
disk_io = 'non'
/
&SYSTEM
ibrav = 0
ecutwfc = 50.0
ecutrho = 400
occupations = 'smearing'
smearing = 'mp'
degauss = 0.01
assume_isolated = 'esm'
esm_bc = 'bc1'
input_dft = 'BEEF-VDW'
nosym = .true.
nspin = 1
ntyp = 4
nat = 16
/
&ELECTRONS
electron_maxstep = 200
mixing_beta = 0.1
conv_thr = 1e-06
/
&IONS
ion_dynamics = 'bfgs'
upscale = 1.0
/
&CELL
/

K_POINTS {automatic}
10 10 2 0  0  0

ATOMIC_SPECIES
Al 26.98 Al.pbe-nl-rrkjus_psl.1.0.0.UPF
Li 6.941 Li.pbe-sl-rrkjus_psl.1.0.0.UPF
Pd 106.4 Pd.pbe-n-rrkjus_psl.1.0.0.UPF
Sn 118.7 Sn.pbe-dn-rrkjus_psl.1.0.0.UPF


CELL_PARAMETERS {angstrom}
6.48942000 0.00000000 0.00000000
-0.00000000 6.48942000 0.00000000
0.00000000 0.00000000 24.86710000

ATOMIC_POSITIONS {angstrom}
Li 4.86706500 1.62235500 -0.8111648000000002 0 0 0
Li 4.86706500 4.86706500 2.43349441
Li 1.62235500 1.62235500 2.43349441
Li 1.62235500 4.86706500 -0.8111648000000002 0 0 0
Al 0.00000000 0.00000000 -2.4334944100000016 0 0 0
Al 0.00000000 3.24471000 0.81116480
Al 3.24471000 -0.00000000 0.81116480
Al 3.24471000 3.24471000 -2.4334944100000016 0 0 0
Sn 0.00000000 3.24471000 -2.4334944100000016 0 0 0
Sn 0.00000000 0.00000000 0.81116480
Sn 3.24471000 3.24471000 0.81116480
Sn 3.24471000 0.00000000 -2.4334944100000016 0 0 0
Pd 1.62235500 1.62235500 -0.8111648000000002 0 0 0
Pd 1.62235500 4.86706500 2.43349441
Pd 4.86706500 1.62235500 2.43349441
Pd 4.86706500 4.86706500 -0.8111648000000002 0 0 0
