&CONTROL
calculation = 'relax'
prefix = 'scf'
pseudo_dir = '/vol0004/mdt0/data/hp150275/u10028/POT_KKJUS'
outdir = './data'
tprnfor = .true.
nstep = 50
disk_io = 'non'
/
&SYSTEM
ibrav = 0
ecutwfc = 50.0
ecutrho = 400
occupations = 'smearing'
smearing = 'mp'
degauss = 0.01
assume_isolated = 'esm'
esm_bc = 'bc1'
input_dft = 'BEEF-VDW'
nosym = .true.
nspin = 1
ntyp = 3
nat = 33
/
&ELECTRONS
electron_maxstep = 200
mixing_beta = 0.1
conv_thr = 1e-06
/
&IONS
ion_dynamics = 'bfgs'
upscale = 1.0
/
&CELL
/

K_POINTS {automatic}
9 6 2 0  0  0

ATOMIC_SPECIES
C 12.01 C.pbe-n-rrkjus_psl.1.0.0.UPF
Y 88.90 Y.pbe-spn-rrkjus_psl.1.0.0.UPF
Zn 65.40 Zn.pbe-dnl-rrkjus_psl.1.0.0.UPF

CELL_PARAMETERS {angstrom}
7.16718000 0.00000000 0.00000000
0.00000000 10.13590000 0.00000000
0.00000000 0.00000000 27.60190000

ATOMIC_POSITIONS {angstrom}
Y 0.00000000 0.00000000 -3.8010576500000006 0 0 0
Y 0.00000000 2.53397500 -1.2669272100000022 0 0 0
Y 0.00000000 0.00000000 1.27575982
Y 0.00000000 2.32872302 3.79608931
Y 0.00000000 5.06795000 -3.8010576500000006 0 0 0
Y 0.00000000 7.60192500 -1.2669272100000022 0 0 0
Y 0.00000000 5.06795000 1.23049270
Y 0.00000000 7.80717697 3.79608931
Y 3.58359000 0.00000000 -3.8010576500000006 0 0 0
Y 3.58359000 2.53397500 -1.2669272100000022 0 0 0
Y 3.58359000 0.00000000 1.20482294
Y 3.58359000 2.70030512 3.69893062
Y 3.58359000 5.06795000 -3.8010576500000006 0 0 0
Y 3.58359000 7.60192500 -1.2669272100000022 0 0 0
Y 3.58359000 5.06795000 1.18908985
Y 3.58359000 7.43569624 3.69893062
Zn 1.79179500 2.53397500 -3.8010576500000006 0 0 0
Zn 1.79179500 0.00000000 -1.2669272100000022 0 0 0
Zn 1.78699299 2.56113921 1.24622579
Zn 1.67167306 5.06795000 3.73840134
Zn 1.79179500 7.60192500 -3.8010576500000006 0 0 0
Zn 1.79179500 5.06795000 -1.2669272100000022 0 0 0
Zn 1.78699299 7.57476079 1.24622579
Zn 2.06192601 0.00000000 3.75027015
Zn 5.37538500 2.53397500 -3.8010576500000006 0 0 0
Zn 5.37538500 0.00000000 -1.2669272100000022 0 0 0
Zn 5.38018701 2.56113921 1.24622579
Zn 5.49550694 5.06795000 3.73840134
Zn 5.37538500 7.60192500 -3.8010576500000006 0 0 0
Zn 5.37538500 5.06795000 -1.2669272100000022 0 0 0
Zn 5.38018701 7.57476079 1.24622579
Zn 5.10525399 0.00000000 3.75027015
C 0.00000000 0.00000000 3.71631982
