&CONTROL
calculation = 'relax'
prefix = 'scf'
pseudo_dir = '/vol0004/mdt0/data/hp150275/u10028/POT_KKJUS'
outdir = './data'
tprnfor = .true.
nstep = 50
disk_io = 'non'
/
&SYSTEM
ibrav = 0
ecutwfc = 50.0
ecutrho = 400
occupations = 'smearing'
smearing = 'mp'
degauss = 0.01
assume_isolated = 'esm'
esm_bc = 'bc1'
input_dft = 'BEEF-VDW'
nosym = .true.
nspin = 1
ntyp = 4
nat = 33
/
&ELECTRONS
electron_maxstep = 200
mixing_beta = 0.1
conv_thr = 1e-06
/
&IONS
ion_dynamics = 'bfgs'
upscale = 1.0
/
&CELL
/

K_POINTS {automatic}
8 6 1 0 0 0

ATOMIC_SPECIES
Al 26.98 Al.pbe-nl-rrkjus_psl.1.0.0.UPF
C 12.01 C.pbe-n-rrkjus_psl.1.0.0.UPF
Li 6.941 Li.pbe-sl-rrkjus_psl.1.0.0.UPF
Rh 102.9 Rh.pbe-spn-rrkjus_psl.1.0.0.UPF

CELL_PARAMETERS {angstrom}
6.01864000 0.00000000 0.00000000
0.00000000 8.51164000 0.00000000
0.00000000 0.00000000 26.38370000

ATOMIC_POSITIONS {angstrom}
Li 0.00000000 6.38373000 -1.0640546200000003 0 0 0
Li 3.00932000 0.00000000 -3.1919000299999993 0 0 0
Li 0.00000000 2.12791000 -1.0640546200000003 0 0 0
Li 3.00932000 4.25582000 -3.1919000299999993 0 0 0
Li 1.50466000 2.12791000 -3.1919000299999993 0 0 0
Li 1.50466000 6.38373000 -3.1919000299999993 0 0 0
Li 4.51398000 4.25582000 -1.0640546200000003 0 0 0
Li 4.51398000 0.00000000 -1.0640546200000003 0 0 0
Li 0.17153124 2.33882844 3.56048031
Li 3.06920547 4.25582000 0.94400879
Li 0.17159143 6.17281156 3.56048031
Li 3.05391812 0.00000000 1.20177753
Li 1.46319157 6.43241658 1.08700844
Li 1.46319157 2.07930854 1.08700844
Li 4.80082838 0.00000000 3.94752919
Li 4.36574090 4.25582000 3.23516929
Al 0.00000000 0.00000000 -3.1919000299999993 0 0 0
Al 3.00932000 2.12791000 -1.0640546200000003 0 0 0
Al 3.00932000 6.38373000 -1.0640546200000003 0 0 0
Al 0.00000000 4.25582000 -3.1919000299999993 0 0 0
Al 0.01781517 4.25582000 1.10336633
Al 2.93077675 6.56204886 3.25047184
Al 2.93071656 1.94959114 3.25047184
Al 5.91848983 0.00000000 0.90073952
Rh 1.50466000 0.00000000 -1.0640546200000003 0 0 0
Rh 1.50466000 4.25582000 -1.0640546200000003 0 0 0
Rh 4.51398000 6.38373000 -3.1919000299999993 0 0 0
Rh 4.51398000 2.12791000 -3.1919000299999993 0 0 0
Rh 1.76647084 4.25582000 2.93940802
Rh 1.08498023 0.00000000 3.00140971
Rh 4.57567106 2.13361280 1.21708008
Rh 4.57573125 6.37802720 1.21708008
C 2.88978981 0.00000000 3.65783617
