&CONTROL
calculation = 'relax'
prefix = 'scf'
pseudo_dir = '/vol0004/mdt0/data/hp150275/u10028/POT_HYBRID_KKJUS_GBRV'
outdir = './data'
tprnfor = .true.
nstep = 50
disk_io = 'non'
/
&SYSTEM
ibrav = 0
ecutwfc = 50.0
ecutrho = 400
occupations = 'smearing'
smearing = 'mp'
degauss = 0.01
assume_isolated = 'esm'
esm_bc = 'bc1'
input_dft = 'BEEF-VDW'
nosym = .true.
nspin = 2
ntyp = 2
nat = 32
starting_magnetization(1) = 0.1
starting_magnetization(2) = 0.0
/
&ELECTRONS
electron_maxstep = 200
mixing_beta = 0.1
conv_thr = 1e-06
/
&IONS
ion_dynamics = 'bfgs'
upscale = 1.0
/
&CELL
/

K_POINTS {automatic}
7 7 2 0  0  0

ATOMIC_SPECIES
Mn 54.93 mn_pbe_v1.5.uspp.F.UPF
Sb 121.7 Sb.pbe-n-rrkjus_psl.1.0.0.UPF

CELL_PARAMETERS {angstrom}
7.64649000 0.00000000 0.00000000
-0.00000000 7.64649000 0.00000000
0.00000000 0.00000000 25.73490000

ATOMIC_POSITIONS {angstrom}
Mn 0.00000000 1.91162250 0.95579419
Mn 1.91162250 -0.00000000 0.95579419
Mn 1.91162250 1.91162250 2.86738256
Mn 0.00000000 1.91162250 22.86751744
Mn 1.91162250 0.00000000 22.86751744
Mn 1.91162250 1.91162250 24.77910581
Mn 0.00000000 5.73486750 0.95579419
Mn 1.91162250 3.82324500 0.95579419
Mn 1.91162250 5.73486750 2.86738256
Mn 0.00000000 5.73486750 22.86751744
Mn 1.91162250 3.82324500 22.86751744
Mn 1.91162250 5.73486750 24.77910581
Mn 3.82324500 1.91162250 0.95579419
Mn 5.73486750 -0.00000000 0.95579419
Mn 5.73486750 1.91162250 2.86738256
Mn 3.82324500 1.91162250 22.86751744
Mn 5.73486750 0.00000000 22.86751744
Mn 5.73486750 1.91162250 24.77910581
Mn 3.82324500 5.73486750 0.95579419
Mn 5.73486750 3.82324500 0.95579419
Mn 5.73486750 5.73486750 2.86738256
Mn 3.82324500 5.73486750 22.86751744
Mn 5.73486750 3.82324500 22.86751744
Mn 5.73486750 5.73486750 24.77910581
Sb 0.00000000 0.00000000 2.86738256
Sb 0.00000000 0.00000000 24.77910581
Sb 0.00000000 3.82324500 2.86738256
Sb 0.00000000 3.82324500 24.77910581
Sb 3.82324500 -0.00000000 2.86738256
Sb 3.82324500 0.00000000 24.77910581
Sb 3.82324500 3.82324500 2.86738256
Sb 3.82324500 3.82324500 24.77910581
