&CONTROL
calculation = 'relax'
prefix = 'scf'
pseudo_dir = '/vol0403/data/hp230205/u10028/POT_HYBRID_KKJUS_GBRV'
outdir = './data'
tprnfor = .true.
nstep = 50
disk_io = 'non'
/
&SYSTEM
ibrav = 0
ecutwfc = 50.0
ecutrho = 400
occupations = 'smearing'
smearing = 'mp'
degauss = 0.01
assume_isolated = 'esm'
esm_bc = 'bc1'
input_dft = 'BEEF-VDW'
nosym = .true.
nspin = 1
ntyp = 6
nat = 34
/
&ELECTRONS
electron_maxstep = 200
mixing_beta = 0.1
conv_thr = 1e-06
/
&IONS
ion_dynamics = 'bfgs'
upscale = 1.0
/
&CELL
/

K_POINTS {automatic}
6 6 1 0 0 0

ATOMIC_SPECIES
C 12.01 C.pbe-n-rrkjus_psl.1.0.0.UPF
Ge 72.64 Ge.pbe-dn-rrkjus_psl.1.0.0.UPF
Li 6.941 Li.pbe-sl-rrkjus_psl.1.0.0.UPF
O 15.99 O.pbe-n-rrkjus_psl.1.0.0.UPF
Pd 106.4 Pd.pbe-n-rrkjus_psl.1.0.0.UPF
Sn 118.7 Sn.pbe-dn-rrkjus_psl.1.0.0.UPF


CELL_PARAMETERS {angstrom}
6.61012000 0.00000000 0.00000000
0.00000000 9.34812000 0.00000000
0.00000000 0.00000000 27.01110000

ATOMIC_POSITIONS {angstrom}
Li 4.95759000 0.00000000 -1.1685001899999996 0 0 0
Li 4.95759000 4.67406000 -1.1685001899999996 0 0 0
Li 1.65253000 2.33703000 -3.505500559999998 0 0 0
Li 1.65253000 7.01109000 -3.505500559999998 0 0 0
Li 4.68095648 4.74099254 3.75697390
Li 4.68095648 9.28118746 3.75697390
Li 1.45158235 7.01109000 1.20415484
Li 1.60407782 2.33712348 1.13446620
Sn 0.00000000 2.33703000 -1.1685001899999996 0 0 0
Sn 0.00000000 7.01109000 -1.1685001899999996 0 0 0
Sn 3.30506000 4.67406000 -3.505500559999998 0 0 0
Sn 3.30506000 0.00000000 -3.505500559999998 0 0 0
Sn 0.13537526 7.01109000 3.80775477
Sn 0.02108628 2.33703000 3.63785495
Sn 3.40216266 9.28651589 1.09530010
Sn 3.40216266 4.73575759 1.09530010
Ge 0.00000000 0.00000000 -3.505500559999998 0 0 0
Ge 0.00000000 4.67406000 -3.505500559999998 0 0 0
Ge 3.30506000 7.01109000 -1.1685001899999996 0 0 0
Ge 3.30506000 2.33703000 -1.1685001899999996 0 0 0
Ge 6.46092959 4.63666752 1.31841179
Ge 6.46099569 0.03739248 1.31841179
Ge 3.09485818 2.33684304 3.45120825
Ge 3.05803982 7.01118348 3.49388578
Pd 1.65253000 0.00000000 -1.1685001899999996 0 0 0
Pd 1.65253000 4.67406000 -1.1685001899999996 0 0 0
Pd 4.95759000 2.33703000 -3.505500559999998 0 0 0
Pd 4.95759000 7.01109000 -3.505500559999998 0 0 0
Pd 1.69741271 4.65106362 3.16813192
Pd 1.69747882 0.02299638 3.16840203
Pd 5.11120919 7.01109000 1.37540521
Pd 4.92698514 2.33703000 1.18200574
C 0.70675403 2.33703000 7.28462356
O 6.32588484 2.33703000 7.84078211
