&CONTROL
calculation = 'relax'
prefix = 'scf'
pseudo_dir = '/vol0403/data/hp230205/u10028/POT_HYBRID_KKJUS_GBRV'
outdir = './data'
tprnfor = .true.
nstep = 50
disk_io = 'non'
/
&SYSTEM
ibrav = 0
ecutwfc = 50.0
ecutrho = 400
occupations = 'smearing'
smearing = 'mp'
degauss = 0.01
assume_isolated = 'esm'
esm_bc = 'bc1'
input_dft = 'BEEF-VDW'
nosym = .true.
nspin = 1
ntyp = 6
nat = 34
/
&ELECTRONS
electron_maxstep = 200
mixing_beta = 0.1
conv_thr = 1e-06
/
&IONS
ion_dynamics = 'bfgs'
upscale = 1.0
/
&CELL
/

K_POINTS {automatic}
6 6 1 0 0 0

ATOMIC_SPECIES
C 12.01 C.pbe-n-rrkjus_psl.1.0.0.UPF
Ge 72.64 Ge.pbe-dn-rrkjus_psl.1.0.0.UPF
Li 6.941 Li.pbe-sl-rrkjus_psl.1.0.0.UPF
O 15.99 O.pbe-n-rrkjus_psl.1.0.0.UPF
Pd 106.4 Pd.pbe-n-rrkjus_psl.1.0.0.UPF
Sn 118.7 Sn.pbe-dn-rrkjus_psl.1.0.0.UPF


CELL_PARAMETERS {angstrom}
6.61012000 0.00000000 0.00000000
0.00000000 9.34812000 0.00000000
0.00000000 0.00000000 27.01110000

ATOMIC_POSITIONS {angstrom}
Li 4.95759000 0.00000000 -1.1685001899999996 0 0 0
Li 4.95759000 4.67406000 -1.1685001899999996 0 0 0
Li 1.65253000 2.33703000 -3.505500559999998 0 0 0
Li 1.65253000 7.01109000 -3.505500559999998 0 0 0
Li 4.67983276 4.74136646 3.75697390
Li 4.67989886 9.28081354 3.75697390
Li 1.45171455 7.01109000 1.20226406
Li 1.60493714 2.33712348 1.13419609
Sn 0.00000000 2.33703000 -1.1685001899999996 0 0 0
Sn 0.00000000 7.01109000 -1.1685001899999996 0 0 0
Sn 3.30506000 4.67406000 -3.505500559999998 0 0 0
Sn 3.30506000 0.00000000 -3.505500559999998 0 0 0
Sn 0.13689559 7.01109000 3.80883521
Sn 0.02102018 2.33703000 3.63866528
Sn 3.40004742 9.28483323 1.09611044
Sn 3.40004742 4.73744025 1.09611044
Ge 0.00000000 0.00000000 -3.505500559999998 0 0 0
Ge 0.00000000 4.67406000 -3.505500559999998 0 0 0
Ge 3.30506000 7.01109000 -1.1685001899999996 0 0 0
Ge 3.30506000 2.33703000 -1.1685001899999996 0 0 0
Ge 6.46126010 4.63806974 1.31841179
Ge 6.46132620 0.03599026 1.31841179
Ge 3.09485818 2.33684304 3.45120825
Ge 3.05447035 7.01118348 3.49388578
Pd 1.65253000 0.00000000 -1.1685001899999996 0 0 0
Pd 1.65253000 4.67406000 -1.1685001899999996 0 0 0
Pd 4.95759000 2.33703000 -3.505500559999998 0 0 0
Pd 4.95759000 7.01109000 -3.505500559999998 0 0 0
Pd 1.69747882 4.65106362 3.16570092
Pd 1.69754492 0.02299638 3.16597103
Pd 5.11061428 7.01109000 1.37351443
Pd 4.92949699 2.33703000 1.18335629
C 0.70648963 2.33703000 7.28435345
O 6.32641365 2.33703000 7.84186255
