&CONTROL
calculation = 'relax'
prefix = 'scf'
pseudo_dir = '/vol0403/data/hp230205/u10028/POT_HYBRID_KKJUS_GBRV'
outdir = './data'
tprnfor = .true.
nstep = 50
disk_io = 'non'
/
&SYSTEM
ibrav = 0
ecutwfc = 50.0
ecutrho = 400
occupations = 'smearing'
smearing = 'mp'
degauss = 0.01
assume_isolated = 'esm'
esm_bc = 'bc1'
input_dft = 'BEEF-VDW'
nosym = .true.
nspin = 1
ntyp = 6
nat = 34
/
&ELECTRONS
electron_maxstep = 200
mixing_beta = 0.1
conv_thr = 1e-06
/
&IONS
ion_dynamics = 'bfgs'
upscale = 1.0
/
&CELL
/

K_POINTS {automatic}
6 6 1 0 0 0

ATOMIC_SPECIES
C 12.01 C.pbe-n-rrkjus_psl.1.0.0.UPF
Cu 63.54 Cu.pbe-dn-rrkjus_psl.1.0.0.UPF
Li 6.941 Li.pbe-sl-rrkjus_psl.1.0.0.UPF
O 15.99 O.pbe-n-rrkjus_psl.1.0.0.UPF
Pd 106.4 Pd.pbe-n-rrkjus_psl.1.0.0.UPF
Sb 121.7 Sb.pbe-n-rrkjus_psl.1.0.0.UPF


CELL_PARAMETERS {angstrom}
6.37250000 0.00000000 0.00000000
0.00000000 9.01208000 0.00000000
0.00000000 0.00000000 26.75910000

ATOMIC_POSITIONS {angstrom}
Li 1.59312500 0.00000000 -1.1265581100000013 0 0 0
Li 1.59312500 4.50604000 -1.1265581100000013 0 0 0
Li 4.77937500 2.25302000 -3.3794067400000003 0 0 0
Li 4.77937500 6.75906000 -3.3794067400000003 0 0 0
Li 1.59312500 4.50604000 3.37940674
Li 1.59312500 0.00000000 3.37940674
Li 4.77937500 6.75906000 1.12655811
Li 4.77937500 2.25302000 1.12655811
Cu 0.00000000 0.00000000 -3.3794067400000003 0 0 0
Cu 0.00000000 4.50604000 -3.3794067400000003 0 0 0
Cu 3.18625000 6.75906000 -1.1265581100000013 0 0 0
Cu 3.18625000 2.25302000 -1.1265581100000013 0 0 0
Cu 0.00000000 4.50604000 1.12655811
Cu 0.00000000 0.00000000 1.12655811
Cu 3.18625000 2.25302000 3.37940674
Cu 3.18625000 6.75906000 3.37940674
Sb 4.77937500 0.00000000 -1.1265581100000013 0 0 0
Sb 4.77937500 4.50604000 -1.1265581100000013 0 0 0
Sb 1.59312500 2.25302000 -3.3794067400000003 0 0 0
Sb 1.59312500 6.75906000 -3.3794067400000003 0 0 0
Sb 4.77937500 4.50604000 3.37940674
Sb 4.77937500 0.00000000 3.37940674
Sb 1.59312500 6.75906000 1.12655811
Sb 1.59312500 2.25302000 1.12655811
Pd 0.00000000 2.25302000 -1.1265581100000013 0 0 0
Pd 0.00000000 6.75906000 -1.1265581100000013 0 0 0
Pd 3.18625000 4.50604000 -3.3794067400000003 0 0 0
Pd 3.18625000 0.00000000 -3.3794067400000003 0 0 0
Pd 0.00000000 6.75906000 3.37940674
Pd 0.00000000 2.25302000 3.37940674
Pd 3.18625000 0.00000000 1.12655811
Pd 3.18625000 4.50604000 1.12655811
C 1.59312500 0.00000000 5.27957043
O 1.59312500 0.00000000 6.42940896
