&CONTROL
calculation = 'relax'
prefix = 'scf'
pseudo_dir = '/vol0403/data/hp230205/u10028/POT_HYBRID_KKJUS_GBRV'
outdir = './data'
tprnfor = .true.
nstep = 50
disk_io = 'non'
/
&SYSTEM
ibrav = 0
ecutwfc = 50.0
ecutrho = 400
occupations = 'smearing'
smearing = 'mp'
degauss = 0.01
assume_isolated = 'esm'
esm_bc = 'bc1'
input_dft = 'BEEF-VDW'
nosym = .true.
nspin = 1
ntyp = 5
nat = 33
/
&ELECTRONS
electron_maxstep = 200
mixing_beta = 0.1
conv_thr = 1e-06
/
&IONS
ion_dynamics = 'bfgs'
upscale = 1.0
/
&CELL
/

K_POINTS {automatic}
6 6 1 0 0 0

ATOMIC_SPECIES
Au 196.9 Au.pbe-n-rrkjus_psl.1.0.0.UPF
C 12.01 C.pbe-n-rrkjus_psl.1.0.0.UPF
Ge 72.64 Ge.pbe-dn-rrkjus_psl.1.0.0.UPF
Li 6.941 Li.pbe-sl-rrkjus_psl.1.0.0.UPF
Pd 106.4 Pd.pbe-n-rrkjus_psl.1.0.0.UPF


CELL_PARAMETERS {angstrom}
6.30991000 0.00000000 0.00000000
0.00000000 8.92356000 0.00000000
0.00000000 0.00000000 26.69270000

ATOMIC_POSITIONS {angstrom}
Li 1.57747750 0.00000000 -1.115487929999997 0 0 0
Li 1.57747750 4.46178000 -1.115487929999997 0 0 0
Li 4.73243250 2.23089000 -3.3464637999999987 0 0 0
Li 4.73243250 6.69267000 -3.3464637999999987 0 0 0
Li 1.44679926 4.42189169 3.71402228
Li 1.44673616 0.03997755 3.71402228
Li 4.68384619 6.69267000 1.03754525
Li 4.80499647 2.23089000 1.21718712
Ge 4.73243250 0.00000000 -1.115487929999997 0 0 0
Ge 4.73243250 4.46178000 -1.115487929999997 0 0 0
Ge 1.57747750 2.23089000 -3.3464637999999987 0 0 0
Ge 1.57747750 6.69267000 -3.3464637999999987 0 0 0
Ge 4.78770731 4.48881839 3.44789606
Ge 4.78770731 8.89652161 3.44789606
Ge 1.62063728 6.69267000 1.12669887
Ge 1.57798229 2.23089000 1.02606739
Pd 0.00000000 2.23089000 -1.115487929999997 0 0 0
Pd 0.00000000 6.69267000 -1.115487929999997 0 0 0
Pd 3.15495500 4.46178000 -3.3464637999999987 0 0 0
Pd 3.15495500 0.00000000 -3.3464637999999987 0 0 0
Pd 6.24630611 6.69267000 3.08781154
Pd 5.84234567 2.23097924 4.11361200
Pd 3.11551806 0.05898473 1.32262328
Pd 3.11551806 4.40279527 1.32262328
Au 0.00000000 0.00000000 -3.3464637999999987 0 0 0
Au 0.00000000 4.46178000 -3.3464637999999987 0 0 0
Au 3.15495500 6.69267000 -1.115487929999997 0 0 0
Au 3.15495500 2.23089000 -1.115487929999997 0 0 0
Au 6.29893076 4.44232664 1.18115197
Au 6.29893076 0.01945336 1.18115197
Au 3.19647421 2.23089000 3.48606662
Au 3.23345028 6.69267000 3.30615782
C 1.37770575 2.23106847 4.21637889
