&CONTROL
calculation = 'relax'
prefix = 'scf'
pseudo_dir = '/vol0004/mdt0/data/hp150275/u10028/POT_HYBRID_KKJUS_GBRV'
outdir = './data'
tprnfor = .true.
nstep = 50
disk_io = 'non'
/
&SYSTEM
ibrav = 0
ecutwfc = 50.0
ecutrho = 400
occupations = 'smearing'
smearing = 'mp'
degauss = 0.01
assume_isolated = 'esm'
esm_bc = 'bc1'
input_dft = 'BEEF-VDW'
nosym = .true.
nspin = 2
ntyp = 4
nat = 33
starting_magnetization(1) = 0.0
starting_magnetization(2) = 0.0
starting_magnetization(3) = 0.001
starting_magnetization(4) = 0.0
/
&ELECTRONS
electron_maxstep = 300
mixing_beta = 0.1
conv_thr = 1e-06
/
&IONS
ion_dynamics = 'bfgs'
upscale = 1.0
/
&CELL
/

K_POINTS {automatic}
9 6 2 0  0  0

ATOMIC_SPECIES
C 12.01 C.pbe-n-rrkjus_psl.1.0.0.UPF
Mg 24.30 Mg.pbe-spnl-rrkjus_psl.1.0.0.UPF
Ni 58.69 ni_pbe_v1.4.uspp.F.UPF
Sb 121.7 Sb.pbe-n-rrkjus_psl.1.0.0.UPF

CELL_PARAMETERS {angstrom}
6.21377000 0.00000000 0.00000000
0.00000000 8.78760000 0.00000000
0.00000000 0.00000000 26.59070000

ATOMIC_POSITIONS {angstrom}
Mg 0.00000000 0.00000000 -3.2953854499999977 0 0 0
Mg 3.10688500 2.19690000 -1.0984618199999971 0 0 0
Mg 3.10688500 6.59070000 -1.0984618199999971 0 0 0
Mg 0.00000000 4.39380000 -3.2953854499999977 0 0 0
Mg 0.03802827 4.44019853 1.10165270
Mg 3.03660726 6.59061212 3.54028580
Mg 3.34474812 2.19707575 3.34803504
Mg 0.03809041 8.74120147 1.10165270
Ni 1.55344250 0.00000000 -1.0984618199999971 0 0 0
Ni 4.66032750 4.39380000 -1.0984618199999971 0 0 0
Ni 4.66032750 0.00000000 -1.0984618199999971 0 0 0
Ni 1.55344250 4.39380000 -1.0984618199999971 0 0 0
Ni 4.66032750 6.59070000 -3.2953854499999977 0 0 0
Ni 1.55344250 2.19690000 -3.2953854499999977 0 0 0
Ni 1.55344250 6.59070000 -3.2953854499999977 0 0 0
Ni 4.66032750 2.19690000 -3.2953854499999977 0 0 0
Ni 1.57512856 4.01373630 3.33952601
Ni 4.70195976 8.64699840 3.08957343
Ni 4.70214617 4.53431372 3.08957343
Ni 1.57574993 0.38050308 3.33926011
Ni 4.67903095 2.19681212 0.95566976
Ni 1.60930429 6.59070000 1.15962043
Ni 1.52722039 2.19681212 1.19684741
Ni 4.59004976 6.59070000 1.32900319
Sb 0.00000000 6.59070000 -1.0984618199999971 0 0 0
Sb 3.10688500 0.00000000 -3.2953854499999977 0 0 0
Sb 0.00000000 2.19690000 -1.0984618199999971 0 0 0
Sb 3.10688500 4.39380000 -3.2953854499999977 0 0 0
Sb 5.85753457 2.19681212 3.31612620
Sb 3.08432901 4.38325488 1.10856628
Sb 0.08525292 6.59070000 3.45625919
Sb 3.08432901 0.01045724 1.10830038
C 1.52454847 2.19698788 4.12474938
