&CONTROL
calculation = 'relax'
prefix = 'scf'
pseudo_dir = '/vol0403/data/hp230205/u10028/POT_HYBRID_KKJUS_GBRV'
outdir = './data'
tprnfor = .true.
nstep = 50
disk_io = 'non'
/
&SYSTEM
ibrav = 0
ecutwfc = 50.0
ecutrho = 400
occupations = 'smearing'
smearing = 'mp'
degauss = 0.01
assume_isolated = 'esm'
esm_bc = 'bc1'
input_dft = 'BEEF-VDW'
nosym = .true.
nspin = 1
ntyp = 5
nat = 17
/
&ELECTRONS
electron_maxstep = 200
mixing_beta = 0.1
conv_thr = 1e-06
/
&IONS
ion_dynamics = 'bfgs'
upscale = 1.0
/
&CELL
/

K_POINTS {automatic}
8 8 1 0 0 0

ATOMIC_SPECIES
Ag 107.8 Ag.pbe-n-rrkjus_psl.1.0.0.UPF
C 12.01 C.pbe-n-rrkjus_psl.1.0.0.UPF
In 114.8 In.pbe-dn-rrkjus_psl.1.0.0.UPF
Li 6.941 Li.pbe-sl-rrkjus_psl.1.0.0.UPF
Sc 44.95 Sc.pbe-spn-rrkjus_psl.1.0.0.UPF


CELL_PARAMETERS {angstrom}
6.68683000 0.00000000 0.00000000
0.00000000 6.68683000 0.00000000
0.00000000 0.00000000 25.01510000

ATOMIC_POSITIONS {angstrom}
Li 0.17686665 3.17510749 3.28498293
Li 0.00000000 0.00000000 -0.8357544899999994 0 0 0
Li 3.34341500 3.34341500 -0.8357544899999994 0 0 0
Li 3.17504062 0.17700039 3.28498293
Sc 5.01619239 1.67210871 0.92005538
Sc 5.01512250 5.01512250 -2.507513620000001 0 0 0
Sc 1.67170750 1.67170750 -2.507513620000001 0 0 0
Sc 1.67210871 5.01619239 0.92005538
In 1.67311173 1.67311173 0.71643246
In 1.67170750 5.01512250 -2.507513620000001 0 0 0
In 5.01512250 1.67170750 -2.507513620000001 0 0 0
In 5.01759663 5.01752976 1.26501361
Ag 0.14844763 0.14851449 2.69412627
Ag 0.00000000 3.34341500 -0.8357544899999994 0 0 0
Ag 3.34341500 0.00000000 -0.8357544899999994 0 0 0
Ag 3.20259036 3.20259036 2.69162476
C 1.67685636 1.67685636 3.08811410
