&CONTROL
calculation = 'relax'
prefix = 'scf'
pseudo_dir = '/vol0004/mdt0/data/hp150275/u10028/POT_KKJUS'
outdir = './data'
tprnfor = .true.
nstep = 50
disk_io = 'non'
/
&SYSTEM
ibrav = 0
ecutwfc = 50.0
ecutrho = 400
occupations = 'smearing'
smearing = 'mp'
degauss = 0.01
assume_isolated = 'esm'
esm_bc = 'bc1'
input_dft = 'BEEF-VDW'
nosym = .true.
nspin = 1
ntyp = 4
nat = 18
/
&ELECTRONS
electron_maxstep = 200
mixing_beta = 0.1
conv_thr = 1e-06
/
&IONS
ion_dynamics = 'bfgs'
upscale = 1.0
/
&CELL
/

K_POINTS {automatic}
8 8 1 0 0 0

ATOMIC_SPECIES
C 12.01 C.pbe-n-rrkjus_psl.1.0.0.UPF
O 15.99 O.pbe-n-rrkjus_psl.1.0.0.UPF
Ru 101.0 Ru.pbe-spn-rrkjus_psl.1.0.0.UPF
Ti 47.86 Ti.pbe-spn-rrkjus_psl.1.0.0.UPF

CELL_PARAMETERS {angstrom}
6.18271000 0.00000000 0.00000000
-0.00000000 6.18271000 0.00000000
0.00000000 0.00000000 24.63700000

ATOMIC_POSITIONS {angstrom}
Ti 1.54567750 1.54567750 -1.0487970900000008 0 0 0
Ti 1.54567750 1.54567750 2.04240730
Ti 1.54567750 4.63703250 -1.0487970900000008 0 0 0
Ti 1.54567750 4.63703250 2.04240730
Ti 4.63703250 1.54567750 -1.0487970900000008 0 0 0
Ti 4.63703250 1.54567750 2.04240730
Ti 4.63703250 4.63703250 -1.0487970900000008 0 0 0
Ti 4.63703250 4.63703250 2.04240730
Ru 0.00000000 0.00000000 -2.594522470000001 0 0 0
Ru 0.00000000 0.00000000 0.49668192
Ru 0.00000000 3.09135500 -2.594522470000001 0 0 0
Ru 0.00000000 3.09135500 0.49668192
Ru 3.09135500 0.00000000 -2.594522470000001 0 0 0
Ru 3.09135500 -0.00000000 0.49668192
Ru 3.09135500 3.09135500 -2.594522470000001 0 0 0
Ru 3.09135500 3.09135500 0.49668192
C 1.54567750 1.54567750 3.94241274
O 1.54567750 1.54567750 5.09246790
