&CONTROL
calculation = 'relax'
prefix = 'scf'
pseudo_dir = '/vol0004/mdt0/data/hp150275/u10028/POT_KKJUS'
outdir = './data'
tprnfor = .true.
nstep = 50
disk_io = 'non'
/
&SYSTEM
ibrav = 0
ecutwfc = 50.0
ecutrho = 400
occupations = 'smearing'
smearing = 'mp'
degauss = 0.01
assume_isolated = 'esm'
esm_bc = 'bc1'
input_dft = 'BEEF-VDW'
nosym = .true.
nspin = 1
ntyp = 4
nat = 18
/
&ELECTRONS
electron_maxstep = 200
mixing_beta = 0.1
conv_thr = 1e-06
/
&IONS
ion_dynamics = 'bfgs'
upscale = 1.0
/
&CELL
/

K_POINTS {automatic}
6 8 1 0 0 0

ATOMIC_SPECIES
C 12.01 C.pbe-n-rrkjus_psl.1.0.0.UPF
Mg 24.30 Mg.pbe-spnl-rrkjus_psl.1.0.0.UPF
Ni 58.69 Ni.pbe-spn-rrkjus_psl.1.0.0.UPF
O 15.99 O.pbe-n-rrkjus_psl.1.0.0.UPF

CELL_PARAMETERS {angstrom}
7.35611000 0.00000000 0.00000000
0.00000000 5.20155000 0.00000000
0.00000000 0.00000000 23.90120000

ATOMIC_POSITIONS {angstrom}
Mg 7.35603644 5.20144597 2.07103898
Mg 0.00000000 2.60077500 -0.6501126399999997 0 0 0
Mg 3.67820212 5.20139395 2.07558021
Mg 3.67805500 2.60077500 -0.6501126399999997 0 0 0
Ni 0.00000000 2.60072298 1.80597467
Ni 1.84535375 3.91265793 0.64987363
Ni 1.84557444 1.28878804 0.64987363
Ni 0.00000000 0.00000000 -0.6501126399999997 0 0 0
Ni 1.83902750 1.30038750 -1.9505769300000004 0 0 0
Ni 1.83902750 3.90116250 -1.9505769300000004 0 0 0
Ni 3.67812856 2.60067097 1.82437860
Ni 5.51082981 3.91260591 0.65011264
Ni 5.51082981 1.28894409 0.64939560
Ni 3.67805500 0.00000000 -0.6501126399999997 0 0 0
Ni 5.51708250 1.30038750 -1.9505769300000004 0 0 0
Ni 5.51708250 3.90116250 -1.9505769300000004 0 0 0
C 0.00036781 5.20139395 4.35455963
O 0.00022068 5.20144597 5.49608094
