&CONTROL
calculation = 'relax'
prefix = 'scf'
pseudo_dir = '/vol0403/data/hp230205/u10028/POT_HYBRID_KKJUS_GBRV'
outdir = './data'
tprnfor = .true.
nstep = 50
disk_io = 'non'
/
&SYSTEM
ibrav = 0
ecutwfc = 50.0
ecutrho = 400
occupations = 'smearing'
smearing = 'mp'
degauss = 0.01
assume_isolated = 'esm'
esm_bc = 'bc1'
input_dft = 'BEEF-VDW'
nosym = .true.
nspin = 1
ntyp = 6
nat = 34
/
&ELECTRONS
electron_maxstep = 200
mixing_beta = 0.1
conv_thr = 1e-06
/
&IONS
ion_dynamics = 'bfgs'
upscale = 1.0
/
&CELL
/

K_POINTS {automatic}
6 6 1 0 0 0

ATOMIC_SPECIES
Au 196.9 Au.pbe-n-rrkjus_psl.1.0.0.UPF
C 12.01 C.pbe-n-rrkjus_psl.1.0.0.UPF
Ge 72.64 Ge.pbe-dn-rrkjus_psl.1.0.0.UPF
In 114.8 In.pbe-dn-rrkjus_psl.1.0.0.UPF
Li 6.941 Li.pbe-sl-rrkjus_psl.1.0.0.UPF
O 15.99 O.pbe-n-rrkjus_psl.1.0.0.UPF


CELL_PARAMETERS {angstrom}
8.46544000 0.00000000 0.00000000
0.00000000 8.57796000 0.00000000
0.00000000 0.00000000 26.29600000

ATOMIC_POSITIONS {angstrom}
Li 2.11636000 0.00000000 -1.0492103999999998 0 0 0
Li 2.07140851 8.57186965 2.95277784
Li 2.11636000 4.28898000 -1.0492103999999998 0 0 0
Li 2.07140851 4.29507035 2.95251488
Li 6.34908000 0.00000000 -1.0492103999999998 0 0 0
Li 6.39403149 8.57178387 2.95251488
Li 6.34908000 4.28898000 -1.0492103999999998 0 0 0
Li 6.39403149 4.29498457 2.95277784
In 0.00000000 2.14449000 -1.0492103999999998 0 0 0
In 0.00000000 2.14440422 3.03850280
In 0.00000000 6.43347000 -1.0492103999999998 0 0 0
In 0.00000000 6.43347000 3.15420520
In 4.23272000 2.14449000 -1.0492103999999998 0 0 0
In 4.23272000 2.14449000 3.80976448
In 4.23272000 6.43347000 -1.0492103999999998 0 0 0
In 4.23272000 6.43347000 3.68696216
Ge 2.11636000 2.14449000 -3.14789416 0 0 0
Ge 2.48452199 2.14440422 1.24274896
Ge 2.11636000 6.43347000 -3.14789416 0 0 0
Ge 2.38293671 6.43347000 1.16438688
Ge 6.34908000 2.14449000 -3.14789416 0 0 0
Ge 5.98091801 2.14449000 1.24274896
Ge 6.34908000 6.43347000 -3.14789416 0 0 0
Ge 6.08250329 6.43338422 1.16438688
Au 0.00000000 0.00000000 -3.14789416 0 0 0
Au 0.00000000 8.55479951 0.98005192
Au 0.00000000 4.28898000 -3.14789416 0 0 0
Au 0.00000000 4.31205471 0.98005192
Au 4.23272000 0.00000000 -3.14789416 0 0 0
Au 4.23272000 8.56080408 1.25747472
Au 4.23272000 4.28898000 -3.14789416 0 0 0
Au 4.23272000 4.30605014 1.25747472
C 8.46484742 2.14629137 6.99868040
O 0.00025396 2.14406110 8.13387872
