&CONTROL
calculation = 'relax'
prefix = 'scf'
pseudo_dir = '/vol0004/mdt0/data/hp150275/u10028/POT_KKJUS'
outdir = './data'
tprnfor = .true.
nstep = 50
disk_io = 'non'
/
&SYSTEM
ibrav = 0
ecutwfc = 50.0
ecutrho = 400
occupations = 'smearing'
smearing = 'mp'
degauss = 0.01
assume_isolated = 'esm'
esm_bc = 'bc1'
input_dft = 'BEEF-VDW'
nosym = .true.
nspin = 1
ntyp = 4
nat = 18
/
&ELECTRONS
electron_maxstep = 200
mixing_beta = 0.1
conv_thr = 1e-06
/
&IONS
ion_dynamics = 'bfgs'
upscale = 1.0
/
&CELL
/

K_POINTS {automatic}
8 11 2 0  0  0

ATOMIC_SPECIES
C 12.01 C.pbe-n-rrkjus_psl.1.0.0.UPF
O 15.99 O.pbe-n-rrkjus_psl.1.0.0.UPF
Pt 195.0 Pt.pbe-n-rrkjus_psl.1.0.0.UPF
Zn 65.40 Zn.pbe-dnl-rrkjus_psl.1.0.0.UPF

CELL_PARAMETERS {angstrom}
7.90864000 0.00000000 0.00000000
0.00000000 5.59226000 0.00000000
0.00000000 0.00000000 24.19420000

ATOMIC_POSITIONS {angstrom}
Zn 0.00000000 0.00000000 -2.097153259999999 0 0 0
Zn 7.89661887 2.83650612 0.77421440
Zn 3.95432000 0.00000000 -2.097153259999999 0 0 0
Zn 3.96634113 2.83645019 0.77397246
Pt 0.00000000 2.79613000 -2.097153259999999 0 0 0
Pt 1.97716000 4.19419500 -0.6989704400000001 0 0 0
Pt 1.97716000 1.39806500 -0.6989704400000001 0 0 0
Pt 7.90571380 0.01470764 0.72268075
Pt 1.97716000 1.45342837 2.10054044
Pt 1.97716000 4.19844512 2.07658819
Pt 3.95432000 2.79613000 -2.097153259999999 0 0 0
Pt 5.93148000 4.19419500 -0.6989704400000001 0 0 0
Pt 5.93148000 1.39806500 -0.6989704400000001 0 0 0
Pt 3.95724620 0.01470764 0.72268075
Pt 5.93148000 1.51265041 2.04803903
Pt 5.93148000 4.25213081 2.07973343
C 1.97708091 1.57875092 3.96954239
O 1.97708091 1.56745456 5.12239602
