&CONTROL
calculation = 'relax'
prefix = 'scf'
pseudo_dir = '/vol0403/data/hp230205/u10028/POT_HYBRID_KKJUS_GBRV'
outdir = './data'
tprnfor = .true.
nstep = 50
disk_io = 'non'
/
&SYSTEM
ibrav = 0
ecutwfc = 50.0
ecutrho = 400
occupations = 'smearing'
smearing = 'mp'
degauss = 0.01
assume_isolated = 'esm'
esm_bc = 'bc1'
input_dft = 'BEEF-VDW'
nosym = .true.
nspin = 1
ntyp = 4
nat = 16
/
&ELECTRONS
electron_maxstep = 200
mixing_beta = 0.1
conv_thr = 1e-06
/
&IONS
ion_dynamics = 'bfgs'
upscale = 1.0
/
&CELL
/

K_POINTS {automatic}
8 11 2 0  0  0

ATOMIC_SPECIES
Ga 69.72 Ga.pbe-dnl-rrkjus_psl.1.0.0.UPF
Ge 72.64 Ge.pbe-dn-rrkjus_psl.1.0.0.UPF
Pd 106.4 Pd.pbe-n-rrkjus_psl.1.0.0.UPF
Sc 44.95 Sc.pbe-spn-rrkjus_psl.1.0.0.UPF


CELL_PARAMETERS {angstrom}
7.83718000 0.00000000 0.00000000
0.00000000 5.89664000 0.00000000
0.00000000 0.00000000 24.41460000

ATOMIC_POSITIONS {angstrom}
Sc 0.00000000 2.94832000 -2.207323989999999 0 0 0
Sc 0.00000000 5.66997316 0.84547760
Sc 3.91859000 2.94832000 -2.207323989999999 0 0 0
Sc 3.91859000 5.66997316 0.84547760
Ga 0.00000000 0.00000000 -2.207323989999999 0 0 0
Ga 0.00000000 2.65791048 0.88600583
Ga 3.91859000 0.00000000 -2.207323989999999 0 0 0
Ga 3.91859000 2.65791048 0.88576169
Ge 1.95929500 4.33456110 -0.7358560400000016 0 0 0
Ge 1.95929500 1.38459004 2.14311359
Ge 5.87788500 4.33456110 -0.7358560400000016 0 0 0
Ge 5.87788500 1.38453107 2.14311359
Pd 1.95929500 1.38624110 -0.7358560400000016 0 0 0
Pd 1.95929500 4.11962857 2.05253542
Pd 5.87788500 1.38624110 -0.7358560400000016 0 0 0
Pd 5.87788500 4.11962857 2.05253542
