&CONTROL
calculation = 'relax'
prefix = 'scf'
pseudo_dir = '/vol0004/mdt0/data/hp150275/u10028/POT_KKJUS'
outdir = './data'
tprnfor = .true.
nstep = 50
disk_io = 'non'
/
&SYSTEM
ibrav = 0
ecutwfc = 50.0
ecutrho = 400
occupations = 'smearing'
smearing = 'mp'
degauss = 0.01
assume_isolated = 'esm'
esm_bc = 'bc1'
input_dft = 'BEEF-VDW'
nosym = .true.
nspin = 1
ntyp = 4
nat = 33
/
&ELECTRONS
electron_maxstep = 200
mixing_beta = 0.1
conv_thr = 1e-06
/
&IONS
ion_dynamics = 'bfgs'
upscale = 1.0
/
&CELL
/

K_POINTS {automatic}
9 6 2 0  0  0

ATOMIC_SPECIES
C 12.01 C.pbe-n-rrkjus_psl.1.0.0.UPF
Ga 69.72 Ga.pbe-dnl-rrkjus_psl.1.0.0.UPF
Hf 178.4 Hf.pbe-spn-rrkjus_psl.1.0.0.UPF
Ni 58.69 Ni.pbe-spn-rrkjus_psl.1.0.0.UPF

CELL_PARAMETERS {angstrom}
6.09904000 0.00000000 0.00000000
0.00000000 8.62534000 0.00000000
0.00000000 0.00000000 26.46900000

ATOMIC_POSITIONS {angstrom}
Hf 0.00000000 0.00000000 -3.2345118 0 0 0
Hf 3.04952000 2.15633500 -1.0780823700000006 0 0 0
Hf 3.04952000 6.46900500 -1.0780823700000006 0 0 0
Hf 0.00000000 4.31267000 -3.2345118 0 0 0
Hf 0.00000000 4.31267000 1.05664248
Hf 3.04952000 6.49643358 3.32159481
Hf 3.04952000 2.12890642 3.32159481
Hf 0.00000000 0.00000000 1.09978695
Ga 0.00000000 6.46900500 -1.0780823700000006 0 0 0
Ga 3.04952000 0.00000000 -3.2345118 0 0 0
Ga 0.00000000 2.15633500 -1.0780823700000006 0 0 0
Ga 3.04952000 4.31267000 -3.2345118 0 0 0
Ga 0.00000000 2.17815711 3.22762986
Ga 3.04952000 4.31267000 1.13525541
Ga 0.00000000 6.44718289 3.22762986
Ga 3.04952000 0.00000000 1.13525541
Ni 1.52476000 0.00000000 -1.0780823700000006 0 0 0
Ni 4.57428000 4.31267000 -1.0780823700000006 0 0 0
Ni 4.57428000 0.00000000 -1.0780823700000006 0 0 0
Ni 1.52476000 4.31267000 -1.0780823700000006 0 0 0
Ni 4.57428000 6.46900500 -3.2345118 0 0 0
Ni 1.52476000 2.15633500 -3.2345118 0 0 0
Ni 1.52476000 6.46900500 -3.2345118 0 0 0
Ni 4.57428000 2.15633500 -3.2345118 0 0 0
Ni 1.40698754 4.31267000 3.14742879
Ni 4.86276459 0.00000000 3.32185950
Ni 4.69205246 4.31267000 3.14742879
Ni 1.23627541 0.00000000 3.32185950
Ni 4.47047434 2.16659915 1.11540366
Ni 1.62856566 6.45882710 1.11540366
Ni 1.62856566 2.16659915 1.11540366
Ni 4.47047434 6.45874085 1.11540366
C 3.04952000 0.00000000 3.78718452
