&CONTROL
calculation = 'relax'
prefix = 'scf'
pseudo_dir = '/vol0004/mdt0/data/hp150275/u10028/POT_HYBRID_KKJUS_GBRV'
outdir = './data'
tprnfor = .true.
nstep = 70
disk_io = 'non'
/
&SYSTEM
ibrav = 0
ecutwfc = 50.0
ecutrho = 400
occupations = 'smearing'
smearing = 'mp'
degauss = 0.01
assume_isolated = 'esm'
esm_bc = 'bc1'
input_dft = 'BEEF-VDW'
nosym = .true.
nspin = 1
ntyp = 4
nat = 34
/
&ELECTRONS
electron_maxstep = 200
mixing_beta = 0.1
conv_thr = 1e-06
/
&IONS
ion_dynamics = 'bfgs'
upscale = 1.0
/
&CELL
/

K_POINTS {automatic}
7 7 2 0  0  0

ATOMIC_SPECIES
Ag 107.8 Ag.pbe-n-rrkjus_psl.1.0.0.UPF
C 12.01 C.pbe-n-rrkjus_psl.1.0.0.UPF
O 15.99 O.pbe-n-rrkjus_psl.1.0.0.UPF
Ti 47.86 Ti.pbe-spn-rrkjus_psl.1.0.0.UPF

CELL_PARAMETERS {angstrom}
8.03191000 0.00000000 0.00000000
-0.00000000 8.69556000 0.00000000
0.00000000 0.00000000 26.02390000

ATOMIC_POSITIONS {angstrom}
Ti 2.00797750 2.17389000 -3.012006190000001 0 0 0
Ti 0.00000000 2.17389000 -1.0040020600000013 0 0 0
Ti 2.00797750 2.17389000 1.00400206
Ti 0.00000000 2.17389000 3.01200619
Ti 2.00797750 6.52167000 -3.012006190000001 0 0 0
Ti 0.00000000 6.52167000 -1.0040020600000013 0 0 0
Ti 2.00797750 6.52167000 1.00400206
Ti 0.00000000 6.52167000 3.01200619
Ti 6.02393250 2.17389000 -3.012006190000001 0 0 0
Ti 4.01595500 2.17389000 -1.0040020600000013 0 0 0
Ti 6.02393250 2.17389000 1.00400206
Ti 4.01595500 2.17389000 3.01200619
Ti 6.02393250 6.52167000 -3.012006190000001 0 0 0
Ti 4.01595500 6.52167000 -1.0040020600000013 0 0 0
Ti 6.02393250 6.52167000 1.00400206
Ti 4.01595500 6.52167000 3.01200619
Ag 0.00000000 0.00000000 -3.012006190000001 0 0 0
Ag 2.00797750 0.00000000 -1.0040020600000013 0 0 0
Ag 0.00000000 0.00000000 1.00400206
Ag 2.00797750 -0.00000000 3.01200619
Ag 0.00000000 4.34778000 -3.012006190000001 0 0 0
Ag 2.00797750 4.34778000 -1.0040020600000013 0 0 0
Ag 0.00000000 4.34778000 1.00400206
Ag 2.00797750 4.34778000 3.01200619
Ag 4.01595500 0.00000000 -3.012006190000001 0 0 0
Ag 6.02393250 0.00000000 -1.0040020600000013 0 0 0
Ag 4.01595500 -0.00000000 1.00400206
Ag 6.02393250 -0.00000000 3.01200619
Ag 4.01595500 4.34778000 -3.012006190000001 0 0 0
Ag 6.02393250 4.34778000 -1.0040020600000013 0 0 0
Ag 4.01595500 4.34778000 1.00400206
Ag 6.02393250 4.34778000 3.01200619
C 2.00797750 -0.00000000 4.91201113
O 2.00797750 -0.00000000 6.06200727
