&CONTROL
calculation = 'relax'
prefix = 'scf'
pseudo_dir = '/vol0004/mdt0/data/hp150275/u10028/POT_HYBRID_KKJUS_GBRV'
outdir = './data'
tprnfor = .true.
nstep = 50
disk_io = 'non'
/
&SYSTEM
ibrav = 0
ecutwfc = 50.0
ecutrho = 400
occupations = 'smearing'
smearing = 'mp'
degauss = 0.01
assume_isolated = 'esm'
esm_bc = 'bc1'
input_dft = 'BEEF-VDW'
nosym = .true.
nspin = 2
ntyp = 4
nat = 33
starting_magnetization(1) = 0.0
starting_magnetization(2) = 0.1
starting_magnetization(3) = 0.0
starting_magnetization(4) = 0.0
/
&ELECTRONS
electron_maxstep = 200
mixing_beta = 0.1
conv_thr = 1e-06
/
&IONS
ion_dynamics = 'bfgs'
upscale = 1.0
/
&CELL
/

K_POINTS {automatic}
9 6 2 0  0  0

ATOMIC_SPECIES
C 12.01 C.pbe-n-rrkjus_psl.1.0.0.UPF
Fe 55.84 fe_pbe_v1.5.uspp.F.UPF
Si 28.08 Si.pbe-nl-rrkjus_psl.1.0.0.UPF
V 50.94 V.pbe-spnl-rrkjus_psl.1.0.0.UPF

CELL_PARAMETERS {angstrom}
5.64262000 0.00000000 0.00000000
0.00000000 7.97986000 0.00000000
0.00000000 0.00000000 25.98490000

ATOMIC_POSITIONS {angstrom}
V 0.00000000 0.00000000 22.99247892
V 2.82131000 1.99496500 24.98733969
V 2.82131000 5.98489500 24.98733969
V 0.00000000 3.98993000 22.99247892
V 0.00000000 3.98985020 1.03004144
V 2.82131000 5.95632710 3.01476810
V 2.82131000 2.02329350 3.01450825
V 0.00000000 0.00015960 0.98067013
Fe 1.41065500 0.00000000 24.98733969
Fe 4.23196500 3.98993000 24.98733969
Fe 4.23196500 0.00000000 24.98733969
Fe 1.41065500 3.98993000 24.98733969
Fe 4.23196500 5.98489500 22.99247892
Fe 1.41065500 1.99496500 22.99247892
Fe 1.41065500 5.98489500 22.99247892
Fe 4.23196500 1.99496500 22.99247892
Fe 1.37629144 3.98993000 2.88250496
Fe 4.24940070 7.97978020 2.97890894
Fe 4.26632856 3.98993000 2.88250496
Fe 1.39321930 7.97978020 2.97890894
Fe 4.21802773 1.96480113 1.01211185
Fe 1.42464870 6.01497907 1.01211185
Fe 1.42459227 1.96480113 1.01211185
Fe 4.21797130 6.01497907 1.01211185
Si 0.00000000 5.98489500 24.98733969
Si 2.82131000 0.00000000 22.99247892
Si 0.00000000 1.99496500 24.98733969
Si 2.82131000 3.98993000 22.99247892
Si 0.00000000 2.03111377 3.04231209
Si 2.82131000 3.98985020 0.99937925
Si 0.00000000 5.94866644 3.04257194
Si 2.82131000 0.00000000 0.97521330
C 0.00000000 0.00007980 4.07079443
