&CONTROL
calculation = 'relax'
prefix = 'scf'
pseudo_dir = '/vol0004/mdt0/data/hp150275/u10028/POT_HYBRID_KKJUS_GBRV'
outdir = './data'
tprnfor = .true.
nstep = 50
disk_io = 'non'
/
&SYSTEM
ibrav = 0
ecutwfc = 50.0
ecutrho = 400
occupations = 'smearing'
smearing = 'mp'
degauss = 0.01
assume_isolated = 'esm'
esm_bc = 'bc1'
input_dft = 'BEEF-VDW'
nosym = .true.
nspin = 2
ntyp = 3
nat = 32
starting_magnetization(1) = 0.1
starting_magnetization(2) = 0.1
starting_magnetization(3) = 0.0
/
&ELECTRONS
electron_maxstep = 300
mixing_beta = 0.1
conv_thr = 1e-06
/
&IONS
ion_dynamics = 'bfgs'
upscale = 1.0
/
&CELL
/

K_POINTS {automatic}
9 6 2 0  0  0

ATOMIC_SPECIES
Co 58.93 co_pbe_v1.2.uspp.F.UPF
Mn 54.93 mn_pbe_v1.5.uspp.F.UPF
Sb 121.7 Sb.pbe-n-rrkjus_psl.1.0.0.UPF

CELL_PARAMETERS {angstrom}
6.03986000 0.00000000 0.00000000
0.00000000 8.54165000 0.00000000
0.00000000 0.00000000 26.40620000

ATOMIC_POSITIONS {angstrom}
Mn 0.00000000 0.00000000 -3.2030720599999967 0 0 0
Mn 3.01993000 2.13541250 -1.0676026699999994 0 0 0
Mn 3.01993000 6.40623750 -1.0676026699999994 0 0 0
Mn 0.00000000 4.27082500 -3.2030720599999967 0 0 0
Mn 0.00000000 4.27082500 1.04542146
Mn 3.01993000 6.40632292 3.19382989
Mn 3.01993000 2.13532708 3.19382989
Mn 0.00000000 0.00000000 1.04542146
Co 1.50996500 0.00000000 -1.0676026699999994 0 0 0
Co 4.52989500 4.27082500 -1.0676026699999994 0 0 0
Co 4.52989500 0.00000000 -1.0676026699999994 0 0 0
Co 1.50996500 4.27082500 -1.0676026699999994 0 0 0
Co 4.52989500 6.40623750 -3.2030720599999967 0 0 0
Co 1.50996500 2.13541250 -3.2030720599999967 0 0 0
Co 1.50996500 6.40623750 -3.2030720599999967 0 0 0
Co 4.52989500 2.13541250 -3.2030720599999967 0 0 0
Co 1.45216354 4.27091042 3.04384267
Co 4.58763606 8.54156458 3.04410674
Co 4.58763606 4.27091042 3.04384267
Co 1.45222394 8.54156458 3.04410674
Co 4.56287264 2.13532708 1.08054170
Co 1.47698736 6.40632292 1.08054170
Co 1.47698736 2.13532708 1.08054170
Co 4.56287264 6.40632292 1.08054170
Sb 0.00000000 6.40623750 -1.0676026699999994 0 0 0
Sb 3.01993000 0.00000000 -3.2030720599999967 0 0 0
Sb 0.00000000 2.13541250 -1.0676026699999994 0 0 0
Sb 3.01993000 4.27082500 -3.2030720599999967 0 0 0
Sb 0.00000000 2.13549792 3.40349512
Sb 3.01993000 4.27082500 1.05941674
Sb 0.00000000 6.40615208 3.40349512
Sb 3.01993000 0.00000000 1.05941674
