&CONTROL
calculation = 'relax'
prefix = 'scf'
pseudo_dir = '/vol0004/mdt0/data/hp150275/u10028/POT_HYBRID_KKJUS_GBRV'
outdir = './data'
tprnfor = .true.
nstep = 50
disk_io = 'non'
/
&SYSTEM
ibrav = 0
ecutwfc = 50.0
ecutrho = 400
occupations = 'smearing'
smearing = 'mp'
degauss = 0.01
assume_isolated = 'esm'
esm_bc = 'bc1'
input_dft = 'BEEF-VDW'
nosym = .true.
nspin = 2
ntyp = 5
nat = 34
starting_magnetization(1) = 0.0
starting_magnetization(2) = 0.0
starting_magnetization(3) = 0.001
starting_magnetization(4) = 0.0
starting_magnetization(5) = 0.0
/
&ELECTRONS
electron_maxstep = 300
mixing_beta = 0.1
conv_thr = 1e-06
/
&IONS
ion_dynamics = 'bfgs'
upscale = 1.0
/
&CELL
/

K_POINTS {automatic}
9 6 2 0  0  0

ATOMIC_SPECIES
C 12.01 C.pbe-n-rrkjus_psl.1.0.0.UPF
Hf 178.4 Hf.pbe-spn-rrkjus_psl.1.0.0.UPF
Ni 58.69 ni_pbe_v1.4.uspp.F.UPF
O 15.99 O.pbe-n-rrkjus_psl.1.0.0.UPF
Sn 118.7 Sn.pbe-dn-rrkjus_psl.1.0.0.UPF

CELL_PARAMETERS {angstrom}
6.29417000 0.00000000 0.00000000
0.00000000 8.90130000 0.00000000
0.00000000 0.00000000 26.67600000

ATOMIC_POSITIONS {angstrom}
Hf 0.00000000 0.00000000 -3.3379678799999972 0 0 0
Hf 3.14708500 2.22532500 -1.112655959999998 0 0 0
Hf 3.14708500 6.67597500 -1.112655959999998 0 0 0
Hf 0.00000000 4.45065000 -3.3379678799999972 0 0 0
Hf 0.00000000 4.47201312 1.13426352
Hf 3.14708500 6.67597500 3.34703772
Hf 3.14708500 2.22532500 3.34997208
Hf 0.00000000 8.88002589 1.13426352
Ni 1.57354250 0.00000000 -1.112655959999998 0 0 0
Ni 4.72062750 4.45065000 -1.112655959999998 0 0 0
Ni 4.72062750 0.00000000 -1.112655959999998 0 0 0
Ni 1.57354250 4.45065000 -1.112655959999998 0 0 0
Ni 4.72062750 6.67597500 -3.3379678799999972 0 0 0
Ni 1.57354250 2.22532500 -3.3379678799999972 0 0 0
Ni 1.57354250 6.67597500 -3.3379678799999972 0 0 0
Ni 4.72062750 2.22532500 -3.3379678799999972 0 0 0
Ni 1.61684639 4.46978780 3.19898592
Ni 4.67726067 8.88216221 3.19898592
Ni 4.67732361 4.46978780 3.19898592
Ni 1.61690933 8.88216221 3.19898592
Ni 4.80742410 2.22532500 1.15800516
Ni 1.62509175 6.67597500 1.19241720
Ni 1.48674590 2.22532500 1.15800516
Ni 4.66907825 6.67597500 1.19241720
Sn 0.00000000 6.67597500 -1.112655959999998 0 0 0
Sn 3.14708500 0.00000000 -3.3379678799999972 0 0 0
Sn 0.00000000 2.22532500 -1.112655959999998 0 0 0
Sn 3.14708500 4.45065000 -3.3379678799999972 0 0 0
Sn 0.00000000 2.22532500 3.56418036
Sn 3.14708500 4.41709210 1.07397576
Sn 0.00000000 6.67597500 3.53483676
Sn 3.14708500 0.03355790 1.07397576
C 3.14708500 2.22532500 5.59769184
O 3.14708500 2.22532500 6.74849448
