&CONTROL
calculation = 'relax'
prefix = 'scf'
pseudo_dir = '/vol0403/data/hp230205/u10028/POT_HYBRID_KKJUS_GBRV'
outdir = './data'
tprnfor = .true.
nstep = 70
disk_io = 'non'
/
&SYSTEM
ibrav = 0
ecutwfc = 50.0
ecutrho = 400
occupations = 'smearing'
smearing = 'mp'
degauss = 0.01
assume_isolated = 'esm'
esm_bc = 'bc1'
input_dft = 'BEEF-VDW'
nosym = .true.
nspin = 1
ntyp = 6
nat = 34
/
&ELECTRONS
electron_maxstep = 200
mixing_beta = 0.1
conv_thr = 1e-06
/
&IONS
ion_dynamics = 'bfgs'
upscale = 1.0
/
&CELL
/

K_POINTS {automatic}
6 6 1 0 0 0

ATOMIC_SPECIES
C 12.01 C.pbe-n-rrkjus_psl.1.0.0.UPF
Mg 24.30 Mg.pbe-spnl-rrkjus_psl.1.0.0.UPF
O 15.99 O.pbe-n-rrkjus_psl.1.0.0.UPF
Pd 106.4 Pd.pbe-n-rrkjus_psl.1.0.0.UPF
Sn 118.7 Sn.pbe-dn-rrkjus_psl.1.0.0.UPF
Y 88.90 Y.pbe-spn-rrkjus_psl.1.0.0.UPF


CELL_PARAMETERS {angstrom}
7.00634000 0.00000000 0.00000000
-0.00000000 9.90846000 0.00000000
0.00000000 0.00000000 27.43130000

ATOMIC_POSITIONS {angstrom}
Y 0.00000000 2.47711500 -1.2385231899999987 0 0 0
Y 0.00000000 7.43134500 -1.2385231899999987 0 0 0
Y 3.50317000 4.95423000 -3.7155695800000004 0 0 0
Y 3.50317000 0.00000000 -3.7155695800000004 0 0 0
Y 0.14475098 7.42609352 3.78524509
Y 0.20577621 2.47870035 3.92240159
Y 3.46925931 0.06093703 1.30792438
Y 3.46792811 4.88853691 1.30737576
Mg 0.00000000 0.00000000 -3.7155695800000004 0 0 0
Mg 0.00000000 4.95423000 -3.7155695800000004 0 0 0
Mg 3.50317000 7.43134500 -1.2385231899999987 0 0 0
Mg 3.50317000 2.47711500 -1.2385231899999987 0 0 0
Mg 0.11973835 4.99723272 1.38061733
Mg 0.12022879 9.86387193 1.37979439
Mg 3.64322674 2.47087267 3.79621761
Mg 3.57337353 7.43184042 3.72599348
Sn 1.75158500 0.00000000 -1.2385231899999987 0 0 0
Sn 1.75158500 4.95423000 -1.2385231899999987 0 0 0
Sn 5.25475500 2.47711500 -3.7155695800000004 0 0 0
Sn 5.25475500 7.43134500 -3.7155695800000004 0 0 0
Sn 2.06147542 4.96968720 4.22250001
Sn 2.05054553 9.88983210 4.21811100
Sn 5.26820717 7.42866972 1.31011889
Sn 5.43832111 2.47414246 1.38198889
Pd 5.25475500 0.00000000 -1.2385231899999987 0 0 0
Pd 5.25475500 4.95423000 -1.2385231899999987 0 0 0
Pd 1.75158500 2.47711500 -3.7155695800000004 0 0 0
Pd 1.75158500 7.43134500 -3.7155695800000004 0 0 0
Pd 5.25629639 5.03528120 3.42123174
Pd 5.26176134 9.82384175 3.42040880
Pd 1.71501191 7.42985873 1.23029381
Pd 1.56647750 2.47443972 1.22645342
C 5.01331652 2.48395184 5.48543706
O 5.90970766 2.48474451 6.25186758
