&CONTROL
calculation = 'relax'
prefix = 'scf'
pseudo_dir = '/vol0403/data/hp230205/u10028/POT_HYBRID_KKJUS_GBRV'
outdir = './data'
tprnfor = .true.
nstep = 70
disk_io = 'non'
/
&SYSTEM
ibrav = 0
ecutwfc = 50.0
ecutrho = 400
occupations = 'smearing'
smearing = 'mp'
degauss = 0.01
assume_isolated = 'esm'
esm_bc = 'bc1'
input_dft = 'BEEF-VDW'
nosym = .true.
nspin = 1
ntyp = 6
nat = 34
/
&ELECTRONS
electron_maxstep = 200
mixing_beta = 0.1
conv_thr = 1e-06
/
&IONS
ion_dynamics = 'bfgs'
upscale = 1.0
/
&CELL
/

K_POINTS {automatic}
6 6 1 0 0 0

ATOMIC_SPECIES
C 12.01 C.pbe-n-rrkjus_psl.1.0.0.UPF
Cu 63.54 Cu.pbe-dn-rrkjus_psl.1.0.0.UPF
Li 6.941 Li.pbe-sl-rrkjus_psl.1.0.0.UPF
Mg 24.30 Mg.pbe-spnl-rrkjus_psl.1.0.0.UPF
O 15.99 O.pbe-n-rrkjus_psl.1.0.0.UPF
Pd 106.4 Pd.pbe-n-rrkjus_psl.1.0.0.UPF


CELL_PARAMETERS {angstrom}
7.56776000 0.00000000 0.00000000
-0.00000000 7.89062000 0.00000000
0.00000000 0.00000000 25.96820000

ATOMIC_POSITIONS {angstrom}
Li 1.89194000 1.97265500 -2.98400586 0 0 0
Li 1.89194000 1.97265500 0.99458206
Li 1.89194000 5.91796500 -2.98400586 0 0 0
Li 1.89194000 5.91796500 0.99458206
Li 5.67582000 1.97265500 -2.98400586 0 0 0
Li 5.67582000 1.97265500 0.99458206
Li 5.67582000 5.91796500 -2.98400586 0 0 0
Li 5.67582000 5.91796500 0.99458206
Mg 1.89194000 0.00000000 -0.994582059999999 0 0 0
Mg 1.89194000 -0.00000000 2.98400586
Mg 1.89194000 3.94531000 -0.994582059999999 0 0 0
Mg 1.89194000 3.94531000 2.98400586
Mg 5.67582000 0.00000000 -0.994582059999999 0 0 0
Mg 5.67582000 -0.00000000 2.98400586
Mg 5.67582000 3.94531000 -0.994582059999999 0 0 0
Mg 5.67582000 3.94531000 2.98400586
Cu 0.00000000 0.00000000 -2.98400586 0 0 0
Cu 0.00000000 0.00000000 0.99458206
Cu 0.00000000 3.94531000 -2.98400586 0 0 0
Cu 0.00000000 3.94531000 0.99458206
Cu 3.78388000 0.00000000 -2.98400586 0 0 0
Cu 3.78388000 -0.00000000 0.99458206
Cu 3.78388000 3.94531000 -2.98400586 0 0 0
Cu 3.78388000 3.94531000 0.99458206
Pd 0.00000000 1.97265500 -0.994582059999999 0 0 0
Pd 0.00000000 1.97265500 2.98400586
Pd 0.00000000 5.91796500 -0.994582059999999 0 0 0
Pd 0.00000000 5.91796500 2.98400586
Pd 3.78388000 1.97265500 -0.994582059999999 0 0 0
Pd 3.78388000 1.97265500 2.98400586
Pd 3.78388000 5.91796500 -0.994582059999999 0 0 0
Pd 3.78388000 5.91796500 2.98400586
C 1.89194000 -0.00000000 4.88409906
O 1.89194000 -0.00000000 6.03423063
