&CONTROL
calculation = 'relax'
prefix = 'scf'
pseudo_dir = '/vol0004/mdt0/data/hp150275/u10028/POT_KKJUS'
outdir = './data'
tprnfor = .true.
nstep = 50
disk_io = 'non'
/
&SYSTEM
ibrav = 0
ecutwfc = 50.0
ecutrho = 400
occupations = 'smearing'
smearing = 'mp'
degauss = 0.01
assume_isolated = 'esm'
esm_bc = 'bc1'
input_dft = 'BEEF-VDW'
nosym = .true.
nspin = 1
ntyp = 2
nat = 32
/
&ELECTRONS
electron_maxstep = 200
mixing_beta = 0.1
conv_thr = 1e-06
/
&IONS
ion_dynamics = 'bfgs'
upscale = 1.0
/
&CELL
/

K_POINTS {automatic}
9 6 2 0  0  0

ATOMIC_SPECIES
Sb 121.7 Sb.pbe-n-rrkjus_psl.1.0.0.UPF
Sn 118.7 Sn.pbe-dn-rrkjus_psl.1.0.0.UPF

CELL_PARAMETERS {angstrom}
7.64519000 0.00000000 0.00000000
0.00000000 10.81190000 0.00000000
0.00000000 0.00000000 28.10890000

ATOMIC_POSITIONS {angstrom}
Sn 1.91129750 2.70297500 -4.054427739999998 0 0 0
Sn 1.91129750 0.00000000 -1.3514759099999978 0 0 0
Sn 1.91129750 2.70470490 1.46531696
Sn 1.91137395 10.81179188 4.44176838
Sn 1.91129750 8.10892500 -4.054427739999998 0 0 0
Sn 1.91129750 5.40595000 -1.3514759099999978 0 0 0
Sn 1.91129750 8.10719510 1.46531696
Sn 1.91137395 5.40605812 4.44204947
Sn 5.73389250 2.70297500 -4.054427739999998 0 0 0
Sn 5.73389250 0.00000000 -1.3514759099999978 0 0 0
Sn 5.73389250 2.70481302 1.46531696
Sn 5.73389250 0.00000000 4.44176838
Sn 5.73389250 8.10892500 -4.054427739999998 0 0 0
Sn 5.73389250 5.40595000 -1.3514759099999978 0 0 0
Sn 5.73389250 8.10719510 1.46559805
Sn 5.73389250 5.40595000 4.44204947
Sb 0.00000000 0.00000000 -4.054427739999998 0 0 0
Sb 0.00000000 2.70297500 -1.3514759099999978 0 0 0
Sb 0.00007645 0.00000000 2.03058694
Sb 0.00000000 2.70211005 3.98162568
Sb 0.00000000 5.40595000 -4.054427739999998 0 0 0
Sb 0.00000000 8.10892500 -1.3514759099999978 0 0 0
Sb 0.00007645 5.40595000 2.03114911
Sb 0.00000000 8.10989807 3.98162568
Sb 3.82259500 0.00000000 -4.054427739999998 0 0 0
Sb 3.82259500 2.70297500 -1.3514759099999978 0 0 0
Sb 3.82259500 0.00000000 2.03058694
Sb 3.82259500 2.70211005 3.98162568
Sb 3.82259500 5.40595000 -4.054427739999998 0 0 0
Sb 3.82259500 8.10892500 -1.3514759099999978 0 0 0
Sb 3.82259500 5.40595000 2.03114911
Sb 3.82251855 8.10978995 3.98162568
