&CONTROL
calculation = 'relax'
prefix = 'scf'
pseudo_dir = '/vol0403/data/hp230205/u10028/POT_HYBRID_KKJUS_GBRV'
outdir = './data'
tprnfor = .true.
nstep = 50
disk_io = 'non'
/
&SYSTEM
ibrav = 0
ecutwfc = 50.0
ecutrho = 400
occupations = 'smearing'
smearing = 'mp'
degauss = 0.01
assume_isolated = 'esm'
esm_bc = 'bc1'
input_dft = 'BEEF-VDW'
nosym = .true.
nspin = 1
ntyp = 6
nat = 34
/
&ELECTRONS
electron_maxstep = 200
mixing_beta = 0.1
conv_thr = 1e-06
/
&IONS
ion_dynamics = 'bfgs'
upscale = 1.0
/
&CELL
/

K_POINTS {automatic}
6 6 1 0 0 0

ATOMIC_SPECIES
C 12.01 C.pbe-n-rrkjus_psl.1.0.0.UPF
Ge 72.64 Ge.pbe-dn-rrkjus_psl.1.0.0.UPF
Li 6.941 Li.pbe-sl-rrkjus_psl.1.0.0.UPF
O 15.99 O.pbe-n-rrkjus_psl.1.0.0.UPF
Pd 106.4 Pd.pbe-n-rrkjus_psl.1.0.0.UPF
V 50.94 V.pbe-spnl-rrkjus_psl.1.0.0.UPF


CELL_PARAMETERS {angstrom}
9.40562000 0.00000000 0.00000000
0.00000000 5.68832000 0.00000000
0.00000000 0.00000000 26.48090000

ATOMIC_POSITIONS {angstrom}
Li 2.35140500 1.42208000 -3.240467729999999 0 0 0
Li 2.35140500 1.42208000 1.08015591
Li 2.35140500 4.26624000 -3.240467729999999 0 0 0
Li 2.35140500 4.26624000 1.08015591
Li 7.05421500 1.42208000 -3.240467729999999 0 0 0
Li 7.05421500 1.42208000 1.08015591
Li 7.05421500 4.26624000 -3.240467729999999 0 0 0
Li 7.05421500 4.26624000 1.08015591
V 0.00000000 1.42208000 -1.0801559099999984 0 0 0
V 0.00000000 1.42208000 3.24046773
V 0.00000000 4.26624000 -1.0801559099999984 0 0 0
V 0.00000000 4.26624000 3.24046773
V 4.70281000 1.42208000 -1.0801559099999984 0 0 0
V 4.70281000 1.42208000 3.24046773
V 4.70281000 4.26624000 -1.0801559099999984 0 0 0
V 4.70281000 4.26624000 3.24046773
Ge 0.00000000 0.00000000 -3.240467729999999 0 0 0
Ge 0.00000000 0.00000000 1.08015591
Ge 0.00000000 2.84416000 -3.240467729999999 0 0 0
Ge 0.00000000 2.84416000 1.08015591
Ge 4.70281000 0.00000000 -3.240467729999999 0 0 0
Ge 4.70281000 0.00000000 1.08015591
Ge 4.70281000 2.84416000 -3.240467729999999 0 0 0
Ge 4.70281000 2.84416000 1.08015591
Pd 2.35140500 0.00000000 -1.0801559099999984 0 0 0
Pd 2.35140500 0.00000000 3.24046773
Pd 2.35140500 2.84416000 -1.0801559099999984 0 0 0
Pd 2.35140500 2.84416000 3.24046773
Pd 7.05421500 0.00000000 -1.0801559099999984 0 0 0
Pd 7.05421500 0.00000000 3.24046773
Pd 7.05421500 2.84416000 -1.0801559099999984 0 0 0
Pd 7.05421500 2.84416000 3.24046773
C 0.00000000 1.42208000 5.14047231
O 0.00000000 1.42208000 6.29053779
