&CONTROL
calculation = 'relax'
prefix = 'scf'
pseudo_dir = '/vol0004/mdt0/data/hp150275/u10028/POT_KKJUS'
outdir = './data'
tprnfor = .true.
nstep = 50
disk_io = 'non'
/
&SYSTEM
ibrav = 0
ecutwfc = 50.0
ecutrho = 400
occupations = 'smearing'
smearing = 'mp'
degauss = 0.01
assume_isolated = 'esm'
esm_bc = 'bc1'
input_dft = 'BEEF-VDW'
nosym = .true.
nspin = 1
ntyp = 4
nat = 34
/
&ELECTRONS
electron_maxstep = 200
mixing_beta = 0.1
conv_thr = 1e-06
/
&IONS
ion_dynamics = 'bfgs'
upscale = 1.0
/
&CELL
/

K_POINTS {automatic}
9 6 2 0  0  0

ATOMIC_SPECIES
C 12.01 C.pbe-n-rrkjus_psl.1.0.0.UPF
Ni 58.69 Ni.pbe-spn-rrkjus_psl.1.0.0.UPF
O 15.99 O.pbe-n-rrkjus_psl.1.0.0.UPF
Sc 44.95 Sc.pbe-spn-rrkjus_psl.1.0.0.UPF

CELL_PARAMETERS {angstrom}
6.37073000 0.00000000 0.00000000
0.00000000 9.00957000 0.00000000
0.00000000 0.00000000 26.75720000

ATOMIC_POSITIONS {angstrom}
Sc 1.59268250 2.25239250 -3.378631640000002 0 0 0
Sc 1.59268250 0.00000000 -1.1262105499999997 0 0 0
Sc 1.59898952 2.25248260 1.10480479
Sc 1.60631586 8.99884861 3.43749748
Sc 1.59268250 6.75717750 -3.378631640000002 0 0 0
Sc 1.59268250 4.50478500 -1.1262105499999997 0 0 0
Sc 1.58541987 6.75717750 1.11524010
Sc 1.60612474 4.51568658 3.43776506
Sc 4.77804750 2.25239250 -3.378631640000002 0 0 0
Sc 4.77804750 0.00000000 -1.1262105499999997 0 0 0
Sc 4.77186789 2.25248260 1.10480479
Sc 4.76460526 8.99884861 3.43749748
Sc 4.77804750 6.75717750 -3.378631640000002 0 0 0
Sc 4.77804750 4.50478500 -1.1262105499999997 0 0 0
Sc 4.78524642 6.75717750 1.11524010
Sc 4.76460526 4.51568658 3.43776506
Ni 0.00000000 0.00000000 -3.378631640000002 0 0 0
Ni 0.00000000 2.25239250 -1.1262105499999997 0 0 0
Ni 0.00012741 0.05865230 1.29103490
Ni 0.00012741 2.25257269 3.33448226
Ni 0.00000000 4.50478500 -3.378631640000002 0 0 0
Ni 0.00000000 6.75717750 -1.1262105499999997 0 0 0
Ni 0.00000000 4.44604260 1.29049976
Ni 0.00012741 6.75717750 3.15173059
Ni 3.18536500 0.00000000 -3.378631640000002 0 0 0
Ni 3.18536500 2.25239250 -1.1262105499999997 0 0 0
Ni 3.18536500 9.00524541 1.22253647
Ni 3.18542871 2.25230240 3.12203010
Ni 3.18536500 4.50478500 -3.378631640000002 0 0 0
Ni 3.18536500 6.75717750 -1.1262105499999997 0 0 0
Ni 3.18523759 4.50937988 1.22253647
Ni 3.18530129 6.75753788 3.13085997
C 0.00000000 2.25239250 5.09697903
O 6.37066629 2.25230240 6.27215525
