&CONTROL
calculation = 'relax'
prefix = 'scf'
pseudo_dir = '/vol0004/mdt0/data/hp150275/u10028/POT_KKJUS'
outdir = './data'
tprnfor = .true.
nstep = 50
disk_io = 'non'
/
&SYSTEM
ibrav = 0
ecutwfc = 50.0
ecutrho = 400
occupations = 'smearing'
smearing = 'mp'
degauss = 0.01
assume_isolated = 'esm'
esm_bc = 'bc1'
input_dft = 'BEEF-VDW'
nosym = .true.
nspin = 1
ntyp = 2
nat = 32
/
&ELECTRONS
electron_maxstep = 200
mixing_beta = 0.1
conv_thr = 1e-06
/
&IONS
ion_dynamics = 'bfgs'
upscale = 1.0
/
&CELL
/

K_POINTS {automatic}
9 6 2 0  0  0

ATOMIC_SPECIES
Li 6.941 Li.pbe-sl-rrkjus_psl.1.0.0.UPF
Pb 207.2 Pb.pbe-dn-rrkjus_psl.1.0.0.UPF

CELL_PARAMETERS {angstrom}
7.21597000 0.00000000 0.00000000
0.00000000 10.20490000 0.00000000
0.00000000 0.00000000 27.65370000

ATOMIC_POSITIONS {angstrom}
Li 0.00000000 0.00000000 -3.8267190100000015 0 0 0
Li 0.00000000 2.55122500 -1.2756651800000007 0 0 0
Li 7.21582568 10.20469590 1.25741374
Li 7.21589784 2.55387827 3.82367710
Li 0.00000000 5.10245000 -3.8267190100000015 0 0 0
Li 0.00000000 7.65367500 -1.2756651800000007 0 0 0
Li 0.00021648 5.10275615 1.25686067
Li 0.00000000 7.65102173 3.82423017
Li 3.60798500 0.00000000 -3.8267190100000015 0 0 0
Li 3.60798500 2.55122500 -1.2756651800000007 0 0 0
Li 3.60820148 0.00040820 1.25824335
Li 3.60805716 2.55398032 3.82063519
Li 3.60798500 5.10245000 -3.8267190100000015 0 0 0
Li 3.60798500 7.65367500 -1.2756651800000007 0 0 0
Li 3.60784068 5.10224590 1.25713720
Li 3.60798500 7.65091968 3.82146480
Pb 1.80399250 2.55122500 -3.8267190100000015 0 0 0
Pb 1.80399250 0.00000000 -1.2756651800000007 0 0 0
Pb 1.80312658 2.55122500 1.37190006
Pb 1.80399250 5.10265410 3.83722741
Pb 1.80399250 7.65367500 -3.8267190100000015 0 0 0
Pb 1.80399250 5.10245000 -1.2756651800000007 0 0 0
Pb 1.80334306 7.65377705 1.37300621
Pb 1.80348738 10.20438976 3.83667434
Pb 5.41197750 2.55122500 -3.8267190100000015 0 0 0
Pb 5.41197750 0.00000000 -1.2756651800000007 0 0 0
Pb 5.41269910 2.55142910 1.37134698
Pb 5.41204966 5.10265410 3.83722741
Pb 5.41197750 7.65367500 -3.8267190100000015 0 0 0
Pb 5.41197750 5.10245000 -1.2756651800000007 0 0 0
Pb 5.41255478 7.65367500 1.37300621
Pb 5.41255478 10.20438976 3.83667434
