&CONTROL
calculation = 'relax'
prefix = 'scf'
pseudo_dir = '/vol0004/mdt0/data/hp150275/u10028/POT_KKJUS'
outdir = './data'
tprnfor = .true.
nstep = 50
disk_io = 'non'
/
&SYSTEM
ibrav = 0
ecutwfc = 50.0
ecutrho = 400
occupations = 'smearing'
smearing = 'mp'
degauss = 0.01
assume_isolated = 'esm'
esm_bc = 'bc1'
input_dft = 'BEEF-VDW'
nosym = .true.
nspin = 1
ntyp = 3
nat = 17
/
&ELECTRONS
electron_maxstep = 200
mixing_beta = 0.1
conv_thr = 1e-06
/
&IONS
ion_dynamics = 'bfgs'
upscale = 1.0
/
&CELL
/

K_POINTS {automatic}
7 10 3 0  0  0

ATOMIC_SPECIES
C 12.01 C.pbe-n-rrkjus_psl.1.0.0.UPF
K 39.09 K.pbe-spn-rrkjus_psl.1.0.0.UPF
Pd 106.4 Pd.pbe-n-rrkjus_psl.1.0.0.UPF

CELL_PARAMETERS {angstrom}
11.07580000 0.00000000 0.00000000
0.00000000 7.83179000 0.00000000
0.00000000 0.00000000 25.87380000

ATOMIC_POSITIONS {angstrom}
K 0.00000000 3.91589500 -2.936935039999998 0 0 0
K 2.76895000 5.87384250 -0.9790645900000001 0 0 0
K 2.76895000 1.95794750 -0.9790645900000001 0 0 0
K 0.00000000 0.00000000 0.40518371
K 1.96717284 2.02412613 3.26216870
K 1.96706208 5.80766387 3.26216870
K 5.53790000 3.91589500 -2.936935039999998 0 0 0
K 8.30685000 5.87384250 -0.9790645900000001 0 0 0
K 8.30685000 1.95794750 -0.9790645900000001 0 0 0
K 5.53790000 7.83171168 0.87246454
K 9.10862716 2.02420444 3.26216870
K 9.10862716 5.80766387 3.26216870
Pd 0.00000000 0.00000000 -2.936935039999998 0 0 0
Pd 0.00000000 3.91589500 0.53739883
Pd 5.53790000 0.00000000 -2.936935039999998 0 0 0
Pd 5.53790000 3.91589500 0.31307298
C 11.07568924 0.00007832 3.19360313
