&CONTROL
calculation = 'relax'
prefix = 'scf'
pseudo_dir = '/vol0004/mdt0/data/hp150275/u10028/POT_KKJUS'
outdir = './data'
tprnfor = .true.
nstep = 50
disk_io = 'non'
/
&SYSTEM
ibrav = 0
ecutwfc = 50.0
ecutrho = 400
occupations = 'smearing'
smearing = 'mp'
degauss = 0.01
assume_isolated = 'esm'
esm_bc = 'bc1'
input_dft = 'BEEF-VDW'
nosym = .true.
nspin = 1
ntyp = 5
nat = 34
/
&ELECTRONS
electron_maxstep = 200
mixing_beta = 0.1
conv_thr = 1e-06
/
&IONS
ion_dynamics = 'bfgs'
upscale = 1.0
/
&CELL
/

K_POINTS {automatic}
9 6 2 0  0  0

ATOMIC_SPECIES
C 12.01 C.pbe-n-rrkjus_psl.1.0.0.UPF
Mg 24.30 Mg.pbe-spnl-rrkjus_psl.1.0.0.UPF
Ni 58.69 Ni.pbe-spn-rrkjus_psl.1.0.0.UPF
O 15.99 O.pbe-n-rrkjus_psl.1.0.0.UPF
Sn 118.7 Sn.pbe-dn-rrkjus_psl.1.0.0.UPF

CELL_PARAMETERS {angstrom}
6.22749000 0.00000000 0.00000000
0.00000000 8.80700000 0.00000000
0.00000000 0.00000000 26.60530000

ATOMIC_POSITIONS {angstrom}
Mg 0.00000000 0.00000000 -3.3025158899999987 0 0 0
Mg 3.11374500 2.20175000 -1.1009273099999994 0 0 0
Mg 3.11374500 6.60525000 -1.1009273099999994 0 0 0
Mg 0.00000000 4.40350000 -3.3025158899999987 0 0 0
Mg 6.19622800 4.40323579 1.01499220
Mg 3.07096214 6.52801261 3.44857899
Mg 3.07108669 2.27898739 3.44911109
Mg 0.02304171 0.00008807 1.09347783
Ni 1.55687250 0.00000000 -1.1009273099999994 0 0 0
Ni 4.67061750 4.40350000 -1.1009273099999994 0 0 0
Ni 4.67061750 0.00000000 -1.1009273099999994 0 0 0
Ni 1.55687250 4.40350000 -1.1009273099999994 0 0 0
Ni 4.67061750 6.60525000 -3.3025158899999987 0 0 0
Ni 1.55687250 2.20175000 -3.3025158899999987 0 0 0
Ni 1.55687250 6.60525000 -3.3025158899999987 0 0 0
Ni 4.67061750 2.20175000 -3.3025158899999987 0 0 0
Ni 1.36101794 4.40350000 3.11973748
Ni 4.75176169 8.80691193 3.10643483
Ni 4.75188624 4.40350000 3.11308615
Ni 1.55089411 0.00000000 3.43155159
Ni 4.62976517 2.18519284 1.15759660
Ni 1.53613496 6.61220753 1.20096324
Ni 1.53607268 2.19452826 1.20176140
Ni 4.62957834 6.62136681 1.15733055
Sn 0.00000000 6.60525000 -1.1009273099999994 0 0 0
Sn 3.11374500 0.00000000 -3.3025158899999987 0 0 0
Sn 0.00000000 2.20175000 -1.1009273099999994 0 0 0
Sn 3.11374500 4.40350000 -3.3025158899999987 0 0 0
Sn 6.15761756 2.21020472 3.43527634
Sn 3.08198480 4.40350000 1.11343181
Sn 6.15774211 6.59670721 3.43501028
Sn 3.08080158 8.80682386 1.11928497
C 2.14051286 8.80682386 5.09571311
O 2.41371285 8.80673579 6.22776862
