&CONTROL
calculation = 'relax'
prefix = 'scf'
pseudo_dir = '/vol0403/data/hp230205/u10028/POT_HYBRID_KKJUS_GBRV'
outdir = './data'
tprnfor = .true.
nstep = 50
disk_io = 'non'
/
&SYSTEM
ibrav = 0
ecutwfc = 50.0
ecutrho = 400
occupations = 'smearing'
smearing = 'mp'
degauss = 0.01
assume_isolated = 'esm'
esm_bc = 'bc1'
input_dft = 'BEEF-VDW'
nosym = .true.
nspin = 1
ntyp = 6
nat = 18
/
&ELECTRONS
electron_maxstep = 200
mixing_beta = 0.1
conv_thr = 1e-06
/
&IONS
ion_dynamics = 'bfgs'
upscale = 1.0
/
&CELL
/

K_POINTS {automatic}
6 6 1 0 0 0

ATOMIC_SPECIES
C 12.01 C.pbe-n-rrkjus_psl.1.0.0.UPF
Ge 72.64 Ge.pbe-dn-rrkjus_psl.1.0.0.UPF
In 114.8 In.pbe-dn-rrkjus_psl.1.0.0.UPF
Li 6.941 Li.pbe-sl-rrkjus_psl.1.0.0.UPF
O 15.99 O.pbe-n-rrkjus_psl.1.0.0.UPF
Y 88.90 Y.pbe-spn-rrkjus_psl.1.0.0.UPF


CELL_PARAMETERS {angstrom}
6.03525000 0.00000000 0.00000000
0.00000000 9.31878000 0.00000000
0.00000000 0.00000000 24.52620000

ATOMIC_POSITIONS {angstrom}
Li 4.51183220 2.32969500 -0.7544259099999984 0 0 0
Li 1.77647584 2.32969500 2.34323315
Li 4.51183220 6.98908500 -0.7544259099999984 0 0 0
Li 1.77478597 6.98908500 2.24684518
Y 3.01762500 0.00000000 -2.263032469999999 0 0 0
Y 0.04490226 0.00232970 0.73676705
Y 3.01762500 4.65939000 -2.263032469999999 0 0 0
Y 0.04490226 4.65706031 0.73676705
In 1.49420720 2.32969500 -0.7544259099999984 0 0 0
In 4.66247203 2.32978819 2.35059101
In 1.49420720 6.98908500 -0.7544259099999984 0 0 0
In 4.70628795 6.98908500 2.32508376
Ge 0.00000000 0.00000000 -2.263032469999999 0 0 0
Ge 3.09898017 9.29939694 1.04555191
Ge 0.00000000 4.65939000 -2.263032469999999 0 0 0
Ge 3.09898017 4.67895944 1.04555191
C 1.66971227 2.32969500 4.43801589
O 1.54152355 2.32960181 5.57308843
