&CONTROL
calculation = 'relax'
prefix = 'scf'
pseudo_dir = '/vol0004/mdt0/data/hp150275/u10028/POT_HYBRID_KKJUS_GBRV'
outdir = './data'
tprnfor = .true.
nstep = 50
disk_io = 'non'
/
&SYSTEM
ibrav = 0
ecutwfc = 50.0
ecutrho = 400
occupations = 'smearing'
smearing = 'mp'
degauss = 0.01
assume_isolated = 'esm'
esm_bc = 'bc1'
input_dft = 'BEEF-VDW'
nosym = .true.
nspin = 2
ntyp = 4
nat = 33
starting_magnetization(1) = 0.0
starting_magnetization(2) = 0.1
starting_magnetization(3) = 0.0
starting_magnetization(4) = 0.0
/
&ELECTRONS
electron_maxstep = 300
mixing_beta = 0.1
conv_thr = 1e-06
/
&IONS
ion_dynamics = 'bfgs'
upscale = 1.0
/
&CELL
/

K_POINTS {automatic}
8 6 1 0 0 0

ATOMIC_SPECIES
C 12.01 C.pbe-n-rrkjus_psl.1.0.0.UPF
Co 58.93 co_pbe_v1.2.uspp.F.UPF
Sc 44.95 Sc.pbe-spn-rrkjus_psl.1.0.0.UPF
Sn 118.7 Sn.pbe-dn-rrkjus_psl.1.0.0.UPF

CELL_PARAMETERS {angstrom}
6.22913000 0.00000000 0.00000000
0.00000000 8.80931000 0.00000000
0.00000000 0.00000000 26.60700000

ATOMIC_POSITIONS {angstrom}
Sc 0.00000000 0.00000000 -3.3035251199999998 0 0 0
Sc 3.11456500 2.20232750 -1.1012637299999994 0 0 0
Sc 3.11456500 6.60698250 -1.1012637299999994 0 0 0
Sc 0.00000000 4.40465500 -3.3035251199999998 0 0 0
Sc 6.18515234 4.40765017 1.06667463
Sc 3.21192630 6.60724678 3.36951048
Sc 3.33738098 2.20223941 3.45039576
Sc 6.18521463 8.80631483 1.06667463
Co 1.55728250 0.00000000 -1.1012637299999994 0 0 0
Co 4.67184750 4.40465500 -1.1012637299999994 0 0 0
Co 4.67184750 0.00000000 -1.1012637299999994 0 0 0
Co 1.55728250 4.40465500 -1.1012637299999994 0 0 0
Co 4.67184750 6.60698250 -3.3035251199999998 0 0 0
Co 1.55728250 2.20232750 -3.3035251199999998 0 0 0
Co 1.55728250 6.60698250 -3.3035251199999998 0 0 0
Co 4.67184750 2.20232750 -3.3035251199999998 0 0 0
Co 1.23006630 4.01739773 3.18512397
Co 4.86993383 0.07716956 3.21545595
Co 4.86993383 4.32713307 3.21572202
Co 1.23025318 0.38725727 3.18512397
Co 4.64288205 2.20232750 1.15208310
Co 1.59054605 6.60689441 1.20343461
Co 1.53398555 2.20232750 1.12920108
Co 4.63553167 6.60707059 1.20237033
Sn 0.00000000 6.60698250 -1.1012637299999994 0 0 0
Sn 3.11456500 0.00000000 -3.3035251199999998 0 0 0
Sn 0.00000000 2.20232750 -1.1012637299999994 0 0 0
Sn 3.11456500 4.40465500 -3.3035251199999998 0 0 0
Sn 5.99547533 2.20232750 4.71981573
Sn 3.10652942 4.39364336 1.17044193
Sn 0.07456269 6.60689441 3.42299055
Sn 3.10659171 0.01101164 1.17017586
C 1.13563269 2.20241559 2.91612720
