&CONTROL
calculation = 'relax'
prefix = 'scf'
pseudo_dir = '/vol0403/data/hp230205/u10028/POT_HYBRID_KKJUS_GBRV'
outdir = './data'
tprnfor = .true.
nstep = 50
disk_io = 'non'
/
&SYSTEM
ibrav = 0
ecutwfc = 50.0
ecutrho = 400
occupations = 'smearing'
smearing = 'mp'
degauss = 0.01
assume_isolated = 'esm'
esm_bc = 'bc1'
input_dft = 'BEEF-VDW'
nosym = .true.
nspin = 1
ntyp = 6
nat = 34
/
&ELECTRONS
electron_maxstep = 200
mixing_beta = 0.1
conv_thr = 1e-06
/
&IONS
ion_dynamics = 'bfgs'
upscale = 1.0
/
&CELL
/

K_POINTS {automatic}
6 6 1 0 0 0

ATOMIC_SPECIES
C 12.01 C.pbe-n-rrkjus_psl.1.0.0.UPF
Li 6.941 Li.pbe-sl-rrkjus_psl.1.0.0.UPF
O 15.99 O.pbe-n-rrkjus_psl.1.0.0.UPF
Pb 207.2 Pb.pbe-dn-rrkjus_psl.1.0.0.UPF
Sn 118.7 Sn.pbe-dn-rrkjus_psl.1.0.0.UPF
Y 88.90 Y.pbe-spn-rrkjus_psl.1.0.0.UPF


CELL_PARAMETERS {angstrom}
8.87168000 0.00000000 0.00000000
0.00000000 9.36828000 0.00000000
0.00000000 0.00000000 27.23350000

ATOMIC_POSITIONS {angstrom}
Li 0.00000000 0.00000000 -3.616608799999998 0 0 0
Li 8.86014682 0.00000000 1.22196715
Li 0.00000000 4.68414000 -3.616608799999998 0 0 0
Li 8.84648443 4.68414000 1.21951613
Li 4.43584000 0.00000000 -3.616608799999998 0 0 0
Li 4.44719575 0.00000000 1.22196715
Li 4.43584000 4.68414000 -3.616608799999998 0 0 0
Li 4.46085814 4.68414000 1.21951613
Y 0.00000000 2.34207000 -1.2056270500000004 0 0 0
Y 0.00292765 2.34188263 3.58093291
Y 0.00000000 7.02621000 -1.2056270500000004 0 0 0
Y 0.00292765 7.02639737 3.58093291
Y 4.43584000 2.34207000 -1.2056270500000004 0 0 0
Y 4.43273491 2.34188263 3.58093291
Y 4.43584000 7.02621000 -1.2056270500000004 0 0 0
Y 4.43273491 7.02639737 3.58093291
Sn 2.21792000 0.00000000 -1.2056270500000004 0 0 0
Sn 2.21783128 0.00000000 3.64438697
Sn 2.21792000 4.68414000 -1.2056270500000004 0 0 0
Sn 2.21783128 4.68414000 3.67679483
Sn 6.65376000 0.00000000 -1.2056270500000004 0 0 0
Sn 6.65367128 0.00000000 3.70647935
Sn 6.65376000 4.68414000 -1.2056270500000004 0 0 0
Sn 6.65367128 4.68414000 3.65636971
Pb 2.21792000 2.34207000 -3.616608799999998 0 0 0
Pb 2.21783128 2.34347524 1.25137932
Pb 2.21792000 7.02621000 -3.616608799999998 0 0 0
Pb 2.21783128 7.02480476 1.25137932
Pb 6.65376000 2.34207000 -3.616608799999998 0 0 0
Pb 6.65367128 2.32857968 1.25383034
Pb 6.65376000 7.02621000 -3.616608799999998 0 0 0
Pb 6.65367128 7.03979401 1.25383034
C 2.22137996 9.36818632 8.06547336
O 2.21756513 0.00000000 9.20083797
