&CONTROL
calculation = 'relax'
prefix = 'scf'
pseudo_dir = '/vol0004/mdt0/data/hp150275/u10028/POT_KKJUS'
outdir = './data'
tprnfor = .true.
nstep = 50
disk_io = 'non'
/
&SYSTEM
ibrav = 0
ecutwfc = 50.0
ecutrho = 400
occupations = 'smearing'
smearing = 'mp'
degauss = 0.01
assume_isolated = 'esm'
esm_bc = 'bc1'
input_dft = 'BEEF-VDW'
nosym = .true.
nspin = 1
ntyp = 4
nat = 34
/
&ELECTRONS
electron_maxstep = 200
mixing_beta = 0.1
conv_thr = 1e-06
/
&IONS
ion_dynamics = 'bfgs'
upscale = 1.0
/
&CELL
/

K_POINTS {automatic}
8 6 2 0  0  0

ATOMIC_SPECIES
C 12.01 C.pbe-n-rrkjus_psl.1.0.0.UPF
Ca 40.07 Ca.pbe-spn-rrkjus_psl.1.0.0.UPF
In 114.8 In.pbe-dn-rrkjus_psl.1.0.0.UPF
O 15.99 O.pbe-n-rrkjus_psl.1.0.0.UPF

CELL_PARAMETERS {angstrom}
7.80577000 0.00000000 0.00000000
0.00000000 11.03900000 0.00000000
0.00000000 0.00000000 28.27930000

ATOMIC_POSITIONS {angstrom}
Ca 0.00000000 0.00000000 -4.139523929999999 0 0 0
Ca 0.00000000 2.75975000 -1.3797470499999989 0 0 0
Ca 0.00000000 0.02538970 1.34468071
Ca 7.80569194 2.75919805 4.08409651
Ca 0.00000000 5.51950000 -4.139523929999999 0 0 0
Ca 0.00000000 8.27925000 -1.3797470499999989 0 0 0
Ca 0.00000000 5.49609732 1.34411513
Ca 0.00000000 8.27969156 4.35699175
Ca 3.90288500 0.00000000 -4.139523929999999 0 0 0
Ca 3.90288500 2.75975000 -1.3797470499999989 0 0 0
Ca 3.90296306 11.00853236 1.36871812
Ca 3.90288500 2.76041234 4.27328502
Ca 3.90288500 5.51950000 -4.139523929999999 0 0 0
Ca 3.90288500 8.27925000 -1.3797470499999989 0 0 0
Ca 3.90288500 5.55217544 1.36956650
Ca 3.90288500 8.27836688 4.31598677
In 1.95144250 2.75975000 -4.139523929999999 0 0 0
In 1.95144250 0.00000000 -1.3797470499999989 0 0 0
In 2.05549341 2.76030195 1.46090864
In 1.93910938 11.00720768 4.13415087
In 1.95144250 8.27925000 -4.139523929999999 0 0 0
In 1.95144250 5.51950000 -1.3797470499999989 0 0 0
In 1.92084388 8.28090585 1.58279242
In 1.93614319 5.55040920 4.13415087
In 5.85432750 2.75975000 -4.139523929999999 0 0 0
In 5.85432750 0.00000000 -1.3797470499999989 0 0 0
In 5.75019853 2.76041234 1.46090864
In 5.86658256 11.00709729 4.13443366
In 5.85432750 8.27925000 -4.139523929999999 0 0 0
In 5.85432750 5.51950000 -1.3797470499999989 0 0 0
In 5.88500418 8.28090585 1.58279242
In 5.86962681 5.55040920 4.13415087
C 0.00000000 2.73866551 6.64676667
O 0.00007806 2.73115899 7.79292670
