&CONTROL
calculation = 'relax'
prefix = 'scf'
pseudo_dir = '/vol0403/data/hp230205/u10028/POT_HYBRID_KKJUS_GBRV'
outdir = './data'
tprnfor = .true.
nstep = 50
disk_io = 'non'
/
&SYSTEM
ibrav = 0
ecutwfc = 50.0
ecutrho = 400
occupations = 'smearing'
smearing = 'mp'
degauss = 0.01
assume_isolated = 'esm'
esm_bc = 'bc1'
input_dft = 'BEEF-VDW'
nosym = .true.
nspin = 1
ntyp = 6
nat = 34
/
&ELECTRONS
electron_maxstep = 200
mixing_beta = 0.1
conv_thr = 1e-06
/
&IONS
ion_dynamics = 'bfgs'
upscale = 1.0
/
&CELL
/

K_POINTS {automatic}
6 6 1 0 0 0

ATOMIC_SPECIES
C 12.01 C.pbe-n-rrkjus_psl.1.0.0.UPF
Cu 63.54 Cu.pbe-dn-rrkjus_psl.1.0.0.UPF
In 114.8 In.pbe-dn-rrkjus_psl.1.0.0.UPF
O 15.99 O.pbe-n-rrkjus_psl.1.0.0.UPF
Sn 118.7 Sn.pbe-dn-rrkjus_psl.1.0.0.UPF
Y 88.90 Y.pbe-spn-rrkjus_psl.1.0.0.UPF


CELL_PARAMETERS {angstrom}
9.14612000 0.00000000 0.00000000
0.00000000 8.82850000 0.00000000
0.00000000 0.00000000 26.63560000

ATOMIC_POSITIONS {angstrom}
Y 2.28653000 2.20712500 -3.3177303400000007 0 0 0
Y 2.28653000 2.30935903 1.14612987
Y 2.28653000 6.62137500 -3.3177303400000007 0 0 0
Y 2.28653000 6.51914097 1.14612987
Y 6.85959000 2.20712500 -3.3177303400000007 0 0 0
Y 6.85959000 2.20818442 1.10830732
Y 6.85959000 6.62137500 -3.3177303400000007 0 0 0
Y 6.85959000 6.62031558 1.10830732
In 0.00000000 2.20712500 -1.10591011 0 0 0
In 9.11474881 2.30520964 3.35768374
In 0.00000000 6.62137500 -1.10591011 0 0 0
In 9.11474881 6.52329037 3.35768374
In 4.57306000 2.20712500 -1.10591011 0 0 0
In 4.60443119 2.30520964 3.35768374
In 4.57306000 6.62137500 -1.10591011 0 0 0
In 4.60443119 6.52329037 3.35768374
Cu 0.00000000 0.00000000 -3.3177303400000007 0 0 0
Cu 9.08895675 0.00000000 0.91733006
Cu 0.00000000 4.41425000 -3.3177303400000007 0 0 0
Cu 9.09636511 4.41425000 1.02174162
Cu 4.57306000 0.00000000 -3.3177303400000007 0 0 0
Cu 4.63022325 0.00000000 0.91733006
Cu 4.57306000 4.41425000 -3.3177303400000007 0 0 0
Cu 4.62281489 4.41425000 1.02174162
Sn 2.28653000 0.00000000 -1.10591011 0 0 0
Sn 2.28653000 0.00000000 3.16803826
Sn 2.28653000 4.41425000 -1.10591011 0 0 0
Sn 2.28653000 4.41425000 3.67491373
Sn 6.85959000 0.00000000 -1.10591011 0 0 0
Sn 6.85959000 0.00000000 3.42480545
Sn 6.85959000 4.41425000 -1.10591011 0 0 0
Sn 6.85959000 4.41425000 3.50551132
C 2.28653000 0.00000000 5.52502251
O 2.28653000 0.00000000 6.67168509
