&CONTROL
calculation = 'relax'
prefix = 'scf'
pseudo_dir = '/vol0004/mdt0/data/hp150275/u10028/POT_KKJUS'
outdir = './data'
tprnfor = .true.
nstep = 50
disk_io = 'non'
/
&SYSTEM
ibrav = 0
ecutwfc = 50.0
ecutrho = 400
occupations = 'smearing'
smearing = 'mp'
degauss = 0.01
assume_isolated = 'esm'
esm_bc = 'bc1'
input_dft = 'BEEF-VDW'
nosym = .true.
nspin = 1
ntyp = 3
nat = 16
/
&ELECTRONS
electron_maxstep = 200
mixing_beta = 0.1
conv_thr = 1e-06
/
&IONS
ion_dynamics = 'bfgs'
upscale = 1.0
/
&CELL
/

K_POINTS {automatic}
10 10 2 0  0  0

ATOMIC_SPECIES
Ga 69.72 Ga.pbe-dnl-rrkjus_psl.1.0.0.UPF
Li 6.941 Li.pbe-sl-rrkjus_psl.1.0.0.UPF
Pt 195.0 Pt.pbe-n-rrkjus_psl.1.0.0.UPF

CELL_PARAMETERS {angstrom}
6.10853000 0.00000000 0.00000000
0.00000000 6.10853000 0.00000000
0.00000000 0.00000000 24.58140000

ATOMIC_POSITIONS {angstrom}
Li 0.00000000 0.00000000 0.67156385
Li 3.05426500 0.00000000 -2.290740669999998 0 0 0
Li 0.00000000 3.05426500 -2.290740669999998 0 0 0
Li 3.05426500 3.05426500 0.65484850
Li 1.52584971 1.52578862 2.46723512
Li 1.52713250 4.58139750 -0.7634982800000003 0 0 0
Li 4.58274138 4.58274138 2.46723512
Li 4.58139750 1.52713250 -0.7634982800000003 0 0 0
Ga 1.52713250 1.52713250 -0.7634982800000003 0 0 0
Ga 1.53073653 4.57779347 2.14276064
Ga 4.58139750 4.58139750 -0.7634982800000003 0 0 0
Ga 4.57779347 1.53073653 2.14276064
Pt 0.00000000 0.00000000 -2.290740669999998 0 0 0
Pt 3.05426500 3.05426500 -2.290740669999998 0 0 0
Pt 3.05426500 0.00000000 0.78881713
Pt 0.00000000 3.05426500 0.78881713
