&CONTROL
calculation = 'relax'
prefix = 'scf'
pseudo_dir = '/vol0004/mdt0/data/hp150275/u10028/POT_KKJUS'
outdir = './data'
tprnfor = .true.
nstep = 50
disk_io = 'non'
/
&SYSTEM
ibrav = 0
ecutwfc = 50.0
ecutrho = 400
occupations = 'smearing'
smearing = 'mp'
degauss = 0.01
assume_isolated = 'esm'
esm_bc = 'bc1'
input_dft = 'BEEF-VDW'
nosym = .true.
nspin = 1
ntyp = 2
nat = 16
/
&ELECTRONS
electron_maxstep = 200
mixing_beta = 0.1
conv_thr = 1e-06
/
&IONS
ion_dynamics = 'bfgs'
upscale = 1.0
/
&CELL
/

K_POINTS {automatic}
8 12 2 0  0  0

ATOMIC_SPECIES
Al 26.98 Al.pbe-nl-rrkjus_psl.1.0.0.UPF
Ni 58.69 Ni.pbe-spn-rrkjus_psl.1.0.0.UPF

CELL_PARAMETERS {angstrom}
7.20976000 0.00000000 0.00000000
0.00000000 5.09807000 0.00000000
0.00000000 0.00000000 23.82360000

ATOMIC_POSITIONS {angstrom}
Al 0.00000000 0.00000000 -1.9118438999999974 0 0 0
Al 7.20911112 2.54903500 0.62775186
Al 3.60488000 0.00000000 -1.9118438999999974 0 0 0
Al 3.60545678 2.54903500 0.62751362
Ni 0.00000000 2.54903500 -1.9118438999999974 0 0 0
Ni 1.80244000 3.82355250 -0.6372812999999979 0 0 0
Ni 1.80244000 1.27451750 -0.6372812999999979 0 0 0
Ni 7.20932741 0.00005098 0.66777551
Ni 1.80287259 1.29394115 1.80940242
Ni 1.80280049 3.80407787 1.80916418
Ni 3.60488000 2.54903500 -1.9118438999999974 0 0 0
Ni 5.40732000 3.82355250 -0.6372812999999979 0 0 0
Ni 5.40732000 1.27451750 -0.6372812999999979 0 0 0
Ni 3.60545678 0.00000000 0.66658433
Ni 5.40710371 1.29389017 1.81130831
Ni 5.40703161 3.80417983 1.81107007
