&CONTROL
calculation = 'relax'
prefix = 'scf'
pseudo_dir = '/vol0403/data/hp230205/u10028/POT_HYBRID_KKJUS_GBRV'
outdir = './data'
tprnfor = .true.
nstep = 50
disk_io = 'non'
/
&SYSTEM
ibrav = 0
ecutwfc = 50.0
ecutrho = 400
occupations = 'smearing'
smearing = 'mp'
degauss = 0.01
assume_isolated = 'esm'
esm_bc = 'bc1'
input_dft = 'BEEF-VDW'
nosym = .true.
nspin = 1
ntyp = 6
nat = 34
/
&ELECTRONS
electron_maxstep = 200
mixing_beta = 0.1
conv_thr = 1e-06
/
&IONS
ion_dynamics = 'bfgs'
upscale = 1.0
/
&CELL
/

K_POINTS {automatic}
9 6 2 0  0  0

ATOMIC_SPECIES
Ag 107.8 Ag.pbe-n-rrkjus_psl.1.0.0.UPF
C 12.01 C.pbe-n-rrkjus_psl.1.0.0.UPF
Ge 72.64 Ge.pbe-dn-rrkjus_psl.1.0.0.UPF
Li 6.941 Li.pbe-sl-rrkjus_psl.1.0.0.UPF
O 15.99 O.pbe-n-rrkjus_psl.1.0.0.UPF
Pd 106.4 Pd.pbe-n-rrkjus_psl.1.0.0.UPF


CELL_PARAMETERS {angstrom}
6.28256000 0.00000000 0.00000000
0.00000000 8.88488000 0.00000000
0.00000000 0.00000000 26.66370000

ATOMIC_POSITIONS {angstrom}
Li 1.57064000 0.00000000 -1.1105430999999975 0 0 0
Li 1.57064000 4.44244000 -1.1105430999999975 0 0 0
Li 4.71192000 2.22122000 -3.33189595 0 0 0
Li 4.71192000 6.66366000 -3.33189595 0 0 0
Li 1.43525083 4.47984534 3.58600101
Li 1.43531366 8.84738581 3.58626765
Li 4.64337727 6.66366000 1.01402051
Li 4.68258044 2.22122000 1.10894328
Ag 0.00000000 0.00000000 -3.33189595 0 0 0
Ag 0.00000000 4.44244000 -3.33189595 0 0 0
Ag 3.14128000 6.66366000 -1.1105430999999975 0 0 0
Ag 3.14128000 2.22122000 -1.1105430999999975 0 0 0
Ag 6.23311625 4.38415519 1.19400049
Ag 6.23311625 0.05819596 1.19426712
Ag 3.23941359 2.22122000 3.33002949
Ag 3.15648380 6.66366000 3.33056277
Ge 4.71192000 0.00000000 -1.1105430999999975 0 0 0
Ge 4.71192000 4.44244000 -1.1105430999999975 0 0 0
Ge 1.57064000 2.22122000 -3.33189595 0 0 0
Ge 1.57064000 6.66366000 -3.33189595 0 0 0
Ge 4.70733373 4.48393239 3.44548331
Ge 4.70727091 8.84338761 3.44548331
Ge 1.54431607 6.66366000 1.12227513
Ge 1.57239912 2.22122000 1.10494373
Pd 0.00000000 2.22122000 -1.1105430999999975 0 0 0
Pd 0.00000000 6.66366000 -1.1105430999999975 0 0 0
Pd 3.14128000 4.44244000 -3.33189595 0 0 0
Pd 3.14128000 0.00000000 -3.33189595 0 0 0
Pd 6.12116103 6.66366000 3.08765646
Pd 6.26396362 2.22113115 3.47374684
Pd 3.04270663 0.00728560 1.26705902
Pd 3.04270663 4.43506555 1.26705902
C 0.63799397 2.22122000 5.31060913
O 0.73191824 2.22122000 6.46194770
