&CONTROL
calculation = 'relax'
prefix = 'scf'
pseudo_dir = '/vol0004/mdt0/data/hp150275/u10028/POT_HYBRID_KKJUS_GBRV'
outdir = './data'
tprnfor = .true.
nstep = 50
disk_io = 'non'
/
&SYSTEM
ibrav = 0
ecutwfc = 50.0
ecutrho = 400
occupations = 'smearing'
smearing = 'mp'
degauss = 0.01
assume_isolated = 'esm'
esm_bc = 'bc1'
input_dft = 'BEEF-VDW'
nosym = .true.
nspin = 2
ntyp = 5
nat = 18
starting_magnetization(1) = 0.1
starting_magnetization(2) = 0.1
starting_magnetization(3) = 0.1
starting_magnetization(4) = 0.1
starting_magnetization(5) = 0.1
/
&ELECTRONS
electron_maxstep = 200
mixing_beta = 0.1
conv_thr = 1e-06
/
&IONS
ion_dynamics = 'bfgs'
upscale = 1.0
/
&CELL
/

K_POINTS {automatic}
8 8 1 0 0 0

ATOMIC_SPECIES
C 12.01 C.pbe-n-rrkjus_psl.1.0.0.UPF
Co 58.93 co_pbe_v1.2.uspp.F.UPF
Fe 55.84 fe_pbe_v1.5.uspp.F.UPF
In 114.8 In.pbe-dn-rrkjus_psl.1.0.0.UPF
O 15.99 O.pbe-n-rrkjus_psl.1.0.0.UPF

CELL_PARAMETERS {angstrom}
6.01864000 0.00000000 0.00000000
0.00000000 6.01864000 0.00000000
0.00000000 0.00000000 24.51400000

ATOMIC_POSITIONS {angstrom}
In 0.00000000 0.00000000 -2.2570039800000004 0 0 0
In 3.00932000 3.00932000 -2.2570039800000004 0 0 0
In 3.00420416 0.00595845 0.79082164
In 0.00583808 3.00402360 0.79082164
Fe 5.98854680 5.98902829 0.86338308
Fe 3.00932000 0.00000000 -2.2570039800000004 0 0 0
Fe 0.00000000 3.00932000 -2.2570039800000004 0 0 0
Fe 3.03941320 3.03899190 0.86313794
Co 1.50466000 1.50466000 -0.7523346599999989 0 0 0
Co 4.51416056 4.51422075 2.23347054
Co 4.51398000 1.50466000 -0.7523346599999989 0 0 0
Co 1.50441925 4.51542447 2.25283660
Co 4.51398000 4.51398000 -0.7523346599999989 0 0 0
Co 1.50321553 1.50315534 2.22636148
Co 1.50466000 4.51398000 -0.7523346599999989 0 0 0
Co 4.51542447 1.50435907 2.25234632
C 1.50285441 1.50285441 3.97102286
O 1.50255348 1.50249329 5.13323160
