&CONTROL
calculation = 'relax'
prefix = 'scf'
pseudo_dir = '/vol0403/data/hp230205/u10028/POT_HYBRID_KKJUS_GBRV'
outdir = './data'
tprnfor = .true.
nstep = 70
disk_io = 'non'
/
&SYSTEM
ibrav = 0
ecutwfc = 50.0
ecutrho = 400
occupations = 'smearing'
smearing = 'mp'
degauss = 0.01
assume_isolated = 'esm'
esm_bc = 'bc1'
input_dft = 'BEEF-VDW'
nosym = .true.
nspin = 1
ntyp = 5
nat = 33
/
&ELECTRONS
electron_maxstep = 200
mixing_beta = 0.1
conv_thr = 1e-06
/
&IONS
ion_dynamics = 'bfgs'
upscale = 1.0
/
&CELL
/

K_POINTS {automatic}
6 6 1 0 0 0

ATOMIC_SPECIES
Ag 107.8 Ag.pbe-n-rrkjus_psl.1.0.0.UPF
C 12.01 C.pbe-n-rrkjus_psl.1.0.0.UPF
Li 6.941 Li.pbe-sl-rrkjus_psl.1.0.0.UPF
Mg 24.30 Mg.pbe-spnl-rrkjus_psl.1.0.0.UPF
Pd 106.4 Pd.pbe-n-rrkjus_psl.1.0.0.UPF


CELL_PARAMETERS {angstrom}
6.38329000 0.00000000 0.00000000
-0.00000000 9.02734000 0.00000000
0.00000000 0.00000000 26.77050000

ATOMIC_POSITIONS {angstrom}
Li 4.78746750 0.00000000 -1.1283765799999976 0 0 0
Li 4.78746750 4.51367000 -1.1283765799999976 0 0 0
Li 1.59582250 2.25683500 -3.385129729999999 0 0 0
Li 1.59582250 6.77050500 -3.385129729999999 0 0 0
Li 4.89553660 4.51367000 3.57546798
Li 4.52409295 -0.00000000 3.23334099
Li 1.60105680 6.77095637 1.20975890
Li 1.60105680 2.25638363 1.20975890
Mg 1.59582250 0.00000000 -1.1283765799999976 0 0 0
Mg 1.59582250 4.51367000 -1.1283765799999976 0 0 0
Mg 4.78746750 2.25683500 -3.385129729999999 0 0 0
Mg 4.78746750 6.77050500 -3.385129729999999 0 0 0
Mg 1.40764311 4.51367000 3.54602043
Mg 1.94275431 -0.00000000 3.48257435
Mg 4.79985108 6.76969254 1.15514707
Mg 4.79978725 2.25764746 1.15514707
Ag 0.00000000 0.00000000 -3.385129729999999 0 0 0
Ag 0.00000000 4.51367000 -3.385129729999999 0 0 0
Ag 3.19164500 6.77050500 -1.1283765799999976 0 0 0
Ag 3.19164500 2.25683500 -1.1283765799999976 0 0 0
Ag 0.00631946 4.51367000 1.18780708
Ag 0.05432180 0.00000000 1.14310035
Ag 3.23492371 2.41968821 3.42796252
Ag 3.23492371 6.60765179 3.42796252
Pd 0.00000000 2.25683500 -1.1283765799999976 0 0 0
Pd 0.00000000 6.77050500 -1.1283765799999976 0 0 0
Pd 3.19164500 4.51367000 -3.385129729999999 0 0 0
Pd 3.19164500 0.00000000 -3.385129729999999 0 0 0
Pd 6.33701115 7.08474671 3.41752203
Pd 6.33694731 1.94259329 3.41752203
Pd 3.18634687 -0.00000000 1.04003392
Pd 3.17102697 4.51367000 1.23117530
C 6.29354094 -0.00000000 4.00352827
