&CONTROL
calculation = 'relax'
prefix = 'scf'
pseudo_dir = '/vol0004/mdt0/data/hp150275/u10028/POT_KKJUS'
outdir = './data'
tprnfor = .true.
nstep = 50
disk_io = 'non'
/
&SYSTEM
ibrav = 0
ecutwfc = 50.0
ecutrho = 400
occupations = 'smearing'
smearing = 'mp'
degauss = 0.01
assume_isolated = 'esm'
esm_bc = 'bc1'
input_dft = 'BEEF-VDW'
nosym = .true.
nspin = 1
ntyp = 4
nat = 33
/
&ELECTRONS
electron_maxstep = 200
mixing_beta = 0.1
conv_thr = 1e-06
/
&IONS
ion_dynamics = 'bfgs'
upscale = 1.0
/
&CELL
/

K_POINTS {automatic}
9 6 2 0  0  0

ATOMIC_SPECIES
Al 26.98 Al.pbe-nl-rrkjus_psl.1.0.0.UPF
Au 196.9 Au.pbe-n-rrkjus_psl.1.0.0.UPF
C 12.01 C.pbe-n-rrkjus_psl.1.0.0.UPF
Sc 44.95 Sc.pbe-spn-rrkjus_psl.1.0.0.UPF

CELL_PARAMETERS {angstrom}
6.63475000 0.00000000 0.00000000
0.00000000 9.38295000 0.00000000
0.00000000 0.00000000 27.03720000

ATOMIC_POSITIONS {angstrom}
Sc 0.00000000 0.00000000 -3.518621209999999 0 0 0
Sc 3.31737500 2.34573750 -1.17287374 0 0 0
Sc 3.31737500 7.03721250 -1.17287374 0 0 0
Sc 0.00000000 4.69147500 -3.518621209999999 0 0 0
Sc 6.63256053 4.69053671 1.55517974
Sc 3.31737500 6.82046636 3.47400983
Sc 3.31737500 2.56248365 3.47428020
Sc 0.00026539 0.00009383 1.21207768
Al 0.00000000 7.03721250 -1.17287374 0 0 0
Al 3.31737500 0.00000000 -3.518621209999999 0 0 0
Al 0.00000000 2.34573750 -1.17287374 0 0 0
Al 3.31737500 4.69147500 -3.518621209999999 0 0 0
Al 0.00013270 2.05270797 3.35802024
Al 3.31691057 4.69156883 1.08581395
Al 0.00013270 7.33005437 3.35802024
Al 3.31737500 9.38276234 1.09230288
Au 1.65868750 0.00000000 -1.17287374 0 0 0
Au 4.97606250 4.69147500 -1.17287374 0 0 0
Au 4.97606250 0.00000000 -1.17287374 0 0 0
Au 1.65868750 4.69147500 -1.17287374 0 0 0
Au 4.97606250 7.03721250 -3.518621209999999 0 0 0
Au 1.65868750 2.34573750 -3.518621209999999 0 0 0
Au 1.65868750 7.03721250 -3.518621209999999 0 0 0
Au 4.97606250 2.34573750 -3.518621209999999 0 0 0
Au 1.48127429 4.69166266 3.99258332
Au 4.63689408 9.38285617 4.05747260
Au 5.15301128 4.69166266 3.99393518
Au 1.99798862 9.38285617 4.05774298
Au 4.94905907 2.36872573 1.14826988
Au 1.68449668 7.01300449 1.14854026
Au 1.68522650 2.36947636 1.14826988
Au 4.94965620 7.01394278 1.14826988
C 0.00013270 9.38285617 3.40155013
