&CONTROL
calculation = 'relax'
prefix = 'scf'
pseudo_dir = '/vol0004/mdt0/data/hp150275/u10028/POT_KKJUS'
outdir = './data'
tprnfor = .true.
nstep = 50
disk_io = 'non'
/
&SYSTEM
ibrav = 0
ecutwfc = 50.0
ecutrho = 400
occupations = 'smearing'
smearing = 'mp'
degauss = 0.01
assume_isolated = 'esm'
esm_bc = 'bc1'
input_dft = 'BEEF-VDW'
nosym = .true.
nspin = 1
ntyp = 3
nat = 33
/
&ELECTRONS
electron_maxstep = 200
mixing_beta = 0.1
conv_thr = 1e-06
/
&IONS
ion_dynamics = 'bfgs'
upscale = 1.0
/
&CELL
/

K_POINTS {automatic}
8 6 1 0 0 0

ATOMIC_SPECIES
C 12.01 C.pbe-n-rrkjus_psl.1.0.0.UPF
Ir 192.2 Ir.pbe-n-rrkjus_psl.0.2.3.UPF
Y 88.90 Y.pbe-spn-rrkjus_psl.1.0.0.UPF

CELL_PARAMETERS {angstrom}
6.88160000 0.00000000 0.00000000
0.00000000 9.73205000 0.00000000
0.00000000 0.00000000 27.29900000

ATOMIC_POSITIONS {angstrom}
Y 1.72040000 2.43301250 -3.64960331 0 0 0
Y 1.72040000 0.00000000 -1.216443439999999 0 0 0
Y 1.70347126 2.46337650 1.27568227
Y 1.74015019 4.86602500 3.80384266
Y 1.72040000 7.29903750 -3.64960331 0 0 0
Y 1.72040000 4.86602500 -1.216443439999999 0 0 0
Y 1.70347126 7.26867350 1.27568227
Y 2.00268323 0.00000000 3.55460279
Y 5.16120000 2.43301250 -3.64960331 0 0 0
Y 5.16120000 0.00000000 -1.216443439999999 0 0 0
Y 5.17812874 2.46337650 1.27568227
Y 5.14144981 4.86602500 3.80384266
Y 5.16120000 7.29903750 -3.64960331 0 0 0
Y 5.16120000 4.86602500 -1.216443439999999 0 0 0
Y 5.17812874 7.26867350 1.27568227
Y 4.87891677 0.00000000 3.55460279
Ir 0.00000000 0.00000000 -3.64960331 0 0 0
Ir 0.00000000 2.43301250 -1.216443439999999 0 0 0
Ir 0.00000000 0.00000000 1.27131443
Ir 0.00000000 1.78729098 3.96927460
Ir 0.00000000 4.86602500 -3.64960331 0 0 0
Ir 0.00000000 7.29903750 -1.216443439999999 0 0 0
Ir 0.00000000 4.86602500 1.43756534
Ir 0.00000000 7.94485634 3.96927460
Ir 3.44080000 0.00000000 -3.64960331 0 0 0
Ir 3.44080000 2.43301250 -1.216443439999999 0 0 0
Ir 3.44080000 0.00000000 1.10096867
Ir 3.44080000 2.62006250 3.51119738
Ir 3.44080000 4.86602500 -3.64960331 0 0 0
Ir 3.44080000 7.29903750 -1.216443439999999 0 0 0
Ir 3.44080000 4.86602500 1.32591243
Ir 3.44080000 7.11198750 3.51119738
C 0.00000000 0.00000000 4.79670729
