&CONTROL
calculation = 'relax'
prefix = 'scf'
pseudo_dir = '/vol0004/mdt0/data/hp150275/u10028/POT_HYBRID_KKJUS_GBRV'
outdir = './data'
tprnfor = .true.
nstep = 50
disk_io = 'non'
/
&SYSTEM
ibrav = 0
ecutwfc = 50.0
ecutrho = 400
occupations = 'smearing'
smearing = 'mp'
degauss = 0.01
assume_isolated = 'esm'
esm_bc = 'bc1'
input_dft = 'BEEF-VDW'
nosym = .true.
nspin = 2
ntyp = 5
nat = 34
starting_magnetization(1) = 0.0
starting_magnetization(2) = 0.0
starting_magnetization(3) = 0.0
starting_magnetization(4) = 0.001
starting_magnetization(5) = 0.0
/
&ELECTRONS
electron_maxstep = 300
mixing_beta = 0.1
conv_thr = 1e-06
/
&IONS
ion_dynamics = 'bfgs'
upscale = 1.0
/
&CELL
/

K_POINTS {automatic}
8 6 1 0 0 0

ATOMIC_SPECIES
Al 26.98 Al.pbe-nl-rrkjus_psl.1.0.0.UPF
C 12.01 C.pbe-n-rrkjus_psl.1.0.0.UPF
Hf 178.4 Hf.pbe-spn-rrkjus_psl.1.0.0.UPF
Ni 58.69 ni_pbe_v1.4.uspp.F.UPF
O 15.99 O.pbe-n-rrkjus_psl.1.0.0.UPF

CELL_PARAMETERS {angstrom}
6.09317000 0.00000000 0.00000000
0.00000000 8.61704000 0.00000000
0.00000000 0.00000000 26.46280000

ATOMIC_POSITIONS {angstrom}
Hf 0.00000000 0.00000000 -3.23137251 0 0 0
Hf 3.04658500 2.15426000 -1.07703596 0 0 0
Hf 3.04658500 6.46278000 -1.07703596 0 0 0
Hf 0.00000000 4.30852000 -3.23137251 0 0 0
Hf 0.00000000 4.32153173 1.05269018
Hf 3.04658500 6.46278000 3.32928487
Hf 3.04658500 2.15426000 3.32690322
Hf 0.00000000 8.60394210 1.05295481
Al 0.00000000 6.46278000 -1.07703596 0 0 0
Al 3.04658500 0.00000000 -3.23137251 0 0 0
Al 0.00000000 2.15426000 -1.07703596 0 0 0
Al 3.04658500 4.30852000 -3.23137251 0 0 0
Al 0.00000000 2.15426000 3.18109319
Al 3.04658500 4.29671466 1.12308123
Al 0.00000000 6.46278000 3.18426872
Al 3.04658500 0.01180534 1.12334586
Ni 1.52329250 0.00000000 -1.07703596 0 0 0
Ni 4.56987750 4.30852000 -1.07703596 0 0 0
Ni 4.56987750 0.00000000 -1.07703596 0 0 0
Ni 1.52329250 4.30852000 -1.07703596 0 0 0
Ni 4.56987750 6.46278000 -3.23137251 0 0 0
Ni 1.52329250 2.15426000 -3.23137251 0 0 0
Ni 1.52329250 6.46278000 -3.23137251 0 0 0
Ni 4.56987750 2.15426000 -3.23137251 0 0 0
Ni 1.46248266 4.31989449 3.10805586
Ni 4.63074827 8.60566551 3.10832049
Ni 4.63068734 4.31989449 3.10805586
Ni 1.46242173 8.60566551 3.10832049
Ni 4.52472711 2.15417383 1.09159050
Ni 1.63363981 6.46278000 1.15219031
Ni 1.56844289 2.15417383 1.09159050
Ni 4.45953019 6.46278000 1.15219031
C 3.04658500 2.15426000 5.61567079
O 3.04658500 2.15426000 6.76415631
