&CONTROL
calculation = 'relax'
prefix = 'scf'
pseudo_dir = '/vol0004/mdt0/data/hp150275/u10028/POT_KKJUS'
outdir = './data'
tprnfor = .true.
nstep = 50
disk_io = 'non'
/
&SYSTEM
ibrav = 0
ecutwfc = 50.0
ecutrho = 400
occupations = 'smearing'
smearing = 'mp'
degauss = 0.01
assume_isolated = 'esm'
esm_bc = 'bc1'
input_dft = 'BEEF-VDW'
nosym = .true.
nspin = 1
ntyp = 3
nat = 17
/
&ELECTRONS
electron_maxstep = 200
mixing_beta = 0.1
conv_thr = 1e-06
/
&IONS
ion_dynamics = 'bfgs'
upscale = 1.0
/
&CELL
/

K_POINTS {automatic}
6 8 1 0 0 0

ATOMIC_SPECIES
C 12.01 C.pbe-n-rrkjus_psl.1.0.0.UPF
In 114.8 In.pbe-dn-rrkjus_psl.1.0.0.UPF
Mg 24.30 Mg.pbe-spnl-rrkjus_psl.1.0.0.UPF

CELL_PARAMETERS {angstrom}
9.03947000 0.00000000 0.00000000
0.00000000 6.39187000 0.00000000
0.00000000 0.00000000 24.79390000

ATOMIC_POSITIONS {angstrom}
Mg 0.60627725 3.15157542 2.62096317
Mg 2.25986750 4.80419341 0.59678917
Mg 2.25986750 1.58358579 0.55116840
Mg 0.00000000 0.00000000 -0.7991074000000005 0 0 0
Mg 2.25986750 1.59796750 -2.3970742499999993 0 0 0
Mg 2.25986750 4.79390250 -2.3970742499999993 0 0 0
Mg 3.91345775 3.15157542 2.62096317
Mg 6.77960250 4.74807279 1.06241862
Mg 6.77960250 1.59310968 1.21316553
Mg 4.51973500 0.00000000 -0.7991074000000005 0 0 0
Mg 6.77960250 1.59796750 -2.3970742499999993 0 0 0
Mg 6.77960250 4.79390250 -2.3970742499999993 0 0 0
In 0.51696729 0.02543964 2.62740958
In 0.00000000 3.19593500 -0.7991074000000005 0 0 0
In 4.00285811 0.02543964 2.62740958
In 4.51973500 3.19593500 -0.7991074000000005 0 0 0
C 2.25986750 1.68508869 2.73947801
