&CONTROL
calculation = 'relax'
prefix = 'scf'
pseudo_dir = '/vol0004/mdt0/data/hp150275/u10028/POT_KKJUS'
outdir = './data'
tprnfor = .true.
nstep = 50
disk_io = 'non'
/
&SYSTEM
ibrav = 0
ecutwfc = 50.0
ecutrho = 400
occupations = 'smearing'
smearing = 'mp'
degauss = 0.01
assume_isolated = 'esm'
esm_bc = 'bc1'
input_dft = 'BEEF-VDW'
nosym = .true.
nspin = 1
ntyp = 3
nat = 32
/
&ELECTRONS
electron_maxstep = 200
mixing_beta = 0.1
conv_thr = 1e-06
/
&IONS
ion_dynamics = 'bfgs'
upscale = 1.0
/
&CELL
/

K_POINTS {automatic}
8 6 1 0 0 0

ATOMIC_SPECIES
Ga 69.72 Ga.pbe-dnl-rrkjus_psl.1.0.0.UPF
Ni 58.69 Ni.pbe-spn-rrkjus_psl.1.0.0.UPF
V 50.94 V.pbe-spnl-rrkjus_psl.1.0.0.UPF

CELL_PARAMETERS {angstrom}
5.81624000 0.00000000 0.00000000
0.00000000 8.22541000 0.00000000
0.00000000 0.00000000 26.16910000

ATOMIC_POSITIONS {angstrom}
V 0.00000000 0.00000000 -3.0845518200000015 0 0 0
V 2.90812000 2.05635250 -1.0281839400000017 0 0 0
V 2.90812000 6.16905750 -1.0281839400000017 0 0 0
V 0.00000000 4.11270500 -3.0845518200000015 0 0 0
V 0.00000000 4.11270500 1.05958686
V 2.90812000 6.16922201 3.06597176
V 2.90812000 2.05618799 3.06571007
V 0.00000000 0.00000000 1.05958686
Ga 0.00000000 6.16905750 -1.0281839400000017 0 0 0
Ga 2.90812000 0.00000000 -3.0845518200000015 0 0 0
Ga 0.00000000 2.05635250 -1.0281839400000017 0 0 0
Ga 2.90812000 4.11270500 -3.0845518200000015 0 0 0
Ga 0.00000000 2.05651701 3.20440630
Ga 2.90812000 4.11278725 0.99259396
Ga 0.00000000 6.16889299 3.20440630
Ga 2.90812000 8.22524549 0.99285565
Ni 1.45406000 0.00000000 -1.0281839400000017 0 0 0
Ni 4.36218000 4.11270500 -1.0281839400000017 0 0 0
Ni 4.36218000 0.00000000 -1.0281839400000017 0 0 0
Ni 1.45406000 4.11270500 -1.0281839400000017 0 0 0
Ni 4.36218000 6.16905750 -3.0845518200000015 0 0 0
Ni 1.45406000 2.05635250 -3.0845518200000015 0 0 0
Ni 1.45406000 6.16905750 -3.0845518200000015 0 0 0
Ni 4.36218000 2.05635250 -3.0845518200000015 0 0 0
Ni 1.49832159 4.11286951 3.00918481
Ni 4.31879085 8.22524549 3.00970819
Ni 4.31791841 4.11278725 3.00918481
Ni 1.49744915 8.22524549 3.00970819
Ni 4.36950846 2.05643475 1.08627934
Ni 1.44673154 6.16889299 1.08627934
Ni 1.44673154 2.05643475 1.08627934
Ni 4.36945030 6.16889299 1.08627934
