&CONTROL
calculation = 'relax'
prefix = 'scf'
pseudo_dir = '/vol0004/mdt0/data/hp150275/u10028/POT_HYBRID_KKJUS_GBRV'
outdir = './data'
tprnfor = .true.
nstep = 50
disk_io = 'non'
/
&SYSTEM
ibrav = 0
ecutwfc = 50.0
ecutrho = 400
occupations = 'smearing'
smearing = 'mp'
degauss = 0.01
assume_isolated = 'esm'
esm_bc = 'bc1'
input_dft = 'BEEF-VDW'
nosym = .true.
nspin = 2
ntyp = 5
nat = 34
starting_magnetization(1) = 0.0
starting_magnetization(2) = 0.001
starting_magnetization(3) = 0.0
starting_magnetization(4) = 0.0
starting_magnetization(5) = 0.0
/
&ELECTRONS
electron_maxstep = 300
mixing_beta = 0.1
conv_thr = 1e-06
/
&IONS
ion_dynamics = 'bfgs'
upscale = 1.0
/
&CELL
/

K_POINTS {automatic}
9 6 2 0  0  0

ATOMIC_SPECIES
C 12.01 C.pbe-n-rrkjus_psl.1.0.0.UPF
Ni 58.69 ni_pbe_v1.4.uspp.F.UPF
O 15.99 O.pbe-n-rrkjus_psl.1.0.0.UPF
Sn 118.7 Sn.pbe-dn-rrkjus_psl.1.0.0.UPF
V 50.94 V.pbe-spnl-rrkjus_psl.1.0.0.UPF

CELL_PARAMETERS {angstrom}
6.09179000 0.00000000 0.00000000
0.00000000 8.61509000 0.00000000
0.00000000 0.00000000 26.46130000

ATOMIC_POSITIONS {angstrom}
V 0.00000000 0.00000000 -3.230660120000003 0 0 0
V 3.04589500 2.15377250 -1.0769749100000006 0 0 0
V 3.04589500 6.46131750 -1.0769749100000006 0 0 0
V 0.00000000 4.30754500 -3.230660120000003 0 0 0
V 0.00000000 4.30754500 1.07697491
V 3.04589500 6.46131750 3.23066012
V 3.04589500 2.15377250 3.23066012
V 0.00000000 0.00000000 1.07697491
Ni 1.52294750 0.00000000 -1.0769749100000006 0 0 0
Ni 4.56884250 4.30754500 -1.0769749100000006 0 0 0
Ni 4.56884250 0.00000000 -1.0769749100000006 0 0 0
Ni 1.52294750 4.30754500 -1.0769749100000006 0 0 0
Ni 4.56884250 6.46131750 -3.230660120000003 0 0 0
Ni 1.52294750 2.15377250 -3.230660120000003 0 0 0
Ni 1.52294750 6.46131750 -3.230660120000003 0 0 0
Ni 4.56884250 2.15377250 -3.230660120000003 0 0 0
Ni 1.52294750 4.30754500 3.23066012
Ni 4.56884250 0.00000000 3.23066012
Ni 4.56884250 4.30754500 3.23066012
Ni 1.52294750 0.00000000 3.23066012
Ni 4.56884250 2.15377250 1.07697491
Ni 1.52294750 6.46131750 1.07697491
Ni 1.52294750 2.15377250 1.07697491
Ni 4.56884250 6.46131750 1.07697491
Sn 0.00000000 6.46131750 -1.0769749100000006 0 0 0
Sn 3.04589500 0.00000000 -3.230660120000003 0 0 0
Sn 0.00000000 2.15377250 -1.0769749100000006 0 0 0
Sn 3.04589500 4.30754500 -3.230660120000003 0 0 0
Sn 0.00000000 2.15377250 3.23066012
Sn 3.04589500 4.30754500 1.07697491
Sn 0.00000000 6.46131750 3.23066012
Sn 3.04589500 0.00000000 1.07697491
C 1.52294750 0.00000000 5.13058146
O 1.52294750 0.00000000 6.28058956
