&CONTROL
calculation = 'relax'
prefix = 'scf'
pseudo_dir = '/vol0004/mdt0/data/hp150275/u10028/POT_KKJUS'
outdir = './data'
tprnfor = .true.
nstep = 50
disk_io = 'non'
/
&SYSTEM
ibrav = 0
ecutwfc = 50.0
ecutrho = 400
occupations = 'smearing'
smearing = 'mp'
degauss = 0.01
assume_isolated = 'esm'
esm_bc = 'bc1'
input_dft = 'BEEF-VDW'
nosym = .true.
nspin = 1
ntyp = 4
nat = 33
/
&ELECTRONS
electron_maxstep = 200
mixing_beta = 0.1
conv_thr = 1e-06
/
&IONS
ion_dynamics = 'bfgs'
upscale = 1.0
/
&CELL
/

K_POINTS {automatic}
8 6 1 0 0 0

ATOMIC_SPECIES
C 12.01 C.pbe-n-rrkjus_psl.1.0.0.UPF
In 114.8 In.pbe-dn-rrkjus_psl.1.0.0.UPF
Ir 192.2 Ir.pbe-n-rrkjus_psl.0.2.3.UPF
Li 6.941 Li.pbe-sl-rrkjus_psl.1.0.0.UPF

CELL_PARAMETERS {angstrom}
6.57920000 0.00000000 0.00000000
0.00000000 9.30439000 0.00000000
0.00000000 0.00000000 26.97830000

ATOMIC_POSITIONS {angstrom}
Li 0.00000000 0.00000000 -3.489103540000002 0 0 0
Li 3.28960000 2.32609750 -1.1630345099999992 0 0 0
Li 3.28960000 6.97829250 -1.1630345099999992 0 0 0
Li 0.00000000 4.65219500 -3.489103540000002 0 0 0
Li 0.00000000 4.65219500 1.25745856
Li 3.28960000 7.19731784 4.74467362
Li 3.28960000 2.10707216 4.74494340
Li 0.00000000 0.00000000 1.18947325
In 1.64480000 0.00000000 -1.1630345099999992 0 0 0
In 4.93440000 4.65219500 -1.1630345099999992 0 0 0
In 4.93440000 0.00000000 -1.1630345099999992 0 0 0
In 1.64480000 4.65219500 -1.1630345099999992 0 0 0
In 4.93440000 6.97829250 -3.489103540000002 0 0 0
In 1.64480000 2.32609750 -3.489103540000002 0 0 0
In 1.64480000 6.97829250 -3.489103540000002 0 0 0
In 4.93440000 2.32609750 -3.489103540000002 0 0 0
In 1.65480038 4.65219500 3.67093728
In 5.05164134 0.00000000 3.59377934
In 4.92439962 4.65219500 3.67093728
In 1.52755866 0.00000000 3.59377934
In 4.87420032 2.33484363 1.20593001
In 1.70499968 6.96954637 1.20593001
In 1.70499968 2.33484363 1.20593001
In 4.87420032 6.96954637 1.20593001
Ir 0.00000000 6.97829250 -1.1630345099999992 0 0 0
Ir 3.28960000 0.00000000 -3.489103540000002 0 0 0
Ir 0.00000000 2.32609750 -1.1630345099999992 0 0 0
Ir 3.28960000 4.65219500 -3.489103540000002 0 0 0
Ir 0.00000000 2.40369611 3.28487781
Ir 3.28960000 4.65219500 1.06348459
Ir 0.00000000 6.90069389 3.28487781
Ir 3.28960000 0.00000000 1.07508525
C 3.28960000 0.00000000 4.80591436
