&CONTROL
calculation = 'relax'
prefix = 'scf'
pseudo_dir = '/vol0403/data/hp230205/u10028/POT_HYBRID_KKJUS_GBRV'
outdir = './data'
tprnfor = .true.
nstep = 50
disk_io = 'non'
/
&SYSTEM
ibrav = 0
ecutwfc = 50.0
ecutrho = 400
occupations = 'smearing'
smearing = 'mp'
degauss = 0.01
assume_isolated = 'esm'
esm_bc = 'bc1'
input_dft = 'BEEF-VDW'
nosym = .true.
nspin = 1
ntyp = 5
nat = 33
/
&ELECTRONS
electron_maxstep = 200
mixing_beta = 0.1
conv_thr = 1e-06
/
&IONS
ion_dynamics = 'bfgs'
upscale = 1.0
/
&CELL
/

K_POINTS {automatic}
7 7 2 0  0  0

ATOMIC_SPECIES
Al 26.98 Al.pbe-nl-rrkjus_psl.1.0.0.UPF
C 12.01 C.pbe-n-rrkjus_psl.1.0.0.UPF
Ge 72.64 Ge.pbe-dn-rrkjus_psl.1.0.0.UPF
Li 6.941 Li.pbe-sl-rrkjus_psl.1.0.0.UPF
Pd 106.4 Pd.pbe-n-rrkjus_psl.1.0.0.UPF


CELL_PARAMETERS {angstrom}
8.01128000 0.00000000 0.00000000
0.00000000 8.09626000 0.00000000
0.00000000 0.00000000 25.57210000

ATOMIC_POSITIONS {angstrom}
Li 2.00282000 2.02406500 -2.7860802999999983 0 0 0
Li 2.00282000 2.02406500 0.92877867
Li 2.00282000 6.07219500 -2.7860802999999983 0 0 0
Li 2.00282000 6.07219500 0.92877867
Li 6.00846000 2.02406500 -2.7860802999999983 0 0 0
Li 6.00846000 2.02406500 0.92877867
Li 6.00846000 6.07219500 -2.7860802999999983 0 0 0
Li 6.00846000 6.07219500 0.92877867
Al 0.00000000 0.00000000 -2.7860802999999983 0 0 0
Al 0.00000000 0.00000000 0.92877867
Al 0.00000000 4.04813000 -2.7860802999999983 0 0 0
Al 0.00000000 4.04813000 0.92877867
Al 4.00564000 0.00000000 -2.7860802999999983 0 0 0
Al 4.00564000 0.00000000 0.92877867
Al 4.00564000 4.04813000 -2.7860802999999983 0 0 0
Al 4.00564000 4.04813000 0.92877867
Ge 0.00000000 2.02406500 -0.9287786699999998 0 0 0
Ge 0.00000000 2.02406500 2.78608030
Ge 0.00000000 6.07219500 -0.9287786699999998 0 0 0
Ge 0.00000000 6.07219500 2.78608030
Ge 4.00564000 2.02406500 -0.9287786699999998 0 0 0
Ge 4.00564000 2.02406500 2.78608030
Ge 4.00564000 6.07219500 -0.9287786699999998 0 0 0
Ge 4.00564000 6.07219500 2.78608030
Pd 2.00282000 0.00000000 -0.9287786699999998 0 0 0
Pd 2.00282000 0.00000000 2.78608030
Pd 2.00282000 4.04813000 -0.9287786699999998 0 0 0
Pd 2.00282000 4.04813000 2.78608030
Pd 6.00846000 0.00000000 -0.9287786699999998 0 0 0
Pd 6.00846000 0.00000000 2.78608030
Pd 6.00846000 4.04813000 -0.9287786699999998 0 0 0
Pd 6.00846000 4.04813000 2.78608030
C 2.00282000 2.02406500 3.58597558
