&CONTROL
calculation = 'relax'
prefix = 'scf'
pseudo_dir = '/vol0004/mdt0/data/hp150275/u10028/POT_KKJUS'
outdir = './data'
tprnfor = .true.
nstep = 50
disk_io = 'non'
/
&SYSTEM
ibrav = 0
ecutwfc = 50.0
ecutrho = 400
occupations = 'smearing'
smearing = 'mp'
degauss = 0.01
assume_isolated = 'esm'
esm_bc = 'bc1'
input_dft = 'BEEF-VDW'
nosym = .true.
nspin = 1
ntyp = 3
nat = 17
/
&ELECTRONS
electron_maxstep = 200
mixing_beta = 0.1
conv_thr = 1e-06
/
&IONS
ion_dynamics = 'bfgs'
upscale = 1.0
/
&CELL
/

K_POINTS {automatic}
6 8 1 0 0 0

ATOMIC_SPECIES
C 12.01 C.pbe-n-rrkjus_psl.1.0.0.UPF
Pd 106.4 Pd.pbe-n-rrkjus_psl.1.0.0.UPF
Sn 118.7 Sn.pbe-dn-rrkjus_psl.1.0.0.UPF

CELL_PARAMETERS {angstrom}
8.16408000 0.00000000 0.00000000
0.00000000 5.77288000 0.00000000
0.00000000 0.00000000 24.32970000

ATOMIC_POSITIONS {angstrom}
Sn 7.98912377 0.00057729 2.14952899
Sn 0.00000000 2.88644000 -0.7216188999999993 0 0 0
Sn 4.25699623 0.00057729 2.14952899
Sn 4.08204000 2.88644000 -0.7216188999999993 0 0 0
Pd 0.05984271 2.88332264 2.19575542
Pd 2.04102000 4.35090420 0.78171326
Pd 2.04102000 1.42035940 0.77976689
Pd 0.00000000 0.00000000 -0.7216188999999993 0 0 0
Pd 2.04102000 1.44322000 -2.1648567099999987 0 0 0
Pd 2.04102000 4.32966000 -2.1648567099999987 0 0 0
Pd 4.02219729 2.88332264 2.19575542
Pd 6.12306000 4.29883282 0.72989100
Pd 6.12306000 1.46209732 0.73767650
Pd 4.08204000 0.00000000 -0.7216188999999993 0 0 0
Pd 6.12306000 1.44322000 -2.1648567099999987 0 0 0
Pd 6.12306000 4.32966000 -2.1648567099999987 0 0 0
C 2.04102000 2.88164851 2.15974747
