&CONTROL
calculation = 'relax'
prefix = 'scf'
pseudo_dir = '/vol0403/data/hp230205/u10028/POT_HYBRID_KKJUS_GBRV'
outdir = './data'
tprnfor = .true.
nstep = 70
disk_io = 'non'
/
&SYSTEM
ibrav = 0
ecutwfc = 50.0
ecutrho = 400
occupations = 'smearing'
smearing = 'mp'
degauss = 0.01
assume_isolated = 'esm'
esm_bc = 'bc1'
input_dft = 'BEEF-VDW'
nosym = .true.
nspin = 1
ntyp = 6
nat = 18
/
&ELECTRONS
electron_maxstep = 200
mixing_beta = 0.1
conv_thr = 1e-06
/
&IONS
ion_dynamics = 'bfgs'
upscale = 1.0
/
&CELL
/

K_POINTS {automatic}
6 6 1 0 0 0

ATOMIC_SPECIES
C 12.01 C.pbe-n-rrkjus_psl.1.0.0.UPF
Cu 63.54 Cu.pbe-dn-rrkjus_psl.1.0.0.UPF
Li 6.941 Li.pbe-sl-rrkjus_psl.1.0.0.UPF
Mg 24.30 Mg.pbe-spnl-rrkjus_psl.1.0.0.UPF
O 15.99 O.pbe-n-rrkjus_psl.1.0.0.UPF
Pd 106.4 Pd.pbe-n-rrkjus_psl.1.0.0.UPF


CELL_PARAMETERS {angstrom}
5.46655000 0.00000000 0.00000000
-0.00000000 7.95764000 0.00000000
0.00000000 0.00000000 24.09630000

ATOMIC_POSITIONS {angstrom}
Li 2.87917722 -0.00000000 2.21565478
Li 5.35240844 -0.00000000 -0.682648180000001 0 0 0
Li 2.87485865 3.97882000 2.11685995
Li 5.35240844 3.97882000 -0.682648180000001 0 0 0
Mg 1.31175334 1.94476764 0.66698558
Mg 3.92875482 1.98941000 -2.048185499999999 0 0 0
Mg 1.31180800 6.01287236 0.66698558
Mg 3.92875482 5.96823000 -2.048185499999999 0 0 0
Cu 5.40745659 -0.00000000 1.93710156
Cu 2.61913344 0.00000000 -0.682648180000001 0 0 0
Cu 5.44643310 3.97882000 1.78601776
Cu 2.61913344 3.97882000 -0.682648180000001 0 0 0
Pd 4.02042886 1.97429048 0.65132299
Pd 1.19547982 1.98941000 -2.048185499999999 0 0 0
Pd 4.02042886 5.98334952 0.65132299
Pd 1.19547982 5.96823000 -2.048185499999999 0 0 0
C 5.42030299 -0.00000000 3.79010703
O 0.06084270 0.00000000 4.94407883
