&CONTROL
calculation = 'relax'
prefix = 'scf'
pseudo_dir = '/vol0004/mdt0/data/hp150275/u10028/POT_HYBRID_KKJUS_GBRV'
outdir = './data'
tprnfor = .true.
nstep = 50
disk_io = 'non'
/
&SYSTEM
ibrav = 0
ecutwfc = 50.0
ecutrho = 400
occupations = 'smearing'
smearing = 'mp'
degauss = 0.01
assume_isolated = 'esm'
esm_bc = 'bc1'
input_dft = 'BEEF-VDW'
nosym = .true.
nspin = 2
ntyp = 4
nat = 17
starting_magnetization(1) = 0.1
starting_magnetization(2) = 0.1
starting_magnetization(3) = 0.1
starting_magnetization(4) = 0.1
/
&ELECTRONS
electron_maxstep = 200
mixing_beta = 0.1
conv_thr = 1e-06
/
&IONS
ion_dynamics = 'bfgs'
upscale = 1.0
/
&CELL
/

K_POINTS {automatic}
10 10 2 0  0  0

ATOMIC_SPECIES
C 12.01 C.pbe-n-rrkjus_psl.1.0.0.UPF
Li 6.941 Li.pbe-sl-rrkjus_psl.1.0.0.UPF
Ni 58.69 ni_pbe_v1.4.uspp.F.UPF
Si 28.08 Si.pbe-nl-rrkjus_psl.1.0.0.UPF

CELL_PARAMETERS {angstrom}
5.56332000 0.00000000 0.00000000
0.00000000 5.56332000 0.00000000
0.00000000 0.00000000 24.17250000

ATOMIC_POSITIONS {angstrom}
Li 5.47886880 5.47875754 2.64858082
Li 2.86627810 2.86616683 2.64858082
Li 2.78166000 0.00000000 -0.6954428300000011 0 0 0
Li 0.00000000 2.78166000 -0.6954428300000011 0 0 0
Si 0.00000000 0.00000000 -0.6954428300000011 0 0 0
Si 2.64402346 0.13746964 2.06626530
Si 0.13708020 2.64441290 2.06650702
Si 2.78166000 2.78166000 -0.6954428300000011 0 0 0
Ni 1.39027367 1.39177576 0.55282507
Ni 4.17249000 4.17249000 -2.086328469999998 0 0 0
Ni 4.17326886 1.39049620 0.76143375
Ni 1.39083000 4.17249000 -2.086328469999998 0 0 0
Ni 4.17221183 4.17287943 0.93426712
Ni 1.39083000 1.39083000 -2.086328469999998 0 0 0
Ni 1.39110817 4.17126607 0.76167548
Ni 4.17249000 1.39083000 -2.086328469999998 0 0 0
C 1.39071873 1.39099690 2.60313652
