&CONTROL
calculation = 'relax'
prefix = 'scf'
pseudo_dir = '/vol0403/data/hp230205/u10028/POT_HYBRID_KKJUS_GBRV'
outdir = './data'
tprnfor = .true.
nstep = 50
disk_io = 'non'
/
&SYSTEM
ibrav = 0
ecutwfc = 50.0
ecutrho = 400
occupations = 'smearing'
smearing = 'mp'
degauss = 0.01
assume_isolated = 'esm'
esm_bc = 'bc1'
input_dft = 'BEEF-VDW'
nosym = .true.
nspin = 1
ntyp = 5
nat = 33
/
&ELECTRONS
electron_maxstep = 200
mixing_beta = 0.1
conv_thr = 1e-06
/
&IONS
ion_dynamics = 'bfgs'
upscale = 1.0
/
&CELL
/

K_POINTS {automatic}
7 7 2 0  0  0

ATOMIC_SPECIES
Al 26.98 Al.pbe-nl-rrkjus_psl.1.0.0.UPF
C 12.01 C.pbe-n-rrkjus_psl.1.0.0.UPF
In 114.8 In.pbe-dn-rrkjus_psl.1.0.0.UPF
Pd 106.4 Pd.pbe-n-rrkjus_psl.1.0.0.UPF
Sc 44.95 Sc.pbe-spn-rrkjus_psl.1.0.0.UPF


CELL_PARAMETERS {angstrom}
8.60736000 0.00000000 0.00000000
0.00000000 8.30234000 0.00000000
0.00000000 0.00000000 26.25270000

ATOMIC_POSITIONS {angstrom}
Sc 2.15184000 2.07558500 -3.1264340399999995 0 0 0
Sc 1.96729820 1.86196579 1.28690735
Sc 2.15184000 6.22675500 -3.1264340399999995 0 0 0
Sc 2.15425006 6.32912285 1.16378219
Sc 6.45552000 2.07558500 -3.1264340399999995 0 0 0
Sc 6.64462370 1.85507485 1.29189537
Sc 6.45552000 6.22675500 -3.1264340399999995 0 0 0
Sc 6.45526178 6.33211169 1.16246956
Al 0.00000000 0.00000000 -3.1264340399999995 0 0 0
Al 0.00292650 8.23799686 0.57572171
Al 0.00000000 4.15117000 -3.1264340399999995 0 0 0
Al 8.60563853 4.17325422 1.06795984
Al 4.30368000 0.00000000 -3.1264340399999995 0 0 0
Al 4.30161423 0.01934445 1.06454699
Al 4.30368000 4.15117000 -3.1264340399999995 0 0 0
Al 4.30436859 4.09554432 1.06664720
In 0.00000000 2.07558500 -1.04223219 0 0 0
In 0.00120503 2.39613835 3.83761969
In 0.00000000 6.22675500 -1.04223219 0 0 0
In 8.60718785 6.20267821 3.64807519
In 4.30368000 2.07558500 -1.04223219 0 0 0
In 4.30230282 2.01821583 3.49843480
In 4.30368000 6.22675500 -1.04223219 0 0 0
In 4.30789761 6.24726178 3.46430629
Pd 2.15184000 0.00000000 -1.04223219 0 0 0
Pd 2.16879650 8.15389416 3.13929787
Pd 2.15184000 4.15117000 -1.04223219 0 0 0
Pd 2.20787391 4.16968422 2.75915877
Pd 6.45552000 0.00000000 -1.04223219 0 0 0
Pd 6.43202191 8.15132044 3.14769873
Pd 6.45552000 4.15117000 -1.04223219 0 0 0
Pd 6.40000253 4.16852189 2.75915877
C 8.59685902 0.55011305 2.42653706
