&CONTROL
calculation = 'relax'
prefix = 'scf'
pseudo_dir = '/vol0004/mdt0/data/hp150275/u10028/POT_HYBRID_KKJUS_GBRV'
outdir = './data'
tprnfor = .true.
nstep = 50
disk_io = 'non'
/
&SYSTEM
ibrav = 0
ecutwfc = 50.0
ecutrho = 400
occupations = 'smearing'
smearing = 'mp'
degauss = 0.01
assume_isolated = 'esm'
esm_bc = 'bc1'
input_dft = 'BEEF-VDW'
nosym = .true.
nspin = 2
ntyp = 5
nat = 34
starting_magnetization(1) = 0.0
starting_magnetization(2) = 0.1
starting_magnetization(3) = 0.0
starting_magnetization(4) = 0.0
starting_magnetization(5) = 0.0
/
&ELECTRONS
electron_maxstep = 200
mixing_beta = 0.1
conv_thr = 1e-06
/
&IONS
ion_dynamics = 'bfgs'
upscale = 1.0
/
&CELL
/

K_POINTS {automatic}
9 6 2 0  0  0

ATOMIC_SPECIES
C 12.01 C.pbe-n-rrkjus_psl.1.0.0.UPF
Co 58.93 co_pbe_v1.2.uspp.F.UPF
Hf 178.4 Hf.pbe-spn-rrkjus_psl.1.0.0.UPF
O 15.99 O.pbe-n-rrkjus_psl.1.0.0.UPF
Sn 118.7 Sn.pbe-dn-rrkjus_psl.1.0.0.UPF

CELL_PARAMETERS {angstrom}
6.26570000 0.00000000 0.00000000
0.00000000 8.86104000 0.00000000
0.00000000 0.00000000 26.64580000

ATOMIC_POSITIONS {angstrom}
Hf 0.00000000 0.00000000 23.32280228
Hf 3.13285000 2.21526000 25.53813409
Hf 3.13285000 6.64578000 25.53813409
Hf 0.00000000 4.43052000 23.32280228
Hf 0.00000000 4.43158332 1.11645902
Hf 3.13285000 6.64578000 3.28675943
Hf 3.13278734 2.21526000 3.29022338
Hf 0.00000000 8.85997668 1.11645902
Co 1.56642500 0.00000000 25.53813409
Co 4.69927500 4.43052000 25.53813409
Co 4.69927500 0.00000000 25.53813409
Co 1.56642500 4.43052000 25.53813409
Co 4.69927500 6.64578000 23.32280228
Co 1.56642500 2.21526000 23.32280228
Co 1.56642500 6.64578000 23.32280228
Co 4.69927500 2.21526000 23.32280228
Co 1.50614897 4.42857057 3.14447086
Co 4.75948838 0.00194943 3.14447086
Co 4.75948838 4.42857057 3.14447086
Co 1.50621162 0.00194943 3.14447086
Co 4.67671848 2.21534861 1.14923335
Co 1.58791635 6.64569139 1.14923335
Co 1.58898152 2.21534861 1.14923335
Co 4.67778365 6.64578000 1.14923335
Sn 0.00000000 6.64578000 25.53813409
Sn 3.13285000 0.00000000 23.32280228
Sn 0.00000000 2.21526000 25.53813409
Sn 3.13285000 4.43052000 23.32280228
Sn 6.26563734 2.21526000 3.51777852
Sn 3.13285000 4.43043139 1.09167843
Sn 6.26563734 6.64578000 3.52577226
Sn 3.13285000 0.00017722 1.09167843
C 6.26544937 2.21455112 7.48880209
O 6.26563734 2.21543722 8.62391317
