&CONTROL
calculation = 'relax'
prefix = 'scf'
pseudo_dir = '/vol0004/mdt0/data/hp150275/u10028/POT_KKJUS'
outdir = './data'
tprnfor = .true.
nstep = 50
disk_io = 'non'
/
&SYSTEM
ibrav = 0
ecutwfc = 50.0
ecutrho = 400
occupations = 'smearing'
smearing = 'mp'
degauss = 0.01
assume_isolated = 'esm'
esm_bc = 'bc1'
input_dft = 'BEEF-VDW'
nosym = .true.
nspin = 1
ntyp = 4
nat = 33
/
&ELECTRONS
electron_maxstep = 200
mixing_beta = 0.1
conv_thr = 1e-06
/
&IONS
ion_dynamics = 'bfgs'
upscale = 1.0
/
&CELL
/

K_POINTS {automatic}
8 6 1 0 0 0

ATOMIC_SPECIES
C 12.01 C.pbe-n-rrkjus_psl.1.0.0.UPF
K 39.09 K.pbe-spn-rrkjus_psl.1.0.0.UPF
Na 22.98 Na.pbe-spnl-rrkjus_psl.1.0.0.UPF
Sb 121.7 Sb.pbe-n-rrkjus_psl.1.0.0.UPF

CELL_PARAMETERS {angstrom}
7.84214000 0.00000000 0.00000000
0.00000000 11.09050000 0.00000000
0.00000000 0.00000000 28.31780000

ATOMIC_POSITIONS {angstrom}
K 0.00000000 0.00000000 -4.1590352899999985 0 0 0
K 3.92107000 2.77262500 -1.3864394899999972 0 0 0
K 3.92107000 8.31787500 -1.3864394899999972 0 0 0
K 0.00000000 5.54525000 -4.1590352899999985 0 0 0
K 0.00015684 5.54735720 1.22842616
K 3.92107000 8.26319884 6.25795062
K 3.92161895 2.82774479 6.25823380
K 0.00007842 0.00099815 1.29808795
Na 1.96053500 0.00000000 -1.3864394899999972 0 0 0
Na 5.88160500 5.54525000 -1.3864394899999972 0 0 0
Na 5.88160500 0.00000000 -1.3864394899999972 0 0 0
Na 1.96053500 5.54525000 -1.3864394899999972 0 0 0
Na 5.88160500 8.31787500 -4.1590352899999985 0 0 0
Na 1.96053500 2.77262500 -4.1590352899999985 0 0 0
Na 1.96053500 8.31787500 -4.1590352899999985 0 0 0
Na 5.88160500 2.77262500 -4.1590352899999985 0 0 0
Na 1.90673792 5.54580453 4.43031981
Na 5.43334828 11.08806009 4.15082312
Na 5.93500997 5.54624815 4.42975345
Na 2.40855646 11.08794919 4.15110630
Na 5.59097529 2.77417767 1.82961306
Na 2.25210577 8.31754229 1.82848035
Na 2.25155682 2.77417767 1.82932988
Na 5.59019108 8.31765319 1.82819717
Sb 0.00000000 8.31787500 -1.3864394899999972 0 0 0
Sb 3.92107000 0.00000000 -4.1590352899999985 0 0 0
Sb 0.00000000 2.77262500 -1.3864394899999972 0 0 0
Sb 3.92107000 5.54525000 -4.1590352899999985 0 0 0
Sb 0.00000000 2.05041164 4.36802065
Sb 3.92114842 5.54547181 1.61184918
Sb 7.84206158 9.02877605 4.35895895
Sb 3.92099158 0.00155267 1.25334583
C 7.84190474 11.08173851 4.09503706
