&CONTROL
calculation = 'relax'
prefix = 'scf'
pseudo_dir = '/vol0004/mdt0/data/hp150275/u10028/POT_KKJUS'
outdir = './data'
tprnfor = .true.
nstep = 50
disk_io = 'non'
/
&SYSTEM
ibrav = 0
ecutwfc = 50.0
ecutrho = 400
occupations = 'smearing'
smearing = 'mp'
degauss = 0.01
assume_isolated = 'esm'
esm_bc = 'bc1'
input_dft = 'BEEF-VDW'
nosym = .true.
nspin = 1
ntyp = 4
nat = 33
/
&ELECTRONS
electron_maxstep = 200
mixing_beta = 0.1
conv_thr = 1e-06
/
&IONS
ion_dynamics = 'bfgs'
upscale = 1.0
/
&CELL
/

K_POINTS {automatic}
8 6 1 0 0 0

ATOMIC_SPECIES
C 12.01 C.pbe-n-rrkjus_psl.1.0.0.UPF
Ga 69.72 Ga.pbe-dnl-rrkjus_psl.1.0.0.UPF
Li 6.941 Li.pbe-sl-rrkjus_psl.1.0.0.UPF
Pt 195.0 Pt.pbe-n-rrkjus_psl.1.0.0.UPF

CELL_PARAMETERS {angstrom}
6.10853000 0.00000000 0.00000000
0.00000000 8.63876000 0.00000000
0.00000000 0.00000000 26.47910000

ATOMIC_POSITIONS {angstrom}
Li 0.00000000 6.47907000 -1.0798176999999995 0 0 0
Li 3.05426500 0.00000000 -3.239453089999998 0 0 0
Li 0.00000000 2.15969000 -1.0798176999999995 0 0 0
Li 3.05426500 4.31938000 -3.239453089999998 0 0 0
Li 1.52713250 2.15969000 -3.239453089999998 0 0 0
Li 1.52713250 6.47907000 -3.239453089999998 0 0 0
Li 4.58139750 4.31938000 -1.0798176999999995 0 0 0
Li 4.58139750 0.00000000 -1.0798176999999995 0 0 0
Li 6.06668657 2.32987357 3.22753750
Li 3.10600425 4.31938000 0.95774905
Li 6.06674765 6.30880004 3.22753750
Li 3.10991371 0.00000000 1.21327236
Li 1.53629529 6.49988941 1.05016111
Li 1.53629529 2.13887059 1.05016111
Li 4.75463541 0.00000000 4.37461211
Li 4.38787927 4.31938000 3.34060326
Ga 1.52713250 0.00000000 -1.0798176999999995 0 0 0
Ga 1.52713250 4.31938000 -1.0798176999999995 0 0 0
Ga 4.58139750 6.47907000 -3.239453089999998 0 0 0
Ga 4.58139750 2.15969000 -3.239453089999998 0 0 0
Ga 1.82528985 4.31938000 3.10070261
Ga 1.01713133 0.00000000 3.40812496
Ga 4.60063937 2.22784982 1.04301175
Ga 4.60063937 6.41091018 1.04301175
Pt 0.00000000 0.00000000 -3.239453089999998 0 0 0
Pt 3.05426500 2.15969000 -1.0798176999999995 0 0 0
Pt 3.05426500 6.47907000 -1.0798176999999995 0 0 0
Pt 0.00000000 4.31938000 -3.239453089999998 0 0 0
Pt 0.05375506 4.31938000 1.17726079
Pt 3.08609044 6.66808607 3.10123219
Pt 3.08609044 1.97067393 3.10123219
Pt 6.03987012 0.00000000 1.02818345
C 2.96654651 0.00000000 3.50953991
