&CONTROL
calculation = 'relax'
prefix = 'scf'
pseudo_dir = '/vol0004/mdt0/data/hp150275/u10028/POT_KKJUS'
outdir = './data'
tprnfor = .true.
nstep = 50
disk_io = 'non'
/
&SYSTEM
ibrav = 0
ecutwfc = 50.0
ecutrho = 400
occupations = 'smearing'
smearing = 'mp'
degauss = 0.01
assume_isolated = 'esm'
esm_bc = 'bc1'
input_dft = 'BEEF-VDW'
nosym = .true.
nspin = 1
ntyp = 5
nat = 34
/
&ELECTRONS
electron_maxstep = 200
mixing_beta = 0.1
conv_thr = 1e-06
/
&IONS
ion_dynamics = 'bfgs'
upscale = 1.0
/
&CELL
/

K_POINTS {automatic}
8 6 1 0 0 0

ATOMIC_SPECIES
C 12.01 C.pbe-n-rrkjus_psl.1.0.0.UPF
Cu 63.54 Cu.pbe-dn-rrkjus_psl.1.0.0.UPF
Ge 72.64 Ge.pbe-dn-rrkjus_psl.1.0.0.UPF
Li 6.941 Li.pbe-sl-rrkjus_psl.1.0.0.UPF
O 15.99 O.pbe-n-rrkjus_psl.1.0.0.UPF

CELL_PARAMETERS {angstrom}
5.94410000 0.00000000 0.00000000
0.00000000 8.40623000 0.00000000
0.00000000 0.00000000 26.30470000

ATOMIC_POSITIONS {angstrom}
Li 0.00000000 0.00000000 -3.1523552499999994 0 0 0
Li 2.97205000 2.10155750 -1.0508727700000016 0 0 0
Li 2.97205000 6.30467250 -1.0508727700000016 0 0 0
Li 0.00000000 4.20311500 -3.1523552499999994 0 0 0
Li 0.00000000 4.19958438 0.88567925
Li 2.97205000 6.30467250 3.49063369
Li 2.97205000 2.10155750 3.50062948
Li 0.00000000 0.00353062 0.88567925
Cu 1.48602500 0.00000000 -1.0508727700000016 0 0 0
Cu 4.45807500 4.20311500 -1.0508727700000016 0 0 0
Cu 4.45807500 0.00000000 -1.0508727700000016 0 0 0
Cu 1.48602500 4.20311500 -1.0508727700000016 0 0 0
Cu 4.45807500 6.30467250 -3.1523552499999994 0 0 0
Cu 1.48602500 2.10155750 -3.1523552499999994 0 0 0
Cu 1.48602500 6.30467250 -3.1523552499999994 0 0 0
Cu 4.45807500 2.10155750 -3.1523552499999994 0 0 0
Cu 1.31988741 4.21337060 2.95954180
Cu 4.62421260 8.39597440 2.95954180
Cu 4.62421260 4.21337060 2.95954180
Cu 1.31988741 8.39597440 2.95954180
Cu 4.46996320 2.10155750 1.20238784
Cu 1.46248636 6.30467250 1.21396190
Cu 1.47413680 2.10155750 1.20238784
Cu 4.48161364 6.30467250 1.21396190
Ge 0.00000000 6.30467250 -1.0508727700000016 0 0 0
Ge 2.97205000 0.00000000 -3.1523552499999994 0 0 0
Ge 0.00000000 2.10155750 -1.0508727700000016 0 0 0
Ge 2.97205000 4.20311500 -3.1523552499999994 0 0 0
Ge 0.00000000 2.10155750 3.30965735
Ge 2.97205000 4.20370344 1.09059286
Ge 0.00000000 6.30467250 3.37489301
Ge 2.97205000 8.40564156 1.09059286
C 2.97205000 2.10155750 5.61394907
O 2.97205000 2.10155750 6.75241649
