&CONTROL
calculation = 'relax'
prefix = 'scf'
pseudo_dir = '/vol0004/mdt0/data/hp150275/u10028/POT_HYBRID_KKJUS_GBRV'
outdir = './data'
tprnfor = .true.
nstep = 70
disk_io = 'non'
/
&SYSTEM
ibrav = 0
ecutwfc = 50.0
ecutrho = 400
occupations = 'smearing'
smearing = 'mp'
degauss = 0.01
assume_isolated = 'esm'
esm_bc = 'bc1'
input_dft = 'BEEF-VDW'
nosym = .true.
nspin = 1
ntyp = 2
nat = 16
/
&ELECTRONS
electron_maxstep = 200
mixing_beta = 0.1
conv_thr = 1e-06
/
&IONS
ion_dynamics = 'bfgs'
upscale = 1.0
/
&CELL
/

K_POINTS {automatic}
8 8 1 0 0 0

ATOMIC_SPECIES
Rh 102.9 Rh.pbe-spn-rrkjus_psl.1.0.0.UPF
V 50.94 V.pbe-spnl-rrkjus_psl.1.0.0.UPF

CELL_PARAMETERS {angstrom}
5.49058000 0.00000000 0.00000000
-0.00000000 5.49058000 0.00000000
0.00000000 0.00000000 25.51880000

ATOMIC_POSITIONS {angstrom}
V 1.37264500 1.37264500 -0.6091337599999989 0 0 0
V 1.37264500 1.37264500 3.07016683
V 1.37264500 4.11793500 -0.6091337599999989 0 0 0
V 1.37264500 4.11793500 3.07016683
V 4.11793500 1.37264500 -0.6091337599999989 0 0 0
V 4.11793500 1.37264500 3.07016683
V 4.11793500 4.11793500 -0.6091337599999989 0 0 0
V 4.11793500 4.11793500 3.07016683
Rh 0.00000000 0.00000000 -2.4487840500000004 0 0 0
Rh 0.00000000 0.00000000 1.23051654
Rh 0.00000000 2.74529000 -2.4487840500000004 0 0 0
Rh 0.00000000 2.74529000 1.23051654
Rh 2.74529000 0.00000000 -2.4487840500000004 0 0 0
Rh 2.74529000 -0.00000000 1.23051654
Rh 2.74529000 2.74529000 -2.4487840500000004 0 0 0
Rh 2.74529000 2.74529000 1.23051654
