&CONTROL
calculation = 'relax'
prefix = 'scf'
pseudo_dir = '/vol0004/mdt0/data/hp150275/u10028/POT_KKJUS'
outdir = './data'
tprnfor = .true.
nstep = 50
disk_io = 'non'
/
&SYSTEM
ibrav = 0
ecutwfc = 50.0
ecutrho = 400
occupations = 'smearing'
smearing = 'mp'
degauss = 0.01
assume_isolated = 'esm'
esm_bc = 'bc1'
input_dft = 'BEEF-VDW'
nosym = .true.
nspin = 1
ntyp = 3
nat = 17
/
&ELECTRONS
electron_maxstep = 200
mixing_beta = 0.1
conv_thr = 1e-06
/
&IONS
ion_dynamics = 'bfgs'
upscale = 1.0
/
&CELL
/

K_POINTS {automatic}
6 8 1 0 0 0

ATOMIC_SPECIES
C 12.01 C.pbe-n-rrkjus_psl.1.0.0.UPF
In 114.8 In.pbe-dn-rrkjus_psl.1.0.0.UPF
Pd 106.4 Pd.pbe-n-rrkjus_psl.1.0.0.UPF

CELL_PARAMETERS {angstrom}
8.16408000 0.00000000 0.00000000
0.00000000 5.77288000 0.00000000
0.00000000 0.00000000 24.32970000

ATOMIC_POSITIONS {angstrom}
In 0.00000000 0.00000000 -2.1648567099999987 0 0 0
In 0.00000000 2.88644000 0.40922555
In 4.08204000 0.00000000 -2.1648567099999987 0 0 0
In 4.08204000 2.88644000 0.95372424
Pd 0.00000000 2.88644000 -2.1648567099999987 0 0 0
Pd 2.04102000 4.32966000 -0.7216188999999993 0 0 0
Pd 2.04102000 1.44322000 -0.7216188999999993 0 0 0
Pd 0.00000000 0.00000000 0.55301408
Pd 1.46120704 1.50412388 2.35487166
Pd 1.46128868 4.26869839 2.35462837
Pd 4.08204000 2.88644000 -2.1648567099999987 0 0 0
Pd 6.12306000 4.32966000 -0.7216188999999993 0 0 0
Pd 6.12306000 1.44322000 -0.7216188999999993 0 0 0
Pd 4.08204000 0.00000000 0.91455342
Pd 6.70279132 1.50418161 2.35462837
Pd 6.70287296 4.26875612 2.35487166
C 0.00000000 2.88644000 2.87723032
