&CONTROL
calculation = 'relax'
prefix = 'scf'
pseudo_dir = '/vol0004/mdt0/data/hp150275/u10028/POT_KKJUS'
outdir = './data'
tprnfor = .true.
nstep = 50
disk_io = 'non'
/
&SYSTEM
ibrav = 0
ecutwfc = 50.0
ecutrho = 400
occupations = 'smearing'
smearing = 'mp'
degauss = 0.01
assume_isolated = 'esm'
esm_bc = 'bc1'
input_dft = 'BEEF-VDW'
nosym = .true.
nspin = 1
ntyp = 5
nat = 34
/
&ELECTRONS
electron_maxstep = 200
mixing_beta = 0.1
conv_thr = 1e-06
/
&IONS
ion_dynamics = 'bfgs'
upscale = 1.0
/
&CELL
/

K_POINTS {automatic}
9 6 2 0  0  0

ATOMIC_SPECIES
C 12.01 C.pbe-n-rrkjus_psl.1.0.0.UPF
Cu 63.54 Cu.pbe-dn-rrkjus_psl.1.0.0.UPF
Ga 69.72 Ga.pbe-dnl-rrkjus_psl.1.0.0.UPF
O 15.99 O.pbe-n-rrkjus_psl.1.0.0.UPF
Sc 44.95 Sc.pbe-spn-rrkjus_psl.1.0.0.UPF

CELL_PARAMETERS {angstrom}
6.23499000 0.00000000 0.00000000
0.00000000 8.81761000 0.00000000
0.00000000 0.00000000 26.61320000

ATOMIC_POSITIONS {angstrom}
Sc 0.00000000 0.00000000 -3.306690100000001 0 0 0
Sc 3.11749500 2.20440250 -1.1023187399999976 0 0 0
Sc 3.11749500 6.61320750 -1.1023187399999976 0 0 0
Sc 0.00000000 4.40880500 -3.306690100000001 0 0 0
Sc 0.00000000 4.46029984 1.08608469
Sc 3.11749500 6.61329568 3.49830514
Sc 3.11749500 2.20440250 3.36577140
Sc 0.00000000 8.76611516 1.08608469
Ga 0.00000000 6.61320750 -1.1023187399999976 0 0 0
Ga 3.11749500 0.00000000 -3.306690100000001 0 0 0
Ga 0.00000000 2.20440250 -1.1023187399999976 0 0 0
Ga 3.11749500 4.40880500 -3.306690100000001 0 0 0
Ga 0.00000000 2.20440250 3.25027012
Ga 3.11749500 4.37415179 1.13345619
Ga 0.00000000 6.61320750 3.21593909
Ga 3.11749500 0.03465321 1.13345619
Cu 1.55874750 0.00000000 -1.1023187399999976 0 0 0
Cu 4.67624250 4.40880500 -1.1023187399999976 0 0 0
Cu 4.67624250 0.00000000 -1.1023187399999976 0 0 0
Cu 1.55874750 4.40880500 -1.1023187399999976 0 0 0
Cu 4.67624250 6.61320750 -3.306690100000001 0 0 0
Cu 1.55874750 2.20440250 -3.306690100000001 0 0 0
Cu 1.55874750 6.61320750 -3.306690100000001 0 0 0
Cu 4.67624250 2.20440250 -3.306690100000001 0 0 0
Cu 1.41927077 4.41762261 3.35166641
Cu 4.81578158 8.80879239 3.35166641
Cu 4.81571923 4.41762261 3.35140028
Cu 1.41920842 8.80879239 3.35166641
Cu 4.68322569 2.20440250 1.11110110
Cu 1.71574455 6.61320750 1.18854551
Cu 1.55170196 2.20440250 1.11083497
Cu 4.51924545 6.61320750 1.18854551
C 3.11749500 2.20440250 5.66461962
O 3.11749500 2.20440250 6.81138241
