&CONTROL
calculation = 'relax'
prefix = 'scf'
pseudo_dir = '/vol0004/mdt0/data/hp150275/u10028/POT_KKJUS'
outdir = './data'
tprnfor = .true.
nstep = 50
disk_io = 'non'
/
&SYSTEM
ibrav = 0
ecutwfc = 50.0
ecutrho = 400
occupations = 'smearing'
smearing = 'mp'
degauss = 0.01
assume_isolated = 'esm'
esm_bc = 'bc1'
input_dft = 'BEEF-VDW'
nosym = .true.
nspin = 1
ntyp = 2
nat = 16
/
&ELECTRONS
electron_maxstep = 200
mixing_beta = 0.1
conv_thr = 1e-06
/
&IONS
ion_dynamics = 'bfgs'
upscale = 1.0
/
&CELL
/

K_POINTS {automatic}
10 10 2 0  0  0

ATOMIC_SPECIES
Pd 106.4 Pd.pbe-n-rrkjus_psl.1.0.0.UPF
Sc 44.95 Sc.pbe-spn-rrkjus_psl.1.0.0.UPF

CELL_PARAMETERS {angstrom}
6.66071000 0.00000000 0.00000000
-0.00000000 6.66071000 0.00000000
0.00000000 0.00000000 24.99550000

ATOMIC_POSITIONS {angstrom}
Sc 1.66517750 1.66517750 -0.49441098999999866 0 0 0
Sc 1.66517750 1.66517750 2.83573948
Sc 1.66517750 4.99553250 -0.49441098999999866 0 0 0
Sc 1.66517750 4.99553250 2.83573948
Sc 4.99553250 1.66517750 -0.49441098999999866 0 0 0
Sc 4.99553250 1.66517750 2.83573948
Sc 4.99553250 4.99553250 -0.49441098999999866 0 0 0
Sc 4.99553250 4.99553250 2.83573948
Pd 0.00000000 0.00000000 -2.1596112000000005 0 0 0
Pd 0.00000000 0.00000000 1.17053926
Pd 0.00000000 3.33035500 -2.1596112000000005 0 0 0
Pd 0.00000000 3.33035500 1.17053926
Pd 3.33035500 0.00000000 -2.1596112000000005 0 0 0
Pd 3.33035500 -0.00000000 1.17053926
Pd 3.33035500 3.33035500 -2.1596112000000005 0 0 0
Pd 3.33035500 3.33035500 1.17053926
