&CONTROL
calculation = 'relax'
prefix = 'scf'
pseudo_dir = '/vol0004/mdt0/data/hp150275/u10028/POT_HYBRID_KKJUS_GBRV'
outdir = './data'
tprnfor = .true.
nstep = 50
disk_io = 'non'
/
&SYSTEM
ibrav = 0
ecutwfc = 50.0
ecutrho = 400
occupations = 'smearing'
smearing = 'mp'
degauss = 0.01
assume_isolated = 'esm'
esm_bc = 'bc1'
input_dft = 'BEEF-VDW'
nosym = .true.
nspin = 2
ntyp = 4
nat = 33
starting_magnetization(1) = 0.0
starting_magnetization(2) = 0.0
starting_magnetization(3) = 0.1
starting_magnetization(4) = 0.1
/
&ELECTRONS
electron_maxstep = 200
mixing_beta = 0.1
conv_thr = 1e-06
/
&IONS
ion_dynamics = 'bfgs'
upscale = 1.0
/
&CELL
/

K_POINTS {automatic}
9 6 2 0  0  0

ATOMIC_SPECIES
Al 26.98 Al.pbe-nl-rrkjus_psl.1.0.0.UPF
C 12.01 C.pbe-n-rrkjus_psl.1.0.0.UPF
Fe 55.84 fe_pbe_v1.5.uspp.F.UPF
Mn 54.93 mn_pbe_v1.5.uspp.F.UPF

CELL_PARAMETERS {angstrom}
5.79866000 0.00000000 0.00000000
0.00000000 8.20054000 0.00000000
0.00000000 0.00000000 26.15040000

ATOMIC_POSITIONS {angstrom}
Mn 0.00000000 0.00000000 23.07511296
Mn 2.89933000 2.05013500 25.12530432
Mn 2.89933000 6.15040500 25.12530432
Mn 0.00000000 4.10027000 23.07511296
Mn 0.00000000 4.10027000 1.02509568
Mn 2.89933000 6.15040500 3.07528704
Mn 2.89933000 2.05013500 3.07528704
Mn 0.00000000 0.00000000 1.02509568
Al 0.00000000 6.15040500 25.12530432
Al 2.89933000 0.00000000 23.07511296
Al 0.00000000 2.05013500 25.12530432
Al 2.89933000 4.10027000 23.07511296
Al 0.00000000 2.05013500 3.07528704
Al 2.89933000 4.10027000 1.02509568
Al 0.00000000 6.15040500 3.07528704
Al 2.89933000 0.00000000 1.02509568
Fe 1.44966500 0.00000000 25.12530432
Fe 4.34899500 4.10027000 25.12530432
Fe 4.34899500 0.00000000 25.12530432
Fe 1.44966500 4.10027000 25.12530432
Fe 4.34899500 6.15040500 23.07511296
Fe 1.44966500 2.05013500 23.07511296
Fe 1.44966500 6.15040500 23.07511296
Fe 4.34899500 2.05013500 23.07511296
Fe 1.44966500 4.10027000 3.07528704
Fe 4.34899500 0.00000000 3.07528704
Fe 4.34899500 4.10027000 3.07528704
Fe 1.44966500 0.00000000 3.07528704
Fe 4.34899500 2.05013500 1.02509568
Fe 1.44966500 6.15040500 1.02509568
Fe 1.44966500 2.05013500 1.02509568
Fe 4.34899500 6.15040500 1.02509568
C 0.00000000 0.00000000 3.87522778
