&CONTROL
calculation = 'relax'
prefix = 'scf'
pseudo_dir = '/vol0403/data/hp230205/u10028/POT_HYBRID_KKJUS_GBRV'
outdir = './data'
tprnfor = .true.
nstep = 50
disk_io = 'non'
/
&SYSTEM
ibrav = 0
ecutwfc = 50.0
ecutrho = 400
occupations = 'smearing'
smearing = 'mp'
degauss = 0.01
assume_isolated = 'esm'
esm_bc = 'bc1'
input_dft = 'BEEF-VDW'
nosym = .true.
nspin = 1
ntyp = 6
nat = 18
/
&ELECTRONS
electron_maxstep = 200
mixing_beta = 0.1
conv_thr = 1e-06
/
&IONS
ion_dynamics = 'bfgs'
upscale = 1.0
/
&CELL
/

K_POINTS {automatic}
6 6 1 0 0 0

ATOMIC_SPECIES
C 12.01 C.pbe-n-rrkjus_psl.1.0.0.UPF
Ge 72.64 Ge.pbe-dn-rrkjus_psl.1.0.0.UPF
Li 6.941 Li.pbe-sl-rrkjus_psl.1.0.0.UPF
O 15.99 O.pbe-n-rrkjus_psl.1.0.0.UPF
Sn 118.7 Sn.pbe-dn-rrkjus_psl.1.0.0.UPF
Y 88.90 Y.pbe-spn-rrkjus_psl.1.0.0.UPF


CELL_PARAMETERS {angstrom}
6.05842000 0.00000000 0.00000000
0.00000000 9.43388000 0.00000000
0.00000000 0.00000000 24.54360000

ATOMIC_POSITIONS {angstrom}
Li 4.55811287 2.35847000 0.75717006
Li 1.55743803 2.35847000 -2.2717556200000004 0 0 0
Li 4.55811287 7.07541000 0.75717006
Li 1.55743803 7.07541000 -2.2717556200000004 0 0 0
Y 3.02921000 0.00000000 2.27175562
Y 0.02853516 0.00000000 -0.75717006 0 0 0
Y 3.02921000 4.71694000 2.27175562
Y 0.02853516 4.71694000 -0.75717006 0 0 0
Sn 1.52890287 2.35847000 0.75717006
Sn 4.58664803 2.35847000 -2.2717556200000004 0 0 0
Sn 1.52890287 7.07541000 0.75717006
Sn 4.58664803 7.07541000 -2.2717556200000004 0 0 0
Ge 0.00000000 0.00000000 2.27175562
Ge 3.05774516 0.00000000 -0.75717006 0 0 0
Ge 0.00000000 4.71694000 2.27175562
Ge 3.05774516 4.71694000 -0.75717006 0 0 0
C 3.02921000 0.00000000 4.17192113
O 3.02921000 0.00000000 5.32178879
