&CONTROL
calculation = 'relax'
prefix = 'scf'
pseudo_dir = '/vol0004/mdt0/data/hp150275/u10028/POT_HYBRID_KKJUS_GBRV'
outdir = './data'
tprnfor = .true.
nstep = 50
disk_io = 'non'
/
&SYSTEM
ibrav = 0
ecutwfc = 50.0
ecutrho = 400
occupations = 'smearing'
smearing = 'mp'
degauss = 0.01
assume_isolated = 'esm'
esm_bc = 'bc1'
input_dft = 'BEEF-VDW'
nosym = .true.
nspin = 2
ntyp = 2
nat = 32
starting_magnetization(1) = 0.0
starting_magnetization(2) = 0.01
/
&ELECTRONS
electron_maxstep = 200
mixing_beta = 0.1
conv_thr = 1e-06
/
&IONS
ion_dynamics = 'bfgs'
upscale = 1.0
/
&CELL
/

K_POINTS {automatic}
6 6 1 0 0 0

ATOMIC_SPECIES
Al 26.98 Al.pbe-nl-rrkjus_psl.1.0.0.UPF
Ni 58.69 ni_pbe_v1.4.uspp.F.UPF

CELL_PARAMETERS {angstrom}
7.16718000 0.00000000 0.00000000
-0.00000000 7.16718000 0.00000000
0.00000000 0.00000000 25.37540000

ATOMIC_POSITIONS {angstrom}
Al 0.00000000 0.00000000 -2.687762369999998 0 0 0
Al 0.00000000 0.00000000 0.89600537
Al 0.00000000 3.58359000 -2.687762369999998 0 0 0
Al 0.00000000 3.58359000 0.89600537
Al 3.58359000 0.00000000 -2.687762369999998 0 0 0
Al 3.58359000 -0.00000000 0.89600537
Al 3.58359000 3.58359000 -2.687762369999998 0 0 0
Al 3.58359000 3.58359000 0.89600537
Ni 0.00000000 1.79179500 -0.8960053699999975 0 0 0
Ni 1.79179500 0.00000000 -0.8960053699999975 0 0 0
Ni 1.79179500 1.79179500 -2.687762369999998 0 0 0
Ni 0.00000000 1.79179500 2.68776237
Ni 1.79179500 -0.00000000 2.68776237
Ni 1.79179500 1.79179500 0.89600537
Ni 0.00000000 5.37538500 -0.8960053699999975 0 0 0
Ni 1.79179500 3.58359000 -0.8960053699999975 0 0 0
Ni 1.79179500 5.37538500 -2.687762369999998 0 0 0
Ni 0.00000000 5.37538500 2.68776237
Ni 1.79179500 3.58359000 2.68776237
Ni 1.79179500 5.37538500 0.89600537
Ni 3.58359000 1.79179500 -0.8960053699999975 0 0 0
Ni 5.37538500 0.00000000 -0.8960053699999975 0 0 0
Ni 5.37538500 1.79179500 -2.687762369999998 0 0 0
Ni 3.58359000 1.79179500 2.68776237
Ni 5.37538500 -0.00000000 2.68776237
Ni 5.37538500 1.79179500 0.89600537
Ni 3.58359000 5.37538500 -0.8960053699999975 0 0 0
Ni 5.37538500 3.58359000 -0.8960053699999975 0 0 0
Ni 5.37538500 5.37538500 -2.687762369999998 0 0 0
Ni 3.58359000 5.37538500 2.68776237
Ni 5.37538500 3.58359000 2.68776237
Ni 5.37538500 5.37538500 0.89600537
