&CONTROL
calculation = 'relax'
prefix = 'scf'
pseudo_dir = '/vol0403/data/hp230205/u10028/POT_HYBRID_KKJUS_GBRV'
outdir = './data'
tprnfor = .true.
nstep = 50
disk_io = 'non'
/
&SYSTEM
ibrav = 0
ecutwfc = 50.0
ecutrho = 400
occupations = 'smearing'
smearing = 'mp'
degauss = 0.01
assume_isolated = 'esm'
esm_bc = 'bc1'
input_dft = 'BEEF-VDW'
nosym = .true.
nspin = 1
ntyp = 6
nat = 34
/
&ELECTRONS
electron_maxstep = 200
mixing_beta = 0.1
conv_thr = 1e-06
/
&IONS
ion_dynamics = 'bfgs'
upscale = 1.0
/
&CELL
/

K_POINTS {automatic}
7 7 2 0  0  0

ATOMIC_SPECIES
C 12.01 C.pbe-n-rrkjus_psl.1.0.0.UPF
Ge 72.64 Ge.pbe-dn-rrkjus_psl.1.0.0.UPF
Li 6.941 Li.pbe-sl-rrkjus_psl.1.0.0.UPF
O 15.99 O.pbe-n-rrkjus_psl.1.0.0.UPF
Sn 118.7 Sn.pbe-dn-rrkjus_psl.1.0.0.UPF
Y 88.90 Y.pbe-spn-rrkjus_psl.1.0.0.UPF


CELL_PARAMETERS {angstrom}
8.60818000 0.00000000 0.00000000
0.00000000 8.52742000 0.00000000
0.00000000 0.00000000 27.07540000

ATOMIC_POSITIONS {angstrom}
Li 0.00000000 2.13185500 -1.1791336699999988 0 0 0
Li 0.05681399 2.12238956 3.68469119
Li 0.00000000 6.39556500 -1.1791336699999988 0 0 0
Li 0.05681399 6.40511571 3.68469119
Li 4.30409000 2.13185500 -1.1791336699999988 0 0 0
Li 4.24675952 2.12213374 3.68469119
Li 4.30409000 6.39556500 -1.1791336699999988 0 0 0
Li 4.24667344 6.40528626 3.68469119
Y 2.15204500 2.13185500 -3.5376717599999985 0 0 0
Y 2.15187284 2.14319647 1.16938653
Y 2.15204500 6.39556500 -3.5376717599999985 0 0 0
Y 2.15195892 6.38430881 1.16938653
Y 6.45613500 2.13185500 -3.5376717599999985 0 0 0
Y 6.45596284 2.17474792 1.19916947
Y 6.45613500 6.39556500 -3.5376717599999985 0 0 0
Y 6.45596284 6.35275735 1.19916947
Sn 2.15204500 0.00000000 -1.1791336699999988 0 0 0
Sn 2.15109810 0.00000000 3.60427725
Sn 2.15204500 4.26371000 -1.1791336699999988 0 0 0
Sn 2.15178675 4.26371000 3.74831838
Sn 6.45613500 0.00000000 -1.1791336699999988 0 0 0
Sn 6.45622108 0.00000000 3.64976392
Sn 6.45613500 4.26371000 -1.1791336699999988 0 0 0
Sn 6.45579067 4.26371000 3.80246918
Ge 0.00000000 0.00000000 -3.5376717599999985 0 0 0
Ge 8.59587030 0.00000000 1.50701676
Ge 0.00000000 4.26371000 -3.5376717599999985 0 0 0
Ge 0.01928232 4.26371000 1.70520869
Ge 4.30409000 0.00000000 -3.5376717599999985 0 0 0
Ge 4.31596929 0.00000000 1.50701676
Ge 4.30409000 4.26371000 -3.5376717599999985 0 0 0
Ge 4.28437727 4.26379527 1.70520869
C 2.16392429 8.52597034 7.56405450
O 2.14937646 0.00034110 8.69851376
