&CONTROL
calculation = 'relax'
prefix = 'scf'
pseudo_dir = '/vol0403/data/hp230205/u10028/POT_HYBRID_KKJUS_GBRV'
outdir = './data'
tprnfor = .true.
nstep = 50
disk_io = 'non'
/
&SYSTEM
ibrav = 0
ecutwfc = 50.0
ecutrho = 400
occupations = 'smearing'
smearing = 'mp'
degauss = 0.01
assume_isolated = 'esm'
esm_bc = 'bc1'
input_dft = 'BEEF-VDW'
nosym = .true.
nspin = 1
ntyp = 6
nat = 34
/
&ELECTRONS
electron_maxstep = 200
mixing_beta = 0.1
conv_thr = 1e-06
/
&IONS
ion_dynamics = 'bfgs'
upscale = 1.0
/
&CELL
/

K_POINTS {automatic}
9 6 2 0  0  0

ATOMIC_SPECIES
C 12.01 C.pbe-n-rrkjus_psl.1.0.0.UPF
Cu 63.54 Cu.pbe-dn-rrkjus_psl.1.0.0.UPF
Ge 72.64 Ge.pbe-dn-rrkjus_psl.1.0.0.UPF
Li 6.941 Li.pbe-sl-rrkjus_psl.1.0.0.UPF
O 15.99 O.pbe-n-rrkjus_psl.1.0.0.UPF
Sn 118.7 Sn.pbe-dn-rrkjus_psl.1.0.0.UPF


CELL_PARAMETERS {angstrom}
6.57410000 0.00000000 0.00000000
0.00000000 9.29718000 0.00000000
0.00000000 0.00000000 26.97290000

ATOMIC_POSITIONS {angstrom}
Li 0.00000000 2.32429500 -1.1622622599999985 0 0 0
Li 0.00000000 6.97288500 -1.1622622599999985 0 0 0
Li 3.28705000 4.64859000 -3.48651705 0 0 0
Li 3.28705000 0.00000000 -3.48651705 0 0 0
Li 0.34244487 6.97288500 3.96016118
Li 0.26526494 2.32438797 3.92105047
Li 3.42970797 0.00269618 1.21890535
Li 3.42970797 4.64570787 1.21890535
Cu 0.00000000 0.00000000 -3.48651705 0 0 0
Cu 0.00000000 4.64859000 -3.48651705 0 0 0
Cu 3.28705000 6.97288500 -1.1622622599999985 0 0 0
Cu 3.28705000 2.32429500 -1.1622622599999985 0 0 0
Cu 6.39101131 4.64226792 1.53691584
Cu 6.39107706 0.00613614 1.53718557
Cu 3.25523136 2.32438797 3.28961488
Cu 3.14721889 6.97297797 3.31442995
Sn 4.93057500 0.00000000 -1.1622622599999985 0 0 0
Sn 4.93057500 4.64859000 -1.1622622599999985 0 0 0
Sn 1.64352500 2.32429500 -3.48651705 0 0 0
Sn 1.64352500 6.97288500 -3.48651705 0 0 0
Sn 4.77884477 4.71348432 3.91268887
Sn 4.77884477 9.23237866 3.91268887
Sn 1.50606057 6.97269906 1.19166272
Sn 1.52933288 2.32420203 1.20460971
Ge 1.64352500 0.00000000 -1.1622622599999985 0 0 0
Ge 1.64352500 4.64859000 -1.1622622599999985 0 0 0
Ge 4.93057500 2.32429500 -3.48651705 0 0 0
Ge 4.93057500 6.97288500 -3.48651705 0 0 0
Ge 1.93015576 4.65556289 3.59090218
Ge 1.93009002 9.29030009 3.59063245
Ge 5.08901081 6.97279203 1.52423858
Ge 5.11202016 2.32420203 1.48000302
C 0.11386341 2.32438797 6.03167990
O 0.03227883 2.32438797 7.16723899
