&CONTROL
calculation = 'relax'
prefix = 'scf'
pseudo_dir = '/vol0403/data/hp230205/u10028/POT_HYBRID_KKJUS_GBRV'
outdir = './data'
tprnfor = .true.
nstep = 50
disk_io = 'non'
/
&SYSTEM
ibrav = 0
ecutwfc = 50.0
ecutrho = 400
occupations = 'smearing'
smearing = 'mp'
degauss = 0.01
assume_isolated = 'esm'
esm_bc = 'bc1'
input_dft = 'BEEF-VDW'
nosym = .true.
nspin = 1
ntyp = 5
nat = 33
/
&ELECTRONS
electron_maxstep = 200
mixing_beta = 0.1
conv_thr = 1e-06
/
&IONS
ion_dynamics = 'bfgs'
upscale = 1.0
/
&CELL
/

K_POINTS {automatic}
6 6 1 0 0 0

ATOMIC_SPECIES
Ag 107.8 Ag.pbe-n-rrkjus_psl.1.0.0.UPF
C 12.01 C.pbe-n-rrkjus_psl.1.0.0.UPF
In 114.8 In.pbe-dn-rrkjus_psl.1.0.0.UPF
Li 6.941 Li.pbe-sl-rrkjus_psl.1.0.0.UPF
Y 88.90 Y.pbe-spn-rrkjus_psl.1.0.0.UPF


CELL_PARAMETERS {angstrom}
6.90709000 0.00000000 0.00000000
0.00000000 9.76810000 0.00000000
0.00000000 0.00000000 27.32610000

ATOMIC_POSITIONS {angstrom}
Li 0.00000000 2.44202500 -1.220930150000001 0 0 0
Li 0.00000000 7.32607500 -1.220930150000001 0 0 0
Li 3.45354500 4.88405000 -3.6630636999999986 0 0 0
Li 3.45354500 0.00000000 -3.6630636999999986 0 0 0
Li 1.35662155 7.32607500 5.28814687
Li 0.84052378 2.44202500 4.94301823
Li 3.45243987 0.02959734 1.38707284
Li 3.45243987 4.85445266 1.38734610
Y 5.18031750 0.00000000 -1.220930150000001 0 0 0
Y 5.18031750 4.88405000 -1.220930150000001 0 0 0
Y 1.72677250 2.44202500 -3.6630636999999986 0 0 0
Y 1.72677250 7.32607500 -3.6630636999999986 0 0 0
Y 5.68322272 4.65283907 3.67754654
Y 5.68315365 0.23121093 3.67781980
Y 1.69645037 7.32607500 1.54993639
Y 1.26130370 2.44202500 1.91009439
In 1.72677250 0.00000000 -1.220930150000001 0 0 0
In 1.72677250 4.88405000 -1.220930150000001 0 0 0
In 5.18031750 2.44202500 -3.6630636999999986 0 0 0
In 5.18031750 7.32607500 -3.6630636999999986 0 0 0
In 2.00989412 4.95545481 3.90052751
In 2.00996319 9.69669519 3.90052751
In 5.17195992 7.32607500 1.16983034
In 5.07325761 2.44202500 1.14031815
Ag 0.00000000 0.00000000 -3.6630636999999986 0 0 0
Ag 0.00000000 4.88405000 -3.6630636999999986 0 0 0
Ag 3.45354500 7.32607500 -1.220930150000001 0 0 0
Ag 3.45354500 2.44202500 -1.220930150000001 0 0 0
Ag 0.06278545 4.98573592 1.04795594
Ag 0.06285452 9.66641408 1.04795594
Ag 3.58180966 2.44202500 3.73219874
Ag 3.78909143 7.32607500 3.67945937
C 6.25298858 2.44202500 3.40783793
