&CONTROL
calculation = 'relax'
prefix = 'scf'
pseudo_dir = '/vol0403/data/hp230205/u10028/POT_HYBRID_KKJUS_GBRV'
outdir = './data'
tprnfor = .true.
nstep = 50
disk_io = 'non'
/
&SYSTEM
ibrav = 0
ecutwfc = 50.0
ecutrho = 400
occupations = 'smearing'
smearing = 'mp'
degauss = 0.01
assume_isolated = 'esm'
esm_bc = 'bc1'
input_dft = 'BEEF-VDW'
nosym = .true.
nspin = 1
ntyp = 5
nat = 33
/
&ELECTRONS
electron_maxstep = 200
mixing_beta = 0.1
conv_thr = 1e-06
/
&IONS
ion_dynamics = 'bfgs'
upscale = 1.0
/
&CELL
/

K_POINTS {automatic}
6 6 1 0 0 0

ATOMIC_SPECIES
C 12.01 C.pbe-n-rrkjus_psl.1.0.0.UPF
Ga 69.72 Ga.pbe-dnl-rrkjus_psl.1.0.0.UPF
Pd 106.4 Pd.pbe-n-rrkjus_psl.1.0.0.UPF
Sc 44.95 Sc.pbe-spn-rrkjus_psl.1.0.0.UPF
Y 88.90 Y.pbe-spn-rrkjus_psl.1.0.0.UPF


CELL_PARAMETERS {angstrom}
7.06732000 0.00000000 0.00000000
0.00000000 9.48206000 0.00000000
0.00000000 0.00000000 27.39200000

ATOMIC_POSITIONS {angstrom}
Y 1.76683000 0.00000000 -1.2320921600000005 0 0 0
Y 1.93701107 9.48016359 4.15618816
Y 1.76683000 4.74103000 -1.2320921600000005 0 0 0
Y 1.77573482 4.74103000 3.89486848
Y 5.30049000 0.00000000 -1.2320921600000005 0 0 0
Y 5.13016759 9.48016359 4.15646208
Y 5.30049000 4.74103000 -1.2320921600000005 0 0 0
Y 5.29158518 4.74112482 3.89486848
Sc 1.76683000 2.37051500 -3.69600256 0 0 0
Sc 1.80273199 2.38208311 1.23072256
Sc 1.76683000 7.11154500 -3.69600256 0 0 0
Sc 1.80202525 7.09940796 1.23072256
Sc 5.30049000 2.37051500 -3.69600256 0 0 0
Sc 5.26458801 2.38198829 1.23072256
Sc 5.30049000 7.11154500 -3.69600256 0 0 0
Sc 5.26529475 7.09940796 1.23072256
Ga 0.00000000 0.00000000 -3.69600256 0 0 0
Ga 0.00007067 9.48139626 1.26824960
Ga 0.00000000 4.74103000 -3.69600256 0 0 0
Ga 0.00000000 4.74046108 1.44273664
Ga 3.53366000 0.00000000 -3.69600256 0 0 0
Ga 3.53366000 9.48158590 1.46081536
Ga 3.53366000 4.74103000 -3.69600256 0 0 0
Ga 3.53373067 4.74074554 1.41835776
Pd 0.00000000 2.37051500 -1.2320921600000005 0 0 0
Pd 7.06724933 2.46609416 3.27553536
Pd 0.00000000 7.11154500 -1.2320921600000005 0 0 0
Pd 0.00007067 7.01672440 3.27745280
Pd 3.53366000 2.37051500 -1.2320921600000005 0 0 0
Pd 3.53373067 2.43148465 3.34538496
Pd 3.53366000 7.11154500 -1.2320921600000005 0 0 0
Pd 3.53366000 7.04915305 3.34401536
C 7.06717865 0.01071473 3.25800448
