&CONTROL
calculation = 'relax'
prefix = 'scf'
pseudo_dir = '/vol0004/mdt0/data/hp150275/u10028/POT_KKJUS'
outdir = './data'
tprnfor = .true.
nstep = 50
disk_io = 'non'
/
&SYSTEM
ibrav = 0
ecutwfc = 50.0
ecutrho = 400
occupations = 'smearing'
smearing = 'mp'
degauss = 0.01
assume_isolated = 'esm'
esm_bc = 'bc1'
input_dft = 'BEEF-VDW'
nosym = .true.
nspin = 1
ntyp = 4
nat = 33
/
&ELECTRONS
electron_maxstep = 200
mixing_beta = 0.1
conv_thr = 1e-06
/
&IONS
ion_dynamics = 'bfgs'
upscale = 1.0
/
&CELL
/

K_POINTS {automatic}
8 6 1 0 0 0

ATOMIC_SPECIES
C 12.01 C.pbe-n-rrkjus_psl.1.0.0.UPF
Ga 69.72 Ga.pbe-dnl-rrkjus_psl.1.0.0.UPF
Ir 192.2 Ir.pbe-n-rrkjus_psl.0.2.3.UPF
Li 6.941 Li.pbe-sl-rrkjus_psl.1.0.0.UPF

CELL_PARAMETERS {angstrom}
6.11439000 0.00000000 0.00000000
0.00000000 8.64705000 0.00000000
0.00000000 0.00000000 26.48530000

ATOMIC_POSITIONS {angstrom}
Li 0.00000000 0.00000000 -3.2425952799999997 0 0 0
Li 3.05719500 2.16176250 -1.0808650899999996 0 0 0
Li 3.05719500 6.48528750 -1.0808650899999996 0 0 0
Li 0.00000000 4.32352500 -3.2425952799999997 0 0 0
Li 0.00000000 4.32352500 0.94870345
Li 3.05719500 6.19950250 3.58001800
Li 3.05719500 2.44754750 3.58001800
Li 0.00000000 0.00000000 1.20746483
Ga 1.52859750 0.00000000 -1.0808650899999996 0 0 0
Ga 4.58579250 4.32352500 -1.0808650899999996 0 0 0
Ga 4.58579250 0.00000000 -1.0808650899999996 0 0 0
Ga 1.52859750 4.32352500 -1.0808650899999996 0 0 0
Ga 4.58579250 6.48528750 -3.2425952799999997 0 0 0
Ga 1.52859750 2.16176250 -3.2425952799999997 0 0 0
Ga 1.52859750 6.48528750 -3.2425952799999997 0 0 0
Ga 4.58579250 2.16176250 -3.2425952799999997 0 0 0
Ga 1.28493906 4.32352500 3.22140704
Ga 4.22412633 0.00000000 3.35515780
Ga 4.82945094 4.32352500 3.22140704
Ga 1.89026367 0.00000000 3.35515780
Ga 4.56353612 2.16643191 1.12880349
Ga 1.55085388 6.48061809 1.12880349
Ga 1.55085388 2.16643191 1.12880349
Ga 4.56353612 6.48061809 1.12880349
Ir 0.00000000 6.48528750 -1.0808650899999996 0 0 0
Ir 3.05719500 0.00000000 -3.2425952799999997 0 0 0
Ir 0.00000000 2.16176250 -1.0808650899999996 0 0 0
Ir 3.05719500 4.32352500 -3.2425952799999997 0 0 0
Ir 0.00000000 1.98501680 3.18088453
Ir 3.05719500 4.32352500 1.06338479
Ir 0.00000000 6.66203320 3.18088453
Ir 3.05719500 0.00000000 0.92645579
C 0.00000000 0.00000000 3.69496420
