&CONTROL
calculation = 'relax'
prefix = 'scf'
pseudo_dir = '/vol0004/mdt0/data/hp150275/u10028/POT_HYBRID_KKJUS_GBRV'
outdir = './data'
tprnfor = .true.
nstep = 50
disk_io = 'non'
/
&SYSTEM
ibrav = 0
ecutwfc = 50.0
ecutrho = 400
occupations = 'smearing'
smearing = 'mp'
degauss = 0.01
assume_isolated = 'esm'
esm_bc = 'bc1'
input_dft = 'BEEF-VDW'
nosym = .true.
nspin = 2
ntyp = 3
nat = 17
starting_magnetization(1) = 0.0
starting_magnetization(2) = 0.1
starting_magnetization(3) = 0.0
/
&ELECTRONS
electron_maxstep = 200
mixing_beta = 0.1
conv_thr = 1e-06
/
&IONS
ion_dynamics = 'bfgs'
upscale = 1.0
/
&CELL
/

K_POINTS {automatic}
6 8 1 0 0 0

ATOMIC_SPECIES
C 12.01 C.pbe-n-rrkjus_psl.1.0.0.UPF
Mn 54.93 mn_pbe_v1.5.uspp.F.UPF
Pt 195.0 Pt.pbe-n-rrkjus_psl.1.0.0.UPF

CELL_PARAMETERS {angstrom}
7.92107000 0.00000000 0.00000000
-0.00000000 5.60104000 0.00000000
0.00000000 0.00000000 24.20080000

ATOMIC_POSITIONS {angstrom}
Mn 0.00000000 0.00000000 2.10038743
Mn 0.00000000 2.80052000 -0.7001291400000014 0 0 0
Mn 3.96053500 -0.00000000 2.10038743
Mn 3.96053500 2.80052000 -0.7001291400000014 0 0 0
Pt 0.00000000 2.80052000 2.10038743
Pt 1.98026750 4.20078000 0.70012914
Pt 1.98026750 1.40026000 0.70012914
Pt 0.00000000 0.00000000 -0.7001291400000014 0 0 0
Pt 1.98026750 1.40026000 -2.1003874300000014 0 0 0
Pt 1.98026750 4.20078000 -2.1003874300000014 0 0 0
Pt 3.96053500 2.80052000 2.10038743
Pt 5.94080250 4.20078000 0.70012914
Pt 5.94080250 1.40026000 0.70012914
Pt 3.96053500 0.00000000 -0.7001291400000014 0 0 0
Pt 5.94080250 1.40026000 -2.1003874300000014 0 0 0
Pt 5.94080250 4.20078000 -2.1003874300000014 0 0 0
C 1.98026750 1.40026000 2.90046588
