&CONTROL
calculation = 'relax'
prefix = 'scf'
pseudo_dir = '/vol0004/mdt0/data/hp150275/u10028/POT_KKJUS'
outdir = './data'
tprnfor = .true.
nstep = 50
disk_io = 'non'
/
&SYSTEM
ibrav = 0
ecutwfc = 50.0
ecutrho = 400
occupations = 'smearing'
smearing = 'mp'
degauss = 0.01
assume_isolated = 'esm'
esm_bc = 'bc1'
input_dft = 'BEEF-VDW'
nosym = .true.
nspin = 1
ntyp = 2
nat = 32
/
&ELECTRONS
electron_maxstep = 200
mixing_beta = 0.1
conv_thr = 1e-06
/
&IONS
ion_dynamics = 'bfgs'
upscale = 1.0
/
&CELL
/

K_POINTS {automatic}
8 6 1 0 0 0

ATOMIC_SPECIES
Ca 40.07 Ca.pbe-spn-rrkjus_psl.1.0.0.UPF
In 114.8 In.pbe-dn-rrkjus_psl.1.0.0.UPF

CELL_PARAMETERS {angstrom}
7.80577000 0.00000000 0.00000000
0.00000000 11.03900000 0.00000000
0.00000000 0.00000000 28.27930000

ATOMIC_POSITIONS {angstrom}
Ca 0.00000000 0.00000000 -4.139523929999999 0 0 0
Ca 0.00000000 2.75975000 -1.3797470499999989 0 0 0
Ca 0.00062446 11.03866883 1.34835702
Ca 0.00000000 2.75975000 4.20711146
Ca 0.00000000 5.51950000 -4.139523929999999 0 0 0
Ca 0.00000000 8.27925000 -1.3797470499999989 0 0 0
Ca 7.80545777 5.51905844 1.34977099
Ca 0.00000000 8.27913961 4.20795984
Ca 3.90288500 0.00000000 -4.139523929999999 0 0 0
Ca 3.90288500 2.75975000 -1.3797470499999989 0 0 0
Ca 3.90389975 11.03877922 1.34892261
Ca 3.90265083 2.75986039 4.20767705
Ca 3.90288500 5.51950000 -4.139523929999999 0 0 0
Ca 3.90288500 8.27925000 -1.3797470499999989 0 0 0
Ca 3.90288500 5.51916883 1.34977099
Ca 3.90288500 8.27925000 4.20824263
In 1.95144250 2.75975000 -4.139523929999999 0 0 0
In 1.95144250 0.00000000 -1.3797470499999989 0 0 0
In 1.95175473 2.75986039 1.48438046
In 1.95128638 11.03877922 4.11492094
In 1.95144250 8.27925000 -4.139523929999999 0 0 0
In 1.95144250 5.51950000 -1.3797470499999989 0 0 0
In 1.95198890 8.27902922 1.48494604
In 1.95152056 5.51961039 4.11378977
In 5.85432750 2.75975000 -4.139523929999999 0 0 0
In 5.85432750 0.00000000 -1.3797470499999989 0 0 0
In 5.85393721 2.75986039 1.48438046
In 5.85440556 11.03877922 4.11520374
In 5.85432750 8.27925000 -4.139523929999999 0 0 0
In 5.85432750 5.51950000 -1.3797470499999989 0 0 0
In 5.85370304 8.27902922 1.48494604
In 5.85417138 5.51961039 4.11350698
