&CONTROL
calculation = 'relax'
prefix = 'scf'
pseudo_dir = '/vol0004/mdt0/data/hp150275/u10028/POT_KKJUS'
outdir = './data'
tprnfor = .true.
nstep = 50
disk_io = 'non'
/
&SYSTEM
ibrav = 0
ecutwfc = 50.0
ecutrho = 400
occupations = 'smearing'
smearing = 'mp'
degauss = 0.01
assume_isolated = 'esm'
esm_bc = 'bc1'
input_dft = 'BEEF-VDW'
nosym = .true.
nspin = 1
ntyp = 3
nat = 33
/
&ELECTRONS
electron_maxstep = 200
mixing_beta = 0.1
conv_thr = 1e-06
/
&IONS
ion_dynamics = 'bfgs'
upscale = 1.0
/
&CELL
/

K_POINTS {automatic}
9 6 2 0  0  0

ATOMIC_SPECIES
Ag 107.8 Ag.pbe-n-rrkjus_psl.1.0.0.UPF
C 12.01 C.pbe-n-rrkjus_psl.1.0.0.UPF
Li 6.941 Li.pbe-sl-rrkjus_psl.1.0.0.UPF

CELL_PARAMETERS {angstrom}
6.44966000 0.00000000 0.00000000
0.00000000 9.12120000 0.00000000
0.00000000 0.00000000 26.84090000

ATOMIC_POSITIONS {angstrom}
Li 1.61241500 2.28030000 -3.4203358900000005 0 0 0
Li 1.61241500 0.00000000 -1.1402014300000012 0 0 0
Li 1.59809675 2.25421337 1.13322280
Li 1.86253281 0.00000000 3.77436736
Li 1.61241500 6.84090000 -3.4203358900000005 0 0 0
Li 1.61241500 4.56060000 -1.1402014300000012 0 0 0
Li 1.59809675 6.86698663 1.13322280
Li 1.56023725 4.56060000 3.54568289
Li 4.83724500 2.28030000 -3.4203358900000005 0 0 0
Li 4.83724500 0.00000000 -1.1402014300000012 0 0 0
Li 4.85156325 2.25412216 1.13322280
Li 4.58706269 0.00000000 3.77436736
Li 4.83724500 6.84090000 -3.4203358900000005 0 0 0
Li 4.83724500 4.56060000 -1.1402014300000012 0 0 0
Li 4.85156325 6.86707784 1.13322280
Li 4.88942275 4.56060000 3.54568289
Ag 0.00000000 0.00000000 -3.4203358900000005 0 0 0
Ag 0.00000000 2.28030000 -1.1402014300000012 0 0 0
Ag 0.00000000 0.00000000 1.00250762
Ag 0.00000000 2.19747950 3.31753524
Ag 0.00000000 4.56060000 -3.4203358900000005 0 0 0
Ag 0.00000000 6.84090000 -1.1402014300000012 0 0 0
Ag 0.00000000 4.56060000 1.25212798
Ag 0.00000000 6.92372050 3.31753524
Ag 3.22483000 0.00000000 -3.4203358900000005 0 0 0
Ag 3.22483000 2.28030000 -1.1402014300000012 0 0 0
Ag 3.22483000 0.00000000 1.16301620
Ag 3.22483000 2.35390808 3.27995798
Ag 3.22483000 4.56060000 -3.4203358900000005 0 0 0
Ag 3.22483000 6.84090000 -1.1402014300000012 0 0 0
Ag 3.22483000 4.56060000 1.15550075
Ag 3.22476550 6.76720070 3.27995798
C 0.00000000 0.00000000 3.15112166
