&CONTROL
calculation = 'relax'
prefix = 'scf'
pseudo_dir = '/vol0004/mdt0/data/hp150275/u10028/POT_KKJUS'
outdir = './data'
tprnfor = .true.
nstep = 50
disk_io = 'non'
/
&SYSTEM
ibrav = 0
ecutwfc = 50.0
ecutrho = 400
occupations = 'smearing'
smearing = 'mp'
degauss = 0.01
assume_isolated = 'esm'
esm_bc = 'bc1'
input_dft = 'BEEF-VDW'
nosym = .true.
nspin = 1
ntyp = 2
nat = 32
/
&ELECTRONS
electron_maxstep = 200
mixing_beta = 0.1
conv_thr = 1e-06
/
&IONS
ion_dynamics = 'bfgs'
upscale = 1.0
/
&CELL
/

K_POINTS {automatic}
7 7 2 0  0  0

ATOMIC_SPECIES
Nb 92.90 Nb.pbe-spn-rrkjus_psl.1.0.0.UPF
Rh 102.9 Rh.pbe-spn-rrkjus_psl.1.0.0.UPF

CELL_PARAMETERS {angstrom}
7.81819000 0.00000000 0.00000000
-0.00000000 7.81819000 0.00000000
0.00000000 0.00000000 25.86360000

ATOMIC_POSITIONS {angstrom}
Nb 0.00000000 0.00000000 -2.9318977000000004 0 0 0
Nb 0.00000000 0.00000000 0.97738544
Nb 0.00000000 3.90909500 -2.9318977000000004 0 0 0
Nb 0.00000000 3.90909500 0.97738544
Nb 3.90909500 0.00000000 -2.9318977000000004 0 0 0
Nb 3.90909500 -0.00000000 0.97738544
Nb 3.90909500 3.90909500 -2.9318977000000004 0 0 0
Nb 3.90909500 3.90909500 0.97738544
Rh 0.00000000 1.95454750 -0.9773854400000026 0 0 0
Rh 1.95454750 0.00000000 -0.9773854400000026 0 0 0
Rh 1.95454750 1.95454750 -2.9318977000000004 0 0 0
Rh 0.00000000 1.95454750 2.93189770
Rh 1.95454750 -0.00000000 2.93189770
Rh 1.95454750 1.95454750 0.97738544
Rh 0.00000000 5.86364250 -0.9773854400000026 0 0 0
Rh 1.95454750 3.90909500 -0.9773854400000026 0 0 0
Rh 1.95454750 5.86364250 -2.9318977000000004 0 0 0
Rh 0.00000000 5.86364250 2.93189770
Rh 1.95454750 3.90909500 2.93189770
Rh 1.95454750 5.86364250 0.97738544
Rh 3.90909500 1.95454750 -0.9773854400000026 0 0 0
Rh 5.86364250 0.00000000 -0.9773854400000026 0 0 0
Rh 5.86364250 1.95454750 -2.9318977000000004 0 0 0
Rh 3.90909500 1.95454750 2.93189770
Rh 5.86364250 -0.00000000 2.93189770
Rh 5.86364250 1.95454750 0.97738544
Rh 3.90909500 5.86364250 -0.9773854400000026 0 0 0
Rh 5.86364250 3.90909500 -0.9773854400000026 0 0 0
Rh 5.86364250 5.86364250 -2.9318977000000004 0 0 0
Rh 3.90909500 5.86364250 2.93189770
Rh 5.86364250 3.90909500 2.93189770
Rh 5.86364250 5.86364250 0.97738544
