&CONTROL
calculation = 'relax'
prefix = 'scf'
pseudo_dir = '/vol0403/data/hp230205/u10028/POT_HYBRID_KKJUS_GBRV'
outdir = './data'
tprnfor = .true.
nstep = 50
disk_io = 'non'
/
&SYSTEM
ibrav = 0
ecutwfc = 50.0
ecutrho = 400
occupations = 'smearing'
smearing = 'mp'
degauss = 0.01
assume_isolated = 'esm'
esm_bc = 'bc1'
input_dft = 'BEEF-VDW'
nosym = .true.
nspin = 1
ntyp = 6
nat = 34
/
&ELECTRONS
electron_maxstep = 200
mixing_beta = 0.1
conv_thr = 1e-06
/
&IONS
ion_dynamics = 'bfgs'
upscale = 1.0
/
&CELL
/

K_POINTS {automatic}
6 6 1 0 0 0

ATOMIC_SPECIES
Ag 107.8 Ag.pbe-n-rrkjus_psl.1.0.0.UPF
Al 26.98 Al.pbe-nl-rrkjus_psl.1.0.0.UPF
C 12.01 C.pbe-n-rrkjus_psl.1.0.0.UPF
Li 6.941 Li.pbe-sl-rrkjus_psl.1.0.0.UPF
Mg 24.30 Mg.pbe-spnl-rrkjus_psl.1.0.0.UPF
O 15.99 O.pbe-n-rrkjus_psl.1.0.0.UPF


CELL_PARAMETERS {angstrom}
6.43596000 0.00000000 0.00000000
0.00000000 9.10182000 0.00000000
0.00000000 0.00000000 26.82640000

ATOMIC_POSITIONS {angstrom}
Li 0.00000000 2.27545500 -1.1377076200000005 0 0 0
Li 0.00000000 6.82636500 -1.1377076200000005 0 0 0
Li 3.21798000 4.55091000 -3.4131228699999987 0 0 0
Li 3.21798000 0.00000000 -3.4131228699999987 0 0 0
Li 0.27282034 6.84283929 4.11892546
Li 0.27327086 2.25888969 4.11919372
Li 3.26316044 0.00000000 1.15326694
Li 3.26875972 4.55091000 1.21630898
Mg 4.82697000 0.00000000 -1.1377076200000005 0 0 0
Mg 4.82697000 4.55091000 -1.1377076200000005 0 0 0
Mg 1.60899000 2.27545500 -3.4131228699999987 0 0 0
Mg 1.60899000 6.82636500 -3.4131228699999987 0 0 0
Mg 4.94661450 4.55081898 3.55127883
Mg 4.84627788 0.00009102 3.49682124
Mg 1.57069604 6.82436260 1.21765030
Mg 1.57069604 2.27745740 1.21738203
Al 1.60899000 0.00000000 -1.1377076200000005 0 0 0
Al 1.60899000 4.55091000 -1.1377076200000005 0 0 0
Al 4.82697000 2.27545500 -3.4131228699999987 0 0 0
Al 4.82697000 6.82636500 -3.4131228699999987 0 0 0
Al 1.60770281 4.55091000 3.45684990
Al 1.69053361 9.10172898 3.42653607
Al 4.89441886 6.81271227 1.32576069
Al 4.89448322 2.28910773 1.32576069
Ag 0.00000000 0.00000000 -3.4131228699999987 0 0 0
Ag 0.00000000 4.55091000 -3.4131228699999987 0 0 0
Ag 3.21798000 6.82636500 -1.1377076200000005 0 0 0
Ag 3.21798000 2.27545500 -1.1377076200000005 0 0 0
Ag 6.43267766 4.55081898 1.07493385
Ag 6.42991020 0.00000000 1.14468249
Ag 3.15516503 2.31832457 3.43056003
Ag 3.15529375 6.78340441 3.43082830
C 5.01914777 0.00000000 5.69792736
O 5.10011214 0.00000000 6.84529249
