&CONTROL
calculation = 'relax'
prefix = 'scf'
pseudo_dir = '/vol0004/mdt0/data/hp150275/u10028/POT_KKJUS'
outdir = './data'
tprnfor = .true.
nstep = 50
disk_io = 'non'
/
&SYSTEM
ibrav = 0
ecutwfc = 50.0
ecutrho = 400
occupations = 'smearing'
smearing = 'mp'
degauss = 0.01
assume_isolated = 'esm'
esm_bc = 'bc1'
input_dft = 'BEEF-VDW'
nosym = .true.
nspin = 1
ntyp = 5
nat = 34
/
&ELECTRONS
electron_maxstep = 200
mixing_beta = 0.1
conv_thr = 1e-06
/
&IONS
ion_dynamics = 'bfgs'
upscale = 1.0
/
&CELL
/

K_POINTS {automatic}
9 6 2 0  0  0

ATOMIC_SPECIES
C 12.01 C.pbe-n-rrkjus_psl.1.0.0.UPF
Ga 69.72 Ga.pbe-dnl-rrkjus_psl.1.0.0.UPF
Ir 192.2 Ir.pbe-n-rrkjus_psl.0.2.3.UPF
Li 6.941 Li.pbe-sl-rrkjus_psl.1.0.0.UPF
O 15.99 O.pbe-n-rrkjus_psl.1.0.0.UPF

CELL_PARAMETERS {angstrom}
5.92875000 0.00000000 0.00000000
0.00000000 8.38451000 0.00000000
0.00000000 0.00000000 26.28840000

ATOMIC_POSITIONS {angstrom}
Li 1.48218750 0.00000000 -1.0481185099999983 0 0 0
Li 4.44656250 4.19225500 -1.0481185099999983 0 0 0
Li 4.44656250 0.00000000 -1.0481185099999983 0 0 0
Li 1.48218750 4.19225500 -1.0481185099999983 0 0 0
Li 4.44656250 6.28838250 -3.14409264 0 0 0
Li 1.48218750 2.09612750 -3.14409264 0 0 0
Li 1.48218750 6.28838250 -3.14409264 0 0 0
Li 4.44656250 2.09612750 -3.14409264 0 0 0
Li 1.41305828 4.20265179 3.81470972
Li 4.51557315 8.37436474 3.81497261
Li 4.51569172 4.20248410 3.81497261
Li 1.41311756 8.37419705 3.81497261
Li 4.45260982 2.09595981 0.95532046
Li 1.47370939 6.28821481 0.94664528
Li 1.47608089 2.09629519 0.95532046
Li 4.45504061 6.28846635 0.94664528
Ga 0.00000000 0.00000000 -3.14409264 0 0 0
Ga 2.96437500 2.09612750 -1.0481185099999983 0 0 0
Ga 2.96437500 6.28838250 -1.0481185099999983 0 0 0
Ga 0.00000000 4.19225500 -3.14409264 0 0 0
Ga 5.92833499 4.19451882 1.44375893
Ga 2.96449358 6.28846635 2.95718212
Ga 2.96407856 2.09612750 2.97821284
Ga 0.00029644 8.38233003 1.44375893
Ir 0.00000000 6.28838250 -1.0481185099999983 0 0 0
Ir 2.96437500 0.00000000 -3.14409264 0 0 0
Ir 0.00000000 2.09612750 -1.0481185099999983 0 0 0
Ir 2.96437500 4.19225500 -3.14409264 0 0 0
Ir 0.00017786 2.09612750 2.99267146
Ir 2.96467144 4.19535727 1.50133052
Ir 5.92863142 6.28838250 3.02080004
Ir 2.96419714 8.38157542 1.50133052
C 2.96473072 2.09428291 5.07234678
O 2.96449358 2.09688211 6.24034039
