&CONTROL
calculation = 'relax'
prefix = 'scf'
pseudo_dir = '/vol0004/mdt0/data/hp150275/u10028/POT_KKJUS'
outdir = './data'
tprnfor = .true.
nstep = 50
disk_io = 'non'
/
&SYSTEM
ibrav = 0
ecutwfc = 50.0
ecutrho = 400
occupations = 'smearing'
smearing = 'mp'
degauss = 0.01
assume_isolated = 'esm'
esm_bc = 'bc1'
input_dft = 'BEEF-VDW'
nosym = .true.
nspin = 1
ntyp = 4
nat = 34
/
&ELECTRONS
electron_maxstep = 200
mixing_beta = 0.1
conv_thr = 1e-06
/
&IONS
ion_dynamics = 'bfgs'
upscale = 1.0
/
&CELL
/

K_POINTS {automatic}
9 6 2 0  0  0

ATOMIC_SPECIES
Al 26.98 Al.pbe-nl-rrkjus_psl.1.0.0.UPF
C 12.01 C.pbe-n-rrkjus_psl.1.0.0.UPF
Cu 63.54 Cu.pbe-dn-rrkjus_psl.1.0.0.UPF
O 15.99 O.pbe-n-rrkjus_psl.1.0.0.UPF

CELL_PARAMETERS {angstrom}
5.88044000 0.00000000 0.00000000
0.00000000 8.31620000 0.00000000
0.00000000 0.00000000 26.23710000

ATOMIC_POSITIONS {angstrom}
Al 0.00000000 0.00000000 -3.1185417100000024 0 0 0
Al 2.94022000 2.07905000 -1.0395139000000029 0 0 0
Al 2.94022000 6.23715000 -1.0395139000000029 0 0 0
Al 0.00000000 4.15810000 -3.1185417100000024 0 0 0
Al 0.00000000 4.19294488 1.04266235
Al 2.94022000 6.23715000 3.25523700
Al 2.94022000 2.07905000 3.20486176
Al 0.00000000 8.28135512 1.04266235
Cu 1.47011000 0.00000000 -1.0395139000000029 0 0 0
Cu 4.41033000 4.15810000 -1.0395139000000029 0 0 0
Cu 4.41033000 0.00000000 -1.0395139000000029 0 0 0
Cu 1.47011000 4.15810000 -1.0395139000000029 0 0 0
Cu 4.41033000 6.23715000 -3.1185417100000024 0 0 0
Cu 1.47011000 2.07905000 -3.1185417100000024 0 0 0
Cu 1.47011000 6.23715000 -3.1185417100000024 0 0 0
Cu 4.41033000 2.07905000 -3.1185417100000024 0 0 0
Cu 0.00000000 6.23715000 -1.0395139000000029 0 0 0
Cu 2.94022000 0.00000000 -3.1185417100000024 0 0 0
Cu 0.00000000 2.07905000 -1.0395139000000029 0 0 0
Cu 2.94022000 4.15810000 -3.1185417100000024 0 0 0
Cu 1.49516067 4.18288228 3.07183967
Cu 4.38527933 8.29141772 3.07183967
Cu 4.38527933 4.18288228 3.07183967
Cu 1.49516067 8.29141772 3.07183967
Cu 4.40991837 2.07905000 1.05420668
Cu 1.53314832 6.23715000 1.04135050
Cu 1.47052163 2.07905000 1.05420668
Cu 4.34729168 6.23715000 1.04135050
Cu 0.00000000 2.07905000 3.07131493
Cu 2.94022000 4.13606207 0.98179228
Cu 0.00000000 6.23715000 3.05032525
Cu 2.94022000 0.02203793 0.98179228
C 2.94022000 2.07905000 5.22170764
O 2.94022000 2.07905000 6.37010551
