&CONTROL
calculation = 'relax'
prefix = 'scf'
pseudo_dir = '/vol0004/mdt0/data/hp150275/u10028/POT_KKJUS'
outdir = './data'
tprnfor = .true.
nstep = 50
disk_io = 'non'
/
&SYSTEM
ibrav = 0
ecutwfc = 50.0
ecutrho = 400
occupations = 'smearing'
smearing = 'mp'
degauss = 0.01
assume_isolated = 'esm'
esm_bc = 'bc1'
input_dft = 'BEEF-VDW'
nosym = .true.
nspin = 1
ntyp = 3
nat = 32
/
&ELECTRONS
electron_maxstep = 200
mixing_beta = 0.1
conv_thr = 1e-06
/
&IONS
ion_dynamics = 'bfgs'
upscale = 1.0
/
&CELL
/

K_POINTS {automatic}
9 6 2 0  0  0

ATOMIC_SPECIES
Au 196.9 Au.pbe-n-rrkjus_psl.1.0.0.UPF
Li 6.941 Li.pbe-sl-rrkjus_psl.1.0.0.UPF
Sb 121.7 Sb.pbe-n-rrkjus_psl.1.0.0.UPF

CELL_PARAMETERS {angstrom}
6.66546000 0.00000000 0.00000000
0.00000000 9.42638000 0.00000000
0.00000000 0.00000000 27.06980000

ATOMIC_POSITIONS {angstrom}
Li 0.00000000 7.06978500 -1.17834839 0 0 0
Li 3.33273000 0.00000000 -3.5347744799999994 0 0 0
Li 0.00000000 2.35659500 -1.17834839 0 0 0
Li 3.33273000 4.71319000 -3.5347744799999994 0 0 0
Li 1.66636500 2.35659500 -3.5347744799999994 0 0 0
Li 1.66636500 7.06978500 -3.5347744799999994 0 0 0
Li 4.99909500 4.71319000 -1.17834839 0 0 0
Li 4.99909500 0.00000000 -1.17834839 0 0 0
Li 0.22315960 2.35659500 3.39292873
Li 3.39745162 4.71319000 0.97857327
Li 0.22315960 7.06978500 3.39292873
Li 3.39745162 0.00000000 0.97830257
Li 1.82826902 7.06978500 1.26280617
Li 1.82826902 2.35659500 1.26280617
Li 4.68548511 0.00000000 3.40240316
Li 4.68541845 4.71319000 3.40240316
Sb 0.00000000 0.00000000 -3.5347744799999994 0 0 0
Sb 3.33273000 2.35659500 -1.17834839 0 0 0
Sb 3.33273000 7.06978500 -1.17834839 0 0 0
Sb 0.00000000 4.71319000 -3.5347744799999994 0 0 0
Sb 6.55374689 4.71319000 1.21705821
Sb 3.21701761 7.06978500 3.87639536
Sb 3.21701761 2.35659500 3.87639536
Sb 6.55374689 0.00000000 1.21705821
Au 1.66636500 0.00000000 -1.17834839 0 0 0
Au 1.66636500 4.71319000 -1.17834839 0 0 0
Au 4.99909500 7.06978500 -3.5347744799999994 0 0 0
Au 4.99909500 2.35659500 -3.5347744799999994 0 0 0
Au 1.86506236 4.71319000 3.16500102
Au 1.86506236 0.00000000 3.16500102
Au 4.85918699 2.35659500 1.46934874
Au 4.85918699 7.06978500 1.46934874
