&CONTROL
calculation = 'relax'
prefix = 'scf'
pseudo_dir = '/vol0403/data/hp230205/u10028/POT_HYBRID_KKJUS_GBRV'
outdir = './data'
tprnfor = .true.
nstep = 70
disk_io = 'non'
/
&SYSTEM
ibrav = 0
ecutwfc = 50.0
ecutrho = 400
occupations = 'smearing'
smearing = 'mp'
degauss = 0.01
assume_isolated = 'esm'
esm_bc = 'bc1'
input_dft = 'BEEF-VDW'
nosym = .true.
nspin = 1
ntyp = 6
nat = 34
/
&ELECTRONS
electron_maxstep = 200
mixing_beta = 0.1
conv_thr = 1e-06
/
&IONS
ion_dynamics = 'bfgs'
upscale = 1.0
/
&CELL
/

K_POINTS {automatic}
9 6 2 0  0  0

ATOMIC_SPECIES
C 12.01 C.pbe-n-rrkjus_psl.1.0.0.UPF
Cu 63.54 Cu.pbe-dn-rrkjus_psl.1.0.0.UPF
In 114.8 In.pbe-dn-rrkjus_psl.1.0.0.UPF
Mg 24.30 Mg.pbe-spnl-rrkjus_psl.1.0.0.UPF
O 15.99 O.pbe-n-rrkjus_psl.1.0.0.UPF
Pd 106.4 Pd.pbe-n-rrkjus_psl.1.0.0.UPF


CELL_PARAMETERS {angstrom}
6.45956000 0.00000000 0.00000000
-0.00000000 9.13520000 0.00000000
0.00000000 0.00000000 26.85140000

ATOMIC_POSITIONS {angstrom}
Mg 1.61489000 0.00000000 -1.1419900400000031 0 0 0
Mg 1.61489000 4.56760000 -1.1419900400000031 0 0 0
Mg 4.84467000 2.28380000 -3.425701610000001 0 0 0
Mg 4.84467000 6.85140000 -3.425701610000001 0 0 0
Mg 1.57800591 4.56760000 3.53606087
Mg 1.57186933 -0.00000000 3.59593949
Mg 4.83653095 6.87515152 1.10010186
Mg 4.83646636 2.26023118 1.10010186
In 4.84467000 0.00000000 -1.1419900400000031 0 0 0
In 4.84467000 4.56760000 -1.1419900400000031 0 0 0
In 1.61489000 2.28380000 -3.425701610000001 0 0 0
In 1.61489000 6.85140000 -3.425701610000001 0 0 0
In 4.78013900 4.56760000 3.79195471
In 4.80843187 9.13510865 3.72885392
In 1.61010993 6.83303825 1.17233212
In 1.61010993 2.30216175 1.17233212
Cu 0.00000000 0.00000000 -3.425701610000001 0 0 0
Cu 0.00000000 4.56760000 -3.425701610000001 0 0 0
Cu 3.22978000 6.85140000 -1.1419900400000031 0 0 0
Cu 3.22978000 2.28380000 -1.1419900400000031 0 0 0
Cu 6.36395851 4.56760000 1.28537652
Cu 6.44224838 0.00009135 1.29826519
Cu 3.32202252 2.29594982 3.33333280
Cu 3.32195792 6.83925018 3.33333280
Pd 0.00000000 2.28380000 -1.1419900400000031 0 0 0
Pd 0.00000000 6.85140000 -1.1419900400000031 0 0 0
Pd 3.22978000 4.56760000 -3.425701610000001 0 0 0
Pd 3.22978000 0.00000000 -3.425701610000001 0 0 0
Pd 6.33973516 6.82554738 3.30299071
Pd 6.33967057 2.30965262 3.30299071
Pd 3.21892794 -0.00000000 1.27920070
Pd 3.29185637 4.56769135 1.21556288
C 1.65797527 -0.00000000 5.86756793
O 1.66882733 0.00009135 7.00902094
