&CONTROL
calculation = 'relax'
prefix = 'scf'
pseudo_dir = '/vol0403/data/hp230205/u10028/POT_HYBRID_KKJUS_GBRV'
outdir = './data'
tprnfor = .true.
nstep = 70
disk_io = 'non'
/
&SYSTEM
ibrav = 0
ecutwfc = 50.0
ecutrho = 400
occupations = 'smearing'
smearing = 'mp'
degauss = 0.01
assume_isolated = 'esm'
esm_bc = 'bc1'
input_dft = 'BEEF-VDW'
nosym = .true.
nspin = 1
ntyp = 6
nat = 34
/
&ELECTRONS
electron_maxstep = 200
mixing_beta = 0.1
conv_thr = 1e-06
/
&IONS
ion_dynamics = 'bfgs'
upscale = 1.0
/
&CELL
/

K_POINTS {automatic}
6 6 1 0 0 0

ATOMIC_SPECIES
Ag 107.8 Ag.pbe-n-rrkjus_psl.1.0.0.UPF
C 12.01 C.pbe-n-rrkjus_psl.1.0.0.UPF
Li 6.941 Li.pbe-sl-rrkjus_psl.1.0.0.UPF
O 15.99 O.pbe-n-rrkjus_psl.1.0.0.UPF
Pd 106.4 Pd.pbe-n-rrkjus_psl.1.0.0.UPF
Sn 118.7 Sn.pbe-dn-rrkjus_psl.1.0.0.UPF


CELL_PARAMETERS {angstrom}
6.55175000 0.00000000 0.00000000
-0.00000000 9.26558000 0.00000000
0.00000000 0.00000000 26.94920000

ATOMIC_POSITIONS {angstrom}
Li 1.63793750 0.00000000 -1.1582766200000023 0 0 0
Li 1.63793750 4.63279000 -1.1582766200000023 0 0 0
Li 4.91381250 2.31639500 -3.4745603600000017 0 0 0
Li 4.91381250 6.94918500 -3.4745603600000017 0 0 0
Li 1.56396824 4.68792020 3.50905533
Li 1.56390272 9.21054245 3.50905533
Li 4.88400204 6.94918500 1.03970014
Li 4.84862259 2.31639500 1.09386803
Ag 0.00000000 0.00000000 -3.4745603600000017 0 0 0
Ag 0.00000000 4.63279000 -3.4745603600000017 0 0 0
Ag 3.27587500 6.94918500 -1.1582766200000023 0 0 0
Ag 3.27587500 2.31639500 -1.1582766200000023 0 0 0
Ag 6.49206356 4.62982501 1.22160724
Ag 6.49212908 0.00287233 1.22160724
Ag 3.37284090 2.31648766 3.52279942
Ag 3.42715491 6.94918500 3.40718736
Sn 4.91381250 0.00000000 -1.1582766200000023 0 0 0
Sn 4.91381250 4.63279000 -1.1582766200000023 0 0 0
Sn 1.63793750 2.31639500 -3.4745603600000017 0 0 0
Sn 1.63793750 6.94918500 -3.4745603600000017 0 0 0
Sn 5.06148894 4.65317428 3.77396597
Sn 5.06155446 9.24519572 3.77423546
Sn 1.67462730 6.94918500 1.15342576
Sn 1.67082729 2.31639500 1.16878680
Pd 0.00000000 2.31639500 -1.1582766200000023 0 0 0
Pd 0.00000000 6.94918500 -1.1582766200000023 0 0 0
Pd 3.27587500 4.63279000 -3.4745603600000017 0 0 0
Pd 3.27587500 0.00000000 -3.4745603600000017 0 0 0
Pd 6.42936331 6.94918500 3.19078528
Pd 6.37020101 2.31639500 3.18377849
Pd 3.32206484 0.02538769 1.38276345
Pd 3.32213035 4.60749497 1.38276345
C 2.59875164 2.31639500 5.68169984
O 2.68150024 2.31639500 6.82138150
