&CONTROL
calculation = 'relax'
prefix = 'scf'
pseudo_dir = '/vol0403/data/hp230205/u10028/POT_HYBRID_KKJUS_GBRV'
outdir = './data'
tprnfor = .true.
nstep = 50
disk_io = 'non'
/
&SYSTEM
ibrav = 0
ecutwfc = 50.0
ecutrho = 400
occupations = 'smearing'
smearing = 'mp'
degauss = 0.01
assume_isolated = 'esm'
esm_bc = 'bc1'
input_dft = 'BEEF-VDW'
nosym = .true.
nspin = 1
ntyp = 5
nat = 33
/
&ELECTRONS
electron_maxstep = 200
mixing_beta = 0.1
conv_thr = 1e-06
/
&IONS
ion_dynamics = 'bfgs'
upscale = 1.0
/
&CELL
/

K_POINTS {automatic}
6 6 1 0 0 0

ATOMIC_SPECIES
Ag 107.8 Ag.pbe-n-rrkjus_psl.1.0.0.UPF
C 12.01 C.pbe-n-rrkjus_psl.1.0.0.UPF
Li 6.941 Li.pbe-sl-rrkjus_psl.1.0.0.UPF
Pb 207.2 Pb.pbe-dn-rrkjus_psl.1.0.0.UPF
Y 88.90 Y.pbe-spn-rrkjus_psl.1.0.0.UPF


CELL_PARAMETERS {angstrom}
7.20907000 0.00000000 0.00000000
0.00000000 10.19520000 0.00000000
0.00000000 0.00000000 27.64640000

ATOMIC_POSITIONS {angstrom}
Li 1.80226750 0.00000000 -1.2744990399999985 0 0 0
Li 1.80226750 5.09760000 -1.2744990399999985 0 0 0
Li 5.40680250 2.54880000 -3.8232206600000005 0 0 0
Li 5.40680250 7.64640000 -3.8232206600000005 0 0 0
Li 1.73659287 5.09760000 3.74802245
Li 1.45406942 0.00000000 3.98550502
Li 5.43217843 7.56708134 1.29246920
Li 5.43217843 2.62811866 1.29246920
Y 5.40680250 0.00000000 -1.2744990399999985 0 0 0
Y 5.40680250 5.09760000 -1.2744990399999985 0 0 0
Y 1.80226750 2.54880000 -3.8232206600000005 0 0 0
Y 1.80226750 7.64640000 -3.8232206600000005 0 0 0
Y 5.18454687 5.09760000 3.82847347
Y 5.47730720 0.00000000 3.94541774
Y 1.72130964 7.75864915 1.39835491
Y 1.72130964 2.43655085 1.39835491
Ag 0.00000000 0.00000000 -3.8232206600000005 0 0 0
Ag 0.00000000 5.09760000 -3.8232206600000005 0 0 0
Ag 3.60453500 7.64640000 -1.2744990399999985 0 0 0
Ag 3.60453500 2.54880000 -1.2744990399999985 0 0 0
Ag 7.16696903 5.09760000 1.43208352
Ag 7.02552708 0.00000000 1.29108688
Ag 3.45451425 2.46550522 3.85556694
Ag 3.45444216 7.72969478 3.85556694
Pb 0.00000000 2.54880000 -1.2744990399999985 0 0 0
Pb 0.00000000 7.64640000 -1.2744990399999985 0 0 0
Pb 3.60453500 5.09760000 -3.8232206600000005 0 0 0
Pb 3.60453500 0.00000000 -3.8232206600000005 0 0 0
Pb 7.20784446 7.46920742 4.07784400
Pb 7.20784446 2.72599258 4.07784400
Pb 3.75023030 0.00000000 1.16640162
Pb 3.46720222 5.09760000 1.22667077
C 3.35748017 0.00000000 3.41460686
