&CONTROL
calculation = 'relax'
prefix = 'scf'
pseudo_dir = '/vol0403/data/hp230205/u10028/POT_HYBRID_KKJUS_GBRV'
outdir = './data'
tprnfor = .true.
nstep = 50
disk_io = 'non'
/
&SYSTEM
ibrav = 0
ecutwfc = 50.0
ecutrho = 400
occupations = 'smearing'
smearing = 'mp'
degauss = 0.01
assume_isolated = 'esm'
esm_bc = 'bc1'
input_dft = 'BEEF-VDW'
nosym = .true.
nspin = 1
ntyp = 4
nat = 16
/
&ELECTRONS
electron_maxstep = 200
mixing_beta = 0.1
conv_thr = 1e-06
/
&IONS
ion_dynamics = 'bfgs'
upscale = 1.0
/
&CELL
/

K_POINTS {automatic}
12 7 3 0  0  0

ATOMIC_SPECIES
Ga 69.72 Ga.pbe-dnl-rrkjus_psl.1.0.0.UPF
Pd 106.4 Pd.pbe-n-rrkjus_psl.1.0.0.UPF
Sc 44.95 Sc.pbe-spn-rrkjus_psl.1.0.0.UPF
Y 88.90 Y.pbe-spn-rrkjus_psl.1.0.0.UPF


CELL_PARAMETERS {angstrom}
5.91305000 0.00000000 0.00000000
0.00000000 9.85606000 0.00000000
0.00000000 0.00000000 24.24990000

ATOMIC_POSITIONS {angstrom}
Y 1.05589334 2.46401500 -0.7083395800000005 0 0 0
Y 3.03428161 2.46401500 2.14223617
Y 1.05589334 7.39204500 -0.7083395800000005 0 0 0
Y 3.03422248 7.39243924 2.14247867
Sc 2.95652500 0.00000000 -2.1250187400000016 0 0 0
Sc 4.88512539 0.00009856 0.67438972
Sc 2.95652500 4.92803000 -2.1250187400000016 0 0 0
Sc 4.88583495 4.92803000 0.67438972
Ga 0.00000000 0.00000000 -2.1250187400000016 0 0 0
Ga 1.93333083 0.00000000 0.89069883
Ga 0.00000000 4.92803000 -2.1250187400000016 0 0 0
Ga 1.93534126 4.92822712 0.89094133
Pd 4.01241834 2.46401500 -0.7083395800000005 0 0 0
Pd 5.89146737 2.46342364 1.78794513
Pd 4.01241834 7.39204500 -0.7083395800000005 0 0 0
Pd 5.89140824 7.39243924 1.78770263
