&CONTROL
calculation = 'relax'
prefix = 'scf'
pseudo_dir = '/vol0004/mdt0/data/hp150275/u10028/POT_KKJUS'
outdir = './data'
tprnfor = .true.
nstep = 50
disk_io = 'non'
/
&SYSTEM
ibrav = 0
ecutwfc = 50.0
ecutrho = 400
occupations = 'smearing'
smearing = 'mp'
degauss = 0.01
assume_isolated = 'esm'
esm_bc = 'bc1'
input_dft = 'BEEF-VDW'
nosym = .true.
nspin = 1
ntyp = 4
nat = 33
/
&ELECTRONS
electron_maxstep = 200
mixing_beta = 0.1
conv_thr = 1e-06
/
&IONS
ion_dynamics = 'bfgs'
upscale = 1.0
/
&CELL
/

K_POINTS {automatic}
9 6 2 0  0  0

ATOMIC_SPECIES
C 12.01 C.pbe-n-rrkjus_psl.1.0.0.UPF
Li 6.941 Li.pbe-sl-rrkjus_psl.1.0.0.UPF
Pt 195.0 Pt.pbe-n-rrkjus_psl.1.0.0.UPF
Sb 121.7 Sb.pbe-n-rrkjus_psl.1.0.0.UPF

CELL_PARAMETERS {angstrom}
6.40528000 0.00000000 0.00000000
0.00000000 9.05843000 0.00000000
0.00000000 0.00000000 26.79380000

ATOMIC_POSITIONS {angstrom}
Li 0.00000000 6.79382250 -1.1323059900000025 0 0 0
Li 3.20264000 0.00000000 -3.3969179599999997 0 0 0
Li 0.00000000 2.26460750 -1.1323059900000025 0 0 0
Li 3.20264000 4.52921500 -3.3969179599999997 0 0 0
Li 1.60132000 2.26460750 -3.3969179599999997 0 0 0
Li 1.60132000 6.79382250 -3.3969179599999997 0 0 0
Li 4.80396000 4.52921500 -1.1323059900000025 0 0 0
Li 4.80396000 0.00000000 -1.1323059900000025 0 0 0
Li 6.31265965 2.26460750 3.26857566
Li 3.25003907 4.62749897 1.02271935
Li 0.08762423 6.79382250 3.46068721
Li 3.25003907 8.96014603 1.02271935
Li 1.63328235 6.79382250 1.23144305
Li 2.09484682 2.26460750 1.65049808
Li 4.53596308 0.17002673 3.36932035
Li 4.53602714 4.35927885 3.36932035
Sb 0.00000000 0.00000000 -3.3969179599999997 0 0 0
Sb 3.20264000 2.26460750 -1.1323059900000025 0 0 0
Sb 3.20264000 6.79382250 -1.1323059900000025 0 0 0
Sb 0.00000000 4.52921500 -3.3969179599999997 0 0 0
Sb 0.03055319 4.46408489 1.12399991
Sb 3.24408216 6.79382250 3.57911580
Sb 2.51682667 2.26460750 4.40168546
Sb 0.03055319 0.06513011 1.12399991
Pt 1.60132000 0.00000000 -1.1323059900000025 0 0 0
Pt 1.60132000 4.52921500 -1.1323059900000025 0 0 0
Pt 4.80396000 6.79382250 -3.3969179599999997 0 0 0
Pt 4.80396000 2.26460750 -3.3969179599999997 0 0 0
Pt 1.68298732 4.59633797 3.17318973
Pt 1.68298732 8.99121645 3.17318973
Pt 4.67028181 2.26460750 1.13525331
Pt 4.85577872 6.79382250 1.22715604
C 4.13582524 2.26460750 3.08369844
