&CONTROL
calculation = 'relax'
prefix = 'scf'
pseudo_dir = '/vol0004/mdt0/data/hp150275/u10028/POT_KKJUS'
outdir = './data'
tprnfor = .true.
nstep = 50
disk_io = 'non'
/
&SYSTEM
ibrav = 0
ecutwfc = 50.0
ecutrho = 400
occupations = 'smearing'
smearing = 'mp'
degauss = 0.01
assume_isolated = 'esm'
esm_bc = 'bc1'
input_dft = 'BEEF-VDW'
nosym = .true.
nspin = 1
ntyp = 5
nat = 34
/
&ELECTRONS
electron_maxstep = 200
mixing_beta = 0.1
conv_thr = 1e-06
/
&IONS
ion_dynamics = 'bfgs'
upscale = 1.0
/
&CELL
/

K_POINTS {automatic}
9 6 2 0  0  0

ATOMIC_SPECIES
Ag 107.8 Ag.pbe-n-rrkjus_psl.1.0.0.UPF
C 12.01 C.pbe-n-rrkjus_psl.1.0.0.UPF
Li 6.941 Li.pbe-sl-rrkjus_psl.1.0.0.UPF
O 15.99 O.pbe-n-rrkjus_psl.1.0.0.UPF
Sn 118.7 Sn.pbe-dn-rrkjus_psl.1.0.0.UPF

CELL_PARAMETERS {angstrom}
6.77071000 0.00000000 0.00000000
0.00000000 9.57522000 0.00000000
0.00000000 0.00000000 27.18140000

ATOMIC_POSITIONS {angstrom}
Li 0.00000000 0.00000000 -3.5906629400000014 0 0 0
Li 3.38535500 2.39380500 -1.1967970399999999 0 0 0
Li 3.38535500 7.18141500 -1.1967970399999999 0 0 0
Li 0.00000000 4.78761000 -3.5906629400000014 0 0 0
Li 0.00013541 4.72948841 1.10519572
Li 3.38549041 7.18141500 3.60479727
Li 3.38542271 2.39380500 3.46807483
Li 0.00020312 0.05821734 1.10519572
Ag 1.69267750 0.00000000 -1.1967970399999999 0 0 0
Ag 5.07803250 4.78761000 -1.1967970399999999 0 0 0
Ag 5.07803250 0.00000000 -1.1967970399999999 0 0 0
Ag 1.69267750 4.78761000 -1.1967970399999999 0 0 0
Ag 5.07803250 7.18141500 -3.5906629400000014 0 0 0
Ag 1.69267750 2.39380500 -3.5906629400000014 0 0 0
Ag 1.69267750 7.18141500 -3.5906629400000014 0 0 0
Ag 5.07803250 2.39380500 -3.5906629400000014 0 0 0
Ag 1.60811133 4.79747248 3.43790347
Ag 5.16307262 9.56554903 3.43763166
Ag 5.16293720 4.79728097 3.43790347
Ag 1.60804363 9.56545328 3.43790347
Ag 5.04830908 2.39380500 1.17369285
Ag 1.56728395 7.18141500 1.32155967
Ag 1.72267175 2.39390075 1.17342104
Ag 5.20376458 7.18151075 1.32155967
Sn 0.00000000 7.18141500 -1.1967970399999999 0 0 0
Sn 3.38535500 0.00000000 -3.5906629400000014 0 0 0
Sn 0.00000000 2.39380500 -1.1967970399999999 0 0 0
Sn 3.38535500 4.78761000 -3.5906629400000014 0 0 0
Sn 0.00040624 2.39390075 3.69041868
Sn 3.38549041 4.82878345 1.16880020
Sn 0.00006771 7.18141500 3.87090317
Sn 3.38542271 9.53423806 1.16880020
C 6.76265286 2.39256022 7.84808562
O 0.00243746 2.39418801 8.98671447
