&CONTROL
calculation = 'relax'
prefix = 'scf'
pseudo_dir = '/vol0403/data/hp230205/u10028/POT_HYBRID_KKJUS_GBRV'
outdir = './data'
tprnfor = .true.
nstep = 70
disk_io = 'non'
/
&SYSTEM
ibrav = 0
ecutwfc = 50.0
ecutrho = 400
occupations = 'smearing'
smearing = 'mp'
degauss = 0.01
assume_isolated = 'esm'
esm_bc = 'bc1'
input_dft = 'BEEF-VDW'
nosym = .true.
nspin = 1
ntyp = 5
nat = 17
/
&ELECTRONS
electron_maxstep = 200
mixing_beta = 0.1
conv_thr = 1e-06
/
&IONS
ion_dynamics = 'bfgs'
upscale = 1.0
/
&CELL
/

K_POINTS {automatic}
11 8 2 0  0  0

ATOMIC_SPECIES
C 12.01 C.pbe-n-rrkjus_psl.1.0.0.UPF
Cu 63.54 Cu.pbe-dn-rrkjus_psl.1.0.0.UPF
Li 6.941 Li.pbe-sl-rrkjus_psl.1.0.0.UPF
Mg 24.30 Mg.pbe-spnl-rrkjus_psl.1.0.0.UPF
Pd 106.4 Pd.pbe-n-rrkjus_psl.1.0.0.UPF


CELL_PARAMETERS {angstrom}
5.46655000 0.00000000 0.00000000
-0.00000000 7.95764000 0.00000000
0.00000000 0.00000000 24.09630000

ATOMIC_POSITIONS {angstrom}
Li 2.73327500 0.00000000 -2.048185499999999 0 0 0
Li 5.20940349 -0.00000000 0.45686585
Li 2.73327500 3.97882000 -2.048185499999999 0 0 0
Li 5.24056282 3.97882000 0.83686450
Mg 1.30956672 1.98941000 -0.682648180000001 0 0 0
Mg 3.71621536 1.77534948 2.23517279
Mg 1.30956672 5.96823000 -0.682648180000001 0 0 0
Mg 3.71627002 6.18229052 2.23517279
Cu 0.00000000 0.00000000 -2.048185499999999 0 0 0
Cu 2.66712974 -0.00000000 0.45301044
Cu 0.00000000 3.97882000 -2.048185499999999 0 0 0
Cu 2.56315596 3.97882000 0.79879234
Pd 4.04284172 1.98941000 -0.682648180000001 0 0 0
Pd 0.99518543 1.58492316 1.96770386
Pd 4.04284172 5.96823000 -0.682648180000001 0 0 0
Pd 0.99524009 6.37271684 1.96770386
C 2.26003577 -0.00000000 2.35734103
