&CONTROL
calculation = 'relax'
prefix = 'scf'
pseudo_dir = '/vol0403/data/hp230205/u10028/POT_HYBRID_KKJUS_GBRV'
outdir = './data'
tprnfor = .true.
nstep = 50
disk_io = 'non'
/
&SYSTEM
ibrav = 0
ecutwfc = 50.0
ecutrho = 400
occupations = 'smearing'
smearing = 'mp'
degauss = 0.01
assume_isolated = 'esm'
esm_bc = 'bc1'
input_dft = 'BEEF-VDW'
nosym = .true.
nspin = 1
ntyp = 5
nat = 33
/
&ELECTRONS
electron_maxstep = 200
mixing_beta = 0.1
conv_thr = 1e-06
/
&IONS
ion_dynamics = 'bfgs'
upscale = 1.0
/
&CELL
/

K_POINTS {automatic}
6 6 1 0 0 0

ATOMIC_SPECIES
C 12.01 C.pbe-n-rrkjus_psl.1.0.0.UPF
Li 6.941 Li.pbe-sl-rrkjus_psl.1.0.0.UPF
Pb 207.2 Pb.pbe-dn-rrkjus_psl.1.0.0.UPF
Sn 118.7 Sn.pbe-dn-rrkjus_psl.1.0.0.UPF
Y 88.90 Y.pbe-spn-rrkjus_psl.1.0.0.UPF


CELL_PARAMETERS {angstrom}
9.64462000 0.00000000 0.00000000
0.00000000 8.87168000 0.00000000
0.00000000 0.00000000 27.02620000

ATOMIC_POSITIONS {angstrom}
Li 0.00000000 0.03282522 3.72799403
Li 0.00000000 0.00000000 -1.1710452499999988 0 0 0
Li 0.00000000 4.40301478 3.72799403
Li 0.00000000 4.43584000 -1.1710452499999988 0 0 0
Li 4.82231000 8.73408024 3.61394346
Li 4.82231000 0.00000000 -1.1710452499999988 0 0 0
Li 4.82231000 4.57343976 3.61394346
Li 4.82231000 4.43584000 -1.1710452499999988 0 0 0
Y 2.42880465 0.02333252 1.16023477
Y 2.41115500 0.00000000 -3.513135739999999 0 0 0
Y 2.42880465 4.41250748 1.16023477
Y 2.41115500 4.43584000 -3.513135739999999 0 0 0
Y 7.21581535 0.02333252 1.16023477
Y 7.23346500 0.00000000 -3.513135739999999 0 0 0
Y 7.21581535 4.41250748 1.16023477
Y 7.23346500 4.43584000 -3.513135739999999 0 0 0
Sn 2.16164868 2.21792000 3.92069083
Sn 2.41115500 2.21792000 -1.1710452499999988 0 0 0
Sn 2.56112884 6.65376000 3.54718875
Sn 2.41115500 6.65376000 -1.1710452499999988 0 0 0
Sn 7.48306777 2.21792000 3.92069083
Sn 7.23346500 2.21792000 -1.1710452499999988 0 0 0
Sn 7.08349116 6.65376000 3.54718875
Sn 7.23346500 6.65376000 -1.1710452499999988 0 0 0
Pb 0.00000000 2.21792000 1.13591119
Pb 0.00000000 2.21792000 -3.513135739999999 0 0 0
Pb 0.00000000 6.65376000 1.52806135
Pb 0.00000000 6.65376000 -3.513135739999999 0 0 0
Pb 4.82231000 2.21792000 1.40617319
Pb 4.82231000 2.21792000 -3.513135739999999 0 0 0
Pb 4.82231000 6.65376000 1.21104402
Pb 4.82231000 6.65376000 -3.513135739999999 0 0 0
C 0.00000000 2.21792000 3.75529049
