&CONTROL
calculation = 'relax'
prefix = 'scf'
pseudo_dir = '/vol0004/mdt0/data/hp150275/u10028/POT_KKJUS'
outdir = './data'
tprnfor = .true.
nstep = 50
disk_io = 'non'
/
&SYSTEM
ibrav = 0
ecutwfc = 50.0
ecutrho = 400
occupations = 'smearing'
smearing = 'mp'
degauss = 0.01
assume_isolated = 'esm'
esm_bc = 'bc1'
input_dft = 'BEEF-VDW'
nosym = .true.
nspin = 1
ntyp = 2
nat = 32
/
&ELECTRONS
electron_maxstep = 200
mixing_beta = 0.1
conv_thr = 1e-06
/
&IONS
ion_dynamics = 'bfgs'
upscale = 1.0
/
&CELL
/

K_POINTS {automatic}
8 6 1 0 0 0

ATOMIC_SPECIES
Al 26.98 Al.pbe-nl-rrkjus_psl.1.0.0.UPF
Ir 192.2 Ir.pbe-n-rrkjus_psl.0.2.3.UPF

CELL_PARAMETERS {angstrom}
6.03636000 0.00000000 0.00000000
0.00000000 8.53670000 0.00000000
0.00000000 0.00000000 26.40250000

ATOMIC_POSITIONS {angstrom}
Al 0.00000000 0.00000000 -3.2013031199999986 0 0 0
Al 0.00000000 2.13417500 -1.0671890499999996 0 0 0
Al 0.00000000 0.00000000 1.08831105
Al 0.00000000 2.13417500 3.31747413
Al 0.00000000 4.26835000 -3.2013031199999986 0 0 0
Al 0.00000000 6.40252500 -1.0671890499999996 0 0 0
Al 0.00000000 4.26835000 1.08831105
Al 0.00000000 6.40252500 3.31747413
Al 3.01818000 0.00000000 -3.2013031199999986 0 0 0
Al 3.01818000 2.13417500 -1.0671890499999996 0 0 0
Al 3.01818000 0.00000000 1.08831105
Al 3.01818000 2.13417500 3.31747413
Al 3.01818000 4.26835000 -3.2013031199999986 0 0 0
Al 3.01818000 6.40252500 -1.0671890499999996 0 0 0
Al 3.01818000 4.26835000 1.08831105
Al 3.01818000 6.40252500 3.31747413
Ir 1.50909000 2.13417500 -3.2013031199999986 0 0 0
Ir 1.50909000 0.00000000 -1.0671890499999996 0 0 0
Ir 1.50909000 2.13417500 1.01385600
Ir 1.50909000 0.00000000 3.11047852
Ir 1.50909000 6.40252500 -3.2013031199999986 0 0 0
Ir 1.50909000 4.26835000 -1.0671890499999996 0 0 0
Ir 1.50909000 6.40252500 1.01385600
Ir 1.50909000 4.26835000 3.11047852
Ir 4.52727000 2.13417500 -3.2013031199999986 0 0 0
Ir 4.52727000 0.00000000 -1.0671890499999996 0 0 0
Ir 4.52727000 2.13417500 1.01385600
Ir 4.52727000 0.00000000 3.11047852
Ir 4.52727000 6.40252500 -3.2013031199999986 0 0 0
Ir 4.52727000 4.26835000 -1.0671890499999996 0 0 0
Ir 4.52727000 6.40252500 1.01385600
Ir 4.52727000 4.26835000 3.11047852
