&CONTROL
calculation = 'relax'
prefix = 'scf'
pseudo_dir = '/vol0004/mdt0/data/hp150275/u10028/POT_KKJUS'
outdir = './data'
tprnfor = .true.
nstep = 50
disk_io = 'non'
/
&SYSTEM
ibrav = 0
ecutwfc = 50.0
ecutrho = 400
occupations = 'smearing'
smearing = 'mp'
degauss = 0.01
assume_isolated = 'esm'
esm_bc = 'bc1'
input_dft = 'BEEF-VDW'
nosym = .true.
nspin = 1
ntyp = 3
nat = 16
/
&ELECTRONS
electron_maxstep = 200
mixing_beta = 0.1
conv_thr = 1e-06
/
&IONS
ion_dynamics = 'bfgs'
upscale = 1.0
/
&CELL
/

K_POINTS {automatic}
8 8 1 0 0 0

ATOMIC_SPECIES
Bi 208.9 Bi.pbe-dn-rrkjus_psl.1.0.0.UPF
Pd 106.4 Pd.pbe-n-rrkjus_psl.1.0.0.UPF
Y 88.90 Y.pbe-spn-rrkjus_psl.1.0.0.UPF

CELL_PARAMETERS {angstrom}
6.99655000 0.00000000 0.00000000
-0.00000000 6.99655000 0.00000000
0.00000000 0.00000000 25.24740000

ATOMIC_POSITIONS {angstrom}
Y 0.00000000 0.00000000 2.62370981
Y 3.49827500 3.49827500 2.62370981
Y 3.49827500 0.00000000 -0.8745699400000007 0 0 0
Y 0.00000000 3.49827500 -0.8745699400000007 0 0 0
Bi 0.00000000 0.00000000 -0.8745699400000007 0 0 0
Bi 3.49827500 -0.00000000 2.62370981
Bi 0.00000000 3.49827500 2.62370981
Bi 3.49827500 3.49827500 -0.8745699400000007 0 0 0
Pd 1.74913750 1.74913750 0.87456994
Pd 5.24741250 5.24741250 -2.6237098099999976 0 0 0
Pd 5.24741250 1.74913750 0.87456994
Pd 1.74913750 5.24741250 -2.6237098099999976 0 0 0
Pd 5.24741250 5.24741250 0.87456994
Pd 1.74913750 1.74913750 -2.6237098099999976 0 0 0
Pd 1.74913750 5.24741250 0.87456994
Pd 5.24741250 1.74913750 -2.6237098099999976 0 0 0
