&CONTROL
calculation = 'relax'
prefix = 'scf'
pseudo_dir = '/vol0004/mdt0/data/hp150275/u10028/POT_KKJUS'
outdir = './data'
tprnfor = .true.
nstep = 50
disk_io = 'non'
/
&SYSTEM
ibrav = 0
ecutwfc = 50.0
ecutrho = 400
occupations = 'smearing'
smearing = 'mp'
degauss = 0.01
assume_isolated = 'esm'
esm_bc = 'bc1'
input_dft = 'BEEF-VDW'
nosym = .true.
nspin = 1
ntyp = 2
nat = 16
/
&ELECTRONS
electron_maxstep = 200
mixing_beta = 0.1
conv_thr = 1e-06
/
&IONS
ion_dynamics = 'bfgs'
upscale = 1.0
/
&CELL
/

K_POINTS {automatic}
6 8 1 0 0 0

ATOMIC_SPECIES
Pt 195.0 Pt.pbe-n-rrkjus_psl.1.0.0.UPF
Ti 47.86 Ti.pbe-spn-rrkjus_psl.1.0.0.UPF

CELL_PARAMETERS {angstrom}
7.94591000 0.00000000 0.00000000
0.00000000 5.61861000 0.00000000
0.00000000 0.00000000 24.21400000

ATOMIC_POSITIONS {angstrom}
Ti 0.00000000 0.00000000 -2.1071022799999994 0 0 0
Ti 0.00000000 2.80930500 0.85717560
Ti 3.97295500 0.00000000 -2.1071022799999994 0 0 0
Ti 3.97295500 2.80930500 0.85717560
Pt 0.00000000 2.80930500 -2.1071022799999994 0 0 0
Pt 1.98647750 4.21395750 -0.7024481399999978 0 0 0
Pt 1.98647750 1.40465250 -0.7024481399999978 0 0 0
Pt 0.00000000 0.00000000 0.59130588
Pt 1.98647750 1.45735506 2.06400136
Pt 1.98647750 4.16125494 2.06400136
Pt 3.97295500 2.80930500 -2.1071022799999994 0 0 0
Pt 5.95943250 4.21395750 -0.7024481399999978 0 0 0
Pt 5.95943250 1.40465250 -0.7024481399999978 0 0 0
Pt 3.97295500 0.00000000 0.59130588
Pt 5.95943250 1.45735506 2.06400136
Pt 5.95943250 4.16125494 2.06400136
