&CONTROL
calculation = 'relax'
prefix = 'scf'
pseudo_dir = '/vol0004/mdt0/data/hp150275/u10028/POT_HYBRID_KKJUS_GBRV'
outdir = './data'
tprnfor = .true.
nstep = 50
disk_io = 'non'
/
&SYSTEM
ibrav = 0
ecutwfc = 50.0
ecutrho = 400
occupations = 'smearing'
smearing = 'mp'
degauss = 0.01
assume_isolated = 'esm'
esm_bc = 'bc1'
input_dft = 'BEEF-VDW'
nosym = .true.
nspin = 2
ntyp = 5
nat = 34
starting_magnetization(1) = 0.0
starting_magnetization(2) = 0.0
starting_magnetization(3) = 0.0
starting_magnetization(4) = 0.001
starting_magnetization(5) = 0.0
/
&ELECTRONS
electron_maxstep = 300
mixing_beta = 0.1
conv_thr = 1e-06
/
&IONS
ion_dynamics = 'bfgs'
upscale = 1.0
/
&CELL
/

K_POINTS {automatic}
9 6 2 0  0  0

ATOMIC_SPECIES
C 12.01 C.pbe-n-rrkjus_psl.1.0.0.UPF
Ge 72.64 Ge.pbe-dn-rrkjus_psl.1.0.0.UPF
Li 6.941 Li.pbe-sl-rrkjus_psl.1.0.0.UPF
Ni 58.69 ni_pbe_v1.4.uspp.F.UPF
O 15.99 O.pbe-n-rrkjus_psl.1.0.0.UPF

CELL_PARAMETERS {angstrom}
5.71239000 0.00000000 0.00000000
0.00000000 8.07854000 0.00000000
0.00000000 0.00000000 26.05890000

ATOMIC_POSITIONS {angstrom}
Li 0.00000000 0.00000000 -3.0293471200000006 0 0 0
Li 2.85619500 2.01963500 -1.00978237 0 0 0
Li 2.85619500 6.05890500 -1.00978237 0 0 0
Li 0.00000000 4.03927000 -3.0293471200000006 0 0 0
Li 0.00000000 4.03579623 0.88417848
Li 2.85619500 6.05882421 3.46400958
Li 2.85619500 2.01963500 3.55000395
Li 0.00000000 0.00347377 0.88417848
Ni 1.42809750 0.00000000 -1.00978237 0 0 0
Ni 4.28429250 4.03927000 -1.00978237 0 0 0
Ni 4.28429250 0.00000000 -1.00978237 0 0 0
Ni 1.42809750 4.03927000 -1.00978237 0 0 0
Ni 4.28429250 6.05890500 -3.0293471200000006 0 0 0
Ni 1.42809750 2.01963500 -3.0293471200000006 0 0 0
Ni 1.42809750 6.05890500 -3.0293471200000006 0 0 0
Ni 4.28429250 2.01963500 -3.0293471200000006 0 0 0
Ni 1.28683010 4.04419791 2.84042010
Ni 4.42555990 8.07353131 2.84042010
Ni 4.42555990 4.04419791 2.84042010
Ni 1.28683010 8.07353131 2.84042010
Ni 4.27058276 2.01971579 1.04965249
Ni 1.43255316 6.05882421 1.04782837
Ni 1.44180724 2.01971579 1.04965249
Ni 4.27983684 6.05882421 1.04782837
Ge 0.00000000 6.05890500 -1.00978237 0 0 0
Ge 2.85619500 0.00000000 -3.0293471200000006 0 0 0
Ge 0.00000000 2.01963500 -1.00978237 0 0 0
Ge 2.85619500 4.03927000 -3.0293471200000006 0 0 0
Ge 0.00000000 2.01995814 3.08094375
Ge 2.85619500 4.04080492 1.02724184
Ge 0.00000000 6.05850107 3.11951092
Ge 2.85613788 8.07692429 1.02646007
C 2.85619500 2.01955421 5.69439083
O 2.85619500 2.01971579 6.83160122
