&CONTROL
calculation = 'relax'
prefix = 'scf'
pseudo_dir = '/vol0004/mdt0/data/hp150275/u10028/POT_KKJUS'
outdir = './data'
tprnfor = .true.
nstep = 50
disk_io = 'non'
/
&SYSTEM
ibrav = 0
ecutwfc = 50.0
ecutrho = 400
occupations = 'smearing'
smearing = 'mp'
degauss = 0.01
assume_isolated = 'esm'
esm_bc = 'bc1'
input_dft = 'BEEF-VDW'
nosym = .true.
nspin = 1
ntyp = 3
nat = 17
/
&ELECTRONS
electron_maxstep = 200
mixing_beta = 0.1
conv_thr = 1e-06
/
&IONS
ion_dynamics = 'bfgs'
upscale = 1.0
/
&CELL
/

K_POINTS {automatic}
10 10 2 0  0  0

ATOMIC_SPECIES
Be 9.012 Be.pbe-n-rrkjus_psl.1.0.0.UPF
C 12.01 C.pbe-n-rrkjus_psl.1.0.0.UPF
Rh 102.9 Rh.pbe-spn-rrkjus_psl.1.0.0.UPF

CELL_PARAMETERS {angstrom}
5.57428000 0.00000000 0.00000000
0.00000000 5.57428000 0.00000000
0.00000000 0.00000000 24.18070000

ATOMIC_POSITIONS {angstrom}
Be 1.39357000 1.39357000 -1.2813352900000012 0 0 0
Be 1.18782333 1.18787907 1.53982698
Be 1.39357000 4.18071000 -1.2813352900000012 0 0 0
Be 1.18782333 4.38634519 1.53958517
Be 4.18071000 1.39357000 -1.2813352900000012 0 0 0
Be 4.38645667 1.18782333 1.53958517
Be 4.18071000 4.18071000 -1.2813352900000012 0 0 0
Be 4.38645667 4.38634519 1.53958517
Rh 0.00000000 0.00000000 -2.67486903 0 0 0
Rh 0.00011149 0.00050169 -0.09623919000000214 0 0 0
Rh 0.00000000 2.78714000 -2.67486903 0 0 0
Rh 0.00011149 2.78747446 0.13831360
Rh 2.78714000 0.00000000 -2.67486903 0 0 0
Rh 2.78719574 5.57422426 0.13831360
Rh 2.78714000 2.78714000 -2.67486903 0 0 0
Rh 2.78697277 2.78730723 0.38132964
C 0.00000000 5.57422426 2.07301141
