&CONTROL
calculation = 'relax'
prefix = 'scf'
pseudo_dir = '/vol0403/data/hp230205/u10028/POT_HYBRID_KKJUS_GBRV'
outdir = './data'
tprnfor = .true.
nstep = 50
disk_io = 'non'
/
&SYSTEM
ibrav = 0
ecutwfc = 50.0
ecutrho = 400
occupations = 'smearing'
smearing = 'mp'
degauss = 0.01
assume_isolated = 'esm'
esm_bc = 'bc1'
input_dft = 'BEEF-VDW'
nosym = .true.
nspin = 1
ntyp = 5
nat = 17
/
&ELECTRONS
electron_maxstep = 200
mixing_beta = 0.1
conv_thr = 1e-06
/
&IONS
ion_dynamics = 'bfgs'
upscale = 1.0
/
&CELL
/

K_POINTS {automatic}
6 6 1 0 0 0

ATOMIC_SPECIES
C 12.01 C.pbe-n-rrkjus_psl.1.0.0.UPF
Ge 72.64 Ge.pbe-dn-rrkjus_psl.1.0.0.UPF
Li 6.941 Li.pbe-sl-rrkjus_psl.1.0.0.UPF
Pb 207.2 Pb.pbe-dn-rrkjus_psl.1.0.0.UPF
Y 88.90 Y.pbe-spn-rrkjus_psl.1.0.0.UPF


CELL_PARAMETERS {angstrom}
6.08443000 0.00000000 0.00000000
0.00000000 9.86128000 0.00000000
0.00000000 0.00000000 24.56300000

ATOMIC_POSITIONS {angstrom}
Li 1.50328012 2.46532000 -0.7604704799999986 0 0 0
Li 4.22289864 2.68433903 2.26102415
Li 1.50328012 7.39596000 -0.7604704799999986 0 0 0
Li 4.22289864 7.17713820 2.26102415
Y 3.04221500 0.00000000 -2.2814114399999994 0 0 0
Y 5.92179319 0.00000000 0.69562416
Y 3.04221500 4.93064000 -2.2814114399999994 0 0 0
Y 0.10118407 4.93064000 0.70937944
Ge 0.00000000 0.00000000 -2.2814114399999994 0 0 0
Ge 3.14285147 0.00019723 1.21513161
Ge 0.00000000 4.93064000 -2.2814114399999994 0 0 0
Ge 3.10646658 4.93103445 0.86682827
Pb 4.54549512 2.46532000 -0.7604704799999986 0 0 0
Pb 1.29908665 2.32085225 2.79183058
Pb 4.54549512 7.39596000 -0.7604704799999986 0 0 0
Pb 1.29859989 7.53963885 2.79183058
C 1.49579627 9.86058971 2.23940871
