&CONTROL
calculation = 'relax'
prefix = 'scf'
pseudo_dir = '/vol0403/data/hp230205/u10028/POT_HYBRID_KKJUS_GBRV'
outdir = './data'
tprnfor = .true.
nstep = 50
disk_io = 'non'
/
&SYSTEM
ibrav = 0
ecutwfc = 50.0
ecutrho = 400
occupations = 'smearing'
smearing = 'mp'
degauss = 0.01
assume_isolated = 'esm'
esm_bc = 'bc1'
input_dft = 'BEEF-VDW'
nosym = .true.
nspin = 1
ntyp = 5
nat = 17
/
&ELECTRONS
electron_maxstep = 200
mixing_beta = 0.1
conv_thr = 1e-06
/
&IONS
ion_dynamics = 'bfgs'
upscale = 1.0
/
&CELL
/

K_POINTS {automatic}
9 9 2 0  0  0

ATOMIC_SPECIES
C 12.01 C.pbe-n-rrkjus_psl.1.0.0.UPF
Ga 69.72 Ga.pbe-dnl-rrkjus_psl.1.0.0.UPF
In 114.8 In.pbe-dn-rrkjus_psl.1.0.0.UPF
Pd 106.4 Pd.pbe-n-rrkjus_psl.1.0.0.UPF
Sc 44.95 Sc.pbe-spn-rrkjus_psl.1.0.0.UPF


CELL_PARAMETERS {angstrom}
6.68246000 0.00000000 0.00000000
0.00000000 6.68246000 0.00000000
0.00000000 0.00000000 25.01180000

ATOMIC_POSITIONS {angstrom}
Sc 5.01184500 1.67061500 -0.8353941200000001 0 0 0
Sc 5.15224348 5.15231031 2.59047213
Sc 1.53014969 1.53014969 2.59047213
Sc 1.67061500 5.01184500 -0.8353941200000001 0 0 0
In 1.67061500 1.67061500 -0.8353941200000001 0 0 0
In 1.71171213 4.97074787 2.86335086
In 4.97074787 1.71171213 2.86335086
In 5.01184500 5.01184500 -0.8353941200000001 0 0 0
Ga 0.00000000 0.00000000 -2.50593224 0 0 0
Ga 0.00000000 3.34123000 1.00872589
Ga 3.34123000 0.00000000 1.00872589
Ga 3.34123000 3.34123000 -2.50593224 0 0 0
Pd 0.00000000 3.34123000 -2.50593224 0 0 0
Pd 0.00000000 0.00000000 0.73609727
Pd 3.34123000 3.34123000 0.87641347
Pd 3.34123000 0.00000000 -2.50593224 0 0 0
C 0.00000000 0.00000000 2.94338862
