&CONTROL
calculation = 'relax'
prefix = 'scf'
pseudo_dir = '/vol0004/mdt0/data/hp150275/u10028/POT_HYBRID_KKJUS_GBRV'
outdir = './data'
tprnfor = .true.
nstep = 50
disk_io = 'non'
/
&SYSTEM
ibrav = 0
ecutwfc = 50.0
ecutrho = 400
occupations = 'smearing'
smearing = 'mp'
degauss = 0.01
assume_isolated = 'esm'
esm_bc = 'bc1'
input_dft = 'BEEF-VDW'
nosym = .true.
nspin = 2
ntyp = 5
nat = 34
starting_magnetization(1) = 0.0
starting_magnetization(2) = 0.1
starting_magnetization(3) = 0.1
starting_magnetization(4) = 0.0
starting_magnetization(5) = 0.0
/
&ELECTRONS
electron_maxstep = 200
mixing_beta = 0.1
conv_thr = 1e-06
/
&IONS
ion_dynamics = 'bfgs'
upscale = 1.0
/
&CELL
/

K_POINTS {automatic}
9 6 2 0  0  0

ATOMIC_SPECIES
C 12.01 C.pbe-n-rrkjus_psl.1.0.0.UPF
Co 58.93 co_pbe_v1.2.uspp.F.UPF
Fe 55.84 fe_pbe_v1.5.uspp.F.UPF
Ga 69.72 Ga.pbe-dnl-rrkjus_psl.1.0.0.UPF
O 15.99 O.pbe-n-rrkjus_psl.1.0.0.UPF

CELL_PARAMETERS {angstrom}
5.79866000 0.00000000 0.00000000
0.00000000 8.20054000 0.00000000
0.00000000 0.00000000 26.15040000

ATOMIC_POSITIONS {angstrom}
Ga 0.00000000 0.00000000 23.07511296
Ga 2.89933000 2.05013500 25.12530432
Ga 2.89933000 6.15040500 25.12530432
Ga 0.00000000 4.10027000 23.07511296
Ga 0.00000000 4.13020197 1.00208333
Ga 2.89933000 6.14942094 3.59907955
Ga 2.89933000 2.04997099 3.45969792
Ga 0.00000000 8.16995199 1.00365235
Fe 1.44966500 0.00000000 25.12530432
Fe 4.34899500 4.10027000 25.12530432
Fe 4.34899500 0.00000000 25.12530432
Fe 1.44966500 4.10027000 25.12530432
Fe 4.34899500 6.15040500 23.07511296
Fe 1.44966500 2.05013500 23.07511296
Fe 1.44966500 6.15040500 23.07511296
Fe 4.34899500 2.05013500 23.07511296
Fe 1.48283334 4.12167341 3.02481677
Fe 4.31507284 8.17790651 3.02612429
Fe 4.31582666 4.12175541 3.02481677
Fe 1.48358716 8.17790651 3.02612429
Fe 4.30562102 2.04956096 1.10956147
Fe 1.55914370 6.15032299 1.15898573
Fe 1.49303898 2.04956096 1.10956147
Fe 4.23951630 6.15040500 1.15898573
Co 0.00000000 6.15040500 25.12530432
Co 2.89933000 0.00000000 23.07511296
Co 0.00000000 2.05013500 25.12530432
Co 2.89933000 4.10027000 23.07511296
Co 0.00000000 2.05070904 2.95891776
Co 2.89933000 4.06697581 0.94324493
Co 0.00000000 6.14860088 2.97356198
Co 2.89933000 0.03280216 0.94402944
C 2.89898208 2.06555202 7.25516698
O 2.89938799 2.04964297 8.38957133
