&CONTROL
calculation = 'relax'
prefix = 'scf'
pseudo_dir = '/vol0004/mdt0/data/hp150275/u10028/POT_KKJUS'
outdir = './data'
tprnfor = .true.
nstep = 50
disk_io = 'non'
/
&SYSTEM
ibrav = 0
ecutwfc = 50.0
ecutrho = 400
occupations = 'smearing'
smearing = 'mp'
degauss = 0.01
assume_isolated = 'esm'
esm_bc = 'bc1'
input_dft = 'BEEF-VDW'
nosym = .true.
nspin = 1
ntyp = 4
nat = 18
/
&ELECTRONS
electron_maxstep = 200
mixing_beta = 0.1
conv_thr = 1e-06
/
&IONS
ion_dynamics = 'bfgs'
upscale = 1.0
/
&CELL
/

K_POINTS {automatic}
8 8 1 0 0 0

ATOMIC_SPECIES
Ag 107.8 Ag.pbe-n-rrkjus_psl.1.0.0.UPF
C 12.01 C.pbe-n-rrkjus_psl.1.0.0.UPF
Ga 69.72 Ga.pbe-dnl-rrkjus_psl.1.0.0.UPF
O 15.99 O.pbe-n-rrkjus_psl.1.0.0.UPF

CELL_PARAMETERS {angstrom}
6.70510000 0.00000000 0.00000000
0.00000000 6.70510000 0.00000000
0.00000000 0.00000000 25.02880000

ATOMIC_POSITIONS {angstrom}
Ga 1.67627500 1.67627500 -0.6580071499999995 0 0 0
Ga 1.66829593 1.66869824 2.06562686
Ga 1.67627500 5.02882500 -0.6580071499999995 0 0 0
Ga 1.68981930 5.01501249 2.86704904
Ga 5.02882500 1.67627500 -0.6580071499999995 0 0 0
Ga 5.01521365 1.69002046 2.86654846
Ga 5.02882500 5.02882500 -0.6580071499999995 0 0 0
Ga 5.01293391 5.01259866 3.27301618
Ag 0.00000000 0.00000000 -2.334436180000001 0 0 0
Ag 6.55390000 6.55443640 1.12729715
Ag 0.00000000 3.35255000 -2.334436180000001 0 0 0
Ag 6.56590212 3.49758131 1.11603419
Ag 3.35255000 0.00000000 -2.334436180000001 0 0 0
Ag 3.49825182 6.56603623 1.11553362
Ag 3.35255000 3.35255000 -2.334436180000001 0 0 0
Ag 3.48692020 3.48658495 1.10452094
C 1.85677629 1.85650809 5.39520813
O 1.52306346 1.52353282 6.43039930
