&CONTROL
calculation = 'relax'
prefix = 'scf'
pseudo_dir = '/vol0004/mdt0/data/hp150275/u10028/POT_HYBRID_KKJUS_GBRV'
outdir = './data'
tprnfor = .true.
nstep = 50
disk_io = 'non'
/
&SYSTEM
ibrav = 0
ecutwfc = 50.0
ecutrho = 400
occupations = 'smearing'
smearing = 'mp'
degauss = 0.01
assume_isolated = 'esm'
esm_bc = 'bc1'
input_dft = 'BEEF-VDW'
nosym = .true.
nspin = 2
ntyp = 5
nat = 34
starting_magnetization(1) = 0.0
starting_magnetization(2) = 0.1
starting_magnetization(3) = 0.001
starting_magnetization(4) = 0.0
starting_magnetization(5) = 0.0
/
&ELECTRONS
electron_maxstep = 300
mixing_beta = 0.1
conv_thr = 1e-06
/
&IONS
ion_dynamics = 'bfgs'
upscale = 1.0
/
&CELL
/

K_POINTS {automatic}
9 6 2 0  0  0

ATOMIC_SPECIES
C 12.01 C.pbe-n-rrkjus_psl.1.0.0.UPF
Mn 54.93 mn_pbe_v1.5.uspp.F.UPF
Ni 58.69 ni_pbe_v1.4.uspp.F.UPF
O 15.99 O.pbe-n-rrkjus_psl.1.0.0.UPF
Sn 118.7 Sn.pbe-dn-rrkjus_psl.1.0.0.UPF

CELL_PARAMETERS {angstrom}
6.10266000 0.00000000 0.00000000
0.00000000 8.63046000 0.00000000
0.00000000 0.00000000 26.47280000

ATOMIC_POSITIONS {angstrom}
Mn 0.00000000 0.00000000 -3.236299800000001 0 0 0
Mn 3.05133000 2.15761500 -1.078766599999998 0 0 0
Mn 3.05133000 6.47284500 -1.078766599999998 0 0 0
Mn 0.00000000 4.31523000 -3.236299800000001 0 0 0
Mn 6.08880696 4.31531630 1.03588066
Mn 3.06359635 6.41614288 3.22703432
Mn 3.06353532 2.21448973 3.22703432
Mn 0.02831634 8.63037370 1.09915066
Ni 1.52566500 0.00000000 -1.078766599999998 0 0 0
Ni 4.57699500 4.31523000 -1.078766599999998 0 0 0
Ni 4.57699500 0.00000000 -1.078766599999998 0 0 0
Ni 1.52566500 4.31523000 -1.078766599999998 0 0 0
Ni 4.57699500 6.47284500 -3.236299800000001 0 0 0
Ni 1.52566500 2.15761500 -3.236299800000001 0 0 0
Ni 1.52566500 6.47284500 -3.236299800000001 0 0 0
Ni 4.57699500 2.15761500 -3.236299800000001 0 0 0
Ni 1.46292966 4.31548891 3.06740334
Ni 4.63545848 8.63020109 3.05337275
Ni 4.61178016 4.31557522 3.07693354
Ni 1.56197583 8.63020109 3.34298518
Ni 4.60744727 2.14579127 1.12112308
Ni 1.47177851 6.47232717 1.15712609
Ni 1.47147338 2.15821913 1.15765554
Ni 4.60726419 6.48466873 1.12085835
Sn 0.00000000 6.47284500 -1.078766599999998 0 0 0
Sn 3.05133000 0.00000000 -3.236299800000001 0 0 0
Sn 0.00000000 2.15761500 -1.078766599999998 0 0 0
Sn 3.05133000 4.31523000 -3.236299800000001 0 0 0
Sn 6.07385544 2.16857568 3.44066982
Sn 3.04736327 4.31531630 1.03614539
Sn 6.07385544 6.46188432 3.44040509
Sn 3.02051157 8.63037370 1.06208874
C 2.31107734 8.63028739 4.94856050
O 2.66423828 0.00000000 6.05591773
