&CONTROL
calculation = 'relax'
prefix = 'scf'
pseudo_dir = '/vol0403/data/hp230205/u10028/POT_HYBRID_KKJUS_GBRV'
outdir = './data'
tprnfor = .true.
nstep = 70
disk_io = 'non'
/
&SYSTEM
ibrav = 0
ecutwfc = 50.0
ecutrho = 400
occupations = 'smearing'
smearing = 'mp'
degauss = 0.01
assume_isolated = 'esm'
esm_bc = 'bc1'
input_dft = 'BEEF-VDW'
nosym = .true.
nspin = 1
ntyp = 5
nat = 17
/
&ELECTRONS
electron_maxstep = 200
mixing_beta = 0.1
conv_thr = 1e-06
/
&IONS
ion_dynamics = 'bfgs'
upscale = 1.0
/
&CELL
/

K_POINTS {automatic}
12 7 2 0  0  0

ATOMIC_SPECIES
C 12.01 C.pbe-n-rrkjus_psl.1.0.0.UPF
Ge 72.64 Ge.pbe-dn-rrkjus_psl.1.0.0.UPF
Pd 106.4 Pd.pbe-n-rrkjus_psl.1.0.0.UPF
Sn 118.7 Sn.pbe-dn-rrkjus_psl.1.0.0.UPF
Y 88.90 Y.pbe-spn-rrkjus_psl.1.0.0.UPF


CELL_PARAMETERS {angstrom}
5.93056000 0.00000000 0.00000000
-0.00000000 9.60308000 0.00000000
0.00000000 0.00000000 24.43880000

ATOMIC_POSITIONS {angstrom}
Y 2.96528000 0.00000000 -2.2192874300000014 0 0 0
Y 5.43666296 9.60250382 0.69283998
Y 2.96528000 4.80154000 -2.2192874300000014 0 0 0
Y 5.43500241 4.80163603 0.85731310
Sn 1.38786965 2.40077000 -0.7397624799999996 0 0 0
Sn 4.03467858 2.23924619 2.57487197
Sn 1.38786965 7.20231000 -0.7397624799999996 0 0 0
Sn 4.03224705 7.36364174 2.57316125
Ge 0.00000000 0.00000000 -2.2192874300000014 0 0 0
Ge 2.31612090 0.00124840 1.15131187
Ge 0.00000000 4.80154000 -2.2192874300000014 0 0 0
Ge 2.51580286 4.79875511 1.37321617
Pd 4.35314965 2.40077000 -0.7397624799999996 0 0 0
Pd 1.13807446 2.44859334 1.92064529
Pd 4.35314965 7.20231000 -0.7397624799999996 0 0 0
Pd 1.13754071 7.15333429 1.92015652
C 3.86506456 0.00009603 2.35247889
