&CONTROL
calculation = 'relax'
prefix = 'scf'
pseudo_dir = '/vol0403/data/hp230205/u10028/POT_HYBRID_KKJUS_GBRV'
outdir = './data'
tprnfor = .true.
nstep = 50
disk_io = 'non'
/
&SYSTEM
ibrav = 0
ecutwfc = 50.0
ecutrho = 400
occupations = 'smearing'
smearing = 'mp'
degauss = 0.01
assume_isolated = 'esm'
esm_bc = 'bc1'
input_dft = 'BEEF-VDW'
nosym = .true.
nspin = 2
ntyp = 5
nat = 33
starting_magnetization(1) = 0.0
starting_magnetization(2) = 0.0
starting_magnetization(3) = 0.1
starting_magnetization(4) = 0.0
starting_magnetization(5) = 0.0
/
&ELECTRONS
electron_maxstep = 200
mixing_beta = 0.1
conv_thr = 1e-06
/
&IONS
ion_dynamics = 'bfgs'
upscale = 1.0
/
&CELL
/

K_POINTS {automatic}
6 6 1 0 0 0

ATOMIC_SPECIES
C 12.01 C.pbe-n-rrkjus_psl.1.0.0.UPF
Li 6.941 Li.pbe-sl-rrkjus_psl.1.0.0.UPF
Mn 54.93 mn_pbe_v1.5.uspp.F.UPF
Pd 106.4 Pd.pbe-n-rrkjus_psl.1.0.0.UPF
Sb 121.7 Sb.pbe-n-rrkjus_psl.1.0.0.UPF


CELL_PARAMETERS {angstrom}
6.44934000 0.00000000 0.00000000
0.00000000 9.12074000 0.00000000
0.00000000 0.00000000 26.84060000

ATOMIC_POSITIONS {angstrom}
Li 0.00000000 0.00000000 -3.4202976599999992 0 0 0
Li 0.00000000 4.56037000 -3.4202976599999992 0 0 0
Li 3.22467000 6.84055500 -1.1401886899999987 0 0 0
Li 3.22467000 2.28018500 -1.1401886899999987 0 0 0
Li 6.34053963 4.56803142 1.18367046
Li 6.34079761 9.11316979 1.18393887
Li 3.25375652 2.28018500 4.16727156
Li 3.07536778 6.84046379 3.75446313
Mn 0.00000000 2.28018500 -1.1401886899999987 0 0 0
Mn 0.00000000 6.84055500 -1.1401886899999987 0 0 0
Mn 3.22467000 4.56037000 -3.4202976599999992 0 0 0
Mn 3.22467000 0.00000000 -3.4202976599999992 0 0 0
Mn 6.31874087 6.84046379 3.38835734
Mn 5.99891809 2.28018500 3.30515148
Mn 3.27697415 0.01541405 1.25050355
Mn 3.27710313 4.54495595 1.25050355
Sb 4.83700500 0.00000000 -1.1401886899999987 0 0 0
Sb 4.83700500 4.56037000 -1.1401886899999987 0 0 0
Sb 1.61233500 2.28018500 -3.4202976599999992 0 0 0
Sb 1.61233500 6.84055500 -3.4202976599999992 0 0 0
Sb 4.76399847 4.60588249 3.64871116
Sb 4.76406296 9.07522751 3.64844276
Sb 1.65425571 6.84046379 1.28834880
Sb 1.66051157 2.28027621 1.09402286
Pd 1.61233500 0.00000000 -1.1401886899999987 0 0 0
Pd 1.61233500 4.56037000 -1.1401886899999987 0 0 0
Pd 4.83700500 2.28018500 -3.4202976599999992 0 0 0
Pd 4.83700500 6.84055500 -3.4202976599999992 0 0 0
Pd 1.39970026 4.38251557 3.25200710
Pd 1.39970026 0.17785443 3.25200710
Pd 4.75064834 6.84073741 1.05376196
Pd 4.77251160 2.28009379 0.92787954
C 1.27271276 2.28018500 3.66615755
