&CONTROL
calculation = 'relax'
prefix = 'scf'
pseudo_dir = '/vol0004/mdt0/data/hp150275/u10028/POT_HYBRID_KKJUS_GBRV'
outdir = './data'
tprnfor = .true.
nstep = 50
disk_io = 'non'
/
&SYSTEM
ibrav = 0
ecutwfc = 50.0
ecutrho = 400
occupations = 'smearing'
smearing = 'mp'
degauss = 0.01
assume_isolated = 'esm'
esm_bc = 'bc1'
input_dft = 'BEEF-VDW'
nosym = .true.
nspin = 2
ntyp = 4
nat = 33
starting_magnetization(1) = 0.0
starting_magnetization(2) = 0.1
starting_magnetization(3) = 0.0
starting_magnetization(4) = 0.0
/
&ELECTRONS
electron_maxstep = 300
mixing_beta = 0.1
conv_thr = 1e-06
/
&IONS
ion_dynamics = 'bfgs'
upscale = 1.0
/
&CELL
/

K_POINTS {automatic}
8 6 1 0 0 0

ATOMIC_SPECIES
C 12.01 C.pbe-n-rrkjus_psl.1.0.0.UPF
Co 58.93 co_pbe_v1.2.uspp.F.UPF
Sn 118.7 Sn.pbe-dn-rrkjus_psl.1.0.0.UPF
Ti 47.86 Ti.pbe-spn-rrkjus_psl.1.0.0.UPF

CELL_PARAMETERS {angstrom}
6.11439000 0.00000000 0.00000000
0.00000000 8.64705000 0.00000000
0.00000000 0.00000000 26.48530000

ATOMIC_POSITIONS {angstrom}
Ti 0.00000000 0.00000000 -3.2425952799999997 0 0 0
Ti 3.05719500 2.16176250 -1.0808650899999996 0 0 0
Ti 3.05719500 6.48528750 -1.0808650899999996 0 0 0
Ti 0.00000000 4.32352500 -3.2425952799999997 0 0 0
Ti 6.10161092 4.33087499 1.12191731
Ti 3.18431317 6.48528750 3.18220880
Ti 3.37489870 2.16176250 3.11758466
Ti 6.10161092 8.63970001 1.12165245
Co 1.52859750 0.00000000 -1.0808650899999996 0 0 0
Co 4.58579250 4.32352500 -1.0808650899999996 0 0 0
Co 4.58579250 0.00000000 -1.0808650899999996 0 0 0
Co 1.52859750 4.32352500 -1.0808650899999996 0 0 0
Co 4.58579250 6.48528750 -3.2425952799999997 0 0 0
Co 1.52859750 2.16176250 -3.2425952799999997 0 0 0
Co 1.52859750 6.48528750 -3.2425952799999997 0 0 0
Co 4.58579250 2.16176250 -3.2425952799999997 0 0 0
Co 1.20294509 3.98923005 3.07520818
Co 4.71187122 8.64549353 3.10487172
Co 4.71193237 4.32525441 3.10487172
Co 1.20294509 0.33438142 3.07547304
Co 4.60003903 2.16176250 1.10099392
Co 1.60239819 6.48520103 1.10602613
Co 1.45840430 2.16193544 1.22944763
Co 4.59074516 6.48511456 1.19316276
Sn 0.00000000 6.48528750 -1.0808650899999996 0 0 0
Sn 3.05719500 0.00000000 -3.2425952799999997 0 0 0
Sn 0.00000000 2.16176250 -1.0808650899999996 0 0 0
Sn 3.05719500 4.32352500 -3.2425952799999997 0 0 0
Sn 5.70900594 2.16167603 4.66538560
Sn 3.06061906 4.30268561 1.08934039
Sn 0.16612798 6.48520103 3.50294578
Sn 3.06068020 0.02083939 1.08934039
C 1.36283639 2.16176250 3.25160028
