&CONTROL
calculation = 'relax'
prefix = 'scf'
pseudo_dir = '/vol0004/mdt0/data/hp150275/u10028/POT_KKJUS'
outdir = './data'
tprnfor = .true.
nstep = 50
disk_io = 'non'
/
&SYSTEM
ibrav = 0
ecutwfc = 50.0
ecutrho = 400
occupations = 'smearing'
smearing = 'mp'
degauss = 0.01
assume_isolated = 'esm'
esm_bc = 'bc1'
input_dft = 'BEEF-VDW'
nosym = .true.
nspin = 1
ntyp = 3
nat = 33
/
&ELECTRONS
electron_maxstep = 200
mixing_beta = 0.1
conv_thr = 1e-06
/
&IONS
ion_dynamics = 'bfgs'
upscale = 1.0
/
&CELL
/

K_POINTS {automatic}
9 6 2 0  0  0

ATOMIC_SPECIES
Ag 107.8 Ag.pbe-n-rrkjus_psl.1.0.0.UPF
C 12.01 C.pbe-n-rrkjus_psl.1.0.0.UPF
Y 88.90 Y.pbe-spn-rrkjus_psl.1.0.0.UPF

CELL_PARAMETERS {angstrom}
7.32505000 0.00000000 0.00000000
0.00000000 10.35920000 0.00000000
0.00000000 0.00000000 27.76940000

ATOMIC_POSITIONS {angstrom}
Y 1.83126250 2.58980000 -3.88466137 0 0 0
Y 1.83126250 0.00000000 -1.294887120000002 0 0 0
Y 1.85118664 2.69442792 1.27517085
Y 1.67135666 0.00714785 3.94769790
Y 1.83126250 7.76940000 -3.88466137 0 0 0
Y 1.83126250 5.17960000 -1.294887120000002 0 0 0
Y 1.68600676 7.92955323 1.41124091
Y 1.88026708 5.15763850 3.87716363
Y 5.49378750 2.58980000 -3.88466137 0 0 0
Y 5.49378750 0.00000000 -1.294887120000002 0 0 0
Y 5.47708639 2.69163094 1.25989768
Y 5.63787123 0.00776940 3.95436256
Y 5.49378750 7.76940000 -3.88466137 0 0 0
Y 5.49378750 5.17960000 -1.294887120000002 0 0 0
Y 5.63039968 7.93069274 1.40568703
Y 5.45056970 5.16851566 3.87799671
Ag 0.00000000 0.00000000 -3.88466137 0 0 0
Ag 0.00000000 2.58980000 -1.294887120000002 0 0 0
Ag 7.32329199 0.28228820 1.08356199
Ag 7.32153398 2.68355076 3.62585056
Ag 0.00000000 5.17960000 -3.88466137 0 0 0
Ag 0.00000000 7.76940000 -1.294887120000002 0 0 0
Ag 0.00278352 5.27562978 1.41485093
Ag 7.31882371 7.39097842 3.84411804
Ag 3.66252500 0.00000000 -3.88466137 0 0 0
Ag 3.66252500 2.58980000 -1.294887120000002 0 0 0
Ag 3.66999655 0.10576743 1.48288596
Ag 3.65966823 2.50143602 3.67694625
Ag 3.66252500 5.17960000 -3.88466137 0 0 0
Ag 3.66252500 7.76940000 -1.294887120000002 0 0 0
Ag 3.65673821 5.27417950 1.27406007
Ag 3.66472251 7.79053277 3.80635166
C 0.02490517 9.24320338 2.82081565
