&CONTROL
calculation = 'relax'
prefix = 'scf'
pseudo_dir = '/vol0004/mdt0/data/hp150275/u10028/POT_KKJUS'
outdir = './data'
tprnfor = .true.
nstep = 50
disk_io = 'non'
/
&SYSTEM
ibrav = 0
ecutwfc = 50.0
ecutrho = 400
occupations = 'smearing'
smearing = 'mp'
degauss = 0.01
assume_isolated = 'esm'
esm_bc = 'bc1'
input_dft = 'BEEF-VDW'
nosym = .true.
nspin = 1
ntyp = 3
nat = 17
/
&ELECTRONS
electron_maxstep = 200
mixing_beta = 0.1
conv_thr = 1e-06
/
&IONS
ion_dynamics = 'bfgs'
upscale = 1.0
/
&CELL
/

K_POINTS {automatic}
8 11 2 0  0  0

ATOMIC_SPECIES
C 12.01 C.pbe-n-rrkjus_psl.1.0.0.UPF
Pb 207.2 Pb.pbe-dn-rrkjus_psl.1.0.0.UPF
Pt 195.0 Pt.pbe-n-rrkjus_psl.1.0.0.UPF

CELL_PARAMETERS {angstrom}
8.34058000 0.00000000 0.00000000
0.00000000 5.89768000 0.00000000
0.00000000 0.00000000 24.42330000

ATOMIC_POSITIONS {angstrom}
Pt 0.00000000 2.94884000 -2.2115298200000026 0 0 0
Pt 2.08514500 4.42326000 -0.7370951900000016 0 0 0
Pt 2.08514500 1.47442000 -0.7370951900000016 0 0 0
Pt 0.00000000 0.00000000 0.56124743
Pt 1.59838875 1.39332690 2.38542371
Pt 1.59847216 4.50435310 2.38542371
Pt 4.17029000 2.94884000 -2.2115298200000026 0 0 0
Pt 6.25543500 4.42326000 -0.7370951900000016 0 0 0
Pt 6.25543500 1.47442000 -0.7370951900000016 0 0 0
Pt 4.17029000 0.00005898 0.78643026
Pt 6.74210784 1.39332690 2.38542371
Pt 6.74210784 4.50435310 2.38542371
Pb 0.00000000 0.00000000 -2.2115298200000026 0 0 0
Pb 0.00000000 2.94884000 0.64330972
Pb 4.17029000 0.00000000 -2.2115298200000026 0 0 0
Pb 4.17029000 2.94889898 2.00979336
C 0.00000000 0.00005898 2.63600677
