&CONTROL
calculation = 'relax'
prefix = 'scf'
pseudo_dir = '/vol0403/data/hp230205/u10028/POT_HYBRID_KKJUS_GBRV'
outdir = './data'
tprnfor = .true.
nstep = 50
disk_io = 'non'
/
&SYSTEM
ibrav = 0
ecutwfc = 50.0
ecutrho = 400
occupations = 'smearing'
smearing = 'mp'
degauss = 0.01
assume_isolated = 'esm'
esm_bc = 'bc1'
input_dft = 'BEEF-VDW'
nosym = .true.
nspin = 1
ntyp = 5
nat = 33
/
&ELECTRONS
electron_maxstep = 200
mixing_beta = 0.1
conv_thr = 1e-06
/
&IONS
ion_dynamics = 'bfgs'
upscale = 1.0
/
&CELL
/

K_POINTS {automatic}
9 6 2 0  0  0

ATOMIC_SPECIES
C 12.01 C.pbe-n-rrkjus_psl.1.0.0.UPF
In 114.8 In.pbe-dn-rrkjus_psl.1.0.0.UPF
Li 6.941 Li.pbe-sl-rrkjus_psl.1.0.0.UPF
Pd 106.4 Pd.pbe-n-rrkjus_psl.1.0.0.UPF
Ru 101.0 Ru.pbe-spn-rrkjus_psl.1.0.0.UPF


CELL_PARAMETERS {angstrom}
6.32045000 0.00000000 0.00000000
0.00000000 8.93846000 0.00000000
0.00000000 0.00000000 26.70380000

ATOMIC_POSITIONS {angstrom}
Li 0.00000000 2.23461500 -1.1172869900000002 0 0 0
Li 0.00000000 6.70384500 -1.1172869900000002 0 0 0
Li 3.16022500 4.46923000 -3.3518609800000014 0 0 0
Li 3.16022500 0.00000000 -3.3518609800000014 0 0 0
Li 0.03703784 6.70384500 3.54546353
Li 6.02585383 2.23452562 3.08535705
Li 3.13829304 0.01725123 1.16829125
Li 3.13835624 4.45206816 1.16855829
In 0.00000000 0.00000000 -3.3518609800000014 0 0 0
In 0.00000000 4.46923000 -3.3518609800000014 0 0 0
In 3.16022500 6.70384500 -1.1172869900000002 0 0 0
In 3.16022500 2.23461500 -1.1172869900000002 0 0 0
In 0.01693881 4.50337492 1.11087808
In 0.01687560 8.90440447 1.11087808
In 3.57295039 2.23461500 3.47095992
In 2.99690457 6.70375562 3.53531608
Pd 4.74033750 0.00000000 -1.1172869900000002 0 0 0
Pd 4.74033750 4.46923000 -1.1172869900000002 0 0 0
Pd 1.58011250 2.23461500 -3.3518609800000014 0 0 0
Pd 1.58011250 6.70384500 -3.3518609800000014 0 0 0
Pd 4.74684756 4.61894921 3.29818634
Pd 4.74659475 8.78865141 3.29818634
Pd 1.61310525 6.70393438 1.18164315
Pd 1.61986813 2.23461500 1.13971818
Ru 1.58011250 0.00000000 -1.1172869900000002 0 0 0
Ru 1.58011250 4.46923000 -1.1172869900000002 0 0 0
Ru 4.74033750 2.23461500 -3.3518609800000014 0 0 0
Ru 4.74033750 6.70384500 -3.3518609800000014 0 0 0
Ru 1.49371195 4.00863116 3.47122696
Ru 1.49383836 0.46033069 3.47122696
Ru 4.67966118 6.70384500 1.23505075
Ru 4.74785884 2.23470438 1.02008516
C 1.38613789 2.23443623 3.98847957
