&CONTROL
calculation = 'relax'
prefix = 'scf'
pseudo_dir = '/vol0004/mdt0/data/hp150275/u10028/POT_HYBRID_KKJUS_GBRV'
outdir = './data'
tprnfor = .true.
nstep = 50
disk_io = 'non'
/
&SYSTEM
ibrav = 0
ecutwfc = 50.0
ecutrho = 400
occupations = 'smearing'
smearing = 'mp'
degauss = 0.01
assume_isolated = 'esm'
esm_bc = 'bc1'
input_dft = 'BEEF-VDW'
nosym = .true.
nspin = 2
ntyp = 5
nat = 34
starting_magnetization(1) = 0.0
starting_magnetization(2) = 0.1
starting_magnetization(3) = 0.0
starting_magnetization(4) = 0.0
starting_magnetization(5) = 0.0
/
&ELECTRONS
electron_maxstep = 300
mixing_beta = 0.1
conv_thr = 1e-06
/
&IONS
ion_dynamics = 'bfgs'
upscale = 1.0
/
&CELL
/

K_POINTS {automatic}
9 6 2 0  0  0

ATOMIC_SPECIES
C 12.01 C.pbe-n-rrkjus_psl.1.0.0.UPF
Co 58.93 co_pbe_v1.2.uspp.F.UPF
Ga 69.72 Ga.pbe-dnl-rrkjus_psl.1.0.0.UPF
O 15.99 O.pbe-n-rrkjus_psl.1.0.0.UPF
V 50.94 V.pbe-spnl-rrkjus_psl.1.0.0.UPF

CELL_PARAMETERS {angstrom}
5.77968000 0.00000000 0.00000000
0.00000000 8.17370000 0.00000000
0.00000000 0.00000000 26.13030000

ATOMIC_POSITIONS {angstrom}
V 0.00000000 0.00000000 -3.0650841899999968 0 0 0
V 2.88984000 2.04342500 -1.0216947299999966 0 0 0
V 2.88984000 6.13027500 -1.0216947299999966 0 0 0
V 0.00000000 4.08685000 -3.0650841899999968 0 0 0
V 0.00329442 4.08685000 1.06480972
V 2.91151380 6.11637971 3.05829031
V 2.91151380 2.05732029 3.05829031
V 5.76875640 0.00000000 1.04834764
Ga 0.00000000 6.13027500 -1.0216947299999966 0 0 0
Ga 2.88984000 0.00000000 -3.0650841899999968 0 0 0
Ga 0.00000000 2.04342500 -1.0216947299999966 0 0 0
Ga 2.88984000 4.08685000 -3.0650841899999968 0 0 0
Ga 5.76916098 2.05396907 3.10245052
Ga 2.89007119 4.08668653 1.03946333
Ga 5.76916098 6.11973093 3.10245052
Ga 2.89145831 0.00016347 1.03240815
Co 1.44492000 0.00000000 -1.0216947299999966 0 0 0
Co 4.33476000 4.08685000 -1.0216947299999966 0 0 0
Co 4.33476000 0.00000000 -1.0216947299999966 0 0 0
Co 1.44492000 4.08685000 -1.0216947299999966 0 0 0
Co 4.33476000 6.13027500 -3.0650841899999968 0 0 0
Co 1.44492000 2.04342500 -3.0650841899999968 0 0 0
Co 1.44492000 6.13027500 -3.0650841899999968 0 0 0
Co 4.33476000 2.04342500 -3.0650841899999968 0 0 0
Co 1.45064188 4.08676826 3.01073317
Co 4.31406875 0.00008174 2.99610020
Co 4.31285501 4.08676826 3.01465271
Co 1.44769425 0.00008174 3.18868051
Co 4.32343183 2.04375195 1.02718209
Co 1.45283816 6.13918433 1.02561427
Co 1.45283816 2.03451567 1.02561427
Co 4.32348962 6.12994805 1.02718209
C 1.47699722 0.00000000 4.89577301
O 1.43619268 0.00000000 6.07137520
