&CONTROL
calculation = 'relax'
prefix = 'scf'
pseudo_dir = '/vol0403/data/hp230205/u10028/POT_HYBRID_KKJUS_GBRV'
outdir = './data'
tprnfor = .true.
nstep = 50
disk_io = 'non'
/
&SYSTEM
ibrav = 0
ecutwfc = 50.0
ecutrho = 400
occupations = 'smearing'
smearing = 'mp'
degauss = 0.01
assume_isolated = 'esm'
esm_bc = 'bc1'
input_dft = 'BEEF-VDW'
nosym = .true.
nspin = 1
ntyp = 6
nat = 18
/
&ELECTRONS
electron_maxstep = 200
mixing_beta = 0.1
conv_thr = 1e-06
/
&IONS
ion_dynamics = 'bfgs'
upscale = 1.0
/
&CELL
/

K_POINTS {automatic}
11 7 2 0  0  0

ATOMIC_SPECIES
Al 26.98 Al.pbe-nl-rrkjus_psl.1.0.0.UPF
C 12.01 C.pbe-n-rrkjus_psl.1.0.0.UPF
In 114.8 In.pbe-dn-rrkjus_psl.1.0.0.UPF
Li 6.941 Li.pbe-sl-rrkjus_psl.1.0.0.UPF
O 15.99 O.pbe-n-rrkjus_psl.1.0.0.UPF
Sc 44.95 Sc.pbe-spn-rrkjus_psl.1.0.0.UPF


CELL_PARAMETERS {angstrom}
5.96334000 0.00000000 0.00000000
0.00000000 8.71362000 0.00000000
0.00000000 0.00000000 24.47210000

ATOMIC_POSITIONS {angstrom}
Li 4.24047144 2.18372031 0.78506497
Li 1.42792176 2.17840500 -2.2360157800000025 0 0 0
Li 4.24047144 6.52989969 0.78506497
Li 1.42792176 6.53521500 -2.2360157800000025 0 0 0
Sc 2.73741159 8.71353286 2.30771903
Sc 5.92141772 0.00000000 -0.7454201700000027 0 0 0
Sc 2.72369591 4.35689714 2.35592907
Sc 5.92141772 4.35681000 -0.7454201700000027 0 0 0
Al 5.67292534 8.71353286 2.29034384
Al 2.93974772 0.00000000 -0.7454201700000027 0 0 0
Al 5.68270522 4.35681000 2.24311269
Al 2.93974772 4.35681000 -0.7454201700000027 0 0 0
In 1.28450344 2.18833853 0.90913852
In 4.40959176 2.17840500 -2.2360157800000025 0 0 0
In 1.28432454 6.52528147 0.90913852
In 4.40959176 6.53521500 -2.2360157800000025 0 0 0
C 2.93038528 8.71353286 4.61323557
O 2.99252328 8.71353286 5.76097706
