&CONTROL
calculation = 'relax'
prefix = 'scf'
pseudo_dir = '/vol0004/mdt0/data/hp150275/u10028/POT_HYBRID_KKJUS_GBRV'
outdir = './data'
tprnfor = .true.
nstep = 50
disk_io = 'non'
/
&SYSTEM
ibrav = 0
ecutwfc = 50.0
ecutrho = 400
occupations = 'smearing'
smearing = 'mp'
degauss = 0.01
assume_isolated = 'esm'
esm_bc = 'bc1'
input_dft = 'BEEF-VDW'
nosym = .true.
nspin = 2
ntyp = 4
nat = 34
starting_magnetization(1) = 0.1
starting_magnetization(2) = 0.1
starting_magnetization(3) = 0.1
starting_magnetization(4) = 0.1
/
&ELECTRONS
electron_maxstep = 200
mixing_beta = 0.1
conv_thr = 1e-06
/
&IONS
ion_dynamics = 'bfgs'
upscale = 1.0
/
&CELL
/

K_POINTS {automatic}
8 6 1 0 0 0

ATOMIC_SPECIES
C 12.01 C.pbe-n-rrkjus_psl.1.0.0.UPF
Mn 54.93 mn_pbe_v1.5.uspp.F.UPF
O 15.99 O.pbe-n-rrkjus_psl.1.0.0.UPF
Pd 106.4 Pd.pbe-n-rrkjus_psl.1.0.0.UPF

CELL_PARAMETERS {angstrom}
6.32195000 0.00000000 0.00000000
0.00000000 8.94058000 0.00000000
0.00000000 0.00000000 26.70540000

ATOMIC_POSITIONS {angstrom}
Mn 0.00000000 0.00000000 -3.3525959200000024 0 0 0
Mn 0.00000000 2.23514500 -1.1176209900000025 0 0 0
Mn 0.00000000 4.47198871 1.12216091
Mn 0.00000000 2.23514500 3.32775989
Mn 0.00000000 4.47029000 -3.3525959200000024 0 0 0
Mn 0.00000000 6.70543500 -1.1176209900000025 0 0 0
Mn 0.00000000 8.93888129 1.12216091
Mn 0.00000000 6.70543500 3.38651177
Mn 3.16097500 0.00000000 -3.3525959200000024 0 0 0
Mn 3.16097500 2.23514500 -1.1176209900000025 0 0 0
Mn 3.16097500 4.46510446 1.14753104
Mn 3.16097500 2.23514500 3.35099359
Mn 3.16097500 4.47029000 -3.3525959200000024 0 0 0
Mn 3.16097500 6.70543500 -1.1176209900000025 0 0 0
Mn 3.16097500 0.00518554 1.14753104
Mn 3.16097500 6.70543500 3.38036953
Pd 1.58048750 2.23514500 -3.3525959200000024 0 0 0
Pd 1.58048750 0.00000000 -1.1176209900000025 0 0 0
Pd 1.56689531 2.23514500 1.10453534
Pd 1.56917121 8.92493399 3.27461615
Pd 1.58048750 6.70543500 -3.3525959200000024 0 0 0
Pd 1.58048750 4.47029000 -1.1176209900000025 0 0 0
Pd 1.57580926 6.70543500 1.11762099
Pd 1.56917121 4.48593602 3.27461615
Pd 4.74146250 2.23514500 -3.3525959200000024 0 0 0
Pd 4.74146250 0.00000000 -1.1176209900000025 0 0 0
Pd 4.75505469 2.23514500 1.10453534
Pd 4.75277879 8.92493399 3.27461615
Pd 4.74146250 6.70543500 -3.3525959200000024 0 0 0
Pd 4.74146250 4.47029000 -1.1176209900000025 0 0 0
Pd 4.74614074 6.70543500 1.11762099
Pd 4.75277879 4.48593602 3.27461615
C 0.00000000 2.23514500 5.28606688
O 0.00000000 2.23514500 6.44000721
