&CONTROL
calculation = 'relax'
prefix = 'scf'
pseudo_dir = '/vol0004/mdt0/data/hp150275/u10028/POT_KKJUS'
outdir = './data'
tprnfor = .true.
nstep = 50
disk_io = 'non'
/
&SYSTEM
ibrav = 0
ecutwfc = 50.0
ecutrho = 400
occupations = 'smearing'
smearing = 'mp'
degauss = 0.01
assume_isolated = 'esm'
esm_bc = 'bc1'
input_dft = 'BEEF-VDW'
nosym = .true.
nspin = 1
ntyp = 5
nat = 18
/
&ELECTRONS
electron_maxstep = 200
mixing_beta = 0.1
conv_thr = 1e-06
/
&IONS
ion_dynamics = 'bfgs'
upscale = 1.0
/
&CELL
/

K_POINTS {automatic}
9 9 2 0  0  0

ATOMIC_SPECIES
Au 196.9 Au.pbe-n-rrkjus_psl.1.0.0.UPF
C 12.01 C.pbe-n-rrkjus_psl.1.0.0.UPF
Li 6.941 Li.pbe-sl-rrkjus_psl.1.0.0.UPF
O 15.99 O.pbe-n-rrkjus_psl.1.0.0.UPF
Pb 207.2 Pb.pbe-dn-rrkjus_psl.1.0.0.UPF

CELL_PARAMETERS {angstrom}
6.82040000 0.00000000 0.00000000
0.00000000 6.82040000 0.00000000
0.00000000 0.00000000 25.11530000

ATOMIC_POSITIONS {angstrom}
Li 0.00000000 0.00000000 -0.8526644300000008 0 0 0
Li 3.41033641 0.00006820 2.43392372
Li 0.00006820 3.41040461 2.43342142
Li 3.41020000 3.41020000 -0.8526644300000008 0 0 0
Li 1.88993284 1.88884158 0.94157260
Li 1.70510000 5.11530000 -2.557742150000003 0 0 0
Li 4.93073998 4.93189944 0.94132144
Li 5.11530000 1.70510000 -2.557742150000003 0 0 0
Pb 0.00000000 0.00013641 2.48314971
Pb 3.41060922 3.41081384 2.97867458
Pb 3.41020000 0.00000000 -0.8526644300000008 0 0 0
Pb 0.00000000 3.41020000 -0.8526644300000008 0 0 0
Au 1.70510000 1.70510000 -2.557742150000003 0 0 0
Au 1.85787696 4.96518300 0.96392521
Au 5.11530000 5.11530000 -2.557742150000003 0 0 0
Au 4.96252304 1.85555802 0.96367406
C 0.00006820 0.00061384 6.45940401
O 0.00047743 0.00027282 7.59461557
