&CONTROL
calculation = 'relax'
prefix = 'scf'
pseudo_dir = '/vol0004/mdt0/data/hp150275/u10028/POT_KKJUS'
outdir = './data'
tprnfor = .true.
nstep = 50
disk_io = 'non'
/
&SYSTEM
ibrav = 0
ecutwfc = 50.0
ecutrho = 400
occupations = 'smearing'
smearing = 'mp'
degauss = 0.01
assume_isolated = 'esm'
esm_bc = 'bc1'
input_dft = 'BEEF-VDW'
nosym = .true.
nspin = 1
ntyp = 5
nat = 18
/
&ELECTRONS
electron_maxstep = 200
mixing_beta = 0.1
conv_thr = 1e-06
/
&IONS
ion_dynamics = 'bfgs'
upscale = 1.0
/
&CELL
/

K_POINTS {automatic}
8 8 1 0 0 0

ATOMIC_SPECIES
C 12.01 C.pbe-n-rrkjus_psl.1.0.0.UPF
Ga 69.72 Ga.pbe-dnl-rrkjus_psl.1.0.0.UPF
Li 6.941 Li.pbe-sl-rrkjus_psl.1.0.0.UPF
O 15.99 O.pbe-n-rrkjus_psl.1.0.0.UPF
Pd 106.4 Pd.pbe-n-rrkjus_psl.1.0.0.UPF

CELL_PARAMETERS {angstrom}
6.14873000 0.00000000 0.00000000
0.00000000 6.14873000 0.00000000
0.00000000 0.00000000 24.61150000

ATOMIC_POSITIONS {angstrom}
Li 0.00473452 0.00479601 0.69232149
Li 3.07436500 0.00000000 -2.305851439999998 0 0 0
Li 0.00000000 3.07436500 -2.305851439999998 0 0 0
Li 3.06655611 3.06649463 0.69945883
Li 1.53662911 1.53662911 2.58863757
Li 1.53718250 4.61154750 -0.7686171500000007 0 0 0
Li 4.61695838 4.61695838 2.53473838
Li 4.61154750 1.53718250 -0.7686171500000007 0 0 0
Ga 1.53718250 1.53718250 -0.7686171500000007 0 0 0
Ga 1.53638317 4.61456038 2.17417991
Ga 4.61154750 4.61154750 -0.7686171500000007 0 0 0
Ga 4.61462186 1.53638317 2.17442602
Pd 0.00000000 0.00000000 -2.305851439999998 0 0 0
Pd 3.07436500 3.07436500 -2.305851439999998 0 0 0
Pd 3.07750085 6.14731579 0.80947224
Pd 6.14731579 3.07743937 0.80947224
C 1.53134121 1.53134121 4.66683263
O 1.53177162 1.53183310 5.80929846
