&CONTROL
calculation = 'relax'
prefix = 'scf'
pseudo_dir = '/vol0004/mdt0/data/hp150275/u10028/POT_HYBRID_KKJUS_GBRV'
outdir = './data'
tprnfor = .true.
nstep = 50
disk_io = 'non'
/
&SYSTEM
ibrav = 0
ecutwfc = 50.0
ecutrho = 400
occupations = 'smearing'
smearing = 'mp'
degauss = 0.01
assume_isolated = 'esm'
esm_bc = 'bc1'
input_dft = 'BEEF-VDW'
nosym = .true.
nspin = 2
ntyp = 4
nat = 33
starting_magnetization(1) = 0.0
starting_magnetization(2) = 0.0
starting_magnetization(3) = 0.1
starting_magnetization(4) = 0.0
/
&ELECTRONS
electron_maxstep = 300
mixing_beta = 0.1
conv_thr = 1e-06
/
&IONS
ion_dynamics = 'bfgs'
upscale = 1.0
/
&CELL
/

K_POINTS {automatic}
8 6 1 0 0 0

ATOMIC_SPECIES
Al 26.98 Al.pbe-nl-rrkjus_psl.1.0.0.UPF
C 12.01 C.pbe-n-rrkjus_psl.1.0.0.UPF
Co 58.93 co_pbe_v1.2.uspp.F.UPF
Nb 92.90 Nb.pbe-spn-rrkjus_psl.1.0.0.UPF

CELL_PARAMETERS {angstrom}
5.97844000 0.00000000 0.00000000
0.00000000 8.45478000 0.00000000
0.00000000 0.00000000 26.34110000

ATOMIC_POSITIONS {angstrom}
Nb 0.00000000 0.00000000 -3.1704147999999996 0 0 0
Nb 2.98922000 2.11369500 -1.056804930000002 0 0 0
Nb 2.98922000 6.34108500 -1.056804930000002 0 0 0
Nb 0.00000000 4.22739000 -3.1704147999999996 0 0 0
Nb 5.97796172 4.24692054 1.09684340
Nb 2.99394297 6.34108500 3.19965342
Nb 3.20653629 2.11377955 3.10113770
Nb 5.97796172 8.43524946 1.09684340
Al 0.00000000 6.34108500 -1.056804930000002 0 0 0
Al 2.98922000 0.00000000 -3.1704147999999996 0 0 0
Al 0.00000000 2.11369500 -1.056804930000002 0 0 0
Al 2.98922000 4.22739000 -3.1704147999999996 0 0 0
Al 5.76811848 2.11369500 3.27577920
Al 2.96763783 4.21969615 1.06997548
Al 0.00651650 6.34108500 3.23284320
Al 2.96763783 0.00769385 1.06997548
Co 1.49461000 0.00000000 -1.056804930000002 0 0 0
Co 4.48383000 4.22739000 -1.056804930000002 0 0 0
Co 4.48383000 0.00000000 -1.056804930000002 0 0 0
Co 1.49461000 4.22739000 -1.056804930000002 0 0 0
Co 4.48383000 6.34108500 -3.1704147999999996 0 0 0
Co 1.49461000 2.11369500 -3.1704147999999996 0 0 0
Co 1.49461000 6.34108500 -3.1704147999999996 0 0 0
Co 4.48383000 2.11369500 -3.1704147999999996 0 0 0
Co 1.42035778 4.09067621 3.13669819
Co 4.48580289 8.37479778 2.97707112
Co 4.48586267 4.30737222 2.97707112
Co 1.42035778 0.13671379 3.13669819
Co 4.53978820 2.11361045 0.93221153
Co 1.54757898 6.34116955 1.10237503
Co 1.48594126 2.11361045 1.03941981
Co 4.42697504 6.34116955 1.09499953
C 1.51320295 2.11369500 4.02070550
