&CONTROL
calculation = 'relax'
prefix = 'scf'
pseudo_dir = '/vol0004/mdt0/data/hp150275/u10028/POT_KKJUS'
outdir = './data'
tprnfor = .true.
nstep = 50
disk_io = 'non'
/
&SYSTEM
ibrav = 0
ecutwfc = 50.0
ecutrho = 400
occupations = 'smearing'
smearing = 'mp'
degauss = 0.01
assume_isolated = 'esm'
esm_bc = 'bc1'
input_dft = 'BEEF-VDW'
nosym = .true.
nspin = 1
ntyp = 5
nat = 34
/
&ELECTRONS
electron_maxstep = 200
mixing_beta = 0.1
conv_thr = 1e-06
/
&IONS
ion_dynamics = 'bfgs'
upscale = 1.0
/
&CELL
/

K_POINTS {automatic}
8 6 1 0 0 0

ATOMIC_SPECIES
Al 26.98 Al.pbe-nl-rrkjus_psl.1.0.0.UPF
C 12.01 C.pbe-n-rrkjus_psl.1.0.0.UPF
Li 6.941 Li.pbe-sl-rrkjus_psl.1.0.0.UPF
O 15.99 O.pbe-n-rrkjus_psl.1.0.0.UPF
Rh 102.9 Rh.pbe-spn-rrkjus_psl.1.0.0.UPF

CELL_PARAMETERS {angstrom}
6.01864000 0.00000000 0.00000000
0.00000000 8.51164000 0.00000000
0.00000000 0.00000000 26.38370000

ATOMIC_POSITIONS {angstrom}
Li 0.00000000 6.38373000 -1.0640546200000003 0 0 0
Li 3.00932000 0.00000000 -3.1919000299999993 0 0 0
Li 0.00000000 2.12791000 -1.0640546200000003 0 0 0
Li 3.00932000 4.25582000 -3.1919000299999993 0 0 0
Li 1.50466000 2.12791000 -3.1919000299999993 0 0 0
Li 1.50466000 6.38373000 -3.1919000299999993 0 0 0
Li 4.51398000 4.25582000 -1.0640546200000003 0 0 0
Li 4.51398000 0.00000000 -1.0640546200000003 0 0 0
Li 0.09545563 2.12782488 3.49557641
Li 3.03652425 4.25386232 1.02922814
Li 0.07986735 6.38373000 3.59319610
Li 3.03622332 0.00204279 1.02922814
Li 1.41564431 6.38373000 0.98490352
Li 1.46421474 2.12791000 1.03318569
Li 4.45818721 0.00757536 3.28846437
Li 4.45818721 4.24807441 3.28846437
Al 0.00000000 0.00000000 -3.1919000299999993 0 0 0
Al 3.00932000 2.12791000 -1.0640546200000003 0 0 0
Al 3.00932000 6.38373000 -1.0640546200000003 0 0 0
Al 0.00000000 4.25582000 -3.1919000299999993 0 0 0
Al 5.98836624 4.22398647 1.04584987
Al 2.85915493 6.38364488 3.04124910
Al 2.83646466 2.12782488 3.14467320
Al 5.98866717 0.03208888 1.04584987
Rh 1.50466000 0.00000000 -1.0640546200000003 0 0 0
Rh 1.50466000 4.25582000 -1.0640546200000003 0 0 0
Rh 4.51398000 6.38373000 -3.1919000299999993 0 0 0
Rh 4.51398000 2.12791000 -3.1919000299999993 0 0 0
Rh 1.51025734 4.30476193 2.97713671
Rh 1.51025734 8.46252784 2.97740055
Rh 4.53703139 2.12765465 1.23449332
Rh 4.58644443 6.38458116 1.19359859
C 3.02105635 2.12791000 5.12661675
O 3.05072824 2.12791000 6.28961024
