&CONTROL
calculation = 'relax'
prefix = 'scf'
pseudo_dir = '/vol0403/data/hp230205/u10028/POT_HYBRID_KKJUS_GBRV'
outdir = './data'
tprnfor = .true.
nstep = 50
disk_io = 'non'
/
&SYSTEM
ibrav = 0
ecutwfc = 50.0
ecutrho = 400
occupations = 'smearing'
smearing = 'mp'
degauss = 0.01
assume_isolated = 'esm'
esm_bc = 'bc1'
input_dft = 'BEEF-VDW'
nosym = .true.
nspin = 1
ntyp = 4
nat = 16
/
&ELECTRONS
electron_maxstep = 200
mixing_beta = 0.1
conv_thr = 1e-06
/
&IONS
ion_dynamics = 'bfgs'
upscale = 1.0
/
&CELL
/

K_POINTS {automatic}
6 6 1 0 0 0

ATOMIC_SPECIES
In 114.8 In.pbe-dn-rrkjus_psl.1.0.0.UPF
Pd 106.4 Pd.pbe-n-rrkjus_psl.1.0.0.UPF
Sn 118.7 Sn.pbe-dn-rrkjus_psl.1.0.0.UPF
Y 88.90 Y.pbe-spn-rrkjus_psl.1.0.0.UPF


CELL_PARAMETERS {angstrom}
6.32964000 0.00000000 0.00000000
0.00000000 9.06394000 0.00000000
0.00000000 0.00000000 24.74170000

ATOMIC_POSITIONS {angstrom}
Y 4.67121102 2.26598500 -0.7902499000000027 0 0 0
Y 1.11699157 2.26535052 2.09290040
Y 4.67121102 6.79795500 -0.7902499000000027 0 0 0
Y 1.11699157 6.79849884 2.09290040
In 0.00000000 0.00000000 -2.3707496900000002 0 0 0
In 2.64952401 9.06366808 0.61384158
In 0.00000000 4.53197000 -2.3707496900000002 0 0 0
In 2.65060005 4.53197000 0.61483125
Sn 3.16482000 0.00000000 -2.3707496900000002 0 0 0
Sn 5.65730564 9.06375872 1.25836286
Sn 3.16482000 4.53197000 -2.3707496900000002 0 0 0
Sn 5.66040716 4.53178872 1.25514644
Pd 1.50639102 2.26598500 -0.7902499000000027 0 0 0
Pd 4.11274689 2.26634756 1.88284337
Pd 1.50639102 6.79795500 -0.7902499000000027 0 0 0
Pd 4.11268359 6.79750180 1.88259595
