&CONTROL
calculation = 'relax'
prefix = 'scf'
pseudo_dir = '/vol0403/data/hp230205/u10028/POT_HYBRID_KKJUS_GBRV'
outdir = './data'
tprnfor = .true.
nstep = 70
disk_io = 'non'
/
&SYSTEM
ibrav = 0
ecutwfc = 50.0
ecutrho = 400
occupations = 'smearing'
smearing = 'mp'
degauss = 0.01
assume_isolated = 'esm'
esm_bc = 'bc1'
input_dft = 'BEEF-VDW'
nosym = .true.
nspin = 1
ntyp = 5
nat = 33
/
&ELECTRONS
electron_maxstep = 200
mixing_beta = 0.1
conv_thr = 1e-06
/
&IONS
ion_dynamics = 'bfgs'
upscale = 1.0
/
&CELL
/

K_POINTS {automatic}
9 6 2 0  0  0

ATOMIC_SPECIES
C 12.01 C.pbe-n-rrkjus_psl.1.0.0.UPF
Cu 63.54 Cu.pbe-dn-rrkjus_psl.1.0.0.UPF
Li 6.941 Li.pbe-sl-rrkjus_psl.1.0.0.UPF
Pd 106.4 Pd.pbe-n-rrkjus_psl.1.0.0.UPF
Y 88.90 Y.pbe-spn-rrkjus_psl.1.0.0.UPF


CELL_PARAMETERS {angstrom}
6.67076000 0.00000000 0.00000000
-0.00000000 9.43388000 0.00000000
0.00000000 0.00000000 27.07540000

ATOMIC_POSITIONS {angstrom}
Li 1.66769000 0.00000000 -1.1791336699999988 0 0 0
Li 1.66769000 4.71694000 -1.1791336699999988 0 0 0
Li 5.00307000 2.35847000 -3.5376717599999985 0 0 0
Li 5.00307000 7.07541000 -3.5376717599999985 0 0 0
Li 1.43614792 4.71694000 3.50870109
Li 1.39605665 0.00009434 3.68035912
Li 4.86691979 7.03616506 1.16992803
Li 4.86698650 2.39799796 1.16992803
Y 5.00307000 0.00000000 -1.1791336699999988 0 0 0
Y 5.00307000 4.71694000 -1.1791336699999988 0 0 0
Y 1.66769000 2.35847000 -3.5376717599999985 0 0 0
Y 1.66769000 7.07541000 -3.5376717599999985 0 0 0
Y 4.71502658 4.71694000 3.43018243
Y 5.09726113 9.43378566 4.54758418
Y 1.53320748 7.25927632 1.19916947
Y 1.53320748 2.17469802 1.19916947
Cu 0.00000000 0.00000000 -3.5376717599999985 0 0 0
Cu 0.00000000 4.71694000 -3.5376717599999985 0 0 0
Cu 3.33538000 7.07541000 -1.1791336699999988 0 0 0
Cu 3.33538000 2.35847000 -1.1791336699999988 0 0 0
Cu 6.66188789 4.71694000 1.27525134
Cu 6.10868176 0.00009434 1.80322164
Cu 3.37753920 2.02743515 3.39525516
Cu 3.37740579 7.40635051 3.39552591
Pd 0.00000000 2.35847000 -1.1791336699999988 0 0 0
Pd 0.00000000 7.07541000 -1.1791336699999988 0 0 0
Pd 3.33538000 4.71694000 -3.5376717599999985 0 0 0
Pd 3.33538000 0.00000000 -3.5376717599999985 0 0 0
Pd 6.34229178 7.08107033 3.34272888
Pd 6.34229178 2.35271533 3.34245813
Pd 3.37727237 0.00018868 1.13093946
Pd 3.10083608 4.71694000 1.12877343
C 3.38367630 9.43378566 3.20058303
