&CONTROL
calculation = 'relax'
prefix = 'scf'
pseudo_dir = '/vol0004/mdt0/data/hp150275/u10028/POT_HYBRID_KKJUS_GBRV'
outdir = './data'
tprnfor = .true.
nstep = 50
disk_io = 'non'
/
&SYSTEM
ibrav = 0
ecutwfc = 50.0
ecutrho = 400
occupations = 'smearing'
smearing = 'mp'
degauss = 0.01
assume_isolated = 'esm'
esm_bc = 'bc1'
input_dft = 'BEEF-VDW'
nosym = .true.
nspin = 2
ntyp = 3
nat = 16
starting_magnetization(1) = 0.1
starting_magnetization(2) = 0.1
starting_magnetization(3) = 0.1
/
&ELECTRONS
electron_maxstep = 200
mixing_beta = 0.1
conv_thr = 1e-06
/
&IONS
ion_dynamics = 'bfgs'
upscale = 1.0
/
&CELL
/

K_POINTS {automatic}
10 10 2 0  0  0

ATOMIC_SPECIES
Co 58.93 co_pbe_v1.2.uspp.F.UPF
Cr 51.99 cr_pbe_v1.5.uspp.F.UPF
In 114.8 In.pbe-dn-rrkjus_psl.1.0.0.UPF

CELL_PARAMETERS {angstrom}
6.00915000 0.00000000 0.00000000
-0.00000000 6.00915000 0.00000000
0.00000000 0.00000000 24.50690000

ATOMIC_POSITIONS {angstrom}
Cr 0.00000000 0.00000000 2.25340946
Cr 3.00457500 3.00457500 2.25340946
Cr 3.00457500 0.00000000 -0.7511364800000031 0 0 0
Cr 0.00000000 3.00457500 -0.7511364800000031 0 0 0
In 0.00000000 0.00000000 -0.7511364800000031 0 0 0
In 3.00457500 -0.00000000 2.25340946
In 0.00000000 3.00457500 2.25340946
In 3.00457500 3.00457500 -0.7511364800000031 0 0 0
Co 1.50228750 1.50228750 0.75113649
Co 4.50686250 4.50686250 -2.253409450000003 0 0 0
Co 4.50686250 1.50228750 0.75113649
Co 1.50228750 4.50686250 -2.253409450000003 0 0 0
Co 4.50686250 4.50686250 0.75113649
Co 1.50228750 1.50228750 -2.253409450000003 0 0 0
Co 1.50228750 4.50686250 0.75113649
Co 4.50686250 1.50228750 -2.253409450000003 0 0 0
