&CONTROL
calculation = 'relax'
prefix = 'scf'
pseudo_dir = '/vol0004/mdt0/data/hp150275/u10028/POT_HYBRID_KKJUS_GBRV'
outdir = './data'
tprnfor = .true.
nstep = 50
disk_io = 'non'
/
&SYSTEM
ibrav = 0
ecutwfc = 50.0
ecutrho = 400
occupations = 'smearing'
smearing = 'mp'
degauss = 0.01
assume_isolated = 'esm'
esm_bc = 'bc1'
input_dft = 'BEEF-VDW'
nosym = .true.
nspin = 2
ntyp = 5
nat = 34
starting_magnetization(1) = 0.0
starting_magnetization(2) = 0.1
starting_magnetization(3) = 0.0
starting_magnetization(4) = 0.0
starting_magnetization(5) = 0.0
/
&ELECTRONS
electron_maxstep = 200
mixing_beta = 0.1
conv_thr = 1e-06
/
&IONS
ion_dynamics = 'bfgs'
upscale = 1.0
/
&CELL
/

K_POINTS {automatic}
9 6 2 0  0  0

ATOMIC_SPECIES
C 12.01 C.pbe-n-rrkjus_psl.1.0.0.UPF
Co 58.93 co_pbe_v1.2.uspp.F.UPF
O 15.99 O.pbe-n-rrkjus_psl.1.0.0.UPF
Sn 118.7 Sn.pbe-dn-rrkjus_psl.1.0.0.UPF
Zr 91.22 Zr.pbe-spn-rrkjus_psl.1.0.0.UPF

CELL_PARAMETERS {angstrom}
6.31315000 0.00000000 0.00000000
0.00000000 8.92814000 0.00000000
0.00000000 0.00000000 26.69610000

ATOMIC_POSITIONS {angstrom}
Zr 0.00000000 0.00000000 23.34814210
Zr 3.15657500 2.23203500 25.58020302
Zr 3.15657500 6.69610500 25.58020302
Zr 0.00000000 4.46407000 23.34814210
Zr 0.00006313 4.47290886 1.11162560
Zr 3.15651187 6.69610500 3.35303016
Zr 3.15651187 2.23212428 3.37492096
Zr 0.00000000 8.91921186 1.11162560
Co 1.57828750 0.00000000 25.58020302
Co 4.73486250 4.46407000 25.58020302
Co 4.73486250 0.00000000 25.58020302
Co 1.57828750 4.46407000 25.58020302
Co 4.73486250 6.69610500 23.34814210
Co 1.57828750 2.23203500 23.34814210
Co 1.57828750 6.69610500 23.34814210
Co 4.73486250 2.23203500 23.34814210
Co 1.50114081 4.47862287 3.16482266
Co 4.81194606 8.91358713 3.16482266
Co 4.81194606 4.47862287 3.16482266
Co 1.50114081 8.91358713 3.16482266
Co 4.73479937 2.23203500 1.13111376
Co 1.62355279 6.69610500 1.17489536
Co 1.57835063 2.23194572 1.13111376
Co 4.68966035 6.69601572 1.17489536
Sn 0.00000000 6.69610500 25.58020302
Sn 3.15657500 0.00000000 23.34814210
Sn 0.00000000 2.23203500 25.58020302
Sn 3.15657500 4.46407000 23.34814210
Sn 0.00000000 2.23203500 3.47716703
Sn 3.15663813 4.45049923 1.11429521
Sn 0.00000000 6.69610500 3.51347372
Sn 3.15663813 0.01348149 1.11456218
C 3.15657500 2.23203500 5.71082971
O 3.15657500 2.23203500 6.85849505
