&CONTROL
calculation = 'relax'
prefix = 'scf'
pseudo_dir = '/vol0004/mdt0/data/hp150275/u10028/POT_HYBRID_KKJUS_GBRV'
outdir = './data'
tprnfor = .true.
nstep = 50
disk_io = 'non'
/
&SYSTEM
ibrav = 0
ecutwfc = 50.0
ecutrho = 400
occupations = 'smearing'
smearing = 'mp'
degauss = 0.01
assume_isolated = 'esm'
esm_bc = 'bc1'
input_dft = 'BEEF-VDW'
nosym = .true.
nspin = 2
ntyp = 4
nat = 34
starting_magnetization(1) = 0.0
starting_magnetization(2) = 0.01
starting_magnetization(3) = 0.0
starting_magnetization(4) = 0.0
/
&ELECTRONS
electron_maxstep = 300
mixing_beta = 0.1
conv_thr = 1e-06
/
&IONS
ion_dynamics = 'bfgs'
upscale = 1.0
/
&CELL
/

K_POINTS {automatic}
9 6 2 0  0  0

ATOMIC_SPECIES
C 12.01 C.pbe-n-rrkjus_psl.1.0.0.UPF
Ni 58.69 ni_pbe_v1.4.uspp.F.UPF
O 15.99 O.pbe-n-rrkjus_psl.1.0.0.UPF
Ti 47.86 Ti.pbe-spn-rrkjus_psl.1.0.0.UPF

CELL_PARAMETERS {angstrom}
6.03636000 0.00000000 0.00000000
0.00000000 8.53670000 0.00000000
0.00000000 0.00000000 26.40250000

ATOMIC_POSITIONS {angstrom}
Ti 1.50909000 2.13417500 -3.2013031199999986 0 0 0
Ti 1.50909000 0.00000000 -1.0671890499999996 0 0 0
Ti 1.51017654 2.07808888 1.03418593
Ti 1.50921073 8.53661463 3.25595630
Ti 1.50909000 6.40252500 -3.2013031199999986 0 0 0
Ti 1.50909000 4.26835000 -1.0671890499999996 0 0 0
Ti 1.51017654 6.45912332 1.03392190
Ti 1.51011618 4.26852073 3.31298570
Ti 4.52727000 2.13417500 -3.2013031199999986 0 0 0
Ti 4.52727000 0.00000000 -1.0671890499999996 0 0 0
Ti 4.52793400 2.18377323 1.04342680
Ti 4.52853764 0.00000000 3.34493273
Ti 4.52727000 6.40252500 -3.2013031199999986 0 0 0
Ti 4.52727000 4.26835000 -1.0671890499999996 0 0 0
Ti 4.52799436 6.35215847 1.04316278
Ti 4.52781327 4.26843537 3.20763972
Ni 0.00000000 0.00000000 -3.2013031199999986 0 0 0
Ni 0.00000000 2.13417500 -1.0671890499999996 0 0 0
Ni 5.85170775 8.53601706 1.23088455
Ni 0.00241454 2.14126046 2.98506665
Ni 0.00000000 4.26835000 -3.2013031199999986 0 0 0
Ni 0.00000000 6.40252500 -1.0671890499999996 0 0 0
Ni 0.17819335 4.26835000 1.23722115
Ni 0.00235418 6.39526880 2.98506665
Ni 3.01818000 0.00000000 -3.2013031199999986 0 0 0
Ni 3.01818000 2.13417500 -1.0671890499999996 0 0 0
Ni 3.20766134 8.53601706 1.23114857
Ni 3.01709346 2.14040679 2.98533068
Ni 3.01818000 4.26835000 -3.2013031199999986 0 0 0
Ni 3.01818000 6.40252500 -1.0671890499999996 0 0 0
Ni 2.83980556 4.26835000 1.23722115
Ni 3.01715382 6.39612248 2.98533068
C 1.49701728 0.00000000 5.36234775
O 1.49430092 0.00008537 6.51956932
