&CONTROL
calculation = 'relax'
prefix = 'scf'
pseudo_dir = '/vol0004/mdt0/data/hp150275/u10028/POT_KKJUS'
outdir = './data'
tprnfor = .true.
nstep = 50
disk_io = 'non'
/
&SYSTEM
ibrav = 0
ecutwfc = 50.0
ecutrho = 400
occupations = 'smearing'
smearing = 'mp'
degauss = 0.01
assume_isolated = 'esm'
esm_bc = 'bc1'
input_dft = 'BEEF-VDW'
nosym = .true.
nspin = 1
ntyp = 5
nat = 34
/
&ELECTRONS
electron_maxstep = 200
mixing_beta = 0.1
conv_thr = 1e-06
/
&IONS
ion_dynamics = 'bfgs'
upscale = 1.0
/
&CELL
/

K_POINTS {automatic}
9 6 2 0  0  0

ATOMIC_SPECIES
C 12.01 C.pbe-n-rrkjus_psl.1.0.0.UPF
Cu 63.54 Cu.pbe-dn-rrkjus_psl.1.0.0.UPF
In 114.8 In.pbe-dn-rrkjus_psl.1.0.0.UPF
O 15.99 O.pbe-n-rrkjus_psl.1.0.0.UPF
Zr 91.22 Zr.pbe-spn-rrkjus_psl.1.0.0.UPF

CELL_PARAMETERS {angstrom}
6.47982000 0.00000000 0.00000000
0.00000000 9.16384000 0.00000000
0.00000000 0.00000000 26.87290000

ATOMIC_POSITIONS {angstrom}
Zr 0.00000000 0.00000000 -3.436506450000003 0 0 0
Zr 3.23991000 2.29096000 -1.1455917299999996 0 0 0
Zr 3.23991000 6.87288000 -1.1455917299999996 0 0 0
Zr 0.00000000 4.58192000 -3.436506450000003 0 0 0
Zr 6.46647157 4.55992678 1.17783921
Zr 3.16480889 7.08658075 3.48219038
Zr 3.16798400 1.99661746 3.60204352
Zr 0.02397533 0.02034372 1.17730175
In 0.00000000 6.87288000 -1.1455917299999996 0 0 0
In 3.23991000 0.00000000 -3.436506450000003 0 0 0
In 0.00000000 2.29096000 -1.1455917299999996 0 0 0
In 3.23991000 4.58192000 -3.436506450000003 0 0 0
In 6.43666440 2.36344597 3.50906328
In 3.23291179 4.60079751 1.10125144
In 6.42292718 6.57991204 3.64853363
In 3.24399229 9.15861661 1.10501365
Cu 1.61995500 0.00000000 -1.1455917299999996 0 0 0
Cu 4.85986500 4.58192000 -1.1455917299999996 0 0 0
Cu 4.85986500 0.00000000 -1.1455917299999996 0 0 0
Cu 1.61995500 4.58192000 -1.1455917299999996 0 0 0
Cu 4.85986500 6.87288000 -3.436506450000003 0 0 0
Cu 1.61995500 2.29096000 -3.436506450000003 0 0 0
Cu 1.61995500 6.87288000 -3.436506450000003 0 0 0
Cu 4.85986500 2.29096000 -3.436506450000003 0 0 0
Cu 1.85296933 4.50027019 3.47600962
Cu 5.08516834 9.01749348 3.48622132
Cu 4.53580920 4.48890702 3.48272784
Cu 1.19332365 9.00026546 3.67648145
Cu 4.78599505 2.29764960 1.22271695
Cu 1.58949985 6.85803458 1.17327081
Cu 1.66486015 2.31185356 1.19584405
Cu 4.86375289 6.88002780 1.20202482
C 3.15806987 8.94665699 4.59634082
O 3.19079296 0.83977430 5.37216144
