&CONTROL
calculation = 'relax'
prefix = 'scf'
pseudo_dir = '/vol0004/mdt0/data/hp150275/u10028/POT_HYBRID_KKJUS_GBRV'
outdir = './data'
tprnfor = .true.
nstep = 50
disk_io = 'non'
/
&SYSTEM
ibrav = 0
ecutwfc = 50.0
ecutrho = 400
occupations = 'smearing'
smearing = 'mp'
degauss = 0.01
assume_isolated = 'esm'
esm_bc = 'bc1'
input_dft = 'BEEF-VDW'
nosym = .true.
nspin = 2
ntyp = 3
nat = 33
starting_magnetization(1) = 0.1
starting_magnetization(2) = 0.1
starting_magnetization(3) = 0.1
/
&ELECTRONS
electron_maxstep = 200
mixing_beta = 0.1
conv_thr = 1e-06
/
&IONS
ion_dynamics = 'bfgs'
upscale = 1.0
/
&CELL
/

K_POINTS {automatic}
9 6 2 0  0  0

ATOMIC_SPECIES
Al 26.98 Al.pbe-nl-rrkjus_psl.1.0.0.UPF
C 12.01 C.pbe-n-rrkjus_psl.1.0.0.UPF
Ni 58.69 ni_pbe_v1.4.uspp.F.UPF

CELL_PARAMETERS {angstrom}
5.79956000 0.00000000 0.00000000
0.00000000 8.20182000 0.00000000
0.00000000 0.00000000 26.15140000

ATOMIC_POSITIONS {angstrom}
Al 1.44989000 2.05045500 -3.07566615 0 0 0
Al 1.44989000 0.00000000 -1.0251348799999995 0 0 0
Al 1.42796766 2.05709847 1.02487337
Al 1.69335553 0.00000000 3.11463174
Al 1.44989000 6.15136500 -3.07566615 0 0 0
Al 1.44989000 4.10091000 -1.0251348799999995 0 0 0
Al 1.42796766 6.14472153 1.02487337
Al 1.39380825 4.10091000 3.14235222
Al 4.34967000 2.05045500 -3.07566615 0 0 0
Al 4.34967000 0.00000000 -1.0251348799999995 0 0 0
Al 4.37159234 2.05709847 1.02487337
Al 4.10620447 0.00000000 3.11463174
Al 4.34967000 6.15136500 -3.07566615 0 0 0
Al 4.34967000 4.10091000 -1.0251348799999995 0 0 0
Al 4.37159234 6.14472153 1.02487337
Al 4.40575175 4.10091000 3.14235222
Ni 0.00000000 0.00000000 -3.07566615 0 0 0
Ni 0.00000000 2.05045500 -1.0251348799999995 0 0 0
Ni 0.00000000 0.00000000 1.04657903
Ni 0.00000000 1.89412831 3.07252799
Ni 0.00000000 4.10091000 -3.07566615 0 0 0
Ni 0.00000000 6.15136500 -1.0251348799999995 0 0 0
Ni 0.00000000 4.10091000 1.01885854
Ni 0.00000000 6.30769169 3.07278950
Ni 2.89978000 0.00000000 -3.07566615 0 0 0
Ni 2.89978000 2.05045500 -1.0251348799999995 0 0 0
Ni 2.89978000 0.00000000 0.94328100
Ni 2.89978000 2.14584217 2.92843377
Ni 2.89978000 4.10091000 -3.07566615 0 0 0
Ni 2.89978000 6.15136500 -1.0251348799999995 0 0 0
Ni 2.89978000 4.10091000 1.00970555
Ni 2.89978000 6.05597783 2.92843377
C 0.00000000 0.00000000 3.86203875
