&CONTROL
calculation = 'relax'
prefix = 'scf'
pseudo_dir = '/vol0004/mdt0/data/hp150275/u10028/POT_KKJUS'
outdir = './data'
tprnfor = .true.
nstep = 50
disk_io = 'non'
/
&SYSTEM
ibrav = 0
ecutwfc = 50.0
ecutrho = 400
occupations = 'smearing'
smearing = 'mp'
degauss = 0.01
assume_isolated = 'esm'
esm_bc = 'bc1'
input_dft = 'BEEF-VDW'
nosym = .true.
nspin = 1
ntyp = 5
nat = 34
/
&ELECTRONS
electron_maxstep = 200
mixing_beta = 0.1
conv_thr = 1e-06
/
&IONS
ion_dynamics = 'bfgs'
upscale = 1.0
/
&CELL
/

K_POINTS {automatic}
9 6 2 0  0  0

ATOMIC_SPECIES
Al 26.98 Al.pbe-nl-rrkjus_psl.1.0.0.UPF
C 12.01 C.pbe-n-rrkjus_psl.1.0.0.UPF
Hf 178.4 Hf.pbe-spn-rrkjus_psl.1.0.0.UPF
Ni 58.69 Ni.pbe-spn-rrkjus_psl.1.0.0.UPF
O 15.99 O.pbe-n-rrkjus_psl.1.0.0.UPF

CELL_PARAMETERS {angstrom}
6.09904000 0.00000000 0.00000000
0.00000000 8.62534000 0.00000000
0.00000000 0.00000000 26.46900000

ATOMIC_POSITIONS {angstrom}
Hf 0.00000000 0.00000000 -3.2345118 0 0 0
Hf 3.04952000 2.15633500 -1.0780823700000006 0 0 0
Hf 3.04952000 6.46900500 -1.0780823700000006 0 0 0
Hf 0.00000000 4.31267000 -3.2345118 0 0 0
Hf 0.00000000 4.32431421 1.05928938
Hf 3.04952000 6.46900500 3.33721152
Hf 3.04952000 2.15642125 3.33641745
Hf 0.00000000 8.61369579 1.05955407
Al 0.00000000 6.46900500 -1.0780823700000006 0 0 0
Al 3.04952000 0.00000000 -3.2345118 0 0 0
Al 0.00000000 2.15633500 -1.0780823700000006 0 0 0
Al 3.04952000 4.31267000 -3.2345118 0 0 0
Al 0.00000000 2.15633500 3.18633822
Al 3.04952000 4.30335463 1.12916754
Al 0.00000000 6.46900500 3.19216140
Al 3.04952000 0.00940162 1.12916754
Ni 1.52476000 0.00000000 -1.0780823700000006 0 0 0
Ni 4.57428000 4.31267000 -1.0780823700000006 0 0 0
Ni 4.57428000 0.00000000 -1.0780823700000006 0 0 0
Ni 1.52476000 4.31267000 -1.0780823700000006 0 0 0
Ni 4.57428000 6.46900500 -3.2345118 0 0 0
Ni 1.52476000 2.15633500 -3.2345118 0 0 0
Ni 1.52476000 6.46900500 -3.2345118 0 0 0
Ni 4.57428000 2.15633500 -3.2345118 0 0 0
Ni 1.46376960 4.32207162 3.12307731
Ni 4.63520941 8.61611089 3.12307731
Ni 4.63527040 4.32207162 3.12307731
Ni 1.46376960 8.61602463 3.12307731
Ni 4.52298707 2.15633500 1.09714005
Ni 1.63167617 6.46900500 1.15272495
Ni 1.57605293 2.15633500 1.09714005
Ni 4.46736383 6.46900500 1.15272495
C 3.04952000 2.15633500 5.62572126
O 3.04952000 2.15633500 6.77394648
