&CONTROL
calculation = 'relax'
prefix = 'scf'
pseudo_dir = '/vol0004/mdt0/data/hp150275/u10028/POT_KKJUS'
outdir = './data'
tprnfor = .true.
nstep = 50
disk_io = 'non'
/
&SYSTEM
ibrav = 0
ecutwfc = 50.0
ecutrho = 400
occupations = 'smearing'
smearing = 'mp'
degauss = 0.01
assume_isolated = 'esm'
esm_bc = 'bc1'
input_dft = 'BEEF-VDW'
nosym = .true.
nspin = 1
ntyp = 3
nat = 33
/
&ELECTRONS
electron_maxstep = 200
mixing_beta = 0.1
conv_thr = 1e-06
/
&IONS
ion_dynamics = 'bfgs'
upscale = 1.0
/
&CELL
/

K_POINTS {automatic}
9 6 2 0  0  0

ATOMIC_SPECIES
C 12.01 C.pbe-n-rrkjus_psl.1.0.0.UPF
Cu 63.54 Cu.pbe-dn-rrkjus_psl.1.0.0.UPF
Sc 44.95 Sc.pbe-spn-rrkjus_psl.1.0.0.UPF

CELL_PARAMETERS {angstrom}
6.54723000 0.00000000 0.00000000
0.00000000 9.25918000 0.00000000
0.00000000 0.00000000 26.94440000

ATOMIC_POSITIONS {angstrom}
Sc 1.63680750 2.31479500 -3.4723248300000016 0 0 0
Sc 1.63680750 4.62959000 -1.1575314200000015 0 0 0
Sc 1.58253096 2.16405555 1.35072277
Sc 1.68807231 4.75838519 3.64934954
Sc 1.63680750 6.94438500 -3.4723248300000016 0 0 0
Sc 1.63680750 0.00000000 -1.1575314200000015 0 0 0
Sc 1.66260359 6.81290464 1.13786201
Sc 1.62561174 9.17381036 3.56178024
Sc 4.91042250 2.31479500 -3.4723248300000016 0 0 0
Sc 4.91042250 4.62959000 -1.1575314200000015 0 0 0
Sc 4.96692509 2.16914810 1.34587278
Sc 4.85771730 4.76079258 3.65123564
Sc 4.91042250 6.94438500 -3.4723248300000016 0 0 0
Sc 4.91042250 0.00000000 -1.1575314200000015 0 0 0
Sc 4.88534661 6.80929356 1.13678424
Sc 4.92986777 9.17418073 3.55558302
Cu 0.00000000 0.00000000 -3.4723248300000016 0 0 0
Cu 0.00000000 2.31479500 -1.1575314200000015 0 0 0
Cu 6.54382544 8.97983054 1.04867605
Cu 6.54336713 2.61840351 3.62159680
Cu 0.00000000 4.62959000 -3.4723248300000016 0 0 0
Cu 0.00000000 6.94438500 -1.1575314200000015 0 0 0
Cu 0.00183322 4.53042418 1.39706714
Cu 6.54644433 6.82799711 3.25892518
Cu 3.27361500 0.00000000 -3.4723248300000016 0 0 0
Cu 3.27361500 2.31479500 -1.1575314200000015 0 0 0
Cu 3.27845995 9.12084785 1.34263945
Cu 3.27734692 2.37405375 3.44780542
Cu 3.27361500 4.62959000 -3.4723248300000016 0 0 0
Cu 3.27361500 6.94438500 -1.1575314200000015 0 0 0
Cu 3.27210914 4.45838776 1.28928954
Cu 3.27440067 6.94716275 3.29799456
C 0.00563062 0.96934355 2.63112066
