&CONTROL
calculation = 'relax'
prefix = 'scf'
pseudo_dir = '/vol0004/mdt0/data/hp150275/u10028/POT_HYBRID_KKJUS_GBRV'
outdir = './data'
tprnfor = .true.
nstep = 50
disk_io = 'non'
/
&SYSTEM
ibrav = 0
ecutwfc = 50.0
ecutrho = 400
occupations = 'smearing'
smearing = 'mp'
degauss = 0.01
assume_isolated = 'esm'
esm_bc = 'bc1'
input_dft = 'BEEF-VDW'
nosym = .true.
nspin = 2
ntyp = 3
nat = 32
starting_magnetization(1) = 0.001
starting_magnetization(2) = 0.0
starting_magnetization(3) = 0.0
/
&ELECTRONS
electron_maxstep = 200
mixing_beta = 0.1
conv_thr = 1e-06
/
&IONS
ion_dynamics = 'bfgs'
upscale = 1.0
/
&CELL
/

K_POINTS {automatic}
9 6 2 0  0  0

ATOMIC_SPECIES
Ni 58.69 ni_pbe_v1.4.uspp.F.UPF
Sb 121.7 Sb.pbe-n-rrkjus_psl.1.0.0.UPF
Zr 91.22 Zr.pbe-spn-rrkjus_psl.1.0.0.UPF

CELL_PARAMETERS {angstrom}
6.34024000 0.00000000 0.00000000
0.00000000 8.96645000 0.00000000
0.00000000 0.00000000 26.72480000

ATOMIC_POSITIONS {angstrom}
Zr 0.00000000 0.00000000 23.36228566
Zr 3.17012000 2.24161250 25.60396189
Zr 3.17012000 6.72483750 25.60396189
Zr 0.00000000 4.48322500 23.36228566
Zr 0.00000000 4.48322500 1.12190710
Zr 3.17012000 6.72483750 3.33766027
Zr 3.17012000 2.24161250 3.33792752
Zr 0.00000000 0.00000000 1.12163986
Ni 1.58506000 0.00000000 25.60396189
Ni 4.75518000 4.48322500 25.60396189
Ni 4.75518000 0.00000000 25.60396189
Ni 1.58506000 4.48322500 25.60396189
Ni 4.75518000 6.72483750 23.36228566
Ni 1.58506000 2.24161250 23.36228566
Ni 1.58506000 6.72483750 23.36228566
Ni 4.75518000 2.24161250 23.36228566
Ni 1.72777880 4.48313534 3.15005218
Ni 4.61277821 0.00008966 3.15005218
Ni 4.61246120 4.48304567 3.15005218
Ni 1.72746179 0.00008966 3.15005218
Ni 4.81319320 2.24188149 1.22907355
Ni 1.52704680 6.72456851 1.22880630
Ni 1.52704680 2.24188149 1.22907355
Ni 4.81319320 6.72456851 1.22880630
Sb 0.00000000 6.72483750 25.60396189
Sb 3.17012000 0.00000000 23.36228566
Sb 0.00000000 2.24161250 25.60396189
Sb 3.17012000 4.48322500 23.36228566
Sb 0.00000000 2.24161250 3.56081235
Sb 3.17012000 4.48322500 1.03264627
Sb 0.00000000 6.72483750 3.56081235
Sb 3.17012000 0.00000000 1.03264627
