&CONTROL
calculation = 'relax'
prefix = 'scf'
pseudo_dir = '/vol0004/mdt0/data/hp150275/u10028/POT_HYBRID_KKJUS_GBRV'
outdir = './data'
tprnfor = .true.
nstep = 50
disk_io = 'non'
/
&SYSTEM
ibrav = 0
ecutwfc = 50.0
ecutrho = 400
occupations = 'smearing'
smearing = 'mp'
degauss = 0.01
assume_isolated = 'esm'
esm_bc = 'bc1'
input_dft = 'BEEF-VDW'
nosym = .true.
nspin = 2
ntyp = 4
nat = 33
starting_magnetization(1) = 0.0
starting_magnetization(2) = 0.0
starting_magnetization(3) = 0.001
starting_magnetization(4) = 0.0
/
&ELECTRONS
electron_maxstep = 300
mixing_beta = 0.1
conv_thr = 1e-06
/
&IONS
ion_dynamics = 'bfgs'
upscale = 1.0
/
&CELL
/

K_POINTS {automatic}
8 6 1 0 0 0

ATOMIC_SPECIES
C 12.01 C.pbe-n-rrkjus_psl.1.0.0.UPF
Mg 24.30 Mg.pbe-spnl-rrkjus_psl.1.0.0.UPF
Ni 58.69 ni_pbe_v1.4.uspp.F.UPF
Sb 121.7 Sb.pbe-n-rrkjus_psl.1.0.0.UPF

CELL_PARAMETERS {angstrom}
6.21377000 0.00000000 0.00000000
0.00000000 8.78760000 0.00000000
0.00000000 0.00000000 26.59070000

ATOMIC_POSITIONS {angstrom}
Mg 0.00000000 0.00000000 -3.2953854499999977 0 0 0
Mg 3.10688500 2.19690000 -1.0984618199999971 0 0 0
Mg 3.10688500 6.59070000 -1.0984618199999971 0 0 0
Mg 0.00000000 4.39380000 -3.2953854499999977 0 0 0
Mg 0.00000000 4.39371212 1.05804395
Mg 3.10688500 6.56003128 3.68813009
Mg 3.10688500 2.22765660 3.68813009
Mg 0.00000000 0.00008788 1.20269736
Ni 1.55344250 0.00000000 -1.0984618199999971 0 0 0
Ni 4.66032750 4.39380000 -1.0984618199999971 0 0 0
Ni 4.66032750 0.00000000 -1.0984618199999971 0 0 0
Ni 1.55344250 4.39380000 -1.0984618199999971 0 0 0
Ni 4.66032750 6.59070000 -3.2953854499999977 0 0 0
Ni 1.55344250 2.19690000 -3.2953854499999977 0 0 0
Ni 1.55344250 6.59070000 -3.2953854499999977 0 0 0
Ni 4.66032750 2.19690000 -3.2953854499999977 0 0 0
Ni 1.71040233 4.39371212 3.05527143
Ni 4.45297400 8.78751212 3.22385647
Ni 4.50336767 4.39371212 3.05527143
Ni 1.76079600 8.78751212 3.22385647
Ni 4.64292894 2.19663637 1.26279234
Ni 1.57071678 6.59096363 1.26279234
Ni 1.57077892 2.19663637 1.26279234
Ni 4.64305322 6.59096363 1.26279234
Sb 0.00000000 6.59070000 -1.0984618199999971 0 0 0
Sb 3.10688500 0.00000000 -3.2953854499999977 0 0 0
Sb 0.00000000 2.19690000 -1.0984618199999971 0 0 0
Sb 3.10688500 4.39380000 -3.2953854499999977 0 0 0
Sb 0.00000000 2.45481606 3.47939309
Sb 3.10688500 4.39388788 0.97880367
Sb 0.00000000 6.33278394 3.47939309
Sb 3.10688500 0.00000000 1.02879418
C 0.00000000 0.00000000 3.56847194
