&CONTROL
calculation = 'relax'
prefix = 'scf'
pseudo_dir = '/vol0004/mdt0/data/hp150275/u10028/POT_KKJUS'
outdir = './data'
tprnfor = .true.
nstep = 50
disk_io = 'non'
/
&SYSTEM
ibrav = 0
ecutwfc = 50.0
ecutrho = 400
occupations = 'smearing'
smearing = 'mp'
degauss = 0.01
assume_isolated = 'esm'
esm_bc = 'bc1'
input_dft = 'BEEF-VDW'
nosym = .true.
nspin = 1
ntyp = 5
nat = 34
/
&ELECTRONS
electron_maxstep = 200
mixing_beta = 0.1
conv_thr = 1e-06
/
&IONS
ion_dynamics = 'bfgs'
upscale = 1.0
/
&CELL
/

K_POINTS {automatic}
9 6 2 0  0  0

ATOMIC_SPECIES
Al 26.98 Al.pbe-nl-rrkjus_psl.1.0.0.UPF
C 12.01 C.pbe-n-rrkjus_psl.1.0.0.UPF
Li 6.941 Li.pbe-sl-rrkjus_psl.1.0.0.UPF
O 15.99 O.pbe-n-rrkjus_psl.1.0.0.UPF
Pt 195.0 Pt.pbe-n-rrkjus_psl.1.0.0.UPF

CELL_PARAMETERS {angstrom}
6.07419000 0.00000000 0.00000000
0.00000000 8.59020000 0.00000000
0.00000000 0.00000000 26.44270000

ATOMIC_POSITIONS {angstrom}
Li 0.00000000 6.44265000 -1.073838049999999 0 0 0
Li 3.03709500 0.00000000 -3.2212497099999986 0 0 0
Li 0.00000000 2.14755000 -1.073838049999999 0 0 0
Li 3.03709500 4.29510000 -3.2212497099999986 0 0 0
Li 1.51854750 0.00000000 -1.073838049999999 0 0 0
Li 1.51854750 4.29510000 -1.073838049999999 0 0 0
Li 4.55564250 6.44265000 -3.2212497099999986 0 0 0
Li 4.55564250 2.14755000 -3.2212497099999986 0 0 0
Li 5.98052599 2.14703459 3.74640174
Li 3.04650999 4.25068867 1.01513525
Li 6.03574038 6.44342312 3.33072249
Li 3.04401958 0.04389592 1.01301984
Li 1.59720826 4.28401864 3.30110667
Li 1.59787642 0.01202628 3.29978453
Li 4.68374717 2.14712049 1.11535309
Li 4.65708147 6.44316541 0.95458147
Al 0.00000000 0.00000000 -3.2212497099999986 0 0 0
Al 3.03709500 2.14755000 -1.073838049999999 0 0 0
Al 3.03709500 6.44265000 -1.073838049999999 0 0 0
Al 0.00000000 4.29510000 -3.2212497099999986 0 0 0
Al 0.08054376 4.31176499 1.06775623
Al 3.21081683 6.44265000 3.06153581
Al 3.21130277 2.14797951 3.20485524
Al 0.08090821 8.57405042 1.06669852
Pt 1.51854750 2.14755000 -3.2212497099999986 0 0 0
Pt 1.51854750 6.44265000 -3.2212497099999986 0 0 0
Pt 4.55564250 4.29510000 -1.073838049999999 0 0 0
Pt 4.55564250 0.00000000 -1.073838049999999 0 0 0
Pt 1.58645694 6.44204869 1.09340564
Pt 1.50645986 2.14780771 1.14549776
Pt 4.54604528 8.58659212 3.00679942
Pt 4.54902163 4.29973871 3.01023697
C 2.00077744 2.14780771 4.71896424
O 1.13484092 2.14720639 5.54106778
