&CONTROL
calculation = 'relax'
prefix = 'scf'
pseudo_dir = '/vol0403/data/hp230205/u10028/POT_HYBRID_KKJUS_GBRV'
outdir = './data'
tprnfor = .true.
nstep = 50
disk_io = 'non'
/
&SYSTEM
ibrav = 0
ecutwfc = 50.0
ecutrho = 400
occupations = 'smearing'
smearing = 'mp'
degauss = 0.01
assume_isolated = 'esm'
esm_bc = 'bc1'
input_dft = 'BEEF-VDW'
nosym = .true.
nspin = 1
ntyp = 6
nat = 34
/
&ELECTRONS
electron_maxstep = 200
mixing_beta = 0.1
conv_thr = 1e-06
/
&IONS
ion_dynamics = 'bfgs'
upscale = 1.0
/
&CELL
/

K_POINTS {automatic}
9 6 2 0  0  0

ATOMIC_SPECIES
C 12.01 C.pbe-n-rrkjus_psl.1.0.0.UPF
Ge 72.64 Ge.pbe-dn-rrkjus_psl.1.0.0.UPF
Li 6.941 Li.pbe-sl-rrkjus_psl.1.0.0.UPF
O 15.99 O.pbe-n-rrkjus_psl.1.0.0.UPF
Pd 106.4 Pd.pbe-n-rrkjus_psl.1.0.0.UPF
Zr 91.22 Zr.pbe-spn-rrkjus_psl.1.0.0.UPF


CELL_PARAMETERS {angstrom}
6.47880000 0.00000000 0.00000000
0.00000000 9.16240000 0.00000000
0.00000000 0.00000000 26.87180000

ATOMIC_POSITIONS {angstrom}
Li 1.61970000 0.00000000 -1.145276120000002 0 0 0
Li 1.61970000 4.58120000 -1.145276120000002 0 0 0
Li 4.85910000 2.29060000 -3.4358283500000013 0 0 0
Li 4.85910000 6.87180000 -3.4358283500000013 0 0 0
Li 1.54713744 4.56470768 3.63064890
Li 1.49750983 0.00302359 3.65053403
Li 4.78530647 6.86208786 1.11679201
Li 4.78504732 2.31991968 1.11088021
Zr 4.85910000 0.00000000 -1.145276120000002 0 0 0
Zr 4.85910000 4.58120000 -1.145276120000002 0 0 0
Zr 1.61970000 2.29060000 -3.4358283500000013 0 0 0
Zr 1.61970000 6.87180000 -3.4358283500000013 0 0 0
Zr 4.67808233 4.58972103 3.29770730
Zr 4.67322323 9.12923211 3.50435144
Zr 1.59346086 6.94784792 1.22212946
Zr 1.57629204 2.23269363 1.22481664
Ge 0.00000000 0.00000000 -3.4358283500000013 0 0 0
Ge 0.00000000 4.58120000 -3.4358283500000013 0 0 0
Ge 3.23940000 6.87180000 -1.145276120000002 0 0 0
Ge 3.23940000 2.29060000 -1.145276120000002 0 0 0
Ge 0.02325889 4.59265300 1.23180331
Ge 6.31365539 0.00476445 1.30973153
Ge 3.14837286 2.29197436 3.59813402
Ge 3.10068889 6.84128921 3.63414223
Pd 0.00000000 2.29060000 -1.145276120000002 0 0 0
Pd 0.00000000 6.87180000 -1.145276120000002 0 0 0
Pd 3.23940000 4.58120000 -3.4358283500000013 0 0 0
Pd 3.23940000 0.00000000 -3.4358283500000013 0 0 0
Pd 6.31145260 6.83835724 3.26599857
Pd 6.25424479 2.30333574 3.26411755
Pd 3.24847032 0.02776207 1.05337456
Pd 3.07347793 4.58688069 1.08266482
C 5.93192449 9.15369572 5.40821847
O 0.06848092 0.00421470 6.39092019
