&CONTROL
calculation = 'relax'
prefix = 'scf'
pseudo_dir = '/vol0004/mdt0/data/hp150275/u10028/POT_HYBRID_KKJUS_GBRV'
outdir = './data'
tprnfor = .true.
nstep = 50
disk_io = 'non'
/
&SYSTEM
ibrav = 0
ecutwfc = 50.0
ecutrho = 400
occupations = 'smearing'
smearing = 'mp'
degauss = 0.01
assume_isolated = 'esm'
esm_bc = 'bc1'
input_dft = 'BEEF-VDW'
nosym = .true.
nspin = 2
ntyp = 4
nat = 33
starting_magnetization(1) = 0.0
starting_magnetization(2) = 0.1
starting_magnetization(3) = 0.1
starting_magnetization(4) = 0.0
/
&ELECTRONS
electron_maxstep = 200
mixing_beta = 0.1
conv_thr = 1e-06
/
&IONS
ion_dynamics = 'bfgs'
upscale = 1.0
/
&CELL
/

K_POINTS {automatic}
9 6 2 0  0  0

ATOMIC_SPECIES
C 12.01 C.pbe-n-rrkjus_psl.1.0.0.UPF
Co 58.93 co_pbe_v1.2.uspp.F.UPF
Fe 55.84 fe_pbe_v1.5.uspp.F.UPF
Ge 72.64 Ge.pbe-dn-rrkjus_psl.1.0.0.UPF

CELL_PARAMETERS {angstrom}
5.76795000 0.00000000 0.00000000
0.00000000 8.15711000 0.00000000
0.00000000 0.00000000 26.11780000

ATOMIC_POSITIONS {angstrom}
Fe 0.00000000 0.00000000 23.05888326
Fe 2.88397500 2.03927750 25.09816109
Fe 2.88397500 6.11783250 25.09816109
Fe 0.00000000 4.07855500 23.05888326
Fe 0.00000000 4.07847343 0.98307399
Fe 2.88397500 6.05102577 3.06492383
Fe 2.88397500 2.10608423 3.06492383
Fe 0.00000000 0.00000000 1.01415417
Co 1.44198750 0.00000000 25.09816109
Co 4.32596250 4.07855500 25.09816109
Co 4.32596250 0.00000000 25.09816109
Co 1.44198750 4.07855500 25.09816109
Co 4.32596250 6.11783250 23.05888326
Co 1.44198750 2.03927750 23.05888326
Co 1.44198750 6.11783250 23.05888326
Co 4.32596250 2.03927750 23.05888326
Co 1.38996059 4.07855500 2.94295370
Co 4.23592480 0.00008157 2.99571166
Co 4.37798941 4.07855500 2.94295370
Co 1.53202520 0.00008157 2.99571166
Co 4.33530658 2.02826540 1.04523436
Co 1.43264342 6.12884460 1.04523436
Co 1.43264342 2.02826540 1.04523436
Co 4.33530658 6.12884460 1.04523436
Ge 0.00000000 6.11783250 25.09816109
Ge 2.88397500 0.00000000 23.05888326
Ge 0.00000000 2.03927750 25.09816109
Ge 2.88397500 4.07855500 23.05888326
Ge 0.00000000 2.07157966 3.22737655
Ge 2.88397500 4.07847343 1.01754949
Ge 0.00000000 6.08553034 3.22737655
Ge 2.88397500 0.00008157 0.94781496
C 0.00000000 0.00000000 3.93725835
