&CONTROL
calculation = 'relax'
prefix = 'scf'
pseudo_dir = '/vol0004/mdt0/data/hp150275/u10028/POT_HYBRID_KKJUS_GBRV'
outdir = './data'
tprnfor = .true.
nstep = 50
disk_io = 'non'
/
&SYSTEM
ibrav = 0
ecutwfc = 50.0
ecutrho = 400
occupations = 'smearing'
smearing = 'mp'
degauss = 0.01
assume_isolated = 'esm'
esm_bc = 'bc1'
input_dft = 'BEEF-VDW'
nosym = .true.
nspin = 2
ntyp = 5
nat = 34
starting_magnetization(1) = 0.0
starting_magnetization(2) = 0.1
starting_magnetization(3) = 0.1
starting_magnetization(4) = 0.0
starting_magnetization(5) = 0.0
/
&ELECTRONS
electron_maxstep = 300
mixing_beta = 0.1
conv_thr = 1e-06
/
&IONS
ion_dynamics = 'bfgs'
upscale = 1.0
/
&CELL
/

K_POINTS {automatic}
9 6 2 0  0  0

ATOMIC_SPECIES
C 12.01 C.pbe-n-rrkjus_psl.1.0.0.UPF
Cr 51.99 cr_pbe_v1.5.uspp.F.UPF
Fe 55.84 fe_pbe_v1.5.uspp.F.UPF
Ga 69.72 Ga.pbe-dnl-rrkjus_psl.1.0.0.UPF
O 15.99 O.pbe-n-rrkjus_psl.1.0.0.UPF

CELL_PARAMETERS {angstrom}
6.89656000 0.00000000 0.00000000
0.00000000 9.75322000 0.00000000
0.00000000 0.00000000 27.31490000

ATOMIC_POSITIONS {angstrom}
Cr 0.00000000 0.00000000 -3.6574651100000004 0 0 0
Cr 3.44828000 2.43830500 -1.2190639900000022 0 0 0
Cr 3.44828000 7.31491500 -1.2190639900000022 0 0 0
Cr 0.00000000 4.87661000 -3.6574651100000004 0 0 0
Cr 0.00013793 4.82394261 1.03660046
Cr 3.44834897 7.31520760 3.05626416
Cr 3.44745241 2.43996305 2.94208788
Cr 0.00034483 0.05422790 1.03851250
Ga 0.00000000 7.31491500 -1.2190639900000022 0 0 0
Ga 3.44828000 0.00000000 -3.6574651100000004 0 0 0
Ga 0.00000000 2.43830500 -1.2190639900000022 0 0 0
Ga 3.44828000 4.87661000 -3.6574651100000004 0 0 0
Ga 0.00027586 2.43879266 2.82818475
Ga 3.44745241 4.81555484 1.04943846
Ga 0.00055172 7.31540266 2.88308770
Ga 3.44848690 0.06134775 1.04834586
Fe 1.72414000 0.00000000 -1.2190639900000022 0 0 0
Fe 5.17242000 4.87661000 -1.2190639900000022 0 0 0
Fe 5.17242000 0.00000000 -1.2190639900000022 0 0 0
Fe 1.72414000 4.87661000 -1.2190639900000022 0 0 0
Fe 5.17242000 7.31491500 -3.6574651100000004 0 0 0
Fe 1.72414000 2.43830500 -3.6574651100000004 0 0 0
Fe 1.72414000 7.31491500 -3.6574651100000004 0 0 0
Fe 5.17242000 2.43830500 -3.6574651100000004 0 0 0
Fe 1.59193294 4.74464893 2.66238330
Fe 5.30048912 0.13147341 2.66292960
Fe 5.30400636 4.74445387 2.66156386
Fe 1.59703640 0.12952276 2.66320275
Fe 5.14697169 2.43830500 1.13056371
Fe 1.70634688 7.31442734 1.10679975
Fe 1.74889865 2.43918279 1.12947112
Fe 5.19062692 7.31501253 1.10652660
C 3.44724552 2.43625682 5.53836912
O 3.44814207 2.43791487 6.67494211
