&CONTROL
calculation = 'relax'
prefix = 'scf'
pseudo_dir = '/vol0004/mdt0/data/hp150275/u10028/POT_HYBRID_KKJUS_GBRV'
outdir = './data'
tprnfor = .true.
nstep = 50
disk_io = 'non'
/
&SYSTEM
ibrav = 0
ecutwfc = 50.0
ecutrho = 400
occupations = 'smearing'
smearing = 'mp'
degauss = 0.01
assume_isolated = 'esm'
esm_bc = 'bc1'
input_dft = 'BEEF-VDW'
nosym = .true.
nspin = 2
ntyp = 5
nat = 34
starting_magnetization(1) = 0.0
starting_magnetization(2) = 0.0
starting_magnetization(3) = 0.1
starting_magnetization(4) = 0.0
starting_magnetization(5) = 0.0
/
&ELECTRONS
electron_maxstep = 300
mixing_beta = 0.1
conv_thr = 1e-06
/
&IONS
ion_dynamics = 'bfgs'
upscale = 1.0
/
&CELL
/

K_POINTS {automatic}
8 6 1 0 0 0

ATOMIC_SPECIES
Al 26.98 Al.pbe-nl-rrkjus_psl.1.0.0.UPF
C 12.01 C.pbe-n-rrkjus_psl.1.0.0.UPF
Co 58.93 co_pbe_v1.2.uspp.F.UPF
O 15.99 O.pbe-n-rrkjus_psl.1.0.0.UPF
Ta 180.9 Ta.pbe-spn-rrkjus_psl.1.0.0.UPF

CELL_PARAMETERS {angstrom}
5.95946000 0.00000000 0.00000000
0.00000000 8.42794000 0.00000000
0.00000000 0.00000000 26.32100000

ATOMIC_POSITIONS {angstrom}
Ta 0.00000000 0.00000000 -3.1603624700000026 0 0 0
Ta 2.97973000 2.10698500 -1.0533664200000032 0 0 0
Ta 2.97973000 6.32095500 -1.0533664200000032 0 0 0
Ta 0.00000000 4.21397000 -3.1603624700000026 0 0 0
Ta 0.00000000 4.21590843 1.09021582
Ta 2.97973000 6.32087072 3.15878321
Ta 2.97973000 2.10706928 3.15246617
Ta 0.00000000 8.42600157 1.09021582
Al 0.00000000 6.32095500 -1.0533664200000032 0 0 0
Al 2.97973000 0.00000000 -3.1603624700000026 0 0 0
Al 0.00000000 2.10698500 -1.0533664200000032 0 0 0
Al 2.97973000 4.21397000 -3.1603624700000026 0 0 0
Al 0.00000000 2.10698500 3.13798962
Al 2.97973000 4.21430712 1.07258075
Al 0.00000000 6.32095500 3.18273532
Al 2.97973000 8.42760288 1.07258075
Co 1.48986500 0.00000000 -1.0533664200000032 0 0 0
Co 4.46959500 4.21397000 -1.0533664200000032 0 0 0
Co 4.46959500 0.00000000 -1.0533664200000032 0 0 0
Co 1.48986500 4.21397000 -1.0533664200000032 0 0 0
Co 4.46959500 6.32095500 -3.1603624700000026 0 0 0
Co 1.48986500 2.10698500 -3.1603624700000026 0 0 0
Co 1.48986500 6.32095500 -3.1603624700000026 0 0 0
Co 4.46959500 2.10698500 -3.1603624700000026 0 0 0
Co 1.49588405 4.21666694 3.11561677
Co 4.46357595 8.42524306 3.11561677
Co 4.46357595 4.21666694 3.11561677
Co 1.49588405 8.42524306 3.11561677
Co 4.45874878 2.10698500 1.06152593
Co 1.50303541 6.32103928 1.05415605
Co 1.50071122 2.10690072 1.06152593
Co 4.45642459 6.32095500 1.05415605
C 0.00000000 2.10698500 5.08837572
O 0.00000000 2.10698500 6.23623453
