&CONTROL
calculation = 'relax'
prefix = 'scf'
pseudo_dir = '/vol0004/mdt0/data/hp150275/u10028/POT_KKJUS'
outdir = './data'
tprnfor = .true.
nstep = 50
disk_io = 'non'
/
&SYSTEM
ibrav = 0
ecutwfc = 50.0
ecutrho = 400
occupations = 'smearing'
smearing = 'mp'
degauss = 0.01
assume_isolated = 'esm'
esm_bc = 'bc1'
input_dft = 'BEEF-VDW'
nosym = .true.
nspin = 1
ntyp = 4
nat = 18
/
&ELECTRONS
electron_maxstep = 200
mixing_beta = 0.1
conv_thr = 1e-06
/
&IONS
ion_dynamics = 'bfgs'
upscale = 1.0
/
&CELL
/

K_POINTS {automatic}
8 11 2 0  0  0

ATOMIC_SPECIES
C 12.01 C.pbe-n-rrkjus_psl.1.0.0.UPF
O 15.99 O.pbe-n-rrkjus_psl.1.0.0.UPF
Pb 207.2 Pb.pbe-dn-rrkjus_psl.1.0.0.UPF
Pt 195.0 Pt.pbe-n-rrkjus_psl.1.0.0.UPF

CELL_PARAMETERS {angstrom}
8.34058000 0.00000000 0.00000000
0.00000000 5.89768000 0.00000000
0.00000000 0.00000000 24.42330000

ATOMIC_POSITIONS {angstrom}
Pt 0.00000000 2.94884000 -2.2115298200000026 0 0 0
Pt 2.08514500 4.42326000 -0.7370951900000016 0 0 0
Pt 2.08514500 1.47442000 -0.7370951900000016 0 0 0
Pt 0.01859949 0.00920038 0.71071803
Pt 2.08522841 1.33594247 2.15071580
Pt 2.08514500 4.47498265 2.04081095
Pt 4.17029000 2.94884000 -2.2115298200000026 0 0 0
Pt 6.25543500 4.42326000 -0.7370951900000016 0 0 0
Pt 6.25543500 1.47442000 -0.7370951900000016 0 0 0
Pt 4.15169051 0.00920038 0.71071803
Pt 6.25543500 1.36206920 2.04911487
Pt 6.25543500 4.56574795 2.03226279
Pb 0.00000000 0.00000000 -2.2115298200000026 0 0 0
Pb 8.31881109 2.95143498 0.94322785
Pb 4.17029000 0.00000000 -2.2115298200000026 0 0 0
Pb 4.19205891 2.95137600 0.94322785
C 2.08514500 1.52407847 4.00420004
O 2.08514500 1.57426772 5.15673556
