&CONTROL
calculation = 'relax'
prefix = 'scf'
pseudo_dir = '/vol0004/mdt0/data/hp150275/u10028/POT_HYBRID_KKJUS_GBRV'
outdir = './data'
tprnfor = .true.
nstep = 50
disk_io = 'non'
/
&SYSTEM
ibrav = 0
ecutwfc = 50.0
ecutrho = 400
occupations = 'smearing'
smearing = 'mp'
degauss = 0.01
assume_isolated = 'esm'
esm_bc = 'bc1'
input_dft = 'BEEF-VDW'
nosym = .true.
nspin = 2
ntyp = 5
nat = 34
starting_magnetization(1) = 0.0
starting_magnetization(2) = 0.0
starting_magnetization(3) = 0.1
starting_magnetization(4) = 0.0
starting_magnetization(5) = 0.0
/
&ELECTRONS
electron_maxstep = 200
mixing_beta = 0.1
conv_thr = 1e-06
/
&IONS
ion_dynamics = 'bfgs'
upscale = 1.0
/
&CELL
/

K_POINTS {automatic}
9 6 2 0  0  0

ATOMIC_SPECIES
Al 26.98 Al.pbe-nl-rrkjus_psl.1.0.0.UPF
C 12.01 C.pbe-n-rrkjus_psl.1.0.0.UPF
Mn 54.93 mn_pbe_v1.5.uspp.F.UPF
O 15.99 O.pbe-n-rrkjus_psl.1.0.0.UPF
V 50.94 V.pbe-spnl-rrkjus_psl.1.0.0.UPF

CELL_PARAMETERS {angstrom}
5.82937000 0.00000000 0.00000000
0.00000000 8.24397000 0.00000000
0.00000000 0.00000000 26.18300000

ATOMIC_POSITIONS {angstrom}
Mn 1.45734250 0.00000000 25.15243712
Mn 4.37202750 4.12198500 25.15243712
Mn 4.37202750 0.00000000 25.15243712
Mn 1.45734250 4.12198500 25.15243712
Mn 4.37202750 6.18297750 23.09157319
Mn 1.45734250 2.06099250 23.09157319
Mn 1.45734250 6.18297750 23.09157319
Mn 4.37202750 2.06099250 23.09157319
Mn 1.44947285 4.12165524 3.15531333
Mn 4.40397245 0.00024732 3.16290640
Mn 4.37960568 4.12165524 3.15950261
Mn 1.37835454 0.00016488 3.12206092
Mn 4.36450761 2.05901395 1.05700771
Mn 1.46503727 6.18635753 1.05308026
Mn 1.46509556 2.05769491 1.05255660
Mn 4.36479908 6.18503849 1.05753137
Al 0.00000000 0.00000000 23.09157319
Al 2.91468500 2.06099250 25.15243712
Al 2.91468500 6.18297750 25.15243712
Al 0.00000000 4.12198500 23.09157319
Al 5.82773778 4.12214988 1.03789412
Al 2.89148411 6.22345539 3.22181815
Al 2.89130923 2.02034973 3.22103266
Al 0.00361421 8.24388756 1.02139883
V 0.00000000 6.18297750 25.15243712
V 2.91468500 0.00000000 23.09157319
V 0.00000000 2.06099250 25.15243712
V 2.91468500 4.12198500 23.09157319
V 0.04599373 2.04425724 3.02439833
V 2.90594094 4.12313916 1.06486261
V 0.04622690 6.19996008 3.02466016
V 2.93170676 8.24322804 1.04862915
C 1.04165013 0.00000000 4.90747969
O 0.88035146 8.24364024 6.06660110
