&CONTROL
calculation = 'relax'
prefix = 'scf'
pseudo_dir = '/vol0004/mdt0/data/hp150275/u10028/POT_KKJUS'
outdir = './data'
tprnfor = .true.
nstep = 50
disk_io = 'non'
/
&SYSTEM
ibrav = 0
ecutwfc = 50.0
ecutrho = 400
occupations = 'smearing'
smearing = 'mp'
degauss = 0.01
assume_isolated = 'esm'
esm_bc = 'bc1'
input_dft = 'BEEF-VDW'
nosym = .true.
nspin = 1
ntyp = 3
nat = 33
/
&ELECTRONS
electron_maxstep = 200
mixing_beta = 0.1
conv_thr = 1e-06
/
&IONS
ion_dynamics = 'bfgs'
upscale = 1.0
/
&CELL
/

K_POINTS {automatic}
9 6 2 0  0  0

ATOMIC_SPECIES
Al 26.98 Al.pbe-nl-rrkjus_psl.1.0.0.UPF
C 12.01 C.pbe-n-rrkjus_psl.1.0.0.UPF
Y 88.90 Y.pbe-spn-rrkjus_psl.1.0.0.UPF

CELL_PARAMETERS {angstrom}
7.18582000 0.00000000 0.00000000
0.00000000 10.16230000 0.00000000
0.00000000 0.00000000 27.62170000

ATOMIC_POSITIONS {angstrom}
Y 1.79645500 2.54057500 -3.81096595 0 0 0
Y 1.79645500 0.00000000 -1.270321980000002 0 0 0
Y 1.79645500 2.54087987 1.35263465
Y 1.79645500 0.22245275 4.04713148
Y 1.79645500 7.62172500 -3.81096595 0 0 0
Y 1.79645500 5.08115000 -1.270321980000002 0 0 0
Y 1.79645500 7.62101364 1.18662823
Y 1.79645500 4.86144107 4.04657905
Y 5.38936500 2.54057500 -3.81096595 0 0 0
Y 5.38936500 0.00000000 -1.270321980000002 0 0 0
Y 5.38936500 2.53976202 1.20734451
Y 5.38936500 9.95661505 3.84328334
Y 5.38936500 7.62172500 -3.81096595 0 0 0
Y 5.38936500 5.08115000 -1.270321980000002 0 0 0
Y 5.38936500 7.62192825 1.22612726
Y 5.38936500 5.28866417 3.84355956
Al 0.00000000 0.00000000 -3.81096595 0 0 0
Al 0.00000000 2.54057500 -1.270321980000002 0 0 0
Al 0.02694683 5.08948309 1.37279849
Al 7.00552778 2.54209935 3.80599404
Al 0.00000000 5.08115000 -3.81096595 0 0 0
Al 0.00000000 7.62172500 -1.270321980000002 0 0 0
Al 0.02831213 10.15325555 1.37307471
Al 0.24316815 7.62324934 3.76400906
Al 3.59291000 0.00000000 -3.81096595 0 0 0
Al 3.59291000 2.54057500 -1.270321980000002 0 0 0
Al 3.56596317 5.08948309 1.37279849
Al 3.77320222 2.54209935 3.80599404
Al 3.59291000 5.08115000 -3.81096595 0 0 0
Al 3.59291000 7.62172500 -1.270321980000002 0 0 0
Al 3.56459787 10.15325555 1.37307471
Al 3.34974185 7.62324935 3.76400906
C 1.79645500 2.54250584 3.77284800
