&CONTROL
calculation = 'relax'
prefix = 'scf'
pseudo_dir = '/vol0004/mdt0/data/hp150275/u10028/POT_HYBRID_KKJUS_GBRV'
outdir = './data'
tprnfor = .true.
nstep = 50
disk_io = 'non'
/
&SYSTEM
ibrav = 0
ecutwfc = 50.0
ecutrho = 400
occupations = 'smearing'
smearing = 'mp'
degauss = 0.01
assume_isolated = 'esm'
esm_bc = 'bc1'
input_dft = 'BEEF-VDW'
nosym = .true.
nspin = 2
ntyp = 4
nat = 33
starting_magnetization(1) = 0.0
starting_magnetization(2) = 0.1
starting_magnetization(3) = 0.0
starting_magnetization(4) = 0.0
/
&ELECTRONS
electron_maxstep = 200
mixing_beta = 0.1
conv_thr = 1e-06
/
&IONS
ion_dynamics = 'bfgs'
upscale = 1.0
/
&CELL
/

K_POINTS {automatic}
9 6 2 0  0  0

ATOMIC_SPECIES
C 12.01 C.pbe-n-rrkjus_psl.1.0.0.UPF
Co 58.93 co_pbe_v1.2.uspp.F.UPF
Ge 72.64 Ge.pbe-dn-rrkjus_psl.1.0.0.UPF
Li 6.941 Li.pbe-sl-rrkjus_psl.1.0.0.UPF

CELL_PARAMETERS {angstrom}
5.64259000 0.00000000 0.00000000
0.00000000 7.97982000 0.00000000
0.00000000 0.00000000 25.98490000

ATOMIC_POSITIONS {angstrom}
Li 0.00000000 0.00000000 22.99247892
Li 2.82129500 1.99495500 24.98733969
Li 2.82129500 5.98486500 24.98733969
Li 0.00000000 3.98991000 22.99247892
Li 0.00000000 3.98991000 0.85724185
Li 2.82129500 5.85790606 3.81068558
Li 2.82129500 2.12183414 3.81068558
Li 0.00000000 0.00000000 0.94637006
Co 1.41064750 0.00000000 24.98733969
Co 4.23194250 3.98991000 24.98733969
Co 4.23194250 0.00000000 24.98733969
Co 1.41064750 3.98991000 24.98733969
Co 4.23194250 5.98486500 22.99247892
Co 1.41064750 1.99495500 22.99247892
Co 1.41064750 5.98486500 22.99247892
Co 4.23194250 1.99495500 22.99247892
Co 1.27849804 3.98991000 2.82507833
Co 4.16524709 0.00000000 2.96981422
Co 4.36414838 3.98991000 2.82507833
Co 1.47745577 0.00000000 2.96981422
Co 4.19312148 1.99136408 1.05030966
Co 1.44946852 5.98853572 1.05030966
Co 1.44946852 1.99136408 1.05030966
Co 4.19312148 5.98853572 1.05030966
Ge 0.00000000 5.98486500 24.98733969
Ge 2.82129500 0.00000000 22.99247892
Ge 0.00000000 1.99495500 24.98733969
Ge 2.82129500 3.98991000 22.99247892
Ge 0.00011285 1.94795386 3.00099610
Ge 2.82118215 3.98991000 0.96377994
Ge 0.00016928 6.03186614 3.00099610
Ge 2.82129500 0.00000000 0.91570788
C 2.82135143 0.00000000 4.02194282
