&CONTROL
calculation = 'relax'
prefix = 'scf'
pseudo_dir = '/vol0004/mdt0/data/hp150275/u10028/POT_HYBRID_KKJUS_GBRV'
outdir = './data'
tprnfor = .true.
nstep = 50
disk_io = 'non'
/
&SYSTEM
ibrav = 0
ecutwfc = 50.0
ecutrho = 400
occupations = 'smearing'
smearing = 'mp'
degauss = 0.01
assume_isolated = 'esm'
esm_bc = 'bc1'
input_dft = 'BEEF-VDW'
nosym = .true.
nspin = 2
ntyp = 4
nat = 34
starting_magnetization(1) = 0.0
starting_magnetization(2) = 0.001
starting_magnetization(3) = 0.0
starting_magnetization(4) = 0.0
/
&ELECTRONS
electron_maxstep = 300
mixing_beta = 0.1
conv_thr = 1e-06
/
&IONS
ion_dynamics = 'bfgs'
upscale = 1.0
/
&CELL
/

K_POINTS {automatic}
9 6 2 0  0  0

ATOMIC_SPECIES
C 12.01 C.pbe-n-rrkjus_psl.1.0.0.UPF
Ni 58.69 ni_pbe_v1.4.uspp.F.UPF
O 15.99 O.pbe-n-rrkjus_psl.1.0.0.UPF
Sb 121.7 Sb.pbe-n-rrkjus_psl.1.0.0.UPF

CELL_PARAMETERS {angstrom}
5.96127000 0.00000000 0.00000000
0.00000000 8.43051000 0.00000000
0.00000000 0.00000000 26.32290000

ATOMIC_POSITIONS {angstrom}
Ni 1.49031750 0.00000000 -1.053705690000001 0 0 0
Ni 4.47095250 4.21525500 -1.053705690000001 0 0 0
Ni 4.47095250 0.00000000 -1.053705690000001 0 0 0
Ni 1.49031750 4.21525500 -1.053705690000001 0 0 0
Ni 4.47095250 6.32288250 -3.1613802900000003 0 0 0
Ni 1.49031750 2.10762750 -3.1613802900000003 0 0 0
Ni 1.49031750 6.32288250 -3.1613802900000003 0 0 0
Ni 4.47095250 2.10762750 -3.1613802900000003 0 0 0
Ni 0.00000000 6.32288250 -1.053705690000001 0 0 0
Ni 2.98063500 0.00000000 -3.1613802900000003 0 0 0
Ni 0.00000000 2.10762750 -1.053705690000001 0 0 0
Ni 2.98063500 4.21525500 -3.1613802900000003 0 0 0
Ni 1.53735192 4.23953487 3.01871017
Ni 4.42451421 8.40606152 3.01923663
Ni 4.42391808 4.23953487 3.01871017
Ni 1.53675579 8.40606152 3.01923663
Ni 4.56263683 2.10754319 1.08108150
Ni 1.67434190 6.32330403 1.14609907
Ni 1.39863317 2.10754319 1.08108150
Ni 4.28692810 6.32330403 1.14609907
Ni 0.00000000 2.10804903 3.24982523
Ni 2.98063500 4.12555437 0.97631636
Ni 0.00000000 6.32271389 2.98764915
Ni 2.98063500 0.08986924 0.97657959
Sb 0.00000000 0.00000000 -3.1613802900000003 0 0 0
Sb 2.98063500 2.10762750 -1.053705690000001 0 0 0
Sb 2.98063500 6.32288250 -1.053705690000001 0 0 0
Sb 0.00000000 4.21525500 -3.1613802900000003 0 0 0
Sb 0.00000000 4.30706325 1.01606394
Sb 2.98063500 6.32296681 3.50936903
Sb 2.98063500 2.10745889 3.16216998
Sb 0.00000000 8.33887036 1.01606394
C 0.00000000 2.10788042 5.00266715
O 0.00000000 2.10737458 6.15718954
