&CONTROL
calculation = 'relax'
prefix = 'scf'
pseudo_dir = '/vol0004/mdt0/data/hp150275/u10028/POT_HYBRID_KKJUS_GBRV'
outdir = './data'
tprnfor = .true.
nstep = 50
disk_io = 'non'
/
&SYSTEM
ibrav = 0
ecutwfc = 50.0
ecutrho = 400
occupations = 'smearing'
smearing = 'mp'
degauss = 0.01
assume_isolated = 'esm'
esm_bc = 'bc1'
input_dft = 'BEEF-VDW'
nosym = .true.
nspin = 2
ntyp = 3
nat = 32
starting_magnetization(1) = 0.1
starting_magnetization(2) = 0.1
starting_magnetization(3) = 0.0
/
&ELECTRONS
electron_maxstep = 300
mixing_beta = 0.1
conv_thr = 1e-06
/
&IONS
ion_dynamics = 'bfgs'
upscale = 1.0
/
&CELL
/

K_POINTS {automatic}
8 6 1 0 0 0

ATOMIC_SPECIES
Co 58.93 co_pbe_v1.2.uspp.F.UPF
Fe 55.84 fe_pbe_v1.5.uspp.F.UPF
Ge 72.64 Ge.pbe-dn-rrkjus_psl.1.0.0.UPF

CELL_PARAMETERS {angstrom}
5.77744000 0.00000000 0.00000000
0.00000000 8.17053000 0.00000000
0.00000000 0.00000000 26.12790000

ATOMIC_POSITIONS {angstrom}
Fe 1.44436000 0.00000000 -1.0213396100000018 0 0 0
Fe 4.33308000 4.08526500 -1.0213396100000018 0 0 0
Fe 4.33308000 0.00000000 -1.0213396100000018 0 0 0
Fe 1.44436000 4.08526500 -1.0213396100000018 0 0 0
Fe 4.33308000 6.12789750 -3.064018830000002 0 0 0
Fe 1.44436000 2.04263250 -3.064018830000002 0 0 0
Fe 1.44436000 6.12789750 -3.064018830000002 0 0 0
Fe 4.33308000 2.04263250 -3.064018830000002 0 0 0
Fe 1.44707540 4.08526500 3.08884034
Fe 4.33042238 0.00000000 3.08857906
Fe 4.33036460 4.08526500 3.08884034
Fe 1.44701762 0.00000000 3.08857906
Fe 4.39079663 2.04263250 1.05373821
Fe 1.38658560 6.12789750 1.05373821
Fe 1.38664337 2.04263250 1.05373821
Fe 4.39085440 6.12789750 1.05373821
Co 0.00000000 0.00000000 -3.064018830000002 0 0 0
Co 2.88872000 2.04263250 -1.0213396100000018 0 0 0
Co 2.88872000 6.12789750 -1.0213396100000018 0 0 0
Co 0.00000000 4.08526500 -3.064018830000002 0 0 0
Co 0.00000000 4.08534671 1.14100539
Co 2.88872000 6.12797921 2.90254841
Co 2.88872000 2.04255079 2.90254841
Co 0.00000000 8.17044829 1.14074411
Ge 0.00000000 6.12789750 -1.0213396100000018 0 0 0
Ge 2.88872000 0.00000000 -3.064018830000002 0 0 0
Ge 0.00000000 2.04263250 -1.0213396100000018 0 0 0
Ge 2.88872000 4.08526500 -3.064018830000002 0 0 0
Ge 0.00000000 2.04255079 3.36736375
Ge 2.88872000 4.08534671 1.00514031
Ge 0.00000000 6.12797921 3.36736375
Ge 2.88872000 8.17044829 1.00514031
