&CONTROL
calculation = 'relax'
prefix = 'scf'
pseudo_dir = '/vol0004/mdt0/data/hp150275/u10028/POT_KKJUS'
outdir = './data'
tprnfor = .true.
nstep = 50
disk_io = 'non'
/
&SYSTEM
ibrav = 0
ecutwfc = 50.0
ecutrho = 400
occupations = 'smearing'
smearing = 'mp'
degauss = 0.01
assume_isolated = 'esm'
esm_bc = 'bc1'
input_dft = 'BEEF-VDW'
nosym = .true.
nspin = 1
ntyp = 4
nat = 33
/
&ELECTRONS
electron_maxstep = 200
mixing_beta = 0.1
conv_thr = 1e-06
/
&IONS
ion_dynamics = 'bfgs'
upscale = 1.0
/
&CELL
/

K_POINTS {automatic}
8 6 1 0 0 0

ATOMIC_SPECIES
C 12.01 C.pbe-n-rrkjus_psl.1.0.0.UPF
Li 6.941 Li.pbe-sl-rrkjus_psl.1.0.0.UPF
Mg 24.30 Mg.pbe-spnl-rrkjus_psl.1.0.0.UPF
Pb 207.2 Pb.pbe-dn-rrkjus_psl.1.0.0.UPF

CELL_PARAMETERS {angstrom}
6.88544000 0.00000000 0.00000000
0.00000000 9.73748000 0.00000000
0.00000000 0.00000000 27.30310000

ATOMIC_POSITIONS {angstrom}
Li 1.72136000 0.00000000 -1.2171722000000003 0 0 0
Li 5.16408000 4.86874000 -1.2171722000000003 0 0 0
Li 5.16408000 0.00000000 -1.2171722000000003 0 0 0
Li 1.72136000 4.86874000 -1.2171722000000003 0 0 0
Li 5.16408000 7.30311000 -3.65151659 0 0 0
Li 1.72136000 2.43437000 -3.65151659 0 0 0
Li 1.72136000 7.30311000 -3.65151659 0 0 0
Li 5.16408000 2.43437000 -3.65151659 0 0 0
Li 1.74001954 4.86883737 3.75936384
Li 5.41946097 0.00009737 4.17519005
Li 5.14542046 4.86883737 3.75936384
Li 1.46597903 0.00009737 4.17519005
Li 5.19905804 2.46455619 1.20215549
Li 1.68645082 7.27282644 1.20215549
Li 1.68638196 2.46455619 1.20215549
Li 5.19898918 7.27282644 1.20215549
Mg 0.00000000 0.00000000 -3.65151659 0 0 0
Mg 3.44272000 2.43437000 -1.2171722000000003 0 0 0
Mg 3.44272000 7.30311000 -1.2171722000000003 0 0 0
Mg 0.00000000 4.86874000 -3.65151659 0 0 0
Mg 0.00000000 4.86874000 1.36679319
Mg 3.44272000 7.59835039 3.72960346
Mg 3.44272000 2.13922698 3.72987649
Mg 0.00000000 9.73738263 1.48474258
Pb 0.00000000 7.30311000 -1.2171722000000003 0 0 0
Pb 3.44272000 0.00000000 -3.65151659 0 0 0
Pb 0.00000000 2.43437000 -1.2171722000000003 0 0 0
Pb 3.44272000 4.86874000 -3.65151659 0 0 0
Pb 0.00000000 2.50876435 3.65943449
Pb 3.44272000 4.86864263 1.31164092
Pb 0.00000000 7.22881303 3.65916146
Pb 3.44272000 0.00019475 1.23655740
C 3.44272000 0.00009737 3.66271086
