&CONTROL
calculation = 'relax'
prefix = 'scf'
pseudo_dir = '/vol0004/mdt0/data/hp150275/u10028/POT_KKJUS'
outdir = './data'
tprnfor = .true.
nstep = 50
disk_io = 'non'
/
&SYSTEM
ibrav = 0
ecutwfc = 50.0
ecutrho = 400
occupations = 'smearing'
smearing = 'mp'
degauss = 0.01
assume_isolated = 'esm'
esm_bc = 'bc1'
input_dft = 'BEEF-VDW'
nosym = .true.
nspin = 1
ntyp = 5
nat = 34
/
&ELECTRONS
electron_maxstep = 200
mixing_beta = 0.1
conv_thr = 1e-06
/
&IONS
ion_dynamics = 'bfgs'
upscale = 1.0
/
&CELL
/

K_POINTS {automatic}
9 6 2 0  0  0

ATOMIC_SPECIES
Al 26.98 Al.pbe-nl-rrkjus_psl.1.0.0.UPF
C 12.01 C.pbe-n-rrkjus_psl.1.0.0.UPF
O 15.99 O.pbe-n-rrkjus_psl.1.0.0.UPF
Ti 47.86 Ti.pbe-spn-rrkjus_psl.1.0.0.UPF
Zr 91.22 Zr.pbe-spn-rrkjus_psl.1.0.0.UPF

CELL_PARAMETERS {angstrom}
6.81091000 0.00000000 0.00000000
0.00000000 9.63207000 0.00000000
0.00000000 0.00000000 27.22410000

ATOMIC_POSITIONS {angstrom}
Zr 1.70272750 0.00000000 -1.2041219400000003 0 0 0
Zr 5.10818250 4.81603500 -1.2041219400000003 0 0 0
Zr 5.10818250 0.00000000 -1.2041219400000003 0 0 0
Zr 1.70272750 4.81603500 -1.2041219400000003 0 0 0
Zr 5.10818250 7.22405250 -3.6120935900000006 0 0 0
Zr 1.70272750 2.40801750 -3.6120935900000006 0 0 0
Zr 1.70272750 7.22405250 -3.6120935900000006 0 0 0
Zr 5.10818250 2.40801750 -3.6120935900000006 0 0 0
Zr 1.80080460 4.76575559 3.81300745
Zr 5.01010540 0.05037573 3.81300745
Zr 5.01017351 4.76585192 3.81300745
Zr 1.80080460 0.05037573 3.81327969
Zr 5.17751756 2.40801750 1.07317402
Zr 1.75346878 7.22385986 1.21582831
Zr 1.63339244 2.40821014 1.07317402
Zr 5.05744122 7.22395618 1.21582831
Ti 0.00000000 0.00000000 -3.6120935900000006 0 0 0
Ti 3.40545500 2.40801750 -1.2041219400000003 0 0 0
Ti 3.40545500 7.22405250 -1.2041219400000003 0 0 0
Ti 0.00000000 4.81603500 -3.6120935900000006 0 0 0
Ti 6.81084189 4.79291803 1.61466137
Ti 3.40538689 7.22414882 3.58269156
Ti 3.40545500 2.40811382 3.28785456
Ti 0.00006811 0.02311697 1.61466137
Al 0.00000000 7.22405250 -1.2041219400000003 0 0 0
Al 3.40545500 0.00000000 -3.6120935900000006 0 0 0
Al 0.00000000 2.40801750 -1.2041219400000003 0 0 0
Al 3.40545500 4.81603500 -3.6120935900000006 0 0 0
Al 0.00000000 2.40811382 3.43187005
Al 3.40552311 4.76999371 1.34977088
Al 0.00000000 7.22405250 3.52497647
Al 3.40538689 0.04594497 1.35004312
C 3.40545500 2.40801750 5.33075102
O 3.40545500 2.40801750 6.51636058
