&CONTROL
calculation = 'relax'
prefix = 'scf'
pseudo_dir = '/vol0004/mdt0/data/hp150275/u10028/POT_HYBRID_KKJUS_GBRV'
outdir = './data'
tprnfor = .true.
nstep = 50
disk_io = 'non'
/
&SYSTEM
ibrav = 0
ecutwfc = 50.0
ecutrho = 400
occupations = 'smearing'
smearing = 'mp'
degauss = 0.01
assume_isolated = 'esm'
esm_bc = 'bc1'
input_dft = 'BEEF-VDW'
nosym = .true.
nspin = 2
ntyp = 4
nat = 34
starting_magnetization(1) = 0.1
starting_magnetization(2) = 0.1
starting_magnetization(3) = 0.1
starting_magnetization(4) = 0.1
/
&ELECTRONS
electron_maxstep = 200
mixing_beta = 0.1
conv_thr = 1e-06
/
&IONS
ion_dynamics = 'bfgs'
upscale = 1.0
/
&CELL
/

K_POINTS {automatic}
8 6 1 0 0 0

ATOMIC_SPECIES
C 12.01 C.pbe-n-rrkjus_psl.1.0.0.UPF
Co 58.93 co_pbe_v1.2.uspp.F.UPF
O 15.99 O.pbe-n-rrkjus_psl.1.0.0.UPF
Si 28.08 Si.pbe-nl-rrkjus_psl.1.0.0.UPF

CELL_PARAMETERS {angstrom}
5.56276000 0.00000000 0.00000000
0.00000000 7.86693000 0.00000000
0.00000000 0.00000000 25.90020000

ATOMIC_POSITIONS {angstrom}
Co 0.00000000 0.00000000 -2.950032780000001 0 0 0
Co 0.00000000 1.96673250 -0.9834305900000011 0 0 0
Co 0.00000000 0.04901097 0.99663970
Co 0.00000000 1.96673250 3.16474544
Co 0.00000000 3.93346500 -2.950032780000001 0 0 0
Co 0.00000000 5.90019750 -0.9834305900000011 0 0 0
Co 0.00000000 3.88445403 0.99663970
Co 0.00000000 5.90019750 2.84358296
Co 2.78138000 0.00000000 -2.950032780000001 0 0 0
Co 2.78138000 1.96673250 -0.9834305900000011 0 0 0
Co 2.78138000 7.86197383 0.92152912
Co 2.78138000 1.96673250 2.78401250
Co 2.78138000 3.93346500 -2.950032780000001 0 0 0
Co 2.78138000 5.90019750 -0.9834305900000011 0 0 0
Co 2.78138000 3.93842117 0.92152912
Co 2.78138000 5.90019750 2.83218687
Si 1.39069000 1.96673250 -2.950032780000001 0 0 0
Si 1.39069000 0.00000000 -0.9834305900000011 0 0 0
Si 1.37427986 1.96673250 1.01606485
Si 1.43636026 3.95832450 3.01374727
Si 1.39069000 5.90019750 -2.950032780000001 0 0 0
Si 1.39069000 3.93346500 -0.9834305900000011 0 0 0
Si 1.38429283 5.90019750 0.99560369
Si 1.43636026 7.84207050 3.01374727
Si 4.17207000 1.96673250 -2.950032780000001 0 0 0
Si 4.17207000 0.00000000 -0.9834305900000011 0 0 0
Si 4.18848014 1.96673250 1.01606485
Si 4.12639974 3.95832450 3.01374727
Si 4.17207000 5.90019750 -2.950032780000001 0 0 0
Si 4.17207000 3.93346500 -0.9834305900000011 0 0 0
Si 4.17846717 5.90019750 0.99560369
Si 4.12639974 7.84207050 3.01374727
C 0.00000000 1.96673250 4.92725405
O 0.00000000 1.96673250 6.08110796
