&CONTROL
calculation = 'relax'
prefix = 'scf'
pseudo_dir = '/vol0004/mdt0/data/hp150275/u10028/POT_HYBRID_KKJUS_GBRV'
outdir = './data'
tprnfor = .true.
nstep = 50
disk_io = 'non'
/
&SYSTEM
ibrav = 0
ecutwfc = 50.0
ecutrho = 400
occupations = 'smearing'
smearing = 'mp'
degauss = 0.01
assume_isolated = 'esm'
esm_bc = 'bc1'
input_dft = 'BEEF-VDW'
nosym = .true.
nspin = 2
ntyp = 5
nat = 34
starting_magnetization(1) = 0.0
starting_magnetization(2) = 0.1
starting_magnetization(3) = 0.0
starting_magnetization(4) = 0.0
starting_magnetization(5) = 0.0
/
&ELECTRONS
electron_maxstep = 300
mixing_beta = 0.1
conv_thr = 1e-06
/
&IONS
ion_dynamics = 'bfgs'
upscale = 1.0
/
&CELL
/

K_POINTS {automatic}
9 6 2 0  0  0

ATOMIC_SPECIES
C 12.01 C.pbe-n-rrkjus_psl.1.0.0.UPF
Fe 55.84 fe_pbe_v1.5.uspp.F.UPF
Ga 69.72 Ga.pbe-dnl-rrkjus_psl.1.0.0.UPF
O 15.99 O.pbe-n-rrkjus_psl.1.0.0.UPF
Ti 47.86 Ti.pbe-spn-rrkjus_psl.1.0.0.UPF

CELL_PARAMETERS {angstrom}
5.88011000 0.00000000 0.00000000
0.00000000 8.31574000 0.00000000
0.00000000 0.00000000 26.23680000

ATOMIC_POSITIONS {angstrom}
Ti 0.00000000 0.00000000 -3.118506049999997 0 0 0
Ti 2.94005500 2.07893500 -1.0395020200000005 0 0 0
Ti 2.94005500 6.23680500 -1.0395020200000005 0 0 0
Ti 0.00000000 4.15787000 -3.118506049999997 0 0 0
Ti 0.00052921 4.15479318 0.96184109
Ti 2.94140743 6.24087971 3.09043267
Ti 2.93887898 2.07735501 3.08544768
Ti 5.87946319 0.00307682 0.95895504
Ga 0.00000000 6.23680500 -1.0395020200000005 0 0 0
Ga 2.94005500 0.00000000 -3.118506049999997 0 0 0
Ga 0.00000000 2.07893500 -1.0395020200000005 0 0 0
Ga 2.94005500 4.15787000 -3.118506049999997 0 0 0
Ga 5.87799316 2.08167919 3.26123424
Ga 2.94017260 4.15770369 1.00277050
Ga 5.87993360 6.23647237 3.27776342
Ga 2.93958459 0.00124736 1.00486944
Fe 1.47002750 0.00000000 -1.0395020200000005 0 0 0
Fe 4.41008250 4.15787000 -1.0395020200000005 0 0 0
Fe 4.41008250 0.00000000 -1.0395020200000005 0 0 0
Fe 1.47002750 4.15787000 -1.0395020200000005 0 0 0
Fe 4.41008250 6.23680500 -3.118506049999997 0 0 0
Fe 1.47002750 2.07893500 -3.118506049999997 0 0 0
Fe 1.47002750 6.23680500 -3.118506049999997 0 0 0
Fe 4.41008250 2.07893500 -3.118506049999997 0 0 0
Fe 1.38376629 4.16144577 3.01880621
Fe 4.50310584 8.31524106 3.01959331
Fe 4.49434448 4.16219418 3.01933094
Fe 1.37488732 8.31557369 3.01933094
Fe 4.39896909 2.07926763 1.07754538
Fe 1.47743644 6.23713763 1.08489168
Fe 1.47949448 2.07926763 1.07807011
Fe 4.40143874 6.23738710 1.08489168
C 0.38402998 2.08068131 7.37122896
O 5.48396699 2.07278135 8.19558922
