&CONTROL
calculation = 'relax'
prefix = 'scf'
pseudo_dir = '/vol0403/data/hp230205/u10028/POT_HYBRID_KKJUS_GBRV'
outdir = './data'
tprnfor = .true.
nstep = 50
disk_io = 'non'
/
&SYSTEM
ibrav = 0
ecutwfc = 50.0
ecutrho = 400
occupations = 'smearing'
smearing = 'mp'
degauss = 0.01
assume_isolated = 'esm'
esm_bc = 'bc1'
input_dft = 'BEEF-VDW'
nosym = .true.
nspin = 1
ntyp = 4
nat = 16
/
&ELECTRONS
electron_maxstep = 200
mixing_beta = 0.1
conv_thr = 1e-06
/
&IONS
ion_dynamics = 'bfgs'
upscale = 1.0
/
&CELL
/

K_POINTS {automatic}
6 6 1 0 0 0

ATOMIC_SPECIES
Ge 72.64 Ge.pbe-dn-rrkjus_psl.1.0.0.UPF
Li 6.941 Li.pbe-sl-rrkjus_psl.1.0.0.UPF
Sn 118.7 Sn.pbe-dn-rrkjus_psl.1.0.0.UPF
Y 88.90 Y.pbe-spn-rrkjus_psl.1.0.0.UPF


CELL_PARAMETERS {angstrom}
8.60818000 0.00000000 0.00000000
0.00000000 6.35836000 0.00000000
0.00000000 0.00000000 24.74450000

ATOMIC_POSITIONS {angstrom}
Li 0.00017216 3.47528883 2.63677392
Li 0.00000000 6.03828016 -0.7908342199999971 0 0 0
Li 4.30400392 3.47522524 2.63677392
Li 4.30409000 6.03828016 -0.7908342199999971 0 0 0
Y 2.15204500 1.53637053 0.80147435
Y 2.15204500 4.28865024 -2.3722552199999996 0 0 0
Y 6.45613500 1.53598903 0.80172180
Y 6.45613500 4.28865024 -2.3722552199999996 0 0 0
Sn 2.15213108 4.67676453 1.15779515
Sn 2.15204500 1.10947024 -2.3722552199999996 0 0 0
Sn 6.45604892 4.67714603 1.15804260
Sn 6.45613500 1.10947024 -2.3722552199999996 0 0 0
Ge 0.00086082 6.25789791 2.08794091
Ge 0.00000000 2.85910016 -0.7908342199999971 0 0 0
Ge 4.30322918 6.25783433 2.08794091
Ge 4.30409000 2.85910016 -0.7908342199999971 0 0 0
