&CONTROL
calculation = 'relax'
prefix = 'scf'
pseudo_dir = '/vol0403/data/hp230205/u10028/POT_HYBRID_KKJUS_GBRV'
outdir = './data'
tprnfor = .true.
nstep = 50
disk_io = 'non'
/
&SYSTEM
ibrav = 0
ecutwfc = 50.0
ecutrho = 400
occupations = 'smearing'
smearing = 'mp'
degauss = 0.01
assume_isolated = 'esm'
esm_bc = 'bc1'
input_dft = 'BEEF-VDW'
nosym = .true.
nspin = 1
ntyp = 6
nat = 34
/
&ELECTRONS
electron_maxstep = 200
mixing_beta = 0.1
conv_thr = 1e-06
/
&IONS
ion_dynamics = 'bfgs'
upscale = 1.0
/
&CELL
/

K_POINTS {automatic}
9 6 2 0  0  0

ATOMIC_SPECIES
C 12.01 C.pbe-n-rrkjus_psl.1.0.0.UPF
Hf 178.4 Hf.pbe-spn-rrkjus_psl.1.0.0.UPF
Li 6.941 Li.pbe-sl-rrkjus_psl.1.0.0.UPF
O 15.99 O.pbe-n-rrkjus_psl.1.0.0.UPF
Pd 106.4 Pd.pbe-n-rrkjus_psl.1.0.0.UPF
Sn 118.7 Sn.pbe-dn-rrkjus_psl.1.0.0.UPF


CELL_PARAMETERS {angstrom}
6.67688000 0.00000000 0.00000000
0.00000000 9.44254000 0.00000000
0.00000000 0.00000000 27.08190000

ATOMIC_POSITIONS {angstrom}
Li 0.00000000 2.36063500 -1.1802291999999994 0 0 0
Li 0.00000000 7.08190500 -1.1802291999999994 0 0 0
Li 3.33844000 4.72127000 -3.5409584200000026 0 0 0
Li 3.33844000 0.00000000 -3.5409584200000026 0 0 0
Li 6.31546049 6.81647520 3.82775575
Li 6.31866539 2.66893393 3.85077536
Li 3.37876836 0.00717633 0.97224021
Li 3.28362282 4.74619831 1.04509052
Hf 0.00000000 0.00000000 -3.5409584200000026 0 0 0
Hf 0.00000000 4.72127000 -3.5409584200000026 0 0 0
Hf 3.33844000 7.08190500 -1.1802291999999994 0 0 0
Hf 3.33844000 2.36063500 -1.1802291999999994 0 0 0
Hf 6.60229925 4.73354530 1.25280869
Hf 0.33310954 0.02455060 1.53608537
Hf 2.69258540 1.70928859 3.41096531
Hf 2.72129598 7.76582817 3.46864975
Sn 1.66922000 0.00000000 -1.1802291999999994 0 0 0
Sn 1.66922000 4.72127000 -1.1802291999999994 0 0 0
Sn 5.00766000 2.36063500 -3.5409584200000026 0 0 0
Sn 5.00766000 7.08190500 -3.5409584200000026 0 0 0
Sn 1.80910064 4.74638716 3.57481080
Sn 0.63971187 0.02020704 4.56032114
Sn 4.94990499 7.15319618 1.33919995
Sn 4.94643301 2.31002299 1.34434552
Pd 5.00766000 0.00000000 -1.1802291999999994 0 0 0
Pd 5.00766000 4.72127000 -1.1802291999999994 0 0 0
Pd 1.66922000 2.36063500 -3.5409584200000026 0 0 0
Pd 1.66922000 7.08190500 -3.5409584200000026 0 0 0
Pd 4.63569102 4.71768183 3.11875160
Pd 4.87859591 0.04154718 3.18510226
Pd 1.61954401 6.98587437 1.04915281
Pd 1.64965674 2.50114000 1.08896320
C 3.50502816 9.06937082 5.03235866
O 3.83600110 0.20461984 6.02518111
