&CONTROL
calculation = 'relax'
prefix = 'scf'
pseudo_dir = '/vol0004/mdt0/data/hp150275/u10028/POT_HYBRID_KKJUS_GBRV'
outdir = './data'
tprnfor = .true.
nstep = 50
disk_io = 'non'
/
&SYSTEM
ibrav = 0
ecutwfc = 50.0
ecutrho = 400
occupations = 'smearing'
smearing = 'mp'
degauss = 0.01
assume_isolated = 'esm'
esm_bc = 'bc1'
input_dft = 'BEEF-VDW'
nosym = .true.
nspin = 2
ntyp = 4
nat = 33
starting_magnetization(1) = 0.0
starting_magnetization(2) = 0.1
starting_magnetization(3) = 0.0
starting_magnetization(4) = 0.0
/
&ELECTRONS
electron_maxstep = 200
mixing_beta = 0.1
conv_thr = 1e-06
/
&IONS
ion_dynamics = 'bfgs'
upscale = 1.0
/
&CELL
/

K_POINTS {automatic}
9 6 2 0  0  0

ATOMIC_SPECIES
C 12.01 C.pbe-n-rrkjus_psl.1.0.0.UPF
Fe 55.84 fe_pbe_v1.5.uspp.F.UPF
Sn 118.7 Sn.pbe-dn-rrkjus_psl.1.0.0.UPF
V 50.94 V.pbe-spnl-rrkjus_psl.1.0.0.UPF

CELL_PARAMETERS {angstrom}
6.09904000 0.00000000 0.00000000
0.00000000 8.62534000 0.00000000
0.00000000 0.00000000 26.46900000

ATOMIC_POSITIONS {angstrom}
V 0.00000000 0.00000000 23.23448820
V 3.04952000 2.15633500 25.39091763
V 3.04952000 6.46900500 25.39091763
V 0.00000000 4.31267000 23.23448820
V 0.00000000 4.31267000 1.09793412
V 3.04952000 6.50195380 3.16357488
V 3.04952000 2.12338620 3.16357488
V 6.09897901 0.00000000 1.02593844
Fe 1.52476000 0.00000000 25.39091763
Fe 4.57428000 4.31267000 25.39091763
Fe 4.57428000 0.00000000 25.39091763
Fe 1.52476000 4.31267000 25.39091763
Fe 4.57428000 6.46900500 23.23448820
Fe 1.52476000 2.15633500 23.23448820
Fe 1.52476000 6.46900500 23.23448820
Fe 4.57428000 2.15633500 23.23448820
Fe 1.57599194 4.31267000 3.22180668
Fe 4.68095221 0.00000000 3.15854577
Fe 4.52304806 4.31267000 3.22180668
Fe 1.41808779 0.00000000 3.15854577
Fe 4.56263083 2.15081478 1.12122684
Fe 1.53640917 6.47452522 1.12122684
Fe 1.53640917 2.15081478 1.12122684
Fe 4.56263083 6.47452522 1.12122684
Sn 0.00000000 6.46900500 25.39091763
Sn 3.04952000 0.00000000 23.23448820
Sn 0.00000000 2.15633500 25.39091763
Sn 3.04952000 4.31267000 23.23448820
Sn 0.00000000 2.12649132 3.42297108
Sn 3.04952000 4.31267000 1.05664248
Sn 0.00000000 6.49893493 3.42297108
Sn 3.04952000 0.00000000 1.04420205
C 3.04952000 0.00000000 3.99099582
