&CONTROL
calculation = 'relax'
prefix = 'scf'
pseudo_dir = '/vol0403/data/hp230205/u10028/POT_HYBRID_KKJUS_GBRV'
outdir = './data'
tprnfor = .true.
nstep = 50
disk_io = 'non'
/
&SYSTEM
ibrav = 0
ecutwfc = 50.0
ecutrho = 400
occupations = 'smearing'
smearing = 'mp'
degauss = 0.01
assume_isolated = 'esm'
esm_bc = 'bc1'
input_dft = 'BEEF-VDW'
nosym = .true.
nspin = 1
ntyp = 6
nat = 18
/
&ELECTRONS
electron_maxstep = 200
mixing_beta = 0.1
conv_thr = 1e-06
/
&IONS
ion_dynamics = 'bfgs'
upscale = 1.0
/
&CELL
/

K_POINTS {automatic}
8 8 1 0 0 0

ATOMIC_SPECIES
C 12.01 C.pbe-n-rrkjus_psl.1.0.0.UPF
In 114.8 In.pbe-dn-rrkjus_psl.1.0.0.UPF
Mg 24.30 Mg.pbe-spnl-rrkjus_psl.1.0.0.UPF
O 15.99 O.pbe-n-rrkjus_psl.1.0.0.UPF
Pd 106.4 Pd.pbe-n-rrkjus_psl.1.0.0.UPF
Sc 44.95 Sc.pbe-spn-rrkjus_psl.1.0.0.UPF


CELL_PARAMETERS {angstrom}
6.76782000 0.00000000 0.00000000
0.00000000 6.76782000 0.00000000
0.00000000 0.00000000 25.07590000

ATOMIC_POSITIONS {angstrom}
Mg 1.70434011 1.70413708 0.91702566
Mg 1.69195500 5.07586500 -2.5379318400000024 0 0 0
Mg 5.07586500 1.69195500 -2.5379318400000024 0 0 0
Mg 5.06449506 5.06422435 0.91602263
Sc 5.07992569 1.68830038 0.99300564
Sc 5.07586500 5.07586500 -2.5379318400000024 0 0 0
Sc 1.69195500 1.69195500 -2.5379318400000024 0 0 0
Sc 1.68863877 5.07951962 0.99275488
In 0.00020303 6.76734625 3.05900904
In 0.00000000 3.38391000 -0.8460608700000023 0 0 0
In 3.38391000 0.00000000 -0.8460608700000023 0 0 0
In 3.38573731 3.38560196 3.08408494
Pd 6.76768464 3.38424839 2.34434589
Pd 0.00000000 0.00000000 -0.8460608700000023 0 0 0
Pd 3.38391000 3.38391000 -0.8460608700000023 0 0 0
Pd 3.38438375 6.76721090 2.34434589
C 6.75401365 6.76287949 6.88233151
O 0.00203035 0.00115053 8.01726675
