&CONTROL
calculation = 'relax'
prefix = 'scf'
pseudo_dir = '/vol0403/data/hp230205/u10028/POT_HYBRID_KKJUS_GBRV'
outdir = './data'
tprnfor = .true.
nstep = 50
disk_io = 'non'
/
&SYSTEM
ibrav = 0
ecutwfc = 50.0
ecutrho = 400
occupations = 'smearing'
smearing = 'mp'
degauss = 0.01
assume_isolated = 'esm'
esm_bc = 'bc1'
input_dft = 'BEEF-VDW'
nosym = .true.
nspin = 1
ntyp = 6
nat = 34
/
&ELECTRONS
electron_maxstep = 200
mixing_beta = 0.1
conv_thr = 1e-06
/
&IONS
ion_dynamics = 'bfgs'
upscale = 1.0
/
&CELL
/

K_POINTS {automatic}
6 6 1 0 0 0

ATOMIC_SPECIES
C 12.01 C.pbe-n-rrkjus_psl.1.0.0.UPF
Cu 63.54 Cu.pbe-dn-rrkjus_psl.1.0.0.UPF
In 114.8 In.pbe-dn-rrkjus_psl.1.0.0.UPF
O 15.99 O.pbe-n-rrkjus_psl.1.0.0.UPF
Pd 106.4 Pd.pbe-n-rrkjus_psl.1.0.0.UPF
Y 88.90 Y.pbe-spn-rrkjus_psl.1.0.0.UPF


CELL_PARAMETERS {angstrom}
6.76944000 0.00000000 0.00000000
0.00000000 9.57344000 0.00000000
0.00000000 0.00000000 27.18010000

ATOMIC_POSITIONS {angstrom}
Y 5.07708000 0.00000000 -1.1967397999999996 0 0 0
Y 5.07708000 4.78672000 -1.1967397999999996 0 0 0
Y 1.69236000 2.39336000 -3.5899476099999994 0 0 0
Y 1.69236000 7.18008000 -3.5899476099999994 0 0 0
Y 5.08648952 4.78672000 3.71715048
Y 5.10266848 0.00000000 3.62419453
Y 1.69330772 7.13594644 1.19565260
Y 1.69330772 2.43749356 1.19565260
In 1.69236000 0.00000000 -1.1967397999999996 0 0 0
In 1.69236000 4.78672000 -1.1967397999999996 0 0 0
In 5.07708000 2.39336000 -3.5899476099999994 0 0 0
In 5.07708000 7.18008000 -3.5899476099999994 0 0 0
In 1.71666229 4.78672000 3.65653885
In 1.71097596 0.00000000 3.66768269
In 5.09143121 7.21301263 1.25816683
In 5.09143121 2.36042737 1.25816683
Cu 0.00000000 0.00000000 -3.5899476099999994 0 0 0
Cu 0.00000000 4.78672000 -3.5899476099999994 0 0 0
Cu 3.38472000 7.18008000 -1.1967397999999996 0 0 0
Cu 3.38472000 2.39336000 -1.1967397999999996 0 0 0
Cu 6.62782332 4.78672000 1.30192679
Cu 0.02802548 0.00000000 1.21304786
Cu 3.24770653 2.39336000 3.59619903
Cu 3.24770653 7.18008000 3.59619903
Pd 0.00000000 2.39336000 -1.1967397999999996 0 0 0
Pd 0.00000000 7.18008000 -1.1967397999999996 0 0 0
Pd 3.38472000 4.78672000 -3.5899476099999994 0 0 0
Pd 3.38472000 0.00000000 -3.5899476099999994 0 0 0
Pd 0.12279764 7.15786962 3.53422840
Pd 0.12272995 2.41557038 3.53422840
Pd 3.38221531 0.00000000 1.21467867
Pd 3.53344460 4.78672000 1.27773650
C 5.04038964 0.00000000 6.15275924
O 5.03328172 0.00000000 7.29758505
