&CONTROL
calculation = 'relax'
prefix = 'scf'
pseudo_dir = '/vol0004/mdt0/data/hp150275/u10028/POT_KKJUS'
outdir = './data'
tprnfor = .true.
nstep = 50
disk_io = 'non'
/
&SYSTEM
ibrav = 0
ecutwfc = 50.0
ecutrho = 400
occupations = 'smearing'
smearing = 'mp'
degauss = 0.01
assume_isolated = 'esm'
esm_bc = 'bc1'
input_dft = 'BEEF-VDW'
nosym = .true.
nspin = 1
ntyp = 4
nat = 34
/
&ELECTRONS
electron_maxstep = 200
mixing_beta = 0.1
conv_thr = 1e-06
/
&IONS
ion_dynamics = 'bfgs'
upscale = 1.0
/
&CELL
/

K_POINTS {automatic}
9 6 2 0  0  0

ATOMIC_SPECIES
C 12.01 C.pbe-n-rrkjus_psl.1.0.0.UPF
In 114.8 In.pbe-dn-rrkjus_psl.1.0.0.UPF
Ni 58.69 Ni.pbe-spn-rrkjus_psl.1.0.0.UPF
O 15.99 O.pbe-n-rrkjus_psl.1.0.0.UPF

CELL_PARAMETERS {angstrom}
6.37073000 0.00000000 0.00000000
0.00000000 9.00957000 0.00000000
0.00000000 0.00000000 26.75720000

ATOMIC_POSITIONS {angstrom}
In 0.00000000 0.00000000 -3.378631640000002 0 0 0
In 0.00000000 2.25239250 -1.1262105499999997 0 0 0
In 0.03255443 9.00938981 1.15136232
In 6.33849411 2.30771126 3.54024513
In 0.00000000 4.50478500 -3.378631640000002 0 0 0
In 0.00000000 6.75717750 -1.1262105499999997 0 0 0
In 6.36862766 4.50460481 1.09436948
In 6.33862152 6.70158845 3.54024513
In 3.18536500 0.00000000 -3.378631640000002 0 0 0
In 3.18536500 2.25239250 -1.1262105499999997 0 0 0
In 3.15281057 9.00938981 1.15136232
In 3.21760089 2.30780136 3.54024513
In 3.18536500 4.50478500 -3.378631640000002 0 0 0
In 3.18536500 6.75717750 -1.1262105499999997 0 0 0
In 3.18740363 4.50469490 1.09436948
In 3.21753719 6.70158845 3.54024513
Ni 1.59268250 2.25239250 -3.378631640000002 0 0 0
Ni 1.59268250 0.00000000 -1.1262105499999997 0 0 0
Ni 1.59261879 2.24635609 1.18026009
Ni 1.59268250 9.00938981 3.51482579
Ni 1.59268250 6.75717750 -3.378631640000002 0 0 0
Ni 1.59268250 4.50478500 -1.1262105499999997 0 0 0
Ni 1.59255509 6.76240305 1.18026009
Ni 1.59261879 4.50460481 3.20765314
Ni 4.77804750 2.25239250 -3.378631640000002 0 0 0
Ni 4.77804750 0.00000000 -1.1262105499999997 0 0 0
Ni 4.77804750 2.22644494 1.08206117
Ni 4.77811121 0.00000000 3.19026096
Ni 4.77804750 6.75717750 -3.378631640000002 0 0 0
Ni 4.77804750 4.50478500 -1.1262105499999997 0 0 0
Ni 4.77811121 6.78321516 1.08152602
Ni 4.77804750 4.50487510 3.21353972
C 1.59274621 0.00000000 5.28802544
O 1.59268250 0.00009010 6.44500676
