&CONTROL
calculation = 'relax'
prefix = 'scf'
pseudo_dir = '/vol0403/data/hp230205/u10028/POT_HYBRID_KKJUS_GBRV'
outdir = './data'
tprnfor = .true.
nstep = 50
disk_io = 'non'
/
&SYSTEM
ibrav = 0
ecutwfc = 50.0
ecutrho = 400
occupations = 'smearing'
smearing = 'mp'
degauss = 0.01
assume_isolated = 'esm'
esm_bc = 'bc1'
input_dft = 'BEEF-VDW'
nosym = .true.
nspin = 1
ntyp = 6
nat = 34
/
&ELECTRONS
electron_maxstep = 200
mixing_beta = 0.1
conv_thr = 1e-06
/
&IONS
ion_dynamics = 'bfgs'
upscale = 1.0
/
&CELL
/

K_POINTS {automatic}
9 6 2 0  0  0

ATOMIC_SPECIES
Al 26.98 Al.pbe-nl-rrkjus_psl.1.0.0.UPF
C 12.01 C.pbe-n-rrkjus_psl.1.0.0.UPF
Ga 69.72 Ga.pbe-dnl-rrkjus_psl.1.0.0.UPF
Li 6.941 Li.pbe-sl-rrkjus_psl.1.0.0.UPF
O 15.99 O.pbe-n-rrkjus_psl.1.0.0.UPF
Pd 106.4 Pd.pbe-n-rrkjus_psl.1.0.0.UPF


CELL_PARAMETERS {angstrom}
6.14517000 0.00000000 0.00000000
0.00000000 8.69058000 0.00000000
0.00000000 0.00000000 26.51790000

ATOMIC_POSITIONS {angstrom}
Li 4.60887750 0.00000000 -1.0864383600000025 0 0 0
Li 4.60887750 4.34529000 -1.0864383600000025 0 0 0
Li 1.53629250 2.17264500 -3.2590499100000017 0 0 0
Li 1.53629250 6.51793500 -3.2590499100000017 0 0 0
Li 4.67573695 4.34529000 4.52527964
Li 4.63659222 0.00000000 4.11425219
Li 1.48774566 6.50759321 1.15220276
Li 1.48774566 2.18298679 1.15220276
Al 0.00000000 0.00000000 -3.2590499100000017 0 0 0
Al 0.00000000 4.34529000 -3.2590499100000017 0 0 0
Al 3.07258500 6.51793500 -1.0864383600000025 0 0 0
Al 3.07258500 2.17264500 -1.0864383600000025 0 0 0
Al 5.98748494 4.34529000 1.30998426
Al 6.05434439 0.00000000 1.42878445
Al 3.17791321 2.27415097 3.26064098
Al 3.17791321 6.41642903 3.26064098
Ga 0.00000000 2.17264500 -1.0864383600000025 0 0 0
Ga 0.00000000 6.51793500 -1.0864383600000025 0 0 0
Ga 3.07258500 4.34529000 -3.2590499100000017 0 0 0
Ga 3.07258500 0.00000000 -3.2590499100000017 0 0 0
Ga 6.01065223 6.43094229 3.41311891
Ga 6.01065223 2.25963771 3.41311891
Ga 3.07135597 0.00000000 1.31475748
Ga 3.12641669 4.34529000 1.15352865
Pd 1.53629250 0.00000000 -1.0864383600000025 0 0 0
Pd 1.53629250 4.34529000 -1.0864383600000025 0 0 0
Pd 4.60887750 2.17264500 -3.2590499100000017 0 0 0
Pd 4.60887750 6.51793500 -3.2590499100000017 0 0 0
Pd 1.55964415 4.34529000 3.21105251
Pd 1.61574955 0.00000000 3.52290301
Pd 4.60340830 6.55347947 0.97877569
Pd 4.60340830 2.13710053 0.97877569
C 1.58674435 0.00000000 5.49848657
O 1.54096283 0.00000000 6.65201522
