&CONTROL
calculation = 'relax'
prefix = 'scf'
pseudo_dir = '/vol0004/mdt0/data/hp150275/u10028/POT_HYBRID_KKJUS_GBRV'
outdir = './data'
tprnfor = .true.
nstep = 50
disk_io = 'non'
/
&SYSTEM
ibrav = 0
ecutwfc = 50.0
ecutrho = 400
occupations = 'smearing'
smearing = 'mp'
degauss = 0.01
assume_isolated = 'esm'
esm_bc = 'bc1'
input_dft = 'BEEF-VDW'
nosym = .true.
nspin = 2
ntyp = 3
nat = 33
starting_magnetization(1) = 0.0
starting_magnetization(2) = 0.001
starting_magnetization(3) = 0.0
/
&ELECTRONS
electron_maxstep = 300
mixing_beta = 0.1
conv_thr = 1e-06
/
&IONS
ion_dynamics = 'bfgs'
upscale = 1.0
/
&CELL
/

K_POINTS {automatic}
9 6 2 0  0  0

ATOMIC_SPECIES
C 12.01 C.pbe-n-rrkjus_psl.1.0.0.UPF
Ni 58.69 ni_pbe_v1.4.uspp.F.UPF
Ti 47.86 Ti.pbe-spn-rrkjus_psl.1.0.0.UPF

CELL_PARAMETERS {angstrom}
6.03636000 0.00000000 0.00000000
0.00000000 8.53670000 0.00000000
0.00000000 0.00000000 26.40250000

ATOMIC_POSITIONS {angstrom}
Ti 1.50909000 2.13417500 -3.2013031199999986 0 0 0
Ti 1.50909000 0.00000000 -1.0671890499999996 0 0 0
Ti 1.50329509 2.13084569 1.05874025
Ti 1.46689584 8.45867456 3.31879425
Ti 1.50909000 6.40252500 -3.2013031199999986 0 0 0
Ti 1.50909000 4.26835000 -1.0671890499999996 0 0 0
Ti 1.51283254 6.26534023 1.01808040
Ti 1.52490526 4.22515430 3.18519760
Ti 4.52727000 2.13417500 -3.2013031199999986 0 0 0
Ti 4.52727000 0.00000000 -1.0671890499999996 0 0 0
Ti 4.54350781 2.00791721 1.08197445
Ti 4.55443362 8.42358873 3.35258945
Ti 4.52727000 6.40252500 -3.2013031199999986 0 0 0
Ti 4.52727000 4.26835000 -1.0671890499999996 0 0 0
Ti 4.51912091 6.35386581 1.04738717
Ti 4.50741038 4.25221564 3.34097235
Ni 0.00000000 0.00000000 -3.2013031199999986 0 0 0
Ni 0.00000000 2.13417500 -1.0671890499999996 0 0 0
Ni 0.09133013 8.36161228 1.01464807
Ni 6.01287856 2.26017669 3.11417487
Ni 0.00000000 4.26835000 -3.2013031199999986 0 0 0
Ni 0.00000000 6.40252500 -1.0671890499999996 0 0 0
Ni 5.86112447 4.13125060 1.26679195
Ni 0.00458763 6.25484009 2.93807020
Ni 3.01818000 0.00000000 -3.2013031199999986 0 0 0
Ni 3.01818000 2.13417500 -1.0671890499999996 0 0 0
Ni 2.94453641 8.47233328 1.06296465
Ni 3.02512181 2.05119828 2.95206353
Ni 3.01818000 4.26835000 -3.2013031199999986 0 0 0
Ni 3.01818000 6.40252500 -1.0671890499999996 0 0 0
Ni 3.21405988 4.14405565 1.24302970
Ni 2.99976910 6.29180400 2.99773985
C 6.02000146 0.77470553 4.22783232
