&CONTROL
calculation = 'relax'
prefix = 'scf'
pseudo_dir = '/vol0004/mdt0/data/hp150275/u10028/POT_HYBRID_KKJUS_GBRV'
outdir = './data'
tprnfor = .true.
nstep = 50
disk_io = 'non'
/
&SYSTEM
ibrav = 0
ecutwfc = 50.0
ecutrho = 400
occupations = 'smearing'
smearing = 'mp'
degauss = 0.01
assume_isolated = 'esm'
esm_bc = 'bc1'
input_dft = 'BEEF-VDW'
nosym = .true.
nspin = 2
ntyp = 3
nat = 33
starting_magnetization(1) = 0.1
starting_magnetization(2) = 0.1
starting_magnetization(3) = 0.1
/
&ELECTRONS
electron_maxstep = 200
mixing_beta = 0.1
conv_thr = 1e-06
/
&IONS
ion_dynamics = 'bfgs'
upscale = 1.0
/
&CELL
/

K_POINTS {automatic}
9 6 2 0  0  0

ATOMIC_SPECIES
C 12.01 C.pbe-n-rrkjus_psl.1.0.0.UPF
Co 58.93 co_pbe_v1.2.uspp.F.UPF
Ti 47.86 Ti.pbe-spn-rrkjus_psl.1.0.0.UPF

CELL_PARAMETERS {angstrom}
5.98862000 0.00000000 0.00000000
0.00000000 8.46918000 0.00000000
0.00000000 0.00000000 26.35190000

ATOMIC_POSITIONS {angstrom}
Ti 0.00000000 0.00000000 -3.1759309900000012 0 0 0
Ti 0.00000000 2.11729500 -1.0585558200000023 0 0 0
Ti 0.00000000 4.23459000 1.10019183
Ti 0.00000000 2.10848705 3.34748186
Ti 0.00000000 4.23459000 -3.1759309900000012 0 0 0
Ti 0.00000000 6.35188500 -1.0585558200000023 0 0 0
Ti 0.00000000 0.00000000 1.20507239
Ti 0.00000000 6.36060826 3.34748186
Ti 2.99431000 0.00000000 -3.1759309900000012 0 0 0
Ti 2.99431000 2.11729500 -1.0585558200000023 0 0 0
Ti 2.99431000 4.23459000 1.06988714
Ti 2.99431000 2.15955621 3.26236522
Ti 2.99431000 4.23459000 -3.1759309900000012 0 0 0
Ti 2.99431000 6.35188500 -1.0585558200000023 0 0 0
Ti 2.99431000 0.00000000 1.01586575
Ti 2.99431000 6.30953910 3.26262874
Co 1.49715500 2.11729500 -3.1759309900000012 0 0 0
Co 1.49715500 0.00000000 -1.0585558200000023 0 0 0
Co 1.48829184 2.09806996 1.12417205
Co 1.72448302 8.46892592 3.02756979
Co 1.49715500 6.35188500 -3.1759309900000012 0 0 0
Co 1.49715500 4.23459000 -1.0585558200000023 0 0 0
Co 1.48829184 6.37111004 1.12443557
Co 1.48110550 4.23484408 2.95088576
Co 4.49146500 2.11729500 -3.1759309900000012 0 0 0
Co 4.49146500 0.00000000 -1.0585558200000023 0 0 0
Co 4.50032816 2.09806996 1.12417205
Co 4.26413698 8.46892592 3.02756979
Co 4.49146500 6.35188500 -3.1759309900000012 0 0 0
Co 4.49146500 4.23459000 -1.0585558200000023 0 0 0
Co 4.50032816 6.37111004 1.12443557
Co 4.50751450 4.23484408 2.95088576
C 0.00000000 0.00008469 3.55039149
