&CONTROL
calculation = 'relax'
prefix = 'scf'
pseudo_dir = '/vol0403/data/hp230205/u10028/POT_HYBRID_KKJUS_GBRV'
outdir = './data'
tprnfor = .true.
nstep = 50
disk_io = 'non'
/
&SYSTEM
ibrav = 0
ecutwfc = 50.0
ecutrho = 400
occupations = 'smearing'
smearing = 'mp'
degauss = 0.01
assume_isolated = 'esm'
esm_bc = 'bc1'
input_dft = 'BEEF-VDW'
nosym = .true.
nspin = 1
ntyp = 5
nat = 33
/
&ELECTRONS
electron_maxstep = 200
mixing_beta = 0.1
conv_thr = 1e-06
/
&IONS
ion_dynamics = 'bfgs'
upscale = 1.0
/
&CELL
/

K_POINTS {automatic}
8 8 1 0 0 0

ATOMIC_SPECIES
C 12.01 C.pbe-n-rrkjus_psl.1.0.0.UPF
Ge 72.64 Ge.pbe-dn-rrkjus_psl.1.0.0.UPF
Hf 178.4 Hf.pbe-spn-rrkjus_psl.1.0.0.UPF
Li 6.941 Li.pbe-sl-rrkjus_psl.1.0.0.UPF
Pd 106.4 Pd.pbe-n-rrkjus_psl.1.0.0.UPF


CELL_PARAMETERS {angstrom}
6.42607000 0.00000000 0.00000000
0.00000000 9.08784000 0.00000000
0.00000000 0.00000000 26.81590000

ATOMIC_POSITIONS {angstrom}
Li 1.60651750 0.00000000 -1.1359215200000001 0 0 0
Li 1.60651750 4.54392000 -1.1359215200000001 0 0 0
Li 4.81955250 2.27196000 -3.4080327299999986 0 0 0
Li 4.81955250 6.81588000 -3.4080327299999986 0 0 0
Li 1.34825375 4.64534029 4.06099990
Li 1.51745217 0.01354088 4.10283270
Li 4.80213785 6.76426107 1.01524997
Li 4.84275061 2.27332318 1.12412253
Hf 4.81955250 0.00000000 -1.1359215200000001 0 0 0
Hf 4.81955250 4.54392000 -1.1359215200000001 0 0 0
Hf 1.60651750 2.27196000 -3.4080327299999986 0 0 0
Hf 1.60651750 6.81588000 -3.4080327299999986 0 0 0
Hf 4.24866044 4.69804977 3.04092306
Hf 4.54869365 0.13849868 3.24177415
Hf 1.72051598 6.74017829 1.50329935
Hf 1.66679404 2.03622143 1.81007325
Ge 0.00000000 0.00000000 -3.4080327299999986 0 0 0
Ge 0.00000000 4.54392000 -3.4080327299999986 0 0 0
Ge 3.21303500 6.81588000 -1.1359215200000001 0 0 0
Ge 3.21303500 2.27196000 -1.1359215200000001 0 0 0
Ge 0.13642547 4.45013349 1.36063877
Ge 0.01600091 8.90871867 1.04394299
Ge 3.23764685 2.38283165 4.08942475
Ge 3.09556644 6.94592699 3.91941194
Pd 0.00000000 2.27196000 -1.1359215200000001 0 0 0
Pd 0.00000000 6.81588000 -1.1359215200000001 0 0 0
Pd 3.21303500 4.54392000 -3.4080327299999986 0 0 0
Pd 3.21303500 0.00000000 -3.4080327299999986 0 0 0
Pd 5.96609191 6.75699080 3.25947265
Pd 5.85909784 2.74689052 3.51529633
Pd 3.15385090 9.00559505 0.95303709
Pd 2.91756430 4.39042638 0.84228742
C 0.08829420 0.84498736 2.77303222
