&CONTROL
calculation = 'relax'
prefix = 'scf'
pseudo_dir = '/vol0004/mdt0/data/hp150275/u10028/POT_KKJUS'
outdir = './data'
tprnfor = .true.
nstep = 50
disk_io = 'non'
/
&SYSTEM
ibrav = 0
ecutwfc = 50.0
ecutrho = 400
occupations = 'smearing'
smearing = 'mp'
degauss = 0.01
assume_isolated = 'esm'
esm_bc = 'bc1'
input_dft = 'BEEF-VDW'
nosym = .true.
nspin = 1
ntyp = 5
nat = 34
/
&ELECTRONS
electron_maxstep = 200
mixing_beta = 0.1
conv_thr = 1e-06
/
&IONS
ion_dynamics = 'bfgs'
upscale = 1.0
/
&CELL
/

K_POINTS {automatic}
9 6 2 0  0  0

ATOMIC_SPECIES
C 12.01 C.pbe-n-rrkjus_psl.1.0.0.UPF
Ge 72.64 Ge.pbe-dn-rrkjus_psl.1.0.0.UPF
Ni 58.69 Ni.pbe-spn-rrkjus_psl.1.0.0.UPF
O 15.99 O.pbe-n-rrkjus_psl.1.0.0.UPF
Zn 65.40 Zn.pbe-dnl-rrkjus_psl.1.0.0.UPF

CELL_PARAMETERS {angstrom}
5.89777000 0.00000000 0.00000000
0.00000000 8.34071000 0.00000000
0.00000000 0.00000000 26.25550000

ATOMIC_POSITIONS {angstrom}
Zn 0.00000000 0.00000000 -3.127817710000002 0 0 0
Zn 2.94888500 2.08517750 -1.0426059100000025 0 0 0
Zn 2.94888500 6.25553250 -1.0426059100000025 0 0 0
Zn 0.00000000 4.17035500 -3.127817710000002 0 0 0
Zn 5.88680015 4.17018819 0.94519800
Zn 2.95867530 6.19180948 3.22470051
Zn 2.95897019 2.14873371 3.22522562
Zn 0.07177586 8.34020956 1.00479798
Ni 1.47444250 0.00000000 -1.0426059100000025 0 0 0
Ni 4.42332750 4.17035500 -1.0426059100000025 0 0 0
Ni 4.42332750 0.00000000 -1.0426059100000025 0 0 0
Ni 1.47444250 4.17035500 -1.0426059100000025 0 0 0
Ni 4.42332750 6.25553250 -3.127817710000002 0 0 0
Ni 1.47444250 2.08517750 -3.127817710000002 0 0 0
Ni 1.47444250 6.25553250 -3.127817710000002 0 0 0
Ni 4.42332750 2.08517750 -3.127817710000002 0 0 0
Ni 1.38155262 4.16985456 2.94402922
Ni 4.49410074 0.00016681 2.88180368
Ni 4.46355029 4.17035500 2.93352702
Ni 1.45580555 0.00016681 3.24544236
Ni 4.40693170 2.06015537 0.98589403
Ni 1.47957356 6.26587498 1.07778828
Ni 1.47980947 2.07350051 1.07883850
Ni 4.40657783 6.28205596 0.98536892
Ge 0.00000000 6.25553250 -1.0426059100000025 0 0 0
Ge 2.94888500 0.00000000 -3.127817710000002 0 0 0
Ge 0.00000000 2.08517750 -1.0426059100000025 0 0 0
Ge 2.94888500 4.17035500 -3.127817710000002 0 0 0
Ge 5.82080410 2.12054211 3.14750934
Ge 2.93644071 4.17068863 1.02842794
Ge 5.82104001 6.22008448 3.14777189
Ge 2.91851148 8.33954230 1.04680679
C 1.76496665 0.00016681 4.99773442
O 1.89707670 0.00000000 6.14483722
