&CONTROL
calculation = 'relax'
prefix = 'scf'
pseudo_dir = '/vol0004/mdt0/data/hp150275/u10028/POT_KKJUS'
outdir = './data'
tprnfor = .true.
nstep = 50
disk_io = 'non'
/
&SYSTEM
ibrav = 0
ecutwfc = 50.0
ecutrho = 400
occupations = 'smearing'
smearing = 'mp'
degauss = 0.01
assume_isolated = 'esm'
esm_bc = 'bc1'
input_dft = 'BEEF-VDW'
nosym = .true.
nspin = 1
ntyp = 3
nat = 33
/
&ELECTRONS
electron_maxstep = 200
mixing_beta = 0.1
conv_thr = 1e-06
/
&IONS
ion_dynamics = 'bfgs'
upscale = 1.0
/
&CELL
/

K_POINTS {automatic}
9 6 2 0  0  0

ATOMIC_SPECIES
C 12.01 C.pbe-n-rrkjus_psl.1.0.0.UPF
Cu 63.54 Cu.pbe-dn-rrkjus_psl.1.0.0.UPF
Zr 91.22 Zr.pbe-spn-rrkjus_psl.1.0.0.UPF

CELL_PARAMETERS {angstrom}
6.62616000 0.00000000 0.00000000
0.00000000 9.37081000 0.00000000
0.00000000 0.00000000 27.02810000

ATOMIC_POSITIONS {angstrom}
Zr 1.65654000 2.34270250 -3.51392328 0 0 0
Zr 1.65654000 0.00000000 -1.1713978499999982 0 0 0
Zr 1.63752292 2.34682566 1.11355772
Zr 1.71107330 0.00000000 3.45662371
Zr 1.65654000 7.02810750 -3.51392328 0 0 0
Zr 1.65654000 4.68540500 -1.1713978499999982 0 0 0
Zr 1.63752292 7.02407805 1.11355772
Zr 1.54190743 4.68549871 3.29499567
Zr 4.96962000 2.34270250 -3.51392328 0 0 0
Zr 4.96962000 0.00000000 -1.1713978499999982 0 0 0
Zr 4.98863708 2.34682566 1.11355772
Zr 4.91508670 0.00009371 3.45662371
Zr 4.96962000 7.02810750 -3.51392328 0 0 0
Zr 4.96962000 4.68540500 -1.1713978499999982 0 0 0
Zr 4.98863708 7.02407805 1.11355772
Zr 5.08425257 4.68549871 3.29499567
Cu 0.00000000 0.00000000 -3.51392328 0 0 0
Cu 0.00000000 2.34270250 -1.1713978499999982 0 0 0
Cu 0.00000000 0.00000000 1.15328903
Cu 0.00000000 2.24327821 3.49797670
Cu 0.00000000 4.68540500 -3.51392328 0 0 0
Cu 0.00000000 7.02810750 -1.1713978499999982 0 0 0
Cu 0.00000000 4.68540500 0.97814694
Cu 0.00000000 7.12781292 3.49824698
Cu 3.31308000 0.00000000 -3.51392328 0 0 0
Cu 3.31308000 2.34270250 -1.1713978499999982 0 0 0
Cu 3.31308000 9.37071629 1.01004010
Cu 3.31308000 2.40736109 3.29472539
Cu 3.31308000 4.68540500 -3.51392328 0 0 0
Cu 3.31308000 7.02810750 -1.1713978499999982 0 0 0
Cu 3.31308000 4.68540500 1.18518218
Cu 3.31308000 6.96354262 3.29445511
C 0.00000000 9.37024775 4.50774652
