&CONTROL
calculation = 'relax'
prefix = 'scf'
pseudo_dir = '/vol0403/data/hp230205/u10028/POT_HYBRID_KKJUS_GBRV'
outdir = './data'
tprnfor = .true.
nstep = 50
disk_io = 'non'
/
&SYSTEM
ibrav = 0
ecutwfc = 50.0
ecutrho = 400
occupations = 'smearing'
smearing = 'mp'
degauss = 0.01
assume_isolated = 'esm'
esm_bc = 'bc1'
input_dft = 'BEEF-VDW'
nosym = .true.
nspin = 1
ntyp = 5
nat = 33
/
&ELECTRONS
electron_maxstep = 200
mixing_beta = 0.1
conv_thr = 1e-06
/
&IONS
ion_dynamics = 'bfgs'
upscale = 1.0
/
&CELL
/

K_POINTS {automatic}
6 6 1 0 0 0

ATOMIC_SPECIES
C 12.01 C.pbe-n-rrkjus_psl.1.0.0.UPF
In 114.8 In.pbe-dn-rrkjus_psl.1.0.0.UPF
Li 6.941 Li.pbe-sl-rrkjus_psl.1.0.0.UPF
Mg 24.30 Mg.pbe-spnl-rrkjus_psl.1.0.0.UPF
Pb 207.2 Pb.pbe-dn-rrkjus_psl.1.0.0.UPF


CELL_PARAMETERS {angstrom}
7.11424000 0.00000000 0.00000000
0.00000000 10.06110000 0.00000000
0.00000000 0.00000000 27.54580000

ATOMIC_POSITIONS {angstrom}
Li 5.33568000 0.00000000 -1.2577412300000006 0 0 0
Li 5.33568000 5.03055000 -1.2577412300000006 0 0 0
Li 1.77856000 2.51527500 -3.772948230000001 0 0 0
Li 1.77856000 7.54582500 -3.772948230000001 0 0 0
Li 5.28068692 4.69712515 3.99083550
Li 5.27485325 0.35244033 3.99717104
Li 1.67490552 7.54532194 1.43320797
Li 1.82729254 2.50803101 1.22248260
Mg 1.77856000 0.00000000 -1.2577412300000006 0 0 0
Mg 1.77856000 5.03055000 -1.2577412300000006 0 0 0
Mg 5.33568000 2.51527500 -3.772948230000001 0 0 0
Mg 5.33568000 7.54582500 -3.772948230000001 0 0 0
Mg 1.86755914 5.25068687 4.10046779
Mg 1.87118740 9.86722260 4.08504214
Mg 5.39921016 7.53264496 1.37122992
Mg 5.06377375 2.52191533 1.87008436
In 0.00000000 0.00000000 -3.772948230000001 0 0 0
In 0.00000000 5.03055000 -3.772948230000001 0 0 0
In 3.55712000 7.54582500 -1.2577412300000006 0 0 0
In 3.55712000 2.51527500 -1.2577412300000006 0 0 0
In 0.02902610 4.95961924 1.42797427
In 0.01963530 0.06157393 1.42880065
In 3.55740457 2.53117154 5.47527867
In 3.79566047 7.55548366 4.18668614
Pb 0.00000000 2.51527500 -1.2577412300000006 0 0 0
Pb 0.00000000 7.54582500 -1.2577412300000006 0 0 0
Pb 3.55712000 5.03055000 -3.772948230000001 0 0 0
Pb 3.55712000 0.00000000 -3.772948230000001 0 0 0
Pb 6.94741107 7.55960871 4.13958282
Pb 0.40814395 2.52443060 4.10349783
Pb 3.49615096 9.98745275 1.38665557
Pb 3.48057078 5.10017281 1.39133836
C 5.24831713 2.52513488 4.05336447
