&CONTROL
calculation = 'relax'
prefix = 'scf'
pseudo_dir = '/vol0004/mdt0/data/hp150275/u10028/POT_KKJUS'
outdir = './data'
tprnfor = .true.
nstep = 50
disk_io = 'non'
/
&SYSTEM
ibrav = 0
ecutwfc = 50.0
ecutrho = 400
occupations = 'smearing'
smearing = 'mp'
degauss = 0.01
assume_isolated = 'esm'
esm_bc = 'bc1'
input_dft = 'BEEF-VDW'
nosym = .true.
nspin = 1
ntyp = 4
nat = 33
/
&ELECTRONS
electron_maxstep = 200
mixing_beta = 0.1
conv_thr = 1e-06
/
&IONS
ion_dynamics = 'bfgs'
upscale = 1.0
/
&CELL
/

K_POINTS {automatic}
9 6 2 0  0  0

ATOMIC_SPECIES
Au 196.9 Au.pbe-n-rrkjus_psl.1.0.0.UPF
C 12.01 C.pbe-n-rrkjus_psl.1.0.0.UPF
Li 6.941 Li.pbe-sl-rrkjus_psl.1.0.0.UPF
Sb 121.7 Sb.pbe-n-rrkjus_psl.1.0.0.UPF

CELL_PARAMETERS {angstrom}
6.66546000 0.00000000 0.00000000
0.00000000 9.42638000 0.00000000
0.00000000 0.00000000 27.06980000

ATOMIC_POSITIONS {angstrom}
Li 0.00000000 7.06978500 -1.17834839 0 0 0
Li 3.33273000 0.00000000 -3.5347744799999994 0 0 0
Li 0.00000000 2.35659500 -1.17834839 0 0 0
Li 3.33273000 4.71319000 -3.5347744799999994 0 0 0
Li 1.66636500 2.35659500 -3.5347744799999994 0 0 0
Li 1.66636500 7.06978500 -3.5347744799999994 0 0 0
Li 4.99909500 4.71319000 -1.17834839 0 0 0
Li 4.99909500 0.00000000 -1.17834839 0 0 0
Li 0.04165913 2.12225519 3.60623876
Li 3.38238768 4.71309574 1.09443201
Li 0.04165913 7.30412481 3.60623876
Li 3.52662823 0.00000000 1.35511419
Li 1.80340686 7.10852742 1.35890396
Li 1.80347351 2.31775831 1.35890396
Li 4.82765937 0.00000000 4.29083400
Li 5.05508486 4.71328426 3.50662189
Sb 0.00000000 0.00000000 -3.5347744799999994 0 0 0
Sb 3.33273000 2.35659500 -1.17834839 0 0 0
Sb 3.33273000 7.06978500 -1.17834839 0 0 0
Sb 0.00000000 4.71319000 -3.5347744799999994 0 0 0
Sb 0.03032784 4.71319000 1.16373070
Sb 3.51962950 6.98852960 3.72290959
Sb 3.51982946 2.43794466 3.72290959
Sb 6.48402618 0.00000000 1.20135772
Au 1.66636500 0.00000000 -1.17834839 0 0 0
Au 1.66636500 4.71319000 -1.17834839 0 0 0
Au 4.99909500 7.06978500 -3.5347744799999994 0 0 0
Au 4.99909500 2.35659500 -3.5347744799999994 0 0 0
Au 1.86166298 4.71319000 3.26407648
Au 2.05236179 0.00018853 3.60894574
Au 4.92457516 2.45085880 1.21164425
Au 4.92444185 6.97542694 1.21164425
C 6.65846127 0.00000000 3.36450544
