&CONTROL
calculation = 'relax'
prefix = 'scf'
pseudo_dir = '/vol0403/data/hp230205/u10028/POT_HYBRID_KKJUS_GBRV'
outdir = './data'
tprnfor = .true.
nstep = 50
disk_io = 'non'
/
&SYSTEM
ibrav = 0
ecutwfc = 50.0
ecutrho = 400
occupations = 'smearing'
smearing = 'mp'
degauss = 0.01
assume_isolated = 'esm'
esm_bc = 'bc1'
input_dft = 'BEEF-VDW'
nosym = .true.
nspin = 1
ntyp = 5
nat = 17
/
&ELECTRONS
electron_maxstep = 200
mixing_beta = 0.1
conv_thr = 1e-06
/
&IONS
ion_dynamics = 'bfgs'
upscale = 1.0
/
&CELL
/

K_POINTS {automatic}
11 8 2 0  0  0

ATOMIC_SPECIES
C 12.01 C.pbe-n-rrkjus_psl.1.0.0.UPF
Ge 72.64 Ge.pbe-dn-rrkjus_psl.1.0.0.UPF
Li 6.941 Li.pbe-sl-rrkjus_psl.1.0.0.UPF
Pb 207.2 Pb.pbe-dn-rrkjus_psl.1.0.0.UPF
Y 88.90 Y.pbe-spn-rrkjus_psl.1.0.0.UPF


CELL_PARAMETERS {angstrom}
6.52719000 0.00000000 0.00000000
0.00000000 8.65500000 0.00000000
0.00000000 0.00000000 24.84630000

ATOMIC_POSITIONS {angstrom}
Li 3.24727702 0.10048455 2.63917399
Li 6.06617457 0.00000000 -0.8077532099999978 0 0 0
Li 3.24747284 4.22701545 2.63917399
Li 6.06617457 4.32750000 -0.8077532099999978 0 0 0
Y 1.52475158 2.16375000 0.69271484
Y 4.20390199 2.16375000 -2.4232596399999977 0 0 0
Y 1.24310334 6.49125000 0.99410046
Y 4.20390199 6.49125000 -2.4232596399999977 0 0 0
Ge 0.27844993 0.29487585 2.82825433
Ge 2.80257957 0.00000000 -0.8077532099999978 0 0 0
Ge 0.27844993 4.03253760 2.82825433
Ge 2.80257957 4.32750000 -0.8077532099999978 0 0 0
Pb 4.79709302 2.16375000 1.05199234
Pb 0.94030699 2.16375000 -2.4232596399999977 0 0 0
Pb 4.43881556 6.49125000 0.95534023
Pb 0.94030699 6.49125000 -2.4232596399999977 0 0 0
C 0.60905210 2.16366345 2.88987315
