&CONTROL
calculation = 'relax'
prefix = 'scf'
pseudo_dir = '/vol0004/mdt0/data/hp150275/u10028/POT_KKJUS'
outdir = './data'
tprnfor = .true.
nstep = 50
disk_io = 'non'
/
&SYSTEM
ibrav = 0
ecutwfc = 50.0
ecutrho = 400
occupations = 'smearing'
smearing = 'mp'
degauss = 0.01
assume_isolated = 'esm'
esm_bc = 'bc1'
input_dft = 'BEEF-VDW'
nosym = .true.
nspin = 1
ntyp = 3
nat = 17
/
&ELECTRONS
electron_maxstep = 200
mixing_beta = 0.1
conv_thr = 1e-06
/
&IONS
ion_dynamics = 'bfgs'
upscale = 1.0
/
&CELL
/

K_POINTS {automatic}
6 8 1 0 0 0

ATOMIC_SPECIES
Al 26.98 Al.pbe-nl-rrkjus_psl.1.0.0.UPF
C 12.01 C.pbe-n-rrkjus_psl.1.0.0.UPF
Y 88.90 Y.pbe-spn-rrkjus_psl.1.0.0.UPF

CELL_PARAMETERS {angstrom}
8.49845000 0.00000000 0.00000000
0.00000000 6.00931000 0.00000000
0.00000000 0.00000000 24.50700000

ATOMIC_POSITIONS {angstrom}
Y 0.00000000 0.00000000 -2.2534186500000004 0 0 0
Y 0.00000000 3.00465500 0.71903538
Y 4.24922500 0.00000000 -2.2534186500000004 0 0 0
Y 4.24922500 3.00465500 1.07659251
Al 0.00000000 3.00465500 -2.2534186500000004 0 0 0
Al 2.12461250 4.50698250 -0.7511395500000013 0 0 0
Al 2.12461250 1.50232750 -0.7511395500000013 0 0 0
Al 0.00000000 0.00000000 0.49773717
Al 1.83507031 1.31784168 2.29655097
Al 1.83507031 4.69146832 2.29655097
Al 4.24922500 3.00465500 -2.2534186500000004 0 0 0
Al 6.37383750 4.50698250 -0.7511395500000013 0 0 0
Al 6.37383750 1.50232750 -0.7511395500000013 0 0 0
Al 4.24922500 0.00000000 1.11996990
Al 6.66337969 1.31784168 2.29655097
Al 6.66337969 4.69146832 2.29655097
C 0.00000000 6.00924991 2.47888305
