&CONTROL
calculation = 'relax'
prefix = 'scf'
pseudo_dir = '/vol0004/mdt0/data/hp150275/u10028/POT_HYBRID_KKJUS_GBRV'
outdir = './data'
tprnfor = .true.
nstep = 50
disk_io = 'non'
/
&SYSTEM
ibrav = 0
ecutwfc = 50.0
ecutrho = 400
occupations = 'smearing'
smearing = 'mp'
degauss = 0.01
assume_isolated = 'esm'
esm_bc = 'bc1'
input_dft = 'BEEF-VDW'
nosym = .true.
nspin = 2
ntyp = 4
nat = 33
starting_magnetization(1) = 0.0
starting_magnetization(2) = 0.1
starting_magnetization(3) = 0.0
starting_magnetization(4) = 0.0
/
&ELECTRONS
electron_maxstep = 300
mixing_beta = 0.1
conv_thr = 1e-06
/
&IONS
ion_dynamics = 'bfgs'
upscale = 1.0
/
&CELL
/

K_POINTS {automatic}
8 6 1 0 0 0

ATOMIC_SPECIES
C 12.01 C.pbe-n-rrkjus_psl.1.0.0.UPF
Fe 55.84 fe_pbe_v1.5.uspp.F.UPF
Sn 118.7 Sn.pbe-dn-rrkjus_psl.1.0.0.UPF
V 50.94 V.pbe-spnl-rrkjus_psl.1.0.0.UPF

CELL_PARAMETERS {angstrom}
6.09904000 0.00000000 0.00000000
0.00000000 8.62534000 0.00000000
0.00000000 0.00000000 26.46900000

ATOMIC_POSITIONS {angstrom}
V 0.00000000 0.00000000 -3.2345118 0 0 0
V 3.04952000 2.15633500 -1.0780823700000006 0 0 0
V 3.04952000 6.46900500 -1.0780823700000006 0 0 0
V 0.00000000 4.31267000 -3.2345118 0 0 0
V 6.09519760 4.36907972 1.04076108
V 3.06135214 6.46900500 3.14795817
V 3.37819727 2.15633500 3.06696303
V 6.09513661 8.56901653 1.04076108
Fe 1.52476000 0.00000000 -1.0780823700000006 0 0 0
Fe 4.57428000 4.31267000 -1.0780823700000006 0 0 0
Fe 4.57428000 0.00000000 -1.0780823700000006 0 0 0
Fe 1.52476000 4.31267000 -1.0780823700000006 0 0 0
Fe 4.57428000 6.46900500 -3.2345118 0 0 0
Fe 1.52476000 2.15633500 -3.2345118 0 0 0
Fe 1.52476000 6.46900500 -3.2345118 0 0 0
Fe 4.57428000 2.15633500 -3.2345118 0 0 0
Fe 1.32483347 4.09168879 3.20010210
Fe 4.71425297 0.00664151 3.14319375
Fe 4.71425297 4.30594223 3.14319375
Fe 1.32483347 0.22089496 3.20010210
Fe 4.81324039 2.15633500 1.28718747
Fe 1.46907576 6.46909125 1.30889205
Fe 1.07117440 2.15624875 1.64266614
Fe 4.63496545 6.46909125 1.29698100
Sn 0.00000000 6.46900500 -1.0780823700000006 0 0 0
Sn 3.04952000 0.00000000 -3.2345118 0 0 0
Sn 0.00000000 2.15633500 -1.0780823700000006 0 0 0
Sn 3.04952000 4.31267000 -3.2345118 0 0 0
Sn 5.67582761 2.15624875 4.63022217
Sn 3.02213531 4.23400690 1.07172981
Sn 0.12185882 6.46900500 3.82556457
Sn 3.02213531 0.07857685 1.07172981
C 1.49237410 2.15633500 3.58125570
