&CONTROL
calculation = 'relax'
prefix = 'scf'
pseudo_dir = '/vol0403/data/hp230205/u10028/POT_HYBRID_KKJUS_GBRV'
outdir = './data'
tprnfor = .true.
nstep = 50
disk_io = 'non'
/
&SYSTEM
ibrav = 0
ecutwfc = 50.0
ecutrho = 400
occupations = 'smearing'
smearing = 'mp'
degauss = 0.01
assume_isolated = 'esm'
esm_bc = 'bc1'
input_dft = 'BEEF-VDW'
nosym = .true.
nspin = 1
ntyp = 6
nat = 18
/
&ELECTRONS
electron_maxstep = 200
mixing_beta = 0.1
conv_thr = 1e-06
/
&IONS
ion_dynamics = 'bfgs'
upscale = 1.0
/
&CELL
/

K_POINTS {automatic}
11 7 2 0  0  0

ATOMIC_SPECIES
C 12.01 C.pbe-n-rrkjus_psl.1.0.0.UPF
Li 6.941 Li.pbe-sl-rrkjus_psl.1.0.0.UPF
O 15.99 O.pbe-n-rrkjus_psl.1.0.0.UPF
Pb 207.2 Pb.pbe-dn-rrkjus_psl.1.0.0.UPF
Sn 118.7 Sn.pbe-dn-rrkjus_psl.1.0.0.UPF
Y 88.90 Y.pbe-spn-rrkjus_psl.1.0.0.UPF


CELL_PARAMETERS {angstrom}
6.45119000 0.00000000 0.00000000
0.00000000 9.64462000 0.00000000
0.00000000 0.00000000 24.83120000

ATOMIC_POSITIONS {angstrom}
Li 0.15798964 0.00009645 2.37038635
Li 3.05005812 0.00000000 -0.8052758199999985 0 0 0
Li 0.15366735 4.82231000 2.41458589
Li 3.05005812 4.82231000 -0.8052758199999985 0 0 0
Y 4.77588047 2.41597731 0.77225032
Y 1.34952444 2.41115500 -2.4155791399999984 0 0 0
Y 4.77581596 7.22864269 0.77225032
Y 1.34952444 7.23346500 -2.4155791399999984 0 0 0
Sn 1.54809206 2.41491640 1.08984137
Sn 4.57511944 2.41115500 -2.4155791399999984 0 0 0
Sn 1.54809206 7.22980004 1.09008968
Sn 4.57511944 7.23346500 -2.4155791399999984 0 0 0
Pb 3.16127664 0.00009645 2.46251010
Pb 6.27565312 0.00000000 -0.8052758199999985 0 0 0
Pb 3.15772848 4.82231000 2.47889870
Pb 6.27565312 4.82231000 -0.8052758199999985 0 0 0
C 3.77975222 9.64452355 6.17725762
O 2.95548367 0.00000000 6.96043367
