&CONTROL
calculation = 'relax'
prefix = 'scf'
pseudo_dir = '/vol0004/mdt0/data/hp150275/u10028/POT_HYBRID_KKJUS_GBRV'
outdir = './data'
tprnfor = .true.
nstep = 50
disk_io = 'non'
/
&SYSTEM
ibrav = 0
ecutwfc = 50.0
ecutrho = 400
occupations = 'smearing'
smearing = 'mp'
degauss = 0.01
assume_isolated = 'esm'
esm_bc = 'bc1'
input_dft = 'BEEF-VDW'
nosym = .true.
nspin = 2
ntyp = 4
nat = 33
starting_magnetization(1) = 0.0
starting_magnetization(2) = 0.0
starting_magnetization(3) = 0.1
starting_magnetization(4) = 0.001
/
&ELECTRONS
electron_maxstep = 300
mixing_beta = 0.1
conv_thr = 1e-06
/
&IONS
ion_dynamics = 'bfgs'
upscale = 1.0
/
&CELL
/

K_POINTS {automatic}
8 6 1 0 0 0

ATOMIC_SPECIES
C 12.01 C.pbe-n-rrkjus_psl.1.0.0.UPF
Ge 72.64 Ge.pbe-dn-rrkjus_psl.1.0.0.UPF
Mn 54.93 mn_pbe_v1.5.uspp.F.UPF
Ni 58.69 ni_pbe_v1.4.uspp.F.UPF

CELL_PARAMETERS {angstrom}
5.84248000 0.00000000 0.00000000
0.00000000 8.26252000 0.00000000
0.00000000 0.00000000 26.19690000

ATOMIC_POSITIONS {angstrom}
Mn 0.00000000 0.00000000 -3.09856933 0 0 0
Mn 2.92124000 2.06563000 -1.0329437699999993 0 0 0
Mn 2.92124000 6.19689000 -1.0329437699999993 0 0 0
Mn 0.00000000 4.13126000 -3.09856933 0 0 0
Mn 0.00000000 4.13126000 0.99574417
Mn 2.92124000 6.33313895 3.34220050
Mn 2.92124000 1.92929842 3.34220050
Mn 0.00000000 0.00000000 0.98343163
Ni 1.46062000 0.00000000 -1.0329437699999993 0 0 0
Ni 4.38186000 4.13126000 -1.0329437699999993 0 0 0
Ni 4.38186000 0.00000000 -1.0329437699999993 0 0 0
Ni 1.46062000 4.13126000 -1.0329437699999993 0 0 0
Ni 4.38186000 6.19689000 -3.09856933 0 0 0
Ni 1.46062000 2.06563000 -3.09856933 0 0 0
Ni 1.46062000 6.19689000 -3.09856933 0 0 0
Ni 4.38186000 2.06563000 -3.09856933 0 0 0
Ni 1.45693924 4.13109475 2.98068328
Ni 4.61246269 0.00000000 3.08599482
Ni 4.38554076 4.13109475 2.98068328
Ni 1.23001731 0.00000000 3.08599482
Ni 4.31747587 2.05323622 1.08690938
Ni 1.52465358 6.20928378 1.08664741
Ni 1.52500413 2.05323622 1.08690938
Ni 4.31782642 6.20928378 1.08664741
Ge 0.00000000 6.19689000 -1.0329437699999993 0 0 0
Ge 2.92124000 0.00000000 -3.09856933 0 0 0
Ge 0.00000000 2.06563000 -1.0329437699999993 0 0 0
Ge 2.92124000 4.13126000 -3.09856933 0 0 0
Ge 0.00000000 2.13668767 3.12267048
Ge 2.92124000 4.13142525 1.04054087
Ge 0.00000000 6.12583233 3.12240851
Ge 2.92124000 0.00024788 1.00596096
C 2.92124000 0.00000000 3.80300397
