&CONTROL
calculation = 'relax'
prefix = 'scf'
pseudo_dir = '/vol0004/mdt0/data/hp150275/u10028/POT_KKJUS'
outdir = './data'
tprnfor = .true.
nstep = 50
disk_io = 'non'
/
&SYSTEM
ibrav = 0
ecutwfc = 50.0
ecutrho = 400
occupations = 'smearing'
smearing = 'mp'
degauss = 0.01
assume_isolated = 'esm'
esm_bc = 'bc1'
input_dft = 'BEEF-VDW'
nosym = .true.
nspin = 1
ntyp = 3
nat = 33
/
&ELECTRONS
electron_maxstep = 200
mixing_beta = 0.1
conv_thr = 1e-06
/
&IONS
ion_dynamics = 'bfgs'
upscale = 1.0
/
&CELL
/

K_POINTS {automatic}
9 6 2 0  0  0

ATOMIC_SPECIES
C 12.01 C.pbe-n-rrkjus_psl.1.0.0.UPF
Zn 65.40 Zn.pbe-dnl-rrkjus_psl.1.0.0.UPF
Zr 91.22 Zr.pbe-spn-rrkjus_psl.1.0.0.UPF

CELL_PARAMETERS {angstrom}
6.67495000 0.00000000 0.00000000
0.00000000 9.43980000 0.00000000
0.00000000 0.00000000 27.07990000

ATOMIC_POSITIONS {angstrom}
Zr 1.66873750 2.35995000 -3.5398845299999984 0 0 0
Zr 1.66873750 4.71990000 -1.179871239999997 0 0 0
Zr 1.65038139 2.36193236 1.22590707
Zr 1.72133611 9.43961120 3.55911126
Zr 1.66873750 7.07985000 -3.5398845299999984 0 0 0
Zr 1.66873750 0.00000000 -1.179871239999997 0 0 0
Zr 1.65038139 7.07796204 1.22590707
Zr 1.50079576 4.72018319 3.47353877
Zr 5.00621250 2.35995000 -3.5398845299999984 0 0 0
Zr 5.00621250 4.71990000 -1.179871239999997 0 0 0
Zr 5.02456861 2.36193236 1.22590707
Zr 4.95368064 9.43970560 3.55911126
Zr 5.00621250 7.07985000 -3.5398845299999984 0 0 0
Zr 5.00621250 0.00000000 -1.179871239999997 0 0 0
Zr 5.02456861 7.07796204 1.22590707
Zr 5.17415424 4.72008880 3.47353877
Zn 0.00000000 0.00000000 -3.5398845299999984 0 0 0
Zn 0.00000000 2.35995000 -1.179871239999997 0 0 0
Zn 0.00000000 0.00018880 1.22265749
Zn 0.00000000 2.27961730 3.87080091
Zn 0.00000000 4.71990000 -3.5398845299999984 0 0 0
Zn 0.00000000 7.07985000 -1.179871239999997 0 0 0
Zn 0.00000000 4.71961681 1.09673595
Zn 0.00000000 7.16018270 3.87161330
Zn 3.33747500 0.00000000 -3.5398845299999984 0 0 0
Zn 3.33747500 2.35995000 -1.179871239999997 0 0 0
Zn 3.33747500 0.00047199 1.13031503
Zn 3.33747500 2.45953989 3.56371484
Zn 3.33747500 4.71990000 -3.5398845299999984 0 0 0
Zn 3.33747500 7.07985000 -1.179871239999997 0 0 0
Zn 3.33747500 4.71971120 1.22753187
Zn 3.33747500 6.98016571 3.56425644
C 0.00000000 9.43932801 4.64447365
