&CONTROL
calculation = 'relax'
prefix = 'scf'
pseudo_dir = '/vol0004/mdt0/data/hp150275/u10028/POT_KKJUS'
outdir = './data'
tprnfor = .true.
nstep = 50
disk_io = 'non'
/
&SYSTEM
ibrav = 0
ecutwfc = 50.0
ecutrho = 400
occupations = 'smearing'
smearing = 'mp'
degauss = 0.01
assume_isolated = 'esm'
esm_bc = 'bc1'
input_dft = 'BEEF-VDW'
nosym = .true.
nspin = 1
ntyp = 4
nat = 33
/
&ELECTRONS
electron_maxstep = 200
mixing_beta = 0.1
conv_thr = 1e-06
/
&IONS
ion_dynamics = 'bfgs'
upscale = 1.0
/
&CELL
/

K_POINTS {automatic}
8 6 1 0 0 0

ATOMIC_SPECIES
Al 26.98 Al.pbe-nl-rrkjus_psl.1.0.0.UPF
Au 196.9 Au.pbe-n-rrkjus_psl.1.0.0.UPF
C 12.01 C.pbe-n-rrkjus_psl.1.0.0.UPF
Ti 47.86 Ti.pbe-spn-rrkjus_psl.1.0.0.UPF

CELL_PARAMETERS {angstrom}
6.49880000 0.00000000 0.00000000
0.00000000 9.19068000 0.00000000
0.00000000 0.00000000 26.89300000

ATOMIC_POSITIONS {angstrom}
Ti 0.00000000 0.00000000 -3.446606880000001 0 0 0
Ti 3.24940000 2.29767000 -1.1488689600000015 0 0 0
Ti 3.24940000 6.89301000 -1.1488689600000015 0 0 0
Ti 0.00000000 4.59534000 -3.446606880000001 0 0 0
Ti 0.00000000 4.59534000 1.25697882
Ti 3.24940000 7.21606240 3.53320234
Ti 3.24940000 1.97470950 3.53320234
Ti 0.00000000 0.00000000 1.13622925
Al 0.00000000 6.89301000 -1.1488689600000015 0 0 0
Al 3.24940000 0.00000000 -3.446606880000001 0 0 0
Al 0.00000000 2.29767000 -1.1488689600000015 0 0 0
Al 3.24940000 4.59534000 -3.446606880000001 0 0 0
Al 0.00000000 2.44315846 3.33258056
Al 3.24940000 4.59534000 1.14241464
Al 0.00000000 6.74752154 3.33258056
Al 3.24940000 0.00000000 1.06953461
Au 1.62470000 0.00000000 -1.1488689600000015 0 0 0
Au 4.87410000 4.59534000 -1.1488689600000015 0 0 0
Au 4.87410000 0.00000000 -1.1488689600000015 0 0 0
Au 1.62470000 4.59534000 -1.1488689600000015 0 0 0
Au 4.87410000 6.89301000 -3.446606880000001 0 0 0
Au 1.62470000 2.29767000 -3.446606880000001 0 0 0
Au 1.62470000 6.89301000 -3.446606880000001 0 0 0
Au 4.87410000 2.29767000 -3.446606880000001 0 0 0
Au 1.77391245 4.59534000 3.50362004
Au 5.20410906 0.00000000 3.54476633
Au 4.72488755 4.59534000 3.50362004
Au 1.29469094 0.00000000 3.54476633
Au 4.80950193 2.32266865 1.14644859
Au 1.68923308 6.86801135 1.14671752
Au 1.68923308 2.32266865 1.14644859
Au 4.80956692 6.86801135 1.14671752
C 3.24940000 0.00000000 4.20445162
