&CONTROL
calculation = 'relax'
prefix = 'scf'
pseudo_dir = '/vol0004/mdt0/data/hp150275/u10028/POT_KKJUS'
outdir = './data'
tprnfor = .true.
nstep = 50
disk_io = 'non'
/
&SYSTEM
ibrav = 0
ecutwfc = 50.0
ecutrho = 400
occupations = 'smearing'
smearing = 'mp'
degauss = 0.01
assume_isolated = 'esm'
esm_bc = 'bc1'
input_dft = 'BEEF-VDW'
nosym = .true.
nspin = 1
ntyp = 2
nat = 32
/
&ELECTRONS
electron_maxstep = 200
mixing_beta = 0.1
conv_thr = 1e-06
/
&IONS
ion_dynamics = 'bfgs'
upscale = 1.0
/
&CELL
/

K_POINTS {automatic}
8 6 1 0 0 0

ATOMIC_SPECIES
Ga 69.72 Ga.pbe-dnl-rrkjus_psl.1.0.0.UPF
Ir 192.2 Ir.pbe-n-rrkjus_psl.0.2.3.UPF

CELL_PARAMETERS {angstrom}
6.13393000 0.00000000 0.00000000
0.00000000 8.67469000 0.00000000
0.00000000 0.00000000 26.50600000

ATOMIC_POSITIONS {angstrom}
Ga 0.00000000 0.00000000 -3.253081380000001 0 0 0
Ga 0.00000000 2.16867250 -1.0843604599999992 0 0 0
Ga 0.00000000 0.00000000 1.08674600
Ga 0.00000000 2.16867250 3.46937034
Ga 0.00000000 4.33734500 -3.253081380000001 0 0 0
Ga 0.00000000 6.50601750 -1.0843604599999992 0 0 0
Ga 0.00000000 4.33734500 1.08674600
Ga 0.00000000 6.50601750 3.46910528
Ga 3.06696500 0.00000000 -3.253081380000001 0 0 0
Ga 3.06696500 2.16867250 -1.0843604599999992 0 0 0
Ga 3.06696500 0.00000000 1.08674600
Ga 3.06696500 2.16867250 3.46884022
Ga 3.06696500 4.33734500 -3.253081380000001 0 0 0
Ga 3.06696500 6.50601750 -1.0843604599999992 0 0 0
Ga 3.06696500 4.33734500 1.08674600
Ga 3.06696500 6.50601750 3.46857516
Ir 1.53348250 2.16867250 -3.253081380000001 0 0 0
Ir 1.53348250 4.33734500 -1.0843604599999992 0 0 0
Ir 1.53348250 2.16867250 0.99450512
Ir 1.53342116 4.33734500 3.11180440
Ir 1.53348250 6.50601750 -3.253081380000001 0 0 0
Ir 1.53348250 0.00000000 -1.0843604599999992 0 0 0
Ir 1.53348250 6.50601750 0.99450512
Ir 1.53342116 0.00000000 3.11180440
Ir 4.60044750 2.16867250 -3.253081380000001 0 0 0
Ir 4.60044750 4.33734500 -1.0843604599999992 0 0 0
Ir 4.60044750 2.16867250 0.99450512
Ir 4.60050884 4.33734500 3.11180440
Ir 4.60044750 6.50601750 -3.253081380000001 0 0 0
Ir 4.60044750 0.00000000 -1.0843604599999992 0 0 0
Ir 4.60044750 6.50601750 0.99450512
Ir 4.60050884 0.00000000 3.11180440
