&CONTROL
calculation = 'relax'
prefix = 'scf'
pseudo_dir = '/vol0004/mdt0/data/hp150275/u10028/POT_HYBRID_KKJUS_GBRV'
outdir = './data'
tprnfor = .true.
nstep = 50
disk_io = 'non'
/
&SYSTEM
ibrav = 0
ecutwfc = 50.0
ecutrho = 400
occupations = 'smearing'
smearing = 'mp'
degauss = 0.01
assume_isolated = 'esm'
esm_bc = 'bc1'
input_dft = 'BEEF-VDW'
nosym = .true.
nspin = 2
ntyp = 4
nat = 33
starting_magnetization(1) = 0.0
starting_magnetization(2) = 0.1
starting_magnetization(3) = 0.1
starting_magnetization(4) = 0.0
/
&ELECTRONS
electron_maxstep = 300
mixing_beta = 0.1
conv_thr = 1e-06
/
&IONS
ion_dynamics = 'bfgs'
upscale = 1.0
/
&CELL
/

K_POINTS {automatic}
9 6 2 0  0  0

ATOMIC_SPECIES
C 12.01 C.pbe-n-rrkjus_psl.1.0.0.UPF
Co 58.93 co_pbe_v1.2.uspp.F.UPF
Fe 55.84 fe_pbe_v1.5.uspp.F.UPF
Si 28.08 Si.pbe-nl-rrkjus_psl.1.0.0.UPF

CELL_PARAMETERS {angstrom}
5.64511000 0.00000000 0.00000000
0.00000000 7.98338000 0.00000000
0.00000000 0.00000000 25.98750000

ATOMIC_POSITIONS {angstrom}
Fe 0.00000000 0.00000000 -2.9937600000000018 0 0 0
Fe 2.82255500 1.99584500 -0.9979200000000006 0 0 0
Fe 2.82255500 5.98753500 -0.9979200000000006 0 0 0
Fe 0.00000000 3.99169000 -2.9937600000000018 0 0 0
Fe 5.64505355 3.99176983 0.95582025
Fe 2.82255500 5.85924208 3.07873913
Fe 2.82255500 2.12413792 3.07899900
Fe 0.00000000 7.98322033 1.03326300
Co 1.41127750 0.00000000 -0.9979200000000006 0 0 0
Co 4.23383250 3.99169000 -0.9979200000000006 0 0 0
Co 4.23383250 0.00000000 -0.9979200000000006 0 0 0
Co 1.41127750 3.99169000 -0.9979200000000006 0 0 0
Co 4.23383250 5.98753500 -2.9937600000000018 0 0 0
Co 1.41127750 1.99584500 -2.9937600000000018 0 0 0
Co 1.41127750 5.98753500 -2.9937600000000018 0 0 0
Co 4.23383250 1.99584500 -2.9937600000000018 0 0 0
Co 1.28573025 3.99176983 2.92021538
Co 4.02253603 7.98322033 2.87733600
Co 4.35937975 3.99176983 2.92021538
Co 1.62257397 7.98322033 2.87733600
Co 4.23061479 1.99999636 1.00987425
Co 1.41455166 5.98338364 1.00987425
Co 1.41449521 1.99999636 1.00987425
Co 4.23055834 5.98338364 1.00987425
Si 0.00000000 5.98753500 -0.9979200000000006 0 0 0
Si 2.82255500 0.00000000 -2.9937600000000018 0 0 0
Si 0.00000000 1.99584500 -0.9979200000000006 0 0 0
Si 2.82255500 3.99169000 -2.9937600000000018 0 0 0
Si 0.00000000 1.91912472 3.03559987
Si 2.82255500 3.99169000 1.05223387
Si 0.00000000 6.06425528 3.03559987
Si 2.82255500 0.00007983 0.88435462
C 0.00000000 0.00000000 3.60810450
