&CONTROL
calculation = 'relax'
prefix = 'scf'
pseudo_dir = '/vol0004/mdt0/data/hp150275/u10028/POT_KKJUS'
outdir = './data'
tprnfor = .true.
nstep = 50
disk_io = 'non'
/
&SYSTEM
ibrav = 0
ecutwfc = 50.0
ecutrho = 400
occupations = 'smearing'
smearing = 'mp'
degauss = 0.01
assume_isolated = 'esm'
esm_bc = 'bc1'
input_dft = 'BEEF-VDW'
nosym = .true.
nspin = 1
ntyp = 4
nat = 33
/
&ELECTRONS
electron_maxstep = 200
mixing_beta = 0.1
conv_thr = 1e-06
/
&IONS
ion_dynamics = 'bfgs'
upscale = 1.0
/
&CELL
/

K_POINTS {automatic}
8 6 1 0 0 0

ATOMIC_SPECIES
Al 26.98 Al.pbe-nl-rrkjus_psl.1.0.0.UPF
C 12.01 C.pbe-n-rrkjus_psl.1.0.0.UPF
Nb 92.90 Nb.pbe-spn-rrkjus_psl.1.0.0.UPF
Ni 58.69 Ni.pbe-spn-rrkjus_psl.1.0.0.UPF

CELL_PARAMETERS {angstrom}
6.01786000 0.00000000 0.00000000
0.00000000 8.51054000 0.00000000
0.00000000 0.00000000 26.38290000

ATOMIC_POSITIONS {angstrom}
Nb 0.00000000 0.00000000 -3.1915394100000007 0 0 0
Nb 3.00893000 2.12763500 -1.0637585299999976 0 0 0
Nb 3.00893000 6.38290500 -1.0637585299999976 0 0 0
Nb 0.00000000 4.25527000 -3.1915394100000007 0 0 0
Nb 0.00000000 4.25527000 1.06982660
Nb 3.00893000 6.30316124 3.16410120
Nb 3.00893000 2.20737876 3.16410120
Nb 0.00000000 8.51045489 1.12048176
Al 0.00000000 6.38290500 -1.0637585299999976 0 0 0
Al 3.00893000 0.00000000 -3.1915394100000007 0 0 0
Al 0.00000000 2.12763500 -1.0637585299999976 0 0 0
Al 3.00893000 4.25527000 -3.1915394100000007 0 0 0
Al 0.00000000 2.09886937 3.23480737
Al 3.00893000 4.25518489 1.05716280
Al 0.00000000 6.41167063 3.23454354
Al 3.00893000 8.51045489 1.06824362
Ni 1.50446500 0.00000000 -1.0637585299999976 0 0 0
Ni 4.51339500 4.25527000 -1.0637585299999976 0 0 0
Ni 4.51339500 0.00000000 -1.0637585299999976 0 0 0
Ni 1.50446500 4.25527000 -1.0637585299999976 0 0 0
Ni 4.51339500 6.38290500 -3.1915394100000007 0 0 0
Ni 1.50446500 2.12763500 -3.1915394100000007 0 0 0
Ni 1.50446500 6.38290500 -3.1915394100000007 0 0 0
Ni 4.51339500 2.12763500 -3.1915394100000007 0 0 0
Ni 1.44181908 4.25527000 3.10790562
Ni 4.23452737 0.00008511 3.24404138
Ni 4.57604092 4.25527000 3.10790562
Ni 1.78327245 0.00017021 3.24404138
Ni 4.49040677 2.16235800 1.05900961
Ni 1.52745323 6.34801179 1.05900961
Ni 1.52745323 2.16227290 1.05900961
Ni 4.49040677 6.34801179 1.05900961
C 0.00000000 0.00000000 3.41078131
