&CONTROL
calculation = 'relax'
prefix = 'scf'
pseudo_dir = '/vol0004/mdt0/data/hp150275/u10028/POT_HYBRID_KKJUS_GBRV'
outdir = './data'
tprnfor = .true.
nstep = 50
disk_io = 'non'
/
&SYSTEM
ibrav = 0
ecutwfc = 50.0
ecutrho = 400
occupations = 'smearing'
smearing = 'mp'
degauss = 0.01
assume_isolated = 'esm'
esm_bc = 'bc1'
input_dft = 'BEEF-VDW'
nosym = .true.
nspin = 2
ntyp = 3
nat = 32
starting_magnetization(1) = 0.1
starting_magnetization(2) = 0.1
starting_magnetization(3) = 0.0
/
&ELECTRONS
electron_maxstep = 300
mixing_beta = 0.1
conv_thr = 1e-06
/
&IONS
ion_dynamics = 'bfgs'
upscale = 1.0
/
&CELL
/

K_POINTS {automatic}
8 6 1 0 0 0

ATOMIC_SPECIES
Cr 51.99 cr_pbe_v1.5.uspp.F.UPF
Fe 55.84 fe_pbe_v1.5.uspp.F.UPF
Ga 69.72 Ga.pbe-dnl-rrkjus_psl.1.0.0.UPF

CELL_PARAMETERS {angstrom}
6.89656000 0.00000000 0.00000000
0.00000000 9.75322000 0.00000000
0.00000000 0.00000000 27.31490000

ATOMIC_POSITIONS {angstrom}
Cr 0.00000000 0.00000000 -3.6574651100000004 0 0 0
Cr 3.44828000 2.43830500 -1.2190639900000022 0 0 0
Cr 3.44828000 7.31491500 -1.2190639900000022 0 0 0
Cr 0.00000000 4.87661000 -3.6574651100000004 0 0 0
Cr 0.00000000 4.87661000 1.21906399
Cr 3.44828000 7.31491500 3.65746511
Cr 3.44828000 2.43830500 3.65746511
Cr 0.00000000 0.00000000 1.21906399
Ga 0.00000000 7.31491500 -1.2190639900000022 0 0 0
Ga 3.44828000 0.00000000 -3.6574651100000004 0 0 0
Ga 0.00000000 2.43830500 -1.2190639900000022 0 0 0
Ga 3.44828000 4.87661000 -3.6574651100000004 0 0 0
Ga 0.00000000 2.43830500 3.65746511
Ga 3.44828000 4.87661000 1.21906399
Ga 0.00000000 7.31491500 3.65746511
Ga 3.44828000 0.00000000 1.21906399
Fe 1.72414000 0.00000000 -1.2190639900000022 0 0 0
Fe 5.17242000 4.87661000 -1.2190639900000022 0 0 0
Fe 5.17242000 0.00000000 -1.2190639900000022 0 0 0
Fe 1.72414000 4.87661000 -1.2190639900000022 0 0 0
Fe 5.17242000 7.31491500 -3.6574651100000004 0 0 0
Fe 1.72414000 2.43830500 -3.6574651100000004 0 0 0
Fe 1.72414000 7.31491500 -3.6574651100000004 0 0 0
Fe 5.17242000 2.43830500 -3.6574651100000004 0 0 0
Fe 1.72414000 4.87661000 3.65746511
Fe 5.17242000 0.00000000 3.65746511
Fe 5.17242000 4.87661000 3.65746511
Fe 1.72414000 0.00000000 3.65746511
Fe 5.17242000 2.43830500 1.21906399
Fe 1.72414000 7.31491500 1.21906399
Fe 1.72414000 2.43830500 1.21906399
Fe 5.17242000 7.31491500 1.21906399
