&CONTROL
calculation = 'relax'
prefix = 'scf'
pseudo_dir = '/vol0004/mdt0/data/hp150275/u10028/POT_KKJUS'
outdir = './data'
tprnfor = .true.
nstep = 50
disk_io = 'non'
/
&SYSTEM
ibrav = 0
ecutwfc = 50.0
ecutrho = 400
occupations = 'smearing'
smearing = 'mp'
degauss = 0.01
assume_isolated = 'esm'
esm_bc = 'bc1'
input_dft = 'BEEF-VDW'
nosym = .true.
nspin = 1
ntyp = 3
nat = 35
/
&ELECTRONS
electron_maxstep = 200
mixing_beta = 0.1
conv_thr = 1e-06
/
&IONS
ion_dynamics = 'bfgs'
upscale = 1.0
/
&CELL
/

K_POINTS {automatic}
6 6 1 0 0 0

ATOMIC_SPECIES
C 12.01 C.pbe-n-rrkjus_psl.1.0.0.UPF
Y 88.90 Y.pbe-spn-rrkjus_psl.1.0.0.UPF
O 15.99 O.pbe-n-rrkjus_psl.1.0.0.UPF



CELL_PARAMETERS {angstrom}
10.10200000 0.00000000 0.00000000
-0.00000000 10.10200000 0.00000000
0.00000000 0.00000000 27.57650000

ATOMIC_POSITIONS {angstrom}
Y 0.00000000 0.00000000 -3.7881837999999988 0 0 0
Y 2.52550000 2.52550000 -3.7881837999999988 0 0 0
Y 2.52550000 0.00000000 -1.2627279399999978 0 0 0
Y 0.00000000 2.52550000 -1.2627279399999978 0 0 0
Y 0.00000000 0.00000000 1.26272793
Y 2.52550000 2.52550000 1.26272793
Y 2.52550000 -0.00000000 3.78818380
Y 0.00000000 2.52550000 3.78818380
Y 0.00000000 5.05100000 -3.7881837999999988 0 0 0
Y 2.52550000 7.57650000 -3.7881837999999988 0 0 0
Y 2.52550000 5.05100000 -1.2627279399999978 0 0 0
Y 0.00000000 7.57650000 -1.2627279399999978 0 0 0
Y 0.00000000 5.05100000 1.26272793
Y 2.52550000 7.57650000 1.26272793
Y 2.52550000 5.05100000 3.78818380
Y 0.00000000 7.57650000 3.78818380
Y 5.05100000 0.00000000 -3.7881837999999988 0 0 0
Y 7.57650000 2.52550000 -3.7881837999999988 0 0 0
Y 7.57650000 0.00000000 -1.2627279399999978 0 0 0
Y 5.05100000 2.52550000 -1.2627279399999978 0 0 0
Y 5.05100000 -0.00000000 1.26272793
Y 7.57650000 2.52550000 1.26272793
Y 7.57650000 -0.00000000 3.78818380
Y 5.05100000 2.52550000 3.78818380
Y 5.05100000 5.05100000 -3.7881837999999988 0 0 0
Y 7.57650000 7.57650000 -3.7881837999999988 0 0 0
Y 7.57650000 5.05100000 -1.2627279399999978 0 0 0
Y 5.05100000 7.57650000 -1.2627279399999978 0 0 0
Y 5.05100000 5.05100000 1.26272793
Y 7.57650000 7.57650000 1.26272793
Y 7.57650000 5.05100000 3.78818380
Y 5.05100000 7.57650000 3.78818380
C 0.00000000 0.00000000 4.58817807
C 0.00000000 0.00000000 5.98817807
O 0.00000000 0.00000000 6.38817807
