&CONTROL
calculation = 'relax'
prefix = 'scf'
pseudo_dir = '/vol0403/data/hp230205/u10028/POT_HYBRID_KKJUS_GBRV'
outdir = './data'
tprnfor = .true.
nstep = 50
disk_io = 'non'
/
&SYSTEM
ibrav = 0
ecutwfc = 50.0
ecutrho = 400
occupations = 'smearing'
smearing = 'mp'
degauss = 0.01
assume_isolated = 'esm'
esm_bc = 'bc1'
input_dft = 'BEEF-VDW'
nosym = .true.
nspin = 1
ntyp = 6
nat = 18
/
&ELECTRONS
electron_maxstep = 200
mixing_beta = 0.1
conv_thr = 1e-06
/
&IONS
ion_dynamics = 'bfgs'
upscale = 1.0
/
&CELL
/

K_POINTS {automatic}
8 8 1 0 0 0

ATOMIC_SPECIES
C 12.01 C.pbe-n-rrkjus_psl.1.0.0.UPF
Cu 63.54 Cu.pbe-dn-rrkjus_psl.1.0.0.UPF
Li 6.941 Li.pbe-sl-rrkjus_psl.1.0.0.UPF
O 15.99 O.pbe-n-rrkjus_psl.1.0.0.UPF
Pd 106.4 Pd.pbe-n-rrkjus_psl.1.0.0.UPF
Sb 121.7 Sb.pbe-n-rrkjus_psl.1.0.0.UPF


CELL_PARAMETERS {angstrom}
6.37250000 0.00000000 0.00000000
0.00000000 6.37250000 0.00000000
0.00000000 0.00000000 24.77940000

ATOMIC_POSITIONS {angstrom}
Li 1.59312500 1.59312500 -0.7966577099999981 0 0 0
Li 1.59344362 4.77905637 2.39616798
Li 4.77931128 1.59312500 2.45762089
Li 4.77937500 4.77937500 -0.7966577099999981 0 0 0
Cu 0.00000000 0.00000000 -2.3897253399999983 0 0 0
Cu 6.37058825 3.18408335 0.90965177
Cu 3.18835293 0.00197548 0.90989957
Cu 3.18625000 3.18625000 -2.3897253399999983 0 0 0
Sb 4.77937500 1.59312500 -0.7966577099999981 0 0 0
Sb 4.77950245 4.77924755 2.41500032
Sb 1.59325245 1.59306128 2.41524812
Sb 1.59312500 4.77937500 -0.7966577099999981 0 0 0
Pd 0.00000000 3.18625000 -2.3897253399999983 0 0 0
Pd 6.36759317 0.00503428 0.87471282
Pd 3.19122055 3.18115200 0.87471282
Pd 3.18625000 0.00000000 -2.3897253399999983 0 0 0
C 4.77797305 1.59420833 4.59806546
O 4.77797305 1.59414460 5.73543992
