&CONTROL
calculation = 'relax'
prefix = 'scf'
pseudo_dir = '/vol0004/mdt0/data/hp150275/u10028/POT_KKJUS'
outdir = './data'
tprnfor = .true.
nstep = 50
disk_io = 'non'
/
&SYSTEM
ibrav = 0
ecutwfc = 50.0
ecutrho = 400
occupations = 'smearing'
smearing = 'mp'
degauss = 0.01
assume_isolated = 'esm'
esm_bc = 'bc1'
input_dft = 'BEEF-VDW'
nosym = .true.
nspin = 1
ntyp = 4
nat = 18
/
&ELECTRONS
electron_maxstep = 200
mixing_beta = 0.1
conv_thr = 1e-06
/
&IONS
ion_dynamics = 'bfgs'
upscale = 1.0
/
&CELL
/

K_POINTS {automatic}
6 8 1 0 0 0

ATOMIC_SPECIES
C 12.01 C.pbe-n-rrkjus_psl.1.0.0.UPF
O 15.99 O.pbe-n-rrkjus_psl.1.0.0.UPF
Sn 118.7 Sn.pbe-dn-rrkjus_psl.1.0.0.UPF
Y 88.90 Y.pbe-spn-rrkjus_psl.1.0.0.UPF

CELL_PARAMETERS {angstrom}
9.50155000 0.00000000 0.00000000
0.00000000 6.71861000 0.00000000
0.00000000 0.00000000 25.03900000

ATOMIC_POSITIONS {angstrom}
Y 0.00000000 0.00000000 -2.5194241800000015 0 0 0
Y 9.42221206 3.35675193 0.77095081
Y 4.75077500 0.00000000 -2.5194241800000015 0 0 0
Y 4.83020796 3.35681911 0.77095081
Sn 0.00000000 3.35930500 -2.5194241800000015 0 0 0
Sn 2.37538750 5.03895750 -0.8398080600000029 0 0 0
Sn 2.37538750 1.67965250 -0.8398080600000029 0 0 0
Sn 9.44368556 6.71390697 0.88462787
Sn 2.37538750 1.60218693 2.34415118
Sn 2.37538750 5.10278429 2.36217926
Sn 4.75077500 3.35930500 -2.5194241800000015 0 0 0
Sn 7.12616250 5.03895750 -0.8398080600000029 0 0 0
Sn 7.12616250 1.67965250 -0.8398080600000029 0 0 0
Sn 4.80863944 6.71390697 0.88462787
Sn 7.12616250 1.50866388 2.51066053
Sn 7.12616250 5.20107756 2.51116131
C 2.37529248 2.25066716 5.91321024
O 2.37538750 1.46291014 6.73123437
