&CONTROL
calculation = 'relax'
prefix = 'scf'
pseudo_dir = '/vol0004/mdt0/data/hp150275/u10028/POT_HYBRID_KKJUS_GBRV'
outdir = './data'
tprnfor = .true.
nstep = 50
disk_io = 'non'
/
&SYSTEM
ibrav = 0
ecutwfc = 50.0
ecutrho = 400
occupations = 'smearing'
smearing = 'mp'
degauss = 0.01
assume_isolated = 'esm'
esm_bc = 'bc1'
input_dft = 'BEEF-VDW'
nosym = .true.
nspin = 2
ntyp = 5
nat = 34
starting_magnetization(1) = 0.0
starting_magnetization(2) = 0.1
starting_magnetization(3) = 0.1
starting_magnetization(4) = 0.0
starting_magnetization(5) = 0.0
/
&ELECTRONS
electron_maxstep = 300
mixing_beta = 0.1
conv_thr = 1e-06
/
&IONS
ion_dynamics = 'bfgs'
upscale = 1.0
/
&CELL
/

K_POINTS {automatic}
8 6 1 0 0 0

ATOMIC_SPECIES
C 12.01 C.pbe-n-rrkjus_psl.1.0.0.UPF
Co 58.93 co_pbe_v1.2.uspp.F.UPF
Mn 54.93 mn_pbe_v1.5.uspp.F.UPF
O 15.99 O.pbe-n-rrkjus_psl.1.0.0.UPF
Sn 118.7 Sn.pbe-dn-rrkjus_psl.1.0.0.UPF

CELL_PARAMETERS {angstrom}
6.01864000 0.00000000 0.00000000
0.00000000 8.51164000 0.00000000
0.00000000 0.00000000 26.38370000

ATOMIC_POSITIONS {angstrom}
Mn 0.00000000 0.00000000 -3.1919000299999993 0 0 0
Mn 3.00932000 2.12791000 -1.0640546200000003 0 0 0
Mn 3.00932000 6.38373000 -1.0640546200000003 0 0 0
Mn 0.00000000 4.25582000 -3.1919000299999993 0 0 0
Mn 0.00024075 4.25582000 1.05429265
Mn 3.02454716 6.30601873 3.14256251
Mn 3.02454716 2.20562127 3.14256251
Mn 6.01340378 0.00000000 1.09782576
Co 1.50466000 0.00000000 -1.0640546200000003 0 0 0
Co 4.51398000 4.25582000 -1.0640546200000003 0 0 0
Co 4.51398000 0.00000000 -1.0640546200000003 0 0 0
Co 1.50466000 4.25582000 -1.0640546200000003 0 0 0
Co 4.51398000 6.38373000 -3.1919000299999993 0 0 0
Co 1.50466000 2.12791000 -3.1919000299999993 0 0 0
Co 1.50466000 6.38373000 -3.1919000299999993 0 0 0
Co 4.51398000 2.12791000 -3.1919000299999993 0 0 0
Co 1.44983019 4.25582000 3.09137813
Co 4.47359493 0.00000000 3.16973772
Co 4.58752778 4.25582000 3.10958288
Co 1.62810231 0.00000000 3.19401072
Co 4.55292060 2.12535651 1.10415785
Co 1.47191860 6.38687931 1.10494936
Co 1.47191860 2.12476069 1.10494936
Co 4.55292060 6.38628349 1.10415785
Sn 0.00000000 6.38373000 -1.0640546200000003 0 0 0
Sn 3.00932000 0.00000000 -3.1919000299999993 0 0 0
Sn 0.00000000 2.12791000 -1.0640546200000003 0 0 0
Sn 3.00932000 4.25582000 -3.1919000299999993 0 0 0
Sn 0.02515792 2.07947877 3.38476487
Sn 3.01569976 4.25582000 1.04083697
Sn 0.02515792 6.43216123 3.38476487
Sn 3.01299137 0.00000000 1.02078535
C 2.62966419 0.00000000 4.64062899
O 3.10351172 0.00000000 5.72262453
