&CONTROL
calculation = 'relax'
prefix = 'scf'
pseudo_dir = '/vol0403/data/hp230205/u10028/POT_HYBRID_KKJUS_GBRV'
outdir = './data'
tprnfor = .true.
nstep = 50
disk_io = 'non'
/
&SYSTEM
ibrav = 0
ecutwfc = 50.0
ecutrho = 400
occupations = 'smearing'
smearing = 'mp'
degauss = 0.01
assume_isolated = 'esm'
esm_bc = 'bc1'
input_dft = 'BEEF-VDW'
nosym = .true.
nspin = 1
ntyp = 6
nat = 18
/
&ELECTRONS
electron_maxstep = 200
mixing_beta = 0.1
conv_thr = 1e-06
/
&IONS
ion_dynamics = 'bfgs'
upscale = 1.0
/
&CELL
/

K_POINTS {automatic}
8 8 1 0 0 0

ATOMIC_SPECIES
C 12.01 C.pbe-n-rrkjus_psl.1.0.0.UPF
In 114.8 In.pbe-dn-rrkjus_psl.1.0.0.UPF
Li 6.941 Li.pbe-sl-rrkjus_psl.1.0.0.UPF
O 15.99 O.pbe-n-rrkjus_psl.1.0.0.UPF
Pt 195.0 Pt.pbe-n-rrkjus_psl.1.0.0.UPF
Y 88.90 Y.pbe-spn-rrkjus_psl.1.0.0.UPF


CELL_PARAMETERS {angstrom}
6.80323000 0.00000000 0.00000000
0.00000000 6.80323000 0.00000000
0.00000000 0.00000000 25.10240000

ATOMIC_POSITIONS {angstrom}
Li 5.10242250 1.70080750 -0.8504693100000011 0 0 0
Li 5.11596093 5.07623006 3.12248754
Li 1.72699994 1.68726907 3.12248754
Li 1.70080750 5.10242250 -0.8504693100000011 0 0 0
Y 0.00000000 3.40161500 -2.5511569099999996 0 0 0
Y 6.79751529 0.00571471 0.85900413
Y 3.40440432 3.39882568 0.85423467
Y 3.40161500 0.00000000 -2.5511569099999996 0 0 0
In 0.00000000 0.00000000 -2.5511569099999996 0 0 0
In 6.76336307 3.35773417 0.89565363
In 3.44556387 0.03993496 0.89565363
In 3.40161500 3.40161500 -2.5511569099999996 0 0 0
Pt 1.70080750 1.70080750 -0.8504693100000011 0 0 0
Pt 1.69944685 5.10378315 2.27653666
Pt 5.09378240 1.70944760 2.52981987
Pt 5.10242250 5.10242250 -0.8504693100000011 0 0 0
C 5.08439394 1.71883606 4.44513299
O 5.08976849 1.71346151 5.61139050
