&CONTROL
calculation = 'relax'
prefix = 'scf'
pseudo_dir = '/vol0403/data/hp230205/u10028/POT_HYBRID_KKJUS_GBRV'
outdir = './data'
tprnfor = .true.
nstep = 50
disk_io = 'non'
/
&SYSTEM
ibrav = 0
ecutwfc = 50.0
ecutrho = 400
occupations = 'smearing'
smearing = 'mp'
degauss = 0.01
assume_isolated = 'esm'
esm_bc = 'bc1'
input_dft = 'BEEF-VDW'
nosym = .true.
nspin = 2
ntyp = 6
nat = 34
starting_magnetization(1) = 0.0
starting_magnetization(2) = 0.0
starting_magnetization(3) = 0.0
starting_magnetization(4) = 0.001
starting_magnetization(5) = 0.0
starting_magnetization(6) = 0.0
/
&ELECTRONS
electron_maxstep = 400
mixing_beta = 0.05
conv_thr = 1e-06
/
&IONS
ion_dynamics = 'bfgs'
upscale = 1.0
/
&CELL
/

K_POINTS {automatic}
6 6 1 0 0 0

ATOMIC_SPECIES
C 12.01 C.pbe-n-rrkjus_psl.1.0.0.UPF
Ge 72.64 Ge.pbe-dn-rrkjus_psl.1.0.0.UPF
Li 6.941 Li.pbe-sl-rrkjus_psl.1.0.0.UPF
Ni 58.69 ni_pbe_v1.4.uspp.F.UPF
O 15.99 O.pbe-n-rrkjus_psl.1.0.0.UPF
Pd 106.4 Pd.pbe-n-rrkjus_psl.1.0.0.UPF


CELL_PARAMETERS {angstrom}
5.93854000 0.00000000 0.00000000
0.00000000 8.39836000 0.00000000
0.00000000 0.00000000 26.29880000

ATOMIC_POSITIONS {angstrom}
Li 0.00000000 2.09959000 -1.0498480999999984 0 0 0
Li 0.00000000 6.29877000 -1.0498480999999984 0 0 0
Li 2.96927000 4.19918000 -3.1492812999999984 0 0 0
Li 2.96927000 0.00000000 -3.1492812999999984 0 0 0
Li 5.85611306 6.26030551 3.51956840
Li 5.85611306 2.13797051 3.51956840
Li 2.95757108 0.00000000 1.00724404
Li 2.93233228 4.19918000 0.95859126
Ni 4.45390500 0.00000000 -1.0498480999999984 0 0 0
Ni 4.45390500 4.19918000 -1.0498480999999984 0 0 0
Ni 1.48463500 2.09959000 -3.1492812999999984 0 0 0
Ni 1.48463500 6.29877000 -3.1492812999999984 0 0 0
Ni 4.26416865 4.19909602 2.93126425
Ni 4.38887799 8.39827602 3.15007026
Ni 1.44965700 6.31237534 1.05721176
Ni 1.44977577 2.08606864 1.05747475
Ge 0.00000000 0.00000000 -3.1492812999999984 0 0 0
Ge 0.00000000 4.19918000 -3.1492812999999984 0 0 0
Ge 2.96927000 6.29877000 -1.0498480999999984 0 0 0
Ge 2.96927000 2.09959000 -1.0498480999999984 0 0 0
Ge 5.90742205 4.19918000 1.08745538
Ge 5.93681782 0.00008398 1.04038053
Ge 2.95935264 2.12764052 3.18346974
Ge 2.95935264 6.27063549 3.18346974
Pd 1.48463500 0.00000000 -1.0498480999999984 0 0 0
Pd 1.48463500 4.19918000 -1.0498480999999984 0 0 0
Pd 4.45390500 2.09959000 -3.1492812999999984 0 0 0
Pd 4.45390500 6.29877000 -3.1492812999999984 0 0 0
Pd 1.52703618 4.19918000 3.04014128
Pd 1.56919981 8.39827602 3.04461208
Pd 4.44903540 6.33143962 1.08456251
Pd 4.44897601 2.06692038 1.08429952
C 5.08903185 8.39827602 4.76639451
O 5.33981640 8.39827602 5.90513255
