&CONTROL
calculation = 'relax'
prefix = 'scf'
pseudo_dir = '/vol0004/mdt0/data/hp150275/u10028/POT_KKJUS'
outdir = './data'
tprnfor = .true.
nstep = 50
disk_io = 'non'
/
&SYSTEM
ibrav = 0
ecutwfc = 50.0
ecutrho = 400
occupations = 'smearing'
smearing = 'mp'
degauss = 0.01
assume_isolated = 'esm'
esm_bc = 'bc1'
input_dft = 'BEEF-VDW'
nosym = .true.
nspin = 1
ntyp = 4
nat = 18
/
&ELECTRONS
electron_maxstep = 200
mixing_beta = 0.1
conv_thr = 1e-06
/
&IONS
ion_dynamics = 'bfgs'
upscale = 1.0
/
&CELL
/

K_POINTS {automatic}
8 11 2 0  0  0

ATOMIC_SPECIES
C 12.01 C.pbe-n-rrkjus_psl.1.0.0.UPF
Cu 63.54 Cu.pbe-dn-rrkjus_psl.1.0.0.UPF
O 15.99 O.pbe-n-rrkjus_psl.1.0.0.UPF
Pt 195.0 Pt.pbe-n-rrkjus_psl.1.0.0.UPF

CELL_PARAMETERS {angstrom}
7.52549000 0.00000000 0.00000000
0.00000000 5.32133000 0.00000000
0.00000000 0.00000000 23.99100000

ATOMIC_POSITIONS {angstrom}
Cu 0.00000000 2.66066500 1.96558263
Cu 1.88302811 3.99296639 0.67966503
Cu 1.88302811 1.32841682 0.67966503
Cu 0.00000000 0.00000000 -0.6652704299999996 0 0 0
Cu 1.88137250 1.33033250 -1.9955713800000012 0 0 0
Cu 1.88137250 3.99099750 -1.9955713800000012 0 0 0
Cu 3.76274500 2.66066500 1.93487415
Cu 5.64238664 3.99291318 0.67966503
Cu 5.64246189 1.32836361 0.67966503
Cu 3.76274500 0.00000000 -0.6652704299999996 0 0 0
Cu 5.64411750 1.33033250 -1.9955713800000012 0 0 0
Cu 5.64411750 3.99099750 -1.9955713800000012 0 0 0
Pt 0.00000000 0.00000000 1.92071946
Pt 0.00000000 2.66066500 -0.6652704299999996 0 0 0
Pt 3.76274500 0.00000000 1.92239883
Pt 3.76274500 2.66066500 -0.6652704299999996 0 0 0
C 0.00000000 2.66066500 3.81648828
O 0.00000000 2.66066500 4.96133880
