&CONTROL
calculation = 'relax'
prefix = 'scf'
pseudo_dir = '/vol0004/mdt0/data/hp150275/u10028/POT_KKJUS'
outdir = './data'
tprnfor = .true.
nstep = 50
disk_io = 'non'
/
&SYSTEM
ibrav = 0
ecutwfc = 50.0
ecutrho = 400
occupations = 'smearing'
smearing = 'mp'
degauss = 0.01
assume_isolated = 'esm'
esm_bc = 'bc1'
input_dft = 'BEEF-VDW'
nosym = .true.
nspin = 1
ntyp = 4
nat = 33
/
&ELECTRONS
electron_maxstep = 200
mixing_beta = 0.1
conv_thr = 1e-06
/
&IONS
ion_dynamics = 'bfgs'
upscale = 1.0
/
&CELL
/

K_POINTS {automatic}
8 6 1 0 0 0

ATOMIC_SPECIES
Au 196.9 Au.pbe-n-rrkjus_psl.1.0.0.UPF
C 12.01 C.pbe-n-rrkjus_psl.1.0.0.UPF
In 114.8 In.pbe-dn-rrkjus_psl.1.0.0.UPF
Y 88.90 Y.pbe-spn-rrkjus_psl.1.0.0.UPF

CELL_PARAMETERS {angstrom}
7.06522000 0.00000000 0.00000000
0.00000000 9.99173000 0.00000000
0.00000000 0.00000000 27.49380000

ATOMIC_POSITIONS {angstrom}
Y 0.00000000 0.00000000 -3.7468550600000015 0 0 0
Y 3.53261000 2.49793250 -1.2490433299999992 0 0 0
Y 3.53261000 7.49379750 -1.2490433299999992 0 0 0
Y 0.00000000 4.99586500 -3.7468550600000015 0 0 0
Y 0.00000000 4.99586500 1.35187015
Y 3.53261000 7.65336543 3.59343966
Y 3.53261000 2.33836457 3.59343966
Y 0.00000000 0.00000000 1.36616692
In 0.00000000 7.49379750 -1.2490433299999992 0 0 0
In 3.53261000 0.00000000 -3.7468550600000015 0 0 0
In 0.00000000 2.49793250 -1.2490433299999992 0 0 0
In 3.53261000 4.99586500 -3.7468550600000015 0 0 0
In 0.00000000 2.63232127 3.87965012
In 3.53261000 4.99586500 1.18855697
In 0.00000000 7.35930881 3.87965012
In 3.53261000 0.00000000 1.23749594
Au 1.76630500 0.00000000 -1.2490433299999992 0 0 0
Au 5.29891500 4.99586500 -1.2490433299999992 0 0 0
Au 5.29891500 0.00000000 -1.2490433299999992 0 0 0
Au 1.76630500 4.99586500 -1.2490433299999992 0 0 0
Au 5.29891500 7.49379750 -3.7468550600000015 0 0 0
Au 1.76630500 2.49793250 -3.7468550600000015 0 0 0
Au 1.76630500 7.49379750 -3.7468550600000015 0 0 0
Au 5.29891500 2.49793250 -3.7468550600000015 0 0 0
Au 1.86846808 4.99586500 3.77957269
Au 5.67344231 0.00000000 4.09355188
Au 5.19675192 4.99586500 3.77957269
Au 1.39177769 0.00000000 4.09355188
Au 5.34243676 2.50292837 1.21110189
Au 1.72278324 7.48880164 1.21110189
Au 1.72278324 2.50292837 1.21110189
Au 5.34243676 7.48880164 1.21110189
C 3.53261000 0.00000000 3.63797962
