&CONTROL
calculation = 'relax'
prefix = 'scf'
pseudo_dir = '/vol0403/data/hp230205/u10028/POT_HYBRID_KKJUS_GBRV'
outdir = './data'
tprnfor = .true.
nstep = 50
disk_io = 'non'
/
&SYSTEM
ibrav = 0
ecutwfc = 50.0
ecutrho = 400
occupations = 'smearing'
smearing = 'mp'
degauss = 0.01
assume_isolated = 'esm'
esm_bc = 'bc1'
input_dft = 'BEEF-VDW'
nosym = .true.
nspin = 1
ntyp = 6
nat = 34
/
&ELECTRONS
electron_maxstep = 200
mixing_beta = 0.1
conv_thr = 1e-06
/
&IONS
ion_dynamics = 'bfgs'
upscale = 1.0
/
&CELL
/

K_POINTS {automatic}
6 6 1 0 0 0

ATOMIC_SPECIES
Ag 107.8 Ag.pbe-n-rrkjus_psl.1.0.0.UPF
Al 26.98 Al.pbe-nl-rrkjus_psl.1.0.0.UPF
C 12.01 C.pbe-n-rrkjus_psl.1.0.0.UPF
Li 6.941 Li.pbe-sl-rrkjus_psl.1.0.0.UPF
O 15.99 O.pbe-n-rrkjus_psl.1.0.0.UPF
Sn 118.7 Sn.pbe-dn-rrkjus_psl.1.0.0.UPF


CELL_PARAMETERS {angstrom}
8.66686000 0.00000000 0.00000000
0.00000000 8.16098000 0.00000000
0.00000000 0.00000000 26.42010000

ATOMIC_POSITIONS {angstrom}
Li 0.01490700 2.04024500 1.12338265
Li 0.00000000 2.04024500 -3.210042150000003 0 0 0
Li 8.66547330 6.12073500 1.04544336
Li 0.00000000 6.12073500 -3.210042150000003 0 0 0
Li 4.31852300 2.04024500 1.12338265
Li 4.33343000 2.04024500 -3.210042150000003 0 0 0
Li 4.33490337 6.12073500 1.04544336
Li 4.33343000 6.12073500 -3.210042150000003 0 0 0
Al 2.16671500 2.04024500 3.15825875
Al 2.16671500 2.04024500 -1.070014050000001 0 0 0
Al 2.16671500 6.12073500 3.31070273
Al 2.16671500 6.12073500 -1.070014050000001 0 0 0
Al 6.50014500 2.04024500 3.35112548
Al 6.50014500 2.04024500 -1.070014050000001 0 0 0
Al 6.50014500 6.12073500 3.30964593
Al 6.50014500 6.12073500 -1.070014050000001 0 0 0
Ag 8.63834603 8.10940261 3.26499596
Ag 0.00000000 0.00000000 -1.070014050000001 0 0 0
Ag 8.63834603 4.13206739 3.26499596
Ag 0.00000000 4.08049000 -1.070014050000001 0 0 0
Ag 4.36194397 8.10940261 3.26499596
Ag 4.33343000 0.00000000 -1.070014050000001 0 0 0
Ag 4.36185730 4.13206739 3.26499596
Ag 4.33343000 4.08049000 -1.070014050000001 0 0 0
Sn 2.16671500 8.14041433 1.07159926
Sn 2.16671500 0.00000000 -3.210042150000003 0 0 0
Sn 2.16671500 4.10105567 1.07186346
Sn 2.16671500 4.08049000 -3.210042150000003 0 0 0
Sn 6.50014500 0.01036444 1.05231258
Sn 6.50014500 0.00000000 -3.210042150000003 0 0 0
Sn 6.50014500 4.07004395 1.05231258
Sn 6.50014500 4.08049000 -3.210042150000003 0 0 0
C 2.16671500 2.04024500 5.14135146
O 2.16671500 2.04024500 6.29617403
