&CONTROL
calculation = 'relax'
prefix = 'scf'
pseudo_dir = '/vol0004/mdt0/data/hp150275/u10028/POT_KKJUS'
outdir = './data'
tprnfor = .true.
nstep = 50
disk_io = 'non'
/
&SYSTEM
ibrav = 0
ecutwfc = 50.0
ecutrho = 400
occupations = 'smearing'
smearing = 'mp'
degauss = 0.01
assume_isolated = 'esm'
esm_bc = 'bc1'
input_dft = 'BEEF-VDW'
nosym = .true.
nspin = 1
ntyp = 3
nat = 33
/
&ELECTRONS
electron_maxstep = 200
mixing_beta = 0.1
conv_thr = 1e-06
/
&IONS
ion_dynamics = 'bfgs'
upscale = 1.0
/
&CELL
/

K_POINTS {automatic}
8 6 1 0 0 0

ATOMIC_SPECIES
C 12.01 C.pbe-n-rrkjus_psl.1.0.0.UPF
Ga 69.72 Ga.pbe-dnl-rrkjus_psl.1.0.0.UPF
Rh 102.9 Rh.pbe-spn-rrkjus_psl.1.0.0.UPF

CELL_PARAMETERS {angstrom}
6.09666000 0.00000000 0.00000000
0.00000000 8.62198000 0.00000000
0.00000000 0.00000000 26.46650000

ATOMIC_POSITIONS {angstrom}
Ga 0.00000000 0.00000000 -3.2331476399999985 0 0 0
Ga 0.00000000 2.15549500 -1.0777158799999995 0 0 0
Ga 6.07983322 0.00275903 1.07506923
Ga 5.77054966 2.15549500 3.66111095
Ga 0.00000000 4.31099000 -3.2331476399999985 0 0 0
Ga 0.00000000 6.46648500 -1.0777158799999995 0 0 0
Ga 6.07983322 4.30823097 1.07506923
Ga 0.04328629 6.46648500 3.41788381
Ga 3.04833000 0.00000000 -3.2331476399999985 0 0 0
Ga 3.04833000 2.15549500 -1.0777158799999995 0 0 0
Ga 3.06418132 0.00275903 1.07506923
Ga 3.36547825 2.15549500 3.65555298
Ga 3.04833000 4.31099000 -3.2331476399999985 0 0 0
Ga 3.04833000 6.46648500 -1.0777158799999995 0 0 0
Ga 3.06418132 4.30823097 1.07506923
Ga 3.00193442 6.46648500 3.41814847
Rh 1.52416500 2.15549500 -3.2331476399999985 0 0 0
Rh 1.52416500 0.00000000 -1.0777158799999995 0 0 0
Rh 1.52264084 2.15549500 1.04383876
Rh 1.52203117 8.62077292 3.06614402
Rh 1.52416500 6.46648500 -3.2331476399999985 0 0 0
Rh 1.52416500 4.31099000 -1.0777158799999995 0 0 0
Rh 1.52361630 6.46648500 1.02981152
Rh 1.52203117 4.31219708 3.06614402
Rh 4.57249500 2.15549500 -3.2331476399999985 0 0 0
Rh 4.57249500 0.00000000 -1.0777158799999995 0 0 0
Rh 4.57133663 2.15549500 1.01816625
Rh 4.57066600 8.53317361 3.11510705
Rh 4.57249500 6.46648500 -3.2331476399999985 0 0 0
Rh 4.57249500 4.31099000 -1.0777158799999995 0 0 0
Rh 4.57206823 6.46648500 0.99222909
Rh 4.57066600 4.39979639 3.11510705
C 1.51831221 2.15549500 3.20482849
