&CONTROL
calculation = 'relax'
prefix = 'scf'
pseudo_dir = '/vol0004/mdt0/data/hp150275/u10028/POT_HYBRID_KKJUS_GBRV'
outdir = './data'
tprnfor = .true.
nstep = 50
disk_io = 'non'
/
&SYSTEM
ibrav = 0
ecutwfc = 50.0
ecutrho = 400
occupations = 'smearing'
smearing = 'mp'
degauss = 0.01
assume_isolated = 'esm'
esm_bc = 'bc1'
input_dft = 'BEEF-VDW'
nosym = .true.
nspin = 2
ntyp = 5
nat = 34
starting_magnetization(1) = 0.0
starting_magnetization(2) = 0.0
starting_magnetization(3) = 0.001
starting_magnetization(4) = 0.0
starting_magnetization(5) = 0.0
/
&ELECTRONS
electron_maxstep = 200
mixing_beta = 0.1
conv_thr = 1e-06
/
&IONS
ion_dynamics = 'bfgs'
upscale = 1.0
/
&CELL
/

K_POINTS {automatic}
9 6 2 0  0  0

ATOMIC_SPECIES
C 12.01 C.pbe-n-rrkjus_psl.1.0.0.UPF
Ge 72.64 Ge.pbe-dn-rrkjus_psl.1.0.0.UPF
Ni 58.69 ni_pbe_v1.4.uspp.F.UPF
O 15.99 O.pbe-n-rrkjus_psl.1.0.0.UPF
Zn 65.40 Zn.pbe-dnl-rrkjus_psl.1.0.0.UPF

CELL_PARAMETERS {angstrom}
5.88011000 0.00000000 0.00000000
0.00000000 8.31574000 0.00000000
0.00000000 0.00000000 26.23680000

ATOMIC_POSITIONS {angstrom}
Zn 0.00000000 0.00000000 23.11829395
Zn 2.94005500 2.07893500 25.19729798
Zn 2.94005500 6.23680500 25.19729798
Zn 0.00000000 4.15787000 23.11829395
Zn 0.00005880 4.15994894 0.97364765
Zn 2.94011380 6.23946604 3.31292074
Zn 2.94011380 2.07668975 3.31423258
Zn 0.00000000 8.31565684 0.97627133
Ni 1.47002750 0.00000000 25.19729798
Ni 4.41008250 4.15787000 25.19729798
Ni 4.41008250 0.00000000 25.19729798
Ni 1.47002750 4.15787000 25.19729798
Ni 4.41008250 6.23680500 23.11829395
Ni 1.47002750 2.07893500 23.11829395
Ni 1.47002750 6.23680500 23.11829395
Ni 4.41008250 2.07893500 23.11829395
Ni 1.40505228 4.16227734 2.96790682
Ni 4.47546932 8.30892109 2.96869392
Ni 4.47517532 4.16219418 2.96790682
Ni 1.40481708 8.30900425 2.96843155
Ni 4.39408860 2.07610765 1.01169101
Ni 1.48296374 6.24137866 1.01064154
Ni 1.48613900 2.07610765 1.01169101
Ni 4.39720506 6.24137866 1.01064154
Ge 0.00000000 6.23680500 25.19729798
Ge 2.94005500 0.00000000 23.11829395
Ge 0.00000000 2.07893500 25.19729798
Ge 2.94005500 4.15787000 23.11829395
Ge 0.00005880 2.08034868 3.15759888
Ge 2.94011380 4.16360786 1.08489168
Ge 0.00000000 6.23389449 3.17885069
Ge 2.94005500 8.31041793 1.07780774
C 5.87658193 2.07810343 7.12722672
O 0.00058801 2.07826974 8.26223069
