&CONTROL
calculation = 'relax'
prefix = 'scf'
pseudo_dir = '/vol0004/mdt0/data/hp150275/u10028/POT_KKJUS'
outdir = './data'
tprnfor = .true.
nstep = 50
disk_io = 'non'
/
&SYSTEM
ibrav = 0
ecutwfc = 50.0
ecutrho = 400
occupations = 'smearing'
smearing = 'mp'
degauss = 0.01
assume_isolated = 'esm'
esm_bc = 'bc1'
input_dft = 'BEEF-VDW'
nosym = .true.
nspin = 1
ntyp = 4
nat = 33
/
&ELECTRONS
electron_maxstep = 200
mixing_beta = 0.1
conv_thr = 1e-06
/
&IONS
ion_dynamics = 'bfgs'
upscale = 1.0
/
&CELL
/

K_POINTS {automatic}
8 6 1 0 0 0

ATOMIC_SPECIES
C 12.01 C.pbe-n-rrkjus_psl.1.0.0.UPF
Li 6.941 Li.pbe-sl-rrkjus_psl.1.0.0.UPF
Ni 58.69 Ni.pbe-spn-rrkjus_psl.1.0.0.UPF
Si 28.08 Si.pbe-nl-rrkjus_psl.1.0.0.UPF

CELL_PARAMETERS {angstrom}
5.57854000 0.00000000 0.00000000
0.00000000 7.88925000 0.00000000
0.00000000 0.00000000 25.91690000

ATOMIC_POSITIONS {angstrom}
Li 0.00000000 0.00000000 -2.9584141299999978 0 0 0
Li 2.78927000 1.97231250 -0.9861380499999974 0 0 0
Li 2.78927000 5.91693750 -0.9861380499999974 0 0 0
Li 0.00000000 3.94462500 -2.9584141299999978 0 0 0
Li 0.01667983 3.94407275 0.94441184
Li 2.73058376 5.91701639 3.59856156
Li 3.08443055 1.97239139 4.30479709
Li 0.01673562 0.00063114 0.94441184
Si 0.00000000 5.91693750 -0.9861380499999974 0 0 0
Si 2.78927000 0.00000000 -2.9584141299999978 0 0 0
Si 0.00000000 1.97231250 -0.9861380499999974 0 0 0
Si 2.78927000 3.94462500 -2.9584141299999978 0 0 0
Si 5.22073244 1.97239139 2.91927962
Si 2.78865636 3.95440767 0.95659278
Si 0.01790711 5.91693750 2.87910842
Si 2.78865636 7.87954622 0.95659278
Ni 1.39463500 0.00000000 -0.9861380499999974 0 0 0
Ni 4.18390500 3.94462500 -0.9861380499999974 0 0 0
Ni 4.18390500 0.00000000 -0.9861380499999974 0 0 0
Ni 1.39463500 3.94462500 -0.9861380499999974 0 0 0
Ni 4.18390500 5.91693750 -2.9584141299999978 0 0 0
Ni 1.39463500 1.97231250 -2.9584141299999978 0 0 0
Ni 1.39463500 5.91693750 -2.9584141299999978 0 0 0
Ni 4.18390500 1.97231250 -2.9584141299999978 0 0 0
Ni 1.42671160 3.85050625 2.87392504
Ni 4.19623357 7.81982460 2.81379783
Ni 4.19612200 4.01405040 2.81379783
Ni 1.42671160 0.09411875 2.87392504
Ni 4.12616711 1.97223361 0.91901327
Ni 1.45415802 5.91701639 1.05170780
Ni 1.42392233 1.97239139 1.04056353
Ni 4.16120034 5.91685861 0.98199134
C 1.43982117 1.97239139 3.17870778
