&CONTROL
calculation = 'relax'
prefix = 'scf'
pseudo_dir = '/vol0403/data/hp230205/u10028/POT_HYBRID_KKJUS_GBRV'
outdir = './data'
tprnfor = .true.
nstep = 70
disk_io = 'non'
/
&SYSTEM
ibrav = 0
ecutwfc = 50.0
ecutrho = 400
occupations = 'smearing'
smearing = 'mp'
degauss = 0.01
assume_isolated = 'esm'
esm_bc = 'bc1'
input_dft = 'BEEF-VDW'
nosym = .true.
nspin = 1
ntyp = 6
nat = 34
/
&ELECTRONS
electron_maxstep = 200
mixing_beta = 0.1
conv_thr = 1e-06
/
&IONS
ion_dynamics = 'bfgs'
upscale = 1.0
/
&CELL
/

K_POINTS {automatic}
9 6 2 0  0  0

ATOMIC_SPECIES
Au 196.9 Au.pbe-n-rrkjus_psl.1.0.0.UPF
C 12.01 C.pbe-n-rrkjus_psl.1.0.0.UPF
Cu 63.54 Cu.pbe-dn-rrkjus_psl.1.0.0.UPF
In 114.8 In.pbe-dn-rrkjus_psl.1.0.0.UPF
Li 6.941 Li.pbe-sl-rrkjus_psl.1.0.0.UPF
O 15.99 O.pbe-n-rrkjus_psl.1.0.0.UPF


CELL_PARAMETERS {angstrom}
6.41124000 0.00000000 0.00000000
-0.00000000 9.06686000 0.00000000
0.00000000 0.00000000 26.80010000

ATOMIC_POSITIONS {angstrom}
Li 4.80843000 0.00000000 -1.1333762299999997 0 0 0
Li 4.80843000 4.53343000 -1.1333762299999997 0 0 0
Li 1.60281000 2.26671500 -3.400128689999999 0 0 0
Li 1.60281000 6.80014500 -3.400128689999999 0 0 0
Li 4.14653358 4.53343000 4.44747659
Li 4.78464430 -0.00000000 3.53171718
Li 1.52375941 6.73558896 1.20868451
Li 1.52375941 2.33127104 1.20868451
In 0.00000000 2.26671500 -1.1333762299999997 0 0 0
In 0.00000000 6.80014500 -1.1333762299999997 0 0 0
In 3.20562000 4.53343000 -3.400128689999999 0 0 0
In 3.20562000 0.00000000 -3.400128689999999 0 0 0
In 6.27301367 6.54663559 3.65204963
In 6.27307778 2.52022441 3.65204963
In 3.17375614 -0.00000000 1.17250437
In 3.36147724 4.53343000 1.19689247
Cu 1.60281000 0.00000000 -1.1333762299999997 0 0 0
Cu 1.60281000 4.53343000 -1.1333762299999997 0 0 0
Cu 4.80843000 2.26671500 -3.400128689999999 0 0 0
Cu 4.80843000 6.80014500 -3.400128689999999 0 0 0
Cu 1.60556683 4.53343000 3.27738423
Cu 1.51760462 0.00009067 3.44917287
Cu 4.87235006 6.89054159 1.08245604
Cu 4.87235006 2.17631841 1.08245604
Au 0.00000000 0.00000000 -3.400128689999999 0 0 0
Au 0.00000000 4.53343000 -3.400128689999999 0 0 0
Au 3.20562000 6.80014500 -1.1333762299999997 0 0 0
Au 3.20562000 2.26671500 -1.1333762299999997 0 0 0
Au 6.33584382 4.53343000 1.10443212
Au 0.05340563 0.00000000 1.25478068
Au 3.22222511 2.31549471 3.27309621
Au 3.22228922 6.75127462 3.27309621
C 1.80258424 -0.00000000 5.28363971
O 1.96953293 -0.00000000 6.42398397
