&CONTROL
calculation = 'relax'
prefix = 'scf'
pseudo_dir = '/vol0004/mdt0/data/hp150275/u10028/POT_KKJUS'
outdir = './data'
tprnfor = .true.
nstep = 50
disk_io = 'non'
/
&SYSTEM
ibrav = 0
ecutwfc = 50.0
ecutrho = 400
occupations = 'smearing'
smearing = 'mp'
degauss = 0.01
assume_isolated = 'esm'
esm_bc = 'bc1'
input_dft = 'BEEF-VDW'
nosym = .true.
nspin = 1
ntyp = 3
nat = 17
/
&ELECTRONS
electron_maxstep = 200
mixing_beta = 0.1
conv_thr = 1e-06
/
&IONS
ion_dynamics = 'bfgs'
upscale = 1.0
/
&CELL
/

K_POINTS {automatic}
6 8 1 0 0 0

ATOMIC_SPECIES
C 12.01 C.pbe-n-rrkjus_psl.1.0.0.UPF
Ni 58.69 Ni.pbe-spn-rrkjus_psl.1.0.0.UPF
Pt 195.0 Pt.pbe-n-rrkjus_psl.1.0.0.UPF

CELL_PARAMETERS {angstrom}
7.35611000 0.00000000 0.00000000
0.00000000 5.20155000 0.00000000
0.00000000 0.00000000 23.90120000

ATOMIC_POSITIONS {angstrom}
Ni 0.00000000 2.60077500 -1.9505769300000004 0 0 0
Ni 1.83902750 3.90116250 -0.6501126399999997 0 0 0
Ni 1.83902750 1.30038750 -0.6501126399999997 0 0 0
Ni 7.35588932 5.20144597 0.50096915
Ni 1.53043869 1.22506906 2.01606622
Ni 1.53051225 3.97648094 2.01606622
Ni 3.67805500 2.60077500 -1.9505769300000004 0 0 0
Ni 5.51708250 3.90116250 -0.6501126399999997 0 0 0
Ni 5.51708250 1.30038750 -0.6501126399999997 0 0 0
Ni 3.67805500 5.20144597 0.85351185
Ni 5.82545063 1.22501704 2.01654424
Ni 5.82559775 3.97622087 2.01654424
Pt 0.00000000 0.00000000 -1.9505769300000004 0 0 0
Pt 7.35596288 2.60072298 0.52032912
Pt 3.67805500 0.00000000 -1.9505769300000004 0 0 0
Pt 3.67805500 2.60077500 0.85853110
C 7.35596288 5.20139395 2.31507023
