&CONTROL
calculation = 'relax'
prefix = 'scf'
pseudo_dir = '/vol0004/mdt0/data/hp150275/u10028/POT_HYBRID_KKJUS_GBRV'
outdir = './data'
tprnfor = .true.
nstep = 50
disk_io = 'non'
/
&SYSTEM
ibrav = 0
ecutwfc = 50.0
ecutrho = 400
occupations = 'smearing'
smearing = 'mp'
degauss = 0.01
assume_isolated = 'esm'
esm_bc = 'bc1'
input_dft = 'BEEF-VDW'
nosym = .true.
nspin = 2
ntyp = 2
nat = 33
starting_magnetization(1) = 0.1
starting_magnetization(2) = 0.1
/
&ELECTRONS
electron_maxstep = 200
mixing_beta = 0.1
conv_thr = 1e-06
/
&IONS
ion_dynamics = 'bfgs'
upscale = 1.0
/
&CELL
/

K_POINTS {automatic}
7 7 2 0  0  0

ATOMIC_SPECIES
C 12.01 C.pbe-n-rrkjus_psl.1.0.0.UPF
Co 58.93 co_pbe_v1.2.uspp.F.UPF

CELL_PARAMETERS {angstrom}
7.08058000 0.00000000 0.00000000
-0.00000000 7.08058000 0.00000000
0.00000000 0.00000000 25.31040000

ATOMIC_POSITIONS {angstrom}
Co 0.00000000 0.00000000 -2.655314060000002 0 0 0
Co 1.77014500 1.77014500 -2.655314060000002 0 0 0
Co 1.77014500 0.00000000 -0.8851046900000021 0 0 0
Co 0.00000000 1.77014500 -0.8851046900000021 0 0 0
Co 0.00000000 0.00000000 0.88510469
Co 1.77014500 1.77014500 0.88510469
Co 1.77014500 -0.00000000 2.65531406
Co 0.00000000 1.77014500 2.65531406
Co 0.00000000 3.54029000 -2.655314060000002 0 0 0
Co 1.77014500 5.31043500 -2.655314060000002 0 0 0
Co 1.77014500 3.54029000 -0.8851046900000021 0 0 0
Co 0.00000000 5.31043500 -0.8851046900000021 0 0 0
Co 0.00000000 3.54029000 0.88510469
Co 1.77014500 5.31043500 0.88510469
Co 1.77014500 3.54029000 2.65531406
Co 0.00000000 5.31043500 2.65531406
Co 3.54029000 0.00000000 -2.655314060000002 0 0 0
Co 5.31043500 1.77014500 -2.655314060000002 0 0 0
Co 5.31043500 0.00000000 -0.8851046900000021 0 0 0
Co 3.54029000 1.77014500 -0.8851046900000021 0 0 0
Co 3.54029000 -0.00000000 0.88510469
Co 5.31043500 1.77014500 0.88510469
Co 5.31043500 -0.00000000 2.65531406
Co 3.54029000 1.77014500 2.65531406
Co 3.54029000 3.54029000 -2.655314060000002 0 0 0
Co 5.31043500 5.31043500 -2.655314060000002 0 0 0
Co 5.31043500 3.54029000 -0.8851046900000021 0 0 0
Co 3.54029000 5.31043500 -0.8851046900000021 0 0 0
Co 3.54029000 3.54029000 0.88510469
Co 5.31043500 5.31043500 0.88510469
Co 5.31043500 3.54029000 2.65531406
Co 3.54029000 5.31043500 2.65531406
C 0.00000000 0.00000000 3.45512270
