&CONTROL
calculation = 'relax'
prefix = 'scf'
pseudo_dir = '/vol0004/mdt0/data/hp150275/u10028/POT_HYBRID_KKJUS_GBRV'
outdir = './data'
tprnfor = .true.
nstep = 50
disk_io = 'non'
/
&SYSTEM
ibrav = 0
ecutwfc = 50.0
ecutrho = 400
occupations = 'smearing'
smearing = 'mp'
degauss = 0.01
assume_isolated = 'esm'
esm_bc = 'bc1'
input_dft = 'BEEF-VDW'
nosym = .true.
nspin = 2
ntyp = 4
nat = 33
starting_magnetization(1) = 0.0
starting_magnetization(2) = 0.0
starting_magnetization(3) = 0.001
starting_magnetization(4) = 0.0
/
&ELECTRONS
electron_maxstep = 300
mixing_beta = 0.1
conv_thr = 1e-06
/
&IONS
ion_dynamics = 'bfgs'
upscale = 1.0
/
&CELL
/

K_POINTS {automatic}
8 6 1 0 0 0

ATOMIC_SPECIES
Al 26.98 Al.pbe-nl-rrkjus_psl.1.0.0.UPF
C 12.01 C.pbe-n-rrkjus_psl.1.0.0.UPF
Ni 58.69 ni_pbe_v1.4.uspp.F.UPF
Ta 180.9 Ta.pbe-spn-rrkjus_psl.1.0.0.UPF

CELL_PARAMETERS {angstrom}
5.99379000 0.00000000 0.00000000
0.00000000 8.47650000 0.00000000
0.00000000 0.00000000 26.35740000

ATOMIC_POSITIONS {angstrom}
Ta 0.00000000 0.00000000 -3.1787024399999986 0 0 0
Ta 2.99689500 2.11912500 -1.0595674799999983 0 0 0
Ta 2.99689500 6.35737500 -1.0595674799999983 0 0 0
Ta 0.00000000 4.23825000 -3.1787024399999986 0 0 0
Ta 0.00000000 4.23841953 1.07459120
Ta 2.99689500 6.27973026 3.12888695
Ta 2.99689500 2.19668498 3.12915053
Ta 0.00000000 8.47641523 1.14101185
Al 0.00000000 6.35737500 -1.0595674799999983 0 0 0
Al 2.99689500 0.00000000 -3.1787024399999986 0 0 0
Al 0.00000000 2.11912500 -1.0595674799999983 0 0 0
Al 2.99689500 4.23825000 -3.1787024399999986 0 0 0
Al 0.00000000 2.10835984 3.27016262
Al 2.99689500 4.23825000 1.04085373
Al 0.00000000 6.36814015 3.27016262
Al 2.99689500 0.00000000 1.06062178
Ni 1.49844750 0.00000000 -1.0595674799999983 0 0 0
Ni 4.49534250 4.23825000 -1.0595674799999983 0 0 0
Ni 4.49534250 0.00000000 -1.0595674799999983 0 0 0
Ni 1.49844750 4.23825000 -1.0595674799999983 0 0 0
Ni 4.49534250 6.35737500 -3.1787024399999986 0 0 0
Ni 1.49844750 2.11912500 -3.1787024399999986 0 0 0
Ni 1.49844750 6.35737500 -3.1787024399999986 0 0 0
Ni 4.49534250 2.11912500 -3.1787024399999986 0 0 0
Ni 1.45733010 4.23799571 3.10885533
Ni 4.21081729 0.00016953 3.24196020
Ni 4.53645990 4.23799571 3.10885533
Ni 1.78297271 0.00016953 3.24196020
Ni 4.49228567 2.15531966 1.05640459
Ni 1.50162421 6.32118035 1.05614102
Ni 1.50150433 2.15531966 1.05640459
Ni 4.49216579 6.32118035 1.05614102
C 0.00000000 0.00000000 3.39061594
