&CONTROL
calculation = 'relax'
prefix = 'scf'
pseudo_dir = '/vol0004/mdt0/data/hp150275/u10028/POT_KKJUS'
outdir = './data'
tprnfor = .true.
nstep = 50
disk_io = 'non'
/
&SYSTEM
ibrav = 0
ecutwfc = 50.0
ecutrho = 400
occupations = 'smearing'
smearing = 'mp'
degauss = 0.01
assume_isolated = 'esm'
esm_bc = 'bc1'
input_dft = 'BEEF-VDW'
nosym = .true.
nspin = 1
ntyp = 4
nat = 34
/
&ELECTRONS
electron_maxstep = 200
mixing_beta = 0.1
conv_thr = 1e-06
/
&IONS
ion_dynamics = 'bfgs'
upscale = 1.0
/
&CELL
/

K_POINTS {automatic}
8 6 1 0 0 0

ATOMIC_SPECIES
Ag 107.8 Ag.pbe-n-rrkjus_psl.1.0.0.UPF
C 12.01 C.pbe-n-rrkjus_psl.1.0.0.UPF
Mg 24.30 Mg.pbe-spnl-rrkjus_psl.1.0.0.UPF
O 15.99 O.pbe-n-rrkjus_psl.1.0.0.UPF

CELL_PARAMETERS {angstrom}
6.75388000 0.00000000 0.00000000
0.00000000 9.55143000 0.00000000
0.00000000 0.00000000 27.16360000

ATOMIC_POSITIONS {angstrom}
Mg 1.68847000 2.38785750 -3.5817923 0 0 0
Mg 1.68847000 0.00000000 -1.1938402199999985 0 0 0
Mg 1.69177940 2.37954776 1.18460460
Mg 1.69414326 4.77571500 3.62036461
Mg 1.68847000 7.16357250 -3.5817923 0 0 0
Mg 1.68847000 4.77571500 -1.1938402199999985 0 0 0
Mg 1.69177940 7.17188224 1.18460460
Mg 1.69306264 0.00000000 3.59564573
Mg 5.06541000 2.38785750 -3.5817923 0 0 0
Mg 5.06541000 0.00000000 -1.1938402199999985 0 0 0
Mg 5.06183044 2.39664482 1.14413083
Mg 5.06088490 4.77571500 3.64318203
Mg 5.06541000 7.16357250 -3.5817923 0 0 0
Mg 5.06541000 4.77571500 -1.1938402199999985 0 0 0
Mg 5.06183044 7.15468967 1.14413083
Mg 5.06129013 0.00000000 3.60868426
Ag 0.00000000 0.00000000 -3.5817923 0 0 0
Ag 0.00000000 2.38785750 -1.1938402199999985 0 0 0
Ag 6.75090829 0.00000000 1.20524893
Ag 6.71470750 2.40829756 3.49106587
Ag 0.00000000 4.77571500 -3.5817923 0 0 0
Ag 0.00000000 7.16357250 -1.1938402199999985 0 0 0
Ag 0.00276909 4.77571500 1.18650605
Ag 6.71463996 7.14313244 3.49106587
Ag 3.37694000 0.00000000 -3.5817923 0 0 0
Ag 3.37694000 2.38785750 -1.1938402199999985 0 0 0
Ag 3.37957401 0.00000000 1.20226094
Ag 3.41638266 2.40829756 3.49649859
Ag 3.37694000 4.77571500 -3.5817923 0 0 0
Ag 3.37694000 7.16357250 -1.1938402199999985 0 0 0
Ag 3.37322537 4.77571500 1.18215987
Ag 3.41638266 7.14313244 3.49649859
C 1.70724579 0.00000000 5.84207545
O 1.71541798 0.00000000 6.98729283
