&CONTROL
calculation = 'relax'
prefix = 'scf'
pseudo_dir = '/vol0004/mdt0/data/hp150275/u10028/POT_KKJUS'
outdir = './data'
tprnfor = .true.
nstep = 50
disk_io = 'non'
/
&SYSTEM
ibrav = 0
ecutwfc = 50.0
ecutrho = 400
occupations = 'smearing'
smearing = 'mp'
degauss = 0.01
assume_isolated = 'esm'
esm_bc = 'bc1'
input_dft = 'BEEF-VDW'
nosym = .true.
nspin = 1
ntyp = 5
nat = 34
/
&ELECTRONS
electron_maxstep = 200
mixing_beta = 0.1
conv_thr = 1e-06
/
&IONS
ion_dynamics = 'bfgs'
upscale = 1.0
/
&CELL
/

K_POINTS {automatic}
9 6 2 0  0  0

ATOMIC_SPECIES
Ag 107.8 Ag.pbe-n-rrkjus_psl.1.0.0.UPF
Al 26.98 Al.pbe-nl-rrkjus_psl.1.0.0.UPF
C 12.01 C.pbe-n-rrkjus_psl.1.0.0.UPF
O 15.99 O.pbe-n-rrkjus_psl.1.0.0.UPF
Sc 44.95 Sc.pbe-spn-rrkjus_psl.1.0.0.UPF

CELL_PARAMETERS {angstrom}
6.65011000 0.00000000 0.00000000
0.00000000 9.40467000 0.00000000
0.00000000 0.00000000 27.05350000

ATOMIC_POSITIONS {angstrom}
Sc 0.00000000 0.00000000 -3.5266942599999993 0 0 0
Sc 3.32505500 2.35116750 -1.1754745699999987 0 0 0
Sc 3.32505500 7.05350250 -1.1754745699999987 0 0 0
Sc 0.00000000 4.70233500 -3.5266942599999993 0 0 0
Sc 6.61765746 4.70233500 1.20496289
Sc 3.33157211 7.07259398 3.53102282
Sc 3.33157211 2.33217007 3.53102282
Sc 0.07328421 0.00000000 1.21172627
Al 0.00000000 7.05350250 -1.1754745699999987 0 0 0
Al 3.32505500 0.00000000 -3.5266942599999993 0 0 0
Al 0.00000000 2.35116750 -1.1754745699999987 0 0 0
Al 3.32505500 4.70233500 -3.5266942599999993 0 0 0
Al 6.63315222 2.38474217 3.37465359
Al 3.34806438 4.70233500 1.19711737
Al 6.63315222 7.01992783 3.37465359
Al 3.30277713 0.00000000 1.27232611
Ag 1.66252750 0.00000000 -1.1754745699999987 0 0 0
Ag 4.98758250 4.70233500 -1.1754745699999987 0 0 0
Ag 4.98758250 0.00000000 -1.1754745699999987 0 0 0
Ag 1.66252750 4.70233500 -1.1754745699999987 0 0 0
Ag 4.98758250 7.05350250 -3.5266942599999993 0 0 0
Ag 1.66252750 2.35116750 -3.5266942599999993 0 0 0
Ag 1.66252750 7.05350250 -3.5266942599999993 0 0 0
Ag 4.98758250 2.35116750 -3.5266942599999993 0 0 0
Ag 1.63978412 4.70233500 3.56754504
Ag 5.08740065 0.00000000 3.54833706
Ag 5.04809850 4.70233500 3.65871534
Ag 1.43549274 0.00000000 3.78289091
Ag 4.95559547 2.32220112 1.14409252
Ag 1.71379985 7.00854818 1.15572552
Ag 1.71373335 2.39612182 1.15572552
Ag 4.95559547 7.08246888 1.14409252
C 1.86482385 0.00009405 5.92606917
O 1.74611938 0.00000000 7.06772687
