&CONTROL
calculation = 'relax'
prefix = 'scf'
pseudo_dir = '/vol0004/mdt0/data/hp150275/u10028/POT_KKJUS'
outdir = './data'
tprnfor = .true.
nstep = 50
disk_io = 'non'
/
&SYSTEM
ibrav = 0
ecutwfc = 50.0
ecutrho = 400
occupations = 'smearing'
smearing = 'mp'
degauss = 0.01
assume_isolated = 'esm'
esm_bc = 'bc1'
input_dft = 'BEEF-VDW'
nosym = .true.
nspin = 1
ntyp = 3
nat = 17
/
&ELECTRONS
electron_maxstep = 200
mixing_beta = 0.1
conv_thr = 1e-06
/
&IONS
ion_dynamics = 'bfgs'
upscale = 1.0
/
&CELL
/

K_POINTS {automatic}
6 8 1 0 0 0

ATOMIC_SPECIES
C 12.01 C.pbe-n-rrkjus_psl.1.0.0.UPF
In 114.8 In.pbe-dn-rrkjus_psl.1.0.0.UPF
Zr 91.22 Zr.pbe-spn-rrkjus_psl.1.0.0.UPF

CELL_PARAMETERS {angstrom}
8.97917000 0.00000000 0.00000000
0.00000000 6.34923000 0.00000000
0.00000000 0.00000000 24.76190000

ATOMIC_POSITIONS {angstrom}
Zr 0.10900712 3.16705942 2.41131382
Zr 2.24479250 4.75747804 0.72156177
Zr 2.24479250 1.57727572 0.71933320
Zr 0.00000000 0.00000000 -0.793618900000002 0 0 0
Zr 2.24479250 1.58730750 -2.380856680000001 0 0 0
Zr 2.24479250 4.76192250 -2.380856680000001 0 0 0
Zr 4.38057788 3.16705942 2.41131382
Zr 6.73437750 4.68331903 0.68392368
Zr 6.73437750 1.66089508 0.68070463
Zr 4.48958500 0.00000000 -0.793618900000002 0 0 0
Zr 6.73437750 1.58730750 -2.380856680000001 0 0 0
Zr 6.73437750 4.76192250 -2.380856680000001 0 0 0
In 8.90625914 6.34281728 2.33009479
In 0.00000000 3.17461500 -0.793618900000002 0 0 0
In 4.56249586 6.34275379 2.33009479
In 4.48958500 3.17461500 -0.793618900000002 0 0 0
C 2.24479250 3.16832926 2.28601861
