&CONTROL
calculation = 'relax'
prefix = 'scf'
pseudo_dir = '/vol0403/data/hp230205/u10028/POT_HYBRID_KKJUS_GBRV'
outdir = './data'
tprnfor = .true.
nstep = 50
disk_io = 'non'
/
&SYSTEM
ibrav = 0
ecutwfc = 50.0
ecutrho = 400
occupations = 'smearing'
smearing = 'mp'
degauss = 0.01
assume_isolated = 'esm'
esm_bc = 'bc1'
input_dft = 'BEEF-VDW'
nosym = .true.
nspin = 1
ntyp = 5
nat = 33
/
&ELECTRONS
electron_maxstep = 200
mixing_beta = 0.1
conv_thr = 1e-06
/
&IONS
ion_dynamics = 'bfgs'
upscale = 1.0
/
&CELL
/

K_POINTS {automatic}
6 6 1 0 0 0

ATOMIC_SPECIES
C 12.01 C.pbe-n-rrkjus_psl.1.0.0.UPF
Ge 72.64 Ge.pbe-dn-rrkjus_psl.1.0.0.UPF
Li 6.941 Li.pbe-sl-rrkjus_psl.1.0.0.UPF
Pb 207.2 Pb.pbe-dn-rrkjus_psl.1.0.0.UPF
Y 88.90 Y.pbe-spn-rrkjus_psl.1.0.0.UPF


CELL_PARAMETERS {angstrom}
8.65500000 0.00000000 0.00000000
0.00000000 9.86128000 0.00000000
0.00000000 0.00000000 26.41550000

ATOMIC_POSITIONS {angstrom}
Li 0.00640470 2.49500245 1.51994787
Li 0.00000000 2.46532000 -3.2078983200000017 0 0 0
Li 0.00640470 7.36627755 1.51994787
Li 0.00000000 7.39596000 -3.2078983200000017 0 0 0
Li 4.32109530 2.49500245 1.51994787
Li 4.32750000 2.46532000 -3.2078983200000017 0 0 0
Li 4.32109530 7.36627755 1.51994787
Li 4.32750000 7.39596000 -3.2078983200000017 0 0 0
Y 2.16375000 0.00000000 0.85454142
Y 2.16375000 0.00000000 -3.2078983200000017 0 0 0
Y 2.16375000 4.93064000 0.95492033
Y 2.16375000 4.93064000 -3.2078983200000017 0 0 0
Y 6.49125000 0.00000000 1.16994250
Y 6.49125000 0.00000000 -3.2078983200000017 0 0 0
Y 6.49125000 4.93064000 0.93854272
Y 6.49125000 4.93064000 -3.2078983200000017 0 0 0
Ge 0.26016930 0.00000000 3.21344558
Ge 0.00000000 0.00000000 -1.0692994400000018 0 0 0
Ge 0.02622465 4.93064000 2.98257410
Ge 0.00000000 4.93064000 -1.0692994400000018 0 0 0
Ge 4.06733070 0.00000000 3.21344558
Ge 4.32750000 0.00000000 -1.0692994400000018 0 0 0
Ge 4.30127535 4.93064000 2.98257410
Ge 4.32750000 4.93064000 -1.0692994400000018 0 0 0
Pb 2.16375000 2.97278147 3.98028754
Pb 2.16375000 2.46532000 -1.0692994400000018 0 0 0
Pb 2.16375000 6.88849853 3.98002338
Pb 2.16375000 7.39596000 -1.0692994400000018 0 0 0
Pb 6.49125000 3.05729264 3.93907936
Pb 6.49125000 2.46532000 -1.0692994400000018 0 0 0
Pb 6.49125000 6.80398736 3.93907936
Pb 6.49125000 7.39596000 -1.0692994400000018 0 0 0
C 2.16375000 0.00009861 3.23695537
