&CONTROL
calculation = 'relax'
prefix = 'scf'
pseudo_dir = '/vol0004/mdt0/data/hp150275/u10028/POT_KKJUS'
outdir = './data'
tprnfor = .true.
nstep = 50
disk_io = 'non'
/
&SYSTEM
ibrav = 0
ecutwfc = 50.0
ecutrho = 400
occupations = 'smearing'
smearing = 'mp'
degauss = 0.01
assume_isolated = 'esm'
esm_bc = 'bc1'
input_dft = 'BEEF-VDW'
nosym = .true.
nspin = 1
ntyp = 4
nat = 33
/
&ELECTRONS
electron_maxstep = 200
mixing_beta = 0.1
conv_thr = 1e-06
/
&IONS
ion_dynamics = 'bfgs'
upscale = 1.0
/
&CELL
/

K_POINTS {automatic}
8 6 1 0 0 0

ATOMIC_SPECIES
Ag 107.8 Ag.pbe-n-rrkjus_psl.1.0.0.UPF
C 12.01 C.pbe-n-rrkjus_psl.1.0.0.UPF
In 114.8 In.pbe-dn-rrkjus_psl.1.0.0.UPF
Li 6.941 Li.pbe-sl-rrkjus_psl.1.0.0.UPF

CELL_PARAMETERS {angstrom}
6.67495000 0.00000000 0.00000000
0.00000000 9.43981000 0.00000000
0.00000000 0.00000000 27.07990000

ATOMIC_POSITIONS {angstrom}
Li 0.00000000 7.07985750 -1.179871239999997 0 0 0
Li 3.33747500 0.00000000 -3.5398845299999984 0 0 0
Li 0.00000000 2.35995250 -1.179871239999997 0 0 0
Li 3.33747500 4.71990500 -3.5398845299999984 0 0 0
Li 1.66873750 0.00000000 -1.179871239999997 0 0 0
Li 1.66873750 4.71990500 -1.179871239999997 0 0 0
Li 5.00621250 7.07985750 -3.5398845299999984 0 0 0
Li 5.00621250 2.35995250 -3.5398845299999984 0 0 0
Li 6.54038301 2.06156011 3.65389091
Li 3.40282276 4.71990500 1.12787783
Li 6.54051651 7.37834429 3.65389091
Li 3.25223589 0.00000000 1.05503290
Li 1.43451350 4.71990500 3.54205092
Li 1.72807781 0.00000000 3.71454988
Li 4.96262508 2.25677538 1.35561979
Li 4.96262508 7.18303462 1.35561979
In 0.00000000 0.00000000 -3.5398845299999984 0 0 0
In 3.33747500 2.35995250 -1.179871239999997 0 0 0
In 3.33747500 7.07985750 -1.179871239999997 0 0 0
In 0.00000000 4.71990500 -3.5398845299999984 0 0 0
In 6.63757028 4.71990500 1.14629217
In 3.25323713 6.89323246 3.86321853
In 3.25323713 2.54667194 3.86321853
In 0.15979830 0.00000000 1.02605741
Ag 1.66873750 2.35995250 -3.5398845299999984 0 0 0
Ag 1.66873750 7.07985750 -3.5398845299999984 0 0 0
Ag 5.00621250 4.71990500 -1.179871239999997 0 0 0
Ag 5.00621250 0.00000000 -1.179871239999997 0 0 0
Ag 1.77894092 6.97715237 1.27871288
Ag 1.77894092 2.46265763 1.27871288
Ag 4.42035214 0.00000000 3.53365615
Ag 5.05841061 4.71990500 3.48085035
C 6.47703773 0.00000000 3.16157832
