&CONTROL
calculation = 'relax'
prefix = 'scf'
pseudo_dir = '/vol0403/data/hp230205/u10028/POT_HYBRID_KKJUS_GBRV'
outdir = './data'
tprnfor = .true.
nstep = 50
disk_io = 'non'
/
&SYSTEM
ibrav = 0
ecutwfc = 50.0
ecutrho = 400
occupations = 'smearing'
smearing = 'mp'
degauss = 0.01
assume_isolated = 'esm'
esm_bc = 'bc1'
input_dft = 'BEEF-VDW'
nosym = .true.
nspin = 1
ntyp = 5
nat = 33
/
&ELECTRONS
electron_maxstep = 200
mixing_beta = 0.1
conv_thr = 1e-06
/
&IONS
ion_dynamics = 'bfgs'
upscale = 1.0
/
&CELL
/

K_POINTS {automatic}
6 6 1 0 0 0

ATOMIC_SPECIES
C 12.01 C.pbe-n-rrkjus_psl.1.0.0.UPF
Ge 72.64 Ge.pbe-dn-rrkjus_psl.1.0.0.UPF
In 114.8 In.pbe-dn-rrkjus_psl.1.0.0.UPF
Li 6.941 Li.pbe-sl-rrkjus_psl.1.0.0.UPF
Mg 24.30 Mg.pbe-spnl-rrkjus_psl.1.0.0.UPF


CELL_PARAMETERS {angstrom}
8.75068000 0.00000000 0.00000000
0.00000000 8.41850000 0.00000000
0.00000000 0.00000000 26.30740000

ATOMIC_POSITIONS {angstrom}
Li 2.18767000 0.00000000 -1.0512437000000006 0 0 0
Li 2.11013898 0.00000000 3.24975312
Li 2.18767000 4.20925000 -1.0512437000000006 0 0 0
Li 2.25968810 4.20925000 3.08349035
Li 6.56301000 0.00000000 -1.0512437000000006 0 0 0
Li 6.64054102 0.00000000 3.24975312
Li 6.56301000 4.20925000 -1.0512437000000006 0 0 0
Li 6.49099190 4.20925000 3.08349035
Mg 0.00000000 2.10462500 -1.0512437000000006 0 0 0
Mg 0.00000000 2.11969412 3.40549293
Mg 0.00000000 6.31387500 -1.0512437000000006 0 0 0
Mg 0.00000000 6.29872170 3.40549293
Mg 4.37534000 2.10462500 -1.0512437000000006 0 0 0
Mg 4.37534000 2.19916476 3.27500823
Mg 4.37534000 6.31387500 -1.0512437000000006 0 0 0
Mg 4.37534000 6.21933525 3.27500823
In 2.18767000 2.10462500 -3.1537311100000025 0 0 0
In 2.21925995 2.11843134 1.07728803
In 2.18767000 6.31387500 -3.1537311100000025 0 0 0
In 2.21925995 6.30006866 1.07728803
In 6.56301000 2.10462500 -3.1537311100000025 0 0 0
In 6.53142005 2.11843134 1.07728803
In 6.56301000 6.31387500 -3.1537311100000025 0 0 0
In 6.53142005 6.30006866 1.07728803
Ge 0.00000000 0.00000000 -3.1537311100000025 0 0 0
Ge 0.00000000 0.00000000 1.21776955
Ge 0.00000000 4.20925000 -3.1537311100000025 0 0 0
Ge 0.00000000 4.20925000 1.35693569
Ge 4.37534000 0.00000000 -3.1537311100000025 0 0 0
Ge 4.37534000 0.00000000 1.29300871
Ge 4.37534000 4.20925000 -3.1537311100000025 0 0 0
Ge 4.37534000 4.20925000 1.01178260
C 0.00000000 0.00000000 3.21213354
