&CONTROL
calculation = 'relax'
prefix = 'scf'
pseudo_dir = '/vol0004/mdt0/data/hp150275/u10028/POT_KKJUS'
outdir = './data'
tprnfor = .true.
nstep = 50
disk_io = 'non'
/
&SYSTEM
ibrav = 0
ecutwfc = 50.0
ecutrho = 400
occupations = 'smearing'
smearing = 'mp'
degauss = 0.01
assume_isolated = 'esm'
esm_bc = 'bc1'
input_dft = 'BEEF-VDW'
nosym = .true.
nspin = 1
ntyp = 5
nat = 34
/
&ELECTRONS
electron_maxstep = 200
mixing_beta = 0.1
conv_thr = 1e-06
/
&IONS
ion_dynamics = 'bfgs'
upscale = 1.0
/
&CELL
/

K_POINTS {automatic}
9 6 2 0  0  0

ATOMIC_SPECIES
Al 26.98 Al.pbe-nl-rrkjus_psl.1.0.0.UPF
C 12.01 C.pbe-n-rrkjus_psl.1.0.0.UPF
Ni 58.69 Ni.pbe-spn-rrkjus_psl.1.0.0.UPF
O 15.99 O.pbe-n-rrkjus_psl.1.0.0.UPF
Sc 44.95 Sc.pbe-spn-rrkjus_psl.1.0.0.UPF

CELL_PARAMETERS {angstrom}
6.08368000 0.00000000 0.00000000
0.00000000 8.60362000 0.00000000
0.00000000 0.00000000 26.45270000

ATOMIC_POSITIONS {angstrom}
Sc 0.00000000 0.00000000 -3.226435819999999 0 0 0
Sc 3.04184000 2.15090500 -1.075566779999999 0 0 0
Sc 3.04184000 6.45271500 -1.075566779999999 0 0 0
Sc 0.00000000 4.30181000 -3.226435819999999 0 0 0
Sc 0.00754376 4.30129378 1.02186780
Sc 3.07012911 6.40952483 3.38065506
Sc 3.07012911 2.19426724 3.38224222
Sc 0.00608368 0.00060225 1.03615226
Al 0.00000000 6.45271500 -1.075566779999999 0 0 0
Al 3.04184000 0.00000000 -3.226435819999999 0 0 0
Al 0.00000000 2.15090500 -1.075566779999999 0 0 0
Al 3.04184000 4.30181000 -3.226435819999999 0 0 0
Al 0.00048669 2.13885993 3.13385137
Al 3.04889707 4.30189604 1.16021542
Al 0.00024335 6.46476007 3.13332232
Al 3.04214418 8.60336189 1.14275664
Ni 1.52092000 0.00000000 -1.075566779999999 0 0 0
Ni 4.56276000 4.30181000 -1.075566779999999 0 0 0
Ni 4.56276000 0.00000000 -1.075566779999999 0 0 0
Ni 1.52092000 4.30181000 -1.075566779999999 0 0 0
Ni 4.56276000 6.45271500 -3.226435819999999 0 0 0
Ni 1.52092000 2.15090500 -3.226435819999999 0 0 0
Ni 1.52092000 6.45271500 -3.226435819999999 0 0 0
Ni 4.56276000 2.15090500 -3.226435819999999 0 0 0
Ni 1.36584700 4.30146586 3.08412029
Ni 4.70396221 0.00017207 3.03121489
Ni 4.74368864 4.30155189 3.08703009
Ni 1.45162688 0.00017207 3.30791013
Ni 4.48154287 2.14866806 1.13244009
Ni 1.61637294 6.47396594 1.17397083
Ni 1.61728549 2.12956802 1.17529346
Ni 4.48294212 6.45495194 1.13111745
C 1.93923384 8.60275964 5.00590895
O 2.10543997 8.60275964 6.16612437
