&CONTROL
calculation = 'relax'
prefix = 'scf'
pseudo_dir = '/vol0403/data/hp230205/u10028/POT_HYBRID_KKJUS_GBRV'
outdir = './data'
tprnfor = .true.
nstep = 50
disk_io = 'non'
/
&SYSTEM
ibrav = 0
ecutwfc = 50.0
ecutrho = 400
occupations = 'smearing'
smearing = 'mp'
degauss = 0.01
assume_isolated = 'esm'
esm_bc = 'bc1'
input_dft = 'BEEF-VDW'
nosym = .true.
nspin = 1
ntyp = 5
nat = 33
/
&ELECTRONS
electron_maxstep = 200
mixing_beta = 0.1
conv_thr = 1e-06
/
&IONS
ion_dynamics = 'bfgs'
upscale = 1.0
/
&CELL
/

K_POINTS {automatic}
7 7 2 0  0  0

ATOMIC_SPECIES
C 12.01 C.pbe-n-rrkjus_psl.1.0.0.UPF
Cu 63.54 Cu.pbe-dn-rrkjus_psl.1.0.0.UPF
In 114.8 In.pbe-dn-rrkjus_psl.1.0.0.UPF
Sn 118.7 Sn.pbe-dn-rrkjus_psl.1.0.0.UPF
Y 88.90 Y.pbe-spn-rrkjus_psl.1.0.0.UPF


CELL_PARAMETERS {angstrom}
8.82850000 0.00000000 0.00000000
0.00000000 8.84740000 0.00000000
0.00000000 0.00000000 26.85960000

ATOMIC_POSITIONS {angstrom}
Y 2.17825581 8.78529125 1.22372338
Y 2.20712500 0.00000000 -3.4297023200000005 0 0 0
Y 2.17825581 4.48589722 1.22372338
Y 2.20712500 4.42370000 -3.4297023200000005 0 0 0
Y 6.65024419 8.78529125 1.22372338
Y 6.62137500 0.00000000 -3.4297023200000005 0 0 0
Y 6.65024419 4.48580875 1.22372338
Y 6.62137500 4.42370000 -3.4297023200000005 0 0 0
In 2.44955561 2.21185000 3.92015862
In 2.20712500 2.21185000 -1.1431445800000013 0 0 0
In 2.81655635 6.63555000 3.96850590
In 2.20712500 6.63555000 -1.1431445800000013 0 0 0
In 6.37885610 2.21185000 3.92015862
In 6.62137500 2.21185000 -1.1431445800000013 0 0 0
In 6.01194364 6.63555000 3.96850590
In 6.62137500 6.63555000 -1.1431445800000013 0 0 0
Cu 0.00000000 0.31204780 3.27875137
Cu 0.00000000 0.00000000 -1.1431445800000013 0 0 0
Cu 0.00000000 4.11165220 3.27875137
Cu 0.00000000 4.42370000 -1.1431445800000013 0 0 0
Cu 4.41425000 0.11386604 3.23899916
Cu 4.41425000 0.00000000 -1.1431445800000013 0 0 0
Cu 4.41425000 4.30983396 3.23899916
Cu 4.41425000 4.42370000 -1.1431445800000013 0 0 0
Sn 0.00000000 2.21185000 1.03355741
Sn 0.00000000 2.21185000 -3.4297023200000005 0 0 0
Sn 0.00000000 6.63555000 2.26721884
Sn 0.00000000 6.63555000 -3.4297023200000005 0 0 0
Sn 4.41425000 2.21185000 1.20492166
Sn 4.41425000 2.21185000 -3.4297023200000005 0 0 0
Sn 4.41425000 6.63555000 1.07680136
Sn 4.41425000 6.63555000 -3.4297023200000005 0 0 0
C 8.82841171 2.21185000 3.52236794
