&CONTROL
calculation = 'relax'
prefix = 'scf'
pseudo_dir = '/vol0004/mdt0/data/hp150275/u10028/POT_KKJUS'
outdir = './data'
tprnfor = .true.
nstep = 50
disk_io = 'non'
/
&SYSTEM
ibrav = 0
ecutwfc = 50.0
ecutrho = 400
occupations = 'smearing'
smearing = 'mp'
degauss = 0.01
assume_isolated = 'esm'
esm_bc = 'bc1'
input_dft = 'BEEF-VDW'
nosym = .true.
nspin = 1
ntyp = 5
nat = 34
/
&ELECTRONS
electron_maxstep = 200
mixing_beta = 0.1
conv_thr = 1e-06
/
&IONS
ion_dynamics = 'bfgs'
upscale = 1.0
/
&CELL
/

K_POINTS {automatic}
8 6 1 0 0 0

ATOMIC_SPECIES
C 12.01 C.pbe-n-rrkjus_psl.1.0.0.UPF
Ga 69.72 Ga.pbe-dnl-rrkjus_psl.1.0.0.UPF
Hf 178.4 Hf.pbe-spn-rrkjus_psl.1.0.0.UPF
Ni 58.69 Ni.pbe-spn-rrkjus_psl.1.0.0.UPF
O 15.99 O.pbe-n-rrkjus_psl.1.0.0.UPF

CELL_PARAMETERS {angstrom}
6.09904000 0.00000000 0.00000000
0.00000000 8.62534000 0.00000000
0.00000000 0.00000000 26.46900000

ATOMIC_POSITIONS {angstrom}
Hf 0.00000000 0.00000000 -3.2345118 0 0 0
Hf 3.04952000 2.15633500 -1.0780823700000006 0 0 0
Hf 3.04952000 6.46900500 -1.0780823700000006 0 0 0
Hf 0.00000000 4.31267000 -3.2345118 0 0 0
Hf 6.09385582 4.31249749 1.05055461
Hf 3.04061540 6.47159260 3.29750802
Hf 3.04049342 2.15383365 3.29777271
Hf 0.01085629 8.62525375 1.08575838
Ga 0.00000000 6.46900500 -1.0780823700000006 0 0 0
Ga 3.04952000 0.00000000 -3.2345118 0 0 0
Ga 0.00000000 2.15633500 -1.0780823700000006 0 0 0
Ga 3.04952000 4.31267000 -3.2345118 0 0 0
Ga 6.07299710 2.18773124 3.20169024
Ga 3.05055684 4.31223873 1.09687536
Ga 6.07305809 6.43752251 3.20142555
Ga 3.02542879 0.00025876 1.13843169
Ni 1.52476000 0.00000000 -1.0780823700000006 0 0 0
Ni 4.57428000 4.31267000 -1.0780823700000006 0 0 0
Ni 4.57428000 0.00000000 -1.0780823700000006 0 0 0
Ni 1.52476000 4.31267000 -1.0780823700000006 0 0 0
Ni 4.57428000 6.46900500 -3.2345118 0 0 0
Ni 1.52476000 2.15633500 -3.2345118 0 0 0
Ni 1.52476000 6.46900500 -3.2345118 0 0 0
Ni 4.57428000 2.15633500 -3.2345118 0 0 0
Ni 1.48359148 4.31258375 3.12175386
Ni 4.65259167 0.00008625 3.10243149
Ni 4.59465079 4.31267000 3.12890049
Ni 1.41491629 0.00000000 3.44758725
Ni 4.47230405 2.14917597 1.14319611
Ni 1.62722387 6.46857373 1.15563654
Ni 1.62722387 2.15659376 1.15590123
Ni 4.47248702 6.47625029 1.14293142
C 1.93363964 0.00000000 5.13604476
O 2.14497138 0.00008625 6.28374060
