&CONTROL
calculation = 'relax'
prefix = 'scf'
pseudo_dir = '/vol0004/mdt0/data/hp150275/u10028/POT_KKJUS'
outdir = './data'
tprnfor = .true.
nstep = 50
disk_io = 'non'
/
&SYSTEM
ibrav = 0
ecutwfc = 50.0
ecutrho = 400
occupations = 'smearing'
smearing = 'mp'
degauss = 0.01
assume_isolated = 'esm'
esm_bc = 'bc1'
input_dft = 'BEEF-VDW'
nosym = .true.
nspin = 1
ntyp = 4
nat = 33
/
&ELECTRONS
electron_maxstep = 200
mixing_beta = 0.1
conv_thr = 1e-06
/
&IONS
ion_dynamics = 'bfgs'
upscale = 1.0
/
&CELL
/

K_POINTS {automatic}
9 6 2 0  0  0

ATOMIC_SPECIES
C 12.01 C.pbe-n-rrkjus_psl.1.0.0.UPF
Ga 69.72 Ga.pbe-dnl-rrkjus_psl.1.0.0.UPF
Ni 58.69 Ni.pbe-spn-rrkjus_psl.1.0.0.UPF
Ti 47.86 Ti.pbe-spn-rrkjus_psl.1.0.0.UPF

CELL_PARAMETERS {angstrom}
5.94410000 0.00000000 0.00000000
0.00000000 8.40623000 0.00000000
0.00000000 0.00000000 26.30470000

ATOMIC_POSITIONS {angstrom}
Ti 0.00000000 0.00000000 -3.1523552499999994 0 0 0
Ti 2.97205000 2.10155750 -1.0508727700000016 0 0 0
Ti 2.97205000 6.30467250 -1.0508727700000016 0 0 0
Ti 0.00000000 4.20311500 -3.1523552499999994 0 0 0
Ti 0.00000000 4.20303094 1.03167033
Ti 2.97205000 6.25953104 3.12078961
Ti 2.97205000 2.14669896 3.12052656
Ti 0.00000000 0.00000000 1.14215007
Ga 0.00000000 6.30467250 -1.0508727700000016 0 0 0
Ga 2.97205000 0.00000000 -3.1523552499999994 0 0 0
Ga 0.00000000 2.10155750 -1.0508727700000016 0 0 0
Ga 2.97205000 4.20311500 -3.1523552499999994 0 0 0
Ga 0.00000000 2.13762023 3.21759090
Ga 2.97205000 4.20319906 1.02298978
Ga 0.00000000 6.26869384 3.21732786
Ga 2.97205000 8.40589375 1.01430923
Ni 1.48602500 0.00000000 -1.0508727700000016 0 0 0
Ni 4.45807500 4.20311500 -1.0508727700000016 0 0 0
Ni 4.45807500 0.00000000 -1.0508727700000016 0 0 0
Ni 1.48602500 4.20311500 -1.0508727700000016 0 0 0
Ni 4.45807500 6.30467250 -3.1523552499999994 0 0 0
Ni 1.48602500 2.10155750 -3.1523552499999994 0 0 0
Ni 1.48602500 6.30467250 -3.1523552499999994 0 0 0
Ni 4.45807500 2.10155750 -3.1523552499999994 0 0 0
Ni 1.44370301 4.20319906 3.03766676
Ni 4.19076882 0.00000000 3.18734050
Ni 4.50039699 4.20319906 3.03766676
Ni 1.75327174 0.00000000 3.18734050
Ni 4.42306425 2.11904246 1.05087277
Ni 1.52103575 6.28701942 1.05087277
Ni 1.52097631 2.11904246 1.05087277
Ni 4.42306425 6.28701942 1.05087277
C 0.00000000 0.00000000 3.42881765
