&CONTROL
calculation = 'relax'
prefix = 'scf'
pseudo_dir = '/vol0403/data/hp230205/u10028/POT_HYBRID_KKJUS_GBRV'
outdir = './data'
tprnfor = .true.
nstep = 50
disk_io = 'non'
/
&SYSTEM
ibrav = 0
ecutwfc = 50.0
ecutrho = 400
occupations = 'smearing'
smearing = 'mp'
degauss = 0.01
assume_isolated = 'esm'
esm_bc = 'bc1'
input_dft = 'BEEF-VDW'
nosym = .true.
nspin = 1
ntyp = 4
nat = 32
/
&ELECTRONS
electron_maxstep = 200
mixing_beta = 0.1
conv_thr = 1e-06
/
&IONS
ion_dynamics = 'bfgs'
upscale = 1.0
/
&CELL
/

K_POINTS {automatic}
7 7 2 0  0  0

ATOMIC_SPECIES
Al 26.98 Al.pbe-nl-rrkjus_psl.1.0.0.UPF
In 114.8 In.pbe-dn-rrkjus_psl.1.0.0.UPF
Li 6.941 Li.pbe-sl-rrkjus_psl.1.0.0.UPF
Sc 44.95 Sc.pbe-spn-rrkjus_psl.1.0.0.UPF


CELL_PARAMETERS {angstrom}
8.71362000 0.00000000 0.00000000
0.00000000 8.37392000 0.00000000
0.00000000 0.00000000 26.36940000

ATOMIC_POSITIONS {angstrom}
Li 2.17840500 0.00000000 -1.0616320399999992 0 0 0
Li 2.17840500 0.00000000 3.18463244
Li 2.17840500 4.18696000 -1.0616320399999992 0 0 0
Li 2.17840500 4.18696000 3.18463244
Li 6.53521500 0.00000000 -1.0616320399999992 0 0 0
Li 6.53521500 0.00000000 3.18463244
Li 6.53521500 4.18696000 -1.0616320399999992 0 0 0
Li 6.53521500 4.18696000 3.18463244
Sc 0.00000000 2.09348000 -1.0616320399999992 0 0 0
Sc 0.00000000 2.09348000 3.18463244
Sc 0.00000000 6.28044000 -1.0616320399999992 0 0 0
Sc 0.00000000 6.28044000 3.18463244
Sc 4.35681000 2.09348000 -1.0616320399999992 0 0 0
Sc 4.35681000 2.09348000 3.18463244
Sc 4.35681000 6.28044000 -1.0616320399999992 0 0 0
Sc 4.35681000 6.28044000 3.18463244
Al 0.00000000 0.00000000 -3.184632439999998 0 0 0
Al 0.00000000 0.00000000 1.06163204
Al 0.00000000 4.18696000 -3.184632439999998 0 0 0
Al 0.00000000 4.18696000 1.06163204
Al 4.35681000 0.00000000 -3.184632439999998 0 0 0
Al 4.35681000 0.00000000 1.06163204
Al 4.35681000 4.18696000 -3.184632439999998 0 0 0
Al 4.35681000 4.18696000 1.06163204
In 2.17840500 2.09348000 -3.184632439999998 0 0 0
In 2.17840500 2.09348000 1.06163204
In 2.17840500 6.28044000 -3.184632439999998 0 0 0
In 2.17840500 6.28044000 1.06163204
In 6.53521500 2.09348000 -3.184632439999998 0 0 0
In 6.53521500 2.09348000 1.06163204
In 6.53521500 6.28044000 -3.184632439999998 0 0 0
In 6.53521500 6.28044000 1.06163204
