&CONTROL
calculation = 'relax'
prefix = 'scf'
pseudo_dir = '/vol0004/mdt0/data/hp150275/u10028/POT_KKJUS'
outdir = './data'
tprnfor = .true.
nstep = 50
disk_io = 'non'
/
&SYSTEM
ibrav = 0
ecutwfc = 50.0
ecutrho = 400
occupations = 'smearing'
smearing = 'mp'
degauss = 0.01
assume_isolated = 'esm'
esm_bc = 'bc1'
input_dft = 'BEEF-VDW'
nosym = .true.
nspin = 1
ntyp = 3
nat = 33
/
&ELECTRONS
electron_maxstep = 200
mixing_beta = 0.1
conv_thr = 1e-06
/
&IONS
ion_dynamics = 'bfgs'
upscale = 1.0
/
&CELL
/

K_POINTS {automatic}
8 8 1 0 0 0

ATOMIC_SPECIES
C 12.01 C.pbe-n-rrkjus_psl.1.0.0.UPF
Ge 72.64 Ge.pbe-dn-rrkjus_psl.1.0.0.UPF
Nb 92.90 Nb.pbe-spn-rrkjus_psl.1.0.0.UPF

CELL_PARAMETERS {angstrom}
8.21286000 0.00000000 0.00000000
-0.00000000 8.21286000 0.00000000
0.00000000 0.00000000 26.15960000

ATOMIC_POSITIONS {angstrom}
Nb 0.00000000 2.05321500 -1.0265027000000018 0 0 0
Nb 2.05321500 0.00000000 -1.0265027000000018 0 0 0
Nb 2.05321500 2.05321500 -3.0797697100000008 0 0 0
Nb 0.00000000 2.05321500 3.07976971
Nb 2.05321500 -0.00000000 3.07976971
Nb 2.05321500 2.05321500 1.02650270
Nb 0.00000000 6.15964500 -1.0265027000000018 0 0 0
Nb 2.05321500 4.10643000 -1.0265027000000018 0 0 0
Nb 2.05321500 6.15964500 -3.0797697100000008 0 0 0
Nb 0.00000000 6.15964500 3.07976971
Nb 2.05321500 4.10643000 3.07976971
Nb 2.05321500 6.15964500 1.02650270
Nb 4.10643000 2.05321500 -1.0265027000000018 0 0 0
Nb 6.15964500 0.00000000 -1.0265027000000018 0 0 0
Nb 6.15964500 2.05321500 -3.0797697100000008 0 0 0
Nb 4.10643000 2.05321500 3.07976971
Nb 6.15964500 -0.00000000 3.07976971
Nb 6.15964500 2.05321500 1.02650270
Nb 4.10643000 6.15964500 -1.0265027000000018 0 0 0
Nb 6.15964500 4.10643000 -1.0265027000000018 0 0 0
Nb 6.15964500 6.15964500 -3.0797697100000008 0 0 0
Nb 4.10643000 6.15964500 3.07976971
Nb 6.15964500 4.10643000 3.07976971
Nb 6.15964500 6.15964500 1.02650270
Ge 0.00000000 0.00000000 -3.0797697100000008 0 0 0
Ge 0.00000000 0.00000000 1.02650270
Ge 0.00000000 4.10643000 -3.0797697100000008 0 0 0
Ge 0.00000000 4.10643000 1.02650270
Ge 4.10643000 0.00000000 -3.0797697100000008 0 0 0
Ge 4.10643000 -0.00000000 1.02650270
Ge 4.10643000 4.10643000 -3.0797697100000008 0 0 0
Ge 4.10643000 4.10643000 1.02650270
C 0.00000000 0.00000000 3.87973028
