&CONTROL
calculation = 'relax'
prefix = 'scf'
pseudo_dir = '/vol0004/mdt0/data/hp150275/u10028/POT_KKJUS'
outdir = './data'
tprnfor = .true.
nstep = 50
disk_io = 'non'
/
&SYSTEM
ibrav = 0
ecutwfc = 50.0
ecutrho = 400
occupations = 'smearing'
smearing = 'mp'
degauss = 0.01
assume_isolated = 'esm'
esm_bc = 'bc1'
input_dft = 'BEEF-VDW'
nosym = .true.
nspin = 1
ntyp = 3
nat = 17
/
&ELECTRONS
electron_maxstep = 200
mixing_beta = 0.1
conv_thr = 1e-06
/
&IONS
ion_dynamics = 'bfgs'
upscale = 1.0
/
&CELL
/

K_POINTS {automatic}
9 9 2 0  0  0

ATOMIC_SPECIES
C 12.01 C.pbe-n-rrkjus_psl.1.0.0.UPF
In 114.8 In.pbe-dn-rrkjus_psl.1.0.0.UPF
Sb 121.7 Sb.pbe-n-rrkjus_psl.1.0.0.UPF

CELL_PARAMETERS {angstrom}
7.67805000 0.00000000 0.00000000
-0.00000000 7.67805000 0.00000000
0.00000000 0.00000000 25.75850000

ATOMIC_POSITIONS {angstrom}
In 1.91951250 1.91951250 -0.9878384699999998 0 0 0
In 1.91951250 1.91951250 2.85120837
In 1.91951250 5.75853750 -0.9878384699999998 0 0 0
In 1.91951250 5.75853750 2.85120837
In 5.75853750 1.91951250 -0.9878384699999998 0 0 0
In 5.75853750 1.91951250 2.85120837
In 5.75853750 5.75853750 -0.9878384699999998 0 0 0
In 5.75853750 5.75853750 2.85120837
Sb 0.00000000 0.00000000 -2.9073618900000007 0 0 0
Sb 0.00000000 0.00000000 0.93168495
Sb 0.00000000 3.83902500 -2.9073618900000007 0 0 0
Sb 0.00000000 3.83902500 0.93168495
Sb 3.83902500 0.00000000 -2.9073618900000007 0 0 0
Sb 3.83902500 -0.00000000 0.93168495
Sb 3.83902500 3.83902500 -2.9073618900000007 0 0 0
Sb 3.83902500 3.83902500 0.93168495
C 0.00000000 0.00000000 3.65100979
