&CONTROL
calculation = 'relax'
prefix = 'scf'
pseudo_dir = '/vol0004/mdt0/data/hp150275/u10028/POT_KKJUS'
outdir = './data'
tprnfor = .true.
nstep = 50
disk_io = 'non'
/
&SYSTEM
ibrav = 0
ecutwfc = 50.0
ecutrho = 400
occupations = 'smearing'
smearing = 'mp'
degauss = 0.01
assume_isolated = 'esm'
esm_bc = 'bc1'
input_dft = 'BEEF-VDW'
nosym = .true.
nspin = 1
ntyp = 5
nat = 34
/
&ELECTRONS
electron_maxstep = 200
mixing_beta = 0.1
conv_thr = 1e-06
/
&IONS
ion_dynamics = 'bfgs'
upscale = 1.0
/
&CELL
/

K_POINTS {automatic}
8 6 1 0 0 0

ATOMIC_SPECIES
Au 196.9 Au.pbe-n-rrkjus_psl.1.0.0.UPF
C 12.01 C.pbe-n-rrkjus_psl.1.0.0.UPF
Ge 72.64 Ge.pbe-dn-rrkjus_psl.1.0.0.UPF
Li 6.941 Li.pbe-sl-rrkjus_psl.1.0.0.UPF
O 15.99 O.pbe-n-rrkjus_psl.1.0.0.UPF

CELL_PARAMETERS {angstrom}
6.30953000 0.00000000 0.00000000
0.00000000 8.92302000 0.00000000
0.00000000 0.00000000 26.69230000

ATOMIC_POSITIONS {angstrom}
Li 0.00000000 6.69226500 -1.1154712199999999 0 0 0
Li 3.15476500 0.00000000 -3.346146730000001 0 0 0
Li 0.00000000 2.23075500 -1.1154712199999999 0 0 0
Li 3.15476500 4.46151000 -3.346146730000001 0 0 0
Li 1.57738250 2.23075500 -3.346146730000001 0 0 0
Li 1.57738250 6.69226500 -3.346146730000001 0 0 0
Li 4.73214750 4.46151000 -1.1154712199999999 0 0 0
Li 4.73214750 0.00000000 -1.1154712199999999 0 0 0
Li 0.13344656 2.23075500 3.36936903
Li 3.24631628 4.47346685 0.96038895
Li 0.13653823 6.69226500 3.46626208
Li 3.24631628 8.91106315 0.96038895
Li 1.65751353 6.69226500 1.19341273
Li 1.54015627 2.23075500 1.12401275
Li 4.56141162 8.88215257 3.36429749
Li 4.56147471 4.50237743 3.36403057
Ge 0.00000000 0.00000000 -3.346146730000001 0 0 0
Ge 3.15476500 2.23075500 -1.1154712199999999 0 0 0
Ge 3.15476500 6.69226500 -1.1154712199999999 0 0 0
Ge 0.00000000 4.46151000 -3.346146730000001 0 0 0
Ge 6.29009665 4.51826041 1.20408965
Ge 3.14227213 6.69226500 3.65070587
Ge 3.09072327 2.23075500 3.51564283
Ge 6.29009665 8.86626959 1.20408965
Au 1.57738250 0.00000000 -1.1154712199999999 0 0 0
Au 1.57738250 4.46151000 -1.1154712199999999 0 0 0
Au 4.73214750 6.69226500 -3.346146730000001 0 0 0
Au 4.73214750 2.23075500 -3.346146730000001 0 0 0
Au 1.74307076 4.53003879 3.13127371
Au 1.74313385 8.85458044 3.13127371
Au 4.90799410 2.23075500 1.03859739
Au 4.69694032 6.69226500 1.32820885
C 3.14296618 2.23075500 5.44816535
O 3.26455082 2.23066577 6.60554348
