&CONTROL
calculation = 'relax'
prefix = 'scf'
pseudo_dir = '/vol0004/mdt0/data/hp150275/u10028/POT_KKJUS'
outdir = './data'
tprnfor = .true.
nstep = 50
disk_io = 'non'
/
&SYSTEM
ibrav = 0
ecutwfc = 50.0
ecutrho = 400
occupations = 'smearing'
smearing = 'mp'
degauss = 0.01
assume_isolated = 'esm'
esm_bc = 'bc1'
input_dft = 'BEEF-VDW'
nosym = .true.
nspin = 1
ntyp = 3
nat = 33
/
&ELECTRONS
electron_maxstep = 200
mixing_beta = 0.1
conv_thr = 1e-06
/
&IONS
ion_dynamics = 'bfgs'
upscale = 1.0
/
&CELL
/

K_POINTS {automatic}
8 6 1 0 0 0

ATOMIC_SPECIES
Ag 107.8 Ag.pbe-n-rrkjus_psl.1.0.0.UPF
C 12.01 C.pbe-n-rrkjus_psl.1.0.0.UPF
Zn 65.40 Zn.pbe-dnl-rrkjus_psl.1.0.0.UPF

CELL_PARAMETERS {angstrom}
6.41951000 0.00000000 0.00000000
0.00000000 9.07856000 0.00000000
0.00000000 0.00000000 26.80890000

ATOMIC_POSITIONS {angstrom}
Zn 1.60487750 2.26964000 -3.404462210000002 0 0 0
Zn 1.60487750 0.00000000 -1.134820740000002 0 0 0
Zn 1.60487750 2.26964000 1.16243390
Zn 1.60487750 0.22278786 3.90444820
Zn 1.60487750 6.80892000 -3.404462210000002 0 0 0
Zn 1.60487750 4.53928000 -1.134820740000002 0 0 0
Zn 1.60487750 6.80892000 1.12409718
Zn 1.60487750 4.31649214 3.90444820
Zn 4.81463250 2.26964000 -3.404462210000002 0 0 0
Zn 4.81463250 0.00000000 -1.134820740000002 0 0 0
Zn 4.81463250 2.26964000 0.97745249
Zn 4.81463250 8.88863652 3.53448538
Zn 4.81463250 6.80892000 -3.404462210000002 0 0 0
Zn 4.81463250 4.53928000 -1.134820740000002 0 0 0
Zn 4.81463250 6.80892000 1.23830309
Zn 4.81463250 4.72920348 3.53448538
Ag 0.00000000 0.00000000 -3.404462210000002 0 0 0
Ag 0.00000000 2.26964000 -1.134820740000002 0 0 0
Ag 0.03967257 9.04869154 1.20103872
Ag 6.14026132 2.26964000 3.25218766
Ag 0.00000000 4.53928000 -3.404462210000002 0 0 0
Ag 0.00000000 6.80892000 -1.134820740000002 0 0 0
Ag 0.03967257 4.56914846 1.20103872
Ag 0.17069477 6.80892000 3.54815791
Ag 3.20975500 0.00000000 -3.404462210000002 0 0 0
Ag 3.20975500 2.26964000 -1.134820740000002 0 0 0
Ag 3.17008243 9.04869154 1.20103872
Ag 3.48900368 2.26964000 3.25218766
Ag 3.20975500 4.53928000 -3.404462210000002 0 0 0
Ag 3.20975500 6.80892000 -1.134820740000002 0 0 0
Ag 3.17008243 4.56914846 1.20103872
Ag 3.03906023 6.80892000 3.54815791
C 1.60487750 2.26964000 4.19076725
