&CONTROL
calculation = 'relax'
prefix = 'scf'
pseudo_dir = '/vol0403/data/hp230205/u10028/POT_HYBRID_KKJUS_GBRV'
outdir = './data'
tprnfor = .true.
nstep = 50
disk_io = 'non'
/
&SYSTEM
ibrav = 0
ecutwfc = 50.0
ecutrho = 400
occupations = 'smearing'
smearing = 'mp'
degauss = 0.01
assume_isolated = 'esm'
esm_bc = 'bc1'
input_dft = 'BEEF-VDW'
nosym = .true.
nspin = 1
ntyp = 5
nat = 17
/
&ELECTRONS
electron_maxstep = 200
mixing_beta = 0.1
conv_thr = 1e-06
/
&IONS
ion_dynamics = 'bfgs'
upscale = 1.0
/
&CELL
/

K_POINTS {automatic}
11 7 2 0  0  0

ATOMIC_SPECIES
Al 26.98 Al.pbe-nl-rrkjus_psl.1.0.0.UPF
C 12.01 C.pbe-n-rrkjus_psl.1.0.0.UPF
In 114.8 In.pbe-dn-rrkjus_psl.1.0.0.UPF
Li 6.941 Li.pbe-sl-rrkjus_psl.1.0.0.UPF
Sc 44.95 Sc.pbe-spn-rrkjus_psl.1.0.0.UPF


CELL_PARAMETERS {angstrom}
5.96334000 0.00000000 0.00000000
0.00000000 8.71362000 0.00000000
0.00000000 0.00000000 24.47210000

ATOMIC_POSITIONS {angstrom}
Li 4.45151404 2.17840500 -0.7454201700000027 0 0 0
Li 1.46745871 1.46101267 2.81551511
Li 4.45151404 6.53521500 -0.7454201700000027 0 0 0
Li 1.46733944 7.25295588 2.81575983
Sc 2.98167000 0.00000000 -2.2360157800000025 0 0 0
Sc 0.01842672 8.71353286 0.66588584
Sc 2.98167000 4.35681000 -2.2360157800000025 0 0 0
Sc 5.88361014 4.35681000 0.92112984
Al 0.00000000 0.00000000 -2.2360157800000025 0 0 0
Al 3.01518397 8.71353286 0.65462867
Al 0.00000000 4.35681000 -2.2360157800000025 0 0 0
Al 2.87039408 4.35672286 0.90938324
In 1.46984404 2.17840500 -0.7454201700000027 0 0 0
In 4.48502801 1.84964012 2.48979145
In 1.46984404 6.53521500 -0.7454201700000027 0 0 0
In 4.48502801 6.86397988 2.49003617
C 5.92499572 0.00017427 2.73647022
