&CONTROL
calculation = 'relax'
prefix = 'scf'
pseudo_dir = '/vol0004/mdt0/data/hp150275/u10028/POT_KKJUS'
outdir = './data'
tprnfor = .true.
nstep = 50
disk_io = 'non'
/
&SYSTEM
ibrav = 0
ecutwfc = 50.0
ecutrho = 400
occupations = 'smearing'
smearing = 'mp'
degauss = 0.01
assume_isolated = 'esm'
esm_bc = 'bc1'
input_dft = 'BEEF-VDW'
nosym = .true.
nspin = 1
ntyp = 4
nat = 33
/
&ELECTRONS
electron_maxstep = 200
mixing_beta = 0.1
conv_thr = 1e-06
/
&IONS
ion_dynamics = 'bfgs'
upscale = 1.0
/
&CELL
/

K_POINTS {automatic}
8 6 1 0 0 0

ATOMIC_SPECIES
C 12.01 C.pbe-n-rrkjus_psl.1.0.0.UPF
Ga 69.72 Ga.pbe-dnl-rrkjus_psl.1.0.0.UPF
Pd 106.4 Pd.pbe-n-rrkjus_psl.1.0.0.UPF
Sc 44.95 Sc.pbe-spn-rrkjus_psl.1.0.0.UPF

CELL_PARAMETERS {angstrom}
6.43013000 0.00000000 0.00000000
0.00000000 9.09357000 0.00000000
0.00000000 0.00000000 26.82020000

ATOMIC_POSITIONS {angstrom}
Sc 0.00000000 0.00000000 -3.410188429999998 0 0 0
Sc 3.21506500 2.27339250 -1.1366400799999994 0 0 0
Sc 3.21506500 6.82017750 -1.1366400799999994 0 0 0
Sc 0.00000000 4.54678500 -3.410188429999998 0 0 0
Sc 0.00000000 4.54678500 1.11625672
Sc 3.21506500 6.95303456 3.56923222
Sc 3.21506500 2.14053544 3.56923222
Sc 0.00000000 0.00000000 1.10874707
Ga 0.00000000 6.82017750 -1.1366400799999994 0 0 0
Ga 3.21506500 0.00000000 -3.410188429999998 0 0 0
Ga 0.00000000 2.27339250 -1.1366400799999994 0 0 0
Ga 3.21506500 4.54678500 -3.410188429999998 0 0 0
Ga 0.00000000 2.33495597 3.35896185
Ga 3.21506500 4.54678500 1.24123886
Ga 0.00000000 6.75861403 3.35896185
Ga 3.21506500 0.00000000 1.27208209
Pd 1.60753250 0.00000000 -1.1366400799999994 0 0 0
Pd 4.82259750 4.54678500 -1.1366400799999994 0 0 0
Pd 4.82259750 0.00000000 -1.1366400799999994 0 0 0
Pd 1.60753250 4.54678500 -1.1366400799999994 0 0 0
Pd 4.82259750 6.82017750 -3.410188429999998 0 0 0
Pd 1.60753250 2.27339250 -3.410188429999998 0 0 0
Pd 1.60753250 6.82017750 -3.410188429999998 0 0 0
Pd 4.82259750 2.27339250 -3.410188429999998 0 0 0
Pd 1.53512924 4.54678500 3.28493810
Pd 5.13233686 0.00000000 3.40884742
Pd 4.89500076 4.54678500 3.28493810
Pd 1.29779314 0.00000000 3.40884742
Pd 4.75270199 2.27157379 1.15997365
Pd 1.67742801 6.82199621 1.15997365
Pd 1.67742801 2.27157379 1.15997365
Pd 4.75270199 6.82208715 1.15997365
C 3.21506500 0.00000000 4.00264665
