&CONTROL
calculation = 'relax'
prefix = 'scf'
pseudo_dir = '/vol0403/data/hp230205/u10028/POT_HYBRID_KKJUS_GBRV'
outdir = './data'
tprnfor = .true.
nstep = 50
disk_io = 'non'
/
&SYSTEM
ibrav = 0
ecutwfc = 50.0
ecutrho = 400
occupations = 'smearing'
smearing = 'mp'
degauss = 0.01
assume_isolated = 'esm'
esm_bc = 'bc1'
input_dft = 'BEEF-VDW'
nosym = .true.
nspin = 1
ntyp = 6
nat = 18
/
&ELECTRONS
electron_maxstep = 200
mixing_beta = 0.1
conv_thr = 1e-06
/
&IONS
ion_dynamics = 'bfgs'
upscale = 1.0
/
&CELL
/

K_POINTS {automatic}
8 8 1 0 0 0

ATOMIC_SPECIES
Ag 107.8 Ag.pbe-n-rrkjus_psl.1.0.0.UPF
C 12.01 C.pbe-n-rrkjus_psl.1.0.0.UPF
In 114.8 In.pbe-dn-rrkjus_psl.1.0.0.UPF
Li 6.941 Li.pbe-sl-rrkjus_psl.1.0.0.UPF
O 15.99 O.pbe-n-rrkjus_psl.1.0.0.UPF
Sc 44.95 Sc.pbe-spn-rrkjus_psl.1.0.0.UPF


CELL_PARAMETERS {angstrom}
6.68683000 0.00000000 0.00000000
0.00000000 6.68683000 0.00000000
0.00000000 0.00000000 25.01510000

ATOMIC_POSITIONS {angstrom}
Li 0.00000000 3.34341500 3.04984099
Li 0.00000000 0.00000000 -0.8357544899999994 0 0 0
Li 3.34341500 3.34341500 -0.8357544899999994 0 0 0
Li 3.34341500 0.00000000 3.04984099
Sc 4.99853916 1.68822397 0.91180040
Sc 5.01512250 5.01512250 -2.507513620000001 0 0 0
Sc 1.67170750 1.67170750 -2.507513620000001 0 0 0
Sc 1.68829084 4.99860603 0.91180040
In 1.67070448 1.67070448 0.98659554
In 1.67170750 5.01512250 -2.507513620000001 0 0 0
In 5.01512250 1.67170750 -2.507513620000001 0 0 0
In 5.01612552 5.01612552 0.98659554
Ag 0.00000000 6.68676313 2.68437038
Ag 0.00000000 3.34341500 -0.8357544899999994 0 0 0
Ag 3.34341500 0.00000000 -0.8357544899999994 0 0 0
Ag 3.34348187 3.34341500 2.71388820
C 6.68669626 0.00000000 4.82291128
O 6.68676313 0.00000000 5.97610739
