&CONTROL
calculation = 'relax'
prefix = 'scf'
pseudo_dir = '/vol0403/data/hp230205/u10028/POT_HYBRID_KKJUS_GBRV'
outdir = './data'
tprnfor = .true.
nstep = 50
disk_io = 'non'
/
&SYSTEM
ibrav = 0
ecutwfc = 50.0
ecutrho = 400
occupations = 'smearing'
smearing = 'mp'
degauss = 0.01
assume_isolated = 'esm'
esm_bc = 'bc1'
input_dft = 'BEEF-VDW'
nosym = .true.
nspin = 1
ntyp = 6
nat = 34
/
&ELECTRONS
electron_maxstep = 200
mixing_beta = 0.1
conv_thr = 1e-06
/
&IONS
ion_dynamics = 'bfgs'
upscale = 1.0
/
&CELL
/

K_POINTS {automatic}
7 7 2 0  0  0

ATOMIC_SPECIES
C 12.01 C.pbe-n-rrkjus_psl.1.0.0.UPF
In 114.8 In.pbe-dn-rrkjus_psl.1.0.0.UPF
O 15.99 O.pbe-n-rrkjus_psl.1.0.0.UPF
Pd 106.4 Pd.pbe-n-rrkjus_psl.1.0.0.UPF
Sn 118.7 Sn.pbe-dn-rrkjus_psl.1.0.0.UPF
Y 88.90 Y.pbe-spn-rrkjus_psl.1.0.0.UPF


CELL_PARAMETERS {angstrom}
9.06394000 0.00000000 0.00000000
0.00000000 9.16402000 0.00000000
0.00000000 0.00000000 26.55030000

ATOMIC_POSITIONS {angstrom}
Y 2.26598500 2.29100500 -3.275245009999999 0 0 0
Y 2.32064056 2.29100500 1.18148835
Y 2.26598500 6.87301500 -3.275245009999999 0 0 0
Y 2.31420516 6.87301500 1.15307953
Y 6.79795500 2.29100500 -3.275245009999999 0 0 0
Y 6.74329944 2.29100500 1.18148835
Y 6.79795500 6.87301500 -3.275245009999999 0 0 0
Y 6.74973484 6.87301500 1.15307953
In 0.00000000 0.00000000 -3.275245009999999 0 0 0
In 0.00000000 9.16081259 1.10661650
In 0.00000000 4.58201000 -3.275245009999999 0 0 0
In 0.00000000 4.58512577 1.10661650
In 4.53197000 0.00000000 -3.275245009999999 0 0 0
In 4.53197000 0.00907238 1.59779705
In 4.53197000 4.58201000 -3.275245009999999 0 0 0
In 4.53197000 4.57293762 1.59700054
Sn 0.00000000 2.29100500 -1.0917483399999988 0 0 0
Sn 0.00000000 2.29118828 3.48286835
Sn 0.00000000 6.87301500 -1.0917483399999988 0 0 0
Sn 9.06384936 6.87283172 3.52269380
Sn 4.53197000 2.29100500 -1.0917483399999988 0 0 0
Sn 4.53224192 2.29155484 3.74545082
Sn 4.53197000 6.87301500 -1.0917483399999988 0 0 0
Sn 4.53197000 6.87237352 3.72474159
Pd 2.26598500 0.00000000 -1.0917483399999988 0 0 0
Pd 2.05479520 9.10976900 3.09310995
Pd 2.26598500 4.58201000 -1.0917483399999988 0 0 0
Pd 2.05524840 4.63626100 3.09337545
Pd 6.79795500 0.00000000 -1.0917483399999988 0 0 0
Pd 7.00905416 9.10986064 3.09337545
Pd 6.79795500 4.58201000 -1.0917483399999988 0 0 0
Pd 7.00869161 4.63616936 3.09337545
C 9.06384936 2.29082172 7.37673535
O 0.00000000 2.29118828 8.51229168
