&CONTROL
calculation = 'relax'
prefix = 'scf'
pseudo_dir = '/vol0004/mdt0/data/hp150275/u10028/POT_KKJUS'
outdir = './data'
tprnfor = .true.
nstep = 50
disk_io = 'non'
/
&SYSTEM
ibrav = 0
ecutwfc = 50.0
ecutrho = 400
occupations = 'smearing'
smearing = 'mp'
degauss = 0.01
assume_isolated = 'esm'
esm_bc = 'bc1'
input_dft = 'BEEF-VDW'
nosym = .true.
nspin = 1
ntyp = 3
nat = 33
/
&ELECTRONS
electron_maxstep = 200
mixing_beta = 0.1
conv_thr = 1e-06
/
&IONS
ion_dynamics = 'bfgs'
upscale = 1.0
/
&CELL
/

K_POINTS {automatic}
8 6 1 0 0 0

ATOMIC_SPECIES
C 12.01 C.pbe-n-rrkjus_psl.1.0.0.UPF
Ca 40.07 Ca.pbe-spn-rrkjus_psl.1.0.0.UPF
In 114.8 In.pbe-dn-rrkjus_psl.1.0.0.UPF

CELL_PARAMETERS {angstrom}
8.11767000 0.00000000 0.00000000
0.00000000 11.48010000 0.00000000
0.00000000 0.00000000 28.61010000

ATOMIC_POSITIONS {angstrom}
Ca 2.02941750 0.00000000 -1.4350826199999993 0 0 0
Ca 6.08825250 5.74005000 -1.4350826199999993 0 0 0
Ca 6.08825250 0.00000000 -1.4350826199999993 0 0 0
Ca 2.02941750 5.74005000 -1.4350826199999993 0 0 0
Ca 6.08825250 8.61007500 -4.30496175 0 0 0
Ca 2.02941750 2.87002500 -4.30496175 0 0 0
Ca 2.02941750 8.61007500 -4.30496175 0 0 0
Ca 6.08825250 2.87002500 -4.30496175 0 0 0
Ca 0.00000000 8.61007500 -1.4350826199999993 0 0 0
Ca 4.05883500 0.00000000 -4.30496175 0 0 0
Ca 0.00000000 2.87002500 -1.4350826199999993 0 0 0
Ca 4.05883500 5.74005000 -4.30496175 0 0 0
Ca 2.05523169 5.67036579 4.37763140
Ca 5.84269298 11.34463482 4.16820547
Ca 6.06243831 5.66577375 4.38793104
Ca 2.28147115 11.34176479 4.16620276
Ca 6.29841898 2.97529752 1.70888127
Ca 2.14972137 8.83565897 1.76324046
Ca 1.82201103 2.97621593 1.70258705
Ca 5.97533571 8.83623297 1.76610147
Ca 0.01047179 2.68393258 5.22964018
Ca 4.06321854 5.75554814 1.45797070
Ca 0.00267883 8.57333868 5.47740364
Ca 4.06118912 0.28562489 1.35268553
In 0.00000000 0.00000000 -4.30496175 0 0 0
In 4.05883500 2.87002500 -1.4350826199999993 0 0 0
In 4.05883500 8.61007500 -1.4350826199999993 0 0 0
In 0.00000000 5.74005000 -4.30496175 0 0 0
In 0.00000000 5.88688048 1.34496080
In 4.06102677 8.28576218 4.41539673
In 4.05534440 2.88977077 4.08523618
In 0.00008118 0.10814254 1.26428032
C 4.06419266 10.13072905 2.97974191
