&CONTROL
calculation = 'relax'
prefix = 'scf'
pseudo_dir = '/vol0403/data/hp230205/u10028/POT_HYBRID_KKJUS_GBRV'
outdir = './data'
tprnfor = .true.
nstep = 50
disk_io = 'non'
/
&SYSTEM
ibrav = 0
ecutwfc = 50.0
ecutrho = 400
occupations = 'smearing'
smearing = 'mp'
degauss = 0.01
assume_isolated = 'esm'
esm_bc = 'bc1'
input_dft = 'BEEF-VDW'
nosym = .true.
nspin = 1
ntyp = 4
nat = 32
/
&ELECTRONS
electron_maxstep = 200
mixing_beta = 0.1
conv_thr = 1e-06
/
&IONS
ion_dynamics = 'bfgs'
upscale = 1.0
/
&CELL
/

K_POINTS {automatic}
6 6 1 0 0 0

ATOMIC_SPECIES
Ag 107.8 Ag.pbe-n-rrkjus_psl.1.0.0.UPF
Al 26.98 Al.pbe-nl-rrkjus_psl.1.0.0.UPF
Ge 72.64 Ge.pbe-dn-rrkjus_psl.1.0.0.UPF
Li 6.941 Li.pbe-sl-rrkjus_psl.1.0.0.UPF


CELL_PARAMETERS {angstrom}
8.02734000 0.00000000 0.00000000
0.00000000 8.55604000 0.00000000
0.00000000 0.00000000 25.78520000

ATOMIC_POSITIONS {angstrom}
Li 2.00683500 0.00000000 -0.9641086299999984 0 0 0
Li 2.00683500 0.00000000 2.89258374
Li 2.00683500 4.27802000 -0.9641086299999984 0 0 0
Li 2.00683500 4.27802000 2.89258374
Li 6.02050500 0.00000000 -0.9641086299999984 0 0 0
Li 6.02050500 0.00000000 2.89258374
Li 6.02050500 4.27802000 -0.9641086299999984 0 0 0
Li 6.02050500 4.27802000 2.89258374
Al 0.00000000 2.13901000 -0.9641086299999984 0 0 0
Al 0.00000000 2.13901000 2.89258374
Al 0.00000000 6.41703000 -0.9641086299999984 0 0 0
Al 0.00000000 6.41703000 2.89258374
Al 4.01367000 2.13901000 -0.9641086299999984 0 0 0
Al 4.01367000 2.13901000 2.89258374
Al 4.01367000 6.41703000 -0.9641086299999984 0 0 0
Al 4.01367000 6.41703000 2.89258374
Ag 0.00000000 0.00000000 -2.892583739999999 0 0 0
Ag 0.00000000 0.00000000 0.96410863
Ag 0.00000000 4.27802000 -2.892583739999999 0 0 0
Ag 0.00000000 4.27802000 0.96410863
Ag 4.01367000 0.00000000 -2.892583739999999 0 0 0
Ag 4.01367000 0.00000000 0.96410863
Ag 4.01367000 4.27802000 -2.892583739999999 0 0 0
Ag 4.01367000 4.27802000 0.96410863
Ge 2.00683500 2.13901000 -2.892583739999999 0 0 0
Ge 2.00683500 2.13901000 0.96410863
Ge 2.00683500 6.41703000 -2.892583739999999 0 0 0
Ge 2.00683500 6.41703000 0.96410863
Ge 6.02050500 2.13901000 -2.892583739999999 0 0 0
Ge 6.02050500 2.13901000 0.96410863
Ge 6.02050500 6.41703000 -2.892583739999999 0 0 0
Ge 6.02050500 6.41703000 0.96410863
