&CONTROL
calculation = 'relax'
prefix = 'scf'
pseudo_dir = '/vol0004/mdt0/data/hp150275/u10028/POT_KKJUS'
outdir = './data'
tprnfor = .true.
nstep = 50
disk_io = 'non'
/
&SYSTEM
ibrav = 0
ecutwfc = 50.0
ecutrho = 400
occupations = 'smearing'
smearing = 'mp'
degauss = 0.01
assume_isolated = 'esm'
esm_bc = 'bc1'
input_dft = 'BEEF-VDW'
nosym = .true.
nspin = 1
ntyp = 4
nat = 18
/
&ELECTRONS
electron_maxstep = 200
mixing_beta = 0.1
conv_thr = 1e-06
/
&IONS
ion_dynamics = 'bfgs'
upscale = 1.0
/
&CELL
/

K_POINTS {automatic}
6 8 1 0 0 0

ATOMIC_SPECIES
C 12.01 C.pbe-n-rrkjus_psl.1.0.0.UPF
O 15.99 O.pbe-n-rrkjus_psl.1.0.0.UPF
Pd 106.4 Pd.pbe-n-rrkjus_psl.1.0.0.UPF
Ti 47.86 Ti.pbe-spn-rrkjus_psl.1.0.0.UPF

CELL_PARAMETERS {angstrom}
7.90864000 0.00000000 0.00000000
0.00000000 5.59226000 0.00000000
0.00000000 0.00000000 24.19420000

ATOMIC_POSITIONS {angstrom}
Ti 0.00000000 0.00000000 -2.097153259999999 0 0 0
Ti 7.88182971 2.78606393 0.66388885
Ti 3.95432000 0.00000000 -2.097153259999999 0 0 0
Ti 3.98105120 2.78584024 0.66388885
Pd 0.00000000 2.79613000 -2.097153259999999 0 0 0
Pd 1.97716000 4.19419500 -0.6989704400000001 0 0 0
Pd 1.97716000 1.39806500 -0.6989704400000001 0 0 0
Pd 0.00260985 5.58431899 0.58138663
Pd 1.97723909 1.30210182 2.10054044
Pd 1.97731817 4.03559851 2.02190929
Pd 3.95432000 2.79613000 -2.097153259999999 0 0 0
Pd 5.93148000 4.19419500 -0.6989704400000001 0 0 0
Pd 5.93148000 1.39806500 -0.6989704400000001 0 0 0
Pd 3.95163106 5.58431899 0.58114468
Pd 5.93132183 1.42440454 2.03690970
Pd 5.93140091 4.13335121 2.03013532
C 1.97723909 1.53233516 4.01962439
O 1.97716000 1.63545644 5.16473587
