&CONTROL
calculation = 'relax'
prefix = 'scf'
pseudo_dir = '/vol0004/mdt0/data/hp150275/u10028/POT_HYBRID_KKJUS_GBRV'
outdir = './data'
tprnfor = .true.
nstep = 50
disk_io = 'non'
/
&SYSTEM
ibrav = 0
ecutwfc = 50.0
ecutrho = 400
occupations = 'smearing'
smearing = 'mp'
degauss = 0.01
assume_isolated = 'esm'
esm_bc = 'bc1'
input_dft = 'BEEF-VDW'
nosym = .true.
nspin = 2
ntyp = 5
nat = 34
starting_magnetization(1) = 0.0
starting_magnetization(2) = 0.0
starting_magnetization(3) = 0.001
starting_magnetization(4) = 0.0
starting_magnetization(5) = 0.0
/
&ELECTRONS
electron_maxstep = 200
mixing_beta = 0.1
conv_thr = 1e-06
/
&IONS
ion_dynamics = 'bfgs'
upscale = 1.0
/
&CELL
/

K_POINTS {automatic}
9 6 2 0  0  0

ATOMIC_SPECIES
C 12.01 C.pbe-n-rrkjus_psl.1.0.0.UPF
Ga 69.72 Ga.pbe-dnl-rrkjus_psl.1.0.0.UPF
Ni 58.69 ni_pbe_v1.4.uspp.F.UPF
O 15.99 O.pbe-n-rrkjus_psl.1.0.0.UPF
Zr 91.22 Zr.pbe-spn-rrkjus_psl.1.0.0.UPF

CELL_PARAMETERS {angstrom}
6.13924000 0.00000000 0.00000000
0.00000000 8.68219000 0.00000000
0.00000000 0.00000000 26.51160000

ATOMIC_POSITIONS {angstrom}
Zr 0.00000000 0.00000000 23.25571040
Zr 3.06962000 2.17054750 25.42621510
Zr 3.06962000 6.51164250 25.42621510
Zr 0.00000000 4.34109500 23.25571040
Zr 6.13561785 4.34144229 1.04190588
Zr 3.06740987 6.53022239 3.35663368
Zr 3.06740987 2.15196761 3.35663368
Zr 0.02351329 8.68201636 1.08034770
Ga 0.00000000 6.51164250 25.42621510
Ga 3.06962000 0.00000000 23.25571040
Ga 0.00000000 2.17054750 25.42621510
Ga 3.06962000 4.34109500 23.25571040
Ga 6.12155899 2.20779410 3.18510362
Ga 3.07330354 4.34126864 1.10367791
Ga 6.12168177 6.47430908 3.18510362
Ga 3.05451747 8.68184271 1.16465459
Ni 1.53481000 0.00000000 25.42621510
Ni 4.60443000 4.34109500 25.42621510
Ni 4.60443000 0.00000000 25.42621510
Ni 1.53481000 4.34109500 25.42621510
Ni 4.60443000 6.51164250 23.25571040
Ni 1.53481000 2.17054750 23.25571040
Ni 1.53481000 6.51164250 23.25571040
Ni 4.60443000 2.17054750 23.25571040
Ni 1.50626253 4.34135547 3.10212232
Ni 4.72463632 8.68201636 3.11246184
Ni 4.62800468 4.34135547 3.11776416
Ni 1.37162900 8.68192953 3.49131260
Ni 4.48434647 2.15856608 1.16544994
Ni 1.67140809 6.51155568 1.18904526
Ni 1.67097834 2.17063432 1.18904526
Ni 4.48397811 6.52353710 1.16544994
C 1.94263971 0.00008682 5.15809690
O 2.17249286 0.00000000 6.30445848
