&CONTROL
calculation = 'relax'
prefix = 'scf'
pseudo_dir = '/vol0004/mdt0/data/hp150275/u10028/POT_KKJUS'
outdir = './data'
tprnfor = .true.
nstep = 50
disk_io = 'non'
/
&SYSTEM
ibrav = 0
ecutwfc = 50.0
ecutrho = 400
occupations = 'smearing'
smearing = 'mp'
degauss = 0.01
assume_isolated = 'esm'
esm_bc = 'bc1'
input_dft = 'BEEF-VDW'
nosym = .true.
nspin = 1
ntyp = 4
nat = 17
/
&ELECTRONS
electron_maxstep = 200
mixing_beta = 0.1
conv_thr = 1e-06
/
&IONS
ion_dynamics = 'bfgs'
upscale = 1.0
/
&CELL
/

K_POINTS {automatic}
8 8 1 0 0 0

ATOMIC_SPECIES
C 12.01 C.pbe-n-rrkjus_psl.1.0.0.UPF
Ge 72.64 Ge.pbe-dn-rrkjus_psl.1.0.0.UPF
Li 6.941 Li.pbe-sl-rrkjus_psl.1.0.0.UPF
Zn 65.40 Zn.pbe-dnl-rrkjus_psl.1.0.0.UPF

CELL_PARAMETERS {angstrom}
6.18893000 0.00000000 0.00000000
0.00000000 6.18893000 0.00000000
0.00000000 0.00000000 24.64170000

ATOMIC_POSITIONS {angstrom}
Li 0.00000000 0.00000000 -2.320755309999999 0 0 0
Li 3.09446500 3.09446500 -2.320755309999999 0 0 0
Li 3.09446500 0.00000000 0.84644239
Li 0.00000000 3.09446500 0.84668881
Li 1.49679272 1.49679272 2.99667714
Li 1.54723250 4.64169750 -0.7735029600000018 0 0 0
Li 4.69213728 4.69213728 2.99667714
Li 4.64169750 1.54723250 -0.7735029600000018 0 0 0
Zn 1.54723250 1.54723250 -0.7735029600000018 0 0 0
Zn 1.43812166 4.75080834 2.67608862
Zn 4.64169750 4.64169750 -0.7735029600000018 0 0 0
Zn 4.75080834 1.43812166 2.67608862
Ge 0.00000000 0.00000000 0.71017379
Ge 3.09446500 0.00000000 -2.320755309999999 0 0 0
Ge 0.00000000 3.09446500 -2.320755309999999 0 0 0
Ge 3.09446500 3.09446500 1.28432540
C 0.00000000 0.00000000 2.75272431
