&CONTROL
calculation = 'relax'
prefix = 'scf'
pseudo_dir = '/vol0004/mdt0/data/hp150275/u10028/POT_KKJUS'
outdir = './data'
tprnfor = .true.
nstep = 50
disk_io = 'non'
/
&SYSTEM
ibrav = 0
ecutwfc = 50.0
ecutrho = 400
occupations = 'smearing'
smearing = 'mp'
degauss = 0.01
assume_isolated = 'esm'
esm_bc = 'bc1'
input_dft = 'BEEF-VDW'
nosym = .true.
nspin = 1
ntyp = 3
nat = 32
/
&ELECTRONS
electron_maxstep = 200
mixing_beta = 0.1
conv_thr = 1e-06
/
&IONS
ion_dynamics = 'bfgs'
upscale = 1.0
/
&CELL
/

K_POINTS {automatic}
8 6 1 0 0 0

ATOMIC_SPECIES
Ag 107.8 Ag.pbe-n-rrkjus_psl.1.0.0.UPF
In 114.8 In.pbe-dn-rrkjus_psl.1.0.0.UPF
Sc 44.95 Sc.pbe-spn-rrkjus_psl.1.0.0.UPF

CELL_PARAMETERS {angstrom}
6.85473000 0.00000000 0.00000000
0.00000000 9.69405000 0.00000000
0.00000000 0.00000000 27.27050000

ATOMIC_POSITIONS {angstrom}
Sc 0.00000000 0.00000000 -3.63515765 0 0 0
Sc 3.42736500 2.42351250 -1.211628319999999 0 0 0
Sc 3.42736500 7.27053750 -1.211628319999999 0 0 0
Sc 0.00000000 4.84702500 -3.63515765 0 0 0
Sc 0.00000000 4.84702500 1.28062268
Sc 3.42736500 7.27053750 3.54871016
Sc 3.42736500 2.42351250 3.54871016
Sc 0.00000000 0.00000000 1.28062268
In 0.00000000 7.27053750 -1.211628319999999 0 0 0
In 3.42736500 0.00000000 -3.63515765 0 0 0
In 0.00000000 2.42351250 -1.211628319999999 0 0 0
In 3.42736500 4.84702500 -3.63515765 0 0 0
In 0.00000000 2.42351250 3.72460489
In 3.42736500 4.84702500 1.20290176
In 0.00000000 7.27053750 3.72460489
In 3.42736500 9.69395306 1.20290176
Ag 1.71368250 0.00000000 -1.211628319999999 0 0 0
Ag 5.14104750 4.84702500 -1.211628319999999 0 0 0
Ag 5.14104750 0.00000000 -1.211628319999999 0 0 0
Ag 1.71368250 4.84702500 -1.211628319999999 0 0 0
Ag 5.14104750 7.27053750 -3.63515765 0 0 0
Ag 1.71368250 2.42351250 -3.63515765 0 0 0
Ag 1.71368250 7.27053750 -3.63515765 0 0 0
Ag 5.14104750 2.42351250 -3.63515765 0 0 0
Ag 1.76317365 4.84702500 3.72569571
Ag 5.09155635 0.00000000 3.72569571
Ag 5.09155635 4.84702500 3.72569571
Ag 1.76317365 9.69395306 3.72569571
Ag 5.16716402 2.42351250 1.20344717
Ag 1.68756598 7.27053750 1.20344717
Ag 1.68749743 2.42351250 1.20344717
Ag 5.16716402 7.27053750 1.20344717
