&CONTROL
calculation = 'relax'
prefix = 'scf'
pseudo_dir = '/vol0004/mdt0/data/hp150275/u10028/POT_HYBRID_KKJUS_GBRV'
outdir = './data'
tprnfor = .true.
nstep = 50
disk_io = 'non'
/
&SYSTEM
ibrav = 0
ecutwfc = 50.0
ecutrho = 400
occupations = 'smearing'
smearing = 'mp'
degauss = 0.01
assume_isolated = 'esm'
esm_bc = 'bc1'
input_dft = 'BEEF-VDW'
nosym = .true.
nspin = 2
ntyp = 3
nat = 33
starting_magnetization(1) = 0.0
starting_magnetization(2) = 0.1
starting_magnetization(3) = 0.0
/
&ELECTRONS
electron_maxstep = 200
mixing_beta = 0.1
conv_thr = 1e-06
/
&IONS
ion_dynamics = 'bfgs'
upscale = 1.0
/
&CELL
/

K_POINTS {automatic}
7 7 2 0  0  0

ATOMIC_SPECIES
C 12.01 C.pbe-n-rrkjus_psl.1.0.0.UPF
Fe 55.84 fe_pbe_v1.5.uspp.F.UPF
Pt 195.0 Pt.pbe-n-rrkjus_psl.1.0.0.UPF

CELL_PARAMETERS {angstrom}
7.52786000 0.00000000 0.00000000
-0.00000000 7.52786000 0.00000000
0.00000000 0.00000000 25.64590000

ATOMIC_POSITIONS {angstrom}
Fe 0.00000000 1.88196500 24.70495193
Fe 1.88196500 0.00000000 24.70495193
Fe 1.88196500 1.88196500 22.82305579
Fe 0.00000000 1.88196500 2.82284421
Fe 1.88196500 -0.00000000 2.82284421
Fe 1.88196500 1.88196500 0.94094807
Fe 0.00000000 5.64589500 24.70495193
Fe 1.88196500 3.76393000 24.70495193
Fe 1.88196500 5.64589500 22.82305579
Fe 0.00000000 5.64589500 2.82284421
Fe 1.88196500 3.76393000 2.82284421
Fe 1.88196500 5.64589500 0.94094807
Fe 3.76393000 1.88196500 24.70495193
Fe 5.64589500 0.00000000 24.70495193
Fe 5.64589500 1.88196500 22.82305579
Fe 3.76393000 1.88196500 2.82284421
Fe 5.64589500 -0.00000000 2.82284421
Fe 5.64589500 1.88196500 0.94094807
Fe 3.76393000 5.64589500 24.70495193
Fe 5.64589500 3.76393000 24.70495193
Fe 5.64589500 5.64589500 22.82305579
Fe 3.76393000 5.64589500 2.82284421
Fe 5.64589500 3.76393000 2.82284421
Fe 5.64589500 5.64589500 0.94094807
Pt 0.00000000 0.00000000 22.82305579
Pt 0.00000000 0.00000000 0.94094807
Pt 0.00000000 3.76393000 22.82305579
Pt 0.00000000 3.76393000 0.94094807
Pt 3.76393000 0.00000000 22.82305579
Pt 3.76393000 -0.00000000 0.94094807
Pt 3.76393000 3.76393000 22.82305579
Pt 3.76393000 3.76393000 0.94094807
C 0.00000000 0.00000000 3.62299629
