&CONTROL
calculation = 'relax'
prefix = 'scf'
pseudo_dir = '/vol0403/data/hp230205/u10028/POT_HYBRID_KKJUS_GBRV'
outdir = './data'
tprnfor = .true.
nstep = 50
disk_io = 'non'
/
&SYSTEM
ibrav = 0
ecutwfc = 50.0
ecutrho = 400
occupations = 'smearing'
smearing = 'mp'
degauss = 0.01
assume_isolated = 'esm'
esm_bc = 'bc1'
input_dft = 'BEEF-VDW'
nosym = .true.
nspin = 1
ntyp = 5
nat = 17
/
&ELECTRONS
electron_maxstep = 200
mixing_beta = 0.1
conv_thr = 1e-06
/
&IONS
ion_dynamics = 'bfgs'
upscale = 1.0
/
&CELL
/

K_POINTS {automatic}
11 8 2 0  0  0

ATOMIC_SPECIES
C 12.01 C.pbe-n-rrkjus_psl.1.0.0.UPF
Cu 63.54 Cu.pbe-dn-rrkjus_psl.1.0.0.UPF
In 114.8 In.pbe-dn-rrkjus_psl.1.0.0.UPF
Sn 118.7 Sn.pbe-dn-rrkjus_psl.1.0.0.UPF
Y 88.90 Y.pbe-spn-rrkjus_psl.1.0.0.UPF


CELL_PARAMETERS {angstrom}
6.35598000 0.00000000 0.00000000
0.00000000 8.84740000 0.00000000
0.00000000 0.00000000 24.76400000

ATOMIC_POSITIONS {angstrom}
Y 3.18377394 0.30452751 2.40730844
Y 6.24373339 0.00000000 -0.7939338400000011 0 0 0
Y 3.18377394 4.11917249 2.40730844
Y 6.24373339 4.42370000 -0.7939338400000011 0 0 0
In 1.86217502 2.21185000 0.38532784
In 4.59855153 2.21185000 -2.382049160000001 0 0 0
In 2.11088452 6.63555000 0.62454808
In 4.59855153 6.63555000 -2.382049160000001 0 0 0
Cu 0.28112500 0.83687557 2.37585816
Cu 3.06574339 0.00000000 -0.7939338400000011 0 0 0
Cu 0.28106144 3.58682443 2.37585816
Cu 3.06574339 4.42370000 -0.7939338400000011 0 0 0
Sn 4.87497310 2.21185000 0.79715316
Sn 1.42056153 2.21185000 -2.382049160000001 0 0 0
Sn 5.37042174 6.63555000 1.68221852
Sn 1.42056153 6.63555000 -2.382049160000001 0 0 0
C 1.74096648 2.21185000 2.75028984
