&CONTROL
calculation = 'relax'
prefix = 'scf'
pseudo_dir = '/vol0004/mdt0/data/hp150275/u10028/POT_KKJUS'
outdir = './data'
tprnfor = .true.
nstep = 50
disk_io = 'non'
/
&SYSTEM
ibrav = 0
ecutwfc = 50.0
ecutrho = 400
occupations = 'smearing'
smearing = 'mp'
degauss = 0.01
assume_isolated = 'esm'
esm_bc = 'bc1'
input_dft = 'BEEF-VDW'
nosym = .true.
nspin = 1
ntyp = 4
nat = 18
/
&ELECTRONS
electron_maxstep = 200
mixing_beta = 0.1
conv_thr = 1e-06
/
&IONS
ion_dynamics = 'bfgs'
upscale = 1.0
/
&CELL
/

K_POINTS {automatic}
9 9 2 0  0  0

ATOMIC_SPECIES
Au 196.9 Au.pbe-n-rrkjus_psl.1.0.0.UPF
C 12.01 C.pbe-n-rrkjus_psl.1.0.0.UPF
O 15.99 O.pbe-n-rrkjus_psl.1.0.0.UPF
Zn 65.40 Zn.pbe-dnl-rrkjus_psl.1.0.0.UPF

CELL_PARAMETERS {angstrom}
6.43103000 0.00000000 0.00000000
0.00000000 6.43103000 0.00000000
0.00000000 0.00000000 24.82330000

ATOMIC_POSITIONS {angstrom}
Zn 0.00000000 0.00000000 -2.008453199999998 0 0 0
Zn 0.08431080 0.08431080 1.36056507
Zn 0.00000000 3.21551500 -2.008453199999998 0 0 0
Zn 0.08431080 3.13120420 1.36056507
Zn 3.21551500 0.00000000 -2.008453199999998 0 0 0
Zn 3.13113989 0.08431080 1.36056507
Zn 3.21551500 3.21551500 -2.008453199999998 0 0 0
Zn 3.13120420 3.13120420 1.36056507
Au 1.60775750 1.60775750 -0.4006480599999982 0 0 0
Au 1.60769319 1.60782181 3.14064392
Au 1.60775750 4.82327250 -0.4006480599999982 0 0 0
Au 1.60775750 4.82327250 2.78641542
Au 4.82327250 1.60775750 -0.4006480599999982 0 0 0
Au 4.82327250 1.60775750 2.78641542
Au 4.82327250 4.82327250 -0.4006480599999982 0 0 0
Au 4.82327250 4.82327250 2.64318498
C 1.60775750 1.60769319 5.24789385
O 1.60775750 1.60782181 6.39001389
