&CONTROL
calculation = 'relax'
prefix = 'scf'
pseudo_dir = '/vol0004/mdt0/data/hp150275/u10028/POT_KKJUS'
outdir = './data'
tprnfor = .true.
nstep = 50
disk_io = 'non'
/
&SYSTEM
ibrav = 0
ecutwfc = 50.0
ecutrho = 400
occupations = 'smearing'
smearing = 'mp'
degauss = 0.01
assume_isolated = 'esm'
esm_bc = 'bc1'
input_dft = 'BEEF-VDW'
nosym = .true.
nspin = 1
ntyp = 3
nat = 16
/
&ELECTRONS
electron_maxstep = 200
mixing_beta = 0.1
conv_thr = 1e-06
/
&IONS
ion_dynamics = 'bfgs'
upscale = 1.0
/
&CELL
/

K_POINTS {automatic}
8 8 1 0 0 0

ATOMIC_SPECIES
Au 196.9 Au.pbe-n-rrkjus_psl.1.0.0.UPF
Li 6.941 Li.pbe-sl-rrkjus_psl.1.0.0.UPF
Sn 118.7 Sn.pbe-dn-rrkjus_psl.1.0.0.UPF

CELL_PARAMETERS {angstrom}
6.60404000 0.00000000 0.00000000
0.00000000 6.60404000 0.00000000
0.00000000 0.00000000 24.95300000

ATOMIC_POSITIONS {angstrom}
Li 0.00000000 0.00000000 0.81646216
Li 3.30202000 0.00000000 -2.4765852499999994 0 0 0
Li 0.00000000 3.30202000 -2.4765852499999994 0 0 0
Li 3.30202000 3.30202000 0.81646216
Li 1.65094396 1.65094396 2.84239623
Li 1.65101000 4.95303000 -0.8254452400000005 0 0 0
Li 4.95303000 4.95303000 2.84239623
Li 4.95303000 1.65101000 -0.8254452400000005 0 0 0
Sn 0.00000000 0.00000000 -2.4765852499999994 0 0 0
Sn 3.30202000 3.30202000 -2.4765852499999994 0 0 0
Sn 3.30162376 6.60337960 0.97117076
Sn 0.00066040 3.30294457 0.97216888
Au 1.65101000 1.65101000 -0.8254452400000005 0 0 0
Au 1.65107604 4.95309604 2.41844476
Au 4.95303000 4.95303000 -0.8254452400000005 0 0 0
Au 4.95296396 1.65094396 2.41819523
