&CONTROL
calculation = 'relax'
prefix = 'scf'
pseudo_dir = '/vol0403/data/hp230205/u10028/POT_HYBRID_KKJUS_GBRV'
outdir = './data'
tprnfor = .true.
nstep = 50
disk_io = 'non'
/
&SYSTEM
ibrav = 0
ecutwfc = 50.0
ecutrho = 400
occupations = 'smearing'
smearing = 'mp'
degauss = 0.01
assume_isolated = 'esm'
esm_bc = 'bc1'
input_dft = 'BEEF-VDW'
nosym = .true.
nspin = 1
ntyp = 6
nat = 34
/
&ELECTRONS
electron_maxstep = 200
mixing_beta = 0.1
conv_thr = 1e-06
/
&IONS
ion_dynamics = 'bfgs'
upscale = 1.0
/
&CELL
/

K_POINTS {automatic}
6 6 1 0 0 0

ATOMIC_SPECIES
C 12.01 C.pbe-n-rrkjus_psl.1.0.0.UPF
Ge 72.64 Ge.pbe-dn-rrkjus_psl.1.0.0.UPF
Hf 178.4 Hf.pbe-spn-rrkjus_psl.1.0.0.UPF
Li 6.941 Li.pbe-sl-rrkjus_psl.1.0.0.UPF
O 15.99 O.pbe-n-rrkjus_psl.1.0.0.UPF
Pd 106.4 Pd.pbe-n-rrkjus_psl.1.0.0.UPF


CELL_PARAMETERS {angstrom}
6.42607000 0.00000000 0.00000000
0.00000000 9.08784000 0.00000000
0.00000000 0.00000000 26.81590000

ATOMIC_POSITIONS {angstrom}
Li 1.60651750 0.00000000 -1.1359215200000001 0 0 0
Li 1.60651750 4.54392000 -1.1359215200000001 0 0 0
Li 4.81955250 2.27196000 -3.4080327299999986 0 0 0
Li 4.81955250 6.81588000 -3.4080327299999986 0 0 0
Li 1.32685493 4.54401088 3.83601450
Li 1.33353805 0.00000000 3.94006019
Li 4.76557351 6.81378980 1.01927236
Li 4.76634464 2.27405020 1.01900420
Hf 4.81955250 0.00000000 -1.1359215200000001 0 0 0
Hf 4.81955250 4.54392000 -1.1359215200000001 0 0 0
Hf 1.60651750 2.27196000 -3.4080327299999986 0 0 0
Hf 1.60651750 6.81588000 -3.4080327299999986 0 0 0
Hf 4.33470552 4.54392000 3.12190708
Hf 4.32056816 0.00009088 3.12673394
Hf 1.67013559 6.83187460 1.47460634
Hf 1.67084246 2.25623804 1.47487450
Ge 0.00000000 0.00000000 -3.4080327299999986 0 0 0
Ge 0.00000000 4.54392000 -3.4080327299999986 0 0 0
Ge 3.21303500 6.81588000 -1.1359215200000001 0 0 0
Ge 3.21303500 2.27196000 -1.1359215200000001 0 0 0
Ge 0.02891732 4.54392000 1.29225822
Ge 0.00700442 0.00027264 1.31102935
Ge 3.08052944 2.27550426 3.88374680
Ge 3.08033665 6.81233574 3.88347864
Pd 0.00000000 2.27196000 -1.1359215200000001 0 0 0
Pd 0.00000000 6.81588000 -1.1359215200000001 0 0 0
Pd 3.21303500 4.54392000 -3.4080327299999986 0 0 0
Pd 3.21303500 0.00000000 -3.4080327299999986 0 0 0
Pd 5.95394664 6.79770432 3.22568461
Pd 5.95433220 2.29031744 3.22541645
Pd 3.02160237 0.00000000 0.84496901
Pd 2.99133559 4.54419264 0.85971775
C 0.99565529 0.00000000 6.03679541
O 0.92811729 9.08774912 7.17298509
