&CONTROL
calculation = 'relax'
prefix = 'scf'
pseudo_dir = '/vol0403/data/hp230205/u10028/POT_HYBRID_KKJUS_GBRV'
outdir = './data'
tprnfor = .true.
nstep = 50
disk_io = 'non'
/
&SYSTEM
ibrav = 0
ecutwfc = 50.0
ecutrho = 400
occupations = 'smearing'
smearing = 'mp'
degauss = 0.01
assume_isolated = 'esm'
esm_bc = 'bc1'
input_dft = 'BEEF-VDW'
nosym = .true.
nspin = 1
ntyp = 6
nat = 18
/
&ELECTRONS
electron_maxstep = 200
mixing_beta = 0.1
conv_thr = 1e-06
/
&IONS
ion_dynamics = 'bfgs'
upscale = 1.0
/
&CELL
/

K_POINTS {automatic}
11 7 2 0  0  0

ATOMIC_SPECIES
C 12.01 C.pbe-n-rrkjus_psl.1.0.0.UPF
In 114.8 In.pbe-dn-rrkjus_psl.1.0.0.UPF
O 15.99 O.pbe-n-rrkjus_psl.1.0.0.UPF
Pd 106.4 Pd.pbe-n-rrkjus_psl.1.0.0.UPF
Sn 118.7 Sn.pbe-dn-rrkjus_psl.1.0.0.UPF
Y 88.90 Y.pbe-spn-rrkjus_psl.1.0.0.UPF


CELL_PARAMETERS {angstrom}
6.32964000 0.00000000 0.00000000
0.00000000 9.06394000 0.00000000
0.00000000 0.00000000 24.74170000

ATOMIC_POSITIONS {angstrom}
Y 4.65665285 2.26752587 0.67025265
Y 1.35428977 2.26598500 -2.3707496900000002 0 0 0
Y 4.65671615 6.79641413 0.67025265
Y 1.35428977 6.79795500 -2.3707496900000002 0 0 0
In 0.09943864 0.00009064 2.31334895
In 3.01271875 0.00000000 -0.7902499000000027 0 0 0
In 0.03601565 4.53187936 2.35219342
In 3.01271875 4.53197000 -0.7902499000000027 0 0 0
Sn 3.01911169 0.00000000 2.27549415
Sn 6.17753875 0.00000000 -0.7902499000000027 0 0 0
Sn 2.95537221 4.53206064 2.24902053
Sn 6.17753875 4.53197000 -0.7902499000000027 0 0 0
Pd 1.48176872 2.27296423 0.72715856
Pd 4.51910977 2.26598500 -2.3707496900000002 0 0 0
Pd 1.48176872 6.79106641 0.72715856
Pd 4.51910977 6.79795500 -2.3707496900000002 0 0 0
C 6.28666174 0.00009064 6.09511780
O 0.01095028 0.00000000 7.22853507
