&CONTROL
calculation = 'relax'
prefix = 'scf'
pseudo_dir = '/vol0403/data/hp230205/u10028/POT_HYBRID_KKJUS_GBRV'
outdir = './data'
tprnfor = .true.
nstep = 100
disk_io = 'non'
/
&SYSTEM
ibrav = 0
ecutwfc = 50.0
ecutrho = 400
occupations = 'smearing'
smearing = 'mp'
degauss = 0.01
assume_isolated = 'esm'
esm_bc = 'bc1'
input_dft = 'BEEF-VDW'
nosym = .true.
nspin = 1
ntyp = 6
nat = 18
/
&ELECTRONS
electron_maxstep = 200
mixing_beta = 0.1
conv_thr = 1e-06
/
&IONS
ion_dynamics = 'bfgs'
upscale = 1.0
/
&CELL
/

K_POINTS {automatic}
9 9 2 0  0  0

ATOMIC_SPECIES
Ag 107.8 Ag.pbe-n-rrkjus_psl.1.0.0.UPF
C 12.01 C.pbe-n-rrkjus_psl.1.0.0.UPF
Cu 63.54 Cu.pbe-dn-rrkjus_psl.1.0.0.UPF
Ge 72.64 Ge.pbe-dn-rrkjus_psl.1.0.0.UPF
Li 6.941 Li.pbe-sl-rrkjus_psl.1.0.0.UPF
O 15.99 O.pbe-n-rrkjus_psl.1.0.0.UPF


CELL_PARAMETERS {angstrom}
6.23049000 0.00000000 0.00000000
-0.00000000 6.23049000 0.00000000
0.00000000 0.00000000 24.67290000

ATOMIC_POSITIONS {angstrom}
Li 1.55762250 1.55762250 -0.7789234499999971 0 0 0
Li 1.55762250 4.67286750 2.33652363
Li 4.67286750 1.55762250 2.33652363
Li 4.67286750 4.67286750 -0.7789234499999971 0 0 0
Cu 0.00000000 3.11524500 -2.3365236299999985 0 0 0
Cu 0.00000000 0.00000000 0.77892345
Cu 3.11524500 3.11524500 0.77892345
Cu 3.11524500 0.00000000 -2.3365236299999985 0 0 0
Ag 0.00000000 0.00000000 -2.3365236299999985 0 0 0
Ag 0.00000000 3.11524500 0.77892345
Ag 3.11524500 -0.00000000 0.77892345
Ag 3.11524500 3.11524500 -2.3365236299999985 0 0 0
Ge 4.67286750 1.55762250 -0.7789234499999971 0 0 0
Ge 4.67286750 4.67286750 2.33652363
Ge 1.55762250 1.55762250 2.33652363
Ge 1.55762250 4.67286750 -0.7789234499999971 0 0 0
C 1.55762250 1.55762250 4.23633693
O 1.55762250 1.55762250 5.38634080
