&CONTROL
calculation = 'relax'
prefix = 'scf'
pseudo_dir = '/vol0403/data/hp230205/u10028/POT_HYBRID_KKJUS_GBRV'
outdir = './data'
tprnfor = .true.
nstep = 50
disk_io = 'non'
/
&SYSTEM
ibrav = 0
ecutwfc = 50.0
ecutrho = 400
occupations = 'smearing'
smearing = 'mp'
degauss = 0.01
assume_isolated = 'esm'
esm_bc = 'bc1'
input_dft = 'BEEF-VDW'
nosym = .true.
nspin = 1
ntyp = 6
nat = 18
/
&ELECTRONS
electron_maxstep = 200
mixing_beta = 0.1
conv_thr = 1e-06
/
&IONS
ion_dynamics = 'bfgs'
upscale = 1.0
/
&CELL
/

K_POINTS {automatic}
9 9 2 0  0  0

ATOMIC_SPECIES
C 12.01 C.pbe-n-rrkjus_psl.1.0.0.UPF
In 114.8 In.pbe-dn-rrkjus_psl.1.0.0.UPF
Mg 24.30 Mg.pbe-spnl-rrkjus_psl.1.0.0.UPF
O 15.99 O.pbe-n-rrkjus_psl.1.0.0.UPF
Pd 106.4 Pd.pbe-n-rrkjus_psl.1.0.0.UPF
Sc 44.95 Sc.pbe-spn-rrkjus_psl.1.0.0.UPF


CELL_PARAMETERS {angstrom}
6.76782000 0.00000000 0.00000000
0.00000000 6.76782000 0.00000000
0.00000000 0.00000000 25.07590000

ATOMIC_POSITIONS {angstrom}
Mg 1.69195500 1.69195500 -0.8460608700000023 0 0 0
Mg 1.70359565 5.06185561 2.68362282
Mg 5.06185561 1.70359565 2.68362282
Mg 5.07586500 5.07586500 -0.8460608700000023 0 0 0
Sc 5.07586500 1.69195500 -0.8460608700000023 0 0 0
Sc 5.08418942 5.08418942 2.62068231
Sc 1.68484879 1.68484879 2.45367682
Sc 1.69195500 5.07586500 -0.8460608700000023 0 0 0
In 0.00000000 0.00000000 -2.5379318400000024 0 0 0
In 6.72565648 3.42539674 0.96115925
In 3.42532906 6.72558880 0.96115925
In 3.38391000 3.38391000 -2.5379318400000024 0 0 0
Pd 0.00000000 3.38391000 -2.5379318400000024 0 0 0
Pd 6.69296791 6.69296791 0.96692670
Pd 3.45923584 3.45923584 0.96918353
Pd 3.38391000 0.00000000 -2.5379318400000024 0 0 0
C 1.70075317 1.70075317 4.72806095
O 1.70379868 1.70386636 5.88380918
