&CONTROL
calculation = 'relax'
prefix = 'scf'
pseudo_dir = '/vol0004/mdt0/data/hp150275/u10028/POT_KKJUS'
outdir = './data'
tprnfor = .true.
nstep = 50
disk_io = 'non'
/
&SYSTEM
ibrav = 0
ecutwfc = 50.0
ecutrho = 400
occupations = 'smearing'
smearing = 'mp'
degauss = 0.01
assume_isolated = 'esm'
esm_bc = 'bc1'
input_dft = 'BEEF-VDW'
nosym = .true.
nspin = 1
ntyp = 5
nat = 34
/
&ELECTRONS
electron_maxstep = 200
mixing_beta = 0.1
conv_thr = 1e-06
/
&IONS
ion_dynamics = 'bfgs'
upscale = 1.0
/
&CELL
/

K_POINTS {automatic}
8 6 1 0 0 0

ATOMIC_SPECIES
C 12.01 C.pbe-n-rrkjus_psl.1.0.0.UPF
In 114.8 In.pbe-dn-rrkjus_psl.1.0.0.UPF
Ni 58.69 Ni.pbe-spn-rrkjus_psl.1.0.0.UPF
O 15.99 O.pbe-n-rrkjus_psl.1.0.0.UPF
Sc 44.95 Sc.pbe-spn-rrkjus_psl.1.0.0.UPF

CELL_PARAMETERS {angstrom}
6.35421000 0.00000000 0.00000000
0.00000000 8.98620000 0.00000000
0.00000000 0.00000000 26.73970000

ATOMIC_POSITIONS {angstrom}
Sc 0.00000000 0.00000000 -3.36973699 0 0 0
Sc 3.17710500 2.24655000 -1.1233347999999985 0 0 0
Sc 3.17710500 6.73965000 -1.1233347999999985 0 0 0
Sc 0.00000000 4.49310000 -3.36973699 0 0 0
Sc 0.00000000 4.49633503 1.08643401
Sc 3.17710500 6.73956014 3.29085488
Sc 3.17704146 2.24663986 3.29807460
Sc 0.00006354 8.98305483 1.08643401
In 0.00000000 6.73965000 -1.1233347999999985 0 0 0
In 3.17710500 0.00000000 -3.36973699 0 0 0
In 0.00000000 2.24655000 -1.1233347999999985 0 0 0
In 3.17710500 4.49310000 -3.36973699 0 0 0
In 0.00000000 2.24646014 3.49648317
In 3.17710500 4.48923593 1.10969755
In 6.35414646 6.73973986 3.49273961
In 3.17710500 0.00386407 1.10943015
Ni 1.58855250 0.00000000 -1.1233347999999985 0 0 0
Ni 4.76565750 4.49310000 -1.1233347999999985 0 0 0
Ni 4.76565750 0.00000000 -1.1233347999999985 0 0 0
Ni 1.58855250 4.49310000 -1.1233347999999985 0 0 0
Ni 4.76565750 6.73965000 -3.36973699 0 0 0
Ni 1.58855250 2.24655000 -3.36973699 0 0 0
Ni 1.58855250 6.73965000 -3.36973699 0 0 0
Ni 4.76565750 2.24655000 -3.36973699 0 0 0
Ni 1.45949849 4.49345945 3.16089994
Ni 4.89458442 8.98593041 3.16063254
Ni 4.89477505 4.49327972 3.16089994
Ni 1.45975266 8.98593041 3.16089994
Ni 4.76533979 2.24663986 1.17146626
Ni 1.59833798 6.73965000 1.15996819
Ni 1.58893375 2.24655000 1.17146626
Ni 4.75580847 6.73965000 1.15970079
C 0.00044479 2.24681959 7.58632029
O 6.35414646 2.24646014 8.72142055
