&CONTROL
calculation = 'relax'
prefix = 'scf'
pseudo_dir = '/vol0403/data/hp230205/u10028/POT_HYBRID_KKJUS_GBRV'
outdir = './data'
tprnfor = .true.
nstep = 70
disk_io = 'non'
/
&SYSTEM
ibrav = 0
ecutwfc = 50.0
ecutrho = 400
occupations = 'smearing'
smearing = 'mp'
degauss = 0.01
assume_isolated = 'esm'
esm_bc = 'bc1'
input_dft = 'BEEF-VDW'
nosym = .true.
nspin = 1
ntyp = 6
nat = 34
/
&ELECTRONS
electron_maxstep = 200
mixing_beta = 0.1
conv_thr = 1e-06
/
&IONS
ion_dynamics = 'bfgs'
upscale = 1.0
/
&CELL
/

K_POINTS {automatic}
9 6 2 0  0  0

ATOMIC_SPECIES
Ag 107.8 Ag.pbe-n-rrkjus_psl.1.0.0.UPF
C 12.01 C.pbe-n-rrkjus_psl.1.0.0.UPF
In 114.8 In.pbe-dn-rrkjus_psl.1.0.0.UPF
O 15.99 O.pbe-n-rrkjus_psl.1.0.0.UPF
Pd 106.4 Pd.pbe-n-rrkjus_psl.1.0.0.UPF
Sc 44.95 Sc.pbe-spn-rrkjus_psl.1.0.0.UPF


CELL_PARAMETERS {angstrom}
6.71273000 0.00000000 0.00000000
-0.00000000 9.49324000 0.00000000
0.00000000 0.00000000 27.11990000

ATOMIC_POSITIONS {angstrom}
Sc 5.03454750 0.00000000 -1.1867668200000026 0 0 0
Sc 5.03454750 4.74662000 -1.1867668200000026 0 0 0
Sc 1.67818250 2.37331000 -3.560029270000001 0 0 0
Sc 1.67818250 7.11993000 -3.560029270000001 0 0 0
Sc 4.99641919 4.72507035 3.44260011
Sc 4.99648632 0.02154965 3.44260011
Sc 1.71120913 7.11993000 1.29822961
Sc 1.78216269 2.37331000 1.36196138
In 1.67818250 0.00000000 -1.1867668200000026 0 0 0
In 1.67818250 4.74662000 -1.1867668200000026 0 0 0
In 5.03454750 2.37331000 -3.560029270000001 0 0 0
In 5.03454750 7.11993000 -3.560029270000001 0 0 0
In 1.60581927 4.80006694 3.69210319
In 1.60581927 9.43979306 3.69210319
In 5.01252975 7.11993000 1.18052925
In 4.98742414 2.37331000 1.24561701
Ag 0.00000000 0.00000000 -3.560029270000001 0 0 0
Ag 0.00000000 4.74662000 -3.560029270000001 0 0 0
Ag 3.35636500 7.11993000 -1.1867668200000026 0 0 0
Ag 3.35636500 2.37331000 -1.1867668200000026 0 0 0
Ag 0.04524380 4.72763352 1.17998685
Ag 0.04524380 0.01898648 1.17998685
Ag 3.15639277 2.37331000 4.00533803
Ag 3.36160093 7.11993000 3.82390590
Pd 0.00000000 2.37331000 -1.1867668200000026 0 0 0
Pd 0.00000000 7.11993000 -1.1867668200000026 0 0 0
Pd 3.35636500 4.74662000 -3.560029270000001 0 0 0
Pd 3.35636500 0.00000000 -3.560029270000001 0 0 0
Pd 6.62244378 7.11993000 3.41656500
Pd 0.01074037 2.37331000 3.42009059
Pd 3.36918631 9.47292447 1.17754606
Pd 3.36925344 4.76693553 1.17754606
C 3.71603307 2.37331000 6.16191248
O 3.50203124 2.37331000 7.28738833
