&CONTROL
calculation = 'relax'
prefix = 'scf'
pseudo_dir = '/vol0403/data/hp230205/u10028/POT_HYBRID_KKJUS_GBRV'
outdir = './data'
tprnfor = .true.
nstep = 50
disk_io = 'non'
/
&SYSTEM
ibrav = 0
ecutwfc = 50.0
ecutrho = 400
occupations = 'smearing'
smearing = 'mp'
degauss = 0.01
assume_isolated = 'esm'
esm_bc = 'bc1'
input_dft = 'BEEF-VDW'
nosym = .true.
nspin = 1
ntyp = 5
nat = 33
/
&ELECTRONS
electron_maxstep = 200
mixing_beta = 0.1
conv_thr = 1e-06
/
&IONS
ion_dynamics = 'bfgs'
upscale = 1.0
/
&CELL
/

K_POINTS {automatic}
9 6 2 0  0  0

ATOMIC_SPECIES
C 12.01 C.pbe-n-rrkjus_psl.1.0.0.UPF
Li 6.941 Li.pbe-sl-rrkjus_psl.1.0.0.UPF
Mg 24.30 Mg.pbe-spnl-rrkjus_psl.1.0.0.UPF
Pd 106.4 Pd.pbe-n-rrkjus_psl.1.0.0.UPF
Sb 121.7 Sb.pbe-n-rrkjus_psl.1.0.0.UPF


CELL_PARAMETERS {angstrom}
6.57147000 0.00000000 0.00000000
0.00000000 9.29346000 0.00000000
0.00000000 0.00000000 26.97010000

ATOMIC_POSITIONS {angstrom}
Li 0.00000000 0.00000000 -3.4850763199999975 0 0 0
Li 0.00000000 4.64673000 -3.4850763199999975 0 0 0
Li 3.28573500 6.97009500 -1.161602209999998 0 0 0
Li 3.28573500 2.32336500 -1.161602209999998 0 0 0
Li 0.03193734 4.64673000 1.07071297
Li 6.45081781 0.00000000 1.53163198
Li 3.61437421 2.44929138 4.04821201
Li 3.61443993 6.84416862 4.04821201
Mg 1.64286750 0.00000000 -1.161602209999998 0 0 0
Mg 1.64286750 4.64673000 -1.161602209999998 0 0 0
Mg 4.92860250 2.32336500 -3.4850763199999975 0 0 0
Mg 4.92860250 6.97009500 -3.4850763199999975 0 0 0
Mg 1.50020089 4.64673000 3.49424616
Mg 2.11220189 0.00000000 3.52526177
Mg 4.80341600 6.93282823 1.19423603
Mg 4.80341600 2.36063177 1.19423603
Sb 4.92860250 0.00000000 -1.161602209999998 0 0 0
Sb 4.92860250 4.64673000 -1.161602209999998 0 0 0
Sb 1.64286750 2.32336500 -3.4850763199999975 0 0 0
Sb 1.64286750 6.97009500 -3.4850763199999975 0 0 0
Sb 5.04314322 4.64673000 3.47536709
Sb 4.90494521 0.00009293 5.09195488
Sb 1.66350192 6.99751071 1.33717756
Sb 1.66350192 2.29594929 1.33744726
Pd 0.00000000 2.32336500 -1.161602209999998 0 0 0
Pd 0.00000000 6.97009500 -1.161602209999998 0 0 0
Pd 3.28573500 4.64673000 -3.4850763199999975 0 0 0
Pd 3.28573500 0.00000000 -3.4850763199999975 0 0 0
Pd 6.29231395 7.22315592 3.40902064
Pd 6.29237967 2.07030408 3.40929034
Pd 3.20037160 0.00000000 0.99061177
Pd 3.19215727 4.64673000 1.03619124
C 6.55983850 0.00000000 3.76017134
