&CONTROL
calculation = 'relax'
prefix = 'scf'
pseudo_dir = '/vol0403/data/hp230205/u10028/POT_HYBRID_KKJUS_GBRV'
outdir = './data'
tprnfor = .true.
nstep = 50
disk_io = 'non'
/
&SYSTEM
ibrav = 0
ecutwfc = 50.0
ecutrho = 400
occupations = 'smearing'
smearing = 'mp'
degauss = 0.01
assume_isolated = 'esm'
esm_bc = 'bc1'
input_dft = 'BEEF-VDW'
nosym = .true.
nspin = 1
ntyp = 6
nat = 18
/
&ELECTRONS
electron_maxstep = 200
mixing_beta = 0.1
conv_thr = 1e-06
/
&IONS
ion_dynamics = 'bfgs'
upscale = 1.0
/
&CELL
/

K_POINTS {automatic}
8 8 1 0 0 0

ATOMIC_SPECIES
Ag 107.8 Ag.pbe-n-rrkjus_psl.1.0.0.UPF
Al 26.98 Al.pbe-nl-rrkjus_psl.1.0.0.UPF
C 12.01 C.pbe-n-rrkjus_psl.1.0.0.UPF
Li 6.941 Li.pbe-sl-rrkjus_psl.1.0.0.UPF
Mg 24.30 Mg.pbe-spnl-rrkjus_psl.1.0.0.UPF
O 15.99 O.pbe-n-rrkjus_psl.1.0.0.UPF


CELL_PARAMETERS {angstrom}
6.43596000 0.00000000 0.00000000
0.00000000 6.43596000 0.00000000
0.00000000 0.00000000 24.82700000

ATOMIC_POSITIONS {angstrom}
Li 0.00000000 3.21798000 2.87000120
Li 0.00000000 0.00000000 -0.8043948000000007 0 0 0
Li 3.21798000 3.21798000 -0.8043948000000007 0 0 0
Li 3.21798000 0.00000000 2.85212576
Mg 4.82941566 1.61150002 0.88682044
Mg 4.82697000 4.82697000 -2.4134326700000024 0 0 0
Mg 1.60899000 1.60899000 -2.4134326700000024 0 0 0
Mg 1.60641562 4.82433126 0.88682044
Al 1.61034155 1.60757409 0.93299866
Al 1.60899000 4.82697000 -2.4134326700000024 0 0 0
Al 4.82697000 1.60899000 -2.4134326700000024 0 0 0
Al 4.82561845 4.82832155 0.93299866
Ag 0.00000000 0.00006436 2.43726659
Ag 0.00000000 3.21798000 -0.8043948000000007 0 0 0
Ag 3.21798000 0.00000000 -0.8043948000000007 0 0 0
Ag 3.21804436 3.21798000 2.43726659
C 6.43583128 3.21810872 4.96440692
O 6.43589564 3.21817308 6.10570411
