&CONTROL
calculation = 'relax'
prefix = 'scf'
pseudo_dir = '/vol0004/mdt0/data/hp150275/u10028/POT_KKJUS'
outdir = './data'
tprnfor = .true.
nstep = 50
disk_io = 'non'
/
&SYSTEM
ibrav = 0
ecutwfc = 50.0
ecutrho = 400
occupations = 'smearing'
smearing = 'mp'
degauss = 0.01
assume_isolated = 'esm'
esm_bc = 'bc1'
input_dft = 'BEEF-VDW'
nosym = .true.
nspin = 1
ntyp = 4
nat = 34
/
&ELECTRONS
electron_maxstep = 200
mixing_beta = 0.1
conv_thr = 1e-06
/
&IONS
ion_dynamics = 'bfgs'
upscale = 1.0
/
&CELL
/

K_POINTS {automatic}
8 6 1 0 0 0

ATOMIC_SPECIES
Bi 208.9 Bi.pbe-dn-rrkjus_psl.1.0.0.UPF
C 12.01 C.pbe-n-rrkjus_psl.1.0.0.UPF
Li 6.941 Li.pbe-sl-rrkjus_psl.1.0.0.UPF
O 15.99 O.pbe-n-rrkjus_psl.1.0.0.UPF

CELL_PARAMETERS {angstrom}
6.74000000 0.00000000 0.00000000
0.00000000 9.53179000 0.00000000
0.00000000 0.00000000 27.14880000

ATOMIC_POSITIONS {angstrom}
Li 1.68500000 0.00000000 -1.1915608300000002 0 0 0
Li 5.05500000 4.76589500 -1.1915608300000002 0 0 0
Li 5.05500000 0.00000000 -1.1915608300000002 0 0 0
Li 1.68500000 4.76589500 -1.1915608300000002 0 0 0
Li 5.05500000 7.14884250 -3.574411010000002 0 0 0
Li 1.68500000 2.38294750 -3.574411010000002 0 0 0
Li 1.68500000 7.14884250 -3.574411010000002 0 0 0
Li 5.05500000 2.38294750 -3.574411010000002 0 0 0
Li 0.00000000 7.14884250 -1.1915608300000002 0 0 0
Li 3.37000000 0.00000000 -3.574411010000002 0 0 0
Li 0.00000000 2.38294750 -1.1915608300000002 0 0 0
Li 3.37000000 4.76589500 -3.574411010000002 0 0 0
Li 1.90964420 4.76589500 3.62029248
Li 4.85913560 0.00000000 3.55404941
Li 4.87167200 4.76589500 3.56355149
Li 1.85976820 0.00000000 3.63522432
Li 5.01705380 2.38285218 1.16495501
Li 1.73824600 7.14970036 1.19481869
Li 1.73824600 2.38208964 1.19454720
Li 5.01705380 7.14893782 1.16495501
Li 6.70070580 2.38285218 3.31269658
Li 3.36824760 4.76589500 1.22386790
Li 6.70063840 7.14893782 3.31269658
Li 3.35496980 0.00000000 1.23961421
Bi 0.00000000 0.00000000 -3.574411010000002 0 0 0
Bi 3.37000000 2.38294750 -1.1915608300000002 0 0 0
Bi 3.37000000 7.14884250 -1.1915608300000002 0 0 0
Bi 0.00000000 4.76589500 -3.574411010000002 0 0 0
Bi 0.02190500 4.76589500 1.33001971
Bi 3.40673300 7.13778562 3.58146970
Bi 3.40673300 2.39400438 3.58146970
Bi 0.01597380 0.00000000 1.30965811
C 1.52034180 0.00000000 5.70667776
O 1.57055480 0.00000000 6.84719885
