&CONTROL
calculation = 'relax'
prefix = 'scf'
pseudo_dir = '/vol0004/mdt0/data/hp150275/u10028/POT_KKJUS'
outdir = './data'
tprnfor = .true.
nstep = 50
disk_io = 'non'
/
&SYSTEM
ibrav = 0
ecutwfc = 50.0
ecutrho = 400
occupations = 'smearing'
smearing = 'mp'
degauss = 0.01
assume_isolated = 'esm'
esm_bc = 'bc1'
input_dft = 'BEEF-VDW'
nosym = .true.
nspin = 1
ntyp = 2
nat = 32
/
&ELECTRONS
electron_maxstep = 200
mixing_beta = 0.1
conv_thr = 1e-06
/
&IONS
ion_dynamics = 'bfgs'
upscale = 1.0
/
&CELL
/

K_POINTS {automatic}
9 6 2 0  0  0

ATOMIC_SPECIES
Hf 178.4 Hf.pbe-spn-rrkjus_psl.1.0.0.UPF
Pt 195.0 Pt.pbe-n-rrkjus_psl.1.0.0.UPF

CELL_PARAMETERS {angstrom}
6.65903000 0.00000000 0.00000000
0.00000000 9.41730000 0.00000000
0.00000000 0.00000000 27.06300000

ATOMIC_POSITIONS {angstrom}
Hf 0.00000000 0.00000000 -3.5314508700000005 0 0 0
Hf 0.00000000 2.35432500 -1.1772405 0 0 0
Hf 0.00000000 0.00000000 1.16046144
Hf 0.00000000 2.35432500 3.57204537
Hf 0.00000000 4.70865000 -3.5314508700000005 0 0 0
Hf 0.00000000 7.06297500 -1.1772405 0 0 0
Hf 0.00000000 4.70865000 1.16046144
Hf 0.00000000 7.06297500 3.57204537
Hf 3.32951500 0.00000000 -3.5314508700000005 0 0 0
Hf 3.32951500 2.35432500 -1.1772405 0 0 0
Hf 3.32951500 0.00000000 1.16046144
Hf 3.32951500 2.35432500 3.57285726
Hf 3.32951500 4.70865000 -3.5314508700000005 0 0 0
Hf 3.32951500 7.06297500 -1.1772405 0 0 0
Hf 3.32951500 4.70865000 1.16046144
Hf 3.32951500 7.06297500 3.57285726
Pt 1.66475750 2.35432500 -3.5314508700000005 0 0 0
Pt 1.66475750 0.00000000 -1.1772405 0 0 0
Pt 1.66568976 2.35432500 1.34124228
Pt 1.66482409 0.00000000 3.35824767
Pt 1.66475750 7.06297500 -3.5314508700000005 0 0 0
Pt 1.66475750 4.70865000 -1.1772405 0 0 0
Pt 1.66568976 7.06306917 1.34097165
Pt 1.66482409 4.70865000 3.35824767
Pt 4.99427250 2.35432500 -3.5314508700000005 0 0 0
Pt 4.99427250 0.00000000 -1.1772405 0 0 0
Pt 4.99334024 2.35423083 1.34124228
Pt 4.99420591 0.00000000 3.35824767
Pt 4.99427250 7.06297500 -3.5314508700000005 0 0 0
Pt 4.99427250 4.70865000 -1.1772405 0 0 0
Pt 4.99334024 7.06306917 1.34097165
Pt 4.99420591 4.70865000 3.35824767
