&CONTROL
calculation = 'relax'
prefix = 'scf'
pseudo_dir = '/vol0004/mdt0/data/hp150275/u10028/POT_HYBRID_KKJUS_GBRV'
outdir = './data'
tprnfor = .true.
nstep = 50
disk_io = 'non'
/
&SYSTEM
ibrav = 0
ecutwfc = 50.0
ecutrho = 400
occupations = 'smearing'
smearing = 'mp'
degauss = 0.01
assume_isolated = 'esm'
esm_bc = 'bc1'
input_dft = 'BEEF-VDW'
nosym = .true.
nspin = 2
ntyp = 5
nat = 34
starting_magnetization(1) = 0.0
starting_magnetization(2) = 0.0
starting_magnetization(3) = 0.001
starting_magnetization(4) = 0.0
starting_magnetization(5) = 0.0
/
&ELECTRONS
electron_maxstep = 200
mixing_beta = 0.1
conv_thr = 1e-06
/
&IONS
ion_dynamics = 'bfgs'
upscale = 1.0
/
&CELL
/

K_POINTS {automatic}
9 6 2 0  0  0

ATOMIC_SPECIES
Al 26.98 Al.pbe-nl-rrkjus_psl.1.0.0.UPF
C 12.01 C.pbe-n-rrkjus_psl.1.0.0.UPF
Ni 58.69 ni_pbe_v1.4.uspp.F.UPF
O 15.99 O.pbe-n-rrkjus_psl.1.0.0.UPF
Sc 44.95 Sc.pbe-spn-rrkjus_psl.1.0.0.UPF

CELL_PARAMETERS {angstrom}
6.07419000 0.00000000 0.00000000
0.00000000 8.59020000 0.00000000
0.00000000 0.00000000 26.44270000

ATOMIC_POSITIONS {angstrom}
Sc 0.00000000 0.00000000 23.22145029
Sc 3.03709500 2.14755000 25.36886195
Sc 3.03709500 6.44265000 25.36886195
Sc 0.00000000 4.29510000 23.22145029
Sc 0.00570974 4.29527180 1.00614473
Sc 3.05367754 6.40674296 3.36456915
Sc 3.05361680 2.18328523 3.36404029
Sc 0.00485935 8.58977049 1.01777952
Al 0.00000000 6.44265000 25.36886195
Al 3.03709500 0.00000000 23.22145029
Al 0.00000000 2.14755000 25.36886195
Al 3.03709500 4.29510000 23.22145029
Al 6.05991565 2.13715586 3.12076745
Al 3.03484755 4.29501410 1.16030568
Al 6.05985491 6.45287234 3.12103188
Al 3.02646517 0.00000000 1.13730053
Ni 1.51854750 0.00000000 25.36886195
Ni 4.55564250 4.29510000 25.36886195
Ni 4.55564250 0.00000000 25.36886195
Ni 1.51854750 4.29510000 25.36886195
Ni 4.55564250 6.44265000 23.22145029
Ni 1.51854750 2.14755000 23.22145029
Ni 1.51854750 6.44265000 23.22145029
Ni 4.55564250 2.14755000 23.22145029
Ni 1.35867482 4.29501410 3.07634372
Ni 4.68581239 8.59011410 3.01658322
Ni 4.72019231 4.29501410 3.07687257
Ni 1.43284068 8.58994229 3.28021693
Ni 4.46647339 2.14712049 1.12566574
Ni 1.60838477 6.46876421 1.17432031
Ni 1.60795958 2.12126399 1.17352703
Ni 4.46604820 6.44299361 1.12619459
C 1.86696304 8.59011410 4.98762207
O 1.99774035 0.00008590 6.15348072
