&CONTROL
calculation = 'relax'
prefix = 'scf'
pseudo_dir = '/vol0403/data/hp230205/u10028/POT_HYBRID_KKJUS_GBRV'
outdir = './data'
tprnfor = .true.
nstep = 50
disk_io = 'non'
/
&SYSTEM
ibrav = 0
ecutwfc = 50.0
ecutrho = 400
occupations = 'smearing'
smearing = 'mp'
degauss = 0.01
assume_isolated = 'esm'
esm_bc = 'bc1'
input_dft = 'BEEF-VDW'
nosym = .true.
nspin = 1
ntyp = 4
nat = 16
/
&ELECTRONS
electron_maxstep = 200
mixing_beta = 0.1
conv_thr = 1e-06
/
&IONS
ion_dynamics = 'bfgs'
upscale = 1.0
/
&CELL
/

K_POINTS {automatic}
11 7 3 0  0  0

ATOMIC_SPECIES
In 114.8 In.pbe-dn-rrkjus_psl.1.0.0.UPF
Pd 106.4 Pd.pbe-n-rrkjus_psl.1.0.0.UPF
Sc 44.95 Sc.pbe-spn-rrkjus_psl.1.0.0.UPF
Y 88.90 Y.pbe-spn-rrkjus_psl.1.0.0.UPF


CELL_PARAMETERS {angstrom}
6.25545000 0.00000000 0.00000000
0.00000000 9.64246000 0.00000000
0.00000000 0.00000000 24.46440000

ATOMIC_POSITIONS {angstrom}
Y 3.54146046 0.00000000 2.15286720
Y 5.29398733 0.00000000 -0.7439624000000009 0 0 0
Y 3.54164813 4.82132642 2.15262256
Y 5.29398733 4.82123000 -0.7439624000000009 0 0 0
Sc 0.94288398 2.41061500 0.57735984
Sc 3.24939350 2.41061500 -2.2321318600000026 0 0 0
Sc 0.94294653 7.23184500 0.57735984
Sc 3.24939350 7.23184500 -2.2321318600000026 0 0 0
In 0.43544187 0.00000000 2.41023269
In 2.16626234 0.00000000 -0.7439624000000009 0 0 0
In 0.43556698 4.82132642 2.41023269
In 2.16626234 4.82123000 -0.7439624000000009 0 0 0
Pd 3.78654899 2.41061500 0.38506966
Pd 0.12166850 2.41061500 -2.2321318600000026 0 0 0
Pd 3.78667410 7.23184500 0.38506966
Pd 0.12166850 7.23184500 -2.2321318600000026 0 0 0
