&CONTROL
calculation = 'relax'
prefix = 'scf'
pseudo_dir = '/vol0403/data/hp230205/u10028/POT_HYBRID_KKJUS_GBRV'
outdir = './data'
tprnfor = .true.
nstep = 50
disk_io = 'non'
/
&SYSTEM
ibrav = 0
ecutwfc = 50.0
ecutrho = 400
occupations = 'smearing'
smearing = 'mp'
degauss = 0.01
assume_isolated = 'esm'
esm_bc = 'bc1'
input_dft = 'BEEF-VDW'
nosym = .true.
nspin = 1
ntyp = 5
nat = 17
/
&ELECTRONS
electron_maxstep = 200
mixing_beta = 0.1
conv_thr = 1e-06
/
&IONS
ion_dynamics = 'bfgs'
upscale = 1.0
/
&CELL
/

K_POINTS {automatic}
6 6 1 0 0 0

ATOMIC_SPECIES
C 12.01 C.pbe-n-rrkjus_psl.1.0.0.UPF
Cu 63.54 Cu.pbe-dn-rrkjus_psl.1.0.0.UPF
In 114.8 In.pbe-dn-rrkjus_psl.1.0.0.UPF
Sn 118.7 Sn.pbe-dn-rrkjus_psl.1.0.0.UPF
Y 88.90 Y.pbe-spn-rrkjus_psl.1.0.0.UPF


CELL_PARAMETERS {angstrom}
6.24938000 0.00000000 0.00000000
0.00000000 9.14612000 0.00000000
0.00000000 0.00000000 24.68700000

ATOMIC_POSITIONS {angstrom}
Y 1.95955559 2.28653000 0.82948320
Y 4.67703599 2.28653000 -2.343536910000001 0 0 0
Y 2.08373077 6.85959000 0.82479267
Y 4.67703599 6.85959000 -2.343536910000001 0 0 0
In 3.19118340 0.02826151 2.66422104
In 6.24269316 0.00000000 -0.781096680000001 0 0 0
In 3.19118340 4.54479849 2.66446791
In 6.24269316 4.57306000 -0.781096680000001 0 0 0
Cu 0.48738915 9.06316469 1.89250542
Cu 3.11800316 0.00000000 -0.781096680000001 0 0 0
Cu 0.48732665 4.65601531 1.89250542
Cu 3.11800316 4.57306000 -0.781096680000001 0 0 0
Sn 5.67612437 2.28653000 2.55387015
Sn 1.55234599 2.28653000 -2.343536910000001 0 0 0
Sn 5.16242534 6.85968146 1.55009673
Sn 1.55234599 6.85959000 -2.343536910000001 0 0 0
C 3.59395594 2.28653000 2.44253178
