&CONTROL
calculation = 'relax'
prefix = 'scf'
pseudo_dir = '/vol0403/data/hp230205/u10028/POT_HYBRID_KKJUS_GBRV'
outdir = './data'
tprnfor = .true.
nstep = 70
disk_io = 'non'
/
&SYSTEM
ibrav = 0
ecutwfc = 50.0
ecutrho = 400
occupations = 'smearing'
smearing = 'mp'
degauss = 0.01
assume_isolated = 'esm'
esm_bc = 'bc1'
input_dft = 'BEEF-VDW'
nosym = .true.
nspin = 1
ntyp = 6
nat = 34
/
&ELECTRONS
electron_maxstep = 200
mixing_beta = 0.1
conv_thr = 1e-06
/
&IONS
ion_dynamics = 'bfgs'
upscale = 1.0
/
&CELL
/

K_POINTS {automatic}
6 6 1 0 0 0

ATOMIC_SPECIES
C 12.01 C.pbe-n-rrkjus_psl.1.0.0.UPF
Cu 63.54 Cu.pbe-dn-rrkjus_psl.1.0.0.UPF
Li 6.941 Li.pbe-sl-rrkjus_psl.1.0.0.UPF
O 15.99 O.pbe-n-rrkjus_psl.1.0.0.UPF
Pd 106.4 Pd.pbe-n-rrkjus_psl.1.0.0.UPF
Si 28.08 Si.pbe-nl-rrkjus_psl.1.0.0.UPF


CELL_PARAMETERS {angstrom}
5.89837000 0.00000000 0.00000000
-0.00000000 8.34156000 0.00000000
0.00000000 0.00000000 26.25620000

ATOMIC_POSITIONS {angstrom}
Li 1.47459250 0.00000000 -1.0426336999999997 0 0 0
Li 1.47459250 4.17078000 -1.0426336999999997 0 0 0
Li 4.42377750 2.08539000 -3.1281636699999993 0 0 0
Li 4.42377750 6.25617000 -3.1281636699999993 0 0 0
Li 1.47760067 4.17078000 3.56191609
Li 1.47854441 -0.00000000 3.56532940
Li 4.41575572 6.26617987 0.92553105
Li 4.41569673 2.07538013 0.92526849
Cu 0.00000000 0.00000000 -3.1281636699999993 0 0 0
Cu 0.00000000 4.17078000 -3.1281636699999993 0 0 0
Cu 2.94918500 6.25617000 -1.0426336999999997 0 0 0
Cu 2.94918500 2.08539000 -1.0426336999999997 0 0 0
Cu 0.01675137 4.17036292 1.10354809
Cu 0.08381584 0.00000000 1.04368395
Cu 3.07493825 2.13794183 2.95093432
Cu 3.07440740 6.20403525 2.95093432
Si 4.42377750 0.00000000 -1.0426336999999997 0 0 0
Si 4.42377750 4.17078000 -1.0426336999999997 0 0 0
Si 1.47459250 2.08539000 -3.1281636699999993 0 0 0
Si 1.47459250 6.25617000 -3.1281636699999993 0 0 0
Si 4.44341907 4.17086342 3.14785582
Si 4.42790636 -0.00000000 3.18146375
Si 1.47565421 6.22605697 1.04027064
Si 1.47594913 2.11541962 1.04000808
Pd 0.00000000 2.08539000 -1.0426336999999997 0 0 0
Pd 0.00000000 6.25617000 -1.0426336999999997 0 0 0
Pd 2.94918500 4.17078000 -3.1281636699999993 0 0 0
Pd 2.94918500 0.00000000 -3.1281636699999993 0 0 0
Pd 5.81278465 6.25700416 2.95382250
Pd 5.81278465 2.08438901 2.95355994
Pd 2.88967045 -0.00000000 1.17785313
Pd 2.93585468 4.17086342 1.07597908
C 4.04085532 0.00008342 4.96425973
O 3.88360478 0.00008342 6.12137047
