&CONTROL
calculation = 'relax'
prefix = 'scf'
pseudo_dir = '/vol0004/mdt0/data/hp150275/u10028/POT_HYBRID_KKJUS_GBRV'
outdir = './data'
tprnfor = .true.
nstep = 70
disk_io = 'non'
/
&SYSTEM
ibrav = 0
ecutwfc = 50.0
ecutrho = 400
occupations = 'smearing'
smearing = 'mp'
degauss = 0.01
assume_isolated = 'esm'
esm_bc = 'bc1'
input_dft = 'BEEF-VDW'
nosym = .true.
nspin = 1
ntyp = 4
nat = 18
/
&ELECTRONS
electron_maxstep = 200
mixing_beta = 0.1
conv_thr = 1e-06
/
&IONS
ion_dynamics = 'bfgs'
upscale = 1.0
/
&CELL
/

K_POINTS {automatic}
9 9 2 0  0  0

ATOMIC_SPECIES
Bi 208.9 Bi.pbe-dn-rrkjus_psl.1.0.0.UPF
C 12.01 C.pbe-n-rrkjus_psl.1.0.0.UPF
Li 6.941 Li.pbe-sl-rrkjus_psl.1.0.0.UPF
O 15.99 O.pbe-n-rrkjus_psl.1.0.0.UPF

CELL_PARAMETERS {angstrom}
6.80372000 0.00000000 0.00000000
0.00000000 6.80372000 0.00000000
0.00000000 0.00000000 26.38080000

ATOMIC_POSITIONS {angstrom}
Li 0.00000000 0.00000000 -2.1954101799999997 0 0 0
Li 6.72731422 6.72676993 1.98963994
Li 0.00000000 3.40186000 -2.1954101799999997 0 0 0
Li 6.77215074 3.46200488 1.98858470
Li 3.40186000 0.00000000 -2.1954101799999997 0 0 0
Li 3.46098433 6.77153840 1.98858470
Li 3.40186000 3.40186000 -2.1954101799999997 0 0 0
Li 3.41669211 3.41539940 1.99834560
Bi 1.70093000 1.70093000 -0.06832627000000002 0 0 0
Bi 1.58900881 1.58513069 3.94656768
Bi 1.70093000 5.10279000 -0.06832627000000002 0 0 0
Bi 1.80863289 5.22273958 4.07583360
Bi 5.10279000 1.70093000 -0.06832627000000002 0 0 0
Bi 5.22090258 1.80897307 4.07768026
Bi 5.10279000 5.10279000 -0.06832627000000002 0 0 0
Bi 4.97834996 4.97875818 4.14600653
C 1.85455800 1.85455800 7.69237747
O 1.61962555 1.61833284 8.77926643
