&CONTROL
calculation = 'relax'
prefix = 'scf'
pseudo_dir = '/vol0004/mdt0/data/hp150275/u10028/POT_KKJUS'
outdir = './data'
tprnfor = .true.
nstep = 50
disk_io = 'non'
/
&SYSTEM
ibrav = 0
ecutwfc = 50.0
ecutrho = 400
occupations = 'smearing'
smearing = 'mp'
degauss = 0.01
assume_isolated = 'esm'
esm_bc = 'bc1'
input_dft = 'BEEF-VDW'
nosym = .true.
nspin = 1
ntyp = 3
nat = 17
/
&ELECTRONS
electron_maxstep = 200
mixing_beta = 0.1
conv_thr = 1e-06
/
&IONS
ion_dynamics = 'bfgs'
upscale = 1.0
/
&CELL
/

K_POINTS {automatic}
10 10 2 0  0  0

ATOMIC_SPECIES
C 12.01 C.pbe-n-rrkjus_psl.1.0.0.UPF
Ni 58.69 Ni.pbe-spn-rrkjus_psl.1.0.0.UPF
Ti 47.86 Ti.pbe-spn-rrkjus_psl.1.0.0.UPF

CELL_PARAMETERS {angstrom}
6.05499000 0.00000000 0.00000000
-0.00000000 6.05499000 0.00000000
0.00000000 0.00000000 24.54120000

ATOMIC_POSITIONS {angstrom}
Ti 1.51374750 1.51374750 -0.6800366499999981 0 0 0
Ti 1.51374750 1.51374750 2.34761119
Ti 1.51374750 4.54124250 -0.6800366499999981 0 0 0
Ti 1.51374750 4.54124250 2.34761119
Ti 4.54124250 1.51374750 -0.6800366499999981 0 0 0
Ti 4.54124250 1.51374750 2.34761119
Ti 4.54124250 4.54124250 -0.6800366499999981 0 0 0
Ti 4.54124250 4.54124250 2.34761119
Ni 0.00000000 0.00000000 -2.1937378699999996 0 0 0
Ni 0.00000000 0.00000000 0.83366456
Ni 0.00000000 3.02749500 -2.1937378699999996 0 0 0
Ni 0.00000000 3.02749500 0.83366456
Ni 3.02749500 0.00000000 -2.1937378699999996 0 0 0
Ni 3.02749500 -0.00000000 0.83366456
Ni 3.02749500 3.02749500 -2.1937378699999996 0 0 0
Ni 3.02749500 3.02749500 0.83366456
C 0.00000000 0.00000000 3.14740890
