&CONTROL
calculation = 'relax'
prefix = 'scf'
pseudo_dir = '/vol0004/mdt0/data/hp150275/u10028/POT_KKJUS'
outdir = './data'
tprnfor = .true.
nstep = 50
disk_io = 'non'
/
&SYSTEM
ibrav = 0
ecutwfc = 50.0
ecutrho = 400
occupations = 'smearing'
smearing = 'mp'
degauss = 0.01
assume_isolated = 'esm'
esm_bc = 'bc1'
input_dft = 'BEEF-VDW'
nosym = .true.
nspin = 1
ntyp = 5
nat = 34
/
&ELECTRONS
electron_maxstep = 200
mixing_beta = 0.1
conv_thr = 1e-06
/
&IONS
ion_dynamics = 'bfgs'
upscale = 1.0
/
&CELL
/

K_POINTS {automatic}
8 6 1 0 0 0

ATOMIC_SPECIES
C 12.01 C.pbe-n-rrkjus_psl.1.0.0.UPF
Ga 69.72 Ga.pbe-dnl-rrkjus_psl.1.0.0.UPF
Ir 192.2 Ir.pbe-n-rrkjus_psl.0.2.3.UPF
Li 6.941 Li.pbe-sl-rrkjus_psl.1.0.0.UPF
O 15.99 O.pbe-n-rrkjus_psl.1.0.0.UPF

CELL_PARAMETERS {angstrom}
6.01864000 0.00000000 0.00000000
0.00000000 8.51164000 0.00000000
0.00000000 0.00000000 26.38370000

ATOMIC_POSITIONS {angstrom}
Li 0.00000000 6.38373000 -1.0640546200000003 0 0 0
Li 3.00932000 0.00000000 -3.1919000299999993 0 0 0
Li 0.00000000 2.12791000 -1.0640546200000003 0 0 0
Li 3.00932000 4.25582000 -3.1919000299999993 0 0 0
Li 1.50466000 0.00000000 -1.0640546200000003 0 0 0
Li 1.50466000 4.25582000 -1.0640546200000003 0 0 0
Li 4.51398000 6.38373000 -3.1919000299999993 0 0 0
Li 4.51398000 2.12791000 -3.1919000299999993 0 0 0
Li 0.00637976 2.08594761 3.19005317
Li 2.95569392 4.25582000 1.04927975
Li 0.00637976 6.42577750 3.19005317
Li 2.89960019 0.00008512 1.03028348
Li 1.65332041 4.25582000 3.71113124
Li 1.73252571 0.00000000 3.94014176
Li 4.53059145 2.11880255 1.01313408
Li 4.53059145 6.39275234 1.01313408
Ga 1.50466000 2.12791000 -3.1919000299999993 0 0 0
Ga 1.50466000 6.38373000 -3.1919000299999993 0 0 0
Ga 4.51398000 4.25582000 -1.0640546200000003 0 0 0
Ga 4.51398000 0.00000000 -1.0640546200000003 0 0 0
Ga 1.48497905 6.37547371 1.02210454
Ga 1.48503923 2.13616629 1.02210454
Ga 4.35875927 0.00000000 3.10166777
Ga 4.37200028 4.25582000 3.17475062
Ir 0.00000000 0.00000000 -3.1919000299999993 0 0 0
Ir 3.00932000 2.12791000 -1.0640546200000003 0 0 0
Ir 3.00932000 6.38373000 -1.0640546200000003 0 0 0
Ir 0.00000000 4.25582000 -3.1919000299999993 0 0 0
Ir 0.03334327 4.25582000 1.22393984
Ir 3.01780628 6.38177232 3.00642261
Ir 3.01774610 2.12986768 3.00642261
Ir 0.03797762 0.00000000 1.17961523
C 0.53975164 0.00000000 5.70389210
O 5.98481524 8.51155488 6.69037865
