&CONTROL
calculation = 'relax'
prefix = 'scf'
pseudo_dir = '/vol0004/mdt0/data/hp150275/u10028/POT_KKJUS'
outdir = './data'
tprnfor = .true.
nstep = 50
disk_io = 'non'
/
&SYSTEM
ibrav = 0
ecutwfc = 50.0
ecutrho = 400
occupations = 'smearing'
smearing = 'mp'
degauss = 0.01
assume_isolated = 'esm'
esm_bc = 'bc1'
input_dft = 'BEEF-VDW'
nosym = .true.
nspin = 1
ntyp = 5
nat = 18
/
&ELECTRONS
electron_maxstep = 200
mixing_beta = 0.1
conv_thr = 1e-06
/
&IONS
ion_dynamics = 'bfgs'
upscale = 1.0
/
&CELL
/

K_POINTS {automatic}
10 10 2 0  0  0

ATOMIC_SPECIES
C 12.01 C.pbe-n-rrkjus_psl.1.0.0.UPF
Ni 58.69 Ni.pbe-spn-rrkjus_psl.1.0.0.UPF
O 15.99 O.pbe-n-rrkjus_psl.1.0.0.UPF
Sn 118.7 Sn.pbe-dn-rrkjus_psl.1.0.0.UPF
Ti 47.86 Ti.pbe-spn-rrkjus_psl.1.0.0.UPF

CELL_PARAMETERS {angstrom}
6.14888000 0.00000000 0.00000000
0.00000000 6.14888000 0.00000000
0.00000000 0.00000000 24.61170000

ATOMIC_POSITIONS {angstrom}
Ti 0.00012298 6.14869553 2.21554523
Ti 3.07493191 3.07413256 2.21086901
Ti 3.07444000 0.00000000 -0.7686233899999984 0 0 0
Ti 0.00000000 3.07444000 -0.7686233899999984 0 0 0
Ni 1.63984481 1.42949162 0.85697939
Ni 4.61166000 4.61166000 -2.3058701699999986 0 0 0
Ni 4.50915817 1.42943013 0.85673328
Ni 1.53722000 4.61166000 -2.3058701699999986 0 0 0
Ni 4.50928115 4.71889647 0.85697939
Ni 1.53722000 1.53722000 -2.3058701699999986 0 0 0
Ni 1.64009076 4.71926540 0.85673328
Ni 4.61166000 1.53722000 -2.3058701699999986 0 0 0
Sn 0.00000000 0.00000000 -0.7686233899999984 0 0 0
Sn 3.07462447 6.14863404 2.67332285
Sn 0.00018447 3.07419404 2.35263240
Sn 3.07444000 3.07444000 -0.7686233899999984 0 0 0
C 0.00202913 3.07437851 6.84574435
O 6.14709682 3.07622318 7.98083596
