&CONTROL
calculation = 'relax'
prefix = 'scf'
pseudo_dir = '/vol0403/data/hp230205/u10028/POT_HYBRID_KKJUS_GBRV'
outdir = './data'
tprnfor = .true.
nstep = 50
disk_io = 'non'
/
&SYSTEM
ibrav = 0
ecutwfc = 50.0
ecutrho = 400
occupations = 'smearing'
smearing = 'mp'
degauss = 0.01
assume_isolated = 'esm'
esm_bc = 'bc1'
input_dft = 'BEEF-VDW'
nosym = .true.
nspin = 1
ntyp = 6
nat = 34
/
&ELECTRONS
electron_maxstep = 200
mixing_beta = 0.1
conv_thr = 1e-06
/
&IONS
ion_dynamics = 'bfgs'
upscale = 1.0
/
&CELL
/

K_POINTS {automatic}
7 6 2 0  0  0

ATOMIC_SPECIES
C 12.01 C.pbe-n-rrkjus_psl.1.0.0.UPF
Ge 72.64 Ge.pbe-dn-rrkjus_psl.1.0.0.UPF
Li 6.941 Li.pbe-sl-rrkjus_psl.1.0.0.UPF
O 15.99 O.pbe-n-rrkjus_psl.1.0.0.UPF
Sn 118.7 Sn.pbe-dn-rrkjus_psl.1.0.0.UPF
Y 88.90 Y.pbe-spn-rrkjus_psl.1.0.0.UPF


CELL_PARAMETERS {angstrom}
8.52742000 0.00000000 0.00000000
0.00000000 9.43388000 0.00000000
0.00000000 0.00000000 26.45610000

ATOMIC_POSITIONS {angstrom}
Li 2.13185500 2.35847000 3.51442832
Li 2.13185500 2.35847000 -1.0759695899999997 0 0 0
Li 2.13185500 7.07541000 3.51072447
Li 2.13185500 7.07541000 -1.0759695899999997 0 0 0
Li 6.39556500 2.35847000 3.51098903
Li 6.39556500 2.35847000 -1.0759695899999997 0 0 0
Li 6.39556500 7.07541000 3.51151815
Li 6.39556500 7.07541000 -1.0759695899999997 0 0 0
Y 2.13185500 9.43020079 1.08390642
Y 2.13185500 0.00000000 -3.22817332 0 0 0
Y 2.13185500 4.72061921 1.08390642
Y 2.13185500 4.71694000 -3.22817332 0 0 0
Y 6.39556500 0.00594334 1.08337730
Y 6.39556500 0.00000000 -3.22817332 0 0 0
Y 6.39556500 4.71099666 1.08337730
Y 6.39556500 4.71694000 -3.22817332 0 0 0
Sn 0.00366679 2.35847000 1.35428776
Sn 0.00000000 2.35847000 -3.22817332 0 0 0
Sn 0.00221713 7.07541000 1.30693134
Sn 0.00000000 7.07541000 -3.22817332 0 0 0
Sn 4.26004321 2.35847000 1.35428776
Sn 4.26371000 2.35847000 -3.22817332 0 0 0
Sn 4.26149287 7.07541000 1.30693134
Sn 4.26371000 7.07541000 -3.22817332 0 0 0
Ge 8.52716418 9.39265394 3.24060769
Ge 0.00000000 0.00000000 -1.0759695899999997 0 0 0
Ge 8.52724945 4.75835473 3.24060769
Ge 0.00000000 4.71694000 -1.0759695899999997 0 0 0
Ge 4.26388055 9.39255961 3.24060769
Ge 4.26371000 0.00000000 -1.0759695899999997 0 0 0
Ge 4.26396582 4.75816606 3.24060769
Ge 4.26371000 4.71694000 -1.0759695899999997 0 0 0
C 2.13185500 2.35847000 5.61424898
O 2.13194027 2.35847000 6.75291952
