&CONTROL
calculation = 'relax'
prefix = 'scf'
pseudo_dir = '/vol0004/mdt0/data/hp150275/u10028/POT_KKJUS'
outdir = './data'
tprnfor = .true.
nstep = 50
disk_io = 'non'
/
&SYSTEM
ibrav = 0
ecutwfc = 50.0
ecutrho = 400
occupations = 'smearing'
smearing = 'mp'
degauss = 0.01
assume_isolated = 'esm'
esm_bc = 'bc1'
input_dft = 'BEEF-VDW'
nosym = .true.
nspin = 1
ntyp = 3
nat = 17
/
&ELECTRONS
electron_maxstep = 200
mixing_beta = 0.1
conv_thr = 1e-06
/
&IONS
ion_dynamics = 'bfgs'
upscale = 1.0
/
&CELL
/

K_POINTS {automatic}
6 8 1 0 0 0

ATOMIC_SPECIES
C 12.01 C.pbe-n-rrkjus_psl.1.0.0.UPF
Sn 118.7 Sn.pbe-dn-rrkjus_psl.1.0.0.UPF
Y 88.90 Y.pbe-spn-rrkjus_psl.1.0.0.UPF

CELL_PARAMETERS {angstrom}
9.50155000 0.00000000 0.00000000
0.00000000 6.71861000 0.00000000
0.00000000 0.00000000 25.03900000

ATOMIC_POSITIONS {angstrom}
Y 0.00000000 0.00000000 -2.5194241800000015 0 0 0
Y 0.00000000 3.35930500 0.54559981
Y 4.75077500 0.00000000 -2.5194241800000015 0 0 0
Y 4.75077500 3.35930500 0.83980806
Sn 0.00000000 3.35930500 -2.5194241800000015 0 0 0
Sn 2.37538750 5.03895750 -0.8398080600000029 0 0 0
Sn 2.37538750 1.67965250 -0.8398080600000029 0 0 0
Sn 0.00000000 0.00000000 0.90816453
Sn 1.82306240 1.84029447 2.93006378
Sn 1.82306240 4.87831553 2.93006378
Sn 4.75077500 3.35930500 -2.5194241800000015 0 0 0
Sn 7.12616250 5.03895750 -0.8398080600000029 0 0 0
Sn 7.12616250 1.67965250 -0.8398080600000029 0 0 0
Sn 4.75077500 0.00000000 0.83780494
Sn 7.67848760 1.84029447 2.93006378
Sn 7.67848760 4.87831553 2.93006378
C 0.00000000 3.35930500 2.91879623
