&CONTROL
calculation = 'relax'
prefix = 'scf'
pseudo_dir = '/vol0004/mdt0/data/hp150275/u10028/POT_HYBRID_KKJUS_GBRV'
outdir = './data'
tprnfor = .true.
nstep = 50
disk_io = 'non'
/
&SYSTEM
ibrav = 0
ecutwfc = 50.0
ecutrho = 400
occupations = 'smearing'
smearing = 'mp'
degauss = 0.01
assume_isolated = 'esm'
esm_bc = 'bc1'
input_dft = 'BEEF-VDW'
nosym = .true.
nspin = 2
ntyp = 4
nat = 33
starting_magnetization(1) = 0.0
starting_magnetization(2) = 0.0
starting_magnetization(3) = 0.001
starting_magnetization(4) = 0.0
/
&ELECTRONS
electron_maxstep = 200
mixing_beta = 0.1
conv_thr = 1e-06
/
&IONS
ion_dynamics = 'bfgs'
upscale = 1.0
/
&CELL
/

K_POINTS {automatic}
9 6 2 0  0  0

ATOMIC_SPECIES
C 12.01 C.pbe-n-rrkjus_psl.1.0.0.UPF
Cu 63.54 Cu.pbe-dn-rrkjus_psl.1.0.0.UPF
Ni 58.69 ni_pbe_v1.4.uspp.F.UPF
Sn 118.7 Sn.pbe-dn-rrkjus_psl.1.0.0.UPF

CELL_PARAMETERS {angstrom}
6.01864000 0.00000000 0.00000000
0.00000000 8.51164000 0.00000000
0.00000000 0.00000000 26.38370000

ATOMIC_POSITIONS {angstrom}
Cu 0.00000000 0.00000000 23.19179997
Cu 3.00932000 2.12791000 25.31964538
Cu 3.00932000 6.38373000 25.31964538
Cu 0.00000000 4.25582000 23.19179997
Cu 0.00000000 4.25667116 1.00073374
Cu 3.00932000 6.32372294 3.15707354
Cu 3.00932000 2.18774683 3.15839273
Cu 0.00000000 8.51138465 1.15323153
Ni 1.50466000 0.00000000 25.31964538
Ni 4.51398000 4.25582000 25.31964538
Ni 4.51398000 0.00000000 25.31964538
Ni 1.50466000 4.25582000 25.31964538
Ni 4.51398000 6.38373000 23.19179997
Ni 1.50466000 2.12791000 23.19179997
Ni 1.50466000 6.38373000 23.19179997
Ni 4.51398000 2.12791000 23.19179997
Ni 1.51477132 4.25573488 3.03438934
Ni 4.29779045 8.51138465 3.15496285
Ni 4.50392887 4.25573488 3.03438934
Ni 1.72084955 8.51138465 3.15496285
Ni 4.60419941 2.14552909 1.13898433
Ni 1.41630636 6.36704719 1.13713747
Ni 1.41444059 2.14552909 1.13898433
Ni 4.60233364 6.36704719 1.13713747
Sn 0.00000000 6.38373000 25.31964538
Sn 3.00932000 0.00000000 23.19179997
Sn 0.00000000 2.12791000 25.31964538
Sn 3.00932000 4.25582000 23.19179997
Sn 0.00000000 2.23183712 3.51562803
Sn 3.00932000 4.25582000 0.99413782
Sn 0.00000000 6.27980288 3.51430884
Sn 3.00932000 0.00093628 0.97487771
C 0.00000000 0.00000000 3.68369219
