&CONTROL
calculation = 'relax'
prefix = 'scf'
pseudo_dir = '/vol0004/mdt0/data/hp150275/u10028/POT_KKJUS'
outdir = './data'
tprnfor = .true.
nstep = 50
disk_io = 'non'
/
&SYSTEM
ibrav = 0
ecutwfc = 50.0
ecutrho = 400
occupations = 'smearing'
smearing = 'mp'
degauss = 0.01
assume_isolated = 'esm'
esm_bc = 'bc1'
input_dft = 'BEEF-VDW'
nosym = .true.
nspin = 1
ntyp = 5
nat = 34
/
&ELECTRONS
electron_maxstep = 200
mixing_beta = 0.1
conv_thr = 1e-06
/
&IONS
ion_dynamics = 'bfgs'
upscale = 1.0
/
&CELL
/

K_POINTS {automatic}
8 6 1 0 0 0

ATOMIC_SPECIES
C 12.01 C.pbe-n-rrkjus_psl.1.0.0.UPF
Cu 63.54 Cu.pbe-dn-rrkjus_psl.1.0.0.UPF
Ni 58.69 Ni.pbe-spn-rrkjus_psl.1.0.0.UPF
O 15.99 O.pbe-n-rrkjus_psl.1.0.0.UPF
Sb 121.7 Sb.pbe-n-rrkjus_psl.1.0.0.UPF

CELL_PARAMETERS {angstrom}
6.01864000 0.00000000 0.00000000
0.00000000 8.51164000 0.00000000
0.00000000 0.00000000 26.38370000

ATOMIC_POSITIONS {angstrom}
Cu 0.00000000 0.00000000 -3.1919000299999993 0 0 0
Cu 3.00932000 2.12791000 -1.0640546200000003 0 0 0
Cu 3.00932000 6.38373000 -1.0640546200000003 0 0 0
Cu 0.00000000 4.25582000 -3.1919000299999993 0 0 0
Cu 6.01538993 4.24943627 0.91788892
Cu 2.99993092 6.23690421 3.19902363
Cu 3.00185689 2.27711905 3.20614722
Cu 6.01641310 0.00314931 1.22657821
Ni 1.50466000 0.00000000 -1.0640546200000003 0 0 0
Ni 4.51398000 4.25582000 -1.0640546200000003 0 0 0
Ni 4.51398000 0.00000000 -1.0640546200000003 0 0 0
Ni 1.50466000 4.25582000 -1.0640546200000003 0 0 0
Ni 4.51398000 6.38373000 -3.1919000299999993 0 0 0
Ni 1.50466000 2.12791000 -3.1919000299999993 0 0 0
Ni 1.50466000 6.38373000 -3.1919000299999993 0 0 0
Ni 4.51398000 2.12791000 -3.1919000299999993 0 0 0
Ni 1.33854554 4.25590512 2.95972347
Ni 4.30766102 0.00085116 3.21327082
Ni 4.66288115 4.25641581 2.95576591
Ni 1.70658537 0.00136186 3.22013059
Ni 4.58096746 2.11352533 1.16088280
Ni 1.41263499 6.39513560 1.16510419
Ni 1.43189464 2.11258905 1.15903594
Ni 4.59210195 6.39615699 1.16431268
Sb 0.00000000 6.38373000 -1.0640546200000003 0 0 0
Sb 3.00932000 0.00000000 -3.1919000299999993 0 0 0
Sb 0.00000000 2.12791000 -1.0640546200000003 0 0 0
Sb 3.00932000 4.25582000 -3.1919000299999993 0 0 0
Sb 6.01382509 2.08705413 3.47552480
Sb 3.00522732 4.25854372 1.05772253
Sb 6.01256117 6.42399006 3.48686979
Sb 3.00510695 8.50525627 0.98965259
C 3.00883851 0.00085116 4.61107925
O 3.02027392 8.51121442 5.78963913
