&CONTROL
calculation = 'relax'
prefix = 'scf'
pseudo_dir = '/vol0403/data/hp230205/u10028/POT_HYBRID_KKJUS_GBRV'
outdir = './data'
tprnfor = .true.
nstep = 50
disk_io = 'non'
/
&SYSTEM
ibrav = 0
ecutwfc = 50.0
ecutrho = 400
occupations = 'smearing'
smearing = 'mp'
degauss = 0.01
assume_isolated = 'esm'
esm_bc = 'bc1'
input_dft = 'BEEF-VDW'
nosym = .true.
nspin = 1
ntyp = 4
nat = 16
/
&ELECTRONS
electron_maxstep = 200
mixing_beta = 0.1
conv_thr = 1e-06
/
&IONS
ion_dynamics = 'bfgs'
upscale = 1.0
/
&CELL
/

K_POINTS {automatic}
12 7 3 0  0  0

ATOMIC_SPECIES
In 114.8 In.pbe-dn-rrkjus_psl.1.0.0.UPF
Pd 106.4 Pd.pbe-n-rrkjus_psl.1.0.0.UPF
Sc 44.95 Sc.pbe-spn-rrkjus_psl.1.0.0.UPF
Y 88.90 Y.pbe-spn-rrkjus_psl.1.0.0.UPF


CELL_PARAMETERS {angstrom}
6.06590000 0.00000000 0.00000000
0.00000000 10.11530000 0.00000000
0.00000000 0.00000000 24.38870000

ATOMIC_POSITIONS {angstrom}
Y 1.11697483 2.52882500 -0.7314171099999989 0 0 0
Y 3.26036059 2.52862269 2.10742757
Y 1.11697483 7.58647500 -0.7314171099999989 0 0 0
Y 3.26017861 7.58667731 2.10767145
Sc 3.03295000 0.00000000 -2.194251340000001 0 0 0
Sc 4.79224298 10.11519885 0.54850186
Sc 3.03295000 5.05765000 -2.194251340000001 0 0 0
Sc 4.79297088 5.05775115 0.54898964
In 0.00000000 0.00000000 -2.194251340000001 0 0 0
In 1.63451741 0.00000000 1.36723052
In 0.00000000 5.05765000 -2.194251340000001 0 0 0
In 1.63439610 5.05765000 1.36723052
Pd 4.14992483 2.52882500 -0.7314171099999989 0 0 0
Pd 0.03961033 2.52862269 1.70989176
Pd 4.14992483 7.58647500 -0.7314171099999989 0 0 0
Pd 0.03967099 7.58677846 1.70989176
