&CONTROL
calculation = 'relax'
prefix = 'scf'
pseudo_dir = '/vol0004/mdt0/data/hp150275/u10028/POT_KKJUS'
outdir = './data'
tprnfor = .true.
nstep = 50
disk_io = 'non'
/
&SYSTEM
ibrav = 0
ecutwfc = 50.0
ecutrho = 400
occupations = 'smearing'
smearing = 'mp'
degauss = 0.01
assume_isolated = 'esm'
esm_bc = 'bc1'
input_dft = 'BEEF-VDW'
nosym = .true.
nspin = 1
ntyp = 2
nat = 16
/
&ELECTRONS
electron_maxstep = 200
mixing_beta = 0.1
conv_thr = 1e-06
/
&IONS
ion_dynamics = 'bfgs'
upscale = 1.0
/
&CELL
/

K_POINTS {automatic}
7 11 3 0  0  0

ATOMIC_SPECIES
Ca 40.07 Ca.pbe-spn-rrkjus_psl.1.0.0.UPF
Pb 207.2 Pb.pbe-dn-rrkjus_psl.1.0.0.UPF

CELL_PARAMETERS {angstrom}
10.21910000 0.00000000 0.00000000
0.00000000 7.22598000 0.00000000
0.00000000 0.00000000 25.41950000

ATOMIC_POSITIONS {angstrom}
Ca 0.00000000 3.61313452 3.05135678
Ca 2.55467281 5.45438648 1.05287569
Ca 2.55467281 1.77043736 1.05414666
Ca 0.00000000 0.00000000 -0.9031548299999983 0 0 0
Ca 2.55477500 1.80649500 -2.7097187 0 0 0
Ca 2.55477500 5.41948500 -2.7097187 0 0 0
Ca 5.10985657 3.61335130 3.05262776
Ca 7.66442719 5.45503682 1.05363827
Ca 7.66452938 1.77058188 1.05389247
Ca 5.10955000 0.00000000 -0.9031548299999983 0 0 0
Ca 7.66432500 1.80649500 -2.7097187 0 0 0
Ca 7.66432500 5.41948500 -2.7097187 0 0 0
Pb 0.00061315 7.22569096 2.38307812
Pb 0.00000000 3.61299000 -0.9031548299999983 0 0 0
Pb 5.10903904 7.22561870 2.38256973
Pb 5.10955000 3.61299000 -0.9031548299999983 0 0 0
