&CONTROL
calculation = 'relax'
prefix = 'scf'
pseudo_dir = '/vol0403/data/hp230205/u10028/POT_HYBRID_KKJUS_GBRV'
outdir = './data'
tprnfor = .true.
nstep = 50
disk_io = 'non'
/
&SYSTEM
ibrav = 0
ecutwfc = 50.0
ecutrho = 400
occupations = 'smearing'
smearing = 'mp'
degauss = 0.01
assume_isolated = 'esm'
esm_bc = 'bc1'
input_dft = 'BEEF-VDW'
nosym = .true.
nspin = 2
ntyp = 6
nat = 34
starting_magnetization(1) = 0.0
starting_magnetization(2) = 0.0
starting_magnetization(3) = 0.0
starting_magnetization(4) = 0.001
starting_magnetization(5) = 0.0
starting_magnetization(6) = 0.0
/
&ELECTRONS
electron_maxstep = 200
mixing_beta = 0.1
conv_thr = 1e-06
/
&IONS
ion_dynamics = 'bfgs'
upscale = 1.0
/
&CELL
/

K_POINTS {automatic}
9 6 2 0  0  0

ATOMIC_SPECIES
Al 26.98 Al.pbe-nl-rrkjus_psl.1.0.0.UPF
C 12.01 C.pbe-n-rrkjus_psl.1.0.0.UPF
Li 6.941 Li.pbe-sl-rrkjus_psl.1.0.0.UPF
Ni 58.69 ni_pbe_v1.4.uspp.F.UPF
O 15.99 O.pbe-n-rrkjus_psl.1.0.0.UPF
Pd 106.4 Pd.pbe-n-rrkjus_psl.1.0.0.UPF


CELL_PARAMETERS {angstrom}
5.91240000 0.00000000 0.00000000
0.00000000 8.36140000 0.00000000
0.00000000 0.00000000 26.27110000

ATOMIC_POSITIONS {angstrom}
Li 0.00000000 2.09035000 -1.0450643600000014 0 0 0
Li 0.00000000 6.27105000 -1.0450643600000014 0 0 0
Li 2.95620000 4.18070000 -3.135455780000001 0 0 0
Li 2.95620000 0.00000000 -3.135455780000001 0 0 0
Li 0.06740136 6.27105000 3.56892894
Li 0.06497728 2.09035000 3.60019154
Li 2.98038172 0.00175589 0.99225945
Li 2.98038172 4.17894411 0.99225945
Al 0.00000000 0.00000000 -3.135455780000001 0 0 0
Al 0.00000000 4.18070000 -3.135455780000001 0 0 0
Al 2.95620000 6.27105000 -1.0450643600000014 0 0 0
Al 2.95620000 2.09035000 -1.0450643600000014 0 0 0
Al 5.90565986 4.18262312 1.04453894
Al 5.90565986 8.35947688 1.04453894
Al 2.94963724 2.09035000 3.10603215
Al 2.94165550 6.27105000 3.12836259
Ni 1.47810000 0.00000000 -1.0450643600000014 0 0 0
Ni 1.47810000 4.18070000 -1.0450643600000014 0 0 0
Ni 4.43430000 2.09035000 -3.135455780000001 0 0 0
Ni 4.43430000 6.27105000 -3.135455780000001 0 0 0
Ni 1.59280056 4.18805803 2.95628688
Ni 1.59285968 8.35395835 2.95628688
Ni 4.46569484 6.27105000 1.07264901
Ni 4.47302622 2.09035000 1.07054733
Pd 4.43430000 0.00000000 -1.0450643600000014 0 0 0
Pd 4.43430000 4.18070000 -1.0450643600000014 0 0 0
Pd 1.47810000 2.09035000 -3.135455780000001 0 0 0
Pd 1.47810000 6.27105000 -3.135455780000001 0 0 0
Pd 4.39001612 4.19148621 3.06058315
Pd 4.39007525 8.35061379 3.06058315
Pd 1.44930661 6.27105000 1.05031858
Pd 1.44150224 2.09035000 1.05373382
C 0.06077947 2.09035000 5.71843034
O 0.05888750 2.09043361 6.85728252
