&CONTROL
calculation = 'relax'
prefix = 'scf'
pseudo_dir = '/vol0403/data/hp230205/u10028/POT_HYBRID_KKJUS_GBRV'
outdir = './data'
tprnfor = .true.
nstep = 50
disk_io = 'non'
/
&SYSTEM
ibrav = 0
ecutwfc = 50.0
ecutrho = 400
occupations = 'smearing'
smearing = 'mp'
degauss = 0.01
assume_isolated = 'esm'
esm_bc = 'bc1'
input_dft = 'BEEF-VDW'
nosym = .true.
nspin = 1
ntyp = 4
nat = 16
/
&ELECTRONS
electron_maxstep = 200
mixing_beta = 0.1
conv_thr = 1e-06
/
&IONS
ion_dynamics = 'bfgs'
upscale = 1.0
/
&CELL
/

K_POINTS {automatic}
8 11 2 0  0  0

ATOMIC_SPECIES
Ge 72.64 Ge.pbe-dn-rrkjus_psl.1.0.0.UPF
In 114.8 In.pbe-dn-rrkjus_psl.1.0.0.UPF
Li 6.941 Li.pbe-sl-rrkjus_psl.1.0.0.UPF
Mg 24.30 Mg.pbe-spnl-rrkjus_psl.1.0.0.UPF


CELL_PARAMETERS {angstrom}
8.41850000 0.00000000 0.00000000
0.00000000 6.06838000 0.00000000
0.00000000 0.00000000 24.54770000

ATOMIC_POSITIONS {angstrom}
Li 0.00000000 3.03419000 -2.2738534500000007 0 0 0
Li 8.41841581 5.79942940 0.77374350
Li 4.20925000 3.03419000 -2.2738534500000007 0 0 0
Li 4.20916581 5.79924735 0.77349803
Mg 2.10462500 1.45689667 -0.7580329799999994 0 0 0
Mg 2.10437245 4.00440259 2.32368528
Mg 6.31387500 1.45689667 -0.7580329799999994 0 0 0
Mg 6.31353826 4.00324960 2.32368528
In 2.10462500 4.49108667 -0.7580329799999994 0 0 0
In 2.10445663 0.95886472 2.74246904
In 6.31387500 4.49108667 -0.7580329799999994 0 0 0
In 6.31379081 0.95886472 2.74296000
Ge 0.00000000 0.00000000 -2.2738534500000007 0 0 0
Ge 8.41824745 2.48973495 1.26396107
Ge 4.20925000 0.00000000 -2.2738534500000007 0 0 0
Ge 4.20967093 2.48997768 1.26371560
