&CONTROL
calculation = 'relax'
prefix = 'scf'
pseudo_dir = '/vol0403/data/hp230205/u10028/POT_HYBRID_KKJUS_GBRV'
outdir = './data'
tprnfor = .true.
nstep = 50
disk_io = 'non'
/
&SYSTEM
ibrav = 0
ecutwfc = 50.0
ecutrho = 400
occupations = 'smearing'
smearing = 'mp'
degauss = 0.01
assume_isolated = 'esm'
esm_bc = 'bc1'
input_dft = 'BEEF-VDW'
nosym = .true.
nspin = 1
ntyp = 6
nat = 34
/
&ELECTRONS
electron_maxstep = 200
mixing_beta = 0.1
conv_thr = 1e-06
/
&IONS
ion_dynamics = 'bfgs'
upscale = 1.0
/
&CELL
/

K_POINTS {automatic}
7 7 2 0  0  0

ATOMIC_SPECIES
C 12.01 C.pbe-n-rrkjus_psl.1.0.0.UPF
Ga 69.72 Ga.pbe-dnl-rrkjus_psl.1.0.0.UPF
Ge 72.64 Ge.pbe-dn-rrkjus_psl.1.0.0.UPF
O 15.99 O.pbe-n-rrkjus_psl.1.0.0.UPF
Pd 106.4 Pd.pbe-n-rrkjus_psl.1.0.0.UPF
Sc 44.95 Sc.pbe-spn-rrkjus_psl.1.0.0.UPF


CELL_PARAMETERS {angstrom}
7.83718000 0.00000000 0.00000000
0.00000000 8.08666000 0.00000000
0.00000000 0.00000000 26.43810000

ATOMIC_POSITIONS {angstrom}
Sc 0.00000000 2.02166500 -1.0731224799999985 0 0 0
Sc 0.00000000 2.02166500 3.32987870
Sc 0.00000000 6.06499500 -1.0731224799999985 0 0 0
Sc 0.00000000 6.06499500 3.30053240
Sc 3.91859000 2.02166500 -1.0731224799999985 0 0 0
Sc 3.91859000 2.02166500 3.32538422
Sc 3.91859000 6.06499500 -1.0731224799999985 0 0 0
Sc 3.91859000 6.06499500 3.30185431
Ga 0.00000000 0.00000000 -3.2191030599999984 0 0 0
Ga 0.00000000 0.00638846 1.13207944
Ga 0.00000000 4.04333000 -3.2191030599999984 0 0 0
Ga 7.83710163 4.03694154 1.13207944
Ga 3.91859000 0.00000000 -3.2191030599999984 0 0 0
Ga 3.91859000 0.00000000 1.13895335
Ga 3.91859000 4.04333000 -3.2191030599999984 0 0 0
Ga 3.91859000 4.04333000 1.13895335
Ge 1.95929500 0.00000000 -1.0731224799999985 0 0 0
Ge 1.95843291 8.08156540 3.19980324
Ge 1.95929500 4.04333000 -1.0731224799999985 0 0 0
Ge 1.95843291 4.04834373 3.19980324
Ge 5.87788500 0.00000000 -1.0731224799999985 0 0 0
Ge 5.87874709 8.08164627 3.19980324
Ge 5.87788500 4.04333000 -1.0731224799999985 0 0 0
Ge 5.87866872 4.04834373 3.19980324
Pd 1.95929500 2.02166500 -3.2191030599999984 0 0 0
Pd 1.98938977 2.02166500 1.20081850
Pd 1.95929500 6.06499500 -3.2191030599999984 0 0 0
Pd 1.97261821 6.06499500 1.18733507
Pd 5.87788500 2.02166500 -3.2191030599999984 0 0 0
Pd 5.84779023 2.02166500 1.20081850
Pd 5.87788500 6.06499500 -3.2191030599999984 0 0 0
Pd 5.86456179 6.06499500 1.18733507
C 0.00000000 2.02166500 5.63713168
O 0.00000000 2.02166500 6.78666027
