&CONTROL
calculation = 'relax'
prefix = 'scf'
pseudo_dir = '/vol0004/mdt0/data/hp150275/u10028/POT_KKJUS'
outdir = './data'
tprnfor = .true.
nstep = 50
disk_io = 'non'
/
&SYSTEM
ibrav = 0
ecutwfc = 50.0
ecutrho = 400
occupations = 'smearing'
smearing = 'mp'
degauss = 0.01
assume_isolated = 'esm'
esm_bc = 'bc1'
input_dft = 'BEEF-VDW'
nosym = .true.
nspin = 1
ntyp = 4
nat = 18
/
&ELECTRONS
electron_maxstep = 200
mixing_beta = 0.1
conv_thr = 1e-06
/
&IONS
ion_dynamics = 'bfgs'
upscale = 1.0
/
&CELL
/

K_POINTS {automatic}
9 9 2 0  0  0

ATOMIC_SPECIES
C 12.01 C.pbe-n-rrkjus_psl.1.0.0.UPF
Ir 192.2 Ir.pbe-n-rrkjus_psl.0.2.3.UPF
O 15.99 O.pbe-n-rrkjus_psl.1.0.0.UPF
Zr 91.22 Zr.pbe-spn-rrkjus_psl.1.0.0.UPF

CELL_PARAMETERS {angstrom}
6.65024000 0.00000000 0.00000000
0.00000000 6.65024000 0.00000000
0.00000000 0.00000000 24.98770000

ATOMIC_POSITIONS {angstrom}
Zr 1.66256000 1.66256000 -0.5349866600000013 0 0 0
Zr 1.79489978 1.78824954 2.90407049
Zr 1.66256000 4.98768000 -0.5349866600000013 0 0 0
Zr 1.76430867 4.98043124 2.78288015
Zr 4.98768000 1.66256000 -0.5349866600000013 0 0 0
Zr 4.97145341 1.75666090 2.77838236
Zr 4.98768000 4.98768000 -0.5349866600000013 0 0 0
Zr 5.00836225 5.01494598 2.72141041
Ir 0.00000000 0.00000000 -2.19766821 0 0 0
Ir 0.10839891 0.10706886 1.83634607
Ir 0.00000000 3.32512000 -2.19766821 0 0 0
Ir 0.00784728 3.36588597 1.40580800
Ir 3.32512000 0.00000000 -2.19766821 0 0 0
Ir 3.36621848 0.00033251 1.34408838
Ir 3.32512000 3.32512000 -2.19766821 0 0 0
Ir 3.34094757 3.34048205 1.00950308
C 1.70724961 1.70299346 5.16945538
O 1.66003291 1.66029892 6.32838490
