&CONTROL
calculation = 'relax'
prefix = 'scf'
pseudo_dir = '/vol0004/mdt0/data/hp150275/u10028/POT_KKJUS'
outdir = './data'
tprnfor = .true.
nstep = 50
disk_io = 'non'
/
&SYSTEM
ibrav = 0
ecutwfc = 50.0
ecutrho = 400
occupations = 'smearing'
smearing = 'mp'
degauss = 0.01
assume_isolated = 'esm'
esm_bc = 'bc1'
input_dft = 'BEEF-VDW'
nosym = .true.
nspin = 1
ntyp = 3
nat = 17
/
&ELECTRONS
electron_maxstep = 200
mixing_beta = 0.1
conv_thr = 1e-06
/
&IONS
ion_dynamics = 'bfgs'
upscale = 1.0
/
&CELL
/

K_POINTS {automatic}
6 8 1 0 0 0

ATOMIC_SPECIES
C 12.01 C.pbe-n-rrkjus_psl.1.0.0.UPF
Rh 102.9 Rh.pbe-spn-rrkjus_psl.1.0.0.UPF
Zr 91.22 Zr.pbe-spn-rrkjus_psl.1.0.0.UPF

CELL_PARAMETERS {angstrom}
7.95743000 0.00000000 0.00000000
0.00000000 5.62675000 0.00000000
0.00000000 0.00000000 24.22010000

ATOMIC_POSITIONS {angstrom}
Zr 0.00000000 0.00000000 -2.1100551099999976 0 0 0
Zr 0.00015915 2.81337500 0.38073997
Zr 3.97871500 0.00000000 -2.1100551099999976 0 0 0
Zr 3.97871500 2.81337500 0.78473124
Rh 0.00000000 2.81337500 -2.1100551099999976 0 0 0
Rh 1.98935750 4.22006250 -0.7033516999999989 0 0 0
Rh 1.98935750 1.40668750 -0.7033516999999989 0 0 0
Rh 0.00007957 0.00000000 0.48730841
Rh 1.48453814 1.42317388 2.19894288
Rh 1.48445857 4.20351985 2.19918508
Rh 3.97871500 2.81337500 -2.1100551099999976 0 0 0
Rh 5.96807250 4.22006250 -0.7033516999999989 0 0 0
Rh 5.96807250 1.40668750 -0.7033516999999989 0 0 0
Rh 3.97863543 0.00000000 0.69003065
Rh 6.47289186 1.42323015 2.19918508
Rh 6.47281228 4.20357612 2.19894288
C 0.00007957 2.81337500 2.68600909
