&CONTROL
calculation = 'relax'
prefix = 'scf'
pseudo_dir = '/vol0004/mdt0/data/hp150275/u10028/POT_KKJUS'
outdir = './data'
tprnfor = .true.
nstep = 50
disk_io = 'non'
/
&SYSTEM
ibrav = 0
ecutwfc = 50.0
ecutrho = 400
occupations = 'smearing'
smearing = 'mp'
degauss = 0.01
assume_isolated = 'esm'
esm_bc = 'bc1'
input_dft = 'BEEF-VDW'
nosym = .true.
nspin = 1
ntyp = 4
nat = 34
/
&ELECTRONS
electron_maxstep = 200
mixing_beta = 0.1
conv_thr = 1e-06
/
&IONS
ion_dynamics = 'bfgs'
upscale = 1.0
/
&CELL
/

K_POINTS {automatic}
8 6 2 0  0  0

ATOMIC_SPECIES
C 12.01 C.pbe-n-rrkjus_psl.1.0.0.UPF
K 39.09 K.pbe-spn-rrkjus_psl.1.0.0.UPF
O 15.99 O.pbe-n-rrkjus_psl.1.0.0.UPF
Sb 121.7 Sb.pbe-n-rrkjus_psl.1.0.0.UPF

CELL_PARAMETERS {angstrom}
8.65338000 0.00000000 0.00000000
0.00000000 12.23770000 0.00000000
0.00000000 0.00000000 29.17830000

ATOMIC_POSITIONS {angstrom}
K 2.16334500 0.00000000 -1.5298182699999998 0 0 0
K 6.49003500 6.11885000 -1.5298182699999998 0 0 0
K 6.49003500 0.00000000 -1.5298182699999998 0 0 0
K 2.16334500 6.11885000 -1.5298182699999998 0 0 0
K 6.49003500 9.17827500 -4.589163020000001 0 0 0
K 2.16334500 3.05942500 -4.589163020000001 0 0 0
K 2.16334500 9.17827500 -4.589163020000001 0 0 0
K 6.49003500 3.05942500 -4.589163020000001 0 0 0
K 0.00000000 9.17827500 -1.5298182699999998 0 0 0
K 4.32669000 0.00000000 -4.589163020000001 0 0 0
K 0.00000000 3.05942500 -1.5298182699999998 0 0 0
K 4.32669000 6.11885000 -4.589163020000001 0 0 0
K 2.41135087 6.11885000 5.20424159
K 5.65005140 0.00012238 6.08571803
K 6.24834610 6.11897238 4.98715504
K 2.25065760 0.00085664 4.54189418
K 6.43145162 3.29340982 1.38596925
K 2.23542766 9.36306427 1.52485796
K 2.23534112 2.87463573 1.52456617
K 6.43370150 8.94404542 1.38480212
K 8.33199347 2.87561475 4.26265785
K 3.95494080 6.11836049 1.89046206
K 8.33182040 9.36196288 4.26236606
K 5.05080484 0.00012238 2.18866428
Sb 0.00000000 0.00000000 -4.589163020000001 0 0 0
Sb 4.32669000 3.05942500 -1.5298182699999998 0 0 0
Sb 4.32669000 9.17827500 -1.5298182699999998 0 0 0
Sb 0.00000000 6.11885000 -4.589163020000001 0 0 0
Sb 0.09051435 6.11885000 1.80963817
Sb 4.39903226 9.21804753 4.43772765
Sb 4.40076293 3.01953010 4.43685230
Sb 8.61149764 12.23745525 1.57912960
C 1.90408974 12.23757762 7.64792421
O 2.00273827 12.23745525 8.78879574
