&CONTROL
calculation = 'relax'
prefix = 'scf'
pseudo_dir = '/vol0403/data/hp230205/u10028/POT_HYBRID_KKJUS_GBRV'
outdir = './data'
tprnfor = .true.
nstep = 50
disk_io = 'non'
/
&SYSTEM
ibrav = 0
ecutwfc = 50.0
ecutrho = 400
occupations = 'smearing'
smearing = 'mp'
degauss = 0.01
assume_isolated = 'esm'
esm_bc = 'bc1'
input_dft = 'BEEF-VDW'
nosym = .true.
nspin = 1
ntyp = 5
nat = 17
/
&ELECTRONS
electron_maxstep = 200
mixing_beta = 0.1
conv_thr = 1e-06
/
&IONS
ion_dynamics = 'bfgs'
upscale = 1.0
/
&CELL
/

K_POINTS {automatic}
6 6 1 0 0 0

ATOMIC_SPECIES
Al 26.98 Al.pbe-nl-rrkjus_psl.1.0.0.UPF
C 12.01 C.pbe-n-rrkjus_psl.1.0.0.UPF
In 114.8 In.pbe-dn-rrkjus_psl.1.0.0.UPF
Pd 106.4 Pd.pbe-n-rrkjus_psl.1.0.0.UPF
Sc 44.95 Sc.pbe-spn-rrkjus_psl.1.0.0.UPF


CELL_PARAMETERS {angstrom}
8.30234000 0.00000000 0.00000000
0.00000000 5.99150000 0.00000000
0.00000000 0.00000000 24.49130000

ATOMIC_POSITIONS {angstrom}
Sc 2.07558500 4.44581283 -0.7484541299999989 0 0 0
Sc 1.70903669 1.38379684 2.29728394
Sc 6.22675500 4.44581283 -0.7484541299999989 0 0 0
Sc 6.59338633 1.38385676 2.29728394
Al 0.00000000 0.00000000 -2.2456072999999996 0 0 0
Al 0.00000000 2.94685936 0.48541757
Al 4.15117000 0.00000000 -2.2456072999999996 0 0 0
Al 4.15117000 2.86339777 0.83931685
In 2.07558500 1.45006283 -0.7484541299999989 0 0 0
In 1.69542085 4.40776681 2.60562941
In 6.22675500 1.45006283 -0.7484541299999989 0 0 0
In 6.60691915 4.40776681 2.60562941
Pd 0.00000000 2.99575000 -2.2456072999999996 0 0 0
Pd 0.00000000 5.80348673 0.50550043
Pd 4.15117000 2.99575000 -2.2456072999999996 0 0 0
Pd 4.15117000 5.79240246 0.98455026
C 0.00000000 0.20502913 2.76506777
