&CONTROL
calculation = 'relax'
prefix = 'scf'
pseudo_dir = '/vol0004/mdt0/data/hp150275/u10028/POT_HYBRID_KKJUS_GBRV'
outdir = './data'
tprnfor = .true.
nstep = 50
disk_io = 'non'
/
&SYSTEM
ibrav = 0
ecutwfc = 50.0
ecutrho = 400
occupations = 'smearing'
smearing = 'mp'
degauss = 0.01
assume_isolated = 'esm'
esm_bc = 'bc1'
input_dft = 'BEEF-VDW'
nosym = .true.
nspin = 2
ntyp = 4
nat = 34
starting_magnetization(1) = 0.1
starting_magnetization(2) = 0.1
starting_magnetization(3) = 0.1
starting_magnetization(4) = 0.1
/
&ELECTRONS
electron_maxstep = 200
mixing_beta = 0.1
conv_thr = 1e-06
/
&IONS
ion_dynamics = 'bfgs'
upscale = 1.0
/
&CELL
/

K_POINTS {automatic}
9 6 2 0  0  0

ATOMIC_SPECIES
Al 26.98 Al.pbe-nl-rrkjus_psl.1.0.0.UPF
C 12.01 C.pbe-n-rrkjus_psl.1.0.0.UPF
Fe 55.84 fe_pbe_v1.5.uspp.F.UPF
O 15.99 O.pbe-n-rrkjus_psl.1.0.0.UPF

CELL_PARAMETERS {angstrom}
5.75078000 0.00000000 0.00000000
0.00000000 8.13283000 0.00000000
0.00000000 0.00000000 26.09960000

ATOMIC_POSITIONS {angstrom}
Al 0.00000000 0.00000000 -3.049738259999998 0 0 0
Al 0.00000000 2.03320750 -1.0165794199999993 0 0 0
Al 0.00005751 4.02542554 0.91244202
Al 0.00017252 2.03320750 3.21755869
Al 0.00000000 4.06641500 -3.049738259999998 0 0 0
Al 0.00000000 6.09962250 -1.0165794199999993 0 0 0
Al 0.00011502 0.04090813 0.91270301
Al 5.75072249 6.09970383 3.54354269
Al 2.87539000 0.00000000 -3.049738259999998 0 0 0
Al 2.87539000 2.03320750 -1.0165794199999993 0 0 0
Al 2.87533249 3.99346351 0.90696110
Al 2.87521748 2.03320750 3.20790184
Al 2.87539000 4.06641500 -3.049738259999998 0 0 0
Al 2.87539000 6.09962250 -1.0165794199999993 0 0 0
Al 2.87527498 0.07295149 0.90696110
Al 2.87550502 6.09962250 3.61348962
Fe 1.43769500 2.03320750 -3.049738259999998 0 0 0
Fe 1.43769500 0.00000000 -1.0165794199999993 0 0 0
Fe 1.41216154 2.03320750 1.14916539
Fe 1.44695376 8.06410759 2.95760667
Fe 1.43769500 6.09962250 -3.049738259999998 0 0 0
Fe 1.43769500 4.06641500 -1.0165794199999993 0 0 0
Fe 1.46794410 6.09954117 1.27914140
Fe 1.44695376 4.13521874 2.95734568
Fe 4.31308500 2.03320750 -3.049738259999998 0 0 0
Fe 4.31308500 0.00000000 -1.0165794199999993 0 0 0
Fe 4.33861846 2.03320750 1.14942638
Fe 4.30388375 8.06443290 2.95734568
Fe 4.31308500 6.09962250 -3.049738259999998 0 0 0
Fe 4.31308500 4.06641500 -1.0165794199999993 0 0 0
Fe 4.28283590 6.09962250 1.27914140
Fe 4.30382624 4.13489343 2.95734568
C 5.75066498 2.03320750 5.26898725
O 5.75066498 2.03320750 6.41736965
