&CONTROL
calculation = 'relax'
prefix = 'scf'
pseudo_dir = '/vol0004/mdt0/data/hp150275/u10028/POT_KKJUS'
outdir = './data'
tprnfor = .true.
nstep = 50
disk_io = 'non'
/
&SYSTEM
ibrav = 0
ecutwfc = 50.0
ecutrho = 400
occupations = 'smearing'
smearing = 'mp'
degauss = 0.01
assume_isolated = 'esm'
esm_bc = 'bc1'
input_dft = 'BEEF-VDW'
nosym = .true.
nspin = 1
ntyp = 4
nat = 34
/
&ELECTRONS
electron_maxstep = 200
mixing_beta = 0.1
conv_thr = 1e-06
/
&IONS
ion_dynamics = 'bfgs'
upscale = 1.0
/
&CELL
/

K_POINTS {automatic}
8 6 2 0  0  0

ATOMIC_SPECIES
Au 196.9 Au.pbe-n-rrkjus_psl.1.0.0.UPF
C 12.01 C.pbe-n-rrkjus_psl.1.0.0.UPF
O 15.99 O.pbe-n-rrkjus_psl.1.0.0.UPF
Y 88.90 Y.pbe-spn-rrkjus_psl.1.0.0.UPF

CELL_PARAMETERS {angstrom}
7.24612000 0.00000000 0.00000000
0.00000000 10.24760000 0.00000000
0.00000000 0.00000000 27.68570000

ATOMIC_POSITIONS {angstrom}
Y 1.81153000 2.56190000 -3.842775160000002 0 0 0
Y 1.81153000 0.00000000 -1.2810173400000018 0 0 0
Y 1.81153000 2.54519641 1.25582335
Y 1.81153000 0.00000000 3.82090346
Y 1.81153000 7.68570000 -3.842775160000002 0 0 0
Y 1.81153000 5.12380000 -1.2810173400000018 0 0 0
Y 1.81153000 7.70240359 1.25582335
Y 1.81153000 5.12380000 3.82810174
Y 5.43459000 2.56190000 -3.842775160000002 0 0 0
Y 5.43459000 0.00000000 -1.2810173400000018 0 0 0
Y 5.43459000 2.57409464 1.26551335
Y 5.43459000 0.00000000 3.89565485
Y 5.43459000 7.68570000 -3.842775160000002 0 0 0
Y 5.43459000 5.12380000 -1.2810173400000018 0 0 0
Y 5.43459000 7.67350536 1.26551335
Y 5.43459000 5.12380000 3.82754803
Au 0.00000000 0.00000000 -3.842775160000002 0 0 0
Au 0.00000000 2.56190000 -1.2810173400000018 0 0 0
Au 7.15960133 0.00000000 1.34192588
Au 7.24220710 2.56548666 3.64482240
Au 0.00000000 5.12380000 -3.842775160000002 0 0 0
Au 0.00000000 7.68570000 -1.2810173400000018 0 0 0
Au 0.02434696 5.12380000 1.33334331
Au 7.24220710 7.68211334 3.64482240
Au 3.62306000 0.00000000 -3.842775160000002 0 0 0
Au 3.62306000 2.56190000 -1.2810173400000018 0 0 0
Au 3.70957867 0.00000000 1.34192588
Au 3.62697290 2.56548666 3.64482240
Au 3.62306000 5.12380000 -3.842775160000002 0 0 0
Au 3.62306000 7.68570000 -1.2810173400000018 0 0 0
Au 3.59871304 5.12380000 1.33334331
Au 3.62697290 7.68211334 3.64482240
C 1.81153000 0.00000000 6.28216219
O 1.81153000 0.00000000 7.43499474
