&CONTROL
calculation = 'relax'
prefix = 'scf'
pseudo_dir = '/vol0403/data/hp230205/u10028/POT_HYBRID_KKJUS_GBRV'
outdir = './data'
tprnfor = .true.
nstep = 50
disk_io = 'non'
/
&SYSTEM
ibrav = 0
ecutwfc = 50.0
ecutrho = 400
occupations = 'smearing'
smearing = 'mp'
degauss = 0.01
assume_isolated = 'esm'
esm_bc = 'bc1'
input_dft = 'BEEF-VDW'
nosym = .true.
nspin = 1
ntyp = 5
nat = 17
/
&ELECTRONS
electron_maxstep = 200
mixing_beta = 0.1
conv_thr = 1e-06
/
&IONS
ion_dynamics = 'bfgs'
upscale = 1.0
/
&CELL
/

K_POINTS {automatic}
8 8 1 0 0 0

ATOMIC_SPECIES
C 12.01 C.pbe-n-rrkjus_psl.1.0.0.UPF
Ge 72.64 Ge.pbe-dn-rrkjus_psl.1.0.0.UPF
Hf 178.4 Hf.pbe-spn-rrkjus_psl.1.0.0.UPF
Li 6.941 Li.pbe-sl-rrkjus_psl.1.0.0.UPF
Pd 106.4 Pd.pbe-n-rrkjus_psl.1.0.0.UPF


CELL_PARAMETERS {angstrom}
6.42607000 0.00000000 0.00000000
0.00000000 6.42607000 0.00000000
0.00000000 0.00000000 24.81960000

ATOMIC_POSITIONS {angstrom}
Li 1.60651750 1.60651750 0.63289980
Li 1.60651750 4.81955250 -2.4097349600000015 0 0 0
Li 4.81955250 1.60651750 -2.4097349600000015 0 0 0
Li 4.81955250 4.81955250 1.03050979
Hf 4.81955250 1.60651750 0.87017518
Hf 4.81955250 4.81955250 -2.4097349600000015 0 0 0
Hf 1.60651750 1.60651750 -2.4097349600000015 0 0 0
Hf 1.60651750 4.81955250 0.87017518
Ge 0.16919842 0.16919842 2.61424847
Ge 0.00000000 3.21303500 -0.8031622600000006 0 0 0
Ge 3.21303500 0.00000000 -0.8031622600000006 0 0 0
Ge 3.04383658 3.04383658 2.61424847
Pd 0.17581728 3.03721772 2.30375527
Pd 0.00000000 0.00000000 -0.8031622600000006 0 0 0
Pd 3.21303500 3.21303500 -0.8031622600000006 0 0 0
Pd 3.03721772 0.17581728 2.30375527
C 1.60651750 1.60651750 2.85549498
