&CONTROL
calculation = 'relax'
prefix = 'scf'
pseudo_dir = '/vol0004/mdt0/data/hp150275/u10028/POT_HYBRID_KKJUS_GBRV'
outdir = './data'
tprnfor = .true.
nstep = 50
disk_io = 'non'
/
&SYSTEM
ibrav = 0
ecutwfc = 50.0
ecutrho = 400
occupations = 'smearing'
smearing = 'mp'
degauss = 0.01
assume_isolated = 'esm'
esm_bc = 'bc1'
input_dft = 'BEEF-VDW'
nosym = .true.
nspin = 2
ntyp = 4
nat = 34
starting_magnetization(1) = 0.0
starting_magnetization(2) = 0.001
starting_magnetization(3) = 0.0
starting_magnetization(4) = 0.0
/
&ELECTRONS
electron_maxstep = 300
mixing_beta = 0.1
conv_thr = 1e-06
/
&IONS
ion_dynamics = 'bfgs'
upscale = 1.0
/
&CELL
/

K_POINTS {automatic}
8 6 1 0 0 0

ATOMIC_SPECIES
C 12.01 C.pbe-n-rrkjus_psl.1.0.0.UPF
Ni 58.69 ni_pbe_v1.4.uspp.F.UPF
O 15.99 O.pbe-n-rrkjus_psl.1.0.0.UPF
Sb 121.7 Sb.pbe-n-rrkjus_psl.1.0.0.UPF

CELL_PARAMETERS {angstrom}
5.96127000 0.00000000 0.00000000
0.00000000 8.43051000 0.00000000
0.00000000 0.00000000 26.32290000

ATOMIC_POSITIONS {angstrom}
Ni 1.49031750 0.00000000 -1.053705690000001 0 0 0
Ni 4.47095250 4.21525500 -1.053705690000001 0 0 0
Ni 4.47095250 0.00000000 -1.053705690000001 0 0 0
Ni 1.49031750 4.21525500 -1.053705690000001 0 0 0
Ni 4.47095250 6.32288250 -3.1613802900000003 0 0 0
Ni 1.49031750 2.10762750 -3.1613802900000003 0 0 0
Ni 1.49031750 6.32288250 -3.1613802900000003 0 0 0
Ni 4.47095250 2.10762750 -3.1613802900000003 0 0 0
Ni 0.00000000 6.32288250 -1.053705690000001 0 0 0
Ni 2.98063500 0.00000000 -3.1613802900000003 0 0 0
Ni 0.00000000 2.10762750 -1.053705690000001 0 0 0
Ni 2.98063500 4.21525500 -3.1613802900000003 0 0 0
Ni 1.50283617 4.22292676 3.03266131
Ni 4.45724158 8.42309115 3.03213485
Ni 4.45843383 4.22292676 3.03266131
Ni 1.50402842 8.42309115 3.03213485
Ni 4.47679454 2.10729028 1.05054694
Ni 1.66116750 6.32313542 1.16557801
Ni 1.48447546 2.10729028 1.05054694
Ni 4.30010250 6.32313542 1.16557801
Ni 0.00000000 2.10720597 3.04398016
Ni 2.98063500 4.16484055 0.99632177
Ni 0.00000000 6.32347264 3.02371152
Ni 2.98063500 0.05016153 0.99579531
Sb 0.00000000 0.00000000 -3.1613802900000003 0 0 0
Sb 2.98063500 2.10762750 -1.053705690000001 0 0 0
Sb 2.98063500 6.32288250 -1.053705690000001 0 0 0
Sb 0.00000000 4.21525500 -3.1613802900000003 0 0 0
Sb 0.00000000 4.28733586 1.01211550
Sb 2.98063500 6.32271389 3.51331746
Sb 2.98063500 2.10813333 3.24245482
Sb 0.00000000 8.35834483 1.01211550
C 2.98069461 2.10754319 7.14271891
O 2.98063500 2.10762750 8.28697538
