&CONTROL
calculation = 'relax'
prefix = 'scf'
pseudo_dir = '/vol0004/mdt0/data/hp150275/u10028/POT_HYBRID_KKJUS_GBRV'
outdir = './data'
tprnfor = .true.
nstep = 50
disk_io = 'non'
/
&SYSTEM
ibrav = 0
ecutwfc = 50.0
ecutrho = 400
occupations = 'smearing'
smearing = 'mp'
degauss = 0.01
assume_isolated = 'esm'
esm_bc = 'bc1'
input_dft = 'BEEF-VDW'
nosym = .true.
nspin = 2
ntyp = 4
nat = 34
starting_magnetization(1) = 0.0
starting_magnetization(2) = 0.001
starting_magnetization(3) = 0.0
starting_magnetization(4) = 0.0
/
&ELECTRONS
electron_maxstep = 300
mixing_beta = 0.1
conv_thr = 1e-06
/
&IONS
ion_dynamics = 'bfgs'
upscale = 1.0
/
&CELL
/

K_POINTS {automatic}
9 6 2 0  0  0

ATOMIC_SPECIES
C 12.01 C.pbe-n-rrkjus_psl.1.0.0.UPF
Ni 58.69 ni_pbe_v1.4.uspp.F.UPF
O 15.99 O.pbe-n-rrkjus_psl.1.0.0.UPF
Sb 121.7 Sb.pbe-n-rrkjus_psl.1.0.0.UPF

CELL_PARAMETERS {angstrom}
5.96127000 0.00000000 0.00000000
0.00000000 8.43051000 0.00000000
0.00000000 0.00000000 26.32290000

ATOMIC_POSITIONS {angstrom}
Ni 1.49031750 0.00000000 -1.053705690000001 0 0 0
Ni 4.47095250 4.21525500 -1.053705690000001 0 0 0
Ni 4.47095250 0.00000000 -1.053705690000001 0 0 0
Ni 1.49031750 4.21525500 -1.053705690000001 0 0 0
Ni 4.47095250 6.32288250 -3.1613802900000003 0 0 0
Ni 1.49031750 2.10762750 -3.1613802900000003 0 0 0
Ni 1.49031750 6.32288250 -3.1613802900000003 0 0 0
Ni 4.47095250 2.10762750 -3.1613802900000003 0 0 0
Ni 0.00000000 6.32288250 -1.053705690000001 0 0 0
Ni 2.98063500 0.00000000 -3.1613802900000003 0 0 0
Ni 0.00000000 2.10762750 -1.053705690000001 0 0 0
Ni 2.98063500 4.21525500 -3.1613802900000003 0 0 0
Ni 1.49234433 4.22098775 3.03924203
Ni 4.46660077 8.42536739 3.03871558
Ni 4.46892567 4.22090344 3.03924203
Ni 1.49466923 8.42536739 3.03871558
Ni 4.45318792 2.10720597 1.05870704
Ni 1.64328369 6.32330403 1.14425646
Ni 1.50808208 2.10720597 1.05870704
Ni 4.31798631 6.32330403 1.14425646
Ni 0.00000000 2.10678445 3.03450391
Ni 2.98063500 4.17765493 1.00500832
Ni 0.00000000 6.32490582 3.02134246
Ni 2.98063500 0.03751577 1.00474509
Sb 0.00000000 0.00000000 -3.1613802900000003 0 0 0
Sb 2.98063500 2.10762750 -1.053705690000001 0 0 0
Sb 2.98063500 6.32288250 -1.053705690000001 0 0 0
Sb 0.00000000 4.21525500 -3.1613802900000003 0 0 0
Sb 0.00000000 4.26895735 1.00869353
Sb 2.98063500 6.32262958 3.46488333
Sb 2.98063500 2.10863916 3.26719835
Sb 0.00000000 8.37647043 1.00974644
C 2.98093306 2.10712167 7.15324807
O 2.98057539 2.10745889 8.29092381
