&CONTROL
calculation = 'relax'
prefix = 'scf'
pseudo_dir = '/vol0004/mdt0/data/hp150275/u10028/POT_KKJUS'
outdir = './data'
tprnfor = .true.
nstep = 50
disk_io = 'non'
/
&SYSTEM
ibrav = 0
ecutwfc = 50.0
ecutrho = 400
occupations = 'smearing'
smearing = 'mp'
degauss = 0.01
assume_isolated = 'esm'
esm_bc = 'bc1'
input_dft = 'BEEF-VDW'
nosym = .true.
nspin = 1
ntyp = 3
nat = 33
/
&ELECTRONS
electron_maxstep = 200
mixing_beta = 0.1
conv_thr = 1e-06
/
&IONS
ion_dynamics = 'bfgs'
upscale = 1.0
/
&CELL
/

K_POINTS {automatic}
9 6 2 0  0  0

ATOMIC_SPECIES
Al 26.98 Al.pbe-nl-rrkjus_psl.1.0.0.UPF
C 12.01 C.pbe-n-rrkjus_psl.1.0.0.UPF
Rh 102.9 Rh.pbe-spn-rrkjus_psl.1.0.0.UPF

CELL_PARAMETERS {angstrom}
6.00621000 0.00000000 0.00000000
0.00000000 8.49407000 0.00000000
0.00000000 0.00000000 26.37050000

ATOMIC_POSITIONS {angstrom}
Al 0.00000000 0.00000000 -3.1852926900000007 0 0 0
Al 0.00000000 2.12351750 -1.061676330000001 0 0 0
Al 0.01129167 0.00000000 1.08699201
Al 5.77394986 2.12351750 3.26044862
Al 0.00000000 4.24703500 -3.1852926900000007 0 0 0
Al 0.00000000 6.37055250 -1.061676330000001 0 0 0
Al 0.01129167 4.24703500 1.08699201
Al 0.07315564 6.37055250 3.25833898
Al 3.00310500 0.00000000 -3.1852926900000007 0 0 0
Al 3.00310500 2.12351750 -1.061676330000001 0 0 0
Al 2.99181333 0.00000000 1.08699201
Al 3.23470446 2.12351750 3.26071233
Al 3.00310500 4.24703500 -3.1852926900000007 0 0 0
Al 3.00310500 6.37055250 -1.061676330000001 0 0 0
Al 2.99181333 4.24703500 1.08699201
Al 2.92994936 6.37055250 3.25833898
Rh 1.50155250 2.12351750 -3.1852926900000007 0 0 0
Rh 1.50155250 0.00000000 -1.061676330000001 0 0 0
Rh 1.50149244 2.12351750 1.02212058
Rh 1.50131225 4.17262695 3.13677098
Rh 1.50155250 6.37055250 -3.1852926900000007 0 0 0
Rh 1.50155250 4.24703500 -1.061676330000001 0 0 0
Rh 1.50155250 6.37055250 1.05903928
Rh 1.50131225 0.07440805 3.13677098
Rh 4.50465750 2.12351750 -3.1852926900000007 0 0 0
Rh 4.50465750 0.00000000 -1.061676330000001 0 0 0
Rh 4.50465750 2.12351750 1.01526425
Rh 4.50459744 4.31821531 3.09194112
Rh 4.50465750 6.37055250 -3.1852926900000007 0 0 0
Rh 4.50465750 4.24703500 -1.061676330000001 0 0 0
Rh 4.50477762 6.37055250 1.01658278
Rh 4.50459744 8.42288969 3.09194112
C 1.50107200 2.12351750 3.98405514
