&CONTROL
calculation = 'relax'
prefix = 'scf'
pseudo_dir = '/vol0004/mdt0/data/hp150275/u10028/POT_KKJUS'
outdir = './data'
tprnfor = .true.
nstep = 50
disk_io = 'non'
/
&SYSTEM
ibrav = 0
ecutwfc = 50.0
ecutrho = 400
occupations = 'smearing'
smearing = 'mp'
degauss = 0.01
assume_isolated = 'esm'
esm_bc = 'bc1'
input_dft = 'BEEF-VDW'
nosym = .true.
nspin = 1
ntyp = 3
nat = 33
/
&ELECTRONS
electron_maxstep = 200
mixing_beta = 0.1
conv_thr = 1e-06
/
&IONS
ion_dynamics = 'bfgs'
upscale = 1.0
/
&CELL
/

K_POINTS {automatic}
9 6 2 0  0  0

ATOMIC_SPECIES
Au 196.9 Au.pbe-n-rrkjus_psl.1.0.0.UPF
C 12.01 C.pbe-n-rrkjus_psl.1.0.0.UPF
Zn 65.40 Zn.pbe-dnl-rrkjus_psl.1.0.0.UPF

CELL_PARAMETERS {angstrom}
6.43103000 0.00000000 0.00000000
0.00000000 9.09485000 0.00000000
0.00000000 0.00000000 26.82110000

ATOMIC_POSITIONS {angstrom}
Zn 1.60775750 2.27371250 -3.4105710800000004 0 0 0
Zn 1.60775750 0.00000000 -1.1369464300000018 0 0 0
Zn 1.60486354 2.27280302 1.20748592
Zn 1.44813934 4.54742500 3.61575249
Zn 1.60775750 6.82113750 -3.4105710800000004 0 0 0
Zn 1.60775750 4.54742500 -1.1369464300000018 0 0 0
Zn 1.60486354 6.82204698 1.20748592
Zn 1.95567622 0.00000000 3.80081808
Zn 4.82327250 2.27371250 -3.4105710800000004 0 0 0
Zn 4.82327250 0.00000000 -1.1369464300000018 0 0 0
Zn 4.82616646 2.27280302 1.20748592
Zn 4.98289066 4.54742500 3.61575249
Zn 4.82327250 6.82113750 -3.4105710800000004 0 0 0
Zn 4.82327250 4.54742500 -1.1369464300000018 0 0 0
Zn 4.82616646 6.82204699 1.20748592
Zn 4.47535378 0.00000000 3.80081808
Au 0.00000000 0.00000000 -3.4105710800000004 0 0 0
Au 0.00000000 2.27371250 -1.1369464300000018 0 0 0
Au 0.00000000 4.54742500 1.06855262
Au 0.00000000 2.28899185 3.57337515
Au 0.00000000 4.54742500 -3.4105710800000004 0 0 0
Au 0.00000000 6.82113750 -1.1369464300000018 0 0 0
Au 0.00000000 0.00000000 1.19005221
Au 0.00000000 6.80585815 3.57337515
Au 3.21551500 0.00000000 -3.4105710800000004 0 0 0
Au 3.21551500 2.27371250 -1.1369464300000018 0 0 0
Au 3.21551500 4.54742500 1.13667822
Au 3.21551500 2.46434056 3.48862048
Au 3.21551500 4.54742500 -3.4105710800000004 0 0 0
Au 3.21551500 6.82113750 -1.1369464300000018 0 0 0
Au 3.21551500 0.00000000 1.08625455
Au 3.21551500 6.63050944 3.48862048
C 0.00000000 0.00000000 3.46260401
