&CONTROL
calculation = 'relax'
prefix = 'scf'
pseudo_dir = '/vol0004/mdt0/data/hp150275/u10028/POT_KKJUS'
outdir = './data'
tprnfor = .true.
nstep = 50
disk_io = 'non'
/
&SYSTEM
ibrav = 0
ecutwfc = 50.0
ecutrho = 400
occupations = 'smearing'
smearing = 'mp'
degauss = 0.01
assume_isolated = 'esm'
esm_bc = 'bc1'
input_dft = 'BEEF-VDW'
nosym = .true.
nspin = 1
ntyp = 4
nat = 18
/
&ELECTRONS
electron_maxstep = 200
mixing_beta = 0.1
conv_thr = 1e-06
/
&IONS
ion_dynamics = 'bfgs'
upscale = 1.0
/
&CELL
/

K_POINTS {automatic}
8 11 2 0  0  0

ATOMIC_SPECIES
C 12.01 C.pbe-n-rrkjus_psl.1.0.0.UPF
O 15.99 O.pbe-n-rrkjus_psl.1.0.0.UPF
Pt 195.0 Pt.pbe-n-rrkjus_psl.1.0.0.UPF
V 50.94 V.pbe-spnl-rrkjus_psl.1.0.0.UPF

CELL_PARAMETERS {angstrom}
7.87849000 0.00000000 0.00000000
0.00000000 5.57094000 0.00000000
0.00000000 0.00000000 24.17820000

ATOMIC_POSITIONS {angstrom}
V 0.00000000 0.00000000 1.87163446
V 0.00000000 2.78547000 -0.6963321600000008 0 0 0
V 3.93924500 0.00000000 1.69996924
V 3.93924500 2.78547000 -0.6963321600000008 0 0 0
Pt 0.00000000 2.78547000 2.36414440
Pt 1.87697146 4.20410987 0.89507696
Pt 1.87697146 1.36683013 0.89507696
Pt 0.00000000 0.00000000 -0.6963321600000008 0 0 0
Pt 1.96962250 1.39273500 -2.0889964799999987 0 0 0
Pt 1.96962250 4.17820500 -2.0889964799999987 0 0 0
Pt 3.93924500 2.78547000 1.85084121
Pt 6.00151854 4.20410987 0.89507696
Pt 6.00151854 1.36683013 0.89507696
Pt 3.93924500 0.00000000 -0.6963321600000008 0 0 0
Pt 5.90886750 1.39273500 -2.0889964799999987 0 0 0
Pt 5.90886750 4.17820500 -2.0889964799999987 0 0 0
C 0.00000000 2.78547000 4.24907687
O 0.00000000 2.78547000 5.40793799
