&CONTROL
calculation = 'relax'
prefix = 'scf'
pseudo_dir = '/vol0004/mdt0/data/hp150275/u10028/POT_KKJUS'
outdir = './data'
tprnfor = .true.
nstep = 50
disk_io = 'non'
/
&SYSTEM
ibrav = 0
ecutwfc = 50.0
ecutrho = 400
occupations = 'smearing'
smearing = 'mp'
degauss = 0.01
assume_isolated = 'esm'
esm_bc = 'bc1'
input_dft = 'BEEF-VDW'
nosym = .true.
nspin = 1
ntyp = 3
nat = 32
/
&ELECTRONS
electron_maxstep = 200
mixing_beta = 0.1
conv_thr = 1e-06
/
&IONS
ion_dynamics = 'bfgs'
upscale = 1.0
/
&CELL
/

K_POINTS {automatic}
9 6 2 0  0  0

ATOMIC_SPECIES
Li 6.941 Li.pbe-sl-rrkjus_psl.1.0.0.UPF
Pt 195.0 Pt.pbe-n-rrkjus_psl.1.0.0.UPF
Sb 121.7 Sb.pbe-n-rrkjus_psl.1.0.0.UPF

CELL_PARAMETERS {angstrom}
6.40528000 0.00000000 0.00000000
0.00000000 9.05843000 0.00000000
0.00000000 0.00000000 26.79380000

ATOMIC_POSITIONS {angstrom}
Li 0.00000000 6.79382250 -1.1323059900000025 0 0 0
Li 3.20264000 0.00000000 -3.3969179599999997 0 0 0
Li 0.00000000 2.26460750 -1.1323059900000025 0 0 0
Li 3.20264000 4.52921500 -3.3969179599999997 0 0 0
Li 1.60132000 2.26460750 -3.3969179599999997 0 0 0
Li 1.60132000 6.79382250 -3.3969179599999997 0 0 0
Li 4.80396000 4.52921500 -1.1323059900000025 0 0 0
Li 4.80396000 0.00000000 -1.1323059900000025 0 0 0
Li 0.17178961 2.26460750 3.35511964
Li 3.27815825 4.52921500 0.99458586
Li 0.17172556 6.79382250 3.35511964
Li 3.27815825 0.00000000 0.99458586
Li 1.75325324 6.79382250 1.21858202
Li 1.75318919 2.26460750 1.21858202
Li 4.62576511 0.00000000 3.29536946
Li 4.62576511 4.52921500 3.29536946
Sb 0.00000000 0.00000000 -3.3969179599999997 0 0 0
Sb 3.20264000 2.26460750 -1.1323059900000025 0 0 0
Sb 3.20264000 6.79382250 -1.1323059900000025 0 0 0
Sb 0.00000000 4.52921500 -3.3969179599999997 0 0 0
Sb 6.38567984 4.52921500 1.14168382
Sb 3.14031663 6.79382250 3.67798493
Sb 3.14031663 2.26460750 3.67798493
Sb 6.38574390 0.00000000 1.14168382
Pt 1.60132000 0.00000000 -1.1323059900000025 0 0 0
Pt 1.60132000 4.52921500 -1.1323059900000025 0 0 0
Pt 4.80396000 6.79382250 -3.3969179599999997 0 0 0
Pt 4.80396000 2.26460750 -3.3969179599999997 0 0 0
Pt 1.78995550 4.52921500 3.05261763
Pt 1.78995550 0.00000000 3.05261763
Pt 4.73093981 2.26460750 1.33620681
Pt 4.73087576 6.79382250 1.33620681
