&CONTROL
calculation = 'relax'
prefix = 'scf'
pseudo_dir = '/vol0004/mdt0/data/hp150275/u10028/POT_HYBRID_KKJUS_GBRV'
outdir = './data'
tprnfor = .true.
nstep = 50
disk_io = 'non'
/
&SYSTEM
ibrav = 0
ecutwfc = 50.0
ecutrho = 400
occupations = 'smearing'
smearing = 'mp'
degauss = 0.01
assume_isolated = 'esm'
esm_bc = 'bc1'
input_dft = 'BEEF-VDW'
nosym = .true.
nspin = 2
ntyp = 5
nat = 34
starting_magnetization(1) = 0.0
starting_magnetization(2) = 0.1
starting_magnetization(3) = 0.0
starting_magnetization(4) = 0.0
starting_magnetization(5) = 0.0
/
&ELECTRONS
electron_maxstep = 200
mixing_beta = 0.1
conv_thr = 1e-06
/
&IONS
ion_dynamics = 'bfgs'
upscale = 1.0
/
&CELL
/

K_POINTS {automatic}
9 6 2 0  0  0

ATOMIC_SPECIES
C 12.01 C.pbe-n-rrkjus_psl.1.0.0.UPF
Co 58.93 co_pbe_v1.2.uspp.F.UPF
O 15.99 O.pbe-n-rrkjus_psl.1.0.0.UPF
Sn 118.7 Sn.pbe-dn-rrkjus_psl.1.0.0.UPF
Ti 47.86 Ti.pbe-spn-rrkjus_psl.1.0.0.UPF

CELL_PARAMETERS {angstrom}
6.11439000 0.00000000 0.00000000
0.00000000 8.64705000 0.00000000
0.00000000 0.00000000 26.48530000

ATOMIC_POSITIONS {angstrom}
Ti 0.00000000 0.00000000 23.24270472
Ti 3.05719500 2.16176250 25.40443491
Ti 3.05719500 6.48528750 25.40443491
Ti 0.00000000 4.32352500 23.24270472
Ti 0.00000000 4.32335206 1.13410055
Ti 3.05719500 6.48528750 3.15281011
Ti 3.05719500 2.16176250 3.16102055
Ti 0.00000000 0.00017294 1.13410055
Co 1.52859750 0.00000000 25.40443491
Co 4.58579250 4.32352500 25.40443491
Co 4.58579250 0.00000000 25.40443491
Co 1.52859750 4.32352500 25.40443491
Co 4.58579250 6.48528750 23.24270472
Co 1.52859750 2.16176250 23.24270472
Co 1.52859750 6.48528750 23.24270472
Co 4.58579250 2.16176250 23.24270472
Co 1.46879877 4.32179559 3.06673289
Co 4.64565238 0.00172941 3.06673289
Co 4.64565238 4.32179559 3.06699774
Co 1.46873762 0.00172941 3.06673289
Co 4.60499168 2.16176250 1.15052143
Co 1.51875333 6.48528750 1.14390011
Co 1.50939832 2.16176250 1.15052143
Co 4.59563667 6.48528750 1.14390011
Sn 0.00000000 6.48528750 25.40443491
Sn 3.05719500 0.00000000 23.24270472
Sn 0.00000000 2.16176250 25.40443491
Sn 3.05719500 4.32352500 23.24270472
Sn 0.00000000 2.16176250 3.53446329
Sn 3.05719500 4.31920148 1.04484508
Sn 0.00000000 6.48528750 3.51910181
Sn 3.05719500 0.00432353 1.04484508
C 0.00000000 2.16228132 7.51732270
O 0.00006114 2.16158956 8.65248266
