&CONTROL
calculation = 'relax'
prefix = 'scf'
pseudo_dir = '/vol0004/mdt0/data/hp150275/u10028/POT_HYBRID_KKJUS_GBRV'
outdir = './data'
tprnfor = .true.
nstep = 50
disk_io = 'non'
/
&SYSTEM
ibrav = 0
ecutwfc = 50.0
ecutrho = 400
occupations = 'smearing'
smearing = 'mp'
degauss = 0.01
assume_isolated = 'esm'
esm_bc = 'bc1'
input_dft = 'BEEF-VDW'
nosym = .true.
nspin = 2
ntyp = 5
nat = 34
starting_magnetization(1) = 0.0
starting_magnetization(2) = 0.1
starting_magnetization(3) = 0.0
starting_magnetization(4) = 0.0
starting_magnetization(5) = 0.0
/
&ELECTRONS
electron_maxstep = 300
mixing_beta = 0.1
conv_thr = 1e-06
/
&IONS
ion_dynamics = 'bfgs'
upscale = 1.0
/
&CELL
/

K_POINTS {automatic}
9 6 2 0  0  0

ATOMIC_SPECIES
C 12.01 C.pbe-n-rrkjus_psl.1.0.0.UPF
Co 58.93 co_pbe_v1.2.uspp.F.UPF
Ga 69.72 Ga.pbe-dnl-rrkjus_psl.1.0.0.UPF
Nb 92.90 Nb.pbe-spn-rrkjus_psl.1.0.0.UPF
O 15.99 O.pbe-n-rrkjus_psl.1.0.0.UPF

CELL_PARAMETERS {angstrom}
5.97844000 0.00000000 0.00000000
0.00000000 8.45478000 0.00000000
0.00000000 0.00000000 26.34110000

ATOMIC_POSITIONS {angstrom}
Nb 0.00000000 0.00000000 -3.1704147999999996 0 0 0
Nb 2.98922000 2.11369500 -1.056804930000002 0 0 0
Nb 2.98922000 6.34108500 -1.056804930000002 0 0 0
Nb 0.00000000 4.22739000 -3.1704147999999996 0 0 0
Nb 0.00000000 4.22290897 1.11396512
Nb 2.98922000 6.34108500 3.16909774
Nb 2.98922000 2.11369500 2.96337375
Nb 0.00000000 0.00448103 1.11396512
Ga 0.00000000 6.34108500 -1.056804930000002 0 0 0
Ga 2.98922000 0.00000000 -3.1704147999999996 0 0 0
Ga 0.00000000 2.11369500 -1.056804930000002 0 0 0
Ga 2.98922000 4.22739000 -3.1704147999999996 0 0 0
Ga 5.97838022 2.11394864 3.19754613
Ga 2.98933957 4.22764364 1.07419006
Ga 5.97838022 6.34083136 3.20544846
Ga 2.98933957 8.45452636 1.07392665
Co 1.49461000 0.00000000 -1.056804930000002 0 0 0
Co 4.48383000 4.22739000 -1.056804930000002 0 0 0
Co 4.48383000 0.00000000 -1.056804930000002 0 0 0
Co 1.49461000 4.22739000 -1.056804930000002 0 0 0
Co 4.48383000 6.34108500 -3.1704147999999996 0 0 0
Co 1.49461000 2.11369500 -3.1704147999999996 0 0 0
Co 1.49461000 6.34108500 -3.1704147999999996 0 0 0
Co 4.48383000 2.11369500 -3.1704147999999996 0 0 0
Co 1.48653911 4.23804302 3.11641554
Co 4.49184111 8.44412698 3.11667895
Co 4.49184111 4.23804302 3.11641554
Co 1.48659889 8.44412698 3.11667895
Co 4.49847718 2.11377955 1.02414197
Co 1.51439864 6.34100045 1.06286338
Co 1.47996282 2.11377955 1.02414197
Co 4.46404136 6.34100045 1.06286338
C 2.98922000 2.11369500 5.14968505
O 2.98922000 2.11369500 6.40720916
