&CONTROL
calculation = 'relax'
prefix = 'scf'
pseudo_dir = '/vol0004/mdt0/data/hp150275/u10028/POT_KKJUS'
outdir = './data'
tprnfor = .true.
nstep = 50
disk_io = 'non'
/
&SYSTEM
ibrav = 0
ecutwfc = 50.0
ecutrho = 400
occupations = 'smearing'
smearing = 'mp'
degauss = 0.01
assume_isolated = 'esm'
esm_bc = 'bc1'
input_dft = 'BEEF-VDW'
nosym = .true.
nspin = 1
ntyp = 5
nat = 34
/
&ELECTRONS
electron_maxstep = 200
mixing_beta = 0.1
conv_thr = 1e-06
/
&IONS
ion_dynamics = 'bfgs'
upscale = 1.0
/
&CELL
/

K_POINTS {automatic}
9 6 2 0  0  0

ATOMIC_SPECIES
C 12.01 C.pbe-n-rrkjus_psl.1.0.0.UPF
Ga 69.72 Ga.pbe-dnl-rrkjus_psl.1.0.0.UPF
Li 6.941 Li.pbe-sl-rrkjus_psl.1.0.0.UPF
O 15.99 O.pbe-n-rrkjus_psl.1.0.0.UPF
Pd 106.4 Pd.pbe-n-rrkjus_psl.1.0.0.UPF

CELL_PARAMETERS {angstrom}
6.24448000 0.00000000 0.00000000
0.00000000 8.83103000 0.00000000
0.00000000 0.00000000 26.62330000

ATOMIC_POSITIONS {angstrom}
Li 0.00000000 0.00000000 -3.3116722900000006 0 0 0
Li 3.12224000 2.20775750 -1.1038020199999998 0 0 0
Li 3.12224000 6.62327250 -1.1038020199999998 0 0 0
Li 0.00000000 4.41551500 -3.3116722900000006 0 0 0
Li 6.20532711 4.41551500 1.15438629
Li 3.15602264 6.61126230 3.57897022
Li 3.15589775 2.21976770 3.57897022
Li 6.17666495 8.83094169 1.09634749
Ga 1.56112000 0.00000000 -1.1038020199999998 0 0 0
Ga 4.68336000 4.41551500 -1.1038020199999998 0 0 0
Ga 4.68336000 0.00000000 -1.1038020199999998 0 0 0
Ga 1.56112000 4.41551500 -1.1038020199999998 0 0 0
Ga 4.68336000 6.62327250 -3.3116722900000006 0 0 0
Ga 1.56112000 2.20775750 -3.3116722900000006 0 0 0
Ga 1.56112000 6.62327250 -3.3116722900000006 0 0 0
Ga 4.68336000 2.20775750 -3.3116722900000006 0 0 0
Ga 1.52958538 4.41551500 3.51800286
Ga 4.77390496 0.00008831 3.56832090
Ga 4.71233439 4.41542669 3.58083385
Ga 1.39689018 0.00000000 3.25150363
Ga 4.59637439 2.21614698 1.15412005
Ga 1.61856922 6.58088356 1.15199019
Ga 1.61863166 2.25005813 1.15172396
Ga 4.59643684 6.61488302 1.15412005
Pd 0.00000000 6.62327250 -1.1038020199999998 0 0 0
Pd 3.12224000 0.00000000 -3.3116722900000006 0 0 0
Pd 0.00000000 2.20775750 -1.1038020199999998 0 0 0
Pd 3.12224000 4.41551500 -3.3116722900000006 0 0 0
Pd 6.21207115 2.24696727 3.14394550
Pd 3.12217756 4.41551500 1.04310089
Pd 6.21219604 6.58397442 3.14394550
Pd 3.11099994 8.83094169 1.16743171
C 2.41186796 0.00017662 5.05390104
O 2.41317930 0.00000000 6.22000158
