&CONTROL
calculation = 'relax'
prefix = 'scf'
pseudo_dir = '/vol0403/data/hp230205/u10028/POT_HYBRID_KKJUS_GBRV'
outdir = './data'
tprnfor = .true.
nstep = 70
disk_io = 'non'
/
&SYSTEM
ibrav = 0
ecutwfc = 50.0
ecutrho = 400
occupations = 'smearing'
smearing = 'mp'
degauss = 0.01
assume_isolated = 'esm'
esm_bc = 'bc1'
input_dft = 'BEEF-VDW'
nosym = .true.
nspin = 1
ntyp = 6
nat = 18
/
&ELECTRONS
electron_maxstep = 200
mixing_beta = 0.1
conv_thr = 1e-06
/
&IONS
ion_dynamics = 'bfgs'
upscale = 1.0
/
&CELL
/

K_POINTS {automatic}
11 7 2 0  0  0

ATOMIC_SPECIES
C 12.01 C.pbe-n-rrkjus_psl.1.0.0.UPF
Ge 72.64 Ge.pbe-dn-rrkjus_psl.1.0.0.UPF
O 15.99 O.pbe-n-rrkjus_psl.1.0.0.UPF
Pd 106.4 Pd.pbe-n-rrkjus_psl.1.0.0.UPF
Sn 118.7 Sn.pbe-dn-rrkjus_psl.1.0.0.UPF
Y 88.90 Y.pbe-spn-rrkjus_psl.1.0.0.UPF


CELL_PARAMETERS {angstrom}
5.93056000 0.00000000 0.00000000
-0.00000000 9.60308000 0.00000000
0.00000000 0.00000000 24.43880000

ATOMIC_POSITIONS {angstrom}
Y 3.05578035 -0.00000000 2.18238484
Y 5.74101930 0.00000000 -0.7397624799999996 0 0 0
Y 3.09925135 4.80154000 2.14474909
Y 5.74101930 4.80154000 -0.7397624799999996 0 0 0
Sn 1.11773264 2.40441917 1.01665408
Sn 4.16354965 2.40077000 -2.2192874300000014 0 0 0
Sn 1.11791056 7.19866083 1.01640969
Sn 4.16354965 7.20231000 -2.2192874300000014 0 0 0
Ge 0.09287257 9.60298397 2.50497700
Ge 2.77573930 0.00000000 -0.7397624799999996 0 0 0
Ge 0.14470566 4.80163603 2.46880758
Ge 2.77573930 4.80154000 -0.7397624799999996 0 0 0
Pd 4.11877392 2.40787628 0.73829615
Pd 1.19826965 2.40077000 -2.2192874300000014 0 0 0
Pd 4.11895184 7.19520372 0.73829615
Pd 1.19826965 7.20231000 -2.2192874300000014 0 0 0
C 2.99303502 -0.00000000 4.70715727
O 2.94588707 -0.00000000 5.85162627
