&CONTROL
calculation = 'relax'
prefix = 'scf'
pseudo_dir = '/vol0403/data/hp230205/u10028/POT_HYBRID_KKJUS_GBRV'
outdir = './data'
tprnfor = .true.
nstep = 50
disk_io = 'non'
/
&SYSTEM
ibrav = 0
ecutwfc = 50.0
ecutrho = 400
occupations = 'smearing'
smearing = 'mp'
degauss = 0.01
assume_isolated = 'esm'
esm_bc = 'bc1'
input_dft = 'BEEF-VDW'
nosym = .true.
nspin = 1
ntyp = 6
nat = 34
/
&ELECTRONS
electron_maxstep = 200
mixing_beta = 0.1
conv_thr = 1e-06
/
&IONS
ion_dynamics = 'bfgs'
upscale = 1.0
/
&CELL
/

K_POINTS {automatic}
6 6 1 0 0 0

ATOMIC_SPECIES
Ag 107.8 Ag.pbe-n-rrkjus_psl.1.0.0.UPF
C 12.01 C.pbe-n-rrkjus_psl.1.0.0.UPF
Ge 72.64 Ge.pbe-dn-rrkjus_psl.1.0.0.UPF
Li 6.941 Li.pbe-sl-rrkjus_psl.1.0.0.UPF
O 15.99 O.pbe-n-rrkjus_psl.1.0.0.UPF
Zn 65.40 Zn.pbe-dnl-rrkjus_psl.1.0.0.UPF


CELL_PARAMETERS {angstrom}
6.35563000 0.00000000 0.00000000
0.00000000 8.98822000 0.00000000
0.00000000 0.00000000 26.74120000

ATOMIC_POSITIONS {angstrom}
Li 4.76672250 0.00000000 -1.1233978100000002 0 0 0
Li 4.76672250 4.49411000 -1.1233978100000002 0 0 0
Li 1.58890750 2.24705500 -3.3704608500000006 0 0 0
Li 1.58890750 6.74116500 -3.3704608500000006 0 0 0
Li 4.83504552 4.49411000 3.77799674
Li 4.90660992 0.00000000 3.70017984
Li 1.60416101 6.78709480 1.14906936
Li 1.60416101 2.20112520 1.14906936
Zn 1.58890750 0.00000000 -1.1233978100000002 0 0 0
Zn 1.58890750 4.49411000 -1.1233978100000002 0 0 0
Zn 4.76672250 2.24705500 -3.3704608500000006 0 0 0
Zn 4.76672250 6.74116500 -3.3704608500000006 0 0 0
Zn 1.52350807 4.49411000 3.62129330
Zn 1.43103365 0.00000000 3.43945314
Zn 4.77002743 6.68391004 1.17688021
Zn 4.77002743 2.30430996 1.17688021
Ag 0.00000000 0.00000000 -3.3704608500000006 0 0 0
Ag 0.00000000 4.49411000 -3.3704608500000006 0 0 0
Ag 3.17781500 6.74116500 -1.1233978100000002 0 0 0
Ag 3.17781500 2.24705500 -1.1233978100000002 0 0 0
Ag 0.03972269 4.49411000 1.28919325
Ag 6.23989398 0.00000000 1.17607798
Ag 3.16484951 2.28201918 3.44827774
Ag 3.16478596 6.70620082 3.44827774
Ge 0.00000000 2.24705500 -1.1233978100000002 0 0 0
Ge 0.00000000 6.74116500 -1.1233978100000002 0 0 0
Ge 3.17781500 4.49411000 -3.3704608500000006 0 0 0
Ge 3.17781500 0.00000000 -3.3704608500000006 0 0 0
Ge 6.34793969 6.68678627 3.47100776
Ge 6.34793969 2.30143373 3.47100776
Ge 3.25687904 0.00000000 1.38091557
Ge 3.19256006 4.49411000 1.29240220
C 1.71030003 0.00000000 5.57794691
O 1.57365399 0.00008988 6.71631979
