&CONTROL
calculation = 'relax'
prefix = 'scf'
pseudo_dir = '/vol0004/mdt0/data/hp150275/u10028/POT_KKJUS'
outdir = './data'
tprnfor = .true.
nstep = 50
disk_io = 'non'
/
&SYSTEM
ibrav = 0
ecutwfc = 50.0
ecutrho = 400
occupations = 'smearing'
smearing = 'mp'
degauss = 0.01
assume_isolated = 'esm'
esm_bc = 'bc1'
input_dft = 'BEEF-VDW'
nosym = .true.
nspin = 1
ntyp = 3
nat = 17
/
&ELECTRONS
electron_maxstep = 200
mixing_beta = 0.1
conv_thr = 1e-06
/
&IONS
ion_dynamics = 'bfgs'
upscale = 1.0
/
&CELL
/

K_POINTS {automatic}
8 8 1 0 0 0

ATOMIC_SPECIES
C 12.01 C.pbe-n-rrkjus_psl.1.0.0.UPF
Ca 40.07 Ca.pbe-spn-rrkjus_psl.1.0.0.UPF
In 114.8 In.pbe-dn-rrkjus_psl.1.0.0.UPF

CELL_PARAMETERS {angstrom}
8.11767000 0.00000000 0.00000000
0.00000000 8.11767000 0.00000000
0.00000000 0.00000000 26.08830000

ATOMIC_POSITIONS {angstrom}
Ca 2.02941750 2.02941750 -1.0148348700000014 0 0 0
Ca 6.37610508 6.37594272 3.24851512
Ca 6.08825250 2.02941750 -1.0148348700000014 0 0 0
Ca 1.74164610 6.37626743 3.24851512
Ca 6.08825250 6.08825250 -1.0148348700000014 0 0 0
Ca 1.74156492 1.74148375 3.24851512
Ca 2.02941750 6.08825250 -1.0148348700000014 0 0 0
Ca 6.37618625 1.74180845 3.24851512
Ca 0.00008118 0.00008118 0.95117942
Ca 4.05883500 0.00000000 -3.0442437300000016 0 0 0
Ca 0.00000000 4.05883500 -3.0442437300000016 0 0 0
Ca 4.05818559 4.05867265 1.27937023
In 0.00000000 0.00000000 -3.0442437300000016 0 0 0
In 4.05883500 4.05883500 -3.0442437300000016 0 0 0
In 4.05907853 0.00040588 1.05266291
In 0.00121765 4.05875382 1.05266291
C 8.11758882 0.00000000 3.28999551
