&CONTROL
calculation = 'relax'
prefix = 'scf'
pseudo_dir = '/vol0403/data/hp230205/u10028/POT_HYBRID_KKJUS_GBRV'
outdir = './data'
tprnfor = .true.
nstep = 50
disk_io = 'non'
/
&SYSTEM
ibrav = 0
ecutwfc = 50.0
ecutrho = 400
occupations = 'smearing'
smearing = 'mp'
degauss = 0.01
assume_isolated = 'esm'
esm_bc = 'bc1'
input_dft = 'BEEF-VDW'
nosym = .true.
nspin = 1
ntyp = 6
nat = 18
/
&ELECTRONS
electron_maxstep = 200
mixing_beta = 0.1
conv_thr = 1e-06
/
&IONS
ion_dynamics = 'bfgs'
upscale = 1.0
/
&CELL
/

K_POINTS {automatic}
8 10 2 0  0  0

ATOMIC_SPECIES
C 12.01 C.pbe-n-rrkjus_psl.1.0.0.UPF
Ge 72.64 Ge.pbe-dn-rrkjus_psl.1.0.0.UPF
In 114.8 In.pbe-dn-rrkjus_psl.1.0.0.UPF
Li 6.941 Li.pbe-sl-rrkjus_psl.1.0.0.UPF
O 15.99 O.pbe-n-rrkjus_psl.1.0.0.UPF
Y 88.90 Y.pbe-spn-rrkjus_psl.1.0.0.UPF


CELL_PARAMETERS {angstrom}
8.49364000 0.00000000 0.00000000
0.00000000 6.33235000 0.00000000
0.00000000 0.00000000 24.73290000

ATOMIC_POSITIONS {angstrom}
Li 0.00000000 3.16617500 -2.3664438700000012 0 0 0
Li 8.47903094 5.86837872 0.67990742
Li 4.24682000 3.16617500 -2.3664438700000012 0 0 0
Li 4.26134412 5.86837872 0.67990742
Y 2.12341000 1.45194453 -0.7887321800000002 0 0 0
Y 2.12341000 3.79871344 2.40848980
Y 6.37023000 1.45194453 -0.7887321800000002 0 0 0
Y 6.37023000 3.74564835 2.43742729
In 2.12341000 4.61811953 -0.7887321800000002 0 0 0
In 2.12332506 0.59764719 2.60041711
In 6.37023000 4.61811953 -0.7887321800000002 0 0 0
In 6.37031494 0.58428593 2.67387382
Ge 0.00000000 0.00000000 -2.3664438700000012 0 0 0
Ge 8.48557104 2.32561886 1.18223262
Ge 4.24682000 0.00000000 -2.3664438700000012 0 0 0
Ge 4.25488896 2.32555554 1.18247995
C 2.12341000 4.29706939 4.85308964
O 2.12341000 4.50799996 5.98288851
