&CONTROL
calculation = 'relax'
prefix = 'scf'
pseudo_dir = '/vol0004/mdt0/data/hp150275/u10028/POT_KKJUS'
outdir = './data'
tprnfor = .true.
nstep = 50
disk_io = 'non'
/
&SYSTEM
ibrav = 0
ecutwfc = 50.0
ecutrho = 400
occupations = 'smearing'
smearing = 'mp'
degauss = 0.01
assume_isolated = 'esm'
esm_bc = 'bc1'
input_dft = 'BEEF-VDW'
nosym = .true.
nspin = 1
ntyp = 2
nat = 16
/
&ELECTRONS
electron_maxstep = 200
mixing_beta = 0.1
conv_thr = 1e-06
/
&IONS
ion_dynamics = 'bfgs'
upscale = 1.0
/
&CELL
/

K_POINTS {automatic}
10 10 2 0  0  0

ATOMIC_SPECIES
Au 196.9 Au.pbe-n-rrkjus_psl.1.0.0.UPF
Li 6.941 Li.pbe-sl-rrkjus_psl.1.0.0.UPF

CELL_PARAMETERS {angstrom}
6.35005000 0.00000000 0.00000000
-0.00000000 6.35005000 0.00000000
0.00000000 0.00000000 24.76250000

ATOMIC_POSITIONS {angstrom}
Li 1.58751250 1.58751250 -0.7936381299999979 0 0 0
Li 4.76253750 4.76253750 2.38116200
Li 4.76253750 1.58751250 -0.7936381299999979 0 0 0
Li 1.58751250 4.76253750 2.38116200
Li 4.76253750 4.76253750 -0.7936381299999979 0 0 0
Li 1.58751250 1.58751250 2.38116200
Li 1.58751250 4.76253750 -0.7936381299999979 0 0 0
Li 4.76253750 1.58751250 2.38116200
Li 0.00000000 0.00000000 0.79363813
Li 3.17502500 0.00000000 -2.381162 0 0 0
Li 0.00000000 3.17502500 -2.381162 0 0 0
Li 3.17502500 3.17502500 0.79363813
Au 0.00000000 0.00000000 -2.381162 0 0 0
Au 3.17502500 3.17502500 -2.381162 0 0 0
Au 3.17502500 -0.00000000 0.79363813
Au 0.00000000 3.17502500 0.79363813
