&CONTROL
calculation = 'relax'
prefix = 'scf'
pseudo_dir = '/vol0403/data/hp230205/u10028/POT_HYBRID_KKJUS_GBRV'
outdir = './data'
tprnfor = .true.
nstep = 50
disk_io = 'non'
/
&SYSTEM
ibrav = 0
ecutwfc = 50.0
ecutrho = 400
occupations = 'smearing'
smearing = 'mp'
degauss = 0.01
assume_isolated = 'esm'
esm_bc = 'bc1'
input_dft = 'BEEF-VDW'
nosym = .true.
nspin = 1
ntyp = 6
nat = 34
/
&ELECTRONS
electron_maxstep = 200
mixing_beta = 0.1
conv_thr = 1e-06
/
&IONS
ion_dynamics = 'bfgs'
upscale = 1.0
/
&CELL
/

K_POINTS {automatic}
9 6 2 0  0  0

ATOMIC_SPECIES
C 12.01 C.pbe-n-rrkjus_psl.1.0.0.UPF
Hf 178.4 Hf.pbe-spn-rrkjus_psl.1.0.0.UPF
Li 6.941 Li.pbe-sl-rrkjus_psl.1.0.0.UPF
O 15.99 O.pbe-n-rrkjus_psl.1.0.0.UPF
Pd 106.4 Pd.pbe-n-rrkjus_psl.1.0.0.UPF
Sn 118.7 Sn.pbe-dn-rrkjus_psl.1.0.0.UPF


CELL_PARAMETERS {angstrom}
6.67688000 0.00000000 0.00000000
0.00000000 9.44254000 0.00000000
0.00000000 0.00000000 27.08190000

ATOMIC_POSITIONS {angstrom}
Li 0.00000000 2.36063500 -1.1802291999999994 0 0 0
Li 0.00000000 7.08190500 -1.1802291999999994 0 0 0
Li 3.33844000 4.72127000 -3.5409584200000026 0 0 0
Li 3.33844000 0.00000000 -3.5409584200000026 0 0 0
Li 6.48532031 7.08190500 4.05199388
Li 6.46041555 2.36063500 4.12376091
Li 3.41943055 0.00349374 0.96763629
Li 3.41936379 4.71777626 0.96763629
Hf 0.00000000 0.00000000 -3.5409584200000026 0 0 0
Hf 0.00000000 4.72127000 -3.5409584200000026 0 0 0
Hf 3.33844000 7.08190500 -1.1802291999999994 0 0 0
Hf 3.33844000 2.36063500 -1.1802291999999994 0 0 0
Hf 0.45482907 4.71758741 1.81042502
Hf 0.45489583 0.00368259 1.81069583
Hf 2.87806912 2.36063500 3.05185931
Hf 2.87947127 7.08190500 3.05429668
Sn 1.66922000 0.00000000 -1.1802291999999994 0 0 0
Sn 1.66922000 4.72127000 -1.1802291999999994 0 0 0
Sn 5.00766000 2.36063500 -3.5409584200000026 0 0 0
Sn 5.00766000 7.08190500 -3.5409584200000026 0 0 0
Sn 1.88247955 4.72079787 4.40405858
Sn 1.88241278 0.00047213 4.40405858
Sn 5.26017960 7.08190500 1.32484655
Sn 5.26251651 2.36063500 1.33622095
Pd 5.00766000 0.00000000 -1.1802291999999994 0 0 0
Pd 5.00766000 4.72127000 -1.1802291999999994 0 0 0
Pd 1.66922000 2.36063500 -3.5409584200000026 0 0 0
Pd 1.66922000 7.08190500 -3.5409584200000026 0 0 0
Pd 4.63415533 4.73524496 3.09383626
Pd 4.63415533 9.42865947 3.09383626
Pd 1.48099875 7.08190500 0.84739265
Pd 1.48487134 2.36063500 0.84305955
C 6.19647848 2.36063500 6.23235765
O 6.17077250 2.36063500 7.36925581
