&CONTROL
calculation = 'relax'
prefix = 'scf'
pseudo_dir = '/vol0403/data/hp230205/u10028/POT_HYBRID_KKJUS_GBRV'
outdir = './data'
tprnfor = .true.
nstep = 50
disk_io = 'non'
/
&SYSTEM
ibrav = 0
ecutwfc = 50.0
ecutrho = 400
occupations = 'smearing'
smearing = 'mp'
degauss = 0.01
assume_isolated = 'esm'
esm_bc = 'bc1'
input_dft = 'BEEF-VDW'
nosym = .true.
nspin = 2
ntyp = 4
nat = 16
starting_magnetization(1) = 0.25
starting_magnetization(2) = 0.25
starting_magnetization(3) = 0.25
starting_magnetization(4) = 0.25
/
&ELECTRONS
electron_maxstep = 400
mixing_beta = 0.05
conv_thr = 1e-06
/
&IONS
ion_dynamics = 'bfgs'
upscale = 1.0
/
&CELL
/

K_POINTS {automatic}
10 10 2 0  0  0

ATOMIC_SPECIES
In 114.8 In.pbe-dn-rrkjus_psl.1.0.0.UPF
Mn 54.93 mn_pbe_v1.5.uspp.F.UPF
Pd 106.4 Pd.pbe-n-rrkjus_psl.1.0.0.UPF
Y 88.90 Y.pbe-spn-rrkjus_psl.1.0.0.UPF


CELL_PARAMETERS {angstrom}
6.85874000 0.00000000 0.00000000
0.00000000 6.85874000 0.00000000
0.00000000 0.00000000 25.14410000

ATOMIC_POSITIONS {angstrom}
Y 0.00000000 3.42937000 -2.5719899900000023 0 0 0
Y 0.00000000 0.00000000 0.85741381
Y 3.42937000 3.42937000 0.85741381
Y 3.42937000 0.00000000 -2.5719899900000023 0 0 0
Mn 5.14405500 1.71468500 -0.8574138100000006 0 0 0
Mn 5.14405500 5.14405500 2.57198999
Mn 1.71468500 1.71468500 2.57198999
Mn 1.71468500 5.14405500 -0.8574138100000006 0 0 0
In 0.00000000 0.00000000 -2.5719899900000023 0 0 0
In 0.00000000 3.42937000 0.85741381
In 3.42937000 0.00000000 0.85741381
In 3.42937000 3.42937000 -2.5719899900000023 0 0 0
Pd 1.71468500 1.71468500 -0.8574138100000006 0 0 0
Pd 1.71468500 5.14405500 2.57198999
Pd 5.14405500 1.71468500 2.57198999
Pd 5.14405500 5.14405500 -0.8574138100000006 0 0 0
