&CONTROL
calculation = 'relax'
prefix = 'scf'
pseudo_dir = '/vol0403/data/hp230205/u10028/POT_HYBRID_KKJUS_GBRV'
outdir = './data'
tprnfor = .true.
nstep = 50
disk_io = 'non'
/
&SYSTEM
ibrav = 0
ecutwfc = 50.0
ecutrho = 400
occupations = 'smearing'
smearing = 'mp'
degauss = 0.01
assume_isolated = 'esm'
esm_bc = 'bc1'
input_dft = 'BEEF-VDW'
nosym = .true.
nspin = 1
ntyp = 4
nat = 16
/
&ELECTRONS
electron_maxstep = 200
mixing_beta = 0.1
conv_thr = 1e-06
/
&IONS
ion_dynamics = 'bfgs'
upscale = 1.0
/
&CELL
/

K_POINTS {automatic}
11 8 2 0  0  0

ATOMIC_SPECIES
Cu 63.54 Cu.pbe-dn-rrkjus_psl.1.0.0.UPF
In 114.8 In.pbe-dn-rrkjus_psl.1.0.0.UPF
Sn 118.7 Sn.pbe-dn-rrkjus_psl.1.0.0.UPF
Y 88.90 Y.pbe-spn-rrkjus_psl.1.0.0.UPF


CELL_PARAMETERS {angstrom}
6.35598000 0.00000000 0.00000000
0.00000000 8.84740000 0.00000000
0.00000000 0.00000000 24.76400000

ATOMIC_POSITIONS {angstrom}
Y 3.53176385 0.00000000 2.18715648
Y 6.24373339 0.00000000 -0.7939338400000011 0 0 0
Y 3.53170029 4.42370000 2.18715648
Y 6.24373339 4.42370000 -0.7939338400000011 0 0 0
In 2.05215526 2.21185000 0.57675356
In 4.59855153 2.21185000 -2.382049160000001 0 0 0
In 2.05215526 6.63555000 0.57675356
In 4.59855153 6.63555000 -2.382049160000001 0 0 0
Cu 0.52373275 0.00000000 1.92688684
Cu 3.06574339 0.00000000 -0.7939338400000011 0 0 0
Cu 0.52373275 4.42370000 1.92688684
Cu 3.06574339 4.42370000 -0.7939338400000011 0 0 0
Sn 5.40741354 2.21185000 1.44473176
Sn 1.42056153 2.21185000 -2.382049160000001 0 0 0
Sn 5.40754066 6.63555000 1.44473176
Sn 1.42056153 6.63555000 -2.382049160000001 0 0 0
