&CONTROL
calculation = 'relax'
prefix = 'scf'
pseudo_dir = '/vol0004/mdt0/data/hp150275/u10028/POT_KKJUS'
outdir = './data'
tprnfor = .true.
nstep = 50
disk_io = 'non'
/
&SYSTEM
ibrav = 0
ecutwfc = 50.0
ecutrho = 400
occupations = 'smearing'
smearing = 'mp'
degauss = 0.01
assume_isolated = 'esm'
esm_bc = 'bc1'
input_dft = 'BEEF-VDW'
nosym = .true.
nspin = 1
ntyp = 3
nat = 32
/
&ELECTRONS
electron_maxstep = 200
mixing_beta = 0.1
conv_thr = 1e-06
/
&IONS
ion_dynamics = 'bfgs'
upscale = 1.0
/
&CELL
/

K_POINTS {automatic}
8 6 1 0 0 0

ATOMIC_SPECIES
Ni 58.69 Ni.pbe-spn-rrkjus_psl.1.0.0.UPF
Sn 118.7 Sn.pbe-dn-rrkjus_psl.1.0.0.UPF
V 50.94 V.pbe-spnl-rrkjus_psl.1.0.0.UPF

CELL_PARAMETERS {angstrom}
6.08368000 0.00000000 0.00000000
0.00000000 8.60362000 0.00000000
0.00000000 0.00000000 26.45270000

ATOMIC_POSITIONS {angstrom}
V 0.00000000 0.00000000 -3.226435819999999 0 0 0
V 3.04184000 2.15090500 -1.075566779999999 0 0 0
V 3.04184000 6.45271500 -1.075566779999999 0 0 0
V 0.00000000 4.30181000 -3.226435819999999 0 0 0
V 0.00000000 4.30181000 1.11921374
V 3.04184000 6.45271500 3.07380374
V 3.04184000 2.15090500 3.07380374
V 0.00000000 0.00000000 1.11921374
Ni 1.52092000 0.00000000 -1.075566779999999 0 0 0
Ni 4.56276000 4.30181000 -1.075566779999999 0 0 0
Ni 4.56276000 0.00000000 -1.075566779999999 0 0 0
Ni 1.52092000 4.30181000 -1.075566779999999 0 0 0
Ni 4.56276000 6.45271500 -3.226435819999999 0 0 0
Ni 1.52092000 2.15090500 -3.226435819999999 0 0 0
Ni 1.52092000 6.45271500 -3.226435819999999 0 0 0
Ni 4.56276000 2.15090500 -3.226435819999999 0 0 0
Ni 1.65184079 4.30181000 3.10184360
Ni 4.43196088 0.00000000 3.10184360
Ni 4.43183921 4.30181000 3.10184360
Ni 1.65171912 0.00000000 3.10184360
Ni 4.71698129 2.15090500 1.25200629
Ni 1.36645536 6.45271500 1.25200629
Ni 1.36669871 2.15090500 1.25200629
Ni 4.71728547 6.45271500 1.25200629
Sn 0.00000000 6.45271500 -1.075566779999999 0 0 0
Sn 3.04184000 0.00000000 -3.226435819999999 0 0 0
Sn 0.00000000 2.15090500 -1.075566779999999 0 0 0
Sn 3.04184000 4.30181000 -3.226435819999999 0 0 0
Sn 0.00000000 2.15099104 3.64147868
Sn 3.04184000 4.30189604 0.97689821
Sn 0.00000000 6.45262896 3.64174321
Sn 3.04184000 0.00000000 0.97716274
