&CONTROL
calculation = 'relax'
prefix = 'scf'
pseudo_dir = '/vol0403/data/hp230205/u10028/POT_HYBRID_KKJUS_GBRV'
outdir = './data'
tprnfor = .true.
nstep = 70
disk_io = 'non'
/
&SYSTEM
ibrav = 0
ecutwfc = 50.0
ecutrho = 400
occupations = 'smearing'
smearing = 'mp'
degauss = 0.01
assume_isolated = 'esm'
esm_bc = 'bc1'
input_dft = 'BEEF-VDW'
nosym = .true.
nspin = 1
ntyp = 6
nat = 18
/
&ELECTRONS
electron_maxstep = 200
mixing_beta = 0.1
conv_thr = 1e-06
/
&IONS
ion_dynamics = 'bfgs'
upscale = 1.0
/
&CELL
/

K_POINTS {automatic}
6 6 1 0 0 0

ATOMIC_SPECIES
C 12.01 C.pbe-n-rrkjus_psl.1.0.0.UPF
Ge 72.64 Ge.pbe-dn-rrkjus_psl.1.0.0.UPF
In 114.8 In.pbe-dn-rrkjus_psl.1.0.0.UPF
O 15.99 O.pbe-n-rrkjus_psl.1.0.0.UPF
Pd 106.4 Pd.pbe-n-rrkjus_psl.1.0.0.UPF
Sc 44.95 Sc.pbe-spn-rrkjus_psl.1.0.0.UPF


CELL_PARAMETERS {angstrom}
6.05174000 0.00000000 0.00000000
-0.00000000 8.38060000 0.00000000
0.00000000 0.00000000 24.46740000

ATOMIC_POSITIONS {angstrom}
Sc 1.23564427 2.09489858 0.63957784
Sc 3.73700997 2.09515000 -2.23362895 0 0 0
Sc 1.23558376 6.28570142 0.63933316
Sc 3.73700997 6.28545000 -2.23362895 0 0 0
In 2.96365811 0.00008381 2.28011701
In 5.51718981 0.00000000 -0.7445429800000021 0 0 0
In 2.97188848 4.19013239 2.33174322
In 5.51718981 4.19030000 -0.7445429800000021 0 0 0
Ge 5.81820335 0.00025142 2.06651660
Ge 2.49131981 0.00000000 -0.7445429800000021 0 0 0
Ge 5.83678220 4.19021619 2.04963410
Ge 2.49131981 4.19030000 -0.7445429800000021 0 0 0
Pd 4.25866996 2.10453627 0.82259399
Pd 0.71113997 2.09515000 -2.23362895 0 0 0
Pd 4.25897254 6.27597992 0.82332801
Pd 0.71113997 6.28545000 -2.23362895 0 0 0
C 3.05503939 8.38051619 5.79803978
O 3.01074065 8.38009716 6.93185909
