&CONTROL
calculation = 'relax'
prefix = 'scf'
pseudo_dir = '/vol0403/data/hp230205/u10028/POT_HYBRID_KKJUS_GBRV'
outdir = './data'
tprnfor = .true.
nstep = 50
disk_io = 'non'
/
&SYSTEM
ibrav = 0
ecutwfc = 50.0
ecutrho = 400
occupations = 'smearing'
smearing = 'mp'
degauss = 0.01
assume_isolated = 'esm'
esm_bc = 'bc1'
input_dft = 'BEEF-VDW'
nosym = .true.
nspin = 1
ntyp = 5
nat = 33
/
&ELECTRONS
electron_maxstep = 200
mixing_beta = 0.1
conv_thr = 1e-06
/
&IONS
ion_dynamics = 'bfgs'
upscale = 1.0
/
&CELL
/

K_POINTS {automatic}
7 7 2 0  0  0

ATOMIC_SPECIES
C 12.01 C.pbe-n-rrkjus_psl.1.0.0.UPF
Ge 72.64 Ge.pbe-dn-rrkjus_psl.1.0.0.UPF
Li 6.941 Li.pbe-sl-rrkjus_psl.1.0.0.UPF
Pb 207.2 Pb.pbe-dn-rrkjus_psl.1.0.0.UPF
Y 88.90 Y.pbe-spn-rrkjus_psl.1.0.0.UPF


CELL_PARAMETERS {angstrom}
8.55406000 0.00000000 0.00000000
0.00000000 8.65500000 0.00000000
0.00000000 0.00000000 27.39600000

ATOMIC_POSITIONS {angstrom}
Li 2.13860054 0.03288900 1.33473312
Li 2.13851500 0.00000000 -3.697912080000002 0 0 0
Li 2.13860054 4.29461100 1.33473312
Li 2.13851500 4.32750000 -3.697912080000002 0 0 0
Li 6.41545946 0.03288900 1.33473312
Li 6.41554500 0.00000000 -3.697912080000002 0 0 0
Li 6.41545946 4.29461100 1.33473312
Li 6.41554500 4.32750000 -3.697912080000002 0 0 0
Y 2.27999915 2.16375000 3.84201504
Y 2.13851500 2.16375000 -1.2325460400000026 0 0 0
Y 2.12089364 6.49125000 3.67681716
Y 2.13851500 6.49125000 -1.2325460400000026 0 0 0
Y 6.27406085 2.16375000 3.84201504
Y 6.41554500 2.16375000 -1.2325460400000026 0 0 0
Y 6.43316636 6.49125000 3.67681716
Y 6.41554500 6.49125000 -1.2325460400000026 0 0 0
Ge 0.00000000 0.21975045 3.94584588
Ge 0.00000000 0.00000000 -1.2325460400000026 0 0 0
Ge 0.00000000 4.10774955 3.94584588
Ge 0.00000000 4.32750000 -1.2325460400000026 0 0 0
Ge 4.27703000 8.56922895 3.53435796
Ge 4.27703000 0.00000000 -1.2325460400000026 0 0 0
Ge 4.27703000 4.41327105 3.53435796
Ge 4.27703000 4.32750000 -1.2325460400000026 0 0 0
Pb 0.00000000 2.16375000 1.31528196
Pb 0.00000000 2.16375000 -3.697912080000002 0 0 0
Pb 0.00000000 6.49125000 1.25528472
Pb 0.00000000 6.49125000 -3.697912080000002 0 0 0
Pb 4.27703000 2.16375000 1.25665452
Pb 4.27703000 2.16375000 -3.697912080000002 0 0 0
Pb 4.27703000 6.49125000 1.24103880
Pb 4.27703000 6.49125000 -3.697912080000002 0 0 0
C 0.00000000 2.16375000 4.50006696
