&CONTROL
calculation = 'relax'
prefix = 'scf'
pseudo_dir = '/vol0004/mdt0/data/hp150275/u10028/POT_KKJUS'
outdir = './data'
tprnfor = .true.
nstep = 50
disk_io = 'non'
/
&SYSTEM
ibrav = 0
ecutwfc = 50.0
ecutrho = 400
occupations = 'smearing'
smearing = 'mp'
degauss = 0.01
assume_isolated = 'esm'
esm_bc = 'bc1'
input_dft = 'BEEF-VDW'
nosym = .true.
nspin = 1
ntyp = 4
nat = 18
/
&ELECTRONS
electron_maxstep = 200
mixing_beta = 0.1
conv_thr = 1e-06
/
&IONS
ion_dynamics = 'bfgs'
upscale = 1.0
/
&CELL
/

K_POINTS {automatic}
7 10 3 0  0  0

ATOMIC_SPECIES
C 12.01 C.pbe-n-rrkjus_psl.1.0.0.UPF
Ca 40.07 Ca.pbe-spn-rrkjus_psl.1.0.0.UPF
O 15.99 O.pbe-n-rrkjus_psl.1.0.0.UPF
Pb 207.2 Pb.pbe-dn-rrkjus_psl.1.0.0.UPF

CELL_PARAMETERS {angstrom}
10.21910000 0.00000000 0.00000000
0.00000000 7.22598000 0.00000000
0.00000000 0.00000000 25.41950000

ATOMIC_POSITIONS {angstrom}
Ca 10.21858904 3.61327904 2.87214930
Ca 2.62395831 5.45510908 1.04753759
Ca 2.62467364 1.76993154 1.04855437
Ca 0.00000000 0.00000000 -0.9031548299999983 0 0 0
Ca 2.55477500 1.80649500 -2.7097187 0 0 0
Ca 2.55477500 5.41948500 -2.7097187 0 0 0
Ca 5.10709742 3.61436294 3.17235360
Ca 7.59544827 5.45474778 1.04753759
Ca 7.59463074 1.77000380 1.04855437
Ca 5.10955000 0.00000000 -0.9031548299999983 0 0 0
Ca 7.66432500 1.80649500 -2.7097187 0 0 0
Ca 7.66432500 5.41948500 -2.7097187 0 0 0
Pb 0.00102191 0.00086712 2.32207133
Pb 0.00000000 3.61299000 -0.9031548299999983 0 0 0
Pb 5.10995876 7.22467932 2.41790284
Pb 5.10955000 3.61299000 -0.9031548299999983 0 0 0
C 0.00010219 3.61299000 5.50357594
O 10.21858904 3.61342356 6.64592828
