&CONTROL
calculation = 'relax'
prefix = 'scf'
pseudo_dir = '/vol0004/mdt0/data/hp150275/u10028/POT_KKJUS'
outdir = './data'
tprnfor = .true.
nstep = 50
disk_io = 'non'
/
&SYSTEM
ibrav = 0
ecutwfc = 50.0
ecutrho = 400
occupations = 'smearing'
smearing = 'mp'
degauss = 0.01
assume_isolated = 'esm'
esm_bc = 'bc1'
input_dft = 'BEEF-VDW'
nosym = .true.
nspin = 1
ntyp = 4
nat = 33
/
&ELECTRONS
electron_maxstep = 200
mixing_beta = 0.1
conv_thr = 1e-06
/
&IONS
ion_dynamics = 'bfgs'
upscale = 1.0
/
&CELL
/

K_POINTS {automatic}
8 6 1 0 0 0

ATOMIC_SPECIES
C 12.01 C.pbe-n-rrkjus_psl.1.0.0.UPF
Cu 63.54 Cu.pbe-dn-rrkjus_psl.1.0.0.UPF
Zn 65.40 Zn.pbe-dnl-rrkjus_psl.1.0.0.UPF
Zr 91.22 Zr.pbe-spn-rrkjus_psl.1.0.0.UPF

CELL_PARAMETERS {angstrom}
6.25397000 0.00000000 0.00000000
0.00000000 8.84445000 0.00000000
0.00000000 0.00000000 26.63330000

ATOMIC_POSITIONS {angstrom}
Zr 0.00000000 0.00000000 -3.3166448499999994 0 0 0
Zr 3.12698500 2.21111250 -1.1055482799999972 0 0 0
Zr 3.12698500 6.63333750 -1.1055482799999972 0 0 0
Zr 0.00000000 4.42222500 -3.3166448499999994 0 0 0
Zr 0.00000000 4.42222500 1.11673427
Zr 3.12698500 6.75043802 3.36937878
Zr 3.12698500 2.09401198 3.36937878
Zr 0.00000000 0.00000000 1.13351325
Zn 0.00000000 6.63333750 -1.1055482799999972 0 0 0
Zn 3.12698500 0.00000000 -3.3166448499999994 0 0 0
Zn 0.00000000 2.21111250 -1.1055482799999972 0 0 0
Zn 3.12698500 4.42222500 -3.3166448499999994 0 0 0
Zn 0.00000000 2.26329475 3.14139773
Zn 3.12698500 4.42222500 1.06053801
Zn 0.00000000 6.58115524 3.14139773
Zn 3.12698500 0.00000000 1.13058358
Cu 1.56349250 0.00000000 -1.1055482799999972 0 0 0
Cu 4.69047750 4.42222500 -1.1055482799999972 0 0 0
Cu 4.69047750 0.00000000 -1.1055482799999972 0 0 0
Cu 1.56349250 4.42222500 -1.1055482799999972 0 0 0
Cu 4.69047750 6.63333750 -3.3166448499999994 0 0 0
Cu 1.56349250 2.21111250 -3.3166448499999994 0 0 0
Cu 1.56349250 6.63333750 -3.3166448499999994 0 0 0
Cu 4.69047750 2.21111250 -3.3166448499999994 0 0 0
Cu 1.59620076 4.42222500 3.30199653
Cu 5.03131886 0.00000000 3.51639460
Cu 4.65776924 4.42222500 3.30199653
Cu 1.22265114 0.00000000 3.51639460
Cu 4.61442922 2.22473295 1.10634728
Cu 1.63954078 6.61971705 1.10634728
Cu 1.63954078 2.22473295 1.10634728
Cu 4.61442922 6.61971705 1.10634728
C 3.12698500 0.00000000 3.89591912
