&CONTROL
calculation = 'relax'
prefix = 'scf'
pseudo_dir = '/vol0004/mdt0/data/hp150275/u10028/POT_HYBRID_KKJUS_GBRV'
outdir = './data'
tprnfor = .true.
nstep = 50
disk_io = 'non'
/
&SYSTEM
ibrav = 0
ecutwfc = 50.0
ecutrho = 400
occupations = 'smearing'
smearing = 'mp'
degauss = 0.01
assume_isolated = 'esm'
esm_bc = 'bc1'
input_dft = 'BEEF-VDW'
nosym = .true.
nspin = 2
ntyp = 4
nat = 33
starting_magnetization(1) = 0.0
starting_magnetization(2) = 0.0
starting_magnetization(3) = 0.001
starting_magnetization(4) = 0.0
/
&ELECTRONS
electron_maxstep = 300
mixing_beta = 0.1
conv_thr = 1e-06
/
&IONS
ion_dynamics = 'bfgs'
upscale = 1.0
/
&CELL
/

K_POINTS {automatic}
9 6 2 0  0  0

ATOMIC_SPECIES
C 12.01 C.pbe-n-rrkjus_psl.1.0.0.UPF
Li 6.941 Li.pbe-sl-rrkjus_psl.1.0.0.UPF
Ni 58.69 ni_pbe_v1.4.uspp.F.UPF
Sn 118.7 Sn.pbe-dn-rrkjus_psl.1.0.0.UPF

CELL_PARAMETERS {angstrom}
6.04935000 0.00000000 0.00000000
0.00000000 8.55507000 0.00000000
0.00000000 0.00000000 26.41630000

ATOMIC_POSITIONS {angstrom}
Li 0.00000000 0.00000000 -3.2082596300000006 0 0 0
Li 3.02467500 2.13876750 -1.0693318199999986 0 0 0
Li 3.02467500 6.41630250 -1.0693318199999986 0 0 0
Li 0.00000000 4.27753500 -3.2082596300000006 0 0 0
Li 6.02424520 4.29840937 0.87226623
Li 2.89945345 6.41638805 3.42513746
Li 2.90653119 2.13893860 3.39185292
Li 6.02430569 8.53436673 0.87253039
Ni 1.51233750 0.00000000 -1.0693318199999986 0 0 0
Ni 4.53701250 4.27753500 -1.0693318199999986 0 0 0
Ni 4.53701250 0.00000000 -1.0693318199999986 0 0 0
Ni 1.51233750 4.27753500 -1.0693318199999986 0 0 0
Ni 4.53701250 6.41630250 -3.2082596300000006 0 0 0
Ni 1.51233750 2.13876750 -3.2082596300000006 0 0 0
Ni 1.51233750 6.41630250 -3.2082596300000006 0 0 0
Ni 4.53701250 2.13876750 -3.2082596300000006 0 0 0
Ni 1.12082357 3.93892533 2.85084710
Ni 4.71383500 8.53573554 3.14486051
Ni 4.71383500 4.29678391 3.14433219
Ni 1.12076307 0.33869522 2.85111126
Ni 4.92840544 2.13996521 1.53320205
Ni 1.47489202 6.41536144 1.11608868
Ni 1.62872699 2.13979411 0.97502563
Ni 4.67233646 6.41544699 1.10129555
Sn 0.00000000 6.41630250 -1.0693318199999986 0 0 0
Sn 3.02467500 0.00000000 -3.2082596300000006 0 0 0
Sn 0.00000000 2.13876750 -1.0693318199999986 0 0 0
Sn 3.02467500 4.27753500 -3.2082596300000006 0 0 0
Sn 5.45064583 2.13885305 4.44876908
Sn 3.11886338 4.32142251 1.13378760
Sn 0.01609127 6.41604585 3.37362567
Sn 3.11874239 8.51118249 1.13378760
C 0.70208756 2.13876750 2.54785213
