&CONTROL
calculation = 'relax'
prefix = 'scf'
pseudo_dir = '/vol0403/data/hp230205/u10028/POT_HYBRID_KKJUS_GBRV'
outdir = './data'
tprnfor = .true.
nstep = 50
disk_io = 'non'
/
&SYSTEM
ibrav = 0
ecutwfc = 50.0
ecutrho = 400
occupations = 'smearing'
smearing = 'mp'
degauss = 0.01
assume_isolated = 'esm'
esm_bc = 'bc1'
input_dft = 'BEEF-VDW'
nosym = .true.
nspin = 1
ntyp = 6
nat = 34
/
&ELECTRONS
electron_maxstep = 200
mixing_beta = 0.1
conv_thr = 1e-06
/
&IONS
ion_dynamics = 'bfgs'
upscale = 1.0
/
&CELL
/

K_POINTS {automatic}
6 6 1 0 0 0

ATOMIC_SPECIES
Ag 107.8 Ag.pbe-n-rrkjus_psl.1.0.0.UPF
Al 26.98 Al.pbe-nl-rrkjus_psl.1.0.0.UPF
C 12.01 C.pbe-n-rrkjus_psl.1.0.0.UPF
Li 6.941 Li.pbe-sl-rrkjus_psl.1.0.0.UPF
O 15.99 O.pbe-n-rrkjus_psl.1.0.0.UPF
Pd 106.4 Pd.pbe-n-rrkjus_psl.1.0.0.UPF


CELL_PARAMETERS {angstrom}
6.21941000 0.00000000 0.00000000
0.00000000 8.79558000 0.00000000
0.00000000 0.00000000 26.59670000

ATOMIC_POSITIONS {angstrom}
Li 1.55485250 0.00000000 -1.0995075799999974 0 0 0
Li 1.55485250 4.39779000 -1.0995075799999974 0 0 0
Li 4.66455750 2.19889500 -3.2982567699999983 0 0 0
Li 4.66455750 6.59668500 -3.2982567699999983 0 0 0
Li 1.49408886 4.39787796 3.52645645
Li 1.52667857 0.00000000 3.57459648
Li 4.65547716 6.59844412 1.04232467
Li 4.65553936 2.19713588 1.04232467
Al 4.66455750 0.00000000 -1.0995075799999974 0 0 0
Al 4.66455750 4.39779000 -1.0995075799999974 0 0 0
Al 1.55485250 2.19889500 -3.2982567699999983 0 0 0
Al 1.55485250 6.59668500 -3.2982567699999983 0 0 0
Al 4.74460131 4.39779000 3.25463818
Al 4.73340637 0.00000000 3.22564778
Al 1.57842406 6.59378246 1.13381732
Al 1.57842406 2.20179754 1.13381732
Ag 0.00000000 0.00000000 -3.2982567699999983 0 0 0
Ag 0.00000000 4.39779000 -3.2982567699999983 0 0 0
Ag 3.10970500 6.59668500 -1.0995075799999974 0 0 0
Ag 3.10970500 2.19889500 -1.0995075799999974 0 0 0
Ag 0.03750304 4.39779000 1.05269739
Ag 0.05031503 0.00000000 1.05961253
Ag 3.18495986 2.21419931 3.29001179
Ag 3.18495986 6.58138069 3.29001179
Pd 0.00000000 2.19889500 -1.0995075799999974 0 0 0
Pd 0.00000000 6.59668500 -1.0995075799999974 0 0 0
Pd 3.10970500 4.39779000 -3.2982567699999983 0 0 0
Pd 3.10970500 0.00000000 -3.2982567699999983 0 0 0
Pd 6.13271142 6.59044014 3.11234583
Pd 6.13271142 2.20522782 3.11234583
Pd 3.10323681 0.00000000 1.10216725
Pd 3.10777698 4.39779000 1.09019873
C 1.53507478 0.00000000 5.68770429
O 1.49508397 8.79549204 6.82630902
