&CONTROL
calculation = 'relax'
prefix = 'scf'
pseudo_dir = '/vol0004/mdt0/data/hp150275/u10028/POT_KKJUS'
outdir = './data'
tprnfor = .true.
nstep = 50
disk_io = 'non'
/
&SYSTEM
ibrav = 0
ecutwfc = 50.0
ecutrho = 400
occupations = 'smearing'
smearing = 'mp'
degauss = 0.01
assume_isolated = 'esm'
esm_bc = 'bc1'
input_dft = 'BEEF-VDW'
nosym = .true.
nspin = 1
ntyp = 5
nat = 18
/
&ELECTRONS
electron_maxstep = 200
mixing_beta = 0.1
conv_thr = 1e-06
/
&IONS
ion_dynamics = 'bfgs'
upscale = 1.0
/
&CELL
/

K_POINTS {automatic}
8 8 1 0 0 0

ATOMIC_SPECIES
C 12.01 C.pbe-n-rrkjus_psl.1.0.0.UPF
Ni 58.69 Ni.pbe-spn-rrkjus_psl.1.0.0.UPF
O 15.99 O.pbe-n-rrkjus_psl.1.0.0.UPF
Rh 102.9 Rh.pbe-spn-rrkjus_psl.1.0.0.UPF
Sn 118.7 Sn.pbe-dn-rrkjus_psl.1.0.0.UPF

CELL_PARAMETERS {angstrom}
6.23499000 0.00000000 0.00000000
-0.00000000 6.23499000 0.00000000
0.00000000 0.00000000 24.67620000

ATOMIC_POSITIONS {angstrom}
Ni 0.00000000 0.00000000 2.33806995
Ni 3.11749500 3.11749500 2.33806995
Ni 3.11749500 0.00000000 -0.779274400000002 0 0 0
Ni 0.00000000 3.11749500 -0.779274400000002 0 0 0
Sn 0.00000000 0.00000000 -0.779274400000002 0 0 0
Sn 3.11749500 -0.00000000 2.33806995
Sn 0.00000000 3.11749500 2.33806995
Sn 3.11749500 3.11749500 -0.779274400000002 0 0 0
Rh 1.55874750 1.55874750 0.77927440
Rh 4.67624250 4.67624250 -2.3380699500000013 0 0 0
Rh 4.67624250 1.55874750 0.77927440
Rh 1.55874750 4.67624250 -2.3380699500000013 0 0 0
Rh 4.67624250 4.67624250 0.77927440
Rh 1.55874750 1.55874750 -2.3380699500000013 0 0 0
Rh 1.55874750 4.67624250 0.77927440
Rh 4.67624250 1.55874750 -2.3380699500000013 0 0 0
C 0.00000000 3.11749500 4.23813735
O 0.00000000 3.11749500 5.38804827
