&CONTROL
calculation = 'relax'
prefix = 'scf'
pseudo_dir = '/vol0004/mdt0/data/hp150275/u10028/POT_KKJUS'
outdir = './data'
tprnfor = .true.
nstep = 50
disk_io = 'non'
/
&SYSTEM
ibrav = 0
ecutwfc = 50.0
ecutrho = 400
occupations = 'smearing'
smearing = 'mp'
degauss = 0.01
assume_isolated = 'esm'
esm_bc = 'bc1'
input_dft = 'BEEF-VDW'
nosym = .true.
nspin = 1
ntyp = 4
nat = 33
/
&ELECTRONS
electron_maxstep = 200
mixing_beta = 0.1
conv_thr = 1e-06
/
&IONS
ion_dynamics = 'bfgs'
upscale = 1.0
/
&CELL
/

K_POINTS {automatic}
9 6 2 0  0  0

ATOMIC_SPECIES
C 12.01 C.pbe-n-rrkjus_psl.1.0.0.UPF
Ge 72.64 Ge.pbe-dn-rrkjus_psl.1.0.0.UPF
Li 6.941 Li.pbe-sl-rrkjus_psl.1.0.0.UPF
Pd 106.4 Pd.pbe-n-rrkjus_psl.1.0.0.UPF

CELL_PARAMETERS {angstrom}
6.09904000 0.00000000 0.00000000
0.00000000 8.62534000 0.00000000
0.00000000 0.00000000 26.46900000

ATOMIC_POSITIONS {angstrom}
Li 1.52476000 0.00000000 -1.0780823700000006 0 0 0
Li 4.57428000 4.31267000 -1.0780823700000006 0 0 0
Li 4.57428000 0.00000000 -1.0780823700000006 0 0 0
Li 1.52476000 4.31267000 -1.0780823700000006 0 0 0
Li 4.57428000 6.46900500 -3.2345118 0 0 0
Li 1.52476000 2.15633500 -3.2345118 0 0 0
Li 1.52476000 6.46900500 -3.2345118 0 0 0
Li 4.57428000 2.15633500 -3.2345118 0 0 0
Li 1.50536505 4.52882102 3.81285945
Li 4.36746155 0.21589226 3.77368533
Li 4.58794185 4.09798529 3.82132953
Li 1.71315935 8.40686014 3.76362711
Li 4.58440441 2.14408702 1.14769584
Li 1.51878294 6.45425567 1.13790231
Li 1.51670927 2.20800079 0.93250287
Li 4.58098894 6.44252521 0.93382632
Ge 0.00000000 0.00000000 -3.2345118 0 0 0
Ge 3.04952000 2.15633500 -1.0780823700000006 0 0 0
Ge 3.04952000 6.46900500 -1.0780823700000006 0 0 0
Ge 0.00000000 4.31267000 -3.2345118 0 0 0
Ge 6.08574409 4.31249749 1.60957989
Ge 3.28061263 6.38283785 3.14398782
Ge 2.81318220 2.24207088 3.14663472
Ge 0.02951935 8.62283865 0.85203711
Pd 0.00000000 6.46900500 -1.0780823700000006 0 0 0
Pd 3.04952000 0.00000000 -3.2345118 0 0 0
Pd 0.00000000 2.15633500 -1.0780823700000006 0 0 0
Pd 3.04952000 4.31267000 -3.2345118 0 0 0
Pd 0.27524968 2.07258295 3.12784173
Pd 3.06208402 4.30956488 1.39650444
Pd 5.81409285 6.55525840 3.12148917
Pd 3.02823435 0.00043127 1.14451956
C 6.08379240 0.00577898 2.75462883
