&CONTROL
calculation = 'relax'
prefix = 'scf'
pseudo_dir = '/vol0403/data/hp230205/u10028/POT_HYBRID_KKJUS_GBRV'
outdir = './data'
tprnfor = .true.
nstep = 50
disk_io = 'non'
/
&SYSTEM
ibrav = 0
ecutwfc = 50.0
ecutrho = 400
occupations = 'smearing'
smearing = 'mp'
degauss = 0.01
assume_isolated = 'esm'
esm_bc = 'bc1'
input_dft = 'BEEF-VDW'
nosym = .true.
nspin = 1
ntyp = 6
nat = 18
/
&ELECTRONS
electron_maxstep = 200
mixing_beta = 0.1
conv_thr = 1e-06
/
&IONS
ion_dynamics = 'bfgs'
upscale = 1.0
/
&CELL
/

K_POINTS {automatic}
10 8 2 0  0  0

ATOMIC_SPECIES
C 12.01 C.pbe-n-rrkjus_psl.1.0.0.UPF
Ge 72.64 Ge.pbe-dn-rrkjus_psl.1.0.0.UPF
Li 6.941 Li.pbe-sl-rrkjus_psl.1.0.0.UPF
O 15.99 O.pbe-n-rrkjus_psl.1.0.0.UPF
Pb 207.2 Pb.pbe-dn-rrkjus_psl.1.0.0.UPF
Y 88.90 Y.pbe-spn-rrkjus_psl.1.0.0.UPF


CELL_PARAMETERS {angstrom}
6.52719000 0.00000000 0.00000000
0.00000000 8.65500000 0.00000000
0.00000000 0.00000000 24.84630000

ATOMIC_POSITIONS {angstrom}
Li 3.45569020 0.00000000 2.70302898
Li 6.06617457 0.00000000 -0.8077532099999978 0 0 0
Li 3.52637967 4.32750000 2.75918161
Li 6.06617457 4.32750000 -0.8077532099999978 0 0 0
Y 1.51065285 2.17024125 0.80328088
Y 4.20390199 2.16375000 -2.4232596399999977 0 0 0
Y 1.51065285 6.48475875 0.80303242
Y 4.20390199 6.49125000 -2.4232596399999977 0 0 0
Ge 6.45519509 0.00000000 2.09479155
Ge 2.80257957 0.00000000 -0.8077532099999978 0 0 0
Ge 6.44527377 4.32750000 2.11914093
Ge 2.80257957 4.32750000 -0.8077532099999978 0 0 0
Pb 4.73867467 2.15769150 1.21746870
Pb 0.94030699 2.16375000 -2.4232596399999977 0 0 0
Pb 4.73867467 6.49730850 1.21746870
Pb 0.94030699 6.49125000 -2.4232596399999977 0 0 0
C 3.31705269 0.00000000 4.78142197
O 3.28089205 0.00000000 5.91987944
