&CONTROL
calculation = 'relax'
prefix = 'scf'
pseudo_dir = '/vol0004/mdt0/data/hp150275/u10028/POT_KKJUS'
outdir = './data'
tprnfor = .true.
nstep = 50
disk_io = 'non'
/
&SYSTEM
ibrav = 0
ecutwfc = 50.0
ecutrho = 400
occupations = 'smearing'
smearing = 'mp'
degauss = 0.01
assume_isolated = 'esm'
esm_bc = 'bc1'
input_dft = 'BEEF-VDW'
nosym = .true.
nspin = 1
ntyp = 5
nat = 34
/
&ELECTRONS
electron_maxstep = 200
mixing_beta = 0.1
conv_thr = 1e-06
/
&IONS
ion_dynamics = 'bfgs'
upscale = 1.0
/
&CELL
/

K_POINTS {automatic}
9 6 2 0  0  0

ATOMIC_SPECIES
C 12.01 C.pbe-n-rrkjus_psl.1.0.0.UPF
Cu 63.54 Cu.pbe-dn-rrkjus_psl.1.0.0.UPF
Hf 178.4 Hf.pbe-spn-rrkjus_psl.1.0.0.UPF
In 114.8 In.pbe-dn-rrkjus_psl.1.0.0.UPF
O 15.99 O.pbe-n-rrkjus_psl.1.0.0.UPF

CELL_PARAMETERS {angstrom}
6.35005000 0.00000000 0.00000000
0.00000000 8.98033000 0.00000000
0.00000000 0.00000000 26.73520000

ATOMIC_POSITIONS {angstrom}
Hf 0.00000000 0.00000000 -3.3675657900000004 0 0 0
Hf 3.17502500 2.24508250 -1.1226110499999997 0 0 0
Hf 3.17502500 6.73524750 -1.1226110499999997 0 0 0
Hf 0.00000000 4.49016500 -3.3675657900000004 0 0 0
Hf 0.00393703 4.51926127 1.22179864
Hf 3.18308956 7.04884062 3.67609000
Hf 3.18410557 2.08792673 3.54508752
Hf 0.00050800 8.91674926 1.14319715
In 0.00000000 6.73524750 -1.1226110499999997 0 0 0
In 3.17502500 0.00000000 -3.3675657900000004 0 0 0
In 0.00000000 2.24508250 -1.1226110499999997 0 0 0
In 3.17502500 4.49016500 -3.3675657900000004 0 0 0
In 0.00781056 2.56810497 3.81163746
In 3.17642201 4.42721289 1.13918687
In 0.00717556 6.67121775 3.54722634
In 3.17762852 0.02532453 1.14934625
Cu 1.58751250 0.00000000 -1.1226110499999997 0 0 0
Cu 4.76253750 4.49016500 -1.1226110499999997 0 0 0
Cu 4.76253750 0.00000000 -1.1226110499999997 0 0 0
Cu 1.58751250 4.49016500 -1.1226110499999997 0 0 0
Cu 4.76253750 6.73524750 -3.3675657900000004 0 0 0
Cu 1.58751250 2.24508250 -3.3675657900000004 0 0 0
Cu 1.58751250 6.73524750 -3.3675657900000004 0 0 0
Cu 4.76253750 2.24508250 -3.3675657900000004 0 0 0
Cu 1.86208866 4.60008424 3.52503612
Cu 5.07349945 0.17960660 3.47905158
Cu 4.50231245 4.59945562 3.52262995
Cu 1.29617221 0.17915758 3.46648603
Cu 4.84883468 2.22766066 1.26885259
Cu 1.67755621 6.70875553 1.25040530
Cu 1.50642236 2.22640341 1.27099141
Cu 4.67801833 6.70758808 1.24799914
C 3.18359757 0.24893475 4.58909708
O 3.18207356 8.14057934 5.36896286
