&CONTROL
calculation = 'relax'
prefix = 'scf'
pseudo_dir = '/vol0403/data/hp230205/u10028/POT_HYBRID_KKJUS_GBRV'
outdir = './data'
tprnfor = .true.
nstep = 50
disk_io = 'non'
/
&SYSTEM
ibrav = 0
ecutwfc = 50.0
ecutrho = 400
occupations = 'smearing'
smearing = 'mp'
degauss = 0.01
assume_isolated = 'esm'
esm_bc = 'bc1'
input_dft = 'BEEF-VDW'
nosym = .true.
nspin = 1
ntyp = 5
nat = 33
/
&ELECTRONS
electron_maxstep = 200
mixing_beta = 0.1
conv_thr = 1e-06
/
&IONS
ion_dynamics = 'bfgs'
upscale = 1.0
/
&CELL
/

K_POINTS {automatic}
9 6 2 0  0  0

ATOMIC_SPECIES
C 12.01 C.pbe-n-rrkjus_psl.1.0.0.UPF
Ga 69.72 Ga.pbe-dnl-rrkjus_psl.1.0.0.UPF
Li 6.941 Li.pbe-sl-rrkjus_psl.1.0.0.UPF
Mg 24.30 Mg.pbe-spnl-rrkjus_psl.1.0.0.UPF
Pd 106.4 Pd.pbe-n-rrkjus_psl.1.0.0.UPF


CELL_PARAMETERS {angstrom}
6.27706000 0.00000000 0.00000000
0.00000000 8.87710000 0.00000000
0.00000000 0.00000000 26.65780000

ATOMIC_POSITIONS {angstrom}
Li 1.56926500 0.00000000 -1.1097642100000016 0 0 0
Li 1.56926500 4.43855000 -1.1097642100000016 0 0 0
Li 4.70779500 2.21927500 -3.3290260600000003 0 0 0
Li 4.70779500 6.65782500 -3.3290260600000003 0 0 0
Li 1.75224130 4.27956114 3.75581744
Li 1.75224130 0.15898886 3.75581744
Li 4.72581016 6.65782500 1.14415278
Li 4.77571279 2.21927500 1.11616209
Mg 0.00000000 2.21927500 -1.1097642100000016 0 0 0
Mg 0.00000000 6.65782500 -1.1097642100000016 0 0 0
Mg 3.13853000 4.43855000 -3.3290260600000003 0 0 0
Mg 3.13853000 0.00000000 -3.3290260600000003 0 0 0
Mg 0.03377058 6.65782500 3.48257499
Mg 5.98938234 2.21927500 3.66331488
Mg 3.06119662 0.02139381 1.09376953
Mg 3.06113385 4.41715619 1.09376953
Ga 0.00000000 0.00000000 -3.3290260600000003 0 0 0
Ga 0.00000000 4.43855000 -3.3290260600000003 0 0 0
Ga 3.13853000 6.65782500 -1.1097642100000016 0 0 0
Ga 3.13853000 2.21927500 -1.1097642100000016 0 0 0
Ga 0.03803898 4.43109324 1.14042068
Ga 0.03803898 0.00745676 1.14042068
Ga 3.44528992 2.21927500 3.38234166
Ga 3.14072697 6.65782500 3.40500079
Pd 4.70779500 0.00000000 -1.1097642100000016 0 0 0
Pd 4.70779500 4.43855000 -1.1097642100000016 0 0 0
Pd 1.56926500 2.21927500 -3.3290260600000003 0 0 0
Pd 1.56926500 6.65782500 -3.3290260600000003 0 0 0
Pd 4.66479714 4.56895460 3.13762306
Pd 4.66479714 8.74669540 3.13762306
Pd 1.54051607 6.65782500 1.14148700
Pd 1.50555284 2.21927500 1.23958770
C 1.68664602 2.21927500 3.90616743
