&CONTROL
calculation = 'relax'
prefix = 'scf'
pseudo_dir = '/vol0004/mdt0/data/hp150275/u10028/POT_KKJUS'
outdir = './data'
tprnfor = .true.
nstep = 50
disk_io = 'non'
/
&SYSTEM
ibrav = 0
ecutwfc = 50.0
ecutrho = 400
occupations = 'smearing'
smearing = 'mp'
degauss = 0.01
assume_isolated = 'esm'
esm_bc = 'bc1'
input_dft = 'BEEF-VDW'
nosym = .true.
nspin = 1
ntyp = 3
nat = 17
/
&ELECTRONS
electron_maxstep = 200
mixing_beta = 0.1
conv_thr = 1e-06
/
&IONS
ion_dynamics = 'bfgs'
upscale = 1.0
/
&CELL
/

K_POINTS {automatic}
8 8 1 0 0 0

ATOMIC_SPECIES
C 12.01 C.pbe-n-rrkjus_psl.1.0.0.UPF
In 114.8 In.pbe-dn-rrkjus_psl.1.0.0.UPF
Pd 106.4 Pd.pbe-n-rrkjus_psl.1.0.0.UPF

CELL_PARAMETERS {angstrom}
6.68646000 0.00000000 0.00000000
-0.00000000 6.68646000 0.00000000
0.00000000 0.00000000 25.01480000

ATOMIC_POSITIONS {angstrom}
In 1.67161500 1.67161500 -0.8039756699999998 0 0 0
In 1.67161500 1.67161500 2.53925235
In 1.67161500 5.01484500 -0.8039756699999998 0 0 0
In 1.67161500 5.01484500 2.53925235
In 5.01484500 1.67161500 -0.8039756699999998 0 0 0
In 5.01484500 1.67161500 2.53925235
In 5.01484500 5.01484500 -0.8039756699999998 0 0 0
In 5.01484500 5.01484500 2.53925235
Pd 0.00000000 0.00000000 -2.4757147600000025 0 0 0
Pd 0.00000000 0.00000000 0.86751326
Pd 0.00000000 3.34323000 -2.4757147600000025 0 0 0
Pd 0.00000000 3.34323000 0.86751326
Pd 3.34323000 0.00000000 -2.4757147600000025 0 0 0
Pd 3.34323000 -0.00000000 0.86751326
Pd 3.34323000 3.34323000 -2.4757147600000025 0 0 0
Pd 3.34323000 3.34323000 0.86751326
C 0.00000000 0.00000000 3.33922565
