&CONTROL
calculation = 'relax'
prefix = 'scf'
pseudo_dir = '/vol0403/data/hp230205/u10028/POT_HYBRID_KKJUS_GBRV'
outdir = './data'
tprnfor = .true.
nstep = 50
disk_io = 'non'
/
&SYSTEM
ibrav = 0
ecutwfc = 50.0
ecutrho = 400
occupations = 'smearing'
smearing = 'mp'
degauss = 0.01
assume_isolated = 'esm'
esm_bc = 'bc1'
input_dft = 'BEEF-VDW'
nosym = .true.
nspin = 1
ntyp = 5
nat = 17
/
&ELECTRONS
electron_maxstep = 200
mixing_beta = 0.1
conv_thr = 1e-06
/
&IONS
ion_dynamics = 'bfgs'
upscale = 1.0
/
&CELL
/

K_POINTS {automatic}
6 6 1 0 0 0

ATOMIC_SPECIES
C 12.01 C.pbe-n-rrkjus_psl.1.0.0.UPF
Ga 69.72 Ga.pbe-dnl-rrkjus_psl.1.0.0.UPF
In 114.8 In.pbe-dn-rrkjus_psl.1.0.0.UPF
Li 6.941 Li.pbe-sl-rrkjus_psl.1.0.0.UPF
Sc 44.95 Sc.pbe-spn-rrkjus_psl.1.0.0.UPF


CELL_PARAMETERS {angstrom}
8.23116000 0.00000000 0.00000000
0.00000000 6.09788000 0.00000000
0.00000000 0.00000000 24.56590000

ATOMIC_POSITIONS {angstrom}
Li 0.00000000 3.04894000 -2.2829090900000004 0 0 0
Li 8.23099538 5.74328828 0.58098353
Li 4.11558000 3.04894000 -2.2829090900000004 0 0 0
Li 4.11558000 5.80249869 1.01629128
Sc 2.05779000 1.43720934 -0.7610515800000002 0 0 0
Sc 1.77200412 3.93587665 2.37748780
Sc 6.17337000 1.43720934 -0.7610515800000002 0 0 0
Sc 6.45907356 3.93593762 2.37724214
In 2.05779000 4.48614934 -0.7610515800000002 0 0 0
In 1.67347714 0.93456109 2.59071981
In 6.17337000 4.48614934 -0.7610515800000002 0 0 0
In 6.55743593 0.93462207 2.59096547
Ga 0.00000000 0.00000000 -2.2829090900000004 0 0 0
Ga 0.00000000 2.56751237 0.63748510
Ga 4.11558000 0.00000000 -2.2829090900000004 0 0 0
Ga 4.11566231 2.68099392 1.00867585
C 8.23107769 2.86258879 2.75285475
