&CONTROL
calculation = 'relax'
prefix = 'scf'
pseudo_dir = '/vol0403/data/hp230205/u10028/POT_HYBRID_KKJUS_GBRV'
outdir = './data'
tprnfor = .true.
nstep = 50
disk_io = 'non'
/
&SYSTEM
ibrav = 0
ecutwfc = 50.0
ecutrho = 400
occupations = 'smearing'
smearing = 'mp'
degauss = 0.01
assume_isolated = 'esm'
esm_bc = 'bc1'
input_dft = 'BEEF-VDW'
nosym = .true.
nspin = 1
ntyp = 5
nat = 17
/
&ELECTRONS
electron_maxstep = 200
mixing_beta = 0.1
conv_thr = 1e-06
/
&IONS
ion_dynamics = 'bfgs'
upscale = 1.0
/
&CELL
/

K_POINTS {automatic}
11 8 2 0  0  0

ATOMIC_SPECIES
C 12.01 C.pbe-n-rrkjus_psl.1.0.0.UPF
In 114.8 In.pbe-dn-rrkjus_psl.1.0.0.UPF
Li 6.941 Li.pbe-sl-rrkjus_psl.1.0.0.UPF
Sn 118.7 Sn.pbe-dn-rrkjus_psl.1.0.0.UPF
Y 88.90 Y.pbe-spn-rrkjus_psl.1.0.0.UPF


CELL_PARAMETERS {angstrom}
6.44949000 0.00000000 0.00000000
0.00000000 9.04200000 0.00000000
0.00000000 0.00000000 24.82990000

ATOMIC_POSITIONS {angstrom}
Li 1.65758342 2.26059042 0.49535650
Li 4.57313987 2.26050000 -2.414956069999999 0 0 0
Li 1.86035539 6.78140958 0.65277807
Li 4.57313987 6.78150000 -2.414956069999999 0 0 0
Y 3.42384076 0.33464442 2.58454429
Y 6.27348342 0.00000000 -0.8049853599999999 0 0 0
Y 3.42384076 4.18635558 2.58479259
Y 6.27348342 4.52100000 -0.8049853599999999 0 0 0
In 0.18729319 0.47253492 2.77722431
In 3.04873842 0.00000000 -0.8049853599999999 0 0 0
In 0.18729319 4.04855550 2.77722431
In 3.04873842 4.52100000 -0.8049853599999999 0 0 0
Sn 4.99442056 2.26068084 0.74266231
Sn 1.34839487 2.26050000 -2.414956069999999 0 0 0
Sn 5.01118924 6.78131916 1.38451522
Sn 1.34839487 6.78150000 -2.414956069999999 0 0 0
C 4.53889308 2.26050000 3.02179883
