&CONTROL
calculation = 'relax'
prefix = 'scf'
pseudo_dir = '/vol0004/mdt0/data/hp150275/u10028/POT_KKJUS'
outdir = './data'
tprnfor = .true.
nstep = 50
disk_io = 'non'
/
&SYSTEM
ibrav = 0
ecutwfc = 50.0
ecutrho = 400
occupations = 'smearing'
smearing = 'mp'
degauss = 0.01
assume_isolated = 'esm'
esm_bc = 'bc1'
input_dft = 'BEEF-VDW'
nosym = .true.
nspin = 1
ntyp = 4
nat = 34
/
&ELECTRONS
electron_maxstep = 200
mixing_beta = 0.1
conv_thr = 1e-06
/
&IONS
ion_dynamics = 'bfgs'
upscale = 1.0
/
&CELL
/

K_POINTS {automatic}
8 6 2 0  0  0

ATOMIC_SPECIES
C 12.01 C.pbe-n-rrkjus_psl.1.0.0.UPF
O 15.99 O.pbe-n-rrkjus_psl.1.0.0.UPF
Sb 121.7 Sb.pbe-n-rrkjus_psl.1.0.0.UPF
Sn 118.7 Sn.pbe-dn-rrkjus_psl.1.0.0.UPF

CELL_PARAMETERS {angstrom}
7.64519000 0.00000000 0.00000000
0.00000000 10.81190000 0.00000000
0.00000000 0.00000000 28.10890000

ATOMIC_POSITIONS {angstrom}
Sn 1.91129750 2.70297500 -4.054427739999998 0 0 0
Sn 1.91129750 0.00000000 -1.3514759099999978 0 0 0
Sn 2.00464527 2.46976232 1.60192621
Sn 1.77605409 0.19612787 4.57781545
Sn 1.91129750 8.10892500 -4.054427739999998 0 0 0
Sn 1.91129750 5.40595000 -1.3514759099999978 0 0 0
Sn 1.84730726 7.74759130 1.42399687
Sn 2.04944608 5.81842399 4.49517529
Sn 5.73389250 2.70297500 -4.054427739999998 0 0 0
Sn 5.73389250 0.00000000 -1.3514759099999978 0 0 0
Sn 5.64069763 2.46976232 1.60192621
Sn 5.86913591 0.19601975 4.57809654
Sn 5.73389250 8.10892500 -4.054427739999998 0 0 0
Sn 5.73389250 5.40595000 -1.3514759099999978 0 0 0
Sn 5.79788274 7.74759130 1.42399687
Sn 5.59582037 5.81842399 4.49545638
Sb 0.00000000 0.00000000 -4.054427739999998 0 0 0
Sb 0.00000000 2.70297500 -1.3514759099999978 0 0 0
Sb 0.00015290 0.17007119 1.92602183
Sb 0.00000000 3.45753750 4.10277504
Sb 0.00000000 5.40595000 -4.054427739999998 0 0 0
Sb 0.00000000 8.10892500 -1.3514759099999978 0 0 0
Sb 0.00007645 4.81280917 1.52406456
Sb 0.00000000 8.01259097 3.87284424
Sb 3.82259500 0.00000000 -4.054427739999998 0 0 0
Sb 3.82259500 2.70297500 -1.3514759099999978 0 0 0
Sb 3.82267145 9.92154003 2.41848976
Sb 3.82259500 2.54598621 4.08562862
Sb 3.82259500 5.40595000 -4.054427739999998 0 0 0
Sb 3.82259500 8.10892500 -1.3514759099999978 0 0 0
Sb 3.82267145 5.46930773 2.03705198
Sb 3.82251855 8.75590910 5.07337536
C 0.00000000 2.69000072 8.15045664
O 0.00015290 2.78838901 9.28127769
