&CONTROL
calculation = 'relax'
prefix = 'scf'
pseudo_dir = '/vol0004/mdt0/data/hp150275/u10028/POT_KKJUS'
outdir = './data'
tprnfor = .true.
nstep = 50
disk_io = 'non'
/
&SYSTEM
ibrav = 0
ecutwfc = 50.0
ecutrho = 400
occupations = 'smearing'
smearing = 'mp'
degauss = 0.01
assume_isolated = 'esm'
esm_bc = 'bc1'
input_dft = 'BEEF-VDW'
nosym = .true.
nspin = 1
ntyp = 3
nat = 32
/
&ELECTRONS
electron_maxstep = 200
mixing_beta = 0.1
conv_thr = 1e-06
/
&IONS
ion_dynamics = 'bfgs'
upscale = 1.0
/
&CELL
/

K_POINTS {automatic}
9 6 2 0  0  0

ATOMIC_SPECIES
Ni 58.69 Ni.pbe-spn-rrkjus_psl.1.0.0.UPF
Sb 121.7 Sb.pbe-n-rrkjus_psl.1.0.0.UPF
Zr 91.22 Zr.pbe-spn-rrkjus_psl.1.0.0.UPF

CELL_PARAMETERS {angstrom}
6.34847000 0.00000000 0.00000000
0.00000000 8.97809000 0.00000000
0.00000000 0.00000000 26.73360000

ATOMIC_POSITIONS {angstrom}
Zr 0.00000000 0.00000000 -3.3668295799999974 0 0 0
Zr 3.17423500 2.24452250 -1.1222765300000006 0 0 0
Zr 3.17423500 6.73356750 -1.1222765300000006 0 0 0
Zr 0.00000000 4.48904500 -3.3668295799999974 0 0 0
Zr 6.34834303 4.48904500 1.12842526
Zr 3.17423500 6.73374706 3.35025475
Zr 3.17429848 2.24434294 3.34998742
Zr 6.34840652 0.00000000 1.12815792
Ni 1.58711750 0.00000000 -1.1222765300000006 0 0 0
Ni 4.76135250 4.48904500 -1.1222765300000006 0 0 0
Ni 4.76135250 0.00000000 -1.1222765300000006 0 0 0
Ni 1.58711750 4.48904500 -1.1222765300000006 0 0 0
Ni 4.76135250 6.73356750 -3.3668295799999974 0 0 0
Ni 1.58711750 2.24452250 -3.3668295799999974 0 0 0
Ni 1.58711750 6.73356750 -3.3668295799999974 0 0 0
Ni 4.76135250 2.24452250 -3.3668295799999974 0 0 0
Ni 1.73370367 4.48895522 3.16151554
Ni 4.61559163 0.00000000 3.16178287
Ni 4.61463936 4.48913478 3.16205021
Ni 1.73294186 0.00008978 3.16071353
Ni 4.82623386 2.24443272 1.24043904
Ni 1.52204568 6.73347772 1.24017170
Ni 1.52210917 2.24470206 1.24017170
Ni 4.82629735 6.73356750 1.24043904
Sb 0.00000000 6.73356750 -1.1222765300000006 0 0 0
Sb 3.17423500 0.00000000 -3.3668295799999974 0 0 0
Sb 0.00000000 2.24452250 -1.1222765300000006 0 0 0
Sb 3.17423500 4.48904500 -3.3668295799999974 0 0 0
Sb 0.00012697 2.24461228 3.57454966
Sb 3.17436197 4.48904500 1.03993704
Sb 0.00012697 6.73338794 3.57454966
Sb 3.17442545 8.97800022 1.04020438
