&CONTROL
calculation = 'relax'
prefix = 'scf'
pseudo_dir = '/vol0004/mdt0/data/hp150275/u10028/POT_KKJUS'
outdir = './data'
tprnfor = .true.
nstep = 50
disk_io = 'non'
/
&SYSTEM
ibrav = 0
ecutwfc = 50.0
ecutrho = 400
occupations = 'smearing'
smearing = 'mp'
degauss = 0.01
assume_isolated = 'esm'
esm_bc = 'bc1'
input_dft = 'BEEF-VDW'
nosym = .true.
nspin = 1
ntyp = 5
nat = 34
/
&ELECTRONS
electron_maxstep = 200
mixing_beta = 0.1
conv_thr = 1e-06
/
&IONS
ion_dynamics = 'bfgs'
upscale = 1.0
/
&CELL
/

K_POINTS {automatic}
8 6 1 0 0 0

ATOMIC_SPECIES
Al 26.98 Al.pbe-nl-rrkjus_psl.1.0.0.UPF
C 12.01 C.pbe-n-rrkjus_psl.1.0.0.UPF
Cu 63.54 Cu.pbe-dn-rrkjus_psl.1.0.0.UPF
O 15.99 O.pbe-n-rrkjus_psl.1.0.0.UPF
Zr 91.22 Zr.pbe-spn-rrkjus_psl.1.0.0.UPF

CELL_PARAMETERS {angstrom}
6.27295000 0.00000000 0.00000000
0.00000000 8.87129000 0.00000000
0.00000000 0.00000000 26.65350000

ATOMIC_POSITIONS {angstrom}
Zr 0.00000000 0.00000000 -3.3266233300000003 0 0 0
Zr 3.13647500 2.21782250 -1.108785600000001 0 0 0
Zr 3.13647500 6.65346750 -1.108785600000001 0 0 0
Zr 0.00000000 4.43564500 -3.3266233300000003 0 0 0
Zr 0.00000000 4.45250045 1.12770959
Zr 3.13647500 6.65346750 3.31489579
Zr 3.13647500 2.21782250 3.27038445
Zr 0.00000000 8.85443455 1.12770959
Al 0.00000000 6.65346750 -1.108785600000001 0 0 0
Al 3.13647500 0.00000000 -3.3266233300000003 0 0 0
Al 0.00000000 2.21782250 -1.108785600000001 0 0 0
Al 3.13647500 4.43564500 -3.3266233300000003 0 0 0
Al 0.00000000 2.21782250 3.30823242
Al 3.13647500 4.43129807 1.13410642
Al 0.00000000 6.65346750 3.30103598
Al 3.13647500 0.00434693 1.13410642
Cu 1.56823750 0.00000000 -1.108785600000001 0 0 0
Cu 4.70471250 4.43564500 -1.108785600000001 0 0 0
Cu 4.70471250 0.00000000 -1.108785600000001 0 0 0
Cu 1.56823750 4.43564500 -1.108785600000001 0 0 0
Cu 4.70471250 6.65346750 -3.3266233300000003 0 0 0
Cu 1.56823750 2.21782250 -3.3266233300000003 0 0 0
Cu 1.56823750 6.65346750 -3.3266233300000003 0 0 0
Cu 4.70471250 2.21782250 -3.3266233300000003 0 0 0
Cu 1.49496944 4.43555629 3.39379016
Cu 4.77798056 0.00008871 3.39379016
Cu 4.77798056 4.43555629 3.39379016
Cu 1.49496944 0.00008871 3.39379016
Cu 4.72760877 2.21782250 1.06747268
Cu 1.61785653 6.65346750 1.10878560
Cu 1.54534123 2.21782250 1.06747268
Cu 4.65509347 6.65346750 1.10878560
C 3.13647500 2.21782250 5.52953511
O 3.13647500 2.21782250 6.68229899
