&CONTROL
calculation = 'relax'
prefix = 'scf'
pseudo_dir = '/vol0403/data/hp230205/u10028/POT_HYBRID_KKJUS_GBRV'
outdir = './data'
tprnfor = .true.
nstep = 50
disk_io = 'non'
/
&SYSTEM
ibrav = 0
ecutwfc = 50.0
ecutrho = 400
occupations = 'smearing'
smearing = 'mp'
degauss = 0.01
assume_isolated = 'esm'
esm_bc = 'bc1'
input_dft = 'BEEF-VDW'
nosym = .true.
nspin = 1
ntyp = 5
nat = 33
/
&ELECTRONS
electron_maxstep = 200
mixing_beta = 0.1
conv_thr = 1e-06
/
&IONS
ion_dynamics = 'bfgs'
upscale = 1.0
/
&CELL
/

K_POINTS {automatic}
9 6 2 0  0  0

ATOMIC_SPECIES
C 12.01 C.pbe-n-rrkjus_psl.1.0.0.UPF
Ge 72.64 Ge.pbe-dn-rrkjus_psl.1.0.0.UPF
Li 6.941 Li.pbe-sl-rrkjus_psl.1.0.0.UPF
Pd 106.4 Pd.pbe-n-rrkjus_psl.1.0.0.UPF
Sc 44.95 Sc.pbe-spn-rrkjus_psl.1.0.0.UPF


CELL_PARAMETERS {angstrom}
6.30999000 0.00000000 0.00000000
0.00000000 8.92368000 0.00000000
0.00000000 0.00000000 26.69280000

ATOMIC_POSITIONS {angstrom}
Li 4.73249250 0.00000000 -1.1154921099999981 0 0 0
Li 4.73249250 4.46184000 -1.1154921099999981 0 0 0
Li 1.57749750 2.23092000 -3.346476339999999 0 0 0
Li 1.57749750 6.69276000 -3.346476339999999 0 0 0
Li 3.68856775 4.46175076 4.82979523
Li 4.57796084 8.92350153 4.68084941
Li 1.57232331 6.69695413 1.19743901
Li 1.57232331 2.22672587 1.19743901
Sc 0.00000000 2.23092000 -1.1154921099999981 0 0 0
Sc 0.00000000 6.69276000 -1.1154921099999981 0 0 0
Sc 3.15499500 4.46184000 -3.346476339999999 0 0 0
Sc 3.15499500 0.00000000 -3.346476339999999 0 0 0
Sc 6.06143949 6.51821282 3.38224469
Sc 6.06143949 2.40537794 3.38197776
Sc 3.30643476 8.92359076 1.28098747
Sc 3.21967240 4.46184000 1.22359795
Ge 0.00000000 0.00000000 -3.346476339999999 0 0 0
Ge 0.00000000 4.46184000 -3.346476339999999 0 0 0
Ge 3.15499500 6.69276000 -1.1154921099999981 0 0 0
Ge 3.15499500 2.23092000 -1.1154921099999981 0 0 0
Ge 6.30904350 4.46184000 1.10588270
Ge 6.24846760 0.00000000 1.10614963
Ge 3.21986170 2.08171607 3.47860570
Ge 3.21986170 6.84169622 3.47833877
Pd 1.57749750 0.00000000 -1.1154921099999981 0 0 0
Pd 1.57749750 4.46184000 -1.1154921099999981 0 0 0
Pd 4.73249250 2.23092000 -3.346476339999999 0 0 0
Pd 4.73249250 6.69276000 -3.346476339999999 0 0 0
Pd 1.53017257 4.46184000 3.28695139
Pd 0.93867411 8.92359076 3.45137904
Pd 4.75571326 6.65304962 1.06290730
Pd 4.75558706 2.27063038 1.06290730
C 2.95730301 8.92350153 3.41267448
