&CONTROL
calculation = 'relax'
prefix = 'scf'
pseudo_dir = '/vol0004/mdt0/data/hp150275/u10028/POT_KKJUS'
outdir = './data'
tprnfor = .true.
nstep = 50
disk_io = 'non'
/
&SYSTEM
ibrav = 0
ecutwfc = 50.0
ecutrho = 400
occupations = 'smearing'
smearing = 'mp'
degauss = 0.01
assume_isolated = 'esm'
esm_bc = 'bc1'
input_dft = 'BEEF-VDW'
nosym = .true.
nspin = 1
ntyp = 4
nat = 34
/
&ELECTRONS
electron_maxstep = 200
mixing_beta = 0.1
conv_thr = 1e-06
/
&IONS
ion_dynamics = 'bfgs'
upscale = 1.0
/
&CELL
/

K_POINTS {automatic}
8 6 1 0 0 0

ATOMIC_SPECIES
C 12.01 C.pbe-n-rrkjus_psl.1.0.0.UPF
Nb 92.90 Nb.pbe-spn-rrkjus_psl.1.0.0.UPF
O 15.99 O.pbe-n-rrkjus_psl.1.0.0.UPF
Ru 101.0 Ru.pbe-spn-rrkjus_psl.1.0.0.UPF

CELL_PARAMETERS {angstrom}
6.35921000 0.00000000 0.00000000
0.00000000 8.99329000 0.00000000
0.00000000 0.00000000 26.74500000

ATOMIC_POSITIONS {angstrom}
Nb 0.00000000 0.00000000 -3.3725445 0 0 0
Nb 0.00000000 2.24832250 -1.1240923500000015 0 0 0
Nb 0.00000000 0.01322014 1.17276825
Nb 0.00000000 2.24832250 3.52178160
Nb 0.00000000 4.49664500 -3.3725445 0 0 0
Nb 0.00000000 6.74496750 -1.1240923500000015 0 0 0
Nb 0.00000000 4.48342486 1.17276825
Nb 0.00000000 6.74496750 3.47765235
Nb 3.17960500 0.00000000 -3.3725445 0 0 0
Nb 3.17960500 2.24832250 -1.1240923500000015 0 0 0
Nb 3.17960500 8.98519604 1.17089610
Nb 3.17960500 2.24832250 3.41025495
Nb 3.17960500 4.49664500 -3.3725445 0 0 0
Nb 3.17960500 6.74496750 -1.1240923500000015 0 0 0
Nb 3.17960500 4.50473896 1.17089610
Nb 3.17960500 6.74496750 3.46989630
Ru 1.58980250 2.24832250 -3.3725445 0 0 0
Ru 1.58980250 0.00000000 -1.1240923500000015 0 0 0
Ru 1.60035879 2.24841243 1.14629070
Ru 1.58248941 8.96010476 3.21421410
Ru 1.58980250 6.74496750 -3.3725445 0 0 0
Ru 1.58980250 4.49664500 -1.1240923500000015 0 0 0
Ru 1.58115397 6.74487757 1.19897835
Ru 1.58248941 4.52983024 3.21421410
Ru 4.76940750 2.24832250 -3.3725445 0 0 0
Ru 4.76940750 0.00000000 -1.1240923500000015 0 0 0
Ru 4.75885121 2.24841243 1.14629070
Ru 4.77672059 8.96010476 3.21421410
Ru 4.76940750 6.74496750 -3.3725445 0 0 0
Ru 4.76940750 4.49664500 -1.1240923500000015 0 0 0
Ru 4.77805603 6.74487757 1.19897835
Ru 4.77672059 4.52983024 3.21421410
C 0.00000000 2.24832250 5.67020745
O 0.00000000 2.24832250 6.82532400
