&CONTROL
calculation = 'relax'
prefix = 'scf'
pseudo_dir = '/vol0403/data/hp230205/u10028/POT_HYBRID_KKJUS_GBRV'
outdir = './data'
tprnfor = .true.
nstep = 50
disk_io = 'non'
/
&SYSTEM
ibrav = 0
ecutwfc = 50.0
ecutrho = 400
occupations = 'smearing'
smearing = 'mp'
degauss = 0.01
assume_isolated = 'esm'
esm_bc = 'bc1'
input_dft = 'BEEF-VDW'
nosym = .true.
nspin = 1
ntyp = 6
nat = 18
/
&ELECTRONS
electron_maxstep = 200
mixing_beta = 0.1
conv_thr = 1e-06
/
&IONS
ion_dynamics = 'bfgs'
upscale = 1.0
/
&CELL
/

K_POINTS {automatic}
6 6 1 0 0 0

ATOMIC_SPECIES
C 12.01 C.pbe-n-rrkjus_psl.1.0.0.UPF
In 114.8 In.pbe-dn-rrkjus_psl.1.0.0.UPF
O 15.99 O.pbe-n-rrkjus_psl.1.0.0.UPF
Pd 106.4 Pd.pbe-n-rrkjus_psl.1.0.0.UPF
Sc 44.95 Sc.pbe-spn-rrkjus_psl.1.0.0.UPF
Y 88.90 Y.pbe-spn-rrkjus_psl.1.0.0.UPF


CELL_PARAMETERS {angstrom}
6.06590000 0.00000000 0.00000000
0.00000000 10.11530000 0.00000000
0.00000000 0.00000000 24.38870000

ATOMIC_POSITIONS {angstrom}
Y 1.11697483 2.52882500 -0.7314171099999989 0 0 0
Y 3.23464118 2.52953307 2.17522815
Y 1.11697483 7.58647500 -0.7314171099999989 0 0 0
Y 3.19636535 7.58687961 2.09352601
Sc 3.03295000 0.00000000 -2.194251340000001 0 0 0
Sc 4.74553555 10.11014120 0.51508934
Sc 3.03295000 5.05765000 -2.194251340000001 0 0 0
Sc 4.74620280 5.06280880 0.51484546
In 0.00000000 0.00000000 -2.194251340000001 0 0 0
In 1.59624159 0.02609747 1.31577036
In 0.00000000 5.05765000 -2.194251340000001 0 0 0
In 1.59751542 5.03215944 1.31333150
Pd 4.14992483 2.52882500 -0.7314171099999989 0 0 0
Pd 6.03763291 2.53044345 1.83403024
Pd 4.14992483 7.58647500 -0.7314171099999989 0 0 0
Pd 6.04958273 7.58647500 1.67964977
C 5.80403510 2.54268296 3.81536823
O 0.19738439 2.54753831 4.89042212
