&CONTROL
calculation = 'relax'
prefix = 'scf'
pseudo_dir = '/vol0403/data/hp230205/u10028/POT_HYBRID_KKJUS_GBRV'
outdir = './data'
tprnfor = .true.
nstep = 50
disk_io = 'non'
/
&SYSTEM
ibrav = 0
ecutwfc = 50.0
ecutrho = 400
occupations = 'smearing'
smearing = 'mp'
degauss = 0.01
assume_isolated = 'esm'
esm_bc = 'bc1'
input_dft = 'BEEF-VDW'
nosym = .true.
nspin = 1
ntyp = 6
nat = 34
/
&ELECTRONS
electron_maxstep = 200
mixing_beta = 0.1
conv_thr = 1e-06
/
&IONS
ion_dynamics = 'bfgs'
upscale = 1.0
/
&CELL
/

K_POINTS {automatic}
9 6 2 0  0  0

ATOMIC_SPECIES
C 12.01 C.pbe-n-rrkjus_psl.1.0.0.UPF
Cu 63.54 Cu.pbe-dn-rrkjus_psl.1.0.0.UPF
Ge 72.64 Ge.pbe-dn-rrkjus_psl.1.0.0.UPF
Li 6.941 Li.pbe-sl-rrkjus_psl.1.0.0.UPF
O 15.99 O.pbe-n-rrkjus_psl.1.0.0.UPF
Y 88.90 Y.pbe-spn-rrkjus_psl.1.0.0.UPF


CELL_PARAMETERS {angstrom}
6.66034000 0.00000000 0.00000000
0.00000000 9.41914000 0.00000000
0.00000000 0.00000000 27.06440000

ATOMIC_POSITIONS {angstrom}
Li 4.99525500 0.00000000 -1.1773013999999975 0 0 0
Li 4.99525500 4.70957000 -1.1773013999999975 0 0 0
Li 1.66508500 2.35478500 -3.5321748399999997 0 0 0
Li 1.66508500 7.06435500 -3.5321748399999997 0 0 0
Li 5.01297150 4.70307079 3.47696347
Li 5.00251477 9.00403850 3.60524872
Li 1.57543682 7.26328724 1.02141046
Li 1.61113625 2.32812883 1.25741202
Y 1.66508500 0.00000000 -1.1773013999999975 0 0 0
Y 1.66508500 4.70957000 -1.1773013999999975 0 0 0
Y 4.99525500 2.35478500 -3.5321748399999997 0 0 0
Y 4.99525500 7.06435500 -3.5321748399999997 0 0 0
Y 1.56178313 4.12944517 4.05072875
Y 1.57470419 0.05359491 3.81120881
Y 4.97500757 6.96649014 1.18027848
Y 4.93970776 2.53308932 1.12263131
Cu 0.00000000 0.00000000 -3.5321748399999997 0 0 0
Cu 0.00000000 4.70957000 -3.5321748399999997 0 0 0
Cu 3.33017000 7.06435500 -1.1773013999999975 0 0 0
Cu 3.33017000 2.35478500 -1.1773013999999975 0 0 0
Cu 0.41973463 4.94307048 1.53806985
Cu 6.56110093 0.16059634 1.40545429
Cu 3.58332952 2.01126896 3.50944075
Cu 2.72454528 6.74485777 3.13892911
Ge 0.00000000 2.35478500 -1.1773013999999975 0 0 0
Ge 0.00000000 7.06435500 -1.1773013999999975 0 0 0
Ge 3.33017000 4.70957000 -3.5321748399999997 0 0 0
Ge 3.33017000 0.00000000 -3.5321748399999997 0 0 0
Ge 0.17902994 6.78677294 3.47885798
Ge 6.18132835 2.02257193 3.63501956
Ge 3.34881895 9.40972086 1.40843138
Ge 3.03584958 4.76778029 1.52183121
C 2.21096647 1.90021730 5.16984169
O 2.19418241 2.89412496 5.91681913
