&CONTROL
calculation = 'relax'
prefix = 'scf'
pseudo_dir = '/vol0403/data/hp230205/u10028/POT_HYBRID_KKJUS_GBRV'
outdir = './data'
tprnfor = .true.
nstep = 50
disk_io = 'non'
/
&SYSTEM
ibrav = 0
ecutwfc = 50.0
ecutrho = 400
occupations = 'smearing'
smearing = 'mp'
degauss = 0.01
assume_isolated = 'esm'
esm_bc = 'bc1'
input_dft = 'BEEF-VDW'
nosym = .true.
nspin = 1
ntyp = 6
nat = 18
/
&ELECTRONS
electron_maxstep = 200
mixing_beta = 0.1
conv_thr = 1e-06
/
&IONS
ion_dynamics = 'bfgs'
upscale = 1.0
/
&CELL
/

K_POINTS {automatic}
8 8 1 0 0 0

ATOMIC_SPECIES
C 12.01 C.pbe-n-rrkjus_psl.1.0.0.UPF
Li 6.941 Li.pbe-sl-rrkjus_psl.1.0.0.UPF
Mg 24.30 Mg.pbe-spnl-rrkjus_psl.1.0.0.UPF
O 15.99 O.pbe-n-rrkjus_psl.1.0.0.UPF
Pd 106.4 Pd.pbe-n-rrkjus_psl.1.0.0.UPF
Sn 118.7 Sn.pbe-dn-rrkjus_psl.1.0.0.UPF


CELL_PARAMETERS {angstrom}
6.52546000 0.00000000 0.00000000
0.00000000 6.52546000 0.00000000
0.00000000 0.00000000 24.89410000

ATOMIC_POSITIONS {angstrom}
Li 6.52539475 0.00000000 2.88472831
Li 0.00000000 3.26273000 -0.8157796600000005 0 0 0
Li 3.26273000 0.00000000 -0.8157796600000005 0 0 0
Li 3.26273000 3.26273000 2.92854192
Mg 1.63619384 1.63619384 0.86158480
Mg 1.63136500 4.89409500 -2.447090030000002 0 0 0
Mg 4.89409500 1.63136500 -2.447090030000002 0 0 0
Mg 4.88920091 4.88920091 0.86183374
Sn 4.89513907 1.63038618 0.94398427
Sn 4.89409500 4.89409500 -2.447090030000002 0 0 0
Sn 1.63136500 1.63136500 -2.447090030000002 0 0 0
Sn 1.63032093 4.89507382 0.94398427
Pd 0.00000000 3.26273000 2.31042142
Pd 0.00000000 0.00000000 -0.8157796600000005 0 0 0
Pd 3.26273000 3.26273000 -0.8157796600000005 0 0 0
Pd 3.26273000 0.00000000 2.31042142
C 0.00000000 0.00000000 4.98678611
O 0.00000000 0.00006525 6.12668695
