&CONTROL
calculation = 'relax'
prefix = 'scf'
pseudo_dir = '/vol0004/mdt0/data/hp150275/u10028/POT_KKJUS'
outdir = './data'
tprnfor = .true.
nstep = 50
disk_io = 'non'
/
&SYSTEM
ibrav = 0
ecutwfc = 50.0
ecutrho = 400
occupations = 'smearing'
smearing = 'mp'
degauss = 0.01
assume_isolated = 'esm'
esm_bc = 'bc1'
input_dft = 'BEEF-VDW'
nosym = .true.
nspin = 1
ntyp = 4
nat = 17
/
&ELECTRONS
electron_maxstep = 200
mixing_beta = 0.1
conv_thr = 1e-06
/
&IONS
ion_dynamics = 'bfgs'
upscale = 1.0
/
&CELL
/

K_POINTS {automatic}
8 8 1 0 0 0

ATOMIC_SPECIES
C 12.01 C.pbe-n-rrkjus_psl.1.0.0.UPF
Pb 207.2 Pb.pbe-dn-rrkjus_psl.1.0.0.UPF
Pd 106.4 Pd.pbe-n-rrkjus_psl.1.0.0.UPF
Y 88.90 Y.pbe-spn-rrkjus_psl.1.0.0.UPF

CELL_PARAMETERS {angstrom}
6.95998000 0.00000000 0.00000000
-0.00000000 6.95998000 0.00000000
0.00000000 0.00000000 25.22000000

ATOMIC_POSITIONS {angstrom}
Y 0.00000000 0.00000000 -2.610017799999998 0 0 0
Y 3.47999000 3.47999000 -2.610017799999998 0 0 0
Y 3.47999000 -0.00000000 0.87009000
Y 0.00000000 3.47999000 0.87009000
Pd 1.73999500 1.73999500 -0.8700899999999976 0 0 0
Pd 5.21998500 5.21998500 2.61001780
Pd 5.21998500 1.73999500 -0.8700899999999976 0 0 0
Pd 1.73999500 5.21998500 2.61001780
Pd 5.21998500 5.21998500 -0.8700899999999976 0 0 0
Pd 1.73999500 1.73999500 2.61001780
Pd 1.73999500 5.21998500 -0.8700899999999976 0 0 0
Pd 5.21998500 1.73999500 2.61001780
Pb 0.00000000 0.00000000 0.87009000
Pb 3.47999000 0.00000000 -2.610017799999998 0 0 0
Pb 0.00000000 3.47999000 -2.610017799999998 0 0 0
Pb 3.47999000 3.47999000 0.87009000
C 0.00000000 0.00000000 3.40999620
