&CONTROL
calculation = 'relax'
prefix = 'scf'
pseudo_dir = '/vol0403/data/hp230205/u10028/POT_HYBRID_KKJUS_GBRV'
outdir = './data'
tprnfor = .true.
nstep = 50
disk_io = 'non'
/
&SYSTEM
ibrav = 0
ecutwfc = 50.0
ecutrho = 400
occupations = 'smearing'
smearing = 'mp'
degauss = 0.01
assume_isolated = 'esm'
esm_bc = 'bc1'
input_dft = 'BEEF-VDW'
nosym = .true.
nspin = 2
ntyp = 5
nat = 33
starting_magnetization(1) = 0.0
starting_magnetization(2) = 0.0
starting_magnetization(3) = 0.0
starting_magnetization(4) = 0.001
starting_magnetization(5) = 0.0
/
&ELECTRONS
electron_maxstep = 200
mixing_beta = 0.1
conv_thr = 1e-06
/
&IONS
ion_dynamics = 'bfgs'
upscale = 1.0
/
&CELL
/

K_POINTS {automatic}
9 6 2 0  0  0

ATOMIC_SPECIES
Al 26.98 Al.pbe-nl-rrkjus_psl.1.0.0.UPF
C 12.01 C.pbe-n-rrkjus_psl.1.0.0.UPF
Li 6.941 Li.pbe-sl-rrkjus_psl.1.0.0.UPF
Ni 58.69 ni_pbe_v1.4.uspp.F.UPF
Pd 106.4 Pd.pbe-n-rrkjus_psl.1.0.0.UPF


CELL_PARAMETERS {angstrom}
5.91240000 0.00000000 0.00000000
0.00000000 8.36140000 0.00000000
0.00000000 0.00000000 26.27110000

ATOMIC_POSITIONS {angstrom}
Li 0.00000000 2.09035000 -1.0450643600000014 0 0 0
Li 0.00000000 6.27105000 -1.0450643600000014 0 0 0
Li 2.95620000 4.18070000 -3.135455780000001 0 0 0
Li 2.95620000 0.00000000 -3.135455780000001 0 0 0
Li 0.05717291 6.11887252 3.60623390
Li 0.05717291 2.24252748 3.60623390
Li 2.99143790 0.00000000 1.07501341
Li 2.96991677 4.18070000 0.96520021
Al 0.00000000 0.00000000 -3.135455780000001 0 0 0
Al 0.00000000 4.18070000 -3.135455780000001 0 0 0
Al 2.95620000 6.27105000 -1.0450643600000014 0 0 0
Al 2.95620000 2.09035000 -1.0450643600000014 0 0 0
Al 5.90861606 4.18070000 1.08289474
Al 0.00413868 0.00000000 0.88507336
Al 2.93952703 1.99436113 3.22661650
Al 2.93946791 6.36703887 3.22661650
Ni 1.47810000 0.00000000 -1.0450643600000014 0 0 0
Ni 1.47810000 4.18070000 -1.0450643600000014 0 0 0
Ni 4.43430000 2.09035000 -3.135455780000001 0 0 0
Ni 4.43430000 6.27105000 -3.135455780000001 0 0 0
Ni 1.65854645 4.18070000 2.95155809
Ni 1.31645498 0.00008361 2.94998182
Ni 4.46439412 6.28074922 1.10469975
Ni 4.46445324 2.08065078 1.10469975
Pd 4.43430000 0.00000000 -1.0450643600000014 0 0 0
Pd 4.43430000 4.18070000 -1.0450643600000014 0 0 0
Pd 1.47810000 2.09035000 -3.135455780000001 0 0 0
Pd 1.47810000 6.27105000 -3.135455780000001 0 0 0
Pd 4.30298560 4.18070000 3.04639676
Pd 4.69420910 0.00000000 3.04508320
Pd 1.46059930 6.28225428 1.08867438
Pd 1.46059930 2.07914572 1.08867438
C 2.83818850 0.00000000 3.84608904
