&CONTROL
calculation = 'relax'
prefix = 'scf'
pseudo_dir = '/vol0004/mdt0/data/hp150275/u10028/POT_HYBRID_KKJUS_GBRV'
outdir = './data'
tprnfor = .true.
nstep = 50
disk_io = 'non'
/
&SYSTEM
ibrav = 0
ecutwfc = 50.0
ecutrho = 400
occupations = 'smearing'
smearing = 'mp'
degauss = 0.01
assume_isolated = 'esm'
esm_bc = 'bc1'
input_dft = 'BEEF-VDW'
nosym = .true.
nspin = 2
ntyp = 3
nat = 17
starting_magnetization(1) = 0.0
starting_magnetization(2) = 0.0
starting_magnetization(3) = 0.1
/
&ELECTRONS
electron_maxstep = 200
mixing_beta = 0.1
conv_thr = 1e-06
/
&IONS
ion_dynamics = 'bfgs'
upscale = 1.0
/
&CELL
/

K_POINTS {automatic}
10 10 2 0  0  0

ATOMIC_SPECIES
Au 196.9 Au.pbe-n-rrkjus_psl.1.0.0.UPF
C 12.01 C.pbe-n-rrkjus_psl.1.0.0.UPF
Mn 54.93 mn_pbe_v1.5.uspp.F.UPF

CELL_PARAMETERS {angstrom}
6.45068000 0.00000000 0.00000000
0.00000000 6.45068000 0.00000000
0.00000000 0.00000000 25.03480000

ATOMIC_POSITIONS {angstrom}
Mn 0.00000000 0.00000000 22.99045823
Mn 0.00000000 0.00000000 1.31232422
Mn 0.00000000 3.22534000 22.99045823
Mn 0.00000000 3.22534000 1.31232422
Mn 3.22534000 0.00000000 22.99045823
Mn 3.22534000 0.00000000 1.31232422
Mn 3.22534000 3.22534000 22.99045823
Mn 3.22534000 3.22534000 1.31232422
Au 1.61267000 1.61267000 24.66879122
Au 1.61267000 1.61267000 2.99040686
Au 1.61267000 4.83801000 24.66879122
Au 1.61267000 4.83801000 2.99040686
Au 4.83801000 1.61267000 24.66879122
Au 4.83801000 1.61267000 2.99040686
Au 4.83801000 4.83801000 24.66879122
Au 4.83801000 4.83801000 2.99040686
C 0.00000000 0.00000000 3.79051907
