&CONTROL
calculation = 'relax'
prefix = 'scf'
pseudo_dir = '/vol0004/mdt0/data/hp150275/u10028/POT_KKJUS'
outdir = './data'
tprnfor = .true.
nstep = 50
disk_io = 'non'
/
&SYSTEM
ibrav = 0
ecutwfc = 50.0
ecutrho = 400
occupations = 'smearing'
smearing = 'mp'
degauss = 0.01
assume_isolated = 'esm'
esm_bc = 'bc1'
input_dft = 'BEEF-VDW'
nosym = .true.
nspin = 1
ntyp = 4
nat = 33
/
&ELECTRONS
electron_maxstep = 200
mixing_beta = 0.1
conv_thr = 1e-06
/
&IONS
ion_dynamics = 'bfgs'
upscale = 1.0
/
&CELL
/

K_POINTS {automatic}
8 6 1 0 0 0

ATOMIC_SPECIES
Al 26.98 Al.pbe-nl-rrkjus_psl.1.0.0.UPF
C 12.01 C.pbe-n-rrkjus_psl.1.0.0.UPF
Ti 47.86 Ti.pbe-spn-rrkjus_psl.1.0.0.UPF
Zr 91.22 Zr.pbe-spn-rrkjus_psl.1.0.0.UPF

CELL_PARAMETERS {angstrom}
6.81091000 0.00000000 0.00000000
0.00000000 9.63207000 0.00000000
0.00000000 0.00000000 27.22410000

ATOMIC_POSITIONS {angstrom}
Zr 1.70272750 0.00000000 -1.2041219400000003 0 0 0
Zr 5.10818250 4.81603500 -1.2041219400000003 0 0 0
Zr 5.10818250 0.00000000 -1.2041219400000003 0 0 0
Zr 1.70272750 4.81603500 -1.2041219400000003 0 0 0
Zr 5.10818250 7.22405250 -3.6120935900000006 0 0 0
Zr 1.70272750 2.40801750 -3.6120935900000006 0 0 0
Zr 1.70272750 7.22405250 -3.6120935900000006 0 0 0
Zr 5.10818250 2.40801750 -3.6120935900000006 0 0 0
Zr 1.74223078 4.60220305 3.74031910
Zr 5.07297010 9.32817819 3.70274984
Zr 5.07297010 5.12021577 3.70274984
Zr 1.74236700 0.21412092 3.74059134
Zr 5.08202861 2.40782486 0.99803551
Zr 1.75299202 7.22376354 1.06473455
Zr 1.69802797 2.40811382 1.29232803
Zr 5.09503744 7.22405250 1.27844374
Ti 0.00000000 0.00000000 -3.6120935900000006 0 0 0
Ti 3.40545500 2.40801750 -1.2041219400000003 0 0 0
Ti 3.40545500 7.22405250 -1.2041219400000003 0 0 0
Ti 0.00000000 4.81603500 -3.6120935900000006 0 0 0
Ti 6.74811341 4.78338228 1.50794290
Ti 3.12218925 7.22424514 3.47216171
Ti 3.78237076 2.40830646 3.49366875
Ti 6.74865828 0.03236376 1.50821514
Al 0.00000000 7.22405250 -1.2041219400000003 0 0 0
Al 3.40545500 0.00000000 -3.6120935900000006 0 0 0
Al 0.00000000 2.40801750 -1.2041219400000003 0 0 0
Al 3.40545500 4.81603500 -3.6120935900000006 0 0 0
Al 6.57606982 2.40801750 3.52007613
Al 3.42452555 4.80014208 1.31982437
Al 0.23286501 7.22414882 3.45664398
Al 3.42411689 0.01560395 1.31982437
C 1.78813631 2.40811382 3.79476730
