&CONTROL
calculation = 'relax'
prefix = 'scf'
pseudo_dir = '/vol0004/mdt0/data/hp150275/u10028/POT_KKJUS'
outdir = './data'
tprnfor = .true.
nstep = 50
disk_io = 'non'
/
&SYSTEM
ibrav = 0
ecutwfc = 50.0
ecutrho = 400
occupations = 'smearing'
smearing = 'mp'
degauss = 0.01
assume_isolated = 'esm'
esm_bc = 'bc1'
input_dft = 'BEEF-VDW'
nosym = .true.
nspin = 1
ntyp = 3
nat = 33
/
&ELECTRONS
electron_maxstep = 200
mixing_beta = 0.1
conv_thr = 1e-06
/
&IONS
ion_dynamics = 'bfgs'
upscale = 1.0
/
&CELL
/

K_POINTS {automatic}
9 6 2 0  0  0

ATOMIC_SPECIES
Be 9.012 Be.pbe-n-rrkjus_psl.1.0.0.UPF
C 12.01 C.pbe-n-rrkjus_psl.1.0.0.UPF
Cu 63.54 Cu.pbe-dn-rrkjus_psl.1.0.0.UPF

CELL_PARAMETERS {angstrom}
5.39777000 0.00000000 0.00000000
0.00000000 7.63360000 0.00000000
0.00000000 0.00000000 25.72520000

ATOMIC_POSITIONS {angstrom}
Be 0.00000000 0.00000000 -2.8627002600000004 0 0 0
Be 0.00000000 1.90840000 -0.9541476700000011 0 0 0
Be 0.00000000 0.00000000 0.92790796
Be 0.00000000 1.66748358 3.13795990
Be 0.00000000 3.81680000 -2.8627002600000004 0 0 0
Be 0.00000000 5.72520000 -0.9541476700000011 0 0 0
Be 0.00000000 3.81680000 0.89060642
Be 0.00000000 5.96611642 3.13770264
Be 2.69888500 0.00000000 -2.8627002600000004 0 0 0
Be 2.69888500 1.90840000 -0.9541476700000011 0 0 0
Be 2.69888500 0.00000000 0.81960487
Be 2.69888500 2.03061394 2.77420557
Be 2.69888500 3.81680000 -2.8627002600000004 0 0 0
Be 2.69888500 5.72520000 -0.9541476700000011 0 0 0
Be 2.69888500 3.81680000 0.99119196
Be 2.69888500 5.60298606 2.77420557
Cu 1.34944250 1.90840000 -2.8627002600000004 0 0 0
Cu 1.34944250 0.00000000 -0.9541476700000011 0 0 0
Cu 1.31770361 1.93160614 0.94565835
Cu 1.56762036 0.00000000 2.72712845
Cu 1.34944250 5.72520000 -2.8627002600000004 0 0 0
Cu 1.34944250 3.81680000 -0.9541476700000011 0 0 0
Cu 1.31764963 5.70199386 0.94565835
Cu 1.26826004 3.81680000 2.84700788
Cu 4.04832750 1.90840000 -2.8627002600000004 0 0 0
Cu 4.04832750 0.00000000 -0.9541476700000011 0 0 0
Cu 4.08006639 1.93160614 0.94565835
Cu 3.83020361 0.00000000 2.72712845
Cu 4.04832750 5.72520000 -2.8627002600000004 0 0 0
Cu 4.04832750 3.81680000 -0.9541476700000011 0 0 0
Cu 4.08012037 5.70199386 0.94565835
Cu 4.12945598 3.81680000 2.84700788
C 0.00000000 0.00000000 3.68410589
