&CONTROL
calculation = 'relax'
prefix = 'scf'
pseudo_dir = '/vol0403/data/hp230205/u10028/POT_HYBRID_KKJUS_GBRV'
outdir = './data'
tprnfor = .true.
nstep = 70
disk_io = 'non'
/
&SYSTEM
ibrav = 0
ecutwfc = 50.0
ecutrho = 400
occupations = 'smearing'
smearing = 'mp'
degauss = 0.01
assume_isolated = 'esm'
esm_bc = 'bc1'
input_dft = 'BEEF-VDW'
nosym = .true.
nspin = 1
ntyp = 6
nat = 34
/
&ELECTRONS
electron_maxstep = 200
mixing_beta = 0.1
conv_thr = 1e-06
/
&IONS
ion_dynamics = 'bfgs'
upscale = 1.0
/
&CELL
/

K_POINTS {automatic}
6 6 1 0 0 0

ATOMIC_SPECIES
C 12.01 C.pbe-n-rrkjus_psl.1.0.0.UPF
Mg 24.30 Mg.pbe-spnl-rrkjus_psl.1.0.0.UPF
O 15.99 O.pbe-n-rrkjus_psl.1.0.0.UPF
Pd 106.4 Pd.pbe-n-rrkjus_psl.1.0.0.UPF
Sn 118.7 Sn.pbe-dn-rrkjus_psl.1.0.0.UPF
Y 88.90 Y.pbe-spn-rrkjus_psl.1.0.0.UPF


CELL_PARAMETERS {angstrom}
7.00634000 0.00000000 0.00000000
-0.00000000 9.90846000 0.00000000
0.00000000 0.00000000 27.43130000

ATOMIC_POSITIONS {angstrom}
Y 0.00000000 2.47711500 -1.2385231899999987 0 0 0
Y 0.00000000 7.43134500 -1.2385231899999987 0 0 0
Y 3.50317000 4.95423000 -3.7155695800000004 0 0 0
Y 3.50317000 0.00000000 -3.7155695800000004 0 0 0
Y 0.14489111 7.43134500 3.89935930
Y 0.15533056 2.47711500 3.77427257
Y 3.44081357 9.85000009 1.32657767
Y 3.44081357 5.01268991 1.32657767
Mg 0.00000000 0.00000000 -3.7155695800000004 0 0 0
Mg 0.00000000 4.95423000 -3.7155695800000004 0 0 0
Mg 3.50317000 7.43134500 -1.2385231899999987 0 0 0
Mg 3.50317000 2.47711500 -1.2385231899999987 0 0 0
Mg 0.09164293 4.91727144 1.38006870
Mg 0.09164293 0.03705764 1.38006870
Mg 3.60251990 2.47711500 3.78277627
Mg 3.55585768 7.43134500 3.76494593
Sn 1.75158500 0.00000000 -1.2385231899999987 0 0 0
Sn 1.75158500 4.95423000 -1.2385231899999987 0 0 0
Sn 5.25475500 2.47711500 -3.7155695800000004 0 0 0
Sn 5.25475500 7.43134500 -3.7155695800000004 0 0 0
Sn 2.02020808 4.94769042 4.26995616
Sn 2.02006795 0.00663867 4.26995616
Sn 5.38997736 7.43134500 1.38116595
Sn 5.24501619 2.47711500 1.31313633
Pd 5.25475500 0.00000000 -1.2385231899999987 0 0 0
Pd 5.25475500 4.95423000 -1.2385231899999987 0 0 0
Pd 1.75158500 2.47711500 -3.7155695800000004 0 0 0
Pd 1.75158500 7.43134500 -3.7155695800000004 0 0 0
Pd 5.21804178 4.99336842 3.46978514
Pd 5.21804178 9.86932158 3.46978514
Pd 1.52317832 7.43134500 1.34331076
Pd 1.80805610 2.47711500 1.16144124
C 0.02501263 2.47701592 6.24747858
O 6.97453122 2.47701592 7.39383260
