&CONTROL
calculation = 'relax'
prefix = 'scf'
pseudo_dir = '/vol0004/mdt0/data/hp150275/u10028/POT_HYBRID_KKJUS_GBRV'
outdir = './data'
tprnfor = .true.
nstep = 50
disk_io = 'non'
/
&SYSTEM
ibrav = 0
ecutwfc = 50.0
ecutrho = 400
occupations = 'smearing'
smearing = 'mp'
degauss = 0.01
assume_isolated = 'esm'
esm_bc = 'bc1'
input_dft = 'BEEF-VDW'
nosym = .true.
nspin = 2
ntyp = 4
nat = 33
starting_magnetization(1) = 0.0
starting_magnetization(2) = 0.0
starting_magnetization(3) = 0.1
starting_magnetization(4) = 0.001
/
&ELECTRONS
electron_maxstep = 300
mixing_beta = 0.1
conv_thr = 1e-06
/
&IONS
ion_dynamics = 'bfgs'
upscale = 1.0
/
&CELL
/

K_POINTS {automatic}
9 6 2 0  0  0

ATOMIC_SPECIES
C 12.01 C.pbe-n-rrkjus_psl.1.0.0.UPF
Ga 69.72 Ga.pbe-dnl-rrkjus_psl.1.0.0.UPF
Mn 54.93 mn_pbe_v1.5.uspp.F.UPF
Ni 58.69 ni_pbe_v1.4.uspp.F.UPF

CELL_PARAMETERS {angstrom}
5.88011000 0.00000000 0.00000000
0.00000000 8.31574000 0.00000000
0.00000000 0.00000000 26.23680000

ATOMIC_POSITIONS {angstrom}
Mn 0.00000000 0.00000000 -3.118506049999997 0 0 0
Mn 2.94005500 2.07893500 -1.0395020200000005 0 0 0
Mn 2.94005500 6.23680500 -1.0395020200000005 0 0 0
Mn 0.00000000 4.15787000 -3.118506049999997 0 0 0
Mn 0.00000000 4.15787000 0.94085165
Mn 2.94005500 6.11281732 3.15759888
Mn 2.94005500 2.20292268 3.15759888
Mn 0.00000000 0.00000000 1.09013904
Ga 0.00000000 6.23680500 -1.0395020200000005 0 0 0
Ga 2.94005500 0.00000000 -3.118506049999997 0 0 0
Ga 0.00000000 2.07893500 -1.0395020200000005 0 0 0
Ga 2.94005500 4.15787000 -3.118506049999997 0 0 0
Ga 0.00000000 2.08924652 3.20823590
Ga 2.94005500 4.15803631 1.03582886
Ga 0.00000000 6.22657664 3.20823590
Ga 2.94005500 8.31540737 0.92825798
Ni 1.47002750 0.00000000 -1.0395020200000005 0 0 0
Ni 4.41008250 4.15787000 -1.0395020200000005 0 0 0
Ni 4.41008250 0.00000000 -1.0395020200000005 0 0 0
Ni 1.47002750 4.15787000 -1.0395020200000005 0 0 0
Ni 4.41008250 6.23680500 -3.118506049999997 0 0 0
Ni 1.47002750 2.07893500 -3.118506049999997 0 0 0
Ni 1.47002750 6.23680500 -3.118506049999997 0 0 0
Ni 4.41008250 2.07893500 -3.118506049999997 0 0 0
Ni 1.33278573 4.15787000 2.95688736
Ni 4.16300028 0.00008316 3.01828147
Ni 4.54732427 4.15787000 2.95688736
Ni 1.71710972 0.00008316 3.01828147
Ni 4.41484539 2.08783284 1.03425466
Ni 1.46508821 6.22782400 1.03425466
Ni 1.46526461 2.08783284 1.03425466
Ni 4.41502179 6.22782400 1.03425466
C 0.00000000 0.00008316 3.46824259
