&CONTROL
calculation = 'relax'
prefix = 'scf'
pseudo_dir = '/vol0004/mdt0/data/hp150275/u10028/POT_KKJUS'
outdir = './data'
tprnfor = .true.
nstep = 50
disk_io = 'non'
/
&SYSTEM
ibrav = 0
ecutwfc = 50.0
ecutrho = 400
occupations = 'smearing'
smearing = 'mp'
degauss = 0.01
assume_isolated = 'esm'
esm_bc = 'bc1'
input_dft = 'BEEF-VDW'
nosym = .true.
nspin = 1
ntyp = 4
nat = 33
/
&ELECTRONS
electron_maxstep = 200
mixing_beta = 0.1
conv_thr = 1e-06
/
&IONS
ion_dynamics = 'bfgs'
upscale = 1.0
/
&CELL
/

K_POINTS {automatic}
9 6 2 0  0  0

ATOMIC_SPECIES
C 12.01 C.pbe-n-rrkjus_psl.1.0.0.UPF
Ga 69.72 Ga.pbe-dnl-rrkjus_psl.1.0.0.UPF
Li 6.941 Li.pbe-sl-rrkjus_psl.1.0.0.UPF
Pd 106.4 Pd.pbe-n-rrkjus_psl.1.0.0.UPF

CELL_PARAMETERS {angstrom}
6.24448000 0.00000000 0.00000000
0.00000000 8.83103000 0.00000000
0.00000000 0.00000000 26.62330000

ATOMIC_POSITIONS {angstrom}
Li 0.00000000 0.00000000 -3.3116722900000006 0 0 0
Li 3.12224000 2.20775750 -1.1038020199999998 0 0 0
Li 3.12224000 6.62327250 -1.1038020199999998 0 0 0
Li 0.00000000 4.41551500 -3.3116722900000006 0 0 0
Li 0.00000000 4.41551500 1.10566565
Li 3.12224000 6.30685670 3.55021706
Li 3.12224000 2.52417330 3.55021706
Li 0.00000000 0.00000000 1.33382733
Ga 1.56112000 0.00000000 -1.1038020199999998 0 0 0
Ga 4.68336000 4.41551500 -1.1038020199999998 0 0 0
Ga 4.68336000 0.00000000 -1.1038020199999998 0 0 0
Ga 1.56112000 4.41551500 -1.1038020199999998 0 0 0
Ga 4.68336000 6.62327250 -3.3116722900000006 0 0 0
Ga 1.56112000 2.20775750 -3.3116722900000006 0 0 0
Ga 1.56112000 6.62327250 -3.3116722900000006 0 0 0
Ga 4.68336000 2.20775750 -3.3116722900000006 0 0 0
Ga 1.34618500 4.41551500 3.50548991
Ga 4.36601553 0.00000000 3.46182770
Ga 4.89829500 4.41551500 3.50548991
Ga 1.87846447 0.00000000 3.46182770
Ga 4.62690990 2.24493614 1.14213957
Ga 1.61757010 6.58609386 1.14213957
Ga 1.61757010 2.24493614 1.14213957
Ga 4.62690990 6.58609386 1.14213957
Pd 0.00000000 6.62327250 -1.1038020199999998 0 0 0
Pd 3.12224000 0.00000000 -3.3116722900000006 0 0 0
Pd 0.00000000 2.20775750 -1.1038020199999998 0 0 0
Pd 3.12224000 4.41551500 -3.3116722900000006 0 0 0
Pd 0.00000000 2.11644465 3.17136750
Pd 3.12224000 4.41551500 1.06147097
Pd 0.00000000 6.71458535 3.17136750
Pd 3.12224000 0.00000000 0.98932183
C 0.00000000 0.00000000 3.82656691
