&CONTROL
calculation = 'relax'
prefix = 'scf'
pseudo_dir = '/vol0004/mdt0/data/hp150275/u10028/POT_KKJUS'
outdir = './data'
tprnfor = .true.
nstep = 50
disk_io = 'non'
/
&SYSTEM
ibrav = 0
ecutwfc = 50.0
ecutrho = 400
occupations = 'smearing'
smearing = 'mp'
degauss = 0.01
assume_isolated = 'esm'
esm_bc = 'bc1'
input_dft = 'BEEF-VDW'
nosym = .true.
nspin = 1
ntyp = 4
nat = 18
/
&ELECTRONS
electron_maxstep = 200
mixing_beta = 0.1
conv_thr = 1e-06
/
&IONS
ion_dynamics = 'bfgs'
upscale = 1.0
/
&CELL
/

K_POINTS {automatic}
6 8 1 0 0 0

ATOMIC_SPECIES
C 12.01 C.pbe-n-rrkjus_psl.1.0.0.UPF
O 15.99 O.pbe-n-rrkjus_psl.1.0.0.UPF
Pt 195.0 Pt.pbe-n-rrkjus_psl.1.0.0.UPF
Sc 44.95 Sc.pbe-spn-rrkjus_psl.1.0.0.UPF

CELL_PARAMETERS {angstrom}
8.06651000 0.00000000 0.00000000
0.00000000 5.70388000 0.00000000
0.00000000 0.00000000 24.27790000

ATOMIC_POSITIONS {angstrom}
Sc 0.00000000 0.00000000 -2.138882989999999 0 0 0
Sc 8.04787636 2.86095213 0.76451107
Sc 4.03325500 0.00000000 -2.138882989999999 0 0 0
Sc 4.05196930 2.86100917 0.76451107
Pt 0.00000000 2.85194000 -2.138882989999999 0 0 0
Pt 2.01662750 4.27791000 -0.7130419199999984 0 0 0
Pt 2.01662750 1.42597000 -0.7130419199999984 0 0 0
Pt 8.06562268 0.01226334 0.62394203
Pt 2.01670817 1.29985721 2.13208518
Pt 2.01678883 4.15242464 2.07090487
Pt 4.03325500 2.85194000 -2.138882989999999 0 0 0
Pt 6.04988250 4.27791000 -0.7130419199999984 0 0 0
Pt 6.04988250 1.42597000 -0.7130419199999984 0 0 0
Pt 4.03406165 0.01220630 0.62418481
Pt 6.04988250 1.49259132 2.07770268
Pt 6.04980183 4.28595247 2.05803758
C 2.01670817 1.65788976 3.97283556
O 2.01662750 1.82797946 5.11511075
