&CONTROL
calculation = 'relax'
prefix = 'scf'
pseudo_dir = '/vol0403/data/hp230205/u10028/POT_HYBRID_KKJUS_GBRV'
outdir = './data'
tprnfor = .true.
nstep = 50
disk_io = 'non'
/
&SYSTEM
ibrav = 0
ecutwfc = 50.0
ecutrho = 400
occupations = 'smearing'
smearing = 'mp'
degauss = 0.01
assume_isolated = 'esm'
esm_bc = 'bc1'
input_dft = 'BEEF-VDW'
nosym = .true.
nspin = 1
ntyp = 5
nat = 33
/
&ELECTRONS
electron_maxstep = 200
mixing_beta = 0.1
conv_thr = 1e-06
/
&IONS
ion_dynamics = 'bfgs'
upscale = 1.0
/
&CELL
/

K_POINTS {automatic}
9 6 2 0  0  0

ATOMIC_SPECIES
C 12.01 C.pbe-n-rrkjus_psl.1.0.0.UPF
Ge 72.64 Ge.pbe-dn-rrkjus_psl.1.0.0.UPF
Li 6.941 Li.pbe-sl-rrkjus_psl.1.0.0.UPF
Pd 106.4 Pd.pbe-n-rrkjus_psl.1.0.0.UPF
Zr 91.22 Zr.pbe-spn-rrkjus_psl.1.0.0.UPF


CELL_PARAMETERS {angstrom}
6.47880000 0.00000000 0.00000000
0.00000000 9.16240000 0.00000000
0.00000000 0.00000000 26.87180000

ATOMIC_POSITIONS {angstrom}
Li 1.61970000 0.00000000 -1.145276120000002 0 0 0
Li 1.61970000 4.58120000 -1.145276120000002 0 0 0
Li 4.85910000 2.29060000 -3.4358283500000013 0 0 0
Li 4.85910000 6.87180000 -3.4358283500000013 0 0 0
Li 1.60032839 4.74676457 3.56481299
Li 1.60032839 8.99683543 3.56481299
Li 4.82813134 6.87180000 1.09825047
Li 4.86752244 2.29060000 1.19901972
Zr 4.85910000 0.00000000 -1.145276120000002 0 0 0
Zr 4.85910000 4.58120000 -1.145276120000002 0 0 0
Zr 1.61970000 2.29060000 -3.4358283500000013 0 0 0
Zr 1.61970000 6.87180000 -3.4358283500000013 0 0 0
Zr 4.82962146 4.40803064 3.57045607
Zr 4.82962146 0.17316936 3.57045607
Zr 1.66615300 6.87180000 1.20251305
Zr 1.56709214 2.29060000 1.08185867
Ge 0.00000000 0.00000000 -3.4358283500000013 0 0 0
Ge 0.00000000 4.58120000 -3.4358283500000013 0 0 0
Ge 3.23940000 6.87180000 -1.145276120000002 0 0 0
Ge 3.23940000 2.29060000 -1.145276120000002 0 0 0
Ge 6.44452715 4.64103047 1.30193871
Ge 6.44452715 9.10256953 1.30193871
Ge 2.93282318 2.29060000 3.42911040
Ge 3.37240976 6.87180000 3.47747964
Pd 0.00000000 2.29060000 -1.145276120000002 0 0 0
Pd 0.00000000 6.87180000 -1.145276120000002 0 0 0
Pd 3.23940000 4.58120000 -3.4358283500000013 0 0 0
Pd 3.23940000 0.00000000 -3.4358283500000013 0 0 0
Pd 6.29460772 6.87180000 3.24503857
Pd 0.31059367 2.29060000 3.44496476
Pd 3.30904710 0.07073373 1.31806179
Pd 3.30904710 4.51046627 1.31806179
C 4.74371257 2.29060000 4.18420798
