&CONTROL
calculation = 'relax'
prefix = 'scf'
pseudo_dir = '/vol0004/mdt0/data/hp150275/u10028/POT_KKJUS'
outdir = './data'
tprnfor = .true.
nstep = 50
disk_io = 'non'
/
&SYSTEM
ibrav = 0
ecutwfc = 50.0
ecutrho = 400
occupations = 'smearing'
smearing = 'mp'
degauss = 0.01
assume_isolated = 'esm'
esm_bc = 'bc1'
input_dft = 'BEEF-VDW'
nosym = .true.
nspin = 1
ntyp = 3
nat = 17
/
&ELECTRONS
electron_maxstep = 200
mixing_beta = 0.1
conv_thr = 1e-06
/
&IONS
ion_dynamics = 'bfgs'
upscale = 1.0
/
&CELL
/

K_POINTS {automatic}
6 8 1 0 0 0

ATOMIC_SPECIES
C 12.01 C.pbe-n-rrkjus_psl.1.0.0.UPF
Pt 195.0 Pt.pbe-n-rrkjus_psl.1.0.0.UPF
Sn 118.7 Sn.pbe-dn-rrkjus_psl.1.0.0.UPF

CELL_PARAMETERS {angstrom}
8.18271000 0.00000000 0.00000000
0.00000000 5.78605000 0.00000000
0.00000000 0.00000000 24.33950000

ATOMIC_POSITIONS {angstrom}
Sn 0.00000000 0.00000000 -2.1698664200000017 0 0 0
Sn 8.18246452 2.89302500 0.42082996
Sn 4.09135500 0.00000000 -2.1698664200000017 0 0 0
Sn 4.09135500 2.89302500 1.60178249
Pt 0.00000000 2.89302500 -2.1698664200000017 0 0 0
Pt 2.04567750 4.33953750 -0.7233699400000013 0 0 0
Pt 2.04567750 1.44651250 -0.7233699400000013 0 0 0
Pt 0.00000000 0.00000000 0.61554595
Pt 1.51936559 1.50853896 2.33999953
Pt 1.51928377 4.27751104 2.33999953
Pt 4.09135500 2.89302500 -2.1698664200000017 0 0 0
Pt 6.13703250 4.33953750 -0.7233699400000013 0 0 0
Pt 6.13703250 1.44651250 -0.7233699400000013 0 0 0
Pt 4.09135500 0.00000000 0.84506744
Pt 6.66350806 1.50853896 2.33999953
Pt 6.66334441 4.27756890 2.33999953
C 0.00008183 2.89308286 2.89250618
