&CONTROL
calculation = 'relax'
prefix = 'scf'
pseudo_dir = '/vol0403/data/hp230205/u10028/POT_HYBRID_KKJUS_GBRV'
outdir = './data'
tprnfor = .true.
nstep = 50
disk_io = 'non'
/
&SYSTEM
ibrav = 0
ecutwfc = 50.0
ecutrho = 400
occupations = 'smearing'
smearing = 'mp'
degauss = 0.01
assume_isolated = 'esm'
esm_bc = 'bc1'
input_dft = 'BEEF-VDW'
nosym = .true.
nspin = 1
ntyp = 6
nat = 34
/
&ELECTRONS
electron_maxstep = 200
mixing_beta = 0.1
conv_thr = 1e-06
/
&IONS
ion_dynamics = 'bfgs'
upscale = 1.0
/
&CELL
/

K_POINTS {automatic}
6 6 1 0 0 0

ATOMIC_SPECIES
Al 26.98 Al.pbe-nl-rrkjus_psl.1.0.0.UPF
C 12.01 C.pbe-n-rrkjus_psl.1.0.0.UPF
In 114.8 In.pbe-dn-rrkjus_psl.1.0.0.UPF
O 15.99 O.pbe-n-rrkjus_psl.1.0.0.UPF
Pd 106.4 Pd.pbe-n-rrkjus_psl.1.0.0.UPF
Sc 44.95 Sc.pbe-spn-rrkjus_psl.1.0.0.UPF


CELL_PARAMETERS {angstrom}
8.30234000 0.00000000 0.00000000
0.00000000 8.33700000 0.00000000
0.00000000 0.00000000 26.45550000

ATOMIC_POSITIONS {angstrom}
Sc 1.94191733 0.08395359 1.15028514
Sc 2.07558500 0.00000000 -3.2278355500000018 0 0 0
Sc 1.93959267 4.08871491 1.15187247
Sc 2.07558500 4.16850000 -3.2278355500000018 0 0 0
Sc 6.35153917 0.08512077 1.15451802
Sc 6.22675500 0.00000000 -3.2278355500000018 0 0 0
Sc 6.34971266 4.08571359 1.15345980
Sc 6.22675500 4.16850000 -3.2278355500000018 0 0 0
Al 0.00514745 7.93107147 3.26249226
Al 0.00000000 0.00000000 -1.0759451800000015 0 0 0
Al 0.00066419 4.56809241 3.25429105
Al 0.00000000 4.16850000 -1.0759451800000015 0 0 0
Al 4.15050581 8.03178243 2.98074119
Al 4.15117000 0.00000000 -1.0759451800000015 0 0 0
Al 4.15557024 4.47972021 2.98338673
Al 4.15117000 4.16850000 -1.0759451800000015 0 0 0
In 2.58319007 2.08591740 3.55667742
In 2.07558500 2.08425000 -1.0759451800000015 0 0 0
In 2.14067535 6.24007776 3.83763483
In 2.07558500 6.25275000 -1.0759451800000015 0 0 0
In 5.72770134 2.08791828 3.55932297
In 6.22675500 2.08425000 -1.0759451800000015 0 0 0
In 6.16564978 6.25174956 3.79477692
In 6.22675500 6.25275000 -1.0759451800000015 0 0 0
Pd 0.00763815 2.07516267 2.43417056
Pd 0.00000000 2.08425000 -3.2278355500000018 0 0 0
Pd 0.00630978 6.24924846 1.06086555
Pd 0.00000000 6.25275000 -3.2278355500000018 0 0 0
Pd 4.16461979 2.08558392 0.88493648
Pd 4.15117000 2.08425000 -3.2278355500000018 0 0 0
Pd 4.14021091 6.25708524 0.99234581
Pd 4.15117000 6.25275000 -3.2278355500000018 0 0 0
C 1.53211382 2.08666773 6.92022969
O 2.15138536 2.08299945 7.87289225
