&CONTROL
calculation = 'relax'
prefix = 'scf'
pseudo_dir = '/vol0004/mdt0/data/hp150275/u10028/POT_KKJUS'
outdir = './data'
tprnfor = .true.
nstep = 50
disk_io = 'non'
/
&SYSTEM
ibrav = 0
ecutwfc = 50.0
ecutrho = 400
occupations = 'smearing'
smearing = 'mp'
degauss = 0.01
assume_isolated = 'esm'
esm_bc = 'bc1'
input_dft = 'BEEF-VDW'
nosym = .true.
nspin = 1
ntyp = 3
nat = 17
/
&ELECTRONS
electron_maxstep = 200
mixing_beta = 0.1
conv_thr = 1e-06
/
&IONS
ion_dynamics = 'bfgs'
upscale = 1.0
/
&CELL
/

K_POINTS {automatic}
8 8 1 0 0 0

ATOMIC_SPECIES
C 12.01 C.pbe-n-rrkjus_psl.1.0.0.UPF
Os 190.2 Os.pbe-spn-rrkjus_psl.1.0.0.UPF
Ti 47.86 Ti.pbe-spn-rrkjus_psl.1.0.0.UPF

CELL_PARAMETERS {angstrom}
6.19423000 0.00000000 0.00000000
-0.00000000 6.19423000 0.00000000
0.00000000 0.00000000 24.64570000

ATOMIC_POSITIONS {angstrom}
Ti 0.00000000 0.00000000 -1.8597645200000024 0 0 0
Ti 0.00000000 0.00000000 1.23721414
Ti 0.00000000 3.09711500 -1.8597645200000024 0 0 0
Ti 0.00000000 3.09711500 1.23721414
Ti 3.09711500 0.00000000 -1.8597645200000024 0 0 0
Ti 3.09711500 -0.00000000 1.23721414
Ti 3.09711500 3.09711500 -1.8597645200000024 0 0 0
Ti 3.09711500 3.09711500 1.23721414
Os 1.54855750 1.54855750 -0.3112751899999999 0 0 0
Os 1.54855750 1.54855750 2.78570347
Os 1.54855750 4.64567250 -0.3112751899999999 0 0 0
Os 1.54855750 4.64567250 2.78570347
Os 4.64567250 1.54855750 -0.3112751899999999 0 0 0
Os 4.64567250 1.54855750 2.78570347
Os 4.64567250 4.64567250 -0.3112751899999999 0 0 0
Os 4.64567250 4.64567250 2.78570347
C 0.00000000 0.00000000 3.58570289
