&CONTROL
calculation = 'relax'
prefix = 'scf'
pseudo_dir = '/vol0004/mdt0/data/hp150275/u10028/POT_KKJUS'
outdir = './data'
tprnfor = .true.
nstep = 50
disk_io = 'non'
/
&SYSTEM
ibrav = 0
ecutwfc = 50.0
ecutrho = 400
occupations = 'smearing'
smearing = 'mp'
degauss = 0.01
assume_isolated = 'esm'
esm_bc = 'bc1'
input_dft = 'BEEF-VDW'
nosym = .true.
nspin = 1
ntyp = 2
nat = 16
/
&ELECTRONS
electron_maxstep = 200
mixing_beta = 0.1
conv_thr = 1e-06
/
&IONS
ion_dynamics = 'bfgs'
upscale = 1.0
/
&CELL
/

K_POINTS {automatic}
8 11 3 0  0  0

ATOMIC_SPECIES
Al 26.98 Al.pbe-nl-rrkjus_psl.1.0.0.UPF
Y 88.90 Y.pbe-spn-rrkjus_psl.1.0.0.UPF

CELL_PARAMETERS {angstrom}
9.55034000 0.00000000 0.00000000
0.00000000 6.75311000 0.00000000
0.00000000 0.00000000 25.06480000

ATOMIC_POSITIONS {angstrom}
Y 0.00000000 3.37655500 -2.532296740000003 0 0 0
Y 2.38758500 5.06483250 -0.8441824600000025 0 0 0
Y 2.38758500 1.68827750 -0.8441824600000025 0 0 0
Y 0.00000000 0.00000000 0.67349118
Y 2.38758500 1.74662437 2.52026564
Y 2.38758500 5.00648563 2.52026564
Y 4.77517000 3.37655500 -2.532296740000003 0 0 0
Y 7.16275500 5.06483250 -0.8441824600000025 0 0 0
Y 7.16275500 1.68827750 -0.8441824600000025 0 0 0
Y 4.77517000 0.00000000 0.67349118
Y 7.16275500 1.74662437 2.52026564
Y 7.16275500 5.00648563 2.52026564
Al 0.00000000 0.00000000 -2.532296740000003 0 0 0
Al 0.00000000 3.37655500 0.73665447
Al 4.77517000 0.00000000 -2.532296740000003 0 0 0
Al 4.77517000 3.37655500 0.73665447
