&CONTROL
calculation = 'relax'
prefix = 'scf'
pseudo_dir = '/vol0403/data/hp230205/u10028/POT_HYBRID_KKJUS_GBRV'
outdir = './data'
tprnfor = .true.
nstep = 70
disk_io = 'non'
/
&SYSTEM
ibrav = 0
ecutwfc = 50.0
ecutrho = 400
occupations = 'smearing'
smearing = 'mp'
degauss = 0.01
assume_isolated = 'esm'
esm_bc = 'bc1'
input_dft = 'BEEF-VDW'
nosym = .true.
nspin = 1
ntyp = 6
nat = 34
/
&ELECTRONS
electron_maxstep = 200
mixing_beta = 0.1
conv_thr = 1e-06
/
&IONS
ion_dynamics = 'bfgs'
upscale = 1.0
/
&CELL
/

K_POINTS {automatic}
6 6 1 0 0 0

ATOMIC_SPECIES
C 12.01 C.pbe-n-rrkjus_psl.1.0.0.UPF
Cu 63.54 Cu.pbe-dn-rrkjus_psl.1.0.0.UPF
Li 6.941 Li.pbe-sl-rrkjus_psl.1.0.0.UPF
O 15.99 O.pbe-n-rrkjus_psl.1.0.0.UPF
Pd 106.4 Pd.pbe-n-rrkjus_psl.1.0.0.UPF
Sn 118.7 Sn.pbe-dn-rrkjus_psl.1.0.0.UPF


CELL_PARAMETERS {angstrom}
6.33545000 0.00000000 0.00000000
-0.00000000 8.95968000 0.00000000
0.00000000 0.00000000 26.71980000

ATOMIC_POSITIONS {angstrom}
Li 1.58386250 0.00000000 -1.1200940199999998 0 0 0
Li 1.58386250 4.47984000 -1.1200940199999998 0 0 0
Li 4.75158750 2.23992000 -3.360014849999999 0 0 0
Li 4.75158750 6.71976000 -3.360014849999999 0 0 0
Li 1.54021125 4.47984000 3.48132274
Li 1.53964106 -0.00000000 3.55025983
Li 4.75456516 6.74574307 0.94026976
Li 4.75456516 2.21393693 0.94026976
Cu 0.00000000 0.00000000 -3.360014849999999 0 0 0
Cu 0.00000000 4.47984000 -3.360014849999999 0 0 0
Cu 3.16772500 6.71976000 -1.1200940199999998 0 0 0
Cu 3.16772500 2.23992000 -1.1200940199999998 0 0 0
Cu 6.18371597 4.47984000 1.32904285
Cu 6.26905448 -0.00000000 1.31461416
Cu 3.40308697 2.25658500 3.07865536
Cu 3.40308697 6.70309500 3.07865536
Sn 4.75158750 0.00000000 -1.1200940199999998 0 0 0
Sn 4.75158750 4.47984000 -1.1200940199999998 0 0 0
Sn 1.58386250 2.23992000 -3.360014849999999 0 0 0
Sn 1.58386250 6.71976000 -3.360014849999999 0 0 0
Sn 4.70217099 4.47984000 3.84417763
Sn 4.74018369 -0.00000000 3.70870824
Sn 1.58658674 6.70605169 1.11181088
Sn 1.58658674 2.25362831 1.11181088
Pd 0.00000000 2.23992000 -1.1200940199999998 0 0 0
Pd 0.00000000 6.71976000 -1.1200940199999998 0 0 0
Pd 3.16772500 4.47984000 -3.360014849999999 0 0 0
Pd 3.16772500 0.00000000 -3.360014849999999 0 0 0
Pd 6.12181863 6.68347330 3.10911593
Pd 6.12181863 2.27620670 3.10911593
Pd 3.20003579 -0.00000000 1.31942372
Pd 3.26788846 4.47984000 1.31648455
C 1.61801058 -0.00000000 5.67982789
O 1.62631001 8.95959040 6.81862576
