&CONTROL
calculation = 'relax'
prefix = 'scf'
pseudo_dir = '/vol0004/mdt0/data/hp150275/u10028/POT_HYBRID_KKJUS_GBRV'
outdir = './data'
tprnfor = .true.
nstep = 50
disk_io = 'non'
/
&SYSTEM
ibrav = 0
ecutwfc = 50.0
ecutrho = 400
occupations = 'smearing'
smearing = 'mp'
degauss = 0.01
assume_isolated = 'esm'
esm_bc = 'bc1'
input_dft = 'BEEF-VDW'
nosym = .true.
nspin = 2
ntyp = 2
nat = 32
starting_magnetization(1) = 0.1
starting_magnetization(2) = 0.1
/
&ELECTRONS
electron_maxstep = 200
mixing_beta = 0.1
conv_thr = 1e-06
/
&IONS
ion_dynamics = 'bfgs'
upscale = 1.0
/
&CELL
/

K_POINTS {automatic}
9 6 2 0  0  0

ATOMIC_SPECIES
Al 26.98 Al.pbe-nl-rrkjus_psl.1.0.0.UPF
Co 58.93 co_pbe_v1.2.uspp.F.UPF

CELL_PARAMETERS {angstrom}
5.70199000 0.00000000 0.00000000
0.00000000 8.06383000 0.00000000
0.00000000 0.00000000 26.04790000

ATOMIC_POSITIONS {angstrom}
Al 0.00000000 0.00000000 -3.0239007099999995 0 0 0
Al 0.00000000 2.01595750 -1.0080537299999968 0 0 0
Al 0.00000000 0.00000000 1.01586810
Al 0.00000000 2.01595750 3.11689171
Al 0.00000000 4.03191500 -3.0239007099999995 0 0 0
Al 0.00000000 6.04787250 -1.0080537299999968 0 0 0
Al 0.00000000 4.03191500 1.01586810
Al 0.00000000 6.04787250 3.11689171
Al 2.85099500 0.00000000 -3.0239007099999995 0 0 0
Al 2.85099500 2.01595750 -1.0080537299999968 0 0 0
Al 2.85099500 0.00000000 1.01586810
Al 2.85099500 2.01595750 3.11689171
Al 2.85099500 4.03191500 -3.0239007099999995 0 0 0
Al 2.85099500 6.04787250 -1.0080537299999968 0 0 0
Al 2.85099500 4.03191500 1.01586810
Al 2.85099500 6.04787250 3.11689171
Co 1.42549750 2.01595750 -3.0239007099999995 0 0 0
Co 1.42549750 0.00000000 -1.0080537299999968 0 0 0
Co 1.42549750 2.01587686 0.98825733
Co 1.42549750 0.00000000 2.96242767
Co 1.42549750 6.04787250 -3.0239007099999995 0 0 0
Co 1.42549750 4.03191500 -1.0080537299999968 0 0 0
Co 1.42549750 6.04795314 0.98825733
Co 1.42549750 4.03191500 2.96242767
Co 4.27649250 2.01595750 -3.0239007099999995 0 0 0
Co 4.27649250 0.00000000 -1.0080537299999968 0 0 0
Co 4.27649250 2.01587686 0.98825733
Co 4.27649250 0.00000000 2.96242767
Co 4.27649250 6.04787250 -3.0239007099999995 0 0 0
Co 4.27649250 4.03191500 -1.0080537299999968 0 0 0
Co 4.27649250 6.04795314 0.98825733
Co 4.27649250 4.03191500 2.96242767
