&CONTROL
calculation = 'relax'
prefix = 'scf'
pseudo_dir = '/vol0004/mdt0/data/hp150275/u10028/POT_KKJUS'
outdir = './data'
tprnfor = .true.
nstep = 50
disk_io = 'non'
/
&SYSTEM
ibrav = 0
ecutwfc = 50.0
ecutrho = 400
occupations = 'smearing'
smearing = 'mp'
degauss = 0.01
assume_isolated = 'esm'
esm_bc = 'bc1'
input_dft = 'BEEF-VDW'
nosym = .true.
nspin = 1
ntyp = 2
nat = 32
/
&ELECTRONS
electron_maxstep = 200
mixing_beta = 0.1
conv_thr = 1e-06
/
&IONS
ion_dynamics = 'bfgs'
upscale = 1.0
/
&CELL
/

K_POINTS {automatic}
8 6 1 0 0 0

ATOMIC_SPECIES
Au 196.9 Au.pbe-n-rrkjus_psl.1.0.0.UPF
Y 88.90 Y.pbe-spn-rrkjus_psl.1.0.0.UPF

CELL_PARAMETERS {angstrom}
7.24612000 0.00000000 0.00000000
0.00000000 10.24760000 0.00000000
0.00000000 0.00000000 27.68570000

ATOMIC_POSITIONS {angstrom}
Y 1.81153000 2.56190000 -3.842775160000002 0 0 0
Y 1.81153000 0.00000000 -1.2810173400000018 0 0 0
Y 1.81153000 2.56190000 1.27575706
Y 1.81153000 0.00000000 3.85246515
Y 1.81153000 7.68570000 -3.842775160000002 0 0 0
Y 1.81153000 5.12380000 -1.2810173400000018 0 0 0
Y 1.81153000 7.68570000 1.27575706
Y 1.81153000 5.12380000 3.85246515
Y 5.43459000 2.56190000 -3.842775160000002 0 0 0
Y 5.43459000 0.00000000 -1.2810173400000018 0 0 0
Y 5.43459000 2.56190000 1.27575706
Y 5.43459000 0.00000000 3.85246515
Y 5.43459000 7.68570000 -3.842775160000002 0 0 0
Y 5.43459000 5.12380000 -1.2810173400000018 0 0 0
Y 5.43459000 7.68570000 1.27575706
Y 5.43459000 5.12380000 3.85246515
Au 0.00000000 0.00000000 -3.842775160000002 0 0 0
Au 0.00000000 2.56190000 -1.2810173400000018 0 0 0
Au 0.00000000 0.00000000 1.34331016
Au 0.00000000 2.56200248 3.68164439
Au 0.00000000 5.12380000 -3.842775160000002 0 0 0
Au 0.00000000 7.68570000 -1.2810173400000018 0 0 0
Au 0.00000000 5.12380000 1.34331016
Au 0.00000000 7.68559752 3.68164439
Au 3.62306000 0.00000000 -3.842775160000002 0 0 0
Au 3.62306000 2.56190000 -1.2810173400000018 0 0 0
Au 3.62306000 0.00000000 1.34331016
Au 3.62306000 2.56200248 3.68164439
Au 3.62306000 5.12380000 -3.842775160000002 0 0 0
Au 3.62306000 7.68570000 -1.2810173400000018 0 0 0
Au 3.62306000 5.12380000 1.34331016
Au 3.62306000 7.68559752 3.68164439
