&CONTROL
calculation = 'relax'
prefix = 'scf'
pseudo_dir = '/vol0004/mdt0/data/hp150275/u10028/POT_KKJUS'
outdir = './data'
tprnfor = .true.
nstep = 50
disk_io = 'non'
/
&SYSTEM
ibrav = 0
ecutwfc = 50.0
ecutrho = 400
occupations = 'smearing'
smearing = 'mp'
degauss = 0.01
assume_isolated = 'esm'
esm_bc = 'bc1'
input_dft = 'BEEF-VDW'
nosym = .true.
nspin = 1
ntyp = 3
nat = 32
/
&ELECTRONS
electron_maxstep = 200
mixing_beta = 0.1
conv_thr = 1e-06
/
&IONS
ion_dynamics = 'bfgs'
upscale = 1.0
/
&CELL
/

K_POINTS {automatic}
8 6 1 0 0 0

ATOMIC_SPECIES
Al 26.98 Al.pbe-nl-rrkjus_psl.1.0.0.UPF
Pd 106.4 Pd.pbe-n-rrkjus_psl.1.0.0.UPF
Zr 91.22 Zr.pbe-spn-rrkjus_psl.1.0.0.UPF

CELL_PARAMETERS {angstrom}
6.48931000 0.00000000 0.00000000
0.00000000 9.17726000 0.00000000
0.00000000 0.00000000 26.88290000

ATOMIC_POSITIONS {angstrom}
Zr 0.00000000 0.00000000 -3.441548860000001 0 0 0
Zr 3.24465500 2.29431500 -1.1470933399999979 0 0 0
Zr 3.24465500 6.88294500 -1.1470933399999979 0 0 0
Zr 0.00000000 4.58863000 -3.441548860000001 0 0 0
Zr 0.00000000 4.58863000 1.13015712
Zr 3.24465500 6.88294500 3.51386386
Zr 3.24465500 2.29431500 3.51386386
Zr 0.00000000 0.00000000 1.13015712
Al 0.00000000 6.88294500 -1.1470933399999979 0 0 0
Al 3.24465500 0.00000000 -3.441548860000001 0 0 0
Al 0.00000000 2.29431500 -1.1470933399999979 0 0 0
Al 3.24465500 4.58863000 -3.441548860000001 0 0 0
Al 0.00000000 2.29431500 3.31143562
Al 3.24465500 4.58863000 1.22075249
Al 0.00000000 6.88294500 3.31143562
Al 3.24465500 0.00000000 1.22075249
Pd 1.62232750 0.00000000 -1.1470933399999979 0 0 0
Pd 4.86698250 4.58863000 -1.1470933399999979 0 0 0
Pd 4.86698250 0.00000000 -1.1470933399999979 0 0 0
Pd 1.62232750 4.58863000 -1.1470933399999979 0 0 0
Pd 4.86698250 6.88294500 -3.441548860000001 0 0 0
Pd 1.62232750 2.29431500 -3.441548860000001 0 0 0
Pd 1.62232750 6.88294500 -3.441548860000001 0 0 0
Pd 4.86698250 2.29431500 -3.441548860000001 0 0 0
Pd 1.56989388 4.58863000 3.34477042
Pd 4.91941612 0.00000000 3.34477042
Pd 4.91941612 4.58863000 3.34477042
Pd 1.56989388 0.00000000 3.34477042
Pd 4.76594394 2.29431500 1.18956832
Pd 1.72336606 6.88294500 1.18956832
Pd 1.72336606 2.29431500 1.18956832
Pd 4.76594394 6.88294500 1.18956832
