&CONTROL
calculation = 'relax'
prefix = 'scf'
pseudo_dir = '/vol0004/mdt0/data/hp150275/u10028/POT_KKJUS'
outdir = './data'
tprnfor = .true.
nstep = 50
disk_io = 'non'
/
&SYSTEM
ibrav = 0
ecutwfc = 50.0
ecutrho = 400
occupations = 'smearing'
smearing = 'mp'
degauss = 0.01
assume_isolated = 'esm'
esm_bc = 'bc1'
input_dft = 'BEEF-VDW'
nosym = .true.
nspin = 1
ntyp = 4
nat = 33
/
&ELECTRONS
electron_maxstep = 200
mixing_beta = 0.1
conv_thr = 1e-06
/
&IONS
ion_dynamics = 'bfgs'
upscale = 1.0
/
&CELL
/

K_POINTS {automatic}
9 6 2 0  0  0

ATOMIC_SPECIES
C 12.01 C.pbe-n-rrkjus_psl.1.0.0.UPF
In 114.8 In.pbe-dn-rrkjus_psl.1.0.0.UPF
Pd 106.4 Pd.pbe-n-rrkjus_psl.1.0.0.UPF
Sc 44.95 Sc.pbe-spn-rrkjus_psl.1.0.0.UPF

CELL_PARAMETERS {angstrom}
6.63475000 0.00000000 0.00000000
0.00000000 9.38295000 0.00000000
0.00000000 0.00000000 27.03720000

ATOMIC_POSITIONS {angstrom}
Sc 0.00000000 0.00000000 -3.518621209999999 0 0 0
Sc 3.31737500 2.34573750 -1.17287374 0 0 0
Sc 3.31737500 7.03721250 -1.17287374 0 0 0
Sc 0.00000000 4.69147500 -3.518621209999999 0 0 0
Sc 6.60018295 4.72065597 1.17719969
Sc 3.31352685 7.03721250 3.41317613
Sc 3.62575818 2.34573750 3.47671355
Sc 6.60018295 9.35367520 1.17719969
In 0.00000000 7.03721250 -1.17287374 0 0 0
In 3.31737500 0.00000000 -3.518621209999999 0 0 0
In 0.00000000 2.34573750 -1.17287374 0 0 0
In 3.31737500 4.69147500 -3.518621209999999 0 0 0
In 6.30321154 2.34573750 4.51223831
In 3.29853231 4.64981470 1.19585536
In 0.12068610 7.03721250 3.65948502
In 3.29853231 0.04166030 1.19585536
Pd 1.65868750 0.00000000 -1.17287374 0 0 0
Pd 4.97606250 4.69147500 -1.17287374 0 0 0
Pd 4.97606250 0.00000000 -1.17287374 0 0 0
Pd 1.65868750 4.69147500 -1.17287374 0 0 0
Pd 4.97606250 7.03721250 -3.518621209999999 0 0 0
Pd 1.65868750 2.34573750 -3.518621209999999 0 0 0
Pd 1.65868750 7.03721250 -3.518621209999999 0 0 0
Pd 4.97606250 2.34573750 -3.518621209999999 0 0 0
Pd 1.50442956 4.57578323 3.36423880
Pd 5.06277868 9.27833011 3.41669096
Pd 5.06277868 4.79618872 3.41669096
Pd 1.50442956 0.11569177 3.36423880
Pd 4.99961586 2.34573750 1.10555111
Pd 1.70486536 7.03721250 1.17909229
Pd 1.44849862 2.34573750 1.34077475
Pd 4.97128548 7.03721250 1.20342577
C 1.59724972 2.34573750 3.52294716
