&CONTROL
calculation = 'relax'
prefix = 'scf'
pseudo_dir = '/vol0004/mdt0/data/hp150275/u10028/POT_KKJUS'
outdir = './data'
tprnfor = .true.
nstep = 50
disk_io = 'non'
/
&SYSTEM
ibrav = 0
ecutwfc = 50.0
ecutrho = 400
occupations = 'smearing'
smearing = 'mp'
degauss = 0.01
assume_isolated = 'esm'
esm_bc = 'bc1'
input_dft = 'BEEF-VDW'
nosym = .true.
nspin = 1
ntyp = 4
nat = 33
/
&ELECTRONS
electron_maxstep = 200
mixing_beta = 0.1
conv_thr = 1e-06
/
&IONS
ion_dynamics = 'bfgs'
upscale = 1.0
/
&CELL
/

K_POINTS {automatic}
8 6 1 0 0 0

ATOMIC_SPECIES
C 12.01 C.pbe-n-rrkjus_psl.1.0.0.UPF
In 114.8 In.pbe-dn-rrkjus_psl.1.0.0.UPF
Li 6.941 Li.pbe-sl-rrkjus_psl.1.0.0.UPF
Pt 195.0 Pt.pbe-n-rrkjus_psl.1.0.0.UPF

CELL_PARAMETERS {angstrom}
6.43375000 0.00000000 0.00000000
0.00000000 9.09870000 0.00000000
0.00000000 0.00000000 26.82400000

ATOMIC_POSITIONS {angstrom}
Li 0.00000000 6.82402500 -1.1373376000000022 0 0 0
Li 3.21687500 0.00000000 -3.412012800000003 0 0 0
Li 0.00000000 2.27467500 -1.1373376000000022 0 0 0
Li 3.21687500 4.54935000 -3.412012800000003 0 0 0
Li 1.60843750 2.27467500 -3.412012800000003 0 0 0
Li 1.60843750 6.82402500 -3.412012800000003 0 0 0
Li 4.82531250 4.54935000 -1.1373376000000022 0 0 0
Li 4.82531250 0.00000000 -1.1373376000000022 0 0 0
Li 5.98924221 2.27467500 3.89591776
Li 3.13130613 4.44762653 1.21056712
Li 0.12404270 6.82402500 3.15262472
Li 3.13130613 0.10172347 1.21029888
Li 1.62432886 6.82402500 0.97076056
Li 1.46104029 2.27467500 1.28969792
Li 4.55670344 8.94875342 3.44822520
Li 4.55676777 4.69929658 3.44822520
In 1.60843750 0.00000000 -1.1373376000000022 0 0 0
In 1.60843750 4.54935000 -1.1373376000000022 0 0 0
In 4.82531250 6.82402500 -3.412012800000003 0 0 0
In 4.82531250 2.27467500 -3.412012800000003 0 0 0
In 1.42559032 4.50958868 3.67086440
In 1.42559032 0.03976132 3.67086440
In 4.97882178 2.27467500 1.05418320
In 4.71954165 6.82402500 1.15128608
Pt 0.00000000 0.00000000 -3.412012800000003 0 0 0
Pt 3.21687500 2.27467500 -1.1373376000000022 0 0 0
Pt 3.21687500 6.82402500 -1.1373376000000022 0 0 0
Pt 0.00000000 4.54935000 -3.412012800000003 0 0 0
Pt 6.42699456 4.64970866 1.14350712
Pt 2.87466384 6.82402500 3.15316120
Pt 3.39644096 2.27467500 3.19768904
Pt 6.42699456 8.99834134 1.14350712
C 1.60605701 2.27467500 3.93078896
