&CONTROL
calculation = 'relax'
prefix = 'scf'
pseudo_dir = '/vol0403/data/hp230205/u10028/POT_HYBRID_KKJUS_GBRV'
outdir = './data'
tprnfor = .true.
nstep = 50
disk_io = 'non'
/
&SYSTEM
ibrav = 0
ecutwfc = 50.0
ecutrho = 400
occupations = 'smearing'
smearing = 'mp'
degauss = 0.01
assume_isolated = 'esm'
esm_bc = 'bc1'
input_dft = 'BEEF-VDW'
nosym = .true.
nspin = 1
ntyp = 6
nat = 34
/
&ELECTRONS
electron_maxstep = 200
mixing_beta = 0.1
conv_thr = 1e-06
/
&IONS
ion_dynamics = 'bfgs'
upscale = 1.0
/
&CELL
/

K_POINTS {automatic}
7 7 2 0  0  0

ATOMIC_SPECIES
C 12.01 C.pbe-n-rrkjus_psl.1.0.0.UPF
Ge 72.64 Ge.pbe-dn-rrkjus_psl.1.0.0.UPF
Li 6.941 Li.pbe-sl-rrkjus_psl.1.0.0.UPF
O 15.99 O.pbe-n-rrkjus_psl.1.0.0.UPF
Sn 118.7 Sn.pbe-dn-rrkjus_psl.1.0.0.UPF
Y 88.90 Y.pbe-spn-rrkjus_psl.1.0.0.UPF


CELL_PARAMETERS {angstrom}
8.60818000 0.00000000 0.00000000
0.00000000 8.52742000 0.00000000
0.00000000 0.00000000 27.07540000

ATOMIC_POSITIONS {angstrom}
Li 0.00542315 2.13185500 1.20999963
Li 0.00000000 2.13185500 -3.5376717599999985 0 0 0
Li 8.60568363 6.39556500 1.20566756
Li 0.00000000 6.39556500 -3.5376717599999985 0 0 0
Li 4.29866685 2.13185500 1.20999963
Li 4.30409000 2.13185500 -3.5376717599999985 0 0 0
Li 4.30658637 6.39556500 1.20566756
Li 4.30409000 6.39556500 -3.5376717599999985 0 0 0
Y 2.15204500 2.13185500 3.56393490
Y 2.15204500 2.13185500 -1.1791336699999988 0 0 0
Y 2.15204500 6.39556500 3.51601144
Y 2.15204500 6.39556500 -1.1791336699999988 0 0 0
Y 6.45613500 2.13185500 3.52332180
Y 6.45613500 2.13185500 -1.1791336699999988 0 0 0
Y 6.45613500 6.39556500 3.52711236
Y 6.45613500 6.39556500 -1.1791336699999988 0 0 0
Sn 2.15204500 0.00631029 1.20268927
Sn 2.15204500 0.00000000 -3.5376717599999985 0 0 0
Sn 2.15204500 4.25739971 1.20268927
Sn 2.15204500 4.26371000 -3.5376717599999985 0 0 0
Sn 6.45613500 0.00324042 1.20431379
Sn 6.45613500 0.00000000 -3.5376717599999985 0 0 0
Sn 6.45613500 4.26046958 1.20431379
Sn 6.45613500 4.26371000 -3.5376717599999985 0 0 0
Ge 8.59948574 8.52255937 3.39525516
Ge 0.00000000 0.00000000 -1.1791336699999988 0 0 0
Ge 8.59948574 4.26857063 3.39525516
Ge 0.00000000 4.26371000 -1.1791336699999988 0 0 0
Ge 4.31278426 8.52255937 3.39525516
Ge 4.30409000 0.00000000 -1.1791336699999988 0 0 0
Ge 4.31278426 4.26857063 3.39552591
Ge 4.30409000 4.26371000 -1.1791336699999988 0 0 0
C 2.15204500 2.13185500 6.05378869
O 2.15204500 2.13185500 7.20422243
