&CONTROL
calculation = 'relax'
prefix = 'scf'
pseudo_dir = '/vol0403/data/hp230205/u10028/POT_HYBRID_KKJUS_GBRV'
outdir = './data'
tprnfor = .true.
nstep = 50
disk_io = 'non'
/
&SYSTEM
ibrav = 0
ecutwfc = 50.0
ecutrho = 400
occupations = 'smearing'
smearing = 'mp'
degauss = 0.01
assume_isolated = 'esm'
esm_bc = 'bc1'
input_dft = 'BEEF-VDW'
nosym = .true.
nspin = 1
ntyp = 5
nat = 33
/
&ELECTRONS
electron_maxstep = 200
mixing_beta = 0.1
conv_thr = 1e-06
/
&IONS
ion_dynamics = 'bfgs'
upscale = 1.0
/
&CELL
/

K_POINTS {automatic}
6 6 1 0 0 0

ATOMIC_SPECIES
C 12.01 C.pbe-n-rrkjus_psl.1.0.0.UPF
Ge 72.64 Ge.pbe-dn-rrkjus_psl.1.0.0.UPF
Li 6.941 Li.pbe-sl-rrkjus_psl.1.0.0.UPF
Sn 118.7 Sn.pbe-dn-rrkjus_psl.1.0.0.UPF
Y 88.90 Y.pbe-spn-rrkjus_psl.1.0.0.UPF


CELL_PARAMETERS {angstrom}
8.52742000 0.00000000 0.00000000
0.00000000 9.43388000 0.00000000
0.00000000 0.00000000 26.45610000

ATOMIC_POSITIONS {angstrom}
Li 2.13185500 2.35847000 -3.22817332 0 0 0
Li 2.13185500 2.35847000 1.11777023
Li 2.13185500 7.07541000 -3.22817332 0 0 0
Li 2.13185500 7.07541000 1.08946220
Li 6.39556500 2.35847000 -3.22817332 0 0 0
Li 6.39556500 2.35847000 1.07755695
Li 6.39556500 7.07541000 -3.22817332 0 0 0
Li 6.39556500 7.07541000 1.06088961
Y 2.13185500 0.00000000 -1.0759695899999997 0 0 0
Y 2.13185500 0.03254689 3.18822461
Y 2.13185500 4.71694000 -1.0759695899999997 0 0 0
Y 2.13185500 4.68439311 3.18822461
Y 6.39556500 0.00000000 -1.0759695899999997 0 0 0
Y 6.39556500 9.41255943 3.19986529
Y 6.39556500 4.71694000 -1.0759695899999997 0 0 0
Y 6.39556500 4.73826057 3.19986529
Sn 0.00000000 2.35847000 -1.0759695899999997 0 0 0
Sn 8.47463527 2.35847000 3.69168419
Sn 0.00000000 7.07541000 -1.0759695899999997 0 0 0
Sn 8.51079153 7.07541000 3.23319998
Sn 4.26371000 2.35847000 -1.0759695899999997 0 0 0
Sn 4.31649473 2.35847000 3.69168419
Sn 4.26371000 7.07541000 -1.0759695899999997 0 0 0
Sn 4.28033847 7.07541000 3.23319998
Ge 0.00000000 0.00000000 -3.22817332 0 0 0
Ge 8.49731821 9.26605127 1.13470213
Ge 0.00000000 4.71694000 -3.22817332 0 0 0
Ge 8.49731821 4.88476873 1.13470213
Ge 4.26371000 0.00000000 -3.22817332 0 0 0
Ge 4.29381179 9.26605127 1.13470213
Ge 4.26371000 4.71694000 -3.22817332 0 0 0
Ge 4.29381179 4.88476873 1.13470213
C 2.13185500 2.35847000 3.23743296
