&CONTROL
calculation = 'relax'
prefix = 'scf'
pseudo_dir = '/vol0004/mdt0/data/hp150275/u10028/POT_KKJUS'
outdir = './data'
tprnfor = .true.
nstep = 50
disk_io = 'non'
/
&SYSTEM
ibrav = 0
ecutwfc = 50.0
ecutrho = 400
occupations = 'smearing'
smearing = 'mp'
degauss = 0.01
assume_isolated = 'esm'
esm_bc = 'bc1'
input_dft = 'BEEF-VDW'
nosym = .true.
nspin = 1
ntyp = 5
nat = 18
/
&ELECTRONS
electron_maxstep = 200
mixing_beta = 0.1
conv_thr = 1e-06
/
&IONS
ion_dynamics = 'bfgs'
upscale = 1.0
/
&CELL
/

K_POINTS {automatic}
10 10 2 0  0  0

ATOMIC_SPECIES
Al 26.98 Al.pbe-nl-rrkjus_psl.1.0.0.UPF
C 12.01 C.pbe-n-rrkjus_psl.1.0.0.UPF
Li 6.941 Li.pbe-sl-rrkjus_psl.1.0.0.UPF
O 15.99 O.pbe-n-rrkjus_psl.1.0.0.UPF
Rh 102.9 Rh.pbe-spn-rrkjus_psl.1.0.0.UPF

CELL_PARAMETERS {angstrom}
6.01864000 0.00000000 0.00000000
0.00000000 6.01864000 0.00000000
0.00000000 0.00000000 24.51400000

ATOMIC_POSITIONS {angstrom}
Li 0.00000000 0.00000000 -0.7523346599999989 0 0 0
Li 3.00932000 0.00000000 2.51979406
Li 0.00000000 3.00932000 2.51979406
Li 3.00932000 3.00932000 -0.7523346599999989 0 0 0
Li 1.50466000 1.50466000 -2.2570039800000004 0 0 0
Li 1.48648371 4.53215629 0.63957026
Li 4.51398000 4.51398000 -2.2570039800000004 0 0 0
Li 4.53215629 1.48648371 0.63957026
Al 0.00000000 0.00000000 2.19155160
Al 3.00932000 3.00932000 2.05451834
Al 3.00932000 0.00000000 -0.7523346599999989 0 0 0
Al 0.00000000 3.00932000 -0.7523346599999989 0 0 0
Rh 1.49942378 1.49942378 0.86215738
Rh 1.50466000 4.51398000 -2.2570039800000004 0 0 0
Rh 4.51915603 4.51915603 0.86240252
Rh 4.51398000 1.50466000 -2.2570039800000004 0 0 0
C 0.00000000 0.00000000 4.17792102
O 0.00000000 0.00000000 5.34184574
