&CONTROL
calculation = 'relax'
prefix = 'scf'
pseudo_dir = '/vol0004/mdt0/data/hp150275/u10028/POT_HYBRID_KKJUS_GBRV'
outdir = './data'
tprnfor = .true.
nstep = 50
disk_io = 'non'
/
&SYSTEM
ibrav = 0
ecutwfc = 50.0
ecutrho = 400
occupations = 'smearing'
smearing = 'mp'
degauss = 0.01
assume_isolated = 'esm'
esm_bc = 'bc1'
input_dft = 'BEEF-VDW'
nosym = .true.
nspin = 2
ntyp = 5
nat = 18
starting_magnetization(1) = 0.1
starting_magnetization(2) = 0.1
starting_magnetization(3) = 0.1
starting_magnetization(4) = 0.1
starting_magnetization(5) = 0.1
/
&ELECTRONS
electron_maxstep = 200
mixing_beta = 0.1
conv_thr = 1e-06
/
&IONS
ion_dynamics = 'bfgs'
upscale = 1.0
/
&CELL
/

K_POINTS {automatic}
10 10 2 0  0  0

ATOMIC_SPECIES
C 12.01 C.pbe-n-rrkjus_psl.1.0.0.UPF
Mn 54.93 mn_pbe_v1.5.uspp.F.UPF
Ni 58.69 ni_pbe_v1.4.uspp.F.UPF
O 15.99 O.pbe-n-rrkjus_psl.1.0.0.UPF
Sb 121.7 Sb.pbe-n-rrkjus_psl.1.0.0.UPF

CELL_PARAMETERS {angstrom}
6.10266000 0.00000000 0.00000000
0.00000000 6.10266000 0.00000000
0.00000000 0.00000000 24.57700000

ATOMIC_POSITIONS {angstrom}
Mn 0.00000000 6.10259897 2.36750241
Mn 3.05126897 3.05139103 2.20381959
Mn 3.05133000 0.00000000 -0.7628700800000026 0 0 0
Mn 0.00000000 3.05133000 -0.7628700800000026 0 0 0
Ni 1.50723497 1.50729599 0.80907484
Ni 4.57699500 4.57699500 -2.2886102400000006 0 0 0
Ni 4.59542503 1.50735702 0.80932061
Ni 1.52566500 4.57699500 -2.2886102400000006 0 0 0
Ni 4.59548606 4.59530298 0.80907484
Ni 1.52566500 1.52566500 -2.2886102400000006 0 0 0
Ni 1.50717394 4.59536401 0.80907484
Ni 4.57699500 1.52566500 -2.2886102400000006 0 0 0
Sb 0.00000000 0.00000000 -0.7628700800000026 0 0 0
Sb 3.05133000 0.00000000 2.38126553
Sb 0.00006103 3.05126897 2.38126553
Sb 3.05133000 3.05133000 -0.7628700800000026 0 0 0
C 0.00006103 6.10259897 4.36659559
O 0.00000000 0.00000000 5.51827381
