&CONTROL
calculation = 'relax'
prefix = 'scf'
pseudo_dir = '/vol0403/data/hp230205/u10028/POT_HYBRID_KKJUS_GBRV'
outdir = './data'
tprnfor = .true.
nstep = 50
disk_io = 'non'
/
&SYSTEM
ibrav = 0
ecutwfc = 50.0
ecutrho = 400
occupations = 'smearing'
smearing = 'mp'
degauss = 0.01
assume_isolated = 'esm'
esm_bc = 'bc1'
input_dft = 'BEEF-VDW'
nosym = .true.
nspin = 1
ntyp = 6
nat = 34
/
&ELECTRONS
electron_maxstep = 200
mixing_beta = 0.1
conv_thr = 1e-06
/
&IONS
ion_dynamics = 'bfgs'
upscale = 1.0
/
&CELL
/

K_POINTS {automatic}
7 7 2 0  0  0

ATOMIC_SPECIES
Al 26.98 Al.pbe-nl-rrkjus_psl.1.0.0.UPF
C 12.01 C.pbe-n-rrkjus_psl.1.0.0.UPF
In 114.8 In.pbe-dn-rrkjus_psl.1.0.0.UPF
O 15.99 O.pbe-n-rrkjus_psl.1.0.0.UPF
Pd 106.4 Pd.pbe-n-rrkjus_psl.1.0.0.UPF
Sc 44.95 Sc.pbe-spn-rrkjus_psl.1.0.0.UPF


CELL_PARAMETERS {angstrom}
8.33700000 0.00000000 0.00000000
0.00000000 8.60736000 0.00000000
0.00000000 0.00000000 26.22680000

ATOMIC_POSITIONS {angstrom}
Sc 0.00000000 2.15184000 -1.0377944800000023 0 0 0
Sc 0.00450198 2.11698019 3.08112446
Sc 0.00000000 6.45552000 -1.0377944800000023 0 0 0
Sc 0.00383502 6.48848619 3.08086220
Sc 4.16850000 2.15184000 -1.0377944800000023 0 0 0
Sc 4.16474835 2.11723841 3.08059993
Sc 4.16850000 6.45552000 -1.0377944800000023 0 0 0
Sc 4.16499846 6.48874441 3.08059993
Al 0.00000000 0.00000000 -3.1133834300000025 0 0 0
Al 8.31840849 8.60692963 1.07293839
Al 0.00000000 4.30368000 -3.1133834300000025 0 0 0
Al 0.03534888 4.30273319 1.11463900
Al 4.16850000 0.00000000 -3.1133834300000025 0 0 0
Al 4.18734162 8.60701571 1.07293839
Al 4.16850000 4.30368000 -3.1133834300000025 0 0 0
Al 4.13315112 4.30299141 1.11463900
In 2.08425000 0.00000000 -1.0377944800000023 0 0 0
In 2.08458348 8.60581068 3.12780817
In 2.08425000 4.30368000 -1.0377944800000023 0 0 0
In 2.08433337 4.30299141 3.29329928
In 6.25275000 0.00000000 -1.0377944800000023 0 0 0
In 6.25341696 8.60675748 3.24845145
In 6.25275000 4.30368000 -1.0377944800000023 0 0 0
In 6.25275000 4.30256104 3.27677639
Pd 2.08425000 2.15184000 -3.1133834300000025 0 0 0
Pd 2.08383315 2.16337386 1.10152560
Pd 2.08425000 6.45552000 -3.1133834300000025 0 0 0
Pd 2.08383315 6.44295325 1.10178787
Pd 6.25275000 2.15184000 -3.1133834300000025 0 0 0
Pd 6.25275000 2.13970362 1.12119570
Pd 6.25275000 6.45552000 -3.1133834300000025 0 0 0
Pd 6.25291674 6.46610705 1.12172024
C 2.08249923 0.03270797 7.64117818
O 2.08416663 0.00103288 8.77601182
