&CONTROL
calculation = 'relax'
prefix = 'scf'
pseudo_dir = '/vol0403/data/hp230205/u10028/POT_HYBRID_KKJUS_GBRV'
outdir = './data'
tprnfor = .true.
nstep = 50
disk_io = 'non'
/
&SYSTEM
ibrav = 0
ecutwfc = 50.0
ecutrho = 400
occupations = 'smearing'
smearing = 'mp'
degauss = 0.01
assume_isolated = 'esm'
esm_bc = 'bc1'
input_dft = 'BEEF-VDW'
nosym = .true.
nspin = 2
ntyp = 6
nat = 18
starting_magnetization(1) = 0.0
starting_magnetization(2) = 0.0
starting_magnetization(3) = 0.1
starting_magnetization(4) = 0.0
starting_magnetization(5) = 0.0
starting_magnetization(6) = 0.0
/
&ELECTRONS
electron_maxstep = 400
mixing_beta = 0.05
conv_thr = 1e-06
/
&IONS
ion_dynamics = 'bfgs'
upscale = 1.0
/
&CELL
/

K_POINTS {automatic}
10 10 2 0  0  0

ATOMIC_SPECIES
Al 26.98 Al.pbe-nl-rrkjus_psl.1.0.0.UPF
C 12.01 C.pbe-n-rrkjus_psl.1.0.0.UPF
Co 58.93 co_pbe_v1.2.uspp.F.UPF
Li 6.941 Li.pbe-sl-rrkjus_psl.1.0.0.UPF
O 15.99 O.pbe-n-rrkjus_psl.1.0.0.UPF
Pd 106.4 Pd.pbe-n-rrkjus_psl.1.0.0.UPF


CELL_PARAMETERS {angstrom}
5.87254000 0.00000000 0.00000000
0.00000000 5.87254000 0.00000000
0.00000000 0.00000000 24.40440000

ATOMIC_POSITIONS {angstrom}
Li 0.00000000 2.93627000 22.20214694
Li 5.86091237 5.86102982 0.77947654
Li 2.94783890 2.94783890 0.77947654
Li 2.93627000 0.00000000 22.20214694
Al 0.00000000 0.00000000 22.20214694
Al 5.86825305 2.94038078 0.75653640
Al 2.94055695 5.86842922 0.75653640
Al 2.93627000 2.93627000 22.20214694
Co 4.40440500 1.46813500 23.67031565
Co 4.40440500 4.40440500 2.21250290
Co 1.46813500 1.46813500 2.11683766
Co 1.46813500 4.40440500 23.67031565
Pd 1.46813500 1.46813500 23.67031565
Pd 1.46813500 4.40440500 2.22494915
Pd 4.40440500 1.46813500 2.22519319
Pd 4.40440500 4.40440500 23.67031565
C 1.46813500 1.46813500 3.85467498
O 1.46813500 1.46813500 5.01559229
