&CONTROL
calculation = 'relax'
prefix = 'scf'
pseudo_dir = '/vol0004/mdt0/data/hp150275/u10028/POT_HYBRID_KKJUS_GBRV'
outdir = './data'
tprnfor = .true.
nstep = 50
disk_io = 'non'
/
&SYSTEM
ibrav = 0
ecutwfc = 50.0
ecutrho = 400
occupations = 'smearing'
smearing = 'mp'
degauss = 0.01
assume_isolated = 'esm'
esm_bc = 'bc1'
input_dft = 'BEEF-VDW'
nosym = .true.
nspin = 2
ntyp = 4
nat = 33
starting_magnetization(1) = 0.0
starting_magnetization(2) = 0.0
starting_magnetization(3) = 0.1
starting_magnetization(4) = 0.0
/
&ELECTRONS
electron_maxstep = 300
mixing_beta = 0.1
conv_thr = 1e-06
/
&IONS
ion_dynamics = 'bfgs'
upscale = 1.0
/
&CELL
/

K_POINTS {automatic}
9 6 2 0  0  0

ATOMIC_SPECIES
Al 26.98 Al.pbe-nl-rrkjus_psl.1.0.0.UPF
C 12.01 C.pbe-n-rrkjus_psl.1.0.0.UPF
Co 58.93 co_pbe_v1.2.uspp.F.UPF
Zr 91.22 Zr.pbe-spn-rrkjus_psl.1.0.0.UPF

CELL_PARAMETERS {angstrom}
6.08368000 0.00000000 0.00000000
0.00000000 8.60362000 0.00000000
0.00000000 0.00000000 26.45270000

ATOMIC_POSITIONS {angstrom}
Zr 0.00000000 0.00000000 -3.226435819999999 0 0 0
Zr 3.04184000 2.15090500 -1.075566779999999 0 0 0
Zr 3.04184000 6.45271500 -1.075566779999999 0 0 0
Zr 0.00000000 4.30181000 -3.226435819999999 0 0 0
Zr 6.06433390 4.32417941 0.99832490
Zr 3.03867649 6.45271500 3.32378176
Zr 3.54331774 2.15099104 3.93245838
Zr 6.06433390 8.58125059 0.99858942
Al 0.00000000 6.45271500 -1.075566779999999 0 0 0
Al 3.04184000 0.00000000 -3.226435819999999 0 0 0
Al 0.00000000 2.15090500 -1.075566779999999 0 0 0
Al 3.04184000 4.30181000 -3.226435819999999 0 0 0
Al 5.86624928 2.15090500 2.90080308
Al 3.00825809 4.29552936 1.18031947
Al 0.00584033 6.45271500 3.20209934
Al 3.00825809 0.00628064 1.18031947
Co 1.52092000 0.00000000 -1.075566779999999 0 0 0
Co 4.56276000 4.30181000 -1.075566779999999 0 0 0
Co 4.56276000 0.00000000 -1.075566779999999 0 0 0
Co 1.52092000 4.30181000 -1.075566779999999 0 0 0
Co 4.56276000 6.45271500 -3.226435819999999 0 0 0
Co 1.52092000 2.15090500 -3.226435819999999 0 0 0
Co 1.52092000 6.45271500 -3.226435819999999 0 0 0
Co 4.56276000 2.15090500 -3.226435819999999 0 0 0
Co 1.40125401 4.11674613 3.08650104
Co 4.67171871 8.55139603 3.06639698
Co 4.67177955 4.35403397 3.06639698
Co 1.40119318 0.18506387 3.08650104
Co 4.42794565 2.15081896 1.08508975
Co 1.58473780 6.45271500 1.17317724
Co 1.61868474 2.15081896 1.29327250
Co 4.46043250 6.45280104 1.12582691
C 1.59702684 2.15090500 3.45895505
