&CONTROL
calculation = 'relax'
prefix = 'scf'
pseudo_dir = '/vol0004/mdt0/data/hp150275/u10028/POT_HYBRID_KKJUS_GBRV'
outdir = './data'
tprnfor = .true.
nstep = 50
disk_io = 'non'
/
&SYSTEM
ibrav = 0
ecutwfc = 50.0
ecutrho = 400
occupations = 'smearing'
smearing = 'mp'
degauss = 0.01
assume_isolated = 'esm'
esm_bc = 'bc1'
input_dft = 'BEEF-VDW'
nosym = .true.
nspin = 2
ntyp = 4
nat = 33
starting_magnetization(1) = 0.0
starting_magnetization(2) = 0.1
starting_magnetization(3) = 0.0
starting_magnetization(4) = 0.0
/
&ELECTRONS
electron_maxstep = 200
mixing_beta = 0.1
conv_thr = 1e-06
/
&IONS
ion_dynamics = 'bfgs'
upscale = 1.0
/
&CELL
/

K_POINTS {automatic}
9 6 2 0  0  0

ATOMIC_SPECIES
C 12.01 C.pbe-n-rrkjus_psl.1.0.0.UPF
Co 58.93 co_pbe_v1.2.uspp.F.UPF
Ga 69.72 Ga.pbe-dnl-rrkjus_psl.1.0.0.UPF
Ti 47.86 Ti.pbe-spn-rrkjus_psl.1.0.0.UPF

CELL_PARAMETERS {angstrom}
5.88011000 0.00000000 0.00000000
0.00000000 8.31574000 0.00000000
0.00000000 0.00000000 26.23680000

ATOMIC_POSITIONS {angstrom}
Ti 0.00000000 0.00000000 23.11829395
Ti 2.94005500 2.07893500 25.19729798
Ti 2.94005500 6.23680500 25.19729798
Ti 0.00000000 4.15787000 23.11829395
Ti 0.00764414 4.17682989 1.05025910
Ti 2.92958840 6.23672184 3.09121978
Ti 3.18166872 2.07901816 3.00122755
Ti 0.00764414 8.29669696 1.05025910
Ga 0.00000000 6.23680500 25.19729798
Ga 2.94005500 0.00000000 23.11829395
Ga 0.00000000 2.07893500 25.19729798
Ga 2.94005500 4.15787000 23.11829395
Ga 5.61868031 2.07885184 3.23001245
Ga 2.91200688 4.14273535 1.04711069
Ga 0.05768388 6.23680500 3.25100189
Ga 2.91194807 0.01513465 1.04711069
Co 1.47002750 0.00000000 25.19729798
Co 4.41008250 4.15787000 25.19729798
Co 4.41008250 0.00000000 25.19729798
Co 1.47002750 4.15787000 25.19729798
Co 4.41008250 6.23680500 23.11829395
Co 1.47002750 2.07893500 23.11829395
Co 1.47002750 6.23680500 23.11829395
Co 4.41008250 2.07893500 23.11829395
Co 1.38958760 3.91696301 3.11011027
Co 4.46676676 8.22044162 2.92907635
Co 4.46694316 4.25316838 2.92907635
Co 1.38976400 0.24082383 3.11011027
Co 4.43713101 2.07893500 0.92274826
Co 1.49595879 6.23680500 1.08253037
Co 1.46314777 2.07893500 1.03923965
Co 4.37962353 6.23680500 1.06232803
C 1.50442614 2.07901816 3.91872845
