&CONTROL
calculation = 'relax'
prefix = 'scf'
pseudo_dir = '/vol0403/data/hp230205/u10028/POT_HYBRID_KKJUS_GBRV'
outdir = './data'
tprnfor = .true.
nstep = 50
disk_io = 'non'
/
&SYSTEM
ibrav = 0
ecutwfc = 50.0
ecutrho = 400
occupations = 'smearing'
smearing = 'mp'
degauss = 0.01
assume_isolated = 'esm'
esm_bc = 'bc1'
input_dft = 'BEEF-VDW'
nosym = .true.
nspin = 1
ntyp = 6
nat = 34
/
&ELECTRONS
electron_maxstep = 200
mixing_beta = 0.1
conv_thr = 1e-06
/
&IONS
ion_dynamics = 'bfgs'
upscale = 1.0
/
&CELL
/

K_POINTS {automatic}
6 6 1 0 0 0

ATOMIC_SPECIES
C 12.01 C.pbe-n-rrkjus_psl.1.0.0.UPF
Cu 63.54 Cu.pbe-dn-rrkjus_psl.1.0.0.UPF
Ge 72.64 Ge.pbe-dn-rrkjus_psl.1.0.0.UPF
In 114.8 In.pbe-dn-rrkjus_psl.1.0.0.UPF
Li 6.941 Li.pbe-sl-rrkjus_psl.1.0.0.UPF
O 15.99 O.pbe-n-rrkjus_psl.1.0.0.UPF


CELL_PARAMETERS {angstrom}
6.49386000 0.00000000 0.00000000
0.00000000 9.18370000 0.00000000
0.00000000 0.00000000 26.88780000

ATOMIC_POSITIONS {angstrom}
Li 0.00000000 2.29592500 -1.1478401799999993 0 0 0
Li 0.00000000 6.88777500 -1.1478401799999993 0 0 0
Li 3.24693000 4.59185000 -3.443789419999998 0 0 0
Li 3.24693000 0.00000000 -3.443789419999998 0 0 0
Li 5.21625798 6.84993816 4.33243121
Li 5.21606317 2.33376184 4.33270009
Li 2.82379008 0.00000000 1.46323408
Li 2.73729187 4.59185000 1.45462998
In 1.62346500 0.00000000 -1.1478401799999993 0 0 0
In 1.62346500 4.59185000 -1.1478401799999993 0 0 0
In 4.87039500 2.29592500 -3.443789419999998 0 0 0
In 4.87039500 6.88777500 -3.443789419999998 0 0 0
In 0.69867440 4.59185000 3.75192361
In 0.64574944 0.00009184 3.75837668
In 4.64830499 6.78702981 1.25082046
In 4.64830499 2.39667019 1.25082046
Cu 0.00000000 0.00000000 -3.443789419999998 0 0 0
Cu 0.00000000 4.59185000 -3.443789419999998 0 0 0
Cu 3.24693000 6.88777500 -1.1478401799999993 0 0 0
Cu 3.24693000 2.29592500 -1.1478401799999993 0 0 0
Cu 6.44022072 4.59194184 0.90074130
Cu 6.35242373 0.00000000 0.92386481
Cu 2.81190632 2.35442517 3.31123257
Cu 2.81203620 6.82918299 3.31123257
Ge 4.87039500 0.00000000 -1.1478401799999993 0 0 0
Ge 4.87039500 4.59185000 -1.1478401799999993 0 0 0
Ge 1.62346500 2.29592500 -3.443789419999998 0 0 0
Ge 1.62346500 6.88777500 -3.443789419999998 0 0 0
Ge 3.64889993 4.59185000 4.09770072
Ge 3.69026582 0.00000000 4.14233447
Ge 1.01388636 6.90807098 1.54631738
Ge 1.01395130 2.27572086 1.54631738
C 2.93347138 0.00000000 5.94085941
O 2.68618519 0.00000000 7.07848223
