&CONTROL
calculation = 'relax'
prefix = 'scf'
pseudo_dir = '/vol0004/mdt0/data/hp150275/u10028/POT_KKJUS'
outdir = './data'
tprnfor = .true.
nstep = 50
disk_io = 'non'
/
&SYSTEM
ibrav = 0
ecutwfc = 50.0
ecutrho = 400
occupations = 'smearing'
smearing = 'mp'
degauss = 0.01
assume_isolated = 'esm'
esm_bc = 'bc1'
input_dft = 'BEEF-VDW'
nosym = .true.
nspin = 1
ntyp = 5
nat = 18
/
&ELECTRONS
electron_maxstep = 200
mixing_beta = 0.1
conv_thr = 1e-06
/
&IONS
ion_dynamics = 'bfgs'
upscale = 1.0
/
&CELL
/

K_POINTS {automatic}
8 8 1 0 0 0

ATOMIC_SPECIES
C 12.01 C.pbe-n-rrkjus_psl.1.0.0.UPF
Ga 69.72 Ga.pbe-dnl-rrkjus_psl.1.0.0.UPF
Li 6.941 Li.pbe-sl-rrkjus_psl.1.0.0.UPF
O 15.99 O.pbe-n-rrkjus_psl.1.0.0.UPF
Pd 106.4 Pd.pbe-n-rrkjus_psl.1.0.0.UPF

CELL_PARAMETERS {angstrom}
6.14873000 0.00000000 0.00000000
0.00000000 6.14873000 0.00000000
0.00000000 0.00000000 24.61150000

ATOMIC_POSITIONS {angstrom}
Li 6.11571132 0.03308017 0.70413501
Li 3.07436500 0.00000000 -2.305851439999998 0 0 0
Li 0.00000000 3.07436500 -2.305851439999998 0 0 0
Li 3.10984317 3.03888683 0.70191998
Li 1.54031835 1.54050281 2.51160358
Li 1.53718250 4.61154750 -0.7686171500000007 0 0 0
Li 4.60822719 4.60841165 2.51160358
Li 4.61154750 1.53718250 -0.7686171500000007 0 0 0
Ga 1.53718250 1.53718250 -0.7686171500000007 0 0 0
Ga 1.53742845 4.61130155 2.12889475
Ga 4.61154750 4.61154750 -0.7686171500000007 0 0 0
Ga 4.60902652 1.53964199 2.22758686
Pd 0.00000000 0.00000000 -2.305851439999998 0 0 0
Pd 3.07436500 3.07436500 -2.305851439999998 0 0 0
Pd 3.07086022 6.14528671 0.79815094
Pd 0.00344329 3.07793126 0.79790483
C 4.61677392 1.53195608 4.22456397
O 4.61302320 1.53576829 5.38942627
