&CONTROL
calculation = 'relax'
prefix = 'scf'
pseudo_dir = '/vol0004/mdt0/data/hp150275/u10028/POT_KKJUS'
outdir = './data'
tprnfor = .true.
nstep = 50
disk_io = 'non'
/
&SYSTEM
ibrav = 0
ecutwfc = 50.0
ecutrho = 400
occupations = 'smearing'
smearing = 'mp'
degauss = 0.01
assume_isolated = 'esm'
esm_bc = 'bc1'
input_dft = 'BEEF-VDW'
nosym = .true.
nspin = 1
ntyp = 2
nat = 16
/
&ELECTRONS
electron_maxstep = 200
mixing_beta = 0.1
conv_thr = 1e-06
/
&IONS
ion_dynamics = 'bfgs'
upscale = 1.0
/
&CELL
/

K_POINTS {automatic}
10 10 2 0  0  0

ATOMIC_SPECIES
Rh 102.9 Rh.pbe-spn-rrkjus_psl.1.0.0.UPF
Ti 47.86 Ti.pbe-spn-rrkjus_psl.1.0.0.UPF

CELL_PARAMETERS {angstrom}
6.24301000 0.00000000 0.00000000
-0.00000000 6.24301000 0.00000000
0.00000000 0.00000000 24.68230000

ATOMIC_POSITIONS {angstrom}
Ti 0.00000000 0.00000000 -2.0562824100000014 0 0 0
Ti 0.00000000 0.00000000 1.06528807
Ti 0.00000000 3.12150500 -2.0562824100000014 0 0 0
Ti 0.00000000 3.12150500 1.06528807
Ti 3.12150500 0.00000000 -2.0562824100000014 0 0 0
Ti 3.12150500 -0.00000000 1.06528807
Ti 3.12150500 3.12150500 -2.0562824100000014 0 0 0
Ti 3.12150500 3.12150500 1.06528807
Rh 1.56075250 1.56075250 -0.49562058000000064 0 0 0
Rh 1.56075250 1.56075250 2.62594990
Rh 1.56075250 4.68225750 -0.49562058000000064 0 0 0
Rh 1.56075250 4.68225750 2.62594990
Rh 4.68225750 1.56075250 -0.49562058000000064 0 0 0
Rh 4.68225750 1.56075250 2.62594990
Rh 4.68225750 4.68225750 -0.49562058000000064 0 0 0
Rh 4.68225750 4.68225750 2.62594990
