&CONTROL
calculation = 'relax'
prefix = 'scf'
pseudo_dir = '/vol0004/mdt0/data/hp150275/u10028/POT_KKJUS'
outdir = './data'
tprnfor = .true.
nstep = 50
disk_io = 'non'
/
&SYSTEM
ibrav = 0
ecutwfc = 50.0
ecutrho = 400
occupations = 'smearing'
smearing = 'mp'
degauss = 0.01
assume_isolated = 'esm'
esm_bc = 'bc1'
input_dft = 'BEEF-VDW'
nosym = .true.
nspin = 1
ntyp = 4
nat = 33
/
&ELECTRONS
electron_maxstep = 200
mixing_beta = 0.1
conv_thr = 1e-06
/
&IONS
ion_dynamics = 'bfgs'
upscale = 1.0
/
&CELL
/

K_POINTS {automatic}
9 6 2 0  0  0

ATOMIC_SPECIES
C 12.01 C.pbe-n-rrkjus_psl.1.0.0.UPF
Ni 58.69 Ni.pbe-spn-rrkjus_psl.1.0.0.UPF
Sn 118.7 Sn.pbe-dn-rrkjus_psl.1.0.0.UPF
V 50.94 V.pbe-spnl-rrkjus_psl.1.0.0.UPF

CELL_PARAMETERS {angstrom}
6.08368000 0.00000000 0.00000000
0.00000000 8.60362000 0.00000000
0.00000000 0.00000000 26.45270000

ATOMIC_POSITIONS {angstrom}
V 0.00000000 0.00000000 -3.226435819999999 0 0 0
V 3.04184000 2.15090500 -1.075566779999999 0 0 0
V 3.04184000 6.45271500 -1.075566779999999 0 0 0
V 0.00000000 4.30181000 -3.226435819999999 0 0 0
V 0.00000000 4.30189604 1.10651644
V 3.04184000 6.43533569 3.06084192
V 3.04184000 2.16819828 3.06110644
V 0.00000000 8.60353396 1.22952150
Ni 1.52092000 0.00000000 -1.075566779999999 0 0 0
Ni 4.56276000 4.30181000 -1.075566779999999 0 0 0
Ni 4.56276000 0.00000000 -1.075566779999999 0 0 0
Ni 1.52092000 4.30181000 -1.075566779999999 0 0 0
Ni 4.56276000 6.45271500 -3.226435819999999 0 0 0
Ni 1.52092000 2.15090500 -3.226435819999999 0 0 0
Ni 1.52092000 6.45271500 -3.226435819999999 0 0 0
Ni 4.56276000 2.15090500 -3.226435819999999 0 0 0
Ni 1.70659391 4.30163793 3.10343076
Ni 4.27591449 0.00008604 3.31081993
Ni 4.37708609 4.30163793 3.10343076
Ni 1.80782635 0.00000000 3.31081993
Ni 4.72945283 2.20975376 1.26285190
Ni 1.35416633 6.39386624 1.26285190
Ni 1.35422717 2.20975376 1.26285190
Ni 4.72945283 6.39378020 1.26258737
Sn 0.00000000 6.45271500 -1.075566779999999 0 0 0
Sn 3.04184000 0.00000000 -3.226435819999999 0 0 0
Sn 0.00000000 2.15090500 -1.075566779999999 0 0 0
Sn 3.04184000 4.30181000 -3.226435819999999 0 0 0
Sn 0.00000000 2.30172646 3.78379421
Sn 3.04184000 4.30172396 0.94859382
Sn 0.00000000 6.30172147 3.78379421
Sn 3.04184000 0.00008604 1.01234483
C 0.00000000 8.60353396 3.16215576
