&CONTROL
calculation = 'relax'
prefix = 'scf'
pseudo_dir = '/vol0403/data/hp230205/u10028/POT_HYBRID_KKJUS_GBRV'
outdir = './data'
tprnfor = .true.
nstep = 50
disk_io = 'non'
/
&SYSTEM
ibrav = 0
ecutwfc = 50.0
ecutrho = 400
occupations = 'smearing'
smearing = 'mp'
degauss = 0.01
assume_isolated = 'esm'
esm_bc = 'bc1'
input_dft = 'BEEF-VDW'
nosym = .true.
nspin = 1
ntyp = 6
nat = 34
/
&ELECTRONS
electron_maxstep = 200
mixing_beta = 0.1
conv_thr = 1e-06
/
&IONS
ion_dynamics = 'bfgs'
upscale = 1.0
/
&CELL
/

K_POINTS {automatic}
7 7 2 0  0  0

ATOMIC_SPECIES
Au 196.9 Au.pbe-n-rrkjus_psl.1.0.0.UPF
C 12.01 C.pbe-n-rrkjus_psl.1.0.0.UPF
Ge 72.64 Ge.pbe-dn-rrkjus_psl.1.0.0.UPF
In 114.8 In.pbe-dn-rrkjus_psl.1.0.0.UPF
Li 6.941 Li.pbe-sl-rrkjus_psl.1.0.0.UPF
O 15.99 O.pbe-n-rrkjus_psl.1.0.0.UPF


CELL_PARAMETERS {angstrom}
8.39470000 0.00000000 0.00000000
0.00000000 8.46544000 0.00000000
0.00000000 0.00000000 26.43350000

ATOMIC_POSITIONS {angstrom}
Li 2.09867500 2.11636000 -3.21669262 0 0 0
Li 2.09859105 2.17121605 1.01980443
Li 2.09867500 6.34908000 -3.21669262 0 0 0
Li 2.09875895 6.29422395 1.01980443
Li 6.29602500 2.11636000 -3.21669262 0 0 0
Li 6.29602500 2.13599982 1.04491625
Li 6.29602500 6.34908000 -3.21669262 0 0 0
Li 6.29602500 6.32944018 1.04491625
In 2.09867500 0.00000000 -1.0721427599999984 0 0 0
In 2.09875895 0.00000000 3.53257294
In 2.09867500 4.23272000 -1.0721427599999984 0 0 0
In 2.09867500 4.23272000 3.73954725
In 6.29602500 0.00000000 -1.0721427599999984 0 0 0
In 6.29602500 0.00000000 3.70994172
In 6.29602500 4.23272000 -1.0721427599999984 0 0 0
In 6.29602500 4.23272000 3.79347158
Ge 0.00000000 2.11636000 -1.0721427599999984 0 0 0
Ge 0.00235052 2.01722970 2.83525721
Ge 0.00000000 6.34908000 -1.0721427599999984 0 0 0
Ge 0.00243446 6.44812565 2.83499287
Ge 4.19735000 2.11636000 -1.0721427599999984 0 0 0
Ge 4.19499948 2.01722970 2.83525721
Ge 4.19735000 6.34908000 -1.0721427599999984 0 0 0
Ge 4.19499948 6.44812565 2.83525721
Au 0.00000000 0.00000000 -3.21669262 0 0 0
Au 8.37144668 0.00008465 0.98041851
Au 0.00000000 4.23272000 -3.21669262 0 0 0
Au 8.38630530 4.23272000 1.09566857
Au 4.19735000 0.00000000 -3.21669262 0 0 0
Au 4.22060332 8.46535535 0.98041851
Au 4.19735000 4.23272000 -3.21669262 0 0 0
Au 4.20574470 4.23272000 1.09566857
C 2.09817132 0.00008465 7.65699194
O 2.09892684 0.00000000 8.79151777
