&CONTROL
calculation = 'relax'
prefix = 'scf'
pseudo_dir = '/vol0004/mdt0/data/hp150275/u10028/POT_KKJUS'
outdir = './data'
tprnfor = .true.
nstep = 50
disk_io = 'non'
/
&SYSTEM
ibrav = 0
ecutwfc = 50.0
ecutrho = 400
occupations = 'smearing'
smearing = 'mp'
degauss = 0.01
assume_isolated = 'esm'
esm_bc = 'bc1'
input_dft = 'BEEF-VDW'
nosym = .true.
nspin = 1
ntyp = 4
nat = 33
/
&ELECTRONS
electron_maxstep = 200
mixing_beta = 0.1
conv_thr = 1e-06
/
&IONS
ion_dynamics = 'bfgs'
upscale = 1.0
/
&CELL
/

K_POINTS {automatic}
9 6 2 0  0  0

ATOMIC_SPECIES
C 12.01 C.pbe-n-rrkjus_psl.1.0.0.UPF
In 114.8 In.pbe-dn-rrkjus_psl.1.0.0.UPF
Li 6.941 Li.pbe-sl-rrkjus_psl.1.0.0.UPF
Pt 195.0 Pt.pbe-n-rrkjus_psl.1.0.0.UPF

CELL_PARAMETERS {angstrom}
6.69031000 0.00000000 0.00000000
0.00000000 9.46152000 0.00000000
0.00000000 0.00000000 27.09610000

ATOMIC_POSITIONS {angstrom}
Li 0.00000000 0.00000000 -3.547963329999998 0 0 0
Li 3.34515500 2.36538000 -1.1827447599999985 0 0 0
Li 3.34515500 7.09614000 -1.1827447599999985 0 0 0
Li 0.00000000 4.73076000 -3.547963329999998 0 0 0
Li 6.67358423 4.72290694 1.43338369
Li 3.19535896 7.09614000 3.76148060
Li 3.64180335 2.36538000 4.07850497
Li 6.67358423 0.00785306 1.43338369
In 1.67257750 0.00000000 -1.1827447599999985 0 0 0
In 5.01773250 4.73076000 -1.1827447599999985 0 0 0
In 5.01773250 0.00000000 -1.1827447599999985 0 0 0
In 1.67257750 4.73076000 -1.1827447599999985 0 0 0
In 5.01773250 7.09614000 -3.547963329999998 0 0 0
In 1.67257750 2.36538000 -3.547963329999998 0 0 0
In 1.67257750 7.09614000 -3.547963329999998 0 0 0
In 5.01773250 2.36538000 -3.547963329999998 0 0 0
In 1.78557684 4.70294313 3.95467579
In 5.11380535 9.33662794 4.02214508
In 5.11380535 4.85565206 4.02214508
In 1.78557684 0.02772225 3.95467579
In 4.89215538 2.36538000 1.18924783
In 1.70368744 7.09614000 1.15456482
In 1.78263310 2.36538000 1.31497373
In 4.96293886 7.09614000 1.26430403
Pt 0.00000000 7.09614000 -1.1827447599999985 0 0 0
Pt 3.34515500 0.00000000 -3.547963329999998 0 0 0
Pt 0.00000000 2.36538000 -1.1827447599999985 0 0 0
Pt 3.34515500 4.73076000 -3.547963329999998 0 0 0
Pt 6.34890348 2.36538000 3.46206870
Pt 3.33799637 4.77286376 1.07083787
Pt 0.07493147 7.09614000 3.34040721
Pt 3.33799637 9.41941624 1.07083787
C 1.61724864 2.36538000 3.76012580
