&CONTROL
calculation = 'relax'
prefix = 'scf'
pseudo_dir = '/vol0403/data/hp230205/u10028/POT_HYBRID_KKJUS_GBRV'
outdir = './data'
tprnfor = .true.
nstep = 50
disk_io = 'non'
/
&SYSTEM
ibrav = 0
ecutwfc = 50.0
ecutrho = 400
occupations = 'smearing'
smearing = 'mp'
degauss = 0.01
assume_isolated = 'esm'
esm_bc = 'bc1'
input_dft = 'BEEF-VDW'
nosym = .true.
nspin = 1
ntyp = 6
nat = 18
/
&ELECTRONS
electron_maxstep = 200
mixing_beta = 0.1
conv_thr = 1e-06
/
&IONS
ion_dynamics = 'bfgs'
upscale = 1.0
/
&CELL
/

K_POINTS {automatic}
9 9 2 0  0  0

ATOMIC_SPECIES
Ag 107.8 Ag.pbe-n-rrkjus_psl.1.0.0.UPF
C 12.01 C.pbe-n-rrkjus_psl.1.0.0.UPF
In 114.8 In.pbe-dn-rrkjus_psl.1.0.0.UPF
Li 6.941 Li.pbe-sl-rrkjus_psl.1.0.0.UPF
O 15.99 O.pbe-n-rrkjus_psl.1.0.0.UPF
Sc 44.95 Sc.pbe-spn-rrkjus_psl.1.0.0.UPF


CELL_PARAMETERS {angstrom}
6.68683000 0.00000000 0.00000000
0.00000000 6.68683000 0.00000000
0.00000000 0.00000000 25.01510000

ATOMIC_POSITIONS {angstrom}
Li 0.00000000 3.34341500 -2.507513620000001 0 0 0
Li 0.09963377 6.58719623 0.96708377
Li 3.24919757 3.43763243 0.96958528
Li 3.34341500 0.00000000 -2.507513620000001 0 0 0
Sc 5.01512250 1.67170750 -0.8357544899999994 0 0 0
Sc 5.01739602 5.01759663 2.63959335
Sc 1.66916650 1.66950085 2.63959335
Sc 1.67170750 5.01512250 -0.8357544899999994 0 0 0
In 1.67170750 1.67170750 -0.8357544899999994 0 0 0
In 1.67404789 5.01278211 2.89899994
In 5.02040510 1.66649177 2.38393903
In 5.01512250 5.01512250 -0.8357544899999994 0 0 0
Ag 0.00000000 0.00000000 -2.507513620000001 0 0 0
Ag 0.08505648 3.42967511 0.91180040
Ag 3.25715489 6.60177352 0.91180040
Ag 3.34341500 3.34341500 -2.507513620000001 0 0 0
C 5.00469105 1.68213895 4.64480377
O 5.00943869 1.67745817 5.80300290
