&CONTROL
calculation = 'relax'
prefix = 'scf'
pseudo_dir = '/vol0004/mdt0/data/hp150275/u10028/POT_KKJUS'
outdir = './data'
tprnfor = .true.
nstep = 50
disk_io = 'non'
/
&SYSTEM
ibrav = 0
ecutwfc = 50.0
ecutrho = 400
occupations = 'smearing'
smearing = 'mp'
degauss = 0.01
assume_isolated = 'esm'
esm_bc = 'bc1'
input_dft = 'BEEF-VDW'
nosym = .true.
nspin = 1
ntyp = 5
nat = 34
/
&ELECTRONS
electron_maxstep = 200
mixing_beta = 0.1
conv_thr = 1e-06
/
&IONS
ion_dynamics = 'bfgs'
upscale = 1.0
/
&CELL
/

K_POINTS {automatic}
8 6 1 0 0 0

ATOMIC_SPECIES
C 12.01 C.pbe-n-rrkjus_psl.1.0.0.UPF
Ga 69.72 Ga.pbe-dnl-rrkjus_psl.1.0.0.UPF
Li 6.941 Li.pbe-sl-rrkjus_psl.1.0.0.UPF
O 15.99 O.pbe-n-rrkjus_psl.1.0.0.UPF
Rh 102.9 Rh.pbe-spn-rrkjus_psl.1.0.0.UPF

CELL_PARAMETERS {angstrom}
6.12388000 0.00000000 0.00000000
0.00000000 8.66047000 0.00000000
0.00000000 0.00000000 26.49540000

ATOMIC_POSITIONS {angstrom}
Li 0.00000000 0.00000000 -3.2478061300000007 0 0 0
Li 3.06194000 2.16511750 -1.0826020400000012 0 0 0
Li 3.06194000 6.49535250 -1.0826020400000012 0 0 0
Li 0.00000000 4.33023500 -3.2478061300000007 0 0 0
Li 0.00000000 4.34920143 1.04047436
Li 3.06194000 6.49535250 3.73585140
Li 3.06194000 2.16511750 3.58509257
Li 0.00000000 8.64150357 1.04047436
Ga 1.53097000 0.00000000 -1.0826020400000012 0 0 0
Ga 4.59291000 4.33023500 -1.0826020400000012 0 0 0
Ga 4.59291000 0.00000000 -1.0826020400000012 0 0 0
Ga 1.53097000 4.33023500 -1.0826020400000012 0 0 0
Ga 4.59291000 6.49535250 -3.2478061300000007 0 0 0
Ga 1.53097000 2.16511750 -3.2478061300000007 0 0 0
Ga 1.53097000 6.49535250 -3.2478061300000007 0 0 0
Ga 4.59291000 2.16511750 -3.2478061300000007 0 0 0
Ga 1.47781472 4.37873363 3.29205345
Ga 4.64600404 8.61197137 3.29205345
Ga 4.64606528 4.37873363 3.29205345
Ga 1.47787596 8.61197137 3.29205345
Ga 4.58372418 2.16511750 1.19971171
Ga 1.61027425 6.49535250 1.10353341
Ga 1.54015582 2.16511750 1.19971171
Ga 4.51360575 6.49535250 1.10353341
Rh 0.00000000 6.49535250 -1.0826020400000012 0 0 0
Rh 3.06194000 0.00000000 -3.2478061300000007 0 0 0
Rh 0.00000000 2.16511750 -1.0826020400000012 0 0 0
Rh 3.06194000 4.33023500 -3.2478061300000007 0 0 0
Rh 0.00000000 2.16511750 3.43115430
Rh 3.06194000 4.29845108 0.98509897
Rh 0.00000000 6.49535250 3.04352660
Rh 3.06194000 0.03187053 0.98483402
C 0.00000000 2.16511750 5.31842164
O 0.00000000 2.16511750 6.47706548
