&CONTROL
calculation = 'relax'
prefix = 'scf'
pseudo_dir = '/vol0004/mdt0/data/hp150275/u10028/POT_KKJUS'
outdir = './data'
tprnfor = .true.
nstep = 50
disk_io = 'non'
/
&SYSTEM
ibrav = 0
ecutwfc = 50.0
ecutrho = 400
occupations = 'smearing'
smearing = 'mp'
degauss = 0.01
assume_isolated = 'esm'
esm_bc = 'bc1'
input_dft = 'BEEF-VDW'
nosym = .true.
nspin = 1
ntyp = 2
nat = 32
/
&ELECTRONS
electron_maxstep = 200
mixing_beta = 0.1
conv_thr = 1e-06
/
&IONS
ion_dynamics = 'bfgs'
upscale = 1.0
/
&CELL
/

K_POINTS {automatic}
9 6 2 0  0  0

ATOMIC_SPECIES
Li 6.941 Li.pbe-sl-rrkjus_psl.1.0.0.UPF
Pd 106.4 Pd.pbe-n-rrkjus_psl.1.0.0.UPF

CELL_PARAMETERS {angstrom}
6.21964000 0.00000000 0.00000000
0.00000000 8.79589000 0.00000000
0.00000000 0.00000000 26.59690000

ATOMIC_POSITIONS {angstrom}
Li 1.55491000 0.00000000 -1.099515850000003 0 0 0
Li 4.66473000 4.39794500 -1.099515850000003 0 0 0
Li 4.66473000 0.00000000 -1.099515850000003 0 0 0
Li 1.55491000 4.39794500 -1.099515850000003 0 0 0
Li 4.66473000 6.59691750 -3.2985475400000013 0 0 0
Li 1.55491000 2.19897250 -3.2985475400000013 0 0 0
Li 1.55491000 6.59691750 -3.2985475400000013 0 0 0
Li 4.66473000 2.19897250 -3.2985475400000013 0 0 0
Li 0.00000000 6.59691750 -1.099515850000003 0 0 0
Li 3.10982000 0.00000000 -3.2985475400000013 0 0 0
Li 0.00000000 2.19897250 -1.099515850000003 0 0 0
Li 3.10982000 4.39794500 -3.2985475400000013 0 0 0
Li 1.68888105 4.39794500 3.51584421
Li 4.53069676 0.00000000 3.51557824
Li 4.53075895 4.39794500 3.51584421
Li 1.68894324 0.00000000 3.51557824
Li 4.66305070 2.19897250 1.04259848
Li 1.55658930 6.59691750 1.04259848
Li 1.55658930 2.19897250 1.04259848
Li 4.66305070 6.59691750 1.04259848
Li 0.00000000 2.19897250 3.11556087
Li 3.10982000 4.39794500 1.18249817
Li 0.00000000 6.59691750 3.11556087
Li 3.10982000 0.00000000 1.18249817
Pd 0.00000000 0.00000000 -3.2985475400000013 0 0 0
Pd 3.10982000 2.19897250 -1.099515850000003 0 0 0
Pd 3.10982000 6.59691750 -1.099515850000003 0 0 0
Pd 0.00000000 4.39794500 -3.2985475400000013 0 0 0
Pd 0.00000000 4.39794500 1.33117485
Pd 3.10982000 6.59691750 3.05332412
Pd 3.10982000 2.19897250 3.05359009
Pd 0.00000000 0.00000000 1.33117485
