&CONTROL
calculation = 'relax'
prefix = 'scf'
pseudo_dir = '/vol0004/mdt0/data/hp150275/u10028/POT_KKJUS'
outdir = './data'
tprnfor = .true.
nstep = 50
disk_io = 'non'
/
&SYSTEM
ibrav = 0
ecutwfc = 50.0
ecutrho = 400
occupations = 'smearing'
smearing = 'mp'
degauss = 0.01
assume_isolated = 'esm'
esm_bc = 'bc1'
input_dft = 'BEEF-VDW'
nosym = .true.
nspin = 1
ntyp = 3
nat = 33
/
&ELECTRONS
electron_maxstep = 200
mixing_beta = 0.1
conv_thr = 1e-06
/
&IONS
ion_dynamics = 'bfgs'
upscale = 1.0
/
&CELL
/

K_POINTS {automatic}
8 6 1 0 0 0

ATOMIC_SPECIES
Be 9.012 Be.pbe-n-rrkjus_psl.1.0.0.UPF
C 12.01 C.pbe-n-rrkjus_psl.1.0.0.UPF
Rh 102.9 Rh.pbe-spn-rrkjus_psl.1.0.0.UPF

CELL_PARAMETERS {angstrom}
5.57428000 0.00000000 0.00000000
0.00000000 7.88322000 0.00000000
0.00000000 0.00000000 25.91240000

ATOMIC_POSITIONS {angstrom}
Be 0.00000000 0.00000000 -2.9560865900000017 0 0 0
Be 0.00000000 1.97080500 -0.9854485700000026 0 0 0
Be 0.00000000 0.00000000 0.95720406
Be 0.00000000 1.97608676 2.86928005
Be 0.00000000 3.94161000 -2.9560865900000017 0 0 0
Be 0.00000000 5.91241500 -0.9854485700000026 0 0 0
Be 0.00000000 3.94161000 1.03105440
Be 0.00000000 5.90713324 2.86928005
Be 2.78714000 0.00000000 -2.9560865900000017 0 0 0
Be 2.78714000 1.97080500 -0.9854485700000026 0 0 0
Be 2.78714000 0.00000000 0.86158730
Be 2.78714000 2.02086345 2.81538226
Be 2.78714000 3.94161000 -2.9560865900000017 0 0 0
Be 2.78714000 5.91241500 -0.9854485700000026 0 0 0
Be 2.78714000 3.94161000 1.02094856
Be 2.78714000 5.86235655 2.81538226
Rh 1.39357000 1.97080500 -2.9560865900000017 0 0 0
Rh 1.39357000 0.00000000 -0.9854485700000026 0 0 0
Rh 1.38582175 1.95732469 0.98829894
Rh 1.39524228 3.94161000 2.96593330
Rh 1.39357000 5.91241500 -2.9560865900000017 0 0 0
Rh 1.39357000 3.94161000 -0.9854485700000026 0 0 0
Rh 1.38582175 5.92589531 0.98829894
Rh 1.42344814 0.00000000 3.02993693
Rh 4.18071000 1.97080500 -2.9560865900000017 0 0 0
Rh 4.18071000 0.00000000 -0.9854485700000026 0 0 0
Rh 4.18845825 1.95732469 0.98829894
Rh 4.17903772 3.94161000 2.96593330
Rh 4.18071000 5.91241500 -2.9560865900000017 0 0 0
Rh 4.18071000 3.94161000 -0.9854485700000026 0 0 0
Rh 4.18845825 5.92589531 0.98829894
Rh 4.15088760 0.00000000 3.02993693
C 0.00000000 0.00000000 4.18226136
