&CONTROL
calculation = 'relax'
prefix = 'scf'
pseudo_dir = '/vol0004/mdt0/data/hp150275/u10028/POT_KKJUS'
outdir = './data'
tprnfor = .true.
nstep = 50
disk_io = 'non'
/
&SYSTEM
ibrav = 0
ecutwfc = 50.0
ecutrho = 400
occupations = 'smearing'
smearing = 'mp'
degauss = 0.01
assume_isolated = 'esm'
esm_bc = 'bc1'
input_dft = 'BEEF-VDW'
nosym = .true.
nspin = 1
ntyp = 2
nat = 16
/
&ELECTRONS
electron_maxstep = 200
mixing_beta = 0.1
conv_thr = 1e-06
/
&IONS
ion_dynamics = 'bfgs'
upscale = 1.0
/
&CELL
/

K_POINTS {automatic}
10 10 2 0  0  0

ATOMIC_SPECIES
Os 190.2 Os.pbe-spn-rrkjus_psl.1.0.0.UPF
V 50.94 V.pbe-spnl-rrkjus_psl.1.0.0.UPF

CELL_PARAMETERS {angstrom}
6.04788000 0.00000000 0.00000000
-0.00000000 6.04788000 0.00000000
0.00000000 0.00000000 24.53590000

ATOMIC_POSITIONS {angstrom}
V 0.00000000 0.00000000 -2.704592260000002 0 0 0
V 0.00000000 0.00000000 0.31945742
V 0.00000000 3.02394000 -2.704592260000002 0 0 0
V 0.00000000 3.02394000 0.31945742
V 3.02394000 0.00000000 -2.704592260000002 0 0 0
V 3.02394000 -0.00000000 0.31945742
V 3.02394000 3.02394000 -2.704592260000002 0 0 0
V 3.02394000 3.02394000 0.31945742
Os 1.51197000 1.51197000 -1.1926901 0 0 0
Os 1.51197000 1.51197000 1.83135958
Os 1.51197000 4.53591000 -1.1926901 0 0 0
Os 1.51197000 4.53591000 1.83135958
Os 4.53591000 1.51197000 -1.1926901 0 0 0
Os 4.53591000 1.51197000 1.83135958
Os 4.53591000 4.53591000 -1.1926901 0 0 0
Os 4.53591000 4.53591000 1.83135958
