&CONTROL
calculation = 'relax'
prefix = 'scf'
pseudo_dir = '/vol0004/mdt0/data/hp150275/u10028/POT_KKJUS'
outdir = './data'
tprnfor = .true.
nstep = 50
disk_io = 'non'
/
&SYSTEM
ibrav = 0
ecutwfc = 50.0
ecutrho = 400
occupations = 'smearing'
smearing = 'mp'
degauss = 0.01
assume_isolated = 'esm'
esm_bc = 'bc1'
input_dft = 'BEEF-VDW'
nosym = .true.
nspin = 1
ntyp = 4
nat = 33
/
&ELECTRONS
electron_maxstep = 200
mixing_beta = 0.1
conv_thr = 1e-06
/
&IONS
ion_dynamics = 'bfgs'
upscale = 1.0
/
&CELL
/

K_POINTS {automatic}
8 6 1 0 0 0

ATOMIC_SPECIES
Al 26.98 Al.pbe-nl-rrkjus_psl.1.0.0.UPF
C 12.01 C.pbe-n-rrkjus_psl.1.0.0.UPF
Ti 47.86 Ti.pbe-spn-rrkjus_psl.1.0.0.UPF
Zr 91.22 Zr.pbe-spn-rrkjus_psl.1.0.0.UPF

CELL_PARAMETERS {angstrom}
6.81091000 0.00000000 0.00000000
0.00000000 9.63207000 0.00000000
0.00000000 0.00000000 27.22410000

ATOMIC_POSITIONS {angstrom}
Zr 1.70272750 0.00000000 -1.2041219400000003 0 0 0
Zr 5.10818250 4.81603500 -1.2041219400000003 0 0 0
Zr 5.10818250 0.00000000 -1.2041219400000003 0 0 0
Zr 1.70272750 4.81603500 -1.2041219400000003 0 0 0
Zr 5.10818250 7.22405250 -3.6120935900000006 0 0 0
Zr 1.70272750 2.40801750 -3.6120935900000006 0 0 0
Zr 1.70272750 7.22405250 -3.6120935900000006 0 0 0
Zr 5.10818250 2.40801750 -3.6120935900000006 0 0 0
Zr 1.87545218 4.81603500 3.54403334
Zr 5.40738578 0.00000000 3.57234640
Zr 4.93545782 4.81603500 3.54403334
Zr 1.40352422 0.00000000 3.57234640
Zr 5.08127941 2.41254457 1.27054875
Zr 1.72956249 7.21952543 1.27054875
Zr 1.72963059 2.41254457 1.27054875
Zr 5.08134751 7.21952543 1.27054875
Ti 0.00000000 0.00000000 -3.6120935900000006 0 0 0
Ti 3.40545500 2.40801750 -1.2041219400000003 0 0 0
Ti 3.40545500 7.22405250 -1.2041219400000003 0 0 0
Ti 0.00000000 4.81603500 -3.6120935900000006 0 0 0
Ti 0.00000000 4.81603500 1.56593023
Ti 3.40545500 7.58409928 3.73378531
Ti 3.40545500 2.04797072 3.73378531
Ti 0.00000000 0.00000000 0.95801608
Al 0.00000000 7.22405250 -1.2041219400000003 0 0 0
Al 3.40545500 0.00000000 -3.6120935900000006 0 0 0
Al 0.00000000 2.40801750 -1.2041219400000003 0 0 0
Al 3.40545500 4.81603500 -3.6120935900000006 0 0 0
Al 0.00000000 2.56993260 3.61154911
Al 3.40545500 4.81603500 1.09495330
Al 0.00000000 7.06213740 3.61154911
Al 3.40545500 0.00000000 1.31356282
C 3.40545500 0.00000000 4.27717835
