&CONTROL
calculation = 'relax'
prefix = 'scf'
pseudo_dir = '/vol0403/data/hp230205/u10028/POT_HYBRID_KKJUS_GBRV'
outdir = './data'
tprnfor = .true.
nstep = 50
disk_io = 'non'
/
&SYSTEM
ibrav = 0
ecutwfc = 50.0
ecutrho = 400
occupations = 'smearing'
smearing = 'mp'
degauss = 0.01
assume_isolated = 'esm'
esm_bc = 'bc1'
input_dft = 'BEEF-VDW'
nosym = .true.
nspin = 1
ntyp = 5
nat = 33
/
&ELECTRONS
electron_maxstep = 200
mixing_beta = 0.1
conv_thr = 1e-06
/
&IONS
ion_dynamics = 'bfgs'
upscale = 1.0
/
&CELL
/

K_POINTS {automatic}
6 6 1 0 0 0

ATOMIC_SPECIES
Ag 107.8 Ag.pbe-n-rrkjus_psl.1.0.0.UPF
C 12.01 C.pbe-n-rrkjus_psl.1.0.0.UPF
In 114.8 In.pbe-dn-rrkjus_psl.1.0.0.UPF
Li 6.941 Li.pbe-sl-rrkjus_psl.1.0.0.UPF
Mg 24.30 Mg.pbe-spnl-rrkjus_psl.1.0.0.UPF


CELL_PARAMETERS {angstrom}
6.69019000 0.00000000 0.00000000
0.00000000 9.46136000 0.00000000
0.00000000 0.00000000 27.09600000

ATOMIC_POSITIONS {angstrom}
Li 0.00000000 2.36534000 -1.1827404000000001 0 0 0
Li 0.00000000 7.09602000 -1.1827404000000001 0 0 0
Li 3.34509500 4.73068000 -3.5479502399999987 0 0 0
Li 3.34509500 0.00000000 -3.5479502399999987 0 0 0
Li 0.11139166 7.35147672 3.89884344
Li 0.11132476 2.11007251 3.89884344
Li 3.24333721 0.00000000 1.22419728
Li 3.35278872 4.73068000 1.35832248
Mg 5.01764250 0.00000000 -1.1827404000000001 0 0 0
Mg 5.01764250 4.73068000 -1.1827404000000001 0 0 0
Mg 1.67254750 2.36534000 -3.5479502399999987 0 0 0
Mg 1.67254750 7.09602000 -3.5479502399999987 0 0 0
Mg 5.10254101 4.73077461 3.71594544
Mg 4.78154569 0.00009461 3.68424312
Mg 1.61695202 7.01540921 1.22202960
Mg 1.61695202 2.44585617 1.22230056
In 1.67254750 0.00000000 -1.1827404000000001 0 0 0
In 1.67254750 4.73068000 -1.1827404000000001 0 0 0
In 5.01764250 2.36534000 -3.5479502399999987 0 0 0
In 5.01764250 7.09602000 -3.5479502399999987 0 0 0
In 1.45765860 4.73068000 3.94517760
In 2.10667393 0.00009461 4.49658120
In 5.01998407 7.16206029 1.25698344
In 5.01998407 2.29929971 1.25698344
Ag 0.00000000 0.00000000 -3.5479502399999987 0 0 0
Ag 0.00000000 4.73068000 -3.5479502399999987 0 0 0
Ag 3.34509500 7.09602000 -1.1827404000000001 0 0 0
Ag 3.34509500 2.36534000 -1.1827404000000001 0 0 0
Ag 6.63017900 4.73068000 1.19005632
Ag 0.17528298 0.00000000 1.43879760
Ag 3.27404518 2.53649600 3.54361488
Ag 3.27404518 6.92495861 3.54361488
C 0.13273337 0.00009461 3.80780088
