&CONTROL
calculation = 'relax'
prefix = 'scf'
pseudo_dir = '/vol0004/mdt0/data/hp150275/u10028/POT_KKJUS'
outdir = './data'
tprnfor = .true.
nstep = 50
disk_io = 'non'
/
&SYSTEM
ibrav = 0
ecutwfc = 50.0
ecutrho = 400
occupations = 'smearing'
smearing = 'mp'
degauss = 0.01
assume_isolated = 'esm'
esm_bc = 'bc1'
input_dft = 'BEEF-VDW'
nosym = .true.
nspin = 1
ntyp = 5
nat = 18
/
&ELECTRONS
electron_maxstep = 200
mixing_beta = 0.1
conv_thr = 1e-06
/
&IONS
ion_dynamics = 'bfgs'
upscale = 1.0
/
&CELL
/

K_POINTS {automatic}
8 8 1 0 0 0

ATOMIC_SPECIES
Au 196.9 Au.pbe-n-rrkjus_psl.1.0.0.UPF
C 12.01 C.pbe-n-rrkjus_psl.1.0.0.UPF
Ge 72.64 Ge.pbe-dn-rrkjus_psl.1.0.0.UPF
Li 6.941 Li.pbe-sl-rrkjus_psl.1.0.0.UPF
O 15.99 O.pbe-n-rrkjus_psl.1.0.0.UPF

CELL_PARAMETERS {angstrom}
6.30953000 0.00000000 0.00000000
0.00000000 6.30953000 0.00000000
0.00000000 0.00000000 24.73210000

ATOMIC_POSITIONS {angstrom}
Li 6.26107281 0.04833100 0.74641478
Li 3.15476500 0.00000000 -2.3661200099999995 0 0 0
Li 0.00000000 3.15476500 -2.3661200099999995 0 0 0
Li 3.21464244 3.09501375 0.76892099
Li 1.56817059 1.56583606 2.63965703
Li 1.57738250 4.73214750 -0.7887066699999998 0 0 0
Li 4.74375704 4.74123322 2.63940971
Li 4.73214750 1.57738250 -0.7887066699999998 0 0 0
Ge 0.00000000 0.00000000 -2.3661200099999995 0 0 0
Ge 3.15476500 3.15476500 -2.3661200099999995 0 0 0
Ge 3.22593650 0.07205483 0.89554934
Ge 6.23709660 3.08403517 0.89554934
Au 1.57738250 1.57738250 -0.7887066699999998 0 0 0
Au 1.57719321 4.73227369 2.15837037
Au 4.73214750 4.73214750 -0.7887066699999998 0 0 0
Au 4.73366179 1.57599440 2.48211356
C 4.74451418 1.56501582 4.53809303
O 4.72949750 1.58003250 5.69357674
