&CONTROL
calculation = 'relax'
prefix = 'scf'
pseudo_dir = '/vol0403/data/hp230205/u10028/POT_HYBRID_KKJUS_GBRV'
outdir = './data'
tprnfor = .true.
nstep = 50
disk_io = 'non'
/
&SYSTEM
ibrav = 0
ecutwfc = 50.0
ecutrho = 400
occupations = 'smearing'
smearing = 'mp'
degauss = 0.01
assume_isolated = 'esm'
esm_bc = 'bc1'
input_dft = 'BEEF-VDW'
nosym = .true.
nspin = 1
ntyp = 5
nat = 33
/
&ELECTRONS
electron_maxstep = 200
mixing_beta = 0.1
conv_thr = 1e-06
/
&IONS
ion_dynamics = 'bfgs'
upscale = 1.0
/
&CELL
/

K_POINTS {automatic}
6 6 1 0 0 0

ATOMIC_SPECIES
C 12.01 C.pbe-n-rrkjus_psl.1.0.0.UPF
Ge 72.64 Ge.pbe-dn-rrkjus_psl.1.0.0.UPF
Li 6.941 Li.pbe-sl-rrkjus_psl.1.0.0.UPF
Pd 106.4 Pd.pbe-n-rrkjus_psl.1.0.0.UPF
Pt 195.0 Pt.pbe-n-rrkjus_psl.1.0.0.UPF


CELL_PARAMETERS {angstrom}
6.12898000 0.00000000 0.00000000
0.00000000 8.66768000 0.00000000
0.00000000 0.00000000 26.50080000

ATOMIC_POSITIONS {angstrom}
Li 0.00000000 2.16692000 -1.0833527000000025 0 0 0
Li 0.00000000 6.50076000 -1.0833527000000025 0 0 0
Li 3.06449000 4.33384000 -3.250323120000001 0 0 0
Li 3.06449000 0.00000000 -3.250323120000001 0 0 0
Li 0.10676683 6.50076000 3.68043110
Li 0.02555785 2.16692000 4.25655850
Li 3.07766731 8.65528522 1.04996170
Li 3.07766731 4.34623478 1.04996170
Ge 0.00000000 0.00000000 -3.250323120000001 0 0 0
Ge 0.00000000 4.33384000 -3.250323120000001 0 0 0
Ge 3.06449000 6.50076000 -1.0833527000000025 0 0 0
Ge 3.06449000 2.16692000 -1.0833527000000025 0 0 0
Ge 6.10305441 4.32430555 1.08759283
Ge 6.10311570 0.00953445 1.08759283
Ge 3.72856498 2.16692000 3.55773240
Ge 2.91641384 6.50076000 3.23548267
Pd 4.59673500 0.00000000 -1.0833527000000025 0 0 0
Pd 4.59673500 4.33384000 -1.0833527000000025 0 0 0
Pd 1.53224500 2.16692000 -3.250323120000001 0 0 0
Pd 1.53224500 6.50076000 -3.250323120000001 0 0 0
Pd 4.54402577 4.48942486 3.15147514
Pd 4.54402577 8.51209514 3.15147514
Pd 1.47855514 6.50076000 1.09315800
Pd 1.60965402 2.16692000 1.07063232
Pt 1.53224500 0.00000000 -1.0833527000000025 0 0 0
Pt 1.53224500 4.33384000 -1.0833527000000025 0 0 0
Pt 4.59673500 2.16692000 -3.250323120000001 0 0 0
Pt 4.59673500 6.50076000 -3.250323120000001 0 0 0
Pt 1.54272556 4.24551634 3.08124802
Pt 1.54272556 0.08832366 3.08124802
Pt 4.59011570 6.50076000 1.06188706
Pt 4.61291551 2.16692000 1.03591627
C 1.83667144 2.16692000 3.31100995
