&CONTROL
calculation = 'relax'
prefix = 'scf'
pseudo_dir = '/vol0004/mdt0/data/hp150275/u10028/POT_KKJUS'
outdir = './data'
tprnfor = .true.
nstep = 50
disk_io = 'non'
/
&SYSTEM
ibrav = 0
ecutwfc = 50.0
ecutrho = 400
occupations = 'smearing'
smearing = 'mp'
degauss = 0.01
assume_isolated = 'esm'
esm_bc = 'bc1'
input_dft = 'BEEF-VDW'
nosym = .true.
nspin = 1
ntyp = 4
nat = 33
/
&ELECTRONS
electron_maxstep = 200
mixing_beta = 0.1
conv_thr = 1e-06
/
&IONS
ion_dynamics = 'bfgs'
upscale = 1.0
/
&CELL
/

K_POINTS {automatic}
8 6 1 0 0 0

ATOMIC_SPECIES
C 12.01 C.pbe-n-rrkjus_psl.1.0.0.UPF
Cu 63.54 Cu.pbe-dn-rrkjus_psl.1.0.0.UPF
Li 6.941 Li.pbe-sl-rrkjus_psl.1.0.0.UPF
Sn 118.7 Sn.pbe-dn-rrkjus_psl.1.0.0.UPF

CELL_PARAMETERS {angstrom}
6.34973000 0.00000000 0.00000000
0.00000000 8.97987000 0.00000000
0.00000000 0.00000000 26.73490000

ATOMIC_POSITIONS {angstrom}
Li 0.00000000 6.73490250 -1.1225984499999981 0 0 0
Li 3.17486500 0.00000000 -3.367528 0 0 0
Li 0.00000000 2.24496750 -1.1225984499999981 0 0 0
Li 3.17486500 4.48993500 -3.367528 0 0 0
Li 1.58743250 0.00000000 -1.1225984499999981 0 0 0
Li 1.58743250 4.48993500 -1.1225984499999981 0 0 0
Li 4.76229750 6.73490250 -3.367528 0 0 0
Li 4.76229750 2.24496750 -3.367528 0 0 0
Li 0.18979343 2.24496750 3.23171471
Li 3.13092487 4.55485946 1.05923674
Li 6.16355592 6.73490250 3.32608891
Li 3.13086137 8.91485574 1.05923674
Li 1.64565952 4.71955028 3.52713536
Li 1.64565952 8.75034452 3.52713536
Li 4.66755953 2.24496750 1.28380990
Li 4.74566121 6.73481270 1.08490224
Cu 1.58743250 2.24496750 -3.367528 0 0 0
Cu 1.58743250 6.73490250 -3.367528 0 0 0
Cu 4.76229750 4.48993500 -1.1225984499999981 0 0 0
Cu 4.76229750 0.00000000 -1.1225984499999981 0 0 0
Cu 1.63232509 6.73481270 1.30894070
Cu 1.53841258 2.24487770 0.98411167
Cu 4.57644090 0.28636805 3.23599230
Cu 4.57644090 4.20365674 3.23599230
Sn 0.00000000 0.00000000 -3.367528 0 0 0
Sn 3.17486500 2.24496750 -1.1225984499999981 0 0 0
Sn 3.17486500 6.73490250 -1.1225984499999981 0 0 0
Sn 0.00000000 4.48993500 -3.367528 0 0 0
Sn 0.03981281 4.48544507 1.19745617
Sn 3.40034391 6.73490250 3.55788049
Sn 2.69768279 2.24496750 4.22438155
Sn 0.03974931 0.00422054 1.19772352
C 4.60920551 2.24496750 3.42768153
