&CONTROL
calculation = 'relax'
prefix = 'scf'
pseudo_dir = '/vol0004/mdt0/data/hp150275/u10028/POT_KKJUS'
outdir = './data'
tprnfor = .true.
nstep = 50
disk_io = 'non'
/
&SYSTEM
ibrav = 0
ecutwfc = 50.0
ecutrho = 400
occupations = 'smearing'
smearing = 'mp'
degauss = 0.01
assume_isolated = 'esm'
esm_bc = 'bc1'
input_dft = 'BEEF-VDW'
nosym = .true.
nspin = 1
ntyp = 4
nat = 33
/
&ELECTRONS
electron_maxstep = 200
mixing_beta = 0.1
conv_thr = 1e-06
/
&IONS
ion_dynamics = 'bfgs'
upscale = 1.0
/
&CELL
/

K_POINTS {automatic}
8 6 1 0 0 0

ATOMIC_SPECIES
C 12.01 C.pbe-n-rrkjus_psl.1.0.0.UPF
Ni 58.69 Ni.pbe-spn-rrkjus_psl.1.0.0.UPF
Sn 118.7 Sn.pbe-dn-rrkjus_psl.1.0.0.UPF
V 50.94 V.pbe-spnl-rrkjus_psl.1.0.0.UPF

CELL_PARAMETERS {angstrom}
6.08368000 0.00000000 0.00000000
0.00000000 8.60362000 0.00000000
0.00000000 0.00000000 26.45270000

ATOMIC_POSITIONS {angstrom}
V 0.00000000 0.00000000 -3.226435819999999 0 0 0
V 3.04184000 2.15090500 -1.075566779999999 0 0 0
V 3.04184000 6.45271500 -1.075566779999999 0 0 0
V 0.00000000 4.30181000 -3.226435819999999 0 0 0
V 0.00000000 4.30181000 1.11736205
V 3.04184000 6.65515818 3.17220778
V 3.04184000 1.94837579 3.17220778
V 0.00000000 8.60353396 1.01922253
Ni 1.52092000 0.00000000 -1.075566779999999 0 0 0
Ni 4.56276000 4.30181000 -1.075566779999999 0 0 0
Ni 4.56276000 0.00000000 -1.075566779999999 0 0 0
Ni 1.52092000 4.30181000 -1.075566779999999 0 0 0
Ni 4.56276000 6.45271500 -3.226435819999999 0 0 0
Ni 1.52092000 2.15090500 -3.226435819999999 0 0 0
Ni 1.52092000 6.45271500 -3.226435819999999 0 0 0
Ni 4.56276000 2.15090500 -3.226435819999999 0 0 0
Ni 1.69138471 4.30172396 3.13623211
Ni 4.82040385 0.00008604 3.05872570
Ni 4.39229529 4.30172396 3.13623211
Ni 1.26327615 0.00008604 3.05872570
Ni 4.64762734 2.16097124 1.22581812
Ni 1.43605266 6.44264876 1.22555359
Ni 1.43605266 2.16105727 1.22581812
Ni 4.64762734 6.44264876 1.22555359
Sn 0.00000000 6.45271500 -1.075566779999999 0 0 0
Sn 3.04184000 0.00000000 -3.226435819999999 0 0 0
Sn 0.00000000 2.15090500 -1.075566779999999 0 0 0
Sn 3.04184000 4.30181000 -3.226435819999999 0 0 0
Sn 0.00000000 2.28933725 3.57799220
Sn 3.04184000 4.30163793 1.00440902
Sn 0.00000000 6.31436879 3.57772768
Sn 3.04184000 0.00017207 0.99118267
C 3.04184000 8.60353396 3.68962260
