&CONTROL
calculation = 'relax'
prefix = 'scf'
pseudo_dir = '/vol0403/data/hp230205/u10028/POT_HYBRID_KKJUS_GBRV'
outdir = './data'
tprnfor = .true.
nstep = 50
disk_io = 'non'
/
&SYSTEM
ibrav = 0
ecutwfc = 50.0
ecutrho = 400
occupations = 'smearing'
smearing = 'mp'
degauss = 0.01
assume_isolated = 'esm'
esm_bc = 'bc1'
input_dft = 'BEEF-VDW'
nosym = .true.
nspin = 1
ntyp = 6
nat = 18
/
&ELECTRONS
electron_maxstep = 200
mixing_beta = 0.1
conv_thr = 1e-06
/
&IONS
ion_dynamics = 'bfgs'
upscale = 1.0
/
&CELL
/

K_POINTS {automatic}
8 8 1 0 0 0

ATOMIC_SPECIES
C 12.01 C.pbe-n-rrkjus_psl.1.0.0.UPF
Cu 63.54 Cu.pbe-dn-rrkjus_psl.1.0.0.UPF
Ge 72.64 Ge.pbe-dn-rrkjus_psl.1.0.0.UPF
Li 6.941 Li.pbe-sl-rrkjus_psl.1.0.0.UPF
O 15.99 O.pbe-n-rrkjus_psl.1.0.0.UPF
Sn 118.7 Sn.pbe-dn-rrkjus_psl.1.0.0.UPF


CELL_PARAMETERS {angstrom}
6.57410000 0.00000000 0.00000000
0.00000000 6.57410000 0.00000000
0.00000000 0.00000000 24.93060000

ATOMIC_POSITIONS {angstrom}
Li 0.00000000 3.28705000 -2.4653870299999987 0 0 0
Li 6.55648141 0.01814452 0.89475923
Li 3.30460285 3.26870826 0.89475923
Li 3.28705000 0.00000000 -2.4653870299999987 0 0 0
Cu 0.00000000 0.00000000 -2.4653870299999987 0 0 0
Cu 0.05180391 3.33839372 0.76786248
Cu 3.23458868 6.52255906 0.76786248
Cu 3.28705000 3.28705000 -2.4653870299999987 0 0 0
Sn 4.93057500 1.64352500 -0.8217125799999998 0 0 0
Sn 4.93083796 4.93024630 2.72641042
Sn 1.64280185 1.64391945 2.72715833
Sn 1.64352500 4.93057500 -0.8217125799999998 0 0 0
Ge 1.64352500 1.64352500 -0.8217125799999998 0 0 0
Ge 1.64339352 4.93024629 2.31979233
Ge 4.93110093 1.64385371 2.45965300
Ge 4.93057500 4.93057500 -0.8217125799999998 0 0 0
C 4.93248149 1.64503704 4.49349134
O 4.93018055 1.64319630 5.64952327
