&CONTROL
calculation = 'relax'
prefix = 'scf'
pseudo_dir = '/vol0004/mdt0/data/hp150275/u10028/POT_HYBRID_KKJUS_GBRV'
outdir = './data'
tprnfor = .true.
nstep = 50
disk_io = 'non'
/
&SYSTEM
ibrav = 0
ecutwfc = 50.0
ecutrho = 400
occupations = 'smearing'
smearing = 'mp'
degauss = 0.01
assume_isolated = 'esm'
esm_bc = 'bc1'
input_dft = 'BEEF-VDW'
nosym = .true.
nspin = 2
ntyp = 3
nat = 17
starting_magnetization(1) = 0.1
starting_magnetization(2) = 0.1
starting_magnetization(3) = 0.1
/
&ELECTRONS
electron_maxstep = 200
mixing_beta = 0.1
conv_thr = 1e-06
/
&IONS
ion_dynamics = 'bfgs'
upscale = 1.0
/
&CELL
/

K_POINTS {automatic}
10 10 2 0  0  0

ATOMIC_SPECIES
C 12.01 C.pbe-n-rrkjus_psl.1.0.0.UPF
Mn 54.93 mn_pbe_v1.5.uspp.F.UPF
Rh 102.9 Rh.pbe-spn-rrkjus_psl.1.0.0.UPF

CELL_PARAMETERS {angstrom}
6.11529000 0.00000000 0.00000000
-0.00000000 6.11529000 0.00000000
0.00000000 0.00000000 24.58650000

ATOMIC_POSITIONS {angstrom}
Mn 0.00000000 0.00000000 -2.52552528 0 0 0
Mn 0.00000000 0.00000000 0.53205186
Mn 0.00000000 3.05764500 -2.52552528 0 0 0
Mn 0.00000000 3.05764500 0.53205186
Mn 3.05764500 0.00000000 -2.52552528 0 0 0
Mn 3.05764500 -0.00000000 0.53205186
Mn 3.05764500 3.05764500 -2.52552528 0 0 0
Mn 3.05764500 3.05764500 0.53205186
Rh 1.52882250 1.52882250 -0.9967367100000004 0 0 0
Rh 1.52882250 1.52882250 2.06084043
Rh 1.52882250 4.58646750 -0.9967367100000004 0 0 0
Rh 1.52882250 4.58646750 2.06084043
Rh 4.58646750 1.52882250 -0.9967367100000004 0 0 0
Rh 4.58646750 1.52882250 2.06084043
Rh 4.58646750 4.58646750 -0.9967367100000004 0 0 0
Rh 4.58646750 4.58646750 2.06084043
C 0.00000000 0.00000000 2.86088514
