&CONTROL
calculation = 'relax'
prefix = 'scf'
pseudo_dir = '/vol0403/data/hp230205/u10028/POT_HYBRID_KKJUS_GBRV'
outdir = './data'
tprnfor = .true.
nstep = 70
disk_io = 'non'
/
&SYSTEM
ibrav = 0
ecutwfc = 50.0
ecutrho = 400
occupations = 'smearing'
smearing = 'mp'
degauss = 0.01
assume_isolated = 'esm'
esm_bc = 'bc1'
input_dft = 'BEEF-VDW'
nosym = .true.
nspin = 1
ntyp = 5
nat = 17
/
&ELECTRONS
electron_maxstep = 200
mixing_beta = 0.1
conv_thr = 1e-06
/
&IONS
ion_dynamics = 'bfgs'
upscale = 1.0
/
&CELL
/

K_POINTS {automatic}
6 6 1 0 0 0

ATOMIC_SPECIES
C 12.01 C.pbe-n-rrkjus_psl.1.0.0.UPF
Ga 69.72 Ga.pbe-dnl-rrkjus_psl.1.0.0.UPF
Pd 106.4 Pd.pbe-n-rrkjus_psl.1.0.0.UPF
Sn 118.7 Sn.pbe-dn-rrkjus_psl.1.0.0.UPF
Y 88.90 Y.pbe-spn-rrkjus_psl.1.0.0.UPF


CELL_PARAMETERS {angstrom}
6.16320000 0.00000000 0.00000000
-0.00000000 8.82498000 0.00000000
0.00000000 0.00000000 24.61890000

ATOMIC_POSITIONS {angstrom}
Y 3.08160000 0.00000000 -2.3094990099999997 0 0 0
Y 6.12757670 -0.00000000 0.93970341
Y 3.08160000 4.41249000 -2.3094990099999997 0 0 0
Y 6.02101498 4.41249000 0.99115691
Ga 0.00000000 0.00000000 -2.3094990099999997 0 0 0
Ga 3.11488128 -0.00000000 0.64378424
Ga 0.00000000 4.41249000 -2.3094990099999997 0 0 0
Ga 3.01004525 4.41249000 0.83211882
Sn 1.48107859 2.20624500 -0.7698329999999984 0 0 0
Sn 4.34326867 2.14129315 2.76839530
Sn 1.48107859 6.61873500 -0.7698329999999984 0 0 0
Sn 4.34326867 6.68368685 2.76839530
Pd 4.56267859 2.20624500 -0.7698329999999984 0 0 0
Pd 1.61592941 2.27569759 1.95941825
Pd 4.56267859 6.61873500 -0.7698329999999984 0 0 0
Pd 1.61592941 6.54928241 1.95917206
C 4.26672173 -0.00000000 2.31860800
