&CONTROL
calculation = 'relax'
prefix = 'scf'
pseudo_dir = '/vol0004/mdt0/data/hp150275/u10028/POT_KKJUS'
outdir = './data'
tprnfor = .true.
nstep = 50
disk_io = 'non'
/
&SYSTEM
ibrav = 0
ecutwfc = 50.0
ecutrho = 400
occupations = 'smearing'
smearing = 'mp'
degauss = 0.01
assume_isolated = 'esm'
esm_bc = 'bc1'
input_dft = 'BEEF-VDW'
nosym = .true.
nspin = 1
ntyp = 3
nat = 33
/
&ELECTRONS
electron_maxstep = 200
mixing_beta = 0.1
conv_thr = 1e-06
/
&IONS
ion_dynamics = 'bfgs'
upscale = 1.0
/
&CELL
/

K_POINTS {automatic}
8 6 1 0 0 0

ATOMIC_SPECIES
C 12.01 C.pbe-n-rrkjus_psl.1.0.0.UPF
Rh 102.9 Rh.pbe-spn-rrkjus_psl.1.0.0.UPF
Sc 44.95 Sc.pbe-spn-rrkjus_psl.1.0.0.UPF

CELL_PARAMETERS {angstrom}
6.47981000 0.00000000 0.00000000
0.00000000 9.16384000 0.00000000
0.00000000 0.00000000 26.87290000

ATOMIC_POSITIONS {angstrom}
Sc 1.61995250 2.29096000 -3.436506450000003 0 0 0
Sc 1.61995250 0.00000000 -1.1455917299999996 0 0 0
Sc 1.63887355 2.26887515 1.18348252
Sc 1.87635858 0.00009164 3.82132638
Sc 1.61995250 6.87288000 -3.436506450000003 0 0 0
Sc 1.61995250 4.58192000 -1.1455917299999996 0 0 0
Sc 1.63887355 6.89505649 1.18348252
Sc 1.60278100 4.58192000 3.50153887
Sc 4.85985750 2.29096000 -3.436506450000003 0 0 0
Sc 4.85985750 0.00000000 -1.1455917299999996 0 0 0
Sc 4.84100125 2.26878351 1.18348252
Sc 4.60345142 0.00000000 3.82159511
Sc 4.85985750 6.87288000 -3.436506450000003 0 0 0
Sc 4.85985750 4.58192000 -1.1455917299999996 0 0 0
Sc 4.84100125 6.89496485 1.18348252
Sc 4.87709379 4.58192000 3.50153887
Rh 0.00000000 0.00000000 -3.436506450000003 0 0 0
Rh 0.00000000 2.29096000 -1.1455917299999996 0 0 0
Rh 0.00000000 0.00000000 1.08190295
Rh 0.00000000 2.23185323 3.21453630
Rh 0.00000000 4.58192000 -3.436506450000003 0 0 0
Rh 0.00000000 6.87288000 -1.1455917299999996 0 0 0
Rh 0.00000000 4.58192000 1.20739940
Rh 0.00000000 6.93198677 3.21453630
Rh 3.23990500 0.00000000 -3.436506450000003 0 0 0
Rh 3.23990500 2.29096000 -1.1455917299999996 0 0 0
Rh 3.23990500 0.00000000 1.22379187
Rh 3.23990500 2.38049072 3.32068425
Rh 3.23990500 4.58192000 -3.436506450000003 0 0 0
Rh 3.23990500 6.87288000 -1.1455917299999996 0 0 0
Rh 3.23990500 4.58192000 1.16252165
Rh 3.23990500 6.78334928 3.32068425
C 6.47974520 0.00000000 3.09387698
