&CONTROL
calculation = 'relax'
prefix = 'scf'
pseudo_dir = '/vol0004/mdt0/data/hp150275/u10028/POT_KKJUS'
outdir = './data'
tprnfor = .true.
nstep = 50
disk_io = 'non'
/
&SYSTEM
ibrav = 0
ecutwfc = 50.0
ecutrho = 400
occupations = 'smearing'
smearing = 'mp'
degauss = 0.01
assume_isolated = 'esm'
esm_bc = 'bc1'
input_dft = 'BEEF-VDW'
nosym = .true.
nspin = 1
ntyp = 4
nat = 33
/
&ELECTRONS
electron_maxstep = 200
mixing_beta = 0.1
conv_thr = 1e-06
/
&IONS
ion_dynamics = 'bfgs'
upscale = 1.0
/
&CELL
/

K_POINTS {automatic}
8 6 1 0 0 0

ATOMIC_SPECIES
C 12.01 C.pbe-n-rrkjus_psl.1.0.0.UPF
K 39.09 K.pbe-spn-rrkjus_psl.1.0.0.UPF
Na 22.98 Na.pbe-spnl-rrkjus_psl.1.0.0.UPF
Sb 121.7 Sb.pbe-n-rrkjus_psl.1.0.0.UPF

CELL_PARAMETERS {angstrom}
7.84214000 0.00000000 0.00000000
0.00000000 11.09050000 0.00000000
0.00000000 0.00000000 28.31780000

ATOMIC_POSITIONS {angstrom}
K 0.00000000 0.00000000 -4.1590352899999985 0 0 0
K 3.92107000 2.77262500 -1.3864394899999972 0 0 0
K 3.92107000 8.31787500 -1.3864394899999972 0 0 0
K 0.00000000 5.54525000 -4.1590352899999985 0 0 0
K 0.00000000 5.54525000 1.28336270
K 3.92107000 8.42634009 4.66167624
K 3.92107000 2.66415991 4.66167624
K 0.00000000 0.00000000 1.52151539
Na 1.96053500 0.00000000 -1.3864394899999972 0 0 0
Na 5.88160500 5.54525000 -1.3864394899999972 0 0 0
Na 5.88160500 0.00000000 -1.3864394899999972 0 0 0
Na 1.96053500 5.54525000 -1.3864394899999972 0 0 0
Na 5.88160500 8.31787500 -4.1590352899999985 0 0 0
Na 1.96053500 2.77262500 -4.1590352899999985 0 0 0
Na 1.96053500 8.31787500 -4.1590352899999985 0 0 0
Na 5.88160500 2.77262500 -4.1590352899999985 0 0 0
Na 1.64426149 5.54525000 4.21368864
Na 6.24210818 0.00000000 4.61127055
Na 6.19787851 5.54525000 4.21368864
Na 1.60003182 0.00000000 4.61127055
Na 5.84451168 2.84005524 1.58353138
Na 1.99754990 8.25044476 1.58324820
Na 1.99754990 2.84005524 1.58353138
Na 5.84459010 8.25044476 1.58324820
Sb 0.00000000 8.31787500 -1.3864394899999972 0 0 0
Sb 3.92107000 0.00000000 -4.1590352899999985 0 0 0
Sb 0.00000000 2.77262500 -1.3864394899999972 0 0 0
Sb 3.92107000 5.54525000 -4.1590352899999985 0 0 0
Sb 0.00000000 2.78937166 4.07889591
Sb 3.92107000 5.54525000 1.55861171
Sb 0.00000000 8.30112835 4.07889591
Sb 3.92107000 0.00000000 1.47365831
C 3.92107000 0.00000000 3.57597178
