&CONTROL
calculation = 'relax'
prefix = 'scf'
pseudo_dir = '/vol0004/mdt0/data/hp150275/u10028/POT_HYBRID_KKJUS_GBRV'
outdir = './data'
tprnfor = .true.
nstep = 50
disk_io = 'non'
/
&SYSTEM
ibrav = 0
ecutwfc = 50.0
ecutrho = 400
occupations = 'smearing'
smearing = 'mp'
degauss = 0.01
assume_isolated = 'esm'
esm_bc = 'bc1'
input_dft = 'BEEF-VDW'
nosym = .true.
nspin = 2
ntyp = 4
nat = 33
starting_magnetization(1) = 0.0
starting_magnetization(2) = 0.0
starting_magnetization(3) = 0.001
starting_magnetization(4) = 0.0
/
&ELECTRONS
electron_maxstep = 300
mixing_beta = 0.1
conv_thr = 1e-06
/
&IONS
ion_dynamics = 'bfgs'
upscale = 1.0
/
&CELL
/

K_POINTS {automatic}
9 6 2 0  0  0

ATOMIC_SPECIES
Al 26.98 Al.pbe-nl-rrkjus_psl.1.0.0.UPF
C 12.01 C.pbe-n-rrkjus_psl.1.0.0.UPF
Ni 58.69 ni_pbe_v1.4.uspp.F.UPF
Ti 47.86 Ti.pbe-spn-rrkjus_psl.1.0.0.UPF

CELL_PARAMETERS {angstrom}
5.91339000 0.00000000 0.00000000
0.00000000 8.36280000 0.00000000
0.00000000 0.00000000 26.27210000

ATOMIC_POSITIONS {angstrom}
Ti 0.00000000 0.00000000 -3.1361005799999973 0 0 0
Ti 2.95669500 2.09070000 -1.045366859999998 0 0 0
Ti 2.95669500 6.27210000 -1.045366859999998 0 0 0
Ti 0.00000000 4.18140000 -3.1361005799999973 0 0 0
Ti 0.00000000 4.18140000 1.03354441
Ti 2.95669500 6.21197147 3.15291472
Ti 2.95669500 2.15074490 3.15265200
Ti 0.00000000 0.00000000 1.11236071
Al 0.00000000 6.27210000 -1.045366859999998 0 0 0
Al 2.95669500 0.00000000 -3.1361005799999973 0 0 0
Al 0.00000000 2.09070000 -1.045366859999998 0 0 0
Al 2.95669500 4.18140000 -3.1361005799999973 0 0 0
Al 0.00000000 2.06159746 3.16894070
Al 2.95669500 4.18140000 1.04746863
Al 0.00000000 6.30120254 3.16894070
Al 2.95669500 0.00000000 1.02697639
Ni 1.47834750 0.00000000 -1.045366859999998 0 0 0
Ni 4.43504250 4.18140000 -1.045366859999998 0 0 0
Ni 4.43504250 0.00000000 -1.045366859999998 0 0 0
Ni 1.47834750 4.18140000 -1.045366859999998 0 0 0
Ni 4.43504250 6.27210000 -3.1361005799999973 0 0 0
Ni 1.47834750 2.09070000 -3.1361005799999973 0 0 0
Ni 1.47834750 6.27210000 -3.1361005799999973 0 0 0
Ni 4.43504250 2.09070000 -3.1361005799999973 0 0 0
Ni 1.39502783 4.18140000 3.02602048
Ni 4.16663373 8.36271637 3.16788982
Ni 4.51836217 4.18140000 3.02602048
Ni 1.74675627 8.36271637 3.16788982
Ni 4.38696664 2.10959993 1.05429937
Ni 1.52636423 6.25320007 1.05429937
Ni 1.52636423 2.10959993 1.05429937
Ni 4.38702577 6.25320007 1.05429937
C 0.00000000 0.00000000 3.47606155
