&CONTROL
calculation = 'relax'
prefix = 'scf'
pseudo_dir = '/vol0403/data/hp230205/u10028/POT_HYBRID_KKJUS_GBRV'
outdir = './data'
tprnfor = .true.
nstep = 70
disk_io = 'non'
/
&SYSTEM
ibrav = 0
ecutwfc = 50.0
ecutrho = 400
occupations = 'smearing'
smearing = 'mp'
degauss = 0.01
assume_isolated = 'esm'
esm_bc = 'bc1'
input_dft = 'BEEF-VDW'
nosym = .true.
nspin = 1
ntyp = 6
nat = 34
/
&ELECTRONS
electron_maxstep = 200
mixing_beta = 0.1
conv_thr = 1e-06
/
&IONS
ion_dynamics = 'bfgs'
upscale = 1.0
/
&CELL
/

K_POINTS {automatic}
6 6 1 0 0 0

ATOMIC_SPECIES
C 12.01 C.pbe-n-rrkjus_psl.1.0.0.UPF
Ga 69.72 Ga.pbe-dnl-rrkjus_psl.1.0.0.UPF
Li 6.941 Li.pbe-sl-rrkjus_psl.1.0.0.UPF
Mg 24.30 Mg.pbe-spnl-rrkjus_psl.1.0.0.UPF
O 15.99 O.pbe-n-rrkjus_psl.1.0.0.UPF
Pt 195.0 Pt.pbe-n-rrkjus_psl.1.0.0.UPF


CELL_PARAMETERS {angstrom}
6.26200000 0.00000000 0.00000000
-0.00000000 8.85580000 0.00000000
0.00000000 0.00000000 26.64190000

ATOMIC_POSITIONS {angstrom}
Li 1.56550000 0.00000000 -1.106970950000001 0 0 0
Li 1.56550000 4.42790000 -1.106970950000001 0 0 0
Li 4.69650000 2.21395000 -3.3209128399999983 0 0 0
Li 4.69650000 6.64185000 -3.3209128399999983 0 0 0
Li 1.77527700 4.42851991 3.48476052
Li 1.77615368 0.00239107 3.48476052
Li 4.71910582 6.64229279 1.12162399
Li 4.80495784 2.21430423 1.12242325
Mg 0.00000000 2.21395000 -1.106970950000001 0 0 0
Mg 0.00000000 6.64185000 -1.106970950000001 0 0 0
Mg 3.13100000 4.42790000 -3.3209128399999983 0 0 0
Mg 3.13100000 0.00000000 -3.3209128399999983 0 0 0
Mg 6.20845990 6.64486097 3.48849039
Mg 6.14922138 2.21572116 3.56548548
Mg 3.09637114 0.02470768 1.04409606
Mg 3.09662162 4.40416646 1.04409606
Ga 0.00000000 0.00000000 -3.3209128399999983 0 0 0
Ga 0.00000000 4.42790000 -3.3209128399999983 0 0 0
Ga 3.13100000 6.64185000 -1.106970950000001 0 0 0
Ga 3.13100000 2.21395000 -1.106970950000001 0 0 0
Ga 0.04577522 4.43808417 1.17410853
Ga 0.04583784 8.84694420 1.17437495
Ga 3.28491996 2.21589828 3.30492769
Ga 3.24953966 6.64317837 3.38964894
Pt 4.69650000 0.00000000 -1.106970950000001 0 0 0
Pt 4.69650000 4.42790000 -1.106970950000001 0 0 0
Pt 1.56550000 2.21395000 -3.3209128399999983 0 0 0
Pt 1.56550000 6.64185000 -3.3209128399999983 0 0 0
Pt 4.63099948 4.44977383 3.14880616
Pt 4.63012280 8.83755705 3.14880616
Pt 1.55328910 6.64238135 1.13308001
Pt 1.50644934 2.21456991 1.25989545
C 0.88644872 2.20934498 5.57987954
O 1.31026088 2.20739671 6.64795331
