&CONTROL
calculation = 'relax'
prefix = 'scf'
pseudo_dir = '/vol0403/data/hp230205/u10028/POT_HYBRID_KKJUS_GBRV'
outdir = './data'
tprnfor = .true.
nstep = 50
disk_io = 'non'
/
&SYSTEM
ibrav = 0
ecutwfc = 50.0
ecutrho = 400
occupations = 'smearing'
smearing = 'mp'
degauss = 0.01
assume_isolated = 'esm'
esm_bc = 'bc1'
input_dft = 'BEEF-VDW'
nosym = .true.
nspin = 1
ntyp = 5
nat = 33
/
&ELECTRONS
electron_maxstep = 200
mixing_beta = 0.1
conv_thr = 1e-06
/
&IONS
ion_dynamics = 'bfgs'
upscale = 1.0
/
&CELL
/

K_POINTS {automatic}
7 7 2 0  0  0

ATOMIC_SPECIES
Au 196.9 Au.pbe-n-rrkjus_psl.1.0.0.UPF
C 12.01 C.pbe-n-rrkjus_psl.1.0.0.UPF
Ge 72.64 Ge.pbe-dn-rrkjus_psl.1.0.0.UPF
In 114.8 In.pbe-dn-rrkjus_psl.1.0.0.UPF
Li 6.941 Li.pbe-sl-rrkjus_psl.1.0.0.UPF


CELL_PARAMETERS {angstrom}
8.39470000 0.00000000 0.00000000
0.00000000 8.46544000 0.00000000
0.00000000 0.00000000 26.43350000

ATOMIC_POSITIONS {angstrom}
Li 2.15214924 2.11636000 3.43106830
Li 2.09867500 2.11636000 -1.0721427599999984 0 0 0
Li 2.46812575 6.34908000 3.50957579
Li 2.09867500 6.34908000 -1.0721427599999984 0 0 0
Li 6.24246681 2.11636000 3.43106830
Li 6.29602500 2.11636000 -1.0721427599999984 0 0 0
Li 5.92657425 6.34908000 3.50957579
Li 6.29602500 6.34908000 -1.0721427599999984 0 0 0
In 2.03898868 8.36647901 1.09646158
In 2.09867500 0.00000000 -3.21669262 0 0 0
In 2.03898868 4.33159634 1.09646158
In 2.09867500 4.23272000 -3.21669262 0 0 0
In 6.35571132 8.36656366 1.09646158
In 6.29602500 0.00000000 -3.21669262 0 0 0
In 6.35571132 4.33159634 1.09646158
In 6.29602500 4.23272000 -3.21669262 0 0 0
Ge 0.00000000 2.11636000 0.86807614
Ge 0.00000000 2.11636000 -3.21669262 0 0 0
Ge 0.00000000 6.34908000 2.03722984
Ge 0.00000000 6.34908000 -3.21669262 0 0 0
Ge 4.19735000 2.11636000 1.00315132
Ge 4.19735000 2.11636000 -3.21669262 0 0 0
Ge 4.19735000 6.34908000 0.82261052
Ge 4.19735000 6.34908000 -3.21669262 0 0 0
Au 0.00000000 0.07364933 3.40199145
Au 0.00000000 0.00000000 -1.0721427599999984 0 0 0
Au 0.00000000 4.15907067 3.40199145
Au 0.00000000 4.23272000 -1.0721427599999984 0 0 0
Au 4.19735000 0.10818832 3.14717251
Au 4.19735000 0.00000000 -1.0721427599999984 0 0 0
Au 4.19735000 4.12453168 3.14717251
Au 4.19735000 4.23272000 -1.0721427599999984 0 0 0
C 0.00008395 2.11636000 2.84715228
