&CONTROL
calculation = 'relax'
prefix = 'scf'
pseudo_dir = '/vol0004/mdt0/data/hp150275/u10028/POT_KKJUS'
outdir = './data'
tprnfor = .true.
nstep = 50
disk_io = 'non'
/
&SYSTEM
ibrav = 0
ecutwfc = 50.0
ecutrho = 400
occupations = 'smearing'
smearing = 'mp'
degauss = 0.01
assume_isolated = 'esm'
esm_bc = 'bc1'
input_dft = 'BEEF-VDW'
nosym = .true.
nspin = 1
ntyp = 5
nat = 34
/
&ELECTRONS
electron_maxstep = 200
mixing_beta = 0.1
conv_thr = 1e-06
/
&IONS
ion_dynamics = 'bfgs'
upscale = 1.0
/
&CELL
/

K_POINTS {automatic}
9 6 2 0  0  0

ATOMIC_SPECIES
C 12.01 C.pbe-n-rrkjus_psl.1.0.0.UPF
Ga 69.72 Ga.pbe-dnl-rrkjus_psl.1.0.0.UPF
Ni 58.69 Ni.pbe-spn-rrkjus_psl.1.0.0.UPF
O 15.99 O.pbe-n-rrkjus_psl.1.0.0.UPF
V 50.94 V.pbe-spnl-rrkjus_psl.1.0.0.UPF

CELL_PARAMETERS {angstrom}
5.81624000 0.00000000 0.00000000
0.00000000 8.22541000 0.00000000
0.00000000 0.00000000 26.16910000

ATOMIC_POSITIONS {angstrom}
V 0.00000000 0.00000000 -3.0845518200000015 0 0 0
V 2.90812000 2.05635250 -1.0281839400000017 0 0 0
V 2.90812000 6.16905750 -1.0281839400000017 0 0 0
V 0.00000000 4.11270500 -3.0845518200000015 0 0 0
V 0.00000000 4.13080090 1.08130721
V 2.90812000 6.16897525 3.08612196
V 2.90812000 2.05643475 3.01625047
V 0.00000000 8.20739635 1.08130721
Ga 0.00000000 6.16905750 -1.0281839400000017 0 0 0
Ga 2.90812000 0.00000000 -3.0845518200000015 0 0 0
Ga 0.00000000 2.05635250 -1.0281839400000017 0 0 0
Ga 2.90812000 4.11270500 -3.0845518200000015 0 0 0
Ga 0.00000000 2.05602348 3.29730660
Ga 2.90812000 4.08350479 0.98029449
Ga 0.00000000 6.16938652 3.22246297
Ga 2.90812000 0.02928246 0.98029449
Ni 1.45406000 0.00000000 -1.0281839400000017 0 0 0
Ni 4.36218000 4.11270500 -1.0281839400000017 0 0 0
Ni 4.36218000 0.00000000 -1.0281839400000017 0 0 0
Ni 1.45406000 4.11270500 -1.0281839400000017 0 0 0
Ni 4.36218000 6.16905750 -3.0845518200000015 0 0 0
Ni 1.45406000 2.05635250 -3.0845518200000015 0 0 0
Ni 1.45406000 6.16905750 -3.0845518200000015 0 0 0
Ni 4.36218000 2.05635250 -3.0845518200000015 0 0 0
Ni 1.50902347 4.11862730 2.98981968
Ni 4.30727469 8.21948770 2.98955798
Ni 4.30727469 4.11862730 2.98981968
Ni 1.50890714 8.21948770 2.98955798
Ni 4.43529014 2.05635250 1.09936389
Ni 1.47947697 6.16913975 1.07895199
Ni 1.38094986 2.05635250 1.09936389
Ni 4.33676303 6.16922201 1.07895199
C 0.00005816 2.05635250 5.48294983
O 0.00000000 2.05651701 6.62732457
