&CONTROL
calculation = 'relax'
prefix = 'scf'
pseudo_dir = '/vol0004/mdt0/data/hp150275/u10028/POT_KKJUS'
outdir = './data'
tprnfor = .true.
nstep = 50
disk_io = 'non'
/
&SYSTEM
ibrav = 0
ecutwfc = 50.0
ecutrho = 400
occupations = 'smearing'
smearing = 'mp'
degauss = 0.01
assume_isolated = 'esm'
esm_bc = 'bc1'
input_dft = 'BEEF-VDW'
nosym = .true.
nspin = 1
ntyp = 5
nat = 34
/
&ELECTRONS
electron_maxstep = 200
mixing_beta = 0.1
conv_thr = 1e-06
/
&IONS
ion_dynamics = 'bfgs'
upscale = 1.0
/
&CELL
/

K_POINTS {automatic}
9 6 2 0  0  0

ATOMIC_SPECIES
Al 26.98 Al.pbe-nl-rrkjus_psl.1.0.0.UPF
C 12.01 C.pbe-n-rrkjus_psl.1.0.0.UPF
Li 6.941 Li.pbe-sl-rrkjus_psl.1.0.0.UPF
O 15.99 O.pbe-n-rrkjus_psl.1.0.0.UPF
Pd 106.4 Pd.pbe-n-rrkjus_psl.1.0.0.UPF

CELL_PARAMETERS {angstrom}
6.13337000 0.00000000 0.00000000
0.00000000 8.67390000 0.00000000
0.00000000 0.00000000 26.50540000

ATOMIC_POSITIONS {angstrom}
Li 0.00000000 6.50542500 -1.08433591 0 0 0
Li 3.06668500 0.00000000 -3.2527426900000016 0 0 0
Li 0.00000000 2.16847500 -1.08433591 0 0 0
Li 3.06668500 4.33695000 -3.2527426900000016 0 0 0
Li 1.53334250 0.00000000 -1.08433591 0 0 0
Li 1.53334250 4.33695000 -1.08433591 0 0 0
Li 4.60002750 6.50542500 -3.2527426900000016 0 0 0
Li 4.60002750 2.16847500 -3.2527426900000016 0 0 0
Li 6.05915622 2.10680357 3.44066597
Li 3.05828228 4.33695000 1.01277133
Li 6.05909489 6.56709643 3.44066597
Li 3.05435693 8.67381326 0.98732615
Li 1.56523602 4.33695000 3.35505353
Li 1.62663106 0.00000000 3.27235668
Li 4.69215072 2.16960261 1.01197617
Li 4.69215072 6.50429739 1.01197617
Al 0.00000000 0.00000000 -3.2527426900000016 0 0 0
Al 3.06668500 2.16847500 -1.08433591 0 0 0
Al 3.06668500 6.50542500 -1.08433591 0 0 0
Al 0.00000000 4.33695000 -3.2527426900000016 0 0 0
Al 0.04753362 4.33686326 1.09546818
Al 3.19904312 6.48547503 3.15043184
Al 3.19885912 2.18842497 3.15043184
Al 0.04508027 0.00000000 1.07240848
Pd 1.53334250 2.16847500 -3.2527426900000016 0 0 0
Pd 1.53334250 6.50542500 -3.2527426900000016 0 0 0
Pd 4.60002750 4.33695000 -1.08433591 0 0 0
Pd 4.60002750 0.00000000 -1.08433591 0 0 0
Pd 1.52641179 6.50828739 1.15192468
Pd 1.52647313 2.16552587 1.15165963
Pd 4.50269092 0.00000000 2.99219461
Pd 4.54599251 4.33686326 3.05103659
C 1.33652266 0.00000000 5.27749019
O 1.31002650 0.00000000 6.42464391
