&CONTROL
calculation = 'relax'
prefix = 'scf'
pseudo_dir = '/vol0004/mdt0/data/hp150275/u10028/POT_KKJUS'
outdir = './data'
tprnfor = .true.
nstep = 50
disk_io = 'non'
/
&SYSTEM
ibrav = 0
ecutwfc = 50.0
ecutrho = 400
occupations = 'smearing'
smearing = 'mp'
degauss = 0.01
assume_isolated = 'esm'
esm_bc = 'bc1'
input_dft = 'BEEF-VDW'
nosym = .true.
nspin = 1
ntyp = 3
nat = 32
/
&ELECTRONS
electron_maxstep = 200
mixing_beta = 0.1
conv_thr = 1e-06
/
&IONS
ion_dynamics = 'bfgs'
upscale = 1.0
/
&CELL
/

K_POINTS {automatic}
8 6 1 0 0 0

ATOMIC_SPECIES
Al 26.98 Al.pbe-nl-rrkjus_psl.1.0.0.UPF
Cu 63.54 Cu.pbe-dn-rrkjus_psl.1.0.0.UPF
Ti 47.86 Ti.pbe-spn-rrkjus_psl.1.0.0.UPF

CELL_PARAMETERS {angstrom}
6.05884000 0.00000000 0.00000000
0.00000000 8.56849000 0.00000000
0.00000000 0.00000000 26.42640000

ATOMIC_POSITIONS {angstrom}
Ti 0.00000000 0.00000000 -3.213185980000002 0 0 0
Ti 3.02942000 2.14212250 -1.0710619900000005 0 0 0
Ti 3.02942000 6.42636750 -1.0710619900000005 0 0 0
Ti 0.00000000 4.28424500 -3.213185980000002 0 0 0
Ti 0.00000000 4.28415932 1.07502595
Ti 3.02942000 6.42636750 3.17460343
Ti 3.02942000 2.14212250 3.17460343
Ti 0.00000000 0.00008568 1.07502595
Al 0.00000000 6.42636750 -1.0710619900000005 0 0 0
Al 3.02942000 0.00000000 -3.213185980000002 0 0 0
Al 0.00000000 2.14212250 -1.0710619900000005 0 0 0
Al 3.02942000 4.28424500 -3.213185980000002 0 0 0
Al 0.00000000 2.14212250 3.22613491
Al 3.02942000 4.28433068 1.07978270
Al 0.00000000 6.42636750 3.22613491
Al 3.02942000 8.56840432 1.07978270
Cu 1.51471000 0.00000000 -1.0710619900000005 0 0 0
Cu 4.54413000 4.28424500 -1.0710619900000005 0 0 0
Cu 4.54413000 0.00000000 -1.0710619900000005 0 0 0
Cu 1.51471000 4.28424500 -1.0710619900000005 0 0 0
Cu 4.54413000 6.42636750 -3.213185980000002 0 0 0
Cu 1.51471000 2.14212250 -3.213185980000002 0 0 0
Cu 1.51471000 6.42636750 -3.213185980000002 0 0 0
Cu 4.54413000 2.14212250 -3.213185980000002 0 0 0
Cu 1.53258358 4.28433068 3.21899978
Cu 4.52625642 8.56840432 3.21899978
Cu 4.52625642 4.28433068 3.21899978
Cu 1.53258358 8.56840432 3.21899978
Cu 4.52989173 2.14203682 1.07317610
Cu 1.52870592 6.42645318 1.07344037
Cu 1.52894827 2.14203682 1.07317610
Cu 4.53013408 6.42645318 1.07344037
