&CONTROL
calculation = 'relax'
prefix = 'scf'
pseudo_dir = '/vol0004/mdt0/data/hp150275/u10028/POT_HYBRID_KKJUS_GBRV'
outdir = './data'
tprnfor = .true.
nstep = 50
disk_io = 'non'
/
&SYSTEM
ibrav = 0
ecutwfc = 50.0
ecutrho = 400
occupations = 'smearing'
smearing = 'mp'
degauss = 0.01
assume_isolated = 'esm'
esm_bc = 'bc1'
input_dft = 'BEEF-VDW'
nosym = .true.
nspin = 2
ntyp = 4
nat = 33
starting_magnetization(1) = 0.0
starting_magnetization(2) = 0.1
starting_magnetization(3) = 0.1
starting_magnetization(4) = 0.0
/
&ELECTRONS
electron_maxstep = 200
mixing_beta = 0.1
conv_thr = 1e-06
/
&IONS
ion_dynamics = 'bfgs'
upscale = 1.0
/
&CELL
/

K_POINTS {automatic}
9 6 2 0  0  0

ATOMIC_SPECIES
C 12.01 C.pbe-n-rrkjus_psl.1.0.0.UPF
Co 58.93 co_pbe_v1.2.uspp.F.UPF
Cr 51.99 cr_pbe_v1.5.uspp.F.UPF
Ga 69.72 Ga.pbe-dnl-rrkjus_psl.1.0.0.UPF

CELL_PARAMETERS {angstrom}
5.73361000 0.00000000 0.00000000
0.00000000 8.10855000 0.00000000
0.00000000 0.00000000 26.08140000

ATOMIC_POSITIONS {angstrom}
Cr 0.00000000 0.00000000 23.04056957
Cr 2.86680500 2.02713750 25.06787680
Cr 2.86680500 6.08141250 25.06787680
Cr 0.00000000 4.05427500 23.04056957
Cr 0.00000000 4.05427500 1.06803333
Cr 2.86680500 6.12795558 3.11411916
Cr 2.86680500 1.98067551 3.11411916
Cr 0.00000000 0.00000000 0.91024086
Ga 0.00000000 6.08141250 25.06787680
Ga 2.86680500 0.00000000 23.04056957
Ga 0.00000000 2.02713750 25.06787680
Ga 2.86680500 4.05427500 23.04056957
Ga 0.00000000 2.06468009 3.12142195
Ga 2.86680500 4.05427500 1.03230181
Ga 0.00000000 6.04386991 3.12168277
Ga 2.86680500 0.00000000 0.97935657
Co 1.43340250 0.00000000 25.06787680
Co 4.30020750 4.05427500 25.06787680
Co 4.30020750 0.00000000 25.06787680
Co 1.43340250 4.05427500 25.06787680
Co 4.30020750 6.08141250 23.04056957
Co 1.43340250 2.02713750 23.04056957
Co 1.43340250 6.08141250 23.04056957
Co 4.30020750 2.02713750 23.04056957
Co 1.40725724 4.05427500 2.97067146
Co 4.48087355 0.00000000 3.00066507
Co 4.32635276 4.05427500 2.97067146
Co 1.25273645 0.00000000 3.00066507
Co 4.29200844 2.01959655 1.01195832
Co 1.44165890 6.08895345 1.01195832
Co 1.44160156 2.01959655 1.01195832
Co 4.29195110 6.08895345 1.01195832
C 2.86680500 0.00000000 3.86526348
