&CONTROL
calculation = 'relax'
prefix = 'scf'
pseudo_dir = '/vol0403/data/hp230205/u10028/POT_HYBRID_KKJUS_GBRV'
outdir = './data'
tprnfor = .true.
nstep = 50
disk_io = 'non'
/
&SYSTEM
ibrav = 0
ecutwfc = 50.0
ecutrho = 400
occupations = 'smearing'
smearing = 'mp'
degauss = 0.01
assume_isolated = 'esm'
esm_bc = 'bc1'
input_dft = 'BEEF-VDW'
nosym = .true.
nspin = 1
ntyp = 6
nat = 18
/
&ELECTRONS
electron_maxstep = 200
mixing_beta = 0.1
conv_thr = 1e-06
/
&IONS
ion_dynamics = 'bfgs'
upscale = 1.0
/
&CELL
/

K_POINTS {automatic}
6 6 1 0 0 0

ATOMIC_SPECIES
C 12.01 C.pbe-n-rrkjus_psl.1.0.0.UPF
Li 6.941 Li.pbe-sl-rrkjus_psl.1.0.0.UPF
O 15.99 O.pbe-n-rrkjus_psl.1.0.0.UPF
Pb 207.2 Pb.pbe-dn-rrkjus_psl.1.0.0.UPF
Sn 118.7 Sn.pbe-dn-rrkjus_psl.1.0.0.UPF
Y 88.90 Y.pbe-spn-rrkjus_psl.1.0.0.UPF


CELL_PARAMETERS {angstrom}
6.55220000 0.00000000 0.00000000
0.00000000 9.36828000 0.00000000
0.00000000 0.00000000 24.89710000

ATOMIC_POSITIONS {angstrom}
Li 0.00000000 0.00000000 -2.4486297899999983 0 0 0
Li 2.90413161 9.35469599 0.74915374
Li 0.00000000 4.68414000 -2.4486297899999983 0 0 0
Li 2.90413161 4.69772401 0.74915374
Y 4.77760215 2.34207000 -0.8161269399999966 0 0 0
Y 0.94181323 2.34197632 2.43443844
Y 4.77760215 7.02621000 -0.8161269399999966 0 0 0
Y 0.95262436 7.02621000 2.42497754
Sn 3.27610000 0.00000000 -2.4486297899999983 0 0 0
Sn 5.92456476 9.35741280 1.08974607
Sn 3.27610000 4.68414000 -2.4486297899999983 0 0 0
Sn 5.92456476 4.69500720 1.08999504
Pb 1.50150215 2.34207000 -0.8161269399999966 0 0 0
Pb 4.26187849 2.34197632 2.81611098
Pb 1.50150215 7.02621000 -0.8161269399999966 0 0 0
Pb 4.28160061 7.02630368 2.79046697
C 1.24111772 2.34216368 4.89377398
O 1.34601845 2.34216368 6.04153029
