&CONTROL
calculation = 'relax'
prefix = 'scf'
pseudo_dir = '/vol0403/data/hp230205/u10028/POT_HYBRID_KKJUS_GBRV'
outdir = './data'
tprnfor = .true.
nstep = 70
disk_io = 'non'
/
&SYSTEM
ibrav = 0
ecutwfc = 50.0
ecutrho = 400
occupations = 'smearing'
smearing = 'mp'
degauss = 0.01
assume_isolated = 'esm'
esm_bc = 'bc1'
input_dft = 'BEEF-VDW'
nosym = .true.
nspin = 1
ntyp = 4
nat = 32
/
&ELECTRONS
electron_maxstep = 200
mixing_beta = 0.1
conv_thr = 1e-06
/
&IONS
ion_dynamics = 'bfgs'
upscale = 1.0
/
&CELL
/

K_POINTS {automatic}
9 6 2 0  0  0

ATOMIC_SPECIES
Al 26.98 Al.pbe-nl-rrkjus_psl.1.0.0.UPF
Ga 69.72 Ga.pbe-dnl-rrkjus_psl.1.0.0.UPF
Pd 106.4 Pd.pbe-n-rrkjus_psl.1.0.0.UPF
Sc 44.95 Sc.pbe-spn-rrkjus_psl.1.0.0.UPF


CELL_PARAMETERS {angstrom}
6.45143000 0.00000000 0.00000000
-0.00000000 9.12370000 0.00000000
0.00000000 0.00000000 26.84280000

ATOMIC_POSITIONS {angstrom}
Sc 0.00000000 2.28092500 -1.140550570000002 0 0 0
Sc 0.00000000 6.84277500 -1.140550570000002 0 0 0
Sc 3.22571500 4.56185000 -3.4213832900000014 0 0 0
Sc 3.22571500 0.00000000 -3.4213832900000014 0 0 0
Sc 6.29407962 6.84295747 3.48687972
Sc 6.29382157 2.28065129 3.48661129
Sc 3.25616575 9.12333505 1.15987739
Sc 3.25874632 4.56185000 1.16417224
Al 0.00000000 0.00000000 -3.4213832900000014 0 0 0
Al 0.00000000 4.56185000 -3.4213832900000014 0 0 0
Al 3.22571500 6.84277500 -1.140550570000002 0 0 0
Al 3.22571500 2.28092500 -1.140550570000002 0 0 0
Al 6.38356096 4.56157629 1.23476880
Al 6.38285130 0.00009124 1.23450037
Al 3.20732842 2.28046881 3.35964485
Al 3.20713488 6.84304871 3.35910799
Ga 4.83857250 0.00000000 -1.140550570000002 0 0 0
Ga 4.83857250 4.56185000 -1.140550570000002 0 0 0
Ga 1.61285750 2.28092500 -3.4213832900000014 0 0 0
Ga 1.61285750 6.84277500 -3.4213832900000014 0 0 0
Ga 4.56812855 4.56203247 3.97407654
Ga 4.56741890 9.12342629 3.97192912
Ga 1.54427880 6.84186263 1.19182032
Ga 1.54460137 2.28156366 1.19182032
Pd 1.61285750 0.00000000 -1.140550570000002 0 0 0
Pd 1.61285750 4.56185000 -1.140550570000002 0 0 0
Pd 4.83857250 2.28092500 -3.4213832900000014 0 0 0
Pd 4.83857250 6.84277500 -3.4213832900000014 0 0 0
Pd 1.66079162 4.56166753 3.24287867
Pd 1.66098517 -0.00000000 3.24126810
Pd 4.88740983 6.84295747 1.11719734
Pd 4.88702274 2.28065129 1.11692891
