&CONTROL
calculation = 'relax'
prefix = 'scf'
pseudo_dir = '/vol0004/mdt0/data/hp150275/u10028/POT_HYBRID_KKJUS_GBRV'
outdir = './data'
tprnfor = .true.
nstep = 50
disk_io = 'non'
/
&SYSTEM
ibrav = 0
ecutwfc = 50.0
ecutrho = 400
occupations = 'smearing'
smearing = 'mp'
degauss = 0.01
assume_isolated = 'esm'
esm_bc = 'bc1'
input_dft = 'BEEF-VDW'
nosym = .true.
nspin = 2
ntyp = 4
nat = 33
starting_magnetization(1) = 0.0
starting_magnetization(2) = 0.0
starting_magnetization(3) = 0.1
starting_magnetization(4) = 0.0
/
&ELECTRONS
electron_maxstep = 300
mixing_beta = 0.1
conv_thr = 1e-06
/
&IONS
ion_dynamics = 'bfgs'
upscale = 1.0
/
&CELL
/

K_POINTS {automatic}
9 6 2 0  0  0

ATOMIC_SPECIES
Al 26.98 Al.pbe-nl-rrkjus_psl.1.0.0.UPF
C 12.01 C.pbe-n-rrkjus_psl.1.0.0.UPF
Co 58.93 co_pbe_v1.2.uspp.F.UPF
Nb 92.90 Nb.pbe-spn-rrkjus_psl.1.0.0.UPF

CELL_PARAMETERS {angstrom}
5.97844000 0.00000000 0.00000000
0.00000000 8.45478000 0.00000000
0.00000000 0.00000000 26.34110000

ATOMIC_POSITIONS {angstrom}
Nb 0.00000000 0.00000000 -3.1704147999999996 0 0 0
Nb 2.98922000 2.11369500 -1.056804930000002 0 0 0
Nb 2.98922000 6.34108500 -1.056804930000002 0 0 0
Nb 0.00000000 4.22739000 -3.1704147999999996 0 0 0
Nb 0.00000000 4.22739000 1.06602432
Nb 2.98927978 6.37076128 3.21651172
Nb 2.98922000 2.08393417 3.21651172
Nb 5.97832043 0.00000000 1.03520523
Al 0.00000000 6.34108500 -1.056804930000002 0 0 0
Al 2.98922000 0.00000000 -3.1704147999999996 0 0 0
Al 0.00000000 2.11369500 -1.056804930000002 0 0 0
Al 2.98922000 4.22739000 -3.1704147999999996 0 0 0
Al 0.00000000 2.15427794 3.21888242
Al 2.98922000 4.22739000 1.09763364
Al 0.00000000 6.30041751 3.21888242
Al 2.98922000 0.00000000 1.10896031
Co 1.49461000 0.00000000 -1.056804930000002 0 0 0
Co 4.48383000 4.22739000 -1.056804930000002 0 0 0
Co 4.48383000 0.00000000 -1.056804930000002 0 0 0
Co 1.49461000 4.22739000 -1.056804930000002 0 0 0
Co 4.48383000 6.34108500 -3.1704147999999996 0 0 0
Co 1.49461000 2.11369500 -3.1704147999999996 0 0 0
Co 1.49461000 6.34108500 -3.1704147999999996 0 0 0
Co 4.48383000 2.11369500 -3.1704147999999996 0 0 0
Co 1.43082005 4.22739000 3.03238743
Co 4.70413551 0.00000000 3.06584063
Co 4.54761995 4.22739000 3.03238743
Co 1.27454362 0.00000000 3.06557722
Co 4.42625762 2.10447929 1.08630696
Co 1.55218238 6.35046981 1.08630696
Co 1.55218238 2.10431019 1.08630696
Co 4.42625762 6.35030071 1.08630696
C 2.98927978 0.00000000 3.77125529
