&CONTROL
calculation = 'relax'
prefix = 'scf'
pseudo_dir = '/vol0403/data/hp230205/u10028/POT_HYBRID_KKJUS_GBRV'
outdir = './data'
tprnfor = .true.
nstep = 50
disk_io = 'non'
/
&SYSTEM
ibrav = 0
ecutwfc = 50.0
ecutrho = 400
occupations = 'smearing'
smearing = 'mp'
degauss = 0.01
assume_isolated = 'esm'
esm_bc = 'bc1'
input_dft = 'BEEF-VDW'
nosym = .true.
nspin = 2
ntyp = 5
nat = 33
starting_magnetization(1) = 0.0
starting_magnetization(2) = 0.0
starting_magnetization(3) = 0.0
starting_magnetization(4) = 0.1
starting_magnetization(5) = 0.0
/
&ELECTRONS
electron_maxstep = 200
mixing_beta = 0.1
conv_thr = 1e-06
/
&IONS
ion_dynamics = 'bfgs'
upscale = 1.0
/
&CELL
/

K_POINTS {automatic}
6 6 1 0 0 0

ATOMIC_SPECIES
C 12.01 C.pbe-n-rrkjus_psl.1.0.0.UPF
Ge 72.64 Ge.pbe-dn-rrkjus_psl.1.0.0.UPF
Li 6.941 Li.pbe-sl-rrkjus_psl.1.0.0.UPF
Mn 54.93 mn_pbe_v1.5.uspp.F.UPF
Pd 106.4 Pd.pbe-n-rrkjus_psl.1.0.0.UPF


CELL_PARAMETERS {angstrom}
6.14713000 0.00000000 0.00000000
0.00000000 8.69336000 0.00000000
0.00000000 0.00000000 26.52000000

ATOMIC_POSITIONS {angstrom}
Li 0.00000000 2.17334000 -1.0867895999999995 0 0 0
Li 0.00000000 6.52002000 -1.0867895999999995 0 0 0
Li 3.07356500 4.34668000 -3.2601036000000008 0 0 0
Li 3.07356500 0.00000000 -3.2601036000000008 0 0 0
Li 6.03217867 6.38562065 3.73269000
Li 6.03217867 2.30773935 3.73242480
Li 3.05776688 0.00000000 1.07087760
Li 3.07362647 4.34668000 0.91175760
Mn 1.53678250 0.00000000 -1.0867895999999995 0 0 0
Mn 1.53678250 4.34668000 -1.0867895999999995 0 0 0
Mn 4.61034750 2.17334000 -3.2601036000000008 0 0 0
Mn 4.61034750 6.52002000 -3.2601036000000008 0 0 0
Mn 1.76078392 4.34668000 3.15641040
Mn 1.33663195 0.00000000 3.10761360
Mn 4.62860448 6.49811273 1.21222920
Mn 4.62860448 2.19524727 1.21222920
Ge 0.00000000 0.00000000 -3.2601036000000008 0 0 0
Ge 0.00000000 4.34668000 -3.2601036000000008 0 0 0
Ge 3.07356500 6.52002000 -1.0867895999999995 0 0 0
Ge 3.07356500 2.17334000 -1.0867895999999995 0 0 0
Ge 0.03276420 4.34668000 1.08811560
Ge 0.04893115 0.00000000 0.92634360
Ge 3.02776888 2.06684634 3.50780040
Ge 3.02776888 6.62651366 3.50780040
Pd 4.61034750 0.00000000 -1.0867895999999995 0 0 0
Pd 4.61034750 4.34668000 -1.0867895999999995 0 0 0
Pd 1.53678250 2.17334000 -3.2601036000000008 0 0 0
Pd 1.53678250 6.52002000 -3.2601036000000008 0 0 0
Pd 4.49306026 4.34668000 3.03468360
Pd 4.79181078 0.00000000 3.02593200
Pd 1.55510095 6.48794150 1.22045040
Pd 1.55510095 2.20541850 1.22045040
C 2.96998586 0.00000000 3.97508280
