&CONTROL
calculation = 'relax'
prefix = 'scf'
pseudo_dir = '/vol0004/mdt0/data/hp150275/u10028/POT_HYBRID_KKJUS_GBRV'
outdir = './data'
tprnfor = .true.
nstep = 50
disk_io = 'non'
/
&SYSTEM
ibrav = 0
ecutwfc = 50.0
ecutrho = 400
occupations = 'smearing'
smearing = 'mp'
degauss = 0.01
assume_isolated = 'esm'
esm_bc = 'bc1'
input_dft = 'BEEF-VDW'
nosym = .true.
nspin = 2
ntyp = 4
nat = 33
starting_magnetization(1) = 0.0
starting_magnetization(2) = 0.1
starting_magnetization(3) = 0.0
starting_magnetization(4) = 0.0
/
&ELECTRONS
electron_maxstep = 200
mixing_beta = 0.1
conv_thr = 1e-06
/
&IONS
ion_dynamics = 'bfgs'
upscale = 1.0
/
&CELL
/

K_POINTS {automatic}
9 6 2 0  0  0

ATOMIC_SPECIES
C 12.01 C.pbe-n-rrkjus_psl.1.0.0.UPF
Co 58.93 co_pbe_v1.2.uspp.F.UPF
Hf 178.4 Hf.pbe-spn-rrkjus_psl.1.0.0.UPF
Sn 118.7 Sn.pbe-dn-rrkjus_psl.1.0.0.UPF

CELL_PARAMETERS {angstrom}
6.26570000 0.00000000 0.00000000
0.00000000 8.86104000 0.00000000
0.00000000 0.00000000 26.64580000

ATOMIC_POSITIONS {angstrom}
Hf 0.00000000 0.00000000 23.32280228
Hf 3.13285000 2.21526000 25.53813409
Hf 3.13285000 6.64578000 25.53813409
Hf 0.00000000 4.43052000 23.32280228
Hf 0.00000000 4.43052000 1.11166278
Hf 3.13285000 6.60882946 3.32939271
Hf 3.13285000 2.25221054 3.32965917
Hf 6.26563734 0.00000000 1.10153737
Co 1.56642500 0.00000000 25.53813409
Co 4.69927500 4.43052000 25.53813409
Co 4.69927500 0.00000000 25.53813409
Co 1.56642500 4.43052000 25.53813409
Co 4.69927500 6.64578000 23.32280228
Co 1.56642500 2.21526000 23.32280228
Co 1.56642500 6.64578000 23.32280228
Co 4.69927500 2.21526000 23.32280228
Co 1.47482047 4.43052000 3.16365583
Co 4.86324837 0.00000000 3.25771551
Co 4.79087953 4.43052000 3.16365583
Co 1.40245163 0.00000000 3.25744905
Co 4.68041524 2.20498119 1.16655312
Co 1.58522210 6.65605881 1.16628667
Co 1.58528476 2.20498119 1.16655312
Co 4.68041524 6.65605881 1.16628667
Sn 0.00000000 6.64578000 25.53813409
Sn 3.13285000 0.00000000 23.32280228
Sn 0.00000000 2.21526000 25.53813409
Sn 3.13285000 4.43052000 23.32280228
Sn 0.00000000 2.22039940 3.52843684
Sn 3.13285000 4.43052000 1.10286966
Sn 0.00000000 6.64064060 3.52843684
Sn 3.13278734 0.00000000 1.09993862
C 3.13285000 0.00000000 3.75412676
