&CONTROL
calculation = 'relax'
prefix = 'scf'
pseudo_dir = '/vol0004/mdt0/data/hp150275/u10028/POT_KKJUS'
outdir = './data'
tprnfor = .true.
nstep = 50
disk_io = 'non'
/
&SYSTEM
ibrav = 0
ecutwfc = 50.0
ecutrho = 400
occupations = 'smearing'
smearing = 'mp'
degauss = 0.01
assume_isolated = 'esm'
esm_bc = 'bc1'
input_dft = 'BEEF-VDW'
nosym = .true.
nspin = 1
ntyp = 4
nat = 33
/
&ELECTRONS
electron_maxstep = 200
mixing_beta = 0.1
conv_thr = 1e-06
/
&IONS
ion_dynamics = 'bfgs'
upscale = 1.0
/
&CELL
/

K_POINTS {automatic}
9 6 2 0  0  0

ATOMIC_SPECIES
C 12.01 C.pbe-n-rrkjus_psl.1.0.0.UPF
Cu 63.54 Cu.pbe-dn-rrkjus_psl.1.0.0.UPF
Li 6.941 Li.pbe-sl-rrkjus_psl.1.0.0.UPF
Si 28.08 Si.pbe-nl-rrkjus_psl.1.0.0.UPF

CELL_PARAMETERS {angstrom}
5.78917000 0.00000000 0.00000000
0.00000000 8.18712000 0.00000000
0.00000000 0.00000000 26.14030000

ATOMIC_POSITIONS {angstrom}
Li 0.00000000 0.00000000 -3.0701782400000006 0 0 0
Li 2.89458500 2.04678000 -1.0233927399999985 0 0 0
Li 2.89458500 6.14034000 -1.0233927399999985 0 0 0
Li 0.00000000 4.09356000 -3.0701782400000006 0 0 0
Li 0.00000000 4.09356000 0.86759656
Li 2.89458500 6.01646887 3.51430193
Li 2.89458500 2.17065113 3.51430193
Li 0.00000000 0.00000000 1.02104012
Cu 1.44729250 0.00000000 -1.0233927399999985 0 0 0
Cu 4.34187750 4.09356000 -1.0233927399999985 0 0 0
Cu 4.34187750 0.00000000 -1.0233927399999985 0 0 0
Cu 1.44729250 4.09356000 -1.0233927399999985 0 0 0
Cu 4.34187750 6.14034000 -3.0701782400000006 0 0 0
Cu 1.44729250 2.04678000 -3.0701782400000006 0 0 0
Cu 1.44729250 6.14034000 -3.0701782400000006 0 0 0
Cu 4.34187750 2.04678000 -3.0701782400000006 0 0 0
Cu 1.24912921 4.09356000 3.02390990
Cu 4.10319002 0.00000000 2.85530497
Cu 4.54004079 4.09356000 3.02390990
Cu 1.68597998 0.00000000 2.85530497
Cu 4.31698407 2.07191446 1.10599609
Cu 1.47218593 6.11520554 1.10599609
Cu 1.47218593 2.07191446 1.10599609
Cu 4.31698407 6.11520554 1.10599609
Si 0.00000000 6.14034000 -1.0233927399999985 0 0 0
Si 2.89458500 0.00000000 -3.0701782400000006 0 0 0
Si 0.00000000 2.04678000 -1.0233927399999985 0 0 0
Si 2.89458500 4.09356000 -3.0701782400000006 0 0 0
Si 0.00000000 1.83121313 3.15330439
Si 2.89458500 4.09356000 1.19644153
Si 0.00000000 6.35590687 3.15330439
Si 2.89458500 0.00000000 0.88275793
C 0.00000000 0.00000000 3.79008210
