&CONTROL
calculation = 'relax'
prefix = 'scf'
pseudo_dir = '/vol0004/mdt0/data/hp150275/u10028/POT_HYBRID_KKJUS_GBRV'
outdir = './data'
tprnfor = .true.
nstep = 50
disk_io = 'non'
/
&SYSTEM
ibrav = 0
ecutwfc = 50.0
ecutrho = 400
occupations = 'smearing'
smearing = 'mp'
degauss = 0.01
assume_isolated = 'esm'
esm_bc = 'bc1'
input_dft = 'BEEF-VDW'
nosym = .true.
nspin = 2
ntyp = 3
nat = 16
starting_magnetization(1) = 0.1
starting_magnetization(2) = 0.1
starting_magnetization(3) = 0.1
/
&ELECTRONS
electron_maxstep = 200
mixing_beta = 0.1
conv_thr = 1e-06
/
&IONS
ion_dynamics = 'bfgs'
upscale = 1.0
/
&CELL
/

K_POINTS {automatic}
10 10 2 0  0  0

ATOMIC_SPECIES
Al 26.98 Al.pbe-nl-rrkjus_psl.1.0.0.UPF
Nb 92.90 Nb.pbe-spn-rrkjus_psl.1.0.0.UPF
Ni 58.69 ni_pbe_v1.4.uspp.F.UPF

CELL_PARAMETERS {angstrom}
6.00915000 0.00000000 0.00000000
0.00000000 6.00915000 0.00000000
0.00000000 0.00000000 24.50690000

ATOMIC_POSITIONS {angstrom}
Nb 6.00470323 6.00752753 2.20954210
Nb 3.00517592 3.00295253 2.20929704
Nb 3.00457500 0.00000000 -0.7511364800000031 0 0 0
Nb 0.00000000 3.00457500 -0.7511364800000031 0 0 0
Al 0.00000000 0.00000000 -0.7511364800000031 0 0 0
Al 3.00391399 6.00818854 2.28575856
Al 6.00782799 3.00433463 2.29213036
Al 3.00457500 3.00457500 -0.7511364800000031 0 0 0
Ni 1.50096549 1.50463107 0.80211084
Ni 4.50686250 4.50686250 -2.253409450000003 0 0 0
Ni 4.50728314 1.50769574 0.79402356
Ni 1.50228750 4.50686250 -2.253409450000003 0 0 0
Ni 4.50517994 4.50145427 0.79549397
Ni 1.50228750 1.50228750 -2.253409450000003 0 0 0
Ni 1.50222741 4.50319692 0.79843480
Ni 4.50686250 1.50228750 -2.253409450000003 0 0 0
