&CONTROL
calculation = 'relax'
prefix = 'scf'
pseudo_dir = '/vol0004/mdt0/data/hp150275/u10028/POT_HYBRID_KKJUS_GBRV'
outdir = './data'
tprnfor = .true.
nstep = 50
disk_io = 'non'
/
&SYSTEM
ibrav = 0
ecutwfc = 50.0
ecutrho = 400
occupations = 'smearing'
smearing = 'mp'
degauss = 0.01
assume_isolated = 'esm'
esm_bc = 'bc1'
input_dft = 'BEEF-VDW'
nosym = .true.
nspin = 2
ntyp = 3
nat = 33
starting_magnetization(1) = 0.1
starting_magnetization(2) = 0.1
starting_magnetization(3) = 0.1
/
&ELECTRONS
electron_maxstep = 200
mixing_beta = 0.1
conv_thr = 1e-06
/
&IONS
ion_dynamics = 'bfgs'
upscale = 1.0
/
&CELL
/

K_POINTS {automatic}
9 6 2 0  0  0

ATOMIC_SPECIES
C 12.01 C.pbe-n-rrkjus_psl.1.0.0.UPF
Ca 40.07 Ca.pbe-spn-rrkjus_psl.1.0.0.UPF
Ni 58.69 ni_pbe_v1.4.uspp.F.UPF

CELL_PARAMETERS {angstrom}
6.91175000 0.00000000 0.00000000
0.00000000 9.77469000 0.00000000
0.00000000 0.00000000 27.33100000

ATOMIC_POSITIONS {angstrom}
Ca 0.00000000 0.00000000 -3.665633719999999 0 0 0
Ca 0.00000000 2.44367250 -1.2219690099999987 0 0 0
Ca 0.00000000 0.00000000 1.30204884
Ca 0.00000000 2.63975278 3.80693499
Ca 0.00000000 4.88734500 -3.665633719999999 0 0 0
Ca 0.00000000 7.33101750 -1.2219690099999987 0 0 0
Ca 0.00000000 4.88734500 1.24110071
Ca 0.00000000 7.13503497 3.80693499
Ca 3.45587500 0.00000000 -3.665633719999999 0 0 0
Ca 3.45587500 2.44367250 -1.2219690099999987 0 0 0
Ca 3.45587500 0.00000000 1.14161587
Ca 3.45587500 2.54239687 3.79709583
Ca 3.45587500 4.88734500 -3.665633719999999 0 0 0
Ca 3.45587500 7.33101750 -1.2219690099999987 0 0 0
Ca 3.45587500 4.88734500 1.23973416
Ca 3.45587500 7.23229313 3.79709583
Ni 1.72793750 2.44367250 -3.665633719999999 0 0 0
Ni 1.72793750 0.00000000 -1.2219690099999987 0 0 0
Ni 1.74611540 2.42676229 1.32692005
Ni 1.73111690 0.00000000 3.68148570
Ni 1.72793750 7.33101750 -3.665633719999999 0 0 0
Ni 1.72793750 4.88734500 -1.2219690099999987 0 0 0
Ni 1.74618452 7.34792771 1.32692005
Ni 1.75648303 4.88724725 3.43195367
Ni 5.18381250 2.44367250 -3.665633719999999 0 0 0
Ni 5.18381250 0.00000000 -1.2219690099999987 0 0 0
Ni 5.16556548 2.42676229 1.32692005
Ni 5.18056398 0.00000000 3.68148570
Ni 5.18381250 7.33101750 -3.665633719999999 0 0 0
Ni 5.18381250 4.88734500 -1.2219690099999987 0 0 0
Ni 5.16549636 7.34792771 1.32692005
Ni 5.15533609 4.88734500 3.43195367
C 0.00000000 0.00000000 3.89904046
