&CONTROL
calculation = 'relax'
prefix = 'scf'
pseudo_dir = '/vol0004/mdt0/data/hp150275/u10028/POT_KKJUS'
outdir = './data'
tprnfor = .true.
nstep = 50
disk_io = 'non'
/
&SYSTEM
ibrav = 0
ecutwfc = 50.0
ecutrho = 400
occupations = 'smearing'
smearing = 'mp'
degauss = 0.01
assume_isolated = 'esm'
esm_bc = 'bc1'
input_dft = 'BEEF-VDW'
nosym = .true.
nspin = 1
ntyp = 5
nat = 18
/
&ELECTRONS
electron_maxstep = 200
mixing_beta = 0.1
conv_thr = 1e-06
/
&IONS
ion_dynamics = 'bfgs'
upscale = 1.0
/
&CELL
/

K_POINTS {automatic}
8 8 1 0 0 0

ATOMIC_SPECIES
Ag 107.8 Ag.pbe-n-rrkjus_psl.1.0.0.UPF
C 12.01 C.pbe-n-rrkjus_psl.1.0.0.UPF
Li 6.941 Li.pbe-sl-rrkjus_psl.1.0.0.UPF
O 15.99 O.pbe-n-rrkjus_psl.1.0.0.UPF
Sn 118.7 Sn.pbe-dn-rrkjus_psl.1.0.0.UPF

CELL_PARAMETERS {angstrom}
6.77071000 0.00000000 0.00000000
0.00000000 6.77071000 0.00000000
0.00000000 0.00000000 25.07800000

ATOMIC_POSITIONS {angstrom}
Li 6.76007999 6.76624133 2.41300516
Li 3.38447481 3.38569354 2.44936826
Li 3.38535500 0.00000000 -0.8463825000000007 0 0 0
Li 0.00000000 3.38535500 -0.8463825000000007 0 0 0
Ag 1.68766717 1.71739059 0.96951548
Ag 5.07803250 5.07803250 -2.5388967200000003 0 0 0
Ag 5.07539192 1.71238027 0.95848116
Ag 1.69267750 5.07803250 -2.5388967200000003 0 0 0
Ag 5.07505339 5.05772037 0.95873194
Ag 1.69267750 1.69267750 -2.5388967200000003 0 0 0
Ag 1.68766717 5.05271004 0.96976626
Ag 5.07803250 1.69267750 -2.5388967200000003 0 0 0
Sn 0.00000000 0.00000000 -0.8463825000000007 0 0 0
Sn 3.38352691 0.00000000 2.62290802
Sn 6.76177266 3.38494876 2.65049382
Sn 3.38535500 3.38535500 -0.8463825000000007 0 0 0
C 0.33873862 3.38461022 6.75927334
O 6.49338172 3.39788081 7.71499592
