&CONTROL
calculation = 'relax'
prefix = 'scf'
pseudo_dir = '/vol0004/mdt0/data/hp150275/u10028/POT_KKJUS'
outdir = './data'
tprnfor = .true.
nstep = 50
disk_io = 'non'
/
&SYSTEM
ibrav = 0
ecutwfc = 50.0
ecutrho = 400
occupations = 'smearing'
smearing = 'mp'
degauss = 0.01
assume_isolated = 'esm'
esm_bc = 'bc1'
input_dft = 'BEEF-VDW'
nosym = .true.
nspin = 1
ntyp = 4
nat = 34
/
&ELECTRONS
electron_maxstep = 200
mixing_beta = 0.1
conv_thr = 1e-06
/
&IONS
ion_dynamics = 'bfgs'
upscale = 1.0
/
&CELL
/

K_POINTS {automatic}
8 6 1 0 0 0

ATOMIC_SPECIES
C 12.01 C.pbe-n-rrkjus_psl.1.0.0.UPF
O 15.99 O.pbe-n-rrkjus_psl.1.0.0.UPF
Rh 102.9 Rh.pbe-spn-rrkjus_psl.1.0.0.UPF
Y 88.90 Y.pbe-spn-rrkjus_psl.1.0.0.UPF

CELL_PARAMETERS {angstrom}
6.88160000 0.00000000 0.00000000
0.00000000 9.73205000 0.00000000
0.00000000 0.00000000 27.29900000

ATOMIC_POSITIONS {angstrom}
Y 1.72040000 2.43301250 -3.64960331 0 0 0
Y 1.72040000 0.00000000 -1.216443439999999 0 0 0
Y 1.74593074 2.43291518 1.22654407
Y 1.73209872 4.89337206 3.75989127
Y 1.72040000 7.29903750 -3.64960331 0 0 0
Y 1.72040000 4.86602500 -1.216443439999999 0 0 0
Y 1.71806026 7.29903750 1.25302410
Y 1.73189227 9.70480026 3.76016426
Y 5.16120000 2.43301250 -3.64960331 0 0 0
Y 5.16120000 0.00000000 -1.216443439999999 0 0 0
Y 5.13566926 2.43291518 1.22654407
Y 5.14950128 4.89346938 3.75989127
Y 5.16120000 7.29903750 -3.64960331 0 0 0
Y 5.16120000 4.86602500 -1.216443439999999 0 0 0
Y 5.16353974 7.29903750 1.25302410
Y 5.14970773 9.70480026 3.76016426
Rh 0.00000000 0.00000000 -3.64960331 0 0 0
Rh 0.00000000 2.43301250 -1.216443439999999 0 0 0
Rh 0.00006882 0.05926818 1.36495000
Rh 0.00006882 2.43281786 3.70037945
Rh 0.00000000 4.86602500 -3.64960331 0 0 0
Rh 0.00000000 7.29903750 -1.216443439999999 0 0 0
Rh 0.00000000 4.80695146 1.36467701
Rh 6.88153118 7.29894018 3.49836685
Rh 3.44080000 0.00000000 -3.64960331 0 0 0
Rh 3.44080000 2.43301250 -1.216443439999999 0 0 0
Rh 3.44073118 9.72591881 1.33137223
Rh 3.44073118 2.43291518 3.47052187
Rh 3.44080000 4.86602500 -3.64960331 0 0 0
Rh 3.44080000 7.29903750 -1.216443439999999 0 0 0
Rh 3.44080000 4.87235083 1.33164522
Rh 3.44080000 7.29894018 3.50874047
C 0.00000000 2.43301250 5.55480052
O 0.00000000 2.43301250 6.72811154
