&CONTROL
calculation = 'relax'
prefix = 'scf'
pseudo_dir = '/vol0004/mdt0/data/hp150275/u10028/POT_KKJUS'
outdir = './data'
tprnfor = .true.
nstep = 50
disk_io = 'non'
/
&SYSTEM
ibrav = 0
ecutwfc = 50.0
ecutrho = 400
occupations = 'smearing'
smearing = 'mp'
degauss = 0.01
assume_isolated = 'esm'
esm_bc = 'bc1'
input_dft = 'BEEF-VDW'
nosym = .true.
nspin = 1
ntyp = 5
nat = 34
/
&ELECTRONS
electron_maxstep = 200
mixing_beta = 0.1
conv_thr = 1e-06
/
&IONS
ion_dynamics = 'bfgs'
upscale = 1.0
/
&CELL
/

K_POINTS {automatic}
9 6 2 0  0  0

ATOMIC_SPECIES
C 12.01 C.pbe-n-rrkjus_psl.1.0.0.UPF
O 15.99 O.pbe-n-rrkjus_psl.1.0.0.UPF
Pd 106.4 Pd.pbe-n-rrkjus_psl.1.0.0.UPF
Sn 118.7 Sn.pbe-dn-rrkjus_psl.1.0.0.UPF
Y 88.90 Y.pbe-spn-rrkjus_psl.1.0.0.UPF

CELL_PARAMETERS {angstrom}
6.84524000 0.00000000 0.00000000
0.00000000 9.68063000 0.00000000
0.00000000 0.00000000 27.26050000

ATOMIC_POSITIONS {angstrom}
Y 0.00000000 0.00000000 -3.6302807799999997 0 0 0
Y 3.42262000 2.42015750 -1.2100935899999996 0 0 0
Y 3.42262000 7.26047250 -1.2100935899999996 0 0 0
Y 0.00000000 4.84031500 -3.6302807799999997 0 0 0
Y 0.01485417 4.84031500 1.18446873
Y 3.43898012 7.28312517 3.73332547
Y 3.43898012 2.39750483 3.73332547
Y 0.04134525 0.00000000 1.20873057
Sn 0.00000000 7.26047250 -1.2100935899999996 0 0 0
Sn 3.42262000 0.00000000 -3.6302807799999997 0 0 0
Sn 0.00000000 2.42015750 -1.2100935899999996 0 0 0
Sn 3.42262000 4.84031500 -3.6302807799999997 0 0 0
Sn 0.00184821 2.44813452 3.59729558
Sn 3.43781643 4.84031500 1.25970771
Sn 0.00191667 7.23249548 3.59729558
Sn 3.41652774 0.00000000 1.29623678
Pd 1.71131000 0.00000000 -1.2100935899999996 0 0 0
Pd 5.13393000 4.84031500 -1.2100935899999996 0 0 0
Pd 5.13393000 0.00000000 -1.2100935899999996 0 0 0
Pd 1.71131000 4.84031500 -1.2100935899999996 0 0 0
Pd 5.13393000 7.26047250 -3.6302807799999997 0 0 0
Pd 1.71131000 2.42015750 -3.6302807799999997 0 0 0
Pd 1.71131000 7.26047250 -3.6302807799999997 0 0 0
Pd 5.13393000 2.42015750 -3.6302807799999997 0 0 0
Pd 1.68050642 4.84031500 3.48143845
Pd 5.26371575 0.00000000 3.47216989
Pd 5.17301632 4.84031500 3.49370568
Pd 1.58214032 0.00000000 3.96558493
Pd 5.04131390 2.41851179 1.30032585
Pd 1.84698266 7.27305732 1.35593727
Pd 1.84698266 2.40757268 1.35593727
Pd 5.04131390 7.26211821 1.30032585
C 2.17377441 0.00000000 5.81384683
O 2.25057801 0.00000000 6.97132767
