&CONTROL
calculation = 'relax'
prefix = 'scf'
pseudo_dir = '/vol0004/mdt0/data/hp150275/u10028/POT_HYBRID_KKJUS_GBRV'
outdir = './data'
tprnfor = .true.
nstep = 50
disk_io = 'non'
/
&SYSTEM
ibrav = 0
ecutwfc = 50.0
ecutrho = 400
occupations = 'smearing'
smearing = 'mp'
degauss = 0.01
assume_isolated = 'esm'
esm_bc = 'bc1'
input_dft = 'BEEF-VDW'
nosym = .true.
nspin = 2
ntyp = 5
nat = 34
starting_magnetization(1) = 0.0
starting_magnetization(2) = 0.1
starting_magnetization(3) = 0.0
starting_magnetization(4) = 0.0
starting_magnetization(5) = 0.0
/
&ELECTRONS
electron_maxstep = 300
mixing_beta = 0.1
conv_thr = 1e-06
/
&IONS
ion_dynamics = 'bfgs'
upscale = 1.0
/
&CELL
/

K_POINTS {automatic}
9 6 2 0  0  0

ATOMIC_SPECIES
C 12.01 C.pbe-n-rrkjus_psl.1.0.0.UPF
Fe 55.84 fe_pbe_v1.5.uspp.F.UPF
O 15.99 O.pbe-n-rrkjus_psl.1.0.0.UPF
Sn 118.7 Sn.pbe-dn-rrkjus_psl.1.0.0.UPF
V 50.94 V.pbe-spnl-rrkjus_psl.1.0.0.UPF

CELL_PARAMETERS {angstrom}
6.09904000 0.00000000 0.00000000
0.00000000 8.62534000 0.00000000
0.00000000 0.00000000 26.46900000

ATOMIC_POSITIONS {angstrom}
V 0.00000000 0.00000000 -3.2345118 0 0 0
V 3.04952000 2.15633500 -1.0780823700000006 0 0 0
V 3.04952000 6.46900500 -1.0780823700000006 0 0 0
V 0.00000000 4.31267000 -3.2345118 0 0 0
V 0.00000000 4.31543011 1.09793412
V 3.04952000 6.46917751 3.13340022
V 3.04952000 2.15616249 3.16542771
V 0.00000000 8.62257989 1.09793412
Fe 1.52476000 0.00000000 -1.0780823700000006 0 0 0
Fe 4.57428000 4.31267000 -1.0780823700000006 0 0 0
Fe 4.57428000 0.00000000 -1.0780823700000006 0 0 0
Fe 1.52476000 4.31267000 -1.0780823700000006 0 0 0
Fe 4.57428000 6.46900500 -3.2345118 0 0 0
Fe 1.52476000 2.15633500 -3.2345118 0 0 0
Fe 1.52476000 6.46900500 -3.2345118 0 0 0
Fe 4.57428000 2.15633500 -3.2345118 0 0 0
Fe 1.55110785 4.32440046 3.21095439
Fe 4.54793215 8.61360954 3.21121908
Fe 4.54793215 4.32440046 3.21095439
Fe 1.55104686 8.61360954 3.21121908
Fe 4.74297945 2.15659376 1.22922036
Fe 1.40326712 6.46874624 1.28268774
Fe 1.35612154 2.15659376 1.22895567
Fe 4.69577288 6.46865999 1.28295243
Sn 0.00000000 6.46900500 -1.0780823700000006 0 0 0
Sn 3.04952000 0.00000000 -3.2345118 0 0 0
Sn 0.00000000 2.15633500 -1.0780823700000006 0 0 0
Sn 3.04952000 4.31267000 -3.2345118 0 0 0
Sn 0.00000000 2.15642125 3.70671876
Sn 3.04952000 4.28593145 1.03599666
Sn 0.00000000 6.46891875 3.80888910
Sn 3.04952000 0.02673855 1.03599666
C 3.04952000 2.15633500 5.15272023
O 3.04952000 2.15642125 6.31232712
