&CONTROL
calculation = 'relax'
prefix = 'scf'
pseudo_dir = '/vol0004/mdt0/data/hp150275/u10028/POT_KKJUS'
outdir = './data'
tprnfor = .true.
nstep = 50
disk_io = 'non'
/
&SYSTEM
ibrav = 0
ecutwfc = 50.0
ecutrho = 400
occupations = 'smearing'
smearing = 'mp'
degauss = 0.01
assume_isolated = 'esm'
esm_bc = 'bc1'
input_dft = 'BEEF-VDW'
nosym = .true.
nspin = 1
ntyp = 4
nat = 18
/
&ELECTRONS
electron_maxstep = 200
mixing_beta = 0.1
conv_thr = 1e-06
/
&IONS
ion_dynamics = 'bfgs'
upscale = 1.0
/
&CELL
/

K_POINTS {automatic}
8 8 1 0 0 0

ATOMIC_SPECIES
C 12.01 C.pbe-n-rrkjus_psl.1.0.0.UPF
In 114.8 In.pbe-dn-rrkjus_psl.1.0.0.UPF
Ni 58.69 Ni.pbe-spn-rrkjus_psl.1.0.0.UPF
O 15.99 O.pbe-n-rrkjus_psl.1.0.0.UPF

CELL_PARAMETERS {angstrom}
6.37073000 0.00000000 0.00000000
0.00000000 6.37073000 0.00000000
0.00000000 0.00000000 24.77800000

ATOMIC_POSITIONS {angstrom}
In 1.59268250 1.59268250 -0.5386737199999985 0 0 0
In 1.59440260 1.59331957 2.54123168
In 1.59268250 4.77804750 -0.5386737199999985 0 0 0
In 1.59586786 4.77830233 2.71988106
In 4.77804750 1.59268250 -0.5386737199999985 0 0 0
In 4.77658223 1.59261879 2.72285442
In 4.77804750 4.77804750 -0.5386737199999985 0 0 0
In 4.77600887 4.77830233 2.92182176
Ni 0.00000000 0.00000000 -2.131403559999999 0 0 0
Ni 6.30415587 6.30568485 1.13929244
Ni 0.00000000 3.18536500 -2.131403559999999 0 0 0
Ni 6.30702270 3.24837152 1.13161126
Ni 3.18536500 0.00000000 -2.131403559999999 0 0 0
Ni 3.24837152 6.30918875 1.12516898
Ni 3.18536500 3.18536500 -2.131403559999999 0 0 0
Ni 3.24862635 3.24722479 1.12888568
C 1.58516504 1.59115352 6.09538800
O 1.59408406 1.59325587 7.23022040
