&CONTROL
calculation = 'relax'
prefix = 'scf'
pseudo_dir = '/vol0403/data/hp230205/u10028/POT_HYBRID_KKJUS_GBRV'
outdir = './data'
tprnfor = .true.
nstep = 70
disk_io = 'non'
/
&SYSTEM
ibrav = 0
ecutwfc = 50.0
ecutrho = 400
occupations = 'smearing'
smearing = 'mp'
degauss = 0.01
assume_isolated = 'esm'
esm_bc = 'bc1'
input_dft = 'BEEF-VDW'
nosym = .true.
nspin = 1
ntyp = 6
nat = 34
/
&ELECTRONS
electron_maxstep = 200
mixing_beta = 0.1
conv_thr = 1e-06
/
&IONS
ion_dynamics = 'bfgs'
upscale = 1.0
/
&CELL
/

K_POINTS {automatic}
6 6 1 0 0 0

ATOMIC_SPECIES
Al 26.98 Al.pbe-nl-rrkjus_psl.1.0.0.UPF
C 12.01 C.pbe-n-rrkjus_psl.1.0.0.UPF
Ga 69.72 Ga.pbe-dnl-rrkjus_psl.1.0.0.UPF
O 15.99 O.pbe-n-rrkjus_psl.1.0.0.UPF
Pd 106.4 Pd.pbe-n-rrkjus_psl.1.0.0.UPF
Sc 44.95 Sc.pbe-spn-rrkjus_psl.1.0.0.UPF


CELL_PARAMETERS {angstrom}
6.45143000 0.00000000 0.00000000
-0.00000000 9.12370000 0.00000000
0.00000000 0.00000000 26.84280000

ATOMIC_POSITIONS {angstrom}
Sc 0.00000000 2.28092500 -1.140550570000002 0 0 0
Sc 0.00000000 6.84277500 -1.140550570000002 0 0 0
Sc 3.22571500 4.56185000 -3.4213832900000014 0 0 0
Sc 3.22571500 0.00000000 -3.4213832900000014 0 0 0
Sc 6.25640327 6.87625898 3.51855422
Sc 6.25627424 2.24734978 3.51882265
Sc 3.22003774 9.12360876 1.15934053
Sc 3.23674695 4.56185000 1.15262983
Al 0.00000000 0.00000000 -3.4213832900000014 0 0 0
Al 0.00000000 4.56185000 -3.4213832900000014 0 0 0
Al 3.22571500 6.84277500 -1.140550570000002 0 0 0
Al 3.22571500 2.28092500 -1.140550570000002 0 0 0
Al 6.35059415 4.56175876 1.23906365
Al 6.40117336 -0.00000000 1.27932785
Al 3.20790905 2.30948218 3.30569082
Al 3.20778002 6.81421782 3.30569082
Ga 4.83857250 0.00000000 -1.140550570000002 0 0 0
Ga 4.83857250 4.56185000 -1.140550570000002 0 0 0
Ga 1.61285750 2.28092500 -3.4213832900000014 0 0 0
Ga 1.61285750 6.84277500 -3.4213832900000014 0 0 0
Ga 4.56470930 4.56185000 3.98857165
Ga 4.49942082 9.12360876 3.89435342
Ga 1.51498931 6.84432603 1.20336272
Ga 1.51511834 2.27937397 1.20363115
Pd 1.61285750 0.00000000 -1.140550570000002 0 0 0
Pd 1.61285750 4.56185000 -1.140550570000002 0 0 0
Pd 4.83857250 2.28092500 -3.4213832900000014 0 0 0
Pd 4.83857250 6.84277500 -3.4213832900000014 0 0 0
Pd 1.60227715 4.56175876 3.22972570
Pd 1.70524198 -0.00000000 3.52043322
Pd 4.89263548 6.85627808 1.11156035
Pd 4.89250645 2.26742192 1.11156035
C 1.29247949 0.00009124 5.46089923
O 1.34905853 0.00009124 6.61621334
