&CONTROL
calculation = 'relax'
prefix = 'scf'
pseudo_dir = '/vol0403/data/hp230205/u10028/POT_HYBRID_KKJUS_GBRV'
outdir = './data'
tprnfor = .true.
nstep = 70
disk_io = 'non'
/
&SYSTEM
ibrav = 0
ecutwfc = 50.0
ecutrho = 400
occupations = 'smearing'
smearing = 'mp'
degauss = 0.01
assume_isolated = 'esm'
esm_bc = 'bc1'
input_dft = 'BEEF-VDW'
nosym = .true.
nspin = 1
ntyp = 5
nat = 33
/
&ELECTRONS
electron_maxstep = 200
mixing_beta = 0.1
conv_thr = 1e-06
/
&IONS
ion_dynamics = 'bfgs'
upscale = 1.0
/
&CELL
/

K_POINTS {automatic}
6 6 1 0 0 0

ATOMIC_SPECIES
C 12.01 C.pbe-n-rrkjus_psl.1.0.0.UPF
Cu 63.54 Cu.pbe-dn-rrkjus_psl.1.0.0.UPF
In 114.8 In.pbe-dn-rrkjus_psl.1.0.0.UPF
Mg 24.30 Mg.pbe-spnl-rrkjus_psl.1.0.0.UPF
Pd 106.4 Pd.pbe-n-rrkjus_psl.1.0.0.UPF


CELL_PARAMETERS {angstrom}
6.45956000 0.00000000 0.00000000
-0.00000000 9.13520000 0.00000000
0.00000000 0.00000000 26.85140000

ATOMIC_POSITIONS {angstrom}
Mg 1.61489000 0.00000000 -1.1419900400000031 0 0 0
Mg 1.61489000 4.56760000 -1.1419900400000031 0 0 0
Mg 4.84467000 2.28380000 -3.425701610000001 0 0 0
Mg 4.84467000 6.85140000 -3.425701610000001 0 0 0
Mg 1.59409022 4.50639416 3.62520751
Mg 1.59409022 0.06120584 3.62520751
Mg 4.84615570 6.85140000 1.18280417
Mg 4.85636180 2.28380000 1.12131446
In 4.84467000 0.00000000 -1.1419900400000031 0 0 0
In 4.84467000 4.56760000 -1.1419900400000031 0 0 0
In 1.61489000 2.28380000 -3.425701610000001 0 0 0
In 1.61489000 6.85140000 -3.425701610000001 0 0 0
In 4.80416856 4.71549889 3.72026147
In 4.80416856 8.98730111 3.72026147
In 1.64053445 6.85140000 1.11433310
In 1.59770757 2.28380000 1.20535935
Cu 0.00000000 0.00000000 -3.425701610000001 0 0 0
Cu 0.00000000 4.56760000 -3.425701610000001 0 0 0
Cu 3.22978000 6.85140000 -1.1419900400000031 0 0 0
Cu 3.22978000 2.28380000 -1.1419900400000031 0 0 0
Cu 6.43120253 4.60213106 1.23382183
Cu 6.43120253 9.10066894 1.23382183
Cu 3.50728270 2.28380000 3.47134899
Cu 3.09277273 6.85140000 3.41576659
Pd 0.00000000 2.28380000 -1.1419900400000031 0 0 0
Pd 0.00000000 6.85140000 -1.1419900400000031 0 0 0
Pd 3.22978000 4.56760000 -3.425701610000001 0 0 0
Pd 3.22978000 0.00000000 -3.425701610000001 0 0 0
Pd 0.10981252 6.85140000 3.32796252
Pd 6.13160814 2.28380000 3.48584875
Pd 3.26440324 9.12843995 1.20374826
Pd 3.26440324 4.57436005 1.20374826
C 1.66236777 2.28380000 3.68320654
