&CONTROL
calculation = 'relax'
prefix = 'scf'
pseudo_dir = '/vol0004/mdt0/data/hp150275/u10028/POT_KKJUS'
outdir = './data'
tprnfor = .true.
nstep = 50
disk_io = 'non'
/
&SYSTEM
ibrav = 0
ecutwfc = 50.0
ecutrho = 400
occupations = 'smearing'
smearing = 'mp'
degauss = 0.01
assume_isolated = 'esm'
esm_bc = 'bc1'
input_dft = 'BEEF-VDW'
nosym = .true.
nspin = 1
ntyp = 2
nat = 33
/
&ELECTRONS
electron_maxstep = 200
mixing_beta = 0.1
conv_thr = 1e-06
/
&IONS
ion_dynamics = 'bfgs'
upscale = 1.0
/
&CELL
/

K_POINTS {automatic}
7 7 2 0  0  0

ATOMIC_SPECIES
C 12.01 C.pbe-n-rrkjus_psl.1.0.0.UPF
Pt 195.0 Pt.pbe-n-rrkjus_psl.1.0.0.UPF

CELL_PARAMETERS {angstrom}
8.01242000 0.00000000 0.00000000
-0.00000000 8.01242000 0.00000000
0.00000000 0.00000000 26.00930000

ATOMIC_POSITIONS {angstrom}
Pt 0.00000000 0.00000000 -3.0045943400000006 0 0 0
Pt 2.00310500 2.00310500 -3.0045943400000006 0 0 0
Pt 2.00310500 0.00000000 -1.001618139999998 0 0 0
Pt 0.00000000 2.00310500 -1.001618139999998 0 0 0
Pt 0.00000000 0.00000000 1.00161814
Pt 2.00310500 2.00310500 1.00161814
Pt 2.00310500 -0.00000000 3.00459434
Pt 0.00000000 2.00310500 3.00459434
Pt 0.00000000 4.00621000 -3.0045943400000006 0 0 0
Pt 2.00310500 6.00931500 -3.0045943400000006 0 0 0
Pt 2.00310500 4.00621000 -1.001618139999998 0 0 0
Pt 0.00000000 6.00931500 -1.001618139999998 0 0 0
Pt 0.00000000 4.00621000 1.00161814
Pt 2.00310500 6.00931500 1.00161814
Pt 2.00310500 4.00621000 3.00459434
Pt 0.00000000 6.00931500 3.00459434
Pt 4.00621000 0.00000000 -3.0045943400000006 0 0 0
Pt 6.00931500 2.00310500 -3.0045943400000006 0 0 0
Pt 6.00931500 0.00000000 -1.001618139999998 0 0 0
Pt 4.00621000 2.00310500 -1.001618139999998 0 0 0
Pt 4.00621000 -0.00000000 1.00161814
Pt 6.00931500 2.00310500 1.00161814
Pt 6.00931500 -0.00000000 3.00459434
Pt 4.00621000 2.00310500 3.00459434
Pt 4.00621000 4.00621000 -3.0045943400000006 0 0 0
Pt 6.00931500 6.00931500 -3.0045943400000006 0 0 0
Pt 6.00931500 4.00621000 -1.001618139999998 0 0 0
Pt 4.00621000 6.00931500 -1.001618139999998 0 0 0
Pt 4.00621000 4.00621000 1.00161814
Pt 6.00931500 6.00931500 1.00161814
Pt 6.00931500 4.00621000 3.00459434
Pt 4.00621000 6.00931500 3.00459434
C 0.00000000 0.00000000 3.80464040
