&CONTROL
calculation = 'relax'
prefix = 'scf'
pseudo_dir = '/vol0004/mdt0/data/hp150275/u10028/POT_HYBRID_KKJUS_GBRV'
outdir = './data'
tprnfor = .true.
nstep = 50
disk_io = 'non'
/
&SYSTEM
ibrav = 0
ecutwfc = 50.0
ecutrho = 400
occupations = 'smearing'
smearing = 'mp'
degauss = 0.01
assume_isolated = 'esm'
esm_bc = 'bc1'
input_dft = 'BEEF-VDW'
nosym = .true.
nspin = 2
ntyp = 5
nat = 34
starting_magnetization(1) = 0.0
starting_magnetization(2) = 0.1
starting_magnetization(3) = 0.1
starting_magnetization(4) = 0.0
starting_magnetization(5) = 0.0
/
&ELECTRONS
electron_maxstep = 200
mixing_beta = 0.1
conv_thr = 1e-06
/
&IONS
ion_dynamics = 'bfgs'
upscale = 1.0
/
&CELL
/

K_POINTS {automatic}
9 6 2 0  0  0

ATOMIC_SPECIES
C 12.01 C.pbe-n-rrkjus_psl.1.0.0.UPF
Co 58.93 co_pbe_v1.2.uspp.F.UPF
Fe 55.84 fe_pbe_v1.5.uspp.F.UPF
Ge 72.64 Ge.pbe-dn-rrkjus_psl.1.0.0.UPF
O 15.99 O.pbe-n-rrkjus_psl.1.0.0.UPF

CELL_PARAMETERS {angstrom}
5.76795000 0.00000000 0.00000000
0.00000000 8.15711000 0.00000000
0.00000000 0.00000000 26.11780000

ATOMIC_POSITIONS {angstrom}
Fe 0.00000000 0.00000000 23.05888326
Fe 2.88397500 2.03927750 25.09816109
Fe 2.88397500 6.11783250 25.09816109
Fe 0.00000000 4.07855500 23.05888326
Fe 0.00000000 4.09136166 1.02695190
Fe 2.88391732 6.11758779 3.02496360
Fe 2.88391732 2.03952221 3.07589331
Fe 0.00000000 8.14430334 1.02669072
Co 1.44198750 0.00000000 25.09816109
Co 4.32596250 4.07855500 25.09816109
Co 4.32596250 0.00000000 25.09816109
Co 1.44198750 4.07855500 25.09816109
Co 4.32596250 6.11783250 23.05888326
Co 1.44198750 2.03927750 23.05888326
Co 1.44198750 6.11783250 23.05888326
Co 4.32596250 2.03927750 23.05888326
Co 1.42122288 4.08361241 2.95888556
Co 4.34695784 8.15205259 2.95888556
Co 4.34672712 4.08361241 2.95914674
Co 1.42099216 8.15205259 2.95888556
Co 4.32930791 2.03960378 0.98411870
Co 1.43448917 6.11750622 1.02486247
Co 1.43858441 2.03960378 0.98411870
Co 4.33346083 6.11750622 1.02486247
Ge 0.00000000 6.11783250 25.09816109
Ge 2.88397500 0.00000000 23.05888326
Ge 0.00000000 2.03927750 25.09816109
Ge 2.88397500 4.07855500 23.05888326
Ge 0.00005768 2.03993007 3.08320629
Ge 2.88397500 4.05587823 1.02904132
Ge 0.00005768 6.11701679 3.24304723
Ge 2.88391732 0.02275834 1.02851896
C 2.88397500 2.03944064 4.87984975
O 2.88397500 2.03927750 6.03974125
