&CONTROL
calculation = 'relax'
prefix = 'scf'
pseudo_dir = '/vol0004/mdt0/data/hp150275/u10028/POT_HYBRID_KKJUS_GBRV'
outdir = './data'
tprnfor = .true.
nstep = 50
disk_io = 'non'
/
&SYSTEM
ibrav = 0
ecutwfc = 50.0
ecutrho = 400
occupations = 'smearing'
smearing = 'mp'
degauss = 0.01
assume_isolated = 'esm'
esm_bc = 'bc1'
input_dft = 'BEEF-VDW'
nosym = .true.
nspin = 2
ntyp = 4
nat = 34
starting_magnetization(1) = 0.1
starting_magnetization(2) = 0.1
starting_magnetization(3) = 0.1
starting_magnetization(4) = 0.1
/
&ELECTRONS
electron_maxstep = 200
mixing_beta = 0.1
conv_thr = 1e-06
/
&IONS
ion_dynamics = 'bfgs'
upscale = 1.0
/
&CELL
/

K_POINTS {automatic}
9 6 2 0  0  0

ATOMIC_SPECIES
C 12.01 C.pbe-n-rrkjus_psl.1.0.0.UPF
Fe 55.84 fe_pbe_v1.5.uspp.F.UPF
O 15.99 O.pbe-n-rrkjus_psl.1.0.0.UPF
Ti 47.86 Ti.pbe-spn-rrkjus_psl.1.0.0.UPF

CELL_PARAMETERS {angstrom}
5.92728000 0.00000000 0.00000000
0.00000000 8.38244000 0.00000000
0.00000000 0.00000000 26.28680000

ATOMIC_POSITIONS {angstrom}
Ti 0.00000000 0.00000000 -3.143375540000001 0 0 0
Ti 0.00000000 2.09561000 -1.0477918499999994 0 0 0
Ti 0.00000000 4.19549504 1.06619261
Ti 0.00000000 2.09561000 3.17334250
Ti 0.00000000 4.19122000 -3.143375540000001 0 0 0
Ti 0.00000000 6.28683000 -1.0477918499999994 0 0 0
Ti 0.00000000 8.37816496 1.06619261
Ti 0.00000000 6.28683000 3.23064772
Ti 2.96364000 0.00000000 -3.143375540000001 0 0 0
Ti 2.96364000 2.09561000 -1.0477918499999994 0 0 0
Ti 2.96364000 4.19666859 1.06724408
Ti 2.96364000 2.09561000 3.19516054
Ti 2.96364000 4.19122000 -3.143375540000001 0 0 0
Ti 2.96364000 6.28683000 -1.0477918499999994 0 0 0
Ti 2.96364000 8.37699141 1.06724408
Ti 2.96364000 6.28683000 3.24037384
Fe 1.48182000 2.09561000 -3.143375540000001 0 0 0
Fe 1.48182000 0.00000000 -1.0477918499999994 0 0 0
Fe 1.48697673 2.09552618 1.06330106
Fe 1.48270909 8.35855005 3.06688096
Fe 1.48182000 6.28683000 -3.143375540000001 0 0 0
Fe 1.48182000 4.19122000 -1.0477918499999994 0 0 0
Fe 1.48294618 6.28691382 1.07959888
Fe 1.48270909 4.21510995 3.06714382
Fe 4.44546000 2.09561000 -3.143375540000001 0 0 0
Fe 4.44546000 0.00000000 -1.0477918499999994 0 0 0
Fe 4.44030327 2.09552618 1.06330106
Fe 4.44457091 8.35855005 3.06688096
Fe 4.44546000 6.28683000 -3.143375540000001 0 0 0
Fe 4.44546000 4.19122000 -1.0477918499999994 0 0 0
Fe 4.44433382 6.28691382 1.07959888
Fe 4.44457091 4.21510995 3.06714382
C 0.00000000 2.09561000 5.27838944
O 0.00000000 2.09561000 6.43369430
