&CONTROL
calculation = 'relax'
prefix = 'scf'
pseudo_dir = '/vol0004/mdt0/data/hp150275/u10028/POT_KKJUS'
outdir = './data'
tprnfor = .true.
nstep = 50
disk_io = 'non'
/
&SYSTEM
ibrav = 0
ecutwfc = 50.0
ecutrho = 400
occupations = 'smearing'
smearing = 'mp'
degauss = 0.01
assume_isolated = 'esm'
esm_bc = 'bc1'
input_dft = 'BEEF-VDW'
nosym = .true.
nspin = 1
ntyp = 3
nat = 33
/
&ELECTRONS
electron_maxstep = 200
mixing_beta = 0.1
conv_thr = 1e-06
/
&IONS
ion_dynamics = 'bfgs'
upscale = 1.0
/
&CELL
/

K_POINTS {automatic}
8 6 1 0 0 0

ATOMIC_SPECIES
C 12.01 C.pbe-n-rrkjus_psl.1.0.0.UPF
Hf 178.4 Hf.pbe-spn-rrkjus_psl.1.0.0.UPF
Ru 101.0 Ru.pbe-spn-rrkjus_psl.1.0.0.UPF

CELL_PARAMETERS {angstrom}
6.47981000 0.00000000 0.00000000
0.00000000 9.16384000 0.00000000
0.00000000 0.00000000 26.87290000

ATOMIC_POSITIONS {angstrom}
Hf 0.00000000 0.00000000 -3.436506450000003 0 0 0
Hf 0.00000000 2.29096000 -1.1455917299999996 0 0 0
Hf 0.00058318 0.00018328 1.19100693
Hf 6.32708088 2.29096000 3.46633537
Hf 0.00000000 4.58192000 -3.436506450000003 0 0 0
Hf 0.00000000 6.87288000 -1.1455917299999996 0 0 0
Hf 0.00058318 4.58173672 1.19100693
Hf 0.00758138 6.87288000 3.46579791
Hf 3.23990500 0.00000000 -3.436506450000003 0 0 0
Hf 3.23990500 2.29096000 -1.1455917299999996 0 0 0
Hf 3.23932182 0.00018328 1.19100693
Hf 3.39263412 2.29096000 3.46633537
Hf 3.23990500 4.58192000 -3.436506450000003 0 0 0
Hf 3.23990500 6.87288000 -1.1455917299999996 0 0 0
Hf 3.23932182 4.58173672 1.19100693
Hf 3.23232362 6.87288000 3.46579791
Ru 1.61995250 2.29096000 -3.436506450000003 0 0 0
Ru 1.61995250 0.00000000 -1.1455917299999996 0 0 0
Ru 1.61995250 2.29096000 1.09722051
Ru 1.61995250 0.08018360 3.33573308
Ru 1.61995250 6.87288000 -3.436506450000003 0 0 0
Ru 1.61995250 4.58192000 -1.1455917299999996 0 0 0
Ru 1.61995250 6.87288000 1.19960626
Ru 1.61995250 4.50173640 3.33573308
Ru 4.85985750 2.29096000 -3.436506450000003 0 0 0
Ru 4.85985750 0.00000000 -1.1455917299999996 0 0 0
Ru 4.85985750 2.29096000 1.06228574
Ru 4.85985750 9.06129663 3.28736186
Ru 4.85985750 6.87288000 -3.436506450000003 0 0 0
Ru 4.85985750 4.58192000 -1.1455917299999996 0 0 0
Ru 4.85985750 6.87288000 1.13376765
Ru 4.85985750 4.68446337 3.28736186
C 1.61995250 2.29096000 4.46358869
