&CONTROL
calculation = 'relax'
prefix = 'scf'
pseudo_dir = '/vol0403/data/hp230205/u10028/POT_HYBRID_KKJUS_GBRV'
outdir = './data'
tprnfor = .true.
nstep = 70
disk_io = 'non'
/
&SYSTEM
ibrav = 0
ecutwfc = 50.0
ecutrho = 400
occupations = 'smearing'
smearing = 'mp'
degauss = 0.01
assume_isolated = 'esm'
esm_bc = 'bc1'
input_dft = 'BEEF-VDW'
nosym = .true.
nspin = 1
ntyp = 5
nat = 17
/
&ELECTRONS
electron_maxstep = 200
mixing_beta = 0.1
conv_thr = 1e-06
/
&IONS
ion_dynamics = 'bfgs'
upscale = 1.0
/
&CELL
/

K_POINTS {automatic}
6 6 1 0 0 0

ATOMIC_SPECIES
C 12.01 C.pbe-n-rrkjus_psl.1.0.0.UPF
Ge 72.64 Ge.pbe-dn-rrkjus_psl.1.0.0.UPF
Pd 106.4 Pd.pbe-n-rrkjus_psl.1.0.0.UPF
Sn 118.7 Sn.pbe-dn-rrkjus_psl.1.0.0.UPF
Y 88.90 Y.pbe-spn-rrkjus_psl.1.0.0.UPF


CELL_PARAMETERS {angstrom}
5.93056000 0.00000000 0.00000000
-0.00000000 9.60308000 0.00000000
0.00000000 0.00000000 24.43880000

ATOMIC_POSITIONS {angstrom}
Y 2.81820211 0.11706155 2.29309260
Y 5.74101930 0.00000000 -0.7397624799999996 0 0 0
Y 2.81814281 4.68447845 2.29309260
Y 5.74101930 4.80154000 -0.7397624799999996 0 0 0
Sn 0.87280052 2.40077000 1.05551177
Sn 4.16354965 2.40077000 -2.2192874300000014 0 0 0
Sn 1.43199302 7.20231000 0.72558797
Sn 4.16354965 7.20231000 -2.2192874300000014 0 0 0
Ge 5.78176225 9.01834846 2.32070845
Ge 2.77573930 0.00000000 -0.7397624799999996 0 0 0
Ge 5.78170294 5.38627154 2.32070845
Ge 2.77573930 4.80154000 -0.7397624799999996 0 0 0
Pd 4.14949422 2.40077000 0.69015171
Pd 1.19826965 2.40077000 -2.2192874300000014 0 0 0
Pd 4.37017036 7.20231000 0.84191666
Pd 1.19826965 7.20231000 -2.2192874300000014 0 0 0
C 2.66169463 2.40077000 2.25912267
