&CONTROL
calculation = 'relax'
prefix = 'scf'
pseudo_dir = '/vol0004/mdt0/data/hp150275/u10028/POT_HYBRID_KKJUS_GBRV'
outdir = './data'
tprnfor = .true.
nstep = 50
disk_io = 'non'
/
&SYSTEM
ibrav = 0
ecutwfc = 50.0
ecutrho = 400
occupations = 'smearing'
smearing = 'mp'
degauss = 0.01
assume_isolated = 'esm'
esm_bc = 'bc1'
input_dft = 'BEEF-VDW'
nosym = .true.
nspin = 2
ntyp = 5
nat = 34
starting_magnetization(1) = 0.0
starting_magnetization(2) = 0.0
starting_magnetization(3) = 0.1
starting_magnetization(4) = 0.0
starting_magnetization(5) = 0.0
/
&ELECTRONS
electron_maxstep = 200
mixing_beta = 0.1
conv_thr = 1e-06
/
&IONS
ion_dynamics = 'bfgs'
upscale = 1.0
/
&CELL
/

K_POINTS {automatic}
9 6 2 0  0  0

ATOMIC_SPECIES
Al 26.98 Al.pbe-nl-rrkjus_psl.1.0.0.UPF
C 12.01 C.pbe-n-rrkjus_psl.1.0.0.UPF
Mn 54.93 mn_pbe_v1.5.uspp.F.UPF
O 15.99 O.pbe-n-rrkjus_psl.1.0.0.UPF
V 50.94 V.pbe-spnl-rrkjus_psl.1.0.0.UPF

CELL_PARAMETERS {angstrom}
5.82937000 0.00000000 0.00000000
0.00000000 8.24397000 0.00000000
0.00000000 0.00000000 26.18300000

ATOMIC_POSITIONS {angstrom}
Mn 1.45734250 0.00000000 25.15243712
Mn 4.37202750 4.12198500 25.15243712
Mn 4.37202750 0.00000000 25.15243712
Mn 1.45734250 4.12198500 25.15243712
Mn 4.37202750 6.18297750 23.09157319
Mn 1.45734250 2.06099250 23.09157319
Mn 1.45734250 6.18297750 23.09157319
Mn 4.37202750 2.06099250 23.09157319
Mn 1.41216488 4.11571958 3.24747749
Mn 4.41720512 0.00626542 3.24747749
Mn 4.41720512 4.11571958 3.24747749
Mn 1.41216488 0.00626542 3.24747749
Mn 4.34754415 2.06099250 1.01249661
Mn 1.46311358 6.18297750 1.04732000
Mn 1.48182585 2.06099250 1.01249661
Mn 4.36625642 6.18297750 1.04732000
Al 0.00000000 0.00000000 23.09157319
Al 2.91468500 2.06099250 25.15243712
Al 2.91468500 6.18297750 25.15243712
Al 0.00000000 4.12198500 23.09157319
Al 0.00000000 4.11052588 1.05124745
Al 2.91468500 6.18297750 3.18699476
Al 2.91468500 2.06099250 3.13410510
Al 0.00000000 0.01145912 1.05124745
V 0.00000000 6.18297750 25.15243712
V 2.91468500 0.00000000 23.09157319
V 0.00000000 2.06099250 25.15243712
V 2.91468500 4.12198500 23.09157319
V 0.00000000 2.06099250 2.97124684
V 2.91468500 4.12742602 1.08790365
V 0.00000000 6.18297750 2.96443926
V 2.91468500 8.23852898 1.08790365
C 0.00000000 2.06099250 4.96953340
O 0.00000000 2.06099250 6.13336775
