&CONTROL
calculation = 'relax'
prefix = 'scf'
pseudo_dir = '/vol0004/mdt0/data/hp150275/u10028/POT_KKJUS'
outdir = './data'
tprnfor = .true.
nstep = 50
disk_io = 'non'
/
&SYSTEM
ibrav = 0
ecutwfc = 50.0
ecutrho = 400
occupations = 'smearing'
smearing = 'mp'
degauss = 0.01
assume_isolated = 'esm'
esm_bc = 'bc1'
input_dft = 'BEEF-VDW'
nosym = .true.
nspin = 1
ntyp = 5
nat = 34
/
&ELECTRONS
electron_maxstep = 200
mixing_beta = 0.1
conv_thr = 1e-06
/
&IONS
ion_dynamics = 'bfgs'
upscale = 1.0
/
&CELL
/

K_POINTS {automatic}
8 6 1 0 0 0

ATOMIC_SPECIES
C 12.01 C.pbe-n-rrkjus_psl.1.0.0.UPF
In 114.8 In.pbe-dn-rrkjus_psl.1.0.0.UPF
Mg 24.30 Mg.pbe-spnl-rrkjus_psl.1.0.0.UPF
Ni 58.69 Ni.pbe-spn-rrkjus_psl.1.0.0.UPF
O 15.99 O.pbe-n-rrkjus_psl.1.0.0.UPF

CELL_PARAMETERS {angstrom}
6.24448000 0.00000000 0.00000000
0.00000000 8.83103000 0.00000000
0.00000000 0.00000000 26.62330000

ATOMIC_POSITIONS {angstrom}
Mg 0.00000000 0.00000000 -3.3116722900000006 0 0 0
Mg 3.12224000 2.20775750 -1.1038020199999998 0 0 0
Mg 3.12224000 6.62327250 -1.1038020199999998 0 0 0
Mg 0.00000000 4.41551500 -3.3116722900000006 0 0 0
Mg 0.00000000 4.40588918 1.01062047
Mg 3.12224000 6.62459715 3.40858110
Mg 3.12224000 2.20731595 3.44611995
Mg 0.00000000 0.00953751 1.01115293
In 0.00000000 6.62327250 -1.1038020199999998 0 0 0
In 3.12224000 0.00000000 -3.3116722900000006 0 0 0
In 0.00000000 2.20775750 -1.1038020199999998 0 0 0
In 3.12224000 4.41551500 -3.3116722900000006 0 0 0
In 6.24441756 2.20811074 3.50362628
In 3.12217756 4.42081362 1.10886044
In 0.00000000 6.62309588 3.55527548
In 3.12224000 8.82590800 1.10912668
Ni 1.56112000 0.00000000 -1.1038020199999998 0 0 0
Ni 4.68336000 4.41551500 -1.1038020199999998 0 0 0
Ni 4.68336000 0.00000000 -1.1038020199999998 0 0 0
Ni 1.56112000 4.41551500 -1.1038020199999998 0 0 0
Ni 4.68336000 6.62327250 -3.3116722900000006 0 0 0
Ni 1.56112000 2.20775750 -3.3116722900000006 0 0 0
Ni 1.56112000 6.62327250 -3.3116722900000006 0 0 0
Ni 4.68336000 2.20775750 -3.3116722900000006 0 0 0
Ni 1.41037825 4.42867323 3.11519233
Ni 4.83466375 8.81831332 3.11758843
Ni 4.83397686 4.42858492 3.11492610
Ni 1.41000358 8.81831332 3.11758843
Ni 4.68673202 2.20784581 1.16476937
Ni 1.53351940 6.62318419 1.15172396
Ni 1.55762309 2.20784581 1.16503561
Ni 4.71089816 6.62318419 1.15199019
C 3.12224000 2.20784581 5.72986663
O 3.12224000 2.20784581 6.87094126
