&CONTROL
calculation = 'relax'
prefix = 'scf'
pseudo_dir = '/vol0004/mdt0/data/hp150275/u10028/POT_KKJUS'
outdir = './data'
tprnfor = .true.
nstep = 50
disk_io = 'non'
/
&SYSTEM
ibrav = 0
ecutwfc = 50.0
ecutrho = 400
occupations = 'smearing'
smearing = 'mp'
degauss = 0.01
assume_isolated = 'esm'
esm_bc = 'bc1'
input_dft = 'BEEF-VDW'
nosym = .true.
nspin = 1
ntyp = 5
nat = 18
/
&ELECTRONS
electron_maxstep = 200
mixing_beta = 0.1
conv_thr = 1e-06
/
&IONS
ion_dynamics = 'bfgs'
upscale = 1.0
/
&CELL
/

K_POINTS {automatic}
9 9 2 0  0  0

ATOMIC_SPECIES
Au 196.9 Au.pbe-n-rrkjus_psl.1.0.0.UPF
C 12.01 C.pbe-n-rrkjus_psl.1.0.0.UPF
Li 6.941 Li.pbe-sl-rrkjus_psl.1.0.0.UPF
O 15.99 O.pbe-n-rrkjus_psl.1.0.0.UPF
Pb 207.2 Pb.pbe-dn-rrkjus_psl.1.0.0.UPF

CELL_PARAMETERS {angstrom}
6.82040000 0.00000000 0.00000000
0.00000000 6.82040000 0.00000000
0.00000000 0.00000000 25.11530000

ATOMIC_POSITIONS {angstrom}
Li 6.81917233 0.00136408 0.85216213
Li 3.41020000 0.00000000 -2.557742150000003 0 0 0
Li 0.00000000 3.41020000 -2.557742150000003 0 0 0
Li 3.41142767 3.40883592 0.85216213
Li 1.70510000 1.70510000 -0.8526644300000008 0 0 0
Li 1.70510000 5.11530000 2.87620416
Li 5.11530000 5.11530000 -0.8526644300000008 0 0 0
Li 5.11530000 1.70510000 2.89051988
Pb 0.00000000 0.00000000 -2.557742150000003 0 0 0
Pb 3.41020000 3.41020000 -2.557742150000003 0 0 0
Pb 3.40917694 6.81985437 0.96945058
Pb 0.00095486 3.41081384 0.96945058
Au 1.70503180 1.70510000 2.49746543
Au 1.70510000 5.11530000 -0.8526644300000008 0 0 0
Au 5.11530000 5.11536820 2.49771659
Au 5.11530000 1.70510000 -0.8526644300000008 0 0 0
C 5.11530000 1.70510000 4.99819585
O 5.11530000 1.70510000 6.13742586
