&CONTROL
calculation = 'relax'
prefix = 'scf'
pseudo_dir = '/vol0004/mdt0/data/hp150275/u10028/POT_HYBRID_KKJUS_GBRV'
outdir = './data'
tprnfor = .true.
nstep = 50
disk_io = 'non'
/
&SYSTEM
ibrav = 0
ecutwfc = 50.0
ecutrho = 400
occupations = 'smearing'
smearing = 'mp'
degauss = 0.01
assume_isolated = 'esm'
esm_bc = 'bc1'
input_dft = 'BEEF-VDW'
nosym = .true.
nspin = 2
ntyp = 3
nat = 32
starting_magnetization(1) = 0.1
starting_magnetization(2) = 0.1
starting_magnetization(3) = 0.0
/
&ELECTRONS
electron_maxstep = 300
mixing_beta = 0.1
conv_thr = 1e-06
/
&IONS
ion_dynamics = 'bfgs'
upscale = 1.0
/
&CELL
/

K_POINTS {automatic}
9 6 2 0  0  0

ATOMIC_SPECIES
Co 58.93 co_pbe_v1.2.uspp.F.UPF
Mn 54.93 mn_pbe_v1.5.uspp.F.UPF
Sn 118.7 Sn.pbe-dn-rrkjus_psl.1.0.0.UPF

CELL_PARAMETERS {angstrom}
6.01864000 0.00000000 0.00000000
0.00000000 8.51164000 0.00000000
0.00000000 0.00000000 26.38370000

ATOMIC_POSITIONS {angstrom}
Mn 0.00000000 0.00000000 -3.1919000299999993 0 0 0
Mn 3.00932000 2.12791000 -1.0640546200000003 0 0 0
Mn 3.00932000 6.38373000 -1.0640546200000003 0 0 0
Mn 0.00000000 4.25582000 -3.1919000299999993 0 0 0
Mn 0.00000000 4.25582000 1.07856566
Mn 3.00932000 6.38381512 3.11881718
Mn 3.00932000 2.12782488 3.11881718
Mn 0.00000000 0.00000000 1.07882949
Co 1.50466000 0.00000000 -1.0640546200000003 0 0 0
Co 4.51398000 4.25582000 -1.0640546200000003 0 0 0
Co 4.51398000 0.00000000 -1.0640546200000003 0 0 0
Co 1.50466000 4.25582000 -1.0640546200000003 0 0 0
Co 4.51398000 6.38373000 -3.1919000299999993 0 0 0
Co 1.50466000 2.12791000 -3.1919000299999993 0 0 0
Co 1.50466000 6.38373000 -3.1919000299999993 0 0 0
Co 4.51398000 2.12791000 -3.1919000299999993 0 0 0
Co 1.49190048 4.25582000 3.11723416
Co 4.52667933 0.00000000 3.11723416
Co 4.52673952 4.25582000 3.11723416
Co 1.49196067 0.00000000 3.11723416
Co 4.55213818 2.12791000 1.09571506
Co 1.46656201 6.38373000 1.09571506
Co 1.46650182 2.12791000 1.09571506
Co 4.55207799 6.38373000 1.09571506
Sn 0.00000000 6.38373000 -1.0640546200000003 0 0 0
Sn 3.00932000 0.00000000 -3.1919000299999993 0 0 0
Sn 0.00000000 2.12791000 -1.0640546200000003 0 0 0
Sn 3.00932000 4.25582000 -3.1919000299999993 0 0 0
Sn 0.00000000 2.12799512 3.39479068
Sn 3.00932000 4.25582000 1.03608790
Sn 0.00000000 6.38364488 3.39479068
Sn 3.00932000 0.00000000 1.03608790
