&CONTROL
calculation = 'relax'
prefix = 'scf'
pseudo_dir = '/vol0004/mdt0/data/hp150275/u10028/POT_HYBRID_KKJUS_GBRV'
outdir = './data'
tprnfor = .true.
nstep = 50
disk_io = 'non'
/
&SYSTEM
ibrav = 0
ecutwfc = 50.0
ecutrho = 400
occupations = 'smearing'
smearing = 'mp'
degauss = 0.01
assume_isolated = 'esm'
esm_bc = 'bc1'
input_dft = 'BEEF-VDW'
nosym = .true.
nspin = 2
ntyp = 4
nat = 34
starting_magnetization(1) = 0.1
starting_magnetization(2) = 0.1
starting_magnetization(3) = 0.1
starting_magnetization(4) = 0.1
/
&ELECTRONS
electron_maxstep = 200
mixing_beta = 0.1
conv_thr = 1e-06
/
&IONS
ion_dynamics = 'bfgs'
upscale = 1.0
/
&CELL
/

K_POINTS {automatic}
9 6 2 0  0  0

ATOMIC_SPECIES
C 12.01 C.pbe-n-rrkjus_psl.1.0.0.UPF
In 114.8 In.pbe-dn-rrkjus_psl.1.0.0.UPF
Ni 58.69 ni_pbe_v1.4.uspp.F.UPF
O 15.99 O.pbe-n-rrkjus_psl.1.0.0.UPF

CELL_PARAMETERS {angstrom}
6.35210000 0.00000000 0.00000000
0.00000000 8.98322000 0.00000000
0.00000000 0.00000000 26.73740000

ATOMIC_POSITIONS {angstrom}
In 0.00000000 0.00000000 -3.3686450299999997 0 0 0
In 0.00000000 2.24580500 -1.122970800000001 0 0 0
In 0.00000000 8.97684191 1.06762438
In 0.00000000 2.24589483 3.35500895
In 0.00000000 4.49161000 -3.3686450299999997 0 0 0
In 0.00000000 6.73741500 -1.122970800000001 0 0 0
In 0.00000000 4.49807792 1.06762438
In 0.00000000 6.73741500 3.69296969
In 3.17605000 0.00000000 -3.3686450299999997 0 0 0
In 3.17605000 2.24580500 -1.122970800000001 0 0 0
In 3.17605000 8.98286067 1.02965727
In 3.17605000 2.24589483 3.62265033
In 3.17605000 4.49161000 -3.3686450299999997 0 0 0
In 3.17605000 6.73741500 -1.122970800000001 0 0 0
In 3.17605000 4.49178966 1.02992465
In 3.17605000 6.73732517 3.62291770
Ni 1.58802500 2.24580500 -3.3686450299999997 0 0 0
Ni 1.58802500 0.00000000 -1.122970800000001 0 0 0
Ni 1.61095608 2.24571517 1.11521695
Ni 1.60835172 8.95896531 3.16062805
Ni 1.58802500 6.73741500 -3.3686450299999997 0 0 0
Ni 1.58802500 4.49161000 -1.122970800000001 0 0 0
Ni 1.63261674 6.73741500 1.15799679
Ni 1.60835172 4.51595453 3.16062805
Ni 4.76407500 2.24580500 -3.3686450299999997 0 0 0
Ni 4.76407500 0.00000000 -1.122970800000001 0 0 0
Ni 4.74114392 2.24571517 1.11521695
Ni 4.74374828 8.95896531 3.16062805
Ni 4.76407500 6.73741500 -3.3686450299999997 0 0 0
Ni 4.76407500 4.49161000 -1.122970800000001 0 0 0
Ni 4.71948326 6.73741500 1.15799679
Ni 4.74368476 4.51595453 3.16062805
C 0.00000000 2.24589483 6.05869484
O 0.00000000 2.24571517 7.19530171
