&CONTROL
calculation = 'relax'
prefix = 'scf'
pseudo_dir = '/vol0004/mdt0/data/hp150275/u10028/POT_KKJUS'
outdir = './data'
tprnfor = .true.
nstep = 50
disk_io = 'non'
/
&SYSTEM
ibrav = 0
ecutwfc = 50.0
ecutrho = 400
occupations = 'smearing'
smearing = 'mp'
degauss = 0.01
assume_isolated = 'esm'
esm_bc = 'bc1'
input_dft = 'BEEF-VDW'
nosym = .true.
nspin = 1
ntyp = 5
nat = 18
/
&ELECTRONS
electron_maxstep = 200
mixing_beta = 0.1
conv_thr = 1e-06
/
&IONS
ion_dynamics = 'bfgs'
upscale = 1.0
/
&CELL
/

K_POINTS {automatic}
8 8 1 0 0 0

ATOMIC_SPECIES
C 12.01 C.pbe-n-rrkjus_psl.1.0.0.UPF
In 114.8 In.pbe-dn-rrkjus_psl.1.0.0.UPF
Li 6.941 Li.pbe-sl-rrkjus_psl.1.0.0.UPF
O 15.99 O.pbe-n-rrkjus_psl.1.0.0.UPF
Rh 102.9 Rh.pbe-spn-rrkjus_psl.1.0.0.UPF

CELL_PARAMETERS {angstrom}
6.34973000 0.00000000 0.00000000
0.00000000 6.34973000 0.00000000
0.00000000 0.00000000 24.76230000

ATOMIC_POSITIONS {angstrom}
Li 0.00761968 0.00749268 0.68467760
Li 3.17486500 0.00000000 -2.3811427700000003 0 0 0
Li 0.00000000 3.17486500 -2.3811427700000003 0 0 0
Li 3.16762631 3.16756281 0.68517284
Li 1.58692452 1.58787698 2.60276535
Li 1.58743250 4.76229750 -0.7936317200000005 0 0 0
Li 4.76299597 4.76140854 2.45196295
Li 4.76229750 1.58743250 -0.7936317200000005 0 0 0
In 1.58743250 1.58743250 -0.7936317200000005 0 0 0
In 1.58781348 4.76344045 2.41308613
In 4.76229750 4.76229750 -0.7936317200000005 0 0 0
In 4.76102755 1.58508310 2.41333376
Rh 0.00000000 0.00000000 -2.3811427700000003 0 0 0
Rh 3.17486500 3.17486500 -2.3811427700000003 0 0 0
Rh 3.17372205 6.34941251 0.88376649
Rh 6.34953951 3.17384904 0.88698559
C 1.58762299 1.58781348 4.70657036
O 1.58762299 1.58768649 5.84959813
