&CONTROL
calculation = 'relax'
prefix = 'scf'
pseudo_dir = '/vol0004/mdt0/data/hp150275/u10028/POT_HYBRID_KKJUS_GBRV'
outdir = './data'
tprnfor = .true.
nstep = 50
disk_io = 'non'
/
&SYSTEM
ibrav = 0
ecutwfc = 50.0
ecutrho = 400
occupations = 'smearing'
smearing = 'mp'
degauss = 0.01
assume_isolated = 'esm'
esm_bc = 'bc1'
input_dft = 'BEEF-VDW'
nosym = .true.
nspin = 2
ntyp = 3
nat = 33
starting_magnetization(1) = 0.1
starting_magnetization(2) = 0.1
starting_magnetization(3) = 0.1
/
&ELECTRONS
electron_maxstep = 200
mixing_beta = 0.1
conv_thr = 1e-06
/
&IONS
ion_dynamics = 'bfgs'
upscale = 1.0
/
&CELL
/

K_POINTS {automatic}
9 6 1 0  0  0

ATOMIC_SPECIES
Be 9.012 Be.pbe-n-rrkjus_psl.1.0.0.UPF
C 12.01 C.pbe-n-rrkjus_psl.1.0.0.UPF
Co 58.93 co_pbe_v1.2.uspp.F.UPF

CELL_PARAMETERS {angstrom}
5.19112000 0.00000000 0.00000000
0.00000000 7.34136000 0.00000000
0.00000000 0.00000000 25.50600000

ATOMIC_POSITIONS {angstrom}
Be 0.00000000 0.00000000 -2.7531176399999993 0 0 0
Be 0.00000000 1.83534000 -0.9177058799999998 0 0 0
Be 0.04370923 3.65122540 0.88837398
Be 4.95378199 1.83534000 2.70159552
Be 0.00000000 3.67068000 -2.7531176399999993 0 0 0
Be 0.00000000 5.50602000 -0.9177058799999998 0 0 0
Be 0.04370923 0.01952802 0.88837398
Be 0.18132582 5.50602000 2.81917818
Be 2.59556000 0.00000000 -2.7531176399999993 0 0 0
Be 2.59556000 1.83534000 -0.9177058799999998 0 0 0
Be 2.55185077 3.65122540 0.88837398
Be 2.83289801 1.83534000 2.70159552
Be 2.59556000 3.67068000 -2.7531176399999993 0 0 0
Be 2.59556000 5.50602000 -0.9177058799999998 0 0 0
Be 2.55185077 0.01952802 0.88837398
Be 2.41423418 5.50602000 2.81917818
Co 1.29778000 1.83534000 -2.7531176399999993 0 0 0
Co 1.29778000 0.00000000 -0.9177058799999998 0 0 0
Co 1.29778000 1.83534000 0.92688804
Co 1.29778000 0.14594624 2.81356686
Co 1.29778000 5.50602000 -2.7531176399999993 0 0 0
Co 1.29778000 3.67068000 -0.9177058799999998 0 0 0
Co 1.29778000 5.50602000 0.94907826
Co 1.29778000 3.52466035 2.81356686
Co 3.89334000 1.83534000 -2.7531176399999993 0 0 0
Co 3.89334000 0.00000000 -0.9177058799999998 0 0 0
Co 3.89334000 1.83541341 0.87638616
Co 3.89334000 7.14527227 2.67889518
Co 3.89334000 5.50602000 -2.7531176399999993 0 0 0
Co 3.89334000 3.67068000 -0.9177058799999998 0 0 0
Co 3.89334000 5.50594659 0.99192834
Co 3.89334000 3.86662090 2.67889518
C 1.29778000 1.83534000 3.41652870
