&CONTROL
calculation = 'relax'
prefix = 'scf'
pseudo_dir = '/vol0403/data/hp230205/u10028/POT_HYBRID_KKJUS_GBRV'
outdir = './data'
tprnfor = .true.
nstep = 50
disk_io = 'non'
/
&SYSTEM
ibrav = 0
ecutwfc = 50.0
ecutrho = 400
occupations = 'smearing'
smearing = 'mp'
degauss = 0.01
assume_isolated = 'esm'
esm_bc = 'bc1'
input_dft = 'BEEF-VDW'
nosym = .true.
nspin = 1
ntyp = 6
nat = 18
/
&ELECTRONS
electron_maxstep = 200
mixing_beta = 0.1
conv_thr = 1e-06
/
&IONS
ion_dynamics = 'bfgs'
upscale = 1.0
/
&CELL
/

K_POINTS {automatic}
9 9 2 0  0  0

ATOMIC_SPECIES
C 12.01 C.pbe-n-rrkjus_psl.1.0.0.UPF
Cu 63.54 Cu.pbe-dn-rrkjus_psl.1.0.0.UPF
Ge 72.64 Ge.pbe-dn-rrkjus_psl.1.0.0.UPF
Li 6.941 Li.pbe-sl-rrkjus_psl.1.0.0.UPF
O 15.99 O.pbe-n-rrkjus_psl.1.0.0.UPF
Sn 118.7 Sn.pbe-dn-rrkjus_psl.1.0.0.UPF


CELL_PARAMETERS {angstrom}
6.57410000 0.00000000 0.00000000
0.00000000 6.57410000 0.00000000
0.00000000 0.00000000 24.93060000

ATOMIC_POSITIONS {angstrom}
Li 0.00000000 3.28705000 -2.4653870299999987 0 0 0
Li 6.54859249 6.38647519 0.92891416
Li 3.57223446 3.36810865 0.97877536
Li 3.28705000 0.00000000 -2.4653870299999987 0 0 0
Cu 0.00000000 0.00000000 -2.4653870299999987 0 0 0
Cu 6.49481635 3.36173178 0.56517670
Cu 3.96365637 5.99308104 1.40758168
Cu 3.28705000 3.28705000 -2.4653870299999987 0 0 0
Sn 4.93057500 1.64352500 -0.8217125799999998 0 0 0
Sn 5.59593966 4.36855519 3.06721172
Sn 1.50599483 1.86678144 2.45616271
Sn 1.64352500 4.93057500 -0.8217125799999998 0 0 0
Ge 1.64352500 1.64352500 -0.8217125799999998 0 0 0
Ge 1.72708181 4.80001337 2.18591501
Ge 5.15830182 1.61933231 2.26619154
Ge 4.93057500 4.93057500 -0.8217125799999998 0 0 0
C 2.01890611 1.33822380 6.39220584
O 1.50007814 1.87802315 7.24757473
