&CONTROL
calculation = 'relax'
prefix = 'scf'
pseudo_dir = '/vol0004/mdt0/data/hp150275/u10028/POT_KKJUS'
outdir = './data'
tprnfor = .true.
nstep = 50
disk_io = 'non'
/
&SYSTEM
ibrav = 0
ecutwfc = 50.0
ecutrho = 400
occupations = 'smearing'
smearing = 'mp'
degauss = 0.01
assume_isolated = 'esm'
esm_bc = 'bc1'
input_dft = 'BEEF-VDW'
nosym = .true.
nspin = 1
ntyp = 4
nat = 33
/
&ELECTRONS
electron_maxstep = 200
mixing_beta = 0.1
conv_thr = 1e-06
/
&IONS
ion_dynamics = 'bfgs'
upscale = 1.0
/
&CELL
/

K_POINTS {automatic}
9 6 2 0  0  0

ATOMIC_SPECIES
C 12.01 C.pbe-n-rrkjus_psl.1.0.0.UPF
Ga 69.72 Ga.pbe-dnl-rrkjus_psl.1.0.0.UPF
Li 6.941 Li.pbe-sl-rrkjus_psl.1.0.0.UPF
Mg 24.30 Mg.pbe-spnl-rrkjus_psl.1.0.0.UPF

CELL_PARAMETERS {angstrom}
6.69031000 0.00000000 0.00000000
0.00000000 9.46152000 0.00000000
0.00000000 0.00000000 27.09610000

ATOMIC_POSITIONS {angstrom}
Li 0.00000000 0.00000000 -3.547963329999998 0 0 0
Li 3.34515500 2.36538000 -1.1827447599999985 0 0 0
Li 3.34515500 7.09614000 -1.1827447599999985 0 0 0
Li 0.00000000 4.73076000 -3.547963329999998 0 0 0
Li 0.00689102 4.74845304 1.25915577
Li 3.02274896 7.09614000 3.76419021
Li 3.59958749 2.36538000 4.07281479
Li 0.00689102 9.44382696 1.25915577
Mg 1.67257750 0.00000000 -1.1827447599999985 0 0 0
Mg 5.01773250 4.73076000 -1.1827447599999985 0 0 0
Mg 5.01773250 0.00000000 -1.1827447599999985 0 0 0
Mg 1.67257750 4.73076000 -1.1827447599999985 0 0 0
Mg 5.01773250 7.09614000 -3.547963329999998 0 0 0
Mg 1.67257750 2.36538000 -3.547963329999998 0 0 0
Mg 1.67257750 7.09614000 -3.547963329999998 0 0 0
Mg 5.01773250 2.36538000 -3.547963329999998 0 0 0
Mg 1.72650140 4.53679884 3.76337733
Mg 4.99759467 9.21750740 3.67504404
Mg 4.99759467 4.97486722 3.67504404
Mg 1.72643450 0.19396116 3.76337733
Mg 4.96106557 2.36538000 1.19222840
Mg 1.69110966 7.09614000 1.15104233
Mg 1.78183026 2.36538000 1.44666078
Mg 5.03138073 7.09614000 1.24967213
Ga 0.00000000 7.09614000 -1.1827447599999985 0 0 0
Ga 3.34515500 0.00000000 -3.547963329999998 0 0 0
Ga 0.00000000 2.36538000 -1.1827447599999985 0 0 0
Ga 3.34515500 4.73076000 -3.547963329999998 0 0 0
Ga 6.33030442 2.36538000 3.68832113
Ga 3.35793349 4.79386834 1.20686029
Ga 0.16498304 7.09614000 3.54796333
Ga 3.35786659 9.39841166 1.20686029
C 1.59998764 2.36538000 3.70024342
