&CONTROL
calculation = 'relax'
prefix = 'scf'
pseudo_dir = '/vol0004/mdt0/data/hp150275/u10028/POT_KKJUS'
outdir = './data'
tprnfor = .true.
nstep = 50
disk_io = 'non'
/
&SYSTEM
ibrav = 0
ecutwfc = 50.0
ecutrho = 400
occupations = 'smearing'
smearing = 'mp'
degauss = 0.01
assume_isolated = 'esm'
esm_bc = 'bc1'
input_dft = 'BEEF-VDW'
nosym = .true.
nspin = 1
ntyp = 4
nat = 34
/
&ELECTRONS
electron_maxstep = 200
mixing_beta = 0.1
conv_thr = 1e-06
/
&IONS
ion_dynamics = 'bfgs'
upscale = 1.0
/
&CELL
/

K_POINTS {automatic}
8 6 1 0 0 0

ATOMIC_SPECIES
C 12.01 C.pbe-n-rrkjus_psl.1.0.0.UPF
O 15.99 O.pbe-n-rrkjus_psl.1.0.0.UPF
Ru 101.0 Ru.pbe-spn-rrkjus_psl.1.0.0.UPF
Ta 180.9 Ta.pbe-spn-rrkjus_psl.1.0.0.UPF

CELL_PARAMETERS {angstrom}
6.35210000 0.00000000 0.00000000
0.00000000 8.98322000 0.00000000
0.00000000 0.00000000 26.73740000

ATOMIC_POSITIONS {angstrom}
Ta 1.58802500 2.24580500 -3.3686450299999997 0 0 0
Ta 1.58802500 0.00000000 -1.122970800000001 0 0 0
Ta 1.58802500 2.23331832 1.17190024
Ta 1.58802500 8.98313017 3.49992566
Ta 1.58802500 6.73741500 -3.3686450299999997 0 0 0
Ta 1.58802500 4.49161000 -1.122970800000001 0 0 0
Ta 1.58802500 6.74990168 1.17190024
Ta 1.58802500 4.49161000 3.41543548
Ta 4.76407500 2.24580500 -3.3686450299999997 0 0 0
Ta 4.76407500 0.00000000 -1.122970800000001 0 0 0
Ta 4.76407500 2.25092544 1.17056337
Ta 4.76407500 8.98313017 3.37238826
Ta 4.76407500 6.73741500 -3.3686450299999997 0 0 0
Ta 4.76407500 4.49161000 -1.122970800000001 0 0 0
Ta 4.76407500 6.73229456 1.17056337
Ta 4.76407500 4.49169983 3.41623760
Ru 0.00000000 0.00000000 -3.3686450299999997 0 0 0
Ru 0.00000000 2.24580500 -1.122970800000001 0 0 0
Ru 6.34187312 8.98313017 1.12537717
Ru 0.00412887 2.26898171 3.20848800
Ru 0.00000000 4.49161000 -3.3686450299999997 0 0 0
Ru 0.00000000 6.73741500 -1.122970800000001 0 0 0
Ru 0.00552633 4.49169983 1.14730183
Ru 0.00412887 6.71432812 3.20848800
Ru 3.17605000 0.00000000 -3.3686450299999997 0 0 0
Ru 3.17605000 2.24580500 -1.122970800000001 0 0 0
Ru 3.18627688 8.98313017 1.12537717
Ru 3.17192114 2.26889188 3.20848800
Ru 3.17605000 4.49161000 -3.3686450299999997 0 0 0
Ru 3.17605000 6.73741500 -1.122970800000001 0 0 0
Ru 3.17052367 4.49169983 1.14730183
Ru 3.17192114 6.71423829 3.20848800
C 1.58802500 0.00000000 5.62742058
O 1.58802500 0.00000000 6.78274363
