&CONTROL
calculation = 'relax'
prefix = 'scf'
pseudo_dir = '/vol0403/data/hp230205/u10028/POT_HYBRID_KKJUS_GBRV'
outdir = './data'
tprnfor = .true.
nstep = 50
disk_io = 'non'
/
&SYSTEM
ibrav = 0
ecutwfc = 50.0
ecutrho = 400
occupations = 'smearing'
smearing = 'mp'
degauss = 0.01
assume_isolated = 'esm'
esm_bc = 'bc1'
input_dft = 'BEEF-VDW'
nosym = .true.
nspin = 2
ntyp = 6
nat = 18
starting_magnetization(1) = 0.0
starting_magnetization(2) = 0.0
starting_magnetization(3) = 0.1
starting_magnetization(4) = 0.0
starting_magnetization(5) = 0.0
starting_magnetization(6) = 0.0
/
&ELECTRONS
electron_maxstep = 400
mixing_beta = 0.05
conv_thr = 1e-06
/
&IONS
ion_dynamics = 'bfgs'
upscale = 1.0
/
&CELL
/

K_POINTS {automatic}
12 7 2 0  0  0

ATOMIC_SPECIES
Al 26.98 Al.pbe-nl-rrkjus_psl.1.0.0.UPF
C 12.01 C.pbe-n-rrkjus_psl.1.0.0.UPF
Fe 55.84 fe_pbe_v1.5.uspp.F.UPF
Li 6.941 Li.pbe-sl-rrkjus_psl.1.0.0.UPF
O 15.99 O.pbe-n-rrkjus_psl.1.0.0.UPF
Pd 106.4 Pd.pbe-n-rrkjus_psl.1.0.0.UPF


CELL_PARAMETERS {angstrom}
5.25393000 0.00000000 0.00000000
0.00000000 8.60712000 0.00000000
0.00000000 0.00000000 23.58290000

ATOMIC_POSITIONS {angstrom}
Li 3.39372354 2.15178000 22.98578097
Li 4.91284486 2.15178000 2.14557224
Li 3.39372354 6.45534000 22.98578097
Li 4.77850187 6.45534000 1.99369837
Al 0.00000000 0.00000000 21.79154292
Al 1.53220361 0.04837201 0.52448370
Al 0.00000000 4.30356000 21.79154292
Al 1.53215107 4.25518799 0.52448370
Fe 0.76675854 2.15178000 22.98578097
Fe 2.20113397 2.15178000 1.32866059
Fe 0.76675854 6.45534000 22.98578097
Fe 1.93192260 6.45534000 1.20768031
Pd 2.62696500 0.00000000 21.79154292
Pd 4.20219829 0.01600924 0.61763615
Pd 2.62696500 4.30356000 21.79154292
Pd 4.20219829 4.28755076 0.61763615
C 2.32523180 2.15178000 3.07662513
O 2.31498664 2.15178000 4.25671345
