&CONTROL
calculation = 'relax'
prefix = 'scf'
pseudo_dir = '/vol0004/mdt0/data/hp150275/u10028/POT_KKJUS'
outdir = './data'
tprnfor = .true.
nstep = 50
disk_io = 'non'
/
&SYSTEM
ibrav = 0
ecutwfc = 50.0
ecutrho = 400
occupations = 'smearing'
smearing = 'mp'
degauss = 0.01
assume_isolated = 'esm'
esm_bc = 'bc1'
input_dft = 'BEEF-VDW'
nosym = .true.
nspin = 1
ntyp = 4
nat = 34
/
&ELECTRONS
electron_maxstep = 200
mixing_beta = 0.1
conv_thr = 1e-06
/
&IONS
ion_dynamics = 'bfgs'
upscale = 1.0
/
&CELL
/

K_POINTS {automatic}
9 6 2 0  0  0

ATOMIC_SPECIES
C 12.01 C.pbe-n-rrkjus_psl.1.0.0.UPF
O 15.99 O.pbe-n-rrkjus_psl.1.0.0.UPF
Rh 102.9 Rh.pbe-spn-rrkjus_psl.1.0.0.UPF
Sc 44.95 Sc.pbe-spn-rrkjus_psl.1.0.0.UPF

CELL_PARAMETERS {angstrom}
6.47981000 0.00000000 0.00000000
0.00000000 9.16384000 0.00000000
0.00000000 0.00000000 26.87290000

ATOMIC_POSITIONS {angstrom}
Sc 1.61995250 2.29096000 -3.436506450000003 0 0 0
Sc 1.61995250 0.00000000 -1.1455917299999996 0 0 0
Sc 1.64489977 2.29123492 1.15257868
Sc 1.63103298 9.13763142 3.50610726
Sc 1.61995250 6.87288000 -3.436506450000003 0 0 0
Sc 1.61995250 4.58192000 -1.1455917299999996 0 0 0
Sc 1.61541663 6.87269672 1.17757048
Sc 1.63096818 4.60812858 3.50583853
Sc 4.85985750 2.29096000 -3.436506450000003 0 0 0
Sc 4.85985750 0.00000000 -1.1455917299999996 0 0 0
Sc 4.83497503 2.29077672 1.15257868
Sc 4.84864743 9.13763142 3.50556981
Sc 4.85985750 6.87288000 -3.436506450000003 0 0 0
Sc 4.85985750 4.58192000 -1.1455917299999996 0 0 0
Sc 4.86432857 6.87315492 1.17757048
Sc 4.84890662 4.60803694 3.50583853
Rh 0.00000000 0.00000000 -3.436506450000003 0 0 0
Rh 0.00000000 2.29096000 -1.1455917299999996 0 0 0
Rh 0.00006480 0.04902654 1.21384889
Rh 0.00006480 2.29114328 3.48407148
Rh 0.00000000 4.58192000 -3.436506450000003 0 0 0
Rh 0.00000000 6.87288000 -1.1455917299999996 0 0 0
Rh 0.00019439 4.53335165 1.21384889
Rh 0.00000000 6.87260508 3.30348560
Rh 3.23990500 0.00000000 -3.436506450000003 0 0 0
Rh 3.23990500 2.29096000 -1.1455917299999996 0 0 0
Rh 3.23958101 9.15632565 1.19369422
Rh 3.23984020 2.29141819 3.28037490
Rh 3.23990500 4.58192000 -3.436506450000003 0 0 0
Rh 3.23990500 6.87288000 -1.1455917299999996 0 0 0
Rh 3.24016419 4.59007582 1.19342549
Rh 3.23984020 6.87242181 3.31315984
C 0.00000000 2.29096000 5.35281295
O 0.00000000 2.29086836 6.52070919
