&CONTROL
calculation = 'relax'
prefix = 'scf'
pseudo_dir = '/vol0004/mdt0/data/hp150275/u10028/POT_KKJUS'
outdir = './data'
tprnfor = .true.
nstep = 50
disk_io = 'non'
/
&SYSTEM
ibrav = 0
ecutwfc = 50.0
ecutrho = 400
occupations = 'smearing'
smearing = 'mp'
degauss = 0.01
assume_isolated = 'esm'
esm_bc = 'bc1'
input_dft = 'BEEF-VDW'
nosym = .true.
nspin = 1
ntyp = 2
nat = 16
/
&ELECTRONS
electron_maxstep = 200
mixing_beta = 0.1
conv_thr = 1e-06
/
&IONS
ion_dynamics = 'bfgs'
upscale = 1.0
/
&CELL
/

K_POINTS {automatic}
8 11 3 0  0  0

ATOMIC_SPECIES
In 114.8 In.pbe-dn-rrkjus_psl.1.0.0.UPF
Mg 24.30 Mg.pbe-spnl-rrkjus_psl.1.0.0.UPF

CELL_PARAMETERS {angstrom}
9.42262000 0.00000000 0.00000000
0.00000000 6.66280000 0.00000000
0.00000000 0.00000000 24.99710000

ATOMIC_POSITIONS {angstrom}
Mg 0.00179030 6.66233360 2.31823105
Mg 0.00000000 3.33140000 -0.8329033700000004 0 0 0
Mg 4.70914280 0.00306489 2.31423152
Mg 4.71131000 3.33140000 -0.8329033700000004 0 0 0
In 0.00273256 3.33113349 2.76842882
In 2.35810488 4.94366434 0.96463809
In 2.35782220 1.71873589 0.96438812
In 0.00000000 0.00000000 -0.8329033700000004 0 0 0
In 2.35565500 1.66570000 -2.498460139999999 0 0 0
In 2.35565500 4.99710000 -2.498460139999999 0 0 0
In 4.70876589 3.33166651 2.76967868
In 7.06479780 4.94313132 0.96688783
In 7.06508048 1.71933554 0.96663786
In 4.71131000 0.00000000 -0.8329033700000004 0 0 0
In 7.06696500 1.66570000 -2.498460139999999 0 0 0
In 7.06696500 4.99710000 -2.498460139999999 0 0 0
