&CONTROL
calculation = 'relax'
prefix = 'scf'
pseudo_dir = '/vol0403/data/hp230205/u10028/POT_HYBRID_KKJUS_GBRV'
outdir = './data'
tprnfor = .true.
nstep = 50
disk_io = 'non'
/
&SYSTEM
ibrav = 0
ecutwfc = 50.0
ecutrho = 400
occupations = 'smearing'
smearing = 'mp'
degauss = 0.01
assume_isolated = 'esm'
esm_bc = 'bc1'
input_dft = 'BEEF-VDW'
nosym = .true.
nspin = 2
ntyp = 6
nat = 34
starting_magnetization(1) = 0.0
starting_magnetization(2) = 0.0
starting_magnetization(3) = 0.1
starting_magnetization(4) = 0.0
starting_magnetization(5) = 0.0
starting_magnetization(6) = 0.0
/
&ELECTRONS
electron_maxstep = 400
mixing_beta = 0.05
conv_thr = 1e-06
/
&IONS
ion_dynamics = 'bfgs'
upscale = 1.0
/
&CELL
/

K_POINTS {automatic}
6 6 1 0 0 0

ATOMIC_SPECIES
Al 26.98 Al.pbe-nl-rrkjus_psl.1.0.0.UPF
C 12.01 C.pbe-n-rrkjus_psl.1.0.0.UPF
Fe 55.84 fe_pbe_v1.5.uspp.F.UPF
Li 6.941 Li.pbe-sl-rrkjus_psl.1.0.0.UPF
O 15.99 O.pbe-n-rrkjus_psl.1.0.0.UPF
Pd 106.4 Pd.pbe-n-rrkjus_psl.1.0.0.UPF


CELL_PARAMETERS {angstrom}
8.60712000 0.00000000 0.00000000
0.00000000 8.84236000 0.00000000
0.00000000 0.00000000 24.25770000

ATOMIC_POSITIONS {angstrom}
Li 2.15178000 2.21059000 -2.1288557499999996 0 0 0
Li 2.15178000 2.12950556 0.68794837
Li 2.15178000 6.63177000 -2.1288557499999996 0 0 0
Li 2.15178000 6.71285444 0.68794837
Li 6.45534000 2.21059000 -2.1288557499999996 0 0 0
Li 6.45534000 2.23048531 0.65447275
Li 6.45534000 6.63177000 -2.1288557499999996 0 0 0
Li 6.45534000 6.61187469 0.65447275
Al 0.00000000 0.00000000 -2.1288557499999996 0 0 0
Al 0.12394253 0.00000000 0.72651811
Al 0.00000000 4.42118000 -2.1288557499999996 0 0 0
Al 8.60023430 4.42118000 0.68091364
Al 4.30356000 0.00000000 -2.1288557499999996 0 0 0
Al 4.17961747 0.00000000 0.72651811
Al 4.30356000 4.42118000 -2.1288557499999996 0 0 0
Al 4.31044570 4.42118000 0.68091364
Fe 2.15178000 0.00000000 -0.709537730000001 0 0 0
Fe 2.15178000 0.00000000 2.01799806
Fe 2.15178000 4.42118000 -0.709537730000001 0 0 0
Fe 2.15178000 4.42118000 1.54473034
Fe 6.45534000 0.00000000 -0.709537730000001 0 0 0
Fe 6.45534000 0.00000000 1.49039309
Fe 6.45534000 4.42118000 -0.709537730000001 0 0 0
Fe 6.45534000 4.42118000 1.57553761
Pd 0.00000000 2.21059000 -0.709537730000001 0 0 0
Pd 0.00585284 2.20448877 2.10338517
Pd 0.00000000 6.63177000 -0.709537730000001 0 0 0
Pd 0.00585284 6.63787123 2.10338517
Pd 4.30356000 2.21059000 -0.709537730000001 0 0 0
Pd 4.29770716 2.20448877 2.10338517
Pd 4.30356000 6.63177000 -0.709537730000001 0 0 0
Pd 4.29770716 6.63787123 2.10338517
C 2.15178000 0.00000000 3.78856759
O 2.15178000 0.00000000 4.95415007
