&CONTROL
calculation = 'relax'
prefix = 'scf'
pseudo_dir = '/vol0403/data/hp230205/u10028/POT_HYBRID_KKJUS_GBRV'
outdir = './data'
tprnfor = .true.
nstep = 50
disk_io = 'non'
/
&SYSTEM
ibrav = 0
ecutwfc = 50.0
ecutrho = 400
occupations = 'smearing'
smearing = 'mp'
degauss = 0.01
assume_isolated = 'esm'
esm_bc = 'bc1'
input_dft = 'BEEF-VDW'
nosym = .true.
nspin = 1
ntyp = 6
nat = 18
/
&ELECTRONS
electron_maxstep = 200
mixing_beta = 0.1
conv_thr = 1e-06
/
&IONS
ion_dynamics = 'bfgs'
upscale = 1.0
/
&CELL
/

K_POINTS {automatic}
6 6 1 0 0 0

ATOMIC_SPECIES
C 12.01 C.pbe-n-rrkjus_psl.1.0.0.UPF
Ge 72.64 Ge.pbe-dn-rrkjus_psl.1.0.0.UPF
Li 6.941 Li.pbe-sl-rrkjus_psl.1.0.0.UPF
O 15.99 O.pbe-n-rrkjus_psl.1.0.0.UPF
Pb 207.2 Pb.pbe-dn-rrkjus_psl.1.0.0.UPF
Y 88.90 Y.pbe-spn-rrkjus_psl.1.0.0.UPF


CELL_PARAMETERS {angstrom}
6.08443000 0.00000000 0.00000000
0.00000000 9.86128000 0.00000000
0.00000000 0.00000000 24.56300000

ATOMIC_POSITIONS {angstrom}
Li 1.50328012 2.46532000 -0.7604704799999986 0 0 0
Li 4.44930028 2.46532000 2.36296060
Li 1.50328012 7.39596000 -0.7604704799999986 0 0 0
Li 4.50643308 7.39596000 2.35092473
Y 3.04221500 0.00000000 -2.2814114399999994 0 0 0
Y 0.02056537 9.85822300 0.67474561
Y 3.04221500 4.93064000 -2.2814114399999994 0 0 0
Y 0.02050453 4.93369700 0.67474561
Ge 0.00000000 0.00000000 -2.2814114399999994 0 0 0
Ge 3.04026798 0.00226809 1.00560922
Ge 0.00000000 4.93064000 -2.2814114399999994 0 0 0
Ge 3.04020714 4.92827329 1.00560922
Pb 4.54549512 2.46532000 -0.7604704799999986 0 0 0
Pb 1.60549854 2.46532000 2.33815197
Pb 4.54549512 7.39596000 -0.7604704799999986 0 0 0
Pb 1.66129277 7.39596000 2.39071679
C 4.49621124 2.46532000 4.44442922
O 4.48173029 2.46541861 5.58611746
