&CONTROL
calculation = 'relax'
prefix = 'scf'
pseudo_dir = '/vol0004/mdt0/data/hp150275/u10028/POT_KKJUS'
outdir = './data'
tprnfor = .true.
nstep = 50
disk_io = 'non'
/
&SYSTEM
ibrav = 0
ecutwfc = 50.0
ecutrho = 400
occupations = 'smearing'
smearing = 'mp'
degauss = 0.01
assume_isolated = 'esm'
esm_bc = 'bc1'
input_dft = 'BEEF-VDW'
nosym = .true.
nspin = 1
ntyp = 3
nat = 32
/
&ELECTRONS
electron_maxstep = 200
mixing_beta = 0.1
conv_thr = 1e-06
/
&IONS
ion_dynamics = 'bfgs'
upscale = 1.0
/
&CELL
/

K_POINTS {automatic}
9 6 2 0  0  0

ATOMIC_SPECIES
Ag 107.8 Ag.pbe-n-rrkjus_psl.1.0.0.UPF
Li 6.941 Li.pbe-sl-rrkjus_psl.1.0.0.UPF
Sb 121.7 Sb.pbe-n-rrkjus_psl.1.0.0.UPF

CELL_PARAMETERS {angstrom}
6.69979000 0.00000000 0.00000000
0.00000000 9.47494000 0.00000000
0.00000000 0.00000000 27.10620000

ATOMIC_POSITIONS {angstrom}
Li 0.00000000 7.10620500 -1.1842698800000022 0 0 0
Li 3.34989500 0.00000000 -3.5530807000000024 0 0 0
Li 0.00000000 2.36873500 -1.1842698800000022 0 0 0
Li 3.34989500 4.73747000 -3.5530807000000024 0 0 0
Li 1.67494750 0.00000000 -1.1842698800000022 0 0 0
Li 1.67494750 4.73747000 -1.1842698800000022 0 0 0
Li 5.02484250 7.10620500 -3.5530807000000024 0 0 0
Li 5.02484250 2.36873500 -3.5530807000000024 0 0 0
Li 6.56820612 2.36873500 3.38095633
Li 3.26534365 4.73747000 1.07205021
Li 6.56820612 7.10620500 3.38095633
Li 3.26534365 0.00000000 1.07205021
Li 1.93141546 4.73747000 3.59997442
Li 1.93154946 0.00000000 3.59997442
Li 4.92441265 2.36873500 1.21517095
Li 4.92434565 7.10620500 1.21517095
Ag 1.67494750 2.36873500 -3.5530807000000024 0 0 0
Ag 1.67494750 7.10620500 -3.5530807000000024 0 0 0
Ag 5.02484250 4.73747000 -1.1842698800000022 0 0 0
Ag 5.02484250 0.00000000 -1.1842698800000022 0 0 0
Ag 1.77222845 7.10620500 1.26314892
Ag 1.77222845 2.36873500 1.26314892
Ag 4.81922594 0.00000000 3.31996738
Ag 4.81915895 4.73747000 3.31996738
Sb 0.00000000 0.00000000 -3.5530807000000024 0 0 0
Sb 3.34989500 2.36873500 -1.1842698800000022 0 0 0
Sb 3.34989500 7.10620500 -1.1842698800000022 0 0 0
Sb 0.00000000 4.73747000 -3.5530807000000024 0 0 0
Sb 0.05755120 4.73747000 1.27019653
Sb 3.34667910 7.10620500 3.73171055
Sb 3.34667910 2.36873500 3.73171055
Sb 0.05755120 0.00000000 1.27019653
