&CONTROL
calculation = 'relax'
prefix = 'scf'
pseudo_dir = '/vol0004/mdt0/data/hp150275/u10028/POT_KKJUS'
outdir = './data'
tprnfor = .true.
nstep = 50
disk_io = 'non'
/
&SYSTEM
ibrav = 0
ecutwfc = 50.0
ecutrho = 400
occupations = 'smearing'
smearing = 'mp'
degauss = 0.01
assume_isolated = 'esm'
esm_bc = 'bc1'
input_dft = 'BEEF-VDW'
nosym = .true.
nspin = 1
ntyp = 5
nat = 34
/
&ELECTRONS
electron_maxstep = 200
mixing_beta = 0.1
conv_thr = 1e-06
/
&IONS
ion_dynamics = 'bfgs'
upscale = 1.0
/
&CELL
/

K_POINTS {automatic}
9 6 2 0  0  0

ATOMIC_SPECIES
Au 196.9 Au.pbe-n-rrkjus_psl.1.0.0.UPF
C 12.01 C.pbe-n-rrkjus_psl.1.0.0.UPF
Cu 63.54 Cu.pbe-dn-rrkjus_psl.1.0.0.UPF
O 15.99 O.pbe-n-rrkjus_psl.1.0.0.UPF
Zn 65.40 Zn.pbe-dnl-rrkjus_psl.1.0.0.UPF

CELL_PARAMETERS {angstrom}
6.22913000 0.00000000 0.00000000
0.00000000 8.80931000 0.00000000
0.00000000 0.00000000 26.60700000

ATOMIC_POSITIONS {angstrom}
Zn 1.55728250 0.00000000 -1.1012637299999994 0 0 0
Zn 4.67184750 4.40465500 -1.1012637299999994 0 0 0
Zn 4.67184750 0.00000000 -1.1012637299999994 0 0 0
Zn 1.55728250 4.40465500 -1.1012637299999994 0 0 0
Zn 4.67184750 6.60698250 -3.3035251199999998 0 0 0
Zn 1.55728250 2.20232750 -3.3035251199999998 0 0 0
Zn 1.55728250 6.60698250 -3.3035251199999998 0 0 0
Zn 4.67184750 2.20232750 -3.3035251199999998 0 0 0
Zn 1.52813017 4.44667541 3.40064067
Zn 4.70099983 8.76728959 3.40064067
Zn 4.70099983 4.44667541 3.40064067
Zn 1.52813017 8.76728959 3.40064067
Zn 4.66829690 2.20232750 1.13851353
Zn 1.52227479 6.60698250 1.12760466
Zn 1.56083310 2.20232750 1.13851353
Zn 4.70685521 6.60698250 1.12760466
Cu 0.00000000 0.00000000 -3.3035251199999998 0 0 0
Cu 3.11456500 2.20232750 -1.1012637299999994 0 0 0
Cu 3.11456500 6.60698250 -1.1012637299999994 0 0 0
Cu 0.00000000 4.40465500 -3.3035251199999998 0 0 0
Cu 0.00000000 4.39936941 0.99829464
Cu 3.11456500 6.60698250 3.20773992
Cu 3.11456500 2.20232750 3.36206052
Cu 0.00000000 0.00528559 0.99829464
Au 0.00000000 6.60698250 -1.1012637299999994 0 0 0
Au 3.11456500 0.00000000 -3.3035251199999998 0 0 0
Au 0.00000000 2.20232750 -1.1012637299999994 0 0 0
Au 3.11456500 4.40465500 -3.3035251199999998 0 0 0
Au 0.00000000 2.20232750 3.30858045
Au 3.11456500 4.39884086 1.14596349
Au 0.00000000 6.60698250 3.40968705
Au 3.11456500 0.00581414 1.14596349
C 3.11456500 2.20232750 5.25168966
O 3.11456500 2.20232750 6.39978171
