&CONTROL
calculation = 'relax'
prefix = 'scf'
pseudo_dir = '/vol0403/data/hp230205/u10028/POT_HYBRID_KKJUS_GBRV'
outdir = './data'
tprnfor = .true.
nstep = 50
disk_io = 'non'
/
&SYSTEM
ibrav = 0
ecutwfc = 50.0
ecutrho = 400
occupations = 'smearing'
smearing = 'mp'
degauss = 0.01
assume_isolated = 'esm'
esm_bc = 'bc1'
input_dft = 'BEEF-VDW'
nosym = .true.
nspin = 1
ntyp = 5
nat = 17
/
&ELECTRONS
electron_maxstep = 200
mixing_beta = 0.1
conv_thr = 1e-06
/
&IONS
ion_dynamics = 'bfgs'
upscale = 1.0
/
&CELL
/

K_POINTS {automatic}
10 10 2 0  0  0

ATOMIC_SPECIES
C 12.01 C.pbe-n-rrkjus_psl.1.0.0.UPF
Ge 72.64 Ge.pbe-dn-rrkjus_psl.1.0.0.UPF
Li 6.941 Li.pbe-sl-rrkjus_psl.1.0.0.UPF
Pd 106.4 Pd.pbe-n-rrkjus_psl.1.0.0.UPF
Pt 195.0 Pt.pbe-n-rrkjus_psl.1.0.0.UPF


CELL_PARAMETERS {angstrom}
6.12898000 0.00000000 0.00000000
0.00000000 6.12898000 0.00000000
0.00000000 0.00000000 24.59670000

ATOMIC_POSITIONS {angstrom}
Li 6.10054153 3.03825797 2.57158498
Li 0.00000000 0.00000000 -0.7661872099999982 0 0 0
Li 3.06449000 3.06449000 -0.7661872099999982 0 0 0
Li 3.09072203 0.02849976 2.57109305
Ge 5.98176190 0.14727939 2.40063792
Ge 0.00000000 3.06449000 -0.7661872099999982 0 0 0
Ge 3.06449000 0.00000000 -0.7661872099999982 0 0 0
Ge 3.21979835 2.90912036 2.40358952
Pd 4.59832853 1.53071276 0.55883702
Pd 4.59673500 4.59673500 -2.2983156499999993 0 0 0
Pd 1.53224500 1.53224500 -2.2983156499999993 0 0 0
Pd 1.53157081 4.59734790 1.03306140
Pt 1.53316435 1.53420627 0.85399742
Pt 1.53224500 4.59673500 -2.2983156499999993 0 0 0
Pt 4.59673500 1.53224500 -2.2983156499999993 0 0 0
Pt 4.59483502 4.59575436 0.85399742
C 4.60114787 1.52783213 2.73564497
