&CONTROL
calculation = 'relax'
prefix = 'scf'
pseudo_dir = '/vol0403/data/hp230205/u10028/POT_HYBRID_KKJUS_GBRV'
outdir = './data'
tprnfor = .true.
nstep = 70
disk_io = 'non'
/
&SYSTEM
ibrav = 0
ecutwfc = 50.0
ecutrho = 400
occupations = 'smearing'
smearing = 'mp'
degauss = 0.01
assume_isolated = 'esm'
esm_bc = 'bc1'
input_dft = 'BEEF-VDW'
nosym = .true.
nspin = 1
ntyp = 5
nat = 33
/
&ELECTRONS
electron_maxstep = 200
mixing_beta = 0.1
conv_thr = 1e-06
/
&IONS
ion_dynamics = 'bfgs'
upscale = 1.0
/
&CELL
/

K_POINTS {automatic}
6 6 1 0 0 0

ATOMIC_SPECIES
C 12.01 C.pbe-n-rrkjus_psl.1.0.0.UPF
Cu 63.54 Cu.pbe-dn-rrkjus_psl.1.0.0.UPF
Li 6.941 Li.pbe-sl-rrkjus_psl.1.0.0.UPF
Pd 106.4 Pd.pbe-n-rrkjus_psl.1.0.0.UPF
Sn 118.7 Sn.pbe-dn-rrkjus_psl.1.0.0.UPF


CELL_PARAMETERS {angstrom}
6.33545000 0.00000000 0.00000000
-0.00000000 8.95968000 0.00000000
0.00000000 0.00000000 26.71980000

ATOMIC_POSITIONS {angstrom}
Li 1.58386250 0.00000000 -1.1200940199999998 0 0 0
Li 1.58386250 4.47984000 -1.1200940199999998 0 0 0
Li 4.75158750 2.23992000 -3.360014849999999 0 0 0
Li 4.75158750 6.71976000 -3.360014849999999 0 0 0
Li 1.56732698 4.40914812 3.59434750
Li 1.56739033 0.07051268 3.59434750
Li 4.76166087 6.71976000 1.01668839
Li 4.77426841 2.23992000 1.01989477
Cu 0.00000000 0.00000000 -3.360014849999999 0 0 0
Cu 0.00000000 4.47984000 -3.360014849999999 0 0 0
Cu 3.16772500 6.71976000 -1.1200940199999998 0 0 0
Cu 3.16772500 2.23992000 -1.1200940199999998 0 0 0
Cu 6.22046158 4.49677380 1.31808773
Cu 6.22046158 8.94274620 1.31808773
Cu 3.43926239 2.23992000 3.26195318
Cu 3.27707487 6.71976000 3.14946283
Sn 4.75158750 0.00000000 -1.1200940199999998 0 0 0
Sn 4.75158750 4.47984000 -1.1200940199999998 0 0 0
Sn 1.58386250 2.23992000 -3.360014849999999 0 0 0
Sn 1.58386250 6.71976000 -3.360014849999999 0 0 0
Sn 4.71965683 4.55931236 3.74638316
Sn 4.71965683 8.88011804 3.74638316
Sn 1.60052473 6.71976000 1.08803026
Sn 1.58652339 2.23992000 1.07467036
Pd 0.00000000 2.23992000 -1.1200940199999998 0 0 0
Pd 0.00000000 6.71976000 -1.1200940199999998 0 0 0
Pd 3.16772500 4.47984000 -3.360014849999999 0 0 0
Pd 3.16772500 0.00000000 -3.360014849999999 0 0 0
Pd 6.26537992 6.71976000 3.15026442
Pd 6.02932106 2.23992000 3.34612055
Pd 3.25743497 8.95421460 1.28361919
Pd 3.25743497 4.48530540 1.28361919
C 1.61984786 2.23983040 3.42547836
