&CONTROL
calculation = 'relax'
prefix = 'scf'
pseudo_dir = '/vol0004/mdt0/data/hp150275/u10028/POT_KKJUS'
outdir = './data'
tprnfor = .true.
nstep = 50
disk_io = 'non'
/
&SYSTEM
ibrav = 0
ecutwfc = 50.0
ecutrho = 400
occupations = 'smearing'
smearing = 'mp'
degauss = 0.01
assume_isolated = 'esm'
esm_bc = 'bc1'
input_dft = 'BEEF-VDW'
nosym = .true.
nspin = 1
ntyp = 3
nat = 32
/
&ELECTRONS
electron_maxstep = 200
mixing_beta = 0.1
conv_thr = 1e-06
/
&IONS
ion_dynamics = 'bfgs'
upscale = 1.0
/
&CELL
/

K_POINTS {automatic}
9 6 2 0  0  0

ATOMIC_SPECIES
Cu 63.54 Cu.pbe-dn-rrkjus_psl.1.0.0.UPF
In 114.8 In.pbe-dn-rrkjus_psl.1.0.0.UPF
Y 88.90 Y.pbe-spn-rrkjus_psl.1.0.0.UPF

CELL_PARAMETERS {angstrom}
6.69979000 0.00000000 0.00000000
0.00000000 9.47494000 0.00000000
0.00000000 0.00000000 27.10620000

ATOMIC_POSITIONS {angstrom}
Y 0.00000000 0.00000000 -3.5530807000000024 0 0 0
Y 3.34989500 2.36873500 -1.1842698800000022 0 0 0
Y 3.34989500 7.10620500 -1.1842698800000022 0 0 0
Y 0.00000000 4.73747000 -3.5530807000000024 0 0 0
Y 0.00000000 4.73756475 1.14117102
Y 3.34989500 7.10620500 3.65012089
Y 3.34989500 2.36873500 3.64984983
Y 0.00000000 9.47484525 1.14117102
In 0.00000000 7.10620500 -1.1842698800000022 0 0 0
In 3.34989500 0.00000000 -3.5530807000000024 0 0 0
In 0.00000000 2.36873500 -1.1842698800000022 0 0 0
In 3.34989500 4.73747000 -3.5530807000000024 0 0 0
In 0.00020099 2.36864025 3.54684627
In 3.34989500 4.73747000 1.18996218
In 6.69958901 7.10611025 3.54820158
In 3.34989500 0.00000000 1.18969112
Cu 1.67494750 0.00000000 -1.1842698800000022 0 0 0
Cu 5.02484250 4.73747000 -1.1842698800000022 0 0 0
Cu 5.02484250 0.00000000 -1.1842698800000022 0 0 0
Cu 1.67494750 4.73747000 -1.1842698800000022 0 0 0
Cu 5.02484250 7.10620500 -3.5530807000000024 0 0 0
Cu 1.67494750 2.36873500 -3.5530807000000024 0 0 0
Cu 1.67494750 7.10620500 -3.5530807000000024 0 0 0
Cu 5.02484250 2.36873500 -3.5530807000000024 0 0 0
Cu 1.60024484 4.73756475 3.50591591
Cu 5.09941116 0.00000000 3.50591591
Cu 5.09947816 4.73747000 3.50591591
Cu 1.60031184 0.00000000 3.50591591
Cu 4.95101081 2.36882975 1.24173502
Cu 1.74877919 7.10620500 1.24200608
Cu 1.74877919 2.36882975 1.24173502
Cu 4.95101081 7.10620500 1.24200608
