&CONTROL
calculation = 'relax'
prefix = 'scf'
pseudo_dir = '/vol0403/data/hp230205/u10028/POT_HYBRID_KKJUS_GBRV'
outdir = './data'
tprnfor = .true.
nstep = 70
disk_io = 'non'
/
&SYSTEM
ibrav = 0
ecutwfc = 50.0
ecutrho = 400
occupations = 'smearing'
smearing = 'mp'
degauss = 0.01
assume_isolated = 'esm'
esm_bc = 'bc1'
input_dft = 'BEEF-VDW'
nosym = .true.
nspin = 1
ntyp = 5
nat = 33
/
&ELECTRONS
electron_maxstep = 200
mixing_beta = 0.1
conv_thr = 1e-06
/
&IONS
ion_dynamics = 'bfgs'
upscale = 1.0
/
&CELL
/

K_POINTS {automatic}
9 6 2 0  0  0

ATOMIC_SPECIES
C 12.01 C.pbe-n-rrkjus_psl.1.0.0.UPF
Ga 69.72 Ga.pbe-dnl-rrkjus_psl.1.0.0.UPF
Li 6.941 Li.pbe-sl-rrkjus_psl.1.0.0.UPF
Pd 106.4 Pd.pbe-n-rrkjus_psl.1.0.0.UPF
Y 88.90 Y.pbe-spn-rrkjus_psl.1.0.0.UPF


CELL_PARAMETERS {angstrom}
6.61884000 0.00000000 0.00000000
-0.00000000 9.36046000 0.00000000
0.00000000 0.00000000 27.02030000

ATOMIC_POSITIONS {angstrom}
Li 4.96413000 0.00000000 -1.1699789900000006 0 0 0
Li 4.96413000 4.68023000 -1.1699789900000006 0 0 0
Li 1.65471000 2.34011500 -3.5102071699999975 0 0 0
Li 1.65471000 7.02034500 -3.5102071699999975 0 0 0
Li 3.45814533 4.68023000 4.87662374
Li 3.90041622 -0.00000000 4.70072159
Li 1.55900157 7.12658622 1.27076471
Li 1.55900157 2.23387378 1.27076471
Y 0.00000000 2.34011500 -1.1699789900000006 0 0 0
Y 0.00000000 7.02034500 -1.1699789900000006 0 0 0
Y 3.30942000 4.68023000 -3.5102071699999975 0 0 0
Y 3.30942000 0.00000000 -3.5102071699999975 0 0 0
Y 6.00229505 7.10711646 3.52695976
Y 6.00229505 2.25334354 3.52695976
Y 3.64056057 -0.00000000 1.76496600
Y 3.30213928 4.68023000 1.47179574
Ga 0.00000000 0.00000000 -3.5102071699999975 0 0 0
Ga 0.00000000 4.68023000 -3.5102071699999975 0 0 0
Ga 3.30942000 7.02034500 -1.1699789900000006 0 0 0
Ga 3.30942000 2.34011500 -1.1699789900000006 0 0 0
Ga 6.56509502 4.68023000 1.08567565
Ga 6.56853682 -0.00000000 1.22185797
Ga 2.66951055 2.35097313 3.68259669
Ga 2.66951055 7.00948687 3.68259669
Pd 1.65471000 0.00000000 -1.1699789900000006 0 0 0
Pd 1.65471000 4.68023000 -1.1699789900000006 0 0 0
Pd 4.96413000 2.34011500 -3.5102071699999975 0 0 0
Pd 4.96413000 7.02034500 -3.5102071699999975 0 0 0
Pd 1.27756850 4.68023000 3.33403482
Pd 1.38108715 -0.00000000 3.45670698
Pd 4.89125657 6.91719273 0.91031391
Pd 4.89125657 2.44326727 0.91031391
C 5.55466290 -0.00000000 3.27242853
