&CONTROL
calculation = 'relax'
prefix = 'scf'
pseudo_dir = '/vol0004/mdt0/data/hp150275/u10028/POT_KKJUS'
outdir = './data'
tprnfor = .true.
nstep = 50
disk_io = 'non'
/
&SYSTEM
ibrav = 0
ecutwfc = 50.0
ecutrho = 400
occupations = 'smearing'
smearing = 'mp'
degauss = 0.01
assume_isolated = 'esm'
esm_bc = 'bc1'
input_dft = 'BEEF-VDW'
nosym = .true.
nspin = 1
ntyp = 4
nat = 33
/
&ELECTRONS
electron_maxstep = 200
mixing_beta = 0.1
conv_thr = 1e-06
/
&IONS
ion_dynamics = 'bfgs'
upscale = 1.0
/
&CELL
/

K_POINTS {automatic}
9 6 2 0  0  0

ATOMIC_SPECIES
Bi 208.9 Bi.pbe-dn-rrkjus_psl.1.0.0.UPF
C 12.01 C.pbe-n-rrkjus_psl.1.0.0.UPF
Pd 106.4 Pd.pbe-n-rrkjus_psl.1.0.0.UPF
Y 88.90 Y.pbe-spn-rrkjus_psl.1.0.0.UPF

CELL_PARAMETERS {angstrom}
6.99655000 0.00000000 0.00000000
0.00000000 9.89462000 0.00000000
0.00000000 0.00000000 27.42100000

ATOMIC_POSITIONS {angstrom}
Y 0.00000000 0.00000000 -3.7106097200000008 0 0 0
Y 3.49827500 2.47365500 -1.236961309999998 0 0 0
Y 3.49827500 7.42096500 -1.236961309999998 0 0 0
Y 0.00000000 4.94731000 -3.7106097200000008 0 0 0
Y 0.00000000 4.94731000 1.26136600
Y 3.49827500 7.55503710 3.69059239
Y 3.49827500 2.33958290 3.69059239
Y 0.00000000 0.00000000 1.37077579
Bi 0.00000000 7.42096500 -1.236961309999998 0 0 0
Bi 3.49827500 0.00000000 -3.7106097200000008 0 0 0
Bi 0.00000000 2.47365500 -1.236961309999998 0 0 0
Bi 3.49827500 4.94731000 -3.7106097200000008 0 0 0
Bi 0.00000000 2.57764746 3.84003684
Bi 3.49827500 4.94731000 1.14592359
Bi 0.00000000 7.31697254 3.84003684
Bi 3.49827500 0.00000000 1.21063715
Pd 1.74913750 0.00000000 -1.236961309999998 0 0 0
Pd 5.24741250 4.94731000 -1.236961309999998 0 0 0
Pd 5.24741250 0.00000000 -1.236961309999998 0 0 0
Pd 1.74913750 4.94731000 -1.236961309999998 0 0 0
Pd 5.24741250 7.42096500 -3.7106097200000008 0 0 0
Pd 1.74913750 2.47365500 -3.7106097200000008 0 0 0
Pd 1.74913750 7.42096500 -3.7106097200000008 0 0 0
Pd 5.24741250 2.47365500 -3.7106097200000008 0 0 0
Pd 1.88053271 4.94731000 3.49316119
Pd 5.57876911 0.00000000 3.88336202
Pd 5.11601729 4.94731000 3.49316119
Pd 1.41778089 0.00000000 3.88336202
Pd 5.29792759 2.50037047 1.30606223
Pd 1.69862241 7.39424953 1.30606223
Pd 1.69862241 2.50027153 1.30606223
Pd 5.29792759 7.39434847 1.30606223
C 3.49827500 0.00000000 3.76682277
