&CONTROL
calculation = 'relax'
prefix = 'scf'
pseudo_dir = '/vol0004/mdt0/data/hp150275/u10028/POT_KKJUS'
outdir = './data'
tprnfor = .true.
nstep = 50
disk_io = 'non'
/
&SYSTEM
ibrav = 0
ecutwfc = 50.0
ecutrho = 400
occupations = 'smearing'
smearing = 'mp'
degauss = 0.01
assume_isolated = 'esm'
esm_bc = 'bc1'
input_dft = 'BEEF-VDW'
nosym = .true.
nspin = 1
ntyp = 5
nat = 34
/
&ELECTRONS
electron_maxstep = 200
mixing_beta = 0.1
conv_thr = 1e-06
/
&IONS
ion_dynamics = 'bfgs'
upscale = 1.0
/
&CELL
/

K_POINTS {automatic}
8 6 1 0 0 0

ATOMIC_SPECIES
Al 26.98 Al.pbe-nl-rrkjus_psl.1.0.0.UPF
C 12.01 C.pbe-n-rrkjus_psl.1.0.0.UPF
Cu 63.54 Cu.pbe-dn-rrkjus_psl.1.0.0.UPF
O 15.99 O.pbe-n-rrkjus_psl.1.0.0.UPF
Sc 44.95 Sc.pbe-spn-rrkjus_psl.1.0.0.UPF

CELL_PARAMETERS {angstrom}
6.23499000 0.00000000 0.00000000
0.00000000 8.81761000 0.00000000
0.00000000 0.00000000 26.61320000

ATOMIC_POSITIONS {angstrom}
Sc 0.00000000 0.00000000 -3.306690100000001 0 0 0
Sc 3.11749500 2.20440250 -1.1023187399999976 0 0 0
Sc 3.11749500 6.61320750 -1.1023187399999976 0 0 0
Sc 0.00000000 4.40880500 -3.306690100000001 0 0 0
Sc 0.00000000 4.43067267 1.04376970
Sc 3.11749500 6.61320750 3.49670835
Sc 3.11749500 2.20440250 3.42165912
Sc 0.00000000 8.79574233 1.04403584
Al 0.00000000 6.61320750 -1.1023187399999976 0 0 0
Al 3.11749500 0.00000000 -3.306690100000001 0 0 0
Al 0.00000000 2.20440250 -1.1023187399999976 0 0 0
Al 3.11749500 4.40880500 -3.306690100000001 0 0 0
Al 0.00000000 2.20440250 3.19411626
Al 3.11749500 4.39760664 1.14782732
Al 0.00000000 6.61320750 3.16111590
Al 3.11749500 0.01119836 1.14782732
Cu 1.55874750 0.00000000 -1.1023187399999976 0 0 0
Cu 4.67624250 4.40880500 -1.1023187399999976 0 0 0
Cu 4.67624250 0.00000000 -1.1023187399999976 0 0 0
Cu 1.55874750 4.40880500 -1.1023187399999976 0 0 0
Cu 4.67624250 6.61320750 -3.306690100000001 0 0 0
Cu 1.55874750 2.20440250 -3.306690100000001 0 0 0
Cu 1.55874750 6.61320750 -3.306690100000001 0 0 0
Cu 4.67624250 2.20440250 -3.306690100000001 0 0 0
Cu 1.43579350 4.41779896 3.25878634
Cu 4.79913415 8.80861604 3.25905247
Cu 4.79919650 4.41779896 3.25878634
Cu 1.43585585 8.80861604 3.25878634
Cu 4.63103882 2.20440250 1.12467383
Cu 1.69248804 6.61320750 1.17497278
Cu 1.60395118 2.20440250 1.12467383
Cu 4.54256431 6.61320750 1.17497278
C 3.11749500 2.20440250 5.73860432
O 3.11749500 2.20440250 6.88483484
