&CONTROL
calculation = 'relax'
prefix = 'scf'
pseudo_dir = '/vol0004/mdt0/data/hp150275/u10028/POT_HYBRID_KKJUS_GBRV'
outdir = './data'
tprnfor = .true.
nstep = 50
disk_io = 'non'
/
&SYSTEM
ibrav = 0
ecutwfc = 50.0
ecutrho = 400
occupations = 'smearing'
smearing = 'mp'
degauss = 0.01
assume_isolated = 'esm'
esm_bc = 'bc1'
input_dft = 'BEEF-VDW'
nosym = .true.
nspin = 2
ntyp = 3
nat = 32
starting_magnetization(1) = 0.1
starting_magnetization(2) = 0.0
starting_magnetization(3) = 0.0
/
&ELECTRONS
electron_maxstep = 200
mixing_beta = 0.1
conv_thr = 1e-06
/
&IONS
ion_dynamics = 'bfgs'
upscale = 1.0
/
&CELL
/

K_POINTS {automatic}
9 6 2 0  0  0

ATOMIC_SPECIES
Co 58.93 co_pbe_v1.2.uspp.F.UPF
Nb 92.90 Nb.pbe-spn-rrkjus_psl.1.0.0.UPF
Sn 118.7 Sn.pbe-dn-rrkjus_psl.1.0.0.UPF

CELL_PARAMETERS {angstrom}
6.19479000 0.00000000 0.00000000
0.00000000 8.76076000 0.00000000
0.00000000 0.00000000 26.57060000

ATOMIC_POSITIONS {angstrom}
Nb 0.00000000 0.00000000 23.28541102
Nb 3.09739500 2.19019000 25.47562557
Nb 3.09739500 6.57057000 25.47562557
Nb 0.00000000 4.38038000 23.28541102
Nb 0.00000000 4.38038000 1.17574905
Nb 3.09733305 6.57048239 3.21185413
Nb 3.09733305 2.19027761 3.21185413
Nb 0.00006195 0.00000000 1.17574905
Co 1.54869750 0.00000000 25.47562557
Co 4.64609250 4.38038000 25.47562557
Co 4.64609250 0.00000000 25.47562557
Co 1.54869750 4.38038000 25.47562557
Co 4.64609250 6.57057000 23.28541102
Co 1.54869750 2.19019000 23.28541102
Co 1.54869750 6.57057000 23.28541102
Co 4.64609250 2.19019000 23.28541102
Co 1.59819387 4.38038000 3.10902591
Co 4.59672002 0.00000000 3.10902591
Co 4.59659613 4.38038000 3.10902591
Co 1.59813192 0.00000000 3.10902591
Co 4.68146475 2.19001478 1.16113522
Co 1.51338720 6.57065761 1.16113522
Co 1.51332525 2.19010239 1.16113522
Co 4.68146475 6.57074522 1.16113522
Sn 0.00000000 6.57057000 25.47562557
Sn 3.09739500 0.00000000 23.28541102
Sn 0.00000000 2.19019000 25.47562557
Sn 3.09739500 4.38038000 23.28541102
Sn 6.19472805 2.19019000 3.61944713
Sn 3.09745695 4.38038000 1.03333063
Sn 6.19472805 6.57057000 3.61944713
Sn 3.09739500 0.00000000 1.03359634
