&CONTROL
calculation = 'relax'
prefix = 'scf'
pseudo_dir = '/vol0403/data/hp230205/u10028/POT_HYBRID_KKJUS_GBRV'
outdir = './data'
tprnfor = .true.
nstep = 50
disk_io = 'non'
/
&SYSTEM
ibrav = 0
ecutwfc = 50.0
ecutrho = 400
occupations = 'smearing'
smearing = 'mp'
degauss = 0.01
assume_isolated = 'esm'
esm_bc = 'bc1'
input_dft = 'BEEF-VDW'
nosym = .true.
nspin = 1
ntyp = 5
nat = 33
/
&ELECTRONS
electron_maxstep = 200
mixing_beta = 0.1
conv_thr = 1e-06
/
&IONS
ion_dynamics = 'bfgs'
upscale = 1.0
/
&CELL
/

K_POINTS {automatic}
6 6 1 0 0 0

ATOMIC_SPECIES
C 12.01 C.pbe-n-rrkjus_psl.1.0.0.UPF
Ge 72.64 Ge.pbe-dn-rrkjus_psl.1.0.0.UPF
Li 6.941 Li.pbe-sl-rrkjus_psl.1.0.0.UPF
Sn 118.7 Sn.pbe-dn-rrkjus_psl.1.0.0.UPF
Y 88.90 Y.pbe-spn-rrkjus_psl.1.0.0.UPF


CELL_PARAMETERS {angstrom}
8.52742000 0.00000000 0.00000000
0.00000000 9.43388000 0.00000000
0.00000000 0.00000000 26.45610000

ATOMIC_POSITIONS {angstrom}
Li 2.15470849 2.35847000 3.58480155
Li 2.13185500 2.35847000 -1.0759695899999997 0 0 0
Li 2.35314155 7.07541000 3.48321013
Li 2.13185500 7.07541000 -1.0759695899999997 0 0 0
Li 6.37271151 2.35847000 3.58453699
Li 6.39556500 2.35847000 -1.0759695899999997 0 0 0
Li 6.17427845 7.07541000 3.48321013
Li 6.39556500 7.07541000 -1.0759695899999997 0 0 0
Y 2.10465253 9.40576704 1.10030920
Y 2.13185500 0.00000000 -3.22817332 0 0 0
Y 2.10465253 4.74505296 1.10030920
Y 2.13185500 4.71694000 -3.22817332 0 0 0
Y 6.42276747 9.40576704 1.10030920
Y 6.39556500 0.00000000 -3.22817332 0 0 0
Y 6.42276747 4.74505296 1.10030920
Y 6.39556500 4.71694000 -3.22817332 0 0 0
Sn 0.00000000 2.35847000 1.06353522
Sn 0.00000000 2.35847000 -3.22817332 0 0 0
Sn 0.00000000 7.07541000 1.24026197
Sn 0.00000000 7.07541000 -3.22817332 0 0 0
Sn 4.26371000 2.35847000 1.49424053
Sn 4.26371000 2.35847000 -3.22817332 0 0 0
Sn 4.26371000 7.07541000 1.09369517
Sn 4.26371000 7.07541000 -3.22817332 0 0 0
Ge 0.00000000 0.44471310 3.53559320
Ge 0.00000000 0.00000000 -1.0759695899999997 0 0 0
Ge 0.00000000 4.27213256 3.53559320
Ge 0.00000000 4.71694000 -1.0759695899999997 0 0 0
Ge 4.26371000 9.21114609 3.17208639
Ge 4.26371000 0.00000000 -1.0759695899999997 0 0 0
Ge 4.26371000 4.93976825 3.17208639
Ge 4.26371000 4.71694000 -1.0759695899999997 0 0 0
C 0.00000000 2.35837566 3.52077779
