&CONTROL
calculation = 'relax'
prefix = 'scf'
pseudo_dir = '/vol0403/data/hp230205/u10028/POT_HYBRID_KKJUS_GBRV'
outdir = './data'
tprnfor = .true.
nstep = 50
disk_io = 'non'
/
&SYSTEM
ibrav = 0
ecutwfc = 50.0
ecutrho = 400
occupations = 'smearing'
smearing = 'mp'
degauss = 0.01
assume_isolated = 'esm'
esm_bc = 'bc1'
input_dft = 'BEEF-VDW'
nosym = .true.
nspin = 1
ntyp = 6
nat = 18
/
&ELECTRONS
electron_maxstep = 200
mixing_beta = 0.1
conv_thr = 1e-06
/
&IONS
ion_dynamics = 'bfgs'
upscale = 1.0
/
&CELL
/

K_POINTS {automatic}
8 8 1 0 0 0

ATOMIC_SPECIES
C 12.01 C.pbe-n-rrkjus_psl.1.0.0.UPF
Ge 72.64 Ge.pbe-dn-rrkjus_psl.1.0.0.UPF
Li 6.941 Li.pbe-sl-rrkjus_psl.1.0.0.UPF
O 15.99 O.pbe-n-rrkjus_psl.1.0.0.UPF
Pd 106.4 Pd.pbe-n-rrkjus_psl.1.0.0.UPF
Sn 118.7 Sn.pbe-dn-rrkjus_psl.1.0.0.UPF


CELL_PARAMETERS {angstrom}
6.61012000 0.00000000 0.00000000
0.00000000 6.61012000 0.00000000
0.00000000 0.00000000 24.95760000

ATOMIC_POSITIONS {angstrom}
Li 4.86868389 1.56263237 0.79165507
Li 4.95759000 4.95759000 -2.478788829999999 0 0 0
Li 1.65253000 1.65253000 -2.478788829999999 0 0 0
Li 1.74242763 5.04702492 0.79190465
Sn 0.00033051 3.30492780 2.53469386
Sn 0.00000000 0.00000000 -0.8263461399999983 0 0 0
Sn 3.30506000 3.30506000 -0.8263461399999983 0 0 0
Sn 3.30565491 0.00006610 2.75706607
Ge 0.00026440 6.60965729 2.22846410
Ge 0.00000000 3.30506000 -0.8263461399999983 0 0 0
Ge 3.30506000 0.00000000 -0.8263461399999983 0 0 0
Ge 3.30545661 3.30472949 2.22796495
Pd 1.72874468 1.57611701 0.72302167
Pd 1.65253000 4.95759000 -2.478788829999999 0 0 0
Pd 4.95759000 1.65253000 -2.478788829999999 0 0 0
Pd 4.88183802 5.03347418 0.72302167
C 6.60212175 3.31153792 6.79869982
O 0.00125592 3.30413458 7.93427062
