&CONTROL
calculation = 'relax'
prefix = 'scf'
pseudo_dir = '/vol0403/data/hp230205/u10028/POT_HYBRID_KKJUS_GBRV'
outdir = './data'
tprnfor = .true.
nstep = 50
disk_io = 'non'
/
&SYSTEM
ibrav = 0
ecutwfc = 50.0
ecutrho = 400
occupations = 'smearing'
smearing = 'mp'
degauss = 0.01
assume_isolated = 'esm'
esm_bc = 'bc1'
input_dft = 'BEEF-VDW'
nosym = .true.
nspin = 1
ntyp = 4
nat = 32
/
&ELECTRONS
electron_maxstep = 200
mixing_beta = 0.1
conv_thr = 1e-06
/
&IONS
ion_dynamics = 'bfgs'
upscale = 1.0
/
&CELL
/

K_POINTS {automatic}
6 6 1 0 0 0

ATOMIC_SPECIES
Ge 72.64 Ge.pbe-dn-rrkjus_psl.1.0.0.UPF
Li 6.941 Li.pbe-sl-rrkjus_psl.1.0.0.UPF
Mg 24.30 Mg.pbe-spnl-rrkjus_psl.1.0.0.UPF
Pd 106.4 Pd.pbe-n-rrkjus_psl.1.0.0.UPF


CELL_PARAMETERS {angstrom}
6.25843000 0.00000000 0.00000000
0.00000000 8.85076000 0.00000000
0.00000000 0.00000000 26.63810000

ATOMIC_POSITIONS {angstrom}
Li 1.56460750 0.00000000 -1.1062802900000008 0 0 0
Li 1.56460750 4.42538000 -1.1062802900000008 0 0 0
Li 4.69382250 2.21269000 -3.3191072600000027 0 0 0
Li 4.69382250 6.63807000 -3.3191072600000027 0 0 0
Li 2.21836310 4.42546851 4.45016099
Li 2.21823793 0.00000000 4.45122651
Li 4.75371568 6.63815851 1.19818174
Li 4.75371568 2.21269000 1.19818174
Mg 0.00000000 2.21269000 -1.1062802900000008 0 0 0
Mg 0.00000000 6.63807000 -1.1062802900000008 0 0 0
Mg 3.12921500 4.42538000 -3.3191072600000027 0 0 0
Mg 3.12921500 0.00000000 -3.3191072600000027 0 0 0
Mg 0.22042190 6.63815851 3.44483909
Mg 0.22060966 2.21251298 3.44510547
Mg 3.05524036 0.00008851 1.28848490
Mg 3.05574103 4.42538000 1.28875128
Ge 0.00000000 0.00000000 -3.3191072600000027 0 0 0
Ge 0.00000000 4.42538000 -3.3191072600000027 0 0 0
Ge 3.12921500 6.63807000 -1.1062802900000008 0 0 0
Ge 3.12921500 2.21269000 -1.1062802900000008 0 0 0
Ge 0.09168600 4.42538000 1.25731832
Ge 0.09162342 0.00000000 1.25731832
Ge 3.23980146 2.21251298 3.43018814
Ge 3.23986404 6.63824702 3.42992176
Pd 4.69382250 0.00000000 -1.1062802900000008 0 0 0
Pd 4.69382250 4.42538000 -1.1062802900000008 0 0 0
Pd 1.56460750 2.21269000 -3.3191072600000027 0 0 0
Pd 1.56460750 6.63807000 -3.3191072600000027 0 0 0
Pd 4.76279040 4.42538000 3.26050344
Pd 4.76279040 0.00000000 3.26050344
Pd 1.58857729 6.63807000 1.02423494
Pd 1.58857729 2.21277851 1.02423494
