&CONTROL
calculation = 'relax'
prefix = 'scf'
pseudo_dir = '/vol0403/data/hp230205/u10028/POT_HYBRID_KKJUS_GBRV'
outdir = './data'
tprnfor = .true.
nstep = 50
disk_io = 'non'
/
&SYSTEM
ibrav = 0
ecutwfc = 50.0
ecutrho = 400
occupations = 'smearing'
smearing = 'mp'
degauss = 0.01
assume_isolated = 'esm'
esm_bc = 'bc1'
input_dft = 'BEEF-VDW'
nosym = .true.
nspin = 1
ntyp = 6
nat = 34
/
&ELECTRONS
electron_maxstep = 200
mixing_beta = 0.1
conv_thr = 1e-06
/
&IONS
ion_dynamics = 'bfgs'
upscale = 1.0
/
&CELL
/

K_POINTS {automatic}
6 6 1 0 0 0

ATOMIC_SPECIES
C 12.01 C.pbe-n-rrkjus_psl.1.0.0.UPF
In 114.8 In.pbe-dn-rrkjus_psl.1.0.0.UPF
Mg 24.30 Mg.pbe-spnl-rrkjus_psl.1.0.0.UPF
O 15.99 O.pbe-n-rrkjus_psl.1.0.0.UPF
Pd 106.4 Pd.pbe-n-rrkjus_psl.1.0.0.UPF
Sc 44.95 Sc.pbe-spn-rrkjus_psl.1.0.0.UPF


CELL_PARAMETERS {angstrom}
6.76782000 0.00000000 0.00000000
0.00000000 9.57114000 0.00000000
0.00000000 0.00000000 27.17840000

ATOMIC_POSITIONS {angstrom}
Mg 1.69195500 0.00000000 -1.1963931700000003 0 0 0
Mg 1.69195500 4.78557000 -1.1963931700000003 0 0 0
Mg 5.07586500 2.39278500 -3.5891795 0 0 0
Mg 5.07586500 7.17835500 -3.5891795 0 0 0
Mg 1.69154893 4.78327293 3.66527902
Mg 1.69676015 0.00267992 3.68702174
Mg 5.00263719 7.17825929 1.26433917
Mg 5.00182505 2.39259358 1.26488274
Sc 5.07586500 0.00000000 -1.1963931700000003 0 0 0
Sc 5.07586500 4.78557000 -1.1963931700000003 0 0 0
Sc 1.69195500 2.39278500 -3.5891795 0 0 0
Sc 1.69195500 7.17835500 -3.5891795 0 0 0
Sc 5.08872386 4.78719709 3.63429565
Sc 5.09156634 9.56970433 3.62369607
Sc 1.76876976 7.17490939 1.30320428
Sc 1.77107082 2.39623061 1.30565034
In 0.00000000 0.00000000 -3.5891795 0 0 0
In 0.00000000 4.78557000 -3.5891795 0 0 0
In 3.38391000 7.17835500 -1.1963931700000003 0 0 0
In 3.38391000 2.39278500 -1.1963931700000003 0 0 0
In 6.76294717 4.78499573 1.22493049
In 0.00595568 0.00105283 1.24259645
In 3.38675248 2.39709201 4.04278700
In 3.38181198 7.17452654 4.03517705
Pd 0.00000000 2.39278500 -1.1963931700000003 0 0 0
Pd 0.00000000 7.17835500 -1.1963931700000003 0 0 0
Pd 3.38391000 4.78557000 -3.5891795 0 0 0
Pd 3.38391000 0.00000000 -3.5891795 0 0 0
Pd 0.00033839 7.14677024 3.32962578
Pd 6.76578965 2.42456118 3.33044114
Pd 3.41159038 9.57085287 1.23634542
Pd 3.42580281 4.78604856 1.22085373
C 1.28358474 0.00009571 5.89309247
O 1.15140922 9.57104429 7.03295457
