&CONTROL
calculation = 'relax'
prefix = 'scf'
pseudo_dir = '/vol0403/data/hp230205/u10028/POT_HYBRID_KKJUS_GBRV'
outdir = './data'
tprnfor = .true.
nstep = 50
disk_io = 'non'
/
&SYSTEM
ibrav = 0
ecutwfc = 50.0
ecutrho = 400
occupations = 'smearing'
smearing = 'mp'
degauss = 0.01
assume_isolated = 'esm'
esm_bc = 'bc1'
input_dft = 'BEEF-VDW'
nosym = .true.
nspin = 1
ntyp = 4
nat = 32
/
&ELECTRONS
electron_maxstep = 200
mixing_beta = 0.1
conv_thr = 1e-06
/
&IONS
ion_dynamics = 'bfgs'
upscale = 1.0
/
&CELL
/

K_POINTS {automatic}
6 6 1 0 0 0

ATOMIC_SPECIES
Ga 69.72 Ga.pbe-dnl-rrkjus_psl.1.0.0.UPF
In 114.8 In.pbe-dn-rrkjus_psl.1.0.0.UPF
Li 6.941 Li.pbe-sl-rrkjus_psl.1.0.0.UPF
Sc 44.95 Sc.pbe-spn-rrkjus_psl.1.0.0.UPF


CELL_PARAMETERS {angstrom}
8.37318000 0.00000000 0.00000000
0.00000000 8.86716000 0.00000000
0.00000000 0.00000000 26.17340000

ATOMIC_POSITIONS {angstrom}
Li 2.09329500 2.21679000 3.08662906
Li 2.09329500 2.21679000 -1.0288763500000009 0 0 0
Li 2.09329500 6.65037000 3.08662906
Li 2.09329500 6.65037000 -1.0288763500000009 0 0 0
Li 6.27988500 2.21679000 3.08662906
Li 6.27988500 2.21679000 -1.0288763500000009 0 0 0
Li 6.27988500 6.65037000 3.08662906
Li 6.27988500 6.65037000 -1.0288763500000009 0 0 0
Sc 2.09329500 0.00000000 1.02887635
Sc 2.09329500 0.00000000 -3.08662906 0 0 0
Sc 2.09329500 4.43358000 1.02887635
Sc 2.09329500 4.43358000 -3.08662906 0 0 0
Sc 6.27988500 0.00000000 1.02887635
Sc 6.27988500 0.00000000 -3.08662906 0 0 0
Sc 6.27988500 4.43358000 1.02887635
Sc 6.27988500 4.43358000 -3.08662906 0 0 0
In 0.00000000 2.21679000 1.02887635
In 0.00000000 2.21679000 -3.08662906 0 0 0
In 0.00000000 6.65037000 1.02887635
In 0.00000000 6.65037000 -3.08662906 0 0 0
In 4.18659000 2.21679000 1.02887635
In 4.18659000 2.21679000 -3.08662906 0 0 0
In 4.18659000 6.65037000 1.02887635
In 4.18659000 6.65037000 -3.08662906 0 0 0
Ga 0.00000000 0.00000000 3.08662906
Ga 0.00000000 0.00000000 -1.0288763500000009 0 0 0
Ga 0.00000000 4.43358000 3.08662906
Ga 0.00000000 4.43358000 -1.0288763500000009 0 0 0
Ga 4.18659000 0.00000000 3.08662906
Ga 4.18659000 0.00000000 -1.0288763500000009 0 0 0
Ga 4.18659000 4.43358000 3.08662906
Ga 4.18659000 4.43358000 -1.0288763500000009 0 0 0
