&CONTROL
calculation = 'relax'
prefix = 'scf'
pseudo_dir = '/vol0004/mdt0/data/hp150275/u10028/POT_KKJUS'
outdir = './data'
tprnfor = .true.
nstep = 50
disk_io = 'non'
/
&SYSTEM
ibrav = 0
ecutwfc = 50.0
ecutrho = 400
occupations = 'smearing'
smearing = 'mp'
degauss = 0.01
assume_isolated = 'esm'
esm_bc = 'bc1'
input_dft = 'BEEF-VDW'
nosym = .true.
nspin = 1
ntyp = 4
nat = 33
/
&ELECTRONS
electron_maxstep = 200
mixing_beta = 0.1
conv_thr = 1e-06
/
&IONS
ion_dynamics = 'bfgs'
upscale = 1.0
/
&CELL
/

K_POINTS {automatic}
9 6 2 0  0  0

ATOMIC_SPECIES
C 12.01 C.pbe-n-rrkjus_psl.1.0.0.UPF
Ga 69.72 Ga.pbe-dnl-rrkjus_psl.1.0.0.UPF
Pd 106.4 Pd.pbe-n-rrkjus_psl.1.0.0.UPF
Sc 44.95 Sc.pbe-spn-rrkjus_psl.1.0.0.UPF

CELL_PARAMETERS {angstrom}
6.43013000 0.00000000 0.00000000
0.00000000 9.09357000 0.00000000
0.00000000 0.00000000 26.82020000

ATOMIC_POSITIONS {angstrom}
Sc 0.00000000 0.00000000 -3.410188429999998 0 0 0
Sc 3.21506500 2.27339250 -1.1366400799999994 0 0 0
Sc 3.21506500 6.82017750 -1.1366400799999994 0 0 0
Sc 0.00000000 4.54678500 -3.410188429999998 0 0 0
Sc 0.01594672 4.57352010 1.11142909
Sc 3.15172822 6.82017750 3.43459481
Sc 3.50184880 2.27339250 3.50995957
Sc 0.01588242 9.06674397 1.11142909
Ga 0.00000000 6.82017750 -1.1366400799999994 0 0 0
Ga 3.21506500 0.00000000 -3.410188429999998 0 0 0
Ga 0.00000000 2.27339250 -1.1366400799999994 0 0 0
Ga 3.21506500 4.54678500 -3.410188429999998 0 0 0
Ga 6.10823769 2.27339250 3.51827384
Ga 3.21448629 4.52777944 1.22407393
Ga 0.08918590 6.82008656 3.39409631
Ga 3.21442199 0.01900556 1.22407393
Pd 1.60753250 0.00000000 -1.1366400799999994 0 0 0
Pd 4.82259750 4.54678500 -1.1366400799999994 0 0 0
Pd 4.82259750 0.00000000 -1.1366400799999994 0 0 0
Pd 1.60753250 4.54678500 -1.1366400799999994 0 0 0
Pd 4.82259750 6.82017750 -3.410188429999998 0 0 0
Pd 1.60753250 2.27339250 -3.410188429999998 0 0 0
Pd 1.60753250 6.82017750 -3.410188429999998 0 0 0
Pd 4.82259750 2.27339250 -3.410188429999998 0 0 0
Pd 1.52162596 4.51041072 3.33294625
Pd 4.91924235 8.96034920 3.29942100
Pd 4.91924235 4.67991486 3.29915280
Pd 1.52162596 0.03637428 3.33267805
Pd 4.82671278 2.27339250 1.06020251
Pd 1.68199341 6.82017750 1.14656355
Pd 1.61647038 2.27348344 1.28656499
Pd 4.79089696 6.82017750 1.14790456
C 1.52259048 2.27339250 3.76019204
