&CONTROL
calculation = 'relax'
prefix = 'scf'
pseudo_dir = '/vol0004/mdt0/data/hp150275/u10028/POT_HYBRID_KKJUS_GBRV'
outdir = './data'
tprnfor = .true.
nstep = 50
disk_io = 'non'
/
&SYSTEM
ibrav = 0
ecutwfc = 50.0
ecutrho = 400
occupations = 'smearing'
smearing = 'mp'
degauss = 0.01
assume_isolated = 'esm'
esm_bc = 'bc1'
input_dft = 'BEEF-VDW'
nosym = .true.
nspin = 2
ntyp = 5
nat = 34
starting_magnetization(1) = 0.0
starting_magnetization(2) = 0.0
starting_magnetization(3) = 0.1
starting_magnetization(4) = 0.1
starting_magnetization(5) = 0.0
/
&ELECTRONS
electron_maxstep = 300
mixing_beta = 0.1
conv_thr = 1e-06
/
&IONS
ion_dynamics = 'bfgs'
upscale = 1.0
/
&CELL
/

K_POINTS {automatic}
9 6 2 0  0  0

ATOMIC_SPECIES
Al 26.98 Al.pbe-nl-rrkjus_psl.1.0.0.UPF
C 12.01 C.pbe-n-rrkjus_psl.1.0.0.UPF
Fe 55.84 fe_pbe_v1.5.uspp.F.UPF
Mn 54.93 mn_pbe_v1.5.uspp.F.UPF
O 15.99 O.pbe-n-rrkjus_psl.1.0.0.UPF

CELL_PARAMETERS {angstrom}
5.79866000 0.00000000 0.00000000
0.00000000 8.20054000 0.00000000
0.00000000 0.00000000 26.15040000

ATOMIC_POSITIONS {angstrom}
Mn 0.00000000 0.00000000 -3.0752870400000027 0 0 0
Mn 2.89933000 2.05013500 -1.0250956799999997 0 0 0
Mn 2.89933000 6.15040500 -1.0250956799999997 0 0 0
Mn 0.00000000 4.10027000 -3.0752870400000027 0 0 0
Mn 0.00000000 4.09871190 1.08576461
Mn 2.89933000 6.15040500 3.00781901
Mn 2.89933000 2.05013500 2.93145984
Mn 0.00000000 0.00155810 1.08576461
Al 0.00000000 6.15040500 -1.0250956799999997 0 0 0
Al 2.89933000 0.00000000 -3.0752870400000027 0 0 0
Al 0.00000000 2.05013500 -1.0250956799999997 0 0 0
Al 2.89933000 4.10027000 -3.0752870400000027 0 0 0
Al 0.00000000 2.05013500 3.00938803
Al 2.89933000 4.11470295 1.02195763
Al 0.00000000 6.15040500 3.05410522
Al 2.89933000 8.18610705 1.02195763
Fe 1.44966500 0.00000000 -1.0250956799999997 0 0 0
Fe 4.34899500 4.10027000 -1.0250956799999997 0 0 0
Fe 4.34899500 0.00000000 -1.0250956799999997 0 0 0
Fe 1.44966500 4.10027000 -1.0250956799999997 0 0 0
Fe 4.34899500 6.15040500 -3.0752870400000027 0 0 0
Fe 1.44966500 2.05013500 -3.0752870400000027 0 0 0
Fe 1.44966500 6.15040500 -3.0752870400000027 0 0 0
Fe 4.34899500 2.05013500 -3.0752870400000027 0 0 0
Fe 1.49338690 4.07099407 3.19217933
Fe 4.30533109 0.02927593 3.19217933
Fe 4.30533109 4.07099407 3.19217933
Fe 1.49332891 0.02927593 3.19217933
Fe 4.34795124 2.05013500 0.99057715
Fe 1.43742983 6.15040500 1.00234483
Fe 1.45070876 2.05005299 0.99057715
Fe 4.36123017 6.15040500 1.00260634
C 2.89933000 2.05013500 4.75571174
O 2.89933000 2.05013500 5.92620365
