&CONTROL
calculation = 'relax'
prefix = 'scf'
pseudo_dir = '/vol0403/data/hp230205/u10028/POT_HYBRID_KKJUS_GBRV'
outdir = './data'
tprnfor = .true.
nstep = 70
disk_io = 'non'
/
&SYSTEM
ibrav = 0
ecutwfc = 50.0
ecutrho = 400
occupations = 'smearing'
smearing = 'mp'
degauss = 0.01
assume_isolated = 'esm'
esm_bc = 'bc1'
input_dft = 'BEEF-VDW'
nosym = .true.
nspin = 1
ntyp = 5
nat = 33
/
&ELECTRONS
electron_maxstep = 200
mixing_beta = 0.1
conv_thr = 1e-06
/
&IONS
ion_dynamics = 'bfgs'
upscale = 1.0
/
&CELL
/

K_POINTS {automatic}
9 6 2 0  0  0

ATOMIC_SPECIES
Ag 107.8 Ag.pbe-n-rrkjus_psl.1.0.0.UPF
C 12.01 C.pbe-n-rrkjus_psl.1.0.0.UPF
Cu 63.54 Cu.pbe-dn-rrkjus_psl.1.0.0.UPF
Li 6.941 Li.pbe-sl-rrkjus_psl.1.0.0.UPF
Sn 118.7 Sn.pbe-dn-rrkjus_psl.1.0.0.UPF


CELL_PARAMETERS {angstrom}
6.43603000 0.00000000 0.00000000
-0.00000000 9.10192000 0.00000000
0.00000000 0.00000000 26.82640000

ATOMIC_POSITIONS {angstrom}
Li 1.60900750 0.00000000 -1.1377076200000005 0 0 0
Li 1.60900750 4.55096000 -1.1377076200000005 0 0 0
Li 4.82702250 2.27548000 -3.4131228699999987 0 0 0
Li 4.82702250 6.82644000 -3.4131228699999987 0 0 0
Li 1.99993196 4.55096000 4.20396514
Li 1.68958660 -0.00000000 4.16909082
Li 4.90682927 6.82516573 1.23642878
Li 4.90682927 2.27675427 1.23642878
Cu 4.82702250 0.00000000 -1.1377076200000005 0 0 0
Cu 4.82702250 4.55096000 -1.1377076200000005 0 0 0
Cu 1.60900750 2.27548000 -3.4131228699999987 0 0 0
Cu 1.60900750 6.82644000 -3.4131228699999987 0 0 0
Cu 4.95452025 4.55096000 3.37315154
Cu 5.41501820 -0.00000000 3.63873290
Cu 1.57740659 6.80677985 1.14709686
Cu 1.57740659 2.29523117 1.14709686
Ag 0.00000000 0.00000000 -3.4131228699999987 0 0 0
Ag 0.00000000 4.55096000 -3.4131228699999987 0 0 0
Ag 3.21801500 6.82644000 -1.1377076200000005 0 0 0
Ag 3.21801500 2.27548000 -1.1377076200000005 0 0 0
Ag 0.06654855 4.55096000 1.14119506
Ag 0.03958158 0.00000000 1.13931721
Ag 3.43445869 2.24080168 3.52498896
Ag 3.43445869 6.86111832 3.52498896
Sn 0.00000000 2.27548000 -1.1377076200000005 0 0 0
Sn 0.00000000 6.82644000 -1.1377076200000005 0 0 0
Sn 3.21801500 4.55096000 -3.4131228699999987 0 0 0
Sn 3.21801500 0.00000000 -3.4131228699999987 0 0 0
Sn 0.18715975 6.69846700 3.60761427
Sn 0.18715975 2.40345300 3.60761427
Sn 3.08021960 -0.00000000 1.13475672
Sn 3.16208590 4.55096000 1.34534396
C 3.56813503 -0.00000000 3.27147948
