&CONTROL
calculation = 'relax'
prefix = 'scf'
pseudo_dir = '/vol0004/mdt0/data/hp150275/u10028/POT_KKJUS'
outdir = './data'
tprnfor = .true.
nstep = 50
disk_io = 'non'
/
&SYSTEM
ibrav = 0
ecutwfc = 50.0
ecutrho = 400
occupations = 'smearing'
smearing = 'mp'
degauss = 0.01
assume_isolated = 'esm'
esm_bc = 'bc1'
input_dft = 'BEEF-VDW'
nosym = .true.
nspin = 1
ntyp = 3
nat = 33
/
&ELECTRONS
electron_maxstep = 200
mixing_beta = 0.1
conv_thr = 1e-06
/
&IONS
ion_dynamics = 'bfgs'
upscale = 1.0
/
&CELL
/

K_POINTS {automatic}
8 6 1 0 0 0

ATOMIC_SPECIES
C 12.01 C.pbe-n-rrkjus_psl.1.0.0.UPF
In 114.8 In.pbe-dn-rrkjus_psl.1.0.0.UPF
Ni 58.69 Ni.pbe-spn-rrkjus_psl.1.0.0.UPF

CELL_PARAMETERS {angstrom}
6.37073000 0.00000000 0.00000000
0.00000000 9.00957000 0.00000000
0.00000000 0.00000000 26.75720000

ATOMIC_POSITIONS {angstrom}
In 0.00000000 0.00000000 -3.378631640000002 0 0 0
In 0.00000000 2.25239250 -1.1262105499999997 0 0 0
In 0.04083638 8.98155024 1.14574330
In 6.07684823 2.25176183 3.36284490
In 0.00000000 4.50478500 -3.378631640000002 0 0 0
In 0.00000000 6.75717750 -1.1262105499999997 0 0 0
In 0.04128233 4.53352553 1.14601088
In 0.08269208 6.75699731 3.64111978
In 3.18536500 0.00000000 -3.378631640000002 0 0 0
In 3.18536500 2.25239250 -1.1262105499999997 0 0 0
In 3.14440121 8.98164033 1.14547573
In 3.47924677 2.25176183 3.36284490
In 3.18536500 4.50478500 -3.378631640000002 0 0 0
In 3.18536500 6.75717750 -1.1262105499999997 0 0 0
In 3.14408267 4.53352553 1.14601088
In 3.10248180 6.75690721 3.64111978
Ni 1.59268250 2.25239250 -3.378631640000002 0 0 0
Ni 1.59268250 0.00000000 -1.1262105499999997 0 0 0
Ni 1.59261879 2.25239250 1.13129442
Ni 1.59261879 0.44345104 3.52365567
Ni 1.59268250 6.75717750 -3.378631640000002 0 0 0
Ni 1.59268250 4.50478500 -1.1262105499999997 0 0 0
Ni 1.59261879 6.75726760 1.08714504
Ni 1.59274621 4.06196463 3.52258538
Ni 4.77804750 2.25239250 -3.378631640000002 0 0 0
Ni 4.77804750 0.00000000 -1.1262105499999997 0 0 0
Ni 4.77811121 2.25266279 0.95442932
Ni 4.77792009 8.82054922 3.18410680
Ni 4.77804750 6.75717750 -3.378631640000002 0 0 0
Ni 4.77804750 4.50478500 -1.1262105499999997 0 0 0
Ni 4.77811121 6.75726760 1.22842305
Ni 4.77798379 4.69398597 3.18437437
C 1.59268250 2.25149154 4.29212245
