&CONTROL
calculation = 'relax'
prefix = 'scf'
pseudo_dir = '/vol0403/data/hp230205/u10028/POT_HYBRID_KKJUS_GBRV'
outdir = './data'
tprnfor = .true.
nstep = 50
disk_io = 'non'
/
&SYSTEM
ibrav = 0
ecutwfc = 50.0
ecutrho = 400
occupations = 'smearing'
smearing = 'mp'
degauss = 0.01
assume_isolated = 'esm'
esm_bc = 'bc1'
input_dft = 'BEEF-VDW'
nosym = .true.
nspin = 2
ntyp = 4
nat = 32
starting_magnetization(1) = 0.0
starting_magnetization(2) = 0.0
starting_magnetization(3) = 0.1
starting_magnetization(4) = 0.0
/
&ELECTRONS
electron_maxstep = 200
mixing_beta = 0.1
conv_thr = 1e-06
/
&IONS
ion_dynamics = 'bfgs'
upscale = 1.0
/
&CELL
/

K_POINTS {automatic}
9 6 2 0  0  0

ATOMIC_SPECIES
Ge 72.64 Ge.pbe-dn-rrkjus_psl.1.0.0.UPF
Li 6.941 Li.pbe-sl-rrkjus_psl.1.0.0.UPF
Mn 54.93 mn_pbe_v1.5.uspp.F.UPF
Pd 106.4 Pd.pbe-n-rrkjus_psl.1.0.0.UPF


CELL_PARAMETERS {angstrom}
6.14713000 0.00000000 0.00000000
0.00000000 8.69336000 0.00000000
0.00000000 0.00000000 26.52000000

ATOMIC_POSITIONS {angstrom}
Li 0.00000000 2.17334000 -1.0867895999999995 0 0 0
Li 0.00000000 6.52002000 -1.0867895999999995 0 0 0
Li 3.07356500 4.34668000 -3.2601036000000008 0 0 0
Li 3.07356500 0.00000000 -3.2601036000000008 0 0 0
Li 6.05473864 6.52002000 3.54121560
Li 6.05473864 2.17334000 3.54121560
Li 3.05358683 0.00000000 0.95259840
Li 3.05358683 4.34668000 0.95259840
Mn 1.53678250 0.00000000 -1.0867895999999995 0 0 0
Mn 1.53678250 4.34668000 -1.0867895999999995 0 0 0
Mn 4.61034750 2.17334000 -3.2601036000000008 0 0 0
Mn 4.61034750 6.52002000 -3.2601036000000008 0 0 0
Mn 1.69857496 4.34668000 3.18399120
Mn 1.69857496 0.00000000 3.18399120
Mn 4.63137068 6.52002000 1.17006240
Mn 4.63137068 2.17334000 1.17006240
Ge 0.00000000 0.00000000 -3.2601036000000008 0 0 0
Ge 0.00000000 4.34668000 -3.2601036000000008 0 0 0
Ge 3.07356500 6.52002000 -1.0867895999999995 0 0 0
Ge 3.07356500 2.17334000 -1.0867895999999995 0 0 0
Ge 0.04518141 4.34668000 1.08201600
Ge 0.04518141 0.00000000 1.08201600
Ge 3.07135203 2.17334000 3.37970880
Ge 3.07135203 6.52002000 3.37970880
Pd 4.61034750 0.00000000 -1.0867895999999995 0 0 0
Pd 4.61034750 4.34668000 -1.0867895999999995 0 0 0
Pd 1.53678250 2.17334000 -3.2601036000000008 0 0 0
Pd 1.53678250 6.52002000 -3.2601036000000008 0 0 0
Pd 4.51254666 4.34668000 3.00816360
Pd 4.51254666 0.00000000 3.00816360
Pd 1.52989771 6.52002000 1.14752040
Pd 1.52995919 2.17334000 1.14752040
