&CONTROL
calculation = 'relax'
prefix = 'scf'
pseudo_dir = '/vol0403/data/hp230205/u10028/POT_HYBRID_KKJUS_GBRV'
outdir = './data'
tprnfor = .true.
nstep = 50
disk_io = 'non'
/
&SYSTEM
ibrav = 0
ecutwfc = 50.0
ecutrho = 400
occupations = 'smearing'
smearing = 'mp'
degauss = 0.01
assume_isolated = 'esm'
esm_bc = 'bc1'
input_dft = 'BEEF-VDW'
nosym = .true.
nspin = 1
ntyp = 5
nat = 33
/
&ELECTRONS
electron_maxstep = 200
mixing_beta = 0.1
conv_thr = 1e-06
/
&IONS
ion_dynamics = 'bfgs'
upscale = 1.0
/
&CELL
/

K_POINTS {automatic}
6 6 1 0 0 0

ATOMIC_SPECIES
Ag 107.8 Ag.pbe-n-rrkjus_psl.1.0.0.UPF
C 12.01 C.pbe-n-rrkjus_psl.1.0.0.UPF
Ge 72.64 Ge.pbe-dn-rrkjus_psl.1.0.0.UPF
Li 6.941 Li.pbe-sl-rrkjus_psl.1.0.0.UPF
Pd 106.4 Pd.pbe-n-rrkjus_psl.1.0.0.UPF


CELL_PARAMETERS {angstrom}
6.28256000 0.00000000 0.00000000
0.00000000 8.88488000 0.00000000
0.00000000 0.00000000 26.66370000

ATOMIC_POSITIONS {angstrom}
Li 1.57064000 0.00000000 -1.1105430999999975 0 0 0
Li 1.57064000 4.44244000 -1.1105430999999975 0 0 0
Li 4.71192000 2.22122000 -3.33189595 0 0 0
Li 4.71192000 6.66366000 -3.33189595 0 0 0
Li 1.49298756 4.55127978 3.56413678
Li 1.49298756 8.77604022 3.56413678
Li 4.64896875 6.66366000 1.02948546
Li 4.65236133 2.22122000 1.10094417
Ag 0.00000000 0.00000000 -3.33189595 0 0 0
Ag 0.00000000 4.44244000 -3.33189595 0 0 0
Ag 3.14128000 6.66366000 -1.1105430999999975 0 0 0
Ag 3.14128000 2.22122000 -1.1105430999999975 0 0 0
Ag 6.17952602 4.48757519 1.21079862
Ag 6.17952602 8.83983366 1.21079862
Ag 2.92804991 2.22122000 3.15884854
Ag 3.26730815 6.66366000 3.38975618
Ge 4.71192000 0.00000000 -1.1105430999999975 0 0 0
Ge 4.71192000 4.44244000 -1.1105430999999975 0 0 0
Ge 1.57064000 2.22122000 -3.33189595 0 0 0
Ge 1.57064000 6.66366000 -3.33189595 0 0 0
Ge 4.84159204 4.22733706 3.89476666
Ge 4.84152921 0.21492525 3.89476666
Ge 1.57566605 6.66366000 1.20519924
Ge 1.58201143 2.22122000 0.90043315
Pd 0.00000000 2.22122000 -1.1105430999999975 0 0 0
Pd 0.00000000 6.66366000 -1.1105430999999975 0 0 0
Pd 3.14128000 4.44244000 -3.33189595 0 0 0
Pd 3.14128000 0.00000000 -3.33189595 0 0 0
Pd 6.18373533 6.66366000 3.19937736
Pd 0.20430885 2.22122000 2.96953627
Pd 3.08392023 8.83432503 1.21746454
Pd 3.08392023 4.49299497 1.21746454
C 4.83556078 2.22113115 4.16966941
