&CONTROL
calculation = 'relax'
prefix = 'scf'
pseudo_dir = '/vol0403/data/hp230205/u10028/POT_HYBRID_KKJUS_GBRV'
outdir = './data'
tprnfor = .true.
nstep = 50
disk_io = 'non'
/
&SYSTEM
ibrav = 0
ecutwfc = 50.0
ecutrho = 400
occupations = 'smearing'
smearing = 'mp'
degauss = 0.01
assume_isolated = 'esm'
esm_bc = 'bc1'
input_dft = 'BEEF-VDW'
nosym = .true.
nspin = 1
ntyp = 5
nat = 33
/
&ELECTRONS
electron_maxstep = 200
mixing_beta = 0.1
conv_thr = 1e-06
/
&IONS
ion_dynamics = 'bfgs'
upscale = 1.0
/
&CELL
/

K_POINTS {automatic}
9 6 2 0  0  0

ATOMIC_SPECIES
Ag 107.8 Ag.pbe-n-rrkjus_psl.1.0.0.UPF
C 12.01 C.pbe-n-rrkjus_psl.1.0.0.UPF
Ge 72.64 Ge.pbe-dn-rrkjus_psl.1.0.0.UPF
Li 6.941 Li.pbe-sl-rrkjus_psl.1.0.0.UPF
Pd 106.4 Pd.pbe-n-rrkjus_psl.1.0.0.UPF


CELL_PARAMETERS {angstrom}
6.28256000 0.00000000 0.00000000
0.00000000 8.88488000 0.00000000
0.00000000 0.00000000 26.66370000

ATOMIC_POSITIONS {angstrom}
Li 1.57064000 0.00000000 -1.1105430999999975 0 0 0
Li 1.57064000 4.44244000 -1.1105430999999975 0 0 0
Li 4.71192000 2.22122000 -3.33189595 0 0 0
Li 4.71192000 6.66366000 -3.33189595 0 0 0
Li 1.49405559 4.55119093 3.56440342
Li 1.49405559 8.77612907 3.56440342
Li 4.64909440 6.66366000 1.02948546
Li 4.65267546 2.22122000 1.10174408
Ag 0.00000000 0.00000000 -3.33189595 0 0 0
Ag 0.00000000 4.44244000 -3.33189595 0 0 0
Ag 3.14128000 6.66366000 -1.1105430999999975 0 0 0
Ag 3.14128000 2.22122000 -1.1105430999999975 0 0 0
Ag 6.17952602 4.48721980 1.21159853
Ag 6.17952602 8.84010020 1.21159853
Ag 2.92880382 2.22122000 3.15778199
Ag 3.26749663 6.66366000 3.38895627
Ge 4.71192000 0.00000000 -1.1105430999999975 0 0 0
Ge 4.71192000 4.44244000 -1.1105430999999975 0 0 0
Ge 1.57064000 2.22122000 -3.33189595 0 0 0
Ge 1.57064000 6.66366000 -3.33189595 0 0 0
Ge 4.84234595 4.22813669 3.89876621
Ge 4.84228312 0.21412561 3.89876621
Ge 1.57522627 6.66366000 1.20546588
Ge 1.58232556 2.22122000 0.90043315
Pd 0.00000000 2.22122000 -1.1105430999999975 0 0 0
Pd 0.00000000 6.66366000 -1.1105430999999975 0 0 0
Pd 3.14128000 4.44244000 -3.33189595 0 0 0
Pd 3.14128000 0.00000000 -3.33189595 0 0 0
Pd 6.18373533 6.66366000 3.19937736
Pd 0.20512558 2.22122000 2.96846972
Pd 3.08373175 8.83459158 1.21586472
Pd 3.08379458 4.49272842 1.21586472
C 4.83587491 2.22113115 4.17100259
