&CONTROL
calculation = 'relax'
prefix = 'scf'
pseudo_dir = '/vol0004/mdt0/data/hp150275/u10028/POT_HYBRID_KKJUS_GBRV'
outdir = './data'
tprnfor = .true.
nstep = 50
disk_io = 'non'
/
&SYSTEM
ibrav = 0
ecutwfc = 50.0
ecutrho = 400
occupations = 'smearing'
smearing = 'mp'
degauss = 0.01
assume_isolated = 'esm'
esm_bc = 'bc1'
input_dft = 'BEEF-VDW'
nosym = .true.
nspin = 2
ntyp = 3
nat = 33
starting_magnetization(1) = 0.1
starting_magnetization(2) = 0.1
starting_magnetization(3) = 0.1
/
&ELECTRONS
electron_maxstep = 200
mixing_beta = 0.1
conv_thr = 1e-06
/
&IONS
ion_dynamics = 'bfgs'
upscale = 1.0
/
&CELL
/

K_POINTS {automatic}
8 6 1 0 0 0

ATOMIC_SPECIES
C 12.01 C.pbe-n-rrkjus_psl.1.0.0.UPF
Mn 54.93 mn_pbe_v1.5.uspp.F.UPF
Pd 106.4 Pd.pbe-n-rrkjus_psl.1.0.0.UPF

CELL_PARAMETERS {angstrom}
6.32195000 0.00000000 0.00000000
0.00000000 8.94058000 0.00000000
0.00000000 0.00000000 26.70540000

ATOMIC_POSITIONS {angstrom}
Mn 0.00000000 0.00000000 -3.3525959200000024 0 0 0
Mn 0.00000000 2.23514500 -1.1176209900000025 0 0 0
Mn 6.31948444 4.47341920 1.11949037
Mn 6.10561287 2.23514500 3.44633187
Mn 0.00000000 4.47029000 -3.3525959200000024 0 0 0
Mn 0.00000000 6.70543500 -1.1176209900000025 0 0 0
Mn 6.31948444 8.93745080 1.11949037
Mn 0.04444331 6.70543500 3.39799510
Mn 3.16097500 0.00000000 -3.3525959200000024 0 0 0
Mn 3.16097500 2.23514500 -1.1176209900000025 0 0 0
Mn 3.16344056 4.47341920 1.11949037
Mn 3.37731213 2.23514500 3.44633187
Mn 3.16097500 4.47029000 -3.3525959200000024 0 0 0
Mn 3.16097500 6.70543500 -1.1176209900000025 0 0 0
Mn 3.16344056 8.93745080 1.11949037
Mn 3.11653169 6.70543500 3.39799510
Pd 1.58048750 2.23514500 -3.3525959200000024 0 0 0
Pd 1.58048750 0.00000000 -1.1176209900000025 0 0 0
Pd 1.58048750 2.23514500 1.15233801
Pd 1.58048750 0.07930294 3.28609947
Pd 1.58048750 6.70543500 -3.3525959200000024 0 0 0
Pd 1.58048750 4.47029000 -1.1176209900000025 0 0 0
Pd 1.58048750 6.70543500 1.15848025
Pd 1.58048750 4.39098706 3.28609947
Pd 4.74146250 2.23514500 -3.3525959200000024 0 0 0
Pd 4.74146250 0.00000000 -1.1176209900000025 0 0 0
Pd 4.74146250 2.23514500 1.11414929
Pd 4.74146250 8.87844297 3.24817780
Pd 4.74146250 6.70543500 -3.3525959200000024 0 0 0
Pd 4.74146250 4.47029000 -1.1176209900000025 0 0 0
Pd 4.74146250 6.70543500 1.12937137
Pd 4.74146250 4.53242703 3.24817780
C 1.58048750 2.23514500 3.79697377
