&CONTROL
calculation = 'relax'
prefix = 'scf'
pseudo_dir = '/vol0004/mdt0/data/hp150275/u10028/POT_HYBRID_KKJUS_GBRV'
outdir = './data'
tprnfor = .true.
nstep = 50
disk_io = 'non'
/
&SYSTEM
ibrav = 0
ecutwfc = 50.0
ecutrho = 400
occupations = 'smearing'
smearing = 'mp'
degauss = 0.01
assume_isolated = 'esm'
esm_bc = 'bc1'
input_dft = 'BEEF-VDW'
nosym = .true.
nspin = 2
ntyp = 3
nat = 17
starting_magnetization(1) = 0.0
starting_magnetization(2) = 0.0
starting_magnetization(3) = 0.1
/
&ELECTRONS
electron_maxstep = 200
mixing_beta = 0.1
conv_thr = 1e-06
/
&IONS
ion_dynamics = 'bfgs'
upscale = 1.0
/
&CELL
/

K_POINTS {automatic}
10 10 2 0  0  0

ATOMIC_SPECIES
C 12.01 C.pbe-n-rrkjus_psl.1.0.0.UPF
Ga 69.72 Ga.pbe-dnl-rrkjus_psl.1.0.0.UPF
Mn 54.93 mn_pbe_v1.5.uspp.F.UPF

CELL_PARAMETERS {angstrom}
5.44570000 0.00000000 0.00000000
-0.00000000 5.44570000 0.00000000
0.00000000 0.00000000 25.51780000

ATOMIC_POSITIONS {angstrom}
Mn 0.00000000 0.00000000 -2.649768350000002 0 0 0
Mn 0.00000000 0.00000000 1.02862252
Mn 0.00000000 2.72285000 -2.649768350000002 0 0 0
Mn 0.00000000 2.72285000 1.02862252
Mn 2.72285000 0.00000000 -2.649768350000002 0 0 0
Mn 2.72285000 -0.00000000 1.02862252
Mn 2.72285000 2.72285000 -2.649768350000002 0 0 0
Mn 2.72285000 2.72285000 1.02862252
Ga 1.36142500 1.36142500 -0.8104453300000003 0 0 0
Ga 1.36142500 1.36142500 2.86794554
Ga 1.36142500 4.08427500 -0.8104453300000003 0 0 0
Ga 1.36142500 4.08427500 2.86794554
Ga 4.08427500 1.36142500 -0.8104453300000003 0 0 0
Ga 4.08427500 1.36142500 2.86794554
Ga 4.08427500 4.08427500 -0.8104453300000003 0 0 0
Ga 4.08427500 4.08427500 2.86794554
C 0.00000000 0.00000000 3.66792857
