&CONTROL
calculation = 'relax'
prefix = 'scf'
pseudo_dir = '/vol0004/mdt0/data/hp150275/u10028/POT_KKJUS'
outdir = './data'
tprnfor = .true.
nstep = 50
disk_io = 'non'
/
&SYSTEM
ibrav = 0
ecutwfc = 50.0
ecutrho = 400
occupations = 'smearing'
smearing = 'mp'
degauss = 0.01
assume_isolated = 'esm'
esm_bc = 'bc1'
input_dft = 'BEEF-VDW'
nosym = .true.
nspin = 1
ntyp = 2
nat = 16
/
&ELECTRONS
electron_maxstep = 200
mixing_beta = 0.1
conv_thr = 1e-06
/
&IONS
ion_dynamics = 'bfgs'
upscale = 1.0
/
&CELL
/

K_POINTS {automatic}
10 10 2 0  0  0

ATOMIC_SPECIES
Li 6.941 Li.pbe-sl-rrkjus_psl.1.0.0.UPF
Sb 121.7 Sb.pbe-n-rrkjus_psl.1.0.0.UPF

CELL_PARAMETERS {angstrom}
6.56971000 0.00000000 0.00000000
-0.00000000 6.56971000 0.00000000
0.00000000 0.00000000 24.92730000

ATOMIC_POSITIONS {angstrom}
Li 1.64242750 1.64242750 -0.8211052599999995 0 0 0
Li 4.92728250 4.92728250 2.46356506
Li 4.92728250 1.64242750 -0.8211052599999995 0 0 0
Li 1.64242750 4.92728250 2.46356506
Li 4.92728250 4.92728250 -0.8211052599999995 0 0 0
Li 1.64242750 1.64242750 2.46356506
Li 1.64242750 4.92728250 -0.8211052599999995 0 0 0
Li 4.92728250 1.64242750 2.46356506
Li 0.00000000 0.00000000 0.82110526
Li 3.28485500 0.00000000 -2.4635650600000005 0 0 0
Li 0.00000000 3.28485500 -2.4635650600000005 0 0 0
Li 3.28485500 3.28485500 0.82110526
Sb 0.00000000 0.00000000 -2.4635650600000005 0 0 0
Sb 3.28485500 3.28485500 -2.4635650600000005 0 0 0
Sb 3.28485500 -0.00000000 0.82110526
Sb 0.00000000 3.28485500 0.82110526
