&CONTROL
calculation = 'relax'
prefix = 'scf'
pseudo_dir = '/vol0004/mdt0/data/hp150275/u10028/POT_KKJUS'
outdir = './data'
tprnfor = .true.
nstep = 50
disk_io = 'non'
/
&SYSTEM
ibrav = 0
ecutwfc = 50.0
ecutrho = 400
occupations = 'smearing'
smearing = 'mp'
degauss = 0.01
assume_isolated = 'esm'
esm_bc = 'bc1'
input_dft = 'BEEF-VDW'
nosym = .true.
nspin = 1
ntyp = 4
nat = 34
/
&ELECTRONS
electron_maxstep = 200
mixing_beta = 0.1
conv_thr = 1e-06
/
&IONS
ion_dynamics = 'bfgs'
upscale = 1.0
/
&CELL
/

K_POINTS {automatic}
9 6 2 0  0  0

ATOMIC_SPECIES
C 12.01 C.pbe-n-rrkjus_psl.1.0.0.UPF
Ir 192.2 Ir.pbe-n-rrkjus_psl.0.2.3.UPF
O 15.99 O.pbe-n-rrkjus_psl.1.0.0.UPF
Ti 47.86 Ti.pbe-spn-rrkjus_psl.1.0.0.UPF

CELL_PARAMETERS {angstrom}
6.26165000 0.00000000 0.00000000
0.00000000 8.85530000 0.00000000
0.00000000 0.00000000 26.64150000

ATOMIC_POSITIONS {angstrom}
Ti 1.56541250 2.21382500 -3.320862980000001 0 0 0
Ti 1.56541250 0.00000000 -1.1069543199999998 0 0 0
Ti 1.59778523 2.21382500 1.11627885
Ti 1.60987022 8.81075784 3.39093012
Ti 1.56541250 6.64147500 -3.320862980000001 0 0 0
Ti 1.56541250 4.42765000 -1.1069543199999998 0 0 0
Ti 1.53109866 6.64147500 1.10215885
Ti 1.60987022 4.47219216 3.39066371
Ti 4.69623750 2.21382500 -3.320862980000001 0 0 0
Ti 4.69623750 0.00000000 -1.1069543199999998 0 0 0
Ti 4.66380215 2.21382500 1.11627885
Ti 4.65177979 8.81075784 3.39093012
Ti 4.69623750 6.64147500 -3.320862980000001 0 0 0
Ti 4.69623750 4.42765000 -1.1069543199999998 0 0 0
Ti 4.73055134 6.64147500 1.10215885
Ti 4.65177979 4.47219216 3.39066371
Ir 0.00000000 0.00000000 -3.320862980000001 0 0 0
Ir 0.00000000 2.21382500 -1.1069543199999998 0 0 0
Ir 0.00000000 0.12140616 1.24948635
Ir 0.00000000 2.21373645 3.38480258
Ir 0.00000000 4.42765000 -3.320862980000001 0 0 0
Ir 0.00000000 6.64147500 -1.1069543199999998 0 0 0
Ir 0.00000000 4.30624384 1.24948635
Ir 0.00000000 6.64156355 3.16607586
Ir 3.13082500 0.00000000 -3.320862980000001 0 0 0
Ir 3.13082500 2.21382500 -1.1069543199999998 0 0 0
Ir 3.13082500 8.80287662 1.08084566
Ir 3.13082500 2.21373645 3.13330682
Ir 3.13082500 4.42765000 -3.320862980000001 0 0 0
Ir 3.13082500 6.64147500 -1.1069543199999998 0 0 0
Ir 3.13082500 4.48007338 1.08084566
Ir 3.13082500 6.64156355 3.12717927
C 0.00000000 2.21382500 5.25903210
O 0.00000000 2.21382500 6.42539697
