&CONTROL
calculation = 'relax'
prefix = 'scf'
pseudo_dir = '/vol0004/mdt0/data/hp150275/u10028/POT_HYBRID_KKJUS_GBRV'
outdir = './data'
tprnfor = .true.
nstep = 50
disk_io = 'non'
/
&SYSTEM
ibrav = 0
ecutwfc = 50.0
ecutrho = 400
occupations = 'smearing'
smearing = 'mp'
degauss = 0.01
assume_isolated = 'esm'
esm_bc = 'bc1'
input_dft = 'BEEF-VDW'
nosym = .true.
nspin = 2
ntyp = 3
nat = 32
starting_magnetization(1) = 0.0
starting_magnetization(2) = 0.001
starting_magnetization(3) = 0.0
/
&ELECTRONS
electron_maxstep = 300
mixing_beta = 0.1
conv_thr = 1e-06
/
&IONS
ion_dynamics = 'bfgs'
upscale = 1.0
/
&CELL
/

K_POINTS {automatic}
9 6 2 0  0  0

ATOMIC_SPECIES
Cu 63.54 Cu.pbe-dn-rrkjus_psl.1.0.0.UPF
Ni 58.69 ni_pbe_v1.4.uspp.F.UPF
Sb 121.7 Sb.pbe-n-rrkjus_psl.1.0.0.UPF

CELL_PARAMETERS {angstrom}
6.01864000 0.00000000 0.00000000
0.00000000 8.51164000 0.00000000
0.00000000 0.00000000 26.38370000

ATOMIC_POSITIONS {angstrom}
Cu 0.00000000 0.00000000 -3.1919000299999993 0 0 0
Cu 3.00932000 2.12791000 -1.0640546200000003 0 0 0
Cu 3.00932000 6.38373000 -1.0640546200000003 0 0 0
Cu 0.00000000 4.25582000 -3.1919000299999993 0 0 0
Cu 0.00000000 4.25590512 0.94189809
Cu 3.00932000 6.38364488 3.15390750
Cu 3.00932000 2.12799512 3.15417134
Cu 0.00000000 8.51155488 0.94163425
Ni 1.50466000 0.00000000 -1.0640546200000003 0 0 0
Ni 4.51398000 4.25582000 -1.0640546200000003 0 0 0
Ni 4.51398000 0.00000000 -1.0640546200000003 0 0 0
Ni 1.50466000 4.25582000 -1.0640546200000003 0 0 0
Ni 4.51398000 6.38373000 -3.1919000299999993 0 0 0
Ni 1.50466000 2.12791000 -3.1919000299999993 0 0 0
Ni 1.50466000 6.38373000 -3.1919000299999993 0 0 0
Ni 4.51398000 2.12791000 -3.1919000299999993 0 0 0
Ni 1.38717615 4.25590512 2.96288951
Ni 4.63170460 8.51155488 2.96288951
Ni 4.63146385 4.25590512 2.96288951
Ni 1.38693540 8.51155488 2.96288951
Ni 4.61882471 2.12825047 1.18067057
Ni 1.39981529 6.38338953 1.18067057
Ni 1.39981529 2.12825047 1.18067057
Ni 4.61882471 6.38338953 1.18040674
Sb 0.00000000 6.38373000 -1.0640546200000003 0 0 0
Sb 3.00932000 0.00000000 -3.1919000299999993 0 0 0
Sb 0.00000000 2.12791000 -1.0640546200000003 0 0 0
Sb 3.00932000 4.25582000 -3.1919000299999993 0 0 0
Sb 0.00000000 2.12791000 3.54412242
Sb 3.00932000 4.25582000 1.03687941
Sb 0.00000000 6.38373000 3.54412242
Sb 3.00932000 0.00000000 1.03714325
