&CONTROL
calculation = 'relax'
prefix = 'scf'
pseudo_dir = '/vol0004/mdt0/data/hp150275/u10028/POT_KKJUS'
outdir = './data'
tprnfor = .true.
nstep = 50
disk_io = 'non'
/
&SYSTEM
ibrav = 0
ecutwfc = 50.0
ecutrho = 400
occupations = 'smearing'
smearing = 'mp'
degauss = 0.01
assume_isolated = 'esm'
esm_bc = 'bc1'
input_dft = 'BEEF-VDW'
nosym = .true.
nspin = 1
ntyp = 5
nat = 18
/
&ELECTRONS
electron_maxstep = 200
mixing_beta = 0.1
conv_thr = 1e-06
/
&IONS
ion_dynamics = 'bfgs'
upscale = 1.0
/
&CELL
/

K_POINTS {automatic}
9 9 2 0  0  0

ATOMIC_SPECIES
C 12.01 C.pbe-n-rrkjus_psl.1.0.0.UPF
Li 6.941 Li.pbe-sl-rrkjus_psl.1.0.0.UPF
O 15.99 O.pbe-n-rrkjus_psl.1.0.0.UPF
Pt 195.0 Pt.pbe-n-rrkjus_psl.1.0.0.UPF
Sb 121.7 Sb.pbe-n-rrkjus_psl.1.0.0.UPF

CELL_PARAMETERS {angstrom}
6.40528000 0.00000000 0.00000000
0.00000000 6.40528000 0.00000000
0.00000000 0.00000000 24.80400000

ATOMIC_POSITIONS {angstrom}
Li 6.38676874 0.01851126 0.72154836
Li 3.20264000 0.00000000 -2.402019359999997 0 0 0
Li 0.00000000 3.20264000 -2.402019359999997 0 0 0
Li 3.22115126 3.18412874 0.72154836
Li 1.60132000 1.60132000 2.70785268
Li 1.60132000 4.80396000 -0.800673119999999 0 0 0
Li 4.80396000 4.80396000 2.70785268
Li 4.80396000 1.60132000 -0.800673119999999 0 0 0
Sb 0.00000000 0.00000000 -2.402019359999997 0 0 0
Sb 3.20264000 3.20264000 -2.402019359999997 0 0 0
Sb 3.27002355 0.06738355 0.84482424
Sb 6.33789645 3.13525645 0.84482424
Pt 1.60132000 1.60132000 -0.800673119999999 0 0 0
Pt 1.60132000 4.80396000 1.98580824
Pt 4.80396000 4.80396000 -0.800673119999999 0 0 0
Pt 4.80396000 1.60132000 2.48709708
C 4.80396000 1.60132000 4.37765796
O 4.80402405 1.60125595 5.54096556
