&CONTROL
calculation = 'relax'
prefix = 'scf'
pseudo_dir = '/vol0403/data/hp230205/u10028/POT_HYBRID_KKJUS_GBRV'
outdir = './data'
tprnfor = .true.
nstep = 70
disk_io = 'non'
/
&SYSTEM
ibrav = 0
ecutwfc = 50.0
ecutrho = 400
occupations = 'smearing'
smearing = 'mp'
degauss = 0.01
assume_isolated = 'esm'
esm_bc = 'bc1'
input_dft = 'BEEF-VDW'
nosym = .true.
nspin = 1
ntyp = 6
nat = 18
/
&ELECTRONS
electron_maxstep = 200
mixing_beta = 0.1
conv_thr = 1e-06
/
&IONS
ion_dynamics = 'bfgs'
upscale = 1.0
/
&CELL
/

K_POINTS {automatic}
6 6 1 0 0 0

ATOMIC_SPECIES
Al 26.98 Al.pbe-nl-rrkjus_psl.1.0.0.UPF
C 12.01 C.pbe-n-rrkjus_psl.1.0.0.UPF
In 114.8 In.pbe-dn-rrkjus_psl.1.0.0.UPF
O 15.99 O.pbe-n-rrkjus_psl.1.0.0.UPF
Pd 106.4 Pd.pbe-n-rrkjus_psl.1.0.0.UPF
Y 88.90 Y.pbe-spn-rrkjus_psl.1.0.0.UPF


CELL_PARAMETERS {angstrom}
6.15545000 0.00000000 0.00000000
-0.00000000 8.86460000 0.00000000
0.00000000 0.00000000 24.58270000

ATOMIC_POSITIONS {angstrom}
Y 2.49000263 -0.00000000 2.65566908
Y 5.78322994 0.00000000 -0.763784489999999 0 0 0
Y 3.23869002 4.43256594 2.21957198
Y 5.78322994 4.43230000 -0.763784489999999 0 0 0
Al 5.48345952 -0.00000000 2.16770249
Al 2.70550494 0.00000000 -0.763784489999999 0 0 0
Al 0.15640998 4.43194542 2.24956288
Al 2.70550494 4.43230000 -0.763784489999999 0 0 0
In 1.38503780 2.21490896 0.71511074
In 4.05822663 2.21615000 -2.2913534700000007 0 0 0
In 1.38448381 6.64977969 0.71535657
In 4.05822663 6.64845000 -2.2913534700000007 0 0 0
Pd 4.37634029 2.06385617 0.96511680
Pd 0.98050163 2.21615000 -2.2913534700000007 0 0 0
Pd 4.37640184 6.80056654 0.96487097
Pd 0.98050163 6.64845000 -2.2913534700000007 0 0 0
C 0.24812619 8.86433406 3.87669179
O 1.11198204 8.86442271 4.74593606
