&CONTROL
calculation = 'relax'
prefix = 'scf'
pseudo_dir = '/vol0004/mdt0/data/hp150275/u10028/POT_KKJUS'
outdir = './data'
tprnfor = .true.
nstep = 50
disk_io = 'non'
/
&SYSTEM
ibrav = 0
ecutwfc = 50.0
ecutrho = 400
occupations = 'smearing'
smearing = 'mp'
degauss = 0.01
assume_isolated = 'esm'
esm_bc = 'bc1'
input_dft = 'BEEF-VDW'
nosym = .true.
nspin = 1
ntyp = 4
nat = 17
/
&ELECTRONS
electron_maxstep = 200
mixing_beta = 0.1
conv_thr = 1e-06
/
&IONS
ion_dynamics = 'bfgs'
upscale = 1.0
/
&CELL
/

K_POINTS {automatic}
10 10 2 0  0  0

ATOMIC_SPECIES
C 12.01 C.pbe-n-rrkjus_psl.1.0.0.UPF
Cu 63.54 Cu.pbe-dn-rrkjus_psl.1.0.0.UPF
Ni 58.69 Ni.pbe-spn-rrkjus_psl.1.0.0.UPF
Sb 121.7 Sb.pbe-n-rrkjus_psl.1.0.0.UPF

CELL_PARAMETERS {angstrom}
6.01864000 0.00000000 0.00000000
0.00000000 6.01864000 0.00000000
0.00000000 0.00000000 24.51400000

ATOMIC_POSITIONS {angstrom}
Cu 0.07914512 0.07878400 2.24866922
Cu 2.91976264 2.92000338 2.26754500
Cu 3.00932000 0.00000000 -0.7523346599999989 0 0 0
Cu 0.00000000 3.00932000 -0.7523346599999989 0 0 0
Ni 1.50550261 1.50797025 0.72733038
Ni 4.51398000 4.51398000 -2.2570039800000004 0 0 0
Ni 4.50814192 1.51206293 0.90137978
Ni 1.50466000 4.51398000 -2.2570039800000004 0 0 0
Ni 4.50886416 4.50832248 0.78591884
Ni 1.50466000 1.50466000 -2.2570039800000004 0 0 0
Ni 1.51272498 4.50832248 0.89868324
Ni 4.51398000 1.50466000 -2.2570039800000004 0 0 0
Sb 0.00000000 0.00000000 -0.7523346599999989 0 0 0
Sb 3.13384566 5.89610049 2.57176374
Sb 5.89652179 3.13432715 2.57151860
Sb 3.00932000 3.00932000 -0.7523346599999989 0 0 0
C 1.49503018 1.49503018 2.62397856
