&CONTROL
calculation = 'relax'
prefix = 'scf'
pseudo_dir = '/vol0004/mdt0/data/hp150275/u10028/POT_KKJUS'
outdir = './data'
tprnfor = .true.
nstep = 50
disk_io = 'non'
/
&SYSTEM
ibrav = 0
ecutwfc = 50.0
ecutrho = 400
occupations = 'smearing'
smearing = 'mp'
degauss = 0.01
assume_isolated = 'esm'
esm_bc = 'bc1'
input_dft = 'BEEF-VDW'
nosym = .true.
nspin = 1
ntyp = 5
nat = 34
/
&ELECTRONS
electron_maxstep = 200
mixing_beta = 0.1
conv_thr = 1e-06
/
&IONS
ion_dynamics = 'bfgs'
upscale = 1.0
/
&CELL
/

K_POINTS {automatic}
9 6 2 0  0  0

ATOMIC_SPECIES
C 12.01 C.pbe-n-rrkjus_psl.1.0.0.UPF
In 114.8 In.pbe-dn-rrkjus_psl.1.0.0.UPF
Ir 192.2 Ir.pbe-n-rrkjus_psl.0.2.3.UPF
Li 6.941 Li.pbe-sl-rrkjus_psl.1.0.0.UPF
O 15.99 O.pbe-n-rrkjus_psl.1.0.0.UPF

CELL_PARAMETERS {angstrom}
6.34973000 0.00000000 0.00000000
0.00000000 8.97987000 0.00000000
0.00000000 0.00000000 26.73490000

ATOMIC_POSITIONS {angstrom}
Li 0.00000000 6.73490250 -1.1225984499999981 0 0 0
Li 3.17486500 0.00000000 -3.367528 0 0 0
Li 0.00000000 2.24496750 -1.1225984499999981 0 0 0
Li 3.17486500 4.48993500 -3.367528 0 0 0
Li 1.58743250 0.00000000 -1.1225984499999981 0 0 0
Li 1.58743250 4.48993500 -1.1225984499999981 0 0 0
Li 4.76229750 6.73490250 -3.367528 0 0 0
Li 4.76229750 2.24496750 -3.367528 0 0 0
Li 0.07429184 2.24505730 3.34801153
Li 3.15537133 4.50205782 1.11190449
Li 6.20711506 6.73499230 3.25764757
Li 3.15543483 8.96774718 1.11190449
Li 1.67512227 4.58206847 3.55841519
Li 1.67505877 8.88782633 3.55814784
Li 4.75436034 2.24496750 1.07741647
Li 4.72108775 6.73490250 1.05977144
In 1.58743250 2.24496750 -3.367528 0 0 0
In 1.58743250 6.73490250 -3.367528 0 0 0
In 4.76229750 4.48993500 -1.1225984499999981 0 0 0
In 4.76229750 0.00000000 -1.1225984499999981 0 0 0
In 1.53441225 6.73490250 1.08035731
In 1.54971510 2.24496750 1.06404902
In 4.64508148 0.03753586 3.47259616
In 4.64508148 4.45248894 3.47259616
Ir 0.00000000 0.00000000 -3.367528 0 0 0
Ir 3.17486500 2.24496750 -1.1225984499999981 0 0 0
Ir 3.17486500 6.73490250 -1.1225984499999981 0 0 0
Ir 0.00000000 4.48993500 -3.367528 0 0 0
Ir 6.30350397 4.48670225 1.26322402
Ir 3.24344208 6.73499230 3.15257941
Ir 3.00475573 2.24505730 3.40495686
Ir 6.30344047 0.00323275 1.26322402
C 2.18227521 2.24496750 5.06412476
O 1.64889789 2.24496750 6.11266754
