&CONTROL
calculation = 'relax'
prefix = 'scf'
pseudo_dir = '/vol0004/mdt0/data/hp150275/u10028/POT_KKJUS'
outdir = './data'
tprnfor = .true.
nstep = 50
disk_io = 'non'
/
&SYSTEM
ibrav = 0
ecutwfc = 50.0
ecutrho = 400
occupations = 'smearing'
smearing = 'mp'
degauss = 0.01
assume_isolated = 'esm'
esm_bc = 'bc1'
input_dft = 'BEEF-VDW'
nosym = .true.
nspin = 1
ntyp = 3
nat = 32
/
&ELECTRONS
electron_maxstep = 200
mixing_beta = 0.1
conv_thr = 1e-06
/
&IONS
ion_dynamics = 'bfgs'
upscale = 1.0
/
&CELL
/

K_POINTS {automatic}
9 6 2 0  0  0

ATOMIC_SPECIES
Ag 107.8 Ag.pbe-n-rrkjus_psl.1.0.0.UPF
In 114.8 In.pbe-dn-rrkjus_psl.1.0.0.UPF
Y 88.90 Y.pbe-spn-rrkjus_psl.1.0.0.UPF

CELL_PARAMETERS {angstrom}
7.06522000 0.00000000 0.00000000
0.00000000 9.99173000 0.00000000
0.00000000 0.00000000 27.49380000

ATOMIC_POSITIONS {angstrom}
Y 0.00000000 0.00000000 -3.7468550600000015 0 0 0
Y 3.53261000 2.49793250 -1.2490433299999992 0 0 0
Y 3.53261000 7.49379750 -1.2490433299999992 0 0 0
Y 0.00000000 4.99586500 -3.7468550600000015 0 0 0
Y 0.00000000 4.99586500 1.29358329
Y 3.53261000 7.49399733 3.70176523
Y 3.53261000 2.49773267 3.70176523
Y 0.00000000 0.00000000 1.29358329
In 0.00000000 7.49379750 -1.2490433299999992 0 0 0
In 3.53261000 0.00000000 -3.7468550600000015 0 0 0
In 0.00000000 2.49793250 -1.2490433299999992 0 0 0
In 3.53261000 4.99586500 -3.7468550600000015 0 0 0
In 0.00000000 2.49833217 3.71826151
In 3.53261000 4.99586500 1.26581455
In 0.00000000 7.49339783 3.71826151
In 3.53261000 0.00000000 1.26608949
Ag 1.76630500 0.00000000 -1.2490433299999992 0 0 0
Ag 5.29891500 4.99586500 -1.2490433299999992 0 0 0
Ag 5.29891500 0.00000000 -1.2490433299999992 0 0 0
Ag 1.76630500 4.99586500 -1.2490433299999992 0 0 0
Ag 5.29891500 7.49379750 -3.7468550600000015 0 0 0
Ag 1.76630500 2.49793250 -3.7468550600000015 0 0 0
Ag 1.76630500 7.49379750 -3.7468550600000015 0 0 0
Ag 5.29891500 2.49793250 -3.7468550600000015 0 0 0
Ag 1.71303324 4.99586500 3.86480347
Ag 5.35289328 0.00000000 3.86480347
Ag 5.35225741 4.99586500 3.86480347
Ag 1.71232672 0.00000000 3.86480347
Ag 5.28202912 2.49803242 1.23144730
Ag 1.78319088 7.49369758 1.23144730
Ag 1.78319088 2.49803242 1.23144730
Ag 5.28195847 7.49369758 1.23144730
