&CONTROL
calculation = 'relax'
prefix = 'scf'
pseudo_dir = '/vol0403/data/hp230205/u10028/POT_HYBRID_KKJUS_GBRV'
outdir = './data'
tprnfor = .true.
nstep = 50
disk_io = 'non'
/
&SYSTEM
ibrav = 0
ecutwfc = 50.0
ecutrho = 400
occupations = 'smearing'
smearing = 'mp'
degauss = 0.01
assume_isolated = 'esm'
esm_bc = 'bc1'
input_dft = 'BEEF-VDW'
nosym = .true.
nspin = 1
ntyp = 6
nat = 34
/
&ELECTRONS
electron_maxstep = 200
mixing_beta = 0.1
conv_thr = 1e-06
/
&IONS
ion_dynamics = 'bfgs'
upscale = 1.0
/
&CELL
/

K_POINTS {automatic}
6 6 1 0 0 0

ATOMIC_SPECIES
C 12.01 C.pbe-n-rrkjus_psl.1.0.0.UPF
In 114.8 In.pbe-dn-rrkjus_psl.1.0.0.UPF
Mg 24.30 Mg.pbe-spnl-rrkjus_psl.1.0.0.UPF
O 15.99 O.pbe-n-rrkjus_psl.1.0.0.UPF
Pd 106.4 Pd.pbe-n-rrkjus_psl.1.0.0.UPF
Y 88.90 Y.pbe-spn-rrkjus_psl.1.0.0.UPF


CELL_PARAMETERS {angstrom}
6.99626000 0.00000000 0.00000000
0.00000000 9.89420000 0.00000000
0.00000000 0.00000000 27.42070000

ATOMIC_POSITIONS {angstrom}
Y 5.24719500 0.00000000 -1.2366735700000007 0 0 0
Y 5.24719500 4.94710000 -1.2366735700000007 0 0 0
Y 1.74906500 2.47355000 -3.710294919999999 0 0 0
Y 1.74906500 7.42065000 -3.710294919999999 0 0 0
Y 5.14791807 4.94710000 3.92061169
Y 5.17149547 0.00000000 3.85343097
Y 1.80251643 7.37958907 1.30467691
Y 1.80251643 2.51461093 1.30467691
Mg 1.74906500 0.00000000 -1.2366735700000007 0 0 0
Mg 1.74906500 4.94710000 -1.2366735700000007 0 0 0
Mg 5.24719500 2.47355000 -3.710294919999999 0 0 0
Mg 5.24719500 7.42065000 -3.710294919999999 0 0 0
Mg 1.68539903 4.94710000 3.73607038
Mg 1.68399978 0.00000000 3.71660168
Mg 5.15855239 7.44904635 1.38282590
Mg 5.15855239 2.44515365 1.38282590
In 0.00000000 0.00000000 -3.710294919999999 0 0 0
In 0.00000000 4.94710000 -3.710294919999999 0 0 0
In 3.49813000 7.42065000 -1.2366735700000007 0 0 0
In 3.49813000 2.47355000 -1.2366735700000007 0 0 0
In 6.85143742 4.94710000 1.36116355
In 6.95813038 0.00000000 1.30056380
In 3.22905384 2.45049651 4.30367887
In 3.22905384 7.44370349 4.30367887
Pd 0.00000000 2.47355000 -1.2366735700000007 0 0 0
Pd 0.00000000 7.42065000 -1.2366735700000007 0 0 0
Pd 3.49813000 4.94710000 -3.710294919999999 0 0 0
Pd 3.49813000 0.00000000 -3.710294919999999 0 0 0
Pd 0.06324619 7.38542665 3.46679910
Pd 0.06324619 2.50877335 3.46679910
Pd 3.52296672 0.00000000 1.24051247
Pd 3.67982287 4.94710000 1.34882423
C 5.16736767 0.00000000 6.33034280
O 5.19024544 0.00000000 7.47872172
