&CONTROL
calculation = 'relax'
prefix = 'scf'
pseudo_dir = '/vol0403/data/hp230205/u10028/POT_HYBRID_KKJUS_GBRV'
outdir = './data'
tprnfor = .true.
nstep = 50
disk_io = 'non'
/
&SYSTEM
ibrav = 0
ecutwfc = 50.0
ecutrho = 400
occupations = 'smearing'
smearing = 'mp'
degauss = 0.01
assume_isolated = 'esm'
esm_bc = 'bc1'
input_dft = 'BEEF-VDW'
nosym = .true.
nspin = 1
ntyp = 6
nat = 18
/
&ELECTRONS
electron_maxstep = 200
mixing_beta = 0.1
conv_thr = 1e-06
/
&IONS
ion_dynamics = 'bfgs'
upscale = 1.0
/
&CELL
/

K_POINTS {automatic}
11 7 2 0  0  0

ATOMIC_SPECIES
C 12.01 C.pbe-n-rrkjus_psl.1.0.0.UPF
In 114.8 In.pbe-dn-rrkjus_psl.1.0.0.UPF
O 15.99 O.pbe-n-rrkjus_psl.1.0.0.UPF
Pd 106.4 Pd.pbe-n-rrkjus_psl.1.0.0.UPF
Sc 44.95 Sc.pbe-spn-rrkjus_psl.1.0.0.UPF
Y 88.90 Y.pbe-spn-rrkjus_psl.1.0.0.UPF


CELL_PARAMETERS {angstrom}
6.25545000 0.00000000 0.00000000
0.00000000 9.64246000 0.00000000
0.00000000 0.00000000 24.46440000

ATOMIC_POSITIONS {angstrom}
Y 3.12772500 0.00000000 -2.2321318600000026 0 0 0
Y 5.08123948 0.02294905 0.73270878
Y 3.12772500 4.82123000 -2.2321318600000026 0 0 0
Y 5.08123948 4.79828095 0.73246414
Sc 1.08313117 2.41061500 -0.7439624000000009 0 0 0
Sc 3.17526642 2.41061500 1.92070004
Sc 1.08313117 7.23184500 -0.7439624000000009 0 0 0
Sc 3.25777581 7.23184500 1.90088388
In 0.00000000 0.00000000 -2.2321318600000026 0 0 0
In 1.89252384 9.62259653 1.07716753
In 0.00000000 4.82123000 -2.2321318600000026 0 0 0
In 1.89246129 4.84109347 1.07716753
Pd 4.21085617 2.41061500 -0.7439624000000009 0 0 0
Pd 0.16745840 2.41061500 1.68119357
Pd 4.21085617 7.23184500 -0.7439624000000009 0 0 0
Pd 0.09264321 7.23184500 1.66382384
C 3.28529979 2.41061500 4.25166808
O 3.30925816 2.41061500 5.40002701
