&CONTROL
calculation = 'relax'
prefix = 'scf'
pseudo_dir = '/vol0403/data/hp230205/u10028/POT_HYBRID_KKJUS_GBRV'
outdir = './data'
tprnfor = .true.
nstep = 70
disk_io = 'non'
/
&SYSTEM
ibrav = 0
ecutwfc = 50.0
ecutrho = 400
occupations = 'smearing'
smearing = 'mp'
degauss = 0.01
assume_isolated = 'esm'
esm_bc = 'bc1'
input_dft = 'BEEF-VDW'
nosym = .true.
nspin = 1
ntyp = 5
nat = 33
/
&ELECTRONS
electron_maxstep = 200
mixing_beta = 0.1
conv_thr = 1e-06
/
&IONS
ion_dynamics = 'bfgs'
upscale = 1.0
/
&CELL
/

K_POINTS {automatic}
9 6 2 0  0  0

ATOMIC_SPECIES
Au 196.9 Au.pbe-n-rrkjus_psl.1.0.0.UPF
C 12.01 C.pbe-n-rrkjus_psl.1.0.0.UPF
Ge 72.64 Ge.pbe-dn-rrkjus_psl.1.0.0.UPF
Li 6.941 Li.pbe-sl-rrkjus_psl.1.0.0.UPF
Mg 24.30 Mg.pbe-spnl-rrkjus_psl.1.0.0.UPF


CELL_PARAMETERS {angstrom}
6.50951000 0.00000000 0.00000000
-0.00000000 9.20584000 0.00000000
0.00000000 0.00000000 26.90440000

ATOMIC_POSITIONS {angstrom}
Li 4.88213250 0.00000000 -1.1507011899999995 0 0 0
Li 4.88213250 4.60292000 -1.1507011899999995 0 0 0
Li 1.62737750 2.30146000 -3.4521035599999976 0 0 0
Li 1.62737750 6.90438000 -3.4521035599999976 0 0 0
Li 4.84405187 4.60301206 3.65092708
Li 4.92320751 9.20565588 3.85943618
Li 1.56241259 7.03961379 1.19724580
Li 1.56247769 2.16641033 1.19751484
Mg 1.62737750 0.00000000 -1.1507011899999995 0 0 0
Mg 1.62737750 4.60292000 -1.1507011899999995 0 0 0
Mg 4.88213250 2.30146000 -3.4521035599999976 0 0 0
Mg 4.88213250 6.90438000 -3.4521035599999976 0 0 0
Mg 1.50591004 4.60264382 3.94902783
Mg 1.17106085 0.00009206 3.76150416
Mg 4.97209393 6.66999931 1.20155050
Mg 4.97222412 2.53611686 1.20155050
Ge 0.00000000 2.30146000 -1.1507011899999995 0 0 0
Ge 0.00000000 6.90438000 -1.1507011899999995 0 0 0
Ge 3.25475500 4.60292000 -3.4521035599999976 0 0 0
Ge 3.25475500 0.00000000 -3.4521035599999976 0 0 0
Ge 6.37027158 6.81535953 3.69451221
Ge 6.36981592 2.39029636 3.69451221
Ge 3.51298726 0.00009206 1.09420195
Ge 3.05764704 4.60301206 1.53462698
Au 0.00000000 0.00000000 -3.4521035599999976 0 0 0
Au 0.00000000 4.60292000 -3.4521035599999976 0 0 0
Au 3.25475500 6.90438000 -1.1507011899999995 0 0 0
Au 3.25475500 2.30146000 -1.1507011899999995 0 0 0
Au 0.31271686 4.60310412 1.34091530
Au 6.33140981 0.00009206 1.10361849
Au 3.13829987 2.33312809 3.35309537
Au 3.13771401 6.87261985 3.35282633
C 3.10256266 -0.00000000 2.93096534
