&CONTROL
calculation = 'relax'
prefix = 'scf'
pseudo_dir = '/vol0004/mdt0/data/hp150275/u10028/POT_KKJUS'
outdir = './data'
tprnfor = .true.
nstep = 50
disk_io = 'non'
/
&SYSTEM
ibrav = 0
ecutwfc = 50.0
ecutrho = 400
occupations = 'smearing'
smearing = 'mp'
degauss = 0.01
assume_isolated = 'esm'
esm_bc = 'bc1'
input_dft = 'BEEF-VDW'
nosym = .true.
nspin = 1
ntyp = 4
nat = 17
/
&ELECTRONS
electron_maxstep = 200
mixing_beta = 0.1
conv_thr = 1e-06
/
&IONS
ion_dynamics = 'bfgs'
upscale = 1.0
/
&CELL
/

K_POINTS {automatic}
10 10 2 0  0  0

ATOMIC_SPECIES
Al 26.98 Al.pbe-nl-rrkjus_psl.1.0.0.UPF
C 12.01 C.pbe-n-rrkjus_psl.1.0.0.UPF
Ir 192.2 Ir.pbe-n-rrkjus_psl.0.2.3.UPF
Li 6.941 Li.pbe-sl-rrkjus_psl.1.0.0.UPF

CELL_PARAMETERS {angstrom}
6.04348000 0.00000000 0.00000000
-0.00000000 6.04348000 0.00000000
0.00000000 0.00000000 24.53260000

ATOMIC_POSITIONS {angstrom}
Li 0.00000000 0.00000000 2.26632159
Li 3.02174000 3.02174000 2.26632159
Li 3.02174000 0.00000000 -0.7553587499999992 0 0 0
Li 0.00000000 3.02174000 -0.7553587499999992 0 0 0
Al 1.51087000 1.51087000 0.75535875
Al 4.53261000 4.53261000 -2.266321589999997 0 0 0
Al 4.53261000 1.51087000 0.75535875
Al 1.51087000 4.53261000 -2.266321589999997 0 0 0
Al 4.53261000 4.53261000 0.75535875
Al 1.51087000 1.51087000 -2.266321589999997 0 0 0
Al 1.51087000 4.53261000 0.75535875
Al 4.53261000 1.51087000 -2.266321589999997 0 0 0
Ir 0.00000000 0.00000000 -0.7553587499999992 0 0 0
Ir 3.02174000 -0.00000000 2.26632159
Ir 0.00000000 3.02174000 2.26632159
Ir 3.02174000 3.02174000 -0.7553587499999992 0 0 0
C 1.51087000 1.51087000 3.06632967
