&CONTROL
calculation = 'relax'
prefix = 'scf'
pseudo_dir = '/vol0004/mdt0/data/hp150275/u10028/POT_HYBRID_KKJUS_GBRV'
outdir = './data'
tprnfor = .true.
nstep = 50
disk_io = 'non'
/
&SYSTEM
ibrav = 0
ecutwfc = 50.0
ecutrho = 400
occupations = 'smearing'
smearing = 'mp'
degauss = 0.01
assume_isolated = 'esm'
esm_bc = 'bc1'
input_dft = 'BEEF-VDW'
nosym = .true.
nspin = 2
ntyp = 4
nat = 33
starting_magnetization(1) = 0.0
starting_magnetization(2) = 0.0
starting_magnetization(3) = 0.1
starting_magnetization(4) = 0.1
/
&ELECTRONS
electron_maxstep = 200
mixing_beta = 0.1
conv_thr = 1e-06
/
&IONS
ion_dynamics = 'bfgs'
upscale = 1.0
/
&CELL
/

K_POINTS {automatic}
9 6 2 0  0  0

ATOMIC_SPECIES
Al 26.98 Al.pbe-nl-rrkjus_psl.1.0.0.UPF
C 12.01 C.pbe-n-rrkjus_psl.1.0.0.UPF
Co 58.93 co_pbe_v1.2.uspp.F.UPF
Cr 51.99 cr_pbe_v1.5.uspp.F.UPF

CELL_PARAMETERS {angstrom}
5.71826000 0.00000000 0.00000000
0.00000000 8.08683000 0.00000000
0.00000000 0.00000000 26.06510000

ATOMIC_POSITIONS {angstrom}
Al 0.00000000 0.00000000 23.03242562
Al 2.85913000 2.02170750 25.05429542
Al 2.85913000 6.06512250 25.05429542
Al 0.00000000 4.04341500 23.03242562
Al 0.00000000 4.04341500 1.03009275
Al 2.85913000 6.02954045 3.07828831
Al 2.85913000 2.05728955 3.07828831
Al 0.00000000 0.00000000 0.98630338
Cr 0.00000000 6.06512250 25.05429542
Cr 2.85913000 0.00000000 23.03242562
Cr 0.00000000 2.02170750 25.05429542
Cr 2.85913000 4.04341500 23.03242562
Cr 0.00000000 1.98466982 3.11269424
Cr 2.85913000 4.04341500 1.07596733
Cr 0.00000000 6.10216018 3.11269424
Cr 2.85913000 0.00000000 0.92166194
Co 1.42956500 0.00000000 25.05429542
Co 4.28869500 4.04341500 25.05429542
Co 4.28869500 0.00000000 25.05429542
Co 1.42956500 4.04341500 25.05429542
Co 4.28869500 6.06512250 23.03242562
Co 1.42956500 2.02170750 23.03242562
Co 1.42956500 6.06512250 23.03242562
Co 4.28869500 2.02170750 23.03242562
Co 1.44780625 4.04349587 2.95891015
Co 4.11794776 8.08674913 2.97741637
Co 4.27045375 4.04349587 2.95891015
Co 1.60031224 8.08674913 2.97741637
Co 4.29184004 2.01095202 1.00767677
Co 1.42636277 6.07587798 1.00741612
Co 1.42641996 2.01095202 1.00767677
Co 4.29189723 6.07587798 1.00741612
C 0.00000000 0.00000000 3.86154457
