&CONTROL
calculation = 'relax'
prefix = 'scf'
pseudo_dir = '/vol0004/mdt0/data/hp150275/u10028/POT_KKJUS'
outdir = './data'
tprnfor = .true.
nstep = 50
disk_io = 'non'
/
&SYSTEM
ibrav = 0
ecutwfc = 50.0
ecutrho = 400
occupations = 'smearing'
smearing = 'mp'
degauss = 0.01
assume_isolated = 'esm'
esm_bc = 'bc1'
input_dft = 'BEEF-VDW'
nosym = .true.
nspin = 1
ntyp = 4
nat = 18
/
&ELECTRONS
electron_maxstep = 200
mixing_beta = 0.1
conv_thr = 1e-06
/
&IONS
ion_dynamics = 'bfgs'
upscale = 1.0
/
&CELL
/

K_POINTS {automatic}
8 8 1 0 0 0

ATOMIC_SPECIES
C 12.01 C.pbe-n-rrkjus_psl.1.0.0.UPF
Li 6.941 Li.pbe-sl-rrkjus_psl.1.0.0.UPF
O 15.99 O.pbe-n-rrkjus_psl.1.0.0.UPF
Sb 121.7 Sb.pbe-n-rrkjus_psl.1.0.0.UPF

CELL_PARAMETERS {angstrom}
6.56971000 0.00000000 0.00000000
0.00000000 6.56971000 0.00000000
0.00000000 0.00000000 24.92730000

ATOMIC_POSITIONS {angstrom}
Li 1.65891747 1.62620032 0.95795614
Li 4.92728250 4.92728250 -2.4635650600000005 0 0 0
Li 4.91098962 1.62639741 0.95795614
Li 1.64242750 4.92728250 -2.4635650600000005 0 0 0
Li 4.91098962 4.94311550 0.95795614
Li 1.64242750 1.64242750 -2.4635650600000005 0 0 0
Li 1.65865468 4.94357538 0.95820541
Li 4.92728250 1.64242750 -2.4635650600000005 0 0 0
Li 0.00000000 0.00000000 -0.8211052599999995 0 0 0
Li 3.28511779 0.00085406 2.95737487
Li 6.56957861 3.28498639 2.87536405
Li 3.28485500 3.28485500 -0.8211052599999995 0 0 0
Sb 6.56957861 0.00013139 2.48325763
Sb 3.28485500 3.28478930 2.48300835
Sb 3.28485500 0.00000000 -0.8211052599999995 0 0 0
Sb 0.00000000 3.28485500 -0.8211052599999995 0 0 0
C 6.56931582 3.28485500 4.97374417
O 6.56964430 3.28478930 6.10793632
