&CONTROL
calculation = 'relax'
prefix = 'scf'
pseudo_dir = '/vol0403/data/hp230205/u10028/POT_HYBRID_KKJUS_GBRV'
outdir = './data'
tprnfor = .true.
nstep = 50
disk_io = 'non'
/
&SYSTEM
ibrav = 0
ecutwfc = 50.0
ecutrho = 400
occupations = 'smearing'
smearing = 'mp'
degauss = 0.01
assume_isolated = 'esm'
esm_bc = 'bc1'
input_dft = 'BEEF-VDW'
nosym = .true.
nspin = 1
ntyp = 6
nat = 34
/
&ELECTRONS
electron_maxstep = 200
mixing_beta = 0.1
conv_thr = 1e-06
/
&IONS
ion_dynamics = 'bfgs'
upscale = 1.0
/
&CELL
/

K_POINTS {automatic}
9 6 2 0  0  0

ATOMIC_SPECIES
C 12.01 C.pbe-n-rrkjus_psl.1.0.0.UPF
Cu 63.54 Cu.pbe-dn-rrkjus_psl.1.0.0.UPF
In 114.8 In.pbe-dn-rrkjus_psl.1.0.0.UPF
O 15.99 O.pbe-n-rrkjus_psl.1.0.0.UPF
Pd 106.4 Pd.pbe-n-rrkjus_psl.1.0.0.UPF
Sc 44.95 Sc.pbe-spn-rrkjus_psl.1.0.0.UPF


CELL_PARAMETERS {angstrom}
6.53831000 0.00000000 0.00000000
0.00000000 9.24656000 0.00000000
0.00000000 0.00000000 26.93490000

ATOMIC_POSITIONS {angstrom}
Sc 4.90373250 0.00000000 -1.1557765599999996 0 0 0
Sc 4.90373250 4.62328000 -1.1557765599999996 0 0 0
Sc 1.63457750 2.31164000 -3.467329679999999 0 0 0
Sc 1.63457750 6.93492000 -3.467329679999999 0 0 0
Sc 4.93694711 4.62328000 3.47083121
Sc 4.94243930 0.00000000 3.42315644
Sc 1.61424336 6.91522483 1.20372068
Sc 1.61430874 2.33133517 1.20372068
In 1.63457750 0.00000000 -1.1557765599999996 0 0 0
In 1.63457750 4.62328000 -1.1557765599999996 0 0 0
In 4.90373250 2.31164000 -3.467329679999999 0 0 0
In 4.90373250 6.93492000 -3.467329679999999 0 0 0
In 1.68629553 4.62328000 3.65695137
In 1.66766135 0.00000000 3.65883682
In 4.90464786 6.95711174 1.16331833
In 4.90464786 2.28944826 1.16331833
Cu 0.00000000 0.00000000 -3.467329679999999 0 0 0
Cu 0.00000000 4.62328000 -3.467329679999999 0 0 0
Cu 3.26915500 6.93492000 -1.1557765599999996 0 0 0
Cu 3.26915500 2.31164000 -1.1557765599999996 0 0 0
Cu 6.51686434 4.62328000 1.20048849
Cu 0.06047937 0.00000000 1.15820070
Cu 3.25973983 2.31432150 3.43069821
Cu 3.25973983 6.93233096 3.43069821
Pd 0.00000000 2.31164000 -1.1557765599999996 0 0 0
Pd 0.00000000 6.93492000 -1.1557765599999996 0 0 0
Pd 3.26915500 4.62328000 -3.467329679999999 0 0 0
Pd 3.26915500 0.00000000 -3.467329679999999 0 0 0
Pd 0.03909909 6.91069401 3.42315644
Pd 0.03909909 2.33586599 3.42315644
Pd 3.21789465 0.00000000 1.18809844
Pd 3.29301983 4.62328000 1.20479808
C 4.86136425 0.00000000 5.73551761
O 4.84867993 0.00000000 6.88240565
