&CONTROL
calculation = 'relax'
prefix = 'scf'
pseudo_dir = '/vol0403/data/hp230205/u10028/POT_HYBRID_KKJUS_GBRV'
outdir = './data'
tprnfor = .true.
nstep = 70
disk_io = 'non'
/
&SYSTEM
ibrav = 0
ecutwfc = 50.0
ecutrho = 400
occupations = 'smearing'
smearing = 'mp'
degauss = 0.01
assume_isolated = 'esm'
esm_bc = 'bc1'
input_dft = 'BEEF-VDW'
nosym = .true.
nspin = 1
ntyp = 5
nat = 33
/
&ELECTRONS
electron_maxstep = 200
mixing_beta = 0.1
conv_thr = 1e-06
/
&IONS
ion_dynamics = 'bfgs'
upscale = 1.0
/
&CELL
/

K_POINTS {automatic}
6 6 1 0 0 0

ATOMIC_SPECIES
Al 26.98 Al.pbe-nl-rrkjus_psl.1.0.0.UPF
C 12.01 C.pbe-n-rrkjus_psl.1.0.0.UPF
Li 6.941 Li.pbe-sl-rrkjus_psl.1.0.0.UPF
Pd 106.4 Pd.pbe-n-rrkjus_psl.1.0.0.UPF
Sn 118.7 Sn.pbe-dn-rrkjus_psl.1.0.0.UPF


CELL_PARAMETERS {angstrom}
6.48942000 0.00000000 0.00000000
-0.00000000 9.17742000 0.00000000
0.00000000 0.00000000 26.88310000

ATOMIC_POSITIONS {angstrom}
Li 4.86706500 0.00000000 -1.1471018799999975 0 0 0
Li 4.86706500 4.58871000 -1.1471018799999975 0 0 0
Li 1.62235500 2.29435500 -3.4415744599999982 0 0 0
Li 1.62235500 6.88306500 -3.4415744599999982 0 0 0
Li 4.31221959 4.58871000 4.00181827
Li 5.21548196 -0.00000000 4.59082699
Li 1.48172927 6.88407452 1.26753816
Li 1.48172927 2.29334548 1.26753816
Al 0.00000000 0.00000000 -3.4415744599999982 0 0 0
Al 0.00000000 4.58871000 -3.4415744599999982 0 0 0
Al 3.24471000 6.88306500 -1.1471018799999975 0 0 0
Al 3.24471000 2.29435500 -1.1471018799999975 0 0 0
Al 6.29317994 4.58871000 1.33474591
Al 6.12004221 -0.00000000 1.39550172
Al 3.36255787 1.95745191 3.47706015
Al 3.36249297 7.21996809 3.47706015
Sn 0.00000000 2.29435500 -1.1471018799999975 0 0 0
Sn 0.00000000 6.88306500 -1.1471018799999975 0 0 0
Sn 3.24471000 4.58871000 -3.4415744599999982 0 0 0
Sn 3.24471000 0.00000000 -3.4415744599999982 0 0 0
Sn 6.33691863 6.73053628 3.65502628
Sn 6.33698352 2.44688372 3.65529511
Sn 3.21446930 -0.00000000 1.22855767
Sn 3.24581320 4.58871000 1.13097202
Pd 1.62235500 0.00000000 -1.1471018799999975 0 0 0
Pd 1.62235500 4.58871000 -1.1471018799999975 0 0 0
Pd 4.86706500 2.29435500 -3.4415744599999982 0 0 0
Pd 4.86706500 6.88306500 -3.4415744599999982 0 0 0
Pd 1.59204941 4.58880177 3.21925122
Pd 1.19768736 -0.00000000 3.27113561
Pd 4.83124340 6.87453000 1.02397728
Pd 4.83124340 2.30289000 1.02397728
C 3.37346009 -0.00000000 3.68298470
