&CONTROL
calculation = 'relax'
prefix = 'scf'
pseudo_dir = '/vol0004/mdt0/data/hp150275/u10028/POT_HYBRID_KKJUS_GBRV'
outdir = './data'
tprnfor = .true.
nstep = 70
disk_io = 'non'
/
&SYSTEM
ibrav = 0
ecutwfc = 50.0
ecutrho = 400
occupations = 'smearing'
smearing = 'mp'
degauss = 0.01
assume_isolated = 'esm'
esm_bc = 'bc1'
input_dft = 'BEEF-VDW'
nosym = .true.
nspin = 1
ntyp = 4
nat = 34
/
&ELECTRONS
electron_maxstep = 200
mixing_beta = 0.1
conv_thr = 1e-06
/
&IONS
ion_dynamics = 'bfgs'
upscale = 1.0
/
&CELL
/

K_POINTS {automatic}
7 7 2 0  0  0

ATOMIC_SPECIES
Bi 208.9 Bi.pbe-dn-rrkjus_psl.1.0.0.UPF
C 12.01 C.pbe-n-rrkjus_psl.1.0.0.UPF
Na 22.98 Na.pbe-spnl-rrkjus_psl.1.0.0.UPF
O 15.99 O.pbe-n-rrkjus_psl.1.0.0.UPF

CELL_PARAMETERS {angstrom}
9.89650000 0.00000000 0.00000000
0.00000000 9.78514000 0.00000000
0.00000000 0.00000000 27.42240000

ATOMIC_POSITIONS {angstrom}
Na 2.47412500 2.44628500 -3.7110733899999993 0 0 0
Na 4.94825000 2.44628500 -1.2370244600000007 0 0 0
Na 2.47442189 2.46017990 1.30174133
Na 4.95497962 2.43395572 4.03356082
Na 2.47412500 7.33885500 -3.7110733899999993 0 0 0
Na 4.94825000 7.33885500 -1.2370244600000007 0 0 0
Na 2.47452086 7.32496010 1.30201555
Na 4.95488065 7.35118428 4.03356082
Na 7.42237500 2.44628500 -3.7110733899999993 0 0 0
Na 0.00000000 2.44628500 -1.2370244600000007 0 0 0
Na 7.42296879 2.45019906 1.30311245
Na 9.89264037 2.43336862 4.03273814
Na 7.42237500 7.33885500 -3.7110733899999993 0 0 0
Na 0.00000000 7.33885500 -1.2370244600000007 0 0 0
Na 7.42296879 7.33494094 1.30311245
Na 9.89264037 7.35177138 4.03273814
Bi 0.00000000 0.00000000 -3.7110733899999993 0 0 0
Bi 2.47412500 0.00000000 -1.2370244600000007 0 0 0
Bi 4.94429140 0.00000000 1.54662336
Bi 2.47847946 0.00000000 3.60522293
Bi 0.00000000 4.89257000 -3.7110733899999993 0 0 0
Bi 2.47412500 4.89257000 -1.2370244600000007 0 0 0
Bi 4.94696345 4.89257000 1.57788490
Bi 2.47422397 4.89257000 3.64855032
Bi 4.94825000 0.00000000 -3.7110733899999993 0 0 0
Bi 7.42237500 0.00000000 -1.2370244600000007 0 0 0
Bi 0.00445343 0.00000000 1.54717181
Bi 7.42108846 0.00000000 3.62057947
Bi 4.94825000 4.89257000 -3.7110733899999993 0 0 0
Bi 7.42237500 4.89257000 -1.2370244600000007 0 0 0
Bi 0.00247413 4.89257000 1.57733645
Bi 7.42405741 4.89257000 3.63730714
C 2.42137665 0.00000000 7.95468979
O 2.49085008 0.00000000 9.08778336
