&CONTROL
calculation = 'relax'
prefix = 'scf'
pseudo_dir = '/vol0403/data/hp230205/u10028/POT_HYBRID_KKJUS_GBRV'
outdir = './data'
tprnfor = .true.
nstep = 100
disk_io = 'non'
/
&SYSTEM
ibrav = 0
ecutwfc = 50.0
ecutrho = 400
occupations = 'smearing'
smearing = 'mp'
degauss = 0.01
assume_isolated = 'esm'
esm_bc = 'bc1'
input_dft = 'BEEF-VDW'
nosym = .true.
nspin = 1
ntyp = 5
nat = 17
/
&ELECTRONS
electron_maxstep = 200
mixing_beta = 0.1
conv_thr = 1e-06
/
&IONS
ion_dynamics = 'bfgs'
upscale = 1.0
/
&CELL
/

K_POINTS {automatic}
10 10 2 0  0  0

ATOMIC_SPECIES
C 12.01 C.pbe-n-rrkjus_psl.1.0.0.UPF
Ga 69.72 Ga.pbe-dnl-rrkjus_psl.1.0.0.UPF
Li 6.941 Li.pbe-sl-rrkjus_psl.1.0.0.UPF
Mg 24.30 Mg.pbe-spnl-rrkjus_psl.1.0.0.UPF
Pt 195.0 Pt.pbe-n-rrkjus_psl.1.0.0.UPF


CELL_PARAMETERS {angstrom}
6.26200000 0.00000000 0.00000000
-0.00000000 6.26200000 0.00000000
0.00000000 0.00000000 24.69650000

ATOMIC_POSITIONS {angstrom}
Li 1.56550000 1.56550000 -0.7826320799999991 0 0 0
Li 1.56550000 4.69650000 2.34814322
Li 4.69650000 1.56550000 2.34814322
Li 4.69650000 4.69650000 -0.7826320799999991 0 0 0
Mg 0.00000000 3.13100000 -2.3481432200000008 0 0 0
Mg 0.00000000 0.00000000 0.78263209
Mg 3.13100000 3.13100000 0.78263209
Mg 3.13100000 0.00000000 -2.3481432200000008 0 0 0
Ga 0.00000000 0.00000000 -2.3481432200000008 0 0 0
Ga 0.00000000 3.13100000 0.78263209
Ga 3.13100000 -0.00000000 0.78263209
Ga 3.13100000 3.13100000 -2.3481432200000008 0 0 0
Pt 4.69650000 1.56550000 -0.7826320799999991 0 0 0
Pt 4.69650000 4.69650000 2.34814322
Pt 1.56550000 1.56550000 2.34814322
Pt 1.56550000 4.69650000 -0.7826320799999991 0 0 0
C 0.00000000 3.13100000 3.14830982
