&CONTROL
calculation = 'relax'
prefix = 'scf'
pseudo_dir = '/vol0403/data/hp230205/u10028/POT_HYBRID_KKJUS_GBRV'
outdir = './data'
tprnfor = .true.
nstep = 50
disk_io = 'non'
/
&SYSTEM
ibrav = 0
ecutwfc = 50.0
ecutrho = 400
occupations = 'smearing'
smearing = 'mp'
degauss = 0.01
assume_isolated = 'esm'
esm_bc = 'bc1'
input_dft = 'BEEF-VDW'
nosym = .true.
nspin = 1
ntyp = 6
nat = 34
/
&ELECTRONS
electron_maxstep = 200
mixing_beta = 0.1
conv_thr = 1e-06
/
&IONS
ion_dynamics = 'bfgs'
upscale = 1.0
/
&CELL
/

K_POINTS {automatic}
6 6 1 0 0 0

ATOMIC_SPECIES
C 12.01 C.pbe-n-rrkjus_psl.1.0.0.UPF
Ge 72.64 Ge.pbe-dn-rrkjus_psl.1.0.0.UPF
In 114.8 In.pbe-dn-rrkjus_psl.1.0.0.UPF
Li 6.941 Li.pbe-sl-rrkjus_psl.1.0.0.UPF
O 15.99 O.pbe-n-rrkjus_psl.1.0.0.UPF
Pd 106.4 Pd.pbe-n-rrkjus_psl.1.0.0.UPF


CELL_PARAMETERS {angstrom}
6.51863000 0.00000000 0.00000000
0.00000000 9.21874000 0.00000000
0.00000000 0.00000000 26.91410000

ATOMIC_POSITIONS {angstrom}
Li 4.88897250 0.00000000 -1.1524617600000013 0 0 0
Li 4.88897250 4.60937000 -1.1524617600000013 0 0 0
Li 1.62965750 2.30468500 -3.45711614 0 0 0
Li 1.62965750 6.91405500 -3.45711614 0 0 0
Li 4.35881232 4.60937000 4.28203331
Li 4.52086546 0.00000000 3.88531948
Li 1.42158283 6.83246915 1.24800682
Li 1.42158283 2.38636304 1.24800682
In 0.00000000 2.30468500 -1.1524617600000013 0 0 0
In 0.00000000 6.91405500 -1.1524617600000013 0 0 0
In 3.25931500 4.60937000 -3.45711614 0 0 0
In 3.25931500 0.00000000 -3.45711614 0 0 0
In 6.31759545 6.82859728 3.75747750
In 6.31759545 2.39014272 3.75747750
In 3.04693803 0.00000000 1.32202059
In 3.33551778 4.60937000 1.17345476
Ge 0.00000000 0.00000000 -3.45711614 0 0 0
Ge 0.00000000 4.60937000 -3.45711614 0 0 0
Ge 3.25931500 6.91405500 -1.1524617600000013 0 0 0
Ge 3.25931500 2.30468500 -1.1524617600000013 0 0 0
Ge 6.29302022 4.60937000 1.30694870
Ge 6.45253109 0.00000000 1.48512004
Ge 3.21753058 2.35621776 3.33035073
Ge 3.21753058 6.86252224 3.33035073
Pd 1.62965750 0.00000000 -1.1524617600000013 0 0 0
Pd 1.62965750 4.60937000 -1.1524617600000013 0 0 0
Pd 4.88897250 2.30468500 -3.45711614 0 0 0
Pd 4.88897250 6.91405500 -3.45711614 0 0 0
Pd 1.55586661 4.60937000 3.21515839
Pd 1.46317169 0.00000000 3.81157484
Pd 4.84699252 7.03721737 1.03161745
Pd 4.84699252 2.18152263 1.03161745
C 1.72847993 0.00000000 5.77764985
O 1.84438117 0.00000000 6.92419051
