&CONTROL
calculation = 'relax'
prefix = 'scf'
pseudo_dir = '/vol0403/data/hp230205/u10028/POT_HYBRID_KKJUS_GBRV'
outdir = './data'
tprnfor = .true.
nstep = 50
disk_io = 'non'
/
&SYSTEM
ibrav = 0
ecutwfc = 50.0
ecutrho = 400
occupations = 'smearing'
smearing = 'mp'
degauss = 0.01
assume_isolated = 'esm'
esm_bc = 'bc1'
input_dft = 'BEEF-VDW'
nosym = .true.
nspin = 1
ntyp = 6
nat = 18
/
&ELECTRONS
electron_maxstep = 200
mixing_beta = 0.1
conv_thr = 1e-06
/
&IONS
ion_dynamics = 'bfgs'
upscale = 1.0
/
&CELL
/

K_POINTS {automatic}
6 6 1 0 0 0

ATOMIC_SPECIES
Al 26.98 Al.pbe-nl-rrkjus_psl.1.0.0.UPF
C 12.01 C.pbe-n-rrkjus_psl.1.0.0.UPF
Cu 63.54 Cu.pbe-dn-rrkjus_psl.1.0.0.UPF
Ge 72.64 Ge.pbe-dn-rrkjus_psl.1.0.0.UPF
Li 6.941 Li.pbe-sl-rrkjus_psl.1.0.0.UPF
O 15.99 O.pbe-n-rrkjus_psl.1.0.0.UPF


CELL_PARAMETERS {angstrom}
5.44163000 0.00000000 0.00000000
0.00000000 7.78580000 0.00000000
0.00000000 0.00000000 24.08040000

ATOMIC_POSITIONS {angstrom}
Li 4.08323590 1.93523845 0.67954889
Li 1.27671523 1.94645000 -2.040091490000002 0 0 0
Li 4.08318149 5.85056155 0.67954889
Li 1.27671523 5.83935000 -2.040091490000002 0 0 0
Al 0.06480981 0.00000000 2.03479380
Al 2.66503829 0.00000000 -0.6800305000000009 0 0 0
Al 0.06056534 3.89290000 1.95845893
Al 2.66503829 3.89290000 -0.6800305000000009 0 0 0
Cu 1.36862436 1.93251342 0.89579088
Cu 3.99753023 1.94645000 -2.040091490000002 0 0 0
Cu 1.36867878 5.85328658 0.89579088
Cu 3.99753023 5.83935000 -2.040091490000002 0 0 0
Ge 2.70536077 0.00007786 1.95003079
Ge 5.38585329 0.00000000 -0.6800305000000009 0 0 0
Ge 2.69148461 3.89282214 1.98181692
Ge 5.38585329 3.89290000 -0.6800305000000009 0 0 0
C 0.03096287 0.00000000 4.05658418
O 0.01779413 0.00000000 5.20642328
