&CONTROL
calculation = 'relax'
prefix = 'scf'
pseudo_dir = '/vol0004/mdt0/data/hp150275/u10028/POT_KKJUS'
outdir = './data'
tprnfor = .true.
nstep = 50
disk_io = 'non'
/
&SYSTEM
ibrav = 0
ecutwfc = 50.0
ecutrho = 400
occupations = 'smearing'
smearing = 'mp'
degauss = 0.01
assume_isolated = 'esm'
esm_bc = 'bc1'
input_dft = 'BEEF-VDW'
nosym = .true.
nspin = 1
ntyp = 4
nat = 18
/
&ELECTRONS
electron_maxstep = 200
mixing_beta = 0.1
conv_thr = 1e-06
/
&IONS
ion_dynamics = 'bfgs'
upscale = 1.0
/
&CELL
/

K_POINTS {automatic}
6 8 1 0 0 0

ATOMIC_SPECIES
C 12.01 C.pbe-n-rrkjus_psl.1.0.0.UPF
Ga 69.72 Ga.pbe-dnl-rrkjus_psl.1.0.0.UPF
Ni 58.69 Ni.pbe-spn-rrkjus_psl.1.0.0.UPF
O 15.99 O.pbe-n-rrkjus_psl.1.0.0.UPF

CELL_PARAMETERS {angstrom}
7.23991000 0.00000000 0.00000000
0.00000000 5.11939000 0.00000000
0.00000000 0.00000000 23.83950000

ATOMIC_POSITIONS {angstrom}
Ga 0.00000000 0.00000000 -1.919794930000002 0 0 0
Ga 0.00658832 2.56056530 0.66845958
Ga 3.61995500 0.00000000 -1.919794930000002 0 0 0
Ga 3.61322188 2.56056530 0.66869797
Ni 0.00000000 2.55969500 -1.919794930000002 0 0 0
Ni 1.80997750 3.83954250 -0.6398521800000019 0 0 0
Ni 1.80997750 1.27984750 -0.6398521800000019 0 0 0
Ni 7.23954800 5.11739344 0.66273810
Ni 1.80990510 1.26955753 1.87950618
Ni 1.80997750 3.84046399 1.82515212
Ni 3.61995500 2.55969500 -1.919794930000002 0 0 0
Ni 5.42993250 3.83954250 -0.6398521800000019 0 0 0
Ni 5.42993250 1.27984750 -0.6398521800000019 0 0 0
Ni 3.62024460 5.11744463 0.66249970
Ni 5.42978770 1.28194645 1.79845188
Ni 5.42957050 3.84496905 1.80107423
C 1.80990510 1.29996670 3.63886128
O 1.80997750 1.28573480 4.79436185
