&CONTROL
calculation = 'relax'
prefix = 'scf'
pseudo_dir = '/vol0004/mdt0/data/hp150275/u10028/POT_HYBRID_KKJUS_GBRV'
outdir = './data'
tprnfor = .true.
nstep = 50
disk_io = 'non'
/
&SYSTEM
ibrav = 0
ecutwfc = 50.0
ecutrho = 400
occupations = 'smearing'
smearing = 'mp'
degauss = 0.01
assume_isolated = 'esm'
esm_bc = 'bc1'
input_dft = 'BEEF-VDW'
nosym = .true.
nspin = 2
ntyp = 4
nat = 33
starting_magnetization(1) = 0.0
starting_magnetization(2) = 0.0
starting_magnetization(3) = 0.1
starting_magnetization(4) = 0.001
/
&ELECTRONS
electron_maxstep = 200
mixing_beta = 0.1
conv_thr = 1e-06
/
&IONS
ion_dynamics = 'bfgs'
upscale = 1.0
/
&CELL
/

K_POINTS {automatic}
9 6 2 0  0  0

ATOMIC_SPECIES
Al 26.98 Al.pbe-nl-rrkjus_psl.1.0.0.UPF
C 12.01 C.pbe-n-rrkjus_psl.1.0.0.UPF
Mn 54.93 mn_pbe_v1.5.uspp.F.UPF
Ni 58.69 ni_pbe_v1.4.uspp.F.UPF

CELL_PARAMETERS {angstrom}
5.81764000 0.00000000 0.00000000
0.00000000 8.22738000 0.00000000
0.00000000 0.00000000 26.17050000

ATOMIC_POSITIONS {angstrom}
Mn 0.00000000 0.00000000 23.08525975
Mn 2.90882000 2.05684500 25.14199935
Mn 2.90882000 6.17053500 25.14199935
Mn 0.00000000 4.11369000 23.08525975
Mn 0.00000000 4.11369000 0.96883191
Mn 2.90882000 6.04671293 3.17945404
Mn 2.90882000 2.18066707 3.17945404
Mn 0.00000000 0.00000000 1.07613096
Al 0.00000000 6.17053500 25.14199935
Al 2.90882000 0.00000000 23.08525975
Al 0.00000000 2.05684500 25.14199935
Al 2.90882000 4.11369000 23.08525975
Al 0.00000000 2.00706935 3.14019830
Al 2.90882000 4.11369000 1.05153069
Al 0.00000000 6.22031065 3.14019830
Al 2.90882000 0.00000000 0.94292312
Ni 1.45441000 0.00000000 25.14199935
Ni 4.36323000 4.11369000 25.14199935
Ni 4.36323000 0.00000000 25.14199935
Ni 1.45441000 4.11369000 25.14199935
Ni 4.36323000 6.17053500 23.08525975
Ni 1.45441000 2.05684500 23.08525975
Ni 1.45441000 6.17053500 23.08525975
Ni 4.36323000 2.05684500 23.08525975
Ni 1.31362311 4.11369000 2.97820290
Ni 4.11598030 0.00000000 3.03708652
Ni 4.50401689 4.11369000 2.97820290
Ni 1.70165970 0.00000000 3.03708652
Ni 4.35671424 2.06128779 1.03949226
Ni 1.46098393 6.16609221 1.03923056
Ni 1.46092576 2.06128779 1.03949226
Ni 4.35665607 6.16609221 1.03923056
C 0.00000000 0.00000000 3.55761777
