&CONTROL
calculation = 'relax'
prefix = 'scf'
pseudo_dir = '/vol0004/mdt0/data/hp150275/u10028/POT_KKJUS'
outdir = './data'
tprnfor = .true.
nstep = 50
disk_io = 'non'
/
&SYSTEM
ibrav = 0
ecutwfc = 50.0
ecutrho = 400
occupations = 'smearing'
smearing = 'mp'
degauss = 0.01
assume_isolated = 'esm'
esm_bc = 'bc1'
input_dft = 'BEEF-VDW'
nosym = .true.
nspin = 1
ntyp = 3
nat = 33
/
&ELECTRONS
electron_maxstep = 200
mixing_beta = 0.1
conv_thr = 1e-06
/
&IONS
ion_dynamics = 'bfgs'
upscale = 1.0
/
&CELL
/

K_POINTS {automatic}
8 6 1 0 0 0

ATOMIC_SPECIES
C 12.01 C.pbe-n-rrkjus_psl.1.0.0.UPF
Cu 63.54 Cu.pbe-dn-rrkjus_psl.1.0.0.UPF
Pd 106.4 Pd.pbe-n-rrkjus_psl.1.0.0.UPF

CELL_PARAMETERS {angstrom}
6.09666000 0.00000000 0.00000000
0.00000000 8.62198000 0.00000000
0.00000000 0.00000000 26.46650000

ATOMIC_POSITIONS {angstrom}
Cu 0.00000000 0.00000000 -3.2331476399999985 0 0 0
Cu 0.00000000 2.15549500 -1.0777158799999995 0 0 0
Cu 6.09294104 8.59568296 1.07189325
Cu 5.77884111 2.15549500 3.37183210
Cu 0.00000000 4.31099000 -3.2331476399999985 0 0 0
Cu 0.00000000 6.46648500 -1.0777158799999995 0 0 0
Cu 6.09294104 4.33728704 1.07189325
Cu 0.14046705 6.46648500 3.24108759
Cu 3.04833000 0.00000000 -3.2331476399999985 0 0 0
Cu 3.04833000 2.15549500 -1.0777158799999995 0 0 0
Cu 3.05125640 8.59585540 1.07189325
Cu 3.35944256 2.15549500 3.36892078
Cu 3.04833000 4.31099000 -3.2331476399999985 0 0 0
Cu 3.04833000 6.46648500 -1.0777158799999995 0 0 0
Cu 3.05125640 4.33711460 1.07189325
Cu 2.90658266 6.46648500 3.24135225
Pd 1.52416500 2.15549500 -3.2331476399999985 0 0 0
Pd 1.52416500 0.00000000 -1.0777158799999995 0 0 0
Pd 1.52325050 2.15549500 1.15261607
Pd 1.52245794 0.14338353 3.25882015
Pd 1.52416500 6.46648500 -3.2331476399999985 0 0 0
Pd 1.52416500 4.31099000 -1.0777158799999995 0 0 0
Pd 1.52386017 6.46648500 1.06633529
Pd 1.52245794 4.16760647 3.25882015
Pd 4.57249500 2.15549500 -3.2331476399999985 0 0 0
Pd 4.57249500 0.00000000 -1.0777158799999995 0 0 0
Pd 4.57200727 2.15549500 1.05151405
Pd 4.57078794 8.47971733 3.20906312
Pd 4.57249500 6.46648500 -3.2331476399999985 0 0 0
Pd 4.57249500 4.31099000 -1.0777158799999995 0 0 0
Pd 4.57212920 6.46648500 1.10788769
Pd 4.57078794 4.45325267 3.20906312
C 1.52032410 2.15549500 3.18497861
