&CONTROL
calculation = 'relax'
prefix = 'scf'
pseudo_dir = '/vol0004/mdt0/data/hp150275/u10028/POT_KKJUS'
outdir = './data'
tprnfor = .true.
nstep = 50
disk_io = 'non'
/
&SYSTEM
ibrav = 0
ecutwfc = 50.0
ecutrho = 400
occupations = 'smearing'
smearing = 'mp'
degauss = 0.01
assume_isolated = 'esm'
esm_bc = 'bc1'
input_dft = 'BEEF-VDW'
nosym = .true.
nspin = 1
ntyp = 5
nat = 18
/
&ELECTRONS
electron_maxstep = 200
mixing_beta = 0.1
conv_thr = 1e-06
/
&IONS
ion_dynamics = 'bfgs'
upscale = 1.0
/
&CELL
/

K_POINTS {automatic}
10 10 2 0  0  0

ATOMIC_SPECIES
Al 26.98 Al.pbe-nl-rrkjus_psl.1.0.0.UPF
C 12.01 C.pbe-n-rrkjus_psl.1.0.0.UPF
Li 6.941 Li.pbe-sl-rrkjus_psl.1.0.0.UPF
O 15.99 O.pbe-n-rrkjus_psl.1.0.0.UPF
Pd 106.4 Pd.pbe-n-rrkjus_psl.1.0.0.UPF

CELL_PARAMETERS {angstrom}
6.13337000 0.00000000 0.00000000
0.00000000 6.13337000 0.00000000
0.00000000 0.00000000 24.60000000

ATOMIC_POSITIONS {angstrom}
Li 0.00417069 0.00417069 0.78621600
Li 3.06668500 0.00000000 -2.3001000000000005 0 0 0
Li 0.00000000 3.06668500 -2.3001000000000005 0 0 0
Li 3.05742361 3.05742361 0.80761800
Li 1.53334250 1.53334250 -0.7667820000000027 0 0 0
Li 1.53095049 4.61352091 2.70427800
Li 4.60002750 4.60002750 -0.7667820000000027 0 0 0
Li 4.61333691 1.53064382 2.70427800
Al 0.00000000 0.00000000 -2.3001000000000005 0 0 0
Al 3.06668500 3.06668500 -2.3001000000000005 0 0 0
Al 3.05343692 0.01361608 0.78547800
Al 0.01361608 3.05343692 0.78547800
Pd 1.52573712 1.52573712 2.28853800
Pd 1.53334250 4.60002750 -0.7667820000000027 0 0 0
Pd 4.60088617 4.60088617 2.09395200
Pd 4.60002750 1.53334250 -0.7667820000000027 0 0 0
C 1.52224110 1.52224110 4.25703000
O 1.53162516 1.53168649 5.41593600
