&CONTROL
calculation = 'relax'
prefix = 'scf'
pseudo_dir = '/vol0004/mdt0/data/hp150275/u10028/POT_KKJUS'
outdir = './data'
tprnfor = .true.
nstep = 50
disk_io = 'non'
/
&SYSTEM
ibrav = 0
ecutwfc = 50.0
ecutrho = 400
occupations = 'smearing'
smearing = 'mp'
degauss = 0.01
assume_isolated = 'esm'
esm_bc = 'bc1'
input_dft = 'BEEF-VDW'
nosym = .true.
nspin = 1
ntyp = 3
nat = 33
/
&ELECTRONS
electron_maxstep = 200
mixing_beta = 0.1
conv_thr = 1e-06
/
&IONS
ion_dynamics = 'bfgs'
upscale = 1.0
/
&CELL
/

K_POINTS {automatic}
8 6 1 0 0 0

ATOMIC_SPECIES
C 12.01 C.pbe-n-rrkjus_psl.1.0.0.UPF
Ru 101.0 Ru.pbe-spn-rrkjus_psl.1.0.0.UPF
Sc 44.95 Sc.pbe-spn-rrkjus_psl.1.0.0.UPF

CELL_PARAMETERS {angstrom}
6.43815000 0.00000000 0.00000000
0.00000000 9.10491000 0.00000000
0.00000000 0.00000000 26.82870000

ATOMIC_POSITIONS {angstrom}
Sc 1.60953750 2.27622750 -3.4142203600000016 0 0 0
Sc 1.60953750 0.00000000 -1.1380734500000003 0 0 0
Sc 1.60953750 2.27613645 1.11982994
Sc 1.60953750 9.02342106 3.41153749
Sc 1.60953750 6.82868250 -3.4142203600000016 0 0 0
Sc 1.60953750 4.55245500 -1.1380734500000003 0 0 0
Sc 1.60953750 6.82877355 1.12143966
Sc 1.60953750 4.63394394 3.41153749
Sc 4.82861250 2.27622750 -3.4142203600000016 0 0 0
Sc 4.82861250 0.00000000 -1.1380734500000003 0 0 0
Sc 4.82861250 2.27613645 1.05061189
Sc 4.82861250 9.04008304 3.39678171
Sc 4.82861250 6.82868250 -3.4142203600000016 0 0 0
Sc 4.82861250 4.55245500 -1.1380734500000003 0 0 0
Sc 4.82854812 6.82877355 1.11848850
Sc 4.82861250 4.61719091 3.39678171
Ru 0.00000000 0.00000000 -3.4142203600000016 0 0 0
Ru 0.00000000 2.27622750 -1.1380734500000003 0 0 0
Ru 6.43602541 0.00482560 1.18448711
Ru 0.02131028 2.27613645 3.40161087
Ru 0.00000000 4.55245500 -3.4142203600000016 0 0 0
Ru 0.00000000 6.82868250 -1.1380734500000003 0 0 0
Ru 6.43615417 4.54762940 1.18475539
Ru 6.43113242 6.82877355 3.36753842
Ru 3.21907500 0.00000000 -3.4142203600000016 0 0 0
Ru 3.21907500 2.27622750 -1.1380734500000003 0 0 0
Ru 3.22113521 0.00473455 1.18475539
Ru 3.19782910 2.27613645 3.40161087
Ru 3.21907500 4.55245500 -3.4142203600000016 0 0 0
Ru 3.21907500 6.82868250 -1.1380734500000003 0 0 0
Ru 3.22113521 4.54762940 1.18448711
Ru 3.22609258 6.82877355 3.36753842
C 1.60953750 2.27622750 4.36583435
