&CONTROL
calculation = 'relax'
prefix = 'scf'
pseudo_dir = '/vol0403/data/hp230205/u10028/POT_HYBRID_KKJUS_GBRV'
outdir = './data'
tprnfor = .true.
nstep = 70
disk_io = 'non'
/
&SYSTEM
ibrav = 0
ecutwfc = 50.0
ecutrho = 400
occupations = 'smearing'
smearing = 'mp'
degauss = 0.01
assume_isolated = 'esm'
esm_bc = 'bc1'
input_dft = 'BEEF-VDW'
nosym = .true.
nspin = 1
ntyp = 6
nat = 34
/
&ELECTRONS
electron_maxstep = 200
mixing_beta = 0.1
conv_thr = 1e-06
/
&IONS
ion_dynamics = 'bfgs'
upscale = 1.0
/
&CELL
/

K_POINTS {automatic}
6 8 2 0  0  0

ATOMIC_SPECIES
C 12.01 C.pbe-n-rrkjus_psl.1.0.0.UPF
Ge 72.64 Ge.pbe-dn-rrkjus_psl.1.0.0.UPF
In 114.8 In.pbe-dn-rrkjus_psl.1.0.0.UPF
O 15.99 O.pbe-n-rrkjus_psl.1.0.0.UPF
Pd 106.4 Pd.pbe-n-rrkjus_psl.1.0.0.UPF
Y 88.90 Y.pbe-spn-rrkjus_psl.1.0.0.UPF


CELL_PARAMETERS {angstrom}
9.45024000 0.00000000 0.00000000
-0.00000000 7.93684000 0.00000000
0.00000000 0.00000000 26.65400000

ATOMIC_POSITIONS {angstrom}
Y 9.43171753 1.98381316 1.09841134
Y 0.00000000 1.98421000 -3.3269522800000004 0 0 0
Y 9.42973298 5.95270937 1.09068168
Y 0.00000000 5.95263000 -3.3269522800000004 0 0 0
Y 4.74364247 1.98421000 1.09841134
Y 4.72512000 1.98421000 -3.3269522800000004 0 0 0
Y 4.74553252 5.95207442 1.09068168
Y 4.72512000 5.95263000 -3.3269522800000004 0 0 0
In 2.36256000 1.98238453 3.42583862
In 2.36256000 1.98421000 -1.1090729400000008 0 0 0
In 2.36256000 5.95247126 3.48740936
In 2.36256000 5.95263000 -1.1090729400000008 0 0 0
In 7.08768000 1.98389253 3.61241662
In 7.08768000 1.98421000 -1.1090729400000008 0 0 0
In 7.08768000 5.95231253 3.58629570
In 7.08768000 5.95263000 -1.1090729400000008 0 0 0
Ge 9.37246452 7.92953811 3.44156448
Ge 0.00000000 0.00000000 -1.1090729400000008 0 0 0
Ge 9.39731866 3.97572189 3.43969870
Ge 0.00000000 3.96842000 -1.1090729400000008 0 0 0
Ge 4.77737983 7.92882379 3.44023178
Ge 4.72512000 0.00000000 -1.1090729400000008 0 0 0
Ge 4.80365149 3.97500758 3.44076486
Ge 4.72512000 3.96842000 -1.1090729400000008 0 0 0
Pd 2.36350502 7.92287116 1.17624102
Pd 2.36256000 0.00000000 -3.3269522800000004 0 0 0
Pd 2.36161498 3.98135705 1.17704064
Pd 2.36256000 3.96842000 -3.3269522800000004 0 0 0
Pd 7.08758550 0.00682568 1.28872090
Pd 7.08768000 0.00000000 -3.3269522800000004 0 0 0
Pd 7.08777450 3.96088000 1.28872090
Pd 7.08768000 3.96842000 -3.3269522800000004 0 0 0
C 2.36359953 2.00913168 7.06757464
O 2.36227649 1.98024158 8.20170234
