&CONTROL
calculation = 'relax'
prefix = 'scf'
pseudo_dir = '/vol0004/mdt0/data/hp150275/u10028/POT_HYBRID_KKJUS_GBRV'
outdir = './data'
tprnfor = .true.
nstep = 50
disk_io = 'non'
/
&SYSTEM
ibrav = 0
ecutwfc = 50.0
ecutrho = 400
occupations = 'smearing'
smearing = 'mp'
degauss = 0.01
assume_isolated = 'esm'
esm_bc = 'bc1'
input_dft = 'BEEF-VDW'
nosym = .true.
nspin = 2
ntyp = 5
nat = 34
starting_magnetization(1) = 0.0
starting_magnetization(2) = 0.0
starting_magnetization(3) = 0.001
starting_magnetization(4) = 0.0
starting_magnetization(5) = 0.0
/
&ELECTRONS
electron_maxstep = 300
mixing_beta = 0.1
conv_thr = 1e-06
/
&IONS
ion_dynamics = 'bfgs'
upscale = 1.0
/
&CELL
/

K_POINTS {automatic}
8 6 1 0 0 0

ATOMIC_SPECIES
Al 26.98 Al.pbe-nl-rrkjus_psl.1.0.0.UPF
C 12.01 C.pbe-n-rrkjus_psl.1.0.0.UPF
Ni 58.69 ni_pbe_v1.4.uspp.F.UPF
O 15.99 O.pbe-n-rrkjus_psl.1.0.0.UPF
Ti 47.86 Ti.pbe-spn-rrkjus_psl.1.0.0.UPF

CELL_PARAMETERS {angstrom}
5.91339000 0.00000000 0.00000000
0.00000000 8.36280000 0.00000000
0.00000000 0.00000000 26.27210000

ATOMIC_POSITIONS {angstrom}
Ti 0.00000000 0.00000000 -3.1361005799999973 0 0 0
Ti 2.95669500 2.09070000 -1.045366859999998 0 0 0
Ti 2.95669500 6.27210000 -1.045366859999998 0 0 0
Ti 0.00000000 4.18140000 -3.1361005799999973 0 0 0
Ti 5.91256213 4.18140000 1.02224741
Ti 2.96361367 6.26557702 3.18050043
Ti 2.96361367 2.09722298 3.18102587
Ti 0.00331150 8.36271637 1.05561298
Al 0.00000000 6.27210000 -1.045366859999998 0 0 0
Al 2.95669500 0.00000000 -3.1361005799999973 0 0 0
Al 0.00000000 2.09070000 -1.045366859999998 0 0 0
Al 2.95669500 4.18140000 -3.1361005799999973 0 0 0
Al 5.89695078 2.12114059 3.10772671
Al 2.95314697 4.18123274 1.02934088
Al 5.89689164 6.24165941 3.10746399
Al 2.93179963 0.00008363 1.08057147
Ni 1.47834750 0.00000000 -1.045366859999998 0 0 0
Ni 4.43504250 4.18140000 -1.045366859999998 0 0 0
Ni 4.43504250 0.00000000 -1.045366859999998 0 0 0
Ni 1.47834750 4.18140000 -1.045366859999998 0 0 0
Ni 4.43504250 6.27210000 -3.1361005799999973 0 0 0
Ni 1.47834750 2.09070000 -3.1361005799999973 0 0 0
Ni 1.47834750 6.27210000 -3.1361005799999973 0 0 0
Ni 4.43504250 2.09070000 -3.1361005799999973 0 0 0
Ni 1.46817647 4.18140000 2.98188335
Ni 4.50381523 0.00000000 2.97347628
Ni 4.43362329 4.18131637 2.99002770
Ni 1.40401619 0.00033451 3.27613087
Ni 4.36331308 2.08894381 1.07295256
Ni 1.54853944 6.28439332 1.09397024
Ni 1.54812550 2.07815580 1.09475841
Ni 4.36272174 6.27385619 1.07242712
C 1.94243035 0.00008363 4.96358785
O 2.16240846 8.36246549 6.10852597
