&CONTROL
calculation = 'relax'
prefix = 'scf'
pseudo_dir = '/vol0004/mdt0/data/hp150275/u10028/POT_KKJUS'
outdir = './data'
tprnfor = .true.
nstep = 50
disk_io = 'non'
/
&SYSTEM
ibrav = 0
ecutwfc = 50.0
ecutrho = 400
occupations = 'smearing'
smearing = 'mp'
degauss = 0.01
assume_isolated = 'esm'
esm_bc = 'bc1'
input_dft = 'BEEF-VDW'
nosym = .true.
nspin = 1
ntyp = 4
nat = 33
/
&ELECTRONS
electron_maxstep = 200
mixing_beta = 0.1
conv_thr = 1e-06
/
&IONS
ion_dynamics = 'bfgs'
upscale = 1.0
/
&CELL
/

K_POINTS {automatic}
9 6 2 0  0  0

ATOMIC_SPECIES
C 12.01 C.pbe-n-rrkjus_psl.1.0.0.UPF
Ni 58.69 Ni.pbe-spn-rrkjus_psl.1.0.0.UPF
Sb 121.7 Sb.pbe-n-rrkjus_psl.1.0.0.UPF
Ti 47.86 Ti.pbe-spn-rrkjus_psl.1.0.0.UPF

CELL_PARAMETERS {angstrom}
6.14888000 0.00000000 0.00000000
0.00000000 8.69583000 0.00000000
0.00000000 0.00000000 26.52190000

ATOMIC_POSITIONS {angstrom}
Ti 0.00000000 0.00000000 -3.2608676099999983 0 0 0
Ti 3.07444000 2.17395750 -1.086867459999997 0 0 0
Ti 3.07444000 6.52187250 -1.086867459999997 0 0 0
Ti 0.00000000 4.34791500 -3.2608676099999983 0 0 0
Ti 0.00000000 4.34800196 1.09588491
Ti 3.07444000 6.51082880 3.17308012
Ti 3.07444000 2.18491425 3.17308012
Ti 0.00000000 8.69574304 1.34015161
Ni 1.53722000 0.00000000 -1.086867459999997 0 0 0
Ni 4.61166000 4.34791500 -1.086867459999997 0 0 0
Ni 4.61166000 0.00000000 -1.086867459999997 0 0 0
Ni 1.53722000 4.34791500 -1.086867459999997 0 0 0
Ni 4.61166000 6.52187250 -3.2608676099999983 0 0 0
Ni 1.53722000 2.17395750 -3.2608676099999983 0 0 0
Ni 1.53722000 6.52187250 -3.2608676099999983 0 0 0
Ni 4.61166000 2.17395750 -3.2608676099999983 0 0 0
Ni 1.73324629 4.34791500 3.07362299
Ni 4.32985683 8.69574304 3.38631619
Ni 4.41557222 4.34791500 3.07362299
Ni 1.81902317 8.69574304 3.38658141
Ni 4.74748876 2.22361069 1.21231605
Ni 1.40139124 6.47221931 1.21231605
Ni 1.40126826 2.22361069 1.21231605
Ni 4.74742727 6.47221931 1.21231605
Sb 0.00000000 6.52187250 -1.086867459999997 0 0 0
Sb 3.07444000 0.00000000 -3.2608676099999983 0 0 0
Sb 0.00000000 2.17395750 -1.086867459999997 0 0 0
Sb 3.07444000 4.34791500 -3.2608676099999983 0 0 0
Sb 0.00000000 2.43735419 3.67460925
Sb 3.07444000 4.34782804 0.95319709
Sb 0.00000000 6.25847581 3.67487446
Sb 3.07437851 0.00000000 1.05636728
C 0.00000000 8.69565608 3.41522506
