&CONTROL
calculation = 'relax'
prefix = 'scf'
pseudo_dir = '/vol0403/data/hp230205/u10028/POT_HYBRID_KKJUS_GBRV'
outdir = './data'
tprnfor = .true.
nstep = 70
disk_io = 'non'
/
&SYSTEM
ibrav = 0
ecutwfc = 50.0
ecutrho = 400
occupations = 'smearing'
smearing = 'mp'
degauss = 0.01
assume_isolated = 'esm'
esm_bc = 'bc1'
input_dft = 'BEEF-VDW'
nosym = .true.
nspin = 1
ntyp = 5
nat = 33
/
&ELECTRONS
electron_maxstep = 200
mixing_beta = 0.1
conv_thr = 1e-06
/
&IONS
ion_dynamics = 'bfgs'
upscale = 1.0
/
&CELL
/

K_POINTS {automatic}
6 6 1 0 0 0

ATOMIC_SPECIES
C 12.01 C.pbe-n-rrkjus_psl.1.0.0.UPF
In 114.8 In.pbe-dn-rrkjus_psl.1.0.0.UPF
Li 6.941 Li.pbe-sl-rrkjus_psl.1.0.0.UPF
Mg 24.30 Mg.pbe-spnl-rrkjus_psl.1.0.0.UPF
Y 88.90 Y.pbe-spn-rrkjus_psl.1.0.0.UPF


CELL_PARAMETERS {angstrom}
7.08651000 0.00000000 0.00000000
-0.00000000 10.02180000 0.00000000
0.00000000 0.00000000 27.51640000

ATOMIC_POSITIONS {angstrom}
Li 0.00000000 2.50545000 -1.252821690000001 0 0 0
Li 0.00000000 7.51635000 -1.252821690000001 0 0 0
Li 3.54325500 5.01090000 -3.7581899100000022 0 0 0
Li 3.54325500 0.00000000 -3.7581899100000022 0 0 0
Li 0.15491111 7.44068541 4.87425510
Li 0.15484024 2.58121481 4.87425510
Li 3.27609357 -0.00000000 0.95729556
Li 3.88312402 5.01090000 1.25942563
Y 1.77162750 0.00000000 -1.252821690000001 0 0 0
Y 1.77162750 5.01090000 -1.252821690000001 0 0 0
Y 5.31488250 2.50545000 -3.7581899100000022 0 0 0
Y 5.31488250 7.51635000 -3.7581899100000022 0 0 0
Y 1.99584468 5.01090000 3.64784915
Y 2.41564953 -0.00000000 3.78212918
Y 5.16953818 7.98737460 1.92257087
Y 5.16975078 2.03472605 1.92257087
Mg 5.31488250 0.00000000 -1.252821690000001 0 0 0
Mg 5.31488250 5.01090000 -1.252821690000001 0 0 0
Mg 1.77162750 2.50545000 -3.7581899100000022 0 0 0
Mg 1.77162750 7.51635000 -3.7581899100000022 0 0 0
Mg 5.49218698 5.01090000 3.94997922
Mg 5.66679859 -0.00000000 4.42601294
Mg 1.79947748 7.41051979 1.34032384
Mg 1.79947748 2.61128021 1.34032384
In 0.00000000 0.00000000 -3.7581899100000022 0 0 0
In 0.00000000 5.01090000 -3.7581899100000022 0 0 0
In 3.54325500 7.51635000 -1.252821690000001 0 0 0
In 3.54325500 2.50545000 -1.252821690000001 0 0 0
In 6.96157483 5.01090000 1.27978776
In 0.36984496 -0.00000000 1.39755796
In 3.76329114 2.72482720 4.84261124
In 3.76329114 7.29687258 4.84261124
C 4.31164528 10.02159956 2.60910505
