&CONTROL
calculation = 'relax'
prefix = 'scf'
pseudo_dir = '/vol0004/mdt0/data/hp150275/u10028/POT_KKJUS'
outdir = './data'
tprnfor = .true.
nstep = 50
disk_io = 'non'
/
&SYSTEM
ibrav = 0
ecutwfc = 50.0
ecutrho = 400
occupations = 'smearing'
smearing = 'mp'
degauss = 0.01
assume_isolated = 'esm'
esm_bc = 'bc1'
input_dft = 'BEEF-VDW'
nosym = .true.
nspin = 1
ntyp = 4
nat = 33
/
&ELECTRONS
electron_maxstep = 200
mixing_beta = 0.1
conv_thr = 1e-06
/
&IONS
ion_dynamics = 'bfgs'
upscale = 1.0
/
&CELL
/

K_POINTS {automatic}
8 6 1 0 0 0

ATOMIC_SPECIES
Al 26.98 Al.pbe-nl-rrkjus_psl.1.0.0.UPF
C 12.01 C.pbe-n-rrkjus_psl.1.0.0.UPF
Li 6.941 Li.pbe-sl-rrkjus_psl.1.0.0.UPF
Pd 106.4 Pd.pbe-n-rrkjus_psl.1.0.0.UPF

CELL_PARAMETERS {angstrom}
6.13337000 0.00000000 0.00000000
0.00000000 8.67390000 0.00000000
0.00000000 0.00000000 26.50540000

ATOMIC_POSITIONS {angstrom}
Li 0.00000000 6.50542500 -1.08433591 0 0 0
Li 3.06668500 0.00000000 -3.2527426900000016 0 0 0
Li 0.00000000 2.16847500 -1.08433591 0 0 0
Li 3.06668500 4.33695000 -3.2527426900000016 0 0 0
Li 1.53334250 0.00000000 -1.08433591 0 0 0
Li 1.53334250 4.33695000 -1.08433591 0 0 0
Li 4.60002750 6.50542500 -3.2527426900000016 0 0 0
Li 4.60002750 2.16847500 -3.2527426900000016 0 0 0
Li 0.25287885 2.16847500 3.36936645
Li 3.06417032 4.33148544 1.07426386
Li 5.96231031 6.50542500 3.25353785
Li 3.06417032 0.00546456 1.07426386
Li 1.56308934 4.53740383 3.49208645
Li 1.56308934 8.47344617 3.49208645
Li 4.63977174 2.16847500 1.18479138
Li 4.69773208 6.50542500 0.92821911
Al 0.00000000 0.00000000 -3.2527426900000016 0 0 0
Al 3.06668500 2.16847500 -1.08433591 0 0 0
Al 3.06668500 6.50542500 -1.08433591 0 0 0
Al 0.00000000 4.33695000 -3.2527426900000016 0 0 0
Al 0.03514421 4.38075319 1.12435907
Al 3.35023070 6.50542500 3.03486830
Al 2.72566963 2.16847500 3.09211996
Al 0.03514421 8.63009680 1.12435907
Pd 1.53334250 2.16847500 -3.2527426900000016 0 0 0
Pd 1.53334250 6.50542500 -3.2527426900000016 0 0 0
Pd 4.60002750 4.33695000 -1.08433591 0 0 0
Pd 4.60002750 0.00000000 -1.08433591 0 0 0
Pd 1.56621736 6.50542500 1.14847898
Pd 1.47568882 2.16847500 0.97195302
Pd 4.57948071 0.14676239 3.11623988
Pd 4.57948071 4.19018761 3.11623988
C 4.51888301 2.16847500 3.65801025
