&CONTROL
calculation = 'relax'
prefix = 'scf'
pseudo_dir = '/vol0004/mdt0/data/hp150275/u10028/POT_KKJUS'
outdir = './data'
tprnfor = .true.
nstep = 50
disk_io = 'non'
/
&SYSTEM
ibrav = 0
ecutwfc = 50.0
ecutrho = 400
occupations = 'smearing'
smearing = 'mp'
degauss = 0.01
assume_isolated = 'esm'
esm_bc = 'bc1'
input_dft = 'BEEF-VDW'
nosym = .true.
nspin = 1
ntyp = 2
nat = 16
/
&ELECTRONS
electron_maxstep = 200
mixing_beta = 0.1
conv_thr = 1e-06
/
&IONS
ion_dynamics = 'bfgs'
upscale = 1.0
/
&CELL
/

K_POINTS {automatic}
8 11 2 0  0  0

ATOMIC_SPECIES
In 114.8 In.pbe-dn-rrkjus_psl.1.0.0.UPF
Sc 44.95 Sc.pbe-spn-rrkjus_psl.1.0.0.UPF

CELL_PARAMETERS {angstrom}
9.13703000 0.00000000 0.00000000
0.00000000 6.46086000 0.00000000
0.00000000 0.00000000 24.84560000

ATOMIC_POSITIONS {angstrom}
Sc 0.00000000 0.00000000 -2.4226944600000024 0 0 0
Sc 0.00018274 3.23023617 0.81891098
Sc 4.56851500 0.00000000 -2.4226944600000024 0 0 0
Sc 4.56833226 3.23043000 0.81866252
In 0.00000000 3.23043000 -2.4226944600000024 0 0 0
In 2.28425750 4.84564500 -0.8074820000000003 0 0 0
In 2.28425750 1.61521500 -0.8074820000000003 0 0 0
In 9.13693863 0.00038765 1.02214798
In 2.28361791 1.64364278 2.46145359
In 2.28316106 4.81657113 2.46170205
In 4.56851500 3.23043000 -2.4226944600000024 0 0 0
In 6.85277250 4.84564500 -0.8074820000000003 0 0 0
In 6.85277250 1.61521500 -0.8074820000000003 0 0 0
In 4.56869774 6.46040774 1.02512946
In 6.85277250 1.64441809 2.46145359
In 6.85405168 4.81689417 2.46145359
