&CONTROL
calculation = 'relax'
prefix = 'scf'
pseudo_dir = '/vol0004/mdt0/data/hp150275/u10028/POT_KKJUS'
outdir = './data'
tprnfor = .true.
nstep = 50
disk_io = 'non'
/
&SYSTEM
ibrav = 0
ecutwfc = 50.0
ecutrho = 400
occupations = 'smearing'
smearing = 'mp'
degauss = 0.01
assume_isolated = 'esm'
esm_bc = 'bc1'
input_dft = 'BEEF-VDW'
nosym = .true.
nspin = 1
ntyp = 3
nat = 16
/
&ELECTRONS
electron_maxstep = 200
mixing_beta = 0.1
conv_thr = 1e-06
/
&IONS
ion_dynamics = 'bfgs'
upscale = 1.0
/
&CELL
/

K_POINTS {automatic}
8 8 1 0 0 0

ATOMIC_SPECIES
Hf 178.4 Hf.pbe-spn-rrkjus_psl.1.0.0.UPF
Ni 58.69 Ni.pbe-spn-rrkjus_psl.1.0.0.UPF
Sn 118.7 Sn.pbe-dn-rrkjus_psl.1.0.0.UPF

CELL_PARAMETERS {angstrom}
6.28964000 0.00000000 0.00000000
-0.00000000 6.28964000 0.00000000
0.00000000 0.00000000 24.71720000

ATOMIC_POSITIONS {angstrom}
Hf 0.00000000 0.00000000 2.35851522
Hf 3.14482000 3.14482000 2.35851522
Hf 3.14482000 0.00000000 -0.7862541299999997 0 0 0
Hf 0.00000000 3.14482000 -0.7862541299999997 0 0 0
Ni 1.57241000 1.57241000 0.78625413
Ni 4.71723000 4.71723000 -2.3585152199999975 0 0 0
Ni 4.71723000 1.57241000 0.78625413
Ni 1.57241000 4.71723000 -2.3585152199999975 0 0 0
Ni 4.71723000 4.71723000 0.78625413
Ni 1.57241000 1.57241000 -2.3585152199999975 0 0 0
Ni 1.57241000 4.71723000 0.78625413
Ni 4.71723000 1.57241000 -2.3585152199999975 0 0 0
Sn 0.00000000 0.00000000 -0.7862541299999997 0 0 0
Sn 3.14482000 -0.00000000 2.35851522
Sn 0.00000000 3.14482000 2.35851522
Sn 3.14482000 3.14482000 -0.7862541299999997 0 0 0
