&CONTROL
calculation = 'relax'
prefix = 'scf'
pseudo_dir = '/vol0403/data/hp230205/u10028/POT_HYBRID_KKJUS_GBRV'
outdir = './data'
tprnfor = .true.
nstep = 50
disk_io = 'non'
/
&SYSTEM
ibrav = 0
ecutwfc = 50.0
ecutrho = 400
occupations = 'smearing'
smearing = 'mp'
degauss = 0.01
assume_isolated = 'esm'
esm_bc = 'bc1'
input_dft = 'BEEF-VDW'
nosym = .true.
nspin = 1
ntyp = 5
nat = 33
/
&ELECTRONS
electron_maxstep = 200
mixing_beta = 0.1
conv_thr = 1e-06
/
&IONS
ion_dynamics = 'bfgs'
upscale = 1.0
/
&CELL
/

K_POINTS {automatic}
6 6 1 0 0 0

ATOMIC_SPECIES
C 12.01 C.pbe-n-rrkjus_psl.1.0.0.UPF
Ge 72.64 Ge.pbe-dn-rrkjus_psl.1.0.0.UPF
Li 6.941 Li.pbe-sl-rrkjus_psl.1.0.0.UPF
Pd 106.4 Pd.pbe-n-rrkjus_psl.1.0.0.UPF
V 50.94 V.pbe-spnl-rrkjus_psl.1.0.0.UPF


CELL_PARAMETERS {angstrom}
9.40562000 0.00000000 0.00000000
0.00000000 5.68832000 0.00000000
0.00000000 0.00000000 26.48090000

ATOMIC_POSITIONS {angstrom}
Li 2.18906400 1.42208000 4.01582849
Li 2.35140500 1.42208000 -1.0801559099999984 0 0 0
Li 2.51073620 4.26624000 3.76002299
Li 2.35140500 4.26624000 -1.0801559099999984 0 0 0
Li 7.21655600 1.42208000 4.01582849
Li 7.05421500 1.42208000 -1.0801559099999984 0 0 0
Li 6.89488380 4.26624000 3.76002299
Li 7.05421500 4.26624000 -1.0801559099999984 0 0 0
V 0.00000000 1.42208000 0.94854584
V 0.00000000 1.42208000 -3.240467729999999 0 0 0
V 0.00000000 4.26624000 1.05208616
V 0.00000000 4.26624000 -3.240467729999999 0 0 0
V 4.70281000 1.42208000 1.02798854
V 4.70281000 1.42208000 -3.240467729999999 0 0 0
V 4.70281000 4.26624000 1.06506180
V 4.70281000 4.26624000 -3.240467729999999 0 0 0
Ge 0.00000000 0.00699663 3.14593092
Ge 0.00000000 0.00000000 -1.0801559099999984 0 0 0
Ge 0.00000000 2.83716337 3.14593092
Ge 0.00000000 2.84416000 -1.0801559099999984 0 0 0
Ge 4.70281000 0.09550689 3.21822378
Ge 4.70281000 0.00000000 -1.0801559099999984 0 0 0
Ge 4.70281000 2.74865311 3.21822378
Ge 4.70281000 2.84416000 -1.0801559099999984 0 0 0
Pd 2.36382042 0.01114911 1.59203171
Pd 2.35140500 0.00000000 -3.240467729999999 0 0 0
Pd 2.36382042 2.83301089 1.59203171
Pd 2.35140500 2.84416000 -3.240467729999999 0 0 0
Pd 7.04179958 0.01114911 1.59203171
Pd 7.05421500 0.00000000 -3.240467729999999 0 0 0
Pd 7.04179958 2.83301089 1.59203171
Pd 7.05421500 2.84416000 -3.240467729999999 0 0 0
C 0.00000000 1.42208000 4.53008756
