&CONTROL
calculation = 'relax'
prefix = 'scf'
pseudo_dir = '/vol0403/data/hp230205/u10028/POT_HYBRID_KKJUS_GBRV'
outdir = './data'
tprnfor = .true.
nstep = 50
disk_io = 'non'
/
&SYSTEM
ibrav = 0
ecutwfc = 50.0
ecutrho = 400
occupations = 'smearing'
smearing = 'mp'
degauss = 0.01
assume_isolated = 'esm'
esm_bc = 'bc1'
input_dft = 'BEEF-VDW'
nosym = .true.
nspin = 1
ntyp = 4
nat = 32
/
&ELECTRONS
electron_maxstep = 200
mixing_beta = 0.1
conv_thr = 1e-06
/
&IONS
ion_dynamics = 'bfgs'
upscale = 1.0
/
&CELL
/

K_POINTS {automatic}
6 6 1 0 0 0

ATOMIC_SPECIES
Ge 72.64 Ge.pbe-dn-rrkjus_psl.1.0.0.UPF
Li 6.941 Li.pbe-sl-rrkjus_psl.1.0.0.UPF
Pd 106.4 Pd.pbe-n-rrkjus_psl.1.0.0.UPF
Pt 195.0 Pt.pbe-n-rrkjus_psl.1.0.0.UPF


CELL_PARAMETERS {angstrom}
6.12898000 0.00000000 0.00000000
0.00000000 8.66768000 0.00000000
0.00000000 0.00000000 26.50080000

ATOMIC_POSITIONS {angstrom}
Li 0.00000000 2.16692000 -1.0833527000000025 0 0 0
Li 0.00000000 6.50076000 -1.0833527000000025 0 0 0
Li 3.06449000 4.33384000 -3.250323120000001 0 0 0
Li 3.06449000 0.00000000 -3.250323120000001 0 0 0
Li 0.04137062 6.50076000 3.56462261
Li 0.04137062 2.16692000 3.56462261
Li 3.07595119 0.00000000 1.00173024
Li 3.07595119 4.33384000 1.00173024
Ge 0.00000000 0.00000000 -3.250323120000001 0 0 0
Ge 0.00000000 4.33384000 -3.250323120000001 0 0 0
Ge 3.06449000 6.50076000 -1.0833527000000025 0 0 0
Ge 3.06449000 2.16692000 -1.0833527000000025 0 0 0
Ge 6.10832534 4.33384000 1.12389893
Ge 6.10832534 0.00000000 1.12389893
Ge 3.02262907 2.16692000 3.31419005
Ge 3.02262907 6.50076000 3.31419005
Pd 4.59673500 0.00000000 -1.0833527000000025 0 0 0
Pd 4.59673500 4.33384000 -1.0833527000000025 0 0 0
Pd 1.53224500 2.16692000 -3.250323120000001 0 0 0
Pd 1.53224500 6.50076000 -3.250323120000001 0 0 0
Pd 4.49922293 4.33384000 3.13239456
Pd 4.49922293 0.00000000 3.13239456
Pd 1.52593215 6.50076000 1.04757662
Pd 1.52593215 2.16692000 1.04757662
Pt 1.53224500 0.00000000 -1.0833527000000025 0 0 0
Pt 1.53224500 4.33384000 -1.0833527000000025 0 0 0
Pt 4.59673500 2.16692000 -3.250323120000001 0 0 0
Pt 4.59673500 6.50076000 -3.250323120000001 0 0 0
Pt 1.63717314 4.33384000 3.04600195
Pt 1.63717314 0.00000000 3.04600195
Pt 4.59740919 6.50076000 1.11091354
Pt 4.59734790 2.16692000 1.11091354
