&CONTROL
calculation = 'relax'
prefix = 'scf'
pseudo_dir = '/vol0004/mdt0/data/hp150275/u10028/POT_HYBRID_KKJUS_GBRV'
outdir = './data'
tprnfor = .true.
nstep = 50
disk_io = 'non'
/
&SYSTEM
ibrav = 0
ecutwfc = 50.0
ecutrho = 400
occupations = 'smearing'
smearing = 'mp'
degauss = 0.01
assume_isolated = 'esm'
esm_bc = 'bc1'
input_dft = 'BEEF-VDW'
nosym = .true.
nspin = 2
ntyp = 4
nat = 17
starting_magnetization(1) = 0.0
starting_magnetization(2) = 0.1
starting_magnetization(3) = 0.0
starting_magnetization(4) = 0.0
/
&ELECTRONS
electron_maxstep = 300
mixing_beta = 0.1
conv_thr = 1e-06
/
&IONS
ion_dynamics = 'bfgs'
upscale = 1.0
/
&CELL
/

K_POINTS {automatic}
8 8 1 0 0 0

ATOMIC_SPECIES
C 12.01 C.pbe-n-rrkjus_psl.1.0.0.UPF
Mn 54.93 mn_pbe_v1.5.uspp.F.UPF
Sn 118.7 Sn.pbe-dn-rrkjus_psl.1.0.0.UPF
W 183.8 w_pbe_v1.2.uspp.F.UPF

CELL_PARAMETERS {angstrom}
6.10490000 0.00000000 0.00000000
0.00000000 6.10490000 0.00000000
0.00000000 0.00000000 24.57870000

ATOMIC_POSITIONS {angstrom}
Mn 1.52622500 1.52622500 0.76316864
Mn 4.57867500 4.57867500 -2.2892601200000016 0 0 0
Mn 4.57867500 1.52622500 0.76316864
Mn 1.52622500 4.57867500 -2.2892601200000016 0 0 0
Mn 4.57867500 4.57867500 0.76316864
Mn 1.52622500 1.52622500 -2.2892601200000016 0 0 0
Mn 1.52622500 4.57867500 0.76316864
Mn 4.57867500 1.52622500 -2.2892601200000016 0 0 0
Sn 0.00000000 0.00000000 2.28926012
Sn 3.05245000 3.05245000 2.28926012
Sn 3.05245000 0.00000000 -0.7631686300000027 0 0 0
Sn 0.00000000 3.05245000 -0.7631686300000027 0 0 0
W 0.00000000 0.00000000 -0.7631686300000027 0 0 0
W 3.05245000 0.00000000 2.28926012
W 0.00000000 3.05245000 2.28926012
W 3.05245000 3.05245000 -0.7631686300000027 0 0 0
C 1.52622500 1.52622500 3.08929680
