&CONTROL
calculation = 'relax'
prefix = 'scf'
pseudo_dir = '/vol0403/data/hp230205/u10028/POT_HYBRID_KKJUS_GBRV'
outdir = './data'
tprnfor = .true.
nstep = 50
disk_io = 'non'
/
&SYSTEM
ibrav = 0
ecutwfc = 50.0
ecutrho = 400
occupations = 'smearing'
smearing = 'mp'
degauss = 0.01
assume_isolated = 'esm'
esm_bc = 'bc1'
input_dft = 'BEEF-VDW'
nosym = .true.
nspin = 1
ntyp = 6
nat = 18
/
&ELECTRONS
electron_maxstep = 200
mixing_beta = 0.1
conv_thr = 1e-06
/
&IONS
ion_dynamics = 'bfgs'
upscale = 1.0
/
&CELL
/

K_POINTS {automatic}
6 6 1 0 0 0

ATOMIC_SPECIES
Al 26.98 Al.pbe-nl-rrkjus_psl.1.0.0.UPF
C 12.01 C.pbe-n-rrkjus_psl.1.0.0.UPF
In 114.8 In.pbe-dn-rrkjus_psl.1.0.0.UPF
O 15.99 O.pbe-n-rrkjus_psl.1.0.0.UPF
Pd 106.4 Pd.pbe-n-rrkjus_psl.1.0.0.UPF
Sc 44.95 Sc.pbe-spn-rrkjus_psl.1.0.0.UPF


CELL_PARAMETERS {angstrom}
8.30234000 0.00000000 0.00000000
0.00000000 5.99150000 0.00000000
0.00000000 0.00000000 24.49130000

ATOMIC_POSITIONS {angstrom}
Sc 2.07558500 4.44581283 -0.7484541299999989 0 0 0
Sc 2.07558500 1.34143694 2.17997061
Sc 6.22675500 4.44581283 -0.7484541299999989 0 0 0
Sc 6.22675500 1.33490620 2.18560361
Al 0.00000000 0.00000000 -2.2456072999999996 0 0 0
Al 8.29237719 2.92606886 0.74722956
Al 4.15117000 0.00000000 -2.2456072999999996 0 0 0
Al 4.16121583 2.92606886 0.74722956
In 2.07558500 1.45006283 -0.7484541299999989 0 0 0
In 2.07566802 4.33503000 2.54464607
In 6.22675500 1.45006283 -0.7484541299999989 0 0 0
In 6.22683802 4.30800833 2.54097237
Pd 0.00000000 2.99575000 -2.2456072999999996 0 0 0
Pd 8.29154696 5.81810599 0.82290768
Pd 4.15117000 2.99575000 -2.2456072999999996 0 0 0
Pd 4.16196304 5.81810599 0.82290768
C 2.07558500 1.36222744 4.47309103
O 2.07558500 1.36576243 5.62393722
