&CONTROL
calculation = 'relax'
prefix = 'scf'
pseudo_dir = '/vol0004/mdt0/data/hp150275/u10028/POT_HYBRID_KKJUS_GBRV'
outdir = './data'
tprnfor = .true.
nstep = 50
disk_io = 'non'
/
&SYSTEM
ibrav = 0
ecutwfc = 50.0
ecutrho = 400
occupations = 'smearing'
smearing = 'mp'
degauss = 0.01
assume_isolated = 'esm'
esm_bc = 'bc1'
input_dft = 'BEEF-VDW'
nosym = .true.
nspin = 2
ntyp = 4
nat = 33
starting_magnetization(1) = 0.0
starting_magnetization(2) = 0.1
starting_magnetization(3) = 0.0
starting_magnetization(4) = 0.0
/
&ELECTRONS
electron_maxstep = 200
mixing_beta = 0.1
conv_thr = 1e-06
/
&IONS
ion_dynamics = 'bfgs'
upscale = 1.0
/
&CELL
/

K_POINTS {automatic}
9 6 2 0  0  0

ATOMIC_SPECIES
C 12.01 C.pbe-n-rrkjus_psl.1.0.0.UPF
Co 58.93 co_pbe_v1.2.uspp.F.UPF
Ga 69.72 Ga.pbe-dnl-rrkjus_psl.1.0.0.UPF
Ta 180.9 Ta.pbe-spn-rrkjus_psl.1.0.0.UPF

CELL_PARAMETERS {angstrom}
5.95946000 0.00000000 0.00000000
0.00000000 8.42794000 0.00000000
0.00000000 0.00000000 26.32100000

ATOMIC_POSITIONS {angstrom}
Ta 0.00000000 0.00000000 23.16063753
Ta 2.97973000 2.10698500 25.26763358
Ta 2.97973000 6.32095500 25.26763358
Ta 0.00000000 4.21397000 23.16063753
Ta 0.01269365 4.23579836 1.08889977
Ta 2.95750121 6.32095500 3.15536148
Ta 3.16441367 2.10698500 3.00059400
Ta 0.01269365 8.40611164 1.08889977
Ga 0.00000000 6.32095500 25.26763358
Ga 2.97973000 0.00000000 23.16063753
Ga 0.00000000 2.10698500 25.26763358
Ga 2.97973000 4.21397000 23.16063753
Ga 5.68204714 2.10706928 3.48647966
Ga 2.95088621 4.19795691 1.03625777
Ga 0.01364716 6.32095500 3.35040009
Ga 2.95088621 0.01601309 1.03625777
Co 1.48986500 0.00000000 25.26763358
Co 4.46959500 4.21397000 25.26763358
Co 4.46959500 0.00000000 25.26763358
Co 1.48986500 4.21397000 25.26763358
Co 4.46959500 6.32095500 23.16063753
Co 1.48986500 2.10698500 23.16063753
Co 1.48986500 6.32095500 23.16063753
Co 4.46959500 2.10698500 23.16063753
Co 1.43855405 4.06985223 3.15641432
Co 4.46071540 8.34779029 2.97795794
Co 4.46065581 4.29411971 2.97795794
Co 1.43843486 0.14411777 3.15641432
Co 4.55493447 2.10698500 0.94992489
Co 1.53473973 6.32095500 1.08995261
Co 1.46179594 2.10698500 1.03836345
Co 4.42323040 6.32095500 1.10206027
C 1.53885176 2.10690072 4.06764734
