&CONTROL
calculation = 'relax'
prefix = 'scf'
pseudo_dir = '/vol0403/data/hp230205/u10028/POT_HYBRID_KKJUS_GBRV'
outdir = './data'
tprnfor = .true.
nstep = 50
disk_io = 'non'
/
&SYSTEM
ibrav = 0
ecutwfc = 50.0
ecutrho = 400
occupations = 'smearing'
smearing = 'mp'
degauss = 0.01
assume_isolated = 'esm'
esm_bc = 'bc1'
input_dft = 'BEEF-VDW'
nosym = .true.
nspin = 1
ntyp = 5
nat = 33
/
&ELECTRONS
electron_maxstep = 200
mixing_beta = 0.1
conv_thr = 1e-06
/
&IONS
ion_dynamics = 'bfgs'
upscale = 1.0
/
&CELL
/

K_POINTS {automatic}
6 6 1 0 0 0

ATOMIC_SPECIES
C 12.01 C.pbe-n-rrkjus_psl.1.0.0.UPF
In 114.8 In.pbe-dn-rrkjus_psl.1.0.0.UPF
Li 6.941 Li.pbe-sl-rrkjus_psl.1.0.0.UPF
Pt 195.0 Pt.pbe-n-rrkjus_psl.1.0.0.UPF
Y 88.90 Y.pbe-spn-rrkjus_psl.1.0.0.UPF


CELL_PARAMETERS {angstrom}
6.80323000 0.00000000 0.00000000
0.00000000 9.62122000 0.00000000
0.00000000 0.00000000 27.21590000

ATOMIC_POSITIONS {angstrom}
Li 5.10242250 0.00000000 -1.2026706200000028 0 0 0
Li 5.10242250 4.81061000 -1.2026706200000028 0 0 0
Li 1.70080750 2.40530500 -3.6080118600000013 0 0 0
Li 1.70080750 7.21591500 -3.6080118600000013 0 0 0
Li 3.80980880 4.81061000 5.05943581
Li 4.63504060 0.00000000 4.52219394
Li 1.68284697 7.17569830 1.27805866
Li 1.68284697 2.44552170 1.27833082
Y 0.00000000 2.40530500 -1.2026706200000028 0 0 0
Y 0.00000000 7.21591500 -1.2026706200000028 0 0 0
Y 3.40161500 4.81061000 -3.6080118600000013 0 0 0
Y 3.40161500 0.00000000 -3.6080118600000013 0 0 0
Y 6.51429682 7.22967334 3.60202437
Y 6.51429682 2.39154666 3.60202437
Y 3.48148492 0.00000000 1.33711717
Y 3.51352813 4.81061000 1.38420067
In 0.00000000 0.00000000 -3.6080118600000013 0 0 0
In 0.00000000 4.81061000 -3.6080118600000013 0 0 0
In 3.40161500 7.21591500 -1.2026706200000028 0 0 0
In 3.40161500 2.40530500 -1.2026706200000028 0 0 0
In 0.00435407 4.81061000 1.15803655
In 6.76832943 0.00000000 1.24567174
In 3.20649836 2.38375347 3.78736464
In 3.20649836 7.23746653 3.78736464
Pt 1.70080750 0.00000000 -1.2026706200000028 0 0 0
Pt 1.70080750 4.81061000 -1.2026706200000028 0 0 0
Pt 5.10242250 2.40530500 -3.6080118600000013 0 0 0
Pt 5.10242250 7.21591500 -3.6080118600000013 0 0 0
Pt 1.63474814 4.81061000 3.41804488
Pt 1.83449097 0.00000000 3.60148005
Pt 5.11378389 7.19628771 1.08918032
Pt 5.11378389 2.42493229 1.08918032
C 6.59613968 0.00000000 3.70109024
