&CONTROL
calculation = 'relax'
prefix = 'scf'
pseudo_dir = '/vol0004/mdt0/data/hp150275/u10028/POT_KKJUS'
outdir = './data'
tprnfor = .true.
nstep = 50
disk_io = 'non'
/
&SYSTEM
ibrav = 0
ecutwfc = 50.0
ecutrho = 400
occupations = 'smearing'
smearing = 'mp'
degauss = 0.01
assume_isolated = 'esm'
esm_bc = 'bc1'
input_dft = 'BEEF-VDW'
nosym = .true.
nspin = 1
ntyp = 4
nat = 33
/
&ELECTRONS
electron_maxstep = 200
mixing_beta = 0.1
conv_thr = 1e-06
/
&IONS
ion_dynamics = 'bfgs'
upscale = 1.0
/
&CELL
/

K_POINTS {automatic}
9 6 2 0  0  0

ATOMIC_SPECIES
C 12.01 C.pbe-n-rrkjus_psl.1.0.0.UPF
Pd 106.4 Pd.pbe-n-rrkjus_psl.1.0.0.UPF
Sn 118.7 Sn.pbe-dn-rrkjus_psl.1.0.0.UPF
Y 88.90 Y.pbe-spn-rrkjus_psl.1.0.0.UPF

CELL_PARAMETERS {angstrom}
6.84524000 0.00000000 0.00000000
0.00000000 9.68063000 0.00000000
0.00000000 0.00000000 27.26050000

ATOMIC_POSITIONS {angstrom}
Y 0.00000000 0.00000000 -3.6302807799999997 0 0 0
Y 3.42262000 2.42015750 -1.2100935899999996 0 0 0
Y 3.42262000 7.26047250 -1.2100935899999996 0 0 0
Y 0.00000000 4.84031500 -3.6302807799999997 0 0 0
Y 6.80642749 4.85783694 1.19728116
Y 3.35895927 7.26047250 3.70824582
Y 3.64502185 2.42015750 3.68371137
Y 6.80642749 9.66310806 1.19728116
Sn 0.00000000 7.26047250 -1.2100935899999996 0 0 0
Sn 3.42262000 0.00000000 -3.6302807799999997 0 0 0
Sn 0.00000000 2.42015750 -1.2100935899999996 0 0 0
Sn 3.42262000 4.84031500 -3.6302807799999997 0 0 0
Sn 6.48237383 2.42015750 4.75586683
Sn 3.38907832 4.82414835 1.30250669
Sn 0.08625002 7.26047250 3.63137120
Sn 3.38907832 0.01616665 1.30250669
Pd 1.71131000 0.00000000 -1.2100935899999996 0 0 0
Pd 5.13393000 4.84031500 -1.2100935899999996 0 0 0
Pd 5.13393000 0.00000000 -1.2100935899999996 0 0 0
Pd 1.71131000 4.84031500 -1.2100935899999996 0 0 0
Pd 5.13393000 7.26047250 -3.6302807799999997 0 0 0
Pd 1.71131000 2.42015750 -3.6302807799999997 0 0 0
Pd 1.71131000 7.26047250 -3.6302807799999997 0 0 0
Pd 5.13393000 2.42015750 -3.6302807799999997 0 0 0
Pd 1.44112838 4.67342094 3.52314702
Pd 5.22421872 9.59515004 3.54032114
Pd 5.22421872 4.92579496 3.54032114
Pd 1.44119683 0.16679725 3.52314702
Pd 5.08580796 2.42015750 1.13403680
Pd 1.83883682 7.26047250 1.25698165
Pd 1.62239033 2.42015750 1.41563777
Pd 5.01119485 7.26047250 1.33821795
C 1.44941112 2.42006069 3.70061288
