&CONTROL
calculation = 'relax'
prefix = 'scf'
pseudo_dir = '/vol0004/mdt0/data/hp150275/u10028/POT_KKJUS'
outdir = './data'
tprnfor = .true.
nstep = 50
disk_io = 'non'
/
&SYSTEM
ibrav = 0
ecutwfc = 50.0
ecutrho = 400
occupations = 'smearing'
smearing = 'mp'
degauss = 0.01
assume_isolated = 'esm'
esm_bc = 'bc1'
input_dft = 'BEEF-VDW'
nosym = .true.
nspin = 1
ntyp = 5
nat = 34
/
&ELECTRONS
electron_maxstep = 200
mixing_beta = 0.1
conv_thr = 1e-06
/
&IONS
ion_dynamics = 'bfgs'
upscale = 1.0
/
&CELL
/

K_POINTS {automatic}
9 6 2 0  0  0

ATOMIC_SPECIES
C 12.01 C.pbe-n-rrkjus_psl.1.0.0.UPF
O 15.99 O.pbe-n-rrkjus_psl.1.0.0.UPF
Pt 195.0 Pt.pbe-n-rrkjus_psl.1.0.0.UPF
Sc 44.95 Sc.pbe-spn-rrkjus_psl.1.0.0.UPF
Sn 118.7 Sn.pbe-dn-rrkjus_psl.1.0.0.UPF

CELL_PARAMETERS {angstrom}
6.65597000 0.00000000 0.00000000
0.00000000 9.41296000 0.00000000
0.00000000 0.00000000 27.05970000

ATOMIC_POSITIONS {angstrom}
Sc 0.00000000 0.00000000 -3.5299378600000004 0 0 0
Sc 3.32798500 2.35324000 -1.1765557599999994 0 0 0
Sc 3.32798500 7.05972000 -1.1765557599999994 0 0 0
Sc 0.00000000 4.70648000 -3.5299378600000004 0 0 0
Sc 0.00000000 4.71749316 1.22363963
Sc 3.32798500 7.05972000 3.44659399
Sc 3.32798500 2.35324000 3.47203011
Sc 0.00000000 9.40194684 1.22363963
Sn 0.00000000 7.05972000 -1.1765557599999994 0 0 0
Sn 3.32798500 0.00000000 -3.5299378600000004 0 0 0
Sn 0.00000000 2.35324000 -1.1765557599999994 0 0 0
Sn 3.32798500 4.70648000 -3.5299378600000004 0 0 0
Sn 0.00000000 2.35324000 3.73802696
Sn 3.32798500 4.68643040 1.13434262
Sn 0.00000000 7.05972000 3.75696875
Sn 3.32798500 0.02004960 1.13434262
Pt 1.66399250 0.00000000 -1.1765557599999994 0 0 0
Pt 4.99197750 4.70648000 -1.1765557599999994 0 0 0
Pt 4.99197750 0.00000000 -1.1765557599999994 0 0 0
Pt 1.66399250 4.70648000 -1.1765557599999994 0 0 0
Pt 4.99197750 7.05972000 -3.5299378600000004 0 0 0
Pt 1.66399250 2.35324000 -3.5299378600000004 0 0 0
Pt 1.66399250 7.05972000 -3.5299378600000004 0 0 0
Pt 4.99197750 2.35324000 -3.5299378600000004 0 0 0
Pt 1.70765566 4.72540005 3.37082683
Pt 4.94831434 9.39403995 3.37082683
Pt 4.94831434 4.72540005 3.37082683
Pt 1.70765566 9.39403995 3.37082683
Pt 5.08209933 2.35324000 1.20307426
Pt 1.61074474 7.05972000 1.21308635
Pt 1.57387067 2.35324000 1.20307426
Pt 5.04529182 7.05972000 1.21308635
C 3.32798500 2.35324000 5.82865938
O 3.32798500 2.35324000 6.97003753
