&CONTROL
calculation = 'relax'
prefix = 'scf'
pseudo_dir = '/vol0004/mdt0/data/hp150275/u10028/POT_HYBRID_KKJUS_GBRV'
outdir = './data'
tprnfor = .true.
nstep = 50
disk_io = 'non'
/
&SYSTEM
ibrav = 0
ecutwfc = 50.0
ecutrho = 400
occupations = 'smearing'
smearing = 'mp'
degauss = 0.01
assume_isolated = 'esm'
esm_bc = 'bc1'
input_dft = 'BEEF-VDW'
nosym = .true.
nspin = 2
ntyp = 4
nat = 34
starting_magnetization(1) = 0.0
starting_magnetization(2) = 0.0
starting_magnetization(3) = 0.01
starting_magnetization(4) = 0.0
/
&ELECTRONS
electron_maxstep = 200
mixing_beta = 0.1
conv_thr = 1e-06
/
&IONS
ion_dynamics = 'bfgs'
upscale = 1.0
/
&CELL
/

K_POINTS {automatic}
7 7 2 0  0  0

ATOMIC_SPECIES
C 12.01 C.pbe-n-rrkjus_psl.1.0.0.UPF
In 114.8 In.pbe-dn-rrkjus_psl.1.0.0.UPF
Ni 58.69 ni_pbe_v1.4.uspp.F.UPF
O 15.99 O.pbe-n-rrkjus_psl.1.0.0.UPF

CELL_PARAMETERS {angstrom}
7.54029000 0.00000000 0.00000000
-0.00000000 7.54029000 0.00000000
0.00000000 0.00000000 25.65520000

ATOMIC_POSITIONS {angstrom}
In 0.00000000 0.00000000 2.82771614
In 0.00000000 0.00000000 -0.942572049999999 0 0 0
In 0.00000000 3.77014500 2.82771614
In 0.00000000 3.77014500 -0.942572049999999 0 0 0
In 3.77014500 -0.00000000 2.82771614
In 3.77014500 0.00000000 -0.942572049999999 0 0 0
In 3.77014500 3.77014500 2.82771614
In 3.77014500 3.77014500 -0.942572049999999 0 0 0
Ni 0.00000000 1.88507250 0.94257205
Ni 1.88507250 -0.00000000 0.94257205
Ni 1.88507250 1.88507250 2.82771614
Ni 0.00000000 1.88507250 -2.8277161399999997 0 0 0
Ni 1.88507250 0.00000000 -2.8277161399999997 0 0 0
Ni 1.88507250 1.88507250 -0.942572049999999 0 0 0
Ni 0.00000000 5.65521750 0.94257205
Ni 1.88507250 3.77014500 0.94257205
Ni 1.88507250 5.65521750 2.82771614
Ni 0.00000000 5.65521750 -2.8277161399999997 0 0 0
Ni 1.88507250 3.77014500 -2.8277161399999997 0 0 0
Ni 1.88507250 5.65521750 -0.942572049999999 0 0 0
Ni 3.77014500 1.88507250 0.94257205
Ni 5.65521750 -0.00000000 0.94257205
Ni 5.65521750 1.88507250 2.82771614
Ni 3.77014500 1.88507250 -2.8277161399999997 0 0 0
Ni 5.65521750 0.00000000 -2.8277161399999997 0 0 0
Ni 5.65521750 1.88507250 -0.942572049999999 0 0 0
Ni 3.77014500 5.65521750 0.94257205
Ni 5.65521750 3.77014500 0.94257205
Ni 5.65521750 5.65521750 2.82771614
Ni 3.77014500 5.65521750 -2.8277161399999997 0 0 0
Ni 5.65521750 3.77014500 -2.8277161399999997 0 0 0
Ni 5.65521750 5.65521750 -0.942572049999999 0 0 0
C 0.00000000 0.00000000 4.72748370
O 0.00000000 0.00000000 5.87760632
