&CONTROL
calculation = 'relax'
prefix = 'scf'
pseudo_dir = '/vol0403/data/hp230205/u10028/POT_HYBRID_KKJUS_GBRV'
outdir = './data'
tprnfor = .true.
nstep = 70
disk_io = 'non'
/
&SYSTEM
ibrav = 0
ecutwfc = 50.0
ecutrho = 400
occupations = 'smearing'
smearing = 'mp'
degauss = 0.01
assume_isolated = 'esm'
esm_bc = 'bc1'
input_dft = 'BEEF-VDW'
nosym = .true.
nspin = 1
ntyp = 5
nat = 17
/
&ELECTRONS
electron_maxstep = 200
mixing_beta = 0.1
conv_thr = 1e-06
/
&IONS
ion_dynamics = 'bfgs'
upscale = 1.0
/
&CELL
/

K_POINTS {automatic}
6 6 1 0 0 0

ATOMIC_SPECIES
C 12.01 C.pbe-n-rrkjus_psl.1.0.0.UPF
Cu 63.54 Cu.pbe-dn-rrkjus_psl.1.0.0.UPF
Li 6.941 Li.pbe-sl-rrkjus_psl.1.0.0.UPF
Mg 24.30 Mg.pbe-spnl-rrkjus_psl.1.0.0.UPF
Pd 106.4 Pd.pbe-n-rrkjus_psl.1.0.0.UPF


CELL_PARAMETERS {angstrom}
5.46655000 0.00000000 0.00000000
-0.00000000 7.95764000 0.00000000
0.00000000 0.00000000 24.09630000

ATOMIC_POSITIONS {angstrom}
Li 2.56080535 0.51995220 2.50432846
Li 5.35240844 -0.00000000 -0.682648180000001 0 0 0
Li 2.56080535 3.45886780 2.50456942
Li 5.35240844 3.97882000 -0.682648180000001 0 0 0
Mg 1.36406822 1.98941000 0.45951644
Mg 3.92875482 1.98941000 -2.048185499999999 0 0 0
Mg 1.34089005 5.96823000 0.82963561
Mg 3.92875482 5.96823000 -2.048185499999999 0 0 0
Cu 5.40439533 0.30963177 2.01059527
Cu 2.61913344 0.00000000 -0.682648180000001 0 0 0
Cu 5.40444999 3.66918823 2.01059527
Cu 2.61913344 3.97882000 -0.682648180000001 0 0 0
Pd 3.99287745 1.98941000 0.56144379
Pd 1.19547982 1.98941000 -2.048185499999999 0 0 0
Pd 4.09275132 5.96823000 0.78505745
Pd 1.19547982 5.96823000 -2.048185499999999 0 0 0
C 0.73421233 1.98941000 2.51806335
