&CONTROL
calculation = 'relax'
prefix = 'scf'
pseudo_dir = '/vol0004/mdt0/data/hp150275/u10028/POT_KKJUS'
outdir = './data'
tprnfor = .true.
nstep = 50
disk_io = 'non'
/
&SYSTEM
ibrav = 0
ecutwfc = 50.0
ecutrho = 400
occupations = 'smearing'
smearing = 'mp'
degauss = 0.01
assume_isolated = 'esm'
esm_bc = 'bc1'
input_dft = 'BEEF-VDW'
nosym = .true.
nspin = 1
ntyp = 5
nat = 34
/
&ELECTRONS
electron_maxstep = 200
mixing_beta = 0.1
conv_thr = 1e-06
/
&IONS
ion_dynamics = 'bfgs'
upscale = 1.0
/
&CELL
/

K_POINTS {automatic}
9 6 2 0  0  0

ATOMIC_SPECIES
Ag 107.8 Ag.pbe-n-rrkjus_psl.1.0.0.UPF
C 12.01 C.pbe-n-rrkjus_psl.1.0.0.UPF
Li 6.941 Li.pbe-sl-rrkjus_psl.1.0.0.UPF
O 15.99 O.pbe-n-rrkjus_psl.1.0.0.UPF
Sb 121.7 Sb.pbe-n-rrkjus_psl.1.0.0.UPF

CELL_PARAMETERS {angstrom}
6.69979000 0.00000000 0.00000000
0.00000000 9.47494000 0.00000000
0.00000000 0.00000000 27.10620000

ATOMIC_POSITIONS {angstrom}
Li 0.00000000 7.10620500 -1.1842698800000022 0 0 0
Li 3.34989500 0.00000000 -3.5530807000000024 0 0 0
Li 0.00000000 2.36873500 -1.1842698800000022 0 0 0
Li 3.34989500 4.73747000 -3.5530807000000024 0 0 0
Li 1.67494750 0.00000000 -1.1842698800000022 0 0 0
Li 1.67494750 4.73747000 -1.1842698800000022 0 0 0
Li 5.02484250 7.10620500 -3.5530807000000024 0 0 0
Li 5.02484250 2.36873500 -3.5530807000000024 0 0 0
Li 6.47340410 2.36873500 3.45549838
Li 3.26139077 4.72392084 1.05903923
Li 6.62280941 7.10620500 3.34761570
Li 3.26139077 0.01354916 1.05903923
Li 1.92350971 4.70449721 3.54793052
Li 1.92350971 0.03297279 3.54765946
Li 4.96561636 2.36873500 1.20541271
Li 4.91114706 7.10620500 1.22384493
Ag 1.67494750 2.36873500 -3.5530807000000024 0 0 0
Ag 1.67494750 7.10620500 -3.5530807000000024 0 0 0
Ag 5.02484250 4.73747000 -1.1842698800000022 0 0 0
Ag 5.02484250 0.00000000 -1.1842698800000022 0 0 0
Ag 1.79654869 7.10620500 1.25230644
Ag 1.74114143 2.36873500 1.32332468
Ag 4.80596036 9.42481757 3.27226046
Ag 4.80596036 4.78759243 3.27226046
Sb 0.00000000 0.00000000 -3.5530807000000024 0 0 0
Sb 3.34989500 2.36873500 -1.1842698800000022 0 0 0
Sb 3.34989500 7.10620500 -1.1842698800000022 0 0 0
Sb 0.00000000 4.73747000 -3.5530807000000024 0 0 0
Sb 0.05915915 4.75367215 1.25583025
Sb 3.30239349 7.10620500 3.75556401
Sb 3.40932214 2.36873500 3.71029666
Sb 0.05915915 9.45873785 1.25583025
C 0.03611187 2.36873500 5.55622888
O 0.04877447 2.36873500 6.69577352
