&CONTROL
calculation = 'relax'
prefix = 'scf'
pseudo_dir = '/vol0004/mdt0/data/hp150275/u10028/POT_KKJUS'
outdir = './data'
tprnfor = .true.
nstep = 50
disk_io = 'non'
/
&SYSTEM
ibrav = 0
ecutwfc = 50.0
ecutrho = 400
occupations = 'smearing'
smearing = 'mp'
degauss = 0.01
assume_isolated = 'esm'
esm_bc = 'bc1'
input_dft = 'BEEF-VDW'
nosym = .true.
nspin = 1
ntyp = 4
nat = 34
/
&ELECTRONS
electron_maxstep = 200
mixing_beta = 0.1
conv_thr = 1e-06
/
&IONS
ion_dynamics = 'bfgs'
upscale = 1.0
/
&CELL
/

K_POINTS {automatic}
8 6 1 0 0 0

ATOMIC_SPECIES
Au 196.9 Au.pbe-n-rrkjus_psl.1.0.0.UPF
C 12.01 C.pbe-n-rrkjus_psl.1.0.0.UPF
O 15.99 O.pbe-n-rrkjus_psl.1.0.0.UPF
Sc 44.95 Sc.pbe-spn-rrkjus_psl.1.0.0.UPF

CELL_PARAMETERS {angstrom}
6.85145000 0.00000000 0.00000000
0.00000000 9.68941000 0.00000000
0.00000000 0.00000000 27.26710000

ATOMIC_POSITIONS {angstrom}
Sc 1.71286250 2.42235250 -3.6336137499999985 0 0 0
Sc 1.71286250 4.84470500 -1.2112045800000004 0 0 0
Sc 1.71286250 2.39483458 1.20466048
Sc 1.71286250 0.00000000 3.60743733
Sc 1.71286250 7.26705750 -3.6336137499999985 0 0 0
Sc 1.71286250 0.00000000 -1.2112045800000004 0 0 0
Sc 1.71286250 7.29467232 1.20466048
Sc 1.71286250 4.84470500 3.61125472
Sc 5.13858750 2.42235250 -3.6336137499999985 0 0 0
Sc 5.13858750 4.84470500 -1.2112045800000004 0 0 0
Sc 5.13858750 2.43746798 1.20847787
Sc 5.13858750 0.00000000 3.68133117
Sc 5.13858750 7.26705750 -3.6336137499999985 0 0 0
Sc 5.13858750 0.00000000 -1.2112045800000004 0 0 0
Sc 5.13858750 7.25203891 1.20847787
Sc 5.13858750 4.84470500 3.60143857
Au 0.00000000 0.00000000 -3.6336137499999985 0 0 0
Au 0.00000000 2.42235250 -1.2112045800000004 0 0 0
Au 6.76834191 0.00000000 1.24637914
Au 6.84480409 2.43204191 3.46646642
Au 0.00000000 4.84470500 -3.6336137499999985 0 0 0
Au 0.00000000 7.26705750 -1.2112045800000004 0 0 0
Au 0.03603863 4.84470500 1.21474931
Au 6.84480409 7.25746498 3.46646642
Au 3.42572500 0.00000000 -3.6336137499999985 0 0 0
Au 3.42572500 2.42235250 -1.2112045800000004 0 0 0
Au 3.50883309 0.00000000 1.24637914
Au 3.43237091 2.43204191 3.46646642
Au 3.42572500 4.84470500 -3.6336137499999985 0 0 0
Au 3.42572500 7.26705750 -1.2112045800000004 0 0 0
Au 3.38968637 4.84470500 1.21474931
Au 3.43237091 7.25736809 3.46646642
C 1.71286250 0.00000000 5.88369484
O 1.71286250 0.00000000 7.03709317
