&CONTROL
calculation = 'relax'
prefix = 'scf'
pseudo_dir = '/vol0004/mdt0/data/hp150275/u10028/POT_HYBRID_KKJUS_GBRV'
outdir = './data'
tprnfor = .true.
nstep = 50
disk_io = 'non'
/
&SYSTEM
ibrav = 0
ecutwfc = 50.0
ecutrho = 400
occupations = 'smearing'
smearing = 'mp'
degauss = 0.01
assume_isolated = 'esm'
esm_bc = 'bc1'
input_dft = 'BEEF-VDW'
nosym = .true.
nspin = 2
ntyp = 5
nat = 18
starting_magnetization(1) = 0.0
starting_magnetization(2) = 0.1
starting_magnetization(3) = 0.0
starting_magnetization(4) = 0.0
starting_magnetization(5) = 0.0
/
&ELECTRONS
electron_maxstep = 300
mixing_beta = 0.1
conv_thr = 1e-06
/
&IONS
ion_dynamics = 'bfgs'
upscale = 1.0
/
&CELL
/

K_POINTS {automatic}
8 8 1 0 0 0

ATOMIC_SPECIES
C 12.01 C.pbe-n-rrkjus_psl.1.0.0.UPF
Co 58.93 co_pbe_v1.2.uspp.F.UPF
O 15.99 O.pbe-n-rrkjus_psl.1.0.0.UPF
Si 28.08 Si.pbe-nl-rrkjus_psl.1.0.0.UPF
V 50.94 V.pbe-spnl-rrkjus_psl.1.0.0.UPF

CELL_PARAMETERS {angstrom}
5.68381000 0.00000000 0.00000000
0.00000000 5.68381000 0.00000000
0.00000000 0.00000000 24.26290000

ATOMIC_POSITIONS {angstrom}
V 0.00000000 0.00000000 2.14289933
V 2.84190500 2.84190500 2.21932746
V 2.84190500 0.00000000 -0.710417709999998 0 0 0
V 0.00000000 2.84190500 -0.710417709999998 0 0 0
Co 1.42578374 1.42578374 0.69416157
Co 4.26285750 4.26285750 -2.1314957699999972 0 0 0
Co 4.25802626 1.42578374 0.69440420
Co 1.42095250 4.26285750 -2.1314957699999972 0 0 0
Co 4.25796942 4.25802626 0.69440420
Co 1.42095250 1.42095250 -2.1314957699999972 0 0 0
Co 1.42584058 4.25802626 0.69440420
Co 4.26285750 1.42095250 -2.1314957699999972 0 0 0
Si 0.00000000 0.00000000 -0.710417709999998 0 0 0
Si 2.84190500 0.00000000 2.08030105
Si 0.00000000 2.84190500 2.08030105
Si 2.84190500 2.84190500 -0.710417709999998 0 0 0
C 0.00000000 0.00000000 4.13269976
O 0.00000000 0.00000000 5.28615802
