&CONTROL
calculation = 'relax'
prefix = 'scf'
pseudo_dir = '/vol0004/mdt0/data/hp150275/u10028/POT_KKJUS'
outdir = './data'
tprnfor = .true.
nstep = 50
disk_io = 'non'
/
&SYSTEM
ibrav = 0
ecutwfc = 50.0
ecutrho = 400
occupations = 'smearing'
smearing = 'mp'
degauss = 0.01
assume_isolated = 'esm'
esm_bc = 'bc1'
input_dft = 'BEEF-VDW'
nosym = .true.
nspin = 1
ntyp = 4
nat = 18
/
&ELECTRONS
electron_maxstep = 200
mixing_beta = 0.1
conv_thr = 1e-06
/
&IONS
ion_dynamics = 'bfgs'
upscale = 1.0
/
&CELL
/

K_POINTS {automatic}
8 8 1 0 0 0

ATOMIC_SPECIES
C 12.01 C.pbe-n-rrkjus_psl.1.0.0.UPF
Cu 63.54 Cu.pbe-dn-rrkjus_psl.1.0.0.UPF
O 15.99 O.pbe-n-rrkjus_psl.1.0.0.UPF
Sc 44.95 Sc.pbe-spn-rrkjus_psl.1.0.0.UPF

CELL_PARAMETERS {angstrom}
6.54723000 0.00000000 0.00000000
0.00000000 6.54723000 0.00000000
0.00000000 0.00000000 24.91040000

ATOMIC_POSITIONS {angstrom}
Sc 1.63680750 1.63680750 -0.6780610899999999 0 0 0
Sc 1.63621825 1.63720033 2.39090019
Sc 1.63680750 4.91042250 -0.6780610899999999 0 0 0
Sc 1.63641467 4.91074986 2.51121742
Sc 4.91042250 1.63680750 -0.6780610899999999 0 0 0
Sc 4.90996419 1.63628372 2.51022101
Sc 4.91042250 4.91042250 -0.6780610899999999 0 0 0
Sc 4.91035703 4.91068439 2.56303106
Cu 0.00000000 0.00000000 -2.31492347 0 0 0
Cu 6.46656813 6.46643718 1.05919021
Cu 0.00000000 3.27361500 -2.31492347 0 0 0
Cu 6.46630624 3.35447329 1.05894110
Cu 3.27361500 0.00000000 -2.31492347 0 0 0
Cu 3.35434235 6.46669907 1.05943931
Cu 3.27361500 3.27361500 -2.31492347 0 0 0
Cu 3.35453876 3.35408046 1.05919021
C 1.63687297 1.63680750 4.64753333
O 1.63706939 1.63661108 5.80860707
