&CONTROL
calculation = 'relax'
prefix = 'scf'
pseudo_dir = '/vol0004/mdt0/data/hp150275/u10028/POT_HYBRID_KKJUS_GBRV'
outdir = './data'
tprnfor = .true.
nstep = 50
disk_io = 'non'
/
&SYSTEM
ibrav = 0
ecutwfc = 50.0
ecutrho = 400
occupations = 'smearing'
smearing = 'mp'
degauss = 0.01
assume_isolated = 'esm'
esm_bc = 'bc1'
input_dft = 'BEEF-VDW'
nosym = .true.
nspin = 2
ntyp = 4
nat = 33
starting_magnetization(1) = 0.0
starting_magnetization(2) = 0.1
starting_magnetization(3) = 0.1
starting_magnetization(4) = 0.0
/
&ELECTRONS
electron_maxstep = 300
mixing_beta = 0.1
conv_thr = 1e-06
/
&IONS
ion_dynamics = 'bfgs'
upscale = 1.0
/
&CELL
/

K_POINTS {automatic}
8 6 1 0 0 0

ATOMIC_SPECIES
C 12.01 C.pbe-n-rrkjus_psl.1.0.0.UPF
Co 58.93 co_pbe_v1.2.uspp.F.UPF
Mn 54.93 mn_pbe_v1.5.uspp.F.UPF
Si 28.08 Si.pbe-nl-rrkjus_psl.1.0.0.UPF

CELL_PARAMETERS {angstrom}
5.64266000 0.00000000 0.00000000
0.00000000 7.97993000 0.00000000
0.00000000 0.00000000 25.98490000

ATOMIC_POSITIONS {angstrom}
Mn 0.00000000 0.00000000 -2.9924210799999997 0 0 0
Mn 2.82133000 1.99498250 -0.9975603100000008 0 0 0
Mn 2.82133000 5.98494750 -0.9975603100000008 0 0 0
Mn 0.00000000 3.98996500 -2.9924210799999997 0 0 0
Mn 0.01337310 3.99818433 0.97755194
Mn 2.75311024 5.98502730 3.15248807
Mn 3.05645964 1.99490270 3.11662891
Mn 0.01331668 7.97171067 0.97755194
Co 1.41066500 0.00000000 -0.9975603100000008 0 0 0
Co 4.23199500 3.98996500 -0.9975603100000008 0 0 0
Co 4.23199500 0.00000000 -0.9975603100000008 0 0 0
Co 1.41066500 3.98996500 -0.9975603100000008 0 0 0
Co 4.23199500 5.98494750 -2.9924210799999997 0 0 0
Co 1.41066500 1.99498250 -2.9924210799999997 0 0 0
Co 1.41066500 5.98494750 -2.9924210799999997 0 0 0
Co 4.23199500 1.99498250 -2.9924210799999997 0 0 0
Co 1.35271488 3.85622137 2.97708999
Co 4.27064722 7.92782106 2.89237922
Co 4.27053437 4.04207394 2.89237922
Co 1.35265846 0.13374363 2.97708999
Co 4.22358744 1.99482290 0.94662991
Co 1.43193783 5.98510710 1.00587548
Co 1.43300993 1.99482290 1.01600959
Co 4.20671588 5.98510710 0.99833986
Si 0.00000000 5.98494750 -0.9975603100000008 0 0 0
Si 2.82133000 0.00000000 -2.9924210799999997 0 0 0
Si 0.00000000 1.99498250 -0.9975603100000008 0 0 0
Si 2.82133000 3.98996500 -2.9924210799999997 0 0 0
Si 5.39562435 1.99506230 2.95993996
Si 2.80981897 3.98876801 1.03160053
Si 0.03882150 5.98494750 2.92096261
Si 2.80981897 0.00119699 1.03160053
C 1.39486555 1.99498250 3.72259677
