&CONTROL
calculation = 'relax'
prefix = 'scf'
pseudo_dir = '/vol0004/mdt0/data/hp150275/u10028/POT_KKJUS'
outdir = './data'
tprnfor = .true.
nstep = 50
disk_io = 'non'
/
&SYSTEM
ibrav = 0
ecutwfc = 50.0
ecutrho = 400
occupations = 'smearing'
smearing = 'mp'
degauss = 0.01
assume_isolated = 'esm'
esm_bc = 'bc1'
input_dft = 'BEEF-VDW'
nosym = .true.
nspin = 1
ntyp = 5
nat = 18
/
&ELECTRONS
electron_maxstep = 200
mixing_beta = 0.1
conv_thr = 1e-06
/
&IONS
ion_dynamics = 'bfgs'
upscale = 1.0
/
&CELL
/

K_POINTS {automatic}
10 10 2 0  0  0

ATOMIC_SPECIES
Al 26.98 Al.pbe-nl-rrkjus_psl.1.0.0.UPF
C 12.01 C.pbe-n-rrkjus_psl.1.0.0.UPF
Ni 58.69 Ni.pbe-spn-rrkjus_psl.1.0.0.UPF
O 15.99 O.pbe-n-rrkjus_psl.1.0.0.UPF
V 50.94 V.pbe-spnl-rrkjus_psl.1.0.0.UPF

CELL_PARAMETERS {angstrom}
5.81624000 0.00000000 0.00000000
0.00000000 5.81624000 0.00000000
0.00000000 0.00000000 24.36220000

ATOMIC_POSITIONS {angstrom}
Al 0.00000000 0.00000000 -2.1811477700000026 0 0 0
Al 2.90812000 2.90812000 -2.1811477700000026 0 0 0
Al 2.90660778 0.00157038 0.75303560
Al 0.00133774 2.90649145 0.75303560
V 5.79547602 5.79565051 0.80127276
V 2.90812000 0.00000000 -2.1811477700000026 0 0 0
V 0.00000000 2.90812000 -2.1811477700000026 0 0 0
V 2.92882581 2.92894214 0.80054189
Ni 1.45406000 1.45406000 -0.72696805 0 0 0
Ni 4.36177286 4.36124940 2.12194762
Ni 4.36218000 1.45406000 -0.72696805 0 0 0
Ni 1.45464162 4.36183103 2.09125125
Ni 4.36218000 4.36218000 -0.72696805 0 0 0
Ni 1.45435081 1.45429265 2.18334036
Ni 1.45406000 4.36218000 -0.72696805 0 0 0
Ni 4.36136573 1.45557222 2.09125125
C 1.45394368 1.45371103 3.97493655
O 1.45423449 1.45394368 5.12702499
