&CONTROL
calculation = 'relax'
prefix = 'scf'
pseudo_dir = '/vol0403/data/hp230205/u10028/POT_HYBRID_KKJUS_GBRV'
outdir = './data'
tprnfor = .true.
nstep = 50
disk_io = 'non'
/
&SYSTEM
ibrav = 0
ecutwfc = 50.0
ecutrho = 400
occupations = 'smearing'
smearing = 'mp'
degauss = 0.01
assume_isolated = 'esm'
esm_bc = 'bc1'
input_dft = 'BEEF-VDW'
nosym = .true.
nspin = 2
ntyp = 5
nat = 33
starting_magnetization(1) = 0.0
starting_magnetization(2) = 0.0
starting_magnetization(3) = 0.1
starting_magnetization(4) = 0.0
starting_magnetization(5) = 0.0
/
&ELECTRONS
electron_maxstep = 400
mixing_beta = 0.05
conv_thr = 1e-06
/
&IONS
ion_dynamics = 'bfgs'
upscale = 1.0
/
&CELL
/

K_POINTS {automatic}
9 6 2 0  0  0

ATOMIC_SPECIES
C 12.01 C.pbe-n-rrkjus_psl.1.0.0.UPF
In 114.8 In.pbe-dn-rrkjus_psl.1.0.0.UPF
Mn 54.93 mn_pbe_v1.5.uspp.F.UPF
Pd 106.4 Pd.pbe-n-rrkjus_psl.1.0.0.UPF
Sc 44.95 Sc.pbe-spn-rrkjus_psl.1.0.0.UPF


CELL_PARAMETERS {angstrom}
6.62299000 0.00000000 0.00000000
0.00000000 9.36632000 0.00000000
0.00000000 0.00000000 27.02470000

ATOMIC_POSITIONS {angstrom}
Sc 0.00000000 2.34158000 -1.1707099999999997 0 0 0
Sc 0.00000000 7.02474000 -1.1707099999999997 0 0 0
Sc 3.31149500 4.68316000 -3.5124002599999997 0 0 0
Sc 3.31149500 0.00000000 -3.5124002599999997 0 0 0
Sc 6.45052734 7.02474000 3.49564494
Sc 6.48072817 2.34158000 3.40916591
Sc 3.41136969 9.34871132 1.31367067
Sc 3.41136969 4.70076868 1.31367067
Mn 4.96724250 0.00000000 -1.1707099999999997 0 0 0
Mn 4.96724250 4.68316000 -1.1707099999999997 0 0 0
Mn 1.65574750 2.34158000 -3.5124002599999997 0 0 0
Mn 1.65574750 7.02474000 -3.5124002599999997 0 0 0
Mn 4.52615137 4.33679349 4.58906431
Mn 4.52621760 0.34636651 4.58906431
Mn 1.70197597 7.02474000 1.38339439
Mn 1.65654226 2.34158000 1.08936566
In 0.00000000 0.00000000 -3.5124002599999997 0 0 0
In 0.00000000 4.68316000 -3.5124002599999997 0 0 0
In 3.31149500 7.02474000 -1.1707099999999997 0 0 0
In 3.31149500 2.34158000 -1.1707099999999997 0 0 0
In 6.58662978 4.69383760 1.19449174
In 6.58662978 9.35564240 1.19449174
In 2.96968249 2.34158000 3.45672938
In 3.42613896 7.02483366 3.81264468
Pd 1.65574750 0.00000000 -1.1707099999999997 0 0 0
Pd 1.65574750 4.68316000 -1.1707099999999997 0 0 0
Pd 4.96724250 2.34158000 -3.5124002599999997 0 0 0
Pd 4.96724250 7.02474000 -3.5124002599999997 0 0 0
Pd 1.68012010 4.82318648 3.34754959
Pd 1.68012010 9.22629352 3.34781984
Pd 4.96545429 7.02474000 1.11963332
Pd 4.97585239 2.34158000 1.04774762
C 4.84226668 2.34158000 4.72851176
