&CONTROL
calculation = 'relax'
prefix = 'scf'
pseudo_dir = '/vol0004/mdt0/data/hp150275/u10028/POT_KKJUS'
outdir = './data'
tprnfor = .true.
nstep = 50
disk_io = 'non'
/
&SYSTEM
ibrav = 0
ecutwfc = 50.0
ecutrho = 400
occupations = 'smearing'
smearing = 'mp'
degauss = 0.01
assume_isolated = 'esm'
esm_bc = 'bc1'
input_dft = 'BEEF-VDW'
nosym = .true.
nspin = 1
ntyp = 5
nat = 34
/
&ELECTRONS
electron_maxstep = 200
mixing_beta = 0.1
conv_thr = 1e-06
/
&IONS
ion_dynamics = 'bfgs'
upscale = 1.0
/
&CELL
/

K_POINTS {automatic}
8 6 1 0 0 0

ATOMIC_SPECIES
C 12.01 C.pbe-n-rrkjus_psl.1.0.0.UPF
Cu 63.54 Cu.pbe-dn-rrkjus_psl.1.0.0.UPF
O 15.99 O.pbe-n-rrkjus_psl.1.0.0.UPF
Rh 102.9 Rh.pbe-spn-rrkjus_psl.1.0.0.UPF
Sn 118.7 Sn.pbe-dn-rrkjus_psl.1.0.0.UPF

CELL_PARAMETERS {angstrom}
6.25984000 0.00000000 0.00000000
0.00000000 8.85274000 0.00000000
0.00000000 0.00000000 26.63960000

ATOMIC_POSITIONS {angstrom}
Cu 0.00000000 0.00000000 -3.319826950000003 0 0 0
Cu 3.12992000 2.21318500 -1.1066089800000007 0 0 0
Cu 3.12992000 6.63955500 -1.1066089800000007 0 0 0
Cu 0.00000000 4.42637000 -3.319826950000003 0 0 0
Cu 6.25871323 4.42628147 1.10900655
Cu 3.13392630 6.64389284 3.32568766
Cu 3.13398890 2.20884716 3.32568766
Cu 0.02322401 0.00000000 1.14523640
Sn 0.00000000 6.63955500 -1.1066089800000007 0 0 0
Sn 3.12992000 0.00000000 -3.319826950000003 0 0 0
Sn 0.00000000 2.21318500 -1.1066089800000007 0 0 0
Sn 3.12992000 4.42637000 -3.319826950000003 0 0 0
Sn 6.23749237 2.24177935 3.41759428
Sn 3.11689953 4.42619295 1.04613709
Sn 6.23755497 6.61096065 3.41812708
Sn 3.12898102 0.00017705 1.07837101
Rh 1.56496000 0.00000000 -1.1066089800000007 0 0 0
Rh 4.69488000 4.42637000 -1.1066089800000007 0 0 0
Rh 4.69488000 0.00000000 -1.1066089800000007 0 0 0
Rh 1.56496000 4.42637000 -1.1066089800000007 0 0 0
Rh 4.69488000 6.63955500 -3.319826950000003 0 0 0
Rh 1.56496000 2.21318500 -3.319826950000003 0 0 0
Rh 1.56496000 6.63955500 -3.319826950000003 0 0 0
Rh 4.69488000 2.21318500 -3.319826950000003 0 0 0
Rh 1.58067220 4.42637000 3.20367830
Rh 4.69350284 0.00000000 3.22179322
Rh 4.63960561 4.42645853 3.20341190
Rh 1.58899779 0.00008853 3.42265581
Rh 4.71065480 2.20566017 1.10953934
Rh 1.54211158 6.66584764 1.12259274
Rh 1.54204899 2.18689236 1.12259274
Rh 4.71052960 6.64707983 1.10953934
C 2.12421411 0.00017705 5.20804180
O 2.42287107 8.85265147 6.32876977
