&CONTROL
calculation = 'relax'
prefix = 'scf'
pseudo_dir = '/vol0004/mdt0/data/hp150275/u10028/POT_HYBRID_KKJUS_GBRV'
outdir = './data'
tprnfor = .true.
nstep = 50
disk_io = 'non'
/
&SYSTEM
ibrav = 0
ecutwfc = 50.0
ecutrho = 400
occupations = 'smearing'
smearing = 'mp'
degauss = 0.01
assume_isolated = 'esm'
esm_bc = 'bc1'
input_dft = 'BEEF-VDW'
nosym = .true.
nspin = 2
ntyp = 5
nat = 34
starting_magnetization(1) = 0.0
starting_magnetization(2) = 0.1
starting_magnetization(3) = 0.1
starting_magnetization(4) = 0.0
starting_magnetization(5) = 0.0
/
&ELECTRONS
electron_maxstep = 300
mixing_beta = 0.1
conv_thr = 1e-06
/
&IONS
ion_dynamics = 'bfgs'
upscale = 1.0
/
&CELL
/

K_POINTS {automatic}
9 6 2 0  0  0

ATOMIC_SPECIES
C 12.01 C.pbe-n-rrkjus_psl.1.0.0.UPF
Co 58.93 co_pbe_v1.2.uspp.F.UPF
Mn 54.93 mn_pbe_v1.5.uspp.F.UPF
O 15.99 O.pbe-n-rrkjus_psl.1.0.0.UPF
Si 28.08 Si.pbe-nl-rrkjus_psl.1.0.0.UPF

CELL_PARAMETERS {angstrom}
5.64266000 0.00000000 0.00000000
0.00000000 7.97993000 0.00000000
0.00000000 0.00000000 25.98490000

ATOMIC_POSITIONS {angstrom}
Mn 0.00000000 0.00000000 -2.9924210799999997 0 0 0
Mn 2.82133000 1.99498250 -0.9975603100000008 0 0 0
Mn 2.82133000 5.98494750 -0.9975603100000008 0 0 0
Mn 0.00000000 3.98996500 -2.9924210799999997 0 0 0
Mn 0.00000000 3.99395496 0.96819737
Mn 2.82133000 5.98494750 3.13118045
Mn 2.82133000 1.99498250 3.13585773
Mn 0.00000000 7.97594004 0.96819737
Co 1.41066500 0.00000000 -0.9975603100000008 0 0 0
Co 4.23199500 3.98996500 -0.9975603100000008 0 0 0
Co 4.23199500 0.00000000 -0.9975603100000008 0 0 0
Co 1.41066500 3.98996500 -0.9975603100000008 0 0 0
Co 4.23199500 5.98494750 -2.9924210799999997 0 0 0
Co 1.41066500 1.99498250 -2.9924210799999997 0 0 0
Co 1.41066500 5.98494750 -2.9924210799999997 0 0 0
Co 4.23199500 1.99498250 -2.9924210799999997 0 0 0
Co 1.34131671 4.00464807 2.90329288
Co 4.30145614 7.96524693 2.90329288
Co 4.30134329 4.00464807 2.90329288
Co 1.34120386 7.96524693 2.90329288
Co 4.21907331 1.99498250 1.00561563
Co 1.43430775 5.98494750 0.98404816
Co 1.42358669 1.99498250 1.00587548
Co 4.20840868 5.98494750 0.98378831
Si 0.00000000 5.98494750 -0.9975603100000008 0 0 0
Si 2.82133000 0.00000000 -2.9924210799999997 0 0 0
Si 0.00000000 1.99498250 -0.9975603100000008 0 0 0
Si 2.82133000 3.98996500 -2.9924210799999997 0 0 0
Si 0.00000000 1.99498250 2.98228697
Si 2.82133000 3.98685283 1.02406491
Si 0.00000000 5.98494750 2.90667091
Si 2.82133000 0.00311217 1.02406491
C 0.00000000 1.99498250 4.85813690
O 0.00000000 1.99498250 6.01992178
