&CONTROL
calculation = 'relax'
prefix = 'scf'
pseudo_dir = '/vol0004/mdt0/data/hp150275/u10028/POT_KKJUS'
outdir = './data'
tprnfor = .true.
nstep = 50
disk_io = 'non'
/
&SYSTEM
ibrav = 0
ecutwfc = 50.0
ecutrho = 400
occupations = 'smearing'
smearing = 'mp'
degauss = 0.01
assume_isolated = 'esm'
esm_bc = 'bc1'
input_dft = 'BEEF-VDW'
nosym = .true.
nspin = 1
ntyp = 4
nat = 33
/
&ELECTRONS
electron_maxstep = 200
mixing_beta = 0.1
conv_thr = 1e-06
/
&IONS
ion_dynamics = 'bfgs'
upscale = 1.0
/
&CELL
/

K_POINTS {automatic}
8 6 1 0 0 0

ATOMIC_SPECIES
C 12.01 C.pbe-n-rrkjus_psl.1.0.0.UPF
Ga 69.72 Ga.pbe-dnl-rrkjus_psl.1.0.0.UPF
Ir 192.2 Ir.pbe-n-rrkjus_psl.0.2.3.UPF
Li 6.941 Li.pbe-sl-rrkjus_psl.1.0.0.UPF

CELL_PARAMETERS {angstrom}
6.01864000 0.00000000 0.00000000
0.00000000 8.51164000 0.00000000
0.00000000 0.00000000 26.38370000

ATOMIC_POSITIONS {angstrom}
Li 0.00000000 6.38373000 -1.0640546200000003 0 0 0
Li 3.00932000 0.00000000 -3.1919000299999993 0 0 0
Li 0.00000000 2.12791000 -1.0640546200000003 0 0 0
Li 3.00932000 4.25582000 -3.1919000299999993 0 0 0
Li 1.50466000 0.00000000 -1.0640546200000003 0 0 0
Li 1.50466000 4.25582000 -1.0640546200000003 0 0 0
Li 4.51398000 6.38373000 -3.1919000299999993 0 0 0
Li 4.51398000 2.12791000 -3.1919000299999993 0 0 0
Li 5.90169782 2.12791000 3.36497710
Li 2.89785479 4.24679766 1.03767092
Li 0.00192596 6.38373000 3.17237609
Li 2.89785479 0.00902234 1.03767092
Li 1.66451508 4.30254890 4.03696994
Li 1.66451508 8.46491110 4.03723377
Li 4.58668517 2.12791000 0.93873205
Li 4.49195178 6.38373000 1.02606209
Ga 1.50466000 2.12791000 -3.1919000299999993 0 0 0
Ga 1.50466000 6.38373000 -3.1919000299999993 0 0 0
Ga 4.51398000 4.25582000 -1.0640546200000003 0 0 0
Ga 4.51398000 0.00000000 -1.0640546200000003 0 0 0
Ga 1.44591807 6.38373000 0.97857143
Ga 1.43899664 2.12791000 1.01709164
Ga 4.34756460 8.43180082 3.13438356
Ga 4.34756460 4.33565918 3.13438356
Ir 0.00000000 0.00000000 -3.1919000299999993 0 0 0
Ir 3.00932000 2.12791000 -1.0640546200000003 0 0 0
Ir 3.00932000 6.38373000 -1.0640546200000003 0 0 0
Ir 0.00000000 4.25582000 -3.1919000299999993 0 0 0
Ir 0.00024075 4.25820326 1.20626276
Ir 2.90525771 6.38373000 3.00272890
Ir 3.00510695 2.12791000 3.11591497
Ir 0.00024075 8.50925674 1.20626276
C 1.73818323 2.12791000 4.35040829
