&CONTROL
calculation = 'relax'
prefix = 'scf'
pseudo_dir = '/vol0004/mdt0/data/hp150275/u10028/POT_KKJUS'
outdir = './data'
tprnfor = .true.
nstep = 50
disk_io = 'non'
/
&SYSTEM
ibrav = 0
ecutwfc = 50.0
ecutrho = 400
occupations = 'smearing'
smearing = 'mp'
degauss = 0.01
assume_isolated = 'esm'
esm_bc = 'bc1'
input_dft = 'BEEF-VDW'
nosym = .true.
nspin = 1
ntyp = 2
nat = 32
/
&ELECTRONS
electron_maxstep = 200
mixing_beta = 0.1
conv_thr = 1e-06
/
&IONS
ion_dynamics = 'bfgs'
upscale = 1.0
/
&CELL
/

K_POINTS {automatic}
8 6 1 0 0 0

ATOMIC_SPECIES
Ga 69.72 Ga.pbe-dnl-rrkjus_psl.1.0.0.UPF
Rh 102.9 Rh.pbe-spn-rrkjus_psl.1.0.0.UPF

CELL_PARAMETERS {angstrom}
6.09666000 0.00000000 0.00000000
0.00000000 8.62198000 0.00000000
0.00000000 0.00000000 26.46650000

ATOMIC_POSITIONS {angstrom}
Ga 0.00000000 0.00000000 -3.2331476399999985 0 0 0
Ga 0.00000000 2.15549500 -1.0777158799999995 0 0 0
Ga 0.00000000 0.00000000 1.08221519
Ga 0.00000000 2.15558122 3.38718267
Ga 0.00000000 4.31099000 -3.2331476399999985 0 0 0
Ga 0.00000000 6.46648500 -1.0777158799999995 0 0 0
Ga 0.00000000 4.31099000 1.08221519
Ga 0.00000000 6.46639878 3.38744733
Ga 3.04833000 0.00000000 -3.2331476399999985 0 0 0
Ga 3.04833000 2.15549500 -1.0777158799999995 0 0 0
Ga 3.04833000 0.00000000 1.08247985
Ga 3.04833000 2.15558122 3.38718267
Ga 3.04833000 4.31099000 -3.2331476399999985 0 0 0
Ga 3.04833000 6.46648500 -1.0777158799999995 0 0 0
Ga 3.04833000 4.31099000 1.08247985
Ga 3.04833000 6.46639878 3.38718267
Rh 1.52416500 2.15549500 -3.2331476399999985 0 0 0
Rh 1.52416500 0.00000000 -1.0777158799999995 0 0 0
Rh 1.52410403 2.15549500 0.99222909
Rh 1.52410403 0.00000000 3.10954908
Rh 1.52416500 6.46648500 -3.2331476399999985 0 0 0
Rh 1.52416500 4.31099000 -1.0777158799999995 0 0 0
Rh 1.52410403 6.46648500 0.99222909
Rh 1.52410403 4.31099000 3.10954908
Rh 4.57249500 2.15549500 -3.2331476399999985 0 0 0
Rh 4.57249500 0.00000000 -1.0777158799999995 0 0 0
Rh 4.57255597 2.15549500 0.99222909
Rh 4.57255597 0.00000000 3.10954908
Rh 4.57249500 6.46648500 -3.2331476399999985 0 0 0
Rh 4.57249500 4.31099000 -1.0777158799999995 0 0 0
Rh 4.57255597 6.46648500 0.99222909
Rh 4.57255597 4.31099000 3.10954908
