&CONTROL
calculation = 'relax'
prefix = 'scf'
pseudo_dir = '/vol0403/data/hp230205/u10028/POT_HYBRID_KKJUS_GBRV'
outdir = './data'
tprnfor = .true.
nstep = 50
disk_io = 'non'
/
&SYSTEM
ibrav = 0
ecutwfc = 50.0
ecutrho = 400
occupations = 'smearing'
smearing = 'mp'
degauss = 0.01
assume_isolated = 'esm'
esm_bc = 'bc1'
input_dft = 'BEEF-VDW'
nosym = .true.
nspin = 1
ntyp = 5
nat = 33
/
&ELECTRONS
electron_maxstep = 200
mixing_beta = 0.1
conv_thr = 1e-06
/
&IONS
ion_dynamics = 'bfgs'
upscale = 1.0
/
&CELL
/

K_POINTS {automatic}
6 6 1 0 0 0

ATOMIC_SPECIES
C 12.01 C.pbe-n-rrkjus_psl.1.0.0.UPF
In 114.8 In.pbe-dn-rrkjus_psl.1.0.0.UPF
Li 6.941 Li.pbe-sl-rrkjus_psl.1.0.0.UPF
Mg 24.30 Mg.pbe-spnl-rrkjus_psl.1.0.0.UPF
Pd 106.4 Pd.pbe-n-rrkjus_psl.1.0.0.UPF


CELL_PARAMETERS {angstrom}
6.52273000 0.00000000 0.00000000
0.00000000 9.22454000 0.00000000
0.00000000 0.00000000 26.91840000

ATOMIC_POSITIONS {angstrom}
Li 1.63068250 0.00000000 -1.1531842599999997 0 0 0
Li 1.63068250 4.61227000 -1.1531842599999997 0 0 0
Li 4.89204750 2.30613500 -3.4592835799999975 0 0 0
Li 4.89204750 6.91840500 -3.4592835799999975 0 0 0
Li 1.46148288 4.61227000 3.62590848
Li 1.85173782 0.00000000 4.03776000
Li 4.85271544 6.94358799 1.25116723
Li 4.85271544 2.28095201 1.25116723
Mg 0.00000000 2.30613500 -1.1531842599999997 0 0 0
Mg 0.00000000 6.91840500 -1.1531842599999997 0 0 0
Mg 3.26136500 4.61227000 -3.4592835799999975 0 0 0
Mg 3.26136500 0.00000000 -3.4592835799999975 0 0 0
Mg 6.45137133 7.03518768 3.66951629
Mg 6.45137133 2.18935232 3.66951629
Mg 3.15478359 0.00000000 1.12411238
Mg 3.25653818 4.61227000 1.18737062
In 0.00000000 0.00000000 -3.4592835799999975 0 0 0
In 0.00000000 4.61227000 -3.4592835799999975 0 0 0
In 3.26136500 6.91840500 -1.1531842599999997 0 0 0
In 3.26136500 2.30613500 -1.1531842599999997 0 0 0
In 0.00397887 4.61227000 1.16260570
In 0.07325026 0.00000000 1.20567514
In 3.22438112 2.46009257 3.69158938
In 3.22438112 6.76444743 3.69158938
Pd 4.89204750 0.00000000 -1.1531842599999997 0 0 0
Pd 4.89204750 4.61227000 -1.1531842599999997 0 0 0
Pd 1.63068250 2.30613500 -3.4592835799999975 0 0 0
Pd 1.63068250 6.91840500 -3.4592835799999975 0 0 0
Pd 4.96021003 4.61227000 3.36237734
Pd 4.46017755 0.00000000 3.39683290
Pd 1.64575001 6.86619410 1.15937549
Pd 1.64575001 2.35834590 1.15937549
C 6.45652429 0.00000000 3.53277082
