&CONTROL
calculation = 'relax'
prefix = 'scf'
pseudo_dir = '/vol0403/data/hp230205/u10028/POT_HYBRID_KKJUS_GBRV'
outdir = './data'
tprnfor = .true.
nstep = 50
disk_io = 'non'
/
&SYSTEM
ibrav = 0
ecutwfc = 50.0
ecutrho = 400
occupations = 'smearing'
smearing = 'mp'
degauss = 0.01
assume_isolated = 'esm'
esm_bc = 'bc1'
input_dft = 'BEEF-VDW'
nosym = .true.
nspin = 2
ntyp = 5
nat = 17
starting_magnetization(1) = 0.0
starting_magnetization(2) = 0.0
starting_magnetization(3) = 0.0
starting_magnetization(4) = 0.1
starting_magnetization(5) = 0.0
/
&ELECTRONS
electron_maxstep = 200
mixing_beta = 0.1
conv_thr = 1e-06
/
&IONS
ion_dynamics = 'bfgs'
upscale = 1.0
/
&CELL
/

K_POINTS {automatic}
6 6 1 0 0 0

ATOMIC_SPECIES
C 12.01 C.pbe-n-rrkjus_psl.1.0.0.UPF
Ge 72.64 Ge.pbe-dn-rrkjus_psl.1.0.0.UPF
Li 6.941 Li.pbe-sl-rrkjus_psl.1.0.0.UPF
Mn 54.93 mn_pbe_v1.5.uspp.F.UPF
Pd 106.4 Pd.pbe-n-rrkjus_psl.1.0.0.UPF


CELL_PARAMETERS {angstrom}
6.14713000 0.00000000 0.00000000
0.00000000 6.14713000 0.00000000
0.00000000 0.00000000 24.61040000

ATOMIC_POSITIONS {angstrom}
Li 0.00147531 3.07756063 2.81912132
Li 0.00000000 0.00000000 -0.7683366899999982 0 0 0
Li 3.07356500 3.07356500 -0.7683366899999982 0 0 0
Li 3.06956937 6.14559322 2.81912132
Mn 1.53721280 1.53881105 0.91107701
Mn 1.53678250 4.61034750 -2.30525617 0 0 0
Mn 4.61034750 1.53678250 -2.30525617 0 0 0
Mn 4.60831895 4.60991720 0.91107701
Ge 6.00906546 0.13794160 2.60550305
Ge 0.00000000 3.07356500 -0.7683366899999982 0 0 0
Ge 3.07356500 0.00000000 -0.7683366899999982 0 0 0
Ge 3.22558352 2.92160795 2.60894850
Pd 4.61139251 1.53573749 0.63544053
Pd 4.61034750 4.61034750 -2.30525617 0 0 0
Pd 1.53678250 1.53678250 -2.30525617 0 0 0
Pd 1.53327864 4.61385136 0.80869774
C 4.61889201 1.52823799 2.77752974
