&CONTROL
calculation = 'relax'
prefix = 'scf'
pseudo_dir = '/vol0403/data/hp230205/u10028/POT_HYBRID_KKJUS_GBRV'
outdir = './data'
tprnfor = .true.
nstep = 50
disk_io = 'non'
/
&SYSTEM
ibrav = 0
ecutwfc = 50.0
ecutrho = 400
occupations = 'smearing'
smearing = 'mp'
degauss = 0.01
assume_isolated = 'esm'
esm_bc = 'bc1'
input_dft = 'BEEF-VDW'
nosym = .true.
nspin = 1
ntyp = 5
nat = 17
/
&ELECTRONS
electron_maxstep = 200
mixing_beta = 0.1
conv_thr = 1e-06
/
&IONS
ion_dynamics = 'bfgs'
upscale = 1.0
/
&CELL
/

K_POINTS {automatic}
6 6 1 0 0 0

ATOMIC_SPECIES
Ag 107.8 Ag.pbe-n-rrkjus_psl.1.0.0.UPF
Al 26.98 Al.pbe-nl-rrkjus_psl.1.0.0.UPF
C 12.01 C.pbe-n-rrkjus_psl.1.0.0.UPF
Li 6.941 Li.pbe-sl-rrkjus_psl.1.0.0.UPF
Sn 118.7 Sn.pbe-dn-rrkjus_psl.1.0.0.UPF


CELL_PARAMETERS {angstrom}
5.95223000 0.00000000 0.00000000
0.00000000 8.56020000 0.00000000
0.00000000 0.00000000 24.45610000

ATOMIC_POSITIONS {angstrom}
Li 1.39865501 2.14005000 -0.7427317599999981 0 0 0
Li 4.38066271 1.41371703 2.65739983
Li 1.39865501 6.42015000 -0.7427317599999981 0 0 0
Li 4.38060319 7.14639737 2.65739983
Al 2.97611500 0.00000000 -2.2279507099999982 0 0 0
Al 5.89770757 0.00000000 0.56860433
Al 2.97611500 4.28010000 -2.2279507099999982 0 0 0
Al 5.70729574 4.28010000 0.72292232
Ag 0.00000000 0.00000000 -2.2279507099999982 0 0 0
Ag 2.82980919 0.00000000 0.59819621
Ag 0.00000000 4.28010000 -2.2279507099999982 0 0 0
Ag 2.55779228 4.28010000 0.80949691
Sn 4.37477001 2.14005000 -0.7427317599999981 0 0 0
Sn 1.39145281 1.59373804 2.72783339
Sn 4.37477001 6.42015000 -0.7427317599999981 0 0 0
Sn 1.39145281 6.96646196 2.72758883
C 2.91224757 0.00000000 2.97777474
