&CONTROL
calculation = 'relax'
prefix = 'scf'
pseudo_dir = '/vol0004/mdt0/data/hp150275/u10028/POT_HYBRID_KKJUS_GBRV'
outdir = './data'
tprnfor = .true.
nstep = 50
disk_io = 'non'
/
&SYSTEM
ibrav = 0
ecutwfc = 50.0
ecutrho = 400
occupations = 'smearing'
smearing = 'mp'
degauss = 0.01
assume_isolated = 'esm'
esm_bc = 'bc1'
input_dft = 'BEEF-VDW'
nosym = .true.
nspin = 2
ntyp = 4
nat = 33
starting_magnetization(1) = 0.0
starting_magnetization(2) = 0.0
starting_magnetization(3) = 0.1
starting_magnetization(4) = 0.0
/
&ELECTRONS
electron_maxstep = 300
mixing_beta = 0.1
conv_thr = 1e-06
/
&IONS
ion_dynamics = 'bfgs'
upscale = 1.0
/
&CELL
/

K_POINTS {automatic}
9 6 2 0  0  0

ATOMIC_SPECIES
Al 26.98 Al.pbe-nl-rrkjus_psl.1.0.0.UPF
C 12.01 C.pbe-n-rrkjus_psl.1.0.0.UPF
Co 58.93 co_pbe_v1.2.uspp.F.UPF
Zr 91.22 Zr.pbe-spn-rrkjus_psl.1.0.0.UPF

CELL_PARAMETERS {angstrom}
6.08368000 0.00000000 0.00000000
0.00000000 8.60362000 0.00000000
0.00000000 0.00000000 26.45270000

ATOMIC_POSITIONS {angstrom}
Zr 0.00000000 0.00000000 -3.226435819999999 0 0 0
Zr 3.04184000 2.15090500 -1.075566779999999 0 0 0
Zr 3.04184000 6.45271500 -1.075566779999999 0 0 0
Zr 0.00000000 4.30181000 -3.226435819999999 0 0 0
Zr 0.00000000 4.30181000 1.10122590
Zr 3.04184000 6.43542172 3.24892061
Zr 3.04184000 2.16819828 3.24892061
Zr 0.00000000 0.00000000 1.07212793
Al 0.00000000 6.45271500 -1.075566779999999 0 0 0
Al 3.04184000 0.00000000 -3.226435819999999 0 0 0
Al 0.00000000 2.15090500 -1.075566779999999 0 0 0
Al 3.04184000 4.30181000 -3.226435819999999 0 0 0
Al 0.00000000 2.15959466 3.23781048
Al 3.04184000 4.30181000 1.09540631
Al 0.00000000 6.44402534 3.23781048
Al 3.04184000 0.00000000 1.07133435
Co 1.52092000 0.00000000 -1.075566779999999 0 0 0
Co 4.56276000 4.30181000 -1.075566779999999 0 0 0
Co 4.56276000 0.00000000 -1.075566779999999 0 0 0
Co 1.52092000 4.30181000 -1.075566779999999 0 0 0
Co 4.56276000 6.45271500 -3.226435819999999 0 0 0
Co 1.52092000 2.15090500 -3.226435819999999 0 0 0
Co 1.52092000 6.45271500 -3.226435819999999 0 0 0
Co 4.56276000 2.15090500 -3.226435819999999 0 0 0
Co 1.49165750 4.30181000 3.18860846
Co 4.53118570 0.00000000 3.20024765
Co 4.59202250 4.30181000 3.18860846
Co 1.55249430 0.00000000 3.20024765
Co 4.55393866 2.14350589 1.08429617
Co 1.52974134 6.46011411 1.08429617
Co 1.52974134 2.14350589 1.08429617
Co 4.55393866 6.46011411 1.08429617
C 0.00000000 0.00000000 4.01684250
