&CONTROL
calculation = 'relax'
prefix = 'scf'
pseudo_dir = '/vol0004/mdt0/data/hp150275/u10028/POT_KKJUS'
outdir = './data'
tprnfor = .true.
nstep = 50
disk_io = 'non'
/
&SYSTEM
ibrav = 0
ecutwfc = 50.0
ecutrho = 400
occupations = 'smearing'
smearing = 'mp'
degauss = 0.01
assume_isolated = 'esm'
esm_bc = 'bc1'
input_dft = 'BEEF-VDW'
nosym = .true.
nspin = 1
ntyp = 5
nat = 34
/
&ELECTRONS
electron_maxstep = 200
mixing_beta = 0.1
conv_thr = 1e-06
/
&IONS
ion_dynamics = 'bfgs'
upscale = 1.0
/
&CELL
/

K_POINTS {automatic}
8 6 1 0 0 0

ATOMIC_SPECIES
C 12.01 C.pbe-n-rrkjus_psl.1.0.0.UPF
Ga 69.72 Ga.pbe-dnl-rrkjus_psl.1.0.0.UPF
Li 6.941 Li.pbe-sl-rrkjus_psl.1.0.0.UPF
O 15.99 O.pbe-n-rrkjus_psl.1.0.0.UPF
Rh 102.9 Rh.pbe-spn-rrkjus_psl.1.0.0.UPF

CELL_PARAMETERS {angstrom}
6.03399000 0.00000000 0.00000000
0.00000000 8.53335000 0.00000000
0.00000000 0.00000000 26.40000000

ATOMIC_POSITIONS {angstrom}
Li 0.00000000 6.40001250 -1.066559999999999 0 0 0
Li 3.01699500 0.00000000 -3.1999439999999986 0 0 0
Li 0.00000000 2.13333750 -1.066559999999999 0 0 0
Li 3.01699500 4.26667500 -3.1999439999999986 0 0 0
Li 1.50849750 2.13333750 -3.1999439999999986 0 0 0
Li 1.50849750 6.40001250 -3.1999439999999986 0 0 0
Li 4.52549250 4.26667500 -1.066559999999999 0 0 0
Li 4.52549250 0.00000000 -1.066559999999999 0 0 0
Li 0.04000535 2.12924149 3.21789600
Li 3.07311111 4.26667500 1.04544000
Li 0.04000535 6.40410851 3.21789600
Li 3.08348957 0.00000000 1.02088800
Li 1.48550800 6.39634316 0.99712800
Li 1.48544766 2.13700684 0.99686400
Li 4.40348522 0.00000000 3.53311200
Li 4.35020509 4.26667500 3.65930400
Ga 1.50849750 0.00000000 -1.066559999999999 0 0 0
Ga 1.50849750 4.26667500 -1.066559999999999 0 0 0
Ga 4.52549250 6.40001250 -3.1999439999999986 0 0 0
Ga 4.52549250 2.13333750 -3.1999439999999986 0 0 0
Ga 1.61137703 4.26667500 3.17354400
Ga 1.63086682 0.00000000 3.11704800
Ga 4.54564603 2.13188683 1.03567200
Ga 4.54558569 6.40146317 1.03567200
Rh 0.00000000 0.00000000 -3.1999439999999986 0 0 0
Rh 3.01699500 2.13333750 -1.066559999999999 0 0 0
Rh 3.01699500 6.40001250 -1.066559999999999 0 0 0
Rh 0.00000000 4.26667500 -3.1999439999999986 0 0 0
Rh 5.99374329 4.26667500 1.20806400
Rh 2.95731884 6.38303113 2.98161600
Rh 2.95719816 2.15031887 2.98161600
Rh 6.00780248 0.00000000 1.15816800
C 4.55035254 0.00000000 5.60973600
O 4.48168573 0.00000000 6.74995200
