&CONTROL
calculation = 'relax'
prefix = 'scf'
pseudo_dir = '/vol0004/mdt0/data/hp150275/u10028/POT_KKJUS'
outdir = './data'
tprnfor = .true.
nstep = 50
disk_io = 'non'
/
&SYSTEM
ibrav = 0
ecutwfc = 50.0
ecutrho = 400
occupations = 'smearing'
smearing = 'mp'
degauss = 0.01
assume_isolated = 'esm'
esm_bc = 'bc1'
input_dft = 'BEEF-VDW'
nosym = .true.
nspin = 1
ntyp = 4
nat = 18
/
&ELECTRONS
electron_maxstep = 200
mixing_beta = 0.1
conv_thr = 1e-06
/
&IONS
ion_dynamics = 'bfgs'
upscale = 1.0
/
&CELL
/

K_POINTS {automatic}
9 9 2 0  0  0

ATOMIC_SPECIES
C 12.01 C.pbe-n-rrkjus_psl.1.0.0.UPF
Ir 192.2 Ir.pbe-n-rrkjus_psl.0.2.3.UPF
O 15.99 O.pbe-n-rrkjus_psl.1.0.0.UPF
Ti 47.86 Ti.pbe-spn-rrkjus_psl.1.0.0.UPF

CELL_PARAMETERS {angstrom}
6.26165000 0.00000000 0.00000000
0.00000000 6.26165000 0.00000000
0.00000000 0.00000000 24.69620000

ATOMIC_POSITIONS {angstrom}
Ti 1.56541250 1.56541250 -0.31215996999999973 0 0 0
Ti 1.49152503 1.61281319 2.85932604
Ti 1.56541250 4.69623750 -0.31215996999999973 0 0 0
Ti 1.41513290 5.03618248 2.97095286
Ti 4.69623750 1.56541250 -0.31215996999999973 0 0 0
Ti 4.91238966 1.64430929 2.78474351
Ti 4.69623750 4.69623750 -0.31215996999999973 0 0 0
Ti 4.77525952 4.83361810 2.91637426
Ir 0.00000000 0.00000000 -1.8774051200000024 0 0 0
Ir 6.23854451 6.19277185 1.07107419
Ir 0.00000000 3.13082500 -1.8774051200000024 0 0 0
Ir 0.01797094 3.21473111 1.40422593
Ir 3.13082500 0.00000000 -1.8774051200000024 0 0 0
Ir 3.18279669 0.11202092 1.67934160
Ir 3.13082500 3.13082500 -1.8774051200000024 0 0 0
Ir 3.10859614 3.35793505 1.71490413
C 0.30187415 0.46386303 3.87261112
O 6.09145835 5.51845476 4.30553551
