&CONTROL
calculation = 'relax'
prefix = 'scf'
pseudo_dir = '/vol0004/mdt0/data/hp150275/u10028/POT_KKJUS'
outdir = './data'
tprnfor = .true.
nstep = 50
disk_io = 'non'
/
&SYSTEM
ibrav = 0
ecutwfc = 50.0
ecutrho = 400
occupations = 'smearing'
smearing = 'mp'
degauss = 0.01
assume_isolated = 'esm'
esm_bc = 'bc1'
input_dft = 'BEEF-VDW'
nosym = .true.
nspin = 1
ntyp = 4
nat = 18
/
&ELECTRONS
electron_maxstep = 200
mixing_beta = 0.1
conv_thr = 1e-06
/
&IONS
ion_dynamics = 'bfgs'
upscale = 1.0
/
&CELL
/

K_POINTS {automatic}
8 8 1 0 0 0

ATOMIC_SPECIES
C 12.01 C.pbe-n-rrkjus_psl.1.0.0.UPF
Ni 58.69 Ni.pbe-spn-rrkjus_psl.1.0.0.UPF
O 15.99 O.pbe-n-rrkjus_psl.1.0.0.UPF
Sc 44.95 Sc.pbe-spn-rrkjus_psl.1.0.0.UPF

CELL_PARAMETERS {angstrom}
6.37073000 0.00000000 0.00000000
-0.00000000 6.37073000 0.00000000
0.00000000 0.00000000 24.77800000

ATOMIC_POSITIONS {angstrom}
Sc 1.59268250 1.59268250 -0.6908106399999987 0 0 0
Sc 1.59268250 1.59268250 2.49464904
Sc 1.59268250 4.77804750 -0.6908106399999987 0 0 0
Sc 1.59268250 4.77804750 2.49464904
Sc 4.77804750 1.59268250 -0.6908106399999987 0 0 0
Sc 4.77804750 1.59268250 2.49464904
Sc 4.77804750 4.77804750 -0.6908106399999987 0 0 0
Sc 4.77804750 4.77804750 2.49464904
Ni 0.00000000 0.00000000 -2.283540479999999 0 0 0
Ni 0.00000000 0.00000000 0.90191920
Ni 0.00000000 3.18536500 -2.283540479999999 0 0 0
Ni 0.00000000 3.18536500 0.90191920
Ni 3.18536500 0.00000000 -2.283540479999999 0 0 0
Ni 3.18536500 -0.00000000 0.90191920
Ni 3.18536500 3.18536500 -2.283540479999999 0 0 0
Ni 3.18536500 3.18536500 0.90191920
C 1.59268250 1.59268250 4.39462608
O 1.59268250 1.59268250 5.54457306
