&CONTROL
calculation = 'relax'
prefix = 'scf'
pseudo_dir = '/vol0004/mdt0/data/hp150275/u10028/POT_HYBRID_KKJUS_GBRV'
outdir = './data'
tprnfor = .true.
nstep = 50
disk_io = 'non'
/
&SYSTEM
ibrav = 0
ecutwfc = 50.0
ecutrho = 400
occupations = 'smearing'
smearing = 'mp'
degauss = 0.01
assume_isolated = 'esm'
esm_bc = 'bc1'
input_dft = 'BEEF-VDW'
nosym = .true.
nspin = 2
ntyp = 5
nat = 34
starting_magnetization(1) = 0.0
starting_magnetization(2) = 0.0
starting_magnetization(3) = 0.1
starting_magnetization(4) = 0.1
starting_magnetization(5) = 0.0
/
&ELECTRONS
electron_maxstep = 200
mixing_beta = 0.1
conv_thr = 1e-06
/
&IONS
ion_dynamics = 'bfgs'
upscale = 1.0
/
&CELL
/

K_POINTS {automatic}
9 6 2 0  0  0

ATOMIC_SPECIES
Al 26.98 Al.pbe-nl-rrkjus_psl.1.0.0.UPF
C 12.01 C.pbe-n-rrkjus_psl.1.0.0.UPF
Cr 51.99 cr_pbe_v1.5.uspp.F.UPF
Fe 55.84 fe_pbe_v1.5.uspp.F.UPF
O 15.99 O.pbe-n-rrkjus_psl.1.0.0.UPF

CELL_PARAMETERS {angstrom}
6.50665000 0.00000000 0.00000000
0.00000000 9.20179000 0.00000000
0.00000000 0.00000000 26.90130000

ATOMIC_POSITIONS {angstrom}
Al 0.00000000 0.00000000 23.45067025
Al 3.25332500 2.30044750 25.75100041
Al 3.25332500 6.90134250 25.75100041
Al 0.00000000 4.60089500 23.45067025
Al 0.01633169 4.61258127 0.73897871
Al 3.11317176 6.90097443 2.53060529
Al 3.41091606 2.30044750 2.55374041
Al 0.01652689 9.19093189 0.73897871
Cr 0.00000000 6.90134250 25.75100041
Cr 3.25332500 0.00000000 23.45067025
Cr 0.00000000 2.30044750 25.75100041
Cr 3.25332500 4.60089500 23.45067025
Cr 6.39532122 2.30017145 2.88032219
Cr 3.14668101 4.65674987 0.52269226
Cr 0.21003466 6.90134250 2.56100376
Cr 3.14629061 9.14648724 0.52215423
Fe 1.62666250 0.00000000 25.75100041
Fe 4.87998750 4.60089500 25.75100041
Fe 4.87998750 0.00000000 25.75100041
Fe 1.62666250 4.60089500 25.75100041
Fe 4.87998750 6.90134250 23.45067025
Fe 1.62666250 2.30044750 23.45067025
Fe 1.62666250 6.90134250 23.45067025
Fe 4.87998750 2.30044750 23.45067025
Fe 1.92844093 4.41336252 2.47545763
Fe 4.58256853 9.13636527 2.32803850
Fe 4.58282879 4.66604367 2.32803850
Fe 1.92902653 0.18716441 2.47572664
Fe 5.04987613 2.30081557 0.70427603
Fe 1.47954714 6.90134250 0.59720886
Fe 1.48742019 2.30081557 0.87240916
Fe 4.87055286 6.90171057 0.76157580
C 6.46312051 2.30026346 4.91648159
O 0.01457490 2.30053952 6.06705019
