&CONTROL
calculation = 'relax'
prefix = 'scf'
pseudo_dir = '/vol0403/data/hp230205/u10028/POT_HYBRID_KKJUS_GBRV'
outdir = './data'
tprnfor = .true.
nstep = 50
disk_io = 'non'
/
&SYSTEM
ibrav = 0
ecutwfc = 50.0
ecutrho = 400
occupations = 'smearing'
smearing = 'mp'
degauss = 0.01
assume_isolated = 'esm'
esm_bc = 'bc1'
input_dft = 'BEEF-VDW'
nosym = .true.
nspin = 1
ntyp = 6
nat = 18
/
&ELECTRONS
electron_maxstep = 200
mixing_beta = 0.1
conv_thr = 1e-06
/
&IONS
ion_dynamics = 'bfgs'
upscale = 1.0
/
&CELL
/

K_POINTS {automatic}
10 8 2 0  0  0

ATOMIC_SPECIES
C 12.01 C.pbe-n-rrkjus_psl.1.0.0.UPF
Ge 72.64 Ge.pbe-dn-rrkjus_psl.1.0.0.UPF
Li 6.941 Li.pbe-sl-rrkjus_psl.1.0.0.UPF
O 15.99 O.pbe-n-rrkjus_psl.1.0.0.UPF
Pb 207.2 Pb.pbe-dn-rrkjus_psl.1.0.0.UPF
Y 88.90 Y.pbe-spn-rrkjus_psl.1.0.0.UPF


CELL_PARAMETERS {angstrom}
6.52719000 0.00000000 0.00000000
0.00000000 8.65500000 0.00000000
0.00000000 0.00000000 24.84630000

ATOMIC_POSITIONS {angstrom}
Li 3.26359500 0.00000000 -2.4232596399999977 0 0 0
Li 6.05253274 8.65188420 0.70613185
Li 3.26359500 4.32750000 -2.4232596399999977 0 0 0
Li 6.05253274 4.33061580 0.70613185
Y 1.40132242 2.16375000 -0.8077532099999978 0 0 0
Y 3.80443796 2.16375000 2.36511930
Y 1.40132242 6.49125000 -0.8077532099999978 0 0 0
Y 3.77513088 6.49125000 2.36685854
Ge 0.00000000 0.00000000 -2.4232596399999977 0 0 0
Ge 2.31558592 0.00527955 1.10988422
Ge 0.00000000 4.32750000 -2.4232596399999977 0 0 0
Ge 2.31565120 4.32222045 1.10988422
Pb 4.66491742 2.16375000 -0.8077532099999978 0 0 0
Pb 0.60990063 2.16383655 2.75868469
Pb 4.66491742 6.49125000 -0.8077532099999978 0 0 0
Pb 0.58614166 6.49125000 2.79471182
C 0.11735888 2.16375000 6.40090381
O 1.11164573 2.16375000 6.95274013
