&CONTROL
calculation = 'relax'
prefix = 'scf'
pseudo_dir = '/vol0004/mdt0/data/hp150275/u10028/POT_HYBRID_KKJUS_GBRV'
outdir = './data'
tprnfor = .true.
nstep = 50
disk_io = 'non'
/
&SYSTEM
ibrav = 0
ecutwfc = 50.0
ecutrho = 400
occupations = 'smearing'
smearing = 'mp'
degauss = 0.01
assume_isolated = 'esm'
esm_bc = 'bc1'
input_dft = 'BEEF-VDW'
nosym = .true.
nspin = 2
ntyp = 4
nat = 34
starting_magnetization(1) = 0.0
starting_magnetization(2) = 0.1
starting_magnetization(3) = 0.0
starting_magnetization(4) = 0.0
/
&ELECTRONS
electron_maxstep = 200
mixing_beta = 0.1
conv_thr = 1e-06
/
&IONS
ion_dynamics = 'bfgs'
upscale = 1.0
/
&CELL
/

K_POINTS {automatic}
7 7 2 0  0  0

ATOMIC_SPECIES
C 12.01 C.pbe-n-rrkjus_psl.1.0.0.UPF
Fe 55.84 fe_pbe_v1.5.uspp.F.UPF
O 15.99 O.pbe-n-rrkjus_psl.1.0.0.UPF
Pd 106.4 Pd.pbe-n-rrkjus_psl.1.0.0.UPF

CELL_PARAMETERS {angstrom}
7.85602000 0.00000000 0.00000000
-0.00000000 7.85602000 0.00000000
0.00000000 0.00000000 25.89200000

ATOMIC_POSITIONS {angstrom}
Fe 0.00000000 0.00000000 2.94599176
Fe 0.00000000 0.00000000 24.90991644
Fe 0.00000000 3.92801000 2.94599176
Fe 0.00000000 3.92801000 24.90991644
Fe 3.92801000 -0.00000000 2.94599176
Fe 3.92801000 0.00000000 24.90991644
Fe 3.92801000 3.92801000 2.94599176
Fe 3.92801000 3.92801000 24.90991644
Pd 0.00000000 1.96400500 0.98208356
Pd 1.96400500 -0.00000000 0.98208356
Pd 1.96400500 1.96400500 2.94599176
Pd 0.00000000 1.96400500 22.94600824
Pd 1.96400500 0.00000000 22.94600824
Pd 1.96400500 1.96400500 24.90991644
Pd 0.00000000 5.89201500 0.98208356
Pd 1.96400500 3.92801000 0.98208356
Pd 1.96400500 5.89201500 2.94599176
Pd 0.00000000 5.89201500 22.94600824
Pd 1.96400500 3.92801000 22.94600824
Pd 1.96400500 5.89201500 24.90991644
Pd 3.92801000 1.96400500 0.98208356
Pd 5.89201500 -0.00000000 0.98208356
Pd 5.89201500 1.96400500 2.94599176
Pd 3.92801000 1.96400500 22.94600824
Pd 5.89201500 0.00000000 22.94600824
Pd 5.89201500 1.96400500 24.90991644
Pd 3.92801000 5.89201500 0.98208356
Pd 5.89201500 3.92801000 0.98208356
Pd 5.89201500 5.89201500 2.94599176
Pd 3.92801000 5.89201500 22.94600824
Pd 5.89201500 3.92801000 22.94600824
Pd 5.89201500 5.89201500 24.90991644
C 1.96400500 1.96400500 4.84594672
O 1.96400500 1.96400500 5.99606936
