&CONTROL
calculation = 'relax'
prefix = 'scf'
pseudo_dir = '/vol0004/mdt0/data/hp150275/u10028/POT_KKJUS'
outdir = './data'
tprnfor = .true.
nstep = 50
disk_io = 'non'
/
&SYSTEM
ibrav = 0
ecutwfc = 50.0
ecutrho = 400
occupations = 'smearing'
smearing = 'mp'
degauss = 0.01
assume_isolated = 'esm'
esm_bc = 'bc1'
input_dft = 'BEEF-VDW'
nosym = .true.
nspin = 1
ntyp = 4
nat = 33
/
&ELECTRONS
electron_maxstep = 200
mixing_beta = 0.1
conv_thr = 1e-06
/
&IONS
ion_dynamics = 'bfgs'
upscale = 1.0
/
&CELL
/

K_POINTS {automatic}
9 6 2 0  0  0

ATOMIC_SPECIES
Al 26.98 Al.pbe-nl-rrkjus_psl.1.0.0.UPF
C 12.01 C.pbe-n-rrkjus_psl.1.0.0.UPF
Ni 58.69 Ni.pbe-spn-rrkjus_psl.1.0.0.UPF
V 50.94 V.pbe-spnl-rrkjus_psl.1.0.0.UPF

CELL_PARAMETERS {angstrom}
5.81624000 0.00000000 0.00000000
0.00000000 8.22541000 0.00000000
0.00000000 0.00000000 26.16910000

ATOMIC_POSITIONS {angstrom}
Al 0.00000000 0.00000000 -3.0845518200000015 0 0 0
Al 2.90812000 2.05635250 -1.0281839400000017 0 0 0
Al 2.90812000 6.16905750 -1.0281839400000017 0 0 0
Al 0.00000000 4.11270500 -3.0845518200000015 0 0 0
Al 0.00000000 4.11278725 1.00777204
Al 2.90812000 6.08540508 3.10051497
Al 2.90812000 2.14008717 3.10051497
Al 0.00000000 8.22532775 1.06063362
V 0.00000000 6.16905750 -1.0281839400000017 0 0 0
V 2.90812000 0.00000000 -3.0845518200000015 0 0 0
V 0.00000000 2.05635250 -1.0281839400000017 0 0 0
V 2.90812000 4.11270500 -3.0845518200000015 0 0 0
V 0.00000000 1.91849463 3.17300337
V 2.90812000 4.11254049 1.06220377
V 0.00000000 6.30683312 3.17300337
V 2.90812000 0.00016451 0.97924772
Ni 1.45406000 0.00000000 -1.0281839400000017 0 0 0
Ni 4.36218000 4.11270500 -1.0281839400000017 0 0 0
Ni 4.36218000 0.00000000 -1.0281839400000017 0 0 0
Ni 1.45406000 4.11270500 -1.0281839400000017 0 0 0
Ni 4.36218000 6.16905750 -3.0845518200000015 0 0 0
Ni 1.45406000 2.05635250 -3.0845518200000015 0 0 0
Ni 1.45406000 6.16905750 -3.0845518200000015 0 0 0
Ni 4.36218000 2.05635250 -3.0845518200000015 0 0 0
Ni 1.38228760 4.11286951 2.98851122
Ni 4.11202352 8.22532775 2.98981968
Ni 4.43395240 4.11286951 2.98851122
Ni 1.70421648 8.22532775 2.98981968
Ni 4.43238202 2.06433115 1.05827840
Ni 1.38391615 6.16099660 1.05801671
Ni 1.38385798 2.06433115 1.05827840
Ni 4.43232385 6.16099660 1.05801671
C 0.00000000 0.00000000 3.71653558
