&CONTROL
calculation = 'relax'
prefix = 'scf'
pseudo_dir = '/vol0004/mdt0/data/hp150275/u10028/POT_KKJUS'
outdir = './data'
tprnfor = .true.
nstep = 50
disk_io = 'non'
/
&SYSTEM
ibrav = 0
ecutwfc = 50.0
ecutrho = 400
occupations = 'smearing'
smearing = 'mp'
degauss = 0.01
assume_isolated = 'esm'
esm_bc = 'bc1'
input_dft = 'BEEF-VDW'
nosym = .true.
nspin = 1
ntyp = 3
nat = 33
/
&ELECTRONS
electron_maxstep = 200
mixing_beta = 0.1
conv_thr = 1e-06
/
&IONS
ion_dynamics = 'bfgs'
upscale = 1.0
/
&CELL
/

K_POINTS {automatic}
8 6 1 0 0 0

ATOMIC_SPECIES
Al 26.98 Al.pbe-nl-rrkjus_psl.1.0.0.UPF
C 12.01 C.pbe-n-rrkjus_psl.1.0.0.UPF
Rh 102.9 Rh.pbe-spn-rrkjus_psl.1.0.0.UPF

CELL_PARAMETERS {angstrom}
6.00621000 0.00000000 0.00000000
0.00000000 8.49407000 0.00000000
0.00000000 0.00000000 26.37050000

ATOMIC_POSITIONS {angstrom}
Al 0.00000000 0.00000000 -3.1852926900000007 0 0 0
Al 0.00000000 2.12351750 -1.061676330000001 0 0 0
Al 0.00000000 0.00000000 1.03372360
Al 0.00000000 2.24727610 3.29763102
Al 0.00000000 4.24703500 -3.1852926900000007 0 0 0
Al 0.00000000 6.37055250 -1.061676330000001 0 0 0
Al 0.00000000 4.24703500 1.07486158
Al 0.00000000 6.24679390 3.29763102
Al 3.00310500 0.00000000 -3.1852926900000007 0 0 0
Al 3.00310500 2.12351750 -1.061676330000001 0 0 0
Al 3.00310500 0.00000000 0.98652040
Al 3.00310500 2.18365552 3.29842214
Al 3.00310500 4.24703500 -3.1852926900000007 0 0 0
Al 3.00310500 6.37055250 -1.061676330000001 0 0 0
Al 3.00310500 4.24703500 1.07380676
Al 3.00310500 6.31041448 3.29842214
Rh 1.50155250 2.12351750 -3.1852926900000007 0 0 0
Rh 1.50155250 0.00000000 -1.061676330000001 0 0 0
Rh 1.50203300 2.08036762 1.06114892
Rh 1.50875995 4.24703500 3.10275303
Rh 1.50155250 6.37055250 -3.1852926900000007 0 0 0
Rh 1.50155250 4.24703500 -1.061676330000001 0 0 0
Rh 1.50203300 6.41370238 1.06114892
Rh 1.48647691 0.00000000 3.20902615
Rh 4.50465750 2.12351750 -3.1852926900000007 0 0 0
Rh 4.50465750 0.00000000 -1.061676330000001 0 0 0
Rh 4.50417700 2.08036762 1.06114892
Rh 4.49745005 4.24703500 3.10275303
Rh 4.50465750 6.37055250 -3.1852926900000007 0 0 0
Rh 4.50465750 4.24703500 -1.061676330000001 0 0 0
Rh 4.50417700 6.41370238 1.06114892
Rh 4.51973309 0.00000000 3.20902615
C 0.00000000 0.00000000 4.32713535
