&CONTROL
calculation = 'relax'
prefix = 'scf'
pseudo_dir = '/vol0403/data/hp230205/u10028/POT_HYBRID_KKJUS_GBRV'
outdir = './data'
tprnfor = .true.
nstep = 50
disk_io = 'non'
/
&SYSTEM
ibrav = 0
ecutwfc = 50.0
ecutrho = 400
occupations = 'smearing'
smearing = 'mp'
degauss = 0.01
assume_isolated = 'esm'
esm_bc = 'bc1'
input_dft = 'BEEF-VDW'
nosym = .true.
nspin = 1
ntyp = 4
nat = 16
/
&ELECTRONS
electron_maxstep = 200
mixing_beta = 0.1
conv_thr = 1e-06
/
&IONS
ion_dynamics = 'bfgs'
upscale = 1.0
/
&CELL
/

K_POINTS {automatic}
6 6 1 0 0 0

ATOMIC_SPECIES
In 114.8 In.pbe-dn-rrkjus_psl.1.0.0.UPF
Li 6.941 Li.pbe-sl-rrkjus_psl.1.0.0.UPF
Pb 207.2 Pb.pbe-dn-rrkjus_psl.1.0.0.UPF
Y 88.90 Y.pbe-spn-rrkjus_psl.1.0.0.UPF


CELL_PARAMETERS {angstrom}
6.51578000 0.00000000 0.00000000
0.00000000 9.32892000 0.00000000
0.00000000 0.00000000 24.88170000

ATOMIC_POSITIONS {angstrom}
Li 1.87445959 2.33241658 0.65787215
Li 4.66301796 2.33223000 -2.44089477 0 0 0
Li 1.87432927 6.99678329 0.65787215
Li 4.66301796 6.99669000 -2.44089477 0 0 0
Y 3.78990344 0.00037316 2.42720983
Y 6.36656864 0.00000000 -0.81363159 0 0 0
Y 3.78951249 4.66418013 2.42671220
Y 6.36656864 4.66446000 -0.81363159 0 0 0
In 0.60270965 0.00009329 2.65960491
In 3.10867864 0.00000000 -0.81363159 0 0 0
In 0.60244902 4.66464658 2.65935610
In 3.10867864 4.66446000 -0.81363159 0 0 0
Pb 5.33329625 2.33213671 1.16122894
Pb 1.40512796 2.33223000 -2.44089477 0 0 0
Pb 5.33270983 6.99669000 1.16122894
Pb 1.40512796 6.99669000 -2.44089477 0 0 0
