&CONTROL
calculation = 'relax'
prefix = 'scf'
pseudo_dir = '/vol0004/mdt0/data/hp150275/u10028/POT_KKJUS'
outdir = './data'
tprnfor = .true.
nstep = 50
disk_io = 'non'
/
&SYSTEM
ibrav = 0
ecutwfc = 50.0
ecutrho = 400
occupations = 'smearing'
smearing = 'mp'
degauss = 0.01
assume_isolated = 'esm'
esm_bc = 'bc1'
input_dft = 'BEEF-VDW'
nosym = .true.
nspin = 1
ntyp = 3
nat = 33
/
&ELECTRONS
electron_maxstep = 200
mixing_beta = 0.1
conv_thr = 1e-06
/
&IONS
ion_dynamics = 'bfgs'
upscale = 1.0
/
&CELL
/

K_POINTS {automatic}
7 7 2 0  0  0

ATOMIC_SPECIES
C 12.01 C.pbe-n-rrkjus_psl.1.0.0.UPF
Sn 118.7 Sn.pbe-dn-rrkjus_psl.1.0.0.UPF
Y 88.90 Y.pbe-spn-rrkjus_psl.1.0.0.UPF

CELL_PARAMETERS {angstrom}
9.50155000 0.00000000 0.00000000
-0.00000000 9.50155000 0.00000000
0.00000000 0.00000000 27.12620000

ATOMIC_POSITIONS {angstrom}
Y 0.00000000 0.00000000 -3.5630263699999993 0 0 0
Y 0.00000000 0.00000000 1.18758504
Y 0.00000000 4.75077500 -3.5630263699999993 0 0 0
Y 0.00000000 4.75077500 1.18758504
Y 4.75077500 0.00000000 -3.5630263699999993 0 0 0
Y 4.75077500 -0.00000000 1.18758504
Y 4.75077500 4.75077500 -3.5630263699999993 0 0 0
Y 4.75077500 4.75077500 1.18758504
Sn 0.00000000 2.37538750 -1.1875850400000019 0 0 0
Sn 2.37538750 0.00000000 -1.1875850400000019 0 0 0
Sn 2.37538750 2.37538750 -3.5630263699999993 0 0 0
Sn 0.00000000 2.37538750 3.56302637
Sn 2.37538750 -0.00000000 3.56302637
Sn 2.37538750 2.37538750 1.18758504
Sn 0.00000000 7.12616250 -1.1875850400000019 0 0 0
Sn 2.37538750 4.75077500 -1.1875850400000019 0 0 0
Sn 2.37538750 7.12616250 -3.5630263699999993 0 0 0
Sn 0.00000000 7.12616250 3.56302637
Sn 2.37538750 4.75077500 3.56302637
Sn 2.37538750 7.12616250 1.18758504
Sn 4.75077500 2.37538750 -1.1875850400000019 0 0 0
Sn 7.12616250 0.00000000 -1.1875850400000019 0 0 0
Sn 7.12616250 2.37538750 -3.5630263699999993 0 0 0
Sn 4.75077500 2.37538750 3.56302637
Sn 7.12616250 -0.00000000 3.56302637
Sn 7.12616250 2.37538750 1.18758504
Sn 4.75077500 7.12616250 -1.1875850400000019 0 0 0
Sn 7.12616250 4.75077500 -1.1875850400000019 0 0 0
Sn 7.12616250 7.12616250 -3.5630263699999993 0 0 0
Sn 4.75077500 7.12616250 3.56302637
Sn 7.12616250 4.75077500 3.56302637
Sn 7.12616250 7.12616250 1.18758504
C 0.00000000 0.00000000 4.36297801
