&CONTROL
calculation = 'relax'
prefix = 'scf'
pseudo_dir = '/vol0004/mdt0/data/hp150275/u10028/POT_KKJUS'
outdir = './data'
tprnfor = .true.
nstep = 50
disk_io = 'non'
/
&SYSTEM
ibrav = 0
ecutwfc = 50.0
ecutrho = 400
occupations = 'smearing'
smearing = 'mp'
degauss = 0.01
assume_isolated = 'esm'
esm_bc = 'bc1'
input_dft = 'BEEF-VDW'
nosym = .true.
nspin = 1
ntyp = 4
nat = 18
/
&ELECTRONS
electron_maxstep = 200
mixing_beta = 0.1
conv_thr = 1e-06
/
&IONS
ion_dynamics = 'bfgs'
upscale = 1.0
/
&CELL
/

K_POINTS {automatic}
6 8 1 0 0 0

ATOMIC_SPECIES
Au 196.9 Au.pbe-n-rrkjus_psl.1.0.0.UPF
C 12.01 C.pbe-n-rrkjus_psl.1.0.0.UPF
Cu 63.54 Cu.pbe-dn-rrkjus_psl.1.0.0.UPF
O 15.99 O.pbe-n-rrkjus_psl.1.0.0.UPF

CELL_PARAMETERS {angstrom}
7.64441000 0.00000000 0.00000000
0.00000000 5.40542000 0.00000000
0.00000000 0.00000000 24.05410000

ATOMIC_POSITIONS {angstrom}
Cu 0.00000000 2.70271000 1.90700905
Cu 1.91515404 4.06655152 0.68890942
Cu 1.91515404 1.33881443 0.68890942
Cu 0.00000000 0.00000000 -0.6756796699999974 0 0 0
Cu 1.91110250 1.35135500 -2.0270390099999993 0 0 0
Cu 1.91110250 4.05406500 -2.0270390099999993 0 0 0
Cu 3.82220500 2.70271000 1.94717939
Cu 5.72925596 4.06660557 0.68890942
Cu 5.72925596 1.33881443 0.68890942
Cu 3.82220500 0.00000000 -0.6756796699999974 0 0 0
Cu 5.73330750 1.35135500 -2.0270390099999993 0 0 0
Cu 5.73330750 4.05406500 -2.0270390099999993 0 0 0
Au 0.00000000 0.00000000 2.07538775
Au 0.00000000 2.70271000 -0.6756796699999974 0 0 0
Au 3.82220500 0.00000000 2.03690119
Au 3.82220500 2.70271000 -0.6756796699999974 0 0 0
C 0.00000000 0.00000000 4.13417817
O 0.00000000 0.00000000 5.27963441
