&CONTROL
calculation = 'relax'
prefix = 'scf'
pseudo_dir = '/vol0403/data/hp230205/u10028/POT_HYBRID_KKJUS_GBRV'
outdir = './data'
tprnfor = .true.
nstep = 50
disk_io = 'non'
/
&SYSTEM
ibrav = 0
ecutwfc = 50.0
ecutrho = 400
occupations = 'smearing'
smearing = 'mp'
degauss = 0.01
assume_isolated = 'esm'
esm_bc = 'bc1'
input_dft = 'BEEF-VDW'
nosym = .true.
nspin = 1
ntyp = 5
nat = 33
/
&ELECTRONS
electron_maxstep = 200
mixing_beta = 0.1
conv_thr = 1e-06
/
&IONS
ion_dynamics = 'bfgs'
upscale = 1.0
/
&CELL
/

K_POINTS {automatic}
6 6 1 0 0 0

ATOMIC_SPECIES
Al 26.98 Al.pbe-nl-rrkjus_psl.1.0.0.UPF
C 12.01 C.pbe-n-rrkjus_psl.1.0.0.UPF
Li 6.941 Li.pbe-sl-rrkjus_psl.1.0.0.UPF
Pd 106.4 Pd.pbe-n-rrkjus_psl.1.0.0.UPF
Ti 47.86 Ti.pbe-spn-rrkjus_psl.1.0.0.UPF


CELL_PARAMETERS {angstrom}
6.17553000 0.00000000 0.00000000
0.00000000 8.73352000 0.00000000
0.00000000 0.00000000 26.55010000

ATOMIC_POSITIONS {angstrom}
Li 4.63164750 0.00000000 -1.09174011 0 0 0
Li 4.63164750 4.36676000 -1.09174011 0 0 0
Li 1.54388250 2.18338000 -3.274954830000002 0 0 0
Li 1.54388250 6.55014000 -3.274954830000002 0 0 0
Li 4.30928483 4.51662720 4.55121814
Li 4.30934659 8.58365280 4.55121814
Li 1.57939180 6.55014000 1.08457158
Li 1.57006675 2.18338000 1.28502484
Ti 0.00000000 2.18338000 -1.09174011 0 0 0
Ti 0.00000000 6.55014000 -1.09174011 0 0 0
Ti 3.08776500 4.36676000 -3.274954830000002 0 0 0
Ti 3.08776500 0.00000000 -3.274954830000002 0 0 0
Ti 6.12569347 6.55014000 3.15415188
Ti 5.81142075 2.18338000 3.18017098
Ti 3.16465035 8.71849835 1.16979741
Ti 3.16465035 4.38178165 1.16979741
Al 0.00000000 0.00000000 -3.274954830000002 0 0 0
Al 0.00000000 4.36676000 -3.274954830000002 0 0 0
Al 3.08776500 6.55014000 -1.09174011 0 0 0
Al 3.08776500 2.18338000 -1.09174011 0 0 0
Al 6.13267182 4.36265525 1.11775921
Al 6.13267182 0.00410475 1.11775921
Al 3.31625961 2.18338000 3.49346216
Al 3.07424059 6.55014000 3.25743177
Pd 1.54388250 0.00000000 -1.09174011 0 0 0
Pd 1.54388250 4.36676000 -1.09174011 0 0 0
Pd 4.63164750 2.18338000 -3.274954830000002 0 0 0
Pd 4.63164750 6.55014000 -3.274954830000002 0 0 0
Pd 1.52442958 4.34230614 3.17406446
Pd 1.52442958 0.02445386 3.17406446
Pd 4.65029760 6.55014000 1.03545390
Pd 4.57730284 2.18338000 0.95208659
C 1.43463737 2.18338000 3.70426995
