&CONTROL
calculation = 'relax'
prefix = 'scf'
pseudo_dir = '/vol0403/data/hp230205/u10028/POT_HYBRID_KKJUS_GBRV'
outdir = './data'
tprnfor = .true.
nstep = 70
disk_io = 'non'
/
&SYSTEM
ibrav = 0
ecutwfc = 50.0
ecutrho = 400
occupations = 'smearing'
smearing = 'mp'
degauss = 0.01
assume_isolated = 'esm'
esm_bc = 'bc1'
input_dft = 'BEEF-VDW'
nosym = .true.
nspin = 1
ntyp = 5
nat = 33
/
&ELECTRONS
electron_maxstep = 200
mixing_beta = 0.1
conv_thr = 1e-06
/
&IONS
ion_dynamics = 'bfgs'
upscale = 1.0
/
&CELL
/

K_POINTS {automatic}
9 6 2 0  0  0

ATOMIC_SPECIES
C 12.01 C.pbe-n-rrkjus_psl.1.0.0.UPF
Ga 69.72 Ga.pbe-dnl-rrkjus_psl.1.0.0.UPF
Li 6.941 Li.pbe-sl-rrkjus_psl.1.0.0.UPF
Pd 106.4 Pd.pbe-n-rrkjus_psl.1.0.0.UPF
Y 88.90 Y.pbe-spn-rrkjus_psl.1.0.0.UPF


CELL_PARAMETERS {angstrom}
6.61884000 0.00000000 0.00000000
-0.00000000 9.36046000 0.00000000
0.00000000 0.00000000 27.02030000

ATOMIC_POSITIONS {angstrom}
Li 4.96413000 0.00000000 -1.1699789900000006 0 0 0
Li 4.96413000 4.68023000 -1.1699789900000006 0 0 0
Li 1.65471000 2.34011500 -3.5102071699999975 0 0 0
Li 1.65471000 7.02034500 -3.5102071699999975 0 0 0
Li 3.44087016 4.68023000 4.96308870
Li 4.49286859 -0.00000000 4.65019363
Li 1.45223968 7.01800488 1.35371703
Li 1.45217350 2.34245511 1.35371703
Y 0.00000000 2.34011500 -1.1699789900000006 0 0 0
Y 0.00000000 7.02034500 -1.1699789900000006 0 0 0
Y 3.30942000 4.68023000 -3.5102071699999975 0 0 0
Y 3.30942000 0.00000000 -3.5102071699999975 0 0 0
Y 6.05405438 6.73597423 3.54101031
Y 6.05405438 2.62457938 3.54101031
Y 3.33199024 -0.00000000 1.32885835
Y 3.32305481 4.68013640 1.37101002
Ga 0.00000000 0.00000000 -3.5102071699999975 0 0 0
Ga 0.00000000 4.68023000 -3.5102071699999975 0 0 0
Ga 3.30942000 7.02034500 -1.1699789900000006 0 0 0
Ga 3.30942000 2.34011500 -1.1699789900000006 0 0 0
Ga 6.56847063 4.68023000 1.10080702
Ga 6.46548148 -0.00000000 1.07081449
Ga 2.98443496 2.13558895 3.64611928
Ga 2.98436877 7.22487105 3.64611928
Pd 1.65471000 0.00000000 -1.1699789900000006 0 0 0
Pd 1.65471000 4.68023000 -1.1699789900000006 0 0 0
Pd 4.96413000 2.34011500 -3.5102071699999975 0 0 0
Pd 4.96413000 7.02034500 -3.5102071699999975 0 0 0
Pd 1.42172683 4.68032360 3.38132034
Pd 0.72231401 0.00009360 3.45157312
Pd 4.93202863 7.00265373 1.03298607
Pd 4.93209481 2.35780627 1.03298607
C 2.70008959 -0.00000000 3.64206624
