&CONTROL
calculation = 'relax'
prefix = 'scf'
pseudo_dir = '/vol0004/mdt0/data/hp150275/u10028/POT_HYBRID_KKJUS_GBRV'
outdir = './data'
tprnfor = .true.
nstep = 50
disk_io = 'non'
/
&SYSTEM
ibrav = 0
ecutwfc = 50.0
ecutrho = 400
occupations = 'smearing'
smearing = 'mp'
degauss = 0.01
assume_isolated = 'esm'
esm_bc = 'bc1'
input_dft = 'BEEF-VDW'
nosym = .true.
nspin = 2
ntyp = 5
nat = 34
starting_magnetization(1) = 0.0
starting_magnetization(2) = 0.0
starting_magnetization(3) = 0.001
starting_magnetization(4) = 0.0
starting_magnetization(5) = 0.0
/
&ELECTRONS
electron_maxstep = 300
mixing_beta = 0.1
conv_thr = 1e-06
/
&IONS
ion_dynamics = 'bfgs'
upscale = 1.0
/
&CELL
/

K_POINTS {automatic}
9 6 2 0  0  0

ATOMIC_SPECIES
C 12.01 C.pbe-n-rrkjus_psl.1.0.0.UPF
Ge 72.64 Ge.pbe-dn-rrkjus_psl.1.0.0.UPF
Ni 58.69 ni_pbe_v1.4.uspp.F.UPF
O 15.99 O.pbe-n-rrkjus_psl.1.0.0.UPF
Zn 65.40 Zn.pbe-dnl-rrkjus_psl.1.0.0.UPF

CELL_PARAMETERS {angstrom}
5.88011000 0.00000000 0.00000000
0.00000000 8.31574000 0.00000000
0.00000000 0.00000000 26.23680000

ATOMIC_POSITIONS {angstrom}
Zn 0.00000000 0.00000000 -3.118506049999997 0 0 0
Zn 2.94005500 2.07893500 -1.0395020200000005 0 0 0
Zn 2.94005500 6.23680500 -1.0395020200000005 0 0 0
Zn 0.00000000 4.15787000 -3.118506049999997 0 0 0
Zn 0.00000000 4.10714399 0.93219350
Zn 2.94005500 6.23680500 3.25362557
Zn 2.94005500 2.07910131 3.31055942
Zn 0.00000000 0.05072601 0.93245587
Ni 1.47002750 0.00000000 -1.0395020200000005 0 0 0
Ni 4.41008250 4.15787000 -1.0395020200000005 0 0 0
Ni 4.41008250 0.00000000 -1.0395020200000005 0 0 0
Ni 1.47002750 4.15787000 -1.0395020200000005 0 0 0
Ni 4.41008250 6.23680500 -3.118506049999997 0 0 0
Ni 1.47002750 2.07893500 -3.118506049999997 0 0 0
Ni 1.47002750 6.23680500 -3.118506049999997 0 0 0
Ni 4.41008250 2.07893500 -3.118506049999997 0 0 0
Ni 1.39005800 4.19545714 2.91831926
Ni 4.49011080 8.27831917 2.91858163
Ni 4.49005200 4.19545714 2.91831926
Ni 1.38999920 8.27831917 2.91858163
Ni 4.31935240 2.07935079 1.12949424
Ni 1.45526842 6.23630606 0.98886499
Ni 1.56075760 2.07935079 1.12949424
Ni 4.42490038 6.23630606 0.98886499
Ge 0.00000000 6.23680500 -1.0395020200000005 0 0 0
Ge 2.94005500 0.00000000 -3.118506049999997 0 0 0
Ge 0.00000000 2.07893500 -1.0395020200000005 0 0 0
Ge 2.94005500 4.15787000 -3.118506049999997 0 0 0
Ge 0.00000000 2.07901816 3.15287626
Ge 2.94005500 4.18265091 1.04474938
Ge 0.00000000 6.23663869 3.15077731
Ge 2.94005500 8.29095909 1.04448701
C 2.94005500 2.07901816 5.40215712
O 2.94005500 2.07885184 6.54372029
