&CONTROL
calculation = 'relax'
prefix = 'scf'
pseudo_dir = '/vol0403/data/hp230205/u10028/POT_HYBRID_KKJUS_GBRV'
outdir = './data'
tprnfor = .true.
nstep = 50
disk_io = 'non'
/
&SYSTEM
ibrav = 0
ecutwfc = 50.0
ecutrho = 400
occupations = 'smearing'
smearing = 'mp'
degauss = 0.01
assume_isolated = 'esm'
esm_bc = 'bc1'
input_dft = 'BEEF-VDW'
nosym = .true.
nspin = 2
ntyp = 6
nat = 18
starting_magnetization(1) = 0.0
starting_magnetization(2) = 0.0
starting_magnetization(3) = 0.1
starting_magnetization(4) = 0.0
starting_magnetization(5) = 0.0
starting_magnetization(6) = 0.0
/
&ELECTRONS
electron_maxstep = 200
mixing_beta = 0.1
conv_thr = 1e-06
/
&IONS
ion_dynamics = 'bfgs'
upscale = 1.0
/
&CELL
/

K_POINTS {automatic}
6 6 1 0 0 0

ATOMIC_SPECIES
C 12.01 C.pbe-n-rrkjus_psl.1.0.0.UPF
Li 6.941 Li.pbe-sl-rrkjus_psl.1.0.0.UPF
Mn 54.93 mn_pbe_v1.5.uspp.F.UPF
O 15.99 O.pbe-n-rrkjus_psl.1.0.0.UPF
Pd 106.4 Pd.pbe-n-rrkjus_psl.1.0.0.UPF
Sb 121.7 Sb.pbe-n-rrkjus_psl.1.0.0.UPF


CELL_PARAMETERS {angstrom}
6.44934000 0.00000000 0.00000000
0.00000000 6.44934000 0.00000000
0.00000000 0.00000000 24.83700000

ATOMIC_POSITIONS {angstrom}
Li 0.00000000 0.00000000 2.60291760
Li 0.00000000 3.22467000 -0.8062090200000007 0 0 0
Li 3.22467000 0.00000000 -0.8062090200000007 0 0 0
Li 3.22467000 3.22460551 2.60291760
Mn 6.44927551 3.22467000 2.45315049
Mn 0.00000000 0.00000000 -0.8062090200000007 0 0 0
Mn 3.22467000 3.22467000 -0.8062090200000007 0 0 0
Mn 3.22460551 0.00000000 2.10741945
Sb 4.92084642 1.69611193 0.88916460
Sb 4.83700500 4.83700500 -2.418378690000001 0 0 0
Sb 1.61233500 1.61233500 -2.418378690000001 0 0 0
Sb 1.52849358 4.75309909 0.88916460
Pd 1.55932143 1.66534857 0.72101811
Pd 1.61233500 4.83700500 -2.418378690000001 0 0 0
Pd 4.83700500 1.61233500 -2.418378690000001 0 0 0
Pd 4.88995408 4.78412041 0.72126648
C 0.00006449 3.22467000 4.32908910
O 0.00006449 3.22473449 5.49841506
