&CONTROL
calculation = 'relax'
prefix = 'scf'
pseudo_dir = '/vol0403/data/hp230205/u10028/POT_HYBRID_KKJUS_GBRV'
outdir = './data'
tprnfor = .true.
nstep = 50
disk_io = 'non'
/
&SYSTEM
ibrav = 0
ecutwfc = 50.0
ecutrho = 400
occupations = 'smearing'
smearing = 'mp'
degauss = 0.01
assume_isolated = 'esm'
esm_bc = 'bc1'
input_dft = 'BEEF-VDW'
nosym = .true.
nspin = 1
ntyp = 6
nat = 34
/
&ELECTRONS
electron_maxstep = 200
mixing_beta = 0.1
conv_thr = 1e-06
/
&IONS
ion_dynamics = 'bfgs'
upscale = 1.0
/
&CELL
/

K_POINTS {automatic}
9 6 2 0  0  0

ATOMIC_SPECIES
C 12.01 C.pbe-n-rrkjus_psl.1.0.0.UPF
In 114.8 In.pbe-dn-rrkjus_psl.1.0.0.UPF
Li 6.941 Li.pbe-sl-rrkjus_psl.1.0.0.UPF
Mg 24.30 Mg.pbe-spnl-rrkjus_psl.1.0.0.UPF
O 15.99 O.pbe-n-rrkjus_psl.1.0.0.UPF
Pd 106.4 Pd.pbe-n-rrkjus_psl.1.0.0.UPF


CELL_PARAMETERS {angstrom}
6.52273000 0.00000000 0.00000000
0.00000000 9.22454000 0.00000000
0.00000000 0.00000000 26.91840000

ATOMIC_POSITIONS {angstrom}
Li 1.63068250 0.00000000 -1.1531842599999997 0 0 0
Li 1.63068250 4.61227000 -1.1531842599999997 0 0 0
Li 4.89204750 2.30613500 -3.4592835799999975 0 0 0
Li 4.89204750 6.91840500 -3.4592835799999975 0 0 0
Li 1.65918683 4.61227000 3.68055283
Li 1.72147890 0.00000000 3.63667584
Li 4.85728135 6.92015766 1.17687245
Li 4.85728135 2.30447458 1.17687245
Mg 0.00000000 2.30613500 -1.1531842599999997 0 0 0
Mg 0.00000000 6.91840500 -1.1531842599999997 0 0 0
Mg 3.26136500 4.61227000 -3.4592835799999975 0 0 0
Mg 3.26136500 0.00000000 -3.4592835799999975 0 0 0
Mg 6.40851700 6.93150385 3.52442611
Mg 6.40858222 2.29294391 3.52442611
Mg 3.22053271 0.00000000 1.13487974
Mg 3.22972976 4.61227000 1.18117939
In 0.00000000 0.00000000 -3.4592835799999975 0 0 0
In 0.00000000 4.61227000 -3.4592835799999975 0 0 0
In 3.26136500 6.91840500 -1.1531842599999997 0 0 0
In 3.26136500 2.30613500 -1.1531842599999997 0 0 0
In 0.03776661 4.61227000 1.17148877
In 0.03398342 0.00000000 1.17391142
In 3.30585002 2.33408536 3.68243712
In 3.30585002 6.89045464 3.68243712
Pd 4.89204750 0.00000000 -1.1531842599999997 0 0 0
Pd 4.89204750 4.61227000 -1.1531842599999997 0 0 0
Pd 1.63068250 2.30613500 -3.4592835799999975 0 0 0
Pd 1.63068250 6.91840500 -3.4592835799999975 0 0 0
Pd 4.87339249 4.61227000 3.33249792
Pd 4.79283678 0.00000000 3.27973786
Pd 1.65077251 6.92440095 1.23178598
Pd 1.65077251 2.30013905 1.23205517
C 1.42860832 0.00000000 5.67063014
O 1.37890512 0.00000000 6.81546970
