&CONTROL
calculation = 'relax'
prefix = 'scf'
pseudo_dir = '/vol0004/mdt0/data/hp150275/u10028/POT_KKJUS'
outdir = './data'
tprnfor = .true.
nstep = 50
disk_io = 'non'
/
&SYSTEM
ibrav = 0
ecutwfc = 50.0
ecutrho = 400
occupations = 'smearing'
smearing = 'mp'
degauss = 0.01
assume_isolated = 'esm'
esm_bc = 'bc1'
input_dft = 'BEEF-VDW'
nosym = .true.
nspin = 1
ntyp = 4
nat = 33
/
&ELECTRONS
electron_maxstep = 200
mixing_beta = 0.1
conv_thr = 1e-06
/
&IONS
ion_dynamics = 'bfgs'
upscale = 1.0
/
&CELL
/

K_POINTS {automatic}
9 6 2 0  0  0

ATOMIC_SPECIES
C 12.01 C.pbe-n-rrkjus_psl.1.0.0.UPF
Li 6.941 Li.pbe-sl-rrkjus_psl.1.0.0.UPF
Ni 58.69 Ni.pbe-spn-rrkjus_psl.1.0.0.UPF
Sn 118.7 Sn.pbe-dn-rrkjus_psl.1.0.0.UPF

CELL_PARAMETERS {angstrom}
6.05884000 0.00000000 0.00000000
0.00000000 8.56849000 0.00000000
0.00000000 0.00000000 26.42640000

ATOMIC_POSITIONS {angstrom}
Li 0.00000000 0.00000000 -3.213185980000002 0 0 0
Li 3.02942000 2.14212250 -1.0710619900000005 0 0 0
Li 3.02942000 6.42636750 -1.0710619900000005 0 0 0
Li 0.00000000 4.28424500 -3.213185980000002 0 0 0
Li 0.02290242 4.35142196 0.90616126
Li 3.05662419 6.42628182 3.34346813
Li 3.07449777 2.14186545 3.31387056
Li 0.02266006 8.50122735 0.90616126
Ni 1.51471000 0.00000000 -1.0710619900000005 0 0 0
Ni 4.54413000 4.28424500 -1.0710619900000005 0 0 0
Ni 4.54413000 0.00000000 -1.0710619900000005 0 0 0
Ni 1.51471000 4.28424500 -1.0710619900000005 0 0 0
Ni 4.54413000 6.42636750 -3.213185980000002 0 0 0
Ni 1.51471000 2.14212250 -3.213185980000002 0 0 0
Ni 1.51471000 6.42636750 -3.213185980000002 0 0 0
Ni 4.54413000 2.14212250 -3.213185980000002 0 0 0
Ni 1.20140738 3.96318368 2.95949254
Ni 4.76800414 0.04052896 2.97297000
Ni 4.76794355 4.24303056 2.97323426
Ni 1.20140738 0.32071858 2.95922827
Ni 4.81689898 2.14203682 1.36148813
Ni 1.54700362 6.42645318 1.11942230
Ni 1.48653639 2.14186545 1.06551245
Ni 4.55037061 6.42636750 1.12550038
Sn 0.00000000 6.42636750 -1.0710619900000005 0 0 0
Sn 3.02942000 0.00000000 -3.213185980000002 0 0 0
Sn 0.00000000 2.14212250 -1.0710619900000005 0 0 0
Sn 3.02942000 4.28424500 -3.213185980000002 0 0 0
Sn 5.55741040 2.14169408 4.49803754
Sn 3.07013540 4.25965343 1.08586078
Sn 0.06173958 6.42602476 3.28955827
Sn 3.07013540 0.02442020 1.08586078
C 1.06980938 2.14203682 2.86171486
