&CONTROL
calculation = 'relax'
prefix = 'scf'
pseudo_dir = '/vol0004/mdt0/data/hp150275/u10028/POT_KKJUS'
outdir = './data'
tprnfor = .true.
nstep = 50
disk_io = 'non'
/
&SYSTEM
ibrav = 0
ecutwfc = 50.0
ecutrho = 400
occupations = 'smearing'
smearing = 'mp'
degauss = 0.01
assume_isolated = 'esm'
esm_bc = 'bc1'
input_dft = 'BEEF-VDW'
nosym = .true.
nspin = 1
ntyp = 4
nat = 33
/
&ELECTRONS
electron_maxstep = 200
mixing_beta = 0.1
conv_thr = 1e-06
/
&IONS
ion_dynamics = 'bfgs'
upscale = 1.0
/
&CELL
/

K_POINTS {automatic}
8 6 1 0 0 0

ATOMIC_SPECIES
Ag 107.8 Ag.pbe-n-rrkjus_psl.1.0.0.UPF
C 12.01 C.pbe-n-rrkjus_psl.1.0.0.UPF
Li 6.941 Li.pbe-sl-rrkjus_psl.1.0.0.UPF
Sb 121.7 Sb.pbe-n-rrkjus_psl.1.0.0.UPF

CELL_PARAMETERS {angstrom}
6.69979000 0.00000000 0.00000000
0.00000000 9.47494000 0.00000000
0.00000000 0.00000000 27.10620000

ATOMIC_POSITIONS {angstrom}
Li 0.00000000 7.10620500 -1.1842698800000022 0 0 0
Li 3.34989500 0.00000000 -3.5530807000000024 0 0 0
Li 0.00000000 2.36873500 -1.1842698800000022 0 0 0
Li 3.34989500 4.73747000 -3.5530807000000024 0 0 0
Li 1.67494750 0.00000000 -1.1842698800000022 0 0 0
Li 1.67494750 4.73747000 -1.1842698800000022 0 0 0
Li 5.02484250 7.10620500 -3.5530807000000024 0 0 0
Li 5.02484250 2.36873500 -3.5530807000000024 0 0 0
Li 6.68337551 2.08334981 3.64090478
Li 3.29455473 4.73747000 1.12544942
Li 6.68337551 7.39159019 3.64090478
Li 3.17342253 0.00000000 1.36696567
Li 1.70697250 4.73747000 3.53220892
Li 1.86461855 0.00000000 4.22368808
Li 4.92166573 2.36475553 1.34365433
Li 4.92159874 7.11018447 1.34365433
Ag 1.67494750 2.36873500 -3.5530807000000024 0 0 0
Ag 1.67494750 7.10620500 -3.5530807000000024 0 0 0
Ag 5.02484250 4.73747000 -1.1842698800000022 0 0 0
Ag 5.02484250 0.00000000 -1.1842698800000022 0 0 0
Ag 1.74884618 7.03675369 1.22980829
Ag 1.74877919 2.43828106 1.22980829
Ag 4.60416269 0.00000000 3.73306586
Ag 4.85058096 4.73737525 3.36740323
Sb 0.00000000 0.00000000 -3.5530807000000024 0 0 0
Sb 3.34989500 2.36873500 -1.1842698800000022 0 0 0
Sb 3.34989500 7.10620500 -1.1842698800000022 0 0 0
Sb 0.00000000 4.73747000 -3.5530807000000024 0 0 0
Sb 6.69108027 4.73747000 1.20974971
Sb 3.20832844 7.03571145 3.72656038
Sb 3.20819444 2.43922855 3.72628931
Sb 0.11121651 0.00000000 1.20215997
C 0.02559320 0.00000000 3.33541791
