&CONTROL
calculation = 'relax'
prefix = 'scf'
pseudo_dir = '/vol0403/data/hp230205/u10028/POT_HYBRID_KKJUS_GBRV'
outdir = './data'
tprnfor = .true.
nstep = 50
disk_io = 'non'
/
&SYSTEM
ibrav = 0
ecutwfc = 50.0
ecutrho = 400
occupations = 'smearing'
smearing = 'mp'
degauss = 0.01
assume_isolated = 'esm'
esm_bc = 'bc1'
input_dft = 'BEEF-VDW'
nosym = .true.
nspin = 1
ntyp = 6
nat = 34
/
&ELECTRONS
electron_maxstep = 200
mixing_beta = 0.1
conv_thr = 1e-06
/
&IONS
ion_dynamics = 'bfgs'
upscale = 1.0
/
&CELL
/

K_POINTS {automatic}
6 6 1 0 0 0

ATOMIC_SPECIES
C 12.01 C.pbe-n-rrkjus_psl.1.0.0.UPF
In 114.8 In.pbe-dn-rrkjus_psl.1.0.0.UPF
O 15.99 O.pbe-n-rrkjus_psl.1.0.0.UPF
Pd 106.4 Pd.pbe-n-rrkjus_psl.1.0.0.UPF
Sn 118.7 Sn.pbe-dn-rrkjus_psl.1.0.0.UPF
Y 88.90 Y.pbe-spn-rrkjus_psl.1.0.0.UPF


CELL_PARAMETERS {angstrom}
8.73372000 0.00000000 0.00000000
0.00000000 9.06394000 0.00000000
0.00000000 0.00000000 26.87300000

ATOMIC_POSITIONS {angstrom}
Y 0.00000000 2.26598500 -1.1455959900000003 0 0 0
Y 8.73171124 2.26444413 3.47172287
Y 0.00000000 6.79795500 -1.1455959900000003 0 0 0
Y 8.73171124 6.79967715 3.47199160
Y 4.36686000 2.26598500 -1.1455959900000003 0 0 0
Y 4.36913077 2.26444413 3.47199160
Y 4.36686000 6.79795500 -1.1455959900000003 0 0 0
Y 4.36904343 6.79967715 3.47172287
In 0.00000000 0.00000000 -3.4365192400000026 0 0 0
In 0.03807902 0.00009064 1.21869055
In 0.00000000 4.53197000 -3.4365192400000026 0 0 0
In 0.08428040 4.53206064 1.22487134
In 4.36686000 0.00000000 -3.4365192400000026 0 0 0
In 4.32895566 0.00009064 1.21869055
In 4.36686000 4.53197000 -3.4365192400000026 0 0 0
In 4.28275428 4.53206064 1.22487134
Sn 2.18343000 0.00000000 -1.1455959900000003 0 0 0
Sn 2.18360467 0.00018128 3.49456492
Sn 2.18343000 4.53197000 -1.1455959900000003 0 0 0
Sn 2.18351734 4.53206064 3.59130772
Sn 6.55029000 0.00000000 -1.1455959900000003 0 0 0
Sn 6.55037734 0.00009064 3.42147036
Sn 6.55029000 4.53197000 -1.1455959900000003 0 0 0
Sn 6.55037734 4.53206064 3.38411689
Pd 2.18343000 2.26598500 -3.4365192400000026 0 0 0
Pd 2.18351734 2.25048566 1.37347903
Pd 2.18343000 6.79795500 -3.4365192400000026 0 0 0
Pd 2.18351734 6.81363562 1.37347903
Pd 6.55029000 2.26598500 -3.4365192400000026 0 0 0
Pd 6.55037734 2.28619759 1.26921179
Pd 6.55029000 6.79795500 -3.4365192400000026 0 0 0
Pd 6.55037734 6.77792369 1.26921179
C 2.17888847 9.05904547 7.95763276
O 2.18456538 0.00208471 9.09758542
