&CONTROL
calculation = 'relax'
prefix = 'scf'
pseudo_dir = '/vol0004/mdt0/data/hp150275/u10028/POT_HYBRID_KKJUS_GBRV'
outdir = './data'
tprnfor = .true.
nstep = 70
disk_io = 'non'
/
&SYSTEM
ibrav = 0
ecutwfc = 50.0
ecutrho = 400
occupations = 'smearing'
smearing = 'mp'
degauss = 0.01
assume_isolated = 'esm'
esm_bc = 'bc1'
input_dft = 'BEEF-VDW'
nosym = .true.
nspin = 1
ntyp = 2
nat = 16
/
&ELECTRONS
electron_maxstep = 200
mixing_beta = 0.1
conv_thr = 1e-06
/
&IONS
ion_dynamics = 'bfgs'
upscale = 1.0
/
&CELL
/

K_POINTS {automatic}
10 10 2 0  0  0

ATOMIC_SPECIES
Ir 192.2 Ir.pbe-n-rrkjus_psl.0.2.3.UPF
Nb 92.90 Nb.pbe-spn-rrkjus_psl.1.0.0.UPF

CELL_PARAMETERS {angstrom}
5.77766000 0.00000000 0.00000000
-0.00000000 5.77766000 0.00000000
0.00000000 0.00000000 25.83470000

ATOMIC_POSITIONS {angstrom}
Nb 1.44441500 1.44441500 -0.6337251899999998 0 0 0
Nb 1.44441500 1.44441500 3.25620559
Nb 1.44441500 4.33324500 -0.6337251899999998 0 0 0
Nb 1.44441500 4.33324500 3.25620559
Nb 4.33324500 1.44441500 -0.6337251899999998 0 0 0
Nb 4.33324500 1.44441500 3.25620559
Nb 4.33324500 4.33324500 -0.6337251899999998 0 0 0
Nb 4.33324500 4.33324500 3.25620559
Ir 0.00000000 0.00000000 -2.5785614100000025 0 0 0
Ir 0.00000000 0.00000000 1.31111103
Ir 0.00000000 2.88883000 -2.5785614100000025 0 0 0
Ir 0.00000000 2.88883000 1.31111103
Ir 2.88883000 0.00000000 -2.5785614100000025 0 0 0
Ir 2.88883000 -0.00000000 1.31111103
Ir 2.88883000 2.88883000 -2.5785614100000025 0 0 0
Ir 2.88883000 2.88883000 1.31111103
