&CONTROL
calculation = 'relax'
prefix = 'scf'
pseudo_dir = '/vol0004/mdt0/data/hp150275/u10028/POT_HYBRID_KKJUS_GBRV'
outdir = './data'
tprnfor = .true.
nstep = 50
disk_io = 'non'
/
&SYSTEM
ibrav = 0
ecutwfc = 50.0
ecutrho = 400
occupations = 'smearing'
smearing = 'mp'
degauss = 0.01
assume_isolated = 'esm'
esm_bc = 'bc1'
input_dft = 'BEEF-VDW'
nosym = .true.
nspin = 2
ntyp = 4
nat = 33
starting_magnetization(1) = 0.0
starting_magnetization(2) = 0.0
starting_magnetization(3) = 0.001
starting_magnetization(4) = 0.0
/
&ELECTRONS
electron_maxstep = 200
mixing_beta = 0.1
conv_thr = 1e-06
/
&IONS
ion_dynamics = 'bfgs'
upscale = 1.0
/
&CELL
/

K_POINTS {automatic}
9 6 2 0  0  0

ATOMIC_SPECIES
C 12.01 C.pbe-n-rrkjus_psl.1.0.0.UPF
Ga 69.72 Ga.pbe-dnl-rrkjus_psl.1.0.0.UPF
Ni 58.69 ni_pbe_v1.4.uspp.F.UPF
Zr 91.22 Zr.pbe-spn-rrkjus_psl.1.0.0.UPF

CELL_PARAMETERS {angstrom}
6.13924000 0.00000000 0.00000000
0.00000000 8.68219000 0.00000000
0.00000000 0.00000000 26.51160000

ATOMIC_POSITIONS {angstrom}
Zr 0.00000000 0.00000000 23.25571040
Zr 3.06962000 2.17054750 25.42621510
Zr 3.06962000 6.51164250 25.42621510
Zr 0.00000000 4.34109500 23.25571040
Zr 0.04051898 4.38294316 1.33008697
Zr 2.53163840 6.50964560 3.22619660
Zr 2.62329725 2.17202347 3.03001076
Zr 0.03996645 8.64129689 1.33035209
Ga 0.00000000 6.51164250 25.42621510
Ga 3.06962000 0.00000000 23.25571040
Ga 0.00000000 2.17054750 25.42621510
Ga 3.06962000 4.34109500 23.25571040
Ga 5.33137741 2.16993975 3.55679626
Ga 3.06084089 4.33276010 1.01937102
Ga 5.82313053 6.51268436 3.47938238
Ga 3.05979722 0.00902948 1.01963614
Ni 1.53481000 0.00000000 25.42621510
Ni 4.60443000 4.34109500 25.42621510
Ni 4.60443000 0.00000000 25.42621510
Ni 1.53481000 4.34109500 25.42621510
Ni 4.60443000 6.51164250 23.25571040
Ni 1.53481000 2.17054750 23.25571040
Ni 1.53481000 6.51164250 23.25571040
Ni 4.60443000 2.17054750 23.25571040
Ni 0.70447779 4.11674721 3.89322846
Ni 4.31392116 8.58616498 3.14056414
Ni 4.31570154 4.43720684 3.14056414
Ni 0.70791576 0.22790749 3.89110753
Ni 4.67331227 2.17080797 1.02997566
Ni 1.54033532 6.51216343 0.92843623
Ni 1.43590684 2.17080797 0.81655728
Ni 4.40643951 6.51233708 1.30781723
C 0.99824042 2.17454131 4.33013963
