&CONTROL
calculation = 'relax'
prefix = 'scf'
pseudo_dir = '/vol0004/mdt0/data/hp150275/u10028/POT_KKJUS'
outdir = './data'
tprnfor = .true.
nstep = 50
disk_io = 'non'
/
&SYSTEM
ibrav = 0
ecutwfc = 50.0
ecutrho = 400
occupations = 'smearing'
smearing = 'mp'
degauss = 0.01
assume_isolated = 'esm'
esm_bc = 'bc1'
input_dft = 'BEEF-VDW'
nosym = .true.
nspin = 1
ntyp = 5
nat = 34
/
&ELECTRONS
electron_maxstep = 200
mixing_beta = 0.1
conv_thr = 1e-06
/
&IONS
ion_dynamics = 'bfgs'
upscale = 1.0
/
&CELL
/

K_POINTS {automatic}
8 6 1 0 0 0

ATOMIC_SPECIES
Au 196.9 Au.pbe-n-rrkjus_psl.1.0.0.UPF
C 12.01 C.pbe-n-rrkjus_psl.1.0.0.UPF
Hf 178.4 Hf.pbe-spn-rrkjus_psl.1.0.0.UPF
In 114.8 In.pbe-dn-rrkjus_psl.1.0.0.UPF
O 15.99 O.pbe-n-rrkjus_psl.1.0.0.UPF

CELL_PARAMETERS {angstrom}
6.82626000 0.00000000 0.00000000
0.00000000 9.65379000 0.00000000
0.00000000 0.00000000 27.24030000

ATOMIC_POSITIONS {angstrom}
Hf 0.00000000 0.00000000 -3.620235870000002 0 0 0
Hf 3.41313000 2.41344750 -1.2067452900000006 0 0 0
Hf 3.41313000 7.24034250 -1.2067452900000006 0 0 0
Hf 0.00000000 4.82689500 -3.620235870000002 0 0 0
Hf 0.00000000 4.80642897 1.29473146
Hf 3.41313000 7.24034250 3.43091579
Hf 3.41313000 2.41344750 3.41239238
Hf 0.00000000 0.02046603 1.29473146
In 0.00000000 7.24034250 -1.2067452900000006 0 0 0
In 3.41313000 0.00000000 -3.620235870000002 0 0 0
In 0.00000000 2.41344750 -1.2067452900000006 0 0 0
In 3.41313000 4.82689500 -3.620235870000002 0 0 0
In 0.00000000 2.41344750 3.97408737
In 3.41313000 4.85334638 1.13973415
In 0.00000000 7.24034250 4.08114175
In 3.41313000 9.62733862 1.13973415
Au 1.70656500 0.00000000 -1.2067452900000006 0 0 0
Au 5.11969500 4.82689500 -1.2067452900000006 0 0 0
Au 5.11969500 0.00000000 -1.2067452900000006 0 0 0
Au 1.70656500 4.82689500 -1.2067452900000006 0 0 0
Au 5.11969500 7.24034250 -3.620235870000002 0 0 0
Au 1.70656500 2.41344750 -3.620235870000002 0 0 0
Au 1.70656500 7.24034250 -3.620235870000002 0 0 0
Au 5.11969500 2.41344750 -3.620235870000002 0 0 0
Au 1.84322673 4.82496424 3.68179895
Au 4.98303327 0.00193076 3.68179895
Au 4.98303327 4.82496424 3.68179895
Au 1.84322673 0.00193076 3.68179895
Au 5.18747976 2.41344750 1.22554110
Au 1.58546715 7.24034250 1.27865968
Au 1.63878024 2.41344750 1.22554110
Au 5.24079285 7.24034250 1.27865968
C 0.00006826 2.41325442 7.92120684
O 6.82619174 2.41344750 9.05549293
