&CONTROL
calculation = 'relax'
prefix = 'scf'
pseudo_dir = '/vol0004/mdt0/data/hp150275/u10028/POT_KKJUS'
outdir = './data'
tprnfor = .true.
nstep = 50
disk_io = 'non'
/
&SYSTEM
ibrav = 0
ecutwfc = 50.0
ecutrho = 400
occupations = 'smearing'
smearing = 'mp'
degauss = 0.01
assume_isolated = 'esm'
esm_bc = 'bc1'
input_dft = 'BEEF-VDW'
nosym = .true.
nspin = 1
ntyp = 3
nat = 32
/
&ELECTRONS
electron_maxstep = 200
mixing_beta = 0.1
conv_thr = 1e-06
/
&IONS
ion_dynamics = 'bfgs'
upscale = 1.0
/
&CELL
/

K_POINTS {automatic}
9 6 2 0  0  0

ATOMIC_SPECIES
Pt 195.0 Pt.pbe-n-rrkjus_psl.1.0.0.UPF
Sc 44.95 Sc.pbe-spn-rrkjus_psl.1.0.0.UPF
Sn 118.7 Sn.pbe-dn-rrkjus_psl.1.0.0.UPF

CELL_PARAMETERS {angstrom}
6.65597000 0.00000000 0.00000000
0.00000000 9.41296000 0.00000000
0.00000000 0.00000000 27.05970000

ATOMIC_POSITIONS {angstrom}
Sc 0.00000000 0.00000000 -3.5299378600000004 0 0 0
Sc 3.32798500 2.35324000 -1.1765557599999994 0 0 0
Sc 3.32798500 7.05972000 -1.1765557599999994 0 0 0
Sc 0.00000000 4.70648000 -3.5299378600000004 0 0 0
Sc 0.00000000 4.70648000 1.22769859
Sc 3.32798500 7.05972000 3.44929996
Sc 3.32798500 2.35324000 3.44929996
Sc 0.00000000 0.00000000 1.22769859
Sn 0.00000000 7.05972000 -1.1765557599999994 0 0 0
Sn 3.32798500 0.00000000 -3.5299378600000004 0 0 0
Sn 0.00000000 2.35324000 -1.1765557599999994 0 0 0
Sn 3.32798500 4.70648000 -3.5299378600000004 0 0 0
Sn 0.00000000 2.35324000 3.75236860
Sn 3.32798500 4.70648000 1.12838949
Sn 0.00000000 7.05972000 3.75263920
Sn 3.32798500 0.00000000 1.12838949
Pt 1.66399250 0.00000000 -1.1765557599999994 0 0 0
Pt 4.99197750 4.70648000 -1.1765557599999994 0 0 0
Pt 4.99197750 0.00000000 -1.1765557599999994 0 0 0
Pt 1.66399250 4.70648000 -1.1765557599999994 0 0 0
Pt 4.99197750 7.05972000 -3.5299378600000004 0 0 0
Pt 1.66399250 2.35324000 -3.5299378600000004 0 0 0
Pt 1.66399250 7.05972000 -3.5299378600000004 0 0 0
Pt 4.99197750 2.35324000 -3.5299378600000004 0 0 0
Pt 1.72562678 4.70648000 3.37461519
Pt 4.93034322 0.00000000 3.37461519
Pt 4.93034322 4.70648000 3.37461519
Pt 1.72569334 0.00000000 3.37434459
Pt 5.06226454 2.35324000 1.22363963
Pt 1.59363890 7.05972000 1.22363963
Pt 1.59363890 2.35324000 1.22363963
Pt 5.06233110 7.05972000 1.22363963
