&CONTROL
calculation = 'relax'
prefix = 'scf'
pseudo_dir = '/vol0403/data/hp230205/u10028/POT_HYBRID_KKJUS_GBRV'
outdir = './data'
tprnfor = .true.
nstep = 50
disk_io = 'non'
/
&SYSTEM
ibrav = 0
ecutwfc = 50.0
ecutrho = 400
occupations = 'smearing'
smearing = 'mp'
degauss = 0.01
assume_isolated = 'esm'
esm_bc = 'bc1'
input_dft = 'BEEF-VDW'
nosym = .true.
nspin = 1
ntyp = 6
nat = 18
/
&ELECTRONS
electron_maxstep = 200
mixing_beta = 0.1
conv_thr = 1e-06
/
&IONS
ion_dynamics = 'bfgs'
upscale = 1.0
/
&CELL
/

K_POINTS {automatic}
9 9 2 0  0  0

ATOMIC_SPECIES
Al 26.98 Al.pbe-nl-rrkjus_psl.1.0.0.UPF
C 12.01 C.pbe-n-rrkjus_psl.1.0.0.UPF
Li 6.941 Li.pbe-sl-rrkjus_psl.1.0.0.UPF
Mg 24.30 Mg.pbe-spnl-rrkjus_psl.1.0.0.UPF
O 15.99 O.pbe-n-rrkjus_psl.1.0.0.UPF
Pd 106.4 Pd.pbe-n-rrkjus_psl.1.0.0.UPF


CELL_PARAMETERS {angstrom}
6.28130000 0.00000000 0.00000000
0.00000000 6.28130000 0.00000000
0.00000000 0.00000000 24.71100000

ATOMIC_POSITIONS {angstrom}
Li 1.55355393 1.58665638 0.80162484
Li 1.57032500 4.71097500 -2.35545252 0 0 0
Li 4.71097500 1.57032500 -2.35545252 0 0 0
Li 4.72774607 4.69464362 0.80162484
Mg 0.00000000 3.14065000 2.53386594
Mg 0.00000000 0.00000000 -0.7850684699999988 0 0 0
Mg 3.14065000 3.14065000 -0.7850684699999988 0 0 0
Mg 3.14065000 0.00000000 2.44836588
Al 0.00000000 0.00000000 2.20595097
Al 0.00000000 3.14065000 -0.7850684699999988 0 0 0
Al 3.14065000 0.00000000 -0.7850684699999988 0 0 0
Al 3.14065000 3.14065000 2.20224432
Pd 4.72605012 1.58489762 0.86241390
Pd 4.71097500 4.71097500 -2.35545252 0 0 0
Pd 1.57032500 1.57032500 -2.35545252 0 0 0
Pd 1.55524988 4.69640238 0.86241390
C 0.00000000 3.14065000 4.76576346
O 0.00000000 3.14065000 5.91136542
