&CONTROL
calculation = 'relax'
prefix = 'scf'
pseudo_dir = '/vol0004/mdt0/data/hp150275/u10028/POT_HYBRID_KKJUS_GBRV'
outdir = './data'
tprnfor = .true.
nstep = 50
disk_io = 'non'
/
&SYSTEM
ibrav = 0
ecutwfc = 50.0
ecutrho = 400
occupations = 'smearing'
smearing = 'mp'
degauss = 0.01
assume_isolated = 'esm'
esm_bc = 'bc1'
input_dft = 'BEEF-VDW'
nosym = .true.
nspin = 2
ntyp = 3
nat = 32
starting_magnetization(1) = 0.0
starting_magnetization(2) = 0.1
starting_magnetization(3) = 0.0
/
&ELECTRONS
electron_maxstep = 300
mixing_beta = 0.1
conv_thr = 1e-06
/
&IONS
ion_dynamics = 'bfgs'
upscale = 1.0
/
&CELL
/

K_POINTS {automatic}
8 6 1 0 0 0

ATOMIC_SPECIES
Al 26.98 Al.pbe-nl-rrkjus_psl.1.0.0.UPF
Co 58.93 co_pbe_v1.2.uspp.F.UPF
Nb 92.90 Nb.pbe-spn-rrkjus_psl.1.0.0.UPF

CELL_PARAMETERS {angstrom}
5.97844000 0.00000000 0.00000000
0.00000000 8.45478000 0.00000000
0.00000000 0.00000000 26.34110000

ATOMIC_POSITIONS {angstrom}
Nb 0.00000000 0.00000000 -3.1704147999999996 0 0 0
Nb 2.98922000 2.11369500 -1.056804930000002 0 0 0
Nb 2.98922000 6.34108500 -1.056804930000002 0 0 0
Nb 0.00000000 4.22739000 -3.1704147999999996 0 0 0
Nb 0.00000000 4.22739000 1.10790667
Nb 2.98927978 6.34116955 3.18174147
Nb 2.98927978 2.11361045 3.18147806
Nb 5.97838022 0.00000000 1.10790667
Al 0.00000000 6.34108500 -1.056804930000002 0 0 0
Al 2.98922000 0.00000000 -3.1704147999999996 0 0 0
Al 0.00000000 2.11369500 -1.056804930000002 0 0 0
Al 2.98922000 4.22739000 -3.1704147999999996 0 0 0
Al 0.00000000 2.11369500 3.20334117
Al 2.98922000 4.22739000 1.08393626
Al 0.00000000 6.34108500 3.20334117
Al 2.98922000 0.00000000 1.08393626
Co 1.49461000 0.00000000 -1.056804930000002 0 0 0
Co 4.48383000 4.22739000 -1.056804930000002 0 0 0
Co 4.48383000 0.00000000 -1.056804930000002 0 0 0
Co 1.49461000 4.22739000 -1.056804930000002 0 0 0
Co 4.48383000 6.34108500 -3.1704147999999996 0 0 0
Co 1.49461000 2.11369500 -3.1704147999999996 0 0 0
Co 1.49461000 6.34108500 -3.1704147999999996 0 0 0
Co 4.48383000 2.11369500 -3.1704147999999996 0 0 0
Co 1.48558256 4.22739000 3.09297196
Co 4.49291723 0.00000000 3.09297196
Co 4.49285744 4.22739000 3.09297196
Co 1.48552277 0.00000000 3.09297196
Co 4.46523705 2.11377955 1.06602432
Co 1.51326273 6.34100045 1.06628773
Co 1.51320295 2.11377955 1.06628773
Co 4.46517727 6.34100045 1.06628773
