&CONTROL
calculation = 'relax'
prefix = 'scf'
pseudo_dir = '/vol0004/mdt0/data/hp150275/u10028/POT_HYBRID_KKJUS_GBRV'
outdir = './data'
tprnfor = .true.
nstep = 50
disk_io = 'non'
/
&SYSTEM
ibrav = 0
ecutwfc = 50.0
ecutrho = 400
occupations = 'smearing'
smearing = 'mp'
degauss = 0.01
assume_isolated = 'esm'
esm_bc = 'bc1'
input_dft = 'BEEF-VDW'
nosym = .true.
nspin = 2
ntyp = 5
nat = 34
starting_magnetization(1) = 0.0
starting_magnetization(2) = 0.1
starting_magnetization(3) = 0.1
starting_magnetization(4) = 0.0
starting_magnetization(5) = 0.0
/
&ELECTRONS
electron_maxstep = 200
mixing_beta = 0.1
conv_thr = 1e-06
/
&IONS
ion_dynamics = 'bfgs'
upscale = 1.0
/
&CELL
/

K_POINTS {automatic}
9 6 2 0  0  0

ATOMIC_SPECIES
C 12.01 C.pbe-n-rrkjus_psl.1.0.0.UPF
Co 58.93 co_pbe_v1.2.uspp.F.UPF
Fe 55.84 fe_pbe_v1.5.uspp.F.UPF
Ge 72.64 Ge.pbe-dn-rrkjus_psl.1.0.0.UPF
O 15.99 O.pbe-n-rrkjus_psl.1.0.0.UPF

CELL_PARAMETERS {angstrom}
5.77744000 0.00000000 0.00000000
0.00000000 8.17053000 0.00000000
0.00000000 0.00000000 26.12790000

ATOMIC_POSITIONS {angstrom}
Fe 1.44436000 0.00000000 25.10656039
Fe 4.33308000 4.08526500 25.10656039
Fe 4.33308000 0.00000000 25.10656039
Fe 1.44436000 4.08526500 25.10656039
Fe 4.33308000 6.12789750 23.06388117
Fe 1.44436000 2.04263250 23.06388117
Fe 1.44436000 6.12789750 23.06388117
Fe 4.33308000 2.04263250 23.06388117
Fe 1.40732661 4.10136094 3.04938721
Fe 4.37144220 8.15435235 3.04886465
Fe 4.37017116 4.10144265 3.04938721
Fe 1.40599780 8.15443406 3.04886465
Fe 4.31632542 2.04344955 1.07333413
Fe 1.30916790 6.12781579 1.09763308
Fe 1.46111458 2.04344955 1.07333413
Fe 4.46832987 6.12781579 1.09763308
Co 0.00000000 0.00000000 23.06388117
Co 2.88872000 2.04263250 25.10656039
Co 2.88872000 6.12789750 25.10656039
Co 0.00000000 4.08526500 23.06388117
Co 0.00000000 3.95461823 1.03126821
Co 2.88866223 6.12814262 2.91195446
Co 2.88877777 2.04238738 2.96133619
Co 0.00005777 0.13162724 1.02787159
Ge 0.00000000 6.12789750 25.10656039
Ge 2.88872000 0.00000000 23.06388117
Ge 0.00000000 2.04263250 25.10656039
Ge 2.88872000 4.08526500 23.06388117
Ge 5.77738223 2.04369467 3.34489376
Ge 2.88872000 4.13886368 1.00435648
Ge 0.00011555 6.12691704 3.44731513
Ge 2.88872000 8.11742155 1.00514031
C 5.77657338 2.03985452 7.30170293
O 0.00017332 2.04230568 8.43591507
