&CONTROL
calculation = 'relax'
prefix = 'scf'
pseudo_dir = '/vol0004/mdt0/data/hp150275/u10028/POT_KKJUS'
outdir = './data'
tprnfor = .true.
nstep = 50
disk_io = 'non'
/
&SYSTEM
ibrav = 0
ecutwfc = 50.0
ecutrho = 400
occupations = 'smearing'
smearing = 'mp'
degauss = 0.01
assume_isolated = 'esm'
esm_bc = 'bc1'
input_dft = 'BEEF-VDW'
nosym = .true.
nspin = 1
ntyp = 3
nat = 33
/
&ELECTRONS
electron_maxstep = 200
mixing_beta = 0.1
conv_thr = 1e-06
/
&IONS
ion_dynamics = 'bfgs'
upscale = 1.0
/
&CELL
/

K_POINTS {automatic}
8 6 1 0 0 0

ATOMIC_SPECIES
Au 196.9 Au.pbe-n-rrkjus_psl.1.0.0.UPF
C 12.01 C.pbe-n-rrkjus_psl.1.0.0.UPF
Li 6.941 Li.pbe-sl-rrkjus_psl.1.0.0.UPF

CELL_PARAMETERS {angstrom}
6.35005000 0.00000000 0.00000000
0.00000000 8.98033000 0.00000000
0.00000000 0.00000000 26.73520000

ATOMIC_POSITIONS {angstrom}
Li 1.58751250 0.00000000 -1.1226110499999997 0 0 0
Li 4.76253750 4.49016500 -1.1226110499999997 0 0 0
Li 4.76253750 0.00000000 -1.1226110499999997 0 0 0
Li 1.58751250 4.49016500 -1.1226110499999997 0 0 0
Li 4.76253750 6.73524750 -3.3675657900000004 0 0 0
Li 1.58751250 2.24508250 -3.3675657900000004 0 0 0
Li 1.58751250 6.73524750 -3.3675657900000004 0 0 0
Li 4.76253750 2.24508250 -3.3675657900000004 0 0 0
Li 0.00000000 6.73524750 -1.1226110499999997 0 0 0
Li 3.17502500 0.00000000 -3.3675657900000004 0 0 0
Li 0.00000000 2.24508250 -1.1226110499999997 0 0 0
Li 3.17502500 4.49016500 -3.3675657900000004 0 0 0
Li 1.67476219 4.49016500 3.34671234
Li 4.61108881 0.00000000 4.07123626
Li 4.67528781 4.49016500 3.34671234
Li 1.73896119 0.00000000 4.07123626
Li 4.77993664 2.21643525 1.08651853
Li 1.57011336 6.76380495 1.08651853
Li 1.57011336 2.21643525 1.08651853
Li 4.77993664 6.76380495 1.08651853
Li 0.00000000 2.05353206 3.31115452
Li 3.17502500 4.49016500 1.02796844
Li 0.00000000 6.92679794 3.31115452
Li 3.17502500 0.00000000 1.44396815
Au 0.00000000 0.00000000 -3.3675657900000004 0 0 0
Au 3.17502500 2.24508250 -1.1226110499999997 0 0 0
Au 3.17502500 6.73524750 -1.1226110499999997 0 0 0
Au 0.00000000 4.49016500 -3.3675657900000004 0 0 0
Au 0.00000000 4.49016500 1.17233852
Au 3.17502500 6.75724931 3.23201833
Au 3.17502500 2.22308069 3.23201833
Au 0.00000000 0.00000000 1.00176794
C 0.00000000 0.00000000 3.04727810
