&CONTROL
calculation = 'relax'
prefix = 'scf'
pseudo_dir = '/vol0004/mdt0/data/hp150275/u10028/POT_KKJUS'
outdir = './data'
tprnfor = .true.
nstep = 50
disk_io = 'non'
/
&SYSTEM
ibrav = 0
ecutwfc = 50.0
ecutrho = 400
occupations = 'smearing'
smearing = 'mp'
degauss = 0.01
assume_isolated = 'esm'
esm_bc = 'bc1'
input_dft = 'BEEF-VDW'
nosym = .true.
nspin = 1
ntyp = 3
nat = 33
/
&ELECTRONS
electron_maxstep = 200
mixing_beta = 0.1
conv_thr = 1e-06
/
&IONS
ion_dynamics = 'bfgs'
upscale = 1.0
/
&CELL
/

K_POINTS {automatic}
9 6 2 0  0  0

ATOMIC_SPECIES
Ag 107.8 Ag.pbe-n-rrkjus_psl.1.0.0.UPF
C 12.01 C.pbe-n-rrkjus_psl.1.0.0.UPF
Y 88.90 Y.pbe-spn-rrkjus_psl.1.0.0.UPF

CELL_PARAMETERS {angstrom}
7.32505000 0.00000000 0.00000000
0.00000000 10.35920000 0.00000000
0.00000000 0.00000000 27.76940000

ATOMIC_POSITIONS {angstrom}
Y 1.83126250 2.58980000 -3.88466137 0 0 0
Y 1.83126250 0.00000000 -1.294887120000002 0 0 0
Y 1.83126250 2.59031796 1.34514974
Y 1.83126250 0.28363490 3.91020921
Y 1.83126250 7.76940000 -3.88466137 0 0 0
Y 1.83126250 5.17960000 -1.294887120000002 0 0 0
Y 1.83126250 7.76940000 1.29377635
Y 1.83126250 4.89824413 3.91020921
Y 5.49378750 2.58980000 -3.88466137 0 0 0
Y 5.49378750 0.00000000 -1.294887120000002 0 0 0
Y 5.49378750 2.58969641 1.28377936
Y 5.49378750 10.17957147 3.87022128
Y 5.49378750 7.76940000 -3.88466137 0 0 0
Y 5.49378750 5.17960000 -1.294887120000002 0 0 0
Y 5.49378750 7.76981437 1.29960792
Y 5.49378750 5.36036804 3.87022128
Ag 0.00000000 0.00000000 -3.88466137 0 0 0
Ag 0.00000000 2.58980000 -1.294887120000002 0 0 0
Ag 7.29450454 10.33723850 1.30877182
Ag 6.92224550 2.59052514 3.92798163
Ag 0.00000000 5.17960000 -3.88466137 0 0 0
Ag 0.00000000 7.76940000 -1.294887120000002 0 0 0
Ag 7.29399179 5.20187228 1.30849413
Ag 0.14957752 7.77012514 3.77608301
Ag 3.66252500 0.00000000 -3.88466137 0 0 0
Ag 3.66252500 2.58980000 -1.294887120000002 0 0 0
Ag 3.69307046 10.33723850 1.30877182
Ag 4.06532950 2.59052514 3.92798163
Ag 3.66252500 5.17960000 -3.88466137 0 0 0
Ag 3.66252500 7.76940000 -1.294887120000002 0 0 0
Ag 3.69358321 5.20187228 1.30849413
Ag 3.51294748 7.77012514 3.77608301
C 1.83126250 2.59104310 3.65056532
