&CONTROL
calculation = 'relax'
prefix = 'scf'
pseudo_dir = '/vol0004/mdt0/data/hp150275/u10028/POT_HYBRID_KKJUS_GBRV'
outdir = './data'
tprnfor = .true.
nstep = 50
disk_io = 'non'
/
&SYSTEM
ibrav = 0
ecutwfc = 50.0
ecutrho = 400
occupations = 'smearing'
smearing = 'mp'
degauss = 0.01
assume_isolated = 'esm'
esm_bc = 'bc1'
input_dft = 'BEEF-VDW'
nosym = .true.
nspin = 2
ntyp = 5
nat = 34
starting_magnetization(1) = 0.0
starting_magnetization(2) = 0.001
starting_magnetization(3) = 0.0
starting_magnetization(4) = 0.0
starting_magnetization(5) = 0.0
/
&ELECTRONS
electron_maxstep = 300
mixing_beta = 0.1
conv_thr = 1e-06
/
&IONS
ion_dynamics = 'bfgs'
upscale = 1.0
/
&CELL
/

K_POINTS {automatic}
9 6 2 0  0  0

ATOMIC_SPECIES
C 12.01 C.pbe-n-rrkjus_psl.1.0.0.UPF
Ni 58.69 ni_pbe_v1.4.uspp.F.UPF
O 15.99 O.pbe-n-rrkjus_psl.1.0.0.UPF
Sc 44.95 Sc.pbe-spn-rrkjus_psl.1.0.0.UPF
Sn 118.7 Sn.pbe-dn-rrkjus_psl.1.0.0.UPF

CELL_PARAMETERS {angstrom}
6.29417000 0.00000000 0.00000000
0.00000000 8.90130000 0.00000000
0.00000000 0.00000000 26.67600000

ATOMIC_POSITIONS {angstrom}
Sc 0.00000000 0.00000000 -3.3379678799999972 0 0 0
Sc 3.14708500 2.22532500 -1.112655959999998 0 0 0
Sc 3.14708500 6.67597500 -1.112655959999998 0 0 0
Sc 0.00000000 4.45065000 -3.3379678799999972 0 0 0
Sc 6.28183343 4.45056099 1.07984448
Sc 3.15747038 6.64482045 3.40599168
Sc 3.15753332 2.25639054 3.40519140
Sc 0.00390239 0.00008901 1.10545344
Ni 1.57354250 0.00000000 -1.112655959999998 0 0 0
Ni 4.72062750 4.45065000 -1.112655959999998 0 0 0
Ni 4.72062750 0.00000000 -1.112655959999998 0 0 0
Ni 1.57354250 4.45065000 -1.112655959999998 0 0 0
Ni 4.72062750 6.67597500 -3.3379678799999972 0 0 0
Ni 1.57354250 2.22532500 -3.3379678799999972 0 0 0
Ni 1.57354250 6.67597500 -3.3379678799999972 0 0 0
Ni 4.72062750 2.22532500 -3.3379678799999972 0 0 0
Ni 1.48296939 4.45100605 3.18111300
Ni 4.83127901 8.90094395 3.13069536
Ni 4.78193272 4.45091704 3.18218004
Ni 1.59922271 8.90112197 3.45187440
Ni 4.66492410 2.22131942 1.21055688
Ni 1.61351048 6.67722118 1.22416164
Ni 1.61363636 2.22407882 1.22309460
Ni 4.66498704 6.67998059 1.21135716
Sn 0.00000000 6.67597500 -1.112655959999998 0 0 0
Sn 3.14708500 0.00000000 -3.3379678799999972 0 0 0
Sn 0.00000000 2.22532500 -1.112655959999998 0 0 0
Sn 3.14708500 4.45065000 -3.3379678799999972 0 0 0
Sn 6.27918988 2.23182295 3.43426824
Sn 3.13726609 4.45082803 1.10838780
Sn 6.27912693 6.66938804 3.43506852
Sn 3.12499246 8.90112197 1.12866156
C 2.13932544 0.00000000 5.12179200
O 2.36201318 0.00008901 6.26672592
