&CONTROL
calculation = 'relax'
prefix = 'scf'
pseudo_dir = '/vol0004/mdt0/data/hp150275/u10028/POT_KKJUS'
outdir = './data'
tprnfor = .true.
nstep = 50
disk_io = 'non'
/
&SYSTEM
ibrav = 0
ecutwfc = 50.0
ecutrho = 400
occupations = 'smearing'
smearing = 'mp'
degauss = 0.01
assume_isolated = 'esm'
esm_bc = 'bc1'
input_dft = 'BEEF-VDW'
nosym = .true.
nspin = 1
ntyp = 3
nat = 33
/
&ELECTRONS
electron_maxstep = 200
mixing_beta = 0.1
conv_thr = 1e-06
/
&IONS
ion_dynamics = 'bfgs'
upscale = 1.0
/
&CELL
/

K_POINTS {automatic}
8 6 1 0 0 0

ATOMIC_SPECIES
C 12.01 C.pbe-n-rrkjus_psl.1.0.0.UPF
Ru 101.0 Ru.pbe-spn-rrkjus_psl.1.0.0.UPF
V 50.94 V.pbe-spnl-rrkjus_psl.1.0.0.UPF

CELL_PARAMETERS {angstrom}
6.03636000 0.00000000 0.00000000
0.00000000 8.53670000 0.00000000
0.00000000 0.00000000 26.40250000

ATOMIC_POSITIONS {angstrom}
V 1.50909000 2.13417500 -3.2013031199999986 0 0 0
V 1.50909000 0.00000000 -1.0671890499999996 0 0 0
V 1.50878818 2.13408963 1.13530750
V 1.50854673 0.19130745 3.40618653
V 1.50909000 6.40252500 -3.2013031199999986 0 0 0
V 1.50909000 4.26835000 -1.0671890499999996 0 0 0
V 1.50915036 6.40252500 1.15959780
V 1.50854673 4.07704255 3.40618653
V 4.52727000 2.13417500 -3.2013031199999986 0 0 0
V 4.52727000 0.00000000 -1.0671890499999996 0 0 0
V 4.52678709 2.13417500 0.94837780
V 4.52654564 8.44441827 3.25014775
V 4.52727000 6.40252500 -3.2013031199999986 0 0 0
V 4.52727000 4.26835000 -1.0671890499999996 0 0 0
V 4.52720964 6.40252500 1.14850875
V 4.52654564 4.36063173 3.25041177
Ru 0.00000000 0.00000000 -3.2013031199999986 0 0 0
Ru 0.00000000 2.13417500 -1.0671890499999996 0 0 0
Ru 0.00718327 8.52611449 1.11814587
Ru 5.85514847 2.13426037 3.04843265
Ru 0.00000000 4.26835000 -3.2013031199999986 0 0 0
Ru 0.00000000 6.40252500 -1.0671890499999996 0 0 0
Ru 0.00712290 4.27893551 1.11840990
Ru 0.02728435 6.40252500 3.11311878
Ru 3.01818000 0.00000000 -3.2013031199999986 0 0 0
Ru 3.01818000 2.13417500 -1.0671890499999996 0 0 0
Ru 3.01166073 8.52594376 1.11788185
Ru 3.19540753 2.13426037 3.04790460
Ru 3.01818000 4.26835000 -3.2013031199999986 0 0 0
Ru 3.01818000 6.40252500 -1.0671890499999996 0 0 0
Ru 3.01172109 4.27902088 1.11814587
Ru 2.99017129 6.40252500 3.11338280
C 1.50691691 2.13417500 4.08393870
