&CONTROL
calculation = 'relax'
prefix = 'scf'
pseudo_dir = '/vol0004/mdt0/data/hp150275/u10028/POT_HYBRID_KKJUS_GBRV'
outdir = './data'
tprnfor = .true.
nstep = 50
disk_io = 'non'
/
&SYSTEM
ibrav = 0
ecutwfc = 50.0
ecutrho = 400
occupations = 'smearing'
smearing = 'mp'
degauss = 0.01
assume_isolated = 'esm'
esm_bc = 'bc1'
input_dft = 'BEEF-VDW'
nosym = .true.
nspin = 2
ntyp = 4
nat = 33
starting_magnetization(1) = 0.0
starting_magnetization(2) = 0.0
starting_magnetization(3) = 0.1
starting_magnetization(4) = 0.1
/
&ELECTRONS
electron_maxstep = 200
mixing_beta = 0.1
conv_thr = 1e-06
/
&IONS
ion_dynamics = 'bfgs'
upscale = 1.0
/
&CELL
/

K_POINTS {automatic}
9 6 2 0  0  0

ATOMIC_SPECIES
Al 26.98 Al.pbe-nl-rrkjus_psl.1.0.0.UPF
C 12.01 C.pbe-n-rrkjus_psl.1.0.0.UPF
Co 58.93 co_pbe_v1.2.uspp.F.UPF
Fe 55.84 fe_pbe_v1.5.uspp.F.UPF

CELL_PARAMETERS {angstrom}
5.71826000 0.00000000 0.00000000
0.00000000 8.08683000 0.00000000
0.00000000 0.00000000 26.06510000

ATOMIC_POSITIONS {angstrom}
Al 0.00000000 0.00000000 23.03242562
Al 2.85913000 2.02170750 25.05429542
Al 2.85913000 6.06512250 25.05429542
Al 0.00000000 4.04341500 23.03242562
Al 0.00000000 4.04341500 1.01028328
Al 2.85913000 6.09892545 3.16039337
Al 2.85913000 1.98790455 3.16039337
Al 0.00000000 0.00000000 0.93756165
Fe 0.00000000 6.06512250 25.05429542
Fe 2.85913000 0.00000000 23.03242562
Fe 0.00000000 2.02170750 25.05429542
Fe 2.85913000 4.04341500 23.03242562
Fe 0.00000000 2.13193099 3.01312556
Fe 2.85913000 4.04341500 1.00533091
Fe 0.00000000 5.95489901 3.01312556
Fe 2.85913000 0.00000000 1.03348121
Co 1.42956500 0.00000000 25.05429542
Co 4.28869500 4.04341500 25.05429542
Co 4.28869500 0.00000000 25.05429542
Co 1.42956500 4.04341500 25.05429542
Co 4.28869500 6.06512250 23.03242562
Co 1.42956500 2.02170750 23.03242562
Co 1.42956500 6.06512250 23.03242562
Co 4.28869500 2.02170750 23.03242562
Co 1.51093584 4.04341500 2.97507051
Co 4.47911306 0.00000000 3.04231847
Co 4.20726698 4.04341500 2.97507051
Co 1.23903258 0.00000000 3.04257912
Co 4.28177591 2.00820249 1.04807767
Co 1.43648409 6.07862751 1.04807767
Co 1.43648409 2.00820249 1.04807767
Co 4.28177591 6.07862751 1.04807767
C 2.85907282 0.00000000 3.69994094
