&CONTROL
calculation = 'relax'
prefix = 'scf'
pseudo_dir = '/vol0004/mdt0/data/hp150275/u10028/POT_HYBRID_KKJUS_GBRV'
outdir = './data'
tprnfor = .true.
nstep = 50
disk_io = 'non'
/
&SYSTEM
ibrav = 0
ecutwfc = 50.0
ecutrho = 400
occupations = 'smearing'
smearing = 'mp'
degauss = 0.01
assume_isolated = 'esm'
esm_bc = 'bc1'
input_dft = 'BEEF-VDW'
nosym = .true.
nspin = 2
ntyp = 5
nat = 34
starting_magnetization(1) = 0.0
starting_magnetization(2) = 0.1
starting_magnetization(3) = 0.0
starting_magnetization(4) = 0.0
starting_magnetization(5) = 0.0
/
&ELECTRONS
electron_maxstep = 300
mixing_beta = 0.1
conv_thr = 1e-06
/
&IONS
ion_dynamics = 'bfgs'
upscale = 1.0
/
&CELL
/

K_POINTS {automatic}
8 6 1 0 0 0

ATOMIC_SPECIES
C 12.01 C.pbe-n-rrkjus_psl.1.0.0.UPF
Mn 54.93 mn_pbe_v1.5.uspp.F.UPF
O 15.99 O.pbe-n-rrkjus_psl.1.0.0.UPF
Sn 118.7 Sn.pbe-dn-rrkjus_psl.1.0.0.UPF
W 183.8 w_pbe_v1.2.uspp.F.UPF

CELL_PARAMETERS {angstrom}
6.10490000 0.00000000 0.00000000
0.00000000 8.63363000 0.00000000
0.00000000 0.00000000 26.47520000

ATOMIC_POSITIONS {angstrom}
Mn 1.52622500 0.00000000 -1.07912915 0 0 0
Mn 4.57867500 4.31681500 -1.07912915 0 0 0
Mn 4.57867500 0.00000000 -1.07912915 0 0 0
Mn 1.52622500 4.31681500 -1.07912915 0 0 0
Mn 4.57867500 6.47522250 -3.2376522100000003 0 0 0
Mn 1.52622500 2.15840750 -3.2376522100000003 0 0 0
Mn 1.52622500 6.47522250 -3.2376522100000003 0 0 0
Mn 4.57867500 2.15840750 -3.2376522100000003 0 0 0
Mn 1.42140387 4.34228421 3.37055771
Mn 4.68355718 8.60824713 3.37055771
Mn 4.68349613 4.34219787 3.37055771
Mn 1.42134282 8.60816079 3.37055771
Mn 4.52031216 2.15840750 1.12043046
Mn 1.55650530 6.47522250 1.12890253
Mn 1.58464889 2.15840750 1.12043046
Mn 4.54839470 6.47522250 1.12890253
Sn 0.00000000 0.00000000 -3.2376522100000003 0 0 0
Sn 3.05245000 2.15840750 -1.07912915 0 0 0
Sn 3.05245000 6.47522250 -1.07912915 0 0 0
Sn 0.00000000 4.31681500 -3.2376522100000003 0 0 0
Sn 0.00000000 4.28314384 1.08018816
Sn 3.05245000 6.47522250 3.65251859
Sn 3.05245000 2.15840750 3.48307731
Sn 0.00000000 0.03367116 1.08018816
W 0.00000000 6.47522250 -1.07912915 0 0 0
W 3.05245000 0.00000000 -3.2376522100000003 0 0 0
W 0.00000000 2.15840750 -1.07912915 0 0 0
W 3.05245000 4.31681500 -3.2376522100000003 0 0 0
W 0.00006105 2.15840750 3.22838589
W 3.05245000 4.31880073 1.14081637
W 6.10483895 6.47522250 3.08065427
W 3.05245000 8.63164427 1.14081637
C 0.00000000 2.15840750 5.24791414
O 0.00000000 2.15840750 6.41096968
