&CONTROL
calculation = 'relax'
prefix = 'scf'
pseudo_dir = '/vol0004/mdt0/data/hp150275/u10028/POT_KKJUS'
outdir = './data'
tprnfor = .true.
nstep = 50
disk_io = 'non'
/
&SYSTEM
ibrav = 0
ecutwfc = 50.0
ecutrho = 400
occupations = 'smearing'
smearing = 'mp'
degauss = 0.01
assume_isolated = 'esm'
esm_bc = 'bc1'
input_dft = 'BEEF-VDW'
nosym = .true.
nspin = 1
ntyp = 3
nat = 32
/
&ELECTRONS
electron_maxstep = 200
mixing_beta = 0.1
conv_thr = 1e-06
/
&IONS
ion_dynamics = 'bfgs'
upscale = 1.0
/
&CELL
/

K_POINTS {automatic}
8 6 1 0 0 0

ATOMIC_SPECIES
Hf 178.4 Hf.pbe-spn-rrkjus_psl.1.0.0.UPF
Ni 58.69 Ni.pbe-spn-rrkjus_psl.1.0.0.UPF
Sn 118.7 Sn.pbe-dn-rrkjus_psl.1.0.0.UPF

CELL_PARAMETERS {angstrom}
6.28964000 0.00000000 0.00000000
0.00000000 8.89490000 0.00000000
0.00000000 0.00000000 26.67120000

ATOMIC_POSITIONS {angstrom}
Hf 0.00000000 0.00000000 -3.335500269999997 0 0 0
Hf 3.14482000 2.22372500 -1.1119223299999987 0 0 0
Hf 3.14482000 6.67117500 -1.1119223299999987 0 0 0
Hf 0.00000000 4.44745000 -3.335500269999997 0 0 0
Hf 0.00000000 4.44736105 1.14126065
Hf 3.14482000 6.67117500 3.33870082
Hf 3.14475710 2.22381395 3.33816739
Hf 0.00000000 0.00008895 1.14126065
Ni 1.57241000 0.00000000 -1.1119223299999987 0 0 0
Ni 4.71723000 4.44745000 -1.1119223299999987 0 0 0
Ni 4.71723000 0.00000000 -1.1119223299999987 0 0 0
Ni 1.57241000 4.44745000 -1.1119223299999987 0 0 0
Ni 4.71723000 6.67117500 -3.335500269999997 0 0 0
Ni 1.57241000 2.22372500 -3.335500269999997 0 0 0
Ni 1.57241000 6.67117500 -3.335500269999997 0 0 0
Ni 4.71723000 2.22372500 -3.335500269999997 0 0 0
Ni 1.63518061 4.44753895 3.22054740
Ni 4.65401912 8.89481105 3.21948055
Ni 4.65439650 4.44762790 3.22054740
Ni 1.63555799 8.89481105 3.21921384
Ni 4.72188433 2.22372500 1.19220264
Ni 1.56681222 6.67081920 1.19326949
Ni 1.56718960 2.22372500 1.19140250
Ni 4.72251330 6.67099710 1.19326949
Sn 0.00000000 6.67117500 -1.1119223299999987 0 0 0
Sn 3.14482000 0.00000000 -3.335500269999997 0 0 0
Sn 0.00000000 2.22372500 -1.1119223299999987 0 0 0
Sn 3.14482000 4.44745000 -3.335500269999997 0 0 0
Sn 0.00006290 2.22363605 3.55713794
Sn 3.14482000 4.44780580 1.06978183
Sn 0.00000000 6.67153080 3.55740466
Sn 3.14475710 8.89454420 1.06871498
