&CONTROL
calculation = 'relax'
prefix = 'scf'
pseudo_dir = '/vol0403/data/hp230205/u10028/POT_HYBRID_KKJUS_GBRV'
outdir = './data'
tprnfor = .true.
nstep = 50
disk_io = 'non'
/
&SYSTEM
ibrav = 0
ecutwfc = 50.0
ecutrho = 400
occupations = 'smearing'
smearing = 'mp'
degauss = 0.01
assume_isolated = 'esm'
esm_bc = 'bc1'
input_dft = 'BEEF-VDW'
nosym = .true.
nspin = 1
ntyp = 6
nat = 34
/
&ELECTRONS
electron_maxstep = 200
mixing_beta = 0.1
conv_thr = 1e-06
/
&IONS
ion_dynamics = 'bfgs'
upscale = 1.0
/
&CELL
/

K_POINTS {automatic}
6 6 1 0 0 0

ATOMIC_SPECIES
Ag 107.8 Ag.pbe-n-rrkjus_psl.1.0.0.UPF
C 12.01 C.pbe-n-rrkjus_psl.1.0.0.UPF
In 114.8 In.pbe-dn-rrkjus_psl.1.0.0.UPF
Li 6.941 Li.pbe-sl-rrkjus_psl.1.0.0.UPF
O 15.99 O.pbe-n-rrkjus_psl.1.0.0.UPF
Sc 44.95 Sc.pbe-spn-rrkjus_psl.1.0.0.UPF


CELL_PARAMETERS {angstrom}
6.68683000 0.00000000 0.00000000
0.00000000 9.45660000 0.00000000
0.00000000 0.00000000 27.09240000

ATOMIC_POSITIONS {angstrom}
Li 0.00000000 2.36415000 -1.18204141 0 0 0
Li 0.00000000 7.09245000 -1.18204141 0 0 0
Li 3.34341500 4.72830000 -3.546124240000001 0 0 0
Li 3.34341500 0.00000000 -3.546124240000001 0 0 0
Li 0.44861942 7.25529265 4.83788987
Li 0.44748266 2.20159105 4.83653525
Li 3.37979136 0.00009457 1.19369114
Li 3.34321440 4.72839457 1.29230748
Sc 5.01512250 0.00000000 -1.18204141 0 0 0
Sc 5.01512250 4.72830000 -1.18204141 0 0 0
Sc 1.67170750 2.36415000 -3.546124240000001 0 0 0
Sc 1.67170750 7.09245000 -3.546124240000001 0 0 0
Sc 5.25056578 4.72848913 3.54287315
Sc 5.21773345 0.00056740 3.54233130
Sc 1.60677838 7.08129121 1.42831133
Sc 1.60711272 2.37540335 1.42858225
In 1.67170750 0.00000000 -1.18204141 0 0 0
In 1.67170750 4.72830000 -1.18204141 0 0 0
In 5.01512250 2.36415000 -3.546124240000001 0 0 0
In 5.01512250 7.09245000 -3.546124240000001 0 0 0
In 1.61420076 4.72858370 3.72628870
In 1.77709194 0.00028370 3.48625003
In 5.01933520 7.09443589 1.23974822
In 5.01913460 2.36225868 1.23974822
Ag 0.00000000 0.00000000 -3.546124240000001 0 0 0
Ag 0.00000000 4.72830000 -3.546124240000001 0 0 0
Ag 3.34341500 7.09245000 -1.18204141 0 0 0
Ag 3.34341500 2.36415000 -1.18204141 0 0 0
Ag 0.01029772 4.72848913 1.13652618
Ag 0.01049832 0.00009457 1.10916286
Ag 3.43388781 2.41909285 3.69323597
Ag 3.43382094 7.03807455 3.69296504
C 6.22436884 9.45433042 5.48512730
O 6.64965123 9.45111517 6.59916679
