&CONTROL
calculation = 'relax'
prefix = 'scf'
pseudo_dir = '/vol0403/data/hp230205/u10028/POT_HYBRID_KKJUS_GBRV'
outdir = './data'
tprnfor = .true.
nstep = 50
disk_io = 'non'
/
&SYSTEM
ibrav = 0
ecutwfc = 50.0
ecutrho = 400
occupations = 'smearing'
smearing = 'mp'
degauss = 0.01
assume_isolated = 'esm'
esm_bc = 'bc1'
input_dft = 'BEEF-VDW'
nosym = .true.
nspin = 1
ntyp = 5
nat = 17
/
&ELECTRONS
electron_maxstep = 200
mixing_beta = 0.1
conv_thr = 1e-06
/
&IONS
ion_dynamics = 'bfgs'
upscale = 1.0
/
&CELL
/

K_POINTS {automatic}
11 8 2 0  0  0

ATOMIC_SPECIES
C 12.01 C.pbe-n-rrkjus_psl.1.0.0.UPF
Ge 72.64 Ge.pbe-dn-rrkjus_psl.1.0.0.UPF
Li 6.941 Li.pbe-sl-rrkjus_psl.1.0.0.UPF
Pb 207.2 Pb.pbe-dn-rrkjus_psl.1.0.0.UPF
Y 88.90 Y.pbe-spn-rrkjus_psl.1.0.0.UPF


CELL_PARAMETERS {angstrom}
6.52719000 0.00000000 0.00000000
0.00000000 8.65500000 0.00000000
0.00000000 0.00000000 24.84630000

ATOMIC_POSITIONS {angstrom}
Li 3.26359500 0.00000000 -2.4232596399999977 0 0 0
Li 5.91507012 0.00000000 0.85371887
Li 3.26359500 4.32750000 -2.4232596399999977 0 0 0
Li 6.09293605 4.32750000 0.68774558
Y 1.40132242 2.16375000 -0.8077532099999978 0 0 0
Y 4.01082771 2.09987610 2.44462746
Y 1.40132242 6.49125000 -0.8077532099999978 0 0 0
Y 4.01082771 6.55512390 2.44462746
Ge 0.00000000 0.00000000 -2.4232596399999977 0 0 0
Ge 2.10430078 0.00000000 1.19982783
Ge 0.00000000 4.32750000 -2.4232596399999977 0 0 0
Ge 2.39345530 4.32750000 1.06466395
Pb 4.66491742 2.16375000 -0.8077532099999978 0 0 0
Pb 0.83384852 2.35052490 2.78502177
Pb 4.66491742 6.49125000 -0.8077532099999978 0 0 0
Pb 0.83384852 6.30438855 2.78502177
C 4.00240764 0.00000000 1.76706886
