&CONTROL
calculation = 'relax'
prefix = 'scf'
pseudo_dir = '/vol0403/data/hp230205/u10028/POT_HYBRID_KKJUS_GBRV'
outdir = './data'
tprnfor = .true.
nstep = 50
disk_io = 'non'
/
&SYSTEM
ibrav = 0
ecutwfc = 50.0
ecutrho = 400
occupations = 'smearing'
smearing = 'mp'
degauss = 0.01
assume_isolated = 'esm'
esm_bc = 'bc1'
input_dft = 'BEEF-VDW'
nosym = .true.
nspin = 2
ntyp = 5
nat = 33
starting_magnetization(1) = 0.0
starting_magnetization(2) = 0.0
starting_magnetization(3) = 0.0
starting_magnetization(4) = 0.1
starting_magnetization(5) = 0.0
/
&ELECTRONS
electron_maxstep = 200
mixing_beta = 0.1
conv_thr = 1e-06
/
&IONS
ion_dynamics = 'bfgs'
upscale = 1.0
/
&CELL
/

K_POINTS {automatic}
6 6 1 0 0 0

ATOMIC_SPECIES
C 12.01 C.pbe-n-rrkjus_psl.1.0.0.UPF
Ge 72.64 Ge.pbe-dn-rrkjus_psl.1.0.0.UPF
Li 6.941 Li.pbe-sl-rrkjus_psl.1.0.0.UPF
Mn 54.93 mn_pbe_v1.5.uspp.F.UPF
Pd 106.4 Pd.pbe-n-rrkjus_psl.1.0.0.UPF


CELL_PARAMETERS {angstrom}
6.14713000 0.00000000 0.00000000
0.00000000 8.69336000 0.00000000
0.00000000 0.00000000 26.52000000

ATOMIC_POSITIONS {angstrom}
Li 0.00000000 2.17334000 -1.0867895999999995 0 0 0
Li 0.00000000 6.52002000 -1.0867895999999995 0 0 0
Li 3.07356500 4.34668000 -3.2601036000000008 0 0 0
Li 3.07356500 0.00000000 -3.2601036000000008 0 0 0
Li 5.92011649 6.52002000 3.83638320
Li 6.10557540 2.17334000 4.23550920
Li 3.08253981 8.68840478 0.98972640
Li 3.08253981 4.35163522 0.98972640
Mn 1.53678250 0.00000000 -1.0867895999999995 0 0 0
Mn 1.53678250 4.34668000 -1.0867895999999995 0 0 0
Mn 4.61034750 2.17334000 -3.2601036000000008 0 0 0
Mn 4.61034750 6.52002000 -3.2601036000000008 0 0 0
Mn 1.50856717 4.50629009 3.12564720
Mn 1.50856717 8.53374991 3.12564720
Mn 4.67999448 6.52002000 1.22761080
Mn 4.65208651 2.17334000 1.40980320
Ge 0.00000000 0.00000000 -3.2601036000000008 0 0 0
Ge 0.00000000 4.34668000 -3.2601036000000008 0 0 0
Ge 3.07356500 6.52002000 -1.0867895999999995 0 0 0
Ge 3.07356500 2.17334000 -1.0867895999999995 0 0 0
Ge 0.01118778 4.32590287 1.00590360
Ge 0.01118778 0.02077713 1.00590360
Ge 2.41569915 2.17342693 3.54254160
Ge 3.12661473 6.52002000 3.40728960
Pd 4.61034750 0.00000000 -1.0867895999999995 0 0 0
Pd 4.61034750 4.34668000 -1.0867895999999995 0 0 0
Pd 1.53678250 2.17334000 -3.2601036000000008 0 0 0
Pd 1.53678250 6.52002000 -3.2601036000000008 0 0 0
Pd 4.57180499 4.36641393 3.08692800
Pd 4.57180499 8.67362607 3.08692800
Pd 1.53807340 6.52002000 1.11675720
Pd 1.56137102 2.17334000 1.04515320
C 4.32548950 2.17334000 3.27097680
