&CONTROL
calculation = 'relax'
prefix = 'scf'
pseudo_dir = '/vol0004/mdt0/data/hp150275/u10028/POT_KKJUS'
outdir = './data'
tprnfor = .true.
nstep = 50
disk_io = 'non'
/
&SYSTEM
ibrav = 0
ecutwfc = 50.0
ecutrho = 400
occupations = 'smearing'
smearing = 'mp'
degauss = 0.01
assume_isolated = 'esm'
esm_bc = 'bc1'
input_dft = 'BEEF-VDW'
nosym = .true.
nspin = 1
ntyp = 3
nat = 32
/
&ELECTRONS
electron_maxstep = 200
mixing_beta = 0.1
conv_thr = 1e-06
/
&IONS
ion_dynamics = 'bfgs'
upscale = 1.0
/
&CELL
/

K_POINTS {automatic}
9 6 2 0  0  0

ATOMIC_SPECIES
Cu 63.54 Cu.pbe-dn-rrkjus_psl.1.0.0.UPF
Ga 69.72 Ga.pbe-dnl-rrkjus_psl.1.0.0.UPF
Sc 44.95 Sc.pbe-spn-rrkjus_psl.1.0.0.UPF

CELL_PARAMETERS {angstrom}
6.23499000 0.00000000 0.00000000
0.00000000 8.81761000 0.00000000
0.00000000 0.00000000 26.61320000

ATOMIC_POSITIONS {angstrom}
Sc 0.00000000 0.00000000 -3.306690100000001 0 0 0
Sc 3.11749500 2.20440250 -1.1023187399999976 0 0 0
Sc 3.11749500 6.61320750 -1.1023187399999976 0 0 0
Sc 0.00000000 4.40880500 -3.306690100000001 0 0 0
Sc 0.00000000 4.40880500 1.06612479
Sc 3.11749500 6.61311932 3.43869157
Sc 3.11749500 2.20449068 3.43869157
Sc 0.00000000 0.00000000 1.06612479
Ga 0.00000000 6.61320750 -1.1023187399999976 0 0 0
Ga 3.11749500 0.00000000 -3.306690100000001 0 0 0
Ga 0.00000000 2.20440250 -1.1023187399999976 0 0 0
Ga 3.11749500 4.40880500 -3.306690100000001 0 0 0
Ga 0.00006235 2.20440250 3.20875352
Ga 3.11749500 4.40880500 1.12627062
Ga 6.23492765 6.61329568 3.20875352
Ga 3.11749500 0.00000000 1.12600449
Cu 1.55874750 0.00000000 -1.1023187399999976 0 0 0
Cu 4.67624250 4.40880500 -1.1023187399999976 0 0 0
Cu 4.67624250 0.00000000 -1.1023187399999976 0 0 0
Cu 1.55874750 4.40880500 -1.1023187399999976 0 0 0
Cu 4.67624250 6.61320750 -3.306690100000001 0 0 0
Cu 1.55874750 2.20440250 -3.306690100000001 0 0 0
Cu 1.55874750 6.61320750 -3.306690100000001 0 0 0
Cu 4.67624250 2.20440250 -3.306690100000001 0 0 0
Cu 1.45300207 4.40880500 3.30881916
Cu 4.78180088 0.00000000 3.30881916
Cu 4.78198793 4.40880500 3.30881916
Cu 1.45318912 0.00000000 3.30881916
Cu 4.58552340 2.20440250 1.15501288
Cu 1.64946660 6.61320750 1.15501288
Cu 1.64946660 2.20440250 1.15501288
Cu 4.58546105 6.61320750 1.15501288
