&CONTROL
calculation = 'relax'
prefix = 'scf'
pseudo_dir = '/vol0004/mdt0/data/hp150275/u10028/POT_HYBRID_KKJUS_GBRV'
outdir = './data'
tprnfor = .true.
nstep = 50
disk_io = 'non'
/
&SYSTEM
ibrav = 0
ecutwfc = 50.0
ecutrho = 400
occupations = 'smearing'
smearing = 'mp'
degauss = 0.01
assume_isolated = 'esm'
esm_bc = 'bc1'
input_dft = 'BEEF-VDW'
nosym = .true.
nspin = 2
ntyp = 5
nat = 34
starting_magnetization(1) = 0.0
starting_magnetization(2) = 0.0
starting_magnetization(3) = 0.1
starting_magnetization(4) = 0.001
starting_magnetization(5) = 0.0
/
&ELECTRONS
electron_maxstep = 300
mixing_beta = 0.1
conv_thr = 1e-06
/
&IONS
ion_dynamics = 'bfgs'
upscale = 1.0
/
&CELL
/

K_POINTS {automatic}
8 6 1 0 0 0

ATOMIC_SPECIES
Al 26.98 Al.pbe-nl-rrkjus_psl.1.0.0.UPF
C 12.01 C.pbe-n-rrkjus_psl.1.0.0.UPF
Fe 55.84 fe_pbe_v1.5.uspp.F.UPF
Ni 58.69 ni_pbe_v1.4.uspp.F.UPF
O 15.99 O.pbe-n-rrkjus_psl.1.0.0.UPF

CELL_PARAMETERS {angstrom}
5.78917000 0.00000000 0.00000000
0.00000000 8.18712000 0.00000000
0.00000000 0.00000000 26.14030000

ATOMIC_POSITIONS {angstrom}
Al 0.00000000 0.00000000 -3.0701782400000006 0 0 0
Al 2.89458500 2.04678000 -1.0233927399999985 0 0 0
Al 2.89458500 6.14034000 -1.0233927399999985 0 0 0
Al 0.00000000 4.09356000 -3.0701782400000006 0 0 0
Al 0.00000000 4.27203922 1.00117349
Al 2.89464289 6.14066748 3.64238940
Al 2.89452711 2.04678000 3.17970609
Al 0.00000000 8.00790394 1.00091209
Fe 1.44729250 0.00000000 -1.0233927399999985 0 0 0
Fe 4.34187750 4.09356000 -1.0233927399999985 0 0 0
Fe 4.34187750 0.00000000 -1.0233927399999985 0 0 0
Fe 1.44729250 4.09356000 -1.0233927399999985 0 0 0
Fe 4.34187750 6.14034000 -3.0701782400000006 0 0 0
Fe 1.44729250 2.04678000 -3.0701782400000006 0 0 0
Fe 1.44729250 6.14034000 -3.0701782400000006 0 0 0
Fe 4.34187750 2.04678000 -3.0701782400000006 0 0 0
Fe 1.57349641 4.14816809 2.97345913
Fe 4.21625251 8.13300314 2.97345913
Fe 4.21567359 4.14808622 2.97345913
Fe 1.57297538 8.13300314 2.97345913
Fe 4.54108284 2.04620690 1.13605744
Fe 1.70016345 6.14009439 1.21683096
Fe 1.24808716 2.04628877 1.13631884
Fe 4.08906445 6.14009439 1.21656956
Ni 0.00000000 6.14034000 -1.0233927399999985 0 0 0
Ni 2.89458500 0.00000000 -3.0701782400000006 0 0 0
Ni 0.00000000 2.04678000 -1.0233927399999985 0 0 0
Ni 2.89458500 4.09356000 -3.0701782400000006 0 0 0
Ni 0.00005789 2.04735310 3.32112512
Ni 2.89470078 3.84712769 0.87779127
Ni 5.78911211 6.14042187 2.95699074
Ni 2.89464289 0.24585921 0.87779127
C 5.78911211 2.04784433 5.09134623
O 5.78911211 2.04743497 6.24700889
