&CONTROL
calculation = 'relax'
prefix = 'scf'
pseudo_dir = '/vol0403/data/hp230205/u10028/POT_HYBRID_KKJUS_GBRV'
outdir = './data'
tprnfor = .true.
nstep = 50
disk_io = 'non'
/
&SYSTEM
ibrav = 0
ecutwfc = 50.0
ecutrho = 400
occupations = 'smearing'
smearing = 'mp'
degauss = 0.01
assume_isolated = 'esm'
esm_bc = 'bc1'
input_dft = 'BEEF-VDW'
nosym = .true.
nspin = 1
ntyp = 5
nat = 17
/
&ELECTRONS
electron_maxstep = 200
mixing_beta = 0.1
conv_thr = 1e-06
/
&IONS
ion_dynamics = 'bfgs'
upscale = 1.0
/
&CELL
/

K_POINTS {automatic}
8 8 1 0 0 0

ATOMIC_SPECIES
Ag 107.8 Ag.pbe-n-rrkjus_psl.1.0.0.UPF
C 12.01 C.pbe-n-rrkjus_psl.1.0.0.UPF
Ge 72.64 Ge.pbe-dn-rrkjus_psl.1.0.0.UPF
Li 6.941 Li.pbe-sl-rrkjus_psl.1.0.0.UPF
Zn 65.40 Zn.pbe-dnl-rrkjus_psl.1.0.0.UPF


CELL_PARAMETERS {angstrom}
6.35563000 0.00000000 0.00000000
0.00000000 6.35563000 0.00000000
0.00000000 0.00000000 24.76670000

ATOMIC_POSITIONS {angstrom}
Li 4.76653183 1.58890750 0.86807283
Li 4.76672250 4.76672250 -2.3832995399999994 0 0 0
Li 1.58890750 1.58890750 -2.3832995399999994 0 0 0
Li 1.58852616 4.76710384 0.87797952
Zn 1.58960662 1.58846261 0.85989982
Zn 1.58890750 4.76672250 -2.3832995399999994 0 0 0
Zn 4.76672250 1.58890750 -2.3832995399999994 0 0 0
Zn 4.76742162 4.76748518 0.85915682
Ag 0.00311426 6.35493088 2.38503321
Ag 0.00000000 3.17781500 -0.7945157400000014 0 0 0
Ag 3.17781500 0.00000000 -0.7945157400000014 0 0 0
Ag 3.17533630 3.18194616 2.38379487
Ge 6.11335338 2.93750863 3.08939816
Ge 0.00000000 0.00000000 -0.7945157400000014 0 0 0
Ge 3.17781500 3.17781500 -0.7945157400000014 0 0 0
Ge 3.41812137 0.23948014 3.08890282
C 4.76519715 1.58916173 3.06413612
