&CONTROL
calculation = 'relax'
prefix = 'scf'
pseudo_dir = '/vol0004/mdt0/data/hp150275/u10028/POT_HYBRID_KKJUS_GBRV'
outdir = './data'
tprnfor = .true.
nstep = 50
disk_io = 'non'
/
&SYSTEM
ibrav = 0
ecutwfc = 50.0
ecutrho = 400
occupations = 'smearing'
smearing = 'mp'
degauss = 0.01
assume_isolated = 'esm'
esm_bc = 'bc1'
input_dft = 'BEEF-VDW'
nosym = .true.
nspin = 2
ntyp = 5
nat = 34
starting_magnetization(1) = 0.0
starting_magnetization(2) = 0.1
starting_magnetization(3) = 0.0
starting_magnetization(4) = 0.0
starting_magnetization(5) = 0.0
/
&ELECTRONS
electron_maxstep = 300
mixing_beta = 0.1
conv_thr = 1e-06
/
&IONS
ion_dynamics = 'bfgs'
upscale = 1.0
/
&CELL
/

K_POINTS {automatic}
8 6 1 0 0 0

ATOMIC_SPECIES
C 12.01 C.pbe-n-rrkjus_psl.1.0.0.UPF
Co 58.93 co_pbe_v1.2.uspp.F.UPF
Hf 178.4 Hf.pbe-spn-rrkjus_psl.1.0.0.UPF
O 15.99 O.pbe-n-rrkjus_psl.1.0.0.UPF
Sn 118.7 Sn.pbe-dn-rrkjus_psl.1.0.0.UPF

CELL_PARAMETERS {angstrom}
6.26570000 0.00000000 0.00000000
0.00000000 8.86104000 0.00000000
0.00000000 0.00000000 26.64580000

ATOMIC_POSITIONS {angstrom}
Hf 0.00000000 0.00000000 -3.32299772 0 0 0
Hf 3.13285000 2.21526000 -1.1076659100000015 0 0 0
Hf 3.13285000 6.64578000 -1.1076659100000015 0 0 0
Hf 0.00000000 4.43052000 -3.32299772 0 0 0
Hf 0.00000000 4.43920382 1.11805777
Hf 3.13285000 6.64578000 3.28835818
Hf 3.13285000 2.21517139 3.32912625
Hf 0.00000000 8.85235618 1.11805777
Co 1.56642500 0.00000000 -1.1076659100000015 0 0 0
Co 4.69927500 4.43052000 -1.1076659100000015 0 0 0
Co 4.69927500 0.00000000 -1.1076659100000015 0 0 0
Co 1.56642500 4.43052000 -1.1076659100000015 0 0 0
Co 4.69927500 6.64578000 -3.32299772 0 0 0
Co 1.56642500 2.21526000 -3.32299772 0 0 0
Co 1.56642500 6.64578000 -3.32299772 0 0 0
Co 4.69927500 2.21526000 -3.32299772 0 0 0
Co 1.50821665 4.44549516 3.15139877
Co 4.75742070 8.84615345 3.15139877
Co 4.75748335 4.44549516 3.15139877
Co 1.50827930 8.84615345 3.15139877
Co 4.70748307 2.21526000 1.11326152
Co 1.59819210 6.64578000 1.14630232
Co 1.55821693 2.21526000 1.11326152
Co 4.66750790 6.64578000 1.14630232
Sn 0.00000000 6.64578000 -1.1076659100000015 0 0 0
Sn 3.13285000 0.00000000 -3.32299772 0 0 0
Sn 0.00000000 2.21526000 -1.1076659100000015 0 0 0
Sn 3.13285000 4.43052000 -3.32299772 0 0 0
Sn 0.00000000 2.21526000 3.48287252
Sn 3.13285000 4.41625373 1.09700759
Sn 0.00000000 6.64595722 3.52417351
Sn 3.13285000 0.01426627 1.09700759
C 3.13285000 2.21526000 5.60227945
O 3.13285000 2.21526000 6.75177926
