&CONTROL
calculation = 'relax'
prefix = 'scf'
pseudo_dir = '/vol0004/mdt0/data/hp150275/u10028/POT_HYBRID_KKJUS_GBRV'
outdir = './data'
tprnfor = .true.
nstep = 50
disk_io = 'non'
/
&SYSTEM
ibrav = 0
ecutwfc = 50.0
ecutrho = 400
occupations = 'smearing'
smearing = 'mp'
degauss = 0.01
assume_isolated = 'esm'
esm_bc = 'bc1'
input_dft = 'BEEF-VDW'
nosym = .true.
nspin = 2
ntyp = 4
nat = 33
starting_magnetization(1) = 0.0
starting_magnetization(2) = 0.0
starting_magnetization(3) = 0.001
starting_magnetization(4) = 0.0
/
&ELECTRONS
electron_maxstep = 200
mixing_beta = 0.1
conv_thr = 1e-06
/
&IONS
ion_dynamics = 'bfgs'
upscale = 1.0
/
&CELL
/

K_POINTS {automatic}
9 6 2 0  0  0

ATOMIC_SPECIES
Al 26.98 Al.pbe-nl-rrkjus_psl.1.0.0.UPF
C 12.01 C.pbe-n-rrkjus_psl.1.0.0.UPF
Ni 58.69 ni_pbe_v1.4.uspp.F.UPF
Zr 91.22 Zr.pbe-spn-rrkjus_psl.1.0.0.UPF

CELL_PARAMETERS {angstrom}
6.14873000 0.00000000 0.00000000
0.00000000 8.69561000 0.00000000
0.00000000 0.00000000 26.52170000

ATOMIC_POSITIONS {angstrom}
Zr 0.00000000 0.00000000 23.26085699
Zr 3.07436500 2.17390250 25.43484073
Zr 3.07436500 6.52170750 25.43484073
Zr 0.00000000 4.34780500 23.26085699
Zr 0.03824510 4.38006571 1.01684198
Zr 3.04644977 6.52196837 3.36692982
Zr 3.46831413 2.17390250 3.77165096
Zr 0.03849105 8.66326233 1.01631154
Al 0.00000000 6.52170750 25.43484073
Al 3.07436500 0.00000000 23.26085699
Al 0.00000000 2.17390250 25.43484073
Al 3.07436500 4.34780500 23.26085699
Al 5.92214930 2.17416337 2.92958698
Al 3.09188888 4.33310942 1.16536350
Al 0.02809970 6.52170750 3.17305619
Al 3.09170442 0.01469558 1.16536350
Ni 1.53718250 0.00000000 25.43484073
Ni 4.61154750 4.34780500 25.43484073
Ni 4.61154750 0.00000000 25.43484073
Ni 1.53718250 4.34780500 25.43484073
Ni 4.61154750 6.52170750 23.26085699
Ni 1.53718250 2.17390250 23.26085699
Ni 1.53718250 6.52170750 23.26085699
Ni 4.61154750 2.17390250 23.26085699
Ni 1.40578414 4.19389270 3.21602134
Ni 4.69012827 8.60082785 3.07386503
Ni 4.68969786 4.44293497 3.07413025
Ni 1.40529224 0.15417317 3.21628656
Ni 4.48211673 2.17372859 1.08394188
Ni 1.71918491 6.52162054 1.15369395
Ni 1.79260074 2.17390250 1.47938043
Ni 4.50468257 6.52170750 1.16907654
C 1.50643885 2.17398946 3.60244251
