&CONTROL
calculation = 'relax'
prefix = 'scf'
pseudo_dir = '/vol0403/data/hp230205/u10028/POT_HYBRID_KKJUS_GBRV'
outdir = './data'
tprnfor = .true.
nstep = 50
disk_io = 'non'
/
&SYSTEM
ibrav = 0
ecutwfc = 50.0
ecutrho = 400
occupations = 'smearing'
smearing = 'mp'
degauss = 0.01
assume_isolated = 'esm'
esm_bc = 'bc1'
input_dft = 'BEEF-VDW'
nosym = .true.
nspin = 1
ntyp = 6
nat = 34
/
&ELECTRONS
electron_maxstep = 200
mixing_beta = 0.1
conv_thr = 1e-06
/
&IONS
ion_dynamics = 'bfgs'
upscale = 1.0
/
&CELL
/

K_POINTS {automatic}
7 7 2 0  0  0

ATOMIC_SPECIES
C 12.01 C.pbe-n-rrkjus_psl.1.0.0.UPF
Li 6.941 Li.pbe-sl-rrkjus_psl.1.0.0.UPF
O 15.99 O.pbe-n-rrkjus_psl.1.0.0.UPF
Pb 207.2 Pb.pbe-dn-rrkjus_psl.1.0.0.UPF
Sn 118.7 Sn.pbe-dn-rrkjus_psl.1.0.0.UPF
Y 88.90 Y.pbe-spn-rrkjus_psl.1.0.0.UPF


CELL_PARAMETERS {angstrom}
9.36828000 0.00000000 0.00000000
0.00000000 9.64462000 0.00000000
0.00000000 0.00000000 26.65380000

ATOMIC_POSITIONS {angstrom}
Li 0.00000000 0.00000000 -3.3269273199999994 0 0 0
Li 0.00000000 9.58819897 1.34308498
Li 0.00000000 4.82231000 -3.3269273199999994 0 0 0
Li 0.00000000 4.87873103 1.34308498
Li 4.68414000 0.00000000 -3.3269273199999994 0 0 0
Li 4.68414000 9.63073175 1.35427958
Li 4.68414000 4.82231000 -3.3269273199999994 0 0 0
Li 4.68414000 4.83619825 1.35427958
Y 2.34207000 2.41115500 -3.3269273199999994 0 0 0
Y 2.42048250 2.41115500 1.06401970
Y 2.34207000 7.23346500 -3.3269273199999994 0 0 0
Y 2.33242067 7.23346500 1.03523359
Y 7.02621000 2.41115500 -3.3269273199999994 0 0 0
Y 6.94779750 2.41115500 1.06401970
Y 7.02621000 7.23346500 -3.3269273199999994 0 0 0
Y 7.03585933 7.23346500 1.03523359
Sn 0.00000000 2.41115500 -1.1090646200000016 0 0 0
Sn 0.00000000 2.41115500 2.97589677
Sn 0.00000000 7.23346500 -1.1090646200000016 0 0 0
Sn 0.00000000 7.23346500 3.21631405
Sn 4.68414000 2.41115500 -1.1090646200000016 0 0 0
Sn 4.68414000 2.41115500 3.27441933
Sn 4.68414000 7.23346500 -1.1090646200000016 0 0 0
Sn 4.68414000 7.23346500 3.15341108
Pb 2.34207000 0.00000000 -1.1090646200000016 0 0 0
Pb 2.43060025 9.53380332 3.79576766
Pb 2.34207000 4.82231000 -1.1090646200000016 0 0 0
Pb 2.43060025 4.93312668 3.79576766
Pb 7.02621000 0.00000000 -1.1090646200000016 0 0 0
Pb 6.93767975 9.53380332 3.79576766
Pb 7.02621000 4.82231000 -1.1090646200000016 0 0 0
Pb 6.93767975 4.93312668 3.79576766
C 0.00000000 2.41125145 5.20895213
O 0.00000000 2.41115500 6.36066283
