&CONTROL
calculation = 'relax'
prefix = 'scf'
pseudo_dir = '/vol0004/mdt0/data/hp150275/u10028/POT_HYBRID_KKJUS_GBRV'
outdir = './data'
tprnfor = .true.
nstep = 50
disk_io = 'non'
/
&SYSTEM
ibrav = 0
ecutwfc = 50.0
ecutrho = 400
occupations = 'smearing'
smearing = 'mp'
degauss = 0.01
assume_isolated = 'esm'
esm_bc = 'bc1'
input_dft = 'BEEF-VDW'
nosym = .true.
nspin = 2
ntyp = 3
nat = 32
starting_magnetization(1) = 0.1
starting_magnetization(2) = 0.0
starting_magnetization(3) = 0.0
/
&ELECTRONS
electron_maxstep = 200
mixing_beta = 0.1
conv_thr = 1e-06
/
&IONS
ion_dynamics = 'bfgs'
upscale = 1.0
/
&CELL
/

K_POINTS {automatic}
9 6 2 0  0  0

ATOMIC_SPECIES
Fe 55.84 fe_pbe_v1.5.uspp.F.UPF
Sn 118.7 Sn.pbe-dn-rrkjus_psl.1.0.0.UPF
V 50.94 V.pbe-spnl-rrkjus_psl.1.0.0.UPF

CELL_PARAMETERS {angstrom}
6.09904000 0.00000000 0.00000000
0.00000000 8.62534000 0.00000000
0.00000000 0.00000000 26.46900000

ATOMIC_POSITIONS {angstrom}
V 0.00000000 0.00000000 23.23448820
V 3.04952000 2.15633500 25.39091763
V 3.04952000 6.46900500 25.39091763
V 0.00000000 4.31267000 23.23448820
V 0.00000000 4.31267000 0.96294222
V 3.04958099 6.46891875 3.16542771
V 3.04964198 2.15642125 3.16542771
V 0.00000000 0.00000000 0.96267753
Fe 1.52476000 0.00000000 25.39091763
Fe 4.57428000 4.31267000 25.39091763
Fe 4.57428000 0.00000000 25.39091763
Fe 1.52476000 4.31267000 25.39091763
Fe 4.57428000 6.46900500 23.23448820
Fe 1.52476000 2.15633500 23.23448820
Fe 1.52476000 6.46900500 23.23448820
Fe 4.57428000 2.15633500 23.23448820
Fe 1.33806839 4.31258375 3.12969456
Fe 4.76078864 0.00000000 3.12969456
Fe 4.76091062 4.31267000 3.12995925
Fe 1.33819037 0.00000000 3.12942987
Fe 4.78555075 2.15607624 1.37612331
Fe 1.31355024 6.46926376 1.37612331
Fe 1.31342826 2.15607624 1.37638800
Fe 4.78548976 6.46926376 1.37612331
Sn 0.00000000 6.46900500 25.39091763
Sn 3.04952000 0.00000000 23.23448820
Sn 0.00000000 2.15633500 25.39091763
Sn 3.04952000 4.31267000 23.23448820
Sn 0.00000000 2.15624875 4.04472789
Sn 3.04952000 4.31267000 1.06802415
Sn 0.00006099 6.46909125 4.04472789
Sn 3.04952000 0.00000000 1.06802415
