&CONTROL
calculation = 'relax'
prefix = 'scf'
pseudo_dir = '/vol0403/data/hp230205/u10028/POT_HYBRID_KKJUS_GBRV'
outdir = './data'
tprnfor = .true.
nstep = 70
disk_io = 'non'
/
&SYSTEM
ibrav = 0
ecutwfc = 50.0
ecutrho = 400
occupations = 'smearing'
smearing = 'mp'
degauss = 0.01
assume_isolated = 'esm'
esm_bc = 'bc1'
input_dft = 'BEEF-VDW'
nosym = .true.
nspin = 1
ntyp = 6
nat = 34
/
&ELECTRONS
electron_maxstep = 200
mixing_beta = 0.1
conv_thr = 1e-06
/
&IONS
ion_dynamics = 'bfgs'
upscale = 1.0
/
&CELL
/

K_POINTS {automatic}
6 6 1 0 0 0

ATOMIC_SPECIES
C 12.01 C.pbe-n-rrkjus_psl.1.0.0.UPF
Cu 63.54 Cu.pbe-dn-rrkjus_psl.1.0.0.UPF
Ga 69.72 Ga.pbe-dnl-rrkjus_psl.1.0.0.UPF
O 15.99 O.pbe-n-rrkjus_psl.1.0.0.UPF
Pd 106.4 Pd.pbe-n-rrkjus_psl.1.0.0.UPF
Sc 44.95 Sc.pbe-spn-rrkjus_psl.1.0.0.UPF


CELL_PARAMETERS {angstrom}
6.33027000 0.00000000 0.00000000
-0.00000000 8.95236000 0.00000000
0.00000000 0.00000000 26.71430000

ATOMIC_POSITIONS {angstrom}
Sc 4.74770250 0.00000000 -1.119062030000002 0 0 0
Sc 4.74770250 4.47618000 -1.119062030000002 0 0 0
Sc 1.58256750 2.23809000 -3.3571860800000017 0 0 0
Sc 1.58256750 6.71427000 -3.3571860800000017 0 0 0
Sc 4.70858143 4.47770190 3.50117616
Sc 4.60862647 0.00098476 3.63661766
Sc 1.54661157 6.72984711 1.09635487
Sc 1.54616845 2.22161766 1.09475201
Ga 1.58256750 0.00000000 -1.119062030000002 0 0 0
Ga 1.58256750 4.47618000 -1.119062030000002 0 0 0
Ga 4.74770250 2.23809000 -3.3571860800000017 0 0 0
Ga 4.74770250 6.71427000 -3.3571860800000017 0 0 0
Ga 1.55281523 4.47752285 3.33634893
Ga 1.43494560 0.00098476 3.26689175
Ga 4.72928141 6.70728716 1.18905349
Ga 4.72921811 2.24346142 1.18771778
Cu 0.00000000 0.00000000 -3.3571860800000017 0 0 0
Cu 0.00000000 4.47618000 -3.3571860800000017 0 0 0
Cu 3.16513500 6.71427000 -1.119062030000002 0 0 0
Cu 3.16513500 2.23809000 -1.119062030000002 0 0 0
Cu 6.21657835 4.47564286 1.21737065
Cu 6.13580411 8.95155429 1.23633780
Cu 3.03916263 2.26933374 3.35184322
Cu 3.03739015 6.68553292 3.35264465
Pd 0.00000000 2.23809000 -1.119062030000002 0 0 0
Pd 0.00000000 6.71427000 -1.119062030000002 0 0 0
Pd 3.16513500 4.47618000 -3.3571860800000017 0 0 0
Pd 3.16513500 0.00000000 -3.3571860800000017 0 0 0
Pd 0.02342200 6.69708147 3.31471034
Pd 0.02234585 2.25733757 3.31417606
Pd 3.24388356 8.95155429 1.20481493
Pd 3.20317992 4.47626952 1.15753062
C 3.12449467 8.95200191 5.40617289
O 2.36771089 8.95191238 6.28453907
