&CONTROL
calculation = 'relax'
prefix = 'scf'
pseudo_dir = '/vol0004/mdt0/data/hp150275/u10028/POT_KKJUS'
outdir = './data'
tprnfor = .true.
nstep = 50
disk_io = 'non'
/
&SYSTEM
ibrav = 0
ecutwfc = 50.0
ecutrho = 400
occupations = 'smearing'
smearing = 'mp'
degauss = 0.01
assume_isolated = 'esm'
esm_bc = 'bc1'
input_dft = 'BEEF-VDW'
nosym = .true.
nspin = 1
ntyp = 2
nat = 32
/
&ELECTRONS
electron_maxstep = 200
mixing_beta = 0.1
conv_thr = 1e-06
/
&IONS
ion_dynamics = 'bfgs'
upscale = 1.0
/
&CELL
/

K_POINTS {automatic}
8 6 1 0 0 0

ATOMIC_SPECIES
Al 26.98 Al.pbe-nl-rrkjus_psl.1.0.0.UPF
Sc 44.95 Sc.pbe-spn-rrkjus_psl.1.0.0.UPF

CELL_PARAMETERS {angstrom}
6.75388000 0.00000000 0.00000000
0.00000000 9.55143000 0.00000000
0.00000000 0.00000000 27.16360000

ATOMIC_POSITIONS {angstrom}
Sc 1.68847000 2.38785750 -3.5817923 0 0 0
Sc 1.68847000 0.00000000 -1.1938402199999985 0 0 0
Sc 1.68792969 2.38776199 1.13815484
Sc 1.68772707 4.77561949 3.69669432
Sc 1.68847000 7.16357250 -3.5817923 0 0 0
Sc 1.68847000 4.77571500 -1.1938402199999985 0 0 0
Sc 1.68792969 7.16366801 1.13788320
Sc 1.68779461 0.00000000 3.69587942
Sc 5.06541000 2.38785750 -3.5817923 0 0 0
Sc 5.06541000 0.00000000 -1.1938402199999985 0 0 0
Sc 5.06601785 2.38795301 1.13815484
Sc 5.06608539 4.77590603 3.69723760
Sc 5.06541000 7.16357250 -3.5817923 0 0 0
Sc 5.06541000 4.77571500 -1.1938402199999985 0 0 0
Sc 5.06601785 7.16347699 1.13815484
Sc 5.06601785 9.55123897 3.69696596
Al 0.00000000 0.00000000 -3.5817923 0 0 0
Al 0.00000000 2.38785750 -1.1938402199999985 0 0 0
Al 6.75354231 0.00000000 1.29054264
Al 6.75374492 2.38785750 3.54213344
Al 0.00000000 4.77571500 -3.5817923 0 0 0
Al 0.00000000 7.16357250 -1.1938402199999985 0 0 0
Al 6.75381246 4.77571500 1.29081427
Al 0.00020262 7.16357250 3.54186180
Al 3.37694000 0.00000000 -3.5817923 0 0 0
Al 3.37694000 2.38785750 -1.1938402199999985 0 0 0
Al 3.37727769 0.00000000 1.29108591
Al 3.37707508 2.38785750 3.54077526
Al 3.37694000 4.77571500 -3.5817923 0 0 0
Al 3.37694000 7.16357250 -1.1938402199999985 0 0 0
Al 3.37700754 4.77571500 1.29135754
Al 3.37673738 7.16347699 3.54077526
