&CONTROL
calculation = 'relax'
prefix = 'scf'
pseudo_dir = '/vol0004/mdt0/data/hp150275/u10028/POT_KKJUS'
outdir = './data'
tprnfor = .true.
nstep = 50
disk_io = 'non'
/
&SYSTEM
ibrav = 0
ecutwfc = 50.0
ecutrho = 400
occupations = 'smearing'
smearing = 'mp'
degauss = 0.01
assume_isolated = 'esm'
esm_bc = 'bc1'
input_dft = 'BEEF-VDW'
nosym = .true.
nspin = 1
ntyp = 5
nat = 34
/
&ELECTRONS
electron_maxstep = 200
mixing_beta = 0.1
conv_thr = 1e-06
/
&IONS
ion_dynamics = 'bfgs'
upscale = 1.0
/
&CELL
/

K_POINTS {automatic}
8 6 1 0 0 0

ATOMIC_SPECIES
Au 196.9 Au.pbe-n-rrkjus_psl.1.0.0.UPF
C 12.01 C.pbe-n-rrkjus_psl.1.0.0.UPF
Ge 72.64 Ge.pbe-dn-rrkjus_psl.1.0.0.UPF
Li 6.941 Li.pbe-sl-rrkjus_psl.1.0.0.UPF
O 15.99 O.pbe-n-rrkjus_psl.1.0.0.UPF

CELL_PARAMETERS {angstrom}
6.30953000 0.00000000 0.00000000
0.00000000 8.92302000 0.00000000
0.00000000 0.00000000 26.69230000

ATOMIC_POSITIONS {angstrom}
Li 0.00000000 6.69226500 -1.1154712199999999 0 0 0
Li 3.15476500 0.00000000 -3.346146730000001 0 0 0
Li 0.00000000 2.23075500 -1.1154712199999999 0 0 0
Li 3.15476500 4.46151000 -3.346146730000001 0 0 0
Li 1.57738250 2.23075500 -3.346146730000001 0 0 0
Li 1.57738250 6.69226500 -3.346146730000001 0 0 0
Li 4.73214750 4.46151000 -1.1154712199999999 0 0 0
Li 4.73214750 0.00000000 -1.1154712199999999 0 0 0
Li 0.18707756 2.18016148 3.38404979
Li 3.23861865 4.46061770 0.97079895
Li 0.18714066 6.74196622 3.38378287
Li 3.33957113 8.92230616 0.98788202
Li 1.64173971 6.71617869 1.16244967
Li 1.64173971 2.20577054 1.16218274
Li 4.58286402 0.00044615 3.63469049
Li 4.62822954 4.46043924 3.32799596
Ge 0.00000000 0.00000000 -3.346146730000001 0 0 0
Ge 3.15476500 2.23075500 -1.1154712199999999 0 0 0
Ge 3.15476500 6.69226500 -1.1154712199999999 0 0 0
Ge 0.00000000 4.46151000 -3.346146730000001 0 0 0
Ge 0.00271310 4.46133154 1.17285966
Ge 3.18713289 6.67343743 3.50683437
Ge 3.18631265 2.24869027 3.50656745
Ge 6.29350379 8.92239539 1.19981889
Au 1.57738250 0.00000000 -1.1154712199999999 0 0 0
Au 1.57738250 4.46151000 -1.1154712199999999 0 0 0
Au 4.73214750 6.69226500 -3.346146730000001 0 0 0
Au 4.73214750 2.23075500 -3.346146730000001 0 0 0
Au 1.77840413 4.46204538 3.11819449
Au 1.87576017 8.92239539 3.07788911
Au 4.73681655 2.24645952 1.25854194
Au 4.73631179 6.67468665 1.25774118
C 5.80249617 0.00597842 5.33659154
O 0.02429169 0.00401536 6.35063202
