&CONTROL
calculation = 'relax'
prefix = 'scf'
pseudo_dir = '/vol0403/data/hp230205/u10028/POT_HYBRID_KKJUS_GBRV'
outdir = './data'
tprnfor = .true.
nstep = 50
disk_io = 'non'
/
&SYSTEM
ibrav = 0
ecutwfc = 50.0
ecutrho = 400
occupations = 'smearing'
smearing = 'mp'
degauss = 0.01
assume_isolated = 'esm'
esm_bc = 'bc1'
input_dft = 'BEEF-VDW'
nosym = .true.
nspin = 1
ntyp = 6
nat = 34
/
&ELECTRONS
electron_maxstep = 200
mixing_beta = 0.1
conv_thr = 1e-06
/
&IONS
ion_dynamics = 'bfgs'
upscale = 1.0
/
&CELL
/

K_POINTS {automatic}
6 6 1 0 0 0

ATOMIC_SPECIES
Al 26.98 Al.pbe-nl-rrkjus_psl.1.0.0.UPF
C 12.01 C.pbe-n-rrkjus_psl.1.0.0.UPF
In 114.8 In.pbe-dn-rrkjus_psl.1.0.0.UPF
Li 6.941 Li.pbe-sl-rrkjus_psl.1.0.0.UPF
O 15.99 O.pbe-n-rrkjus_psl.1.0.0.UPF
Sc 44.95 Sc.pbe-spn-rrkjus_psl.1.0.0.UPF


CELL_PARAMETERS {angstrom}
8.37392000 0.00000000 0.00000000
0.00000000 8.49254000 0.00000000
0.00000000 0.00000000 26.53520000

ATOMIC_POSITIONS {angstrom}
Li 0.00000000 2.12313500 -1.0892699599999993 0 0 0
Li 0.00000000 2.12313500 3.26754453
Li 0.00000000 6.36940500 -1.0892699599999993 0 0 0
Li 0.00000000 6.36940500 3.26754453
Li 4.18696000 2.12313500 -1.0892699599999993 0 0 0
Li 4.18696000 2.12313500 3.26754453
Li 4.18696000 6.36940500 -1.0892699599999993 0 0 0
Li 4.18696000 6.36940500 3.26754453
Sc 2.09348000 2.12313500 -3.2675445299999986 0 0 0
Sc 2.09348000 2.12313500 1.08926996
Sc 2.09348000 6.36940500 -3.2675445299999986 0 0 0
Sc 2.09348000 6.36940500 1.08926996
Sc 6.28044000 2.12313500 -3.2675445299999986 0 0 0
Sc 6.28044000 2.12313500 1.08926996
Sc 6.28044000 6.36940500 -3.2675445299999986 0 0 0
Sc 6.28044000 6.36940500 1.08926996
Al 0.00000000 0.00000000 -3.2675445299999986 0 0 0
Al 0.00000000 0.00000000 1.08926996
Al 0.00000000 4.24627000 -3.2675445299999986 0 0 0
Al 0.00000000 4.24627000 1.08926996
Al 4.18696000 0.00000000 -3.2675445299999986 0 0 0
Al 4.18696000 0.00000000 1.08926996
Al 4.18696000 4.24627000 -3.2675445299999986 0 0 0
Al 4.18696000 4.24627000 1.08926996
In 2.09348000 0.00000000 -1.0892699599999993 0 0 0
In 2.09348000 0.00000000 3.26754453
In 2.09348000 4.24627000 -1.0892699599999993 0 0 0
In 2.09348000 4.24627000 3.26754453
In 6.28044000 0.00000000 -1.0892699599999993 0 0 0
In 6.28044000 0.00000000 3.26754453
In 6.28044000 4.24627000 -1.0892699599999993 0 0 0
In 6.28044000 4.24627000 3.26754453
C 0.00000000 2.12313500 5.16773020
O 0.00000000 2.12313500 6.31750042
