&CONTROL
calculation = 'relax'
prefix = 'scf'
pseudo_dir = '/vol0004/mdt0/data/hp150275/u10028/POT_KKJUS'
outdir = './data'
tprnfor = .true.
nstep = 50
disk_io = 'non'
/
&SYSTEM
ibrav = 0
ecutwfc = 50.0
ecutrho = 400
occupations = 'smearing'
smearing = 'mp'
degauss = 0.01
assume_isolated = 'esm'
esm_bc = 'bc1'
input_dft = 'BEEF-VDW'
nosym = .true.
nspin = 1
ntyp = 4
nat = 34
/
&ELECTRONS
electron_maxstep = 200
mixing_beta = 0.1
conv_thr = 1e-06
/
&IONS
ion_dynamics = 'bfgs'
upscale = 1.0
/
&CELL
/

K_POINTS {automatic}
7 7 2 0  0  0

ATOMIC_SPECIES
C 12.01 C.pbe-n-rrkjus_psl.1.0.0.UPF
O 15.99 O.pbe-n-rrkjus_psl.1.0.0.UPF
Pd 106.4 Pd.pbe-n-rrkjus_psl.1.0.0.UPF
Sn 118.7 Sn.pbe-dn-rrkjus_psl.1.0.0.UPF

CELL_PARAMETERS {angstrom}
8.16408000 0.00000000 0.00000000
-0.00000000 8.16408000 0.00000000
0.00000000 0.00000000 26.12310000

ATOMIC_POSITIONS {angstrom}
Sn 0.00000000 0.00000000 -3.0616273199999995 0 0 0
Sn 0.00000000 0.00000000 1.02062952
Sn 0.00000000 4.08204000 -3.0616273199999995 0 0 0
Sn 0.00000000 4.08204000 1.02062952
Sn 4.08204000 0.00000000 -3.0616273199999995 0 0 0
Sn 4.08204000 -0.00000000 1.02062952
Sn 4.08204000 4.08204000 -3.0616273199999995 0 0 0
Sn 4.08204000 4.08204000 1.02062952
Pd 0.00000000 2.04102000 -1.02062952 0 0 0
Pd 2.04102000 0.00000000 -1.02062952 0 0 0
Pd 2.04102000 2.04102000 -3.0616273199999995 0 0 0
Pd 0.00000000 2.04102000 3.06162732
Pd 2.04102000 -0.00000000 3.06162732
Pd 2.04102000 2.04102000 1.02062952
Pd 0.00000000 6.12306000 -1.02062952 0 0 0
Pd 2.04102000 4.08204000 -1.02062952 0 0 0
Pd 2.04102000 6.12306000 -3.0616273199999995 0 0 0
Pd 0.00000000 6.12306000 3.06162732
Pd 2.04102000 4.08204000 3.06162732
Pd 2.04102000 6.12306000 1.02062952
Pd 4.08204000 2.04102000 -1.02062952 0 0 0
Pd 6.12306000 0.00000000 -1.02062952 0 0 0
Pd 6.12306000 2.04102000 -3.0616273199999995 0 0 0
Pd 4.08204000 2.04102000 3.06162732
Pd 6.12306000 -0.00000000 3.06162732
Pd 6.12306000 2.04102000 1.02062952
Pd 4.08204000 6.12306000 -1.02062952 0 0 0
Pd 6.12306000 4.08204000 -1.02062952 0 0 0
Pd 6.12306000 6.12306000 -3.0616273199999995 0 0 0
Pd 4.08204000 6.12306000 3.06162732
Pd 6.12306000 4.08204000 3.06162732
Pd 6.12306000 6.12306000 1.02062952
C 2.04102000 -0.00000000 4.96156038
O 2.04102000 -0.00000000 6.11149925
