&CONTROL
calculation = 'relax'
prefix = 'scf'
pseudo_dir = '/vol0004/mdt0/data/hp150275/u10028/POT_KKJUS'
outdir = './data'
tprnfor = .true.
nstep = 50
disk_io = 'non'
/
&SYSTEM
ibrav = 0
ecutwfc = 50.0
ecutrho = 400
occupations = 'smearing'
smearing = 'mp'
degauss = 0.01
assume_isolated = 'esm'
esm_bc = 'bc1'
input_dft = 'BEEF-VDW'
nosym = .true.
nspin = 1
ntyp = 3
nat = 34
/
&ELECTRONS
electron_maxstep = 200
mixing_beta = 0.1
conv_thr = 1e-06
/
&IONS
ion_dynamics = 'bfgs'
upscale = 1.0
/
&CELL
/

K_POINTS {automatic}
6 6 1 0 0 0

ATOMIC_SPECIES
C 12.01 C.pbe-n-rrkjus_psl.1.0.0.UPF
Ge 72.64 Ge.pbe-dn-rrkjus_psl.1.0.0.UPF
O 15.99 O.pbe-n-rrkjus_psl.1.0.0.UPF

CELL_PARAMETERS {angstrom}
8.62086000 0.00000000 0.00000000
0.00000000 8.62086000 0.00000000
0.00000000 0.00000000 26.46560000

ATOMIC_POSITIONS {angstrom}
Ge 0.00000000 0.00000000 -3.232773039999998 0 0 0
Ge 2.15521500 2.15521500 -3.232773039999998 0 0 0
Ge 2.15521500 0.00000000 -1.0776792299999975 0 0 0
Ge 0.00000000 2.15521500 -1.0776792299999975 0 0 0
Ge 8.60758388 8.62060137 1.25288150
Ge 2.15504258 2.16849112 1.25261685
Ge 2.15573225 0.00043104 3.25156362
Ge 0.02569016 2.12831792 3.26744298
Ge 0.00000000 4.31043000 -3.232773039999998 0 0 0
Ge 2.15521500 6.46564500 -3.232773039999998 0 0 0
Ge 2.15521500 4.31043000 -1.0776792299999975 0 0 0
Ge 0.00000000 6.46564500 -1.0776792299999975 0 0 0
Ge 0.00551735 4.31025758 1.29681440
Ge 2.15478396 6.45271371 1.25261685
Ge 2.15599088 4.31086104 3.27935250
Ge 0.02569016 6.49202483 3.26770763
Ge 4.31043000 0.00000000 -3.232773039999998 0 0 0
Ge 6.46564500 2.15521500 -3.232773039999998 0 0 0
Ge 6.46564500 0.00000000 -1.0776792299999975 0 0 0
Ge 4.31043000 2.15521500 -1.0776792299999975 0 0 0
Ge 4.32405096 8.62077379 1.25261685
Ge 6.46530017 2.15004248 1.29628509
Ge 6.46633467 0.00043104 3.27935250
Ge 4.28379154 2.12840413 3.26770763
Ge 4.31043000 4.31043000 -3.232773039999998 0 0 0
Ge 6.46564500 6.46564500 -3.232773039999998 0 0 0
Ge 6.46564500 4.31043000 -1.0776792299999975 0 0 0
Ge 4.31043000 6.46564500 -1.0776792299999975 0 0 0
Ge 4.30534369 4.31025758 1.29681440
Ge 6.46538637 6.47116235 1.29628509
Ge 6.46624846 4.31103346 3.28120509
Ge 4.28387775 6.49185241 3.26744298
C 2.15555983 8.61939445 7.19864320
O 2.15521500 0.00008621 8.33375278
