&CONTROL
calculation = 'relax'
prefix = 'scf'
pseudo_dir = '/vol0004/mdt0/data/hp150275/u10028/POT_KKJUS'
outdir = './data'
tprnfor = .true.
nstep = 50
disk_io = 'non'
/
&SYSTEM
ibrav = 0
ecutwfc = 50.0
ecutrho = 400
occupations = 'smearing'
smearing = 'mp'
degauss = 0.01
assume_isolated = 'esm'
esm_bc = 'bc1'
input_dft = 'BEEF-VDW'
nosym = .true.
nspin = 1
ntyp = 3
nat = 34
/
&ELECTRONS
electron_maxstep = 200
mixing_beta = 0.1
conv_thr = 1e-06
/
&IONS
ion_dynamics = 'bfgs'
upscale = 1.0
/
&CELL
/

K_POINTS {automatic}
6 6 1 0 0 0

ATOMIC_SPECIES
C 12.01 C.pbe-n-rrkjus_psl.1.0.0.UPF
Ge 72.64 Ge.pbe-dn-rrkjus_psl.1.0.0.UPF
O 15.99 O.pbe-n-rrkjus_psl.1.0.0.UPF

CELL_PARAMETERS {angstrom}
8.62086000 0.00000000 0.00000000
-0.00000000 8.62086000 0.00000000
0.00000000 0.00000000 26.46560000

ATOMIC_POSITIONS {angstrom}
Ge 0.00000000 0.00000000 -3.232773039999998 0 0 0
Ge 2.15521500 2.15521500 -3.232773039999998 0 0 0
Ge 2.15521500 0.00000000 -1.0776792299999975 0 0 0
Ge 0.00000000 2.15521500 -1.0776792299999975 0 0 0
Ge 0.00000000 0.00000000 1.07767923
Ge 2.15521500 2.15521500 1.07767923
Ge 2.15521500 -0.00000000 3.23277304
Ge 0.00000000 2.15521500 3.23277304
Ge 0.00000000 4.31043000 -3.232773039999998 0 0 0
Ge 2.15521500 6.46564500 -3.232773039999998 0 0 0
Ge 2.15521500 4.31043000 -1.0776792299999975 0 0 0
Ge 0.00000000 6.46564500 -1.0776792299999975 0 0 0
Ge 0.00000000 4.31043000 1.07767923
Ge 2.15521500 6.46564500 1.07767923
Ge 2.15521500 4.31043000 3.23277304
Ge 0.00000000 6.46564500 3.23277304
Ge 4.31043000 0.00000000 -3.232773039999998 0 0 0
Ge 6.46564500 2.15521500 -3.232773039999998 0 0 0
Ge 6.46564500 0.00000000 -1.0776792299999975 0 0 0
Ge 4.31043000 2.15521500 -1.0776792299999975 0 0 0
Ge 4.31043000 -0.00000000 1.07767923
Ge 6.46564500 2.15521500 1.07767923
Ge 6.46564500 -0.00000000 3.23277304
Ge 4.31043000 2.15521500 3.23277304
Ge 4.31043000 4.31043000 -3.232773039999998 0 0 0
Ge 6.46564500 6.46564500 -3.232773039999998 0 0 0
Ge 6.46564500 4.31043000 -1.0776792299999975 0 0 0
Ge 4.31043000 6.46564500 -1.0776792299999975 0 0 0
Ge 4.31043000 4.31043000 1.07767923
Ge 6.46564500 6.46564500 1.07767923
Ge 6.46564500 4.31043000 3.23277304
Ge 4.31043000 6.46564500 3.23277304
C 2.15521500 -0.00000000 5.13273846
O 2.15521500 -0.00000000 6.28293344
