&CONTROL
calculation = 'relax'
prefix = 'scf'
pseudo_dir = '/vol0004/mdt0/data/hp150275/u10028/POT_KKJUS'
outdir = './data'
tprnfor = .true.
nstep = 50
disk_io = 'non'
/
&SYSTEM
ibrav = 0
ecutwfc = 50.0
ecutrho = 400
occupations = 'smearing'
smearing = 'mp'
degauss = 0.01
assume_isolated = 'esm'
esm_bc = 'bc1'
input_dft = 'BEEF-VDW'
nosym = .true.
nspin = 1
ntyp = 4
nat = 18
/
&ELECTRONS
electron_maxstep = 200
mixing_beta = 0.1
conv_thr = 1e-06
/
&IONS
ion_dynamics = 'bfgs'
upscale = 1.0
/
&CELL
/

K_POINTS {automatic}
7 10 3 0  0  0

ATOMIC_SPECIES
C 12.01 C.pbe-n-rrkjus_psl.1.0.0.UPF
O 15.99 O.pbe-n-rrkjus_psl.1.0.0.UPF
Pb 207.2 Pb.pbe-dn-rrkjus_psl.1.0.0.UPF
Y 88.90 Y.pbe-spn-rrkjus_psl.1.0.0.UPF

CELL_PARAMETERS {angstrom}
9.91485000 0.00000000 0.00000000
0.00000000 7.01086000 0.00000000
0.00000000 0.00000000 25.25810000

ATOMIC_POSITIONS {angstrom}
Y 0.00000000 0.00007011 2.25529575
Y 0.00000000 3.50543000 -0.8764560699999997 0 0 0
Y 4.95742500 0.00007011 2.24544509
Y 4.95742500 3.50543000 -0.8764560699999997 0 0 0
Pb 0.00000000 3.50557022 2.77510745
Pb 2.46929339 5.17576739 0.97521524
Pb 2.46929339 1.83523282 0.97521524
Pb 0.00000000 0.00000000 -0.8764560699999997 0 0 0
Pb 2.47871250 1.75271500 -2.6291156299999976 0 0 0
Pb 2.47871250 5.25814500 -2.6291156299999976 0 0 0
Pb 4.95742500 3.50550011 2.73772546
Pb 7.44555661 5.17576740 0.97521524
Pb 7.44555661 1.83523282 0.97521524
Pb 4.95742500 0.00000000 -0.8764560699999997 0 0 0
Pb 7.43613750 1.75271500 -2.6291156299999976 0 0 0
Pb 7.43613750 5.25814500 -2.6291156299999976 0 0 0
C 9.91475085 3.50381750 6.98866369
O 0.00009915 3.50585065 8.12401528
