&CONTROL
calculation = 'relax'
prefix = 'scf'
pseudo_dir = '/vol0004/mdt0/data/hp150275/u10028/POT_HYBRID_KKJUS_GBRV'
outdir = './data'
tprnfor = .true.
nstep = 70
disk_io = 'non'
/
&SYSTEM
ibrav = 0
ecutwfc = 50.0
ecutrho = 400
occupations = 'smearing'
smearing = 'mp'
degauss = 0.01
assume_isolated = 'esm'
esm_bc = 'bc1'
input_dft = 'BEEF-VDW'
nosym = .true.
nspin = 1
ntyp = 2
nat = 32
/
&ELECTRONS
electron_maxstep = 200
mixing_beta = 0.1
conv_thr = 1e-06
/
&IONS
ion_dynamics = 'bfgs'
upscale = 1.0
/
&CELL
/

K_POINTS {automatic}
6 8 2 0  0  0

ATOMIC_SPECIES
Nb 92.90 Nb.pbe-spn-rrkjus_psl.1.0.0.UPF
Ru 101.0 Ru.pbe-spn-rrkjus_psl.1.0.0.UPF

CELL_PARAMETERS {angstrom}
8.68251000 0.00000000 0.00000000
-0.00000000 6.84380000 0.00000000
0.00000000 0.00000000 26.51190000

ATOMIC_POSITIONS {angstrom}
Nb 0.00000000 0.00000000 -3.2559264399999996 0 0 0
Nb 2.17062750 0.00000000 -1.085397190000002 0 0 0
Nb 0.00000000 0.00000000 1.08539719
Nb 2.17062750 -0.00000000 3.25592644
Nb 0.00000000 3.42190000 -3.2559264399999996 0 0 0
Nb 2.17062750 3.42190000 -1.085397190000002 0 0 0
Nb 0.00000000 3.42190000 1.08539719
Nb 2.17062750 3.42190000 3.25592644
Nb 4.34125500 0.00000000 -3.2559264399999996 0 0 0
Nb 6.51188250 0.00000000 -1.085397190000002 0 0 0
Nb 4.34125500 -0.00000000 1.08539719
Nb 6.51188250 -0.00000000 3.25592644
Nb 4.34125500 3.42190000 -3.2559264399999996 0 0 0
Nb 6.51188250 3.42190000 -1.085397190000002 0 0 0
Nb 4.34125500 3.42190000 1.08539719
Nb 6.51188250 3.42190000 3.25592644
Ru 2.17062750 1.71095000 -3.2559264399999996 0 0 0
Ru 0.00000000 1.71095000 -1.085397190000002 0 0 0
Ru 2.17062750 1.71095000 1.08539719
Ru 0.00000000 1.71095000 3.25592644
Ru 2.17062750 5.13285000 -3.2559264399999996 0 0 0
Ru 0.00000000 5.13285000 -1.085397190000002 0 0 0
Ru 2.17062750 5.13285000 1.08539719
Ru 0.00000000 5.13285000 3.25592644
Ru 6.51188250 1.71095000 -3.2559264399999996 0 0 0
Ru 4.34125500 1.71095000 -1.085397190000002 0 0 0
Ru 6.51188250 1.71095000 1.08539719
Ru 4.34125500 1.71095000 3.25592644
Ru 6.51188250 5.13285000 -3.2559264399999996 0 0 0
Ru 4.34125500 5.13285000 -1.085397190000002 0 0 0
Ru 6.51188250 5.13285000 1.08539719
Ru 4.34125500 5.13285000 3.25592644
