&CONTROL
calculation = 'relax'
prefix = 'scf'
pseudo_dir = '/vol0004/mdt0/data/hp150275/u10028/POT_HYBRID_KKJUS_GBRV'
outdir = './data'
tprnfor = .true.
nstep = 50
disk_io = 'non'
/
&SYSTEM
ibrav = 0
ecutwfc = 50.0
ecutrho = 400
occupations = 'smearing'
smearing = 'mp'
degauss = 0.01
assume_isolated = 'esm'
esm_bc = 'bc1'
input_dft = 'BEEF-VDW'
nosym = .true.
nspin = 2
ntyp = 4
nat = 34
starting_magnetization(1) = 0.0
starting_magnetization(2) = 0.1
starting_magnetization(3) = 0.0
starting_magnetization(4) = 0.0
/
&ELECTRONS
electron_maxstep = 200
mixing_beta = 0.1
conv_thr = 1e-06
/
&IONS
ion_dynamics = 'bfgs'
upscale = 1.0
/
&CELL
/

K_POINTS {automatic}
7 7 2 0  0  0

ATOMIC_SPECIES
C 12.01 C.pbe-n-rrkjus_psl.1.0.0.UPF
Fe 55.84 fe_pbe_v1.5.uspp.F.UPF
Ir 192.2 Ir.pbe-n-rrkjus_psl.0.2.3.UPF
O 15.99 O.pbe-n-rrkjus_psl.1.0.0.UPF

CELL_PARAMETERS {angstrom}
7.75552000 0.00000000 0.00000000
-0.00000000 7.75552000 0.00000000
0.00000000 0.00000000 25.81660000

ATOMIC_POSITIONS {angstrom}
Fe 0.00000000 0.00000000 -2.908239990000002 0 0 0
Fe 0.00000000 0.00000000 0.96941333
Fe 0.00000000 3.87776000 -2.908239990000002 0 0 0
Fe 0.00000000 3.87776000 0.96941333
Fe 3.87776000 0.00000000 -2.908239990000002 0 0 0
Fe 3.87776000 -0.00000000 0.96941333
Fe 3.87776000 3.87776000 -2.908239990000002 0 0 0
Fe 3.87776000 3.87776000 0.96941333
Ir 0.00000000 1.93888000 -0.9694133300000018 0 0 0
Ir 1.93888000 0.00000000 -0.9694133300000018 0 0 0
Ir 1.93888000 1.93888000 -2.908239990000002 0 0 0
Ir 0.00000000 1.93888000 2.90823999
Ir 1.93888000 -0.00000000 2.90823999
Ir 1.93888000 1.93888000 0.96941333
Ir 0.00000000 5.81664000 -0.9694133300000018 0 0 0
Ir 1.93888000 3.87776000 -0.9694133300000018 0 0 0
Ir 1.93888000 5.81664000 -2.908239990000002 0 0 0
Ir 0.00000000 5.81664000 2.90823999
Ir 1.93888000 3.87776000 2.90823999
Ir 1.93888000 5.81664000 0.96941333
Ir 3.87776000 1.93888000 -0.9694133300000018 0 0 0
Ir 5.81664000 0.00000000 -0.9694133300000018 0 0 0
Ir 5.81664000 1.93888000 -2.908239990000002 0 0 0
Ir 3.87776000 1.93888000 2.90823999
Ir 5.81664000 -0.00000000 2.90823999
Ir 5.81664000 1.93888000 0.96941333
Ir 3.87776000 5.81664000 -0.9694133300000018 0 0 0
Ir 5.81664000 3.87776000 -0.9694133300000018 0 0 0
Ir 5.81664000 5.81664000 -2.908239990000002 0 0 0
Ir 3.87776000 5.81664000 2.90823999
Ir 5.81664000 3.87776000 2.90823999
Ir 5.81664000 5.81664000 0.96941333
C 1.93888000 -0.00000000 4.80834175
O 1.93888000 -0.00000000 5.95821311
