&CONTROL
calculation = 'relax'
prefix = 'scf'
pseudo_dir = '/vol0403/data/hp230205/u10028/POT_HYBRID_KKJUS_GBRV'
outdir = './data'
tprnfor = .true.
nstep = 50
disk_io = 'non'
/
&SYSTEM
ibrav = 0
ecutwfc = 50.0
ecutrho = 400
occupations = 'smearing'
smearing = 'mp'
degauss = 0.01
assume_isolated = 'esm'
esm_bc = 'bc1'
input_dft = 'BEEF-VDW'
nosym = .true.
nspin = 1
ntyp = 6
nat = 34
/
&ELECTRONS
electron_maxstep = 200
mixing_beta = 0.1
conv_thr = 1e-06
/
&IONS
ion_dynamics = 'bfgs'
upscale = 1.0
/
&CELL
/

K_POINTS {automatic}
8 8 1 0 0 0

ATOMIC_SPECIES
C 12.01 C.pbe-n-rrkjus_psl.1.0.0.UPF
Ga 69.72 Ga.pbe-dnl-rrkjus_psl.1.0.0.UPF
Li 6.941 Li.pbe-sl-rrkjus_psl.1.0.0.UPF
Mg 24.30 Mg.pbe-spnl-rrkjus_psl.1.0.0.UPF
O 15.99 O.pbe-n-rrkjus_psl.1.0.0.UPF
Pd 106.4 Pd.pbe-n-rrkjus_psl.1.0.0.UPF


CELL_PARAMETERS {angstrom}
6.27706000 0.00000000 0.00000000
0.00000000 8.87710000 0.00000000
0.00000000 0.00000000 26.65780000

ATOMIC_POSITIONS {angstrom}
Li 1.56926500 0.00000000 -1.1097642100000016 0 0 0
Li 1.56926500 4.43855000 -1.1097642100000016 0 0 0
Li 4.70779500 2.21927500 -3.3290260600000003 0 0 0
Li 4.70779500 6.65782500 -3.3290260600000003 0 0 0
Li 1.80641233 4.42319262 3.64145548
Li 1.78368937 8.86964324 3.62039582
Li 4.73648116 6.65587204 1.12176022
Li 4.79046388 2.22025148 1.12682521
Mg 0.00000000 2.21927500 -1.1097642100000016 0 0 0
Mg 0.00000000 6.65782500 -1.1097642100000016 0 0 0
Mg 3.13853000 4.43855000 -3.3290260600000003 0 0 0
Mg 3.13853000 0.00000000 -3.3290260600000003 0 0 0
Mg 6.23550586 6.63137124 3.50070230
Mg 6.18001665 2.21723327 3.54975265
Mg 3.09553214 0.01251671 1.09616874
Mg 3.08712088 4.42310385 1.09350296
Ga 0.00000000 0.00000000 -3.3290260600000003 0 0 0
Ga 0.00000000 4.43855000 -3.3290260600000003 0 0 0
Ga 3.13853000 6.65782500 -1.1097642100000016 0 0 0
Ga 3.13853000 2.21927500 -1.1097642100000016 0 0 0
Ga 0.04657579 4.43153709 1.20333309
Ga 0.04456713 0.00177542 1.19880127
Ga 3.28127034 2.19983415 3.33888945
Ga 3.22527897 6.65240997 3.39033900
Pd 4.70779500 0.00000000 -1.1097642100000016 0 0 0
Pd 4.70779500 4.43855000 -1.1097642100000016 0 0 0
Pd 1.56926500 2.21927500 -3.3290260600000003 0 0 0
Pd 1.56926500 6.65782500 -3.3290260600000003 0 0 0
Pd 4.63567158 4.45497264 3.18747315
Pd 4.65255687 8.83653165 3.19200497
Pd 1.53505502 6.65862394 1.13508912
Pd 1.51609830 2.21652310 1.26411288
C 0.68608266 2.27422425 5.65545227
O 1.02454173 2.30334114 6.75402021
