&CONTROL
calculation = 'relax'
prefix = 'scf'
pseudo_dir = '/vol0004/mdt0/data/hp150275/u10028/POT_HYBRID_KKJUS_GBRV'
outdir = './data'
tprnfor = .true.
nstep = 50
disk_io = 'non'
/
&SYSTEM
ibrav = 0
ecutwfc = 50.0
ecutrho = 400
occupations = 'smearing'
smearing = 'mp'
degauss = 0.01
assume_isolated = 'esm'
esm_bc = 'bc1'
input_dft = 'BEEF-VDW'
nosym = .true.
nspin = 2
ntyp = 3
nat = 16
starting_magnetization(1) = 0.01
starting_magnetization(2) = 0.0
starting_magnetization(3) = 0.0
/
&ELECTRONS
electron_maxstep = 300
mixing_beta = 0.1
conv_thr = 1e-06
/
&IONS
ion_dynamics = 'bfgs'
upscale = 1.0
/
&CELL
/

K_POINTS {automatic}
8 8 1 0 0 0

ATOMIC_SPECIES
Fe 55.84 fe_pbe_v1.5.uspp.F.UPF
Sn 118.7 Sn.pbe-dn-rrkjus_psl.1.0.0.UPF
V 50.94 V.pbe-spnl-rrkjus_psl.1.0.0.UPF

CELL_PARAMETERS {angstrom}
6.09904000 0.00000000 0.00000000
0.00000000 6.09904000 0.00000000
0.00000000 0.00000000 24.57430000

ATOMIC_POSITIONS {angstrom}
V 0.00000000 0.00000000 -2.2871301000000024 0 0 0
V 3.04952000 3.04952000 -2.2871301000000024 0 0 0
V 3.04952000 0.00000000 0.76229479
V 0.00000000 3.04952000 0.76229479
Fe 1.52476000 1.52476000 -0.7622947900000021 0 0 0
Fe 4.57428000 4.57428000 2.28713010
Fe 4.57428000 1.52476000 -0.7622947900000021 0 0 0
Fe 1.52476000 4.57428000 2.28713010
Fe 4.57428000 4.57428000 -0.7622947900000021 0 0 0
Fe 1.52476000 1.52476000 2.28713010
Fe 1.52476000 4.57428000 -0.7622947900000021 0 0 0
Fe 4.57428000 1.52476000 2.28713010
Sn 0.00000000 0.00000000 0.76229479
Sn 3.04952000 0.00000000 -2.2871301000000024 0 0 0
Sn 0.00000000 3.04952000 -2.2871301000000024 0 0 0
Sn 3.04952000 3.04952000 0.76229479
