&CONTROL
calculation = 'relax'
prefix = 'scf'
pseudo_dir = '/vol0403/data/hp230205/u10028/POT_HYBRID_KKJUS_GBRV'
outdir = './data'
tprnfor = .true.
nstep = 50
disk_io = 'non'
/
&SYSTEM
ibrav = 0
ecutwfc = 50.0
ecutrho = 400
occupations = 'smearing'
smearing = 'mp'
degauss = 0.01
assume_isolated = 'esm'
esm_bc = 'bc1'
input_dft = 'BEEF-VDW'
nosym = .true.
nspin = 1
ntyp = 4
nat = 32
/
&ELECTRONS
electron_maxstep = 200
mixing_beta = 0.1
conv_thr = 1e-06
/
&IONS
ion_dynamics = 'bfgs'
upscale = 1.0
/
&CELL
/

K_POINTS {automatic}
7 7 2 0  0  0

ATOMIC_SPECIES
Al 26.98 Al.pbe-nl-rrkjus_psl.1.0.0.UPF
Cu 63.54 Cu.pbe-dn-rrkjus_psl.1.0.0.UPF
Ge 72.64 Ge.pbe-dn-rrkjus_psl.1.0.0.UPF
Li 6.941 Li.pbe-sl-rrkjus_psl.1.0.0.UPF


CELL_PARAMETERS {angstrom}
7.77412000 0.00000000 0.00000000
0.00000000 7.78580000 0.00000000
0.00000000 0.00000000 25.71220000

ATOMIC_POSITIONS {angstrom}
Li 1.94353000 1.94645000 -2.856111179999999 0 0 0
Li 1.94353000 1.94645000 0.95212277
Li 1.94353000 5.83935000 -2.856111179999999 0 0 0
Li 1.94353000 5.83935000 0.95212277
Li 5.83059000 1.94645000 -2.856111179999999 0 0 0
Li 5.83059000 1.94645000 0.95212277
Li 5.83059000 5.83935000 -2.856111179999999 0 0 0
Li 5.83059000 5.83935000 0.95212277
Al 0.00000000 0.00000000 -2.856111179999999 0 0 0
Al 0.00000000 0.00000000 0.95212277
Al 0.00000000 3.89290000 -2.856111179999999 0 0 0
Al 0.00000000 3.89290000 0.95212277
Al 3.88706000 0.00000000 -2.856111179999999 0 0 0
Al 3.88706000 0.00000000 0.95212277
Al 3.88706000 3.89290000 -2.856111179999999 0 0 0
Al 3.88706000 3.89290000 0.95212277
Cu 0.00000000 1.94645000 -0.952122769999999 0 0 0
Cu 0.00000000 1.94645000 2.85611118
Cu 0.00000000 5.83935000 -0.952122769999999 0 0 0
Cu 0.00000000 5.83935000 2.85611118
Cu 3.88706000 1.94645000 -0.952122769999999 0 0 0
Cu 3.88706000 1.94645000 2.85611118
Cu 3.88706000 5.83935000 -0.952122769999999 0 0 0
Cu 3.88706000 5.83935000 2.85611118
Ge 1.94353000 0.00000000 -0.952122769999999 0 0 0
Ge 1.94353000 0.00000000 2.85611118
Ge 1.94353000 3.89290000 -0.952122769999999 0 0 0
Ge 1.94353000 3.89290000 2.85611118
Ge 5.83059000 0.00000000 -0.952122769999999 0 0 0
Ge 5.83059000 0.00000000 2.85611118
Ge 5.83059000 3.89290000 -0.952122769999999 0 0 0
Ge 5.83059000 3.89290000 2.85611118
