&CONTROL
calculation = 'relax'
prefix = 'scf'
pseudo_dir = '/vol0004/mdt0/data/hp150275/u10028/POT_KKJUS'
outdir = './data'
tprnfor = .true.
nstep = 50
disk_io = 'non'
/
&SYSTEM
ibrav = 0
ecutwfc = 50.0
ecutrho = 400
occupations = 'smearing'
smearing = 'mp'
degauss = 0.01
assume_isolated = 'esm'
esm_bc = 'bc1'
input_dft = 'BEEF-VDW'
nosym = .true.
nspin = 1
ntyp = 4
nat = 33
/
&ELECTRONS
electron_maxstep = 200
mixing_beta = 0.1
conv_thr = 1e-06
/
&IONS
ion_dynamics = 'bfgs'
upscale = 1.0
/
&CELL
/

K_POINTS {automatic}
8 6 1 0 0 0

ATOMIC_SPECIES
Au 196.9 Au.pbe-n-rrkjus_psl.1.0.0.UPF
C 12.01 C.pbe-n-rrkjus_psl.1.0.0.UPF
Ga 69.72 Ga.pbe-dnl-rrkjus_psl.1.0.0.UPF
Li 6.941 Li.pbe-sl-rrkjus_psl.1.0.0.UPF

CELL_PARAMETERS {angstrom}
6.29417000 0.00000000 0.00000000
0.00000000 8.90130000 0.00000000
0.00000000 0.00000000 26.67600000

ATOMIC_POSITIONS {angstrom}
Li 0.00000000 6.67597500 -1.112655959999998 0 0 0
Li 3.14708500 0.00000000 -3.3379678799999972 0 0 0
Li 0.00000000 2.22532500 -1.112655959999998 0 0 0
Li 3.14708500 4.45065000 -3.3379678799999972 0 0 0
Li 1.57354250 2.22532500 -3.3379678799999972 0 0 0
Li 1.57354250 6.67597500 -3.3379678799999972 0 0 0
Li 4.72062750 4.45065000 -1.112655959999998 0 0 0
Li 4.72062750 0.00000000 -1.112655959999998 0 0 0
Li 0.19562280 2.22532500 3.82453812
Li 3.18850064 4.45038296 1.02302460
Li 0.01844192 6.67597500 3.42279756
Li 3.18850064 0.00026704 1.02302460
Li 1.63969423 6.67597500 1.16760852
Li 1.53319687 2.22532500 1.18761552
Li 4.58114869 0.14562527 3.40092324
Li 4.58114869 4.30502473 3.40092324
Ga 0.00000000 0.00000000 -3.3379678799999972 0 0 0
Ga 3.14708500 2.22532500 -1.112655959999998 0 0 0
Ga 3.14708500 6.67597500 -1.112655959999998 0 0 0
Ga 0.00000000 4.45065000 -3.3379678799999972 0 0 0
Ga 6.25823029 4.50058629 1.06917408
Ga 3.16099512 6.67597500 3.60686196
Ga 2.76742067 2.22523599 3.80826576
Ga 6.25829323 8.85136371 1.06944084
Au 1.57354250 0.00000000 -1.112655959999998 0 0 0
Au 1.57354250 4.45065000 -1.112655959999998 0 0 0
Au 4.72062750 6.67597500 -3.3379678799999972 0 0 0
Au 4.72062750 2.22532500 -3.3379678799999972 0 0 0
Au 1.64932431 4.56298441 3.15123588
Au 1.64938725 8.78905461 3.15123588
Au 4.64037683 2.22532500 1.08704700
Au 4.63571915 6.67597500 1.25750664
C 4.58763169 2.22532500 3.28061448
