&CONTROL
calculation = 'relax'
prefix = 'scf'
pseudo_dir = '/vol0004/mdt0/data/hp150275/u10028/POT_KKJUS'
outdir = './data'
tprnfor = .true.
nstep = 50
disk_io = 'non'
/
&SYSTEM
ibrav = 0
ecutwfc = 50.0
ecutrho = 400
occupations = 'smearing'
smearing = 'mp'
degauss = 0.01
assume_isolated = 'esm'
esm_bc = 'bc1'
input_dft = 'BEEF-VDW'
nosym = .true.
nspin = 1
ntyp = 3
nat = 33
/
&ELECTRONS
electron_maxstep = 200
mixing_beta = 0.1
conv_thr = 1e-06
/
&IONS
ion_dynamics = 'bfgs'
upscale = 1.0
/
&CELL
/

K_POINTS {automatic}
8 6 1 0 0 0

ATOMIC_SPECIES
Al 26.98 Al.pbe-nl-rrkjus_psl.1.0.0.UPF
C 12.01 C.pbe-n-rrkjus_psl.1.0.0.UPF
Pt 195.0 Pt.pbe-n-rrkjus_psl.1.0.0.UPF

CELL_PARAMETERS {angstrom}
6.19423000 0.00000000 0.00000000
0.00000000 8.75996000 0.00000000
0.00000000 0.00000000 26.57000000

ATOMIC_POSITIONS {angstrom}
Al 0.00000000 0.00000000 -3.285114799999999 0 0 0
Al 0.00000000 2.18999000 -1.0949497000000008 0 0 0
Al 0.00501733 0.00297839 1.11089170
Al 5.89752638 2.18999000 3.43736090
Al 0.00000000 4.37998000 -3.285114799999999 0 0 0
Al 0.00000000 6.56997000 -1.0949497000000008 0 0 0
Al 0.00501733 4.37700161 1.11089170
Al 0.04881053 6.56997000 3.31699880
Al 3.09711500 0.00000000 -3.285114799999999 0 0 0
Al 3.09711500 2.18999000 -1.0949497000000008 0 0 0
Al 3.09166408 0.00306599 1.11089170
Al 3.39270366 2.18999000 3.43656380
Al 3.09711500 4.37998000 -3.285114799999999 0 0 0
Al 3.09711500 6.56997000 -1.0949497000000008 0 0 0
Al 3.09166408 4.37691401 1.11089170
Al 3.04756116 6.56997000 3.31699880
Pt 1.54855750 2.18999000 -3.285114799999999 0 0 0
Pt 1.54855750 0.00000000 -1.0949497000000008 0 0 0
Pt 1.54812390 2.18999000 1.09866950
Pt 1.54793808 4.44708129 3.16714400
Pt 1.54855750 6.56997000 -3.285114799999999 0 0 0
Pt 1.54855750 4.37998000 -1.0949497000000008 0 0 0
Pt 1.54837167 6.56997000 0.97485330
Pt 1.54793808 8.69285871 3.16714400
Pt 4.64567250 2.18999000 -3.285114799999999 0 0 0
Pt 4.64567250 0.00000000 -1.0949497000000008 0 0 0
Pt 4.64561056 2.18999000 1.01151990
Pt 4.64536279 4.45058528 3.16129860
Pt 4.64567250 6.56997000 -3.285114799999999 0 0 0
Pt 4.64567250 4.37998000 -1.0949497000000008 0 0 0
Pt 4.64548667 6.56997000 0.99345230
Pt 4.64536279 8.68935472 3.16129860
C 1.54793808 2.18999000 3.69482420
