&CONTROL
calculation = 'relax'
prefix = 'scf'
pseudo_dir = '/vol0004/mdt0/data/hp150275/u10028/POT_KKJUS'
outdir = './data'
tprnfor = .true.
nstep = 50
disk_io = 'non'
/
&SYSTEM
ibrav = 0
ecutwfc = 50.0
ecutrho = 400
occupations = 'smearing'
smearing = 'mp'
degauss = 0.01
assume_isolated = 'esm'
esm_bc = 'bc1'
input_dft = 'BEEF-VDW'
nosym = .true.
nspin = 1
ntyp = 5
nat = 34
/
&ELECTRONS
electron_maxstep = 200
mixing_beta = 0.1
conv_thr = 1e-06
/
&IONS
ion_dynamics = 'bfgs'
upscale = 1.0
/
&CELL
/

K_POINTS {automatic}
9 6 2 0  0  0

ATOMIC_SPECIES
C 12.01 C.pbe-n-rrkjus_psl.1.0.0.UPF
Ga 69.72 Ga.pbe-dnl-rrkjus_psl.1.0.0.UPF
Nb 92.90 Nb.pbe-spn-rrkjus_psl.1.0.0.UPF
Ni 58.69 Ni.pbe-spn-rrkjus_psl.1.0.0.UPF
O 15.99 O.pbe-n-rrkjus_psl.1.0.0.UPF

CELL_PARAMETERS {angstrom}
6.01786000 0.00000000 0.00000000
0.00000000 8.51054000 0.00000000
0.00000000 0.00000000 26.38290000

ATOMIC_POSITIONS {angstrom}
Nb 0.00000000 0.00000000 -3.1915394100000007 0 0 0
Nb 3.00893000 2.12763500 -1.0637585299999976 0 0 0
Nb 3.00893000 6.38290500 -1.0637585299999976 0 0 0
Nb 0.00000000 4.25527000 -3.1915394100000007 0 0 0
Nb 5.97633677 4.25535511 1.07747764
Nb 2.91505138 6.45498927 3.16515651
Nb 2.91414871 2.05529541 3.16568417
Nb 0.06294682 0.00127658 1.10465202
Ga 0.00000000 6.38290500 -1.0637585299999976 0 0 0
Ga 3.00893000 0.00000000 -3.1915394100000007 0 0 0
Ga 0.00000000 2.12763500 -1.0637585299999976 0 0 0
Ga 3.00893000 4.25527000 -3.1915394100000007 0 0 0
Ga 5.98861320 2.19231510 3.22873930
Ga 3.00736536 4.25671679 0.98856726
Ga 5.98795124 6.31822490 3.22873930
Ga 2.97739641 8.51036979 1.08486485
Ni 1.50446500 0.00000000 -1.0637585299999976 0 0 0
Ni 4.51339500 4.25527000 -1.0637585299999976 0 0 0
Ni 4.51339500 0.00000000 -1.0637585299999976 0 0 0
Ni 1.50446500 4.25527000 -1.0637585299999976 0 0 0
Ni 4.51339500 6.38290500 -3.1915394100000007 0 0 0
Ni 1.50446500 2.12763500 -3.1915394100000007 0 0 0
Ni 1.50446500 6.38290500 -3.1915394100000007 0 0 0
Ni 4.51339500 2.12763500 -3.1915394100000007 0 0 0
Ni 1.60749076 4.25527000 3.03508882
Ni 4.55696431 0.00008511 3.04353134
Ni 4.34062224 4.25509979 3.07308019
Ni 1.27939704 8.51011447 3.62553812
Ni 4.47421873 2.11163518 1.11256689
Ni 1.53100376 6.34086293 1.07589466
Ni 1.53250823 2.17308128 1.07510317
Ni 4.47632498 6.39975587 1.11124775
C 1.98721773 8.50985916 5.23779714
O 2.34040593 8.51019958 6.34508745
