&CONTROL
calculation = 'relax'
prefix = 'scf'
pseudo_dir = '/vol0004/mdt0/data/hp150275/u10028/POT_KKJUS'
outdir = './data'
tprnfor = .true.
nstep = 50
disk_io = 'non'
/
&SYSTEM
ibrav = 0
ecutwfc = 50.0
ecutrho = 400
occupations = 'smearing'
smearing = 'mp'
degauss = 0.01
assume_isolated = 'esm'
esm_bc = 'bc1'
input_dft = 'BEEF-VDW'
nosym = .true.
nspin = 1
ntyp = 3
nat = 33
/
&ELECTRONS
electron_maxstep = 200
mixing_beta = 0.1
conv_thr = 1e-06
/
&IONS
ion_dynamics = 'bfgs'
upscale = 1.0
/
&CELL
/

K_POINTS {automatic}
9 6 2 0  0  0

ATOMIC_SPECIES
C 12.01 C.pbe-n-rrkjus_psl.1.0.0.UPF
Ga 69.72 Ga.pbe-dnl-rrkjus_psl.1.0.0.UPF
Ni 58.69 Ni.pbe-spn-rrkjus_psl.1.0.0.UPF

CELL_PARAMETERS {angstrom}
5.87849000 0.00000000 0.00000000
0.00000000 8.31345000 0.00000000
0.00000000 0.00000000 26.23510000

ATOMIC_POSITIONS {angstrom}
Ga 0.00000000 0.00000000 -3.1175169300000007 0 0 0
Ga 0.00000000 2.07836250 -1.0391723099999979 0 0 0
Ga 5.86297079 0.00257717 1.02264420
Ga 5.55893528 2.07861190 3.66425642
Ga 0.00000000 4.15672500 -3.1175169300000007 0 0 0
Ga 0.00000000 6.23508750 -1.0391723099999979 0 0 0
Ga 5.86297079 4.15389843 1.02448066
Ga 0.07506832 6.23458869 3.26600760
Ga 2.93924500 0.00000000 -3.1175169300000007 0 0 0
Ga 2.93924500 2.07836250 -1.0391723099999979 0 0 0
Ga 2.95476421 0.00257717 1.02238185
Ga 3.25885850 2.07861190 3.66373171
Ga 2.93924500 4.15672500 -3.1175169300000007 0 0 0
Ga 2.93924500 6.23508750 -1.0391723099999979 0 0 0
Ga 2.95470543 4.15389843 1.02448066
Ga 2.86411790 6.23458869 3.26600760
Ni 1.46962250 2.07836250 -3.1175169300000007 0 0 0
Ni 1.46962250 0.00000000 -1.0391723099999979 0 0 0
Ni 1.46956372 2.07836250 1.08639549
Ni 1.46962250 0.09917946 2.95669577
Ni 1.46962250 6.23508750 -3.1175169300000007 0 0 0
Ni 1.46962250 4.15672500 -1.0391723099999979 0 0 0
Ni 1.46962250 6.23492123 0.99588440
Ni 1.46962250 4.05613225 2.96010633
Ni 4.40886750 2.07836250 -3.1175169300000007 0 0 0
Ni 4.40886750 0.00000000 -1.0391723099999979 0 0 0
Ni 4.40886750 2.07894444 1.02185715
Ni 4.40886750 8.18550600 2.98502968
Ni 4.40886750 6.23508750 -3.1175169300000007 0 0 0
Ni 4.40886750 4.15672500 -1.0391723099999979 0 0 0
Ni 4.40886750 6.23467183 0.99168678
Ni 4.40886750 4.28566661 2.98817789
C 1.46956372 2.07711548 3.06321028
