&CONTROL
calculation = 'relax'
prefix = 'scf'
pseudo_dir = '/vol0004/mdt0/data/hp150275/u10028/POT_KKJUS'
outdir = './data'
tprnfor = .true.
nstep = 50
disk_io = 'non'
/
&SYSTEM
ibrav = 0
ecutwfc = 50.0
ecutrho = 400
occupations = 'smearing'
smearing = 'mp'
degauss = 0.01
assume_isolated = 'esm'
esm_bc = 'bc1'
input_dft = 'BEEF-VDW'
nosym = .true.
nspin = 1
ntyp = 5
nat = 34
/
&ELECTRONS
electron_maxstep = 200
mixing_beta = 0.1
conv_thr = 1e-06
/
&IONS
ion_dynamics = 'bfgs'
upscale = 1.0
/
&CELL
/

K_POINTS {automatic}
9 6 2 0  0  0

ATOMIC_SPECIES
C 12.01 C.pbe-n-rrkjus_psl.1.0.0.UPF
Ga 69.72 Ga.pbe-dnl-rrkjus_psl.1.0.0.UPF
Li 6.941 Li.pbe-sl-rrkjus_psl.1.0.0.UPF
O 15.99 O.pbe-n-rrkjus_psl.1.0.0.UPF
Rh 102.9 Rh.pbe-spn-rrkjus_psl.1.0.0.UPF

CELL_PARAMETERS {angstrom}
6.12388000 0.00000000 0.00000000
0.00000000 8.66047000 0.00000000
0.00000000 0.00000000 26.49540000

ATOMIC_POSITIONS {angstrom}
Li 0.00000000 0.00000000 -3.2478061300000007 0 0 0
Li 3.06194000 2.16511750 -1.0826020400000012 0 0 0
Li 3.06194000 6.49535250 -1.0826020400000012 0 0 0
Li 0.00000000 4.33023500 -3.2478061300000007 0 0 0
Li 0.00006124 4.31455955 1.00629529
Li 3.06181752 6.49535250 3.47937593
Li 3.06212372 2.16433806 3.66060446
Li 0.00000000 0.01602187 1.00629529
Ga 1.53097000 0.00000000 -1.0826020400000012 0 0 0
Ga 4.59291000 4.33023500 -1.0826020400000012 0 0 0
Ga 4.59291000 0.00000000 -1.0826020400000012 0 0 0
Ga 1.53097000 4.33023500 -1.0826020400000012 0 0 0
Ga 4.59291000 6.49535250 -3.2478061300000007 0 0 0
Ga 1.53097000 2.16511750 -3.2478061300000007 0 0 0
Ga 1.53097000 6.49535250 -3.2478061300000007 0 0 0
Ga 4.59291000 2.16511750 -3.2478061300000007 0 0 0
Ga 1.42147503 4.33603751 3.26847254
Ga 4.70350727 8.65310860 3.26900245
Ga 4.70264993 4.33647054 3.26847254
Ga 1.42055644 8.65354162 3.26900245
Ga 4.53081386 2.16529071 1.09293525
Ga 1.56305913 6.49569892 1.08392681
Ga 1.59294367 2.16520410 1.09320020
Ga 4.56100459 6.49561231 1.08445672
Rh 0.00000000 6.49535250 -1.0826020400000012 0 0 0
Rh 3.06194000 0.00000000 -3.2478061300000007 0 0 0
Rh 0.00000000 2.16511750 -1.0826020400000012 0 0 0
Rh 3.06194000 4.33023500 -3.2478061300000007 0 0 0
Rh 6.12357381 2.16468448 3.03981724
Rh 3.06206248 4.34028115 1.03226078
Rh 0.00030619 6.49474627 3.07426126
Rh 3.06224619 8.65128990 1.03279069
C 3.06194000 2.16485769 5.78447573
O 3.06181752 2.16520410 6.92377793
