&CONTROL
calculation = 'relax'
prefix = 'scf'
pseudo_dir = '/vol0004/mdt0/data/hp150275/u10028/POT_KKJUS'
outdir = './data'
tprnfor = .true.
nstep = 50
disk_io = 'non'
/
&SYSTEM
ibrav = 0
ecutwfc = 50.0
ecutrho = 400
occupations = 'smearing'
smearing = 'mp'
degauss = 0.01
assume_isolated = 'esm'
esm_bc = 'bc1'
input_dft = 'BEEF-VDW'
nosym = .true.
nspin = 1
ntyp = 4
nat = 34
/
&ELECTRONS
electron_maxstep = 200
mixing_beta = 0.1
conv_thr = 1e-06
/
&IONS
ion_dynamics = 'bfgs'
upscale = 1.0
/
&CELL
/

K_POINTS {automatic}
9 6 2 0  0  0

ATOMIC_SPECIES
C 12.01 C.pbe-n-rrkjus_psl.1.0.0.UPF
Ga 69.72 Ga.pbe-dnl-rrkjus_psl.1.0.0.UPF
O 15.99 O.pbe-n-rrkjus_psl.1.0.0.UPF
Rh 102.9 Rh.pbe-spn-rrkjus_psl.1.0.0.UPF

CELL_PARAMETERS {angstrom}
6.09666000 0.00000000 0.00000000
0.00000000 8.62198000 0.00000000
0.00000000 0.00000000 26.46650000

ATOMIC_POSITIONS {angstrom}
Ga 0.00000000 0.00000000 -3.2331476399999985 0 0 0
Ga 0.00000000 2.15549500 -1.0777158799999995 0 0 0
Ga 0.00000000 0.00137952 1.09994774
Ga 0.00000000 2.15549500 3.42026580
Ga 0.00000000 4.31099000 -3.2331476399999985 0 0 0
Ga 0.00000000 6.46648500 -1.0777158799999995 0 0 0
Ga 0.00000000 4.30961048 1.09994774
Ga 0.00000000 6.46648500 3.42502977
Ga 3.04833000 0.00000000 -3.2331476399999985 0 0 0
Ga 3.04833000 2.15549500 -1.0777158799999995 0 0 0
Ga 3.04833000 8.62034182 1.09386045
Ga 3.04833000 2.15549500 3.43720436
Ga 3.04833000 4.31099000 -3.2331476399999985 0 0 0
Ga 3.04833000 6.46648500 -1.0777158799999995 0 0 0
Ga 3.04833000 4.31254196 1.09386045
Ga 3.04833000 6.46648500 3.41920714
Rh 1.52416500 2.15549500 -3.2331476399999985 0 0 0
Rh 1.52416500 0.00000000 -1.0777158799999995 0 0 0
Rh 1.52538433 2.15549500 0.99937504
Rh 1.52660366 0.00250037 3.12834030
Rh 1.52416500 6.46648500 -3.2331476399999985 0 0 0
Rh 1.52416500 4.31099000 -1.0777158799999995 0 0 0
Rh 1.52312857 6.46648500 1.00069837
Rh 1.52654270 4.30848963 3.12807564
Rh 4.57249500 2.15549500 -3.2331476399999985 0 0 0
Rh 4.57249500 0.00000000 -1.0777158799999995 0 0 0
Rh 4.57127567 2.15549500 0.99937504
Rh 4.57011730 0.00250037 3.12834030
Rh 4.57249500 6.46648500 -3.2331476399999985 0 0 0
Rh 4.57249500 4.31099000 -1.0777158799999995 0 0 0
Rh 4.57353143 6.46648500 1.00069837
Rh 4.57011730 4.30848963 3.12834030
C 6.09629420 2.15540878 7.19094805
O 0.00000000 2.15549500 8.32556691
