&CONTROL
calculation = 'relax'
prefix = 'scf'
pseudo_dir = '/vol0004/mdt0/data/hp150275/u10028/POT_KKJUS'
outdir = './data'
tprnfor = .true.
nstep = 50
disk_io = 'non'
/
&SYSTEM
ibrav = 0
ecutwfc = 50.0
ecutrho = 400
occupations = 'smearing'
smearing = 'mp'
degauss = 0.01
assume_isolated = 'esm'
esm_bc = 'bc1'
input_dft = 'BEEF-VDW'
nosym = .true.
nspin = 1
ntyp = 2
nat = 16
/
&ELECTRONS
electron_maxstep = 200
mixing_beta = 0.1
conv_thr = 1e-06
/
&IONS
ion_dynamics = 'bfgs'
upscale = 1.0
/
&CELL
/

K_POINTS {automatic}
8 8 1 0 0 0

ATOMIC_SPECIES
Ag 107.8 Ag.pbe-n-rrkjus_psl.1.0.0.UPF
Y 88.90 Y.pbe-spn-rrkjus_psl.1.0.0.UPF

CELL_PARAMETERS {angstrom}
7.32505000 0.00000000 0.00000000
-0.00000000 7.32505000 0.00000000
0.00000000 0.00000000 25.49380000

ATOMIC_POSITIONS {angstrom}
Y 0.00000000 0.00000000 -2.6587484000000003 0 0 0
Y 0.00000000 0.00000000 1.00394584
Y 0.00000000 3.66252500 -2.6587484000000003 0 0 0
Y 0.00000000 3.66252500 1.00394584
Y 3.66252500 0.00000000 -2.6587484000000003 0 0 0
Y 3.66252500 -0.00000000 1.00394584
Y 3.66252500 3.66252500 -2.6587484000000003 0 0 0
Y 3.66252500 3.66252500 1.00394584
Ag 1.83126250 1.83126250 -0.8272738100000012 0 0 0
Ag 1.83126250 1.83126250 2.83516550
Ag 1.83126250 5.49378750 -0.8272738100000012 0 0 0
Ag 1.83126250 5.49378750 2.83516550
Ag 5.49378750 1.83126250 -0.8272738100000012 0 0 0
Ag 5.49378750 1.83126250 2.83516550
Ag 5.49378750 5.49378750 -0.8272738100000012 0 0 0
Ag 5.49378750 5.49378750 2.83516550
