&CONTROL
calculation = 'relax'
prefix = 'scf'
pseudo_dir = '/vol0403/data/hp230205/u10028/POT_HYBRID_KKJUS_GBRV'
outdir = './data'
tprnfor = .true.
nstep = 50
disk_io = 'non'
/
&SYSTEM
ibrav = 0
ecutwfc = 50.0
ecutrho = 400
occupations = 'smearing'
smearing = 'mp'
degauss = 0.01
assume_isolated = 'esm'
esm_bc = 'bc1'
input_dft = 'BEEF-VDW'
nosym = .true.
nspin = 1
ntyp = 6
nat = 18
/
&ELECTRONS
electron_maxstep = 200
mixing_beta = 0.1
conv_thr = 1e-06
/
&IONS
ion_dynamics = 'bfgs'
upscale = 1.0
/
&CELL
/

K_POINTS {automatic}
9 9 2 0  0  0

ATOMIC_SPECIES
C 12.01 C.pbe-n-rrkjus_psl.1.0.0.UPF
Cu 63.54 Cu.pbe-dn-rrkjus_psl.1.0.0.UPF
In 114.8 In.pbe-dn-rrkjus_psl.1.0.0.UPF
Li 6.941 Li.pbe-sl-rrkjus_psl.1.0.0.UPF
O 15.99 O.pbe-n-rrkjus_psl.1.0.0.UPF
Y 88.90 Y.pbe-spn-rrkjus_psl.1.0.0.UPF


CELL_PARAMETERS {angstrom}
6.68415000 0.00000000 0.00000000
0.00000000 6.68415000 0.00000000
0.00000000 0.00000000 25.01310000

ATOMIC_POSITIONS {angstrom}
Li 0.00000000 3.34207500 -2.5065627500000005 0 0 0
Li 0.06657413 6.61764271 0.91497920
Li 3.27630296 3.40731230 0.91848103
Li 3.34207500 0.00000000 -2.5065627500000005 0 0 0
Y 5.01311250 1.67103750 -0.8354375400000009 0 0 0
Y 5.01632089 5.01110726 2.65388991
Y 1.67277538 1.66776227 2.65414004
Y 1.67103750 5.01311250 -0.8354375400000009 0 0 0
In 1.67103750 1.67103750 -0.8354375400000009 0 0 0
In 1.67290906 5.01097357 2.67214947
In 5.01799193 1.66508861 2.28894878
In 5.01311250 5.01311250 -0.8354375400000009 0 0 0
Cu 0.00000000 0.00000000 -2.5065627500000005 0 0 0
Cu 0.05995683 3.39815502 0.87896033
Cu 3.28539341 6.62385897 0.87896033
Cu 3.34207500 3.34207500 -2.5065627500000005 0 0 0
C 4.99914263 1.68935207 4.51111259
O 4.99412951 1.68968628 5.67822383
