&CONTROL
calculation = 'relax'
prefix = 'scf'
pseudo_dir = '/vol0004/mdt0/data/hp150275/u10028/POT_KKJUS'
outdir = './data'
tprnfor = .true.
nstep = 50
disk_io = 'non'
/
&SYSTEM
ibrav = 0
ecutwfc = 50.0
ecutrho = 400
occupations = 'smearing'
smearing = 'mp'
degauss = 0.01
assume_isolated = 'esm'
esm_bc = 'bc1'
input_dft = 'BEEF-VDW'
nosym = .true.
nspin = 1
ntyp = 4
nat = 18
/
&ELECTRONS
electron_maxstep = 200
mixing_beta = 0.1
conv_thr = 1e-06
/
&IONS
ion_dynamics = 'bfgs'
upscale = 1.0
/
&CELL
/

K_POINTS {automatic}
6 8 1 0 0 0

ATOMIC_SPECIES
C 12.01 C.pbe-n-rrkjus_psl.1.0.0.UPF
Nb 92.90 Nb.pbe-spn-rrkjus_psl.1.0.0.UPF
O 15.99 O.pbe-n-rrkjus_psl.1.0.0.UPF
Ru 101.0 Ru.pbe-spn-rrkjus_psl.1.0.0.UPF

CELL_PARAMETERS {angstrom}
7.81108000 0.00000000 0.00000000
0.00000000 5.52327000 0.00000000
0.00000000 0.00000000 24.14240000

ATOMIC_POSITIONS {angstrom}
Nb 0.00000000 0.00000000 -2.0711765 0 0 0
Nb 0.03038510 2.75787918 0.62239107
Nb 3.90554000 0.00000000 -2.0711765 0 0 0
Nb 3.87515490 2.75787918 0.62214965
Ru 0.00000000 2.76163500 -2.0711765 0 0 0
Ru 1.95277000 4.14245250 -0.6904726399999994 0 0 0
Ru 1.95277000 1.38081750 -0.6904726399999994 0 0 0
Ru 7.80084749 5.51719440 0.57845190
Ru 1.95284811 1.42014318 2.00068069
Ru 1.95284811 4.19227240 1.87489878
Ru 3.90554000 2.76163500 -2.0711765 0 0 0
Ru 5.85831000 4.14245250 -0.6904726399999994 0 0 0
Ru 5.85831000 1.38081750 -0.6904726399999994 0 0 0
Ru 3.91577251 5.51719440 0.57845190
Ru 5.85823189 1.34044240 1.86186189
Ru 5.85823189 4.13057747 1.87538163
C 1.95277000 1.39523323 3.91155165
O 1.95277000 1.37794540 5.07280109
