&CONTROL
calculation = 'relax'
prefix = 'scf'
pseudo_dir = '/vol0004/mdt0/data/hp150275/u10028/POT_KKJUS'
outdir = './data'
tprnfor = .true.
nstep = 50
disk_io = 'non'
/
&SYSTEM
ibrav = 0
ecutwfc = 50.0
ecutrho = 400
occupations = 'smearing'
smearing = 'mp'
degauss = 0.01
assume_isolated = 'esm'
esm_bc = 'bc1'
input_dft = 'BEEF-VDW'
nosym = .true.
nspin = 1
ntyp = 5
nat = 18
/
&ELECTRONS
electron_maxstep = 200
mixing_beta = 0.1
conv_thr = 1e-06
/
&IONS
ion_dynamics = 'bfgs'
upscale = 1.0
/
&CELL
/

K_POINTS {automatic}
9 9 2 0  0  0

ATOMIC_SPECIES
C 12.01 C.pbe-n-rrkjus_psl.1.0.0.UPF
Mg 24.30 Mg.pbe-spnl-rrkjus_psl.1.0.0.UPF
Ni 58.69 Ni.pbe-spn-rrkjus_psl.1.0.0.UPF
O 15.99 O.pbe-n-rrkjus_psl.1.0.0.UPF
Sb 121.7 Sb.pbe-n-rrkjus_psl.1.0.0.UPF

CELL_PARAMETERS {angstrom}
6.22749000 0.00000000 0.00000000
-0.00000000 6.22749000 0.00000000
0.00000000 0.00000000 24.67060000

ATOMIC_POSITIONS {angstrom}
Mg 0.00000000 0.00000000 2.33531900
Mg 3.11374500 3.11374500 2.33531900
Mg 3.11374500 0.00000000 -0.7783574299999998 0 0 0
Mg 0.00000000 3.11374500 -0.7783574299999998 0 0 0
Ni 1.55687250 1.55687250 0.77835743
Ni 4.67061750 4.67061750 -2.335319000000002 0 0 0
Ni 4.67061750 1.55687250 0.77835743
Ni 1.55687250 4.67061750 -2.335319000000002 0 0 0
Ni 4.67061750 4.67061750 0.77835743
Ni 1.55687250 1.55687250 -2.335319000000002 0 0 0
Ni 1.55687250 4.67061750 0.77835743
Ni 4.67061750 1.55687250 -2.335319000000002 0 0 0
Sb 0.00000000 0.00000000 -0.7783574299999998 0 0 0
Sb 3.11374500 -0.00000000 2.33531900
Sb 0.00000000 3.11374500 2.33531900
Sb 3.11374500 3.11374500 -0.7783574299999998 0 0 0
C 0.00000000 3.11374500 4.23520190
O 0.00000000 3.11374500 5.38534527
