&CONTROL
calculation = 'relax'
prefix = 'scf'
pseudo_dir = '/vol0004/mdt0/data/hp150275/u10028/POT_KKJUS'
outdir = './data'
tprnfor = .true.
nstep = 50
disk_io = 'non'
/
&SYSTEM
ibrav = 0
ecutwfc = 50.0
ecutrho = 400
occupations = 'smearing'
smearing = 'mp'
degauss = 0.01
assume_isolated = 'esm'
esm_bc = 'bc1'
input_dft = 'BEEF-VDW'
nosym = .true.
nspin = 1
ntyp = 3
nat = 16
/
&ELECTRONS
electron_maxstep = 200
mixing_beta = 0.1
conv_thr = 1e-06
/
&IONS
ion_dynamics = 'bfgs'
upscale = 1.0
/
&CELL
/

K_POINTS {automatic}
10 10 2 0  0  0

ATOMIC_SPECIES
Ga 69.72 Ga.pbe-dnl-rrkjus_psl.1.0.0.UPF
Li 6.941 Li.pbe-sl-rrkjus_psl.1.0.0.UPF
Rh 102.9 Rh.pbe-spn-rrkjus_psl.1.0.0.UPF

CELL_PARAMETERS {angstrom}
6.03399000 0.00000000 0.00000000
0.00000000 6.03399000 0.00000000
0.00000000 0.00000000 24.52550000

ATOMIC_POSITIONS {angstrom}
Li 0.00000000 0.00000000 -0.7541591300000015 0 0 0
Li 3.01699500 0.00000000 2.60460810
Li 0.00000000 3.01699500 2.60460810
Li 3.01699500 3.01699500 -0.7541591300000015 0 0 0
Li 1.50849750 1.50849750 -2.2627226300000025 0 0 0
Li 1.50759240 4.52639760 0.83165971
Li 4.52549250 4.52549250 -2.2627226300000025 0 0 0
Li 4.52639760 1.50759240 0.83165971
Ga 1.51024736 1.51030770 0.77353427
Ga 1.50849750 4.52549250 -2.2627226300000025 0 0 0
Ga 4.52374264 4.52374264 0.77353427
Ga 4.52549250 1.50849750 -2.2627226300000025 0 0 0
Rh 0.00000000 0.00000000 2.05278435
Rh 3.01705534 3.01699500 2.05719894
Rh 3.01699500 0.00000000 -0.7541591300000015 0 0 0
Rh 0.00000000 3.01699500 -0.7541591300000015 0 0 0
