&CONTROL
calculation = 'relax'
prefix = 'scf'
pseudo_dir = '/vol0004/mdt0/data/hp150275/u10028/POT_KKJUS'
outdir = './data'
tprnfor = .true.
nstep = 50
disk_io = 'non'
/
&SYSTEM
ibrav = 0
ecutwfc = 50.0
ecutrho = 400
occupations = 'smearing'
smearing = 'mp'
degauss = 0.01
assume_isolated = 'esm'
esm_bc = 'bc1'
input_dft = 'BEEF-VDW'
nosym = .true.
nspin = 1
ntyp = 3
nat = 32
/
&ELECTRONS
electron_maxstep = 200
mixing_beta = 0.1
conv_thr = 1e-06
/
&IONS
ion_dynamics = 'bfgs'
upscale = 1.0
/
&CELL
/

K_POINTS {automatic}
9 6 2 0  0  0

ATOMIC_SPECIES
Ga 69.72 Ga.pbe-dnl-rrkjus_psl.1.0.0.UPF
Li 6.941 Li.pbe-sl-rrkjus_psl.1.0.0.UPF
Pd 106.4 Pd.pbe-n-rrkjus_psl.1.0.0.UPF

CELL_PARAMETERS {angstrom}
6.24448000 0.00000000 0.00000000
0.00000000 8.83103000 0.00000000
0.00000000 0.00000000 26.62330000

ATOMIC_POSITIONS {angstrom}
Li 0.00000000 0.00000000 -3.3116722900000006 0 0 0
Li 3.12224000 2.20775750 -1.1038020199999998 0 0 0
Li 3.12224000 6.62327250 -1.1038020199999998 0 0 0
Li 0.00000000 4.41551500 -3.3116722900000006 0 0 0
Li 0.00000000 4.41542669 1.12430196
Li 3.12224000 6.62327250 3.71421658
Li 3.12224000 2.20775750 3.71448282
Li 0.00000000 0.00000000 1.12403573
Ga 1.56112000 0.00000000 -1.1038020199999998 0 0 0
Ga 4.68336000 4.41551500 -1.1038020199999998 0 0 0
Ga 4.68336000 0.00000000 -1.1038020199999998 0 0 0
Ga 1.56112000 4.41551500 -1.1038020199999998 0 0 0
Ga 4.68336000 6.62327250 -3.3116722900000006 0 0 0
Ga 1.56112000 2.20775750 -3.3116722900000006 0 0 0
Ga 1.56112000 6.62327250 -3.3116722900000006 0 0 0
Ga 4.68336000 2.20775750 -3.3116722900000006 0 0 0
Ga 1.52309112 4.41551500 3.52625609
Ga 4.72138888 0.00000000 3.52625609
Ga 4.72138888 4.41551500 3.52625609
Ga 1.52309112 0.00000000 3.52625609
Ga 4.60586600 2.20775750 1.20843159
Ga 1.63855155 6.62327250 1.20843159
Ga 1.63861400 2.20775750 1.20843159
Ga 4.60592845 6.62327250 1.20843159
Pd 0.00000000 6.62327250 -1.1038020199999998 0 0 0
Pd 3.12224000 0.00000000 -3.3116722900000006 0 0 0
Pd 0.00000000 2.20775750 -1.1038020199999998 0 0 0
Pd 3.12224000 4.41551500 -3.3116722900000006 0 0 0
Pd 0.00000000 2.20775750 3.18175058
Pd 3.12224000 4.41551500 1.01674383
Pd 0.00000000 6.62327250 3.18175058
Pd 3.12224000 0.00000000 1.01674383
