&CONTROL
calculation = 'relax'
prefix = 'scf'
pseudo_dir = '/vol0004/mdt0/data/hp150275/u10028/POT_HYBRID_KKJUS_GBRV'
outdir = './data'
tprnfor = .true.
nstep = 50
disk_io = 'non'
/
&SYSTEM
ibrav = 0
ecutwfc = 50.0
ecutrho = 400
occupations = 'smearing'
smearing = 'mp'
degauss = 0.01
assume_isolated = 'esm'
esm_bc = 'bc1'
input_dft = 'BEEF-VDW'
nosym = .true.
nspin = 2
ntyp = 4
nat = 34
starting_magnetization(1) = 0.1
starting_magnetization(2) = 0.1
starting_magnetization(3) = 0.1
starting_magnetization(4) = 0.1
/
&ELECTRONS
electron_maxstep = 200
mixing_beta = 0.1
conv_thr = 1e-06
/
&IONS
ion_dynamics = 'bfgs'
upscale = 1.0
/
&CELL
/

K_POINTS {automatic}
9 6 2 0  0  0

ATOMIC_SPECIES
C 12.01 C.pbe-n-rrkjus_psl.1.0.0.UPF
In 114.8 In.pbe-dn-rrkjus_psl.1.0.0.UPF
Ni 58.69 ni_pbe_v1.4.uspp.F.UPF
O 15.99 O.pbe-n-rrkjus_psl.1.0.0.UPF

CELL_PARAMETERS {angstrom}
6.35210000 0.00000000 0.00000000
0.00000000 8.98322000 0.00000000
0.00000000 0.00000000 26.73740000

ATOMIC_POSITIONS {angstrom}
In 0.00000000 0.00000000 -3.3686450299999997 0 0 0
In 0.00000000 2.24580500 -1.122970800000001 0 0 0
In 0.03404726 0.00000000 1.15131244
In 6.32122879 2.30096197 3.53628852
In 0.00000000 4.49161000 -3.3686450299999997 0 0 0
In 0.00000000 6.73741500 -1.122970800000001 0 0 0
In 6.34886043 4.49161000 1.09623340
In 6.32122879 6.68225803 3.53628852
In 3.17605000 0.00000000 -3.3686450299999997 0 0 0
In 3.17605000 2.24580500 -1.122970800000001 0 0 0
In 3.14200274 0.00000000 1.15131244
In 3.20692121 2.30096197 3.53628852
In 3.17605000 4.49161000 -3.3686450299999997 0 0 0
In 3.17605000 6.73741500 -1.122970800000001 0 0 0
In 3.17928957 4.49161000 1.09623340
In 3.20692121 6.68225803 3.53628852
Ni 1.58802500 2.24580500 -3.3686450299999997 0 0 0
Ni 1.58802500 0.00000000 -1.122970800000001 0 0 0
Ni 1.58802500 2.24302020 1.17350449
Ni 1.58802500 0.00008983 3.50928375
Ni 1.58802500 6.73741500 -3.3686450299999997 0 0 0
Ni 1.58802500 4.49161000 -1.122970800000001 0 0 0
Ni 1.58802500 6.74019980 1.17350449
Ni 1.58802500 4.49152017 3.20474476
Ni 4.76407500 2.24580500 -3.3686450299999997 0 0 0
Ni 4.76407500 0.00000000 -1.122970800000001 0 0 0
Ni 4.76407500 2.21660954 1.08607319
Ni 4.76407500 0.00008983 3.18656333
Ni 4.76407500 6.73741500 -3.3686450299999997 0 0 0
Ni 4.76407500 4.49161000 -1.122970800000001 0 0 0
Ni 4.76407500 6.76661047 1.08607319
Ni 4.76407500 4.49152017 3.21116174
C 1.58802500 0.00000000 5.27929963
O 1.58802500 0.00000000 6.43729642
