&CONTROL
calculation = 'relax'
prefix = 'scf'
pseudo_dir = '/vol0403/data/hp230205/u10028/POT_HYBRID_KKJUS_GBRV'
outdir = './data'
tprnfor = .true.
nstep = 50
disk_io = 'non'
/
&SYSTEM
ibrav = 0
ecutwfc = 50.0
ecutrho = 400
occupations = 'smearing'
smearing = 'mp'
degauss = 0.01
assume_isolated = 'esm'
esm_bc = 'bc1'
input_dft = 'BEEF-VDW'
nosym = .true.
nspin = 1
ntyp = 6
nat = 34
/
&ELECTRONS
electron_maxstep = 200
mixing_beta = 0.1
conv_thr = 1e-06
/
&IONS
ion_dynamics = 'bfgs'
upscale = 1.0
/
&CELL
/

K_POINTS {automatic}
9 6 2 0  0  0

ATOMIC_SPECIES
C 12.01 C.pbe-n-rrkjus_psl.1.0.0.UPF
In 114.8 In.pbe-dn-rrkjus_psl.1.0.0.UPF
Li 6.941 Li.pbe-sl-rrkjus_psl.1.0.0.UPF
O 15.99 O.pbe-n-rrkjus_psl.1.0.0.UPF
Pd 106.4 Pd.pbe-n-rrkjus_psl.1.0.0.UPF
Rh 102.9 Rh.pbe-spn-rrkjus_psl.1.0.0.UPF


CELL_PARAMETERS {angstrom}
6.29773000 0.00000000 0.00000000
0.00000000 8.90634000 0.00000000
0.00000000 0.00000000 26.67980000

ATOMIC_POSITIONS {angstrom}
Li 0.00000000 2.22658500 -1.113348049999999 0 0 0
Li 0.00000000 6.67975500 -1.113348049999999 0 0 0
Li 3.14886500 4.45317000 -3.3397773599999994 0 0 0
Li 3.14886500 0.00000000 -3.3397773599999994 0 0 0
Li 0.01385501 6.67975500 3.56815645
Li 6.27348374 2.22649594 3.60390738
Li 3.14483445 0.00240471 1.11308126
Li 3.14483445 4.45076529 1.11308126
In 0.00000000 0.00000000 -3.3397773599999994 0 0 0
In 0.00000000 4.45317000 -3.3397773599999994 0 0 0
In 3.14886500 6.67975500 -1.113348049999999 0 0 0
In 3.14886500 2.22658500 -1.113348049999999 0 0 0
In 6.29558877 4.45993882 1.09653978
In 6.29565175 8.89957118 1.09680658
In 3.11114160 2.22658500 3.50625932
In 3.10484387 6.67975500 3.58309714
Pd 4.72329750 0.00000000 -1.113348049999999 0 0 0
Pd 4.72329750 4.45317000 -1.113348049999999 0 0 0
Pd 1.57443250 2.22658500 -3.3397773599999994 0 0 0
Pd 1.57443250 6.67975500 -3.3397773599999994 0 0 0
Pd 4.68721151 4.46911235 3.26027156
Pd 4.68714853 8.89039765 3.26027156
Pd 1.59949747 6.67975500 1.17604558
Pd 1.57525120 2.22658500 1.16057130
Rh 1.57443250 0.00000000 -1.113348049999999 0 0 0
Rh 1.57443250 4.45317000 -1.113348049999999 0 0 0
Rh 4.72329750 2.22658500 -3.3397773599999994 0 0 0
Rh 4.72329750 6.67975500 -3.3397773599999994 0 0 0
Rh 1.61656431 4.46109664 3.22745541
Rh 1.61662729 8.89841336 3.22745541
Rh 4.69590237 6.67975500 1.21233011
Rh 4.71296922 2.22658500 1.19445465
C 6.26302951 2.22658500 5.75136449
O 0.02040465 2.22667406 6.88872436
