&CONTROL
calculation = 'relax'
prefix = 'scf'
pseudo_dir = '/vol0004/mdt0/data/hp150275/u10028/POT_KKJUS'
outdir = './data'
tprnfor = .true.
nstep = 50
disk_io = 'non'
/
&SYSTEM
ibrav = 0
ecutwfc = 50.0
ecutrho = 400
occupations = 'smearing'
smearing = 'mp'
degauss = 0.01
assume_isolated = 'esm'
esm_bc = 'bc1'
input_dft = 'BEEF-VDW'
nosym = .true.
nspin = 1
ntyp = 5
nat = 34
/
&ELECTRONS
electron_maxstep = 200
mixing_beta = 0.1
conv_thr = 1e-06
/
&IONS
ion_dynamics = 'bfgs'
upscale = 1.0
/
&CELL
/

K_POINTS {automatic}
8 6 1 0 0 0

ATOMIC_SPECIES
Al 26.98 Al.pbe-nl-rrkjus_psl.1.0.0.UPF
C 12.01 C.pbe-n-rrkjus_psl.1.0.0.UPF
Nb 92.90 Nb.pbe-spn-rrkjus_psl.1.0.0.UPF
Ni 58.69 Ni.pbe-spn-rrkjus_psl.1.0.0.UPF
O 15.99 O.pbe-n-rrkjus_psl.1.0.0.UPF

CELL_PARAMETERS {angstrom}
6.01786000 0.00000000 0.00000000
0.00000000 8.51054000 0.00000000
0.00000000 0.00000000 26.38290000

ATOMIC_POSITIONS {angstrom}
Nb 0.00000000 0.00000000 -3.1915394100000007 0 0 0
Nb 3.00893000 2.12763500 -1.0637585299999976 0 0 0
Nb 3.00893000 6.38290500 -1.0637585299999976 0 0 0
Nb 0.00000000 4.25527000 -3.1915394100000007 0 0 0
Nb 6.01779982 4.28837600 1.06270321
Nb 3.00893000 6.38299011 3.25459454
Nb 3.00886982 2.12772011 3.15776930
Nb 0.00000000 8.47751910 1.06270321
Al 0.00000000 6.38290500 -1.0637585299999976 0 0 0
Al 3.00893000 0.00000000 -3.1915394100000007 0 0 0
Al 0.00000000 2.12763500 -1.0637585299999976 0 0 0
Al 3.00893000 4.25527000 -3.1915394100000007 0 0 0
Al 0.00000000 2.12772011 3.22161592
Al 3.00893000 4.22429163 1.03051607
Al 0.00000000 6.38299011 3.18415220
Al 3.00893000 0.03106347 1.03051607
Ni 1.50446500 0.00000000 -1.0637585299999976 0 0 0
Ni 4.51339500 4.25527000 -1.0637585299999976 0 0 0
Ni 4.51339500 0.00000000 -1.0637585299999976 0 0 0
Ni 1.50446500 4.25527000 -1.0637585299999976 0 0 0
Ni 4.51339500 6.38290500 -3.1915394100000007 0 0 0
Ni 1.50446500 2.12763500 -3.1915394100000007 0 0 0
Ni 1.50446500 6.38290500 -3.1915394100000007 0 0 0
Ni 4.51339500 2.12763500 -3.1915394100000007 0 0 0
Ni 1.55387163 4.27237619 3.02611863
Ni 4.46386801 8.49351892 3.02638246
Ni 4.46386801 4.27237619 3.02611863
Ni 1.55393181 8.49360403 3.02638246
Ni 4.56617163 2.12763500 1.13578384
Ni 1.61326791 6.38299011 1.13077109
Ni 1.45162819 2.12763500 1.13578384
Ni 4.40459209 6.38299011 1.13077109
C 0.00006018 2.12763500 5.21326104
O 0.00006018 2.12763500 6.36698526
