&CONTROL
calculation = 'relax'
prefix = 'scf'
pseudo_dir = '/vol0403/data/hp230205/u10028/POT_HYBRID_KKJUS_GBRV'
outdir = './data'
tprnfor = .true.
nstep = 70
disk_io = 'non'
/
&SYSTEM
ibrav = 0
ecutwfc = 50.0
ecutrho = 400
occupations = 'smearing'
smearing = 'mp'
degauss = 0.01
assume_isolated = 'esm'
esm_bc = 'bc1'
input_dft = 'BEEF-VDW'
nosym = .true.
nspin = 1
ntyp = 6
nat = 18
/
&ELECTRONS
electron_maxstep = 200
mixing_beta = 0.1
conv_thr = 1e-06
/
&IONS
ion_dynamics = 'bfgs'
upscale = 1.0
/
&CELL
/

K_POINTS {automatic}
8 10 2 0  0  0

ATOMIC_SPECIES
Al 26.98 Al.pbe-nl-rrkjus_psl.1.0.0.UPF
C 12.01 C.pbe-n-rrkjus_psl.1.0.0.UPF
In 114.8 In.pbe-dn-rrkjus_psl.1.0.0.UPF
O 15.99 O.pbe-n-rrkjus_psl.1.0.0.UPF
Pd 106.4 Pd.pbe-n-rrkjus_psl.1.0.0.UPF
Y 88.90 Y.pbe-spn-rrkjus_psl.1.0.0.UPF


CELL_PARAMETERS {angstrom}
8.16174000 0.00000000 0.00000000
-0.00000000 6.39385000 0.00000000
0.00000000 0.00000000 24.79180000

ATOMIC_POSITIONS {angstrom}
Y 2.02525416 4.88253568 0.83399615
Y 2.04043500 1.41188996 -2.39587955 0 0 0
Y 6.13640422 4.88247174 0.83399615
Y 6.12130500 1.41188996 -2.39587955 0 0 0
Al 0.00008162 6.19749487 2.72288339
Al 0.00000000 3.07250068 -0.7985438799999969 0 0 0
Al 4.08087000 0.58932115 1.82021396
Al 4.08087000 3.07250068 -0.7985438799999969 0 0 0
In 1.60043560 1.64718364 1.13174567
In 2.04043500 4.60881496 -2.39587955 0 0 0
In 6.56130440 1.64718364 1.13174567
In 6.12130500 4.60881496 -2.39587955 0 0 0
Pd 0.00008162 3.69161717 2.37009608
Pd 0.00000000 6.26942568 -0.7985438799999969 0 0 0
Pd 4.08078838 3.08247508 1.76815118
Pd 4.08087000 6.26942568 -0.7985438799999969 0 0 0
C 0.00008162 0.73132856 4.48657205
O 0.00008162 1.17116150 5.55137986
