&CONTROL
calculation = 'relax'
prefix = 'scf'
pseudo_dir = '/vol0403/data/hp230205/u10028/POT_HYBRID_KKJUS_GBRV'
outdir = './data'
tprnfor = .true.
nstep = 70
disk_io = 'non'
/
&SYSTEM
ibrav = 0
ecutwfc = 50.0
ecutrho = 400
occupations = 'smearing'
smearing = 'mp'
degauss = 0.01
assume_isolated = 'esm'
esm_bc = 'bc1'
input_dft = 'BEEF-VDW'
nosym = .true.
nspin = 1
ntyp = 6
nat = 34
/
&ELECTRONS
electron_maxstep = 200
mixing_beta = 0.1
conv_thr = 1e-06
/
&IONS
ion_dynamics = 'bfgs'
upscale = 1.0
/
&CELL
/

K_POINTS {automatic}
6 6 1 0 0 0

ATOMIC_SPECIES
C 12.01 C.pbe-n-rrkjus_psl.1.0.0.UPF
Li 6.941 Li.pbe-sl-rrkjus_psl.1.0.0.UPF
O 15.99 O.pbe-n-rrkjus_psl.1.0.0.UPF
Pb 207.2 Pb.pbe-dn-rrkjus_psl.1.0.0.UPF
Pd 106.4 Pd.pbe-n-rrkjus_psl.1.0.0.UPF
Y 88.90 Y.pbe-spn-rrkjus_psl.1.0.0.UPF


CELL_PARAMETERS {angstrom}
6.89083000 0.00000000 0.00000000
-0.00000000 9.74510000 0.00000000
0.00000000 0.00000000 27.30880000

ATOMIC_POSITIONS {angstrom}
Li 0.00000000 0.00000000 -3.6544636200000014 0 0 0
Li 0.00000000 4.87255000 -3.6544636200000014 0 0 0
Li 3.44541500 7.30882500 -1.2182455700000006 0 0 0
Li 3.44541500 2.43627500 -1.2182455700000006 0 0 0
Li 6.87870214 4.87255000 1.30071814
Li 0.02584061 0.00000000 1.26357818
Li 2.19466045 2.41327656 5.01116480
Li 2.19445372 7.33182344 5.01116480
Y 5.16812250 0.00000000 -1.2182455700000006 0 0 0
Y 5.16812250 4.87255000 -1.2182455700000006 0 0 0
Y 1.72270750 2.43627500 -3.6544636200000014 0 0 0
Y 1.72270750 7.30882500 -3.6544636200000014 0 0 0
Y 4.98510206 4.87255000 3.61732365
Y 5.00343166 -0.00000000 3.62360467
Y 1.77797196 7.29440225 1.37745587
Y 1.77790305 2.45069775 1.37745587
Pd 0.00000000 2.43627500 -1.2182455700000006 0 0 0
Pd 0.00000000 7.30882500 -1.2182455700000006 0 0 0
Pd 3.44541500 4.87255000 -3.6544636200000014 0 0 0
Pd 3.44541500 0.00000000 -3.6544636200000014 0 0 0
Pd 6.77726912 7.27335284 3.50481139
Pd 6.77733803 2.47184461 3.50453830
Pd 3.39759264 -0.00000000 1.17018208
Pd 3.46298662 4.87255000 1.20513734
Pb 1.72270750 0.00000000 -1.2182455700000006 0 0 0
Pb 1.72270750 4.87255000 -1.2182455700000006 0 0 0
Pb 5.16812250 2.43627500 -3.6544636200000014 0 0 0
Pb 5.16812250 7.30882500 -3.6544636200000014 0 0 0
Pb 1.66964811 4.87255000 3.78827674
Pb 1.65049160 -0.00000000 3.73611693
Pb 5.13559778 7.31993441 1.19366765
Pb 5.13559778 2.42516559 1.19366765
C 4.84170388 9.74480765 6.09532416
O 4.84645856 9.74471020 7.25103258
