&CONTROL
calculation = 'relax'
prefix = 'scf'
pseudo_dir = '/vol0004/mdt0/data/hp150275/u10028/POT_KKJUS'
outdir = './data'
tprnfor = .true.
nstep = 50
disk_io = 'non'
/
&SYSTEM
ibrav = 0
ecutwfc = 50.0
ecutrho = 400
occupations = 'smearing'
smearing = 'mp'
degauss = 0.01
assume_isolated = 'esm'
esm_bc = 'bc1'
input_dft = 'BEEF-VDW'
nosym = .true.
nspin = 1
ntyp = 4
nat = 18
/
&ELECTRONS
electron_maxstep = 200
mixing_beta = 0.1
conv_thr = 1e-06
/
&IONS
ion_dynamics = 'bfgs'
upscale = 1.0
/
&CELL
/

K_POINTS {automatic}
6 8 1 0 0 0

ATOMIC_SPECIES
C 12.01 C.pbe-n-rrkjus_psl.1.0.0.UPF
Nb 92.90 Nb.pbe-spn-rrkjus_psl.1.0.0.UPF
O 15.99 O.pbe-n-rrkjus_psl.1.0.0.UPF
Zn 65.40 Zn.pbe-dnl-rrkjus_psl.1.0.0.UPF

CELL_PARAMETERS {angstrom}
7.89001000 0.00000000 0.00000000
0.00000000 5.57908000 0.00000000
0.00000000 0.00000000 24.18430000

ATOMIC_POSITIONS {angstrom}
Nb 0.00000000 0.00000000 -2.09218379 0 0 0
Nb 7.88669620 2.79366852 0.65902218
Nb 3.94500500 0.00000000 -2.09218379 0 0 0
Nb 3.94823990 2.79305482 0.65926402
Zn 0.00000000 2.78954000 -2.09218379 0 0 0
Zn 1.97250250 4.18431000 -0.6974752100000003 0 0 0
Zn 1.97250250 1.39477000 -0.6974752100000003 0 0 0
Zn 0.03132334 0.01511931 0.88248511
Zn 1.97423830 1.47064549 2.15070980
Zn 1.97187130 4.12695706 2.02761171
Zn 3.94500500 2.78954000 -2.09218379 0 0 0
Zn 5.91750750 4.18431000 -0.6974752100000003 0 0 0
Zn 5.91750750 1.39477000 -0.6974752100000003 0 0 0
Zn 3.91376056 0.01539826 0.88079221
Zn 5.91671850 1.44314062 2.04454072
Zn 5.91758640 4.17008335 2.02688618
C 1.97684201 1.01349567 4.16018329
O 1.97337040 0.96216814 5.30579358
