&CONTROL
calculation = 'relax'
prefix = 'scf'
pseudo_dir = '/vol0004/mdt0/data/hp150275/u10028/POT_KKJUS'
outdir = './data'
tprnfor = .true.
nstep = 50
disk_io = 'non'
/
&SYSTEM
ibrav = 0
ecutwfc = 50.0
ecutrho = 400
occupations = 'smearing'
smearing = 'mp'
degauss = 0.01
assume_isolated = 'esm'
esm_bc = 'bc1'
input_dft = 'BEEF-VDW'
nosym = .true.
nspin = 1
ntyp = 4
nat = 17
/
&ELECTRONS
electron_maxstep = 200
mixing_beta = 0.1
conv_thr = 1e-06
/
&IONS
ion_dynamics = 'bfgs'
upscale = 1.0
/
&CELL
/

K_POINTS {automatic}
10 10 2 0  0  0

ATOMIC_SPECIES
C 12.01 C.pbe-n-rrkjus_psl.1.0.0.UPF
In 114.8 In.pbe-dn-rrkjus_psl.1.0.0.UPF
Li 6.941 Li.pbe-sl-rrkjus_psl.1.0.0.UPF
Pd 106.4 Pd.pbe-n-rrkjus_psl.1.0.0.UPF

CELL_PARAMETERS {angstrom}
6.46446000 0.00000000 0.00000000
0.00000000 6.46446000 0.00000000
0.00000000 0.00000000 24.84830000

ATOMIC_POSITIONS {angstrom}
Li 0.00000000 0.00000000 -0.8080667199999993 0 0 0
Li 3.31310039 0.08093504 2.79245195
Li 6.38346032 3.15161818 2.79270044
Li 3.23223000 3.23223000 -0.8080667199999993 0 0 0
Li 1.61611500 1.61611500 -2.4242001499999972 0 0 0
Li 1.61592107 4.84866822 0.90099936
Li 4.84834500 4.84834500 -2.4242001499999972 0 0 0
Li 4.84789249 1.61572713 0.63139530
In 1.61598571 1.61566249 0.85105427
In 1.61611500 4.84834500 -2.4242001499999972 0 0 0
In 4.84847429 4.84782784 0.85055731
In 4.84834500 1.61611500 -2.4242001499999972 0 0 0
Pd 6.16509086 0.30117919 2.33176447
Pd 3.53379706 2.93014578 2.33101902
Pd 3.23223000 0.00000000 -0.8080667199999993 0 0 0
Pd 0.00000000 3.23223000 -0.8080667199999993 0 0 0
C 4.84840964 1.61585642 2.88563308
