&CONTROL
calculation = 'relax'
prefix = 'scf'
pseudo_dir = '/vol0403/data/hp230205/u10028/POT_HYBRID_KKJUS_GBRV'
outdir = './data'
tprnfor = .true.
nstep = 50
disk_io = 'non'
/
&SYSTEM
ibrav = 0
ecutwfc = 50.0
ecutrho = 400
occupations = 'smearing'
smearing = 'mp'
degauss = 0.01
assume_isolated = 'esm'
esm_bc = 'bc1'
input_dft = 'BEEF-VDW'
nosym = .true.
nspin = 2
ntyp = 5
nat = 17
starting_magnetization(1) = 0.0
starting_magnetization(2) = 0.0
starting_magnetization(3) = 0.1
starting_magnetization(4) = 0.0
starting_magnetization(5) = 0.0
/
&ELECTRONS
electron_maxstep = 400
mixing_beta = 0.05
conv_thr = 1e-06
/
&IONS
ion_dynamics = 'bfgs'
upscale = 1.0
/
&CELL
/

K_POINTS {automatic}
12 7 2 0  0  0

ATOMIC_SPECIES
Al 26.98 Al.pbe-nl-rrkjus_psl.1.0.0.UPF
C 12.01 C.pbe-n-rrkjus_psl.1.0.0.UPF
Fe 55.84 fe_pbe_v1.5.uspp.F.UPF
Li 6.941 Li.pbe-sl-rrkjus_psl.1.0.0.UPF
Pd 106.4 Pd.pbe-n-rrkjus_psl.1.0.0.UPF


CELL_PARAMETERS {angstrom}
5.25393000 0.00000000 0.00000000
0.00000000 8.60712000 0.00000000
0.00000000 0.00000000 23.58290000

ATOMIC_POSITIONS {angstrom}
Li 3.39372354 2.15178000 22.98578097
Li 5.03305478 2.13628718 1.96681386
Li 3.39372354 6.45534000 22.98578097
Li 5.03263447 6.47117710 1.96728552
Al 0.00000000 0.00000000 21.79154292
Al 1.38719514 0.00017214 0.32544402
Al 0.00000000 4.30356000 21.79154292
Al 1.63192320 4.30304357 0.62589017
Fe 0.76675854 2.15178000 22.98578097
Fe 2.34598482 1.74449108 1.51378635
Fe 0.76675854 6.45534000 22.98578097
Fe 2.34503912 6.86125178 1.51237138
Pd 2.62696500 0.00000000 21.79154292
Pd 4.22510543 8.60677572 0.58697838
Pd 2.62696500 4.30356000 21.79154292
Pd 4.24438735 4.30381821 0.62848428
C 2.50171131 8.60625929 1.98827430
