&CONTROL
calculation = 'relax'
prefix = 'scf'
pseudo_dir = '/vol0403/data/hp230205/u10028/POT_HYBRID_KKJUS_GBRV'
outdir = './data'
tprnfor = .true.
nstep = 70
disk_io = 'non'
/
&SYSTEM
ibrav = 0
ecutwfc = 50.0
ecutrho = 400
occupations = 'smearing'
smearing = 'mp'
degauss = 0.01
assume_isolated = 'esm'
esm_bc = 'bc1'
input_dft = 'BEEF-VDW'
nosym = .true.
nspin = 1
ntyp = 6
nat = 18
/
&ELECTRONS
electron_maxstep = 200
mixing_beta = 0.1
conv_thr = 1e-06
/
&IONS
ion_dynamics = 'bfgs'
upscale = 1.0
/
&CELL
/

K_POINTS {automatic}
6 6 1 0 0 0

ATOMIC_SPECIES
C 12.01 C.pbe-n-rrkjus_psl.1.0.0.UPF
Cu 63.54 Cu.pbe-dn-rrkjus_psl.1.0.0.UPF
Li 6.941 Li.pbe-sl-rrkjus_psl.1.0.0.UPF
O 15.99 O.pbe-n-rrkjus_psl.1.0.0.UPF
Pd 106.4 Pd.pbe-n-rrkjus_psl.1.0.0.UPF
Si 28.08 Si.pbe-nl-rrkjus_psl.1.0.0.UPF


CELL_PARAMETERS {angstrom}
5.89837000 0.00000000 0.00000000
-0.00000000 5.89837000 0.00000000
0.00000000 0.00000000 24.42380000

ATOMIC_POSITIONS {angstrom}
Li 1.47459250 1.47459250 0.73735452
Li 1.47459250 4.42377750 -2.211819330000001 0 0 0
Li 4.42377750 1.47459250 -2.211819330000001 0 0 0
Li 4.42377750 4.42377750 0.73735452
Cu 0.00000000 0.00000000 2.21181933
Cu 0.00000000 2.94918500 -0.7373545200000002 0 0 0
Cu 2.94918500 0.00000000 -0.7373545200000002 0 0 0
Cu 2.94918500 2.94918500 2.21181933
Si 4.42377750 1.47459250 0.73735452
Si 4.42377750 4.42377750 -2.211819330000001 0 0 0
Si 1.47459250 1.47459250 -2.211819330000001 0 0 0
Si 1.47459250 4.42377750 0.73735452
Pd 0.00000000 2.94918500 2.21181933
Pd 0.00000000 0.00000000 -0.7373545200000002 0 0 0
Pd 2.94918500 2.94918500 -0.7373545200000002 0 0 0
Pd 2.94918500 -0.00000000 2.21181933
C 0.00000000 2.94918500 4.11199097
O 0.00000000 2.94918500 5.26186347
