&CONTROL
calculation = 'relax'
prefix = 'scf'
pseudo_dir = '/vol0403/data/hp230205/u10028/POT_HYBRID_KKJUS_GBRV'
outdir = './data'
tprnfor = .true.
nstep = 70
disk_io = 'non'
/
&SYSTEM
ibrav = 0
ecutwfc = 50.0
ecutrho = 400
occupations = 'smearing'
smearing = 'mp'
degauss = 0.01
assume_isolated = 'esm'
esm_bc = 'bc1'
input_dft = 'BEEF-VDW'
nosym = .true.
nspin = 1
ntyp = 6
nat = 34
/
&ELECTRONS
electron_maxstep = 200
mixing_beta = 0.1
conv_thr = 1e-06
/
&IONS
ion_dynamics = 'bfgs'
upscale = 1.0
/
&CELL
/

K_POINTS {automatic}
6 6 1 0 0 0

ATOMIC_SPECIES
Al 26.98 Al.pbe-nl-rrkjus_psl.1.0.0.UPF
C 12.01 C.pbe-n-rrkjus_psl.1.0.0.UPF
Cu 63.54 Cu.pbe-dn-rrkjus_psl.1.0.0.UPF
In 114.8 In.pbe-dn-rrkjus_psl.1.0.0.UPF
Li 6.941 Li.pbe-sl-rrkjus_psl.1.0.0.UPF
O 15.99 O.pbe-n-rrkjus_psl.1.0.0.UPF


CELL_PARAMETERS {angstrom}
6.37467000 0.00000000 0.00000000
-0.00000000 9.01514000 0.00000000
0.00000000 0.00000000 26.76140000

ATOMIC_POSITIONS {angstrom}
Li 4.78100250 0.00000000 -1.1269225499999997 0 0 0
Li 4.78100250 4.50757000 -1.1269225499999997 0 0 0
Li 1.59366750 2.25378500 -3.38076766 0 0 0
Li 1.59366750 6.76135500 -3.38076766 0 0 0
Li 4.58600134 4.51117606 3.99173042
Li 4.58593760 9.01153394 3.99173042
Li 1.44991869 6.76135500 1.19141753
Li 1.43602191 2.25378500 1.19382605
Al 0.00000000 0.00000000 -3.38076766 0 0 0
Al 0.00000000 4.50757000 -3.38076766 0 0 0
Al 3.18733500 6.76135500 -1.1269225499999997 0 0 0
Al 3.18733500 2.25378500 -1.1269225499999997 0 0 0
Al 6.22677766 4.52064195 1.35974673
Al 6.22677766 9.00215820 1.35974673
Al 2.98098693 2.25378500 3.32644202
Al 3.04683727 6.76135500 3.41368418
In 0.00000000 2.25378500 -1.1269225499999997 0 0 0
In 0.00000000 6.76135500 -1.1269225499999997 0 0 0
In 3.18733500 4.50757000 -3.38076766 0 0 0
In 3.18733500 0.00000000 -3.38076766 0 0 0
In 6.30104256 6.76135500 3.69441127
In 0.00624718 2.25378500 3.80038641
In 3.22889785 8.97583399 1.15983908
In 3.22889785 4.54696616 1.15983908
Cu 1.59366750 0.00000000 -1.1269225499999997 0 0 0
Cu 1.59366750 4.50757000 -1.1269225499999997 0 0 0
Cu 4.78100250 2.25378500 -3.38076766 0 0 0
Cu 4.78100250 6.76135500 -3.38076766 0 0 0
Cu 1.59028892 4.54254874 3.22983337
Cu 1.59028892 8.98016126 3.22983337
Cu 4.85265379 6.76135500 1.07473782
Cu 4.84455796 2.25378500 1.22219314
C 3.16177257 2.25378500 5.28939071
O 3.23482629 2.25378500 6.45163831
