&CONTROL
calculation = 'relax'
prefix = 'scf'
pseudo_dir = '/vol0004/mdt0/data/hp150275/u10028/POT_HYBRID_KKJUS_GBRV'
outdir = './data'
tprnfor = .true.
nstep = 50
disk_io = 'non'
/
&SYSTEM
ibrav = 0
ecutwfc = 50.0
ecutrho = 400
occupations = 'smearing'
smearing = 'mp'
degauss = 0.01
assume_isolated = 'esm'
esm_bc = 'bc1'
input_dft = 'BEEF-VDW'
nosym = .true.
nspin = 2
ntyp = 5
nat = 34
starting_magnetization(1) = 0.0
starting_magnetization(2) = 0.0
starting_magnetization(3) = 0.001
starting_magnetization(4) = 0.0
starting_magnetization(5) = 0.0
/
&ELECTRONS
electron_maxstep = 300
mixing_beta = 0.1
conv_thr = 1e-06
/
&IONS
ion_dynamics = 'bfgs'
upscale = 1.0
/
&CELL
/

K_POINTS {automatic}
9 6 2 0  0  0

ATOMIC_SPECIES
C 12.01 C.pbe-n-rrkjus_psl.1.0.0.UPF
Li 6.941 Li.pbe-sl-rrkjus_psl.1.0.0.UPF
Ni 58.69 ni_pbe_v1.4.uspp.F.UPF
O 15.99 O.pbe-n-rrkjus_psl.1.0.0.UPF
Si 28.08 Si.pbe-nl-rrkjus_psl.1.0.0.UPF

CELL_PARAMETERS {angstrom}
5.56332000 0.00000000 0.00000000
0.00000000 7.86772000 0.00000000
0.00000000 0.00000000 25.90080000

ATOMIC_POSITIONS {angstrom}
Li 0.00000000 0.00000000 -2.95036013 0 0 0
Li 2.78166000 1.96693000 -0.9834533800000003 0 0 0
Li 2.78166000 5.90079000 -0.9834533800000003 0 0 0
Li 0.00000000 3.93386000 -2.95036013 0 0 0
Li 0.00000000 3.93165704 0.88580736
Li 2.78166000 5.90023926 3.52432186
Li 2.78166000 1.96763809 3.61005350
Li 0.00005563 0.00196693 0.88813843
Si 0.00000000 5.90079000 -0.9834533800000003 0 0 0
Si 2.78166000 0.00000000 -2.95036013 0 0 0
Si 0.00000000 1.96693000 -0.9834533800000003 0 0 0
Si 2.78166000 3.93386000 -2.95036013 0 0 0
Si 0.00000000 1.96653661 2.91176794
Si 2.78166000 3.93386000 1.01220326
Si 0.00000000 5.90149809 2.92420032
Si 2.78166000 7.86740529 1.01272128
Ni 1.39083000 0.00000000 -0.9834533800000003 0 0 0
Ni 4.17249000 3.93386000 -0.9834533800000003 0 0 0
Ni 4.17249000 0.00000000 -0.9834533800000003 0 0 0
Ni 1.39083000 3.93386000 -0.9834533800000003 0 0 0
Ni 4.17249000 5.90079000 -2.95036013 0 0 0
Ni 1.39083000 1.96693000 -2.95036013 0 0 0
Ni 1.39083000 5.90079000 -2.95036013 0 0 0
Ni 4.17249000 1.96693000 -2.95036013 0 0 0
Ni 1.27722701 3.93511884 2.80557466
Ni 4.28503596 7.86661852 2.80583366
Ni 4.28609299 3.93511884 2.80557466
Ni 1.27833967 7.86669720 2.80583366
Ni 4.13938825 1.96653661 1.00261997
Ni 1.41920293 5.90118339 0.99640378
Ni 1.42393175 1.96645794 1.00261997
Ni 4.14417270 5.90126206 0.99640378
C 2.78166000 1.96669397 5.75204966
O 2.78166000 1.96645794 6.88935379
