&CONTROL
calculation = 'relax'
prefix = 'scf'
pseudo_dir = '/vol0004/mdt0/data/hp150275/u10028/POT_KKJUS'
outdir = './data'
tprnfor = .true.
nstep = 50
disk_io = 'non'
/
&SYSTEM
ibrav = 0
ecutwfc = 50.0
ecutrho = 400
occupations = 'smearing'
smearing = 'mp'
degauss = 0.01
assume_isolated = 'esm'
esm_bc = 'bc1'
input_dft = 'BEEF-VDW'
nosym = .true.
nspin = 1
ntyp = 4
nat = 33
/
&ELECTRONS
electron_maxstep = 200
mixing_beta = 0.1
conv_thr = 1e-06
/
&IONS
ion_dynamics = 'bfgs'
upscale = 1.0
/
&CELL
/

K_POINTS {automatic}
9 6 2 0  0  0

ATOMIC_SPECIES
C 12.01 C.pbe-n-rrkjus_psl.1.0.0.UPF
In 114.8 In.pbe-dn-rrkjus_psl.1.0.0.UPF
Ni 58.69 Ni.pbe-spn-rrkjus_psl.1.0.0.UPF
Ti 47.86 Ti.pbe-spn-rrkjus_psl.1.0.0.UPF

CELL_PARAMETERS {angstrom}
6.14958000 0.00000000 0.00000000
0.00000000 8.69682000 0.00000000
0.00000000 0.00000000 26.52260000

ATOMIC_POSITIONS {angstrom}
Ti 0.00000000 0.00000000 -3.2612188999999994 0 0 0
Ti 3.07479000 2.17420500 -1.0871613700000005 0 0 0
Ti 3.07479000 6.52261500 -1.0871613700000005 0 0 0
Ti 0.00000000 4.34841000 -3.2612188999999994 0 0 0
Ti 0.00012299 4.34867090 1.15452878
Ti 3.07472850 6.51009158 3.16308528
Ti 3.07479000 2.18664145 3.16282005
Ti 0.00024598 0.00008697 1.30119876
In 0.00000000 6.52261500 -1.0871613700000005 0 0 0
In 3.07479000 0.00000000 -3.2612188999999994 0 0 0
In 0.00000000 2.17420500 -1.0871613700000005 0 0 0
In 3.07479000 4.34841000 -3.2612188999999994 0 0 0
In 0.00018449 2.31857221 3.62988304
In 3.07485150 4.34867090 0.99804544
In 6.14945701 6.37842172 3.63067871
In 3.07479000 8.69664606 1.07018691
Ni 1.53739500 0.00000000 -1.0871613700000005 0 0 0
Ni 4.61218500 4.34841000 -1.0871613700000005 0 0 0
Ni 4.61218500 0.00000000 -1.0871613700000005 0 0 0
Ni 1.53739500 4.34841000 -1.0871613700000005 0 0 0
Ni 4.61218500 6.52261500 -3.2612188999999994 0 0 0
Ni 1.53739500 2.17420500 -3.2612188999999994 0 0 0
Ni 1.53739500 6.52261500 -3.2612188999999994 0 0 0
Ni 4.61218500 2.17420500 -3.2612188999999994 0 0 0
Ni 1.64704201 4.34841000 3.15592417
Ni 4.35113533 8.69673303 3.39224054
Ni 4.50259948 4.34841000 3.15592417
Ni 1.79881365 0.00000000 3.39250577
Ni 4.66175061 2.19751248 1.15320265
Ni 1.48764490 6.49956843 1.15346787
Ni 1.48819836 2.19777338 1.15293742
Ni 4.66193510 6.49965540 1.15346787
C 0.00024598 0.00008697 3.44952936
