&CONTROL
calculation = 'relax'
prefix = 'scf'
pseudo_dir = '/vol0004/mdt0/data/hp150275/u10028/POT_HYBRID_KKJUS_GBRV'
outdir = './data'
tprnfor = .true.
nstep = 50
disk_io = 'non'
/
&SYSTEM
ibrav = 0
ecutwfc = 50.0
ecutrho = 400
occupations = 'smearing'
smearing = 'mp'
degauss = 0.01
assume_isolated = 'esm'
esm_bc = 'bc1'
input_dft = 'BEEF-VDW'
nosym = .true.
nspin = 2
ntyp = 4
nat = 33
starting_magnetization(1) = 0.0
starting_magnetization(2) = 0.001
starting_magnetization(3) = 0.0
starting_magnetization(4) = 0.0
/
&ELECTRONS
electron_maxstep = 300
mixing_beta = 0.1
conv_thr = 1e-06
/
&IONS
ion_dynamics = 'bfgs'
upscale = 1.0
/
&CELL
/

K_POINTS {automatic}
9 6 2 0  0  0

ATOMIC_SPECIES
C 12.01 C.pbe-n-rrkjus_psl.1.0.0.UPF
Ni 58.69 ni_pbe_v1.4.uspp.F.UPF
Sc 44.95 Sc.pbe-spn-rrkjus_psl.1.0.0.UPF
Sn 118.7 Sn.pbe-dn-rrkjus_psl.1.0.0.UPF

CELL_PARAMETERS {angstrom}
6.29417000 0.00000000 0.00000000
0.00000000 8.90130000 0.00000000
0.00000000 0.00000000 26.67600000

ATOMIC_POSITIONS {angstrom}
Sc 0.00000000 0.00000000 -3.3379678799999972 0 0 0
Sc 3.14708500 2.22532500 -1.112655959999998 0 0 0
Sc 3.14708500 6.67597500 -1.112655959999998 0 0 0
Sc 0.00000000 4.45065000 -3.3379678799999972 0 0 0
Sc 0.00000000 4.45100605 1.10198556
Sc 3.14708500 6.64811393 3.38571792
Sc 3.14714794 2.25309706 3.38571792
Sc 0.00000000 8.90112197 1.18174680
Ni 1.57354250 0.00000000 -1.112655959999998 0 0 0
Ni 4.72062750 4.45065000 -1.112655959999998 0 0 0
Ni 4.72062750 0.00000000 -1.112655959999998 0 0 0
Ni 1.57354250 4.45065000 -1.112655959999998 0 0 0
Ni 4.72062750 6.67597500 -3.3379678799999972 0 0 0
Ni 1.57354250 2.22532500 -3.3379678799999972 0 0 0
Ni 1.57354250 6.67597500 -3.3379678799999972 0 0 0
Ni 4.72062750 2.22532500 -3.3379678799999972 0 0 0
Ni 1.64227484 4.44993790 3.17844540
Ni 4.50832515 0.00008901 3.34410336
Ni 4.65195811 4.44993790 3.17844540
Ni 1.78584485 0.00008901 3.34410336
Ni 4.72207516 2.24998160 1.17454428
Ni 1.57247249 6.65158544 1.17561132
Ni 1.57209484 2.24998160 1.17481104
Ni 4.72169751 6.65167445 1.17561132
Sn 0.00000000 6.67597500 -1.112655959999998 0 0 0
Sn 3.14708500 0.00000000 -3.3379678799999972 0 0 0
Sn 0.00000000 2.22532500 -1.112655959999998 0 0 0
Sn 3.14708500 4.45065000 -3.3379678799999972 0 0 0
Sn 0.00000000 2.35288063 3.51776412
Sn 3.14708500 4.45056099 1.05636960
Sn 0.00000000 6.54824135 3.51829764
Sn 3.14708500 0.00026704 1.07824392
C 0.00000000 0.00008901 3.58445412
