&CONTROL
calculation = 'relax'
prefix = 'scf'
pseudo_dir = '/vol0004/mdt0/data/hp150275/u10028/POT_KKJUS'
outdir = './data'
tprnfor = .true.
nstep = 50
disk_io = 'non'
/
&SYSTEM
ibrav = 0
ecutwfc = 50.0
ecutrho = 400
occupations = 'smearing'
smearing = 'mp'
degauss = 0.01
assume_isolated = 'esm'
esm_bc = 'bc1'
input_dft = 'BEEF-VDW'
nosym = .true.
nspin = 1
ntyp = 4
nat = 17
/
&ELECTRONS
electron_maxstep = 200
mixing_beta = 0.1
conv_thr = 1e-06
/
&IONS
ion_dynamics = 'bfgs'
upscale = 1.0
/
&CELL
/

K_POINTS {automatic}
8 8 1 0 0 0

ATOMIC_SPECIES
Al 26.98 Al.pbe-nl-rrkjus_psl.1.0.0.UPF
C 12.01 C.pbe-n-rrkjus_psl.1.0.0.UPF
Li 6.941 Li.pbe-sl-rrkjus_psl.1.0.0.UPF
Rh 102.9 Rh.pbe-spn-rrkjus_psl.1.0.0.UPF

CELL_PARAMETERS {angstrom}
6.01864000 0.00000000 0.00000000
0.00000000 6.01864000 0.00000000
0.00000000 0.00000000 24.51400000

ATOMIC_POSITIONS {angstrom}
Li 0.00000000 0.00000000 -0.7523346599999989 0 0 0
Li 3.02352399 0.01077337 2.67031002
Li 6.00786663 2.99511601 2.67031002
Li 3.00932000 3.00932000 -0.7523346599999989 0 0 0
Li 1.50466000 1.50466000 -2.2570039800000004 0 0 0
Li 1.50598410 4.51265590 0.84132048
Li 4.51398000 4.51398000 -2.2570039800000004 0 0 0
Li 4.51085031 1.50778969 0.54200454
Al 5.83368719 0.18495281 2.19302244
Al 3.19529598 2.82334402 2.19571898
Al 3.00932000 0.00000000 -0.7523346599999989 0 0 0
Al 0.00000000 3.00932000 -0.7523346599999989 0 0 0
Rh 1.50520168 1.50490075 0.76385624
Rh 1.50466000 4.51398000 -2.2570039800000004 0 0 0
Rh 4.51373925 4.51343832 0.76385624
Rh 4.51398000 1.50466000 -2.2570039800000004 0 0 0
C 4.51488280 1.50375720 2.66099470
