&CONTROL
calculation = 'relax'
prefix = 'scf'
pseudo_dir = '/vol0004/mdt0/data/hp150275/u10028/POT_KKJUS'
outdir = './data'
tprnfor = .true.
nstep = 50
disk_io = 'non'
/
&SYSTEM
ibrav = 0
ecutwfc = 50.0
ecutrho = 400
occupations = 'smearing'
smearing = 'mp'
degauss = 0.01
assume_isolated = 'esm'
esm_bc = 'bc1'
input_dft = 'BEEF-VDW'
nosym = .true.
nspin = 1
ntyp = 3
nat = 16
/
&ELECTRONS
electron_maxstep = 200
mixing_beta = 0.1
conv_thr = 1e-06
/
&IONS
ion_dynamics = 'bfgs'
upscale = 1.0
/
&CELL
/

K_POINTS {automatic}
10 10 2 0  0  0

ATOMIC_SPECIES
In 114.8 In.pbe-dn-rrkjus_psl.1.0.0.UPF
Li 6.941 Li.pbe-sl-rrkjus_psl.1.0.0.UPF
Mg 24.30 Mg.pbe-spnl-rrkjus_psl.1.0.0.UPF

CELL_PARAMETERS {angstrom}
6.75535000 0.00000000 0.00000000
-0.00000000 6.75535000 0.00000000
0.00000000 0.00000000 25.06650000

ATOMIC_POSITIONS {angstrom}
Li 1.68883750 1.68883750 -0.8444903799999999 0 0 0
Li 5.06651250 5.06651250 2.53322049
Li 5.06651250 1.68883750 -0.8444903799999999 0 0 0
Li 1.68883750 5.06651250 2.53322049
Li 5.06651250 5.06651250 -0.8444903799999999 0 0 0
Li 1.68883750 1.68883750 2.53322049
Li 1.68883750 5.06651250 -0.8444903799999999 0 0 0
Li 5.06651250 1.68883750 2.53322049
Mg 0.00000000 0.00000000 -2.5332204900000015 0 0 0
Mg 3.37767500 3.37767500 -2.5332204900000015 0 0 0
Mg 3.37767500 -0.00000000 0.84449038
Mg 0.00000000 3.37767500 0.84449038
In 0.00000000 0.00000000 0.84449038
In 3.37767500 0.00000000 -2.5332204900000015 0 0 0
In 0.00000000 3.37767500 -2.5332204900000015 0 0 0
In 3.37767500 3.37767500 0.84449038
