&CONTROL
calculation = 'relax'
prefix = 'scf'
pseudo_dir = '/vol0004/mdt0/data/hp150275/u10028/POT_KKJUS'
outdir = './data'
tprnfor = .true.
nstep = 50
disk_io = 'non'
/
&SYSTEM
ibrav = 0
ecutwfc = 50.0
ecutrho = 400
occupations = 'smearing'
smearing = 'mp'
degauss = 0.01
assume_isolated = 'esm'
esm_bc = 'bc1'
input_dft = 'BEEF-VDW'
nosym = .true.
nspin = 1
ntyp = 4
nat = 33
/
&ELECTRONS
electron_maxstep = 200
mixing_beta = 0.1
conv_thr = 1e-06
/
&IONS
ion_dynamics = 'bfgs'
upscale = 1.0
/
&CELL
/

K_POINTS {automatic}
9 6 2 0  0  0

ATOMIC_SPECIES
C 12.01 C.pbe-n-rrkjus_psl.1.0.0.UPF
In 114.8 In.pbe-dn-rrkjus_psl.1.0.0.UPF
Pt 195.0 Pt.pbe-n-rrkjus_psl.1.0.0.UPF
Zr 91.22 Zr.pbe-spn-rrkjus_psl.1.0.0.UPF

CELL_PARAMETERS {angstrom}
6.69031000 0.00000000 0.00000000
0.00000000 9.46152000 0.00000000
0.00000000 0.00000000 27.09610000

ATOMIC_POSITIONS {angstrom}
Zr 0.00000000 0.00000000 -3.547963329999998 0 0 0
Zr 3.34515500 2.36538000 -1.1827447599999985 0 0 0
Zr 3.34515500 7.09614000 -1.1827447599999985 0 0 0
Zr 0.00000000 4.73076000 -3.547963329999998 0 0 0
Zr 0.00000000 4.73076000 1.24642060
Zr 3.34515500 7.11335997 3.33525895
Zr 3.34515500 2.34816003 3.33525895
Zr 0.00000000 0.00000000 1.44286732
In 0.00000000 7.09614000 -1.1827447599999985 0 0 0
In 3.34515500 0.00000000 -3.547963329999998 0 0 0
In 0.00000000 2.36538000 -1.1827447599999985 0 0 0
In 3.34515500 4.73076000 -3.547963329999998 0 0 0
In 0.00000000 2.55498886 3.85116869
In 3.34515500 4.73076000 1.07029595
In 0.00000000 6.90653114 3.85116869
In 3.34515500 0.00000000 1.16486134
Pt 1.67257750 0.00000000 -1.1827447599999985 0 0 0
Pt 5.01773250 4.73076000 -1.1827447599999985 0 0 0
Pt 5.01773250 0.00000000 -1.1827447599999985 0 0 0
Pt 1.67257750 4.73076000 -1.1827447599999985 0 0 0
Pt 5.01773250 7.09614000 -3.547963329999998 0 0 0
Pt 1.67257750 2.36538000 -3.547963329999998 0 0 0
Pt 1.67257750 7.09614000 -3.547963329999998 0 0 0
Pt 5.01773250 2.36538000 -3.547963329999998 0 0 0
Pt 1.81809174 4.73076000 3.40787650
Pt 4.73780993 0.00000000 3.73411354
Pt 4.87221826 4.73076000 3.40787650
Pt 1.95250007 0.00000000 3.73411354
Pt 5.08450179 2.36528538 1.14914560
Pt 1.60580821 7.09623462 1.14914560
Pt 1.60580821 2.36528538 1.14914560
Pt 5.08450179 7.09623462 1.14914560
C 0.00000000 0.00000000 3.77475769
