&CONTROL
calculation = 'relax'
prefix = 'scf'
pseudo_dir = '/vol0004/mdt0/data/hp150275/u10028/POT_HYBRID_KKJUS_GBRV'
outdir = './data'
tprnfor = .true.
nstep = 50
disk_io = 'non'
/
&SYSTEM
ibrav = 0
ecutwfc = 50.0
ecutrho = 400
occupations = 'smearing'
smearing = 'mp'
degauss = 0.01
assume_isolated = 'esm'
esm_bc = 'bc1'
input_dft = 'BEEF-VDW'
nosym = .true.
nspin = 2
ntyp = 5
nat = 34
starting_magnetization(1) = 0.0
starting_magnetization(2) = 0.0
starting_magnetization(3) = 0.0
starting_magnetization(4) = 0.001
starting_magnetization(5) = 0.0
/
&ELECTRONS
electron_maxstep = 200
mixing_beta = 0.1
conv_thr = 1e-06
/
&IONS
ion_dynamics = 'bfgs'
upscale = 1.0
/
&CELL
/

K_POINTS {automatic}
9 6 2 0  0  0

ATOMIC_SPECIES
Al 26.98 Al.pbe-nl-rrkjus_psl.1.0.0.UPF
C 12.01 C.pbe-n-rrkjus_psl.1.0.0.UPF
Nb 92.90 Nb.pbe-spn-rrkjus_psl.1.0.0.UPF
Ni 58.69 ni_pbe_v1.4.uspp.F.UPF
O 15.99 O.pbe-n-rrkjus_psl.1.0.0.UPF

CELL_PARAMETERS {angstrom}
6.00915000 0.00000000 0.00000000
0.00000000 8.49821000 0.00000000
0.00000000 0.00000000 26.37370000

ATOMIC_POSITIONS {angstrom}
Nb 0.00000000 0.00000000 23.18696583
Nb 3.00457500 2.12455250 25.31136736
Nb 3.00457500 6.37365750 25.31136736
Nb 0.00000000 4.24910500 23.18696583
Nb 0.00000000 4.28607221 1.05310184
Nb 3.00457500 6.37365750 3.26611901
Nb 3.00457500 2.12455250 3.19385507
Nb 0.00000000 8.46115780 1.05310184
Al 0.00000000 6.37365750 25.31136736
Al 3.00457500 0.00000000 23.18696583
Al 0.00000000 2.12455250 25.31136736
Al 3.00457500 4.24910500 23.18696583
Al 0.00000000 2.12455250 3.18172317
Al 3.00457500 4.21485721 1.05389305
Al 0.00000000 6.37365750 3.15587694
Al 3.00457500 0.03433277 1.05389305
Ni 1.50228750 0.00000000 25.31136736
Ni 4.50686250 4.24910500 25.31136736
Ni 4.50686250 0.00000000 25.31136736
Ni 1.50228750 4.24910500 25.31136736
Ni 4.50686250 6.37365750 23.18696583
Ni 1.50228750 2.12455250 23.18696583
Ni 1.50228750 6.37365750 23.18696583
Ni 4.50686250 2.12455250 23.18696583
Ni 1.50613336 4.25768819 3.04827225
Ni 4.50301664 8.48962681 3.04827225
Ni 4.50301664 4.25768819 3.04827225
Ni 1.50613336 8.48962681 3.04827225
Ni 4.57092004 2.12455250 1.04993700
Ni 1.63821447 6.37365750 1.15253069
Ni 1.43822996 2.12455250 1.04993700
Ni 4.37093553 6.37357252 1.15253069
C 3.00457500 2.12455250 5.32880609
O 3.00457500 2.12455250 6.48450162
