&CONTROL
calculation = 'relax'
prefix = 'scf'
pseudo_dir = '/vol0004/mdt0/data/hp150275/u10028/POT_HYBRID_KKJUS_GBRV'
outdir = './data'
tprnfor = .true.
nstep = 50
disk_io = 'non'
/
&SYSTEM
ibrav = 0
ecutwfc = 50.0
ecutrho = 400
occupations = 'smearing'
smearing = 'mp'
degauss = 0.01
assume_isolated = 'esm'
esm_bc = 'bc1'
input_dft = 'BEEF-VDW'
nosym = .true.
nspin = 2
ntyp = 5
nat = 34
starting_magnetization(1) = 0.0
starting_magnetization(2) = 0.0
starting_magnetization(3) = 0.0
starting_magnetization(4) = 0.001
starting_magnetization(5) = 0.0
/
&ELECTRONS
electron_maxstep = 200
mixing_beta = 0.1
conv_thr = 1e-06
/
&IONS
ion_dynamics = 'bfgs'
upscale = 1.0
/
&CELL
/

K_POINTS {automatic}
9 6 2 0  0  0

ATOMIC_SPECIES
C 12.01 C.pbe-n-rrkjus_psl.1.0.0.UPF
Hf 178.4 Hf.pbe-spn-rrkjus_psl.1.0.0.UPF
In 114.8 In.pbe-dn-rrkjus_psl.1.0.0.UPF
Ni 58.69 ni_pbe_v1.4.uspp.F.UPF
O 15.99 O.pbe-n-rrkjus_psl.1.0.0.UPF

CELL_PARAMETERS {angstrom}
6.30953000 0.00000000 0.00000000
0.00000000 8.92302000 0.00000000
0.00000000 0.00000000 26.69230000

ATOMIC_POSITIONS {angstrom}
Hf 0.00000000 0.00000000 23.34615327
Hf 3.15476500 2.23075500 25.57682878
Hf 3.15476500 6.69226500 25.57682878
Hf 0.00000000 4.46151000 23.34615327
Hf 6.29634308 4.46159923 1.14536659
Hf 3.14845547 6.67664971 3.27434444
Hf 3.14832928 2.24610259 3.27327675
Hf 6.30012880 0.00017846 1.15924659
In 0.00000000 6.69226500 25.57682878
In 3.15476500 0.00000000 23.34615327
In 0.00000000 2.23075500 25.57682878
In 3.15476500 4.46151000 23.34615327
In 6.28290378 2.25761329 3.50710130
In 3.14750904 4.46195615 1.04713893
In 6.28277759 6.66531748 3.50816899
In 3.10094471 8.92275231 1.09838814
Ni 1.57738250 0.00000000 25.57682878
Ni 4.73214750 4.46151000 25.57682878
Ni 4.73214750 0.00000000 25.57682878
Ni 1.57738250 4.46151000 25.57682878
Ni 4.73214750 6.69226500 23.34615327
Ni 1.57738250 2.23075500 23.34615327
Ni 1.57738250 6.69226500 23.34615327
Ni 4.73214750 2.23075500 23.34615327
Ni 1.61000277 4.46159923 3.19640292
Ni 4.73385107 8.92284154 3.16543986
Ni 4.66450934 4.46159923 3.21642215
Ni 1.64060399 8.92248462 3.47613823
Ni 4.70716176 2.22308120 1.16965659
Ni 1.58438608 6.68432351 1.18086735
Ni 1.58425989 2.23932110 1.17926581
Ni 4.70672009 6.70011726 1.17019043
C 2.16347474 0.00000000 5.15908774
O 2.40292141 8.92284154 6.29911588
