&CONTROL
calculation = 'relax'
prefix = 'scf'
pseudo_dir = '/vol0403/data/hp230205/u10028/POT_HYBRID_KKJUS_GBRV'
outdir = './data'
tprnfor = .true.
nstep = 50
disk_io = 'non'
/
&SYSTEM
ibrav = 0
ecutwfc = 50.0
ecutrho = 400
occupations = 'smearing'
smearing = 'mp'
degauss = 0.01
assume_isolated = 'esm'
esm_bc = 'bc1'
input_dft = 'BEEF-VDW'
nosym = .true.
nspin = 1
ntyp = 6
nat = 18
/
&ELECTRONS
electron_maxstep = 200
mixing_beta = 0.1
conv_thr = 1e-06
/
&IONS
ion_dynamics = 'bfgs'
upscale = 1.0
/
&CELL
/

K_POINTS {automatic}
9 9 2 0  0  0

ATOMIC_SPECIES
C 12.01 C.pbe-n-rrkjus_psl.1.0.0.UPF
Ge 72.64 Ge.pbe-dn-rrkjus_psl.1.0.0.UPF
Li 6.941 Li.pbe-sl-rrkjus_psl.1.0.0.UPF
O 15.99 O.pbe-n-rrkjus_psl.1.0.0.UPF
Pd 106.4 Pd.pbe-n-rrkjus_psl.1.0.0.UPF
Sc 44.95 Sc.pbe-spn-rrkjus_psl.1.0.0.UPF


CELL_PARAMETERS {angstrom}
6.30999000 0.00000000 0.00000000
0.00000000 6.30999000 0.00000000
0.00000000 0.00000000 24.73250000

ATOMIC_POSITIONS {angstrom}
Li 4.73249250 1.57749750 -0.7887194200000032 0 0 0
Li 4.72378471 4.74687928 2.94069425
Li 1.56298452 1.58633149 2.94069425
Li 1.57749750 4.73249250 -0.7887194200000032 0 0 0
Sc 0.00000000 3.15499500 -2.3661582700000032 0 0 0
Sc 6.30368001 0.00624689 0.80726880
Sc 3.16483858 3.14508832 0.80998938
Sc 3.15499500 0.00000000 -2.3661582700000032 0 0 0
Ge 0.00000000 0.00000000 -2.3661582700000032 0 0 0
Ge 6.27616845 3.12294025 0.90248893
Ge 3.18698665 0.03382155 0.90248893
Ge 3.15499500 3.15499500 -2.3661582700000032 0 0 0
Pd 1.57749750 1.57749750 -0.7887194200000032 0 0 0
Pd 1.57875950 4.73123050 2.20317110
Pd 4.73640469 1.57364841 2.48487428
Pd 4.73249250 4.73249250 -0.7887194200000032 0 0 0
C 4.74864607 1.56134393 4.43824713
O 4.74334568 1.56658122 5.59993265
