&CONTROL
calculation = 'relax'
prefix = 'scf'
pseudo_dir = '/vol0004/mdt0/data/hp150275/u10028/POT_KKJUS'
outdir = './data'
tprnfor = .true.
nstep = 50
disk_io = 'non'
/
&SYSTEM
ibrav = 0
ecutwfc = 50.0
ecutrho = 400
occupations = 'smearing'
smearing = 'mp'
degauss = 0.01
assume_isolated = 'esm'
esm_bc = 'bc1'
input_dft = 'BEEF-VDW'
nosym = .true.
nspin = 1
ntyp = 3
nat = 33
/
&ELECTRONS
electron_maxstep = 200
mixing_beta = 0.1
conv_thr = 1e-06
/
&IONS
ion_dynamics = 'bfgs'
upscale = 1.0
/
&CELL
/

K_POINTS {automatic}
9 6 2 0  0  0

ATOMIC_SPECIES
C 12.01 C.pbe-n-rrkjus_psl.1.0.0.UPF
Mg 24.30 Mg.pbe-spnl-rrkjus_psl.1.0.0.UPF
Pd 106.4 Pd.pbe-n-rrkjus_psl.1.0.0.UPF

CELL_PARAMETERS {angstrom}
6.43103000 0.00000000 0.00000000
0.00000000 9.09485000 0.00000000
0.00000000 0.00000000 26.82110000

ATOMIC_POSITIONS {angstrom}
Mg 0.00000000 0.00000000 -3.4105710800000004 0 0 0
Mg 0.00000000 2.27371250 -1.1369464300000018 0 0 0
Mg 0.02553119 4.54742500 1.13801927
Mg 6.15198761 2.27371250 3.42666374
Mg 0.00000000 4.54742500 -3.4105710800000004 0 0 0
Mg 0.00000000 6.82113750 -1.1369464300000018 0 0 0
Mg 0.02553119 0.00000000 1.13801927
Mg 0.05517824 6.82113750 3.49157080
Mg 3.21551500 0.00000000 -3.4105710800000004 0 0 0
Mg 3.21551500 2.27371250 -1.1369464300000018 0 0 0
Mg 3.18998381 4.54742500 1.13801927
Mg 3.49455739 2.27371250 3.42666374
Mg 3.21551500 4.54742500 -3.4105710800000004 0 0 0
Mg 3.21551500 6.82113750 -1.1369464300000018 0 0 0
Mg 3.18998381 0.00000000 1.13801927
Mg 3.16033676 6.82113750 3.49157080
Pd 1.60775750 2.27371250 -3.4105710800000004 0 0 0
Pd 1.60775750 0.00000000 -1.1369464300000018 0 0 0
Pd 1.60775750 2.27371250 1.11334386
Pd 1.60775750 4.28667565 3.41700814
Pd 1.60775750 6.82113750 -3.4105710800000004 0 0 0
Pd 1.60775750 4.54742500 -1.1369464300000018 0 0 0
Pd 1.60775750 6.82113750 1.19139326
Pd 1.60775750 0.26074935 3.41700814
Pd 4.82327250 2.27371250 -3.4105710800000004 0 0 0
Pd 4.82327250 0.00000000 -1.1369464300000018 0 0 0
Pd 4.82327250 2.27371250 1.06104272
Pd 4.82327250 4.65319811 3.24883984
Pd 4.82327250 6.82113750 -3.4105710800000004 0 0 0
Pd 4.82327250 4.54742500 -1.1369464300000018 0 0 0
Pd 4.82327250 6.82113750 1.16215826
Pd 4.82327250 8.98907689 3.24883984
C 1.60775750 2.27371250 4.18248233
