&CONTROL
calculation = 'relax'
prefix = 'scf'
pseudo_dir = '/vol0403/data/hp230205/u10028/POT_HYBRID_KKJUS_GBRV'
outdir = './data'
tprnfor = .true.
nstep = 50
disk_io = 'non'
/
&SYSTEM
ibrav = 0
ecutwfc = 50.0
ecutrho = 400
occupations = 'smearing'
smearing = 'mp'
degauss = 0.01
assume_isolated = 'esm'
esm_bc = 'bc1'
input_dft = 'BEEF-VDW'
nosym = .true.
nspin = 1
ntyp = 4
nat = 32
/
&ELECTRONS
electron_maxstep = 200
mixing_beta = 0.1
conv_thr = 1e-06
/
&IONS
ion_dynamics = 'bfgs'
upscale = 1.0
/
&CELL
/

K_POINTS {automatic}
6 6 1 0 0 0

ATOMIC_SPECIES
Cu 63.54 Cu.pbe-dn-rrkjus_psl.1.0.0.UPF
Ga 69.72 Ga.pbe-dnl-rrkjus_psl.1.0.0.UPF
Li 6.941 Li.pbe-sl-rrkjus_psl.1.0.0.UPF
Pd 106.4 Pd.pbe-n-rrkjus_psl.1.0.0.UPF


CELL_PARAMETERS {angstrom}
6.02537000 0.00000000 0.00000000
0.00000000 8.52116000 0.00000000
0.00000000 0.00000000 26.39090000

ATOMIC_POSITIONS {angstrom}
Li 1.50634250 0.00000000 -1.0651367199999981 0 0 0
Li 1.50634250 4.26058000 -1.0651367199999981 0 0 0
Li 4.51902750 2.13029000 -3.195410169999999 0 0 0
Li 4.51902750 6.39087000 -3.195410169999999 0 0 0
Li 1.50073891 4.26058000 3.44058163
Li 1.50073891 0.00000000 3.44058163
Li 4.52963215 6.39087000 0.95535058
Li 4.52963215 2.13029000 0.95535058
Ga 4.51902750 0.00000000 -1.0651367199999981 0 0 0
Ga 4.51902750 4.26058000 -1.0651367199999981 0 0 0
Ga 1.50634250 2.13029000 -3.195410169999999 0 0 0
Ga 1.50634250 6.39087000 -3.195410169999999 0 0 0
Ga 4.50324103 4.26058000 3.31364140
Ga 4.50324103 0.00000000 3.31364140
Ga 1.50007612 6.39087000 1.07991563
Ga 1.50007612 2.13029000 1.07991563
Cu 0.00000000 0.00000000 -3.195410169999999 0 0 0
Cu 0.00000000 4.26058000 -3.195410169999999 0 0 0
Cu 3.01268500 6.39087000 -1.0651367199999981 0 0 0
Cu 3.01268500 2.13029000 -1.0651367199999981 0 0 0
Cu 0.01283404 4.26058000 1.09152762
Cu 0.01283404 0.00000000 1.09152762
Cu 3.13741016 2.13029000 3.01542423
Cu 3.13741016 6.39087000 3.01542423
Pd 0.00000000 2.13029000 -1.0651367199999981 0 0 0
Pd 0.00000000 6.39087000 -1.0651367199999981 0 0 0
Pd 3.01268500 4.26058000 -3.195410169999999 0 0 0
Pd 3.01268500 0.00000000 -3.195410169999999 0 0 0
Pd 5.90263321 6.39087000 3.04709331
Pd 5.90263321 2.13029000 3.04709331
Pd 3.00810572 0.00000000 1.08624944
Pd 3.00810572 4.26058000 1.08624944
