&CONTROL
calculation = 'relax'
prefix = 'scf'
pseudo_dir = '/vol0004/mdt0/data/hp150275/u10028/POT_HYBRID_KKJUS_GBRV'
outdir = './data'
tprnfor = .true.
nstep = 50
disk_io = 'non'
/
&SYSTEM
ibrav = 0
ecutwfc = 50.0
ecutrho = 400
occupations = 'smearing'
smearing = 'mp'
degauss = 0.01
assume_isolated = 'esm'
esm_bc = 'bc1'
input_dft = 'BEEF-VDW'
nosym = .true.
nspin = 2
ntyp = 4
nat = 17
starting_magnetization(1) = 0.0
starting_magnetization(2) = 0.1
starting_magnetization(3) = 0.0
starting_magnetization(4) = 0.0
/
&ELECTRONS
electron_maxstep = 300
mixing_beta = 0.1
conv_thr = 1e-06
/
&IONS
ion_dynamics = 'bfgs'
upscale = 1.0
/
&CELL
/

K_POINTS {automatic}
8 8 1 0 0 0

ATOMIC_SPECIES
C 12.01 C.pbe-n-rrkjus_psl.1.0.0.UPF
Co 58.93 co_pbe_v1.2.uspp.F.UPF
Ge 72.64 Ge.pbe-dn-rrkjus_psl.1.0.0.UPF
Zn 65.40 Zn.pbe-dnl-rrkjus_psl.1.0.0.UPF

CELL_PARAMETERS {angstrom}
5.75846000 0.00000000 0.00000000
0.00000000 5.75846000 0.00000000
0.00000000 0.00000000 24.31880000

ATOMIC_POSITIONS {angstrom}
Zn 0.00000000 0.00000000 -2.159509440000001 0 0 0
Zn 2.87923000 2.87923000 -2.159509440000001 0 0 0
Zn 2.87917242 5.75828725 0.82781195
Zn 0.00005758 2.87940275 0.61186101
Co 1.43961500 1.43961500 -0.7198364799999979 0 0 0
Co 4.45520533 4.18248467 2.21617224
Co 4.31884500 1.43961500 -0.7198364799999979 0 0 0
Co 1.30319708 4.18242708 2.21641543
Co 4.31884500 4.31884500 -0.7198364799999979 0 0 0
Co 1.30325467 1.57603292 2.21617224
Co 1.43961500 4.31884500 -0.7198364799999979 0 0 0
Co 4.45520533 1.57603292 2.21617224
Ge 0.00011517 5.75822966 0.83291890
Ge 2.87923000 0.00000000 -2.159509440000001 0 0 0
Ge 0.00000000 2.87923000 -2.159509440000001 0 0 0
Ge 2.87917242 2.87940275 0.83291890
C 0.00000000 2.87923000 2.62205302
