&CONTROL
calculation = 'relax'
prefix = 'scf'
pseudo_dir = '/vol0004/mdt0/data/hp150275/u10028/POT_KKJUS'
outdir = './data'
tprnfor = .true.
nstep = 50
disk_io = 'non'
/
&SYSTEM
ibrav = 0
ecutwfc = 50.0
ecutrho = 400
occupations = 'smearing'
smearing = 'mp'
degauss = 0.01
assume_isolated = 'esm'
esm_bc = 'bc1'
input_dft = 'BEEF-VDW'
nosym = .true.
nspin = 1
ntyp = 5
nat = 34
/
&ELECTRONS
electron_maxstep = 200
mixing_beta = 0.1
conv_thr = 1e-06
/
&IONS
ion_dynamics = 'bfgs'
upscale = 1.0
/
&CELL
/

K_POINTS {automatic}
9 6 2 0  0  0

ATOMIC_SPECIES
Al 26.98 Al.pbe-nl-rrkjus_psl.1.0.0.UPF
C 12.01 C.pbe-n-rrkjus_psl.1.0.0.UPF
Li 6.941 Li.pbe-sl-rrkjus_psl.1.0.0.UPF
O 15.99 O.pbe-n-rrkjus_psl.1.0.0.UPF
Pt 195.0 Pt.pbe-n-rrkjus_psl.1.0.0.UPF

CELL_PARAMETERS {angstrom}
6.09904000 0.00000000 0.00000000
0.00000000 8.62534000 0.00000000
0.00000000 0.00000000 26.46900000

ATOMIC_POSITIONS {angstrom}
Li 0.00000000 0.00000000 -3.2345118 0 0 0
Li 3.04952000 2.15633500 -1.0780823700000006 0 0 0
Li 3.04952000 6.46900500 -1.0780823700000006 0 0 0
Li 0.00000000 4.31267000 -3.2345118 0 0 0
Li 0.00250061 4.31267000 1.04764302
Li 3.03640706 6.39344702 4.38803082
Li 3.03616310 2.23172047 4.38776613
Li 6.09861307 0.00025876 1.05452496
Al 1.52476000 0.00000000 -1.0780823700000006 0 0 0
Al 4.57428000 4.31267000 -1.0780823700000006 0 0 0
Al 4.57428000 0.00000000 -1.0780823700000006 0 0 0
Al 1.52476000 4.31267000 -1.0780823700000006 0 0 0
Al 4.57428000 6.46900500 -3.2345118 0 0 0
Al 1.52476000 2.15633500 -3.2345118 0 0 0
Al 1.52476000 6.46900500 -3.2345118 0 0 0
Al 4.57428000 2.15633500 -3.2345118 0 0 0
Al 1.54055651 4.31267000 3.22074792
Al 4.59824923 8.62525375 3.24827568
Al 4.54104023 4.31258375 3.24192312
Al 1.42717536 0.00000000 3.23027676
Al 4.45693447 2.16728918 1.16807697
Al 1.58831200 6.44770041 1.15510716
Al 1.58837299 2.17763959 1.15510716
Al 4.45699546 6.45813707 1.16807697
Pt 0.00000000 6.46900500 -1.0780823700000006 0 0 0
Pt 3.04952000 0.00000000 -3.2345118 0 0 0
Pt 0.00000000 2.15633500 -1.0780823700000006 0 0 0
Pt 3.04952000 4.31267000 -3.2345118 0 0 0
Pt 6.06604419 2.17539700 3.09184389
Pt 3.03451636 4.31275625 0.96903009
Pt 6.06610518 6.44994300 3.09184389
Pt 3.02024461 0.00000000 1.06246566
C 2.44229958 0.00008625 4.94864424
O 2.55830332 0.00008625 6.14530773
