&CONTROL
calculation = 'relax'
prefix = 'scf'
pseudo_dir = '/vol0004/mdt0/data/hp150275/u10028/POT_HYBRID_KKJUS_GBRV'
outdir = './data'
tprnfor = .true.
nstep = 50
disk_io = 'non'
/
&SYSTEM
ibrav = 0
ecutwfc = 50.0
ecutrho = 400
occupations = 'smearing'
smearing = 'mp'
degauss = 0.01
assume_isolated = 'esm'
esm_bc = 'bc1'
input_dft = 'BEEF-VDW'
nosym = .true.
nspin = 2
ntyp = 5
nat = 34
starting_magnetization(1) = 0.0
starting_magnetization(2) = 0.0
starting_magnetization(3) = 0.001
starting_magnetization(4) = 0.0
starting_magnetization(5) = 0.0
/
&ELECTRONS
electron_maxstep = 200
mixing_beta = 0.1
conv_thr = 1e-06
/
&IONS
ion_dynamics = 'bfgs'
upscale = 1.0
/
&CELL
/

K_POINTS {automatic}
9 6 2 0  0  0

ATOMIC_SPECIES
C 12.01 C.pbe-n-rrkjus_psl.1.0.0.UPF
Ge 72.64 Ge.pbe-dn-rrkjus_psl.1.0.0.UPF
Ni 58.69 ni_pbe_v1.4.uspp.F.UPF
O 15.99 O.pbe-n-rrkjus_psl.1.0.0.UPF
Zn 65.40 Zn.pbe-dnl-rrkjus_psl.1.0.0.UPF

CELL_PARAMETERS {angstrom}
5.88011000 0.00000000 0.00000000
0.00000000 8.31574000 0.00000000
0.00000000 0.00000000 26.23680000

ATOMIC_POSITIONS {angstrom}
Zn 0.00000000 0.00000000 23.11829395
Zn 2.94005500 2.07893500 25.19729798
Zn 2.94005500 6.23680500 25.19729798
Zn 0.00000000 4.15787000 23.11829395
Zn 5.87164264 4.15803631 0.94557427
Zn 2.95069800 6.17127697 3.23893296
Zn 2.95063920 2.14496198 3.23683402
Zn 0.06056513 0.00016631 1.01982442
Ni 1.47002750 0.00000000 25.19729798
Ni 4.41008250 4.15787000 25.19729798
Ni 4.41008250 0.00000000 25.19729798
Ni 1.47002750 4.15787000 25.19729798
Ni 4.41008250 6.23680500 23.11829395
Ni 1.47002750 2.07893500 23.11829395
Ni 1.47002750 6.23680500 23.11829395
Ni 4.41008250 2.07893500 23.11829395
Ni 1.38564792 4.15936683 2.93589792
Ni 4.44983204 8.31449264 2.89496851
Ni 4.44371673 4.15928368 2.92619030
Ni 1.46344178 8.31424317 3.24234374
Ni 4.39044293 2.05307305 0.97784554
Ni 1.48419857 6.25327017 1.07885722
Ni 1.48349295 2.06346772 1.07702064
Ni 4.38979612 6.26366484 0.97968211
Ge 0.00000000 6.23680500 25.19729798
Ge 2.94005500 0.00000000 23.11829395
Ge 0.00000000 2.07893500 25.19729798
Ge 2.94005500 4.15787000 23.11829395
Ge 5.80325696 2.11635583 3.13214918
Ge 2.92729516 4.15745421 1.02349757
Ge 5.80355097 6.19955048 3.13293629
Ge 2.91006644 0.00058210 1.04632358
C 1.69164885 8.31565684 5.00414486
O 1.77467600 8.31532421 6.15672749
