&CONTROL
calculation = 'relax'
prefix = 'scf'
pseudo_dir = '/vol0403/data/hp230205/u10028/POT_HYBRID_KKJUS_GBRV'
outdir = './data'
tprnfor = .true.
nstep = 50
disk_io = 'non'
/
&SYSTEM
ibrav = 0
ecutwfc = 50.0
ecutrho = 400
occupations = 'smearing'
smearing = 'mp'
degauss = 0.01
assume_isolated = 'esm'
esm_bc = 'bc1'
input_dft = 'BEEF-VDW'
nosym = .true.
nspin = 1
ntyp = 6
nat = 18
/
&ELECTRONS
electron_maxstep = 200
mixing_beta = 0.1
conv_thr = 1e-06
/
&IONS
ion_dynamics = 'bfgs'
upscale = 1.0
/
&CELL
/

K_POINTS {automatic}
8 8 1 0 0 0

ATOMIC_SPECIES
Au 196.9 Au.pbe-n-rrkjus_psl.1.0.0.UPF
C 12.01 C.pbe-n-rrkjus_psl.1.0.0.UPF
Ge 72.64 Ge.pbe-dn-rrkjus_psl.1.0.0.UPF
Li 6.941 Li.pbe-sl-rrkjus_psl.1.0.0.UPF
O 15.99 O.pbe-n-rrkjus_psl.1.0.0.UPF
Pd 106.4 Pd.pbe-n-rrkjus_psl.1.0.0.UPF


CELL_PARAMETERS {angstrom}
6.30991000 0.00000000 0.00000000
0.00000000 6.30991000 0.00000000
0.00000000 0.00000000 24.73240000

ATOMIC_POSITIONS {angstrom}
Li 1.57747750 1.57747750 -0.7887162399999994 0 0 0
Li 1.57564763 4.73931030 2.48981071
Li 4.73931030 1.57558453 2.48981071
Li 4.73243250 4.73243250 -0.7887162399999994 0 0 0
Ge 4.73243250 1.57747750 -0.7887162399999994 0 0 0
Ge 4.73527196 4.73520886 2.47299268
Ge 1.57709891 1.57709891 2.07356442
Ge 1.57747750 4.73243250 -0.7887162399999994 0 0 0
Pd 0.00000000 3.15495500 -2.3661487099999974 0 0 0
Pd 6.26447865 6.26447865 1.03035178
Pd 3.20303651 3.20309961 1.04024474
Pd 3.15495500 0.00000000 -2.3661487099999974 0 0 0
Au 0.00000000 0.00000000 -2.3661487099999974 0 0 0
Au 6.22371663 3.24297824 0.85697766
Au 3.24297824 6.22365353 0.85697766
Au 3.15495500 3.15495500 -2.3661487099999974 0 0 0
C 1.56763404 1.56769714 3.99304598
O 1.56574107 1.56580417 5.16264118
