&CONTROL
calculation = 'relax'
prefix = 'scf'
pseudo_dir = '/vol0004/mdt0/data/hp150275/u10028/POT_KKJUS'
outdir = './data'
tprnfor = .true.
nstep = 50
disk_io = 'non'
/
&SYSTEM
ibrav = 0
ecutwfc = 50.0
ecutrho = 400
occupations = 'smearing'
smearing = 'mp'
degauss = 0.01
assume_isolated = 'esm'
esm_bc = 'bc1'
input_dft = 'BEEF-VDW'
nosym = .true.
nspin = 1
ntyp = 3
nat = 16
/
&ELECTRONS
electron_maxstep = 200
mixing_beta = 0.1
conv_thr = 1e-06
/
&IONS
ion_dynamics = 'bfgs'
upscale = 1.0
/
&CELL
/

K_POINTS {automatic}
10 10 2 0  0  0

ATOMIC_SPECIES
Ag 107.8 Ag.pbe-n-rrkjus_psl.1.0.0.UPF
Li 6.941 Li.pbe-sl-rrkjus_psl.1.0.0.UPF
Sn 118.7 Sn.pbe-dn-rrkjus_psl.1.0.0.UPF

CELL_PARAMETERS {angstrom}
6.59455000 0.00000000 0.00000000
-0.00000000 6.59455000 0.00000000
0.00000000 0.00000000 24.94590000

ATOMIC_POSITIONS {angstrom}
Li 1.64863750 1.64863750 0.82421254
Li 4.94591250 4.94591250 -2.4728870700000023 0 0 0
Li 4.94591250 1.64863750 0.82421254
Li 1.64863750 4.94591250 -2.4728870700000023 0 0 0
Li 4.94591250 4.94591250 0.82421254
Li 1.64863750 1.64863750 -2.4728870700000023 0 0 0
Li 1.64863750 4.94591250 0.82421254
Li 4.94591250 1.64863750 -2.4728870700000023 0 0 0
Ag 0.00000000 0.00000000 2.47288707
Ag 3.29727500 3.29727500 2.47288707
Ag 3.29727500 0.00000000 -0.8242125400000013 0 0 0
Ag 0.00000000 3.29727500 -0.8242125400000013 0 0 0
Sn 0.00000000 0.00000000 -0.8242125400000013 0 0 0
Sn 3.29727500 -0.00000000 2.47288707
Sn 0.00000000 3.29727500 2.47288707
Sn 3.29727500 3.29727500 -0.8242125400000013 0 0 0
