&CONTROL
calculation = 'relax'
prefix = 'scf'
pseudo_dir = '/vol0004/mdt0/data/hp150275/u10028/POT_KKJUS'
outdir = './data'
tprnfor = .true.
nstep = 50
disk_io = 'non'
/
&SYSTEM
ibrav = 0
ecutwfc = 50.0
ecutrho = 400
occupations = 'smearing'
smearing = 'mp'
degauss = 0.01
assume_isolated = 'esm'
esm_bc = 'bc1'
input_dft = 'BEEF-VDW'
nosym = .true.
nspin = 1
ntyp = 4
nat = 17
/
&ELECTRONS
electron_maxstep = 200
mixing_beta = 0.1
conv_thr = 1e-06
/
&IONS
ion_dynamics = 'bfgs'
upscale = 1.0
/
&CELL
/

K_POINTS {automatic}
9 9 2 0  0  0

ATOMIC_SPECIES
Ag 107.8 Ag.pbe-n-rrkjus_psl.1.0.0.UPF
C 12.01 C.pbe-n-rrkjus_psl.1.0.0.UPF
In 114.8 In.pbe-dn-rrkjus_psl.1.0.0.UPF
Li 6.941 Li.pbe-sl-rrkjus_psl.1.0.0.UPF

CELL_PARAMETERS {angstrom}
6.67495000 0.00000000 0.00000000
0.00000000 6.67495000 0.00000000
0.00000000 0.00000000 25.00620000

ATOMIC_POSITIONS {angstrom}
Li 0.00000000 0.00000000 -0.8344568899999985 0 0 0
Li 3.47190849 0.13263126 2.83520296
Li 6.54231874 3.20297476 2.83520296
Li 3.33747500 3.33747500 -0.8344568899999985 0 0 0
Li 1.67087348 1.66566702 0.99274614
Li 1.66873750 5.00621250 -2.5031206200000007 0 0 0
Li 5.00928298 5.00407652 0.99274614
Li 5.00621250 1.66873750 -2.5031206200000007 0 0 0
In 6.58049946 0.09445054 2.85820866
In 3.42244711 3.25243614 2.85545798
In 3.33747500 0.00000000 -0.8344568899999985 0 0 0
In 0.00000000 3.33747500 -0.8344568899999985 0 0 0
Ag 1.66873750 1.66873750 -2.5031206200000007 0 0 0
Ag 1.66626777 5.00868223 1.05451145
Ag 5.00621250 5.00621250 -2.5031206200000007 0 0 0
Ag 5.00367602 1.67127398 0.62815574
C 5.00053879 1.67441121 2.87321238
