&CONTROL
calculation = 'relax'
prefix = 'scf'
pseudo_dir = '/vol0403/data/hp230205/u10028/POT_HYBRID_KKJUS_GBRV'
outdir = './data'
tprnfor = .true.
nstep = 70
disk_io = 'non'
/
&SYSTEM
ibrav = 0
ecutwfc = 50.0
ecutrho = 400
occupations = 'smearing'
smearing = 'mp'
degauss = 0.01
assume_isolated = 'esm'
esm_bc = 'bc1'
input_dft = 'BEEF-VDW'
nosym = .true.
nspin = 1
ntyp = 5
nat = 33
/
&ELECTRONS
electron_maxstep = 200
mixing_beta = 0.1
conv_thr = 1e-06
/
&IONS
ion_dynamics = 'bfgs'
upscale = 1.0
/
&CELL
/

K_POINTS {automatic}
9 6 2 0  0  0

ATOMIC_SPECIES
C 12.01 C.pbe-n-rrkjus_psl.1.0.0.UPF
In 114.8 In.pbe-dn-rrkjus_psl.1.0.0.UPF
Li 6.941 Li.pbe-sl-rrkjus_psl.1.0.0.UPF
Mg 24.30 Mg.pbe-spnl-rrkjus_psl.1.0.0.UPF
Sn 118.7 Sn.pbe-dn-rrkjus_psl.1.0.0.UPF


CELL_PARAMETERS {angstrom}
7.01918000 0.00000000 0.00000000
-0.00000000 9.92662000 0.00000000
0.00000000 0.00000000 27.44500000

ATOMIC_POSITIONS {angstrom}
Li 5.26438500 0.00000000 -1.2407884500000002 0 0 0
Li 5.26438500 4.96331000 -1.2407884500000002 0 0 0
Li 1.75479500 2.48165500 -3.7223653500000005 0 0 0
Li 1.75479500 7.44496500 -3.7223653500000005 0 0 0
Li 5.22844680 4.66342681 3.89966005
Li 5.22851699 0.29948613 3.89993450
Li 1.70088770 7.44486573 1.35907640
Li 1.81782724 2.48175427 1.17986055
Mg 1.75479500 0.00000000 -1.2407884500000002 0 0 0
Mg 1.75479500 4.96331000 -1.2407884500000002 0 0 0
Mg 5.26438500 2.48165500 -3.7223653500000005 0 0 0
Mg 5.26438500 7.44496500 -3.7223653500000005 0 0 0
Mg 1.86092500 5.16372846 3.98858185
Mg 1.86106539 9.72590374 3.98858185
Mg 5.27926566 7.44506427 1.32312345
Mg 4.89194731 2.48135720 1.85116525
In 0.00000000 0.00000000 -3.7223653500000005 0 0 0
In 0.00000000 4.96331000 -3.7223653500000005 0 0 0
In 3.50959000 7.44496500 -1.2407884500000002 0 0 0
In 3.50959000 2.48165500 -1.2407884500000002 0 0 0
In 0.02674308 4.88568383 1.36868215
In 0.02695365 0.07762617 1.36868215
In 3.52896294 2.48165500 5.39843150
In 3.83499918 7.44476647 4.24135030
Sn 0.00000000 2.48165500 -1.2407884500000002 0 0 0
Sn 0.00000000 7.44496500 -1.2407884500000002 0 0 0
Sn 3.50959000 4.96331000 -3.7223653500000005 0 0 0
Sn 3.50959000 0.00000000 -3.7223653500000005 0 0 0
Sn 6.89830972 7.44486573 3.89142655
Sn 0.37728093 2.48155573 3.92875175
Sn 3.42346466 9.85018503 1.33437590
Sn 3.42367524 5.03964571 1.33437590
C 5.26003311 2.48145647 4.01191010
