&CONTROL
calculation = 'relax'
prefix = 'scf'
pseudo_dir = '/vol0403/data/hp230205/u10028/POT_HYBRID_KKJUS_GBRV'
outdir = './data'
tprnfor = .true.
nstep = 50
disk_io = 'non'
/
&SYSTEM
ibrav = 0
ecutwfc = 50.0
ecutrho = 400
occupations = 'smearing'
smearing = 'mp'
degauss = 0.01
assume_isolated = 'esm'
esm_bc = 'bc1'
input_dft = 'BEEF-VDW'
nosym = .true.
nspin = 1
ntyp = 6
nat = 34
/
&ELECTRONS
electron_maxstep = 200
mixing_beta = 0.1
conv_thr = 1e-06
/
&IONS
ion_dynamics = 'bfgs'
upscale = 1.0
/
&CELL
/

K_POINTS {automatic}
9 6 2 0  0  0

ATOMIC_SPECIES
C 12.01 C.pbe-n-rrkjus_psl.1.0.0.UPF
Cu 63.54 Cu.pbe-dn-rrkjus_psl.1.0.0.UPF
Ge 72.64 Ge.pbe-dn-rrkjus_psl.1.0.0.UPF
Li 6.941 Li.pbe-sl-rrkjus_psl.1.0.0.UPF
O 15.99 O.pbe-n-rrkjus_psl.1.0.0.UPF
Pd 106.4 Pd.pbe-n-rrkjus_psl.1.0.0.UPF


CELL_PARAMETERS {angstrom}
6.04231000 0.00000000 0.00000000
0.00000000 8.54512000 0.00000000
0.00000000 0.00000000 26.40880000

ATOMIC_POSITIONS {angstrom}
Li 1.51057750 0.00000000 -1.068235959999999 0 0 0
Li 1.51057750 4.27256000 -1.068235959999999 0 0 0
Li 4.53173250 2.13628000 -3.204443789999999 0 0 0
Li 4.53173250 6.40884000 -3.204443789999999 0 0 0
Li 1.49710315 4.29093201 3.59186089
Li 1.49710315 8.52683344 3.59186089
Li 4.51306176 6.40884000 0.93988919
Li 4.48357529 2.13628000 0.98478415
Cu 0.00000000 0.00000000 -3.204443789999999 0 0 0
Cu 0.00000000 4.27256000 -3.204443789999999 0 0 0
Cu 3.02115500 6.40884000 -1.068235959999999 0 0 0
Cu 3.02115500 2.13628000 -1.068235959999999 0 0 0
Cu 0.05190344 4.27050917 1.16409990
Cu 0.05196387 0.00205083 1.16409990
Cu 3.14774139 2.13628000 3.25699730
Cu 3.22266604 6.40884000 3.05734678
Ge 4.53173250 0.00000000 -1.068235959999999 0 0 0
Ge 4.53173250 4.27256000 -1.068235959999999 0 0 0
Ge 1.51057750 2.13628000 -3.204443789999999 0 0 0
Ge 1.51057750 6.40884000 -3.204443789999999 0 0 0
Ge 4.61167226 4.30742409 3.34599496
Ge 4.61167226 8.51025591 3.34573087
Ge 1.56592506 6.40884000 1.04156307
Ge 1.50930861 2.13628000 1.04526030
Pd 0.00000000 2.13628000 -1.068235959999999 0 0 0
Pd 0.00000000 6.40884000 -1.068235959999999 0 0 0
Pd 3.02115500 4.27256000 -3.204443789999999 0 0 0
Pd 3.02115500 0.00000000 -3.204443789999999 0 0 0
Pd 5.99258179 6.40884000 2.99687062
Pd 5.90291391 2.13628000 3.03357886
Pd 2.97275610 0.04477643 1.31383780
Pd 2.97281652 4.22769812 1.31383780
C 2.36036798 2.13628000 4.95904446
O 2.16272402 2.13619455 6.09964054
