&CONTROL
calculation = 'relax'
prefix = 'scf'
pseudo_dir = '/vol0403/data/hp230205/u10028/POT_HYBRID_KKJUS_GBRV'
outdir = './data'
tprnfor = .true.
nstep = 50
disk_io = 'non'
/
&SYSTEM
ibrav = 0
ecutwfc = 50.0
ecutrho = 400
occupations = 'smearing'
smearing = 'mp'
degauss = 0.01
assume_isolated = 'esm'
esm_bc = 'bc1'
input_dft = 'BEEF-VDW'
nosym = .true.
nspin = 1
ntyp = 5
nat = 33
/
&ELECTRONS
electron_maxstep = 200
mixing_beta = 0.1
conv_thr = 1e-06
/
&IONS
ion_dynamics = 'bfgs'
upscale = 1.0
/
&CELL
/

K_POINTS {automatic}
6 6 1 0 0 0

ATOMIC_SPECIES
C 12.01 C.pbe-n-rrkjus_psl.1.0.0.UPF
Cu 63.54 Cu.pbe-dn-rrkjus_psl.1.0.0.UPF
In 114.8 In.pbe-dn-rrkjus_psl.1.0.0.UPF
Sn 118.7 Sn.pbe-dn-rrkjus_psl.1.0.0.UPF
Y 88.90 Y.pbe-spn-rrkjus_psl.1.0.0.UPF


CELL_PARAMETERS {angstrom}
9.14612000 0.00000000 0.00000000
0.00000000 8.82850000 0.00000000
0.00000000 0.00000000 26.63560000

ATOMIC_POSITIONS {angstrom}
Y 2.33500444 2.20712500 3.46236164
Y 2.28653000 2.20712500 -1.10591011 0 0 0
Y 2.47567176 6.62137500 3.42400638
Y 2.28653000 6.62137500 -1.10591011 0 0 0
Y 6.81111556 2.20712500 3.46236164
Y 6.85959000 2.20712500 -1.10591011 0 0 0
Y 6.67044824 6.62137500 3.42400638
Y 6.85959000 6.62137500 -1.10591011 0 0 0
In 0.00000000 2.20712500 1.02547060
In 0.00000000 2.20712500 -3.3177303400000007 0 0 0
In 0.00000000 6.62137500 1.30008364
In 0.00000000 6.62137500 -3.3177303400000007 0 0 0
In 4.57306000 2.20712500 1.07687731
In 4.57306000 2.20712500 -3.3177303400000007 0 0 0
In 4.57306000 6.62137500 1.04917628
In 4.57306000 6.62137500 -3.3177303400000007 0 0 0
Cu 0.00000000 0.19440357 3.10943994
Cu 0.00000000 0.00000000 -1.10591011 0 0 0
Cu 0.00000000 4.21984643 3.10943994
Cu 0.00000000 4.41425000 -1.10591011 0 0 0
Cu 4.57306000 8.75513517 3.15871580
Cu 4.57306000 0.00000000 -1.10591011 0 0 0
Cu 4.57306000 4.48761484 3.15871580
Cu 4.57306000 4.41425000 -1.10591011 0 0 0
Sn 2.30637708 8.82585145 1.16397572
Sn 2.28653000 0.00000000 -3.3177303400000007 0 0 0
Sn 2.30628562 4.41689855 1.16397572
Sn 2.28653000 4.41425000 -3.3177303400000007 0 0 0
Sn 6.83974292 8.82585145 1.16397572
Sn 6.85959000 0.00000000 -3.3177303400000007 0 0 0
Sn 6.83974292 4.41689855 1.16397572
Sn 6.85959000 4.41425000 -3.3177303400000007 0 0 0
C 0.00000000 2.20712500 3.47781029
