&CONTROL
calculation = 'relax'
prefix = 'scf'
pseudo_dir = '/vol0403/data/hp230205/u10028/POT_HYBRID_KKJUS_GBRV'
outdir = './data'
tprnfor = .true.
nstep = 70
disk_io = 'non'
/
&SYSTEM
ibrav = 0
ecutwfc = 50.0
ecutrho = 400
occupations = 'smearing'
smearing = 'mp'
degauss = 0.01
assume_isolated = 'esm'
esm_bc = 'bc1'
input_dft = 'BEEF-VDW'
nosym = .true.
nspin = 1
ntyp = 6
nat = 34
/
&ELECTRONS
electron_maxstep = 200
mixing_beta = 0.1
conv_thr = 1e-06
/
&IONS
ion_dynamics = 'bfgs'
upscale = 1.0
/
&CELL
/

K_POINTS {automatic}
6 6 1 0 0 0

ATOMIC_SPECIES
C 12.01 C.pbe-n-rrkjus_psl.1.0.0.UPF
In 114.8 In.pbe-dn-rrkjus_psl.1.0.0.UPF
Li 6.941 Li.pbe-sl-rrkjus_psl.1.0.0.UPF
O 15.99 O.pbe-n-rrkjus_psl.1.0.0.UPF
Pd 106.4 Pd.pbe-n-rrkjus_psl.1.0.0.UPF
Pt 195.0 Pt.pbe-n-rrkjus_psl.1.0.0.UPF


CELL_PARAMETERS {angstrom}
6.39502000 0.00000000 0.00000000
-0.00000000 9.04392000 0.00000000
0.00000000 0.00000000 26.78290000

ATOMIC_POSITIONS {angstrom}
Li 0.00000000 2.26098000 -1.13050621 0 0 0
Li 0.00000000 6.78294000 -1.13050621 0 0 0
Li 3.19751000 4.52196000 -3.39151863 0 0 0
Li 3.19751000 0.00000000 -3.39151863 0 0 0
Li 0.04553254 6.70995557 3.50534595
Li 0.04598019 2.33378356 3.50507812
Li 3.21023609 -0.00000000 1.12622095
Li 3.18830117 4.52196000 1.04935402
In 0.00000000 0.00000000 -3.39151863 0 0 0
In 0.00000000 4.52196000 -3.39151863 0 0 0
In 3.19751000 6.78294000 -1.13050621 0 0 0
In 3.19751000 2.26098000 -1.13050621 0 0 0
In 6.37749765 4.52196000 1.09943805
In 6.36489946 -0.00000000 1.09729541
In 3.17397633 2.23981723 3.56935708
In 3.17391238 6.80401233 3.56962491
Pd 4.79626500 0.00000000 -1.13050621 0 0 0
Pd 4.79626500 4.52196000 -1.13050621 0 0 0
Pd 1.59875500 2.26098000 -3.39151863 0 0 0
Pd 1.59875500 6.78294000 -3.39151863 0 0 0
Pd 4.66977150 4.52196000 3.21394800
Pd 4.90561984 -0.00000000 3.51686260
Pd 1.59977820 6.79388314 1.14523680
Pd 1.59977820 2.25003686 1.14496898
Pt 1.59875500 0.00000000 -1.13050621 0 0 0
Pt 1.59875500 4.52196000 -1.13050621 0 0 0
Pt 4.79626500 2.26098000 -3.39151863 0 0 0
Pt 4.79626500 6.78294000 -3.39151863 0 0 0
Pt 1.70446468 4.52196000 3.18716510
Pt 1.67792535 -0.00000000 3.20805576
Pt 4.76377830 6.80554980 1.20067741
Pt 4.76384225 2.23837020 1.20067741
C 5.56270815 9.04382956 5.35443737
O 5.86026843 9.04382956 6.46833818
