&CONTROL
calculation = 'relax'
prefix = 'scf'
pseudo_dir = '/vol0004/mdt0/data/hp150275/u10028/POT_KKJUS'
outdir = './data'
tprnfor = .true.
nstep = 50
disk_io = 'non'
/
&SYSTEM
ibrav = 0
ecutwfc = 50.0
ecutrho = 400
occupations = 'smearing'
smearing = 'mp'
degauss = 0.01
assume_isolated = 'esm'
esm_bc = 'bc1'
input_dft = 'BEEF-VDW'
nosym = .true.
nspin = 1
ntyp = 2
nat = 16
/
&ELECTRONS
electron_maxstep = 200
mixing_beta = 0.1
conv_thr = 1e-06
/
&IONS
ion_dynamics = 'bfgs'
upscale = 1.0
/
&CELL
/

K_POINTS {automatic}
10 10 2 0  0  0

ATOMIC_SPECIES
Be 9.012 Be.pbe-n-rrkjus_psl.1.0.0.UPF
Li 6.941 Li.pbe-sl-rrkjus_psl.1.0.0.UPF

CELL_PARAMETERS {angstrom}
5.62306000 0.00000000 0.00000000
-0.00000000 5.62306000 0.00000000
0.00000000 0.00000000 24.21730000

ATOMIC_POSITIONS {angstrom}
Li 0.00000000 0.00000000 -2.1998995300000033 0 0 0
Li 0.00000000 0.00000000 0.61148683
Li 0.00000000 2.81153000 -2.1998995300000033 0 0 0
Li 0.00000000 2.81153000 0.61148683
Li 2.81153000 0.00000000 -2.1998995300000033 0 0 0
Li 2.81153000 -0.00000000 0.61148683
Li 2.81153000 2.81153000 -2.1998995300000033 0 0 0
Li 2.81153000 2.81153000 0.61148683
Be 1.40576500 1.40576500 -0.7940852700000001 0 0 0
Be 1.40576500 1.40576500 2.01730109
Be 1.40576500 4.21729500 -0.7940852700000001 0 0 0
Be 1.40576500 4.21729500 2.01730109
Be 4.21729500 1.40576500 -0.7940852700000001 0 0 0
Be 4.21729500 1.40576500 2.01730109
Be 4.21729500 4.21729500 -0.7940852700000001 0 0 0
Be 4.21729500 4.21729500 2.01730109
