&CONTROL
calculation = 'relax'
prefix = 'scf'
pseudo_dir = '/vol0403/data/hp230205/u10028/POT_HYBRID_KKJUS_GBRV'
outdir = './data'
tprnfor = .true.
nstep = 50
disk_io = 'non'
/
&SYSTEM
ibrav = 0
ecutwfc = 50.0
ecutrho = 400
occupations = 'smearing'
smearing = 'mp'
degauss = 0.01
assume_isolated = 'esm'
esm_bc = 'bc1'
input_dft = 'BEEF-VDW'
nosym = .true.
nspin = 1
ntyp = 6
nat = 34
/
&ELECTRONS
electron_maxstep = 200
mixing_beta = 0.1
conv_thr = 1e-06
/
&IONS
ion_dynamics = 'bfgs'
upscale = 1.0
/
&CELL
/

K_POINTS {automatic}
9 6 2 0  0  0

ATOMIC_SPECIES
C 12.01 C.pbe-n-rrkjus_psl.1.0.0.UPF
Cu 63.54 Cu.pbe-dn-rrkjus_psl.1.0.0.UPF
In 114.8 In.pbe-dn-rrkjus_psl.1.0.0.UPF
O 15.99 O.pbe-n-rrkjus_psl.1.0.0.UPF
Pd 106.4 Pd.pbe-n-rrkjus_psl.1.0.0.UPF
Y 88.90 Y.pbe-spn-rrkjus_psl.1.0.0.UPF


CELL_PARAMETERS {angstrom}
6.76944000 0.00000000 0.00000000
0.00000000 9.57344000 0.00000000
0.00000000 0.00000000 27.18010000

ATOMIC_POSITIONS {angstrom}
Y 5.07708000 0.00000000 -1.1967397999999996 0 0 0
Y 5.07708000 4.78672000 -1.1967397999999996 0 0 0
Y 1.69236000 2.39336000 -3.5899476099999994 0 0 0
Y 1.69236000 7.18008000 -3.5899476099999994 0 0 0
Y 4.97784001 4.78672000 3.68399075
Y 4.97655382 0.00019147 3.72557631
Y 1.65912205 7.17548475 1.19701160
Y 1.65918974 2.39785952 1.19673980
In 1.69236000 0.00000000 -1.1967397999999996 0 0 0
In 1.69236000 4.78672000 -1.1967397999999996 0 0 0
In 5.07708000 2.39336000 -3.5899476099999994 0 0 0
In 5.07708000 7.18008000 -3.5899476099999994 0 0 0
In 1.63157043 4.78672000 3.65191824
In 1.60530500 0.00009573 3.58614239
In 5.03802033 7.18907903 1.26278745
In 5.03795264 2.38426523 1.26251564
Cu 0.00000000 0.00000000 -3.5899476099999994 0 0 0
Cu 0.00000000 4.78672000 -3.5899476099999994 0 0 0
Cu 3.38472000 7.18008000 -1.1967397999999996 0 0 0
Cu 3.38472000 2.39336000 -1.1967397999999996 0 0 0
Cu 6.62565709 4.78662427 1.32475807
Cu 6.64352842 0.00000000 1.29132655
Cu 3.11942565 2.39805099 3.66496468
Cu 3.11949334 7.17548475 3.66496468
Pd 0.00000000 2.39336000 -1.1967397999999996 0 0 0
Pd 0.00000000 7.18008000 -1.1967397999999996 0 0 0
Pd 3.38472000 4.78672000 -3.5899476099999994 0 0 0
Pd 3.38472000 0.00000000 -3.5899476099999994 0 0 0
Pd 0.03858581 7.16227340 3.50297129
Pd 0.03851811 2.41135807 3.50297129
Pd 3.42757056 0.00000000 1.20897085
Pd 3.44625421 4.78662427 1.22799692
C 3.74174027 9.57305706 5.87633762
O 3.23409996 9.57276986 6.91189943
