&CONTROL
calculation = 'relax'
prefix = 'scf'
pseudo_dir = '/vol0004/mdt0/data/hp150275/u10028/POT_HYBRID_KKJUS_GBRV'
outdir = './data'
tprnfor = .true.
nstep = 50
disk_io = 'non'
/
&SYSTEM
ibrav = 0
ecutwfc = 50.0
ecutrho = 400
occupations = 'smearing'
smearing = 'mp'
degauss = 0.01
assume_isolated = 'esm'
esm_bc = 'bc1'
input_dft = 'BEEF-VDW'
nosym = .true.
nspin = 2
ntyp = 5
nat = 18
starting_magnetization(1) = 0.1
starting_magnetization(2) = 0.1
starting_magnetization(3) = 0.1
starting_magnetization(4) = 0.1
starting_magnetization(5) = 0.1
/
&ELECTRONS
electron_maxstep = 200
mixing_beta = 0.1
conv_thr = 1e-06
/
&IONS
ion_dynamics = 'bfgs'
upscale = 1.0
/
&CELL
/

K_POINTS {automatic}
10 10 2 0  0  0

ATOMIC_SPECIES
Al 26.98 Al.pbe-nl-rrkjus_psl.1.0.0.UPF
C 12.01 C.pbe-n-rrkjus_psl.1.0.0.UPF
Fe 55.84 fe_pbe_v1.5.uspp.F.UPF
Ni 58.69 ni_pbe_v1.4.uspp.F.UPF
O 15.99 O.pbe-n-rrkjus_psl.1.0.0.UPF

CELL_PARAMETERS {angstrom}
5.78917000 0.00000000 0.00000000
-0.00000000 5.78917000 0.00000000
0.00000000 0.00000000 24.34190000

ATOMIC_POSITIONS {angstrom}
Al 0.00000000 0.00000000 2.17105406
Al 2.89458500 2.89458500 2.17105406
Al 2.89458500 0.00000000 -0.7236846899999989 0 0 0
Al 0.00000000 2.89458500 -0.7236846899999989 0 0 0
Fe 1.44729250 1.44729250 0.72368469
Fe 4.34187750 4.34187750 -2.1710540599999995 0 0 0
Fe 4.34187750 1.44729250 0.72368469
Fe 1.44729250 4.34187750 -2.1710540599999995 0 0 0
Fe 4.34187750 4.34187750 0.72368469
Fe 1.44729250 1.44729250 -2.1710540599999995 0 0 0
Fe 1.44729250 4.34187750 0.72368469
Fe 4.34187750 1.44729250 -2.1710540599999995 0 0 0
Ni 0.00000000 0.00000000 -0.7236846899999989 0 0 0
Ni 2.89458500 -0.00000000 2.17105406
Ni 0.00000000 2.89458500 2.17105406
Ni 2.89458500 2.89458500 -0.7236846899999989 0 0 0
C 0.00000000 2.89458500 4.07093936
O 0.00000000 2.89458500 5.22085071
