&CONTROL
calculation = 'relax'
prefix = 'scf'
pseudo_dir = '/vol0403/data/hp230205/u10028/POT_HYBRID_KKJUS_GBRV'
outdir = './data'
tprnfor = .true.
nstep = 50
disk_io = 'non'
/
&SYSTEM
ibrav = 0
ecutwfc = 50.0
ecutrho = 400
occupations = 'smearing'
smearing = 'mp'
degauss = 0.01
assume_isolated = 'esm'
esm_bc = 'bc1'
input_dft = 'BEEF-VDW'
nosym = .true.
nspin = 1
ntyp = 5
nat = 33
/
&ELECTRONS
electron_maxstep = 200
mixing_beta = 0.1
conv_thr = 1e-06
/
&IONS
ion_dynamics = 'bfgs'
upscale = 1.0
/
&CELL
/

K_POINTS {automatic}
6 6 1 0 0 0

ATOMIC_SPECIES
C 12.01 C.pbe-n-rrkjus_psl.1.0.0.UPF
Ge 72.64 Ge.pbe-dn-rrkjus_psl.1.0.0.UPF
In 114.8 In.pbe-dn-rrkjus_psl.1.0.0.UPF
Li 6.941 Li.pbe-sl-rrkjus_psl.1.0.0.UPF
Mg 24.30 Mg.pbe-spnl-rrkjus_psl.1.0.0.UPF


CELL_PARAMETERS {angstrom}
8.41850000 0.00000000 0.00000000
0.00000000 8.40992000 0.00000000
0.00000000 0.00000000 26.56300000

ATOMIC_POSITIONS {angstrom}
Li 0.00143115 2.16597490 1.14380278
Li 0.00000000 2.10248000 -3.281593019999999 0 0 0
Li 0.00143115 6.24394510 1.14353715
Li 0.00000000 6.30744000 -3.281593019999999 0 0 0
Li 4.20781886 2.16597490 1.14353715
Li 4.20925000 2.10248000 -3.281593019999999 0 0 0
Li 4.20781886 6.24394510 1.14380278
Li 4.20925000 6.30744000 -3.281593019999999 0 0 0
Mg 2.10462500 2.28859153 3.71271051
Mg 2.10462500 2.10248000 -1.0938643399999997 0 0 0
Mg 2.10454082 6.12124437 3.71271051
Mg 2.10462500 6.30744000 -1.0938643399999997 0 0 0
Mg 6.31387500 2.28152720 3.58680189
Mg 6.31387500 2.10248000 -1.0938643399999997 0 0 0
Mg 6.31395918 6.12830870 3.58680189
Mg 6.31387500 6.30744000 -1.0938643399999997 0 0 0
In 2.10462500 0.00008410 1.24978915
In 2.10462500 0.00000000 -3.281593019999999 0 0 0
In 2.10462500 4.20496000 1.24075773
In 2.10462500 4.20496000 -3.281593019999999 0 0 0
In 6.31387500 0.00000000 1.26307065
In 6.31387500 0.00000000 -3.281593019999999 0 0 0
In 6.31387500 4.20496000 1.19692878
In 6.31387500 4.20496000 -3.281593019999999 0 0 0
Ge 0.14488239 0.00000000 3.73369528
Ge 0.00000000 0.00000000 -1.0938643399999997 0 0 0
Ge 8.41277542 4.20487590 3.42768952
Ge 0.00000000 4.20496000 -1.0938643399999997 0 0 0
Ge 4.06428343 8.40983590 3.73369528
Ge 4.20925000 0.00000000 -1.0938643399999997 0 0 0
Ge 4.21497458 4.20504410 3.42768952
Ge 4.20925000 4.20496000 -1.0938643399999997 0 0 0
C 2.10462500 0.00000000 3.94433987
