&CONTROL
calculation = 'relax'
prefix = 'scf'
pseudo_dir = '/vol0403/data/hp230205/u10028/POT_HYBRID_KKJUS_GBRV'
outdir = './data'
tprnfor = .true.
nstep = 50
disk_io = 'non'
/
&SYSTEM
ibrav = 0
ecutwfc = 50.0
ecutrho = 400
occupations = 'smearing'
smearing = 'mp'
degauss = 0.01
assume_isolated = 'esm'
esm_bc = 'bc1'
input_dft = 'BEEF-VDW'
nosym = .true.
nspin = 2
ntyp = 5
nat = 17
starting_magnetization(1) = 0.0
starting_magnetization(2) = 0.0
starting_magnetization(3) = 0.1
starting_magnetization(4) = 0.0
starting_magnetization(5) = 0.0
/
&ELECTRONS
electron_maxstep = 400
mixing_beta = 0.05
conv_thr = 1e-06
/
&IONS
ion_dynamics = 'bfgs'
upscale = 1.0
/
&CELL
/

K_POINTS {automatic}
12 7 2 0  0  0

ATOMIC_SPECIES
Al 26.98 Al.pbe-nl-rrkjus_psl.1.0.0.UPF
C 12.01 C.pbe-n-rrkjus_psl.1.0.0.UPF
Fe 55.84 fe_pbe_v1.5.uspp.F.UPF
Li 6.941 Li.pbe-sl-rrkjus_psl.1.0.0.UPF
Pd 106.4 Pd.pbe-n-rrkjus_psl.1.0.0.UPF


CELL_PARAMETERS {angstrom}
5.15535000 0.00000000 0.00000000
0.00000000 8.84236000 0.00000000
0.00000000 0.00000000 23.55420000

ATOMIC_POSITIONS {angstrom}
Li 3.35907140 2.21059000 -0.5923881300000033 0 0 0
Li 5.07363770 1.99474799 1.97478413
Li 3.35907140 6.63177000 -0.5923881300000033 0 0 0
Li 5.07363770 6.84761201 1.97478413
Al 0.00000000 0.00000000 -1.777164390000003 0 0 0
Al 1.58217692 0.00000000 0.48027014
Al 0.00000000 4.42118000 -1.777164390000003 0 0 0
Al 1.37854059 4.42118000 0.70097299
Fe 2.57767500 0.00000000 -1.777164390000003 0 0 0
Fe 4.12360980 0.00008842 0.44022800
Fe 2.57767500 4.42118000 -1.777164390000003 0 0 0
Fe 3.77639698 4.42109158 0.15475109
Pd 0.78139640 2.21059000 -0.5923881300000033 0 0 0
Pd 2.56055924 2.05452235 1.71521684
Pd 0.78139640 6.63177000 -0.5923881300000033 0 0 0
Pd 2.56055924 6.78783765 1.71521684
C 3.29581525 0.00000000 1.91118779
