&CONTROL
calculation = 'relax'
prefix = 'scf'
pseudo_dir = '/vol0004/mdt0/data/hp150275/u10028/POT_KKJUS'
outdir = './data'
tprnfor = .true.
nstep = 50
disk_io = 'non'
/
&SYSTEM
ibrav = 0
ecutwfc = 50.0
ecutrho = 400
occupations = 'smearing'
smearing = 'mp'
degauss = 0.01
assume_isolated = 'esm'
esm_bc = 'bc1'
input_dft = 'BEEF-VDW'
nosym = .true.
nspin = 1
ntyp = 3
nat = 17
/
&ELECTRONS
electron_maxstep = 200
mixing_beta = 0.1
conv_thr = 1e-06
/
&IONS
ion_dynamics = 'bfgs'
upscale = 1.0
/
&CELL
/

K_POINTS {automatic}
6 8 1 0 0 0

ATOMIC_SPECIES
C 12.01 C.pbe-n-rrkjus_psl.1.0.0.UPF
Pt 195.0 Pt.pbe-n-rrkjus_psl.1.0.0.UPF
V 50.94 V.pbe-spnl-rrkjus_psl.1.0.0.UPF

CELL_PARAMETERS {angstrom}
7.64728000 0.00000000 0.00000000
0.00000000 5.40744000 0.00000000
0.00000000 0.00000000 24.05560000

ATOMIC_POSITIONS {angstrom}
V 0.00000000 2.70372000 -2.0278870799999993 0 0 0
V 1.91182000 4.05558000 -0.6759623599999998 0 0 0
V 1.91182000 1.35186000 -0.6759623599999998 0 0 0
V 7.64720353 0.00005407 0.51238428
V 1.58405758 1.17406337 2.06324881
V 1.58405758 4.23337663 2.06348937
V 3.82364000 2.70372000 -2.0278870799999993 0 0 0
V 5.73546000 4.05558000 -0.6759623599999998 0 0 0
V 5.73546000 1.35186000 -0.6759623599999998 0 0 0
V 3.82356353 0.00000000 0.73826636
V 6.06322242 1.17411745 2.06324881
V 6.06322242 4.23332255 2.06324881
Pt 0.00000000 0.00000000 -2.0278870799999993 0 0 0
Pt 0.00007647 2.70372000 0.61558280
Pt 3.82364000 0.00000000 -2.0278870799999993 0 0 0
Pt 3.82371647 2.70372000 0.92229170
C 0.00000000 0.00000000 2.66536048
