&CONTROL
calculation = 'relax'
prefix = 'scf'
pseudo_dir = '/vol0004/mdt0/data/hp150275/u10028/POT_KKJUS'
outdir = './data'
tprnfor = .true.
nstep = 50
disk_io = 'non'
/
&SYSTEM
ibrav = 0
ecutwfc = 50.0
ecutrho = 400
occupations = 'smearing'
smearing = 'mp'
degauss = 0.01
assume_isolated = 'esm'
esm_bc = 'bc1'
input_dft = 'BEEF-VDW'
nosym = .true.
nspin = 1
ntyp = 4
nat = 33
/
&ELECTRONS
electron_maxstep = 200
mixing_beta = 0.1
conv_thr = 1e-06
/
&IONS
ion_dynamics = 'bfgs'
upscale = 1.0
/
&CELL
/

K_POINTS {automatic}
9 6 2 0  0  0

ATOMIC_SPECIES
Al 26.98 Al.pbe-nl-rrkjus_psl.1.0.0.UPF
C 12.01 C.pbe-n-rrkjus_psl.1.0.0.UPF
Cu 63.54 Cu.pbe-dn-rrkjus_psl.1.0.0.UPF
Sc 44.95 Sc.pbe-spn-rrkjus_psl.1.0.0.UPF

CELL_PARAMETERS {angstrom}
6.23499000 0.00000000 0.00000000
0.00000000 8.81761000 0.00000000
0.00000000 0.00000000 26.61320000

ATOMIC_POSITIONS {angstrom}
Sc 0.00000000 0.00000000 -3.306690100000001 0 0 0
Sc 3.11749500 2.20440250 -1.1023187399999976 0 0 0
Sc 3.11749500 6.61320750 -1.1023187399999976 0 0 0
Sc 0.00000000 4.40880500 -3.306690100000001 0 0 0
Sc 0.00000000 4.40880500 1.03525348
Sc 3.11749500 6.67898687 3.42139299
Sc 3.11749500 2.13862313 3.42139299
Sc 0.00000000 0.00000000 1.08954441
Al 0.00000000 6.61320750 -1.1023187399999976 0 0 0
Al 3.11749500 0.00000000 -3.306690100000001 0 0 0
Al 0.00000000 2.20440250 -1.1023187399999976 0 0 0
Al 3.11749500 4.40880500 -3.306690100000001 0 0 0
Al 0.00000000 2.24760879 3.14780930
Al 3.11749500 4.40880500 1.11323016
Al 0.00000000 6.57000121 3.14780930
Al 3.11749500 0.00000000 1.25348172
Cu 1.55874750 0.00000000 -1.1023187399999976 0 0 0
Cu 4.67624250 4.40880500 -1.1023187399999976 0 0 0
Cu 4.67624250 0.00000000 -1.1023187399999976 0 0 0
Cu 1.55874750 4.40880500 -1.1023187399999976 0 0 0
Cu 4.67624250 6.61320750 -3.306690100000001 0 0 0
Cu 1.55874750 2.20440250 -3.306690100000001 0 0 0
Cu 1.55874750 6.61320750 -3.306690100000001 0 0 0
Cu 4.67624250 2.20440250 -3.306690100000001 0 0 0
Cu 1.45823946 4.40880500 3.22339078
Cu 5.03406858 0.00000000 3.48207109
Cu 4.77675054 4.40880500 3.22339078
Cu 1.20092142 0.00000000 3.48207109
Cu 4.60503891 2.23879118 1.09566544
Cu 1.62995109 6.57890700 1.09566544
Cu 1.62988874 2.23870300 1.09566544
Cu 4.60510126 6.57890700 1.09566544
C 3.11749500 0.00000000 3.46530477
