&CONTROL
calculation = 'relax'
prefix = 'scf'
pseudo_dir = '/vol0004/mdt0/data/hp150275/u10028/POT_HYBRID_KKJUS_GBRV'
outdir = './data'
tprnfor = .true.
nstep = 50
disk_io = 'non'
/
&SYSTEM
ibrav = 0
ecutwfc = 50.0
ecutrho = 400
occupations = 'smearing'
smearing = 'mp'
degauss = 0.01
assume_isolated = 'esm'
esm_bc = 'bc1'
input_dft = 'BEEF-VDW'
nosym = .true.
nspin = 2
ntyp = 4
nat = 33
starting_magnetization(1) = 0.0
starting_magnetization(2) = 0.1
starting_magnetization(3) = 0.0
starting_magnetization(4) = 0.0
/
&ELECTRONS
electron_maxstep = 300
mixing_beta = 0.1
conv_thr = 1e-06
/
&IONS
ion_dynamics = 'bfgs'
upscale = 1.0
/
&CELL
/

K_POINTS {automatic}
8 6 1 0 0 0

ATOMIC_SPECIES
C 12.01 C.pbe-n-rrkjus_psl.1.0.0.UPF
Fe 55.84 fe_pbe_v1.5.uspp.F.UPF
Ga 69.72 Ga.pbe-dnl-rrkjus_psl.1.0.0.UPF
V 50.94 V.pbe-spnl-rrkjus_psl.1.0.0.UPF

CELL_PARAMETERS {angstrom}
5.73361000 0.00000000 0.00000000
0.00000000 8.10855000 0.00000000
0.00000000 0.00000000 26.08140000

ATOMIC_POSITIONS {angstrom}
V 0.00000000 0.00000000 -3.0408304299999998 0 0 0
V 2.86680500 2.02713750 -1.013523199999998 0 0 0
V 2.86680500 6.08141250 -1.013523199999998 0 0 0
V 0.00000000 4.05427500 -3.0408304299999998 0 0 0
V 0.00000000 4.05419391 1.01274076
V 2.86680500 6.07784474 2.96467274
V 2.86680500 2.03070526 2.96441192
V 0.00000000 0.00008109 0.95849145
Ga 0.00000000 6.08141250 -1.013523199999998 0 0 0
Ga 2.86680500 0.00000000 -3.0408304299999998 0 0 0
Ga 0.00000000 2.02713750 -1.013523199999998 0 0 0
Ga 2.86680500 4.05427500 -3.0408304299999998 0 0 0
Ga 0.00000000 2.05381463 3.14828579
Ga 2.86680500 4.05435609 1.01534890
Ga 0.00000000 6.05473537 3.14828579
Ga 2.86680500 8.10838783 0.95379680
Fe 1.43340250 0.00000000 -1.013523199999998 0 0 0
Fe 4.30020750 4.05427500 -1.013523199999998 0 0 0
Fe 4.30020750 0.00000000 -1.013523199999998 0 0 0
Fe 1.43340250 4.05427500 -1.013523199999998 0 0 0
Fe 4.30020750 6.08141250 -3.0408304299999998 0 0 0
Fe 1.43340250 2.02713750 -3.0408304299999998 0 0 0
Fe 1.43340250 6.08141250 -3.0408304299999998 0 0 0
Fe 4.30020750 2.02713750 -3.0408304299999998 0 0 0
Fe 1.43105172 4.05427500 3.04969810
Fe 4.25892551 0.00000000 3.00848949
Fe 4.30255828 4.05427500 3.04969810
Fe 1.47468449 0.00000000 3.00848949
Fe 4.29355651 2.01675856 1.03334507
Fe 1.43993882 6.09179144 1.03334507
Fe 1.44005349 2.01675856 1.03334507
Fe 4.29361385 6.09179144 1.03334507
C 0.00000000 0.00000000 3.99540967
