&CONTROL
calculation = 'relax'
prefix = 'scf'
pseudo_dir = '/vol0403/data/hp230205/u10028/POT_HYBRID_KKJUS_GBRV'
outdir = './data'
tprnfor = .true.
nstep = 50
disk_io = 'non'
/
&SYSTEM
ibrav = 0
ecutwfc = 50.0
ecutrho = 400
occupations = 'smearing'
smearing = 'mp'
degauss = 0.01
assume_isolated = 'esm'
esm_bc = 'bc1'
input_dft = 'BEEF-VDW'
nosym = .true.
nspin = 1
ntyp = 5
nat = 33
/
&ELECTRONS
electron_maxstep = 200
mixing_beta = 0.1
conv_thr = 1e-06
/
&IONS
ion_dynamics = 'bfgs'
upscale = 1.0
/
&CELL
/

K_POINTS {automatic}
6 6 1 0 0 0

ATOMIC_SPECIES
Au 196.9 Au.pbe-n-rrkjus_psl.1.0.0.UPF
C 12.01 C.pbe-n-rrkjus_psl.1.0.0.UPF
Ge 72.64 Ge.pbe-dn-rrkjus_psl.1.0.0.UPF
In 114.8 In.pbe-dn-rrkjus_psl.1.0.0.UPF
Li 6.941 Li.pbe-sl-rrkjus_psl.1.0.0.UPF


CELL_PARAMETERS {angstrom}
8.46544000 0.00000000 0.00000000
0.00000000 8.57796000 0.00000000
0.00000000 0.00000000 26.29600000

ATOMIC_POSITIONS {angstrom}
Li 2.08901663 0.00986465 0.67922568
Li 2.11636000 0.00000000 -3.14789416 0 0 0
Li 2.08901663 4.27911535 0.67922568
Li 2.11636000 4.28898000 -3.14789416 0 0 0
Li 6.33917544 8.51705648 0.94902264
Li 6.34908000 0.00000000 -3.14789416 0 0 0
Li 6.33917544 4.34996930 0.94902264
Li 6.34908000 4.28898000 -3.14789416 0 0 0
In 8.45138737 2.14431844 0.89458992
In 0.00000000 2.14449000 -3.14789416 0 0 0
In 0.01760812 6.43355578 1.05078816
In 0.00000000 6.43347000 -3.14789416 0 0 0
In 4.23957701 2.14449000 1.24537856
In 4.23272000 2.14449000 -3.14789416 0 0 0
In 4.15255228 6.43355578 1.17359048
In 4.23272000 6.43347000 -3.14789416 0 0 0
Ge 2.31478991 2.14440422 4.25127432
Ge 2.11636000 2.14449000 -1.0492103999999998 0 0 0
Ge 1.99445766 6.43329844 4.15713464
Ge 2.11636000 6.43347000 -1.0492103999999998 0 0 0
Ge 7.03994456 2.14500468 4.21183032
Ge 6.34908000 2.14449000 -1.0492103999999998 0 0 0
Ge 7.77703042 6.43329844 3.96438496
Ge 6.34908000 6.43347000 -1.0492103999999998 0 0 0
Au 8.41998059 0.08998280 2.83707544
Au 0.00000000 0.00000000 -1.0492103999999998 0 0 0
Au 8.42048851 4.19882564 2.83681248
Au 0.00000000 4.28898000 -1.0492103999999998 0 0 0
Au 3.16361958 8.51825740 3.02351408
Au 4.23272000 0.00000000 -1.0492103999999998 0 0 0
Au 3.16378889 4.34851104 3.02351408
Au 4.23272000 4.28898000 -1.0492103999999998 0 0 0
C 0.43072159 2.14440422 3.81423480
