&CONTROL
calculation = 'relax'
prefix = 'scf'
pseudo_dir = '/vol0403/data/hp230205/u10028/POT_HYBRID_KKJUS_GBRV'
outdir = './data'
tprnfor = .true.
nstep = 70
disk_io = 'non'
/
&SYSTEM
ibrav = 0
ecutwfc = 50.0
ecutrho = 400
occupations = 'smearing'
smearing = 'mp'
degauss = 0.01
assume_isolated = 'esm'
esm_bc = 'bc1'
input_dft = 'BEEF-VDW'
nosym = .true.
nspin = 1
ntyp = 6
nat = 34
/
&ELECTRONS
electron_maxstep = 200
mixing_beta = 0.1
conv_thr = 1e-06
/
&IONS
ion_dynamics = 'bfgs'
upscale = 1.0
/
&CELL
/

K_POINTS {automatic}
6 6 1 0 0 0

ATOMIC_SPECIES
Al 26.98 Al.pbe-nl-rrkjus_psl.1.0.0.UPF
C 12.01 C.pbe-n-rrkjus_psl.1.0.0.UPF
In 114.8 In.pbe-dn-rrkjus_psl.1.0.0.UPF
O 15.99 O.pbe-n-rrkjus_psl.1.0.0.UPF
Pd 106.4 Pd.pbe-n-rrkjus_psl.1.0.0.UPF
Y 88.90 Y.pbe-spn-rrkjus_psl.1.0.0.UPF


CELL_PARAMETERS {angstrom}
8.16174000 0.00000000 0.00000000
-0.00000000 8.86460000 0.00000000
0.00000000 0.00000000 26.91240000

ATOMIC_POSITIONS {angstrom}
Y 2.03635413 8.82665951 1.22316858
Y 2.04043500 0.00000000 -3.4560904100000016 0 0 0
Y 2.03023283 4.46802434 1.23420266
Y 2.04043500 4.43230000 -3.4560904100000016 0 0 0
Y 6.12718145 8.86371354 1.22693632
Y 6.12130500 0.00000000 -3.4560904100000016 0 0 0
Y 6.13477187 4.42928604 1.23877777
Y 6.12130500 4.43230000 -3.4560904100000016 0 0 0
Al 0.01509922 0.79169743 3.51422119
Al 0.00000000 0.00000000 -1.152119840000001 0 0 0
Al 0.01477275 3.61604763 3.53252162
Al 0.00000000 4.43230000 -1.152119840000001 0 0 0
Al 4.09409202 8.06022620 3.50587835
Al 4.08087000 0.00000000 -1.152119840000001 0 0 0
Al 4.08650160 5.29021599 3.49080740
Al 4.08087000 4.43230000 -1.152119840000001 0 0 0
In 2.59551494 2.20861509 3.66304676
In 2.04043500 2.21615000 -1.152119840000001 0 0 0
In 1.46168602 6.66032856 3.84712758
In 2.04043500 6.64845000 -1.152119840000001 0 0 0
In 5.61797049 2.21021072 3.77580972
In 6.12130500 2.21615000 -1.152119840000001 0 0 0
In 6.69564664 6.66431763 3.82586678
In 6.12130500 6.64845000 -1.152119840000001 0 0 0
Pd 0.01811906 2.20781728 1.13462678
Pd 0.00000000 2.21615000 -3.4560904100000016 0 0 0
Pd 8.15243562 6.65040021 0.99091457
Pd 0.00000000 6.64845000 -3.4560904100000016 0 0 0
Pd 4.07319796 2.21801157 0.85904381
Pd 4.08087000 2.21615000 -3.4560904100000016 0 0 0
Pd 4.10755889 6.65057750 1.08483884
Pd 4.08087000 6.64845000 -3.4560904100000016 0 0 0
C 2.58833261 2.35328536 7.31048434
O 1.60973998 2.15329999 7.85088533
