&CONTROL
calculation = 'relax'
prefix = 'scf'
pseudo_dir = '/vol0004/mdt0/data/hp150275/u10028/POT_KKJUS'
outdir = './data'
tprnfor = .true.
nstep = 50
disk_io = 'non'
/
&SYSTEM
ibrav = 0
ecutwfc = 50.0
ecutrho = 400
occupations = 'smearing'
smearing = 'mp'
degauss = 0.01
assume_isolated = 'esm'
esm_bc = 'bc1'
input_dft = 'BEEF-VDW'
nosym = .true.
nspin = 1
ntyp = 4
nat = 33
/
&ELECTRONS
electron_maxstep = 200
mixing_beta = 0.1
conv_thr = 1e-06
/
&IONS
ion_dynamics = 'bfgs'
upscale = 1.0
/
&CELL
/

K_POINTS {automatic}
8 6 1 0 0 0

ATOMIC_SPECIES
C 12.01 C.pbe-n-rrkjus_psl.1.0.0.UPF
Ni 58.69 Ni.pbe-spn-rrkjus_psl.1.0.0.UPF
Sb 121.7 Sb.pbe-n-rrkjus_psl.1.0.0.UPF
Ti 47.86 Ti.pbe-spn-rrkjus_psl.1.0.0.UPF

CELL_PARAMETERS {angstrom}
6.14888000 0.00000000 0.00000000
0.00000000 8.69583000 0.00000000
0.00000000 0.00000000 26.52190000

ATOMIC_POSITIONS {angstrom}
Ti 0.00000000 0.00000000 -3.2608676099999983 0 0 0
Ti 3.07444000 2.17395750 -1.086867459999997 0 0 0
Ti 3.07444000 6.52187250 -1.086867459999997 0 0 0
Ti 0.00000000 4.34791500 -3.2608676099999983 0 0 0
Ti 0.00006149 4.34800196 1.13009816
Ti 3.07450149 6.70848501 3.30383308
Ti 3.07450149 1.98699716 3.30383308
Ti 6.14881851 0.00026087 1.08819356
Ni 1.53722000 0.00000000 -1.086867459999997 0 0 0
Ni 4.61166000 4.34791500 -1.086867459999997 0 0 0
Ni 4.61166000 0.00000000 -1.086867459999997 0 0 0
Ni 1.53722000 4.34791500 -1.086867459999997 0 0 0
Ni 4.61166000 6.52187250 -3.2608676099999983 0 0 0
Ni 1.53722000 2.17395750 -3.2608676099999983 0 0 0
Ni 1.53722000 6.52187250 -3.2608676099999983 0 0 0
Ni 4.61166000 2.17395750 -3.2608676099999983 0 0 0
Ni 1.70194850 4.34782804 3.11897544
Ni 4.86050517 0.00000000 3.17679318
Ni 4.44717746 4.34774108 3.11871022
Ni 1.28849780 0.00000000 3.17679318
Ni 4.65587045 2.17265313 1.16484185
Ni 1.49313253 6.52343775 1.16457663
Ni 1.49270211 2.17247921 1.16484185
Ni 4.65550151 6.52335079 1.16431141
Sb 0.00000000 6.52187250 -1.086867459999997 0 0 0
Sb 3.07444000 0.00000000 -3.2608676099999983 0 0 0
Sb 0.00000000 2.17395750 -1.086867459999997 0 0 0
Sb 3.07444000 4.34791500 -3.2608676099999983 0 0 0
Sb 0.00012298 2.30865591 3.50089080
Sb 3.07450149 4.34843675 1.02348012
Sb 0.00018447 6.38717409 3.50142124
Sb 3.07450149 0.00008696 1.03143669
C 3.07456298 0.00008696 3.84938857
