&CONTROL
calculation = 'relax'
prefix = 'scf'
pseudo_dir = '/vol0403/data/hp230205/u10028/POT_HYBRID_KKJUS_GBRV'
outdir = './data'
tprnfor = .true.
nstep = 50
disk_io = 'non'
/
&SYSTEM
ibrav = 0
ecutwfc = 50.0
ecutrho = 400
occupations = 'smearing'
smearing = 'mp'
degauss = 0.01
assume_isolated = 'esm'
esm_bc = 'bc1'
input_dft = 'BEEF-VDW'
nosym = .true.
nspin = 1
ntyp = 6
nat = 18
/
&ELECTRONS
electron_maxstep = 200
mixing_beta = 0.1
conv_thr = 1e-06
/
&IONS
ion_dynamics = 'bfgs'
upscale = 1.0
/
&CELL
/

K_POINTS {automatic}
9 9 2 0  0  0

ATOMIC_SPECIES
C 12.01 C.pbe-n-rrkjus_psl.1.0.0.UPF
Ge 72.64 Ge.pbe-dn-rrkjus_psl.1.0.0.UPF
Li 6.941 Li.pbe-sl-rrkjus_psl.1.0.0.UPF
O 15.99 O.pbe-n-rrkjus_psl.1.0.0.UPF
Pd 106.4 Pd.pbe-n-rrkjus_psl.1.0.0.UPF
Sn 118.7 Sn.pbe-dn-rrkjus_psl.1.0.0.UPF


CELL_PARAMETERS {angstrom}
6.61012000 0.00000000 0.00000000
0.00000000 6.61012000 0.00000000
0.00000000 0.00000000 24.95760000

ATOMIC_POSITIONS {angstrom}
Li 4.95759000 1.65253000 -0.8263461399999983 0 0 0
Li 4.95759000 4.95759000 2.46581088
Li 1.65253000 1.65253000 2.46631003
Li 1.65253000 4.95759000 -0.8263461399999983 0 0 0
Sn 0.00000000 3.30506000 -2.478788829999999 0 0 0
Sn 0.00568470 0.00555250 0.67510308
Sn 3.29937530 3.29944140 0.67510308
Sn 3.30506000 0.00000000 -2.478788829999999 0 0 0
Ge 0.00000000 0.00000000 -2.478788829999999 0 0 0
Ge 6.57726770 3.33804450 0.84980628
Ge 3.33791230 6.57713550 0.84955670
Ge 3.30506000 3.30506000 -2.478788829999999 0 0 0
Pd 1.65253000 1.65253000 -0.8263461399999983 0 0 0
Pd 1.65253000 4.95759000 1.98338047
Pd 4.95759000 1.65253000 1.98313090
Pd 4.95759000 4.95759000 -0.8263461399999983 0 0 0
C 1.65253000 1.65253000 4.58720688
O 1.65253000 1.65253000 5.72602217
