&CONTROL
calculation = 'relax'
prefix = 'scf'
pseudo_dir = '/vol0403/data/hp230205/u10028/POT_HYBRID_KKJUS_GBRV'
outdir = './data'
tprnfor = .true.
nstep = 70
disk_io = 'non'
/
&SYSTEM
ibrav = 0
ecutwfc = 50.0
ecutrho = 400
occupations = 'smearing'
smearing = 'mp'
degauss = 0.01
assume_isolated = 'esm'
esm_bc = 'bc1'
input_dft = 'BEEF-VDW'
nosym = .true.
nspin = 1
ntyp = 6
nat = 34
/
&ELECTRONS
electron_maxstep = 200
mixing_beta = 0.1
conv_thr = 1e-06
/
&IONS
ion_dynamics = 'bfgs'
upscale = 1.0
/
&CELL
/

K_POINTS {automatic}
9 6 2 0  0  0

ATOMIC_SPECIES
C 12.01 C.pbe-n-rrkjus_psl.1.0.0.UPF
Cu 63.54 Cu.pbe-dn-rrkjus_psl.1.0.0.UPF
Li 6.941 Li.pbe-sl-rrkjus_psl.1.0.0.UPF
O 15.99 O.pbe-n-rrkjus_psl.1.0.0.UPF
Pd 106.4 Pd.pbe-n-rrkjus_psl.1.0.0.UPF
Si 28.08 Si.pbe-nl-rrkjus_psl.1.0.0.UPF


CELL_PARAMETERS {angstrom}
5.89837000 0.00000000 0.00000000
-0.00000000 8.34156000 0.00000000
0.00000000 0.00000000 26.25620000

ATOMIC_POSITIONS {angstrom}
Li 1.47459250 0.00000000 -1.0426336999999997 0 0 0
Li 1.47459250 4.17078000 -1.0426336999999997 0 0 0
Li 4.42377750 2.08539000 -3.1281636699999993 0 0 0
Li 4.42377750 6.25617000 -3.1281636699999993 0 0 0
Li 1.53670234 4.20856727 3.52253179
Li 1.53664335 8.30385615 3.52253179
Li 4.43545627 6.25617000 0.91529113
Li 4.50576484 2.08539000 1.01690263
Cu 0.00000000 0.00000000 -3.1281636699999993 0 0 0
Cu 0.00000000 4.17078000 -3.1281636699999993 0 0 0
Cu 2.94918500 6.25617000 -1.0426336999999997 0 0 0
Cu 2.94918500 2.08539000 -1.0426336999999997 0 0 0
Cu 0.06240475 4.14300261 1.12954172
Cu 0.06234577 0.02786081 1.12927916
Cu 3.12808256 2.08539000 2.95277225
Cu 3.10796912 6.25617000 2.95959886
Si 4.42377750 0.00000000 -1.0426336999999997 0 0 0
Si 4.42377750 4.17078000 -1.0426336999999997 0 0 0
Si 1.47459250 2.08539000 -3.1281636699999993 0 0 0
Si 1.47459250 6.25617000 -3.1281636699999993 0 0 0
Si 4.42507514 4.18295868 3.06646160
Si 4.42513413 8.32938132 3.06646160
Si 1.47937018 6.25617000 1.05943767
Si 1.45866690 2.08539000 1.06363866
Pd 0.00000000 2.08539000 -1.0426336999999997 0 0 0
Pd 0.00000000 6.25617000 -1.0426336999999997 0 0 0
Pd 2.94918500 4.17078000 -3.1281636699999993 0 0 0
Pd 2.94918500 0.00000000 -3.1281636699999993 0 0 0
Pd 5.80476287 6.25617000 2.96379986
Pd 5.86421844 2.08539000 3.32692310
Pd 2.89810512 0.01526505 1.07807957
Pd 2.89810512 4.15551495 1.07807957
C 0.86776819 2.08539000 5.08425057
O 1.09202422 2.08522317 6.21956866
