&CONTROL
calculation = 'relax'
prefix = 'scf'
pseudo_dir = '/vol0004/mdt0/data/hp150275/u10028/POT_KKJUS'
outdir = './data'
tprnfor = .true.
nstep = 50
disk_io = 'non'
/
&SYSTEM
ibrav = 0
ecutwfc = 50.0
ecutrho = 400
occupations = 'smearing'
smearing = 'mp'
degauss = 0.01
assume_isolated = 'esm'
esm_bc = 'bc1'
input_dft = 'BEEF-VDW'
nosym = .true.
nspin = 1
ntyp = 4
nat = 18
/
&ELECTRONS
electron_maxstep = 200
mixing_beta = 0.1
conv_thr = 1e-06
/
&IONS
ion_dynamics = 'bfgs'
upscale = 1.0
/
&CELL
/

K_POINTS {automatic}
9 9 2 0  0  0

ATOMIC_SPECIES
C 12.01 C.pbe-n-rrkjus_psl.1.0.0.UPF
In 114.8 In.pbe-dn-rrkjus_psl.1.0.0.UPF
Ni 58.69 Ni.pbe-spn-rrkjus_psl.1.0.0.UPF
O 15.99 O.pbe-n-rrkjus_psl.1.0.0.UPF

CELL_PARAMETERS {angstrom}
6.37073000 0.00000000 0.00000000
0.00000000 6.37073000 0.00000000
0.00000000 0.00000000 24.77800000

ATOMIC_POSITIONS {angstrom}
In 0.00000000 0.00000000 -2.131403559999999 0 0 0
In 0.00643444 0.00439580 1.11674446
In 0.00000000 3.18536500 -2.131403559999999 0 0 0
In 0.00573366 3.18045954 1.11748780
In 3.18536500 0.00000000 -2.131403559999999 0 0 0
In 3.18014100 0.00509658 1.11501000
In 3.18536500 3.18536500 -2.131403559999999 0 0 0
In 3.18084178 3.17969505 1.11575334
Ni 1.59268250 1.59268250 -0.5386737199999985 0 0 0
Ni 1.59325587 1.59255509 2.61853904
Ni 1.59268250 4.77804750 -0.5386737199999985 0 0 0
Ni 1.59956289 4.77779267 2.48176448
Ni 4.77804750 1.59268250 -0.5386737199999985 0 0 0
Ni 4.77677335 1.58892377 2.47780000
Ni 4.77804750 4.77804750 -0.5386737199999985 0 0 0
Ni 4.77658223 4.77932165 2.42849178
C 1.59198172 1.59325587 4.39413052
O 1.59166318 1.59325587 5.54804198
