&CONTROL
calculation = 'relax'
prefix = 'scf'
pseudo_dir = '/vol0004/mdt0/data/hp150275/u10028/POT_HYBRID_KKJUS_GBRV'
outdir = './data'
tprnfor = .true.
nstep = 50
disk_io = 'non'
/
&SYSTEM
ibrav = 0
ecutwfc = 50.0
ecutrho = 400
occupations = 'smearing'
smearing = 'mp'
degauss = 0.01
assume_isolated = 'esm'
esm_bc = 'bc1'
input_dft = 'BEEF-VDW'
nosym = .true.
nspin = 2
ntyp = 3
nat = 33
starting_magnetization(1) = 0.1
starting_magnetization(2) = 0.1
starting_magnetization(3) = 0.1
/
&ELECTRONS
electron_maxstep = 200
mixing_beta = 0.1
conv_thr = 1e-06
/
&IONS
ion_dynamics = 'bfgs'
upscale = 1.0
/
&CELL
/

K_POINTS {automatic}
9 6 2 0  0  0

ATOMIC_SPECIES
C 12.01 C.pbe-n-rrkjus_psl.1.0.0.UPF
Mn 54.93 mn_pbe_v1.5.uspp.F.UPF
V 50.94 V.pbe-spnl-rrkjus_psl.1.0.0.UPF

CELL_PARAMETERS {angstrom}
5.76229000 0.00000000 0.00000000
0.00000000 8.14911000 0.00000000
0.00000000 0.00000000 26.11180000

ATOMIC_POSITIONS {angstrom}
Mn 0.00000000 0.00000000 -3.055863949999999 0 0 0
Mn 0.00000000 2.03727750 -1.0186213199999976 0 0 0
Mn 0.00000000 0.00000000 1.02097138
Mn 0.00000000 1.98414530 3.17101699
Mn 0.00000000 4.07455500 -3.055863949999999 0 0 0
Mn 0.00000000 6.11183250 -1.0186213199999976 0 0 0
Mn 0.00000000 4.07455500 1.12437411
Mn 0.00000000 6.16496470 3.17101699
Mn 2.88114500 0.00000000 -3.055863949999999 0 0 0
Mn 2.88114500 2.03727750 -1.0186213199999976 0 0 0
Mn 2.88114500 0.00000000 0.97214231
Mn 2.88114500 2.09489171 2.99032334
Mn 2.88114500 4.07455500 -3.055863949999999 0 0 0
Mn 2.88114500 6.11183250 -1.0186213199999976 0 0 0
Mn 2.88114500 4.07455500 1.03167722
Mn 2.88114500 6.05421829 2.99032334
V 1.44057250 2.03727750 -3.055863949999999 0 0 0
V 1.44057250 0.00000000 -1.0186213199999976 0 0 0
V 1.44201307 2.04518214 1.05805014
V 1.43746086 4.07455500 3.18355066
V 1.44057250 6.11183250 -3.055863949999999 0 0 0
V 1.44057250 4.07455500 -1.0186213199999976 0 0 0
V 1.44201307 6.10392786 1.05805014
V 1.56377026 0.00000000 3.09477054
V 4.32171750 2.03727750 -3.055863949999999 0 0 0
V 4.32171750 0.00000000 -1.0186213199999976 0 0 0
V 4.32027693 2.04518214 1.05805014
V 4.32482914 4.07455500 3.18355066
V 4.32171750 6.11183250 -3.055863949999999 0 0 0
V 4.32171750 4.07455500 -1.0186213199999976 0 0 0
V 4.32027693 6.10392786 1.05805014
V 4.19851974 0.00000000 3.09477054
C 0.00000000 0.00000000 4.12409769
