&CONTROL
calculation = 'relax'
prefix = 'scf'
pseudo_dir = '/vol0403/data/hp230205/u10028/POT_HYBRID_KKJUS_GBRV'
outdir = './data'
tprnfor = .true.
nstep = 50
disk_io = 'non'
/
&SYSTEM
ibrav = 0
ecutwfc = 50.0
ecutrho = 400
occupations = 'smearing'
smearing = 'mp'
degauss = 0.01
assume_isolated = 'esm'
esm_bc = 'bc1'
input_dft = 'BEEF-VDW'
nosym = .true.
nspin = 1
ntyp = 5
nat = 17
/
&ELECTRONS
electron_maxstep = 200
mixing_beta = 0.1
conv_thr = 1e-06
/
&IONS
ion_dynamics = 'bfgs'
upscale = 1.0
/
&CELL
/

K_POINTS {automatic}
11 7 2 0  0  0

ATOMIC_SPECIES
C 12.01 C.pbe-n-rrkjus_psl.1.0.0.UPF
Li 6.941 Li.pbe-sl-rrkjus_psl.1.0.0.UPF
Pb 207.2 Pb.pbe-dn-rrkjus_psl.1.0.0.UPF
Sn 118.7 Sn.pbe-dn-rrkjus_psl.1.0.0.UPF
Y 88.90 Y.pbe-spn-rrkjus_psl.1.0.0.UPF


CELL_PARAMETERS {angstrom}
6.55220000 0.00000000 0.00000000
0.00000000 9.36828000 0.00000000
0.00000000 0.00000000 24.89710000

ATOMIC_POSITIONS {angstrom}
Li 0.18405130 9.30495043 2.43443844
Li 3.00306983 0.00000000 -0.8161269399999966 0 0 0
Li 0.18398578 4.74746957 2.43443844
Li 3.00306983 4.68414000 -0.8161269399999966 0 0 0
Y 4.94985949 2.34207000 0.76035743
Y 1.22847198 2.34207000 -2.4486297899999983 0 0 0
Y 4.67709140 7.02621000 0.91845402
Y 1.22847198 7.02621000 -2.4486297899999983 0 0 0
Sn 3.44206723 0.21237891 2.86490930
Sn 6.27916983 0.00000000 -0.8161269399999966 0 0 0
Sn 3.44206723 4.47176109 2.86490930
Sn 6.27916983 4.68414000 -0.8161269399999966 0 0 0
Pb 1.63739478 2.34207000 1.07754649
Pb 4.50457198 2.34207000 -2.4486297899999983 0 0 0
Pb 1.41291641 7.02621000 0.93837170
Pb 4.50457198 7.02621000 -2.4486297899999983 0 0 0
C 3.80027600 2.34207000 2.72697936
