&CONTROL
calculation = 'relax'
prefix = 'scf'
pseudo_dir = '/vol0403/data/hp230205/u10028/POT_HYBRID_KKJUS_GBRV'
outdir = './data'
tprnfor = .true.
nstep = 70
disk_io = 'non'
/
&SYSTEM
ibrav = 0
ecutwfc = 50.0
ecutrho = 400
occupations = 'smearing'
smearing = 'mp'
degauss = 0.01
assume_isolated = 'esm'
esm_bc = 'bc1'
input_dft = 'BEEF-VDW'
nosym = .true.
nspin = 1
ntyp = 4
nat = 32
/
&ELECTRONS
electron_maxstep = 200
mixing_beta = 0.1
conv_thr = 1e-06
/
&IONS
ion_dynamics = 'bfgs'
upscale = 1.0
/
&CELL
/

K_POINTS {automatic}
9 6 2 0  0  0

ATOMIC_SPECIES
In 114.8 In.pbe-dn-rrkjus_psl.1.0.0.UPF
Pd 106.4 Pd.pbe-n-rrkjus_psl.1.0.0.UPF
Pt 195.0 Pt.pbe-n-rrkjus_psl.1.0.0.UPF
Y 88.90 Y.pbe-spn-rrkjus_psl.1.0.0.UPF


CELL_PARAMETERS {angstrom}
6.82696000 0.00000000 0.00000000
-0.00000000 9.65478000 0.00000000
0.00000000 0.00000000 27.24110000

ATOMIC_POSITIONS {angstrom}
Y 0.00000000 2.41369500 -1.2067807299999984 0 0 0
Y 0.00000000 7.24108500 -1.2067807299999984 0 0 0
Y 3.41348000 4.82739000 -3.6206145999999997 0 0 0
Y 3.41348000 0.00000000 -3.6206145999999997 0 0 0
Y 0.01577028 7.24108500 3.65003499
Y 0.01577028 2.41369500 3.65003499
Y 3.42808969 -0.00000000 1.20460144
Y 3.42808969 4.82739000 1.20460144
In 0.00000000 0.00000000 -3.6206145999999997 0 0 0
In 0.00000000 4.82739000 -3.6206145999999997 0 0 0
In 3.41348000 7.24108500 -1.2067807299999984 0 0 0
In 3.41348000 2.41369500 -1.2067807299999984 0 0 0
In 6.82450229 4.82739000 1.26643874
In 6.82450229 -0.00000000 1.26643874
In 3.39627606 2.41369500 3.73693410
In 3.39627606 7.24108500 3.73666169
Pd 5.12022000 0.00000000 -1.2067807299999984 0 0 0
Pd 5.12022000 4.82739000 -1.2067807299999984 0 0 0
Pd 1.70674000 2.41369500 -3.6206145999999997 0 0 0
Pd 1.70674000 7.24108500 -3.6206145999999997 0 0 0
Pd 4.99719818 4.82739000 3.55687043
Pd 4.99712991 -0.00000000 3.55687043
Pd 1.68113890 7.24108500 1.25118372
Pd 1.68113890 2.41369500 1.25118372
Pt 1.70674000 0.00000000 -1.2067807299999984 0 0 0
Pt 1.70674000 4.82739000 -1.2067807299999984 0 0 0
Pt 5.12022000 2.41369500 -3.6206145999999997 0 0 0
Pt 5.12022000 7.24108500 -3.6206145999999997 0 0 0
Pt 1.77890097 4.82739000 3.48331946
Pt 1.77896924 -0.00000000 3.48331946
Pt 5.18125302 7.24108500 1.28087652
Pt 5.18125302 2.41369500 1.28087652
