&CONTROL
calculation = 'relax'
prefix = 'scf'
pseudo_dir = '/vol0004/mdt0/data/hp150275/u10028/POT_KKJUS'
outdir = './data'
tprnfor = .true.
nstep = 50
disk_io = 'non'
/
&SYSTEM
ibrav = 0
ecutwfc = 50.0
ecutrho = 400
occupations = 'smearing'
smearing = 'mp'
degauss = 0.01
assume_isolated = 'esm'
esm_bc = 'bc1'
input_dft = 'BEEF-VDW'
nosym = .true.
nspin = 1
ntyp = 3
nat = 33
/
&ELECTRONS
electron_maxstep = 200
mixing_beta = 0.1
conv_thr = 1e-06
/
&IONS
ion_dynamics = 'bfgs'
upscale = 1.0
/
&CELL
/

K_POINTS {automatic}
9 6 2 0  0  0

ATOMIC_SPECIES
C 12.01 C.pbe-n-rrkjus_psl.1.0.0.UPF
Sc 44.95 Sc.pbe-spn-rrkjus_psl.1.0.0.UPF
Zn 65.40 Zn.pbe-dnl-rrkjus_psl.1.0.0.UPF

CELL_PARAMETERS {angstrom}
6.70510000 0.00000000 0.00000000
0.00000000 9.48244000 0.00000000
0.00000000 0.00000000 27.11180000

ATOMIC_POSITIONS {angstrom}
Sc 0.00000000 0.00000000 -3.555983689999998 0 0 0
Sc 0.00000000 2.37061000 -1.1853278999999972 0 0 0
Sc 0.00000000 0.00000000 1.28238814
Sc 0.00000000 2.15128116 3.58309549
Sc 0.00000000 4.74122000 -3.555983689999998 0 0 0
Sc 0.00000000 7.11183000 -1.1853278999999972 0 0 0
Sc 0.00000000 4.74131482 1.12513970
Sc 0.00000000 7.33115884 3.58309549
Sc 3.35255000 0.00000000 -3.555983689999998 0 0 0
Sc 3.35255000 2.37061000 -1.1853278999999972 0 0 0
Sc 3.35255000 0.00000000 1.14032231
Sc 3.35255000 2.60615381 3.50447127
Sc 3.35255000 4.74122000 -3.555983689999998 0 0 0
Sc 3.35255000 7.11183000 -1.1853278999999972 0 0 0
Sc 3.35255000 4.74122000 1.15008256
Sc 3.35255000 6.87638101 3.50447127
Zn 1.67627500 2.37061000 -3.555983689999998 0 0 0
Zn 1.67627500 0.00000000 -1.1853278999999972 0 0 0
Zn 1.67567154 2.39023865 1.17882106
Zn 2.02956672 0.00009482 3.59394021
Zn 1.67627500 7.11183000 -3.555983689999998 0 0 0
Zn 1.67627500 4.74122000 -1.1853278999999972 0 0 0
Zn 1.67573859 7.09229617 1.17882106
Zn 1.46338807 4.74112518 3.52724518
Zn 5.02882500 2.37061000 -3.555983689999998 0 0 0
Zn 5.02882500 0.00000000 -1.1853278999999972 0 0 0
Zn 5.02942846 2.39014383 1.17882106
Zn 4.67553328 0.00009482 3.59394021
Zn 5.02882500 7.11183000 -3.555983689999998 0 0 0
Zn 5.02882500 4.74122000 -1.1853278999999972 0 0 0
Zn 5.02936141 7.09229617 1.17882106
Zn 5.24177898 4.74112518 3.52724518
C 0.00000000 0.00000000 3.56276164
