&CONTROL
calculation = 'relax'
prefix = 'scf'
pseudo_dir = '/vol0004/mdt0/data/hp150275/u10028/POT_KKJUS'
outdir = './data'
tprnfor = .true.
nstep = 50
disk_io = 'non'
/
&SYSTEM
ibrav = 0
ecutwfc = 50.0
ecutrho = 400
occupations = 'smearing'
smearing = 'mp'
degauss = 0.01
assume_isolated = 'esm'
esm_bc = 'bc1'
input_dft = 'BEEF-VDW'
nosym = .true.
nspin = 1
ntyp = 2
nat = 32
/
&ELECTRONS
electron_maxstep = 200
mixing_beta = 0.1
conv_thr = 1e-06
/
&IONS
ion_dynamics = 'bfgs'
upscale = 1.0
/
&CELL
/

K_POINTS {automatic}
7 7 2 0  0  0

ATOMIC_SPECIES
In 114.8 In.pbe-dn-rrkjus_psl.1.0.0.UPF
Mg 24.30 Mg.pbe-spnl-rrkjus_psl.1.0.0.UPF

CELL_PARAMETERS {angstrom}
9.03947000 0.00000000 0.00000000
0.00000000 9.03947000 0.00000000
0.00000000 0.00000000 26.77960000

ATOMIC_POSITIONS {angstrom}
Mg 0.00099434 2.26077145 1.12554659
Mg 2.26077145 0.00045197 1.12661777
Mg 2.26113303 2.26221776 3.41654137
Mg 0.00000000 2.25986750 -3.38976177 0 0 0
Mg 2.25986750 0.00000000 -3.38976177 0 0 0
Mg 2.25986750 2.25986750 -1.1298313199999974 0 0 0
Mg 0.00036158 6.77951211 1.12768896
Mg 2.25986750 4.52000618 1.12554659
Mg 2.26059066 6.77969289 3.41386341
Mg 0.00000000 6.77960250 -3.38976177 0 0 0
Mg 2.25986750 4.51973500 -3.38976177 0 0 0
Mg 2.25986750 6.77960250 -1.1298313199999974 0 0 0
Mg 4.51910224 2.26004829 1.12608218
Mg 6.77924092 0.00000000 1.12688557
Mg 6.77960250 2.26040987 3.41306002
Mg 4.51973500 2.25986750 -3.38976177 0 0 0
Mg 6.77960250 0.00000000 -3.38976177 0 0 0
Mg 6.77960250 2.25986750 -1.1298313199999974 0 0 0
Mg 4.51865026 6.77978329 1.12554659
Mg 6.77987368 4.51919263 1.12608218
Mg 6.78050645 6.78068724 3.41332782
Mg 4.51973500 6.77960250 -3.38976177 0 0 0
Mg 6.77960250 4.51973500 -3.38976177 0 0 0
Mg 6.77960250 6.77960250 -1.1298313199999974 0 0 0
In 0.00298303 0.00225987 3.39726006
In 0.00000000 0.00000000 -1.1298313199999974 0 0 0
In 0.00018079 4.52091013 3.39913463
In 0.00000000 4.51973500 -1.1298313199999974 0 0 0
In 4.51783671 0.00117513 3.39833124
In 4.51973500 0.00000000 -1.1298313199999974 0 0 0
In 4.51937342 4.52045816 3.39699226
In 4.51973500 4.51973500 -1.1298313199999974 0 0 0
