&CONTROL
calculation = 'relax'
prefix = 'scf'
pseudo_dir = '/vol0004/mdt0/data/hp150275/u10028/POT_KKJUS'
outdir = './data'
tprnfor = .true.
nstep = 50
disk_io = 'non'
/
&SYSTEM
ibrav = 0
ecutwfc = 50.0
ecutrho = 400
occupations = 'smearing'
smearing = 'mp'
degauss = 0.01
assume_isolated = 'esm'
esm_bc = 'bc1'
input_dft = 'BEEF-VDW'
nosym = .true.
nspin = 1
ntyp = 3
nat = 33
/
&ELECTRONS
electron_maxstep = 200
mixing_beta = 0.1
conv_thr = 1e-06
/
&IONS
ion_dynamics = 'bfgs'
upscale = 1.0
/
&CELL
/

K_POINTS {automatic}
9 6 2 0  0  0

ATOMIC_SPECIES
C 12.01 C.pbe-n-rrkjus_psl.1.0.0.UPF
Ga 69.72 Ga.pbe-dnl-rrkjus_psl.1.0.0.UPF
Ir 192.2 Ir.pbe-n-rrkjus_psl.0.2.3.UPF

CELL_PARAMETERS {angstrom}
6.13393000 0.00000000 0.00000000
0.00000000 8.67469000 0.00000000
0.00000000 0.00000000 26.50600000

ATOMIC_POSITIONS {angstrom}
Ga 0.00000000 0.00000000 -3.253081380000001 0 0 0
Ga 0.00000000 2.16867250 -1.0843604599999992 0 0 0
Ga 6.11080508 0.00112771 1.08462552
Ga 5.80809564 2.16867250 3.75377972
Ga 0.00000000 4.33734500 -3.253081380000001 0 0 0
Ga 0.00000000 6.50601750 -1.0843604599999992 0 0 0
Ga 6.11080508 4.33621729 1.08462552
Ga 0.05686153 6.50601750 3.46831010
Ga 3.06696500 0.00000000 -3.253081380000001 0 0 0
Ga 3.06696500 2.16867250 -1.0843604599999992 0 0 0
Ga 3.08929251 0.00112771 1.08436046
Ga 3.38642007 2.16867250 3.75377972
Ga 3.06696500 4.33734500 -3.253081380000001 0 0 0
Ga 3.06696500 6.50601750 -1.0843604599999992 0 0 0
Ga 3.08929251 4.33621729 1.08436046
Ga 3.00881534 6.50601750 3.46884022
Ir 1.53348250 2.16867250 -3.253081380000001 0 0 0
Ir 1.53348250 4.33734500 -1.0843604599999992 0 0 0
Ir 1.53262375 2.16867250 1.03399906
Ir 1.53262375 4.34003415 3.07602130
Ir 1.53348250 6.50601750 -3.253081380000001 0 0 0
Ir 1.53348250 0.00000000 -1.0843604599999992 0 0 0
Ir 1.53317580 6.50601750 1.03479424
Ir 1.53262375 8.67200085 3.07602130
Ir 4.60044750 2.16867250 -3.253081380000001 0 0 0
Ir 4.60044750 4.33734500 -1.0843604599999992 0 0 0
Ir 4.59977277 2.16867250 1.01783040
Ir 4.59915937 4.39936903 3.13725016
Ir 4.60044750 6.50601750 -3.253081380000001 0 0 0
Ir 4.60044750 0.00000000 -1.0843604599999992 0 0 0
Ir 4.60014080 6.50601750 1.01014366
Ir 4.59915937 8.61266597 3.13725016
C 1.52992482 2.16867250 3.19185252
