&CONTROL
calculation = 'relax'
prefix = 'scf'
pseudo_dir = '/vol0403/data/hp230205/u10028/POT_HYBRID_KKJUS_GBRV'
outdir = './data'
tprnfor = .true.
nstep = 50
disk_io = 'non'
/
&SYSTEM
ibrav = 0
ecutwfc = 50.0
ecutrho = 400
occupations = 'smearing'
smearing = 'mp'
degauss = 0.01
assume_isolated = 'esm'
esm_bc = 'bc1'
input_dft = 'BEEF-VDW'
nosym = .true.
nspin = 1
ntyp = 6
nat = 18
/
&ELECTRONS
electron_maxstep = 200
mixing_beta = 0.1
conv_thr = 1e-06
/
&IONS
ion_dynamics = 'bfgs'
upscale = 1.0
/
&CELL
/

K_POINTS {automatic}
11 8 2 0  0  0

ATOMIC_SPECIES
C 12.01 C.pbe-n-rrkjus_psl.1.0.0.UPF
Ga 69.72 Ga.pbe-dnl-rrkjus_psl.1.0.0.UPF
Ge 72.64 Ge.pbe-dn-rrkjus_psl.1.0.0.UPF
Li 6.941 Li.pbe-sl-rrkjus_psl.1.0.0.UPF
O 15.99 O.pbe-n-rrkjus_psl.1.0.0.UPF
Sc 44.95 Sc.pbe-spn-rrkjus_psl.1.0.0.UPF


CELL_PARAMETERS {angstrom}
5.77599000 0.00000000 0.00000000
0.00000000 8.07712000 0.00000000
0.00000000 0.00000000 24.32640000

ATOMIC_POSITIONS {angstrom}
Li 1.37070019 2.01928000 -0.7210344999999982 0 0 0
Li 3.68768082 2.01911846 2.37741907
Li 1.37070019 6.05784000 -0.7210344999999982 0 0 0
Li 3.74382344 6.05800154 2.83986394
Sc 2.88799500 0.00000000 -2.163103490000001 0 0 0
Sc 5.28266269 7.98479852 0.84461261
Sc 2.88799500 4.03856000 -2.163103490000001 0 0 0
Sc 5.28202734 4.13088148 0.84461261
Ga 0.00000000 0.00000000 -2.163103490000001 0 0 0
Ga 2.46992884 7.91727380 1.22410445
Ga 0.00000000 4.03856000 -2.163103490000001 0 0 0
Ga 2.46917797 4.19792158 1.22483424
Ge 4.25869519 2.01928000 -0.7210344999999982 0 0 0
Ge 0.80840756 2.01952231 2.04901267
Ge 4.25869519 6.05784000 -0.7210344999999982 0 0 0
Ge 0.92017297 6.05743614 2.20129594
C 1.51833449 2.01944154 3.81194688
O 1.88060458 2.01944154 4.92269030
