&CONTROL
calculation = 'relax'
prefix = 'scf'
pseudo_dir = '/vol0004/mdt0/data/hp150275/u10028/POT_HYBRID_KKJUS_GBRV'
outdir = './data'
tprnfor = .true.
nstep = 70
disk_io = 'non'
/
&SYSTEM
ibrav = 0
ecutwfc = 50.0
ecutrho = 400
occupations = 'smearing'
smearing = 'mp'
degauss = 0.01
assume_isolated = 'esm'
esm_bc = 'bc1'
input_dft = 'BEEF-VDW'
nosym = .true.
nspin = 1
ntyp = 2
nat = 16
/
&ELECTRONS
electron_maxstep = 200
mixing_beta = 0.1
conv_thr = 1e-06
/
&IONS
ion_dynamics = 'bfgs'
upscale = 1.0
/
&CELL
/

K_POINTS {automatic}
10 10 2 0  0  0

ATOMIC_SPECIES
Bi 208.9 Bi.pbe-dn-rrkjus_psl.1.0.0.UPF
Li 6.941 Li.pbe-sl-rrkjus_psl.1.0.0.UPF

CELL_PARAMETERS {angstrom}
6.80372000 0.00000000 0.00000000
-0.00000000 6.80372000 0.00000000
0.00000000 0.00000000 26.38080000

ATOMIC_POSITIONS {angstrom}
Li 1.70093000 1.70093000 -0.06832627000000002 0 0 0
Li 1.70093000 1.70093000 4.18557773
Li 1.70093000 5.10279000 -0.06832627000000002 0 0 0
Li 1.70093000 5.10279000 4.18557773
Li 5.10279000 1.70093000 -0.06832627000000002 0 0 0
Li 5.10279000 1.70093000 4.18557773
Li 5.10279000 5.10279000 -0.06832627000000002 0 0 0
Li 5.10279000 5.10279000 4.18557773
Bi 0.00000000 0.00000000 -2.1954101799999997 0 0 0
Bi 0.00000000 0.00000000 2.05849382
Bi 0.00000000 3.40186000 -2.1954101799999997 0 0 0
Bi 0.00000000 3.40186000 2.05849382
Bi 3.40186000 0.00000000 -2.1954101799999997 0 0 0
Bi 3.40186000 -0.00000000 2.05849382
Bi 3.40186000 3.40186000 -2.1954101799999997 0 0 0
Bi 3.40186000 3.40186000 2.05849382
