&CONTROL
calculation = 'relax'
prefix = 'scf'
pseudo_dir = '/vol0004/mdt0/data/hp150275/u10028/POT_KKJUS'
outdir = './data'
tprnfor = .true.
nstep = 50
disk_io = 'non'
/
&SYSTEM
ibrav = 0
ecutwfc = 50.0
ecutrho = 400
occupations = 'smearing'
smearing = 'mp'
degauss = 0.01
assume_isolated = 'esm'
esm_bc = 'bc1'
input_dft = 'BEEF-VDW'
nosym = .true.
nspin = 1
ntyp = 2
nat = 32
/
&ELECTRONS
electron_maxstep = 200
mixing_beta = 0.1
conv_thr = 1e-06
/
&IONS
ion_dynamics = 'bfgs'
upscale = 1.0
/
&CELL
/

K_POINTS {automatic}
8 8 1 0 0 0

ATOMIC_SPECIES
Rh 102.9 Rh.pbe-spn-rrkjus_psl.1.0.0.UPF
Ti 47.86 Ti.pbe-spn-rrkjus_psl.1.0.0.UPF

CELL_PARAMETERS {angstrom}
7.73214000 0.00000000 0.00000000
-0.00000000 7.73214000 0.00000000
0.00000000 0.00000000 25.79910000

ATOMIC_POSITIONS {angstrom}
Ti 0.00000000 0.00000000 2.89956085
Ti 0.00000000 0.00000000 -0.9664342899999987 0 0 0
Ti 0.00000000 3.86607000 2.89956085
Ti 0.00000000 3.86607000 -0.9664342899999987 0 0 0
Ti 3.86607000 -0.00000000 2.89956085
Ti 3.86607000 0.00000000 -0.9664342899999987 0 0 0
Ti 3.86607000 3.86607000 2.89956085
Ti 3.86607000 3.86607000 -0.9664342899999987 0 0 0
Rh 0.00000000 1.93303500 0.96643429
Rh 1.93303500 -0.00000000 0.96643429
Rh 1.93303500 1.93303500 2.89956085
Rh 0.00000000 1.93303500 -2.8995608500000003 0 0 0
Rh 1.93303500 0.00000000 -2.8995608500000003 0 0 0
Rh 1.93303500 1.93303500 -0.9664342899999987 0 0 0
Rh 0.00000000 5.79910500 0.96643429
Rh 1.93303500 3.86607000 0.96643429
Rh 1.93303500 5.79910500 2.89956085
Rh 0.00000000 5.79910500 -2.8995608500000003 0 0 0
Rh 1.93303500 3.86607000 -2.8995608500000003 0 0 0
Rh 1.93303500 5.79910500 -0.9664342899999987 0 0 0
Rh 3.86607000 1.93303500 0.96643429
Rh 5.79910500 -0.00000000 0.96643429
Rh 5.79910500 1.93303500 2.89956085
Rh 3.86607000 1.93303500 -2.8995608500000003 0 0 0
Rh 5.79910500 0.00000000 -2.8995608500000003 0 0 0
Rh 5.79910500 1.93303500 -0.9664342899999987 0 0 0
Rh 3.86607000 5.79910500 0.96643429
Rh 5.79910500 3.86607000 0.96643429
Rh 5.79910500 5.79910500 2.89956085
Rh 3.86607000 5.79910500 -2.8995608500000003 0 0 0
Rh 5.79910500 3.86607000 -2.8995608500000003 0 0 0
Rh 5.79910500 5.79910500 -0.9664342899999987 0 0 0
