&CONTROL
calculation = 'relax'
prefix = 'scf'
pseudo_dir = '/vol0004/mdt0/data/hp150275/u10028/POT_KKJUS'
outdir = './data'
tprnfor = .true.
nstep = 50
disk_io = 'non'
/
&SYSTEM
ibrav = 0
ecutwfc = 50.0
ecutrho = 400
occupations = 'smearing'
smearing = 'mp'
degauss = 0.01
assume_isolated = 'esm'
esm_bc = 'bc1'
input_dft = 'BEEF-VDW'
nosym = .true.
nspin = 1
ntyp = 4
nat = 34
/
&ELECTRONS
electron_maxstep = 200
mixing_beta = 0.1
conv_thr = 1e-06
/
&IONS
ion_dynamics = 'bfgs'
upscale = 1.0
/
&CELL
/

K_POINTS {automatic}
8 6 1 0 0 0

ATOMIC_SPECIES
C 12.01 C.pbe-n-rrkjus_psl.1.0.0.UPF
Hf 178.4 Hf.pbe-spn-rrkjus_psl.1.0.0.UPF
O 15.99 O.pbe-n-rrkjus_psl.1.0.0.UPF
Pt 195.0 Pt.pbe-n-rrkjus_psl.1.0.0.UPF

CELL_PARAMETERS {angstrom}
6.65903000 0.00000000 0.00000000
0.00000000 9.41730000 0.00000000
0.00000000 0.00000000 27.06300000

ATOMIC_POSITIONS {angstrom}
Hf 0.00000000 0.00000000 -3.5314508700000005 0 0 0
Hf 0.00000000 2.35432500 -1.1772405 0 0 0
Hf 0.00000000 0.09059443 1.16343837
Hf 0.00000000 2.35432500 3.57583419
Hf 0.00000000 4.70865000 -3.5314508700000005 0 0 0
Hf 0.00000000 7.06297500 -1.1772405 0 0 0
Hf 0.00000000 4.61805557 1.16343837
Hf 0.00000000 7.06297500 3.60560349
Hf 3.32951500 0.00000000 -3.5314508700000005 0 0 0
Hf 3.32951500 2.35432500 -1.1772405 0 0 0
Hf 3.32951500 9.34742363 1.14774183
Hf 3.32951500 2.35432500 3.63889098
Hf 3.32951500 4.70865000 -3.5314508700000005 0 0 0
Hf 3.32951500 7.06297500 -1.1772405 0 0 0
Hf 3.32951500 4.77852637 1.14774183
Hf 3.32951500 7.06297500 3.44620242
Pt 1.66475750 2.35432500 -3.5314508700000005 0 0 0
Pt 1.66475750 0.00000000 -1.1772405 0 0 0
Pt 1.87744692 2.35432500 1.33258212
Pt 1.67035109 9.40176145 3.33307908
Pt 1.66475750 7.06297500 -3.5314508700000005 0 0 0
Pt 1.66475750 4.70865000 -1.1772405 0 0 0
Pt 1.44627473 7.06297500 1.28874006
Pt 1.67035109 4.72418854 3.33307908
Pt 4.99427250 2.35432500 -3.5314508700000005 0 0 0
Pt 4.99427250 0.00000000 -1.1772405 0 0 0
Pt 4.78158308 2.35432500 1.33258212
Pt 4.98867891 9.40176146 3.33307908
Pt 4.99427250 7.06297500 -3.5314508700000005 0 0 0
Pt 4.99427250 4.70865000 -1.1772405 0 0 0
Pt 5.21282186 7.06297500 1.28874006
Pt 4.98867891 4.72418855 3.33307908
C 0.00000000 2.35432500 5.80744917
O 0.00000000 2.35432500 6.96358053
