&CONTROL
calculation = 'relax'
prefix = 'scf'
pseudo_dir = '/vol0004/mdt0/data/hp150275/u10028/POT_HYBRID_KKJUS_GBRV'
outdir = './data'
tprnfor = .true.
nstep = 50
disk_io = 'non'
/
&SYSTEM
ibrav = 0
ecutwfc = 50.0
ecutrho = 400
occupations = 'smearing'
smearing = 'mp'
degauss = 0.01
assume_isolated = 'esm'
esm_bc = 'bc1'
input_dft = 'BEEF-VDW'
nosym = .true.
nspin = 2
ntyp = 3
nat = 33
starting_magnetization(1) = 0.1
starting_magnetization(2) = 0.1
starting_magnetization(3) = 0.1
/
&ELECTRONS
electron_maxstep = 200
mixing_beta = 0.1
conv_thr = 1e-06
/
&IONS
ion_dynamics = 'bfgs'
upscale = 1.0
/
&CELL
/

K_POINTS {automatic}
8 6 1 0 0 0

ATOMIC_SPECIES
C 12.01 C.pbe-n-rrkjus_psl.1.0.0.UPF
Mn 54.93 mn_pbe_v1.5.uspp.F.UPF
V 50.94 V.pbe-spnl-rrkjus_psl.1.0.0.UPF

CELL_PARAMETERS {angstrom}
5.76229000 0.00000000 0.00000000
0.00000000 8.14911000 0.00000000
0.00000000 0.00000000 26.11180000

ATOMIC_POSITIONS {angstrom}
Mn 0.00000000 0.00000000 -3.055863949999999 0 0 0
Mn 0.00000000 2.03727750 -1.0186213199999976 0 0 0
Mn 5.76177139 8.14650228 1.06170579
Mn 5.70576194 2.03727750 2.96865054
Mn 0.00000000 4.07455500 -3.055863949999999 0 0 0
Mn 0.00000000 6.11183250 -1.0186213199999976 0 0 0
Mn 5.76171377 4.07716272 1.06144467
Mn 0.00645376 6.11183250 3.06082520
Mn 2.88114500 0.00000000 -3.055863949999999 0 0 0
Mn 2.88114500 2.03727750 -1.0186213199999976 0 0 0
Mn 2.88172123 8.14650228 1.06170579
Mn 2.93767306 2.03727750 2.96865054
Mn 2.88114500 4.07455500 -3.055863949999999 0 0 0
Mn 2.88114500 6.11183250 -1.0186213199999976 0 0 0
Mn 2.88172123 4.07716272 1.06144467
Mn 2.87469124 6.11183250 3.06082520
V 1.44057250 2.03727750 -3.055863949999999 0 0 0
V 1.44057250 0.00000000 -1.0186213199999976 0 0 0
V 1.44057250 2.03727750 1.03533287
V 1.44057250 4.03894339 3.24047438
V 1.44057250 6.11183250 -3.055863949999999 0 0 0
V 1.44057250 4.07455500 -1.0186213199999976 0 0 0
V 1.44057250 6.11183250 1.09774007
V 1.44057250 0.03561161 3.24047438
V 4.32171750 2.03727750 -3.055863949999999 0 0 0
V 4.32171750 0.00000000 -1.0186213199999976 0 0 0
V 4.32171750 2.03727750 0.99564293
V 4.32171750 4.07268070 3.10547637
V 4.32171750 6.11183250 -3.055863949999999 0 0 0
V 4.32171750 4.07455500 -1.0186213199999976 0 0 0
V 4.32171750 6.11183250 1.04577759
V 4.32171750 0.00187430 3.10547637
C 1.44057250 2.03727750 4.03009521
