&CONTROL
calculation = 'relax'
prefix = 'scf'
pseudo_dir = '/vol0403/data/hp230205/u10028/POT_HYBRID_KKJUS_GBRV'
outdir = './data'
tprnfor = .true.
nstep = 70
disk_io = 'non'
/
&SYSTEM
ibrav = 0
ecutwfc = 50.0
ecutrho = 400
occupations = 'smearing'
smearing = 'mp'
degauss = 0.01
assume_isolated = 'esm'
esm_bc = 'bc1'
input_dft = 'BEEF-VDW'
nosym = .true.
nspin = 1
ntyp = 5
nat = 33
/
&ELECTRONS
electron_maxstep = 200
mixing_beta = 0.1
conv_thr = 1e-06
/
&IONS
ion_dynamics = 'bfgs'
upscale = 1.0
/
&CELL
/

K_POINTS {automatic}
9 6 2 0  0  0

ATOMIC_SPECIES
Ag 107.8 Ag.pbe-n-rrkjus_psl.1.0.0.UPF
C 12.01 C.pbe-n-rrkjus_psl.1.0.0.UPF
In 114.8 In.pbe-dn-rrkjus_psl.1.0.0.UPF
Li 6.941 Li.pbe-sl-rrkjus_psl.1.0.0.UPF
Pd 106.4 Pd.pbe-n-rrkjus_psl.1.0.0.UPF


CELL_PARAMETERS {angstrom}
6.52372000 0.00000000 0.00000000
-0.00000000 9.22594000 0.00000000
0.00000000 0.00000000 26.91950000

ATOMIC_POSITIONS {angstrom}
Li 1.63093000 0.00000000 -1.1532313799999976 0 0 0
Li 1.63093000 4.61297000 -1.1532313799999976 0 0 0
Li 4.89279000 2.30648500 -3.45969414 0 0 0
Li 4.89279000 6.91945500 -3.45969414 0 0 0
Li 1.58056688 4.49506249 3.63305572
Li 1.58056688 0.11790751 3.63305572
Li 4.89644328 6.91945500 1.13869485
Li 4.84301402 2.30648500 1.07758759
In 4.89279000 0.00000000 -1.1532313799999976 0 0 0
In 4.89279000 4.61297000 -1.1532313799999976 0 0 0
In 1.63093000 2.30648500 -3.45969414 0 0 0
In 1.63093000 6.91945500 -3.45969414 0 0 0
In 4.94321836 4.74001119 3.75284750
In 4.94321836 9.09889881 3.75284750
In 1.64841357 6.91945500 1.12119718
In 1.71136747 2.30648500 1.19576419
Ag 0.00000000 0.00000000 -3.45969414 0 0 0
Ag 0.00000000 4.61297000 -3.45969414 0 0 0
Ag 3.26186000 6.91945500 -1.1532313799999976 0 0 0
Ag 3.26186000 2.30648500 -1.1532313799999976 0 0 0
Ag 6.48294675 4.59590201 1.22349127
Ag 6.48294675 0.01706799 1.22349127
Ag 3.54544611 2.30648500 3.69227862
Ag 3.17235456 6.91945500 3.46750080
Pd 0.00000000 2.30648500 -1.1532313799999976 0 0 0
Pd 0.00000000 6.91945500 -1.1532313799999976 0 0 0
Pd 3.26186000 4.61297000 -3.45969414 0 0 0
Pd 3.26186000 0.00000000 -3.45969414 0 0 0
Pd 0.00854607 6.91945500 3.27852590
Pd 6.18233373 2.30648500 3.33209571
Pd 3.32533580 9.20287515 1.21864576
Pd 3.32540103 4.63603485 1.21864576
C 1.52107056 2.30648500 3.60479024
