&CONTROL
calculation = 'relax'
prefix = 'scf'
pseudo_dir = '/vol0403/data/hp230205/u10028/POT_HYBRID_KKJUS_GBRV'
outdir = './data'
tprnfor = .true.
nstep = 50
disk_io = 'non'
/
&SYSTEM
ibrav = 0
ecutwfc = 50.0
ecutrho = 400
occupations = 'smearing'
smearing = 'mp'
degauss = 0.01
assume_isolated = 'esm'
esm_bc = 'bc1'
input_dft = 'BEEF-VDW'
nosym = .true.
nspin = 1
ntyp = 4
nat = 16
/
&ELECTRONS
electron_maxstep = 200
mixing_beta = 0.1
conv_thr = 1e-06
/
&IONS
ion_dynamics = 'bfgs'
upscale = 1.0
/
&CELL
/

K_POINTS {automatic}
12 7 2 0  0  0

ATOMIC_SPECIES
Ge 72.64 Ge.pbe-dn-rrkjus_psl.1.0.0.UPF
In 114.8 In.pbe-dn-rrkjus_psl.1.0.0.UPF
Li 6.941 Li.pbe-sl-rrkjus_psl.1.0.0.UPF
Y 88.90 Y.pbe-spn-rrkjus_psl.1.0.0.UPF


CELL_PARAMETERS {angstrom}
6.03525000 0.00000000 0.00000000
0.00000000 9.31878000 0.00000000
0.00000000 0.00000000 24.52620000

ATOMIC_POSITIONS {angstrom}
Li 4.51183220 2.32969500 -0.7544259099999984 0 0 0
Li 1.77780359 2.32997456 2.25150516
Li 4.51183220 6.98908500 -0.7544259099999984 0 0 0
Li 1.77828641 6.98889862 2.25125990
Y 3.01762500 0.00000000 -2.263032469999999 0 0 0
Y 0.05498113 0.00000000 0.75050172
Y 3.01762500 4.65939000 -2.263032469999999 0 0 0
Y 0.05582606 4.65939000 0.75099224
In 1.49420720 2.32969500 -0.7544259099999984 0 0 0
In 4.70327032 2.33053369 2.36457094
In 1.49420720 6.98908500 -0.7544259099999984 0 0 0
In 4.70345138 6.98843269 2.36457094
Ge 0.00000000 0.00000000 -2.263032469999999 0 0 0
Ge 3.11189560 0.00055913 1.10735793
Ge 0.00000000 4.65939000 -2.263032469999999 0 0 0
Ge 3.11213701 4.65920362 1.10662214
