&CONTROL
calculation = 'relax'
prefix = 'scf'
pseudo_dir = '/vol0004/mdt0/data/hp150275/u10028/POT_KKJUS'
outdir = './data'
tprnfor = .true.
nstep = 50
disk_io = 'non'
/
&SYSTEM
ibrav = 0
ecutwfc = 50.0
ecutrho = 400
occupations = 'smearing'
smearing = 'mp'
degauss = 0.01
assume_isolated = 'esm'
esm_bc = 'bc1'
input_dft = 'BEEF-VDW'
nosym = .true.
nspin = 1
ntyp = 3
nat = 33
/
&ELECTRONS
electron_maxstep = 200
mixing_beta = 0.1
conv_thr = 1e-06
/
&IONS
ion_dynamics = 'bfgs'
upscale = 1.0
/
&CELL
/

K_POINTS {automatic}
8 6 1 0 0 0

ATOMIC_SPECIES
C 12.01 C.pbe-n-rrkjus_psl.1.0.0.UPF
Pd 106.4 Pd.pbe-n-rrkjus_psl.1.0.0.UPF
Ti 47.86 Ti.pbe-spn-rrkjus_psl.1.0.0.UPF

CELL_PARAMETERS {angstrom}
6.37073000 0.00000000 0.00000000
0.00000000 9.00957000 0.00000000
0.00000000 0.00000000 26.75720000

ATOMIC_POSITIONS {angstrom}
Ti 1.59268250 2.25239250 -3.378631640000002 0 0 0
Ti 1.59268250 0.00000000 -1.1262105499999997 0 0 0
Ti 1.59268250 2.25158164 1.33946543
Ti 1.59274621 0.19848083 3.35455016
Ti 1.59268250 6.75717750 -3.378631640000002 0 0 0
Ti 1.59268250 4.50478500 -1.1262105499999997 0 0 0
Ti 1.59268250 6.75681712 1.09303162
Ti 1.59261879 4.30693484 3.35588802
Ti 4.77804750 2.25239250 -3.378631640000002 0 0 0
Ti 4.77804750 0.00000000 -1.1262105499999997 0 0 0
Ti 4.77804750 2.25167173 1.13049170
Ti 4.77804750 8.90172545 3.28096786
Ti 4.77804750 6.75717750 -3.378631640000002 0 0 0
Ti 4.77804750 4.50478500 -1.1262105499999997 0 0 0
Ti 4.77804750 6.75726760 1.11363466
Ti 4.77804750 4.61542252 3.28658688
Pd 0.00000000 0.00000000 -3.378631640000002 0 0 0
Pd 0.00000000 2.25239250 -1.1262105499999997 0 0 0
Pd 0.05332301 8.98019880 1.07216100
Pd 6.01556180 2.25644681 3.40993757
Pd 0.00000000 4.50478500 -3.378631640000002 0 0 0
Pd 0.00000000 6.75717750 -1.1262105499999997 0 0 0
Pd 0.05274964 4.53352553 1.07563944
Pd 0.09282154 6.75474492 3.24511322
Pd 3.18536500 0.00000000 -3.378631640000002 0 0 0
Pd 3.18536500 2.25239250 -1.1262105499999997 0 0 0
Pd 3.13216940 8.98019880 1.07216100
Pd 3.54053320 2.25662700 3.40993757
Pd 3.18536500 4.50478500 -3.378631640000002 0 0 0
Pd 3.18536500 6.75717750 -1.1262105499999997 0 0 0
Pd 3.13248794 4.53343543 1.07563944
Pd 3.09254346 6.75465482 3.24511322
C 1.59268250 2.25077078 3.53435855
