&CONTROL
calculation = 'relax'
prefix = 'scf'
pseudo_dir = '/vol0004/mdt0/data/hp150275/u10028/POT_KKJUS'
outdir = './data'
tprnfor = .true.
nstep = 50
disk_io = 'non'
/
&SYSTEM
ibrav = 0
ecutwfc = 50.0
ecutrho = 400
occupations = 'smearing'
smearing = 'mp'
degauss = 0.01
assume_isolated = 'esm'
esm_bc = 'bc1'
input_dft = 'BEEF-VDW'
nosym = .true.
nspin = 1
ntyp = 3
nat = 33
/
&ELECTRONS
electron_maxstep = 200
mixing_beta = 0.1
conv_thr = 1e-06
/
&IONS
ion_dynamics = 'bfgs'
upscale = 1.0
/
&CELL
/

K_POINTS {automatic}
8 8 1 0 0 0

ATOMIC_SPECIES
C 12.01 C.pbe-n-rrkjus_psl.1.0.0.UPF
Pb 207.2 Pb.pbe-dn-rrkjus_psl.1.0.0.UPF
Pt 195.0 Pt.pbe-n-rrkjus_psl.1.0.0.UPF

CELL_PARAMETERS {angstrom}
8.34058000 0.00000000 0.00000000
-0.00000000 8.34058000 0.00000000
0.00000000 0.00000000 26.25540000

ATOMIC_POSITIONS {angstrom}
Pt 0.00000000 2.08514500 -1.04260193 0 0 0
Pt 2.08514500 0.00000000 -1.04260193 0 0 0
Pt 2.08514500 2.08514500 -3.127805800000001 0 0 0
Pt 0.00000000 2.08514500 3.12780580
Pt 2.08514500 -0.00000000 3.12780580
Pt 2.08514500 2.08514500 1.04260193
Pt 0.00000000 6.25543500 -1.04260193 0 0 0
Pt 2.08514500 4.17029000 -1.04260193 0 0 0
Pt 2.08514500 6.25543500 -3.127805800000001 0 0 0
Pt 0.00000000 6.25543500 3.12780580
Pt 2.08514500 4.17029000 3.12780580
Pt 2.08514500 6.25543500 1.04260193
Pt 4.17029000 2.08514500 -1.04260193 0 0 0
Pt 6.25543500 0.00000000 -1.04260193 0 0 0
Pt 6.25543500 2.08514500 -3.127805800000001 0 0 0
Pt 4.17029000 2.08514500 3.12780580
Pt 6.25543500 -0.00000000 3.12780580
Pt 6.25543500 2.08514500 1.04260193
Pt 4.17029000 6.25543500 -1.04260193 0 0 0
Pt 6.25543500 4.17029000 -1.04260193 0 0 0
Pt 6.25543500 6.25543500 -3.127805800000001 0 0 0
Pt 4.17029000 6.25543500 3.12780580
Pt 6.25543500 4.17029000 3.12780580
Pt 6.25543500 6.25543500 1.04260193
Pb 0.00000000 0.00000000 -3.127805800000001 0 0 0
Pb 0.00000000 0.00000000 1.04260193
Pb 0.00000000 4.17029000 -3.127805800000001 0 0 0
Pb 0.00000000 4.17029000 1.04260193
Pb 4.17029000 0.00000000 -3.127805800000001 0 0 0
Pb 4.17029000 -0.00000000 1.04260193
Pb 4.17029000 4.17029000 -3.127805800000001 0 0 0
Pb 4.17029000 4.17029000 1.04260193
C 2.08514500 2.08514500 3.92780784
