&CONTROL
calculation = 'relax'
prefix = 'scf'
pseudo_dir = '/vol0004/mdt0/data/hp150275/u10028/POT_KKJUS'
outdir = './data'
tprnfor = .true.
nstep = 50
disk_io = 'non'
/
&SYSTEM
ibrav = 0
ecutwfc = 50.0
ecutrho = 400
occupations = 'smearing'
smearing = 'mp'
degauss = 0.01
assume_isolated = 'esm'
esm_bc = 'bc1'
input_dft = 'BEEF-VDW'
nosym = .true.
nspin = 1
ntyp = 4
nat = 34
/
&ELECTRONS
electron_maxstep = 200
mixing_beta = 0.1
conv_thr = 1e-06
/
&IONS
ion_dynamics = 'bfgs'
upscale = 1.0
/
&CELL
/

K_POINTS {automatic}
7 7 2 0  0  0

ATOMIC_SPECIES
C 12.01 C.pbe-n-rrkjus_psl.1.0.0.UPF
O 15.99 O.pbe-n-rrkjus_psl.1.0.0.UPF
Pb 207.2 Pb.pbe-dn-rrkjus_psl.1.0.0.UPF
Y 88.90 Y.pbe-spn-rrkjus_psl.1.0.0.UPF

CELL_PARAMETERS {angstrom}
9.91485000 0.00000000 0.00000000
0.00000000 9.91485000 0.00000000
0.00000000 0.00000000 27.43610000

ATOMIC_POSITIONS {angstrom}
Y 0.00000000 0.00000000 -3.7181402699999992 0 0 0
Y 9.90523260 9.91405681 1.07686693
Y 0.00000000 4.95742500 -3.7181402699999992 0 0 0
Y 9.91157810 4.95653266 1.08811573
Y 4.95742500 0.00000000 -3.7181402699999992 0 0 0
Y 4.96615007 9.91415596 1.07714129
Y 4.95742500 4.95742500 -3.7181402699999992 0 0 0
Y 4.95940797 4.95673096 1.08756700
Pb 0.00000000 2.47871250 -1.239288639999998 0 0 0
Pb 2.47871250 0.00000000 -1.239288639999998 0 0 0
Pb 2.47871250 2.47871250 -3.7181402699999992 0 0 0
Pb 9.91266873 2.48664438 3.72554802
Pb 2.47881165 9.91445341 3.66518860
Pb 2.47831591 2.49646008 1.36055620
Pb 0.00000000 7.43613750 -1.239288639999998 0 0 0
Pb 2.47871250 4.95742500 -1.239288639999998 0 0 0
Pb 2.47871250 7.43613750 -3.7181402699999992 0 0 0
Pb 9.91445341 7.42939540 3.72582238
Pb 2.47861335 4.95722670 3.73048652
Pb 2.47831591 7.41700184 1.36137928
Pb 4.95742500 2.47871250 -1.239288639999998 0 0 0
Pb 7.43613750 0.00000000 -1.239288639999998 0 0 0
Pb 7.43613750 2.47871250 -3.7181402699999992 0 0 0
Pb 4.96049860 2.48634693 3.72554802
Pb 7.43584005 0.00089234 3.73707118
Pb 7.43574091 2.48674353 1.38991283
Pb 4.95742500 7.43613750 -1.239288639999998 0 0 0
Pb 7.43613750 4.95742500 -1.239288639999998 0 0 0
Pb 7.43613750 7.43613750 -3.7181402699999992 0 0 0
Pb 4.95881308 7.42939540 3.72554802
Pb 7.43554261 4.95772245 3.76807397
Pb 7.43584005 7.42642095 1.38963846
C 2.53909394 0.13623004 7.73588276
O 2.47236700 9.90424111 8.85884233
