&CONTROL
calculation = 'relax'
prefix = 'scf'
pseudo_dir = '/vol0004/mdt0/data/hp150275/u10028/POT_KKJUS'
outdir = './data'
tprnfor = .true.
nstep = 50
disk_io = 'non'
/
&SYSTEM
ibrav = 0
ecutwfc = 50.0
ecutrho = 400
occupations = 'smearing'
smearing = 'mp'
degauss = 0.01
assume_isolated = 'esm'
esm_bc = 'bc1'
input_dft = 'BEEF-VDW'
nosym = .true.
nspin = 1
ntyp = 4
nat = 34
/
&ELECTRONS
electron_maxstep = 200
mixing_beta = 0.1
conv_thr = 1e-06
/
&IONS
ion_dynamics = 'bfgs'
upscale = 1.0
/
&CELL
/

K_POINTS {automatic}
6 6 1 0 0 0

ATOMIC_SPECIES
C 12.01 C.pbe-n-rrkjus_psl.1.0.0.UPF
O 15.99 O.pbe-n-rrkjus_psl.1.0.0.UPF
Pb 207.2 Pb.pbe-dn-rrkjus_psl.1.0.0.UPF
Y 88.90 Y.pbe-spn-rrkjus_psl.1.0.0.UPF

CELL_PARAMETERS {angstrom}
9.91485000 0.00000000 0.00000000
-0.00000000 9.91485000 0.00000000
0.00000000 0.00000000 27.43610000

ATOMIC_POSITIONS {angstrom}
Y 0.00000000 0.00000000 -3.7181402699999992 0 0 0
Y 0.00000000 0.00000000 1.23928864
Y 0.00000000 4.95742500 -3.7181402699999992 0 0 0
Y 0.00000000 4.95742500 1.23928864
Y 4.95742500 0.00000000 -3.7181402699999992 0 0 0
Y 4.95742500 -0.00000000 1.23928864
Y 4.95742500 4.95742500 -3.7181402699999992 0 0 0
Y 4.95742500 4.95742500 1.23928864
Pb 0.00000000 2.47871250 -1.239288639999998 0 0 0
Pb 2.47871250 0.00000000 -1.239288639999998 0 0 0
Pb 2.47871250 2.47871250 -3.7181402699999992 0 0 0
Pb 0.00000000 2.47871250 3.71814027
Pb 2.47871250 -0.00000000 3.71814027
Pb 2.47871250 2.47871250 1.23928864
Pb 0.00000000 7.43613750 -1.239288639999998 0 0 0
Pb 2.47871250 4.95742500 -1.239288639999998 0 0 0
Pb 2.47871250 7.43613750 -3.7181402699999992 0 0 0
Pb 0.00000000 7.43613750 3.71814027
Pb 2.47871250 4.95742500 3.71814027
Pb 2.47871250 7.43613750 1.23928864
Pb 4.95742500 2.47871250 -1.239288639999998 0 0 0
Pb 7.43613750 0.00000000 -1.239288639999998 0 0 0
Pb 7.43613750 2.47871250 -3.7181402699999992 0 0 0
Pb 4.95742500 2.47871250 3.71814027
Pb 7.43613750 -0.00000000 3.71814027
Pb 7.43613750 2.47871250 1.23928864
Pb 4.95742500 7.43613750 -1.239288639999998 0 0 0
Pb 7.43613750 4.95742500 -1.239288639999998 0 0 0
Pb 7.43613750 7.43613750 -3.7181402699999992 0 0 0
Pb 4.95742500 7.43613750 3.71814027
Pb 7.43613750 4.95742500 3.71814027
Pb 7.43613750 7.43613750 1.23928864
C 2.47871250 -0.00000000 5.61809020
O 2.47871250 -0.00000000 6.76793715
