&CONTROL
calculation = 'relax'
prefix = 'scf'
pseudo_dir = '/vol0403/data/hp230205/u10028/POT_HYBRID_KKJUS_GBRV'
outdir = './data'
tprnfor = .true.
nstep = 50
disk_io = 'non'
/
&SYSTEM
ibrav = 0
ecutwfc = 50.0
ecutrho = 400
occupations = 'smearing'
smearing = 'mp'
degauss = 0.01
assume_isolated = 'esm'
esm_bc = 'bc1'
input_dft = 'BEEF-VDW'
nosym = .true.
nspin = 1
ntyp = 4
nat = 32
/
&ELECTRONS
electron_maxstep = 200
mixing_beta = 0.1
conv_thr = 1e-06
/
&IONS
ion_dynamics = 'bfgs'
upscale = 1.0
/
&CELL
/

K_POINTS {automatic}
9 6 2 0  0  0

ATOMIC_SPECIES
In 114.8 In.pbe-dn-rrkjus_psl.1.0.0.UPF
Li 6.941 Li.pbe-sl-rrkjus_psl.1.0.0.UPF
Mg 24.30 Mg.pbe-spnl-rrkjus_psl.1.0.0.UPF
Pt 195.0 Pt.pbe-n-rrkjus_psl.1.0.0.UPF


CELL_PARAMETERS {angstrom}
6.50521000 0.00000000 0.00000000
0.00000000 9.19976000 0.00000000
0.00000000 0.00000000 26.89980000

ATOMIC_POSITIONS {angstrom}
Li 1.62630250 0.00000000 -1.1499664499999973 0 0 0
Li 1.62630250 4.59988000 -1.1499664499999973 0 0 0
Li 4.87890750 2.29994000 -3.449899349999999 0 0 0
Li 4.87890750 6.89982000 -3.449899349999999 0 0 0
Li 1.72140867 4.59988000 3.55131160
Li 1.72140867 0.00000000 3.55131160
Li 4.79986920 6.89982000 1.20591803
Li 4.79986920 2.29994000 1.20591803
Mg 0.00000000 2.29994000 -1.1499664499999973 0 0 0
Mg 0.00000000 6.89982000 -1.1499664499999973 0 0 0
Mg 3.25260500 4.59988000 -3.449899349999999 0 0 0
Mg 3.25260500 0.00000000 -3.449899349999999 0 0 0
Mg 6.38265184 6.89982000 3.48621408
Mg 6.38271690 2.29994000 3.48621408
Mg 3.21890801 0.00000000 1.12225966
Mg 3.21890801 4.59988000 1.12225966
In 0.00000000 0.00000000 -3.449899349999999 0 0 0
In 0.00000000 4.59988000 -3.449899349999999 0 0 0
In 3.25260500 6.89982000 -1.1499664499999973 0 0 0
In 3.25260500 2.29994000 -1.1499664499999973 0 0 0
In 0.03050943 4.59988000 1.15346342
In 0.03050943 0.00000000 1.15346342
In 3.28818850 2.29994000 3.73207825
In 3.28818850 6.89982000 3.73207825
Pt 4.87890750 0.00000000 -1.1499664499999973 0 0 0
Pt 4.87890750 4.59988000 -1.1499664499999973 0 0 0
Pt 1.62630250 2.29994000 -3.449899349999999 0 0 0
Pt 1.62630250 6.89982000 -3.449899349999999 0 0 0
Pt 4.79947889 4.59988000 3.26536672
Pt 4.79947889 0.00000000 3.26536672
Pt 1.65648667 6.89982000 1.20295906
Pt 1.65648667 2.29994000 1.20295906
