&CONTROL
calculation = 'relax'
prefix = 'scf'
pseudo_dir = '/vol0004/mdt0/data/hp150275/u10028/POT_KKJUS'
outdir = './data'
tprnfor = .true.
nstep = 50
disk_io = 'non'
/
&SYSTEM
ibrav = 0
ecutwfc = 50.0
ecutrho = 400
occupations = 'smearing'
smearing = 'mp'
degauss = 0.01
assume_isolated = 'esm'
esm_bc = 'bc1'
input_dft = 'BEEF-VDW'
nosym = .true.
nspin = 1
ntyp = 5
nat = 18
/
&ELECTRONS
electron_maxstep = 200
mixing_beta = 0.1
conv_thr = 1e-06
/
&IONS
ion_dynamics = 'bfgs'
upscale = 1.0
/
&CELL
/

K_POINTS {automatic}
8 8 1 0 0 0

ATOMIC_SPECIES
C 12.01 C.pbe-n-rrkjus_psl.1.0.0.UPF
In 114.8 In.pbe-dn-rrkjus_psl.1.0.0.UPF
Ni 58.69 Ni.pbe-spn-rrkjus_psl.1.0.0.UPF
O 15.99 O.pbe-n-rrkjus_psl.1.0.0.UPF
Sc 44.95 Sc.pbe-spn-rrkjus_psl.1.0.0.UPF

CELL_PARAMETERS {angstrom}
6.35421000 0.00000000 0.00000000
0.00000000 6.35421000 0.00000000
0.00000000 0.00000000 24.76570000

ATOMIC_POSITIONS {angstrom}
Sc 6.35382875 6.35401937 2.33317660
Sc 3.17697792 3.17640604 2.33342425
Sc 3.17710500 0.00000000 -0.7942359999999979 0 0 0
Sc 0.00000000 3.17710500 -0.7942359999999979 0 0 0
In 0.00000000 0.00000000 -0.7942359999999979 0 0 0
In 3.17716854 6.35376521 2.62318294
In 0.00025417 3.17748625 2.23114191
In 3.17710500 3.17710500 -0.7942359999999979 0 0 0
Ni 1.66213425 1.51458950 0.90890119
Ni 4.76565750 4.76565750 -2.3827079999999974 0 0 0
Ni 4.69131324 1.51452595 0.90989182
Ni 1.58855250 4.76565750 -2.3827079999999974 0 0 0
Ni 4.69144033 4.83981113 0.90964416
Ni 1.58855250 1.58855250 -2.3827079999999974 0 0 0
Ni 1.66334155 4.84044655 0.90964416
Ni 4.76565750 1.58855250 -2.3827079999999974 0 0 0
C 6.35376521 3.17697792 4.62177493
O 6.35414646 3.17716854 5.77437061
