&CONTROL
calculation = 'relax'
prefix = 'scf'
pseudo_dir = '/vol0004/mdt0/data/hp150275/u10028/POT_KKJUS'
outdir = './data'
tprnfor = .true.
nstep = 50
disk_io = 'non'
/
&SYSTEM
ibrav = 0
ecutwfc = 50.0
ecutrho = 400
occupations = 'smearing'
smearing = 'mp'
degauss = 0.01
assume_isolated = 'esm'
esm_bc = 'bc1'
input_dft = 'BEEF-VDW'
nosym = .true.
nspin = 1
ntyp = 2
nat = 32
/
&ELECTRONS
electron_maxstep = 200
mixing_beta = 0.1
conv_thr = 1e-06
/
&IONS
ion_dynamics = 'bfgs'
upscale = 1.0
/
&CELL
/

K_POINTS {automatic}
8 6 1 0 0 0

ATOMIC_SPECIES
Os 190.2 Os.pbe-spn-rrkjus_psl.1.0.0.UPF
V 50.94 V.pbe-spnl-rrkjus_psl.1.0.0.UPF

CELL_PARAMETERS {angstrom}
6.04788000 0.00000000 0.00000000
0.00000000 8.55299000 0.00000000
0.00000000 0.00000000 26.41470000

ATOMIC_POSITIONS {angstrom}
V 0.00000000 0.00000000 -3.2072728700000006 0 0 0
V 0.00000000 2.13824750 -1.0690029099999983 0 0 0
V 0.00000000 0.00008553 1.11126643
V 0.00000000 2.13824750 3.32957293
V 0.00000000 4.27649500 -3.2072728700000006 0 0 0
V 0.00000000 6.41474250 -1.0690029099999983 0 0 0
V 0.00000000 4.27640947 1.11126643
V 0.00000000 6.41474250 3.32957293
V 3.02394000 0.00000000 -3.2072728700000006 0 0 0
V 3.02394000 2.13824750 -1.0690029099999983 0 0 0
V 3.02394000 0.00008553 1.11126643
V 3.02394000 2.13824750 3.32772391
V 3.02394000 4.27649500 -3.2072728700000006 0 0 0
V 3.02394000 6.41474250 -1.0690029099999983 0 0 0
V 3.02394000 4.27640947 1.11126643
V 3.02394000 6.41474250 3.32772391
Os 1.51197000 2.13824750 -3.2072728700000006 0 0 0
Os 1.51197000 0.00000000 -1.0690029099999983 0 0 0
Os 1.51178856 2.13824750 1.12658696
Os 1.51178856 4.27640947 3.08365208
Os 1.51197000 6.41474250 -3.2072728700000006 0 0 0
Os 1.51197000 4.27649500 -1.0690029099999983 0 0 0
Os 1.51178856 6.41474250 1.12658696
Os 1.51178856 0.00008553 3.08365208
Os 4.53591000 2.13824750 -3.2072728700000006 0 0 0
Os 4.53591000 0.00000000 -1.0690029099999983 0 0 0
Os 4.53609144 2.13824750 1.12658696
Os 4.53609144 4.27640947 3.08365208
Os 4.53591000 6.41474250 -3.2072728700000006 0 0 0
Os 4.53591000 4.27649500 -1.0690029099999983 0 0 0
Os 4.53609144 6.41474250 1.12658696
Os 4.53609144 0.00008553 3.08365208
