&CONTROL
calculation = 'relax'
prefix = 'scf'
pseudo_dir = '/vol0004/mdt0/data/hp150275/u10028/POT_HYBRID_KKJUS_GBRV'
outdir = './data'
tprnfor = .true.
nstep = 50
disk_io = 'non'
/
&SYSTEM
ibrav = 0
ecutwfc = 50.0
ecutrho = 400
occupations = 'smearing'
smearing = 'mp'
degauss = 0.01
assume_isolated = 'esm'
esm_bc = 'bc1'
input_dft = 'BEEF-VDW'
nosym = .true.
nspin = 2
ntyp = 4
nat = 33
starting_magnetization(1) = 0.0
starting_magnetization(2) = 0.1
starting_magnetization(3) = 0.0
starting_magnetization(4) = 0.0
/
&ELECTRONS
electron_maxstep = 300
mixing_beta = 0.1
conv_thr = 1e-06
/
&IONS
ion_dynamics = 'bfgs'
upscale = 1.0
/
&CELL
/

K_POINTS {automatic}
9 6 2 0  0  0

ATOMIC_SPECIES
C 12.01 C.pbe-n-rrkjus_psl.1.0.0.UPF
Fe 55.84 fe_pbe_v1.5.uspp.F.UPF
Ga 69.72 Ga.pbe-dnl-rrkjus_psl.1.0.0.UPF
Ti 47.86 Ti.pbe-spn-rrkjus_psl.1.0.0.UPF

CELL_PARAMETERS {angstrom}
5.88011000 0.00000000 0.00000000
0.00000000 8.31574000 0.00000000
0.00000000 0.00000000 26.23680000

ATOMIC_POSITIONS {angstrom}
Ti 0.00000000 0.00000000 -3.118506049999997 0 0 0
Ti 2.94005500 2.07893500 -1.0395020200000005 0 0 0
Ti 2.94005500 6.23680500 -1.0395020200000005 0 0 0
Ti 0.00000000 4.15787000 -3.118506049999997 0 0 0
Ti 0.00000000 4.15787000 0.96682608
Ti 2.94005500 6.26133643 3.03533539
Ti 2.94005500 2.05440357 3.03533539
Ti 0.00000000 0.00000000 0.97443475
Ga 0.00000000 6.23680500 -1.0395020200000005 0 0 0
Ga 2.94005500 0.00000000 -3.118506049999997 0 0 0
Ga 0.00000000 2.07893500 -1.0395020200000005 0 0 0
Ga 2.94005500 4.15787000 -3.118506049999997 0 0 0
Ga 0.00005880 2.09215703 3.22922534
Ga 2.94005500 4.15795316 1.00959206
Ga 0.00005880 6.22358297 3.22922534
Ga 2.94005500 8.31565684 0.97259818
Fe 1.47002750 0.00000000 -1.0395020200000005 0 0 0
Fe 4.41008250 4.15787000 -1.0395020200000005 0 0 0
Fe 4.41008250 0.00000000 -1.0395020200000005 0 0 0
Fe 1.47002750 4.15787000 -1.0395020200000005 0 0 0
Fe 4.41008250 6.23680500 -3.118506049999997 0 0 0
Fe 1.47002750 2.07893500 -3.118506049999997 0 0 0
Fe 1.47002750 6.23680500 -3.118506049999997 0 0 0
Fe 4.41008250 2.07893500 -3.118506049999997 0 0 0
Fe 1.38400149 4.15787000 3.02798909
Fe 4.43536697 0.00000000 3.03795907
Fe 4.49610851 4.15787000 3.02798909
Fe 1.44474303 0.00000000 3.03795907
Fe 4.40149754 2.08317603 1.06705066
Fe 1.47861246 6.23256397 1.06705066
Fe 1.47867126 2.08317603 1.06705066
Fe 4.40149754 6.23256397 1.06705066
C 0.00000000 0.00000000 4.04781350
