&CONTROL
calculation = 'relax'
prefix = 'scf'
pseudo_dir = '/vol0004/mdt0/data/hp150275/u10028/POT_KKJUS'
outdir = './data'
tprnfor = .true.
nstep = 50
disk_io = 'non'
/
&SYSTEM
ibrav = 0
ecutwfc = 50.0
ecutrho = 400
occupations = 'smearing'
smearing = 'mp'
degauss = 0.01
assume_isolated = 'esm'
esm_bc = 'bc1'
input_dft = 'BEEF-VDW'
nosym = .true.
nspin = 1
ntyp = 4
nat = 18
/
&ELECTRONS
electron_maxstep = 200
mixing_beta = 0.1
conv_thr = 1e-06
/
&IONS
ion_dynamics = 'bfgs'
upscale = 1.0
/
&CELL
/

K_POINTS {automatic}
9 9 3 0  0  0

ATOMIC_SPECIES
Bi 208.9 Bi.pbe-dn-rrkjus_psl.1.0.0.UPF
C 12.01 C.pbe-n-rrkjus_psl.1.0.0.UPF
K 39.09 K.pbe-spn-rrkjus_psl.1.0.0.UPF
O 15.99 O.pbe-n-rrkjus_psl.1.0.0.UPF

CELL_PARAMETERS {angstrom}
8.83903000 0.00000000 0.00000000
0.00000000 8.83903000 0.00000000
0.00000000 0.00000000 26.62930000

ATOMIC_POSITIONS {angstrom}
K 2.20975750 2.20975750 -1.1048496599999993 0 0 0
K 6.62927250 6.62936089 3.70413563
K 6.62927250 2.20975750 -1.1048496599999993 0 0 0
K 2.20975750 6.62927250 3.54595759
K 6.62927250 6.62927250 -1.1048496599999993 0 0 0
K 2.21002267 2.21011106 3.23838917
K 2.20975750 6.62927250 -1.1048496599999993 0 0 0
K 6.62918411 2.20984589 3.54675647
K 8.70202504 8.70211343 0.88542423
K 4.41951500 0.00000000 -3.3145489700000006 0 0 0
K 0.00000000 4.41951500 -3.3145489700000006 0 0 0
K 4.55696192 4.55678514 0.88595681
Bi 0.00000000 0.00000000 -3.3145489700000006 0 0 0
Bi 4.41951500 4.41951500 -3.3145489700000006 0 0 0
Bi 4.49411641 8.76487054 1.41188549
Bi 8.76504732 4.49376285 1.41241807
C 2.20471925 2.20498442 6.21820784
O 2.20834326 2.20843165 7.36726214
