&CONTROL
calculation = 'relax'
prefix = 'scf'
pseudo_dir = '/vol0403/data/hp230205/u10028/POT_HYBRID_KKJUS_GBRV'
outdir = './data'
tprnfor = .true.
nstep = 50
disk_io = 'non'
/
&SYSTEM
ibrav = 0
ecutwfc = 50.0
ecutrho = 400
occupations = 'smearing'
smearing = 'mp'
degauss = 0.01
assume_isolated = 'esm'
esm_bc = 'bc1'
input_dft = 'BEEF-VDW'
nosym = .true.
nspin = 1
ntyp = 6
nat = 34
/
&ELECTRONS
electron_maxstep = 200
mixing_beta = 0.1
conv_thr = 1e-06
/
&IONS
ion_dynamics = 'bfgs'
upscale = 1.0
/
&CELL
/

K_POINTS {automatic}
6 6 1 0 0 0

ATOMIC_SPECIES
Ag 107.8 Ag.pbe-n-rrkjus_psl.1.0.0.UPF
C 12.01 C.pbe-n-rrkjus_psl.1.0.0.UPF
Li 6.941 Li.pbe-sl-rrkjus_psl.1.0.0.UPF
O 15.99 O.pbe-n-rrkjus_psl.1.0.0.UPF
Pb 207.2 Pb.pbe-dn-rrkjus_psl.1.0.0.UPF
Y 88.90 Y.pbe-spn-rrkjus_psl.1.0.0.UPF


CELL_PARAMETERS {angstrom}
7.20907000 0.00000000 0.00000000
0.00000000 10.19520000 0.00000000
0.00000000 0.00000000 27.64640000

ATOMIC_POSITIONS {angstrom}
Li 1.80226750 0.00000000 -1.2744990399999985 0 0 0
Li 1.80226750 5.09760000 -1.2744990399999985 0 0 0
Li 5.40680250 2.54880000 -3.8232206600000005 0 0 0
Li 5.40680250 7.64640000 -3.8232206600000005 0 0 0
Li 1.75850845 5.01481498 3.73502864
Li 1.75504809 0.06106925 3.72811704
Li 5.41667893 7.64986637 1.27394611
Li 5.45748226 2.55318394 1.21312403
Y 5.40680250 0.00000000 -1.2744990399999985 0 0 0
Y 5.40680250 5.09760000 -1.2744990399999985 0 0 0
Y 1.80226750 2.54880000 -3.8232206600000005 0 0 0
Y 1.80226750 7.64640000 -3.8232206600000005 0 0 0
Y 5.55696743 5.27030669 3.79446840
Y 5.55617443 10.01647814 3.79806243
Y 1.71734466 7.64690976 1.38259646
Y 1.78143329 2.54716877 1.33034477
Ag 0.00000000 0.00000000 -3.8232206600000005 0 0 0
Ag 0.00000000 5.09760000 -3.8232206600000005 0 0 0
Ag 3.60453500 7.64640000 -1.2744990399999985 0 0 0
Ag 3.60453500 2.54880000 -1.2744990399999985 0 0 0
Ag 7.19840058 5.06538317 1.25431717
Ag 7.19522859 0.03364416 1.25652888
Ag 3.91762491 2.54584339 3.54813898
Ag 3.52451432 7.64283168 3.78313338
Pb 0.00000000 2.54880000 -1.2744990399999985 0 0 0
Pb 0.00000000 7.64640000 -1.2744990399999985 0 0 0
Pb 3.60453500 5.09760000 -3.8232206600000005 0 0 0
Pb 3.60453500 0.00000000 -3.8232206600000005 0 0 0
Pb 0.33529385 7.64242387 4.32168525
Pb 7.16862712 2.54441606 3.98909906
Pb 3.61888105 10.18928678 1.33172709
Pb 3.61621369 5.10259565 1.33034477
C 0.83142204 2.56898650 7.83222512
O 7.03136642 2.55094099 8.35501854
