&CONTROL
calculation = 'relax'
prefix = 'scf'
pseudo_dir = '/vol0004/mdt0/data/hp150275/u10028/POT_HYBRID_KKJUS_GBRV'
outdir = './data'
tprnfor = .true.
nstep = 50
disk_io = 'non'
/
&SYSTEM
ibrav = 0
ecutwfc = 50.0
ecutrho = 400
occupations = 'smearing'
smearing = 'mp'
degauss = 0.01
assume_isolated = 'esm'
esm_bc = 'bc1'
input_dft = 'BEEF-VDW'
nosym = .true.
nspin = 2
ntyp = 3
nat = 32
starting_magnetization(1) = 0.0
starting_magnetization(2) = 0.001
starting_magnetization(3) = 0.0
/
&ELECTRONS
electron_maxstep = 200
mixing_beta = 0.1
conv_thr = 1e-06
/
&IONS
ion_dynamics = 'bfgs'
upscale = 1.0
/
&CELL
/

K_POINTS {automatic}
9 6 2 0  0  0

ATOMIC_SPECIES
Hf 178.4 Hf.pbe-spn-rrkjus_psl.1.0.0.UPF
Ni 58.69 ni_pbe_v1.4.uspp.F.UPF
Sn 118.7 Sn.pbe-dn-rrkjus_psl.1.0.0.UPF

CELL_PARAMETERS {angstrom}
6.29417000 0.00000000 0.00000000
0.00000000 8.90130000 0.00000000
0.00000000 0.00000000 26.67600000

ATOMIC_POSITIONS {angstrom}
Hf 0.00000000 0.00000000 23.33803212
Hf 3.14708500 2.22532500 25.56334404
Hf 3.14708500 6.67597500 25.56334404
Hf 0.00000000 4.45065000 23.33803212
Hf 0.00000000 4.45065000 1.13879844
Hf 3.14708500 6.67597500 3.31982820
Hf 3.14708500 2.22532500 3.31956144
Hf 0.00000000 0.00000000 1.13879844
Ni 1.57354250 0.00000000 25.56334404
Ni 4.72062750 4.45065000 25.56334404
Ni 4.72062750 0.00000000 25.56334404
Ni 1.57354250 4.45065000 25.56334404
Ni 4.72062750 6.67597500 23.33803212
Ni 1.57354250 2.22532500 23.33803212
Ni 1.57354250 6.67597500 23.33803212
Ni 4.72062750 2.22532500 23.33803212
Ni 1.64995372 4.45073901 3.20218704
Ni 4.64421628 8.90121099 3.20218704
Ni 4.64421628 4.45073901 3.20218704
Ni 1.64995372 8.90121099 3.20218704
Ni 4.72421518 2.22523599 1.18494792
Ni 1.56995482 6.67606401 1.18521468
Ni 1.56995482 2.22523599 1.18494792
Ni 4.72421518 6.67606401 1.18521468
Sn 0.00000000 6.67597500 25.56334404
Sn 3.14708500 0.00000000 23.33803212
Sn 0.00000000 2.22532500 25.56334404
Sn 3.14708500 4.45065000 23.33803212
Sn 0.00000000 2.22523599 3.54524040
Sn 3.14708500 4.45065000 1.05823692
Sn 0.00000000 6.67606401 3.54524040
Sn 3.14708500 0.00000000 1.05823692
