&CONTROL
calculation = 'relax'
prefix = 'scf'
pseudo_dir = '/vol0004/mdt0/data/hp150275/u10028/POT_HYBRID_KKJUS_GBRV'
outdir = './data'
tprnfor = .true.
nstep = 50
disk_io = 'non'
/
&SYSTEM
ibrav = 0
ecutwfc = 50.0
ecutrho = 400
occupations = 'smearing'
smearing = 'mp'
degauss = 0.01
assume_isolated = 'esm'
esm_bc = 'bc1'
input_dft = 'BEEF-VDW'
nosym = .true.
nspin = 2
ntyp = 4
nat = 33
starting_magnetization(1) = 0.0
starting_magnetization(2) = 0.1
starting_magnetization(3) = 0.0
starting_magnetization(4) = 0.0
/
&ELECTRONS
electron_maxstep = 200
mixing_beta = 0.1
conv_thr = 1e-06
/
&IONS
ion_dynamics = 'bfgs'
upscale = 1.0
/
&CELL
/

K_POINTS {automatic}
9 6 2 0  0  0

ATOMIC_SPECIES
C 12.01 C.pbe-n-rrkjus_psl.1.0.0.UPF
Co 58.93 co_pbe_v1.2.uspp.F.UPF
Ge 72.64 Ge.pbe-dn-rrkjus_psl.1.0.0.UPF
Li 6.941 Li.pbe-sl-rrkjus_psl.1.0.0.UPF

CELL_PARAMETERS {angstrom}
5.64259000 0.00000000 0.00000000
0.00000000 7.97982000 0.00000000
0.00000000 0.00000000 25.98490000

ATOMIC_POSITIONS {angstrom}
Li 0.00000000 0.00000000 22.99247892
Li 2.82129500 1.99495500 24.98733969
Li 2.82129500 5.98486500 24.98733969
Li 0.00000000 3.98991000 22.99247892
Li 0.01805629 3.97626451 1.00223759
Li 2.81711948 5.98470540 4.10821269
Li 3.37223749 1.99495500 4.52682943
Li 0.01788701 0.01300711 1.00171790
Co 1.41064750 0.00000000 24.98733969
Co 4.23194250 3.98991000 24.98733969
Co 4.23194250 0.00000000 24.98733969
Co 1.41064750 3.98991000 24.98733969
Co 4.23194250 5.98486500 22.99247892
Co 1.41064750 1.99495500 22.99247892
Co 1.41064750 5.98486500 22.99247892
Co 4.23194250 1.99495500 22.99247892
Co 1.58274650 3.74476993 3.03893405
Co 4.29892004 7.85397824 2.90329288
Co 4.30100780 4.11742752 2.90199363
Co 1.58449570 0.24466128 3.03971360
Co 4.19989259 1.99511460 0.93883444
Co 1.49568133 5.98390742 1.18673038
Co 1.40997039 1.99511460 1.07083773
Co 4.31833055 5.98454581 1.20855770
Ge 0.00000000 5.98486500 24.98733969
Ge 2.82129500 0.00000000 22.99247892
Ge 0.00000000 1.99495500 24.98733969
Ge 2.82129500 3.98991000 22.99247892
Ge 5.33647949 1.99455601 2.96617634
Ge 2.81322610 3.97913724 0.94922840
Ge 0.22801706 5.98646096 3.25720721
Ge 2.81328252 0.01021417 0.94948825
C 1.68470810 1.99503480 3.37258017
