&CONTROL
calculation = 'relax'
prefix = 'scf'
pseudo_dir = '/vol0004/mdt0/data/hp150275/u10028/POT_KKJUS'
outdir = './data'
tprnfor = .true.
nstep = 50
disk_io = 'non'
/
&SYSTEM
ibrav = 0
ecutwfc = 50.0
ecutrho = 400
occupations = 'smearing'
smearing = 'mp'
degauss = 0.01
assume_isolated = 'esm'
esm_bc = 'bc1'
input_dft = 'BEEF-VDW'
nosym = .true.
nspin = 1
ntyp = 4
nat = 33
/
&ELECTRONS
electron_maxstep = 200
mixing_beta = 0.1
conv_thr = 1e-06
/
&IONS
ion_dynamics = 'bfgs'
upscale = 1.0
/
&CELL
/

K_POINTS {automatic}
8 6 1 0 0 0

ATOMIC_SPECIES
C 12.01 C.pbe-n-rrkjus_psl.1.0.0.UPF
Mg 24.30 Mg.pbe-spnl-rrkjus_psl.1.0.0.UPF
Ni 58.69 Ni.pbe-spn-rrkjus_psl.1.0.0.UPF
Sn 118.7 Sn.pbe-dn-rrkjus_psl.1.0.0.UPF

CELL_PARAMETERS {angstrom}
6.22749000 0.00000000 0.00000000
0.00000000 8.80700000 0.00000000
0.00000000 0.00000000 26.60530000

ATOMIC_POSITIONS {angstrom}
Mg 0.00000000 0.00000000 -3.3025158899999987 0 0 0
Mg 3.11374500 2.20175000 -1.1009273099999994 0 0 0
Mg 3.11374500 6.60525000 -1.1009273099999994 0 0 0
Mg 0.00000000 4.40350000 -3.3025158899999987 0 0 0
Mg 0.03661764 4.42956872 1.09879889
Mg 3.05944129 6.60533807 3.48848694
Mg 3.35132374 2.20166193 3.29001140
Mg 0.03661764 8.78101935 1.09853284
Ni 1.55687250 0.00000000 -1.1009273099999994 0 0 0
Ni 4.67061750 4.40350000 -1.1009273099999994 0 0 0
Ni 4.67061750 0.00000000 -1.1009273099999994 0 0 0
Ni 1.55687250 4.40350000 -1.1009273099999994 0 0 0
Ni 4.67061750 6.60525000 -3.3025158899999987 0 0 0
Ni 1.55687250 2.20175000 -3.3025158899999987 0 0 0
Ni 1.55687250 6.60525000 -3.3025158899999987 0 0 0
Ni 4.67061750 2.20175000 -3.3025158899999987 0 0 0
Ni 1.54161515 4.01379025 3.37568046
Ni 4.73002775 8.65719293 3.10696693
Ni 4.72996548 4.55330707 3.10696693
Ni 1.54155287 0.38988589 3.37568046
Ni 4.65137456 2.20175000 0.95433211
Ni 1.56247724 6.60525000 1.15014712
Ni 1.54784264 2.20175000 1.12540419
Ni 4.66793968 6.60525000 1.23581619
Sn 0.00000000 6.60525000 -1.1009273099999994 0 0 0
Sn 3.11374500 0.00000000 -3.3025158899999987 0 0 0
Sn 0.00000000 2.20175000 -1.1009273099999994 0 0 0
Sn 3.11374500 4.40350000 -3.3025158899999987 0 0 0
Sn 5.89139236 2.20175000 3.27724085
Sn 3.08223390 4.41398033 1.12433998
Sn 0.08774533 6.60525000 3.50285380
Sn 3.08217163 8.79651967 1.12407393
C 1.54728217 2.20192614 4.13366546
