&CONTROL
calculation = 'relax'
prefix = 'scf'
pseudo_dir = '/vol0403/data/hp230205/u10028/POT_HYBRID_KKJUS_GBRV'
outdir = './data'
tprnfor = .true.
nstep = 50
disk_io = 'non'
/
&SYSTEM
ibrav = 0
ecutwfc = 50.0
ecutrho = 400
occupations = 'smearing'
smearing = 'mp'
degauss = 0.01
assume_isolated = 'esm'
esm_bc = 'bc1'
input_dft = 'BEEF-VDW'
nosym = .true.
nspin = 1
ntyp = 4
nat = 16
/
&ELECTRONS
electron_maxstep = 200
mixing_beta = 0.1
conv_thr = 1e-06
/
&IONS
ion_dynamics = 'bfgs'
upscale = 1.0
/
&CELL
/

K_POINTS {automatic}
8 8 1 0 0 0

ATOMIC_SPECIES
Cu 63.54 Cu.pbe-dn-rrkjus_psl.1.0.0.UPF
Ge 72.64 Ge.pbe-dn-rrkjus_psl.1.0.0.UPF
Li 6.941 Li.pbe-sl-rrkjus_psl.1.0.0.UPF
Y 88.90 Y.pbe-spn-rrkjus_psl.1.0.0.UPF


CELL_PARAMETERS {angstrom}
6.66034000 0.00000000 0.00000000
0.00000000 6.66034000 0.00000000
0.00000000 0.00000000 24.99530000

ATOMIC_POSITIONS {angstrom}
Li 4.99525500 1.66508500 -0.8325934400000001 0 0 0
Li 4.99525500 4.99525500 2.49753038
Li 1.66508500 1.66508500 2.49753038
Li 1.66508500 4.99525500 -0.8325934400000001 0 0 0
Y 1.66508500 1.66508500 -0.8325934400000001 0 0 0
Y 1.66508500 4.99525500 2.49753038
Y 4.99525500 1.66508500 2.49753038
Y 4.99525500 4.99525500 -0.8325934400000001 0 0 0
Cu 0.00000000 0.00000000 -2.4975303800000006 0 0 0
Cu 0.00000000 3.33017000 0.83259344
Cu 3.33017000 0.00000000 0.83259344
Cu 3.33017000 3.33017000 -2.4975303800000006 0 0 0
Ge 0.00000000 3.33017000 -2.4975303800000006 0 0 0
Ge 0.00000000 0.00000000 0.83259344
Ge 3.33017000 3.33017000 0.83259344
Ge 3.33017000 0.00000000 -2.4975303800000006 0 0 0
