&CONTROL
calculation = 'relax'
prefix = 'scf'
pseudo_dir = '/vol0004/mdt0/data/hp150275/u10028/POT_HYBRID_KKJUS_GBRV'
outdir = './data'
tprnfor = .true.
nstep = 50
disk_io = 'non'
/
&SYSTEM
ibrav = 0
ecutwfc = 50.0
ecutrho = 400
occupations = 'smearing'
smearing = 'mp'
degauss = 0.01
assume_isolated = 'esm'
esm_bc = 'bc1'
input_dft = 'BEEF-VDW'
nosym = .true.
nspin = 2
ntyp = 2
nat = 32
starting_magnetization(1) = 0.1
starting_magnetization(2) = 0.01
/
&ELECTRONS
electron_maxstep = 200
mixing_beta = 0.1
conv_thr = 1e-06
/
&IONS
ion_dynamics = 'bfgs'
upscale = 1.0
/
&CELL
/

K_POINTS {automatic}
6 8 1 0 0 0

ATOMIC_SPECIES
Fe 55.84 fe_pbe_v1.5.uspp.F.UPF
Ni 58.69 ni_pbe_v1.4.uspp.F.UPF

CELL_PARAMETERS {angstrom}
7.18005000 0.00000000 0.00000000
-0.00000000 7.19034000 0.00000000
0.00000000 0.00000000 25.38500000

ATOMIC_POSITIONS {angstrom}
Fe 0.00000000 0.00000000 -2.6925869500000026 0 0 0
Fe 1.79501250 0.00000000 -0.8976136000000032 0 0 0
Fe 0.00000000 0.00000000 0.89761360
Fe 1.79501250 -0.00000000 2.69258695
Fe 0.00000000 3.59517000 -2.6925869500000026 0 0 0
Fe 1.79501250 3.59517000 -0.8976136000000032 0 0 0
Fe 0.00000000 3.59517000 0.89761360
Fe 1.79501250 3.59517000 2.69258695
Fe 3.59002500 0.00000000 -2.6925869500000026 0 0 0
Fe 5.38503750 0.00000000 -0.8976136000000032 0 0 0
Fe 3.59002500 -0.00000000 0.89761360
Fe 5.38503750 -0.00000000 2.69258695
Fe 3.59002500 3.59517000 -2.6925869500000026 0 0 0
Fe 5.38503750 3.59517000 -0.8976136000000032 0 0 0
Fe 3.59002500 3.59517000 0.89761360
Fe 5.38503750 3.59517000 2.69258695
Ni 1.79501250 1.79758500 -2.6925869500000026 0 0 0
Ni 0.00000000 1.79758500 -0.8976136000000032 0 0 0
Ni 1.79501250 1.79758500 0.89761360
Ni 0.00000000 1.79758500 2.69258695
Ni 1.79501250 5.39275500 -2.6925869500000026 0 0 0
Ni 0.00000000 5.39275500 -0.8976136000000032 0 0 0
Ni 1.79501250 5.39275500 0.89761360
Ni 0.00000000 5.39275500 2.69258695
Ni 5.38503750 1.79758500 -2.6925869500000026 0 0 0
Ni 3.59002500 1.79758500 -0.8976136000000032 0 0 0
Ni 5.38503750 1.79758500 0.89761360
Ni 3.59002500 1.79758500 2.69258695
Ni 5.38503750 5.39275500 -2.6925869500000026 0 0 0
Ni 3.59002500 5.39275500 -0.8976136000000032 0 0 0
Ni 5.38503750 5.39275500 0.89761360
Ni 3.59002500 5.39275500 2.69258695
