&CONTROL
calculation = 'relax'
prefix = 'scf'
pseudo_dir = '/vol0403/data/hp230205/u10028/POT_HYBRID_KKJUS_GBRV'
outdir = './data'
tprnfor = .true.
nstep = 50
disk_io = 'non'
/
&SYSTEM
ibrav = 0
ecutwfc = 50.0
ecutrho = 400
occupations = 'smearing'
smearing = 'mp'
degauss = 0.01
assume_isolated = 'esm'
esm_bc = 'bc1'
input_dft = 'BEEF-VDW'
nosym = .true.
nspin = 1
ntyp = 5
nat = 17
/
&ELECTRONS
electron_maxstep = 200
mixing_beta = 0.1
conv_thr = 1e-06
/
&IONS
ion_dynamics = 'bfgs'
upscale = 1.0
/
&CELL
/

K_POINTS {automatic}
9 9 2 0  0  0

ATOMIC_SPECIES
Ag 107.8 Ag.pbe-n-rrkjus_psl.1.0.0.UPF
C 12.01 C.pbe-n-rrkjus_psl.1.0.0.UPF
In 114.8 In.pbe-dn-rrkjus_psl.1.0.0.UPF
Li 6.941 Li.pbe-sl-rrkjus_psl.1.0.0.UPF
Y 88.90 Y.pbe-spn-rrkjus_psl.1.0.0.UPF


CELL_PARAMETERS {angstrom}
6.90709000 0.00000000 0.00000000
0.00000000 6.90709000 0.00000000
0.00000000 0.00000000 25.18030000

ATOMIC_POSITIONS {angstrom}
Li 0.24402749 3.20951751 3.37818905
Li 0.00000000 0.00000000 -0.8634324899999974 0 0 0
Li 3.45354500 3.45354500 -0.8634324899999974 0 0 0
Li 3.20951751 0.24395842 3.37818905
Y 5.18031750 1.72677250 0.95710320
Y 5.18031750 5.18031750 -2.5900456599999977 0 0 0
Y 1.72677250 1.72677250 -2.5900456599999977 0 0 0
Y 1.72677250 5.18031750 0.95710320
In 1.72677250 1.72677250 0.69900513
In 1.72677250 5.18031750 -2.5900456599999977 0 0 0
In 5.18031750 1.72677250 -2.5900456599999977 0 0 0
In 5.18031750 5.18031750 1.40279451
Ag 0.17454216 0.17454216 2.77612807
Ag 0.00000000 3.45354500 -0.8634324899999974 0 0 0
Ag 3.45354500 0.00000000 -0.8634324899999974 0 0 0
Ag 3.27900284 3.27900284 2.77612807
C 1.72677250 1.72677250 3.05940645
