&CONTROL
calculation = 'relax'
prefix = 'scf'
pseudo_dir = '/vol0004/mdt0/data/hp150275/u10028/POT_HYBRID_KKJUS_GBRV'
outdir = './data'
tprnfor = .true.
nstep = 50
disk_io = 'non'
/
&SYSTEM
ibrav = 0
ecutwfc = 50.0
ecutrho = 400
occupations = 'smearing'
smearing = 'mp'
degauss = 0.01
assume_isolated = 'esm'
esm_bc = 'bc1'
input_dft = 'BEEF-VDW'
nosym = .true.
nspin = 2
ntyp = 5
nat = 34
starting_magnetization(1) = 0.0
starting_magnetization(2) = 0.1
starting_magnetization(3) = 0.0
starting_magnetization(4) = 0.0
starting_magnetization(5) = 0.0
/
&ELECTRONS
electron_maxstep = 300
mixing_beta = 0.1
conv_thr = 1e-06
/
&IONS
ion_dynamics = 'bfgs'
upscale = 1.0
/
&CELL
/

K_POINTS {automatic}
9 6 2 0  0  0

ATOMIC_SPECIES
C 12.01 C.pbe-n-rrkjus_psl.1.0.0.UPF
Fe 55.84 fe_pbe_v1.5.uspp.F.UPF
Ga 69.72 Ga.pbe-dnl-rrkjus_psl.1.0.0.UPF
O 15.99 O.pbe-n-rrkjus_psl.1.0.0.UPF
V 50.94 V.pbe-spnl-rrkjus_psl.1.0.0.UPF

CELL_PARAMETERS {angstrom}
5.73361000 0.00000000 0.00000000
0.00000000 8.10855000 0.00000000
0.00000000 0.00000000 26.08140000

ATOMIC_POSITIONS {angstrom}
V 0.00000000 0.00000000 -3.0408304299999998 0 0 0
V 2.86680500 2.02713750 -1.013523199999998 0 0 0
V 2.86680500 6.08141250 -1.013523199999998 0 0 0
V 0.00000000 4.05427500 -3.0408304299999998 0 0 0
V 5.73349533 4.05305872 1.03438832
V 2.86691967 6.08214227 2.96649844
V 2.86686234 2.02600230 2.97484448
V 0.00000000 0.00081086 1.03230181
Ga 0.00000000 6.08141250 -1.013523199999998 0 0 0
Ga 2.86680500 0.00000000 -3.0408304299999998 0 0 0
Ga 0.00000000 2.02713750 -1.013523199999998 0 0 0
Ga 2.86680500 4.05427500 -3.0408304299999998 0 0 0
Ga 0.00017201 2.02729967 3.33085559
Ga 2.86651832 4.05305872 1.00726367
Ga 0.00034402 6.08043947 3.32642176
Ga 2.86691967 0.00048651 1.00674204
Fe 1.43340250 0.00000000 -1.013523199999998 0 0 0
Fe 4.30020750 4.05427500 -1.013523199999998 0 0 0
Fe 4.30020750 0.00000000 -1.013523199999998 0 0 0
Fe 1.43340250 4.05427500 -1.013523199999998 0 0 0
Fe 4.30020750 6.08141250 -3.0408304299999998 0 0 0
Fe 1.43340250 2.02713750 -3.0408304299999998 0 0 0
Fe 1.43340250 6.08141250 -3.0408304299999998 0 0 0
Fe 4.30020750 2.02713750 -3.0408304299999998 0 0 0
Fe 1.40433310 4.05200461 3.04526426
Fe 4.33231572 0.00154062 3.04213450
Fe 4.32950625 4.05200461 3.04526426
Fe 1.40146629 0.00154062 3.04213450
Fe 4.32509137 2.02713750 1.06412112
Fe 1.40869064 6.08052056 1.06125217
Fe 1.40857597 2.02721859 1.06412112
Fe 4.32503403 6.08052056 1.06125217
C 5.72781905 2.07157235 7.18307837
O 0.00326816 2.01140691 8.31631520
