&CONTROL
calculation = 'relax'
prefix = 'scf'
pseudo_dir = '/vol0004/mdt0/data/hp150275/u10028/POT_KKJUS'
outdir = './data'
tprnfor = .true.
nstep = 50
disk_io = 'non'
/
&SYSTEM
ibrav = 0
ecutwfc = 50.0
ecutrho = 400
occupations = 'smearing'
smearing = 'mp'
degauss = 0.01
assume_isolated = 'esm'
esm_bc = 'bc1'
input_dft = 'BEEF-VDW'
nosym = .true.
nspin = 1
ntyp = 4
nat = 18
/
&ELECTRONS
electron_maxstep = 200
mixing_beta = 0.1
conv_thr = 1e-06
/
&IONS
ion_dynamics = 'bfgs'
upscale = 1.0
/
&CELL
/

K_POINTS {automatic}
6 8 1 0 0 0

ATOMIC_SPECIES
C 12.01 C.pbe-n-rrkjus_psl.1.0.0.UPF
O 15.99 O.pbe-n-rrkjus_psl.1.0.0.UPF
Pt 195.0 Pt.pbe-n-rrkjus_psl.1.0.0.UPF
Y 88.90 Y.pbe-spn-rrkjus_psl.1.0.0.UPF

CELL_PARAMETERS {angstrom}
8.32195000 0.00000000 0.00000000
0.00000000 5.88450000 0.00000000
0.00000000 0.00000000 24.41340000

ATOMIC_POSITIONS {angstrom}
Y 0.00000000 0.00000000 2.16131830
Y 0.00000000 2.94225000 -0.735575739999998 0 0 0
Y 4.16097500 0.00000000 2.07611554
Y 4.16097500 2.94225000 -0.735575739999998 0 0 0
Pt 0.00000000 2.94225000 2.37713276
Pt 2.04387092 4.44085561 0.80832767
Pt 2.04378770 1.44364439 0.80832767
Pt 0.00000000 0.00000000 -0.735575739999998 0 0 0
Pt 2.08048750 1.47112500 -2.2067272299999985 0 0 0
Pt 2.08048750 4.41337500 -2.2067272299999985 0 0 0
Pt 4.16097500 2.94225000 1.97406752
Pt 6.27816230 4.44085562 0.80832767
Pt 6.27816230 1.44364439 0.80832767
Pt 4.16097500 0.00000000 -0.735575739999998 0 0 0
Pt 6.24146250 1.47112500 -2.2067272299999985 0 0 0
Pt 6.24146250 4.41337500 -2.2067272299999985 0 0 0
C 0.00000000 2.94225000 4.26819472
O 0.00000000 2.94225000 5.43442284
