&CONTROL
calculation = 'relax'
prefix = 'scf'
pseudo_dir = '/vol0403/data/hp230205/u10028/POT_HYBRID_KKJUS_GBRV'
outdir = './data'
tprnfor = .true.
nstep = 50
disk_io = 'non'
/
&SYSTEM
ibrav = 0
ecutwfc = 50.0
ecutrho = 400
occupations = 'smearing'
smearing = 'mp'
degauss = 0.01
assume_isolated = 'esm'
esm_bc = 'bc1'
input_dft = 'BEEF-VDW'
nosym = .true.
nspin = 1
ntyp = 6
nat = 34
/
&ELECTRONS
electron_maxstep = 200
mixing_beta = 0.1
conv_thr = 1e-06
/
&IONS
ion_dynamics = 'bfgs'
upscale = 1.0
/
&CELL
/

K_POINTS {automatic}
7 7 2 0  0  0

ATOMIC_SPECIES
C 12.01 C.pbe-n-rrkjus_psl.1.0.0.UPF
Ge 72.64 Ge.pbe-dn-rrkjus_psl.1.0.0.UPF
In 114.8 In.pbe-dn-rrkjus_psl.1.0.0.UPF
Li 6.941 Li.pbe-sl-rrkjus_psl.1.0.0.UPF
O 15.99 O.pbe-n-rrkjus_psl.1.0.0.UPF
Sc 44.95 Sc.pbe-spn-rrkjus_psl.1.0.0.UPF


CELL_PARAMETERS {angstrom}
8.97372000 0.00000000 0.00000000
0.00000000 8.12626000 0.00000000
0.00000000 0.00000000 26.16540000

ATOMIC_POSITIONS {angstrom}
Li 2.24343000 2.03156500 -3.0828074300000026 0 0 0
Li 2.24271210 2.05179939 1.08193929
Li 2.24343000 6.09469500 -3.0828074300000026 0 0 0
Li 2.24271210 6.07454188 1.08193929
Li 6.73029000 2.03156500 -3.0828074300000026 0 0 0
Li 6.72957210 2.01214324 1.06702501
Li 6.73029000 6.09469500 -3.0828074300000026 0 0 0
Li 6.72957210 6.11427929 1.06676336
Sc 0.00000000 2.03156500 -1.0275152600000013 0 0 0
Sc 8.97246368 2.03278394 3.07260292
Sc 0.00000000 6.09469500 -1.0275152600000013 0 0 0
Sc 8.97237394 6.09371985 3.07260292
Sc 4.48686000 2.03156500 -1.0275152600000013 0 0 0
Sc 4.48659079 2.03237763 3.07260292
Sc 4.48686000 6.09469500 -1.0275152600000013 0 0 0
Sc 4.48668053 6.09412616 3.07260292
In 2.24343000 0.00000000 -1.0275152600000013 0 0 0
In 2.24217368 0.00016253 3.40987493
In 2.24343000 4.06313000 -1.0275152600000013 0 0 0
In 2.24271210 4.06321126 3.44493656
In 6.73029000 0.00000000 -1.0275152600000013 0 0 0
In 6.72975158 0.00008126 3.42400424
In 6.73029000 4.06313000 -1.0275152600000013 0 0 0
In 6.72939263 4.06329253 3.41746289
Ge 0.00000000 0.00000000 -3.0828074300000026 0 0 0
Ge 0.00682003 0.00008126 1.16436030
Ge 0.00000000 4.06313000 -3.0828074300000026 0 0 0
Ge 8.97192526 4.06329253 1.16880842
Ge 4.48686000 0.00000000 -3.0828074300000026 0 0 0
Ge 4.47905286 0.00008126 1.16409865
Ge 4.48686000 4.06313000 -3.0828074300000026 0 0 0
Ge 4.48739842 4.06329253 1.16880842
C 2.28111962 8.12040909 7.76536741
O 2.23678945 0.00162525 8.90068412
