&CONTROL
calculation = 'relax'
prefix = 'scf'
pseudo_dir = '/vol0004/mdt0/data/hp150275/u10028/POT_KKJUS'
outdir = './data'
tprnfor = .true.
nstep = 50
disk_io = 'non'
/
&SYSTEM
ibrav = 0
ecutwfc = 50.0
ecutrho = 400
occupations = 'smearing'
smearing = 'mp'
degauss = 0.01
assume_isolated = 'esm'
esm_bc = 'bc1'
input_dft = 'BEEF-VDW'
nosym = .true.
nspin = 1
ntyp = 4
nat = 33
/
&ELECTRONS
electron_maxstep = 200
mixing_beta = 0.1
conv_thr = 1e-06
/
&IONS
ion_dynamics = 'bfgs'
upscale = 1.0
/
&CELL
/

K_POINTS {automatic}
8 6 1 0 0 0

ATOMIC_SPECIES
Ag 107.8 Ag.pbe-n-rrkjus_psl.1.0.0.UPF
C 12.01 C.pbe-n-rrkjus_psl.1.0.0.UPF
Li 6.941 Li.pbe-sl-rrkjus_psl.1.0.0.UPF
Sn 118.7 Sn.pbe-dn-rrkjus_psl.1.0.0.UPF

CELL_PARAMETERS {angstrom}
6.59455000 0.00000000 0.00000000
0.00000000 9.32610000 0.00000000
0.00000000 0.00000000 26.99460000

ATOMIC_POSITIONS {angstrom}
Li 1.64863750 0.00000000 -1.1658967699999998 0 0 0
Li 4.94591250 4.66305000 -1.1658967699999998 0 0 0
Li 4.94591250 0.00000000 -1.1658967699999998 0 0 0
Li 1.64863750 4.66305000 -1.1658967699999998 0 0 0
Li 4.94591250 6.99457500 -3.4974203799999977 0 0 0
Li 1.64863750 2.33152500 -3.4974203799999977 0 0 0
Li 1.64863750 6.99457500 -3.4974203799999977 0 0 0
Li 4.94591250 2.33152500 -3.4974203799999977 0 0 0
Li 1.50527198 4.44537883 3.63347316
Li 4.91920457 9.12167189 3.52765433
Li 4.91913863 4.86747811 3.52765433
Li 1.50527198 0.21767117 3.63347316
Li 5.14988193 2.33152500 1.27387517
Li 1.73357530 6.99457500 1.04658064
Li 1.45383449 2.33152500 1.48524289
Li 4.88392373 6.99457500 1.20152965
Ag 0.00000000 0.00000000 -3.4974203799999977 0 0 0
Ag 3.29727500 2.33152500 -1.1658967699999998 0 0 0
Ag 3.29727500 6.99457500 -1.1658967699999998 0 0 0
Ag 0.00000000 4.66305000 -3.4974203799999977 0 0 0
Ag 0.00745184 4.86617246 1.08950206
Ag 3.07002681 6.99457500 3.33032380
Ag 3.47354732 2.33152500 3.40455895
Ag 0.00751779 9.12297754 1.08950206
Sn 0.00000000 6.99457500 -1.1658967699999998 0 0 0
Sn 3.29727500 0.00000000 -3.4974203799999977 0 0 0
Sn 0.00000000 2.33152500 -1.1658967699999998 0 0 0
Sn 3.29727500 4.66305000 -3.4974203799999977 0 0 0
Sn 6.06217198 2.33152500 4.44978986
Sn 3.30815601 4.56456638 1.18479299
Sn 0.13466071 6.99457500 3.46745637
Sn 3.30815601 0.09839036 1.18479299
C 1.35030006 2.33152500 3.67909403
