&CONTROL
calculation = 'relax'
prefix = 'scf'
pseudo_dir = '/vol0403/data/hp230205/u10028/POT_HYBRID_KKJUS_GBRV'
outdir = './data'
tprnfor = .true.
nstep = 50
disk_io = 'non'
/
&SYSTEM
ibrav = 0
ecutwfc = 50.0
ecutrho = 400
occupations = 'smearing'
smearing = 'mp'
degauss = 0.01
assume_isolated = 'esm'
esm_bc = 'bc1'
input_dft = 'BEEF-VDW'
nosym = .true.
nspin = 1
ntyp = 5
nat = 33
/
&ELECTRONS
electron_maxstep = 200
mixing_beta = 0.1
conv_thr = 1e-06
/
&IONS
ion_dynamics = 'bfgs'
upscale = 1.0
/
&CELL
/

K_POINTS {automatic}
6 6 1 0 0 0

ATOMIC_SPECIES
C 12.01 C.pbe-n-rrkjus_psl.1.0.0.UPF
Ge 72.64 Ge.pbe-dn-rrkjus_psl.1.0.0.UPF
Li 6.941 Li.pbe-sl-rrkjus_psl.1.0.0.UPF
Pd 106.4 Pd.pbe-n-rrkjus_psl.1.0.0.UPF
Zn 65.40 Zn.pbe-dnl-rrkjus_psl.1.0.0.UPF


CELL_PARAMETERS {angstrom}
6.18512000 0.00000000 0.00000000
0.00000000 8.74708000 0.00000000
0.00000000 0.00000000 26.56030000

ATOMIC_POSITIONS {angstrom}
Li 4.63884000 0.00000000 -1.0934875500000025 0 0 0
Li 4.63884000 4.37354000 -1.0934875500000025 0 0 0
Li 1.54628000 2.18677000 -3.2801970500000017 0 0 0
Li 1.54628000 6.56031000 -3.2801970500000017 0 0 0
Li 4.53449703 4.60997357 3.52056777
Li 4.53449703 8.51064643 3.52056777
Li 1.54832109 6.56031000 1.03877333
Li 1.72775142 2.18677000 1.37369872
Zn 0.00000000 2.18677000 -1.0934875500000025 0 0 0
Zn 0.00000000 6.56031000 -1.0934875500000025 0 0 0
Zn 3.09256000 4.37354000 -3.2801970500000017 0 0 0
Zn 3.09256000 0.00000000 -3.2801970500000017 0 0 0
Zn 0.24394113 6.56031000 3.26426087
Zn 5.85297906 2.18677000 3.25841760
Zn 3.16597737 8.64911270 1.07728577
Zn 3.16597737 4.47150730 1.07728577
Ge 0.00000000 0.00000000 -3.2801970500000017 0 0 0
Ge 0.00000000 4.37354000 -3.2801970500000017 0 0 0
Ge 3.09256000 6.56031000 -1.0934875500000025 0 0 0
Ge 3.09256000 2.18677000 -1.0934875500000025 0 0 0
Ge 6.15468921 4.32210717 1.20530641
Ge 6.15468921 0.05143283 1.20530641
Ge 3.35449983 2.18685747 4.32136081
Ge 2.84608297 6.56031000 3.51313088
Pd 1.54628000 0.00000000 -1.0934875500000025 0 0 0
Pd 1.54628000 4.37354000 -1.0934875500000025 0 0 0
Pd 4.63884000 2.18677000 -3.2801970500000017 0 0 0
Pd 4.63884000 6.56031000 -3.2801970500000017 0 0 0
Pd 1.66627133 4.26183979 3.20742183
Pd 1.66620948 0.11170021 3.20742183
Pd 4.74386334 6.56031000 1.17609008
Pd 4.59628637 2.18677000 0.98937118
C 1.58258665 2.18677000 3.69533454
