&CONTROL
calculation = 'relax'
prefix = 'scf'
pseudo_dir = '/vol0004/mdt0/data/hp150275/u10028/POT_KKJUS'
outdir = './data'
tprnfor = .true.
nstep = 50
disk_io = 'non'
/
&SYSTEM
ibrav = 0
ecutwfc = 50.0
ecutrho = 400
occupations = 'smearing'
smearing = 'mp'
degauss = 0.01
assume_isolated = 'esm'
esm_bc = 'bc1'
input_dft = 'BEEF-VDW'
nosym = .true.
nspin = 1
ntyp = 3
nat = 33
/
&ELECTRONS
electron_maxstep = 200
mixing_beta = 0.1
conv_thr = 1e-06
/
&IONS
ion_dynamics = 'bfgs'
upscale = 1.0
/
&CELL
/

K_POINTS {automatic}
8 6 1 0 0 0

ATOMIC_SPECIES
Be 9.012 Be.pbe-n-rrkjus_psl.1.0.0.UPF
C 12.01 C.pbe-n-rrkjus_psl.1.0.0.UPF
Li 6.941 Li.pbe-sl-rrkjus_psl.1.0.0.UPF

CELL_PARAMETERS {angstrom}
5.62306000 0.00000000 0.00000000
0.00000000 7.95221000 0.00000000
0.00000000 0.00000000 25.96420000

ATOMIC_POSITIONS {angstrom}
Li 0.00000000 0.00000000 -2.9819883700000034 0 0 0
Li 0.00000000 1.98805250 -0.9939095800000004 0 0 0
Li 5.59089610 7.93638510 0.87525318
Li 5.49637246 1.98852963 3.85983797
Li 0.00000000 3.97610500 -2.9819883700000034 0 0 0
Li 0.00000000 5.96415750 -0.9939095800000004 0 0 0
Li 5.59089610 3.99113468 0.87603211
Li 0.05128231 5.96407798 3.39871378
Li 2.81153000 0.00000000 -2.9819883700000034 0 0 0
Li 2.81153000 1.98805250 -0.9939095800000004 0 0 0
Li 2.84375013 7.93670319 0.87577247
Li 2.93816131 1.98781393 3.85957833
Li 2.81153000 3.97610500 -2.9819883700000034 0 0 0
Li 2.81153000 5.96415750 -0.9939095800000004 0 0 0
Li 2.84358144 3.99129372 0.87551282
Li 2.76024769 5.96439607 3.39897342
Be 1.40576500 1.98805250 -2.9819883700000034 0 0 0
Be 1.40576500 0.00000000 -0.9939095800000004 0 0 0
Be 1.40570877 1.98773441 0.87291640
Be 1.40497777 0.30162733 2.69845931
Be 1.40576500 5.96415750 -2.9819883700000034 0 0 0
Be 1.40576500 3.97610500 -0.9939095800000004 0 0 0
Be 1.40576500 5.96391893 1.32391456
Be 1.40632731 3.67527290 2.69897859
Be 4.21729500 1.98805250 -2.9819883700000034 0 0 0
Be 4.21729500 0.00000000 -0.9939095800000004 0 0 0
Be 4.21751992 1.98781393 1.65547739
Be 4.21796977 7.90401961 2.73221277
Be 4.21729500 5.96415750 -2.9819883700000034 0 0 0
Be 4.21729500 3.97610500 -0.9939095800000004 0 0 0
Be 4.21729500 5.96391893 1.31352888
Be 4.21673269 4.02437491 2.73221277
C 1.40559631 1.98852963 2.53826019
