&CONTROL
calculation = 'relax'
prefix = 'scf'
pseudo_dir = '/vol0004/mdt0/data/hp150275/u10028/POT_KKJUS'
outdir = './data'
tprnfor = .true.
nstep = 50
disk_io = 'non'
/
&SYSTEM
ibrav = 0
ecutwfc = 50.0
ecutrho = 400
occupations = 'smearing'
smearing = 'mp'
degauss = 0.01
assume_isolated = 'esm'
esm_bc = 'bc1'
input_dft = 'BEEF-VDW'
nosym = .true.
nspin = 1
ntyp = 5
nat = 34
/
&ELECTRONS
electron_maxstep = 200
mixing_beta = 0.1
conv_thr = 1e-06
/
&IONS
ion_dynamics = 'bfgs'
upscale = 1.0
/
&CELL
/

K_POINTS {automatic}
8 6 1 0 0 0

ATOMIC_SPECIES
C 12.01 C.pbe-n-rrkjus_psl.1.0.0.UPF
In 114.8 In.pbe-dn-rrkjus_psl.1.0.0.UPF
Li 6.941 Li.pbe-sl-rrkjus_psl.1.0.0.UPF
O 15.99 O.pbe-n-rrkjus_psl.1.0.0.UPF
Pt 195.0 Pt.pbe-n-rrkjus_psl.1.0.0.UPF

CELL_PARAMETERS {angstrom}
6.69031000 0.00000000 0.00000000
0.00000000 9.46152000 0.00000000
0.00000000 0.00000000 27.09610000

ATOMIC_POSITIONS {angstrom}
Li 0.00000000 0.00000000 -3.547963329999998 0 0 0
Li 3.34515500 2.36538000 -1.1827447599999985 0 0 0
Li 3.34515500 7.09614000 -1.1827447599999985 0 0 0
Li 0.00000000 4.73076000 -3.547963329999998 0 0 0
Li 0.00013381 4.70493005 1.30467721
Li 3.34488739 7.09623462 3.92107663
Li 3.34495429 2.36538000 4.30638317
Li 0.00013381 0.02582995 1.30440625
In 1.67257750 0.00000000 -1.1827447599999985 0 0 0
In 5.01773250 4.73076000 -1.1827447599999985 0 0 0
In 5.01773250 0.00000000 -1.1827447599999985 0 0 0
In 1.67257750 4.73076000 -1.1827447599999985 0 0 0
In 5.01773250 7.09614000 -3.547963329999998 0 0 0
In 1.67257750 2.36538000 -3.547963329999998 0 0 0
In 1.67257750 7.09614000 -3.547963329999998 0 0 0
In 5.01773250 2.36538000 -3.547963329999998 0 0 0
In 1.63317157 4.72848924 3.84412371
In 5.05700462 0.00151384 3.84412371
In 5.05693772 4.72934077 3.84412371
In 1.63323848 0.00227076 3.84412371
In 4.92915280 2.36538000 1.30576106
In 1.71365600 7.09614000 1.25509135
In 1.76216075 2.36528538 1.30792875
In 4.97685471 7.09614000 1.25482039
Pt 0.00000000 7.09614000 -1.1827447599999985 0 0 0
Pt 3.34515500 0.00000000 -3.547963329999998 0 0 0
Pt 0.00000000 2.36538000 -1.1827447599999985 0 0 0
Pt 3.34515500 4.73076000 -3.547963329999998 0 0 0
Pt 0.00287683 2.36538000 3.39974767
Pt 3.34602474 4.75848225 1.08736649
Pt 0.00006690 7.09604538 3.38403193
Pt 3.34595784 9.43379775 1.08736649
C 3.34502119 2.36538000 6.39847305
O 3.34495429 2.36547462 7.53705118
