&CONTROL
calculation = 'relax'
prefix = 'scf'
pseudo_dir = '/vol0004/mdt0/data/hp150275/u10028/POT_KKJUS'
outdir = './data'
tprnfor = .true.
nstep = 50
disk_io = 'non'
/
&SYSTEM
ibrav = 0
ecutwfc = 50.0
ecutrho = 400
occupations = 'smearing'
smearing = 'mp'
degauss = 0.01
assume_isolated = 'esm'
esm_bc = 'bc1'
input_dft = 'BEEF-VDW'
nosym = .true.
nspin = 1
ntyp = 3
nat = 33
/
&ELECTRONS
electron_maxstep = 200
mixing_beta = 0.1
conv_thr = 1e-06
/
&IONS
ion_dynamics = 'bfgs'
upscale = 1.0
/
&CELL
/

K_POINTS {automatic}
9 6 2 0  0  0

ATOMIC_SPECIES
C 12.01 C.pbe-n-rrkjus_psl.1.0.0.UPF
Pd 106.4 Pd.pbe-n-rrkjus_psl.1.0.0.UPF
Sc 44.95 Sc.pbe-spn-rrkjus_psl.1.0.0.UPF

CELL_PARAMETERS {angstrom}
6.66071000 0.00000000 0.00000000
0.00000000 9.41967000 0.00000000
0.00000000 0.00000000 27.06480000

ATOMIC_POSITIONS {angstrom}
Sc 1.66517750 2.35491750 -3.5324977000000004 0 0 0
Sc 1.66517750 0.00000000 -1.1775894500000028 0 0 0
Sc 1.66717571 2.35491750 1.24443950
Sc 1.66644303 0.17633622 3.52735538
Sc 1.66517750 7.06475250 -3.5324977000000004 0 0 0
Sc 1.66517750 4.70983500 -1.1775894500000028 0 0 0
Sc 1.66484446 7.06475250 1.16378640
Sc 1.66644303 4.53349878 3.52735538
Sc 4.99553250 2.35491750 -3.5324977000000004 0 0 0
Sc 4.99553250 0.00000000 -1.1775894500000028 0 0 0
Sc 4.99686464 2.35491750 1.16730482
Sc 4.99686464 9.35109480 3.53764001
Sc 4.99553250 7.06475250 -3.5324977000000004 0 0 0
Sc 4.99553250 4.70983500 -1.1775894500000028 0 0 0
Sc 4.99573232 7.06475250 1.18246111
Sc 4.99679803 4.77841020 3.53764001
Pd 0.00000000 0.00000000 -3.5324977000000004 0 0 0
Pd 0.00000000 2.35491750 -1.1775894500000028 0 0 0
Pd 6.63799698 9.37775247 1.15566696
Pd 6.31488594 2.35491750 3.48161587
Pd 0.00000000 4.70983500 -3.5324977000000004 0 0 0
Pd 0.00000000 7.06475250 -1.1775894500000028 0 0 0
Pd 6.63799698 4.75175253 1.15566696
Pd 0.06733978 7.06475250 3.33519530
Pd 3.33035500 0.00000000 -3.5324977000000004 0 0 0
Pd 3.33035500 2.35491750 -1.1775894500000028 0 0 0
Pd 3.35420034 9.37633952 1.15485502
Pd 3.68790191 2.35491750 3.48540494
Pd 3.33035500 4.70983500 -3.5324977000000004 0 0 0
Pd 3.33035500 7.06475250 -1.1775894500000028 0 0 0
Pd 3.35420034 4.75307129 1.15485502
Pd 3.26328165 7.06475250 3.33492466
C 1.67257089 2.35491750 3.42748627
