&CONTROL
calculation = 'relax'
prefix = 'scf'
pseudo_dir = '/vol0004/mdt0/data/hp150275/u10028/POT_KKJUS'
outdir = './data'
tprnfor = .true.
nstep = 50
disk_io = 'non'
/
&SYSTEM
ibrav = 0
ecutwfc = 50.0
ecutrho = 400
occupations = 'smearing'
smearing = 'mp'
degauss = 0.01
assume_isolated = 'esm'
esm_bc = 'bc1'
input_dft = 'BEEF-VDW'
nosym = .true.
nspin = 1
ntyp = 4
nat = 34
/
&ELECTRONS
electron_maxstep = 200
mixing_beta = 0.1
conv_thr = 1e-06
/
&IONS
ion_dynamics = 'bfgs'
upscale = 1.0
/
&CELL
/

K_POINTS {automatic}
8 6 1 0 0 0

ATOMIC_SPECIES
C 12.01 C.pbe-n-rrkjus_psl.1.0.0.UPF
Li 6.941 Li.pbe-sl-rrkjus_psl.1.0.0.UPF
O 15.99 O.pbe-n-rrkjus_psl.1.0.0.UPF
Pb 207.2 Pb.pbe-dn-rrkjus_psl.1.0.0.UPF

CELL_PARAMETERS {angstrom}
7.21597000 0.00000000 0.00000000
0.00000000 10.20490000 0.00000000
0.00000000 0.00000000 27.65370000

ATOMIC_POSITIONS {angstrom}
Li 0.00000000 0.00000000 -3.8267190100000015 0 0 0
Li 0.00000000 2.55122500 -1.2756651800000007 0 0 0
Li 0.00007216 0.01040900 1.27317635
Li 0.00007216 2.56224629 3.86736995
Li 0.00000000 5.10245000 -3.8267190100000015 0 0 0
Li 0.00000000 7.65367500 -1.2756651800000007 0 0 0
Li 0.00007216 5.09857214 1.24828802
Li 0.00000000 7.64153117 3.92018851
Li 3.60798500 0.00000000 -3.8267190100000015 0 0 0
Li 3.60798500 2.55122500 -1.2756651800000007 0 0 0
Li 3.60798500 10.17622423 1.23141926
Li 3.60805716 2.55969507 3.83252628
Li 3.60798500 5.10245000 -3.8267190100000015 0 0 0
Li 3.60798500 7.65367500 -1.2756651800000007 0 0 0
Li 3.60798500 5.10734835 1.23169580
Li 3.60798500 7.64051068 3.84275815
Pb 1.80399250 2.55122500 -3.8267190100000015 0 0 0
Pb 1.80399250 0.00000000 -1.2756651800000007 0 0 0
Pb 1.78876680 2.54918402 1.40176605
Pb 1.83646437 5.14816795 3.82340056
Pb 1.80399250 7.65367500 -3.8267190100000015 0 0 0
Pb 1.80399250 5.10245000 -1.2756651800000007 0 0 0
Pb 1.76387171 7.65010329 1.40287220
Pb 1.84216498 10.15856975 3.82561286
Pb 5.41197750 2.55122500 -3.8267190100000015 0 0 0
Pb 5.41197750 0.00000000 -1.2756651800000007 0 0 0
Pb 5.42749184 2.54918402 1.40148952
Pb 5.37943348 5.14806590 3.82340056
Pb 5.41197750 7.65367500 -3.8267190100000015 0 0 0
Pb 5.41197750 5.10245000 -1.2756651800000007 0 0 0
Pb 5.45209829 7.65010329 1.40287220
Pb 5.37387718 10.15856975 3.82533632
C 7.21568136 2.56694055 5.94499243
O 7.21524840 2.57173685 7.08902600
