&CONTROL
calculation = 'relax'
prefix = 'scf'
pseudo_dir = '/vol0004/mdt0/data/hp150275/u10028/POT_HYBRID_KKJUS_GBRV'
outdir = './data'
tprnfor = .true.
nstep = 50
disk_io = 'non'
/
&SYSTEM
ibrav = 0
ecutwfc = 50.0
ecutrho = 400
occupations = 'smearing'
smearing = 'mp'
degauss = 0.01
assume_isolated = 'esm'
esm_bc = 'bc1'
input_dft = 'BEEF-VDW'
nosym = .true.
nspin = 2
ntyp = 2
nat = 32
starting_magnetization(1) = 0.1
starting_magnetization(2) = 0.1
/
&ELECTRONS
electron_maxstep = 200
mixing_beta = 0.1
conv_thr = 1e-06
/
&IONS
ion_dynamics = 'bfgs'
upscale = 1.0
/
&CELL
/

K_POINTS {automatic}
8 6 1 0 0 0

ATOMIC_SPECIES
Ni 58.69 ni_pbe_v1.4.uspp.F.UPF
Ti 47.86 Ti.pbe-spn-rrkjus_psl.1.0.0.UPF

CELL_PARAMETERS {angstrom}
6.03636000 0.00000000 0.00000000
0.00000000 8.53670000 0.00000000
0.00000000 0.00000000 26.40250000

ATOMIC_POSITIONS {angstrom}
Ti 1.50909000 2.13417500 -3.2013031199999986 0 0 0
Ti 1.50909000 0.00000000 -1.0671890499999996 0 0 0
Ti 1.50921073 2.13417500 1.03788227
Ti 1.50927109 0.00000000 3.26466912
Ti 1.50909000 6.40252500 -3.2013031199999986 0 0 0
Ti 1.50909000 4.26835000 -1.0671890499999996 0 0 0
Ti 1.50921073 6.40252500 1.03788227
Ti 1.50933145 4.26835000 3.26466912
Ti 4.52727000 2.13417500 -3.2013031199999986 0 0 0
Ti 4.52727000 0.00000000 -1.0671890499999996 0 0 0
Ti 4.52714927 2.13417500 1.03788227
Ti 4.52702855 0.00000000 3.26466912
Ti 4.52727000 6.40252500 -3.2013031199999986 0 0 0
Ti 4.52727000 4.26835000 -1.0671890499999996 0 0 0
Ti 4.52714927 6.40252500 1.03788227
Ti 4.52702855 4.26835000 3.26466912
Ni 0.00000000 0.00000000 -3.2013031199999986 0 0 0
Ni 0.00000000 2.13417500 -1.0671890499999996 0 0 0
Ni 0.00000000 8.53661463 1.18864055
Ni 0.00000000 2.13426037 2.98691482
Ni 0.00000000 4.26835000 -3.2013031199999986 0 0 0
Ni 0.00000000 6.40252500 -1.0671890499999996 0 0 0
Ni 0.00000000 4.26843537 1.18837653
Ni 0.00000000 6.40243963 2.98691482
Ni 3.01818000 0.00000000 -3.2013031199999986 0 0 0
Ni 3.01818000 2.13417500 -1.0671890499999996 0 0 0
Ni 3.01818000 8.53661463 1.18864055
Ni 3.01818000 2.13426037 2.98717885
Ni 3.01818000 4.26835000 -3.2013031199999986 0 0 0
Ni 3.01818000 6.40252500 -1.0671890499999996 0 0 0
Ni 3.01818000 4.26843537 1.18837653
Ni 3.01818000 6.40243963 2.98717885
