&CONTROL
calculation = 'relax'
prefix = 'scf'
pseudo_dir = '/vol0004/mdt0/data/hp150275/u10028/POT_KKJUS'
outdir = './data'
tprnfor = .true.
nstep = 50
disk_io = 'non'
/
&SYSTEM
ibrav = 0
ecutwfc = 50.0
ecutrho = 400
occupations = 'smearing'
smearing = 'mp'
degauss = 0.01
assume_isolated = 'esm'
esm_bc = 'bc1'
input_dft = 'BEEF-VDW'
nosym = .true.
nspin = 1
ntyp = 4
nat = 34
/
&ELECTRONS
electron_maxstep = 200
mixing_beta = 0.1
conv_thr = 1e-06
/
&IONS
ion_dynamics = 'bfgs'
upscale = 1.0
/
&CELL
/

K_POINTS {automatic}
8 6 1 0 0 0

ATOMIC_SPECIES
C 12.01 C.pbe-n-rrkjus_psl.1.0.0.UPF
Cu 63.54 Cu.pbe-dn-rrkjus_psl.1.0.0.UPF
O 15.99 O.pbe-n-rrkjus_psl.1.0.0.UPF
Sn 118.7 Sn.pbe-dn-rrkjus_psl.1.0.0.UPF

CELL_PARAMETERS {angstrom}
6.23499000 0.00000000 0.00000000
0.00000000 8.81761000 0.00000000
0.00000000 0.00000000 26.61320000

ATOMIC_POSITIONS {angstrom}
Cu 1.55874750 0.00000000 -1.1023187399999976 0 0 0
Cu 4.67624250 4.40880500 -1.1023187399999976 0 0 0
Cu 4.67624250 0.00000000 -1.1023187399999976 0 0 0
Cu 1.55874750 4.40880500 -1.1023187399999976 0 0 0
Cu 4.67624250 6.61320750 -3.306690100000001 0 0 0
Cu 1.55874750 2.20440250 -3.306690100000001 0 0 0
Cu 1.55874750 6.61320750 -3.306690100000001 0 0 0
Cu 4.67624250 2.20440250 -3.306690100000001 0 0 0
Cu 0.00000000 6.61320750 -1.1023187399999976 0 0 0
Cu 3.11749500 0.00000000 -3.306690100000001 0 0 0
Cu 0.00000000 2.20440250 -1.1023187399999976 0 0 0
Cu 3.11749500 4.40880500 -3.306690100000001 0 0 0
Cu 1.75196984 4.41744626 3.10203459
Cu 4.48302016 8.80896874 3.10203459
Cu 4.48295781 4.41744626 3.10203459
Cu 1.75196984 8.80896874 3.10203459
Cu 4.45196991 2.20440250 1.32773255
Cu 1.80041571 6.61320750 1.37749923
Cu 1.78295774 2.20440250 1.32773255
Cu 4.43457429 6.61320750 1.37749923
Cu 0.00000000 2.20440250 3.09697808
Cu 3.11743265 4.40704148 0.93146200
Cu 0.00000000 6.61320750 3.12758326
Cu 3.11749500 0.00176352 0.93146200
Sn 0.00000000 0.00000000 -3.306690100000001 0 0 0
Sn 3.11749500 2.20440250 -1.1023187399999976 0 0 0
Sn 3.11749500 6.61320750 -1.1023187399999976 0 0 0
Sn 0.00000000 4.40880500 -3.306690100000001 0 0 0
Sn 0.00000000 4.41171481 1.11429468
Sn 3.11749500 6.61320750 3.94008426
Sn 3.11749500 2.20440250 3.85918013
Sn 0.00000000 8.81470019 1.11429468
C 3.11749500 2.20440250 7.87404748
O 3.11761970 2.20440250 9.00856820
