&CONTROL
calculation = 'relax'
prefix = 'scf'
pseudo_dir = '/vol0004/mdt0/data/hp150275/u10028/POT_HYBRID_KKJUS_GBRV'
outdir = './data'
tprnfor = .true.
nstep = 50
disk_io = 'non'
/
&SYSTEM
ibrav = 0
ecutwfc = 50.0
ecutrho = 400
occupations = 'smearing'
smearing = 'mp'
degauss = 0.01
assume_isolated = 'esm'
esm_bc = 'bc1'
input_dft = 'BEEF-VDW'
nosym = .true.
nspin = 2
ntyp = 4
nat = 33
starting_magnetization(1) = 0.0
starting_magnetization(2) = 0.0
starting_magnetization(3) = 0.001
starting_magnetization(4) = 0.0
/
&ELECTRONS
electron_maxstep = 200
mixing_beta = 0.1
conv_thr = 1e-06
/
&IONS
ion_dynamics = 'bfgs'
upscale = 1.0
/
&CELL
/

K_POINTS {automatic}
9 6 2 0  0  0

ATOMIC_SPECIES
C 12.01 C.pbe-n-rrkjus_psl.1.0.0.UPF
Li 6.941 Li.pbe-sl-rrkjus_psl.1.0.0.UPF
Ni 58.69 ni_pbe_v1.4.uspp.F.UPF
Si 28.08 Si.pbe-nl-rrkjus_psl.1.0.0.UPF

CELL_PARAMETERS {angstrom}
5.56332000 0.00000000 0.00000000
0.00000000 7.86772000 0.00000000
0.00000000 0.00000000 25.90080000

ATOMIC_POSITIONS {angstrom}
Li 0.00000000 0.00000000 22.95043987
Li 2.78166000 1.96693000 24.91734662
Li 2.78166000 5.90079000 24.91734662
Li 0.00000000 3.93386000 22.95043987
Li 0.00000000 3.93386000 0.85757549
Li 2.78166000 5.75374231 3.61419763
Li 2.78166000 2.11397769 3.61419763
Li 0.00000000 0.00000000 0.98241734
Si 0.00000000 5.90079000 24.91734662
Si 2.78166000 0.00000000 22.95043987
Si 0.00000000 1.96693000 24.91734662
Si 2.78166000 3.93386000 22.95043987
Si 0.00000000 1.86645922 2.98480819
Si 2.78166000 3.93386000 1.04587430
Si 0.00000000 6.00126078 2.98480819
Si 2.78166000 0.00000000 0.82701254
Ni 1.39083000 0.00000000 24.91734662
Ni 4.17249000 3.93386000 24.91734662
Ni 4.17249000 0.00000000 24.91734662
Ni 1.39083000 3.93386000 24.91734662
Ni 4.17249000 5.90079000 22.95043987
Ni 1.39083000 1.96693000 22.95043987
Ni 1.39083000 5.90079000 22.95043987
Ni 4.17249000 1.96693000 22.95043987
Ni 1.22610009 3.93393868 2.81593498
Ni 3.95641065 7.86756265 2.76801850
Ni 4.33721991 3.93393868 2.81593498
Ni 1.60690935 7.86756265 2.76801850
Ni 4.15040362 1.98242941 1.02411763
Ni 1.41286075 5.88529059 1.02385862
Ni 1.41291638 1.98242941 1.02411763
Ni 4.15045925 5.88529059 1.02385862
C 0.00000000 0.00007868 3.61704672
