&CONTROL
calculation = 'relax'
prefix = 'scf'
pseudo_dir = '/vol0403/data/hp230205/u10028/POT_HYBRID_KKJUS_GBRV'
outdir = './data'
tprnfor = .true.
nstep = 50
disk_io = 'non'
/
&SYSTEM
ibrav = 0
ecutwfc = 50.0
ecutrho = 400
occupations = 'smearing'
smearing = 'mp'
degauss = 0.01
assume_isolated = 'esm'
esm_bc = 'bc1'
input_dft = 'BEEF-VDW'
nosym = .true.
nspin = 1
ntyp = 6
nat = 34
/
&ELECTRONS
electron_maxstep = 200
mixing_beta = 0.1
conv_thr = 1e-06
/
&IONS
ion_dynamics = 'bfgs'
upscale = 1.0
/
&CELL
/

K_POINTS {automatic}
6 6 1 0 0 0

ATOMIC_SPECIES
C 12.01 C.pbe-n-rrkjus_psl.1.0.0.UPF
Ge 72.64 Ge.pbe-dn-rrkjus_psl.1.0.0.UPF
Li 6.941 Li.pbe-sl-rrkjus_psl.1.0.0.UPF
O 15.99 O.pbe-n-rrkjus_psl.1.0.0.UPF
Sn 118.7 Sn.pbe-dn-rrkjus_psl.1.0.0.UPF
Y 88.90 Y.pbe-spn-rrkjus_psl.1.0.0.UPF


CELL_PARAMETERS {angstrom}
8.52742000 0.00000000 0.00000000
0.00000000 9.43388000 0.00000000
0.00000000 0.00000000 26.45610000

ATOMIC_POSITIONS {angstrom}
Li 2.13185500 2.35847000 -3.22817332 0 0 0
Li 2.13185500 2.36262091 1.10242569
Li 2.13185500 7.07541000 -3.22817332 0 0 0
Li 2.13185500 7.07125909 1.10242569
Li 6.39556500 2.35847000 -3.22817332 0 0 0
Li 6.39556500 2.37063971 1.08549378
Li 6.39556500 7.07541000 -3.22817332 0 0 0
Li 6.39556500 7.06324029 1.08549378
Y 2.13185500 0.00000000 -1.0759695899999997 0 0 0
Y 2.13185500 0.00000000 3.21944281
Y 2.13185500 4.71694000 -1.0759695899999997 0 0 0
Y 2.13185500 4.71694000 3.23187718
Y 6.39556500 0.00000000 -1.0759695899999997 0 0 0
Y 6.39556500 0.00000000 3.20409827
Y 6.39556500 4.71694000 -1.0759695899999997 0 0 0
Y 6.39556500 4.71694000 3.23293542
Sn 0.00000000 2.35847000 -1.0759695899999997 0 0 0
Sn 8.52221827 2.37007367 3.31177460
Sn 0.00000000 7.07541000 -1.0759695899999997 0 0 0
Sn 8.52221827 7.06380633 3.31177460
Sn 4.26371000 2.35847000 -1.0759695899999997 0 0 0
Sn 4.26891173 2.37007367 3.31177460
Sn 4.26371000 7.07541000 -1.0759695899999997 0 0 0
Sn 4.26891173 7.06380633 3.31177460
Ge 0.00000000 0.00000000 -3.22817332 0 0 0
Ge 8.52520287 0.00000000 1.14766562
Ge 0.00000000 4.71694000 -3.22817332 0 0 0
Ge 0.00324042 4.71694000 1.16036455
Ge 4.26371000 0.00000000 -3.22817332 0 0 0
Ge 4.26592713 0.00000000 1.14766562
Ge 4.26371000 4.71694000 -3.22817332 0 0 0
Ge 4.26046958 4.71694000 1.16036455
C 2.13185500 0.00000000 5.70578709
O 2.13185500 0.00000000 6.85345270
