&CONTROL
calculation = 'relax'
prefix = 'scf'
pseudo_dir = '/vol0403/data/hp230205/u10028/POT_HYBRID_KKJUS_GBRV'
outdir = './data'
tprnfor = .true.
nstep = 50
disk_io = 'non'
/
&SYSTEM
ibrav = 0
ecutwfc = 50.0
ecutrho = 400
occupations = 'smearing'
smearing = 'mp'
degauss = 0.01
assume_isolated = 'esm'
esm_bc = 'bc1'
input_dft = 'BEEF-VDW'
nosym = .true.
nspin = 1
ntyp = 6
nat = 34
/
&ELECTRONS
electron_maxstep = 200
mixing_beta = 0.1
conv_thr = 1e-06
/
&IONS
ion_dynamics = 'bfgs'
upscale = 1.0
/
&CELL
/

K_POINTS {automatic}
9 6 2 0  0  0

ATOMIC_SPECIES
C 12.01 C.pbe-n-rrkjus_psl.1.0.0.UPF
Cu 63.54 Cu.pbe-dn-rrkjus_psl.1.0.0.UPF
Ge 72.64 Ge.pbe-dn-rrkjus_psl.1.0.0.UPF
Li 6.941 Li.pbe-sl-rrkjus_psl.1.0.0.UPF
O 15.99 O.pbe-n-rrkjus_psl.1.0.0.UPF
Sn 118.7 Sn.pbe-dn-rrkjus_psl.1.0.0.UPF


CELL_PARAMETERS {angstrom}
6.57410000 0.00000000 0.00000000
0.00000000 9.29718000 0.00000000
0.00000000 0.00000000 26.97290000

ATOMIC_POSITIONS {angstrom}
Li 0.00000000 2.32429500 -1.1622622599999985 0 0 0
Li 0.00000000 6.97288500 -1.1622622599999985 0 0 0
Li 3.28705000 4.64859000 -3.48651705 0 0 0
Li 3.28705000 0.00000000 -3.48651705 0 0 0
Li 1.14303877 6.87656622 4.05537552
Li 1.14409062 2.42098567 4.05591497
Li 3.73704715 9.29671514 1.43387936
Li 3.82421971 4.64840406 1.42875451
Cu 0.00000000 0.00000000 -3.48651705 0 0 0
Cu 0.00000000 4.64859000 -3.48651705 0 0 0
Cu 3.28705000 6.97288500 -1.1622622599999985 0 0 0
Cu 3.28705000 2.32429500 -1.1622622599999985 0 0 0
Cu 0.11143100 4.64821811 1.03683828
Cu 0.17559421 9.29680811 0.97884654
Cu 3.71686466 2.38528450 3.31928507
Cu 3.71673318 6.91133767 3.31955480
Sn 4.93057500 0.00000000 -1.1622622599999985 0 0 0
Sn 4.93057500 4.64859000 -1.1622622599999985 0 0 0
Sn 1.64352500 2.32429500 -3.48651705 0 0 0
Sn 1.64352500 6.97288500 -3.48651705 0 0 0
Sn 5.64274725 4.64812514 3.78294923
Sn 5.72794759 0.00083675 3.73277963
Sn 1.91700756 6.89060496 1.20541890
Sn 1.91661311 2.40545938 1.20568863
Ge 1.64352500 0.00000000 -1.1622622599999985 0 0 0
Ge 1.64352500 4.64859000 -1.1622622599999985 0 0 0
Ge 4.93057500 2.32429500 -3.48651705 0 0 0
Ge 4.93057500 6.97288500 -3.48651705 0 0 0
Ge 2.85716960 4.64868297 4.11093969
Ge 2.75901829 9.29671514 4.08990083
Ge 5.56859140 7.01620986 1.56766495
Ge 5.56799974 2.28022637 1.56658603
C 3.43569040 0.00009297 5.93727475
O 3.64494400 0.00055783 7.07876788
