&CONTROL
calculation = 'relax'
prefix = 'scf'
pseudo_dir = '/vol0403/data/hp230205/u10028/POT_HYBRID_KKJUS_GBRV'
outdir = './data'
tprnfor = .true.
nstep = 50
disk_io = 'non'
/
&SYSTEM
ibrav = 0
ecutwfc = 50.0
ecutrho = 400
occupations = 'smearing'
smearing = 'mp'
degauss = 0.01
assume_isolated = 'esm'
esm_bc = 'bc1'
input_dft = 'BEEF-VDW'
nosym = .true.
nspin = 1
ntyp = 5
nat = 17
/
&ELECTRONS
electron_maxstep = 200
mixing_beta = 0.1
conv_thr = 1e-06
/
&IONS
ion_dynamics = 'bfgs'
upscale = 1.0
/
&CELL
/

K_POINTS {automatic}
8 11 2 0  0  0

ATOMIC_SPECIES
Ag 107.8 Ag.pbe-n-rrkjus_psl.1.0.0.UPF
Al 26.98 Al.pbe-nl-rrkjus_psl.1.0.0.UPF
C 12.01 C.pbe-n-rrkjus_psl.1.0.0.UPF
Ge 72.64 Ge.pbe-dn-rrkjus_psl.1.0.0.UPF
Li 6.941 Li.pbe-sl-rrkjus_psl.1.0.0.UPF


CELL_PARAMETERS {angstrom}
7.71364000 0.00000000 0.00000000
0.00000000 5.86609000 0.00000000
0.00000000 0.00000000 24.39060000

ATOMIC_POSITIONS {angstrom}
Li 1.92841000 1.37313435 -0.7317180000000008 0 0 0
Li 1.52352104 4.32389494 2.55540316
Li 5.78523000 1.37313435 -0.7317180000000008 0 0 0
Li 6.18996469 4.32389494 2.55540316
Al 1.92841000 4.30617935 -0.7317180000000008 0 0 0
Al 1.59209530 1.19286940 2.23588630
Al 5.78523000 4.30617935 -0.7317180000000008 0 0 0
Al 6.12123616 1.19281074 2.23564240
Ag 0.00000000 0.00000000 -2.1953979100000005 0 0 0
Ag 0.00000000 2.77178619 0.68927836
Ag 3.85682000 0.00000000 -2.1953979100000005 0 0 0
Ag 3.85682000 2.92260336 0.88733003
Ge 0.00000000 2.93304500 -2.1953979100000005 0 0 0
Ge 0.00000000 5.58269919 0.52098322
Ge 3.85682000 2.93304500 -2.1953979100000005 0 0 0
Ge 3.85666573 5.82238763 1.47197271
C 7.71348573 5.85957864 2.55345191
