&CONTROL
calculation = 'relax'
prefix = 'scf'
pseudo_dir = '/vol0403/data/hp230205/u10028/POT_HYBRID_KKJUS_GBRV'
outdir = './data'
tprnfor = .true.
nstep = 50
disk_io = 'non'
/
&SYSTEM
ibrav = 0
ecutwfc = 50.0
ecutrho = 400
occupations = 'smearing'
smearing = 'mp'
degauss = 0.01
assume_isolated = 'esm'
esm_bc = 'bc1'
input_dft = 'BEEF-VDW'
nosym = .true.
nspin = 2
ntyp = 4
nat = 16
starting_magnetization(1) = 0.0
starting_magnetization(2) = 0.0
starting_magnetization(3) = 0.1
starting_magnetization(4) = 0.0
/
&ELECTRONS
electron_maxstep = 400
mixing_beta = 0.05
conv_thr = 1e-06
/
&IONS
ion_dynamics = 'bfgs'
upscale = 1.0
/
&CELL
/

K_POINTS {automatic}
8 8 1 0 0 0

ATOMIC_SPECIES
Ge 72.64 Ge.pbe-dn-rrkjus_psl.1.0.0.UPF
Li 6.941 Li.pbe-sl-rrkjus_psl.1.0.0.UPF
Mn 54.93 mn_pbe_v1.5.uspp.F.UPF
Pd 106.4 Pd.pbe-n-rrkjus_psl.1.0.0.UPF


CELL_PARAMETERS {angstrom}
6.14713000 0.00000000 0.00000000
0.00000000 6.14713000 0.00000000
0.00000000 0.00000000 24.61040000

ATOMIC_POSITIONS {angstrom}
Li 0.00006147 3.07350353 2.55652835
Li 0.00000000 0.00000000 -0.7683366899999982 0 0 0
Li 3.07356500 3.07356500 -0.7683366899999982 0 0 0
Li 3.07350353 0.00006147 2.55652835
Mn 1.53659809 1.53653661 0.79786917
Mn 1.53678250 4.61034750 -2.30525617 0 0 0
Mn 4.61034750 1.53678250 -2.30525617 0 0 0
Mn 4.61059339 4.61059339 0.79811527
Ge 0.00000000 0.00018441 2.14159701
Ge 0.00000000 3.07356500 -0.7683366899999982 0 0 0
Ge 3.07356500 0.00000000 -0.7683366899999982 0 0 0
Ge 3.07368794 3.07344206 2.14135090
Pd 4.61047044 1.53665956 0.72945226
Pd 4.61034750 4.61034750 -2.30525617 0 0 0
Pd 1.53678250 1.53678250 -2.30525617 0 0 0
Pd 1.53672103 4.61047044 0.72920615
