&CONTROL
calculation = 'relax'
prefix = 'scf'
pseudo_dir = '/vol0403/data/hp230205/u10028/POT_HYBRID_KKJUS_GBRV'
outdir = './data'
tprnfor = .true.
nstep = 50
disk_io = 'non'
/
&SYSTEM
ibrav = 0
ecutwfc = 50.0
ecutrho = 400
occupations = 'smearing'
smearing = 'mp'
degauss = 0.01
assume_isolated = 'esm'
esm_bc = 'bc1'
input_dft = 'BEEF-VDW'
nosym = .true.
nspin = 2
ntyp = 5
nat = 33
starting_magnetization(1) = 0.0
starting_magnetization(2) = 0.0
starting_magnetization(3) = 0.0
starting_magnetization(4) = 0.1
starting_magnetization(5) = 0.0
/
&ELECTRONS
electron_maxstep = 200
mixing_beta = 0.1
conv_thr = 1e-06
/
&IONS
ion_dynamics = 'bfgs'
upscale = 1.0
/
&CELL
/

K_POINTS {automatic}
9 6 2 0  0  0

ATOMIC_SPECIES
Al 26.98 Al.pbe-nl-rrkjus_psl.1.0.0.UPF
C 12.01 C.pbe-n-rrkjus_psl.1.0.0.UPF
Li 6.941 Li.pbe-sl-rrkjus_psl.1.0.0.UPF
Mn 54.93 mn_pbe_v1.5.uspp.F.UPF
Pd 106.4 Pd.pbe-n-rrkjus_psl.1.0.0.UPF


CELL_PARAMETERS {angstrom}
6.10222000 0.00000000 0.00000000
0.00000000 8.62984000 0.00000000
0.00000000 0.00000000 26.47240000

ATOMIC_POSITIONS {angstrom}
Li 0.00000000 2.15746000 -1.0787502999999994 0 0 0
Li 0.00000000 6.47238000 -1.0787502999999994 0 0 0
Li 3.05111000 4.31492000 -3.2362509000000017 0 0 0
Li 3.05111000 0.00000000 -3.2362509000000017 0 0 0
Li 5.47265396 6.47229370 4.54689942
Li 0.09012979 2.15746000 3.72969644
Li 2.98551114 8.59782329 1.09516319
Li 2.98557216 4.34693671 1.09516319
Mn 1.52555500 0.00000000 -1.0787502999999994 0 0 0
Mn 1.52555500 4.31492000 -1.0787502999999994 0 0 0
Mn 4.57666500 2.15746000 -3.2362509000000017 0 0 0
Mn 4.57666500 6.47238000 -3.2362509000000017 0 0 0
Mn 1.20732423 4.70654214 3.27225336
Mn 1.20732423 8.23813156 3.27198864
Mn 4.74002143 6.47229370 1.25611538
Mn 4.53840408 2.15746000 1.22911353
Al 0.00000000 0.00000000 -3.2362509000000017 0 0 0
Al 0.00000000 4.31492000 -3.2362509000000017 0 0 0
Al 3.05111000 6.47238000 -1.0787502999999994 0 0 0
Al 3.05111000 2.15746000 -1.0787502999999994 0 0 0
Al 6.08019099 4.24588128 0.99880365
Al 6.08019099 0.06895242 0.99880365
Al 2.45144484 2.15746000 3.28072453
Al 3.11945486 6.47229370 3.29501963
Pd 4.57666500 0.00000000 -1.0787502999999994 0 0 0
Pd 4.57666500 4.31492000 -1.0787502999999994 0 0 0
Pd 1.52555500 2.15746000 -3.2362509000000017 0 0 0
Pd 1.52555500 6.47238000 -3.2362509000000017 0 0 0
Pd 4.57922793 4.32501691 3.10627142
Pd 4.57922793 8.61965679 3.10627142
Pd 1.48308355 6.47238000 1.09781043
Pd 1.47643213 2.15737370 0.95565364
C 4.34978446 2.15746000 3.10494780
