&CONTROL
calculation = 'relax'
prefix = 'scf'
pseudo_dir = '/vol0004/mdt0/data/hp150275/u10028/POT_KKJUS'
outdir = './data'
tprnfor = .true.
nstep = 50
disk_io = 'non'
/
&SYSTEM
ibrav = 0
ecutwfc = 50.0
ecutrho = 400
occupations = 'smearing'
smearing = 'mp'
degauss = 0.01
assume_isolated = 'esm'
esm_bc = 'bc1'
input_dft = 'BEEF-VDW'
nosym = .true.
nspin = 1
ntyp = 4
nat = 34
/
&ELECTRONS
electron_maxstep = 200
mixing_beta = 0.1
conv_thr = 1e-06
/
&IONS
ion_dynamics = 'bfgs'
upscale = 1.0
/
&CELL
/

K_POINTS {automatic}
9 6 2 0  0  0

ATOMIC_SPECIES
C 12.01 C.pbe-n-rrkjus_psl.1.0.0.UPF
O 15.99 O.pbe-n-rrkjus_psl.1.0.0.UPF
Pd 106.4 Pd.pbe-n-rrkjus_psl.1.0.0.UPF
Ti 47.86 Ti.pbe-spn-rrkjus_psl.1.0.0.UPF

CELL_PARAMETERS {angstrom}
6.37073000 0.00000000 0.00000000
0.00000000 9.00957000 0.00000000
0.00000000 0.00000000 26.75720000

ATOMIC_POSITIONS {angstrom}
Ti 1.59268250 2.25239250 -3.378631640000002 0 0 0
Ti 1.59268250 0.00000000 -1.1262105499999997 0 0 0
Ti 1.59268250 2.14887254 1.07430158
Ti 1.59268250 0.00000000 3.40913485
Ti 1.59268250 6.75717750 -3.378631640000002 0 0 0
Ti 1.59268250 4.50478500 -1.1262105499999997 0 0 0
Ti 1.59268250 6.86069746 1.07430158
Ti 1.59268250 4.50478500 3.45970596
Ti 4.77804750 2.25239250 -3.378631640000002 0 0 0
Ti 4.77804750 0.00000000 -1.1262105499999997 0 0 0
Ti 4.77804750 2.34870480 1.07403401
Ti 4.77804750 0.00000000 3.50439048
Ti 4.77804750 6.75717750 -3.378631640000002 0 0 0
Ti 4.77804750 4.50478500 -1.1262105499999997 0 0 0
Ti 4.77804750 6.66086520 1.07403401
Ti 4.77804750 4.50478500 3.26946227
Pd 0.00000000 0.00000000 -3.378631640000002 0 0 0
Pd 0.00000000 2.25239250 -1.1262105499999997 0 0 0
Pd 6.20075892 0.00000000 1.23430964
Pd 0.00203863 2.25815862 3.20685042
Pd 0.00000000 4.50478500 -3.378631640000002 0 0 0
Pd 0.00000000 6.75717750 -1.1262105499999997 0 0 0
Pd 0.18927439 4.50487510 1.19470898
Pd 0.00210234 6.75141138 3.20685042
Pd 3.18536500 0.00000000 -3.378631640000002 0 0 0
Pd 3.18536500 2.25239250 -1.1262105499999997 0 0 0
Pd 3.35533608 0.00000000 1.23430964
Pd 3.18326266 2.25815862 3.20685042
Pd 3.18536500 4.50478500 -3.378631640000002 0 0 0
Pd 3.18536500 6.75717750 -1.1262105499999997 0 0 0
Pd 2.99609061 4.50487510 1.19470898
Pd 3.18326266 6.75141138 3.20685042
C 1.59268250 0.00000000 5.50663176
O 1.59268250 0.00000000 6.66388066
