&CONTROL
calculation = 'relax'
prefix = 'scf'
pseudo_dir = '/vol0403/data/hp230205/u10028/POT_HYBRID_KKJUS_GBRV'
outdir = './data'
tprnfor = .true.
nstep = 50
disk_io = 'non'
/
&SYSTEM
ibrav = 0
ecutwfc = 50.0
ecutrho = 400
occupations = 'smearing'
smearing = 'mp'
degauss = 0.01
assume_isolated = 'esm'
esm_bc = 'bc1'
input_dft = 'BEEF-VDW'
nosym = .true.
nspin = 1
ntyp = 6
nat = 34
/
&ELECTRONS
electron_maxstep = 200
mixing_beta = 0.1
conv_thr = 1e-06
/
&IONS
ion_dynamics = 'bfgs'
upscale = 1.0
/
&CELL
/

K_POINTS {automatic}
9 6 2 0  0  0

ATOMIC_SPECIES
C 12.01 C.pbe-n-rrkjus_psl.1.0.0.UPF
In 114.8 In.pbe-dn-rrkjus_psl.1.0.0.UPF
Mg 24.30 Mg.pbe-spnl-rrkjus_psl.1.0.0.UPF
O 15.99 O.pbe-n-rrkjus_psl.1.0.0.UPF
Pd 106.4 Pd.pbe-n-rrkjus_psl.1.0.0.UPF
Y 88.90 Y.pbe-spn-rrkjus_psl.1.0.0.UPF


CELL_PARAMETERS {angstrom}
6.99626000 0.00000000 0.00000000
0.00000000 9.89420000 0.00000000
0.00000000 0.00000000 27.42070000

ATOMIC_POSITIONS {angstrom}
Y 5.24719500 0.00000000 -1.2366735700000007 0 0 0
Y 5.24719500 4.94710000 -1.2366735700000007 0 0 0
Y 1.74906500 2.47355000 -3.710294919999999 0 0 0
Y 1.74906500 7.42065000 -3.710294919999999 0 0 0
Y 5.21361295 4.94482433 3.88222271
Y 5.17205517 0.00375980 3.99930910
Y 1.78355656 7.43469976 1.26491689
Y 1.78439611 2.45979706 1.26519110
Mg 1.74906500 0.00000000 -1.2366735700000007 0 0 0
Mg 1.74906500 4.94710000 -1.2366735700000007 0 0 0
Mg 5.24719500 2.47355000 -3.710294919999999 0 0 0
Mg 5.24719500 7.42065000 -3.710294919999999 0 0 0
Mg 1.70456879 4.95056297 3.67601904
Mg 1.76067879 9.89212222 3.68314842
Mg 5.13756361 7.40669918 1.39050370
Mg 5.13770353 2.48799553 1.39132632
In 0.00000000 0.00000000 -3.710294919999999 0 0 0
In 0.00000000 4.94710000 -3.710294919999999 0 0 0
In 3.49813000 7.42065000 -1.2366735700000007 0 0 0
In 3.49813000 2.47355000 -1.2366735700000007 0 0 0
In 6.90502877 4.94719894 1.31701622
In 6.85591502 0.00049471 1.38885846
In 3.26109671 2.50333154 4.20469014
In 3.26998196 7.39225365 4.20057703
Pd 0.00000000 2.47355000 -1.2366735700000007 0 0 0
Pd 0.00000000 7.42065000 -1.2366735700000007 0 0 0
Pd 3.49813000 4.94710000 -3.710294919999999 0 0 0
Pd 3.49813000 0.00000000 -3.710294919999999 0 0 0
Pd 0.05009322 7.36098797 3.42841012
Pd 0.05422102 2.53390462 3.42895854
Pd 3.61258881 9.89400212 1.33867857
Pd 3.61923526 4.94759471 1.35348575
C 0.45433712 9.89044020 5.40736204
O 6.50652180 9.89330952 6.13154273
