&CONTROL
calculation = 'relax'
prefix = 'scf'
pseudo_dir = '/vol0004/mdt0/data/hp150275/u10028/POT_KKJUS'
outdir = './data'
tprnfor = .true.
nstep = 50
disk_io = 'non'
/
&SYSTEM
ibrav = 0
ecutwfc = 50.0
ecutrho = 400
occupations = 'smearing'
smearing = 'mp'
degauss = 0.01
assume_isolated = 'esm'
esm_bc = 'bc1'
input_dft = 'BEEF-VDW'
nosym = .true.
nspin = 1
ntyp = 4
nat = 33
/
&ELECTRONS
electron_maxstep = 200
mixing_beta = 0.1
conv_thr = 1e-06
/
&IONS
ion_dynamics = 'bfgs'
upscale = 1.0
/
&CELL
/

K_POINTS {automatic}
8 6 1 0 0 0

ATOMIC_SPECIES
C 12.01 C.pbe-n-rrkjus_psl.1.0.0.UPF
Ga 69.72 Ga.pbe-dnl-rrkjus_psl.1.0.0.UPF
Li 6.941 Li.pbe-sl-rrkjus_psl.1.0.0.UPF
Pd 106.4 Pd.pbe-n-rrkjus_psl.1.0.0.UPF

CELL_PARAMETERS {angstrom}
6.14873000 0.00000000 0.00000000
0.00000000 8.69561000 0.00000000
0.00000000 0.00000000 26.52170000

ATOMIC_POSITIONS {angstrom}
Li 0.00000000 6.52170750 -1.086859269999998 0 0 0
Li 3.07436500 0.00000000 -3.2608430099999985 0 0 0
Li 0.00000000 2.17390250 -1.086859269999998 0 0 0
Li 3.07436500 4.34780500 -3.2608430099999985 0 0 0
Li 1.53718250 2.17390250 -3.2608430099999985 0 0 0
Li 1.53718250 6.52170750 -3.2608430099999985 0 0 0
Li 4.61154750 4.34780500 -1.086859269999998 0 0 0
Li 4.61154750 0.00000000 -1.086859269999998 0 0 0
Li 0.10219189 2.06129435 3.31574293
Li 3.09939033 4.34780500 1.01737241
Li 0.10219189 6.63431565 3.31574293
Li 3.14796530 0.00000000 1.21177647
Li 1.50674629 6.58518545 1.04681150
Li 1.50674629 2.11042455 1.04681150
Li 4.50898668 0.00000000 3.94642896
Li 4.55836099 4.34780500 3.34093855
Ga 1.53718250 0.00000000 -1.086859269999998 0 0 0
Ga 1.53718250 4.34780500 -1.086859269999998 0 0 0
Ga 4.61154750 6.52170750 -3.2608430099999985 0 0 0
Ga 4.61154750 2.17390250 -3.2608430099999985 0 0 0
Ga 1.65117995 4.34780500 3.14335188
Ga 1.99956700 0.00000000 3.77562921
Ga 4.64149182 2.24138043 1.03116370
Ga 4.64149182 6.45422957 1.03142891
Pd 0.00000000 0.00000000 -3.2608430099999985 0 0 0
Pd 3.07436500 2.17390250 -1.086859269999998 0 0 0
Pd 3.07436500 6.52170750 -1.086859269999998 0 0 0
Pd 0.00000000 4.34780500 -3.2608430099999985 0 0 0
Pd 0.01684752 4.34780500 1.13937223
Pd 3.08623205 6.46222953 3.06590852
Pd 3.08623205 2.23346743 3.06590852
Pd 6.09578943 0.00000000 1.15157221
C 0.19177889 0.00000000 3.19772137
