&CONTROL
calculation = 'relax'
prefix = 'scf'
pseudo_dir = '/vol0004/mdt0/data/hp150275/u10028/POT_KKJUS'
outdir = './data'
tprnfor = .true.
nstep = 50
disk_io = 'non'
/
&SYSTEM
ibrav = 0
ecutwfc = 50.0
ecutrho = 400
occupations = 'smearing'
smearing = 'mp'
degauss = 0.01
assume_isolated = 'esm'
esm_bc = 'bc1'
input_dft = 'BEEF-VDW'
nosym = .true.
nspin = 1
ntyp = 5
nat = 34
/
&ELECTRONS
electron_maxstep = 200
mixing_beta = 0.1
conv_thr = 1e-06
/
&IONS
ion_dynamics = 'bfgs'
upscale = 1.0
/
&CELL
/

K_POINTS {automatic}
8 6 1 0 0 0

ATOMIC_SPECIES
C 12.01 C.pbe-n-rrkjus_psl.1.0.0.UPF
O 15.99 O.pbe-n-rrkjus_psl.1.0.0.UPF
Pb 207.2 Pb.pbe-dn-rrkjus_psl.1.0.0.UPF
Pd 106.4 Pd.pbe-n-rrkjus_psl.1.0.0.UPF
Y 88.90 Y.pbe-spn-rrkjus_psl.1.0.0.UPF

CELL_PARAMETERS {angstrom}
6.95998000 0.00000000 0.00000000
0.00000000 9.84289000 0.00000000
0.00000000 0.00000000 27.38220000

ATOMIC_POSITIONS {angstrom}
Y 0.00000000 0.00000000 -3.6911205600000017 0 0 0
Y 3.47999000 2.46072250 -1.230282250000002 0 0 0
Y 3.47999000 7.38216750 -1.230282250000002 0 0 0
Y 0.00000000 4.92144500 -3.6911205600000017 0 0 0
Y 0.00000000 4.94388679 1.27601052
Y 3.47999000 7.38216750 3.65579752
Y 3.47999000 2.46072250 3.60568810
Y 0.00000000 9.82044821 1.27601052
Pd 1.73999500 0.00000000 -1.230282250000002 0 0 0
Pd 5.21998500 4.92144500 -1.230282250000002 0 0 0
Pd 5.21998500 0.00000000 -1.230282250000002 0 0 0
Pd 1.73999500 4.92144500 -1.230282250000002 0 0 0
Pd 5.21998500 7.38216750 -3.6911205600000017 0 0 0
Pd 1.73999500 2.46072250 -3.6911205600000017 0 0 0
Pd 1.73999500 7.38216750 -3.6911205600000017 0 0 0
Pd 5.21998500 2.46072250 -3.6911205600000017 0 0 0
Pd 1.73526221 4.94122921 3.55913836
Pd 5.22471779 9.82310579 3.55913836
Pd 5.22471779 4.94122921 3.55913836
Pd 1.73526221 9.82310579 3.55913836
Pd 5.32598550 2.46072250 1.30613094
Pd 1.72962463 7.38216750 1.34145398
Pd 1.63399450 2.46072250 1.30613094
Pd 5.23035537 7.38216750 1.34145398
Pb 0.00000000 7.38216750 -1.230282250000002 0 0 0
Pb 3.47999000 0.00000000 -3.6911205600000017 0 0 0
Pb 0.00000000 2.46072250 -1.230282250000002 0 0 0
Pb 3.47999000 4.92144500 -3.6911205600000017 0 0 0
Pb 0.00000000 2.46072250 3.94248916
Pb 3.47999000 4.90668067 1.21138853
Pb 0.00000000 7.38216750 3.93071481
Pb 3.47999000 0.01476434 1.21138853
C 3.47999000 2.46072250 6.16537615
O 3.47999000 2.46072250 7.30803536
