&CONTROL
calculation = 'relax'
prefix = 'scf'
pseudo_dir = '/vol0403/data/hp230205/u10028/POT_HYBRID_KKJUS_GBRV'
outdir = './data'
tprnfor = .true.
nstep = 70
disk_io = 'non'
/
&SYSTEM
ibrav = 0
ecutwfc = 50.0
ecutrho = 400
occupations = 'smearing'
smearing = 'mp'
degauss = 0.01
assume_isolated = 'esm'
esm_bc = 'bc1'
input_dft = 'BEEF-VDW'
nosym = .true.
nspin = 1
ntyp = 5
nat = 33
/
&ELECTRONS
electron_maxstep = 200
mixing_beta = 0.1
conv_thr = 1e-06
/
&IONS
ion_dynamics = 'bfgs'
upscale = 1.0
/
&CELL
/

K_POINTS {automatic}
6 6 1 0 0 0

ATOMIC_SPECIES
C 12.01 C.pbe-n-rrkjus_psl.1.0.0.UPF
In 114.8 In.pbe-dn-rrkjus_psl.1.0.0.UPF
Li 6.941 Li.pbe-sl-rrkjus_psl.1.0.0.UPF
Pd 106.4 Pd.pbe-n-rrkjus_psl.1.0.0.UPF
Pt 195.0 Pt.pbe-n-rrkjus_psl.1.0.0.UPF


CELL_PARAMETERS {angstrom}
6.39502000 0.00000000 0.00000000
-0.00000000 9.04392000 0.00000000
0.00000000 0.00000000 26.78290000

ATOMIC_POSITIONS {angstrom}
Li 0.00000000 2.26098000 -1.13050621 0 0 0
Li 0.00000000 6.78294000 -1.13050621 0 0 0
Li 3.19751000 4.52196000 -3.39151863 0 0 0
Li 3.19751000 0.00000000 -3.39151863 0 0 0
Li 0.00850538 6.77868936 3.60390702
Li 0.00850538 2.26523064 3.60390702
Li 3.20940474 -0.00000000 1.02310678
Li 3.18734192 4.52196000 1.11443647
In 0.00000000 0.00000000 -3.39151863 0 0 0
In 0.00000000 4.52196000 -3.39151863 0 0 0
In 3.19751000 6.78294000 -1.13050621 0 0 0
In 3.19751000 2.26098000 -1.13050621 0 0 0
In 6.38421242 4.52196000 1.08202916
In 6.36278910 -0.00000000 1.10238416
In 3.18631872 2.36064400 3.63176124
In 3.18631872 6.68327600 3.63149341
Pd 4.79626500 0.00000000 -1.13050621 0 0 0
Pd 4.79626500 4.52196000 -1.13050621 0 0 0
Pd 1.59875500 2.26098000 -3.39151863 0 0 0
Pd 1.59875500 6.78294000 -3.39151863 0 0 0
Pd 4.79447439 4.52196000 3.25626498
Pd 4.62264021 -0.00000000 3.39901784
Pd 1.61768426 6.81956788 1.18192938
Pd 1.61768426 2.22435212 1.18192938
Pt 1.59875500 0.00000000 -1.13050621 0 0 0
Pt 1.59875500 4.52196000 -1.13050621 0 0 0
Pt 4.79626500 2.26098000 -3.39151863 0 0 0
Pt 4.79626500 6.78294000 -3.39151863 0 0 0
Pt 1.60687668 4.52196000 3.23323169
Pt 1.76675218 -0.00000000 3.30661683
Pt 4.74683150 6.80265575 1.20898011
Pt 4.74683150 2.24126425 1.20898011
C 0.04540464 0.00000000 3.99681217
