&CONTROL
calculation = 'relax'
prefix = 'scf'
pseudo_dir = '/vol0004/mdt0/data/hp150275/u10028/POT_HYBRID_KKJUS_GBRV'
outdir = './data'
tprnfor = .true.
nstep = 50
disk_io = 'non'
/
&SYSTEM
ibrav = 0
ecutwfc = 50.0
ecutrho = 400
occupations = 'smearing'
smearing = 'mp'
degauss = 0.01
assume_isolated = 'esm'
esm_bc = 'bc1'
input_dft = 'BEEF-VDW'
nosym = .true.
nspin = 2
ntyp = 5
nat = 34
starting_magnetization(1) = 0.0
starting_magnetization(2) = 0.0
starting_magnetization(3) = 0.001
starting_magnetization(4) = 0.0
starting_magnetization(5) = 0.0
/
&ELECTRONS
electron_maxstep = 300
mixing_beta = 0.1
conv_thr = 1e-06
/
&IONS
ion_dynamics = 'bfgs'
upscale = 1.0
/
&CELL
/

K_POINTS {automatic}
9 6 2 0  0  0

ATOMIC_SPECIES
C 12.01 C.pbe-n-rrkjus_psl.1.0.0.UPF
Ga 69.72 Ga.pbe-dnl-rrkjus_psl.1.0.0.UPF
Ni 58.69 ni_pbe_v1.4.uspp.F.UPF
O 15.99 O.pbe-n-rrkjus_psl.1.0.0.UPF
Sc 44.95 Sc.pbe-spn-rrkjus_psl.1.0.0.UPF

CELL_PARAMETERS {angstrom}
6.06833000 0.00000000 0.00000000
0.00000000 8.58191000 0.00000000
0.00000000 0.00000000 26.43640000

ATOMIC_POSITIONS {angstrom}
Sc 0.00000000 0.00000000 -3.2181029700000003 0 0 0
Sc 3.03416500 2.14547750 -1.0727891099999987 0 0 0
Sc 3.03416500 6.43643250 -1.0727891099999987 0 0 0
Sc 0.00000000 4.29095500 -3.2181029700000003 0 0 0
Sc 0.00000000 4.30502933 1.02097377
Sc 3.03416500 6.43643250 3.33785986
Sc 3.03416500 2.14547750 3.31961875
Sc 0.00000000 8.56783567 1.02097377
Ga 0.00000000 6.43643250 -1.0727891099999987 0 0 0
Ga 3.03416500 0.00000000 -3.2181029700000003 0 0 0
Ga 0.00000000 2.14547750 -1.0727891099999987 0 0 0
Ga 3.03416500 4.29095500 -3.2181029700000003 0 0 0
Ga 0.00000000 2.14556332 3.19536767
Ga 3.03416500 4.28108580 1.15368450
Ga 0.00000000 6.43634668 3.21968916
Ga 3.03416500 0.00986920 1.15368450
Ni 1.51708250 0.00000000 -1.0727891099999987 0 0 0
Ni 4.55124750 4.29095500 -1.0727891099999987 0 0 0
Ni 4.55124750 0.00000000 -1.0727891099999987 0 0 0
Ni 1.51708250 4.29095500 -1.0727891099999987 0 0 0
Ni 4.55124750 6.43643250 -3.2181029700000003 0 0 0
Ni 1.51708250 2.14547750 -3.2181029700000003 0 0 0
Ni 1.51708250 6.43643250 -3.2181029700000003 0 0 0
Ni 4.55124750 2.14547750 -3.2181029700000003 0 0 0
Ni 1.36446400 4.29773471 3.08962207
Ni 4.70392668 8.57513029 3.08962207
Ni 4.70386600 4.29773471 3.08962207
Ni 1.36440332 8.57513029 3.08962207
Ni 4.50852646 2.14547750 1.09737496
Ni 1.60489124 6.43634668 1.14681103
Ni 1.55980354 2.14547750 1.09737496
Ni 4.46343876 6.43634668 1.14681103
C 3.03416500 2.14547750 5.70074530
O 3.03416500 2.14547750 6.84332650
