&CONTROL
calculation = 'relax'
prefix = 'scf'
pseudo_dir = '/vol0004/mdt0/data/hp150275/u10028/POT_KKJUS'
outdir = './data'
tprnfor = .true.
nstep = 50
disk_io = 'non'
/
&SYSTEM
ibrav = 0
ecutwfc = 50.0
ecutrho = 400
occupations = 'smearing'
smearing = 'mp'
degauss = 0.01
assume_isolated = 'esm'
esm_bc = 'bc1'
input_dft = 'BEEF-VDW'
nosym = .true.
nspin = 1
ntyp = 3
nat = 33
/
&ELECTRONS
electron_maxstep = 200
mixing_beta = 0.1
conv_thr = 1e-06
/
&IONS
ion_dynamics = 'bfgs'
upscale = 1.0
/
&CELL
/

K_POINTS {automatic}
9 6 2 0  0  0

ATOMIC_SPECIES
Au 196.9 Au.pbe-n-rrkjus_psl.1.0.0.UPF
C 12.01 C.pbe-n-rrkjus_psl.1.0.0.UPF
Y 88.90 Y.pbe-spn-rrkjus_psl.1.0.0.UPF

CELL_PARAMETERS {angstrom}
7.24612000 0.00000000 0.00000000
0.00000000 10.24760000 0.00000000
0.00000000 0.00000000 27.68570000

ATOMIC_POSITIONS {angstrom}
Y 1.81153000 2.56190000 -3.842775160000002 0 0 0
Y 1.81153000 0.00000000 -1.2810173400000018 0 0 0
Y 1.81153000 2.56230990 1.31783932
Y 1.81153000 0.20044306 3.82062660
Y 1.81153000 7.68570000 -3.842775160000002 0 0 0
Y 1.81153000 5.12380000 -1.2810173400000018 0 0 0
Y 1.81153000 7.68580248 1.28544705
Y 1.81153000 4.92458666 3.82062660
Y 5.43459000 2.56190000 -3.842775160000002 0 0 0
Y 5.43459000 0.00000000 -1.2810173400000018 0 0 0
Y 5.43459000 2.56190000 1.28932305
Y 5.43459000 10.10105932 3.85855601
Y 5.43459000 7.68570000 -3.842775160000002 0 0 0
Y 5.43459000 5.12380000 -1.2810173400000018 0 0 0
Y 5.43459000 7.68580248 1.28655448
Y 5.43459000 5.27095554 3.85855601
Au 0.00000000 0.00000000 -3.842775160000002 0 0 0
Au 0.00000000 2.56190000 -1.2810173400000018 0 0 0
Au 7.20075929 10.22864194 1.29873619
Au 6.86381471 2.56230990 3.91448112
Au 0.00000000 5.12380000 -3.842775160000002 0 0 0
Au 0.00000000 7.68570000 -1.2810173400000018 0 0 0
Au 7.20068683 5.14286054 1.29845933
Au 0.07782333 7.68600743 3.69493352
Au 3.62306000 0.00000000 -3.842775160000002 0 0 0
Au 3.62306000 2.56190000 -1.2810173400000018 0 0 0
Au 3.66842071 10.22864194 1.29873619
Au 4.00536529 2.56230990 3.91448112
Au 3.62306000 5.12380000 -3.842775160000002 0 0 0
Au 3.62306000 7.68570000 -1.2810173400000018 0 0 0
Au 3.66849317 5.14286054 1.29845933
Au 3.54523667 7.68600743 3.69493352
C 1.81153000 2.56323219 3.64731412
