&CONTROL
calculation = 'relax'
prefix = 'scf'
pseudo_dir = '/vol0004/mdt0/data/hp150275/u10028/POT_KKJUS'
outdir = './data'
tprnfor = .true.
nstep = 50
disk_io = 'non'
/
&SYSTEM
ibrav = 0
ecutwfc = 50.0
ecutrho = 400
occupations = 'smearing'
smearing = 'mp'
degauss = 0.01
assume_isolated = 'esm'
esm_bc = 'bc1'
input_dft = 'BEEF-VDW'
nosym = .true.
nspin = 1
ntyp = 4
nat = 33
/
&ELECTRONS
electron_maxstep = 200
mixing_beta = 0.1
conv_thr = 1e-06
/
&IONS
ion_dynamics = 'bfgs'
upscale = 1.0
/
&CELL
/

K_POINTS {automatic}
8 6 1 0 0 0

ATOMIC_SPECIES
C 12.01 C.pbe-n-rrkjus_psl.1.0.0.UPF
Ge 72.64 Ge.pbe-dn-rrkjus_psl.1.0.0.UPF
Li 6.941 Li.pbe-sl-rrkjus_psl.1.0.0.UPF
Sn 118.7 Sn.pbe-dn-rrkjus_psl.1.0.0.UPF

CELL_PARAMETERS {angstrom}
6.92564000 0.00000000 0.00000000
0.00000000 9.79433000 0.00000000
0.00000000 0.00000000 27.34580000

ATOMIC_POSITIONS {angstrom}
Li 0.00000000 7.34574750 -1.2242714700000015 0 0 0
Li 3.46282000 0.00000000 -3.6728144 0 0 0
Li 0.00000000 2.44858250 -1.2242714700000015 0 0 0
Li 3.46282000 4.89716500 -3.6728144 0 0 0
Li 1.73141000 0.00000000 -1.2242714700000015 0 0 0
Li 1.73141000 4.89716500 -1.2242714700000015 0 0 0
Li 5.19423000 7.34574750 -3.6728144 0 0 0
Li 5.19423000 2.44858250 -3.6728144 0 0 0
Li 0.75337112 2.70617338 3.61511476
Li 3.56968263 4.22321715 1.14168715
Li 0.03968392 6.92077152 3.44830538
Li 3.87531112 9.40990255 1.13977294
Li 3.36412963 5.48394331 3.74364002
Li 2.17326583 0.12115586 3.14668121
Li 5.57001523 1.75034471 1.50101096
Li 5.11195340 6.49442434 1.27568157
Sn 0.00000000 0.00000000 -3.6728144 0 0 0
Sn 3.46282000 2.44858250 -1.2242714700000015 0 0 0
Sn 3.46282000 7.34574750 -1.2242714700000015 0 0 0
Sn 0.00000000 4.89716500 -3.6728144 0 0 0
Sn 0.34745936 4.48785995 1.07004115
Sn 4.24133119 8.19540563 3.88365052
Sn 3.69628332 2.45827889 3.66761870
Sn 0.39067535 8.73242874 1.12473275
Ge 1.73141000 2.44858250 -3.6728144 0 0 0
Ge 1.73141000 7.34574750 -3.6728144 0 0 0
Ge 5.19423000 4.89716500 -1.2242714700000015 0 0 0
Ge 5.19423000 0.00000000 -1.2242714700000015 0 0 0
Ge 2.51636204 6.95377841 1.67875866
Ge 1.62288522 1.81763176 1.00085628
Ge 6.43336551 0.10901089 3.57710410
Ge 5.66801303 4.40313899 3.27411263
C 4.52839897 0.51488793 2.99627931
