&CONTROL
calculation = 'relax'
prefix = 'scf'
pseudo_dir = '/vol0004/mdt0/data/hp150275/u10028/POT_KKJUS'
outdir = './data'
tprnfor = .true.
nstep = 50
disk_io = 'non'
/
&SYSTEM
ibrav = 0
ecutwfc = 50.0
ecutrho = 400
occupations = 'smearing'
smearing = 'mp'
degauss = 0.01
assume_isolated = 'esm'
esm_bc = 'bc1'
input_dft = 'BEEF-VDW'
nosym = .true.
nspin = 1
ntyp = 3
nat = 33
/
&ELECTRONS
electron_maxstep = 200
mixing_beta = 0.1
conv_thr = 1e-06
/
&IONS
ion_dynamics = 'bfgs'
upscale = 1.0
/
&CELL
/

K_POINTS {automatic}
8 6 2 0  0  0

ATOMIC_SPECIES
C 12.01 C.pbe-n-rrkjus_psl.1.0.0.UPF
Ca 40.07 Ca.pbe-spn-rrkjus_psl.1.0.0.UPF
In 114.8 In.pbe-dn-rrkjus_psl.1.0.0.UPF

CELL_PARAMETERS {angstrom}
7.80577000 0.00000000 0.00000000
0.00000000 11.03900000 0.00000000
0.00000000 0.00000000 28.27930000

ATOMIC_POSITIONS {angstrom}
Ca 0.00000000 0.00000000 -4.139523929999999 0 0 0
Ca 0.00000000 2.75975000 -1.3797470499999989 0 0 0
Ca 7.79437358 0.00066234 1.35599243
Ca 7.54903822 2.75930844 4.55296730
Ca 0.00000000 5.51950000 -4.139523929999999 0 0 0
Ca 0.00000000 8.27925000 -1.3797470499999989 0 0 0
Ca 7.79476386 5.52093507 1.35401288
Ca 0.05479651 8.28046429 4.16893441
Ca 3.90288500 0.00000000 -4.139523929999999 0 0 0
Ca 3.90288500 2.75975000 -1.3797470499999989 0 0 0
Ca 3.91428142 0.00055195 1.35570964
Ca 4.15953872 2.75941883 4.55296730
Ca 3.90288500 5.51950000 -4.139523929999999 0 0 0
Ca 3.90288500 8.27925000 -1.3797470499999989 0 0 0
Ca 3.91389114 5.52093507 1.35401288
Ca 3.84816655 8.28046429 4.16893441
In 1.95144250 2.75975000 -4.139523929999999 0 0 0
In 1.95144250 0.00000000 -1.3797470499999989 0 0 0
In 1.95159862 2.76405521 1.62125227
In 1.95144250 0.30125431 4.14235186
In 1.95144250 8.27925000 -4.139523929999999 0 0 0
In 1.95144250 5.51950000 -1.3797470499999989 0 0 0
In 1.95144250 8.28178897 1.37691912
In 1.95136444 5.20356382 4.13047456
In 5.85432750 2.75975000 -4.139523929999999 0 0 0
In 5.85432750 0.00000000 -1.3797470499999989 0 0 0
In 5.85432750 2.75941883 1.56384529
In 5.85432750 10.95609711 4.14206907
In 5.85432750 8.27925000 -4.139523929999999 0 0 0
In 5.85432750 5.51950000 -1.3797470499999989 0 0 0
In 5.85432750 8.27958117 1.52877896
In 5.85432750 5.60681849 4.14235186
C 1.95144250 2.73634732 3.93082270
