&CONTROL
calculation = 'relax'
prefix = 'scf'
pseudo_dir = '/vol0004/mdt0/data/hp150275/u10028/POT_KKJUS'
outdir = './data'
tprnfor = .true.
nstep = 50
disk_io = 'non'
/
&SYSTEM
ibrav = 0
ecutwfc = 50.0
ecutrho = 400
occupations = 'smearing'
smearing = 'mp'
degauss = 0.01
assume_isolated = 'esm'
esm_bc = 'bc1'
input_dft = 'BEEF-VDW'
nosym = .true.
nspin = 1
ntyp = 4
nat = 33
/
&ELECTRONS
electron_maxstep = 200
mixing_beta = 0.1
conv_thr = 1e-06
/
&IONS
ion_dynamics = 'bfgs'
upscale = 1.0
/
&CELL
/

K_POINTS {automatic}
9 6 2 0  0  0

ATOMIC_SPECIES
C 12.01 C.pbe-n-rrkjus_psl.1.0.0.UPF
In 114.8 In.pbe-dn-rrkjus_psl.1.0.0.UPF
Li 6.941 Li.pbe-sl-rrkjus_psl.1.0.0.UPF
Mg 24.30 Mg.pbe-spnl-rrkjus_psl.1.0.0.UPF

CELL_PARAMETERS {angstrom}
6.75535000 0.00000000 0.00000000
0.00000000 9.55351000 0.00000000
0.00000000 0.00000000 27.16510000

ATOMIC_POSITIONS {angstrom}
Li 1.68883750 0.00000000 -1.1941777999999985 0 0 0
Li 5.06651250 4.77675500 -1.1941777999999985 0 0 0
Li 5.06651250 0.00000000 -1.1941777999999985 0 0 0
Li 1.68883750 4.77675500 -1.1941777999999985 0 0 0
Li 5.06651250 7.16513250 -3.5825333899999983 0 0 0
Li 1.68883750 2.38837750 -3.5825333899999983 0 0 0
Li 1.68883750 7.16513250 -3.5825333899999983 0 0 0
Li 5.06651250 2.38837750 -3.5825333899999983 0 0 0
Li 1.76719956 4.77675500 3.71211091
Li 5.32145941 0.00000000 4.00821050
Li 4.98815044 4.77675500 3.71211091
Li 1.43382304 0.00000000 4.00821050
Li 5.08725142 2.42840671 1.20341393
Li 1.66796347 7.12510329 1.20341393
Li 1.66809858 2.42840671 1.20341393
Li 5.08738653 7.12510329 1.20341393
Mg 0.00000000 0.00000000 -3.5825333899999983 0 0 0
Mg 3.37767500 2.38837750 -1.1941777999999985 0 0 0
Mg 3.37767500 7.16513250 -1.1941777999999985 0 0 0
Mg 0.00000000 4.77675500 -3.5825333899999983 0 0 0
Mg 0.00000000 4.77665946 1.29523197
Mg 3.37767500 7.42116657 3.72596512
Mg 3.37767500 2.13205683 3.72650842
Mg 0.00000000 0.00000000 1.28436593
In 0.00000000 7.16513250 -1.1941777999999985 0 0 0
In 3.37767500 0.00000000 -3.5825333899999983 0 0 0
In 0.00000000 2.38837750 -1.1941777999999985 0 0 0
In 3.37767500 4.77675500 -3.5825333899999983 0 0 0
In 0.00000000 2.47712961 3.61105674
In 3.37767500 4.77675500 1.22922077
In 0.00000000 7.07638039 3.61105674
In 3.37767500 0.00000000 1.15180024
C 3.37767500 9.55341446 3.39726741
