&CONTROL
calculation = 'relax'
prefix = 'scf'
pseudo_dir = '/vol0004/mdt0/data/hp150275/u10028/POT_KKJUS'
outdir = './data'
tprnfor = .true.
nstep = 50
disk_io = 'non'
/
&SYSTEM
ibrav = 0
ecutwfc = 50.0
ecutrho = 400
occupations = 'smearing'
smearing = 'mp'
degauss = 0.01
assume_isolated = 'esm'
esm_bc = 'bc1'
input_dft = 'BEEF-VDW'
nosym = .true.
nspin = 1
ntyp = 5
nat = 18
/
&ELECTRONS
electron_maxstep = 200
mixing_beta = 0.1
conv_thr = 1e-06
/
&IONS
ion_dynamics = 'bfgs'
upscale = 1.0
/
&CELL
/

K_POINTS {automatic}
9 9 2 0  0  0

ATOMIC_SPECIES
C 12.01 C.pbe-n-rrkjus_psl.1.0.0.UPF
Cu 63.54 Cu.pbe-dn-rrkjus_psl.1.0.0.UPF
Li 6.941 Li.pbe-sl-rrkjus_psl.1.0.0.UPF
O 15.99 O.pbe-n-rrkjus_psl.1.0.0.UPF
Sb 121.7 Sb.pbe-n-rrkjus_psl.1.0.0.UPF

CELL_PARAMETERS {angstrom}
6.37457000 0.00000000 0.00000000
0.00000000 6.37457000 0.00000000
0.00000000 0.00000000 24.78090000

ATOMIC_POSITIONS {angstrom}
Li 0.00000000 0.00000000 -0.7967059299999981 0 0 0
Li 3.18728500 0.00000000 2.68748860
Li 6.37437876 3.18734875 2.70409181
Li 3.18728500 3.18728500 -0.7967059299999981 0 0 0
Li 1.59313253 1.59415247 0.69411301
Li 1.59364250 4.78092750 -2.39036561 0 0 0
Li 4.78143747 4.78041753 0.69411301
Li 4.78092750 1.59364250 -2.39036561 0 0 0
Cu 0.00000000 6.37450625 2.18815347
Cu 3.18747624 3.18722125 2.18815347
Cu 3.18728500 0.00000000 -0.7967059299999981 0 0 0
Cu 0.00000000 3.18728500 -0.7967059299999981 0 0 0
Sb 1.59364250 1.59364250 -2.39036561 0 0 0
Sb 1.59842343 4.78570843 1.05591415
Sb 4.78092750 4.78092750 -2.39036561 0 0 0
Sb 4.77608283 1.58879783 1.05591415
C 6.37450625 3.18760373 4.79683881
O 0.00000000 3.18753998 5.93899049
