&CONTROL
calculation = 'relax'
prefix = 'scf'
pseudo_dir = '/vol0403/data/hp230205/u10028/POT_HYBRID_KKJUS_GBRV'
outdir = './data'
tprnfor = .true.
nstep = 50
disk_io = 'non'
/
&SYSTEM
ibrav = 0
ecutwfc = 50.0
ecutrho = 400
occupations = 'smearing'
smearing = 'mp'
degauss = 0.01
assume_isolated = 'esm'
esm_bc = 'bc1'
input_dft = 'BEEF-VDW'
nosym = .true.
nspin = 1
ntyp = 5
nat = 17
/
&ELECTRONS
electron_maxstep = 200
mixing_beta = 0.1
conv_thr = 1e-06
/
&IONS
ion_dynamics = 'bfgs'
upscale = 1.0
/
&CELL
/

K_POINTS {automatic}
6 6 1 0 0 0

ATOMIC_SPECIES
C 12.01 C.pbe-n-rrkjus_psl.1.0.0.UPF
Ge 72.64 Ge.pbe-dn-rrkjus_psl.1.0.0.UPF
In 114.8 In.pbe-dn-rrkjus_psl.1.0.0.UPF
Li 6.941 Li.pbe-sl-rrkjus_psl.1.0.0.UPF
Y 88.90 Y.pbe-spn-rrkjus_psl.1.0.0.UPF


CELL_PARAMETERS {angstrom}
6.03525000 0.00000000 0.00000000
0.00000000 9.31878000 0.00000000
0.00000000 0.00000000 24.52620000

ATOMIC_POSITIONS {angstrom}
Li 4.18333354 2.33006775 0.72450395
Li 1.46493623 2.32969500 -2.263032469999999 0 0 0
Li 4.28641561 6.98983050 0.69482725
Li 1.46493623 6.98908500 -2.263032469999999 0 0 0
Y 2.90705922 0.12999698 2.47346727
Y 6.00597904 0.00000000 -0.7544259099999984 0 0 0
Y 2.90826627 4.52948621 2.47395779
Y 6.00597904 4.65939000 -0.7544259099999984 0 0 0
In 0.96002722 2.32978819 1.24249729
In 4.48256123 2.32969500 -2.263032469999999 0 0 0
In 1.30138096 6.98908500 0.94548501
In 4.48256123 6.98908500 -2.263032469999999 0 0 0
Ge 5.90404366 9.06959582 2.26057985
Ge 2.98835404 0.00000000 -0.7544259099999984 0 0 0
Ge 5.90549212 4.90838780 2.26033459
Ge 2.98835404 4.65939000 -0.7544259099999984 0 0 0
C 2.88370280 2.32988138 2.33121531
