&CONTROL
calculation = 'relax'
prefix = 'scf'
pseudo_dir = '/vol0403/data/hp230205/u10028/POT_HYBRID_KKJUS_GBRV'
outdir = './data'
tprnfor = .true.
nstep = 70
disk_io = 'non'
/
&SYSTEM
ibrav = 0
ecutwfc = 50.0
ecutrho = 400
occupations = 'smearing'
smearing = 'mp'
degauss = 0.01
assume_isolated = 'esm'
esm_bc = 'bc1'
input_dft = 'BEEF-VDW'
nosym = .true.
nspin = 1
ntyp = 4
nat = 32
/
&ELECTRONS
electron_maxstep = 200
mixing_beta = 0.1
conv_thr = 1e-06
/
&IONS
ion_dynamics = 'bfgs'
upscale = 1.0
/
&CELL
/

K_POINTS {automatic}
6 6 1 0 0 0

ATOMIC_SPECIES
Ag 107.8 Ag.pbe-n-rrkjus_psl.1.0.0.UPF
Li 6.941 Li.pbe-sl-rrkjus_psl.1.0.0.UPF
Mg 24.30 Mg.pbe-spnl-rrkjus_psl.1.0.0.UPF
Pb 207.2 Pb.pbe-dn-rrkjus_psl.1.0.0.UPF


CELL_PARAMETERS {angstrom}
6.87998000 0.00000000 0.00000000
-0.00000000 9.72976000 0.00000000
0.00000000 0.00000000 27.29730000

ATOMIC_POSITIONS {angstrom}
Li 5.15998500 0.00000000 -1.216094720000001 0 0 0
Li 5.15998500 4.86488000 -1.216094720000001 0 0 0
Li 1.71999500 2.43244000 -3.6485571199999995 0 0 0
Li 1.71999500 7.29732000 -3.6485571199999995 0 0 0
Li 5.18303293 4.86488000 3.72662740
Li 5.18303293 -0.00000000 3.72662740
Li 1.62229928 7.29732000 1.29962445
Li 1.62229928 2.43244000 1.29962445
Mg 1.71999500 0.00000000 -1.216094720000001 0 0 0
Mg 1.71999500 4.86488000 -1.216094720000001 0 0 0
Mg 5.15998500 2.43244000 -3.6485571199999995 0 0 0
Mg 5.15998500 7.29732000 -3.6485571199999995 0 0 0
Mg 1.70128145 4.86488000 3.81807335
Mg 1.70141905 -0.00000000 3.81807335
Mg 5.28733343 7.29722270 1.36459203
Mg 5.28740223 2.43244000 1.36459203
Ag 0.00000000 0.00000000 -3.6485571199999995 0 0 0
Ag 0.00000000 4.86488000 -3.6485571199999995 0 0 0
Ag 3.43999000 7.29732000 -1.216094720000001 0 0 0
Ag 3.43999000 2.43244000 -1.216094720000001 0 0 0
Ag 0.04637107 4.86488000 1.38397311
Ag 0.04637107 0.00000000 1.38397311
Ag 3.34717907 2.43244000 3.55656522
Ag 3.34724787 7.29722270 3.55656522
Pb 0.00000000 2.43244000 -1.216094720000001 0 0 0
Pb 0.00000000 7.29732000 -1.216094720000001 0 0 0
Pb 3.43999000 4.86488000 -3.6485571199999995 0 0 0
Pb 3.43999000 0.00000000 -3.6485571199999995 0 0 0
Pb 6.82301377 7.29741730 4.07848959
Pb 6.82308257 2.43234270 4.07848959
Pb 3.44246679 -0.00000000 1.31818662
Pb 3.44239799 4.86488000 1.31845959
