&CONTROL
calculation = 'relax'
prefix = 'scf'
pseudo_dir = '/vol0004/mdt0/data/hp150275/u10028/POT_KKJUS'
outdir = './data'
tprnfor = .true.
nstep = 50
disk_io = 'non'
/
&SYSTEM
ibrav = 0
ecutwfc = 50.0
ecutrho = 400
occupations = 'smearing'
smearing = 'mp'
degauss = 0.01
assume_isolated = 'esm'
esm_bc = 'bc1'
input_dft = 'BEEF-VDW'
nosym = .true.
nspin = 1
ntyp = 3
nat = 32
/
&ELECTRONS
electron_maxstep = 200
mixing_beta = 0.1
conv_thr = 1e-06
/
&IONS
ion_dynamics = 'bfgs'
upscale = 1.0
/
&CELL
/

K_POINTS {automatic}
8 6 1 0 0 0

ATOMIC_SPECIES
In 114.8 In.pbe-dn-rrkjus_psl.1.0.0.UPF
Ir 192.2 Ir.pbe-n-rrkjus_psl.0.2.3.UPF
Li 6.941 Li.pbe-sl-rrkjus_psl.1.0.0.UPF

CELL_PARAMETERS {angstrom}
6.17944000 0.00000000 0.00000000
0.00000000 8.73904000 0.00000000
0.00000000 0.00000000 26.55430000

ATOMIC_POSITIONS {angstrom}
Li 1.54486000 0.00000000 -1.0924439000000028 0 0 0
Li 4.63458000 4.36952000 -1.0924439000000028 0 0 0
Li 4.63458000 0.00000000 -1.0924439000000028 0 0 0
Li 1.54486000 4.36952000 -1.0924439000000028 0 0 0
Li 4.63458000 6.55428000 -3.2770661600000004 0 0 0
Li 1.54486000 2.18476000 -3.2770661600000004 0 0 0
Li 1.54486000 6.55428000 -3.2770661600000004 0 0 0
Li 4.63458000 2.18476000 -3.2770661600000004 0 0 0
Li 1.40155879 4.36952000 3.70273159
Li 4.77788121 0.00000000 3.70273159
Li 4.77788121 4.36952000 3.70273159
Li 1.40155879 0.00000000 3.70273159
Li 4.65651701 2.18476000 1.00534580
Li 1.52292299 6.55428000 1.00534580
Li 1.52292299 2.18476000 1.00534580
Li 4.65651701 6.55428000 1.00534580
In 0.00000000 0.00000000 -3.2770661600000004 0 0 0
In 3.08972000 2.18476000 -1.0924439000000028 0 0 0
In 3.08972000 6.55428000 -1.0924439000000028 0 0 0
In 0.00000000 4.36952000 -3.2770661600000004 0 0 0
In 0.00000000 4.36952000 1.22574649
In 3.08972000 6.55428000 3.12942425
In 3.08972000 2.18476000 3.12942425
In 0.00000000 0.00000000 1.22574649
Ir 0.00000000 6.55428000 -1.0924439000000028 0 0 0
Ir 3.08972000 0.00000000 -3.2770661600000004 0 0 0
Ir 0.00000000 2.18476000 -1.0924439000000028 0 0 0
Ir 3.08972000 4.36952000 -3.2770661600000004 0 0 0
Ir 0.00000000 2.18476000 3.08959281
Ir 3.08972000 4.36952000 1.26796783
Ir 0.00000000 6.55428000 3.08959281
Ir 3.08972000 0.00000000 1.26823337
