&CONTROL
calculation = 'relax'
prefix = 'scf'
pseudo_dir = '/vol0004/mdt0/data/hp150275/u10028/POT_KKJUS'
outdir = './data'
tprnfor = .true.
nstep = 50
disk_io = 'non'
/
&SYSTEM
ibrav = 0
ecutwfc = 50.0
ecutrho = 400
occupations = 'smearing'
smearing = 'mp'
degauss = 0.01
assume_isolated = 'esm'
esm_bc = 'bc1'
input_dft = 'BEEF-VDW'
nosym = .true.
nspin = 1
ntyp = 2
nat = 32
/
&ELECTRONS
electron_maxstep = 200
mixing_beta = 0.1
conv_thr = 1e-06
/
&IONS
ion_dynamics = 'bfgs'
upscale = 1.0
/
&CELL
/

K_POINTS {automatic}
6 6 1 0 0 0

ATOMIC_SPECIES
Pb 207.2 Pb.pbe-dn-rrkjus_psl.1.0.0.UPF
Y 88.90 Y.pbe-spn-rrkjus_psl.1.0.0.UPF

CELL_PARAMETERS {angstrom}
9.91485000 0.00000000 0.00000000
0.00000000 9.91485000 0.00000000
0.00000000 0.00000000 27.43610000

ATOMIC_POSITIONS {angstrom}
Y 0.00019830 9.91475085 3.36256842
Y 0.00000000 0.00000000 -1.239288639999998 0 0 0
Y 0.00000000 4.95752415 3.36229406
Y 0.00000000 4.95742500 -1.239288639999998 0 0 0
Y 4.95732585 0.00000000 3.36311714
Y 4.95742500 0.00000000 -1.239288639999998 0 0 0
Y 4.95732585 4.95762330 3.36256842
Y 4.95742500 4.95742500 -1.239288639999998 0 0 0
Pb 0.00009915 2.47861335 1.22611931
Pb 2.47881165 9.91465170 1.22611931
Pb 2.47871250 2.47871250 3.85147972
Pb 0.00000000 2.47871250 -3.7181402699999992 0 0 0
Pb 2.47871250 0.00000000 -3.7181402699999992 0 0 0
Pb 2.47871250 2.47871250 -1.239288639999998 0 0 0
Pb 0.00039659 7.43603835 1.22611931
Pb 2.47871250 4.95762330 1.22611931
Pb 2.47871250 7.43603835 3.85093100
Pb 0.00000000 7.43613750 -3.7181402699999992 0 0 0
Pb 2.47871250 4.95742500 -3.7181402699999992 0 0 0
Pb 2.47871250 7.43613750 -1.239288639999998 0 0 0
Pb 4.95762330 2.47851420 1.22611931
Pb 7.43593920 0.00019830 1.22611931
Pb 7.43603835 2.47871250 3.85120536
Pb 4.95742500 2.47871250 -3.7181402699999992 0 0 0
Pb 7.43613750 0.00000000 -3.7181402699999992 0 0 0
Pb 7.43613750 2.47871250 -1.239288639999998 0 0 0
Pb 4.95722670 7.43633580 1.22639367
Pb 7.43593920 4.95752415 1.22639367
Pb 7.43603835 7.43613750 3.85120536
Pb 4.95742500 7.43613750 -3.7181402699999992 0 0 0
Pb 7.43613750 4.95742500 -3.7181402699999992 0 0 0
Pb 7.43613750 7.43613750 -1.239288639999998 0 0 0
