&CONTROL
calculation = 'relax'
prefix = 'scf'
pseudo_dir = '/vol0004/mdt0/data/hp150275/u10028/POT_KKJUS'
outdir = './data'
tprnfor = .true.
nstep = 50
disk_io = 'non'
/
&SYSTEM
ibrav = 0
ecutwfc = 50.0
ecutrho = 400
occupations = 'smearing'
smearing = 'mp'
degauss = 0.01
assume_isolated = 'esm'
esm_bc = 'bc1'
input_dft = 'BEEF-VDW'
nosym = .true.
nspin = 1
ntyp = 2
nat = 32
/
&ELECTRONS
electron_maxstep = 200
mixing_beta = 0.1
conv_thr = 1e-06
/
&IONS
ion_dynamics = 'bfgs'
upscale = 1.0
/
&CELL
/

K_POINTS {automatic}
6 6 1 0 0 0

ATOMIC_SPECIES
K 39.09 K.pbe-spn-rrkjus_psl.1.0.0.UPF
Pd 106.4 Pd.pbe-n-rrkjus_psl.1.0.0.UPF

CELL_PARAMETERS {angstrom}
11.07580000 0.00000000 0.00000000
0.00000000 11.07580000 0.00000000
0.00000000 0.00000000 28.30690000

ATOMIC_POSITIONS {angstrom}
K 0.00000000 2.76895000 -1.3844904800000002 0 0 0
K 2.76895000 0.00000000 -1.3844904800000002 0 0 0
K 2.76895000 2.76895000 -4.153471440000001 0 0 0
K 0.00000000 2.77315880 4.10025446
K 2.77182971 11.07458166 4.10280209
K 2.76773166 2.76795318 1.40741907
K 0.00000000 8.30685000 -1.3844904800000002 0 0 0
K 2.76895000 5.53790000 -1.3844904800000002 0 0 0
K 2.76895000 8.30685000 -4.153471440000001 0 0 0
K 0.00000000 8.30352726 4.10025446
K 2.76496271 5.53535257 4.09912219
K 2.76773166 8.30795758 1.40741907
K 5.53790000 2.76895000 -1.3844904800000002 0 0 0
K 8.30685000 0.00000000 -1.3844904800000002 0 0 0
K 8.30685000 2.76895000 -4.153471440000001 0 0 0
K 5.53790000 2.76463044 4.09629150
K 8.30430257 0.00221516 4.09968833
K 8.30817910 2.76795318 1.40713600
K 5.53790000 8.30685000 -1.3844904800000002 0 0 0
K 8.30685000 5.53790000 -1.3844904800000002 0 0 0
K 8.30685000 8.30685000 -4.153471440000001 0 0 0
K 5.53878606 8.31272017 4.09742377
K 8.30817910 5.53479878 4.09770684
K 8.30806834 8.30806834 1.40741907
Pd 0.00000000 0.00000000 -4.153471440000001 0 0 0
Pd 0.00011076 0.00011076 1.57216523
Pd 0.00000000 5.53790000 -4.153471440000001 0 0 0
Pd 0.00011076 5.53801076 1.57329750
Pd 5.53790000 0.00000000 -4.153471440000001 0 0 0
Pd 5.53801076 0.00011076 1.57358057
Pd 5.53790000 5.53790000 -4.153471440000001 0 0 0
Pd 5.53790000 5.53801076 1.57273136
