&CONTROL
calculation = 'relax'
prefix = 'scf'
pseudo_dir = '/vol0004/mdt0/data/hp150275/u10028/POT_HYBRID_KKJUS_GBRV'
outdir = './data'
tprnfor = .true.
nstep = 70
disk_io = 'non'
/
&SYSTEM
ibrav = 0
ecutwfc = 50.0
ecutrho = 400
occupations = 'smearing'
smearing = 'mp'
degauss = 0.01
assume_isolated = 'esm'
esm_bc = 'bc1'
input_dft = 'BEEF-VDW'
nosym = .true.
nspin = 1
ntyp = 3
nat = 33
/
&ELECTRONS
electron_maxstep = 200
mixing_beta = 0.1
conv_thr = 1e-06
/
&IONS
ion_dynamics = 'bfgs'
upscale = 1.0
/
&CELL
/

K_POINTS {automatic}
6 8 1 0 0 0

ATOMIC_SPECIES
C 12.01 C.pbe-n-rrkjus_psl.1.0.0.UPF
Pd 106.4 Pd.pbe-n-rrkjus_psl.1.0.0.UPF
Zn 65.40 Zn.pbe-dnl-rrkjus_psl.1.0.0.UPF

CELL_PARAMETERS {angstrom}
8.19602000 0.00000000 0.00000000
-0.00000000 6.89988000 0.00000000
0.00000000 0.00000000 26.14700000

ATOMIC_POSITIONS {angstrom}
Zn 2.04900500 1.72497000 -3.073579849999998 0 0 0
Zn 4.09801000 1.72497000 -1.02443946 0 0 0
Zn 2.04900500 1.72497000 1.02443946
Zn 4.09801000 1.72497000 3.07357985
Zn 2.04900500 5.17491000 -3.073579849999998 0 0 0
Zn 4.09801000 5.17491000 -1.02443946 0 0 0
Zn 2.04900500 5.17491000 1.02443946
Zn 4.09801000 5.17491000 3.07357985
Zn 6.14701500 1.72497000 -3.073579849999998 0 0 0
Zn 0.00000000 1.72497000 -1.02443946 0 0 0
Zn 6.14701500 1.72497000 1.02443946
Zn 0.00000000 1.72497000 3.07357985
Zn 6.14701500 5.17491000 -3.073579849999998 0 0 0
Zn 0.00000000 5.17491000 -1.02443946 0 0 0
Zn 6.14701500 5.17491000 1.02443946
Zn 0.00000000 5.17491000 3.07357985
Pd 0.00000000 0.00000000 -3.073579849999998 0 0 0
Pd 2.04900500 0.00000000 -1.02443946 0 0 0
Pd 4.09801000 -0.00000000 1.02443946
Pd 2.04900500 -0.00000000 3.07357985
Pd 0.00000000 3.44994000 -3.073579849999998 0 0 0
Pd 2.04900500 3.44994000 -1.02443946 0 0 0
Pd 4.09801000 3.44994000 1.02443946
Pd 2.04900500 3.44994000 3.07357985
Pd 4.09801000 0.00000000 -3.073579849999998 0 0 0
Pd 6.14701500 0.00000000 -1.02443946 0 0 0
Pd 0.00000000 0.00000000 1.02443946
Pd 6.14701500 -0.00000000 3.07357985
Pd 4.09801000 3.44994000 -3.073579849999998 0 0 0
Pd 6.14701500 3.44994000 -1.02443946 0 0 0
Pd 0.00000000 3.44994000 1.02443946
Pd 6.14701500 3.44994000 3.07357985
C 0.00000000 0.00000000 3.87341658
