&CONTROL
calculation = 'relax'
prefix = 'scf'
pseudo_dir = '/vol0004/mdt0/data/hp150275/u10028/POT_HYBRID_KKJUS_GBRV'
outdir = './data'
tprnfor = .true.
nstep = 50
disk_io = 'non'
/
&SYSTEM
ibrav = 0
ecutwfc = 50.0
ecutrho = 400
occupations = 'smearing'
smearing = 'mp'
degauss = 0.01
assume_isolated = 'esm'
esm_bc = 'bc1'
input_dft = 'BEEF-VDW'
nosym = .true.
nspin = 2
ntyp = 4
nat = 33
starting_magnetization(1) = 0.0
starting_magnetization(2) = 0.0
starting_magnetization(3) = 0.1
starting_magnetization(4) = 0.001
/
&ELECTRONS
electron_maxstep = 200
mixing_beta = 0.1
conv_thr = 1e-06
/
&IONS
ion_dynamics = 'bfgs'
upscale = 1.0
/
&CELL
/

K_POINTS {automatic}
9 6 2 0  0  0

ATOMIC_SPECIES
Al 26.98 Al.pbe-nl-rrkjus_psl.1.0.0.UPF
C 12.01 C.pbe-n-rrkjus_psl.1.0.0.UPF
Fe 55.84 fe_pbe_v1.5.uspp.F.UPF
Ni 58.69 ni_pbe_v1.4.uspp.F.UPF

CELL_PARAMETERS {angstrom}
5.78917000 0.00000000 0.00000000
0.00000000 8.18712000 0.00000000
0.00000000 0.00000000 26.14030000

ATOMIC_POSITIONS {angstrom}
Al 0.00000000 0.00000000 23.07012176
Al 2.89458500 2.04678000 25.11690726
Al 2.89458500 6.14034000 25.11690726
Al 0.00000000 4.09356000 23.07012176
Al 0.03432978 4.15144294 1.04064534
Al 2.66018151 6.14042187 3.50959668
Al 3.33548819 2.04710748 3.83007676
Al 0.03496659 8.12841835 1.04064534
Fe 1.44729250 0.00000000 25.11690726
Fe 4.34187750 4.09356000 25.11690726
Fe 4.34187750 0.00000000 25.11690726
Fe 1.44729250 4.09356000 25.11690726
Fe 4.34187750 6.14034000 23.07012176
Fe 1.44729250 2.04678000 23.07012176
Fe 1.44729250 6.14034000 23.07012176
Fe 4.34187750 2.04678000 23.07012176
Fe 1.62611996 3.90525624 3.06495017
Fe 4.21521046 8.00233670 2.99018892
Fe 4.21544203 4.27883453 2.99097313
Fe 1.62664099 0.18863124 3.06495017
Fe 4.29475366 2.04587942 1.05868215
Fe 1.62791460 6.13960316 1.10129084
Fe 1.48237487 2.04678000 1.29812730
Fe 4.17063385 6.14034000 1.24689231
Ni 0.00000000 6.14034000 25.11690726
Ni 2.89458500 0.00000000 23.07012176
Ni 0.00000000 2.04678000 25.11690726
Ni 2.89458500 4.09356000 23.07012176
Ni 5.48257556 2.04678000 3.04952740
Ni 2.89273247 4.00399291 0.84145626
Ni 0.18224307 6.14050374 2.93869253
Ni 2.89122728 0.08866651 0.84119485
C 1.46581784 2.04686187 3.39484076
