&CONTROL
calculation = 'relax'
prefix = 'scf'
pseudo_dir = '/vol0403/data/hp230205/u10028/POT_HYBRID_KKJUS_GBRV'
outdir = './data'
tprnfor = .true.
nstep = 50
disk_io = 'non'
/
&SYSTEM
ibrav = 0
ecutwfc = 50.0
ecutrho = 400
occupations = 'smearing'
smearing = 'mp'
degauss = 0.01
assume_isolated = 'esm'
esm_bc = 'bc1'
input_dft = 'BEEF-VDW'
nosym = .true.
nspin = 1
ntyp = 4
nat = 16
/
&ELECTRONS
electron_maxstep = 200
mixing_beta = 0.1
conv_thr = 1e-06
/
&IONS
ion_dynamics = 'bfgs'
upscale = 1.0
/
&CELL
/

K_POINTS {automatic}
6 6 1 0 0 0

ATOMIC_SPECIES
Ge 72.64 Ge.pbe-dn-rrkjus_psl.1.0.0.UPF
Li 6.941 Li.pbe-sl-rrkjus_psl.1.0.0.UPF
Pd 106.4 Pd.pbe-n-rrkjus_psl.1.0.0.UPF
V 50.94 V.pbe-spnl-rrkjus_psl.1.0.0.UPF


CELL_PARAMETERS {angstrom}
5.17268000 0.00000000 0.00000000
0.00000000 9.40562000 0.00000000
0.00000000 0.00000000 23.56350000

ATOMIC_POSITIONS {angstrom}
Li 0.78190231 2.35140500 -0.5938002000000004 0 0 0
Li 2.35382803 2.35140500 1.89803992
Li 0.78190231 7.05421500 -0.5938002000000004 0 0 0
Li 2.35382803 7.05421500 1.89780429
V 2.58634000 0.00000000 -1.7816362300000002 0 0 0
V 3.48871403 0.00000000 0.21631293
V 2.58634000 4.70281000 -1.7816362300000002 0 0 0
V 3.48892093 4.70281000 0.21607730
Ge 0.00000000 0.00000000 -1.7816362300000002 0 0 0
Ge 0.90708116 0.00000000 0.74861239
Ge 0.00000000 4.70281000 -1.7816362300000002 0 0 0
Ge 0.90754671 4.70281000 0.74719859
Pd 3.36824231 2.35140500 -0.5938002000000004 0 0 0
Pd 4.97751478 2.35187528 1.63318619
Pd 3.36824231 7.05421500 -0.5938002000000004 0 0 0
Pd 4.97751478 7.05374472 1.63318619
