&CONTROL
calculation = 'relax'
prefix = 'scf'
pseudo_dir = '/vol0004/mdt0/data/hp150275/u10028/POT_KKJUS'
outdir = './data'
tprnfor = .true.
nstep = 50
disk_io = 'non'
/
&SYSTEM
ibrav = 0
ecutwfc = 50.0
ecutrho = 400
occupations = 'smearing'
smearing = 'mp'
degauss = 0.01
assume_isolated = 'esm'
esm_bc = 'bc1'
input_dft = 'BEEF-VDW'
nosym = .true.
nspin = 1
ntyp = 2
nat = 17
/
&ELECTRONS
electron_maxstep = 200
mixing_beta = 0.1
conv_thr = 1e-06
/
&IONS
ion_dynamics = 'bfgs'
upscale = 1.0
/
&CELL
/

K_POINTS {automatic}
10 10 2 0  0  0

ATOMIC_SPECIES
C 12.01 C.pbe-n-rrkjus_psl.1.0.0.UPF
Ti 47.86 Ti.pbe-spn-rrkjus_psl.1.0.0.UPF

CELL_PARAMETERS {angstrom}
6.51708000 0.00000000 0.00000000
-0.00000000 6.51708000 0.00000000
0.00000000 0.00000000 24.88780000

ATOMIC_POSITIONS {angstrom}
Ti 0.00000000 0.00000000 -2.4439819599999986 0 0 0
Ti 1.62927000 1.62927000 -0.8145776900000001 0 0 0
Ti 0.00000000 0.00000000 0.81457769
Ti 1.62927000 1.62927000 2.44398196
Ti 0.00000000 3.25854000 -2.4439819599999986 0 0 0
Ti 1.62927000 4.88781000 -0.8145776900000001 0 0 0
Ti 0.00000000 3.25854000 0.81457769
Ti 1.62927000 4.88781000 2.44398196
Ti 3.25854000 0.00000000 -2.4439819599999986 0 0 0
Ti 4.88781000 1.62927000 -0.8145776900000001 0 0 0
Ti 3.25854000 -0.00000000 0.81457769
Ti 4.88781000 1.62927000 2.44398196
Ti 3.25854000 3.25854000 -2.4439819599999986 0 0 0
Ti 4.88781000 4.88781000 -0.8145776900000001 0 0 0
Ti 3.25854000 3.25854000 0.81457769
Ti 4.88781000 4.88781000 2.44398196
C 0.00000000 0.00000000 3.24387585
