&CONTROL
calculation = 'relax'
prefix = 'scf'
pseudo_dir = '/vol0004/mdt0/data/hp150275/u10028/POT_KKJUS'
outdir = './data'
tprnfor = .true.
nstep = 50
disk_io = 'non'
/
&SYSTEM
ibrav = 0
ecutwfc = 50.0
ecutrho = 400
occupations = 'smearing'
smearing = 'mp'
degauss = 0.01
assume_isolated = 'esm'
esm_bc = 'bc1'
input_dft = 'BEEF-VDW'
nosym = .true.
nspin = 1
ntyp = 3
nat = 33
/
&ELECTRONS
electron_maxstep = 200
mixing_beta = 0.1
conv_thr = 1e-06
/
&IONS
ion_dynamics = 'bfgs'
upscale = 1.0
/
&CELL
/

K_POINTS {automatic}
9 6 2 0  0  0

ATOMIC_SPECIES
Al 26.98 Al.pbe-nl-rrkjus_psl.1.0.0.UPF
C 12.01 C.pbe-n-rrkjus_psl.1.0.0.UPF
Y 88.90 Y.pbe-spn-rrkjus_psl.1.0.0.UPF

CELL_PARAMETERS {angstrom}
7.18582000 0.00000000 0.00000000
0.00000000 10.16230000 0.00000000
0.00000000 0.00000000 27.62170000

ATOMIC_POSITIONS {angstrom}
Y 1.79645500 2.54057500 -3.81096595 0 0 0
Y 1.79645500 0.00000000 -1.270321980000002 0 0 0
Y 1.76167563 2.50388910 1.20043908
Y 2.14381754 0.00000000 4.12005277
Y 1.79645500 7.62172500 -3.81096595 0 0 0
Y 1.79645500 5.08115000 -1.270321980000002 0 0 0
Y 1.76167563 7.65841090 1.20043908
Y 1.65144515 5.08115000 3.87891533
Y 5.38936500 2.54057500 -3.81096595 0 0 0
Y 5.38936500 0.00000000 -1.270321980000002 0 0 0
Y 5.42414437 2.50388910 1.20043908
Y 5.04200246 0.00000000 4.12005277
Y 5.38936500 7.62172500 -3.81096595 0 0 0
Y 5.38936500 5.08115000 -1.270321980000002 0 0 0
Y 5.42414437 7.65841090 1.20043908
Y 5.53437485 5.08115000 3.87891533
Al 0.00000000 0.00000000 -3.81096595 0 0 0
Al 0.00000000 2.54057500 -1.270321980000002 0 0 0
Al 0.00000000 5.08115000 1.29628638
Al 0.00000000 2.16080985 3.72423381
Al 0.00000000 5.08115000 -3.81096595 0 0 0
Al 0.00000000 7.62172500 -1.270321980000002 0 0 0
Al 0.00000000 0.00000000 1.84651065
Al 0.00000000 8.00149015 3.72423381
Al 3.59291000 0.00000000 -3.81096595 0 0 0
Al 3.59291000 2.54057500 -1.270321980000002 0 0 0
Al 3.59291000 5.08115000 1.40069641
Al 3.59283814 2.70113934 3.70130780
Al 3.59291000 5.08115000 -3.81096595 0 0 0
Al 3.59291000 7.62172500 -1.270321980000002 0 0 0
Al 3.59291000 0.00000000 1.36672172
Al 3.59298186 7.46116066 3.70130780
C 0.00000000 0.00000000 3.96813342
