&CONTROL
calculation = 'relax'
prefix = 'scf'
pseudo_dir = '/vol0004/mdt0/data/hp150275/u10028/POT_KKJUS'
outdir = './data'
tprnfor = .true.
nstep = 50
disk_io = 'non'
/
&SYSTEM
ibrav = 0
ecutwfc = 50.0
ecutrho = 400
occupations = 'smearing'
smearing = 'mp'
degauss = 0.01
assume_isolated = 'esm'
esm_bc = 'bc1'
input_dft = 'BEEF-VDW'
nosym = .true.
nspin = 1
ntyp = 4
nat = 18
/
&ELECTRONS
electron_maxstep = 200
mixing_beta = 0.1
conv_thr = 1e-06
/
&IONS
ion_dynamics = 'bfgs'
upscale = 1.0
/
&CELL
/

K_POINTS {automatic}
6 8 1 0 0 0

ATOMIC_SPECIES
Al 26.98 Al.pbe-nl-rrkjus_psl.1.0.0.UPF
C 12.01 C.pbe-n-rrkjus_psl.1.0.0.UPF
Ni 58.69 Ni.pbe-spn-rrkjus_psl.1.0.0.UPF
O 15.99 O.pbe-n-rrkjus_psl.1.0.0.UPF

CELL_PARAMETERS {angstrom}
7.20976000 0.00000000 0.00000000
0.00000000 5.09807000 0.00000000
0.00000000 0.00000000 23.82360000

ATOMIC_POSITIONS {angstrom}
Al 0.00000000 5.09796804 1.78796118
Al 0.00000000 2.54903500 -0.6372812999999979 0 0 0
Al 3.60488000 5.09801902 1.79487002
Al 3.60488000 2.54903500 -0.6372812999999979 0 0 0
Ni 7.20968790 2.54903500 1.99856180
Ni 1.80316098 3.83502316 0.63442247
Ni 1.80294468 1.26299586 0.63466070
Ni 0.00000000 0.00000000 -0.6372812999999979 0 0 0
Ni 1.80244000 1.27451750 -1.9118438999999974 0 0 0
Ni 1.80244000 3.82355250 -1.9118438999999974 0 0 0
Ni 3.60495210 2.54903500 1.82036128
Ni 5.40667112 3.83507414 0.63418423
Ni 5.40688741 1.26289390 0.63466070
Ni 3.60488000 0.00000000 -0.6372812999999979 0 0 0
Ni 5.40732000 1.27451750 -1.9118438999999974 0 0 0
Ni 5.40732000 3.82355250 -1.9118438999999974 0 0 0
C 0.00000000 2.54898402 3.77318177
O 0.00000000 2.54893304 4.93029402
