&CONTROL
calculation = 'relax'
prefix = 'scf'
pseudo_dir = '/vol0403/data/hp230205/u10028/POT_HYBRID_KKJUS_GBRV'
outdir = './data'
tprnfor = .true.
nstep = 50
disk_io = 'non'
/
&SYSTEM
ibrav = 0
ecutwfc = 50.0
ecutrho = 400
occupations = 'smearing'
smearing = 'mp'
degauss = 0.01
assume_isolated = 'esm'
esm_bc = 'bc1'
input_dft = 'BEEF-VDW'
nosym = .true.
nspin = 1
ntyp = 6
nat = 18
/
&ELECTRONS
electron_maxstep = 200
mixing_beta = 0.1
conv_thr = 1e-06
/
&IONS
ion_dynamics = 'bfgs'
upscale = 1.0
/
&CELL
/

K_POINTS {automatic}
11 7 2 0  0  0

ATOMIC_SPECIES
C 12.01 C.pbe-n-rrkjus_psl.1.0.0.UPF
In 114.8 In.pbe-dn-rrkjus_psl.1.0.0.UPF
O 15.99 O.pbe-n-rrkjus_psl.1.0.0.UPF
Pd 106.4 Pd.pbe-n-rrkjus_psl.1.0.0.UPF
Sc 44.95 Sc.pbe-spn-rrkjus_psl.1.0.0.UPF
Y 88.90 Y.pbe-spn-rrkjus_psl.1.0.0.UPF


CELL_PARAMETERS {angstrom}
6.25545000 0.00000000 0.00000000
0.00000000 9.64246000 0.00000000
0.00000000 0.00000000 24.46440000

ATOMIC_POSITIONS {angstrom}
Y 3.12772500 0.00000000 -2.2321318600000026 0 0 0
Y 5.04583363 0.02294905 0.70897831
Y 3.12772500 4.82123000 -2.2321318600000026 0 0 0
Y 5.04577108 4.79828095 0.70922296
Sc 1.08313117 2.41061500 -0.7439624000000009 0 0 0
Sc 3.16844798 2.41061500 1.91262679
Sc 1.08313117 7.23184500 -0.7439624000000009 0 0 0
Sc 3.19378255 7.23184500 1.83336214
In 0.00000000 0.00000000 -2.2321318600000026 0 0 0
In 1.83803887 0.01610291 1.09111224
In 0.00000000 4.82123000 -2.2321318600000026 0 0 0
In 1.83803887 4.80512709 1.09111224
Pd 4.21085617 2.41061500 -0.7439624000000009 0 0 0
Pd 0.08413580 2.41061500 1.86761230
Pd 4.21085617 7.23184500 -0.7439624000000009 0 0 0
Pd 0.07243811 7.23184500 1.64327375
C 6.17469214 2.41061500 3.82672145
O 6.24606682 2.41061500 4.98339828
