&CONTROL
calculation = 'relax'
prefix = 'scf'
pseudo_dir = '/vol0403/data/hp230205/u10028/POT_HYBRID_KKJUS_GBRV'
outdir = './data'
tprnfor = .true.
nstep = 50
disk_io = 'non'
/
&SYSTEM
ibrav = 0
ecutwfc = 50.0
ecutrho = 400
occupations = 'smearing'
smearing = 'mp'
degauss = 0.01
assume_isolated = 'esm'
esm_bc = 'bc1'
input_dft = 'BEEF-VDW'
nosym = .true.
nspin = 1
ntyp = 6
nat = 34
/
&ELECTRONS
electron_maxstep = 200
mixing_beta = 0.1
conv_thr = 1e-06
/
&IONS
ion_dynamics = 'bfgs'
upscale = 1.0
/
&CELL
/

K_POINTS {automatic}
6 6 1 0 0 0

ATOMIC_SPECIES
C 12.01 C.pbe-n-rrkjus_psl.1.0.0.UPF
Ga 69.72 Ga.pbe-dnl-rrkjus_psl.1.0.0.UPF
Ge 72.64 Ge.pbe-dn-rrkjus_psl.1.0.0.UPF
Li 6.941 Li.pbe-sl-rrkjus_psl.1.0.0.UPF
O 15.99 O.pbe-n-rrkjus_psl.1.0.0.UPF
Sc 44.95 Sc.pbe-spn-rrkjus_psl.1.0.0.UPF


CELL_PARAMETERS {angstrom}
8.07712000 0.00000000 0.00000000
0.00000000 8.37322000 0.00000000
0.00000000 0.00000000 25.96890000

ATOMIC_POSITIONS {angstrom}
Li 2.01928000 0.00000000 -0.9948685600000005 0 0 0
Li 2.01911846 0.00008373 2.36836368
Li 2.01928000 4.18661000 -0.9948685600000005 0 0 0
Li 2.01887614 4.18686120 2.79736991
Li 6.05784000 0.00000000 -0.9948685600000005 0 0 0
Li 6.05808231 0.00025120 2.73374610
Li 6.05784000 4.18661000 -0.9948685600000005 0 0 0
Li 6.05872848 4.18686120 2.88124945
Sc 0.00000000 2.09330500 -0.9948685600000005 0 0 0
Sc 0.09741007 1.95456074 2.94721046
Sc 0.00000000 6.27991500 -0.9948685600000005 0 0 0
Sc 0.09813701 6.41949658 2.94824922
Sc 4.03856000 2.09330500 -0.9948685600000005 0 0 0
Sc 3.94179610 1.95531433 2.94798953
Sc 4.03856000 6.27991500 -0.9948685600000005 0 0 0
Sc 3.94114993 6.41865926 2.94902828
Ga 0.00000000 0.00000000 -2.9843459900000013 0 0 0
Ga 8.00297204 0.00025120 0.90112083
Ga 0.00000000 4.18661000 -2.9843459900000013 0 0 0
Ga 8.06443892 4.18769852 1.04654667
Ga 4.03856000 0.00000000 -2.9843459900000013 0 0 0
Ga 4.11295028 0.00033493 0.90112083
Ga 4.03856000 4.18661000 -2.9843459900000013 0 0 0
Ga 4.05164493 4.18761479 1.04576760
Ge 2.01928000 2.09330500 -2.9843459900000013 0 0 0
Ge 2.01919923 2.15317352 0.96786090
Ge 2.01928000 6.27991500 -2.9843459900000013 0 0 0
Ge 2.01928000 6.22021394 0.96682215
Ge 6.05784000 2.09330500 -2.9843459900000013 0 0 0
Ge 6.05856694 2.11113996 1.07121713
Ge 6.05784000 6.27991500 -2.9843459900000013 0 0 0
Ge 6.05856694 6.26216377 1.07173650
C 2.01411064 8.37079177 4.28564757
O 2.01669532 8.37280134 5.46931003
