&CONTROL
calculation = 'relax'
prefix = 'scf'
pseudo_dir = '/vol0004/mdt0/data/hp150275/u10028/POT_HYBRID_KKJUS_GBRV'
outdir = './data'
tprnfor = .true.
nstep = 50
disk_io = 'non'
/
&SYSTEM
ibrav = 0
ecutwfc = 50.0
ecutrho = 400
occupations = 'smearing'
smearing = 'mp'
degauss = 0.01
assume_isolated = 'esm'
esm_bc = 'bc1'
input_dft = 'BEEF-VDW'
nosym = .true.
nspin = 2
ntyp = 5
nat = 34
starting_magnetization(1) = 0.0
starting_magnetization(2) = 0.1
starting_magnetization(3) = 0.0
starting_magnetization(4) = 0.0
starting_magnetization(5) = 0.0
/
&ELECTRONS
electron_maxstep = 300
mixing_beta = 0.1
conv_thr = 1e-06
/
&IONS
ion_dynamics = 'bfgs'
upscale = 1.0
/
&CELL
/

K_POINTS {automatic}
8 6 1 0 0 0

ATOMIC_SPECIES
C 12.01 C.pbe-n-rrkjus_psl.1.0.0.UPF
Co 58.93 co_pbe_v1.2.uspp.F.UPF
O 15.99 O.pbe-n-rrkjus_psl.1.0.0.UPF
Si 28.08 Si.pbe-nl-rrkjus_psl.1.0.0.UPF
Ti 47.86 Ti.pbe-spn-rrkjus_psl.1.0.0.UPF

CELL_PARAMETERS {angstrom}
5.76208000 0.00000000 0.00000000
0.00000000 8.14881000 0.00000000
0.00000000 0.00000000 26.11160000

ATOMIC_POSITIONS {angstrom}
Ti 0.00000000 0.00000000 -3.055840549999999 0 0 0
Ti 2.88104000 2.03720250 -1.0186135199999988 0 0 0
Ti 2.88104000 6.11160750 -1.0186135199999988 0 0 0
Ti 0.00000000 4.07440500 -3.055840549999999 0 0 0
Ti 0.00524349 4.07448649 0.98545178
Ti 2.90921657 6.06784839 3.15323682
Ti 2.90921657 2.08096161 3.15323682
Ti 0.00167100 0.00000000 1.02096356
Co 1.44052000 0.00000000 -1.0186135199999988 0 0 0
Co 4.32156000 4.07440500 -1.0186135199999988 0 0 0
Co 4.32156000 0.00000000 -1.0186135199999988 0 0 0
Co 1.44052000 4.07440500 -1.0186135199999988 0 0 0
Co 4.32156000 6.11160750 -3.055840549999999 0 0 0
Co 1.44052000 2.03720250 -3.055840549999999 0 0 0
Co 1.44052000 6.11160750 -3.055840549999999 0 0 0
Co 4.32156000 2.03720250 -3.055840549999999 0 0 0
Co 1.35189921 4.07440500 2.90047653
Co 4.38258043 8.14864702 2.86470364
Co 4.39226072 4.07440500 2.90021541
Co 1.47733969 0.00000000 3.10545259
Co 4.26745407 2.03940268 1.02514142
Co 1.48736571 6.13695030 1.05725868
Co 1.48725047 2.01185970 1.05725868
Co 4.26739645 6.10940732 1.02514142
Si 0.00000000 6.11160750 -1.0186135199999988 0 0 0
Si 2.88104000 0.00000000 -3.055840549999999 0 0 0
Si 0.00000000 2.03720250 -1.0186135199999988 0 0 0
Si 2.88104000 4.07440500 -3.055840549999999 0 0 0
Si 5.73125287 2.04339560 2.99735056
Si 2.87735227 4.07440500 1.05673645
Si 5.73125287 6.10541440 2.99735056
Si 2.87412550 0.00000000 1.04576958
C 2.04893803 0.00000000 4.76406142
O 2.28921676 0.00000000 5.91062178
