&CONTROL
calculation = 'relax'
prefix = 'scf'
pseudo_dir = '/vol0403/data/hp230205/u10028/POT_HYBRID_KKJUS_GBRV'
outdir = './data'
tprnfor = .true.
nstep = 50
disk_io = 'non'
/
&SYSTEM
ibrav = 0
ecutwfc = 50.0
ecutrho = 400
occupations = 'smearing'
smearing = 'mp'
degauss = 0.01
assume_isolated = 'esm'
esm_bc = 'bc1'
input_dft = 'BEEF-VDW'
nosym = .true.
nspin = 1
ntyp = 5
nat = 33
/
&ELECTRONS
electron_maxstep = 200
mixing_beta = 0.1
conv_thr = 1e-06
/
&IONS
ion_dynamics = 'bfgs'
upscale = 1.0
/
&CELL
/

K_POINTS {automatic}
6 6 1 0 0 0

ATOMIC_SPECIES
C 12.01 C.pbe-n-rrkjus_psl.1.0.0.UPF
Ge 72.64 Ge.pbe-dn-rrkjus_psl.1.0.0.UPF
In 114.8 In.pbe-dn-rrkjus_psl.1.0.0.UPF
Li 6.941 Li.pbe-sl-rrkjus_psl.1.0.0.UPF
Mg 24.30 Mg.pbe-spnl-rrkjus_psl.1.0.0.UPF


CELL_PARAMETERS {angstrom}
8.41850000 0.00000000 0.00000000
0.00000000 8.40992000 0.00000000
0.00000000 0.00000000 26.56300000

ATOMIC_POSITIONS {angstrom}
Li 0.00000000 2.10248000 -1.0938643399999997 0 0 0
Li 0.00000000 2.12661647 3.40750164
Li 0.00000000 6.30744000 -1.0938643399999997 0 0 0
Li 0.00000000 6.28330353 3.40750164
Li 4.20925000 2.10248000 -1.0938643399999997 0 0 0
Li 4.20925000 2.02552923 3.45425252
Li 4.20925000 6.30744000 -1.0938643399999997 0 0 0
Li 4.20925000 6.38439077 3.45425252
Mg 2.10462500 2.10248000 -3.281593019999999 0 0 0
Mg 2.20093264 2.15832187 1.20755398
Mg 2.10462500 6.30744000 -3.281593019999999 0 0 0
Mg 2.20084846 6.25159813 1.20755398
Mg 6.31387500 2.10248000 -3.281593019999999 0 0 0
Mg 6.21765154 2.15832187 1.20755398
Mg 6.31387500 6.30744000 -3.281593019999999 0 0 0
Mg 6.21765154 6.25159813 1.20755398
In 2.10462500 0.00000000 -1.0938643399999997 0 0 0
In 2.14461287 0.00000000 4.03491970
In 2.10462500 4.20496000 -1.0938643399999997 0 0 0
In 2.14200314 4.20496000 3.68827255
In 6.31387500 0.00000000 -1.0938643399999997 0 0 0
In 6.27388712 0.00000000 4.03491970
In 6.31387500 4.20496000 -1.0938643399999997 0 0 0
In 6.27649686 4.20496000 3.68827255
Ge 0.00000000 0.00000000 -3.281593019999999 0 0 0
Ge 0.00000000 0.00000000 1.31407161
Ge 0.00000000 4.20496000 -3.281593019999999 0 0 0
Ge 0.00000000 4.20496000 1.44183964
Ge 4.20925000 0.00000000 -3.281593019999999 0 0 0
Ge 4.20925000 0.00000000 1.36002560
Ge 4.20925000 4.20496000 -3.281593019999999 0 0 0
Ge 4.20925000 4.20496000 1.35949434
C 0.00000000 0.00000000 3.25290498
