&CONTROL
calculation = 'relax'
prefix = 'scf'
pseudo_dir = '/vol0004/mdt0/data/hp150275/u10028/POT_KKJUS'
outdir = './data'
tprnfor = .true.
nstep = 50
disk_io = 'non'
/
&SYSTEM
ibrav = 0
ecutwfc = 50.0
ecutrho = 400
occupations = 'smearing'
smearing = 'mp'
degauss = 0.01
assume_isolated = 'esm'
esm_bc = 'bc1'
input_dft = 'BEEF-VDW'
nosym = .true.
nspin = 1
ntyp = 4
nat = 34
/
&ELECTRONS
electron_maxstep = 200
mixing_beta = 0.1
conv_thr = 1e-06
/
&IONS
ion_dynamics = 'bfgs'
upscale = 1.0
/
&CELL
/

K_POINTS {automatic}
8 6 1 0 0 0

ATOMIC_SPECIES
C 12.01 C.pbe-n-rrkjus_psl.1.0.0.UPF
O 15.99 O.pbe-n-rrkjus_psl.1.0.0.UPF
Pd 106.4 Pd.pbe-n-rrkjus_psl.1.0.0.UPF
Sc 44.95 Sc.pbe-spn-rrkjus_psl.1.0.0.UPF

CELL_PARAMETERS {angstrom}
6.66071000 0.00000000 0.00000000
0.00000000 9.41967000 0.00000000
0.00000000 0.00000000 27.06480000

ATOMIC_POSITIONS {angstrom}
Sc 1.66517750 2.35491750 -3.5324977000000004 0 0 0
Sc 1.66517750 0.00000000 -1.1775894500000028 0 0 0
Sc 1.66477786 2.34662819 1.14646493
Sc 1.66564375 0.00000000 3.55631472
Sc 1.66517750 7.06475250 -3.5324977000000004 0 0 0
Sc 1.66517750 4.70983500 -1.1775894500000028 0 0 0
Sc 1.66477786 7.07304181 1.14646493
Sc 1.66471125 4.70983500 3.50353836
Sc 4.99553250 2.35491750 -3.5324977000000004 0 0 0
Sc 4.99553250 0.00000000 -1.1775894500000028 0 0 0
Sc 4.99506625 2.34851212 1.14727687
Sc 4.99473321 0.00000000 3.55604407
Sc 4.99553250 7.06475250 -3.5324977000000004 0 0 0
Sc 4.99553250 4.70983500 -1.1775894500000028 0 0 0
Sc 4.99506625 7.07115788 1.14727687
Sc 4.99506625 4.70983500 3.50786873
Pd 0.00000000 0.00000000 -3.5324977000000004 0 0 0
Pd 0.00000000 2.35491750 -1.1775894500000028 0 0 0
Pd 6.63912930 0.00000000 1.18164917
Pd 6.65598090 2.37347425 3.30001106
Pd 0.00000000 4.70983500 -3.5324977000000004 0 0 0
Pd 0.00000000 7.06475250 -1.1775894500000028 0 0 0
Pd 0.00119893 4.70983500 1.17677750
Pd 6.65591429 7.04619575 3.30001106
Pd 3.33035500 0.00000000 -3.5324977000000004 0 0 0
Pd 3.33035500 2.35491750 -1.1775894500000028 0 0 0
Pd 3.35086999 0.00000000 1.18110787
Pd 3.33408500 2.37451041 3.29974042
Pd 3.33035500 4.70983500 -3.5324977000000004 0 0 0
Pd 3.33035500 7.06475250 -1.1775894500000028 0 0 0
Pd 3.32795714 4.70983500 1.17677750
Pd 3.33408500 7.04515959 3.29974042
C 1.68043053 0.00000000 5.85519883
O 1.68249535 0.00000000 7.00518218
