&CONTROL
calculation = 'relax'
prefix = 'scf'
pseudo_dir = '/vol0004/mdt0/data/hp150275/u10028/POT_KKJUS'
outdir = './data'
tprnfor = .true.
nstep = 50
disk_io = 'non'
/
&SYSTEM
ibrav = 0
ecutwfc = 50.0
ecutrho = 400
occupations = 'smearing'
smearing = 'mp'
degauss = 0.01
assume_isolated = 'esm'
esm_bc = 'bc1'
input_dft = 'BEEF-VDW'
nosym = .true.
nspin = 1
ntyp = 5
nat = 34
/
&ELECTRONS
electron_maxstep = 200
mixing_beta = 0.1
conv_thr = 1e-06
/
&IONS
ion_dynamics = 'bfgs'
upscale = 1.0
/
&CELL
/

K_POINTS {automatic}
8 6 1 0 0 0

ATOMIC_SPECIES
Ag 107.8 Ag.pbe-n-rrkjus_psl.1.0.0.UPF
C 12.01 C.pbe-n-rrkjus_psl.1.0.0.UPF
Li 6.941 Li.pbe-sl-rrkjus_psl.1.0.0.UPF
O 15.99 O.pbe-n-rrkjus_psl.1.0.0.UPF
Sn 118.7 Sn.pbe-dn-rrkjus_psl.1.0.0.UPF

CELL_PARAMETERS {angstrom}
6.77071000 0.00000000 0.00000000
0.00000000 9.57522000 0.00000000
0.00000000 0.00000000 27.18140000

ATOMIC_POSITIONS {angstrom}
Li 0.00000000 0.00000000 -3.5906629400000014 0 0 0
Li 3.38535500 2.39380500 -1.1967970399999999 0 0 0
Li 3.38535500 7.18141500 -1.1967970399999999 0 0 0
Li 0.00000000 4.78761000 -3.5906629400000014 0 0 0
Li 0.00000000 4.76826806 1.06523907
Li 3.38535500 7.18141500 3.51265232
Li 3.38535500 2.39380500 3.55070628
Li 0.00000000 0.01934194 1.06523907
Ag 1.69267750 0.00000000 -1.1967970399999999 0 0 0
Ag 5.07803250 4.78761000 -1.1967970399999999 0 0 0
Ag 5.07803250 0.00000000 -1.1967970399999999 0 0 0
Ag 1.69267750 4.78761000 -1.1967970399999999 0 0 0
Ag 5.07803250 7.18141500 -3.5906629400000014 0 0 0
Ag 1.69267750 2.39380500 -3.5906629400000014 0 0 0
Ag 1.69267750 7.18141500 -3.5906629400000014 0 0 0
Ag 5.07803250 2.39380500 -3.5906629400000014 0 0 0
Ag 1.56931516 4.80867548 3.40691668
Ag 5.20132713 9.55405876 3.40691668
Ag 5.20139484 4.80867548 3.40691668
Ag 1.56931516 9.55415452 3.40691668
Ag 5.19238979 2.39380500 1.34792563
Ag 1.54934157 7.18141500 1.34738200
Ag 1.57832021 2.39380500 1.34792563
Ag 5.22136843 7.18141500 1.34738200
Sn 0.00000000 7.18141500 -1.1967970399999999 0 0 0
Sn 3.38535500 0.00000000 -3.5906629400000014 0 0 0
Sn 0.00000000 2.39380500 -1.1967970399999999 0 0 0
Sn 3.38535500 4.78761000 -3.5906629400000014 0 0 0
Sn 0.00000000 2.39380500 3.89101741
Sn 3.38535500 4.79373814 1.19136076
Sn 0.00000000 7.18141500 3.95271919
Sn 3.38535500 9.56909186 1.19136076
C 3.38535500 2.39380500 5.64367408
O 3.38535500 2.39380500 6.78447744
