&CONTROL
calculation = 'relax'
prefix = 'scf'
pseudo_dir = '/vol0004/mdt0/data/hp150275/u10028/POT_KKJUS'
outdir = './data'
tprnfor = .true.
nstep = 50
disk_io = 'non'
/
&SYSTEM
ibrav = 0
ecutwfc = 50.0
ecutrho = 400
occupations = 'smearing'
smearing = 'mp'
degauss = 0.01
assume_isolated = 'esm'
esm_bc = 'bc1'
input_dft = 'BEEF-VDW'
nosym = .true.
nspin = 1
ntyp = 4
nat = 33
/
&ELECTRONS
electron_maxstep = 200
mixing_beta = 0.1
conv_thr = 1e-06
/
&IONS
ion_dynamics = 'bfgs'
upscale = 1.0
/
&CELL
/

K_POINTS {automatic}
9 6 2 0  0  0

ATOMIC_SPECIES
Au 196.9 Au.pbe-n-rrkjus_psl.1.0.0.UPF
C 12.01 C.pbe-n-rrkjus_psl.1.0.0.UPF
Li 6.941 Li.pbe-sl-rrkjus_psl.1.0.0.UPF
Sb 121.7 Sb.pbe-n-rrkjus_psl.1.0.0.UPF

CELL_PARAMETERS {angstrom}
6.66546000 0.00000000 0.00000000
0.00000000 9.42638000 0.00000000
0.00000000 0.00000000 27.06980000

ATOMIC_POSITIONS {angstrom}
Li 0.00000000 7.06978500 -1.17834839 0 0 0
Li 3.33273000 0.00000000 -3.5347744799999994 0 0 0
Li 0.00000000 2.35659500 -1.17834839 0 0 0
Li 3.33273000 4.71319000 -3.5347744799999994 0 0 0
Li 1.66636500 2.35659500 -3.5347744799999994 0 0 0
Li 1.66636500 7.06978500 -3.5347744799999994 0 0 0
Li 4.99909500 4.71319000 -1.17834839 0 0 0
Li 4.99909500 0.00000000 -1.17834839 0 0 0
Li 6.60793708 2.35668926 3.53666937
Li 3.34692743 4.80773659 1.05193243
Li 6.65206243 7.06978500 3.32850261
Li 3.34699408 9.33183341 1.05193243
Li 1.68329527 7.06978500 1.26470106
Li 1.92625129 2.35659500 1.66289781
Li 4.62143004 0.26884036 3.61246481
Li 4.62163000 4.44500949 3.61273551
Sb 0.00000000 0.00000000 -3.5347744799999994 0 0 0
Sb 3.33273000 2.35659500 -1.17834839 0 0 0
Sb 3.33273000 7.06978500 -1.17834839 0 0 0
Sb 0.00000000 4.71319000 -3.5347744799999994 0 0 0
Sb 6.61566901 4.68340264 1.18538654
Sb 3.37432247 7.06987926 3.66146115
Sb 2.72184059 2.35668926 4.62731161
Sb 6.61560236 0.02978736 1.18538654
Au 1.66636500 0.00000000 -1.17834839 0 0 0
Au 1.66636500 4.71319000 -1.17834839 0 0 0
Au 4.99909500 7.06978500 -3.5347744799999994 0 0 0
Au 4.99909500 2.35659500 -3.5347744799999994 0 0 0
Au 1.75174954 4.73628463 3.30928305
Au 1.75174954 9.40347390 3.30928305
Au 4.58943583 2.35678353 1.40032075
Au 4.93304029 7.06969074 1.19025911
C 4.57323876 2.35668926 3.60732155
