&CONTROL
calculation = 'relax'
prefix = 'scf'
pseudo_dir = '/vol0004/mdt0/data/hp150275/u10028/POT_KKJUS'
outdir = './data'
tprnfor = .true.
nstep = 50
disk_io = 'non'
/
&SYSTEM
ibrav = 0
ecutwfc = 50.0
ecutrho = 400
occupations = 'smearing'
smearing = 'mp'
degauss = 0.01
assume_isolated = 'esm'
esm_bc = 'bc1'
input_dft = 'BEEF-VDW'
nosym = .true.
nspin = 1
ntyp = 2
nat = 32
/
&ELECTRONS
electron_maxstep = 200
mixing_beta = 0.1
conv_thr = 1e-06
/
&IONS
ion_dynamics = 'bfgs'
upscale = 1.0
/
&CELL
/

K_POINTS {automatic}
9 6 2 0  0  0

ATOMIC_SPECIES
Al 26.98 Al.pbe-nl-rrkjus_psl.1.0.0.UPF
Ti 47.86 Ti.pbe-spn-rrkjus_psl.1.0.0.UPF

CELL_PARAMETERS {angstrom}
6.37073000 0.00000000 0.00000000
0.00000000 9.00957000 0.00000000
0.00000000 0.00000000 26.75720000

ATOMIC_POSITIONS {angstrom}
Ti 0.00000000 0.00000000 -3.378631640000002 0 0 0
Ti 0.00000000 2.25239250 -1.1262105499999997 0 0 0
Ti 0.00000000 0.00000000 1.21879046
Ti 0.00000000 2.25239250 3.32591996
Ti 0.00000000 4.50478500 -3.378631640000002 0 0 0
Ti 0.00000000 6.75717750 -1.1262105499999997 0 0 0
Ti 0.00000000 4.50478500 1.21879046
Ti 0.00000000 6.75717750 3.32591996
Ti 3.18536500 0.00000000 -3.378631640000002 0 0 0
Ti 3.18536500 2.25239250 -1.1262105499999997 0 0 0
Ti 3.18536500 0.00000000 1.21879046
Ti 3.18536500 2.25239250 3.32591996
Ti 3.18536500 4.50478500 -3.378631640000002 0 0 0
Ti 3.18536500 6.75717750 -1.1262105499999997 0 0 0
Ti 3.18536500 4.50478500 1.21879046
Ti 3.18536500 6.75717750 3.32591996
Al 1.59268250 2.25239250 -3.378631640000002 0 0 0
Al 1.59268250 0.00000000 -1.1262105499999997 0 0 0
Al 1.59268250 2.25239250 1.10748051
Al 1.59268250 0.00000000 3.66948241
Al 1.59268250 6.75717750 -3.378631640000002 0 0 0
Al 1.59268250 4.50478500 -1.1262105499999997 0 0 0
Al 1.59268250 6.75717750 1.10748051
Al 1.59268250 4.50478500 3.66948241
Al 4.77804750 2.25239250 -3.378631640000002 0 0 0
Al 4.77804750 0.00000000 -1.1262105499999997 0 0 0
Al 4.77804750 2.25239250 1.10748051
Al 4.77804750 0.00000000 3.66948241
Al 4.77804750 6.75717750 -3.378631640000002 0 0 0
Al 4.77804750 4.50478500 -1.1262105499999997 0 0 0
Al 4.77804750 6.75717750 1.10748051
Al 4.77804750 4.50478500 3.66948241
