&CONTROL
calculation = 'relax'
prefix = 'scf'
pseudo_dir = '/vol0004/mdt0/data/hp150275/u10028/POT_KKJUS'
outdir = './data'
tprnfor = .true.
nstep = 50
disk_io = 'non'
/
&SYSTEM
ibrav = 0
ecutwfc = 50.0
ecutrho = 400
occupations = 'smearing'
smearing = 'mp'
degauss = 0.01
assume_isolated = 'esm'
esm_bc = 'bc1'
input_dft = 'BEEF-VDW'
nosym = .true.
nspin = 1
ntyp = 4
nat = 33
/
&ELECTRONS
electron_maxstep = 200
mixing_beta = 0.1
conv_thr = 1e-06
/
&IONS
ion_dynamics = 'bfgs'
upscale = 1.0
/
&CELL
/

K_POINTS {automatic}
8 6 1 0 0 0

ATOMIC_SPECIES
C 12.01 C.pbe-n-rrkjus_psl.1.0.0.UPF
In 114.8 In.pbe-dn-rrkjus_psl.1.0.0.UPF
Li 6.941 Li.pbe-sl-rrkjus_psl.1.0.0.UPF
Pt 195.0 Pt.pbe-n-rrkjus_psl.1.0.0.UPF

CELL_PARAMETERS {angstrom}
6.43375000 0.00000000 0.00000000
0.00000000 9.09870000 0.00000000
0.00000000 0.00000000 26.82400000

ATOMIC_POSITIONS {angstrom}
Li 0.00000000 6.82402500 -1.1373376000000022 0 0 0
Li 3.21687500 0.00000000 -3.412012800000003 0 0 0
Li 0.00000000 2.27467500 -1.1373376000000022 0 0 0
Li 3.21687500 4.54935000 -3.412012800000003 0 0 0
Li 1.60843750 2.27467500 -3.412012800000003 0 0 0
Li 1.60843750 6.82402500 -3.412012800000003 0 0 0
Li 4.82531250 4.54935000 -1.1373376000000022 0 0 0
Li 4.82531250 0.00000000 -1.1373376000000022 0 0 0
Li 0.23592561 2.26521235 3.20037144
Li 3.28539444 4.54935000 0.99302448
Li 0.23586128 6.83348765 3.20063968
Li 2.88367109 0.00000000 1.35836736
Li 1.58765649 6.76415555 1.00348584
Li 1.58772082 2.33454445 1.00348584
Li 4.93024696 0.00000000 3.34951288
Li 4.67148154 4.54935000 3.35004936
In 1.60843750 0.00000000 -1.1373376000000022 0 0 0
In 1.60843750 4.54935000 -1.1373376000000022 0 0 0
In 4.82531250 6.82402500 -3.412012800000003 0 0 0
In 4.82531250 2.27467500 -3.412012800000003 0 0 0
In 1.84603589 4.54935000 3.33502792
In 0.96737865 0.00000000 4.80149600
In 4.77873215 2.23473171 1.16657576
In 4.77873215 6.86396829 1.16657576
Pt 0.00000000 0.00000000 -3.412012800000003 0 0 0
Pt 3.21687500 2.27467500 -1.1373376000000022 0 0 0
Pt 3.21687500 6.82402500 -1.1373376000000022 0 0 0
Pt 0.00000000 4.54935000 -3.412012800000003 0 0 0
Pt 6.38807037 4.54935000 1.21539544
Pt 2.90065619 7.18169490 3.22907312
Pt 2.90072052 1.91700510 3.22907312
Pt 0.02052366 0.00000000 1.12473032
C 2.90084920 0.00000000 3.60621856
