&CONTROL
calculation = 'relax'
prefix = 'scf'
pseudo_dir = '/vol0004/mdt0/data/hp150275/u10028/POT_KKJUS'
outdir = './data'
tprnfor = .true.
nstep = 50
disk_io = 'non'
/
&SYSTEM
ibrav = 0
ecutwfc = 50.0
ecutrho = 400
occupations = 'smearing'
smearing = 'mp'
degauss = 0.01
assume_isolated = 'esm'
esm_bc = 'bc1'
input_dft = 'BEEF-VDW'
nosym = .true.
nspin = 1
ntyp = 4
nat = 33
/
&ELECTRONS
electron_maxstep = 200
mixing_beta = 0.1
conv_thr = 1e-06
/
&IONS
ion_dynamics = 'bfgs'
upscale = 1.0
/
&CELL
/

K_POINTS {automatic}
8 6 1 0 0 0

ATOMIC_SPECIES
C 12.01 C.pbe-n-rrkjus_psl.1.0.0.UPF
Pb 207.2 Pb.pbe-dn-rrkjus_psl.1.0.0.UPF
Pd 106.4 Pd.pbe-n-rrkjus_psl.1.0.0.UPF
Y 88.90 Y.pbe-spn-rrkjus_psl.1.0.0.UPF

CELL_PARAMETERS {angstrom}
6.95998000 0.00000000 0.00000000
0.00000000 9.84289000 0.00000000
0.00000000 0.00000000 27.38220000

ATOMIC_POSITIONS {angstrom}
Y 0.00000000 0.00000000 -3.6911205600000017 0 0 0
Y 3.47999000 2.46072250 -1.230282250000002 0 0 0
Y 3.47999000 7.38216750 -1.230282250000002 0 0 0
Y 0.00000000 4.92144500 -3.6911205600000017 0 0 0
Y 0.00000000 4.92144500 1.25437858
Y 3.47999000 7.49024243 3.66976244
Y 3.47999000 2.35264757 3.66976244
Y 0.00000000 0.00000000 1.33050110
Pd 1.73999500 0.00000000 -1.230282250000002 0 0 0
Pd 5.21998500 4.92144500 -1.230282250000002 0 0 0
Pd 5.21998500 0.00000000 -1.230282250000002 0 0 0
Pd 1.73999500 4.92144500 -1.230282250000002 0 0 0
Pd 5.21998500 7.38216750 -3.6911205600000017 0 0 0
Pd 1.73999500 2.46072250 -3.6911205600000017 0 0 0
Pd 1.73999500 7.38216750 -3.6911205600000017 0 0 0
Pd 5.21998500 2.46072250 -3.6911205600000017 0 0 0
Pd 1.75969174 4.92144500 3.51258862
Pd 5.55169765 0.00000000 3.81872161
Pd 5.20028826 4.92144500 3.51258862
Pd 1.40828235 0.00000000 3.81872161
Pd 5.25311450 2.48385329 1.30147597
Pd 1.70686550 7.35903671 1.30147597
Pd 1.70686550 2.48385329 1.30147597
Pd 5.25311450 7.35903671 1.30147597
Pb 0.00000000 7.38216750 -1.230282250000002 0 0 0
Pb 3.47999000 0.00000000 -3.6911205600000017 0 0 0
Pb 0.00000000 2.46072250 -1.230282250000002 0 0 0
Pb 3.47999000 4.92144500 -3.6911205600000017 0 0 0
Pb 0.00000000 2.55186766 3.91811900
Pb 3.47999000 4.92144500 1.20728120
Pb 0.00000000 7.29102234 3.91811900
Pb 3.47999000 0.00000000 1.22371052
C 3.47999000 0.00000000 3.76779072
