&CONTROL
calculation = 'relax'
prefix = 'scf'
pseudo_dir = '/vol0004/mdt0/data/hp150275/u10028/POT_HYBRID_KKJUS_GBRV'
outdir = './data'
tprnfor = .true.
nstep = 50
disk_io = 'non'
/
&SYSTEM
ibrav = 0
ecutwfc = 50.0
ecutrho = 400
occupations = 'smearing'
smearing = 'mp'
degauss = 0.01
assume_isolated = 'esm'
esm_bc = 'bc1'
input_dft = 'BEEF-VDW'
nosym = .true.
nspin = 2
ntyp = 4
nat = 33
starting_magnetization(1) = 0.0
starting_magnetization(2) = 0.1
starting_magnetization(3) = 0.0
starting_magnetization(4) = 0.001
/
&ELECTRONS
electron_maxstep = 300
mixing_beta = 0.1
conv_thr = 1e-06
/
&IONS
ion_dynamics = 'bfgs'
upscale = 1.0
/
&CELL
/

K_POINTS {automatic}
9 6 2 0  0  0

ATOMIC_SPECIES
C 12.01 C.pbe-n-rrkjus_psl.1.0.0.UPF
Fe 55.84 fe_pbe_v1.5.uspp.F.UPF
Ga 69.72 Ga.pbe-dnl-rrkjus_psl.1.0.0.UPF
Ni 58.69 ni_pbe_v1.4.uspp.F.UPF

CELL_PARAMETERS {angstrom}
5.81401000 0.00000000 0.00000000
0.00000000 8.22225000 0.00000000
0.00000000 0.00000000 26.16670000

ATOMIC_POSITIONS {angstrom}
Ga 0.00000000 0.00000000 -3.0832222599999994 0 0 0
Ga 2.90700500 2.05556250 -1.0278279799999979 0 0 0
Ga 2.90700500 6.16668750 -1.0278279799999979 0 0 0
Ga 0.00000000 4.11112500 -3.0832222599999994 0 0 0
Ga 0.00000000 4.11145389 1.08487138
Ga 2.90700500 6.20508541 3.71854974
Ga 2.90700500 2.01741126 3.71802640
Ga 0.00000000 8.22192111 0.92551618
Fe 1.45350250 0.00000000 -1.0278279799999979 0 0 0
Fe 4.36050750 4.11112500 -1.0278279799999979 0 0 0
Fe 4.36050750 0.00000000 -1.0278279799999979 0 0 0
Fe 1.45350250 4.11112500 -1.0278279799999979 0 0 0
Fe 4.36050750 6.16668750 -3.0832222599999994 0 0 0
Fe 1.45350250 2.05556250 -3.0832222599999994 0 0 0
Fe 1.45350250 6.16668750 -3.0832222599999994 0 0 0
Fe 4.36050750 2.05556250 -3.0832222599999994 0 0 0
Fe 1.66350454 4.11128945 3.03612220
Fe 4.49295065 0.00016445 3.00864717
Fe 4.15062174 4.11128945 3.03612220
Fe 1.32111749 0.00016445 3.00838550
Fe 4.20004082 2.06156474 1.28321497
Fe 1.61449244 6.16084970 1.28321497
Fe 1.61391104 2.06148252 1.28321497
Fe 4.19951756 6.16076748 1.28321497
Ni 0.00000000 6.16668750 -1.0278279799999979 0 0 0
Ni 2.90700500 0.00000000 -3.0832222599999994 0 0 0
Ni 0.00000000 2.05556250 -1.0278279799999979 0 0 0
Ni 2.90700500 4.11112500 -3.0832222599999994 0 0 0
Ni 0.00000000 2.15677840 3.03193553
Ni 2.90700500 4.11087833 0.78343100
Ni 0.00000000 6.06580049 3.03167386
Ni 2.90706314 0.00024667 0.84413774
C 2.90700500 0.00016445 4.00245843
