&CONTROL
calculation = 'relax'
prefix = 'scf'
pseudo_dir = '/vol0403/data/hp230205/u10028/POT_HYBRID_KKJUS_GBRV'
outdir = './data'
tprnfor = .true.
nstep = 50
disk_io = 'non'
/
&SYSTEM
ibrav = 0
ecutwfc = 50.0
ecutrho = 400
occupations = 'smearing'
smearing = 'mp'
degauss = 0.01
assume_isolated = 'esm'
esm_bc = 'bc1'
input_dft = 'BEEF-VDW'
nosym = .true.
nspin = 1
ntyp = 6
nat = 34
/
&ELECTRONS
electron_maxstep = 200
mixing_beta = 0.1
conv_thr = 1e-06
/
&IONS
ion_dynamics = 'bfgs'
upscale = 1.0
/
&CELL
/

K_POINTS {automatic}
7 6 2 0  0  0

ATOMIC_SPECIES
C 12.01 C.pbe-n-rrkjus_psl.1.0.0.UPF
Ga 69.72 Ga.pbe-dnl-rrkjus_psl.1.0.0.UPF
O 15.99 O.pbe-n-rrkjus_psl.1.0.0.UPF
Pd 106.4 Pd.pbe-n-rrkjus_psl.1.0.0.UPF
Sc 44.95 Sc.pbe-spn-rrkjus_psl.1.0.0.UPF
Y 88.90 Y.pbe-spn-rrkjus_psl.1.0.0.UPF


CELL_PARAMETERS {angstrom}
9.48206000 0.00000000 0.00000000
0.00000000 9.85606000 0.00000000
0.00000000 0.00000000 25.30050000

ATOMIC_POSITIONS {angstrom}
Y 0.00000000 2.43858637 0.96799713
Y 0.00000000 2.46401500 -2.6502273800000005 0 0 0
Y 0.00000000 7.41747363 0.96799713
Y 0.00000000 7.39204500 -2.6502273800000005 0 0 0
Y 4.74103000 2.46411356 0.94750372
Y 4.74103000 2.46401500 -2.6502273800000005 0 0 0
Y 4.74103000 7.39184788 0.94750372
Y 4.74103000 7.39204500 -2.6502273800000005 0 0 0
Sc 2.34112061 0.00000000 0.98267142
Sc 2.37051500 0.00000000 -2.6502273800000005 0 0 0
Sc 2.37250623 4.92803000 0.92549229
Sc 2.37051500 4.92803000 -2.6502273800000005 0 0 0
Sc 7.14093939 0.00000000 0.98292443
Sc 7.11154500 0.00000000 -2.6502273800000005 0 0 0
Sc 7.10955377 4.92803000 0.92574529
Sc 7.11154500 4.92803000 -2.6502273800000005 0 0 0
Ga 0.00000000 0.00000000 2.77470584
Ga 0.00000000 0.00000000 -0.8834934600000004 0 0 0
Ga 0.00000000 4.92803000 2.71094857
Ga 0.00000000 4.92803000 -0.8834934600000004 0 0 0
Ga 4.74093518 0.00000000 2.72587587
Ga 4.74103000 0.00000000 -0.8834934600000004 0 0 0
Ga 4.74103000 4.92803000 2.75446543
Ga 4.74103000 4.92803000 -0.8834934600000004 0 0 0
Pd 2.37535085 2.49634288 2.45920860
Pd 2.37051500 2.46401500 -0.8834934600000004 0 0 0
Pd 2.37535085 7.35961856 2.45920860
Pd 2.37051500 7.39204500 -0.8834934600000004 0 0 0
Pd 7.10670915 2.49644144 2.45895559
Pd 7.11154500 2.46401500 -0.8834934600000004 0 0 0
Pd 7.10670915 7.35971712 2.45920860
Pd 7.11154500 7.39204500 -0.8834934600000004 0 0 0
C 0.00000000 0.00000000 4.83113048
O 0.00000000 0.00000000 5.98078519
