&CONTROL
calculation = 'relax'
prefix = 'scf'
pseudo_dir = '/vol0004/mdt0/data/hp150275/u10028/POT_KKJUS'
outdir = './data'
tprnfor = .true.
nstep = 50
disk_io = 'non'
/
&SYSTEM
ibrav = 0
ecutwfc = 50.0
ecutrho = 400
occupations = 'smearing'
smearing = 'mp'
degauss = 0.01
assume_isolated = 'esm'
esm_bc = 'bc1'
input_dft = 'BEEF-VDW'
nosym = .true.
nspin = 1
ntyp = 5
nat = 18
/
&ELECTRONS
electron_maxstep = 200
mixing_beta = 0.1
conv_thr = 1e-06
/
&IONS
ion_dynamics = 'bfgs'
upscale = 1.0
/
&CELL
/

K_POINTS {automatic}
9 9 2 0  0  0

ATOMIC_SPECIES
Ag 107.8 Ag.pbe-n-rrkjus_psl.1.0.0.UPF
C 12.01 C.pbe-n-rrkjus_psl.1.0.0.UPF
Li 6.941 Li.pbe-sl-rrkjus_psl.1.0.0.UPF
O 15.99 O.pbe-n-rrkjus_psl.1.0.0.UPF
Pb 207.2 Pb.pbe-dn-rrkjus_psl.1.0.0.UPF

CELL_PARAMETERS {angstrom}
6.84524000 0.00000000 0.00000000
0.00000000 6.84524000 0.00000000
0.00000000 0.00000000 25.13390000

ATOMIC_POSITIONS {angstrom}
Li 6.82846916 0.01677084 0.80202275
Li 3.42262000 0.00000000 -2.566925210000001 0 0 0
Li 0.00000000 3.42262000 -2.566925210000001 0 0 0
Li 3.43932239 3.40584916 0.80202275
Li 1.71131000 1.71131000 2.76573436
Li 1.71131000 5.13393000 -0.8555579600000023 0 0 0
Li 5.13393000 5.13393000 2.76573436
Li 5.13393000 1.71131000 -0.8555579600000023 0 0 0
Ag 1.71131000 1.71131000 -0.8555579600000023 0 0 0
Ag 1.71131000 5.13393000 2.53073239
Ag 5.13393000 5.13393000 -0.8555579600000023 0 0 0
Ag 5.13393000 1.71131000 2.73004422
Pb 0.00000000 0.00000000 -2.566925210000001 0 0 0
Pb 3.42262000 3.42262000 -2.566925210000001 0 0 0
Pb 3.46992061 0.04730061 0.96539310
Pb 6.79800784 3.37531939 0.96564444
C 5.13393000 1.71131000 4.92448503
O 5.13399845 1.71124155 6.07310426
