&CONTROL
calculation = 'relax'
prefix = 'scf'
pseudo_dir = '/vol0403/data/hp230205/u10028/POT_HYBRID_KKJUS_GBRV'
outdir = './data'
tprnfor = .true.
nstep = 50
disk_io = 'non'
/
&SYSTEM
ibrav = 0
ecutwfc = 50.0
ecutrho = 400
occupations = 'smearing'
smearing = 'mp'
degauss = 0.01
assume_isolated = 'esm'
esm_bc = 'bc1'
input_dft = 'BEEF-VDW'
nosym = .true.
nspin = 1
ntyp = 4
nat = 32
/
&ELECTRONS
electron_maxstep = 200
mixing_beta = 0.1
conv_thr = 1e-06
/
&IONS
ion_dynamics = 'bfgs'
upscale = 1.0
/
&CELL
/

K_POINTS {automatic}
6 6 1 0 0 0

ATOMIC_SPECIES
Ga 69.72 Ga.pbe-dnl-rrkjus_psl.1.0.0.UPF
Li 6.941 Li.pbe-sl-rrkjus_psl.1.0.0.UPF
Mg 24.30 Mg.pbe-spnl-rrkjus_psl.1.0.0.UPF
Pd 106.4 Pd.pbe-n-rrkjus_psl.1.0.0.UPF


CELL_PARAMETERS {angstrom}
6.27706000 0.00000000 0.00000000
0.00000000 8.87710000 0.00000000
0.00000000 0.00000000 26.65780000

ATOMIC_POSITIONS {angstrom}
Li 1.56926500 0.00000000 -1.1097642100000016 0 0 0
Li 1.56926500 4.43855000 -1.1097642100000016 0 0 0
Li 4.70779500 2.21927500 -3.3290260600000003 0 0 0
Li 4.70779500 6.65782500 -3.3290260600000003 0 0 0
Li 1.72619150 4.43855000 3.53935611
Li 1.72619150 0.00000000 3.53962268
Li 4.73321709 6.65782500 1.11962760
Li 4.73315432 2.21927500 1.11962760
Mg 0.00000000 2.21927500 -1.1097642100000016 0 0 0
Mg 0.00000000 6.65782500 -1.1097642100000016 0 0 0
Mg 3.13853000 4.43855000 -3.3290260600000003 0 0 0
Mg 3.13853000 0.00000000 -3.3290260600000003 0 0 0
Mg 6.18039328 6.65782500 3.49990256
Mg 6.18045605 2.21927500 3.49990256
Mg 3.08636763 0.00000000 1.06977751
Mg 3.08636763 4.43855000 1.06977751
Ga 0.00000000 0.00000000 -3.3290260600000003 0 0 0
Ga 0.00000000 4.43855000 -3.3290260600000003 0 0 0
Ga 3.13853000 6.65782500 -1.1097642100000016 0 0 0
Ga 3.13853000 2.21927500 -1.1097642100000016 0 0 0
Ga 0.02040045 4.43855000 1.16361297
Ga 0.02040045 0.00000000 1.16361297
Ga 3.22483957 2.21927500 3.37567721
Ga 3.22483957 6.65782500 3.37567721
Pd 4.70779500 0.00000000 -1.1097642100000016 0 0 0
Pd 4.70779500 4.43855000 -1.1097642100000016 0 0 0
Pd 1.56926500 2.21927500 -3.3290260600000003 0 0 0
Pd 1.56926500 6.65782500 -3.3290260600000003 0 0 0
Pd 4.62587937 4.43855000 3.18693999
Pd 4.62587937 0.00000000 3.18693999
Pd 1.52337969 6.65782500 1.16814480
Pd 1.52337969 2.21927500 1.16814480
