&CONTROL
calculation = 'relax'
prefix = 'scf'
pseudo_dir = '/vol0004/mdt0/data/hp150275/u10028/POT_KKJUS'
outdir = './data'
tprnfor = .true.
nstep = 50
disk_io = 'non'
/
&SYSTEM
ibrav = 0
ecutwfc = 50.0
ecutrho = 400
occupations = 'smearing'
smearing = 'mp'
degauss = 0.01
assume_isolated = 'esm'
esm_bc = 'bc1'
input_dft = 'BEEF-VDW'
nosym = .true.
nspin = 1
ntyp = 4
nat = 18
/
&ELECTRONS
electron_maxstep = 200
mixing_beta = 0.1
conv_thr = 1e-06
/
&IONS
ion_dynamics = 'bfgs'
upscale = 1.0
/
&CELL
/

K_POINTS {automatic}
8 8 1 0 0 0

ATOMIC_SPECIES
Ag 107.8 Ag.pbe-n-rrkjus_psl.1.0.0.UPF
C 12.01 C.pbe-n-rrkjus_psl.1.0.0.UPF
In 114.8 In.pbe-dn-rrkjus_psl.1.0.0.UPF
O 15.99 O.pbe-n-rrkjus_psl.1.0.0.UPF

CELL_PARAMETERS {angstrom}
7.14855000 0.00000000 0.00000000
-0.00000000 7.14855000 0.00000000
0.00000000 0.00000000 25.36140000

ATOMIC_POSITIONS {angstrom}
In 0.00000000 0.00000000 -2.7085975200000014 0 0 0
In 0.00000000 0.00000000 0.86558458
In 0.00000000 3.57427500 -2.7085975200000014 0 0 0
In 0.00000000 3.57427500 0.86558458
In 3.57427500 0.00000000 -2.7085975200000014 0 0 0
In 3.57427500 -0.00000000 0.86558458
In 3.57427500 3.57427500 -2.7085975200000014 0 0 0
In 3.57427500 3.57427500 0.86558458
Ag 1.78713750 1.78713750 -0.9213796599999995 0 0 0
Ag 1.78713750 1.78713750 2.65280244
Ag 1.78713750 5.36141250 -0.9213796599999995 0 0 0
Ag 1.78713750 5.36141250 2.65280244
Ag 5.36141250 1.78713750 -0.9213796599999995 0 0 0
Ag 5.36141250 1.78713750 2.65280244
Ag 5.36141250 5.36141250 -0.9213796599999995 0 0 0
Ag 5.36141250 5.36141250 2.65280244
C 1.78713750 1.78713750 4.55287853
O 1.78713750 1.78713750 5.70276440
