&CONTROL
calculation = 'relax'
prefix = 'scf'
pseudo_dir = '/vol0403/data/hp230205/u10028/POT_HYBRID_KKJUS_GBRV'
outdir = './data'
tprnfor = .true.
nstep = 50
disk_io = 'non'
/
&SYSTEM
ibrav = 0
ecutwfc = 50.0
ecutrho = 400
occupations = 'smearing'
smearing = 'mp'
degauss = 0.01
assume_isolated = 'esm'
esm_bc = 'bc1'
input_dft = 'BEEF-VDW'
nosym = .true.
nspin = 1
ntyp = 6
nat = 34
/
&ELECTRONS
electron_maxstep = 200
mixing_beta = 0.1
conv_thr = 1e-06
/
&IONS
ion_dynamics = 'bfgs'
upscale = 1.0
/
&CELL
/

K_POINTS {automatic}
6 10 2 0  0  0

ATOMIC_SPECIES
C 12.01 C.pbe-n-rrkjus_psl.1.0.0.UPF
Ge 72.64 Ge.pbe-dn-rrkjus_psl.1.0.0.UPF
Li 6.941 Li.pbe-sl-rrkjus_psl.1.0.0.UPF
O 15.99 O.pbe-n-rrkjus_psl.1.0.0.UPF
Pd 106.4 Pd.pbe-n-rrkjus_psl.1.0.0.UPF
V 50.94 V.pbe-spnl-rrkjus_psl.1.0.0.UPF


CELL_PARAMETERS {angstrom}
9.40562000 0.00000000 0.00000000
0.00000000 5.68832000 0.00000000
0.00000000 0.00000000 26.48090000

ATOMIC_POSITIONS {angstrom}
Li 2.35112283 1.42208000 3.77538191
Li 2.35140500 1.42208000 -1.0801559099999984 0 0 0
Li 2.35196934 4.26624000 3.76346551
Li 2.35140500 4.26624000 -1.0801559099999984 0 0 0
Li 7.05534367 1.42208000 3.80292205
Li 7.05421500 1.42208000 -1.0801559099999984 0 0 0
Li 7.05430906 4.26624000 3.79947953
Li 7.05421500 4.26624000 -1.0801559099999984 0 0 0
V 0.02690007 1.42208000 1.03858090
V 0.00000000 1.42208000 -3.240467729999999 0 0 0
V 0.01072241 4.26624000 1.03725685
V 0.00000000 4.26624000 -3.240467729999999 0 0 0
V 4.67553370 1.42208000 1.03858090
V 4.70281000 1.42208000 -3.240467729999999 0 0 0
V 4.69180542 4.26624000 1.03778647
V 4.70281000 4.26624000 -3.240467729999999 0 0 0
Ge 9.34429536 5.68393999 3.20233524
Ge 0.00000000 0.00000000 -1.0801559099999984 0 0 0
Ge 9.34429536 2.84854001 3.20233524
Ge 0.00000000 2.84416000 -1.0801559099999984 0 0 0
Ge 4.76488709 5.68445194 3.20312966
Ge 4.70281000 0.00000000 -1.0801559099999984 0 0 0
Ge 4.76488709 2.84797117 3.20312966
Ge 4.70281000 2.84416000 -1.0801559099999984 0 0 0
Pd 2.35131094 0.00073948 1.57190622
Pd 2.35140500 0.00000000 -3.240467729999999 0 0 0
Pd 2.35131094 2.84342052 1.57190622
Pd 2.35140500 2.84416000 -3.240467729999999 0 0 0
Pd 7.05412094 5.68803558 1.55469364
Pd 7.05421500 0.00000000 -3.240467729999999 0 0 0
Pd 7.05412094 2.84444442 1.55469364
Pd 7.05421500 2.84416000 -3.240467729999999 0 0 0
C 2.35131094 1.42213688 5.87717095
O 2.35131094 1.42213688 7.01690888
