&CONTROL
calculation = 'relax'
prefix = 'scf'
pseudo_dir = '/vol0004/mdt0/data/hp150275/u10028/POT_HYBRID_KKJUS_GBRV'
outdir = './data'
tprnfor = .true.
nstep = 50
disk_io = 'non'
/
&SYSTEM
ibrav = 0
ecutwfc = 50.0
ecutrho = 400
occupations = 'smearing'
smearing = 'mp'
degauss = 0.01
assume_isolated = 'esm'
esm_bc = 'bc1'
input_dft = 'BEEF-VDW'
nosym = .true.
nspin = 2
ntyp = 4
nat = 33
starting_magnetization(1) = 0.0
starting_magnetization(2) = 0.0
starting_magnetization(3) = 0.1
starting_magnetization(4) = 0.0
/
&ELECTRONS
electron_maxstep = 300
mixing_beta = 0.1
conv_thr = 1e-06
/
&IONS
ion_dynamics = 'bfgs'
upscale = 1.0
/
&CELL
/

K_POINTS {automatic}
8 6 1 0 0 0

ATOMIC_SPECIES
Al 26.98 Al.pbe-nl-rrkjus_psl.1.0.0.UPF
C 12.01 C.pbe-n-rrkjus_psl.1.0.0.UPF
Fe 55.84 fe_pbe_v1.5.uspp.F.UPF
Ti 47.86 Ti.pbe-spn-rrkjus_psl.1.0.0.UPF

CELL_PARAMETERS {angstrom}
5.83886000 0.00000000 0.00000000
0.00000000 8.25739000 0.00000000
0.00000000 0.00000000 26.19300000

ATOMIC_POSITIONS {angstrom}
Ti 0.00000000 0.00000000 -3.096536460000003 0 0 0
Ti 2.91943000 2.06434750 -1.03226613 0 0 0
Ti 2.91943000 6.19304250 -1.03226613 0 0 0
Ti 0.00000000 4.12869500 -3.096536460000003 0 0 0
Ti 0.00000000 4.12869500 0.99009540
Ti 2.91943000 6.18940925 3.06274749
Ti 2.91943000 2.06798075 3.06274749
Ti 0.00000000 0.00000000 0.98118978
Al 0.00000000 6.19304250 -1.03226613 0 0 0
Al 2.91943000 0.00000000 -3.096536460000003 0 0 0
Al 0.00000000 2.06434750 -1.03226613 0 0 0
Al 2.91943000 4.12869500 -3.096536460000003 0 0 0
Al 0.00000000 2.01306911 3.21466689
Al 2.91943000 4.12869500 1.03069455
Al 0.00000000 6.24432089 3.21466689
Al 2.91943000 0.00000000 0.95971152
Fe 1.45971500 0.00000000 -1.03226613 0 0 0
Fe 4.37914500 4.12869500 -1.03226613 0 0 0
Fe 4.37914500 0.00000000 -1.03226613 0 0 0
Fe 1.45971500 4.12869500 -1.03226613 0 0 0
Fe 4.37914500 6.19304250 -3.096536460000003 0 0 0
Fe 1.45971500 2.06434750 -3.096536460000003 0 0 0
Fe 1.45971500 6.19304250 -3.096536460000003 0 0 0
Fe 4.37914500 2.06434750 -3.096536460000003 0 0 0
Fe 1.33558084 4.12869500 3.07008153
Fe 4.35164397 0.00000000 3.03393519
Fe 4.50327916 4.12869500 3.07008153
Fe 1.48721603 0.00000000 3.03393519
Fe 4.37120415 2.06707244 1.07993739
Fe 1.46759746 6.19031756 1.07993739
Fe 1.46765585 2.06707244 1.07993739
Fe 4.37126254 6.19031756 1.07993739
C 0.00000000 0.00000000 3.98814618
