&CONTROL
calculation = 'relax'
prefix = 'scf'
pseudo_dir = '/vol0004/mdt0/data/hp150275/u10028/POT_KKJUS'
outdir = './data'
tprnfor = .true.
nstep = 50
disk_io = 'non'
/
&SYSTEM
ibrav = 0
ecutwfc = 50.0
ecutrho = 400
occupations = 'smearing'
smearing = 'mp'
degauss = 0.01
assume_isolated = 'esm'
esm_bc = 'bc1'
input_dft = 'BEEF-VDW'
nosym = .true.
nspin = 1
ntyp = 2
nat = 16
/
&ELECTRONS
electron_maxstep = 200
mixing_beta = 0.1
conv_thr = 1e-06
/
&IONS
ion_dynamics = 'bfgs'
upscale = 1.0
/
&CELL
/

K_POINTS {automatic}
10 10 2 0  0  0

ATOMIC_SPECIES
Ga 69.72 Ga.pbe-dnl-rrkjus_psl.1.0.0.UPF
Rh 102.9 Rh.pbe-spn-rrkjus_psl.1.0.0.UPF

CELL_PARAMETERS {angstrom}
6.09666000 0.00000000 0.00000000
-0.00000000 6.09666000 0.00000000
0.00000000 0.00000000 24.57250000

ATOMIC_POSITIONS {angstrom}
Ga 0.00000000 0.00000000 -2.4326775000000005 0 0 0
Ga 0.00000000 0.00000000 0.61554113
Ga 0.00000000 3.04833000 -2.4326775000000005 0 0 0
Ga 0.00000000 3.04833000 0.61554113
Ga 3.04833000 0.00000000 -2.4326775000000005 0 0 0
Ga 3.04833000 -0.00000000 0.61554113
Ga 3.04833000 3.04833000 -2.4326775000000005 0 0 0
Ga 3.04833000 3.04833000 0.61554113
Rh 1.52416500 1.52416500 -0.9086910500000016 0 0 0
Rh 1.52416500 1.52416500 2.13977330
Rh 1.52416500 4.57249500 -0.9086910500000016 0 0 0
Rh 1.52416500 4.57249500 2.13977330
Rh 4.57249500 1.52416500 -0.9086910500000016 0 0 0
Rh 4.57249500 1.52416500 2.13977330
Rh 4.57249500 4.57249500 -0.9086910500000016 0 0 0
Rh 4.57249500 4.57249500 2.13977330
