&CONTROL
calculation = 'scf'
prefix = 'scf'
pseudo_dir = '/home/z44530w/QE_CAL/POT_KKJUS'
outdir = './data'
tprnfor = .true.
disk_io = 'non'
/
&SYSTEM
ibrav = 0
ecutwfc = 50.0
ecutrho = 400
occupations = 'smearing'
smearing = 'mp'
degauss = 0.01
input_dft = 'BEEF-VDW'
nspin = 1
ntyp = 2
nat = 33
/
&ELECTRONS
electron_maxstep = 200
mixing_beta = 0.1
conv_thr = 1e-06
/
&IONS
ion_dynamics = 'bfgs'
upscale = 1.0
/
&CELL
/

K_POINTS {automatic}
6 6 1 0 0 0

ATOMIC_SPECIES
C 12.01 C.pbe-n-rrkjus_psl.1.0.0.UPF
Ni 58.69 Ni.pbe-spn-rrkjus_psl.1.0.0.UPF

CELL_PARAMETERS {angstrom}
7.06729000 0.00000000 0.00000000
-0.00000000 7.06729000 0.00000000
0.00000000 0.00000000 25.30050000

ATOMIC_POSITIONS {angstrom}
Ni 0.00000000 0.00000000 -2.6502273800000005 0 0 0
Ni 1.76682250 1.76682250 -2.6502273800000005 0 0 0
Ni 1.76682250 0.00000000 -0.8834934600000004 0 0 0
Ni 0.00000000 1.76682250 -0.8834934600000004 0 0 0
Ni 0.00000000 0.00000000 0.88349346
Ni 1.76682250 1.76682250 0.88349346
Ni 1.76682250 -0.00000000 2.65022738
Ni 0.00000000 1.76682250 2.65022738
Ni 0.00000000 3.53364500 -2.6502273800000005 0 0 0
Ni 1.76682250 5.30046750 -2.6502273800000005 0 0 0
Ni 1.76682250 3.53364500 -0.8834934600000004 0 0 0
Ni 0.00000000 5.30046750 -0.8834934600000004 0 0 0
Ni 0.00000000 3.53364500 0.88349346
Ni 1.76682250 5.30046750 0.88349346
Ni 1.76682250 3.53364500 2.65022738
Ni 0.00000000 5.30046750 2.65022738
Ni 3.53364500 0.00000000 -2.6502273800000005 0 0 0
Ni 5.30046750 1.76682250 -2.6502273800000005 0 0 0
Ni 5.30046750 0.00000000 -0.8834934600000004 0 0 0
Ni 3.53364500 1.76682250 -0.8834934600000004 0 0 0
Ni 3.53364500 -0.00000000 0.88349346
Ni 5.30046750 1.76682250 0.88349346
Ni 5.30046750 -0.00000000 2.65022738
Ni 3.53364500 1.76682250 2.65022738
Ni 3.53364500 3.53364500 -2.6502273800000005 0 0 0
Ni 5.30046750 5.30046750 -2.6502273800000005 0 0 0
Ni 5.30046750 3.53364500 -0.8834934600000004 0 0 0
Ni 3.53364500 5.30046750 -0.8834934600000004 0 0 0
Ni 3.53364500 3.53364500 0.88349346
Ni 5.30046750 5.30046750 0.88349346
Ni 5.30046750 3.53364500 2.65022738
Ni 3.53364500 5.30046750 2.65022738
C 0.00000000 0.00000000 3.45022918
