&CONTROL
calculation = 'relax'
prefix = 'scf'
pseudo_dir = '/vol0403/data/hp230205/u10028/POT_HYBRID_KKJUS_GBRV'
outdir = './data'
tprnfor = .true.
nstep = 70
disk_io = 'non'
/
&SYSTEM
ibrav = 0
ecutwfc = 50.0
ecutrho = 400
occupations = 'smearing'
smearing = 'mp'
degauss = 0.01
assume_isolated = 'esm'
esm_bc = 'bc1'
input_dft = 'BEEF-VDW'
nosym = .true.
nspin = 1
ntyp = 6
nat = 34
/
&ELECTRONS
electron_maxstep = 200
mixing_beta = 0.1
conv_thr = 1e-06
/
&IONS
ion_dynamics = 'bfgs'
upscale = 1.0
/
&CELL
/

K_POINTS {automatic}
8 6 2 0  0  0

ATOMIC_SPECIES
C 12.01 C.pbe-n-rrkjus_psl.1.0.0.UPF
In 114.8 In.pbe-dn-rrkjus_psl.1.0.0.UPF
Li 6.941 Li.pbe-sl-rrkjus_psl.1.0.0.UPF
Mg 24.30 Mg.pbe-spnl-rrkjus_psl.1.0.0.UPF
O 15.99 O.pbe-n-rrkjus_psl.1.0.0.UPF
Y 88.90 Y.pbe-spn-rrkjus_psl.1.0.0.UPF


CELL_PARAMETERS {angstrom}
7.08651000 0.00000000 0.00000000
-0.00000000 10.02180000 0.00000000
0.00000000 0.00000000 27.51640000

ATOMIC_POSITIONS {angstrom}
Li 0.00000000 2.50545000 -1.252821690000001 0 0 0
Li 0.00000000 7.51635000 -1.252821690000001 0 0 0
Li 3.54325500 5.01090000 -3.7581899100000022 0 0 0
Li 3.54325500 0.00000000 -3.7581899100000022 0 0 0
Li 6.74756223 7.54030210 4.82775238
Li 6.74734963 2.48139768 4.82747722
Li 3.47210644 -0.00000000 1.33096827
Li 3.54112905 5.01090000 1.38435008
Y 1.77162750 0.00000000 -1.252821690000001 0 0 0
Y 1.77162750 5.01090000 -1.252821690000001 0 0 0
Y 5.31488250 2.50545000 -3.7581899100000022 0 0 0
Y 5.31488250 7.51635000 -3.7581899100000022 0 0 0
Y 1.62798394 5.01069956 3.82945739
Y 1.64981039 0.00010022 3.81212206
Y 5.31693759 7.54080319 1.49056339
Y 5.31686672 2.48079637 1.49056339
Mg 5.31488250 0.00000000 -1.252821690000001 0 0 0
Mg 5.31488250 5.01090000 -1.252821690000001 0 0 0
Mg 1.77162750 2.50545000 -3.7581899100000022 0 0 0
Mg 1.77162750 7.51635000 -3.7581899100000022 0 0 0
Mg 5.30510312 5.01079978 3.90237585
Mg 5.27902476 10.02149935 3.76561934
Mg 1.77899747 7.49700793 1.33482056
Mg 1.77906834 2.52469186 1.33509573
In 0.00000000 0.00000000 -3.7581899100000022 0 0 0
In 0.00000000 5.01090000 -3.7581899100000022 0 0 0
In 3.54325500 7.51635000 -1.252821690000001 0 0 0
In 3.54325500 2.50545000 -1.252821690000001 0 0 0
In 7.05738444 5.01090000 1.21044644
In 7.08027387 10.02169978 1.17797708
In 3.47529537 2.51256548 4.04738728
In 3.47522450 7.50893387 4.04683695
C 0.43681248 10.02159956 5.83237614
O 0.02218078 10.02169978 6.93523346
