&CONTROL
calculation = 'relax'
prefix = 'scf'
pseudo_dir = '/vol0004/mdt0/data/hp150275/u10028/POT_KKJUS'
outdir = './data'
tprnfor = .true.
nstep = 50
disk_io = 'non'
/
&SYSTEM
ibrav = 0
ecutwfc = 50.0
ecutrho = 400
occupations = 'smearing'
smearing = 'mp'
degauss = 0.01
assume_isolated = 'esm'
esm_bc = 'bc1'
input_dft = 'BEEF-VDW'
nosym = .true.
nspin = 1
ntyp = 5
nat = 34
/
&ELECTRONS
electron_maxstep = 200
mixing_beta = 0.1
conv_thr = 1e-06
/
&IONS
ion_dynamics = 'bfgs'
upscale = 1.0
/
&CELL
/

K_POINTS {automatic}
9 6 2 0  0  0

ATOMIC_SPECIES
Au 196.9 Au.pbe-n-rrkjus_psl.1.0.0.UPF
C 12.01 C.pbe-n-rrkjus_psl.1.0.0.UPF
Ga 69.72 Ga.pbe-dnl-rrkjus_psl.1.0.0.UPF
Li 6.941 Li.pbe-sl-rrkjus_psl.1.0.0.UPF
O 15.99 O.pbe-n-rrkjus_psl.1.0.0.UPF

CELL_PARAMETERS {angstrom}
6.29417000 0.00000000 0.00000000
0.00000000 8.90130000 0.00000000
0.00000000 0.00000000 26.67600000

ATOMIC_POSITIONS {angstrom}
Li 0.00000000 6.67597500 -1.112655959999998 0 0 0
Li 3.14708500 0.00000000 -3.3379678799999972 0 0 0
Li 0.00000000 2.22532500 -1.112655959999998 0 0 0
Li 3.14708500 4.45065000 -3.3379678799999972 0 0 0
Li 1.57354250 2.22532500 -3.3379678799999972 0 0 0
Li 1.57354250 6.67597500 -3.3379678799999972 0 0 0
Li 4.72062750 4.45065000 -1.112655959999998 0 0 0
Li 4.72062750 0.00000000 -1.112655959999998 0 0 0
Li 0.12550575 2.18019541 3.45160764
Li 3.21298496 4.45065000 0.94566420
Li 0.12550575 6.72110459 3.45160764
Li 3.24181226 0.00008901 0.94246308
Li 1.59714564 6.68211690 1.11692412
Li 1.59689387 2.21936113 1.11692412
Li 4.58712815 0.00000000 3.30942456
Li 4.59486998 4.45065000 3.25393848
Ga 0.00000000 0.00000000 -3.3379678799999972 0 0 0
Ga 3.14708500 2.22532500 -1.112655959999998 0 0 0
Ga 3.14708500 6.67597500 -1.112655959999998 0 0 0
Ga 0.00000000 4.45065000 -3.3379678799999972 0 0 0
Ga 6.26364328 4.45073901 1.08517968
Ga 3.06110664 6.66849791 3.55297644
Ga 3.06104370 2.23280209 3.55270968
Ga 6.25489438 0.00000000 1.09745064
Au 1.57354250 0.00000000 -1.112655959999998 0 0 0
Au 1.57354250 4.45065000 -1.112655959999998 0 0 0
Au 4.72062750 6.67597500 -3.3379678799999972 0 0 0
Au 4.72062750 2.22532500 -3.3379678799999972 0 0 0
Au 1.71182541 4.45065000 3.08561292
Au 1.76394114 0.00000000 3.04799976
Au 4.71043094 2.22959762 1.25723988
Au 4.71030506 6.67188040 1.25723988
C 5.08701114 0.00000000 5.31065808
O 5.17431127 8.90121099 6.45452496
