&CONTROL
calculation = 'relax'
prefix = 'scf'
pseudo_dir = '/vol0004/mdt0/data/hp150275/u10028/POT_KKJUS'
outdir = './data'
tprnfor = .true.
nstep = 50
disk_io = 'non'
/
&SYSTEM
ibrav = 0
ecutwfc = 50.0
ecutrho = 400
occupations = 'smearing'
smearing = 'mp'
degauss = 0.01
assume_isolated = 'esm'
esm_bc = 'bc1'
input_dft = 'BEEF-VDW'
nosym = .true.
nspin = 1
ntyp = 3
nat = 33
/
&ELECTRONS
electron_maxstep = 200
mixing_beta = 0.1
conv_thr = 1e-06
/
&IONS
ion_dynamics = 'bfgs'
upscale = 1.0
/
&CELL
/

K_POINTS {automatic}
9 6 2 0  0  0

ATOMIC_SPECIES
C 12.01 C.pbe-n-rrkjus_psl.1.0.0.UPF
Ga 69.72 Ga.pbe-dnl-rrkjus_psl.1.0.0.UPF
Ru 101.0 Ru.pbe-spn-rrkjus_psl.1.0.0.UPF

CELL_PARAMETERS {angstrom}
6.07363000 0.00000000 0.00000000
0.00000000 8.58941000 0.00000000
0.00000000 0.00000000 26.44210000

ATOMIC_POSITIONS {angstrom}
Ga 0.00000000 0.00000000 -3.220912200000001 0 0 0
Ga 0.00000000 2.14735250 -1.07354926 0 0 0
Ga 0.00000000 8.58923821 1.05927053
Ga 0.00000000 2.28366644 3.28410882
Ga 0.00000000 4.29470500 -3.220912200000001 0 0 0
Ga 0.00000000 6.44205750 -1.07354926 0 0 0
Ga 0.00000000 4.29487679 1.04393411
Ga 0.00000000 6.30574356 3.28384440
Ga 3.03681500 0.00000000 -3.220912200000001 0 0 0
Ga 3.03681500 2.14735250 -1.07354926 0 0 0
Ga 3.03681500 8.58923821 1.00030464
Ga 3.03681500 2.12338805 3.34571891
Ga 3.03681500 4.29470500 -3.220912200000001 0 0 0
Ga 3.03681500 6.44205750 -1.07354926 0 0 0
Ga 3.03681500 4.29487679 1.02040064
Ga 3.03681500 6.46602195 3.34571891
Ru 1.51840750 2.14735250 -3.220912200000001 0 0 0
Ru 1.51840750 0.00000000 -1.07354926 0 0 0
Ru 1.51130135 2.12605076 1.05874168
Ru 1.47795712 0.00000000 3.24894083
Ru 1.51840750 6.44205750 -3.220912200000001 0 0 0
Ru 1.51840750 4.29470500 -1.07354926 0 0 0
Ru 1.51130135 6.46327334 1.05874168
Ru 1.58612847 4.29470500 3.12016780
Ru 4.55522250 2.14735250 -3.220912200000001 0 0 0
Ru 4.55522250 0.00000000 -1.07354926 0 0 0
Ru 4.56232865 2.12605076 1.05874168
Ru 4.59567288 0.00000000 3.24894083
Ru 4.55522250 6.44205750 -3.220912200000001 0 0 0
Ru 4.55522250 4.29470500 -1.07354926 0 0 0
Ru 4.56232865 6.46327334 1.05874168
Ru 4.48750153 4.29470500 3.12016780
C 0.00000000 0.00000000 4.35236966
