&CONTROL
calculation = 'relax'
prefix = 'scf'
pseudo_dir = '/vol0403/data/hp230205/u10028/POT_HYBRID_KKJUS_GBRV'
outdir = './data'
tprnfor = .true.
nstep = 50
disk_io = 'non'
/
&SYSTEM
ibrav = 0
ecutwfc = 50.0
ecutrho = 400
occupations = 'smearing'
smearing = 'mp'
degauss = 0.01
assume_isolated = 'esm'
esm_bc = 'bc1'
input_dft = 'BEEF-VDW'
nosym = .true.
nspin = 1
ntyp = 6
nat = 18
/
&ELECTRONS
electron_maxstep = 200
mixing_beta = 0.1
conv_thr = 1e-06
/
&IONS
ion_dynamics = 'bfgs'
upscale = 1.0
/
&CELL
/

K_POINTS {automatic}
6 6 1 0 0 0

ATOMIC_SPECIES
C 12.01 C.pbe-n-rrkjus_psl.1.0.0.UPF
Ga 69.72 Ga.pbe-dnl-rrkjus_psl.1.0.0.UPF
O 15.99 O.pbe-n-rrkjus_psl.1.0.0.UPF
Pd 106.4 Pd.pbe-n-rrkjus_psl.1.0.0.UPF
Sc 44.95 Sc.pbe-spn-rrkjus_psl.1.0.0.UPF
Y 88.90 Y.pbe-spn-rrkjus_psl.1.0.0.UPF


CELL_PARAMETERS {angstrom}
7.06732000 0.00000000 0.00000000
0.00000000 6.83834000 0.00000000
0.00000000 0.00000000 25.12490000

ATOMIC_POSITIONS {angstrom}
Y 1.76386173 5.03144542 1.05172831
Y 1.76683000 1.51127314 -2.562488550000001 0 0 0
Y 5.30317558 5.03062482 1.05197956
Y 5.30049000 1.51127314 -2.562488550000001 0 0 0
Sc 1.75700643 1.55168773 0.70399970
Sc 1.76683000 4.93044314 -2.562488550000001 0 0 0
Sc 5.30890011 1.55141420 0.70425095
Sc 5.30049000 4.93044314 -2.562488550000001 0 0 0
Ga 0.00049471 0.37262115 2.57731224
Ga 0.00000000 3.28698489 -0.8542465999999997 0 0 0
Ga 3.53210519 0.19626036 2.58510096
Ga 3.53366000 3.28698489 -0.8542465999999997 0 0 0
Pd 0.00014135 3.07362868 2.30621457
Pd 0.00000000 6.70615489 -0.8542465999999997 0 0 0
Pd 3.53259990 2.95936002 2.14767645
Pd 3.53366000 6.70615489 -0.8542465999999997 0 0 0
C 0.00028269 3.93416539 4.10465491
O 0.00063606 4.20516880 5.22321546
