&CONTROL
calculation = 'relax'
prefix = 'scf'
pseudo_dir = '/vol0403/data/hp230205/u10028/POT_HYBRID_KKJUS_GBRV'
outdir = './data'
tprnfor = .true.
nstep = 50
disk_io = 'non'
/
&SYSTEM
ibrav = 0
ecutwfc = 50.0
ecutrho = 400
occupations = 'smearing'
smearing = 'mp'
degauss = 0.01
assume_isolated = 'esm'
esm_bc = 'bc1'
input_dft = 'BEEF-VDW'
nosym = .true.
nspin = 1
ntyp = 4
nat = 32
/
&ELECTRONS
electron_maxstep = 200
mixing_beta = 0.1
conv_thr = 1e-06
/
&IONS
ion_dynamics = 'bfgs'
upscale = 1.0
/
&CELL
/

K_POINTS {automatic}
6 6 1 0 0 0

ATOMIC_SPECIES
In 114.8 In.pbe-dn-rrkjus_psl.1.0.0.UPF
Li 6.941 Li.pbe-sl-rrkjus_psl.1.0.0.UPF
Mg 24.30 Mg.pbe-spnl-rrkjus_psl.1.0.0.UPF
Pb 207.2 Pb.pbe-dn-rrkjus_psl.1.0.0.UPF


CELL_PARAMETERS {angstrom}
7.11424000 0.00000000 0.00000000
0.00000000 10.06110000 0.00000000
0.00000000 0.00000000 27.54580000

ATOMIC_POSITIONS {angstrom}
Li 5.33568000 0.00000000 -1.2577412300000006 0 0 0
Li 5.33568000 5.03055000 -1.2577412300000006 0 0 0
Li 1.77856000 2.51527500 -3.772948230000001 0 0 0
Li 1.77856000 7.54582500 -3.772948230000001 0 0 0
Li 5.33952169 5.03065061 3.85723837
Li 5.33980626 0.00000000 3.84649551
Li 1.75743071 7.54823966 1.36957718
Li 1.75743071 2.51286034 1.36957718
Mg 1.77856000 0.00000000 -1.2577412300000006 0 0 0
Mg 1.77856000 5.03055000 -1.2577412300000006 0 0 0
Mg 5.33568000 2.51527500 -3.772948230000001 0 0 0
Mg 5.33568000 7.54582500 -3.772948230000001 0 0 0
Mg 1.77158804 5.03055000 4.04757985
Mg 1.77229947 0.00000000 4.03904065
Mg 5.35225618 7.53948651 1.43733984
Mg 5.35225618 2.52161349 1.43733984
In 0.00000000 0.00000000 -3.772948230000001 0 0 0
In 0.00000000 5.03055000 -3.772948230000001 0 0 0
In 3.55712000 7.54582500 -1.2577412300000006 0 0 0
In 3.55712000 2.51527500 -1.2577412300000006 0 0 0
In 0.04859026 5.03055000 1.41365046
In 0.04346801 0.00000000 1.40786584
In 3.58130842 2.51527500 4.15831397
In 3.58130842 7.54582500 4.15858943
Pb 0.00000000 2.51527500 -1.2577412300000006 0 0 0
Pb 0.00000000 7.54582500 -1.2577412300000006 0 0 0
Pb 3.55712000 5.03055000 -3.772948230000001 0 0 0
Pb 3.55712000 0.00000000 -3.772948230000001 0 0 0
Pb 7.06728602 7.54622744 4.15363118
Pb 7.06728602 2.51487256 4.15390664
Pb 3.53044160 0.00000000 1.39133836
Pb 3.52304279 5.03055000 1.39574569
