&CONTROL
calculation = 'relax'
prefix = 'scf'
pseudo_dir = '/vol0004/mdt0/data/hp150275/u10028/POT_KKJUS'
outdir = './data'
tprnfor = .true.
nstep = 50
disk_io = 'non'
/
&SYSTEM
ibrav = 0
ecutwfc = 50.0
ecutrho = 400
occupations = 'smearing'
smearing = 'mp'
degauss = 0.01
assume_isolated = 'esm'
esm_bc = 'bc1'
input_dft = 'BEEF-VDW'
nosym = .true.
nspin = 1
ntyp = 5
nat = 34
/
&ELECTRONS
electron_maxstep = 200
mixing_beta = 0.1
conv_thr = 1e-06
/
&IONS
ion_dynamics = 'bfgs'
upscale = 1.0
/
&CELL
/

K_POINTS {automatic}
8 6 1 0 0 0

ATOMIC_SPECIES
Al 26.98 Al.pbe-nl-rrkjus_psl.1.0.0.UPF
C 12.01 C.pbe-n-rrkjus_psl.1.0.0.UPF
Cu 63.54 Cu.pbe-dn-rrkjus_psl.1.0.0.UPF
Hf 178.4 Hf.pbe-spn-rrkjus_psl.1.0.0.UPF
O 15.99 O.pbe-n-rrkjus_psl.1.0.0.UPF

CELL_PARAMETERS {angstrom}
6.21964000 0.00000000 0.00000000
0.00000000 8.79589000 0.00000000
0.00000000 0.00000000 26.59690000

ATOMIC_POSITIONS {angstrom}
Hf 0.00000000 0.00000000 -3.2985475400000013 0 0 0
Hf 3.10982000 2.19897250 -1.099515850000003 0 0 0
Hf 3.10982000 6.59691750 -1.099515850000003 0 0 0
Hf 0.00000000 4.39794500 -3.2985475400000013 0 0 0
Hf 0.00000000 4.39917642 1.12079337
Hf 3.10982000 6.59691750 3.30865436
Hf 3.10982000 2.19897250 3.28923862
Hf 0.00000000 8.79465858 1.12079337
Al 0.00000000 6.59691750 -1.099515850000003 0 0 0
Al 3.10982000 0.00000000 -3.2985475400000013 0 0 0
Al 0.00000000 2.19897250 -1.099515850000003 0 0 0
Al 3.10982000 4.39794500 -3.2985475400000013 0 0 0
Al 0.00000000 2.19897250 3.24296002
Al 3.10982000 4.40858803 1.09978182
Al 0.00000000 6.59691750 3.32913397
Al 3.10982000 8.78524697 1.09978182
Cu 1.55491000 0.00000000 -1.099515850000003 0 0 0
Cu 4.66473000 4.39794500 -1.099515850000003 0 0 0
Cu 4.66473000 0.00000000 -1.099515850000003 0 0 0
Cu 1.55491000 4.39794500 -1.099515850000003 0 0 0
Cu 4.66473000 6.59691750 -3.2985475400000013 0 0 0
Cu 1.55491000 2.19897250 -3.2985475400000013 0 0 0
Cu 1.55491000 6.59691750 -3.2985475400000013 0 0 0
Cu 4.66473000 2.19897250 -3.2985475400000013 0 0 0
Cu 1.59029975 4.42046248 3.27833389
Cu 4.62940244 8.77337252 3.27833389
Cu 4.62934025 4.42046248 3.27833389
Cu 1.59023756 8.77337252 3.27833389
Cu 4.62840730 2.19897250 1.11387817
Cu 1.57282256 6.59691750 1.11839964
Cu 1.59123270 2.19897250 1.11387817
Cu 4.64681744 6.59691750 1.11839964
C 0.00000000 2.19897250 5.21645000
O 0.00000000 2.19897250 6.37341515
