&CONTROL
calculation = 'relax'
prefix = 'scf'
pseudo_dir = '/vol0004/mdt0/data/hp150275/u10028/POT_KKJUS'
outdir = './data'
tprnfor = .true.
nstep = 50
disk_io = 'non'
/
&SYSTEM
ibrav = 0
ecutwfc = 50.0
ecutrho = 400
occupations = 'smearing'
smearing = 'mp'
degauss = 0.01
assume_isolated = 'esm'
esm_bc = 'bc1'
input_dft = 'BEEF-VDW'
nosym = .true.
nspin = 1
ntyp = 4
nat = 33
/
&ELECTRONS
electron_maxstep = 200
mixing_beta = 0.1
conv_thr = 1e-06
/
&IONS
ion_dynamics = 'bfgs'
upscale = 1.0
/
&CELL
/

K_POINTS {automatic}
9 6 2 0  0  0

ATOMIC_SPECIES
Al 26.98 Al.pbe-nl-rrkjus_psl.1.0.0.UPF
C 12.01 C.pbe-n-rrkjus_psl.1.0.0.UPF
Cu 63.54 Cu.pbe-dn-rrkjus_psl.1.0.0.UPF
Ti 47.86 Ti.pbe-spn-rrkjus_psl.1.0.0.UPF

CELL_PARAMETERS {angstrom}
6.05884000 0.00000000 0.00000000
0.00000000 8.56849000 0.00000000
0.00000000 0.00000000 26.42640000

ATOMIC_POSITIONS {angstrom}
Ti 0.00000000 0.00000000 -3.213185980000002 0 0 0
Ti 3.02942000 2.14212250 -1.0710619900000005 0 0 0
Ti 3.02942000 6.42636750 -1.0710619900000005 0 0 0
Ti 0.00000000 4.28424500 -3.213185980000002 0 0 0
Ti 0.00000000 4.28424500 1.08321814
Ti 3.02942000 6.57160341 3.13839926
Ti 3.02942000 1.99688659 3.13839926
Ti 0.00000000 0.00000000 1.13104992
Al 0.00000000 6.42636750 -1.0710619900000005 0 0 0
Al 3.02942000 0.00000000 -3.213185980000002 0 0 0
Al 0.00000000 2.14212250 -1.0710619900000005 0 0 0
Al 3.02942000 4.28424500 -3.213185980000002 0 0 0
Al 0.00000000 2.24083150 3.19204486
Al 3.02942000 4.28424500 1.04912808
Al 0.00000000 6.32765850 3.19230912
Al 3.02942000 0.00000000 1.13078566
Cu 1.51471000 0.00000000 -1.0710619900000005 0 0 0
Cu 4.54413000 4.28424500 -1.0710619900000005 0 0 0
Cu 4.54413000 0.00000000 -1.0710619900000005 0 0 0
Cu 1.51471000 4.28424500 -1.0710619900000005 0 0 0
Cu 4.54413000 6.42636750 -3.213185980000002 0 0 0
Cu 1.51471000 2.14212250 -3.213185980000002 0 0 0
Cu 1.51471000 6.42636750 -3.213185980000002 0 0 0
Cu 4.54413000 2.14212250 -3.213185980000002 0 0 0
Cu 1.59068785 4.28450205 3.20922202
Cu 4.91081100 8.56831863 3.51180430
Cu 4.46815215 4.28450205 3.20922202
Cu 1.14802900 8.56831863 3.51180430
Cu 4.54310000 2.15763147 1.02640138
Cu 1.51580059 6.41085853 1.02692990
Cu 1.51574000 2.15763147 1.02640138
Cu 4.54303941 6.41085853 1.02692990
C 3.02942000 0.00008568 3.41191250
