&CONTROL
calculation = 'relax'
prefix = 'scf'
pseudo_dir = '/vol0403/data/hp230205/u10028/POT_HYBRID_KKJUS_GBRV'
outdir = './data'
tprnfor = .true.
nstep = 50
disk_io = 'non'
/
&SYSTEM
ibrav = 0
ecutwfc = 50.0
ecutrho = 400
occupations = 'smearing'
smearing = 'mp'
degauss = 0.01
assume_isolated = 'esm'
esm_bc = 'bc1'
input_dft = 'BEEF-VDW'
nosym = .true.
nspin = 1
ntyp = 5
nat = 17
/
&ELECTRONS
electron_maxstep = 200
mixing_beta = 0.1
conv_thr = 1e-06
/
&IONS
ion_dynamics = 'bfgs'
upscale = 1.0
/
&CELL
/

K_POINTS {automatic}
11 8 2 0  0  0

ATOMIC_SPECIES
C 12.01 C.pbe-n-rrkjus_psl.1.0.0.UPF
In 114.8 In.pbe-dn-rrkjus_psl.1.0.0.UPF
Li 6.941 Li.pbe-sl-rrkjus_psl.1.0.0.UPF
Sn 118.7 Sn.pbe-dn-rrkjus_psl.1.0.0.UPF
Y 88.90 Y.pbe-spn-rrkjus_psl.1.0.0.UPF


CELL_PARAMETERS {angstrom}
6.44949000 0.00000000 0.00000000
0.00000000 9.04200000 0.00000000
0.00000000 0.00000000 24.82990000

ATOMIC_POSITIONS {angstrom}
Li 1.52440146 2.26050000 -0.8049853599999999 0 0 0
Li 4.08168874 2.31836880 2.62154084
Li 1.52440146 6.78150000 -0.8049853599999999 0 0 0
Li 4.08155975 6.72372162 2.62154084
Y 3.22474500 0.00000000 -2.414956069999999 0 0 0
Y 5.96332744 0.00000000 0.91572671
Y 3.22474500 4.52100000 -2.414956069999999 0 0 0
Y 6.19151040 4.52100000 1.04409729
In 0.00000000 0.00000000 -2.414956069999999 0 0 0
In 2.81604082 0.00000000 0.99145791
In 0.00000000 4.52100000 -2.414956069999999 0 0 0
In 2.95921950 4.52100000 0.95222666
Sn 4.74914646 2.26050000 -0.8049853599999999 0 0 0
Sn 0.95871669 2.13798090 2.92496222
Sn 4.74914646 6.78150000 -0.8049853599999999 0 0 0
Sn 0.95865219 6.90392868 2.92496222
C 1.06416585 0.00000000 2.61657486
