&CONTROL
calculation = 'relax'
prefix = 'scf'
pseudo_dir = '/vol0004/mdt0/data/hp150275/u10028/POT_HYBRID_KKJUS_GBRV'
outdir = './data'
tprnfor = .true.
nstep = 50
disk_io = 'non'
/
&SYSTEM
ibrav = 0
ecutwfc = 50.0
ecutrho = 400
occupations = 'smearing'
smearing = 'mp'
degauss = 0.01
assume_isolated = 'esm'
esm_bc = 'bc1'
input_dft = 'BEEF-VDW'
nosym = .true.
nspin = 2
ntyp = 4
nat = 33
starting_magnetization(1) = 0.0
starting_magnetization(2) = 0.0
starting_magnetization(3) = 0.001
starting_magnetization(4) = 0.0
/
&ELECTRONS
electron_maxstep = 300
mixing_beta = 0.1
conv_thr = 1e-06
/
&IONS
ion_dynamics = 'bfgs'
upscale = 1.0
/
&CELL
/

K_POINTS {automatic}
8 6 1 0 0 0

ATOMIC_SPECIES
C 12.01 C.pbe-n-rrkjus_psl.1.0.0.UPF
Mg 24.30 Mg.pbe-spnl-rrkjus_psl.1.0.0.UPF
Ni 58.69 ni_pbe_v1.4.uspp.F.UPF
Sn 118.7 Sn.pbe-dn-rrkjus_psl.1.0.0.UPF

CELL_PARAMETERS {angstrom}
6.21377000 0.00000000 0.00000000
0.00000000 8.78760000 0.00000000
0.00000000 0.00000000 26.59070000

ATOMIC_POSITIONS {angstrom}
Mg 0.00000000 0.00000000 -3.2953854499999977 0 0 0
Mg 3.10688500 2.19690000 -1.0984618199999971 0 0 0
Mg 3.10688500 6.59070000 -1.0984618199999971 0 0 0
Mg 0.00000000 4.39380000 -3.2953854499999977 0 0 0
Mg 0.00000000 4.39388788 1.01576474
Mg 3.10688500 6.49869383 3.51662008
Mg 3.10688500 2.28881830 3.51662008
Mg 0.00000000 0.00000000 1.18621113
Ni 1.55344250 0.00000000 -1.0984618199999971 0 0 0
Ni 4.66032750 4.39380000 -1.0984618199999971 0 0 0
Ni 4.66032750 0.00000000 -1.0984618199999971 0 0 0
Ni 1.55344250 4.39380000 -1.0984618199999971 0 0 0
Ni 4.66032750 6.59070000 -3.2953854499999977 0 0 0
Ni 1.55344250 2.19690000 -3.2953854499999977 0 0 0
Ni 1.55344250 6.59070000 -3.2953854499999977 0 0 0
Ni 4.66032750 2.19690000 -3.2953854499999977 0 0 0
Ni 1.51435789 4.39380000 3.09755064
Ni 4.44657381 8.78751212 3.25151080
Ni 4.69941211 4.39380000 3.09755064
Ni 1.76719619 8.78751212 3.25151080
Ni 4.67151229 2.22642634 1.16174768
Ni 1.54225771 6.56126154 1.16174768
Ni 1.54225771 2.22642634 1.16174768
Ni 4.67151229 6.56126154 1.16174768
Sn 0.00000000 6.59070000 -1.0984618199999971 0 0 0
Sn 3.10688500 0.00000000 -3.2953854499999977 0 0 0
Sn 0.00000000 2.19690000 -1.0984618199999971 0 0 0
Sn 3.10688500 4.39380000 -3.2953854499999977 0 0 0
Sn 0.00000000 2.30366934 3.48737030
Sn 3.10688500 4.39380000 1.06602116
Sn 0.00000000 6.48393066 3.48737030
Sn 3.10688500 0.00000000 1.05139628
C 0.00000000 0.00000000 3.60915571
