&CONTROL
calculation = 'relax'
prefix = 'scf'
pseudo_dir = '/vol0004/mdt0/data/hp150275/u10028/POT_KKJUS'
outdir = './data'
tprnfor = .true.
nstep = 50
disk_io = 'non'
/
&SYSTEM
ibrav = 0
ecutwfc = 50.0
ecutrho = 400
occupations = 'smearing'
smearing = 'mp'
degauss = 0.01
assume_isolated = 'esm'
esm_bc = 'bc1'
input_dft = 'BEEF-VDW'
nosym = .true.
nspin = 1
ntyp = 4
nat = 33
/
&ELECTRONS
electron_maxstep = 200
mixing_beta = 0.1
conv_thr = 1e-06
/
&IONS
ion_dynamics = 'bfgs'
upscale = 1.0
/
&CELL
/

K_POINTS {automatic}
9 6 2 0  0  0

ATOMIC_SPECIES
C 12.01 C.pbe-n-rrkjus_psl.1.0.0.UPF
Li 6.941 Li.pbe-sl-rrkjus_psl.1.0.0.UPF
Pd 106.4 Pd.pbe-n-rrkjus_psl.1.0.0.UPF
Sb 121.7 Sb.pbe-n-rrkjus_psl.1.0.0.UPF

CELL_PARAMETERS {angstrom}
6.43375000 0.00000000 0.00000000
0.00000000 9.09870000 0.00000000
0.00000000 0.00000000 26.82400000

ATOMIC_POSITIONS {angstrom}
Li 0.00000000 6.82402500 -1.1373376000000022 0 0 0
Li 3.21687500 0.00000000 -3.412012800000003 0 0 0
Li 0.00000000 2.27467500 -1.1373376000000022 0 0 0
Li 3.21687500 4.54935000 -3.412012800000003 0 0 0
Li 1.60843750 2.27467500 -3.412012800000003 0 0 0
Li 1.60843750 6.82402500 -3.412012800000003 0 0 0
Li 4.82531250 4.54935000 -1.1373376000000022 0 0 0
Li 4.82531250 0.00000000 -1.1373376000000022 0 0 0
Li 6.24395438 2.27467500 3.22987784
Li 3.27194790 4.68273694 1.03111456
Li 0.01068003 6.82393401 3.44956640
Li 3.27188356 8.96549503 1.03111456
Li 1.60309749 6.82402500 1.20359288
Li 2.03808333 2.27467500 1.57751944
Li 4.50246693 0.19189158 3.43508144
Li 4.50233825 4.35736743 3.43508144
Sb 0.00000000 0.00000000 -3.412012800000003 0 0 0
Sb 3.21687500 2.27467500 -1.1373376000000022 0 0 0
Sb 3.21687500 6.82402500 -1.1373376000000022 0 0 0
Sb 0.00000000 4.54935000 -3.412012800000003 0 0 0
Sb 0.01183810 4.46518702 1.14484832
Sb 3.25045918 6.82402500 3.54130448
Sb 2.45402526 2.27458401 4.39323472
Sb 0.01183810 0.08425396 1.14484832
Pd 1.60843750 0.00000000 -1.1373376000000022 0 0 0
Pd 1.60843750 4.54935000 -1.1373376000000022 0 0 0
Pd 4.82531250 6.82402500 -3.412012800000003 0 0 0
Pd 4.82531250 2.27467500 -3.412012800000003 0 0 0
Pd 1.66608390 4.61804518 3.20224912
Pd 1.66608390 9.02991383 3.20224912
Pd 4.67585649 2.27467500 1.12392560
Pd 4.90187412 6.82411599 1.19876456
C 4.07018326 2.27458401 3.10863336
