&CONTROL
calculation = 'relax'
prefix = 'scf'
pseudo_dir = '/vol0004/mdt0/data/hp150275/u10028/POT_KKJUS'
outdir = './data'
tprnfor = .true.
nstep = 50
disk_io = 'non'
/
&SYSTEM
ibrav = 0
ecutwfc = 50.0
ecutrho = 400
occupations = 'smearing'
smearing = 'mp'
degauss = 0.01
assume_isolated = 'esm'
esm_bc = 'bc1'
input_dft = 'BEEF-VDW'
nosym = .true.
nspin = 1
ntyp = 3
nat = 17
/
&ELECTRONS
electron_maxstep = 200
mixing_beta = 0.1
conv_thr = 1e-06
/
&IONS
ion_dynamics = 'bfgs'
upscale = 1.0
/
&CELL
/

K_POINTS {automatic}
8 8 1 0 0 0

ATOMIC_SPECIES
Be 9.012 Be.pbe-n-rrkjus_psl.1.0.0.UPF
C 12.01 C.pbe-n-rrkjus_psl.1.0.0.UPF
Pd 106.4 Pd.pbe-n-rrkjus_psl.1.0.0.UPF

CELL_PARAMETERS {angstrom}
5.70199000 0.00000000 0.00000000
-0.00000000 5.70199000 0.00000000
0.00000000 0.00000000 24.27650000

ATOMIC_POSITIONS {angstrom}
Be 1.42549750 1.42549750 -1.31408695 0 0 0
Be 1.42549750 1.42549750 1.53670245
Be 1.42549750 4.27649250 -1.31408695 0 0 0
Be 1.42549750 4.27649250 1.53670245
Be 4.27649250 1.42549750 -1.31408695 0 0 0
Be 4.27649250 1.42549750 1.53670245
Be 4.27649250 4.27649250 -1.31408695 0 0 0
Be 4.27649250 4.27649250 1.53670245
Pd 0.00000000 0.00000000 -2.739603029999998 0 0 0
Pd 0.00000000 0.00000000 0.11118637
Pd 0.00000000 2.85099500 -2.739603029999998 0 0 0
Pd 0.00000000 2.85099500 0.11118637
Pd 2.85099500 0.00000000 -2.739603029999998 0 0 0
Pd 2.85099500 -0.00000000 0.11118637
Pd 2.85099500 2.85099500 -2.739603029999998 0 0 0
Pd 2.85099500 2.85099500 0.11118637
C 0.00000000 0.00000000 2.33685589
