&CONTROL
calculation = 'relax'
prefix = 'scf'
pseudo_dir = '/vol0403/data/hp230205/u10028/POT_HYBRID_KKJUS_GBRV'
outdir = './data'
tprnfor = .true.
nstep = 50
disk_io = 'non'
/
&SYSTEM
ibrav = 0
ecutwfc = 50.0
ecutrho = 400
occupations = 'smearing'
smearing = 'mp'
degauss = 0.01
assume_isolated = 'esm'
esm_bc = 'bc1'
input_dft = 'BEEF-VDW'
nosym = .true.
nspin = 1
ntyp = 6
nat = 34
/
&ELECTRONS
electron_maxstep = 200
mixing_beta = 0.1
conv_thr = 1e-06
/
&IONS
ion_dynamics = 'bfgs'
upscale = 1.0
/
&CELL
/

K_POINTS {automatic}
9 6 2 0  0  0

ATOMIC_SPECIES
C 12.01 C.pbe-n-rrkjus_psl.1.0.0.UPF
In 114.8 In.pbe-dn-rrkjus_psl.1.0.0.UPF
Mg 24.30 Mg.pbe-spnl-rrkjus_psl.1.0.0.UPF
O 15.99 O.pbe-n-rrkjus_psl.1.0.0.UPF
Pd 106.4 Pd.pbe-n-rrkjus_psl.1.0.0.UPF
Y 88.90 Y.pbe-spn-rrkjus_psl.1.0.0.UPF


CELL_PARAMETERS {angstrom}
6.99626000 0.00000000 0.00000000
0.00000000 9.89420000 0.00000000
0.00000000 0.00000000 27.42070000

ATOMIC_POSITIONS {angstrom}
Y 5.24719500 0.00000000 -1.2366735700000007 0 0 0
Y 5.24719500 4.94710000 -1.2366735700000007 0 0 0
Y 1.74906500 2.47355000 -3.710294919999999 0 0 0
Y 1.74906500 7.42065000 -3.710294919999999 0 0 0
Y 5.12091251 5.19237722 3.88798105
Y 5.12084254 9.64882384 3.88798105
Y 1.83784754 7.42065000 1.33237181
Y 1.75892973 2.47355000 1.29261180
Mg 1.74906500 0.00000000 -1.2366735700000007 0 0 0
Mg 1.74906500 4.94710000 -1.2366735700000007 0 0 0
Mg 5.24719500 2.47355000 -3.710294919999999 0 0 0
Mg 5.24719500 7.42065000 -3.710294919999999 0 0 0
Mg 1.67147648 4.81263782 3.72592472
Mg 1.67147648 0.13446218 3.72565051
Mg 5.17674266 7.42065000 1.31427415
Mg 5.15295538 2.47364894 1.28877290
In 0.00000000 0.00000000 -3.710294919999999 0 0 0
In 0.00000000 4.94710000 -3.710294919999999 0 0 0
In 3.49813000 7.42065000 -1.2366735700000007 0 0 0
In 3.49813000 2.47355000 -1.2366735700000007 0 0 0
In 6.88103160 4.95402594 1.34882423
In 6.88103160 9.88727406 1.34882423
In 3.57019148 2.47345106 4.04674691
In 2.90799547 7.42065000 4.49781742
Pd 0.00000000 2.47355000 -1.2366735700000007 0 0 0
Pd 0.00000000 7.42065000 -1.2366735700000007 0 0 0
Pd 3.49813000 4.94710000 -3.710294919999999 0 0 0
Pd 3.49813000 0.00000000 -3.710294919999999 0 0 0
Pd 0.10403439 7.42055106 3.48462256
Pd 6.81533672 2.47345106 3.42841012
Pd 3.62595167 0.02582386 1.33483968
Pd 3.62595167 4.92127614 1.33483968
C 2.91939937 2.47473730 7.99121460
O 3.91937481 2.47335212 8.53112818
