&CONTROL
calculation = 'relax'
prefix = 'scf'
pseudo_dir = '/vol0004/mdt0/data/hp150275/u10028/POT_KKJUS'
outdir = './data'
tprnfor = .true.
nstep = 50
disk_io = 'non'
/
&SYSTEM
ibrav = 0
ecutwfc = 50.0
ecutrho = 400
occupations = 'smearing'
smearing = 'mp'
degauss = 0.01
assume_isolated = 'esm'
esm_bc = 'bc1'
input_dft = 'BEEF-VDW'
nosym = .true.
nspin = 1
ntyp = 3
nat = 17
/
&ELECTRONS
electron_maxstep = 200
mixing_beta = 0.1
conv_thr = 1e-06
/
&IONS
ion_dynamics = 'bfgs'
upscale = 1.0
/
&CELL
/

K_POINTS {automatic}
6 8 1 0 0 0

ATOMIC_SPECIES
C 12.01 C.pbe-n-rrkjus_psl.1.0.0.UPF
Ni 58.69 Ni.pbe-spn-rrkjus_psl.1.0.0.UPF
Sn 118.7 Sn.pbe-dn-rrkjus_psl.1.0.0.UPF

CELL_PARAMETERS {angstrom}
7.54412000 0.00000000 0.00000000
0.00000000 5.33450000 0.00000000
0.00000000 0.00000000 24.00090000

ATOMIC_POSITIONS {angstrom}
Ni 0.00000000 2.66725000 -2.0004750100000024 0 0 0
Ni 1.88603000 4.00087500 -0.6667450000000024 0 0 0
Ni 1.88603000 1.33362500 -0.6667450000000024 0 0 0
Ni 7.54404456 0.00000000 0.48529820
Ni 1.50014826 1.20474348 1.99423478
Ni 1.50014826 4.12975652 1.99423478
Ni 3.77206000 2.66725000 -2.0004750100000024 0 0 0
Ni 5.65809000 4.00087500 -0.6667450000000024 0 0 0
Ni 5.65809000 1.33362500 -0.6667450000000024 0 0 0
Ni 3.77183368 0.00000000 0.82515094
Ni 6.04442439 1.20469014 1.99423478
Ni 6.04442439 4.12980987 1.99447479
Sn 0.00000000 0.00000000 -2.0004750100000024 0 0 0
Sn 0.00000000 2.66725000 0.53762016
Sn 3.77206000 0.00000000 -2.0004750100000024 0 0 0
Sn 3.77228632 2.66725000 1.04379914
C 0.00015088 0.00000000 2.35664837
