&CONTROL
calculation = 'relax'
prefix = 'scf'
pseudo_dir = '/vol0004/mdt0/data/hp150275/u10028/POT_KKJUS'
outdir = './data'
tprnfor = .true.
nstep = 50
disk_io = 'non'
/
&SYSTEM
ibrav = 0
ecutwfc = 50.0
ecutrho = 400
occupations = 'smearing'
smearing = 'mp'
degauss = 0.01
assume_isolated = 'esm'
esm_bc = 'bc1'
input_dft = 'BEEF-VDW'
nosym = .true.
nspin = 1
ntyp = 5
nat = 34
/
&ELECTRONS
electron_maxstep = 200
mixing_beta = 0.1
conv_thr = 1e-06
/
&IONS
ion_dynamics = 'bfgs'
upscale = 1.0
/
&CELL
/

K_POINTS {automatic}
8 6 1 0 0 0

ATOMIC_SPECIES
Al 26.98 Al.pbe-nl-rrkjus_psl.1.0.0.UPF
C 12.01 C.pbe-n-rrkjus_psl.1.0.0.UPF
Ni 58.69 Ni.pbe-spn-rrkjus_psl.1.0.0.UPF
O 15.99 O.pbe-n-rrkjus_psl.1.0.0.UPF
Ta 180.9 Ta.pbe-spn-rrkjus_psl.1.0.0.UPF

CELL_PARAMETERS {angstrom}
6.00328000 0.00000000 0.00000000
0.00000000 8.48992000 0.00000000
0.00000000 0.00000000 26.36740000

ATOMIC_POSITIONS {angstrom}
Ta 0.00000000 0.00000000 -3.183599879999999 0 0 0
Ta 3.00164000 2.12248000 -1.0612878499999994 0 0 0
Ta 3.00164000 6.36744000 -1.0612878499999994 0 0 0
Ta 0.00000000 4.24496000 -3.183599879999999 0 0 0
Ta 5.99271423 4.24462040 1.05522335
Ta 2.98663180 6.37677891 3.16962515
Ta 2.98633164 2.11356558 3.17015250
Ta 0.02893581 0.00016980 1.08000870
Al 0.00000000 6.36744000 -1.0612878499999994 0 0 0
Al 3.00164000 0.00000000 -3.183599879999999 0 0 0
Al 0.00000000 2.12248000 -1.0612878499999994 0 0 0
Al 3.00164000 4.24496000 -3.183599879999999 0 0 0
Al 5.97314353 2.16221283 3.19441051
Al 2.99983902 4.24597879 1.02542819
Al 5.97302347 6.32821657 3.19520153
Al 2.97354465 0.00008490 1.08343647
Ni 1.50082000 0.00000000 -1.0612878499999994 0 0 0
Ni 4.50246000 4.24496000 -1.0612878499999994 0 0 0
Ni 4.50246000 0.00000000 -1.0612878499999994 0 0 0
Ni 1.50082000 4.24496000 -1.0612878499999994 0 0 0
Ni 4.50246000 6.36744000 -3.183599879999999 0 0 0
Ni 1.50082000 2.12248000 -3.183599879999999 0 0 0
Ni 1.50082000 6.36744000 -3.183599879999999 0 0 0
Ni 4.50246000 2.12248000 -3.183599879999999 0 0 0
Ni 1.55418916 4.24521470 3.03330570
Ni 4.49987859 0.00033960 3.02987793
Ni 4.40472660 4.24521470 3.04648940
Ni 1.45945740 8.48983510 3.37423618
Ni 4.46403901 2.10634915 1.10663978
Ni 1.53768014 6.35105445 1.10927652
Ni 1.54008145 2.13988434 1.10795815
Ni 4.46608012 6.38450474 1.10663978
C 1.85195185 0.00033960 5.09945516
O 2.00065309 0.00110369 6.25171054
