&CONTROL
calculation = 'relax'
prefix = 'scf'
pseudo_dir = '/vol0004/mdt0/data/hp150275/u10028/POT_KKJUS'
outdir = './data'
tprnfor = .true.
nstep = 50
disk_io = 'non'
/
&SYSTEM
ibrav = 0
ecutwfc = 50.0
ecutrho = 400
occupations = 'smearing'
smearing = 'mp'
degauss = 0.01
assume_isolated = 'esm'
esm_bc = 'bc1'
input_dft = 'BEEF-VDW'
nosym = .true.
nspin = 1
ntyp = 4
nat = 18
/
&ELECTRONS
electron_maxstep = 200
mixing_beta = 0.1
conv_thr = 1e-06
/
&IONS
ion_dynamics = 'bfgs'
upscale = 1.0
/
&CELL
/

K_POINTS {automatic}
8 11 2 0  0  0

ATOMIC_SPECIES
C 12.01 C.pbe-n-rrkjus_psl.1.0.0.UPF
Ir 192.2 Ir.pbe-n-rrkjus_psl.0.2.3.UPF
O 15.99 O.pbe-n-rrkjus_psl.1.0.0.UPF
Sc 44.95 Sc.pbe-spn-rrkjus_psl.1.0.0.UPF

CELL_PARAMETERS {angstrom}
7.92728000 0.00000000 0.00000000
0.00000000 5.60543000 0.00000000
0.00000000 0.00000000 24.20410000

ATOMIC_POSITIONS {angstrom}
Sc 0.00000000 0.00000000 -2.1021260800000015 0 0 0
Sc 0.01347638 2.78180675 0.67481031
Sc 3.96364000 0.00000000 -2.1021260800000015 0 0 0
Sc 3.95016362 2.78186280 0.67481031
Ir 0.00000000 2.80271500 -2.1021260800000015 0 0 0
Ir 1.98182000 4.20407250 -0.700708689999999 0 0 0
Ir 1.98182000 1.40135750 -0.700708689999999 0 0 0
Ir 7.92632873 5.57947686 0.65181641
Ir 1.98182000 1.39485520 2.04887707
Ir 1.98182000 4.21702104 1.94721984
Ir 3.96364000 2.80271500 -2.1021260800000015 0 0 0
Ir 5.94546000 4.20407250 -0.700708689999999 0 0 0
Ir 5.94546000 1.40135750 -0.700708689999999 0 0 0
Ir 3.96459127 5.57947686 0.65181641
Ir 5.94546000 1.36553880 1.93439167
Ir 5.94546000 4.18030548 1.94165290
C 1.98182000 1.43499008 3.91622338
O 1.98182000 1.42523663 5.07705202
