&CONTROL
calculation = 'relax'
prefix = 'scf'
pseudo_dir = '/vol0403/data/hp230205/u10028/POT_HYBRID_KKJUS_GBRV'
outdir = './data'
tprnfor = .true.
nstep = 50
disk_io = 'non'
/
&SYSTEM
ibrav = 0
ecutwfc = 50.0
ecutrho = 400
occupations = 'smearing'
smearing = 'mp'
degauss = 0.01
assume_isolated = 'esm'
esm_bc = 'bc1'
input_dft = 'BEEF-VDW'
nosym = .true.
nspin = 1
ntyp = 5
nat = 17
/
&ELECTRONS
electron_maxstep = 200
mixing_beta = 0.1
conv_thr = 1e-06
/
&IONS
ion_dynamics = 'bfgs'
upscale = 1.0
/
&CELL
/

K_POINTS {automatic}
6 6 1 0 0 0

ATOMIC_SPECIES
C 12.01 C.pbe-n-rrkjus_psl.1.0.0.UPF
In 114.8 In.pbe-dn-rrkjus_psl.1.0.0.UPF
Li 6.941 Li.pbe-sl-rrkjus_psl.1.0.0.UPF
Mg 24.30 Mg.pbe-spnl-rrkjus_psl.1.0.0.UPF
Pd 106.4 Pd.pbe-n-rrkjus_psl.1.0.0.UPF


CELL_PARAMETERS {angstrom}
6.52273000 0.00000000 0.00000000
0.00000000 6.52273000 0.00000000
0.00000000 0.00000000 24.89210000

ATOMIC_POSITIONS {angstrom}
Li 1.63068250 1.63068250 0.81546520
Li 1.63068250 4.89204750 -2.446146670000001 0 0 0
Li 4.89204750 1.63068250 -2.446146670000001 0 0 0
Li 4.89204750 4.89204750 0.81546520
Mg 0.00000000 3.26136500 2.44614667
Mg 0.00000000 0.00000000 -0.8154651999999984 0 0 0
Mg 3.26136500 3.26136500 -0.8154651999999984 0 0 0
Mg 3.26136500 0.00000000 2.44614667
In 0.00000000 0.00000000 2.44614667
In 0.00000000 3.26136500 -0.8154651999999984 0 0 0
In 3.26136500 0.00000000 -0.8154651999999984 0 0 0
In 3.26136500 3.26136500 2.44614667
Pd 4.89204750 1.63068250 0.81546520
Pd 4.89204750 4.89204750 -2.446146670000001 0 0 0
Pd 1.63068250 1.63068250 -2.446146670000001 0 0 0
Pd 1.63068250 4.89204750 0.81546520
C 4.89204750 1.63068250 3.24592984
