&CONTROL
calculation = 'relax'
prefix = 'scf'
pseudo_dir = '/vol0004/mdt0/data/hp150275/u10028/POT_KKJUS'
outdir = './data'
tprnfor = .true.
nstep = 50
disk_io = 'non'
/
&SYSTEM
ibrav = 0
ecutwfc = 50.0
ecutrho = 400
occupations = 'smearing'
smearing = 'mp'
degauss = 0.01
assume_isolated = 'esm'
esm_bc = 'bc1'
input_dft = 'BEEF-VDW'
nosym = .true.
nspin = 1
ntyp = 3
nat = 17
/
&ELECTRONS
electron_maxstep = 200
mixing_beta = 0.1
conv_thr = 1e-06
/
&IONS
ion_dynamics = 'bfgs'
upscale = 1.0
/
&CELL
/

K_POINTS {automatic}
6 8 1 0 0 0

ATOMIC_SPECIES
C 12.01 C.pbe-n-rrkjus_psl.1.0.0.UPF
Rh 102.9 Rh.pbe-spn-rrkjus_psl.1.0.0.UPF
Ta 180.9 Ta.pbe-spn-rrkjus_psl.1.0.0.UPF

CELL_PARAMETERS {angstrom}
7.79956000 0.00000000 0.00000000
0.00000000 5.51512000 0.00000000
0.00000000 0.00000000 24.13630000

ATOMIC_POSITIONS {angstrom}
Ta 0.12713283 5.48258079 1.85704692
Ta 0.00000000 2.75756000 -0.6893327300000003 0 0 0
Ta 3.77264717 5.48258079 1.85704692
Ta 3.89978000 2.75756000 -0.6893327300000003 0 0 0
Rh 0.20349052 2.64378307 2.02769056
Rh 1.94981200 4.12045645 0.61788928
Rh 1.94981200 1.35236258 0.53148133
Rh 0.00000000 0.00000000 -0.6893327300000003 0 0 0
Rh 1.94989000 1.37878000 -2.0682395499999977 0 0 0
Rh 1.94989000 4.13634000 -2.0682395499999977 0 0 0
Rh 3.69621148 2.64378307 2.02769056
Rh 5.84974800 4.09084026 0.90269762
Rh 5.84974800 1.32561424 0.91476577
Rh 3.89978000 0.00000000 -0.6893327300000003 0 0 0
Rh 5.84967000 1.37878000 -2.0682395499999977 0 0 0
Rh 5.84967000 4.13634000 -2.0682395499999977 0 0 0
C 1.94989000 1.35760194 2.52369153
