&CONTROL
calculation = 'relax'
prefix = 'scf'
pseudo_dir = '/vol0004/mdt0/data/hp150275/u10028/POT_HYBRID_KKJUS_GBRV'
outdir = './data'
tprnfor = .true.
nstep = 50
disk_io = 'non'
/
&SYSTEM
ibrav = 0
ecutwfc = 50.0
ecutrho = 400
occupations = 'smearing'
smearing = 'mp'
degauss = 0.01
assume_isolated = 'esm'
esm_bc = 'bc1'
input_dft = 'BEEF-VDW'
nosym = .true.
nspin = 2
ntyp = 3
nat = 33
starting_magnetization(1) = 0.0
starting_magnetization(2) = 0.1
starting_magnetization(3) = 0.0
/
&ELECTRONS
electron_maxstep = 200
mixing_beta = 0.1
conv_thr = 1e-06
/
&IONS
ion_dynamics = 'bfgs'
upscale = 1.0
/
&CELL
/

K_POINTS {automatic}
6 8 1 0 0 0

ATOMIC_SPECIES
C 12.01 C.pbe-n-rrkjus_psl.1.0.0.UPF
Mn 54.93 mn_pbe_v1.5.uspp.F.UPF
Pd 106.4 Pd.pbe-n-rrkjus_psl.1.0.0.UPF

CELL_PARAMETERS {angstrom}
8.60668000 0.00000000 0.00000000
-0.00000000 6.84086000 0.00000000
0.00000000 0.00000000 26.45500000

ATOMIC_POSITIONS {angstrom}
Mn 0.00000000 0.00000000 -3.2275099999999988 0 0 0
Mn 2.15167000 0.00000000 -1.0759248499999998 0 0 0
Mn 0.00000000 0.00000000 1.07592485
Mn 2.15167000 -0.00000000 3.22751000
Mn 0.00000000 3.42043000 -3.2275099999999988 0 0 0
Mn 2.15167000 3.42043000 -1.0759248499999998 0 0 0
Mn 0.00000000 3.42043000 1.07592485
Mn 2.15167000 3.42043000 3.22751000
Mn 4.30334000 0.00000000 -3.2275099999999988 0 0 0
Mn 6.45501000 0.00000000 -1.0759248499999998 0 0 0
Mn 4.30334000 -0.00000000 1.07592485
Mn 6.45501000 -0.00000000 3.22751000
Mn 4.30334000 3.42043000 -3.2275099999999988 0 0 0
Mn 6.45501000 3.42043000 -1.0759248499999998 0 0 0
Mn 4.30334000 3.42043000 1.07592485
Mn 6.45501000 3.42043000 3.22751000
Pd 2.15167000 1.71021500 -3.2275099999999988 0 0 0
Pd 0.00000000 1.71021500 -1.0759248499999998 0 0 0
Pd 2.15167000 1.71021500 1.07592485
Pd 4.30334000 1.71021500 3.22751000
Pd 2.15167000 5.13064500 -3.2275099999999988 0 0 0
Pd 0.00000000 5.13064500 -1.0759248499999998 0 0 0
Pd 2.15167000 5.13064500 1.07592485
Pd 4.30334000 5.13064500 3.22751000
Pd 6.45501000 1.71021500 -3.2275099999999988 0 0 0
Pd 4.30334000 1.71021500 -1.0759248499999998 0 0 0
Pd 6.45501000 1.71021500 1.07592485
Pd 0.00000000 1.71021500 3.22751000
Pd 6.45501000 5.13064500 -3.2275099999999988 0 0 0
Pd 4.30334000 5.13064500 -1.0759248499999998 0 0 0
Pd 6.45501000 5.13064500 1.07592485
Pd 0.00000000 5.13064500 3.22751000
C 0.00000000 0.00000000 4.02750920
