&CONTROL
calculation = 'relax'
prefix = 'scf'
pseudo_dir = '/vol0004/mdt0/data/hp150275/u10028/POT_HYBRID_KKJUS_GBRV'
outdir = './data'
tprnfor = .true.
nstep = 50
disk_io = 'non'
/
&SYSTEM
ibrav = 0
ecutwfc = 50.0
ecutrho = 400
occupations = 'smearing'
smearing = 'mp'
degauss = 0.01
assume_isolated = 'esm'
esm_bc = 'bc1'
input_dft = 'BEEF-VDW'
nosym = .true.
nspin = 2
ntyp = 5
nat = 34
starting_magnetization(1) = 0.0
starting_magnetization(2) = 0.0
starting_magnetization(3) = 0.1
starting_magnetization(4) = 0.1
starting_magnetization(5) = 0.0
/
&ELECTRONS
electron_maxstep = 200
mixing_beta = 0.1
conv_thr = 1e-06
/
&IONS
ion_dynamics = 'bfgs'
upscale = 1.0
/
&CELL
/

K_POINTS {automatic}
9 6 2 0  0  0

ATOMIC_SPECIES
Al 26.98 Al.pbe-nl-rrkjus_psl.1.0.0.UPF
C 12.01 C.pbe-n-rrkjus_psl.1.0.0.UPF
Co 58.93 co_pbe_v1.2.uspp.F.UPF
Fe 55.84 fe_pbe_v1.5.uspp.F.UPF
O 15.99 O.pbe-n-rrkjus_psl.1.0.0.UPF

CELL_PARAMETERS {angstrom}
5.71826000 0.00000000 0.00000000
0.00000000 8.08683000 0.00000000
0.00000000 0.00000000 26.06510000

ATOMIC_POSITIONS {angstrom}
Al 0.00000000 0.00000000 23.03242562
Al 2.85913000 2.02170750 25.05429542
Al 2.85913000 6.06512250 25.05429542
Al 0.00000000 4.04341500 23.03242562
Al 0.00000000 4.03726901 0.98317557
Al 2.85913000 6.06512250 3.08167677
Al 2.85913000 2.02178837 3.16664900
Al 0.00000000 0.00614599 0.98317557
Fe 0.00000000 6.06512250 25.05429542
Fe 2.85913000 0.00000000 23.03242562
Fe 0.00000000 2.02170750 25.05429542
Fe 2.85913000 4.04341500 23.03242562
Fe 0.00000000 2.02170750 2.95995276
Fe 2.85913000 4.04543671 1.03165666
Fe 0.00000000 6.06520337 2.96907554
Fe 2.85913000 8.08480829 1.03165666
Co 1.42956500 0.00000000 25.05429542
Co 4.28869500 4.04341500 25.05429542
Co 4.28869500 0.00000000 25.05429542
Co 1.42956500 4.04341500 25.05429542
Co 4.28869500 6.06512250 23.03242562
Co 1.42956500 2.02170750 23.03242562
Co 1.42956500 6.06512250 23.03242562
Co 4.28869500 2.02170750 23.03242562
Co 1.42030142 4.05174443 2.96933619
Co 4.29801576 8.07858143 2.96907554
Co 4.29795858 4.05174443 2.96933619
Co 1.42024424 8.07858143 2.96907554
Co 4.27028220 2.02162663 1.02983210
Co 1.42830698 6.06520337 1.00793742
Co 1.44797780 2.02162663 1.02983210
Co 4.29001020 6.06520337 1.00793742
C 2.85913000 2.02178837 5.20728568
O 2.85913000 2.02170750 6.35727789
