&CONTROL
calculation = 'relax'
prefix = 'scf'
pseudo_dir = '/vol0403/data/hp230205/u10028/POT_HYBRID_KKJUS_GBRV'
outdir = './data'
tprnfor = .true.
nstep = 50
disk_io = 'non'
/
&SYSTEM
ibrav = 0
ecutwfc = 50.0
ecutrho = 400
occupations = 'smearing'
smearing = 'mp'
degauss = 0.01
assume_isolated = 'esm'
esm_bc = 'bc1'
input_dft = 'BEEF-VDW'
nosym = .true.
nspin = 1
ntyp = 4
nat = 32
/
&ELECTRONS
electron_maxstep = 200
mixing_beta = 0.1
conv_thr = 1e-06
/
&IONS
ion_dynamics = 'bfgs'
upscale = 1.0
/
&CELL
/

K_POINTS {automatic}
6 6 1 0 0 0

ATOMIC_SPECIES
Ge 72.64 Ge.pbe-dn-rrkjus_psl.1.0.0.UPF
In 114.8 In.pbe-dn-rrkjus_psl.1.0.0.UPF
Li 6.941 Li.pbe-sl-rrkjus_psl.1.0.0.UPF
Mg 24.30 Mg.pbe-spnl-rrkjus_psl.1.0.0.UPF


CELL_PARAMETERS {angstrom}
8.40992000 0.00000000 0.00000000
0.00000000 8.75068000 0.00000000
0.00000000 0.00000000 26.31390000

ATOMIC_POSITIONS {angstrom}
Li 2.10231180 2.18767000 3.41712305
Li 2.10248000 2.18767000 -1.0522928600000014 0 0 0
Li 2.10231180 6.56301000 3.41764933
Li 2.10248000 6.56301000 -1.0522928600000014 0 0 0
Li 6.30760820 2.18767000 3.41738619
Li 6.30744000 2.18767000 -1.0522928600000014 0 0 0
Li 6.30760820 6.56301000 3.41764933
Li 6.30744000 6.56301000 -1.0522928600000014 0 0 0
Mg 2.10281640 8.75059249 1.10781519
Mg 2.10248000 0.00000000 -3.1568785800000008 0 0 0
Mg 2.10264820 4.37551501 1.10728891
Mg 2.10248000 4.37534000 -3.1568785800000008 0 0 0
Mg 6.30718770 8.75050499 1.10728891
Mg 6.30744000 0.00000000 -3.1568785800000008 0 0 0
Mg 6.30735590 4.37560252 1.10728891
Mg 6.30744000 4.37534000 -3.1568785800000008 0 0 0
In 0.00025230 2.18784501 1.24596317
In 0.00000000 2.18767000 -3.1568785800000008 0 0 0
In 0.00016820 6.56292249 1.24754200
In 0.00000000 6.56301000 -3.1568785800000008 0 0 0
In 4.20479180 2.18784501 1.24648944
In 4.20496000 2.18767000 -3.1568785800000008 0 0 0
In 4.20487590 6.56292249 1.24780514
In 4.20496000 6.56301000 -3.1568785800000008 0 0 0
Ge 0.00000000 0.00052504 3.15529975
Ge 0.00000000 0.00000000 -1.0522928600000014 0 0 0
Ge 8.40983590 4.37481496 3.15529975
Ge 0.00000000 4.37534000 -1.0522928600000014 0 0 0
Ge 4.20496000 0.00035003 3.15556289
Ge 4.20496000 0.00000000 -1.0522928600000014 0 0 0
Ge 4.20496000 4.37490247 3.15556289
Ge 4.20496000 4.37534000 -1.0522928600000014 0 0 0
