&CONTROL
calculation = 'relax'
prefix = 'scf'
pseudo_dir = '/vol0403/data/hp230205/u10028/POT_HYBRID_KKJUS_GBRV'
outdir = './data'
tprnfor = .true.
nstep = 70
disk_io = 'non'
/
&SYSTEM
ibrav = 0
ecutwfc = 50.0
ecutrho = 400
occupations = 'smearing'
smearing = 'mp'
degauss = 0.01
assume_isolated = 'esm'
esm_bc = 'bc1'
input_dft = 'BEEF-VDW'
nosym = .true.
nspin = 1
ntyp = 4
nat = 32
/
&ELECTRONS
electron_maxstep = 200
mixing_beta = 0.1
conv_thr = 1e-06
/
&IONS
ion_dynamics = 'bfgs'
upscale = 1.0
/
&CELL
/

K_POINTS {automatic}
9 6 2 0  0  0

ATOMIC_SPECIES
Ag 107.8 Ag.pbe-n-rrkjus_psl.1.0.0.UPF
In 114.8 In.pbe-dn-rrkjus_psl.1.0.0.UPF
Li 6.941 Li.pbe-sl-rrkjus_psl.1.0.0.UPF
Pd 106.4 Pd.pbe-n-rrkjus_psl.1.0.0.UPF


CELL_PARAMETERS {angstrom}
6.52372000 0.00000000 0.00000000
-0.00000000 9.22594000 0.00000000
0.00000000 0.00000000 26.91950000

ATOMIC_POSITIONS {angstrom}
Li 1.63093000 0.00000000 -1.1532313799999976 0 0 0
Li 1.63093000 4.61297000 -1.1532313799999976 0 0 0
Li 4.89279000 2.30648500 -3.45969414 0 0 0
Li 4.89279000 6.91945500 -3.45969414 0 0 0
Li 1.58598157 4.61297000 3.48930559
Li 1.58598157 -0.00000000 3.48930559
Li 4.86571656 6.91945500 1.08485585
Li 4.86571656 2.30648500 1.08485585
In 4.89279000 0.00000000 -1.1532313799999976 0 0 0
In 4.89279000 4.61297000 -1.1532313799999976 0 0 0
In 1.63093000 2.30648500 -3.45969414 0 0 0
In 1.63093000 6.91945500 -3.45969414 0 0 0
In 4.97609790 4.61297000 3.81287798
In 4.97609790 -0.00000000 3.81287798
In 1.64717406 6.91945500 1.15834609
In 1.64717406 2.30648500 1.15834609
Ag 0.00000000 0.00000000 -3.45969414 0 0 0
Ag 0.00000000 4.61297000 -3.45969414 0 0 0
Ag 3.26186000 6.91945500 -1.1532313799999976 0 0 0
Ag 3.26186000 2.30648500 -1.1532313799999976 0 0 0
Ag 6.46043992 4.61297000 1.22160691
Ag 6.46043992 -0.00000000 1.22160691
Ag 3.34712502 2.30648500 3.41339260
Ag 3.34712502 6.91945500 3.41339260
Pd 0.00000000 2.30648500 -1.1532313799999976 0 0 0
Pd 0.00000000 6.91945500 -1.1532313799999976 0 0 0
Pd 3.26186000 4.61297000 -3.45969414 0 0 0
Pd 3.26186000 0.00000000 -3.45969414 0 0 0
Pd 6.39546366 6.91945500 3.24649170
Pd 6.39546366 2.30648500 3.24649170
Pd 3.31333215 -0.00000000 1.24233492
Pd 3.31333215 4.61297000 1.24233492
