&CONTROL
calculation = 'relax'
prefix = 'scf'
pseudo_dir = '/vol0004/mdt0/data/hp150275/u10028/POT_HYBRID_KKJUS_GBRV'
outdir = './data'
tprnfor = .true.
nstep = 50
disk_io = 'non'
/
&SYSTEM
ibrav = 0
ecutwfc = 50.0
ecutrho = 400
occupations = 'smearing'
smearing = 'mp'
degauss = 0.01
assume_isolated = 'esm'
esm_bc = 'bc1'
input_dft = 'BEEF-VDW'
nosym = .true.
nspin = 2
ntyp = 5
nat = 34
starting_magnetization(1) = 0.0
starting_magnetization(2) = 0.0
starting_magnetization(3) = 0.001
starting_magnetization(4) = 0.0
starting_magnetization(5) = 0.0
/
&ELECTRONS
electron_maxstep = 300
mixing_beta = 0.1
conv_thr = 1e-06
/
&IONS
ion_dynamics = 'bfgs'
upscale = 1.0
/
&CELL
/

K_POINTS {automatic}
8 6 1 0 0 0

ATOMIC_SPECIES
C 12.01 C.pbe-n-rrkjus_psl.1.0.0.UPF
Ga 69.72 Ga.pbe-dnl-rrkjus_psl.1.0.0.UPF
Ni 58.69 ni_pbe_v1.4.uspp.F.UPF
O 15.99 O.pbe-n-rrkjus_psl.1.0.0.UPF
Sc 44.95 Sc.pbe-spn-rrkjus_psl.1.0.0.UPF

CELL_PARAMETERS {angstrom}
6.06833000 0.00000000 0.00000000
0.00000000 8.58191000 0.00000000
0.00000000 0.00000000 26.43640000

ATOMIC_POSITIONS {angstrom}
Sc 0.00000000 0.00000000 -3.2181029700000003 0 0 0
Sc 3.03416500 2.14547750 -1.0727891099999987 0 0 0
Sc 3.03416500 6.43643250 -1.0727891099999987 0 0 0
Sc 0.00000000 4.29095500 -3.2181029700000003 0 0 0
Sc 0.00145640 4.30099583 1.02705414
Sc 3.03841283 6.43823470 3.35504352
Sc 3.03926240 2.14487677 3.33389440
Sc 0.00103162 8.57066770 1.02864032
Ga 0.00000000 6.43643250 -1.0727891099999987 0 0 0
Ga 3.03416500 0.00000000 -3.2181029700000003 0 0 0
Ga 0.00000000 2.14547750 -1.0727891099999987 0 0 0
Ga 3.03416500 4.29095500 -3.2181029700000003 0 0 0
Ga 0.00527945 2.14487677 3.22920626
Ga 3.03465047 4.28529094 1.16743142
Ga 0.00473330 6.43291392 3.23502227
Ga 3.03416500 0.00583570 1.16875324
Ni 1.51708250 0.00000000 -1.0727891099999987 0 0 0
Ni 4.55124750 4.29095500 -1.0727891099999987 0 0 0
Ni 4.55124750 0.00000000 -1.0727891099999987 0 0 0
Ni 1.51708250 4.29095500 -1.0727891099999987 0 0 0
Ni 4.55124750 6.43643250 -3.2181029700000003 0 0 0
Ni 1.51708250 2.14547750 -3.2181029700000003 0 0 0
Ni 1.51708250 6.43643250 -3.2181029700000003 0 0 0
Ni 4.55124750 2.14547750 -3.2181029700000003 0 0 0
Ni 1.35857772 4.28889534 3.10231154
Ni 4.71472831 0.00214548 3.10019663
Ni 4.71369669 4.28846625 3.10046099
Ni 1.35754610 0.00137311 3.10284027
Ni 4.48200785 2.14719388 1.14390303
Ni 1.59997589 6.43420120 1.15236268
Ni 1.58711103 2.14693642 1.14152375
Ni 4.46999256 6.43445866 1.15077649
C 5.36962248 2.14564914 7.23828632
O 0.29200804 2.14556332 7.79027835
