&CONTROL
calculation = 'relax'
prefix = 'scf'
pseudo_dir = '/vol0004/mdt0/data/hp150275/u10028/POT_KKJUS'
outdir = './data'
tprnfor = .true.
nstep = 50
disk_io = 'non'
/
&SYSTEM
ibrav = 0
ecutwfc = 50.0
ecutrho = 400
occupations = 'smearing'
smearing = 'mp'
degauss = 0.01
assume_isolated = 'esm'
esm_bc = 'bc1'
input_dft = 'BEEF-VDW'
nosym = .true.
nspin = 1
ntyp = 4
nat = 33
/
&ELECTRONS
electron_maxstep = 200
mixing_beta = 0.1
conv_thr = 1e-06
/
&IONS
ion_dynamics = 'bfgs'
upscale = 1.0
/
&CELL
/

K_POINTS {automatic}
9 6 2 0  0  0

ATOMIC_SPECIES
C 12.01 C.pbe-n-rrkjus_psl.1.0.0.UPF
Ga 69.72 Ga.pbe-dnl-rrkjus_psl.1.0.0.UPF
Li 6.941 Li.pbe-sl-rrkjus_psl.1.0.0.UPF
Rh 102.9 Rh.pbe-spn-rrkjus_psl.1.0.0.UPF

CELL_PARAMETERS {angstrom}
6.03399000 0.00000000 0.00000000
0.00000000 8.53335000 0.00000000
0.00000000 0.00000000 26.40000000

ATOMIC_POSITIONS {angstrom}
Li 0.00000000 6.40001250 -1.066559999999999 0 0 0
Li 3.01699500 0.00000000 -3.1999439999999986 0 0 0
Li 0.00000000 2.13333750 -1.066559999999999 0 0 0
Li 3.01699500 4.26667500 -3.1999439999999986 0 0 0
Li 1.50849750 2.13333750 -3.1999439999999986 0 0 0
Li 1.50849750 6.40001250 -3.1999439999999986 0 0 0
Li 4.52549250 4.26667500 -1.066559999999999 0 0 0
Li 4.52549250 0.00000000 -1.066559999999999 0 0 0
Li 0.12942909 2.13333750 3.40401600
Li 3.11341816 4.24645096 1.05837600
Li 6.03145572 6.40001250 3.18436800
Li 3.11341816 0.02022404 1.05837600
Li 1.51187653 6.40001250 1.01534400
Li 1.42233212 2.13333750 0.93482400
Li 4.36728128 8.52362198 3.94468800
Li 4.36728128 4.27640302 3.94468800
Ga 1.50849750 0.00000000 -1.066559999999999 0 0 0
Ga 1.50849750 4.26667500 -1.066559999999999 0 0 0
Ga 4.52549250 6.40001250 -3.1999439999999986 0 0 0
Ga 4.52549250 2.13333750 -3.1999439999999986 0 0 0
Ga 1.63991780 4.35141117 3.15612000
Ga 1.63991780 8.44861383 3.15612000
Ga 4.59989160 2.13333750 1.01666400
Ga 4.58583240 6.40001250 0.97891200
Rh 0.00000000 0.00000000 -3.1999439999999986 0 0 0
Rh 3.01699500 2.13333750 -1.066559999999999 0 0 0
Rh 3.01699500 6.40001250 -1.066559999999999 0 0 0
Rh 0.00000000 4.26667500 -3.1999439999999986 0 0 0
Rh 6.03103334 4.27367235 1.20172800
Rh 3.08354991 6.40001250 2.96181600
Rh 2.97282619 2.13333750 3.07744800
Rh 6.03097301 8.52635265 1.20172800
C 4.27315104 2.13333750 4.24802400
