&CONTROL
calculation = 'relax'
prefix = 'scf'
pseudo_dir = '/vol0403/data/hp230205/u10028/POT_HYBRID_KKJUS_GBRV'
outdir = './data'
tprnfor = .true.
nstep = 50
disk_io = 'non'
/
&SYSTEM
ibrav = 0
ecutwfc = 50.0
ecutrho = 400
occupations = 'smearing'
smearing = 'mp'
degauss = 0.01
assume_isolated = 'esm'
esm_bc = 'bc1'
input_dft = 'BEEF-VDW'
nosym = .true.
nspin = 1
ntyp = 5
nat = 17
/
&ELECTRONS
electron_maxstep = 200
mixing_beta = 0.1
conv_thr = 1e-06
/
&IONS
ion_dynamics = 'bfgs'
upscale = 1.0
/
&CELL
/

K_POINTS {automatic}
6 6 1 0 0 0

ATOMIC_SPECIES
Al 26.98 Al.pbe-nl-rrkjus_psl.1.0.0.UPF
C 12.01 C.pbe-n-rrkjus_psl.1.0.0.UPF
Ge 72.64 Ge.pbe-dn-rrkjus_psl.1.0.0.UPF
Li 6.941 Li.pbe-sl-rrkjus_psl.1.0.0.UPF
Pd 106.4 Pd.pbe-n-rrkjus_psl.1.0.0.UPF


CELL_PARAMETERS {angstrom}
5.49423000 0.00000000 0.00000000
0.00000000 8.01128000 0.00000000
0.00000000 0.00000000 24.10550000

ATOMIC_POSITIONS {angstrom}
Li 4.00293115 2.00282000 -0.6843551499999982 0 0 0
Li 0.73913876 1.85581301 2.24735576
Li 4.00293115 6.00846000 -0.6843551499999982 0 0 0
Li 0.73902888 6.15554710 2.24759682
Al 0.00000000 0.00000000 -2.0528243800000006 0 0 0
Al 2.63964786 0.00000000 0.65470538
Al 0.00000000 4.00564000 -2.0528243800000006 0 0 0
Al 2.33109190 4.00564000 0.69496157
Ge 2.74711500 0.00000000 -2.0528243800000006 0 0 0
Ge 0.02016382 0.00000000 0.50018913
Ge 2.74711500 4.00564000 -2.0528243800000006 0 0 0
Ge 5.13562161 4.00564000 0.79548150
Pd 1.25581615 2.00282000 -0.6843551499999982 0 0 0
Pd 3.52718578 2.08020896 1.90047762
Pd 1.25581615 6.00846000 -0.6843551499999982 0 0 0
Pd 3.52713083 5.93099092 1.90047762
C 4.24995173 0.00000000 1.99955122
