&CONTROL
calculation = 'relax'
prefix = 'scf'
pseudo_dir = '/vol0004/mdt0/data/hp150275/u10028/POT_KKJUS'
outdir = './data'
tprnfor = .true.
nstep = 50
disk_io = 'non'
/
&SYSTEM
ibrav = 0
ecutwfc = 50.0
ecutrho = 400
occupations = 'smearing'
smearing = 'mp'
degauss = 0.01
assume_isolated = 'esm'
esm_bc = 'bc1'
input_dft = 'BEEF-VDW'
nosym = .true.
nspin = 1
ntyp = 4
nat = 18
/
&ELECTRONS
electron_maxstep = 200
mixing_beta = 0.1
conv_thr = 1e-06
/
&IONS
ion_dynamics = 'bfgs'
upscale = 1.0
/
&CELL
/

K_POINTS {automatic}
6 8 1 0 0 0

ATOMIC_SPECIES
C 12.01 C.pbe-n-rrkjus_psl.1.0.0.UPF
Ga 69.72 Ga.pbe-dnl-rrkjus_psl.1.0.0.UPF
O 15.99 O.pbe-n-rrkjus_psl.1.0.0.UPF
Pt 195.0 Pt.pbe-n-rrkjus_psl.1.0.0.UPF

CELL_PARAMETERS {angstrom}
7.92728000 0.00000000 0.00000000
0.00000000 5.60543000 0.00000000
0.00000000 0.00000000 24.20410000

ATOMIC_POSITIONS {angstrom}
Ga 0.00000000 0.00000000 -2.1021260800000015 0 0 0
Ga 7.91174253 2.90288403 0.82923247
Ga 3.96364000 0.00000000 -2.1021260800000015 0 0 0
Ga 3.97917747 2.90282798 0.82947451
Pt 0.00000000 2.80271500 -2.1021260800000015 0 0 0
Pt 1.98182000 4.20407250 -0.700708689999999 0 0 0
Pt 1.98182000 1.40135750 -0.700708689999999 0 0 0
Pt 7.91602326 0.06687278 0.73338423
Pt 1.98189927 1.46380199 2.11325997
Pt 1.98174073 4.23058618 2.04815094
Pt 3.96364000 2.80271500 -2.1021260800000015 0 0 0
Pt 5.94546000 4.20407250 -0.700708689999999 0 0 0
Pt 5.94546000 1.40135750 -0.700708689999999 0 0 0
Pt 3.97481746 0.06664856 0.73338423
Pt 5.94530145 1.63908379 2.02902970
Pt 5.94553927 4.38961223 2.09994772
C 1.98182000 1.53594387 3.98254261
O 1.98174073 1.53398197 5.13562594
