&CONTROL
calculation = 'relax'
prefix = 'scf'
pseudo_dir = '/vol0004/mdt0/data/hp150275/u10028/POT_KKJUS'
outdir = './data'
tprnfor = .true.
nstep = 50
disk_io = 'non'
/
&SYSTEM
ibrav = 0
ecutwfc = 50.0
ecutrho = 400
occupations = 'smearing'
smearing = 'mp'
degauss = 0.01
assume_isolated = 'esm'
esm_bc = 'bc1'
input_dft = 'BEEF-VDW'
nosym = .true.
nspin = 1
ntyp = 5
nat = 34
/
&ELECTRONS
electron_maxstep = 200
mixing_beta = 0.1
conv_thr = 1e-06
/
&IONS
ion_dynamics = 'bfgs'
upscale = 1.0
/
&CELL
/

K_POINTS {automatic}
9 6 2 0  0  0

ATOMIC_SPECIES
Au 196.9 Au.pbe-n-rrkjus_psl.1.0.0.UPF
C 12.01 C.pbe-n-rrkjus_psl.1.0.0.UPF
In 114.8 In.pbe-dn-rrkjus_psl.1.0.0.UPF
O 15.99 O.pbe-n-rrkjus_psl.1.0.0.UPF
Zr 91.22 Zr.pbe-spn-rrkjus_psl.1.0.0.UPF

CELL_PARAMETERS {angstrom}
6.87009000 0.00000000 0.00000000
0.00000000 9.71577000 0.00000000
0.00000000 0.00000000 27.28680000

ATOMIC_POSITIONS {angstrom}
Zr 0.00000000 0.00000000 -3.6433335400000004 0 0 0
Zr 3.43504500 2.42894250 -1.2145354699999977 0 0 0
Zr 3.43504500 7.28682750 -1.2145354699999977 0 0 0
Zr 0.00000000 4.85788500 -3.6433335400000004 0 0 0
Zr 6.82667103 4.85788500 1.32204546
Zr 3.35404664 7.36795418 3.39284071
Zr 3.35411534 2.34781582 3.39284071
Zr 0.25515514 0.00000000 1.61592430
In 0.00000000 7.28682750 -1.2145354699999977 0 0 0
In 3.43504500 0.00000000 -3.6433335400000004 0 0 0
In 0.00000000 2.42894250 -1.2145354699999977 0 0 0
In 3.43504500 4.85788500 -3.6433335400000004 0 0 0
In 6.76999279 2.56389455 3.89273489
In 3.50841756 4.85788500 1.15996187
In 6.76999279 7.15197261 3.89273489
In 3.44129678 0.00000000 1.17033085
Au 1.71752250 0.00000000 -1.2145354699999977 0 0 0
Au 5.15256750 4.85788500 -1.2145354699999977 0 0 0
Au 5.15256750 0.00000000 -1.2145354699999977 0 0 0
Au 1.71752250 4.85788500 -1.2145354699999977 0 0 0
Au 5.15256750 7.28682750 -3.6433335400000004 0 0 0
Au 1.71752250 2.42894250 -3.6433335400000004 0 0 0
Au 1.71752250 7.28682750 -3.6433335400000004 0 0 0
Au 5.15256750 2.42894250 -3.6433335400000004 0 0 0
Au 1.81178013 4.85788500 3.68699242
Au 5.01702062 0.00000000 3.76721561
Au 4.83963490 4.85788500 3.80923728
Au 1.50379400 0.00000000 4.18770520
Au 5.27952676 2.32440081 1.22244864
Au 1.65953894 7.19083569 1.16269055
Au 1.65953894 2.52493431 1.16269055
Au 5.27952676 7.39136919 1.22244864
C 1.86316841 0.00000000 6.30297793
O 1.65754661 0.00000000 7.43019564
