&CONTROL
calculation = 'relax'
prefix = 'scf'
pseudo_dir = '/vol0403/data/hp230205/u10028/POT_HYBRID_KKJUS_GBRV'
outdir = './data'
tprnfor = .true.
nstep = 50
disk_io = 'non'
/
&SYSTEM
ibrav = 0
ecutwfc = 50.0
ecutrho = 400
occupations = 'smearing'
smearing = 'mp'
degauss = 0.01
assume_isolated = 'esm'
esm_bc = 'bc1'
input_dft = 'BEEF-VDW'
nosym = .true.
nspin = 1
ntyp = 5
nat = 17
/
&ELECTRONS
electron_maxstep = 200
mixing_beta = 0.1
conv_thr = 1e-06
/
&IONS
ion_dynamics = 'bfgs'
upscale = 1.0
/
&CELL
/

K_POINTS {automatic}
11 7 2 0  0  0

ATOMIC_SPECIES
C 12.01 C.pbe-n-rrkjus_psl.1.0.0.UPF
Li 6.941 Li.pbe-sl-rrkjus_psl.1.0.0.UPF
Pb 207.2 Pb.pbe-dn-rrkjus_psl.1.0.0.UPF
Sn 118.7 Sn.pbe-dn-rrkjus_psl.1.0.0.UPF
Y 88.90 Y.pbe-spn-rrkjus_psl.1.0.0.UPF


CELL_PARAMETERS {angstrom}
6.45119000 0.00000000 0.00000000
0.00000000 9.64462000 0.00000000
0.00000000 0.00000000 24.83120000

ATOMIC_POSITIONS {angstrom}
Li 0.00000000 0.00000000 -2.4155791399999984 0 0 0
Li 2.77356012 0.00000000 0.64685276
Li 0.00000000 4.82231000 -2.4155791399999984 0 0 0
Li 2.98928791 4.82231000 0.77622331
Y 4.75065632 2.41115500 -0.8052758199999985 0 0 0
Y 1.33171915 2.16425273 2.49975690
Y 4.75065632 7.23346500 -0.8052758199999985 0 0 0
Y 1.33165464 7.48036727 2.49975690
Sn 1.52506132 2.41115500 -0.8052758199999985 0 0 0
Sn 4.54834700 2.64031117 2.54519800
Sn 1.52506132 7.23346500 -0.8052758199999985 0 0 0
Sn 4.54841151 7.00430883 2.54519800
Pb 3.22559500 0.00000000 -2.4155791399999984 0 0 0
Pb 5.71298033 0.00000000 1.07841902
Pb 3.22559500 4.82231000 -2.4155791399999984 0 0 0
Pb 6.18578804 4.82231000 0.99573112
C 1.33326744 0.00000000 2.13424164
