&CONTROL
calculation = 'relax'
prefix = 'scf'
pseudo_dir = '/vol0004/mdt0/data/hp150275/u10028/POT_KKJUS'
outdir = './data'
tprnfor = .true.
nstep = 50
disk_io = 'non'
/
&SYSTEM
ibrav = 0
ecutwfc = 50.0
ecutrho = 400
occupations = 'smearing'
smearing = 'mp'
degauss = 0.01
assume_isolated = 'esm'
esm_bc = 'bc1'
input_dft = 'BEEF-VDW'
nosym = .true.
nspin = 1
ntyp = 5
nat = 34
/
&ELECTRONS
electron_maxstep = 200
mixing_beta = 0.1
conv_thr = 1e-06
/
&IONS
ion_dynamics = 'bfgs'
upscale = 1.0
/
&CELL
/

K_POINTS {automatic}
8 6 1 0 0 0

ATOMIC_SPECIES
Au 196.9 Au.pbe-n-rrkjus_psl.1.0.0.UPF
C 12.01 C.pbe-n-rrkjus_psl.1.0.0.UPF
In 114.8 In.pbe-dn-rrkjus_psl.1.0.0.UPF
O 15.99 O.pbe-n-rrkjus_psl.1.0.0.UPF
Ti 47.86 Ti.pbe-spn-rrkjus_psl.1.0.0.UPF

CELL_PARAMETERS {angstrom}
6.72102000 0.00000000 0.00000000
0.00000000 9.50495000 0.00000000
0.00000000 0.00000000 27.12870000

ATOMIC_POSITIONS {angstrom}
Ti 0.00000000 0.00000000 -3.564439889999999 0 0 0
Ti 3.36051000 2.37623750 -1.1882370599999987 0 0 0
Ti 3.36051000 7.12871250 -1.1882370599999987 0 0 0
Ti 0.00000000 4.75247500 -3.564439889999999 0 0 0
Ti 6.70415024 4.75257005 1.16544895
Ti 3.35990511 7.15028874 3.32814892
Ti 3.36003953 2.35466126 3.32869149
Ti 0.18375269 9.50485495 1.47200326
In 0.00000000 7.12871250 -1.1882370599999987 0 0 0
In 3.36051000 0.00000000 -3.564439889999999 0 0 0
In 0.00000000 2.37623750 -1.1882370599999987 0 0 0
In 3.36051000 4.75247500 -3.564439889999999 0 0 0
In 6.56058925 2.51862165 3.90300607
In 3.49338457 4.75228490 1.16924697
In 6.56052204 6.98623330 3.90192092
In 3.29901267 0.00019010 1.17847073
Au 1.68025500 0.00000000 -1.1882370599999987 0 0 0
Au 5.04076500 4.75247500 -1.1882370599999987 0 0 0
Au 5.04076500 0.00000000 -1.1882370599999987 0 0 0
Au 1.68025500 4.75247500 -1.1882370599999987 0 0 0
Au 5.04076500 7.12871250 -3.564439889999999 0 0 0
Au 1.68025500 2.37623750 -3.564439889999999 0 0 0
Au 1.68025500 7.12871250 -3.564439889999999 0 0 0
Au 5.04076500 2.37623750 -3.564439889999999 0 0 0
Au 1.71923692 4.75237995 3.48142607
Au 4.88826506 9.50485495 3.59102602
Au 4.64207409 4.75247500 3.94722585
Au 1.51149019 0.00000000 3.89106944
Au 5.18062943 2.29506523 1.24113802
Au 1.61694299 7.03955607 1.22241922
Au 1.61647252 2.46539393 1.22296180
Au 5.18002453 7.20988477 1.24059545
C 1.92792459 0.00000000 5.99272983
O 1.67588634 0.00000000 7.11151742
