&CONTROL
calculation = 'relax'
prefix = 'scf'
pseudo_dir = '/vol0004/mdt0/data/hp150275/u10028/POT_KKJUS'
outdir = './data'
tprnfor = .true.
nstep = 50
disk_io = 'non'
/
&SYSTEM
ibrav = 0
ecutwfc = 50.0
ecutrho = 400
occupations = 'smearing'
smearing = 'mp'
degauss = 0.01
assume_isolated = 'esm'
esm_bc = 'bc1'
input_dft = 'BEEF-VDW'
nosym = .true.
nspin = 1
ntyp = 5
nat = 18
/
&ELECTRONS
electron_maxstep = 200
mixing_beta = 0.1
conv_thr = 1e-06
/
&IONS
ion_dynamics = 'bfgs'
upscale = 1.0
/
&CELL
/

K_POINTS {automatic}
8 8 1 0 0 0

ATOMIC_SPECIES
Al 26.98 Al.pbe-nl-rrkjus_psl.1.0.0.UPF
C 12.01 C.pbe-n-rrkjus_psl.1.0.0.UPF
Li 6.941 Li.pbe-sl-rrkjus_psl.1.0.0.UPF
O 15.99 O.pbe-n-rrkjus_psl.1.0.0.UPF
Rh 102.9 Rh.pbe-spn-rrkjus_psl.1.0.0.UPF

CELL_PARAMETERS {angstrom}
6.01864000 0.00000000 0.00000000
0.00000000 6.01864000 0.00000000
0.00000000 0.00000000 24.51400000

ATOMIC_POSITIONS {angstrom}
Li 6.01737609 6.01737609 0.84499758
Li 3.00932000 0.00000000 -2.2570039800000004 0 0 0
Li 0.00000000 3.00932000 -2.2570039800000004 0 0 0
Li 3.01244969 3.01244969 0.82612180
Li 1.51537318 1.51531299 2.66663292
Li 1.50466000 4.51398000 -0.7523346599999989 0 0 0
Li 4.50182235 4.50182235 2.64824742
Li 4.51398000 1.50466000 -0.7523346599999989 0 0 0
Al 0.00000000 0.00000000 -2.2570039800000004 0 0 0
Al 3.00932000 3.00932000 -2.2570039800000004 0 0 0
Al 3.01028298 6.01647329 0.78322230
Al 6.01653348 3.01034317 0.78322230
Rh 1.50466000 1.50466000 -0.7523346599999989 0 0 0
Rh 1.50664615 4.51464205 2.06996216
Rh 4.51398000 4.51398000 -0.7523346599999989 0 0 0
Rh 4.51452168 1.50658596 2.06996216
C 1.50062751 1.50062751 4.78268140
O 1.49509036 1.49509036 5.92209212
