&CONTROL
calculation = 'relax'
prefix = 'scf'
pseudo_dir = '/vol0004/mdt0/data/hp150275/u10028/POT_KKJUS'
outdir = './data'
tprnfor = .true.
nstep = 50
disk_io = 'non'
/
&SYSTEM
ibrav = 0
ecutwfc = 50.0
ecutrho = 400
occupations = 'smearing'
smearing = 'mp'
degauss = 0.01
assume_isolated = 'esm'
esm_bc = 'bc1'
input_dft = 'BEEF-VDW'
nosym = .true.
nspin = 1
ntyp = 5
nat = 18
/
&ELECTRONS
electron_maxstep = 200
mixing_beta = 0.1
conv_thr = 1e-06
/
&IONS
ion_dynamics = 'bfgs'
upscale = 1.0
/
&CELL
/

K_POINTS {automatic}
8 8 1 0 0 0

ATOMIC_SPECIES
Au 196.9 Au.pbe-n-rrkjus_psl.1.0.0.UPF
C 12.01 C.pbe-n-rrkjus_psl.1.0.0.UPF
Li 6.941 Li.pbe-sl-rrkjus_psl.1.0.0.UPF
O 15.99 O.pbe-n-rrkjus_psl.1.0.0.UPF
Sn 118.7 Sn.pbe-dn-rrkjus_psl.1.0.0.UPF

CELL_PARAMETERS {angstrom}
6.60404000 0.00000000 0.00000000
0.00000000 6.60404000 0.00000000
0.00000000 0.00000000 24.95300000

ATOMIC_POSITIONS {angstrom}
Li 0.00000000 0.00000000 -0.8254452400000005 0 0 0
Li 3.30202000 6.60397396 2.54370882
Li 0.00000000 3.30195396 2.61756970
Li 3.30202000 3.30202000 -0.8254452400000005 0 0 0
Li 1.65101000 1.65101000 -2.4765852499999994 0 0 0
Li 1.64546261 4.94774677 0.91677322
Li 4.95303000 4.95303000 -2.4765852499999994 0 0 0
Li 4.95844531 1.65629323 0.91677322
Sn 0.00000000 0.00000000 2.60683991
Sn 3.30202000 3.30202000 2.60683991
Sn 3.30202000 0.00000000 -0.8254452400000005 0 0 0
Sn 0.00000000 3.30202000 -0.8254452400000005 0 0 0
Au 1.64678341 1.65517055 0.88533244
Au 1.65101000 4.95303000 -2.4765852499999994 0 0 0
Au 4.95725659 4.94886945 0.88533244
Au 4.95303000 1.65101000 -2.4765852499999994 0 0 0
C 0.00006604 3.30195396 4.73034021
O 0.00006604 3.30202000 5.86944466
