&CONTROL
calculation = 'relax'
prefix = 'scf'
pseudo_dir = '/vol0004/mdt0/data/hp150275/u10028/POT_KKJUS'
outdir = './data'
tprnfor = .true.
nstep = 50
disk_io = 'non'
/
&SYSTEM
ibrav = 0
ecutwfc = 50.0
ecutrho = 400
occupations = 'smearing'
smearing = 'mp'
degauss = 0.01
assume_isolated = 'esm'
esm_bc = 'bc1'
input_dft = 'BEEF-VDW'
nosym = .true.
nspin = 1
ntyp = 3
nat = 33
/
&ELECTRONS
electron_maxstep = 200
mixing_beta = 0.1
conv_thr = 1e-06
/
&IONS
ion_dynamics = 'bfgs'
upscale = 1.0
/
&CELL
/

K_POINTS {automatic}
9 6 2 0  0  0

ATOMIC_SPECIES
C 12.01 C.pbe-n-rrkjus_psl.1.0.0.UPF
Hf 178.4 Hf.pbe-spn-rrkjus_psl.1.0.0.UPF
Rh 102.9 Rh.pbe-spn-rrkjus_psl.1.0.0.UPF

CELL_PARAMETERS {angstrom}
6.52860000 0.00000000 0.00000000
0.00000000 9.23283000 0.00000000
0.00000000 0.00000000 26.92460000

ATOMIC_POSITIONS {angstrom}
Hf 0.00000000 0.00000000 -3.462234310000003 0 0 0
Hf 0.00000000 2.30820750 -1.1539883600000032 0 0 0
Hf 0.00000000 0.00000000 1.23691612
Hf 0.00000000 2.21061649 3.58016406
Hf 0.00000000 4.61641500 -3.462234310000003 0 0 0
Hf 0.00000000 6.92462250 -1.1539883600000032 0 0 0
Hf 0.00000000 4.61641500 1.22533855
Hf 0.00000000 7.02221351 3.58016406
Hf 3.26430000 0.00000000 -3.462234310000003 0 0 0
Hf 3.26430000 2.30820750 -1.1539883600000032 0 0 0
Hf 3.26430000 0.00000000 1.06756039
Hf 3.26430000 2.34006076 3.48538947
Hf 3.26430000 4.61641500 -3.462234310000003 0 0 0
Hf 3.26430000 6.92462250 -1.1539883600000032 0 0 0
Hf 3.26430000 4.61641500 1.18979807
Hf 3.26430000 6.89267691 3.48538947
Rh 1.63215000 2.30820750 -3.462234310000003 0 0 0
Rh 1.63215000 0.00000000 -1.1539883600000032 0 0 0
Rh 1.61465335 2.30922311 1.17875899
Rh 1.88722240 9.23273767 3.25518414
Rh 1.63215000 6.92462250 -3.462234310000003 0 0 0
Rh 1.63215000 4.61641500 -1.1539883600000032 0 0 0
Rh 1.61465335 6.92360689 1.17875899
Rh 1.60636203 4.61650733 3.29395556
Rh 4.89645000 2.30820750 -3.462234310000003 0 0 0
Rh 4.89645000 0.00000000 -1.1539883600000032 0 0 0
Rh 4.91394665 2.30922311 1.17875899
Rh 4.64137760 9.23273767 3.25518414
Rh 4.89645000 6.92462250 -3.462234310000003 0 0 0
Rh 4.89645000 4.61641500 -1.1539883600000032 0 0 0
Rh 4.91394665 6.92360689 1.17875899
Rh 4.92223797 4.61650733 3.29395556
C 0.00000000 0.00000000 3.84994855
