&CONTROL
calculation = 'relax'
prefix = 'scf'
pseudo_dir = '/vol0004/mdt0/data/hp150275/u10028/POT_KKJUS'
outdir = './data'
tprnfor = .true.
nstep = 50
disk_io = 'non'
/
&SYSTEM
ibrav = 0
ecutwfc = 50.0
ecutrho = 400
occupations = 'smearing'
smearing = 'mp'
degauss = 0.01
assume_isolated = 'esm'
esm_bc = 'bc1'
input_dft = 'BEEF-VDW'
nosym = .true.
nspin = 1
ntyp = 2
nat = 32
/
&ELECTRONS
electron_maxstep = 200
mixing_beta = 0.1
conv_thr = 1e-06
/
&IONS
ion_dynamics = 'bfgs'
upscale = 1.0
/
&CELL
/

K_POINTS {automatic}
8 6 1 0 0 0

ATOMIC_SPECIES
Be 9.012 Be.pbe-n-rrkjus_psl.1.0.0.UPF
Li 6.941 Li.pbe-sl-rrkjus_psl.1.0.0.UPF

CELL_PARAMETERS {angstrom}
5.62306000 0.00000000 0.00000000
0.00000000 7.95221000 0.00000000
0.00000000 0.00000000 25.96420000

ATOMIC_POSITIONS {angstrom}
Li 0.00000000 0.00000000 -2.9819883700000034 0 0 0
Li 0.00000000 1.98805250 -0.9939095800000004 0 0 0
Li 0.00000000 7.95181239 0.84928898
Li 0.00000000 1.98829107 3.45817180
Li 0.00000000 3.97610500 -2.9819883700000034 0 0 0
Li 0.00000000 5.96415750 -0.9939095800000004 0 0 0
Li 5.62300377 3.97634357 0.84954862
Li 5.62300377 5.96399846 3.45817180
Li 2.81153000 0.00000000 -2.9819883700000034 0 0 0
Li 2.81153000 1.98805250 -0.9939095800000004 0 0 0
Li 2.81153000 7.95197143 0.84980827
Li 2.81153000 1.98805250 3.45765251
Li 2.81153000 3.97610500 -2.9819883700000034 0 0 0
Li 2.81153000 5.96415750 -0.9939095800000004 0 0 0
Li 2.81153000 3.97634357 0.84954862
Li 2.81153000 5.96415750 3.45739287
Be 1.40576500 1.98805250 -2.9819883700000034 0 0 0
Be 1.40576500 0.00000000 -0.9939095800000004 0 0 0
Be 1.40565254 1.98805250 1.39661432
Be 1.40520269 0.00007952 2.63121203
Be 1.40576500 5.96415750 -2.9819883700000034 0 0 0
Be 1.40576500 3.97610500 -0.9939095800000004 0 0 0
Be 1.40570877 5.96415750 1.39687396
Be 1.40548385 3.97610500 2.63121203
Be 4.21729500 1.98805250 -2.9819883700000034 0 0 0
Be 4.21729500 0.00000000 -0.9939095800000004 0 0 0
Be 4.21729500 1.98805250 1.39661432
Be 4.21780108 0.00015904 2.63147167
Be 4.21729500 5.96415750 -2.9819883700000034 0 0 0
Be 4.21729500 3.97610500 -0.9939095800000004 0 0 0
Be 4.21729500 5.96415750 1.39687396
Be 4.21757615 3.97602548 2.63121203
