&CONTROL
calculation = 'relax'
prefix = 'scf'
pseudo_dir = '/vol0004/mdt0/data/hp150275/u10028/POT_KKJUS'
outdir = './data'
tprnfor = .true.
nstep = 50
disk_io = 'non'
/
&SYSTEM
ibrav = 0
ecutwfc = 50.0
ecutrho = 400
occupations = 'smearing'
smearing = 'mp'
degauss = 0.01
assume_isolated = 'esm'
esm_bc = 'bc1'
input_dft = 'BEEF-VDW'
nosym = .true.
nspin = 1
ntyp = 3
nat = 17
/
&ELECTRONS
electron_maxstep = 200
mixing_beta = 0.1
conv_thr = 1e-06
/
&IONS
ion_dynamics = 'bfgs'
upscale = 1.0
/
&CELL
/

K_POINTS {automatic}
8 8 1 0 0 0

ATOMIC_SPECIES
C 12.01 C.pbe-n-rrkjus_psl.1.0.0.UPF
Pt 195.0 Pt.pbe-n-rrkjus_psl.1.0.0.UPF
Zr 91.22 Zr.pbe-spn-rrkjus_psl.1.0.0.UPF

CELL_PARAMETERS {angstrom}
6.75388000 0.00000000 0.00000000
-0.00000000 6.75388000 0.00000000
0.00000000 0.00000000 25.06540000

ATOMIC_POSITIONS {angstrom}
Zr 0.00000000 0.00000000 -2.226559479999999 0 0 0
Zr 0.00000000 0.00000000 1.15050186
Zr 0.00000000 3.37694000 -2.226559479999999 0 0 0
Zr 0.00000000 3.37694000 1.15050186
Zr 3.37694000 0.00000000 -2.226559479999999 0 0 0
Zr 3.37694000 -0.00000000 1.15050186
Zr 3.37694000 3.37694000 -2.226559479999999 0 0 0
Zr 3.37694000 3.37694000 1.15050186
Pt 1.68847000 1.68847000 -0.5379034800000007 0 0 0
Pt 1.68847000 1.68847000 2.83890720
Pt 1.68847000 5.06541000 -0.5379034800000007 0 0 0
Pt 1.68847000 5.06541000 2.83890720
Pt 5.06541000 1.68847000 -0.5379034800000007 0 0 0
Pt 5.06541000 1.68847000 2.83890720
Pt 5.06541000 5.06541000 -0.5379034800000007 0 0 0
Pt 5.06541000 5.06541000 2.83890720
C 0.00000000 0.00000000 3.63899477
