&CONTROL
calculation = 'relax'
prefix = 'scf'
pseudo_dir = '/vol0004/mdt0/data/hp150275/u10028/POT_KKJUS'
outdir = './data'
tprnfor = .true.
nstep = 50
disk_io = 'non'
/
&SYSTEM
ibrav = 0
ecutwfc = 50.0
ecutrho = 400
occupations = 'smearing'
smearing = 'mp'
degauss = 0.01
assume_isolated = 'esm'
esm_bc = 'bc1'
input_dft = 'BEEF-VDW'
nosym = .true.
nspin = 1
ntyp = 5
nat = 34
/
&ELECTRONS
electron_maxstep = 200
mixing_beta = 0.1
conv_thr = 1e-06
/
&IONS
ion_dynamics = 'bfgs'
upscale = 1.0
/
&CELL
/

K_POINTS {automatic}
8 6 1 0 0 0

ATOMIC_SPECIES
C 12.01 C.pbe-n-rrkjus_psl.1.0.0.UPF
Ge 72.64 Ge.pbe-dn-rrkjus_psl.1.0.0.UPF
Li 6.941 Li.pbe-sl-rrkjus_psl.1.0.0.UPF
O 15.99 O.pbe-n-rrkjus_psl.1.0.0.UPF
Pd 106.4 Pd.pbe-n-rrkjus_psl.1.0.0.UPF

CELL_PARAMETERS {angstrom}
6.13924000 0.00000000 0.00000000
0.00000000 8.68219000 0.00000000
0.00000000 0.00000000 26.51160000

ATOMIC_POSITIONS {angstrom}
Li 0.00000000 0.00000000 -3.2558895999999997 0 0 0
Li 3.06962000 2.17054750 -1.085384900000001 0 0 0
Li 3.06962000 6.51164250 -1.085384900000001 0 0 0
Li 0.00000000 4.34109500 -3.2558895999999997 0 0 0
Li 6.13917861 4.33284692 1.00399429
Li 3.06962000 6.51155568 3.57561949
Li 3.06955861 2.17054750 3.56899159
Li 0.00000000 0.00824808 1.00372918
Ge 0.00000000 6.51164250 -1.085384900000001 0 0 0
Ge 3.06962000 0.00000000 -3.2558895999999997 0 0 0
Ge 0.00000000 2.17054750 -1.085384900000001 0 0 0
Ge 3.06962000 4.34109500 -3.2558895999999997 0 0 0
Ge 6.13917861 2.17046068 3.26013145
Ge 3.06955861 4.35437875 1.12965928
Ge 0.00000000 6.51164250 3.30944303
Ge 3.06955861 8.66881943 1.12992439
Pd 1.53481000 0.00000000 -1.085384900000001 0 0 0
Pd 4.60443000 4.34109500 -1.085384900000001 0 0 0
Pd 4.60443000 0.00000000 -1.085384900000001 0 0 0
Pd 1.53481000 4.34109500 -1.085384900000001 0 0 0
Pd 4.60443000 6.51164250 -3.2558895999999997 0 0 0
Pd 1.53481000 2.17054750 -3.2558895999999997 0 0 0
Pd 1.53481000 6.51164250 -3.2558895999999997 0 0 0
Pd 4.60443000 2.17054750 -3.2558895999999997 0 0 0
Pd 1.43621381 4.34508881 3.10318278
Pd 4.70290341 8.67810937 3.10318278
Pd 4.70290341 4.34500199 3.10291766
Pd 1.43627520 8.67810937 3.10291766
Pd 4.58828380 2.17054750 1.07663608
Pd 1.53253848 6.51155568 1.08193840
Pd 1.55095620 2.17046068 1.07663608
Pd 4.60657873 6.51164250 1.08193840
C 0.00128924 2.17141572 7.19789940
O 6.13917861 2.17072114 8.33418658
