&CONTROL
calculation = 'relax'
prefix = 'scf'
pseudo_dir = '/vol0004/mdt0/data/hp150275/u10028/POT_HYBRID_KKJUS_GBRV'
outdir = './data'
tprnfor = .true.
nstep = 50
disk_io = 'non'
/
&SYSTEM
ibrav = 0
ecutwfc = 50.0
ecutrho = 400
occupations = 'smearing'
smearing = 'mp'
degauss = 0.01
assume_isolated = 'esm'
esm_bc = 'bc1'
input_dft = 'BEEF-VDW'
nosym = .true.
nspin = 2
ntyp = 5
nat = 34
starting_magnetization(1) = 0.0
starting_magnetization(2) = 0.0
starting_magnetization(3) = 0.0
starting_magnetization(4) = 0.001
starting_magnetization(5) = 0.0
/
&ELECTRONS
electron_maxstep = 300
mixing_beta = 0.1
conv_thr = 1e-06
/
&IONS
ion_dynamics = 'bfgs'
upscale = 1.0
/
&CELL
/

K_POINTS {automatic}
8 6 1 0 0 0

ATOMIC_SPECIES
C 12.01 C.pbe-n-rrkjus_psl.1.0.0.UPF
Ga 69.72 Ga.pbe-dnl-rrkjus_psl.1.0.0.UPF
Hf 178.4 Hf.pbe-spn-rrkjus_psl.1.0.0.UPF
Ni 58.69 ni_pbe_v1.4.uspp.F.UPF
O 15.99 O.pbe-n-rrkjus_psl.1.0.0.UPF

CELL_PARAMETERS {angstrom}
6.08368000 0.00000000 0.00000000
0.00000000 8.60362000 0.00000000
0.00000000 0.00000000 26.45270000

ATOMIC_POSITIONS {angstrom}
Hf 0.00000000 0.00000000 -3.226435819999999 0 0 0
Hf 3.04184000 2.15090500 -1.075566779999999 0 0 0
Hf 3.04184000 6.45271500 -1.075566779999999 0 0 0
Hf 0.00000000 4.30181000 -3.226435819999999 0 0 0
Hf 6.07096511 4.30224018 1.05123030
Hf 3.01926955 6.46441592 3.29521284
Hf 3.01914787 2.13920408 3.29547737
Hf 0.01527004 8.60327586 1.09196746
Ga 0.00000000 6.45271500 -1.075566779999999 0 0 0
Ga 3.04184000 0.00000000 -3.226435819999999 0 0 0
Ga 0.00000000 2.15090500 -1.075566779999999 0 0 0
Ga 3.04184000 4.30181000 -3.226435819999999 0 0 0
Ga 6.05064562 2.18936318 3.20659629
Ga 3.03557381 4.30146586 1.08641239
Ga 6.05064562 6.41425682 3.20712535
Ga 3.01598436 0.00060225 1.13905326
Ni 1.52092000 0.00000000 -1.075566779999999 0 0 0
Ni 4.56276000 4.30181000 -1.075566779999999 0 0 0
Ni 4.56276000 0.00000000 -1.075566779999999 0 0 0
Ni 1.52092000 4.30181000 -1.075566779999999 0 0 0
Ni 4.56276000 6.45271500 -3.226435819999999 0 0 0
Ni 1.52092000 2.15090500 -3.226435819999999 0 0 0
Ni 1.52092000 6.45271500 -3.226435819999999 0 0 0
Ni 4.56276000 2.15090500 -3.226435819999999 0 0 0
Ni 1.48971072 4.30137982 3.11030847
Ni 4.64330792 0.00043018 3.10184360
Ni 4.55667632 4.30120775 3.11797975
Ni 1.39444029 0.00025811 3.47985269
Ni 4.45775568 2.14264552 1.14540191
Ni 1.61661629 6.44953166 1.14857623
Ni 1.61625127 2.15434645 1.14831171
Ni 4.45757317 6.46106051 1.14566644
C 1.92244288 0.00000000 5.16383157
O 2.13531084 8.60336189 6.31082064
