&CONTROL
calculation = 'relax'
prefix = 'scf'
pseudo_dir = '/vol0403/data/hp230205/u10028/POT_HYBRID_KKJUS_GBRV'
outdir = './data'
tprnfor = .true.
nstep = 50
disk_io = 'non'
/
&SYSTEM
ibrav = 0
ecutwfc = 50.0
ecutrho = 400
occupations = 'smearing'
smearing = 'mp'
degauss = 0.01
assume_isolated = 'esm'
esm_bc = 'bc1'
input_dft = 'BEEF-VDW'
nosym = .true.
nspin = 2
ntyp = 6
nat = 34
starting_magnetization(1) = 0.0
starting_magnetization(2) = 0.0
starting_magnetization(3) = 0.1
starting_magnetization(4) = 0.0
starting_magnetization(5) = 0.0
starting_magnetization(6) = 0.0
/
&ELECTRONS
electron_maxstep = 400
mixing_beta = 0.05
conv_thr = 1e-06
/
&IONS
ion_dynamics = 'bfgs'
upscale = 1.0
/
&CELL
/

K_POINTS {automatic}
9 6 2 0  0  0

ATOMIC_SPECIES
Al 26.98 Al.pbe-nl-rrkjus_psl.1.0.0.UPF
C 12.01 C.pbe-n-rrkjus_psl.1.0.0.UPF
Fe 55.84 fe_pbe_v1.5.uspp.F.UPF
Li 6.941 Li.pbe-sl-rrkjus_psl.1.0.0.UPF
O 15.99 O.pbe-n-rrkjus_psl.1.0.0.UPF
Pd 106.4 Pd.pbe-n-rrkjus_psl.1.0.0.UPF


CELL_PARAMETERS {angstrom}
5.67696000 0.00000000 0.00000000
0.00000000 8.60712000 0.00000000
0.00000000 0.00000000 26.63180000

ATOMIC_POSITIONS {angstrom}
Li 0.00011354 2.15332928 1.05195610
Li 0.00000000 2.15178000 -3.3159254199999992 0 0 0
Li 5.67690323 6.45379072 1.05195610
Li 0.00000000 6.45534000 -3.3159254199999992 0 0 0
Li 2.83859354 2.14997250 0.90441593
Li 2.83848000 2.15178000 -3.3159254199999992 0 0 0
Li 2.83853677 6.45714750 0.90494856
Li 2.83848000 6.45534000 -3.3159254199999992 0 0 0
Al 0.00000000 0.00000000 3.32178441
Al 0.00000000 0.00000000 -1.1052196999999992 0 0 0
Al 0.00000000 4.30364607 3.28263567
Al 0.00000000 4.30356000 -1.1052196999999992 0 0 0
Al 2.83842323 0.00000000 3.35374257
Al 2.83848000 0.00000000 -1.1052196999999992 0 0 0
Al 2.83848000 4.30356000 3.40514195
Al 2.83848000 4.30356000 -1.1052196999999992 0 0 0
Fe 1.67623598 2.16710067 3.08982144
Fe 1.41924000 2.15178000 -1.1052196999999992 0 0 0
Fe 1.67617921 6.43993326 3.09008775
Fe 1.41924000 6.45534000 -1.1052196999999992 0 0 0
Fe 4.00083756 2.16710067 3.08982144
Fe 4.25772000 2.15178000 -1.1052196999999992 0 0 0
Fe 4.00078079 6.44001933 3.09008775
Fe 4.25772000 6.45534000 -1.1052196999999992 0 0 0
Pd 1.41821815 0.00000000 1.09696384
Pd 1.41924000 0.00000000 -3.3159254199999992 0 0 0
Pd 1.42372480 4.30356000 1.07991949
Pd 1.41924000 4.30356000 -3.3159254199999992 0 0 0
Pd 4.25874185 0.00000000 1.09696384
Pd 4.25772000 0.00000000 -3.3159254199999992 0 0 0
Pd 4.25329197 4.30347393 1.07991949
Pd 4.25772000 4.30356000 -3.3159254199999992 0 0 0
C 5.67667615 8.60686179 5.34154013
O 5.67661938 8.60686179 6.49123493
