&CONTROL
calculation = 'relax'
prefix = 'scf'
pseudo_dir = '/vol0004/mdt0/data/hp150275/u10028/POT_HYBRID_KKJUS_GBRV'
outdir = './data'
tprnfor = .true.
nstep = 50
disk_io = 'non'
/
&SYSTEM
ibrav = 0
ecutwfc = 50.0
ecutrho = 400
occupations = 'smearing'
smearing = 'mp'
degauss = 0.01
assume_isolated = 'esm'
esm_bc = 'bc1'
input_dft = 'BEEF-VDW'
nosym = .true.
nspin = 2
ntyp = 4
nat = 33
starting_magnetization(1) = 0.0
starting_magnetization(2) = 0.0
starting_magnetization(3) = 0.0
starting_magnetization(4) = 0.001
/
&ELECTRONS
electron_maxstep = 300
mixing_beta = 0.1
conv_thr = 1e-06
/
&IONS
ion_dynamics = 'bfgs'
upscale = 1.0
/
&CELL
/

K_POINTS {automatic}
8 6 1 0 0 0

ATOMIC_SPECIES
C 12.01 C.pbe-n-rrkjus_psl.1.0.0.UPF
Hf 178.4 Hf.pbe-spn-rrkjus_psl.1.0.0.UPF
In 114.8 In.pbe-dn-rrkjus_psl.1.0.0.UPF
Ni 58.69 ni_pbe_v1.4.uspp.F.UPF

CELL_PARAMETERS {angstrom}
6.30953000 0.00000000 0.00000000
0.00000000 8.92302000 0.00000000
0.00000000 0.00000000 26.69230000

ATOMIC_POSITIONS {angstrom}
Hf 0.00000000 0.00000000 -3.346146730000001 0 0 0
Hf 3.15476500 2.23075500 -1.1154712199999999 0 0 0
Hf 3.15476500 6.69226500 -1.1154712199999999 0 0 0
Hf 0.00000000 4.46151000 -3.346146730000001 0 0 0
Hf 6.24649780 4.50273435 1.11280199
Hf 3.19306385 6.69226500 3.26953983
Hf 3.54015109 2.23066577 3.29276213
Hf 6.24649780 8.88170642 1.11280199
In 0.00000000 6.69226500 -1.1154712199999999 0 0 0
In 3.15476500 0.00000000 -3.346146730000001 0 0 0
In 0.00000000 2.23075500 -1.1154712199999999 0 0 0
In 3.15476500 4.46151000 -3.346146730000001 0 0 0
In 6.00364399 2.23084423 4.78833170
In 3.09255303 4.40235038 1.14082890
In 0.12985013 6.69217577 3.53539514
In 3.09261613 0.05915962 1.14082890
Ni 1.57738250 0.00000000 -1.1154712199999999 0 0 0
Ni 4.73214750 4.46151000 -1.1154712199999999 0 0 0
Ni 4.73214750 0.00000000 -1.1154712199999999 0 0 0
Ni 1.57738250 4.46151000 -1.1154712199999999 0 0 0
Ni 4.73214750 6.69226500 -3.346146730000001 0 0 0
Ni 1.57738250 2.23075500 -3.346146730000001 0 0 0
Ni 1.57738250 6.69226500 -3.346146730000001 0 0 0
Ni 4.73214750 2.23075500 -3.346146730000001 0 0 0
Ni 1.25578576 4.15098890 3.23777599
Ni 4.80508567 8.82674061 3.26179906
Ni 4.80502257 4.55770016 3.26179906
Ni 1.25578576 0.31025341 3.23777599
Ni 4.76319039 2.23084423 1.05167662
Ni 1.67682069 6.69226500 1.12748275
Ni 1.31932272 2.23075500 1.41148882
Ni 4.64255217 6.69217577 1.17392735
C 1.47308597 2.23057654 3.39819671
