&CONTROL
calculation = 'relax'
prefix = 'scf'
pseudo_dir = '/vol0004/mdt0/data/hp150275/u10028/POT_KKJUS'
outdir = './data'
tprnfor = .true.
nstep = 50
disk_io = 'non'
/
&SYSTEM
ibrav = 0
ecutwfc = 50.0
ecutrho = 400
occupations = 'smearing'
smearing = 'mp'
degauss = 0.01
assume_isolated = 'esm'
esm_bc = 'bc1'
input_dft = 'BEEF-VDW'
nosym = .true.
nspin = 1
ntyp = 4
nat = 34
/
&ELECTRONS
electron_maxstep = 200
mixing_beta = 0.1
conv_thr = 1e-06
/
&IONS
ion_dynamics = 'bfgs'
upscale = 1.0
/
&CELL
/

K_POINTS {automatic}
8 6 1 0 0 0

ATOMIC_SPECIES
C 12.01 C.pbe-n-rrkjus_psl.1.0.0.UPF
Ca 40.07 Ca.pbe-spn-rrkjus_psl.1.0.0.UPF
O 15.99 O.pbe-n-rrkjus_psl.1.0.0.UPF
Pd 106.4 Pd.pbe-n-rrkjus_psl.1.0.0.UPF

CELL_PARAMETERS {angstrom}
7.14855000 0.00000000 0.00000000
0.00000000 10.10960000 0.00000000
0.00000000 0.00000000 27.58220000

ATOMIC_POSITIONS {angstrom}
Ca 0.00000000 0.00000000 -3.791173390000001 0 0 0
Ca 0.00000000 2.52740000 -1.2638163999999996 0 0 0
Ca 0.00000000 5.05732740 1.23292434
Ca 0.00000000 2.52729890 3.82951265
Ca 0.00000000 5.05480000 -3.791173390000001 0 0 0
Ca 0.00000000 7.58220000 -1.2638163999999996 0 0 0
Ca 0.00000000 10.10596054 1.23264852
Ca 0.00000000 7.58129014 3.85433663
Ca 3.57427500 0.00000000 -3.791173390000001 0 0 0
Ca 3.57427500 2.52740000 -1.2638163999999996 0 0 0
Ca 3.57427500 5.06005699 1.23044194
Ca 3.57427500 2.52638904 3.85185423
Ca 3.57427500 5.05480000 -3.791173390000001 0 0 0
Ca 3.57427500 7.58220000 -1.2638163999999996 0 0 0
Ca 3.57434649 10.10323095 1.23071776
Ca 3.57427500 7.58240219 3.86012889
Pd 1.78713750 2.52740000 -3.791173390000001 0 0 0
Pd 1.78713750 0.00000000 -1.2638163999999996 0 0 0
Pd 1.81144257 2.52659123 1.35980246
Pd 1.80393659 5.07299728 3.56168949
Pd 1.78713750 7.58220000 -3.791173390000001 0 0 0
Pd 1.78713750 5.05480000 -1.2638163999999996 0 0 0
Pd 1.77963152 7.58159342 1.39234946
Pd 1.80250688 10.09130162 3.56168949
Pd 5.36141250 2.52740000 -3.791173390000001 0 0 0
Pd 5.36141250 0.00000000 -1.2638163999999996 0 0 0
Pd 5.33710743 2.52659123 1.35952664
Pd 5.34461341 5.07299728 3.56168949
Pd 5.36141250 7.58220000 -3.791173390000001 0 0 0
Pd 5.36141250 5.05480000 -1.2638163999999996 0 0 0
Pd 5.36891848 7.58159342 1.39207363
Pd 5.34611460 10.09130162 3.56141366
C 0.00000000 2.54337317 6.50084872
O 0.00000000 2.54731591 7.64302762
