&CONTROL
calculation = 'relax'
prefix = 'scf'
pseudo_dir = '/vol0004/mdt0/data/hp150275/u10028/POT_KKJUS'
outdir = './data'
tprnfor = .true.
nstep = 50
disk_io = 'non'
/
&SYSTEM
ibrav = 0
ecutwfc = 50.0
ecutrho = 400
occupations = 'smearing'
smearing = 'mp'
degauss = 0.01
assume_isolated = 'esm'
esm_bc = 'bc1'
input_dft = 'BEEF-VDW'
nosym = .true.
nspin = 1
ntyp = 4
nat = 33
/
&ELECTRONS
electron_maxstep = 200
mixing_beta = 0.1
conv_thr = 1e-06
/
&IONS
ion_dynamics = 'bfgs'
upscale = 1.0
/
&CELL
/

K_POINTS {automatic}
8 6 1 0 0 0

ATOMIC_SPECIES
C 12.01 C.pbe-n-rrkjus_psl.1.0.0.UPF
Ga 69.72 Ga.pbe-dnl-rrkjus_psl.1.0.0.UPF
Ir 192.2 Ir.pbe-n-rrkjus_psl.0.2.3.UPF
Li 6.941 Li.pbe-sl-rrkjus_psl.1.0.0.UPF

CELL_PARAMETERS {angstrom}
5.92875000 0.00000000 0.00000000
0.00000000 8.38451000 0.00000000
0.00000000 0.00000000 26.28840000

ATOMIC_POSITIONS {angstrom}
Li 1.48218750 0.00000000 -1.0481185099999983 0 0 0
Li 4.44656250 4.19225500 -1.0481185099999983 0 0 0
Li 4.44656250 0.00000000 -1.0481185099999983 0 0 0
Li 1.48218750 4.19225500 -1.0481185099999983 0 0 0
Li 4.44656250 6.28838250 -3.14409264 0 0 0
Li 1.48218750 2.09612750 -3.14409264 0 0 0
Li 1.48218750 6.28838250 -3.14409264 0 0 0
Li 4.44656250 2.09612750 -3.14409264 0 0 0
Li 1.43867047 4.20055566 3.78842132
Li 4.24326566 0.00679145 4.36071979
Li 4.48978309 4.18403818 3.79026151
Li 1.68518790 8.37771855 4.35914249
Li 4.44709609 2.12639558 0.97608829
Li 1.48177249 6.25476061 0.97766560
Li 1.48046816 2.12807248 0.96557293
Li 4.44822255 6.26029439 0.96373274
Ga 0.00000000 0.00000000 -3.14409264 0 0 0
Ga 2.96437500 2.09612750 -1.0481185099999983 0 0 0
Ga 2.96437500 6.28838250 -1.0481185099999983 0 0 0
Ga 0.00000000 4.19225500 -3.14409264 0 0 0
Ga 5.92513346 4.19225500 1.42824877
Ga 2.98328771 6.37063454 3.03157829
Ga 2.94818951 2.01395930 3.03157829
Ga 0.00332010 0.00008385 0.96636158
Ir 0.00000000 6.28838250 -1.0481185099999983 0 0 0
Ir 2.96437500 0.00000000 -3.14409264 0 0 0
Ir 0.00000000 2.09612750 -1.0481185099999983 0 0 0
Ir 2.96437500 4.19225500 -3.14409264 0 0 0
Ir 0.01345826 1.83042238 3.04787710
Ir 2.96733937 4.19233885 1.55732482
Ir 5.91256451 6.55425531 3.04787710
Ir 2.96170706 0.00000000 1.33545072
C 5.92780140 0.00008385 3.33021451
