&CONTROL
calculation = 'relax'
prefix = 'scf'
pseudo_dir = '/vol0403/data/hp230205/u10028/POT_HYBRID_KKJUS_GBRV'
outdir = './data'
tprnfor = .true.
nstep = 70
disk_io = 'non'
/
&SYSTEM
ibrav = 0
ecutwfc = 50.0
ecutrho = 400
occupations = 'smearing'
smearing = 'mp'
degauss = 0.01
assume_isolated = 'esm'
esm_bc = 'bc1'
input_dft = 'BEEF-VDW'
nosym = .true.
nspin = 1
ntyp = 4
nat = 32
/
&ELECTRONS
electron_maxstep = 200
mixing_beta = 0.1
conv_thr = 1e-06
/
&IONS
ion_dynamics = 'bfgs'
upscale = 1.0
/
&CELL
/

K_POINTS {automatic}
9 6 2 0  0  0

ATOMIC_SPECIES
Ag 107.8 Ag.pbe-n-rrkjus_psl.1.0.0.UPF
Li 6.941 Li.pbe-sl-rrkjus_psl.1.0.0.UPF
Mg 24.30 Mg.pbe-spnl-rrkjus_psl.1.0.0.UPF
Pd 106.4 Pd.pbe-n-rrkjus_psl.1.0.0.UPF


CELL_PARAMETERS {angstrom}
6.38329000 0.00000000 0.00000000
-0.00000000 9.02734000 0.00000000
0.00000000 0.00000000 26.77050000

ATOMIC_POSITIONS {angstrom}
Li 4.78746750 0.00000000 -1.1283765799999976 0 0 0
Li 4.78746750 4.51367000 -1.1283765799999976 0 0 0
Li 1.59582250 2.25683500 -3.385129729999999 0 0 0
Li 1.59582250 6.77050500 -3.385129729999999 0 0 0
Li 4.85232173 4.51367000 3.53076124
Li 4.85232173 -0.00000000 3.53076124
Li 1.60539743 6.77050500 1.13881707
Li 1.60533360 2.25683500 1.13881707
Mg 1.59582250 0.00000000 -1.1283765799999976 0 0 0
Mg 1.59582250 4.51367000 -1.1283765799999976 0 0 0
Mg 4.78746750 2.25683500 -3.385129729999999 0 0 0
Mg 4.78746750 6.77050500 -3.385129729999999 0 0 0
Mg 1.52969162 4.51367000 3.51416353
Mg 1.52969162 -0.00000000 3.51416353
Mg 4.76665797 6.77050500 1.11793608
Mg 4.76665797 2.25683500 1.11793608
Ag 0.00000000 0.00000000 -3.385129729999999 0 0 0
Ag 0.00000000 4.51367000 -3.385129729999999 0 0 0
Ag 3.19164500 6.77050500 -1.1283765799999976 0 0 0
Ag 3.19164500 2.25683500 -1.1283765799999976 0 0 0
Ag 0.00178732 4.51367000 1.14443888
Ag 0.00185115 0.00000000 1.14443888
Ag 3.20377325 2.25683500 3.39289317
Ag 3.20377325 6.77050500 3.39316087
Pd 0.00000000 2.25683500 -1.1283765799999976 0 0 0
Pd 0.00000000 6.77050500 -1.1283765799999976 0 0 0
Pd 3.19164500 4.51367000 -3.385129729999999 0 0 0
Pd 3.19164500 0.00000000 -3.385129729999999 0 0 0
Pd 0.01800088 6.77050500 3.23601804
Pd 0.01800088 2.25683500 3.23601804
Pd 3.17600594 -0.00000000 1.19717676
Pd 3.17600594 4.51367000 1.19717676
