&CONTROL
calculation = 'relax'
prefix = 'scf'
pseudo_dir = '/vol0403/data/hp230205/u10028/POT_HYBRID_KKJUS_GBRV'
outdir = './data'
tprnfor = .true.
nstep = 50
disk_io = 'non'
/
&SYSTEM
ibrav = 0
ecutwfc = 50.0
ecutrho = 400
occupations = 'smearing'
smearing = 'mp'
degauss = 0.01
assume_isolated = 'esm'
esm_bc = 'bc1'
input_dft = 'BEEF-VDW'
nosym = .true.
nspin = 1
ntyp = 6
nat = 18
/
&ELECTRONS
electron_maxstep = 200
mixing_beta = 0.1
conv_thr = 1e-06
/
&IONS
ion_dynamics = 'bfgs'
upscale = 1.0
/
&CELL
/

K_POINTS {automatic}
9 9 2 0  0  0

ATOMIC_SPECIES
C 12.01 C.pbe-n-rrkjus_psl.1.0.0.UPF
Cu 63.54 Cu.pbe-dn-rrkjus_psl.1.0.0.UPF
Ge 72.64 Ge.pbe-dn-rrkjus_psl.1.0.0.UPF
Li 6.941 Li.pbe-sl-rrkjus_psl.1.0.0.UPF
O 15.99 O.pbe-n-rrkjus_psl.1.0.0.UPF
Y 88.90 Y.pbe-spn-rrkjus_psl.1.0.0.UPF


CELL_PARAMETERS {angstrom}
6.66034000 0.00000000 0.00000000
0.00000000 6.66034000 0.00000000
0.00000000 0.00000000 24.99530000

ATOMIC_POSITIONS {angstrom}
Li 4.99525500 1.66508500 -0.8325934400000001 0 0 0
Li 4.99785253 4.99159181 2.36455538
Li 1.66868158 1.66255407 2.36455538
Li 1.66508500 4.99525500 -0.8325934400000001 0 0 0
Y 1.66508500 1.66508500 -0.8325934400000001 0 0 0
Y 1.66655027 4.99372312 2.95744390
Y 4.99711990 1.66315350 2.14559655
Y 4.99525500 4.99525500 -0.8325934400000001 0 0 0
Cu 0.00000000 0.00000000 -2.4975303800000006 0 0 0
Cu 0.28466293 3.61350086 0.94432243
Cu 3.04677253 6.37554386 0.94457239
Cu 3.33017000 3.33017000 -2.4975303800000006 0 0 0
Ge 0.00000000 3.33017000 -2.4975303800000006 0 0 0
Ge 0.21239824 6.44794176 1.05405180
Ge 3.12063570 3.53970430 1.05555152
Ge 3.33017000 0.00000000 -2.4975303800000006 0 0 0
C 4.98200092 1.67840568 4.61813163
O 4.97627303 1.68413357 5.77716369
