&CONTROL
calculation = 'relax'
prefix = 'scf'
pseudo_dir = '/vol0403/data/hp230205/u10028/POT_HYBRID_KKJUS_GBRV'
outdir = './data'
tprnfor = .true.
nstep = 50
disk_io = 'non'
/
&SYSTEM
ibrav = 0
ecutwfc = 50.0
ecutrho = 400
occupations = 'smearing'
smearing = 'mp'
degauss = 0.01
assume_isolated = 'esm'
esm_bc = 'bc1'
input_dft = 'BEEF-VDW'
nosym = .true.
nspin = 2
ntyp = 5
nat = 33
starting_magnetization(1) = 0.0
starting_magnetization(2) = 0.0
starting_magnetization(3) = 0.1
starting_magnetization(4) = 0.0
starting_magnetization(5) = 0.0
/
&ELECTRONS
electron_maxstep = 400
mixing_beta = 0.05
conv_thr = 1e-06
/
&IONS
ion_dynamics = 'bfgs'
upscale = 1.0
/
&CELL
/

K_POINTS {automatic}
7 7 2 0  0  0

ATOMIC_SPECIES
Al 26.98 Al.pbe-nl-rrkjus_psl.1.0.0.UPF
C 12.01 C.pbe-n-rrkjus_psl.1.0.0.UPF
Fe 55.84 fe_pbe_v1.5.uspp.F.UPF
Li 6.941 Li.pbe-sl-rrkjus_psl.1.0.0.UPF
Pd 106.4 Pd.pbe-n-rrkjus_psl.1.0.0.UPF


CELL_PARAMETERS {angstrom}
8.60712000 0.00000000 0.00000000
0.00000000 8.84236000 0.00000000
0.00000000 0.00000000 24.25770000

ATOMIC_POSITIONS {angstrom}
Li 2.15178000 2.23879713 2.32049158
Li 2.15178000 2.21059000 -0.709537730000001 0 0 0
Li 2.15178000 6.60356287 2.32049158
Li 2.15178000 6.63177000 -0.709537730000001 0 0 0
Li 6.45534000 2.20899838 2.31612520
Li 6.45534000 2.21059000 -0.709537730000001 0 0 0
Li 6.45534000 6.63336162 2.31612520
Li 6.45534000 6.63177000 -0.709537730000001 0 0 0
Al 0.06679125 0.00000000 2.02551795
Al 0.00000000 0.00000000 -0.709537730000001 0 0 0
Al 0.02943635 4.42118000 1.93139807
Al 0.00000000 4.42118000 -0.709537730000001 0 0 0
Al 4.23676875 0.00000000 2.02551795
Al 4.30356000 0.00000000 -0.709537730000001 0 0 0
Al 4.27412365 4.42118000 1.93139807
Al 4.30356000 4.42118000 -0.709537730000001 0 0 0
Fe 2.15178000 0.00000000 0.52032767
Fe 2.15178000 0.00000000 -2.1288557499999996 0 0 0
Fe 2.15178000 4.42118000 0.55962514
Fe 2.15178000 4.42118000 -2.1288557499999996 0 0 0
Fe 6.45534000 0.00000000 0.68479487
Fe 6.45534000 0.00000000 -2.1288557499999996 0 0 0
Fe 6.45534000 4.42118000 0.62269516
Fe 6.45534000 4.42118000 -2.1288557499999996 0 0 0
Pd 8.57294973 2.20510774 0.77794444
Pd 0.00000000 2.21059000 -2.1288557499999996 0 0 0
Pd 8.57303580 6.63725226 0.77794444
Pd 0.00000000 6.63177000 -2.1288557499999996 0 0 0
Pd 4.33764420 2.20510774 0.77794444
Pd 4.30356000 2.21059000 -2.1288557499999996 0 0 0
Pd 4.33773027 6.63725226 0.77794444
Pd 4.30356000 6.63177000 -2.1288557499999996 0 0 0
C 2.15178000 0.00000000 2.26154537
