&CONTROL
calculation = 'relax'
prefix = 'scf'
pseudo_dir = '/vol0004/mdt0/data/hp150275/u10028/POT_HYBRID_KKJUS_GBRV'
outdir = './data'
tprnfor = .true.
nstep = 50
disk_io = 'non'
/
&SYSTEM
ibrav = 0
ecutwfc = 50.0
ecutrho = 400
occupations = 'smearing'
smearing = 'mp'
degauss = 0.01
assume_isolated = 'esm'
esm_bc = 'bc1'
input_dft = 'BEEF-VDW'
nosym = .true.
nspin = 2
ntyp = 2
nat = 32
starting_magnetization(1) = 0.1
starting_magnetization(2) = 0.1
/
&ELECTRONS
electron_maxstep = 200
mixing_beta = 0.1
conv_thr = 1e-06
/
&IONS
ion_dynamics = 'bfgs'
upscale = 1.0
/
&CELL
/

K_POINTS {automatic}
8 6 1 0 0 0

ATOMIC_SPECIES
Mn 54.93 mn_pbe_v1.5.uspp.F.UPF
Zn 65.40 Zn.pbe-dnl-rrkjus_psl.1.0.0.UPF

CELL_PARAMETERS {angstrom}
6.05499000 0.00000000 0.00000000
0.00000000 8.56306000 0.00000000
0.00000000 0.00000000 26.42230000

ATOMIC_POSITIONS {angstrom}
Mn 0.00000000 0.00000000 -3.2111021199999996 0 0 0
Mn 0.00000000 2.14076500 -1.0703673699999996 0 0 0
Mn 0.00000000 4.28153000 1.07565183
Mn 0.00000000 2.14067937 3.26368250
Mn 0.00000000 4.28153000 -3.2111021199999996 0 0 0
Mn 0.00000000 6.42229500 -1.0703673699999996 0 0 0
Mn 0.00000000 0.00000000 1.07538761
Mn 0.00000000 6.42238063 3.26368250
Mn 3.02749500 0.00000000 -3.2111021199999996 0 0 0
Mn 3.02749500 2.14076500 -1.0703673699999996 0 0 0
Mn 3.02749500 4.28153000 1.07327383
Mn 3.02749500 2.14067937 3.26553206
Mn 3.02749500 4.28153000 -3.2111021199999996 0 0 0
Mn 3.02749500 6.42229500 -1.0703673699999996 0 0 0
Mn 3.02749500 0.00000000 1.07327383
Mn 3.02749500 6.42238063 3.26526783
Zn 1.51374750 2.14076500 -3.2111021199999996 0 0 0
Zn 1.51374750 4.28153000 -1.0703673699999996 0 0 0
Zn 1.51483740 2.14025122 1.07327383
Zn 1.51659335 4.28170126 3.31097841
Zn 1.51374750 6.42229500 -3.2111021199999996 0 0 0
Zn 1.51374750 0.00000000 -1.0703673699999996 0 0 0
Zn 1.51483740 6.42280878 1.07327383
Zn 1.51665390 8.56288874 3.31018574
Zn 4.54124250 2.14076500 -3.2111021199999996 0 0 0
Zn 4.54124250 4.28153000 -1.0703673699999996 0 0 0
Zn 4.54015260 2.14025122 1.07327383
Zn 4.53839665 4.28170126 3.31097841
Zn 4.54124250 6.42229500 -3.2111021199999996 0 0 0
Zn 4.54124250 0.00000000 -1.0703673699999996 0 0 0
Zn 4.54015260 6.42280878 1.07327383
Zn 4.53833610 8.56288874 3.31018574
