&CONTROL
calculation = 'relax'
prefix = 'scf'
pseudo_dir = '/vol0004/mdt0/data/hp150275/u10028/POT_KKJUS'
outdir = './data'
tprnfor = .true.
nstep = 50
disk_io = 'non'
/
&SYSTEM
ibrav = 0
ecutwfc = 50.0
ecutrho = 400
occupations = 'smearing'
smearing = 'mp'
degauss = 0.01
assume_isolated = 'esm'
esm_bc = 'bc1'
input_dft = 'BEEF-VDW'
nosym = .true.
nspin = 1
ntyp = 5
nat = 18
/
&ELECTRONS
electron_maxstep = 200
mixing_beta = 0.1
conv_thr = 1e-06
/
&IONS
ion_dynamics = 'bfgs'
upscale = 1.0
/
&CELL
/

K_POINTS {automatic}
8 8 1 0 0 0

ATOMIC_SPECIES
C 12.01 C.pbe-n-rrkjus_psl.1.0.0.UPF
Ni 58.69 Ni.pbe-spn-rrkjus_psl.1.0.0.UPF
O 15.99 O.pbe-n-rrkjus_psl.1.0.0.UPF
Sb 121.7 Sb.pbe-n-rrkjus_psl.1.0.0.UPF
Ti 47.86 Ti.pbe-spn-rrkjus_psl.1.0.0.UPF

CELL_PARAMETERS {angstrom}
6.14888000 0.00000000 0.00000000
0.00000000 6.14888000 0.00000000
0.00000000 0.00000000 24.61170000

ATOMIC_POSITIONS {angstrom}
Ti 6.14857256 0.00030744 2.16730630
Ti 3.07419404 3.07407107 2.16263008
Ti 3.07444000 0.00000000 -0.7686233899999984 0 0 0
Ti 0.00000000 3.07444000 -0.7686233899999984 0 0 0
Ni 1.66050504 1.40907734 0.86682407
Ni 4.61166000 4.61166000 -2.3058701699999986 0 0 0
Ni 4.48677625 1.40864692 0.86559349
Ni 1.53722000 4.61166000 -2.3058701699999986 0 0 0
Ni 4.48769858 4.73974117 0.86731631
Ni 1.53722000 1.53722000 -2.3058701699999986 0 0 0
Ni 1.66216524 4.74090946 0.86633184
Ni 4.61166000 1.53722000 -2.3058701699999986 0 0 0
Sb 0.00000000 0.00000000 -0.7686233899999984 0 0 0
Sb 3.07437851 0.00012298 2.73140647
Sb 6.14881851 3.07468596 2.29405656
Sb 3.07444000 3.07444000 -0.7686233899999984 0 0 0
C 6.14875702 3.07431702 6.45589503
O 6.14777320 3.07333320 7.59000216
