&CONTROL
calculation = 'relax'
prefix = 'scf'
pseudo_dir = '/vol0004/mdt0/data/hp150275/u10028/POT_KKJUS'
outdir = './data'
tprnfor = .true.
nstep = 50
disk_io = 'non'
/
&SYSTEM
ibrav = 0
ecutwfc = 50.0
ecutrho = 400
occupations = 'smearing'
smearing = 'mp'
degauss = 0.01
assume_isolated = 'esm'
esm_bc = 'bc1'
input_dft = 'BEEF-VDW'
nosym = .true.
nspin = 1
ntyp = 5
nat = 18
/
&ELECTRONS
electron_maxstep = 200
mixing_beta = 0.1
conv_thr = 1e-06
/
&IONS
ion_dynamics = 'bfgs'
upscale = 1.0
/
&CELL
/

K_POINTS {automatic}
8 8 1 0 0 0

ATOMIC_SPECIES
C 12.01 C.pbe-n-rrkjus_psl.1.0.0.UPF
Ni 58.69 Ni.pbe-spn-rrkjus_psl.1.0.0.UPF
O 15.99 O.pbe-n-rrkjus_psl.1.0.0.UPF
Sb 121.7 Sb.pbe-n-rrkjus_psl.1.0.0.UPF
Zr 91.22 Zr.pbe-spn-rrkjus_psl.1.0.0.UPF

CELL_PARAMETERS {angstrom}
6.34847000 0.00000000 0.00000000
0.00000000 6.34847000 0.00000000
0.00000000 0.00000000 24.76130000

ATOMIC_POSITIONS {angstrom}
Zr 6.34827955 0.00146015 2.25624966
Zr 3.17436197 3.17493333 2.25550682
Zr 3.17423500 0.00000000 -0.793599669999999 0 0 0
Zr 0.00000000 3.17423500 -0.793599669999999 0 0 0
Ni 1.64114298 1.53258414 0.84336988
Ni 4.76135250 4.76135250 -2.38055138 0 0 0
Ni 4.70542248 1.53207627 0.84411272
Ni 1.58711750 4.76135250 -2.38055138 0 0 0
Ni 4.70897762 4.81613980 0.84386510
Ni 1.58711750 1.58711750 -2.38055138 0 0 0
Ni 1.64133343 4.81683813 0.84460794
Ni 4.76135250 1.58711750 -2.38055138 0 0 0
Sb 0.00000000 0.00000000 -0.793599669999999 0 0 0
Sb 3.17410803 0.00025394 2.59052721
Sb 0.00012697 3.17499682 2.43329295
Sb 3.17423500 3.17423500 -0.793599669999999 0 0 0
C 6.34472440 3.16407745 6.55604940
O 0.00025394 3.17613954 7.68392662
