&CONTROL
calculation = 'relax'
prefix = 'scf'
pseudo_dir = '/vol0403/data/hp230205/u10028/POT_HYBRID_KKJUS_GBRV'
outdir = './data'
tprnfor = .true.
nstep = 50
disk_io = 'non'
/
&SYSTEM
ibrav = 0
ecutwfc = 50.0
ecutrho = 400
occupations = 'smearing'
smearing = 'mp'
degauss = 0.01
assume_isolated = 'esm'
esm_bc = 'bc1'
input_dft = 'BEEF-VDW'
nosym = .true.
nspin = 1
ntyp = 6
nat = 34
/
&ELECTRONS
electron_maxstep = 200
mixing_beta = 0.1
conv_thr = 1e-06
/
&IONS
ion_dynamics = 'bfgs'
upscale = 1.0
/
&CELL
/

K_POINTS {automatic}
9 6 2 0  0  0

ATOMIC_SPECIES
Al 26.98 Al.pbe-nl-rrkjus_psl.1.0.0.UPF
C 12.01 C.pbe-n-rrkjus_psl.1.0.0.UPF
Ga 69.72 Ga.pbe-dnl-rrkjus_psl.1.0.0.UPF
Li 6.941 Li.pbe-sl-rrkjus_psl.1.0.0.UPF
O 15.99 O.pbe-n-rrkjus_psl.1.0.0.UPF
Pd 106.4 Pd.pbe-n-rrkjus_psl.1.0.0.UPF


CELL_PARAMETERS {angstrom}
6.14517000 0.00000000 0.00000000
0.00000000 8.69058000 0.00000000
0.00000000 0.00000000 26.51790000

ATOMIC_POSITIONS {angstrom}
Li 4.60887750 0.00000000 -1.0864383600000025 0 0 0
Li 4.60887750 4.34529000 -1.0864383600000025 0 0 0
Li 1.53629250 2.17264500 -3.2590499100000017 0 0 0
Li 1.53629250 6.51793500 -3.2590499100000017 0 0 0
Li 4.67192694 4.34520309 4.43220181
Li 4.63579334 0.00008691 4.44864290
Li 1.45615948 6.50628962 1.14636882
Li 1.45609803 2.18429038 1.14610364
Al 0.00000000 0.00000000 -3.2590499100000017 0 0 0
Al 0.00000000 4.34529000 -3.2590499100000017 0 0 0
Al 3.07258500 6.51793500 -1.0864383600000025 0 0 0
Al 3.07258500 2.17264500 -1.0864383600000025 0 0 0
Al 5.95958587 4.34529000 1.43170142
Al 5.98176993 8.69049309 1.37654419
Al 3.15025995 2.17672957 3.28636335
Al 3.15025995 6.51385043 3.28636335
Ga 0.00000000 2.17264500 -1.0864383600000025 0 0 0
Ga 0.00000000 6.51793500 -1.0864383600000025 0 0 0
Ga 3.07258500 4.34529000 -3.2590499100000017 0 0 0
Ga 3.07258500 0.00000000 -3.2590499100000017 0 0 0
Ga 6.02662967 6.52532199 3.45316094
Ga 6.02662967 2.16525801 3.45316094
Ga 3.11252860 0.00000000 1.21292875
Ga 3.10238907 4.34529000 1.25164488
Pd 1.53629250 0.00000000 -1.0864383600000025 0 0 0
Pd 1.53629250 4.34529000 -1.0864383600000025 0 0 0
Pd 4.60887750 2.17264500 -3.2590499100000017 0 0 0
Pd 4.60887750 6.51793500 -3.2590499100000017 0 0 0
Pd 1.54944316 4.34529000 3.28556781
Pd 1.55773914 0.00000000 3.24234363
Pd 4.59609555 6.51480639 0.98275337
Pd 4.59615700 2.17577361 0.98248820
C 4.62958672 0.00000000 6.55602042
O 4.60445298 8.69031928 7.69363833
