&CONTROL
calculation = 'relax'
prefix = 'scf'
pseudo_dir = '/vol0403/data/hp230205/u10028/POT_HYBRID_KKJUS_GBRV'
outdir = './data'
tprnfor = .true.
nstep = 50
disk_io = 'non'
/
&SYSTEM
ibrav = 0
ecutwfc = 50.0
ecutrho = 400
occupations = 'smearing'
smearing = 'mp'
degauss = 0.01
assume_isolated = 'esm'
esm_bc = 'bc1'
input_dft = 'BEEF-VDW'
nosym = .true.
nspin = 1
ntyp = 6
nat = 34
/
&ELECTRONS
electron_maxstep = 200
mixing_beta = 0.1
conv_thr = 1e-06
/
&IONS
ion_dynamics = 'bfgs'
upscale = 1.0
/
&CELL
/

K_POINTS {automatic}
7 7 2 0  0  0

ATOMIC_SPECIES
C 12.01 C.pbe-n-rrkjus_psl.1.0.0.UPF
In 114.8 In.pbe-dn-rrkjus_psl.1.0.0.UPF
O 15.99 O.pbe-n-rrkjus_psl.1.0.0.UPF
Pd 106.4 Pd.pbe-n-rrkjus_psl.1.0.0.UPF
Sn 118.7 Sn.pbe-dn-rrkjus_psl.1.0.0.UPF
Y 88.90 Y.pbe-spn-rrkjus_psl.1.0.0.UPF


CELL_PARAMETERS {angstrom}
9.06394000 0.00000000 0.00000000
0.00000000 9.16402000 0.00000000
0.00000000 0.00000000 26.55030000

ATOMIC_POSITIONS {angstrom}
Y 2.26598500 2.29100500 -3.275245009999999 0 0 0
Y 2.26598500 2.34415632 1.20405611
Y 2.26598500 6.87301500 -3.275245009999999 0 0 0
Y 2.26589436 6.82004696 1.20432161
Y 6.79795500 2.29100500 -3.275245009999999 0 0 0
Y 6.79795500 2.33123505 1.18892243
Y 6.79795500 6.87301500 -3.275245009999999 0 0 0
Y 6.79795500 6.83287659 1.18892243
In 0.00000000 0.00000000 -3.275245009999999 0 0 0
In 0.01477422 0.00009164 1.30839878
In 0.00000000 4.58201000 -3.275245009999999 0 0 0
In 0.00090639 4.58201000 0.94864222
In 4.53197000 0.00000000 -3.275245009999999 0 0 0
In 4.51728642 0.00000000 1.30786778
In 4.53197000 4.58201000 -3.275245009999999 0 0 0
In 4.53106361 4.58210164 0.94864222
Sn 0.00000000 2.29100500 -1.0917483399999988 0 0 0
Sn 9.04925642 2.92579667 3.54977511
Sn 0.00000000 6.87301500 -1.0917483399999988 0 0 0
Sn 9.04916578 6.23776513 3.55004061
Sn 4.53197000 2.29100500 -1.0917483399999988 0 0 0
Sn 4.54665358 2.92579667 3.54977511
Sn 4.53197000 6.87301500 -1.0917483399999988 0 0 0
Sn 4.54665358 6.23785677 3.54977511
Pd 2.26598500 0.00000000 -1.0917483399999988 0 0 0
Pd 2.26643820 0.00054984 3.02487568
Pd 2.26598500 4.58201000 -1.0917483399999988 0 0 0
Pd 2.26598500 4.58191836 3.20993127
Pd 6.79795500 0.00000000 -1.0917483399999988 0 0 0
Pd 6.79777372 0.00018328 2.86530838
Pd 6.79795500 4.58201000 -1.0917483399999988 0 0 0
Pd 6.79795500 4.58182672 3.18789452
C 2.26598500 9.16374508 5.04615002
O 2.26589436 0.00000000 6.19312298
