&CONTROL
calculation = 'relax'
prefix = 'scf'
pseudo_dir = '/vol0004/mdt0/data/hp150275/u10028/POT_HYBRID_KKJUS_GBRV'
outdir = './data'
tprnfor = .true.
nstep = 50
disk_io = 'non'
/
&SYSTEM
ibrav = 0
ecutwfc = 50.0
ecutrho = 400
occupations = 'smearing'
smearing = 'mp'
degauss = 0.01
assume_isolated = 'esm'
esm_bc = 'bc1'
input_dft = 'BEEF-VDW'
nosym = .true.
nspin = 2
ntyp = 3
nat = 16
starting_magnetization(1) = 0.1
starting_magnetization(2) = 0.1
starting_magnetization(3) = 0.1
/
&ELECTRONS
electron_maxstep = 200
mixing_beta = 0.1
conv_thr = 1e-06
/
&IONS
ion_dynamics = 'bfgs'
upscale = 1.0
/
&CELL
/

K_POINTS {automatic}
8 8 1 0 0 0

ATOMIC_SPECIES
Cr 51.99 cr_pbe_v1.5.uspp.F.UPF
Fe 55.84 fe_pbe_v1.5.uspp.F.UPF
Ga 69.72 Ga.pbe-dnl-rrkjus_psl.1.0.0.UPF

CELL_PARAMETERS {angstrom}
6.89656000 0.00000000 0.00000000
-0.00000000 6.89656000 0.00000000
0.00000000 0.00000000 25.17240000

ATOMIC_POSITIONS {angstrom}
Cr 0.00000000 0.00000000 -2.586212379999999 0 0 0
Cr 3.44828000 3.44828000 -2.586212379999999 0 0 0
Cr 3.44828000 -0.00000000 0.86215470
Cr 0.00000000 3.44828000 0.86215470
Ga 0.00000000 0.00000000 0.86215470
Ga 3.44828000 0.00000000 -2.586212379999999 0 0 0
Ga 0.00000000 3.44828000 -2.586212379999999 0 0 0
Ga 3.44828000 3.44828000 0.86215470
Fe 1.72414000 1.72414000 -0.8621547000000014 0 0 0
Fe 5.17242000 5.17242000 2.58621238
Fe 5.17242000 1.72414000 -0.8621547000000014 0 0 0
Fe 1.72414000 5.17242000 2.58621238
Fe 5.17242000 5.17242000 -0.8621547000000014 0 0 0
Fe 1.72414000 1.72414000 2.58621238
Fe 1.72414000 5.17242000 -0.8621547000000014 0 0 0
Fe 5.17242000 1.72414000 2.58621238
