&CONTROL
calculation = 'relax'
prefix = 'scf'
pseudo_dir = '/vol0004/mdt0/data/hp150275/u10028/POT_KKJUS'
outdir = './data'
tprnfor = .true.
nstep = 50
disk_io = 'non'
/
&SYSTEM
ibrav = 0
ecutwfc = 50.0
ecutrho = 400
occupations = 'smearing'
smearing = 'mp'
degauss = 0.01
assume_isolated = 'esm'
esm_bc = 'bc1'
input_dft = 'BEEF-VDW'
nosym = .true.
nspin = 1
ntyp = 3
nat = 33
/
&ELECTRONS
electron_maxstep = 200
mixing_beta = 0.1
conv_thr = 1e-06
/
&IONS
ion_dynamics = 'bfgs'
upscale = 1.0
/
&CELL
/

K_POINTS {automatic}
9 6 2 0  0  0

ATOMIC_SPECIES
C 12.01 C.pbe-n-rrkjus_psl.1.0.0.UPF
Rh 102.9 Rh.pbe-spn-rrkjus_psl.1.0.0.UPF
Y 88.90 Y.pbe-spn-rrkjus_psl.1.0.0.UPF

CELL_PARAMETERS {angstrom}
6.88160000 0.00000000 0.00000000
0.00000000 9.73205000 0.00000000
0.00000000 0.00000000 27.29900000

ATOMIC_POSITIONS {angstrom}
Y 1.72040000 2.43301250 -3.64960331 0 0 0
Y 1.72040000 0.00000000 -1.216443439999999 0 0 0
Y 1.73939322 2.35554538 1.45367175
Y 1.72810739 4.90047646 3.78527934
Y 1.72040000 7.29903750 -3.64960331 0 0 0
Y 1.72040000 4.86602500 -1.216443439999999 0 0 0
Y 1.72115698 7.24551122 1.20415889
Y 1.79919432 9.55833291 4.01295300
Y 5.16120000 2.43301250 -3.64960331 0 0 0
Y 5.16120000 0.00000000 -1.216443439999999 0 0 0
Y 5.14158744 2.35535074 1.45449072
Y 5.15466248 4.89989253 3.78527934
Y 5.16120000 7.29903750 -3.64960331 0 0 0
Y 5.16120000 4.86602500 -1.216443439999999 0 0 0
Y 5.15975486 7.24541390 1.20388590
Y 5.08192397 9.55852755 4.01268001
Rh 0.00000000 0.00000000 -3.64960331 0 0 0
Rh 0.00000000 2.43301250 -1.216443439999999 0 0 0
Rh 0.00020645 9.61292971 1.06684492
Rh 0.00220211 2.51018766 3.86198953
Rh 0.00000000 4.86602500 -3.64960331 0 0 0
Rh 0.00000000 7.29903750 -1.216443439999999 0 0 0
Rh 0.00048171 4.87789810 1.29970539
Rh 0.00006882 7.12133027 3.43967400
Rh 3.44080000 0.00000000 -3.64960331 0 0 0
Rh 3.44080000 2.43301250 -1.216443439999999 0 0 0
Rh 3.43969894 9.62003410 1.38160239
Rh 3.43880434 2.37296575 3.81694618
Rh 3.44080000 4.86602500 -3.64960331 0 0 0
Rh 3.44080000 7.29903750 -1.216443439999999 0 0 0
Rh 3.44093763 4.84237612 1.26230576
Rh 3.44073118 7.25903877 3.44513380
C 6.88118710 0.79578973 2.87813357
