&CONTROL
calculation = 'relax'
prefix = 'scf'
pseudo_dir = '/vol0004/mdt0/data/hp150275/u10028/POT_HYBRID_KKJUS_GBRV'
outdir = './data'
tprnfor = .true.
nstep = 50
disk_io = 'non'
/
&SYSTEM
ibrav = 0
ecutwfc = 50.0
ecutrho = 400
occupations = 'smearing'
smearing = 'mp'
degauss = 0.01
assume_isolated = 'esm'
esm_bc = 'bc1'
input_dft = 'BEEF-VDW'
nosym = .true.
nspin = 2
ntyp = 5
nat = 34
starting_magnetization(1) = 0.0
starting_magnetization(2) = 0.1
starting_magnetization(3) = 0.0
starting_magnetization(4) = 0.1
starting_magnetization(5) = 0.0
/
&ELECTRONS
electron_maxstep = 300
mixing_beta = 0.1
conv_thr = 1e-06
/
&IONS
ion_dynamics = 'bfgs'
upscale = 1.0
/
&CELL
/

K_POINTS {automatic}
8 6 1 0 0 0

ATOMIC_SPECIES
C 12.01 C.pbe-n-rrkjus_psl.1.0.0.UPF
Co 58.93 co_pbe_v1.2.uspp.F.UPF
Ge 72.64 Ge.pbe-dn-rrkjus_psl.1.0.0.UPF
Mn 54.93 mn_pbe_v1.5.uspp.F.UPF
O 15.99 O.pbe-n-rrkjus_psl.1.0.0.UPF

CELL_PARAMETERS {angstrom}
5.75846000 0.00000000 0.00000000
0.00000000 8.14369000 0.00000000
0.00000000 0.00000000 26.10780000

ATOMIC_POSITIONS {angstrom}
Mn 0.00000000 0.00000000 -3.0538293700000025 0 0 0
Mn 2.87923000 2.03592250 -1.0179431200000018 0 0 0
Mn 2.87923000 6.10776750 -1.0179431200000018 0 0 0
Mn 0.00000000 4.07184500 -3.0538293700000025 0 0 0
Mn 0.00000000 4.07013483 1.00723892
Mn 2.87923000 6.10784894 3.10917790
Mn 2.87923000 2.03584106 3.05644015
Mn 0.00000000 0.00171017 1.00723892
Co 1.43961500 0.00000000 -1.0179431200000018 0 0 0
Co 4.31884500 4.07184500 -1.0179431200000018 0 0 0
Co 4.31884500 0.00000000 -1.0179431200000018 0 0 0
Co 1.43961500 4.07184500 -1.0179431200000018 0 0 0
Co 4.31884500 6.10776750 -3.0538293700000025 0 0 0
Co 1.43961500 2.03592250 -3.0538293700000025 0 0 0
Co 1.43961500 6.10776750 -3.0538293700000025 0 0 0
Co 4.31884500 2.03592250 -3.0538293700000025 0 0 0
Co 1.38801920 4.05384745 2.99639221
Co 4.37061356 0.01799755 2.99639221
Co 4.37038322 4.05384745 2.99639221
Co 1.38778886 0.01799755 2.99639221
Co 4.30882528 2.03584106 1.01507126
Co 1.44059394 6.10784894 1.02107606
Co 1.44963472 2.03584106 1.01507126
Co 4.31786606 6.10784894 1.02107606
Ge 0.00000000 6.10776750 -1.0179431200000018 0 0 0
Ge 2.87923000 0.00000000 -3.0538293700000025 0 0 0
Ge 0.00000000 2.03592250 -1.0179431200000018 0 0 0
Ge 2.87923000 4.07184500 -3.0538293700000025 0 0 0
Ge 0.00000000 2.03584106 3.08385334
Ge 2.87923000 4.07257793 1.03230241
Ge 0.00000000 6.10776750 3.09821263
Ge 2.87923000 8.14303850 1.03230241
C 2.87923000 2.03592250 4.92889156
O 2.87923000 2.03592250 6.08703357
