&CONTROL
calculation = 'relax'
prefix = 'scf'
pseudo_dir = '/vol0004/mdt0/data/hp150275/u10028/POT_KKJUS'
outdir = './data'
tprnfor = .true.
nstep = 50
disk_io = 'non'
/
&SYSTEM
ibrav = 0
ecutwfc = 50.0
ecutrho = 400
occupations = 'smearing'
smearing = 'mp'
degauss = 0.01
assume_isolated = 'esm'
esm_bc = 'bc1'
input_dft = 'BEEF-VDW'
nosym = .true.
nspin = 1
ntyp = 3
nat = 17
/
&ELECTRONS
electron_maxstep = 200
mixing_beta = 0.1
conv_thr = 1e-06
/
&IONS
ion_dynamics = 'bfgs'
upscale = 1.0
/
&CELL
/

K_POINTS {automatic}
8 11 2 0  0  0

ATOMIC_SPECIES
C 12.01 C.pbe-n-rrkjus_psl.1.0.0.UPF
In 114.8 In.pbe-dn-rrkjus_psl.1.0.0.UPF
Pt 195.0 Pt.pbe-n-rrkjus_psl.1.0.0.UPF

CELL_PARAMETERS {angstrom}
8.16408000 0.00000000 0.00000000
0.00000000 5.77288000 0.00000000
0.00000000 0.00000000 24.32970000

ATOMIC_POSITIONS {angstrom}
In 7.99459370 5.75706231 2.25828275
In 0.00000000 2.88644000 -0.7216188999999993 0 0 0
In 4.25152630 5.75706231 2.25828275
In 4.08204000 2.88644000 -0.7216188999999993 0 0 0
Pt 0.05992435 2.87437468 2.15707120
Pt 2.04102000 4.38132728 0.77198138
Pt 2.04102000 1.35593405 0.78463282
Pt 0.00000000 0.00000000 -0.7216188999999993 0 0 0
Pt 2.04102000 1.44322000 -2.1648567099999987 0 0 0
Pt 2.04102000 4.32966000 -2.1648567099999987 0 0 0
Pt 4.02211565 2.87437468 2.15707120
Pt 6.12306000 4.30627984 0.79631108
Pt 6.12306000 1.44795376 0.80069043
Pt 4.08204000 0.00000000 -0.7216188999999993 0 0 0
Pt 6.12306000 1.44322000 -2.1648567099999987 0 0 0
Pt 6.12306000 4.32966000 -2.1648567099999987 0 0 0
C 2.04102000 2.87339329 2.13298480
