&CONTROL
calculation = 'relax'
prefix = 'scf'
pseudo_dir = '/vol0004/mdt0/data/hp150275/u10028/POT_HYBRID_KKJUS_GBRV'
outdir = './data'
tprnfor = .true.
nstep = 50
disk_io = 'non'
/
&SYSTEM
ibrav = 0
ecutwfc = 50.0
ecutrho = 400
occupations = 'smearing'
smearing = 'mp'
degauss = 0.01
assume_isolated = 'esm'
esm_bc = 'bc1'
input_dft = 'BEEF-VDW'
nosym = .true.
nspin = 2
ntyp = 5
nat = 34
starting_magnetization(1) = 0.0
starting_magnetization(2) = 0.0
starting_magnetization(3) = 0.001
starting_magnetization(4) = 0.0
starting_magnetization(5) = 0.0
/
&ELECTRONS
electron_maxstep = 300
mixing_beta = 0.1
conv_thr = 1e-06
/
&IONS
ion_dynamics = 'bfgs'
upscale = 1.0
/
&CELL
/

K_POINTS {automatic}
9 6 2 0  0  0

ATOMIC_SPECIES
C 12.01 C.pbe-n-rrkjus_psl.1.0.0.UPF
Mg 24.30 Mg.pbe-spnl-rrkjus_psl.1.0.0.UPF
Ni 58.69 ni_pbe_v1.4.uspp.F.UPF
O 15.99 O.pbe-n-rrkjus_psl.1.0.0.UPF
Sb 121.7 Sb.pbe-n-rrkjus_psl.1.0.0.UPF

CELL_PARAMETERS {angstrom}
6.21377000 0.00000000 0.00000000
0.00000000 8.78760000 0.00000000
0.00000000 0.00000000 26.59070000

ATOMIC_POSITIONS {angstrom}
Mg 0.00000000 0.00000000 -3.2953854499999977 0 0 0
Mg 3.10688500 2.19690000 -1.0984618199999971 0 0 0
Mg 3.10688500 6.59070000 -1.0984618199999971 0 0 0
Mg 0.00000000 4.39380000 -3.2953854499999977 0 0 0
Mg 0.00000000 4.37859745 1.00273530
Mg 3.10688500 6.59061212 3.47965900
Mg 3.10688500 2.19707575 3.51715189
Mg 0.00000000 0.01502680 1.00273530
Ni 1.55344250 0.00000000 -1.0984618199999971 0 0 0
Ni 4.66032750 4.39380000 -1.0984618199999971 0 0 0
Ni 4.66032750 0.00000000 -1.0984618199999971 0 0 0
Ni 1.55344250 4.39380000 -1.0984618199999971 0 0 0
Ni 4.66032750 6.59070000 -3.2953854499999977 0 0 0
Ni 1.55344250 2.19690000 -3.2953854499999977 0 0 0
Ni 1.55344250 6.59070000 -3.2953854499999977 0 0 0
Ni 4.66032750 2.19690000 -3.2953854499999977 0 0 0
Ni 1.43581583 4.41497812 3.04995329
Ni 4.77789203 8.76642188 3.04995329
Ni 4.77795417 4.41497812 3.04995329
Ni 1.43594011 8.76642188 3.04995329
Ni 4.64901844 2.19690000 1.26039918
Ni 1.52175227 6.59070000 1.21386546
Ni 1.56475156 2.19681212 1.26039918
Ni 4.69201773 6.59070000 1.21386546
Sb 0.00000000 6.59070000 -1.0984618199999971 0 0 0
Sb 3.10688500 0.00000000 -3.2953854499999977 0 0 0
Sb 0.00000000 2.19690000 -1.0984618199999971 0 0 0
Sb 3.10688500 4.39380000 -3.2953854499999977 0 0 0
Sb 0.00000000 2.19681212 3.47114998
Sb 3.10688500 4.40083008 1.11255489
Sb 0.00000000 6.59070000 3.49508161
Sb 3.10688500 8.78048204 1.11255489
C 3.10688500 2.19690000 5.76193878
O 3.10688500 2.19681212 6.90480707
