&CONTROL
calculation = 'relax'
prefix = 'scf'
pseudo_dir = '/vol0004/mdt0/data/hp150275/u10028/POT_KKJUS'
outdir = './data'
tprnfor = .true.
nstep = 50
disk_io = 'non'
/
&SYSTEM
ibrav = 0
ecutwfc = 50.0
ecutrho = 400
occupations = 'smearing'
smearing = 'mp'
degauss = 0.01
assume_isolated = 'esm'
esm_bc = 'bc1'
input_dft = 'BEEF-VDW'
nosym = .true.
nspin = 1
ntyp = 3
nat = 33
/
&ELECTRONS
electron_maxstep = 200
mixing_beta = 0.1
conv_thr = 1e-06
/
&IONS
ion_dynamics = 'bfgs'
upscale = 1.0
/
&CELL
/

K_POINTS {automatic}
9 6 2 0  0  0

ATOMIC_SPECIES
C 12.01 C.pbe-n-rrkjus_psl.1.0.0.UPF
Cu 63.54 Cu.pbe-dn-rrkjus_psl.1.0.0.UPF
Zn 65.40 Zn.pbe-dnl-rrkjus_psl.1.0.0.UPF

CELL_PARAMETERS {angstrom}
5.98486000 0.00000000 0.00000000
0.00000000 8.46387000 0.00000000
0.00000000 0.00000000 26.34790000

ATOMIC_POSITIONS {angstrom}
Zn 1.49621500 2.11596750 -3.1738680299999977 0 0 0
Zn 1.49621500 0.00000000 -1.0578681900000007 0 0 0
Zn 1.49783091 2.11596750 1.14270842
Zn 1.49926728 0.06644138 3.42575396
Zn 1.49621500 6.34790250 -3.1738680299999977 0 0 0
Zn 1.49621500 4.23193500 -1.0578681900000007 0 0 0
Zn 1.49705288 6.34790250 0.95326702
Zn 1.49926728 4.16549362 3.42575396
Zn 4.48864500 2.11596750 -3.1738680299999977 0 0 0
Zn 4.48864500 0.00000000 -1.0578681900000007 0 0 0
Zn 4.48607151 2.11596750 0.96802185
Zn 4.48577227 8.29374621 3.26713960
Zn 4.48864500 6.34790250 -3.1738680299999977 0 0 0
Zn 4.48864500 4.23193500 -1.0578681900000007 0 0 0
Zn 4.48661015 6.34790250 1.07789259
Zn 4.48577227 4.40205879 3.26713960
Cu 0.00000000 0.00000000 -3.1738680299999977 0 0 0
Cu 0.00000000 2.11596750 -1.0578681900000007 0 0 0
Cu 0.01526139 8.43991725 1.07077866
Cu 5.65982225 2.11596750 3.18019153
Cu 0.00000000 4.23193500 -3.1738680299999977 0 0 0
Cu 0.00000000 6.34790250 -1.0578681900000007 0 0 0
Cu 0.01526139 4.25588775 1.07077866
Cu 0.17194503 6.34790250 3.09772260
Cu 2.99243000 0.00000000 -3.1738680299999977 0 0 0
Cu 2.99243000 2.11596750 -1.0578681900000007 0 0 0
Cu 2.97495421 8.43966333 1.06867082
Cu 3.31698896 2.11596750 3.18440719
Cu 2.99243000 4.23193500 -3.1738680299999977 0 0 0
Cu 2.99243000 6.34790250 -1.0578681900000007 0 0 0
Cu 2.97495421 4.25614167 1.06867082
Cu 2.81689406 6.34790250 3.10062087
C 1.49507788 2.11596750 3.47818628
