&CONTROL
calculation = 'relax'
prefix = 'scf'
pseudo_dir = '/vol0004/mdt0/data/hp150275/u10028/POT_HYBRID_KKJUS_GBRV'
outdir = './data'
tprnfor = .true.
nstep = 70
disk_io = 'non'
/
&SYSTEM
ibrav = 0
ecutwfc = 50.0
ecutrho = 400
occupations = 'smearing'
smearing = 'mp'
degauss = 0.01
assume_isolated = 'esm'
esm_bc = 'bc1'
input_dft = 'BEEF-VDW'
nosym = .true.
nspin = 1
ntyp = 2
nat = 32
/
&ELECTRONS
electron_maxstep = 200
mixing_beta = 0.1
conv_thr = 1e-06
/
&IONS
ion_dynamics = 'bfgs'
upscale = 1.0
/
&CELL
/

K_POINTS {automatic}
6 8 1 0 0 0

ATOMIC_SPECIES
Ru 101.0 Ru.pbe-spn-rrkjus_psl.1.0.0.UPF
Ta 180.9 Ta.pbe-spn-rrkjus_psl.1.0.0.UPF

CELL_PARAMETERS {angstrom}
8.71119000 0.00000000 0.00000000
-0.00000000 6.72556000 0.00000000
0.00000000 0.00000000 26.53340000

ATOMIC_POSITIONS {angstrom}
Ta 2.17779750 1.68139000 -3.266792210000002 0 0 0
Ta 0.00000000 1.68139000 -1.0889307399999986 0 0 0
Ta 2.17779750 1.68139000 1.08893074
Ta 0.00000000 1.68139000 3.26679221
Ta 2.17779750 5.04417000 -3.266792210000002 0 0 0
Ta 0.00000000 5.04417000 -1.0889307399999986 0 0 0
Ta 2.17779750 5.04417000 1.08893074
Ta 0.00000000 5.04417000 3.26679221
Ta 6.53339250 1.68139000 -3.266792210000002 0 0 0
Ta 4.35559500 1.68139000 -1.0889307399999986 0 0 0
Ta 6.53339250 1.68139000 1.08893074
Ta 4.35559500 1.68139000 3.26679221
Ta 6.53339250 5.04417000 -3.266792210000002 0 0 0
Ta 4.35559500 5.04417000 -1.0889307399999986 0 0 0
Ta 6.53339250 5.04417000 1.08893074
Ta 4.35559500 5.04417000 3.26679221
Ru 0.00000000 0.00000000 -3.266792210000002 0 0 0
Ru 2.17779750 0.00000000 -1.0889307399999986 0 0 0
Ru 0.00000000 0.00000000 1.08893074
Ru 2.17779750 -0.00000000 3.26679221
Ru 0.00000000 3.36278000 -3.266792210000002 0 0 0
Ru 2.17779750 3.36278000 -1.0889307399999986 0 0 0
Ru 0.00000000 3.36278000 1.08893074
Ru 2.17779750 3.36278000 3.26679221
Ru 4.35559500 0.00000000 -3.266792210000002 0 0 0
Ru 6.53339250 0.00000000 -1.0889307399999986 0 0 0
Ru 4.35559500 -0.00000000 1.08893074
Ru 6.53339250 -0.00000000 3.26679221
Ru 4.35559500 3.36278000 -3.266792210000002 0 0 0
Ru 6.53339250 3.36278000 -1.0889307399999986 0 0 0
Ru 4.35559500 3.36278000 1.08893074
Ru 6.53339250 3.36278000 3.26679221
