&CONTROL
calculation = 'relax'
prefix = 'scf'
pseudo_dir = '/vol0004/mdt0/data/hp150275/u10028/POT_KKJUS'
outdir = './data'
tprnfor = .true.
nstep = 50
disk_io = 'non'
/
&SYSTEM
ibrav = 0
ecutwfc = 50.0
ecutrho = 400
occupations = 'smearing'
smearing = 'mp'
degauss = 0.01
assume_isolated = 'esm'
esm_bc = 'bc1'
input_dft = 'BEEF-VDW'
nosym = .true.
nspin = 1
ntyp = 4
nat = 18
/
&ELECTRONS
electron_maxstep = 200
mixing_beta = 0.1
conv_thr = 1e-06
/
&IONS
ion_dynamics = 'bfgs'
upscale = 1.0
/
&CELL
/

K_POINTS {automatic}
6 8 1 0 0 0

ATOMIC_SPECIES
C 12.01 C.pbe-n-rrkjus_psl.1.0.0.UPF
Ca 40.07 Ca.pbe-spn-rrkjus_psl.1.0.0.UPF
O 15.99 O.pbe-n-rrkjus_psl.1.0.0.UPF
Pb 207.2 Pb.pbe-dn-rrkjus_psl.1.0.0.UPF

CELL_PARAMETERS {angstrom}
10.21910000 0.00000000 0.00000000
0.00000000 7.22598000 0.00000000
0.00000000 0.00000000 25.41950000

ATOMIC_POSITIONS {angstrom}
Ca 0.00000000 3.61299000 -2.7097187 0 0 0
Ca 2.55477500 5.41948500 -0.9031548299999983 0 0 0
Ca 2.55477500 1.80649500 -0.9031548299999983 0 0 0
Ca 0.00316792 7.20430206 0.82028726
Ca 2.55569472 1.99270850 2.62634274
Ca 2.55467281 5.47946063 2.98399510
Ca 5.10955000 3.61299000 -2.7097187 0 0 0
Ca 7.66432500 5.41948500 -0.9031548299999983 0 0 0
Ca 7.66432500 1.80649500 -0.9031548299999983 0 0 0
Ca 5.10587112 7.20422980 0.82028726
Ca 7.66340528 1.84313072 2.79411144
Ca 7.66371185 5.34296187 2.77504682
Pb 0.00000000 0.00000000 -2.7097187 0 0 0
Pb 10.19171281 3.63076591 1.10498567
Pb 5.10955000 0.00000000 -2.7097187 0 0 0
Pb 5.13560871 3.63127173 1.10447728
C 2.56652696 1.84197456 5.13346802
O 2.56346124 1.79883546 6.29005528
