&CONTROL
calculation = 'relax'
prefix = 'scf'
pseudo_dir = '/vol0004/mdt0/data/hp150275/u10028/POT_HYBRID_KKJUS_GBRV'
outdir = './data'
tprnfor = .true.
nstep = 50
disk_io = 'non'
/
&SYSTEM
ibrav = 0
ecutwfc = 50.0
ecutrho = 400
occupations = 'smearing'
smearing = 'mp'
degauss = 0.01
assume_isolated = 'esm'
esm_bc = 'bc1'
input_dft = 'BEEF-VDW'
nosym = .true.
nspin = 2
ntyp = 5
nat = 34
starting_magnetization(1) = 0.0
starting_magnetization(2) = 0.0
starting_magnetization(3) = 0.001
starting_magnetization(4) = 0.0
starting_magnetization(5) = 0.0
/
&ELECTRONS
electron_maxstep = 300
mixing_beta = 0.1
conv_thr = 1e-06
/
&IONS
ion_dynamics = 'bfgs'
upscale = 1.0
/
&CELL
/

K_POINTS {automatic}
9 6 2 0  0  0

ATOMIC_SPECIES
C 12.01 C.pbe-n-rrkjus_psl.1.0.0.UPF
Ga 69.72 Ga.pbe-dnl-rrkjus_psl.1.0.0.UPF
Ni 58.69 ni_pbe_v1.4.uspp.F.UPF
O 15.99 O.pbe-n-rrkjus_psl.1.0.0.UPF
Ta 180.9 Ta.pbe-spn-rrkjus_psl.1.0.0.UPF

CELL_PARAMETERS {angstrom}
5.98793000 0.00000000 0.00000000
0.00000000 8.46821000 0.00000000
0.00000000 0.00000000 26.35120000

ATOMIC_POSITIONS {angstrom}
Ta 0.00000000 0.00000000 -3.175583109999998 0 0 0
Ta 2.99396500 2.11705250 -1.058527699999999 0 0 0
Ta 2.99396500 6.35115750 -1.058527699999999 0 0 0
Ta 0.00000000 4.23410500 -3.175583109999998 0 0 0
Ta 5.94679292 4.23418968 1.07881813
Ta 2.91426565 6.38824826 3.12946851
Ta 2.91408601 2.07979238 3.12946851
Ta 0.05437040 0.00016936 1.11623683
Ga 0.00000000 6.35115750 -1.058527699999999 0 0 0
Ga 2.99396500 0.00000000 -3.175583109999998 0 0 0
Ga 0.00000000 2.11705250 -1.058527699999999 0 0 0
Ga 2.99396500 4.23410500 -3.175583109999998 0 0 0
Ga 5.94613425 2.16269615 3.24251516
Ga 2.99258778 4.23444373 0.98896054
Ga 5.94595461 6.30542917 3.24251516
Ga 2.95498358 8.46812532 1.06696009
Ni 1.49698250 0.00000000 -1.058527699999999 0 0 0
Ni 4.49094750 4.23410500 -1.058527699999999 0 0 0
Ni 4.49094750 0.00000000 -1.058527699999999 0 0 0
Ni 1.49698250 4.23410500 -1.058527699999999 0 0 0
Ni 4.49094750 6.35115750 -3.175583109999998 0 0 0
Ni 1.49698250 2.11705250 -3.175583109999998 0 0 0
Ni 1.49698250 6.35115750 -3.175583109999998 0 0 0
Ni 4.49094750 2.11705250 -3.175583109999998 0 0 0
Ni 1.57243042 4.23410500 3.03987443
Ni 4.47358250 0.00008468 3.03776634
Ni 4.33262663 4.23385095 3.07307694
Ni 1.39141529 8.46804064 3.56847950
Ni 4.46124737 2.08817590 1.09963558
Ni 1.50871884 6.30661472 1.06590604
Ni 1.50925776 2.16201870 1.06537902
Ni 4.46184616 6.38028814 1.09937206
C 1.91008979 8.46753254 5.25469279
O 2.15709190 8.46778659 6.38779439
