&CONTROL
calculation = 'relax'
prefix = 'scf'
pseudo_dir = '/vol0403/data/hp230205/u10028/POT_HYBRID_KKJUS_GBRV'
outdir = './data'
tprnfor = .true.
nstep = 50
disk_io = 'non'
/
&SYSTEM
ibrav = 0
ecutwfc = 50.0
ecutrho = 400
occupations = 'smearing'
smearing = 'mp'
degauss = 0.01
assume_isolated = 'esm'
esm_bc = 'bc1'
input_dft = 'BEEF-VDW'
nosym = .true.
nspin = 1
ntyp = 6
nat = 34
/
&ELECTRONS
electron_maxstep = 200
mixing_beta = 0.1
conv_thr = 1e-06
/
&IONS
ion_dynamics = 'bfgs'
upscale = 1.0
/
&CELL
/

K_POINTS {automatic}
9 6 2 0  0  0

ATOMIC_SPECIES
C 12.01 C.pbe-n-rrkjus_psl.1.0.0.UPF
In 114.8 In.pbe-dn-rrkjus_psl.1.0.0.UPF
Li 6.941 Li.pbe-sl-rrkjus_psl.1.0.0.UPF
O 15.99 O.pbe-n-rrkjus_psl.1.0.0.UPF
Pd 106.4 Pd.pbe-n-rrkjus_psl.1.0.0.UPF
Y 88.90 Y.pbe-spn-rrkjus_psl.1.0.0.UPF


CELL_PARAMETERS {angstrom}
6.81638000 0.00000000 0.00000000
0.00000000 9.63982000 0.00000000
0.00000000 0.00000000 27.22990000

ATOMIC_POSITIONS {angstrom}
Li 5.11228500 0.00000000 -1.2049230699999995 0 0 0
Li 5.11228500 4.81991000 -1.2049230699999995 0 0 0
Li 1.70409500 2.40995500 -3.615041520000002 0 0 0
Li 1.70409500 7.22986500 -3.615041520000002 0 0 0
Li 3.83046474 4.79475007 5.05550323
Li 3.83053290 0.02515993 5.05550323
Li 1.67164903 7.22986500 1.28280059
Li 1.60130399 2.41005140 1.29096956
Y 0.00000000 2.40995500 -1.2049230699999995 0 0 0
Y 0.00000000 7.22986500 -1.2049230699999995 0 0 0
Y 3.40819000 4.81991000 -3.615041520000002 0 0 0
Y 3.40819000 0.00000000 -3.615041520000002 0 0 0
Y 6.44550076 7.22986500 3.54614988
Y 6.42041649 2.40995500 3.62702268
Y 3.49966582 0.00848304 1.44236780
Y 3.49973398 4.81152336 1.44236780
In 0.00000000 0.00000000 -3.615041520000002 0 0 0
In 0.00000000 4.81991000 -3.615041520000002 0 0 0
In 3.40819000 7.22986500 -1.2049230699999995 0 0 0
In 3.40819000 2.40995500 -1.2049230699999995 0 0 0
In 6.79647617 4.81759644 1.15781535
In 6.79640801 0.00231356 1.15781535
In 3.12326532 2.41005140 3.71116307
In 3.12401512 7.22976860 3.76970736
Pd 1.70409500 0.00000000 -1.2049230699999995 0 0 0
Pd 1.70409500 4.81991000 -1.2049230699999995 0 0 0
Pd 5.11228500 2.40995500 -3.615041520000002 0 0 0
Pd 5.11228500 7.22986500 -3.615041520000002 0 0 0
Pd 1.53538960 4.83629769 3.45438511
Pd 1.53545776 9.62343231 3.45465741
Pd 5.08188395 7.22996140 1.11833199
Pd 5.07895290 2.40995500 1.08756221
C 5.84702260 2.40966581 6.01372342
O 5.69344956 2.40947301 7.16745428
