&CONTROL
calculation = 'relax'
prefix = 'scf'
pseudo_dir = '/vol0004/mdt0/data/hp150275/u10028/POT_HYBRID_KKJUS_GBRV'
outdir = './data'
tprnfor = .true.
nstep = 50
disk_io = 'non'
/
&SYSTEM
ibrav = 0
ecutwfc = 50.0
ecutrho = 400
occupations = 'smearing'
smearing = 'mp'
degauss = 0.01
assume_isolated = 'esm'
esm_bc = 'bc1'
input_dft = 'BEEF-VDW'
nosym = .true.
nspin = 2
ntyp = 4
nat = 34
starting_magnetization(1) = 0.1
starting_magnetization(2) = 0.1
starting_magnetization(3) = 0.1
starting_magnetization(4) = 0.1
/
&ELECTRONS
electron_maxstep = 200
mixing_beta = 0.1
conv_thr = 1e-06
/
&IONS
ion_dynamics = 'bfgs'
upscale = 1.0
/
&CELL
/

K_POINTS {automatic}
8 6 1 0 0 0

ATOMIC_SPECIES
C 12.01 C.pbe-n-rrkjus_psl.1.0.0.UPF
Mn 54.93 mn_pbe_v1.5.uspp.F.UPF
Ni 58.69 ni_pbe_v1.4.uspp.F.UPF
O 15.99 O.pbe-n-rrkjus_psl.1.0.0.UPF

CELL_PARAMETERS {angstrom}
5.87849000 0.00000000 0.00000000
0.00000000 8.31345000 0.00000000
0.00000000 0.00000000 26.23510000

ATOMIC_POSITIONS {angstrom}
Mn 0.00000000 0.00000000 -3.1175169300000007 0 0 0
Mn 0.00000000 2.07836250 -1.0391723099999979 0 0 0
Mn 0.00000000 8.30995835 1.02841592
Mn 0.00000000 2.07836250 3.12460041
Mn 0.00000000 4.15672500 -3.1175169300000007 0 0 0
Mn 0.00000000 6.23508750 -1.0391723099999979 0 0 0
Mn 0.00000000 4.16021665 1.02841592
Mn 0.00000000 6.23508750 3.20094455
Mn 2.93924500 0.00000000 -3.1175169300000007 0 0 0
Mn 2.93924500 2.07836250 -1.0391723099999979 0 0 0
Mn 2.93924500 0.00590255 1.05779923
Mn 2.93924500 2.07836250 3.22481849
Mn 2.93924500 4.15672500 -3.1175169300000007 0 0 0
Mn 2.93924500 6.23508750 -1.0391723099999979 0 0 0
Mn 2.93924500 4.15082245 1.05779923
Mn 2.93924500 6.23508750 3.20304336
Ni 1.46962250 2.07836250 -3.1175169300000007 0 0 0
Ni 1.46962250 0.00000000 -1.0391723099999979 0 0 0
Ni 1.46333252 2.07827937 1.06016039
Ni 1.44140575 0.01039181 2.99447431
Ni 1.46962250 6.23508750 -3.1175169300000007 0 0 0
Ni 1.46962250 4.15672500 -1.0391723099999979 0 0 0
Ni 1.47532464 6.23517063 1.07616380
Ni 1.44140575 4.14633319 2.99473667
Ni 4.40886750 2.07836250 -3.1175169300000007 0 0 0
Ni 4.40886750 0.00000000 -1.0391723099999979 0 0 0
Ni 4.41515748 2.07827937 1.06016039
Ni 4.43708425 0.01039181 2.99447431
Ni 4.40886750 6.23508750 -3.1175169300000007 0 0 0
Ni 4.40886750 4.15672500 -1.0391723099999979 0 0 0
Ni 4.40316536 6.23517063 1.07616380
Ni 4.43708425 4.14633319 2.99473667
C 0.00000000 2.07836250 5.01169115
O 0.00000000 2.07836250 6.17075787
