&CONTROL
calculation = 'relax'
prefix = 'scf'
pseudo_dir = '/vol0004/mdt0/data/hp150275/u10028/POT_KKJUS'
outdir = './data'
tprnfor = .true.
nstep = 50
disk_io = 'non'
/
&SYSTEM
ibrav = 0
ecutwfc = 50.0
ecutrho = 400
occupations = 'smearing'
smearing = 'mp'
degauss = 0.01
assume_isolated = 'esm'
esm_bc = 'bc1'
input_dft = 'BEEF-VDW'
nosym = .true.
nspin = 1
ntyp = 4
nat = 33
/
&ELECTRONS
electron_maxstep = 200
mixing_beta = 0.1
conv_thr = 1e-06
/
&IONS
ion_dynamics = 'bfgs'
upscale = 1.0
/
&CELL
/

K_POINTS {automatic}
8 6 1 0 0 0

ATOMIC_SPECIES
C 12.01 C.pbe-n-rrkjus_psl.1.0.0.UPF
Ga 69.72 Ga.pbe-dnl-rrkjus_psl.1.0.0.UPF
Li 6.941 Li.pbe-sl-rrkjus_psl.1.0.0.UPF
Pt 195.0 Pt.pbe-n-rrkjus_psl.1.0.0.UPF

CELL_PARAMETERS {angstrom}
6.22326000 0.00000000 0.00000000
0.00000000 8.80102000 0.00000000
0.00000000 0.00000000 26.60080000

ATOMIC_POSITIONS {angstrom}
Li 0.00000000 0.00000000 -3.300361259999999 0 0 0
Li 3.11163000 2.20025500 -1.10020909 0 0 0
Li 3.11163000 6.60076500 -1.10020909 0 0 0
Li 0.00000000 4.40051000 -3.300361259999999 0 0 0
Li 0.00000000 4.40051000 1.19384390
Li 3.11163000 6.66017189 3.67835862
Li 3.11163000 2.14084812 3.67835862
Li 0.00000000 0.00000000 1.12388380
Ga 1.55581500 0.00000000 -1.10020909 0 0 0
Ga 4.66744500 4.40051000 -1.10020909 0 0 0
Ga 4.66744500 0.00000000 -1.10020909 0 0 0
Ga 1.55581500 4.40051000 -1.10020909 0 0 0
Ga 4.66744500 6.60076500 -3.300361259999999 0 0 0
Ga 1.55581500 2.20025500 -3.300361259999999 0 0 0
Ga 1.55581500 6.60076500 -3.300361259999999 0 0 0
Ga 4.66744500 2.20025500 -3.300361259999999 0 0 0
Ga 1.51586167 4.40051000 3.60627046
Ga 4.95209691 0.00000000 3.74087050
Ga 4.70739833 4.40051000 3.60627046
Ga 1.27116309 0.00000000 3.74087050
Ga 4.60739054 2.23193867 1.17362730
Ga 1.61586946 6.56908133 1.17362730
Ga 1.61586946 2.23193867 1.17362730
Ga 4.60739054 6.56908133 1.17362730
Pt 0.00000000 6.60076500 -1.10020909 0 0 0
Pt 3.11163000 0.00000000 -3.300361259999999 0 0 0
Pt 0.00000000 2.20025500 -1.10020909 0 0 0
Pt 3.11163000 4.40051000 -3.300361259999999 0 0 0
Pt 0.00000000 2.23651520 3.15831298
Pt 3.11163000 4.40051000 0.99460391
Pt 0.00000000 6.56450480 3.15831298
Pt 3.11163000 0.00000000 1.02732290
C 3.11163000 0.00000000 3.24104147
