&CONTROL
calculation = 'relax'
prefix = 'scf'
pseudo_dir = '/vol0004/mdt0/data/hp150275/u10028/POT_KKJUS'
outdir = './data'
tprnfor = .true.
nstep = 50
disk_io = 'non'
/
&SYSTEM
ibrav = 0
ecutwfc = 50.0
ecutrho = 400
occupations = 'smearing'
smearing = 'mp'
degauss = 0.01
assume_isolated = 'esm'
esm_bc = 'bc1'
input_dft = 'BEEF-VDW'
nosym = .true.
nspin = 1
ntyp = 3
nat = 17
/
&ELECTRONS
electron_maxstep = 200
mixing_beta = 0.1
conv_thr = 1e-06
/
&IONS
ion_dynamics = 'bfgs'
upscale = 1.0
/
&CELL
/

K_POINTS {automatic}
6 8 1 0 0 0

ATOMIC_SPECIES
C 12.01 C.pbe-n-rrkjus_psl.1.0.0.UPF
Pt 195.0 Pt.pbe-n-rrkjus_psl.1.0.0.UPF
Zn 65.40 Zn.pbe-dnl-rrkjus_psl.1.0.0.UPF

CELL_PARAMETERS {angstrom}
7.90864000 0.00000000 0.00000000
0.00000000 5.59226000 0.00000000
0.00000000 0.00000000 24.19420000

ATOMIC_POSITIONS {angstrom}
Zn 0.00000000 0.00000000 -2.097153259999999 0 0 0
Zn 0.00015817 2.79613000 0.41928549
Zn 3.95432000 0.00000000 -2.097153259999999 0 0 0
Zn 3.95408274 2.79613000 0.97502626
Pt 0.00000000 2.79613000 -2.097153259999999 0 0 0
Pt 1.97716000 4.19419500 -0.6989704400000001 0 0 0
Pt 1.97716000 1.39806500 -0.6989704400000001 0 0 0
Pt 0.00000000 0.00000000 0.52815939
Pt 1.55214969 1.42289463 2.23385049
Pt 1.55214969 4.16936537 2.23385049
Pt 3.95432000 2.79613000 -2.097153259999999 0 0 0
Pt 5.93148000 4.19419500 -0.6989704400000001 0 0 0
Pt 5.93148000 1.39806500 -0.6989704400000001 0 0 0
Pt 3.95424091 0.00000000 1.02341466
Pt 6.35649031 1.42295056 2.23385049
Pt 6.35649031 4.16925352 2.23385049
C 0.00000000 2.79613000 2.64128081
