&CONTROL
calculation = 'relax'
prefix = 'scf'
pseudo_dir = '/vol0004/mdt0/data/hp150275/u10028/POT_KKJUS'
outdir = './data'
tprnfor = .true.
nstep = 50
disk_io = 'non'
/
&SYSTEM
ibrav = 0
ecutwfc = 50.0
ecutrho = 400
occupations = 'smearing'
smearing = 'mp'
degauss = 0.01
assume_isolated = 'esm'
esm_bc = 'bc1'
input_dft = 'BEEF-VDW'
nosym = .true.
nspin = 1
ntyp = 4
nat = 33
/
&ELECTRONS
electron_maxstep = 200
mixing_beta = 0.1
conv_thr = 1e-06
/
&IONS
ion_dynamics = 'bfgs'
upscale = 1.0
/
&CELL
/

K_POINTS {automatic}
8 6 1 0 0 0

ATOMIC_SPECIES
C 12.01 C.pbe-n-rrkjus_psl.1.0.0.UPF
Li 6.941 Li.pbe-sl-rrkjus_psl.1.0.0.UPF
Pd 106.4 Pd.pbe-n-rrkjus_psl.1.0.0.UPF
Sb 121.7 Sb.pbe-n-rrkjus_psl.1.0.0.UPF

CELL_PARAMETERS {angstrom}
6.43375000 0.00000000 0.00000000
0.00000000 9.09870000 0.00000000
0.00000000 0.00000000 26.82400000

ATOMIC_POSITIONS {angstrom}
Li 0.00000000 6.82402500 -1.1373376000000022 0 0 0
Li 3.21687500 0.00000000 -3.412012800000003 0 0 0
Li 0.00000000 2.27467500 -1.1373376000000022 0 0 0
Li 3.21687500 4.54935000 -3.412012800000003 0 0 0
Li 1.60843750 2.27467500 -3.412012800000003 0 0 0
Li 1.60843750 6.82402500 -3.412012800000003 0 0 0
Li 4.82531250 4.54935000 -1.1373376000000022 0 0 0
Li 4.82531250 0.00000000 -1.1373376000000022 0 0 0
Li 0.21842581 2.14829406 3.50026376
Li 3.29446602 4.54935000 1.05364672
Li 0.21842581 6.95040594 3.50026376
Li 3.29652482 0.00000000 1.21271304
Li 1.75113807 6.83357863 1.26448336
Li 1.75120241 2.26512137 1.26475160
Li 4.83779398 0.00000000 3.91657224
Li 4.90599172 4.54935000 3.42676600
Sb 0.00000000 0.00000000 -3.412012800000003 0 0 0
Sb 3.21687500 2.27467500 -1.1373376000000022 0 0 0
Sb 3.21687500 6.82402500 -1.1373376000000022 0 0 0
Sb 0.00000000 4.54935000 -3.412012800000003 0 0 0
Sb 0.01762848 4.54935000 1.12392560
Sb 3.33236081 6.72666891 3.64672280
Sb 3.33242515 2.37203109 3.64672280
Sb 6.29954198 0.00000000 1.01582488
Pd 1.60843750 0.00000000 -1.1373376000000022 0 0 0
Pd 1.60843750 4.54935000 -1.1373376000000022 0 0 0
Pd 4.82531250 6.82402500 -3.412012800000003 0 0 0
Pd 4.82531250 2.27467500 -3.412012800000003 0 0 0
Pd 1.73543972 4.54935000 3.12660544
Pd 2.13246644 0.00000000 3.62928720
Pd 4.78580928 2.31652902 1.21915080
Pd 4.78587361 6.78217098 1.21915080
C 0.28488645 0.00000000 3.08261408
