&CONTROL
calculation = 'relax'
prefix = 'scf'
pseudo_dir = '/vol0004/mdt0/data/hp150275/u10028/POT_HYBRID_KKJUS_GBRV'
outdir = './data'
tprnfor = .true.
nstep = 50
disk_io = 'non'
/
&SYSTEM
ibrav = 0
ecutwfc = 50.0
ecutrho = 400
occupations = 'smearing'
smearing = 'mp'
degauss = 0.01
assume_isolated = 'esm'
esm_bc = 'bc1'
input_dft = 'BEEF-VDW'
nosym = .true.
nspin = 2
ntyp = 2
nat = 16
starting_magnetization(1) = 0.1
starting_magnetization(2) = 0.1
/
&ELECTRONS
electron_maxstep = 200
mixing_beta = 0.1
conv_thr = 1e-06
/
&IONS
ion_dynamics = 'bfgs'
upscale = 1.0
/
&CELL
/

K_POINTS {automatic}
10 10 2 0  0  0

ATOMIC_SPECIES
Ga 69.72 Ga.pbe-dnl-rrkjus_psl.1.0.0.UPF
Ni 58.69 ni_pbe_v1.4.uspp.F.UPF

CELL_PARAMETERS {angstrom}
5.82971000 0.00000000 0.00000000
-0.00000000 5.82971000 0.00000000
0.00000000 0.00000000 24.37230000

ATOMIC_POSITIONS {angstrom}
Ga 0.00000000 0.00000000 -2.123558499999998 0 0 0
Ga 0.00000000 0.00000000 0.79136858
Ga 0.00000000 2.91485500 -2.123558499999998 0 0 0
Ga 0.00000000 2.91485500 0.79136858
Ga 2.91485500 0.00000000 -2.123558499999998 0 0 0
Ga 2.91485500 -0.00000000 0.79136858
Ga 2.91485500 2.91485500 -2.123558499999998 0 0 0
Ga 2.91485500 2.91485500 0.79136858
Ni 1.45742750 1.45742750 -0.6660949599999988 0 0 0
Ni 1.45742750 1.45742750 2.24883212
Ni 1.45742750 4.37228250 -0.6660949599999988 0 0 0
Ni 1.45742750 4.37228250 2.24883212
Ni 4.37228250 1.45742750 -0.6660949599999988 0 0 0
Ni 4.37228250 1.45742750 2.24883212
Ni 4.37228250 4.37228250 -0.6660949599999988 0 0 0
Ni 4.37228250 4.37228250 2.24883212
