&CONTROL
calculation = 'relax'
prefix = 'scf'
pseudo_dir = '/vol0004/mdt0/data/hp150275/u10028/POT_KKJUS'
outdir = './data'
tprnfor = .true.
nstep = 50
disk_io = 'non'
/
&SYSTEM
ibrav = 0
ecutwfc = 50.0
ecutrho = 400
occupations = 'smearing'
smearing = 'mp'
degauss = 0.01
assume_isolated = 'esm'
esm_bc = 'bc1'
input_dft = 'BEEF-VDW'
nosym = .true.
nspin = 1
ntyp = 4
nat = 34
/
&ELECTRONS
electron_maxstep = 200
mixing_beta = 0.1
conv_thr = 1e-06
/
&IONS
ion_dynamics = 'bfgs'
upscale = 1.0
/
&CELL
/

K_POINTS {automatic}
8 6 1 0 0 0

ATOMIC_SPECIES
C 12.01 C.pbe-n-rrkjus_psl.1.0.0.UPF
Li 6.941 Li.pbe-sl-rrkjus_psl.1.0.0.UPF
O 15.99 O.pbe-n-rrkjus_psl.1.0.0.UPF
Pd 106.4 Pd.pbe-n-rrkjus_psl.1.0.0.UPF

CELL_PARAMETERS {angstrom}
6.06651000 0.00000000 0.00000000
0.00000000 8.57934000 0.00000000
0.00000000 0.00000000 26.43450000

ATOMIC_POSITIONS {angstrom}
Li 0.00000000 0.00000000 -3.217342989999999 0 0 0
Li 0.00000000 2.14483500 -1.0724476599999981 0 0 0
Li 0.00000000 8.57633723 1.03200288
Li 0.00000000 2.14483500 3.28052145
Li 0.00000000 4.28967000 -3.217342989999999 0 0 0
Li 0.00000000 6.43450500 -1.0724476599999981 0 0 0
Li 0.00000000 4.29267277 1.03200288
Li 0.00000000 6.43450500 3.35030853
Li 3.03325500 0.00000000 -3.217342989999999 0 0 0
Li 3.03325500 2.14483500 -1.0724476599999981 0 0 0
Li 3.03325500 8.57899683 1.02883074
Li 3.03325500 2.14483500 3.32308099
Li 3.03325500 4.28967000 -3.217342989999999 0 0 0
Li 3.03325500 6.43450500 -1.0724476599999981 0 0 0
Li 3.03325500 4.29001317 1.02883074
Li 3.03325500 6.43450500 3.38678814
Pd 1.51662750 2.14483500 -3.217342989999999 0 0 0
Pd 1.51662750 0.00000000 -1.0724476599999981 0 0 0
Pd 1.52020674 2.14483500 1.08275712
Pd 1.53185444 8.56192394 3.08992870
Pd 1.51662750 6.43450500 -3.217342989999999 0 0 0
Pd 1.51662750 4.28967000 -1.0724476599999981 0 0 0
Pd 1.51923610 6.43450500 1.10099693
Pd 1.53179378 4.30717185 3.08992870
Pd 4.54988250 2.14483500 -3.217342989999999 0 0 0
Pd 4.54988250 0.00000000 -1.0724476599999981 0 0 0
Pd 4.54636392 2.14483500 1.08275712
Pd 4.53471623 8.56183815 3.08992870
Pd 4.54988250 6.43450500 -3.217342989999999 0 0 0
Pd 4.54988250 4.28967000 -1.0724476599999981 0 0 0
Pd 4.54727390 6.43450500 1.10099693
Pd 4.53465556 4.30717185 3.08992870
C 0.00000000 2.14483500 5.37228343
O 6.06644933 2.14483500 6.51398949
