&CONTROL
calculation = 'relax'
prefix = 'scf'
pseudo_dir = '/vol0403/data/hp230205/u10028/POT_HYBRID_KKJUS_GBRV'
outdir = './data'
tprnfor = .true.
nstep = 70
disk_io = 'non'
/
&SYSTEM
ibrav = 0
ecutwfc = 50.0
ecutrho = 400
occupations = 'smearing'
smearing = 'mp'
degauss = 0.01
assume_isolated = 'esm'
esm_bc = 'bc1'
input_dft = 'BEEF-VDW'
nosym = .true.
nspin = 1
ntyp = 5
nat = 17
/
&ELECTRONS
electron_maxstep = 200
mixing_beta = 0.1
conv_thr = 1e-06
/
&IONS
ion_dynamics = 'bfgs'
upscale = 1.0
/
&CELL
/

K_POINTS {automatic}
9 9 2 0  0  0

ATOMIC_SPECIES
Ag 107.8 Ag.pbe-n-rrkjus_psl.1.0.0.UPF
C 12.01 C.pbe-n-rrkjus_psl.1.0.0.UPF
In 114.8 In.pbe-dn-rrkjus_psl.1.0.0.UPF
Pd 106.4 Pd.pbe-n-rrkjus_psl.1.0.0.UPF
Y 88.90 Y.pbe-spn-rrkjus_psl.1.0.0.UPF


CELL_PARAMETERS {angstrom}
6.92663000 0.00000000 0.00000000
-0.00000000 6.92663000 0.00000000
0.00000000 0.00000000 25.19500000

ATOMIC_POSITIONS {angstrom}
Y 5.19497250 1.73165750 -0.8659521500000018 0 0 0
Y 5.19497250 5.19497250 2.59760450
Y 1.73165750 1.73165750 2.59760450
Y 1.73165750 5.19497250 -0.8659521500000018 0 0 0
In 1.73165750 1.73165750 -0.8659521500000018 0 0 0
In 1.73165750 5.19497250 2.59760450
In 5.19497250 1.73165750 2.59760450
In 5.19497250 5.19497250 -0.8659521500000018 0 0 0
Ag 0.00000000 0.00000000 -2.597604499999999 0 0 0
Ag 0.00000000 3.46331500 0.86595215
Ag 3.46331500 -0.00000000 0.86595215
Ag 3.46331500 3.46331500 -2.597604499999999 0 0 0
Pd 0.00000000 3.46331500 -2.597604499999999 0 0 0
Pd 0.00000000 0.00000000 0.86595215
Pd 3.46331500 3.46331500 0.86595215
Pd 3.46331500 0.00000000 -2.597604499999999 0 0 0
C 0.00000000 3.46331500 3.39754575
