&CONTROL
calculation = 'relax'
prefix = 'scf'
pseudo_dir = '/vol0403/data/hp230205/u10028/POT_HYBRID_KKJUS_GBRV'
outdir = './data'
tprnfor = .true.
nstep = 70
disk_io = 'non'
/
&SYSTEM
ibrav = 0
ecutwfc = 50.0
ecutrho = 400
occupations = 'smearing'
smearing = 'mp'
degauss = 0.01
assume_isolated = 'esm'
esm_bc = 'bc1'
input_dft = 'BEEF-VDW'
nosym = .true.
nspin = 1
ntyp = 6
nat = 34
/
&ELECTRONS
electron_maxstep = 200
mixing_beta = 0.1
conv_thr = 1e-06
/
&IONS
ion_dynamics = 'bfgs'
upscale = 1.0
/
&CELL
/

K_POINTS {automatic}
9 6 2 0  0  0

ATOMIC_SPECIES
C 12.01 C.pbe-n-rrkjus_psl.1.0.0.UPF
Cu 63.54 Cu.pbe-dn-rrkjus_psl.1.0.0.UPF
Li 6.941 Li.pbe-sl-rrkjus_psl.1.0.0.UPF
O 15.99 O.pbe-n-rrkjus_psl.1.0.0.UPF
Pd 106.4 Pd.pbe-n-rrkjus_psl.1.0.0.UPF
Sn 118.7 Sn.pbe-dn-rrkjus_psl.1.0.0.UPF


CELL_PARAMETERS {angstrom}
6.33545000 0.00000000 0.00000000
-0.00000000 8.95968000 0.00000000
0.00000000 0.00000000 26.71980000

ATOMIC_POSITIONS {angstrom}
Li 1.58386250 0.00000000 -1.1200940199999998 0 0 0
Li 1.58386250 4.47984000 -1.1200940199999998 0 0 0
Li 4.75158750 2.23992000 -3.360014849999999 0 0 0
Li 4.75158750 6.71976000 -3.360014849999999 0 0 0
Li 1.56840400 4.52419042 3.46208449
Li 1.56840400 8.91532958 3.46208449
Li 4.76172422 6.71976000 0.94320894
Li 4.70755612 2.23992000 1.02016196
Cu 0.00000000 0.00000000 -3.360014849999999 0 0 0
Cu 0.00000000 4.47984000 -3.360014849999999 0 0 0
Cu 3.16772500 6.71976000 -1.1200940199999998 0 0 0
Cu 3.16772500 2.23992000 -1.1200940199999998 0 0 0
Cu 6.27836760 4.47374742 1.26491533
Cu 6.27836760 0.00609258 1.26491533
Cu 3.26516422 2.23992000 3.33863901
Cu 3.42526104 6.71976000 3.06957062
Sn 4.75158750 0.00000000 -1.1200940199999998 0 0 0
Sn 4.75158750 4.47984000 -1.1200940199999998 0 0 0
Sn 1.58386250 2.23992000 -3.360014849999999 0 0 0
Sn 1.58386250 6.71976000 -3.360014849999999 0 0 0
Sn 4.78586228 4.49722178 3.70069230
Sn 4.78586228 8.94229822 3.70069230
Sn 1.62288887 6.71976000 1.08669427
Sn 1.61142171 2.23992000 1.08936625
Pd 0.00000000 2.23992000 -1.1200940199999998 0 0 0
Pd 0.00000000 6.71976000 -1.1200940199999998 0 0 0
Pd 3.16772500 4.47984000 -3.360014849999999 0 0 0
Pd 3.16772500 0.00000000 -3.360014849999999 0 0 0
Pd 6.18587003 6.71976000 3.08827448
Pd 6.14006472 2.23992000 3.10403917
Pd 3.24349698 0.02338476 1.32850846
Pd 3.24349698 4.45645524 1.32850846
C 2.32694743 2.23983040 4.97495956
O 2.01131531 2.23983040 6.08783923
