&CONTROL
calculation = 'relax'
prefix = 'scf'
pseudo_dir = '/vol0004/mdt0/data/hp150275/u10028/POT_HYBRID_KKJUS_GBRV'
outdir = './data'
tprnfor = .true.
nstep = 50
disk_io = 'non'
/
&SYSTEM
ibrav = 0
ecutwfc = 50.0
ecutrho = 400
occupations = 'smearing'
smearing = 'mp'
degauss = 0.01
assume_isolated = 'esm'
esm_bc = 'bc1'
input_dft = 'BEEF-VDW'
nosym = .true.
nspin = 2
ntyp = 3
nat = 32
starting_magnetization(1) = 0.0
starting_magnetization(2) = 0.1
starting_magnetization(3) = 0.001
/
&ELECTRONS
electron_maxstep = 300
mixing_beta = 0.1
conv_thr = 1e-06
/
&IONS
ion_dynamics = 'bfgs'
upscale = 1.0
/
&CELL
/

K_POINTS {automatic}
8 6 1 0 0 0

ATOMIC_SPECIES
In 114.8 In.pbe-dn-rrkjus_psl.1.0.0.UPF
Mn 54.93 mn_pbe_v1.5.uspp.F.UPF
Ni 58.69 ni_pbe_v1.4.uspp.F.UPF

CELL_PARAMETERS {angstrom}
6.11439000 0.00000000 0.00000000
0.00000000 8.64705000 0.00000000
0.00000000 0.00000000 26.48530000

ATOMIC_POSITIONS {angstrom}
Mn 0.00000000 0.00000000 -3.2425952799999997 0 0 0
Mn 3.05719500 2.16176250 -1.0808650899999996 0 0 0
Mn 3.05719500 6.48528750 -1.0808650899999996 0 0 0
Mn 0.00000000 4.32352500 -3.2425952799999997 0 0 0
Mn 0.00000000 4.32343853 1.05543920
Mn 3.05719500 6.48546044 3.17717659
Mn 3.05719500 2.16158956 3.17717659
Mn 0.00000000 0.00008647 1.05543920
In 0.00000000 6.48528750 -1.0808650899999996 0 0 0
In 3.05719500 0.00000000 -3.2425952799999997 0 0 0
In 0.00000000 2.16176250 -1.0808650899999996 0 0 0
In 3.05719500 4.32352500 -3.2425952799999997 0 0 0
In 0.00000000 2.16176250 3.58134227
In 3.05719500 4.32352500 1.04325597
In 0.00000000 6.48528750 3.58134227
In 3.05719500 0.00000000 1.04325597
Ni 1.52859750 0.00000000 -1.0808650899999996 0 0 0
Ni 4.58579250 4.32352500 -1.0808650899999996 0 0 0
Ni 4.58579250 0.00000000 -1.0808650899999996 0 0 0
Ni 1.52859750 4.32352500 -1.0808650899999996 0 0 0
Ni 4.58579250 6.48528750 -3.2425952799999997 0 0 0
Ni 1.52859750 2.16176250 -3.2425952799999997 0 0 0
Ni 1.52859750 6.48528750 -3.2425952799999997 0 0 0
Ni 4.58579250 2.16176250 -3.2425952799999997 0 0 0
Ni 1.45014988 4.32335206 3.07785671
Ni 4.66424012 0.00017294 3.07785671
Ni 4.66424012 4.32335206 3.07785671
Ni 1.45014988 0.00017294 3.07785671
Ni 4.66601330 2.16158956 1.15608334
Ni 1.44837670 6.48546044 1.15634820
Ni 1.44837670 2.16158956 1.15608334
Ni 4.66601330 6.48546044 1.15634820
