&CONTROL
calculation = 'relax'
prefix = 'scf'
pseudo_dir = '/vol0403/data/hp230205/u10028/POT_HYBRID_KKJUS_GBRV'
outdir = './data'
tprnfor = .true.
nstep = 50
disk_io = 'non'
/
&SYSTEM
ibrav = 0
ecutwfc = 50.0
ecutrho = 400
occupations = 'smearing'
smearing = 'mp'
degauss = 0.01
assume_isolated = 'esm'
esm_bc = 'bc1'
input_dft = 'BEEF-VDW'
nosym = .true.
nspin = 1
ntyp = 6
nat = 34
/
&ELECTRONS
electron_maxstep = 200
mixing_beta = 0.1
conv_thr = 1e-06
/
&IONS
ion_dynamics = 'bfgs'
upscale = 1.0
/
&CELL
/

K_POINTS {automatic}
6 6 1 0 0 0

ATOMIC_SPECIES
Al 26.98 Al.pbe-nl-rrkjus_psl.1.0.0.UPF
C 12.01 C.pbe-n-rrkjus_psl.1.0.0.UPF
Cu 63.54 Cu.pbe-dn-rrkjus_psl.1.0.0.UPF
Li 6.941 Li.pbe-sl-rrkjus_psl.1.0.0.UPF
O 15.99 O.pbe-n-rrkjus_psl.1.0.0.UPF
Pd 106.4 Pd.pbe-n-rrkjus_psl.1.0.0.UPF


CELL_PARAMETERS {angstrom}
6.00833000 0.00000000 0.00000000
0.00000000 8.49706000 0.00000000
0.00000000 0.00000000 26.37280000

ATOMIC_POSITIONS {angstrom}
Li 0.00000000 2.12426500 -1.0620326599999999 0 0 0
Li 0.00000000 6.37279500 -1.0620326599999999 0 0 0
Li 3.00416500 4.24853000 -3.1863617000000026 0 0 0
Li 3.00416500 0.00000000 -3.1863617000000026 0 0 0
Li 0.02950090 6.37279500 3.45351816
Li 0.00540750 2.12426500 3.42635418
Li 3.01251658 0.00458841 0.98502408
Li 3.01251658 4.24394159 0.98502408
Al 0.00000000 0.00000000 -3.1863617000000026 0 0 0
Al 0.00000000 4.24853000 -3.1863617000000026 0 0 0
Al 3.00416500 6.37279500 -1.0620326599999999 0 0 0
Al 3.00416500 2.12426500 -1.0620326599999999 0 0 0
Al 6.00562625 4.24326182 1.03565986
Al 6.00562625 0.00526818 1.03565986
Al 3.03246423 2.12426500 3.18636170
Al 3.02627565 6.37279500 3.10988058
Cu 1.50208250 0.00000000 -1.0620326599999999 0 0 0
Cu 1.50208250 4.24853000 -1.0620326599999999 0 0 0
Cu 4.50624750 2.12426500 -3.1863617000000026 0 0 0
Cu 4.50624750 6.37279500 -3.1863617000000026 0 0 0
Cu 1.59833595 4.26569406 3.00729038
Cu 1.59833595 8.47989594 3.00729038
Cu 4.54446048 6.37279500 1.02827547
Cu 4.53028082 2.12426500 1.07706515
Pd 4.50624750 0.00000000 -1.0620326599999999 0 0 0
Pd 4.50624750 4.24853000 -1.0620326599999999 0 0 0
Pd 1.50208250 2.12426500 -3.1863617000000026 0 0 0
Pd 1.50208250 6.37279500 -3.1863617000000026 0 0 0
Pd 4.45043011 4.27843965 3.02970726
Pd 4.45043011 8.46715035 3.02970726
Pd 1.47828951 6.37279500 1.03803341
Pd 1.50172200 2.12426500 1.10897624
C 2.96012394 2.12426500 5.17909046
O 2.96637260 2.12426500 6.33527402
