&CONTROL
calculation = 'relax'
prefix = 'scf'
pseudo_dir = '/vol0004/mdt0/data/hp150275/u10028/POT_HYBRID_KKJUS_GBRV'
outdir = './data'
tprnfor = .true.
nstep = 50
disk_io = 'non'
/
&SYSTEM
ibrav = 0
ecutwfc = 50.0
ecutrho = 400
occupations = 'smearing'
smearing = 'mp'
degauss = 0.01
assume_isolated = 'esm'
esm_bc = 'bc1'
input_dft = 'BEEF-VDW'
nosym = .true.
nspin = 2
ntyp = 2
nat = 32
starting_magnetization(1) = 0.1
starting_magnetization(2) = 0.0
/
&ELECTRONS
electron_maxstep = 200
mixing_beta = 0.1
conv_thr = 1e-06
/
&IONS
ion_dynamics = 'bfgs'
upscale = 1.0
/
&CELL
/

K_POINTS {automatic}
7 7 2 0  0  0

ATOMIC_SPECIES
Fe 55.84 fe_pbe_v1.5.uspp.F.UPF
Ga 69.72 Ga.pbe-dnl-rrkjus_psl.1.0.0.UPF

CELL_PARAMETERS {angstrom}
7.33747000 0.00000000 0.00000000
-0.00000000 7.33747000 0.00000000
0.00000000 0.00000000 25.50310000

ATOMIC_POSITIONS {angstrom}
Ga 0.00000000 0.00000000 -2.7515294600000004 0 0 0
Ga 0.00000000 0.00000000 0.91709148
Ga 0.00000000 3.66873500 -2.7515294600000004 0 0 0
Ga 0.00000000 3.66873500 0.91709148
Ga 3.66873500 0.00000000 -2.7515294600000004 0 0 0
Ga 3.66873500 -0.00000000 0.91709148
Ga 3.66873500 3.66873500 -2.7515294600000004 0 0 0
Ga 3.66873500 3.66873500 0.91709148
Fe 0.00000000 1.83436750 -0.9170914799999998 0 0 0
Fe 1.83436750 0.00000000 -0.9170914799999998 0 0 0
Fe 1.83436750 1.83436750 -2.7515294600000004 0 0 0
Fe 0.00000000 1.83436750 2.75152946
Fe 1.83436750 -0.00000000 2.75152946
Fe 1.83436750 1.83436750 0.91709148
Fe 0.00000000 5.50310250 -0.9170914799999998 0 0 0
Fe 1.83436750 3.66873500 -0.9170914799999998 0 0 0
Fe 1.83436750 5.50310250 -2.7515294600000004 0 0 0
Fe 0.00000000 5.50310250 2.75152946
Fe 1.83436750 3.66873500 2.75152946
Fe 1.83436750 5.50310250 0.91709148
Fe 3.66873500 1.83436750 -0.9170914799999998 0 0 0
Fe 5.50310250 0.00000000 -0.9170914799999998 0 0 0
Fe 5.50310250 1.83436750 -2.7515294600000004 0 0 0
Fe 3.66873500 1.83436750 2.75152946
Fe 5.50310250 -0.00000000 2.75152946
Fe 5.50310250 1.83436750 0.91709148
Fe 3.66873500 5.50310250 -0.9170914799999998 0 0 0
Fe 5.50310250 3.66873500 -0.9170914799999998 0 0 0
Fe 5.50310250 5.50310250 -2.7515294600000004 0 0 0
Fe 3.66873500 5.50310250 2.75152946
Fe 5.50310250 3.66873500 2.75152946
Fe 5.50310250 5.50310250 0.91709148
