&CONTROL
calculation = 'relax'
prefix = 'scf'
pseudo_dir = '/vol0004/mdt0/data/hp150275/u10028/POT_HYBRID_KKJUS_GBRV'
outdir = './data'
tprnfor = .true.
nstep = 50
disk_io = 'non'
/
&SYSTEM
ibrav = 0
ecutwfc = 50.0
ecutrho = 400
occupations = 'smearing'
smearing = 'mp'
degauss = 0.01
assume_isolated = 'esm'
esm_bc = 'bc1'
input_dft = 'BEEF-VDW'
nosym = .true.
nspin = 2
ntyp = 3
nat = 17
starting_magnetization(1) = 0.0
starting_magnetization(2) = 0.1
starting_magnetization(3) = 0.001
/
&ELECTRONS
electron_maxstep = 400
mixing_beta = 0.1
conv_thr = 1e-06
/
&IONS
ion_dynamics = 'bfgs'
upscale = 1.0
/
&CELL
/

K_POINTS {automatic}
8 12 2 0  0  0

ATOMIC_SPECIES
C 12.01 C.pbe-n-rrkjus_psl.1.0.0.UPF
Mn 54.93 mn_pbe_v1.5.uspp.F.UPF
Ni 58.69 ni_pbe_v1.4.uspp.F.UPF

CELL_PARAMETERS {angstrom}
7.18728000 0.00000000 0.00000000
0.00000000 5.08218000 0.00000000
0.00000000 0.00000000 23.81160000

ATOMIC_POSITIONS {angstrom}
Mn 0.00000000 0.00000000 -1.9058804599999988 0 0 0
Mn 0.00000000 2.54109000 0.39551068
Mn 3.59364000 0.00000000 -1.9058804599999988 0 0 0
Mn 3.59385562 2.54109000 0.84412122
Ni 0.00000000 2.54109000 -1.9058804599999988 0 0 0
Ni 1.79682000 3.81163500 -0.6352934899999987 0 0 0
Ni 1.79682000 1.27054500 -0.6352934899999987 0 0 0
Ni 7.18670502 5.08207836 0.48147055
Ni 1.41970342 1.28015032 1.96802874
Ni 1.41970342 3.80202968 1.96779062
Ni 3.59364000 2.54109000 -1.9058804599999988 0 0 0
Ni 5.39046000 3.81163500 -0.6352934899999987 0 0 0
Ni 5.39046000 1.27054500 -0.6352934899999987 0 0 0
Ni 3.59335251 0.00000000 0.77506758
Ni 5.76843906 1.27999785 1.96755251
Ni 5.76843906 3.80223297 1.96755251
C 0.00035936 2.54109000 2.36401565
