&CONTROL
calculation = 'relax'
prefix = 'scf'
pseudo_dir = '/vol0004/mdt0/data/hp150275/u10028/POT_KKJUS'
outdir = './data'
tprnfor = .true.
nstep = 50
disk_io = 'non'
/
&SYSTEM
ibrav = 0
ecutwfc = 50.0
ecutrho = 400
occupations = 'smearing'
smearing = 'mp'
degauss = 0.01
assume_isolated = 'esm'
esm_bc = 'bc1'
input_dft = 'BEEF-VDW'
nosym = .true.
nspin = 1
ntyp = 4
nat = 33
/
&ELECTRONS
electron_maxstep = 200
mixing_beta = 0.1
conv_thr = 1e-06
/
&IONS
ion_dynamics = 'bfgs'
upscale = 1.0
/
&CELL
/

K_POINTS {automatic}
8 6 1 0 0 0

ATOMIC_SPECIES
C 12.01 C.pbe-n-rrkjus_psl.1.0.0.UPF
Ga 69.72 Ga.pbe-dnl-rrkjus_psl.1.0.0.UPF
Li 6.941 Li.pbe-sl-rrkjus_psl.1.0.0.UPF
Rh 102.9 Rh.pbe-spn-rrkjus_psl.1.0.0.UPF

CELL_PARAMETERS {angstrom}
6.12388000 0.00000000 0.00000000
0.00000000 8.66047000 0.00000000
0.00000000 0.00000000 26.49540000

ATOMIC_POSITIONS {angstrom}
Li 0.00000000 0.00000000 -3.2478061300000007 0 0 0
Li 3.06194000 2.16511750 -1.0826020400000012 0 0 0
Li 3.06194000 6.49535250 -1.0826020400000012 0 0 0
Li 0.00000000 4.33023500 -3.2478061300000007 0 0 0
Li 0.07073081 4.28078372 1.10750772
Li 2.97381737 6.49535250 3.51593958
Li 3.42043194 2.16511750 3.97536982
Li 0.07073081 0.04945128 1.10750772
Ga 1.53097000 0.00000000 -1.0826020400000012 0 0 0
Ga 4.59291000 4.33023500 -1.0826020400000012 0 0 0
Ga 4.59291000 0.00000000 -1.0826020400000012 0 0 0
Ga 1.53097000 4.33023500 -1.0826020400000012 0 0 0
Ga 4.59291000 6.49535250 -3.2478061300000007 0 0 0
Ga 1.53097000 2.16511750 -3.2478061300000007 0 0 0
Ga 1.53097000 6.49535250 -3.2478061300000007 0 0 0
Ga 4.59291000 2.16511750 -3.2478061300000007 0 0 0
Ga 1.53488928 4.23661532 3.62907494
Ga 4.72647182 8.53151560 3.28675437
Ga 4.72647182 4.45918940 3.28675437
Ga 1.53488928 0.09361968 3.62880998
Ga 4.47937326 2.16511750 0.95144981
Ga 1.61131531 6.49535250 1.04630335
Ga 1.69196681 2.16511750 1.26330067
Ga 4.63890034 6.49535250 1.13055872
Rh 0.00000000 6.49535250 -1.0826020400000012 0 0 0
Rh 3.06194000 0.00000000 -3.2478061300000007 0 0 0
Rh 0.00000000 2.16511750 -1.0826020400000012 0 0 0
Rh 3.06194000 4.33023500 -3.2478061300000007 0 0 0
Rh 5.75859056 2.16511750 2.99689469
Rh 3.09862204 4.39432248 1.01715841
Rh 0.16908033 6.49535250 3.09651740
Rh 3.09862204 8.59638252 1.01742336
C 1.43078332 2.16511750 3.71862939
