&CONTROL
calculation = 'relax'
prefix = 'scf'
pseudo_dir = '/vol0004/mdt0/data/hp150275/u10028/POT_KKJUS'
outdir = './data'
tprnfor = .true.
nstep = 50
disk_io = 'non'
/
&SYSTEM
ibrav = 0
ecutwfc = 50.0
ecutrho = 400
occupations = 'smearing'
smearing = 'mp'
degauss = 0.01
assume_isolated = 'esm'
esm_bc = 'bc1'
input_dft = 'BEEF-VDW'
nosym = .true.
nspin = 1
ntyp = 4
nat = 18
/
&ELECTRONS
electron_maxstep = 200
mixing_beta = 0.1
conv_thr = 1e-06
/
&IONS
ion_dynamics = 'bfgs'
upscale = 1.0
/
&CELL
/

K_POINTS {automatic}
6 8 1 0 0 0

ATOMIC_SPECIES
Ag 107.8 Ag.pbe-n-rrkjus_psl.1.0.0.UPF
C 12.01 C.pbe-n-rrkjus_psl.1.0.0.UPF
In 114.8 In.pbe-dn-rrkjus_psl.1.0.0.UPF
O 15.99 O.pbe-n-rrkjus_psl.1.0.0.UPF

CELL_PARAMETERS {angstrom}
8.59601000 0.00000000 0.00000000
0.00000000 6.07830000 0.00000000
0.00000000 0.00000000 24.55870000

ATOMIC_POSITIONS {angstrom}
In 0.00000000 6.07823922 2.39938499
In 0.00000000 3.03915000 -0.7598461800000003 0 0 0
In 4.29800500 0.00000000 2.49393599
In 4.29800500 3.03915000 -0.7598461800000003 0 0 0
Ag 0.00000000 3.03915000 2.15625386
Ag 2.16765584 4.59908491 0.84776632
Ag 2.16765584 1.47921509 0.84776632
Ag 0.00000000 0.00000000 -0.7598461800000003 0 0 0
Ag 2.14900250 1.51957500 -2.279292950000002 0 0 0
Ag 2.14900250 4.55872500 -2.279292950000002 0 0 0
Ag 4.29800500 3.03915000 2.20709037
Ag 6.42835416 4.59908491 0.84776632
Ag 6.42835416 1.47921509 0.84776632
Ag 4.29800500 0.00000000 -0.7598461800000003 0 0 0
Ag 6.44700750 1.51957500 -2.279292950000002 0 0 0
Ag 6.44700750 4.55872500 -2.279292950000002 0 0 0
C 0.00000000 3.03915000 4.40386608
O 0.00000000 3.03915000 5.54510887
