&CONTROL
calculation = 'relax'
prefix = 'scf'
pseudo_dir = '/vol0004/mdt0/data/hp150275/u10028/POT_HYBRID_KKJUS_GBRV'
outdir = './data'
tprnfor = .true.
nstep = 50
disk_io = 'non'
/
&SYSTEM
ibrav = 0
ecutwfc = 50.0
ecutrho = 400
occupations = 'smearing'
smearing = 'mp'
degauss = 0.01
assume_isolated = 'esm'
esm_bc = 'bc1'
input_dft = 'BEEF-VDW'
nosym = .true.
nspin = 2
ntyp = 4
nat = 33
starting_magnetization(1) = 0.0
starting_magnetization(2) = 0.001
starting_magnetization(3) = 0.0
starting_magnetization(4) = 0.0
/
&ELECTRONS
electron_maxstep = 200
mixing_beta = 0.1
conv_thr = 1e-06
/
&IONS
ion_dynamics = 'bfgs'
upscale = 1.0
/
&CELL
/

K_POINTS {automatic}
9 6 2 0  0  0

ATOMIC_SPECIES
C 12.01 C.pbe-n-rrkjus_psl.1.0.0.UPF
Ni 58.69 ni_pbe_v1.4.uspp.F.UPF
Sn 118.7 Sn.pbe-dn-rrkjus_psl.1.0.0.UPF
V 50.94 V.pbe-spnl-rrkjus_psl.1.0.0.UPF

CELL_PARAMETERS {angstrom}
6.09179000 0.00000000 0.00000000
0.00000000 8.61509000 0.00000000
0.00000000 0.00000000 26.46130000

ATOMIC_POSITIONS {angstrom}
V 0.00000000 0.00000000 23.23063988
V 3.04589500 2.15377250 25.38432509
V 3.04589500 6.46131750 25.38432509
V 0.00000000 4.30754500 23.23063988
V 0.00000000 4.30771730 1.09020556
V 3.04589500 6.44460423 3.03484650
V 3.04589500 2.17014117 3.03431727
V 0.00000000 0.00008615 1.22965661
Ni 1.52294750 0.00000000 25.38432509
Ni 4.56884250 4.30754500 25.38432509
Ni 4.56884250 0.00000000 25.38432509
Ni 1.52294750 4.30754500 25.38432509
Ni 4.56884250 6.46131750 23.23063988
Ni 1.52294750 2.15377250 23.23063988
Ni 1.52294750 6.46131750 23.23063988
Ni 4.56884250 2.15377250 23.23063988
Ni 1.71252400 4.30763115 3.07586151
Ni 4.27795953 8.61465925 3.29628414
Ni 4.37926600 4.30763115 3.07586151
Ni 1.81383047 8.61465925 3.29628414
Ni 4.73612305 2.21459504 1.24473955
Ni 1.35554511 6.40083957 1.24553339
Ni 1.35566695 2.21459504 1.24473955
Ni 4.73624489 6.40083957 1.24553339
Sn 0.00000000 6.46131750 25.38432509
Sn 3.04589500 0.00000000 23.23063988
Sn 0.00000000 2.15377250 25.38432509
Sn 3.04589500 4.30754500 23.23063988
Sn 0.00000000 2.30841337 3.75327079
Sn 3.04589500 4.30754500 0.93329005
Sn 0.00000000 6.30667663 3.75380002
Sn 3.04589500 0.00008615 1.00394172
C 0.00000000 0.00008615 3.16000845
