&CONTROL
calculation = 'relax'
prefix = 'scf'
pseudo_dir = '/vol0004/mdt0/data/hp150275/u10028/POT_KKJUS'
outdir = './data'
tprnfor = .true.
nstep = 50
disk_io = 'non'
/
&SYSTEM
ibrav = 0
ecutwfc = 50.0
ecutrho = 400
occupations = 'smearing'
smearing = 'mp'
degauss = 0.01
assume_isolated = 'esm'
esm_bc = 'bc1'
input_dft = 'BEEF-VDW'
nosym = .true.
nspin = 1
ntyp = 4
nat = 34
/
&ELECTRONS
electron_maxstep = 200
mixing_beta = 0.1
conv_thr = 1e-06
/
&IONS
ion_dynamics = 'bfgs'
upscale = 1.0
/
&CELL
/

K_POINTS {automatic}
6 6 1 0 0 0

ATOMIC_SPECIES
C 12.01 C.pbe-n-rrkjus_psl.1.0.0.UPF
Na 22.98 Na.pbe-spnl-rrkjus_psl.1.0.0.UPF
O 15.99 O.pbe-n-rrkjus_psl.1.0.0.UPF
Pb 207.2 Pb.pbe-dn-rrkjus_psl.1.0.0.UPF

CELL_PARAMETERS {angstrom}
10.02390000 0.00000000 0.00000000
0.00000000 10.02390000 0.00000000
0.00000000 0.00000000 27.51800000

ATOMIC_POSITIONS {angstrom}
Na 0.00000000 0.00000000 3.89462254
Na 0.00000000 0.00000000 -1.2528945399999998 0 0 0
Na 0.00000000 5.01195000 4.04569636
Na 0.00000000 5.01195000 -1.2528945399999998 0 0 0
Na 5.01195000 0.00000000 4.04624672
Na 5.01195000 0.00000000 -1.2528945399999998 0 0 0
Na 5.01195000 5.01195000 4.07018738
Na 5.01195000 5.01195000 -1.2528945399999998 0 0 0
Pb 0.00010024 2.54526869 1.52339648
Pb 2.54546917 0.00010024 1.52367166
Pb 2.51098695 2.51098695 3.84701640
Pb 0.00000000 2.50597500 -3.758958800000002 0 0 0
Pb 2.50597500 0.00000000 -3.758958800000002 0 0 0
Pb 2.50597500 2.50597500 -1.2528945399999998 0 0 0
Pb 10.02379976 7.47863131 1.52339648
Pb 2.51239030 5.01195000 1.54623642
Pb 2.51098695 7.51281281 3.84701640
Pb 0.00000000 7.51792500 -3.758958800000002 0 0 0
Pb 2.50597500 5.01195000 -3.758958800000002 0 0 0
Pb 2.50597500 7.51792500 -1.2528945399999998 0 0 0
Pb 5.01195000 2.51229006 1.54651160
Pb 7.47843083 10.02379976 1.52367166
Pb 7.51281281 2.51098695 3.84701640
Pb 5.01195000 2.50597500 -3.758958800000002 0 0 0
Pb 7.51792500 0.00000000 -3.758958800000002 0 0 0
Pb 7.51792500 2.50597500 -1.2528945399999998 0 0 0
Pb 5.01195000 7.51160994 1.54651160
Pb 7.51150970 5.01195000 1.54623642
Pb 7.51291305 7.51281281 3.84701640
Pb 5.01195000 7.51792500 -3.758958800000002 0 0 0
Pb 7.51792500 5.01195000 -3.758958800000002 0 0 0
Pb 7.51792500 7.51792500 -1.2528945399999998 0 0 0
C 0.00010024 0.00010024 6.46673000
O 0.00000000 0.00010024 7.60377376
