&CONTROL
calculation = 'relax'
prefix = 'scf'
pseudo_dir = '/vol0004/mdt0/data/hp150275/u10028/POT_HYBRID_KKJUS_GBRV'
outdir = './data'
tprnfor = .true.
nstep = 50
disk_io = 'non'
/
&SYSTEM
ibrav = 0
ecutwfc = 50.0
ecutrho = 400
occupations = 'smearing'
smearing = 'mp'
degauss = 0.01
assume_isolated = 'esm'
esm_bc = 'bc1'
input_dft = 'BEEF-VDW'
nosym = .true.
nspin = 2
ntyp = 5
nat = 34
starting_magnetization(1) = 0.0
starting_magnetization(2) = 0.0
starting_magnetization(3) = 0.1
starting_magnetization(4) = 0.001
starting_magnetization(5) = 0.0
/
&ELECTRONS
electron_maxstep = 300
mixing_beta = 0.1
conv_thr = 1e-06
/
&IONS
ion_dynamics = 'bfgs'
upscale = 1.0
/
&CELL
/

K_POINTS {automatic}
8 6 1 0 0 0

ATOMIC_SPECIES
Al 26.98 Al.pbe-nl-rrkjus_psl.1.0.0.UPF
C 12.01 C.pbe-n-rrkjus_psl.1.0.0.UPF
Mn 54.93 mn_pbe_v1.5.uspp.F.UPF
Ni 58.69 ni_pbe_v1.4.uspp.F.UPF
O 15.99 O.pbe-n-rrkjus_psl.1.0.0.UPF

CELL_PARAMETERS {angstrom}
5.81764000 0.00000000 0.00000000
0.00000000 8.22738000 0.00000000
0.00000000 0.00000000 26.17050000

ATOMIC_POSITIONS {angstrom}
Mn 0.00000000 0.00000000 -3.085240250000002 0 0 0
Mn 2.90882000 2.05684500 -1.0285006500000016 0 0 0
Mn 2.90882000 6.17053500 -1.0285006500000016 0 0 0
Mn 0.00000000 4.11369000 -3.085240250000002 0 0 0
Mn 0.00000000 4.12109464 1.00023651
Mn 2.90882000 6.17053500 3.16663050
Mn 2.90882000 2.05684500 3.15485378
Mn 0.00000000 8.21989308 1.00023651
Al 0.00000000 6.17053500 -1.0285006500000016 0 0 0
Al 2.90882000 0.00000000 -3.085240250000002 0 0 0
Al 0.00000000 2.05684500 -1.0285006500000016 0 0 0
Al 2.90882000 4.11369000 -3.085240250000002 0 0 0
Al 0.00000000 2.05684500 3.13182374
Al 2.90882000 4.10727264 1.00520890
Al 0.00000000 6.17053500 3.08314661
Al 2.90882000 0.00633508 1.00520890
Ni 1.45441000 0.00000000 -1.0285006500000016 0 0 0
Ni 4.36323000 4.11369000 -1.0285006500000016 0 0 0
Ni 4.36323000 0.00000000 -1.0285006500000016 0 0 0
Ni 1.45441000 4.11369000 -1.0285006500000016 0 0 0
Ni 4.36323000 6.17053500 -3.085240250000002 0 0 0
Ni 1.45441000 2.05684500 -3.085240250000002 0 0 0
Ni 1.45441000 6.17053500 -3.085240250000002 0 0 0
Ni 4.36323000 2.05684500 -3.085240250000002 0 0 0
Ni 1.42631080 4.12668926 2.94993876
Ni 4.39132920 8.21438074 2.94993876
Ni 4.39132920 4.12668926 2.94993876
Ni 1.42631080 8.21438074 2.94993876
Ni 4.36433535 2.05684500 1.03949226
Ni 1.47506262 6.17053500 1.01646222
Ni 1.45330465 2.05684500 1.03949226
Ni 4.34257738 6.17053500 1.01646222
C 0.00000000 2.05684500 5.15768214
O 0.00000000 2.05684500 6.30761391
