&CONTROL
calculation = 'relax'
prefix = 'scf'
pseudo_dir = '/vol0004/mdt0/data/hp150275/u10028/POT_KKJUS'
outdir = './data'
tprnfor = .true.
nstep = 50
disk_io = 'non'
/
&SYSTEM
ibrav = 0
ecutwfc = 50.0
ecutrho = 400
occupations = 'smearing'
smearing = 'mp'
degauss = 0.01
assume_isolated = 'esm'
esm_bc = 'bc1'
input_dft = 'BEEF-VDW'
nosym = .true.
nspin = 1
ntyp = 4
nat = 34
/
&ELECTRONS
electron_maxstep = 200
mixing_beta = 0.1
conv_thr = 1e-06
/
&IONS
ion_dynamics = 'bfgs'
upscale = 1.0
/
&CELL
/

K_POINTS {automatic}
9 6 2 0  0  0

ATOMIC_SPECIES
Al 26.98 Al.pbe-nl-rrkjus_psl.1.0.0.UPF
C 12.01 C.pbe-n-rrkjus_psl.1.0.0.UPF
O 15.99 O.pbe-n-rrkjus_psl.1.0.0.UPF
Pd 106.4 Pd.pbe-n-rrkjus_psl.1.0.0.UPF

CELL_PARAMETERS {angstrom}
6.18271000 0.00000000 0.00000000
0.00000000 8.74368000 0.00000000
0.00000000 0.00000000 26.55780000

ATOMIC_POSITIONS {angstrom}
Al 0.00000000 0.00000000 -3.2788259900000014 0 0 0
Al 0.00000000 2.18592000 -1.0928534700000014 0 0 0
Al 0.00000000 8.72680470 1.11861454
Al 0.00000000 2.18592000 3.28227850
Al 0.00000000 4.37184000 -3.2788259900000014 0 0 0
Al 0.00000000 6.55776000 -1.0928534700000014 0 0 0
Al 0.00000000 4.38871530 1.11861454
Al 0.00000000 6.55776000 3.29661971
Al 3.09135500 0.00000000 -3.2788259900000014 0 0 0
Al 3.09135500 2.18592000 -1.0928534700000014 0 0 0
Al 3.09135500 8.74271820 1.09922734
Al 3.09135500 2.18592000 3.28599659
Al 3.09135500 4.37184000 -3.2788259900000014 0 0 0
Al 3.09135500 6.55776000 -1.0928534700000014 0 0 0
Al 3.09135500 4.37280180 1.09922734
Al 3.09135500 6.55776000 3.30033781
Pd 1.54567750 2.18592000 -3.2788259900000014 0 0 0
Pd 1.54567750 0.00000000 -1.0928534700000014 0 0 0
Pd 1.53504324 2.18592000 1.05142330
Pd 1.55711551 8.72094643 3.16834554
Pd 1.54567750 6.55776000 -3.2788259900000014 0 0 0
Pd 1.54567750 4.37184000 -1.0928534700000014 0 0 0
Pd 1.54889251 6.55776000 1.01078987
Pd 1.55711551 4.39457357 3.16834554
Pd 4.63703250 2.18592000 -3.2788259900000014 0 0 0
Pd 4.63703250 0.00000000 -1.0928534700000014 0 0 0
Pd 4.64766676 2.18592000 1.05142330
Pd 4.62559449 8.72094643 3.16834554
Pd 4.63703250 6.55776000 -3.2788259900000014 0 0 0
Pd 4.63703250 4.37184000 -1.0928534700000014 0 0 0
Pd 4.63381749 6.55776000 1.01078987
Pd 4.62559449 4.39457357 3.16834554
C 0.00000000 2.18592000 5.29482859
O 0.00000000 2.18592000 6.44318786
