&CONTROL
calculation = 'relax'
prefix = 'scf'
pseudo_dir = '/vol0403/data/hp230205/u10028/POT_HYBRID_KKJUS_GBRV'
outdir = './data'
tprnfor = .true.
nstep = 70
disk_io = 'non'
/
&SYSTEM
ibrav = 0
ecutwfc = 50.0
ecutrho = 400
occupations = 'smearing'
smearing = 'mp'
degauss = 0.01
assume_isolated = 'esm'
esm_bc = 'bc1'
input_dft = 'BEEF-VDW'
nosym = .true.
nspin = 1
ntyp = 6
nat = 34
/
&ELECTRONS
electron_maxstep = 200
mixing_beta = 0.1
conv_thr = 1e-06
/
&IONS
ion_dynamics = 'bfgs'
upscale = 1.0
/
&CELL
/

K_POINTS {automatic}
9 6 2 0  0  0

ATOMIC_SPECIES
C 12.01 C.pbe-n-rrkjus_psl.1.0.0.UPF
Cu 63.54 Cu.pbe-dn-rrkjus_psl.1.0.0.UPF
O 15.99 O.pbe-n-rrkjus_psl.1.0.0.UPF
Pd 106.4 Pd.pbe-n-rrkjus_psl.1.0.0.UPF
Sn 118.7 Sn.pbe-dn-rrkjus_psl.1.0.0.UPF
Y 88.90 Y.pbe-spn-rrkjus_psl.1.0.0.UPF


CELL_PARAMETERS {angstrom}
6.76496000 0.00000000 0.00000000
-0.00000000 9.56710000 0.00000000
0.00000000 0.00000000 27.17530000

ATOMIC_POSITIONS {angstrom}
Y 1.69124000 0.00000000 -1.1959849499999997 0 0 0
Y 1.69124000 4.78355000 -1.1959849499999997 0 0 0
Y 5.07372000 2.39177500 -3.5876831100000004 0 0 0
Y 5.07372000 7.17532500 -3.5876831100000004 0 0 0
Y 1.93504916 4.60531493 3.73687550
Y 1.93511681 0.17823507 3.73687550
Y 5.17174427 7.17532500 1.24136770
Y 5.07054047 2.39177500 1.20984436
Cu 0.00000000 0.00000000 -3.5876831100000004 0 0 0
Cu 0.00000000 4.78355000 -3.5876831100000004 0 0 0
Cu 3.38248000 7.17532500 -1.1959849499999997 0 0 0
Cu 3.38248000 2.39177500 -1.1959849499999997 0 0 0
Cu 0.17298003 4.77704437 1.39816918
Cu 0.17291238 0.00650563 1.39816918
Cu 4.32220059 2.39187067 4.22929194
Cu 3.34195789 7.17532500 3.54746366
Sn 5.07372000 0.00000000 -1.1959849499999997 0 0 0
Sn 5.07372000 4.78355000 -1.1959849499999997 0 0 0
Sn 1.69124000 2.39177500 -3.5876831100000004 0 0 0
Sn 1.69124000 7.17532500 -3.5876831100000004 0 0 0
Sn 5.25603567 4.90916602 3.64828403
Sn 5.25603567 9.44148398 3.64828403
Sn 1.75780721 7.17532500 1.16446161
Sn 1.74738917 2.39177500 1.15766778
Pd 0.00000000 2.39177500 -1.1959849499999997 0 0 0
Pd 0.00000000 7.17532500 -1.1959849499999997 0 0 0
Pd 3.38248000 4.78355000 -3.5876831100000004 0 0 0
Pd 3.38248000 0.00000000 -3.5876831100000004 0 0 0
Pd 0.39784730 7.17532500 3.54692016
Pd 0.07143798 2.39177500 3.41946800
Pd 3.39025970 9.54739177 1.25142256
Pd 3.39025970 4.80335390 1.25142256
C 2.62723987 2.39177500 5.16140473
O 2.33174641 2.39167933 6.31717024
