&CONTROL
calculation = 'relax'
prefix = 'scf'
pseudo_dir = '/vol0004/mdt0/data/hp150275/u10028/POT_HYBRID_KKJUS_GBRV'
outdir = './data'
tprnfor = .true.
nstep = 50
disk_io = 'non'
/
&SYSTEM
ibrav = 0
ecutwfc = 50.0
ecutrho = 400
occupations = 'smearing'
smearing = 'mp'
degauss = 0.01
assume_isolated = 'esm'
esm_bc = 'bc1'
input_dft = 'BEEF-VDW'
nosym = .true.
nspin = 2
ntyp = 4
nat = 33
starting_magnetization(1) = 0.0
starting_magnetization(2) = 0.1
starting_magnetization(3) = 0.1
starting_magnetization(4) = 0.0
/
&ELECTRONS
electron_maxstep = 300
mixing_beta = 0.1
conv_thr = 1e-06
/
&IONS
ion_dynamics = 'bfgs'
upscale = 1.0
/
&CELL
/

K_POINTS {automatic}
9 6 2 0  0  0

ATOMIC_SPECIES
C 12.01 C.pbe-n-rrkjus_psl.1.0.0.UPF
Co 58.93 co_pbe_v1.2.uspp.F.UPF
Fe 55.84 fe_pbe_v1.5.uspp.F.UPF
Ga 69.72 Ga.pbe-dnl-rrkjus_psl.1.0.0.UPF

CELL_PARAMETERS {angstrom}
5.79866000 0.00000000 0.00000000
0.00000000 8.20054000 0.00000000
0.00000000 0.00000000 26.15040000

ATOMIC_POSITIONS {angstrom}
Ga 0.00000000 0.00000000 -3.0752870400000027 0 0 0
Ga 2.89933000 2.05013500 -1.0250956799999997 0 0 0
Ga 2.89933000 6.15040500 -1.0250956799999997 0 0 0
Ga 0.00000000 4.10027000 -3.0752870400000027 0 0 0
Ga 0.02284672 4.05024671 1.05281510
Ga 2.71348295 6.15015898 3.42491789
Ga 3.33527326 2.05038102 4.00624128
Ga 0.02284672 0.05002329 1.05307661
Fe 1.44966500 0.00000000 -1.0250956799999997 0 0 0
Fe 4.34899500 4.10027000 -1.0250956799999997 0 0 0
Fe 4.34899500 0.00000000 -1.0250956799999997 0 0 0
Fe 1.44966500 4.10027000 -1.0250956799999997 0 0 0
Fe 4.34899500 6.15040500 -3.0752870400000027 0 0 0
Fe 1.44966500 2.05013500 -3.0752870400000027 0 0 0
Fe 1.44966500 6.15040500 -3.0752870400000027 0 0 0
Fe 4.34899500 2.05013500 -3.0752870400000027 0 0 0
Fe 1.60692466 3.91846403 3.06639590
Fe 4.26566826 8.10336360 3.04312205
Fe 4.26566826 4.19752840 3.04312205
Fe 1.60686667 0.18188798 3.06639590
Fe 4.21110287 2.05029901 1.06301376
Fe 1.48376112 6.15015898 1.04993856
Fe 1.61904386 2.05038102 1.30228992
Fe 4.33786157 6.15024099 1.10302387
Co 0.00000000 6.15040500 -1.0250956799999997 0 0 0
Co 2.89933000 0.00000000 -3.0752870400000027 0 0 0
Co 0.00000000 2.05013500 -1.0250956799999997 0 0 0
Co 2.89933000 4.10027000 -3.0752870400000027 0 0 0
Co 5.47236940 2.05038102 2.98088410
Co 2.91423256 4.16210207 0.92493965
Co 0.07056969 6.15024099 2.88805018
Co 2.91423256 8.13870793 0.92520115
C 1.43673399 2.05013500 3.37314010
