&CONTROL
calculation = 'relax'
prefix = 'scf'
pseudo_dir = '/vol0403/data/hp230205/u10028/POT_HYBRID_KKJUS_GBRV'
outdir = './data'
tprnfor = .true.
nstep = 70
disk_io = 'non'
/
&SYSTEM
ibrav = 0
ecutwfc = 50.0
ecutrho = 400
occupations = 'smearing'
smearing = 'mp'
degauss = 0.01
assume_isolated = 'esm'
esm_bc = 'bc1'
input_dft = 'BEEF-VDW'
nosym = .true.
nspin = 1
ntyp = 6
nat = 34
/
&ELECTRONS
electron_maxstep = 200
mixing_beta = 0.1
conv_thr = 1e-06
/
&IONS
ion_dynamics = 'bfgs'
upscale = 1.0
/
&CELL
/

K_POINTS {automatic}
6 6 1 0 0 0

ATOMIC_SPECIES
C 12.01 C.pbe-n-rrkjus_psl.1.0.0.UPF
In 114.8 In.pbe-dn-rrkjus_psl.1.0.0.UPF
Li 6.941 Li.pbe-sl-rrkjus_psl.1.0.0.UPF
Mg 24.30 Mg.pbe-spnl-rrkjus_psl.1.0.0.UPF
O 15.99 O.pbe-n-rrkjus_psl.1.0.0.UPF
Sn 118.7 Sn.pbe-dn-rrkjus_psl.1.0.0.UPF


CELL_PARAMETERS {angstrom}
7.01918000 0.00000000 0.00000000
-0.00000000 9.92662000 0.00000000
0.00000000 0.00000000 27.44500000

ATOMIC_POSITIONS {angstrom}
Li 5.26438500 0.00000000 -1.2407884500000002 0 0 0
Li 5.26438500 4.96331000 -1.2407884500000002 0 0 0
Li 1.75479500 2.48165500 -3.7223653500000005 0 0 0
Li 1.75479500 7.44496500 -3.7223653500000005 0 0 0
Li 5.30439433 4.92459618 3.87194060
Li 5.30432413 0.03881308 3.87194060
Li 1.79192646 7.44476647 1.37554340
Li 1.81045710 2.48155573 1.30199080
Mg 1.75479500 0.00000000 -1.2407884500000002 0 0 0
Mg 1.75479500 4.96331000 -1.2407884500000002 0 0 0
Mg 5.26438500 2.48165500 -3.7223653500000005 0 0 0
Mg 5.26438500 7.44496500 -3.7223653500000005 0 0 0
Mg 1.73633456 5.00122969 4.00175545
Mg 1.73626436 9.88899811 4.00202990
Mg 5.24051979 7.44476647 1.37883680
Mg 5.21216230 2.48145647 1.37691565
In 0.00000000 0.00000000 -3.7223653500000005 0 0 0
In 0.00000000 4.96331000 -3.7223653500000005 0 0 0
In 3.50959000 7.44496500 -1.2407884500000002 0 0 0
In 3.50959000 2.48165500 -1.2407884500000002 0 0 0
In 0.05271404 4.94951200 1.36566320
In 0.05271404 0.01359947 1.36593765
In 3.54286091 2.48175427 4.19990835
In 3.61235080 7.44506427 4.24793710
Sn 0.00000000 2.48165500 -1.2407884500000002 0 0 0
Sn 0.00000000 7.44496500 -1.2407884500000002 0 0 0
Sn 3.50959000 4.96331000 -3.7223653500000005 0 0 0
Sn 3.50959000 0.00000000 -3.7223653500000005 0 0 0
Sn 6.95074300 7.44506427 3.93094735
Sn 0.01839025 2.48175427 3.85821810
Sn 3.47737196 9.91808311 1.40106725
Sn 3.47744216 4.97164836 1.40106725
C 6.26911043 2.47996747 7.69859695
O 0.23717809 2.48175427 8.26176835
