&CONTROL
calculation = 'relax'
prefix = 'scf'
pseudo_dir = '/vol0004/mdt0/data/hp150275/u10028/POT_KKJUS'
outdir = './data'
tprnfor = .true.
nstep = 50
disk_io = 'non'
/
&SYSTEM
ibrav = 0
ecutwfc = 50.0
ecutrho = 400
occupations = 'smearing'
smearing = 'mp'
degauss = 0.01
assume_isolated = 'esm'
esm_bc = 'bc1'
input_dft = 'BEEF-VDW'
nosym = .true.
nspin = 1
ntyp = 5
nat = 34
/
&ELECTRONS
electron_maxstep = 200
mixing_beta = 0.1
conv_thr = 1e-06
/
&IONS
ion_dynamics = 'bfgs'
upscale = 1.0
/
&CELL
/

K_POINTS {automatic}
9 6 2 0  0  0

ATOMIC_SPECIES
C 12.01 C.pbe-n-rrkjus_psl.1.0.0.UPF
Ga 69.72 Ga.pbe-dnl-rrkjus_psl.1.0.0.UPF
Li 6.941 Li.pbe-sl-rrkjus_psl.1.0.0.UPF
O 15.99 O.pbe-n-rrkjus_psl.1.0.0.UPF
Pd 106.4 Pd.pbe-n-rrkjus_psl.1.0.0.UPF

CELL_PARAMETERS {angstrom}
6.24448000 0.00000000 0.00000000
0.00000000 8.83103000 0.00000000
0.00000000 0.00000000 26.62330000

ATOMIC_POSITIONS {angstrom}
Li 0.00000000 0.00000000 -3.3116722900000006 0 0 0
Li 3.12224000 2.20775750 -1.1038020199999998 0 0 0
Li 3.12224000 6.62327250 -1.1038020199999998 0 0 0
Li 0.00000000 4.41551500 -3.3116722900000006 0 0 0
Li 6.24435511 4.44386261 1.14267204
Li 3.12224000 6.62327250 4.09892327
Li 3.12224000 2.20775750 4.26531889
Li 0.00006244 8.80277070 1.14240580
Ga 1.56112000 0.00000000 -1.1038020199999998 0 0 0
Ga 4.68336000 4.41551500 -1.1038020199999998 0 0 0
Ga 4.68336000 0.00000000 -1.1038020199999998 0 0 0
Ga 1.56112000 4.41551500 -1.1038020199999998 0 0 0
Ga 4.68336000 6.62327250 -3.3116722900000006 0 0 0
Ga 1.56112000 2.20775750 -3.3116722900000006 0 0 0
Ga 1.56112000 6.62327250 -3.3116722900000006 0 0 0
Ga 4.68336000 2.20775750 -3.3116722900000006 0 0 0
Ga 1.57685609 4.41533838 3.50176265
Ga 4.66768636 0.00026493 3.50149642
Ga 4.66762391 4.41525007 3.50176265
Ga 1.57685609 0.00017662 3.50149642
Ga 4.56846157 2.20775750 1.29868457
Ga 1.67932801 6.62318419 1.29655471
Ga 1.67601843 2.20775750 1.29868457
Ga 4.56515199 6.62327250 1.29655471
Pd 0.00000000 6.62327250 -1.1038020199999998 0 0 0
Pd 3.12224000 0.00000000 -3.3116722900000006 0 0 0
Pd 0.00000000 2.20775750 -1.1038020199999998 0 0 0
Pd 3.12224000 4.41551500 -3.3116722900000006 0 0 0
Pd 6.24441756 2.20775750 3.20943881
Pd 3.12224000 4.41560331 0.98346470
Pd 0.00000000 6.62327250 3.22807513
Pd 3.12224000 8.83094169 0.98346470
C 3.12224000 2.20775750 6.38373487
O 3.12224000 2.20775750 7.52108225
