&CONTROL
calculation = 'relax'
prefix = 'scf'
pseudo_dir = '/vol0004/mdt0/data/hp150275/u10028/POT_KKJUS'
outdir = './data'
tprnfor = .true.
nstep = 50
disk_io = 'non'
/
&SYSTEM
ibrav = 0
ecutwfc = 50.0
ecutrho = 400
occupations = 'smearing'
smearing = 'mp'
degauss = 0.01
assume_isolated = 'esm'
esm_bc = 'bc1'
input_dft = 'BEEF-VDW'
nosym = .true.
nspin = 1
ntyp = 4
nat = 33
/
&ELECTRONS
electron_maxstep = 200
mixing_beta = 0.1
conv_thr = 1e-06
/
&IONS
ion_dynamics = 'bfgs'
upscale = 1.0
/
&CELL
/

K_POINTS {automatic}
9 6 2 0  0  0

ATOMIC_SPECIES
C 12.01 C.pbe-n-rrkjus_psl.1.0.0.UPF
Ga 69.72 Ga.pbe-dnl-rrkjus_psl.1.0.0.UPF
Ir 192.2 Ir.pbe-n-rrkjus_psl.0.2.3.UPF
Li 6.941 Li.pbe-sl-rrkjus_psl.1.0.0.UPF

CELL_PARAMETERS {angstrom}
5.92875000 0.00000000 0.00000000
0.00000000 8.38451000 0.00000000
0.00000000 0.00000000 26.28840000

ATOMIC_POSITIONS {angstrom}
Li 1.48218750 0.00000000 -1.0481185099999983 0 0 0
Li 4.44656250 4.19225500 -1.0481185099999983 0 0 0
Li 4.44656250 0.00000000 -1.0481185099999983 0 0 0
Li 1.48218750 4.19225500 -1.0481185099999983 0 0 0
Li 4.44656250 6.28838250 -3.14409264 0 0 0
Li 1.48218750 2.09612750 -3.14409264 0 0 0
Li 1.48218750 6.28838250 -3.14409264 0 0 0
Li 4.44656250 2.09612750 -3.14409264 0 0 0
Li 1.39373055 4.19359652 3.90172433
Li 4.59756776 0.00092230 4.28448343
Li 4.53501945 4.19091348 3.90198721
Li 1.33124153 8.38358770 4.28448343
Li 4.45071263 2.12773710 0.99554171
Li 1.47803737 6.25660521 0.99554171
Li 1.47774094 2.12798864 0.99449017
Li 4.45100906 6.25677290 0.99449017
Ga 0.00000000 0.00000000 -3.14409264 0 0 0
Ga 2.96437500 2.09612750 -1.0481185099999983 0 0 0
Ga 2.96437500 6.28838250 -1.0481185099999983 0 0 0
Ga 0.00000000 4.19225500 -3.14409264 0 0 0
Ga 5.92857214 4.19225500 1.56810306
Ga 2.96633149 6.28880173 3.15329358
Ga 2.96253709 2.09570827 3.15329358
Ga 0.00017786 0.00000000 1.49659861
Ir 0.00000000 6.28838250 -1.0481185099999983 0 0 0
Ir 2.96437500 0.00000000 -3.14409264 0 0 0
Ir 0.00000000 2.09612750 -1.0481185099999983 0 0 0
Ir 2.96437500 4.19225500 -3.14409264 0 0 0
Ir 0.00171934 2.05596570 3.10150543
Ir 2.96449358 4.19225500 1.62252005
Ir 5.92691209 6.32854430 3.10150543
Ir 2.96419714 0.00000000 1.14433405
C 2.96455286 0.00000000 3.00266105
