&CONTROL
calculation = 'relax'
prefix = 'scf'
pseudo_dir = '/vol0004/mdt0/data/hp150275/u10028/POT_KKJUS'
outdir = './data'
tprnfor = .true.
nstep = 50
disk_io = 'non'
/
&SYSTEM
ibrav = 0
ecutwfc = 50.0
ecutrho = 400
occupations = 'smearing'
smearing = 'mp'
degauss = 0.01
assume_isolated = 'esm'
esm_bc = 'bc1'
input_dft = 'BEEF-VDW'
nosym = .true.
nspin = 1
ntyp = 4
nat = 18
/
&ELECTRONS
electron_maxstep = 200
mixing_beta = 0.1
conv_thr = 1e-06
/
&IONS
ion_dynamics = 'bfgs'
upscale = 1.0
/
&CELL
/

K_POINTS {automatic}
8 11 2 0  0  0

ATOMIC_SPECIES
C 12.01 C.pbe-n-rrkjus_psl.1.0.0.UPF
O 15.99 O.pbe-n-rrkjus_psl.1.0.0.UPF
Pd 106.4 Pd.pbe-n-rrkjus_psl.1.0.0.UPF
Sc 44.95 Sc.pbe-spn-rrkjus_psl.1.0.0.UPF

CELL_PARAMETERS {angstrom}
8.08515000 0.00000000 0.00000000
0.00000000 5.71706000 0.00000000
0.00000000 0.00000000 24.28780000

ATOMIC_POSITIONS {angstrom}
Sc 0.00000000 0.00000000 -2.143884110000002 0 0 0
Sc 8.02952417 2.81279352 0.69851713
Sc 4.04257500 0.00000000 -2.143884110000002 0 0 0
Sc 4.09981786 2.81919663 0.70677498
Pd 0.00000000 2.85853000 -2.143884110000002 0 0 0
Pd 2.02128750 4.28779500 -0.7145470799999991 0 0 0
Pd 2.02128750 1.42926500 -0.7145470799999991 0 0 0
Pd 0.01059155 5.68813168 0.64022641
Pd 2.02193431 1.46459643 2.14485562
Pd 2.02233857 4.23902848 2.15117045
Pd 4.04257500 2.85853000 -2.143884110000002 0 0 0
Pd 6.06386250 4.28779500 -0.7145470799999991 0 0 0
Pd 6.06386250 1.42926500 -0.7145470799999991 0 0 0
Pd 4.03230686 5.69293401 0.63755475
Pd 6.06273058 1.36414769 2.08365036
Pd 6.06459016 4.16847996 2.06567739
C 2.01829599 2.85595732 3.64729893
O 2.01352576 2.83200284 4.81529923
