&CONTROL
calculation = 'relax'
prefix = 'scf'
pseudo_dir = '/vol0403/data/hp230205/u10028/POT_HYBRID_KKJUS_GBRV'
outdir = './data'
tprnfor = .true.
nstep = 50
disk_io = 'non'
/
&SYSTEM
ibrav = 0
ecutwfc = 50.0
ecutrho = 400
occupations = 'smearing'
smearing = 'mp'
degauss = 0.01
assume_isolated = 'esm'
esm_bc = 'bc1'
input_dft = 'BEEF-VDW'
nosym = .true.
nspin = 1
ntyp = 5
nat = 17
/
&ELECTRONS
electron_maxstep = 200
mixing_beta = 0.1
conv_thr = 1e-06
/
&IONS
ion_dynamics = 'bfgs'
upscale = 1.0
/
&CELL
/

K_POINTS {automatic}
8 11 2 0  0  0

ATOMIC_SPECIES
C 12.01 C.pbe-n-rrkjus_psl.1.0.0.UPF
Ge 72.64 Ge.pbe-dn-rrkjus_psl.1.0.0.UPF
In 114.8 In.pbe-dn-rrkjus_psl.1.0.0.UPF
Li 6.941 Li.pbe-sl-rrkjus_psl.1.0.0.UPF
Y 88.90 Y.pbe-spn-rrkjus_psl.1.0.0.UPF


CELL_PARAMETERS {angstrom}
8.49364000 0.00000000 0.00000000
0.00000000 6.33235000 0.00000000
0.00000000 0.00000000 24.73290000

ATOMIC_POSITIONS {angstrom}
Li 0.00000000 3.16617500 -2.3664438700000012 0 0 0
Li 0.00000000 5.92771284 0.52359549
Li 4.24682000 3.16617500 -2.3664438700000012 0 0 0
Li 4.24682000 6.01117321 0.85081176
Y 2.12341000 1.45194453 -0.7887321800000002 0 0 0
Y 1.90087663 4.01527981 2.49381831
Y 6.37023000 1.45194453 -0.7887321800000002 0 0 0
Y 6.59276337 4.01527981 2.49381831
In 2.12341000 4.61811953 -0.7887321800000002 0 0 0
In 1.65634474 0.84809164 2.76291226
In 6.37023000 4.61811953 -0.7887321800000002 0 0 0
In 6.83721033 0.84815496 2.76266493
Ge 0.00000000 0.00000000 -2.3664438700000012 0 0 0
Ge 0.00000000 2.54288179 0.81915365
Ge 4.24682000 0.00000000 -2.3664438700000012 0 0 0
Ge 4.24682000 2.65458444 1.18891050
C 0.00000000 2.80187490 2.91205165
