&CONTROL
calculation = 'relax'
prefix = 'scf'
pseudo_dir = '/vol0004/mdt0/data/hp150275/u10028/POT_HYBRID_KKJUS_GBRV'
outdir = './data'
tprnfor = .true.
nstep = 50
disk_io = 'non'
/
&SYSTEM
ibrav = 0
ecutwfc = 50.0
ecutrho = 400
occupations = 'smearing'
smearing = 'mp'
degauss = 0.01
assume_isolated = 'esm'
esm_bc = 'bc1'
input_dft = 'BEEF-VDW'
nosym = .true.
nspin = 2
ntyp = 4
nat = 33
starting_magnetization(1) = 0.0
starting_magnetization(2) = 0.1
starting_magnetization(3) = 0.1
starting_magnetization(4) = 0.0
/
&ELECTRONS
electron_maxstep = 200
mixing_beta = 0.1
conv_thr = 1e-06
/
&IONS
ion_dynamics = 'bfgs'
upscale = 1.0
/
&CELL
/

K_POINTS {automatic}
9 6 2 0  0  0

ATOMIC_SPECIES
C 12.01 C.pbe-n-rrkjus_psl.1.0.0.UPF
Co 58.93 co_pbe_v1.2.uspp.F.UPF
Fe 55.84 fe_pbe_v1.5.uspp.F.UPF
Ge 72.64 Ge.pbe-dn-rrkjus_psl.1.0.0.UPF

CELL_PARAMETERS {angstrom}
5.77744000 0.00000000 0.00000000
0.00000000 8.17053000 0.00000000
0.00000000 0.00000000 26.12790000

ATOMIC_POSITIONS {angstrom}
Fe 1.44436000 0.00000000 25.10656039
Fe 4.33308000 4.08526500 25.10656039
Fe 4.33308000 0.00000000 25.10656039
Fe 1.44436000 4.08526500 25.10656039
Fe 4.33308000 6.12789750 23.06388117
Fe 1.44436000 2.04263250 23.06388117
Fe 1.44436000 6.12789750 23.06388117
Fe 4.33308000 2.04263250 23.06388117
Fe 1.41576167 4.08526500 3.11627463
Fe 4.15917906 0.00000000 3.10869754
Fe 4.36167833 4.08526500 3.11627463
Fe 1.61826094 0.00000000 3.10869754
Fe 4.39969388 2.04181545 1.07673076
Fe 1.37774612 6.12871455 1.07673076
Fe 1.37774612 2.04181545 1.07673076
Fe 4.39969388 6.12871455 1.07673076
Co 0.00000000 0.00000000 23.06388117
Co 2.88872000 2.04263250 25.10656039
Co 2.88872000 6.12789750 25.10656039
Co 0.00000000 4.08526500 23.06388117
Co 0.00000000 4.08534671 1.10625529
Co 2.88872000 6.02690975 2.90463864
Co 2.88872000 2.14362025 2.90463864
Co 0.00000000 0.00000000 1.14753737
Ge 0.00000000 6.12789750 25.10656039
Ge 2.88872000 0.00000000 23.06388117
Ge 0.00000000 2.04263250 25.10656039
Ge 2.88872000 4.08526500 23.06388117
Ge 0.00000000 2.00472124 3.38931119
Ge 2.88872000 4.08534671 1.01768170
Ge 0.00000000 6.16580876 3.38957247
Ge 2.88872000 8.17044829 0.95445219
C 0.00000000 0.00000000 4.05139217
