&CONTROL
calculation = 'relax'
prefix = 'scf'
pseudo_dir = '/vol0004/mdt0/data/hp150275/u10028/POT_HYBRID_KKJUS_GBRV'
outdir = './data'
tprnfor = .true.
nstep = 50
disk_io = 'non'
/
&SYSTEM
ibrav = 0
ecutwfc = 50.0
ecutrho = 400
occupations = 'smearing'
smearing = 'mp'
degauss = 0.01
assume_isolated = 'esm'
esm_bc = 'bc1'
input_dft = 'BEEF-VDW'
nosym = .true.
nspin = 2
ntyp = 4
nat = 34
starting_magnetization(1) = 0.1
starting_magnetization(2) = 0.1
starting_magnetization(3) = 0.1
starting_magnetization(4) = 0.1
/
&ELECTRONS
electron_maxstep = 200
mixing_beta = 0.1
conv_thr = 1e-06
/
&IONS
ion_dynamics = 'bfgs'
upscale = 1.0
/
&CELL
/

K_POINTS {automatic}
9 6 2 0  0  0

ATOMIC_SPECIES
C 12.01 C.pbe-n-rrkjus_psl.1.0.0.UPF
Mn 54.93 mn_pbe_v1.5.uspp.F.UPF
O 15.99 O.pbe-n-rrkjus_psl.1.0.0.UPF
Zn 65.40 Zn.pbe-dnl-rrkjus_psl.1.0.0.UPF

CELL_PARAMETERS {angstrom}
6.05499000 0.00000000 0.00000000
0.00000000 8.56306000 0.00000000
0.00000000 0.00000000 26.42230000

ATOMIC_POSITIONS {angstrom}
Mn 0.00000000 0.00000000 -3.2111021199999996 0 0 0
Mn 0.00000000 2.14076500 -1.0703673699999996 0 0 0
Mn 6.03373699 4.28170126 1.07221693
Mn 6.03839933 2.16457031 3.25126402
Mn 0.00000000 4.28153000 -3.2111021199999996 0 0 0
Mn 0.00000000 6.42229500 -1.0703673699999996 0 0 0
Mn 0.04032623 8.56288874 1.11132194
Mn 6.03845988 6.39831843 3.25152824
Mn 3.02749500 0.00000000 -3.2111021199999996 0 0 0
Mn 3.02749500 2.14076500 -1.0703673699999996 0 0 0
Mn 3.04759757 4.28170126 1.07089582
Mn 3.04305632 2.16448468 3.25152824
Mn 3.02749500 4.28153000 -3.2111021199999996 0 0 0
Mn 3.02749500 6.42229500 -1.0703673699999996 0 0 0
Mn 2.98577612 8.56297437 1.11052927
Mn 3.04293522 6.39840406 3.25179246
Zn 1.51374750 2.14076500 -3.2111021199999996 0 0 0
Zn 1.51374750 4.28153000 -1.0703673699999996 0 0 0
Zn 1.51429245 2.17090697 1.06878203
Zn 1.51532180 4.28178689 3.29274703
Zn 1.51374750 6.42229500 -3.2111021199999996 0 0 0
Zn 1.51374750 0.00000000 -1.0703673699999996 0 0 0
Zn 1.51435300 6.39223866 1.06878203
Zn 1.51550345 8.56263185 3.34162828
Zn 4.54124250 2.14076500 -3.2111021199999996 0 0 0
Zn 4.54124250 4.28153000 -1.0703673699999996 0 0 0
Zn 4.54015260 2.11430514 1.06429024
Zn 4.53906270 4.28187252 3.32418956
Zn 4.54124250 6.42229500 -3.2111021199999996 0 0 0
Zn 4.54124250 0.00000000 -1.0703673699999996 0 0 0
Zn 4.54015260 6.44875486 1.06429024
Zn 4.53930490 8.56246059 3.25179246
C 1.50224302 8.56297437 5.36055622
O 1.49933662 0.00008563 6.51071894
