&CONTROL
calculation = 'relax'
prefix = 'scf'
pseudo_dir = '/vol0004/mdt0/data/hp150275/u10028/POT_HYBRID_KKJUS_GBRV'
outdir = './data'
tprnfor = .true.
nstep = 70
disk_io = 'non'
/
&SYSTEM
ibrav = 0
ecutwfc = 50.0
ecutrho = 400
occupations = 'smearing'
smearing = 'mp'
degauss = 0.01
assume_isolated = 'esm'
esm_bc = 'bc1'
input_dft = 'BEEF-VDW'
nosym = .true.
nspin = 1
ntyp = 2
nat = 32
/
&ELECTRONS
electron_maxstep = 200
mixing_beta = 0.1
conv_thr = 1e-06
/
&IONS
ion_dynamics = 'bfgs'
upscale = 1.0
/
&CELL
/

K_POINTS {automatic}
7 8 2 0  0  0

ATOMIC_SPECIES
Ir 192.2 Ir.pbe-n-rrkjus_psl.0.2.3.UPF
V 50.94 V.pbe-spnl-rrkjus_psl.1.0.0.UPF

CELL_PARAMETERS {angstrom}
7.80652000 0.00000000 0.00000000
-0.00000000 7.39080000 0.00000000
0.00000000 0.00000000 25.85490000

ATOMIC_POSITIONS {angstrom}
V 1.95163000 1.84770000 -2.927550329999999 0 0 0
V 0.00000000 1.84770000 -0.9757639299999994 0 0 0
V 1.95163000 1.84770000 0.97576393
V 0.00000000 1.84770000 2.92755033
V 1.95163000 5.54310000 -2.927550329999999 0 0 0
V 0.00000000 5.54310000 -0.9757639299999994 0 0 0
V 1.95163000 5.54310000 0.97576393
V 0.00000000 5.54310000 2.92755033
V 5.85489000 1.84770000 -2.927550329999999 0 0 0
V 3.90326000 1.84770000 -0.9757639299999994 0 0 0
V 5.85489000 1.84770000 0.97576393
V 3.90326000 1.84770000 2.92755033
V 5.85489000 5.54310000 -2.927550329999999 0 0 0
V 3.90326000 5.54310000 -0.9757639299999994 0 0 0
V 5.85489000 5.54310000 0.97576393
V 3.90326000 5.54310000 2.92755033
Ir 0.00000000 0.00000000 -2.927550329999999 0 0 0
Ir 1.95163000 0.00000000 -0.9757639299999994 0 0 0
Ir 0.00000000 0.00000000 0.97576393
Ir 1.95163000 -0.00000000 2.92755033
Ir 0.00000000 3.69540000 -2.927550329999999 0 0 0
Ir 1.95163000 3.69540000 -0.9757639299999994 0 0 0
Ir 0.00000000 3.69540000 0.97576393
Ir 1.95163000 3.69540000 2.92755033
Ir 3.90326000 0.00000000 -2.927550329999999 0 0 0
Ir 5.85489000 0.00000000 -0.9757639299999994 0 0 0
Ir 3.90326000 -0.00000000 0.97576393
Ir 5.85489000 -0.00000000 2.92755033
Ir 3.90326000 3.69540000 -2.927550329999999 0 0 0
Ir 5.85489000 3.69540000 -0.9757639299999994 0 0 0
Ir 3.90326000 3.69540000 0.97576393
Ir 5.85489000 3.69540000 2.92755033
