&CONTROL
calculation = 'relax'
prefix = 'scf'
pseudo_dir = '/vol0403/data/hp230205/u10028/POT_HYBRID_KKJUS_GBRV'
outdir = './data'
tprnfor = .true.
nstep = 70
disk_io = 'non'
/
&SYSTEM
ibrav = 0
ecutwfc = 50.0
ecutrho = 400
occupations = 'smearing'
smearing = 'mp'
degauss = 0.01
assume_isolated = 'esm'
esm_bc = 'bc1'
input_dft = 'BEEF-VDW'
nosym = .true.
nspin = 1
ntyp = 6
nat = 34
/
&ELECTRONS
electron_maxstep = 200
mixing_beta = 0.1
conv_thr = 1e-06
/
&IONS
ion_dynamics = 'bfgs'
upscale = 1.0
/
&CELL
/

K_POINTS {automatic}
7 6 2 0  0  0

ATOMIC_SPECIES
C 12.01 C.pbe-n-rrkjus_psl.1.0.0.UPF
Ge 72.64 Ge.pbe-dn-rrkjus_psl.1.0.0.UPF
In 114.8 In.pbe-dn-rrkjus_psl.1.0.0.UPF
O 15.99 O.pbe-n-rrkjus_psl.1.0.0.UPF
Pd 106.4 Pd.pbe-n-rrkjus_psl.1.0.0.UPF
Y 88.90 Y.pbe-spn-rrkjus_psl.1.0.0.UPF


CELL_PARAMETERS {angstrom}
8.87204000 0.00000000 0.00000000
-0.00000000 9.45024000 0.00000000
0.00000000 0.00000000 25.95260000

ATOMIC_POSITIONS {angstrom}
Y 2.21801000 9.27588307 1.21717694
Y 2.21801000 0.00000000 -2.976244170000001 0 0 0
Y 2.21801000 4.89947693 1.21717694
Y 2.21801000 4.72512000 -2.976244170000001 0 0 0
Y 6.65403000 9.29865815 1.26051778
Y 6.65403000 0.00000000 -2.976244170000001 0 0 0
Y 6.65403000 4.87670185 1.26051778
Y 6.65403000 4.72512000 -2.976244170000001 0 0 0
In 8.83983449 2.36256000 0.90626479
In 0.00000000 2.36256000 -2.976244170000001 0 0 0
In 8.86130483 7.08768000 0.67217234
In 0.00000000 7.08768000 -2.976244170000001 0 0 0
In 4.46822551 2.36256000 0.90626479
In 4.43602000 2.36256000 -2.976244170000001 0 0 0
In 4.44675517 7.08768000 0.67217234
In 4.43602000 7.08768000 -2.976244170000001 0 0 0
Ge 0.00026616 8.43008659 3.20670326
Ge 0.00000000 0.00000000 -0.9921679000000019 0 0 0
Ge 0.00017744 5.74536791 3.20670326
Ge 0.00000000 4.72512000 -0.9921679000000019 0 0 0
Ge 4.43584256 8.43008659 3.20670326
Ge 4.43602000 0.00000000 -0.9921679000000019 0 0 0
Ge 4.43584256 5.74536791 3.20696278
Ge 4.43602000 4.72512000 -0.9921679000000019 0 0 0
Pd 2.21792128 2.36256000 2.50416637
Pd 2.21801000 2.36256000 -0.9921679000000019 0 0 0
Pd 2.21801000 7.08768000 3.40056918
Pd 2.21801000 7.08768000 -0.9921679000000019 0 0 0
Pd 6.65403000 2.36256000 2.57527650
Pd 6.65403000 2.36256000 -0.9921679000000019 0 0 0
Pd 6.65403000 7.08768000 3.40368349
Pd 6.65403000 7.08768000 -0.9921679000000019 0 0 0
C 2.21756640 2.36284351 4.49654748
O 2.21765512 2.36274900 5.64209524
