&CONTROL
calculation = 'relax'
prefix = 'scf'
pseudo_dir = '/vol0004/mdt0/data/hp150275/u10028/POT_KKJUS'
outdir = './data'
tprnfor = .true.
nstep = 50
disk_io = 'non'
/
&SYSTEM
ibrav = 0
ecutwfc = 50.0
ecutrho = 400
occupations = 'smearing'
smearing = 'mp'
degauss = 0.01
assume_isolated = 'esm'
esm_bc = 'bc1'
input_dft = 'BEEF-VDW'
nosym = .true.
nspin = 1
ntyp = 2
nat = 32
/
&ELECTRONS
electron_maxstep = 200
mixing_beta = 0.1
conv_thr = 1e-06
/
&IONS
ion_dynamics = 'bfgs'
upscale = 1.0
/
&CELL
/

K_POINTS {automatic}
9 6 2 0  0  0

ATOMIC_SPECIES
Ru 101.0 Ru.pbe-spn-rrkjus_psl.1.0.0.UPF
Zr 91.22 Zr.pbe-spn-rrkjus_psl.1.0.0.UPF

CELL_PARAMETERS {angstrom}
6.54723000 0.00000000 0.00000000
0.00000000 9.25918000 0.00000000
0.00000000 0.00000000 26.94440000

ATOMIC_POSITIONS {angstrom}
Zr 1.63680750 2.31479500 -3.4723248300000016 0 0 0
Zr 1.63680750 4.62959000 -1.1575314200000015 0 0 0
Zr 1.63680750 2.31479500 1.21061189
Zr 1.63680750 4.62959000 3.53537472
Zr 1.63680750 6.94438500 -3.4723248300000016 0 0 0
Zr 1.63680750 0.00000000 -1.1575314200000015 0 0 0
Zr 1.63680750 6.94438500 1.21061189
Zr 1.63680750 0.00000000 3.53537472
Zr 4.91042250 2.31479500 -3.4723248300000016 0 0 0
Zr 4.91042250 4.62959000 -1.1575314200000015 0 0 0
Zr 4.91042250 2.31479500 1.21061189
Zr 4.91042250 4.62959000 3.53537472
Zr 4.91042250 6.94438500 -3.4723248300000016 0 0 0
Zr 4.91042250 0.00000000 -1.1575314200000015 0 0 0
Zr 4.91042250 6.94438500 1.21061189
Zr 4.91042250 0.00000000 3.53537472
Ru 0.00000000 0.00000000 -3.4723248300000016 0 0 0
Ru 0.00000000 2.31479500 -1.1575314200000015 0 0 0
Ru 0.00000000 0.00000000 1.18959526
Ru 0.00000000 2.31479500 3.33302228
Ru 0.00000000 4.62959000 -3.4723248300000016 0 0 0
Ru 0.00000000 6.94438500 -1.1575314200000015 0 0 0
Ru 0.00000000 4.62959000 1.18959526
Ru 0.00000000 6.94438500 3.33302228
Ru 3.27361500 0.00000000 -3.4723248300000016 0 0 0
Ru 3.27361500 2.31479500 -1.1575314200000015 0 0 0
Ru 3.27361500 0.00000000 1.18959526
Ru 3.27361500 2.31479500 3.33275284
Ru 3.27361500 4.62959000 -3.4723248300000016 0 0 0
Ru 3.27361500 6.94438500 -1.1575314200000015 0 0 0
Ru 3.27361500 4.62959000 1.18959526
Ru 3.27361500 6.94438500 3.33302228
