&CONTROL
calculation = 'relax'
prefix = 'scf'
pseudo_dir = '/vol0004/mdt0/data/hp150275/u10028/POT_KKJUS'
outdir = './data'
tprnfor = .true.
nstep = 50
disk_io = 'non'
/
&SYSTEM
ibrav = 0
ecutwfc = 50.0
ecutrho = 400
occupations = 'smearing'
smearing = 'mp'
degauss = 0.01
assume_isolated = 'esm'
esm_bc = 'bc1'
input_dft = 'BEEF-VDW'
nosym = .true.
nspin = 1
ntyp = 3
nat = 32
/
&ELECTRONS
electron_maxstep = 200
mixing_beta = 0.1
conv_thr = 1e-06
/
&IONS
ion_dynamics = 'bfgs'
upscale = 1.0
/
&CELL
/

K_POINTS {automatic}
8 6 1 0 0 0

ATOMIC_SPECIES
Al 26.98 Al.pbe-nl-rrkjus_psl.1.0.0.UPF
Li 6.941 Li.pbe-sl-rrkjus_psl.1.0.0.UPF
Rh 102.9 Rh.pbe-spn-rrkjus_psl.1.0.0.UPF

CELL_PARAMETERS {angstrom}
6.03986000 0.00000000 0.00000000
0.00000000 8.54165000 0.00000000
0.00000000 0.00000000 26.40620000

ATOMIC_POSITIONS {angstrom}
Li 0.00000000 0.00000000 -3.2030720599999967 0 0 0
Li 3.01993000 2.13541250 -1.0676026699999994 0 0 0
Li 3.01993000 6.40623750 -1.0676026699999994 0 0 0
Li 0.00000000 4.27082500 -3.2030720599999967 0 0 0
Li 0.00000000 4.27082500 0.96277005
Li 3.01993000 6.40623750 3.55427452
Li 3.01993000 2.13541250 3.55427452
Li 0.00000000 0.00000000 0.96277005
Al 1.50996500 0.00000000 -1.0676026699999994 0 0 0
Al 4.52989500 4.27082500 -1.0676026699999994 0 0 0
Al 4.52989500 0.00000000 -1.0676026699999994 0 0 0
Al 1.50996500 4.27082500 -1.0676026699999994 0 0 0
Al 4.52989500 6.40623750 -3.2030720599999967 0 0 0
Al 1.50996500 2.13541250 -3.2030720599999967 0 0 0
Al 1.50996500 6.40623750 -3.2030720599999967 0 0 0
Al 4.52989500 2.13541250 -3.2030720599999967 0 0 0
Al 1.40167031 4.27082500 3.12517377
Al 4.63818969 0.00000000 3.12517377
Al 4.63818969 4.27082500 3.12490971
Al 1.40167031 0.00000000 3.12517377
Al 4.51117143 2.13541250 1.09268856
Al 1.52868857 6.40623750 1.09268856
Al 1.52868857 2.13541250 1.09268856
Al 4.51117143 6.40623750 1.09268856
Rh 0.00000000 6.40623750 -1.0676026699999994 0 0 0
Rh 3.01993000 0.00000000 -3.2030720599999967 0 0 0
Rh 0.00000000 2.13541250 -1.0676026699999994 0 0 0
Rh 3.01993000 4.27082500 -3.2030720599999967 0 0 0
Rh 0.00000000 2.13541250 3.07526605
Rh 3.01993000 4.27082500 1.04938239
Rh 0.00000000 6.40623750 3.07526605
Rh 3.01993000 0.00000000 1.04938239
