&CONTROL
calculation = 'relax'
prefix = 'scf'
pseudo_dir = '/vol0403/data/hp230205/u10028/POT_HYBRID_KKJUS_GBRV'
outdir = './data'
tprnfor = .true.
nstep = 70
disk_io = 'non'
/
&SYSTEM
ibrav = 0
ecutwfc = 50.0
ecutrho = 400
occupations = 'smearing'
smearing = 'mp'
degauss = 0.01
assume_isolated = 'esm'
esm_bc = 'bc1'
input_dft = 'BEEF-VDW'
nosym = .true.
nspin = 1
ntyp = 4
nat = 32
/
&ELECTRONS
electron_maxstep = 200
mixing_beta = 0.1
conv_thr = 1e-06
/
&IONS
ion_dynamics = 'bfgs'
upscale = 1.0
/
&CELL
/

K_POINTS {automatic}
9 6 2 0  0  0

ATOMIC_SPECIES
Ag 107.8 Ag.pbe-n-rrkjus_psl.1.0.0.UPF
Cu 63.54 Cu.pbe-dn-rrkjus_psl.1.0.0.UPF
Ge 72.64 Ge.pbe-dn-rrkjus_psl.1.0.0.UPF
Li 6.941 Li.pbe-sl-rrkjus_psl.1.0.0.UPF


CELL_PARAMETERS {angstrom}
6.23049000 0.00000000 0.00000000
-0.00000000 8.81124000 0.00000000
0.00000000 0.00000000 26.60840000

ATOMIC_POSITIONS {angstrom}
Li 1.55762250 0.00000000 -1.101321679999998 0 0 0
Li 1.55762250 4.40562000 -1.101321679999998 0 0 0
Li 4.67286750 2.20281000 -3.30423111 0 0 0
Li 4.67286750 6.60843000 -3.30423111 0 0 0
Li 1.46273214 4.40562000 3.53253118
Li 1.46273214 -0.00000000 3.53253118
Li 4.62321049 6.60843000 1.03825977
Li 4.62321049 2.20281000 1.03825977
Cu 0.00000000 2.20281000 -1.101321679999998 0 0 0
Cu 0.00000000 6.60843000 -1.101321679999998 0 0 0
Cu 3.11524500 4.40562000 -3.30423111 0 0 0
Cu 3.11524500 0.00000000 -3.30423111 0 0 0
Cu 6.10818548 6.60843000 3.10573245
Cu 6.10818548 2.20281000 3.10573245
Cu 3.15293946 -0.00000000 1.37086477
Cu 3.15293946 4.40562000 1.37086477
Ag 0.00000000 0.00000000 -3.30423111 0 0 0
Ag 0.00000000 4.40562000 -3.30423111 0 0 0
Ag 3.11524500 6.60843000 -1.101321679999998 0 0 0
Ag 3.11524500 2.20281000 -1.101321679999998 0 0 0
Ag 6.19753071 4.40562000 1.16358533
Ag 6.19753071 -0.00000000 1.16358533
Ag 3.24072707 2.20281000 3.41199513
Ag 3.24072707 6.60843000 3.41199513
Ge 4.67286750 0.00000000 -1.101321679999998 0 0 0
Ge 4.67286750 4.40562000 -1.101321679999998 0 0 0
Ge 1.55762250 2.20281000 -3.30423111 0 0 0
Ge 1.55762250 6.60843000 -3.30423111 0 0 0
Ge 4.79978258 4.40562000 3.51151055
Ge 4.79978258 -0.00000000 3.51151055
Ge 1.61924205 6.60843000 1.23915319
Ge 1.61924205 2.20281000 1.23915319
