&CONTROL
calculation = 'relax'
prefix = 'scf'
pseudo_dir = '/vol0403/data/hp230205/u10028/POT_HYBRID_KKJUS_GBRV'
outdir = './data'
tprnfor = .true.
nstep = 50
disk_io = 'non'
/
&SYSTEM
ibrav = 0
ecutwfc = 50.0
ecutrho = 400
occupations = 'smearing'
smearing = 'mp'
degauss = 0.01
assume_isolated = 'esm'
esm_bc = 'bc1'
input_dft = 'BEEF-VDW'
nosym = .true.
nspin = 1
ntyp = 6
nat = 34
/
&ELECTRONS
electron_maxstep = 200
mixing_beta = 0.1
conv_thr = 1e-06
/
&IONS
ion_dynamics = 'bfgs'
upscale = 1.0
/
&CELL
/

K_POINTS {automatic}
7 7 2 0  0  0

ATOMIC_SPECIES
C 12.01 C.pbe-n-rrkjus_psl.1.0.0.UPF
Ga 69.72 Ga.pbe-dnl-rrkjus_psl.1.0.0.UPF
Ge 72.64 Ge.pbe-dn-rrkjus_psl.1.0.0.UPF
O 15.99 O.pbe-n-rrkjus_psl.1.0.0.UPF
Pd 106.4 Pd.pbe-n-rrkjus_psl.1.0.0.UPF
Sc 44.95 Sc.pbe-spn-rrkjus_psl.1.0.0.UPF


CELL_PARAMETERS {angstrom}
8.58414000 0.00000000 0.00000000
0.00000000 7.83718000 0.00000000
0.00000000 0.00000000 26.06500000

ATOMIC_POSITIONS {angstrom}
Sc 2.14680757 0.00007837 0.99073065
Sc 2.14603500 0.00000000 -3.0324021000000023 0 0 0
Sc 2.18500700 3.91859000 0.99464040
Sc 2.14603500 3.91859000 -3.0324021000000023 0 0 0
Sc 6.43724659 0.00000000 0.99073065
Sc 6.43810500 0.00000000 -3.0324021000000023 0 0 0
Sc 6.39904716 3.91859000 0.99464040
Sc 6.43810500 3.91859000 -3.0324021000000023 0 0 0
Ga 0.00000000 7.83702326 2.86532545
Ga 0.00000000 0.00000000 -1.0108007000000008 0 0 0
Ga 0.00000000 3.91866837 3.15985995
Ga 0.00000000 3.91859000 -1.0108007000000008 0 0 0
Ga 4.29207000 0.00015674 3.11085775
Ga 4.29207000 0.00000000 -1.0108007000000008 0 0 0
Ga 4.29207000 3.91859000 3.14109315
Ga 4.29207000 3.91859000 -1.0108007000000008 0 0 0
Ge 2.37875104 1.96595660 3.14917330
Ge 2.14603500 1.95929500 -1.0108007000000008 0 0 0
Ge 2.37892272 5.87145851 3.14917330
Ge 2.14603500 5.87788500 -1.0108007000000008 0 0 0
Ge 6.20513144 1.96587823 3.14917330
Ge 6.43810500 1.95929500 -1.0108007000000008 0 0 0
Ge 6.20521728 5.87138014 3.14917330
Ge 6.43810500 5.87788500 -1.0108007000000008 0 0 0
Pd 0.00000000 2.03868563 1.14112570
Pd 0.00000000 1.95929500 -3.0324021000000023 0 0 0
Pd 0.00000000 5.79841599 1.14086505
Pd 0.00000000 5.87788500 -3.0324021000000023 0 0 0
Pd 4.29207000 1.94236669 1.01783825
Pd 4.29207000 1.95929500 -3.0324021000000023 0 0 0
Pd 4.29207000 5.89489168 1.01783825
Pd 4.29207000 5.87788500 -3.0324021000000023 0 0 0
C 0.00017168 0.00007837 4.97189875
O 0.00008584 7.83702326 6.11667355
