&CONTROL
calculation = 'relax'
prefix = 'scf'
pseudo_dir = '/vol0004/mdt0/data/hp150275/u10028/POT_HYBRID_KKJUS_GBRV'
outdir = './data'
tprnfor = .true.
nstep = 70
disk_io = 'non'
/
&SYSTEM
ibrav = 0
ecutwfc = 50.0
ecutrho = 400
occupations = 'smearing'
smearing = 'mp'
degauss = 0.01
assume_isolated = 'esm'
esm_bc = 'bc1'
input_dft = 'BEEF-VDW'
nosym = .true.
nspin = 1
ntyp = 4
nat = 18
/
&ELECTRONS
electron_maxstep = 200
mixing_beta = 0.1
conv_thr = 1e-06
/
&IONS
ion_dynamics = 'bfgs'
upscale = 1.0
/
&CELL
/

K_POINTS {automatic}
9 9 2 0  0  0

ATOMIC_SPECIES
Bi 208.9 Bi.pbe-dn-rrkjus_psl.1.0.0.UPF
C 12.01 C.pbe-n-rrkjus_psl.1.0.0.UPF
Na 22.98 Na.pbe-spnl-rrkjus_psl.1.0.0.UPF
O 15.99 O.pbe-n-rrkjus_psl.1.0.0.UPF

CELL_PARAMETERS {angstrom}
6.99788000 0.00000000 0.00000000
0.00000000 6.99788000 0.00000000
0.00000000 0.00000000 27.33890000

ATOMIC_POSITIONS {angstrom}
Na 0.00000000 0.00000000 -2.688780819999998 0 0 0
Na 6.96345043 6.96359039 2.20160162
Na 0.00000000 3.49894000 -2.688780819999998 0 0 0
Na 0.02554226 3.53078035 2.20706940
Na 3.49894000 0.00000000 -2.688780819999998 0 0 0
Na 3.53141016 0.02456256 2.20624923
Na 3.49894000 3.49894000 -2.688780819999998 0 0 0
Na 3.47024869 3.46989880 2.21144362
Bi 1.74947000 1.74947000 -0.2424960399999989 0 0 0
Bi 1.56941455 1.56822491 4.67577207
Bi 1.74947000 5.24841000 -0.2424960399999989 0 0 0
Bi 1.92252757 5.42762571 4.69326896
Bi 5.24841000 1.74947000 -0.2424960399999989 0 0 0
Bi 5.42818554 1.92196774 4.69326896
Bi 5.24841000 5.24841000 -0.2424960399999989 0 0 0
Bi 5.07668202 5.07598224 4.68014629
C 1.76325582 1.77669175 9.00269977
O 1.74205225 1.73820341 10.13671734
