&CONTROL
calculation = 'relax'
prefix = 'scf'
pseudo_dir = '/vol0004/mdt0/data/hp150275/u10028/POT_HYBRID_KKJUS_GBRV'
outdir = './data'
tprnfor = .true.
nstep = 50
disk_io = 'non'
/
&SYSTEM
ibrav = 0
ecutwfc = 50.0
ecutrho = 400
occupations = 'smearing'
smearing = 'mp'
degauss = 0.01
assume_isolated = 'esm'
esm_bc = 'bc1'
input_dft = 'BEEF-VDW'
nosym = .true.
nspin = 2
ntyp = 3
nat = 17
starting_magnetization(1) = 0.0
starting_magnetization(2) = 0.0
starting_magnetization(3) = 0.1
/
&ELECTRONS
electron_maxstep = 200
mixing_beta = 0.1
conv_thr = 1e-06
/
&IONS
ion_dynamics = 'bfgs'
upscale = 1.0
/
&CELL
/

K_POINTS {automatic}
8 11 2 0  0  0

ATOMIC_SPECIES
C 12.01 C.pbe-n-rrkjus_psl.1.0.0.UPF
Ge 72.64 Ge.pbe-dn-rrkjus_psl.1.0.0.UPF
Mn 54.93 mn_pbe_v1.5.uspp.F.UPF

CELL_PARAMETERS {angstrom}
7.42262000 0.00000000 0.00000000
-0.00000000 5.24858000 0.00000000
0.00000000 0.00000000 23.93640000

ATOMIC_POSITIONS {angstrom}
Mn 0.00000000 2.62429000 1.96829017
Mn 1.85565500 3.93643500 0.65609672
Mn 1.85565500 1.31214500 0.65609672
Mn 0.00000000 0.00000000 23.28030328
Mn 1.85565500 1.31214500 21.96810983
Mn 1.85565500 3.93643500 21.96810983
Mn 3.71131000 2.62429000 1.96829017
Mn 5.56696500 3.93643500 0.65609672
Mn 5.56696500 1.31214500 0.65609672
Mn 3.71131000 0.00000000 23.28030328
Mn 5.56696500 1.31214500 21.96810983
Mn 5.56696500 3.93643500 21.96810983
Ge 0.00000000 0.00000000 1.96829017
Ge 0.00000000 2.62429000 23.28030328
Ge 3.71131000 -0.00000000 1.96829017
Ge 3.71131000 2.62429000 23.28030328
C 1.85565500 1.31214500 2.76824466
