&CONTROL
calculation = 'relax'
prefix = 'scf'
pseudo_dir = '/vol0403/data/hp230205/u10028/POT_HYBRID_KKJUS_GBRV'
outdir = './data'
tprnfor = .true.
nstep = 50
disk_io = 'non'
/
&SYSTEM
ibrav = 0
ecutwfc = 50.0
ecutrho = 400
occupations = 'smearing'
smearing = 'mp'
degauss = 0.01
assume_isolated = 'esm'
esm_bc = 'bc1'
input_dft = 'BEEF-VDW'
nosym = .true.
nspin = 1
ntyp = 5
nat = 33
/
&ELECTRONS
electron_maxstep = 200
mixing_beta = 0.1
conv_thr = 1e-06
/
&IONS
ion_dynamics = 'bfgs'
upscale = 1.0
/
&CELL
/

K_POINTS {automatic}
6 6 1 0 0 0

ATOMIC_SPECIES
C 12.01 C.pbe-n-rrkjus_psl.1.0.0.UPF
Ge 72.64 Ge.pbe-dn-rrkjus_psl.1.0.0.UPF
In 114.8 In.pbe-dn-rrkjus_psl.1.0.0.UPF
Li 6.941 Li.pbe-sl-rrkjus_psl.1.0.0.UPF
Mg 24.30 Mg.pbe-spnl-rrkjus_psl.1.0.0.UPF


CELL_PARAMETERS {angstrom}
8.75068000 0.00000000 0.00000000
0.00000000 8.41850000 0.00000000
0.00000000 0.00000000 26.30740000

ATOMIC_POSITIONS {angstrom}
Li 2.18767000 0.00000000 -1.0512437000000006 0 0 0
Li 2.18767000 0.02971731 3.24685931
Li 2.18767000 4.20925000 -1.0512437000000006 0 0 0
Li 2.18767000 4.17953269 3.24659623
Li 6.56301000 0.00000000 -1.0512437000000006 0 0 0
Li 6.56301000 8.39568587 3.07165202
Li 6.56301000 4.20925000 -1.0512437000000006 0 0 0
Li 6.56301000 4.23206414 3.07165202
Mg 0.00000000 2.10462500 -1.0512437000000006 0 0 0
Mg 0.07866861 2.10462500 3.32315077
Mg 0.00000000 6.31387500 -1.0512437000000006 0 0 0
Mg 8.67516163 6.31387500 3.24685931
Mg 4.37534000 2.10462500 -1.0512437000000006 0 0 0
Mg 4.29667139 2.10462500 3.32315077
Mg 4.37534000 6.31387500 -1.0512437000000006 0 0 0
Mg 4.45085837 6.31387500 3.24685931
In 2.18767000 2.10462500 -3.1537311100000025 0 0 0
In 2.18767000 2.10462500 1.06781737
In 2.18767000 6.31387500 -3.1537311100000025 0 0 0
In 2.18767000 6.31387500 1.13779505
In 6.56301000 2.10462500 -3.1537311100000025 0 0 0
In 6.56301000 2.10462500 1.10859384
In 6.56301000 6.31387500 -3.1537311100000025 0 0 0
In 6.56301000 6.31387500 0.97021691
Ge 0.00000000 0.00000000 -3.1537311100000025 0 0 0
Ge 8.68399982 8.37699680 1.17015315
Ge 0.00000000 4.20925000 -3.1537311100000025 0 0 0
Ge 8.68399982 4.25075321 1.17015315
Ge 4.37534000 0.00000000 -3.1537311100000025 0 0 0
Ge 4.44202018 8.37691261 1.17015315
Ge 4.37534000 4.20925000 -3.1537311100000025 0 0 0
Ge 4.44202018 4.25075321 1.17015315
C 2.18767000 2.10462500 3.35471965
