&CONTROL
calculation = 'relax'
prefix = 'scf'
pseudo_dir = '/vol0004/mdt0/data/hp150275/u10028/POT_KKJUS'
outdir = './data'
tprnfor = .true.
nstep = 50
disk_io = 'non'
/
&SYSTEM
ibrav = 0
ecutwfc = 50.0
ecutrho = 400
occupations = 'smearing'
smearing = 'mp'
degauss = 0.01
assume_isolated = 'esm'
esm_bc = 'bc1'
input_dft = 'BEEF-VDW'
nosym = .true.
nspin = 1
ntyp = 3
nat = 17
/
&ELECTRONS
electron_maxstep = 200
mixing_beta = 0.1
conv_thr = 1e-06
/
&IONS
ion_dynamics = 'bfgs'
upscale = 1.0
/
&CELL
/

K_POINTS {automatic}
6 8 1 0 0 0

ATOMIC_SPECIES
C 12.01 C.pbe-n-rrkjus_psl.1.0.0.UPF
Ni 58.69 Ni.pbe-spn-rrkjus_psl.1.0.0.UPF
Pt 195.0 Pt.pbe-n-rrkjus_psl.1.0.0.UPF

CELL_PARAMETERS {angstrom}
7.35611000 0.00000000 0.00000000
0.00000000 5.20155000 0.00000000
0.00000000 0.00000000 23.90120000

ATOMIC_POSITIONS {angstrom}
Ni 0.00000000 2.60077500 -1.9505769300000004 0 0 0
Ni 1.83902750 3.90116250 -0.6501126399999997 0 0 0
Ni 1.83902750 1.30038750 -0.6501126399999997 0 0 0
Ni 0.00014712 0.00015605 0.56191721
Ni 1.48085850 1.33497781 2.08514069
Ni 1.48049070 3.86667622 2.08537970
Ni 3.67805500 2.60077500 -1.9505769300000004 0 0 0
Ni 5.51708250 3.90116250 -0.6501126399999997 0 0 0
Ni 5.51708250 1.30038750 -0.6501126399999997 0 0 0
Ni 3.67790788 0.00000000 0.83534694
Ni 5.87628135 1.33471773 2.08585772
Ni 5.87628135 3.86672824 2.08561871
Pt 0.00000000 0.00000000 -1.9505769300000004 0 0 0
Pt 0.00007356 2.60077500 0.45077663
Pt 3.67805500 0.00000000 -1.9505769300000004 0 0 0
Pt 3.67812856 2.60077500 0.86283332
C 0.00058849 2.60087903 2.46875495
