&CONTROL
calculation = 'relax'
prefix = 'scf'
pseudo_dir = '/vol0004/mdt0/data/hp150275/u10028/POT_KKJUS'
outdir = './data'
tprnfor = .true.
nstep = 50
disk_io = 'non'
/
&SYSTEM
ibrav = 0
ecutwfc = 50.0
ecutrho = 400
occupations = 'smearing'
smearing = 'mp'
degauss = 0.01
assume_isolated = 'esm'
esm_bc = 'bc1'
input_dft = 'BEEF-VDW'
nosym = .true.
nspin = 1
ntyp = 4
nat = 34
/
&ELECTRONS
electron_maxstep = 200
mixing_beta = 0.1
conv_thr = 1e-06
/
&IONS
ion_dynamics = 'bfgs'
upscale = 1.0
/
&CELL
/

K_POINTS {automatic}
8 6 1 0 0 0

ATOMIC_SPECIES
C 12.01 C.pbe-n-rrkjus_psl.1.0.0.UPF
O 15.99 O.pbe-n-rrkjus_psl.1.0.0.UPF
Rh 102.9 Rh.pbe-spn-rrkjus_psl.1.0.0.UPF
Zn 65.40 Zn.pbe-dnl-rrkjus_psl.1.0.0.UPF

CELL_PARAMETERS {angstrom}
6.06651000 0.00000000 0.00000000
0.00000000 8.57934000 0.00000000
0.00000000 0.00000000 26.43450000

ATOMIC_POSITIONS {angstrom}
Zn 1.51662750 2.14483500 -3.217342989999999 0 0 0
Zn 1.51662750 0.00000000 -1.0724476599999981 0 0 0
Zn 1.49976260 2.14474921 1.07033290
Zn 1.52275468 8.57642302 3.27417717
Zn 1.51662750 6.43450500 -3.217342989999999 0 0 0
Zn 1.51662750 4.28967000 -1.0724476599999981 0 0 0
Zn 1.52609126 6.43459079 1.04284102
Zn 1.52275468 4.29267277 3.27417717
Zn 4.54988250 2.14483500 -3.217342989999999 0 0 0
Zn 4.54988250 0.00000000 -1.0724476599999981 0 0 0
Zn 4.56674740 2.14474921 1.07033290
Zn 4.54375532 8.57642302 3.27417717
Zn 4.54988250 6.43450500 -3.217342989999999 0 0 0
Zn 4.54988250 4.28967000 -1.0724476599999981 0 0 0
Zn 4.54041874 6.43459079 1.04284102
Zn 4.54375532 4.29267277 3.27417717
Rh 0.00000000 0.00000000 -3.217342989999999 0 0 0
Rh 0.00000000 2.14483500 -1.0724476599999981 0 0 0
Rh 0.00000000 0.00223063 1.07482677
Rh 0.00000000 2.14483500 3.34713639
Rh 0.00000000 4.28967000 -3.217342989999999 0 0 0
Rh 0.00000000 6.43450500 -1.0724476599999981 0 0 0
Rh 0.00000000 4.28743937 1.07482677
Rh 0.00000000 6.43450500 3.11398410
Rh 3.03325500 0.00000000 -3.217342989999999 0 0 0
Rh 3.03325500 2.14483500 -1.0724476599999981 0 0 0
Rh 3.03325500 0.01286901 1.07403373
Rh 3.03325500 2.14483500 3.14411943
Rh 3.03325500 4.28967000 -3.217342989999999 0 0 0
Rh 3.03325500 6.43450500 -1.0724476599999981 0 0 0
Rh 3.03325500 4.27671520 1.07376939
Rh 3.03325500 6.43450500 3.12984480
C 0.00000000 2.14483500 5.20072353
O 0.00000000 2.14483500 6.35881898
