&CONTROL
calculation = 'relax'
prefix = 'scf'
pseudo_dir = '/vol0403/data/hp230205/u10028/POT_HYBRID_KKJUS_GBRV'
outdir = './data'
tprnfor = .true.
nstep = 50
disk_io = 'non'
/
&SYSTEM
ibrav = 0
ecutwfc = 50.0
ecutrho = 400
occupations = 'smearing'
smearing = 'mp'
degauss = 0.01
assume_isolated = 'esm'
esm_bc = 'bc1'
input_dft = 'BEEF-VDW'
nosym = .true.
nspin = 1
ntyp = 5
nat = 33
/
&ELECTRONS
electron_maxstep = 200
mixing_beta = 0.1
conv_thr = 1e-06
/
&IONS
ion_dynamics = 'bfgs'
upscale = 1.0
/
&CELL
/

K_POINTS {automatic}
7 7 2 0  0  0

ATOMIC_SPECIES
Ag 107.8 Ag.pbe-n-rrkjus_psl.1.0.0.UPF
Al 26.98 Al.pbe-nl-rrkjus_psl.1.0.0.UPF
C 12.01 C.pbe-n-rrkjus_psl.1.0.0.UPF
Li 6.941 Li.pbe-sl-rrkjus_psl.1.0.0.UPF
Sn 118.7 Sn.pbe-dn-rrkjus_psl.1.0.0.UPF


CELL_PARAMETERS {angstrom}
8.56020000 0.00000000 0.00000000
0.00000000 8.66686000 0.00000000
0.00000000 0.00000000 26.12070000

ATOMIC_POSITIONS {angstrom}
Li 2.14005000 0.00000000 -1.0200133399999984 0 0 0
Li 2.18755911 0.00000000 3.23661594
Li 2.14005000 4.33343000 -1.0200133399999984 0 0 0
Li 1.78308966 4.33334333 3.19038230
Li 6.42015000 0.00000000 -1.0200133399999984 0 0 0
Li 6.37264089 0.00000000 3.23687714
Li 6.42015000 4.33343000 -1.0200133399999984 0 0 0
Li 6.77711034 4.33351667 3.19038230
Al 0.00000000 2.16671500 -1.0200133399999984 0 0 0
Al 0.00000000 1.93366313 3.24601939
Al 0.00000000 6.50014500 -1.0200133399999984 0 0 0
Al 0.00000000 6.73319687 3.24601939
Al 4.28010000 2.16671500 -1.0200133399999984 0 0 0
Al 4.28018560 2.81066270 3.11306503
Al 4.28010000 6.50014500 -1.0200133399999984 0 0 0
Al 4.28010000 5.85619730 3.11306503
Ag 0.00000000 0.00000000 -3.0603012099999987 0 0 0
Ag 0.00000000 0.00000000 0.90873915
Ag 0.00000000 4.33343000 -3.0603012099999987 0 0 0
Ag 0.00008560 4.33334333 0.86877448
Ag 4.28010000 0.00000000 -3.0603012099999987 0 0 0
Ag 4.28018560 0.00008667 1.09524095
Ag 4.28010000 4.33343000 -3.0603012099999987 0 0 0
Ag 4.28001440 4.33334333 0.70055717
Sn 2.14005000 2.16671500 -3.0603012099999987 0 0 0
Sn 2.20194025 2.18552209 1.10490561
Sn 2.14005000 6.50014500 -3.0603012099999987 0 0 0
Sn 2.20194025 6.48125125 1.10490561
Sn 6.42015000 2.16671500 -3.0603012099999987 0 0 0
Sn 6.35817415 2.18560875 1.10490561
Sn 6.42015000 6.50014500 -3.0603012099999987 0 0 0
Sn 6.35817415 6.48133791 1.10490561
C 0.00017120 0.00000000 3.31419442
