&CONTROL
calculation = 'relax'
prefix = 'scf'
pseudo_dir = '/vol0004/mdt0/data/hp150275/u10028/POT_KKJUS'
outdir = './data'
tprnfor = .true.
nstep = 50
disk_io = 'non'
/
&SYSTEM
ibrav = 0
ecutwfc = 50.0
ecutrho = 400
occupations = 'smearing'
smearing = 'mp'
degauss = 0.01
assume_isolated = 'esm'
esm_bc = 'bc1'
input_dft = 'BEEF-VDW'
nosym = .true.
nspin = 1
ntyp = 4
nat = 33
/
&ELECTRONS
electron_maxstep = 200
mixing_beta = 0.1
conv_thr = 1e-06
/
&IONS
ion_dynamics = 'bfgs'
upscale = 1.0
/
&CELL
/

K_POINTS {automatic}
9 6 2 0  0  0

ATOMIC_SPECIES
C 12.01 C.pbe-n-rrkjus_psl.1.0.0.UPF
Mg 24.30 Mg.pbe-spnl-rrkjus_psl.1.0.0.UPF
Ni 58.69 Ni.pbe-spn-rrkjus_psl.1.0.0.UPF
Sb 121.7 Sb.pbe-n-rrkjus_psl.1.0.0.UPF

CELL_PARAMETERS {angstrom}
6.22749000 0.00000000 0.00000000
0.00000000 8.80700000 0.00000000
0.00000000 0.00000000 26.60530000

ATOMIC_POSITIONS {angstrom}
Mg 0.00000000 0.00000000 -3.3025158899999987 0 0 0
Mg 3.11374500 2.20175000 -1.1009273099999994 0 0 0
Mg 3.11374500 6.60525000 -1.1009273099999994 0 0 0
Mg 0.00000000 4.40350000 -3.3025158899999987 0 0 0
Mg 0.03885954 4.44665430 1.10252363
Mg 3.04175522 6.60533807 3.54355991
Mg 3.34428668 2.20175000 3.31741486
Mg 0.03892181 8.76384570 1.10252363
Ni 1.55687250 0.00000000 -1.1009273099999994 0 0 0
Ni 4.67061750 4.40350000 -1.1009273099999994 0 0 0
Ni 4.67061750 0.00000000 -1.1009273099999994 0 0 0
Ni 1.55687250 4.40350000 -1.1009273099999994 0 0 0
Ni 4.67061750 6.60525000 -3.3025158899999987 0 0 0
Ni 1.55687250 2.20175000 -3.3025158899999987 0 0 0
Ni 1.55687250 6.60525000 -3.3025158899999987 0 0 0
Ni 4.67061750 2.20175000 -3.3025158899999987 0 0 0
Ni 1.56596464 4.02453479 3.34747885
Ni 4.71364946 8.67084378 3.09765508
Ni 4.71340036 4.53974429 3.09792113
Ni 1.56602691 0.37914135 3.34694674
Ni 4.70904111 2.20166193 0.96391002
Ni 1.60395232 6.60525000 1.15200949
Ni 1.52093988 2.20175000 1.20841273
Ni 4.61450782 6.60533807 1.32760447
Sb 0.00000000 6.60525000 -1.1009273099999994 0 0 0
Sb 3.11374500 0.00000000 -3.3025158899999987 0 0 0
Sb 0.00000000 2.20175000 -1.1009273099999994 0 0 0
Sb 3.11374500 4.40350000 -3.3025158899999987 0 0 0
Sb 5.85701662 2.20183807 3.35998334
Sb 3.09219788 4.39451686 1.10997312
Sb 0.08643756 6.60525000 3.46427611
Sb 3.09219788 0.00898314 1.10997312
C 1.53165117 2.20166193 4.11291333
