&CONTROL
calculation = 'relax'
prefix = 'scf'
pseudo_dir = '/vol0004/mdt0/data/hp150275/u10028/POT_KKJUS'
outdir = './data'
tprnfor = .true.
nstep = 50
disk_io = 'non'
/
&SYSTEM
ibrav = 0
ecutwfc = 50.0
ecutrho = 400
occupations = 'smearing'
smearing = 'mp'
degauss = 0.01
assume_isolated = 'esm'
esm_bc = 'bc1'
input_dft = 'BEEF-VDW'
nosym = .true.
nspin = 1
ntyp = 3
nat = 33
/
&ELECTRONS
electron_maxstep = 200
mixing_beta = 0.1
conv_thr = 1e-06
/
&IONS
ion_dynamics = 'bfgs'
upscale = 1.0
/
&CELL
/

K_POINTS {automatic}
8 6 1 0 0 0

ATOMIC_SPECIES
Al 26.98 Al.pbe-nl-rrkjus_psl.1.0.0.UPF
C 12.01 C.pbe-n-rrkjus_psl.1.0.0.UPF
Os 190.2 Os.pbe-spn-rrkjus_psl.1.0.0.UPF

CELL_PARAMETERS {angstrom}
6.03636000 0.00000000 0.00000000
0.00000000 8.53670000 0.00000000
0.00000000 0.00000000 26.40250000

ATOMIC_POSITIONS {angstrom}
Al 0.00000000 0.00000000 -3.2013031199999986 0 0 0
Al 0.00000000 2.13417500 -1.0671890499999996 0 0 0
Al 0.02402471 8.53413899 1.07669395
Al 5.76460307 2.13417500 3.13318467
Al 0.00000000 4.26835000 -3.2013031199999986 0 0 0
Al 0.00000000 6.40252500 -1.0671890499999996 0 0 0
Al 0.02402471 4.27091101 1.07669395
Al 0.09151122 6.40252500 3.22295317
Al 3.01818000 0.00000000 -3.2013031199999986 0 0 0
Al 3.01818000 2.13417500 -1.0671890499999996 0 0 0
Al 2.99409492 8.53413899 1.07669395
Al 3.28915220 2.13417500 3.13344870
Al 3.01818000 4.26835000 -3.2013031199999986 0 0 0
Al 3.01818000 6.40252500 -1.0671890499999996 0 0 0
Al 2.99409492 4.27091101 1.07669395
Al 2.92654806 6.40252500 3.22295317
Os 1.50909000 2.13417500 -3.2013031199999986 0 0 0
Os 1.50909000 0.00000000 -1.0671890499999996 0 0 0
Os 1.50902964 2.13417500 1.02758530
Os 1.50872782 0.27419880 3.29635212
Os 1.50909000 6.40252500 -3.2013031199999986 0 0 0
Os 1.50909000 4.26835000 -1.0671890499999996 0 0 0
Os 1.50902964 6.40252500 1.06190855
Os 1.50872782 3.99415120 3.29635212
Os 4.52727000 2.13417500 -3.2013031199999986 0 0 0
Os 4.52727000 0.00000000 -1.0671890499999996 0 0 0
Os 4.52714927 2.13417500 0.94283327
Os 4.52720964 8.43912552 3.14638593
Os 4.52727000 6.40252500 -3.2013031199999986 0 0 0
Os 4.52727000 4.26835000 -1.0671890499999996 0 0 0
Os 4.52733036 6.40252500 1.02758530
Os 4.52720964 4.36592448 3.14638593
C 1.50836564 2.13417500 3.98545738
