&CONTROL
calculation = 'relax'
prefix = 'scf'
pseudo_dir = '/vol0004/mdt0/data/hp150275/u10028/POT_KKJUS'
outdir = './data'
tprnfor = .true.
nstep = 50
disk_io = 'non'
/
&SYSTEM
ibrav = 0
ecutwfc = 50.0
ecutrho = 400
occupations = 'smearing'
smearing = 'mp'
degauss = 0.01
assume_isolated = 'esm'
esm_bc = 'bc1'
input_dft = 'BEEF-VDW'
nosym = .true.
nspin = 1
ntyp = 4
nat = 33
/
&ELECTRONS
electron_maxstep = 200
mixing_beta = 0.1
conv_thr = 1e-06
/
&IONS
ion_dynamics = 'bfgs'
upscale = 1.0
/
&CELL
/

K_POINTS {automatic}
8 6 1 0 0 0

ATOMIC_SPECIES
C 12.01 C.pbe-n-rrkjus_psl.1.0.0.UPF
Cu 63.54 Cu.pbe-dn-rrkjus_psl.1.0.0.UPF
Hf 178.4 Hf.pbe-spn-rrkjus_psl.1.0.0.UPF
In 114.8 In.pbe-dn-rrkjus_psl.1.0.0.UPF

CELL_PARAMETERS {angstrom}
6.35005000 0.00000000 0.00000000
0.00000000 8.98033000 0.00000000
0.00000000 0.00000000 26.73520000

ATOMIC_POSITIONS {angstrom}
Hf 0.00000000 0.00000000 -3.3675657900000004 0 0 0
Hf 3.17502500 2.24508250 -1.1226110499999997 0 0 0
Hf 3.17502500 6.73524750 -1.1226110499999997 0 0 0
Hf 0.00000000 4.49016500 -3.3675657900000004 0 0 0
Hf 0.01587513 4.52698435 1.29478574
Hf 2.97087089 6.73524750 3.33147327
Hf 3.25611514 2.24508250 3.23763272
Hf 0.01587513 8.94351065 1.29478574
In 0.00000000 6.73524750 -1.1226110499999997 0 0 0
In 3.17502500 0.00000000 -3.3675657900000004 0 0 0
In 0.00000000 2.24508250 -1.1226110499999997 0 0 0
In 3.17502500 4.49016500 -3.3675657900000004 0 0 0
In 5.73536516 2.24508250 4.58268063
In 3.16448392 4.48235211 1.14907890
In 0.00158751 6.73524750 3.77501024
In 3.16448392 0.00781289 1.14907890
Cu 1.58751250 0.00000000 -1.1226110499999997 0 0 0
Cu 4.76253750 4.49016500 -1.1226110499999997 0 0 0
Cu 4.76253750 0.00000000 -1.1226110499999997 0 0 0
Cu 1.58751250 4.49016500 -1.1226110499999997 0 0 0
Cu 4.76253750 6.73524750 -3.3675657900000004 0 0 0
Cu 1.58751250 2.24508250 -3.3675657900000004 0 0 0
Cu 1.58751250 6.73524750 -3.3675657900000004 0 0 0
Cu 4.76253750 2.24508250 -3.3675657900000004 0 0 0
Cu 1.46825856 4.26951829 3.73998713
Cu 4.65223713 8.87840325 3.51648086
Cu 4.65223713 4.59209175 3.51648086
Cu 1.46825856 0.22064671 3.73998713
Cu 4.93633837 2.24508250 1.12127429
Cu 1.54420516 6.73524750 1.11138226
Cu 1.46400403 2.24508250 1.17875497
Cu 4.78127015 6.73524750 1.22340275
C 1.49448427 2.24508250 4.23378627
