&CONTROL
calculation = 'relax'
prefix = 'scf'
pseudo_dir = '/vol0004/mdt0/data/hp150275/u10028/POT_KKJUS'
outdir = './data'
tprnfor = .true.
nstep = 50
disk_io = 'non'
/
&SYSTEM
ibrav = 0
ecutwfc = 50.0
ecutrho = 400
occupations = 'smearing'
smearing = 'mp'
degauss = 0.01
assume_isolated = 'esm'
esm_bc = 'bc1'
input_dft = 'BEEF-VDW'
nosym = .true.
nspin = 1
ntyp = 5
nat = 34
/
&ELECTRONS
electron_maxstep = 200
mixing_beta = 0.1
conv_thr = 1e-06
/
&IONS
ion_dynamics = 'bfgs'
upscale = 1.0
/
&CELL
/

K_POINTS {automatic}
8 6 1 0 0 0

ATOMIC_SPECIES
C 12.01 C.pbe-n-rrkjus_psl.1.0.0.UPF
Mg 24.30 Mg.pbe-spnl-rrkjus_psl.1.0.0.UPF
Ni 58.69 Ni.pbe-spn-rrkjus_psl.1.0.0.UPF
O 15.99 O.pbe-n-rrkjus_psl.1.0.0.UPF
Sn 118.7 Sn.pbe-dn-rrkjus_psl.1.0.0.UPF

CELL_PARAMETERS {angstrom}
6.22749000 0.00000000 0.00000000
0.00000000 8.80700000 0.00000000
0.00000000 0.00000000 26.60530000

ATOMIC_POSITIONS {angstrom}
Mg 0.00000000 0.00000000 -3.3025158899999987 0 0 0
Mg 3.11374500 2.20175000 -1.1009273099999994 0 0 0
Mg 3.11374500 6.60525000 -1.1009273099999994 0 0 0
Mg 0.00000000 4.40350000 -3.3025158899999987 0 0 0
Mg 0.00006227 4.38694284 1.00647850
Mg 3.11374500 6.60551421 3.42569843
Mg 3.11374500 2.20175000 3.48156956
Mg 0.00006227 0.01646909 1.00647850
Ni 1.55687250 0.00000000 -1.1009273099999994 0 0 0
Ni 4.67061750 4.40350000 -1.1009273099999994 0 0 0
Ni 4.67061750 0.00000000 -1.1009273099999994 0 0 0
Ni 1.55687250 4.40350000 -1.1009273099999994 0 0 0
Ni 4.67061750 6.60525000 -3.3025158899999987 0 0 0
Ni 1.55687250 2.20175000 -3.3025158899999987 0 0 0
Ni 1.55687250 6.60525000 -3.3025158899999987 0 0 0
Ni 4.67061750 2.20175000 -3.3025158899999987 0 0 0
Ni 1.40878279 4.41767927 3.10483851
Ni 4.81845811 8.79299687 3.10483851
Ni 4.81870721 4.41776734 3.10483851
Ni 1.40903189 8.79308494 3.10483851
Ni 4.64016507 2.20175000 1.18845875
Ni 1.54858994 6.60525000 1.14908291
Ni 1.58751175 2.20175000 1.18819270
Ni 4.67890006 6.60533807 1.14908291
Sn 0.00000000 6.60525000 -1.1009273099999994 0 0 0
Sn 3.11374500 0.00000000 -3.3025158899999987 0 0 0
Sn 0.00000000 2.20175000 -1.1009273099999994 0 0 0
Sn 3.11374500 4.40350000 -3.3025158899999987 0 0 0
Sn 0.00000000 2.20166193 3.42729475
Sn 3.11374500 4.41195472 1.12646840
Sn 0.00000000 6.60533807 3.45735874
Sn 3.11374500 8.79854528 1.12646840
C 3.11374500 2.20175000 5.74940533
O 3.11374500 2.20175000 6.89024059
