&CONTROL
calculation = 'relax'
prefix = 'scf'
pseudo_dir = '/vol0004/mdt0/data/hp150275/u10028/POT_HYBRID_KKJUS_GBRV'
outdir = './data'
tprnfor = .true.
nstep = 70
disk_io = 'non'
/
&SYSTEM
ibrav = 0
ecutwfc = 50.0
ecutrho = 400
occupations = 'smearing'
smearing = 'mp'
degauss = 0.01
assume_isolated = 'esm'
esm_bc = 'bc1'
input_dft = 'BEEF-VDW'
nosym = .true.
nspin = 1
ntyp = 4
nat = 18
/
&ELECTRONS
electron_maxstep = 200
mixing_beta = 0.1
conv_thr = 1e-06
/
&IONS
ion_dynamics = 'bfgs'
upscale = 1.0
/
&CELL
/

K_POINTS {automatic}
8 8 1 0 0 0

ATOMIC_SPECIES
C 12.01 C.pbe-n-rrkjus_psl.1.0.0.UPF
Nb 92.90 Nb.pbe-spn-rrkjus_psl.1.0.0.UPF
O 15.99 O.pbe-n-rrkjus_psl.1.0.0.UPF
Rh 102.9 Rh.pbe-spn-rrkjus_psl.1.0.0.UPF

CELL_PARAMETERS {angstrom}
5.77148000 0.00000000 0.00000000
-0.00000000 5.77148000 0.00000000
0.00000000 0.00000000 25.79110000

ATOMIC_POSITIONS {angstrom}
Nb 0.00000000 0.00000000 -2.9448277999999988 0 0 0
Nb 0.00000000 0.00000000 0.91584196
Nb 0.00000000 2.88574000 -2.9448277999999988 0 0 0
Nb 0.00000000 2.88574000 0.91584196
Nb 2.88574000 0.00000000 -2.9448277999999988 0 0 0
Nb 2.88574000 -0.00000000 0.91584196
Nb 2.88574000 2.88574000 -2.9448277999999988 0 0 0
Nb 2.88574000 2.88574000 0.91584196
Rh 1.44287000 1.44287000 -1.0143639600000007 0 0 0
Rh 1.44287000 1.44287000 2.84630580
Rh 1.44287000 4.32861000 -1.0143639600000007 0 0 0
Rh 1.44287000 4.32861000 2.84630580
Rh 4.32861000 1.44287000 -1.0143639600000007 0 0 0
Rh 4.32861000 1.44287000 2.84630580
Rh 4.32861000 4.32861000 -1.0143639600000007 0 0 0
Rh 4.32861000 4.32861000 2.84630580
C 1.44287000 1.44287000 4.74633613
O 1.44287000 1.44287000 5.89636128
