&CONTROL
calculation = 'relax'
prefix = 'scf'
pseudo_dir = '/vol0403/data/hp230205/u10028/POT_HYBRID_KKJUS_GBRV'
outdir = './data'
tprnfor = .true.
nstep = 50
disk_io = 'non'
/
&SYSTEM
ibrav = 0
ecutwfc = 50.0
ecutrho = 400
occupations = 'smearing'
smearing = 'mp'
degauss = 0.01
assume_isolated = 'esm'
esm_bc = 'bc1'
input_dft = 'BEEF-VDW'
nosym = .true.
nspin = 2
ntyp = 6
nat = 34
starting_magnetization(1) = 0.0
starting_magnetization(2) = 0.0
starting_magnetization(3) = 0.1
starting_magnetization(4) = 0.0
starting_magnetization(5) = 0.0
starting_magnetization(6) = 0.0
/
&ELECTRONS
electron_maxstep = 400
mixing_beta = 0.05
conv_thr = 1e-06
/
&IONS
ion_dynamics = 'bfgs'
upscale = 1.0
/
&CELL
/

K_POINTS {automatic}
6 6 1 0 0 0

ATOMIC_SPECIES
C 12.01 C.pbe-n-rrkjus_psl.1.0.0.UPF
In 114.8 In.pbe-dn-rrkjus_psl.1.0.0.UPF
Mn 54.93 mn_pbe_v1.5.uspp.F.UPF
O 15.99 O.pbe-n-rrkjus_psl.1.0.0.UPF
Pd 106.4 Pd.pbe-n-rrkjus_psl.1.0.0.UPF
Y 88.90 Y.pbe-spn-rrkjus_psl.1.0.0.UPF


CELL_PARAMETERS {angstrom}
6.85874000 0.00000000 0.00000000
0.00000000 9.69972000 0.00000000
0.00000000 0.00000000 27.27480000

ATOMIC_POSITIONS {angstrom}
Y 0.00000000 2.42493000 -1.2123648599999974 0 0 0
Y 0.00000000 7.27479000 -1.2123648599999974 0 0 0
Y 3.42937000 4.84986000 -3.63736733 0 0 0
Y 3.42937000 0.00000000 -3.63736733 0 0 0
Y 6.60503521 7.27440201 3.66927884
Y 6.56155080 2.42589997 3.73746584
Y 3.46805329 0.01338561 1.27291492
Y 3.46798471 4.83647439 1.27291492
Mn 5.14405500 0.00000000 -1.2123648599999974 0 0 0
Mn 5.14405500 4.84986000 -1.2123648599999974 0 0 0
Mn 1.71468500 2.42493000 -3.63736733 0 0 0
Mn 1.71468500 7.27479000 -3.63736733 0 0 0
Mn 4.51373679 4.77536615 4.38851532
Mn 4.51579442 0.07546382 4.38796982
Mn 1.63265447 7.27479000 1.39537877
Mn 1.53375144 2.42473601 1.29964422
In 0.00000000 0.00000000 -3.63736733 0 0 0
In 0.00000000 4.84986000 -3.63736733 0 0 0
In 3.42937000 7.27479000 -1.2123648599999974 0 0 0
In 3.42937000 2.42493000 -1.2123648599999974 0 0 0
In 6.78391115 4.86887145 1.22763875
In 6.78411691 9.68070855 1.22791150
In 3.17566521 2.42512399 3.56154338
In 3.30474669 7.27517799 3.76965011
Pd 1.71468500 0.00000000 -1.2123648599999974 0 0 0
Pd 1.71468500 4.84986000 -1.2123648599999974 0 0 0
Pd 5.14405500 2.42493000 -3.63736733 0 0 0
Pd 5.14405500 7.27479000 -3.63736733 0 0 0
Pd 1.69623499 4.90155951 3.40498603
Pd 1.69609781 9.64831148 3.40498603
Pd 5.14357489 7.27479000 1.15236030
Pd 5.18253253 2.42493000 1.10681138
C 5.31730677 2.42143810 5.78007562
O 4.87978775 2.42066212 6.87079487
