&CONTROL
calculation = 'relax'
prefix = 'scf'
pseudo_dir = '/vol0403/data/hp230205/u10028/POT_HYBRID_KKJUS_GBRV'
outdir = './data'
tprnfor = .true.
nstep = 50
disk_io = 'non'
/
&SYSTEM
ibrav = 0
ecutwfc = 50.0
ecutrho = 400
occupations = 'smearing'
smearing = 'mp'
degauss = 0.01
assume_isolated = 'esm'
esm_bc = 'bc1'
input_dft = 'BEEF-VDW'
nosym = .true.
nspin = 1
ntyp = 6
nat = 34
/
&ELECTRONS
electron_maxstep = 200
mixing_beta = 0.1
conv_thr = 1e-06
/
&IONS
ion_dynamics = 'bfgs'
upscale = 1.0
/
&CELL
/

K_POINTS {automatic}
8 8 1 0 0 0

ATOMIC_SPECIES
C 12.01 C.pbe-n-rrkjus_psl.1.0.0.UPF
Ge 72.64 Ge.pbe-dn-rrkjus_psl.1.0.0.UPF
Li 6.941 Li.pbe-sl-rrkjus_psl.1.0.0.UPF
O 15.99 O.pbe-n-rrkjus_psl.1.0.0.UPF
Pd 106.4 Pd.pbe-n-rrkjus_psl.1.0.0.UPF
Zn 65.40 Zn.pbe-dnl-rrkjus_psl.1.0.0.UPF


CELL_PARAMETERS {angstrom}
6.18512000 0.00000000 0.00000000
0.00000000 8.74708000 0.00000000
0.00000000 0.00000000 26.56030000

ATOMIC_POSITIONS {angstrom}
Li 4.63884000 0.00000000 -1.0934875500000025 0 0 0
Li 4.63884000 4.37354000 -1.0934875500000025 0 0 0
Li 1.54628000 2.18677000 -3.2801970500000017 0 0 0
Li 1.54628000 6.56031000 -3.2801970500000017 0 0 0
Li 4.53925957 4.37310265 3.61830967
Li 4.53925957 0.00034988 3.61830967
Li 1.53619825 6.56048494 1.12748474
Li 1.53372421 2.18677000 1.07436414
Zn 0.00000000 2.18677000 -1.0934875500000025 0 0 0
Zn 0.00000000 6.56031000 -1.0934875500000025 0 0 0
Zn 3.09256000 4.37354000 -3.2801970500000017 0 0 0
Zn 3.09256000 0.00000000 -3.2801970500000017 0 0 0
Zn 6.18326446 6.56013506 3.35961235
Zn 0.13161935 2.18677000 3.36704923
Zn 3.15206085 8.72993572 1.10783011
Zn 3.15193715 4.39103416 1.10756451
Ge 0.00000000 0.00000000 -3.2801970500000017 0 0 0
Ge 0.00000000 4.37354000 -3.2801970500000017 0 0 0
Ge 3.09256000 6.56031000 -1.0934875500000025 0 0 0
Ge 3.09256000 2.18677000 -1.0934875500000025 0 0 0
Ge 6.09821906 4.35517113 1.20875925
Ge 6.09803351 0.01871875 1.20875925
Ge 2.96489912 2.18668253 3.36439320
Ge 3.03528579 6.56022253 3.46824397
Pd 1.54628000 0.00000000 -1.0934875500000025 0 0 0
Pd 1.54628000 4.37354000 -1.0934875500000025 0 0 0
Pd 4.63884000 2.18677000 -3.2801970500000017 0 0 0
Pd 4.63884000 6.56031000 -3.2801970500000017 0 0 0
Pd 1.59273025 4.41771275 3.15031718
Pd 1.59260655 8.70273230 3.15031718
Pd 4.62591310 6.56048494 1.07144250
Pd 4.61001734 2.18694494 1.14156169
C 4.82662024 2.18685747 4.85601965
O 4.72060729 2.18703241 6.03104732
