&CONTROL
calculation = 'relax'
prefix = 'scf'
pseudo_dir = '/vol0004/mdt0/data/hp150275/u10028/POT_KKJUS'
outdir = './data'
tprnfor = .true.
nstep = 50
disk_io = 'non'
/
&SYSTEM
ibrav = 0
ecutwfc = 50.0
ecutrho = 400
occupations = 'smearing'
smearing = 'mp'
degauss = 0.01
assume_isolated = 'esm'
esm_bc = 'bc1'
input_dft = 'BEEF-VDW'
nosym = .true.
nspin = 1
ntyp = 4
nat = 34
/
&ELECTRONS
electron_maxstep = 200
mixing_beta = 0.1
conv_thr = 1e-06
/
&IONS
ion_dynamics = 'bfgs'
upscale = 1.0
/
&CELL
/

K_POINTS {automatic}
7 7 2 0  0  0

ATOMIC_SPECIES
C 12.01 C.pbe-n-rrkjus_psl.1.0.0.UPF
Ca 40.07 Ca.pbe-spn-rrkjus_psl.1.0.0.UPF
O 15.99 O.pbe-n-rrkjus_psl.1.0.0.UPF
Pb 207.2 Pb.pbe-dn-rrkjus_psl.1.0.0.UPF

CELL_PARAMETERS {angstrom}
10.04260000 0.00000000 0.00000000
0.00000000 10.04260000 0.00000000
0.00000000 0.00000000 27.53190000

ATOMIC_POSITIONS {angstrom}
Ca 10.04139489 10.04018978 3.66862568
Ca 0.00000000 0.00000000 -1.25545464 0 0 0
Ca 0.00120511 5.02461406 3.67000227
Ca 0.00000000 5.02130000 -1.25545464 0 0 0
Ca 5.02501576 10.03406379 3.68321758
Ca 5.02130000 0.00000000 -1.25545464 0 0 0
Ca 5.01848807 5.01959276 3.68266694
Ca 5.02130000 5.02130000 -1.25545464 0 0 0
Pb 0.00692939 2.51235724 1.30996780
Pb 2.51195554 0.00803408 1.31217035
Pb 2.50793850 2.50753679 3.67110355
Pb 0.00000000 2.51065000 -3.7660886 0 0 0
Pb 2.51065000 0.00000000 -3.7660886 0 0 0
Pb 2.51065000 2.51065000 -1.25545464 0 0 0
Pb 0.00251065 7.53215085 1.31244567
Pb 2.51095128 5.01266336 1.31382227
Pb 2.50854105 7.53205043 3.67716056
Pb 0.00000000 7.53195000 -3.7660886 0 0 0
Pb 2.51065000 5.02130000 -3.7660886 0 0 0
Pb 2.51065000 7.53195000 -1.25545464 0 0 0
Pb 5.01306507 2.50914361 1.31299631
Pb 7.53104617 0.00311321 1.31437291
Pb 7.53034318 2.51034872 3.67716056
Pb 5.02130000 2.51065000 -3.7660886 0 0 0
Pb 7.53195000 0.00000000 -3.7660886 0 0 0
Pb 7.53195000 2.51065000 -1.25545464 0 0 0
Pb 5.01768466 7.52964020 1.31464823
Pb 7.52863594 5.01668040 1.31464823
Pb 7.53034318 7.52953978 3.67633461
Pb 5.02130000 7.53195000 -3.7660886 0 0 0
Pb 7.53195000 5.02130000 -3.7660886 0 0 0
Pb 7.53195000 7.53195000 -1.25545464 0 0 0
C 2.80218668 2.76171500 8.30362104
O 2.34414369 2.35267990 9.26007925
