&CONTROL
calculation = 'relax'
prefix = 'scf'
pseudo_dir = '/vol0004/mdt0/data/hp150275/u10028/POT_KKJUS'
outdir = './data'
tprnfor = .true.
nstep = 50
disk_io = 'non'
/
&SYSTEM
ibrav = 0
ecutwfc = 50.0
ecutrho = 400
occupations = 'smearing'
smearing = 'mp'
degauss = 0.01
assume_isolated = 'esm'
esm_bc = 'bc1'
input_dft = 'BEEF-VDW'
nosym = .true.
nspin = 1
ntyp = 3
nat = 33
/
&ELECTRONS
electron_maxstep = 200
mixing_beta = 0.1
conv_thr = 1e-06
/
&IONS
ion_dynamics = 'bfgs'
upscale = 1.0
/
&CELL
/

K_POINTS {automatic}
8 6 1 0 0 0

ATOMIC_SPECIES
C 12.01 C.pbe-n-rrkjus_psl.1.0.0.UPF
Ru 101.0 Ru.pbe-spn-rrkjus_psl.1.0.0.UPF
Zr 91.22 Zr.pbe-spn-rrkjus_psl.1.0.0.UPF

CELL_PARAMETERS {angstrom}
6.54723000 0.00000000 0.00000000
0.00000000 9.25918000 0.00000000
0.00000000 0.00000000 26.94440000

ATOMIC_POSITIONS {angstrom}
Zr 1.63680750 2.31479500 -3.4723248300000016 0 0 0
Zr 1.63680750 4.62959000 -1.1575314200000015 0 0 0
Zr 1.63680750 2.31479500 1.25938126
Zr 1.63680750 4.69310797 3.57929410
Zr 1.63680750 6.94438500 -3.4723248300000016 0 0 0
Zr 1.63680750 0.00000000 -1.1575314200000015 0 0 0
Zr 1.63680750 6.94438500 1.21034245
Zr 1.63680750 9.19566203 3.57929410
Zr 4.91042250 2.31479500 -3.4723248300000016 0 0 0
Zr 4.91042250 4.62959000 -1.1575314200000015 0 0 0
Zr 4.91042250 2.31479500 1.10876206
Zr 4.91042250 4.70005236 3.58225798
Zr 4.91042250 6.94438500 -3.4723248300000016 0 0 0
Zr 4.91042250 0.00000000 -1.1575314200000015 0 0 0
Zr 4.91042250 6.94438500 1.18959526
Zr 4.91042250 9.18871764 3.58225798
Ru 0.00000000 0.00000000 -3.4723248300000016 0 0 0
Ru 0.00000000 2.31479500 -1.1575314200000015 0 0 0
Ru 6.54408733 0.01416655 1.19956469
Ru 6.35447955 2.31479500 3.38286942
Ru 0.00000000 4.62959000 -3.4723248300000016 0 0 0
Ru 0.00000000 6.94438500 -1.1575314200000015 0 0 0
Ru 6.54408733 4.61542345 1.19956469
Ru 6.53511762 6.94438500 3.32305285
Ru 3.27361500 0.00000000 -3.4723248300000016 0 0 0
Ru 3.27361500 2.31479500 -1.1575314200000015 0 0 0
Ru 3.27675767 0.01416655 1.19956469
Ru 3.46636545 2.31479500 3.38286942
Ru 3.27361500 4.62959000 -3.4723248300000016 0 0 0
Ru 3.27361500 6.94438500 -1.1575314200000015 0 0 0
Ru 3.27675767 4.61542345 1.19956469
Ru 3.28572738 6.94438500 3.32305285
C 1.63680750 2.31479500 3.87676027
