&CONTROL
calculation = 'relax'
prefix = 'scf'
pseudo_dir = '/vol0004/mdt0/data/hp150275/u10028/POT_KKJUS'
outdir = './data'
tprnfor = .true.
nstep = 50
disk_io = 'non'
/
&SYSTEM
ibrav = 0
ecutwfc = 50.0
ecutrho = 400
occupations = 'smearing'
smearing = 'mp'
degauss = 0.01
assume_isolated = 'esm'
esm_bc = 'bc1'
input_dft = 'BEEF-VDW'
nosym = .true.
nspin = 1
ntyp = 5
nat = 34
/
&ELECTRONS
electron_maxstep = 200
mixing_beta = 0.1
conv_thr = 1e-06
/
&IONS
ion_dynamics = 'bfgs'
upscale = 1.0
/
&CELL
/

K_POINTS {automatic}
9 6 2 0  0  0

ATOMIC_SPECIES
C 12.01 C.pbe-n-rrkjus_psl.1.0.0.UPF
Cu 63.54 Cu.pbe-dn-rrkjus_psl.1.0.0.UPF
Ge 72.64 Ge.pbe-dn-rrkjus_psl.1.0.0.UPF
Li 6.941 Li.pbe-sl-rrkjus_psl.1.0.0.UPF
O 15.99 O.pbe-n-rrkjus_psl.1.0.0.UPF

CELL_PARAMETERS {angstrom}
5.94410000 0.00000000 0.00000000
0.00000000 8.40623000 0.00000000
0.00000000 0.00000000 26.30470000

ATOMIC_POSITIONS {angstrom}
Li 0.00000000 0.00000000 -3.1523552499999994 0 0 0
Li 2.97205000 2.10155750 -1.0508727700000016 0 0 0
Li 2.97205000 6.30467250 -1.0508727700000016 0 0 0
Li 0.00000000 4.20311500 -3.1523552499999994 0 0 0
Li 0.00000000 4.18613442 0.88594230
Li 2.97205000 6.30467250 3.49642072
Li 2.97205000 2.10155750 3.41908491
Li 0.00000000 0.01698058 0.88594230
Cu 1.48602500 0.00000000 -1.0508727700000016 0 0 0
Cu 4.45807500 4.20311500 -1.0508727700000016 0 0 0
Cu 4.45807500 0.00000000 -1.0508727700000016 0 0 0
Cu 1.48602500 4.20311500 -1.0508727700000016 0 0 0
Cu 4.45807500 6.30467250 -3.1523552499999994 0 0 0
Cu 1.48602500 2.10155750 -3.1523552499999994 0 0 0
Cu 1.48602500 6.30467250 -3.1523552499999994 0 0 0
Cu 4.45807500 2.10155750 -3.1523552499999994 0 0 0
Cu 1.32684200 4.22337401 2.98242689
Cu 4.61725800 8.38597099 2.98242689
Cu 4.61725800 4.22337401 2.98242689
Cu 1.32684200 8.38597099 2.98242689
Cu 4.32885027 2.10155750 1.09979951
Cu 1.42254201 6.30467250 1.24368622
Cu 1.61519029 2.10155750 1.09979951
Cu 4.52155799 6.30467250 1.24368622
Ge 0.00000000 6.30467250 -1.0508727700000016 0 0 0
Ge 2.97205000 0.00000000 -3.1523552499999994 0 0 0
Ge 0.00000000 2.10155750 -1.0508727700000016 0 0 0
Ge 2.97205000 4.20311500 -3.1523552499999994 0 0 0
Ge 5.94404056 2.10155750 3.34043385
Ge 2.97205000 4.26422829 1.11216272
Ge 0.00000000 6.30467250 3.44275914
Ge 2.97205000 8.34511671 1.11216272
C 0.00047553 2.10155750 5.32459737
O 0.00017832 2.10155750 6.48253027
