&CONTROL
calculation = 'relax'
prefix = 'scf'
pseudo_dir = '/vol0004/mdt0/data/hp150275/u10028/POT_KKJUS'
outdir = './data'
tprnfor = .true.
nstep = 50
disk_io = 'non'
/
&SYSTEM
ibrav = 0
ecutwfc = 50.0
ecutrho = 400
occupations = 'smearing'
smearing = 'mp'
degauss = 0.01
assume_isolated = 'esm'
esm_bc = 'bc1'
input_dft = 'BEEF-VDW'
nosym = .true.
nspin = 1
ntyp = 5
nat = 34
/
&ELECTRONS
electron_maxstep = 200
mixing_beta = 0.1
conv_thr = 1e-06
/
&IONS
ion_dynamics = 'bfgs'
upscale = 1.0
/
&CELL
/

K_POINTS {automatic}
8 6 1 0 0 0

ATOMIC_SPECIES
Al 26.98 Al.pbe-nl-rrkjus_psl.1.0.0.UPF
C 12.01 C.pbe-n-rrkjus_psl.1.0.0.UPF
Cu 63.54 Cu.pbe-dn-rrkjus_psl.1.0.0.UPF
O 15.99 O.pbe-n-rrkjus_psl.1.0.0.UPF
Ti 47.86 Ti.pbe-spn-rrkjus_psl.1.0.0.UPF

CELL_PARAMETERS {angstrom}
6.05884000 0.00000000 0.00000000
0.00000000 8.56849000 0.00000000
0.00000000 0.00000000 26.42640000

ATOMIC_POSITIONS {angstrom}
Ti 0.00000000 0.00000000 -3.213185980000002 0 0 0
Ti 3.02942000 2.14212250 -1.0710619900000005 0 0 0
Ti 3.02942000 6.42636750 -1.0710619900000005 0 0 0
Ti 0.00000000 4.28424500 -3.213185980000002 0 0 0
Ti 6.04654055 4.25982480 1.10594484
Ti 2.94611095 6.61478860 3.34452518
Ti 2.92508678 1.86073329 3.54140186
Ti 0.04635013 0.01439506 1.07661154
Al 0.00000000 6.42636750 -1.0710619900000005 0 0 0
Al 3.02942000 0.00000000 -3.213185980000002 0 0 0
Al 0.00000000 2.14212250 -1.0710619900000005 0 0 0
Al 3.02942000 4.28424500 -3.213185980000002 0 0 0
Al 0.00248412 2.15711736 3.11963652
Al 3.02451234 4.30138198 1.01213112
Al 6.01782165 6.24223065 3.18860942
Al 3.01942291 8.56677630 1.07661154
Cu 1.51471000 0.00000000 -1.0710619900000005 0 0 0
Cu 4.54413000 4.28424500 -1.0710619900000005 0 0 0
Cu 4.54413000 0.00000000 -1.0710619900000005 0 0 0
Cu 1.51471000 4.28424500 -1.0710619900000005 0 0 0
Cu 4.54413000 6.42636750 -3.213185980000002 0 0 0
Cu 1.51471000 2.14212250 -3.213185980000002 0 0 0
Cu 1.51471000 6.42636750 -3.213185980000002 0 0 0
Cu 4.54413000 2.14212250 -3.213185980000002 0 0 0
Cu 1.66072804 4.21535434 3.19442323
Cu 4.68414979 8.45392929 3.13522810
Cu 4.32764765 4.19941695 3.18226709
Cu 1.09162120 8.43687799 3.48749201
Cu 4.41386494 2.14649243 1.18099582
Cu 1.54312596 6.42002682 1.09035326
Cu 1.61352968 2.15274743 1.11281570
Cu 4.48172395 6.42782414 1.10515205
C 2.97004337 8.33868310 4.41241601
O 3.04771770 0.83088648 5.18803085
