&CONTROL
calculation = 'relax'
prefix = 'scf'
pseudo_dir = '/vol0403/data/hp230205/u10028/POT_HYBRID_KKJUS_GBRV'
outdir = './data'
tprnfor = .true.
nstep = 50
disk_io = 'non'
/
&SYSTEM
ibrav = 0
ecutwfc = 50.0
ecutrho = 400
occupations = 'smearing'
smearing = 'mp'
degauss = 0.01
assume_isolated = 'esm'
esm_bc = 'bc1'
input_dft = 'BEEF-VDW'
nosym = .true.
nspin = 1
ntyp = 4
nat = 16
/
&ELECTRONS
electron_maxstep = 200
mixing_beta = 0.1
conv_thr = 1e-06
/
&IONS
ion_dynamics = 'bfgs'
upscale = 1.0
/
&CELL
/

K_POINTS {automatic}
11 8 2 0  0  0

ATOMIC_SPECIES
Ga 69.72 Ga.pbe-dnl-rrkjus_psl.1.0.0.UPF
Ge 72.64 Ge.pbe-dn-rrkjus_psl.1.0.0.UPF
Pd 106.4 Pd.pbe-n-rrkjus_psl.1.0.0.UPF
Sc 44.95 Sc.pbe-spn-rrkjus_psl.1.0.0.UPF


CELL_PARAMETERS {angstrom}
5.81182000 0.00000000 0.00000000
0.00000000 8.08666000 0.00000000
0.00000000 0.00000000 24.34090000

ATOMIC_POSITIONS {angstrom}
Sc 4.21147724 2.02158413 0.67229566
Sc 1.05722818 2.02166500 -2.17047805 0 0 0
Sc 4.21147724 6.06499500 0.67180884
Sc 1.05722818 6.06499500 -2.17047805 0 0 0
Ga 0.06154717 8.08552787 2.05364173
Ga 2.64211149 0.00000000 -0.7234115500000016 0 0 0
Ga 0.06172153 4.04454300 2.05364173
Ga 2.64211149 4.04333000 -0.7234115500000016 0 0 0
Ge 2.70540221 8.08568960 2.01055834
Ge 5.54802149 0.00000000 -0.7234115500000016 0 0 0
Ge 2.70534409 4.04413867 2.01055834
Ge 5.54802149 4.04333000 -0.7234115500000016 0 0 0
Pd 1.30306816 2.02166500 0.79083584
Pd 3.96313818 2.02166500 -2.17047805 0 0 0
Pd 1.30306816 6.06491413 0.78864516
Pd 3.96313818 6.06499500 -2.17047805 0 0 0
