&CONTROL
calculation = 'relax'
prefix = 'scf'
pseudo_dir = '/vol0004/mdt0/data/hp150275/u10028/POT_HYBRID_KKJUS_GBRV'
outdir = './data'
tprnfor = .true.
nstep = 50
disk_io = 'non'
/
&SYSTEM
ibrav = 0
ecutwfc = 50.0
ecutrho = 400
occupations = 'smearing'
smearing = 'mp'
degauss = 0.01
assume_isolated = 'esm'
esm_bc = 'bc1'
input_dft = 'BEEF-VDW'
nosym = .true.
nspin = 2
ntyp = 4
nat = 33
starting_magnetization(1) = 0.0
starting_magnetization(2) = 0.0
starting_magnetization(3) = 0.1
starting_magnetization(4) = 0.001
/
&ELECTRONS
electron_maxstep = 200
mixing_beta = 0.1
conv_thr = 1e-06
/
&IONS
ion_dynamics = 'bfgs'
upscale = 1.0
/
&CELL
/

K_POINTS {automatic}
9 6 2 0  0  0

ATOMIC_SPECIES
Al 26.98 Al.pbe-nl-rrkjus_psl.1.0.0.UPF
C 12.01 C.pbe-n-rrkjus_psl.1.0.0.UPF
Fe 55.84 fe_pbe_v1.5.uspp.F.UPF
Ni 58.69 ni_pbe_v1.4.uspp.F.UPF

CELL_PARAMETERS {angstrom}
5.78917000 0.00000000 0.00000000
0.00000000 8.18712000 0.00000000
0.00000000 0.00000000 26.14030000

ATOMIC_POSITIONS {angstrom}
Al 0.00000000 0.00000000 23.07012176
Al 2.89458500 2.04678000 25.11690726
Al 2.89458500 6.14034000 25.11690726
Al 0.00000000 4.09356000 23.07012176
Al 0.00000000 4.09282316 1.02548397
Al 2.89458500 6.24628133 3.46489677
Al 2.89458500 1.94100241 3.46489677
Al 0.00000000 0.00073684 0.92379820
Fe 1.44729250 0.00000000 25.11690726
Fe 4.34187750 4.09356000 25.11690726
Fe 4.34187750 0.00000000 25.11690726
Fe 1.44729250 4.09356000 25.11690726
Fe 4.34187750 6.14034000 23.07012176
Fe 1.44729250 2.04678000 23.07012176
Fe 1.44729250 6.14034000 23.07012176
Fe 4.34187750 2.04678000 23.07012176
Fe 1.64354536 4.09372374 2.97920999
Fe 4.55051919 0.00008187 3.06599579
Fe 4.14562464 4.09372374 2.97920999
Fe 1.23865081 0.00008187 3.06599579
Fe 4.24872975 2.05062795 1.14729777
Fe 1.53841404 6.13632831 1.14703636
Fe 1.54044025 2.05062795 1.14729777
Fe 4.25075596 6.13632831 1.14703636
Ni 0.00000000 6.14034000 25.11690726
Ni 2.89458500 0.00000000 23.07012176
Ni 0.00000000 2.04678000 25.11690726
Ni 2.89458500 4.09356000 23.07012176
Ni 0.00000000 2.18211309 2.96117318
Ni 2.89458500 4.09413310 0.77636691
Ni 0.00000000 6.00517065 2.96195739
Ni 2.89458500 8.18556445 1.04691902
C 2.89458500 0.00008187 3.95398178
