&CONTROL
calculation = 'relax'
prefix = 'scf'
pseudo_dir = '/vol0004/mdt0/data/hp150275/u10028/POT_KKJUS'
outdir = './data'
tprnfor = .true.
nstep = 50
disk_io = 'non'
/
&SYSTEM
ibrav = 0
ecutwfc = 50.0
ecutrho = 400
occupations = 'smearing'
smearing = 'mp'
degauss = 0.01
assume_isolated = 'esm'
esm_bc = 'bc1'
input_dft = 'BEEF-VDW'
nosym = .true.
nspin = 1
ntyp = 3
nat = 17
/
&ELECTRONS
electron_maxstep = 200
mixing_beta = 0.1
conv_thr = 1e-06
/
&IONS
ion_dynamics = 'bfgs'
upscale = 1.0
/
&CELL
/

K_POINTS {automatic}
8 11 2 0  0  0

ATOMIC_SPECIES
C 12.01 C.pbe-n-rrkjus_psl.1.0.0.UPF
Pd 106.4 Pd.pbe-n-rrkjus_psl.1.0.0.UPF
Sc 44.95 Sc.pbe-spn-rrkjus_psl.1.0.0.UPF

CELL_PARAMETERS {angstrom}
8.08515000 0.00000000 0.00000000
0.00000000 5.71706000 0.00000000
0.00000000 0.00000000 24.28780000

ATOMIC_POSITIONS {angstrom}
Sc 0.07365572 5.68567334 1.94933883
Sc 0.00000000 2.85853000 -0.7145470799999991 0 0 0
Sc 3.96891928 5.68567334 1.94933883
Sc 4.04257500 2.85853000 -0.7145470799999991 0 0 0
Pd 0.24109917 2.74338841 2.18833078
Pd 2.02128750 4.30174463 0.67082904
Pd 2.02128750 1.37278045 0.54939004
Pd 0.00000000 0.00000000 -0.7145470799999991 0 0 0
Pd 2.02128750 1.42926500 -2.143884110000002 0 0 0
Pd 2.02128750 4.28779500 -2.143884110000002 0 0 0
Pd 3.80147583 2.74338841 2.18833078
Pd 6.06386250 4.25246357 0.88529031
Pd 6.06386250 1.40879793 0.87970412
Pd 4.04257500 0.00000000 -0.7145470799999991 0 0 0
Pd 6.06386250 1.42926500 -2.143884110000002 0 0 0
Pd 6.06386250 4.28779500 -2.143884110000002 0 0 0
C 2.02128750 1.71071586 2.52398818
