&CONTROL
calculation = 'relax'
prefix = 'scf'
pseudo_dir = '/vol0004/mdt0/data/hp150275/u10028/POT_HYBRID_KKJUS_GBRV'
outdir = './data'
tprnfor = .true.
nstep = 50
disk_io = 'non'
/
&SYSTEM
ibrav = 0
ecutwfc = 50.0
ecutrho = 400
occupations = 'smearing'
smearing = 'mp'
degauss = 0.01
assume_isolated = 'esm'
esm_bc = 'bc1'
input_dft = 'BEEF-VDW'
nosym = .true.
nspin = 2
ntyp = 4
nat = 33
starting_magnetization(1) = 0.0
starting_magnetization(2) = 0.001
starting_magnetization(3) = 0.0
starting_magnetization(4) = 0.0
/
&ELECTRONS
electron_maxstep = 300
mixing_beta = 0.1
conv_thr = 1e-06
/
&IONS
ion_dynamics = 'bfgs'
upscale = 1.0
/
&CELL
/

K_POINTS {automatic}
9 6 2 0  0  0

ATOMIC_SPECIES
C 12.01 C.pbe-n-rrkjus_psl.1.0.0.UPF
Ni 58.69 ni_pbe_v1.4.uspp.F.UPF
Sn 118.7 Sn.pbe-dn-rrkjus_psl.1.0.0.UPF
Ti 47.86 Ti.pbe-spn-rrkjus_psl.1.0.0.UPF

CELL_PARAMETERS {angstrom}
6.14873000 0.00000000 0.00000000
0.00000000 8.69561000 0.00000000
0.00000000 0.00000000 26.52170000

ATOMIC_POSITIONS {angstrom}
Ti 0.00000000 0.00000000 -3.2608430099999985 0 0 0
Ti 3.07436500 2.17390250 -1.086859269999998 0 0 0
Ti 3.07436500 6.52170750 -1.086859269999998 0 0 0
Ti 0.00000000 4.34780500 -3.2608430099999985 0 0 0
Ti 0.00000000 4.34780500 1.12345921
Ti 3.07436500 6.66988069 3.28524298
Ti 3.07436500 2.02564235 3.28524298
Ti 0.00000000 0.00000000 1.06829408
Ni 1.53718250 0.00000000 -1.086859269999998 0 0 0
Ni 4.61154750 4.34780500 -1.086859269999998 0 0 0
Ni 4.61154750 0.00000000 -1.086859269999998 0 0 0
Ni 1.53718250 4.34780500 -1.086859269999998 0 0 0
Ni 4.61154750 6.52170750 -3.2608430099999985 0 0 0
Ni 1.53718250 2.17390250 -3.2608430099999985 0 0 0
Ni 1.53718250 6.52170750 -3.2608430099999985 0 0 0
Ni 4.61154750 2.17390250 -3.2608430099999985 0 0 0
Ni 1.61324229 4.34789196 3.14016928
Ni 4.86426030 8.69543609 3.16112142
Ni 4.53548771 4.34789196 3.14016928
Ni 1.28446970 8.69552304 3.16112142
Ni 4.61443740 2.17285903 1.15820264
Ni 1.53398516 6.52283793 1.15793742
Ni 1.53429260 2.17285903 1.15820264
Ni 4.61474484 6.52283793 1.15793742
Sn 0.00000000 6.52170750 -1.086859269999998 0 0 0
Sn 3.07436500 0.00000000 -3.2608430099999985 0 0 0
Sn 0.00000000 2.17390250 -1.086859269999998 0 0 0
Sn 3.07436500 4.34780500 -3.2608430099999985 0 0 0
Sn 0.00000000 2.26790204 3.46956879
Sn 3.07436500 4.34789196 1.04389411
Sn 0.00000000 6.42770796 3.46930358
Sn 3.07436500 8.69543609 1.05662453
C 3.07436500 0.00000000 3.75600315
