&CONTROL
calculation = 'relax'
prefix = 'scf'
pseudo_dir = '/vol0004/mdt0/data/hp150275/u10028/POT_KKJUS'
outdir = './data'
tprnfor = .true.
nstep = 50
disk_io = 'non'
/
&SYSTEM
ibrav = 0
ecutwfc = 50.0
ecutrho = 400
occupations = 'smearing'
smearing = 'mp'
degauss = 0.01
assume_isolated = 'esm'
esm_bc = 'bc1'
input_dft = 'BEEF-VDW'
nosym = .true.
nspin = 1
ntyp = 4
nat = 34
/
&ELECTRONS
electron_maxstep = 200
mixing_beta = 0.1
conv_thr = 1e-06
/
&IONS
ion_dynamics = 'bfgs'
upscale = 1.0
/
&CELL
/

K_POINTS {automatic}
6 6 1 0 0 0

ATOMIC_SPECIES
C 12.01 C.pbe-n-rrkjus_psl.1.0.0.UPF
O 15.99 O.pbe-n-rrkjus_psl.1.0.0.UPF
Pt 195.0 Pt.pbe-n-rrkjus_psl.1.0.0.UPF
Sn 118.7 Sn.pbe-dn-rrkjus_psl.1.0.0.UPF

CELL_PARAMETERS {angstrom}
8.18271000 0.00000000 0.00000000
0.00000000 8.18271000 0.00000000
0.00000000 0.00000000 26.13700000

ATOMIC_POSITIONS {angstrom}
Sn 0.00000000 0.00000000 3.19263455
Sn 0.00000000 0.00000000 -1.022740810000002 0 0 0
Sn 0.00000000 4.09135500 3.19629373
Sn 0.00000000 4.09135500 -1.022740810000002 0 0 0
Sn 4.09135500 0.00000000 3.19603236
Sn 4.09135500 0.00000000 -1.022740810000002 0 0 0
Sn 4.09135500 4.09135500 3.18191838
Sn 4.09135500 4.09135500 -1.022740810000002 0 0 0
Pt 0.00008183 2.04665943 1.01516108
Pt 2.04657760 0.00008183 1.01516108
Pt 2.03978595 2.03978595 2.97804978
Pt 0.00000000 2.04567750 -3.068483799999999 0 0 0
Pt 2.04567750 0.00000000 -3.068483799999999 0 0 0
Pt 2.04567750 2.04567750 -1.022740810000002 0 0 0
Pt 0.00000000 6.13605057 1.01516108
Pt 2.04510471 4.09127317 1.02300218
Pt 2.03970412 6.14292405 2.97831115
Pt 0.00000000 6.13703250 -3.068483799999999 0 0 0
Pt 2.04567750 4.09135500 -3.068483799999999 0 0 0
Pt 2.04567750 6.13703250 -1.022740810000002 0 0 0
Pt 4.09127317 2.04502288 1.02300218
Pt 6.13613240 0.00008183 1.01516108
Pt 6.14292405 2.03978595 2.97804978
Pt 4.09135500 2.04567750 -3.068483799999999 0 0 0
Pt 6.13703250 0.00000000 -3.068483799999999 0 0 0
Pt 6.13703250 2.04567750 -1.022740810000002 0 0 0
Pt 4.09127317 6.13760529 1.02300218
Pt 6.13760529 4.09127317 1.02300218
Pt 6.14292405 6.14292405 2.97831115
Pt 4.09135500 6.13703250 -3.068483799999999 0 0 0
Pt 6.13703250 4.09135500 -3.068483799999999 0 0 0
Pt 6.13703250 6.13703250 -1.022740810000002 0 0 0
C 0.00016365 0.00106375 6.79744959
O 8.18262817 8.18262817 7.93388635
