&CONTROL
calculation = 'relax'
prefix = 'scf'
pseudo_dir = '/vol0403/data/hp230205/u10028/POT_HYBRID_KKJUS_GBRV'
outdir = './data'
tprnfor = .true.
nstep = 50
disk_io = 'non'
/
&SYSTEM
ibrav = 0
ecutwfc = 50.0
ecutrho = 400
occupations = 'smearing'
smearing = 'mp'
degauss = 0.01
assume_isolated = 'esm'
esm_bc = 'bc1'
input_dft = 'BEEF-VDW'
nosym = .true.
nspin = 1
ntyp = 5
nat = 17
/
&ELECTRONS
electron_maxstep = 200
mixing_beta = 0.1
conv_thr = 1e-06
/
&IONS
ion_dynamics = 'bfgs'
upscale = 1.0
/
&CELL
/

K_POINTS {automatic}
11 8 2 0  0  0

ATOMIC_SPECIES
C 12.01 C.pbe-n-rrkjus_psl.1.0.0.UPF
Cu 63.54 Cu.pbe-dn-rrkjus_psl.1.0.0.UPF
In 114.8 In.pbe-dn-rrkjus_psl.1.0.0.UPF
Sn 118.7 Sn.pbe-dn-rrkjus_psl.1.0.0.UPF
Y 88.90 Y.pbe-spn-rrkjus_psl.1.0.0.UPF


CELL_PARAMETERS {angstrom}
6.35598000 0.00000000 0.00000000
0.00000000 8.84740000 0.00000000
0.00000000 0.00000000 24.76400000

ATOMIC_POSITIONS {angstrom}
Y 3.17799000 0.00000000 -2.382049160000001 0 0 0
Y 6.10332979 0.00044237 0.74911100
Y 3.17799000 4.42370000 -2.382049160000001 0 0 0
Y 6.28345827 4.42564643 0.83008928
In 1.53287170 2.21185000 -0.7939338400000011 0 0 0
In 4.19698071 2.29625420 2.28348844
In 1.53287170 6.63555000 -0.7939338400000011 0 0 0
In 4.19634512 6.54344857 2.28249788
Cu 0.00000000 0.00000000 -2.382049160000001 0 0 0
Cu 2.88523356 8.84589594 0.86773056
Cu 0.00000000 4.42370000 -2.382049160000001 0 0 0
Cu 3.13216338 4.42016104 0.49230832
Sn 4.71086170 2.21185000 -0.7939338400000011 0 0 0
Sn 1.19174625 2.06631027 2.89367340
Sn 4.71086170 6.63555000 -0.7939338400000011 0 0 0
Sn 1.19740307 6.80285433 2.90060732
C 1.47414244 0.01105925 2.31691984
