&CONTROL
calculation = 'relax'
prefix = 'scf'
pseudo_dir = '/vol0004/mdt0/data/hp150275/u10028/POT_HYBRID_KKJUS_GBRV'
outdir = './data'
tprnfor = .true.
nstep = 50
disk_io = 'non'
/
&SYSTEM
ibrav = 0
ecutwfc = 50.0
ecutrho = 400
occupations = 'smearing'
smearing = 'mp'
degauss = 0.01
assume_isolated = 'esm'
esm_bc = 'bc1'
input_dft = 'BEEF-VDW'
nosym = .true.
nspin = 2
ntyp = 4
nat = 33
starting_magnetization(1) = 0.0
starting_magnetization(2) = 0.0
starting_magnetization(3) = 0.001
starting_magnetization(4) = 0.0
/
&ELECTRONS
electron_maxstep = 300
mixing_beta = 0.1
conv_thr = 1e-06
/
&IONS
ion_dynamics = 'bfgs'
upscale = 1.0
/
&CELL
/

K_POINTS {automatic}
9 6 2 0  0  0

ATOMIC_SPECIES
C 12.01 C.pbe-n-rrkjus_psl.1.0.0.UPF
Hf 178.4 Hf.pbe-spn-rrkjus_psl.1.0.0.UPF
Ni 58.69 ni_pbe_v1.4.uspp.F.UPF
Sn 118.7 Sn.pbe-dn-rrkjus_psl.1.0.0.UPF

CELL_PARAMETERS {angstrom}
6.29417000 0.00000000 0.00000000
0.00000000 8.90130000 0.00000000
0.00000000 0.00000000 26.67600000

ATOMIC_POSITIONS {angstrom}
Hf 0.00000000 0.00000000 -3.3379678799999972 0 0 0
Hf 3.14708500 2.22532500 -1.112655959999998 0 0 0
Hf 3.14708500 6.67597500 -1.112655959999998 0 0 0
Hf 0.00000000 4.45065000 -3.3379678799999972 0 0 0
Hf 0.00000000 4.45065000 1.11719088
Hf 3.14708500 6.76116044 3.37931568
Hf 3.14708500 2.14013956 3.37931568
Hf 0.00000000 0.00000000 1.12626072
Ni 1.57354250 0.00000000 -1.112655959999998 0 0 0
Ni 4.72062750 4.45065000 -1.112655959999998 0 0 0
Ni 4.72062750 0.00000000 -1.112655959999998 0 0 0
Ni 1.57354250 4.45065000 -1.112655959999998 0 0 0
Ni 4.72062750 6.67597500 -3.3379678799999972 0 0 0
Ni 1.57354250 2.22532500 -3.3379678799999972 0 0 0
Ni 1.57354250 6.67597500 -3.3379678799999972 0 0 0
Ni 4.72062750 2.22532500 -3.3379678799999972 0 0 0
Ni 1.61237753 4.45065000 3.19738536
Ni 4.98554912 0.00000000 3.33236592
Ni 4.68179247 4.45065000 3.19738536
Ni 1.30862088 0.00000000 3.33236592
Ni 4.67933774 2.22924157 1.16707500
Ni 1.61489520 6.67205843 1.16707500
Ni 1.61483226 2.22924157 1.16707500
Ni 4.67927480 6.67205843 1.16707500
Sn 0.00000000 6.67597500 -1.112655959999998 0 0 0
Sn 3.14708500 0.00000000 -3.3379678799999972 0 0 0
Sn 0.00000000 2.22532500 -1.112655959999998 0 0 0
Sn 3.14708500 4.45065000 -3.3379678799999972 0 0 0
Sn 0.00000000 2.29947283 3.50282556
Sn 3.14708500 4.45065000 1.08411264
Sn 0.00000000 6.60182717 3.50282556
Sn 3.14708500 0.00000000 1.11612384
C 3.14708500 0.00000000 3.83467500
