&CONTROL
calculation = 'relax'
prefix = 'scf'
pseudo_dir = '/vol0403/data/hp230205/u10028/POT_HYBRID_KKJUS_GBRV'
outdir = './data'
tprnfor = .true.
nstep = 50
disk_io = 'non'
/
&SYSTEM
ibrav = 0
ecutwfc = 50.0
ecutrho = 400
occupations = 'smearing'
smearing = 'mp'
degauss = 0.01
assume_isolated = 'esm'
esm_bc = 'bc1'
input_dft = 'BEEF-VDW'
nosym = .true.
nspin = 1
ntyp = 6
nat = 34
/
&ELECTRONS
electron_maxstep = 200
mixing_beta = 0.1
conv_thr = 1e-06
/
&IONS
ion_dynamics = 'bfgs'
upscale = 1.0
/
&CELL
/

K_POINTS {automatic}
9 6 2 0  0  0

ATOMIC_SPECIES
C 12.01 C.pbe-n-rrkjus_psl.1.0.0.UPF
Ga 69.72 Ga.pbe-dnl-rrkjus_psl.1.0.0.UPF
In 114.8 In.pbe-dn-rrkjus_psl.1.0.0.UPF
Li 6.941 Li.pbe-sl-rrkjus_psl.1.0.0.UPF
O 15.99 O.pbe-n-rrkjus_psl.1.0.0.UPF
Pd 106.4 Pd.pbe-n-rrkjus_psl.1.0.0.UPF


CELL_PARAMETERS {angstrom}
6.46680000 0.00000000 0.00000000
0.00000000 9.14544000 0.00000000
0.00000000 0.00000000 26.85910000

ATOMIC_POSITIONS {angstrom}
Li 4.85010000 0.00000000 -1.1431233000000027 0 0 0
Li 4.85010000 4.57272000 -1.1431233000000027 0 0 0
Li 1.61670000 2.28636000 -3.4296384800000013 0 0 0
Li 1.61670000 6.85908000 -3.4296384800000013 0 0 0
Li 4.71778927 4.58918179 3.65176324
Li 4.71772460 9.12897821 3.65203183
Li 1.40704634 6.85908000 1.32334786
Li 1.41209045 2.28636000 1.20167613
In 0.00000000 2.28636000 -1.1431233000000027 0 0 0
In 0.00000000 6.85908000 -1.1431233000000027 0 0 0
In 3.23340000 4.57272000 -3.4296384800000013 0 0 0
In 3.23340000 0.00000000 -3.4296384800000013 0 0 0
In 6.43453067 6.85908000 4.00442322
In 0.03162265 2.28636000 3.93996138
In 3.26153058 9.08398264 1.14795793
In 3.26153058 4.63417736 1.14795793
Ga 0.00000000 0.00000000 -3.4296384800000013 0 0 0
Ga 0.00000000 4.57272000 -3.4296384800000013 0 0 0
Ga 3.23340000 6.85908000 -1.1431233000000027 0 0 0
Ga 3.23340000 2.28636000 -1.1431233000000027 0 0 0
Ga 6.36721128 4.57884744 1.23739874
Ga 6.36727595 9.13931256 1.23739874
Ga 3.02478103 2.28645145 3.30528085
Ga 3.11809696 6.85917145 3.60368545
Pd 1.61670000 0.00000000 -1.1431233000000027 0 0 0
Pd 1.61670000 4.57272000 -1.1431233000000027 0 0 0
Pd 4.85010000 2.28636000 -3.4296384800000013 0 0 0
Pd 4.85010000 6.85908000 -3.4296384800000013 0 0 0
Pd 1.54116778 4.59375451 3.26579797
Pd 1.54116778 9.12440549 3.26606656
Pd 4.95744888 6.85917145 1.14607780
Pd 4.87835992 2.28636000 1.30186058
C 3.98031540 2.28636000 5.17171971
O 3.83778713 2.28636000 6.33176423
