&CONTROL
calculation = 'relax'
prefix = 'scf'
pseudo_dir = '/vol0004/mdt0/data/hp150275/u10028/POT_KKJUS'
outdir = './data'
tprnfor = .true.
nstep = 50
disk_io = 'non'
/
&SYSTEM
ibrav = 0
ecutwfc = 50.0
ecutrho = 400
occupations = 'smearing'
smearing = 'mp'
degauss = 0.01
assume_isolated = 'esm'
esm_bc = 'bc1'
input_dft = 'BEEF-VDW'
nosym = .true.
nspin = 1
ntyp = 3
nat = 17
/
&ELECTRONS
electron_maxstep = 200
mixing_beta = 0.1
conv_thr = 1e-06
/
&IONS
ion_dynamics = 'bfgs'
upscale = 1.0
/
&CELL
/

K_POINTS {automatic}
6 8 1 0 0 0

ATOMIC_SPECIES
Ag 107.8 Ag.pbe-n-rrkjus_psl.1.0.0.UPF
C 12.01 C.pbe-n-rrkjus_psl.1.0.0.UPF
Pt 195.0 Pt.pbe-n-rrkjus_psl.1.0.0.UPF

CELL_PARAMETERS {angstrom}
8.32195000 0.00000000 0.00000000
0.00000000 5.88450000 0.00000000
0.00000000 0.00000000 24.41340000

ATOMIC_POSITIONS {angstrom}
Ag 8.29814922 2.95813815 2.21868979
Ag 2.08057072 4.33040355 0.64304896
Ag 2.08065394 1.57363299 0.63572494
Ag 0.00000000 0.00000000 -0.735575739999998 0 0 0
Ag 2.08048750 1.47112500 -2.2067272299999985 0 0 0
Ag 2.08048750 4.41337500 -2.2067272299999985 0 0 0
Ag 4.18477578 2.95813815 2.21868979
Ag 6.24129606 4.45621416 0.84470364
Ag 6.24129606 1.43687721 0.86667570
Ag 4.16097500 0.00000000 -0.735575739999998 0 0 0
Ag 6.24146250 1.47112500 -2.2067272299999985 0 0 0
Ag 6.24146250 4.41337500 -2.2067272299999985 0 0 0
Pt 0.27803635 0.01883040 2.22284007
Pt 0.00000000 2.94225000 -0.735575739999998 0 0 0
Pt 3.88302187 0.01888925 2.22284007
Pt 4.16097500 2.94225000 -0.735575739999998 0 0 0
C 2.08048750 0.02477375 2.68864774
