&CONTROL
calculation = 'relax'
prefix = 'scf'
pseudo_dir = '/vol0403/data/hp230205/u10028/POT_HYBRID_KKJUS_GBRV'
outdir = './data'
tprnfor = .true.
nstep = 70
disk_io = 'non'
/
&SYSTEM
ibrav = 0
ecutwfc = 50.0
ecutrho = 400
occupations = 'smearing'
smearing = 'mp'
degauss = 0.01
assume_isolated = 'esm'
esm_bc = 'bc1'
input_dft = 'BEEF-VDW'
nosym = .true.
nspin = 1
ntyp = 6
nat = 34
/
&ELECTRONS
electron_maxstep = 200
mixing_beta = 0.1
conv_thr = 1e-06
/
&IONS
ion_dynamics = 'bfgs'
upscale = 1.0
/
&CELL
/

K_POINTS {automatic}
6 6 1 0 0 0

ATOMIC_SPECIES
C 12.01 C.pbe-n-rrkjus_psl.1.0.0.UPF
Ga 69.72 Ga.pbe-dnl-rrkjus_psl.1.0.0.UPF
Mg 24.30 Mg.pbe-spnl-rrkjus_psl.1.0.0.UPF
O 15.99 O.pbe-n-rrkjus_psl.1.0.0.UPF
Pd 106.4 Pd.pbe-n-rrkjus_psl.1.0.0.UPF
Sc 44.95 Sc.pbe-spn-rrkjus_psl.1.0.0.UPF


CELL_PARAMETERS {angstrom}
6.56469000 0.00000000 0.00000000
-0.00000000 9.28388000 0.00000000
0.00000000 0.00000000 26.96290000

ATOMIC_POSITIONS {angstrom}
Mg 1.64117250 0.00000000 -1.1604832199999997 0 0 0
Mg 1.64117250 4.64194000 -1.1604832199999997 0 0 0
Mg 4.92351750 2.32097000 -3.481449650000002 0 0 0
Mg 4.92351750 6.96291000 -3.481449650000002 0 0 0
Mg 1.65955363 4.64194000 3.58552644
Mg 1.64314191 -0.00000000 3.62354413
Mg 4.88596747 6.99298977 1.19391721
Mg 4.88596747 2.29089023 1.19391721
Sc 4.92351750 0.00000000 -1.1604832199999997 0 0 0
Sc 4.92351750 4.64194000 -1.1604832199999997 0 0 0
Sc 1.64117250 2.32097000 -3.481449650000002 0 0 0
Sc 1.64117250 6.96291000 -3.481449650000002 0 0 0
Sc 4.89975332 4.64194000 3.60520936
Sc 4.91419564 -0.00000000 3.56314723
Sc 1.65062565 6.93218036 1.19256907
Sc 1.65062565 2.35169964 1.19256907
Ga 0.00000000 0.00000000 -3.481449650000002 0 0 0
Ga 0.00000000 4.64194000 -3.481449650000002 0 0 0
Ga 3.28234500 6.96291000 -1.1604832199999997 0 0 0
Ga 3.28234500 2.32097000 -1.1604832199999997 0 0 0
Ga 6.48197491 4.64194000 1.26024595
Ga 0.01969407 0.00000000 1.23274379
Ga 3.27105373 2.30722986 3.70497209
Ga 3.27111938 6.97665014 3.70497209
Pd 0.00000000 2.32097000 -1.1604832199999997 0 0 0
Pd 0.00000000 6.96291000 -1.1604832199999997 0 0 0
Pd 3.28234500 4.64194000 -3.481449650000002 0 0 0
Pd 3.28234500 0.00000000 -3.481449650000002 0 0 0
Pd 0.03755003 6.93162332 3.31293152
Pd 0.03761567 2.35225668 3.31293152
Pd 3.25149096 -0.00000000 1.19176018
Pd 3.37969935 4.64194000 1.22007123
C 4.86752069 -0.00000000 5.85499374
O 4.83981770 -0.00000000 7.00415253
