&CONTROL
calculation = 'relax'
prefix = 'scf'
pseudo_dir = '/vol0004/mdt0/data/hp150275/u10028/POT_HYBRID_KKJUS_GBRV'
outdir = './data'
tprnfor = .true.
nstep = 50
disk_io = 'non'
/
&SYSTEM
ibrav = 0
ecutwfc = 50.0
ecutrho = 400
occupations = 'smearing'
smearing = 'mp'
degauss = 0.01
assume_isolated = 'esm'
esm_bc = 'bc1'
input_dft = 'BEEF-VDW'
nosym = .true.
nspin = 2
ntyp = 5
nat = 34
starting_magnetization(1) = 0.0
starting_magnetization(2) = 0.0
starting_magnetization(3) = 0.1
starting_magnetization(4) = 0.001
starting_magnetization(5) = 0.0
/
&ELECTRONS
electron_maxstep = 200
mixing_beta = 0.1
conv_thr = 1e-06
/
&IONS
ion_dynamics = 'bfgs'
upscale = 1.0
/
&CELL
/

K_POINTS {automatic}
9 6 2 0  0  0

ATOMIC_SPECIES
Al 26.98 Al.pbe-nl-rrkjus_psl.1.0.0.UPF
C 12.01 C.pbe-n-rrkjus_psl.1.0.0.UPF
Mn 54.93 mn_pbe_v1.5.uspp.F.UPF
Ni 58.69 ni_pbe_v1.4.uspp.F.UPF
O 15.99 O.pbe-n-rrkjus_psl.1.0.0.UPF

CELL_PARAMETERS {angstrom}
5.81764000 0.00000000 0.00000000
0.00000000 8.22738000 0.00000000
0.00000000 0.00000000 26.17050000

ATOMIC_POSITIONS {angstrom}
Mn 0.00000000 0.00000000 23.08525975
Mn 2.90882000 2.05684500 25.14199935
Mn 2.90882000 6.17053500 25.14199935
Mn 0.00000000 4.11369000 23.08525975
Mn 5.80786636 4.11360773 0.98950661
Mn 2.91568482 6.12857536 3.16453686
Mn 2.91574299 2.09864009 3.16375174
Mn 0.00477046 0.00008227 1.00887277
Al 0.00000000 6.17053500 25.14199935
Al 2.90882000 0.00000000 23.08525975
Al 0.00000000 2.05684500 25.14199935
Al 2.90882000 4.11369000 23.08525975
Al 5.78378134 2.06655331 3.06796771
Al 2.89852278 4.11377227 1.02012609
Al 5.78378134 6.16074442 3.06849112
Al 2.88502585 8.22721545 1.01384517
Ni 1.45441000 0.00000000 25.14199935
Ni 4.36323000 4.11369000 25.14199935
Ni 4.36323000 0.00000000 25.14199935
Ni 1.45441000 4.11369000 25.14199935
Ni 4.36323000 6.17053500 23.08525975
Ni 1.45441000 2.05684500 23.08525975
Ni 1.45441000 6.17053500 23.08525975
Ni 4.36323000 2.05684500 23.08525975
Ni 1.38535461 4.11344318 2.95988355
Ni 4.39284179 0.00024682 2.92769383
Ni 4.39900849 4.11344318 2.96328572
Ni 1.40135312 0.00024682 3.12161724
Ni 4.33710880 2.04919354 1.01541540
Ni 1.45848235 6.18550883 1.04315613
Ni 1.45865688 2.04187117 1.04263272
Ni 4.33722515 6.17818646 1.01593881
C 2.00080275 0.00024682 4.79260366
O 2.26585443 0.00008227 5.92421608
