&CONTROL
calculation = 'relax'
prefix = 'scf'
pseudo_dir = '/vol0403/data/hp230205/u10028/POT_HYBRID_KKJUS_GBRV'
outdir = './data'
tprnfor = .true.
nstep = 50
disk_io = 'non'
/
&SYSTEM
ibrav = 0
ecutwfc = 50.0
ecutrho = 400
occupations = 'smearing'
smearing = 'mp'
degauss = 0.01
assume_isolated = 'esm'
esm_bc = 'bc1'
input_dft = 'BEEF-VDW'
nosym = .true.
nspin = 1
ntyp = 6
nat = 18
/
&ELECTRONS
electron_maxstep = 200
mixing_beta = 0.1
conv_thr = 1e-06
/
&IONS
ion_dynamics = 'bfgs'
upscale = 1.0
/
&CELL
/

K_POINTS {automatic}
11 7 2 0  0  0

ATOMIC_SPECIES
C 12.01 C.pbe-n-rrkjus_psl.1.0.0.UPF
Ge 72.64 Ge.pbe-dn-rrkjus_psl.1.0.0.UPF
In 114.8 In.pbe-dn-rrkjus_psl.1.0.0.UPF
Li 6.941 Li.pbe-sl-rrkjus_psl.1.0.0.UPF
O 15.99 O.pbe-n-rrkjus_psl.1.0.0.UPF
Sc 44.95 Sc.pbe-spn-rrkjus_psl.1.0.0.UPF


CELL_PARAMETERS {angstrom}
5.77954000 0.00000000 0.00000000
0.00000000 8.97372000 0.00000000
0.00000000 0.00000000 24.33440000

ATOMIC_POSITIONS {angstrom}
Li 1.42823992 2.24343000 -0.7224883399999982 0 0 0
Li 3.98522401 2.24845528 2.42516630
Li 1.42823992 6.73029000 -0.7224883399999982 0 0 0
Li 4.01452628 6.72607235 2.30008749
Sc 2.88977000 0.00000000 -2.167221659999999 0 0 0
Sc 5.67175158 0.00233317 0.70423754
Sc 2.88977000 4.48686000 -2.167221659999999 0 0 0
Sc 5.66707015 4.48138603 0.70740101
In 4.31800992 2.24343000 -0.7224883399999982 0 0 0
In 1.11712729 2.24953213 2.29059707
In 4.31800992 6.73029000 -0.7224883399999982 0 0 0
In 1.11990147 6.72804657 2.30592774
Ge 0.00000000 0.00000000 -2.167221659999999 0 0 0
Ge 2.73557187 8.95029859 1.01523117
Ge 0.00000000 4.48686000 -2.167221659999999 0 0 0
Ge 2.72932997 4.51081983 1.01790795
C 3.40669206 2.25545478 4.45368189
O 3.10291944 2.25760848 5.55627355
