&CONTROL
calculation = 'relax'
prefix = 'scf'
pseudo_dir = '/vol0403/data/hp230205/u10028/POT_HYBRID_KKJUS_GBRV'
outdir = './data'
tprnfor = .true.
nstep = 70
disk_io = 'non'
/
&SYSTEM
ibrav = 0
ecutwfc = 50.0
ecutrho = 400
occupations = 'smearing'
smearing = 'mp'
degauss = 0.01
assume_isolated = 'esm'
esm_bc = 'bc1'
input_dft = 'BEEF-VDW'
nosym = .true.
nspin = 1
ntyp = 4
nat = 32
/
&ELECTRONS
electron_maxstep = 200
mixing_beta = 0.1
conv_thr = 1e-06
/
&IONS
ion_dynamics = 'bfgs'
upscale = 1.0
/
&CELL
/

K_POINTS {automatic}
6 6 1 0 0 0

ATOMIC_SPECIES
Al 26.98 Al.pbe-nl-rrkjus_psl.1.0.0.UPF
Cu 63.54 Cu.pbe-dn-rrkjus_psl.1.0.0.UPF
In 114.8 In.pbe-dn-rrkjus_psl.1.0.0.UPF
Pd 106.4 Pd.pbe-n-rrkjus_psl.1.0.0.UPF


CELL_PARAMETERS {angstrom}
6.36006000 0.00000000 0.00000000
-0.00000000 8.99448000 0.00000000
0.00000000 0.00000000 26.74590000

ATOMIC_POSITIONS {angstrom}
Al 0.00000000 0.00000000 -3.3729254500000003 0 0 0
Al 0.00000000 4.49724000 -3.3729254500000003 0 0 0
Al 3.18003000 6.74586000 -1.124397639999998 0 0 0
Al 3.18003000 2.24862000 -1.124397639999998 0 0 0
Al 0.00775927 4.49724000 1.32766648
Al 0.00775927 0.00000000 1.32766648
Al 3.19300452 2.24862000 3.36757627
Al 3.19300452 6.74586000 3.36784373
In 0.00000000 2.24862000 -1.124397639999998 0 0 0
In 0.00000000 6.74586000 -1.124397639999998 0 0 0
In 3.18003000 4.49724000 -3.3729254500000003 0 0 0
In 3.18003000 0.00000000 -3.3729254500000003 0 0 0
In 0.07555751 6.74586000 4.03354918
In 0.07555751 2.24862000 4.03354918
In 3.16533826 -0.00000000 1.11316436
In 3.16533826 4.49724000 1.11316436
Cu 1.59001500 0.00000000 -1.124397639999998 0 0 0
Cu 1.59001500 4.49724000 -1.124397639999998 0 0 0
Cu 4.77004500 2.24862000 -3.3729254500000003 0 0 0
Cu 4.77004500 6.74586000 -3.3729254500000003 0 0 0
Cu 1.70729451 4.49724000 3.42053315
Cu 1.70729451 -0.00000000 3.42053315
Cu 4.95327833 6.74586000 1.37634401
Cu 4.95321473 2.24862000 1.37607656
Pd 4.77004500 0.00000000 -1.124397639999998 0 0 0
Pd 4.77004500 4.49724000 -1.124397639999998 0 0 0
Pd 1.59001500 2.24862000 -3.3729254500000003 0 0 0
Pd 1.59001500 6.74586000 -3.3729254500000003 0 0 0
Pd 4.70275557 4.49724000 3.36944848
Pd 4.70275557 -0.00000000 3.36944848
Pd 1.44996648 6.74586000 1.25197558
Pd 1.45003008 2.24862000 1.25197558
