&CONTROL
calculation = 'relax'
prefix = 'scf'
pseudo_dir = '/vol0403/data/hp230205/u10028/POT_HYBRID_KKJUS_GBRV'
outdir = './data'
tprnfor = .true.
nstep = 50
disk_io = 'non'
/
&SYSTEM
ibrav = 0
ecutwfc = 50.0
ecutrho = 400
occupations = 'smearing'
smearing = 'mp'
degauss = 0.01
assume_isolated = 'esm'
esm_bc = 'bc1'
input_dft = 'BEEF-VDW'
nosym = .true.
nspin = 1
ntyp = 6
nat = 34
/
&ELECTRONS
electron_maxstep = 200
mixing_beta = 0.1
conv_thr = 1e-06
/
&IONS
ion_dynamics = 'bfgs'
upscale = 1.0
/
&CELL
/

K_POINTS {automatic}
7 7 2 0  0  0

ATOMIC_SPECIES
C 12.01 C.pbe-n-rrkjus_psl.1.0.0.UPF
Ga 69.72 Ga.pbe-dnl-rrkjus_psl.1.0.0.UPF
Ge 72.64 Ge.pbe-dn-rrkjus_psl.1.0.0.UPF
O 15.99 O.pbe-n-rrkjus_psl.1.0.0.UPF
Pd 106.4 Pd.pbe-n-rrkjus_psl.1.0.0.UPF
Sc 44.95 Sc.pbe-spn-rrkjus_psl.1.0.0.UPF


CELL_PARAMETERS {angstrom}
8.58414000 0.00000000 0.00000000
0.00000000 7.83718000 0.00000000
0.00000000 0.00000000 26.06500000

ATOMIC_POSITIONS {angstrom}
Sc 2.14603500 0.00000000 -1.0108007000000008 0 0 0
Sc 2.14603500 0.00000000 3.12962455
Sc 2.14603500 3.91859000 -1.0108007000000008 0 0 0
Sc 2.14603500 3.91859000 3.10668735
Sc 6.43810500 0.00000000 -1.0108007000000008 0 0 0
Sc 6.43810500 0.00000000 3.11763465
Sc 6.43810500 3.91859000 -1.0108007000000008 0 0 0
Sc 6.43810500 3.91859000 3.11242165
Ga 0.00000000 0.00000000 -3.0324021000000023 0 0 0
Ga 8.58293822 0.00000000 1.01809890
Ga 0.00000000 3.91859000 -3.0324021000000023 0 0 0
Ga 0.00343366 3.91859000 0.99802885
Ga 4.29207000 0.00000000 -3.0324021000000023 0 0 0
Ga 4.29327178 0.00000000 1.01809890
Ga 4.29207000 3.91859000 -3.0324021000000023 0 0 0
Ga 4.28863634 3.91859000 0.99802885
Ge 2.14603500 1.95929500 -3.0324021000000023 0 0 0
Ge 2.14603500 1.96062732 1.03034945
Ge 2.14603500 5.87788500 -3.0324021000000023 0 0 0
Ge 2.14603500 5.87655268 1.03034945
Ge 6.43810500 1.95929500 -3.0324021000000023 0 0 0
Ge 6.43810500 1.96188127 1.02643970
Ge 6.43810500 5.87788500 -3.0324021000000023 0 0 0
Ge 6.43810500 5.87529873 1.02643970
Pd 0.00000000 1.95929500 -1.0108007000000008 0 0 0
Pd 8.55958936 1.97943655 2.87444820
Pd 0.00000000 5.87788500 -1.0108007000000008 0 0 0
Pd 8.55958936 5.85774345 2.87444820
Pd 4.29207000 1.95929500 -1.0108007000000008 0 0 0
Pd 4.31662064 1.97943655 2.87444820
Pd 4.29207000 5.87788500 -1.0108007000000008 0 0 0
Pd 4.31662064 5.85774345 2.87444820
C 2.14603500 0.00000000 5.43872290
O 2.14603500 0.00000000 6.58636485
