&CONTROL
calculation = 'relax'
prefix = 'scf'
pseudo_dir = '/vol0004/mdt0/data/hp150275/u10028/POT_HYBRID_KKJUS_GBRV'
outdir = './data'
tprnfor = .true.
nstep = 50
disk_io = 'non'
/
&SYSTEM
ibrav = 0
ecutwfc = 50.0
ecutrho = 400
occupations = 'smearing'
smearing = 'mp'
degauss = 0.01
assume_isolated = 'esm'
esm_bc = 'bc1'
input_dft = 'BEEF-VDW'
nosym = .true.
nspin = 2
ntyp = 4
nat = 34
starting_magnetization(1) = 0.0
starting_magnetization(2) = 0.001
starting_magnetization(3) = 0.0
starting_magnetization(4) = 0.0
/
&ELECTRONS
electron_maxstep = 300
mixing_beta = 0.1
conv_thr = 1e-06
/
&IONS
ion_dynamics = 'bfgs'
upscale = 1.0
/
&CELL
/

K_POINTS {automatic}
8 6 1 0 0 0

ATOMIC_SPECIES
C 12.01 C.pbe-n-rrkjus_psl.1.0.0.UPF
Ni 58.69 ni_pbe_v1.4.uspp.F.UPF
O 15.99 O.pbe-n-rrkjus_psl.1.0.0.UPF
Sn 118.7 Sn.pbe-dn-rrkjus_psl.1.0.0.UPF

CELL_PARAMETERS {angstrom}
5.96895000 0.00000000 0.00000000
0.00000000 8.44136000 0.00000000
0.00000000 0.00000000 26.33100000

ATOMIC_POSITIONS {angstrom}
Ni 1.49223750 0.00000000 -1.0550831699999996 0 0 0
Ni 4.47671250 4.22068000 -1.0550831699999996 0 0 0
Ni 4.47671250 0.00000000 -1.0550831699999996 0 0 0
Ni 1.49223750 4.22068000 -1.0550831699999996 0 0 0
Ni 4.47671250 6.33102000 -3.16551282 0 0 0
Ni 1.49223750 2.11034000 -3.16551282 0 0 0
Ni 1.49223750 6.33102000 -3.16551282 0 0 0
Ni 4.47671250 2.11034000 -3.16551282 0 0 0
Ni 0.00000000 6.33102000 -1.0550831699999996 0 0 0
Ni 2.98447500 0.00000000 -3.16551282 0 0 0
Ni 0.00000000 2.11034000 -1.0550831699999996 0 0 0
Ni 2.98447500 4.22068000 -3.16551282 0 0 0
Ni 1.42998135 4.38385149 3.07072122
Ni 4.57746838 0.16089232 3.17420205
Ni 4.53878958 4.38410473 3.07045791
Ni 1.39189945 0.16148322 3.17551860
Ni 4.34515684 2.05133489 1.13486610
Ni 1.47922519 6.27041104 1.05903282
Ni 1.62415130 2.05184138 1.13460279
Ni 4.49008295 6.27100193 1.05955944
Ni 5.96853217 2.27933603 3.04702332
Ni 2.98459438 4.22017352 1.06087599
Ni 0.00107441 6.51166510 3.14681781
Ni 2.98429593 8.36293977 1.10116242
Sn 0.00000000 0.00000000 -3.16551282 0 0 0
Sn 2.98447500 2.11034000 -1.0550831699999996 0 0 0
Sn 2.98447500 6.33102000 -1.0550831699999996 0 0 0
Sn 0.00000000 4.22068000 -3.16551282 0 0 0
Sn 5.96889031 4.10748136 0.99030891
Sn 2.98393779 6.48119179 3.25688139
Sn 2.98483314 2.28254374 3.43198254
Sn 0.00059690 0.00489599 0.99715497
C 5.96883062 8.00975326 4.43887998
O 5.96817404 7.98687718 5.62772463
