&CONTROL
calculation = 'relax'
prefix = 'scf'
pseudo_dir = '/vol0004/mdt0/data/hp150275/u10028/POT_HYBRID_KKJUS_GBRV'
outdir = './data'
tprnfor = .true.
nstep = 50
disk_io = 'non'
/
&SYSTEM
ibrav = 0
ecutwfc = 50.0
ecutrho = 400
occupations = 'smearing'
smearing = 'mp'
degauss = 0.01
assume_isolated = 'esm'
esm_bc = 'bc1'
input_dft = 'BEEF-VDW'
nosym = .true.
nspin = 2
ntyp = 4
nat = 34
starting_magnetization(1) = 0.0
starting_magnetization(2) = 0.001
starting_magnetization(3) = 0.0
starting_magnetization(4) = 0.0
/
&ELECTRONS
electron_maxstep = 300
mixing_beta = 0.1
conv_thr = 1e-06
/
&IONS
ion_dynamics = 'bfgs'
upscale = 1.0
/
&CELL
/

K_POINTS {automatic}
8 6 1 0 0 0

ATOMIC_SPECIES
C 12.01 C.pbe-n-rrkjus_psl.1.0.0.UPF
Ni 58.69 ni_pbe_v1.4.uspp.F.UPF
O 15.99 O.pbe-n-rrkjus_psl.1.0.0.UPF
Sn 118.7 Sn.pbe-dn-rrkjus_psl.1.0.0.UPF

CELL_PARAMETERS {angstrom}
5.96895000 0.00000000 0.00000000
0.00000000 8.44136000 0.00000000
0.00000000 0.00000000 26.33100000

ATOMIC_POSITIONS {angstrom}
Ni 1.49223750 0.00000000 -1.0550831699999996 0 0 0
Ni 4.47671250 4.22068000 -1.0550831699999996 0 0 0
Ni 4.47671250 0.00000000 -1.0550831699999996 0 0 0
Ni 1.49223750 4.22068000 -1.0550831699999996 0 0 0
Ni 4.47671250 6.33102000 -3.16551282 0 0 0
Ni 1.49223750 2.11034000 -3.16551282 0 0 0
Ni 1.49223750 6.33102000 -3.16551282 0 0 0
Ni 4.47671250 2.11034000 -3.16551282 0 0 0
Ni 0.00000000 6.33102000 -1.0550831699999996 0 0 0
Ni 2.98447500 0.00000000 -3.16551282 0 0 0
Ni 0.00000000 2.11034000 -1.0550831699999996 0 0 0
Ni 2.98447500 4.22068000 -3.16551282 0 0 0
Ni 1.38485609 4.29943789 3.10389828
Ni 4.48793413 0.05436236 3.12469977
Ni 4.57460328 4.29268480 3.10152849
Ni 1.48018022 0.05309615 3.12891273
Ni 4.39058055 2.08628212 1.12433370
Ni 1.54058600 6.33237062 1.10669193
Ni 1.56338738 2.08248351 1.11748764
Ni 4.43397482 6.33186414 1.10827179
Ni 0.00370075 2.13963152 3.04807656
Ni 2.98996643 4.22169296 1.06640550
Ni 0.00005969 6.48102297 3.20579925
Ni 2.98387811 8.42481493 1.05613641
Sn 0.00000000 0.00000000 -3.16551282 0 0 0
Sn 2.98447500 2.11034000 -1.0550831699999996 0 0 0
Sn 2.98447500 6.33102000 -1.0550831699999996 0 0 0
Sn 0.00000000 4.22068000 -3.16551282 0 0 0
Sn 0.00280541 4.19873246 0.99794490
Sn 2.98005798 6.34233142 3.32981826
Sn 2.98208742 2.21746086 3.41223429
Sn 0.00173100 8.43452250 0.99557511
C 0.00077596 8.14869805 4.36646973
O 0.00119379 8.24391659 5.57137629
