&CONTROL
calculation = 'relax'
prefix = 'scf'
pseudo_dir = '/vol0004/mdt0/data/hp150275/u10028/POT_KKJUS'
outdir = './data'
tprnfor = .true.
nstep = 50
disk_io = 'non'
/
&SYSTEM
ibrav = 0
ecutwfc = 50.0
ecutrho = 400
occupations = 'smearing'
smearing = 'mp'
degauss = 0.01
assume_isolated = 'esm'
esm_bc = 'bc1'
input_dft = 'BEEF-VDW'
nosym = .true.
nspin = 1
ntyp = 4
nat = 18
/
&ELECTRONS
electron_maxstep = 200
mixing_beta = 0.1
conv_thr = 1e-06
/
&IONS
ion_dynamics = 'bfgs'
upscale = 1.0
/
&CELL
/

K_POINTS {automatic}
8 11 2 0  0  0

ATOMIC_SPECIES
C 12.01 C.pbe-n-rrkjus_psl.1.0.0.UPF
O 15.99 O.pbe-n-rrkjus_psl.1.0.0.UPF
Pb 207.2 Pb.pbe-dn-rrkjus_psl.1.0.0.UPF
Pd 106.4 Pd.pbe-n-rrkjus_psl.1.0.0.UPF

CELL_PARAMETERS {angstrom}
8.32195000 0.00000000 0.00000000
0.00000000 5.88450000 0.00000000
0.00000000 0.00000000 24.41340000

ATOMIC_POSITIONS {angstrom}
Pd 0.00000000 2.94225000 -2.2067272299999985 0 0 0
Pd 2.08048750 4.41337500 -0.735575739999998 0 0 0
Pd 2.08048750 1.47112500 -0.735575739999998 0 0 0
Pd 0.00715688 5.87991009 0.69504950
Pd 2.08048750 1.34713859 2.11688591
Pd 2.08048750 4.40796126 2.04730772
Pd 4.16097500 2.94225000 -2.2067272299999985 0 0 0
Pd 6.24146250 4.41337500 -0.735575739999998 0 0 0
Pd 6.24146250 1.47112500 -0.735575739999998 0 0 0
Pd 4.15381812 5.87991009 0.69504950
Pd 6.24146250 1.39780413 2.05316694
Pd 6.24146250 4.48510706 2.04950493
Pb 0.00000000 0.00000000 -2.2067272299999985 0 0 0
Pb 8.29556942 2.94301499 0.83029973
Pb 4.16097500 0.00000000 -2.2067272299999985 0 0 0
Pb 4.18735558 2.94301499 0.83029973
C 2.08048750 1.48430628 4.02943167
O 2.08048750 1.50531395 5.17905868
