&CONTROL
calculation = 'relax'
prefix = 'scf'
pseudo_dir = '/vol0403/data/hp230205/u10028/POT_HYBRID_KKJUS_GBRV'
outdir = './data'
tprnfor = .true.
nstep = 70
disk_io = 'non'
/
&SYSTEM
ibrav = 0
ecutwfc = 50.0
ecutrho = 400
occupations = 'smearing'
smearing = 'mp'
degauss = 0.01
assume_isolated = 'esm'
esm_bc = 'bc1'
input_dft = 'BEEF-VDW'
nosym = .true.
nspin = 1
ntyp = 6
nat = 34
/
&ELECTRONS
electron_maxstep = 200
mixing_beta = 0.1
conv_thr = 1e-06
/
&IONS
ion_dynamics = 'bfgs'
upscale = 1.0
/
&CELL
/

K_POINTS {automatic}
6 6 1 0 0 0

ATOMIC_SPECIES
Al 26.98 Al.pbe-nl-rrkjus_psl.1.0.0.UPF
C 12.01 C.pbe-n-rrkjus_psl.1.0.0.UPF
Li 6.941 Li.pbe-sl-rrkjus_psl.1.0.0.UPF
O 15.99 O.pbe-n-rrkjus_psl.1.0.0.UPF
Pd 106.4 Pd.pbe-n-rrkjus_psl.1.0.0.UPF
Sn 118.7 Sn.pbe-dn-rrkjus_psl.1.0.0.UPF


CELL_PARAMETERS {angstrom}
6.48942000 0.00000000 0.00000000
-0.00000000 9.17742000 0.00000000
0.00000000 0.00000000 26.88310000

ATOMIC_POSITIONS {angstrom}
Li 4.86706500 0.00000000 -1.1471018799999975 0 0 0
Li 4.86706500 4.58871000 -1.1471018799999975 0 0 0
Li 1.62235500 2.29435500 -3.4415744599999982 0 0 0
Li 1.62235500 6.88306500 -3.4415744599999982 0 0 0
Li 4.86706500 4.58871000 3.44157446
Li 4.86706500 -0.00000000 3.44157446
Li 1.62235500 6.88306500 1.14710188
Li 1.62235500 2.29435500 1.14710188
Al 0.00000000 0.00000000 -3.4415744599999982 0 0 0
Al 0.00000000 4.58871000 -3.4415744599999982 0 0 0
Al 3.24471000 6.88306500 -1.1471018799999975 0 0 0
Al 3.24471000 2.29435500 -1.1471018799999975 0 0 0
Al 0.00000000 4.58871000 1.14710188
Al 0.00000000 0.00000000 1.14710188
Al 3.24471000 2.29435500 3.44157446
Al 3.24471000 6.88306500 3.44157446
Sn 0.00000000 2.29435500 -1.1471018799999975 0 0 0
Sn 0.00000000 6.88306500 -1.1471018799999975 0 0 0
Sn 3.24471000 4.58871000 -3.4415744599999982 0 0 0
Sn 3.24471000 0.00000000 -3.4415744599999982 0 0 0
Sn 0.00000000 6.88306500 3.44157446
Sn 0.00000000 2.29435500 3.44157446
Sn 3.24471000 -0.00000000 1.14710188
Sn 3.24471000 4.58871000 1.14710188
Pd 1.62235500 0.00000000 -1.1471018799999975 0 0 0
Pd 1.62235500 4.58871000 -1.1471018799999975 0 0 0
Pd 4.86706500 2.29435500 -3.4415744599999982 0 0 0
Pd 4.86706500 6.88306500 -3.4415744599999982 0 0 0
Pd 1.62235500 4.58871000 3.44157446
Pd 1.62235500 -0.00000000 3.44157446
Pd 4.86706500 6.88306500 1.14710188
Pd 4.86706500 2.29435500 1.14710188
C 3.24471000 2.29435500 5.34167197
O 3.24471000 2.29435500 6.49146216
