&CONTROL
calculation = 'relax'
prefix = 'scf'
pseudo_dir = '/vol0403/data/hp230205/u10028/POT_HYBRID_KKJUS_GBRV'
outdir = './data'
tprnfor = .true.
nstep = 70
disk_io = 'non'
/
&SYSTEM
ibrav = 0
ecutwfc = 50.0
ecutrho = 400
occupations = 'smearing'
smearing = 'mp'
degauss = 0.01
assume_isolated = 'esm'
esm_bc = 'bc1'
input_dft = 'BEEF-VDW'
nosym = .true.
nspin = 1
ntyp = 6
nat = 34
/
&ELECTRONS
electron_maxstep = 200
mixing_beta = 0.1
conv_thr = 1e-06
/
&IONS
ion_dynamics = 'bfgs'
upscale = 1.0
/
&CELL
/

K_POINTS {automatic}
6 6 1 0 0 0

ATOMIC_SPECIES
Al 26.98 Al.pbe-nl-rrkjus_psl.1.0.0.UPF
C 12.01 C.pbe-n-rrkjus_psl.1.0.0.UPF
Cu 63.54 Cu.pbe-dn-rrkjus_psl.1.0.0.UPF
Li 6.941 Li.pbe-sl-rrkjus_psl.1.0.0.UPF
Mg 24.30 Mg.pbe-spnl-rrkjus_psl.1.0.0.UPF
O 15.99 O.pbe-n-rrkjus_psl.1.0.0.UPF


CELL_PARAMETERS {angstrom}
6.19386000 0.00000000 0.00000000
-0.00000000 8.75944000 0.00000000
0.00000000 0.00000000 26.56960000

ATOMIC_POSITIONS {angstrom}
Li 1.54846500 0.00000000 -1.0949332200000015 0 0 0
Li 1.54846500 4.37972000 -1.0949332200000015 0 0 0
Li 4.64539500 2.18986000 -3.28479965 0 0 0
Li 4.64539500 6.56958000 -3.28479965 0 0 0
Li 1.98791937 4.37980759 4.29896128
Li 1.84812395 8.75935241 3.95222800
Li 4.72783528 6.56230966 1.12256560
Li 4.72777334 2.19721793 1.12256560
Mg 0.00000000 2.18986000 -1.0949332200000015 0 0 0
Mg 0.00000000 6.56958000 -1.0949332200000015 0 0 0
Mg 3.09693000 4.37972000 -3.28479965 0 0 0
Mg 3.09693000 0.00000000 -3.28479965 0 0 0
Mg 0.11440059 6.51570944 3.41658486
Mg 0.11458641 2.24364296 3.41658486
Mg 3.07419853 -0.00000000 1.14010154
Mg 3.03796445 4.37963241 1.17543910
Al 0.00000000 0.00000000 -3.28479965 0 0 0
Al 0.00000000 4.37972000 -3.28479965 0 0 0
Al 3.09693000 6.56958000 -1.0949332200000015 0 0 0
Al 3.09693000 2.18986000 -1.0949332200000015 0 0 0
Al 0.09408473 4.37972000 1.25195955
Al 0.10133155 0.00000000 1.27268384
Al 3.20990601 2.20045892 3.26912358
Al 3.20978213 6.55898108 3.26912358
Cu 4.64539500 0.00000000 -1.0949332200000015 0 0 0
Cu 4.64539500 4.37972000 -1.0949332200000015 0 0 0
Cu 1.54846500 2.18986000 -3.28479965 0 0 0
Cu 1.54846500 6.56958000 -3.28479965 0 0 0
Cu 4.61603610 4.37972000 3.20349667
Cu 4.62421200 -0.00000000 3.17905264
Cu 1.56407353 6.57317137 1.04126262
Cu 1.56407353 2.18618104 1.04126262
C 1.41498732 0.00026278 5.94441661
O 1.21300554 0.00061316 7.06963917
