&CONTROL
calculation = 'relax'
prefix = 'scf'
pseudo_dir = '/vol0004/mdt0/data/hp150275/u10028/POT_KKJUS'
outdir = './data'
tprnfor = .true.
nstep = 50
disk_io = 'non'
/
&SYSTEM
ibrav = 0
ecutwfc = 50.0
ecutrho = 400
occupations = 'smearing'
smearing = 'mp'
degauss = 0.01
assume_isolated = 'esm'
esm_bc = 'bc1'
input_dft = 'BEEF-VDW'
nosym = .true.
nspin = 1
ntyp = 4
nat = 33
/
&ELECTRONS
electron_maxstep = 200
mixing_beta = 0.1
conv_thr = 1e-06
/
&IONS
ion_dynamics = 'bfgs'
upscale = 1.0
/
&CELL
/

K_POINTS {automatic}
9 6 2 0  0  0

ATOMIC_SPECIES
Al 26.98 Al.pbe-nl-rrkjus_psl.1.0.0.UPF
C 12.01 C.pbe-n-rrkjus_psl.1.0.0.UPF
Cu 63.54 Cu.pbe-dn-rrkjus_psl.1.0.0.UPF
Hf 178.4 Hf.pbe-spn-rrkjus_psl.1.0.0.UPF

CELL_PARAMETERS {angstrom}
6.21964000 0.00000000 0.00000000
0.00000000 8.79589000 0.00000000
0.00000000 0.00000000 26.59690000

ATOMIC_POSITIONS {angstrom}
Hf 0.00000000 0.00000000 -3.2985475400000013 0 0 0
Hf 3.10982000 2.19897250 -1.099515850000003 0 0 0
Hf 3.10982000 6.59691750 -1.099515850000003 0 0 0
Hf 0.00000000 4.39794500 -3.2985475400000013 0 0 0
Hf 0.00000000 4.39794500 1.11095251
Hf 3.10982000 6.68127009 3.22327831
Hf 3.10982000 2.11461991 3.22327831
Hf 0.00000000 0.00000000 1.15457143
Al 0.00000000 6.59691750 -1.099515850000003 0 0 0
Al 3.10982000 0.00000000 -3.2985475400000013 0 0 0
Al 0.00000000 2.19897250 -1.099515850000003 0 0 0
Al 3.10982000 4.39794500 -3.2985475400000013 0 0 0
Al 0.00000000 2.27488103 3.28764281
Al 3.10982000 4.39794500 1.09552631
Al 0.00000000 6.52100897 3.28764281
Al 3.10982000 0.00000000 1.16840182
Cu 1.55491000 0.00000000 -1.099515850000003 0 0 0
Cu 4.66473000 4.39794500 -1.099515850000003 0 0 0
Cu 4.66473000 0.00000000 -1.099515850000003 0 0 0
Cu 1.55491000 4.39794500 -1.099515850000003 0 0 0
Cu 4.66473000 6.59691750 -3.2985475400000013 0 0 0
Cu 1.55491000 2.19897250 -3.2985475400000013 0 0 0
Cu 1.55491000 6.59691750 -3.2985475400000013 0 0 0
Cu 4.66473000 2.19897250 -3.2985475400000013 0 0 0
Cu 1.54707325 4.39794500 3.33764498
Cu 5.04014747 0.00000000 3.59802863
Cu 4.67256675 4.39794500 3.33764498
Cu 1.17949253 0.00000000 3.59802863
Cu 4.66883496 2.21304592 1.05084352
Cu 1.55080504 6.58284408 1.05084352
Cu 1.55080504 2.21304592 1.05084352
Cu 4.66883496 6.58284408 1.05084352
C 3.10982000 0.00000000 3.43685142
