&CONTROL
calculation = 'relax'
prefix = 'scf'
pseudo_dir = '/vol0004/mdt0/data/hp150275/u10028/POT_KKJUS'
outdir = './data'
tprnfor = .true.
nstep = 50
disk_io = 'non'
/
&SYSTEM
ibrav = 0
ecutwfc = 50.0
ecutrho = 400
occupations = 'smearing'
smearing = 'mp'
degauss = 0.01
assume_isolated = 'esm'
esm_bc = 'bc1'
input_dft = 'BEEF-VDW'
nosym = .true.
nspin = 1
ntyp = 5
nat = 18
/
&ELECTRONS
electron_maxstep = 200
mixing_beta = 0.1
conv_thr = 1e-06
/
&IONS
ion_dynamics = 'bfgs'
upscale = 1.0
/
&CELL
/

K_POINTS {automatic}
8 8 1 0 0 0

ATOMIC_SPECIES
Au 196.9 Au.pbe-n-rrkjus_psl.1.0.0.UPF
C 12.01 C.pbe-n-rrkjus_psl.1.0.0.UPF
In 114.8 In.pbe-dn-rrkjus_psl.1.0.0.UPF
Li 6.941 Li.pbe-sl-rrkjus_psl.1.0.0.UPF
O 15.99 O.pbe-n-rrkjus_psl.1.0.0.UPF

CELL_PARAMETERS {angstrom}
6.60991000 0.00000000 0.00000000
0.00000000 6.60991000 0.00000000
0.00000000 0.00000000 24.95740000

ATOMIC_POSITIONS {angstrom}
Li 0.00000000 0.00000000 -0.8263395100000004 0 0 0
Li 3.30495500 6.60984390 2.47702195
Li 0.00000000 3.30495500 2.47003388
Li 3.30495500 3.30495500 -0.8263395100000004 0 0 0
Li 1.65247750 1.65247750 -2.478768970000001 0 0 0
Li 1.79835821 4.81650922 0.92192636
Li 4.95743250 4.95743250 -2.478768970000001 0 0 0
Li 4.81148569 1.79333468 0.92192636
In 0.00013220 0.00013220 2.28534912
In 3.30495500 3.30488890 2.91128071
In 3.30495500 0.00000000 -0.8263395100000004 0 0 0
In 0.00000000 3.30495500 -0.8263395100000004 0 0 0
Au 1.79392957 1.79280589 0.86277732
Au 1.65247750 4.95743250 -2.478768970000001 0 0 0
Au 4.81604653 4.81717021 0.86277732
Au 4.95743250 1.65247750 -2.478768970000001 0 0 0
C 0.00019830 0.00033050 4.71894519
O 0.00006610 6.60984390 5.86723517
