&CONTROL
calculation = 'relax'
prefix = 'scf'
pseudo_dir = '/vol0403/data/hp230205/u10028/POT_HYBRID_KKJUS_GBRV'
outdir = './data'
tprnfor = .true.
nstep = 70
disk_io = 'non'
/
&SYSTEM
ibrav = 0
ecutwfc = 50.0
ecutrho = 400
occupations = 'smearing'
smearing = 'mp'
degauss = 0.01
assume_isolated = 'esm'
esm_bc = 'bc1'
input_dft = 'BEEF-VDW'
nosym = .true.
nspin = 1
ntyp = 5
nat = 17
/
&ELECTRONS
electron_maxstep = 200
mixing_beta = 0.1
conv_thr = 1e-06
/
&IONS
ion_dynamics = 'bfgs'
upscale = 1.0
/
&CELL
/

K_POINTS {automatic}
11 7 2 0  0  0

ATOMIC_SPECIES
C 12.01 C.pbe-n-rrkjus_psl.1.0.0.UPF
Ge 72.64 Ge.pbe-dn-rrkjus_psl.1.0.0.UPF
In 114.8 In.pbe-dn-rrkjus_psl.1.0.0.UPF
Pd 106.4 Pd.pbe-n-rrkjus_psl.1.0.0.UPF
Y 88.90 Y.pbe-spn-rrkjus_psl.1.0.0.UPF


CELL_PARAMETERS {angstrom}
5.95203000 0.00000000 0.00000000
-0.00000000 9.45024000 0.00000000
0.00000000 0.00000000 24.43650000

ATOMIC_POSITIONS {angstrom}
Y 2.95149264 0.43953066 2.30582814
Y 5.62187090 0.00000000 -0.7394484899999973 0 0 0
Y 2.95143312 4.28558934 2.30582814
Y 5.62187090 4.72512000 -0.7394484899999973 0 0 0
In 1.45170012 2.36256000 0.39880368
In 3.96881360 2.36256000 -2.218345469999999 0 0 0
In 1.06136599 7.08768000 1.25554737
In 3.96881360 7.08768000 -2.218345469999999 0 0 0
Ge 5.92923373 0.93538476 2.59735558
Ge 2.64585590 0.00000000 -0.7394484899999973 0 0 0
Ge 5.92923373 3.78982975 2.59735558
Ge 2.64585590 4.72512000 -0.7394484899999973 0 0 0
Pd 4.51223394 2.36256000 0.74946745
Pd 0.99279860 2.36256000 -2.218345469999999 0 0 0
Pd 4.01268007 7.08768000 0.72576405
Pd 0.99279860 7.08768000 -2.218345469999999 0 0 0
C 1.51407739 2.36256000 2.78062933
