&CONTROL
calculation = 'relax'
prefix = 'scf'
pseudo_dir = '/vol0403/data/hp230205/u10028/POT_HYBRID_KKJUS_GBRV'
outdir = './data'
tprnfor = .true.
nstep = 70
disk_io = 'non'
/
&SYSTEM
ibrav = 0
ecutwfc = 50.0
ecutrho = 400
occupations = 'smearing'
smearing = 'mp'
degauss = 0.01
assume_isolated = 'esm'
esm_bc = 'bc1'
input_dft = 'BEEF-VDW'
nosym = .true.
nspin = 1
ntyp = 6
nat = 18
/
&ELECTRONS
electron_maxstep = 200
mixing_beta = 0.1
conv_thr = 1e-06
/
&IONS
ion_dynamics = 'bfgs'
upscale = 1.0
/
&CELL
/

K_POINTS {automatic}
11 7 2 0  0  0

ATOMIC_SPECIES
C 12.01 C.pbe-n-rrkjus_psl.1.0.0.UPF
Ge 72.64 Ge.pbe-dn-rrkjus_psl.1.0.0.UPF
In 114.8 In.pbe-dn-rrkjus_psl.1.0.0.UPF
O 15.99 O.pbe-n-rrkjus_psl.1.0.0.UPF
Pd 106.4 Pd.pbe-n-rrkjus_psl.1.0.0.UPF
Y 88.90 Y.pbe-spn-rrkjus_psl.1.0.0.UPF


CELL_PARAMETERS {angstrom}
5.95203000 0.00000000 0.00000000
-0.00000000 9.45024000 0.00000000
0.00000000 0.00000000 24.43650000

ATOMIC_POSITIONS {angstrom}
Y 2.97601500 0.00000000 -2.218345469999999 0 0 0
Y 5.40741925 9.42311781 0.76803919
Y 2.97601500 4.72512000 -2.218345469999999 0 0 0
Y 5.40831206 4.75233669 0.76755047
In 1.32295771 2.36256000 -0.7394484899999973 0 0 0
In 3.65906996 2.36350502 2.09738479
In 1.32295771 7.08768000 -0.7394484899999973 0 0 0
In 3.69853192 7.08682948 2.32024568
Ge 0.00000000 0.00000000 -2.218345469999999 0 0 0
Ge 2.40741757 9.41640814 1.15095915
Ge 0.00000000 4.72512000 -2.218345469999999 0 0 0
Ge 2.40950078 4.75866835 1.15022605
Pd 4.29897271 2.36256000 -0.7394484899999973 0 0 0
Pd 0.75501501 2.36274900 2.08394472
Pd 4.29897271 7.08768000 -0.7394484899999973 0 0 0
Pd 0.75828862 7.08749100 1.96518333
C 0.69430430 2.36274900 4.05597027
O 0.69608991 2.36284351 5.20644069
