&CONTROL
 calculation = 'relax' 
 prefix = 'scf' 
 pseudo_dir = '/vol0403/data/hp230205/u10028/POT_HYBRID_KKJUS_GBRV' 
 outdir = './data' 
 tprnfor = .true. 
 nstep = 50 
 disk_io = 'non' 
/
&SYSTEM
 ibrav = 0 
 ecutwfc = 50.0 
 ecutrho = 400 
 occupations = 'smearing' 
 smearing = 'mp' 
 degauss = 0.01 
 assume_isolated = 'esm' 
 esm_bc = 'bc1' 
 input_dft = 'BEEF-VDW' 
 nosym = .true. 
 nspin = 1 
 ntyp = 4 
 nat = 16 
/
&ELECTRONS
 electron_maxstep = 200 
 mixing_beta = 0.1 
 conv_thr = 1e-06 
/
&IONS
 ion_dynamics = 'bfgs' 
 upscale = 1.0 
/
&CELL
/
 
K_POINTS {automatic}
10 10 2 0  0  0
 
ATOMIC_SPECIES
Al 26.98 Al.pbe-nl-rrkjus_psl.1.0.0.UPF
Li 6.941 Li.pbe-sl-rrkjus_psl.1.0.0.UPF
Nb 92.90 Nb.pbe-spn-rrkjus_psl.1.0.0.UPF
Pd 106.4 Pd.pbe-n-rrkjus_psl.1.0.0.UPF
 
 
CELL_PARAMETERS {angstrom}
6.26744000 0.00000000 0.00000000
0.00000000 6.26744000 0.00000000
0.00000000 0.00000000 24.70060000
 
ATOMIC_POSITIONS {angstrom}
Li 1.56686000 1.56686000 23.91709697
Li 1.56071791 4.70672209 2.90330852
Li 4.70672209 1.56071791 2.90330852
Li 4.70058000 4.70058000 23.91709697
Nb 0.00000000 3.13372000 22.35033791
Nb 0.00000000 0.00000000 0.77065872
Nb 3.13372000 3.13372000 0.77214076
Nb 3.13372000 0.00000000 22.35033791
Al 0.00000000 0.00000000 22.35033791
Al 0.00000000 3.13372000 0.80993267
Al 3.13372000 0.00000000 0.80993267
Al 3.13372000 3.13372000 22.35033791
Pd 4.70058000 1.56686000 23.91709697
Pd 4.70076802 4.70076802 2.12301657
Pd 1.56667198 1.56667198 2.12301657
Pd 1.56686000 4.70058000 23.91709697
