&CONTROL
calculation = 'relax'
prefix = 'scf'
pseudo_dir = '/vol0403/data/hp230205/u10028/POT_HYBRID_KKJUS_GBRV'
outdir = './data'
tprnfor = .true.
nstep = 50
disk_io = 'non'
/
&SYSTEM
ibrav = 0
ecutwfc = 50.0
ecutrho = 400
occupations = 'smearing'
smearing = 'mp'
degauss = 0.01
assume_isolated = 'esm'
esm_bc = 'bc1'
input_dft = 'BEEF-VDW'
nosym = .true.
nspin = 1
ntyp = 5
nat = 33
/
&ELECTRONS
electron_maxstep = 200
mixing_beta = 0.1
conv_thr = 1e-06
/
&IONS
ion_dynamics = 'bfgs'
upscale = 1.0
/
&CELL
/

K_POINTS {automatic}
6 6 1 0 0 0

ATOMIC_SPECIES
Al 26.98 Al.pbe-nl-rrkjus_psl.1.0.0.UPF
C 12.01 C.pbe-n-rrkjus_psl.1.0.0.UPF
In 114.8 In.pbe-dn-rrkjus_psl.1.0.0.UPF
Pd 106.4 Pd.pbe-n-rrkjus_psl.1.0.0.UPF
Sc 44.95 Sc.pbe-spn-rrkjus_psl.1.0.0.UPF


CELL_PARAMETERS {angstrom}
8.30234000 0.00000000 0.00000000
0.00000000 8.33700000 0.00000000
0.00000000 0.00000000 26.45550000

ATOMIC_POSITIONS {angstrom}
Sc 2.07558500 0.00000000 1.07594518
Sc 2.07558500 0.00000000 -3.2278355500000018 0 0 0
Sc 2.07558500 4.16850000 1.07594518
Sc 2.07558500 4.16850000 -3.2278355500000018 0 0 0
Sc 6.22675500 0.00000000 1.07594518
Sc 6.22675500 0.00000000 -3.2278355500000018 0 0 0
Sc 6.22675500 4.16850000 1.07594518
Sc 6.22675500 4.16850000 -3.2278355500000018 0 0 0
Al 0.00000000 0.00000000 3.22783555
Al 0.00000000 0.00000000 -1.0759451800000015 0 0 0
Al 0.00000000 4.16850000 3.22783555
Al 0.00000000 4.16850000 -1.0759451800000015 0 0 0
Al 4.15117000 0.00000000 3.22783555
Al 4.15117000 0.00000000 -1.0759451800000015 0 0 0
Al 4.15117000 4.16850000 3.22783555
Al 4.15117000 4.16850000 -1.0759451800000015 0 0 0
In 2.07558500 2.08425000 3.22783555
In 2.07558500 2.08425000 -1.0759451800000015 0 0 0
In 2.07558500 6.25275000 3.22783555
In 2.07558500 6.25275000 -1.0759451800000015 0 0 0
In 6.22675500 2.08425000 3.22783555
In 6.22675500 2.08425000 -1.0759451800000015 0 0 0
In 6.22675500 6.25275000 3.22783555
In 6.22675500 6.25275000 -1.0759451800000015 0 0 0
Pd 0.00000000 2.08425000 1.07594518
Pd 0.00000000 2.08425000 -3.2278355500000018 0 0 0
Pd 0.00000000 6.25275000 1.07594518
Pd 0.00000000 6.25275000 -3.2278355500000018 0 0 0
Pd 4.15117000 2.08425000 1.07594518
Pd 4.15117000 2.08425000 -3.2278355500000018 0 0 0
Pd 4.15117000 6.25275000 1.07594518
Pd 4.15117000 6.25275000 -3.2278355500000018 0 0 0
C 2.07558500 0.00000000 4.02784988
