&CONTROL
calculation = 'relax'
prefix = 'scf'
pseudo_dir = '/vol0403/data/hp230205/u10028/POT_HYBRID_KKJUS_GBRV'
outdir = './data'
tprnfor = .true.
nstep = 50
disk_io = 'non'
/
&SYSTEM
ibrav = 0
ecutwfc = 50.0
ecutrho = 400
occupations = 'smearing'
smearing = 'mp'
degauss = 0.01
assume_isolated = 'esm'
esm_bc = 'bc1'
input_dft = 'BEEF-VDW'
nosym = .true.
nspin = 1
ntyp = 6
nat = 18
/
&ELECTRONS
electron_maxstep = 200
mixing_beta = 0.1
conv_thr = 1e-06
/
&IONS
ion_dynamics = 'bfgs'
upscale = 1.0
/
&CELL
/

K_POINTS {automatic}
8 8 1 0 0 0

ATOMIC_SPECIES
Ag 107.8 Ag.pbe-n-rrkjus_psl.1.0.0.UPF
C 12.01 C.pbe-n-rrkjus_psl.1.0.0.UPF
Li 6.941 Li.pbe-sl-rrkjus_psl.1.0.0.UPF
Mg 24.30 Mg.pbe-spnl-rrkjus_psl.1.0.0.UPF
O 15.99 O.pbe-n-rrkjus_psl.1.0.0.UPF
Sn 118.7 Sn.pbe-dn-rrkjus_psl.1.0.0.UPF


CELL_PARAMETERS {angstrom}
6.75899000 0.00000000 0.00000000
0.00000000 6.75899000 0.00000000
0.00000000 0.00000000 25.06920000

ATOMIC_POSITIONS {angstrom}
Li 5.06924250 1.68974750 -0.84483204 0 0 0
Li 5.06924250 5.06924250 2.53449612
Li 1.68974750 1.68974750 2.53449612
Li 1.68974750 5.06924250 -0.84483204 0 0 0
Mg 1.68974750 1.68974750 -0.84483204 0 0 0
Mg 1.68974750 5.06924250 2.53449612
Mg 5.06924250 1.68974750 2.53449612
Mg 5.06924250 5.06924250 -0.84483204 0 0 0
Ag 0.00000000 0.00000000 -2.53449612 0 0 0
Ag 0.00000000 3.37949500 0.84483204
Ag 3.37949500 0.00000000 0.84483204
Ag 3.37949500 3.37949500 -2.53449612 0 0 0
Sn 0.00000000 3.37949500 -2.53449612 0 0 0
Sn 0.00000000 0.00000000 0.84483204
Sn 3.37949500 3.37949500 0.84483204
Sn 3.37949500 0.00000000 -2.53449612 0 0 0
C 1.68974750 1.68974750 4.43449079
O 1.68974750 1.68974750 5.58466568
