&CONTROL
calculation = 'relax'
prefix = 'scf'
pseudo_dir = '/vol0403/data/hp230205/u10028/POT_HYBRID_KKJUS_GBRV'
outdir = './data'
tprnfor = .true.
nstep = 50
disk_io = 'non'
/
&SYSTEM
ibrav = 0
ecutwfc = 50.0
ecutrho = 400
occupations = 'smearing'
smearing = 'mp'
degauss = 0.01
assume_isolated = 'esm'
esm_bc = 'bc1'
input_dft = 'BEEF-VDW'
nosym = .true.
nspin = 1
ntyp = 5
nat = 33
/
&ELECTRONS
electron_maxstep = 200
mixing_beta = 0.1
conv_thr = 1e-06
/
&IONS
ion_dynamics = 'bfgs'
upscale = 1.0
/
&CELL
/

K_POINTS {automatic}
9 6 2 0  0  0

ATOMIC_SPECIES
C 12.01 C.pbe-n-rrkjus_psl.1.0.0.UPF
Ga 69.72 Ga.pbe-dnl-rrkjus_psl.1.0.0.UPF
In 114.8 In.pbe-dn-rrkjus_psl.1.0.0.UPF
Pd 106.4 Pd.pbe-n-rrkjus_psl.1.0.0.UPF
Sc 44.95 Sc.pbe-spn-rrkjus_psl.1.0.0.UPF


CELL_PARAMETERS {angstrom}
6.68246000 0.00000000 0.00000000
0.00000000 9.45042000 0.00000000
0.00000000 0.00000000 27.08780000

ATOMIC_POSITIONS {angstrom}
Sc 5.01184500 0.00000000 -1.181298960000003 0 0 0
Sc 5.01184500 4.72521000 -1.181298960000003 0 0 0
Sc 1.67061500 2.36260500 -3.543896870000001 0 0 0
Sc 1.67061500 7.08781500 -3.543896870000001 0 0 0
Sc 5.07686534 4.72492649 3.49243005
Sc 4.71333951 0.00028351 3.49811849
Sc 1.71258085 6.95125643 1.14527218
Sc 1.71231355 2.49916357 1.14500131
In 1.67061500 0.00000000 -1.181298960000003 0 0 0
In 1.67061500 4.72521000 -1.181298960000003 0 0 0
In 5.01184500 2.36260500 -3.543896870000001 0 0 0
In 5.01184500 7.08781500 -3.543896870000001 0 0 0
In 1.55273641 4.72530450 3.67418919
In 2.05372043 9.45023099 4.62659624
In 4.97749716 7.22087691 1.19430110
In 4.97763080 2.22963759 1.19430110
Ga 0.00000000 0.00000000 -3.543896870000001 0 0 0
Ga 0.00000000 4.72521000 -3.543896870000001 0 0 0
Ga 3.34123000 7.08781500 -1.181298960000003 0 0 0
Ga 3.34123000 2.36260500 -1.181298960000003 0 0 0
Ga 6.60066669 4.72521000 1.15366940
Ga 0.44578691 0.00009450 1.72793076
Ga 3.32098215 2.51674135 3.70777806
Ga 3.32171722 6.93348964 3.70777806
Pd 0.00000000 2.36260500 -1.181298960000003 0 0 0
Pd 0.00000000 7.08781500 -1.181298960000003 0 0 0
Pd 3.34123000 4.72521000 -3.543896870000001 0 0 0
Pd 3.34123000 0.00000000 -3.543896870000001 0 0 0
Pd 0.19125201 7.22985481 3.35617842
Pd 0.19178660 2.22056519 3.35644930
Pd 3.06998895 0.00000000 1.23303666
Pd 3.47300811 4.72511550 1.24116300
C 0.04878196 0.00009450 3.80746117
