&CONTROL
calculation = 'relax'
prefix = 'scf'
pseudo_dir = '/vol0004/mdt0/data/hp150275/u10028/POT_KKJUS'
outdir = './data'
tprnfor = .true.
nstep = 50
disk_io = 'non'
/
&SYSTEM
ibrav = 0
ecutwfc = 50.0
ecutrho = 400
occupations = 'smearing'
smearing = 'mp'
degauss = 0.01
assume_isolated = 'esm'
esm_bc = 'bc1'
input_dft = 'BEEF-VDW'
nosym = .true.
nspin = 1
ntyp = 4
nat = 33
/
&ELECTRONS
electron_maxstep = 200
mixing_beta = 0.1
conv_thr = 1e-06
/
&IONS
ion_dynamics = 'bfgs'
upscale = 1.0
/
&CELL
/

K_POINTS {automatic}
9 6 2 0  0  0

ATOMIC_SPECIES
Al 26.98 Al.pbe-nl-rrkjus_psl.1.0.0.UPF
C 12.01 C.pbe-n-rrkjus_psl.1.0.0.UPF
Ni 58.69 Ni.pbe-spn-rrkjus_psl.1.0.0.UPF
Zr 91.22 Zr.pbe-spn-rrkjus_psl.1.0.0.UPF

CELL_PARAMETERS {angstrom}
6.14888000 0.00000000 0.00000000
0.00000000 8.69583000 0.00000000
0.00000000 0.00000000 26.52190000

ATOMIC_POSITIONS {angstrom}
Zr 0.00000000 0.00000000 -3.2608676099999983 0 0 0
Zr 3.07444000 2.17395750 -1.086867459999997 0 0 0
Zr 3.07444000 6.52187250 -1.086867459999997 0 0 0
Zr 0.00000000 4.34791500 -3.2608676099999983 0 0 0
Zr 0.00000000 4.34791500 1.05583684
Zr 3.07444000 6.42117479 3.37968572
Zr 3.07444000 2.27474217 3.37968572
Zr 0.00000000 0.00000000 1.08766312
Al 0.00000000 6.52187250 -1.086867459999997 0 0 0
Al 3.07444000 0.00000000 -3.2608676099999983 0 0 0
Al 0.00000000 2.17395750 -1.086867459999997 0 0 0
Al 3.07444000 4.34791500 -3.2608676099999983 0 0 0
Al 0.00000000 2.11056490 3.22267607
Al 3.07444000 4.34791500 1.14388955
Al 0.00000000 6.58526510 3.22267607
Al 3.07444000 0.00000000 1.09959797
Ni 1.53722000 0.00000000 -1.086867459999997 0 0 0
Ni 4.61166000 4.34791500 -1.086867459999997 0 0 0
Ni 4.61166000 0.00000000 -1.086867459999997 0 0 0
Ni 1.53722000 4.34791500 -1.086867459999997 0 0 0
Ni 4.61166000 6.52187250 -3.2608676099999983 0 0 0
Ni 1.53722000 2.17395750 -3.2608676099999983 0 0 0
Ni 1.53722000 6.52187250 -3.2608676099999983 0 0 0
Ni 4.61166000 2.17395750 -3.2608676099999983 0 0 0
Ni 1.36480540 4.34800196 3.18315844
Ni 4.36668862 0.00008696 3.25529801
Ni 4.78395162 4.34800196 3.18315844
Ni 1.78219138 0.00000000 3.25529801
Ni 4.49987336 2.19021870 1.16112878
Ni 1.64906813 6.50543738 1.16086356
Ni 1.64900664 2.19013174 1.16086356
Ni 4.49987336 6.50552434 1.16086356
C 0.00000000 0.00000000 3.52608661
