&CONTROL
calculation = 'relax'
prefix = 'scf'
pseudo_dir = '/vol0403/data/hp230205/u10028/POT_HYBRID_KKJUS_GBRV'
outdir = './data'
tprnfor = .true.
nstep = 50
disk_io = 'non'
/
&SYSTEM
ibrav = 0
ecutwfc = 50.0
ecutrho = 400
occupations = 'smearing'
smearing = 'mp'
degauss = 0.01
assume_isolated = 'esm'
esm_bc = 'bc1'
input_dft = 'BEEF-VDW'
nosym = .true.
nspin = 1
ntyp = 5
nat = 33
/
&ELECTRONS
electron_maxstep = 200
mixing_beta = 0.1
conv_thr = 1e-06
/
&IONS
ion_dynamics = 'bfgs'
upscale = 1.0
/
&CELL
/

K_POINTS {automatic}
6 6 1 0 0 0

ATOMIC_SPECIES
Au 196.9 Au.pbe-n-rrkjus_psl.1.0.0.UPF
C 12.01 C.pbe-n-rrkjus_psl.1.0.0.UPF
Ge 72.64 Ge.pbe-dn-rrkjus_psl.1.0.0.UPF
Li 6.941 Li.pbe-sl-rrkjus_psl.1.0.0.UPF
Pd 106.4 Pd.pbe-n-rrkjus_psl.1.0.0.UPF


CELL_PARAMETERS {angstrom}
6.30991000 0.00000000 0.00000000
0.00000000 8.92356000 0.00000000
0.00000000 0.00000000 26.69270000

ATOMIC_POSITIONS {angstrom}
Li 1.57747750 0.00000000 -1.115487929999997 0 0 0
Li 1.57747750 4.46178000 -1.115487929999997 0 0 0
Li 4.73243250 2.23089000 -3.3464637999999987 0 0 0
Li 4.73243250 6.69267000 -3.3464637999999987 0 0 0
Li 1.54479217 4.46178000 3.63794808
Li 1.69629311 0.00000000 3.91288289
Li 4.71255628 6.64912303 1.06317024
Li 4.71255628 2.27443697 1.06317024
Ge 4.73243250 0.00000000 -1.115487929999997 0 0 0
Ge 4.73243250 4.46178000 -1.115487929999997 0 0 0
Ge 1.57747750 2.23089000 -3.3464637999999987 0 0 0
Ge 1.57747750 6.69267000 -3.3464637999999987 0 0 0
Ge 4.99511405 4.46178000 3.70788296
Ge 4.20309415 0.00000000 3.68999885
Ge 1.61085692 6.68222943 1.11175095
Ge 1.61085692 2.24133057 1.11175095
Pd 0.00000000 2.23089000 -1.115487929999997 0 0 0
Pd 0.00000000 6.69267000 -1.115487929999997 0 0 0
Pd 3.15495500 4.46178000 -3.3464637999999987 0 0 0
Pd 3.15495500 0.00000000 -3.3464637999999987 0 0 0
Pd 0.01198883 6.79600482 3.12518132
Pd 0.01198883 2.12755518 3.12518132
Pd 3.12441504 0.00000000 1.16860641
Pd 3.14574253 4.46178000 1.18221968
Au 0.00000000 0.00000000 -3.3464637999999987 0 0 0
Au 0.00000000 4.46178000 -3.3464637999999987 0 0 0
Au 3.15495500 6.69267000 -1.115487929999997 0 0 0
Au 3.15495500 2.23089000 -1.115487929999997 0 0 0
Au 6.30631335 4.46178000 1.30420532
Au 6.14370697 0.00000000 1.10934861
Au 3.30153421 2.42926074 3.29681538
Au 3.30147111 6.49429926 3.29681538
C 6.06868214 0.00000000 3.38783748
