&CONTROL
calculation = 'relax'
prefix = 'scf'
pseudo_dir = '/vol0403/data/hp230205/u10028/POT_HYBRID_KKJUS_GBRV'
outdir = './data'
tprnfor = .true.
nstep = 50
disk_io = 'non'
/
&SYSTEM
ibrav = 0
ecutwfc = 50.0
ecutrho = 400
occupations = 'smearing'
smearing = 'mp'
degauss = 0.01
assume_isolated = 'esm'
esm_bc = 'bc1'
input_dft = 'BEEF-VDW'
nosym = .true.
nspin = 1
ntyp = 5
nat = 17
/
&ELECTRONS
electron_maxstep = 200
mixing_beta = 0.1
conv_thr = 1e-06
/
&IONS
ion_dynamics = 'bfgs'
upscale = 1.0
/
&CELL
/

K_POINTS {automatic}
10 9 2 0  0  0

ATOMIC_SPECIES
C 12.01 C.pbe-n-rrkjus_psl.1.0.0.UPF
Ge 72.64 Ge.pbe-dn-rrkjus_psl.1.0.0.UPF
Li 6.941 Li.pbe-sl-rrkjus_psl.1.0.0.UPF
Pd 106.4 Pd.pbe-n-rrkjus_psl.1.0.0.UPF
V 50.94 V.pbe-spnl-rrkjus_psl.1.0.0.UPF


CELL_PARAMETERS {angstrom}
5.68832000 0.00000000 0.00000000
0.00000000 6.38622000 0.00000000
0.00000000 0.00000000 24.77250000

ATOMIC_POSITIONS {angstrom}
Li 1.42208000 4.65466031 -0.7954449700000019 0 0 0
Li 1.34295547 1.79637982 2.94569798
Li 4.26624000 4.65466031 -0.7954449700000019 0 0 0
Li 4.34547830 1.79606051 2.94470708
V 1.42208000 1.46155031 -0.7954449700000019 0 0 0
V 1.33681208 4.57042607 2.15446433
V 4.26624000 1.46155031 -0.7954449700000019 0 0 0
V 4.35156480 4.57023448 2.15396887
Ge 0.00000000 0.00000000 -2.3863349199999995 0 0 0
Ge 5.68786493 2.98792075 0.63541463
Ge 2.84416000 0.00000000 -2.3863349199999995 0 0 0
Ge 2.84433065 2.93236064 0.85043992
Pd 0.00000000 3.19311000 -2.3863349199999995 0 0 0
Pd 0.00011377 0.22619991 1.16282115
Pd 2.84416000 3.19311000 -2.3863349199999995 0 0 0
Pd 2.84427377 0.25781170 1.33895363
C 5.68826312 3.69372579 3.14288708
