&CONTROL
calculation = 'relax'
prefix = 'scf'
pseudo_dir = '/vol0403/data/hp230205/u10028/POT_HYBRID_KKJUS_GBRV'
outdir = './data'
tprnfor = .true.
nstep = 50
disk_io = 'non'
/
&SYSTEM
ibrav = 0
ecutwfc = 50.0
ecutrho = 400
occupations = 'smearing'
smearing = 'mp'
degauss = 0.01
assume_isolated = 'esm'
esm_bc = 'bc1'
input_dft = 'BEEF-VDW'
nosym = .true.
nspin = 1
ntyp = 5
nat = 33
/
&ELECTRONS
electron_maxstep = 200
mixing_beta = 0.1
conv_thr = 1e-06
/
&IONS
ion_dynamics = 'bfgs'
upscale = 1.0
/
&CELL
/

K_POINTS {automatic}
6 6 1 0 0 0

ATOMIC_SPECIES
C 12.01 C.pbe-n-rrkjus_psl.1.0.0.UPF
Ge 72.64 Ge.pbe-dn-rrkjus_psl.1.0.0.UPF
Li 6.941 Li.pbe-sl-rrkjus_psl.1.0.0.UPF
Pd 106.4 Pd.pbe-n-rrkjus_psl.1.0.0.UPF
Zn 65.40 Zn.pbe-dnl-rrkjus_psl.1.0.0.UPF


CELL_PARAMETERS {angstrom}
6.18512000 0.00000000 0.00000000
0.00000000 8.74708000 0.00000000
0.00000000 0.00000000 26.56030000

ATOMIC_POSITIONS {angstrom}
Li 4.63884000 0.00000000 -1.0934875500000025 0 0 0
Li 4.63884000 4.37354000 -1.0934875500000025 0 0 0
Li 1.54628000 2.18677000 -3.2801970500000017 0 0 0
Li 1.54628000 6.56031000 -3.2801970500000017 0 0 0
Li 4.76693384 4.37354000 3.60874796
Li 4.53709478 0.00000000 4.35376438
Li 1.56217576 6.60649458 1.17662129
Li 1.56217576 2.14058542 1.17662129
Zn 0.00000000 2.18677000 -1.0934875500000025 0 0 0
Zn 0.00000000 6.56031000 -1.0934875500000025 0 0 0
Zn 3.09256000 4.37354000 -3.2801970500000017 0 0 0
Zn 3.09256000 0.00000000 -3.2801970500000017 0 0 0
Zn 0.02758564 6.67778328 3.44062126
Zn 0.02758564 2.06920924 3.44062126
Zn 3.17383248 0.00000000 1.12217268
Zn 3.09200334 4.37354000 1.18804222
Ge 0.00000000 0.00000000 -3.2801970500000017 0 0 0
Ge 0.00000000 4.37354000 -3.2801970500000017 0 0 0
Ge 3.09256000 6.56031000 -1.0934875500000025 0 0 0
Ge 3.09256000 2.18677000 -1.0934875500000025 0 0 0
Ge 6.17874933 4.37354000 1.11234536
Ge 5.91779911 0.00000000 1.15856029
Ge 3.15719450 2.27502804 3.47594646
Ge 3.15713265 6.47196449 3.47594646
Pd 1.54628000 0.00000000 -1.0934875500000025 0 0 0
Pd 1.54628000 4.37354000 -1.0934875500000025 0 0 0
Pd 4.63884000 2.18677000 -3.2801970500000017 0 0 0
Pd 4.63884000 6.56031000 -3.2801970500000017 0 0 0
Pd 1.46073979 4.37354000 3.20662502
Pd 2.05543908 0.00000000 3.42680991
Pd 4.62195462 6.47065243 1.05842795
Pd 4.62195462 2.27642757 1.05842795
C 0.03772923 0.00000000 3.12056965
