&CONTROL
calculation = 'relax'
prefix = 'scf'
pseudo_dir = '/vol0004/mdt0/data/hp150275/u10028/POT_KKJUS'
outdir = './data'
tprnfor = .true.
nstep = 50
disk_io = 'non'
/
&SYSTEM
ibrav = 0
ecutwfc = 50.0
ecutrho = 400
occupations = 'smearing'
smearing = 'mp'
degauss = 0.01
assume_isolated = 'esm'
esm_bc = 'bc1'
input_dft = 'BEEF-VDW'
nosym = .true.
nspin = 1
ntyp = 4
nat = 33
/
&ELECTRONS
electron_maxstep = 200
mixing_beta = 0.1
conv_thr = 1e-06
/
&IONS
ion_dynamics = 'bfgs'
upscale = 1.0
/
&CELL
/

K_POINTS {automatic}
8 6 1 0 0 0

ATOMIC_SPECIES
Ag 107.8 Ag.pbe-n-rrkjus_psl.1.0.0.UPF
C 12.01 C.pbe-n-rrkjus_psl.1.0.0.UPF
Mg 24.30 Mg.pbe-spnl-rrkjus_psl.1.0.0.UPF
Zn 65.40 Zn.pbe-dnl-rrkjus_psl.1.0.0.UPF

CELL_PARAMETERS {angstrom}
6.56971000 0.00000000 0.00000000
0.00000000 9.29097000 0.00000000
0.00000000 0.00000000 26.96820000

ATOMIC_POSITIONS {angstrom}
Mg 0.00000000 0.00000000 -3.484021760000001 0 0 0
Mg 3.28485500 2.32274250 -1.1612506899999993 0 0 0
Mg 3.28485500 6.96822750 -1.1612506899999993 0 0 0
Mg 0.00000000 4.64548500 -3.484021760000001 0 0 0
Mg 0.00000000 4.64548500 1.14183359
Mg 3.28485500 6.78370884 3.64529159
Mg 3.28485500 2.50726116 3.64529159
Mg 0.00000000 0.00000000 1.27128095
Zn 0.00000000 6.96822750 -1.1612506899999993 0 0 0
Zn 3.28485500 0.00000000 -3.484021760000001 0 0 0
Zn 0.00000000 2.32274250 -1.1612506899999993 0 0 0
Zn 3.28485500 4.64548500 -3.484021760000001 0 0 0
Zn 0.00000000 2.09455628 3.65473046
Zn 3.28485500 4.64548500 1.24754893
Zn 0.00000000 7.19641372 3.65473046
Zn 3.28485500 0.00000000 0.99944149
Ag 1.64242750 0.00000000 -1.1612506899999993 0 0 0
Ag 4.92728250 4.64548500 -1.1612506899999993 0 0 0
Ag 4.92728250 0.00000000 -1.1612506899999993 0 0 0
Ag 1.64242750 4.64548500 -1.1612506899999993 0 0 0
Ag 4.92728250 6.96822750 -3.484021760000001 0 0 0
Ag 1.64242750 2.32274250 -3.484021760000001 0 0 0
Ag 1.64242750 6.96822750 -3.484021760000001 0 0 0
Ag 4.92728250 2.32274250 -3.484021760000001 0 0 0
Ag 1.44277401 4.64548500 3.58029823
Ag 4.56476590 0.00000000 3.38370005
Ag 5.12693599 4.64548500 3.58029823
Ag 2.00494410 0.00000000 3.38370005
Ag 4.90501118 2.35814110 1.18039811
Ag 1.66469882 6.93282890 1.18039811
Ag 1.66469882 2.35814110 1.18039811
Ag 4.90501118 6.93282890 1.18039811
C 0.00000000 0.00000000 3.72457810
