&CONTROL
calculation = 'relax'
prefix = 'scf'
pseudo_dir = '/vol0004/mdt0/data/hp150275/u10028/POT_KKJUS'
outdir = './data'
tprnfor = .true.
nstep = 50
disk_io = 'non'
/
&SYSTEM
ibrav = 0
ecutwfc = 50.0
ecutrho = 400
occupations = 'smearing'
smearing = 'mp'
degauss = 0.01
assume_isolated = 'esm'
esm_bc = 'bc1'
input_dft = 'BEEF-VDW'
nosym = .true.
nspin = 1
ntyp = 5
nat = 34
/
&ELECTRONS
electron_maxstep = 200
mixing_beta = 0.1
conv_thr = 1e-06
/
&IONS
ion_dynamics = 'bfgs'
upscale = 1.0
/
&CELL
/

K_POINTS {automatic}
9 6 2 0  0  0

ATOMIC_SPECIES
C 12.01 C.pbe-n-rrkjus_psl.1.0.0.UPF
In 114.8 In.pbe-dn-rrkjus_psl.1.0.0.UPF
O 15.99 O.pbe-n-rrkjus_psl.1.0.0.UPF
Pt 195.0 Pt.pbe-n-rrkjus_psl.1.0.0.UPF
Sc 44.95 Sc.pbe-spn-rrkjus_psl.1.0.0.UPF

CELL_PARAMETERS {angstrom}
6.63475000 0.00000000 0.00000000
0.00000000 9.38295000 0.00000000
0.00000000 0.00000000 27.03720000

ATOMIC_POSITIONS {angstrom}
Sc 0.00000000 0.00000000 -3.518621209999999 0 0 0
Sc 3.31737500 2.34573750 -1.17287374 0 0 0
Sc 3.31737500 7.03721250 -1.17287374 0 0 0
Sc 0.00000000 4.69147500 -3.518621209999999 0 0 0
Sc 0.00000000 4.69278861 1.19125903
Sc 3.31737500 7.03721250 3.40912055
Sc 3.31737500 2.34573750 3.43994296
Sc 0.00000000 9.38163639 1.19125903
In 0.00000000 7.03721250 -1.17287374 0 0 0
In 3.31737500 0.00000000 -3.518621209999999 0 0 0
In 0.00000000 2.34573750 -1.17287374 0 0 0
In 3.31737500 4.69147500 -3.518621209999999 0 0 0
In 0.00000000 2.34573750 3.74843741
In 3.31737500 4.68518842 1.15692179
In 0.00000000 7.03721250 3.77520424
In 3.31737500 0.00619275 1.15692179
Pt 1.65868750 0.00000000 -1.17287374 0 0 0
Pt 4.97606250 4.69147500 -1.17287374 0 0 0
Pt 4.97606250 0.00000000 -1.17287374 0 0 0
Pt 1.65868750 4.69147500 -1.17287374 0 0 0
Pt 4.97606250 7.03721250 -3.518621209999999 0 0 0
Pt 1.65868750 2.34573750 -3.518621209999999 0 0 0
Pt 1.65868750 7.03721250 -3.518621209999999 0 0 0
Pt 4.97606250 2.34573750 -3.518621209999999 0 0 0
Pt 1.61005478 4.70620623 3.36613140
Pt 5.02469522 9.36821877 3.36613140
Pt 5.02469522 4.70620623 3.36613140
Pt 1.61005478 9.36821877 3.36613140
Pt 5.01905568 2.34573750 1.17909229
Pt 1.62571279 7.03721250 1.19261089
Pt 1.61569432 2.34573750 1.17909229
Pt 5.00903721 7.03721250 1.19261089
C 3.31737500 2.34573750 5.80326461
O 3.31737500 2.34573750 6.94531594
