&CONTROL
calculation = 'relax'
prefix = 'scf'
pseudo_dir = '/vol0004/mdt0/data/hp150275/u10028/POT_KKJUS'
outdir = './data'
tprnfor = .true.
nstep = 50
disk_io = 'non'
/
&SYSTEM
ibrav = 0
ecutwfc = 50.0
ecutrho = 400
occupations = 'smearing'
smearing = 'mp'
degauss = 0.01
assume_isolated = 'esm'
esm_bc = 'bc1'
input_dft = 'BEEF-VDW'
nosym = .true.
nspin = 1
ntyp = 3
nat = 35
/
&ELECTRONS
electron_maxstep = 200
mixing_beta = 0.1
conv_thr = 1e-06
/
&IONS
ion_dynamics = 'bfgs'
upscale = 1.0
/
&CELL
/

K_POINTS {automatic}
6 6 1 0 0 0

ATOMIC_SPECIES
Al 26.98 Al.pbe-nl-rrkjus_psl.1.0.0.UPF
C 12.01 C.pbe-n-rrkjus_psl.1.0.0.UPF
O 15.99 O.pbe-n-rrkjus_psl.1.0.0.UPF

CELL_PARAMETERS {angstrom}
8.03546000 0.00000000 0.00000000
-0.00000000 8.03546000 0.00000000
0.00000000 0.00000000 26.02660000

ATOMIC_POSITIONS {angstrom}
Al 0.00000000 0.00000000 -3.0133597499999993 0 0 0
Al 2.00886500 2.00886500 -3.0133597499999993 0 0 0
Al 2.00886500 0.00000000 -1.004366489999999 0 0 0
Al 0.00000000 2.00886500 -1.004366489999999 0 0 0
Al 0.00000000 0.00000000 1.00436649
Al 2.00886500 2.00886500 1.00436649
Al 2.00886500 -0.00000000 3.01335975
Al 0.00000000 2.00886500 3.01335975
Al 0.00000000 4.01773000 -3.0133597499999993 0 0 0
Al 2.00886500 6.02659500 -3.0133597499999993 0 0 0
Al 2.00886500 4.01773000 -1.004366489999999 0 0 0
Al 0.00000000 6.02659500 -1.004366489999999 0 0 0
Al 0.00000000 4.01773000 1.00436649
Al 2.00886500 6.02659500 1.00436649
Al 2.00886500 4.01773000 3.01335975
Al 0.00000000 6.02659500 3.01335975
Al 4.01773000 0.00000000 -3.0133597499999993 0 0 0
Al 6.02659500 2.00886500 -3.0133597499999993 0 0 0
Al 6.02659500 0.00000000 -1.004366489999999 0 0 0
Al 4.01773000 2.00886500 -1.004366489999999 0 0 0
Al 4.01773000 -0.00000000 1.00436649
Al 6.02659500 2.00886500 1.00436649
Al 6.02659500 -0.00000000 3.01335975
Al 4.01773000 2.00886500 3.01335975
Al 4.01773000 4.01773000 -3.0133597499999993 0 0 0
Al 6.02659500 6.02659500 -3.0133597499999993 0 0 0
Al 6.02659500 4.01773000 -1.004366489999999 0 0 0
Al 4.01773000 6.02659500 -1.004366489999999 0 0 0
Al 4.01773000 4.01773000 1.00436649
Al 6.02659500 6.02659500 1.00436649
Al 6.02659500 4.01773000 3.01335975
Al 4.01773000 6.02659500 3.01335975
C 0.00000000 0.00000000 3.81341743
C 0.00000000 0.00000000 5.21341743
O 0.00000000 0.00000000 6.61341743
