&CONTROL
calculation = 'relax'
prefix = 'scf'
pseudo_dir = '/vol0403/data/hp230205/u10028/POT_HYBRID_KKJUS_GBRV'
outdir = './data'
tprnfor = .true.
nstep = 50
disk_io = 'non'
/
&SYSTEM
ibrav = 0
ecutwfc = 50.0
ecutrho = 400
occupations = 'smearing'
smearing = 'mp'
degauss = 0.01
assume_isolated = 'esm'
esm_bc = 'bc1'
input_dft = 'BEEF-VDW'
nosym = .true.
nspin = 1
ntyp = 6
nat = 34
/
&ELECTRONS
electron_maxstep = 200
mixing_beta = 0.1
conv_thr = 1e-06
/
&IONS
ion_dynamics = 'bfgs'
upscale = 1.0
/
&CELL
/

K_POINTS {automatic}
6 6 1 0 0 0

ATOMIC_SPECIES
C 12.01 C.pbe-n-rrkjus_psl.1.0.0.UPF
In 114.8 In.pbe-dn-rrkjus_psl.1.0.0.UPF
Li 6.941 Li.pbe-sl-rrkjus_psl.1.0.0.UPF
O 15.99 O.pbe-n-rrkjus_psl.1.0.0.UPF
Pb 207.2 Pb.pbe-dn-rrkjus_psl.1.0.0.UPF
Y 88.90 Y.pbe-spn-rrkjus_psl.1.0.0.UPF


CELL_PARAMETERS {angstrom}
9.00122000 0.00000000 0.00000000
0.00000000 9.32892000 0.00000000
0.00000000 0.00000000 27.06750000

ATOMIC_POSITIONS {angstrom}
Li 2.25030500 2.33223000 -3.5336621299999997 0 0 0
Li 2.25030500 2.33223000 1.17797760
Li 2.25030500 6.99669000 -3.5336621299999997 0 0 0
Li 2.25030500 6.99669000 1.17797760
Li 6.75091500 2.33223000 -3.5336621299999997 0 0 0
Li 6.75091500 2.33223000 1.17797760
Li 6.75091500 6.99669000 -3.5336621299999997 0 0 0
Li 6.75091500 6.99669000 1.17797760
Y 2.25030500 0.00000000 -1.1779775999999984 0 0 0
Y 2.25030500 0.00000000 3.53366212
Y 2.25030500 4.66446000 -1.1779775999999984 0 0 0
Y 2.25030500 4.66446000 3.53366212
Y 6.75091500 0.00000000 -1.1779775999999984 0 0 0
Y 6.75091500 0.00000000 3.53366212
Y 6.75091500 4.66446000 -1.1779775999999984 0 0 0
Y 6.75091500 4.66446000 3.53366212
In 0.00000000 0.00000000 -3.5336621299999997 0 0 0
In 0.00000000 0.00000000 1.17797760
In 0.00000000 4.66446000 -3.5336621299999997 0 0 0
In 0.00000000 4.66446000 1.17797760
In 4.50061000 0.00000000 -3.5336621299999997 0 0 0
In 4.50061000 0.00000000 1.17797760
In 4.50061000 4.66446000 -3.5336621299999997 0 0 0
In 4.50061000 4.66446000 1.17797760
Pb 0.00000000 2.33223000 -1.1779775999999984 0 0 0
Pb 0.00000000 2.33223000 3.53366212
Pb 0.00000000 6.99669000 -1.1779775999999984 0 0 0
Pb 0.00000000 6.99669000 3.53366212
Pb 4.50061000 2.33223000 -1.1779775999999984 0 0 0
Pb 4.50061000 2.33223000 3.53366212
Pb 4.50061000 6.99669000 -1.1779775999999984 0 0 0
Pb 4.50061000 6.99669000 3.53366212
C 2.25030500 0.00000000 5.43380062
O 2.25030500 0.00000000 6.58362802
