&CONTROL
calculation = 'relax'
prefix = 'scf'
pseudo_dir = '/vol0403/data/hp230205/u10028/POT_HYBRID_KKJUS_GBRV'
outdir = './data'
tprnfor = .true.
nstep = 50
disk_io = 'non'
/
&SYSTEM
ibrav = 0
ecutwfc = 50.0
ecutrho = 400
occupations = 'smearing'
smearing = 'mp'
degauss = 0.01
assume_isolated = 'esm'
esm_bc = 'bc1'
input_dft = 'BEEF-VDW'
nosym = .true.
nspin = 2
ntyp = 4
nat = 32
starting_magnetization(1) = 0.0
starting_magnetization(2) = 0.0
starting_magnetization(3) = 0.001
starting_magnetization(4) = 0.0
/
&ELECTRONS
electron_maxstep = 200
mixing_beta = 0.1
conv_thr = 1e-06
/
&IONS
ion_dynamics = 'bfgs'
upscale = 1.0
/
&CELL
/

K_POINTS {automatic}
9 6 2 0  0  0

ATOMIC_SPECIES
Al 26.98 Al.pbe-nl-rrkjus_psl.1.0.0.UPF
Li 6.941 Li.pbe-sl-rrkjus_psl.1.0.0.UPF
Ni 58.69 ni_pbe_v1.4.uspp.F.UPF
Pd 106.4 Pd.pbe-n-rrkjus_psl.1.0.0.UPF


CELL_PARAMETERS {angstrom}
5.91240000 0.00000000 0.00000000
0.00000000 8.36140000 0.00000000
0.00000000 0.00000000 26.27110000

ATOMIC_POSITIONS {angstrom}
Li 0.00000000 2.09035000 -1.0450643600000014 0 0 0
Li 0.00000000 6.27105000 -1.0450643600000014 0 0 0
Li 2.95620000 4.18070000 -3.135455780000001 0 0 0
Li 2.95620000 0.00000000 -3.135455780000001 0 0 0
Li 0.04452037 6.27105000 3.54003073
Li 0.04452037 2.09035000 3.54003073
Li 2.96424086 0.00008361 0.98358998
Li 2.96429999 4.18061639 0.98332727
Al 0.00000000 0.00000000 -3.135455780000001 0 0 0
Al 0.00000000 4.18070000 -3.135455780000001 0 0 0
Al 2.95620000 6.27105000 -1.0450643600000014 0 0 0
Al 2.95620000 2.09035000 -1.0450643600000014 0 0 0
Al 5.90057520 4.18070000 1.03481863
Al 5.90057520 0.00000000 1.03481863
Al 2.93266865 2.09035000 3.11811686
Al 2.93266865 6.27105000 3.11811686
Ni 1.47810000 0.00000000 -1.0450643600000014 0 0 0
Ni 1.47810000 4.18070000 -1.0450643600000014 0 0 0
Ni 4.43430000 2.09035000 -3.135455780000001 0 0 0
Ni 4.43430000 6.27105000 -3.135455780000001 0 0 0
Ni 1.58133050 4.18053277 2.95129537
Ni 1.58133050 0.00016723 2.95129537
Ni 4.46114230 6.27096639 1.05846262
Ni 4.46126054 2.09043361 1.05925075
Pd 4.43430000 0.00000000 -1.0450643600000014 0 0 0
Pd 4.43430000 4.18070000 -1.0450643600000014 0 0 0
Pd 1.47810000 2.09035000 -3.135455780000001 0 0 0
Pd 1.47810000 6.27105000 -3.135455780000001 0 0 0
Pd 4.37724534 4.18061639 3.04508320
Pd 4.37724534 0.00000000 3.04508320
Pd 1.43795480 6.27105000 1.04375080
Pd 1.43795480 2.09035000 1.04375080
