&CONTROL
calculation = 'relax'
prefix = 'scf'
pseudo_dir = '/vol0403/data/hp230205/u10028/POT_HYBRID_KKJUS_GBRV'
outdir = './data'
tprnfor = .true.
nstep = 50
disk_io = 'non'
/
&SYSTEM
ibrav = 0
ecutwfc = 50.0
ecutrho = 400
occupations = 'smearing'
smearing = 'mp'
degauss = 0.01
assume_isolated = 'esm'
esm_bc = 'bc1'
input_dft = 'BEEF-VDW'
nosym = .true.
nspin = 2
ntyp = 6
nat = 34
starting_magnetization(1) = 0.0
starting_magnetization(2) = 0.0
starting_magnetization(3) = 0.0
starting_magnetization(4) = 0.001
starting_magnetization(5) = 0.0
starting_magnetization(6) = 0.0
/
&ELECTRONS
electron_maxstep = 200
mixing_beta = 0.1
conv_thr = 1e-06
/
&IONS
ion_dynamics = 'bfgs'
upscale = 1.0
/
&CELL
/

K_POINTS {automatic}
6 6 1 0 0 0

ATOMIC_SPECIES
C 12.01 C.pbe-n-rrkjus_psl.1.0.0.UPF
Ga 69.72 Ga.pbe-dnl-rrkjus_psl.1.0.0.UPF
Li 6.941 Li.pbe-sl-rrkjus_psl.1.0.0.UPF
Ni 58.69 ni_pbe_v1.4.uspp.F.UPF
O 15.99 O.pbe-n-rrkjus_psl.1.0.0.UPF
Pd 106.4 Pd.pbe-n-rrkjus_psl.1.0.0.UPF


CELL_PARAMETERS {angstrom}
5.93220000 0.00000000 0.00000000
0.00000000 8.38940000 0.00000000
0.00000000 0.00000000 26.29200000

ATOMIC_POSITIONS {angstrom}
Li 0.00000000 2.09735000 -1.0487878800000026 0 0 0
Li 0.00000000 6.29205000 -1.0487878800000026 0 0 0
Li 2.96610000 4.19470000 -3.1461007200000033 0 0 0
Li 2.96610000 0.00000000 -3.1461007200000033 0 0 0
Li 0.07551691 6.23567323 3.53180436
Li 0.07575419 2.15364287 3.53206728
Li 3.05407453 0.00075505 1.04090028
Li 2.98229491 4.19411274 0.94177944
Ga 0.00000000 0.00000000 -3.1461007200000033 0 0 0
Ga 0.00000000 4.19470000 -3.1461007200000033 0 0 0
Ga 2.96610000 6.29205000 -1.0487878800000026 0 0 0
Ga 2.96610000 2.09735000 -1.0487878800000026 0 0 0
Ga 0.01061864 4.19360938 1.03222392
Ga 5.89808985 0.00058726 1.05825300
Ga 2.91929494 2.08652767 3.16687140
Ga 2.91965087 6.30295622 3.16687140
Ni 1.48305000 0.00000000 -1.0487878800000026 0 0 0
Ni 1.48305000 4.19470000 -1.0487878800000026 0 0 0
Ni 4.44915000 2.09735000 -3.1461007200000033 0 0 0
Ni 4.44915000 6.29205000 -3.1461007200000033 0 0 0
Ni 1.62583805 4.19402885 2.91446820
Ni 1.59985502 0.00083894 2.93129508
Ni 4.49150591 6.31411412 1.09216968
Ni 4.49292964 2.07511809 1.09506180
Pd 4.44915000 0.00000000 -1.0487878800000026 0 0 0
Pd 4.44915000 4.19470000 -1.0487878800000026 0 0 0
Pd 1.48305000 2.09735000 -3.1461007200000033 0 0 0
Pd 1.48305000 6.29205000 -3.1461007200000033 0 0 0
Pd 4.36426022 4.19436442 3.00543852
Pd 4.49429404 0.00033558 3.31542120
Pd 1.45706696 6.30203339 1.03800816
Pd 1.45677035 2.08745051 1.03879692
C 5.01644629 8.38906442 5.19924300
O 5.20900550 0.00016779 6.34057872
