&CONTROL
calculation = 'relax'
prefix = 'scf'
pseudo_dir = '/vol0004/mdt0/data/hp150275/u10028/POT_KKJUS'
outdir = './data'
tprnfor = .true.
nstep = 50
disk_io = 'non'
/
&SYSTEM
ibrav = 0
ecutwfc = 50.0
ecutrho = 400
occupations = 'smearing'
smearing = 'mp'
degauss = 0.01
assume_isolated = 'esm'
esm_bc = 'bc1'
input_dft = 'BEEF-VDW'
nosym = .true.
nspin = 1
ntyp = 5
nat = 34
/
&ELECTRONS
electron_maxstep = 200
mixing_beta = 0.1
conv_thr = 1e-06
/
&IONS
ion_dynamics = 'bfgs'
upscale = 1.0
/
&CELL
/

K_POINTS {automatic}
9 6 2 0  0  0

ATOMIC_SPECIES
Ag 107.8 Ag.pbe-n-rrkjus_psl.1.0.0.UPF
Al 26.98 Al.pbe-nl-rrkjus_psl.1.0.0.UPF
C 12.01 C.pbe-n-rrkjus_psl.1.0.0.UPF
Li 6.941 Li.pbe-sl-rrkjus_psl.1.0.0.UPF
O 15.99 O.pbe-n-rrkjus_psl.1.0.0.UPF

CELL_PARAMETERS {angstrom}
6.34834000 0.00000000 0.00000000
0.00000000 8.97791000 0.00000000
0.00000000 0.00000000 26.73340000

ATOMIC_POSITIONS {angstrom}
Li 0.00000000 6.73343250 -1.1222681299999984 0 0 0
Li 3.17417000 0.00000000 -3.3668043999999995 0 0 0
Li 0.00000000 2.24447750 -1.1222681299999984 0 0 0
Li 3.17417000 4.48895500 -3.3668043999999995 0 0 0
Li 1.58708500 0.00000000 -1.1222681299999984 0 0 0
Li 1.58708500 4.48895500 -1.1222681299999984 0 0 0
Li 4.76125500 6.73343250 -3.3668043999999995 0 0 0
Li 4.76125500 2.24447750 -3.3668043999999995 0 0 0
Li 6.21140631 2.24645264 3.36145772
Li 3.11881248 4.48904478 0.99956183
Li 6.21140631 6.73172670 3.36172505
Li 3.02904695 8.97782022 0.99421515
Li 1.64479141 4.48895500 3.40556783
Li 1.56702425 8.97773044 3.59430563
Li 4.77541180 2.23657694 1.06666266
Li 4.77585618 6.74151262 1.06666266
Al 0.00000000 0.00000000 -3.3668043999999995 0 0 0
Al 3.17417000 2.24447750 -1.1222681299999984 0 0 0
Al 3.17417000 6.73343250 -1.1222681299999984 0 0 0
Al 0.00000000 4.48895500 -3.3668043999999995 0 0 0
Al 6.32447024 4.48904478 1.12814948
Al 3.18318464 6.74160240 3.31975361
Al 3.18261329 2.23711561 3.31975361
Al 0.03618554 8.97773044 1.09606940
Ag 1.58708500 2.24447750 -3.3668043999999995 0 0 0
Ag 1.58708500 6.73343250 -3.3668043999999995 0 0 0
Ag 4.76125500 4.48895500 -1.1222681299999984 0 0 0
Ag 4.76125500 0.00000000 -1.1222681299999984 0 0 0
Ag 1.54791574 6.71188552 1.13964484
Ag 1.54816968 2.26647338 1.13991218
Ag 4.54782381 8.97746110 3.07835101
Ag 4.56540871 4.48877544 3.16576923
C 0.25761564 0.00008978 5.24963776
O 6.01060831 8.97746110 6.23235754
