&CONTROL
calculation = 'relax'
prefix = 'scf'
pseudo_dir = '/vol0004/mdt0/data/hp150275/u10028/POT_KKJUS'
outdir = './data'
tprnfor = .true.
nstep = 50
disk_io = 'non'
/
&SYSTEM
ibrav = 0
ecutwfc = 50.0
ecutrho = 400
occupations = 'smearing'
smearing = 'mp'
degauss = 0.01
assume_isolated = 'esm'
esm_bc = 'bc1'
input_dft = 'BEEF-VDW'
nosym = .true.
nspin = 1
ntyp = 2
nat = 32
/
&ELECTRONS
electron_maxstep = 200
mixing_beta = 0.1
conv_thr = 1e-06
/
&IONS
ion_dynamics = 'bfgs'
upscale = 1.0
/
&CELL
/

K_POINTS {automatic}
8 6 1 0 0 0

ATOMIC_SPECIES
Ni 58.69 Ni.pbe-spn-rrkjus_psl.1.0.0.UPF
Sb 121.7 Sb.pbe-n-rrkjus_psl.1.0.0.UPF

CELL_PARAMETERS {angstrom}
5.97820000 0.00000000 0.00000000
0.00000000 8.45446000 0.00000000
0.00000000 0.00000000 26.34080000

ATOMIC_POSITIONS {angstrom}
Ni 1.49455000 0.00000000 -1.0567929000000014 0 0 0
Ni 4.48365000 4.22723000 -1.0567929000000014 0 0 0
Ni 4.48365000 0.00000000 -1.0567929000000014 0 0 0
Ni 1.49455000 4.22723000 -1.0567929000000014 0 0 0
Ni 4.48365000 6.34084500 -3.1703786900000033 0 0 0
Ni 1.49455000 2.11361500 -3.1703786900000033 0 0 0
Ni 1.49455000 6.34084500 -3.1703786900000033 0 0 0
Ni 4.48365000 2.11361500 -3.1703786900000033 0 0 0
Ni 0.00000000 6.34084500 -1.0567929000000014 0 0 0
Ni 2.98910000 0.00000000 -3.1703786900000033 0 0 0
Ni 0.00000000 2.11361500 -1.0567929000000014 0 0 0
Ni 2.98910000 4.22723000 -3.1703786900000033 0 0 0
Ni 1.48366968 4.22731454 3.07239091
Ni 4.49548684 8.45412182 3.07265432
Ni 4.49464989 4.22723000 3.07318114
Ni 1.48295229 8.45429091 3.07265432
Ni 4.40659100 2.11395318 1.08076302
Ni 1.57250573 6.34118318 1.08049962
Ni 1.57172856 2.11361500 1.08102643
Ni 4.40575405 6.34092954 1.08128984
Ni 0.00005978 2.11336137 3.04157218
Ni 2.98910000 4.22672273 1.02755461
Ni 5.97784131 6.34160590 3.04236240
Ni 2.98927935 0.00160635 1.02781802
Sb 0.00000000 0.00000000 -3.1703786900000033 0 0 0
Sb 2.98910000 2.11361500 -1.0567929000000014 0 0 0
Sb 2.98910000 6.34084500 -1.0567929000000014 0 0 0
Sb 0.00000000 4.22723000 -3.1703786900000033 0 0 0
Sb 5.97814022 4.22731454 1.02044259
Sb 2.98910000 6.34092954 3.34528160
Sb 2.98915978 2.11353046 3.34501819
Sb 0.00000000 8.45429091 1.01991578
