&CONTROL
calculation = 'relax'
prefix = 'scf'
pseudo_dir = '/vol0403/data/hp230205/u10028/POT_HYBRID_KKJUS_GBRV'
outdir = './data'
tprnfor = .true.
nstep = 50
disk_io = 'non'
/
&SYSTEM
ibrav = 0
ecutwfc = 50.0
ecutrho = 400
occupations = 'smearing'
smearing = 'mp'
degauss = 0.01
assume_isolated = 'esm'
esm_bc = 'bc1'
input_dft = 'BEEF-VDW'
nosym = .true.
nspin = 1
ntyp = 5
nat = 17
/
&ELECTRONS
electron_maxstep = 200
mixing_beta = 0.1
conv_thr = 1e-06
/
&IONS
ion_dynamics = 'bfgs'
upscale = 1.0
/
&CELL
/

K_POINTS {automatic}
6 6 1 0 0 0

ATOMIC_SPECIES
Al 26.98 Al.pbe-nl-rrkjus_psl.1.0.0.UPF
C 12.01 C.pbe-n-rrkjus_psl.1.0.0.UPF
In 114.8 In.pbe-dn-rrkjus_psl.1.0.0.UPF
Li 6.941 Li.pbe-sl-rrkjus_psl.1.0.0.UPF
Sc 44.95 Sc.pbe-spn-rrkjus_psl.1.0.0.UPF


CELL_PARAMETERS {angstrom}
6.04255000 0.00000000 0.00000000
0.00000000 8.49254000 0.00000000
0.00000000 0.00000000 24.52830000

ATOMIC_POSITIONS {angstrom}
Li 4.54713973 2.12313500 0.93035842
Li 1.33050908 2.12313500 -2.264207370000001 0 0 0
Li 4.56182312 6.36923515 0.92152823
Li 1.33050908 6.36940500 -2.264207370000001 0 0 0
Sc 1.57426555 2.12313500 0.78392447
Sc 4.35178408 2.12313500 -2.264207370000001 0 0 0
Sc 1.39244522 6.36932007 0.81703767
Sc 4.35178408 6.36940500 -2.264207370000001 0 0 0
Al 0.00459234 0.20517977 2.35030171
Al 2.90120953 0.00000000 -0.7547357900000016 0 0 0
Al 0.00453191 4.04109023 2.35030171
Al 2.90120953 4.24627000 -0.7547357900000016 0 0 0
In 3.11203410 8.25975948 2.38243378
In 5.92248453 0.00000000 -0.7547357900000016 0 0 0
In 3.11239665 4.47913545 2.38267906
In 5.92248453 4.24627000 -0.7547357900000016 0 0 0
C 0.10930973 2.12321993 2.27450926
