&CONTROL
calculation = 'relax'
prefix = 'scf'
pseudo_dir = '/vol0004/mdt0/data/hp150275/u10028/POT_KKJUS'
outdir = './data'
tprnfor = .true.
nstep = 50
disk_io = 'non'
/
&SYSTEM
ibrav = 0
ecutwfc = 50.0
ecutrho = 400
occupations = 'smearing'
smearing = 'mp'
degauss = 0.01
assume_isolated = 'esm'
esm_bc = 'bc1'
input_dft = 'BEEF-VDW'
nosym = .true.
nspin = 1
ntyp = 3
nat = 17
/
&ELECTRONS
electron_maxstep = 200
mixing_beta = 0.1
conv_thr = 1e-06
/
&IONS
ion_dynamics = 'bfgs'
upscale = 1.0
/
&CELL
/

K_POINTS {automatic}
7 11 2 0  0  0

ATOMIC_SPECIES
C 12.01 C.pbe-n-rrkjus_psl.1.0.0.UPF
In 114.8 In.pbe-dn-rrkjus_psl.1.0.0.UPF
Sc 44.95 Sc.pbe-spn-rrkjus_psl.1.0.0.UPF

CELL_PARAMETERS {angstrom}
9.13703000 0.00000000 0.00000000
0.00000000 6.46086000 0.00000000
0.00000000 0.00000000 24.84560000

ATOMIC_POSITIONS {angstrom}
Sc 0.00000000 0.00000000 -2.4226944600000024 0 0 0
Sc 0.00000000 3.23043000 0.66958892
Sc 4.56851500 0.00000000 -2.4226944600000024 0 0 0
Sc 4.56851500 3.23043000 1.10761685
In 0.00000000 3.23043000 -2.4226944600000024 0 0 0
In 2.28425750 4.84564500 -0.8074820000000003 0 0 0
In 2.28425750 1.61521500 -0.8074820000000003 0 0 0
In 0.00000000 0.00000000 0.52523598
In 1.91996411 1.60778501 2.68580936
In 1.91987274 4.85307499 2.68580936
In 4.56851500 3.23043000 -2.4226944600000024 0 0 0
In 6.85277250 4.84564500 -0.8074820000000003 0 0 0
In 6.85277250 1.61521500 -0.8074820000000003 0 0 0
In 4.56851500 0.00000000 1.14240069
In 7.21706589 1.60778501 2.68580936
In 7.21697452 4.85307499 2.68580936
C 0.00000000 0.00006461 2.78519176
