&CONTROL
calculation = 'relax'
prefix = 'scf'
pseudo_dir = '/vol0004/mdt0/data/hp150275/u10028/POT_KKJUS'
outdir = './data'
tprnfor = .true.
nstep = 50
disk_io = 'non'
/
&SYSTEM
ibrav = 0
ecutwfc = 50.0
ecutrho = 400
occupations = 'smearing'
smearing = 'mp'
degauss = 0.01
assume_isolated = 'esm'
esm_bc = 'bc1'
input_dft = 'BEEF-VDW'
nosym = .true.
nspin = 1
ntyp = 4
nat = 18
/
&ELECTRONS
electron_maxstep = 200
mixing_beta = 0.1
conv_thr = 1e-06
/
&IONS
ion_dynamics = 'bfgs'
upscale = 1.0
/
&CELL
/

K_POINTS {automatic}
10 10 2 0  0  0

ATOMIC_SPECIES
C 12.01 C.pbe-n-rrkjus_psl.1.0.0.UPF
Ni 58.69 Ni.pbe-spn-rrkjus_psl.1.0.0.UPF
O 15.99 O.pbe-n-rrkjus_psl.1.0.0.UPF
Zn 65.40 Zn.pbe-dnl-rrkjus_psl.1.0.0.UPF

CELL_PARAMETERS {angstrom}
5.79956000 0.00000000 0.00000000
-0.00000000 5.79956000 0.00000000
0.00000000 0.00000000 24.34970000

ATOMIC_POSITIONS {angstrom}
Zn 1.44989000 1.44989000 -0.7640935899999981 0 0 0
Zn 1.44989000 1.44989000 2.13571219
Zn 1.44989000 4.34967000 -0.7640935899999981 0 0 0
Zn 1.44989000 4.34967000 2.13571219
Zn 4.34967000 1.44989000 -0.7640935899999981 0 0 0
Zn 4.34967000 1.44989000 2.13571219
Zn 4.34967000 4.34967000 -0.7640935899999981 0 0 0
Zn 4.34967000 4.34967000 2.13571219
Ni 0.00000000 0.00000000 -2.2138747199999997 0 0 0
Ni 0.00000000 0.00000000 0.68593105
Ni 0.00000000 2.89978000 -2.2138747199999997 0 0 0
Ni 0.00000000 2.89978000 0.68593105
Ni 2.89978000 0.00000000 -2.2138747199999997 0 0 0
Ni 2.89978000 -0.00000000 0.68593105
Ni 2.89978000 2.89978000 -2.2138747199999997 0 0 0
Ni 2.89978000 2.89978000 0.68593105
C 1.44989000 1.44989000 4.03571928
O 1.44989000 1.44989000 5.18575561
