&CONTROL
calculation = 'relax'
prefix = 'scf'
pseudo_dir = '/vol0403/data/hp230205/u10028/POT_HYBRID_KKJUS_GBRV'
outdir = './data'
tprnfor = .true.
nstep = 50
disk_io = 'non'
/
&SYSTEM
ibrav = 0
ecutwfc = 50.0
ecutrho = 400
occupations = 'smearing'
smearing = 'mp'
degauss = 0.01
assume_isolated = 'esm'
esm_bc = 'bc1'
input_dft = 'BEEF-VDW'
nosym = .true.
nspin = 1
ntyp = 6
nat = 18
/
&ELECTRONS
electron_maxstep = 200
mixing_beta = 0.1
conv_thr = 1e-06
/
&IONS
ion_dynamics = 'bfgs'
upscale = 1.0
/
&CELL
/

K_POINTS {automatic}
8 8 1 0 0 0

ATOMIC_SPECIES
C 12.01 C.pbe-n-rrkjus_psl.1.0.0.UPF
Ge 72.64 Ge.pbe-dn-rrkjus_psl.1.0.0.UPF
Li 6.941 Li.pbe-sl-rrkjus_psl.1.0.0.UPF
O 15.99 O.pbe-n-rrkjus_psl.1.0.0.UPF
Pd 106.4 Pd.pbe-n-rrkjus_psl.1.0.0.UPF
Sn 118.7 Sn.pbe-dn-rrkjus_psl.1.0.0.UPF


CELL_PARAMETERS {angstrom}
6.61012000 0.00000000 0.00000000
0.00000000 6.61012000 0.00000000
0.00000000 0.00000000 24.95760000

ATOMIC_POSITIONS {angstrom}
Li 4.94119690 1.66694006 0.80787751
Li 4.95759000 4.95759000 -2.478788829999999 0 0 0
Li 1.65253000 1.65253000 -2.478788829999999 0 0 0
Li 1.66859259 4.94238672 0.80787751
Sn 6.60978949 3.30506000 2.66721871
Sn 0.00000000 0.00000000 -0.8263461399999983 0 0 0
Sn 3.30506000 3.30506000 -0.8263461399999983 0 0 0
Sn 3.30459729 6.60998780 2.66846659
Ge 0.00013220 6.60998780 2.16731798
Ge 0.00000000 3.30506000 -0.8263461399999983 0 0 0
Ge 3.30506000 0.00000000 -0.8263461399999983 0 0 0
Ge 3.30525830 3.30499390 2.28636574
Pd 1.67321968 1.67288917 0.72826277
Pd 1.65253000 4.95759000 -2.478788829999999 0 0 0
Pd 4.95759000 1.65253000 -2.478788829999999 0 0 0
Pd 4.93643762 4.93789184 0.72826277
C 0.00158643 0.00138813 6.15753907
O 6.60992170 6.60985560 7.29236114
