&CONTROL
calculation = 'relax'
prefix = 'scf'
pseudo_dir = '/vol0004/mdt0/data/hp150275/u10028/POT_KKJUS'
outdir = './data'
tprnfor = .true.
nstep = 50
disk_io = 'non'
/
&SYSTEM
ibrav = 0
ecutwfc = 50.0
ecutrho = 400
occupations = 'smearing'
smearing = 'mp'
degauss = 0.01
assume_isolated = 'esm'
esm_bc = 'bc1'
input_dft = 'BEEF-VDW'
nosym = .true.
nspin = 1
ntyp = 3
nat = 33
/
&ELECTRONS
electron_maxstep = 200
mixing_beta = 0.1
conv_thr = 1e-06
/
&IONS
ion_dynamics = 'bfgs'
upscale = 1.0
/
&CELL
/

K_POINTS {automatic}
8 6 1 0 0 0

ATOMIC_SPECIES
Ag 107.8 Ag.pbe-n-rrkjus_psl.1.0.0.UPF
C 12.01 C.pbe-n-rrkjus_psl.1.0.0.UPF
In 114.8 In.pbe-dn-rrkjus_psl.1.0.0.UPF

CELL_PARAMETERS {angstrom}
7.14855000 0.00000000 0.00000000
0.00000000 10.10960000 0.00000000
0.00000000 0.00000000 27.58220000

ATOMIC_POSITIONS {angstrom}
In 1.78713750 2.52740000 -3.791173390000001 0 0 0
In 1.78713750 0.00000000 -1.2638163999999996 0 0 0
In 1.81494536 2.55934634 1.20589378
In 1.69013168 5.05480000 4.05154936
In 1.78713750 7.58220000 -3.791173390000001 0 0 0
In 1.78713750 5.05480000 -1.2638163999999996 0 0 0
In 1.81494536 7.55015257 1.20589378
In 2.07479515 10.10949890 4.23386770
In 5.36141250 2.52740000 -3.791173390000001 0 0 0
In 5.36141250 0.00000000 -1.2638163999999996 0 0 0
In 5.33360464 2.55934634 1.20589378
In 5.45841832 5.05480000 4.05154936
In 5.36141250 7.58220000 -3.791173390000001 0 0 0
In 5.36141250 5.05480000 -1.2638163999999996 0 0 0
In 5.33360464 7.55015257 1.20589378
In 5.07361188 0.00000000 4.23304023
Ag 0.00000000 0.00000000 -3.791173390000001 0 0 0
Ag 0.00000000 2.52740000 -1.2638163999999996 0 0 0
Ag 0.00000000 5.05469890 1.32918622
Ag 0.00007149 2.46057554 3.65215910
Ag 0.00000000 5.05480000 -3.791173390000001 0 0 0
Ag 0.00000000 7.58220000 -1.2638163999999996 0 0 0
Ag 0.00007149 0.00000000 1.23485509
Ag 0.00000000 7.64912555 3.65215910
Ag 3.57427500 0.00000000 -3.791173390000001 0 0 0
Ag 3.57427500 2.52740000 -1.2638163999999996 0 0 0
Ag 3.57427500 5.05480000 1.36256068
Ag 3.57420351 2.66984426 3.65822719
Ag 3.57427500 5.05480000 -3.791173390000001 0 0 0
Ag 3.57427500 7.58220000 -1.2638163999999996 0 0 0
Ag 3.57427500 10.10949890 1.33139279
Ag 3.57427500 7.43975574 3.65822719
C 0.00000000 0.00030329 3.51259317
