&CONTROL
calculation = 'relax'
prefix = 'scf'
pseudo_dir = '/vol0403/data/hp230205/u10028/POT_HYBRID_KKJUS_GBRV'
outdir = './data'
tprnfor = .true.
nstep = 50
disk_io = 'non'
/
&SYSTEM
ibrav = 0
ecutwfc = 50.0
ecutrho = 400
occupations = 'smearing'
smearing = 'mp'
degauss = 0.01
assume_isolated = 'esm'
esm_bc = 'bc1'
input_dft = 'BEEF-VDW'
nosym = .true.
nspin = 1
ntyp = 4
nat = 32
/
&ELECTRONS
electron_maxstep = 200
mixing_beta = 0.1
conv_thr = 1e-06
/
&IONS
ion_dynamics = 'bfgs'
upscale = 1.0
/
&CELL
/

K_POINTS {automatic}
6 6 1 0 0 0

ATOMIC_SPECIES
Ag 107.8 Ag.pbe-n-rrkjus_psl.1.0.0.UPF
In 114.8 In.pbe-dn-rrkjus_psl.1.0.0.UPF
Li 6.941 Li.pbe-sl-rrkjus_psl.1.0.0.UPF
Mg 24.30 Mg.pbe-spnl-rrkjus_psl.1.0.0.UPF


CELL_PARAMETERS {angstrom}
6.69019000 0.00000000 0.00000000
0.00000000 9.46136000 0.00000000
0.00000000 0.00000000 27.09600000

ATOMIC_POSITIONS {angstrom}
Li 0.00000000 2.36534000 -1.1827404000000001 0 0 0
Li 0.00000000 7.09602000 -1.1827404000000001 0 0 0
Li 3.34509500 4.73068000 -3.5479502399999987 0 0 0
Li 3.34509500 0.00000000 -3.5479502399999987 0 0 0
Li 0.10229301 7.09602000 3.84952872
Li 0.10222610 2.36534000 3.84925776
Li 3.31692930 0.00000000 1.29898224
Li 3.31699620 4.73068000 1.29898224
Mg 5.01764250 0.00000000 -1.1827404000000001 0 0 0
Mg 5.01764250 4.73068000 -1.1827404000000001 0 0 0
Mg 1.67254750 2.36534000 -3.5479502399999987 0 0 0
Mg 1.67254750 7.09602000 -3.5479502399999987 0 0 0
Mg 4.99007892 4.73068000 3.71486160
Mg 4.99007892 0.00000000 3.71486160
Mg 1.65026917 7.09602000 1.26457032
Mg 1.65033607 2.36534000 1.26457032
In 1.67254750 0.00000000 -1.1827404000000001 0 0 0
In 1.67254750 4.73068000 -1.1827404000000001 0 0 0
In 5.01764250 2.36534000 -3.5479502399999987 0 0 0
In 5.01764250 7.09602000 -3.5479502399999987 0 0 0
In 1.61320551 4.73068000 3.93054576
In 1.61320551 0.00000000 3.93054576
In 5.03048766 7.09602000 1.31686560
In 5.03048766 2.36534000 1.31659464
Ag 0.00000000 0.00000000 -3.5479502399999987 0 0 0
Ag 0.00000000 4.73068000 -3.5479502399999987 0 0 0
Ag 3.34509500 7.09602000 -1.1827404000000001 0 0 0
Ag 3.34509500 2.36534000 -1.1827404000000001 0 0 0
Ag 0.04154608 4.73068000 1.23855816
Ag 0.04154608 0.00000000 1.23855816
Ag 3.27578463 2.36534000 3.60376800
Ag 3.27571773 7.09602000 3.60376800
