&CONTROL
calculation = 'relax'
prefix = 'scf'
pseudo_dir = '/vol0004/mdt0/data/hp150275/u10028/POT_KKJUS'
outdir = './data'
tprnfor = .true.
nstep = 50
disk_io = 'non'
/
&SYSTEM
ibrav = 0
ecutwfc = 50.0
ecutrho = 400
occupations = 'smearing'
smearing = 'mp'
degauss = 0.01
assume_isolated = 'esm'
esm_bc = 'bc1'
input_dft = 'BEEF-VDW'
nosym = .true.
nspin = 1
ntyp = 5
nat = 34
/
&ELECTRONS
electron_maxstep = 200
mixing_beta = 0.1
conv_thr = 1e-06
/
&IONS
ion_dynamics = 'bfgs'
upscale = 1.0
/
&CELL
/

K_POINTS {automatic}
8 6 1 0 0 0

ATOMIC_SPECIES
C 12.01 C.pbe-n-rrkjus_psl.1.0.0.UPF
In 114.8 In.pbe-dn-rrkjus_psl.1.0.0.UPF
Li 6.941 Li.pbe-sl-rrkjus_psl.1.0.0.UPF
O 15.99 O.pbe-n-rrkjus_psl.1.0.0.UPF
Ru 101.0 Ru.pbe-spn-rrkjus_psl.1.0.0.UPF

CELL_PARAMETERS {angstrom}
6.56971000 0.00000000 0.00000000
0.00000000 9.29097000 0.00000000
0.00000000 0.00000000 26.96820000

ATOMIC_POSITIONS {angstrom}
Li 0.00000000 0.00000000 -3.484021760000001 0 0 0
Li 3.28485500 2.32274250 -1.1612506899999993 0 0 0
Li 3.28485500 6.96822750 -1.1612506899999993 0 0 0
Li 0.00000000 4.64548500 -3.484021760000001 0 0 0
Li 0.00000000 4.64920139 1.12996758
Li 3.28485500 6.96822750 3.55386940
Li 3.28485500 2.32274250 3.53714911
Li 0.00000000 9.28734652 1.12996758
In 1.64242750 0.00000000 -1.1612506899999993 0 0 0
In 4.92728250 4.64548500 -1.1612506899999993 0 0 0
In 4.92728250 0.00000000 -1.1612506899999993 0 0 0
In 1.64242750 4.64548500 -1.1612506899999993 0 0 0
In 4.92728250 6.96822750 -3.484021760000001 0 0 0
In 1.64242750 2.32274250 -3.484021760000001 0 0 0
In 1.64242750 6.96822750 -3.484021760000001 0 0 0
In 4.92728250 2.32274250 -3.484021760000001 0 0 0
In 1.56818978 4.68775891 3.56951095
In 5.00152022 9.24869609 3.56951095
In 5.00152022 4.68775891 3.56951095
In 1.56818978 9.24869609 3.56951095
In 4.91381459 2.32274250 1.15801451
In 1.66318778 6.96822750 1.12565267
In 1.65596110 2.32274250 1.15801451
In 4.90652222 6.96822750 1.12565267
Ru 0.00000000 6.96822750 -1.1612506899999993 0 0 0
Ru 3.28485500 0.00000000 -3.484021760000001 0 0 0
Ru 0.00000000 2.32274250 -1.1612506899999993 0 0 0
Ru 3.28485500 4.64548500 -3.484021760000001 0 0 0
Ru 0.00000000 2.32274250 3.50532664
Ru 3.28485500 4.63145564 1.17824066
Ru 0.00000000 6.96822750 3.26989425
Ru 3.28485500 0.01393646 1.17824066
C 0.00000000 2.32274250 5.36586275
O 0.00000000 2.32274250 6.53250709
