&CONTROL
calculation = 'relax'
prefix = 'scf'
pseudo_dir = '/vol0004/mdt0/data/hp150275/u10028/POT_KKJUS'
outdir = './data'
tprnfor = .true.
nstep = 50
disk_io = 'non'
/
&SYSTEM
ibrav = 0
ecutwfc = 50.0
ecutrho = 400
occupations = 'smearing'
smearing = 'mp'
degauss = 0.01
assume_isolated = 'esm'
esm_bc = 'bc1'
input_dft = 'BEEF-VDW'
nosym = .true.
nspin = 1
ntyp = 5
nat = 34
/
&ELECTRONS
electron_maxstep = 200
mixing_beta = 0.1
conv_thr = 1e-06
/
&IONS
ion_dynamics = 'bfgs'
upscale = 1.0
/
&CELL
/

K_POINTS {automatic}
9 6 2 0  0  0

ATOMIC_SPECIES
C 12.01 C.pbe-n-rrkjus_psl.1.0.0.UPF
In 114.8 In.pbe-dn-rrkjus_psl.1.0.0.UPF
O 15.99 O.pbe-n-rrkjus_psl.1.0.0.UPF
Pd 106.4 Pd.pbe-n-rrkjus_psl.1.0.0.UPF
Y 88.90 Y.pbe-spn-rrkjus_psl.1.0.0.UPF

CELL_PARAMETERS {angstrom}
6.85111000 0.00000000 0.00000000
0.00000000 9.68893000 0.00000000
0.00000000 0.00000000 27.26670000

ATOMIC_POSITIONS {angstrom}
Y 0.00000000 0.00000000 -3.633287769999999 0 0 0
Y 3.42555500 2.42223250 -1.211186810000001 0 0 0
Y 3.42555500 7.26669750 -1.211186810000001 0 0 0
Y 0.00000000 4.84446500 -3.633287769999999 0 0 0
Y 0.01178391 4.84446500 1.18937345
Y 3.42397924 7.28723803 3.66546248
Y 3.42391073 2.40169197 3.66546248
Y 0.01856651 0.00000000 1.21527682
In 0.00000000 7.26669750 -1.211186810000001 0 0 0
In 3.42555500 0.00000000 -3.633287769999999 0 0 0
In 0.00000000 2.42223250 -1.211186810000001 0 0 0
In 3.42555500 4.84446500 -3.633287769999999 0 0 0
In 6.83377669 2.44500149 3.65728247
In 3.41788176 4.84446500 1.26435688
In 6.83377669 7.24392851 3.65728247
In 3.42295158 0.00000000 1.28289823
Pd 1.71277750 0.00000000 -1.211186810000001 0 0 0
Pd 5.13833250 4.84446500 -1.211186810000001 0 0 0
Pd 5.13833250 0.00000000 -1.211186810000001 0 0 0
Pd 1.71277750 4.84446500 -1.211186810000001 0 0 0
Pd 5.13833250 7.26669750 -3.633287769999999 0 0 0
Pd 1.71277750 2.42223250 -3.633287769999999 0 0 0
Pd 1.71277750 7.26669750 -3.633287769999999 0 0 0
Pd 5.13833250 2.42223250 -3.633287769999999 0 0 0
Pd 1.61980794 4.84446500 3.50131695
Pd 5.26850359 0.00000000 3.48004892
Pd 5.22253264 4.84446500 3.49041027
Pd 1.60130994 9.68883311 3.87596140
Pd 5.08194786 2.42823964 1.26081221
Pd 1.79451124 7.29411717 1.28480690
Pd 1.79444273 2.39490972 1.28480690
Pd 5.08187935 7.26069036 1.26081221
C 2.21078469 0.00000000 5.73636835
O 2.30183594 0.00000000 6.89138576
