&CONTROL
calculation = 'relax'
prefix = 'scf'
pseudo_dir = '/vol0403/data/hp230205/u10028/POT_HYBRID_KKJUS_GBRV'
outdir = './data'
tprnfor = .true.
nstep = 50
disk_io = 'non'
/
&SYSTEM
ibrav = 0
ecutwfc = 50.0
ecutrho = 400
occupations = 'smearing'
smearing = 'mp'
degauss = 0.01
assume_isolated = 'esm'
esm_bc = 'bc1'
input_dft = 'BEEF-VDW'
nosym = .true.
nspin = 1
ntyp = 5
nat = 17
/
&ELECTRONS
electron_maxstep = 200
mixing_beta = 0.1
conv_thr = 1e-06
/
&IONS
ion_dynamics = 'bfgs'
upscale = 1.0
/
&CELL
/

K_POINTS {automatic}
9 10 2 0  0  0

ATOMIC_SPECIES
C 12.01 C.pbe-n-rrkjus_psl.1.0.0.UPF
Ga 69.72 Ga.pbe-dnl-rrkjus_psl.1.0.0.UPF
Pd 106.4 Pd.pbe-n-rrkjus_psl.1.0.0.UPF
Sc 44.95 Sc.pbe-spn-rrkjus_psl.1.0.0.UPF
Y 88.90 Y.pbe-spn-rrkjus_psl.1.0.0.UPF


CELL_PARAMETERS {angstrom}
7.06732000 0.00000000 0.00000000
0.00000000 6.83834000 0.00000000
0.00000000 0.00000000 25.12490000

ATOMIC_POSITIONS {angstrom}
Y 1.76683000 5.05989292 1.07961695
Y 1.76683000 1.51127314 -2.562488550000001 0 0 0
Y 5.30049000 5.04539564 0.96278617
Y 5.30049000 1.51127314 -2.562488550000001 0 0 0
Sc 1.76683000 1.52337700 0.86077907
Sc 1.76683000 4.93044314 -2.562488550000001 0 0 0
Sc 5.30049000 1.53110433 0.73440083
Sc 5.30049000 4.93044314 -2.562488550000001 0 0 0
Ga 6.91445387 0.24447066 2.66876688
Ga 0.00000000 3.28698489 -0.8542465999999997 0 0 0
Ga 3.68652613 0.24453904 2.66876688
Ga 3.53366000 3.28698489 -0.8542465999999997 0 0 0
Pd 6.95904866 3.03547074 2.17355510
Pd 0.00000000 6.70615489 -0.8542465999999997 0 0 0
Pd 3.64186067 3.03560751 2.17330385
Pd 3.53366000 6.70615489 -0.8542465999999997 0 0 0
C 1.76683000 0.05381774 2.52052997
