&CONTROL
calculation = 'relax'
prefix = 'scf'
pseudo_dir = '/vol0004/mdt0/data/hp150275/u10028/POT_KKJUS'
outdir = './data'
tprnfor = .true.
nstep = 50
disk_io = 'non'
/
&SYSTEM
ibrav = 0
ecutwfc = 50.0
ecutrho = 400
occupations = 'smearing'
smearing = 'mp'
degauss = 0.01
assume_isolated = 'esm'
esm_bc = 'bc1'
input_dft = 'BEEF-VDW'
nosym = .true.
nspin = 1
ntyp = 4
nat = 18
/
&ELECTRONS
electron_maxstep = 200
mixing_beta = 0.1
conv_thr = 1e-06
/
&IONS
ion_dynamics = 'bfgs'
upscale = 1.0
/
&CELL
/

K_POINTS {automatic}
8 11 2 0  0  0

ATOMIC_SPECIES
C 12.01 C.pbe-n-rrkjus_psl.1.0.0.UPF
Ni 58.69 Ni.pbe-spn-rrkjus_psl.1.0.0.UPF
O 15.99 O.pbe-n-rrkjus_psl.1.0.0.UPF
Si 28.08 Si.pbe-nl-rrkjus_psl.1.0.0.UPF

CELL_PARAMETERS {angstrom}
7.08204000 0.00000000 0.00000000
0.00000000 5.00776000 0.00000000
0.00000000 0.00000000 23.75580000

ATOMIC_POSITIONS {angstrom}
Si 0.00007082 5.00770992 1.66338112
Si 0.00000000 2.50388000 -0.6259653299999997 0 0 0
Si 3.54123246 0.00000000 1.67715948
Si 3.54102000 2.50388000 -0.6259653299999997 0 0 0
Ni 7.08189836 2.50398016 2.05392647
Ni 1.74692681 3.76172916 0.67775297
Ni 1.74678517 1.24608092 0.67775297
Ni 0.00000000 0.00000000 -0.6259653299999997 0 0 0
Ni 1.77051000 1.25194000 -1.877895989999999 0 0 0
Ni 1.77051000 3.75582000 -1.877895989999999 0 0 0
Ni 3.54116164 2.50393008 1.78786151
Ni 5.33553812 3.76147877 0.67727786
Ni 5.33518401 1.24573038 0.67751542
Ni 3.54102000 0.00000000 -0.6259653299999997 0 0 0
Ni 5.31153000 1.25194000 -1.877895989999999 0 0 0
Ni 5.31153000 3.75582000 -1.877895989999999 0 0 0
C 0.00014164 2.50388000 3.84392600
O 0.00028328 2.50372977 4.99631986
