&CONTROL
calculation = 'relax'
prefix = 'scf'
pseudo_dir = '/vol0403/data/hp230205/u10028/POT_HYBRID_KKJUS_GBRV'
outdir = './data'
tprnfor = .true.
nstep = 50
disk_io = 'non'
/
&SYSTEM
ibrav = 0
ecutwfc = 50.0
ecutrho = 400
occupations = 'smearing'
smearing = 'mp'
degauss = 0.01
assume_isolated = 'esm'
esm_bc = 'bc1'
input_dft = 'BEEF-VDW'
nosym = .true.
nspin = 2
ntyp = 6
nat = 34
starting_magnetization(1) = 0.0
starting_magnetization(2) = 0.0
starting_magnetization(3) = 0.0
starting_magnetization(4) = 0.001
starting_magnetization(5) = 0.0
starting_magnetization(6) = 0.0
/
&ELECTRONS
electron_maxstep = 200
mixing_beta = 0.1
conv_thr = 1e-06
/
&IONS
ion_dynamics = 'bfgs'
upscale = 1.0
/
&CELL
/

K_POINTS {automatic}
9 6 2 0  0  0

ATOMIC_SPECIES
C 12.01 C.pbe-n-rrkjus_psl.1.0.0.UPF
Ga 69.72 Ga.pbe-dnl-rrkjus_psl.1.0.0.UPF
Li 6.941 Li.pbe-sl-rrkjus_psl.1.0.0.UPF
Ni 58.69 ni_pbe_v1.4.uspp.F.UPF
O 15.99 O.pbe-n-rrkjus_psl.1.0.0.UPF
Pd 106.4 Pd.pbe-n-rrkjus_psl.1.0.0.UPF


CELL_PARAMETERS {angstrom}
5.93220000 0.00000000 0.00000000
0.00000000 8.38940000 0.00000000
0.00000000 0.00000000 26.29200000

ATOMIC_POSITIONS {angstrom}
Li 0.00000000 2.09735000 25.24321212
Li 0.00000000 6.29205000 25.24321212
Li 2.96610000 4.19470000 23.14589928
Li 2.96610000 0.00000000 23.14589928
Li 0.04739828 6.29205000 3.54757956
Li 0.03766947 2.09735000 3.50262024
Li 2.99510846 8.37731926 0.97963992
Li 2.99516778 4.20678074 0.97937700
Ga 0.00000000 0.00000000 23.14589928
Ga 0.00000000 4.19470000 23.14589928
Ga 2.96610000 6.29205000 25.24321212
Ga 2.96610000 2.09735000 25.24321212
Ga 5.93214068 4.17909572 1.02696552
Ga 5.93214068 0.01560428 1.02696552
Ga 2.91526105 2.09735000 3.32462340
Ga 2.92415935 6.29205000 3.17028936
Ni 1.48305000 0.00000000 25.24321212
Ni 1.48305000 4.19470000 25.24321212
Ni 4.44915000 2.09735000 23.14589928
Ni 4.44915000 6.29205000 23.14589928
Ni 1.60032959 4.20711631 2.93418720
Ni 1.60021095 8.37706758 2.93418720
Ni 4.49370082 6.29205000 1.06850688
Ni 4.47133643 2.09735000 1.10373816
Pd 4.44915000 0.00000000 25.24321212
Pd 4.44915000 4.19470000 25.24321212
Pd 1.48305000 2.09735000 23.14589928
Pd 1.48305000 6.29205000 23.14589928
Pd 4.39356529 4.20199878 3.04198440
Pd 4.39350596 8.38210122 3.04198440
Pd 1.44389748 6.29205000 1.04589576
Pd 1.49337203 2.09735000 1.09479888
C 2.90458309 2.09735000 5.49345048
O 2.92350680 2.09735000 6.64267380
