&CONTROL
calculation = 'relax'
prefix = 'scf'
pseudo_dir = '/vol0004/mdt0/data/hp150275/u10028/POT_KKJUS'
outdir = './data'
tprnfor = .true.
nstep = 50
disk_io = 'non'
/
&SYSTEM
ibrav = 0
ecutwfc = 50.0
ecutrho = 400
occupations = 'smearing'
smearing = 'mp'
degauss = 0.01
assume_isolated = 'esm'
esm_bc = 'bc1'
input_dft = 'BEEF-VDW'
nosym = .true.
nspin = 1
ntyp = 4
nat = 18
/
&ELECTRONS
electron_maxstep = 200
mixing_beta = 0.1
conv_thr = 1e-06
/
&IONS
ion_dynamics = 'bfgs'
upscale = 1.0
/
&CELL
/

K_POINTS {automatic}
6 8 1 0 0 0

ATOMIC_SPECIES
C 12.01 C.pbe-n-rrkjus_psl.1.0.0.UPF
O 15.99 O.pbe-n-rrkjus_psl.1.0.0.UPF
Pb 207.2 Pb.pbe-dn-rrkjus_psl.1.0.0.UPF
Pt 195.0 Pt.pbe-n-rrkjus_psl.1.0.0.UPF

CELL_PARAMETERS {angstrom}
8.34058000 0.00000000 0.00000000
0.00000000 5.89768000 0.00000000
0.00000000 0.00000000 24.42330000

ATOMIC_POSITIONS {angstrom}
Pt 0.00016681 2.94884000 2.10309036
Pt 2.12292783 4.48276759 0.79375725
Pt 2.12292783 1.41491241 0.79375725
Pt 0.00000000 0.00000000 -0.7370951900000016 0 0 0
Pt 2.08514500 1.47442000 -2.2115298200000026 0 0 0
Pt 2.08514500 4.42326000 -2.2115298200000026 0 0 0
Pt 4.17012319 2.94884000 1.98854509
Pt 6.21765217 4.48276759 0.79375725
Pt 6.21765217 1.41497139 0.79400148
Pt 4.17029000 0.00000000 -0.7370951900000016 0 0 0
Pt 6.25543500 1.47442000 -2.2115298200000026 0 0 0
Pt 6.25543500 4.42326000 -2.2115298200000026 0 0 0
Pb 0.00000000 0.00000000 2.28724205
Pb 0.00000000 2.94884000 -0.7370951900000016 0 0 0
Pb 4.17020659 0.00005898 2.42303559
Pb 4.17029000 2.94884000 -0.7370951900000016 0 0 0
C 0.00000000 2.94884000 3.99882691
O 0.00008341 2.94878102 5.15697980
