&CONTROL
calculation = 'relax'
prefix = 'scf'
pseudo_dir = '/vol0004/mdt0/data/hp150275/u10028/POT_KKJUS'
outdir = './data'
tprnfor = .true.
nstep = 50
disk_io = 'non'
/
&SYSTEM
ibrav = 0
ecutwfc = 50.0
ecutrho = 400
occupations = 'smearing'
smearing = 'mp'
degauss = 0.01
assume_isolated = 'esm'
esm_bc = 'bc1'
input_dft = 'BEEF-VDW'
nosym = .true.
nspin = 1
ntyp = 5
nat = 18
/
&ELECTRONS
electron_maxstep = 200
mixing_beta = 0.1
conv_thr = 1e-06
/
&IONS
ion_dynamics = 'bfgs'
upscale = 1.0
/
&CELL
/

K_POINTS {automatic}
8 8 1 0 0 0

ATOMIC_SPECIES
Ag 107.8 Ag.pbe-n-rrkjus_psl.1.0.0.UPF
C 12.01 C.pbe-n-rrkjus_psl.1.0.0.UPF
In 114.8 In.pbe-dn-rrkjus_psl.1.0.0.UPF
Li 6.941 Li.pbe-sl-rrkjus_psl.1.0.0.UPF
O 15.99 O.pbe-n-rrkjus_psl.1.0.0.UPF

CELL_PARAMETERS {angstrom}
6.67495000 0.00000000 0.00000000
0.00000000 6.67495000 0.00000000
0.00000000 0.00000000 25.00620000

ATOMIC_POSITIONS {angstrom}
Li 0.00000000 0.00000000 -0.8344568899999985 0 0 0
Li 3.33747500 0.00000000 2.50737167
Li 0.00000000 3.33747500 2.50737167
Li 3.33747500 3.33747500 -0.8344568899999985 0 0 0
Li 1.68075241 1.65612184 0.82370423
Li 1.66873750 5.00621250 -2.5031206200000007 0 0 0
Li 4.99419759 5.01882816 0.82370423
Li 5.00621250 1.66873750 -2.5031206200000007 0 0 0
In 0.00013350 0.00006675 2.45860958
In 3.33774200 3.33747500 2.46136027
In 3.33747500 0.00000000 -0.8344568899999985 0 0 0
In 0.00000000 3.33747500 -0.8344568899999985 0 0 0
Ag 1.66873750 1.66873750 -2.5031206200000007 0 0 0
Ag 1.66833700 5.00547826 0.79369679
Ag 5.00621250 5.00621250 -2.5031206200000007 0 0 0
Ag 5.00661300 1.66940500 0.79369679
C 0.00000000 3.33747500 4.58113584
O 0.00000000 3.33747500 5.72366912
