&CONTROL
calculation = 'relax'
prefix = 'scf'
pseudo_dir = '/vol0403/data/hp230205/u10028/POT_HYBRID_KKJUS_GBRV'
outdir = './data'
tprnfor = .true.
nstep = 50
disk_io = 'non'
/
&SYSTEM
ibrav = 0
ecutwfc = 50.0
ecutrho = 400
occupations = 'smearing'
smearing = 'mp'
degauss = 0.01
assume_isolated = 'esm'
esm_bc = 'bc1'
input_dft = 'BEEF-VDW'
nosym = .true.
nspin = 1
ntyp = 5
nat = 17
/
&ELECTRONS
electron_maxstep = 200
mixing_beta = 0.1
conv_thr = 1e-06
/
&IONS
ion_dynamics = 'bfgs'
upscale = 1.0
/
&CELL
/

K_POINTS {automatic}
9 9 2 0  0  0

ATOMIC_SPECIES
C 12.01 C.pbe-n-rrkjus_psl.1.0.0.UPF
Cu 63.54 Cu.pbe-dn-rrkjus_psl.1.0.0.UPF
In 114.8 In.pbe-dn-rrkjus_psl.1.0.0.UPF
Pd 106.4 Pd.pbe-n-rrkjus_psl.1.0.0.UPF
Y 88.90 Y.pbe-spn-rrkjus_psl.1.0.0.UPF


CELL_PARAMETERS {angstrom}
6.76944000 0.00000000 0.00000000
0.00000000 6.76944000 0.00000000
0.00000000 0.00000000 25.07710000

ATOMIC_POSITIONS {angstrom}
Y 5.08127705 1.69263078 1.01662563
Y 5.07708000 5.07708000 -2.5385548300000025 0 0 0
Y 1.69236000 1.69236000 -2.5385548300000025 0 0 0
Y 1.69263078 5.08127705 1.01662563
In 1.69310464 1.69310464 0.58805800
In 1.69236000 5.07708000 -2.5385548300000025 0 0 0
In 5.07708000 1.69236000 -2.5385548300000025 0 0 0
In 5.07870467 5.07870467 1.75113389
Cu 0.33332723 0.33325953 2.77829191
Cu 0.00000000 3.38472000 -0.8461013500000014 0 0 0
Cu 3.38472000 0.00000000 -0.8461013500000014 0 0 0
Cu 3.06926410 3.06926410 2.77051801
Pd 0.26766366 3.12348731 2.60250144
Pd 0.00000000 0.00000000 -0.8461013500000014 0 0 0
Pd 3.38472000 3.38472000 -0.8461013500000014 0 0 0
Pd 3.12355500 0.26773135 2.60250144
C 1.70319110 1.70319110 3.14140832
