&CONTROL
calculation = 'relax'
prefix = 'scf'
pseudo_dir = '/vol0403/data/hp230205/u10028/POT_HYBRID_KKJUS_GBRV'
outdir = './data'
tprnfor = .true.
nstep = 50
disk_io = 'non'
/
&SYSTEM
ibrav = 0
ecutwfc = 50.0
ecutrho = 400
occupations = 'smearing'
smearing = 'mp'
degauss = 0.01
assume_isolated = 'esm'
esm_bc = 'bc1'
input_dft = 'BEEF-VDW'
nosym = .true.
nspin = 1
ntyp = 6
nat = 34
/
&ELECTRONS
electron_maxstep = 200
mixing_beta = 0.1
conv_thr = 1e-06
/
&IONS
ion_dynamics = 'bfgs'
upscale = 1.0
/
&CELL
/

K_POINTS {automatic}
7 7 2 0  0  0

ATOMIC_SPECIES
C 12.01 C.pbe-n-rrkjus_psl.1.0.0.UPF
In 114.8 In.pbe-dn-rrkjus_psl.1.0.0.UPF
O 15.99 O.pbe-n-rrkjus_psl.1.0.0.UPF
Pd 106.4 Pd.pbe-n-rrkjus_psl.1.0.0.UPF
Sn 118.7 Sn.pbe-dn-rrkjus_psl.1.0.0.UPF
Y 88.90 Y.pbe-spn-rrkjus_psl.1.0.0.UPF


CELL_PARAMETERS {angstrom}
8.73372000 0.00000000 0.00000000
0.00000000 9.06394000 0.00000000
0.00000000 0.00000000 26.87300000

ATOMIC_POSITIONS {angstrom}
Y 8.71337043 2.26598500 1.25335672
Y 0.00000000 2.26598500 -3.4365192400000026 0 0 0
Y 0.05965131 6.79795500 1.23884530
Y 0.00000000 6.79795500 -3.4365192400000026 0 0 0
Y 4.38720957 2.26598500 1.25335672
Y 4.36686000 2.26598500 -3.4365192400000026 0 0 0
Y 4.30720869 6.79795500 1.23884530
Y 4.36686000 6.79795500 -3.4365192400000026 0 0 0
In 8.38690398 9.03910480 3.81623473
In 0.00000000 0.00000000 -1.1455959900000003 0 0 0
In 8.38690398 4.55671456 3.81623473
In 0.00000000 4.53197000 -1.1455959900000003 0 0 0
In 4.71367602 9.03910480 3.81623473
In 4.36686000 0.00000000 -1.1455959900000003 0 0 0
In 4.71367602 4.55680520 3.81623473
In 4.36686000 4.53197000 -1.1455959900000003 0 0 0
Sn 2.18343000 0.06381014 1.51536847
Sn 2.18343000 0.00000000 -3.4365192400000026 0 0 0
Sn 2.18343000 4.46815986 1.51536847
Sn 2.18343000 4.53197000 -3.4365192400000026 0 0 0
Sn 6.55029000 9.03321324 1.07250143
Sn 6.55029000 0.00000000 -3.4365192400000026 0 0 0
Sn 6.55029000 4.56269676 1.07250143
Sn 6.55029000 4.53197000 -3.4365192400000026 0 0 0
Pd 2.18343000 2.26598500 3.46527335
Pd 2.18343000 2.26598500 -1.1455959900000003 0 0 0
Pd 2.18343000 6.79795500 3.23577793
Pd 2.18343000 6.79795500 -1.1455959900000003 0 0 0
Pd 6.55029000 2.26598500 3.28146203
Pd 6.55029000 2.26598500 -1.1455959900000003 0 0 0
Pd 6.55029000 6.79795500 3.18633161
Pd 6.55029000 6.79795500 -1.1455959900000003 0 0 0
C 2.18343000 2.26598500 5.45548773
O 2.18343000 2.26598500 6.60645832
