&CONTROL
calculation = 'relax'
prefix = 'scf'
pseudo_dir = '/vol0403/data/hp230205/u10028/POT_HYBRID_KKJUS_GBRV'
outdir = './data'
tprnfor = .true.
nstep = 50
disk_io = 'non'
/
&SYSTEM
ibrav = 0
ecutwfc = 50.0
ecutrho = 400
occupations = 'smearing'
smearing = 'mp'
degauss = 0.01
assume_isolated = 'esm'
esm_bc = 'bc1'
input_dft = 'BEEF-VDW'
nosym = .true.
nspin = 1
ntyp = 5
nat = 33
/
&ELECTRONS
electron_maxstep = 200
mixing_beta = 0.1
conv_thr = 1e-06
/
&IONS
ion_dynamics = 'bfgs'
upscale = 1.0
/
&CELL
/

K_POINTS {automatic}
6 6 1 0 0 0

ATOMIC_SPECIES
Ag 107.8 Ag.pbe-n-rrkjus_psl.1.0.0.UPF
Al 26.98 Al.pbe-nl-rrkjus_psl.1.0.0.UPF
C 12.01 C.pbe-n-rrkjus_psl.1.0.0.UPF
Li 6.941 Li.pbe-sl-rrkjus_psl.1.0.0.UPF
Sn 118.7 Sn.pbe-dn-rrkjus_psl.1.0.0.UPF


CELL_PARAMETERS {angstrom}
8.66686000 0.00000000 0.00000000
0.00000000 8.16098000 0.00000000
0.00000000 0.00000000 26.42010000

ATOMIC_POSITIONS {angstrom}
Li 0.00000000 2.04024500 -1.070014050000001 0 0 0
Li 0.03718083 2.04024500 2.98943432
Li 0.00000000 6.12073500 -1.070014050000001 0 0 0
Li 8.58123142 6.12073500 3.18415045
Li 4.33343000 2.04024500 -1.070014050000001 0 0 0
Li 4.29624917 2.04024500 2.98917011
Li 4.33343000 6.12073500 -1.070014050000001 0 0 0
Li 4.41905858 6.12073500 3.18415045
Al 2.16671500 2.04024500 -3.210042150000003 0 0 0
Al 2.16671500 2.04024500 0.95878543
Al 2.16671500 6.12073500 -3.210042150000003 0 0 0
Al 2.16671500 6.12073500 1.10647379
Al 6.50014500 2.04024500 -3.210042150000003 0 0 0
Al 6.50014500 2.04024500 1.07212766
Al 6.50014500 6.12073500 -3.210042150000003 0 0 0
Al 6.50014500 6.12073500 1.10647379
Ag 0.00000000 0.00000000 -3.210042150000003 0 0 0
Ag 8.65177966 8.02110080 1.10303918
Ag 0.00000000 4.08049000 -3.210042150000003 0 0 0
Ag 8.65177966 4.22045081 1.10303918
Ag 4.33343000 0.00000000 -3.210042150000003 0 0 0
Ag 4.34851034 8.02101919 1.10303918
Ag 4.33343000 4.08049000 -3.210042150000003 0 0 0
Ag 4.34851034 4.22045081 1.10303918
Sn 2.16671500 0.00000000 -1.070014050000001 0 0 0
Sn 2.16671500 8.10605660 3.49009521
Sn 2.16671500 4.08049000 -1.070014050000001 0 0 0
Sn 2.16671500 4.13541340 3.49009521
Sn 6.50014500 0.00000000 -1.070014050000001 0 0 0
Sn 6.50014500 0.05533144 3.24518088
Sn 6.50014500 4.08049000 -1.070014050000001 0 0 0
Sn 6.50014500 4.02515856 3.24518088
C 2.16671500 2.04024500 2.92470507
