&CONTROL
calculation = 'relax'
prefix = 'scf'
pseudo_dir = '/vol0403/data/hp230205/u10028/POT_HYBRID_KKJUS_GBRV'
outdir = './data'
tprnfor = .true.
nstep = 50
disk_io = 'non'
/
&SYSTEM
ibrav = 0
ecutwfc = 50.0
ecutrho = 400
occupations = 'smearing'
smearing = 'mp'
degauss = 0.01
assume_isolated = 'esm'
esm_bc = 'bc1'
input_dft = 'BEEF-VDW'
nosym = .true.
nspin = 1
ntyp = 5
nat = 33
/
&ELECTRONS
electron_maxstep = 200
mixing_beta = 0.1
conv_thr = 1e-06
/
&IONS
ion_dynamics = 'bfgs'
upscale = 1.0
/
&CELL
/

K_POINTS {automatic}
6 6 1 0 0 0

ATOMIC_SPECIES
C 12.01 C.pbe-n-rrkjus_psl.1.0.0.UPF
Ge 72.64 Ge.pbe-dn-rrkjus_psl.1.0.0.UPF
Li 6.941 Li.pbe-sl-rrkjus_psl.1.0.0.UPF
Pd 106.4 Pd.pbe-n-rrkjus_psl.1.0.0.UPF
Zr 91.22 Zr.pbe-spn-rrkjus_psl.1.0.0.UPF


CELL_PARAMETERS {angstrom}
6.47880000 0.00000000 0.00000000
0.00000000 9.16240000 0.00000000
0.00000000 0.00000000 26.87180000

ATOMIC_POSITIONS {angstrom}
Li 1.61970000 0.00000000 -1.145276120000002 0 0 0
Li 1.61970000 4.58120000 -1.145276120000002 0 0 0
Li 4.85910000 2.29060000 -3.4358283500000013 0 0 0
Li 4.85910000 6.87180000 -3.4358283500000013 0 0 0
Li 1.53819670 4.58120000 3.68627352
Li 1.48707896 0.00000000 3.33586525
Li 4.85139023 6.86401196 1.11168637
Li 4.85139023 2.29838804 1.11168637
Zr 4.85910000 0.00000000 -1.145276120000002 0 0 0
Zr 4.85910000 4.58120000 -1.145276120000002 0 0 0
Zr 1.61970000 2.29060000 -3.4358283500000013 0 0 0
Zr 1.61970000 6.87180000 -3.4358283500000013 0 0 0
Zr 4.66408812 4.58120000 3.20849292
Zr 5.37371108 0.00000000 3.87410741
Zr 1.65300103 6.94079287 1.18638997
Zr 1.65306582 2.22160713 1.18638997
Ge 0.00000000 0.00000000 -3.4358283500000013 0 0 0
Ge 0.00000000 4.58120000 -3.4358283500000013 0 0 0
Ge 3.23940000 6.87180000 -1.145276120000002 0 0 0
Ge 3.23940000 2.29060000 -1.145276120000002 0 0 0
Ge 0.07450620 4.58120000 1.25383819
Ge 6.33406361 0.00000000 1.23932742
Ge 3.22819168 2.06328086 3.59249094
Ge 3.22806210 7.09902752 3.59249094
Pd 0.00000000 2.29060000 -1.145276120000002 0 0 0
Pd 0.00000000 6.87180000 -1.145276120000002 0 0 0
Pd 3.23940000 4.58120000 -3.4358283500000013 0 0 0
Pd 3.23940000 0.00000000 -3.4358283500000013 0 0 0
Pd 6.38304334 6.71832980 3.27809088
Pd 6.38297855 2.44407020 3.27782216
Pd 3.49803370 0.00000000 1.56501363
Pd 3.03246713 4.58120000 1.04800020
C 3.35679586 0.00000000 3.85475971
