&CONTROL
calculation = 'relax'
prefix = 'scf'
pseudo_dir = '/vol0403/data/hp230205/u10028/POT_HYBRID_KKJUS_GBRV'
outdir = './data'
tprnfor = .true.
nstep = 50
disk_io = 'non'
/
&SYSTEM
ibrav = 0
ecutwfc = 50.0
ecutrho = 400
occupations = 'smearing'
smearing = 'mp'
degauss = 0.01
assume_isolated = 'esm'
esm_bc = 'bc1'
input_dft = 'BEEF-VDW'
nosym = .true.
nspin = 1
ntyp = 5
nat = 33
/
&ELECTRONS
electron_maxstep = 200
mixing_beta = 0.1
conv_thr = 1e-06
/
&IONS
ion_dynamics = 'bfgs'
upscale = 1.0
/
&CELL
/

K_POINTS {automatic}
6 6 1 0 0 0

ATOMIC_SPECIES
Ag 107.8 Ag.pbe-n-rrkjus_psl.1.0.0.UPF
Al 26.98 Al.pbe-nl-rrkjus_psl.1.0.0.UPF
C 12.01 C.pbe-n-rrkjus_psl.1.0.0.UPF
Li 6.941 Li.pbe-sl-rrkjus_psl.1.0.0.UPF
Pd 106.4 Pd.pbe-n-rrkjus_psl.1.0.0.UPF


CELL_PARAMETERS {angstrom}
6.21941000 0.00000000 0.00000000
0.00000000 8.79558000 0.00000000
0.00000000 0.00000000 26.59670000

ATOMIC_POSITIONS {angstrom}
Li 1.55485250 0.00000000 -1.0995075799999974 0 0 0
Li 1.55485250 4.39779000 -1.0995075799999974 0 0 0
Li 4.66455750 2.19889500 -3.2982567699999983 0 0 0
Li 4.66455750 6.59668500 -3.2982567699999983 0 0 0
Li 1.52985047 4.31731044 3.46289034
Li 1.52985047 0.08030365 3.46289034
Li 4.68010602 6.59668500 1.07158104
Li 4.53587791 2.19889500 1.26653485
Al 4.66455750 0.00000000 -1.0995075799999974 0 0 0
Al 4.66455750 4.39779000 -1.0995075799999974 0 0 0
Al 1.55485250 2.19889500 -3.2982567699999983 0 0 0
Al 1.55485250 6.59668500 -3.2982567699999983 0 0 0
Al 4.66847573 4.43701829 3.30783158
Al 4.66841353 8.75617580 3.30783158
Al 1.53208946 6.59668500 1.13035975
Al 1.64615344 2.19889500 1.04392047
Ag 0.00000000 0.00000000 -3.2982567699999983 0 0 0
Ag 0.00000000 4.39779000 -3.2982567699999983 0 0 0
Ag 3.10970500 6.59668500 -1.0995075799999974 0 0 0
Ag 3.10970500 2.19889500 -1.0995075799999974 0 0 0
Ag 6.21493202 4.35346028 1.09605001
Ag 6.21493202 0.04432972 1.09605001
Ag 3.33553178 2.19880704 4.23206690
Ag 3.11194399 6.59659704 3.29453323
Pd 0.00000000 2.19889500 -1.0995075799999974 0 0 0
Pd 0.00000000 6.59668500 -1.0995075799999974 0 0 0
Pd 3.10970500 4.39779000 -3.2982567699999983 0 0 0
Pd 3.10970500 0.00000000 -3.2982567699999983 0 0 0
Pd 6.13501261 6.59659704 3.13468706
Pd 5.92181123 2.19880704 3.41501628
Pd 3.12208163 8.73409890 1.05296335
Pd 3.12214382 4.45918315 1.05269739
C 1.61841487 2.19871909 2.98069217
