&CONTROL
calculation = 'relax'
prefix = 'scf'
pseudo_dir = '/vol0403/data/hp230205/u10028/POT_HYBRID_KKJUS_GBRV'
outdir = './data'
tprnfor = .true.
nstep = 50
disk_io = 'non'
/
&SYSTEM
ibrav = 0
ecutwfc = 50.0
ecutrho = 400
occupations = 'smearing'
smearing = 'mp'
degauss = 0.01
assume_isolated = 'esm'
esm_bc = 'bc1'
input_dft = 'BEEF-VDW'
nosym = .true.
nspin = 1
ntyp = 6
nat = 34
/
&ELECTRONS
electron_maxstep = 200
mixing_beta = 0.1
conv_thr = 1e-06
/
&IONS
ion_dynamics = 'bfgs'
upscale = 1.0
/
&CELL
/

K_POINTS {automatic}
6 6 1 0 0 0

ATOMIC_SPECIES
C 12.01 C.pbe-n-rrkjus_psl.1.0.0.UPF
Ge 72.64 Ge.pbe-dn-rrkjus_psl.1.0.0.UPF
In 114.8 In.pbe-dn-rrkjus_psl.1.0.0.UPF
Li 6.941 Li.pbe-sl-rrkjus_psl.1.0.0.UPF
Mg 24.30 Mg.pbe-spnl-rrkjus_psl.1.0.0.UPF
O 15.99 O.pbe-n-rrkjus_psl.1.0.0.UPF


CELL_PARAMETERS {angstrom}
8.41850000 0.00000000 0.00000000
0.00000000 8.40992000 0.00000000
0.00000000 0.00000000 26.56300000

ATOMIC_POSITIONS {angstrom}
Li 0.00000000 2.01871720 1.20808524
Li 0.00000000 2.10248000 -3.281593019999999 0 0 0
Li 0.00000000 6.39120280 1.20808524
Li 0.00000000 6.30744000 -3.281593019999999 0 0 0
Li 4.20925000 2.33526659 1.20410079
Li 4.20925000 2.10248000 -3.281593019999999 0 0 0
Li 4.20925000 6.07465341 1.20410079
Li 4.20925000 6.30744000 -3.281593019999999 0 0 0
Mg 2.19175648 2.12838255 3.61628682
Mg 2.10462500 2.10248000 -1.0938643399999997 0 0 0
Mg 2.19167229 6.28145335 3.61628682
Mg 2.10462500 6.30744000 -1.0938643399999997 0 0 0
Mg 6.22682771 2.12838255 3.61628682
Mg 6.31387500 2.10248000 -1.0938643399999997 0 0 0
Mg 6.22682771 6.28153745 3.61628682
Mg 6.31387500 6.30744000 -1.0938643399999997 0 0 0
In 2.36568268 0.00000000 1.20941339
In 2.10462500 0.00000000 -3.281593019999999 0 0 0
In 1.96757182 4.20496000 1.32177488
In 2.10462500 4.20496000 -3.281593019999999 0 0 0
In 6.05281732 0.00000000 1.20941339
In 6.31387500 0.00000000 -3.281593019999999 0 0 0
In 6.45092818 4.20496000 1.32177488
In 6.31387500 4.20496000 -3.281593019999999 0 0 0
Ge 0.00000000 0.00000000 3.42822078
Ge 0.00000000 0.00000000 -1.0938643399999997 0 0 0
Ge 0.00000000 4.20496000 3.50047214
Ge 0.00000000 4.20496000 -1.0938643399999997 0 0 0
Ge 4.20925000 0.00000000 3.49356576
Ge 4.20925000 0.00000000 -1.0938643399999997 0 0 0
Ge 4.20925000 4.20496000 3.43592405
Ge 4.20925000 4.20496000 -1.0938643399999997 0 0 0
C 0.00000000 0.00000000 5.35138198
O 8.41841581 0.00000000 6.52095087
