&CONTROL
calculation = 'relax'
prefix = 'scf'
pseudo_dir = '/vol0403/data/hp230205/u10028/POT_HYBRID_KKJUS_GBRV'
outdir = './data'
tprnfor = .true.
nstep = 50
disk_io = 'non'
/
&SYSTEM
ibrav = 0
ecutwfc = 50.0
ecutrho = 400
occupations = 'smearing'
smearing = 'mp'
degauss = 0.01
assume_isolated = 'esm'
esm_bc = 'bc1'
input_dft = 'BEEF-VDW'
nosym = .true.
nspin = 1
ntyp = 5
nat = 33
/
&ELECTRONS
electron_maxstep = 200
mixing_beta = 0.1
conv_thr = 1e-06
/
&IONS
ion_dynamics = 'bfgs'
upscale = 1.0
/
&CELL
/

K_POINTS {automatic}
6 6 1 0 0 0

ATOMIC_SPECIES
C 12.01 C.pbe-n-rrkjus_psl.1.0.0.UPF
In 114.8 In.pbe-dn-rrkjus_psl.1.0.0.UPF
Pd 106.4 Pd.pbe-n-rrkjus_psl.1.0.0.UPF
Sn 118.7 Sn.pbe-dn-rrkjus_psl.1.0.0.UPF
Y 88.90 Y.pbe-spn-rrkjus_psl.1.0.0.UPF


CELL_PARAMETERS {angstrom}
8.73372000 0.00000000 0.00000000
0.00000000 9.06394000 0.00000000
0.00000000 0.00000000 26.87300000

ATOMIC_POSITIONS {angstrom}
Y 0.00000000 2.26598500 1.21734690
Y 0.00000000 2.26598500 -3.4365192400000026 0 0 0
Y 0.00000000 6.79795500 1.35439920
Y 0.00000000 6.79795500 -3.4365192400000026 0 0 0
Y 4.36686000 2.26598500 1.18993644
Y 4.36686000 2.26598500 -3.4365192400000026 0 0 0
Y 4.36686000 6.79795500 1.23938276
Y 4.36686000 6.79795500 -3.4365192400000026 0 0 0
In 0.00000000 9.05115984 3.89040421
In 0.00000000 0.00000000 -1.1455959900000003 0 0 0
In 0.00000000 4.54475016 3.89040421
In 0.00000000 4.53197000 -1.1455959900000003 0 0 0
In 4.36686000 0.05864369 3.73964668
In 4.36686000 0.00000000 -1.1455959900000003 0 0 0
In 4.36686000 4.47332631 3.73964668
In 4.36686000 4.53197000 -1.1455959900000003 0 0 0
Sn 2.18404136 9.04563084 1.20041691
Sn 2.18343000 0.00000000 -3.4365192400000026 0 0 0
Sn 2.18404136 4.55027916 1.20041691
Sn 2.18343000 4.53197000 -3.4365192400000026 0 0 0
Sn 6.54967864 9.04563084 1.20041691
Sn 6.55029000 0.00000000 -3.4365192400000026 0 0 0
Sn 6.54967864 4.55027916 1.20041691
Sn 6.55029000 4.53197000 -3.4365192400000026 0 0 0
Pd 2.29487227 2.26598500 3.32419010
Pd 2.18343000 2.26598500 -1.1455959900000003 0 0 0
Pd 2.26631300 6.79795500 3.23497174
Pd 2.18343000 6.79795500 -1.1455959900000003 0 0 0
Pd 6.43884773 2.26598500 3.32419010
Pd 6.55029000 2.26598500 -1.1455959900000003 0 0 0
Pd 6.46740700 6.79795500 3.23497174
Pd 6.55029000 6.79795500 -1.1455959900000003 0 0 0
C 0.00000000 2.26598500 3.50262682
