&CONTROL
calculation = 'relax'
prefix = 'scf'
pseudo_dir = '/vol0004/mdt0/data/hp150275/u10028/POT_HYBRID_KKJUS_GBRV'
outdir = './data'
tprnfor = .true.
nstep = 50
disk_io = 'non'
/
&SYSTEM
ibrav = 0
ecutwfc = 50.0
ecutrho = 400
occupations = 'smearing'
smearing = 'mp'
degauss = 0.01
assume_isolated = 'esm'
esm_bc = 'bc1'
input_dft = 'BEEF-VDW'
nosym = .true.
nspin = 2
ntyp = 4
nat = 33
starting_magnetization(1) = 0.0
starting_magnetization(2) = 0.1
starting_magnetization(3) = 0.1
starting_magnetization(4) = 0.0
/
&ELECTRONS
electron_maxstep = 200
mixing_beta = 0.1
conv_thr = 1e-06
/
&IONS
ion_dynamics = 'bfgs'
upscale = 1.0
/
&CELL
/

K_POINTS {automatic}
9 6 2 0  0  0

ATOMIC_SPECIES
C 12.01 C.pbe-n-rrkjus_psl.1.0.0.UPF
Co 58.93 co_pbe_v1.2.uspp.F.UPF
Cr 51.99 cr_pbe_v1.5.uspp.F.UPF
In 114.8 In.pbe-dn-rrkjus_psl.1.0.0.UPF

CELL_PARAMETERS {angstrom}
6.00915000 0.00000000 0.00000000
0.00000000 8.49821000 0.00000000
0.00000000 0.00000000 26.37370000

ATOMIC_POSITIONS {angstrom}
Cr 0.00000000 0.00000000 23.18696583
Cr 3.00457500 2.12455250 25.31136736
Cr 3.00457500 6.37365750 25.31136736
Cr 0.00000000 4.24910500 23.18696583
Cr 0.00000000 4.24910500 1.18233297
Cr 3.00457500 6.50053578 3.14559120
Cr 3.00457500 1.99767422 3.14559120
Cr 0.00000000 0.00000000 0.91543113
In 0.00000000 6.37365750 25.31136736
In 3.00457500 0.00000000 23.18696583
In 0.00000000 2.12455250 25.31136736
In 3.00457500 4.24910500 23.18696583
In 0.00000000 2.27709537 3.63350465
In 3.00457500 4.24902002 0.99850828
In 0.00000000 6.22111463 3.63350465
In 3.00457500 0.00008498 1.00826655
Co 1.50228750 0.00000000 25.31136736
Co 4.50686250 4.24910500 25.31136736
Co 4.50686250 0.00000000 25.31136736
Co 1.50228750 4.24910500 25.31136736
Co 4.50686250 6.37365750 23.18696583
Co 1.50228750 2.12455250 23.18696583
Co 1.50228750 6.37365750 23.18696583
Co 4.50686250 2.12455250 23.18696583
Co 1.67366846 4.24910500 3.17855832
Co 4.76321284 0.00008498 3.05196456
Co 4.33548154 4.24902002 3.17855832
Co 1.24593716 0.00008498 3.05222830
Co 4.61466665 2.10092748 1.19261871
Co 1.39454344 6.39728252 1.19261871
Co 1.39442326 2.10084249 1.19261871
Co 4.61460656 6.39728252 1.19261871
C 3.00457500 0.00000000 3.58893310
