&CONTROL
calculation = 'relax'
prefix = 'scf'
pseudo_dir = '/vol0403/data/hp230205/u10028/POT_HYBRID_KKJUS_GBRV'
outdir = './data'
tprnfor = .true.
nstep = 50
disk_io = 'non'
/
&SYSTEM
ibrav = 0
ecutwfc = 50.0
ecutrho = 400
occupations = 'smearing'
smearing = 'mp'
degauss = 0.01
assume_isolated = 'esm'
esm_bc = 'bc1'
input_dft = 'BEEF-VDW'
nosym = .true.
nspin = 1
ntyp = 5
nat = 33
/
&ELECTRONS
electron_maxstep = 200
mixing_beta = 0.1
conv_thr = 1e-06
/
&IONS
ion_dynamics = 'bfgs'
upscale = 1.0
/
&CELL
/

K_POINTS {automatic}
6 6 1 0 0 0

ATOMIC_SPECIES
C 12.01 C.pbe-n-rrkjus_psl.1.0.0.UPF
Cu 63.54 Cu.pbe-dn-rrkjus_psl.1.0.0.UPF
Ge 72.64 Ge.pbe-dn-rrkjus_psl.1.0.0.UPF
Li 6.941 Li.pbe-sl-rrkjus_psl.1.0.0.UPF
Pd 106.4 Pd.pbe-n-rrkjus_psl.1.0.0.UPF


CELL_PARAMETERS {angstrom}
6.04231000 0.00000000 0.00000000
0.00000000 8.54512000 0.00000000
0.00000000 0.00000000 26.40880000

ATOMIC_POSITIONS {angstrom}
Li 1.51057750 0.00000000 -1.068235959999999 0 0 0
Li 1.51057750 4.27256000 -1.068235959999999 0 0 0
Li 4.53173250 2.13628000 -3.204443789999999 0 0 0
Li 4.53173250 6.40884000 -3.204443789999999 0 0 0
Li 1.45480698 4.27256000 3.58816366
Li 1.52550201 0.00000000 3.67504861
Li 4.52562977 6.37517223 0.94992454
Li 4.52562977 2.16994777 0.94992454
Cu 0.00000000 0.00000000 -3.204443789999999 0 0 0
Cu 0.00000000 4.27256000 -3.204443789999999 0 0 0
Cu 3.02115500 6.40884000 -1.068235959999999 0 0 0
Cu 3.02115500 2.13628000 -1.068235959999999 0 0 0
Cu 0.04145025 4.27256000 1.26234064
Cu 5.98496848 0.00000000 1.17598386
Cu 3.11783196 2.23104538 3.03305068
Cu 3.11783196 6.31407462 3.03305068
Ge 4.53173250 0.00000000 -1.068235959999999 0 0 0
Ge 4.53173250 4.27256000 -1.068235959999999 0 0 0
Ge 1.51057750 2.13628000 -3.204443789999999 0 0 0
Ge 1.51057750 6.40884000 -3.204443789999999 0 0 0
Ge 4.57239725 4.27256000 3.42865450
Ge 3.92085496 0.00000000 3.87469914
Ge 1.53275278 6.39832950 1.05476747
Ge 1.53275278 2.14679050 1.05476747
Pd 0.00000000 2.13628000 -1.068235959999999 0 0 0
Pd 0.00000000 6.40884000 -1.068235959999999 0 0 0
Pd 3.02115500 4.27256000 -3.204443789999999 0 0 0
Pd 3.02115500 0.00000000 -3.204443789999999 0 0 0
Pd 5.93113150 6.44413135 3.01297999
Pd 5.93113150 2.10098865 3.01297999
Pd 3.06520344 0.00000000 1.17994518
Pd 3.03414597 4.27256000 1.19156506
C 5.65342693 0.00000000 3.17222506
