&CONTROL
calculation = 'relax'
prefix = 'scf'
pseudo_dir = '/vol0004/mdt0/data/hp150275/u10028/POT_KKJUS'
outdir = './data'
tprnfor = .true.
nstep = 50
disk_io = 'non'
/
&SYSTEM
ibrav = 0
ecutwfc = 50.0
ecutrho = 400
occupations = 'smearing'
smearing = 'mp'
degauss = 0.01
assume_isolated = 'esm'
esm_bc = 'bc1'
input_dft = 'BEEF-VDW'
nosym = .true.
nspin = 1
ntyp = 3
nat = 33
/
&ELECTRONS
electron_maxstep = 200
mixing_beta = 0.1
conv_thr = 1e-06
/
&IONS
ion_dynamics = 'bfgs'
upscale = 1.0
/
&CELL
/

K_POINTS {automatic}
9 6 2 0  0  0

ATOMIC_SPECIES
C 12.01 C.pbe-n-rrkjus_psl.1.0.0.UPF
Li 6.941 Li.pbe-sl-rrkjus_psl.1.0.0.UPF
Sb 121.7 Sb.pbe-n-rrkjus_psl.1.0.0.UPF

CELL_PARAMETERS {angstrom}
6.56971000 0.00000000 0.00000000
0.00000000 9.29097000 0.00000000
0.00000000 0.00000000 26.96820000

ATOMIC_POSITIONS {angstrom}
Li 1.64242750 0.00000000 -1.1612506899999993 0 0 0
Li 4.92728250 4.64548500 -1.1612506899999993 0 0 0
Li 4.92728250 0.00000000 -1.1612506899999993 0 0 0
Li 1.64242750 4.64548500 -1.1612506899999993 0 0 0
Li 4.92728250 6.96822750 -3.484021760000001 0 0 0
Li 1.64242750 2.32274250 -3.484021760000001 0 0 0
Li 1.64242750 6.96822750 -3.484021760000001 0 0 0
Li 4.92728250 2.32274250 -3.484021760000001 0 0 0
Li 0.00000000 6.96822750 -1.1612506899999993 0 0 0
Li 3.28485500 0.00000000 -3.484021760000001 0 0 0
Li 0.00000000 2.32274250 -1.1612506899999993 0 0 0
Li 3.28485500 4.64548500 -3.484021760000001 0 0 0
Li 1.75220735 4.41711296 3.69221626
Li 4.83235019 9.05460772 3.45651419
Li 4.83228449 4.88194019 3.45651419
Li 1.75220735 0.22837204 3.69221626
Li 4.97767218 2.32274250 1.04771457
Li 1.65050824 6.96813459 0.98514835
Li 1.55432769 2.32274250 1.47677863
Li 4.89791590 6.96822750 1.16394751
Li 6.33096674 2.32283541 3.54065498
Li 3.21896081 4.73588614 1.19118539
Li 0.30200957 6.96822750 3.12507502
Li 3.21889511 9.20029013 1.19118539
Sb 0.00000000 0.00000000 -3.484021760000001 0 0 0
Sb 3.28485500 2.32274250 -1.1612506899999993 0 0 0
Sb 3.28485500 6.96822750 -1.1612506899999993 0 0 0
Sb 0.00000000 4.64548500 -3.484021760000001 0 0 0
Sb 6.56524260 4.68348507 1.23568292
Sb 3.12002098 6.96822750 3.38774528
Sb 3.68035154 2.32274250 3.59135519
Sb 6.56524260 9.25296993 1.23568292
C 1.63999671 2.32274250 3.85699196
