&CONTROL
calculation = 'relax'
prefix = 'scf'
pseudo_dir = '/vol0403/data/hp230205/u10028/POT_HYBRID_KKJUS_GBRV'
outdir = './data'
tprnfor = .true.
nstep = 50
disk_io = 'non'
/
&SYSTEM
ibrav = 0
ecutwfc = 50.0
ecutrho = 400
occupations = 'smearing'
smearing = 'mp'
degauss = 0.01
assume_isolated = 'esm'
esm_bc = 'bc1'
input_dft = 'BEEF-VDW'
nosym = .true.
nspin = 1
ntyp = 5
nat = 33
/
&ELECTRONS
electron_maxstep = 200
mixing_beta = 0.1
conv_thr = 1e-06
/
&IONS
ion_dynamics = 'bfgs'
upscale = 1.0
/
&CELL
/

K_POINTS {automatic}
6 6 1 0 0 0

ATOMIC_SPECIES
C 12.01 C.pbe-n-rrkjus_psl.1.0.0.UPF
Li 6.941 Li.pbe-sl-rrkjus_psl.1.0.0.UPF
Mg 24.30 Mg.pbe-spnl-rrkjus_psl.1.0.0.UPF
Pd 106.4 Pd.pbe-n-rrkjus_psl.1.0.0.UPF
Sn 118.7 Sn.pbe-dn-rrkjus_psl.1.0.0.UPF


CELL_PARAMETERS {angstrom}
6.52546000 0.00000000 0.00000000
0.00000000 9.22840000 0.00000000
0.00000000 0.00000000 26.92130000

ATOMIC_POSITIONS {angstrom}
Li 0.00000000 0.00000000 -3.4607331200000004 0 0 0
Li 0.00000000 4.61420000 -3.4607331200000004 0 0 0
Li 3.26273000 6.92130000 -1.1535777100000004 0 0 0
Li 3.26273000 2.30710000 -1.1535777100000004 0 0 0
Li 6.41824669 4.57590214 1.24026429
Li 6.41824669 0.03829786 1.24026429
Li 2.84059799 2.30710000 4.25195012
Li 3.46240908 6.92130000 3.62172249
Mg 1.63136500 0.00000000 -1.1535777100000004 0 0 0
Mg 1.63136500 4.61420000 -1.1535777100000004 0 0 0
Mg 4.89409500 2.30710000 -3.4607331200000004 0 0 0
Mg 4.89409500 6.92130000 -3.4607331200000004 0 0 0
Mg 1.53648481 4.72853988 3.47877039
Mg 1.53641956 9.11406012 3.47877039
Mg 4.86681858 6.92130000 1.09650455
Mg 4.73376445 2.30700772 1.38240875
Sn 4.89409500 0.00000000 -1.1535777100000004 0 0 0
Sn 4.89409500 4.61420000 -1.1535777100000004 0 0 0
Sn 1.63136500 2.30710000 -3.4607331200000004 0 0 0
Sn 1.63136500 6.92130000 -3.4607331200000004 0 0 0
Sn 4.76234596 4.50871939 3.84328479
Sn 4.76234596 0.10557290 3.84328479
Sn 1.61818357 6.92130000 1.21038165
Sn 1.73185708 2.30719228 1.14980872
Pd 0.00000000 2.30710000 -1.1535777100000004 0 0 0
Pd 0.00000000 6.92130000 -1.1535777100000004 0 0 0
Pd 3.26273000 4.61420000 -3.4607331200000004 0 0 0
Pd 3.26273000 0.00000000 -3.4607331200000004 0 0 0
Pd 6.38392277 6.92130000 3.30405115
Pd 0.24868528 2.30710000 3.34793287
Pd 3.29659714 9.15881786 1.15088557
Pd 3.29659714 4.68387442 1.15088557
C 4.78433676 2.30710000 3.77786603
