&CONTROL
calculation = 'relax'
prefix = 'scf'
pseudo_dir = '/vol0403/data/hp230205/u10028/POT_HYBRID_KKJUS_GBRV'
outdir = './data'
tprnfor = .true.
nstep = 50
disk_io = 'non'
/
&SYSTEM
ibrav = 0
ecutwfc = 50.0
ecutrho = 400
occupations = 'smearing'
smearing = 'mp'
degauss = 0.01
assume_isolated = 'esm'
esm_bc = 'bc1'
input_dft = 'BEEF-VDW'
nosym = .true.
nspin = 1
ntyp = 5
nat = 33
/
&ELECTRONS
electron_maxstep = 200
mixing_beta = 0.1
conv_thr = 1e-06
/
&IONS
ion_dynamics = 'bfgs'
upscale = 1.0
/
&CELL
/

K_POINTS {automatic}
9 6 2 0  0  0

ATOMIC_SPECIES
C 12.01 C.pbe-n-rrkjus_psl.1.0.0.UPF
Li 6.941 Li.pbe-sl-rrkjus_psl.1.0.0.UPF
Mg 24.30 Mg.pbe-spnl-rrkjus_psl.1.0.0.UPF
Pd 106.4 Pd.pbe-n-rrkjus_psl.1.0.0.UPF
Sn 118.7 Sn.pbe-dn-rrkjus_psl.1.0.0.UPF


CELL_PARAMETERS {angstrom}
6.52546000 0.00000000 0.00000000
0.00000000 9.22840000 0.00000000
0.00000000 0.00000000 26.92130000

ATOMIC_POSITIONS {angstrom}
Li 0.00000000 0.00000000 -3.4607331200000004 0 0 0
Li 0.00000000 4.61420000 -3.4607331200000004 0 0 0
Li 3.26273000 6.92130000 -1.1535777100000004 0 0 0
Li 3.26273000 2.30710000 -1.1535777100000004 0 0 0
Li 6.42170519 4.57276448 1.23784137
Li 6.42177044 0.04152780 1.23784137
Li 2.83883612 2.30710000 4.29287050
Li 3.45373021 6.92130000 3.63625999
Mg 1.63136500 0.00000000 -1.1535777100000004 0 0 0
Mg 1.63136500 4.61420000 -1.1535777100000004 0 0 0
Mg 4.89409500 2.30710000 -3.4607331200000004 0 0 0
Mg 4.89409500 6.92130000 -3.4607331200000004 0 0 0
Mg 1.53615854 4.72780160 3.47877039
Mg 1.53622379 9.11498296 3.47850117
Mg 4.86818892 6.92130000 1.09515848
Mg 4.73369919 2.30728457 1.38510088
Sn 4.89409500 0.00000000 -1.1535777100000004 0 0 0
Sn 4.89409500 4.61420000 -1.1535777100000004 0 0 0
Sn 1.63136500 2.30710000 -3.4607331200000004 0 0 0
Sn 1.63136500 6.92130000 -3.4607331200000004 0 0 0
Sn 4.75732136 4.50973451 3.84866905
Sn 4.75732136 0.10437320 3.84866905
Sn 1.61348524 6.92130000 1.20203605
Sn 1.73192234 2.30728457 1.14953951
Pd 0.00000000 2.30710000 -1.1535777100000004 0 0 0
Pd 0.00000000 6.92130000 -1.1535777100000004 0 0 0
Pd 3.26273000 4.61420000 -3.4607331200000004 0 0 0
Pd 3.26273000 0.00000000 -3.4607331200000004 0 0 0
Pd 6.38633719 6.92130000 3.30001295
Pd 0.25247005 2.30710000 3.35143264
Pd 3.28883184 9.15835644 1.14334761
Pd 3.28889709 4.68433584 1.14334761
C 4.78792577 2.30700772 3.78755770
