&CONTROL
calculation = 'relax'
prefix = 'scf'
pseudo_dir = '/vol0403/data/hp230205/u10028/POT_HYBRID_KKJUS_GBRV'
outdir = './data'
tprnfor = .true.
nstep = 50
disk_io = 'non'
/
&SYSTEM
ibrav = 0
ecutwfc = 50.0
ecutrho = 400
occupations = 'smearing'
smearing = 'mp'
degauss = 0.01
assume_isolated = 'esm'
esm_bc = 'bc1'
input_dft = 'BEEF-VDW'
nosym = .true.
nspin = 1
ntyp = 5
nat = 33
/
&ELECTRONS
electron_maxstep = 200
mixing_beta = 0.1
conv_thr = 1e-06
/
&IONS
ion_dynamics = 'bfgs'
upscale = 1.0
/
&CELL
/

K_POINTS {automatic}
9 6 2 0  0  0

ATOMIC_SPECIES
C 12.01 C.pbe-n-rrkjus_psl.1.0.0.UPF
Li 6.941 Li.pbe-sl-rrkjus_psl.1.0.0.UPF
Mg 24.30 Mg.pbe-spnl-rrkjus_psl.1.0.0.UPF
Pb 207.2 Pb.pbe-dn-rrkjus_psl.1.0.0.UPF
Pd 106.4 Pd.pbe-n-rrkjus_psl.1.0.0.UPF


CELL_PARAMETERS {angstrom}
6.68280000 0.00000000 0.00000000
0.00000000 9.45090000 0.00000000
0.00000000 0.00000000 27.08820000

ATOMIC_POSITIONS {angstrom}
Li 0.00000000 0.00000000 -3.5442200899999996 0 0 0
Li 0.00000000 4.72545000 -3.5442200899999996 0 0 0
Li 3.34140000 7.08817500 -1.1813164 0 0 0
Li 3.34140000 2.36272500 -1.1813164 0 0 0
Li 0.11347394 4.72545000 1.20190343
Li 0.28421948 0.00000000 1.58384705
Li 3.07856548 2.48880001 3.63279850
Li 3.07856548 6.96200549 3.63279850
Mg 5.01210000 0.00000000 -1.1813164 0 0 0
Mg 5.01210000 4.72545000 -1.1813164 0 0 0
Mg 1.67070000 2.36272500 -3.5442200899999996 0 0 0
Mg 1.67070000 7.08817500 -3.5442200899999996 0 0 0
Mg 5.15912160 4.72545000 3.49221074
Mg 4.73275896 0.00000000 3.49600309
Mg 1.72817208 7.03260371 1.15856231
Mg 1.72817208 2.41829629 1.15856231
Pd 0.00000000 2.36272500 -1.1813164 0 0 0
Pd 0.00000000 7.08817500 -1.1813164 0 0 0
Pd 3.34140000 4.72545000 -3.5442200899999996 0 0 0
Pd 3.34140000 0.00000000 -3.5442200899999996 0 0 0
Pd 0.29591438 7.39504572 3.44588992
Pd 0.29591438 2.05585428 3.44588992
Pd 3.27363641 0.00000000 1.16587613
Pd 3.33391526 4.72545000 1.33192679
Pb 1.67070000 0.00000000 -1.1813164 0 0 0
Pb 1.67070000 4.72545000 -1.1813164 0 0 0
Pb 5.01210000 2.36272500 -3.5442200899999996 0 0 0
Pb 5.01210000 7.08817500 -3.5442200899999996 0 0 0
Pb 1.47161939 4.72545000 3.93889516
Pb 2.02254942 0.00000000 4.95118120
Pb 5.03528932 7.11785083 1.28587685
Pb 5.03528932 2.33304917 1.28587685
C 0.13592815 0.00000000 3.75686246
