&CONTROL
calculation = 'relax'
prefix = 'scf'
pseudo_dir = '/vol0004/mdt0/data/hp150275/u10028/POT_HYBRID_KKJUS_GBRV'
outdir = './data'
tprnfor = .true.
nstep = 50
disk_io = 'non'
/
&SYSTEM
ibrav = 0
ecutwfc = 50.0
ecutrho = 400
occupations = 'smearing'
smearing = 'mp'
degauss = 0.01
assume_isolated = 'esm'
esm_bc = 'bc1'
input_dft = 'BEEF-VDW'
nosym = .true.
nspin = 2
ntyp = 4
nat = 33
starting_magnetization(1) = 0.0
starting_magnetization(2) = 0.0
starting_magnetization(3) = 0.1
starting_magnetization(4) = 0.0
/
&ELECTRONS
electron_maxstep = 300
mixing_beta = 0.1
conv_thr = 1e-06
/
&IONS
ion_dynamics = 'bfgs'
upscale = 1.0
/
&CELL
/

K_POINTS {automatic}
9 6 2 0  0  0

ATOMIC_SPECIES
Al 26.98 Al.pbe-nl-rrkjus_psl.1.0.0.UPF
C 12.01 C.pbe-n-rrkjus_psl.1.0.0.UPF
Co 58.93 co_pbe_v1.2.uspp.F.UPF
V 50.94 V.pbe-spnl-rrkjus_psl.1.0.0.UPF

CELL_PARAMETERS {angstrom}
5.76795000 0.00000000 0.00000000
0.00000000 8.15711000 0.00000000
0.00000000 0.00000000 26.11780000

ATOMIC_POSITIONS {angstrom}
Al 0.00000000 0.00000000 -3.0589167399999972 0 0 0
Al 2.88397500 2.03927750 -1.0196389099999976 0 0 0
Al 2.88397500 6.11783250 -1.0196389099999976 0 0 0
Al 0.00000000 4.07855500 -3.0589167399999972 0 0 0
Al 0.02774384 4.07194774 0.99769996
Al 2.85075161 6.11783250 3.19707990
Al 3.17727526 2.03927750 3.41176821
Al 0.02768616 0.00668883 0.99769996
V 0.00000000 6.11783250 -1.0196389099999976 0 0 0
V 2.88397500 0.00000000 -3.0589167399999972 0 0 0
V 0.00000000 2.03927750 -1.0196389099999976 0 0 0
V 2.88397500 4.07855500 -3.0589167399999972 0 0 0
V 5.52113942 2.03927750 2.88131570
V 2.88824328 4.08703839 1.09250757
V 5.75093455 6.11783250 3.03488836
V 2.88824328 8.14862661 1.09250757
Co 1.44198750 0.00000000 -1.0196389099999976 0 0 0
Co 4.32596250 4.07855500 -1.0196389099999976 0 0 0
Co 4.32596250 0.00000000 -1.0196389099999976 0 0 0
Co 1.44198750 4.07855500 -1.0196389099999976 0 0 0
Co 4.32596250 6.11783250 -3.0589167399999972 0 0 0
Co 1.44198750 2.03927750 -3.0589167399999972 0 0 0
Co 1.44198750 6.11783250 -3.0589167399999972 0 0 0
Co 4.32596250 2.03927750 -3.0589167399999972 0 0 0
Co 1.49361065 3.95432221 2.99205517
Co 4.34678480 8.08540900 2.89045693
Co 4.34684248 4.15025600 2.89045693
Co 1.49366833 0.12423279 2.99205517
Co 4.26216897 2.03927750 0.90602648
Co 1.43512364 6.11791407 1.05280852
Co 1.49591783 2.03927750 1.03008603
Co 4.33911343 6.11791407 1.04314493
C 1.33897191 2.03919593 3.71525705
