&CONTROL
calculation = 'relax'
prefix = 'scf'
pseudo_dir = '/vol0004/mdt0/data/hp150275/u10028/POT_KKJUS'
outdir = './data'
tprnfor = .true.
nstep = 50
disk_io = 'non'
/
&SYSTEM
ibrav = 0
ecutwfc = 50.0
ecutrho = 400
occupations = 'smearing'
smearing = 'mp'
degauss = 0.01
assume_isolated = 'esm'
esm_bc = 'bc1'
input_dft = 'BEEF-VDW'
nosym = .true.
nspin = 1
ntyp = 5
nat = 34
/
&ELECTRONS
electron_maxstep = 200
mixing_beta = 0.1
conv_thr = 1e-06
/
&IONS
ion_dynamics = 'bfgs'
upscale = 1.0
/
&CELL
/

K_POINTS {automatic}
9 6 2 0  0  0

ATOMIC_SPECIES
Ag 107.8 Ag.pbe-n-rrkjus_psl.1.0.0.UPF
C 12.01 C.pbe-n-rrkjus_psl.1.0.0.UPF
Li 6.941 Li.pbe-sl-rrkjus_psl.1.0.0.UPF
O 15.99 O.pbe-n-rrkjus_psl.1.0.0.UPF
Pb 207.2 Pb.pbe-dn-rrkjus_psl.1.0.0.UPF

CELL_PARAMETERS {angstrom}
6.84524000 0.00000000 0.00000000
0.00000000 9.68063000 0.00000000
0.00000000 0.00000000 27.26050000

ATOMIC_POSITIONS {angstrom}
Li 0.00000000 7.26047250 -1.2100935899999996 0 0 0
Li 3.42262000 0.00000000 -3.6302807799999997 0 0 0
Li 0.00000000 2.42015750 -1.2100935899999996 0 0 0
Li 3.42262000 4.84031500 -3.6302807799999997 0 0 0
Li 1.71131000 2.42015750 -3.6302807799999997 0 0 0
Li 1.71131000 7.26047250 -3.6302807799999997 0 0 0
Li 5.13393000 4.84031500 -1.2100935899999996 0 0 0
Li 5.13393000 0.00000000 -1.2100935899999996 0 0 0
Li 0.13902682 2.42015750 3.49288786
Li 3.48292656 4.82511641 1.06070606
Li 0.12704765 7.26047250 3.50815374
Li 3.48292656 0.01519859 1.06070606
Li 1.89900648 7.26047250 1.36793189
Li 1.84896778 2.42015750 1.31422871
Li 4.94185257 0.01277843 3.52178399
Li 4.94185257 4.82753657 3.52178399
Ag 1.71131000 0.00000000 -1.2100935899999996 0 0 0
Ag 1.71131000 4.84031500 -1.2100935899999996 0 0 0
Ag 5.13393000 7.26047250 -3.6302807799999997 0 0 0
Ag 5.13393000 2.42015750 -3.6302807799999997 0 0 0
Ag 1.93973566 4.89636585 3.31760285
Ag 1.93973566 9.62457915 3.31787545
Ag 4.96793293 2.42015750 1.45434768
Ag 4.94746566 7.26047250 1.45080381
Pb 0.00000000 0.00000000 -3.6302807799999997 0 0 0
Pb 3.42262000 2.42015750 -1.2100935899999996 0 0 0
Pb 3.42262000 7.26047250 -1.2100935899999996 0 0 0
Pb 0.00000000 4.84031500 -3.6302807799999997 0 0 0
Pb 6.78486498 4.83489385 1.20246066
Pb 3.49333133 7.26047250 4.11279163
Pb 3.39072118 2.42015750 4.01928812
Pb 6.78486498 0.00542115 1.20246066
C 6.81984416 2.42015750 5.56332284
O 6.80752273 2.42006069 6.70744602
