&CONTROL
calculation = 'relax'
prefix = 'scf'
pseudo_dir = '/vol0004/mdt0/data/hp150275/u10028/POT_KKJUS'
outdir = './data'
tprnfor = .true.
nstep = 50
disk_io = 'non'
/
&SYSTEM
ibrav = 0
ecutwfc = 50.0
ecutrho = 400
occupations = 'smearing'
smearing = 'mp'
degauss = 0.01
assume_isolated = 'esm'
esm_bc = 'bc1'
input_dft = 'BEEF-VDW'
nosym = .true.
nspin = 1
ntyp = 4
nat = 34
/
&ELECTRONS
electron_maxstep = 200
mixing_beta = 0.1
conv_thr = 1e-06
/
&IONS
ion_dynamics = 'bfgs'
upscale = 1.0
/
&CELL
/

K_POINTS {automatic}
9 6 2 0  0  0

ATOMIC_SPECIES
C 12.01 C.pbe-n-rrkjus_psl.1.0.0.UPF
O 15.99 O.pbe-n-rrkjus_psl.1.0.0.UPF
Rh 102.9 Rh.pbe-spn-rrkjus_psl.1.0.0.UPF
Y 88.90 Y.pbe-spn-rrkjus_psl.1.0.0.UPF

CELL_PARAMETERS {angstrom}
6.88160000 0.00000000 0.00000000
0.00000000 9.73205000 0.00000000
0.00000000 0.00000000 27.29900000

ATOMIC_POSITIONS {angstrom}
Y 1.72040000 2.43301250 -3.64960331 0 0 0
Y 1.72040000 0.00000000 -1.216443439999999 0 0 0
Y 1.72040000 2.43301250 1.26039483
Y 1.72040000 4.86602500 3.75033662
Y 1.72040000 7.29903750 -3.64960331 0 0 0
Y 1.72040000 4.86602500 -1.216443439999999 0 0 0
Y 1.72040000 7.29903750 1.26039483
Y 1.72040000 0.00000000 3.76617004
Y 5.16120000 2.43301250 -3.64960331 0 0 0
Y 5.16120000 0.00000000 -1.216443439999999 0 0 0
Y 5.16120000 2.43184465 1.26012184
Y 5.16120000 4.86602500 3.75743436
Y 5.16120000 7.29903750 -3.64960331 0 0 0
Y 5.16120000 4.86602500 -1.216443439999999 0 0 0
Y 5.16120000 7.30020535 1.26012184
Y 5.16120000 0.00000000 3.76043725
Rh 0.00000000 0.00000000 -3.64960331 0 0 0
Rh 0.00000000 2.43301250 -1.216443439999999 0 0 0
Rh 6.86921312 0.00000000 1.30543818
Rh 6.87210339 2.45286588 3.51447326
Rh 0.00000000 4.86602500 -3.64960331 0 0 0
Rh 0.00000000 7.29903750 -1.216443439999999 0 0 0
Rh 6.88049894 4.86602500 1.31854170
Rh 6.87210339 7.27918412 3.51420027
Rh 3.44080000 0.00000000 -3.64960331 0 0 0
Rh 3.44080000 2.43301250 -1.216443439999999 0 0 0
Rh 3.45318688 0.00000000 1.30543818
Rh 3.45029661 2.45286588 3.51420027
Rh 3.44080000 4.86602500 -3.64960331 0 0 0
Rh 3.44080000 7.29903750 -1.216443439999999 0 0 0
Rh 3.44190106 4.86602500 1.31854170
Rh 3.45029661 7.27918412 3.51447326
C 1.72040000 0.00000000 6.31999149
O 1.72040000 0.00000000 7.46627650
