&CONTROL
calculation = 'relax'
prefix = 'scf'
pseudo_dir = '/vol0004/mdt0/data/hp150275/u10028/POT_KKJUS'
outdir = './data'
tprnfor = .true.
nstep = 50
disk_io = 'non'
/
&SYSTEM
ibrav = 0
ecutwfc = 50.0
ecutrho = 400
occupations = 'smearing'
smearing = 'mp'
degauss = 0.01
assume_isolated = 'esm'
esm_bc = 'bc1'
input_dft = 'BEEF-VDW'
nosym = .true.
nspin = 1
ntyp = 4
nat = 33
/
&ELECTRONS
electron_maxstep = 200
mixing_beta = 0.1
conv_thr = 1e-06
/
&IONS
ion_dynamics = 'bfgs'
upscale = 1.0
/
&CELL
/

K_POINTS {automatic}
8 6 1 0 0 0

ATOMIC_SPECIES
Ag 107.8 Ag.pbe-n-rrkjus_psl.1.0.0.UPF
Al 26.98 Al.pbe-nl-rrkjus_psl.1.0.0.UPF
C 12.01 C.pbe-n-rrkjus_psl.1.0.0.UPF
Li 6.941 Li.pbe-sl-rrkjus_psl.1.0.0.UPF

CELL_PARAMETERS {angstrom}
6.40528000 0.00000000 0.00000000
0.00000000 9.05843000 0.00000000
0.00000000 0.00000000 26.79380000

ATOMIC_POSITIONS {angstrom}
Li 0.00000000 0.00000000 -3.3969179599999997 0 0 0
Li 3.20264000 2.26460750 -1.1323059900000025 0 0 0
Li 3.20264000 6.79382250 -1.1323059900000025 0 0 0
Li 0.00000000 4.52921500 -3.3969179599999997 0 0 0
Li 0.00000000 4.52921500 1.10765569
Li 3.20264000 6.94238075 3.44407505
Li 3.20264000 2.11604925 3.44407505
Li 0.00000000 0.00000000 1.22956748
Al 0.00000000 6.79382250 -1.1323059900000025 0 0 0
Al 3.20264000 0.00000000 -3.3969179599999997 0 0 0
Al 0.00000000 2.26460750 -1.1323059900000025 0 0 0
Al 3.20264000 4.52921500 -3.3969179599999997 0 0 0
Al 0.00000000 2.34169474 3.49203595
Al 3.20264000 4.52921500 1.21322326
Al 0.00000000 6.71673526 3.49203595
Al 3.20264000 0.00000000 0.97770576
Ag 1.60132000 0.00000000 -1.1323059900000025 0 0 0
Ag 4.80396000 4.52921500 -1.1323059900000025 0 0 0
Ag 4.80396000 0.00000000 -1.1323059900000025 0 0 0
Ag 1.60132000 4.52921500 -1.1323059900000025 0 0 0
Ag 4.80396000 6.79382250 -3.3969179599999997 0 0 0
Ag 1.60132000 2.26460750 -3.3969179599999997 0 0 0
Ag 1.60132000 6.79382250 -3.3969179599999997 0 0 0
Ag 4.80396000 2.26460750 -3.3969179599999997 0 0 0
Ag 1.57749236 4.52921500 3.38834395
Ag 5.07131639 0.00000000 3.83044165
Ag 4.82778764 4.52921500 3.38834395
Ag 1.33396361 0.00000000 3.83044165
Ag 4.84258384 2.30808796 1.14757845
Ag 1.56269616 6.75034204 1.14757845
Ag 1.56269616 2.30808796 1.14757845
Ag 4.84258384 6.75034204 1.14757845
C 3.20264000 0.00000000 2.87926175
