&CONTROL
calculation = 'relax'
prefix = 'scf'
pseudo_dir = '/vol0403/data/hp230205/u10028/POT_HYBRID_KKJUS_GBRV'
outdir = './data'
tprnfor = .true.
nstep = 50
disk_io = 'non'
/
&SYSTEM
ibrav = 0
ecutwfc = 50.0
ecutrho = 400
occupations = 'smearing'
smearing = 'mp'
degauss = 0.01
assume_isolated = 'esm'
esm_bc = 'bc1'
input_dft = 'BEEF-VDW'
nosym = .true.
nspin = 1
ntyp = 6
nat = 34
/
&ELECTRONS
electron_maxstep = 200
mixing_beta = 0.1
conv_thr = 1e-06
/
&IONS
ion_dynamics = 'bfgs'
upscale = 1.0
/
&CELL
/

K_POINTS {automatic}
7 6 2 0  0  0

ATOMIC_SPECIES
C 12.01 C.pbe-n-rrkjus_psl.1.0.0.UPF
Ga 69.72 Ga.pbe-dnl-rrkjus_psl.1.0.0.UPF
O 15.99 O.pbe-n-rrkjus_psl.1.0.0.UPF
Pd 106.4 Pd.pbe-n-rrkjus_psl.1.0.0.UPF
Sc 44.95 Sc.pbe-spn-rrkjus_psl.1.0.0.UPF
Y 88.90 Y.pbe-spn-rrkjus_psl.1.0.0.UPF


CELL_PARAMETERS {angstrom}
9.48206000 0.00000000 0.00000000
0.00000000 9.85606000 0.00000000
0.00000000 0.00000000 25.30050000

ATOMIC_POSITIONS {angstrom}
Y 0.00000000 2.46401500 -0.8834934600000004 0 0 0
Y 0.06959832 2.37018531 2.82910191
Y 0.00000000 7.39204500 -0.8834934600000004 0 0 0
Y 0.06959832 7.48577613 2.82910191
Y 4.74103000 2.46401500 -0.8834934600000004 0 0 0
Y 4.67143168 2.37018531 2.82910191
Y 4.74103000 7.39204500 -0.8834934600000004 0 0 0
Y 4.67133686 7.48587469 2.82910191
Sc 2.37051500 0.00000000 -0.8834934600000004 0 0 0
Sc 2.37051500 0.00000000 2.19380635
Sc 2.37051500 4.92803000 -0.8834934600000004 0 0 0
Sc 2.37051500 4.92803000 2.59355425
Sc 7.11154500 0.00000000 -0.8834934600000004 0 0 0
Sc 7.11154500 0.00000000 2.37141586
Sc 7.11154500 4.92803000 -0.8834934600000004 0 0 0
Sc 7.11154500 4.92803000 2.47843698
Ga 0.00000000 0.00000000 -2.6502273800000005 0 0 0
Ga 9.40705691 0.00000000 0.83491650
Ga 0.00000000 4.92803000 -2.6502273800000005 0 0 0
Ga 0.04276409 4.92803000 0.95964796
Ga 4.74103000 0.00000000 -2.6502273800000005 0 0 0
Ga 4.81603309 0.00000000 0.83491650
Ga 4.74103000 4.92803000 -2.6502273800000005 0 0 0
Ga 4.69826591 4.92803000 0.95964796
Pd 2.37051500 2.46401500 -2.6502273800000005 0 0 0
Pd 2.37051500 2.74993930 1.11575205
Pd 2.37051500 7.39204500 -2.6502273800000005 0 0 0
Pd 2.37051500 7.10612070 1.11575205
Pd 7.11154500 2.46401500 -2.6502273800000005 0 0 0
Pd 7.11154500 2.49565295 1.28222934
Pd 7.11154500 7.39204500 -2.6502273800000005 0 0 0
Pd 7.11154500 7.36040705 1.28222934
C 2.37051500 0.00009856 4.39823892
O 2.37051500 0.00009856 5.57749522
