&CONTROL
calculation = 'relax'
prefix = 'scf'
pseudo_dir = '/vol0004/mdt0/data/hp150275/u10028/POT_KKJUS'
outdir = './data'
tprnfor = .true.
nstep = 50
disk_io = 'non'
/
&SYSTEM
ibrav = 0
ecutwfc = 50.0
ecutrho = 400
occupations = 'smearing'
smearing = 'mp'
degauss = 0.01
assume_isolated = 'esm'
esm_bc = 'bc1'
input_dft = 'BEEF-VDW'
nosym = .true.
nspin = 1
ntyp = 4
nat = 18
/
&ELECTRONS
electron_maxstep = 200
mixing_beta = 0.1
conv_thr = 1e-06
/
&IONS
ion_dynamics = 'bfgs'
upscale = 1.0
/
&CELL
/

K_POINTS {automatic}
8 8 1 0 0 0

ATOMIC_SPECIES
C 12.01 C.pbe-n-rrkjus_psl.1.0.0.UPF
Li 6.941 Li.pbe-sl-rrkjus_psl.1.0.0.UPF
O 15.99 O.pbe-n-rrkjus_psl.1.0.0.UPF
Pb 207.2 Pb.pbe-dn-rrkjus_psl.1.0.0.UPF

CELL_PARAMETERS {angstrom}
6.73051000 0.00000000 0.00000000
0.00000000 6.73051000 0.00000000
0.00000000 0.00000000 25.04790000

ATOMIC_POSITIONS {angstrom}
Li 1.80626697 1.80673810 0.88644518
Li 5.04788250 5.04788250 -2.5238263999999972 0 0 0
Li 4.92437764 1.80660349 0.88619470
Li 1.68262750 5.04788250 -2.5238263999999972 0 0 0
Li 4.92431034 4.92390651 0.88619470
Li 1.68262750 1.68262750 -2.5238263999999972 0 0 0
Li 1.80640158 4.92397381 0.88619470
Li 5.04788250 1.68262750 -2.5238263999999972 0 0 0
Li 0.00000000 0.00000000 -0.8413589599999973 0 0 0
Li 3.36525500 0.00006731 2.74124218
Li 0.00000000 3.36525500 2.74124218
Li 3.36525500 3.36525500 -0.8413589599999973 0 0 0
Pb 0.00000000 6.73044269 2.37930002
Pb 3.36532231 3.36532231 2.91031550
Pb 3.36525500 0.00000000 -0.8413589599999973 0 0 0
Pb 0.00000000 3.36525500 -0.8413589599999973 0 0 0
C 6.72970234 6.73024078 4.87407086
O 0.00000000 0.00000000 6.02176564
