&CONTROL
calculation = 'relax'
prefix = 'scf'
pseudo_dir = '/vol0403/data/hp230205/u10028/POT_HYBRID_KKJUS_GBRV'
outdir = './data'
tprnfor = .true.
nstep = 50
disk_io = 'non'
/
&SYSTEM
ibrav = 0
ecutwfc = 50.0
ecutrho = 400
occupations = 'smearing'
smearing = 'mp'
degauss = 0.01
assume_isolated = 'esm'
esm_bc = 'bc1'
input_dft = 'BEEF-VDW'
nosym = .true.
nspin = 1
ntyp = 6
nat = 18
/
&ELECTRONS
electron_maxstep = 200
mixing_beta = 0.1
conv_thr = 1e-06
/
&IONS
ion_dynamics = 'bfgs'
upscale = 1.0
/
&CELL
/

K_POINTS {automatic}
11 8 2 0  0  0

ATOMIC_SPECIES
C 12.01 C.pbe-n-rrkjus_psl.1.0.0.UPF
Ga 69.72 Ga.pbe-dnl-rrkjus_psl.1.0.0.UPF
Ge 72.64 Ge.pbe-dn-rrkjus_psl.1.0.0.UPF
O 15.99 O.pbe-n-rrkjus_psl.1.0.0.UPF
Pd 106.4 Pd.pbe-n-rrkjus_psl.1.0.0.UPF
Sc 44.95 Sc.pbe-spn-rrkjus_psl.1.0.0.UPF


CELL_PARAMETERS {angstrom}
5.81182000 0.00000000 0.00000000
0.00000000 8.08666000 0.00000000
0.00000000 0.00000000 24.34090000

ATOMIC_POSITIONS {angstrom}
Sc 4.22693669 2.02166500 -0.7234115500000016 0 0 0
Sc 0.88484959 2.02174587 2.13250625
Sc 4.22693669 6.06499500 -0.7234115500000016 0 0 0
Sc 0.89699630 6.06499500 2.06410832
Ga 0.00000000 0.00000000 -2.17047805 0 0 0
Ga 2.48792391 0.01132132 0.67424293
Ga 0.00000000 4.04333000 -2.17047805 0 0 0
Ga 2.48804014 4.03200868 0.67424293
Ge 2.90591000 0.00000000 -2.17047805 0 0 0
Ge 5.41272232 0.00703539 0.86288491
Ge 2.90591000 4.04333000 -2.17047805 0 0 0
Ge 5.41295479 4.03629461 0.86264150
Pd 1.32102669 2.02166500 -0.7234115500000016 0 0 0
Pd 3.71032401 2.02166500 1.89031429
Pd 1.32102669 6.06499500 -0.7234115500000016 0 0 0
Pd 3.70858046 6.06499500 1.86548658
C 1.10238602 2.02158413 4.46071333
O 1.19090004 2.02158413 5.60789995
