&CONTROL
calculation = 'relax'
prefix = 'scf'
pseudo_dir = '/vol0004/mdt0/data/hp150275/u10028/POT_HYBRID_KKJUS_GBRV'
outdir = './data'
tprnfor = .true.
nstep = 50
disk_io = 'non'
/
&SYSTEM
ibrav = 0
ecutwfc = 50.0
ecutrho = 400
occupations = 'smearing'
smearing = 'mp'
degauss = 0.01
assume_isolated = 'esm'
esm_bc = 'bc1'
input_dft = 'BEEF-VDW'
nosym = .true.
nspin = 2
ntyp = 2
nat = 16
starting_magnetization(1) = 0.1
starting_magnetization(2) = 0.0
/
&ELECTRONS
electron_maxstep = 200
mixing_beta = 0.1
conv_thr = 1e-06
/
&IONS
ion_dynamics = 'bfgs'
upscale = 1.0
/
&CELL
/

K_POINTS {automatic}
8 12 2 0  0  0

ATOMIC_SPECIES
Fe 55.84 fe_pbe_v1.5.uspp.F.UPF
Ge 72.64 Ge.pbe-dn-rrkjus_psl.1.0.0.UPF

CELL_PARAMETERS {angstrom}
7.35757000 0.00000000 0.00000000
-0.00000000 5.20259000 0.00000000
0.00000000 0.00000000 23.90190000

ATOMIC_POSITIONS {angstrom}
Fe 0.00000000 2.60129500 1.95087308
Fe 1.83939250 3.90194250 0.65037070
Fe 1.83939250 1.30064750 0.65037070
Fe 0.00000000 0.00000000 23.25152930
Fe 1.83939250 1.30064750 21.95102692
Fe 1.83939250 3.90194250 21.95102692
Fe 3.67878500 2.60129500 1.95087308
Fe 5.51817750 3.90194250 0.65037070
Fe 5.51817750 1.30064750 0.65037070
Fe 3.67878500 0.00000000 23.25152930
Fe 5.51817750 1.30064750 21.95102692
Fe 5.51817750 3.90194250 21.95102692
Ge 0.00000000 0.00000000 1.95087308
Ge 0.00000000 2.60129500 23.25152930
Ge 3.67878500 -0.00000000 1.95087308
Ge 3.67878500 2.60129500 23.25152930
