&CONTROL
calculation = 'relax'
prefix = 'scf'
pseudo_dir = '/vol0403/data/hp230205/u10028/POT_HYBRID_KKJUS_GBRV'
outdir = './data'
tprnfor = .true.
nstep = 50
disk_io = 'non'
/
&SYSTEM
ibrav = 0
ecutwfc = 50.0
ecutrho = 400
occupations = 'smearing'
smearing = 'mp'
degauss = 0.01
assume_isolated = 'esm'
esm_bc = 'bc1'
input_dft = 'BEEF-VDW'
nosym = .true.
nspin = 1
ntyp = 6
nat = 18
/
&ELECTRONS
electron_maxstep = 200
mixing_beta = 0.1
conv_thr = 1e-06
/
&IONS
ion_dynamics = 'bfgs'
upscale = 1.0
/
&CELL
/

K_POINTS {automatic}
6 6 1 0 0 0

ATOMIC_SPECIES
C 12.01 C.pbe-n-rrkjus_psl.1.0.0.UPF
In 114.8 In.pbe-dn-rrkjus_psl.1.0.0.UPF
Li 6.941 Li.pbe-sl-rrkjus_psl.1.0.0.UPF
O 15.99 O.pbe-n-rrkjus_psl.1.0.0.UPF
Pb 207.2 Pb.pbe-dn-rrkjus_psl.1.0.0.UPF
Y 88.90 Y.pbe-spn-rrkjus_psl.1.0.0.UPF


CELL_PARAMETERS {angstrom}
9.00122000 0.00000000 0.00000000
0.00000000 6.63002000 0.00000000
0.00000000 0.00000000 24.97230000

ATOMIC_POSITIONS {angstrom}
Li 2.25030500 1.64079735 -0.8288306399999996 0 0 0
Li 2.25030500 4.81796923 2.35913318
Li 6.75091500 1.64079735 -0.8288306399999996 0 0 0
Li 6.75091500 4.78780264 2.25549814
Y 2.25030500 4.95580735 -0.8288306399999996 0 0 0
Y 2.25030500 1.55613199 2.30394440
Y 6.75091500 4.95580735 -0.8288306399999996 0 0 0
Y 6.75082499 1.53020862 2.29595326
In 0.00000000 0.00000000 -2.4862421900000022 0 0 0
In 9.00049990 3.17644258 0.76265404
In 4.50061000 0.00000000 -2.4862421900000022 0 0 0
In 4.50133010 3.17644258 0.76265404
Pb 0.00000000 3.31501000 -2.4862421900000022 0 0 0
Pb 8.99491915 6.42422418 1.07455807
Pb 4.50061000 3.31501000 -2.4862421900000022 0 0 0
Pb 4.50700087 6.42415788 1.07455807
C 2.25030500 1.61069706 4.75098008
O 2.25030500 1.59591211 5.90919535
