&CONTROL
calculation = 'relax'
prefix = 'scf'
pseudo_dir = '/vol0004/mdt0/data/hp150275/u10028/POT_KKJUS'
outdir = './data'
tprnfor = .true.
nstep = 50
disk_io = 'non'
/
&SYSTEM
ibrav = 0
ecutwfc = 50.0
ecutrho = 400
occupations = 'smearing'
smearing = 'mp'
degauss = 0.01
assume_isolated = 'esm'
esm_bc = 'bc1'
input_dft = 'BEEF-VDW'
nosym = .true.
nspin = 1
ntyp = 4
nat = 34
/
&ELECTRONS
electron_maxstep = 200
mixing_beta = 0.1
conv_thr = 1e-06
/
&IONS
ion_dynamics = 'bfgs'
upscale = 1.0
/
&CELL
/

K_POINTS {automatic}
8 6 1 0 0 0

ATOMIC_SPECIES
C 12.01 C.pbe-n-rrkjus_psl.1.0.0.UPF
O 15.99 O.pbe-n-rrkjus_psl.1.0.0.UPF
Os 190.2 Os.pbe-spn-rrkjus_psl.1.0.0.UPF
Si 28.08 Si.pbe-nl-rrkjus_psl.1.0.0.UPF

CELL_PARAMETERS {angstrom}
5.90864000 0.00000000 0.00000000
0.00000000 8.35608000 0.00000000
0.00000000 0.00000000 26.26710000

ATOMIC_POSITIONS {angstrom}
Si 1.47716000 2.08902000 -3.1336650299999995 0 0 0
Si 1.47716000 0.00000000 -1.0446425700000006 0 0 0
Si 1.50398523 2.08902000 1.06040283
Si 1.47639188 8.33092820 3.17306568
Si 1.47716000 6.26706000 -3.1336650299999995 0 0 0
Si 1.47716000 4.17804000 -1.0446425700000006 0 0 0
Si 1.48105970 6.26706000 1.08167918
Si 1.47639188 4.20319180 3.17306568
Si 4.43148000 2.08902000 -3.1336650299999995 0 0 0
Si 4.43148000 0.00000000 -1.0446425700000006 0 0 0
Si 4.40465477 2.08902000 1.06040283
Si 4.43224812 8.33092820 3.17306568
Si 4.43148000 6.26706000 -3.1336650299999995 0 0 0
Si 4.43148000 4.17804000 -1.0446425700000006 0 0 0
Si 4.42758030 6.26706000 1.08167918
Si 4.43224812 4.20319180 3.17306568
Os 0.00000000 0.00000000 -3.1336650299999995 0 0 0
Os 0.00000000 2.08902000 -1.0446425700000006 0 0 0
Os 0.00000000 0.07411843 1.03623709
Os 0.00000000 2.08902000 3.26237382
Os 0.00000000 4.17804000 -3.1336650299999995 0 0 0
Os 0.00000000 6.26706000 -1.0446425700000006 0 0 0
Os 0.00000000 4.10392157 1.03623709
Os 0.00000000 6.26706000 3.01598842
Os 2.95432000 0.00000000 -3.1336650299999995 0 0 0
Os 2.95432000 2.08902000 -1.0446425700000006 0 0 0
Os 2.95432000 8.33878291 1.00156452
Os 2.95432000 2.08902000 3.02754595
Os 2.95432000 4.17804000 -3.1336650299999995 0 0 0
Os 2.95432000 6.26706000 -1.0446425700000006 0 0 0
Os 2.95432000 4.19533709 1.00182719
Os 2.95432000 6.26706000 3.06379454
C 0.00000000 2.08902000 5.16043447
O 0.00000000 2.08902000 6.31907625
