&CONTROL
calculation = 'relax'
prefix = 'scf'
pseudo_dir = '/vol0004/mdt0/data/hp150275/u10028/POT_HYBRID_KKJUS_GBRV'
outdir = './data'
tprnfor = .true.
nstep = 50
disk_io = 'non'
/
&SYSTEM
ibrav = 0
ecutwfc = 50.0
ecutrho = 400
occupations = 'smearing'
smearing = 'mp'
degauss = 0.01
assume_isolated = 'esm'
esm_bc = 'bc1'
input_dft = 'BEEF-VDW'
nosym = .true.
nspin = 2
ntyp = 4
nat = 33
starting_magnetization(1) = 0.0
starting_magnetization(2) = 0.001
starting_magnetization(3) = 0.0
starting_magnetization(4) = 0.0
/
&ELECTRONS
electron_maxstep = 300
mixing_beta = 0.1
conv_thr = 1e-06
/
&IONS
ion_dynamics = 'bfgs'
upscale = 1.0
/
&CELL
/

K_POINTS {automatic}
8 6 1 0 0 0

ATOMIC_SPECIES
C 12.01 C.pbe-n-rrkjus_psl.1.0.0.UPF
Ni 58.69 ni_pbe_v1.4.uspp.F.UPF
Sb 121.7 Sb.pbe-n-rrkjus_psl.1.0.0.UPF
Zr 91.22 Zr.pbe-spn-rrkjus_psl.1.0.0.UPF

CELL_PARAMETERS {angstrom}
6.34024000 0.00000000 0.00000000
0.00000000 8.96645000 0.00000000
0.00000000 0.00000000 26.72480000

ATOMIC_POSITIONS {angstrom}
Zr 0.00000000 0.00000000 -3.362514339999997 0 0 0
Zr 3.17012000 2.24161250 -1.1208381099999976 0 0 0
Zr 3.17012000 6.72483750 -1.1208381099999976 0 0 0
Zr 0.00000000 4.48322500 -3.362514339999997 0 0 0
Zr 0.00000000 4.48322500 1.05429336
Zr 3.17012000 6.70878755 3.34915194
Zr 3.17012000 2.25766245 3.34941918
Zr 0.00000000 8.96636034 1.29107509
Ni 1.58506000 0.00000000 -1.1208381099999976 0 0 0
Ni 4.75518000 4.48322500 -1.1208381099999976 0 0 0
Ni 4.75518000 0.00000000 -1.1208381099999976 0 0 0
Ni 1.58506000 4.48322500 -1.1208381099999976 0 0 0
Ni 4.75518000 6.72483750 -3.362514339999997 0 0 0
Ni 1.58506000 2.24161250 -3.362514339999997 0 0 0
Ni 1.58506000 6.72483750 -3.362514339999997 0 0 0
Ni 4.75518000 2.24161250 -3.362514339999997 0 0 0
Ni 1.78078321 4.48331466 3.11183571
Ni 4.52204938 0.00000000 3.40848099
Ni 4.55945679 4.48331466 3.11183571
Ni 1.81819062 0.00000000 3.40848099
Ni 4.81826539 2.27550568 1.23682374
Ni 1.52210142 6.69085465 1.23682374
Ni 1.52197461 2.27550568 1.23682374
Ni 4.81813858 6.69085465 1.23682374
Sb 0.00000000 6.72483750 -1.1208381099999976 0 0 0
Sb 3.17012000 0.00000000 -3.362514339999997 0 0 0
Sb 0.00000000 2.24161250 -1.1208381099999976 0 0 0
Sb 3.17012000 4.48322500 -3.362514339999997 0 0 0
Sb 0.00000000 2.58323425 3.65675438
Sb 3.17012000 4.48322500 0.98561062
Sb 0.00000000 6.38330542 3.65675438
Sb 3.17012000 0.00000000 1.08983734
C 0.00000000 8.96627067 3.59047688
