&CONTROL
calculation = 'relax'
prefix = 'scf'
pseudo_dir = '/vol0403/data/hp230205/u10028/POT_HYBRID_KKJUS_GBRV'
outdir = './data'
tprnfor = .true.
nstep = 50
disk_io = 'non'
/
&SYSTEM
ibrav = 0
ecutwfc = 50.0
ecutrho = 400
occupations = 'smearing'
smearing = 'mp'
degauss = 0.01
assume_isolated = 'esm'
esm_bc = 'bc1'
input_dft = 'BEEF-VDW'
nosym = .true.
nspin = 1
ntyp = 6
nat = 34
/
&ELECTRONS
electron_maxstep = 200
mixing_beta = 0.1
conv_thr = 1e-06
/
&IONS
ion_dynamics = 'bfgs'
upscale = 1.0
/
&CELL
/

K_POINTS {automatic}
6 6 1 0 0 0

ATOMIC_SPECIES
C 12.01 C.pbe-n-rrkjus_psl.1.0.0.UPF
Ge 72.64 Ge.pbe-dn-rrkjus_psl.1.0.0.UPF
Li 6.941 Li.pbe-sl-rrkjus_psl.1.0.0.UPF
O 15.99 O.pbe-n-rrkjus_psl.1.0.0.UPF
Pb 207.2 Pb.pbe-dn-rrkjus_psl.1.0.0.UPF
Y 88.90 Y.pbe-spn-rrkjus_psl.1.0.0.UPF


CELL_PARAMETERS {angstrom}
9.86128000 0.00000000 0.00000000
0.00000000 8.55406000 0.00000000
0.00000000 0.00000000 26.49120000

ATOMIC_POSITIONS {angstrom}
Li 2.62704499 1.92243944 3.53763485
Li 2.46532000 2.13851500 -1.0819006099999982 0 0 0
Li 2.62704499 6.63170610 3.53763485
Li 2.46532000 6.41554500 -1.0819006099999982 0 0 0
Li 7.23433362 1.92226836 3.53763485
Li 7.39596000 2.13851500 -1.0819006099999982 0 0 0
Li 7.23433362 6.63179164 3.53763485
Li 7.39596000 6.41554500 -1.0819006099999982 0 0 0
Y 0.00000000 2.07350414 1.14203563
Y 0.00000000 2.13851500 -3.2457018200000007 0 0 0
Y 0.00000000 6.48055586 1.14203563
Y 0.00000000 6.41554500 -3.2457018200000007 0 0 0
Y 4.93064000 2.20549329 1.07103922
Y 4.93064000 2.13851500 -3.2457018200000007 0 0 0
Y 4.93064000 6.34856671 1.07103922
Y 4.93064000 6.41554500 -3.2457018200000007 0 0 0
Ge 0.00000000 0.00000000 3.35405083
Ge 0.00000000 0.00000000 -1.0819006099999982 0 0 0
Ge 0.00000000 4.27703000 3.25444392
Ge 0.00000000 4.27703000 -1.0819006099999982 0 0 0
Ge 4.93064000 0.00000000 3.17497032
Ge 4.93064000 0.00000000 -1.0819006099999982 0 0 0
Ge 4.93034416 4.27703000 3.28596845
Ge 4.93064000 4.27703000 -1.0819006099999982 0 0 0
Pb 2.60880162 0.00000000 1.03845504
Pb 2.46532000 0.00000000 -3.2457018200000007 0 0 0
Pb 2.41621083 4.27703000 1.42045814
Pb 2.46532000 4.27703000 -3.2457018200000007 0 0 0
Pb 7.25247838 0.00000000 1.03845504
Pb 7.39596000 0.00000000 -3.2457018200000007 0 0 0
Pb 7.44506917 4.27703000 1.42045814
Pb 7.39596000 4.27703000 -3.2457018200000007 0 0 0
C 9.86088555 0.00000000 5.24048918
O 9.86118139 0.00000000 6.41378443
