&CONTROL
calculation = 'relax'
prefix = 'scf'
pseudo_dir = '/vol0403/data/hp230205/u10028/POT_HYBRID_KKJUS_GBRV'
outdir = './data'
tprnfor = .true.
nstep = 50
disk_io = 'non'
/
&SYSTEM
ibrav = 0
ecutwfc = 50.0
ecutrho = 400
occupations = 'smearing'
smearing = 'mp'
degauss = 0.01
assume_isolated = 'esm'
esm_bc = 'bc1'
input_dft = 'BEEF-VDW'
nosym = .true.
nspin = 1
ntyp = 4
nat = 16
/
&ELECTRONS
electron_maxstep = 200
mixing_beta = 0.1
conv_thr = 1e-06
/
&IONS
ion_dynamics = 'bfgs'
upscale = 1.0
/
&CELL
/

K_POINTS {automatic}
6 6 1 0 0 0

ATOMIC_SPECIES
Ge 72.64 Ge.pbe-dn-rrkjus_psl.1.0.0.UPF
Li 6.941 Li.pbe-sl-rrkjus_psl.1.0.0.UPF
Pd 106.4 Pd.pbe-n-rrkjus_psl.1.0.0.UPF
V 50.94 V.pbe-spnl-rrkjus_psl.1.0.0.UPF


CELL_PARAMETERS {angstrom}
5.17268000 0.00000000 0.00000000
0.00000000 9.40562000 0.00000000
0.00000000 0.00000000 23.56350000

ATOMIC_POSITIONS {angstrom}
Li 1.61511760 2.35018227 0.77099772
Li 2.34575865 2.35140500 -1.7816362300000002 0 0 0
Li 1.61434170 7.05562584 0.76958391
Li 2.34575865 7.05421500 -1.7816362300000002 0 0 0
V 3.22180374 9.40552594 1.39142468
V 4.15019634 0.00000000 -0.5938002000000004 0 0 0
V 3.23075247 4.70281000 1.37893602
V 4.15019634 4.70281000 -0.5938002000000004 0 0 0
Ge 0.54820063 0.00028217 1.71283082
Ge 1.56385634 0.00000000 -0.5938002000000004 0 0 0
Ge 0.55652864 4.70271594 1.71730788
Ge 1.56385634 4.70281000 -0.5938002000000004 0 0 0
Pd 4.25587420 2.34331617 0.99532224
Pd 4.93209865 2.35140500 -1.7816362300000002 0 0 0
Pd 4.25520175 7.06220978 0.99461533
Pd 4.93209865 7.05421500 -1.7816362300000002 0 0 0
