&CONTROL
calculation = 'relax'
prefix = 'scf'
pseudo_dir = '/vol0403/data/hp230205/u10028/POT_HYBRID_KKJUS_GBRV'
outdir = './data'
tprnfor = .true.
nstep = 50
disk_io = 'non'
/
&SYSTEM
ibrav = 0
ecutwfc = 50.0
ecutrho = 400
occupations = 'smearing'
smearing = 'mp'
degauss = 0.01
assume_isolated = 'esm'
esm_bc = 'bc1'
input_dft = 'BEEF-VDW'
nosym = .true.
nspin = 1
ntyp = 6
nat = 34
/
&ELECTRONS
electron_maxstep = 200
mixing_beta = 0.1
conv_thr = 1e-06
/
&IONS
ion_dynamics = 'bfgs'
upscale = 1.0
/
&CELL
/

K_POINTS {automatic}
7 7 2 0  0  0

ATOMIC_SPECIES
C 12.01 C.pbe-n-rrkjus_psl.1.0.0.UPF
Ge 72.64 Ge.pbe-dn-rrkjus_psl.1.0.0.UPF
In 114.8 In.pbe-dn-rrkjus_psl.1.0.0.UPF
Li 6.941 Li.pbe-sl-rrkjus_psl.1.0.0.UPF
Mg 24.30 Mg.pbe-spnl-rrkjus_psl.1.0.0.UPF
O 15.99 O.pbe-n-rrkjus_psl.1.0.0.UPF


CELL_PARAMETERS {angstrom}
8.75068000 0.00000000 0.00000000
0.00000000 8.41850000 0.00000000
0.00000000 0.00000000 26.30740000

ATOMIC_POSITIONS {angstrom}
Li 2.18767000 0.00000000 -1.0512437000000006 0 0 0
Li 2.23562373 8.39265521 3.10532550
Li 2.18767000 4.20925000 -1.0512437000000006 0 0 0
Li 2.23562373 4.23509480 3.10532550
Li 6.56301000 0.00000000 -1.0512437000000006 0 0 0
Li 6.51505627 8.39265521 3.10532550
Li 6.56301000 4.20925000 -1.0512437000000006 0 0 0
Li 6.51505627 4.23509480 3.10532550
Mg 0.00000000 2.10462500 -1.0512437000000006 0 0 0
Mg 0.00000000 2.10462500 3.08085961
Mg 0.00000000 6.31387500 -1.0512437000000006 0 0 0
Mg 0.00000000 6.31387500 3.34630128
Mg 4.37534000 2.10462500 -1.0512437000000006 0 0 0
Mg 4.37534000 2.10462500 3.33209528
Mg 4.37534000 6.31387500 -1.0512437000000006 0 0 0
Mg 4.37534000 6.31387500 3.32709688
In 2.18767000 2.10462500 -3.1537311100000025 0 0 0
In 2.22013502 2.10462500 1.06886966
In 2.18767000 6.31387500 -3.1537311100000025 0 0 0
In 2.19370797 6.31379081 1.07018503
In 6.56301000 2.10462500 -3.1537311100000025 0 0 0
In 6.53054498 2.10454082 1.06886966
In 6.56301000 6.31387500 -3.1537311100000025 0 0 0
In 6.55697203 6.31387500 1.07018503
Ge 0.00000000 0.00000000 -3.1537311100000025 0 0 0
Ge 0.00008751 8.38861432 1.21961106
Ge 0.00000000 4.20925000 -3.1537311100000025 0 0 0
Ge 0.00000000 4.23913567 1.21961106
Ge 4.37534000 0.00000000 -3.1537311100000025 0 0 0
Ge 4.37534000 8.39619097 1.18672681
Ge 4.37534000 4.20925000 -3.1537311100000025 0 0 0
Ge 4.37534000 4.23155903 1.18672681
C 0.00000000 2.10462500 5.27463370
O 0.00000000 2.10462500 6.42505630
