&CONTROL
calculation = 'relax'
prefix = 'scf'
pseudo_dir = '/vol0004/mdt0/data/hp150275/u10028/POT_KKJUS'
outdir = './data'
tprnfor = .true.
nstep = 50
disk_io = 'non'
/
&SYSTEM
ibrav = 0
ecutwfc = 50.0
ecutrho = 400
occupations = 'smearing'
smearing = 'mp'
degauss = 0.01
assume_isolated = 'esm'
esm_bc = 'bc1'
input_dft = 'BEEF-VDW'
nosym = .true.
nspin = 1
ntyp = 5
nat = 18
/
&ELECTRONS
electron_maxstep = 200
mixing_beta = 0.1
conv_thr = 1e-06
/
&IONS
ion_dynamics = 'bfgs'
upscale = 1.0
/
&CELL
/

K_POINTS {automatic}
9 9 2 0  0  0

ATOMIC_SPECIES
Ag 107.8 Ag.pbe-n-rrkjus_psl.1.0.0.UPF
Bi 208.9 Bi.pbe-dn-rrkjus_psl.1.0.0.UPF
C 12.01 C.pbe-n-rrkjus_psl.1.0.0.UPF
Li 6.941 Li.pbe-sl-rrkjus_psl.1.0.0.UPF
O 15.99 O.pbe-n-rrkjus_psl.1.0.0.UPF

CELL_PARAMETERS {angstrom}
6.92564000 0.00000000 0.00000000
0.00000000 6.92564000 0.00000000
0.00000000 0.00000000 25.19420000

ATOMIC_POSITIONS {angstrom}
Li 0.00000000 0.00000000 -0.8656727099999983 0 0 0
Li 3.46288926 0.00000000 2.72601244
Li 0.00000000 3.46282000 2.72651632
Li 3.46282000 3.46282000 -0.8656727099999983 0 0 0
Li 1.76209059 1.76215984 1.01431849
Li 1.73141000 5.19423000 -2.5970181399999994 0 0 0
Li 5.16354941 5.16348016 1.01431849
Li 5.19423000 1.73141000 -2.5970181399999994 0 0 0
Ag 1.73141000 1.73141000 -2.5970181399999994 0 0 0
Ag 1.75474941 5.17089059 1.00247722
Ag 5.19423000 5.19423000 -2.5970181399999994 0 0 0
Ag 5.17075208 1.75481866 1.00247722
Bi 6.92557074 0.00006926 2.58744434
Bi 3.46282000 3.46295851 2.67940317
Bi 3.46282000 0.00000000 -0.8656727099999983 0 0 0
Bi 0.00000000 3.46282000 -0.8656727099999983 0 0 0
C 0.00041554 6.92383933 7.11786538
O 6.92543223 0.00083108 8.25261215
