&CONTROL
calculation = 'relax'
prefix = 'scf'
pseudo_dir = '/vol0403/data/hp230205/u10028/POT_HYBRID_KKJUS_GBRV'
outdir = './data'
tprnfor = .true.
nstep = 50
disk_io = 'non'
/
&SYSTEM
ibrav = 0
ecutwfc = 50.0
ecutrho = 400
occupations = 'smearing'
smearing = 'mp'
degauss = 0.01
assume_isolated = 'esm'
esm_bc = 'bc1'
input_dft = 'BEEF-VDW'
nosym = .true.
nspin = 1
ntyp = 6
nat = 34
/
&ELECTRONS
electron_maxstep = 200
mixing_beta = 0.1
conv_thr = 1e-06
/
&IONS
ion_dynamics = 'bfgs'
upscale = 1.0
/
&CELL
/

K_POINTS {automatic}
6 6 1 0 0 0

ATOMIC_SPECIES
Ag 107.8 Ag.pbe-n-rrkjus_psl.1.0.0.UPF
Al 26.98 Al.pbe-nl-rrkjus_psl.1.0.0.UPF
C 12.01 C.pbe-n-rrkjus_psl.1.0.0.UPF
Li 6.941 Li.pbe-sl-rrkjus_psl.1.0.0.UPF
O 15.99 O.pbe-n-rrkjus_psl.1.0.0.UPF
Pd 106.4 Pd.pbe-n-rrkjus_psl.1.0.0.UPF


CELL_PARAMETERS {angstrom}
6.21941000 0.00000000 0.00000000
0.00000000 8.79558000 0.00000000
0.00000000 0.00000000 26.59670000

ATOMIC_POSITIONS {angstrom}
Li 1.55485250 0.00000000 -1.0995075799999974 0 0 0
Li 1.55485250 4.39779000 -1.0995075799999974 0 0 0
Li 4.66455750 2.19889500 -3.2982567699999983 0 0 0
Li 4.66455750 6.59668500 -3.2982567699999983 0 0 0
Li 1.49253401 4.41089541 3.45624117
Li 1.49253401 8.78247459 3.45624117
Li 4.65715640 6.59668500 1.04179274
Li 4.61262543 2.19889500 1.08248569
Al 4.66455750 0.00000000 -1.0995075799999974 0 0 0
Al 4.66455750 4.39779000 -1.0995075799999974 0 0 0
Al 1.55485250 2.19889500 -3.2982567699999983 0 0 0
Al 1.55485250 6.59668500 -3.2982567699999983 0 0 0
Al 4.76512536 4.41590889 3.22112634
Al 4.76512536 8.77746111 3.22112634
Al 1.58943242 6.59668500 1.12557234
Al 1.61107597 2.19889500 1.15456275
Ag 0.00000000 0.00000000 -3.2982567699999983 0 0 0
Ag 0.00000000 4.39779000 -3.2982567699999983 0 0 0
Ag 3.10970500 6.59668500 -1.0995075799999974 0 0 0
Ag 3.10970500 2.19889500 -1.0995075799999974 0 0 0
Ag 0.04801385 4.38864260 1.03274986
Ag 0.04801385 0.00914740 1.03274986
Ag 3.18993539 2.19889500 3.40597340
Ag 3.18676349 6.59668500 3.31261898
Pd 0.00000000 2.19889500 -1.0995075799999974 0 0 0
Pd 0.00000000 6.59668500 -1.0995075799999974 0 0 0
Pd 3.10970500 4.39779000 -3.2982567699999983 0 0 0
Pd 3.10970500 0.00000000 -3.2982567699999983 0 0 0
Pd 6.15553666 6.59668500 3.10622859
Pd 6.12226282 2.19889500 3.09080251
Pd 3.11107327 0.01424884 1.13089168
Pd 3.11101108 4.38354116 1.13089168
C 2.85060438 2.19889500 5.64328781
O 3.14129960 2.19889500 6.74971053
