&CONTROL
calculation = 'relax'
prefix = 'scf'
pseudo_dir = '/vol0004/mdt0/data/hp150275/u10028/POT_HYBRID_KKJUS_GBRV'
outdir = './data'
tprnfor = .true.
nstep = 50
disk_io = 'non'
/
&SYSTEM
ibrav = 0
ecutwfc = 50.0
ecutrho = 400
occupations = 'smearing'
smearing = 'mp'
degauss = 0.01
assume_isolated = 'esm'
esm_bc = 'bc1'
input_dft = 'BEEF-VDW'
nosym = .true.
nspin = 2
ntyp = 5
nat = 34
starting_magnetization(1) = 0.0
starting_magnetization(2) = 0.0
starting_magnetization(3) = 0.0
starting_magnetization(4) = 0.001
starting_magnetization(5) = 0.0
/
&ELECTRONS
electron_maxstep = 300
mixing_beta = 0.1
conv_thr = 1e-06
/
&IONS
ion_dynamics = 'bfgs'
upscale = 1.0
/
&CELL
/

K_POINTS {automatic}
8 6 1 0 0 0

ATOMIC_SPECIES
C 12.01 C.pbe-n-rrkjus_psl.1.0.0.UPF
Ga 69.72 Ga.pbe-dnl-rrkjus_psl.1.0.0.UPF
Nb 92.90 Nb.pbe-spn-rrkjus_psl.1.0.0.UPF
Ni 58.69 ni_pbe_v1.4.uspp.F.UPF
O 15.99 O.pbe-n-rrkjus_psl.1.0.0.UPF

CELL_PARAMETERS {angstrom}
6.00328000 0.00000000 0.00000000
0.00000000 8.48992000 0.00000000
0.00000000 0.00000000 26.36740000

ATOMIC_POSITIONS {angstrom}
Nb 0.00000000 0.00000000 -3.183599879999999 0 0 0
Nb 3.00164000 2.12248000 -1.0612878499999994 0 0 0
Nb 3.00164000 6.36744000 -1.0612878499999994 0 0 0
Nb 0.00000000 4.24496000 -3.183599879999999 0 0 0
Nb 0.00000000 4.28851329 1.06787970
Nb 3.00164000 6.36735510 3.26349310
Nb 3.00164000 2.12256490 3.17990844
Nb 0.00000000 8.44636671 1.06787970
Ga 0.00000000 6.36744000 -1.0612878499999994 0 0 0
Ga 3.00164000 0.00000000 -3.183599879999999 0 0 0
Ga 0.00000000 2.12248000 -1.0612878499999994 0 0 0
Ga 3.00164000 4.24496000 -3.183599879999999 0 0 0
Ga 0.00000000 2.12214040 3.24213550
Ga 3.00164000 4.19138860 1.04072128
Ga 0.00000000 6.36777960 3.20627584
Ga 3.00164000 0.05374119 1.04045760
Ni 1.50082000 0.00000000 -1.0612878499999994 0 0 0
Ni 4.50246000 4.24496000 -1.0612878499999994 0 0 0
Ni 4.50246000 0.00000000 -1.0612878499999994 0 0 0
Ni 1.50082000 4.24496000 -1.0612878499999994 0 0 0
Ni 4.50246000 6.36744000 -3.183599879999999 0 0 0
Ni 1.50082000 2.12248000 -3.183599879999999 0 0 0
Ni 1.50082000 6.36744000 -3.183599879999999 0 0 0
Ni 4.50246000 2.12248000 -3.183599879999999 0 0 0
Ni 1.51252640 4.25557240 3.07865762
Ni 4.49069357 8.47930760 3.07865762
Ni 4.49075360 4.25557240 3.07865762
Ni 1.51258643 8.47930760 3.07865762
Ni 4.58950756 2.12205550 1.05627804
Ni 1.63745465 6.36786450 1.15410110
Ni 1.41377244 2.12205550 1.05627804
Ni 4.36582535 6.36786450 1.15410110
C 3.00164000 2.12248000 5.31355845
O 3.00164000 2.12248000 6.46871424
