&CONTROL
calculation = 'relax'
prefix = 'scf'
pseudo_dir = '/vol0004/mdt0/data/hp150275/u10028/POT_KKJUS'
outdir = './data'
tprnfor = .true.
nstep = 50
disk_io = 'non'
/
&SYSTEM
ibrav = 0
ecutwfc = 50.0
ecutrho = 400
occupations = 'smearing'
smearing = 'mp'
degauss = 0.01
assume_isolated = 'esm'
esm_bc = 'bc1'
input_dft = 'BEEF-VDW'
nosym = .true.
nspin = 1
ntyp = 4
nat = 33
/
&ELECTRONS
electron_maxstep = 200
mixing_beta = 0.1
conv_thr = 1e-06
/
&IONS
ion_dynamics = 'bfgs'
upscale = 1.0
/
&CELL
/

K_POINTS {automatic}
9 6 2 0  0  0

ATOMIC_SPECIES
Au 196.9 Au.pbe-n-rrkjus_psl.1.0.0.UPF
C 12.01 C.pbe-n-rrkjus_psl.1.0.0.UPF
Li 6.941 Li.pbe-sl-rrkjus_psl.1.0.0.UPF
Sb 121.7 Sb.pbe-n-rrkjus_psl.1.0.0.UPF

CELL_PARAMETERS {angstrom}
6.66546000 0.00000000 0.00000000
0.00000000 9.42638000 0.00000000
0.00000000 0.00000000 27.06980000

ATOMIC_POSITIONS {angstrom}
Li 0.00000000 7.06978500 -1.17834839 0 0 0
Li 3.33273000 0.00000000 -3.5347744799999994 0 0 0
Li 0.00000000 2.35659500 -1.17834839 0 0 0
Li 3.33273000 4.71319000 -3.5347744799999994 0 0 0
Li 1.66636500 2.35659500 -3.5347744799999994 0 0 0
Li 1.66636500 7.06978500 -3.5347744799999994 0 0 0
Li 4.99909500 4.71319000 -1.17834839 0 0 0
Li 4.99909500 0.00000000 -1.17834839 0 0 0
Li 0.05125739 2.42484199 3.37858174
Li 3.40471697 4.71319000 1.00401888
Li 0.05145735 7.00172654 3.37858174
Li 3.59508251 0.00000000 1.66289781
Li 1.83033532 7.10117485 1.24006754
Li 1.83033532 2.32529942 1.24006754
Li 5.23151959 0.00000000 4.75102060
Li 4.74934021 4.71319000 3.56807034
Sb 0.00000000 0.00000000 -3.5347744799999994 0 0 0
Sb 3.33273000 2.35659500 -1.17834839 0 0 0
Sb 3.33273000 7.06978500 -1.17834839 0 0 0
Sb 0.00000000 4.71319000 -3.5347744799999994 0 0 0
Sb 6.64752991 4.71319000 1.28337922
Sb 3.59688218 7.24068527 3.68798955
Sb 3.59681553 2.18569473 3.68798955
Sb 6.59773893 0.00000000 1.22572054
Au 1.66636500 0.00000000 -1.17834839 0 0 0
Au 1.66636500 4.71319000 -1.17834839 0 0 0
Au 4.99909500 7.06978500 -3.5347744799999994 0 0 0
Au 4.99909500 2.35659500 -3.5347744799999994 0 0 0
Au 1.96671063 4.71319000 3.30441049
Au 1.35175529 0.00000000 3.54397822
Au 4.90571191 2.38817337 1.14288696
Au 4.90577856 7.03830089 1.14288696
C 3.18269050 0.00000000 4.54285384
