&CONTROL
calculation = 'relax'
prefix = 'scf'
pseudo_dir = '/vol0004/mdt0/data/hp150275/u10028/POT_HYBRID_KKJUS_GBRV'
outdir = './data'
tprnfor = .true.
nstep = 50
disk_io = 'non'
/
&SYSTEM
ibrav = 0
ecutwfc = 50.0
ecutrho = 400
occupations = 'smearing'
smearing = 'mp'
degauss = 0.01
assume_isolated = 'esm'
esm_bc = 'bc1'
input_dft = 'BEEF-VDW'
nosym = .true.
nspin = 2
ntyp = 3
nat = 33
starting_magnetization(1) = 0.1
starting_magnetization(2) = 0.1
starting_magnetization(3) = 0.1
/
&ELECTRONS
electron_maxstep = 200
mixing_beta = 0.1
conv_thr = 1e-06
/
&IONS
ion_dynamics = 'bfgs'
upscale = 1.0
/
&CELL
/

K_POINTS {automatic}
8 6 1 0 0 0

ATOMIC_SPECIES
C 12.01 C.pbe-n-rrkjus_psl.1.0.0.UPF
In 114.8 In.pbe-dn-rrkjus_psl.1.0.0.UPF
Ni 58.69 ni_pbe_v1.4.uspp.F.UPF

CELL_PARAMETERS {angstrom}
6.35210000 0.00000000 0.00000000
0.00000000 8.98322000 0.00000000
0.00000000 0.00000000 26.73740000

ATOMIC_POSITIONS {angstrom}
In 0.00000000 0.00000000 -3.3686450299999997 0 0 0
In 0.00000000 2.24580500 -1.122970800000001 0 0 0
In 0.03874781 8.95447370 1.14890608
In 6.05710848 2.24580500 3.37773574
In 0.00000000 4.49161000 -3.3686450299999997 0 0 0
In 0.00000000 6.73741500 -1.122970800000001 0 0 0
In 0.03874781 4.52044614 1.14890608
In 0.07044479 6.73741500 3.62639356
In 3.17605000 0.00000000 -3.3686450299999997 0 0 0
In 3.17605000 2.24580500 -1.122970800000001 0 0 0
In 3.13730219 8.95447370 1.14890608
In 3.47104152 2.24580500 3.37773574
In 3.17605000 4.49161000 -3.3686450299999997 0 0 0
In 3.17605000 6.73741500 -1.122970800000001 0 0 0
In 3.13730219 4.52044614 1.14890608
In 3.10560521 6.73741500 3.62639356
Ni 1.58802500 2.24580500 -3.3686450299999997 0 0 0
Ni 1.58802500 0.00000000 -1.122970800000001 0 0 0
Ni 1.58802500 2.24580500 1.13687425
Ni 1.58802500 0.44170493 3.49778667
Ni 1.58802500 6.73741500 -3.3686450299999997 0 0 0
Ni 1.58802500 4.49161000 -1.122970800000001 0 0 0
Ni 1.58802500 6.73741500 1.09997664
Ni 1.58802500 4.04999490 3.49778667
Ni 4.76407500 2.24580500 -3.3686450299999997 0 0 0
Ni 4.76407500 0.00000000 -1.122970800000001 0 0 0
Ni 4.76407500 2.24589483 0.95131669
Ni 4.76407500 8.79376389 3.17078827
Ni 4.76407500 6.73741500 -3.3686450299999997 0 0 0
Ni 4.76407500 4.49161000 -1.122970800000001 0 0 0
Ni 4.76407500 6.73741500 1.20826311
Ni 4.76407500 4.68097628 3.17078827
C 1.58802500 2.24589483 4.29215482
