&CONTROL
calculation = 'relax'
prefix = 'scf'
pseudo_dir = '/vol0403/data/hp230205/u10028/POT_HYBRID_KKJUS_GBRV'
outdir = './data'
tprnfor = .true.
nstep = 50
disk_io = 'non'
/
&SYSTEM
ibrav = 0
ecutwfc = 50.0
ecutrho = 400
occupations = 'smearing'
smearing = 'mp'
degauss = 0.01
assume_isolated = 'esm'
esm_bc = 'bc1'
input_dft = 'BEEF-VDW'
nosym = .true.
nspin = 1
ntyp = 6
nat = 18
/
&ELECTRONS
electron_maxstep = 200
mixing_beta = 0.1
conv_thr = 1e-06
/
&IONS
ion_dynamics = 'bfgs'
upscale = 1.0
/
&CELL
/

K_POINTS {automatic}
8 11 2 0  0  0

ATOMIC_SPECIES
C 12.01 C.pbe-n-rrkjus_psl.1.0.0.UPF
Ga 69.72 Ga.pbe-dnl-rrkjus_psl.1.0.0.UPF
In 114.8 In.pbe-dn-rrkjus_psl.1.0.0.UPF
Li 6.941 Li.pbe-sl-rrkjus_psl.1.0.0.UPF
O 15.99 O.pbe-n-rrkjus_psl.1.0.0.UPF
Sc 44.95 Sc.pbe-spn-rrkjus_psl.1.0.0.UPF


CELL_PARAMETERS {angstrom}
8.23116000 0.00000000 0.00000000
0.00000000 6.09788000 0.00000000
0.00000000 0.00000000 24.56590000

ATOMIC_POSITIONS {angstrom}
Li 0.00172854 3.28291566 2.60693331
Li 0.00000000 5.92329770 -0.7610515800000002 0 0 0
Li 4.11319296 3.20565552 2.64402782
Li 4.11558000 5.92329770 -0.7610515800000002 0 0 0
Sc 2.07030136 1.65472072 0.79495252
Sc 2.05779000 4.31156703 -2.2829090900000004 0 0 0
Sc 6.16637351 1.65691595 0.79765477
Sc 6.17337000 4.31156703 -2.2829090900000004 0 0 0
In 2.09853424 4.67939115 1.03766362
In 2.05779000 1.26262703 -2.2829090900000004 0 0 0
In 6.13254345 4.67451285 1.04675300
In 6.17337000 1.26262703 -2.2829090900000004 0 0 0
Ga 8.23050151 0.43148599 2.20331557
Ga 0.00000000 2.87435770 -0.7610515800000002 0 0 0
Ga 4.11582693 0.36666552 2.15664036
Ga 4.11558000 2.87435770 -0.7610515800000002 0 0 0
C 0.00131699 5.47906714 3.90180190
O 0.00444483 5.09026631 5.00210856
