&CONTROL
calculation = 'relax'
prefix = 'scf'
pseudo_dir = '/vol0403/data/hp230205/u10028/POT_HYBRID_KKJUS_GBRV'
outdir = './data'
tprnfor = .true.
nstep = 50
disk_io = 'non'
/
&SYSTEM
ibrav = 0
ecutwfc = 50.0
ecutrho = 400
occupations = 'smearing'
smearing = 'mp'
degauss = 0.01
assume_isolated = 'esm'
esm_bc = 'bc1'
input_dft = 'BEEF-VDW'
nosym = .true.
nspin = 1
ntyp = 6
nat = 18
/
&ELECTRONS
electron_maxstep = 200
mixing_beta = 0.1
conv_thr = 1e-06
/
&IONS
ion_dynamics = 'bfgs'
upscale = 1.0
/
&CELL
/

K_POINTS {automatic}
9 9 2 0  0  0

ATOMIC_SPECIES
C 12.01 C.pbe-n-rrkjus_psl.1.0.0.UPF
In 114.8 In.pbe-dn-rrkjus_psl.1.0.0.UPF
Ir 192.2 Ir.pbe-n-rrkjus_psl.0.2.3.UPF
Li 6.941 Li.pbe-sl-rrkjus_psl.1.0.0.UPF
O 15.99 O.pbe-n-rrkjus_psl.1.0.0.UPF
Pd 106.4 Pd.pbe-n-rrkjus_psl.1.0.0.UPF


CELL_PARAMETERS {angstrom}
6.33559000 0.00000000 0.00000000
0.00000000 6.33559000 0.00000000
0.00000000 0.00000000 24.75170000

ATOMIC_POSITIONS {angstrom}
Li 0.00000000 3.16779500 -2.3759156799999985 0 0 0
Li 0.03541595 6.30017405 0.91804055
Li 3.13237905 3.20321095 0.91804055
Li 3.16779500 0.00000000 -2.3759156799999985 0 0 0
In 0.00000000 0.00000000 -2.3759156799999985 0 0 0
In 0.02755982 3.19535482 0.82794437
In 3.14023518 6.30803018 0.82794437
In 3.16779500 3.16779500 -2.3759156799999985 0 0 0
Ir 1.58389750 1.58389750 -0.7920543999999978 0 0 0
Ir 1.58389750 4.75169250 2.33928317
Ir 4.75169250 1.58389750 2.31725415
Ir 4.75169250 4.75169250 -0.7920543999999978 0 0 0
Pd 4.75169250 1.58389750 -0.7920543999999978 0 0 0
Pd 4.75169250 4.75169250 2.38680643
Pd 1.58389750 1.58389750 2.38680643
Pd 1.58389750 4.75169250 -0.7920543999999978 0 0 0
C 4.75169250 1.58389750 4.16076077
O 4.75169250 1.58389750 5.32186302
