&CONTROL
calculation = 'relax'
prefix = 'scf'
pseudo_dir = '/vol0403/data/hp230205/u10028/POT_HYBRID_KKJUS_GBRV'
outdir = './data'
tprnfor = .true.
nstep = 70
disk_io = 'non'
/
&SYSTEM
ibrav = 0
ecutwfc = 50.0
ecutrho = 400
occupations = 'smearing'
smearing = 'mp'
degauss = 0.01
assume_isolated = 'esm'
esm_bc = 'bc1'
input_dft = 'BEEF-VDW'
nosym = .true.
nspin = 1
ntyp = 5
nat = 33
/
&ELECTRONS
electron_maxstep = 200
mixing_beta = 0.1
conv_thr = 1e-06
/
&IONS
ion_dynamics = 'bfgs'
upscale = 1.0
/
&CELL
/

K_POINTS {automatic}
6 6 1 0 0 0

ATOMIC_SPECIES
Al 26.98 Al.pbe-nl-rrkjus_psl.1.0.0.UPF
C 12.01 C.pbe-n-rrkjus_psl.1.0.0.UPF
Li 6.941 Li.pbe-sl-rrkjus_psl.1.0.0.UPF
Mg 24.30 Mg.pbe-spnl-rrkjus_psl.1.0.0.UPF
Pt 195.0 Pt.pbe-n-rrkjus_psl.1.0.0.UPF


CELL_PARAMETERS {angstrom}
6.24880000 0.00000000 0.00000000
-0.00000000 8.83714000 0.00000000
0.00000000 0.00000000 26.62790000

ATOMIC_POSITIONS {angstrom}
Li 1.56220000 0.00000000 -1.1045252900000015 0 0 0
Li 1.56220000 4.41857000 -1.1045252900000015 0 0 0
Li 4.68660000 2.20928500 -3.3138421499999993 0 0 0
Li 4.68660000 6.62785500 -3.3138421499999993 0 0 0
Li 1.65012062 4.41857000 3.48798862
Li 1.78840656 -0.00000000 4.28336399
Li 4.74390150 6.64614788 1.09174390
Li 4.74390150 2.19108049 1.09174390
Mg 0.00000000 2.20928500 -1.1045252900000015 0 0 0
Mg 0.00000000 6.62785500 -1.1045252900000015 0 0 0
Mg 3.12440000 4.41857000 -3.3138421499999993 0 0 0
Mg 3.12440000 0.00000000 -3.3138421499999993 0 0 0
Mg 6.22917877 6.65312922 3.47201188
Mg 6.22917877 2.18409915 3.47201188
Mg 3.06972300 -0.00000000 1.11411134
Mg 3.13077378 4.41857000 1.04967182
Al 0.00000000 0.00000000 -3.3138421499999993 0 0 0
Al 0.00000000 4.41857000 -3.3138421499999993 0 0 0
Al 3.12440000 6.62785500 -1.1045252900000015 0 0 0
Al 3.12440000 2.20928500 -1.1045252900000015 0 0 0
Al 0.01362238 4.41857000 1.17029621
Al 0.18458955 0.00000000 1.23713223
Al 3.17695241 2.26654967 3.26058636
Al 3.17695241 6.57059033 3.26058636
Pt 4.68660000 0.00000000 -1.1045252900000015 0 0 0
Pt 4.68660000 4.41857000 -1.1045252900000015 0 0 0
Pt 1.56220000 2.20928500 -3.3138421499999993 0 0 0
Pt 1.56220000 6.62785500 -3.3138421499999993 0 0 0
Pt 4.64104625 4.41857000 3.13942941
Pt 4.27024246 -0.00000000 3.38919911
Pt 1.56613674 6.55521371 1.05047066
Pt 1.56613674 2.28192629 1.05047066
C 0.01268506 0.00000000 3.25632589
