&CONTROL
calculation = 'relax'
prefix = 'scf'
pseudo_dir = '/vol0403/data/hp230205/u10028/POT_HYBRID_KKJUS_GBRV'
outdir = './data'
tprnfor = .true.
nstep = 70
disk_io = 'non'
/
&SYSTEM
ibrav = 0
ecutwfc = 50.0
ecutrho = 400
occupations = 'smearing'
smearing = 'mp'
degauss = 0.01
assume_isolated = 'esm'
esm_bc = 'bc1'
input_dft = 'BEEF-VDW'
nosym = .true.
nspin = 1
ntyp = 6
nat = 18
/
&ELECTRONS
electron_maxstep = 200
mixing_beta = 0.1
conv_thr = 1e-06
/
&IONS
ion_dynamics = 'bfgs'
upscale = 1.0
/
&CELL
/

K_POINTS {automatic}
6 6 1 0 0 0

ATOMIC_SPECIES
C 12.01 C.pbe-n-rrkjus_psl.1.0.0.UPF
Cu 63.54 Cu.pbe-dn-rrkjus_psl.1.0.0.UPF
Ga 69.72 Ga.pbe-dnl-rrkjus_psl.1.0.0.UPF
O 15.99 O.pbe-n-rrkjus_psl.1.0.0.UPF
Pd 106.4 Pd.pbe-n-rrkjus_psl.1.0.0.UPF
Y 88.90 Y.pbe-spn-rrkjus_psl.1.0.0.UPF


CELL_PARAMETERS {angstrom}
6.59466000 0.00000000 0.00000000
-0.00000000 6.59466000 0.00000000
0.00000000 0.00000000 24.94600000

ATOMIC_POSITIONS {angstrom}
Y 4.94599500 1.64866500 0.82421584
Y 4.94599500 4.94599500 -2.4728969800000016 0 0 0
Y 1.64866500 1.64866500 -2.4728969800000016 0 0 0
Y 1.64866500 4.94599500 0.82421584
Ga 1.64866500 1.64866500 0.82421584
Ga 1.64866500 4.94599500 -2.4728969800000016 0 0 0
Ga 4.94599500 1.64866500 -2.4728969800000016 0 0 0
Ga 4.94599500 4.94599500 0.82421584
Cu 0.00000000 0.00000000 2.47289698
Cu 0.00000000 3.29733000 -0.8242158400000008 0 0 0
Cu 3.29733000 0.00000000 -0.8242158400000008 0 0 0
Cu 3.29733000 3.29733000 2.47289698
Pd 0.00000000 3.29733000 2.47289698
Pd 0.00000000 0.00000000 -0.8242158400000008 0 0 0
Pd 3.29733000 3.29733000 -0.8242158400000008 0 0 0
Pd 3.29733000 -0.00000000 2.47289698
C 0.00000000 0.00000000 4.37303380
O 0.00000000 0.00000000 5.52304440
