&CONTROL
calculation = 'relax'
prefix = 'scf'
pseudo_dir = '/vol0403/data/hp230205/u10028/POT_HYBRID_KKJUS_GBRV'
outdir = './data'
tprnfor = .true.
nstep = 50
disk_io = 'non'
/
&SYSTEM
ibrav = 0
ecutwfc = 50.0
ecutrho = 400
occupations = 'smearing'
smearing = 'mp'
degauss = 0.01
assume_isolated = 'esm'
esm_bc = 'bc1'
input_dft = 'BEEF-VDW'
nosym = .true.
nspin = 1
ntyp = 6
nat = 34
/
&ELECTRONS
electron_maxstep = 200
mixing_beta = 0.1
conv_thr = 1e-06
/
&IONS
ion_dynamics = 'bfgs'
upscale = 1.0
/
&CELL
/

K_POINTS {automatic}
9 6 2 0  0  0

ATOMIC_SPECIES
Ag 107.8 Ag.pbe-n-rrkjus_psl.1.0.0.UPF
C 12.01 C.pbe-n-rrkjus_psl.1.0.0.UPF
In 114.8 In.pbe-dn-rrkjus_psl.1.0.0.UPF
Li 6.941 Li.pbe-sl-rrkjus_psl.1.0.0.UPF
O 15.99 O.pbe-n-rrkjus_psl.1.0.0.UPF
Sc 44.95 Sc.pbe-spn-rrkjus_psl.1.0.0.UPF


CELL_PARAMETERS {angstrom}
6.68683000 0.00000000 0.00000000
0.00000000 9.45660000 0.00000000
0.00000000 0.00000000 27.09240000

ATOMIC_POSITIONS {angstrom}
Li 0.00000000 2.36415000 -1.18204141 0 0 0
Li 0.00000000 7.09245000 -1.18204141 0 0 0
Li 3.34341500 4.72830000 -3.546124240000001 0 0 0
Li 3.34341500 0.00000000 -3.546124240000001 0 0 0
Li 0.06954303 7.02105267 4.10287306
Li 0.85190214 2.29123961 5.26974272
Li 3.39925003 0.01654905 1.34595043
Li 3.52783777 4.72489562 1.37033359
Sc 5.01512250 0.00000000 -1.18204141 0 0 0
Sc 5.01512250 4.72830000 -1.18204141 0 0 0
Sc 1.67170750 2.36415000 -3.546124240000001 0 0 0
Sc 1.67170750 7.09245000 -3.546124240000001 0 0 0
Sc 5.38958498 4.08695339 3.84386971
Sc 5.29409705 0.41713063 3.69594521
Sc 1.66816348 7.07079439 1.34269934
Sc 1.56612245 2.39649157 1.36816620
In 1.67170750 0.00000000 -1.18204141 0 0 0
In 1.67170750 4.72830000 -1.18204141 0 0 0
In 5.01512250 2.36415000 -3.546124240000001 0 0 0
In 5.01512250 7.09245000 -3.546124240000001 0 0 0
In 1.78404624 4.78154066 3.58188620
In 1.70467357 9.30756398 3.68673379
In 5.07396660 7.12696659 1.19342022
In 4.99807108 2.34646616 1.15467809
Ag 0.00000000 0.00000000 -3.546124240000001 0 0 0
Ag 0.00000000 4.72830000 -3.546124240000001 0 0 0
Ag 3.34341500 7.09245000 -1.18204141 0 0 0
Ag 3.34341500 2.36415000 -1.18204141 0 0 0
Ag 6.65018617 4.74030988 1.19829685
Ag 0.03523959 9.45310106 1.16307673
Ag 3.15778860 2.29606248 3.65964139
Ag 3.61269364 7.03079297 3.60897860
C 5.44287902 2.08092483 4.87446461
O 5.80323228 3.13505203 5.59593522
