&CONTROL
calculation = 'relax'
prefix = 'scf'
pseudo_dir = '/vol0403/data/hp230205/u10028/POT_HYBRID_KKJUS_GBRV'
outdir = './data'
tprnfor = .true.
nstep = 50
disk_io = 'non'
/
&SYSTEM
ibrav = 0
ecutwfc = 50.0
ecutrho = 400
occupations = 'smearing'
smearing = 'mp'
degauss = 0.01
assume_isolated = 'esm'
esm_bc = 'bc1'
input_dft = 'BEEF-VDW'
nosym = .true.
nspin = 2
ntyp = 5
nat = 17
starting_magnetization(1) = 0.0
starting_magnetization(2) = 0.0
starting_magnetization(3) = 0.0
starting_magnetization(4) = 0.001
starting_magnetization(5) = 0.0
/
&ELECTRONS
electron_maxstep = 200
mixing_beta = 0.1
conv_thr = 1e-06
/
&IONS
ion_dynamics = 'bfgs'
upscale = 1.0
/
&CELL
/

K_POINTS {automatic}
6 6 1 0 0 0

ATOMIC_SPECIES
C 12.01 C.pbe-n-rrkjus_psl.1.0.0.UPF
Ga 69.72 Ga.pbe-dnl-rrkjus_psl.1.0.0.UPF
Li 6.941 Li.pbe-sl-rrkjus_psl.1.0.0.UPF
Ni 58.69 ni_pbe_v1.4.uspp.F.UPF
Pd 106.4 Pd.pbe-n-rrkjus_psl.1.0.0.UPF


CELL_PARAMETERS {angstrom}
5.93220000 0.00000000 0.00000000
0.00000000 5.93220000 0.00000000
0.00000000 0.00000000 24.44920000

ATOMIC_POSITIONS {angstrom}
Li 5.90817459 2.99012541 2.56398760
Li 0.00000000 0.00000000 -0.7415442399999996 0 0 0
Li 2.96610000 2.96610000 -0.7415442399999996 0 0 0
Li 2.99012541 5.90817459 2.56398760
Ga 0.06044912 0.06044912 2.26815228
Ga 0.00000000 2.96610000 -0.7415442399999996 0 0 0
Ga 2.96610000 0.00000000 -0.7415442399999996 0 0 0
Ga 2.90565088 2.90565088 2.26815228
Ni 1.48305000 1.48305000 0.59876091
Ni 1.48305000 4.44915000 -2.2246327100000016 0 0 0
Ni 4.44915000 1.48305000 -2.2246327100000016 0 0 0
Ni 4.44915000 4.44915000 0.97747902
Pd 4.44915000 1.48305000 0.76501547
Pd 4.44915000 4.44915000 -2.2246327100000016 0 0 0
Pd 1.48305000 1.48305000 -2.2246327100000016 0 0 0
Pd 1.48305000 4.44915000 0.76501547
C 1.48305000 1.48305000 2.48257177
