&CONTROL
calculation = 'relax'
prefix = 'scf'
pseudo_dir = '/vol0004/mdt0/data/hp150275/u10028/POT_HYBRID_KKJUS_GBRV'
outdir = './data'
tprnfor = .true.
nstep = 50
disk_io = 'non'
/
&SYSTEM
ibrav = 0
ecutwfc = 50.0
ecutrho = 400
occupations = 'smearing'
smearing = 'mp'
degauss = 0.01
assume_isolated = 'esm'
esm_bc = 'bc1'
input_dft = 'BEEF-VDW'
nosym = .true.
nspin = 2
ntyp = 3
nat = 33
starting_magnetization(1) = 0.0
starting_magnetization(2) = 0.1
starting_magnetization(3) = 0.01
/
&ELECTRONS
electron_maxstep = 200
mixing_beta = 0.1
conv_thr = 1e-06
/
&IONS
ion_dynamics = 'bfgs'
upscale = 1.0
/
&CELL
/

K_POINTS {automatic}
6 8 1 0 0 0

ATOMIC_SPECIES
C 12.01 C.pbe-n-rrkjus_psl.1.0.0.UPF
Mn 54.93 mn_pbe_v1.5.uspp.F.UPF
Ni 58.69 ni_pbe_v1.4.uspp.F.UPF

CELL_PARAMETERS {angstrom}
7.93691000 0.00000000 0.00000000
-0.00000000 6.69882000 0.00000000
0.00000000 0.00000000 25.95270000

ATOMIC_POSITIONS {angstrom}
Mn 0.00000000 0.00000000 -2.9762556400000015 0 0 0
Mn 1.98422750 0.00000000 -0.9921717200000018 0 0 0
Mn 3.96845500 -0.00000000 0.99217172
Mn 1.98422750 -0.00000000 2.97625564
Mn 0.00000000 3.34941000 -2.9762556400000015 0 0 0
Mn 1.98422750 3.34941000 -0.9921717200000018 0 0 0
Mn 3.96845500 3.34941000 0.99217172
Mn 1.98422750 3.34941000 2.97625564
Mn 3.96845500 0.00000000 -2.9762556400000015 0 0 0
Mn 5.95268250 0.00000000 -0.9921717200000018 0 0 0
Mn 0.00000000 0.00000000 0.99217172
Mn 5.95268250 -0.00000000 2.97625564
Mn 3.96845500 3.34941000 -2.9762556400000015 0 0 0
Mn 5.95268250 3.34941000 -0.9921717200000018 0 0 0
Mn 0.00000000 3.34941000 0.99217172
Mn 5.95268250 3.34941000 2.97625564
Ni 1.98422750 1.67470500 -2.9762556400000015 0 0 0
Ni 3.96845500 1.67470500 -0.9921717200000018 0 0 0
Ni 1.98422750 1.67470500 0.99217172
Ni 3.96845500 1.67470500 2.97625564
Ni 1.98422750 5.02411500 -2.9762556400000015 0 0 0
Ni 3.96845500 5.02411500 -0.9921717200000018 0 0 0
Ni 1.98422750 5.02411500 0.99217172
Ni 3.96845500 5.02411500 2.97625564
Ni 5.95268250 1.67470500 -2.9762556400000015 0 0 0
Ni 0.00000000 1.67470500 -0.9921717200000018 0 0 0
Ni 5.95268250 1.67470500 0.99217172
Ni 0.00000000 1.67470500 2.97625564
Ni 5.95268250 5.02411500 -2.9762556400000015 0 0 0
Ni 0.00000000 5.02411500 -0.9921717200000018 0 0 0
Ni 5.95268250 5.02411500 0.99217172
Ni 0.00000000 5.02411500 2.97625564
C 1.98422750 1.67470500 3.77637738
