&CONTROL
calculation = 'relax'
prefix = 'scf'
pseudo_dir = '/vol0004/mdt0/data/hp150275/u10028/POT_KKJUS'
outdir = './data'
tprnfor = .true.
nstep = 50
disk_io = 'non'
/
&SYSTEM
ibrav = 0
ecutwfc = 50.0
ecutrho = 400
occupations = 'smearing'
smearing = 'mp'
degauss = 0.01
assume_isolated = 'esm'
esm_bc = 'bc1'
input_dft = 'BEEF-VDW'
nosym = .true.
nspin = 1
ntyp = 5
nat = 18
/
&ELECTRONS
electron_maxstep = 200
mixing_beta = 0.1
conv_thr = 1e-06
/
&IONS
ion_dynamics = 'bfgs'
upscale = 1.0
/
&CELL
/

K_POINTS {automatic}
8 8 1 0 0 0

ATOMIC_SPECIES
Ag 107.8 Ag.pbe-n-rrkjus_psl.1.0.0.UPF
C 12.01 C.pbe-n-rrkjus_psl.1.0.0.UPF
Li 6.941 Li.pbe-sl-rrkjus_psl.1.0.0.UPF
O 15.99 O.pbe-n-rrkjus_psl.1.0.0.UPF
Sb 121.7 Sb.pbe-n-rrkjus_psl.1.0.0.UPF

CELL_PARAMETERS {angstrom}
6.69979000 0.00000000 0.00000000
0.00000000 6.69979000 0.00000000
0.00000000 0.00000000 25.02480000

ATOMIC_POSITIONS {angstrom}
Li 0.00000000 0.00000000 -0.8375800600000005 0 0 0
Li 3.34949301 0.00006700 2.81353826
Li 6.69972300 3.35049798 2.81328802
Li 3.34989500 3.34989500 -0.8375800600000005 0 0 0
Li 1.67166460 1.67019065 1.04203267
Li 1.67494750 5.02484250 -2.51248992 0 0 0
Li 5.03020233 5.02886237 1.04253317
Li 5.02484250 1.67494750 -2.51248992 0 0 0
Ag 1.67494750 1.67494750 -2.51248992 0 0 0
Ag 1.67199959 5.02792440 0.98948059
Ag 5.02484250 5.02484250 -2.51248992 0 0 0
Ag 5.03254726 1.66704175 0.99373481
Sb 0.00381888 6.69684209 2.58080762
Sb 3.35110096 3.34929202 2.56904597
Sb 3.34989500 0.00000000 -0.8375800600000005 0 0 0
Sb 0.00000000 3.34989500 -0.8375800600000005 0 0 0
C 6.62636030 0.04937745 7.02846533
O 0.03323096 6.67680972 8.15608282
