&CONTROL
calculation = 'relax'
prefix = 'scf'
pseudo_dir = '/vol0004/mdt0/data/hp150275/u10028/POT_KKJUS'
outdir = './data'
tprnfor = .true.
nstep = 50
disk_io = 'non'
/
&SYSTEM
ibrav = 0
ecutwfc = 50.0
ecutrho = 400
occupations = 'smearing'
smearing = 'mp'
degauss = 0.01
assume_isolated = 'esm'
esm_bc = 'bc1'
input_dft = 'BEEF-VDW'
nosym = .true.
nspin = 1
ntyp = 4
nat = 34
/
&ELECTRONS
electron_maxstep = 200
mixing_beta = 0.1
conv_thr = 1e-06
/
&IONS
ion_dynamics = 'bfgs'
upscale = 1.0
/
&CELL
/

K_POINTS {automatic}
9 6 2 0  0  0

ATOMIC_SPECIES
C 12.01 C.pbe-n-rrkjus_psl.1.0.0.UPF
Cu 63.54 Cu.pbe-dn-rrkjus_psl.1.0.0.UPF
O 15.99 O.pbe-n-rrkjus_psl.1.0.0.UPF
Y 88.90 Y.pbe-spn-rrkjus_psl.1.0.0.UPF

CELL_PARAMETERS {angstrom}
6.99068000 0.00000000 0.00000000
0.00000000 9.88632000 0.00000000
0.00000000 0.00000000 27.41470000

ATOMIC_POSITIONS {angstrom}
Y 0.00000000 0.00000000 -3.707289880000001 0 0 0
Y 0.00000000 2.47158000 -1.2358546799999992 0 0 0
Y 0.00307590 0.00000000 1.20103801
Y 6.98222128 2.47523794 3.74375143
Y 0.00000000 4.94316000 -3.707289880000001 0 0 0
Y 0.00000000 7.41474000 -1.2358546799999992 0 0 0
Y 6.98816336 4.94316000 1.22105074
Y 6.98215137 7.41108206 3.74375143
Y 3.49534000 0.00000000 -3.707289880000001 0 0 0
Y 3.49534000 2.47158000 -1.2358546799999992 0 0 0
Y 3.49226410 0.00000000 1.20103801
Y 3.50386863 2.47523794 3.74375143
Y 3.49534000 4.94316000 -3.707289880000001 0 0 0
Y 3.49534000 7.41474000 -1.2358546799999992 0 0 0
Y 3.49778674 4.94316000 1.22105074
Y 3.50379872 7.41108206 3.74375143
Cu 1.74767000 2.47158000 -3.707289880000001 0 0 0
Cu 1.74767000 0.00000000 -1.2358546799999992 0 0 0
Cu 1.74767000 2.48364131 1.37978185
Cu 1.74767000 4.94316000 3.49153619
Cu 1.74767000 7.41474000 -3.707289880000001 0 0 0
Cu 1.74767000 4.94316000 -1.2358546799999992 0 0 0
Cu 1.74767000 7.40267869 1.37978185
Cu 1.74767000 0.00000000 3.58995497
Cu 5.24301000 2.47158000 -3.707289880000001 0 0 0
Cu 5.24301000 0.00000000 -1.2358546799999992 0 0 0
Cu 5.24301000 2.46297890 1.37320232
Cu 5.24301000 4.94316000 3.50058304
Cu 5.24301000 7.41474000 -3.707289880000001 0 0 0
Cu 5.24301000 4.94316000 -1.2358546799999992 0 0 0
Cu 5.24301000 7.42334110 1.37320232
Cu 5.24301000 0.00000000 3.46466979
C 1.74767000 0.00000000 5.44921992
O 1.74767000 0.00000000 6.62366567
