&CONTROL
calculation = 'relax'
prefix = 'scf'
pseudo_dir = '/vol0403/data/hp230205/u10028/POT_HYBRID_KKJUS_GBRV'
outdir = './data'
tprnfor = .true.
nstep = 50
disk_io = 'non'
/
&SYSTEM
ibrav = 0
ecutwfc = 50.0
ecutrho = 400
occupations = 'smearing'
smearing = 'mp'
degauss = 0.01
assume_isolated = 'esm'
esm_bc = 'bc1'
input_dft = 'BEEF-VDW'
nosym = .true.
nspin = 1
ntyp = 5
nat = 17
/
&ELECTRONS
electron_maxstep = 200
mixing_beta = 0.1
conv_thr = 1e-06
/
&IONS
ion_dynamics = 'bfgs'
upscale = 1.0
/
&CELL
/

K_POINTS {automatic}
8 10 2 0  0  0

ATOMIC_SPECIES
C 12.01 C.pbe-n-rrkjus_psl.1.0.0.UPF
Ge 72.64 Ge.pbe-dn-rrkjus_psl.1.0.0.UPF
Li 6.941 Li.pbe-sl-rrkjus_psl.1.0.0.UPF
Pb 207.2 Pb.pbe-dn-rrkjus_psl.1.0.0.UPF
Y 88.90 Y.pbe-spn-rrkjus_psl.1.0.0.UPF


CELL_PARAMETERS {angstrom}
8.55406000 0.00000000 0.00000000
0.00000000 6.56037000 0.00000000
0.00000000 0.00000000 24.87870000

ATOMIC_POSITIONS {angstrom}
Li 2.13851500 4.70745910 -0.8130359199999972 0 0 0
Li 1.37780244 0.83710321 2.50478752
Li 6.41554500 4.70745910 -0.8130359199999972 0 0 0
Li 7.17634310 0.83710321 2.50478752
Y 2.13851500 1.42727410 -0.8130359199999972 0 0 0
Y 1.85571778 4.40587889 2.30824579
Y 6.41554500 1.42727410 -0.8130359199999972 0 0 0
Y 6.69834222 4.40587889 2.30824579
Ge 0.00000000 0.00000000 -2.4393565299999977 0 0 0
Ge 0.00000000 2.71855172 0.75357582
Ge 4.27703000 0.00000000 -2.4393565299999977 0 0 0
Ge 4.27703000 3.23459043 0.58863004
Pb 0.00000000 3.28018500 -2.4393565299999977 0 0 0
Pb 0.00000000 5.96278590 0.36870233
Pb 4.27703000 3.28018500 -2.4393565299999977 0 0 0
Pb 4.27703000 0.06606293 1.39669022
C 0.00000000 5.69571323 2.77919958
