&CONTROL
calculation = 'relax'
prefix = 'scf'
pseudo_dir = '/vol0004/mdt0/data/hp150275/u10028/POT_HYBRID_KKJUS_GBRV'
outdir = './data'
tprnfor = .true.
nstep = 50
disk_io = 'non'
/
&SYSTEM
ibrav = 0
ecutwfc = 50.0
ecutrho = 400
occupations = 'smearing'
smearing = 'mp'
degauss = 0.01
assume_isolated = 'esm'
esm_bc = 'bc1'
input_dft = 'BEEF-VDW'
nosym = .true.
nspin = 2
ntyp = 3
nat = 33
starting_magnetization(1) = 0.0
starting_magnetization(2) = 0.0
starting_magnetization(3) = 0.001
/
&ELECTRONS
electron_maxstep = 400
mixing_beta = 0.1
conv_thr = 1e-06
/
&IONS
ion_dynamics = 'bfgs'
upscale = 1.0
/
&CELL
/

K_POINTS {automatic}
7 7 2 0  0  0

ATOMIC_SPECIES
C 12.01 C.pbe-n-rrkjus_psl.1.0.0.UPF
In 114.8 In.pbe-dn-rrkjus_psl.1.0.0.UPF
Ni 58.69 ni_pbe_v1.4.uspp.F.UPF

CELL_PARAMETERS {angstrom}
7.54029000 0.00000000 0.00000000
0.00000000 7.54029000 0.00000000
0.00000000 0.00000000 25.65520000

ATOMIC_POSITIONS {angstrom}
In 7.21786720 0.00000000 3.23512072
In 0.00000000 0.00000000 -0.942572049999999 0 0 0
In 0.01930314 3.77006960 2.98703494
In 0.00000000 3.77014500 -0.942572049999999 0 0 0
In 4.09256780 0.00000000 3.23512072
In 3.77014500 0.00000000 -0.942572049999999 0 0 0
In 3.75084186 3.77006960 2.98703494
In 3.77014500 3.77014500 -0.942572049999999 0 0 0
Ni 7.53659526 1.89841881 0.93436238
Ni 1.88507250 7.53991299 0.89793200
Ni 1.88507250 1.81457079 2.60169383
Ni 0.00000000 1.88507250 -2.8277161399999997 0 0 0
Ni 1.88507250 0.00000000 -2.8277161399999997 0 0 0
Ni 1.88507250 1.88507250 -0.942572049999999 0 0 0
Ni 7.53674606 5.64187119 0.93436238
Ni 1.88499710 3.77014500 0.97925898
Ni 1.88507250 5.72571921 2.60169383
Ni 0.00000000 5.65521750 -2.8277161399999997 0 0 0
Ni 1.88507250 3.77014500 -2.8277161399999997 0 0 0
Ni 1.88507250 5.65521750 -0.942572049999999 0 0 0
Ni 3.77383974 1.89841881 0.93436238
Ni 5.65521750 7.54013919 0.94462446
Ni 5.65521750 1.97020237 2.56141517
Ni 3.77014500 1.88507250 -2.8277161399999997 0 0 0
Ni 5.65521750 0.00000000 -2.8277161399999997 0 0 0
Ni 5.65521750 1.88507250 -0.942572049999999 0 0 0
Ni 3.77368894 5.64187119 0.93436238
Ni 5.65521750 3.77029581 0.90845063
Ni 5.65521750 5.57008763 2.56115862
Ni 3.77014500 5.65521750 -2.8277161399999997 0 0 0
Ni 5.65521750 3.77014500 -2.8277161399999997 0 0 0
Ni 5.65521750 5.65521750 -0.942572049999999 0 0 0
C 1.88507250 0.00000000 2.77897126
