&CONTROL
calculation = 'relax'
prefix = 'scf'
pseudo_dir = '/vol0004/mdt0/data/hp150275/u10028/POT_KKJUS'
outdir = './data'
tprnfor = .true.
nstep = 50
disk_io = 'non'
/
&SYSTEM
ibrav = 0
ecutwfc = 50.0
ecutrho = 400
occupations = 'smearing'
smearing = 'mp'
degauss = 0.01
assume_isolated = 'esm'
esm_bc = 'bc1'
input_dft = 'BEEF-VDW'
nosym = .true.
nspin = 1
ntyp = 2
nat = 32
/
&ELECTRONS
electron_maxstep = 200
mixing_beta = 0.1
conv_thr = 1e-06
/
&IONS
ion_dynamics = 'bfgs'
upscale = 1.0
/
&CELL
/

K_POINTS {automatic}
8 6 1 0 0 0

ATOMIC_SPECIES
Os 190.2 Os.pbe-spn-rrkjus_psl.1.0.0.UPF
Zr 91.22 Zr.pbe-spn-rrkjus_psl.1.0.0.UPF

CELL_PARAMETERS {angstrom}
6.57738000 0.00000000 0.00000000
0.00000000 9.30182000 0.00000000
0.00000000 0.00000000 26.97640000

ATOMIC_POSITIONS {angstrom}
Zr 1.64434500 2.32545500 -3.4883182800000014 0 0 0
Zr 1.64434500 0.00000000 -1.1626828400000022 0 0 0
Zr 1.64434500 2.32545500 1.20287768
Zr 1.64434500 4.65100302 3.53525722
Zr 1.64434500 6.97636500 -3.4883182800000014 0 0 0
Zr 1.64434500 4.65091000 -1.1626828400000022 0 0 0
Zr 1.64434500 6.97636500 1.20287768
Zr 1.64434500 9.30172698 3.53525722
Zr 4.93303500 2.32545500 -3.4883182800000014 0 0 0
Zr 4.93303500 0.00000000 -1.1626828400000022 0 0 0
Zr 4.93303500 2.32545500 1.20287768
Zr 4.93303500 4.65100302 3.53525722
Zr 4.93303500 6.97636500 -3.4883182800000014 0 0 0
Zr 4.93303500 4.65091000 -1.1626828400000022 0 0 0
Zr 4.93303500 6.97636500 1.20287768
Zr 4.93303500 9.30172698 3.53525722
Os 0.00000000 0.00000000 -3.4883182800000014 0 0 0
Os 0.00000000 2.32545500 -1.1626828400000022 0 0 0
Os 0.00000000 0.00009302 1.17347340
Os 0.00000000 2.32545500 3.33913879
Os 0.00000000 4.65091000 -3.4883182800000014 0 0 0
Os 0.00000000 6.97636500 -1.1626828400000022 0 0 0
Os 0.00000000 4.65081698 1.17347340
Os 0.00000000 6.97636500 3.33940856
Os 3.28869000 0.00000000 -3.4883182800000014 0 0 0
Os 3.28869000 2.32545500 -1.1626828400000022 0 0 0
Os 3.28869000 0.00009302 1.17347340
Os 3.28869000 2.32545500 3.33913879
Os 3.28869000 4.65091000 -3.4883182800000014 0 0 0
Os 3.28869000 6.97636500 -1.1626828400000022 0 0 0
Os 3.28869000 4.65081698 1.17347340
Os 3.28869000 6.97636500 3.33940856
