&CONTROL
calculation = 'relax'
prefix = 'scf'
pseudo_dir = '/vol0403/data/hp230205/u10028/POT_HYBRID_KKJUS_GBRV'
outdir = './data'
tprnfor = .true.
nstep = 50
disk_io = 'non'
/
&SYSTEM
ibrav = 0
ecutwfc = 50.0
ecutrho = 400
occupations = 'smearing'
smearing = 'mp'
degauss = 0.01
assume_isolated = 'esm'
esm_bc = 'bc1'
input_dft = 'BEEF-VDW'
nosym = .true.
nspin = 1
ntyp = 6
nat = 34
/
&ELECTRONS
electron_maxstep = 200
mixing_beta = 0.1
conv_thr = 1e-06
/
&IONS
ion_dynamics = 'bfgs'
upscale = 1.0
/
&CELL
/

K_POINTS {automatic}
6 6 1 0 0 0

ATOMIC_SPECIES
C 12.01 C.pbe-n-rrkjus_psl.1.0.0.UPF
Ga 69.72 Ga.pbe-dnl-rrkjus_psl.1.0.0.UPF
In 114.8 In.pbe-dn-rrkjus_psl.1.0.0.UPF
Li 6.941 Li.pbe-sl-rrkjus_psl.1.0.0.UPF
O 15.99 O.pbe-n-rrkjus_psl.1.0.0.UPF
Sc 44.95 Sc.pbe-spn-rrkjus_psl.1.0.0.UPF


CELL_PARAMETERS {angstrom}
8.86716000 0.00000000 0.00000000
0.00000000 8.23116000 0.00000000
0.00000000 0.00000000 26.27990000

ATOMIC_POSITIONS {angstrom}
Li 2.21679000 0.00000000 1.04672842
Li 2.21679000 0.00000000 -3.1399224500000003 0 0 0
Li 2.21679000 4.11558000 1.04672842
Li 2.21679000 4.11558000 -3.1399224500000003 0 0 0
Li 6.65037000 0.00000000 1.04672842
Li 6.65037000 0.00000000 -3.1399224500000003 0 0 0
Li 6.65037000 4.11558000 1.04672842
Li 6.65037000 4.11558000 -3.1399224500000003 0 0 0
Sc 0.00000000 2.05779000 1.04672842
Sc 0.00000000 2.05779000 -3.1399224500000003 0 0 0
Sc 0.00000000 6.17337000 1.04672842
Sc 0.00000000 6.17337000 -3.1399224500000003 0 0 0
Sc 4.43358000 2.05779000 1.04672842
Sc 4.43358000 2.05779000 -3.1399224500000003 0 0 0
Sc 4.43358000 6.17337000 1.04672842
Sc 4.43358000 6.17337000 -3.1399224500000003 0 0 0
In 2.21679000 2.05779000 3.13992245
In 2.21679000 2.05779000 -1.0467284200000009 0 0 0
In 2.21679000 6.17337000 3.13992245
In 2.21679000 6.17337000 -1.0467284200000009 0 0 0
In 6.65037000 2.05779000 3.13992245
In 6.65037000 2.05779000 -1.0467284200000009 0 0 0
In 6.65037000 6.17337000 3.13992245
In 6.65037000 6.17337000 -1.0467284200000009 0 0 0
Ga 0.00000000 0.00000000 3.13992245
Ga 0.00000000 0.00000000 -1.0467284200000009 0 0 0
Ga 0.00000000 4.11558000 3.13992245
Ga 0.00000000 4.11558000 -1.0467284200000009 0 0 0
Ga 4.43358000 0.00000000 3.13992245
Ga 4.43358000 0.00000000 -1.0467284200000009 0 0 0
Ga 4.43358000 4.11558000 3.13992245
Ga 4.43358000 4.11558000 -1.0467284200000009 0 0 0
C 2.21679000 2.05779000 5.03995922
O 2.21679000 2.05779000 6.18996765
