&CONTROL
calculation = 'relax'
prefix = 'scf'
pseudo_dir = '/vol0004/mdt0/data/hp150275/u10028/POT_KKJUS'
outdir = './data'
tprnfor = .true.
nstep = 50
disk_io = 'non'
/
&SYSTEM
ibrav = 0
ecutwfc = 50.0
ecutrho = 400
occupations = 'smearing'
smearing = 'mp'
degauss = 0.01
assume_isolated = 'esm'
esm_bc = 'bc1'
input_dft = 'BEEF-VDW'
nosym = .true.
nspin = 1
ntyp = 3
nat = 17
/
&ELECTRONS
electron_maxstep = 200
mixing_beta = 0.1
conv_thr = 1e-06
/
&IONS
ion_dynamics = 'bfgs'
upscale = 1.0
/
&CELL
/

K_POINTS {automatic}
8 8 1 0 0 0

ATOMIC_SPECIES
C 12.01 C.pbe-n-rrkjus_psl.1.0.0.UPF
Hf 178.4 Hf.pbe-spn-rrkjus_psl.1.0.0.UPF
Pt 195.0 Pt.pbe-n-rrkjus_psl.1.0.0.UPF

CELL_PARAMETERS {angstrom}
6.65903000 0.00000000 0.00000000
-0.00000000 6.65903000 0.00000000
0.00000000 0.00000000 24.99430000

ATOMIC_POSITIONS {angstrom}
Hf 1.66475750 1.66475750 -0.8693017499999982 0 0 0
Hf 1.66475750 1.66475750 2.46018895
Hf 1.66475750 4.99427250 -0.8693017499999982 0 0 0
Hf 1.66475750 4.99427250 2.46018895
Hf 4.99427250 1.66475750 -0.8693017499999982 0 0 0
Hf 4.99427250 1.66475750 2.46018895
Hf 4.99427250 4.99427250 -0.8693017499999982 0 0 0
Hf 4.99427250 4.99427250 2.46018895
Pt 0.00000000 0.00000000 -2.5341720799999976 0 0 0
Pt 0.00000000 0.00000000 0.79531863
Pt 0.00000000 3.32951500 -2.5341720799999976 0 0 0
Pt 0.00000000 3.32951500 0.79531863
Pt 3.32951500 0.00000000 -2.5341720799999976 0 0 0
Pt 3.32951500 -0.00000000 0.79531863
Pt 3.32951500 3.32951500 -2.5341720799999976 0 0 0
Pt 3.32951500 3.32951500 0.79531863
C 0.00000000 0.00000000 3.26025649
