&CONTROL
calculation = 'relax'
prefix = 'scf'
pseudo_dir = '/vol0004/mdt0/data/hp150275/u10028/POT_HYBRID_KKJUS_GBRV'
outdir = './data'
tprnfor = .true.
nstep = 50
disk_io = 'non'
/
&SYSTEM
ibrav = 0
ecutwfc = 50.0
ecutrho = 400
occupations = 'smearing'
smearing = 'mp'
degauss = 0.01
assume_isolated = 'esm'
esm_bc = 'bc1'
input_dft = 'BEEF-VDW'
nosym = .true.
nspin = 2
ntyp = 4
nat = 17
starting_magnetization(1) = 0.1
starting_magnetization(2) = 0.1
starting_magnetization(3) = 0.1
starting_magnetization(4) = 0.1
/
&ELECTRONS
electron_maxstep = 200
mixing_beta = 0.1
conv_thr = 1e-06
/
&IONS
ion_dynamics = 'bfgs'
upscale = 1.0
/
&CELL
/

K_POINTS {automatic}
10 10 2 0  0  0

ATOMIC_SPECIES
Al 26.98 Al.pbe-nl-rrkjus_psl.1.0.0.UPF
C 12.01 C.pbe-n-rrkjus_psl.1.0.0.UPF
Ni 58.69 ni_pbe_v1.4.uspp.F.UPF
Zr 91.22 Zr.pbe-spn-rrkjus_psl.1.0.0.UPF

CELL_PARAMETERS {angstrom}
6.14873000 0.00000000 0.00000000
-0.00000000 6.14873000 0.00000000
0.00000000 0.00000000 24.61150000

ATOMIC_POSITIONS {angstrom}
Zr 0.00000000 0.00000000 2.30585143
Zr 3.07436500 3.07436500 2.30585143
Zr 3.07436500 0.00000000 -0.7686171500000007 0 0 0
Zr 0.00000000 3.07436500 -0.7686171500000007 0 0 0
Al 0.00000000 0.00000000 -0.7686171500000007 0 0 0
Al 3.07436500 -0.00000000 2.30585143
Al 0.00000000 3.07436500 2.30585143
Al 3.07436500 3.07436500 -0.7686171500000007 0 0 0
Ni 1.53718250 1.53718250 0.76861715
Ni 4.61154750 4.61154750 -2.305851439999998 0 0 0
Ni 4.61154750 1.53718250 0.76861715
Ni 1.53718250 4.61154750 -2.305851439999998 0 0 0
Ni 4.61154750 4.61154750 0.76861715
Ni 1.53718250 1.53718250 -2.305851439999998 0 0 0
Ni 1.53718250 4.61154750 0.76861715
Ni 4.61154750 1.53718250 -2.305851439999998 0 0 0
C 1.53718250 1.53718250 3.10572518
