&CONTROL
calculation = 'relax'
prefix = 'scf'
pseudo_dir = '/vol0004/mdt0/data/hp150275/u10028/POT_KKJUS'
outdir = './data'
tprnfor = .true.
nstep = 50
disk_io = 'non'
/
&SYSTEM
ibrav = 0
ecutwfc = 50.0
ecutrho = 400
occupations = 'smearing'
smearing = 'mp'
degauss = 0.01
assume_isolated = 'esm'
esm_bc = 'bc1'
input_dft = 'BEEF-VDW'
nosym = .true.
nspin = 1
ntyp = 3
nat = 33
/
&ELECTRONS
electron_maxstep = 200
mixing_beta = 0.1
conv_thr = 1e-06
/
&IONS
ion_dynamics = 'bfgs'
upscale = 1.0
/
&CELL
/

K_POINTS {automatic}
8 6 1 0 0 0

ATOMIC_SPECIES
C 12.01 C.pbe-n-rrkjus_psl.1.0.0.UPF
Cu 63.54 Cu.pbe-dn-rrkjus_psl.1.0.0.UPF
Pd 106.4 Pd.pbe-n-rrkjus_psl.1.0.0.UPF

CELL_PARAMETERS {angstrom}
6.09666000 0.00000000 0.00000000
0.00000000 8.62198000 0.00000000
0.00000000 0.00000000 26.46650000

ATOMIC_POSITIONS {angstrom}
Cu 0.00000000 0.00000000 -3.2331476399999985 0 0 0
Cu 0.00000000 2.15549500 -1.0777158799999995 0 0 0
Cu 0.00000000 0.00000000 1.05230804
Cu 0.00000000 2.01702600 3.36812679
Cu 0.00000000 4.31099000 -3.2331476399999985 0 0 0
Cu 0.00000000 6.46648500 -1.0777158799999995 0 0 0
Cu 0.00000000 4.31099000 1.03669281
Cu 0.00000000 6.60495400 3.36812679
Cu 3.04833000 0.00000000 -3.2331476399999985 0 0 0
Cu 3.04833000 2.15549500 -1.0777158799999995 0 0 0
Cu 3.04833000 0.00000000 0.97343787
Cu 3.04833000 2.25111276 3.23817627
Cu 3.04833000 4.31099000 -3.2331476399999985 0 0 0
Cu 3.04833000 6.46648500 -1.0777158799999995 0 0 0
Cu 3.04833000 4.31099000 1.10391771
Cu 3.04833000 6.37086724 3.23817627
Pd 1.52416500 2.15549500 -3.2331476399999985 0 0 0
Pd 1.52416500 0.00000000 -1.0777158799999995 0 0 0
Pd 1.50995978 2.15540878 1.11132834
Pd 1.66902164 0.00000000 3.17492134
Pd 1.52416500 6.46648500 -3.2331476399999985 0 0 0
Pd 1.52416500 4.31099000 -1.0777158799999995 0 0 0
Pd 1.50995978 6.46657122 1.11132834
Pd 1.43850693 4.31099000 3.19979985
Pd 4.57249500 2.15549500 -3.2331476399999985 0 0 0
Pd 4.57249500 0.00000000 -1.0777158799999995 0 0 0
Pd 4.58670022 2.15540878 1.11132834
Pd 4.42763836 0.00000000 3.17492134
Pd 4.57249500 6.46648500 -3.2331476399999985 0 0 0
Pd 4.57249500 4.31099000 -1.0777158799999995 0 0 0
Pd 4.58670022 6.46657122 1.11132834
Pd 4.65815307 4.31099000 3.19979985
C 0.00000000 0.00000000 4.05916711
