&CONTROL
calculation = 'relax'
prefix = 'scf'
pseudo_dir = '/vol0403/data/hp230205/u10028/POT_HYBRID_KKJUS_GBRV'
outdir = './data'
tprnfor = .true.
nstep = 50
disk_io = 'non'
/
&SYSTEM
ibrav = 0
ecutwfc = 50.0
ecutrho = 400
occupations = 'smearing'
smearing = 'mp'
degauss = 0.01
assume_isolated = 'esm'
esm_bc = 'bc1'
input_dft = 'BEEF-VDW'
nosym = .true.
nspin = 1
ntyp = 6
nat = 34
/
&ELECTRONS
electron_maxstep = 200
mixing_beta = 0.1
conv_thr = 1e-06
/
&IONS
ion_dynamics = 'bfgs'
upscale = 1.0
/
&CELL
/

K_POINTS {automatic}
6 6 1 0 0 0

ATOMIC_SPECIES
C 12.01 C.pbe-n-rrkjus_psl.1.0.0.UPF
Ge 72.64 Ge.pbe-dn-rrkjus_psl.1.0.0.UPF
Li 6.941 Li.pbe-sl-rrkjus_psl.1.0.0.UPF
O 15.99 O.pbe-n-rrkjus_psl.1.0.0.UPF
Pd 106.4 Pd.pbe-n-rrkjus_psl.1.0.0.UPF
Sc 44.95 Sc.pbe-spn-rrkjus_psl.1.0.0.UPF


CELL_PARAMETERS {angstrom}
6.30999000 0.00000000 0.00000000
0.00000000 8.92368000 0.00000000
0.00000000 0.00000000 26.69280000

ATOMIC_POSITIONS {angstrom}
Li 4.73249250 0.00000000 -1.1154921099999981 0 0 0
Li 4.73249250 4.46184000 -1.1154921099999981 0 0 0
Li 1.57749750 2.23092000 -3.346476339999999 0 0 0
Li 1.57749750 6.69276000 -3.346476339999999 0 0 0
Li 3.77703381 4.42114802 4.61758747
Li 3.77709691 0.04069198 4.61758747
Li 1.53402167 6.69276000 1.19343509
Li 1.55206824 2.23092000 1.16487379
Sc 0.00000000 2.23092000 -1.1154921099999981 0 0 0
Sc 0.00000000 6.69276000 -1.1154921099999981 0 0 0
Sc 3.15499500 4.46184000 -3.346476339999999 0 0 0
Sc 3.15499500 0.00000000 -3.346476339999999 0 0 0
Sc 6.07689897 6.69276000 3.35448418
Sc 6.07134618 2.23092000 3.33473150
Sc 3.21159561 8.91234693 1.28338982
Sc 3.21159561 4.47317307 1.28365675
Ge 0.00000000 0.00000000 -3.346476339999999 0 0 0
Ge 0.00000000 4.46184000 -3.346476339999999 0 0 0
Ge 3.15499500 6.69276000 -1.1154921099999981 0 0 0
Ge 3.15499500 2.23092000 -1.1154921099999981 0 0 0
Ge 6.25862668 4.46023374 1.11922910
Ge 6.25868978 0.00169550 1.11896218
Ge 3.09669069 2.23092000 3.33873542
Ge 3.13202664 6.69276000 3.39532416
Pd 1.57749750 0.00000000 -1.1154921099999981 0 0 0
Pd 1.57749750 4.46184000 -1.1154921099999981 0 0 0
Pd 4.73249250 2.23092000 -3.346476339999999 0 0 0
Pd 4.73249250 6.69276000 -3.346476339999999 0 0 0
Pd 1.44707001 4.49396525 3.24184056
Pd 1.44707001 8.89155475 3.24184056
Pd 4.74908777 6.69276000 1.05997109
Pd 4.70113185 2.23092000 1.02366888
C 6.09052855 2.23083076 5.61216120
O 6.17975181 2.23092000 6.76795944
