&CONTROL
calculation = 'relax'
prefix = 'scf'
pseudo_dir = '/vol0004/mdt0/data/hp150275/u10028/POT_KKJUS'
outdir = './data'
tprnfor = .true.
nstep = 50
disk_io = 'non'
/
&SYSTEM
ibrav = 0
ecutwfc = 50.0
ecutrho = 400
occupations = 'smearing'
smearing = 'mp'
degauss = 0.01
assume_isolated = 'esm'
esm_bc = 'bc1'
input_dft = 'BEEF-VDW'
nosym = .true.
nspin = 1
ntyp = 3
nat = 16
/
&ELECTRONS
electron_maxstep = 200
mixing_beta = 0.1
conv_thr = 1e-06
/
&IONS
ion_dynamics = 'bfgs'
upscale = 1.0
/
&CELL
/

K_POINTS {automatic}
10 10 2 0  0  0

ATOMIC_SPECIES
Au 196.9 Au.pbe-n-rrkjus_psl.1.0.0.UPF
Li 6.941 Li.pbe-sl-rrkjus_psl.1.0.0.UPF
Sb 121.7 Sb.pbe-n-rrkjus_psl.1.0.0.UPF

CELL_PARAMETERS {angstrom}
6.66546000 0.00000000 0.00000000
0.00000000 6.66546000 0.00000000
0.00000000 0.00000000 24.99910000

ATOMIC_POSITIONS {angstrom}
Li 0.00000000 0.00000000 -0.8332199999999972 0 0 0
Li 3.33279665 0.00000000 2.64940462
Li 0.00000000 3.33273000 2.64940462
Li 3.33273000 3.33273000 -0.8332199999999972 0 0 0
Li 1.66636500 1.66636500 -2.4996600099999995 0 0 0
Li 1.66783140 4.99776191 0.98196465
Li 4.99909500 4.99909500 -2.4996600099999995 0 0 0
Li 4.99756194 1.66776475 0.98196465
Sb 0.00000000 0.00000000 2.53490874
Sb 3.33273000 3.33273000 2.53215884
Sb 3.33273000 0.00000000 -0.8332199999999972 0 0 0
Sb 0.00000000 3.33273000 -0.8332199999999972 0 0 0
Au 1.66696489 1.66683158 0.97846477
Au 1.66636500 4.99909500 -2.4996600099999995 0 0 0
Au 4.99856176 4.99862842 0.97846477
Au 4.99909500 1.66636500 -2.4996600099999995 0 0 0
