&CONTROL
calculation = 'relax'
prefix = 'scf'
pseudo_dir = '/vol0403/data/hp230205/u10028/POT_HYBRID_KKJUS_GBRV'
outdir = './data'
tprnfor = .true.
nstep = 50
disk_io = 'non'
/
&SYSTEM
ibrav = 0
ecutwfc = 50.0
ecutrho = 400
occupations = 'smearing'
smearing = 'mp'
degauss = 0.01
assume_isolated = 'esm'
esm_bc = 'bc1'
input_dft = 'BEEF-VDW'
nosym = .true.
nspin = 1
ntyp = 5
nat = 17
/
&ELECTRONS
electron_maxstep = 200
mixing_beta = 0.1
conv_thr = 1e-06
/
&IONS
ion_dynamics = 'bfgs'
upscale = 1.0
/
&CELL
/

K_POINTS {automatic}
9 9 2 0  0  0

ATOMIC_SPECIES
C 12.01 C.pbe-n-rrkjus_psl.1.0.0.UPF
Ge 72.64 Ge.pbe-dn-rrkjus_psl.1.0.0.UPF
Li 6.941 Li.pbe-sl-rrkjus_psl.1.0.0.UPF
Pd 106.4 Pd.pbe-n-rrkjus_psl.1.0.0.UPF
Sn 118.7 Sn.pbe-dn-rrkjus_psl.1.0.0.UPF


CELL_PARAMETERS {angstrom}
6.61012000 0.00000000 0.00000000
0.00000000 6.61012000 0.00000000
0.00000000 0.00000000 24.95760000

ATOMIC_POSITIONS {angstrom}
Li 4.95759000 1.65253000 -0.8263461399999983 0 0 0
Li 5.12932092 4.78579298 2.66497253
Li 1.48093128 1.82412872 2.66497253
Li 1.65253000 4.95759000 -0.8263461399999983 0 0 0
Sn 0.00000000 3.30506000 -2.478788829999999 0 0 0
Sn 6.61005390 0.00000000 0.76994196
Sn 3.30506000 3.30512610 0.77019154
Sn 3.30506000 0.00000000 -2.478788829999999 0 0 0
Ge 0.00000000 0.00000000 -2.478788829999999 0 0 0
Ge 0.00006610 3.30506000 0.49965115
Ge 3.30506000 0.00000000 1.08091366
Ge 3.30506000 3.30506000 -2.478788829999999 0 0 0
Pd 1.65253000 1.65253000 -0.8263461399999983 0 0 0
Pd 1.52581400 4.83094010 2.13662014
Pd 5.08430600 1.77924600 2.13662014
Pd 4.95759000 4.95759000 -0.8263461399999983 0 0 0
C 0.00013220 3.30492780 2.43885667
