&CONTROL
calculation = 'relax'
prefix = 'scf'
pseudo_dir = '/vol0004/mdt0/data/hp150275/u10028/POT_KKJUS'
outdir = './data'
tprnfor = .true.
nstep = 50
disk_io = 'non'
/
&SYSTEM
ibrav = 0
ecutwfc = 50.0
ecutrho = 400
occupations = 'smearing'
smearing = 'mp'
degauss = 0.01
assume_isolated = 'esm'
esm_bc = 'bc1'
input_dft = 'BEEF-VDW'
nosym = .true.
nspin = 1
ntyp = 3
nat = 33
/
&ELECTRONS
electron_maxstep = 200
mixing_beta = 0.1
conv_thr = 1e-06
/
&IONS
ion_dynamics = 'bfgs'
upscale = 1.0
/
&CELL
/

K_POINTS {automatic}
8 6 1 0 0 0

ATOMIC_SPECIES
C 12.01 C.pbe-n-rrkjus_psl.1.0.0.UPF
Mg 24.30 Mg.pbe-spnl-rrkjus_psl.1.0.0.UPF
Sc 44.95 Sc.pbe-spn-rrkjus_psl.1.0.0.UPF

CELL_PARAMETERS {angstrom}
7.19733000 0.00000000 0.00000000
0.00000000 10.17860000 0.00000000
0.00000000 0.00000000 27.63390000

ATOMIC_POSITIONS {angstrom}
Mg 0.00000000 0.00000000 -3.817070610000002 0 0 0
Mg 0.00000000 2.54465000 -1.2722647600000023 0 0 0
Mg 0.06751096 5.09052143 1.26176387
Mg 6.84761174 2.55035002 3.89859061
Mg 0.00000000 5.08930000 -3.817070610000002 0 0 0
Mg 0.00000000 7.63395000 -1.2722647600000023 0 0 0
Mg 0.06851858 10.17188212 1.26204021
Mg 0.22052619 7.62886070 3.89499820
Mg 3.59866500 0.00000000 -3.817070610000002 0 0 0
Mg 3.59866500 2.54465000 -1.2722647600000023 0 0 0
Mg 3.53115404 5.09052143 1.26176387
Mg 3.94838326 2.55035002 3.89859061
Mg 3.59866500 5.08930000 -3.817070610000002 0 0 0
Mg 3.59866500 7.63395000 -1.2722647600000023 0 0 0
Mg 3.53014642 10.17188212 1.26204021
Mg 3.37813881 7.62886070 3.89499820
Sc 1.79933250 2.54465000 -3.817070610000002 0 0 0
Sc 1.79933250 0.00000000 -1.2722647600000023 0 0 0
Sc 1.79933250 2.54393750 1.54418233
Sc 1.79933250 4.68683816 3.93202763
Sc 1.79933250 7.63395000 -3.817070610000002 0 0 0
Sc 1.79933250 5.08930000 -1.2722647600000023 0 0 0
Sc 1.79933250 7.63099821 1.23136658
Sc 1.79933250 0.40744936 3.93230397
Sc 5.39799750 2.54465000 -3.817070610000002 0 0 0
Sc 5.39799750 0.00000000 -1.2722647600000023 0 0 0
Sc 5.39799750 2.54251249 1.15675505
Sc 5.39799750 5.33979535 3.59627575
Sc 5.39799750 7.63395000 -3.817070610000002 0 0 0
Sc 5.39799750 5.08930000 -1.2722647600000023 0 0 0
Sc 5.39799750 7.63252500 1.33057228
Sc 5.39799750 9.92891894 3.59627575
C 1.79933250 2.54831430 3.76843494
