&CONTROL
calculation = 'relax'
prefix = 'scf'
pseudo_dir = '/vol0403/data/hp230205/u10028/POT_HYBRID_KKJUS_GBRV'
outdir = './data'
tprnfor = .true.
nstep = 70
disk_io = 'non'
/
&SYSTEM
ibrav = 0
ecutwfc = 50.0
ecutrho = 400
occupations = 'smearing'
smearing = 'mp'
degauss = 0.01
assume_isolated = 'esm'
esm_bc = 'bc1'
input_dft = 'BEEF-VDW'
nosym = .true.
nspin = 1
ntyp = 6
nat = 34
/
&ELECTRONS
electron_maxstep = 200
mixing_beta = 0.1
conv_thr = 1e-06
/
&IONS
ion_dynamics = 'bfgs'
upscale = 1.0
/
&CELL
/

K_POINTS {automatic}
6 6 1 0 0 0

ATOMIC_SPECIES
C 12.01 C.pbe-n-rrkjus_psl.1.0.0.UPF
In 114.8 In.pbe-dn-rrkjus_psl.1.0.0.UPF
Li 6.941 Li.pbe-sl-rrkjus_psl.1.0.0.UPF
O 15.99 O.pbe-n-rrkjus_psl.1.0.0.UPF
Pd 106.4 Pd.pbe-n-rrkjus_psl.1.0.0.UPF
Pt 195.0 Pt.pbe-n-rrkjus_psl.1.0.0.UPF


CELL_PARAMETERS {angstrom}
6.39502000 0.00000000 0.00000000
-0.00000000 9.04392000 0.00000000
0.00000000 0.00000000 26.78290000

ATOMIC_POSITIONS {angstrom}
Li 0.00000000 2.26098000 -1.13050621 0 0 0
Li 0.00000000 6.78294000 -1.13050621 0 0 0
Li 3.19751000 4.52196000 -3.39151863 0 0 0
Li 3.19751000 0.00000000 -3.39151863 0 0 0
Li 6.39399680 6.70724239 3.50882773
Li 6.39399680 2.33667761 3.50882773
Li 3.18574316 -0.00000000 1.11122252
Li 3.19085918 4.52196000 1.07506561
In 0.00000000 0.00000000 -3.39151863 0 0 0
In 0.00000000 4.52196000 -3.39151863 0 0 0
In 3.19751000 6.78294000 -1.13050621 0 0 0
In 3.19751000 2.26098000 -1.13050621 0 0 0
In 0.00703452 4.52196000 1.09702758
In 0.00223826 0.00000000 1.10131285
In 3.19130683 2.26242703 3.56132221
In 3.19137078 6.78149297 3.56132221
Pd 4.79626500 0.00000000 -1.13050621 0 0 0
Pd 4.79626500 4.52196000 -1.13050621 0 0 0
Pd 1.59875500 2.26098000 -3.39151863 0 0 0
Pd 1.59875500 6.78294000 -3.39151863 0 0 0
Pd 4.71408899 4.52196000 3.22680379
Pd 4.69407258 -0.00000000 3.23832044
Pd 1.62030622 6.82843092 1.18514333
Pd 1.62030622 2.21557952 1.18514333
Pt 1.59875500 0.00000000 -1.13050621 0 0 0
Pt 1.59875500 4.52196000 -1.13050621 0 0 0
Pt 4.79626500 2.26098000 -3.39151863 0 0 0
Pt 4.79626500 6.78294000 -3.39151863 0 0 0
Pt 1.69877311 4.52196000 3.21368017
Pt 1.48895251 -0.00000000 3.49088319
Pt 4.77963795 6.78863767 1.17148405
Pt 4.77957400 2.25528233 1.17148405
C 0.89108209 0.00000000 5.28801578
O 0.57977251 0.00000000 6.40459488
