&CONTROL
calculation = 'relax'
prefix = 'scf'
pseudo_dir = '/vol0004/mdt0/data/hp150275/u10028/POT_HYBRID_KKJUS_GBRV'
outdir = './data'
tprnfor = .true.
nstep = 50
disk_io = 'non'
/
&SYSTEM
ibrav = 0
ecutwfc = 50.0
ecutrho = 400
occupations = 'smearing'
smearing = 'mp'
degauss = 0.01
assume_isolated = 'esm'
esm_bc = 'bc1'
input_dft = 'BEEF-VDW'
nosym = .true.
nspin = 2
ntyp = 3
nat = 17
starting_magnetization(1) = 0.0
starting_magnetization(2) = 0.1
starting_magnetization(3) = 0.0
/
&ELECTRONS
electron_maxstep = 200
mixing_beta = 0.1
conv_thr = 1e-06
/
&IONS
ion_dynamics = 'bfgs'
upscale = 1.0
/
&CELL
/

K_POINTS {automatic}
8 11 2 0  0  0

ATOMIC_SPECIES
C 12.01 C.pbe-n-rrkjus_psl.1.0.0.UPF
Fe 55.84 fe_pbe_v1.5.uspp.F.UPF
Pd 106.4 Pd.pbe-n-rrkjus_psl.1.0.0.UPF

CELL_PARAMETERS {angstrom}
7.85602000 0.00000000 0.00000000
-0.00000000 5.55505000 0.00000000
0.00000000 0.00000000 24.16630000

ATOMIC_POSITIONS {angstrom}
Fe 0.00000000 0.00000000 2.08313506
Fe 0.00000000 2.77752500 23.47200220
Fe 3.92801000 -0.00000000 2.08313506
Fe 3.92801000 2.77752500 23.47200220
Pd 0.00000000 2.77752500 2.08313506
Pd 1.96400500 4.16628750 0.69429780
Pd 1.96400500 1.38876250 0.69429780
Pd 0.00000000 0.00000000 23.47200220
Pd 1.96400500 1.38876250 22.08316494
Pd 1.96400500 4.16628750 22.08316494
Pd 3.92801000 2.77752500 2.08313506
Pd 5.89201500 4.16628750 0.69429780
Pd 5.89201500 1.38876250 0.69429780
Pd 3.92801000 0.00000000 23.47200220
Pd 5.89201500 1.38876250 22.08316494
Pd 5.89201500 4.16628750 22.08316494
C 1.96400500 1.38876250 2.88303959
