&CONTROL
calculation = 'relax'
prefix = 'scf'
pseudo_dir = '/vol0004/mdt0/data/hp150275/u10028/POT_KKJUS'
outdir = './data'
tprnfor = .true.
nstep = 50
disk_io = 'non'
/
&SYSTEM
ibrav = 0
ecutwfc = 50.0
ecutrho = 400
occupations = 'smearing'
smearing = 'mp'
degauss = 0.01
assume_isolated = 'esm'
esm_bc = 'bc1'
input_dft = 'BEEF-VDW'
nosym = .true.
nspin = 1
ntyp = 4
nat = 18
/
&ELECTRONS
electron_maxstep = 200
mixing_beta = 0.1
conv_thr = 1e-06
/
&IONS
ion_dynamics = 'bfgs'
upscale = 1.0
/
&CELL
/

K_POINTS {automatic}
9 9 2 0  0  0

ATOMIC_SPECIES
C 12.01 C.pbe-n-rrkjus_psl.1.0.0.UPF
In 114.8 In.pbe-dn-rrkjus_psl.1.0.0.UPF
O 15.99 O.pbe-n-rrkjus_psl.1.0.0.UPF
Sb 121.7 Sb.pbe-n-rrkjus_psl.1.0.0.UPF

CELL_PARAMETERS {angstrom}
7.67805000 0.00000000 0.00000000
0.00000000 7.67805000 0.00000000
0.00000000 0.00000000 25.75850000

ATOMIC_POSITIONS {angstrom}
In 0.00000000 0.00000000 -2.9073618900000007 0 0 0
In 7.53001720 7.52955651 0.86574319
In 0.00000000 3.83902500 -2.9073618900000007 0 0 0
In 7.53001720 3.98744171 0.86548560
In 3.83902500 0.00000000 -2.9073618900000007 0 0 0
In 3.98721136 7.52955651 0.86574319
In 3.83902500 3.83902500 -2.9073618900000007 0 0 0
In 3.98713458 3.98736493 0.86574319
Sb 1.91951250 1.91951250 -0.9878384699999998 0 0 0
Sb 1.91958928 1.91943572 1.90870485
Sb 1.91951250 5.75853750 -0.9878384699999998 0 0 0
Sb 1.91958928 5.75846072 2.12353074
Sb 5.75853750 1.91951250 -0.9878384699999998 0 0 0
Sb 5.75861428 1.91951250 2.12378833
Sb 5.75853750 5.75853750 -0.9878384699999998 0 0 0
Sb 5.75861428 5.75846072 2.81514647
C 1.91805367 1.92127845 5.53498648
O 1.91981962 1.91889826 6.66887565
