&CONTROL
calculation = 'relax'
prefix = 'scf'
pseudo_dir = '/vol0004/mdt0/data/hp150275/u10028/POT_KKJUS'
outdir = './data'
tprnfor = .true.
nstep = 50
disk_io = 'non'
/
&SYSTEM
ibrav = 0
ecutwfc = 50.0
ecutrho = 400
occupations = 'smearing'
smearing = 'mp'
degauss = 0.01
assume_isolated = 'esm'
esm_bc = 'bc1'
input_dft = 'BEEF-VDW'
nosym = .true.
nspin = 1
ntyp = 5
nat = 34
/
&ELECTRONS
electron_maxstep = 200
mixing_beta = 0.1
conv_thr = 1e-06
/
&IONS
ion_dynamics = 'bfgs'
upscale = 1.0
/
&CELL
/

K_POINTS {automatic}
9 6 2 0  0  0

ATOMIC_SPECIES
Au 196.9 Au.pbe-n-rrkjus_psl.1.0.0.UPF
C 12.01 C.pbe-n-rrkjus_psl.1.0.0.UPF
Li 6.941 Li.pbe-sl-rrkjus_psl.1.0.0.UPF
O 15.99 O.pbe-n-rrkjus_psl.1.0.0.UPF
Pb 207.2 Pb.pbe-dn-rrkjus_psl.1.0.0.UPF

CELL_PARAMETERS {angstrom}
6.82040000 0.00000000 0.00000000
0.00000000 9.64550000 0.00000000
0.00000000 0.00000000 27.23410000

ATOMIC_POSITIONS {angstrom}
Li 0.00000000 7.23412500 -1.2056536100000024 0 0 0
Li 3.41020000 0.00000000 -3.6169608200000027 0 0 0
Li 0.00000000 2.41137500 -1.2056536100000024 0 0 0
Li 3.41020000 4.82275000 -3.6169608200000027 0 0 0
Li 1.70510000 0.00000000 -1.2056536100000024 0 0 0
Li 1.70510000 4.82275000 -1.2056536100000024 0 0 0
Li 5.11530000 7.23412500 -3.6169608200000027 0 0 0
Li 5.11530000 2.41137500 -3.6169608200000027 0 0 0
Li 6.68869808 2.41137500 3.49604142
Li 3.40590315 4.81329741 0.98723613
Li 6.66284876 7.23412500 3.48569246
Li 3.40583494 0.00945259 0.98723613
Li 2.03275202 4.82776566 3.32909638
Li 2.03268381 9.64048434 3.32909638
Li 4.86560516 2.41137500 1.43850516
Li 4.82843398 7.23412500 1.47227545
Pb 0.00000000 0.00000000 -3.6169608200000027 0 0 0
Pb 3.41020000 2.41137500 -1.2056536100000024 0 0 0
Pb 3.41020000 7.23412500 -1.2056536100000024 0 0 0
Pb 0.00000000 4.82275000 -3.6169608200000027 0 0 0
Pb 0.06690812 4.79545324 1.16507480
Pb 3.39055725 7.23422146 4.23871532
Pb 3.47117438 2.41137500 4.16055346
Pb 0.06690812 0.02729677 1.16507480
Au 1.70510000 2.41137500 -3.6169608200000027 0 0 0
Au 1.70510000 7.23412500 -3.6169608200000027 0 0 0
Au 5.11530000 4.82275000 -1.2056536100000024 0 0 0
Au 5.11530000 0.00000000 -1.2056536100000024 0 0 0
Au 1.91612318 7.23412500 1.57059055
Au 1.94483706 2.41137500 1.57712673
Au 4.85605660 9.58675891 3.23949620
Au 4.85612480 4.88149110 3.23949620
C 0.03955832 2.41137500 5.57836070
O 0.04071779 2.41137500 6.72219290
