&CONTROL
calculation = 'relax'
prefix = 'scf'
pseudo_dir = '/vol0403/data/hp230205/u10028/POT_HYBRID_KKJUS_GBRV'
outdir = './data'
tprnfor = .true.
nstep = 50
disk_io = 'non'
/
&SYSTEM
ibrav = 0
ecutwfc = 50.0
ecutrho = 400
occupations = 'smearing'
smearing = 'mp'
degauss = 0.01
assume_isolated = 'esm'
esm_bc = 'bc1'
input_dft = 'BEEF-VDW'
nosym = .true.
nspin = 1
ntyp = 6
nat = 18
/
&ELECTRONS
electron_maxstep = 200
mixing_beta = 0.1
conv_thr = 1e-06
/
&IONS
ion_dynamics = 'bfgs'
upscale = 1.0
/
&CELL
/

K_POINTS {automatic}
8 8 1 0 0 0

ATOMIC_SPECIES
C 12.01 C.pbe-n-rrkjus_psl.1.0.0.UPF
Cu 63.54 Cu.pbe-dn-rrkjus_psl.1.0.0.UPF
In 114.8 In.pbe-dn-rrkjus_psl.1.0.0.UPF
Li 6.941 Li.pbe-sl-rrkjus_psl.1.0.0.UPF
Mg 24.30 Mg.pbe-spnl-rrkjus_psl.1.0.0.UPF
O 15.99 O.pbe-n-rrkjus_psl.1.0.0.UPF


CELL_PARAMETERS {angstrom}
6.43808000 0.00000000 0.00000000
0.00000000 6.43808000 0.00000000
0.00000000 0.00000000 24.82860000

ATOMIC_POSITIONS {angstrom}
Li 0.00000000 3.21904000 -2.4143330600000006 0 0 0
Li 0.08575523 6.35193849 0.95590110
Li 3.13328477 3.30518151 0.95590110
Li 3.21904000 0.00000000 -2.4143330600000006 0 0 0
Mg 4.82856000 1.60952000 -0.8046949300000001 0 0 0
Mg 4.82875314 4.82836686 2.58689183
Mg 1.60945562 1.60958438 2.58614698
Mg 1.60952000 4.82856000 -0.8046949300000001 0 0 0
In 1.60952000 1.60952000 -0.8046949300000001 0 0 0
In 1.60964876 4.82862438 2.86348244
In 4.82875314 1.60945562 2.38478703
In 4.82856000 4.82856000 -0.8046949300000001 0 0 0
Cu 0.00000000 0.00000000 -2.4143330600000006 0 0 0
Cu 0.06753546 3.28651108 0.90649219
Cu 3.15156892 6.37060892 0.90649219
Cu 3.21904000 3.21904000 -2.4143330600000006 0 0 0
C 4.82856000 1.60932686 4.92078023
O 4.82856000 1.60964876 6.06537869
