&CONTROL
calculation = 'relax'
prefix = 'scf'
pseudo_dir = '/vol0403/data/hp230205/u10028/POT_HYBRID_KKJUS_GBRV'
outdir = './data'
tprnfor = .true.
nstep = 70
disk_io = 'non'
/
&SYSTEM
ibrav = 0
ecutwfc = 50.0
ecutrho = 400
occupations = 'smearing'
smearing = 'mp'
degauss = 0.01
assume_isolated = 'esm'
esm_bc = 'bc1'
input_dft = 'BEEF-VDW'
nosym = .true.
nspin = 1
ntyp = 6
nat = 18
/
&ELECTRONS
electron_maxstep = 200
mixing_beta = 0.1
conv_thr = 1e-06
/
&IONS
ion_dynamics = 'bfgs'
upscale = 1.0
/
&CELL
/

K_POINTS {automatic}
11 7 2 0  0  0

ATOMIC_SPECIES
Al 26.98 Al.pbe-nl-rrkjus_psl.1.0.0.UPF
C 12.01 C.pbe-n-rrkjus_psl.1.0.0.UPF
In 114.8 In.pbe-dn-rrkjus_psl.1.0.0.UPF
O 15.99 O.pbe-n-rrkjus_psl.1.0.0.UPF
Pd 106.4 Pd.pbe-n-rrkjus_psl.1.0.0.UPF
Y 88.90 Y.pbe-spn-rrkjus_psl.1.0.0.UPF


CELL_PARAMETERS {angstrom}
6.15545000 0.00000000 0.00000000
-0.00000000 8.86460000 0.00000000
0.00000000 0.00000000 24.58270000

ATOMIC_POSITIONS {angstrom}
Y 3.07772500 0.00000000 -2.2913534700000007 0 0 0
Y 5.63586847 8.85821749 0.82204549
Y 3.07772500 4.43230000 -2.2913534700000007 0 0 0
Y 5.63593002 4.43894845 0.82204549
Al 0.00000000 0.00000000 -2.2913534700000007 0 0 0
Al 2.56288316 8.86362489 0.96265853
Al 0.00000000 4.43230000 -2.2913534700000007 0 0 0
Al 2.56288316 4.43336375 0.96265853
In 1.35272169 2.21615000 -0.763784489999999 0 0 0
In 3.88759756 2.21623865 2.38304694
In 1.35272169 6.64845000 -0.763784489999999 0 0 0
In 3.88365807 6.64853865 2.42065847
Pd 4.43044669 2.21615000 -0.763784489999999 0 0 0
Pd 1.09019175 2.21623865 1.98579051
Pd 4.43044669 6.64845000 -0.763784489999999 0 0 0
Pd 1.10108690 6.64871594 1.98996956
C 3.63811717 2.21349062 6.01169928
O 4.42176751 2.21650458 6.83349895
