&CONTROL
calculation = 'relax'
prefix = 'scf'
pseudo_dir = '/vol0004/mdt0/data/hp150275/u10028/POT_KKJUS'
outdir = './data'
tprnfor = .true.
nstep = 50
disk_io = 'non'
/
&SYSTEM
ibrav = 0
ecutwfc = 50.0
ecutrho = 400
occupations = 'smearing'
smearing = 'mp'
degauss = 0.01
assume_isolated = 'esm'
esm_bc = 'bc1'
input_dft = 'BEEF-VDW'
nosym = .true.
nspin = 1
ntyp = 4
nat = 34
/
&ELECTRONS
electron_maxstep = 200
mixing_beta = 0.1
conv_thr = 1e-06
/
&IONS
ion_dynamics = 'bfgs'
upscale = 1.0
/
&CELL
/

K_POINTS {automatic}
9 6 2 0  0  0

ATOMIC_SPECIES
C 12.01 C.pbe-n-rrkjus_psl.1.0.0.UPF
Ga 69.72 Ga.pbe-dnl-rrkjus_psl.1.0.0.UPF
O 15.99 O.pbe-n-rrkjus_psl.1.0.0.UPF
Ru 101.0 Ru.pbe-spn-rrkjus_psl.1.0.0.UPF

CELL_PARAMETERS {angstrom}
6.07363000 0.00000000 0.00000000
0.00000000 8.58941000 0.00000000
0.00000000 0.00000000 26.44210000

ATOMIC_POSITIONS {angstrom}
Ga 0.00000000 0.00000000 -3.220912200000001 0 0 0
Ga 0.00000000 2.14735250 -1.07354926 0 0 0
Ga 0.00000000 0.00068715 1.05054463
Ga 0.00000000 2.14812555 3.30473366
Ga 0.00000000 4.29470500 -3.220912200000001 0 0 0
Ga 0.00000000 6.44205750 -1.07354926 0 0 0
Ga 0.00000000 4.29418964 1.05080905
Ga 0.00000000 6.44214339 3.29944524
Ga 3.03681500 0.00000000 -3.220912200000001 0 0 0
Ga 3.03681500 2.14735250 -1.07354926 0 0 0
Ga 3.03681500 0.00008589 1.05133790
Ga 3.03675426 2.14786786 3.31689702
Ga 3.03681500 4.29470500 -3.220912200000001 0 0 0
Ga 3.03681500 6.44205750 -1.07354926 0 0 0
Ga 3.03681500 4.29479089 1.05160232
Ga 3.03675426 6.44248697 3.30446924
Ru 1.51840750 2.14735250 -3.220912200000001 0 0 0
Ru 1.51840750 0.00000000 -1.07354926 0 0 0
Ru 1.51865045 2.14743839 1.04102548
Ru 1.51956149 0.00188967 3.13497538
Ru 1.51840750 6.44205750 -3.220912200000001 0 0 0
Ru 1.51840750 4.29470500 -1.07354926 0 0 0
Ru 1.51852897 6.44222929 1.03891011
Ru 1.51968296 4.29376016 3.13550422
Ru 4.55522250 2.14735250 -3.220912200000001 0 0 0
Ru 4.55522250 0.00000000 -1.07354926 0 0 0
Ru 4.55497955 2.14743839 1.04102548
Ru 4.55406851 0.00188967 3.13497538
Ru 4.55522250 6.44205750 -3.220912200000001 0 0 0
Ru 4.55522250 4.29470500 -1.07354926 0 0 0
Ru 4.55510103 6.44222929 1.03891011
Ru 4.55394704 4.29376016 3.13550422
C 0.00030368 2.13627216 7.19330888
O 6.07332632 2.14778197 8.32793939
