&CONTROL
calculation = 'relax'
prefix = 'scf'
pseudo_dir = '/vol0403/data/hp230205/u10028/POT_HYBRID_KKJUS_GBRV'
outdir = './data'
tprnfor = .true.
nstep = 50
disk_io = 'non'
/
&SYSTEM
ibrav = 0
ecutwfc = 50.0
ecutrho = 400
occupations = 'smearing'
smearing = 'mp'
degauss = 0.01
assume_isolated = 'esm'
esm_bc = 'bc1'
input_dft = 'BEEF-VDW'
nosym = .true.
nspin = 1
ntyp = 5
nat = 17
/
&ELECTRONS
electron_maxstep = 200
mixing_beta = 0.1
conv_thr = 1e-06
/
&IONS
ion_dynamics = 'bfgs'
upscale = 1.0
/
&CELL
/

K_POINTS {automatic}
11 7 2 0  0  0

ATOMIC_SPECIES
C 12.01 C.pbe-n-rrkjus_psl.1.0.0.UPF
In 114.8 In.pbe-dn-rrkjus_psl.1.0.0.UPF
Pd 106.4 Pd.pbe-n-rrkjus_psl.1.0.0.UPF
Sn 118.7 Sn.pbe-dn-rrkjus_psl.1.0.0.UPF
Y 88.90 Y.pbe-spn-rrkjus_psl.1.0.0.UPF


CELL_PARAMETERS {angstrom}
6.29351000 0.00000000 0.00000000
0.00000000 9.16402000 0.00000000
0.00000000 0.00000000 24.71690000

ATOMIC_POSITIONS {angstrom}
Y 4.91202162 2.29100500 0.79168231
Y 1.39829205 2.29100500 -2.358486599999999 0 0 0
Y 4.82479357 6.87301500 0.93034412
Y 1.39829205 6.87301500 -2.358486599999999 0 0 0
In 6.05058051 0.06992147 2.89682068
In 3.03001039 0.00000000 -0.786244589999999 0 0 0
In 6.05058051 4.51208853 2.89682068
In 3.03001039 4.58201000 -0.786244589999999 0 0 0
Sn 1.80510454 2.29100500 1.10954164
Sn 4.54504705 2.29100500 -2.358486599999999 0 0 0
Sn 1.57727948 6.87301500 1.18418668
Sn 4.54504705 6.87301500 -2.358486599999999 0 0 0
Pd 3.29496716 9.11939122 1.96499355
Pd 6.17676539 0.00000000 -0.786244589999999 0 0 0
Pd 3.29496716 4.62663878 1.96524072
Pd 6.17676539 4.58201000 -0.786244589999999 0 0 0
C 0.14500247 2.29100500 2.49072201
