&CONTROL
calculation = 'relax'
prefix = 'scf'
pseudo_dir = '/vol0004/mdt0/data/hp150275/u10028/POT_KKJUS'
outdir = './data'
tprnfor = .true.
nstep = 50
disk_io = 'non'
/
&SYSTEM
ibrav = 0
ecutwfc = 50.0
ecutrho = 400
occupations = 'smearing'
smearing = 'mp'
degauss = 0.01
assume_isolated = 'esm'
esm_bc = 'bc1'
input_dft = 'BEEF-VDW'
nosym = .true.
nspin = 1
ntyp = 5
nat = 34
/
&ELECTRONS
electron_maxstep = 200
mixing_beta = 0.1
conv_thr = 1e-06
/
&IONS
ion_dynamics = 'bfgs'
upscale = 1.0
/
&CELL
/

K_POINTS {automatic}
9 6 2 0  0  0

ATOMIC_SPECIES
Al 26.98 Al.pbe-nl-rrkjus_psl.1.0.0.UPF
C 12.01 C.pbe-n-rrkjus_psl.1.0.0.UPF
Li 6.941 Li.pbe-sl-rrkjus_psl.1.0.0.UPF
O 15.99 O.pbe-n-rrkjus_psl.1.0.0.UPF
Pt 195.0 Pt.pbe-n-rrkjus_psl.1.0.0.UPF

CELL_PARAMETERS {angstrom}
6.09904000 0.00000000 0.00000000
0.00000000 8.62534000 0.00000000
0.00000000 0.00000000 26.46900000

ATOMIC_POSITIONS {angstrom}
Li 0.00000000 0.00000000 -3.2345118 0 0 0
Li 3.04952000 2.15633500 -1.0780823700000006 0 0 0
Li 3.04952000 6.46900500 -1.0780823700000006 0 0 0
Li 0.00000000 4.31267000 -3.2345118 0 0 0
Li 0.00000000 4.30982364 1.11143331
Li 3.04952000 6.46900500 4.55134455
Li 3.04952000 2.15633500 4.11910578
Li 0.00000000 0.00284636 1.11143331
Al 1.52476000 0.00000000 -1.0780823700000006 0 0 0
Al 4.57428000 4.31267000 -1.0780823700000006 0 0 0
Al 4.57428000 0.00000000 -1.0780823700000006 0 0 0
Al 1.52476000 4.31267000 -1.0780823700000006 0 0 0
Al 4.57428000 6.46900500 -3.2345118 0 0 0
Al 1.52476000 2.15633500 -3.2345118 0 0 0
Al 1.52476000 6.46900500 -3.2345118 0 0 0
Al 4.57428000 2.15633500 -3.2345118 0 0 0
Al 1.60435247 4.41410400 3.23451180
Al 4.49468753 8.52390600 3.23451180
Al 4.49468753 4.41410400 3.23451180
Al 1.60435247 8.52390600 3.23451180
Al 4.53286752 2.15633500 1.24986618
Al 1.60728001 6.46900500 1.13499072
Al 1.56617248 2.15633500 1.24986618
Al 4.49175999 6.46900500 1.13499072
Pt 0.00000000 6.46900500 -1.0780823700000006 0 0 0
Pt 3.04952000 0.00000000 -3.2345118 0 0 0
Pt 0.00000000 2.15633500 -1.0780823700000006 0 0 0
Pt 3.04952000 4.31267000 -3.2345118 0 0 0
Pt 0.00000000 2.15633500 3.35732796
Pt 3.04952000 4.28748401 0.95579559
Pt 0.00000000 6.46900500 3.08125629
Pt 3.04952000 0.02518599 0.95579559
C 0.00000000 2.15633500 5.30041725
O 0.00000000 2.15633500 6.45975945
