&CONTROL
calculation = 'relax'
prefix = 'scf'
pseudo_dir = '/vol0403/data/hp230205/u10028/POT_HYBRID_KKJUS_GBRV'
outdir = './data'
tprnfor = .true.
nstep = 50
disk_io = 'non'
/
&SYSTEM
ibrav = 0
ecutwfc = 50.0
ecutrho = 400
occupations = 'smearing'
smearing = 'mp'
degauss = 0.01
assume_isolated = 'esm'
esm_bc = 'bc1'
input_dft = 'BEEF-VDW'
nosym = .true.
nspin = 1
ntyp = 6
nat = 34
/
&ELECTRONS
electron_maxstep = 200
mixing_beta = 0.1
conv_thr = 1e-06
/
&IONS
ion_dynamics = 'bfgs'
upscale = 1.0
/
&CELL
/

K_POINTS {automatic}
6 6 1 0 0 0

ATOMIC_SPECIES
Au 196.9 Au.pbe-n-rrkjus_psl.1.0.0.UPF
C 12.01 C.pbe-n-rrkjus_psl.1.0.0.UPF
In 114.8 In.pbe-dn-rrkjus_psl.1.0.0.UPF
Li 6.941 Li.pbe-sl-rrkjus_psl.1.0.0.UPF
O 15.99 O.pbe-n-rrkjus_psl.1.0.0.UPF
Y 88.90 Y.pbe-spn-rrkjus_psl.1.0.0.UPF


CELL_PARAMETERS {angstrom}
6.89380000 0.00000000 0.00000000
0.00000000 9.74930000 0.00000000
0.00000000 0.00000000 27.31200000

ATOMIC_POSITIONS {angstrom}
Li 0.00000000 2.43732500 -1.2186614400000018 0 0 0
Li 0.00000000 7.31197500 -1.2186614400000018 0 0 0
Li 3.44690000 4.87465000 -3.6559843200000017 0 0 0
Li 3.44690000 0.00000000 -3.6559843200000017 0 0 0
Li 1.14754195 7.35175214 4.99727664
Li 1.14740407 2.39735287 4.99727664
Li 3.53279675 0.00000000 1.30032432
Li 3.51900915 4.87455251 1.35767952
Y 5.17035000 0.00000000 -1.2186614400000018 0 0 0
Y 5.17035000 4.87465000 -1.2186614400000018 0 0 0
Y 1.72345000 2.43732500 -3.6559843200000017 0 0 0
Y 1.72345000 7.31197500 -3.6559843200000017 0 0 0
Y 5.44100059 4.87465000 3.70323408
Y 5.43024626 0.00000000 3.73163856
Y 1.67939862 7.30661288 1.38034848
Y 1.67932968 2.44258962 1.38062160
In 1.72345000 0.00000000 -1.2186614400000018 0 0 0
In 1.72345000 4.87465000 -1.2186614400000018 0 0 0
In 5.17035000 2.43732500 -3.6559843200000017 0 0 0
In 5.17035000 7.31197500 -3.6559843200000017 0 0 0
In 1.82327222 4.87465000 3.78298512
In 1.87656130 0.00000000 3.67646832
In 5.21281581 7.31792207 1.19653872
In 5.21274687 2.43118294 1.19653872
Au 0.00000000 0.00000000 -3.6559843200000017 0 0 0
Au 0.00000000 4.87465000 -3.6559843200000017 0 0 0
Au 3.44690000 7.31197500 -1.2186614400000018 0 0 0
Au 3.44690000 2.43732500 -1.2186614400000018 0 0 0
Au 0.00847937 4.87455251 1.18561392
Au 0.02274954 0.00000000 1.15010832
Au 3.62158889 2.46520800 3.59917536
Au 3.62186464 7.28399451 3.59890224
C 6.20662602 0.00155989 6.03048960
O 6.48858244 0.00165738 7.16120640
