&CONTROL
calculation = 'relax'
prefix = 'scf'
pseudo_dir = '/vol0004/mdt0/data/hp150275/u10028/POT_HYBRID_KKJUS_GBRV'
outdir = './data'
tprnfor = .true.
nstep = 50
disk_io = 'non'
/
&SYSTEM
ibrav = 0
ecutwfc = 50.0
ecutrho = 400
occupations = 'smearing'
smearing = 'mp'
degauss = 0.01
assume_isolated = 'esm'
esm_bc = 'bc1'
input_dft = 'BEEF-VDW'
nosym = .true.
nspin = 2
ntyp = 4
nat = 33
starting_magnetization(1) = 0.0
starting_magnetization(2) = 0.0
starting_magnetization(3) = 0.001
starting_magnetization(4) = 0.0
/
&ELECTRONS
electron_maxstep = 300
mixing_beta = 0.1
conv_thr = 1e-06
/
&IONS
ion_dynamics = 'bfgs'
upscale = 1.0
/
&CELL
/

K_POINTS {automatic}
9 6 2 0  0  0

ATOMIC_SPECIES
C 12.01 C.pbe-n-rrkjus_psl.1.0.0.UPF
Ge 72.64 Ge.pbe-dn-rrkjus_psl.1.0.0.UPF
Ni 58.69 ni_pbe_v1.4.uspp.F.UPF
Zn 65.40 Zn.pbe-dnl-rrkjus_psl.1.0.0.UPF

CELL_PARAMETERS {angstrom}
5.88011000 0.00000000 0.00000000
0.00000000 8.31574000 0.00000000
0.00000000 0.00000000 26.23680000

ATOMIC_POSITIONS {angstrom}
Zn 0.00000000 0.00000000 -3.118506049999997 0 0 0
Zn 2.94005500 2.07893500 -1.0395020200000005 0 0 0
Zn 2.94005500 6.23680500 -1.0395020200000005 0 0 0
Zn 0.00000000 4.15787000 -3.118506049999997 0 0 0
Zn 0.00000000 4.15770369 0.95213347
Zn 2.94005500 6.14932342 3.33758333
Zn 2.94005500 2.16633343 3.33732096
Zn 0.00000000 0.00016631 1.05471936
Ni 1.47002750 0.00000000 -1.0395020200000005 0 0 0
Ni 4.41008250 4.15787000 -1.0395020200000005 0 0 0
Ni 4.41008250 0.00000000 -1.0395020200000005 0 0 0
Ni 1.47002750 4.15787000 -1.0395020200000005 0 0 0
Ni 4.41008250 6.23680500 -3.118506049999997 0 0 0
Ni 1.47002750 2.07893500 -3.118506049999997 0 0 0
Ni 1.47002750 6.23680500 -3.118506049999997 0 0 0
Ni 4.41008250 2.07893500 -3.118506049999997 0 0 0
Ni 1.44197938 4.15762053 2.94062054
Ni 4.16200066 0.00033263 2.92933872
Ni 4.43813062 4.15762053 2.94062054
Ni 1.71805054 0.00033263 2.92933872
Ni 4.42231313 2.10354959 1.04737306
Ni 1.45791447 6.21227357 1.04737306
Ni 1.45779687 2.10354959 1.04737306
Ni 4.42219553 6.21227357 1.04737306
Ge 0.00000000 6.23680500 -1.0395020200000005 0 0 0
Ge 2.94005500 0.00000000 -3.118506049999997 0 0 0
Ge 0.00000000 2.07893500 -1.0395020200000005 0 0 0
Ge 2.94005500 4.15787000 -3.118506049999997 0 0 0
Ge 0.00000000 2.11178217 3.24680400
Ge 2.94005500 4.15762053 1.02507178
Ge 0.00000000 6.20395783 3.24706637
Ge 2.94005500 0.00024947 0.90149645
C 0.00000000 0.00000000 3.49631597
