&CONTROL
calculation = 'relax'
prefix = 'scf'
pseudo_dir = '/vol0004/mdt0/data/hp150275/u10028/POT_KKJUS'
outdir = './data'
tprnfor = .true.
nstep = 50
disk_io = 'non'
/
&SYSTEM
ibrav = 0
ecutwfc = 50.0
ecutrho = 400
occupations = 'smearing'
smearing = 'mp'
degauss = 0.01
assume_isolated = 'esm'
esm_bc = 'bc1'
input_dft = 'BEEF-VDW'
nosym = .true.
nspin = 1
ntyp = 3
nat = 33
/
&ELECTRONS
electron_maxstep = 200
mixing_beta = 0.1
conv_thr = 1e-06
/
&IONS
ion_dynamics = 'bfgs'
upscale = 1.0
/
&CELL
/

K_POINTS {automatic}
8 6 1 0 0 0

ATOMIC_SPECIES
C 12.01 C.pbe-n-rrkjus_psl.1.0.0.UPF
Pt 195.0 Pt.pbe-n-rrkjus_psl.1.0.0.UPF
Sc 44.95 Sc.pbe-spn-rrkjus_psl.1.0.0.UPF

CELL_PARAMETERS {angstrom}
6.65024000 0.00000000 0.00000000
0.00000000 9.40485000 0.00000000
0.00000000 0.00000000 27.05360000

ATOMIC_POSITIONS {angstrom}
Sc 1.66256000 2.35121250 -3.526707299999998 0 0 0
Sc 1.66256000 0.00000000 -1.1754789199999998 0 0 0
Sc 1.66369054 2.35121250 1.25177007
Sc 1.66329153 0.04241587 3.53292962
Sc 1.66256000 7.05363750 -3.526707299999998 0 0 0
Sc 1.66256000 4.70242500 -1.1754789199999998 0 0 0
Sc 1.66249350 7.05363750 1.14517889
Sc 1.66329153 4.66010317 3.53265909
Sc 4.98768000 2.35121250 -3.526707299999998 0 0 0
Sc 4.98768000 0.00000000 -1.1754789199999998 0 0 0
Sc 4.98841153 2.35121250 1.11947797
Sc 4.98881054 9.35773170 3.52616622
Sc 4.98768000 7.05363750 -3.526707299999998 0 0 0
Sc 4.98768000 4.70242500 -1.1754789199999998 0 0 0
Sc 4.98787951 7.05363750 1.17358517
Sc 4.98881054 4.74944925 3.52616622
Pt 0.00000000 0.00000000 -3.526707299999998 0 0 0
Pt 0.00000000 2.35121250 -1.1754789199999998 0 0 0
Pt 0.00731526 9.39732612 1.15843515
Pt 6.35270826 2.35121250 3.43093755
Pt 0.00000000 4.70242500 -3.526707299999998 0 0 0
Pt 0.00000000 7.05363750 -1.1754789199999998 0 0 0
Pt 0.00731526 4.70994888 1.15843515
Pt 0.03890390 7.05363750 3.28971776
Pt 3.32512000 0.00000000 -3.526707299999998 0 0 0
Pt 3.32512000 2.35121250 -1.1754789199999998 0 0 0
Pt 3.31827025 9.39694993 1.15789408
Pt 3.63069853 2.35121250 3.43283130
Pt 3.32512000 4.70242500 -3.526707299999998 0 0 0
Pt 3.32512000 7.05363750 -1.1754789199999998 0 0 0
Pt 3.31833676 4.71032507 1.15789408
Pt 3.28681462 7.05363750 3.28944722
C 1.66741468 2.35121250 3.66603334
