&CONTROL
calculation = 'relax'
prefix = 'scf'
pseudo_dir = '/vol0403/data/hp230205/u10028/POT_HYBRID_KKJUS_GBRV'
outdir = './data'
tprnfor = .true.
nstep = 50
disk_io = 'non'
/
&SYSTEM
ibrav = 0
ecutwfc = 50.0
ecutrho = 400
occupations = 'smearing'
smearing = 'mp'
degauss = 0.01
assume_isolated = 'esm'
esm_bc = 'bc1'
input_dft = 'BEEF-VDW'
nosym = .true.
nspin = 1
ntyp = 6
nat = 18
/
&ELECTRONS
electron_maxstep = 200
mixing_beta = 0.1
conv_thr = 1e-06
/
&IONS
ion_dynamics = 'bfgs'
upscale = 1.0
/
&CELL
/

K_POINTS {automatic}
8 8 1 0 0 0

ATOMIC_SPECIES
C 12.01 C.pbe-n-rrkjus_psl.1.0.0.UPF
In 114.8 In.pbe-dn-rrkjus_psl.1.0.0.UPF
Li 6.941 Li.pbe-sl-rrkjus_psl.1.0.0.UPF
Mg 24.30 Mg.pbe-spnl-rrkjus_psl.1.0.0.UPF
O 15.99 O.pbe-n-rrkjus_psl.1.0.0.UPF
Pb 207.2 Pb.pbe-dn-rrkjus_psl.1.0.0.UPF


CELL_PARAMETERS {angstrom}
7.11424000 0.00000000 0.00000000
0.00000000 7.11424000 0.00000000
0.00000000 0.00000000 25.33570000

ATOMIC_POSITIONS {angstrom}
Li 5.33568000 1.77856000 -0.8892830699999976 0 0 0
Li 5.33568000 5.33568000 2.59640254
Li 1.77856000 1.77856000 2.59640254
Li 1.77856000 5.33568000 -0.8892830699999976 0 0 0
Mg 1.77856000 1.77856000 -0.8892830699999976 0 0 0
Mg 1.77856000 5.33568000 2.95616948
Mg 5.33568000 1.77856000 2.47580460
Mg 5.33568000 5.33568000 -0.8892830699999976 0 0 0
In 0.00000000 0.00000000 -2.66784921 0 0 0
In 0.05079567 3.60798682 0.92525976
In 3.50632433 7.06337318 0.92525976
In 3.55712000 3.55712000 -2.66784921 0 0 0
Pb 0.00000000 3.55712000 -2.66784921 0 0 0
Pb 0.07128468 7.04288417 1.03192306
Pb 3.48576417 3.62847583 1.03192306
Pb 3.55712000 0.00000000 -2.66784921 0 0 0
C 5.33568000 1.77856000 4.67469001
O 5.33568000 1.77856000 5.82543750
