&CONTROL
calculation = 'relax'
prefix = 'scf'
pseudo_dir = '/vol0004/mdt0/data/hp150275/u10028/POT_KKJUS'
outdir = './data'
tprnfor = .true.
nstep = 50
disk_io = 'non'
/
&SYSTEM
ibrav = 0
ecutwfc = 50.0
ecutrho = 400
occupations = 'smearing'
smearing = 'mp'
degauss = 0.01
assume_isolated = 'esm'
esm_bc = 'bc1'
input_dft = 'BEEF-VDW'
nosym = .true.
nspin = 1
ntyp = 5
nat = 34
/
&ELECTRONS
electron_maxstep = 200
mixing_beta = 0.1
conv_thr = 1e-06
/
&IONS
ion_dynamics = 'bfgs'
upscale = 1.0
/
&CELL
/

K_POINTS {automatic}
8 6 1 0 0 0

ATOMIC_SPECIES
C 12.01 C.pbe-n-rrkjus_psl.1.0.0.UPF
O 15.99 O.pbe-n-rrkjus_psl.1.0.0.UPF
Pd 106.4 Pd.pbe-n-rrkjus_psl.1.0.0.UPF
Sc 44.95 Sc.pbe-spn-rrkjus_psl.1.0.0.UPF
Sn 118.7 Sn.pbe-dn-rrkjus_psl.1.0.0.UPF

CELL_PARAMETERS {angstrom}
6.62889000 0.00000000 0.00000000
0.00000000 9.37466000 0.00000000
0.00000000 0.00000000 27.03100000

ATOMIC_POSITIONS {angstrom}
Sc 0.00000000 0.00000000 -3.515381549999997 0 0 0
Sc 3.31444500 2.34366500 -1.1717938500000002 0 0 0
Sc 3.31444500 7.03099500 -1.1717938500000002 0 0 0
Sc 0.00000000 4.68733000 -3.515381549999997 0 0 0
Sc 0.00006629 4.69661091 1.20260919
Sc 3.31444500 7.03099500 3.48943179
Sc 3.31444500 2.34375875 3.47916001
Sc 0.00000000 9.36528534 1.20260919
Sn 0.00000000 7.03099500 -1.1717938500000002 0 0 0
Sn 3.31444500 0.00000000 -3.515381549999997 0 0 0
Sn 0.00000000 2.34366500 -1.1717938500000002 0 0 0
Sn 3.31444500 4.68733000 -3.515381549999997 0 0 0
Sn 0.00000000 2.34366500 3.62485710
Sn 3.31444500 4.67842407 1.17584850
Sn 0.00000000 7.03099500 3.64621159
Sn 3.31444500 0.00890593 1.17584850
Pd 1.65722250 0.00000000 -1.1717938500000002 0 0 0
Pd 4.97166750 4.68733000 -1.1717938500000002 0 0 0
Pd 4.97166750 0.00000000 -1.1717938500000002 0 0 0
Pd 1.65722250 4.68733000 -1.1717938500000002 0 0 0
Pd 4.97166750 7.03099500 -3.515381549999997 0 0 0
Pd 1.65722250 2.34366500 -3.515381549999997 0 0 0
Pd 1.65722250 7.03099500 -3.515381549999997 0 0 0
Pd 4.97166750 2.34366500 -3.515381549999997 0 0 0
Pd 1.62619929 4.70439188 3.40590600
Pd 5.00269071 9.35759812 3.40590600
Pd 5.00269071 4.70439188 3.40590600
Pd 1.62619929 9.35759812 3.40590600
Pd 4.99042726 2.34366500 1.18801245
Pd 1.67744061 7.03099500 1.21774655
Pd 1.63846274 2.34366500 1.18801245
Pd 4.95144939 7.03099500 1.21774655
C 3.31444500 2.34366500 5.81463841
O 3.31444500 2.34366500 6.95940126
