&CONTROL
calculation = 'relax'
prefix = 'scf'
pseudo_dir = '/vol0004/mdt0/data/hp150275/u10028/POT_KKJUS'
outdir = './data'
tprnfor = .true.
nstep = 50
disk_io = 'non'
/
&SYSTEM
ibrav = 0
ecutwfc = 50.0
ecutrho = 400
occupations = 'smearing'
smearing = 'mp'
degauss = 0.01
assume_isolated = 'esm'
esm_bc = 'bc1'
input_dft = 'BEEF-VDW'
nosym = .true.
nspin = 1
ntyp = 3
nat = 32
/
&ELECTRONS
electron_maxstep = 200
mixing_beta = 0.1
conv_thr = 1e-06
/
&IONS
ion_dynamics = 'bfgs'
upscale = 1.0
/
&CELL
/

K_POINTS {automatic}
8 6 1 0 0 0

ATOMIC_SPECIES
Ag 107.8 Ag.pbe-n-rrkjus_psl.1.0.0.UPF
Li 6.941 Li.pbe-sl-rrkjus_psl.1.0.0.UPF
Sn 118.7 Sn.pbe-dn-rrkjus_psl.1.0.0.UPF

CELL_PARAMETERS {angstrom}
6.59455000 0.00000000 0.00000000
0.00000000 9.32610000 0.00000000
0.00000000 0.00000000 26.99460000

ATOMIC_POSITIONS {angstrom}
Li 1.64863750 0.00000000 -1.1658967699999998 0 0 0
Li 4.94591250 4.66305000 -1.1658967699999998 0 0 0
Li 4.94591250 0.00000000 -1.1658967699999998 0 0 0
Li 1.64863750 4.66305000 -1.1658967699999998 0 0 0
Li 4.94591250 6.99457500 -3.4974203799999977 0 0 0
Li 1.64863750 2.33152500 -3.4974203799999977 0 0 0
Li 1.64863750 6.99457500 -3.4974203799999977 0 0 0
Li 4.94591250 2.33152500 -3.4974203799999977 0 0 0
Li 1.61104856 4.66305000 3.60188948
Li 4.98350143 0.00000000 3.60188948
Li 4.98350143 4.66305000 3.60188948
Li 1.61104856 0.00000000 3.60188948
Li 4.99609703 2.33152500 1.12000595
Li 1.59845297 6.99457500 1.12000595
Li 1.59845297 2.33152500 1.12000595
Li 4.99609703 6.99457500 1.12000595
Ag 0.00000000 0.00000000 -3.4974203799999977 0 0 0
Ag 3.29727500 2.33152500 -1.1658967699999998 0 0 0
Ag 3.29727500 6.99457500 -1.1658967699999998 0 0 0
Ag 0.00000000 4.66305000 -3.4974203799999977 0 0 0
Ag 0.00000000 4.66305000 1.22177560
Ag 3.29727500 6.99457500 3.26769633
Ag 3.29727500 2.33161826 3.26769633
Ag 0.00000000 0.00000000 1.22177560
Sn 0.00000000 6.99457500 -1.1658967699999998 0 0 0
Sn 3.29727500 0.00000000 -3.4974203799999977 0 0 0
Sn 0.00000000 2.33152500 -1.1658967699999998 0 0 0
Sn 3.29727500 4.66305000 -3.4974203799999977 0 0 0
Sn 0.00000000 2.33152500 3.50146957
Sn 3.29727500 4.66305000 1.22123570
Sn 0.00000000 6.99457500 3.50146957
Sn 3.29727500 0.00000000 1.22123570
