&CONTROL
calculation = 'relax'
prefix = 'scf'
pseudo_dir = '/vol0004/mdt0/data/hp150275/u10028/POT_HYBRID_KKJUS_GBRV'
outdir = './data'
tprnfor = .true.
nstep = 50
disk_io = 'non'
/
&SYSTEM
ibrav = 0
ecutwfc = 50.0
ecutrho = 400
occupations = 'smearing'
smearing = 'mp'
degauss = 0.01
assume_isolated = 'esm'
esm_bc = 'bc1'
input_dft = 'BEEF-VDW'
nosym = .true.
nspin = 2
ntyp = 5
nat = 34
starting_magnetization(1) = 0.0
starting_magnetization(2) = 0.0
starting_magnetization(3) = 0.001
starting_magnetization(4) = 0.0
starting_magnetization(5) = 0.0
/
&ELECTRONS
electron_maxstep = 300
mixing_beta = 0.1
conv_thr = 1e-06
/
&IONS
ion_dynamics = 'bfgs'
upscale = 1.0
/
&CELL
/

K_POINTS {automatic}
9 6 2 0  0  0

ATOMIC_SPECIES
C 12.01 C.pbe-n-rrkjus_psl.1.0.0.UPF
Li 6.941 Li.pbe-sl-rrkjus_psl.1.0.0.UPF
Ni 58.69 ni_pbe_v1.4.uspp.F.UPF
O 15.99 O.pbe-n-rrkjus_psl.1.0.0.UPF
Sn 118.7 Sn.pbe-dn-rrkjus_psl.1.0.0.UPF

CELL_PARAMETERS {angstrom}
6.04935000 0.00000000 0.00000000
0.00000000 8.55507000 0.00000000
0.00000000 0.00000000 26.41630000

ATOMIC_POSITIONS {angstrom}
Li 0.00000000 0.00000000 -3.2082596300000006 0 0 0
Li 3.02467500 2.13876750 -1.0693318199999986 0 0 0
Li 3.02467500 6.41630250 -1.0693318199999986 0 0 0
Li 0.00000000 4.27753500 -3.2082596300000006 0 0 0
Li 6.04928951 4.26701226 0.93196706
Li 3.02461451 6.41630250 3.39475871
Li 3.02461451 2.13876750 3.39555120
Li 6.04928951 0.01069384 0.93196706
Ni 1.51233750 0.00000000 -1.0693318199999986 0 0 0
Ni 4.53701250 4.27753500 -1.0693318199999986 0 0 0
Ni 4.53701250 0.00000000 -1.0693318199999986 0 0 0
Ni 1.51233750 4.27753500 -1.0693318199999986 0 0 0
Ni 4.53701250 6.41630250 -3.2082596300000006 0 0 0
Ni 1.51233750 2.13876750 -3.2082596300000006 0 0 0
Ni 1.51233750 6.41630250 -3.2082596300000006 0 0 0
Ni 4.53701250 2.13876750 -3.2082596300000006 0 0 0
Ni 1.30817194 4.27787720 2.95704062
Ni 4.74105708 8.55455670 2.95677646
Ni 4.74105708 4.27787720 2.95704062
Ni 1.30817194 8.55455670 2.95677646
Ni 4.58449990 2.13851085 1.15914724
Ni 1.44143912 6.41673025 1.16495883
Ni 1.46478961 2.13851085 1.15914724
Ni 4.60772940 6.41673025 1.16469467
Sn 0.00000000 6.41630250 -1.0693318199999986 0 0 0
Sn 3.02467500 0.00000000 -3.2082596300000006 0 0 0
Sn 0.00000000 2.13876750 -1.0693318199999986 0 0 0
Sn 3.02467500 4.27753500 -3.2082596300000006 0 0 0
Sn 6.04928951 2.13868195 3.44996878
Sn 3.02461451 4.28378020 1.06457689
Sn 6.04928951 6.41613140 3.46634689
Sn 3.02461451 8.54899590 1.06404856
C 0.00272221 2.13833975 7.58834634
O 6.04886605 2.13893860 8.72319059
