&CONTROL
calculation = 'relax'
prefix = 'scf'
pseudo_dir = '/vol0004/mdt0/data/hp150275/u10028/POT_KKJUS'
outdir = './data'
tprnfor = .true.
nstep = 50
disk_io = 'non'
/
&SYSTEM
ibrav = 0
ecutwfc = 50.0
ecutrho = 400
occupations = 'smearing'
smearing = 'mp'
degauss = 0.01
assume_isolated = 'esm'
esm_bc = 'bc1'
input_dft = 'BEEF-VDW'
nosym = .true.
nspin = 1
ntyp = 4
nat = 18
/
&ELECTRONS
electron_maxstep = 200
mixing_beta = 0.1
conv_thr = 1e-06
/
&IONS
ion_dynamics = 'bfgs'
upscale = 1.0
/
&CELL
/

K_POINTS {automatic}
8 8 1 0 0 0

ATOMIC_SPECIES
C 12.01 C.pbe-n-rrkjus_psl.1.0.0.UPF
Ni 58.69 Ni.pbe-spn-rrkjus_psl.1.0.0.UPF
O 15.99 O.pbe-n-rrkjus_psl.1.0.0.UPF
Sn 118.7 Sn.pbe-dn-rrkjus_psl.1.0.0.UPF

CELL_PARAMETERS {angstrom}
6.01786000 0.00000000 0.00000000
0.00000000 6.01786000 0.00000000
0.00000000 0.00000000 24.51340000

ATOMIC_POSITIONS {angstrom}
Ni 1.50446500 1.50446500 -0.7523162499999998 0 0 0
Ni 4.50027607 4.50111857 2.12163477
Ni 4.51339500 1.50446500 -0.7523162499999998 0 0 0
Ni 1.51836626 4.49919285 2.11599669
Ni 4.51339500 4.51339500 -0.7523162499999998 0 0 0
Ni 1.51565822 1.51668126 2.21723703
Ni 1.50446500 4.51339500 -0.7523162499999998 0 0 0
Ni 4.50027607 1.51601929 2.12506665
Ni 6.01292535 6.01461036 0.75476759
Ni 3.00893000 0.00000000 -2.2567036000000016 0 0 0
Ni 0.00000000 3.00893000 -2.2567036000000016 0 0 0
Ni 3.01416554 3.01073536 0.73638254
Sn 0.00000000 0.00000000 -2.2567036000000016 0 0 0
Sn 3.00893000 3.00893000 -2.2567036000000016 0 0 0
Sn 3.01109643 0.00132393 0.72780285
Sn 6.01503161 3.00820786 0.72731258
C 1.50235875 1.50344196 3.98734964
O 1.49880821 1.49910910 5.14045998
