&CONTROL
calculation = 'relax'
prefix = 'scf'
pseudo_dir = '/vol0403/data/hp230205/u10028/POT_HYBRID_KKJUS_GBRV'
outdir = './data'
tprnfor = .true.
nstep = 50
disk_io = 'non'
/
&SYSTEM
ibrav = 0
ecutwfc = 50.0
ecutrho = 400
occupations = 'smearing'
smearing = 'mp'
degauss = 0.01
assume_isolated = 'esm'
esm_bc = 'bc1'
input_dft = 'BEEF-VDW'
nosym = .true.
nspin = 1
ntyp = 5
nat = 17
/
&ELECTRONS
electron_maxstep = 200
mixing_beta = 0.1
conv_thr = 1e-06
/
&IONS
ion_dynamics = 'bfgs'
upscale = 1.0
/
&CELL
/

K_POINTS {automatic}
6 6 1 0 0 0

ATOMIC_SPECIES
Ag 107.8 Ag.pbe-n-rrkjus_psl.1.0.0.UPF
Al 26.98 Al.pbe-nl-rrkjus_psl.1.0.0.UPF
C 12.01 C.pbe-n-rrkjus_psl.1.0.0.UPF
Li 6.941 Li.pbe-sl-rrkjus_psl.1.0.0.UPF
Sn 118.7 Sn.pbe-dn-rrkjus_psl.1.0.0.UPF


CELL_PARAMETERS {angstrom}
5.95223000 0.00000000 0.00000000
0.00000000 8.56020000 0.00000000
0.00000000 0.00000000 24.45610000

ATOMIC_POSITIONS {angstrom}
Li 1.43811829 2.14116283 0.73343844
Li 4.19602454 2.14005000 -2.2279507099999982 0 0 0
Li 1.44091584 6.41997880 0.89704975
Li 4.19602454 6.42015000 -2.2279507099999982 0 0 0
Al 3.02212574 0.22778692 2.57596101
Al 5.77348453 0.00000000 -0.7427317599999981 0 0 0
Al 3.01795918 4.04897460 2.57669470
Al 5.77348453 4.28010000 -0.7427317599999981 0 0 0
Ag 0.37725234 0.20715684 2.01469352
Ag 2.79736953 0.00000000 -0.7427317599999981 0 0 0
Ag 0.37362148 4.07534002 2.01518264
Ag 2.79736953 4.28010000 -0.7427317599999981 0 0 0
Sn 4.39221004 2.13962199 0.70555848
Sn 1.21990954 2.14005000 -2.2279507099999982 0 0 0
Sn 4.41453090 6.42126283 1.20593029
Sn 1.21990954 6.42015000 -2.2279507099999982 0 0 0
C 2.83695186 2.13808115 2.37346450
