&CONTROL
calculation = 'relax'
prefix = 'scf'
pseudo_dir = '/vol0004/mdt0/data/hp150275/u10028/POT_HYBRID_KKJUS_GBRV'
outdir = './data'
tprnfor = .true.
nstep = 50
disk_io = 'non'
/
&SYSTEM
ibrav = 0
ecutwfc = 50.0
ecutrho = 400
occupations = 'smearing'
smearing = 'mp'
degauss = 0.01
assume_isolated = 'esm'
esm_bc = 'bc1'
input_dft = 'BEEF-VDW'
nosym = .true.
nspin = 2
ntyp = 5
nat = 34
starting_magnetization(1) = 0.0
starting_magnetization(2) = 0.1
starting_magnetization(3) = 0.1
starting_magnetization(4) = 0.0
starting_magnetization(5) = 0.0
/
&ELECTRONS
electron_maxstep = 200
mixing_beta = 0.1
conv_thr = 1e-06
/
&IONS
ion_dynamics = 'bfgs'
upscale = 1.0
/
&CELL
/

K_POINTS {automatic}
9 6 2 0  0  0

ATOMIC_SPECIES
C 12.01 C.pbe-n-rrkjus_psl.1.0.0.UPF
Co 58.93 co_pbe_v1.2.uspp.F.UPF
Fe 55.84 fe_pbe_v1.5.uspp.F.UPF
Ga 69.72 Ga.pbe-dnl-rrkjus_psl.1.0.0.UPF
O 15.99 O.pbe-n-rrkjus_psl.1.0.0.UPF

CELL_PARAMETERS {angstrom}
5.79866000 0.00000000 0.00000000
0.00000000 8.20054000 0.00000000
0.00000000 0.00000000 26.15040000

ATOMIC_POSITIONS {angstrom}
Ga 0.00000000 0.00000000 23.07511296
Ga 2.89933000 2.05013500 25.12530432
Ga 2.89933000 6.15040500 25.12530432
Ga 0.00000000 4.10027000 23.07511296
Ga 0.00000000 4.11363688 1.04000141
Ga 2.89933000 6.15073302 3.60509414
Ga 2.89933000 2.04988898 3.36241843
Ga 0.00000000 8.18700911 1.04026291
Fe 1.44966500 0.00000000 25.12530432
Fe 4.34899500 4.10027000 25.12530432
Fe 4.34899500 0.00000000 25.12530432
Fe 1.44966500 4.10027000 25.12530432
Fe 4.34899500 6.15040500 23.07511296
Fe 1.44966500 2.05013500 23.07511296
Fe 1.44966500 6.15040500 23.07511296
Fe 4.34899500 2.05013500 23.07511296
Fe 1.53977618 4.13143205 3.04312205
Fe 4.25917376 8.16945995 3.04338355
Fe 4.25888382 4.13143205 3.04312205
Fe 1.53948624 8.16945995 3.04338355
Fe 4.32446667 2.04997099 1.05804518
Fe 1.55531659 6.15056901 1.13623488
Fe 1.47419333 2.04997099 1.05804518
Fe 4.24334341 6.15056901 1.13623488
Co 0.00000000 6.15040500 25.12530432
Co 2.89933000 0.00000000 23.07511296
Co 0.00000000 2.05013500 25.12530432
Co 2.89933000 4.10027000 23.07511296
Co 0.00000000 2.04972497 3.03370790
Co 2.89933000 4.05205082 0.94873651
Co 0.00000000 6.15089703 2.94008947
Co 2.89933000 0.04805516 0.94873651
C 0.00000000 2.05005299 4.81245811
O 0.00000000 2.05013500 5.97353587
