&CONTROL
calculation = 'relax'
prefix = 'scf'
pseudo_dir = '/vol0004/mdt0/data/hp150275/u10028/POT_KKJUS'
outdir = './data'
tprnfor = .true.
nstep = 50
disk_io = 'non'
/
&SYSTEM
ibrav = 0
ecutwfc = 50.0
ecutrho = 400
occupations = 'smearing'
smearing = 'mp'
degauss = 0.01
assume_isolated = 'esm'
esm_bc = 'bc1'
input_dft = 'BEEF-VDW'
nosym = .true.
nspin = 1
ntyp = 3
nat = 17
/
&ELECTRONS
electron_maxstep = 200
mixing_beta = 0.1
conv_thr = 1e-06
/
&IONS
ion_dynamics = 'bfgs'
upscale = 1.0
/
&CELL
/

K_POINTS {automatic}
8 11 2 0  0  0

ATOMIC_SPECIES
Al 26.98 Al.pbe-nl-rrkjus_psl.1.0.0.UPF
C 12.01 C.pbe-n-rrkjus_psl.1.0.0.UPF
Pt 195.0 Pt.pbe-n-rrkjus_psl.1.0.0.UPF

CELL_PARAMETERS {angstrom}
7.89001000 0.00000000 0.00000000
0.00000000 5.57908000 0.00000000
0.00000000 0.00000000 24.18430000

ATOMIC_POSITIONS {angstrom}
Al 7.76337534 0.13718958 1.85155001
Al 0.00000000 2.78954000 -0.6974752100000003 0 0 0
Al 4.07156076 0.13713379 1.85155001
Al 3.94500500 2.78954000 -0.6974752100000003 0 0 0
Pt 7.88898430 2.76264883 2.19545075
Pt 1.97250250 4.45121319 1.14440108
Pt 1.97250250 1.55611699 0.66797037
Pt 0.00000000 0.00000000 -0.6974752100000003 0 0 0
Pt 1.97250250 1.39477000 -2.09218379 0 0 0
Pt 1.97250250 4.18431000 -2.09218379 0 0 0
Pt 3.94603070 2.76276042 2.19545075
Pt 5.91750750 4.27580691 0.94947562
Pt 5.91742860 1.49619767 0.77123733
Pt 3.94500500 0.00000000 -0.6974752100000003 0 0 0
Pt 5.91750750 1.39477000 -2.09218379 0 0 0
Pt 5.91750750 4.18431000 -2.09218379 0 0 0
C 1.97250250 2.78725258 2.33451048
