&CONTROL
calculation = 'relax'
prefix = 'scf'
pseudo_dir = '/vol0004/mdt0/data/hp150275/u10028/POT_KKJUS'
outdir = './data'
tprnfor = .true.
nstep = 50
disk_io = 'non'
/
&SYSTEM
ibrav = 0
ecutwfc = 50.0
ecutrho = 400
occupations = 'smearing'
smearing = 'mp'
degauss = 0.01
assume_isolated = 'esm'
esm_bc = 'bc1'
input_dft = 'BEEF-VDW'
nosym = .true.
nspin = 1
ntyp = 4
nat = 34
/
&ELECTRONS
electron_maxstep = 200
mixing_beta = 0.1
conv_thr = 1e-06
/
&IONS
ion_dynamics = 'bfgs'
upscale = 1.0
/
&CELL
/

K_POINTS {automatic}
9 6 2 0  0  0

ATOMIC_SPECIES
Al 26.98 Al.pbe-nl-rrkjus_psl.1.0.0.UPF
C 12.01 C.pbe-n-rrkjus_psl.1.0.0.UPF
O 15.99 O.pbe-n-rrkjus_psl.1.0.0.UPF
Rh 102.9 Rh.pbe-spn-rrkjus_psl.1.0.0.UPF

CELL_PARAMETERS {angstrom}
6.00621000 0.00000000 0.00000000
0.00000000 8.49407000 0.00000000
0.00000000 0.00000000 26.37050000

ATOMIC_POSITIONS {angstrom}
Al 0.00000000 0.00000000 -3.1852926900000007 0 0 0
Al 0.00000000 2.12351750 -1.061676330000001 0 0 0
Al 5.99089416 0.00000000 1.08330014
Al 6.00056416 2.16386433 3.23935222
Al 0.00000000 4.24703500 -3.1852926900000007 0 0 0
Al 0.00000000 6.37055250 -1.061676330000001 0 0 0
Al 0.00888919 4.24703500 1.07618010
Al 6.00056416 6.33020567 3.23935222
Al 3.00310500 0.00000000 -3.1852926900000007 0 0 0
Al 3.00310500 2.12351750 -1.061676330000001 0 0 0
Al 3.01842084 0.00000000 1.08356385
Al 3.00893102 2.16343963 3.23935222
Al 3.00310500 4.24703500 -3.1852926900000007 0 0 0
Al 3.00310500 6.37055250 -1.061676330000001 0 0 0
Al 2.99451612 4.24703500 1.07618010
Al 3.00893102 6.33063037 3.23935222
Rh 1.50155250 2.12351750 -3.1852926900000007 0 0 0
Rh 1.50155250 0.00000000 -1.061676330000001 0 0 0
Rh 1.50161256 2.07297778 1.04031622
Rh 1.50167262 4.24703500 3.08297516
Rh 1.50155250 6.37055250 -3.1852926900000007 0 0 0
Rh 1.50155250 4.24703500 -1.061676330000001 0 0 0
Rh 1.50161256 6.42109222 1.04031622
Rh 1.50053144 0.00000000 3.30633329
Rh 4.50465750 2.12351750 -3.1852926900000007 0 0 0
Rh 4.50465750 0.00000000 -1.061676330000001 0 0 0
Rh 4.50483769 2.12487655 1.02132946
Rh 4.50483769 4.24703500 3.10723602
Rh 4.50465750 6.37055250 -3.1852926900000007 0 0 0
Rh 4.50465750 4.24703500 -1.061676330000001 0 0 0
Rh 4.50483769 6.36919345 1.02132946
Rh 4.50459744 0.00000000 3.11066418
C 1.49704784 0.00000000 5.18971440
O 1.49680759 0.00000000 6.34500601
