&CONTROL
calculation = 'relax'
prefix = 'scf'
pseudo_dir = '/vol0004/mdt0/data/hp150275/u10028/POT_HYBRID_KKJUS_GBRV'
outdir = './data'
tprnfor = .true.
nstep = 50
disk_io = 'non'
/
&SYSTEM
ibrav = 0
ecutwfc = 50.0
ecutrho = 400
occupations = 'smearing'
smearing = 'mp'
degauss = 0.01
assume_isolated = 'esm'
esm_bc = 'bc1'
input_dft = 'BEEF-VDW'
nosym = .true.
nspin = 2
ntyp = 4
nat = 33
starting_magnetization(1) = 0.0
starting_magnetization(2) = 0.0
starting_magnetization(3) = 0.001
starting_magnetization(4) = 0.0
/
&ELECTRONS
electron_maxstep = 300
mixing_beta = 0.1
conv_thr = 1e-06
/
&IONS
ion_dynamics = 'bfgs'
upscale = 1.0
/
&CELL
/

K_POINTS {automatic}
9 6 2 0  0  0

ATOMIC_SPECIES
C 12.01 C.pbe-n-rrkjus_psl.1.0.0.UPF
Ge 72.64 Ge.pbe-dn-rrkjus_psl.1.0.0.UPF
Ni 58.69 ni_pbe_v1.4.uspp.F.UPF
Zn 65.40 Zn.pbe-dnl-rrkjus_psl.1.0.0.UPF

CELL_PARAMETERS {angstrom}
5.88011000 0.00000000 0.00000000
0.00000000 8.31574000 0.00000000
0.00000000 0.00000000 26.23680000

ATOMIC_POSITIONS {angstrom}
Zn 0.00000000 0.00000000 -3.118506049999997 0 0 0
Zn 2.94005500 2.07893500 -1.0395020200000005 0 0 0
Zn 2.94005500 6.23680500 -1.0395020200000005 0 0 0
Zn 0.00000000 4.15787000 -3.118506049999997 0 0 0
Zn 0.00729134 4.16543732 1.00067155
Zn 2.84503242 6.23680500 3.30898522
Zn 3.12433765 2.07901816 4.00426042
Zn 0.00729134 8.30817268 1.00067155
Ni 1.47002750 0.00000000 -1.0395020200000005 0 0 0
Ni 4.41008250 4.15787000 -1.0395020200000005 0 0 0
Ni 4.41008250 0.00000000 -1.0395020200000005 0 0 0
Ni 1.47002750 4.15787000 -1.0395020200000005 0 0 0
Ni 4.41008250 6.23680500 -3.118506049999997 0 0 0
Ni 1.47002750 2.07893500 -3.118506049999997 0 0 0
Ni 1.47002750 6.23680500 -3.118506049999997 0 0 0
Ni 4.41008250 2.07893500 -3.118506049999997 0 0 0
Ni 1.53141585 4.03055602 2.92881398
Ni 4.40349678 8.18426815 2.94245712
Ni 4.40355558 4.28925869 2.94245712
Ni 1.53141585 0.12731398 2.92881398
Ni 4.42448877 2.07893500 0.96735082
Ni 1.48549219 6.23672184 1.06285277
Ni 1.50789541 2.07893500 1.09669824
Ni 4.40179154 6.23672184 1.04920963
Ge 0.00000000 6.23680500 -1.0395020200000005 0 0 0
Ge 2.94005500 0.00000000 -3.118506049999997 0 0 0
Ge 0.00000000 2.07893500 -1.0395020200000005 0 0 0
Ge 2.94005500 4.15787000 -3.118506049999997 0 0 0
Ge 5.38500474 2.07885184 3.25624925
Ge 2.96833833 4.15803631 1.00460707
Ge 0.05903630 6.23680500 3.22555219
Ge 2.96833833 8.31549053 1.00460707
C 1.40522869 2.07893500 3.09751661
