&CONTROL
calculation = 'relax'
prefix = 'scf'
pseudo_dir = '/vol0403/data/hp230205/u10028/POT_HYBRID_KKJUS_GBRV'
outdir = './data'
tprnfor = .true.
nstep = 50
disk_io = 'non'
/
&SYSTEM
ibrav = 0
ecutwfc = 50.0
ecutrho = 400
occupations = 'smearing'
smearing = 'mp'
degauss = 0.01
assume_isolated = 'esm'
esm_bc = 'bc1'
input_dft = 'BEEF-VDW'
nosym = .true.
nspin = 1
ntyp = 5
nat = 17
/
&ELECTRONS
electron_maxstep = 200
mixing_beta = 0.1
conv_thr = 1e-06
/
&IONS
ion_dynamics = 'bfgs'
upscale = 1.0
/
&CELL
/

K_POINTS {automatic}
6 6 1 0 0 0

ATOMIC_SPECIES
Al 26.98 Al.pbe-nl-rrkjus_psl.1.0.0.UPF
C 12.01 C.pbe-n-rrkjus_psl.1.0.0.UPF
In 114.8 In.pbe-dn-rrkjus_psl.1.0.0.UPF
Li 6.941 Li.pbe-sl-rrkjus_psl.1.0.0.UPF
Sc 44.95 Sc.pbe-spn-rrkjus_psl.1.0.0.UPF


CELL_PARAMETERS {angstrom}
6.04255000 0.00000000 0.00000000
0.00000000 8.49254000 0.00000000
0.00000000 0.00000000 24.52830000

ATOMIC_POSITIONS {angstrom}
Li 4.62696181 2.12305007 0.89920748
Li 1.33050908 2.12313500 -2.264207370000001 0 0 0
Li 4.64442478 6.36948993 1.03632068
Li 1.33050908 6.36940500 -2.264207370000001 0 0 0
Sc 1.61541532 2.12313500 0.77116975
Sc 4.35178408 2.12313500 -2.264207370000001 0 0 0
Sc 1.46936688 6.36932007 0.84818861
Sc 4.35178408 6.36940500 -2.264207370000001 0 0 0
Al 0.08072847 0.20229230 2.36133944
Al 2.90120953 0.00000000 -0.7547357900000016 0 0 0
Al 0.08084932 4.04397770 2.36133944
Al 2.90120953 4.24627000 -0.7547357900000016 0 0 0
In 3.18055662 8.35028995 2.35864133
In 5.92248453 0.00000000 -0.7547357900000016 0 0 0
In 3.18079832 4.38852005 2.35839605
In 5.92248453 4.24627000 -0.7547357900000016 0 0 0
C 0.16822459 2.12313500 2.28799982
