&CONTROL
calculation = 'relax'
prefix = 'scf'
pseudo_dir = '/vol0004/mdt0/data/hp150275/u10028/POT_HYBRID_KKJUS_GBRV'
outdir = './data'
tprnfor = .true.
nstep = 50
disk_io = 'non'
/
&SYSTEM
ibrav = 0
ecutwfc = 50.0
ecutrho = 400
occupations = 'smearing'
smearing = 'mp'
degauss = 0.01
assume_isolated = 'esm'
esm_bc = 'bc1'
input_dft = 'BEEF-VDW'
nosym = .true.
nspin = 2
ntyp = 4
nat = 33
starting_magnetization(1) = 0.0
starting_magnetization(2) = 0.0
starting_magnetization(3) = 0.0
starting_magnetization(4) = 0.001
/
&ELECTRONS
electron_maxstep = 300
mixing_beta = 0.1
conv_thr = 1e-06
/
&IONS
ion_dynamics = 'bfgs'
upscale = 1.0
/
&CELL
/

K_POINTS {automatic}
9 6 2 0  0  0

ATOMIC_SPECIES
C 12.01 C.pbe-n-rrkjus_psl.1.0.0.UPF
In 114.8 In.pbe-dn-rrkjus_psl.1.0.0.UPF
Mg 24.30 Mg.pbe-spnl-rrkjus_psl.1.0.0.UPF
Ni 58.69 ni_pbe_v1.4.uspp.F.UPF

CELL_PARAMETERS {angstrom}
6.23499000 0.00000000 0.00000000
0.00000000 8.81761000 0.00000000
0.00000000 0.00000000 26.61320000

ATOMIC_POSITIONS {angstrom}
Mg 0.00000000 0.00000000 -3.306690100000001 0 0 0
Mg 3.11749500 2.20440250 -1.1023187399999976 0 0 0
Mg 3.11749500 6.61320750 -1.1023187399999976 0 0 0
Mg 0.00000000 4.40880500 -3.306690100000001 0 0 0
Mg 6.22345527 4.44848425 1.01822103
Mg 3.15696249 6.62511127 3.41287677
Mg 3.30772454 2.20299168 3.41793328
Mg 6.22326822 8.78128145 1.01822103
In 0.00000000 6.61320750 -1.1023187399999976 0 0 0
In 3.11749500 0.00000000 -3.306690100000001 0 0 0
In 0.00000000 2.20440250 -1.1023187399999976 0 0 0
In 3.11749500 4.40880500 -3.306690100000001 0 0 0
In 5.79080931 2.20607785 4.57081710
In 3.12454054 4.41153846 1.15048864
In 0.10649363 6.61576461 3.46450638
In 3.12566284 0.00176352 1.14543213
Ni 1.55874750 0.00000000 -1.1023187399999976 0 0 0
Ni 4.67624250 4.40880500 -1.1023187399999976 0 0 0
Ni 4.67624250 0.00000000 -1.1023187399999976 0 0 0
Ni 1.55874750 4.40880500 -1.1023187399999976 0 0 0
Ni 4.67624250 6.61320750 -3.306690100000001 0 0 0
Ni 1.55874750 2.20440250 -3.306690100000001 0 0 0
Ni 1.55874750 6.61320750 -3.306690100000001 0 0 0
Ni 4.67624250 2.20440250 -3.306690100000001 0 0 0
Ni 1.24631215 4.02012475 3.17601929
Ni 4.84664478 8.81020321 3.18107580
Ni 4.85157042 4.42344223 3.18134193
Ni 1.25273419 0.37792276 3.17655155
Ni 4.74513914 2.20810590 1.12839968
Ni 1.58100641 6.61532373 1.10950431
Ni 1.48492522 2.20731231 1.13877883
Ni 4.67449670 6.61497102 1.18481966
C 1.21189501 2.19875923 2.96231529
