&CONTROL
calculation = 'relax'
prefix = 'scf'
pseudo_dir = '/vol0403/data/hp230205/u10028/POT_HYBRID_KKJUS_GBRV'
outdir = './data'
tprnfor = .true.
nstep = 50
disk_io = 'non'
/
&SYSTEM
ibrav = 0
ecutwfc = 50.0
ecutrho = 400
occupations = 'smearing'
smearing = 'mp'
degauss = 0.01
assume_isolated = 'esm'
esm_bc = 'bc1'
input_dft = 'BEEF-VDW'
nosym = .true.
nspin = 2
ntyp = 6
nat = 18
starting_magnetization(1) = 0.0
starting_magnetization(2) = 0.0
starting_magnetization(3) = 0.0
starting_magnetization(4) = 0.1
starting_magnetization(5) = 0.0
starting_magnetization(6) = 0.0
/
&ELECTRONS
electron_maxstep = 200
mixing_beta = 0.1
conv_thr = 1e-06
/
&IONS
ion_dynamics = 'bfgs'
upscale = 1.0
/
&CELL
/

K_POINTS {automatic}
6 6 1 0 0 0

ATOMIC_SPECIES
Al 26.98 Al.pbe-nl-rrkjus_psl.1.0.0.UPF
C 12.01 C.pbe-n-rrkjus_psl.1.0.0.UPF
Li 6.941 Li.pbe-sl-rrkjus_psl.1.0.0.UPF
Mn 54.93 mn_pbe_v1.5.uspp.F.UPF
O 15.99 O.pbe-n-rrkjus_psl.1.0.0.UPF
Pd 106.4 Pd.pbe-n-rrkjus_psl.1.0.0.UPF


CELL_PARAMETERS {angstrom}
6.10222000 0.00000000 0.00000000
0.00000000 6.10222000 0.00000000
0.00000000 0.00000000 24.57670000

ATOMIC_POSITIONS {angstrom}
Li 0.00000000 3.05111000 -2.2883365399999995 0 0 0
Li 0.01623191 0.01617088 0.76040310
Li 3.03579343 3.03579343 0.75130972
Li 3.05111000 0.00000000 -2.2883365399999995 0 0 0
Mn 1.52555500 1.52555500 -0.7628607699999996 0 0 0
Mn 1.52982655 4.57282060 2.39966899
Mn 4.57282060 1.52982655 2.39966899
Mn 4.57666500 4.57666500 -0.7628607699999996 0 0 0
Al 0.00000000 0.00000000 -2.2883365399999995 0 0 0
Al 0.02056448 3.03097267 0.73828407
Al 3.03097267 0.02056448 0.73828407
Al 3.05111000 3.05111000 -2.2883365399999995 0 0 0
Pd 4.57666500 1.52555500 -0.7628607699999996 0 0 0
Pd 4.57318673 4.57318673 2.08336686
Pd 1.52750771 1.52750771 2.29005691
Pd 1.52555500 4.57666500 -0.7628607699999996 0 0 0
C 1.52171060 1.52177162 4.25545560
O 1.52201571 1.52207673 5.41031474
