&CONTROL
calculation = 'relax'
prefix = 'scf'
pseudo_dir = '/vol0403/data/hp230205/u10028/POT_HYBRID_KKJUS_GBRV'
outdir = './data'
tprnfor = .true.
nstep = 50
disk_io = 'non'
/
&SYSTEM
ibrav = 0
ecutwfc = 50.0
ecutrho = 400
occupations = 'smearing'
smearing = 'mp'
degauss = 0.01
assume_isolated = 'esm'
esm_bc = 'bc1'
input_dft = 'BEEF-VDW'
nosym = .true.
nspin = 2
ntyp = 6
nat = 18
starting_magnetization(1) = 0.0
starting_magnetization(2) = 0.0
starting_magnetization(3) = 0.0
starting_magnetization(4) = 0.1
starting_magnetization(5) = 0.0
starting_magnetization(6) = 0.0
/
&ELECTRONS
electron_maxstep = 400
mixing_beta = 0.05
conv_thr = 1e-06
/
&IONS
ion_dynamics = 'bfgs'
upscale = 1.0
/
&CELL
/

K_POINTS {automatic}
10 10 2 0  0  0

ATOMIC_SPECIES
Al 26.98 Al.pbe-nl-rrkjus_psl.1.0.0.UPF
C 12.01 C.pbe-n-rrkjus_psl.1.0.0.UPF
Li 6.941 Li.pbe-sl-rrkjus_psl.1.0.0.UPF
Mn 54.93 mn_pbe_v1.5.uspp.F.UPF
O 15.99 O.pbe-n-rrkjus_psl.1.0.0.UPF
Pd 106.4 Pd.pbe-n-rrkjus_psl.1.0.0.UPF


CELL_PARAMETERS {angstrom}
6.10222000 0.00000000 0.00000000
0.00000000 6.10222000 0.00000000
0.00000000 0.00000000 24.57670000

ATOMIC_POSITIONS {angstrom}
Li 0.00000000 3.05111000 22.28836346
Li 0.01617088 0.01617088 0.76064886
Li 3.03567138 3.03567138 0.75130972
Li 3.05111000 0.00000000 22.28836346
Mn 1.52555500 1.52555500 23.81383923
Mn 1.52976553 4.57288162 2.40016052
Mn 4.57288162 1.52976553 2.40016052
Mn 4.57666500 4.57666500 23.81383923
Al 0.00000000 0.00000000 22.28836346
Al 0.02044244 3.03109472 0.73902137
Al 3.03109472 0.02044244 0.73902137
Al 3.05111000 3.05111000 22.28836346
Pd 4.57666500 1.52555500 23.81383923
Pd 4.57343082 4.57343082 2.08262956
Pd 1.52732464 1.52732464 2.29005691
Pd 1.52555500 4.57666500 23.81383923
C 1.52158856 1.52164958 4.25570137
O 1.52183265 1.52189367 5.41056051
