&CONTROL
calculation = 'relax'
prefix = 'scf'
pseudo_dir = '/vol0004/mdt0/data/hp150275/u10028/POT_KKJUS'
outdir = './data'
tprnfor = .true.
nstep = 50
disk_io = 'non'
/
&SYSTEM
ibrav = 0
ecutwfc = 50.0
ecutrho = 400
occupations = 'smearing'
smearing = 'mp'
degauss = 0.01
assume_isolated = 'esm'
esm_bc = 'bc1'
input_dft = 'BEEF-VDW'
nosym = .true.
nspin = 1
ntyp = 4
nat = 17
/
&ELECTRONS
electron_maxstep = 200
mixing_beta = 0.1
conv_thr = 1e-06
/
&IONS
ion_dynamics = 'bfgs'
upscale = 1.0
/
&CELL
/

K_POINTS {automatic}
8 8 1 0 0 0

ATOMIC_SPECIES
Au 196.9 Au.pbe-n-rrkjus_psl.1.0.0.UPF
C 12.01 C.pbe-n-rrkjus_psl.1.0.0.UPF
Hf 178.4 Hf.pbe-spn-rrkjus_psl.1.0.0.UPF
In 114.8 In.pbe-dn-rrkjus_psl.1.0.0.UPF

CELL_PARAMETERS {angstrom}
6.82626000 0.00000000 0.00000000
-0.00000000 6.82626000 0.00000000
0.00000000 0.00000000 25.11970000

ATOMIC_POSITIONS {angstrom}
Hf 0.00000000 0.00000000 2.55994863
Hf 3.41313000 3.41313000 2.55994863
Hf 3.41313000 0.00000000 -0.8533162100000027 0 0 0
Hf 0.00000000 3.41313000 -0.8533162100000027 0 0 0
In 0.00000000 0.00000000 -0.8533162100000027 0 0 0
In 3.41313000 -0.00000000 2.55994863
In 0.00000000 3.41313000 2.55994863
In 3.41313000 3.41313000 -0.8533162100000027 0 0 0
Au 1.70656500 1.70656500 0.85331621
Au 5.11969500 5.11969500 -2.559948630000001 0 0 0
Au 5.11969500 1.70656500 0.85331621
Au 1.70656500 5.11969500 -2.559948630000001 0 0 0
Au 5.11969500 5.11969500 0.85331621
Au 1.70656500 1.70656500 -2.559948630000001 0 0 0
Au 1.70656500 5.11969500 0.85331621
Au 5.11969500 1.70656500 -2.559948630000001 0 0 0
C 1.70656500 1.70656500 3.35975988
