&CONTROL
calculation = 'relax'
prefix = 'scf'
pseudo_dir = '/vol0004/mdt0/data/hp150275/u10028/POT_HYBRID_KKJUS_GBRV'
outdir = './data'
tprnfor = .true.
nstep = 50
disk_io = 'non'
/
&SYSTEM
ibrav = 0
ecutwfc = 50.0
ecutrho = 400
occupations = 'smearing'
smearing = 'mp'
degauss = 0.01
assume_isolated = 'esm'
esm_bc = 'bc1'
input_dft = 'BEEF-VDW'
nosym = .true.
nspin = 2
ntyp = 2
nat = 32
starting_magnetization(1) = 0.1
starting_magnetization(2) = 0.1
/
&ELECTRONS
electron_maxstep = 200
mixing_beta = 0.1
conv_thr = 1e-06
/
&IONS
ion_dynamics = 'bfgs'
upscale = 1.0
/
&CELL
/

K_POINTS {automatic}
9 6 2 0  0  0

ATOMIC_SPECIES
Ni 58.69 ni_pbe_v1.4.uspp.F.UPF
Sc 44.95 Sc.pbe-spn-rrkjus_psl.1.0.0.UPF

CELL_PARAMETERS {angstrom}
6.35210000 0.00000000 0.00000000
0.00000000 8.98322000 0.00000000
0.00000000 0.00000000 26.73740000

ATOMIC_POSITIONS {angstrom}
Sc 1.58802500 2.24580500 -3.3686450299999997 0 0 0
Sc 1.58802500 0.00000000 -1.122970800000001 0 0 0
Sc 1.58802500 2.24589483 1.11441483
Sc 1.58802500 0.00000000 3.41463335
Sc 1.58802500 6.73741500 -3.3686450299999997 0 0 0
Sc 1.58802500 4.49161000 -1.122970800000001 0 0 0
Sc 1.58802500 6.73732517 1.11441483
Sc 1.58802500 4.49161000 3.41463335
Sc 4.76407500 2.24580500 -3.3686450299999997 0 0 0
Sc 4.76407500 0.00000000 -1.122970800000001 0 0 0
Sc 4.76407500 2.24589483 1.11441483
Sc 4.76407500 0.00000000 3.41463335
Sc 4.76407500 6.73741500 -3.3686450299999997 0 0 0
Sc 4.76407500 4.49161000 -1.122970800000001 0 0 0
Sc 4.76407500 6.73732517 1.11441483
Sc 4.76407500 4.49161000 3.41463335
Ni 0.00000000 0.00000000 -3.3686450299999997 0 0 0
Ni 0.00000000 2.24580500 -1.122970800000001 0 0 0
Ni 0.00006352 0.00044916 1.21895807
Ni 0.00000000 2.24526601 3.13790126
Ni 0.00000000 4.49161000 -3.3686450299999997 0 0 0
Ni 0.00000000 6.73741500 -1.122970800000001 0 0 0
Ni 0.00000000 4.49116084 1.21869069
Ni 0.00000000 6.73795399 3.13816864
Ni 3.17605000 0.00000000 -3.3686450299999997 0 0 0
Ni 3.17605000 2.24580500 -1.122970800000001 0 0 0
Ni 3.17598648 0.00044916 1.21895807
Ni 3.17605000 2.24526601 3.13790126
Ni 3.17605000 4.49161000 -3.3686450299999997 0 0 0
Ni 3.17605000 6.73741500 -1.122970800000001 0 0 0
Ni 3.17605000 4.49116084 1.21869069
Ni 3.17605000 6.73795399 3.13816864
