&CONTROL
calculation = 'relax'
prefix = 'scf'
pseudo_dir = '/vol0004/mdt0/data/hp150275/u10028/POT_KKJUS'
outdir = './data'
tprnfor = .true.
nstep = 50
disk_io = 'non'
/
&SYSTEM
ibrav = 0
ecutwfc = 50.0
ecutrho = 400
occupations = 'smearing'
smearing = 'mp'
degauss = 0.01
assume_isolated = 'esm'
esm_bc = 'bc1'
input_dft = 'BEEF-VDW'
nosym = .true.
nspin = 1
ntyp = 2
nat = 16
/
&ELECTRONS
electron_maxstep = 200
mixing_beta = 0.1
conv_thr = 1e-06
/
&IONS
ion_dynamics = 'bfgs'
upscale = 1.0
/
&CELL
/

K_POINTS {automatic}
6 8 1 0 0 0

ATOMIC_SPECIES
Ga 69.72 Ga.pbe-dnl-rrkjus_psl.1.0.0.UPF
Pt 195.0 Pt.pbe-n-rrkjus_psl.1.0.0.UPF

CELL_PARAMETERS {angstrom}
7.92728000 0.00000000 0.00000000
0.00000000 5.60543000 0.00000000
0.00000000 0.00000000 24.20410000

ATOMIC_POSITIONS {angstrom}
Ga 0.00000000 0.00000000 -2.1021260800000015 0 0 0
Ga 7.92712145 2.80271500 0.95848236
Ga 3.96364000 0.00000000 -2.1021260800000015 0 0 0
Ga 3.96379855 2.80271500 0.95848236
Pt 0.00000000 2.80271500 -2.1021260800000015 0 0 0
Pt 1.98182000 4.20407250 -0.700708689999999 0 0 0
Pt 1.98182000 1.40135750 -0.700708689999999 0 0 0
Pt 0.00000000 0.00000000 0.74403403
Pt 1.98182000 1.42361106 2.07453341
Pt 1.98182000 4.18181894 2.07453341
Pt 3.96364000 2.80271500 -2.1021260800000015 0 0 0
Pt 5.94546000 4.20407250 -0.700708689999999 0 0 0
Pt 5.94546000 1.40135750 -0.700708689999999 0 0 0
Pt 3.96364000 0.00000000 0.74403403
Pt 5.94546000 1.42355500 2.07477545
Pt 5.94546000 4.18187500 2.07477545
