&CONTROL
calculation = 'relax'
prefix = 'scf'
pseudo_dir = '/vol0004/mdt0/data/hp150275/u10028/POT_KKJUS'
outdir = './data'
tprnfor = .true.
nstep = 50
disk_io = 'non'
/
&SYSTEM
ibrav = 0
ecutwfc = 50.0
ecutrho = 400
occupations = 'smearing'
smearing = 'mp'
degauss = 0.01
assume_isolated = 'esm'
esm_bc = 'bc1'
input_dft = 'BEEF-VDW'
nosym = .true.
nspin = 1
ntyp = 1
nat = 32
/
&ELECTRONS
electron_maxstep = 200
mixing_beta = 0.1
conv_thr = 1e-06
/
&IONS
ion_dynamics = 'bfgs'
upscale = 1.0
/
&CELL
/

K_POINTS {automatic}
6 6 3 0  0  0

ATOMIC_SPECIES
K 39.09 K.pbe-spn-rrkjus_psl.1.0.0.UPF

CELL_PARAMETERS {angstrom}
13.42260000 0.00000000 0.00000000
-0.00000000 13.42260000 0.00000000
0.00000000 0.00000000 30.06700000

ATOMIC_POSITIONS {angstrom}
K 0.00000000 0.00000000 -5.033516469999999 0 0 0
K 3.35565000 3.35565000 -5.033516469999999 0 0 0
K 3.35565000 0.00000000 -1.6777386000000014 0 0 0
K 0.00000000 3.35565000 -1.6777386000000014 0 0 0
K 0.00000000 0.00000000 1.67773860
K 3.35565000 3.35565000 1.67773860
K 3.35565000 -0.00000000 5.03351647
K 0.00000000 3.35565000 5.03351647
K 0.00000000 6.71130000 -5.033516469999999 0 0 0
K 3.35565000 10.06695000 -5.033516469999999 0 0 0
K 3.35565000 6.71130000 -1.6777386000000014 0 0 0
K 0.00000000 10.06695000 -1.6777386000000014 0 0 0
K 0.00000000 6.71130000 1.67773860
K 3.35565000 10.06695000 1.67773860
K 3.35565000 6.71130000 5.03351647
K 0.00000000 10.06695000 5.03351647
K 6.71130000 0.00000000 -5.033516469999999 0 0 0
K 10.06695000 3.35565000 -5.033516469999999 0 0 0
K 10.06695000 0.00000000 -1.6777386000000014 0 0 0
K 6.71130000 3.35565000 -1.6777386000000014 0 0 0
K 6.71130000 -0.00000000 1.67773860
K 10.06695000 3.35565000 1.67773860
K 10.06695000 -0.00000000 5.03351647
K 6.71130000 3.35565000 5.03351647
K 6.71130000 6.71130000 -5.033516469999999 0 0 0
K 10.06695000 10.06695000 -5.033516469999999 0 0 0
K 10.06695000 6.71130000 -1.6777386000000014 0 0 0
K 6.71130000 10.06695000 -1.6777386000000014 0 0 0
K 6.71130000 6.71130000 1.67773860
K 10.06695000 10.06695000 1.67773860
K 10.06695000 6.71130000 5.03351647
K 6.71130000 10.06695000 5.03351647
