&CONTROL
calculation = 'relax'
prefix = 'scf'
pseudo_dir = '/vol0004/mdt0/data/hp150275/u10028/POT_KKJUS'
outdir = './data'
tprnfor = .true.
nstep = 50
disk_io = 'non'
/
&SYSTEM
ibrav = 0
ecutwfc = 50.0
ecutrho = 400
occupations = 'smearing'
smearing = 'mp'
degauss = 0.01
assume_isolated = 'esm'
esm_bc = 'bc1'
input_dft = 'BEEF-VDW'
nosym = .true.
nspin = 1
ntyp = 3
nat = 33
/
&ELECTRONS
electron_maxstep = 200
mixing_beta = 0.1
conv_thr = 1e-06
/
&IONS
ion_dynamics = 'bfgs'
upscale = 1.0
/
&CELL
/

K_POINTS {automatic}
7 7 2 0  0  0

ATOMIC_SPECIES
C 12.01 C.pbe-n-rrkjus_psl.1.0.0.UPF
Ga 69.72 Ga.pbe-dnl-rrkjus_psl.1.0.0.UPF
Pt 195.0 Pt.pbe-n-rrkjus_psl.1.0.0.UPF

CELL_PARAMETERS {angstrom}
7.92728000 0.00000000 0.00000000
-0.00000000 7.92728000 0.00000000
0.00000000 0.00000000 25.94550000

ATOMIC_POSITIONS {angstrom}
Ga 0.00000000 0.00000000 -2.97283539 0 0 0
Ga 0.00000000 0.00000000 0.99085864
Ga 0.00000000 3.96364000 -2.97283539 0 0 0
Ga 0.00000000 3.96364000 0.99085864
Ga 3.96364000 0.00000000 -2.97283539 0 0 0
Ga 3.96364000 -0.00000000 0.99085864
Ga 3.96364000 3.96364000 -2.97283539 0 0 0
Ga 3.96364000 3.96364000 0.99085864
Pt 0.00000000 1.98182000 -0.9908586499999998 0 0 0
Pt 1.98182000 0.00000000 -0.9908586499999998 0 0 0
Pt 1.98182000 1.98182000 -2.97283539 0 0 0
Pt 0.00000000 1.98182000 2.97283539
Pt 1.98182000 -0.00000000 2.97283539
Pt 1.98182000 1.98182000 0.99085864
Pt 0.00000000 5.94546000 -0.9908586499999998 0 0 0
Pt 1.98182000 3.96364000 -0.9908586499999998 0 0 0
Pt 1.98182000 5.94546000 -2.97283539 0 0 0
Pt 0.00000000 5.94546000 2.97283539
Pt 1.98182000 3.96364000 2.97283539
Pt 1.98182000 5.94546000 0.99085864
Pt 3.96364000 1.98182000 -0.9908586499999998 0 0 0
Pt 5.94546000 0.00000000 -0.9908586499999998 0 0 0
Pt 5.94546000 1.98182000 -2.97283539 0 0 0
Pt 3.96364000 1.98182000 2.97283539
Pt 5.94546000 -0.00000000 2.97283539
Pt 5.94546000 1.98182000 0.99085864
Pt 3.96364000 5.94546000 -0.9908586499999998 0 0 0
Pt 5.94546000 3.96364000 -0.9908586499999998 0 0 0
Pt 5.94546000 5.94546000 -2.97283539 0 0 0
Pt 3.96364000 5.94546000 2.97283539
Pt 5.94546000 3.96364000 2.97283539
Pt 5.94546000 5.94546000 0.99085864
C 0.00000000 0.00000000 3.77273516
