&CONTROL
calculation = 'relax'
prefix = 'scf'
pseudo_dir = '/vol0004/mdt0/data/hp150275/u10028/POT_KKJUS'
outdir = './data'
tprnfor = .true.
nstep = 50
disk_io = 'non'
/
&SYSTEM
ibrav = 0
ecutwfc = 50.0
ecutrho = 400
occupations = 'smearing'
smearing = 'mp'
degauss = 0.01
assume_isolated = 'esm'
esm_bc = 'bc1'
input_dft = 'BEEF-VDW'
nosym = .true.
nspin = 1
ntyp = 4
nat = 33
/
&ELECTRONS
electron_maxstep = 200
mixing_beta = 0.1
conv_thr = 1e-06
/
&IONS
ion_dynamics = 'bfgs'
upscale = 1.0
/
&CELL
/

K_POINTS {automatic}
9 6 2 0  0  0

ATOMIC_SPECIES
Al 26.98 Al.pbe-nl-rrkjus_psl.1.0.0.UPF
C 12.01 C.pbe-n-rrkjus_psl.1.0.0.UPF
Li 6.941 Li.pbe-sl-rrkjus_psl.1.0.0.UPF
Pd 106.4 Pd.pbe-n-rrkjus_psl.1.0.0.UPF

CELL_PARAMETERS {angstrom}
6.12388000 0.00000000 0.00000000
0.00000000 8.66047000 0.00000000
0.00000000 0.00000000 26.49540000

ATOMIC_POSITIONS {angstrom}
Li 0.00000000 0.00000000 -3.2478061300000007 0 0 0
Li 3.06194000 2.16511750 -1.0826020400000012 0 0 0
Li 3.06194000 6.49535250 -1.0826020400000012 0 0 0
Li 0.00000000 4.33023500 -3.2478061300000007 0 0 0
Li 0.00000000 4.33023500 1.03464537
Li 3.06194000 6.27165256 4.31795534
Li 3.06194000 2.38881744 4.31795534
Li 0.00000000 0.00000000 1.22302766
Al 1.53097000 0.00000000 -1.0826020400000012 0 0 0
Al 4.59291000 4.33023500 -1.0826020400000012 0 0 0
Al 4.59291000 0.00000000 -1.0826020400000012 0 0 0
Al 1.53097000 4.33023500 -1.0826020400000012 0 0 0
Al 4.59291000 6.49535250 -3.2478061300000007 0 0 0
Al 1.53097000 2.16511750 -3.2478061300000007 0 0 0
Al 1.53097000 6.49535250 -3.2478061300000007 0 0 0
Al 4.59291000 2.16511750 -3.2478061300000007 0 0 0
Al 1.48497966 4.33023500 3.18077277
Al 4.31280373 0.00000000 3.28119034
Al 4.63890034 4.33023500 3.18077277
Al 1.81107627 0.00000000 3.28119034
Al 4.51623902 2.19161854 1.15572935
Al 1.60764098 6.46885146 1.15572935
Al 1.60764098 2.19161854 1.15572935
Al 4.51623902 6.46885146 1.15572935
Pd 0.00000000 6.49535250 -1.0826020400000012 0 0 0
Pd 3.06194000 0.00000000 -3.2478061300000007 0 0 0
Pd 0.00000000 2.16511750 -1.0826020400000012 0 0 0
Pd 3.06194000 4.33023500 -3.2478061300000007 0 0 0
Pd 0.00000000 2.12744446 3.13467077
Pd 3.06194000 4.33023500 0.96337274
Pd 0.00000000 6.53302554 3.13467077
Pd 3.06194000 0.00000000 0.95542412
C 0.00000000 0.00000000 3.83202970
