&CONTROL
calculation = 'relax'
prefix = 'scf'
pseudo_dir = '/vol0403/data/hp230205/u10028/POT_HYBRID_KKJUS_GBRV'
outdir = './data'
tprnfor = .true.
nstep = 50
disk_io = 'non'
/
&SYSTEM
ibrav = 0
ecutwfc = 50.0
ecutrho = 400
occupations = 'smearing'
smearing = 'mp'
degauss = 0.01
assume_isolated = 'esm'
esm_bc = 'bc1'
input_dft = 'BEEF-VDW'
nosym = .true.
nspin = 1
ntyp = 5
nat = 33
/
&ELECTRONS
electron_maxstep = 200
mixing_beta = 0.1
conv_thr = 1e-06
/
&IONS
ion_dynamics = 'bfgs'
upscale = 1.0
/
&CELL
/

K_POINTS {automatic}
6 6 1 0 0 0

ATOMIC_SPECIES
C 12.01 C.pbe-n-rrkjus_psl.1.0.0.UPF
Cu 63.54 Cu.pbe-dn-rrkjus_psl.1.0.0.UPF
In 114.8 In.pbe-dn-rrkjus_psl.1.0.0.UPF
Sn 118.7 Sn.pbe-dn-rrkjus_psl.1.0.0.UPF
Y 88.90 Y.pbe-spn-rrkjus_psl.1.0.0.UPF


CELL_PARAMETERS {angstrom}
8.84740000 0.00000000 0.00000000
0.00000000 9.14612000 0.00000000
0.00000000 0.00000000 26.62140000

ATOMIC_POSITIONS {angstrom}
Y 0.00000000 2.28653000 1.08641933
Y 0.00000000 2.28653000 -3.3106373 0 0 0
Y 0.00000000 6.85959000 1.16122547
Y 0.00000000 6.85959000 -3.3106373 0 0 0
Y 4.42370000 2.28653000 1.29113790
Y 4.42370000 2.28653000 -3.3106373 0 0 0
Y 4.42370000 6.85959000 1.05553851
Y 4.42370000 6.85959000 -3.3106373 0 0 0
In 2.21848555 9.13944333 1.32042144
In 2.21185000 0.00000000 -3.3106373 0 0 0
In 2.21848555 4.57973667 1.32042144
In 2.21185000 4.57306000 -3.3106373 0 0 0
In 6.62891445 9.13944333 1.32042144
In 6.63555000 0.00000000 -3.3106373 0 0 0
In 6.62891445 4.57973667 1.32042144
In 6.63555000 4.57306000 -3.3106373 0 0 0
Cu 0.00000000 0.19206852 3.11949565
Cu 0.00000000 0.00000000 -1.1034570300000013 0 0 0
Cu 0.00000000 4.38099148 3.11949565
Cu 0.00000000 4.57306000 -1.1034570300000013 0 0 0
Cu 4.42370000 8.83249955 3.09713368
Cu 4.42370000 0.00000000 -1.1034570300000013 0 0 0
Cu 4.42370000 4.88668045 3.09713368
Cu 4.42370000 4.57306000 -1.1034570300000013 0 0 0
Sn 2.17601803 2.28653000 3.76692810
Sn 2.21185000 2.28653000 -1.1034570300000013 0 0 0
Sn 2.18353832 6.85959000 3.58989579
Sn 2.21185000 6.85959000 -1.1034570300000013 0 0 0
Sn 6.67138197 2.28653000 3.76692810
Sn 6.63555000 2.28653000 -1.1034570300000013 0 0 0
Sn 6.66395015 6.85959000 3.58989579
Sn 6.63555000 6.85959000 -1.1034570300000013 0 0 0
C 0.00000000 2.28653000 3.47382649
