&CONTROL
calculation = 'relax'
prefix = 'scf'
pseudo_dir = '/vol0004/mdt0/data/hp150275/u10028/POT_KKJUS'
outdir = './data'
tprnfor = .true.
nstep = 50
disk_io = 'non'
/
&SYSTEM
ibrav = 0
ecutwfc = 50.0
ecutrho = 400
occupations = 'smearing'
smearing = 'mp'
degauss = 0.01
assume_isolated = 'esm'
esm_bc = 'bc1'
input_dft = 'BEEF-VDW'
nosym = .true.
nspin = 1
ntyp = 4
nat = 33
/
&ELECTRONS
electron_maxstep = 200
mixing_beta = 0.1
conv_thr = 1e-06
/
&IONS
ion_dynamics = 'bfgs'
upscale = 1.0
/
&CELL
/

K_POINTS {automatic}
8 6 1 0 0 0

ATOMIC_SPECIES
Al 26.98 Al.pbe-nl-rrkjus_psl.1.0.0.UPF
C 12.01 C.pbe-n-rrkjus_psl.1.0.0.UPF
Li 6.941 Li.pbe-sl-rrkjus_psl.1.0.0.UPF
Pt 195.0 Pt.pbe-n-rrkjus_psl.1.0.0.UPF

CELL_PARAMETERS {angstrom}
6.09904000 0.00000000 0.00000000
0.00000000 8.62534000 0.00000000
0.00000000 0.00000000 26.46900000

ATOMIC_POSITIONS {angstrom}
Li 0.00000000 0.00000000 -3.2345118 0 0 0
Li 3.04952000 2.15633500 -1.0780823700000006 0 0 0
Li 3.04952000 6.46900500 -1.0780823700000006 0 0 0
Li 0.00000000 4.31267000 -3.2345118 0 0 0
Li 0.00000000 4.31267000 1.06855353
Li 3.04952000 6.55301581 4.23159903
Li 3.04952000 2.07232419 4.23159903
Li 0.00000000 0.00000000 1.03282038
Al 1.52476000 0.00000000 -1.0780823700000006 0 0 0
Al 4.57428000 4.31267000 -1.0780823700000006 0 0 0
Al 4.57428000 0.00000000 -1.0780823700000006 0 0 0
Al 1.52476000 4.31267000 -1.0780823700000006 0 0 0
Al 4.57428000 6.46900500 -3.2345118 0 0 0
Al 1.52476000 2.15633500 -3.2345118 0 0 0
Al 1.52476000 6.46900500 -3.2345118 0 0 0
Al 4.57428000 2.15633500 -3.2345118 0 0 0
Al 1.58611634 4.31267000 3.23609994
Al 4.76981522 0.00000000 3.29618457
Al 4.51292366 4.31267000 3.23609994
Al 1.32922478 0.00000000 3.29618457
Al 4.49328475 2.16737544 1.12360905
Al 1.60575525 6.45796456 1.12360905
Al 1.60575525 2.16737544 1.12360905
Al 4.49328475 6.45796456 1.12360905
Pt 0.00000000 6.46900500 -1.0780823700000006 0 0 0
Pt 3.04952000 0.00000000 -3.2345118 0 0 0
Pt 0.00000000 2.15633500 -1.0780823700000006 0 0 0
Pt 3.04952000 4.31267000 -3.2345118 0 0 0
Pt 0.00000000 2.23111670 3.03228864
Pt 3.04952000 4.31267000 0.94282578
Pt 0.00000000 6.39430956 3.03228864
Pt 3.04952000 0.00000000 1.04605488
C 3.04952000 0.00000000 3.98993706
