&CONTROL
calculation = 'relax'
prefix = 'scf'
pseudo_dir = '/vol0403/data/hp230205/u10028/POT_HYBRID_KKJUS_GBRV'
outdir = './data'
tprnfor = .true.
nstep = 50
disk_io = 'non'
/
&SYSTEM
ibrav = 0
ecutwfc = 50.0
ecutrho = 400
occupations = 'smearing'
smearing = 'mp'
degauss = 0.01
assume_isolated = 'esm'
esm_bc = 'bc1'
input_dft = 'BEEF-VDW'
nosym = .true.
nspin = 1
ntyp = 6
nat = 18
/
&ELECTRONS
electron_maxstep = 200
mixing_beta = 0.1
conv_thr = 1e-06
/
&IONS
ion_dynamics = 'bfgs'
upscale = 1.0
/
&CELL
/

K_POINTS {automatic}
8 8 1 0 0 0

ATOMIC_SPECIES
C 12.01 C.pbe-n-rrkjus_psl.1.0.0.UPF
In 114.8 In.pbe-dn-rrkjus_psl.1.0.0.UPF
Li 6.941 Li.pbe-sl-rrkjus_psl.1.0.0.UPF
O 15.99 O.pbe-n-rrkjus_psl.1.0.0.UPF
Pd 106.4 Pd.pbe-n-rrkjus_psl.1.0.0.UPF
Rh 102.9 Rh.pbe-spn-rrkjus_psl.1.0.0.UPF


CELL_PARAMETERS {angstrom}
6.29773000 0.00000000 0.00000000
0.00000000 6.29773000 0.00000000
0.00000000 0.00000000 24.72330000

ATOMIC_POSITIONS {angstrom}
Li 6.29747809 3.14899095 2.39494607
Li 0.00000000 0.00000000 -0.7871898699999988 0 0 0
Li 3.14886500 3.14886500 -0.7871898699999988 0 0 0
Li 3.14873905 0.00018893 2.39494607
In 6.29735214 0.00025191 2.38332612
In 0.00000000 3.14886500 -0.7871898699999988 0 0 0
In 3.14886500 0.00000000 -0.7871898699999988 0 0 0
In 3.14855011 3.14905393 2.43549228
Pd 4.71599213 1.58173787 0.83465861
Pd 4.72329750 4.72329750 -2.3615696199999974 0 0 0
Pd 1.57443250 1.57443250 -2.3615696199999974 0 0 0
Pd 1.58117107 4.71643297 0.83490584
Rh 1.58161191 1.58192680 0.90042259
Rh 1.57443250 4.72329750 -2.3615696199999974 0 0 0
Rh 4.72329750 1.57443250 -2.3615696199999974 0 0 0
Rh 4.71567725 4.71599213 0.90017535
C 0.00699048 6.29319563 6.34622388
O 6.29678534 0.00056680 7.48127058
