&CONTROL
calculation = 'relax'
prefix = 'scf'
pseudo_dir = '/vol0004/mdt0/data/hp150275/u10028/POT_KKJUS'
outdir = './data'
tprnfor = .true.
nstep = 50
disk_io = 'non'
/
&SYSTEM
ibrav = 0
ecutwfc = 50.0
ecutrho = 400
occupations = 'smearing'
smearing = 'mp'
degauss = 0.01
assume_isolated = 'esm'
esm_bc = 'bc1'
input_dft = 'BEEF-VDW'
nosym = .true.
nspin = 1
ntyp = 3
nat = 33
/
&ELECTRONS
electron_maxstep = 200
mixing_beta = 0.1
conv_thr = 1e-06
/
&IONS
ion_dynamics = 'bfgs'
upscale = 1.0
/
&CELL
/

K_POINTS {automatic}
8 6 1 0 0 0

ATOMIC_SPECIES
C 12.01 C.pbe-n-rrkjus_psl.1.0.0.UPF
Pt 195.0 Pt.pbe-n-rrkjus_psl.1.0.0.UPF
Zr 91.22 Zr.pbe-spn-rrkjus_psl.1.0.0.UPF

CELL_PARAMETERS {angstrom}
6.75388000 0.00000000 0.00000000
0.00000000 9.55143000 0.00000000
0.00000000 0.00000000 27.16360000

ATOMIC_POSITIONS {angstrom}
Zr 1.68847000 2.38785750 -3.5817923 0 0 0
Zr 1.68847000 0.00000000 -1.1938402199999985 0 0 0
Zr 1.64794672 2.09348243 1.16966462
Zr 1.70265315 4.65670418 3.57391485
Zr 1.68847000 7.16357250 -3.5817923 0 0 0
Zr 1.68847000 4.77571500 -1.1938402199999985 0 0 0
Zr 1.73797594 6.97980299 1.11180615
Zr 1.63693790 9.38294277 3.69750923
Zr 5.06541000 2.38785750 -3.5817923 0 0 0
Zr 5.06541000 0.00000000 -1.1938402199999985 0 0 0
Zr 5.08384809 2.19558721 1.16015736
Zr 5.03994787 4.63540449 3.44760411
Zr 5.06541000 7.16357250 -3.5817923 0 0 0
Zr 5.06541000 4.77571500 -1.1938402199999985 0 0 0
Zr 5.03292384 6.94455821 1.09849598
Zr 5.11012069 9.39736543 3.68229762
Pt 0.00000000 0.00000000 -3.5817923 0 0 0
Pt 0.00000000 2.38785750 -1.1938402199999985 0 0 0
Pt 6.73105189 9.17558123 1.17754206
Pt 0.00952297 2.43876662 3.40658708
Pt 0.00000000 4.77571500 -3.5817923 0 0 0
Pt 0.00000000 7.16357250 -1.1938402199999985 0 0 0
Pt 0.15851356 4.49595362 1.22833799
Pt 0.00047277 6.90367809 3.25284110
Pt 3.37694000 0.00000000 -3.5817923 0 0 0
Pt 3.37694000 2.38785750 -1.1938402199999985 0 0 0
Pt 3.40962878 9.38695438 1.13190721
Pt 3.36349978 2.11669240 3.27402871
Pt 3.37694000 4.77571500 -3.5817923 0 0 0
Pt 3.37694000 7.16357250 -1.1938402199999985 0 0 0
Pt 3.22970542 4.42746986 1.32313896
Pt 3.38078971 6.97703307 3.32292319
C 0.00060785 0.77548060 4.56728770
