&CONTROL
calculation = 'relax'
prefix = 'scf'
pseudo_dir = '/vol0004/mdt0/data/hp150275/u10028/POT_KKJUS'
outdir = './data'
tprnfor = .true.
nstep = 50
disk_io = 'non'
/
&SYSTEM
ibrav = 0
ecutwfc = 50.0
ecutrho = 400
occupations = 'smearing'
smearing = 'mp'
degauss = 0.01
assume_isolated = 'esm'
esm_bc = 'bc1'
input_dft = 'BEEF-VDW'
nosym = .true.
nspin = 1
ntyp = 2
nat = 16
/
&ELECTRONS
electron_maxstep = 200
mixing_beta = 0.1
conv_thr = 1e-06
/
&IONS
ion_dynamics = 'bfgs'
upscale = 1.0
/
&CELL
/

K_POINTS {automatic}
8 8 1 0 0 0

ATOMIC_SPECIES
K 39.09 K.pbe-spn-rrkjus_psl.1.0.0.UPF
Sb 121.7 Sb.pbe-n-rrkjus_psl.1.0.0.UPF

CELL_PARAMETERS {angstrom}
8.65338000 0.00000000 0.00000000
0.00000000 8.65338000 0.00000000
0.00000000 0.00000000 26.49000000

ATOMIC_POSITIONS {angstrom}
K 2.16377767 2.16325847 1.25562600
K 6.49003500 6.49003500 -3.2450249999999983 0 0 0
K 6.48960233 2.16325847 1.25562600
K 2.16334500 6.49003500 -3.2450249999999983 0 0 0
K 6.48960233 6.49012153 1.25589090
K 2.16334500 2.16334500 -3.2450249999999983 0 0 0
K 2.16386420 6.49020807 1.25615580
K 6.49003500 2.16334500 -3.2450249999999983 0 0 0
K 0.00000000 0.00000000 -1.081586699999999 0 0 0
K 4.32738227 0.00043267 4.13349960
K 8.65286080 4.32694960 4.13085060
K 4.32669000 4.32669000 -1.081586699999999 0 0 0
Sb 8.65320693 0.00008653 2.98674750
Sb 4.32686307 4.32643040 2.98701240
Sb 4.32669000 0.00000000 -1.081586699999999 0 0 0
Sb 0.00000000 4.32669000 -1.081586699999999 0 0 0
