&CONTROL
calculation = 'relax'
prefix = 'scf'
pseudo_dir = '/vol0004/mdt0/data/hp150275/u10028/POT_KKJUS'
outdir = './data'
tprnfor = .true.
nstep = 50
disk_io = 'non'
/
&SYSTEM
ibrav = 0
ecutwfc = 50.0
ecutrho = 400
occupations = 'smearing'
smearing = 'mp'
degauss = 0.01
assume_isolated = 'esm'
esm_bc = 'bc1'
input_dft = 'BEEF-VDW'
nosym = .true.
nspin = 1
ntyp = 2
nat = 16
/
&ELECTRONS
electron_maxstep = 200
mixing_beta = 0.1
conv_thr = 1e-06
/
&IONS
ion_dynamics = 'bfgs'
upscale = 1.0
/
&CELL
/

K_POINTS {automatic}
8 11 3 0  0  0

ATOMIC_SPECIES
In 114.8 In.pbe-dn-rrkjus_psl.1.0.0.UPF
Mg 24.30 Mg.pbe-spnl-rrkjus_psl.1.0.0.UPF

CELL_PARAMETERS {angstrom}
9.42262000 0.00000000 0.00000000
0.00000000 6.66280000 0.00000000
0.00000000 0.00000000 24.99710000

ATOMIC_POSITIONS {angstrom}
Mg 0.00000000 0.00000000 -2.498460139999999 0 0 0
Mg 0.00009423 3.33226616 0.84765166
Mg 4.71131000 0.00000000 -2.498460139999999 0 0 0
Mg 4.71093310 3.33060046 0.84790163
In 0.00000000 3.33140000 -2.498460139999999 0 0 0
In 2.35565500 4.99710000 -0.8329033700000004 0 0 0
In 2.35565500 1.66570000 -0.8329033700000004 0 0 0
In 9.42224310 0.00079954 0.96188841
In 2.35518387 1.71134018 2.61194698
In 2.35584345 4.95145982 2.61219695
In 4.71131000 3.33140000 -2.498460139999999 0 0 0
In 7.06696500 4.99710000 -0.8329033700000004 0 0 0
In 7.06696500 1.66570000 -0.8329033700000004 0 0 0
In 4.71178113 6.66186721 0.96188841
In 7.06734190 1.71180658 2.61194698
In 7.06677655 4.95086017 2.61169701
