&CONTROL
calculation = 'relax'
prefix = 'scf'
pseudo_dir = '/vol0403/data/hp230205/u10028/POT_HYBRID_KKJUS_GBRV'
outdir = './data'
tprnfor = .true.
nstep = 50
disk_io = 'non'
/
&SYSTEM
ibrav = 0
ecutwfc = 50.0
ecutrho = 400
occupations = 'smearing'
smearing = 'mp'
degauss = 0.01
assume_isolated = 'esm'
esm_bc = 'bc1'
input_dft = 'BEEF-VDW'
nosym = .true.
nspin = 1
ntyp = 6
nat = 34
/
&ELECTRONS
electron_maxstep = 200
mixing_beta = 0.1
conv_thr = 1e-06
/
&IONS
ion_dynamics = 'bfgs'
upscale = 1.0
/
&CELL
/

K_POINTS {automatic}
9 6 2 0  0  0

ATOMIC_SPECIES
C 12.01 C.pbe-n-rrkjus_psl.1.0.0.UPF
Cu 63.54 Cu.pbe-dn-rrkjus_psl.1.0.0.UPF
In 114.8 In.pbe-dn-rrkjus_psl.1.0.0.UPF
Li 6.941 Li.pbe-sl-rrkjus_psl.1.0.0.UPF
Mg 24.30 Mg.pbe-spnl-rrkjus_psl.1.0.0.UPF
O 15.99 O.pbe-n-rrkjus_psl.1.0.0.UPF


CELL_PARAMETERS {angstrom}
6.43808000 0.00000000 0.00000000
0.00000000 9.10482000 0.00000000
0.00000000 0.00000000 26.82860000

ATOMIC_POSITIONS {angstrom}
Li 0.00000000 2.27620500 -1.1380692100000012 0 0 0
Li 0.00000000 6.82861500 -1.1380692100000012 0 0 0
Li 3.21904000 4.55241000 -3.4142076400000008 0 0 0
Li 3.21904000 0.00000000 -3.4142076400000008 0 0 0
Li 0.16449294 6.82988967 4.11255609
Li 0.16442856 2.27493033 4.11255609
Li 3.21479087 0.00000000 1.20031156
Li 3.20938288 4.55250105 1.21828673
Mg 4.82856000 0.00000000 -1.1380692100000012 0 0 0
Mg 4.82856000 4.55241000 -1.1380692100000012 0 0 0
Mg 1.60952000 2.27620500 -3.4142076400000008 0 0 0
Mg 1.60952000 6.82861500 -3.4142076400000008 0 0 0
Mg 4.81027585 4.55241000 3.58430096
Mg 4.79089723 0.00000000 3.50891259
Mg 1.54810072 6.82861500 1.25960277
Mg 1.54822948 2.27620500 1.25960277
In 1.60952000 0.00000000 -1.1380692100000012 0 0 0
In 1.60952000 4.55241000 -1.1380692100000012 0 0 0
In 4.82856000 2.27620500 -3.4142076400000008 0 0 0
In 4.82856000 6.82861500 -3.4142076400000008 0 0 0
In 1.61209523 4.55241000 3.64976274
In 1.64338430 0.00000000 3.61461728
In 4.88412063 6.82205953 1.29769938
In 4.88412063 2.28285152 1.29769938
Cu 0.00000000 0.00000000 -3.4142076400000008 0 0 0
Cu 0.00000000 4.55241000 -3.4142076400000008 0 0 0
Cu 3.21904000 6.82861500 -1.1380692100000012 0 0 0
Cu 3.21904000 2.27620500 -1.1380692100000012 0 0 0
Cu 0.01158854 4.55241000 1.11794776
Cu 0.01500073 0.00000000 1.15711752
Cu 3.15523863 2.29641770 3.37128188
Cu 3.15530301 6.80840230 3.37128188
C 4.86506391 0.00000000 5.71663809
O 4.90124592 0.00000000 6.86678017
