&CONTROL
calculation = 'relax'
prefix = 'scf'
pseudo_dir = '/vol0004/mdt0/data/hp150275/u10028/POT_KKJUS'
outdir = './data'
tprnfor = .true.
nstep = 50
disk_io = 'non'
/
&SYSTEM
ibrav = 0
ecutwfc = 50.0
ecutrho = 400
occupations = 'smearing'
smearing = 'mp'
degauss = 0.01
assume_isolated = 'esm'
esm_bc = 'bc1'
input_dft = 'BEEF-VDW'
nosym = .true.
nspin = 1
ntyp = 4
nat = 18
/
&ELECTRONS
electron_maxstep = 200
mixing_beta = 0.1
conv_thr = 1e-06
/
&IONS
ion_dynamics = 'bfgs'
upscale = 1.0
/
&CELL
/

K_POINTS {automatic}
6 8 1 0 0 0

ATOMIC_SPECIES
C 12.01 C.pbe-n-rrkjus_psl.1.0.0.UPF
O 15.99 O.pbe-n-rrkjus_psl.1.0.0.UPF
Pt 195.0 Pt.pbe-n-rrkjus_psl.1.0.0.UPF
Zr 91.22 Zr.pbe-spn-rrkjus_psl.1.0.0.UPF

CELL_PARAMETERS {angstrom}
8.14544000 0.00000000 0.00000000
0.00000000 5.75970000 0.00000000
0.00000000 0.00000000 24.31980000

ATOMIC_POSITIONS {angstrom}
Zr 0.00000000 0.00000000 -2.159841440000001 0 0 0
Zr 8.11171788 2.88848955 0.80620137
Zr 4.07272000 0.00000000 -2.159841440000001 0 0 0
Zr 4.10644212 2.88848955 0.80620137
Pt 0.00000000 2.87985000 -2.159841440000001 0 0 0
Pt 2.03636000 4.31977500 -0.7198660799999992 0 0 0
Pt 2.03636000 1.43992500 -0.7198660799999992 0 0 0
Pt 8.14185601 0.00869715 0.55935540
Pt 2.03636000 1.32190875 2.10974265
Pt 2.03636000 4.19847572 2.04991594
Pt 4.07272000 2.87985000 -2.159841440000001 0 0 0
Pt 6.10908000 4.31977500 -0.7198660799999992 0 0 0
Pt 6.10908000 1.43992500 -0.7198660799999992 0 0 0
Pt 4.07630399 0.00869715 0.55935540
Pt 6.10908000 1.50138100 2.09588036
Pt 6.10908000 4.29535387 2.08517965
C 2.03636000 1.42650490 3.99136558
O 2.03636000 1.50656473 5.14096252
