&CONTROL
calculation = 'relax'
prefix = 'scf'
pseudo_dir = '/vol0004/mdt0/data/hp150275/u10028/POT_HYBRID_KKJUS_GBRV'
outdir = './data'
tprnfor = .true.
nstep = 50
disk_io = 'non'
/
&SYSTEM
ibrav = 0
ecutwfc = 50.0
ecutrho = 400
occupations = 'smearing'
smearing = 'mp'
degauss = 0.01
assume_isolated = 'esm'
esm_bc = 'bc1'
input_dft = 'BEEF-VDW'
nosym = .true.
nspin = 2
ntyp = 5
nat = 34
starting_magnetization(1) = 0.0
starting_magnetization(2) = 0.0
starting_magnetization(3) = 0.1
starting_magnetization(4) = 0.0
starting_magnetization(5) = 0.0
/
&ELECTRONS
electron_maxstep = 300
mixing_beta = 0.1
conv_thr = 1e-06
/
&IONS
ion_dynamics = 'bfgs'
upscale = 1.0
/
&CELL
/

K_POINTS {automatic}
8 6 1 0 0 0

ATOMIC_SPECIES
Al 26.98 Al.pbe-nl-rrkjus_psl.1.0.0.UPF
C 12.01 C.pbe-n-rrkjus_psl.1.0.0.UPF
Mn 54.93 mn_pbe_v1.5.uspp.F.UPF
O 15.99 O.pbe-n-rrkjus_psl.1.0.0.UPF
V 50.94 V.pbe-spnl-rrkjus_psl.1.0.0.UPF

CELL_PARAMETERS {angstrom}
5.82937000 0.00000000 0.00000000
0.00000000 8.24397000 0.00000000
0.00000000 0.00000000 26.18300000

ATOMIC_POSITIONS {angstrom}
Mn 1.45734250 0.00000000 -1.0305628800000015 0 0 0
Mn 4.37202750 4.12198500 -1.0305628800000015 0 0 0
Mn 4.37202750 0.00000000 -1.0305628800000015 0 0 0
Mn 1.45734250 4.12198500 -1.0305628800000015 0 0 0
Mn 4.37202750 6.18297750 -3.0914268100000015 0 0 0
Mn 1.45734250 2.06099250 -3.0914268100000015 0 0 0
Mn 1.45734250 6.18297750 -3.0914268100000015 0 0 0
Mn 4.37202750 2.06099250 -3.0914268100000015 0 0 0
Mn 1.41665350 4.13146557 3.14955307
Mn 4.41248333 8.23457187 3.14929124
Mn 4.41277480 4.13146557 3.14955307
Mn 1.41694497 8.23457187 3.14929124
Mn 4.33600199 2.06107494 1.09366391
Mn 1.46031548 6.18289506 1.04653451
Mn 1.49336801 2.06107494 1.09366391
Mn 4.36911282 6.18289506 1.04653451
Al 0.00000000 0.00000000 -3.0914268100000015 0 0 0
Al 2.91468500 2.06099250 -1.0305628800000015 0 0 0
Al 2.91468500 6.18297750 -1.0305628800000015 0 0 0
Al 0.00000000 4.12198500 -3.0914268100000015 0 0 0
Al 0.00000000 4.11415323 1.02323164
Al 2.91468500 6.18297750 3.23229135
Al 2.91468500 2.06099250 3.28518101
Al 0.00000000 0.00783177 1.02296981
V 0.00000000 6.18297750 -1.0305628800000015 0 0 0
V 2.91468500 0.00000000 -3.0914268100000015 0 0 0
V 0.00000000 2.06099250 -1.0305628800000015 0 0 0
V 2.91468500 4.12198500 -3.0914268100000015 0 0 0
V 0.00000000 2.06082762 3.03225323
V 2.91462671 4.13550511 1.05543673
V 0.00000000 6.18314238 2.98407651
V 2.91468500 8.23044989 1.05517490
C 2.91445183 2.06173446 5.28922783
O 2.91451012 2.06132226 6.44232715
