&CONTROL
calculation = 'relax'
prefix = 'scf'
pseudo_dir = '/vol0004/mdt0/data/hp150275/u10028/POT_KKJUS'
outdir = './data'
tprnfor = .true.
nstep = 50
disk_io = 'non'
/
&SYSTEM
ibrav = 0
ecutwfc = 50.0
ecutrho = 400
occupations = 'smearing'
smearing = 'mp'
degauss = 0.01
assume_isolated = 'esm'
esm_bc = 'bc1'
input_dft = 'BEEF-VDW'
nosym = .true.
nspin = 1
ntyp = 4
nat = 33
/
&ELECTRONS
electron_maxstep = 200
mixing_beta = 0.1
conv_thr = 1e-06
/
&IONS
ion_dynamics = 'bfgs'
upscale = 1.0
/
&CELL
/

K_POINTS {automatic}
8 6 1 0 0 0

ATOMIC_SPECIES
Ag 107.8 Ag.pbe-n-rrkjus_psl.1.0.0.UPF
C 12.01 C.pbe-n-rrkjus_psl.1.0.0.UPF
Li 6.941 Li.pbe-sl-rrkjus_psl.1.0.0.UPF
Pb 207.2 Pb.pbe-dn-rrkjus_psl.1.0.0.UPF

CELL_PARAMETERS {angstrom}
6.84524000 0.00000000 0.00000000
0.00000000 9.68063000 0.00000000
0.00000000 0.00000000 27.26050000

ATOMIC_POSITIONS {angstrom}
Li 0.00000000 7.26047250 -1.2100935899999996 0 0 0
Li 3.42262000 0.00000000 -3.6302807799999997 0 0 0
Li 0.00000000 2.42015750 -1.2100935899999996 0 0 0
Li 3.42262000 4.84031500 -3.6302807799999997 0 0 0
Li 1.71131000 2.42015750 -3.6302807799999997 0 0 0
Li 1.71131000 7.26047250 -3.6302807799999997 0 0 0
Li 5.13393000 4.84031500 -1.2100935899999996 0 0 0
Li 5.13393000 0.00000000 -1.2100935899999996 0 0 0
Li 6.77685605 2.42015750 3.55913088
Li 3.42795929 4.87206747 1.05470875
Li 0.23513399 7.26047250 3.49752215
Li 3.42795929 9.64887753 1.05470875
Li 1.89161362 7.26047250 1.29187509
Li 1.79311062 2.42015750 1.48051775
Li 4.94390614 9.42825598 3.52505526
Li 4.94383769 5.09268902 3.52505526
Ag 1.71131000 0.00000000 -1.2100935899999996 0 0 0
Ag 1.71131000 4.84031500 -1.2100935899999996 0 0 0
Ag 5.13393000 7.26047250 -3.6302807799999997 0 0 0
Ag 5.13393000 2.42015750 -3.6302807799999997 0 0 0
Ag 1.95951840 4.67012952 3.44000249
Ag 1.95944995 0.17018548 3.44000249
Ag 5.06328712 2.42015750 1.27988047
Ag 4.95663828 7.26047250 1.52522497
Pb 0.00000000 0.00000000 -3.6302807799999997 0 0 0
Pb 3.42262000 2.42015750 -1.2100935899999996 0 0 0
Pb 3.42262000 7.26047250 -1.2100935899999996 0 0 0
Pb 0.00000000 4.84031500 -3.6302807799999997 0 0 0
Pb 6.80896023 4.86703354 1.24471443
Pb 3.19795922 7.26047250 4.09234626
Pb 3.97427789 2.42015750 4.38403361
Pb 6.80889178 9.65391146 1.24471443
C 1.93535471 2.42015750 3.61637793
