&CONTROL
calculation = 'relax'
prefix = 'scf'
pseudo_dir = '/vol0004/mdt0/data/hp150275/u10028/POT_KKJUS'
outdir = './data'
tprnfor = .true.
nstep = 50
disk_io = 'non'
/
&SYSTEM
ibrav = 0
ecutwfc = 50.0
ecutrho = 400
occupations = 'smearing'
smearing = 'mp'
degauss = 0.01
assume_isolated = 'esm'
esm_bc = 'bc1'
input_dft = 'BEEF-VDW'
nosym = .true.
nspin = 1
ntyp = 3
nat = 33
/
&ELECTRONS
electron_maxstep = 200
mixing_beta = 0.1
conv_thr = 1e-06
/
&IONS
ion_dynamics = 'bfgs'
upscale = 1.0
/
&CELL
/

K_POINTS {automatic}
9 6 2 0  0  0

ATOMIC_SPECIES
C 12.01 C.pbe-n-rrkjus_psl.1.0.0.UPF
Ru 101.0 Ru.pbe-spn-rrkjus_psl.1.0.0.UPF
Ta 180.9 Ta.pbe-spn-rrkjus_psl.1.0.0.UPF

CELL_PARAMETERS {angstrom}
6.35210000 0.00000000 0.00000000
0.00000000 8.98322000 0.00000000
0.00000000 0.00000000 26.73740000

ATOMIC_POSITIONS {angstrom}
Ta 1.58802500 2.24580500 -3.3686450299999997 0 0 0
Ta 1.58802500 0.00000000 -1.122970800000001 0 0 0
Ta 1.59050232 2.23583363 1.18740793
Ta 1.62886900 0.00000000 3.47586200
Ta 1.58802500 6.73741500 -3.3686450299999997 0 0 0
Ta 1.58802500 4.49161000 -1.122970800000001 0 0 0
Ta 1.59050232 6.74738637 1.18740793
Ta 1.59240795 4.49161000 3.44404449
Ta 4.76407500 2.24580500 -3.3686450299999997 0 0 0
Ta 4.76407500 0.00000000 -1.122970800000001 0 0 0
Ta 4.76159768 2.23583363 1.18740793
Ta 4.72323100 0.00000000 3.47586200
Ta 4.76407500 6.73741500 -3.3686450299999997 0 0 0
Ta 4.76407500 4.49161000 -1.122970800000001 0 0 0
Ta 4.76159768 6.74738637 1.18740793
Ta 4.75969205 4.49161000 3.44404449
Ru 0.00000000 0.00000000 -3.3686450299999997 0 0 0
Ru 0.00000000 2.24580500 -1.122970800000001 0 0 0
Ru 0.00000000 0.00000000 1.12083181
Ru 0.00000000 2.38693139 3.24271187
Ru 0.00000000 4.49161000 -3.3686450299999997 0 0 0
Ru 0.00000000 6.73741500 -1.122970800000001 0 0 0
Ru 0.00000000 4.49161000 1.20050926
Ru 0.00000000 6.59628861 3.24271187
Ru 3.17605000 0.00000000 -3.3686450299999997 0 0 0
Ru 3.17605000 2.24580500 -1.122970800000001 0 0 0
Ru 3.17605000 0.00000000 1.03313314
Ru 3.17605000 2.25721369 3.20046678
Ru 3.17605000 4.49161000 -3.3686450299999997 0 0 0
Ru 3.17605000 6.73741500 -1.122970800000001 0 0 0
Ru 3.17605000 4.49161000 1.12484242
Ru 3.17605000 6.72600631 3.20046678
C 0.00000000 0.00000000 4.59214845
