&CONTROL
calculation = 'relax'
prefix = 'scf'
pseudo_dir = '/vol0403/data/hp230205/u10028/POT_HYBRID_KKJUS_GBRV'
outdir = './data'
tprnfor = .true.
nstep = 70
disk_io = 'non'
/
&SYSTEM
ibrav = 0
ecutwfc = 50.0
ecutrho = 400
occupations = 'smearing'
smearing = 'mp'
degauss = 0.01
assume_isolated = 'esm'
esm_bc = 'bc1'
input_dft = 'BEEF-VDW'
nosym = .true.
nspin = 1
ntyp = 5
nat = 33
/
&ELECTRONS
electron_maxstep = 200
mixing_beta = 0.1
conv_thr = 1e-06
/
&IONS
ion_dynamics = 'bfgs'
upscale = 1.0
/
&CELL
/

K_POINTS {automatic}
9 6 2 0  0  0

ATOMIC_SPECIES
C 12.01 C.pbe-n-rrkjus_psl.1.0.0.UPF
Cu 63.54 Cu.pbe-dn-rrkjus_psl.1.0.0.UPF
Ga 69.72 Ga.pbe-dnl-rrkjus_psl.1.0.0.UPF
Pd 106.4 Pd.pbe-n-rrkjus_psl.1.0.0.UPF
Y 88.90 Y.pbe-spn-rrkjus_psl.1.0.0.UPF


CELL_PARAMETERS {angstrom}
6.59466000 0.00000000 0.00000000
-0.00000000 9.32626000 0.00000000
0.00000000 0.00000000 26.99470000

ATOMIC_POSITIONS {angstrom}
Y 4.94599500 0.00000000 -1.165901090000002 0 0 0
Y 4.94599500 4.66313000 -1.165901090000002 0 0 0
Y 1.64866500 2.33156500 -3.4974333300000033 0 0 0
Y 1.64866500 6.99469500 -3.4974333300000033 0 0 0
Y 4.32886672 4.66611440 3.63618609
Y 4.32886672 9.32327560 3.63618609
Y 1.56484687 6.99469500 1.29547565
Y 1.50720954 2.33156500 1.30465385
Ga 1.64866500 0.00000000 -1.165901090000002 0 0 0
Ga 1.64866500 4.66313000 -1.165901090000002 0 0 0
Ga 4.94599500 2.33156500 -3.4974333300000033 0 0 0
Ga 4.94599500 6.99469500 -3.4974333300000033 0 0 0
Ga 1.13540261 4.66145127 3.56168072
Ga 1.13540261 0.00167873 3.56168072
Ga 4.84067828 6.99469500 1.05279330
Ga 4.76127857 2.33156500 1.33299829
Cu 0.00000000 0.00000000 -3.4974333300000033 0 0 0
Cu 0.00000000 4.66313000 -3.4974333300000033 0 0 0
Cu 3.29733000 6.99469500 -1.165901090000002 0 0 0
Cu 3.29733000 2.33156500 -1.165901090000002 0 0 0
Cu 6.20531127 4.70164745 1.45906354
Cu 6.20531127 9.28764928 1.45906354
Cu 2.36510886 2.33156500 3.98954671
Cu 2.16449931 6.99469500 4.11615186
Pd 0.00000000 2.33156500 -1.165901090000002 0 0 0
Pd 0.00000000 6.99469500 -1.165901090000002 0 0 0
Pd 3.29733000 4.66313000 -3.4974333300000033 0 0 0
Pd 3.29733000 0.00000000 -3.4974333300000033 0 0 0
Pd 6.20247557 6.99469500 3.28660473
Pd 6.39899644 2.33156500 3.62133900
Pd 3.22881148 9.29669576 1.00636242
Pd 3.22881148 4.69260098 1.00636242
C 4.23396956 2.33156500 3.44884287
