&CONTROL
calculation = 'relax'
prefix = 'scf'
pseudo_dir = '/vol0403/data/hp230205/u10028/POT_HYBRID_KKJUS_GBRV'
outdir = './data'
tprnfor = .true.
nstep = 50
disk_io = 'non'
/
&SYSTEM
ibrav = 0
ecutwfc = 50.0
ecutrho = 400
occupations = 'smearing'
smearing = 'mp'
degauss = 0.01
assume_isolated = 'esm'
esm_bc = 'bc1'
input_dft = 'BEEF-VDW'
nosym = .true.
nspin = 2
ntyp = 5
nat = 17
starting_magnetization(1) = 0.0
starting_magnetization(2) = 0.1
starting_magnetization(3) = 0.0
starting_magnetization(4) = 0.0
starting_magnetization(5) = 0.0
/
&ELECTRONS
electron_maxstep = 400
mixing_beta = 0.05
conv_thr = 1e-06
/
&IONS
ion_dynamics = 'bfgs'
upscale = 1.0
/
&CELL
/

K_POINTS {automatic}
10 10 2 0  0  0

ATOMIC_SPECIES
C 12.01 C.pbe-n-rrkjus_psl.1.0.0.UPF
Co 58.93 co_pbe_v1.2.uspp.F.UPF
Ge 72.64 Ge.pbe-dn-rrkjus_psl.1.0.0.UPF
Li 6.941 Li.pbe-sl-rrkjus_psl.1.0.0.UPF
Pd 106.4 Pd.pbe-n-rrkjus_psl.1.0.0.UPF


CELL_PARAMETERS {angstrom}
5.88348000 0.00000000 0.00000000
0.00000000 5.88348000 0.00000000
0.00000000 0.00000000 24.41260000

ATOMIC_POSITIONS {angstrom}
Li 4.41255117 1.47087000 0.87372695
Li 4.41261000 4.41261000 22.20618921
Li 1.47087000 1.47087000 22.20618921
Li 1.47087000 4.41261000 0.87372695
Co 0.24810635 0.24816519 2.35606003
Co 0.00000000 2.94174000 23.67704836
Co 2.94174000 0.00000000 23.67704836
Co 2.69363365 2.69363365 2.35630415
Ge 1.47081117 1.47104650 0.61324451
Ge 1.47087000 4.41261000 22.20618921
Ge 4.41261000 1.47087000 22.20618921
Ge 4.41261000 4.41261000 0.80878944
Pd 5.78322550 3.04199450 2.40854712
Pd 0.00000000 0.00000000 23.67704836
Pd 2.94174000 2.94174000 23.67704836
Pd 3.04199450 5.78328434 2.40830299
C 1.47087000 1.47087000 2.82063180
