&CONTROL
calculation = 'relax'
prefix = 'scf'
pseudo_dir = '/vol0004/mdt0/data/hp150275/u10028/POT_KKJUS'
outdir = './data'
tprnfor = .true.
nstep = 50
disk_io = 'non'
/
&SYSTEM
ibrav = 0
ecutwfc = 50.0
ecutrho = 400
occupations = 'smearing'
smearing = 'mp'
degauss = 0.01
assume_isolated = 'esm'
esm_bc = 'bc1'
input_dft = 'BEEF-VDW'
nosym = .true.
nspin = 1
ntyp = 5
nat = 34
/
&ELECTRONS
electron_maxstep = 200
mixing_beta = 0.1
conv_thr = 1e-06
/
&IONS
ion_dynamics = 'bfgs'
upscale = 1.0
/
&CELL
/

K_POINTS {automatic}
8 6 1 0 0 0

ATOMIC_SPECIES
C 12.01 C.pbe-n-rrkjus_psl.1.0.0.UPF
In 114.8 In.pbe-dn-rrkjus_psl.1.0.0.UPF
Li 6.941 Li.pbe-sl-rrkjus_psl.1.0.0.UPF
O 15.99 O.pbe-n-rrkjus_psl.1.0.0.UPF
Rh 102.9 Rh.pbe-spn-rrkjus_psl.1.0.0.UPF

CELL_PARAMETERS {angstrom}
6.57920000 0.00000000 0.00000000
0.00000000 9.30439000 0.00000000
0.00000000 0.00000000 26.97830000

ATOMIC_POSITIONS {angstrom}
Li 0.00000000 0.00000000 -3.489103540000002 0 0 0
Li 3.28960000 2.32609750 -1.1630345099999992 0 0 0
Li 3.28960000 6.97829250 -1.1630345099999992 0 0 0
Li 0.00000000 4.65219500 -3.489103540000002 0 0 0
Li 0.00000000 4.64800802 1.15467124
Li 3.28960000 6.97829250 3.73676433
Li 3.28960000 2.32609750 3.87759106
Li 0.00000000 0.00418698 1.15440146
In 1.64480000 0.00000000 -1.1630345099999992 0 0 0
In 4.93440000 4.65219500 -1.1630345099999992 0 0 0
In 4.93440000 0.00000000 -1.1630345099999992 0 0 0
In 1.64480000 4.65219500 -1.1630345099999992 0 0 0
In 4.93440000 6.97829250 -3.489103540000002 0 0 0
In 1.64480000 2.32609750 -3.489103540000002 0 0 0
In 1.64480000 6.97829250 -3.489103540000002 0 0 0
In 4.93440000 2.32609750 -3.489103540000002 0 0 0
In 1.57216563 4.66038286 3.61185480
In 5.00716595 9.29629518 3.61185480
In 5.00703437 4.66038286 3.61185480
In 1.57203405 9.29629518 3.61185480
In 4.87860838 2.32609750 1.18569629
In 1.68901222 6.97819946 1.17787258
In 1.70059162 2.32609750 1.18569629
In 4.89018778 6.97819946 1.17787258
Rh 0.00000000 6.97829250 -1.1630345099999992 0 0 0
Rh 3.28960000 0.00000000 -3.489103540000002 0 0 0
Rh 0.00000000 2.32609750 -1.1630345099999992 0 0 0
Rh 3.28960000 4.65219500 -3.489103540000002 0 0 0
Rh 0.00000000 2.32600446 3.29108282
Rh 3.28960000 4.65303240 1.09073267
Rh 0.00000000 6.97838554 3.31428416
Rh 3.28960000 9.30364565 1.09073267
C 3.28960000 2.32609750 5.98540564
O 3.28960000 2.32609750 7.12658773
