&CONTROL
calculation = 'relax'
prefix = 'scf'
pseudo_dir = '/vol0403/data/hp230205/u10028/POT_HYBRID_KKJUS_GBRV'
outdir = './data'
tprnfor = .true.
nstep = 70
disk_io = 'non'
/
&SYSTEM
ibrav = 0
ecutwfc = 50.0
ecutrho = 400
occupations = 'smearing'
smearing = 'mp'
degauss = 0.01
assume_isolated = 'esm'
esm_bc = 'bc1'
input_dft = 'BEEF-VDW'
nosym = .true.
nspin = 1
ntyp = 4
nat = 32
/
&ELECTRONS
electron_maxstep = 200
mixing_beta = 0.1
conv_thr = 1e-06
/
&IONS
ion_dynamics = 'bfgs'
upscale = 1.0
/
&CELL
/

K_POINTS {automatic}
6 6 1 0 0 0

ATOMIC_SPECIES
Au 196.9 Au.pbe-n-rrkjus_psl.1.0.0.UPF
Cu 63.54 Cu.pbe-dn-rrkjus_psl.1.0.0.UPF
In 114.8 In.pbe-dn-rrkjus_psl.1.0.0.UPF
Li 6.941 Li.pbe-sl-rrkjus_psl.1.0.0.UPF


CELL_PARAMETERS {angstrom}
6.41124000 0.00000000 0.00000000
-0.00000000 9.06686000 0.00000000
0.00000000 0.00000000 26.80010000

ATOMIC_POSITIONS {angstrom}
Li 4.80843000 0.00000000 -1.1333762299999997 0 0 0
Li 4.80843000 4.53343000 -1.1333762299999997 0 0 0
Li 1.60281000 2.26671500 -3.400128689999999 0 0 0
Li 1.60281000 6.80014500 -3.400128689999999 0 0 0
Li 4.68821925 4.53343000 3.62846554
Li 4.68834747 -0.00000000 3.62846554
Li 1.51895098 6.80014500 1.17625639
Li 1.51901509 2.26671500 1.17625639
In 0.00000000 2.26671500 -1.1333762299999997 0 0 0
In 0.00000000 6.80014500 -1.1333762299999997 0 0 0
In 3.20562000 4.53343000 -3.400128689999999 0 0 0
In 3.20562000 0.00000000 -3.400128689999999 0 0 0
In 0.07949938 6.80014500 3.76702206
In 0.07943526 2.26671500 3.76675406
In 3.24774185 -0.00000000 1.12346019
In 3.24774185 4.53333933 1.12131618
Cu 1.60281000 0.00000000 -1.1333762299999997 0 0 0
Cu 1.60281000 4.53343000 -1.1333762299999997 0 0 0
Cu 4.80843000 2.26671500 -3.400128689999999 0 0 0
Cu 4.80843000 6.80014500 -3.400128689999999 0 0 0
Cu 1.56517602 4.53352067 3.30311232
Cu 1.56511191 -0.00000000 3.30311232
Cu 4.89369949 6.80005433 1.18402842
Cu 4.89369949 2.26671500 1.18402842
Au 0.00000000 0.00000000 -3.400128689999999 0 0 0
Au 0.00000000 4.53343000 -3.400128689999999 0 0 0
Au 3.20562000 6.80014500 -1.1333762299999997 0 0 0
Au 3.20562000 2.26671500 -1.1333762299999997 0 0 0
Au 6.36681011 4.53343000 1.12640820
Au 6.36674599 -0.00000000 1.12640820
Au 3.14605958 2.26680567 3.26666419
Au 3.14605958 6.80014500 3.26666419
