&CONTROL
calculation = 'relax'
prefix = 'scf'
pseudo_dir = '/vol0403/data/hp230205/u10028/POT_HYBRID_KKJUS_GBRV'
outdir = './data'
tprnfor = .true.
nstep = 50
disk_io = 'non'
/
&SYSTEM
ibrav = 0
ecutwfc = 50.0
ecutrho = 400
occupations = 'smearing'
smearing = 'mp'
degauss = 0.01
assume_isolated = 'esm'
esm_bc = 'bc1'
input_dft = 'BEEF-VDW'
nosym = .true.
nspin = 1
ntyp = 6
nat = 34
/
&ELECTRONS
electron_maxstep = 200
mixing_beta = 0.1
conv_thr = 1e-06
/
&IONS
ion_dynamics = 'bfgs'
upscale = 1.0
/
&CELL
/

K_POINTS {automatic}
7 7 2 0  0  0

ATOMIC_SPECIES
C 12.01 C.pbe-n-rrkjus_psl.1.0.0.UPF
Ga 69.72 Ga.pbe-dnl-rrkjus_psl.1.0.0.UPF
Ge 72.64 Ge.pbe-dn-rrkjus_psl.1.0.0.UPF
O 15.99 O.pbe-n-rrkjus_psl.1.0.0.UPF
Pd 106.4 Pd.pbe-n-rrkjus_psl.1.0.0.UPF
Sc 44.95 Sc.pbe-spn-rrkjus_psl.1.0.0.UPF


CELL_PARAMETERS {angstrom}
8.08666000 0.00000000 0.00000000
0.00000000 8.58414000 0.00000000
0.00000000 0.00000000 25.87790000

ATOMIC_POSITIONS {angstrom}
Sc 2.02166500 2.14603500 -2.938953099999999 0 0 0
Sc 2.08619655 2.14594916 1.06125268
Sc 2.02166500 6.43810500 -2.938953099999999 0 0 0
Sc 2.13398871 6.43810500 1.01958926
Sc 6.06499500 2.14603500 -2.938953099999999 0 0 0
Sc 6.00038259 2.14594916 1.06125268
Sc 6.06499500 6.43810500 -2.938953099999999 0 0 0
Sc 5.95267129 6.43810500 1.01958926
Ga 0.00000000 0.00000000 -2.938953099999999 0 0 0
Ga 0.00000000 8.49366316 0.81282484
Ga 0.00000000 4.29207000 -2.938953099999999 0 0 0
Ga 0.00000000 4.38237515 0.81230728
Ga 4.04333000 0.00000000 -2.938953099999999 0 0 0
Ga 4.04333000 0.00334781 1.63418938
Ga 4.04333000 4.29207000 -2.938953099999999 0 0 0
Ga 4.04333000 4.28872219 1.63574206
Ge 0.00000000 2.14603500 -0.9797372899999992 0 0 0
Ge 0.00000000 2.14560579 3.22645657
Ge 0.00000000 6.43810500 -0.9797372899999992 0 0 0
Ge 0.00000000 6.43853421 2.98941501
Ge 4.04333000 2.14603500 -0.9797372899999992 0 0 0
Ge 4.04324913 2.14509074 3.31107731
Ge 4.04333000 6.43810500 -0.9797372899999992 0 0 0
Ge 4.04324913 6.43922094 3.29192766
Pd 2.02166500 0.00000000 -0.9797372899999992 0 0 0
Pd 1.64789957 0.02935776 2.86985911
Pd 2.02166500 4.29207000 -0.9797372899999992 0 0 0
Pd 1.64684831 4.26271224 2.86934155
Pd 6.06499500 0.00000000 -0.9797372899999992 0 0 0
Pd 6.43876043 0.02935776 2.86985911
Pd 6.06499500 4.29207000 -0.9797372899999992 0 0 0
Pd 6.43989256 4.26271224 2.86934155
C 8.08657913 2.14586332 5.20275180
O 8.08649827 2.14612084 6.35690614
