&CONTROL
calculation = 'relax'
prefix = 'scf'
pseudo_dir = '/vol0004/mdt0/data/hp150275/u10028/POT_HYBRID_KKJUS_GBRV'
outdir = './data'
tprnfor = .true.
nstep = 50
disk_io = 'non'
/
&SYSTEM
ibrav = 0
ecutwfc = 50.0
ecutrho = 400
occupations = 'smearing'
smearing = 'mp'
degauss = 0.01
assume_isolated = 'esm'
esm_bc = 'bc1'
input_dft = 'BEEF-VDW'
nosym = .true.
nspin = 2
ntyp = 4
nat = 34
starting_magnetization(1) = 0.0
starting_magnetization(2) = 0.1
starting_magnetization(3) = 0.0
starting_magnetization(4) = 0.0
/
&ELECTRONS
electron_maxstep = 200
mixing_beta = 0.1
conv_thr = 1e-06
/
&IONS
ion_dynamics = 'bfgs'
upscale = 1.0
/
&CELL
/

K_POINTS {automatic}
9 6 2 0  0  0

ATOMIC_SPECIES
C 12.01 C.pbe-n-rrkjus_psl.1.0.0.UPF
Co 58.93 co_pbe_v1.2.uspp.F.UPF
O 15.99 O.pbe-n-rrkjus_psl.1.0.0.UPF
Zr 91.22 Zr.pbe-spn-rrkjus_psl.1.0.0.UPF

CELL_PARAMETERS {angstrom}
6.40088000 0.00000000 0.00000000
0.00000000 9.05221000 0.00000000
0.00000000 0.00000000 26.78920000

ATOMIC_POSITIONS {angstrom}
Zr 0.00000000 0.00000000 23.39474047
Zr 0.00000000 2.26305250 25.65762419
Zr 0.00000000 9.05184791 1.14523830
Zr 0.00000000 2.26305250 3.26051353
Zr 0.00000000 4.52610500 23.39474047
Zr 0.00000000 6.78915750 25.65762419
Zr 0.00000000 4.52646709 1.14523830
Zr 0.00000000 6.78915750 3.40383575
Zr 3.20044000 0.00000000 23.39474047
Zr 3.20044000 2.26305250 25.65762419
Zr 3.20044000 0.00181044 1.14630987
Zr 3.20044000 2.26305250 3.40544310
Zr 3.20044000 4.52610500 23.39474047
Zr 3.20044000 6.78915750 25.65762419
Zr 3.20044000 4.52429456 1.14630987
Zr 3.20044000 6.78915750 3.40490732
Co 1.60022000 2.26305250 23.39474047
Co 1.60022000 0.00000000 25.65762419
Co 1.60726097 2.26305250 1.12862900
Co 1.60041203 4.53063110 3.36847401
Co 1.60022000 6.78915750 23.39474047
Co 1.60022000 4.52610500 25.65762419
Co 1.60009198 6.78915750 1.13639786
Co 1.60041203 9.04768390 3.36847401
Co 4.80066000 2.26305250 23.39474047
Co 4.80066000 0.00000000 25.65762419
Co 4.79361903 2.26305250 1.12862900
Co 4.80046797 4.53063111 3.36847401
Co 4.80066000 6.78915750 23.39474047
Co 4.80066000 4.52610500 25.65762419
Co 4.80078802 6.78915750 1.13639786
Co 4.80046797 9.04768390 3.36847401
C 0.00000000 2.26305250 5.40257796
O 0.00000000 2.26305250 6.48754056
