&CONTROL
calculation = 'relax'
prefix = 'scf'
pseudo_dir = '/vol0403/data/hp230205/u10028/POT_HYBRID_KKJUS_GBRV'
outdir = './data'
tprnfor = .true.
nstep = 70
disk_io = 'non'
/
&SYSTEM
ibrav = 0
ecutwfc = 50.0
ecutrho = 400
occupations = 'smearing'
smearing = 'mp'
degauss = 0.01
assume_isolated = 'esm'
esm_bc = 'bc1'
input_dft = 'BEEF-VDW'
nosym = .true.
nspin = 1
ntyp = 5
nat = 33
/
&ELECTRONS
electron_maxstep = 200
mixing_beta = 0.1
conv_thr = 1e-06
/
&IONS
ion_dynamics = 'bfgs'
upscale = 1.0
/
&CELL
/

K_POINTS {automatic}
9 6 2 0  0  0

ATOMIC_SPECIES
Al 26.98 Al.pbe-nl-rrkjus_psl.1.0.0.UPF
C 12.01 C.pbe-n-rrkjus_psl.1.0.0.UPF
Li 6.941 Li.pbe-sl-rrkjus_psl.1.0.0.UPF
Pd 106.4 Pd.pbe-n-rrkjus_psl.1.0.0.UPF
Pt 195.0 Pt.pbe-n-rrkjus_psl.1.0.0.UPF


CELL_PARAMETERS {angstrom}
6.06122000 0.00000000 0.00000000
-0.00000000 8.57186000 0.00000000
0.00000000 0.00000000 26.42890000

ATOMIC_POSITIONS {angstrom}
Li 0.00000000 2.14296500 -1.071427609999997 0 0 0
Li 0.00000000 6.42889500 -1.071427609999997 0 0 0
Li 3.03061000 4.28593000 -3.214547109999998 0 0 0
Li 3.03061000 0.00000000 -3.214547109999998 0 0 0
Li 0.07855341 6.42889500 3.61018774
Li 5.66766499 2.14296500 4.50586316
Li 3.01472960 0.00660033 1.07962056
Li 3.01472960 4.27932967 1.07962056
Al 0.00000000 0.00000000 -3.214547109999998 0 0 0
Al 0.00000000 4.28593000 -3.214547109999998 0 0 0
Al 3.03061000 6.42889500 -1.071427609999997 0 0 0
Al 3.03061000 2.14296500 -1.071427609999997 0 0 0
Al 6.05703776 4.29673054 1.08649208
Al 6.05709837 8.56105946 1.08649208
Al 3.32524590 2.14296500 3.12680316
Al 2.91253743 6.42889500 3.17886809
Pd 4.54591500 0.00000000 -1.071427609999997 0 0 0
Pd 4.54591500 4.28593000 -1.071427609999997 0 0 0
Pd 1.51530500 2.14296500 -3.214547109999998 0 0 0
Pd 1.51530500 6.42889500 -3.214547109999998 0 0 0
Pd 4.49797075 4.35544778 3.15957499
Pd 4.49797075 8.50234222 3.15931071
Pd 1.46232994 6.42889500 1.12666401
Pd 1.51554745 2.14296500 1.01143400
Pt 1.51530500 0.00000000 -1.071427609999997 0 0 0
Pt 1.51530500 4.28593000 -1.071427609999997 0 0 0
Pt 4.54591500 2.14296500 -3.214547109999998 0 0 0
Pt 4.54591500 6.42889500 -3.214547109999998 0 0 0
Pt 1.46657279 4.11534999 3.17754665
Pt 1.46657279 0.17058001 3.17754665
Pt 4.53542909 6.42889500 1.08305632
Pt 4.60501189 2.14296500 1.01275545
C 1.45457158 2.14296500 3.74259653
