&CONTROL
calculation = 'relax'
prefix = 'scf'
pseudo_dir = '/vol0004/mdt0/data/hp150275/u10028/POT_HYBRID_KKJUS_GBRV'
outdir = './data'
tprnfor = .true.
nstep = 50
disk_io = 'non'
/
&SYSTEM
ibrav = 0
ecutwfc = 50.0
ecutrho = 400
occupations = 'smearing'
smearing = 'mp'
degauss = 0.01
assume_isolated = 'esm'
esm_bc = 'bc1'
input_dft = 'BEEF-VDW'
nosym = .true.
nspin = 2
ntyp = 4
nat = 33
starting_magnetization(1) = 0.0
starting_magnetization(2) = 0.1
starting_magnetization(3) = 0.1
starting_magnetization(4) = 0.0
/
&ELECTRONS
electron_maxstep = 300
mixing_beta = 0.1
conv_thr = 1e-06
/
&IONS
ion_dynamics = 'bfgs'
upscale = 1.0
/
&CELL
/

K_POINTS {automatic}
8 6 1 0 0 0

ATOMIC_SPECIES
C 12.01 C.pbe-n-rrkjus_psl.1.0.0.UPF
Co 58.93 co_pbe_v1.2.uspp.F.UPF
Fe 55.84 fe_pbe_v1.5.uspp.F.UPF
Ga 69.72 Ga.pbe-dnl-rrkjus_psl.1.0.0.UPF

CELL_PARAMETERS {angstrom}
5.74310000 0.00000000 0.00000000
0.00000000 8.12197000 0.00000000
0.00000000 0.00000000 26.09150000

ATOMIC_POSITIONS {angstrom}
Ga 0.00000000 0.00000000 -3.0456607899999995 0 0 0
Ga 2.87155000 2.03049250 -1.0152202700000004 0 0 0
Ga 2.87155000 6.09147750 -1.0152202700000004 0 0 0
Ga 0.00000000 4.06098500 -3.0456607899999995 0 0 0
Ga 0.01062474 4.05099498 1.01809033
Ga 2.79700456 6.09147750 3.20977633
Ga 3.26409089 2.03081738 3.93120630
Ga 0.01062474 0.00990880 1.01809033
Fe 0.00000000 6.09147750 -1.0152202700000004 0 0 0
Fe 2.87155000 0.00000000 -3.0456607899999995 0 0 0
Fe 0.00000000 2.03049250 -1.0152202700000004 0 0 0
Fe 2.87155000 4.06098500 -3.0456607899999995 0 0 0
Fe 5.43888799 2.03049250 2.98721583
Fe 2.89360350 4.08202090 0.99669530
Fe 0.03325255 6.09147750 2.99843518
Fe 2.89360350 8.10085288 0.99669530
Co 1.43577500 0.00000000 -1.0152202700000004 0 0 0
Co 4.30732500 4.06098500 -1.0152202700000004 0 0 0
Co 4.30732500 0.00000000 -1.0152202700000004 0 0 0
Co 1.43577500 4.06098500 -1.0152202700000004 0 0 0
Co 4.30732500 6.09147750 -3.0456607899999995 0 0 0
Co 1.43577500 2.03049250 -3.0456607899999995 0 0 0
Co 1.43577500 6.09147750 -3.0456607899999995 0 0 0
Co 4.30732500 2.03049250 -3.0456607899999995 0 0 0
Co 1.55511662 3.91608906 2.97938839
Co 4.26666385 8.07502501 2.98799858
Co 4.26689358 4.10825487 2.98799858
Co 1.55511662 0.14473351 2.97912747
Co 4.24874538 2.03041128 1.00843647
Co 1.44410250 6.09155872 1.04548641
Co 1.48441906 2.03041128 1.12532640
Co 4.31002426 6.09147750 1.05514026
C 1.46385876 2.03033006 3.13254549
