&CONTROL
calculation = 'relax'
prefix = 'scf'
pseudo_dir = '/vol0403/data/hp230205/u10028/POT_HYBRID_KKJUS_GBRV'
outdir = './data'
tprnfor = .true.
nstep = 50
disk_io = 'non'
/
&SYSTEM
ibrav = 0
ecutwfc = 50.0
ecutrho = 400
occupations = 'smearing'
smearing = 'mp'
degauss = 0.01
assume_isolated = 'esm'
esm_bc = 'bc1'
input_dft = 'BEEF-VDW'
nosym = .true.
nspin = 2
ntyp = 5
nat = 33
starting_magnetization(1) = 0.0
starting_magnetization(2) = 0.0
starting_magnetization(3) = 0.0
starting_magnetization(4) = 0.001
starting_magnetization(5) = 0.0
/
&ELECTRONS
electron_maxstep = 400
mixing_beta = 0.05
conv_thr = 1e-06
/
&IONS
ion_dynamics = 'bfgs'
upscale = 1.0
/
&CELL
/

K_POINTS {automatic}
9 6 2 0  0  0

ATOMIC_SPECIES
C 12.01 C.pbe-n-rrkjus_psl.1.0.0.UPF
Ge 72.64 Ge.pbe-dn-rrkjus_psl.1.0.0.UPF
Li 6.941 Li.pbe-sl-rrkjus_psl.1.0.0.UPF
Ni 58.69 ni_pbe_v1.4.uspp.F.UPF
Pd 106.4 Pd.pbe-n-rrkjus_psl.1.0.0.UPF


CELL_PARAMETERS {angstrom}
5.93854000 0.00000000 0.00000000
0.00000000 8.39836000 0.00000000
0.00000000 0.00000000 26.29880000

ATOMIC_POSITIONS {angstrom}
Li 0.00000000 2.09959000 25.24895190
Li 0.00000000 6.29877000 25.24895190
Li 2.96927000 4.19918000 23.14951870
Li 2.96927000 0.00000000 23.14951870
Li 5.88693409 6.16867940 3.61319213
Li 5.88693409 2.22968060 3.61319213
Li 2.93631110 0.00000000 1.08429952
Li 2.94349674 4.19918000 0.94570485
Ni 4.45390500 0.00000000 25.24895190
Ni 4.45390500 4.19918000 25.24895190
Ni 1.48463500 2.09959000 23.14951870
Ni 1.48463500 6.29877000 23.14951870
Ni 4.29778078 4.19918000 2.94651755
Ni 4.64655124 0.00000000 2.91495899
Ni 1.46765078 6.27147533 1.10717948
Ni 1.46765078 2.12688467 1.10744247
Ge 0.00000000 0.00000000 23.14951870
Ge 0.00000000 4.19918000 23.14951870
Ge 2.96927000 6.29877000 25.24895190
Ge 2.96927000 2.09959000 25.24895190
Ge 0.02019104 4.19918000 1.12874450
Ge 5.91520154 0.00000000 0.89863000
Ge 3.02936802 2.03735815 3.31207087
Ge 3.02936802 6.36100185 3.31207087
Pd 1.48463500 0.00000000 25.24895190
Pd 1.48463500 4.19918000 25.24895190
Pd 4.45390500 2.09959000 23.14951870
Pd 4.45390500 6.29877000 23.14951870
Pd 1.62436885 4.19918000 3.09037199
Pd 1.24697463 8.39827602 3.02462499
Pd 4.43585184 6.27029956 1.08666642
Pd 4.43585184 2.12814442 1.08666642
C 3.11001340 0.00000000 3.82200460
