&CONTROL
calculation = 'relax'
prefix = 'scf'
pseudo_dir = '/vol0004/mdt0/data/hp150275/u10028/POT_KKJUS'
outdir = './data'
tprnfor = .true.
nstep = 50
disk_io = 'non'
/
&SYSTEM
ibrav = 0
ecutwfc = 50.0
ecutrho = 400
occupations = 'smearing'
smearing = 'mp'
degauss = 0.01
assume_isolated = 'esm'
esm_bc = 'bc1'
input_dft = 'BEEF-VDW'
nosym = .true.
nspin = 1
ntyp = 4
nat = 34
/
&ELECTRONS
electron_maxstep = 200
mixing_beta = 0.1
conv_thr = 1e-06
/
&IONS
ion_dynamics = 'bfgs'
upscale = 1.0
/
&CELL
/

K_POINTS {automatic}
9 6 2 0  0  0

ATOMIC_SPECIES
C 12.01 C.pbe-n-rrkjus_psl.1.0.0.UPF
Mg 24.30 Mg.pbe-spnl-rrkjus_psl.1.0.0.UPF
O 15.99 O.pbe-n-rrkjus_psl.1.0.0.UPF
Pd 106.4 Pd.pbe-n-rrkjus_psl.1.0.0.UPF

CELL_PARAMETERS {angstrom}
6.43103000 0.00000000 0.00000000
0.00000000 9.09485000 0.00000000
0.00000000 0.00000000 26.82110000

ATOMIC_POSITIONS {angstrom}
Mg 0.00000000 0.00000000 -3.4105710800000004 0 0 0
Mg 0.00000000 2.27371250 -1.1369464300000018 0 0 0
Mg 0.00636672 4.54742500 1.10234721
Mg 6.41527398 2.30390740 3.45858085
Mg 0.00000000 4.54742500 -3.4105710800000004 0 0 0
Mg 0.00000000 6.82113750 -1.1369464300000018 0 0 0
Mg 0.01151154 0.00000000 1.10476111
Mg 6.41527398 6.79094260 3.45858085
Mg 3.21551500 0.00000000 -3.4105710800000004 0 0 0
Mg 3.21551500 2.27371250 -1.1369464300000018 0 0 0
Mg 3.20914828 4.54742500 1.10234721
Mg 3.23127102 2.30390740 3.45858085
Mg 3.21551500 4.54742500 -3.4105710800000004 0 0 0
Mg 3.21551500 6.82113750 -1.1369464300000018 0 0 0
Mg 3.20400346 0.00000000 1.10476111
Mg 3.23127102 6.79094260 3.45858085
Pd 1.60775750 2.27371250 -3.4105710800000004 0 0 0
Pd 1.60775750 0.00000000 -1.1369464300000018 0 0 0
Pd 1.60775750 2.24660985 1.17476418
Pd 1.60775750 4.54742500 3.27351526
Pd 1.60775750 6.82113750 -3.4105710800000004 0 0 0
Pd 1.60775750 4.54742500 -1.1369464300000018 0 0 0
Pd 1.60775750 6.84824015 1.17476418
Pd 1.60775750 0.00000000 3.45375305
Pd 4.82327250 2.27371250 -3.4105710800000004 0 0 0
Pd 4.82327250 0.00000000 -1.1369464300000018 0 0 0
Pd 4.82327250 2.26825559 1.14687024
Pd 4.82327250 4.54742500 3.26841925
Pd 4.82327250 6.82113750 -3.4105710800000004 0 0 0
Pd 4.82327250 4.54742500 -1.1369464300000018 0 0 0
Pd 4.82327250 6.82650346 1.14687024
Pd 4.82327250 0.00000000 3.24240278
C 1.60775750 0.00000000 5.40606092
O 1.60775750 0.00000000 6.56124569
