&CONTROL
calculation = 'relax'
prefix = 'scf'
pseudo_dir = '/vol0403/data/hp230205/u10028/POT_HYBRID_KKJUS_GBRV'
outdir = './data'
tprnfor = .true.
nstep = 50
disk_io = 'non'
/
&SYSTEM
ibrav = 0
ecutwfc = 50.0
ecutrho = 400
occupations = 'smearing'
smearing = 'mp'
degauss = 0.01
assume_isolated = 'esm'
esm_bc = 'bc1'
input_dft = 'BEEF-VDW'
nosym = .true.
nspin = 1
ntyp = 4
nat = 32
/
&ELECTRONS
electron_maxstep = 200
mixing_beta = 0.1
conv_thr = 1e-06
/
&IONS
ion_dynamics = 'bfgs'
upscale = 1.0
/
&CELL
/

K_POINTS {automatic}
7 8 2 0  0  0

ATOMIC_SPECIES
Ga 69.72 Ga.pbe-dnl-rrkjus_psl.1.0.0.UPF
Ge 72.64 Ge.pbe-dn-rrkjus_psl.1.0.0.UPF
Pd 106.4 Pd.pbe-n-rrkjus_psl.1.0.0.UPF
Sc 44.95 Sc.pbe-spn-rrkjus_psl.1.0.0.UPF


CELL_PARAMETERS {angstrom}
8.58414000 0.00000000 0.00000000
0.00000000 7.83718000 0.00000000
0.00000000 0.00000000 26.06500000

ATOMIC_POSITIONS {angstrom}
Sc 2.14612084 0.00000000 0.98421440
Sc 2.14603500 0.00000000 -3.0324021000000023 0 0 0
Sc 2.14603500 3.91851163 0.98473570
Sc 2.14603500 3.91859000 -3.0324021000000023 0 0 0
Sc 6.43819084 7.83702326 0.98447505
Sc 6.43810500 0.00000000 -3.0324021000000023 0 0 0
Sc 6.43801916 3.91882512 0.98473570
Sc 6.43810500 3.91859000 -3.0324021000000023 0 0 0
Ga 0.00017168 7.83702326 3.04621655
Ga 0.00000000 0.00000000 -1.0108007000000008 0 0 0
Ga 0.00008584 3.91882512 3.04595590
Ga 0.00000000 3.91859000 -1.0108007000000008 0 0 0
Ga 4.29198416 7.83710163 3.04621655
Ga 4.29207000 0.00000000 -1.0108007000000008 0 0 0
Ga 4.29189832 3.91874674 3.04621655
Ga 4.29207000 3.91859000 -1.0108007000000008 0 0 0
Ge 2.14586332 1.95858965 3.17523830
Ge 2.14603500 1.95929500 -1.0108007000000008 0 0 0
Ge 2.14586332 5.87812012 3.17575960
Ge 2.14603500 5.87788500 -1.0108007000000008 0 0 0
Ge 6.43793332 1.95960849 3.17419570
Ge 6.43810500 1.95929500 -1.0108007000000008 0 0 0
Ge 6.43862005 5.87804174 3.17523830
Ge 6.43810500 5.87788500 -1.0108007000000008 0 0 0
Pd 0.00008584 1.95921663 1.04833430
Pd 0.00000000 1.95929500 -3.0324021000000023 0 0 0
Pd 0.00008584 5.87788500 1.04833430
Pd 0.00000000 5.87788500 -3.0324021000000023 0 0 0
Pd 4.29207000 1.95937337 1.04807365
Pd 4.29207000 1.95929500 -3.0324021000000023 0 0 0
Pd 4.29215584 5.87788500 1.04859495
Pd 4.29207000 5.87788500 -3.0324021000000023 0 0 0
