&CONTROL
calculation = 'relax'
prefix = 'scf'
pseudo_dir = '/vol0403/data/hp230205/u10028/POT_HYBRID_KKJUS_GBRV'
outdir = './data'
tprnfor = .true.
nstep = 70
disk_io = 'non'
/
&SYSTEM
ibrav = 0
ecutwfc = 50.0
ecutrho = 400
occupations = 'smearing'
smearing = 'mp'
degauss = 0.01
assume_isolated = 'esm'
esm_bc = 'bc1'
input_dft = 'BEEF-VDW'
nosym = .true.
nspin = 1
ntyp = 5
nat = 17
/
&ELECTRONS
electron_maxstep = 200
mixing_beta = 0.1
conv_thr = 1e-06
/
&IONS
ion_dynamics = 'bfgs'
upscale = 1.0
/
&CELL
/

K_POINTS {automatic}
9 9 2 0  0  0

ATOMIC_SPECIES
C 12.01 C.pbe-n-rrkjus_psl.1.0.0.UPF
In 114.8 In.pbe-dn-rrkjus_psl.1.0.0.UPF
Pd 106.4 Pd.pbe-n-rrkjus_psl.1.0.0.UPF
Pt 195.0 Pt.pbe-n-rrkjus_psl.1.0.0.UPF
Y 88.90 Y.pbe-spn-rrkjus_psl.1.0.0.UPF


CELL_PARAMETERS {angstrom}
6.82696000 0.00000000 0.00000000
-0.00000000 6.82696000 0.00000000
0.00000000 0.00000000 25.12020000

ATOMIC_POSITIONS {angstrom}
Y 0.00000000 3.41348000 -2.5599995799999995 0 0 0
Y 0.00000000 0.00000000 0.85333319
Y 3.41348000 3.41348000 0.85333319
Y 3.41348000 0.00000000 -2.5599995799999995 0 0 0
In 0.00000000 0.00000000 -2.5599995799999995 0 0 0
In 0.00000000 3.41348000 0.85333319
In 3.41348000 -0.00000000 0.85333319
In 3.41348000 3.41348000 -2.5599995799999995 0 0 0
Pd 5.12022000 1.70674000 -0.8533331900000007 0 0 0
Pd 5.12022000 5.12022000 2.55999958
Pd 1.70674000 1.70674000 2.55999958
Pd 1.70674000 5.12022000 -0.8533331900000007 0 0 0
Pt 1.70674000 1.70674000 -0.8533331900000007 0 0 0
Pt 1.70674000 5.12022000 2.55999958
Pt 5.12022000 1.70674000 2.55999958
Pt 5.12022000 5.12022000 -0.8533331900000007 0 0 0
C 0.00000000 3.41348000 3.36007795
