&CONTROL
calculation = 'relax'
prefix = 'scf'
pseudo_dir = '/vol0403/data/hp230205/u10028/POT_HYBRID_KKJUS_GBRV'
outdir = './data'
tprnfor = .true.
nstep = 50
disk_io = 'non'
/
&SYSTEM
ibrav = 0
ecutwfc = 50.0
ecutrho = 400
occupations = 'smearing'
smearing = 'mp'
degauss = 0.01
assume_isolated = 'esm'
esm_bc = 'bc1'
input_dft = 'BEEF-VDW'
nosym = .true.
nspin = 1
ntyp = 6
nat = 18
/
&ELECTRONS
electron_maxstep = 200
mixing_beta = 0.1
conv_thr = 1e-06
/
&IONS
ion_dynamics = 'bfgs'
upscale = 1.0
/
&CELL
/

K_POINTS {automatic}
6 6 1 0 0 0

ATOMIC_SPECIES
C 12.01 C.pbe-n-rrkjus_psl.1.0.0.UPF
Ge 72.64 Ge.pbe-dn-rrkjus_psl.1.0.0.UPF
Li 6.941 Li.pbe-sl-rrkjus_psl.1.0.0.UPF
O 15.99 O.pbe-n-rrkjus_psl.1.0.0.UPF
Pd 106.4 Pd.pbe-n-rrkjus_psl.1.0.0.UPF
V 50.94 V.pbe-spnl-rrkjus_psl.1.0.0.UPF


CELL_PARAMETERS {angstrom}
5.68832000 0.00000000 0.00000000
0.00000000 6.38622000 0.00000000
0.00000000 0.00000000 24.77250000

ATOMIC_POSITIONS {angstrom}
Li 1.42327455 4.58620003 0.64780088
Li 1.42208000 1.19147707 -2.3863349199999995 0 0 0
Li 4.26510234 4.58747727 0.64903950
Li 4.26624000 1.19147707 -2.3863349199999995 0 0 0
V 1.42395715 1.46506273 0.90023265
V 1.42208000 4.38458707 -2.3863349199999995 0 0 0
V 4.26436285 1.46461569 0.90097583
V 4.26624000 4.38458707 -2.3863349199999995 0 0 0
Ge 0.00102390 6.13121824 2.23373633
Ge 0.00000000 2.92303676 -0.7954449700000019 0 0 0
Ge 2.84296545 6.13466679 2.26296788
Ge 2.84416000 2.92303676 -0.7954449700000019 0 0 0
Pd 0.00000000 3.30186733 2.27015190
Pd 0.00000000 6.11614676 -0.7954449700000019 0 0 0
Pd 2.84416000 3.30895603 2.26717920
Pd 2.84416000 6.11614676 -0.7954449700000019 0 0 0
C 0.00728105 0.23469359 5.67364568
O 5.68485012 5.81229041 6.47082472
