&CONTROL
calculation = 'relax'
prefix = 'scf'
pseudo_dir = '/vol0004/mdt0/data/hp150275/u10028/POT_KKJUS'
outdir = './data'
tprnfor = .true.
nstep = 50
disk_io = 'non'
/
&SYSTEM
ibrav = 0
ecutwfc = 50.0
ecutrho = 400
occupations = 'smearing'
smearing = 'mp'
degauss = 0.01
assume_isolated = 'esm'
esm_bc = 'bc1'
input_dft = 'BEEF-VDW'
nosym = .true.
nspin = 1
ntyp = 4
nat = 34
/
&ELECTRONS
electron_maxstep = 200
mixing_beta = 0.1
conv_thr = 1e-06
/
&IONS
ion_dynamics = 'bfgs'
upscale = 1.0
/
&CELL
/

K_POINTS {automatic}
9 6 2 0  0  0

ATOMIC_SPECIES
Au 196.9 Au.pbe-n-rrkjus_psl.1.0.0.UPF
C 12.01 C.pbe-n-rrkjus_psl.1.0.0.UPF
O 15.99 O.pbe-n-rrkjus_psl.1.0.0.UPF
Ti 47.86 Ti.pbe-spn-rrkjus_psl.1.0.0.UPF

CELL_PARAMETERS {angstrom}
6.57738000 0.00000000 0.00000000
0.00000000 9.30182000 0.00000000
0.00000000 0.00000000 26.97640000

ATOMIC_POSITIONS {angstrom}
Ti 1.64434500 2.32545500 -3.4883182800000014 0 0 0
Ti 1.64434500 0.00000000 -1.1626828400000022 0 0 0
Ti 1.64434500 2.16239410 1.16915718
Ti 1.64434500 4.64979378 3.47725796
Ti 1.64434500 6.97636500 -3.4883182800000014 0 0 0
Ti 1.64434500 4.65091000 -1.1626828400000022 0 0 0
Ti 1.64434500 7.14110023 1.16834788
Ti 1.64434500 9.30172698 3.38257080
Ti 4.93303500 2.32545500 -3.4883182800000014 0 0 0
Ti 4.93303500 0.00000000 -1.1626828400000022 0 0 0
Ti 4.93303500 2.50525918 1.18183608
Ti 4.93303500 4.65025887 3.25955841
Ti 4.93303500 6.97636500 -3.4883182800000014 0 0 0
Ti 4.93303500 4.65091000 -1.1626828400000022 0 0 0
Ti 4.93303500 6.79842118 1.18129656
Ti 4.93303500 9.30107585 3.54361990
Au 0.00000000 0.00000000 -3.4883182800000014 0 0 0
Au 0.00000000 2.32545500 -1.1626828400000022 0 0 0
Au 6.37933509 0.00102320 1.18129656
Au 6.56508030 2.31810656 3.42897020
Au 0.00000000 4.65091000 -3.4883182800000014 0 0 0
Au 0.00000000 6.97636500 -1.1626828400000022 0 0 0
Au 0.20777943 4.65221225 1.12653446
Au 6.56573804 6.98278326 3.42789115
Au 3.28869000 0.00000000 -3.4883182800000014 0 0 0
Au 3.28869000 2.32545500 -1.1626828400000022 0 0 0
Au 3.48680069 0.00102320 1.18129656
Au 3.30098970 2.31810656 3.42897020
Au 3.28869000 4.65091000 -3.4883182800000014 0 0 0
Au 3.28869000 6.97636500 -1.1626828400000022 0 0 0
Au 3.08091057 4.65221225 1.12653446
Au 3.30033196 6.98278326 3.42789115
C 1.64434500 0.00000000 5.46838604
O 1.64434500 9.30172698 6.62729219
