&CONTROL
calculation = 'relax'
prefix = 'scf'
pseudo_dir = '/vol0004/mdt0/data/hp150275/u10028/POT_KKJUS'
outdir = './data'
tprnfor = .true.
nstep = 50
disk_io = 'non'
/
&SYSTEM
ibrav = 0
ecutwfc = 50.0
ecutrho = 400
occupations = 'smearing'
smearing = 'mp'
degauss = 0.01
assume_isolated = 'esm'
esm_bc = 'bc1'
input_dft = 'BEEF-VDW'
nosym = .true.
nspin = 1
ntyp = 3
nat = 33
/
&ELECTRONS
electron_maxstep = 200
mixing_beta = 0.1
conv_thr = 1e-06
/
&IONS
ion_dynamics = 'bfgs'
upscale = 1.0
/
&CELL
/

K_POINTS {automatic}
8 6 1 0 0 0

ATOMIC_SPECIES
Au 196.9 Au.pbe-n-rrkjus_psl.1.0.0.UPF
C 12.01 C.pbe-n-rrkjus_psl.1.0.0.UPF
Ti 47.86 Ti.pbe-spn-rrkjus_psl.1.0.0.UPF

CELL_PARAMETERS {angstrom}
6.57738000 0.00000000 0.00000000
0.00000000 9.30182000 0.00000000
0.00000000 0.00000000 26.97640000

ATOMIC_POSITIONS {angstrom}
Ti 1.64434500 2.32545500 -3.4883182800000014 0 0 0
Ti 1.64434500 0.00000000 -1.1626828400000022 0 0 0
Ti 1.64434500 2.32517595 1.27031868
Ti 1.64434500 4.38162231 3.33886903
Ti 1.64434500 6.97636500 -3.4883182800000014 0 0 0
Ti 1.64434500 4.65091000 -1.1626828400000022 0 0 0
Ti 1.64434500 6.97664405 1.17671057
Ti 1.64434500 0.26928769 3.33859926
Ti 4.93303500 2.32545500 -3.4883182800000014 0 0 0
Ti 4.93303500 0.00000000 -1.1626828400000022 0 0 0
Ti 4.93303500 2.32573405 1.27571396
Ti 4.93303500 4.79927403 3.23824706
Ti 4.93303500 6.97636500 -3.4883182800000014 0 0 0
Ti 4.93303500 4.65091000 -1.1626828400000022 0 0 0
Ti 4.93303500 6.97617896 1.21744493
Ti 4.93303500 9.15326993 3.23851682
Au 0.00000000 0.00000000 -3.4883182800000014 0 0 0
Au 0.00000000 2.32545500 -1.1626828400000022 0 0 0
Au 0.05728898 0.02939375 1.06961426
Au 6.22174106 2.32554802 3.91076871
Au 0.00000000 4.65091000 -3.4883182800000014 0 0 0
Au 0.00000000 6.97636500 -1.1626828400000022 0 0 0
Au 0.05794672 4.62160927 1.06934450
Au 0.14062438 6.97608595 3.46727669
Au 3.28869000 0.00000000 -3.4883182800000014 0 0 0
Au 3.28869000 2.32545500 -1.1626828400000022 0 0 0
Au 3.23140102 0.02939375 1.06961426
Au 3.64432894 2.32554802 3.91076871
Au 3.28869000 4.65091000 -3.4883182800000014 0 0 0
Au 3.28869000 6.97636500 -1.1626828400000022 0 0 0
Au 3.23074328 4.62160927 1.06934450
Au 3.14806562 6.97608595 3.46727669
C 1.64434500 2.32545500 3.38823584
