&CONTROL
calculation = 'relax'
prefix = 'scf'
pseudo_dir = '/vol0004/mdt0/data/hp150275/u10028/POT_KKJUS'
outdir = './data'
tprnfor = .true.
nstep = 50
disk_io = 'non'
/
&SYSTEM
ibrav = 0
ecutwfc = 50.0
ecutrho = 400
occupations = 'smearing'
smearing = 'mp'
degauss = 0.01
assume_isolated = 'esm'
esm_bc = 'bc1'
input_dft = 'BEEF-VDW'
nosym = .true.
nspin = 1
ntyp = 5
nat = 18
/
&ELECTRONS
electron_maxstep = 200
mixing_beta = 0.1
conv_thr = 1e-06
/
&IONS
ion_dynamics = 'bfgs'
upscale = 1.0
/
&CELL
/

K_POINTS {automatic}
9 9 2 0  0  0

ATOMIC_SPECIES
Al 26.98 Al.pbe-nl-rrkjus_psl.1.0.0.UPF
C 12.01 C.pbe-n-rrkjus_psl.1.0.0.UPF
Cu 63.54 Cu.pbe-dn-rrkjus_psl.1.0.0.UPF
Hf 178.4 Hf.pbe-spn-rrkjus_psl.1.0.0.UPF
O 15.99 O.pbe-n-rrkjus_psl.1.0.0.UPF

CELL_PARAMETERS {angstrom}
6.21964000 0.00000000 0.00000000
-0.00000000 6.21964000 0.00000000
0.00000000 0.00000000 24.66470000

ATOMIC_POSITIONS {angstrom}
Hf 0.00000000 0.00000000 2.33229403
Hf 3.10982000 3.10982000 2.33229403
Hf 3.10982000 0.00000000 -0.7774313399999997 0 0 0
Hf 0.00000000 3.10982000 -0.7774313399999997 0 0 0
Al 0.00000000 0.00000000 -0.7774313399999997 0 0 0
Al 3.10982000 -0.00000000 2.33229403
Al 0.00000000 3.10982000 2.33229403
Al 3.10982000 3.10982000 -0.7774313399999997 0 0 0
Cu 1.55491000 1.55491000 0.77743134
Cu 4.66473000 4.66473000 -2.33229403 0 0 0
Cu 4.66473000 1.55491000 0.77743134
Cu 1.55491000 4.66473000 -2.33229403 0 0 0
Cu 4.66473000 4.66473000 0.77743134
Cu 1.55491000 1.55491000 -2.33229403 0 0 0
Cu 1.55491000 4.66473000 0.77743134
Cu 4.66473000 1.55491000 -2.33229403 0 0 0
C 0.00000000 0.00000000 4.23246252
O 0.00000000 0.00000000 5.38233083
