&CONTROL
calculation = 'relax'
prefix = 'scf'
pseudo_dir = '/vol0004/mdt0/data/hp150275/u10028/POT_KKJUS'
outdir = './data'
tprnfor = .true.
nstep = 50
disk_io = 'non'
/
&SYSTEM
ibrav = 0
ecutwfc = 50.0
ecutrho = 400
occupations = 'smearing'
smearing = 'mp'
degauss = 0.01
assume_isolated = 'esm'
esm_bc = 'bc1'
input_dft = 'BEEF-VDW'
nosym = .true.
nspin = 1
ntyp = 2
nat = 16
/
&ELECTRONS
electron_maxstep = 200
mixing_beta = 0.1
conv_thr = 1e-06
/
&IONS
ion_dynamics = 'bfgs'
upscale = 1.0
/
&CELL
/

K_POINTS {automatic}
8 8 1 0 0 0

ATOMIC_SPECIES
Hf 178.4 Hf.pbe-spn-rrkjus_psl.1.0.0.UPF
Rh 102.9 Rh.pbe-spn-rrkjus_psl.1.0.0.UPF

CELL_PARAMETERS {angstrom}
6.52860000 0.00000000 0.00000000
-0.00000000 6.52860000 0.00000000
0.00000000 0.00000000 24.89640000

ATOMIC_POSITIONS {angstrom}
Hf 0.00000000 0.00000000 -2.228974690000001 0 0 0
Hf 0.00000000 0.00000000 1.03519231
Hf 0.00000000 3.26430000 -2.228974690000001 0 0 0
Hf 0.00000000 3.26430000 1.03519231
Hf 3.26430000 0.00000000 -2.228974690000001 0 0 0
Hf 3.26430000 -0.00000000 1.03519231
Hf 3.26430000 3.26430000 -2.228974690000001 0 0 0
Hf 3.26430000 3.26430000 1.03519231
Rh 1.63215000 1.63215000 -0.5967667100000007 0 0 0
Rh 1.63215000 1.63215000 2.66740030
Rh 1.63215000 4.89645000 -0.5967667100000007 0 0 0
Rh 1.63215000 4.89645000 2.66740030
Rh 4.89645000 1.63215000 -0.5967667100000007 0 0 0
Rh 4.89645000 1.63215000 2.66740030
Rh 4.89645000 4.89645000 -0.5967667100000007 0 0 0
Rh 4.89645000 4.89645000 2.66740030
