&CONTROL
calculation = 'relax'
prefix = 'scf'
pseudo_dir = '/vol0403/data/hp230205/u10028/POT_HYBRID_KKJUS_GBRV'
outdir = './data'
tprnfor = .true.
nstep = 70
disk_io = 'non'
/
&SYSTEM
ibrav = 0
ecutwfc = 50.0
ecutrho = 400
occupations = 'smearing'
smearing = 'mp'
degauss = 0.01
assume_isolated = 'esm'
esm_bc = 'bc1'
input_dft = 'BEEF-VDW'
nosym = .true.
nspin = 1
ntyp = 5
nat = 33
/
&ELECTRONS
electron_maxstep = 200
mixing_beta = 0.1
conv_thr = 1e-06
/
&IONS
ion_dynamics = 'bfgs'
upscale = 1.0
/
&CELL
/

K_POINTS {automatic}
9 6 2 0  0  0

ATOMIC_SPECIES
C 12.01 C.pbe-n-rrkjus_psl.1.0.0.UPF
Ga 69.72 Ga.pbe-dnl-rrkjus_psl.1.0.0.UPF
Mg 24.30 Mg.pbe-spnl-rrkjus_psl.1.0.0.UPF
Pd 106.4 Pd.pbe-n-rrkjus_psl.1.0.0.UPF
Sc 44.95 Sc.pbe-spn-rrkjus_psl.1.0.0.UPF


CELL_PARAMETERS {angstrom}
6.56469000 0.00000000 0.00000000
-0.00000000 9.28388000 0.00000000
0.00000000 0.00000000 26.96290000

ATOMIC_POSITIONS {angstrom}
Mg 1.64117250 0.00000000 -1.1604832199999997 0 0 0
Mg 1.64117250 4.64194000 -1.1604832199999997 0 0 0
Mg 4.92351750 2.32097000 -3.481449650000002 0 0 0
Mg 4.92351750 6.96291000 -3.481449650000002 0 0 0
Mg 1.64130379 4.84627820 3.56961833
Mg 1.64123815 9.07954180 3.56934870
Mg 4.87848373 6.96291000 1.13163291
Mg 4.90185402 2.32097000 1.30716139
Sc 4.92351750 0.00000000 -1.1604832199999997 0 0 0
Sc 4.92351750 4.64194000 -1.1604832199999997 0 0 0
Sc 1.64117250 2.32097000 -3.481449650000002 0 0 0
Sc 1.64117250 6.96291000 -3.481449650000002 0 0 0
Sc 4.92391138 4.48281430 3.57096648
Sc 4.92391138 0.15912570 3.57069685
Sc 1.65397365 6.96291000 1.20335423
Sc 1.63749627 2.32097000 1.15077657
Ga 0.00000000 0.00000000 -3.481449650000002 0 0 0
Ga 0.00000000 4.64194000 -3.481449650000002 0 0 0
Ga 3.28234500 6.96291000 -1.1604832199999997 0 0 0
Ga 3.28234500 2.32097000 -1.1604832199999997 0 0 0
Ga 6.54466770 4.67146274 1.21953197
Ga 6.54466770 9.25435726 1.21953197
Ga 2.92168093 2.32097000 3.79206226
Ga 3.51394726 6.96291000 3.68474991
Pd 0.00000000 2.32097000 -1.1604832199999997 0 0 0
Pd 0.00000000 6.96291000 -1.1604832199999997 0 0 0
Pd 3.28234500 4.64194000 -3.481449650000002 0 0 0
Pd 3.28234500 0.00000000 -3.481449650000002 0 0 0
Pd 6.42663457 6.96291000 3.29729304
Pd 0.40379408 2.32097000 3.52917398
Pd 3.29731249 9.25918488 1.15562989
Pd 3.29731249 4.66663512 1.15562989
C 4.86128424 2.32097000 3.80985777
