&CONTROL
calculation = 'relax'
prefix = 'scf'
pseudo_dir = '/vol0403/data/hp230205/u10028/POT_HYBRID_KKJUS_GBRV'
outdir = './data'
tprnfor = .true.
nstep = 50
disk_io = 'non'
/
&SYSTEM
ibrav = 0
ecutwfc = 50.0
ecutrho = 400
occupations = 'smearing'
smearing = 'mp'
degauss = 0.01
assume_isolated = 'esm'
esm_bc = 'bc1'
input_dft = 'BEEF-VDW'
nosym = .true.
nspin = 1
ntyp = 5
nat = 33
/
&ELECTRONS
electron_maxstep = 200
mixing_beta = 0.1
conv_thr = 1e-06
/
&IONS
ion_dynamics = 'bfgs'
upscale = 1.0
/
&CELL
/

K_POINTS {automatic}
9 6 2 0  0  0

ATOMIC_SPECIES
C 12.01 C.pbe-n-rrkjus_psl.1.0.0.UPF
Cu 63.54 Cu.pbe-dn-rrkjus_psl.1.0.0.UPF
In 114.8 In.pbe-dn-rrkjus_psl.1.0.0.UPF
Li 6.941 Li.pbe-sl-rrkjus_psl.1.0.0.UPF
Y 88.90 Y.pbe-spn-rrkjus_psl.1.0.0.UPF


CELL_PARAMETERS {angstrom}
6.68415000 0.00000000 0.00000000
0.00000000 9.45282000 0.00000000
0.00000000 0.00000000 27.08960000

ATOMIC_POSITIONS {angstrom}
Li 0.00000000 2.36320500 -1.1816483499999997 0 0 0
Li 0.00000000 7.08961500 -1.1816483499999997 0 0 0
Li 3.34207500 4.72641000 -3.5446741599999996 0 0 0
Li 3.34207500 0.00000000 -3.5446741599999996 0 0 0
Li 1.29378407 7.08961500 5.15623446
Li 0.23468051 2.36320500 4.59602154
Li 3.35464120 9.43750643 1.27212762
Li 3.35464120 4.74172357 1.27212762
Y 5.01311250 0.00000000 -1.1816483499999997 0 0 0
Y 5.01311250 4.72641000 -1.1816483499999997 0 0 0
Y 1.67103750 2.36320500 -3.5446741599999996 0 0 0
Y 1.67103750 7.08961500 -3.5446741599999996 0 0 0
Y 5.27432908 4.98692972 3.58747573
Y 5.27432908 9.19230028 3.58747573
Y 1.56489320 7.08961500 1.34012251
Y 1.58908982 2.36320500 1.38075691
In 1.67103750 0.00000000 -1.1816483499999997 0 0 0
In 1.67103750 4.72641000 -1.1816483499999997 0 0 0
In 5.01311250 2.36320500 -3.5446741599999996 0 0 0
In 5.01311250 7.08961500 -3.5446741599999996 0 0 0
In 1.76635348 4.69493211 3.75136781
In 1.76635348 0.03147789 3.75136781
In 4.99118849 7.08961500 1.12069675
In 5.06765516 2.36320500 1.18760806
Cu 0.00000000 0.00000000 -3.5446741599999996 0 0 0
Cu 0.00000000 4.72641000 -3.5446741599999996 0 0 0
Cu 3.34207500 7.08961500 -1.1816483499999997 0 0 0
Cu 3.34207500 2.36320500 -1.1816483499999997 0 0 0
Cu 6.66971224 4.73746980 1.12530198
Cu 6.66971224 9.44166567 1.12530198
Cu 3.94933003 2.36320500 3.63975866
Cu 3.40310129 7.08961500 3.52191890
C 2.08044169 2.36320500 3.66549378
