&CONTROL
calculation = 'relax'
prefix = 'scf'
pseudo_dir = '/vol0004/mdt0/data/hp150275/u10028/POT_HYBRID_KKJUS_GBRV'
outdir = './data'
tprnfor = .true.
nstep = 50
disk_io = 'non'
/
&SYSTEM
ibrav = 0
ecutwfc = 50.0
ecutrho = 400
occupations = 'smearing'
smearing = 'mp'
degauss = 0.01
assume_isolated = 'esm'
esm_bc = 'bc1'
input_dft = 'BEEF-VDW'
nosym = .true.
nspin = 2
ntyp = 5
nat = 34
starting_magnetization(1) = 0.0
starting_magnetization(2) = 0.001
starting_magnetization(3) = 0.0
starting_magnetization(4) = 0.0
starting_magnetization(5) = 0.0
/
&ELECTRONS
electron_maxstep = 300
mixing_beta = 0.1
conv_thr = 1e-06
/
&IONS
ion_dynamics = 'bfgs'
upscale = 1.0
/
&CELL
/

K_POINTS {automatic}
9 6 2 0  0  0

ATOMIC_SPECIES
C 12.01 C.pbe-n-rrkjus_psl.1.0.0.UPF
Ni 58.69 ni_pbe_v1.4.uspp.F.UPF
O 15.99 O.pbe-n-rrkjus_psl.1.0.0.UPF
Sc 44.95 Sc.pbe-spn-rrkjus_psl.1.0.0.UPF
Sn 118.7 Sn.pbe-dn-rrkjus_psl.1.0.0.UPF

CELL_PARAMETERS {angstrom}
6.29417000 0.00000000 0.00000000
0.00000000 8.90130000 0.00000000
0.00000000 0.00000000 26.67600000

ATOMIC_POSITIONS {angstrom}
Sc 0.00000000 0.00000000 -3.3379678799999972 0 0 0
Sc 3.14708500 2.22532500 -1.112655959999998 0 0 0
Sc 3.14708500 6.67597500 -1.112655959999998 0 0 0
Sc 0.00000000 4.45065000 -3.3379678799999972 0 0 0
Sc 0.00000000 4.45154013 1.09398276
Sc 3.14708500 6.67606401 3.39825564
Sc 3.14708500 2.22523599 3.39558804
Sc 0.00000000 8.90040987 1.09398276
Ni 1.57354250 0.00000000 -1.112655959999998 0 0 0
Ni 4.72062750 4.45065000 -1.112655959999998 0 0 0
Ni 4.72062750 0.00000000 -1.112655959999998 0 0 0
Ni 1.57354250 4.45065000 -1.112655959999998 0 0 0
Ni 4.72062750 6.67597500 -3.3379678799999972 0 0 0
Ni 1.57354250 2.22532500 -3.3379678799999972 0 0 0
Ni 1.57354250 6.67597500 -3.3379678799999972 0 0 0
Ni 4.72062750 2.22532500 -3.3379678799999972 0 0 0
Ni 1.48051467 4.45305335 3.19098312
Ni 4.81365533 8.89889665 3.19098312
Ni 4.81365533 4.45305335 3.19098312
Ni 1.48045173 8.89889665 3.19098312
Ni 4.65315400 2.22541401 1.18548144
Ni 1.60923044 6.67588599 1.20522168
Ni 1.64101600 2.22541401 1.18548144
Ni 4.68493956 6.67588599 1.20522168
Sn 0.00000000 6.67597500 -1.112655959999998 0 0 0
Sn 3.14708500 0.00000000 -3.3379678799999972 0 0 0
Sn 0.00000000 2.22532500 -1.112655959999998 0 0 0
Sn 3.14708500 4.45065000 -3.3379678799999972 0 0 0
Sn 0.00000000 2.22541401 3.44653920
Sn 3.14708500 4.46222169 1.12732776
Sn 0.00000000 6.67588599 3.48255180
Sn 3.14708500 8.88972831 1.12732776
C 0.00018883 2.22559204 7.57331640
O 0.00000000 2.22532500 8.70891372
