&CONTROL
calculation = 'relax'
prefix = 'scf'
pseudo_dir = '/vol0004/mdt0/data/hp150275/u10028/POT_HYBRID_KKJUS_GBRV'
outdir = './data'
tprnfor = .true.
nstep = 50
disk_io = 'non'
/
&SYSTEM
ibrav = 0
ecutwfc = 50.0
ecutrho = 400
occupations = 'smearing'
smearing = 'mp'
degauss = 0.01
assume_isolated = 'esm'
esm_bc = 'bc1'
input_dft = 'BEEF-VDW'
nosym = .true.
nspin = 2
ntyp = 3
nat = 33
starting_magnetization(1) = 0.1
starting_magnetization(2) = 0.1
starting_magnetization(3) = 0.1
/
&ELECTRONS
electron_maxstep = 200
mixing_beta = 0.1
conv_thr = 1e-06
/
&IONS
ion_dynamics = 'bfgs'
upscale = 1.0
/
&CELL
/

K_POINTS {automatic}
8 6 1 0 0 0

ATOMIC_SPECIES
C 12.01 C.pbe-n-rrkjus_psl.1.0.0.UPF
Co 58.93 co_pbe_v1.2.uspp.F.UPF
Sc 44.95 Sc.pbe-spn-rrkjus_psl.1.0.0.UPF

CELL_PARAMETERS {angstrom}
6.24301000 0.00000000 0.00000000
0.00000000 8.82895000 0.00000000
0.00000000 0.00000000 26.62170000

ATOMIC_POSITIONS {angstrom}
Sc 1.56075250 2.20723750 -3.31094083 0 0 0
Sc 1.56075250 0.00000000 -1.1037356799999998 0 0 0
Sc 1.56125194 2.20723750 1.15405070
Sc 1.56137680 8.72282602 3.42887496
Sc 1.56075250 6.62171250 -3.31094083 0 0 0
Sc 1.56075250 4.41447500 -1.1037356799999998 0 0 0
Sc 1.56131437 6.62171250 1.12796143
Sc 1.56137680 4.52059898 3.42887496
Sc 4.68225750 2.20723750 -3.31094083 0 0 0
Sc 4.68225750 0.00000000 -1.1037356799999998 0 0 0
Sc 4.68182049 2.20723750 1.00310566
Sc 4.68194535 8.81093894 3.44032229
Sc 4.68225750 6.62171250 -3.31094083 0 0 0
Sc 4.68225750 4.41447500 -1.1037356799999998 0 0 0
Sc 4.68213264 6.62171250 1.14233715
Sc 4.68188292 4.43248606 3.44032229
Co 0.00000000 0.00000000 -3.31094083 0 0 0
Co 0.00000000 2.20723750 -1.1037356799999998 0 0 0
Co 6.21653964 0.02224895 1.19850893
Co 6.21978600 2.20723750 3.19859726
Co 0.00000000 4.41447500 -3.31094083 0 0 0
Co 0.00000000 6.62171250 -1.1037356799999998 0 0 0
Co 6.21653964 4.39222605 1.19850893
Co 6.22028544 6.62171250 3.14748359
Co 3.12150500 0.00000000 -3.31094083 0 0 0
Co 3.12150500 2.20723750 -1.1037356799999998 0 0 0
Co 3.14834994 0.02216066 1.19824272
Co 3.14198207 2.20723750 3.20019456
Co 3.12150500 4.41447500 -3.31094083 0 0 0
Co 3.12150500 6.62171250 -1.1037356799999998 0 0 0
Co 3.14834994 4.39231434 1.19824272
Co 3.14479143 6.62171250 3.14774981
C 1.55781829 2.20723750 3.96610087
