&CONTROL
calculation = 'relax'
prefix = 'scf'
pseudo_dir = '/vol0004/mdt0/data/hp150275/u10028/POT_KKJUS'
outdir = './data'
tprnfor = .true.
nstep = 50
disk_io = 'non'
/
&SYSTEM
ibrav = 0
ecutwfc = 50.0
ecutrho = 400
occupations = 'smearing'
smearing = 'mp'
degauss = 0.01
assume_isolated = 'esm'
esm_bc = 'bc1'
input_dft = 'BEEF-VDW'
nosym = .true.
nspin = 1
ntyp = 5
nat = 34
/
&ELECTRONS
electron_maxstep = 200
mixing_beta = 0.1
conv_thr = 1e-06
/
&IONS
ion_dynamics = 'bfgs'
upscale = 1.0
/
&CELL
/

K_POINTS {automatic}
8 6 1 0 0 0

ATOMIC_SPECIES
C 12.01 C.pbe-n-rrkjus_psl.1.0.0.UPF
Ge 72.64 Ge.pbe-dn-rrkjus_psl.1.0.0.UPF
Li 6.941 Li.pbe-sl-rrkjus_psl.1.0.0.UPF
O 15.99 O.pbe-n-rrkjus_psl.1.0.0.UPF
Sn 118.7 Sn.pbe-dn-rrkjus_psl.1.0.0.UPF

CELL_PARAMETERS {angstrom}
6.92564000 0.00000000 0.00000000
0.00000000 9.79433000 0.00000000
0.00000000 0.00000000 27.34580000

ATOMIC_POSITIONS {angstrom}
Li 0.00000000 7.34574750 -1.2242714700000015 0 0 0
Li 3.46282000 0.00000000 -3.6728144 0 0 0
Li 0.00000000 2.44858250 -1.2242714700000015 0 0 0
Li 3.46282000 4.89716500 -3.6728144 0 0 0
Li 1.73141000 0.00000000 -1.2242714700000015 0 0 0
Li 1.73141000 4.89716500 -1.2242714700000015 0 0 0
Li 5.19423000 7.34574750 -3.6728144 0 0 0
Li 5.19423000 2.44858250 -3.6728144 0 0 0
Li 6.88588683 4.29833966 3.66898599
Li 3.65064336 5.57130873 0.99866862
Li 6.77729279 8.72038172 3.34931358
Li 3.63672282 1.18344889 1.32052868
Li 2.42695203 6.64143723 3.36490069
Li 1.44351115 1.63986467 3.39033228
Li 5.67293024 3.48541027 1.15782117
Li 4.87814379 8.22811869 1.14442173
Sn 0.00000000 0.00000000 -3.6728144 0 0 0
Sn 3.46282000 2.44858250 -1.2242714700000015 0 0 0
Sn 3.46282000 7.34574750 -1.2242714700000015 0 0 0
Sn 0.00000000 4.89716500 -3.6728144 0 0 0
Sn 0.29330085 6.18795975 1.29126868
Sn 3.64295590 9.25671923 3.81419218
Sn 3.64655723 3.87688964 3.50245006
Sn 0.00574828 0.82703323 0.98472226
Ge 1.73141000 2.44858250 -3.6728144 0 0 0
Ge 1.73141000 7.34574750 -3.6728144 0 0 0
Ge 5.19423000 4.89716500 -1.2242714700000015 0 0 0
Ge 5.19423000 0.00000000 -1.2242714700000015 0 0 0
Ge 2.03385270 8.59961763 1.39108085
Ge 1.69027170 3.56141427 1.27786923
Ge 5.54092754 1.55524166 3.35779078
Ge 5.15717783 6.45710794 3.33509377
C 6.91012657 3.70519504 5.68437145
O 6.82390235 3.38051300 6.77519541
