&CONTROL
calculation = 'relax'
prefix = 'scf'
pseudo_dir = '/vol0403/data/hp230205/u10028/POT_HYBRID_KKJUS_GBRV'
outdir = './data'
tprnfor = .true.
nstep = 50
disk_io = 'non'
/
&SYSTEM
ibrav = 0
ecutwfc = 50.0
ecutrho = 400
occupations = 'smearing'
smearing = 'mp'
degauss = 0.01
assume_isolated = 'esm'
esm_bc = 'bc1'
input_dft = 'BEEF-VDW'
nosym = .true.
nspin = 1
ntyp = 5
nat = 17
/
&ELECTRONS
electron_maxstep = 200
mixing_beta = 0.1
conv_thr = 1e-06
/
&IONS
ion_dynamics = 'bfgs'
upscale = 1.0
/
&CELL
/

K_POINTS {automatic}
11 8 2 0  0  0

ATOMIC_SPECIES
Al 26.98 Al.pbe-nl-rrkjus_psl.1.0.0.UPF
C 12.01 C.pbe-n-rrkjus_psl.1.0.0.UPF
Ge 72.64 Ge.pbe-dn-rrkjus_psl.1.0.0.UPF
Li 6.941 Li.pbe-sl-rrkjus_psl.1.0.0.UPF
Pd 106.4 Pd.pbe-n-rrkjus_psl.1.0.0.UPF


CELL_PARAMETERS {angstrom}
5.49423000 0.00000000 0.00000000
0.00000000 8.01128000 0.00000000
0.00000000 0.00000000 24.10550000

ATOMIC_POSITIONS {angstrom}
Li 4.00293115 2.00282000 -0.6843551499999982 0 0 0
Li 1.18186382 1.56708648 2.47009058
Li 4.00293115 6.00846000 -0.6843551499999982 0 0 0
Li 1.18186382 6.44419352 2.47009058
Al 0.00000000 0.00000000 -2.0528243800000006 0 0 0
Al 2.45553621 0.00000000 0.48018156
Al 0.00000000 4.00564000 -2.0528243800000006 0 0 0
Al 2.52992809 4.00564000 0.77378655
Ge 2.74711500 0.00000000 -2.0528243800000006 0 0 0
Ge 5.28215272 0.00000000 0.66772235
Ge 2.74711500 4.00564000 -2.0528243800000006 0 0 0
Ge 5.33308423 4.00572011 1.13319956
Pd 1.25581615 2.00282000 -0.6843551499999982 0 0 0
Pd 3.77014063 1.85565279 1.85564139
Pd 1.25581615 6.00846000 -0.6843551499999982 0 0 0
Pd 3.77014063 6.15562721 1.85564139
C 2.73151139 0.00000000 2.42163853
