&CONTROL
calculation = 'relax'
prefix = 'scf'
pseudo_dir = '/vol0403/data/hp230205/u10028/POT_HYBRID_KKJUS_GBRV'
outdir = './data'
tprnfor = .true.
nstep = 50
disk_io = 'non'
/
&SYSTEM
ibrav = 0
ecutwfc = 50.0
ecutrho = 400
occupations = 'smearing'
smearing = 'mp'
degauss = 0.01
assume_isolated = 'esm'
esm_bc = 'bc1'
input_dft = 'BEEF-VDW'
nosym = .true.
nspin = 1
ntyp = 5
nat = 33
/
&ELECTRONS
electron_maxstep = 200
mixing_beta = 0.1
conv_thr = 1e-06
/
&IONS
ion_dynamics = 'bfgs'
upscale = 1.0
/
&CELL
/

K_POINTS {automatic}
7 7 2 0  0  0

ATOMIC_SPECIES
C 12.01 C.pbe-n-rrkjus_psl.1.0.0.UPF
Ge 72.64 Ge.pbe-dn-rrkjus_psl.1.0.0.UPF
Li 6.941 Li.pbe-sl-rrkjus_psl.1.0.0.UPF
Sn 118.7 Sn.pbe-dn-rrkjus_psl.1.0.0.UPF
Y 88.90 Y.pbe-spn-rrkjus_psl.1.0.0.UPF


CELL_PARAMETERS {angstrom}
8.52742000 0.00000000 0.00000000
0.00000000 9.43388000 0.00000000
0.00000000 0.00000000 26.45610000

ATOMIC_POSITIONS {angstrom}
Li 2.13185500 2.29130077 3.50622693
Li 2.13185500 2.35847000 -1.0759695899999997 0 0 0
Li 2.13176973 7.14257923 3.50622693
Li 2.13185500 7.07541000 -1.0759695899999997 0 0 0
Li 6.39556500 3.14506691 3.67845614
Li 6.39556500 2.35847000 -1.0759695899999997 0 0 0
Li 6.39556500 6.28925333 3.67845614
Li 6.39556500 7.07541000 -1.0759695899999997 0 0 0
Y 2.13185500 0.00000000 1.07835064
Y 2.13185500 0.00000000 -3.22817332 0 0 0
Y 2.13185500 4.71694000 1.09528254
Y 2.13185500 4.71694000 -3.22817332 0 0 0
Y 6.39556500 0.00000000 1.16274560
Y 6.39556500 0.00000000 -3.22817332 0 0 0
Y 6.39556500 4.71694000 0.98866446
Y 6.39556500 4.71694000 -3.22817332 0 0 0
Sn 8.49638019 2.39733759 1.29899451
Sn 0.00000000 2.35847000 -3.22817332 0 0 0
Sn 8.49638019 7.03654241 1.29899451
Sn 0.00000000 7.07541000 -3.22817332 0 0 0
Sn 4.29474981 2.39733759 1.29899451
Sn 4.26371000 2.35847000 -3.22817332 0 0 0
Sn 4.29474981 7.03654241 1.29899451
Sn 4.26371000 7.07541000 -3.22817332 0 0 0
Ge 0.23237220 0.00000000 3.58771172
Ge 0.00000000 0.00000000 -1.0759695899999997 0 0 0
Ge 0.05210254 4.71694000 3.20938949
Ge 0.00000000 4.71694000 -1.0759695899999997 0 0 0
Ge 4.03116726 0.00000000 3.58771172
Ge 4.26371000 0.00000000 -1.0759695899999997 0 0 0
Ge 4.21169274 4.71694000 3.20938949
Ge 4.26371000 4.71694000 -1.0759695899999997 0 0 0
C 2.13176973 0.00000000 3.53030198
