&CONTROL
calculation = 'relax'
prefix = 'scf'
pseudo_dir = '/vol0004/mdt0/data/hp150275/u10028/POT_HYBRID_KKJUS_GBRV'
outdir = './data'
tprnfor = .true.
nstep = 50
disk_io = 'non'
/
&SYSTEM
ibrav = 0
ecutwfc = 50.0
ecutrho = 400
occupations = 'smearing'
smearing = 'mp'
degauss = 0.01
assume_isolated = 'esm'
esm_bc = 'bc1'
input_dft = 'BEEF-VDW'
nosym = .true.
nspin = 2
ntyp = 2
nat = 16
starting_magnetization(1) = 0.01
starting_magnetization(2) = 0.0
/
&ELECTRONS
electron_maxstep = 200
mixing_beta = 0.1
conv_thr = 1e-06
/
&IONS
ion_dynamics = 'bfgs'
upscale = 1.0
/
&CELL
/

K_POINTS {automatic}
10 10 2 0  0  0

ATOMIC_SPECIES
Ni 58.69 ni_pbe_v1.4.uspp.F.UPF
Zn 65.40 Zn.pbe-dnl-rrkjus_psl.1.0.0.UPF

CELL_PARAMETERS {angstrom}
5.37112000 0.00000000 0.00000000
-0.00000000 5.37112000 0.00000000
0.00000000 0.00000000 25.02220000

ATOMIC_POSITIONS {angstrom}
Zn 1.34278000 1.34278000 -0.8820325500000017 0 0 0
Zn 1.34278000 1.34278000 2.46593781
Zn 1.34278000 4.02834000 -0.8820325500000017 0 0 0
Zn 1.34278000 4.02834000 2.46593781
Zn 4.02834000 1.34278000 -0.8820325500000017 0 0 0
Zn 4.02834000 1.34278000 2.46593781
Zn 4.02834000 4.02834000 -0.8820325500000017 0 0 0
Zn 4.02834000 4.02834000 2.46593781
Ni 0.00000000 0.00000000 -2.5562679500000023 0 0 0
Ni 0.00000000 0.00000000 0.79195263
Ni 0.00000000 2.68556000 -2.5562679500000023 0 0 0
Ni 0.00000000 2.68556000 0.79195263
Ni 2.68556000 0.00000000 -2.5562679500000023 0 0 0
Ni 2.68556000 -0.00000000 0.79195263
Ni 2.68556000 2.68556000 -2.5562679500000023 0 0 0
Ni 2.68556000 2.68556000 0.79195263
