&CONTROL
calculation = 'relax'
prefix = 'scf'
pseudo_dir = '/vol0403/data/hp230205/u10028/POT_HYBRID_KKJUS_GBRV'
outdir = './data'
tprnfor = .true.
nstep = 50
disk_io = 'non'
/
&SYSTEM
ibrav = 0
ecutwfc = 50.0
ecutrho = 400
occupations = 'smearing'
smearing = 'mp'
degauss = 0.01
assume_isolated = 'esm'
esm_bc = 'bc1'
input_dft = 'BEEF-VDW'
nosym = .true.
nspin = 1
ntyp = 5
nat = 33
/
&ELECTRONS
electron_maxstep = 200
mixing_beta = 0.1
conv_thr = 1e-06
/
&IONS
ion_dynamics = 'bfgs'
upscale = 1.0
/
&CELL
/

K_POINTS {automatic}
7 7 2 0  0  0

ATOMIC_SPECIES
C 12.01 C.pbe-n-rrkjus_psl.1.0.0.UPF
Ga 69.72 Ga.pbe-dnl-rrkjus_psl.1.0.0.UPF
Ge 72.64 Ge.pbe-dn-rrkjus_psl.1.0.0.UPF
Li 6.941 Li.pbe-sl-rrkjus_psl.1.0.0.UPF
Sc 44.95 Sc.pbe-spn-rrkjus_psl.1.0.0.UPF


CELL_PARAMETERS {angstrom}
8.37322000 0.00000000 0.00000000
0.00000000 7.95848000 0.00000000
0.00000000 0.00000000 26.05780000

ATOMIC_POSITIONS {angstrom}
Li 0.00000000 1.98962000 -1.0097397500000014 0 0 0
Li 0.00000000 1.98962000 3.02895867
Li 0.00000000 5.96886000 -1.0097397500000014 0 0 0
Li 0.00000000 5.96886000 3.02895867
Li 4.18661000 1.98962000 -1.0097397500000014 0 0 0
Li 4.18661000 1.98962000 3.02895867
Li 4.18661000 5.96886000 -1.0097397500000014 0 0 0
Li 4.18661000 5.96886000 3.02895867
Sc 2.09330500 1.98962000 -3.0289586700000015 0 0 0
Sc 2.09330500 1.98962000 1.00973975
Sc 2.09330500 5.96886000 -3.0289586700000015 0 0 0
Sc 2.09330500 5.96886000 1.00973975
Sc 6.27991500 1.98962000 -3.0289586700000015 0 0 0
Sc 6.27991500 1.98962000 1.00973975
Sc 6.27991500 5.96886000 -3.0289586700000015 0 0 0
Sc 6.27991500 5.96886000 1.00973975
Ga 0.00000000 0.00000000 -3.0289586700000015 0 0 0
Ga 0.00000000 0.00000000 1.00973975
Ga 0.00000000 3.97924000 -3.0289586700000015 0 0 0
Ga 0.00000000 3.97924000 1.00973975
Ga 4.18661000 0.00000000 -3.0289586700000015 0 0 0
Ga 4.18661000 0.00000000 1.00973975
Ga 4.18661000 3.97924000 -3.0289586700000015 0 0 0
Ga 4.18661000 3.97924000 1.00973975
Ge 2.09330500 0.00000000 -1.0097397500000014 0 0 0
Ge 2.09330500 0.00000000 3.02895867
Ge 2.09330500 3.97924000 -1.0097397500000014 0 0 0
Ge 2.09330500 3.97924000 3.02895867
Ge 6.27991500 0.00000000 -1.0097397500000014 0 0 0
Ge 6.27991500 0.00000000 3.02895867
Ge 6.27991500 3.97924000 -1.0097397500000014 0 0 0
Ge 6.27991500 3.97924000 3.02895867
C 0.00000000 0.00000000 3.82893313
