&CONTROL
calculation = 'relax'
prefix = 'scf'
pseudo_dir = '/vol0004/mdt0/data/hp150275/u10028/POT_KKJUS'
outdir = './data'
tprnfor = .true.
nstep = 50
disk_io = 'non'
/
&SYSTEM
ibrav = 0
ecutwfc = 50.0
ecutrho = 400
occupations = 'smearing'
smearing = 'mp'
degauss = 0.01
assume_isolated = 'esm'
esm_bc = 'bc1'
input_dft = 'BEEF-VDW'
nosym = .true.
nspin = 1
ntyp = 2
nat = 32
/
&ELECTRONS
electron_maxstep = 200
mixing_beta = 0.1
conv_thr = 1e-06
/
&IONS
ion_dynamics = 'bfgs'
upscale = 1.0
/
&CELL
/

K_POINTS {automatic}
9 6 2 0  0  0

ATOMIC_SPECIES
Cu 63.54 Cu.pbe-dn-rrkjus_psl.1.0.0.UPF
Sc 44.95 Sc.pbe-spn-rrkjus_psl.1.0.0.UPF

CELL_PARAMETERS {angstrom}
6.54723000 0.00000000 0.00000000
0.00000000 9.25918000 0.00000000
0.00000000 0.00000000 26.94440000

ATOMIC_POSITIONS {angstrom}
Sc 1.63680750 2.31479500 -3.4723248300000016 0 0 0
Sc 1.63680750 4.62959000 -1.1575314200000015 0 0 0
Sc 1.63680750 2.31488759 1.14837033
Sc 1.63680750 4.62959000 3.49226368
Sc 1.63680750 6.94438500 -3.4723248300000016 0 0 0
Sc 1.63680750 0.00000000 -1.1575314200000015 0 0 0
Sc 1.63680750 6.94429241 1.14863977
Sc 1.63680750 0.00000000 3.49226368
Sc 4.91042250 2.31479500 -3.4723248300000016 0 0 0
Sc 4.91042250 4.62959000 -1.1575314200000015 0 0 0
Sc 4.91042250 2.31479500 1.14837033
Sc 4.91042250 4.62959000 3.49226368
Sc 4.91042250 6.94438500 -3.4723248300000016 0 0 0
Sc 4.91042250 0.00000000 -1.1575314200000015 0 0 0
Sc 4.91042250 6.94429241 1.14863977
Sc 4.91042250 9.25908741 3.49226368
Cu 0.00000000 0.00000000 -3.4723248300000016 0 0 0
Cu 0.00000000 2.31479500 -1.1575314200000015 0 0 0
Cu 0.00000000 0.00018518 1.25965070
Cu 0.00000000 2.31442463 3.29610845
Cu 0.00000000 4.62959000 -3.4723248300000016 0 0 0
Cu 0.00000000 6.94438500 -1.1575314200000015 0 0 0
Cu 0.00000000 4.62940482 1.25938126
Cu 0.00000000 6.94475537 3.29610845
Cu 3.27361500 0.00000000 -3.4723248300000016 0 0 0
Cu 3.27361500 2.31479500 -1.1575314200000015 0 0 0
Cu 3.27361500 0.00018518 1.25965070
Cu 3.27361500 2.31451722 3.29610845
Cu 3.27361500 4.62959000 -3.4723248300000016 0 0 0
Cu 3.27361500 6.94438500 -1.1575314200000015 0 0 0
Cu 3.27361500 4.62940482 1.25938126
Cu 3.27361500 6.94475537 3.29610845
