&CONTROL
calculation = 'relax'
prefix = 'scf'
pseudo_dir = '/vol0403/data/hp230205/u10028/POT_HYBRID_KKJUS_GBRV'
outdir = './data'
tprnfor = .true.
nstep = 70
disk_io = 'non'
/
&SYSTEM
ibrav = 0
ecutwfc = 50.0
ecutrho = 400
occupations = 'smearing'
smearing = 'mp'
degauss = 0.01
assume_isolated = 'esm'
esm_bc = 'bc1'
input_dft = 'BEEF-VDW'
nosym = .true.
nspin = 1
ntyp = 6
nat = 34
/
&ELECTRONS
electron_maxstep = 200
mixing_beta = 0.1
conv_thr = 1e-06
/
&IONS
ion_dynamics = 'bfgs'
upscale = 1.0
/
&CELL
/

K_POINTS {automatic}
9 6 2 0  0  0

ATOMIC_SPECIES
C 12.01 C.pbe-n-rrkjus_psl.1.0.0.UPF
Cu 63.54 Cu.pbe-dn-rrkjus_psl.1.0.0.UPF
Li 6.941 Li.pbe-sl-rrkjus_psl.1.0.0.UPF
O 15.99 O.pbe-n-rrkjus_psl.1.0.0.UPF
Pd 106.4 Pd.pbe-n-rrkjus_psl.1.0.0.UPF
Si 28.08 Si.pbe-nl-rrkjus_psl.1.0.0.UPF


CELL_PARAMETERS {angstrom}
5.89837000 0.00000000 0.00000000
-0.00000000 8.34156000 0.00000000
0.00000000 0.00000000 26.25620000

ATOMIC_POSITIONS {angstrom}
Li 1.47459250 0.00000000 -1.0426336999999997 0 0 0
Li 1.47459250 4.17078000 -1.0426336999999997 0 0 0
Li 4.42377750 2.08539000 -3.1281636699999993 0 0 0
Li 4.42377750 6.25617000 -3.1281636699999993 0 0 0
Li 1.50544098 4.17078000 3.52673278
Li 1.50738744 -0.00000000 3.60733932
Li 4.42047441 6.26034078 0.92946948
Li 4.42041543 2.08113580 0.92920692
Cu 0.00000000 0.00000000 -3.1281636699999993 0 0 0
Cu 0.00000000 4.17078000 -3.1281636699999993 0 0 0
Cu 2.94918500 6.25617000 -1.0426336999999997 0 0 0
Cu 2.94918500 2.08539000 -1.0426336999999997 0 0 0
Cu 0.03037661 4.17078000 1.09619635
Cu 0.03586209 0.00000000 1.09750916
Cu 3.09493372 2.09064518 2.97981614
Cu 3.09487474 6.25091482 2.97955358
Si 4.42377750 0.00000000 -1.0426336999999997 0 0 0
Si 4.42377750 4.17078000 -1.0426336999999997 0 0 0
Si 1.47459250 2.08539000 -3.1281636699999993 0 0 0
Si 1.47459250 6.25617000 -3.1281636699999993 0 0 0
Si 4.43115046 4.17078000 3.11871144
Si 4.44265228 -0.00000000 3.09166755
Si 1.46509612 6.25658708 1.08123032
Si 1.46515511 2.08497292 1.08123032
Pd 0.00000000 2.08539000 -1.0426336999999997 0 0 0
Pd 0.00000000 6.25617000 -1.0426336999999997 0 0 0
Pd 2.94918500 4.17078000 -3.1281636699999993 0 0 0
Pd 2.94918500 0.00000000 -3.1281636699999993 0 0 0
Pd 5.79119662 6.24649379 2.99163143
Pd 5.79125560 2.09506621 2.99163143
Pd 2.88725211 -0.00000000 1.12376536
Pd 2.90429840 4.17078000 1.09409585
C 1.53045006 -0.00000000 5.73514177
O 1.51340377 0.00000000 6.87256035
