&CONTROL
calculation = 'relax'
prefix = 'scf'
pseudo_dir = '/vol0004/mdt0/data/hp150275/u10028/POT_KKJUS'
outdir = './data'
tprnfor = .true.
nstep = 50
disk_io = 'non'
/
&SYSTEM
ibrav = 0
ecutwfc = 50.0
ecutrho = 400
occupations = 'smearing'
smearing = 'mp'
degauss = 0.01
assume_isolated = 'esm'
esm_bc = 'bc1'
input_dft = 'BEEF-VDW'
nosym = .true.
nspin = 1
ntyp = 3
nat = 17
/
&ELECTRONS
electron_maxstep = 200
mixing_beta = 0.1
conv_thr = 1e-06
/
&IONS
ion_dynamics = 'bfgs'
upscale = 1.0
/
&CELL
/

K_POINTS {automatic}
8 11 2 0  0  0

ATOMIC_SPECIES
C 12.01 C.pbe-n-rrkjus_psl.1.0.0.UPF
Mg 24.30 Mg.pbe-spnl-rrkjus_psl.1.0.0.UPF
Ni 58.69 Ni.pbe-spn-rrkjus_psl.1.0.0.UPF

CELL_PARAMETERS {angstrom}
7.35611000 0.00000000 0.00000000
0.00000000 5.20155000 0.00000000
0.00000000 0.00000000 23.90120000

ATOMIC_POSITIONS {angstrom}
Mg 7.25672895 5.19431985 2.05191802
Mg 0.00000000 2.60077500 -0.6501126399999997 0 0 0
Mg 3.77743605 5.19452791 2.05191802
Mg 3.67805500 2.60077500 -0.6501126399999997 0 0 0
Ni 0.00698830 2.59375291 1.89034591
Ni 1.83902750 3.96893870 0.64772252
Ni 1.83902750 1.22439285 0.64676647
Ni 0.00000000 0.00000000 -0.6501126399999997 0 0 0
Ni 1.83902750 1.30038750 -1.9505769300000004 0 0 0
Ni 1.83902750 3.90116250 -1.9505769300000004 0 0 0
Ni 3.67114026 2.59385694 1.89058492
Ni 5.51700894 3.89845769 0.63146970
Ni 5.51708250 1.29659037 0.63003563
Ni 3.67805500 0.00000000 -0.6501126399999997 0 0 0
Ni 5.51708250 1.30038750 -1.9505769300000004 0 0 0
Ni 5.51708250 3.90116250 -1.9505769300000004 0 0 0
C 1.83902750 2.59557345 1.88676073
