&CONTROL
calculation = 'relax'
prefix = 'scf'
pseudo_dir = '/vol0403/data/hp230205/u10028/POT_HYBRID_KKJUS_GBRV'
outdir = './data'
tprnfor = .true.
nstep = 50
disk_io = 'non'
/
&SYSTEM
ibrav = 0
ecutwfc = 50.0
ecutrho = 400
occupations = 'smearing'
smearing = 'mp'
degauss = 0.01
assume_isolated = 'esm'
esm_bc = 'bc1'
input_dft = 'BEEF-VDW'
nosym = .true.
nspin = 1
ntyp = 5
nat = 17
/
&ELECTRONS
electron_maxstep = 200
mixing_beta = 0.1
conv_thr = 1e-06
/
&IONS
ion_dynamics = 'bfgs'
upscale = 1.0
/
&CELL
/

K_POINTS {automatic}
9 9 2 0  0  0

ATOMIC_SPECIES
C 12.01 C.pbe-n-rrkjus_psl.1.0.0.UPF
Cu 63.54 Cu.pbe-dn-rrkjus_psl.1.0.0.UPF
In 114.8 In.pbe-dn-rrkjus_psl.1.0.0.UPF
Li 6.941 Li.pbe-sl-rrkjus_psl.1.0.0.UPF
Y 88.90 Y.pbe-spn-rrkjus_psl.1.0.0.UPF


CELL_PARAMETERS {angstrom}
6.68415000 0.00000000 0.00000000
0.00000000 6.68415000 0.00000000
0.00000000 0.00000000 25.01310000

ATOMIC_POSITIONS {angstrom}
Li 0.18769093 3.15966455 3.36876431
Li 0.00000000 0.00000000 -0.8354375400000009 0 0 0
Li 3.34207500 3.34207500 -0.8354375400000009 0 0 0
Li 3.15966455 0.18769093 3.36876431
Y 5.01485038 1.66923278 0.96025291
Y 5.01311250 5.01311250 -2.5065627500000005 0 0 0
Y 1.67103750 1.67103750 -2.5065627500000005 0 0 0
Y 1.66923278 5.01485038 0.96025291
In 1.67331011 1.67331011 0.60331597
In 1.67103750 5.01311250 -2.5065627500000005 0 0 0
In 5.01311250 1.67103750 -2.5065627500000005 0 0 0
In 5.01150830 5.01150830 1.38597587
Cu 0.36435302 0.36441986 2.62387419
Cu 0.00000000 3.34207500 -0.8354375400000009 0 0 0
Cu 3.34207500 0.00000000 -0.8354375400000009 0 0 0
Cu 2.99282816 2.99282816 2.61612013
C 1.68039531 1.68039531 3.06160344
