&CONTROL
calculation = 'relax'
prefix = 'scf'
pseudo_dir = '/vol0403/data/hp230205/u10028/POT_HYBRID_KKJUS_GBRV'
outdir = './data'
tprnfor = .true.
nstep = 50
disk_io = 'non'
/
&SYSTEM
ibrav = 0
ecutwfc = 50.0
ecutrho = 400
occupations = 'smearing'
smearing = 'mp'
degauss = 0.01
assume_isolated = 'esm'
esm_bc = 'bc1'
input_dft = 'BEEF-VDW'
nosym = .true.
nspin = 1
ntyp = 5
nat = 33
/
&ELECTRONS
electron_maxstep = 200
mixing_beta = 0.1
conv_thr = 1e-06
/
&IONS
ion_dynamics = 'bfgs'
upscale = 1.0
/
&CELL
/

K_POINTS {automatic}
6 6 1 0 0 0

ATOMIC_SPECIES
C 12.01 C.pbe-n-rrkjus_psl.1.0.0.UPF
Hf 178.4 Hf.pbe-spn-rrkjus_psl.1.0.0.UPF
Li 6.941 Li.pbe-sl-rrkjus_psl.1.0.0.UPF
Pd 106.4 Pd.pbe-n-rrkjus_psl.1.0.0.UPF
Sn 118.7 Sn.pbe-dn-rrkjus_psl.1.0.0.UPF


CELL_PARAMETERS {angstrom}
6.67688000 0.00000000 0.00000000
0.00000000 9.44254000 0.00000000
0.00000000 0.00000000 27.08190000

ATOMIC_POSITIONS {angstrom}
Li 0.00000000 2.36063500 -1.1802291999999994 0 0 0
Li 0.00000000 7.08190500 -1.1802291999999994 0 0 0
Li 3.33844000 4.72127000 -3.5409584200000026 0 0 0
Li 3.33844000 0.00000000 -3.5409584200000026 0 0 0
Li 6.42656377 7.08190500 4.01489168
Li 6.48505324 2.36063500 4.41814117
Li 3.42083270 9.43234206 1.04156987
Li 3.42076593 4.73146794 1.04156987
Hf 0.00000000 0.00000000 -3.5409584200000026 0 0 0
Hf 0.00000000 4.72127000 -3.5409584200000026 0 0 0
Hf 3.33844000 7.08190500 -1.1802291999999994 0 0 0
Hf 3.33844000 2.36063500 -1.1802291999999994 0 0 0
Hf 0.44574851 4.71163861 1.80094635
Hf 0.44574851 0.00963139 1.80094635
Hf 2.71515325 2.36063500 3.23628705
Hf 2.86077600 7.08190500 3.09519035
Sn 1.66922000 0.00000000 -1.1802291999999994 0 0 0
Sn 1.66922000 4.72127000 -1.1802291999999994 0 0 0
Sn 5.00766000 2.36063500 -3.5409584200000026 0 0 0
Sn 5.00766000 7.08190500 -3.5409584200000026 0 0 0
Sn 1.74667181 4.80738596 4.43411949
Sn 1.74667181 9.35642404 4.43411949
Sn 5.22926565 7.08190500 1.36926086
Sn 5.17211155 2.36063500 1.14285618
Pd 5.00766000 0.00000000 -1.1802291999999994 0 0 0
Pd 5.00766000 4.72127000 -1.1802291999999994 0 0 0
Pd 1.66922000 2.36063500 -3.5409584200000026 0 0 0
Pd 1.66922000 7.08190500 -3.5409584200000026 0 0 0
Pd 4.77396920 4.71399924 3.16885312
Pd 4.77390243 0.00727076 3.16885312
Pd 1.47665878 7.08190500 0.86147524
Pd 1.52606769 2.36063500 0.83303924
C 4.74666076 2.36063500 3.33486517
