&CONTROL
calculation = 'relax'
prefix = 'scf'
pseudo_dir = '/vol0004/mdt0/data/hp150275/u10028/POT_HYBRID_KKJUS_GBRV'
outdir = './data'
tprnfor = .true.
nstep = 70
disk_io = 'non'
/
&SYSTEM
ibrav = 0
ecutwfc = 50.0
ecutrho = 400
occupations = 'smearing'
smearing = 'mp'
degauss = 0.01
assume_isolated = 'esm'
esm_bc = 'bc1'
input_dft = 'BEEF-VDW'
nosym = .true.
nspin = 1
ntyp = 2
nat = 32
/
&ELECTRONS
electron_maxstep = 200
mixing_beta = 0.1
conv_thr = 1e-06
/
&IONS
ion_dynamics = 'bfgs'
upscale = 1.0
/
&CELL
/

K_POINTS {automatic}
6 8 1 0 0 0

ATOMIC_SPECIES
Pt 195.0 Pt.pbe-n-rrkjus_psl.1.0.0.UPF
Zn 65.40 Zn.pbe-dnl-rrkjus_psl.1.0.0.UPF

CELL_PARAMETERS {angstrom}
8.18700000 0.00000000 0.00000000
-0.00000000 7.15868000 0.00000000
0.00000000 0.00000000 26.14020000

ATOMIC_POSITIONS {angstrom}
Zn 2.04675000 1.78967000 -3.070166490000002 0 0 0
Zn 0.00000000 1.78967000 -1.0233888300000018 0 0 0
Zn 2.04675000 1.78967000 1.02338883
Zn 0.00000000 1.78967000 3.07016649
Zn 2.04675000 5.36901000 -3.070166490000002 0 0 0
Zn 0.00000000 5.36901000 -1.0233888300000018 0 0 0
Zn 2.04675000 5.36901000 1.02338883
Zn 0.00000000 5.36901000 3.07016649
Zn 6.14025000 1.78967000 -3.070166490000002 0 0 0
Zn 4.09350000 1.78967000 -1.0233888300000018 0 0 0
Zn 6.14025000 1.78967000 1.02338883
Zn 4.09350000 1.78967000 3.07016649
Zn 6.14025000 5.36901000 -3.070166490000002 0 0 0
Zn 4.09350000 5.36901000 -1.0233888300000018 0 0 0
Zn 6.14025000 5.36901000 1.02338883
Zn 4.09350000 5.36901000 3.07016649
Pt 0.00000000 0.00000000 -3.070166490000002 0 0 0
Pt 2.04675000 0.00000000 -1.0233888300000018 0 0 0
Pt 0.00000000 0.00000000 1.02338883
Pt 2.04675000 -0.00000000 3.07016649
Pt 0.00000000 3.57934000 -3.070166490000002 0 0 0
Pt 2.04675000 3.57934000 -1.0233888300000018 0 0 0
Pt 0.00000000 3.57934000 1.02338883
Pt 2.04675000 3.57934000 3.07016649
Pt 4.09350000 0.00000000 -3.070166490000002 0 0 0
Pt 6.14025000 0.00000000 -1.0233888300000018 0 0 0
Pt 4.09350000 -0.00000000 1.02338883
Pt 6.14025000 -0.00000000 3.07016649
Pt 4.09350000 3.57934000 -3.070166490000002 0 0 0
Pt 6.14025000 3.57934000 -1.0233888300000018 0 0 0
Pt 4.09350000 3.57934000 1.02338883
Pt 6.14025000 3.57934000 3.07016649
