&CONTROL
calculation = 'relax'
prefix = 'scf'
pseudo_dir = '/vol0004/mdt0/data/hp150275/u10028/POT_HYBRID_KKJUS_GBRV'
outdir = './data'
tprnfor = .true.
nstep = 50
disk_io = 'non'
/
&SYSTEM
ibrav = 0
ecutwfc = 50.0
ecutrho = 400
occupations = 'smearing'
smearing = 'mp'
degauss = 0.01
assume_isolated = 'esm'
esm_bc = 'bc1'
input_dft = 'BEEF-VDW'
nosym = .true.
nspin = 2
ntyp = 5
nat = 34
starting_magnetization(1) = 0.0
starting_magnetization(2) = 0.0
starting_magnetization(3) = 0.001
starting_magnetization(4) = 0.0
starting_magnetization(5) = 0.0
/
&ELECTRONS
electron_maxstep = 200
mixing_beta = 0.1
conv_thr = 1e-06
/
&IONS
ion_dynamics = 'bfgs'
upscale = 1.0
/
&CELL
/

K_POINTS {automatic}
9 6 2 0  0  0

ATOMIC_SPECIES
C 12.01 C.pbe-n-rrkjus_psl.1.0.0.UPF
Hf 178.4 Hf.pbe-spn-rrkjus_psl.1.0.0.UPF
Ni 58.69 ni_pbe_v1.4.uspp.F.UPF
O 15.99 O.pbe-n-rrkjus_psl.1.0.0.UPF
Sn 118.7 Sn.pbe-dn-rrkjus_psl.1.0.0.UPF

CELL_PARAMETERS {angstrom}
6.29417000 0.00000000 0.00000000
0.00000000 8.90130000 0.00000000
0.00000000 0.00000000 26.67600000

ATOMIC_POSITIONS {angstrom}
Hf 0.00000000 0.00000000 23.33803212
Hf 3.14708500 2.22532500 25.56334404
Hf 3.14708500 6.67597500 25.56334404
Hf 0.00000000 4.45065000 23.33803212
Hf 6.28869407 4.44940382 1.13479704
Hf 3.15136504 6.65986365 3.30649020
Hf 3.15117621 2.23903300 3.30515640
Hf 0.01391012 0.00035605 1.13212944
Ni 1.57354250 0.00000000 25.56334404
Ni 4.72062750 4.45065000 25.56334404
Ni 4.72062750 0.00000000 25.56334404
Ni 1.57354250 4.45065000 25.56334404
Ni 4.72062750 6.67597500 23.33803212
Ni 1.57354250 2.22532500 23.33803212
Ni 1.57354250 6.67597500 23.33803212
Ni 4.72062750 2.22532500 23.33803212
Ni 1.68035456 4.44975987 3.19551804
Ni 4.70810210 8.89987579 3.13336296
Ni 4.59222643 4.44949283 3.20538816
Ni 1.67928456 8.89907468 3.46654620
Ni 4.73881765 2.20894661 1.17614484
Ni 1.54351931 6.67152435 1.21029012
Ni 1.54811405 2.22906355 1.21029012
Ni 4.74347534 6.69119622 1.17401076
Sn 0.00000000 6.67597500 25.56334404
Sn 3.14708500 0.00000000 23.33803212
Sn 0.00000000 2.22532500 25.56334404
Sn 3.14708500 4.45065000 23.33803212
Sn 6.26307680 2.25665758 3.53910492
Sn 3.14746265 4.45260829 1.03849668
Sn 6.26251032 6.64206105 3.54097224
Sn 3.11013822 8.89925270 1.09158192
C 2.20616953 0.00017803 5.14846800
O 2.45271217 8.90049888 6.28779996
