&CONTROL
calculation = 'relax'
prefix = 'scf'
pseudo_dir = '/vol0004/mdt0/data/hp150275/u10028/POT_HYBRID_KKJUS_GBRV'
outdir = './data'
tprnfor = .true.
nstep = 50
disk_io = 'non'
/
&SYSTEM
ibrav = 0
ecutwfc = 50.0
ecutrho = 400
occupations = 'smearing'
smearing = 'mp'
degauss = 0.01
assume_isolated = 'esm'
esm_bc = 'bc1'
input_dft = 'BEEF-VDW'
nosym = .true.
nspin = 2
ntyp = 3
nat = 16
starting_magnetization(1) = 0.1
starting_magnetization(2) = 0.1
starting_magnetization(3) = 0.1
/
&ELECTRONS
electron_maxstep = 200
mixing_beta = 0.1
conv_thr = 1e-06
/
&IONS
ion_dynamics = 'bfgs'
upscale = 1.0
/
&CELL
/

K_POINTS {automatic}
8 8 1 0 0 0

ATOMIC_SPECIES
Ge 72.64 Ge.pbe-dn-rrkjus_psl.1.0.0.UPF
Ni 58.69 ni_pbe_v1.4.uspp.F.UPF
Zn 65.40 Zn.pbe-dnl-rrkjus_psl.1.0.0.UPF

CELL_PARAMETERS {angstrom}
5.88011000 0.00000000 0.00000000
0.00000000 5.88011000 0.00000000
0.00000000 0.00000000 24.41010000

ATOMIC_POSITIONS {angstrom}
Zn 0.00000000 0.00000000 2.15028571
Zn 2.94011380 2.93999620 2.15077391
Zn 2.94005500 0.00000000 -0.7349881099999998 0 0 0
Zn 0.00000000 2.94005500 -0.7349881099999998 0 0 0
Ni 1.47049791 1.47102712 0.77721758
Ni 4.41008250 4.41008250 -2.2049643299999993 0 0 0
Ni 4.40961209 1.47102712 0.77843809
Ni 1.47002750 4.41008250 -2.2049643299999993 0 0 0
Ni 4.40972969 4.40902408 0.77843809
Ni 1.47002750 1.47002750 -2.2049643299999993 0 0 0
Ni 1.47038031 4.40908288 0.77770579
Ni 4.41008250 1.47002750 -2.2049643299999993 0 0 0
Ge 0.00000000 0.00000000 -0.7349881099999998 0 0 0
Ge 2.94052541 0.00005880 2.26452498
Ge 5.87999240 2.94011380 2.26501318
Ge 2.94005500 2.94005500 -0.7349881099999998 0 0 0
