&CONTROL
calculation = 'relax'
prefix = 'scf'
pseudo_dir = '/vol0004/mdt0/data/hp150275/u10028/POT_HYBRID_KKJUS_GBRV'
outdir = './data'
tprnfor = .true.
nstep = 70
disk_io = 'non'
/
&SYSTEM
ibrav = 0
ecutwfc = 50.0
ecutrho = 400
occupations = 'smearing'
smearing = 'mp'
degauss = 0.01
assume_isolated = 'esm'
esm_bc = 'bc1'
input_dft = 'BEEF-VDW'
nosym = .true.
nspin = 1
ntyp = 3
nat = 33
/
&ELECTRONS
electron_maxstep = 200
mixing_beta = 0.1
conv_thr = 1e-06
/
&IONS
ion_dynamics = 'bfgs'
upscale = 1.0
/
&CELL
/

K_POINTS {automatic}
6 8 1 0 0 0

ATOMIC_SPECIES
Bi 208.9 Bi.pbe-dn-rrkjus_psl.1.0.0.UPF
C 12.01 C.pbe-n-rrkjus_psl.1.0.0.UPF
Li 6.941 Li.pbe-sl-rrkjus_psl.1.0.0.UPF

CELL_PARAMETERS {angstrom}
9.62191000 0.00000000 0.00000000
-0.00000000 8.50772000 0.00000000
0.00000000 0.00000000 27.21640000

ATOMIC_POSITIONS {angstrom}
Li 2.40547750 2.12693000 -3.6080781500000008 0 0 0
Li 4.81095500 2.12693000 -1.2026927200000017 0 0 0
Li 2.40547750 2.12693000 1.20269272
Li 4.81095500 2.12693000 3.60807815
Li 2.40547750 6.38079000 -3.6080781500000008 0 0 0
Li 4.81095500 6.38079000 -1.2026927200000017 0 0 0
Li 2.40547750 6.38079000 1.20269272
Li 4.81095500 6.38079000 3.60807815
Li 7.21643250 2.12693000 -3.6080781500000008 0 0 0
Li 0.00000000 2.12693000 -1.2026927200000017 0 0 0
Li 7.21643250 2.12693000 1.20269272
Li 0.00000000 2.12693000 3.60807815
Li 7.21643250 6.38079000 -3.6080781500000008 0 0 0
Li 0.00000000 6.38079000 -1.2026927200000017 0 0 0
Li 7.21643250 6.38079000 1.20269272
Li 0.00000000 6.38079000 3.60807815
Bi 0.00000000 0.00000000 -3.6080781500000008 0 0 0
Bi 2.40547750 0.00000000 -1.2026927200000017 0 0 0
Bi 4.81095500 -0.00000000 1.20269272
Bi 2.40547750 -0.00000000 3.60807815
Bi 0.00000000 4.25386000 -3.6080781500000008 0 0 0
Bi 2.40547750 4.25386000 -1.2026927200000017 0 0 0
Bi 4.81095500 4.25386000 1.20269272
Bi 2.40547750 4.25386000 3.60807815
Bi 4.81095500 0.00000000 -3.6080781500000008 0 0 0
Bi 7.21643250 0.00000000 -1.2026927200000017 0 0 0
Bi 0.00000000 0.00000000 1.20269272
Bi 7.21643250 -0.00000000 3.60807815
Bi 4.81095500 4.25386000 -3.6080781500000008 0 0 0
Bi 7.21643250 4.25386000 -1.2026927200000017 0 0 0
Bi 0.00000000 4.25386000 1.20269272
Bi 7.21643250 4.25386000 3.60807815
C 2.40547750 2.12693000 4.40824031
