&CONTROL
calculation = 'relax'
prefix = 'scf'
pseudo_dir = '/vol0403/data/hp230205/u10028/POT_HYBRID_KKJUS_GBRV'
outdir = './data'
tprnfor = .true.
nstep = 70
disk_io = 'non'
/
&SYSTEM
ibrav = 0
ecutwfc = 50.0
ecutrho = 400
occupations = 'smearing'
smearing = 'mp'
degauss = 0.01
assume_isolated = 'esm'
esm_bc = 'bc1'
input_dft = 'BEEF-VDW'
nosym = .true.
nspin = 1
ntyp = 6
nat = 34
/
&ELECTRONS
electron_maxstep = 200
mixing_beta = 0.1
conv_thr = 1e-06
/
&IONS
ion_dynamics = 'bfgs'
upscale = 1.0
/
&CELL
/

K_POINTS {automatic}
6 6 1 0 0 0

ATOMIC_SPECIES
Al 26.98 Al.pbe-nl-rrkjus_psl.1.0.0.UPF
C 12.01 C.pbe-n-rrkjus_psl.1.0.0.UPF
Li 6.941 Li.pbe-sl-rrkjus_psl.1.0.0.UPF
O 15.99 O.pbe-n-rrkjus_psl.1.0.0.UPF
Pd 106.4 Pd.pbe-n-rrkjus_psl.1.0.0.UPF
Pt 195.0 Pt.pbe-n-rrkjus_psl.1.0.0.UPF


CELL_PARAMETERS {angstrom}
6.06122000 0.00000000 0.00000000
-0.00000000 8.57186000 0.00000000
0.00000000 0.00000000 26.42890000

ATOMIC_POSITIONS {angstrom}
Li 0.00000000 2.14296500 -1.071427609999997 0 0 0
Li 0.00000000 6.42889500 -1.071427609999997 0 0 0
Li 3.03061000 4.28593000 -3.214547109999998 0 0 0
Li 3.03061000 0.00000000 -3.214547109999998 0 0 0
Li 0.00200020 6.38312127 3.61177347
Li 0.00206081 2.18873873 3.61177347
Li 3.02715510 0.00008572 1.06059176
Li 3.02085144 4.28593000 1.03442715
Al 0.00000000 0.00000000 -3.214547109999998 0 0 0
Al 0.00000000 4.28593000 -3.214547109999998 0 0 0
Al 3.03061000 6.42889500 -1.071427609999997 0 0 0
Al 3.03061000 2.14296500 -1.071427609999997 0 0 0
Al 0.01757754 4.28593000 1.09627077
Al 6.04527899 -0.00000000 1.08596350
Al 3.02333654 2.17450944 3.14530339
Al 3.02333654 6.39735056 3.14530339
Pd 4.54591500 0.00000000 -1.071427609999997 0 0 0
Pd 4.54591500 4.28593000 -1.071427609999997 0 0 0
Pd 1.51530500 2.14296500 -3.214547109999998 0 0 0
Pd 1.51530500 6.42889500 -3.214547109999998 0 0 0
Pd 4.50724442 4.28593000 3.14636054
Pd 4.48675749 -0.00000000 3.14186763
Pd 1.48372604 6.47989757 1.08147059
Pd 1.48378666 2.09196243 1.08147059
Pt 1.51530500 0.00000000 -1.071427609999997 0 0 0
Pt 1.51530500 4.28593000 -1.071427609999997 0 0 0
Pt 4.54591500 2.14296500 -3.214547109999998 0 0 0
Pt 4.54591500 6.42889500 -3.214547109999998 0 0 0
Pt 1.58610005 4.28593000 3.12495314
Pt 1.52373010 -0.00000000 3.30096961
Pt 4.57240253 6.42846641 1.07697767
Pt 4.57240253 2.14330787 1.07697767
C 1.20678890 -0.00000000 5.18693591
O 1.11223387 0.00000000 6.34240742
