&CONTROL
calculation = 'relax'
prefix = 'scf'
pseudo_dir = '/vol0004/mdt0/data/hp150275/u10028/POT_HYBRID_KKJUS_GBRV'
outdir = './data'
tprnfor = .true.
nstep = 50
disk_io = 'non'
/
&SYSTEM
ibrav = 0
ecutwfc = 50.0
ecutrho = 400
occupations = 'smearing'
smearing = 'mp'
degauss = 0.01
assume_isolated = 'esm'
esm_bc = 'bc1'
input_dft = 'BEEF-VDW'
nosym = .true.
nspin = 2
ntyp = 4
nat = 34
starting_magnetization(1) = 0.0
starting_magnetization(2) = 0.1
starting_magnetization(3) = 0.0
starting_magnetization(4) = 0.0
/
&ELECTRONS
electron_maxstep = 200
mixing_beta = 0.1
conv_thr = 1e-06
/
&IONS
ion_dynamics = 'bfgs'
upscale = 1.0
/
&CELL
/

K_POINTS {automatic}
7 7 2 0  0  0

ATOMIC_SPECIES
C 12.01 C.pbe-n-rrkjus_psl.1.0.0.UPF
Co 58.93 co_pbe_v1.2.uspp.F.UPF
O 15.99 O.pbe-n-rrkjus_psl.1.0.0.UPF
Ta 180.9 Ta.pbe-spn-rrkjus_psl.1.0.0.UPF

CELL_PARAMETERS {angstrom}
7.30495000 0.00000000 0.00000000
-0.00000000 7.30495000 0.00000000
0.00000000 0.00000000 25.47870000

ATOMIC_POSITIONS {angstrom}
Ta 0.00000000 0.00000000 2.73946982
Ta 0.00000000 0.00000000 24.56554339
Ta 0.00000000 3.65247500 2.73946982
Ta 0.00000000 3.65247500 24.56554339
Ta 3.65247500 -0.00000000 2.73946982
Ta 3.65247500 0.00000000 24.56554339
Ta 3.65247500 3.65247500 2.73946982
Ta 3.65247500 3.65247500 24.56554339
Co 0.00000000 1.82623750 0.91315661
Co 1.82623750 -0.00000000 0.91315661
Co 1.82623750 1.82623750 2.73946982
Co 0.00000000 1.82623750 22.73923018
Co 1.82623750 0.00000000 22.73923018
Co 1.82623750 1.82623750 24.56554339
Co 0.00000000 5.47871250 0.91315661
Co 1.82623750 3.65247500 0.91315661
Co 1.82623750 5.47871250 2.73946982
Co 0.00000000 5.47871250 22.73923018
Co 1.82623750 3.65247500 22.73923018
Co 1.82623750 5.47871250 24.56554339
Co 3.65247500 1.82623750 0.91315661
Co 5.47871250 -0.00000000 0.91315661
Co 5.47871250 1.82623750 2.73946982
Co 3.65247500 1.82623750 22.73923018
Co 5.47871250 0.00000000 22.73923018
Co 5.47871250 1.82623750 24.56554339
Co 3.65247500 5.47871250 0.91315661
Co 5.47871250 3.65247500 0.91315661
Co 5.47871250 5.47871250 2.73946982
Co 3.65247500 5.47871250 22.73923018
Co 5.47871250 3.65247500 22.73923018
Co 5.47871250 5.47871250 24.56554339
C 1.82623750 1.82623750 4.63941648
O 1.82623750 1.82623750 5.78927021
