&CONTROL
calculation = 'relax'
prefix = 'scf'
pseudo_dir = '/vol0004/mdt0/data/hp150275/u10028/POT_KKJUS'
outdir = './data'
tprnfor = .true.
nstep = 50
disk_io = 'non'
/
&SYSTEM
ibrav = 0
ecutwfc = 50.0
ecutrho = 400
occupations = 'smearing'
smearing = 'mp'
degauss = 0.01
assume_isolated = 'esm'
esm_bc = 'bc1'
input_dft = 'BEEF-VDW'
nosym = .true.
nspin = 1
ntyp = 4
nat = 33
/
&ELECTRONS
electron_maxstep = 200
mixing_beta = 0.1
conv_thr = 1e-06
/
&IONS
ion_dynamics = 'bfgs'
upscale = 1.0
/
&CELL
/

K_POINTS {automatic}
9 6 2 0  0  0

ATOMIC_SPECIES
Au 196.9 Au.pbe-n-rrkjus_psl.1.0.0.UPF
C 12.01 C.pbe-n-rrkjus_psl.1.0.0.UPF
In 114.8 In.pbe-dn-rrkjus_psl.1.0.0.UPF
Li 6.941 Li.pbe-sl-rrkjus_psl.1.0.0.UPF

CELL_PARAMETERS {angstrom}
6.60991000 0.00000000 0.00000000
0.00000000 9.34782000 0.00000000
0.00000000 0.00000000 27.01090000

ATOMIC_POSITIONS {angstrom}
Li 0.00000000 7.01086500 -1.1684915300000007 0 0 0
Li 3.30495500 0.00000000 -3.5054745999999994 0 0 0
Li 0.00000000 2.33695500 -1.1684915300000007 0 0 0
Li 3.30495500 4.67391000 -3.5054745999999994 0 0 0
Li 1.65247750 2.33695500 -3.5054745999999994 0 0 0
Li 1.65247750 7.01086500 -3.5054745999999994 0 0 0
Li 4.95743250 4.67391000 -1.1684915300000007 0 0 0
Li 4.95743250 0.00000000 -1.1684915300000007 0 0 0
Li 0.13186770 2.10148341 3.59650133
Li 3.26384136 4.67391000 1.12500398
Li 0.13186770 7.24633659 3.59650133
Li 3.39643615 0.00000000 1.12149257
Li 1.75664968 7.10967146 1.35756783
Li 1.75658358 2.23814854 1.35756783
Li 4.91539347 0.00000000 3.74127976
Li 5.21779685 4.67391000 3.46495825
In 0.00000000 0.00000000 -3.5054745999999994 0 0 0
In 3.30495500 2.33695500 -1.1684915300000007 0 0 0
In 3.30495500 7.01086500 -1.1684915300000007 0 0 0
In 0.00000000 4.67391000 -3.5054745999999994 0 0 0
In 0.02683623 4.67391000 1.09988385
In 3.38857036 6.83400425 3.93818922
In 3.38857036 2.51372228 3.93818922
In 6.42965775 0.00000000 1.04748270
Au 1.65247750 0.00000000 -1.1684915300000007 0 0 0
Au 1.65247750 4.67391000 -1.1684915300000007 0 0 0
Au 4.95743250 7.01086500 -3.5054745999999994 0 0 0
Au 4.95743250 2.33695500 -3.5054745999999994 0 0 0
Au 1.61566030 4.67391000 3.36906956
Au 2.22773797 0.00000000 3.55247357
Au 4.79403552 2.45978535 1.31056887
Au 4.79403552 6.88803465 1.31056887
C 0.23253663 0.00000000 3.19565958
