&CONTROL
calculation = 'relax'
prefix = 'scf'
pseudo_dir = '/vol0004/mdt0/data/hp150275/u10028/POT_KKJUS'
outdir = './data'
tprnfor = .true.
nstep = 50
disk_io = 'non'
/
&SYSTEM
ibrav = 0
ecutwfc = 50.0
ecutrho = 400
occupations = 'smearing'
smearing = 'mp'
degauss = 0.01
assume_isolated = 'esm'
esm_bc = 'bc1'
input_dft = 'BEEF-VDW'
nosym = .true.
nspin = 1
ntyp = 3
nat = 32
/
&ELECTRONS
electron_maxstep = 200
mixing_beta = 0.1
conv_thr = 1e-06
/
&IONS
ion_dynamics = 'bfgs'
upscale = 1.0
/
&CELL
/

K_POINTS {automatic}
8 6 1 0 0 0

ATOMIC_SPECIES
Ni 58.69 Ni.pbe-spn-rrkjus_psl.1.0.0.UPF
Sc 44.95 Sc.pbe-spn-rrkjus_psl.1.0.0.UPF
Sn 118.7 Sn.pbe-dn-rrkjus_psl.1.0.0.UPF

CELL_PARAMETERS {angstrom}
6.31539000 0.00000000 0.00000000
0.00000000 8.93131000 0.00000000
0.00000000 0.00000000 26.69850000

ATOMIC_POSITIONS {angstrom}
Sc 0.00000000 0.00000000 -3.349326819999998 0 0 0
Sc 3.15769500 2.23282750 -1.1165312699999994 0 0 0
Sc 3.15769500 6.69848250 -1.1165312699999994 0 0 0
Sc 0.00000000 4.46565500 -3.349326819999998 0 0 0
Sc 0.00000000 4.46574431 1.09223563
Sc 3.15763185 6.69857181 3.39925302
Sc 3.15763185 2.23273819 3.39925302
Sc 0.00000000 0.00000000 1.09250262
Ni 1.57884750 0.00000000 -1.1165312699999994 0 0 0
Ni 4.73654250 4.46565500 -1.1165312699999994 0 0 0
Ni 4.73654250 0.00000000 -1.1165312699999994 0 0 0
Ni 1.57884750 4.46565500 -1.1165312699999994 0 0 0
Ni 4.73654250 6.69848250 -3.349326819999998 0 0 0
Ni 1.57884750 2.23282750 -3.349326819999998 0 0 0
Ni 1.57884750 6.69848250 -3.349326819999998 0 0 0
Ni 4.73654250 2.23282750 -3.349326819999998 0 0 0
Ni 1.49087412 4.46565500 3.18619899
Ni 4.82438957 0.00000000 3.18646597
Ni 4.82445273 4.46565500 3.18619899
Ni 1.49081096 0.00000000 3.18673296
Ni 4.68065130 2.23300613 1.19716074
Ni 1.63486501 6.69848250 1.19716074
Ni 1.63480186 2.23291681 1.19716074
Ni 4.68052499 6.69848250 1.19716074
Sn 0.00000000 6.69848250 -1.1165312699999994 0 0 0
Sn 3.15769500 0.00000000 -3.349326819999998 0 0 0
Sn 0.00000000 2.23282750 -1.1165312699999994 0 0 0
Sn 3.15769500 4.46565500 -3.349326819999998 0 0 0
Sn 6.31532685 2.23291681 3.45291700
Sn 3.15769500 4.46565500 1.12053604
Sn 0.00000000 6.69839319 3.45291700
Sn 3.15763185 0.00008931 1.12080303
