&CONTROL
calculation = 'relax'
prefix = 'scf'
pseudo_dir = '/vol0004/mdt0/data/hp150275/u10028/POT_KKJUS'
outdir = './data'
tprnfor = .true.
nstep = 50
disk_io = 'non'
/
&SYSTEM
ibrav = 0
ecutwfc = 50.0
ecutrho = 400
occupations = 'smearing'
smearing = 'mp'
degauss = 0.01
assume_isolated = 'esm'
esm_bc = 'bc1'
input_dft = 'BEEF-VDW'
nosym = .true.
nspin = 1
ntyp = 4
nat = 33
/
&ELECTRONS
electron_maxstep = 200
mixing_beta = 0.1
conv_thr = 1e-06
/
&IONS
ion_dynamics = 'bfgs'
upscale = 1.0
/
&CELL
/

K_POINTS {automatic}
8 6 1 0 0 0

ATOMIC_SPECIES
C 12.01 C.pbe-n-rrkjus_psl.1.0.0.UPF
In 114.8 In.pbe-dn-rrkjus_psl.1.0.0.UPF
Ir 192.2 Ir.pbe-n-rrkjus_psl.0.2.3.UPF
Li 6.941 Li.pbe-sl-rrkjus_psl.1.0.0.UPF

CELL_PARAMETERS {angstrom}
6.34973000 0.00000000 0.00000000
0.00000000 8.97987000 0.00000000
0.00000000 0.00000000 26.73490000

ATOMIC_POSITIONS {angstrom}
Li 0.00000000 6.73490250 -1.1225984499999981 0 0 0
Li 3.17486500 0.00000000 -3.367528 0 0 0
Li 0.00000000 2.24496750 -1.1225984499999981 0 0 0
Li 3.17486500 4.48993500 -3.367528 0 0 0
Li 1.58743250 0.00000000 -1.1225984499999981 0 0 0
Li 1.58743250 4.48993500 -1.1225984499999981 0 0 0
Li 4.76229750 6.73490250 -3.367528 0 0 0
Li 4.76229750 2.24496750 -3.367528 0 0 0
Li 0.19906404 2.24496750 3.65492818
Li 3.15937166 4.45958304 1.18702956
Li 0.20122294 6.73490250 3.35736874
Li 3.15937166 0.03035196 1.18702956
Li 1.74827116 4.51202548 3.59691345
Li 1.74827116 8.95777952 3.59691345
Li 4.75397935 2.24496750 1.14585781
Li 4.74515323 6.73490250 1.11511268
In 1.58743250 2.24496750 -3.367528 0 0 0
In 1.58743250 6.73490250 -3.367528 0 0 0
In 4.76229750 4.48993500 -1.1225984499999981 0 0 0
In 4.76229750 0.00000000 -1.1225984499999981 0 0 0
In 1.55790626 6.73490250 1.04373050
In 1.47021648 2.24496750 1.00844043
In 4.76972668 8.87516472 3.50494539
In 4.76972668 4.59464028 3.50494539
Ir 0.00000000 0.00000000 -3.367528 0 0 0
Ir 3.17486500 2.24496750 -1.1225984499999981 0 0 0
Ir 3.17486500 6.73490250 -1.1225984499999981 0 0 0
Ir 0.00000000 4.48993500 -3.367528 0 0 0
Ir 6.32668048 4.49424534 1.24103406
Ir 3.15816521 6.73490250 3.19107766
Ir 3.09898573 2.24496750 3.25711287
Ir 6.32668048 8.97555966 1.24103406
C 4.53504066 2.24496750 4.34148041
