&CONTROL
calculation = 'relax'
prefix = 'scf'
pseudo_dir = '/vol0004/mdt0/data/hp150275/u10028/POT_HYBRID_KKJUS_GBRV'
outdir = './data'
tprnfor = .true.
nstep = 50
disk_io = 'non'
/
&SYSTEM
ibrav = 0
ecutwfc = 50.0
ecutrho = 400
occupations = 'smearing'
smearing = 'mp'
degauss = 0.01
assume_isolated = 'esm'
esm_bc = 'bc1'
input_dft = 'BEEF-VDW'
nosym = .true.
nspin = 2
ntyp = 4
nat = 33
starting_magnetization(1) = 0.0
starting_magnetization(2) = 0.0
starting_magnetization(3) = 0.001
starting_magnetization(4) = 0.0
/
&ELECTRONS
electron_maxstep = 200
mixing_beta = 0.1
conv_thr = 1e-06
/
&IONS
ion_dynamics = 'bfgs'
upscale = 1.0
/
&CELL
/

K_POINTS {automatic}
9 6 2 0  0  0

ATOMIC_SPECIES
C 12.01 C.pbe-n-rrkjus_psl.1.0.0.UPF
Ga 69.72 Ga.pbe-dnl-rrkjus_psl.1.0.0.UPF
Ni 58.69 ni_pbe_v1.4.uspp.F.UPF
Ti 47.86 Ti.pbe-spn-rrkjus_psl.1.0.0.UPF

CELL_PARAMETERS {angstrom}
5.91339000 0.00000000 0.00000000
0.00000000 8.36280000 0.00000000
0.00000000 0.00000000 26.27210000

ATOMIC_POSITIONS {angstrom}
Ti 0.00000000 0.00000000 23.13599942
Ti 2.95669500 2.09070000 25.22673314
Ti 2.95669500 6.27210000 25.22673314
Ti 0.00000000 4.18140000 23.13599942
Ti 0.00000000 4.18148363 1.03722251
Ti 2.95669500 6.22409753 3.12559174
Ti 2.95669500 2.13920424 3.12480357
Ti 0.00000000 0.00016726 1.15176886
Ga 0.00000000 6.27210000 25.22673314
Ga 2.95669500 0.00000000 23.13599942
Ga 0.00000000 2.09070000 25.22673314
Ga 2.95669500 4.18140000 23.13599942
Ga 0.00000000 2.12707818 3.23357007
Ga 2.95669500 4.18114912 1.02224741
Ga 0.00000000 6.23513642 3.23357007
Ga 2.95669500 0.00008363 1.02697639
Ni 1.47834750 0.00000000 25.22673314
Ni 4.43504250 4.18140000 25.22673314
Ni 4.43504250 0.00000000 25.22673314
Ni 1.47834750 4.18140000 25.22673314
Ni 4.43504250 6.27210000 23.13599942
Ni 1.47834750 2.09070000 23.13599942
Ni 1.47834750 6.27210000 23.13599942
Ni 4.43504250 2.09070000 23.13599942
Ni 1.44020613 4.18156726 3.03889381
Ni 4.17030003 8.36196372 3.19678913
Ni 4.47318387 4.18156726 3.03889381
Ni 1.74308997 8.36196372 3.19678913
Ni 4.40452941 2.11143974 1.05429937
Ni 1.50891973 6.25136026 1.05508754
Ni 1.50886059 2.11143974 1.05429937
Ni 4.40447027 6.25136026 1.05508754
C 0.00000000 8.36271637 3.48026509
