&CONTROL
calculation = 'relax'
prefix = 'scf'
pseudo_dir = '/vol0004/mdt0/data/hp150275/u10028/POT_KKJUS'
outdir = './data'
tprnfor = .true.
nstep = 50
disk_io = 'non'
/
&SYSTEM
ibrav = 0
ecutwfc = 50.0
ecutrho = 400
occupations = 'smearing'
smearing = 'mp'
degauss = 0.01
assume_isolated = 'esm'
esm_bc = 'bc1'
input_dft = 'BEEF-VDW'
nosym = .true.
nspin = 1
ntyp = 4
nat = 33
/
&ELECTRONS
electron_maxstep = 200
mixing_beta = 0.1
conv_thr = 1e-06
/
&IONS
ion_dynamics = 'bfgs'
upscale = 1.0
/
&CELL
/

K_POINTS {automatic}
8 6 1 0 0 0

ATOMIC_SPECIES
C 12.01 C.pbe-n-rrkjus_psl.1.0.0.UPF
Ga 69.72 Ga.pbe-dnl-rrkjus_psl.1.0.0.UPF
Li 6.941 Li.pbe-sl-rrkjus_psl.1.0.0.UPF
Rh 102.9 Rh.pbe-spn-rrkjus_psl.1.0.0.UPF

CELL_PARAMETERS {angstrom}
6.12388000 0.00000000 0.00000000
0.00000000 8.66047000 0.00000000
0.00000000 0.00000000 26.49540000

ATOMIC_POSITIONS {angstrom}
Li 0.00000000 0.00000000 -3.2478061300000007 0 0 0
Li 3.06194000 2.16511750 -1.0826020400000012 0 0 0
Li 3.06194000 6.49535250 -1.0826020400000012 0 0 0
Li 0.00000000 4.33023500 -3.2478061300000007 0 0 0
Li 0.00000000 4.33023500 1.00814997
Li 3.06194000 6.57381636 3.55647754
Li 3.06194000 2.08665364 3.55647754
Li 0.00000000 0.00000000 1.03967950
Ga 1.53097000 0.00000000 -1.0826020400000012 0 0 0
Ga 4.59291000 4.33023500 -1.0826020400000012 0 0 0
Ga 4.59291000 0.00000000 -1.0826020400000012 0 0 0
Ga 1.53097000 4.33023500 -1.0826020400000012 0 0 0
Ga 4.59291000 6.49535250 -3.2478061300000007 0 0 0
Ga 1.53097000 2.16511750 -3.2478061300000007 0 0 0
Ga 1.53097000 6.49535250 -3.2478061300000007 0 0 0
Ga 4.59291000 2.16511750 -3.2478061300000007 0 0 0
Ga 1.43213058 4.33023500 3.28940391
Ga 4.85684923 0.00000000 3.40757339
Ga 4.69174942 4.33023500 3.28940391
Ga 1.26703077 0.00000000 3.40757339
Ga 4.53595792 2.14987507 1.04100427
Ga 1.58792208 6.51059493 1.04100427
Ga 1.58792208 2.14987507 1.04100427
Ga 4.53595792 6.51059493 1.04100427
Rh 0.00000000 6.49535250 -1.0826020400000012 0 0 0
Rh 3.06194000 0.00000000 -3.2478061300000007 0 0 0
Rh 0.00000000 2.16511750 -1.0826020400000012 0 0 0
Rh 3.06194000 4.33023500 -3.2478061300000007 0 0 0
Rh 0.00000000 2.24089661 2.96033104
Rh 3.06194000 4.33023500 1.13983211
Rh 0.00000000 6.41957339 2.96033104
Rh 3.06194000 0.00000000 1.14751577
C 3.06194000 0.00000000 3.89826820
