&CONTROL
calculation = 'relax'
prefix = 'scf'
pseudo_dir = '/vol0403/data/hp230205/u10028/POT_HYBRID_KKJUS_GBRV'
outdir = './data'
tprnfor = .true.
nstep = 50
disk_io = 'non'
/
&SYSTEM
ibrav = 0
ecutwfc = 50.0
ecutrho = 400
occupations = 'smearing'
smearing = 'mp'
degauss = 0.01
assume_isolated = 'esm'
esm_bc = 'bc1'
input_dft = 'BEEF-VDW'
nosym = .true.
nspin = 1
ntyp = 4
nat = 16
/
&ELECTRONS
electron_maxstep = 200
mixing_beta = 0.1
conv_thr = 1e-06
/
&IONS
ion_dynamics = 'bfgs'
upscale = 1.0
/
&CELL
/

K_POINTS {automatic}
8 8 1 0 0 0

ATOMIC_SPECIES
Ge 72.64 Ge.pbe-dn-rrkjus_psl.1.0.0.UPF
Li 6.941 Li.pbe-sl-rrkjus_psl.1.0.0.UPF
Pd 106.4 Pd.pbe-n-rrkjus_psl.1.0.0.UPF
Sn 118.7 Sn.pbe-dn-rrkjus_psl.1.0.0.UPF


CELL_PARAMETERS {angstrom}
6.61012000 0.00000000 0.00000000
0.00000000 6.61012000 0.00000000
0.00000000 0.00000000 24.95760000

ATOMIC_POSITIONS {angstrom}
Li 4.95759000 1.65253000 -0.8263461399999983 0 0 0
Li 4.95844932 4.95673068 2.45857318
Li 1.65206729 1.65332321 2.45433038
Li 1.65253000 4.95759000 -0.8263461399999983 0 0 0
Sn 0.00000000 3.30506000 -2.478788829999999 0 0 0
Sn 0.00264405 0.00317286 0.67734926
Sn 3.30234985 3.30195324 0.67734926
Sn 3.30506000 0.00000000 -2.478788829999999 0 0 0
Ge 0.00000000 0.00000000 -2.478788829999999 0 0 0
Ge 0.00059491 3.30757185 0.86503042
Ge 3.30433289 6.60754205 0.86552957
Ge 3.30506000 3.30506000 -2.478788829999999 0 0 0
Pd 1.65253000 1.65253000 -0.8263461399999983 0 0 0
Pd 1.65206729 4.95712729 1.98562666
Pd 4.95772220 1.65272830 1.98737369
Pd 4.95759000 4.95759000 -0.8263461399999983 0 0 0
