&CONTROL
calculation = 'relax'
prefix = 'scf'
pseudo_dir = '/vol0004/mdt0/data/hp150275/u10028/POT_KKJUS'
outdir = './data'
tprnfor = .true.
nstep = 50
disk_io = 'non'
/
&SYSTEM
ibrav = 0
ecutwfc = 50.0
ecutrho = 400
occupations = 'smearing'
smearing = 'mp'
degauss = 0.01
assume_isolated = 'esm'
esm_bc = 'bc1'
input_dft = 'BEEF-VDW'
nosym = .true.
nspin = 1
ntyp = 4
nat = 33
/
&ELECTRONS
electron_maxstep = 200
mixing_beta = 0.1
conv_thr = 1e-06
/
&IONS
ion_dynamics = 'bfgs'
upscale = 1.0
/
&CELL
/

K_POINTS {automatic}
8 6 1 0 0 0

ATOMIC_SPECIES
C 12.01 C.pbe-n-rrkjus_psl.1.0.0.UPF
Li 6.941 Li.pbe-sl-rrkjus_psl.1.0.0.UPF
Ni 58.69 Ni.pbe-spn-rrkjus_psl.1.0.0.UPF
Si 28.08 Si.pbe-nl-rrkjus_psl.1.0.0.UPF

CELL_PARAMETERS {angstrom}
5.57854000 0.00000000 0.00000000
0.00000000 7.88925000 0.00000000
0.00000000 0.00000000 25.91690000

ATOMIC_POSITIONS {angstrom}
Li 0.00000000 0.00000000 -2.9584141299999978 0 0 0
Li 2.78927000 1.97231250 -0.9861380499999974 0 0 0
Li 2.78927000 5.91693750 -0.9861380499999974 0 0 0
Li 0.00000000 3.94462500 -2.9584141299999978 0 0 0
Li 0.00100414 3.94249490 0.86173692
Li 2.79027414 5.80064996 3.66464966
Li 2.78993942 2.08915229 3.66490883
Li 0.00251034 0.00284013 0.89698391
Si 0.00000000 5.91693750 -0.9861380499999974 0 0 0
Si 2.78927000 0.00000000 -2.9584141299999978 0 0 0
Si 0.00000000 1.97231250 -0.9861380499999974 0 0 0
Si 2.78927000 3.94462500 -2.9584141299999978 0 0 0
Si 0.00016736 2.02777393 2.89906443
Si 2.78993942 3.94533503 0.99028475
Si 0.00200827 5.86313281 2.89595441
Si 2.78999521 7.88806661 0.95140940
Ni 1.39463500 0.00000000 -0.9861380499999974 0 0 0
Ni 4.18390500 3.94462500 -0.9861380499999974 0 0 0
Ni 4.18390500 0.00000000 -0.9861380499999974 0 0 0
Ni 1.39463500 3.94462500 -0.9861380499999974 0 0 0
Ni 4.18390500 5.91693750 -2.9584141299999978 0 0 0
Ni 1.39463500 1.97231250 -2.9584141299999978 0 0 0
Ni 1.39463500 5.91693750 -2.9584141299999978 0 0 0
Ni 4.18390500 1.97231250 -2.9584141299999978 0 0 0
Ni 1.29684319 3.94494057 2.77129412
Ni 4.31232299 7.88877665 2.93094222
Ni 4.28225466 3.94470389 2.77025744
Ni 1.26967570 7.88909221 2.93405225
Ni 4.14468786 1.94233335 1.02086669
Ni 1.43418685 5.94636440 1.01671999
Ni 1.43429842 1.94241224 1.02268087
Ni 4.15076847 5.94833672 1.01646082
C 2.79233820 0.00000000 3.76909477
