&CONTROL
calculation = 'relax'
prefix = 'scf'
pseudo_dir = '/vol0403/data/hp230205/u10028/POT_HYBRID_KKJUS_GBRV'
outdir = './data'
tprnfor = .true.
nstep = 50
disk_io = 'non'
/
&SYSTEM
ibrav = 0
ecutwfc = 50.0
ecutrho = 400
occupations = 'smearing'
smearing = 'mp'
degauss = 0.01
assume_isolated = 'esm'
esm_bc = 'bc1'
input_dft = 'BEEF-VDW'
nosym = .true.
nspin = 1
ntyp = 6
nat = 34
/
&ELECTRONS
electron_maxstep = 200
mixing_beta = 0.1
conv_thr = 1e-06
/
&IONS
ion_dynamics = 'bfgs'
upscale = 1.0
/
&CELL
/

K_POINTS {automatic}
6 6 1 0 0 0

ATOMIC_SPECIES
C 12.01 C.pbe-n-rrkjus_psl.1.0.0.UPF
Ga 69.72 Ga.pbe-dnl-rrkjus_psl.1.0.0.UPF
Ge 72.64 Ge.pbe-dn-rrkjus_psl.1.0.0.UPF
O 15.99 O.pbe-n-rrkjus_psl.1.0.0.UPF
Pd 106.4 Pd.pbe-n-rrkjus_psl.1.0.0.UPF
Sc 44.95 Sc.pbe-spn-rrkjus_psl.1.0.0.UPF


CELL_PARAMETERS {angstrom}
7.83718000 0.00000000 0.00000000
0.00000000 8.08666000 0.00000000
0.00000000 0.00000000 26.43810000

ATOMIC_POSITIONS {angstrom}
Sc 0.00000000 2.02166500 -1.0731224799999985 0 0 0
Sc 0.06175698 1.96505838 3.32062536
Sc 0.00000000 6.06499500 -1.0731224799999985 0 0 0
Sc 0.06175698 6.12176335 3.32062536
Sc 3.91859000 2.02166500 -1.0731224799999985 0 0 0
Sc 3.85706814 1.96505838 3.32062536
Sc 3.91859000 6.06499500 -1.0731224799999985 0 0 0
Sc 3.85714651 6.12176335 3.32062536
Ga 0.00000000 0.00000000 -3.2191030599999984 0 0 0
Ga 0.12406256 0.00008087 1.14741354
Ga 0.00000000 4.04333000 -3.2191030599999984 0 0 0
Ga 7.80003177 4.04341087 1.17517355
Ga 3.91859000 0.00000000 -3.2191030599999984 0 0 0
Ga 3.79452744 0.00000000 1.14741354
Ga 3.91859000 4.04333000 -3.2191030599999984 0 0 0
Ga 3.95581661 4.04341087 1.17517355
Ge 1.95929500 0.00000000 -1.0731224799999985 0 0 0
Ge 1.95945174 0.00000000 4.31972116
Ge 1.95929500 4.04333000 -1.0731224799999985 0 0 0
Ge 1.95945174 4.04341087 3.16252552
Ge 5.87788500 0.00000000 -1.0731224799999985 0 0 0
Ge 5.87804174 0.00008087 3.04381845
Ge 5.87788500 4.04333000 -1.0731224799999985 0 0 0
Ge 5.87804174 4.04341087 3.27753126
Pd 1.95929500 2.02166500 -3.2191030599999984 0 0 0
Pd 1.95929500 2.09889260 1.16354078
Pd 1.95929500 6.06499500 -3.2191030599999984 0 0 0
Pd 1.95929500 5.98784826 1.16327640
Pd 5.87788500 2.02166500 -3.2191030599999984 0 0 0
Pd 5.87796337 2.05732717 1.20002536
Pd 5.87788500 6.06499500 -3.2191030599999984 0 0 0
Pd 5.87796337 6.02949456 1.20002536
C 1.95945174 8.08641740 6.26054208
O 1.95929500 8.08633653 7.42196781
