&CONTROL
calculation = 'relax'
prefix = 'scf'
pseudo_dir = '/vol0403/data/hp230205/u10028/POT_HYBRID_KKJUS_GBRV'
outdir = './data'
tprnfor = .true.
nstep = 50
disk_io = 'non'
/
&SYSTEM
ibrav = 0
ecutwfc = 50.0
ecutrho = 400
occupations = 'smearing'
smearing = 'mp'
degauss = 0.01
assume_isolated = 'esm'
esm_bc = 'bc1'
input_dft = 'BEEF-VDW'
nosym = .true.
nspin = 1
ntyp = 6
nat = 34
/
&ELECTRONS
electron_maxstep = 200
mixing_beta = 0.1
conv_thr = 1e-06
/
&IONS
ion_dynamics = 'bfgs'
upscale = 1.0
/
&CELL
/

K_POINTS {automatic}
6 6 1 0 0 0

ATOMIC_SPECIES
C 12.01 C.pbe-n-rrkjus_psl.1.0.0.UPF
In 114.8 In.pbe-dn-rrkjus_psl.1.0.0.UPF
Li 6.941 Li.pbe-sl-rrkjus_psl.1.0.0.UPF
O 15.99 O.pbe-n-rrkjus_psl.1.0.0.UPF
Pd 106.4 Pd.pbe-n-rrkjus_psl.1.0.0.UPF
Ru 101.0 Ru.pbe-spn-rrkjus_psl.1.0.0.UPF


CELL_PARAMETERS {angstrom}
6.32045000 0.00000000 0.00000000
0.00000000 8.93846000 0.00000000
0.00000000 0.00000000 26.70380000

ATOMIC_POSITIONS {angstrom}
Li 0.00000000 2.23461500 -1.1172869900000002 0 0 0
Li 0.00000000 6.70384500 -1.1172869900000002 0 0 0
Li 3.16022500 4.46923000 -3.3518609800000014 0 0 0
Li 3.16022500 0.00000000 -3.3518609800000014 0 0 0
Li 6.26900154 6.81137467 3.55881543
Li 6.26862231 2.12726410 3.55988358
Li 3.15617991 8.93819185 0.95252455
Li 3.14448708 4.46869369 1.14132041
In 0.00000000 0.00000000 -3.3518609800000014 0 0 0
In 0.00000000 4.46923000 -3.3518609800000014 0 0 0
In 3.16022500 6.70384500 -1.1172869900000002 0 0 0
In 3.16022500 2.23461500 -1.1172869900000002 0 0 0
In 6.28606675 4.46931938 1.04545377
In 6.29529461 0.00008938 1.08096982
In 3.05258774 2.33204421 3.55561097
In 3.05265094 6.60641579 3.55587801
Pd 4.74033750 0.00000000 -1.1172869900000002 0 0 0
Pd 4.74033750 4.46923000 -1.1172869900000002 0 0 0
Pd 1.58011250 2.23461500 -3.3518609800000014 0 0 0
Pd 1.58011250 6.70384500 -3.3518609800000014 0 0 0
Pd 4.78129402 4.46958754 3.27922664
Pd 4.52367247 8.93792369 3.15932658
Pd 1.57985968 6.69696239 1.15120082
Pd 1.58030211 2.24114008 1.15120082
Ru 1.58011250 0.00000000 -1.1172869900000002 0 0 0
Ru 1.58011250 4.46923000 -1.1172869900000002 0 0 0
Ru 4.74033750 2.23461500 -3.3518609800000014 0 0 0
Ru 4.74033750 6.70384500 -3.3518609800000014 0 0 0
Ru 1.45003764 4.46923000 3.23569945
Ru 1.62612538 0.00017877 3.27441996
Ru 4.68768815 6.70554331 1.23104518
Ru 4.68724572 2.23282731 1.23077814
C 0.73456270 0.00098323 4.86917089
O 0.21205110 0.00107262 5.92717545
