&CONTROL
calculation = 'relax'
prefix = 'scf'
pseudo_dir = '/vol0403/data/hp230205/u10028/POT_HYBRID_KKJUS_GBRV'
outdir = './data'
tprnfor = .true.
nstep = 50
disk_io = 'non'
/
&SYSTEM
ibrav = 0
ecutwfc = 50.0
ecutrho = 400
occupations = 'smearing'
smearing = 'mp'
degauss = 0.01
assume_isolated = 'esm'
esm_bc = 'bc1'
input_dft = 'BEEF-VDW'
nosym = .true.
nspin = 1
ntyp = 6
nat = 34
/
&ELECTRONS
electron_maxstep = 200
mixing_beta = 0.1
conv_thr = 1e-06
/
&IONS
ion_dynamics = 'bfgs'
upscale = 1.0
/
&CELL
/

K_POINTS {automatic}
6 6 1 0 0 0

ATOMIC_SPECIES
Al 26.98 Al.pbe-nl-rrkjus_psl.1.0.0.UPF
C 12.01 C.pbe-n-rrkjus_psl.1.0.0.UPF
Cu 63.54 Cu.pbe-dn-rrkjus_psl.1.0.0.UPF
Li 6.941 Li.pbe-sl-rrkjus_psl.1.0.0.UPF
O 15.99 O.pbe-n-rrkjus_psl.1.0.0.UPF
Pd 106.4 Pd.pbe-n-rrkjus_psl.1.0.0.UPF


CELL_PARAMETERS {angstrom}
6.00833000 0.00000000 0.00000000
0.00000000 8.49706000 0.00000000
0.00000000 0.00000000 26.37280000

ATOMIC_POSITIONS {angstrom}
Li 0.00000000 2.12426500 -1.0620326599999999 0 0 0
Li 0.00000000 6.37279500 -1.0620326599999999 0 0 0
Li 3.00416500 4.24853000 -3.1863617000000026 0 0 0
Li 3.00416500 0.00000000 -3.1863617000000026 0 0 0
Li 0.00708983 6.37279500 3.49228618
Li 0.01976741 2.12426500 3.56823984
Li 3.01143508 0.00424853 0.97552987
Li 3.01143508 4.24428147 0.97552987
Al 0.00000000 0.00000000 -3.1863617000000026 0 0 0
Al 0.00000000 4.24853000 -3.1863617000000026 0 0 0
Al 3.00416500 6.37279500 -1.0620326599999999 0 0 0
Al 3.00416500 2.12426500 -1.0620326599999999 0 0 0
Al 5.99973809 4.25388315 1.06915331
Al 5.99967800 8.49170685 1.06915331
Al 3.02579499 2.12426500 3.14627504
Al 3.01798416 6.37279500 3.16895565
Cu 1.50208250 0.00000000 -1.0620326599999999 0 0 0
Cu 1.50208250 4.24853000 -1.0620326599999999 0 0 0
Cu 4.50624750 2.12426500 -3.1863617000000026 0 0 0
Cu 4.50624750 6.37279500 -3.1863617000000026 0 0 0
Cu 1.61359710 4.25413806 3.02917981
Cu 1.61359710 8.49145194 3.02917981
Cu 4.52961990 6.37279500 1.05464827
Cu 4.54902681 2.12426500 1.06203266
Pd 4.50624750 0.00000000 -1.0620326599999999 0 0 0
Pd 4.50624750 4.24853000 -1.0620326599999999 0 0 0
Pd 1.50208250 2.12426500 -3.1863617000000026 0 0 0
Pd 1.50208250 6.37279500 -3.1863617000000026 0 0 0
Pd 4.41167639 4.25600741 3.05265160
Pd 4.41167639 8.48958259 3.05265160
Pd 1.48213484 6.37279500 1.06440621
Pd 1.46795519 2.12426500 1.08049362
C 0.04998931 2.12426500 5.69599734
O 0.02319215 2.12426500 6.83398366
