&CONTROL
calculation = 'relax'
prefix = 'scf'
pseudo_dir = '/vol0004/mdt0/data/hp150275/u10028/POT_KKJUS'
outdir = './data'
tprnfor = .true.
nstep = 50
disk_io = 'non'
/
&SYSTEM
ibrav = 0
ecutwfc = 50.0
ecutrho = 400
occupations = 'smearing'
smearing = 'mp'
degauss = 0.01
assume_isolated = 'esm'
esm_bc = 'bc1'
input_dft = 'BEEF-VDW'
nosym = .true.
nspin = 1
ntyp = 4
nat = 34
/
&ELECTRONS
electron_maxstep = 200
mixing_beta = 0.1
conv_thr = 1e-06
/
&IONS
ion_dynamics = 'bfgs'
upscale = 1.0
/
&CELL
/

K_POINTS {automatic}
9 6 2 0  0  0

ATOMIC_SPECIES
C 12.01 C.pbe-n-rrkjus_psl.1.0.0.UPF
Ni 58.69 Ni.pbe-spn-rrkjus_psl.1.0.0.UPF
O 15.99 O.pbe-n-rrkjus_psl.1.0.0.UPF
Sn 118.7 Sn.pbe-dn-rrkjus_psl.1.0.0.UPF

CELL_PARAMETERS {angstrom}
6.01786000 0.00000000 0.00000000
0.00000000 8.51054000 0.00000000
0.00000000 0.00000000 26.38290000

ATOMIC_POSITIONS {angstrom}
Ni 1.50446500 0.00000000 -1.0637585299999976 0 0 0
Ni 4.51339500 4.25527000 -1.0637585299999976 0 0 0
Ni 4.51339500 0.00000000 -1.0637585299999976 0 0 0
Ni 1.50446500 4.25527000 -1.0637585299999976 0 0 0
Ni 4.51339500 6.38290500 -3.1915394100000007 0 0 0
Ni 1.50446500 2.12763500 -3.1915394100000007 0 0 0
Ni 1.50446500 6.38290500 -3.1915394100000007 0 0 0
Ni 4.51339500 2.12763500 -3.1915394100000007 0 0 0
Ni 0.00000000 6.38290500 -1.0637585299999976 0 0 0
Ni 3.00893000 0.00000000 -3.1915394100000007 0 0 0
Ni 0.00000000 2.12763500 -1.0637585299999976 0 0 0
Ni 3.00893000 4.25527000 -3.1915394100000007 0 0 0
Ni 1.47479695 4.25671679 3.07571848
Ni 4.54571091 8.50977405 3.07624614
Ni 4.54288251 4.25671679 3.07545465
Ni 1.47244998 8.50994426 3.07598231
Ni 4.49191124 2.12754989 1.07932444
Ni 1.60207469 6.38281989 1.11151158
Ni 1.52582840 2.12763500 1.07958827
Ni 4.41572513 6.38273479 1.11151158
Ni 0.00000000 2.12780521 3.06674830
Ni 3.00886982 4.23705744 1.04159689
Ni 0.00012036 6.38205395 3.04986324
Ni 3.00899018 0.01880829 1.04238838
Sn 0.00000000 0.00000000 -3.1915394100000007 0 0 0
Sn 3.00893000 2.12763500 -1.0637585299999976 0 0 0
Sn 3.00893000 6.38290500 -1.0637585299999976 0 0 0
Sn 0.00000000 4.25527000 -3.1915394100000007 0 0 0
Sn 0.00000000 4.28548242 0.99542682
Sn 3.00886982 6.38375605 3.39996432
Sn 3.00899018 2.12695416 3.31184544
Sn 0.00000000 8.48007227 0.99463533
C 3.00893000 2.12746479 7.24316137
O 3.00893000 2.12746479 8.37736224
