&CONTROL
calculation = 'relax'
prefix = 'scf'
pseudo_dir = '/vol0004/mdt0/data/hp150275/u10028/POT_KKJUS'
outdir = './data'
tprnfor = .true.
nstep = 50
disk_io = 'non'
/
&SYSTEM
ibrav = 0
ecutwfc = 50.0
ecutrho = 400
occupations = 'smearing'
smearing = 'mp'
degauss = 0.01
assume_isolated = 'esm'
esm_bc = 'bc1'
input_dft = 'BEEF-VDW'
nosym = .true.
nspin = 1
ntyp = 2
nat = 32
/
&ELECTRONS
electron_maxstep = 200
mixing_beta = 0.1
conv_thr = 1e-06
/
&IONS
ion_dynamics = 'bfgs'
upscale = 1.0
/
&CELL
/

K_POINTS {automatic}
6 6 1 0 0 0

ATOMIC_SPECIES
Ag 107.8 Ag.pbe-n-rrkjus_psl.1.0.0.UPF
In 114.8 In.pbe-dn-rrkjus_psl.1.0.0.UPF

CELL_PARAMETERS {angstrom}
8.59601000 0.00000000 0.00000000
-0.00000000 8.59601000 0.00000000
0.00000000 0.00000000 26.44700000

ATOMIC_POSITIONS {angstrom}
In 0.00000000 0.00000000 -3.2236248299999986 0 0 0
In 0.00000000 0.00000000 1.07454161
In 0.00000000 4.29800500 -3.2236248299999986 0 0 0
In 0.00000000 4.29800500 1.07454161
In 4.29800500 0.00000000 -3.2236248299999986 0 0 0
In 4.29800500 -0.00000000 1.07454161
In 4.29800500 4.29800500 -3.2236248299999986 0 0 0
In 4.29800500 4.29800500 1.07454161
Ag 0.00000000 2.14900250 -1.0745416100000007 0 0 0
Ag 2.14900250 0.00000000 -1.0745416100000007 0 0 0
Ag 2.14900250 2.14900250 -3.2236248299999986 0 0 0
Ag 0.00000000 2.14900250 3.22362483
Ag 2.14900250 -0.00000000 3.22362483
Ag 2.14900250 2.14900250 1.07454161
Ag 0.00000000 6.44700750 -1.0745416100000007 0 0 0
Ag 2.14900250 4.29800500 -1.0745416100000007 0 0 0
Ag 2.14900250 6.44700750 -3.2236248299999986 0 0 0
Ag 0.00000000 6.44700750 3.22362483
Ag 2.14900250 4.29800500 3.22362483
Ag 2.14900250 6.44700750 1.07454161
Ag 4.29800500 2.14900250 -1.0745416100000007 0 0 0
Ag 6.44700750 0.00000000 -1.0745416100000007 0 0 0
Ag 6.44700750 2.14900250 -3.2236248299999986 0 0 0
Ag 4.29800500 2.14900250 3.22362483
Ag 6.44700750 -0.00000000 3.22362483
Ag 6.44700750 2.14900250 1.07454161
Ag 4.29800500 6.44700750 -1.0745416100000007 0 0 0
Ag 6.44700750 4.29800500 -1.0745416100000007 0 0 0
Ag 6.44700750 6.44700750 -3.2236248299999986 0 0 0
Ag 4.29800500 6.44700750 3.22362483
Ag 6.44700750 4.29800500 3.22362483
Ag 6.44700750 6.44700750 1.07454161
