&CONTROL
calculation = 'relax'
prefix = 'scf'
pseudo_dir = '/vol0403/data/hp230205/u10028/POT_HYBRID_KKJUS_GBRV'
outdir = './data'
tprnfor = .true.
nstep = 50
disk_io = 'non'
/
&SYSTEM
ibrav = 0
ecutwfc = 50.0
ecutrho = 400
occupations = 'smearing'
smearing = 'mp'
degauss = 0.01
assume_isolated = 'esm'
esm_bc = 'bc1'
input_dft = 'BEEF-VDW'
nosym = .true.
nspin = 1
ntyp = 5
nat = 33
/
&ELECTRONS
electron_maxstep = 200
mixing_beta = 0.1
conv_thr = 1e-06
/
&IONS
ion_dynamics = 'bfgs'
upscale = 1.0
/
&CELL
/

K_POINTS {automatic}
9 6 2 0  0  0

ATOMIC_SPECIES
C 12.01 C.pbe-n-rrkjus_psl.1.0.0.UPF
In 114.8 In.pbe-dn-rrkjus_psl.1.0.0.UPF
Mg 24.30 Mg.pbe-spnl-rrkjus_psl.1.0.0.UPF
Pd 106.4 Pd.pbe-n-rrkjus_psl.1.0.0.UPF
Sc 44.95 Sc.pbe-spn-rrkjus_psl.1.0.0.UPF


CELL_PARAMETERS {angstrom}
6.76782000 0.00000000 0.00000000
0.00000000 9.57114000 0.00000000
0.00000000 0.00000000 27.17840000

ATOMIC_POSITIONS {angstrom}
Mg 1.69195500 0.00000000 -1.1963931700000003 0 0 0
Mg 1.69195500 4.78557000 -1.1963931700000003 0 0 0
Mg 5.07586500 2.39278500 -3.5891795 0 0 0
Mg 5.07586500 7.17835500 -3.5891795 0 0 0
Mg 1.60031872 4.78557000 3.78866896
Mg 1.31390457 0.00009571 3.92918129
Mg 5.04737248 7.17969496 1.22166908
Mg 5.04730480 2.39144504 1.22194086
Sc 5.07586500 0.00000000 -1.1963931700000003 0 0 0
Sc 5.07586500 4.78557000 -1.1963931700000003 0 0 0
Sc 1.69195500 2.39278500 -3.5891795 0 0 0
Sc 1.69195500 7.17835500 -3.5891795 0 0 0
Sc 4.82944867 4.78557000 3.52367956
Sc 5.03370148 9.57104429 3.46388708
Sc 1.85154020 7.14705737 1.44915229
Sc 1.85147252 2.42398692 1.44942407
In 0.00000000 0.00000000 -3.5891795 0 0 0
In 0.00000000 4.78557000 -3.5891795 0 0 0
In 3.38391000 7.17835500 -1.1963931700000003 0 0 0
In 3.38391000 2.39278500 -1.1963931700000003 0 0 0
In 0.01719026 4.78557000 1.27113377
In 0.11667722 0.00000000 1.18035791
In 3.34086666 2.28520539 4.55591519
In 3.34059595 7.28593461 4.55564341
Pd 0.00000000 2.39278500 -1.1963931700000003 0 0 0
Pd 0.00000000 7.17835500 -1.1963931700000003 0 0 0
Pd 3.38391000 4.78557000 -3.5891795 0 0 0
Pd 3.38391000 0.00000000 -3.5891795 0 0 0
Pd 6.68823044 7.10437009 3.37610085
Pd 6.68823044 2.46676991 3.37637263
Pd 3.38445143 0.00000000 1.03277920
Pd 3.34797288 4.78557000 1.15861519
C 3.31751769 0.00000000 4.57222223
