&CONTROL
calculation = 'relax'
prefix = 'scf'
pseudo_dir = '/vol0403/data/hp230205/u10028/POT_HYBRID_KKJUS_GBRV'
outdir = './data'
tprnfor = .true.
nstep = 70
disk_io = 'non'
/
&SYSTEM
ibrav = 0
ecutwfc = 50.0
ecutrho = 400
occupations = 'smearing'
smearing = 'mp'
degauss = 0.01
assume_isolated = 'esm'
esm_bc = 'bc1'
input_dft = 'BEEF-VDW'
nosym = .true.
nspin = 1
ntyp = 6
nat = 34
/
&ELECTRONS
electron_maxstep = 200
mixing_beta = 0.1
conv_thr = 1e-06
/
&IONS
ion_dynamics = 'bfgs'
upscale = 1.0
/
&CELL
/

K_POINTS {automatic}
9 6 2 0  0  0

ATOMIC_SPECIES
C 12.01 C.pbe-n-rrkjus_psl.1.0.0.UPF
Mg 24.30 Mg.pbe-spnl-rrkjus_psl.1.0.0.UPF
O 15.99 O.pbe-n-rrkjus_psl.1.0.0.UPF
Pd 106.4 Pd.pbe-n-rrkjus_psl.1.0.0.UPF
Sn 118.7 Sn.pbe-dn-rrkjus_psl.1.0.0.UPF
Y 88.90 Y.pbe-spn-rrkjus_psl.1.0.0.UPF


CELL_PARAMETERS {angstrom}
7.00634000 0.00000000 0.00000000
-0.00000000 9.90846000 0.00000000
0.00000000 0.00000000 27.43130000

ATOMIC_POSITIONS {angstrom}
Y 0.00000000 2.47711500 -1.2385231899999987 0 0 0
Y 0.00000000 7.43134500 -1.2385231899999987 0 0 0
Y 3.50317000 4.95423000 -3.7155695800000004 0 0 0
Y 3.50317000 0.00000000 -3.7155695800000004 0 0 0
Y 0.21957870 7.62713617 3.86753899
Y 0.21957870 2.28122475 3.86753899
Y 3.41902386 -0.00000000 1.29722618
Y 3.50309994 4.95432908 1.31094183
Mg 0.00000000 0.00000000 -3.7155695800000004 0 0 0
Mg 0.00000000 4.95423000 -3.7155695800000004 0 0 0
Mg 3.50317000 7.43134500 -1.2385231899999987 0 0 0
Mg 3.50317000 2.47711500 -1.2385231899999987 0 0 0
Mg 0.13298033 4.95423000 1.34660252
Mg 0.09066204 0.00000000 1.34742546
Mg 3.56251370 2.60186251 3.72517054
Mg 3.56258376 7.30659749 3.72517054
Sn 1.75158500 0.00000000 -1.2385231899999987 0 0 0
Sn 1.75158500 4.95423000 -1.2385231899999987 0 0 0
Sn 5.25475500 2.47711500 -3.7155695800000004 0 0 0
Sn 5.25475500 7.43134500 -3.7155695800000004 0 0 0
Sn 1.77477599 4.95423000 4.14486943
Sn 2.29408591 9.90836092 4.30698841
Sn 5.35978004 7.45760242 1.39625317
Sn 5.35970997 2.45095667 1.39625317
Pd 5.25475500 0.00000000 -1.2385231899999987 0 0 0
Pd 5.25475500 4.95423000 -1.2385231899999987 0 0 0
Pd 1.75158500 2.47711500 -3.7155695800000004 0 0 0
Pd 1.75158500 7.43134500 -3.7155695800000004 0 0 0
Pd 5.45898981 4.95423000 3.44125659
Pd 5.15785732 -0.00000000 3.67277676
Pd 1.60571300 7.41162716 1.28707660
Pd 1.60578306 2.49693192 1.28707660
C 5.81631315 0.00019817 5.53124733
O 5.82864431 0.00019817 6.69625464
