&CONTROL
calculation = 'relax'
prefix = 'scf'
pseudo_dir = '/vol0004/mdt0/data/hp150275/u10028/POT_KKJUS'
outdir = './data'
tprnfor = .true.
nstep = 50
disk_io = 'non'
/
&SYSTEM
ibrav = 0
ecutwfc = 50.0
ecutrho = 400
occupations = 'smearing'
smearing = 'mp'
degauss = 0.01
assume_isolated = 'esm'
esm_bc = 'bc1'
input_dft = 'BEEF-VDW'
nosym = .true.
nspin = 1
ntyp = 2
nat = 16
/
&ELECTRONS
electron_maxstep = 200
mixing_beta = 0.1
conv_thr = 1e-06
/
&IONS
ion_dynamics = 'bfgs'
upscale = 1.0
/
&CELL
/

K_POINTS {automatic}
10 10 2 0  0  0

ATOMIC_SPECIES
Zn 65.40 Zn.pbe-dnl-rrkjus_psl.1.0.0.UPF
Zr 91.22 Zr.pbe-spn-rrkjus_psl.1.0.0.UPF

CELL_PARAMETERS {angstrom}
6.67495000 0.00000000 0.00000000
-0.00000000 6.67495000 0.00000000
0.00000000 0.00000000 25.00620000

ATOMIC_POSITIONS {angstrom}
Zr 1.66873750 1.66873750 -0.9719909899999983 0 0 0
Zr 1.66873750 1.66873750 2.36533646
Zr 1.66873750 5.00621250 -0.9719909899999983 0 0 0
Zr 1.66873750 5.00621250 2.36533646
Zr 5.00621250 1.66873750 -0.9719909899999983 0 0 0
Zr 5.00621250 1.66873750 2.36533646
Zr 5.00621250 5.00621250 -0.9719909899999983 0 0 0
Zr 5.00621250 5.00621250 2.36533646
Zn 0.00000000 0.00000000 -2.6409047799999996 0 0 0
Zn 0.00000000 0.00000000 0.69667273
Zn 0.00000000 3.33747500 -2.6409047799999996 0 0 0
Zn 0.00000000 3.33747500 0.69667273
Zn 3.33747500 0.00000000 -2.6409047799999996 0 0 0
Zn 3.33747500 -0.00000000 0.69667273
Zn 3.33747500 3.33747500 -2.6409047799999996 0 0 0
Zn 3.33747500 3.33747500 0.69667273
