&CONTROL
calculation = 'relax'
prefix = 'scf'
pseudo_dir = '/vol0403/data/hp230205/u10028/POT_HYBRID_KKJUS_GBRV'
outdir = './data'
tprnfor = .true.
nstep = 50
disk_io = 'non'
/
&SYSTEM
ibrav = 0
ecutwfc = 50.0
ecutrho = 400
occupations = 'smearing'
smearing = 'mp'
degauss = 0.01
assume_isolated = 'esm'
esm_bc = 'bc1'
input_dft = 'BEEF-VDW'
nosym = .true.
nspin = 1
ntyp = 6
nat = 18
/
&ELECTRONS
electron_maxstep = 200
mixing_beta = 0.1
conv_thr = 1e-06
/
&IONS
ion_dynamics = 'bfgs'
upscale = 1.0
/
&CELL
/

K_POINTS {automatic}
8 8 1 0 0 0

ATOMIC_SPECIES
C 12.01 C.pbe-n-rrkjus_psl.1.0.0.UPF
Cu 63.54 Cu.pbe-dn-rrkjus_psl.1.0.0.UPF
In 114.8 In.pbe-dn-rrkjus_psl.1.0.0.UPF
Li 6.941 Li.pbe-sl-rrkjus_psl.1.0.0.UPF
O 15.99 O.pbe-n-rrkjus_psl.1.0.0.UPF
Sn 118.7 Sn.pbe-dn-rrkjus_psl.1.0.0.UPF


CELL_PARAMETERS {angstrom}
6.73938000 0.00000000 0.00000000
0.00000000 6.73938000 0.00000000
0.00000000 0.00000000 25.05450000

ATOMIC_POSITIONS {angstrom}
Li 0.00000000 3.36969000 -2.527247420000002 0 0 0
Li 0.17616739 6.56321261 0.97011024
Li 3.19487048 3.54423994 0.96710370
Li 3.36969000 0.00000000 -2.527247420000002 0 0 0
In 1.68484500 1.68484500 -0.8423322900000016 0 0 0
In 1.68491239 5.05453500 3.25082138
In 5.05028919 1.68902342 2.50344564
In 5.05453500 5.05453500 -0.8423322900000016 0 0 0
Cu 0.00000000 0.00000000 -2.527247420000002 0 0 0
Cu 0.11140195 3.48553994 0.79222329
Cu 3.25377266 6.62797805 0.79222329
Cu 3.36969000 3.36969000 -2.527247420000002 0 0 0
Sn 5.05453500 1.68484500 -0.8423322900000016 0 0 0
Sn 5.05116531 5.06363316 2.53777031
Sn 1.67574684 1.68814730 2.53777031
Sn 1.68484500 5.05453500 -0.8423322900000016 0 0 0
C 4.98148012 1.75796727 6.21852690
O 5.10427162 1.63510838 7.34046741
