&CONTROL
calculation = 'relax'
prefix = 'scf'
pseudo_dir = '/vol0403/data/hp230205/u10028/POT_HYBRID_KKJUS_GBRV'
outdir = './data'
tprnfor = .true.
nstep = 50
disk_io = 'non'
/
&SYSTEM
ibrav = 0
ecutwfc = 50.0
ecutrho = 400
occupations = 'smearing'
smearing = 'mp'
degauss = 0.01
assume_isolated = 'esm'
esm_bc = 'bc1'
input_dft = 'BEEF-VDW'
nosym = .true.
nspin = 1
ntyp = 5
nat = 17
/
&ELECTRONS
electron_maxstep = 200
mixing_beta = 0.1
conv_thr = 1e-06
/
&IONS
ion_dynamics = 'bfgs'
upscale = 1.0
/
&CELL
/

K_POINTS {automatic}
11 7 2 0  0  0

ATOMIC_SPECIES
Al 26.98 Al.pbe-nl-rrkjus_psl.1.0.0.UPF
C 12.01 C.pbe-n-rrkjus_psl.1.0.0.UPF
In 114.8 In.pbe-dn-rrkjus_psl.1.0.0.UPF
Li 6.941 Li.pbe-sl-rrkjus_psl.1.0.0.UPF
Sc 44.95 Sc.pbe-spn-rrkjus_psl.1.0.0.UPF


CELL_PARAMETERS {angstrom}
5.96334000 0.00000000 0.00000000
0.00000000 8.71362000 0.00000000
0.00000000 0.00000000 24.47210000

ATOMIC_POSITIONS {angstrom}
Li 4.45151404 2.17840500 -0.7454201700000027 0 0 0
Li 2.30095474 1.56644747 2.55464252
Li 4.45151404 6.53521500 -0.7454201700000027 0 0 0
Li 2.30608321 7.14699826 2.55635557
Sc 2.98167000 0.00000000 -2.2360157800000025 0 0 0
Sc 5.90072493 8.71292291 0.81541037
Sc 2.98167000 4.35681000 -2.2360157800000025 0 0 0
Sc 0.23877213 4.35715854 1.04006425
Al 0.00000000 0.00000000 -2.2360157800000025 0 0 0
Al 3.02442715 8.71327146 0.51538243
Al 0.00000000 4.35681000 -2.2360157800000025 0 0 0
Al 3.30858030 4.35559009 0.89592358
In 1.46984404 2.17840500 -0.7454201700000027 0 0 0
In 5.06007289 2.15052142 2.69560181
In 1.46984404 6.53521500 -0.7454201700000027 0 0 0
In 5.06436649 6.56510272 2.69878319
C 4.10820456 8.71152873 2.13959570
