&CONTROL
calculation = 'relax'
prefix = 'scf'
pseudo_dir = '/vol0403/data/hp230205/u10028/POT_HYBRID_KKJUS_GBRV'
outdir = './data'
tprnfor = .true.
nstep = 50
disk_io = 'non'
/
&SYSTEM
ibrav = 0
ecutwfc = 50.0
ecutrho = 400
occupations = 'smearing'
smearing = 'mp'
degauss = 0.01
assume_isolated = 'esm'
esm_bc = 'bc1'
input_dft = 'BEEF-VDW'
nosym = .true.
nspin = 1
ntyp = 6
nat = 34
/
&ELECTRONS
electron_maxstep = 200
mixing_beta = 0.1
conv_thr = 1e-06
/
&IONS
ion_dynamics = 'bfgs'
upscale = 1.0
/
&CELL
/

K_POINTS {automatic}
9 6 2 0  0  0

ATOMIC_SPECIES
Ag 107.8 Ag.pbe-n-rrkjus_psl.1.0.0.UPF
C 12.01 C.pbe-n-rrkjus_psl.1.0.0.UPF
Ge 72.64 Ge.pbe-dn-rrkjus_psl.1.0.0.UPF
Li 6.941 Li.pbe-sl-rrkjus_psl.1.0.0.UPF
Mg 24.30 Mg.pbe-spnl-rrkjus_psl.1.0.0.UPF
O 15.99 O.pbe-n-rrkjus_psl.1.0.0.UPF


CELL_PARAMETERS {angstrom}
6.50572000 0.00000000 0.00000000
0.00000000 9.20048000 0.00000000
0.00000000 0.00000000 26.90040000

ATOMIC_POSITIONS {angstrom}
Li 4.87929000 0.00000000 -1.1499921000000022 0 0 0
Li 4.87929000 4.60024000 -1.1499921000000022 0 0 0
Li 1.62643000 2.30012000 -3.4502453000000024 0 0 0
Li 1.62643000 6.90036000 -3.4502453000000024 0 0 0
Li 4.94571340 4.51743568 3.59550746
Li 4.94571340 0.08280432 3.59550746
Li 1.61732199 6.90036000 1.26862286
Li 1.62760103 2.30012000 1.12336070
Mg 1.62643000 0.00000000 -1.1499921000000022 0 0 0
Mg 1.62643000 4.60024000 -1.1499921000000022 0 0 0
Mg 4.87929000 2.30012000 -3.4502453000000024 0 0 0
Mg 4.87929000 6.90036000 -3.4502453000000024 0 0 0
Mg 1.43887009 4.76023635 3.69154189
Mg 1.43887009 9.04048365 3.69154189
Mg 4.88221757 6.90045200 1.18307959
Mg 4.84227245 2.30012000 1.27750000
Ag 0.00000000 0.00000000 -3.4502453000000024 0 0 0
Ag 0.00000000 4.60024000 -3.4502453000000024 0 0 0
Ag 3.25286000 6.90036000 -1.1499921000000022 0 0 0
Ag 3.25286000 2.30012000 -1.1499921000000022 0 0 0
Ag 0.03896926 4.58533522 1.23607338
Ag 0.03896926 0.01490478 1.23607338
Ag 2.92933054 2.30012000 3.52664244
Ag 3.38616220 6.90036000 3.56780005
Ge 0.00000000 2.30012000 -1.1499921000000022 0 0 0
Ge 0.00000000 6.90036000 -1.1499921000000022 0 0 0
Ge 3.25286000 4.60024000 -3.4502453000000024 0 0 0
Ge 3.25286000 0.00000000 -3.4502453000000024 0 0 0
Ge 6.25414381 6.90036000 3.66975257
Ge 0.08912836 2.30012000 3.54224467
Ge 3.18591614 0.00588831 1.40177984
Ge 3.18591614 4.59435169 1.40177984
C 3.45395181 2.30012000 5.76905978
O 3.25272989 2.30002800 6.89699356
