&CONTROL
calculation = 'relax'
prefix = 'scf'
pseudo_dir = '/vol0004/mdt0/data/hp150275/u10028/POT_KKJUS'
outdir = './data'
tprnfor = .true.
nstep = 50
disk_io = 'non'
/
&SYSTEM
ibrav = 0
ecutwfc = 50.0
ecutrho = 400
occupations = 'smearing'
smearing = 'mp'
degauss = 0.01
assume_isolated = 'esm'
esm_bc = 'bc1'
input_dft = 'BEEF-VDW'
nosym = .true.
nspin = 1
ntyp = 3
nat = 33
/
&ELECTRONS
electron_maxstep = 200
mixing_beta = 0.1
conv_thr = 1e-06
/
&IONS
ion_dynamics = 'bfgs'
upscale = 1.0
/
&CELL
/

K_POINTS {automatic}
8 6 1 0 0 0

ATOMIC_SPECIES
C 12.01 C.pbe-n-rrkjus_psl.1.0.0.UPF
Rh 102.9 Rh.pbe-spn-rrkjus_psl.1.0.0.UPF
Sc 44.95 Sc.pbe-spn-rrkjus_psl.1.0.0.UPF

CELL_PARAMETERS {angstrom}
6.47981000 0.00000000 0.00000000
0.00000000 9.16384000 0.00000000
0.00000000 0.00000000 26.87290000

ATOMIC_POSITIONS {angstrom}
Sc 1.61995250 2.29096000 -3.436506450000003 0 0 0
Sc 1.61995250 0.00000000 -1.1455917299999996 0 0 0
Sc 1.61995250 2.29096000 1.26383249
Sc 1.61995250 9.10015131 3.57167714
Sc 1.61995250 6.87288000 -3.436506450000003 0 0 0
Sc 1.61995250 4.58192000 -1.1455917299999996 0 0 0
Sc 1.61995250 6.87288000 1.17864539
Sc 1.61995250 4.64560869 3.57167714
Sc 4.85985750 2.29096000 -3.436506450000003 0 0 0
Sc 4.85985750 0.00000000 -1.1455917299999996 0 0 0
Sc 4.85985750 2.29096000 1.07867821
Sc 4.85985750 9.07073539 3.54346059
Sc 4.85985750 6.87288000 -3.436506450000003 0 0 0
Sc 4.85985750 4.58192000 -1.1455917299999996 0 0 0
Sc 4.85985750 6.87288000 1.16628386
Sc 4.85985750 4.67502461 3.54346059
Rh 0.00000000 0.00000000 -3.436506450000003 0 0 0
Rh 0.00000000 2.29096000 -1.1455917299999996 0 0 0
Rh 6.47009029 0.01072169 1.21116160
Rh 6.27932468 2.29096000 3.37846099
Rh 0.00000000 4.58192000 -3.436506450000003 0 0 0
Rh 0.00000000 6.87288000 -1.1455917299999996 0 0 0
Rh 6.47009029 4.57119831 1.21116160
Rh 0.00712779 6.87288000 3.31638459
Rh 3.23990500 0.00000000 -3.436506450000003 0 0 0
Rh 3.23990500 2.29096000 -1.1455917299999996 0 0 0
Rh 3.24962471 0.01072169 1.21116160
Rh 3.44032552 2.29096000 3.37846099
Rh 3.23990500 4.58192000 -3.436506450000003 0 0 0
Rh 3.23990500 6.87288000 -1.1455917299999996 0 0 0
Rh 3.24962471 4.57119831 1.21116160
Rh 3.23277721 6.87288000 3.31638459
C 1.61995250 2.29096000 3.86190446
