&CONTROL
calculation = 'relax'
prefix = 'scf'
pseudo_dir = '/vol0403/data/hp230205/u10028/POT_HYBRID_KKJUS_GBRV'
outdir = './data'
tprnfor = .true.
nstep = 70
disk_io = 'non'
/
&SYSTEM
ibrav = 0
ecutwfc = 50.0
ecutrho = 400
occupations = 'smearing'
smearing = 'mp'
degauss = 0.01
assume_isolated = 'esm'
esm_bc = 'bc1'
input_dft = 'BEEF-VDW'
nosym = .true.
nspin = 1
ntyp = 5
nat = 33
/
&ELECTRONS
electron_maxstep = 200
mixing_beta = 0.1
conv_thr = 1e-06
/
&IONS
ion_dynamics = 'bfgs'
upscale = 1.0
/
&CELL
/

K_POINTS {automatic}
9 6 2 0  0  0

ATOMIC_SPECIES
C 12.01 C.pbe-n-rrkjus_psl.1.0.0.UPF
Cu 63.54 Cu.pbe-dn-rrkjus_psl.1.0.0.UPF
Li 6.941 Li.pbe-sl-rrkjus_psl.1.0.0.UPF
Mg 24.30 Mg.pbe-spnl-rrkjus_psl.1.0.0.UPF
Sn 118.7 Sn.pbe-dn-rrkjus_psl.1.0.0.UPF


CELL_PARAMETERS {angstrom}
6.48317000 0.00000000 0.00000000
-0.00000000 9.16858000 0.00000000
0.00000000 0.00000000 26.87640000

ATOMIC_POSITIONS {angstrom}
Li 0.00000000 2.29214500 -1.1460097000000005 0 0 0
Li 0.00000000 6.87643500 -1.1460097000000005 0 0 0
Li 3.24158500 4.58429000 -3.4382978500000014 0 0 0
Li 3.24158500 0.00000000 -3.4382978500000014 0 0 0
Li 0.40046541 6.63741012 4.76518572
Li 0.40046541 2.53126157 4.76491696
Li 3.23062844 9.16848831 1.62414085
Li 3.17766094 4.58429000 1.12155217
Mg 4.86237750 0.00000000 -1.1460097000000005 0 0 0
Mg 4.86237750 4.58429000 -1.1460097000000005 0 0 0
Mg 1.62079250 2.29214500 -3.4382978500000014 0 0 0
Mg 1.62079250 6.87643500 -3.4382978500000014 0 0 0
Mg 4.93654496 4.58419831 3.48963178
Mg 5.63257810 9.16848831 3.43668527
Mg 1.44179218 6.91457629 1.50507840
Mg 1.44185701 2.25400371 1.50480964
Cu 0.00000000 0.00000000 -3.4382978500000014 0 0 0
Cu 0.00000000 4.58429000 -3.4382978500000014 0 0 0
Cu 3.24158500 6.87643500 -1.1460097000000005 0 0 0
Cu 3.24158500 2.29214500 -1.1460097000000005 0 0 0
Cu 6.48128988 4.58419831 1.09601959
Cu 6.45231011 -0.00000000 0.94578052
Cu 3.31931821 1.95492463 3.49500706
Cu 3.31931821 7.21347200 3.49500706
Sn 1.62079250 0.00000000 -1.1460097000000005 0 0 0
Sn 1.62079250 4.58429000 -1.1460097000000005 0 0 0
Sn 4.86237750 2.29214500 -3.4382978500000014 0 0 0
Sn 4.86237750 6.87643500 -3.4382978500000014 0 0 0
Sn 1.81794570 4.58419831 3.59525603
Sn 1.79609742 9.16848831 5.05383826
Sn 4.88863434 6.87258420 1.23819575
Sn 4.88863434 2.29590412 1.23819575
C 3.54875759 9.16848831 3.83445599
