&CONTROL
calculation = 'relax'
prefix = 'scf'
pseudo_dir = '/vol0004/mdt0/data/hp150275/u10028/POT_KKJUS'
outdir = './data'
tprnfor = .true.
nstep = 50
disk_io = 'non'
/
&SYSTEM
ibrav = 0
ecutwfc = 50.0
ecutrho = 400
occupations = 'smearing'
smearing = 'mp'
degauss = 0.01
assume_isolated = 'esm'
esm_bc = 'bc1'
input_dft = 'BEEF-VDW'
nosym = .true.
nspin = 1
ntyp = 5
nat = 34
/
&ELECTRONS
electron_maxstep = 200
mixing_beta = 0.1
conv_thr = 1e-06
/
&IONS
ion_dynamics = 'bfgs'
upscale = 1.0
/
&CELL
/

K_POINTS {automatic}
9 6 2 0  0  0

ATOMIC_SPECIES
Ag 107.8 Ag.pbe-n-rrkjus_psl.1.0.0.UPF
C 12.01 C.pbe-n-rrkjus_psl.1.0.0.UPF
In 114.8 In.pbe-dn-rrkjus_psl.1.0.0.UPF
Li 6.941 Li.pbe-sl-rrkjus_psl.1.0.0.UPF
O 15.99 O.pbe-n-rrkjus_psl.1.0.0.UPF

CELL_PARAMETERS {angstrom}
6.67495000 0.00000000 0.00000000
0.00000000 9.43981000 0.00000000
0.00000000 0.00000000 27.07990000

ATOMIC_POSITIONS {angstrom}
Li 0.00000000 7.07985750 -1.179871239999997 0 0 0
Li 3.33747500 0.00000000 -3.5398845299999984 0 0 0
Li 0.00000000 2.35995250 -1.179871239999997 0 0 0
Li 3.33747500 4.71990500 -3.5398845299999984 0 0 0
Li 1.66873750 0.00000000 -1.179871239999997 0 0 0
Li 1.66873750 4.71990500 -1.179871239999997 0 0 0
Li 5.00621250 7.07985750 -3.5398845299999984 0 0 0
Li 5.00621250 2.35995250 -3.5398845299999984 0 0 0
Li 6.55666989 2.35995250 3.46758119
Li 3.29101735 4.70706686 0.99978991
Li 6.57656124 7.07985750 3.45918643
Li 3.29101735 0.01283814 0.99978991
Li 1.78201140 4.71084278 3.45322885
Li 1.78207815 0.00906222 3.45349965
Li 4.99393059 2.35995250 1.17364287
Li 4.91062722 7.07985750 1.21534591
In 0.00000000 0.00000000 -3.5398845299999984 0 0 0
In 3.33747500 2.35995250 -1.179871239999997 0 0 0
In 3.33747500 7.07985750 -1.179871239999997 0 0 0
In 0.00000000 4.71990500 -3.5398845299999984 0 0 0
In 0.03991620 4.72679606 1.14520897
In 3.29976153 7.07985750 3.84886619
In 3.39648156 2.35995250 3.70046833
In 0.03998295 9.43291894 1.14520897
Ag 1.66873750 2.35995250 -3.5398845299999984 0 0 0
Ag 1.66873750 7.07985750 -3.5398845299999984 0 0 0
Ag 5.00621250 4.71990500 -1.179871239999997 0 0 0
Ag 5.00621250 0.00000000 -1.179871239999997 0 0 0
Ag 1.75217438 7.07985750 1.27465089
Ag 1.70805296 2.35995250 1.26571453
Ag 4.83379854 9.38666387 3.27098112
Ag 4.83393204 4.77305113 3.27098112
C 0.05353310 2.35995250 5.53919354
O 0.07489294 2.35995250 6.68304852
