&CONTROL
calculation = 'relax'
prefix = 'scf'
pseudo_dir = '/vol0004/mdt0/data/hp150275/u10028/POT_KKJUS'
outdir = './data'
tprnfor = .true.
nstep = 50
disk_io = 'non'
/
&SYSTEM
ibrav = 0
ecutwfc = 50.0
ecutrho = 400
occupations = 'smearing'
smearing = 'mp'
degauss = 0.01
assume_isolated = 'esm'
esm_bc = 'bc1'
input_dft = 'BEEF-VDW'
nosym = .true.
nspin = 1
ntyp = 5
nat = 34
/
&ELECTRONS
electron_maxstep = 200
mixing_beta = 0.1
conv_thr = 1e-06
/
&IONS
ion_dynamics = 'bfgs'
upscale = 1.0
/
&CELL
/

K_POINTS {automatic}
9 6 2 0  0  0

ATOMIC_SPECIES
C 12.01 C.pbe-n-rrkjus_psl.1.0.0.UPF
O 15.99 O.pbe-n-rrkjus_psl.1.0.0.UPF
Pb 207.2 Pb.pbe-dn-rrkjus_psl.1.0.0.UPF
Pd 106.4 Pd.pbe-n-rrkjus_psl.1.0.0.UPF
Y 88.90 Y.pbe-spn-rrkjus_psl.1.0.0.UPF

CELL_PARAMETERS {angstrom}
6.95998000 0.00000000 0.00000000
0.00000000 9.84289000 0.00000000
0.00000000 0.00000000 27.38220000

ATOMIC_POSITIONS {angstrom}
Y 0.00000000 0.00000000 -3.6911205600000017 0 0 0
Y 3.47999000 2.46072250 -1.230282250000002 0 0 0
Y 3.47999000 7.38216750 -1.230282250000002 0 0 0
Y 0.00000000 4.92144500 -3.6911205600000017 0 0 0
Y 0.01259756 4.92144500 1.25547387
Y 3.52265468 7.33236248 3.65524988
Y 3.52265468 2.51062595 3.65524988
Y 0.02081034 0.00000000 1.28011785
Pd 1.73999500 0.00000000 -1.230282250000002 0 0 0
Pd 5.21998500 4.92144500 -1.230282250000002 0 0 0
Pd 5.21998500 0.00000000 -1.230282250000002 0 0 0
Pd 1.73999500 4.92144500 -1.230282250000002 0 0 0
Pd 5.21998500 7.38216750 -3.6911205600000017 0 0 0
Pd 1.73999500 2.46072250 -3.6911205600000017 0 0 0
Pd 1.73999500 7.38216750 -3.6911205600000017 0 0 0
Pd 5.21998500 2.46072250 -3.6911205600000017 0 0 0
Pd 1.73032063 4.92144500 3.55338809
Pd 5.23007697 0.00000000 3.50711218
Pd 5.26341528 4.92144500 3.56926977
Pd 1.91211531 9.84279157 3.91099963
Pd 5.25394970 2.45934450 1.32721523
Pd 1.72697984 7.39073081 1.39128958
Pd 1.72697984 2.45225761 1.39128958
Pd 5.25394970 7.38364393 1.32721523
Pb 0.00000000 7.38216750 -1.230282250000002 0 0 0
Pb 3.47999000 0.00000000 -3.6911205600000017 0 0 0
Pb 0.00000000 2.46072250 -1.230282250000002 0 0 0
Pb 3.47999000 4.92144500 -3.6911205600000017 0 0 0
Pb 0.00215759 2.44477702 3.88526036
Pb 3.48145160 4.92144500 1.21440057
Pb 0.00215759 7.39811298 3.88526036
Pb 3.44296291 0.00000000 1.23192518
C 2.29783740 0.00000000 5.81351488
O 2.34293807 0.00000000 6.96904372
