&CONTROL
calculation = 'relax'
prefix = 'scf'
pseudo_dir = '/vol0004/mdt0/data/hp150275/u10028/POT_KKJUS'
outdir = './data'
tprnfor = .true.
nstep = 50
disk_io = 'non'
/
&SYSTEM
ibrav = 0
ecutwfc = 50.0
ecutrho = 400
occupations = 'smearing'
smearing = 'mp'
degauss = 0.01
assume_isolated = 'esm'
esm_bc = 'bc1'
input_dft = 'BEEF-VDW'
nosym = .true.
nspin = 1
ntyp = 4
nat = 33
/
&ELECTRONS
electron_maxstep = 200
mixing_beta = 0.1
conv_thr = 1e-06
/
&IONS
ion_dynamics = 'bfgs'
upscale = 1.0
/
&CELL
/

K_POINTS {automatic}
9 6 2 0  0  0

ATOMIC_SPECIES
C 12.01 C.pbe-n-rrkjus_psl.1.0.0.UPF
In 114.8 In.pbe-dn-rrkjus_psl.1.0.0.UPF
Ni 58.69 Ni.pbe-spn-rrkjus_psl.1.0.0.UPF
Zr 91.22 Zr.pbe-spn-rrkjus_psl.1.0.0.UPF

CELL_PARAMETERS {angstrom}
6.34847000 0.00000000 0.00000000
0.00000000 8.97809000 0.00000000
0.00000000 0.00000000 26.73360000

ATOMIC_POSITIONS {angstrom}
Zr 0.00000000 0.00000000 -3.3668295799999974 0 0 0
Zr 3.17423500 2.24452250 -1.1222765300000006 0 0 0
Zr 3.17423500 6.73356750 -1.1222765300000006 0 0 0
Zr 0.00000000 4.48904500 -3.3668295799999974 0 0 0
Zr 6.27901774 4.55422593 1.10677104
Zr 3.21181794 6.73356750 3.34276934
Zr 3.50695831 2.24479184 3.38019638
Zr 6.27863683 8.91281929 1.10677104
In 0.00000000 6.73356750 -1.1222765300000006 0 0 0
In 3.17423500 0.00000000 -3.3668295799999974 0 0 0
In 0.00000000 2.24452250 -1.1222765300000006 0 0 0
In 3.17423500 4.48904500 -3.3668295799999974 0 0 0
In 6.00057384 2.24461228 4.89385282
In 3.10573501 4.41147430 1.17574373
In 0.12138275 6.73383684 3.47483333
In 3.10560804 0.07784004 1.17574373
Ni 1.58711750 0.00000000 -1.1222765300000006 0 0 0
Ni 4.76135250 4.48904500 -1.1222765300000006 0 0 0
Ni 4.76135250 0.00000000 -1.1222765300000006 0 0 0
Ni 1.58711750 4.48904500 -1.1222765300000006 0 0 0
Ni 4.76135250 6.73356750 -3.3668295799999974 0 0 0
Ni 1.58711750 2.24452250 -3.3668295799999974 0 0 0
Ni 1.58711750 6.73356750 -3.3668295799999974 0 0 0
Ni 4.76135250 2.24452250 -3.3668295799999974 0 0 0
Ni 1.17440347 4.13261483 3.29999558
Ni 4.84597761 8.92476015 3.29037149
Ni 4.84616806 4.54219529 3.29063882
Ni 1.17402256 0.35651995 3.29972825
Ni 4.79068243 2.24434294 1.11131575
Ni 1.75687559 6.73374706 1.12735591
Ni 1.30410271 2.24434294 1.44789178
Ni 4.60073621 6.73356750 1.20809138
C 1.39856794 2.24452250 3.41013802
