&CONTROL
calculation = 'relax'
prefix = 'scf'
pseudo_dir = '/vol0004/mdt0/data/hp150275/u10028/POT_KKJUS'
outdir = './data'
tprnfor = .true.
nstep = 50
disk_io = 'non'
/
&SYSTEM
ibrav = 0
ecutwfc = 50.0
ecutrho = 400
occupations = 'smearing'
smearing = 'mp'
degauss = 0.01
assume_isolated = 'esm'
esm_bc = 'bc1'
input_dft = 'BEEF-VDW'
nosym = .true.
nspin = 1
ntyp = 4
nat = 17
/
&ELECTRONS
electron_maxstep = 200
mixing_beta = 0.1
conv_thr = 1e-06
/
&IONS
ion_dynamics = 'bfgs'
upscale = 1.0
/
&CELL
/

K_POINTS {automatic}
8 8 1 0 0 0

ATOMIC_SPECIES
C 12.01 C.pbe-n-rrkjus_psl.1.0.0.UPF
In 114.8 In.pbe-dn-rrkjus_psl.1.0.0.UPF
Ni 58.69 Ni.pbe-spn-rrkjus_psl.1.0.0.UPF
Ti 47.86 Ti.pbe-spn-rrkjus_psl.1.0.0.UPF

CELL_PARAMETERS {angstrom}
6.14958000 0.00000000 0.00000000
-0.00000000 6.14958000 0.00000000
0.00000000 0.00000000 24.61220000

ATOMIC_POSITIONS {angstrom}
Ti 0.00000000 0.00000000 -2.3061631400000024 0 0 0
Ti 3.07479000 3.07479000 -2.3061631400000024 0 0 0
Ti 3.07479000 -0.00000000 0.76863901
Ti 0.00000000 3.07479000 0.76863901
In 0.00000000 0.00000000 0.76863901
In 3.07479000 0.00000000 -2.3061631400000024 0 0 0
In 0.00000000 3.07479000 -2.3061631400000024 0 0 0
In 3.07479000 3.07479000 0.76863901
Ni 1.53739500 1.53739500 -0.7686390100000011 0 0 0
Ni 4.61218500 4.61218500 2.30616314
Ni 4.61218500 1.53739500 -0.7686390100000011 0 0 0
Ni 1.53739500 4.61218500 2.30616314
Ni 4.61218500 4.61218500 -0.7686390100000011 0 0 0
Ni 1.53739500 1.53739500 2.30616314
Ni 1.53739500 4.61218500 -0.7686390100000011 0 0 0
Ni 4.61218500 1.53739500 2.30616314
C 0.00000000 0.00000000 3.10605964
