&CONTROL
calculation = 'relax'
prefix = 'scf'
pseudo_dir = '/vol0004/mdt0/data/hp150275/u10028/POT_KKJUS'
outdir = './data'
tprnfor = .true.
nstep = 50
disk_io = 'non'
/
&SYSTEM
ibrav = 0
ecutwfc = 50.0
ecutrho = 400
occupations = 'smearing'
smearing = 'mp'
degauss = 0.01
assume_isolated = 'esm'
esm_bc = 'bc1'
input_dft = 'BEEF-VDW'
nosym = .true.
nspin = 1
ntyp = 4
nat = 33
/
&ELECTRONS
electron_maxstep = 200
mixing_beta = 0.1
conv_thr = 1e-06
/
&IONS
ion_dynamics = 'bfgs'
upscale = 1.0
/
&CELL
/

K_POINTS {automatic}
8 6 1 0 0 0

ATOMIC_SPECIES
C 12.01 C.pbe-n-rrkjus_psl.1.0.0.UPF
Ga 69.72 Ga.pbe-dnl-rrkjus_psl.1.0.0.UPF
Nb 92.90 Nb.pbe-spn-rrkjus_psl.1.0.0.UPF
Ni 58.69 Ni.pbe-spn-rrkjus_psl.1.0.0.UPF

CELL_PARAMETERS {angstrom}
6.01786000 0.00000000 0.00000000
0.00000000 8.51054000 0.00000000
0.00000000 0.00000000 26.38290000

ATOMIC_POSITIONS {angstrom}
Nb 0.00000000 0.00000000 -3.1915394100000007 0 0 0
Nb 3.00893000 2.12763500 -1.0637585299999976 0 0 0
Nb 3.00893000 6.38290500 -1.0637585299999976 0 0 0
Nb 0.00000000 4.25527000 -3.1915394100000007 0 0 0
Nb 0.00000000 4.25518489 1.05953726
Nb 3.00893000 6.50452062 3.28651785
Nb 3.00893000 2.00601938 3.28678168
Nb 0.00000000 0.00000000 1.03420968
Ga 0.00000000 6.38290500 -1.0637585299999976 0 0 0
Ga 3.00893000 0.00000000 -3.1915394100000007 0 0 0
Ga 0.00000000 2.12763500 -1.0637585299999976 0 0 0
Ga 3.00893000 4.25527000 -3.1915394100000007 0 0 0
Ga 0.00000000 2.19171937 3.17333521
Ga 3.00893000 4.25527000 1.05056708
Ga 0.00000000 6.31882063 3.17307138
Ga 3.00893000 0.00000000 1.05399686
Ni 1.50446500 0.00000000 -1.0637585299999976 0 0 0
Ni 4.51339500 4.25527000 -1.0637585299999976 0 0 0
Ni 4.51339500 0.00000000 -1.0637585299999976 0 0 0
Ni 1.50446500 4.25527000 -1.0637585299999976 0 0 0
Ni 4.51339500 6.38290500 -3.1915394100000007 0 0 0
Ni 1.50446500 2.12763500 -3.1915394100000007 0 0 0
Ni 1.50446500 6.38290500 -3.1915394100000007 0 0 0
Ni 4.51339500 2.12763500 -3.1915394100000007 0 0 0
Ni 1.53353126 4.25535511 3.07202488
Ni 4.76819119 0.00000000 3.16621183
Ni 4.48432874 4.25535511 3.07202488
Ni 1.24966881 0.00000000 3.16621183
Ni 4.41211442 2.12729458 1.11151158
Ni 1.60568541 6.38333053 1.11151158
Ni 1.60568541 2.12729458 1.11151158
Ni 4.41217459 6.38333053 1.11151158
C 3.00893000 0.00000000 3.90097559
