&CONTROL
calculation = 'relax'
prefix = 'scf'
pseudo_dir = '/vol0004/mdt0/data/hp150275/u10028/POT_HYBRID_KKJUS_GBRV'
outdir = './data'
tprnfor = .true.
nstep = 50
disk_io = 'non'
/
&SYSTEM
ibrav = 0
ecutwfc = 50.0
ecutrho = 400
occupations = 'smearing'
smearing = 'mp'
degauss = 0.01
assume_isolated = 'esm'
esm_bc = 'bc1'
input_dft = 'BEEF-VDW'
nosym = .true.
nspin = 2
ntyp = 4
nat = 34
starting_magnetization(1) = 0.0
starting_magnetization(2) = 0.1
starting_magnetization(3) = 0.0
starting_magnetization(4) = 0.0
/
&ELECTRONS
electron_maxstep = 200
mixing_beta = 0.1
conv_thr = 1e-06
/
&IONS
ion_dynamics = 'bfgs'
upscale = 1.0
/
&CELL
/

K_POINTS {automatic}
7 7 2 0  0  0

ATOMIC_SPECIES
C 12.01 C.pbe-n-rrkjus_psl.1.0.0.UPF
Fe 55.84 fe_pbe_v1.5.uspp.F.UPF
O 15.99 O.pbe-n-rrkjus_psl.1.0.0.UPF
Pd 106.4 Pd.pbe-n-rrkjus_psl.1.0.0.UPF

CELL_PARAMETERS {angstrom}
7.76638000 0.00000000 0.00000000
-0.00000000 7.58384000 0.00000000
0.00000000 0.00000000 25.82480000

ATOMIC_POSITIONS {angstrom}
Fe 0.00000000 0.00000000 -2.9125209400000003 0 0 0
Fe 1.94159500 0.00000000 -0.9707542300000007 0 0 0
Fe 0.00000000 0.00000000 0.97075423
Fe 1.94159500 -0.00000000 2.91252094
Fe 0.00000000 3.79192000 -2.9125209400000003 0 0 0
Fe 1.94159500 3.79192000 -0.9707542300000007 0 0 0
Fe 0.00000000 3.79192000 0.97075423
Fe 1.94159500 3.79192000 2.91252094
Fe 3.88319000 0.00000000 -2.9125209400000003 0 0 0
Fe 5.82478500 0.00000000 -0.9707542300000007 0 0 0
Fe 3.88319000 -0.00000000 0.97075423
Fe 5.82478500 -0.00000000 2.91252094
Fe 3.88319000 3.79192000 -2.9125209400000003 0 0 0
Fe 5.82478500 3.79192000 -0.9707542300000007 0 0 0
Fe 3.88319000 3.79192000 0.97075423
Fe 5.82478500 3.79192000 2.91252094
Pd 1.94159500 1.89596000 -2.9125209400000003 0 0 0
Pd 0.00000000 1.89596000 -0.9707542300000007 0 0 0
Pd 1.94159500 1.89596000 0.97075423
Pd 0.00000000 1.89596000 2.91252094
Pd 1.94159500 5.68788000 -2.9125209400000003 0 0 0
Pd 0.00000000 5.68788000 -0.9707542300000007 0 0 0
Pd 1.94159500 5.68788000 0.97075423
Pd 0.00000000 5.68788000 2.91252094
Pd 5.82478500 1.89596000 -2.9125209400000003 0 0 0
Pd 3.88319000 1.89596000 -0.9707542300000007 0 0 0
Pd 5.82478500 1.89596000 0.97075423
Pd 3.88319000 1.89596000 2.91252094
Pd 5.82478500 5.68788000 -2.9125209400000003 0 0 0
Pd 3.88319000 5.68788000 -0.9707542300000007 0 0 0
Pd 5.82478500 5.68788000 0.97075423
Pd 3.88319000 5.68788000 2.91252094
C 1.94159500 -0.00000000 4.81245148
O 1.94159500 -0.00000000 5.96242982
