&CONTROL
calculation = 'relax'
prefix = 'scf'
pseudo_dir = '/vol0403/data/hp230205/u10028/POT_HYBRID_KKJUS_GBRV'
outdir = './data'
tprnfor = .true.
nstep = 50
disk_io = 'non'
/
&SYSTEM
ibrav = 0
ecutwfc = 50.0
ecutrho = 400
occupations = 'smearing'
smearing = 'mp'
degauss = 0.01
assume_isolated = 'esm'
esm_bc = 'bc1'
input_dft = 'BEEF-VDW'
nosym = .true.
nspin = 1
ntyp = 6
nat = 18
/
&ELECTRONS
electron_maxstep = 200
mixing_beta = 0.1
conv_thr = 1e-06
/
&IONS
ion_dynamics = 'bfgs'
upscale = 1.0
/
&CELL
/

K_POINTS {automatic}
6 6 1 0 0 0

ATOMIC_SPECIES
Al 26.98 Al.pbe-nl-rrkjus_psl.1.0.0.UPF
C 12.01 C.pbe-n-rrkjus_psl.1.0.0.UPF
In 114.8 In.pbe-dn-rrkjus_psl.1.0.0.UPF
O 15.99 O.pbe-n-rrkjus_psl.1.0.0.UPF
Pd 106.4 Pd.pbe-n-rrkjus_psl.1.0.0.UPF
Sc 44.95 Sc.pbe-spn-rrkjus_psl.1.0.0.UPF


CELL_PARAMETERS {angstrom}
5.97945000 0.00000000 0.00000000
0.00000000 8.33700000 0.00000000
0.00000000 0.00000000 24.48170000

ATOMIC_POSITIONS {angstrom}
Sc 2.89088469 0.00000000 2.26088500
Sc 5.87164052 0.00000000 -0.7469366700000002 0 0 0
Sc 3.08802716 4.16833326 2.17617831
Sc 5.87164052 4.16850000 -0.7469366700000002 0 0 0
Al 5.74128851 0.00000000 2.08559602
Al 2.88191552 0.00000000 -0.7469366700000002 0 0 0
Al 0.01991157 4.16850000 2.26700542
Al 2.88191552 4.16850000 -0.7469366700000002 0 0 0
In 1.44714649 2.09875638 0.80128604
In 4.32284338 2.08425000 -2.2408099999999997 0 0 0
In 1.44720628 6.23824362 0.80128604
In 4.32284338 6.25275000 -2.2408099999999997 0 0 0
Pd 4.46072949 2.05615431 0.96213081
Pd 1.33311838 2.08425000 -2.2408099999999997 0 0 0
Pd 4.46072949 6.28076232 0.96213081
Pd 1.33311838 6.25275000 -2.2408099999999997 0 0 0
C 5.94165988 0.00000000 4.00569575
O 0.10362387 0.00000000 5.16955577
