&CONTROL
calculation = 'relax'
prefix = 'scf'
pseudo_dir = '/vol0403/data/hp230205/u10028/POT_HYBRID_KKJUS_GBRV'
outdir = './data'
tprnfor = .true.
nstep = 50
disk_io = 'non'
/
&SYSTEM
ibrav = 0
ecutwfc = 50.0
ecutrho = 400
occupations = 'smearing'
smearing = 'mp'
degauss = 0.01
assume_isolated = 'esm'
esm_bc = 'bc1'
input_dft = 'BEEF-VDW'
nosym = .true.
nspin = 1
ntyp = 6
nat = 18
/
&ELECTRONS
electron_maxstep = 200
mixing_beta = 0.1
conv_thr = 1e-06
/
&IONS
ion_dynamics = 'bfgs'
upscale = 1.0
/
&CELL
/

K_POINTS {automatic}
6 6 1 0 0 0

ATOMIC_SPECIES
Al 26.98 Al.pbe-nl-rrkjus_psl.1.0.0.UPF
C 12.01 C.pbe-n-rrkjus_psl.1.0.0.UPF
In 114.8 In.pbe-dn-rrkjus_psl.1.0.0.UPF
Li 6.941 Li.pbe-sl-rrkjus_psl.1.0.0.UPF
O 15.99 O.pbe-n-rrkjus_psl.1.0.0.UPF
Sc 44.95 Sc.pbe-spn-rrkjus_psl.1.0.0.UPF


CELL_PARAMETERS {angstrom}
6.04255000 0.00000000 0.00000000
0.00000000 8.49254000 0.00000000
0.00000000 0.00000000 24.52830000

ATOMIC_POSITIONS {angstrom}
Li 4.59686991 2.12423903 0.94164144
Li 1.33050908 2.12313500 -2.264207370000001 0 0 0
Li 4.59680949 6.36847082 0.94164144
Li 1.33050908 6.36940500 -2.264207370000001 0 0 0
Sc 1.54012514 2.12576769 0.75424523
Sc 4.35178408 2.12313500 -2.264207370000001 0 0 0
Sc 1.54109195 6.36677231 0.75473579
Sc 4.35178408 6.36940500 -2.264207370000001 0 0 0
Al 0.05395997 8.49160582 2.15554700
Al 2.90120953 0.00000000 -0.7547357900000016 0 0 0
Al 0.05740423 4.24720418 2.15677342
Al 2.90120953 4.24627000 -0.7547357900000016 0 0 0
In 3.16677960 0.00093418 2.28849039
In 5.92248453 0.00000000 -0.7547357900000016 0 0 0
In 3.16702131 4.24533582 2.30320737
In 5.92248453 4.24627000 -0.7547357900000016 0 0 0
C 2.84797467 0.00016985 5.73030145
O 3.19940937 8.49211537 6.80979193
