&CONTROL
calculation = 'relax'
prefix = 'scf'
pseudo_dir = '/vol0004/mdt0/data/hp150275/u10028/POT_KKJUS'
outdir = './data'
tprnfor = .true.
nstep = 50
disk_io = 'non'
/
&SYSTEM
ibrav = 0
ecutwfc = 50.0
ecutrho = 400
occupations = 'smearing'
smearing = 'mp'
degauss = 0.01
assume_isolated = 'esm'
esm_bc = 'bc1'
input_dft = 'BEEF-VDW'
nosym = .true.
nspin = 1
ntyp = 4
nat = 33
/
&ELECTRONS
electron_maxstep = 200
mixing_beta = 0.1
conv_thr = 1e-06
/
&IONS
ion_dynamics = 'bfgs'
upscale = 1.0
/
&CELL
/

K_POINTS {automatic}
9 6 2 0  0  0

ATOMIC_SPECIES
C 12.01 C.pbe-n-rrkjus_psl.1.0.0.UPF
Pd 106.4 Pd.pbe-n-rrkjus_psl.1.0.0.UPF
Sn 118.7 Sn.pbe-dn-rrkjus_psl.1.0.0.UPF
Y 88.90 Y.pbe-spn-rrkjus_psl.1.0.0.UPF

CELL_PARAMETERS {angstrom}
6.84524000 0.00000000 0.00000000
0.00000000 9.68063000 0.00000000
0.00000000 0.00000000 27.26050000

ATOMIC_POSITIONS {angstrom}
Y 0.00000000 0.00000000 -3.6302807799999997 0 0 0
Y 3.42262000 2.42015750 -1.2100935899999996 0 0 0
Y 3.42262000 7.26047250 -1.2100935899999996 0 0 0
Y 0.00000000 4.84031500 -3.6302807799999997 0 0 0
Y 0.00000000 4.84031500 1.19755376
Y 3.42262000 7.19754841 3.70088548
Y 3.42262000 2.48308160 3.70088548
Y 0.00000000 0.00000000 1.24907611
Sn 0.00000000 7.26047250 -1.2100935899999996 0 0 0
Sn 3.42262000 0.00000000 -3.6302807799999997 0 0 0
Sn 0.00000000 2.42015750 -1.2100935899999996 0 0 0
Sn 3.42262000 4.84031500 -3.6302807799999997 0 0 0
Sn 0.00000000 2.40524933 3.70143069
Sn 3.42262000 4.84031500 1.25752686
Sn 0.00000000 7.27538067 3.70143069
Sn 3.42262000 0.00000000 1.19319209
Pd 1.71131000 0.00000000 -1.2100935899999996 0 0 0
Pd 5.13393000 4.84031500 -1.2100935899999996 0 0 0
Pd 5.13393000 0.00000000 -1.2100935899999996 0 0 0
Pd 1.71131000 4.84031500 -1.2100935899999996 0 0 0
Pd 5.13393000 7.26047250 -3.6302807799999997 0 0 0
Pd 1.71131000 2.42015750 -3.6302807799999997 0 0 0
Pd 1.71131000 7.26047250 -3.6302807799999997 0 0 0
Pd 5.13393000 2.42015750 -3.6302807799999997 0 0 0
Pd 1.66325642 4.84031500 3.52914433
Pd 4.85443885 0.00000000 3.61992179
Pd 5.18198358 4.84031500 3.52914433
Pd 1.99080115 0.00000000 3.61992179
Pd 5.08573951 2.43874431 1.28560518
Pd 1.75950049 7.24188569 1.28560518
Pd 1.75950049 2.43874431 1.28560518
Pd 5.08573951 7.24188569 1.28560518
C 0.00000000 0.00000000 3.77121757
