&CONTROL
calculation = 'relax'
prefix = 'scf'
pseudo_dir = '/vol0403/data/hp230205/u10028/POT_HYBRID_KKJUS_GBRV'
outdir = './data'
tprnfor = .true.
nstep = 50
disk_io = 'non'
/
&SYSTEM
ibrav = 0
ecutwfc = 50.0
ecutrho = 400
occupations = 'smearing'
smearing = 'mp'
degauss = 0.01
assume_isolated = 'esm'
esm_bc = 'bc1'
input_dft = 'BEEF-VDW'
nosym = .true.
nspin = 1
ntyp = 5
nat = 17
/
&ELECTRONS
electron_maxstep = 200
mixing_beta = 0.1
conv_thr = 1e-06
/
&IONS
ion_dynamics = 'bfgs'
upscale = 1.0
/
&CELL
/

K_POINTS {automatic}
8 11 2 0  0  0

ATOMIC_SPECIES
C 12.01 C.pbe-n-rrkjus_psl.1.0.0.UPF
Ge 72.64 Ge.pbe-dn-rrkjus_psl.1.0.0.UPF
In 114.8 In.pbe-dn-rrkjus_psl.1.0.0.UPF
Li 6.941 Li.pbe-sl-rrkjus_psl.1.0.0.UPF
Y 88.90 Y.pbe-spn-rrkjus_psl.1.0.0.UPF


CELL_PARAMETERS {angstrom}
8.49364000 0.00000000 0.00000000
0.00000000 6.33235000 0.00000000
0.00000000 0.00000000 24.73290000

ATOMIC_POSITIONS {angstrom}
Li 8.44845384 3.90041098 2.75747102
Li 0.00000000 6.07012739 -0.7887321800000002 0 0 0
Li 4.29192123 3.90041098 2.75747102
Li 4.24682000 6.07012739 -0.7887321800000002 0 0 0
Y 2.12341000 1.99443696 0.90151421
Y 2.12341000 4.35589692 -2.3664438700000012 0 0 0
Y 6.37023000 1.50564286 1.07612848
Y 6.37023000 4.35589692 -2.3664438700000012 0 0 0
In 2.12341000 5.05378521 1.01479089
In 2.12341000 1.18972192 -2.3664438700000012 0 0 0
In 6.37023000 4.60165542 0.87035075
In 6.37023000 1.18972192 -2.3664438700000012 0 0 0
Ge 0.22983790 0.49468318 2.77750467
Ge 0.00000000 2.90395239 -0.7887321800000002 0 0 0
Ge 4.01706704 0.49474651 2.77750467
Ge 4.24682000 2.90395239 -0.7887321800000002 0 0 0
C 2.12341000 0.51209714 2.78640851
