&CONTROL
calculation = 'relax'
prefix = 'scf'
pseudo_dir = '/vol0403/data/hp230205/u10028/POT_HYBRID_KKJUS_GBRV'
outdir = './data'
tprnfor = .true.
nstep = 50
disk_io = 'non'
/
&SYSTEM
ibrav = 0
ecutwfc = 50.0
ecutrho = 400
occupations = 'smearing'
smearing = 'mp'
degauss = 0.01
assume_isolated = 'esm'
esm_bc = 'bc1'
input_dft = 'BEEF-VDW'
nosym = .true.
nspin = 2
ntyp = 6
nat = 18
starting_magnetization(1) = 0.0
starting_magnetization(2) = 0.0
starting_magnetization(3) = 0.1
starting_magnetization(4) = 0.0
starting_magnetization(5) = 0.0
starting_magnetization(6) = 0.0
/
&ELECTRONS
electron_maxstep = 400
mixing_beta = 0.1
conv_thr = 1e-06
/
&IONS
ion_dynamics = 'bfgs'
upscale = 1.0
/
&CELL
/

K_POINTS {automatic}
12 7 2 0  0  0

ATOMIC_SPECIES
Al 26.98 Al.pbe-nl-rrkjus_psl.1.0.0.UPF
C 12.01 C.pbe-n-rrkjus_psl.1.0.0.UPF
Fe 55.84 fe_pbe_v1.5.uspp.F.UPF
Li 6.941 Li.pbe-sl-rrkjus_psl.1.0.0.UPF
O 15.99 O.pbe-n-rrkjus_psl.1.0.0.UPF
Pd 106.4 Pd.pbe-n-rrkjus_psl.1.0.0.UPF


CELL_PARAMETERS {angstrom}
5.25393000 0.00000000 0.00000000
0.00000000 8.60712000 0.00000000
0.00000000 0.00000000 23.58290000

ATOMIC_POSITIONS {angstrom}
Li 3.39372354 2.15178000 22.98578097
Li 4.88841409 2.15178000 1.99487751
Li 3.39372354 6.45534000 22.98578097
Li 4.92403574 6.45551214 1.99817912
Al 0.00000000 0.00000000 21.79154292
Al 1.49484816 8.60565679 0.51080561
Al 0.00000000 4.30356000 21.79154292
Al 1.49479562 4.30502321 0.51080561
Fe 0.76675854 2.15178000 22.98578097
Fe 2.19792908 2.15160786 1.46096065
Fe 0.76675854 6.45534000 22.98578097
Fe 2.23964528 6.45534000 1.44822589
Pd 2.62696500 0.00000000 21.79154292
Pd 4.13316165 8.59093861 0.64664312
Pd 2.62696500 4.30356000 21.79154292
Pd 4.13300403 4.31974139 0.64711478
C 5.05480605 2.15186607 4.08361496
O 5.11764306 2.15195214 5.22314069
