&CONTROL
calculation = 'relax'
prefix = 'scf'
pseudo_dir = '/vol0403/data/hp230205/u10028/POT_HYBRID_KKJUS_GBRV'
outdir = './data'
tprnfor = .true.
nstep = 70
disk_io = 'non'
/
&SYSTEM
ibrav = 0
ecutwfc = 50.0
ecutrho = 400
occupations = 'smearing'
smearing = 'mp'
degauss = 0.01
assume_isolated = 'esm'
esm_bc = 'bc1'
input_dft = 'BEEF-VDW'
nosym = .true.
nspin = 1
ntyp = 6
nat = 34
/
&ELECTRONS
electron_maxstep = 200
mixing_beta = 0.1
conv_thr = 1e-06
/
&IONS
ion_dynamics = 'bfgs'
upscale = 1.0
/
&CELL
/

K_POINTS {automatic}
9 6 2 0  0  0

ATOMIC_SPECIES
C 12.01 C.pbe-n-rrkjus_psl.1.0.0.UPF
Cu 63.54 Cu.pbe-dn-rrkjus_psl.1.0.0.UPF
O 15.99 O.pbe-n-rrkjus_psl.1.0.0.UPF
Pd 106.4 Pd.pbe-n-rrkjus_psl.1.0.0.UPF
Sn 118.7 Sn.pbe-dn-rrkjus_psl.1.0.0.UPF
Y 88.90 Y.pbe-spn-rrkjus_psl.1.0.0.UPF


CELL_PARAMETERS {angstrom}
6.76496000 0.00000000 0.00000000
-0.00000000 9.56710000 0.00000000
0.00000000 0.00000000 27.17530000

ATOMIC_POSITIONS {angstrom}
Y 1.69124000 0.00000000 -1.1959849499999997 0 0 0
Y 1.69124000 4.78355000 -1.1959849499999997 0 0 0
Y 5.07372000 2.39177500 -3.5876831100000004 0 0 0
Y 5.07372000 7.17532500 -3.5876831100000004 0 0 0
Y 1.87484101 4.78469805 3.74910439
Y 1.89324171 9.56595195 3.86976272
Y 5.14272259 7.20699210 1.16989667
Y 5.14353439 2.36029924 1.17016842
Cu 0.00000000 0.00000000 -3.5876831100000004 0 0 0
Cu 0.00000000 4.78355000 -3.5876831100000004 0 0 0
Cu 3.38248000 7.17532500 -1.1959849499999997 0 0 0
Cu 3.38248000 2.39177500 -1.1959849499999997 0 0 0
Cu 0.15180570 4.78393268 1.39191887
Cu 0.29799649 9.56690866 1.43974739
Cu 3.65754327 2.41894556 3.63360936
Cu 3.66241404 7.14825011 3.63659865
Sn 5.07372000 0.00000000 -1.1959849499999997 0 0 0
Sn 5.07372000 4.78355000 -1.1959849499999997 0 0 0
Sn 1.69124000 2.39177500 -3.5876831100000004 0 0 0
Sn 1.69124000 7.17532500 -3.5876831100000004 0 0 0
Sn 5.22681104 4.78268896 3.65861064
Sn 5.21443117 0.00086104 3.52490816
Sn 1.76815760 7.15915660 1.23511738
Sn 1.76856349 2.40775206 1.23457388
Pd 0.00000000 2.39177500 -1.1959849499999997 0 0 0
Pd 0.00000000 7.17532500 -1.1959849499999997 0 0 0
Pd 3.38248000 4.78355000 -3.5876831100000004 0 0 0
Pd 3.38248000 0.00000000 -3.5876831100000004 0 0 0
Pd 0.13002253 7.16700162 3.49365657
Pd 0.13340501 2.40000271 3.49365657
Pd 3.31253031 -0.00000000 1.23457388
Pd 3.40480437 4.78326299 1.24870503
C 3.25915478 9.56690866 5.95274947
O 3.88701072 0.00019134 6.91937489
