&CONTROL
calculation = 'relax'
prefix = 'scf'
pseudo_dir = '/vol0004/mdt0/data/hp150275/u10028/POT_HYBRID_KKJUS_GBRV'
outdir = './data'
tprnfor = .true.
nstep = 50
disk_io = 'non'
/
&SYSTEM
ibrav = 0
ecutwfc = 50.0
ecutrho = 400
occupations = 'smearing'
smearing = 'mp'
degauss = 0.01
assume_isolated = 'esm'
esm_bc = 'bc1'
input_dft = 'BEEF-VDW'
nosym = .true.
nspin = 2
ntyp = 5
nat = 34
starting_magnetization(1) = 0.0
starting_magnetization(2) = 0.1
starting_magnetization(3) = 0.0
starting_magnetization(4) = 0.0
starting_magnetization(5) = 0.0
/
&ELECTRONS
electron_maxstep = 300
mixing_beta = 0.1
conv_thr = 1e-06
/
&IONS
ion_dynamics = 'bfgs'
upscale = 1.0
/
&CELL
/

K_POINTS {automatic}
8 6 1 0 0 0

ATOMIC_SPECIES
C 12.01 C.pbe-n-rrkjus_psl.1.0.0.UPF
Fe 55.84 fe_pbe_v1.5.uspp.F.UPF
O 15.99 O.pbe-n-rrkjus_psl.1.0.0.UPF
Sn 118.7 Sn.pbe-dn-rrkjus_psl.1.0.0.UPF
Ti 47.86 Ti.pbe-spn-rrkjus_psl.1.0.0.UPF

CELL_PARAMETERS {angstrom}
6.02174000 0.00000000 0.00000000
0.00000000 8.51603000 0.00000000
0.00000000 0.00000000 26.38700000

ATOMIC_POSITIONS {angstrom}
Ti 0.00000000 0.00000000 -3.1936186100000015 0 0 0
Ti 3.01087000 2.12900750 -1.06445158 0 0 0
Ti 3.01087000 6.38702250 -1.06445158 0 0 0
Ti 0.00000000 4.25801500 -3.1936186100000015 0 0 0
Ti 5.98982478 4.25801500 1.16551379
Ti 2.99906739 6.50045602 3.16432904
Ti 2.99906739 2.01557398 3.16459291
Ti 5.99319695 0.00000000 1.10403208
Fe 1.50543500 0.00000000 -1.06445158 0 0 0
Fe 4.51630500 4.25801500 -1.06445158 0 0 0
Fe 4.51630500 0.00000000 -1.06445158 0 0 0
Fe 1.50543500 4.25801500 -1.06445158 0 0 0
Fe 4.51630500 6.38702250 -3.1936186100000015 0 0 0
Fe 1.50543500 2.12900750 -3.1936186100000015 0 0 0
Fe 1.50543500 6.38702250 -3.1936186100000015 0 0 0
Fe 4.51630500 2.12900750 -3.1936186100000015 0 0 0
Fe 1.67079198 4.25792984 3.31499881
Fe 4.56496066 0.00008516 3.11604083
Fe 4.22268496 4.25792984 3.45379443
Fe 1.55866718 0.00008516 3.26486351
Fe 4.51552217 2.12747461 1.13305778
Fe 1.47129173 6.36947948 1.15363964
Fe 1.47123152 2.14655052 1.15363964
Fe 4.51552217 6.38855539 1.13305778
Sn 0.00000000 6.38702250 -1.06445158 0 0 0
Sn 3.01087000 0.00000000 -3.1936186100000015 0 0 0
Sn 0.00000000 2.12900750 -1.06445158 0 0 0
Sn 3.01087000 4.25801500 -3.1936186100000015 0 0 0
Sn 6.01686239 2.14280347 3.47543177
Sn 3.01532609 4.25801500 1.06339610
Sn 6.01686239 6.37322653 3.47516790
Sn 2.97618478 0.00000000 1.03885619
C 2.13874140 8.51594484 4.93093869
O 2.42284709 0.00000000 6.07402353
