&CONTROL
calculation = 'relax'
prefix = 'scf'
pseudo_dir = '/vol0004/mdt0/data/hp150275/u10028/POT_KKJUS'
outdir = './data'
tprnfor = .true.
nstep = 50
disk_io = 'non'
/
&SYSTEM
ibrav = 0
ecutwfc = 50.0
ecutrho = 400
occupations = 'smearing'
smearing = 'mp'
degauss = 0.01
assume_isolated = 'esm'
esm_bc = 'bc1'
input_dft = 'BEEF-VDW'
nosym = .true.
nspin = 1
ntyp = 5
nat = 34
/
&ELECTRONS
electron_maxstep = 200
mixing_beta = 0.1
conv_thr = 1e-06
/
&IONS
ion_dynamics = 'bfgs'
upscale = 1.0
/
&CELL
/

K_POINTS {automatic}
8 6 1 0 0 0

ATOMIC_SPECIES
Al 26.98 Al.pbe-nl-rrkjus_psl.1.0.0.UPF
C 12.01 C.pbe-n-rrkjus_psl.1.0.0.UPF
Li 6.941 Li.pbe-sl-rrkjus_psl.1.0.0.UPF
O 15.99 O.pbe-n-rrkjus_psl.1.0.0.UPF
Rh 102.9 Rh.pbe-spn-rrkjus_psl.1.0.0.UPF

CELL_PARAMETERS {angstrom}
6.03986000 0.00000000 0.00000000
0.00000000 8.54165000 0.00000000
0.00000000 0.00000000 26.40620000

ATOMIC_POSITIONS {angstrom}
Li 0.00000000 0.00000000 -3.2030720599999967 0 0 0
Li 3.01993000 2.13541250 -1.0676026699999994 0 0 0
Li 3.01993000 6.40623750 -1.0676026699999994 0 0 0
Li 0.00000000 4.27082500 -3.2030720599999967 0 0 0
Li 0.00000000 4.26817709 0.95960131
Li 3.01993000 6.40623750 3.62293064
Li 3.01993000 2.13541250 3.72617888
Li 0.00000000 0.00264791 0.95933725
Al 1.50996500 0.00000000 -1.0676026699999994 0 0 0
Al 4.52989500 4.27082500 -1.0676026699999994 0 0 0
Al 4.52989500 0.00000000 -1.0676026699999994 0 0 0
Al 1.50996500 4.27082500 -1.0676026699999994 0 0 0
Al 4.52989500 6.40623750 -3.2030720599999967 0 0 0
Al 1.50996500 2.13541250 -3.2030720599999967 0 0 0
Al 1.50996500 6.40623750 -3.2030720599999967 0 0 0
Al 4.52989500 2.13541250 -3.2030720599999967 0 0 0
Al 1.39768400 4.27902498 3.12385346
Al 4.64211560 8.53345002 3.12385346
Al 4.64211560 4.27902498 3.12385346
Al 1.39774440 8.53345002 3.12385346
Al 4.50289683 2.13541250 1.10377916
Al 1.52772219 6.40623750 1.10325104
Al 1.53690278 2.13541250 1.10377916
Al 4.51213781 6.40623750 1.10325104
Rh 0.00000000 6.40623750 -1.0676026699999994 0 0 0
Rh 3.01993000 0.00000000 -3.2030720599999967 0 0 0
Rh 0.00000000 2.13541250 -1.0676026699999994 0 0 0
Rh 3.01993000 4.27082500 -3.2030720599999967 0 0 0
Rh 6.03979960 2.13541250 3.06708013
Rh 3.01986960 4.27185000 1.06179330
Rh 0.00006040 6.40623750 3.09718320
Rh 3.01993000 8.54062500 1.06179330
C 3.01993000 2.13541250 5.83973113
O 3.01993000 2.13541250 6.97836647
