&CONTROL
calculation = 'relax'
prefix = 'scf'
pseudo_dir = '/vol0403/data/hp230205/u10028/POT_HYBRID_KKJUS_GBRV'
outdir = './data'
tprnfor = .true.
nstep = 50
disk_io = 'non'
/
&SYSTEM
ibrav = 0
ecutwfc = 50.0
ecutrho = 400
occupations = 'smearing'
smearing = 'mp'
degauss = 0.01
assume_isolated = 'esm'
esm_bc = 'bc1'
input_dft = 'BEEF-VDW'
nosym = .true.
nspin = 2
ntyp = 5
nat = 33
starting_magnetization(1) = 0.0
starting_magnetization(2) = 0.0
starting_magnetization(3) = 0.1
starting_magnetization(4) = 0.0
starting_magnetization(5) = 0.0
/
&ELECTRONS
electron_maxstep = 400
mixing_beta = 0.05
conv_thr = 1e-06
/
&IONS
ion_dynamics = 'bfgs'
upscale = 1.0
/
&CELL
/

K_POINTS {automatic}
6 6 1 0 0 0

ATOMIC_SPECIES
Al 26.98 Al.pbe-nl-rrkjus_psl.1.0.0.UPF
C 12.01 C.pbe-n-rrkjus_psl.1.0.0.UPF
Fe 55.84 fe_pbe_v1.5.uspp.F.UPF
Li 6.941 Li.pbe-sl-rrkjus_psl.1.0.0.UPF
Pd 106.4 Pd.pbe-n-rrkjus_psl.1.0.0.UPF


CELL_PARAMETERS {angstrom}
5.67696000 0.00000000 0.00000000
0.00000000 8.60712000 0.00000000
0.00000000 0.00000000 26.63180000

ATOMIC_POSITIONS {angstrom}
Li 0.00000000 2.15178000 -1.1052196999999992 0 0 0
Li 0.00011354 2.15866570 3.84190347
Li 0.00000000 6.45534000 -1.1052196999999992 0 0 0
Li 0.00005677 6.44836823 3.84137083
Li 2.83848000 2.15178000 -1.1052196999999992 0 0 0
Li 2.83836646 2.15195214 3.47465095
Li 2.83848000 6.45534000 -1.1052196999999992 0 0 0
Li 2.83842323 6.45516786 3.47385199
Al 0.00000000 0.00000000 -3.3159254199999992 0 0 0
Al 0.00005677 8.60686179 0.98617555
Al 0.00000000 4.30356000 -3.3159254199999992 0 0 0
Al 0.00005677 4.30390428 0.98564292
Al 2.83848000 0.00000000 -3.3159254199999992 0 0 0
Al 2.83865031 8.60686179 0.96620170
Al 2.83848000 4.30356000 -3.3159254199999992 0 0 0
Al 2.83865031 4.30399036 1.01094313
Fe 1.41924000 2.15178000 -3.3159254199999992 0 0 0
Fe 1.24666042 2.12673328 1.24743351
Fe 1.41924000 6.45534000 -3.3159254199999992 0 0 0
Fe 1.24711457 6.48047279 1.24743351
Fe 4.25772000 2.15178000 -3.3159254199999992 0 0 0
Fe 4.43058343 2.12673328 1.24769983
Fe 4.25772000 6.45534000 -3.3159254199999992 0 0 0
Fe 4.42967512 6.48047279 1.24743351
Pd 1.41924000 0.00000000 -1.1052196999999992 0 0 0
Pd 1.42866375 0.00025821 3.16412416
Pd 1.41924000 4.30356000 -1.1052196999999992 0 0 0
Pd 1.40919178 4.30330179 3.06558650
Pd 4.25772000 0.00000000 -1.1052196999999992 0 0 0
Pd 4.24835302 0.00017214 3.16439048
Pd 4.25772000 4.30356000 -1.1052196999999992 0 0 0
Pd 4.26788176 4.30330179 3.06585282
C 0.00022708 8.60660357 4.42673780
