&CONTROL
calculation = 'relax'
prefix = 'scf'
pseudo_dir = '/vol0004/mdt0/data/hp150275/u10028/POT_KKJUS'
outdir = './data'
tprnfor = .true.
nstep = 50
disk_io = 'non'
/
&SYSTEM
ibrav = 0
ecutwfc = 50.0
ecutrho = 400
occupations = 'smearing'
smearing = 'mp'
degauss = 0.01
assume_isolated = 'esm'
esm_bc = 'bc1'
input_dft = 'BEEF-VDW'
nosym = .true.
nspin = 1
ntyp = 4
nat = 18
/
&ELECTRONS
electron_maxstep = 200
mixing_beta = 0.1
conv_thr = 1e-06
/
&IONS
ion_dynamics = 'bfgs'
upscale = 1.0
/
&CELL
/

K_POINTS {automatic}
8 11 2 0  0  0

ATOMIC_SPECIES
C 12.01 C.pbe-n-rrkjus_psl.1.0.0.UPF
O 15.99 O.pbe-n-rrkjus_psl.1.0.0.UPF
Rh 102.9 Rh.pbe-spn-rrkjus_psl.1.0.0.UPF
Ta 180.9 Ta.pbe-spn-rrkjus_psl.1.0.0.UPF

CELL_PARAMETERS {angstrom}
7.79956000 0.00000000 0.00000000
0.00000000 5.51512000 0.00000000
0.00000000 0.00000000 24.13630000

ATOMIC_POSITIONS {angstrom}
Ta 0.00000000 0.00000000 -2.0682395499999977 0 0 0
Ta 7.79854606 2.75789091 0.72843353
Ta 3.89978000 0.00000000 -2.0682395499999977 0 0 0
Ta 3.90110593 2.75926969 0.72843353
Rh 0.00000000 2.75756000 -2.0682395499999977 0 0 0
Rh 1.94989000 4.13634000 -0.6893327300000003 0 0 0
Rh 1.94989000 1.37878000 -0.6893327300000003 0 0 0
Rh 7.79644018 5.51043215 0.51868909
Rh 1.95051396 1.33510025 2.01755332
Rh 1.94973401 4.05620531 1.98424522
Rh 3.89978000 2.75756000 -2.0682395499999977 0 0 0
Rh 5.84967000 4.13634000 -0.6893327300000003 0 0 0
Rh 5.84967000 1.37878000 -0.6893327300000003 0 0 0
Rh 3.90336780 5.51114911 0.51917181
Rh 5.84982599 1.42874699 1.96734981
Rh 5.85060595 4.10324928 1.96638436
C 1.94950002 1.46586374 3.89077156
O 1.94957802 1.53739485 5.04641760
