&CONTROL
calculation = 'relax'
prefix = 'scf'
pseudo_dir = '/vol0004/mdt0/data/hp150275/u10028/POT_HYBRID_KKJUS_GBRV'
outdir = './data'
tprnfor = .true.
nstep = 50
disk_io = 'non'
/
&SYSTEM
ibrav = 0
ecutwfc = 50.0
ecutrho = 400
occupations = 'smearing'
smearing = 'mp'
degauss = 0.01
assume_isolated = 'esm'
esm_bc = 'bc1'
input_dft = 'BEEF-VDW'
nosym = .true.
nspin = 2
ntyp = 5
nat = 34
starting_magnetization(1) = 0.0
starting_magnetization(2) = 0.0
starting_magnetization(3) = 0.001
starting_magnetization(4) = 0.0
starting_magnetization(5) = 0.0
/
&ELECTRONS
electron_maxstep = 200
mixing_beta = 0.1
conv_thr = 1e-06
/
&IONS
ion_dynamics = 'bfgs'
upscale = 1.0
/
&CELL
/

K_POINTS {automatic}
9 6 2 0  0  0

ATOMIC_SPECIES
C 12.01 C.pbe-n-rrkjus_psl.1.0.0.UPF
Mg 24.30 Mg.pbe-spnl-rrkjus_psl.1.0.0.UPF
Ni 58.69 ni_pbe_v1.4.uspp.F.UPF
O 15.99 O.pbe-n-rrkjus_psl.1.0.0.UPF
Sb 121.7 Sb.pbe-n-rrkjus_psl.1.0.0.UPF

CELL_PARAMETERS {angstrom}
6.21377000 0.00000000 0.00000000
0.00000000 8.78760000 0.00000000
0.00000000 0.00000000 26.59070000

ATOMIC_POSITIONS {angstrom}
Mg 0.00000000 0.00000000 23.29531455
Mg 3.10688500 2.19690000 25.49223818
Mg 3.10688500 6.59070000 25.49223818
Mg 0.00000000 4.39380000 23.29531455
Mg 0.00956921 4.39380000 1.01230795
Mg 3.12838464 6.46433431 3.53337222
Mg 3.12832251 2.32326569 3.53337222
Mg 0.06536886 0.00008788 1.12132982
Ni 1.55344250 0.00000000 25.49223818
Ni 4.66032750 4.39380000 25.49223818
Ni 4.66032750 0.00000000 25.49223818
Ni 1.55344250 4.39380000 25.49223818
Ni 4.66032750 6.59070000 23.29531455
Ni 1.55344250 2.19690000 23.29531455
Ni 1.55344250 6.59070000 23.29531455
Ni 4.66032750 2.19690000 23.29531455
Ni 1.44202960 4.39380000 3.06643952
Ni 4.71736991 0.00008788 3.07973487
Ni 4.76459456 4.39380000 3.06537590
Ni 1.77887808 0.00008788 3.42700942
Ni 4.64926699 2.17783091 1.22503355
Ni 1.59060084 6.60440866 1.31225104
Ni 1.59066298 2.18319134 1.31225104
Ni 4.64926699 6.60976909 1.22529946
Sb 0.00000000 6.59070000 25.49223818
Sb 3.10688500 0.00000000 23.29531455
Sb 0.00000000 2.19690000 25.49223818
Sb 3.10688500 4.39380000 23.29531455
Sb 6.18531093 2.19830602 3.45333421
Sb 3.11440366 4.39380000 1.09606865
Sb 6.18524880 6.58911823 3.45360012
Sb 3.10613935 0.00000000 1.08915507
C 2.31407009 0.00000000 5.09557584
O 2.59400042 0.00000000 6.22621240
