&CONTROL
calculation = 'relax'
prefix = 'scf'
pseudo_dir = '/vol0004/mdt0/data/hp150275/u10028/POT_KKJUS'
outdir = './data'
tprnfor = .true.
nstep = 50
disk_io = 'non'
/
&SYSTEM
ibrav = 0
ecutwfc = 50.0
ecutrho = 400
occupations = 'smearing'
smearing = 'mp'
degauss = 0.01
assume_isolated = 'esm'
esm_bc = 'bc1'
input_dft = 'BEEF-VDW'
nosym = .true.
nspin = 1
ntyp = 4
nat = 33
/
&ELECTRONS
electron_maxstep = 200
mixing_beta = 0.1
conv_thr = 1e-06
/
&IONS
ion_dynamics = 'bfgs'
upscale = 1.0
/
&CELL
/

K_POINTS {automatic}
8 6 1 0 0 0

ATOMIC_SPECIES
C 12.01 C.pbe-n-rrkjus_psl.1.0.0.UPF
Ge 72.64 Ge.pbe-dn-rrkjus_psl.1.0.0.UPF
Li 6.941 Li.pbe-sl-rrkjus_psl.1.0.0.UPF
Pd 106.4 Pd.pbe-n-rrkjus_psl.1.0.0.UPF

CELL_PARAMETERS {angstrom}
6.13924000 0.00000000 0.00000000
0.00000000 8.68219000 0.00000000
0.00000000 0.00000000 26.51160000

ATOMIC_POSITIONS {angstrom}
Li 0.00000000 0.00000000 -3.2558895999999997 0 0 0
Li 3.06962000 2.17054750 -1.085384900000001 0 0 0
Li 3.06962000 6.51164250 -1.085384900000001 0 0 0
Li 0.00000000 4.34109500 -3.2558895999999997 0 0 0
Li 0.00000000 4.34109500 1.02493846
Li 3.06962000 6.40710893 3.57933112
Li 3.06962000 2.27508107 3.57933112
Li 0.00000000 0.00000000 1.09333838
Ge 0.00000000 6.51164250 -1.085384900000001 0 0 0
Ge 3.06962000 0.00000000 -3.2558895999999997 0 0 0
Ge 0.00000000 2.17054750 -1.085384900000001 0 0 0
Ge 3.06962000 4.34109500 -3.2558895999999997 0 0 0
Ge 0.00000000 2.03970690 3.50297771
Ge 3.06962000 4.34109500 1.17234295
Ge 0.00000000 6.64239628 3.50297771
Ge 3.06962000 0.00000000 0.89397115
Pd 1.53481000 0.00000000 -1.085384900000001 0 0 0
Pd 4.60443000 4.34109500 -1.085384900000001 0 0 0
Pd 4.60443000 0.00000000 -1.085384900000001 0 0 0
Pd 1.53481000 4.34109500 -1.085384900000001 0 0 0
Pd 4.60443000 6.51164250 -3.2558895999999997 0 0 0
Pd 1.53481000 2.17054750 -3.2558895999999997 0 0 0
Pd 1.53481000 6.51164250 -3.2558895999999997 0 0 0
Pd 4.60443000 2.17054750 -3.2558895999999997 0 0 0
Pd 1.41251634 4.34109500 3.15408505
Pd 4.39692369 0.00000000 3.00349916
Pd 4.72672366 4.34109500 3.15408505
Pd 1.74231631 0.00000000 3.00349916
Pd 4.61646291 2.21543442 1.10155698
Pd 1.52277709 6.46675558 1.10155698
Pd 1.52277709 2.21543442 1.10155698
Pd 4.61646291 6.46675558 1.10155698
C 0.00000000 0.00000000 4.01677252
