&CONTROL
calculation = 'relax'
prefix = 'scf'
pseudo_dir = '/vol0004/mdt0/data/hp150275/u10028/POT_KKJUS'
outdir = './data'
tprnfor = .true.
nstep = 50
disk_io = 'non'
/
&SYSTEM
ibrav = 0
ecutwfc = 50.0
ecutrho = 400
occupations = 'smearing'
smearing = 'mp'
degauss = 0.01
assume_isolated = 'esm'
esm_bc = 'bc1'
input_dft = 'BEEF-VDW'
nosym = .true.
nspin = 1
ntyp = 4
nat = 33
/
&ELECTRONS
electron_maxstep = 200
mixing_beta = 0.1
conv_thr = 1e-06
/
&IONS
ion_dynamics = 'bfgs'
upscale = 1.0
/
&CELL
/

K_POINTS {automatic}
9 6 2 0  0  0

ATOMIC_SPECIES
Ag 107.8 Ag.pbe-n-rrkjus_psl.1.0.0.UPF
Al 26.98 Al.pbe-nl-rrkjus_psl.1.0.0.UPF
C 12.01 C.pbe-n-rrkjus_psl.1.0.0.UPF
Sc 44.95 Sc.pbe-spn-rrkjus_psl.1.0.0.UPF

CELL_PARAMETERS {angstrom}
6.65011000 0.00000000 0.00000000
0.00000000 9.40467000 0.00000000
0.00000000 0.00000000 27.05350000

ATOMIC_POSITIONS {angstrom}
Sc 0.00000000 0.00000000 -3.5266942599999993 0 0 0
Sc 3.32505500 2.35116750 -1.1754745699999987 0 0 0
Sc 3.32505500 7.05350250 -1.1754745699999987 0 0 0
Sc 0.00000000 4.70233500 -3.5266942599999993 0 0 0
Sc 0.00000000 4.70233500 1.23228692
Sc 3.32512150 7.29849415 3.42064454
Sc 3.32505500 2.10626989 3.42064454
Sc 0.00000000 0.00000000 1.41868554
Al 0.00000000 7.05350250 -1.1754745699999987 0 0 0
Al 3.32505500 0.00000000 -3.5266942599999993 0 0 0
Al 0.00000000 2.35116750 -1.1754745699999987 0 0 0
Al 3.32505500 4.70233500 -3.5266942599999993 0 0 0
Al 0.00006650 2.44192257 3.41334010
Al 3.32505500 4.70233500 1.13408272
Al 0.00000000 6.96284148 3.41334010
Al 3.32505500 0.00000000 1.19657631
Ag 1.66252750 0.00000000 -1.1754745699999987 0 0 0
Ag 4.98758250 4.70233500 -1.1754745699999987 0 0 0
Ag 4.98758250 0.00000000 -1.1754745699999987 0 0 0
Ag 1.66252750 4.70233500 -1.1754745699999987 0 0 0
Ag 4.98758250 7.05350250 -3.5266942599999993 0 0 0
Ag 1.66252750 2.35116750 -3.5266942599999993 0 0 0
Ag 1.66252750 7.05350250 -3.5266942599999993 0 0 0
Ag 4.98758250 2.35116750 -3.5266942599999993 0 0 0
Ag 1.71473086 4.70242905 3.53426924
Ag 5.33325522 0.00009405 4.13729176
Ag 4.93551214 4.70242905 3.53426924
Ag 1.31692128 0.00000000 4.13729176
Ag 5.00301076 2.38041602 1.09350247
Ag 1.64709924 7.02434802 1.09350247
Ag 1.64709924 2.38041602 1.09350247
Ag 5.00301076 7.02434802 1.09350247
C 3.32505500 0.00009405 3.22937630
