&CONTROL
calculation = 'relax'
prefix = 'scf'
pseudo_dir = '/vol0004/mdt0/data/hp150275/u10028/POT_KKJUS'
outdir = './data'
tprnfor = .true.
nstep = 50
disk_io = 'non'
/
&SYSTEM
ibrav = 0
ecutwfc = 50.0
ecutrho = 400
occupations = 'smearing'
smearing = 'mp'
degauss = 0.01
assume_isolated = 'esm'
esm_bc = 'bc1'
input_dft = 'BEEF-VDW'
nosym = .true.
nspin = 1
ntyp = 3
nat = 17
/
&ELECTRONS
electron_maxstep = 200
mixing_beta = 0.1
conv_thr = 1e-06
/
&IONS
ion_dynamics = 'bfgs'
upscale = 1.0
/
&CELL
/

K_POINTS {automatic}
10 10 2 0  0  0

ATOMIC_SPECIES
C 12.01 C.pbe-n-rrkjus_psl.1.0.0.UPF
Li 6.941 Li.pbe-sl-rrkjus_psl.1.0.0.UPF
Sb 121.7 Sb.pbe-n-rrkjus_psl.1.0.0.UPF

CELL_PARAMETERS {angstrom}
6.56971000 0.00000000 0.00000000
0.00000000 6.56971000 0.00000000
0.00000000 0.00000000 24.92730000

ATOMIC_POSITIONS {angstrom}
Li 1.64229611 1.64255889 0.80988798
Li 4.92728250 4.92728250 -2.4635650600000005 0 0 0
Li 4.92741389 1.64255889 0.87968442
Li 1.64242750 4.92728250 -2.4635650600000005 0 0 0
Li 4.92701971 4.92701971 0.87370186
Li 1.64242750 1.64242750 -2.4635650600000005 0 0 0
Li 1.64249320 4.92708541 0.87968442
Li 4.92728250 1.64242750 -2.4635650600000005 0 0 0
Li 0.00000000 0.00000000 -0.8211052599999995 0 0 0
Li 3.10208567 0.18276933 3.20340732
Li 0.18237515 3.10247985 3.20315805
Li 3.28485500 3.28485500 -0.8211052599999995 0 0 0
Sb 0.14972369 0.14965799 2.55056134
Sb 3.13539410 3.13539410 2.55056134
Sb 3.28485500 0.00000000 -0.8211052599999995 0 0 0
Sb 0.00000000 3.28485500 -0.8211052599999995 0 0 0
C 1.64223041 1.64295308 3.18072348
