&CONTROL
calculation = 'relax'
prefix = 'scf'
pseudo_dir = '/vol0403/data/hp230205/u10028/POT_HYBRID_KKJUS_GBRV'
outdir = './data'
tprnfor = .true.
nstep = 50
disk_io = 'non'
/
&SYSTEM
ibrav = 0
ecutwfc = 50.0
ecutrho = 400
occupations = 'smearing'
smearing = 'mp'
degauss = 0.01
assume_isolated = 'esm'
esm_bc = 'bc1'
input_dft = 'BEEF-VDW'
nosym = .true.
nspin = 1
ntyp = 5
nat = 33
/
&ELECTRONS
electron_maxstep = 200
mixing_beta = 0.1
conv_thr = 1e-06
/
&IONS
ion_dynamics = 'bfgs'
upscale = 1.0
/
&CELL
/

K_POINTS {automatic}
7 7 2 0  0  0

ATOMIC_SPECIES
C 12.01 C.pbe-n-rrkjus_psl.1.0.0.UPF
Li 6.941 Li.pbe-sl-rrkjus_psl.1.0.0.UPF
Pb 207.2 Pb.pbe-dn-rrkjus_psl.1.0.0.UPF
Sn 118.7 Sn.pbe-dn-rrkjus_psl.1.0.0.UPF
Y 88.90 Y.pbe-spn-rrkjus_psl.1.0.0.UPF


CELL_PARAMETERS {angstrom}
9.36828000 0.00000000 0.00000000
0.00000000 9.64462000 0.00000000
0.00000000 0.00000000 26.65380000

ATOMIC_POSITIONS {angstrom}
Li 0.00000000 0.00000000 -3.3269273199999994 0 0 0
Li 9.33605312 9.63709720 1.31456542
Li 0.00000000 4.82231000 -3.3269273199999994 0 0 0
Li 9.33605312 4.82992925 1.31456542
Li 4.68414000 0.00000000 -3.3269273199999994 0 0 0
Li 4.71636688 9.63700075 1.31456542
Li 4.68414000 4.82231000 -3.3269273199999994 0 0 0
Li 4.71636688 4.82992925 1.31456542
Y 2.34207000 2.41115500 -3.3269273199999994 0 0 0
Y 2.34207000 2.41125145 0.96886563
Y 2.34207000 7.23346500 -3.3269273199999994 0 0 0
Y 2.34207000 7.23336855 1.02084054
Y 7.02621000 2.41115500 -3.3269273199999994 0 0 0
Y 7.02621000 2.41115500 1.16956874
Y 7.02621000 7.23346500 -3.3269273199999994 0 0 0
Y 7.02621000 7.23356145 0.99578597
Sn 0.00000000 2.41115500 -1.1090646200000016 0 0 0
Sn 0.13874423 2.41125145 3.45353287
Sn 0.00000000 7.23346500 -1.1090646200000016 0 0 0
Sn 0.01686290 7.23346500 3.16247337
Sn 4.68414000 2.41115500 -1.1090646200000016 0 0 0
Sn 4.54539577 2.41125145 3.45353287
Sn 4.68414000 7.23346500 -1.1090646200000016 0 0 0
Sn 4.66727710 7.23346500 3.16247337
Pb 2.34207000 0.00000000 -1.1090646200000016 0 0 0
Pb 2.34207000 9.43369216 4.04018300
Pb 2.34207000 4.82231000 -1.1090646200000016 0 0 0
Pb 2.34207000 5.03333429 4.03964993
Pb 7.02621000 0.00000000 -1.1090646200000016 0 0 0
Pb 7.02621000 9.38093609 3.79550112
Pb 7.02621000 4.82231000 -1.1090646200000016 0 0 0
Pb 7.02621000 5.08618680 3.79576766
C 2.34207000 2.41009409 3.24376746
