&CONTROL
calculation = 'relax'
prefix = 'scf'
pseudo_dir = '/vol0004/mdt0/data/hp150275/u10028/POT_HYBRID_KKJUS_GBRV'
outdir = './data'
tprnfor = .true.
nstep = 50
disk_io = 'non'
/
&SYSTEM
ibrav = 0
ecutwfc = 50.0
ecutrho = 400
occupations = 'smearing'
smearing = 'mp'
degauss = 0.01
assume_isolated = 'esm'
esm_bc = 'bc1'
input_dft = 'BEEF-VDW'
nosym = .true.
nspin = 2
ntyp = 4
nat = 33
starting_magnetization(1) = 0.0
starting_magnetization(2) = 0.1
starting_magnetization(3) = 0.0
starting_magnetization(4) = 0.0
/
&ELECTRONS
electron_maxstep = 200
mixing_beta = 0.1
conv_thr = 1e-06
/
&IONS
ion_dynamics = 'bfgs'
upscale = 1.0
/
&CELL
/

K_POINTS {automatic}
9 6 2 0  0  0

ATOMIC_SPECIES
C 12.01 C.pbe-n-rrkjus_psl.1.0.0.UPF
Co 58.93 co_pbe_v1.2.uspp.F.UPF
Nb 92.90 Nb.pbe-spn-rrkjus_psl.1.0.0.UPF
Sn 118.7 Sn.pbe-dn-rrkjus_psl.1.0.0.UPF

CELL_PARAMETERS {angstrom}
6.19479000 0.00000000 0.00000000
0.00000000 8.76076000 0.00000000
0.00000000 0.00000000 26.57060000

ATOMIC_POSITIONS {angstrom}
Nb 0.00000000 0.00000000 23.28541102
Nb 3.09739500 2.19019000 25.47562557
Nb 3.09739500 6.57057000 25.47562557
Nb 0.00000000 4.38038000 23.28541102
Nb 0.00000000 4.38038000 1.15183551
Nb 3.09739500 6.57039478 3.21902819
Nb 3.09739500 2.19036522 3.21902819
Nb 0.00000000 0.00000000 1.21852772
Co 1.54869750 0.00000000 25.47562557
Co 4.64609250 4.38038000 25.47562557
Co 4.64609250 0.00000000 25.47562557
Co 1.54869750 4.38038000 25.47562557
Co 4.64609250 6.57057000 23.28541102
Co 1.54869750 2.19019000 23.28541102
Co 1.54869750 6.57057000 23.28541102
Co 4.64609250 2.19019000 23.28541102
Co 1.65047790 4.38038000 3.11566856
Co 4.44835480 0.00000000 3.26499533
Co 4.54437405 4.38038000 3.11566856
Co 1.74637325 0.00000000 3.26472962
Co 4.70302262 2.19702339 1.17628046
Co 1.49176738 6.56373661 1.17628046
Co 1.49176738 2.19702339 1.17628046
Co 4.70302262 6.56373661 1.17628046
Sn 0.00000000 6.57057000 25.47562557
Sn 3.09739500 0.00000000 23.28541102
Sn 0.00000000 2.19019000 25.47562557
Sn 3.09739500 4.38038000 23.28541102
Sn 0.00000000 2.37399074 3.74858025
Sn 3.09739500 4.38038000 1.01101133
Sn 0.00000000 6.38676926 3.74858025
Sn 3.09739500 0.00000000 1.04395887
C 6.19472805 0.00000000 3.53734398
