&CONTROL
calculation = 'relax'
prefix = 'scf'
pseudo_dir = '/vol0004/mdt0/data/hp150275/u10028/POT_KKJUS'
outdir = './data'
tprnfor = .true.
nstep = 50
disk_io = 'non'
/
&SYSTEM
ibrav = 0
ecutwfc = 50.0
ecutrho = 400
occupations = 'smearing'
smearing = 'mp'
degauss = 0.01
assume_isolated = 'esm'
esm_bc = 'bc1'
input_dft = 'BEEF-VDW'
nosym = .true.
nspin = 1
ntyp = 5
nat = 34
/
&ELECTRONS
electron_maxstep = 200
mixing_beta = 0.1
conv_thr = 1e-06
/
&IONS
ion_dynamics = 'bfgs'
upscale = 1.0
/
&CELL
/

K_POINTS {automatic}
8 6 1 0 0 0

ATOMIC_SPECIES
Al 26.98 Al.pbe-nl-rrkjus_psl.1.0.0.UPF
Au 196.9 Au.pbe-n-rrkjus_psl.1.0.0.UPF
C 12.01 C.pbe-n-rrkjus_psl.1.0.0.UPF
O 15.99 O.pbe-n-rrkjus_psl.1.0.0.UPF
Ti 47.86 Ti.pbe-spn-rrkjus_psl.1.0.0.UPF

CELL_PARAMETERS {angstrom}
6.49880000 0.00000000 0.00000000
0.00000000 9.19068000 0.00000000
0.00000000 0.00000000 26.89300000

ATOMIC_POSITIONS {angstrom}
Ti 0.00000000 0.00000000 -3.446606880000001 0 0 0
Ti 3.24940000 2.29767000 -1.1488689600000015 0 0 0
Ti 3.24940000 6.89301000 -1.1488689600000015 0 0 0
Ti 0.00000000 4.59534000 -3.446606880000001 0 0 0
Ti 0.00000000 4.61078034 1.23869158
Ti 3.24940000 6.89301000 3.35355710
Ti 3.24940000 2.29767000 3.39389660
Ti 0.00000000 9.17523966 1.23869158
Al 0.00000000 6.89301000 -1.1488689600000015 0 0 0
Al 3.24940000 0.00000000 -3.446606880000001 0 0 0
Al 0.00000000 2.29767000 -1.1488689600000015 0 0 0
Al 3.24940000 4.59534000 -3.446606880000001 0 0 0
Al 0.00000000 2.29767000 3.40008199
Al 3.24940000 4.57787771 1.16258439
Al 0.00000000 6.89301000 3.38905586
Al 3.24940000 0.01746229 1.16285332
Au 1.62470000 0.00000000 -1.1488689600000015 0 0 0
Au 4.87410000 4.59534000 -1.1488689600000015 0 0 0
Au 4.87410000 0.00000000 -1.1488689600000015 0 0 0
Au 1.62470000 4.59534000 -1.1488689600000015 0 0 0
Au 4.87410000 6.89301000 -3.446606880000001 0 0 0
Au 1.62470000 2.29767000 -3.446606880000001 0 0 0
Au 1.62470000 6.89301000 -3.446606880000001 0 0 0
Au 4.87410000 2.29767000 -3.446606880000001 0 0 0
Au 1.64978537 4.59846483 3.49609000
Au 4.84901463 9.18755517 3.49609000
Au 4.84901463 4.59846483 3.49635893
Au 1.64978537 9.18755517 3.49635893
Au 4.88787746 2.29767000 1.09642761
Au 1.64465132 6.89301000 1.09266259
Au 1.61092254 2.29767000 1.09642761
Au 4.85414868 6.89301000 1.09266259
C 3.24940000 2.29767000 5.48133126
O 3.24940000 2.29767000 6.63450310
