&CONTROL
calculation = 'relax'
prefix = 'scf'
pseudo_dir = '/vol0004/mdt0/data/hp150275/u10028/POT_KKJUS'
outdir = './data'
tprnfor = .true.
nstep = 50
disk_io = 'non'
/
&SYSTEM
ibrav = 0
ecutwfc = 50.0
ecutrho = 400
occupations = 'smearing'
smearing = 'mp'
degauss = 0.01
assume_isolated = 'esm'
esm_bc = 'bc1'
input_dft = 'BEEF-VDW'
nosym = .true.
nspin = 1
ntyp = 4
nat = 33
/
&ELECTRONS
electron_maxstep = 200
mixing_beta = 0.1
conv_thr = 1e-06
/
&IONS
ion_dynamics = 'bfgs'
upscale = 1.0
/
&CELL
/

K_POINTS {automatic}
8 6 1 0 0 0

ATOMIC_SPECIES
C 12.01 C.pbe-n-rrkjus_psl.1.0.0.UPF
Ga 69.72 Ga.pbe-dnl-rrkjus_psl.1.0.0.UPF
Nb 92.90 Nb.pbe-spn-rrkjus_psl.1.0.0.UPF
Ni 58.69 Ni.pbe-spn-rrkjus_psl.1.0.0.UPF

CELL_PARAMETERS {angstrom}
6.01786000 0.00000000 0.00000000
0.00000000 8.51054000 0.00000000
0.00000000 0.00000000 26.38290000

ATOMIC_POSITIONS {angstrom}
Nb 0.00000000 0.00000000 -3.1915394100000007 0 0 0
Nb 3.00893000 2.12763500 -1.0637585299999976 0 0 0
Nb 3.00893000 6.38290500 -1.0637585299999976 0 0 0
Nb 0.00000000 4.25527000 -3.1915394100000007 0 0 0
Nb 5.99288588 4.32207774 1.17667734
Nb 2.68655324 6.38264968 3.14167573
Nb 2.99984303 2.12806053 2.96306350
Nb 5.99276552 8.44356205 1.17641351
Ga 0.00000000 6.38290500 -1.0637585299999976 0 0 0
Ga 3.00893000 0.00000000 -3.1915394100000007 0 0 0
Ga 0.00000000 2.12763500 -1.0637585299999976 0 0 0
Ga 3.00893000 4.25527000 -3.1915394100000007 0 0 0
Ga 5.43521079 2.12720947 3.84029492
Ga 2.95609319 4.20301528 1.04344370
Ga 5.94335889 6.38316032 3.28915614
Ga 2.95585247 0.05225472 1.04344370
Ni 1.50446500 0.00000000 -1.0637585299999976 0 0 0
Ni 4.51339500 4.25527000 -1.0637585299999976 0 0 0
Ni 4.51339500 0.00000000 -1.0637585299999976 0 0 0
Ni 1.50446500 4.25527000 -1.0637585299999976 0 0 0
Ni 4.51339500 6.38290500 -3.1915394100000007 0 0 0
Ni 1.50446500 2.12763500 -3.1915394100000007 0 0 0
Ni 1.50446500 6.38290500 -3.1915394100000007 0 0 0
Ni 4.51339500 2.12763500 -3.1915394100000007 0 0 0
Ni 1.20910843 4.09042084 3.41579406
Ni 4.32732277 8.40279656 3.12320770
Ni 4.32792455 4.36292833 3.12373536
Ni 1.21007129 0.16484916 3.41500258
Ni 4.69994866 2.12754989 0.93474615
Ni 1.57084200 6.38273479 0.94635462
Ni 1.33307635 2.12763500 1.01125656
Ni 4.34357099 6.38281989 1.22706868
C 1.33885349 2.12772011 3.99410723
