&CONTROL
calculation = 'relax'
prefix = 'scf'
pseudo_dir = '/vol0004/mdt0/data/hp150275/u10028/POT_HYBRID_KKJUS_GBRV'
outdir = './data'
tprnfor = .true.
nstep = 50
disk_io = 'non'
/
&SYSTEM
ibrav = 0
ecutwfc = 50.0
ecutrho = 400
occupations = 'smearing'
smearing = 'mp'
degauss = 0.01
assume_isolated = 'esm'
esm_bc = 'bc1'
input_dft = 'BEEF-VDW'
nosym = .true.
nspin = 2
ntyp = 4
nat = 33
starting_magnetization(1) = 0.0
starting_magnetization(2) = 0.001
starting_magnetization(3) = 0.0
starting_magnetization(4) = 0.0
/
&ELECTRONS
electron_maxstep = 300
mixing_beta = 0.1
conv_thr = 1e-06
/
&IONS
ion_dynamics = 'bfgs'
upscale = 1.0
/
&CELL
/

K_POINTS {automatic}
9 6 2 0  0  0

ATOMIC_SPECIES
C 12.01 C.pbe-n-rrkjus_psl.1.0.0.UPF
Ni 58.69 ni_pbe_v1.4.uspp.F.UPF
Sb 121.7 Sb.pbe-n-rrkjus_psl.1.0.0.UPF
Ti 47.86 Ti.pbe-spn-rrkjus_psl.1.0.0.UPF

CELL_PARAMETERS {angstrom}
6.14873000 0.00000000 0.00000000
0.00000000 8.69561000 0.00000000
0.00000000 0.00000000 26.52170000

ATOMIC_POSITIONS {angstrom}
Ti 0.00000000 0.00000000 -3.2608430099999985 0 0 0
Ti 3.07436500 2.17390250 -1.086859269999998 0 0 0
Ti 3.07436500 6.52170750 -1.086859269999998 0 0 0
Ti 0.00000000 4.34780500 -3.2608430099999985 0 0 0
Ti 0.00000000 4.34780500 1.09322447
Ti 3.07436500 6.51179450 3.16006056
Ti 3.07436500 2.18381550 3.16006056
Ti 0.00000000 0.00000000 1.33324586
Ni 1.53718250 0.00000000 -1.086859269999998 0 0 0
Ni 4.61154750 4.34780500 -1.086859269999998 0 0 0
Ni 4.61154750 0.00000000 -1.086859269999998 0 0 0
Ni 1.53718250 4.34780500 -1.086859269999998 0 0 0
Ni 4.61154750 6.52170750 -3.2608430099999985 0 0 0
Ni 1.53718250 2.17390250 -3.2608430099999985 0 0 0
Ni 1.53718250 6.52170750 -3.2608430099999985 0 0 0
Ni 4.61154750 2.17390250 -3.2608430099999985 0 0 0
Ni 1.74045951 4.34780500 3.06617374
Ni 4.32956674 0.00000000 3.36905155
Ni 4.40827049 4.34780500 3.06617374
Ni 1.81916326 0.00000000 3.36905155
Ni 4.75296829 2.22494573 1.21601994
Ni 1.39570022 6.47075123 1.21575473
Ni 1.39576171 2.22494573 1.21601994
Ni 4.75302978 6.47075123 1.21575473
Sb 0.00000000 6.52170750 -1.086859269999998 0 0 0
Sb 3.07436500 0.00000000 -3.2608430099999985 0 0 0
Sb 0.00000000 2.17390250 -1.086859269999998 0 0 0
Sb 3.07436500 4.34780500 -3.2608430099999985 0 0 0
Sb 0.00000000 2.44042295 3.66476851
Sb 3.07436500 4.34780500 0.94788556
Sb 0.00000000 6.25518705 3.66476851
Sb 3.07436500 0.00000000 1.04575063
C 0.00000000 8.69552304 3.41228192
