&CONTROL
calculation = 'relax'
prefix = 'scf'
pseudo_dir = '/vol0004/mdt0/data/hp150275/u10028/POT_KKJUS'
outdir = './data'
tprnfor = .true.
nstep = 50
disk_io = 'non'
/
&SYSTEM
ibrav = 0
ecutwfc = 50.0
ecutrho = 400
occupations = 'smearing'
smearing = 'mp'
degauss = 0.01
assume_isolated = 'esm'
esm_bc = 'bc1'
input_dft = 'BEEF-VDW'
nosym = .true.
nspin = 1
ntyp = 2
nat = 32
/
&ELECTRONS
electron_maxstep = 200
mixing_beta = 0.1
conv_thr = 1e-06
/
&IONS
ion_dynamics = 'bfgs'
upscale = 1.0
/
&CELL
/

K_POINTS {automatic}
8 6 1 0 0 0

ATOMIC_SPECIES
Ag 107.8 Ag.pbe-n-rrkjus_psl.1.0.0.UPF
In 114.8 In.pbe-dn-rrkjus_psl.1.0.0.UPF

CELL_PARAMETERS {angstrom}
7.14855000 0.00000000 0.00000000
0.00000000 10.10960000 0.00000000
0.00000000 0.00000000 27.58220000

ATOMIC_POSITIONS {angstrom}
In 1.78713750 2.52740000 -3.791173390000001 0 0 0
In 1.78713750 0.00000000 -1.2638163999999996 0 0 0
In 1.78735196 2.52709671 1.23899242
In 1.78399214 5.06066357 4.02589791
In 1.78713750 7.58220000 -3.791173390000001 0 0 0
In 1.78713750 5.05480000 -1.2638163999999996 0 0 0
In 1.78699453 7.58351425 1.23182105
In 1.79049732 10.10252328 4.01789907
In 5.36141250 2.52740000 -3.791173390000001 0 0 0
In 5.36141250 0.00000000 -1.2638163999999996 0 0 0
In 5.36205587 2.52760219 1.24009571
In 5.36856105 5.05823726 4.02644956
In 5.36141250 7.58220000 -3.791173390000001 0 0 0
In 5.36141250 5.05480000 -1.2638163999999996 0 0 0
In 5.36162696 7.58341315 1.23099359
In 5.35733783 10.10434301 4.01872654
Ag 0.00000000 0.00000000 -3.791173390000001 0 0 0
Ag 0.00000000 2.52740000 -1.2638163999999996 0 0 0
Ag 7.14804960 5.05550767 1.29994909
Ag 0.00164417 2.52194082 3.64250533
Ag 0.00000000 5.05480000 -3.791173390000001 0 0 0
Ag 0.00000000 7.58220000 -1.2638163999999996 0 0 0
Ag 7.14840703 0.00040438 1.30656881
Ag 7.14740623 7.58887234 3.63478232
Ag 3.57427500 0.00000000 -3.791173390000001 0 0 0
Ag 3.57427500 2.52740000 -1.2638163999999996 0 0 0
Ag 3.57463243 5.05429452 1.31374019
Ag 3.57334569 2.53134274 3.64250533
Ag 3.57427500 5.05480000 -3.791173390000001 0 0 0
Ag 3.57427500 7.58220000 -1.2638163999999996 0 0 0
Ag 3.57448946 10.10889233 1.30132820
Ag 3.57606214 7.57815616 3.63423067
