&CONTROL
calculation = 'relax'
prefix = 'scf'
pseudo_dir = '/vol0004/mdt0/data/hp150275/u10028/POT_KKJUS'
outdir = './data'
tprnfor = .true.
nstep = 50
disk_io = 'non'
/
&SYSTEM
ibrav = 0
ecutwfc = 50.0
ecutrho = 400
occupations = 'smearing'
smearing = 'mp'
degauss = 0.01
assume_isolated = 'esm'
esm_bc = 'bc1'
input_dft = 'BEEF-VDW'
nosym = .true.
nspin = 1
ntyp = 5
nat = 18
/
&ELECTRONS
electron_maxstep = 200
mixing_beta = 0.1
conv_thr = 1e-06
/
&IONS
ion_dynamics = 'bfgs'
upscale = 1.0
/
&CELL
/

K_POINTS {automatic}
8 8 1 0 0 0

ATOMIC_SPECIES
C 12.01 C.pbe-n-rrkjus_psl.1.0.0.UPF
In 114.8 In.pbe-dn-rrkjus_psl.1.0.0.UPF
Mg 24.30 Mg.pbe-spnl-rrkjus_psl.1.0.0.UPF
Ni 58.69 Ni.pbe-spn-rrkjus_psl.1.0.0.UPF
O 15.99 O.pbe-n-rrkjus_psl.1.0.0.UPF

CELL_PARAMETERS {angstrom}
6.24448000 0.00000000 0.00000000
0.00000000 6.24448000 0.00000000
0.00000000 0.00000000 24.68340000

ATOMIC_POSITIONS {angstrom}
Mg 0.00131134 6.23211593 2.37380258
Mg 3.13010804 3.12867181 2.36294188
Mg 3.12224000 0.00000000 -0.7804891099999978 0 0 0
Mg 0.00000000 3.12224000 -0.7804891099999978 0 0 0
In 0.00000000 0.00000000 -0.7804891099999978 0 0 0
In 3.13266828 6.24235688 2.39873281
In 0.00818027 3.12092866 2.38392277
In 3.12224000 3.12224000 -0.7804891099999978 0 0 0
Ni 1.57360896 1.55268995 0.87675437
Ni 4.68336000 4.68336000 -2.3417141599999987 0 0 0
Ni 4.68311022 1.55618686 0.87724804
Ni 1.56112000 4.68336000 -2.3417141599999987 0 0 0
Ni 4.68460890 4.69041626 0.87107719
Ni 1.56112000 1.56112000 -2.3417141599999987 0 0 0
Ni 1.57054916 4.69797208 0.87255819
Ni 4.68336000 1.56112000 -2.3417141599999987 0 0 0
C 5.71588477 3.12217756 6.43965223
O 0.33133211 3.13254339 7.18262257
