&CONTROL
calculation = 'relax'
prefix = 'scf'
pseudo_dir = '/vol0004/mdt0/data/hp150275/u10028/POT_KKJUS'
outdir = './data'
tprnfor = .true.
nstep = 50
disk_io = 'non'
/
&SYSTEM
ibrav = 0
ecutwfc = 50.0
ecutrho = 400
occupations = 'smearing'
smearing = 'mp'
degauss = 0.01
assume_isolated = 'esm'
esm_bc = 'bc1'
input_dft = 'BEEF-VDW'
nosym = .true.
nspin = 1
ntyp = 3
nat = 32
/
&ELECTRONS
electron_maxstep = 200
mixing_beta = 0.1
conv_thr = 1e-06
/
&IONS
ion_dynamics = 'bfgs'
upscale = 1.0
/
&CELL
/

K_POINTS {automatic}
8 6 1 0 0 0

ATOMIC_SPECIES
Ag 107.8 Ag.pbe-n-rrkjus_psl.1.0.0.UPF
Al 26.98 Al.pbe-nl-rrkjus_psl.1.0.0.UPF
Li 6.941 Li.pbe-sl-rrkjus_psl.1.0.0.UPF

CELL_PARAMETERS {angstrom}
6.34834000 0.00000000 0.00000000
0.00000000 8.97791000 0.00000000
0.00000000 0.00000000 26.73340000

ATOMIC_POSITIONS {angstrom}
Li 0.00000000 6.73343250 -1.1222681299999984 0 0 0
Li 3.17417000 0.00000000 -3.3668043999999995 0 0 0
Li 0.00000000 2.24447750 -1.1222681299999984 0 0 0
Li 3.17417000 4.48895500 -3.3668043999999995 0 0 0
Li 1.58708500 0.00000000 -1.1222681299999984 0 0 0
Li 1.58708500 4.48895500 -1.1222681299999984 0 0 0
Li 4.76125500 6.73343250 -3.3668043999999995 0 0 0
Li 4.76125500 2.24447750 -3.3668043999999995 0 0 0
Li 6.25965369 2.24447750 3.35076436
Li 3.13715918 4.48895500 1.00009649
Li 6.25965369 6.73343250 3.35076436
Li 3.13722266 0.00000000 1.00009649
Li 1.67621569 4.48895500 3.41759786
Li 1.67627918 0.00000000 3.41759786
Li 4.78436296 2.24447750 1.07120734
Li 4.78436296 6.73343250 1.07120734
Al 0.00000000 0.00000000 -3.3668043999999995 0 0 0
Al 3.17417000 2.24447750 -1.1222681299999984 0 0 0
Al 3.17417000 6.73343250 -1.1222681299999984 0 0 0
Al 0.00000000 4.48895500 -3.3668043999999995 0 0 0
Al 0.03396362 4.48895500 1.13002082
Al 3.25415908 6.73343250 3.36065571
Al 3.25415908 2.24447750 3.36092305
Al 0.03390014 0.00000000 1.13002082
Ag 1.58708500 2.24447750 -3.3668043999999995 0 0 0
Ag 1.58708500 6.73343250 -3.3668043999999995 0 0 0
Ag 4.76125500 4.48895500 -1.1222681299999984 0 0 0
Ag 4.76125500 0.00000000 -1.1222681299999984 0 0 0
Ag 1.59590919 6.73343250 1.16450690
Ag 1.59597268 2.24447750 1.16450690
Ag 4.61479880 0.00000000 3.19009662
Ag 4.61479880 4.48895500 3.18982929
