&CONTROL
calculation = 'relax'
prefix = 'scf'
pseudo_dir = '/vol0403/data/hp230205/u10028/POT_HYBRID_KKJUS_GBRV'
outdir = './data'
tprnfor = .true.
nstep = 50
disk_io = 'non'
/
&SYSTEM
ibrav = 0
ecutwfc = 50.0
ecutrho = 400
occupations = 'smearing'
smearing = 'mp'
degauss = 0.01
assume_isolated = 'esm'
esm_bc = 'bc1'
input_dft = 'BEEF-VDW'
nosym = .true.
nspin = 1
ntyp = 5
nat = 17
/
&ELECTRONS
electron_maxstep = 200
mixing_beta = 0.1
conv_thr = 1e-06
/
&IONS
ion_dynamics = 'bfgs'
upscale = 1.0
/
&CELL
/

K_POINTS {automatic}
6 6 1 0 0 0

ATOMIC_SPECIES
C 12.01 C.pbe-n-rrkjus_psl.1.0.0.UPF
Ga 69.72 Ga.pbe-dnl-rrkjus_psl.1.0.0.UPF
Pd 106.4 Pd.pbe-n-rrkjus_psl.1.0.0.UPF
Sc 44.95 Sc.pbe-spn-rrkjus_psl.1.0.0.UPF
Y 88.90 Y.pbe-spn-rrkjus_psl.1.0.0.UPF


CELL_PARAMETERS {angstrom}
7.06732000 0.00000000 0.00000000
0.00000000 6.83834000 0.00000000
0.00000000 0.00000000 25.12490000

ATOMIC_POSITIONS {angstrom}
Y 1.76683000 5.06262825 -0.8542465999999997 0 0 0
Y 1.69700488 1.42873438 2.67077687
Y 5.30049000 5.06262825 -0.8542465999999997 0 0 0
Y 5.37031512 1.42873438 2.67077687
Sc 1.76683000 1.64345825 -0.8542465999999997 0 0 0
Sc 1.58081814 5.09606773 2.47279266
Sc 5.30049000 1.64345825 -0.8542465999999997 0 0 0
Sc 5.48643119 5.09606773 2.47279266
Ga 0.00000000 0.00000000 -2.562488550000001 0 0 0
Ga 0.00000000 3.20663439 0.98690607
Ga 3.53366000 0.00000000 -2.562488550000001 0 0 0
Ga 3.53366000 3.32056114 1.15046917
Pd 0.00000000 3.41917000 -2.562488550000001 0 0 0
Pd 0.00000000 0.12350042 0.60475634
Pd 3.53366000 3.41917000 -2.562488550000001 0 0 0
Pd 3.53366000 6.74431283 0.94745998
C 0.00000000 6.55400182 2.90267970
