&CONTROL
calculation = 'relax'
prefix = 'scf'
pseudo_dir = '/vol0004/mdt0/data/hp150275/u10028/POT_KKJUS'
outdir = './data'
tprnfor = .true.
nstep = 50
disk_io = 'non'
/
&SYSTEM
ibrav = 0
ecutwfc = 50.0
ecutrho = 400
occupations = 'smearing'
smearing = 'mp'
degauss = 0.01
assume_isolated = 'esm'
esm_bc = 'bc1'
input_dft = 'BEEF-VDW'
nosym = .true.
nspin = 1
ntyp = 3
nat = 32
/
&ELECTRONS
electron_maxstep = 200
mixing_beta = 0.1
conv_thr = 1e-06
/
&IONS
ion_dynamics = 'bfgs'
upscale = 1.0
/
&CELL
/

K_POINTS {automatic}
8 6 1 0 0 0

ATOMIC_SPECIES
Al 26.98 Al.pbe-nl-rrkjus_psl.1.0.0.UPF
Cu 63.54 Cu.pbe-dn-rrkjus_psl.1.0.0.UPF
Zr 91.22 Zr.pbe-spn-rrkjus_psl.1.0.0.UPF

CELL_PARAMETERS {angstrom}
6.27295000 0.00000000 0.00000000
0.00000000 8.87129000 0.00000000
0.00000000 0.00000000 26.65350000

ATOMIC_POSITIONS {angstrom}
Zr 0.00000000 0.00000000 -3.3266233300000003 0 0 0
Zr 3.13647500 2.21782250 -1.108785600000001 0 0 0
Zr 3.13647500 6.65346750 -1.108785600000001 0 0 0
Zr 0.00000000 4.43564500 -3.3266233300000003 0 0 0
Zr 0.00000000 4.43564500 1.10345490
Zr 3.13647500 6.65346750 3.30156904
Zr 3.13647500 2.21782250 3.30156904
Zr 0.00000000 0.00000000 1.10345490
Al 0.00000000 6.65346750 -1.108785600000001 0 0 0
Al 3.13647500 0.00000000 -3.3266233300000003 0 0 0
Al 0.00000000 2.21782250 -1.108785600000001 0 0 0
Al 3.13647500 4.43564500 -3.3266233300000003 0 0 0
Al 0.00000000 2.21782250 3.30103598
Al 3.13647500 4.43564500 1.13730485
Al 0.00000000 6.65346750 3.30103598
Al 3.13647500 0.00000000 1.13730485
Cu 1.56823750 0.00000000 -1.108785600000001 0 0 0
Cu 4.70471250 4.43564500 -1.108785600000001 0 0 0
Cu 4.70471250 0.00000000 -1.108785600000001 0 0 0
Cu 1.56823750 4.43564500 -1.108785600000001 0 0 0
Cu 4.70471250 6.65346750 -3.3266233300000003 0 0 0
Cu 1.56823750 2.21782250 -3.3266233300000003 0 0 0
Cu 1.56823750 6.65346750 -3.3266233300000003 0 0 0
Cu 4.70471250 2.21782250 -3.3266233300000003 0 0 0
Cu 1.51341192 4.43564500 3.37140122
Cu 4.75960081 0.00000000 3.37140122
Cu 4.75953808 4.43564500 3.37140122
Cu 1.51334919 0.00000000 3.37140122
Cu 4.68288263 2.21782250 1.11011828
Cu 1.59013010 6.65346750 1.10985174
Cu 1.59006737 2.21782250 1.11011828
Cu 4.68281990 6.65346750 1.10985174
