&CONTROL
calculation = 'relax'
prefix = 'scf'
pseudo_dir = '/vol0004/mdt0/data/hp150275/u10028/POT_KKJUS'
outdir = './data'
tprnfor = .true.
nstep = 50
disk_io = 'non'
/
&SYSTEM
ibrav = 0
ecutwfc = 50.0
ecutrho = 400
occupations = 'smearing'
smearing = 'mp'
degauss = 0.01
assume_isolated = 'esm'
esm_bc = 'bc1'
input_dft = 'BEEF-VDW'
nosym = .true.
nspin = 1
ntyp = 4
nat = 34
/
&ELECTRONS
electron_maxstep = 200
mixing_beta = 0.1
conv_thr = 1e-06
/
&IONS
ion_dynamics = 'bfgs'
upscale = 1.0
/
&CELL
/

K_POINTS {automatic}
9 6 2 0  0  0

ATOMIC_SPECIES
Be 9.012 Be.pbe-n-rrkjus_psl.1.0.0.UPF
C 12.01 C.pbe-n-rrkjus_psl.1.0.0.UPF
Cu 63.54 Cu.pbe-dn-rrkjus_psl.1.0.0.UPF
O 15.99 O.pbe-n-rrkjus_psl.1.0.0.UPF

CELL_PARAMETERS {angstrom}
5.39777000 0.00000000 0.00000000
0.00000000 7.63360000 0.00000000
0.00000000 0.00000000 25.72520000

ATOMIC_POSITIONS {angstrom}
Be 0.00000000 0.00000000 -2.8627002600000004 0 0 0
Be 0.00000000 1.90840000 -0.9541476700000011 0 0 0
Be 0.00000000 7.62604274 1.01537364
Be 0.00000000 1.90840000 2.81819566
Be 0.00000000 3.81680000 -2.8627002600000004 0 0 0
Be 0.00000000 5.72520000 -0.9541476700000011 0 0 0
Be 0.00000000 3.82435726 1.01537364
Be 0.00000000 5.72520000 2.74719411
Be 2.69888500 0.00000000 -2.8627002600000004 0 0 0
Be 2.69888500 1.90840000 -0.9541476700000011 0 0 0
Be 2.69888500 0.00305344 0.97730035
Be 2.69888500 1.90840000 2.72404143
Be 2.69888500 3.81680000 -2.8627002600000004 0 0 0
Be 2.69888500 5.72520000 -0.9541476700000011 0 0 0
Be 2.69888500 3.81374656 0.97730035
Be 2.69888500 5.72520000 2.78655366
Cu 1.34944250 1.90840000 -2.8627002600000004 0 0 0
Cu 1.34944250 0.00000000 -0.9541476700000011 0 0 0
Cu 1.33454465 1.90840000 0.92044766
Cu 1.37740295 7.59940147 2.86604453
Cu 1.34944250 5.72520000 -2.8627002600000004 0 0 0
Cu 1.34944250 3.81680000 -0.9541476700000011 0 0 0
Cu 1.35446243 5.72520000 0.89317894
Cu 1.37740295 3.85099853 2.86604453
Cu 4.04832750 1.90840000 -2.8627002600000004 0 0 0
Cu 4.04832750 0.00000000 -0.9541476700000011 0 0 0
Cu 4.06322535 1.90840000 0.92044766
Cu 4.02036705 7.59940147 2.86604453
Cu 4.04832750 5.72520000 -2.8627002600000004 0 0 0
Cu 4.04832750 3.81680000 -0.9541476700000011 0 0 0
Cu 4.04330757 5.72520000 0.89317894
Cu 4.02036705 3.85099853 2.86604453
C 0.00000000 1.90840000 4.48827564
O 0.00000000 1.90840000 5.64513789
