&CONTROL
calculation = 'relax'
prefix = 'scf'
pseudo_dir = '/vol0004/mdt0/data/hp150275/u10028/POT_KKJUS'
outdir = './data'
tprnfor = .true.
nstep = 50
disk_io = 'non'
/
&SYSTEM
ibrav = 0
ecutwfc = 50.0
ecutrho = 400
occupations = 'smearing'
smearing = 'mp'
degauss = 0.01
assume_isolated = 'esm'
esm_bc = 'bc1'
input_dft = 'BEEF-VDW'
nosym = .true.
nspin = 1
ntyp = 5
nat = 34
/
&ELECTRONS
electron_maxstep = 200
mixing_beta = 0.1
conv_thr = 1e-06
/
&IONS
ion_dynamics = 'bfgs'
upscale = 1.0
/
&CELL
/

K_POINTS {automatic}
9 6 2 0  0  0

ATOMIC_SPECIES
C 12.01 C.pbe-n-rrkjus_psl.1.0.0.UPF
Ga 69.72 Ga.pbe-dnl-rrkjus_psl.1.0.0.UPF
Li 6.941 Li.pbe-sl-rrkjus_psl.1.0.0.UPF
O 15.99 O.pbe-n-rrkjus_psl.1.0.0.UPF
Ru 101.0 Ru.pbe-spn-rrkjus_psl.1.0.0.UPF

CELL_PARAMETERS {angstrom}
6.09317000 0.00000000 0.00000000
0.00000000 8.61704000 0.00000000
0.00000000 0.00000000 26.46280000

ATOMIC_POSITIONS {angstrom}
Li 0.00000000 0.00000000 -3.23137251 0 0 0
Li 3.04658500 2.15426000 -1.07703596 0 0 0
Li 3.04658500 6.46278000 -1.07703596 0 0 0
Li 0.00000000 4.30852000 -3.23137251 0 0 0
Li 0.00000000 4.31144979 1.02093482
Li 3.04658500 6.46278000 3.41502434
Li 3.04658500 2.15426000 3.47800580
Li 0.00000000 8.61411021 1.02093482
Ga 1.52329250 0.00000000 -1.07703596 0 0 0
Ga 4.56987750 4.30852000 -1.07703596 0 0 0
Ga 4.56987750 0.00000000 -1.07703596 0 0 0
Ga 1.52329250 4.30852000 -1.07703596 0 0 0
Ga 4.56987750 6.46278000 -3.23137251 0 0 0
Ga 1.52329250 2.15426000 -3.23137251 0 0 0
Ga 1.52329250 6.46278000 -3.23137251 0 0 0
Ga 4.56987750 2.15426000 -3.23137251 0 0 0
Ga 1.38314959 4.31842960 3.27371299
Ga 4.70995948 8.60713040 3.27371299
Ga 4.70995948 4.31842960 3.27371299
Ga 1.38321052 8.60713040 3.27371299
Ga 4.55958004 2.15426000 1.05083779
Ga 1.53901288 6.46278000 1.05083779
Ga 1.53358996 2.15426000 1.05083779
Ga 4.55415712 6.46278000 1.05083779
Ru 0.00000000 6.46278000 -1.07703596 0 0 0
Ru 3.04658500 0.00000000 -3.23137251 0 0 0
Ru 0.00000000 2.15426000 -1.07703596 0 0 0
Ru 3.04658500 4.30852000 -3.23137251 0 0 0
Ru 0.00000000 2.15426000 3.04666216
Ru 3.04658500 4.29861040 1.17918237
Ru 0.00000000 6.46278000 3.06465687
Ru 3.04658500 0.00990960 1.17918237
C 3.04658500 2.15426000 5.59476518
O 3.04658500 2.15426000 6.73425334
