&CONTROL
calculation = 'relax'
prefix = 'scf'
pseudo_dir = '/vol0004/mdt0/data/hp150275/u10028/POT_KKJUS'
outdir = './data'
tprnfor = .true.
nstep = 50
disk_io = 'non'
/
&SYSTEM
ibrav = 0
ecutwfc = 50.0
ecutrho = 400
occupations = 'smearing'
smearing = 'mp'
degauss = 0.01
assume_isolated = 'esm'
esm_bc = 'bc1'
input_dft = 'BEEF-VDW'
nosym = .true.
nspin = 1
ntyp = 4
nat = 18
/
&ELECTRONS
electron_maxstep = 200
mixing_beta = 0.1
conv_thr = 1e-06
/
&IONS
ion_dynamics = 'bfgs'
upscale = 1.0
/
&CELL
/

K_POINTS {automatic}
6 8 1 0 0 0

ATOMIC_SPECIES
C 12.01 C.pbe-n-rrkjus_psl.1.0.0.UPF
Nb 92.90 Nb.pbe-spn-rrkjus_psl.1.0.0.UPF
O 15.99 O.pbe-n-rrkjus_psl.1.0.0.UPF
Rh 102.9 Rh.pbe-spn-rrkjus_psl.1.0.0.UPF

CELL_PARAMETERS {angstrom}
7.81819000 0.00000000 0.00000000
0.00000000 5.52830000 0.00000000
0.00000000 0.00000000 24.14620000

ATOMIC_POSITIONS {angstrom}
Nb 0.00000000 0.00000000 -2.073192729999999 0 0 0
Nb 7.80685362 2.76110944 0.74128834
Nb 3.90909500 0.00000000 -2.073192729999999 0 0 0
Nb 3.92043138 2.76110944 0.74152980
Rh 0.00000000 2.76415000 -2.073192729999999 0 0 0
Rh 1.95454750 4.14622500 -0.6910642399999993 0 0 0
Rh 1.95454750 1.38207500 -0.6910642399999993 0 0 0
Rh 7.81357727 5.51906774 0.50900190
Rh 1.95439114 1.31402163 2.02079548
Rh 1.95439114 4.05788277 1.97612501
Rh 3.90909500 2.76415000 -2.073192729999999 0 0 0
Rh 5.86364250 4.14622500 -0.6910642399999993 0 0 0
Rh 5.86364250 1.38207500 -0.6910642399999993 0 0 0
Rh 3.91362955 5.51895717 0.50924336
Rh 5.86379886 1.41629518 1.96936407
Rh 5.86379886 4.11946803 1.95946413
C 1.95454750 1.42591442 3.88464066
O 1.95454750 1.47135705 5.04293387
