&CONTROL
calculation = 'relax'
prefix = 'scf'
pseudo_dir = '/vol0403/data/hp230205/u10028/POT_HYBRID_KKJUS_GBRV'
outdir = './data'
tprnfor = .true.
nstep = 70
disk_io = 'non'
/
&SYSTEM
ibrav = 0
ecutwfc = 50.0
ecutrho = 400
occupations = 'smearing'
smearing = 'mp'
degauss = 0.01
assume_isolated = 'esm'
esm_bc = 'bc1'
input_dft = 'BEEF-VDW'
nosym = .true.
nspin = 1
ntyp = 6
nat = 34
/
&ELECTRONS
electron_maxstep = 200
mixing_beta = 0.1
conv_thr = 1e-06
/
&IONS
ion_dynamics = 'bfgs'
upscale = 1.0
/
&CELL
/

K_POINTS {automatic}
9 6 2 0  0  0

ATOMIC_SPECIES
Au 196.9 Au.pbe-n-rrkjus_psl.1.0.0.UPF
C 12.01 C.pbe-n-rrkjus_psl.1.0.0.UPF
In 114.8 In.pbe-dn-rrkjus_psl.1.0.0.UPF
O 15.99 O.pbe-n-rrkjus_psl.1.0.0.UPF
Pd 106.4 Pd.pbe-n-rrkjus_psl.1.0.0.UPF
Y 88.90 Y.pbe-spn-rrkjus_psl.1.0.0.UPF


CELL_PARAMETERS {angstrom}
6.93157000 0.00000000 0.00000000
-0.00000000 9.80272000 0.00000000
0.00000000 0.00000000 27.35200000

ATOMIC_POSITIONS {angstrom}
Y 5.19867750 0.00000000 -1.2253696000000005 0 0 0
Y 5.19867750 4.90136000 -1.2253696000000005 0 0 0
Y 1.73289250 2.45068000 -3.6761088000000015 0 0 0
Y 1.73289250 7.35204000 -3.6761088000000015 0 0 0
Y 5.13345143 4.90136000 3.65176552
Y 5.14738388 -0.00000000 3.61593440
Y 1.79305853 7.31969102 1.32110160
Y 1.79298921 2.48302898 1.32110160
In 1.73289250 0.00000000 -1.2253696000000005 0 0 0
In 1.73289250 4.90136000 -1.2253696000000005 0 0 0
In 5.19867750 2.45068000 -3.6761088000000015 0 0 0
In 5.19867750 7.35204000 -3.6761088000000015 0 0 0
In 1.64319798 4.90136000 3.83174168
In 1.63460284 -0.00000000 3.85280272
In 5.21441216 7.38105605 1.24998640
In 5.21448148 2.42166395 1.24998640
Pd 0.00000000 2.45068000 -1.2253696000000005 0 0 0
Pd 0.00000000 7.35204000 -1.2253696000000005 0 0 0
Pd 3.46578500 4.90136000 -3.6761088000000015 0 0 0
Pd 3.46578500 0.00000000 -3.6761088000000015 0 0 0
Pd 0.01781413 7.32900361 3.55165720
Pd 0.01781413 2.47371639 3.55165720
Pd 3.43272141 -0.00000000 1.20294096
Pd 3.54487421 4.90136000 1.23631040
Au 0.00000000 0.00000000 -3.6761088000000015 0 0 0
Au 0.00000000 4.90136000 -3.6761088000000015 0 0 0
Au 3.46578500 7.35204000 -1.2253696000000005 0 0 0
Au 3.46578500 2.45068000 -1.2253696000000005 0 0 0
Au 6.91396381 4.90136000 1.24396896
Au 0.07569274 0.00000000 1.22400200
Au 3.35751388 2.45068000 3.91407120
Au 3.35744456 7.35204000 3.91407120
C 5.18370531 -0.00000000 6.14654144
O 5.21240201 -0.00000000 7.29012856
