&CONTROL
calculation = 'relax'
prefix = 'scf'
pseudo_dir = '/vol0403/data/hp230205/u10028/POT_HYBRID_KKJUS_GBRV'
outdir = './data'
tprnfor = .true.
nstep = 70
disk_io = 'non'
/
&SYSTEM
ibrav = 0
ecutwfc = 50.0
ecutrho = 400
occupations = 'smearing'
smearing = 'mp'
degauss = 0.01
assume_isolated = 'esm'
esm_bc = 'bc1'
input_dft = 'BEEF-VDW'
nosym = .true.
nspin = 1
ntyp = 6
nat = 34
/
&ELECTRONS
electron_maxstep = 200
mixing_beta = 0.1
conv_thr = 1e-06
/
&IONS
ion_dynamics = 'bfgs'
upscale = 1.0
/
&CELL
/

K_POINTS {automatic}
6 6 1 0 0 0

ATOMIC_SPECIES
C 12.01 C.pbe-n-rrkjus_psl.1.0.0.UPF
Cu 63.54 Cu.pbe-dn-rrkjus_psl.1.0.0.UPF
O 15.99 O.pbe-n-rrkjus_psl.1.0.0.UPF
Pd 106.4 Pd.pbe-n-rrkjus_psl.1.0.0.UPF
Sn 118.7 Sn.pbe-dn-rrkjus_psl.1.0.0.UPF
Y 88.90 Y.pbe-spn-rrkjus_psl.1.0.0.UPF


CELL_PARAMETERS {angstrom}
6.76496000 0.00000000 0.00000000
-0.00000000 9.56710000 0.00000000
0.00000000 0.00000000 27.17530000

ATOMIC_POSITIONS {angstrom}
Y 1.69124000 0.00000000 -1.1959849499999997 0 0 0
Y 1.69124000 4.78355000 -1.1959849499999997 0 0 0
Y 5.07372000 2.39177500 -3.5876831100000004 0 0 0
Y 5.07372000 7.17532500 -3.5876831100000004 0 0 0
Y 1.84669878 4.78355000 3.77627969
Y 1.81625646 -0.00000000 3.67736160
Y 5.09550317 7.11753972 1.19136515
Y 5.09550317 2.44956028 1.19136515
Cu 0.00000000 0.00000000 -3.5876831100000004 0 0 0
Cu 0.00000000 4.78355000 -3.5876831100000004 0 0 0
Cu 3.38248000 7.17532500 -1.1959849499999997 0 0 0
Cu 3.38248000 2.39177500 -1.1959849499999997 0 0 0
Cu 0.20727837 4.78355000 1.41202859
Cu 6.72788802 -0.00000000 1.32887217
Cu 3.72742531 2.39225335 3.76323554
Cu 3.72749296 7.17484664 3.76323554
Sn 5.07372000 0.00000000 -1.1959849499999997 0 0 0
Sn 5.07372000 4.78355000 -1.1959849499999997 0 0 0
Sn 1.69124000 2.39177500 -3.5876831100000004 0 0 0
Sn 1.69124000 7.17532500 -3.5876831100000004 0 0 0
Sn 5.14969050 4.78355000 3.65317558
Sn 5.13649883 -0.00000000 3.68143789
Sn 1.72337356 7.21742024 1.23239985
Sn 1.72337356 2.34967976 1.23239985
Pd 0.00000000 2.39177500 -1.1959849499999997 0 0 0
Pd 0.00000000 7.17532500 -1.1959849499999997 0 0 0
Pd 3.38248000 4.78355000 -3.5876831100000004 0 0 0
Pd 3.38248000 0.00000000 -3.5876831100000004 0 0 0
Pd 0.03869557 7.14604967 3.49229780
Pd 0.03876322 2.42105033 3.49229780
Pd 3.44796481 -0.00000000 1.19788722
Pd 3.24826319 4.78355000 1.25305308
C 1.85461378 -0.00000000 6.20738203
O 1.82058604 0.00000000 7.35146216
