&CONTROL
calculation = 'relax'
prefix = 'scf'
pseudo_dir = '/vol0403/data/hp230205/u10028/POT_HYBRID_KKJUS_GBRV'
outdir = './data'
tprnfor = .true.
nstep = 50
disk_io = 'non'
/
&SYSTEM
ibrav = 0
ecutwfc = 50.0
ecutrho = 400
occupations = 'smearing'
smearing = 'mp'
degauss = 0.01
assume_isolated = 'esm'
esm_bc = 'bc1'
input_dft = 'BEEF-VDW'
nosym = .true.
nspin = 1
ntyp = 5
nat = 33
/
&ELECTRONS
electron_maxstep = 200
mixing_beta = 0.1
conv_thr = 1e-06
/
&IONS
ion_dynamics = 'bfgs'
upscale = 1.0
/
&CELL
/

K_POINTS {automatic}
9 6 2 0  0  0

ATOMIC_SPECIES
C 12.01 C.pbe-n-rrkjus_psl.1.0.0.UPF
In 114.8 In.pbe-dn-rrkjus_psl.1.0.0.UPF
Li 6.941 Li.pbe-sl-rrkjus_psl.1.0.0.UPF
Pd 106.4 Pd.pbe-n-rrkjus_psl.1.0.0.UPF
Y 88.90 Y.pbe-spn-rrkjus_psl.1.0.0.UPF


CELL_PARAMETERS {angstrom}
6.81638000 0.00000000 0.00000000
0.00000000 9.63982000 0.00000000
0.00000000 0.00000000 27.22990000

ATOMIC_POSITIONS {angstrom}
Li 5.11228500 0.00000000 -1.2049230699999995 0 0 0
Li 5.11228500 4.81991000 -1.2049230699999995 0 0 0
Li 1.70409500 2.40995500 -3.615041520000002 0 0 0
Li 1.70409500 7.22986500 -3.615041520000002 0 0 0
Li 3.87906553 4.81991000 5.07265807
Li 4.30161293 0.00000000 4.85400197
Li 1.80422762 7.30804394 1.28007760
Li 1.80415946 2.33177606 1.28007760
Y 0.00000000 2.40995500 -1.2049230699999995 0 0 0
Y 0.00000000 7.22986500 -1.2049230699999995 0 0 0
Y 3.40819000 4.81991000 -3.615041520000002 0 0 0
Y 3.40819000 0.00000000 -3.615041520000002 0 0 0
Y 6.41189601 7.41687751 3.57365208
Y 6.41196417 2.22303889 3.57365208
Y 3.94020846 0.00000000 1.87205563
Y 3.51302592 4.81991000 1.53249877
In 0.00000000 0.00000000 -3.615041520000002 0 0 0
In 0.00000000 4.81991000 -3.615041520000002 0 0 0
In 3.40819000 7.22986500 -1.2049230699999995 0 0 0
In 3.40819000 2.40995500 -1.2049230699999995 0 0 0
In 0.05882536 4.81991000 1.18341145
In 0.14123539 0.00000000 1.15046328
In 3.03267563 2.42653549 3.89659869
In 3.03267563 7.21328451 3.89659869
Pd 1.70409500 0.00000000 -1.2049230699999995 0 0 0
Pd 1.70409500 4.81991000 -1.2049230699999995 0 0 0
Pd 5.11228500 2.40995500 -3.615041520000002 0 0 0
Pd 5.11228500 7.22986500 -3.615041520000002 0 0 0
Pd 1.57090293 4.81991000 3.51646929
Pd 1.61221020 0.00000000 3.53580251
Pd 5.10594577 7.11968186 0.99933733
Pd 5.10594577 2.52013814 0.99933733
C 5.83413964 0.00000000 3.38603807
