&CONTROL
calculation = 'relax'
prefix = 'scf'
pseudo_dir = '/vol0004/mdt0/data/hp150275/u10028/POT_KKJUS'
outdir = './data'
tprnfor = .true.
nstep = 50
disk_io = 'non'
/
&SYSTEM
ibrav = 0
ecutwfc = 50.0
ecutrho = 400
occupations = 'smearing'
smearing = 'mp'
degauss = 0.01
assume_isolated = 'esm'
esm_bc = 'bc1'
input_dft = 'BEEF-VDW'
nosym = .true.
nspin = 1
ntyp = 3
nat = 17
/
&ELECTRONS
electron_maxstep = 200
mixing_beta = 0.1
conv_thr = 1e-06
/
&IONS
ion_dynamics = 'bfgs'
upscale = 1.0
/
&CELL
/

K_POINTS {automatic}
8 11 2 0  0  0

ATOMIC_SPECIES
C 12.01 C.pbe-n-rrkjus_psl.1.0.0.UPF
Pb 207.2 Pb.pbe-dn-rrkjus_psl.1.0.0.UPF
Pd 106.4 Pd.pbe-n-rrkjus_psl.1.0.0.UPF

CELL_PARAMETERS {angstrom}
8.32195000 0.00000000 0.00000000
0.00000000 5.88450000 0.00000000
0.00000000 0.00000000 24.41340000

ATOMIC_POSITIONS {angstrom}
Pd 0.00000000 2.94225000 -2.2067272299999985 0 0 0
Pd 2.08048750 4.41337500 -0.735575739999998 0 0 0
Pd 2.08048750 1.47112500 -0.735575739999998 0 0 0
Pd 0.00000000 0.00000000 0.53489759
Pd 1.57351431 1.37838528 2.32195847
Pd 1.57351431 4.50617357 2.32195847
Pd 4.16097500 2.94225000 -2.2067272299999985 0 0 0
Pd 6.24146250 4.41337500 -0.735575739999998 0 0 0
Pd 6.24146250 1.47112500 -0.735575739999998 0 0 0
Pd 4.16097500 0.00000000 0.87961480
Pd 6.74843569 1.37832644 2.32195847
Pd 6.74843569 4.50611472 2.32195847
Pb 0.00000000 0.00000000 -2.2067272299999985 0 0 0
Pb 0.00000000 2.94225000 0.56858809
Pb 4.16097500 0.00000000 -2.2067272299999985 0 0 0
Pb 4.16097500 2.94225000 1.02096839
C 0.00000000 0.00000000 2.56706901
