&CONTROL
calculation = 'relax'
prefix = 'scf'
pseudo_dir = '/vol0004/mdt0/data/hp150275/u10028/POT_KKJUS'
outdir = './data'
tprnfor = .true.
nstep = 50
disk_io = 'non'
/
&SYSTEM
ibrav = 0
ecutwfc = 50.0
ecutrho = 400
occupations = 'smearing'
smearing = 'mp'
degauss = 0.01
assume_isolated = 'esm'
esm_bc = 'bc1'
input_dft = 'BEEF-VDW'
nosym = .true.
nspin = 1
ntyp = 4
nat = 17
/
&ELECTRONS
electron_maxstep = 200
mixing_beta = 0.1
conv_thr = 1e-06
/
&IONS
ion_dynamics = 'bfgs'
upscale = 1.0
/
&CELL
/

K_POINTS {automatic}
8 8 1 0 0 0

ATOMIC_SPECIES
Ag 107.8 Ag.pbe-n-rrkjus_psl.1.0.0.UPF
C 12.01 C.pbe-n-rrkjus_psl.1.0.0.UPF
In 114.8 In.pbe-dn-rrkjus_psl.1.0.0.UPF
Y 88.90 Y.pbe-spn-rrkjus_psl.1.0.0.UPF

CELL_PARAMETERS {angstrom}
7.06522000 0.00000000 0.00000000
-0.00000000 7.06522000 0.00000000
0.00000000 0.00000000 25.29890000

ATOMIC_POSITIONS {angstrom}
Y 0.00000000 0.00000000 -2.6495537999999996 0 0 0
Y 3.53261000 3.53261000 -2.6495537999999996 0 0 0
Y 3.53261000 -0.00000000 0.88318460
Y 0.00000000 3.53261000 0.88318460
In 0.00000000 0.00000000 0.88318460
In 3.53261000 0.00000000 -2.6495537999999996 0 0 0
In 0.00000000 3.53261000 -2.6495537999999996 0 0 0
In 3.53261000 3.53261000 0.88318460
Ag 1.76630500 1.76630500 -0.8831845999999999 0 0 0
Ag 5.29891500 5.29891500 2.64955380
Ag 5.29891500 1.76630500 -0.8831845999999999 0 0 0
Ag 1.76630500 5.29891500 2.64955380
Ag 5.29891500 5.29891500 -0.8831845999999999 0 0 0
Ag 1.76630500 1.76630500 2.64955380
Ag 1.76630500 5.29891500 -0.8831845999999999 0 0 0
Ag 5.29891500 1.76630500 2.64955380
C 0.00000000 3.53261000 3.44950501
