&CONTROL
calculation = 'relax'
prefix = 'scf'
pseudo_dir = '/vol0004/mdt0/data/hp150275/u10028/POT_KKJUS'
outdir = './data'
tprnfor = .true.
nstep = 50
disk_io = 'non'
/
&SYSTEM
ibrav = 0
ecutwfc = 50.0
ecutrho = 400
occupations = 'smearing'
smearing = 'mp'
degauss = 0.01
assume_isolated = 'esm'
esm_bc = 'bc1'
input_dft = 'BEEF-VDW'
nosym = .true.
nspin = 1
ntyp = 3
nat = 17
/
&ELECTRONS
electron_maxstep = 200
mixing_beta = 0.1
conv_thr = 1e-06
/
&IONS
ion_dynamics = 'bfgs'
upscale = 1.0
/
&CELL
/

K_POINTS {automatic}
7 11 3 0  0  0

ATOMIC_SPECIES
C 12.01 C.pbe-n-rrkjus_psl.1.0.0.UPF
Ca 40.07 Ca.pbe-spn-rrkjus_psl.1.0.0.UPF
Sn 118.7 Sn.pbe-dn-rrkjus_psl.1.0.0.UPF

CELL_PARAMETERS {angstrom}
9.62927000 0.00000000 0.00000000
0.00000000 6.80892000 0.00000000
0.00000000 0.00000000 25.10670000

ATOMIC_POSITIONS {angstrom}
Ca 0.46181979 0.01382211 2.47150355
Ca 0.00000000 3.40446000 -0.8511171299999987 0 0 0
Ca 4.35281521 0.01389020 2.47150355
Ca 4.81463500 3.40446000 -0.8511171299999987 0 0 0
Sn 0.80231078 3.25241682 2.93547536
Sn 2.40731750 5.01211410 0.65402954
Sn 2.40731750 1.85250286 0.60105440
Sn 0.00000000 0.00000000 -0.8511171299999987 0 0 0
Sn 2.40731750 1.70223000 -2.5533513899999996 0 0 0
Sn 2.40731750 5.10669000 -2.5533513899999996 0 0 0
Sn 4.01222793 3.25241682 2.93547536
Sn 7.22195250 5.16306786 0.71629415
Sn 7.22195250 1.74247072 0.87371316
Sn 4.81463500 0.00000000 -0.8511171299999987 0 0 0
Sn 7.22195250 1.70223000 -2.5533513899999996 0 0 0
Sn 7.22195250 5.10669000 -2.5533513899999996 0 0 0
C 2.40731750 1.54787178 2.87095114
