&CONTROL
calculation = 'relax'
prefix = 'scf'
pseudo_dir = '/vol0004/mdt0/data/hp150275/u10028/POT_HYBRID_KKJUS_GBRV'
outdir = './data'
tprnfor = .true.
nstep = 50
disk_io = 'non'
/
&SYSTEM
ibrav = 0
ecutwfc = 50.0
ecutrho = 400
occupations = 'smearing'
smearing = 'mp'
degauss = 0.01
assume_isolated = 'esm'
esm_bc = 'bc1'
input_dft = 'BEEF-VDW'
nosym = .true.
nspin = 2
ntyp = 4
nat = 17
starting_magnetization(1) = 0.1
starting_magnetization(2) = 0.1
starting_magnetization(3) = 0.1
starting_magnetization(4) = 0.1
/
&ELECTRONS
electron_maxstep = 200
mixing_beta = 0.1
conv_thr = 1e-06
/
&IONS
ion_dynamics = 'bfgs'
upscale = 1.0
/
&CELL
/

K_POINTS {automatic}
10 10 2 0  0  0

ATOMIC_SPECIES
C 12.01 C.pbe-n-rrkjus_psl.1.0.0.UPF
Co 58.93 co_pbe_v1.2.uspp.F.UPF
Mn 54.93 mn_pbe_v1.5.uspp.F.UPF
Sb 121.7 Sb.pbe-n-rrkjus_psl.1.0.0.UPF

CELL_PARAMETERS {angstrom}
6.03986000 0.00000000 0.00000000
-0.00000000 6.03986000 0.00000000
0.00000000 0.00000000 24.52990000

ATOMIC_POSITIONS {angstrom}
Mn 0.00000000 0.00000000 -2.2648456699999997 0 0 0
Mn 3.01993000 3.01993000 -2.2648456699999997 0 0 0
Mn 3.01993000 -0.00000000 0.75503032
Mn 0.00000000 3.01993000 0.75503032
Co 1.50996500 1.50996500 -0.755030320000003 0 0 0
Co 4.52989500 4.52989500 2.26484567
Co 4.52989500 1.50996500 -0.755030320000003 0 0 0
Co 1.50996500 4.52989500 2.26484567
Co 4.52989500 4.52989500 -0.755030320000003 0 0 0
Co 1.50996500 1.50996500 2.26484567
Co 1.50996500 4.52989500 -0.755030320000003 0 0 0
Co 4.52989500 1.50996500 2.26484567
Sb 0.00000000 0.00000000 0.75503032
Sb 3.01993000 0.00000000 -2.2648456699999997 0 0 0
Sb 0.00000000 3.01993000 -2.2648456699999997 0 0 0
Sb 3.01993000 3.01993000 0.75503032
C 0.00000000 3.01993000 3.06501101
