&CONTROL
calculation = 'relax'
prefix = 'scf'
pseudo_dir = '/vol0403/data/hp230205/u10028/POT_HYBRID_KKJUS_GBRV'
outdir = './data'
tprnfor = .true.
nstep = 50
disk_io = 'non'
/
&SYSTEM
ibrav = 0
ecutwfc = 50.0
ecutrho = 400
occupations = 'smearing'
smearing = 'mp'
degauss = 0.01
assume_isolated = 'esm'
esm_bc = 'bc1'
input_dft = 'BEEF-VDW'
nosym = .true.
nspin = 1
ntyp = 6
nat = 34
/
&ELECTRONS
electron_maxstep = 200
mixing_beta = 0.1
conv_thr = 1e-06
/
&IONS
ion_dynamics = 'bfgs'
upscale = 1.0
/
&CELL
/

K_POINTS {automatic}
6 6 1 0 0 0

ATOMIC_SPECIES
C 12.01 C.pbe-n-rrkjus_psl.1.0.0.UPF
Cu 63.54 Cu.pbe-dn-rrkjus_psl.1.0.0.UPF
In 114.8 In.pbe-dn-rrkjus_psl.1.0.0.UPF
O 15.99 O.pbe-n-rrkjus_psl.1.0.0.UPF
Pd 106.4 Pd.pbe-n-rrkjus_psl.1.0.0.UPF
Sc 44.95 Sc.pbe-spn-rrkjus_psl.1.0.0.UPF


CELL_PARAMETERS {angstrom}
6.53831000 0.00000000 0.00000000
0.00000000 9.24656000 0.00000000
0.00000000 0.00000000 26.93490000

ATOMIC_POSITIONS {angstrom}
Sc 4.90373250 0.00000000 -1.1557765599999996 0 0 0
Sc 4.90373250 4.62328000 -1.1557765599999996 0 0 0
Sc 1.63457750 2.31164000 -3.467329679999999 0 0 0
Sc 1.63457750 6.93492000 -3.467329679999999 0 0 0
Sc 4.92785886 4.62328000 3.46436684
Sc 4.92740118 9.24646753 3.47352470
Sc 1.60966654 6.93741657 1.19079193
Sc 1.60973192 2.30905096 1.19052258
In 1.63457750 0.00000000 -1.1557765599999996 0 0 0
In 1.63457750 4.62328000 -1.1557765599999996 0 0 0
In 4.90373250 2.31164000 -3.467329679999999 0 0 0
In 4.90373250 6.93492000 -3.467329679999999 0 0 0
In 1.66491526 4.62318753 3.66422380
In 1.65739620 0.00000000 3.63244061
In 4.90262099 6.93038919 1.15631526
In 4.90255560 2.31617081 1.15631526
Cu 0.00000000 0.00000000 -3.467329679999999 0 0 0
Cu 0.00000000 4.62328000 -3.467329679999999 0 0 0
Cu 3.26915500 6.93492000 -1.1557765599999996 0 0 0
Cu 3.26915500 2.31164000 -1.1557765599999996 0 0 0
Cu 0.00627678 4.62328000 1.20291263
Cu 6.52928713 0.00000000 1.19752565
Cu 3.25215539 2.31367424 3.41130509
Cu 3.25209001 6.93288576 3.41130509
Pd 0.00000000 2.31164000 -1.1557765599999996 0 0 0
Pd 0.00000000 6.93492000 -1.1557765599999996 0 0 0
Pd 3.26915500 4.62328000 -3.467329679999999 0 0 0
Pd 3.26915500 0.00000000 -3.467329679999999 0 0 0
Pd 0.01817650 6.93279329 3.42154035
Pd 0.01804574 2.31367424 3.42154035
Pd 3.27464718 0.00000000 1.21072375
Pd 3.25934753 4.62328000 1.21557204
C 2.42080928 0.00000000 7.47955238
O 1.42737846 0.00009247 8.02956304
