&CONTROL
calculation = 'relax'
prefix = 'scf'
pseudo_dir = '/vol0004/mdt0/data/hp150275/u10028/POT_KKJUS'
outdir = './data'
tprnfor = .true.
nstep = 50
disk_io = 'non'
/
&SYSTEM
ibrav = 0
ecutwfc = 50.0
ecutrho = 400
occupations = 'smearing'
smearing = 'mp'
degauss = 0.01
assume_isolated = 'esm'
esm_bc = 'bc1'
input_dft = 'BEEF-VDW'
nosym = .true.
nspin = 1
ntyp = 4
nat = 17
/
&ELECTRONS
electron_maxstep = 200
mixing_beta = 0.1
conv_thr = 1e-06
/
&IONS
ion_dynamics = 'bfgs'
upscale = 1.0
/
&CELL
/

K_POINTS {automatic}
8 8 1 0 0 0

ATOMIC_SPECIES
C 12.01 C.pbe-n-rrkjus_psl.1.0.0.UPF
Ni 58.69 Ni.pbe-spn-rrkjus_psl.1.0.0.UPF
Sb 121.7 Sb.pbe-n-rrkjus_psl.1.0.0.UPF
Zr 91.22 Zr.pbe-spn-rrkjus_psl.1.0.0.UPF

CELL_PARAMETERS {angstrom}
6.34847000 0.00000000 0.00000000
0.00000000 6.34847000 0.00000000
0.00000000 0.00000000 24.76130000

ATOMIC_POSITIONS {angstrom}
Zr 0.00000000 0.00000000 -2.38055138 0 0 0
Zr 3.17423500 3.17423500 -2.38055138 0 0 0
Zr 3.17404455 0.00000000 0.88249273
Zr 6.34840652 3.17404455 0.88249273
Ni 1.58711750 1.58711750 -0.793599669999999 0 0 0
Ni 5.06074635 5.06087331 2.40902688
Ni 4.76135250 1.58711750 -0.793599669999999 0 0 0
Ni 1.28645396 5.06087331 2.41001733
Ni 4.76135250 4.76135250 -0.793599669999999 0 0 0
Ni 1.28651745 1.28645396 2.40704597
Ni 1.58711750 4.76135250 -0.793599669999999 0 0 0
Ni 5.06087331 1.28670790 2.41001733
Sb 6.34821606 6.34821606 0.50711142
Sb 3.17423500 0.00000000 -2.38055138 0 0 0
Sb 0.00000000 3.17423500 -2.38055138 0 0 0
Sb 3.17404455 3.17442545 1.43714585
C 6.34764470 6.34758121 3.03771628
