&CONTROL
calculation = 'relax'
prefix = 'scf'
pseudo_dir = '/vol0403/data/hp230205/u10028/POT_HYBRID_KKJUS_GBRV'
outdir = './data'
tprnfor = .true.
nstep = 50
disk_io = 'non'
/
&SYSTEM
ibrav = 0
ecutwfc = 50.0
ecutrho = 400
occupations = 'smearing'
smearing = 'mp'
degauss = 0.01
assume_isolated = 'esm'
esm_bc = 'bc1'
input_dft = 'BEEF-VDW'
nosym = .true.
nspin = 1
ntyp = 5
nat = 17
/
&ELECTRONS
electron_maxstep = 200
mixing_beta = 0.1
conv_thr = 1e-06
/
&IONS
ion_dynamics = 'bfgs'
upscale = 1.0
/
&CELL
/

K_POINTS {automatic}
8 8 1 0 0 0

ATOMIC_SPECIES
C 12.01 C.pbe-n-rrkjus_psl.1.0.0.UPF
Ga 69.72 Ga.pbe-dnl-rrkjus_psl.1.0.0.UPF
Li 6.941 Li.pbe-sl-rrkjus_psl.1.0.0.UPF
Mg 24.30 Mg.pbe-spnl-rrkjus_psl.1.0.0.UPF
Pd 106.4 Pd.pbe-n-rrkjus_psl.1.0.0.UPF


CELL_PARAMETERS {angstrom}
6.27706000 0.00000000 0.00000000
0.00000000 6.27706000 0.00000000
0.00000000 0.00000000 24.70780000

ATOMIC_POSITIONS {angstrom}
Li 1.56926500 1.56926500 -0.7847197299999991 0 0 0
Li 1.54622819 4.67094866 3.05215453
Li 4.73083181 1.60611134 3.05215453
Li 4.70779500 4.70779500 -0.7847197299999991 0 0 0
Mg 0.00000000 3.13853000 -2.3539121099999996 0 0 0
Mg 0.00000000 0.00000000 0.90776457
Mg 3.13853000 3.13853000 0.90035223
Mg 3.13853000 0.00000000 -2.3539121099999996 0 0 0
Ga 0.00000000 0.00000000 -2.3539121099999996 0 0 0
Ga 0.00000000 3.13853000 0.66809891
Ga 3.13853000 0.00000000 1.17535005
Ga 3.13853000 3.13853000 -2.3539121099999996 0 0 0
Pd 4.70779500 1.56926500 -0.7847197299999991 0 0 0
Pd 4.84589032 4.56681223 2.34921762
Pd 1.43116968 1.71024777 2.34921762
Pd 1.56926500 4.70779500 -0.7847197299999991 0 0 0
C 0.00000000 3.13853000 2.75862587
