&CONTROL
calculation = 'relax'
prefix = 'scf'
pseudo_dir = '/vol0004/mdt0/data/hp150275/u10028/POT_KKJUS'
outdir = './data'
tprnfor = .true.
nstep = 50
disk_io = 'non'
/
&SYSTEM
ibrav = 0
ecutwfc = 50.0
ecutrho = 400
occupations = 'smearing'
smearing = 'mp'
degauss = 0.01
assume_isolated = 'esm'
esm_bc = 'bc1'
input_dft = 'BEEF-VDW'
nosym = .true.
nspin = 1
ntyp = 4
nat = 18
/
&ELECTRONS
electron_maxstep = 200
mixing_beta = 0.1
conv_thr = 1e-06
/
&IONS
ion_dynamics = 'bfgs'
upscale = 1.0
/
&CELL
/

K_POINTS {automatic}
7 10 3 0  0  0

ATOMIC_SPECIES
C 12.01 C.pbe-n-rrkjus_psl.1.0.0.UPF
O 15.99 O.pbe-n-rrkjus_psl.1.0.0.UPF
Pb 207.2 Pb.pbe-dn-rrkjus_psl.1.0.0.UPF
Y 88.90 Y.pbe-spn-rrkjus_psl.1.0.0.UPF

CELL_PARAMETERS {angstrom}
9.91485000 0.00000000 0.00000000
0.00000000 7.01086000 0.00000000
0.00000000 0.00000000 25.25810000

ATOMIC_POSITIONS {angstrom}
Y 0.00000000 0.00000000 2.31768326
Y 0.00000000 3.50543000 -0.8764560699999997 0 0 0
Y 4.95742500 0.00000000 2.25125445
Y 4.95742500 3.50543000 -0.8764560699999997 0 0 0
Pb 0.00000000 3.50543000 2.84709303
Pb 2.46483171 5.17667881 0.96991104
Pb 2.46483171 1.83411108 0.96991104
Pb 0.00000000 0.00000000 -0.8764560699999997 0 0 0
Pb 2.47871250 1.75271500 -2.6291156299999976 0 0 0
Pb 2.47871250 5.25814500 -2.6291156299999976 0 0 0
Pb 4.95742500 3.50543000 2.71448801
Pb 7.45001829 5.17674892 0.96991104
Pb 7.45001829 1.83418119 0.96991104
Pb 4.95742500 0.00000000 -0.8764560699999997 0 0 0
Pb 7.43613750 1.75271500 -2.6291156299999976 0 0 0
Pb 7.43613750 5.25814500 -2.6291156299999976 0 0 0
C 0.00000000 0.00000000 4.75988895
O 0.00000000 0.00000000 5.91367895
