&CONTROL
calculation = 'relax'
prefix = 'scf'
pseudo_dir = '/vol0403/data/hp230205/u10028/POT_HYBRID_KKJUS_GBRV'
outdir = './data'
tprnfor = .true.
nstep = 70
disk_io = 'non'
/
&SYSTEM
ibrav = 0
ecutwfc = 50.0
ecutrho = 400
occupations = 'smearing'
smearing = 'mp'
degauss = 0.01
assume_isolated = 'esm'
esm_bc = 'bc1'
input_dft = 'BEEF-VDW'
nosym = .true.
nspin = 1
ntyp = 6
nat = 34
/
&ELECTRONS
electron_maxstep = 200
mixing_beta = 0.1
conv_thr = 1e-06
/
&IONS
ion_dynamics = 'bfgs'
upscale = 1.0
/
&CELL
/

K_POINTS {automatic}
6 6 1 0 0 0

ATOMIC_SPECIES
Ag 107.8 Ag.pbe-n-rrkjus_psl.1.0.0.UPF
C 12.01 C.pbe-n-rrkjus_psl.1.0.0.UPF
Cu 63.54 Cu.pbe-dn-rrkjus_psl.1.0.0.UPF
Li 6.941 Li.pbe-sl-rrkjus_psl.1.0.0.UPF
O 15.99 O.pbe-n-rrkjus_psl.1.0.0.UPF
Sn 118.7 Sn.pbe-dn-rrkjus_psl.1.0.0.UPF


CELL_PARAMETERS {angstrom}
6.43603000 0.00000000 0.00000000
-0.00000000 9.10192000 0.00000000
0.00000000 0.00000000 26.82640000

ATOMIC_POSITIONS {angstrom}
Li 1.60900750 0.00000000 -1.1377076200000005 0 0 0
Li 1.60900750 4.55096000 -1.1377076200000005 0 0 0
Li 4.82702250 2.27548000 -3.4131228699999987 0 0 0
Li 4.82702250 6.82644000 -3.4131228699999987 0 0 0
Li 1.59040737 4.55096000 3.77098705
Li 1.56768819 -0.00000000 3.90887474
Li 4.85476179 6.83171911 1.17258194
Li 4.85476179 2.27029191 1.17258194
Cu 4.82702250 0.00000000 -1.1377076200000005 0 0 0
Cu 4.82702250 4.55096000 -1.1377076200000005 0 0 0
Cu 1.60900750 2.27548000 -3.4131228699999987 0 0 0
Cu 1.60900750 6.82644000 -3.4131228699999987 0 0 0
Cu 4.89453645 4.55096000 3.34310597
Cu 4.93276647 -0.00000000 3.34820298
Cu 1.53827553 6.81706502 1.19216522
Cu 1.53827553 2.28494600 1.19189695
Ag 0.00000000 0.00000000 -3.4131228699999987 0 0 0
Ag 0.00000000 4.55096000 -3.4131228699999987 0 0 0
Ag 3.21801500 6.82644000 -1.1377076200000005 0 0 0
Ag 3.21801500 2.27548000 -1.1377076200000005 0 0 0
Ag 0.02806109 4.55096000 1.16560708
Ag 0.04370064 0.00000000 1.16775319
Ag 3.26480494 2.28130523 3.39461266
Ag 3.26486930 6.82061477 3.39461266
Sn 0.00000000 2.27548000 -1.1377076200000005 0 0 0
Sn 0.00000000 6.82644000 -1.1377076200000005 0 0 0
Sn 3.21801500 4.55096000 -3.4131228699999987 0 0 0
Sn 3.21801500 0.00000000 -3.4131228699999987 0 0 0
Sn 6.34219268 6.81342425 3.64731734
Sn 6.34238576 2.28849575 3.64731734
Sn 3.13531201 -0.00000000 1.30215346
Sn 3.16330874 4.55105102 1.24045274
C 1.73940147 -0.00000000 6.01018666
O 1.77956230 9.10182898 7.14843081
