&CONTROL
calculation = 'relax'
prefix = 'scf'
pseudo_dir = '/vol0403/data/hp230205/u10028/POT_HYBRID_KKJUS_GBRV'
outdir = './data'
tprnfor = .true.
nstep = 50
disk_io = 'non'
/
&SYSTEM
ibrav = 0
ecutwfc = 50.0
ecutrho = 400
occupations = 'smearing'
smearing = 'mp'
degauss = 0.01
assume_isolated = 'esm'
esm_bc = 'bc1'
input_dft = 'BEEF-VDW'
nosym = .true.
nspin = 1
ntyp = 5
nat = 33
/
&ELECTRONS
electron_maxstep = 200
mixing_beta = 0.1
conv_thr = 1e-06
/
&IONS
ion_dynamics = 'bfgs'
upscale = 1.0
/
&CELL
/

K_POINTS {automatic}
6 6 1 0 0 0

ATOMIC_SPECIES
C 12.01 C.pbe-n-rrkjus_psl.1.0.0.UPF
Ge 72.64 Ge.pbe-dn-rrkjus_psl.1.0.0.UPF
Li 6.941 Li.pbe-sl-rrkjus_psl.1.0.0.UPF
Pb 207.2 Pb.pbe-dn-rrkjus_psl.1.0.0.UPF
Pd 106.4 Pd.pbe-n-rrkjus_psl.1.0.0.UPF


CELL_PARAMETERS {angstrom}
6.74945000 0.00000000 0.00000000
0.00000000 9.54516000 0.00000000
0.00000000 0.00000000 27.15890000

ATOMIC_POSITIONS {angstrom}
Li 1.68736250 0.00000000 -1.1930904799999986 0 0 0
Li 1.68736250 4.77258000 -1.1930904799999986 0 0 0
Li 5.06208750 2.38629000 -3.579543019999999 0 0 0
Li 5.06208750 7.15887000 -3.579543019999999 0 0 0
Li 1.37020584 4.91451653 3.68519114
Li 1.37047582 9.40341437 3.68519114
Li 5.20274604 7.15877455 1.35821659
Li 5.28468436 2.38629000 1.42855814
Ge 0.00000000 0.00000000 -3.579543019999999 0 0 0
Ge 0.00000000 4.77258000 -3.579543019999999 0 0 0
Ge 3.37472500 7.15887000 -1.1930904799999986 0 0 0
Ge 3.37472500 2.38629000 -1.1930904799999986 0 0 0
Ge 0.08416564 4.80236090 1.11324331
Ge 0.08443562 9.51528365 1.11297172
Ge 2.88181267 2.38762632 3.42147822
Ge 3.13039491 7.15839274 3.45569844
Pd 5.06208750 0.00000000 -1.1930904799999986 0 0 0
Pd 5.06208750 4.77258000 -1.1930904799999986 0 0 0
Pd 1.68736250 2.38629000 -3.579543019999999 0 0 0
Pd 1.68736250 7.15887000 -3.579543019999999 0 0 0
Pd 5.51396318 4.37559680 3.24304425
Pd 5.51450313 0.39726956 3.24304425
Pd 1.14281687 7.15877455 1.73002193
Pd 1.82653616 2.38571729 1.01411333
Pb 0.00000000 2.38629000 -1.1930904799999986 0 0 0
Pb 0.00000000 7.15887000 -1.1930904799999986 0 0 0
Pb 3.37472500 4.77258000 -3.579543019999999 0 0 0
Pb 3.37472500 0.00000000 -3.579543019999999 0 0 0
Pb 6.03002612 7.15896545 4.19605005
Pb 6.66454192 2.38657635 5.07518364
Pb 3.29467652 9.37783335 1.30742945
Pb 3.29420406 4.93962030 1.30688627
C 4.80743075 2.38619455 3.57465442
