&CONTROL
calculation = 'relax'
prefix = 'scf'
pseudo_dir = '/vol0403/data/hp230205/u10028/POT_HYBRID_KKJUS_GBRV'
outdir = './data'
tprnfor = .true.
nstep = 70
disk_io = 'non'
/
&SYSTEM
ibrav = 0
ecutwfc = 50.0
ecutrho = 400
occupations = 'smearing'
smearing = 'mp'
degauss = 0.01
assume_isolated = 'esm'
esm_bc = 'bc1'
input_dft = 'BEEF-VDW'
nosym = .true.
nspin = 1
ntyp = 6
nat = 18
/
&ELECTRONS
electron_maxstep = 200
mixing_beta = 0.1
conv_thr = 1e-06
/
&IONS
ion_dynamics = 'bfgs'
upscale = 1.0
/
&CELL
/

K_POINTS {automatic}
6 6 1 0 0 0

ATOMIC_SPECIES
C 12.01 C.pbe-n-rrkjus_psl.1.0.0.UPF
Cu 63.54 Cu.pbe-dn-rrkjus_psl.1.0.0.UPF
Li 6.941 Li.pbe-sl-rrkjus_psl.1.0.0.UPF
Mg 24.30 Mg.pbe-spnl-rrkjus_psl.1.0.0.UPF
O 15.99 O.pbe-n-rrkjus_psl.1.0.0.UPF
Pd 106.4 Pd.pbe-n-rrkjus_psl.1.0.0.UPF


CELL_PARAMETERS {angstrom}
5.46655000 0.00000000 0.00000000
-0.00000000 7.95764000 0.00000000
0.00000000 0.00000000 24.09630000

ATOMIC_POSITIONS {angstrom}
Li 2.73327500 0.00000000 -2.048185499999999 0 0 0
Li 5.30796538 7.94817041 0.66240729
Li 2.73327500 3.97882000 -2.048185499999999 0 0 0
Li 5.30796538 3.98828959 0.66240729
Mg 1.30956672 1.98941000 -0.682648180000001 0 0 0
Mg 3.83768210 1.98941000 2.13637796
Mg 1.30956672 5.96823000 -0.682648180000001 0 0 0
Mg 3.82292241 5.96823000 2.14143818
Cu 0.00000000 0.00000000 -2.048185499999999 0 0 0
Cu 2.60765368 7.95405906 0.71710589
Cu 0.00000000 3.97882000 -2.048185499999999 0 0 0
Cu 2.60770835 3.98240094 0.71686492
Pd 4.04284172 1.98941000 -0.682648180000001 0 0 0
Pd 1.12572664 1.98941000 1.86770421
Pd 4.04284172 5.96823000 -0.682648180000001 0 0 0
Pd 1.11102162 5.96823000 1.89324629
C 3.92350693 1.98941000 4.43492401
O 3.96805931 1.98941000 5.57588382
