&CONTROL
calculation = 'relax'
prefix = 'scf'
pseudo_dir = '/vol0004/mdt0/data/hp150275/u10028/POT_KKJUS'
outdir = './data'
tprnfor = .true.
nstep = 50
disk_io = 'non'
/
&SYSTEM
ibrav = 0
ecutwfc = 50.0
ecutrho = 400
occupations = 'smearing'
smearing = 'mp'
degauss = 0.01
assume_isolated = 'esm'
esm_bc = 'bc1'
input_dft = 'BEEF-VDW'
nosym = .true.
nspin = 1
ntyp = 4
nat = 34
/
&ELECTRONS
electron_maxstep = 200
mixing_beta = 0.1
conv_thr = 1e-06
/
&IONS
ion_dynamics = 'bfgs'
upscale = 1.0
/
&CELL
/

K_POINTS {automatic}
9 6 2 0  0  0

ATOMIC_SPECIES
C 12.01 C.pbe-n-rrkjus_psl.1.0.0.UPF
In 114.8 In.pbe-dn-rrkjus_psl.1.0.0.UPF
O 15.99 O.pbe-n-rrkjus_psl.1.0.0.UPF
Rh 102.9 Rh.pbe-spn-rrkjus_psl.1.0.0.UPF

CELL_PARAMETERS {angstrom}
6.51708000 0.00000000 0.00000000
0.00000000 9.21654000 0.00000000
0.00000000 0.00000000 26.91240000

ATOMIC_POSITIONS {angstrom}
In 0.00000000 0.00000000 -3.4560904100000016 0 0 0
In 0.00000000 2.30413500 -1.152119840000001 0 0 0
In 6.51571141 0.00000000 1.15319634
In 6.50665267 2.35648495 3.61648831
In 0.00000000 4.60827000 -3.4560904100000016 0 0 0
In 0.00000000 6.91240500 -1.152119840000001 0 0 0
In 0.00384508 4.60827000 1.11794110
In 6.50665267 6.86005505 3.61648831
In 3.25854000 0.00000000 -3.4560904100000016 0 0 0
In 3.25854000 2.30413500 -1.152119840000001 0 0 0
In 3.25990859 0.00000000 1.15319634
In 3.26896733 2.35648495 3.61648831
In 3.25854000 4.60827000 -3.4560904100000016 0 0 0
In 3.25854000 6.91240500 -1.152119840000001 0 0 0
In 3.25469492 4.60827000 1.11794110
In 3.26896733 6.86005505 3.61648831
Rh 1.62927000 2.30413500 -3.4560904100000016 0 0 0
Rh 1.62927000 0.00000000 -1.152119840000001 0 0 0
Rh 1.62927000 2.25713065 1.13570328
Rh 1.62927000 0.00000000 3.55351330
Rh 1.62927000 6.91240500 -3.4560904100000016 0 0 0
Rh 1.62927000 4.60827000 -1.152119840000001 0 0 0
Rh 1.62927000 6.95940935 1.13570328
Rh 1.62927000 4.60827000 3.27739207
Rh 4.88781000 2.30413500 -3.4560904100000016 0 0 0
Rh 4.88781000 0.00000000 -1.152119840000001 0 0 0
Rh 4.88781000 2.30017189 1.11336599
Rh 4.88781000 0.00000000 3.30887958
Rh 4.88781000 6.91240500 -3.4560904100000016 0 0 0
Rh 4.88781000 4.60827000 -1.152119840000001 0 0 0
Rh 4.88781000 6.91636811 1.11336599
Rh 4.88781000 4.60827000 3.29031002
C 1.62927000 0.00000000 5.41504400
O 1.62927000 0.00000000 6.57362282
