&CONTROL
calculation = 'relax'
prefix = 'scf'
pseudo_dir = '/vol0004/mdt0/data/hp150275/u10028/POT_HYBRID_KKJUS_GBRV'
outdir = './data'
tprnfor = .true.
nstep = 50
disk_io = 'non'
/
&SYSTEM
ibrav = 0
ecutwfc = 50.0
ecutrho = 400
occupations = 'smearing'
smearing = 'mp'
degauss = 0.01
assume_isolated = 'esm'
esm_bc = 'bc1'
input_dft = 'BEEF-VDW'
nosym = .true.
nspin = 2
ntyp = 5
nat = 34
starting_magnetization(1) = 0.0
starting_magnetization(2) = 0.0
starting_magnetization(3) = 0.1
starting_magnetization(4) = 0.0
starting_magnetization(5) = 0.0
/
&ELECTRONS
electron_maxstep = 200
mixing_beta = 0.1
conv_thr = 1e-06
/
&IONS
ion_dynamics = 'bfgs'
upscale = 1.0
/
&CELL
/

K_POINTS {automatic}
9 6 2 0  0  0

ATOMIC_SPECIES
Al 26.98 Al.pbe-nl-rrkjus_psl.1.0.0.UPF
C 12.01 C.pbe-n-rrkjus_psl.1.0.0.UPF
Co 58.93 co_pbe_v1.2.uspp.F.UPF
O 15.99 O.pbe-n-rrkjus_psl.1.0.0.UPF
V 50.94 V.pbe-spnl-rrkjus_psl.1.0.0.UPF

CELL_PARAMETERS {angstrom}
5.76795000 0.00000000 0.00000000
0.00000000 8.15711000 0.00000000
0.00000000 0.00000000 26.11780000

ATOMIC_POSITIONS {angstrom}
Al 0.00000000 0.00000000 23.05888326
Al 2.88397500 2.03927750 25.09816109
Al 2.88397500 6.11783250 25.09816109
Al 0.00000000 4.07855500 23.05888326
Al 0.00000000 4.07578158 0.97158216
Al 2.88397500 6.11775093 3.19107280
Al 2.88397500 2.03927750 3.29449929
Al 0.00000000 0.00277342 0.97158216
V 0.00000000 6.11783250 25.09816109
V 2.88397500 0.00000000 23.05888326
V 0.00000000 2.03927750 25.09816109
V 2.88397500 4.07855500 23.05888326
V 0.00000000 2.03927750 2.99440577
V 2.88397500 4.07537373 1.09564171
V 0.00000000 6.11783250 3.01190470
V 2.88397500 0.00318127 1.09564171
Co 1.44198750 0.00000000 25.09816109
Co 4.32596250 4.07855500 25.09816109
Co 4.32596250 0.00000000 25.09816109
Co 1.44198750 4.07855500 25.09816109
Co 4.32596250 6.11783250 23.05888326
Co 1.44198750 2.03927750 23.05888326
Co 1.44198750 6.11783250 23.05888326
Co 4.32596250 2.03927750 23.05888326
Co 1.42035769 4.07945228 2.89463577
Co 4.34759231 8.15621272 2.89463577
Co 4.34759231 4.07945228 2.89463577
Co 1.42035769 8.15621272 2.89463577
Co 4.30906241 2.03927750 1.02277305
Co 1.44089159 6.11783250 1.00736355
Co 1.45888759 2.03927750 1.02277305
Co 4.32705841 6.11783250 1.00736355
C 2.88397500 2.03927750 5.36041727
O 2.88397500 2.03927750 6.50751105
