&CONTROL
calculation = 'relax'
prefix = 'scf'
pseudo_dir = '/vol0004/mdt0/data/hp150275/u10028/POT_KKJUS'
outdir = './data'
tprnfor = .true.
nstep = 50
disk_io = 'non'
/
&SYSTEM
ibrav = 0
ecutwfc = 50.0
ecutrho = 400
occupations = 'smearing'
smearing = 'mp'
degauss = 0.01
assume_isolated = 'esm'
esm_bc = 'bc1'
input_dft = 'BEEF-VDW'
nosym = .true.
nspin = 1
ntyp = 4
nat = 18
/
&ELECTRONS
electron_maxstep = 200
mixing_beta = 0.1
conv_thr = 1e-06
/
&IONS
ion_dynamics = 'bfgs'
upscale = 1.0
/
&CELL
/

K_POINTS {automatic}
9 9 2 0  0  0

ATOMIC_SPECIES
C 12.01 C.pbe-n-rrkjus_psl.1.0.0.UPF
Ca 40.07 Ca.pbe-spn-rrkjus_psl.1.0.0.UPF
In 114.8 In.pbe-dn-rrkjus_psl.1.0.0.UPF
O 15.99 O.pbe-n-rrkjus_psl.1.0.0.UPF

CELL_PARAMETERS {angstrom}
7.80577000 0.00000000 0.00000000
0.00000000 7.80577000 0.00000000
0.00000000 0.00000000 25.85430000

ATOMIC_POSITIONS {angstrom}
Ca 0.00000000 0.00000000 -3.398030649999999 0 0 0
Ca 0.00234173 0.00265396 0.54630136
Ca 0.00000000 3.90288500 -3.398030649999999 0 0 0
Ca 0.00226367 3.90030910 0.54785262
Ca 3.90288500 0.00000000 -3.398030649999999 0 0 0
Ca 3.90054327 0.00241979 0.54785262
Ca 3.90288500 3.90288500 -3.398030649999999 0 0 0
Ca 3.90116773 3.90069938 0.54992096
In 1.95144250 1.95144250 -1.4465480899999967 0 0 0
In 1.95191085 1.95159862 2.46184645
In 1.95144250 5.85432750 -1.4465480899999967 0 0 0
In 1.94964717 5.85432750 2.51148670
In 5.85432750 1.95144250 -1.4465480899999967 0 0 0
In 5.85440556 1.95027163 2.51252087
In 5.85432750 5.85432750 -1.4465480899999967 0 0 0
In 5.85705952 5.85588865 2.46469042
C 1.94972523 1.95214502 5.26160859
O 1.95167667 1.95081804 6.39971488
