&CONTROL
calculation = 'relax'
prefix = 'scf'
pseudo_dir = '/vol0004/mdt0/data/hp150275/u10028/POT_KKJUS'
outdir = './data'
tprnfor = .true.
nstep = 50
disk_io = 'non'
/
&SYSTEM
ibrav = 0
ecutwfc = 50.0
ecutrho = 400
occupations = 'smearing'
smearing = 'mp'
degauss = 0.01
assume_isolated = 'esm'
esm_bc = 'bc1'
input_dft = 'BEEF-VDW'
nosym = .true.
nspin = 1
ntyp = 5
nat = 34
/
&ELECTRONS
electron_maxstep = 200
mixing_beta = 0.1
conv_thr = 1e-06
/
&IONS
ion_dynamics = 'bfgs'
upscale = 1.0
/
&CELL
/

K_POINTS {automatic}
8 6 1 0 0 0

ATOMIC_SPECIES
C 12.01 C.pbe-n-rrkjus_psl.1.0.0.UPF
In 114.8 In.pbe-dn-rrkjus_psl.1.0.0.UPF
Ir 192.2 Ir.pbe-n-rrkjus_psl.0.2.3.UPF
Li 6.941 Li.pbe-sl-rrkjus_psl.1.0.0.UPF
O 15.99 O.pbe-n-rrkjus_psl.1.0.0.UPF

CELL_PARAMETERS {angstrom}
6.34973000 0.00000000 0.00000000
0.00000000 8.97987000 0.00000000
0.00000000 0.00000000 26.73490000

ATOMIC_POSITIONS {angstrom}
Li 0.00000000 6.73490250 -1.1225984499999981 0 0 0
Li 3.17486500 0.00000000 -3.367528 0 0 0
Li 0.00000000 2.24496750 -1.1225984499999981 0 0 0
Li 3.17486500 4.48993500 -3.367528 0 0 0
Li 1.58743250 0.00000000 -1.1225984499999981 0 0 0
Li 1.58743250 4.48993500 -1.1225984499999981 0 0 0
Li 4.76229750 6.73490250 -3.367528 0 0 0
Li 4.76229750 2.24496750 -3.367528 0 0 0
Li 6.31099665 2.24712267 3.29480908
Li 3.16902325 4.49002480 1.14238228
Li 6.31093315 6.73274733 3.29480908
Li 3.11301863 0.00000000 1.12420254
Li 1.67359834 4.48993500 3.51430261
Li 1.68458337 0.00000000 3.57525818
Li 4.69606982 2.24002857 1.10789426
Li 4.69613331 6.73984143 1.10789426
In 1.58743250 2.24496750 -3.367528 0 0 0
In 1.58743250 6.73490250 -3.367528 0 0 0
In 4.76229750 4.48993500 -1.1225984499999981 0 0 0
In 4.76229750 0.00000000 -1.1225984499999981 0 0 0
In 1.54069849 6.72089390 1.06912865
In 1.54069849 2.25897610 1.06886130
In 4.63962072 0.00008980 3.43730609
In 4.64108115 4.48993500 3.50788623
Ir 0.00000000 0.00000000 -3.367528 0 0 0
Ir 3.17486500 2.24496750 -1.1225984499999981 0 0 0
Ir 3.17486500 6.73490250 -1.1225984499999981 0 0 0
Ir 0.00000000 4.48993500 -3.367528 0 0 0
Ir 6.28883609 4.48993500 1.26563017
Ir 3.16673735 6.73310653 3.19455320
Ir 3.16667385 2.24676347 3.19482055
Ir 6.32312463 0.00000000 1.24985657
C 5.48203940 0.00000000 6.89680215
O 4.55662975 0.00008980 7.55581744
