&CONTROL
calculation = 'relax'
prefix = 'scf'
pseudo_dir = '/vol0004/mdt0/data/hp150275/u10028/POT_HYBRID_KKJUS_GBRV'
outdir = './data'
tprnfor = .true.
nstep = 50
disk_io = 'non'
/
&SYSTEM
ibrav = 0
ecutwfc = 50.0
ecutrho = 400
occupations = 'smearing'
smearing = 'mp'
degauss = 0.01
assume_isolated = 'esm'
esm_bc = 'bc1'
input_dft = 'BEEF-VDW'
nosym = .true.
nspin = 2
ntyp = 5
nat = 34
starting_magnetization(1) = 0.0
starting_magnetization(2) = 0.001
starting_magnetization(3) = 0.0
starting_magnetization(4) = 0.0
starting_magnetization(5) = 0.0
/
&ELECTRONS
electron_maxstep = 300
mixing_beta = 0.1
conv_thr = 1e-06
/
&IONS
ion_dynamics = 'bfgs'
upscale = 1.0
/
&CELL
/

K_POINTS {automatic}
9 6 2 0  0  0

ATOMIC_SPECIES
C 12.01 C.pbe-n-rrkjus_psl.1.0.0.UPF
Ni 58.69 ni_pbe_v1.4.uspp.F.UPF
O 15.99 O.pbe-n-rrkjus_psl.1.0.0.UPF
Sn 118.7 Sn.pbe-dn-rrkjus_psl.1.0.0.UPF
Ti 47.86 Ti.pbe-spn-rrkjus_psl.1.0.0.UPF

CELL_PARAMETERS {angstrom}
6.14873000 0.00000000 0.00000000
0.00000000 8.69561000 0.00000000
0.00000000 0.00000000 26.52170000

ATOMIC_POSITIONS {angstrom}
Ti 0.00000000 0.00000000 -3.2608430099999985 0 0 0
Ti 3.07436500 2.17390250 -1.086859269999998 0 0 0
Ti 3.07436500 6.52170750 -1.086859269999998 0 0 0
Ti 0.00000000 4.34780500 -3.2608430099999985 0 0 0
Ti 0.00000000 4.33006596 1.12690703
Ti 3.07436500 6.52144663 3.20435179
Ti 3.07442649 2.17425032 3.19904745
Ti 0.00000000 0.01739122 1.12717225
Ni 1.53718250 0.00000000 -1.086859269999998 0 0 0
Ni 4.61154750 4.34780500 -1.086859269999998 0 0 0
Ni 4.61154750 0.00000000 -1.086859269999998 0 0 0
Ni 1.53718250 4.34780500 -1.086859269999998 0 0 0
Ni 4.61154750 6.52170750 -3.2608430099999985 0 0 0
Ni 1.53718250 2.17390250 -3.2608430099999985 0 0 0
Ni 1.53718250 6.52170750 -3.2608430099999985 0 0 0
Ni 4.61154750 2.17390250 -3.2608430099999985 0 0 0
Ni 1.60420366 4.34797891 3.13221277
Ni 4.54305065 8.69526218 3.13168234
Ni 4.54458783 4.34797891 3.13221277
Ni 1.60574084 8.69517522 3.13168234
Ni 4.59832773 2.17364163 1.15183743
Ni 1.39859013 6.52214228 1.23485035
Ni 1.55040227 2.17364163 1.15183743
Ni 4.75013987 6.52214228 1.23485035
Sn 0.00000000 6.52170750 -1.086859269999998 0 0 0
Sn 3.07436500 0.00000000 -3.2608430099999985 0 0 0
Sn 0.00000000 2.17390250 -1.086859269999998 0 0 0
Sn 3.07436500 4.34780500 -3.2608430099999985 0 0 0
Sn 0.00000000 2.17294598 3.47009923
Sn 3.07436500 4.39545694 1.02347240
Sn 6.14866851 6.52214228 3.61543814
Sn 3.07436500 8.64787110 1.02267675
C 0.00012297 2.18016334 7.34147178
O 6.14866851 2.17311990 8.47713097
