&CONTROL
calculation = 'relax'
prefix = 'scf'
pseudo_dir = '/vol0403/data/hp230205/u10028/POT_HYBRID_KKJUS_GBRV'
outdir = './data'
tprnfor = .true.
nstep = 50
disk_io = 'non'
/
&SYSTEM
ibrav = 0
ecutwfc = 50.0
ecutrho = 400
occupations = 'smearing'
smearing = 'mp'
degauss = 0.01
assume_isolated = 'esm'
esm_bc = 'bc1'
input_dft = 'BEEF-VDW'
nosym = .true.
nspin = 1
ntyp = 6
nat = 34
/
&ELECTRONS
electron_maxstep = 200
mixing_beta = 0.1
conv_thr = 1e-06
/
&IONS
ion_dynamics = 'bfgs'
upscale = 1.0
/
&CELL
/

K_POINTS {automatic}
6 6 1 0 0 0

ATOMIC_SPECIES
C 12.01 C.pbe-n-rrkjus_psl.1.0.0.UPF
Ga 69.72 Ga.pbe-dnl-rrkjus_psl.1.0.0.UPF
Ge 72.64 Ge.pbe-dn-rrkjus_psl.1.0.0.UPF
O 15.99 O.pbe-n-rrkjus_psl.1.0.0.UPF
Pd 106.4 Pd.pbe-n-rrkjus_psl.1.0.0.UPF
Sc 44.95 Sc.pbe-spn-rrkjus_psl.1.0.0.UPF


CELL_PARAMETERS {angstrom}
8.08666000 0.00000000 0.00000000
0.00000000 8.58414000 0.00000000
0.00000000 0.00000000 25.87790000

ATOMIC_POSITIONS {angstrom}
Sc 1.99675809 2.15178637 3.01813948
Sc 2.02166500 2.14603500 -0.9797372899999992 0 0 0
Sc 1.99683895 6.43243947 3.01839826
Sc 2.02166500 6.43810500 -0.9797372899999992 0 0 0
Sc 6.08982105 2.15178637 3.01788070
Sc 6.06499500 2.14603500 -0.9797372899999992 0 0 0
Sc 6.08982105 6.43243947 3.01839826
Sc 6.06499500 6.43810500 -0.9797372899999992 0 0 0
Ga 0.00000000 0.00034337 2.66490614
Ga 0.00000000 0.00000000 -0.9797372899999992 0 0 0
Ga 0.00000000 4.29207000 3.07196551
Ga 0.00000000 4.29207000 -0.9797372899999992 0 0 0
Ga 4.04333000 0.00017168 3.01192878
Ga 4.04333000 0.00000000 -0.9797372899999992 0 0 0
Ga 4.04333000 4.29207000 3.06808382
Ga 4.04333000 4.29207000 -0.9797372899999992 0 0 0
Ge 0.00000000 2.34209676 1.04417326
Ge 0.00000000 2.14603500 -2.938953099999999 0 0 0
Ge 0.00000000 6.24230077 1.04443204
Ge 0.00000000 6.43810500 -2.938953099999999 0 0 0
Ge 4.04324913 2.16577852 1.10006953
Ge 4.04333000 2.14603500 -2.938953099999999 0 0 0
Ge 4.04333000 6.41827564 1.10006953
Ge 4.04333000 6.43810500 -2.938953099999999 0 0 0
Pd 2.08983554 8.58396832 1.06565192
Pd 2.02166500 0.00000000 -2.938953099999999 0 0 0
Pd 2.06363477 4.29215584 1.10550389
Pd 2.02166500 4.29207000 -2.938953099999999 0 0 0
Pd 5.99666272 8.58405416 1.06539314
Pd 6.06499500 0.00000000 -2.938953099999999 0 0 0
Pd 6.02302523 4.29215584 1.10550389
Pd 6.06499500 4.29207000 -2.938953099999999 0 0 0
C 0.00064693 8.58233733 4.67328996
O 0.00000000 0.00000000 5.85202831
