&CONTROL
calculation = 'relax'
prefix = 'scf'
pseudo_dir = '/vol0004/mdt0/data/hp150275/u10028/POT_KKJUS'
outdir = './data'
tprnfor = .true.
nstep = 50
disk_io = 'non'
/
&SYSTEM
ibrav = 0
ecutwfc = 50.0
ecutrho = 400
occupations = 'smearing'
smearing = 'mp'
degauss = 0.01
assume_isolated = 'esm'
esm_bc = 'bc1'
input_dft = 'BEEF-VDW'
nosym = .true.
nspin = 1
ntyp = 4
nat = 34
/
&ELECTRONS
electron_maxstep = 200
mixing_beta = 0.1
conv_thr = 1e-06
/
&IONS
ion_dynamics = 'bfgs'
upscale = 1.0
/
&CELL
/

K_POINTS {automatic}
8 6 1 0 0 0

ATOMIC_SPECIES
C 12.01 C.pbe-n-rrkjus_psl.1.0.0.UPF
Ni 58.69 Ni.pbe-spn-rrkjus_psl.1.0.0.UPF
O 15.99 O.pbe-n-rrkjus_psl.1.0.0.UPF
Sn 118.7 Sn.pbe-dn-rrkjus_psl.1.0.0.UPF

CELL_PARAMETERS {angstrom}
6.01786000 0.00000000 0.00000000
0.00000000 8.51054000 0.00000000
0.00000000 0.00000000 26.38290000

ATOMIC_POSITIONS {angstrom}
Ni 1.50446500 0.00000000 -1.0637585299999976 0 0 0
Ni 4.51339500 4.25527000 -1.0637585299999976 0 0 0
Ni 4.51339500 0.00000000 -1.0637585299999976 0 0 0
Ni 1.50446500 4.25527000 -1.0637585299999976 0 0 0
Ni 4.51339500 6.38290500 -3.1915394100000007 0 0 0
Ni 1.50446500 2.12763500 -3.1915394100000007 0 0 0
Ni 1.50446500 6.38290500 -3.1915394100000007 0 0 0
Ni 4.51339500 2.12763500 -3.1915394100000007 0 0 0
Ni 0.00000000 6.38290500 -1.0637585299999976 0 0 0
Ni 3.00893000 0.00000000 -3.1915394100000007 0 0 0
Ni 0.00000000 2.12763500 -1.0637585299999976 0 0 0
Ni 3.00893000 4.25527000 -3.1915394100000007 0 0 0
Ni 1.45740533 4.25569553 3.05936108
Ni 4.49961410 0.00042553 3.05487599
Ni 4.59824683 4.25527000 3.07941209
Ni 1.56650914 0.00042553 3.18599900
Ni 4.47048766 2.11155008 1.07985210
Ni 1.56103288 6.37235193 1.08460102
Ni 1.56139396 2.13852849 1.08512868
Ni 4.47108944 6.39924524 1.08011593
Ni 0.01865537 2.06721017 3.10764179
Ni 3.01019375 4.25561042 1.04634581
Ni 0.01835447 6.44367026 3.10975242
Ni 2.96229159 0.00034042 1.05162239
Sn 0.00000000 0.00000000 -3.1915394100000007 0 0 0
Sn 3.00893000 2.12763500 -1.0637585299999976 0 0 0
Sn 3.00893000 6.38290500 -1.0637585299999976 0 0 0
Sn 0.00000000 4.25527000 -3.1915394100000007 0 0 0
Sn 6.01779982 4.25424874 0.97168221
Sn 3.04521770 6.31941637 3.32978581
Sn 3.04612037 2.19248531 3.32899432
Sn 0.03779216 0.00059574 0.98144388
C 0.14497025 8.50883789 4.38985073
O 5.72069807 0.00017021 5.48711554
