&CONTROL
calculation = 'relax'
prefix = 'scf'
pseudo_dir = '/vol0403/data/hp230205/u10028/POT_HYBRID_KKJUS_GBRV'
outdir = './data'
tprnfor = .true.
nstep = 50
disk_io = 'non'
/
&SYSTEM
ibrav = 0
ecutwfc = 50.0
ecutrho = 400
occupations = 'smearing'
smearing = 'mp'
degauss = 0.01
assume_isolated = 'esm'
esm_bc = 'bc1'
input_dft = 'BEEF-VDW'
nosym = .true.
nspin = 1
ntyp = 6
nat = 18
/
&ELECTRONS
electron_maxstep = 200
mixing_beta = 0.1
conv_thr = 1e-06
/
&IONS
ion_dynamics = 'bfgs'
upscale = 1.0
/
&CELL
/

K_POINTS {automatic}
11 8 2 0  0  0

ATOMIC_SPECIES
Al 26.98 Al.pbe-nl-rrkjus_psl.1.0.0.UPF
C 12.01 C.pbe-n-rrkjus_psl.1.0.0.UPF
Cu 63.54 Cu.pbe-dn-rrkjus_psl.1.0.0.UPF
Ge 72.64 Ge.pbe-dn-rrkjus_psl.1.0.0.UPF
Li 6.941 Li.pbe-sl-rrkjus_psl.1.0.0.UPF
O 15.99 O.pbe-n-rrkjus_psl.1.0.0.UPF


CELL_PARAMETERS {angstrom}
5.44580000 0.00000000 0.00000000
0.00000000 7.77412000 0.00000000
0.00000000 0.00000000 24.08340000

ATOMIC_POSITIONS {angstrom}
Li 4.05439810 1.94353000 -0.6805968799999995 0 0 0
Li 1.39864481 1.94353000 2.44952261
Li 4.05439810 5.83059000 -0.6805968799999995 0 0 0
Li 1.37844090 5.83066774 2.36258154
Al 0.00000000 0.00000000 -2.0417906499999994 0 0 0
Al 2.73635113 7.76549073 0.78704551
Al 0.00000000 3.88706000 -2.0417906499999994 0 0 0
Al 2.73640558 3.89584476 0.78704551
Cu 2.72290000 0.00000000 -2.0417906499999994 0 0 0
Cu 0.03332830 7.76378042 0.81305558
Cu 2.72290000 3.88706000 -2.0417906499999994 0 0 0
Cu 0.03332830 3.89747732 0.81305558
Ge 1.33149810 1.94353000 -0.6805968799999995 0 0 0
Ge 4.19865734 1.94360774 2.00831473
Ge 1.33149810 5.83059000 -0.6805968799999995 0 0 0
Ge 4.17219075 5.83082322 2.07502574
C 1.30671971 1.94337452 4.56958432
O 1.21985920 1.94337452 5.70487579
