&CONTROL
calculation = 'relax'
prefix = 'scf'
pseudo_dir = '/vol0403/data/hp230205/u10028/POT_HYBRID_KKJUS_GBRV'
outdir = './data'
tprnfor = .true.
nstep = 50
disk_io = 'non'
/
&SYSTEM
ibrav = 0
ecutwfc = 50.0
ecutrho = 400
occupations = 'smearing'
smearing = 'mp'
degauss = 0.01
assume_isolated = 'esm'
esm_bc = 'bc1'
input_dft = 'BEEF-VDW'
nosym = .true.
nspin = 2
ntyp = 6
nat = 34
starting_magnetization(1) = 0.0
starting_magnetization(2) = 0.0
starting_magnetization(3) = 0.1
starting_magnetization(4) = 0.0
starting_magnetization(5) = 0.0
starting_magnetization(6) = 0.0
/
&ELECTRONS
electron_maxstep = 200
mixing_beta = 0.1
conv_thr = 1e-06
/
&IONS
ion_dynamics = 'bfgs'
upscale = 1.0
/
&CELL
/

K_POINTS {automatic}
9 6 2 0  0  0

ATOMIC_SPECIES
Al 26.98 Al.pbe-nl-rrkjus_psl.1.0.0.UPF
C 12.01 C.pbe-n-rrkjus_psl.1.0.0.UPF
Co 58.93 co_pbe_v1.2.uspp.F.UPF
Li 6.941 Li.pbe-sl-rrkjus_psl.1.0.0.UPF
O 15.99 O.pbe-n-rrkjus_psl.1.0.0.UPF
Pd 106.4 Pd.pbe-n-rrkjus_psl.1.0.0.UPF


CELL_PARAMETERS {angstrom}
5.87254000 0.00000000 0.00000000
0.00000000 8.30502000 0.00000000
0.00000000 0.00000000 26.22880000

ATOMIC_POSITIONS {angstrom}
Li 0.00000000 2.07625500 25.19066410
Li 0.00000000 6.22876500 25.19066410
Li 2.93627000 4.15251000 23.11439229
Li 2.93627000 0.00000000 23.11439229
Li 5.83683496 6.22876500 3.65236040
Li 5.82955301 2.07625500 3.46115245
Li 2.89809849 0.00307286 0.99905499
Li 2.89809849 4.14943714 0.99905499
Al 0.00000000 0.00000000 23.11439229
Al 0.00000000 4.15251000 23.11439229
Al 2.93627000 6.22876500 25.19066410
Al 2.93627000 2.07625500 25.19066410
Al 0.00293627 4.14021857 1.00036643
Al 0.00293627 0.01229143 1.00036643
Al 2.94173146 2.07625500 3.15191490
Al 2.93174814 6.22876500 3.09080179
Co 4.40440500 0.00000000 25.19066410
Co 4.40440500 4.15251000 25.19066410
Co 1.46813500 2.07625500 23.11439229
Co 1.46813500 6.22876500 23.11439229
Co 4.33933726 4.21072819 2.96700186
Co 4.33933726 8.24671876 2.96726414
Co 1.42409095 6.22868195 1.08062656
Co 1.43865485 2.07633805 1.11288798
Pd 1.46813500 0.00000000 25.19066410
Pd 1.46813500 4.15251000 25.19066410
Pd 4.40440500 2.07625500 23.11439229
Pd 4.40440500 6.22876500 23.11439229
Pd 1.45738825 4.17725896 3.06352384
Pd 1.45738825 8.28018799 3.06352384
Pd 4.42384311 6.22876500 1.03734904
Pd 4.40669529 2.07625500 1.08508546
C 2.99364472 2.07625500 5.15920496
O 3.01507949 2.07625500 6.31615733
