&CONTROL
calculation = 'relax'
prefix = 'scf'
pseudo_dir = '/vol0004/mdt0/data/hp150275/u10028/POT_KKJUS'
outdir = './data'
tprnfor = .true.
nstep = 50
disk_io = 'non'
/
&SYSTEM
ibrav = 0
ecutwfc = 50.0
ecutrho = 400
occupations = 'smearing'
smearing = 'mp'
degauss = 0.01
assume_isolated = 'esm'
esm_bc = 'bc1'
input_dft = 'BEEF-VDW'
nosym = .true.
nspin = 1
ntyp = 5
nat = 34
/
&ELECTRONS
electron_maxstep = 200
mixing_beta = 0.1
conv_thr = 1e-06
/
&IONS
ion_dynamics = 'bfgs'
upscale = 1.0
/
&CELL
/

K_POINTS {automatic}
9 6 2 0  0  0

ATOMIC_SPECIES
C 12.01 C.pbe-n-rrkjus_psl.1.0.0.UPF
Ge 72.64 Ge.pbe-dn-rrkjus_psl.1.0.0.UPF
Li 6.941 Li.pbe-sl-rrkjus_psl.1.0.0.UPF
O 15.99 O.pbe-n-rrkjus_psl.1.0.0.UPF
Zn 65.40 Zn.pbe-dnl-rrkjus_psl.1.0.0.UPF

CELL_PARAMETERS {angstrom}
6.18893000 0.00000000 0.00000000
0.00000000 8.75246000 0.00000000
0.00000000 0.00000000 26.56430000

ATOMIC_POSITIONS {angstrom}
Li 0.00000000 0.00000000 -3.282284909999998 0 0 0
Li 3.09446500 2.18811500 -1.0941835199999979 0 0 0
Li 3.09446500 6.56434500 -1.0941835199999979 0 0 0
Li 0.00000000 4.37623000 -3.282284909999998 0 0 0
Li 1.54723250 2.18811500 -3.282284909999998 0 0 0
Li 1.54723250 6.56434500 -3.282284909999998 0 0 0
Li 4.64169750 4.37623000 -1.0941835199999979 0 0 0
Li 4.64169750 0.00000000 -1.0941835199999979 0 0 0
Li 6.10872147 4.37623000 1.20070636
Li 3.04897636 6.52942268 3.33966380
Li 3.04891448 2.22303732 3.33966380
Li 6.07127844 0.00000000 1.08568294
Li 1.54389048 6.56714579 1.11809139
Li 1.54389048 2.18531421 1.11809139
Li 4.82105269 0.00000000 3.65391946
Li 4.82247615 4.37623000 3.85235479
Zn 1.54723250 0.00000000 -1.0941835199999979 0 0 0
Zn 1.54723250 4.37623000 -1.0941835199999979 0 0 0
Zn 4.64169750 6.56434500 -3.282284909999998 0 0 0
Zn 4.64169750 2.18811500 -3.282284909999998 0 0 0
Zn 1.43595554 4.37623000 3.34099201
Zn 1.35778935 0.00000000 3.17496514
Zn 4.64330662 2.19809280 1.14598390
Zn 4.64336851 6.55436720 1.14598390
Ge 0.00000000 6.56434500 -1.0941835199999979 0 0 0
Ge 3.09446500 0.00000000 -3.282284909999998 0 0 0
Ge 0.00000000 2.18811500 -1.0941835199999979 0 0 0
Ge 3.09446500 4.37623000 -3.282284909999998 0 0 0
Ge 6.17432413 2.22224959 3.34710180
Ge 3.13958230 4.37623000 1.27136740
Ge 6.17438601 6.53012288 3.34710180
Ge 3.15387873 0.00000000 1.20442536
C 2.28786175 0.00000000 5.11734675
O 2.16983886 0.00008752 6.26811223
