&CONTROL
calculation = 'relax'
prefix = 'scf'
pseudo_dir = '/vol0004/mdt0/data/hp150275/u10028/POT_KKJUS'
outdir = './data'
tprnfor = .true.
nstep = 50
disk_io = 'non'
/
&SYSTEM
ibrav = 0
ecutwfc = 50.0
ecutrho = 400
occupations = 'smearing'
smearing = 'mp'
degauss = 0.01
assume_isolated = 'esm'
esm_bc = 'bc1'
input_dft = 'BEEF-VDW'
nosym = .true.
nspin = 1
ntyp = 3
nat = 33
/
&ELECTRONS
electron_maxstep = 200
mixing_beta = 0.1
conv_thr = 1e-06
/
&IONS
ion_dynamics = 'bfgs'
upscale = 1.0
/
&CELL
/

K_POINTS {automatic}
8 8 1 0 0 0

ATOMIC_SPECIES
C 12.01 C.pbe-n-rrkjus_psl.1.0.0.UPF
Nb 92.90 Nb.pbe-spn-rrkjus_psl.1.0.0.UPF
Ru 101.0 Ru.pbe-spn-rrkjus_psl.1.0.0.UPF

CELL_PARAMETERS {angstrom}
7.81108000 0.00000000 0.00000000
-0.00000000 7.81108000 0.00000000
0.00000000 0.00000000 25.85830000

ATOMIC_POSITIONS {angstrom}
Nb 0.00000000 0.00000000 -2.929228219999999 0 0 0
Nb 0.00000000 0.00000000 0.97640941
Nb 0.00000000 3.90554000 -2.929228219999999 0 0 0
Nb 0.00000000 3.90554000 0.97640941
Nb 3.90554000 0.00000000 -2.929228219999999 0 0 0
Nb 3.90554000 -0.00000000 0.97640941
Nb 3.90554000 3.90554000 -2.929228219999999 0 0 0
Nb 3.90554000 3.90554000 0.97640941
Ru 0.00000000 1.95277000 -0.9764094099999987 0 0 0
Ru 1.95277000 0.00000000 -0.9764094099999987 0 0 0
Ru 1.95277000 1.95277000 -2.929228219999999 0 0 0
Ru 0.00000000 1.95277000 2.92922822
Ru 1.95277000 -0.00000000 2.92922822
Ru 1.95277000 1.95277000 0.97640941
Ru 0.00000000 5.85831000 -0.9764094099999987 0 0 0
Ru 1.95277000 3.90554000 -0.9764094099999987 0 0 0
Ru 1.95277000 5.85831000 -2.929228219999999 0 0 0
Ru 0.00000000 5.85831000 2.92922822
Ru 1.95277000 3.90554000 2.92922822
Ru 1.95277000 5.85831000 0.97640941
Ru 3.90554000 1.95277000 -0.9764094099999987 0 0 0
Ru 5.85831000 0.00000000 -0.9764094099999987 0 0 0
Ru 5.85831000 1.95277000 -2.929228219999999 0 0 0
Ru 3.90554000 1.95277000 2.92922822
Ru 5.85831000 -0.00000000 2.92922822
Ru 5.85831000 1.95277000 0.97640941
Ru 3.90554000 5.85831000 -0.9764094099999987 0 0 0
Ru 5.85831000 3.90554000 -0.9764094099999987 0 0 0
Ru 5.85831000 5.85831000 -2.929228219999999 0 0 0
Ru 3.90554000 5.85831000 2.92922822
Ru 5.85831000 3.90554000 2.92922822
Ru 5.85831000 5.85831000 0.97640941
C 0.00000000 0.00000000 3.72902544
