&CONTROL
calculation = 'relax'
prefix = 'scf'
pseudo_dir = '/vol0403/data/hp230205/u10028/POT_HYBRID_KKJUS_GBRV'
outdir = './data'
tprnfor = .true.
nstep = 50
disk_io = 'non'
/
&SYSTEM
ibrav = 0
ecutwfc = 50.0
ecutrho = 400
occupations = 'smearing'
smearing = 'mp'
degauss = 0.01
assume_isolated = 'esm'
esm_bc = 'bc1'
input_dft = 'BEEF-VDW'
nosym = .true.
nspin = 1
ntyp = 6
nat = 18
/
&ELECTRONS
electron_maxstep = 200
mixing_beta = 0.1
conv_thr = 1e-06
/
&IONS
ion_dynamics = 'bfgs'
upscale = 1.0
/
&CELL
/

K_POINTS {automatic}
9 9 2 0  0  0

ATOMIC_SPECIES
C 12.01 C.pbe-n-rrkjus_psl.1.0.0.UPF
Cu 63.54 Cu.pbe-dn-rrkjus_psl.1.0.0.UPF
Li 6.941 Li.pbe-sl-rrkjus_psl.1.0.0.UPF
O 15.99 O.pbe-n-rrkjus_psl.1.0.0.UPF
Pd 106.4 Pd.pbe-n-rrkjus_psl.1.0.0.UPF
Sb 121.7 Sb.pbe-n-rrkjus_psl.1.0.0.UPF


CELL_PARAMETERS {angstrom}
6.37250000 0.00000000 0.00000000
0.00000000 6.37250000 0.00000000
0.00000000 0.00000000 24.77940000

ATOMIC_POSITIONS {angstrom}
Li 1.59312500 1.59312500 -0.7966577099999981 0 0 0
Li 1.59127697 4.78440927 2.43284149
Li 4.78211518 1.61256113 2.40781430
Li 4.77937500 4.77937500 -0.7966577099999981 0 0 0
Cu 0.00000000 0.00000000 -2.3897253399999983 0 0 0
Cu 6.35765207 3.20855375 0.90395251
Cu 3.17732850 0.00337743 0.92749294
Cu 3.18625000 3.18625000 -2.3897253399999983 0 0 0
Sb 4.77937500 1.59312500 -0.7966577099999981 0 0 0
Sb 4.77994853 4.79785525 2.43209811
Sb 1.58764465 1.62447770 2.40657533
Sb 1.59312500 4.77937500 -0.7966577099999981 0 0 0
Pd 0.00000000 3.18625000 -2.3897253399999983 0 0 0
Pd 0.00917640 0.00318625 0.88140326
Pd 3.20128910 3.20619592 0.87372164
Pd 3.18625000 0.00000000 -2.3897253399999983 0 0 0
C 1.62543357 1.10097683 6.47436163
O 1.57846825 1.80469200 7.36518106
