&CONTROL
calculation = 'relax'
prefix = 'scf'
pseudo_dir = '/vol0004/mdt0/data/hp150275/u10028/POT_KKJUS'
outdir = './data'
tprnfor = .true.
nstep = 50
disk_io = 'non'
/
&SYSTEM
ibrav = 0
ecutwfc = 50.0
ecutrho = 400
occupations = 'smearing'
smearing = 'mp'
degauss = 0.01
assume_isolated = 'esm'
esm_bc = 'bc1'
input_dft = 'BEEF-VDW'
nosym = .true.
nspin = 1
ntyp = 4
nat = 34
/
&ELECTRONS
electron_maxstep = 200
mixing_beta = 0.1
conv_thr = 1e-06
/
&IONS
ion_dynamics = 'bfgs'
upscale = 1.0
/
&CELL
/

K_POINTS {automatic}
8 6 2 0  0  0

ATOMIC_SPECIES
C 12.01 C.pbe-n-rrkjus_psl.1.0.0.UPF
Li 6.941 Li.pbe-sl-rrkjus_psl.1.0.0.UPF
O 15.99 O.pbe-n-rrkjus_psl.1.0.0.UPF
Pb 207.2 Pb.pbe-dn-rrkjus_psl.1.0.0.UPF

CELL_PARAMETERS {angstrom}
7.21597000 0.00000000 0.00000000
0.00000000 10.20490000 0.00000000
0.00000000 0.00000000 27.65370000

ATOMIC_POSITIONS {angstrom}
Li 0.00000000 0.00000000 -3.8267190100000015 0 0 0
Li 0.00000000 2.55122500 -1.2756651800000007 0 0 0
Li 7.20485741 0.00000000 1.23556732
Li 0.00303071 2.56102170 3.81510445
Li 0.00000000 5.10245000 -3.8267190100000015 0 0 0
Li 0.00000000 7.65367500 -1.2756651800000007 0 0 0
Li 7.21084666 5.10245000 1.29557585
Li 0.00303071 7.64377625 3.81510445
Li 3.60798500 0.00000000 -3.8267190100000015 0 0 0
Li 3.60798500 2.55122500 -1.2756651800000007 0 0 0
Li 3.61909759 0.00000000 1.23556732
Li 3.60495429 2.56102170 3.81482791
Li 3.60798500 5.10245000 -3.8267190100000015 0 0 0
Li 3.60798500 7.65367500 -1.2756651800000007 0 0 0
Li 3.61310834 5.10245000 1.29557585
Li 3.60495429 7.64377625 3.81510445
Pb 1.80399250 2.55122500 -3.8267190100000015 0 0 0
Pb 1.80399250 0.00000000 -1.2756651800000007 0 0 0
Pb 1.80399250 2.54867378 1.37494196
Pb 1.80399250 5.10245000 3.88838676
Pb 1.80399250 7.65367500 -3.8267190100000015 0 0 0
Pb 1.80399250 5.10245000 -1.2756651800000007 0 0 0
Pb 1.80399250 7.65622623 1.37494196
Pb 1.80399250 0.00000000 3.80487258
Pb 5.41197750 2.55122500 -3.8267190100000015 0 0 0
Pb 5.41197750 0.00000000 -1.2756651800000007 0 0 0
Pb 5.41197750 2.55377623 1.38545037
Pb 5.41197750 5.10245000 3.89308789
Pb 5.41197750 7.65367500 -3.8267190100000015 0 0 0
Pb 5.41197750 5.10245000 -1.2756651800000007 0 0 0
Pb 5.41197750 7.65112378 1.38545037
Pb 5.41197750 0.00000000 3.81178601
C 1.80399250 0.00010205 7.92914540
O 1.80399250 10.20479795 9.06571247
