&CONTROL
calculation = 'relax'
prefix = 'scf'
pseudo_dir = '/vol0403/data/hp230205/u10028/POT_HYBRID_KKJUS_GBRV'
outdir = './data'
tprnfor = .true.
nstep = 50
disk_io = 'non'
/
&SYSTEM
ibrav = 0
ecutwfc = 50.0
ecutrho = 400
occupations = 'smearing'
smearing = 'mp'
degauss = 0.01
assume_isolated = 'esm'
esm_bc = 'bc1'
input_dft = 'BEEF-VDW'
nosym = .true.
nspin = 1
ntyp = 6
nat = 18
/
&ELECTRONS
electron_maxstep = 200
mixing_beta = 0.1
conv_thr = 1e-06
/
&IONS
ion_dynamics = 'bfgs'
upscale = 1.0
/
&CELL
/

K_POINTS {automatic}
9 9 2 0  0  0

ATOMIC_SPECIES
Ag 107.8 Ag.pbe-n-rrkjus_psl.1.0.0.UPF
C 12.01 C.pbe-n-rrkjus_psl.1.0.0.UPF
Ge 72.64 Ge.pbe-dn-rrkjus_psl.1.0.0.UPF
Li 6.941 Li.pbe-sl-rrkjus_psl.1.0.0.UPF
O 15.99 O.pbe-n-rrkjus_psl.1.0.0.UPF
Zn 65.40 Zn.pbe-dnl-rrkjus_psl.1.0.0.UPF


CELL_PARAMETERS {angstrom}
6.35563000 0.00000000 0.00000000
0.00000000 6.35563000 0.00000000
0.00000000 0.00000000 24.76670000

ATOMIC_POSITIONS {angstrom}
Li 4.77276035 1.58070874 0.87302617
Li 4.76672250 4.76672250 -2.3832995399999994 0 0 0
Li 1.58890750 1.58890750 -2.3832995399999994 0 0 0
Li 1.58306032 4.77498482 0.87327384
Zn 1.56984061 1.56666280 0.91166223
Zn 1.58890750 4.76672250 -2.3832995399999994 0 0 0
Zn 4.76672250 1.58890750 -2.3832995399999994 0 0 0
Zn 4.78591650 4.78896721 0.91166223
Ag 0.00006356 0.00006356 2.63245254
Ag 0.00000000 3.17781500 -0.7945157400000014 0 0 0
Ag 3.17781500 0.00000000 -0.7945157400000014 0 0 0
Ag 3.17787856 3.17768789 2.53759608
Ge 6.35556644 3.17775144 2.45462764
Ge 0.00000000 0.00000000 -0.7945157400000014 0 0 0
Ge 3.17781500 3.17781500 -0.7945157400000014 0 0 0
Ge 3.17794211 0.00012711 2.46527732
C 6.35537577 6.35556644 4.91074128
O 6.35556644 0.00006356 6.04877114
