&CONTROL
calculation = 'relax'
prefix = 'scf'
pseudo_dir = '/vol0004/mdt0/data/hp150275/u10028/POT_HYBRID_KKJUS_GBRV'
outdir = './data'
tprnfor = .true.
nstep = 50
disk_io = 'non'
/
&SYSTEM
ibrav = 0
ecutwfc = 50.0
ecutrho = 400
occupations = 'smearing'
smearing = 'mp'
degauss = 0.01
assume_isolated = 'esm'
esm_bc = 'bc1'
input_dft = 'BEEF-VDW'
nosym = .true.
nspin = 2
ntyp = 5
nat = 34
starting_magnetization(1) = 0.0
starting_magnetization(2) = 0.0
starting_magnetization(3) = 0.0
starting_magnetization(4) = 0.001
starting_magnetization(5) = 0.0
/
&ELECTRONS
electron_maxstep = 300
mixing_beta = 0.1
conv_thr = 1e-06
/
&IONS
ion_dynamics = 'bfgs'
upscale = 1.0
/
&CELL
/

K_POINTS {automatic}
9 6 2 0  0  0

ATOMIC_SPECIES
Al 26.98 Al.pbe-nl-rrkjus_psl.1.0.0.UPF
C 12.01 C.pbe-n-rrkjus_psl.1.0.0.UPF
Hf 178.4 Hf.pbe-spn-rrkjus_psl.1.0.0.UPF
Ni 58.69 ni_pbe_v1.4.uspp.F.UPF
O 15.99 O.pbe-n-rrkjus_psl.1.0.0.UPF

CELL_PARAMETERS {angstrom}
6.09317000 0.00000000 0.00000000
0.00000000 8.61704000 0.00000000
0.00000000 0.00000000 26.46280000

ATOMIC_POSITIONS {angstrom}
Hf 0.00000000 0.00000000 -3.23137251 0 0 0
Hf 3.04658500 2.15426000 -1.07703596 0 0 0
Hf 3.04658500 6.46278000 -1.07703596 0 0 0
Hf 0.00000000 4.30852000 -3.23137251 0 0 0
Hf 6.09298720 4.30834766 1.03654788
Hf 3.04518357 6.45735126 3.31499496
Hf 3.04518357 2.15986108 3.31525958
Hf 0.01108957 0.00025851 1.06698010
Al 0.00000000 6.46278000 -1.07703596 0 0 0
Al 3.04658500 0.00000000 -3.23137251 0 0 0
Al 0.00000000 2.15426000 -1.07703596 0 0 0
Al 3.04658500 4.30852000 -3.23137251 0 0 0
Al 6.07086900 2.18174836 3.16495088
Al 3.04493984 4.30869234 1.11302537
Al 6.07056434 6.43529164 3.16548014
Al 3.03439866 0.00008617 1.13975280
Ni 1.52329250 0.00000000 -1.07703596 0 0 0
Ni 4.56987750 4.30852000 -1.07703596 0 0 0
Ni 4.56987750 0.00000000 -1.07703596 0 0 0
Ni 1.52329250 4.30852000 -1.07703596 0 0 0
Ni 4.56987750 6.46278000 -3.23137251 0 0 0
Ni 1.52329250 2.15426000 -3.23137251 0 0 0
Ni 1.52329250 6.46278000 -3.23137251 0 0 0
Ni 4.56987750 2.15426000 -3.23137251 0 0 0
Ni 1.47101310 4.30929553 3.09111967
Ni 4.65804567 8.61652298 3.07524199
Ni 4.61246876 4.30938170 3.09879388
Ni 1.42251147 8.61635064 3.38988468
Ni 4.46909647 2.14805573 1.14134056
Ni 1.63236024 6.47225874 1.16595097
Ni 1.63138534 2.14495360 1.16489246
Ni 4.46806063 6.46915661 1.14239908
C 1.90716221 8.61686766 5.09541214
O 2.09026197 8.61695383 6.24998410
