&CONTROL
calculation = 'relax'
prefix = 'scf'
pseudo_dir = '/vol0004/mdt0/data/hp150275/u10028/POT_KKJUS'
outdir = './data'
tprnfor = .true.
nstep = 50
disk_io = 'non'
/
&SYSTEM
ibrav = 0
ecutwfc = 50.0
ecutrho = 400
occupations = 'smearing'
smearing = 'mp'
degauss = 0.01
assume_isolated = 'esm'
esm_bc = 'bc1'
input_dft = 'BEEF-VDW'
nosym = .true.
nspin = 1
ntyp = 5
nat = 34
/
&ELECTRONS
electron_maxstep = 200
mixing_beta = 0.1
conv_thr = 1e-06
/
&IONS
ion_dynamics = 'bfgs'
upscale = 1.0
/
&CELL
/

K_POINTS {automatic}
9 6 2 0  0  0

ATOMIC_SPECIES
Ag 107.8 Ag.pbe-n-rrkjus_psl.1.0.0.UPF
C 12.01 C.pbe-n-rrkjus_psl.1.0.0.UPF
Mg 24.30 Mg.pbe-spnl-rrkjus_psl.1.0.0.UPF
O 15.99 O.pbe-n-rrkjus_psl.1.0.0.UPF
Zn 65.40 Zn.pbe-dnl-rrkjus_psl.1.0.0.UPF

CELL_PARAMETERS {angstrom}
6.56971000 0.00000000 0.00000000
0.00000000 9.29097000 0.00000000
0.00000000 0.00000000 26.96820000

ATOMIC_POSITIONS {angstrom}
Mg 0.00000000 0.00000000 -3.484021760000001 0 0 0
Mg 3.28485500 2.32274250 -1.1612506899999993 0 0 0
Mg 3.28485500 6.96822750 -1.1612506899999993 0 0 0
Mg 0.00000000 4.64548500 -3.484021760000001 0 0 0
Mg 0.01747543 4.64548500 1.19037635
Mg 3.34227427 6.92855506 3.54820607
Mg 3.34227427 2.36250785 3.54820607
Mg 0.04171766 0.00000000 1.20143331
Zn 0.00000000 6.96822750 -1.1612506899999993 0 0 0
Zn 3.28485500 0.00000000 -3.484021760000001 0 0 0
Zn 0.00000000 2.32274250 -1.1612506899999993 0 0 0
Zn 3.28485500 4.64548500 -3.484021760000001 0 0 0
Zn 6.54231431 2.33714350 3.48806699
Zn 3.31317045 4.64548500 1.23136801
Zn 6.54231431 6.95382650 3.48806699
Zn 3.27605159 0.00000000 1.27235968
Ag 1.64242750 0.00000000 -1.1612506899999993 0 0 0
Ag 4.92728250 4.64548500 -1.1612506899999993 0 0 0
Ag 4.92728250 0.00000000 -1.1612506899999993 0 0 0
Ag 1.64242750 4.64548500 -1.1612506899999993 0 0 0
Ag 4.92728250 6.96822750 -3.484021760000001 0 0 0
Ag 1.64242750 2.32274250 -3.484021760000001 0 0 0
Ag 1.64242750 6.96822750 -3.484021760000001 0 0 0
Ag 4.92728250 2.32274250 -3.484021760000001 0 0 0
Ag 1.58921285 4.64548500 3.56411731
Ag 5.00717017 0.00000000 3.50775377
Ag 5.03397459 4.64548500 3.56897159
Ag 1.55386781 0.00000000 3.63558304
Ag 4.92426043 2.31856156 1.10246002
Ag 1.68861256 6.96989987 1.17635288
Ag 1.68861256 2.32107013 1.17635288
Ag 4.92426043 6.97240844 1.10246002
C 1.76055089 0.00000000 5.95053333
O 1.53718075 0.00000000 7.07106204
