&CONTROL
calculation = 'relax'
prefix = 'scf'
pseudo_dir = '/vol0004/mdt0/data/hp150275/u10028/POT_HYBRID_KKJUS_GBRV'
outdir = './data'
tprnfor = .true.
nstep = 50
disk_io = 'non'
/
&SYSTEM
ibrav = 0
ecutwfc = 50.0
ecutrho = 400
occupations = 'smearing'
smearing = 'mp'
degauss = 0.01
assume_isolated = 'esm'
esm_bc = 'bc1'
input_dft = 'BEEF-VDW'
nosym = .true.
nspin = 2
ntyp = 4
nat = 34
starting_magnetization(1) = 0.1
starting_magnetization(2) = 0.1
starting_magnetization(3) = 0.1
starting_magnetization(4) = 0.1
/
&ELECTRONS
electron_maxstep = 200
mixing_beta = 0.1
conv_thr = 1e-06
/
&IONS
ion_dynamics = 'bfgs'
upscale = 1.0
/
&CELL
/

K_POINTS {automatic}
8 6 1 0 0 0

ATOMIC_SPECIES
Al 26.98 Al.pbe-nl-rrkjus_psl.1.0.0.UPF
C 12.01 C.pbe-n-rrkjus_psl.1.0.0.UPF
Mn 54.93 mn_pbe_v1.5.uspp.F.UPF
O 15.99 O.pbe-n-rrkjus_psl.1.0.0.UPF

CELL_PARAMETERS {angstrom}
5.89713000 0.00000000 0.00000000
0.00000000 8.33980000 0.00000000
0.00000000 0.00000000 26.25480000

ATOMIC_POSITIONS {angstrom}
Mn 1.47428250 2.08495000 -3.1274717800000005 0 0 0
Mn 1.47428250 0.00000000 -1.042578110000001 0 0 0
Mn 1.47428250 2.08995388 1.07697190
Mn 1.47428250 0.00000000 3.14952581
Mn 1.47428250 6.25485000 -3.1274717800000005 0 0 0
Mn 1.47428250 4.16990000 -1.042578110000001 0 0 0
Mn 1.47428250 6.24984612 1.07697190
Mn 1.47428250 4.16990000 3.12012043
Mn 4.42284750 2.08495000 -3.1274717800000005 0 0 0
Mn 4.42284750 0.00000000 -1.042578110000001 0 0 0
Mn 4.42284750 2.07077234 1.09482516
Mn 4.42284750 0.00000000 3.13088490
Mn 4.42284750 6.25485000 -3.1274717800000005 0 0 0
Mn 4.42284750 4.16990000 -1.042578110000001 0 0 0
Mn 4.42284750 6.26902766 1.09482516
Mn 4.42284750 4.16990000 3.21700064
Al 0.00000000 0.00000000 -3.1274717800000005 0 0 0
Al 0.00000000 2.08495000 -1.042578110000001 0 0 0
Al 0.02016818 0.00000000 1.05596806
Al 0.05077429 2.07636001 3.33435960
Al 0.00000000 4.16990000 -3.1274717800000005 0 0 0
Al 0.00000000 6.25485000 -1.042578110000001 0 0 0
Al 5.88285895 4.16990000 1.05701825
Al 0.05077429 6.26343999 3.33435960
Al 2.94856500 0.00000000 -3.1274717800000005 0 0 0
Al 2.94856500 2.08495000 -1.042578110000001 0 0 0
Al 2.92839682 0.00000000 1.05596806
Al 2.89779071 2.07636001 3.33435960
Al 2.94856500 4.16990000 -3.1274717800000005 0 0 0
Al 2.94856500 6.25485000 -1.042578110000001 0 0 0
Al 2.96283605 4.16990000 1.05701825
Al 2.89779071 6.26343999 3.33435960
C 1.47428250 0.00000000 4.95900662
O 1.47428250 0.00000000 6.12708268
