&CONTROL
calculation = 'relax'
prefix = 'scf'
pseudo_dir = '/vol0403/data/hp230205/u10028/POT_HYBRID_KKJUS_GBRV'
outdir = './data'
tprnfor = .true.
nstep = 70
disk_io = 'non'
/
&SYSTEM
ibrav = 0
ecutwfc = 50.0
ecutrho = 400
occupations = 'smearing'
smearing = 'mp'
degauss = 0.01
assume_isolated = 'esm'
esm_bc = 'bc1'
input_dft = 'BEEF-VDW'
nosym = .true.
nspin = 1
ntyp = 6
nat = 34
/
&ELECTRONS
electron_maxstep = 200
mixing_beta = 0.1
conv_thr = 1e-06
/
&IONS
ion_dynamics = 'bfgs'
upscale = 1.0
/
&CELL
/

K_POINTS {automatic}
9 6 2 0  0  0

ATOMIC_SPECIES
C 12.01 C.pbe-n-rrkjus_psl.1.0.0.UPF
Cu 63.54 Cu.pbe-dn-rrkjus_psl.1.0.0.UPF
Ge 72.64 Ge.pbe-dn-rrkjus_psl.1.0.0.UPF
O 15.99 O.pbe-n-rrkjus_psl.1.0.0.UPF
Pd 106.4 Pd.pbe-n-rrkjus_psl.1.0.0.UPF
Sc 44.95 Sc.pbe-spn-rrkjus_psl.1.0.0.UPF


CELL_PARAMETERS {angstrom}
6.33395000 0.00000000 0.00000000
-0.00000000 8.95756000 0.00000000
0.00000000 0.00000000 26.71820000

ATOMIC_POSITIONS {angstrom}
Sc 4.75046250 0.00000000 -1.1197597600000009 0 0 0
Sc 4.75046250 4.47878000 -1.1197597600000009 0 0 0
Sc 1.58348750 2.23939000 -3.359012100000001 0 0 0
Sc 1.58348750 6.71817000 -3.359012100000001 0 0 0
Sc 4.36706851 4.47958618 3.52012285
Sc 4.40013173 8.95558934 3.49634365
Sc 1.54991756 6.69093902 1.20899855
Sc 1.55150105 2.26563565 1.20686109
Cu 0.00000000 0.00000000 -3.359012100000001 0 0 0
Cu 0.00000000 4.47878000 -3.359012100000001 0 0 0
Cu 3.16697500 6.71817000 -1.1197597600000009 0 0 0
Cu 3.16697500 2.23939000 -1.1197597600000009 0 0 0
Cu 6.09420999 4.47779467 1.37144521
Cu 6.19720002 0.00071660 1.27953460
Cu 2.59514599 2.22281851 3.84154280
Cu 2.59001549 6.73268125 3.84448180
Ge 1.58348750 0.00000000 -1.1197597600000009 0 0 0
Ge 1.58348750 4.47878000 -1.1197597600000009 0 0 0
Ge 4.75046250 2.23939000 -3.359012100000001 0 0 0
Ge 4.75046250 6.71817000 -3.359012100000001 0 0 0
Ge 1.46725952 4.47716764 3.34191246
Ge 1.42551879 0.00017915 3.31305680
Ge 4.70276786 6.73680172 1.11094276
Ge 4.70270452 2.22057912 1.11067557
Pd 0.00000000 2.23939000 -1.1197597600000009 0 0 0
Pd 0.00000000 6.71817000 -1.1197597600000009 0 0 0
Pd 3.16697500 4.47878000 -3.359012100000001 0 0 0
Pd 3.16697500 0.00000000 -3.359012100000001 0 0 0
Pd 6.11390858 6.68654981 3.31412553
Pd 6.11403526 2.26957698 3.31332398
Pd 3.12390414 -0.00000000 1.05670481
Pd 3.18648357 4.47860085 1.08556047
C 3.69953352 0.03108273 5.66986922
O 3.37384181 0.03645727 6.77439961
