&CONTROL
calculation = 'relax'
prefix = 'scf'
pseudo_dir = '/vol0004/mdt0/data/hp150275/u10028/POT_KKJUS'
outdir = './data'
tprnfor = .true.
nstep = 50
disk_io = 'non'
/
&SYSTEM
ibrav = 0
ecutwfc = 50.0
ecutrho = 400
occupations = 'smearing'
smearing = 'mp'
degauss = 0.01
assume_isolated = 'esm'
esm_bc = 'bc1'
input_dft = 'BEEF-VDW'
nosym = .true.
nspin = 1
ntyp = 2
nat = 16
/
&ELECTRONS
electron_maxstep = 200
mixing_beta = 0.1
conv_thr = 1e-06
/
&IONS
ion_dynamics = 'bfgs'
upscale = 1.0
/
&CELL
/

K_POINTS {automatic}
6 8 1 0 0 0

ATOMIC_SPECIES
Ni 58.69 Ni.pbe-spn-rrkjus_psl.1.0.0.UPF
Si 28.08 Si.pbe-nl-rrkjus_psl.1.0.0.UPF

CELL_PARAMETERS {angstrom}
7.08204000 0.00000000 0.00000000
0.00000000 5.00776000 0.00000000
0.00000000 0.00000000 23.75580000

ATOMIC_POSITIONS {angstrom}
Si 0.00007082 5.00770992 1.69141296
Si 0.00000000 2.50388000 -0.6259653299999997 0 0 0
Si 3.54094918 5.00770992 1.69141296
Si 3.54102000 2.50388000 -0.6259653299999997 0 0 0
Ni 0.00021246 2.50393008 1.81660603
Ni 1.77043918 3.76533474 0.69747029
Ni 1.77043918 1.24232510 0.69747029
Ni 0.00000000 0.00000000 -0.6259653299999997 0 0 0
Ni 1.77051000 1.25194000 -1.877895989999999 0 0 0
Ni 1.77051000 3.75582000 -1.877895989999999 0 0 0
Ni 3.54066590 2.50393008 1.81684358
Ni 5.31153000 3.76538482 0.69770785
Ni 5.31153000 1.24242526 0.69770785
Ni 3.54102000 0.00000000 -0.6259653299999997 0 0 0
Ni 5.31153000 1.25194000 -1.877895989999999 0 0 0
Ni 5.31153000 3.75582000 -1.877895989999999 0 0 0
