&CONTROL
calculation = 'relax'
prefix = 'scf'
pseudo_dir = '/vol0403/data/hp230205/u10028/POT_HYBRID_KKJUS_GBRV'
outdir = './data'
tprnfor = .true.
nstep = 50
disk_io = 'non'
/
&SYSTEM
ibrav = 0
ecutwfc = 50.0
ecutrho = 400
occupations = 'smearing'
smearing = 'mp'
degauss = 0.01
assume_isolated = 'esm'
esm_bc = 'bc1'
input_dft = 'BEEF-VDW'
nosym = .true.
nspin = 1
ntyp = 4
nat = 16
/
&ELECTRONS
electron_maxstep = 200
mixing_beta = 0.1
conv_thr = 1e-06
/
&IONS
ion_dynamics = 'bfgs'
upscale = 1.0
/
&CELL
/

K_POINTS {automatic}
6 6 1 0 0 0

ATOMIC_SPECIES
Ge 72.64 Ge.pbe-dn-rrkjus_psl.1.0.0.UPF
Li 6.941 Li.pbe-sl-rrkjus_psl.1.0.0.UPF
Sn 118.7 Sn.pbe-dn-rrkjus_psl.1.0.0.UPF
Y 88.90 Y.pbe-spn-rrkjus_psl.1.0.0.UPF


CELL_PARAMETERS {angstrom}
8.60818000 0.00000000 0.00000000
0.00000000 6.35836000 0.00000000
0.00000000 0.00000000 24.74450000

ATOMIC_POSITIONS {angstrom}
Li 0.00000000 3.17918000 -2.3722552199999996 0 0 0
Li 0.00000000 5.99192771 0.70472336
Li 4.30409000 3.17918000 -2.3722552199999996 0 0 0
Li 4.30409000 5.99192771 0.70472336
Y 2.15204500 1.42955008 -0.7908342199999971 0 0 0
Y 2.15213108 3.97594609 2.34355160
Y 6.45613500 1.42955008 -0.7908342199999971 0 0 0
Y 6.45613500 3.97588251 2.34355160
Sn 2.15204500 4.60873008 -0.7908342199999971 0 0 0
Sn 2.15204500 0.85729768 2.63825859
Sn 6.45613500 4.60873008 -0.7908342199999971 0 0 0
Sn 6.45604892 0.85717051 2.63825859
Ge 0.00000000 0.00000000 -2.3722552199999996 0 0 0
Ge 8.60809392 2.42069124 1.14393824
Ge 4.30409000 0.00000000 -2.3722552199999996 0 0 0
Ge 4.30409000 2.42062765 1.14393824
