&CONTROL
calculation = 'relax'
prefix = 'scf'
pseudo_dir = '/vol0004/mdt0/data/hp150275/u10028/POT_KKJUS'
outdir = './data'
tprnfor = .true.
nstep = 50
disk_io = 'non'
/
&SYSTEM
ibrav = 0
ecutwfc = 50.0
ecutrho = 400
occupations = 'smearing'
smearing = 'mp'
degauss = 0.01
assume_isolated = 'esm'
esm_bc = 'bc1'
input_dft = 'BEEF-VDW'
nosym = .true.
nspin = 1
ntyp = 4
nat = 18
/
&ELECTRONS
electron_maxstep = 200
mixing_beta = 0.1
conv_thr = 1e-06
/
&IONS
ion_dynamics = 'bfgs'
upscale = 1.0
/
&CELL
/

K_POINTS {automatic}
6 8 1 0 0 0

ATOMIC_SPECIES
C 12.01 C.pbe-n-rrkjus_psl.1.0.0.UPF
Nb 92.90 Nb.pbe-spn-rrkjus_psl.1.0.0.UPF
O 15.99 O.pbe-n-rrkjus_psl.1.0.0.UPF
Rh 102.9 Rh.pbe-spn-rrkjus_psl.1.0.0.UPF

CELL_PARAMETERS {angstrom}
7.81819000 0.00000000 0.00000000
0.00000000 5.52830000 0.00000000
0.00000000 0.00000000 24.14620000

ATOMIC_POSITIONS {angstrom}
Nb 7.81795545 0.00005528 1.82883319
Nb 0.00000000 2.76415000 -0.6910642399999993 0 0 0
Nb 3.90917318 0.00000000 1.76291406
Nb 3.90909500 2.76415000 -0.6910642399999993 0 0 0
Rh 0.00031273 2.76415000 2.16494829
Rh 1.92163292 4.15147689 0.75794922
Rh 1.92163292 1.37687840 0.75794922
Rh 0.00000000 0.00000000 -0.6910642399999993 0 0 0
Rh 1.95454750 1.38207500 -2.073192729999999 0 0 0
Rh 1.95454750 4.14622500 -2.073192729999999 0 0 0
Rh 3.90893864 2.76415000 1.90682541
Rh 5.89655708 4.15142160 0.75819068
Rh 5.89655708 1.37687840 0.75819068
Rh 3.90909500 0.00000000 -0.6910642399999993 0 0 0
Rh 5.86364250 1.38207500 -2.073192729999999 0 0 0
Rh 5.86364250 4.14622500 -2.073192729999999 0 0 0
C 7.81795545 2.76415000 4.04762751
O 7.81803364 2.76415000 5.20978411
