&CONTROL
calculation = 'relax'
prefix = 'scf'
pseudo_dir = '/vol0004/mdt0/data/hp150275/u10028/POT_KKJUS'
outdir = './data'
tprnfor = .true.
nstep = 50
disk_io = 'non'
/
&SYSTEM
ibrav = 0
ecutwfc = 50.0
ecutrho = 400
occupations = 'smearing'
smearing = 'mp'
degauss = 0.01
assume_isolated = 'esm'
esm_bc = 'bc1'
input_dft = 'BEEF-VDW'
nosym = .true.
nspin = 1
ntyp = 3
nat = 32
/
&ELECTRONS
electron_maxstep = 200
mixing_beta = 0.1
conv_thr = 1e-06
/
&IONS
ion_dynamics = 'bfgs'
upscale = 1.0
/
&CELL
/

K_POINTS {automatic}
8 6 1 0 0 0

ATOMIC_SPECIES
Li 6.941 Li.pbe-sl-rrkjus_psl.1.0.0.UPF
Ni 58.69 Ni.pbe-spn-rrkjus_psl.1.0.0.UPF
Si 28.08 Si.pbe-nl-rrkjus_psl.1.0.0.UPF

CELL_PARAMETERS {angstrom}
5.57854000 0.00000000 0.00000000
0.00000000 7.88925000 0.00000000
0.00000000 0.00000000 25.91690000

ATOMIC_POSITIONS {angstrom}
Li 0.00000000 0.00000000 -2.9584141299999978 0 0 0
Li 2.78927000 1.97231250 -0.9861380499999974 0 0 0
Li 2.78927000 5.91693750 -0.9861380499999974 0 0 0
Li 0.00000000 3.94462500 -2.9584141299999978 0 0 0
Li 0.00000000 3.94462500 0.87106701
Li 2.78927000 5.91701639 3.51821918
Li 2.78927000 1.97231250 3.51821918
Li 0.00000000 0.00007889 0.87106701
Si 0.00000000 5.91693750 -0.9861380499999974 0 0 0
Si 2.78927000 0.00000000 -2.9584141299999978 0 0 0
Si 0.00000000 1.97231250 -0.9861380499999974 0 0 0
Si 2.78927000 3.94462500 -2.9584141299999978 0 0 0
Si 0.00000000 1.97231250 2.91305956
Si 2.78927000 3.94462500 1.00039234
Si 5.57848421 5.91701639 2.91331873
Si 2.78927000 0.00000000 1.00039234
Ni 1.39463500 0.00000000 -0.9861380499999974 0 0 0
Ni 4.18390500 3.94462500 -0.9861380499999974 0 0 0
Ni 4.18390500 0.00000000 -0.9861380499999974 0 0 0
Ni 1.39463500 3.94462500 -0.9861380499999974 0 0 0
Ni 4.18390500 5.91693750 -2.9584141299999978 0 0 0
Ni 1.39463500 1.97231250 -2.9584141299999978 0 0 0
Ni 1.39463500 5.91693750 -2.9584141299999978 0 0 0
Ni 4.18390500 1.97231250 -2.9584141299999978 0 0 0
Ni 1.27994022 3.94454611 2.78606675
Ni 4.29832086 0.00007889 2.78632592
Ni 4.29854400 3.94462500 2.78606675
Ni 1.28005179 0.00007889 2.78606675
Ni 4.15774165 1.97231250 0.98536054
Ni 1.42096571 5.91693750 0.98613804
Ni 1.42079835 1.97231250 0.98536054
Ni 4.15768586 5.91693750 0.98587888
