&CONTROL
calculation = 'relax'
prefix = 'scf'
pseudo_dir = '/vol0004/mdt0/data/hp150275/u10028/POT_KKJUS'
outdir = './data'
tprnfor = .true.
nstep = 50
disk_io = 'non'
/
&SYSTEM
ibrav = 0
ecutwfc = 50.0
ecutrho = 400
occupations = 'smearing'
smearing = 'mp'
degauss = 0.01
assume_isolated = 'esm'
esm_bc = 'bc1'
input_dft = 'BEEF-VDW'
nosym = .true.
nspin = 1
ntyp = 5
nat = 34
/
&ELECTRONS
electron_maxstep = 200
mixing_beta = 0.1
conv_thr = 1e-06
/
&IONS
ion_dynamics = 'bfgs'
upscale = 1.0
/
&CELL
/

K_POINTS {automatic}
8 6 1 0 0 0

ATOMIC_SPECIES
C 12.01 C.pbe-n-rrkjus_psl.1.0.0.UPF
Ge 72.64 Ge.pbe-dn-rrkjus_psl.1.0.0.UPF
Li 6.941 Li.pbe-sl-rrkjus_psl.1.0.0.UPF
O 15.99 O.pbe-n-rrkjus_psl.1.0.0.UPF
Pd 106.4 Pd.pbe-n-rrkjus_psl.1.0.0.UPF

CELL_PARAMETERS {angstrom}
6.09904000 0.00000000 0.00000000
0.00000000 8.62534000 0.00000000
0.00000000 0.00000000 26.46900000

ATOMIC_POSITIONS {angstrom}
Li 1.52476000 0.00000000 -1.0780823700000006 0 0 0
Li 4.57428000 4.31267000 -1.0780823700000006 0 0 0
Li 4.57428000 0.00000000 -1.0780823700000006 0 0 0
Li 1.52476000 4.31267000 -1.0780823700000006 0 0 0
Li 4.57428000 6.46900500 -3.2345118 0 0 0
Li 1.52476000 2.15633500 -3.2345118 0 0 0
Li 1.52476000 6.46900500 -3.2345118 0 0 0
Li 4.57428000 2.15633500 -3.2345118 0 0 0
Li 1.54195929 4.35269158 3.46796838
Li 4.55708071 8.58531842 3.46796838
Li 4.55708071 4.35269158 3.46796838
Li 1.54195929 8.58531842 3.46796838
Li 4.49017424 2.15633500 1.04340798
Li 1.49011745 6.46900500 0.94070826
Li 1.60886576 2.15633500 1.04340798
Li 4.60892255 6.46900500 0.94070826
Ge 0.00000000 0.00000000 -3.2345118 0 0 0
Ge 3.04952000 2.15633500 -1.0780823700000006 0 0 0
Ge 3.04952000 6.46900500 -1.0780823700000006 0 0 0
Ge 0.00000000 4.31267000 -3.2345118 0 0 0
Ge 0.00000000 4.31172121 1.12731471
Ge 3.04952000 6.46900500 2.96108703
Ge 3.04952000 2.15633500 3.27871503
Ge 0.00000000 0.00094879 1.12731471
Pd 0.00000000 6.46900500 -1.0780823700000006 0 0 0
Pd 3.04952000 0.00000000 -3.2345118 0 0 0
Pd 0.00000000 2.15633500 -1.0780823700000006 0 0 0
Pd 3.04952000 4.31267000 -3.2345118 0 0 0
Pd 0.00000000 2.15633500 2.94229404
Pd 3.04952000 4.43540859 1.09290501
Pd 0.00000000 6.46900500 2.92217760
Pd 3.04952000 8.50260141 1.09290501
C 3.04952000 2.15633500 5.20248195
O 3.04952000 2.15633500 6.37320582
