&CONTROL
calculation = 'relax'
prefix = 'scf'
pseudo_dir = '/vol0403/data/hp230205/u10028/POT_HYBRID_KKJUS_GBRV'
outdir = './data'
tprnfor = .true.
nstep = 70
disk_io = 'non'
/
&SYSTEM
ibrav = 0
ecutwfc = 50.0
ecutrho = 400
occupations = 'smearing'
smearing = 'mp'
degauss = 0.01
assume_isolated = 'esm'
esm_bc = 'bc1'
input_dft = 'BEEF-VDW'
nosym = .true.
nspin = 1
ntyp = 5
nat = 33
/
&ELECTRONS
electron_maxstep = 200
mixing_beta = 0.1
conv_thr = 1e-06
/
&IONS
ion_dynamics = 'bfgs'
upscale = 1.0
/
&CELL
/

K_POINTS {automatic}
9 6 2 0  0  0

ATOMIC_SPECIES
Al 26.98 Al.pbe-nl-rrkjus_psl.1.0.0.UPF
C 12.01 C.pbe-n-rrkjus_psl.1.0.0.UPF
Cu 63.54 Cu.pbe-dn-rrkjus_psl.1.0.0.UPF
Li 6.941 Li.pbe-sl-rrkjus_psl.1.0.0.UPF
Mg 24.30 Mg.pbe-spnl-rrkjus_psl.1.0.0.UPF


CELL_PARAMETERS {angstrom}
6.19386000 0.00000000 0.00000000
-0.00000000 8.75944000 0.00000000
0.00000000 0.00000000 26.56960000

ATOMIC_POSITIONS {angstrom}
Li 1.54846500 0.00000000 -1.0949332200000015 0 0 0
Li 1.54846500 4.37972000 -1.0949332200000015 0 0 0
Li 4.64539500 2.18986000 -3.28479965 0 0 0
Li 4.64539500 6.56958000 -3.28479965 0 0 0
Li 1.81740240 4.37972000 4.38796944
Li 1.66100744 -0.00000000 4.19108870
Li 4.67692175 6.55863070 1.16295139
Li 4.67698369 2.20080930 1.16295139
Mg 0.00000000 2.18986000 -1.0949332200000015 0 0 0
Mg 0.00000000 6.56958000 -1.0949332200000015 0 0 0
Mg 3.09693000 4.37972000 -3.28479965 0 0 0
Mg 3.09693000 0.00000000 -3.28479965 0 0 0
Mg 0.02403218 6.58359510 3.45643926
Mg 0.02409412 2.17584490 3.45643926
Mg 3.05047605 -0.00000000 1.19589770
Mg 3.03951292 4.37972000 1.15737178
Al 0.00000000 0.00000000 -3.28479965 0 0 0
Al 0.00000000 4.37972000 -3.28479965 0 0 0
Al 3.09693000 6.56958000 -1.0949332200000015 0 0 0
Al 3.09693000 2.18986000 -1.0949332200000015 0 0 0
Al 0.08751924 4.37972000 1.28145181
Al 0.16457086 0.00000000 1.15896595
Al 3.03393844 2.26773142 3.31376051
Al 3.03393844 6.49170858 3.31376051
Cu 4.64539500 0.00000000 -1.0949332200000015 0 0 0
Cu 4.64539500 4.37972000 -1.0949332200000015 0 0 0
Cu 1.54846500 2.18986000 -3.28479965 0 0 0
Cu 1.54846500 6.56958000 -3.28479965 0 0 0
Cu 4.55923841 4.37972000 3.20482515
Cu 4.19708341 -0.00000000 3.53933642
Cu 1.58748632 6.54505357 1.00007974
Cu 1.58748632 2.21447403 1.00007974
C 6.02718323 -0.00000000 3.09748397
