&CONTROL
calculation = 'relax'
prefix = 'scf'
pseudo_dir = '/vol0004/mdt0/data/hp150275/u10028/POT_KKJUS'
outdir = './data'
tprnfor = .true.
nstep = 50
disk_io = 'non'
/
&SYSTEM
ibrav = 0
ecutwfc = 50.0
ecutrho = 400
occupations = 'smearing'
smearing = 'mp'
degauss = 0.01
assume_isolated = 'esm'
esm_bc = 'bc1'
input_dft = 'BEEF-VDW'
nosym = .true.
nspin = 1
ntyp = 4
nat = 33
/
&ELECTRONS
electron_maxstep = 200
mixing_beta = 0.1
conv_thr = 1e-06
/
&IONS
ion_dynamics = 'bfgs'
upscale = 1.0
/
&CELL
/

K_POINTS {automatic}
9 6 2 0  0  0

ATOMIC_SPECIES
C 12.01 C.pbe-n-rrkjus_psl.1.0.0.UPF
Pb 207.2 Pb.pbe-dn-rrkjus_psl.1.0.0.UPF
Pd 106.4 Pd.pbe-n-rrkjus_psl.1.0.0.UPF
Y 88.90 Y.pbe-spn-rrkjus_psl.1.0.0.UPF

CELL_PARAMETERS {angstrom}
6.95998000 0.00000000 0.00000000
0.00000000 9.84289000 0.00000000
0.00000000 0.00000000 27.38220000

ATOMIC_POSITIONS {angstrom}
Y 0.00000000 0.00000000 -3.6911205600000017 0 0 0
Y 3.47999000 2.46072250 -1.230282250000002 0 0 0
Y 3.47999000 7.38216750 -1.230282250000002 0 0 0
Y 0.00000000 4.92144500 -3.6911205600000017 0 0 0
Y 6.91668892 4.95756841 1.22836549
Y 3.51646030 7.38216750 3.65196401
Y 3.83077299 2.46072250 3.67167920
Y 6.91668892 9.80676659 1.22836549
Pd 1.73999500 0.00000000 -1.230282250000002 0 0 0
Pd 5.21998500 4.92144500 -1.230282250000002 0 0 0
Pd 5.21998500 0.00000000 -1.230282250000002 0 0 0
Pd 1.73999500 4.92144500 -1.230282250000002 0 0 0
Pd 5.21998500 7.38216750 -3.6911205600000017 0 0 0
Pd 1.73999500 2.46072250 -3.6911205600000017 0 0 0
Pd 1.73999500 7.38216750 -3.6911205600000017 0 0 0
Pd 5.21998500 2.46072250 -3.6911205600000017 0 0 0
Pd 1.46591099 4.65529325 3.56242422
Pd 5.35417341 9.74820140 3.59555668
Pd 5.35417341 5.01613360 3.59555668
Pd 1.46591099 0.26615175 3.56242422
Pd 5.25680329 2.46072250 1.15169533
Pd 1.79303005 7.38216750 1.33597754
Pd 1.49883169 2.46072250 1.50821158
Pd 5.19291068 7.38216750 1.34118016
Pb 0.00000000 7.38216750 -1.230282250000002 0 0 0
Pb 3.47999000 0.00000000 -3.6911205600000017 0 0 0
Pb 0.00000000 2.46072250 -1.230282250000002 0 0 0
Pb 3.47999000 4.92144500 -3.6911205600000017 0 0 0
Pb 6.73809584 2.46072250 5.02846721
Pb 3.43676852 4.87410070 1.29107073
Pb 0.16467313 7.38216750 3.91702371
Pb 3.43676852 0.04734430 1.29107073
C 1.58952023 2.46072250 3.68920381
