&CONTROL
calculation = 'relax'
prefix = 'scf'
pseudo_dir = '/vol0004/mdt0/data/hp150275/u10028/POT_KKJUS'
outdir = './data'
tprnfor = .true.
nstep = 50
disk_io = 'non'
/
&SYSTEM
ibrav = 0
ecutwfc = 50.0
ecutrho = 400
occupations = 'smearing'
smearing = 'mp'
degauss = 0.01
assume_isolated = 'esm'
esm_bc = 'bc1'
input_dft = 'BEEF-VDW'
nosym = .true.
nspin = 1
ntyp = 4
nat = 34
/
&ELECTRONS
electron_maxstep = 200
mixing_beta = 0.1
conv_thr = 1e-06
/
&IONS
ion_dynamics = 'bfgs'
upscale = 1.0
/
&CELL
/

K_POINTS {automatic}
9 6 2 0  0  0

ATOMIC_SPECIES
Be 9.012 Be.pbe-n-rrkjus_psl.1.0.0.UPF
C 12.01 C.pbe-n-rrkjus_psl.1.0.0.UPF
O 15.99 O.pbe-n-rrkjus_psl.1.0.0.UPF
Ti 47.86 Ti.pbe-spn-rrkjus_psl.1.0.0.UPF

CELL_PARAMETERS {angstrom}
5.87849000 0.00000000 0.00000000
0.00000000 8.31345000 0.00000000
0.00000000 0.00000000 26.23510000

ATOMIC_POSITIONS {angstrom}
Ti 1.46962250 2.07836250 -3.1175169300000007 0 0 0
Ti 1.46962250 0.00000000 -1.0391723099999979 0 0 0
Ti 1.45610197 2.07836250 0.97305986
Ti 1.44963563 0.02070049 3.24501952
Ti 1.46962250 6.23508750 -3.1175169300000007 0 0 0
Ti 1.46962250 4.15672500 -1.0391723099999979 0 0 0
Ti 1.48261396 6.23508750 1.01057605
Ti 1.44963563 4.13602451 3.24501952
Ti 4.40886750 2.07836250 -3.1175169300000007 0 0 0
Ti 4.40886750 0.00000000 -1.0391723099999979 0 0 0
Ti 4.42238803 2.07836250 0.97305986
Ti 4.42885437 0.02078363 3.24528187
Ti 4.40886750 6.23508750 -3.1175169300000007 0 0 0
Ti 4.40886750 4.15672500 -1.0391723099999979 0 0 0
Ti 4.39593482 6.23500437 1.01057605
Ti 4.42885437 4.13594138 3.24501952
Be 0.00000000 0.00000000 -3.1175169300000007 0 0 0
Be 0.00000000 2.07836250 -1.0391723099999979 0 0 0
Be 0.00000000 8.29324832 1.14752327
Be 0.00005878 2.07836250 2.94908759
Be 0.00000000 4.15672500 -3.1175169300000007 0 0 0
Be 0.00000000 6.23508750 -1.0391723099999979 0 0 0
Be 0.00000000 4.17692668 1.14752327
Be 5.87843122 6.23508750 2.97978266
Be 2.93924500 0.00000000 -3.1175169300000007 0 0 0
Be 2.93924500 2.07836250 -1.0391723099999979 0 0 0
Be 2.93924500 0.01770765 1.17743129
Be 2.93918622 2.07836250 2.92993597
Be 2.93924500 4.15672500 -3.1175169300000007 0 0 0
Be 2.93924500 6.23508750 -1.0391723099999979 0 0 0
Be 2.93924500 4.13901735 1.17743129
Be 2.93930378 6.23508750 3.00732951
C 0.00000000 2.07836250 4.56805561
O 5.87843122 2.07836250 5.76070326
