&CONTROL
calculation = 'relax'
prefix = 'scf'
pseudo_dir = '/vol0004/mdt0/data/hp150275/u10028/POT_HYBRID_KKJUS_GBRV'
outdir = './data'
tprnfor = .true.
nstep = 50
disk_io = 'non'
/
&SYSTEM
ibrav = 0
ecutwfc = 50.0
ecutrho = 400
occupations = 'smearing'
smearing = 'mp'
degauss = 0.01
assume_isolated = 'esm'
esm_bc = 'bc1'
input_dft = 'BEEF-VDW'
nosym = .true.
nspin = 2
ntyp = 4
nat = 33
starting_magnetization(1) = 0.0
starting_magnetization(2) = 0.1
starting_magnetization(3) = 0.001
starting_magnetization(4) = 0.0
/
&ELECTRONS
electron_maxstep = 300
mixing_beta = 0.1
conv_thr = 1e-06
/
&IONS
ion_dynamics = 'bfgs'
upscale = 1.0
/
&CELL
/

K_POINTS {automatic}
9 6 2 0  0  0

ATOMIC_SPECIES
C 12.01 C.pbe-n-rrkjus_psl.1.0.0.UPF
Mn 54.93 mn_pbe_v1.5.uspp.F.UPF
Ni 58.69 ni_pbe_v1.4.uspp.F.UPF
Sn 118.7 Sn.pbe-dn-rrkjus_psl.1.0.0.UPF

CELL_PARAMETERS {angstrom}
6.10266000 0.00000000 0.00000000
0.00000000 8.63046000 0.00000000
0.00000000 0.00000000 26.47280000

ATOMIC_POSITIONS {angstrom}
Mn 0.00000000 0.00000000 -3.236299800000001 0 0 0
Mn 3.05133000 2.15761500 -1.078766599999998 0 0 0
Mn 3.05133000 6.47284500 -1.078766599999998 0 0 0
Mn 0.00000000 4.31523000 -3.236299800000001 0 0 0
Mn 6.09344498 4.36459623 1.01179042
Mn 3.09032600 6.47284500 3.22041612
Mn 3.28481777 2.15761500 3.12352567
Mn 6.09344498 8.58109377 1.01179042
Ni 1.52566500 0.00000000 -1.078766599999998 0 0 0
Ni 4.57699500 4.31523000 -1.078766599999998 0 0 0
Ni 4.57699500 0.00000000 -1.078766599999998 0 0 0
Ni 1.52566500 4.31523000 -1.078766599999998 0 0 0
Ni 4.57699500 6.47284500 -3.236299800000001 0 0 0
Ni 1.52566500 2.15761500 -3.236299800000001 0 0 0
Ni 1.52566500 6.47284500 -3.236299800000001 0 0 0
Ni 4.57699500 2.15761500 -3.236299800000001 0 0 0
Ni 1.31439091 4.05838751 3.09890597
Ni 4.71192481 0.02451051 3.04701928
Ni 4.71192481 4.29063319 3.04701928
Ni 1.31439091 0.25684249 3.09917070
Ni 4.74072937 2.15761500 1.13885986
Ni 1.54488838 6.47275870 1.11424015
Ni 1.32616904 2.15770130 1.30855050
Ni 4.58450127 6.47275870 1.12244672
Sn 0.00000000 6.47284500 -1.078766599999998 0 0 0
Sn 3.05133000 0.00000000 -3.236299800000001 0 0 0
Sn 0.00000000 2.15761500 -1.078766599999998 0 0 0
Sn 3.05133000 4.31523000 -3.236299800000001 0 0 0
Sn 5.65216164 2.15752870 4.46887337
Sn 3.02899426 4.27285444 1.07135422
Sn 0.07164523 6.47284500 3.41843266
Sn 3.02899426 0.04237556 1.07135422
C 1.44211958 2.15761500 3.27892101
