&CONTROL
calculation = 'relax'
prefix = 'scf'
pseudo_dir = '/vol0004/mdt0/data/hp150275/u10028/POT_KKJUS'
outdir = './data'
tprnfor = .true.
nstep = 50
disk_io = 'non'
/
&SYSTEM
ibrav = 0
ecutwfc = 50.0
ecutrho = 400
occupations = 'smearing'
smearing = 'mp'
degauss = 0.01
assume_isolated = 'esm'
esm_bc = 'bc1'
input_dft = 'BEEF-VDW'
nosym = .true.
nspin = 1
ntyp = 5
nat = 34
/
&ELECTRONS
electron_maxstep = 200
mixing_beta = 0.1
conv_thr = 1e-06
/
&IONS
ion_dynamics = 'bfgs'
upscale = 1.0
/
&CELL
/

K_POINTS {automatic}
8 6 1 0 0 0

ATOMIC_SPECIES
C 12.01 C.pbe-n-rrkjus_psl.1.0.0.UPF
Ge 72.64 Ge.pbe-dn-rrkjus_psl.1.0.0.UPF
Li 6.941 Li.pbe-sl-rrkjus_psl.1.0.0.UPF
O 15.99 O.pbe-n-rrkjus_psl.1.0.0.UPF
Pd 106.4 Pd.pbe-n-rrkjus_psl.1.0.0.UPF

CELL_PARAMETERS {angstrom}
6.09904000 0.00000000 0.00000000
0.00000000 8.62534000 0.00000000
0.00000000 0.00000000 26.46900000

ATOMIC_POSITIONS {angstrom}
Li 1.52476000 0.00000000 -1.0780823700000006 0 0 0
Li 4.57428000 4.31267000 -1.0780823700000006 0 0 0
Li 4.57428000 0.00000000 -1.0780823700000006 0 0 0
Li 1.52476000 4.31267000 -1.0780823700000006 0 0 0
Li 4.57428000 6.46900500 -3.2345118 0 0 0
Li 1.52476000 2.15633500 -3.2345118 0 0 0
Li 1.52476000 6.46900500 -3.2345118 0 0 0
Li 4.57428000 2.15633500 -3.2345118 0 0 0
Li 1.53500639 4.33440586 3.50846595
Li 4.56403361 8.60369040 3.50846595
Li 4.56409460 4.33423335 3.50846595
Li 1.53500639 8.60360414 3.50846595
Li 4.63075711 2.15633500 0.96056001
Li 1.53421351 6.46900500 0.94811958
Li 1.46828289 2.15633500 0.96056001
Li 4.56482649 6.46900500 0.94811958
Ge 0.00000000 0.00000000 -3.2345118 0 0 0
Ge 3.04952000 2.15633500 -1.0780823700000006 0 0 0
Ge 3.04952000 6.46900500 -1.0780823700000006 0 0 0
Ge 0.00000000 4.31267000 -3.2345118 0 0 0
Ge 6.09897901 4.28446514 1.19428128
Ge 3.04958099 6.46900500 3.01852476
Ge 3.04945901 2.15633500 2.93276520
Ge 0.00000000 0.02811861 1.19428128
Pd 0.00000000 6.46900500 -1.0780823700000006 0 0 0
Pd 3.04952000 0.00000000 -3.2345118 0 0 0
Pd 0.00000000 2.15633500 -1.0780823700000006 0 0 0
Pd 3.04952000 4.31267000 -3.2345118 0 0 0
Pd 0.00006099 2.15633500 3.21677757
Pd 3.04952000 4.29119290 1.18898748
Pd 6.09897901 6.46900500 2.89597329
Pd 3.04952000 0.02147710 1.18898748
C 6.09897901 2.15633500 5.15589651
O 0.00000000 2.15633500 6.31391526
