&CONTROL
calculation = 'relax'
prefix = 'scf'
pseudo_dir = '/vol0403/data/hp230205/u10028/POT_HYBRID_KKJUS_GBRV'
outdir = './data'
tprnfor = .true.
nstep = 50
disk_io = 'non'
/
&SYSTEM
ibrav = 0
ecutwfc = 50.0
ecutrho = 400
occupations = 'smearing'
smearing = 'mp'
degauss = 0.01
assume_isolated = 'esm'
esm_bc = 'bc1'
input_dft = 'BEEF-VDW'
nosym = .true.
nspin = 1
ntyp = 5
nat = 17
/
&ELECTRONS
electron_maxstep = 200
mixing_beta = 0.1
conv_thr = 1e-06
/
&IONS
ion_dynamics = 'bfgs'
upscale = 1.0
/
&CELL
/

K_POINTS {automatic}
8 8 1 0 0 0

ATOMIC_SPECIES
C 12.01 C.pbe-n-rrkjus_psl.1.0.0.UPF
Ga 69.72 Ga.pbe-dnl-rrkjus_psl.1.0.0.UPF
Ge 72.64 Ge.pbe-dn-rrkjus_psl.1.0.0.UPF
Li 6.941 Li.pbe-sl-rrkjus_psl.1.0.0.UPF
Pd 106.4 Pd.pbe-n-rrkjus_psl.1.0.0.UPF


CELL_PARAMETERS {angstrom}
6.27488000 0.00000000 0.00000000
0.00000000 6.27488000 0.00000000
0.00000000 0.00000000 24.70620000

ATOMIC_POSITIONS {angstrom}
Li 4.70616000 1.56872000 -0.7844218499999975 0 0 0
Li 4.75366084 4.64617215 2.73670577
Li 1.52128191 1.62870785 2.73670577
Li 1.56872000 4.70616000 -0.7844218499999975 0 0 0
Ga 0.00000000 0.00000000 -2.35301849 0 0 0
Ga 0.00000000 3.13744000 0.52747737
Ga 3.13744000 0.00000000 0.95316520
Ga 3.13744000 3.13744000 -2.35301849 0 0 0
Ge 0.00000000 3.13744000 -2.35301849 0 0 0
Ge 0.00000000 0.00000000 0.82765770
Ge 3.13744000 3.13744000 0.82642239
Ge 3.13744000 0.00000000 -2.35301849 0 0 0
Pd 1.56872000 1.56872000 -0.7844218499999975 0 0 0
Pd 1.42822544 4.56541444 2.13412156
Pd 4.84665456 1.70946556 2.13412156
Pd 4.70616000 4.70616000 -0.7844218499999975 0 0 0
C 0.00000000 3.13744000 2.63936335
