&CONTROL
calculation = 'relax'
prefix = 'scf'
pseudo_dir = '/vol0403/data/hp230205/u10028/POT_HYBRID_KKJUS_GBRV'
outdir = './data'
tprnfor = .true.
nstep = 50
disk_io = 'non'
/
&SYSTEM
ibrav = 0
ecutwfc = 50.0
ecutrho = 400
occupations = 'smearing'
smearing = 'mp'
degauss = 0.01
assume_isolated = 'esm'
esm_bc = 'bc1'
input_dft = 'BEEF-VDW'
nosym = .true.
nspin = 1
ntyp = 5
nat = 17
/
&ELECTRONS
electron_maxstep = 200
mixing_beta = 0.1
conv_thr = 1e-06
/
&IONS
ion_dynamics = 'bfgs'
upscale = 1.0
/
&CELL
/

K_POINTS {automatic}
11 8 2 0  0  0

ATOMIC_SPECIES
C 12.01 C.pbe-n-rrkjus_psl.1.0.0.UPF
Ga 69.72 Ga.pbe-dnl-rrkjus_psl.1.0.0.UPF
In 114.8 In.pbe-dn-rrkjus_psl.1.0.0.UPF
Li 6.941 Li.pbe-sl-rrkjus_psl.1.0.0.UPF
Sc 44.95 Sc.pbe-spn-rrkjus_psl.1.0.0.UPF


CELL_PARAMETERS {angstrom}
6.04935000 0.00000000 0.00000000
0.00000000 8.37318000 0.00000000
0.00000000 0.00000000 24.52450000

ATOMIC_POSITIONS {angstrom}
Li 4.55352723 2.09329500 0.83236153
Li 1.17526772 2.09329500 -2.2621398799999994 0 0 0
Li 4.57197774 6.27996873 1.22352730
Li 1.17526772 6.27988500 -2.2621398799999994 0 0 0
Sc 1.51536217 2.09337873 0.68251684
Sc 4.19994272 2.09329500 -2.2621398799999994 0 0 0
Sc 1.45583657 6.27988500 0.89489901
Sc 4.19994272 6.27988500 -2.2621398799999994 0 0 0
In 3.10234865 0.14669811 2.42473731
In 5.82461665 0.00000000 -0.7541283800000009 0 0 0
In 3.10228816 4.03997562 2.42498256
In 5.82461665 4.18659000 -0.7541283800000009 0 0 0
Ga 0.04403927 0.13539432 2.36367131
Ga 2.79994165 0.00000000 -0.7541283800000009 0 0 0
Ga 0.04397877 4.05102822 2.36367131
Ga 2.79994165 4.18659000 -0.7541283800000009 0 0 0
C 0.09914885 2.09321127 2.25159434
