&CONTROL
calculation = 'relax'
prefix = 'scf'
pseudo_dir = '/vol0403/data/hp230205/u10028/POT_HYBRID_KKJUS_GBRV'
outdir = './data'
tprnfor = .true.
nstep = 50
disk_io = 'non'
/
&SYSTEM
ibrav = 0
ecutwfc = 50.0
ecutrho = 400
occupations = 'smearing'
smearing = 'mp'
degauss = 0.01
assume_isolated = 'esm'
esm_bc = 'bc1'
input_dft = 'BEEF-VDW'
nosym = .true.
nspin = 1
ntyp = 6
nat = 18
/
&ELECTRONS
electron_maxstep = 200
mixing_beta = 0.1
conv_thr = 1e-06
/
&IONS
ion_dynamics = 'bfgs'
upscale = 1.0
/
&CELL
/

K_POINTS {automatic}
6 6 1 0 0 0

ATOMIC_SPECIES
C 12.01 C.pbe-n-rrkjus_psl.1.0.0.UPF
In 114.8 In.pbe-dn-rrkjus_psl.1.0.0.UPF
Li 6.941 Li.pbe-sl-rrkjus_psl.1.0.0.UPF
O 15.99 O.pbe-n-rrkjus_psl.1.0.0.UPF
Sn 118.7 Sn.pbe-dn-rrkjus_psl.1.0.0.UPF
Y 88.90 Y.pbe-spn-rrkjus_psl.1.0.0.UPF


CELL_PARAMETERS {angstrom}
6.33264000 0.00000000 0.00000000
0.00000000 9.36656000 0.00000000
0.00000000 0.00000000 24.74860000

ATOMIC_POSITIONS {angstrom}
Li 3.16632000 0.00000000 -2.374380679999998 0 0 0
Li 6.05438380 9.36346904 0.74839766
Li 3.16632000 4.68328000 -2.374380679999998 0 0 0
Li 6.05432047 4.68637096 0.74839766
Y 1.55251002 2.34164000 -0.7914602299999984 0 0 0
Y 4.39700526 2.34164000 2.42536280
Y 1.55251002 7.02492000 -0.7914602299999984 0 0 0
Y 4.41252023 7.02492000 2.40284157
In 0.00000000 0.00000000 -2.374380679999998 0 0 0
In 2.73715699 9.36449936 1.07606913
In 0.00000000 4.68328000 -2.374380679999998 0 0 0
In 2.73709366 4.68534064 1.07606913
Sn 4.71883002 2.34164000 -0.7914602299999984 0 0 0
Sn 1.27210072 2.34164000 2.56098513
Sn 4.71883002 7.02492000 -0.7914602299999984 0 0 0
Sn 1.27944659 7.02492000 2.52707955
C 4.54341589 2.34164000 4.94279039
O 4.60750221 2.34164000 6.08617571
