&CONTROL
calculation = 'relax'
prefix = 'scf'
pseudo_dir = '/vol0403/data/hp230205/u10028/POT_HYBRID_KKJUS_GBRV'
outdir = './data'
tprnfor = .true.
nstep = 50
disk_io = 'non'
/
&SYSTEM
ibrav = 0
ecutwfc = 50.0
ecutrho = 400
occupations = 'smearing'
smearing = 'mp'
degauss = 0.01
assume_isolated = 'esm'
esm_bc = 'bc1'
input_dft = 'BEEF-VDW'
nosym = .true.
nspin = 1
ntyp = 5
nat = 17
/
&ELECTRONS
electron_maxstep = 200
mixing_beta = 0.1
conv_thr = 1e-06
/
&IONS
ion_dynamics = 'bfgs'
upscale = 1.0
/
&CELL
/

K_POINTS {automatic}
8 8 1 0 0 0

ATOMIC_SPECIES
Ag 107.8 Ag.pbe-n-rrkjus_psl.1.0.0.UPF
C 12.01 C.pbe-n-rrkjus_psl.1.0.0.UPF
In 114.8 In.pbe-dn-rrkjus_psl.1.0.0.UPF
Li 6.941 Li.pbe-sl-rrkjus_psl.1.0.0.UPF
Mg 24.30 Mg.pbe-spnl-rrkjus_psl.1.0.0.UPF


CELL_PARAMETERS {angstrom}
6.69019000 0.00000000 0.00000000
0.00000000 6.69019000 0.00000000
0.00000000 0.00000000 25.01760000

ATOMIC_POSITIONS {angstrom}
Li 0.00000000 3.34509500 -2.5087649300000017 0 0 0
Li 0.00000000 0.00000000 0.86210650
Li 3.34509500 3.34509500 1.23737050
Li 3.34509500 0.00000000 -2.5087649300000017 0 0 0
Mg 5.01764250 1.67254750 -0.83633837 0 0 0
Mg 5.16328794 5.16328794 2.72741875
Mg 1.52696897 1.52696897 2.72741875
Mg 1.67254750 5.01764250 -0.83633837 0 0 0
In 1.67254750 1.67254750 -0.83633837 0 0 0
In 1.62397672 5.06621328 2.87427206
In 5.06628018 1.62390982 2.87427206
In 5.01764250 5.01764250 -0.83633837 0 0 0
Ag 0.00000000 0.00000000 -2.5087649300000017 0 0 0
Ag 0.00000000 3.34509500 0.93891053
Ag 3.34509500 0.00000000 0.93891053
Ag 3.34509500 3.34509500 -2.5087649300000017 0 0 0
C 0.00000000 0.00000000 3.01161869
