&CONTROL
calculation = 'relax'
prefix = 'scf'
pseudo_dir = '/vol0403/data/hp230205/u10028/POT_HYBRID_KKJUS_GBRV'
outdir = './data'
tprnfor = .true.
nstep = 70
disk_io = 'non'
/
&SYSTEM
ibrav = 0
ecutwfc = 50.0
ecutrho = 400
occupations = 'smearing'
smearing = 'mp'
degauss = 0.01
assume_isolated = 'esm'
esm_bc = 'bc1'
input_dft = 'BEEF-VDW'
nosym = .true.
nspin = 1
ntyp = 6
nat = 34
/
&ELECTRONS
electron_maxstep = 200
mixing_beta = 0.1
conv_thr = 1e-06
/
&IONS
ion_dynamics = 'bfgs'
upscale = 1.0
/
&CELL
/

K_POINTS {automatic}
6 6 1 0 0 0

ATOMIC_SPECIES
C 12.01 C.pbe-n-rrkjus_psl.1.0.0.UPF
Ge 72.64 Ge.pbe-dn-rrkjus_psl.1.0.0.UPF
In 114.8 In.pbe-dn-rrkjus_psl.1.0.0.UPF
O 15.99 O.pbe-n-rrkjus_psl.1.0.0.UPF
Pd 106.4 Pd.pbe-n-rrkjus_psl.1.0.0.UPF
Y 88.90 Y.pbe-spn-rrkjus_psl.1.0.0.UPF


CELL_PARAMETERS {angstrom}
9.45024000 0.00000000 0.00000000
-0.00000000 7.93684000 0.00000000
0.00000000 0.00000000 26.65400000

ATOMIC_POSITIONS {angstrom}
Y 0.00000000 2.04548240 1.08108624
Y 0.00000000 1.98421000 -3.3269522800000004 0 0 0
Y 0.00000000 5.89135760 1.08108624
Y 0.00000000 5.95263000 -3.3269522800000004 0 0 0
Y 4.72512000 1.96841569 1.08375164
Y 4.72512000 1.98421000 -3.3269522800000004 0 0 0
Y 4.72512000 5.96842431 1.08375164
Y 4.72512000 5.95263000 -3.3269522800000004 0 0 0
In 2.39166674 2.18509142 3.50526754
In 2.36256000 1.98421000 -1.1090729400000008 0 0 0
In 2.39166674 5.75182795 3.50526754
In 2.36256000 5.95263000 -1.1090729400000008 0 0 0
In 7.05876227 2.18509142 3.50526754
In 7.08768000 1.98421000 -1.1090729400000008 0 0 0
In 7.05876227 5.75166921 3.50526754
In 7.08768000 5.95263000 -1.1090729400000008 0 0 0
Ge 0.00000000 0.00000000 3.08546704
Ge 0.00000000 0.00000000 -1.1090729400000008 0 0 0
Ge 0.00028351 3.96842000 3.50420138
Ge 0.00000000 3.96842000 -1.1090729400000008 0 0 0
Ge 4.72549801 -0.00000000 3.44716182
Ge 4.72512000 0.00000000 -1.1090729400000008 0 0 0
Ge 4.72521450 3.96842000 3.45489148
Ge 4.72512000 3.96842000 -1.1090729400000008 0 0 0
Pd 2.38486257 -0.00000000 1.50435176
Pd 2.36256000 0.00000000 -3.3269522800000004 0 0 0
Pd 2.38628010 3.96842000 1.10160982
Pd 2.36256000 3.96842000 -3.3269522800000004 0 0 0
Pd 7.06556644 7.93676063 1.50461830
Pd 7.08768000 0.00000000 -3.3269522800000004 0 0 0
Pd 7.06386540 3.96842000 1.10160982
Pd 7.08768000 3.96842000 -3.3269522800000004 0 0 0
C 9.44976749 -0.00000000 5.01015238
O 9.45014550 -0.00000000 6.17093408
