&CONTROL
calculation = 'relax'
prefix = 'scf'
pseudo_dir = '/vol0004/mdt0/data/hp150275/u10028/POT_KKJUS'
outdir = './data'
tprnfor = .true.
nstep = 50
disk_io = 'non'
/
&SYSTEM
ibrav = 0
ecutwfc = 50.0
ecutrho = 400
occupations = 'smearing'
smearing = 'mp'
degauss = 0.01
assume_isolated = 'esm'
esm_bc = 'bc1'
input_dft = 'BEEF-VDW'
nosym = .true.
nspin = 1
ntyp = 3
nat = 33
/
&ELECTRONS
electron_maxstep = 200
mixing_beta = 0.1
conv_thr = 1e-06
/
&IONS
ion_dynamics = 'bfgs'
upscale = 1.0
/
&CELL
/

K_POINTS {automatic}
8 6 1 0 0 0

ATOMIC_SPECIES
C 12.01 C.pbe-n-rrkjus_psl.1.0.0.UPF
Ir 192.2 Ir.pbe-n-rrkjus_psl.0.2.3.UPF
Zr 91.22 Zr.pbe-spn-rrkjus_psl.1.0.0.UPF

CELL_PARAMETERS {angstrom}
6.65024000 0.00000000 0.00000000
0.00000000 9.40485000 0.00000000
0.00000000 0.00000000 27.05360000

ATOMIC_POSITIONS {angstrom}
Zr 1.66256000 2.35121250 -3.526707299999998 0 0 0
Zr 1.66256000 0.00000000 -1.1754789199999998 0 0 0
Zr 1.66422256 2.33945644 1.19495751
Zr 1.68703288 0.00000000 3.63356902
Zr 1.66256000 7.05363750 -3.526707299999998 0 0 0
Zr 1.66256000 4.70242500 -1.1754789199999998 0 0 0
Zr 1.66422256 7.06539356 1.19495751
Zr 1.66635064 4.70242500 3.56809930
Zr 4.98768000 2.35121250 -3.526707299999998 0 0 0
Zr 4.98768000 0.00000000 -1.1754789199999998 0 0 0
Zr 4.98601744 2.33945644 1.19495751
Zr 4.96320712 0.00000000 3.63356902
Zr 4.98768000 7.05363750 -3.526707299999998 0 0 0
Zr 4.98768000 4.70242500 -1.1754789199999998 0 0 0
Zr 4.98601744 7.06539356 1.19495751
Zr 4.98388936 4.70242500 3.56809930
Ir 0.00000000 0.00000000 -3.526707299999998 0 0 0
Ir 0.00000000 2.35121250 -1.1754789199999998 0 0 0
Ir 0.00000000 0.00000000 1.13381638
Ir 0.00000000 2.51890098 3.31271332
Ir 0.00000000 4.70242500 -3.526707299999998 0 0 0
Ir 0.00000000 7.05363750 -1.1754789199999998 0 0 0
Ir 0.00000000 4.70242500 1.24473614
Ir 0.00000000 6.88594902 3.31271332
Ir 3.32512000 0.00000000 -3.526707299999998 0 0 0
Ir 3.32512000 2.35121250 -1.1754789199999998 0 0 0
Ir 3.32512000 0.00000000 1.03425913
Ir 3.32512000 2.39692007 3.27456774
Ir 3.32512000 4.70242500 -3.526707299999998 0 0 0
Ir 3.32512000 7.05363750 -1.1754789199999998 0 0 0
Ir 3.32512000 4.70242500 1.11731368
Ir 3.32512000 7.00792993 3.27456774
C 0.00000000 0.00000000 4.77820683
