&CONTROL
calculation = 'relax'
prefix = 'scf'
pseudo_dir = '/vol0403/data/hp230205/u10028/POT_HYBRID_KKJUS_GBRV'
outdir = './data'
tprnfor = .true.
nstep = 50
disk_io = 'non'
/
&SYSTEM
ibrav = 0
ecutwfc = 50.0
ecutrho = 400
occupations = 'smearing'
smearing = 'mp'
degauss = 0.01
assume_isolated = 'esm'
esm_bc = 'bc1'
input_dft = 'BEEF-VDW'
nosym = .true.
nspin = 1
ntyp = 6
nat = 34
/
&ELECTRONS
electron_maxstep = 200
mixing_beta = 0.1
conv_thr = 1e-06
/
&IONS
ion_dynamics = 'bfgs'
upscale = 1.0
/
&CELL
/

K_POINTS {automatic}
6 6 1 0 0 0

ATOMIC_SPECIES
C 12.01 C.pbe-n-rrkjus_psl.1.0.0.UPF
Ge 72.64 Ge.pbe-dn-rrkjus_psl.1.0.0.UPF
Hf 178.4 Hf.pbe-spn-rrkjus_psl.1.0.0.UPF
Li 6.941 Li.pbe-sl-rrkjus_psl.1.0.0.UPF
O 15.99 O.pbe-n-rrkjus_psl.1.0.0.UPF
Pd 106.4 Pd.pbe-n-rrkjus_psl.1.0.0.UPF


CELL_PARAMETERS {angstrom}
6.42607000 0.00000000 0.00000000
0.00000000 9.08784000 0.00000000
0.00000000 0.00000000 26.81590000

ATOMIC_POSITIONS {angstrom}
Li 1.60651750 0.00000000 -1.1359215200000001 0 0 0
Li 1.60651750 4.54392000 -1.1359215200000001 0 0 0
Li 4.81955250 2.27196000 -3.4080327299999986 0 0 0
Li 4.81955250 6.81588000 -3.4080327299999986 0 0 0
Li 1.31914365 4.71722511 3.72258324
Li 1.31907939 8.91626158 3.72204692
Li 4.70156985 6.81415331 1.04582010
Li 4.81878137 2.27232351 1.05332855
Hf 4.81955250 0.00000000 -1.1359215200000001 0 0 0
Hf 4.81955250 4.54392000 -1.1359215200000001 0 0 0
Hf 1.60651750 2.27196000 -3.4080327299999986 0 0 0
Hf 1.60651750 6.81588000 -3.4080327299999986 0 0 0
Hf 4.30469577 4.29554933 3.30130545
Hf 4.30514560 0.25082438 3.30559599
Hf 1.47883149 6.81715230 1.27697316
Hf 1.70618585 2.26968804 1.28769952
Ge 0.00000000 0.00000000 -3.4080327299999986 0 0 0
Ge 0.00000000 4.54392000 -3.4080327299999986 0 0 0
Ge 3.21303500 6.81588000 -1.1359215200000001 0 0 0
Ge 3.21303500 2.27196000 -1.1359215200000001 0 0 0
Ge 6.32402401 4.47703350 1.36278404
Ge 6.31933298 0.06652299 1.36385667
Ge 2.60840607 2.27314142 3.90654031
Ge 3.18398916 6.81706142 3.57590026
Pd 0.00000000 2.27196000 -1.1359215200000001 0 0 0
Pd 0.00000000 6.81588000 -1.1359215200000001 0 0 0
Pd 3.21303500 4.54392000 -3.4080327299999986 0 0 0
Pd 3.21303500 0.00000000 -3.4080327299999986 0 0 0
Pd 5.88750107 6.81642527 3.18921499
Pd 6.35750383 2.27250527 3.40803273
Pd 3.11690099 8.99169065 0.97931667
Pd 3.11079623 4.63797914 0.97690324
C 5.72877714 2.27196000 5.26771540
O 5.64485267 2.27214176 6.42401700
