&CONTROL
calculation = 'relax'
prefix = 'scf'
pseudo_dir = '/vol0004/mdt0/data/hp150275/u10028/POT_KKJUS'
outdir = './data'
tprnfor = .true.
nstep = 50
disk_io = 'non'
/
&SYSTEM
ibrav = 0
ecutwfc = 50.0
ecutrho = 400
occupations = 'smearing'
smearing = 'mp'
degauss = 0.01
assume_isolated = 'esm'
esm_bc = 'bc1'
input_dft = 'BEEF-VDW'
nosym = .true.
nspin = 1
ntyp = 3
nat = 33
/
&ELECTRONS
electron_maxstep = 200
mixing_beta = 0.1
conv_thr = 1e-06
/
&IONS
ion_dynamics = 'bfgs'
upscale = 1.0
/
&CELL
/

K_POINTS {automatic}
8 6 1 0 0 0

ATOMIC_SPECIES
C 12.01 C.pbe-n-rrkjus_psl.1.0.0.UPF
Ir 192.2 Ir.pbe-n-rrkjus_psl.0.2.3.UPF
Ti 47.86 Ti.pbe-spn-rrkjus_psl.1.0.0.UPF

CELL_PARAMETERS {angstrom}
6.26165000 0.00000000 0.00000000
0.00000000 8.85530000 0.00000000
0.00000000 0.00000000 26.64150000

ATOMIC_POSITIONS {angstrom}
Ti 1.56541250 2.21382500 -3.320862980000001 0 0 0
Ti 1.56541250 0.00000000 -1.1069543199999998 0 0 0
Ti 1.55476770 2.22055503 1.15357695
Ti 1.84818861 0.00000000 3.45993161
Ti 1.56541250 6.64147500 -3.320862980000001 0 0 0
Ti 1.56541250 4.42765000 -1.1069543199999998 0 0 0
Ti 1.55476770 6.63474497 1.15357695
Ti 1.55501816 4.42765000 3.45833312
Ti 4.69623750 2.21382500 -3.320862980000001 0 0 0
Ti 4.69623750 0.00000000 -1.1069543199999998 0 0 0
Ti 4.70688231 2.22055503 1.15357695
Ti 4.41346139 0.00000000 3.45993161
Ti 4.69623750 6.64147500 -3.320862980000001 0 0 0
Ti 4.69623750 4.42765000 -1.1069543199999998 0 0 0
Ti 4.70688231 6.63474497 1.15357695
Ti 4.70663184 4.42765000 3.45833312
Ir 0.00000000 0.00000000 -3.320862980000001 0 0 0
Ir 0.00000000 2.21382500 -1.1069543199999998 0 0 0
Ir 0.00000000 0.00000000 1.02676341
Ir 0.00000000 2.10207111 3.18499133
Ir 0.00000000 4.42765000 -3.320862980000001 0 0 0
Ir 0.00000000 6.64147500 -1.1069543199999998 0 0 0
Ir 0.00000000 4.42765000 1.32248406
Ir 0.00000000 6.75322889 3.18499133
Ir 3.13082500 0.00000000 -3.320862980000001 0 0 0
Ir 3.13082500 2.21382500 -1.1069543199999998 0 0 0
Ir 3.13082500 0.00000000 1.06219661
Ir 3.13082500 2.33346010 3.14955813
Ir 3.13082500 4.42765000 -3.320862980000001 0 0 0
Ir 3.13082500 6.64147500 -1.1069543199999998 0 0 0
Ir 3.13082500 4.42765000 1.06272944
Ir 3.13082500 6.52183990 3.14955813
C 0.00000000 8.85521145 3.98983104
