&CONTROL
calculation = 'relax'
prefix = 'scf'
pseudo_dir = '/vol0004/mdt0/data/hp150275/u10028/POT_HYBRID_KKJUS_GBRV'
outdir = './data'
tprnfor = .true.
nstep = 50
disk_io = 'non'
/
&SYSTEM
ibrav = 0
ecutwfc = 50.0
ecutrho = 400
occupations = 'smearing'
smearing = 'mp'
degauss = 0.01
assume_isolated = 'esm'
esm_bc = 'bc1'
input_dft = 'BEEF-VDW'
nosym = .true.
nspin = 2
ntyp = 5
nat = 34
starting_magnetization(1) = 0.0
starting_magnetization(2) = 0.001
starting_magnetization(3) = 0.0
starting_magnetization(4) = 0.0
starting_magnetization(5) = 0.0
/
&ELECTRONS
electron_maxstep = 300
mixing_beta = 0.1
conv_thr = 1e-06
/
&IONS
ion_dynamics = 'bfgs'
upscale = 1.0
/
&CELL
/

K_POINTS {automatic}
8 6 1 0 0 0

ATOMIC_SPECIES
C 12.01 C.pbe-n-rrkjus_psl.1.0.0.UPF
Ni 58.69 ni_pbe_v1.4.uspp.F.UPF
O 15.99 O.pbe-n-rrkjus_psl.1.0.0.UPF
Sn 118.7 Sn.pbe-dn-rrkjus_psl.1.0.0.UPF
Zr 91.22 Zr.pbe-spn-rrkjus_psl.1.0.0.UPF

CELL_PARAMETERS {angstrom}
6.34024000 0.00000000 0.00000000
0.00000000 8.96645000 0.00000000
0.00000000 0.00000000 26.72480000

ATOMIC_POSITIONS {angstrom}
Zr 0.00000000 0.00000000 -3.362514339999997 0 0 0
Zr 3.17012000 2.24161250 -1.1208381099999976 0 0 0
Zr 3.17012000 6.72483750 -1.1208381099999976 0 0 0
Zr 0.00000000 4.48322500 -3.362514339999997 0 0 0
Zr 0.00000000 4.46547143 1.12538133
Zr 3.17012000 6.72483750 3.37534224
Zr 3.17012000 2.24170216 3.38629941
Zr 0.00000000 0.01775357 1.12564858
Ni 1.58506000 0.00000000 -1.1208381099999976 0 0 0
Ni 4.75518000 4.48322500 -1.1208381099999976 0 0 0
Ni 4.75518000 0.00000000 -1.1208381099999976 0 0 0
Ni 1.58506000 4.48322500 -1.1208381099999976 0 0 0
Ni 4.75518000 6.72483750 -3.362514339999997 0 0 0
Ni 1.58506000 2.24161250 -3.362514339999997 0 0 0
Ni 1.58506000 6.72483750 -3.362514339999997 0 0 0
Ni 4.75518000 2.24161250 -3.362514339999997 0 0 0
Ni 1.64243917 4.48421131 3.21312270
Ni 4.69754722 8.96555336 3.21338995
Ni 4.69780083 4.48421131 3.21312270
Ni 1.64269278 8.96555336 3.21338995
Ni 4.68632499 2.24152284 1.20715922
Ni 1.54422885 6.72492716 1.23040979
Ni 1.65391501 2.24152284 1.20715922
Ni 4.79601115 6.72492716 1.23040979
Sn 0.00000000 6.72483750 -1.1208381099999976 0 0 0
Sn 3.17012000 0.00000000 -3.362514339999997 0 0 0
Sn 0.00000000 2.24161250 -1.1208381099999976 0 0 0
Sn 3.17012000 4.48322500 -3.362514339999997 0 0 0
Sn 0.00000000 2.24152284 3.50228504
Sn 3.17012000 4.50824140 1.07674219
Sn 0.00000000 6.72492716 3.56188134
Sn 3.17012000 8.94143360 1.07674219
C 0.00006340 2.24134351 7.66814686
O 0.00000000 2.24161250 8.80314912
