&CONTROL
calculation = 'relax'
prefix = 'scf'
pseudo_dir = '/vol0403/data/hp230205/u10028/POT_HYBRID_KKJUS_GBRV'
outdir = './data'
tprnfor = .true.
nstep = 50
disk_io = 'non'
/
&SYSTEM
ibrav = 0
ecutwfc = 50.0
ecutrho = 400
occupations = 'smearing'
smearing = 'mp'
degauss = 0.01
assume_isolated = 'esm'
esm_bc = 'bc1'
input_dft = 'BEEF-VDW'
nosym = .true.
nspin = 1
ntyp = 5
nat = 33
/
&ELECTRONS
electron_maxstep = 200
mixing_beta = 0.1
conv_thr = 1e-06
/
&IONS
ion_dynamics = 'bfgs'
upscale = 1.0
/
&CELL
/

K_POINTS {automatic}
7 7 2 0  0  0

ATOMIC_SPECIES
C 12.01 C.pbe-n-rrkjus_psl.1.0.0.UPF
In 114.8 In.pbe-dn-rrkjus_psl.1.0.0.UPF
Li 6.941 Li.pbe-sl-rrkjus_psl.1.0.0.UPF
Sn 118.7 Sn.pbe-dn-rrkjus_psl.1.0.0.UPF
Y 88.90 Y.pbe-spn-rrkjus_psl.1.0.0.UPF


CELL_PARAMETERS {angstrom}
9.36656000 0.00000000 0.00000000
0.00000000 8.86856000 0.00000000
0.00000000 0.00000000 26.78150000

ATOMIC_POSITIONS {angstrom}
Li 0.00000000 2.21714000 1.13017930
Li 0.00000000 2.21714000 -3.390805710000002 0 0 0
Li 0.00000000 6.65142000 1.13017930
Li 0.00000000 6.65142000 -3.390805710000002 0 0 0
Li 4.68328000 2.21714000 1.13017930
Li 4.68328000 2.21714000 -3.390805710000002 0 0 0
Li 4.68328000 6.65142000 1.13017930
Li 4.68328000 6.65142000 -3.390805710000002 0 0 0
Y 2.34164000 2.21714000 3.39080571
Y 2.34164000 2.21714000 -1.1301793000000018 0 0 0
Y 2.34164000 6.65142000 3.39080571
Y 2.34164000 6.65142000 -1.1301793000000018 0 0 0
Y 7.02492000 2.21714000 3.39080571
Y 7.02492000 2.21714000 -1.1301793000000018 0 0 0
Y 7.02492000 6.65142000 3.39080571
Y 7.02492000 6.65142000 -1.1301793000000018 0 0 0
In 0.00000000 0.00000000 3.39080571
In 0.00000000 0.00000000 -1.1301793000000018 0 0 0
In 0.00000000 4.43428000 3.39080571
In 0.00000000 4.43428000 -1.1301793000000018 0 0 0
In 4.68328000 0.00000000 3.39080571
In 4.68328000 0.00000000 -1.1301793000000018 0 0 0
In 4.68328000 4.43428000 3.39080571
In 4.68328000 4.43428000 -1.1301793000000018 0 0 0
Sn 2.34164000 0.00000000 1.13017930
Sn 2.34164000 0.00000000 -3.390805710000002 0 0 0
Sn 2.34164000 4.43428000 1.13017930
Sn 2.34164000 4.43428000 -3.390805710000002 0 0 0
Sn 7.02492000 0.00000000 1.13017930
Sn 7.02492000 0.00000000 -3.390805710000002 0 0 0
Sn 7.02492000 4.43428000 1.13017930
Sn 7.02492000 4.43428000 -3.390805710000002 0 0 0
C 2.34164000 0.00000000 4.19076912
