&CONTROL
calculation = 'relax'
prefix = 'scf'
pseudo_dir = '/vol0403/data/hp230205/u10028/POT_HYBRID_KKJUS_GBRV'
outdir = './data'
tprnfor = .true.
nstep = 70
disk_io = 'non'
/
&SYSTEM
ibrav = 0
ecutwfc = 50.0
ecutrho = 400
occupations = 'smearing'
smearing = 'mp'
degauss = 0.01
assume_isolated = 'esm'
esm_bc = 'bc1'
input_dft = 'BEEF-VDW'
nosym = .true.
nspin = 1
ntyp = 6
nat = 34
/
&ELECTRONS
electron_maxstep = 200
mixing_beta = 0.1
conv_thr = 1e-06
/
&IONS
ion_dynamics = 'bfgs'
upscale = 1.0
/
&CELL
/

K_POINTS {automatic}
7 7 2 0  0  0

ATOMIC_SPECIES
C 12.01 C.pbe-n-rrkjus_psl.1.0.0.UPF
Ga 69.72 Ga.pbe-dnl-rrkjus_psl.1.0.0.UPF
O 15.99 O.pbe-n-rrkjus_psl.1.0.0.UPF
Pd 106.4 Pd.pbe-n-rrkjus_psl.1.0.0.UPF
Sn 118.7 Sn.pbe-dn-rrkjus_psl.1.0.0.UPF
Y 88.90 Y.pbe-spn-rrkjus_psl.1.0.0.UPF


CELL_PARAMETERS {angstrom}
8.54550000 0.00000000 0.00000000
-0.00000000 8.82498000 0.00000000
0.00000000 0.00000000 26.66250000

ATOMIC_POSITIONS {angstrom}
Y 2.13637500 0.00000000 -1.110493120000001 0 0 0
Y 2.22319728 8.76717638 3.43279688
Y 2.13637500 4.41249000 -1.110493120000001 0 0 0
Y 2.22294091 4.47047012 3.43253025
Y 6.40912500 0.00000000 -1.110493120000001 0 0 0
Y 6.32230272 8.76708813 3.43253025
Y 6.40912500 4.41249000 -1.110493120000001 0 0 0
Y 6.32264454 4.47038187 3.43279688
Ga 0.00000000 0.00000000 -3.3312127500000024 0 0 0
Ga 0.00008546 8.50030899 1.11902513
Ga 0.00000000 4.41249000 -3.3312127500000024 0 0 0
Ga 8.54541455 4.73751401 1.11875850
Ga 4.27275000 0.00000000 -3.3312127500000024 0 0 0
Ga 4.27257909 0.34920446 1.05930113
Ga 4.27275000 4.41249000 -3.3312127500000024 0 0 0
Ga 4.27292091 4.06355029 1.05930113
Sn 2.13637500 2.20624500 -3.3312127500000024 0 0 0
Sn 1.76849123 2.20633325 1.16035200
Sn 2.13637500 6.61873500 -3.3312127500000024 0 0 0
Sn 2.45178940 6.61891150 1.12142475
Sn 6.40912500 2.20624500 -3.3312127500000024 0 0 0
Sn 6.77700878 2.20633325 1.16035200
Sn 6.40912500 6.61873500 -3.3312127500000024 0 0 0
Sn 6.09371060 6.61873500 1.12142475
Pd 0.00000000 2.20624500 -1.110493120000001 0 0 0
Pd 0.00000000 2.20527425 3.45999262
Pd 0.00000000 6.61873500 -1.110493120000001 0 0 0
Pd 0.00000000 6.61873500 3.02166113
Pd 4.27275000 2.20624500 -1.110493120000001 0 0 0
Pd 4.27275000 2.20633325 2.98353375
Pd 4.27275000 6.61873500 -1.110493120000001 0 0 0
Pd 4.27275000 6.61873500 3.33814500
C 8.54515818 2.20262676 5.36716125
O 8.54515818 2.20315626 6.53151263
