&CONTROL
calculation = 'relax'
prefix = 'scf'
pseudo_dir = '/vol0004/mdt0/data/hp150275/u10028/POT_KKJUS'
outdir = './data'
tprnfor = .true.
nstep = 50
disk_io = 'non'
/
&SYSTEM
ibrav = 0
ecutwfc = 50.0
ecutrho = 400
occupations = 'smearing'
smearing = 'mp'
degauss = 0.01
assume_isolated = 'esm'
esm_bc = 'bc1'
input_dft = 'BEEF-VDW'
nosym = .true.
nspin = 1
ntyp = 5
nat = 34
/
&ELECTRONS
electron_maxstep = 200
mixing_beta = 0.1
conv_thr = 1e-06
/
&IONS
ion_dynamics = 'bfgs'
upscale = 1.0
/
&CELL
/

K_POINTS {automatic}
8 6 1 0 0 0

ATOMIC_SPECIES
C 12.01 C.pbe-n-rrkjus_psl.1.0.0.UPF
Ni 58.69 Ni.pbe-spn-rrkjus_psl.1.0.0.UPF
O 15.99 O.pbe-n-rrkjus_psl.1.0.0.UPF
Sb 121.7 Sb.pbe-n-rrkjus_psl.1.0.0.UPF
Zr 91.22 Zr.pbe-spn-rrkjus_psl.1.0.0.UPF

CELL_PARAMETERS {angstrom}
6.34847000 0.00000000 0.00000000
0.00000000 8.97809000 0.00000000
0.00000000 0.00000000 26.73360000

ATOMIC_POSITIONS {angstrom}
Zr 0.00000000 0.00000000 -3.3668295799999974 0 0 0
Zr 3.17423500 2.24452250 -1.1222765300000006 0 0 0
Zr 3.17423500 6.73356750 -1.1222765300000006 0 0 0
Zr 0.00000000 4.48904500 -3.3668295799999974 0 0 0
Zr 0.00000000 4.49164865 1.12468255
Zr 3.17423500 6.73374706 3.35640348
Zr 3.17423500 2.24443272 3.33929398
Zr 6.34840652 8.97557613 1.12441522
Ni 1.58711750 0.00000000 -1.1222765300000006 0 0 0
Ni 4.76135250 4.48904500 -1.1222765300000006 0 0 0
Ni 4.76135250 0.00000000 -1.1222765300000006 0 0 0
Ni 1.58711750 4.48904500 -1.1222765300000006 0 0 0
Ni 4.76135250 6.73356750 -3.3668295799999974 0 0 0
Ni 1.58711750 2.24452250 -3.3668295799999974 0 0 0
Ni 1.58711750 6.73356750 -3.3668295799999974 0 0 0
Ni 4.76135250 2.24452250 -3.3668295799999974 0 0 0
Ni 1.72380006 4.49191799 3.16338689
Ni 4.62492388 8.97476811 3.16365422
Ni 4.62466994 4.49191799 3.16338689
Ni 1.72354612 8.97485789 3.16338689
Ni 4.82483720 2.24461228 1.22520089
Ni 1.52064902 6.73365728 1.24979580
Ni 1.52369628 2.24452250 1.22520089
Ni 4.82769401 6.73356750 1.24952846
Sb 0.00000000 6.73356750 -1.1222765300000006 0 0 0
Sb 3.17423500 0.00000000 -3.3668295799999974 0 0 0
Sb 0.00000000 2.24452250 -1.1222765300000006 0 0 0
Sb 3.17423500 4.48904500 -3.3668295799999974 0 0 0
Sb 0.00000000 2.24461228 3.55423212
Sb 3.17423500 4.49066106 1.04047171
Sb 6.34840652 6.73356750 3.58069838
Sb 3.17423500 8.97656372 1.04073905
C 0.00000000 2.24452250 7.50305218
O 6.34840652 2.24452250 8.63842817
