&CONTROL
calculation = 'relax'
prefix = 'scf'
pseudo_dir = '/vol0004/mdt0/data/hp150275/u10028/POT_KKJUS'
outdir = './data'
tprnfor = .true.
nstep = 50
disk_io = 'non'
/
&SYSTEM
ibrav = 0
ecutwfc = 50.0
ecutrho = 400
occupations = 'smearing'
smearing = 'mp'
degauss = 0.01
assume_isolated = 'esm'
esm_bc = 'bc1'
input_dft = 'BEEF-VDW'
nosym = .true.
nspin = 1
ntyp = 4
nat = 34
/
&ELECTRONS
electron_maxstep = 200
mixing_beta = 0.1
conv_thr = 1e-06
/
&IONS
ion_dynamics = 'bfgs'
upscale = 1.0
/
&CELL
/

K_POINTS {automatic}
8 6 1 0 0 0

ATOMIC_SPECIES
Be 9.012 Be.pbe-n-rrkjus_psl.1.0.0.UPF
C 12.01 C.pbe-n-rrkjus_psl.1.0.0.UPF
O 15.99 O.pbe-n-rrkjus_psl.1.0.0.UPF
Pd 106.4 Pd.pbe-n-rrkjus_psl.1.0.0.UPF

CELL_PARAMETERS {angstrom}
5.70199000 0.00000000 0.00000000
0.00000000 8.06383000 0.00000000
0.00000000 0.00000000 26.04790000

ATOMIC_POSITIONS {angstrom}
Be 0.00000000 0.00000000 -3.0239007099999995 0 0 0
Be 0.00000000 2.01595750 -1.0080537299999968 0 0 0
Be 0.00000000 0.00637043 1.07838306
Be 0.00000000 2.01595750 3.07729891
Be 0.00000000 4.03191500 -3.0239007099999995 0 0 0
Be 0.00000000 6.04787250 -1.0080537299999968 0 0 0
Be 0.00000000 4.02546394 1.07838306
Be 0.00000000 6.04787250 2.89939175
Be 2.85099500 0.00000000 -3.0239007099999995 0 0 0
Be 2.85099500 2.01595750 -1.0080537299999968 0 0 0
Be 2.85099500 0.01395043 1.07551779
Be 2.85099500 2.01595750 2.87230193
Be 2.85099500 4.03191500 -3.0239007099999995 0 0 0
Be 2.85099500 6.04787250 -1.0080537299999968 0 0 0
Be 2.85099500 4.01796457 1.07551779
Be 2.85099500 6.04787250 2.91970911
Pd 1.42549750 2.01595750 -3.0239007099999995 0 0 0
Pd 1.42549750 0.00000000 -1.0080537299999968 0 0 0
Pd 1.41426458 2.01595750 1.00049984
Pd 1.42526942 8.01480191 3.00306239
Pd 1.42549750 6.04787250 -3.0239007099999995 0 0 0
Pd 1.42549750 4.03191500 -1.0080537299999968 0 0 0
Pd 1.42920379 6.04787250 0.95309266
Pd 1.42526942 4.08094309 3.00306239
Pd 4.27649250 2.01595750 -3.0239007099999995 0 0 0
Pd 4.27649250 0.00000000 -1.0080537299999968 0 0 0
Pd 4.28772542 2.01595750 1.00049984
Pd 4.27672058 8.01488255 3.00306239
Pd 4.27649250 6.04787250 -3.0239007099999995 0 0 0
Pd 4.27649250 4.03191500 -1.0080537299999968 0 0 0
Pd 4.27278621 6.04787250 0.95309266
Pd 4.27677760 4.08094309 3.00306239
C 0.00000000 2.01595750 4.76702618
O 0.00000000 2.01595750 5.92303198
