&CONTROL
calculation = 'relax'
prefix = 'scf'
pseudo_dir = '/vol0004/mdt0/data/hp150275/u10028/POT_HYBRID_KKJUS_GBRV'
outdir = './data'
tprnfor = .true.
nstep = 50
disk_io = 'non'
/
&SYSTEM
ibrav = 0
ecutwfc = 50.0
ecutrho = 400
occupations = 'smearing'
smearing = 'mp'
degauss = 0.01
assume_isolated = 'esm'
esm_bc = 'bc1'
input_dft = 'BEEF-VDW'
nosym = .true.
nspin = 2
ntyp = 4
nat = 33
starting_magnetization(1) = 0.0
starting_magnetization(2) = 0.1
starting_magnetization(3) = 0.0
starting_magnetization(4) = 0.0
/
&ELECTRONS
electron_maxstep = 200
mixing_beta = 0.1
conv_thr = 1e-06
/
&IONS
ion_dynamics = 'bfgs'
upscale = 1.0
/
&CELL
/

K_POINTS {automatic}
9 6 2 0  0  0

ATOMIC_SPECIES
C 12.01 C.pbe-n-rrkjus_psl.1.0.0.UPF
Co 58.93 co_pbe_v1.2.uspp.F.UPF
Ge 72.64 Ge.pbe-dn-rrkjus_psl.1.0.0.UPF
Zn 65.40 Zn.pbe-dnl-rrkjus_psl.1.0.0.UPF

CELL_PARAMETERS {angstrom}
5.75846000 0.00000000 0.00000000
0.00000000 8.14369000 0.00000000
0.00000000 0.00000000 26.10780000

ATOMIC_POSITIONS {angstrom}
Zn 0.00000000 0.00000000 23.05397063
Zn 2.87923000 2.03592250 25.08985688
Zn 2.87923000 6.10776750 25.08985688
Zn 0.00000000 4.07184500 23.05397063
Zn 0.00005758 4.07176356 1.02159821
Zn 2.87917242 6.04807425 3.19533364
Zn 2.87917242 2.09561575 3.19507256
Zn 0.00000000 0.00008144 0.95528440
Co 1.43961500 0.00000000 25.08985688
Co 4.31884500 4.07184500 25.08985688
Co 4.31884500 0.00000000 25.08985688
Co 1.43961500 4.07184500 25.08985688
Co 4.31884500 6.10776750 23.05397063
Co 1.43961500 2.03592250 23.05397063
Co 1.43961500 6.10776750 23.05397063
Co 4.31884500 2.03592250 23.05397063
Co 1.42441267 4.07184500 2.96010236
Co 4.37671752 0.00000000 3.00866287
Co 4.33404733 4.07184500 2.96010236
Co 1.38174248 0.00000000 3.00866287
Co 4.31510200 2.00644234 0.99261856
Co 1.44335800 6.13732909 0.99261856
Co 1.44335800 2.00644234 0.99261856
Co 4.31510200 6.13732909 0.99261856
Ge 0.00000000 6.10776750 25.08985688
Ge 2.87923000 0.00000000 23.05397063
Ge 0.00000000 2.03592250 25.08985688
Ge 2.87923000 4.07184500 23.05397063
Ge 0.00005758 2.10253788 3.13058630
Ge 2.87917242 4.07176356 1.04196230
Ge 0.00005758 6.04115212 3.13058630
Ge 2.87923000 0.00008144 0.95606764
C 2.87923000 0.00000000 3.94279996
