&CONTROL
calculation = 'relax'
prefix = 'scf'
pseudo_dir = '/vol0403/data/hp230205/u10028/POT_HYBRID_KKJUS_GBRV'
outdir = './data'
tprnfor = .true.
nstep = 50
disk_io = 'non'
/
&SYSTEM
ibrav = 0
ecutwfc = 50.0
ecutrho = 400
occupations = 'smearing'
smearing = 'mp'
degauss = 0.01
assume_isolated = 'esm'
esm_bc = 'bc1'
input_dft = 'BEEF-VDW'
nosym = .true.
nspin = 1
ntyp = 6
nat = 18
/
&ELECTRONS
electron_maxstep = 200
mixing_beta = 0.1
conv_thr = 1e-06
/
&IONS
ion_dynamics = 'bfgs'
upscale = 1.0
/
&CELL
/

K_POINTS {automatic}
8 11 2 0  0  0

ATOMIC_SPECIES
Al 26.98 Al.pbe-nl-rrkjus_psl.1.0.0.UPF
C 12.01 C.pbe-n-rrkjus_psl.1.0.0.UPF
In 114.8 In.pbe-dn-rrkjus_psl.1.0.0.UPF
Li 6.941 Li.pbe-sl-rrkjus_psl.1.0.0.UPF
O 15.99 O.pbe-n-rrkjus_psl.1.0.0.UPF
Sc 44.95 Sc.pbe-spn-rrkjus_psl.1.0.0.UPF


CELL_PARAMETERS {angstrom}
8.37392000 0.00000000 0.00000000
0.00000000 6.08380000 0.00000000
0.00000000 0.00000000 24.56130000

ATOMIC_POSITIONS {angstrom}
Li 0.00000000 3.23676411 2.57402424
Li 0.00000000 6.00562317 -0.7601722399999993 0 0 0
Li 4.18696000 3.21011707 2.51753325
Li 4.18696000 6.00562317 -0.7601722399999993 0 0 0
Sc 2.10679453 1.65601036 0.79357560
Sc 2.09348000 4.44561517 -2.280762320000001 0 0 0
Sc 6.26704173 1.65576701 0.79382122
Sc 6.28044000 4.44561517 -2.280762320000001 0 0 0
Al 8.37383626 0.31508000 2.11890335
Al 0.00000000 2.96372317 -0.7601722399999993 0 0 0
Al 4.18696000 0.29585519 2.14690323
Al 4.18696000 2.96372317 -0.7601722399999993 0 0 0
In 2.09615965 4.68592527 0.98171516
In 2.09348000 1.40371517 -2.280762320000001 0 0 0
In 6.27767661 4.68580360 0.98146955
In 6.28044000 1.40371517 -2.280762320000001 0 0 0
C 0.00008374 3.19496841 4.66934874
O 0.00008374 3.04293425 5.79965977
