&CONTROL
calculation = 'relax'
prefix = 'scf'
pseudo_dir = '/vol0004/mdt0/data/hp150275/u10028/POT_HYBRID_KKJUS_GBRV'
outdir = './data'
tprnfor = .true.
nstep = 50
disk_io = 'non'
/
&SYSTEM
ibrav = 0
ecutwfc = 50.0
ecutrho = 400
occupations = 'smearing'
smearing = 'mp'
degauss = 0.01
assume_isolated = 'esm'
esm_bc = 'bc1'
input_dft = 'BEEF-VDW'
nosym = .true.
nspin = 2
ntyp = 5
nat = 34
starting_magnetization(1) = 0.0
starting_magnetization(2) = 0.0
starting_magnetization(3) = 0.001
starting_magnetization(4) = 0.0
starting_magnetization(5) = 0.0
/
&ELECTRONS
electron_maxstep = 300
mixing_beta = 0.1
conv_thr = 1e-06
/
&IONS
ion_dynamics = 'bfgs'
upscale = 1.0
/
&CELL
/

K_POINTS {automatic}
8 6 1 0 0 0

ATOMIC_SPECIES
C 12.01 C.pbe-n-rrkjus_psl.1.0.0.UPF
Nb 92.90 Nb.pbe-spn-rrkjus_psl.1.0.0.UPF
Ni 58.69 ni_pbe_v1.4.uspp.F.UPF
O 15.99 O.pbe-n-rrkjus_psl.1.0.0.UPF
Sn 118.7 Sn.pbe-dn-rrkjus_psl.1.0.0.UPF

CELL_PARAMETERS {angstrom}
6.22550000 0.00000000 0.00000000
0.00000000 8.80419000 0.00000000
0.00000000 0.00000000 26.60310000

ATOMIC_POSITIONS {angstrom}
Nb 0.00000000 0.00000000 -3.301444710000002 0 0 0
Nb 3.11275000 2.20104750 -1.1005702500000005 0 0 0
Nb 3.11275000 6.60314250 -1.1005702500000005 0 0 0
Nb 0.00000000 4.40209500 -3.301444710000002 0 0 0
Nb 6.22543775 4.39584403 1.13355809
Nb 3.11281225 6.60340663 3.19290406
Nb 3.11281225 2.20087142 3.18598726
Nb 0.00000000 0.00713139 1.13355809
Ni 1.55637500 0.00000000 -1.1005702500000005 0 0 0
Ni 4.66912500 4.40209500 -1.1005702500000005 0 0 0
Ni 4.66912500 0.00000000 -1.1005702500000005 0 0 0
Ni 1.55637500 4.40209500 -1.1005702500000005 0 0 0
Ni 4.66912500 6.60314250 -3.301444710000002 0 0 0
Ni 1.55637500 2.20104750 -3.301444710000002 0 0 0
Ni 1.55637500 6.60314250 -3.301444710000002 0 0 0
Ni 4.66912500 2.20104750 -3.301444710000002 0 0 0
Ni 1.70068209 4.40139066 3.15379751
Ni 4.52525370 0.00088042 3.15353147
Ni 4.52469340 4.40147871 3.15379751
Ni 1.70018405 0.00096846 3.15353147
Ni 4.75223543 2.20113554 1.20884486
Ni 1.40870614 6.60367075 1.26311519
Ni 1.47320232 2.20113554 1.20911090
Ni 4.81679386 6.60367075 1.26284916
Sn 0.00000000 6.60314250 -1.1005702500000005 0 0 0
Sn 3.11275000 0.00000000 -3.301444710000002 0 0 0
Sn 0.00000000 2.20104750 -1.1005702500000005 0 0 0
Sn 3.11275000 4.40209500 -3.301444710000002 0 0 0
Sn 0.00006226 2.20183988 3.61163686
Sn 3.11268775 4.42331310 1.00426703
Sn 0.00018677 6.60331858 3.69011600
Sn 3.11268775 8.78350015 1.00426703
C 6.22537549 2.15878739 7.48478219
O 0.00000000 2.21152449 8.61780821
