&CONTROL
calculation = 'relax'
prefix = 'scf'
pseudo_dir = '/vol0004/mdt0/data/hp150275/u10028/POT_KKJUS'
outdir = './data'
tprnfor = .true.
nstep = 50
disk_io = 'non'
/
&SYSTEM
ibrav = 0
ecutwfc = 50.0
ecutrho = 400
occupations = 'smearing'
smearing = 'mp'
degauss = 0.01
assume_isolated = 'esm'
esm_bc = 'bc1'
input_dft = 'BEEF-VDW'
nosym = .true.
nspin = 1
ntyp = 5
nat = 34
/
&ELECTRONS
electron_maxstep = 200
mixing_beta = 0.1
conv_thr = 1e-06
/
&IONS
ion_dynamics = 'bfgs'
upscale = 1.0
/
&CELL
/

K_POINTS {automatic}
9 6 2 0  0  0

ATOMIC_SPECIES
C 12.01 C.pbe-n-rrkjus_psl.1.0.0.UPF
Ge 72.64 Ge.pbe-dn-rrkjus_psl.1.0.0.UPF
Li 6.941 Li.pbe-sl-rrkjus_psl.1.0.0.UPF
O 15.99 O.pbe-n-rrkjus_psl.1.0.0.UPF
Sn 118.7 Sn.pbe-dn-rrkjus_psl.1.0.0.UPF

CELL_PARAMETERS {angstrom}
6.92564000 0.00000000 0.00000000
0.00000000 9.79433000 0.00000000
0.00000000 0.00000000 27.34580000

ATOMIC_POSITIONS {angstrom}
Li 0.00000000 7.34574750 -1.2242714700000015 0 0 0
Li 3.46282000 0.00000000 -3.6728144 0 0 0
Li 0.00000000 2.44858250 -1.2242714700000015 0 0 0
Li 3.46282000 4.89716500 -3.6728144 0 0 0
Li 1.73141000 0.00000000 -1.2242714700000015 0 0 0
Li 1.73141000 4.89716500 -1.2242714700000015 0 0 0
Li 5.19423000 7.34574750 -3.6728144 0 0 0
Li 5.19423000 2.44858250 -3.6728144 0 0 0
Li 6.55456421 2.68815181 3.57272877
Li 3.63582249 4.90921203 1.02738171
Li 6.53884301 7.13771593 3.62140429
Li 3.22083814 0.01968660 1.16164958
Li 1.79851945 4.91077912 3.36544761
Li 2.81561894 0.01753185 5.04311244
Li 5.58171956 1.53731804 1.13348341
Li 5.59328538 8.28061630 1.13649145
Sn 0.00000000 0.00000000 -3.6728144 0 0 0
Sn 3.46282000 2.44858250 -1.2242714700000015 0 0 0
Sn 3.46282000 7.34574750 -1.2242714700000015 0 0 0
Sn 0.00000000 4.89716500 -3.6728144 0 0 0
Sn 6.81559158 4.90999557 1.15973538
Sn 3.24196134 7.34623722 3.30720105
Sn 3.24424680 2.47218684 3.30993563
Sn 0.72767699 0.00803135 2.99163052
Ge 1.73141000 2.44858250 -3.6728144 0 0 0
Ge 1.73141000 7.34574750 -3.6728144 0 0 0
Ge 5.19423000 4.89716500 -1.2242714700000015 0 0 0
Ge 5.19423000 0.00000000 -1.2242714700000015 0 0 0
Ge 1.42238794 7.61205533 1.06484545
Ge 1.41567007 2.20676049 1.06922078
Ge 4.88195289 0.00891284 3.38404275
Ge 4.97967367 4.90764493 3.40045023
C 3.85654263 0.01949072 6.86680384
O 4.58068755 0.01586681 7.74870589
