&CONTROL
calculation = 'relax'
prefix = 'scf'
pseudo_dir = '/vol0004/mdt0/data/hp150275/u10028/POT_KKJUS'
outdir = './data'
tprnfor = .true.
nstep = 50
disk_io = 'non'
/
&SYSTEM
ibrav = 0
ecutwfc = 50.0
ecutrho = 400
occupations = 'smearing'
smearing = 'mp'
degauss = 0.01
assume_isolated = 'esm'
esm_bc = 'bc1'
input_dft = 'BEEF-VDW'
nosym = .true.
nspin = 1
ntyp = 2
nat = 32
/
&ELECTRONS
electron_maxstep = 200
mixing_beta = 0.1
conv_thr = 1e-06
/
&IONS
ion_dynamics = 'bfgs'
upscale = 1.0
/
&CELL
/

K_POINTS {automatic}
8 6 1 0 0 0

ATOMIC_SPECIES
Al 26.98 Al.pbe-nl-rrkjus_psl.1.0.0.UPF
Rh 102.9 Rh.pbe-spn-rrkjus_psl.1.0.0.UPF

CELL_PARAMETERS {angstrom}
6.00621000 0.00000000 0.00000000
0.00000000 8.49407000 0.00000000
0.00000000 0.00000000 26.37050000

ATOMIC_POSITIONS {angstrom}
Al 0.00000000 0.00000000 -3.1852926900000007 0 0 0
Al 0.00000000 2.12351750 -1.061676330000001 0 0 0
Al 0.00000000 0.00000000 1.08751942
Al 0.00000000 2.12351750 3.25781157
Al 0.00000000 4.24703500 -3.1852926900000007 0 0 0
Al 0.00000000 6.37055250 -1.061676330000001 0 0 0
Al 0.00000000 4.24703500 1.08751942
Al 0.00000000 6.37055250 3.25781157
Al 3.00310500 0.00000000 -3.1852926900000007 0 0 0
Al 3.00310500 2.12351750 -1.061676330000001 0 0 0
Al 3.00310500 0.00000000 1.08778313
Al 3.00310500 2.12351750 3.25781157
Al 3.00310500 4.24703500 -3.1852926900000007 0 0 0
Al 3.00310500 6.37055250 -1.061676330000001 0 0 0
Al 3.00310500 4.24703500 1.08778313
Al 3.00310500 6.37055250 3.25781157
Rh 1.50155250 2.12351750 -3.1852926900000007 0 0 0
Rh 1.50155250 0.00000000 -1.061676330000001 0 0 0
Rh 1.50149244 2.12351750 1.01763760
Rh 1.50149244 4.24703500 3.11356493
Rh 1.50155250 6.37055250 -3.1852926900000007 0 0 0
Rh 1.50155250 4.24703500 -1.061676330000001 0 0 0
Rh 1.50149244 6.37055250 1.01763760
Rh 1.50149244 0.00000000 3.11356493
Rh 4.50465750 2.12351750 -3.1852926900000007 0 0 0
Rh 4.50465750 0.00000000 -1.061676330000001 0 0 0
Rh 4.50471756 2.12351750 1.01763760
Rh 4.50471756 4.24703500 3.11356493
Rh 4.50465750 6.37055250 -3.1852926900000007 0 0 0
Rh 4.50465750 4.24703500 -1.061676330000001 0 0 0
Rh 4.50471756 6.37055250 1.01763760
Rh 4.50471756 0.00000000 3.11356493
