&CONTROL
calculation = 'relax'
prefix = 'scf'
pseudo_dir = '/vol0004/mdt0/data/hp150275/u10028/POT_KKJUS'
outdir = './data'
tprnfor = .true.
nstep = 50
disk_io = 'non'
/
&SYSTEM
ibrav = 0
ecutwfc = 50.0
ecutrho = 400
occupations = 'smearing'
smearing = 'mp'
degauss = 0.01
assume_isolated = 'esm'
esm_bc = 'bc1'
input_dft = 'BEEF-VDW'
nosym = .true.
nspin = 1
ntyp = 4
nat = 33
/
&ELECTRONS
electron_maxstep = 200
mixing_beta = 0.1
conv_thr = 1e-06
/
&IONS
ion_dynamics = 'bfgs'
upscale = 1.0
/
&CELL
/

K_POINTS {automatic}
9 6 2 0  0  0

ATOMIC_SPECIES
C 12.01 C.pbe-n-rrkjus_psl.1.0.0.UPF
Cu 63.54 Cu.pbe-dn-rrkjus_psl.1.0.0.UPF
Ni 58.69 Ni.pbe-spn-rrkjus_psl.1.0.0.UPF
Sn 118.7 Sn.pbe-dn-rrkjus_psl.1.0.0.UPF

CELL_PARAMETERS {angstrom}
6.14873000 0.00000000 0.00000000
0.00000000 8.69561000 0.00000000
0.00000000 0.00000000 26.52170000

ATOMIC_POSITIONS {angstrom}
Cu 1.53718250 0.00000000 -1.086859269999998 0 0 0
Cu 4.61154750 4.34780500 -1.086859269999998 0 0 0
Cu 4.61154750 0.00000000 -1.086859269999998 0 0 0
Cu 1.53718250 4.34780500 -1.086859269999998 0 0 0
Cu 4.61154750 6.52170750 -3.2608430099999985 0 0 0
Cu 1.53718250 2.17390250 -3.2608430099999985 0 0 0
Cu 1.53718250 6.52170750 -3.2608430099999985 0 0 0
Cu 4.61154750 2.17390250 -3.2608430099999985 0 0 0
Cu 1.74255008 4.34763109 3.17199532
Cu 4.94646882 0.00000000 3.19772137
Cu 4.40617992 4.34771804 3.17199532
Cu 1.20226118 0.00008696 3.19772137
Cu 4.79656279 2.17451119 1.34783279
Cu 1.35222870 6.52118576 1.34783279
Cu 1.35216721 2.17442424 1.34783279
Cu 4.79650130 6.52118576 1.34783279
Ni 0.00000000 0.00000000 -3.2608430099999985 0 0 0
Ni 3.07436500 2.17390250 -1.086859269999998 0 0 0
Ni 3.07436500 6.52170750 -1.086859269999998 0 0 0
Ni 0.00000000 4.34780500 -3.2608430099999985 0 0 0
Ni 0.00000000 4.34780500 1.04203759
Ni 3.07430351 6.88744486 3.23750392
Ni 3.07442649 1.80790428 3.23750392
Ni 0.00000000 8.69552304 0.91420300
Sn 0.00000000 6.52170750 -1.086859269999998 0 0 0
Sn 3.07436500 0.00000000 -3.2608430099999985 0 0 0
Sn 0.00000000 2.17390250 -1.086859269999998 0 0 0
Sn 3.07436500 4.34780500 -3.2608430099999985 0 0 0
Sn 6.14866851 2.36668417 3.83318130
Sn 3.07436500 4.34780500 0.97202031
Sn 0.00006149 6.32883887 3.83318130
Sn 3.07436500 0.00008696 0.99456375
C 3.07436500 8.69552304 3.57936863
