&CONTROL
calculation = 'relax'
prefix = 'scf'
pseudo_dir = '/vol0004/mdt0/data/hp150275/u10028/POT_HYBRID_KKJUS_GBRV'
outdir = './data'
tprnfor = .true.
nstep = 50
disk_io = 'non'
/
&SYSTEM
ibrav = 0
ecutwfc = 50.0
ecutrho = 400
occupations = 'smearing'
smearing = 'mp'
degauss = 0.01
assume_isolated = 'esm'
esm_bc = 'bc1'
input_dft = 'BEEF-VDW'
nosym = .true.
nspin = 2
ntyp = 3
nat = 17
starting_magnetization(1) = 0.0
starting_magnetization(2) = 0.1
starting_magnetization(3) = 0.0
/
&ELECTRONS
electron_maxstep = 200
mixing_beta = 0.1
conv_thr = 1e-06
/
&IONS
ion_dynamics = 'bfgs'
upscale = 1.0
/
&CELL
/

K_POINTS {automatic}
6 8 1 0 0 0

ATOMIC_SPECIES
C 12.01 C.pbe-n-rrkjus_psl.1.0.0.UPF
Fe 55.84 fe_pbe_v1.5.uspp.F.UPF
Sn 118.7 Sn.pbe-dn-rrkjus_psl.1.0.0.UPF

CELL_PARAMETERS {angstrom}
7.64708000 0.00000000 0.00000000
-0.00000000 5.40730000 0.00000000
0.00000000 0.00000000 24.05550000

ATOMIC_POSITIONS {angstrom}
Fe 0.00000000 2.70365000 -2.0276380999999972 0 0 0
Fe 1.91177000 4.05547500 -0.6759595499999982 0 0 0
Fe 1.91177000 1.35182500 -0.6759595499999982 0 0 0
Fe 0.00000000 0.00000000 0.67595955
Fe 1.91177000 1.35182500 2.02763809
Fe 1.91177000 4.05547500 2.02763809
Fe 3.82354000 2.70365000 -2.0276380999999972 0 0 0
Fe 5.73531000 4.05547500 -0.6759595499999982 0 0 0
Fe 5.73531000 1.35182500 -0.6759595499999982 0 0 0
Fe 3.82354000 -0.00000000 0.67595955
Fe 5.73531000 1.35182500 2.02763809
Fe 5.73531000 4.05547500 2.02763809
Sn 0.00000000 0.00000000 -2.0276380999999972 0 0 0
Sn 0.00000000 2.70365000 0.67595955
Sn 3.82354000 0.00000000 -2.0276380999999972 0 0 0
Sn 3.82354000 2.70365000 0.67595955
C 0.00000000 0.00000000 2.82772402
