&CONTROL
calculation = 'relax'
prefix = 'scf'
pseudo_dir = '/vol0004/mdt0/data/hp150275/u10028/POT_HYBRID_KKJUS_GBRV'
outdir = './data'
tprnfor = .true.
nstep = 50
disk_io = 'non'
/
&SYSTEM
ibrav = 0
ecutwfc = 50.0
ecutrho = 400
occupations = 'smearing'
smearing = 'mp'
degauss = 0.01
assume_isolated = 'esm'
esm_bc = 'bc1'
input_dft = 'BEEF-VDW'
nosym = .true.
nspin = 2
ntyp = 4
nat = 34
starting_magnetization(1) = 0.1
starting_magnetization(2) = 0.1
starting_magnetization(3) = 0.1
starting_magnetization(4) = 0.1
/
&ELECTRONS
electron_maxstep = 200
mixing_beta = 0.1
conv_thr = 1e-06
/
&IONS
ion_dynamics = 'bfgs'
upscale = 1.0
/
&CELL
/

K_POINTS {automatic}
8 6 1 0 0 0

ATOMIC_SPECIES
C 12.01 C.pbe-n-rrkjus_psl.1.0.0.UPF
Co 58.93 co_pbe_v1.2.uspp.F.UPF
O 15.99 O.pbe-n-rrkjus_psl.1.0.0.UPF
Sc 44.95 Sc.pbe-spn-rrkjus_psl.1.0.0.UPF

CELL_PARAMETERS {angstrom}
6.24301000 0.00000000 0.00000000
0.00000000 8.82895000 0.00000000
0.00000000 0.00000000 26.62170000

ATOMIC_POSITIONS {angstrom}
Sc 1.56075250 2.20723750 -3.31094083 0 0 0
Sc 1.56075250 0.00000000 -1.1037356799999998 0 0 0
Sc 1.57348824 2.20723750 1.11039111
Sc 1.55844259 0.00335500 3.34954229
Sc 1.56075250 6.62171250 -3.31094083 0 0 0
Sc 1.56075250 4.41447500 -1.1037356799999998 0 0 0
Sc 1.56069007 6.62171250 1.12716278
Sc 1.55844259 4.41112000 3.34954229
Sc 4.68225750 2.20723750 -3.31094083 0 0 0
Sc 4.68225750 0.00000000 -1.1037356799999998 0 0 0
Sc 4.66952176 2.20723750 1.11039111
Sc 4.68456741 0.00335500 3.34954229
Sc 4.68225750 6.62171250 -3.31094083 0 0 0
Sc 4.68225750 4.41447500 -1.1037356799999998 0 0 0
Sc 4.68231993 6.62171250 1.12716278
Sc 4.68456741 4.41112000 3.34954229
Co 0.00000000 0.00000000 -3.31094083 0 0 0
Co 0.00000000 2.20723750 -1.1037356799999998 0 0 0
Co 0.00000000 0.01289027 1.14340202
Co 0.00000000 2.20723750 3.40890869
Co 0.00000000 4.41447500 -3.31094083 0 0 0
Co 0.00000000 6.62171250 -1.1037356799999998 0 0 0
Co 0.00000000 4.40158473 1.14340202
Co 0.00006243 6.62171250 3.24145819
Co 3.12150500 0.00000000 -3.31094083 0 0 0
Co 3.12150500 2.20723750 -1.1037356799999998 0 0 0
Co 3.12150500 8.82824368 1.13381820
Co 3.12150500 2.20723750 3.22335544
Co 3.12150500 4.41447500 -3.31094083 0 0 0
Co 3.12150500 6.62171250 -1.1037356799999998 0 0 0
Co 3.12150500 4.41518132 1.13381820
Co 3.12144257 6.62171250 3.25157444
C 0.00000000 2.20723750 5.12228130
O 0.00000000 2.20723750 6.29070771
