&CONTROL
calculation = 'relax'
prefix = 'scf'
pseudo_dir = '/vol0004/mdt0/data/hp150275/u10028/POT_KKJUS'
outdir = './data'
tprnfor = .true.
nstep = 50
disk_io = 'non'
/
&SYSTEM
ibrav = 0
ecutwfc = 50.0
ecutrho = 400
occupations = 'smearing'
smearing = 'mp'
degauss = 0.01
assume_isolated = 'esm'
esm_bc = 'bc1'
input_dft = 'BEEF-VDW'
nosym = .true.
nspin = 1
ntyp = 3
nat = 33
/
&ELECTRONS
electron_maxstep = 200
mixing_beta = 0.1
conv_thr = 1e-06
/
&IONS
ion_dynamics = 'bfgs'
upscale = 1.0
/
&CELL
/

K_POINTS {automatic}
9 6 2 0  0  0

ATOMIC_SPECIES
C 12.01 C.pbe-n-rrkjus_psl.1.0.0.UPF
Cu 63.54 Cu.pbe-dn-rrkjus_psl.1.0.0.UPF
Y 88.90 Y.pbe-spn-rrkjus_psl.1.0.0.UPF

CELL_PARAMETERS {angstrom}
6.99068000 0.00000000 0.00000000
0.00000000 9.88632000 0.00000000
0.00000000 0.00000000 27.41470000

ATOMIC_POSITIONS {angstrom}
Y 0.00000000 0.00000000 -3.707289880000001 0 0 0
Y 0.00000000 2.47158000 -1.2358546799999992 0 0 0
Y 6.97935510 9.84845539 1.18458919
Y 0.04830560 2.53771948 3.70125865
Y 0.00000000 4.94316000 -3.707289880000001 0 0 0
Y 0.00000000 7.41474000 -1.2358546799999992 0 0 0
Y 0.03823902 4.92862711 1.29178066
Y 6.97124591 7.54583260 3.79392033
Y 3.49534000 0.00000000 -3.707289880000001 0 0 0
Y 3.49534000 2.47158000 -1.2358546799999992 0 0 0
Y 3.50666490 9.84845539 1.18458919
Y 3.44710431 2.53771948 3.70125865
Y 3.49534000 4.94316000 -3.707289880000001 0 0 0
Y 3.49534000 7.41474000 -1.2358546799999992 0 0 0
Y 3.45710098 4.92852825 1.29178066
Y 3.51484400 7.54583260 3.79392033
Cu 1.74767000 2.47158000 -3.707289880000001 0 0 0
Cu 1.74767000 0.00000000 -1.2358546799999992 0 0 0
Cu 1.74767000 2.28285015 1.11385926
Cu 1.74767000 5.28166760 3.68892203
Cu 1.74767000 7.41474000 -3.707289880000001 0 0 0
Cu 1.74767000 4.94316000 -1.2358546799999992 0 0 0
Cu 1.74767000 7.42502177 1.43488540
Cu 1.74767000 0.01690561 3.46412149
Cu 5.24301000 2.47158000 -3.707289880000001 0 0 0
Cu 5.24301000 0.00000000 -1.2358546799999992 0 0 0
Cu 5.24301000 2.41987455 1.30164996
Cu 5.24307991 5.06387197 3.58748764
Cu 5.24301000 7.41474000 -3.707289880000001 0 0 0
Cu 5.24301000 4.94316000 -1.2358546799999992 0 0 0
Cu 5.24307991 7.42680131 1.40719655
Cu 5.24301000 0.05803270 3.42546676
C 1.74773991 3.63223397 2.57506277
