&CONTROL
calculation = 'relax'
prefix = 'scf'
pseudo_dir = '/vol0403/data/hp230205/u10028/POT_HYBRID_KKJUS_GBRV'
outdir = './data'
tprnfor = .true.
nstep = 50
disk_io = 'non'
/
&SYSTEM
ibrav = 0
ecutwfc = 50.0
ecutrho = 400
occupations = 'smearing'
smearing = 'mp'
degauss = 0.01
assume_isolated = 'esm'
esm_bc = 'bc1'
input_dft = 'BEEF-VDW'
nosym = .true.
nspin = 2
ntyp = 6
nat = 34
starting_magnetization(1) = 0.0
starting_magnetization(2) = 0.0
starting_magnetization(3) = 0.0
starting_magnetization(4) = 0.1
starting_magnetization(5) = 0.0
starting_magnetization(6) = 0.0
/
&ELECTRONS
electron_maxstep = 200
mixing_beta = 0.1
conv_thr = 1e-06
/
&IONS
ion_dynamics = 'bfgs'
upscale = 1.0
/
&CELL
/

K_POINTS {automatic}
9 6 2 0  0  0

ATOMIC_SPECIES
C 12.01 C.pbe-n-rrkjus_psl.1.0.0.UPF
Ge 72.64 Ge.pbe-dn-rrkjus_psl.1.0.0.UPF
Li 6.941 Li.pbe-sl-rrkjus_psl.1.0.0.UPF
Mn 54.93 mn_pbe_v1.5.uspp.F.UPF
O 15.99 O.pbe-n-rrkjus_psl.1.0.0.UPF
Pd 106.4 Pd.pbe-n-rrkjus_psl.1.0.0.UPF


CELL_PARAMETERS {angstrom}
6.14713000 0.00000000 0.00000000
0.00000000 8.69336000 0.00000000
0.00000000 0.00000000 26.52000000

ATOMIC_POSITIONS {angstrom}
Li 0.00000000 2.17334000 25.43321040
Li 0.00000000 6.52002000 25.43321040
Li 3.07356500 4.34668000 23.25989640
Li 3.07356500 0.00000000 23.25989640
Li 6.06033252 6.43778081 3.68150640
Li 6.06020958 2.25557919 3.68150640
Li 3.15667420 0.00000000 1.08360720
Li 3.04965266 4.34668000 0.94119480
Mn 1.53678250 0.00000000 25.43321040
Mn 1.53678250 4.34668000 25.43321040
Mn 4.61034750 2.17334000 23.25989640
Mn 4.61034750 6.52002000 23.25989640
Mn 1.68923132 4.34668000 3.17020080
Mn 1.62800591 0.00000000 3.16940520
Mn 4.63837841 6.52488828 1.21196400
Mn 4.63843988 2.16838478 1.21196400
Ge 0.00000000 0.00000000 23.25989640
Ge 0.00000000 4.34668000 23.25989640
Ge 3.07356500 6.52002000 25.43321040
Ge 3.07356500 2.17334000 25.43321040
Ge 0.03313303 4.34668000 1.10190600
Ge 6.13206953 0.00000000 1.09103280
Ge 3.02401913 2.16221250 3.35981880
Ge 3.02401913 6.53106057 3.35981880
Pd 4.61034750 0.00000000 25.43321040
Pd 4.61034750 4.34668000 25.43321040
Pd 1.53678250 2.17334000 23.25989640
Pd 1.53678250 6.52002000 23.25989640
Pd 4.47947510 4.34668000 3.02619720
Pd 4.70771804 0.00000000 3.42214080
Pd 1.50162092 6.55009903 1.14460320
Pd 1.50155945 2.14326097 1.14460320
C 5.30060873 0.00000000 5.27933640
O 5.41174884 0.00000000 6.42977400
