&CONTROL
calculation = 'relax'
prefix = 'scf'
pseudo_dir = '/vol0004/mdt0/data/hp150275/u10028/POT_HYBRID_KKJUS_GBRV'
outdir = './data'
tprnfor = .true.
nstep = 50
disk_io = 'non'
/
&SYSTEM
ibrav = 0
ecutwfc = 50.0
ecutrho = 400
occupations = 'smearing'
smearing = 'mp'
degauss = 0.01
assume_isolated = 'esm'
esm_bc = 'bc1'
input_dft = 'BEEF-VDW'
nosym = .true.
nspin = 2
ntyp = 5
nat = 34
starting_magnetization(1) = 0.0
starting_magnetization(2) = 0.1
starting_magnetization(3) = 0.0
starting_magnetization(4) = 0.0
starting_magnetization(5) = 0.0
/
&ELECTRONS
electron_maxstep = 200
mixing_beta = 0.1
conv_thr = 1e-06
/
&IONS
ion_dynamics = 'bfgs'
upscale = 1.0
/
&CELL
/

K_POINTS {automatic}
9 6 2 0  0  0

ATOMIC_SPECIES
C 12.01 C.pbe-n-rrkjus_psl.1.0.0.UPF
Co 58.93 co_pbe_v1.2.uspp.F.UPF
Ge 72.64 Ge.pbe-dn-rrkjus_psl.1.0.0.UPF
O 15.99 O.pbe-n-rrkjus_psl.1.0.0.UPF
Zn 65.40 Zn.pbe-dnl-rrkjus_psl.1.0.0.UPF

CELL_PARAMETERS {angstrom}
5.75846000 0.00000000 0.00000000
0.00000000 8.14369000 0.00000000
0.00000000 0.00000000 26.10780000

ATOMIC_POSITIONS {angstrom}
Zn 0.00000000 0.00000000 23.05397063
Zn 2.87923000 2.03592250 25.08985688
Zn 2.87923000 6.10776750 25.08985688
Zn 0.00000000 4.07184500 23.05397063
Zn 0.00005758 4.06769172 0.94066403
Zn 2.87923000 6.10784894 3.39949664
Zn 2.87917242 2.03584106 3.22248575
Zn 0.00005758 0.00415328 0.94066403
Co 1.43961500 0.00000000 25.08985688
Co 4.31884500 4.07184500 25.08985688
Co 4.31884500 0.00000000 25.08985688
Co 1.43961500 4.07184500 25.08985688
Co 4.31884500 6.10776750 23.05397063
Co 1.43961500 2.03592250 23.05397063
Co 1.43961500 6.10776750 23.05397063
Co 4.31884500 2.03592250 23.05397063
Co 1.38203040 4.10515269 2.89796580
Co 4.37619926 8.11046374 2.89822688
Co 4.37642960 4.10523413 2.89796580
Co 1.38226074 8.11046374 2.89822688
Co 4.29316227 2.03584106 1.03935152
Co 1.44485520 6.10793037 1.01193833
Co 1.46529773 2.03575963 1.03909044
Co 4.31360480 6.10793037 1.01193833
Ge 0.00000000 6.10776750 25.08985688
Ge 2.87923000 0.00000000 23.05397063
Ge 0.00000000 2.03592250 25.08985688
Ge 2.87923000 4.07184500 23.05397063
Ge 0.00005758 2.03559675 3.09455753
Ge 2.87911483 4.09440302 1.01533234
Ge 0.00005758 6.10793037 3.15564979
Ge 2.87911483 8.12121342 1.01533234
C 2.87923000 2.03559675 5.24453486
O 2.87923000 2.03600394 6.38570680
