&CONTROL
calculation = 'relax'
prefix = 'scf'
pseudo_dir = '/vol0004/mdt0/data/hp150275/u10028/POT_KKJUS'
outdir = './data'
tprnfor = .true.
nstep = 50
disk_io = 'non'
/
&SYSTEM
ibrav = 0
ecutwfc = 50.0
ecutrho = 400
occupations = 'smearing'
smearing = 'mp'
degauss = 0.01
assume_isolated = 'esm'
esm_bc = 'bc1'
input_dft = 'BEEF-VDW'
nosym = .true.
nspin = 1
ntyp = 4
nat = 17
/
&ELECTRONS
electron_maxstep = 200
mixing_beta = 0.1
conv_thr = 1e-06
/
&IONS
ion_dynamics = 'bfgs'
upscale = 1.0
/
&CELL
/

K_POINTS {automatic}
10 10 2 0  0  0

ATOMIC_SPECIES
C 12.01 C.pbe-n-rrkjus_psl.1.0.0.UPF
Ga 69.72 Ga.pbe-dnl-rrkjus_psl.1.0.0.UPF
Li 6.941 Li.pbe-sl-rrkjus_psl.1.0.0.UPF
Rh 102.9 Rh.pbe-spn-rrkjus_psl.1.0.0.UPF

CELL_PARAMETERS {angstrom}
6.03399000 0.00000000 0.00000000
0.00000000 6.03399000 0.00000000
0.00000000 0.00000000 24.52550000

ATOMIC_POSITIONS {angstrom}
Li 0.00000000 0.00000000 -0.7541591300000015 0 0 0
Li 2.97825678 5.99169173 2.70663418
Li 0.04036739 3.05784511 2.70663418
Li 3.01699500 3.01699500 -0.7541591300000015 0 0 0
Li 1.50849750 1.50849750 -2.2627226300000025 0 0 0
Li 1.51525557 4.51885511 0.85250638
Li 4.52549250 4.52549250 -2.2627226300000025 0 0 0
Li 4.52597522 1.50789410 0.59278134
Ga 1.51272129 1.51193687 0.81571813
Ga 1.50849750 4.52549250 -2.2627226300000025 0 0 0
Ga 4.52313924 4.52187211 0.81154880
Ga 4.52549250 1.50849750 -2.2627226300000025 0 0 0
Rh 5.78315704 0.25203976 2.23991391
Rh 3.27543079 2.75699037 2.24923361
Rh 3.01699500 0.00000000 -0.7541591300000015 0 0 0
Rh 0.00000000 3.01699500 -0.7541591300000015 0 0 0
C 4.53068173 1.50282555 2.75028957
