&CONTROL
calculation = 'relax'
prefix = 'scf'
pseudo_dir = '/vol0004/mdt0/data/hp150275/u10028/POT_KKJUS'
outdir = './data'
tprnfor = .true.
nstep = 50
disk_io = 'non'
/
&SYSTEM
ibrav = 0
ecutwfc = 50.0
ecutrho = 400
occupations = 'smearing'
smearing = 'mp'
degauss = 0.01
assume_isolated = 'esm'
esm_bc = 'bc1'
input_dft = 'BEEF-VDW'
nosym = .true.
nspin = 1
ntyp = 3
nat = 33
/
&ELECTRONS
electron_maxstep = 200
mixing_beta = 0.1
conv_thr = 1e-06
/
&IONS
ion_dynamics = 'bfgs'
upscale = 1.0
/
&CELL
/

K_POINTS {automatic}
9 6 2 0  0  0

ATOMIC_SPECIES
C 12.01 C.pbe-n-rrkjus_psl.1.0.0.UPF
Ga 69.72 Ga.pbe-dnl-rrkjus_psl.1.0.0.UPF
Ru 101.0 Ru.pbe-spn-rrkjus_psl.1.0.0.UPF

CELL_PARAMETERS {angstrom}
6.07363000 0.00000000 0.00000000
0.00000000 8.58941000 0.00000000
0.00000000 0.00000000 26.44210000

ATOMIC_POSITIONS {angstrom}
Ga 0.00000000 0.00000000 -3.220912200000001 0 0 0
Ga 0.00000000 2.14735250 -1.07354926 0 0 0
Ga 0.02119697 8.58812159 1.07725115
Ga 5.76697242 2.14743839 3.20002294
Ga 0.00000000 4.29470500 -3.220912200000001 0 0 0
Ga 0.00000000 6.44205750 -1.07354926 0 0 0
Ga 0.02119697 4.29616520 1.07672231
Ga 0.08642775 6.44179982 3.32747386
Ga 3.03681500 0.00000000 -3.220912200000001 0 0 0
Ga 3.03681500 2.14735250 -1.07354926 0 0 0
Ga 3.01258122 8.58803569 1.07751558
Ga 3.33630570 2.14735250 3.20028736
Ga 3.03681500 4.29470500 -3.220912200000001 0 0 0
Ga 3.03681500 6.44205750 -1.07354926 0 0 0
Ga 3.01258122 4.29625109 1.07698673
Ga 2.94814000 6.44179982 3.32773828
Ru 1.51840750 2.14735250 -3.220912200000001 0 0 0
Ru 1.51840750 0.00000000 -1.07354926 0 0 0
Ru 1.51786087 2.14726661 1.03811685
Ru 1.51609952 0.29229762 3.32535850
Ru 1.51840750 6.44205750 -3.220912200000001 0 0 0
Ru 1.51840750 4.29470500 -1.07354926 0 0 0
Ru 1.51780014 6.44222929 1.11400567
Ru 1.51609952 4.00249327 3.32482965
Ru 4.55522250 2.14735250 -3.220912200000001 0 0 0
Ru 4.55522250 0.00000000 -1.07354926 0 0 0
Ru 4.55443293 2.14726661 0.96592991
Ru 4.55352188 8.45129229 3.13100906
Ru 4.55522250 6.44205750 -3.220912200000001 0 0 0
Ru 4.55522250 4.29470500 -1.07354926 0 0 0
Ru 4.55497955 6.44231518 0.99210759
Ru 4.55352188 4.43265092 3.13021580
C 1.51348786 2.14735250 3.97133900
