&CONTROL
calculation = 'relax'
prefix = 'scf'
pseudo_dir = '/vol0004/mdt0/data/hp150275/u10028/POT_KKJUS'
outdir = './data'
tprnfor = .true.
nstep = 50
disk_io = 'non'
/
&SYSTEM
ibrav = 0
ecutwfc = 50.0
ecutrho = 400
occupations = 'smearing'
smearing = 'mp'
degauss = 0.01
assume_isolated = 'esm'
esm_bc = 'bc1'
input_dft = 'BEEF-VDW'
nosym = .true.
nspin = 1
ntyp = 5
nat = 18
/
&ELECTRONS
electron_maxstep = 200
mixing_beta = 0.1
conv_thr = 1e-06
/
&IONS
ion_dynamics = 'bfgs'
upscale = 1.0
/
&CELL
/

K_POINTS {automatic}
9 9 2 0  0  0

ATOMIC_SPECIES
Au 196.9 Au.pbe-n-rrkjus_psl.1.0.0.UPF
C 12.01 C.pbe-n-rrkjus_psl.1.0.0.UPF
Ga 69.72 Ga.pbe-dnl-rrkjus_psl.1.0.0.UPF
Li 6.941 Li.pbe-sl-rrkjus_psl.1.0.0.UPF
O 15.99 O.pbe-n-rrkjus_psl.1.0.0.UPF

CELL_PARAMETERS {angstrom}
6.29417000 0.00000000 0.00000000
0.00000000 6.29417000 0.00000000
0.00000000 0.00000000 24.72060000

ATOMIC_POSITIONS {angstrom}
Li 6.29398117 0.00006294 0.79105920
Li 3.14708500 0.00000000 -2.3603228900000026 0 0 0
Li 0.00000000 3.14708500 -2.3603228900000026 0 0 0
Li 3.14513381 3.14500792 0.82616245
Li 1.55711472 1.55711472 2.73657042
Li 1.57354250 4.72062750 -0.7868567000000013 0 0 0
Li 4.74599301 4.74599301 2.71110820
Li 4.72062750 1.57354250 -0.7868567000000013 0 0 0
Ga 0.00000000 0.00000000 -2.3603228900000026 0 0 0
Ga 3.14708500 3.14708500 -2.3603228900000026 0 0 0
Ga 3.14991738 6.27856046 0.79600332
Ga 6.27843458 3.14979149 0.79600332
Au 1.57354250 1.57354250 -0.7868567000000013 0 0 0
Au 1.55692589 4.72276752 2.22040429
Au 4.72062750 4.72062750 -0.7868567000000013 0 0 0
Au 4.72276752 1.55692589 2.22065150
C 1.56340889 1.56340889 4.85982275
O 1.56435301 1.56429007 5.99870080
