&CONTROL
calculation = 'relax'
prefix = 'scf'
pseudo_dir = '/vol0403/data/hp230205/u10028/POT_HYBRID_KKJUS_GBRV'
outdir = './data'
tprnfor = .true.
nstep = 50
disk_io = 'non'
/
&SYSTEM
ibrav = 0
ecutwfc = 50.0
ecutrho = 400
occupations = 'smearing'
smearing = 'mp'
degauss = 0.01
assume_isolated = 'esm'
esm_bc = 'bc1'
input_dft = 'BEEF-VDW'
nosym = .true.
nspin = 1
ntyp = 5
nat = 33
/
&ELECTRONS
electron_maxstep = 200
mixing_beta = 0.1
conv_thr = 1e-06
/
&IONS
ion_dynamics = 'bfgs'
upscale = 1.0
/
&CELL
/

K_POINTS {automatic}
6 6 1 0 0 0

ATOMIC_SPECIES
C 12.01 C.pbe-n-rrkjus_psl.1.0.0.UPF
Ga 69.72 Ga.pbe-dnl-rrkjus_psl.1.0.0.UPF
Ge 72.64 Ge.pbe-dn-rrkjus_psl.1.0.0.UPF
Pd 106.4 Pd.pbe-n-rrkjus_psl.1.0.0.UPF
Sc 44.95 Sc.pbe-spn-rrkjus_psl.1.0.0.UPF


CELL_PARAMETERS {angstrom}
7.83718000 0.00000000 0.00000000
0.00000000 8.08666000 0.00000000
0.00000000 0.00000000 26.43810000

ATOMIC_POSITIONS {angstrom}
Sc 7.83475047 2.01430614 1.21932517
Sc 0.00000000 2.02166500 -3.2191030599999984 0 0 0
Sc 7.83467210 6.07235386 1.21932517
Sc 0.00000000 6.06499500 -3.2191030599999984 0 0 0
Sc 3.92101953 2.01430614 1.21932517
Sc 3.91859000 2.02166500 -3.2191030599999984 0 0 0
Sc 3.92101953 6.07235386 1.21932517
Sc 3.91859000 6.06499500 -3.2191030599999984 0 0 0
Ga 7.82628632 0.00000000 3.68388485
Ga 0.00000000 0.00000000 -1.0731224799999985 0 0 0
Ga 7.36365758 4.04333000 3.42717090
Ga 0.00000000 4.04333000 -1.0731224799999985 0 0 0
Ga 3.92948368 0.00000000 3.68388485
Ga 3.91859000 0.00000000 -1.0731224799999985 0 0 0
Ga 4.39211242 4.04333000 3.42717090
Ga 3.91859000 4.04333000 -1.0731224799999985 0 0 0
Ge 1.95937337 0.00000000 0.96525503
Ge 1.95929500 0.00000000 -3.2191030599999984 0 0 0
Ge 1.95929500 4.04333000 1.37663187
Ge 1.95929500 4.04333000 -3.2191030599999984 0 0 0
Ge 5.87780663 0.00000000 0.92982798
Ge 5.87788500 0.00000000 -3.2191030599999984 0 0 0
Ge 5.87788500 4.04333000 0.91925274
Ge 5.87788500 4.04333000 -3.2191030599999984 0 0 0
Pd 1.95929500 2.01066714 3.22359753
Pd 1.95929500 2.02166500 -1.0731224799999985 0 0 0
Pd 1.95929500 6.07599286 3.22359753
Pd 1.95929500 6.06499500 -1.0731224799999985 0 0 0
Pd 5.87788500 1.77494100 3.32326917
Pd 5.87788500 2.02166500 -1.0731224799999985 0 0 0
Pd 5.87788500 6.31171900 3.32326917
Pd 5.87788500 6.06499500 -1.0731224799999985 0 0 0
C 1.95929500 0.00000000 4.00642967
