&CONTROL
calculation = 'relax'
prefix = 'scf'
pseudo_dir = '/vol0403/data/hp230205/u10028/POT_HYBRID_KKJUS_GBRV'
outdir = './data'
tprnfor = .true.
nstep = 70
disk_io = 'non'
/
&SYSTEM
ibrav = 0
ecutwfc = 50.0
ecutrho = 400
occupations = 'smearing'
smearing = 'mp'
degauss = 0.01
assume_isolated = 'esm'
esm_bc = 'bc1'
input_dft = 'BEEF-VDW'
nosym = .true.
nspin = 1
ntyp = 6
nat = 34
/
&ELECTRONS
electron_maxstep = 200
mixing_beta = 0.1
conv_thr = 1e-06
/
&IONS
ion_dynamics = 'bfgs'
upscale = 1.0
/
&CELL
/

K_POINTS {automatic}
6 6 1 0 0 0

ATOMIC_SPECIES
C 12.01 C.pbe-n-rrkjus_psl.1.0.0.UPF
Ga 69.72 Ga.pbe-dnl-rrkjus_psl.1.0.0.UPF
Li 6.941 Li.pbe-sl-rrkjus_psl.1.0.0.UPF
Mg 24.30 Mg.pbe-spnl-rrkjus_psl.1.0.0.UPF
O 15.99 O.pbe-n-rrkjus_psl.1.0.0.UPF
Pt 195.0 Pt.pbe-n-rrkjus_psl.1.0.0.UPF


CELL_PARAMETERS {angstrom}
6.26200000 0.00000000 0.00000000
-0.00000000 8.85580000 0.00000000
0.00000000 0.00000000 26.64190000

ATOMIC_POSITIONS {angstrom}
Li 1.56550000 0.00000000 -1.106970950000001 0 0 0
Li 1.56550000 4.42790000 -1.106970950000001 0 0 0
Li 4.69650000 2.21395000 -3.3209128399999983 0 0 0
Li 4.69650000 6.64185000 -3.3209128399999983 0 0 0
Li 1.75110568 4.42905125 3.49435160
Li 1.75129354 8.85447163 3.49435160
Li 4.69374472 6.64193856 1.11203291
Li 4.78479420 2.21395000 1.11416426
Mg 0.00000000 2.21395000 -1.106970950000001 0 0 0
Mg 0.00000000 6.64185000 -1.106970950000001 0 0 0
Mg 3.13100000 4.42790000 -3.3209128399999983 0 0 0
Mg 3.13100000 0.00000000 -3.3209128399999983 0 0 0
Mg 6.18184640 6.64176144 3.46850896
Mg 6.12479958 2.21377288 3.54443838
Mg 3.07182410 0.03170376 1.03956694
Mg 3.07188672 4.39637335 1.03956694
Ga 0.00000000 0.00000000 -3.3209128399999983 0 0 0
Ga 0.00000000 4.42790000 -3.3209128399999983 0 0 0
Ga 3.13100000 6.64185000 -1.106970950000001 0 0 0
Ga 3.13100000 2.21395000 -1.106970950000001 0 0 0
Ga 0.02517324 4.44029812 1.16664880
Ga 0.02517324 8.84340188 1.16664880
Ga 3.25586428 2.21386144 3.32304419
Ga 3.22981436 6.64167288 3.38485339
Pt 4.69650000 0.00000000 -1.106970950000001 0 0 0
Pt 4.69650000 4.42790000 -1.106970950000001 0 0 0
Pt 1.56550000 2.21395000 -3.3209128399999983 0 0 0
Pt 1.56550000 6.64185000 -3.3209128399999983 0 0 0
Pt 4.60325882 4.44941959 3.14134643
Pt 4.60325882 8.83401473 3.14134643
Pt 1.54320728 6.64185000 1.12801805
Pt 1.48741286 2.21403856 1.26708876
C 0.35568160 2.21403856 5.75225263
O 0.49939450 2.21430423 6.88826325
