&CONTROL
calculation = 'relax'
prefix = 'scf'
pseudo_dir = '/vol0403/data/hp230205/u10028/POT_HYBRID_KKJUS_GBRV'
outdir = './data'
tprnfor = .true.
nstep = 70
disk_io = 'non'
/
&SYSTEM
ibrav = 0
ecutwfc = 50.0
ecutrho = 400
occupations = 'smearing'
smearing = 'mp'
degauss = 0.01
assume_isolated = 'esm'
esm_bc = 'bc1'
input_dft = 'BEEF-VDW'
nosym = .true.
nspin = 1
ntyp = 6
nat = 34
/
&ELECTRONS
electron_maxstep = 200
mixing_beta = 0.1
conv_thr = 1e-06
/
&IONS
ion_dynamics = 'bfgs'
upscale = 1.0
/
&CELL
/

K_POINTS {automatic}
9 6 2 0  0  0

ATOMIC_SPECIES
Ag 107.8 Ag.pbe-n-rrkjus_psl.1.0.0.UPF
C 12.01 C.pbe-n-rrkjus_psl.1.0.0.UPF
In 114.8 In.pbe-dn-rrkjus_psl.1.0.0.UPF
O 15.99 O.pbe-n-rrkjus_psl.1.0.0.UPF
Pd 106.4 Pd.pbe-n-rrkjus_psl.1.0.0.UPF
Sc 44.95 Sc.pbe-spn-rrkjus_psl.1.0.0.UPF


CELL_PARAMETERS {angstrom}
6.71273000 0.00000000 0.00000000
-0.00000000 9.49324000 0.00000000
0.00000000 0.00000000 27.11990000

ATOMIC_POSITIONS {angstrom}
Sc 5.03454750 0.00000000 -1.1867668200000026 0 0 0
Sc 5.03454750 4.74662000 -1.1867668200000026 0 0 0
Sc 1.67818250 2.37331000 -3.560029270000001 0 0 0
Sc 1.67818250 7.11993000 -3.560029270000001 0 0 0
Sc 4.99487527 4.79437100 3.46755041
Sc 4.99494239 9.44548900 3.46755041
Sc 1.74577969 7.11993000 1.29199204
Sc 1.67683995 2.37331000 1.27599130
In 1.67818250 0.00000000 -1.1867668200000026 0 0 0
In 1.67818250 4.74662000 -1.1867668200000026 0 0 0
In 5.03454750 2.37331000 -3.560029270000001 0 0 0
In 5.03454750 7.11993000 -3.560029270000001 0 0 0
In 1.61635826 4.72715886 3.66661048
In 1.61629113 0.01946114 3.66661048
In 4.98541032 7.11993000 1.20873394
In 5.06368075 2.37331000 1.23042986
Ag 0.00000000 0.00000000 -3.560029270000001 0 0 0
Ag 0.00000000 4.74662000 -3.560029270000001 0 0 0
Ag 3.35636500 7.11993000 -1.1867668200000026 0 0 0
Ag 3.35636500 2.37331000 -1.1867668200000026 0 0 0
Ag 0.02530699 4.76674567 1.18839402
Ag 0.02537412 9.47311433 1.18839402
Ag 3.31441044 2.37331000 3.68912000
Ag 3.24285274 7.11993000 3.89631603
Pd 0.00000000 2.37331000 -1.1867668200000026 0 0 0
Pd 0.00000000 7.11993000 -1.1867668200000026 0 0 0
Pd 3.35636500 4.74662000 -3.560029270000001 0 0 0
Pd 3.35636500 0.00000000 -3.560029270000001 0 0 0
Pd 6.70890374 7.11993000 3.39785227
Pd 6.52658600 2.37331000 3.74173260
Pd 3.37099875 0.01737263 1.18758042
Pd 3.37106588 4.72924737 1.18758042
C 6.31526926 2.37331000 5.68785663
O 6.33983785 2.37340493 6.84235077
