&CONTROL
calculation = 'relax'
prefix = 'scf'
pseudo_dir = '/vol0004/mdt0/data/hp150275/u10028/POT_KKJUS'
outdir = './data'
tprnfor = .true.
nstep = 50
disk_io = 'non'
/
&SYSTEM
ibrav = 0
ecutwfc = 50.0
ecutrho = 400
occupations = 'smearing'
smearing = 'mp'
degauss = 0.01
assume_isolated = 'esm'
esm_bc = 'bc1'
input_dft = 'BEEF-VDW'
nosym = .true.
nspin = 1
ntyp = 2
nat = 32
/
&ELECTRONS
electron_maxstep = 200
mixing_beta = 0.1
conv_thr = 1e-06
/
&IONS
ion_dynamics = 'bfgs'
upscale = 1.0
/
&CELL
/

K_POINTS {automatic}
8 6 1 0 0 0

ATOMIC_SPECIES
Ni 58.69 Ni.pbe-spn-rrkjus_psl.1.0.0.UPF
Zn 65.40 Zn.pbe-dnl-rrkjus_psl.1.0.0.UPF

CELL_PARAMETERS {angstrom}
5.79956000 0.00000000 0.00000000
0.00000000 8.20182000 0.00000000
0.00000000 0.00000000 26.15140000

ATOMIC_POSITIONS {angstrom}
Zn 1.44989000 2.05045500 -3.07566615 0 0 0
Zn 1.44989000 0.00000000 -1.0251348799999995 0 0 0
Zn 1.44989000 2.05053702 0.98120053
Zn 1.44989000 8.20165596 3.26604835
Zn 1.44989000 6.15136500 -3.07566615 0 0 0
Zn 1.44989000 4.10091000 -1.0251348799999995 0 0 0
Zn 1.44994800 6.15128298 0.98093901
Zn 1.44989000 4.10107404 3.26604835
Zn 4.34967000 2.05045500 -3.07566615 0 0 0
Zn 4.34967000 0.00000000 -1.0251348799999995 0 0 0
Zn 4.34967000 2.05053702 0.98120053
Zn 4.34967000 8.20165596 3.26604835
Zn 4.34967000 6.15136500 -3.07566615 0 0 0
Zn 4.34967000 4.10091000 -1.0251348799999995 0 0 0
Zn 4.34961200 6.15128298 0.98093901
Zn 4.34967000 4.10107404 3.26604835
Ni 0.00000000 0.00000000 -3.07566615 0 0 0
Ni 0.00000000 2.05045500 -1.0251348799999995 0 0 0
Ni 0.00000000 0.00016404 1.09469760
Ni 0.00000000 2.05045500 2.95693880
Ni 0.00000000 4.10091000 -3.07566615 0 0 0
Ni 0.00000000 6.15136500 -1.0251348799999995 0 0 0
Ni 0.00000000 4.10082798 1.09495912
Ni 0.00005800 6.15136500 2.95615426
Ni 2.89978000 0.00000000 -3.07566615 0 0 0
Ni 2.89978000 2.05045500 -1.0251348799999995 0 0 0
Ni 2.89978000 0.00016404 1.09469760
Ni 2.89978000 2.05045500 2.95693880
Ni 2.89978000 4.10091000 -3.07566615 0 0 0
Ni 2.89978000 6.15136500 -1.0251348799999995 0 0 0
Ni 2.89978000 4.10074596 1.09495912
Ni 2.89978000 6.15136500 2.95615426
