&CONTROL
calculation = 'relax'
prefix = 'scf'
pseudo_dir = '/vol0004/mdt0/data/hp150275/u10028/POT_KKJUS'
outdir = './data'
tprnfor = .true.
nstep = 50
disk_io = 'non'
/
&SYSTEM
ibrav = 0
ecutwfc = 50.0
ecutrho = 400
occupations = 'smearing'
smearing = 'mp'
degauss = 0.01
assume_isolated = 'esm'
esm_bc = 'bc1'
input_dft = 'BEEF-VDW'
nosym = .true.
nspin = 1
ntyp = 3
nat = 33
/
&ELECTRONS
electron_maxstep = 200
mixing_beta = 0.1
conv_thr = 1e-06
/
&IONS
ion_dynamics = 'bfgs'
upscale = 1.0
/
&CELL
/

K_POINTS {automatic}
8 6 1 0 0 0

ATOMIC_SPECIES
As 74.92 As.pbe-n-rrkjus_psl.1.0.0.UPF
C 12.01 C.pbe-n-rrkjus_psl.1.0.0.UPF
Na 22.98 Na.pbe-spnl-rrkjus_psl.1.0.0.UPF

CELL_PARAMETERS {angstrom}
7.20118000 0.00000000 0.00000000
0.00000000 10.18400000 0.00000000
0.00000000 0.00000000 27.63800000

ATOMIC_POSITIONS {angstrom}
Na 1.80029500 0.00000000 -1.2730062800000006 0 0 0
Na 5.40088500 5.09200000 -1.2730062800000006 0 0 0
Na 5.40088500 0.00000000 -1.2730062800000006 0 0 0
Na 1.80029500 5.09200000 -1.2730062800000006 0 0 0
Na 5.40088500 7.63800000 -3.819018840000002 0 0 0
Na 1.80029500 2.54600000 -3.819018840000002 0 0 0
Na 1.80029500 7.63800000 -3.819018840000002 0 0 0
Na 5.40088500 2.54600000 -3.819018840000002 0 0 0
Na 0.00000000 7.63800000 -1.2730062800000006 0 0 0
Na 3.60059000 0.00000000 -3.819018840000002 0 0 0
Na 0.00000000 2.54600000 -1.2730062800000006 0 0 0
Na 3.60059000 5.09200000 -3.819018840000002 0 0 0
Na 1.82974783 5.09240736 3.88756108
Na 5.87529874 0.00071288 3.95637970
Na 5.37287241 5.09057424 3.88617918
Na 1.32595327 0.00000000 3.95803798
Na 5.57752995 2.48846040 1.49383390
Na 1.62307396 7.69533592 1.49411028
Na 1.62379408 2.48846040 1.49466304
Na 5.57839409 7.69523408 1.49383390
Na 0.00108018 2.83390168 5.58038858
Na 3.59922178 5.08935216 1.02288238
Na 7.19952373 7.35020016 5.57983582
Na 3.60152615 10.18328712 1.10911294
As 0.00000000 0.00000000 -3.819018840000002 0 0 0
As 3.60059000 2.54600000 -1.2730062800000006 0 0 0
As 3.60059000 7.63800000 -1.2730062800000006 0 0 0
As 0.00000000 5.09200000 -3.819018840000002 0 0 0
As 0.00093615 5.09200000 1.35177458
As 3.60138213 8.38448720 3.76014990
As 3.59958183 1.80104040 3.76070266
As 7.19981178 10.18094480 1.18843400
C 3.60044598 0.00081472 3.80658174
