&CONTROL
calculation = 'relax'
prefix = 'scf'
pseudo_dir = '/vol0403/data/hp230205/u10028/POT_HYBRID_KKJUS_GBRV'
outdir = './data'
tprnfor = .true.
nstep = 100
disk_io = 'non'
/
&SYSTEM
ibrav = 0
ecutwfc = 50.0
ecutrho = 400
occupations = 'smearing'
smearing = 'mp'
degauss = 0.01
assume_isolated = 'esm'
esm_bc = 'bc1'
input_dft = 'BEEF-VDW'
nosym = .true.
nspin = 1
ntyp = 5
nat = 17
/
&ELECTRONS
electron_maxstep = 200
mixing_beta = 0.1
conv_thr = 1e-06
/
&IONS
ion_dynamics = 'bfgs'
upscale = 1.0
/
&CELL
/

K_POINTS {automatic}
10 10 2 0  0  0

ATOMIC_SPECIES
Al 26.98 Al.pbe-nl-rrkjus_psl.1.0.0.UPF
C 12.01 C.pbe-n-rrkjus_psl.1.0.0.UPF
Li 6.941 Li.pbe-sl-rrkjus_psl.1.0.0.UPF
Pd 106.4 Pd.pbe-n-rrkjus_psl.1.0.0.UPF
Pt 195.0 Pt.pbe-n-rrkjus_psl.1.0.0.UPF


CELL_PARAMETERS {angstrom}
6.06122000 0.00000000 0.00000000
-0.00000000 6.06122000 0.00000000
0.00000000 0.00000000 24.54590000

ATOMIC_POSITIONS {angstrom}
Li 0.00000000 3.03061000 -2.2729503400000013 0 0 0
Li 0.00000000 0.00000000 0.75773193
Li 3.03061000 3.03061000 0.75773193
Li 3.03061000 0.00000000 -2.2729503400000013 0 0 0
Al 0.00000000 0.00000000 -2.2729503400000013 0 0 0
Al 0.00000000 3.03061000 0.75773193
Al 3.03061000 -0.00000000 0.75773193
Al 3.03061000 3.03061000 -2.2729503400000013 0 0 0
Pd 4.54591500 1.51530500 -0.7577319299999985 0 0 0
Pd 4.54591500 4.54591500 2.27295034
Pd 1.51530500 1.51530500 2.27295034
Pd 1.51530500 4.54591500 -0.7577319299999985 0 0 0
Pt 1.51530500 1.51530500 -0.7577319299999985 0 0 0
Pt 1.51530500 4.54591500 2.27295034
Pt 4.54591500 1.51530500 2.27295034
Pt 4.54591500 4.54591500 -0.7577319299999985 0 0 0
C 0.00000000 0.00000000 3.07290122
