&CONTROL
calculation = 'relax'
prefix = 'scf'
pseudo_dir = '/vol0004/mdt0/data/hp150275/u10028/POT_KKJUS'
outdir = './data'
tprnfor = .true.
nstep = 50
disk_io = 'non'
/
&SYSTEM
ibrav = 0
ecutwfc = 50.0
ecutrho = 400
occupations = 'smearing'
smearing = 'mp'
degauss = 0.01
assume_isolated = 'esm'
esm_bc = 'bc1'
input_dft = 'BEEF-VDW'
nosym = .true.
nspin = 1
ntyp = 5
nat = 34
/
&ELECTRONS
electron_maxstep = 200
mixing_beta = 0.1
conv_thr = 1e-06
/
&IONS
ion_dynamics = 'bfgs'
upscale = 1.0
/
&CELL
/

K_POINTS {automatic}
8 6 1 0 0 0

ATOMIC_SPECIES
C 12.01 C.pbe-n-rrkjus_psl.1.0.0.UPF
In 114.8 In.pbe-dn-rrkjus_psl.1.0.0.UPF
Li 6.941 Li.pbe-sl-rrkjus_psl.1.0.0.UPF
O 15.99 O.pbe-n-rrkjus_psl.1.0.0.UPF
Pd 106.4 Pd.pbe-n-rrkjus_psl.1.0.0.UPF

CELL_PARAMETERS {angstrom}
6.70566000 0.00000000 0.00000000
0.00000000 9.48324000 0.00000000
0.00000000 0.00000000 27.11240000

ATOMIC_POSITIONS {angstrom}
Li 0.00000000 0.00000000 -3.5563335100000018 0 0 0
Li 3.35283000 2.37081000 -1.1853541300000003 0 0 0
Li 3.35283000 7.11243000 -1.1853541300000003 0 0 0
Li 0.00000000 4.74162000 -3.5563335100000018 0 0 0
Li 6.66864476 4.74162000 1.30817330
Li 3.47829290 7.10323126 3.86893948
Li 3.47862818 2.38000874 3.86921060
Li 6.64209034 0.00000000 1.25882873
In 1.67641500 0.00000000 -1.1853541300000003 0 0 0
In 5.02924500 4.74162000 -1.1853541300000003 0 0 0
In 5.02924500 0.00000000 -1.1853541300000003 0 0 0
In 1.67641500 4.74162000 -1.1853541300000003 0 0 0
In 5.02924500 7.11243000 -3.5563335100000018 0 0 0
In 1.67641500 2.37081000 -3.5563335100000018 0 0 0
In 1.67641500 7.11243000 -3.5563335100000018 0 0 0
In 5.02924500 2.37081000 -3.5563335100000018 0 0 0
In 1.74045405 4.74152517 3.70274047
In 5.20251925 9.48314517 3.96735749
In 5.20245220 4.74162000 4.03703636
In 1.77565877 0.00000000 3.67373020
In 4.95635448 2.38939715 1.27428280
In 1.71262556 7.11925793 1.25232176
In 1.71262556 2.36398207 1.25259288
In 4.95642153 7.09384285 1.27428280
Pd 0.00000000 7.11243000 -1.1853541300000003 0 0 0
Pd 3.35283000 0.00000000 -3.5563335100000018 0 0 0
Pd 0.00000000 2.37081000 -1.1853541300000003 0 0 0
Pd 3.35283000 4.74162000 -3.5563335100000018 0 0 0
Pd 0.01361249 2.37289631 3.40585969
Pd 3.34833721 4.74162000 1.12163999
Pd 0.01374660 7.11024885 3.40585969
Pd 3.35537815 0.00000000 1.08720724
C 2.22855904 0.00018966 7.44723403
O 1.40020886 0.00000000 8.22671553
