&CONTROL
calculation = 'relax'
prefix = 'scf'
pseudo_dir = '/vol0004/mdt0/data/hp150275/u10028/POT_HYBRID_KKJUS_GBRV'
outdir = './data'
tprnfor = .true.
nstep = 50
disk_io = 'non'
/
&SYSTEM
ibrav = 0
ecutwfc = 50.0
ecutrho = 400
occupations = 'smearing'
smearing = 'mp'
degauss = 0.01
assume_isolated = 'esm'
esm_bc = 'bc1'
input_dft = 'BEEF-VDW'
nosym = .true.
nspin = 1
ntyp = 3
nat = 34
/
&ELECTRONS
electron_maxstep = 200
mixing_beta = 0.1
conv_thr = 1e-06
/
&IONS
ion_dynamics = 'bfgs'
upscale = 1.0
/
&CELL
/

K_POINTS {automatic}
6 6 1 0 0 0

ATOMIC_SPECIES
C 12.01 C.pbe-n-rrkjus_psl.1.0.0.UPF
H 1.0 H.pbe-rrkjus_psl.1.0.0.UPF
Ir 192.2 Ir.pbe-n-rrkjus_psl.0.2.3.UPF

CELL_PARAMETERS {angstrom}
7.79426000 0.00000000 0.00000000
-0.00000000 7.79426000 0.00000000
0.00000000 0.00000000 25.84570000

ATOMIC_POSITIONS {angstrom}
Ir 0.00000000 0.00000000 -2.922890210000002 0 0 0
Ir 1.94856500 1.94856500 -2.922890210000002 0 0 0
Ir 1.94856500 0.00000000 -0.9743828900000011 0 0 0
Ir 0.00000000 1.94856500 -0.9743828900000011 0 0 0
Ir 0.00000000 0.00000000 0.97438289
Ir 1.94856500 1.94856500 0.97438289
Ir 1.94856500 -0.00000000 2.92289021
Ir 0.00000000 1.94856500 2.92289021
Ir 0.00000000 3.89713000 -2.922890210000002 0 0 0
Ir 1.94856500 5.84569500 -2.922890210000002 0 0 0
Ir 1.94856500 3.89713000 -0.9743828900000011 0 0 0
Ir 0.00000000 5.84569500 -0.9743828900000011 0 0 0
Ir 0.00000000 3.89713000 0.97438289
Ir 1.94856500 5.84569500 0.97438289
Ir 1.94856500 3.89713000 2.92289021
Ir 0.00000000 5.84569500 2.92289021
Ir 3.89713000 0.00000000 -2.922890210000002 0 0 0
Ir 5.84569500 1.94856500 -2.922890210000002 0 0 0
Ir 5.84569500 0.00000000 -0.9743828900000011 0 0 0
Ir 3.89713000 1.94856500 -0.9743828900000011 0 0 0
Ir 3.89713000 -0.00000000 0.97438289
Ir 5.84569500 1.94856500 0.97438289
Ir 5.84569500 -0.00000000 2.92289021
Ir 3.89713000 1.94856500 2.92289021
Ir 3.89713000 3.89713000 -2.922890210000002 0 0 0
Ir 5.84569500 5.84569500 -2.922890210000002 0 0 0
Ir 5.84569500 3.89713000 -0.9743828900000011 0 0 0
Ir 3.89713000 5.84569500 -0.9743828900000011 0 0 0
Ir 3.89713000 3.89713000 0.97438289
Ir 5.84569500 5.84569500 0.97438289
Ir 5.84569500 3.89713000 2.92289021
Ir 3.89713000 5.84569500 2.92289021
C 0.00000000 0.00000000 3.72281463
H 0.00000000 0.00000000 4.7281463
