&CONTROL
calculation = 'relax'
prefix = 'scf'
pseudo_dir = '/vol0004/mdt0/data/hp150275/u10028/POT_KKJUS'
outdir = './data'
tprnfor = .true.
nstep = 50
disk_io = 'non'
/
&SYSTEM
ibrav = 0
ecutwfc = 50.0
ecutrho = 400
occupations = 'smearing'
smearing = 'mp'
degauss = 0.01
assume_isolated = 'esm'
esm_bc = 'bc1'
input_dft = 'BEEF-VDW'
nosym = .true.
nspin = 1
ntyp = 4
nat = 34
/
&ELECTRONS
electron_maxstep = 200
mixing_beta = 0.1
conv_thr = 1e-06
/
&IONS
ion_dynamics = 'bfgs'
upscale = 1.0
/
&CELL
/

K_POINTS {automatic}
9 6 2 0  0  0

ATOMIC_SPECIES
C 12.01 C.pbe-n-rrkjus_psl.1.0.0.UPF
Cu 63.54 Cu.pbe-dn-rrkjus_psl.1.0.0.UPF
O 15.99 O.pbe-n-rrkjus_psl.1.0.0.UPF
Y 88.90 Y.pbe-spn-rrkjus_psl.1.0.0.UPF

CELL_PARAMETERS {angstrom}
6.99068000 0.00000000 0.00000000
0.00000000 9.88632000 0.00000000
0.00000000 0.00000000 27.41470000

ATOMIC_POSITIONS {angstrom}
Y 0.00000000 0.00000000 -3.707289880000001 0 0 0
Y 0.00000000 2.47158000 -1.2358546799999992 0 0 0
Y 0.00000000 0.00000000 1.20460192
Y 0.00000000 2.47158000 3.69933962
Y 0.00000000 4.94316000 -3.707289880000001 0 0 0
Y 0.00000000 7.41474000 -1.2358546799999992 0 0 0
Y 0.00000000 4.94316000 1.20460192
Y 0.00000000 7.41474000 3.72976994
Y 3.49534000 0.00000000 -3.707289880000001 0 0 0
Y 3.49534000 2.47158000 -1.2358546799999992 0 0 0
Y 3.49534000 9.88592455 1.22324391
Y 3.49534000 2.47158000 3.81338477
Y 3.49534000 4.94316000 -3.707289880000001 0 0 0
Y 3.49534000 7.41474000 -1.2358546799999992 0 0 0
Y 3.49534000 4.94355545 1.22324391
Y 3.49534000 7.41474000 3.73415629
Cu 1.74767000 2.47158000 -3.707289880000001 0 0 0
Cu 1.74767000 0.00000000 -1.2358546799999992 0 0 0
Cu 1.85546629 2.47158000 1.36196230
Cu 1.74277652 4.94820202 3.47892543
Cu 1.74767000 7.41474000 -3.707289880000001 0 0 0
Cu 1.74767000 4.94316000 -1.2358546799999992 0 0 0
Cu 1.73459743 7.41474000 1.36470377
Cu 1.74277652 9.88137684 3.47892543
Cu 5.24301000 2.47158000 -3.707289880000001 0 0 0
Cu 5.24301000 0.00000000 -1.2358546799999992 0 0 0
Cu 5.13521371 2.47158000 1.36196230
Cu 5.24790348 4.94820202 3.47892543
Cu 5.24301000 7.41474000 -3.707289880000001 0 0 0
Cu 5.24301000 4.94316000 -1.2358546799999992 0 0 0
Cu 5.25608257 7.41474000 1.36470377
Cu 5.24790348 9.88127798 3.47892543
C 0.00000000 2.47158000 6.16446944
O 0.00000000 2.47158000 7.31917661
