&CONTROL
calculation = 'relax'
prefix = 'scf'
pseudo_dir = '/vol0004/mdt0/data/hp150275/u10028/POT_HYBRID_KKJUS_GBRV'
outdir = './data'
tprnfor = .true.
nstep = 50
disk_io = 'non'
/
&SYSTEM
ibrav = 0
ecutwfc = 50.0
ecutrho = 400
occupations = 'smearing'
smearing = 'mp'
degauss = 0.01
assume_isolated = 'esm'
esm_bc = 'bc1'
input_dft = 'BEEF-VDW'
nosym = .true.
nspin = 2
ntyp = 5
nat = 34
starting_magnetization(1) = 0.0
starting_magnetization(2) = 0.0
starting_magnetization(3) = 0.0
starting_magnetization(4) = 0.001
starting_magnetization(5) = 0.0
/
&ELECTRONS
electron_maxstep = 200
mixing_beta = 0.1
conv_thr = 1e-06
/
&IONS
ion_dynamics = 'bfgs'
upscale = 1.0
/
&CELL
/

K_POINTS {automatic}
9 6 2 0  0  0

ATOMIC_SPECIES
C 12.01 C.pbe-n-rrkjus_psl.1.0.0.UPF
Ga 69.72 Ga.pbe-dnl-rrkjus_psl.1.0.0.UPF
Hf 178.4 Hf.pbe-spn-rrkjus_psl.1.0.0.UPF
Ni 58.69 ni_pbe_v1.4.uspp.F.UPF
O 15.99 O.pbe-n-rrkjus_psl.1.0.0.UPF

CELL_PARAMETERS {angstrom}
6.08368000 0.00000000 0.00000000
0.00000000 8.60362000 0.00000000
0.00000000 0.00000000 26.45270000

ATOMIC_POSITIONS {angstrom}
Hf 0.00000000 0.00000000 23.22626418
Hf 3.04184000 2.15090500 25.37713322
Hf 3.04184000 6.45271500 25.37713322
Hf 0.00000000 4.30181000 23.22626418
Hf 0.00000000 4.31927535 1.07106982
Hf 3.04184000 6.45271500 3.32378176
Hf 3.04184000 2.15081896 3.31346520
Hf 0.00000000 8.58615465 1.07106982
Ga 0.00000000 6.45271500 25.37713322
Ga 3.04184000 0.00000000 23.22626418
Ga 0.00000000 2.15090500 25.37713322
Ga 3.04184000 4.30181000 23.22626418
Ga 0.00000000 2.15099104 3.22775845
Ga 3.04184000 4.28580727 1.11709752
Ga 0.00000000 6.45262896 3.24098480
Ga 3.04184000 0.01600273 1.11709752
Ni 1.52092000 0.00000000 25.37713322
Ni 4.56276000 4.30181000 25.37713322
Ni 4.56276000 0.00000000 25.37713322
Ni 1.52092000 4.30181000 25.37713322
Ni 4.56276000 6.45271500 23.22626418
Ni 1.52092000 2.15090500 23.22626418
Ni 1.52092000 6.45271500 23.22626418
Ni 4.56276000 2.15090500 23.22626418
Ni 1.46434178 4.31308074 3.14496150
Ni 4.61939906 8.59234926 3.14496150
Ni 4.61933822 4.31308074 3.14496150
Ni 1.46428094 8.59234926 3.14496150
Ni 4.52017424 2.15090500 1.09540631
Ni 1.63486733 6.45262896 1.15730563
Ni 1.56350576 2.15090500 1.09540631
Ni 4.44881267 6.45262896 1.15730563
C 3.04184000 2.15090500 5.59871396
O 3.04184000 2.15090500 6.74702566
