&CONTROL
calculation = 'relax'
prefix = 'scf'
pseudo_dir = '/vol0004/mdt0/data/hp150275/u10028/POT_KKJUS'
outdir = './data'
tprnfor = .true.
nstep = 50
disk_io = 'non'
/
&SYSTEM
ibrav = 0
ecutwfc = 50.0
ecutrho = 400
occupations = 'smearing'
smearing = 'mp'
degauss = 0.01
assume_isolated = 'esm'
esm_bc = 'bc1'
input_dft = 'BEEF-VDW'
nosym = .true.
nspin = 1
ntyp = 4
nat = 18
/
&ELECTRONS
electron_maxstep = 200
mixing_beta = 0.1
conv_thr = 1e-06
/
&IONS
ion_dynamics = 'bfgs'
upscale = 1.0
/
&CELL
/

K_POINTS {automatic}
8 11 2 0  0  0

ATOMIC_SPECIES
C 12.01 C.pbe-n-rrkjus_psl.1.0.0.UPF
In 114.8 In.pbe-dn-rrkjus_psl.1.0.0.UPF
Ni 58.69 Ni.pbe-spn-rrkjus_psl.1.0.0.UPF
O 15.99 O.pbe-n-rrkjus_psl.1.0.0.UPF

CELL_PARAMETERS {angstrom}
7.55564000 0.00000000 0.00000000
0.00000000 5.34265000 0.00000000
0.00000000 0.00000000 24.00700000

ATOMIC_POSITIONS {angstrom}
In 7.55556444 0.00005343 2.10901495
In 0.00000000 2.67132500 -0.667874740000002 0 0 0
In 3.77797111 0.00000000 2.11861775
In 3.77782000 2.67132500 -0.667874740000002 0 0 0
Ni 0.00000000 2.67132500 1.88743034
Ni 1.89004335 4.04470661 0.65275033
Ni 1.89004335 1.29794339 0.65275033
Ni 0.00000000 0.00000000 -0.667874740000002 0 0 0
Ni 1.88891000 1.33566250 -2.0033841500000023 0 0 0
Ni 1.88891000 4.00698750 -2.0033841500000023 0 0 0
Ni 3.77766889 2.67127157 1.89655300
Ni 5.66552110 4.04465318 0.65251026
Ni 5.66559665 1.29799682 0.65227019
Ni 3.77782000 0.00000000 -0.667874740000002 0 0 0
Ni 5.66673000 1.33566250 -2.0033841500000023 0 0 0
Ni 5.66673000 4.00698750 -2.0033841500000023 0 0 0
C 7.55488444 5.34243629 6.05792638
O 7.55533777 5.34254315 7.19249720
