&CONTROL
calculation = 'relax'
prefix = 'scf'
pseudo_dir = '/vol0004/mdt0/data/hp150275/u10028/POT_KKJUS'
outdir = './data'
tprnfor = .true.
nstep = 50
disk_io = 'non'
/
&SYSTEM
ibrav = 0
ecutwfc = 50.0
ecutrho = 400
occupations = 'smearing'
smearing = 'mp'
degauss = 0.01
assume_isolated = 'esm'
esm_bc = 'bc1'
input_dft = 'BEEF-VDW'
nosym = .true.
nspin = 1
ntyp = 3
nat = 17
/
&ELECTRONS
electron_maxstep = 200
mixing_beta = 0.1
conv_thr = 1e-06
/
&IONS
ion_dynamics = 'bfgs'
upscale = 1.0
/
&CELL
/

K_POINTS {automatic}
7 10 3 0  0  0

ATOMIC_SPECIES
C 12.01 C.pbe-n-rrkjus_psl.1.0.0.UPF
Ca 40.07 Ca.pbe-spn-rrkjus_psl.1.0.0.UPF
Pb 207.2 Pb.pbe-dn-rrkjus_psl.1.0.0.UPF

CELL_PARAMETERS {angstrom}
10.21910000 0.00000000 0.00000000
0.00000000 7.22598000 0.00000000
0.00000000 0.00000000 25.41950000

ATOMIC_POSITIONS {angstrom}
Ca 0.00000000 3.61299000 -2.7097187 0 0 0
Ca 2.55477500 5.41948500 -0.9031548299999983 0 0 0
Ca 2.55477500 1.80649500 -0.9031548299999983 0 0 0
Ca 0.00010219 0.00014452 0.62760746
Ca 1.73734919 1.69499813 2.93595225
Ca 1.73755357 5.53112639 2.93595225
Ca 5.10955000 3.61299000 -2.7097187 0 0 0
Ca 7.66432500 5.41948500 -0.9031548299999983 0 0 0
Ca 7.66432500 1.80649500 -0.9031548299999983 0 0 0
Ca 5.10944781 7.22590774 1.08922557
Ca 8.48144424 1.69499813 2.93595225
Ca 8.48123985 5.53112639 2.93595225
Pb 0.00000000 0.00000000 -2.7097187 0 0 0
Pb 0.00051096 3.61262870 0.66395734
Pb 5.10955000 0.00000000 -2.7097187 0 0 0
Pb 5.10944781 3.61306226 0.90544259
C 10.21899781 0.00000000 3.04068059
