&CONTROL
calculation = 'relax'
prefix = 'scf'
pseudo_dir = '/vol0004/mdt0/data/hp150275/u10028/POT_KKJUS'
outdir = './data'
tprnfor = .true.
nstep = 50
disk_io = 'non'
/
&SYSTEM
ibrav = 0
ecutwfc = 50.0
ecutrho = 400
occupations = 'smearing'
smearing = 'mp'
degauss = 0.01
assume_isolated = 'esm'
esm_bc = 'bc1'
input_dft = 'BEEF-VDW'
nosym = .true.
nspin = 1
ntyp = 4
nat = 18
/
&ELECTRONS
electron_maxstep = 200
mixing_beta = 0.1
conv_thr = 1e-06
/
&IONS
ion_dynamics = 'bfgs'
upscale = 1.0
/
&CELL
/

K_POINTS {automatic}
8 11 2 0  0  0

ATOMIC_SPECIES
C 12.01 C.pbe-n-rrkjus_psl.1.0.0.UPF
Hf 178.4 Hf.pbe-spn-rrkjus_psl.1.0.0.UPF
O 15.99 O.pbe-n-rrkjus_psl.1.0.0.UPF
Rh 102.9 Rh.pbe-spn-rrkjus_psl.1.0.0.UPF

CELL_PARAMETERS {angstrom}
7.89713000 0.00000000 0.00000000
0.00000000 5.58411000 0.00000000
0.00000000 0.00000000 24.18810000

ATOMIC_POSITIONS {angstrom}
Hf 0.00000000 0.00000000 -2.093963819999999 0 0 0
Hf 7.89381321 2.78580080 0.67557363
Hf 3.94856500 0.00000000 -2.093963819999999 0 0 0
Hf 3.95188179 2.78585664 0.67508987
Rh 0.00000000 2.79205500 -2.093963819999999 0 0 0
Rh 1.97428250 4.18808250 -0.6980685700000002 0 0 0
Rh 1.97428250 1.39602750 -0.6980685700000002 0 0 0
Rh 7.88781139 5.56584996 0.60446062
Rh 1.97459839 1.36369550 2.02309268
Rh 1.97436147 4.15022223 1.99430884
Rh 3.94856500 2.79205500 -2.093963819999999 0 0 0
Rh 5.92284750 4.18808250 -0.6980685700000002 0 0 0
Rh 5.92284750 1.39602750 -0.6980685700000002 0 0 0
Rh 3.95780464 5.56568244 0.60421874
Rh 5.92268956 1.37810251 1.97302332
Rh 5.92276853 4.14173439 1.98294044
C 1.97451941 1.54864123 3.87565926
O 1.97428250 1.63647928 5.03330173
