&CONTROL
calculation = 'relax'
prefix = 'scf'
pseudo_dir = '/vol0004/mdt0/data/hp150275/u10028/POT_HYBRID_KKJUS_GBRV'
outdir = './data'
tprnfor = .true.
nstep = 50
disk_io = 'non'
/
&SYSTEM
ibrav = 0
ecutwfc = 50.0
ecutrho = 400
occupations = 'smearing'
smearing = 'mp'
degauss = 0.01
assume_isolated = 'esm'
esm_bc = 'bc1'
input_dft = 'BEEF-VDW'
nosym = .true.
nspin = 2
ntyp = 3
nat = 16
starting_magnetization(1) = 0.0
starting_magnetization(2) = 0.01
starting_magnetization(3) = 0.0
/
&ELECTRONS
electron_maxstep = 200
mixing_beta = 0.1
conv_thr = 1e-06
/
&IONS
ion_dynamics = 'bfgs'
upscale = 1.0
/
&CELL
/

K_POINTS {automatic}
10 10 2 0  0  0

ATOMIC_SPECIES
Al 26.98 Al.pbe-nl-rrkjus_psl.1.0.0.UPF
Fe 55.84 fe_pbe_v1.5.uspp.F.UPF
V 50.94 V.pbe-spnl-rrkjus_psl.1.0.0.UPF

CELL_PARAMETERS {angstrom}
5.71239000 0.00000000 0.00000000
0.00000000 5.71239000 0.00000000
0.00000000 0.00000000 24.28430000

ATOMIC_POSITIONS {angstrom}
Al 0.00000000 0.00000000 22.14218190
Al 2.85619500 2.85619500 22.14218190
Al 2.85613788 5.71227575 0.70934440
Al 0.00005712 2.85630925 0.70934440
V 0.00022850 5.71210438 0.74188537
V 2.85619500 0.00000000 22.14218190
V 0.00000000 2.85619500 22.14218190
V 2.85596650 2.85648062 0.74188537
Fe 1.42809750 1.42809750 23.57034158
Fe 4.28417825 4.28434962 2.30458007
Fe 4.28429250 1.42809750 23.57034158
Fe 1.42821175 4.28440675 2.30458007
Fe 4.28429250 4.28429250 23.57034158
Fe 1.42821175 1.42798325 2.30458007
Fe 1.42809750 4.28429250 23.57034158
Fe 4.28417825 1.42804038 2.30458007
