&CONTROL
calculation = 'relax'
prefix = 'scf'
pseudo_dir = '/vol0004/mdt0/data/hp150275/u10028/POT_HYBRID_KKJUS_GBRV'
outdir = './data'
tprnfor = .true.
nstep = 50
disk_io = 'non'
/
&SYSTEM
ibrav = 0
ecutwfc = 50.0
ecutrho = 400
occupations = 'smearing'
smearing = 'mp'
degauss = 0.01
assume_isolated = 'esm'
esm_bc = 'bc1'
input_dft = 'BEEF-VDW'
nosym = .true.
nspin = 2
ntyp = 4
nat = 34
starting_magnetization(1) = 0.1
starting_magnetization(2) = 0.1
starting_magnetization(3) = 0.1
starting_magnetization(4) = 0.1
/
&ELECTRONS
electron_maxstep = 200
mixing_beta = 0.1
conv_thr = 1e-06
/
&IONS
ion_dynamics = 'bfgs'
upscale = 1.0
/
&CELL
/

K_POINTS {automatic}
8 6 1 0 0 0

ATOMIC_SPECIES
C 12.01 C.pbe-n-rrkjus_psl.1.0.0.UPF
Co 58.93 co_pbe_v1.2.uspp.F.UPF
Fe 55.84 fe_pbe_v1.5.uspp.F.UPF
O 15.99 O.pbe-n-rrkjus_psl.1.0.0.UPF

CELL_PARAMETERS {angstrom}
5.71351000 0.00000000 0.00000000
0.00000000 8.08012000 0.00000000
0.00000000 0.00000000 26.06010000

ATOMIC_POSITIONS {angstrom}
Fe 0.00000000 0.00000000 -3.030007829999999 0 0 0
Fe 0.00000000 2.02003000 -1.0100894799999978 0 0 0
Fe 0.00000000 0.00727211 1.02781034
Fe 0.00000000 2.01970680 3.06623137
Fe 0.00000000 4.04006000 -3.030007829999999 0 0 0
Fe 0.00000000 6.06009000 -1.0100894799999978 0 0 0
Fe 0.00000000 4.03303030 1.02754974
Fe 0.00000000 6.06025160 3.07431000
Fe 2.85675500 0.00000000 -3.030007829999999 0 0 0
Fe 2.85675500 2.02003000 -1.0100894799999978 0 0 0
Fe 2.85675500 8.07801917 1.04188280
Fe 2.85675500 2.01994920 3.04251667
Fe 2.85675500 4.04006000 -3.030007829999999 0 0 0
Fe 2.85675500 6.06009000 -1.0100894799999978 0 0 0
Fe 2.85675500 4.04248404 1.04214340
Fe 2.85675500 6.06000920 3.07717661
Co 1.42837750 2.02003000 -3.030007829999999 0 0 0
Co 1.42837750 0.00000000 -1.0100894799999978 0 0 0
Co 1.43837614 2.01994920 1.00852587
Co 1.41717902 4.04902893 2.94713671
Co 1.42837750 6.06009000 -3.030007829999999 0 0 0
Co 1.42837750 4.04006000 -1.0100894799999978 0 0 0
Co 1.42734907 6.06049401 1.03067695
Co 1.41637913 8.07107027 2.94713671
Co 4.28513250 2.02003000 -3.030007829999999 0 0 0
Co 4.28513250 0.00000000 -1.0100894799999978 0 0 0
Co 4.27513386 2.01994920 1.00852587
Co 4.29633098 4.04902893 2.94687611
Co 4.28513250 6.06009000 -3.030007829999999 0 0 0
Co 4.28513250 4.04006000 -1.0100894799999978 0 0 0
Co 4.28616093 6.06049401 1.03067695
Co 4.29713087 8.07107027 2.94713671
C 0.00000000 2.01994920 4.87141449
O 0.00000000 2.01994920 6.03239195
