&CONTROL
calculation = 'relax'
prefix = 'scf'
pseudo_dir = '/vol0004/mdt0/data/hp150275/u10028/POT_KKJUS'
outdir = './data'
tprnfor = .true.
nstep = 50
disk_io = 'non'
/
&SYSTEM
ibrav = 0
ecutwfc = 50.0
ecutrho = 400
occupations = 'smearing'
smearing = 'mp'
degauss = 0.01
assume_isolated = 'esm'
esm_bc = 'bc1'
input_dft = 'BEEF-VDW'
nosym = .true.
nspin = 1
ntyp = 4
nat = 33
/
&ELECTRONS
electron_maxstep = 200
mixing_beta = 0.1
conv_thr = 1e-06
/
&IONS
ion_dynamics = 'bfgs'
upscale = 1.0
/
&CELL
/

K_POINTS {automatic}
8 6 1 0 0 0

ATOMIC_SPECIES
Au 196.9 Au.pbe-n-rrkjus_psl.1.0.0.UPF
C 12.01 C.pbe-n-rrkjus_psl.1.0.0.UPF
Li 6.941 Li.pbe-sl-rrkjus_psl.1.0.0.UPF
Pb 207.2 Pb.pbe-dn-rrkjus_psl.1.0.0.UPF

CELL_PARAMETERS {angstrom}
6.82040000 0.00000000 0.00000000
0.00000000 9.64550000 0.00000000
0.00000000 0.00000000 27.23410000

ATOMIC_POSITIONS {angstrom}
Li 0.00000000 7.23412500 -1.2056536100000024 0 0 0
Li 3.41020000 0.00000000 -3.6169608200000027 0 0 0
Li 0.00000000 2.41137500 -1.2056536100000024 0 0 0
Li 3.41020000 4.82275000 -3.6169608200000027 0 0 0
Li 1.70510000 0.00000000 -1.2056536100000024 0 0 0
Li 1.70510000 4.82275000 -1.2056536100000024 0 0 0
Li 5.11530000 7.23412500 -3.6169608200000027 0 0 0
Li 5.11530000 2.41137500 -3.6169608200000027 0 0 0
Li 6.71536584 2.12345683 3.69702908
Li 3.45582848 4.82275000 1.16997694
Li 6.71536584 7.52204318 3.69675673
Li 3.40133348 0.00000000 1.13484495
Li 1.56384952 4.82275000 3.47262009
Li 1.81736378 0.00000000 3.69321630
Li 4.91580330 2.33806920 1.58257355
Li 4.91580330 7.30743080 1.58257355
Pb 0.00000000 0.00000000 -3.6169608200000027 0 0 0
Pb 3.41020000 2.41137500 -1.2056536100000024 0 0 0
Pb 3.41020000 7.23412500 -1.2056536100000024 0 0 0
Pb 0.00000000 4.82275000 -3.6169608200000027 0 0 0
Pb 0.03164666 4.82275000 1.08010441
Pb 3.34383751 7.06175992 4.24988130
Pb 3.34383751 2.58374009 4.24988130
Pb 0.25358247 0.00000000 1.06866608
Au 1.70510000 2.41137500 -3.6169608200000027 0 0 0
Au 1.70510000 7.23412500 -3.6169608200000027 0 0 0
Au 5.11530000 4.82275000 -1.2056536100000024 0 0 0
Au 5.11530000 0.00000000 -1.2056536100000024 0 0 0
Au 2.02306705 7.13197916 1.58066716
Au 2.02306705 2.51342439 1.58066716
Au 4.60336078 0.00000000 3.59953100
Au 5.13351047 4.82275000 3.35796453
C 6.62172175 0.00000000 3.30022824
