&CONTROL
calculation = 'relax'
prefix = 'scf'
pseudo_dir = '/vol0403/data/hp230205/u10028/POT_HYBRID_KKJUS_GBRV'
outdir = './data'
tprnfor = .true.
nstep = 50
disk_io = 'non'
/
&SYSTEM
ibrav = 0
ecutwfc = 50.0
ecutrho = 400
occupations = 'smearing'
smearing = 'mp'
degauss = 0.01
assume_isolated = 'esm'
esm_bc = 'bc1'
input_dft = 'BEEF-VDW'
nosym = .true.
nspin = 1
ntyp = 6
nat = 34
/
&ELECTRONS
electron_maxstep = 200
mixing_beta = 0.1
conv_thr = 1e-06
/
&IONS
ion_dynamics = 'bfgs'
upscale = 1.0
/
&CELL
/

K_POINTS {automatic}
8 6 2 0  0  0

ATOMIC_SPECIES
C 12.01 C.pbe-n-rrkjus_psl.1.0.0.UPF
In 114.8 In.pbe-dn-rrkjus_psl.1.0.0.UPF
Li 6.941 Li.pbe-sl-rrkjus_psl.1.0.0.UPF
Mg 24.30 Mg.pbe-spnl-rrkjus_psl.1.0.0.UPF
O 15.99 O.pbe-n-rrkjus_psl.1.0.0.UPF
Pb 207.2 Pb.pbe-dn-rrkjus_psl.1.0.0.UPF


CELL_PARAMETERS {angstrom}
7.11424000 0.00000000 0.00000000
0.00000000 10.06110000 0.00000000
0.00000000 0.00000000 27.54580000

ATOMIC_POSITIONS {angstrom}
Li 5.33568000 0.00000000 -1.2577412300000006 0 0 0
Li 5.33568000 5.03055000 -1.2577412300000006 0 0 0
Li 1.77856000 2.51527500 -3.772948230000001 0 0 0
Li 1.77856000 7.54582500 -3.772948230000001 0 0 0
Li 5.30082022 5.03055000 3.90489261
Li 5.33774313 0.00000000 4.00984211
Li 1.74092567 7.55266655 1.37012809
Li 1.74092567 2.50853406 1.37012809
Mg 1.77856000 0.00000000 -1.2577412300000006 0 0 0
Mg 1.77856000 5.03055000 -1.2577412300000006 0 0 0
Mg 5.33568000 2.51527500 -3.772948230000001 0 0 0
Mg 5.33568000 7.54582500 -3.772948230000001 0 0 0
Mg 1.78019628 5.03055000 4.09082676
Mg 1.73046774 0.00010061 4.02223772
Mg 5.35531530 7.53495901 1.41695595
Mg 5.35538644 2.52624160 1.41668049
In 0.00000000 0.00000000 -3.772948230000001 0 0 0
In 0.00000000 5.03055000 -3.772948230000001 0 0 0
In 3.55712000 7.54582500 -1.2577412300000006 0 0 0
In 3.55712000 2.51527500 -1.2577412300000006 0 0 0
In 0.04304115 5.03065061 1.44367538
In 0.01863931 0.00000000 1.42714790
In 3.55398973 2.53036665 4.10707878
In 3.55391859 7.53083396 4.10707878
Pb 0.00000000 2.51527500 -1.2577412300000006 0 0 0
Pb 0.00000000 7.54582500 -1.2577412300000006 0 0 0
Pb 3.55712000 5.03055000 -3.772948230000001 0 0 0
Pb 3.55712000 0.00000000 -3.772948230000001 0 0 0
Pb 7.07290627 7.50608366 4.13930737
Pb 7.07283512 2.55511696 4.13903191
Pb 3.54253581 0.00000000 1.43430981
Pb 3.51912996 5.03055000 1.40511126
C 5.31611584 10.06099939 6.09478371
O 5.32337236 10.06099939 7.23958716
