&CONTROL
calculation = 'relax'
prefix = 'scf'
pseudo_dir = '/vol0403/data/hp230205/u10028/POT_HYBRID_KKJUS_GBRV'
outdir = './data'
tprnfor = .true.
nstep = 50
disk_io = 'non'
/
&SYSTEM
ibrav = 0
ecutwfc = 50.0
ecutrho = 400
occupations = 'smearing'
smearing = 'mp'
degauss = 0.01
assume_isolated = 'esm'
esm_bc = 'bc1'
input_dft = 'BEEF-VDW'
nosym = .true.
nspin = 1
ntyp = 6
nat = 18
/
&ELECTRONS
electron_maxstep = 200
mixing_beta = 0.1
conv_thr = 1e-06
/
&IONS
ion_dynamics = 'bfgs'
upscale = 1.0
/
&CELL
/

K_POINTS {automatic}
6 6 1 0 0 0

ATOMIC_SPECIES
Au 196.9 Au.pbe-n-rrkjus_psl.1.0.0.UPF
C 12.01 C.pbe-n-rrkjus_psl.1.0.0.UPF
Ge 72.64 Ge.pbe-dn-rrkjus_psl.1.0.0.UPF
In 114.8 In.pbe-dn-rrkjus_psl.1.0.0.UPF
Li 6.941 Li.pbe-sl-rrkjus_psl.1.0.0.UPF
O 15.99 O.pbe-n-rrkjus_psl.1.0.0.UPF


CELL_PARAMETERS {angstrom}
5.96101000 0.00000000 0.00000000
0.00000000 8.57796000 0.00000000
0.00000000 0.00000000 24.47060000

ATOMIC_POSITIONS {angstrom}
Li 2.98050500 0.00000000 -2.235389310000002 0 0 0
Li 0.02330755 8.57392836 0.61592500
Li 2.98050500 4.28898000 -2.235389310000002 0 0 0
Li 0.02330755 4.29301164 0.61616971
In 1.47773438 2.14449000 -0.7451297700000019 0 0 0
In 4.79318853 2.14431844 2.39249056
In 1.47773438 6.43347000 -0.7451297700000019 0 0 0
In 4.72553107 6.43347000 2.42625999
Ge 4.45823938 2.14449000 -0.7451297700000019 0 0 0
Ge 1.89786636 2.14440422 2.05920099
Ge 4.45823938 6.43347000 -0.7451297700000019 0 0 0
Ge 1.83271252 6.43355578 2.06409511
Au 0.00000000 0.00000000 -2.235389310000002 0 0 0
Au 3.16154087 8.57693064 0.85500276
Au 0.00000000 4.28898000 -2.235389310000002 0 0 0
Au 3.16166009 4.29009513 0.85500276
C 4.01438257 2.14449000 6.09758411
O 4.71563579 2.14457578 6.99198454
