&CONTROL
calculation = 'relax'
prefix = 'scf'
pseudo_dir = '/vol0403/data/hp230205/u10028/POT_HYBRID_KKJUS_GBRV'
outdir = './data'
tprnfor = .true.
nstep = 70
disk_io = 'non'
/
&SYSTEM
ibrav = 0
ecutwfc = 50.0
ecutrho = 400
occupations = 'smearing'
smearing = 'mp'
degauss = 0.01
assume_isolated = 'esm'
esm_bc = 'bc1'
input_dft = 'BEEF-VDW'
nosym = .true.
nspin = 1
ntyp = 6
nat = 34
/
&ELECTRONS
electron_maxstep = 200
mixing_beta = 0.1
conv_thr = 1e-06
/
&IONS
ion_dynamics = 'bfgs'
upscale = 1.0
/
&CELL
/

K_POINTS {automatic}
6 6 1 0 0 0

ATOMIC_SPECIES
Ag 107.8 Ag.pbe-n-rrkjus_psl.1.0.0.UPF
C 12.01 C.pbe-n-rrkjus_psl.1.0.0.UPF
Li 6.941 Li.pbe-sl-rrkjus_psl.1.0.0.UPF
O 15.99 O.pbe-n-rrkjus_psl.1.0.0.UPF
Pd 106.4 Pd.pbe-n-rrkjus_psl.1.0.0.UPF
Sn 118.7 Sn.pbe-dn-rrkjus_psl.1.0.0.UPF


CELL_PARAMETERS {angstrom}
6.55175000 0.00000000 0.00000000
-0.00000000 9.26558000 0.00000000
0.00000000 0.00000000 26.94920000

ATOMIC_POSITIONS {angstrom}
Li 1.63793750 0.00000000 -1.1582766200000023 0 0 0
Li 1.63793750 4.63279000 -1.1582766200000023 0 0 0
Li 4.91381250 2.31639500 -3.4745603600000017 0 0 0
Li 4.91381250 6.94918500 -3.4745603600000017 0 0 0
Li 1.58283728 4.64187027 3.52091298
Li 1.58290280 9.25659239 3.52091298
Li 4.87653304 6.94918500 1.04751540
Li 4.92232977 2.31648766 1.12243418
Ag 0.00000000 0.00000000 -3.4745603600000017 0 0 0
Ag 0.00000000 4.63279000 -3.4745603600000017 0 0 0
Ag 3.27587500 6.94918500 -1.1582766200000023 0 0 0
Ag 3.27587500 2.31639500 -1.1582766200000023 0 0 0
Ag 6.44934615 4.59341128 1.28709379
Ag 6.44901856 0.03947137 1.28736328
Ag 3.40953070 2.31648766 3.35463642
Ag 3.32724072 6.94927766 3.35463642
Sn 4.91381250 0.00000000 -1.1582766200000023 0 0 0
Sn 4.91381250 4.63279000 -1.1582766200000023 0 0 0
Sn 1.63793750 2.31639500 -3.4745603600000017 0 0 0
Sn 1.63793750 6.94918500 -3.4745603600000017 0 0 0
Sn 4.92436082 4.65938221 3.74539982
Sn 4.92436082 9.23908044 3.74566931
Sn 1.61251671 6.94927766 1.12917148
Sn 1.61703742 2.31639500 1.12728504
Pd 0.00000000 2.31639500 -1.1582766200000023 0 0 0
Pd 0.00000000 6.94918500 -1.1582766200000023 0 0 0
Pd 3.27587500 4.63279000 -3.4745603600000017 0 0 0
Pd 3.27587500 0.00000000 -3.4745603600000017 0 0 0
Pd 6.37065963 6.94927766 3.19213274
Pd 0.04638639 2.31648766 3.54112488
Pd 3.26473703 0.00574466 1.25098186
Pd 3.26454047 4.62713800 1.25098186
C 0.62968869 2.31658031 5.41220784
O 0.70274071 2.31667297 6.56401664
