&CONTROL
calculation = 'relax'
prefix = 'scf'
pseudo_dir = '/vol0004/mdt0/data/hp150275/u10028/POT_HYBRID_KKJUS_GBRV'
outdir = './data'
tprnfor = .true.
nstep = 50
disk_io = 'non'
/
&SYSTEM
ibrav = 0
ecutwfc = 50.0
ecutrho = 400
occupations = 'smearing'
smearing = 'mp'
degauss = 0.01
assume_isolated = 'esm'
esm_bc = 'bc1'
input_dft = 'BEEF-VDW'
nosym = .true.
nspin = 2
ntyp = 5
nat = 34
starting_magnetization(1) = 0.0
starting_magnetization(2) = 0.0
starting_magnetization(3) = 0.001
starting_magnetization(4) = 0.0
starting_magnetization(5) = 0.0
/
&ELECTRONS
electron_maxstep = 200
mixing_beta = 0.1
conv_thr = 1e-06
/
&IONS
ion_dynamics = 'bfgs'
upscale = 1.0
/
&CELL
/

K_POINTS {automatic}
9 6 2 0  0  0

ATOMIC_SPECIES
C 12.01 C.pbe-n-rrkjus_psl.1.0.0.UPF
Mg 24.30 Mg.pbe-spnl-rrkjus_psl.1.0.0.UPF
Ni 58.69 ni_pbe_v1.4.uspp.F.UPF
O 15.99 O.pbe-n-rrkjus_psl.1.0.0.UPF
Sb 121.7 Sb.pbe-n-rrkjus_psl.1.0.0.UPF

CELL_PARAMETERS {angstrom}
6.21377000 0.00000000 0.00000000
0.00000000 8.78760000 0.00000000
0.00000000 0.00000000 26.59070000

ATOMIC_POSITIONS {angstrom}
Mg 0.00000000 0.00000000 23.29531455
Mg 3.10688500 2.19690000 25.49223818
Mg 3.10688500 6.59070000 25.49223818
Mg 0.00000000 4.39380000 23.29531455
Mg 6.21358359 4.37754294 1.03331460
Mg 3.10676072 6.59122726 3.52007687
Mg 3.10676072 2.19672425 3.52247003
Mg 6.21358359 0.01634494 1.03331460
Ni 1.55344250 0.00000000 25.49223818
Ni 4.66032750 4.39380000 25.49223818
Ni 4.66032750 0.00000000 25.49223818
Ni 1.55344250 4.39380000 25.49223818
Ni 4.66032750 6.59070000 23.29531455
Ni 1.55344250 2.19690000 23.29531455
Ni 1.55344250 6.59070000 23.29531455
Ni 4.66032750 2.19690000 23.29531455
Ni 1.46396421 4.39678778 3.08585073
Ni 4.74961937 8.78470009 3.08585073
Ni 4.74949510 4.39687566 3.08585073
Ni 1.46390207 8.78470009 3.08585073
Ni 4.64069199 2.19672425 1.21306773
Ni 1.51336368 6.59087575 1.23114941
Ni 1.57282946 2.19672425 1.21306773
Ni 4.70015777 6.59087575 1.23114941
Sb 0.00000000 6.59070000 25.49223818
Sb 3.10688500 0.00000000 23.29531455
Sb 0.00000000 2.19690000 25.49223818
Sb 3.10688500 4.39380000 23.29531455
Sb 6.21358359 2.19707575 3.45306830
Sb 3.10676072 4.40724503 1.12292526
Sb 6.21364572 6.59070000 3.50492017
Sb 3.10676072 8.77424285 1.12292526
C 0.00602736 2.19505460 7.55335424
O 6.21296221 2.19716363 8.68824532
