&CONTROL
calculation = 'relax'
prefix = 'scf'
pseudo_dir = '/vol0403/data/hp230205/u10028/POT_HYBRID_KKJUS_GBRV'
outdir = './data'
tprnfor = .true.
nstep = 50
disk_io = 'non'
/
&SYSTEM
ibrav = 0
ecutwfc = 50.0
ecutrho = 400
occupations = 'smearing'
smearing = 'mp'
degauss = 0.01
assume_isolated = 'esm'
esm_bc = 'bc1'
input_dft = 'BEEF-VDW'
nosym = .true.
nspin = 1
ntyp = 6
nat = 34
/
&ELECTRONS
electron_maxstep = 200
mixing_beta = 0.1
conv_thr = 1e-06
/
&IONS
ion_dynamics = 'bfgs'
upscale = 1.0
/
&CELL
/

K_POINTS {automatic}
6 6 1 0 0 0

ATOMIC_SPECIES
C 12.01 C.pbe-n-rrkjus_psl.1.0.0.UPF
Cu 63.54 Cu.pbe-dn-rrkjus_psl.1.0.0.UPF
In 114.8 In.pbe-dn-rrkjus_psl.1.0.0.UPF
Li 6.941 Li.pbe-sl-rrkjus_psl.1.0.0.UPF
Mg 24.30 Mg.pbe-spnl-rrkjus_psl.1.0.0.UPF
O 15.99 O.pbe-n-rrkjus_psl.1.0.0.UPF


CELL_PARAMETERS {angstrom}
6.43808000 0.00000000 0.00000000
0.00000000 9.10482000 0.00000000
0.00000000 0.00000000 26.82860000

ATOMIC_POSITIONS {angstrom}
Li 0.00000000 2.27620500 -1.1380692100000012 0 0 0
Li 0.00000000 6.82861500 -1.1380692100000012 0 0 0
Li 3.21904000 4.55241000 -3.4142076400000008 0 0 0
Li 3.21904000 0.00000000 -3.4142076400000008 0 0 0
Li 0.24007600 6.82861500 4.50666823
Li 0.23602001 2.27611395 4.46347418
Li 3.20861031 9.10418266 1.21184786
Li 3.20854593 4.55295629 1.21184786
Mg 4.82856000 0.00000000 -1.1380692100000012 0 0 0
Mg 4.82856000 4.55241000 -1.1380692100000012 0 0 0
Mg 1.60952000 2.27620500 -3.4142076400000008 0 0 0
Mg 1.60952000 6.82861500 -3.4142076400000008 0 0 0
Mg 4.87285399 4.56715981 3.55988693
Mg 4.87259647 9.08997914 3.56015522
Mg 1.51475146 6.82861500 1.34786886
Mg 1.51732669 2.27611395 1.32882056
In 1.60952000 0.00000000 -1.1380692100000012 0 0 0
In 1.60952000 4.55241000 -1.1380692100000012 0 0 0
In 4.82856000 2.27620500 -3.4142076400000008 0 0 0
In 4.82856000 6.82861500 -3.4142076400000008 0 0 0
In 1.62902738 4.55960281 3.63473873
In 1.62889862 9.09762719 3.63473873
In 4.87021438 6.82861500 1.29743110
In 4.87761817 2.27620500 1.32238169
Cu 0.00000000 0.00000000 -3.4142076400000008 0 0 0
Cu 0.00000000 4.55241000 -3.4142076400000008 0 0 0
Cu 3.21904000 6.82861500 -1.1380692100000012 0 0 0
Cu 3.21904000 2.27620500 -1.1380692100000012 0 0 0
Cu 0.01075159 4.55477725 1.09836288
Cu 0.01068721 9.10236170 1.09836288
Cu 3.17745000 2.27620500 3.42332936
Cu 3.20062709 6.82852395 3.43057308
C 6.08218294 2.27620500 6.45603430
O 5.72686530 2.27620500 7.54044632
