&CONTROL
calculation = 'relax'
prefix = 'scf'
pseudo_dir = '/vol0004/mdt0/data/hp150275/u10028/POT_KKJUS'
outdir = './data'
tprnfor = .true.
nstep = 50
disk_io = 'non'
/
&SYSTEM
ibrav = 0
ecutwfc = 50.0
ecutrho = 400
occupations = 'smearing'
smearing = 'mp'
degauss = 0.01
assume_isolated = 'esm'
esm_bc = 'bc1'
input_dft = 'BEEF-VDW'
nosym = .true.
nspin = 1
ntyp = 4
nat = 33
/
&ELECTRONS
electron_maxstep = 200
mixing_beta = 0.1
conv_thr = 1e-06
/
&IONS
ion_dynamics = 'bfgs'
upscale = 1.0
/
&CELL
/

K_POINTS {automatic}
8 6 1 0 0 0

ATOMIC_SPECIES
C 12.01 C.pbe-n-rrkjus_psl.1.0.0.UPF
K 39.09 K.pbe-spn-rrkjus_psl.1.0.0.UPF
Na 22.98 Na.pbe-spnl-rrkjus_psl.1.0.0.UPF
Sb 121.7 Sb.pbe-n-rrkjus_psl.1.0.0.UPF

CELL_PARAMETERS {angstrom}
7.84214000 0.00000000 0.00000000
0.00000000 11.09050000 0.00000000
0.00000000 0.00000000 28.31780000

ATOMIC_POSITIONS {angstrom}
K 0.00000000 0.00000000 -4.1590352899999985 0 0 0
K 3.92107000 2.77262500 -1.3864394899999972 0 0 0
K 3.92107000 8.31787500 -1.3864394899999972 0 0 0
K 0.00000000 5.54525000 -4.1590352899999985 0 0 0
K 0.13629639 5.43068514 1.32045901
K 3.69223635 8.31632233 4.68064916
K 4.03611419 2.76574889 5.57605800
K 0.13896272 0.11556301 1.32244126
Na 1.96053500 0.00000000 -1.3864394899999972 0 0 0
Na 5.88160500 5.54525000 -1.3864394899999972 0 0 0
Na 5.88160500 0.00000000 -1.3864394899999972 0 0 0
Na 1.96053500 5.54525000 -1.3864394899999972 0 0 0
Na 5.88160500 8.31787500 -4.1590352899999985 0 0 0
Na 1.96053500 2.77262500 -4.1590352899999985 0 0 0
Na 1.96053500 8.31787500 -4.1590352899999985 0 0 0
Na 5.88160500 2.77262500 -4.1590352899999985 0 0 0
Na 1.66637633 5.36425304 4.35244586
Na 5.99845289 10.85493778 4.08002862
Na 5.99970763 5.77393611 4.07861273
Na 1.66316105 0.15770691 4.36065802
Na 5.71480268 2.77107233 1.45553492
Na 2.06734495 8.31854043 1.55266497
Na 2.57026138 2.77129414 2.03859842
Na 5.88842766 8.31787500 1.49942751
Sb 0.00000000 8.31787500 -1.3864394899999972 0 0 0
Sb 3.92107000 0.00000000 -4.1590352899999985 0 0 0
Sb 0.00000000 2.77262500 -1.3864394899999972 0 0 0
Sb 3.92107000 5.54525000 -4.1590352899999985 0 0 0
Sb 7.34745781 2.77329043 4.23181203
Sb 3.97651393 5.60802223 1.50452471
Sb 0.06407028 8.31621143 4.06190523
Sb 3.97800394 11.02506605 1.50254247
C 1.56286008 2.77085052 4.33403929
