&CONTROL
calculation = 'relax'
prefix = 'scf'
pseudo_dir = '/vol0403/data/hp230205/u10028/POT_HYBRID_KKJUS_GBRV'
outdir = './data'
tprnfor = .true.
nstep = 50
disk_io = 'non'
/
&SYSTEM
ibrav = 0
ecutwfc = 50.0
ecutrho = 400
occupations = 'smearing'
smearing = 'mp'
degauss = 0.01
assume_isolated = 'esm'
esm_bc = 'bc1'
input_dft = 'BEEF-VDW'
nosym = .true.
nspin = 1
ntyp = 6
nat = 34
/
&ELECTRONS
electron_maxstep = 200
mixing_beta = 0.1
conv_thr = 1e-06
/
&IONS
ion_dynamics = 'bfgs'
upscale = 1.0
/
&CELL
/

K_POINTS {automatic}
7 7 2 0  0  0

ATOMIC_SPECIES
C 12.01 C.pbe-n-rrkjus_psl.1.0.0.UPF
Li 6.941 Li.pbe-sl-rrkjus_psl.1.0.0.UPF
O 15.99 O.pbe-n-rrkjus_psl.1.0.0.UPF
Pb 207.2 Pb.pbe-dn-rrkjus_psl.1.0.0.UPF
Sn 118.7 Sn.pbe-dn-rrkjus_psl.1.0.0.UPF
Y 88.90 Y.pbe-spn-rrkjus_psl.1.0.0.UPF


CELL_PARAMETERS {angstrom}
8.87168000 0.00000000 0.00000000
0.00000000 9.36828000 0.00000000
0.00000000 0.00000000 27.23350000

ATOMIC_POSITIONS {angstrom}
Li 0.00000000 0.00000000 -3.616608799999998 0 0 0
Li 0.00000000 9.36603161 1.22741384
Li 0.00000000 4.68414000 -3.616608799999998 0 0 0
Li 0.00000000 4.68638839 1.22741384
Li 4.43584000 0.00000000 -3.616608799999998 0 0 0
Li 4.43584000 9.35722543 1.21706512
Li 4.43584000 4.68414000 -3.616608799999998 0 0 0
Li 4.43584000 4.69519457 1.21706512
Y 0.00000000 2.34207000 -1.2056270500000004 0 0 0
Y 0.00000000 2.34207000 3.60054103
Y 0.00000000 7.02621000 -1.2056270500000004 0 0 0
Y 0.00000000 7.02621000 3.59346033
Y 4.43584000 2.34207000 -1.2056270500000004 0 0 0
Y 4.43584000 2.34207000 3.56159713
Y 4.43584000 7.02621000 -1.2056270500000004 0 0 0
Y 4.43584000 7.02621000 3.59890702
Sn 2.21792000 0.00000000 -1.2056270500000004 0 0 0
Sn 2.21978305 9.35478968 3.66426742
Sn 2.21792000 4.68414000 -1.2056270500000004 0 0 0
Sn 2.21978305 4.69763032 3.66426742
Sn 6.65376000 0.00000000 -1.2056270500000004 0 0 0
Sn 6.65189695 9.35478968 3.66426742
Sn 6.65376000 4.68414000 -1.2056270500000004 0 0 0
Sn 6.65180823 4.69763032 3.66426742
Pb 2.21792000 2.34207000 -3.616608799999998 0 0 0
Pb 2.21170982 2.34207000 1.25219633
Pb 2.21792000 7.02621000 -3.616608799999998 0 0 0
Pb 2.21321801 7.02621000 1.25628135
Pb 6.65376000 2.34207000 -3.616608799999998 0 0 0
Pb 6.65997018 2.34207000 1.25219633
Pb 6.65376000 7.02621000 -3.616608799999998 0 0 0
Pb 6.65846199 7.02621000 1.25628135
C 0.00000000 2.34207000 6.08151289
O 0.00000000 2.34207000 7.23022191
