&CONTROL
calculation = 'relax'
prefix = 'scf'
pseudo_dir = '/vol0004/mdt0/data/hp150275/u10028/POT_KKJUS'
outdir = './data'
tprnfor = .true.
nstep = 50
disk_io = 'non'
/
&SYSTEM
ibrav = 0
ecutwfc = 50.0
ecutrho = 400
occupations = 'smearing'
smearing = 'mp'
degauss = 0.01
assume_isolated = 'esm'
esm_bc = 'bc1'
input_dft = 'BEEF-VDW'
nosym = .true.
nspin = 1
ntyp = 3
nat = 33
/
&ELECTRONS
electron_maxstep = 200
mixing_beta = 0.1
conv_thr = 1e-06
/
&IONS
ion_dynamics = 'bfgs'
upscale = 1.0
/
&CELL
/

K_POINTS {automatic}
9 6 2 0  0  0

ATOMIC_SPECIES
Al 26.98 Al.pbe-nl-rrkjus_psl.1.0.0.UPF
C 12.01 C.pbe-n-rrkjus_psl.1.0.0.UPF
Ir 192.2 Ir.pbe-n-rrkjus_psl.0.2.3.UPF

CELL_PARAMETERS {angstrom}
6.03636000 0.00000000 0.00000000
0.00000000 8.53670000 0.00000000
0.00000000 0.00000000 26.40250000

ATOMIC_POSITIONS {angstrom}
Al 0.00000000 0.00000000 -3.2013031199999986 0 0 0
Al 0.00000000 2.13417500 -1.0671890499999996 0 0 0
Al 0.00000000 0.00000000 1.04949937
Al 0.00000000 2.27349394 3.30427288
Al 0.00000000 4.26835000 -3.2013031199999986 0 0 0
Al 0.00000000 6.40252500 -1.0671890499999996 0 0 0
Al 0.00000000 4.26835000 1.07827810
Al 0.00000000 6.26320606 3.30427288
Al 3.01818000 0.00000000 -3.2013031199999986 0 0 0
Al 3.01818000 2.13417500 -1.0671890499999996 0 0 0
Al 3.01818000 0.00000000 1.00514317
Al 3.01818000 2.17574873 3.33357965
Al 3.01818000 4.26835000 -3.2013031199999986 0 0 0
Al 3.01818000 6.40252500 -1.0671890499999996 0 0 0
Al 3.01818000 4.26835000 1.06375672
Al 3.01818000 6.36095127 3.33357965
Ir 1.50909000 2.13417500 -3.2013031199999986 0 0 0
Ir 1.50909000 0.00000000 -1.0671890499999996 0 0 0
Ir 1.51403982 2.08696705 1.05768415
Ir 1.47745947 0.00000000 3.23219405
Ir 1.50909000 6.40252500 -3.2013031199999986 0 0 0
Ir 1.50909000 4.26835000 -1.0671890499999996 0 0 0
Ir 1.51403982 6.44973295 1.05768415
Ir 1.53462380 4.26835000 3.10414192
Ir 4.52727000 2.13417500 -3.2013031199999986 0 0 0
Ir 4.52727000 0.00000000 -1.0671890499999996 0 0 0
Ir 4.52232018 2.08696705 1.05768415
Ir 4.55890053 0.00000000 3.23219405
Ir 4.52727000 6.40252500 -3.2013031199999986 0 0 0
Ir 4.52727000 4.26835000 -1.0671890499999996 0 0 0
Ir 4.52232018 6.44973295 1.05768415
Ir 4.50173620 4.26835000 3.10414192
C 0.00000000 0.00000000 4.42532302
