&CONTROL
calculation = 'relax'
prefix = 'scf'
pseudo_dir = '/vol0403/data/hp230205/u10028/POT_HYBRID_KKJUS_GBRV'
outdir = './data'
tprnfor = .true.
nstep = 70
disk_io = 'non'
/
&SYSTEM
ibrav = 0
ecutwfc = 50.0
ecutrho = 400
occupations = 'smearing'
smearing = 'mp'
degauss = 0.01
assume_isolated = 'esm'
esm_bc = 'bc1'
input_dft = 'BEEF-VDW'
nosym = .true.
nspin = 1
ntyp = 6
nat = 18
/
&ELECTRONS
electron_maxstep = 200
mixing_beta = 0.1
conv_thr = 1e-06
/
&IONS
ion_dynamics = 'bfgs'
upscale = 1.0
/
&CELL
/

K_POINTS {automatic}
6 6 1 0 0 0

ATOMIC_SPECIES
C 12.01 C.pbe-n-rrkjus_psl.1.0.0.UPF
Ge 72.64 Ge.pbe-dn-rrkjus_psl.1.0.0.UPF
O 15.99 O.pbe-n-rrkjus_psl.1.0.0.UPF
Pd 106.4 Pd.pbe-n-rrkjus_psl.1.0.0.UPF
Sn 118.7 Sn.pbe-dn-rrkjus_psl.1.0.0.UPF
Y 88.90 Y.pbe-spn-rrkjus_psl.1.0.0.UPF


CELL_PARAMETERS {angstrom}
6.28620000 0.00000000 0.00000000
-0.00000000 8.65102000 0.00000000
0.00000000 0.00000000 24.64860000

ATOMIC_POSITIONS {angstrom}
Y 1.30979263 2.17149253 0.71135860
Y 3.92799493 2.16275500 -2.3243629799999965 0 0 0
Y 1.31633028 6.48194976 0.70568942
Y 3.92799493 6.48826500 -2.3243629799999965 0 0 0
Sn 3.17893134 0.00069208 2.21196536
Sn 5.76180520 0.00000000 -0.7747054999999996 0 0 0
Sn 3.17314804 4.32377980 2.21960643
Sn 5.76180520 4.32551000 -0.7747054999999996 0 0 0
Ge 5.91713720 8.64306106 2.00097335
Ge 2.61870520 0.00000000 -0.7747054999999996 0 0 0
Ge 5.90469052 4.33987069 2.01206522
Ge 2.61870520 4.32551000 -0.7747054999999996 0 0 0
Pd 4.51166860 2.16171688 0.95932351
Pd 0.78489493 2.16275500 -2.3243629799999965 0 0 0
Pd 4.50758257 6.48990869 0.95784460
Pd 0.78489493 6.48826500 -2.3243629799999965 0 0 0
C 3.64587028 0.00034604 5.75815945
O 2.86399272 8.65032792 6.58413403
