&CONTROL
calculation = 'relax'
prefix = 'scf'
pseudo_dir = '/vol0403/data/hp230205/u10028/POT_HYBRID_KKJUS_GBRV'
outdir = './data'
tprnfor = .true.
nstep = 70
disk_io = 'non'
/
&SYSTEM
ibrav = 0
ecutwfc = 50.0
ecutrho = 400
occupations = 'smearing'
smearing = 'mp'
degauss = 0.01
assume_isolated = 'esm'
esm_bc = 'bc1'
input_dft = 'BEEF-VDW'
nosym = .true.
nspin = 1
ntyp = 5
nat = 33
/
&ELECTRONS
electron_maxstep = 200
mixing_beta = 0.1
conv_thr = 1e-06
/
&IONS
ion_dynamics = 'bfgs'
upscale = 1.0
/
&CELL
/

K_POINTS {automatic}
6 6 1 0 0 0

ATOMIC_SPECIES
Ag 107.8 Ag.pbe-n-rrkjus_psl.1.0.0.UPF
Al 26.98 Al.pbe-nl-rrkjus_psl.1.0.0.UPF
C 12.01 C.pbe-n-rrkjus_psl.1.0.0.UPF
Cu 63.54 Cu.pbe-dn-rrkjus_psl.1.0.0.UPF
Li 6.941 Li.pbe-sl-rrkjus_psl.1.0.0.UPF


CELL_PARAMETERS {angstrom}
6.15237000 0.00000000 0.00000000
-0.00000000 8.70076000 0.00000000
0.00000000 0.00000000 26.52560000

ATOMIC_POSITIONS {angstrom}
Li 4.61427750 0.00000000 -1.0875495999999991 0 0 0
Li 4.61427750 4.35038000 -1.0875495999999991 0 0 0
Li 1.53809250 2.17519000 -3.26291406 0 0 0
Li 1.53809250 6.52557000 -3.26291406 0 0 0
Li 4.61427750 4.35038000 3.26291406
Li 4.61427750 -0.00000000 3.26291406
Li 1.53809250 6.52557000 1.08754960
Li 1.53809250 2.17519000 1.08754960
Al 1.53809250 0.00000000 -1.0875495999999991 0 0 0
Al 1.53809250 4.35038000 -1.0875495999999991 0 0 0
Al 4.61427750 2.17519000 -3.26291406 0 0 0
Al 4.61427750 6.52557000 -3.26291406 0 0 0
Al 1.53809250 4.35038000 3.26291406
Al 1.53809250 -0.00000000 3.26291406
Al 4.61427750 6.52557000 1.08754960
Al 4.61427750 2.17519000 1.08754960
Cu 0.00000000 2.17519000 -1.0875495999999991 0 0 0
Cu 0.00000000 6.52557000 -1.0875495999999991 0 0 0
Cu 3.07618500 4.35038000 -3.26291406 0 0 0
Cu 3.07618500 0.00000000 -3.26291406 0 0 0
Cu 0.00000000 6.52557000 3.26291406
Cu 0.00000000 2.17519000 3.26291406
Cu 3.07618500 -0.00000000 1.08754960
Cu 3.07618500 4.35038000 1.08754960
Ag 0.00000000 0.00000000 -3.26291406 0 0 0
Ag 0.00000000 4.35038000 -3.26291406 0 0 0
Ag 3.07618500 6.52557000 -1.0875495999999991 0 0 0
Ag 3.07618500 2.17519000 -1.0875495999999991 0 0 0
Ag 0.00000000 4.35038000 1.08754960
Ag 0.00000000 0.00000000 1.08754960
Ag 3.07618500 2.17519000 3.26291406
Ag 3.07618500 6.52557000 3.26291406
C 3.07618500 -0.00000000 4.06266090
