&CONTROL
calculation = 'relax'
prefix = 'scf'
pseudo_dir = '/vol0403/data/hp230205/u10028/POT_HYBRID_KKJUS_GBRV'
outdir = './data'
tprnfor = .true.
nstep = 70
disk_io = 'non'
/
&SYSTEM
ibrav = 0
ecutwfc = 50.0
ecutrho = 400
occupations = 'smearing'
smearing = 'mp'
degauss = 0.01
assume_isolated = 'esm'
esm_bc = 'bc1'
input_dft = 'BEEF-VDW'
nosym = .true.
nspin = 1
ntyp = 5
nat = 33
/
&ELECTRONS
electron_maxstep = 200
mixing_beta = 0.1
conv_thr = 1e-06
/
&IONS
ion_dynamics = 'bfgs'
upscale = 1.0
/
&CELL
/

K_POINTS {automatic}
6 6 1 0 0 0

ATOMIC_SPECIES
Ag 107.8 Ag.pbe-n-rrkjus_psl.1.0.0.UPF
Al 26.98 Al.pbe-nl-rrkjus_psl.1.0.0.UPF
C 12.01 C.pbe-n-rrkjus_psl.1.0.0.UPF
Cu 63.54 Cu.pbe-dn-rrkjus_psl.1.0.0.UPF
Li 6.941 Li.pbe-sl-rrkjus_psl.1.0.0.UPF


CELL_PARAMETERS {angstrom}
6.15237000 0.00000000 0.00000000
-0.00000000 8.70076000 0.00000000
0.00000000 0.00000000 26.52560000

ATOMIC_POSITIONS {angstrom}
Li 4.61427750 0.00000000 -1.0875495999999991 0 0 0
Li 4.61427750 4.35038000 -1.0875495999999991 0 0 0
Li 1.53809250 2.17519000 -3.26291406 0 0 0
Li 1.53809250 6.52557000 -3.26291406 0 0 0
Li 4.53761897 4.35038000 3.49527831
Li 4.52186890 -0.00000000 3.41649728
Li 1.56042560 6.60831423 1.11460571
Li 1.56042560 2.09244577 1.11460571
Al 1.53809250 0.00000000 -1.0875495999999991 0 0 0
Al 1.53809250 4.35038000 -1.0875495999999991 0 0 0
Al 4.61427750 2.17519000 -3.26291406 0 0 0
Al 4.61427750 6.52557000 -3.26291406 0 0 0
Al 1.42593479 4.35038000 3.44116609
Al 0.95103335 -0.00000000 3.79979220
Al 4.56364349 6.46814498 1.16871794
Al 4.56370502 2.23261502 1.16871794
Cu 0.00000000 2.17519000 -1.0875495999999991 0 0 0
Cu 0.00000000 6.52557000 -1.0875495999999991 0 0 0
Cu 3.07618500 4.35038000 -3.26291406 0 0 0
Cu 3.07618500 0.00000000 -3.26291406 0 0 0
Cu 6.13951155 6.44500096 3.18307200
Cu 6.13951155 2.25575904 3.18307200
Cu 3.10060991 -0.00000000 0.92547818
Cu 3.02253633 4.35038000 1.18118497
Ag 0.00000000 0.00000000 -3.26291406 0 0 0
Ag 0.00000000 4.35038000 -3.26291406 0 0 0
Ag 3.07618500 6.52557000 -1.0875495999999991 0 0 0
Ag 3.07618500 2.17519000 -1.0875495999999991 0 0 0
Ag 0.04681954 4.35038000 1.12654223
Ag 6.10105923 -0.00000000 1.11805404
Ag 2.87500250 2.19911709 3.39129796
Ag 2.87500250 6.50155590 3.39129796
C 2.55231069 -0.00000000 2.75600984
