&CONTROL
calculation = 'relax'
prefix = 'scf'
pseudo_dir = '/vol0004/mdt0/data/hp150275/u10028/POT_HYBRID_KKJUS_GBRV'
outdir = './data'
tprnfor = .true.
nstep = 50
disk_io = 'non'
/
&SYSTEM
ibrav = 0
ecutwfc = 50.0
ecutrho = 400
occupations = 'smearing'
smearing = 'mp'
degauss = 0.01
assume_isolated = 'esm'
esm_bc = 'bc1'
input_dft = 'BEEF-VDW'
nosym = .true.
nspin = 2
ntyp = 3
nat = 32
starting_magnetization(1) = 0.0
starting_magnetization(2) = 0.1
starting_magnetization(3) = 0.001
/
&ELECTRONS
electron_maxstep = 300
mixing_beta = 0.1
conv_thr = 1e-06
/
&IONS
ion_dynamics = 'bfgs'
upscale = 1.0
/
&CELL
/

K_POINTS {automatic}
9 6 2 0  0  0

ATOMIC_SPECIES
Al 26.98 Al.pbe-nl-rrkjus_psl.1.0.0.UPF
Fe 55.84 fe_pbe_v1.5.uspp.F.UPF
Ni 58.69 ni_pbe_v1.4.uspp.F.UPF

CELL_PARAMETERS {angstrom}
5.78917000 0.00000000 0.00000000
0.00000000 8.18712000 0.00000000
0.00000000 0.00000000 26.14030000

ATOMIC_POSITIONS {angstrom}
Al 0.00000000 0.00000000 -3.0701782400000006 0 0 0
Al 2.89458500 2.04678000 -1.0233927399999985 0 0 0
Al 2.89458500 6.14034000 -1.0233927399999985 0 0 0
Al 0.00000000 4.09356000 -3.0701782400000006 0 0 0
Al 0.00000000 4.09274129 1.00953839
Al 2.89458500 6.14042187 3.52894050
Al 2.89458500 2.04669813 3.52998611
Al 0.00000000 0.00081871 1.00927698
Fe 1.44729250 0.00000000 -1.0233927399999985 0 0 0
Fe 4.34187750 4.09356000 -1.0233927399999985 0 0 0
Fe 4.34187750 0.00000000 -1.0233927399999985 0 0 0
Fe 1.44729250 4.09356000 -1.0233927399999985 0 0 0
Fe 4.34187750 6.14034000 -3.0701782400000006 0 0 0
Fe 1.44729250 2.04678000 -3.0701782400000006 0 0 0
Fe 1.44729250 6.14034000 -3.0701782400000006 0 0 0
Fe 4.34187750 2.04678000 -3.0701782400000006 0 0 0
Fe 1.58490107 4.09356000 2.97555035
Fe 4.20438471 0.00000000 2.97528895
Fe 4.20426893 4.09356000 2.97555035
Fe 1.58478529 8.18703813 2.97528895
Fe 4.22962549 2.04669813 1.19225908
Fe 1.55780776 6.14034000 1.19173628
Fe 1.55954451 2.04669813 1.19225908
Fe 4.23142014 6.14042187 1.19173628
Ni 0.00000000 6.14034000 -1.0233927399999985 0 0 0
Ni 2.89458500 0.00000000 -3.0701782400000006 0 0 0
Ni 0.00000000 2.04678000 -1.0233927399999985 0 0 0
Ni 2.89458500 4.09356000 -3.0701782400000006 0 0 0
Ni 0.00000000 2.04686187 2.99071172
Ni 2.89458500 4.09429684 0.78943706
Ni 0.00000000 6.14017626 2.99149593
Ni 2.89458500 8.18630129 0.78917566
