&CONTROL
calculation = 'relax'
prefix = 'scf'
pseudo_dir = '/vol0004/mdt0/data/hp150275/u10028/POT_KKJUS'
outdir = './data'
tprnfor = .true.
nstep = 50
disk_io = 'non'
/
&SYSTEM
ibrav = 0
ecutwfc = 50.0
ecutrho = 400
occupations = 'smearing'
smearing = 'mp'
degauss = 0.01
assume_isolated = 'esm'
esm_bc = 'bc1'
input_dft = 'BEEF-VDW'
nosym = .true.
nspin = 1
ntyp = 4
nat = 33
/
&ELECTRONS
electron_maxstep = 200
mixing_beta = 0.1
conv_thr = 1e-06
/
&IONS
ion_dynamics = 'bfgs'
upscale = 1.0
/
&CELL
/

K_POINTS {automatic}
8 6 1 0 0 0

ATOMIC_SPECIES
C 12.01 C.pbe-n-rrkjus_psl.1.0.0.UPF
In 114.8 In.pbe-dn-rrkjus_psl.1.0.0.UPF
Pd 106.4 Pd.pbe-n-rrkjus_psl.1.0.0.UPF
Sc 44.95 Sc.pbe-spn-rrkjus_psl.1.0.0.UPF

CELL_PARAMETERS {angstrom}
6.63475000 0.00000000 0.00000000
0.00000000 9.38295000 0.00000000
0.00000000 0.00000000 27.03720000

ATOMIC_POSITIONS {angstrom}
Sc 0.00000000 0.00000000 -3.518621209999999 0 0 0
Sc 3.31737500 2.34573750 -1.17287374 0 0 0
Sc 3.31737500 7.03721250 -1.17287374 0 0 0
Sc 0.00000000 4.69147500 -3.518621209999999 0 0 0
Sc 0.00000000 4.69147500 1.20072205
Sc 3.31737500 6.99714730 3.42236878
Sc 3.31737500 2.38589653 3.42236878
Sc 0.00000000 0.00000000 1.32482280
In 0.00000000 7.03721250 -1.17287374 0 0 0
In 3.31737500 0.00000000 -3.518621209999999 0 0 0
In 0.00000000 2.34573750 -1.17287374 0 0 0
In 3.31737500 4.69147500 -3.518621209999999 0 0 0
In 0.00000000 2.36797509 3.70734086
In 3.31737500 4.69147500 1.17557746
In 0.00000000 7.01497491 3.70734086
In 3.31737500 0.00000000 1.14989212
Pd 1.65868750 0.00000000 -1.17287374 0 0 0
Pd 4.97606250 4.69147500 -1.17287374 0 0 0
Pd 4.97606250 0.00000000 -1.17287374 0 0 0
Pd 1.65868750 4.69147500 -1.17287374 0 0 0
Pd 4.97606250 7.03721250 -3.518621209999999 0 0 0
Pd 1.65868750 2.34573750 -3.518621209999999 0 0 0
Pd 1.65868750 7.03721250 -3.518621209999999 0 0 0
Pd 4.97606250 2.34573750 -3.518621209999999 0 0 0
Pd 1.59718337 4.69147500 3.40587608
Pd 4.67464581 0.00000000 3.58161788
Pd 5.03756663 4.69147500 3.40587608
Pd 1.96003785 0.00000000 3.58161788
Pd 4.98846948 2.37351103 1.17260336
Pd 1.64628052 7.00943897 1.17287374
Pd 1.64634687 2.37351103 1.17287374
Pd 4.98846948 7.00943897 1.17260336
C 0.00000000 0.00000000 3.60081430
