&CONTROL
calculation = 'relax'
prefix = 'scf'
pseudo_dir = '/vol0004/mdt0/data/hp150275/u10028/POT_KKJUS'
outdir = './data'
tprnfor = .true.
nstep = 50
disk_io = 'non'
/
&SYSTEM
ibrav = 0
ecutwfc = 50.0
ecutrho = 400
occupations = 'smearing'
smearing = 'mp'
degauss = 0.01
assume_isolated = 'esm'
esm_bc = 'bc1'
input_dft = 'BEEF-VDW'
nosym = .true.
nspin = 1
ntyp = 5
nat = 34
/
&ELECTRONS
electron_maxstep = 200
mixing_beta = 0.1
conv_thr = 1e-06
/
&IONS
ion_dynamics = 'bfgs'
upscale = 1.0
/
&CELL
/

K_POINTS {automatic}
8 6 1 0 0 0

ATOMIC_SPECIES
Ag 107.8 Ag.pbe-n-rrkjus_psl.1.0.0.UPF
C 12.01 C.pbe-n-rrkjus_psl.1.0.0.UPF
Ge 72.64 Ge.pbe-dn-rrkjus_psl.1.0.0.UPF
Li 6.941 Li.pbe-sl-rrkjus_psl.1.0.0.UPF
O 15.99 O.pbe-n-rrkjus_psl.1.0.0.UPF

CELL_PARAMETERS {angstrom}
6.51415000 0.00000000 0.00000000
0.00000000 9.21240000 0.00000000
0.00000000 0.00000000 26.90930000

ATOMIC_POSITIONS {angstrom}
Li 0.00000000 0.00000000 -3.4546159300000028 0 0 0
Li 3.25707500 2.30310000 -1.1514489500000025 0 0 0
Li 3.25707500 6.90930000 -1.1514489500000025 0 0 0
Li 0.00000000 4.60620000 -3.4546159300000028 0 0 0
Li 0.00182396 4.60620000 1.12265600
Li 3.29928669 6.91022124 3.45649959
Li 3.29915641 2.30217876 3.45649959
Li 0.04709730 0.00000000 1.07475744
Ag 1.62853750 0.00000000 -1.1514489500000025 0 0 0
Ag 4.88561250 4.60620000 -1.1514489500000025 0 0 0
Ag 4.88561250 0.00000000 -1.1514489500000025 0 0 0
Ag 1.62853750 4.60620000 -1.1514489500000025 0 0 0
Ag 4.88561250 6.90930000 -3.4546159300000028 0 0 0
Ag 1.62853750 2.30310000 -3.4546159300000028 0 0 0
Ag 1.62853750 6.90930000 -3.4546159300000028 0 0 0
Ag 4.88561250 2.30310000 -3.4546159300000028 0 0 0
Ag 1.59648788 4.60620000 3.41236833
Ag 5.05478498 0.00000000 3.29558197
Ag 4.89720769 4.60620000 3.40456464
Ag 1.52932700 9.21230788 3.44977226
Ag 4.94515183 2.30936443 1.18696922
Ag 1.56587138 6.91924939 1.24697696
Ag 1.56587138 2.29315061 1.24697696
Ag 4.94521697 6.90303557 1.18696922
Ge 0.00000000 6.90930000 -1.1514489500000025 0 0 0
Ge 3.25707500 0.00000000 -3.4546159300000028 0 0 0
Ge 0.00000000 2.30310000 -1.1514489500000025 0 0 0
Ge 3.25707500 4.60620000 -3.4546159300000028 0 0 0
Ge 6.47044005 2.35238634 3.53453656
Ge 3.24430727 4.60629212 1.18024190
Ge 6.47044005 6.85992154 3.53453656
Ge 3.24241816 9.21230788 1.20230752
C 1.96082429 0.00000000 5.79115045
O 1.48796214 0.00000000 6.83038762
