&CONTROL
calculation = 'relax'
prefix = 'scf'
pseudo_dir = '/vol0004/mdt0/data/hp150275/u10028/POT_KKJUS'
outdir = './data'
tprnfor = .true.
nstep = 50
disk_io = 'non'
/
&SYSTEM
ibrav = 0
ecutwfc = 50.0
ecutrho = 400
occupations = 'smearing'
smearing = 'mp'
degauss = 0.01
assume_isolated = 'esm'
esm_bc = 'bc1'
input_dft = 'BEEF-VDW'
nosym = .true.
nspin = 1
ntyp = 3
nat = 32
/
&ELECTRONS
electron_maxstep = 200
mixing_beta = 0.1
conv_thr = 1e-06
/
&IONS
ion_dynamics = 'bfgs'
upscale = 1.0
/
&CELL
/

K_POINTS {automatic}
9 6 2 0  0  0

ATOMIC_SPECIES
Ge 72.64 Ge.pbe-dn-rrkjus_psl.1.0.0.UPF
Li 6.941 Li.pbe-sl-rrkjus_psl.1.0.0.UPF
Ni 58.69 Ni.pbe-spn-rrkjus_psl.1.0.0.UPF

CELL_PARAMETERS {angstrom}
5.73354000 0.00000000 0.00000000
0.00000000 8.10846000 0.00000000
0.00000000 0.00000000 26.08130000

ATOMIC_POSITIONS {angstrom}
Li 0.00000000 0.00000000 -3.04055795 0 0 0
Li 2.86677000 2.02711500 -1.0135193200000003 0 0 0
Li 2.86677000 6.08134500 -1.0135193200000003 0 0 0
Li 0.00000000 4.05423000 -3.04055795 0 0 0
Li 5.73348266 4.05414892 0.87528843
Li 2.86677000 6.08134500 3.46411827
Li 2.86677000 2.02703392 3.46385745
Li 0.00000000 0.00016217 0.87528843
Ni 1.43338500 0.00000000 -1.0135193200000003 0 0 0
Ni 4.30015500 4.05423000 -1.0135193200000003 0 0 0
Ni 4.30015500 0.00000000 -1.0135193200000003 0 0 0
Ni 1.43338500 4.05423000 -1.0135193200000003 0 0 0
Ni 4.30015500 6.08134500 -3.04055795 0 0 0
Ni 1.43338500 2.02711500 -3.04055795 0 0 0
Ni 1.43338500 6.08134500 -3.04055795 0 0 0
Ni 4.30015500 2.02711500 -3.04055795 0 0 0
Ni 1.28700772 4.05423000 2.83503731
Ni 4.44636027 0.00000000 2.83503731
Ni 4.44653228 4.05423000 2.83503731
Ni 1.28729440 0.00000000 2.83477650
Ni 4.29126801 2.02703392 1.04533850
Ni 1.44313202 6.08142608 1.04559932
Ni 1.44232932 2.02711500 1.04533850
Ni 4.29040798 6.08134500 1.04559932
Ge 0.00000000 6.08134500 -1.0135193200000003 0 0 0
Ge 2.86677000 0.00000000 -3.04055795 0 0 0
Ge 0.00000000 2.02711500 -1.0135193200000003 0 0 0
Ge 2.86677000 4.05423000 -3.04055795 0 0 0
Ge 0.00000000 2.02719608 3.10237063
Ge 2.86677000 4.05390566 1.01951802
Ge 0.00000000 6.08126392 3.10315307
Ge 2.86677000 0.00024325 1.01873558
