&CONTROL
calculation = 'relax'
prefix = 'scf'
pseudo_dir = '/vol0004/mdt0/data/hp150275/u10028/POT_HYBRID_KKJUS_GBRV'
outdir = './data'
tprnfor = .true.
nstep = 50
disk_io = 'non'
/
&SYSTEM
ibrav = 0
ecutwfc = 50.0
ecutrho = 400
occupations = 'smearing'
smearing = 'mp'
degauss = 0.01
assume_isolated = 'esm'
esm_bc = 'bc1'
input_dft = 'BEEF-VDW'
nosym = .true.
nspin = 2
ntyp = 3
nat = 16
starting_magnetization(1) = 0.1
starting_magnetization(2) = 0.0
starting_magnetization(3) = 0.0
/
&ELECTRONS
electron_maxstep = 200
mixing_beta = 0.1
conv_thr = 1e-06
/
&IONS
ion_dynamics = 'bfgs'
upscale = 1.0
/
&CELL
/

K_POINTS {automatic}
10 10 2 0  0  0

ATOMIC_SPECIES
Co 58.93 co_pbe_v1.2.uspp.F.UPF
Sn 118.7 Sn.pbe-dn-rrkjus_psl.1.0.0.UPF
V 50.94 V.pbe-spnl-rrkjus_psl.1.0.0.UPF

CELL_PARAMETERS {angstrom}
6.04348000 0.00000000 0.00000000
0.00000000 6.04348000 0.00000000
0.00000000 0.00000000 24.53260000

ATOMIC_POSITIONS {angstrom}
V 0.00000000 0.00000000 2.26632159
V 3.02174000 3.02174000 2.26632159
V 3.02174000 0.00000000 23.77724125
V 0.00000000 3.02174000 23.77724125
Co 1.51087000 1.51087000 0.75535875
Co 4.53261000 4.53261000 22.26627841
Co 4.53261000 1.51087000 0.75535875
Co 1.51087000 4.53261000 22.26627841
Co 4.53261000 4.53261000 0.75535875
Co 1.51087000 1.51087000 22.26627841
Co 1.51087000 4.53261000 0.75535875
Co 4.53261000 1.51087000 22.26627841
Sn 0.00000000 0.00000000 23.77724125
Sn 3.02174000 0.00000000 2.26632159
Sn 0.00000000 3.02174000 2.26632159
Sn 3.02174000 3.02174000 23.77724125
