&CONTROL
calculation = 'relax'
prefix = 'scf'
pseudo_dir = '/vol0004/mdt0/data/hp150275/u10028/POT_KKJUS'
outdir = './data'
tprnfor = .true.
nstep = 50
disk_io = 'non'
/
&SYSTEM
ibrav = 0
ecutwfc = 50.0
ecutrho = 400
occupations = 'smearing'
smearing = 'mp'
degauss = 0.01
assume_isolated = 'esm'
esm_bc = 'bc1'
input_dft = 'BEEF-VDW'
nosym = .true.
nspin = 1
ntyp = 5
nat = 34
/
&ELECTRONS
electron_maxstep = 200
mixing_beta = 0.1
conv_thr = 1e-06
/
&IONS
ion_dynamics = 'bfgs'
upscale = 1.0
/
&CELL
/

K_POINTS {automatic}
9 6 2 0  0  0

ATOMIC_SPECIES
Al 26.98 Al.pbe-nl-rrkjus_psl.1.0.0.UPF
C 12.01 C.pbe-n-rrkjus_psl.1.0.0.UPF
Li 6.941 Li.pbe-sl-rrkjus_psl.1.0.0.UPF
O 15.99 O.pbe-n-rrkjus_psl.1.0.0.UPF
Pt 195.0 Pt.pbe-n-rrkjus_psl.1.0.0.UPF

CELL_PARAMETERS {angstrom}
6.07419000 0.00000000 0.00000000
0.00000000 8.59020000 0.00000000
0.00000000 0.00000000 26.44270000

ATOMIC_POSITIONS {angstrom}
Li 0.00000000 6.44265000 -1.073838049999999 0 0 0
Li 3.03709500 0.00000000 -3.2212497099999986 0 0 0
Li 0.00000000 2.14755000 -1.073838049999999 0 0 0
Li 3.03709500 4.29510000 -3.2212497099999986 0 0 0
Li 1.51854750 0.00000000 -1.073838049999999 0 0 0
Li 1.51854750 4.29510000 -1.073838049999999 0 0 0
Li 4.55564250 6.44265000 -3.2212497099999986 0 0 0
Li 4.55564250 2.14755000 -3.2212497099999986 0 0 0
Li 5.97761038 2.09308813 3.46584469
Li 3.02300288 4.29535771 1.00112062
Li 5.97724593 6.49754138 3.46822453
Li 3.00040689 8.59011410 0.96198543
Li 1.51113699 4.29544361 3.29026516
Li 1.56768770 0.00034361 3.23209122
Li 4.62094004 2.14445753 1.02703447
Li 4.62087930 6.44565657 1.02756332
Al 0.00000000 0.00000000 -3.2212497099999986 0 0 0
Al 3.03709500 2.14755000 -1.073838049999999 0 0 0
Al 3.03709500 6.44265000 -1.073838049999999 0 0 0
Al 0.00000000 4.29510000 -3.2212497099999986 0 0 0
Al 0.01220912 4.29527180 1.07727560
Al 3.13871620 6.42349385 3.13821964
Al 3.14035623 2.16773697 3.13769078
Al 0.01870851 8.59011410 1.05903013
Pt 1.51854750 2.14755000 -3.2212497099999986 0 0 0
Pt 1.51854750 6.44265000 -3.2212497099999986 0 0 0
Pt 4.55564250 4.29510000 -1.073838049999999 0 0 0
Pt 4.55564250 0.00000000 -1.073838049999999 0 0 0
Pt 1.49388629 6.45209922 1.13201199
Pt 1.49406851 2.13810078 1.13148313
Pt 4.43197199 8.58942688 2.96845750
Pt 4.48603228 4.29681804 3.03456425
C 1.14480259 8.58848196 5.22428424
O 1.04190581 8.58788065 6.36422904
