&CONTROL
calculation = 'relax'
prefix = 'scf'
pseudo_dir = '/vol0004/mdt0/data/hp150275/u10028/POT_KKJUS'
outdir = './data'
tprnfor = .true.
nstep = 50
disk_io = 'non'
/
&SYSTEM
ibrav = 0
ecutwfc = 50.0
ecutrho = 400
occupations = 'smearing'
smearing = 'mp'
degauss = 0.01
assume_isolated = 'esm'
esm_bc = 'bc1'
input_dft = 'BEEF-VDW'
nosym = .true.
nspin = 1
ntyp = 5
nat = 18
/
&ELECTRONS
electron_maxstep = 200
mixing_beta = 0.1
conv_thr = 1e-06
/
&IONS
ion_dynamics = 'bfgs'
upscale = 1.0
/
&CELL
/

K_POINTS {automatic}
8 8 1 0 0 0

ATOMIC_SPECIES
Ag 107.8 Ag.pbe-n-rrkjus_psl.1.0.0.UPF
C 12.01 C.pbe-n-rrkjus_psl.1.0.0.UPF
Li 6.941 Li.pbe-sl-rrkjus_psl.1.0.0.UPF
O 15.99 O.pbe-n-rrkjus_psl.1.0.0.UPF
Sn 118.7 Sn.pbe-dn-rrkjus_psl.1.0.0.UPF

CELL_PARAMETERS {angstrom}
6.59455000 0.00000000 0.00000000
0.00000000 6.59455000 0.00000000
0.00000000 0.00000000 24.94590000

ATOMIC_POSITIONS {angstrom}
Li 1.63854784 1.63815217 0.81173959
Li 4.94591250 4.94591250 -2.4728870700000023 0 0 0
Li 4.95600216 1.63815217 0.81173959
Li 1.64863750 4.94591250 -2.4728870700000023 0 0 0
Li 4.95587027 4.95606811 0.81173959
Li 1.64863750 1.64863750 -2.4728870700000023 0 0 0
Li 1.63867973 4.95613405 0.81173959
Li 4.94591250 1.64863750 -2.4728870700000023 0 0 0
Ag 0.00000000 6.59389054 2.40478476
Ag 3.29720905 3.29740689 2.34890594
Ag 3.29727500 0.00000000 -0.8242125400000013 0 0 0
Ag 0.00000000 3.29727500 -0.8242125400000013 0 0 0
Sn 0.00000000 0.00000000 -0.8242125400000013 0 0 0
Sn 3.29727500 6.59435216 2.52053374
Sn 0.00000000 3.29720905 2.52028428
Sn 3.29727500 3.29727500 -0.8242125400000013 0 0 0
C 6.59435216 0.00461619 5.41874840
O 0.00013189 6.59375865 6.55603198
