&CONTROL
calculation = 'relax'
prefix = 'scf'
pseudo_dir = '/vol0403/data/hp230205/u10028/POT_HYBRID_KKJUS_GBRV'
outdir = './data'
tprnfor = .true.
nstep = 70
disk_io = 'non'
/
&SYSTEM
ibrav = 0
ecutwfc = 50.0
ecutrho = 400
occupations = 'smearing'
smearing = 'mp'
degauss = 0.01
assume_isolated = 'esm'
esm_bc = 'bc1'
input_dft = 'BEEF-VDW'
nosym = .true.
nspin = 1
ntyp = 5
nat = 17
/
&ELECTRONS
electron_maxstep = 200
mixing_beta = 0.1
conv_thr = 1e-06
/
&IONS
ion_dynamics = 'bfgs'
upscale = 1.0
/
&CELL
/

K_POINTS {automatic}
10 10 2 0  0  0

ATOMIC_SPECIES
C 12.01 C.pbe-n-rrkjus_psl.1.0.0.UPF
Cu 63.54 Cu.pbe-dn-rrkjus_psl.1.0.0.UPF
Ge 72.64 Ge.pbe-dn-rrkjus_psl.1.0.0.UPF
Pd 106.4 Pd.pbe-n-rrkjus_psl.1.0.0.UPF
Y 88.90 Y.pbe-spn-rrkjus_psl.1.0.0.UPF


CELL_PARAMETERS {angstrom}
6.58158000 0.00000000 0.00000000
-0.00000000 6.58158000 0.00000000
0.00000000 0.00000000 24.93620000

ATOMIC_POSITIONS {angstrom}
Y 4.93618500 1.64539500 -0.8226452399999999 0 0 0
Y 4.93618500 4.93618500 2.46818508
Y 1.64539500 1.64539500 2.46818508
Y 1.64539500 4.93618500 -0.8226452399999999 0 0 0
Cu 0.00000000 0.00000000 -2.468185079999998 0 0 0
Cu 0.00000000 3.29079000 0.82264524
Cu 3.29079000 -0.00000000 0.82264524
Cu 3.29079000 3.29079000 -2.468185079999998 0 0 0
Ge 1.64539500 1.64539500 -0.8226452399999999 0 0 0
Ge 1.64539500 4.93618500 2.46818508
Ge 4.93618500 1.64539500 2.46818508
Ge 4.93618500 4.93618500 -0.8226452399999999 0 0 0
Pd 0.00000000 3.29079000 -2.468185079999998 0 0 0
Pd 0.00000000 0.00000000 0.82264524
Pd 3.29079000 3.29079000 0.82264524
Pd 3.29079000 0.00000000 -2.468185079999998 0 0 0
C 0.00000000 3.29079000 3.26813837
