&CONTROL
calculation = 'relax'
prefix = 'scf'
pseudo_dir = '/vol0004/mdt0/data/hp150275/u10028/POT_KKJUS'
outdir = './data'
tprnfor = .true.
nstep = 50
disk_io = 'non'
/
&SYSTEM
ibrav = 0
ecutwfc = 50.0
ecutrho = 400
occupations = 'smearing'
smearing = 'mp'
degauss = 0.01
assume_isolated = 'esm'
esm_bc = 'bc1'
input_dft = 'BEEF-VDW'
nosym = .true.
nspin = 1
ntyp = 3
nat = 17
/
&ELECTRONS
electron_maxstep = 200
mixing_beta = 0.1
conv_thr = 1e-06
/
&IONS
ion_dynamics = 'bfgs'
upscale = 1.0
/
&CELL
/

K_POINTS {automatic}
8 11 2 0  0  0

ATOMIC_SPECIES
C 12.01 C.pbe-n-rrkjus_psl.1.0.0.UPF
Pt 195.0 Pt.pbe-n-rrkjus_psl.1.0.0.UPF
Ti 47.86 Ti.pbe-spn-rrkjus_psl.1.0.0.UPF

CELL_PARAMETERS {angstrom}
7.94591000 0.00000000 0.00000000
0.00000000 5.61861000 0.00000000
0.00000000 0.00000000 24.21400000

ATOMIC_POSITIONS {angstrom}
Ti 0.24068161 0.08203171 1.99765500
Ti 0.00000000 2.80930500 -0.7024481399999978 0 0 0
Ti 3.73227339 0.08203171 1.99765500
Ti 3.97295500 2.80930500 -0.7024481399999978 0 0 0
Pt 0.13857667 2.76643501 2.03712382
Pt 1.98647750 4.26289559 0.71528156
Pt 1.98639804 1.41971037 0.48403786
Pt 0.00000000 0.00000000 -0.7024481399999978 0 0 0
Pt 1.98647750 1.40465250 -2.1071022799999994 0 0 0
Pt 1.98647750 4.21395750 -2.1071022799999994 0 0 0
Pt 3.83437833 2.76649119 2.03712382
Pt 5.95943250 4.17811077 0.94410386
Pt 5.95943250 1.30407938 1.07752300
Pt 3.97295500 0.00000000 -0.7024481399999978 0 0 0
Pt 5.95943250 1.40465250 -2.1071022799999994 0 0 0
Pt 5.95943250 4.21395750 -2.1071022799999994 0 0 0
C 1.98639804 1.38391983 2.54561782
