&CONTROL
calculation = 'relax'
prefix = 'scf'
pseudo_dir = '/vol0004/mdt0/data/hp150275/u10028/POT_KKJUS'
outdir = './data'
tprnfor = .true.
nstep = 50
disk_io = 'non'
/
&SYSTEM
ibrav = 0
ecutwfc = 50.0
ecutrho = 400
occupations = 'smearing'
smearing = 'mp'
degauss = 0.01
assume_isolated = 'esm'
esm_bc = 'bc1'
input_dft = 'BEEF-VDW'
nosym = .true.
nspin = 1
ntyp = 3
nat = 32
/
&ELECTRONS
electron_maxstep = 200
mixing_beta = 0.1
conv_thr = 1e-06
/
&IONS
ion_dynamics = 'bfgs'
upscale = 1.0
/
&CELL
/

K_POINTS {automatic}
8 6 1 0 0 0

ATOMIC_SPECIES
Cu 63.54 Cu.pbe-dn-rrkjus_psl.1.0.0.UPF
In 114.8 In.pbe-dn-rrkjus_psl.1.0.0.UPF
Ti 47.86 Ti.pbe-spn-rrkjus_psl.1.0.0.UPF

CELL_PARAMETERS {angstrom}
6.30953000 0.00000000 0.00000000
0.00000000 8.92302000 0.00000000
0.00000000 0.00000000 26.69230000

ATOMIC_POSITIONS {angstrom}
Ti 0.00000000 0.00000000 -3.346146730000001 0 0 0
Ti 3.15476500 2.23075500 -1.1154712199999999 0 0 0
Ti 3.15476500 6.69226500 -1.1154712199999999 0 0 0
Ti 0.00000000 4.46151000 -3.346146730000001 0 0 0
Ti 0.00000000 4.46151000 1.15364121
Ti 3.15476500 6.69226500 3.22629830
Ti 3.15476500 2.23075500 3.22523061
Ti 0.00000000 0.00000000 1.15364121
In 0.00000000 6.69226500 -1.1154712199999999 0 0 0
In 3.15476500 0.00000000 -3.346146730000001 0 0 0
In 0.00000000 2.23075500 -1.1154712199999999 0 0 0
In 3.15476500 4.46151000 -3.346146730000001 0 0 0
In 0.00000000 2.23075500 3.62748357
In 3.15476500 4.46195615 1.05621431
In 0.00000000 6.69226500 3.62801742
In 3.15476500 8.92266308 1.05621431
Cu 1.57738250 0.00000000 -1.1154712199999999 0 0 0
Cu 4.73214750 4.46151000 -1.1154712199999999 0 0 0
Cu 4.73214750 0.00000000 -1.1154712199999999 0 0 0
Cu 1.57738250 4.46151000 -1.1154712199999999 0 0 0
Cu 4.73214750 6.69226500 -3.346146730000001 0 0 0
Cu 1.57738250 2.23075500 -3.346146730000001 0 0 0
Cu 1.57738250 6.69226500 -3.346146730000001 0 0 0
Cu 4.73214750 2.23075500 -3.346146730000001 0 0 0
Cu 1.72515169 4.46293768 3.36216211
Cu 4.58418902 8.92159232 3.36216211
Cu 4.58437831 4.46293768 3.36216211
Cu 1.72534098 8.92159232 3.36216211
Cu 4.81417139 2.23075500 1.18460427
Cu 1.49573718 6.69226500 1.18620581
Cu 1.49535861 2.23075500 1.18460427
Cu 4.81379282 6.69226500 1.18620581
