&CONTROL
calculation = 'relax'
prefix = 'scf'
pseudo_dir = '/vol0004/mdt0/data/hp150275/u10028/POT_HYBRID_KKJUS_GBRV'
outdir = './data'
tprnfor = .true.
nstep = 50
disk_io = 'non'
/
&SYSTEM
ibrav = 0
ecutwfc = 50.0
ecutrho = 400
occupations = 'smearing'
smearing = 'mp'
degauss = 0.01
assume_isolated = 'esm'
esm_bc = 'bc1'
input_dft = 'BEEF-VDW'
nosym = .true.
nspin = 2
ntyp = 4
nat = 34
starting_magnetization(1) = 0.0
starting_magnetization(2) = 0.1
starting_magnetization(3) = 0.0
starting_magnetization(4) = 0.0
/
&ELECTRONS
electron_maxstep = 400
mixing_beta = 0.1
conv_thr = 1e-06
/
&IONS
ion_dynamics = 'bfgs'
upscale = 1.0
/
&CELL
/

K_POINTS {automatic}
6 8 1 0 0 0

ATOMIC_SPECIES
C 12.01 C.pbe-n-rrkjus_psl.1.0.0.UPF
Mn 54.93 mn_pbe_v1.5.uspp.F.UPF
O 15.99 O.pbe-n-rrkjus_psl.1.0.0.UPF
Pd 106.4 Pd.pbe-n-rrkjus_psl.1.0.0.UPF

CELL_PARAMETERS {angstrom}
8.60668000 0.00000000 0.00000000
0.00000000 6.84086000 0.00000000
0.00000000 0.00000000 26.45500000

ATOMIC_POSITIONS {angstrom}
Mn 0.00000000 0.00000000 -3.2275099999999988 0 0 0
Mn 2.15167000 0.00000000 -1.0759248499999998 0 0 0
Mn 8.59781512 0.00000000 1.08280315
Mn 2.02730347 0.00000000 3.20343595
Mn 0.00000000 3.42043000 -3.2275099999999988 0 0 0
Mn 2.15167000 3.42043000 -1.0759248499999998 0 0 0
Mn 0.00636894 3.42043000 0.98439055
Mn 2.25495016 3.42043000 3.11507625
Mn 4.30334000 0.00000000 -3.2275099999999988 0 0 0
Mn 6.45501000 0.00000000 -1.0759248499999998 0 0 0
Mn 4.30015553 0.00000000 1.01349105
Mn 6.53152339 0.00000000 3.18994390
Mn 4.30334000 3.42043000 -3.2275099999999988 0 0 0
Mn 6.45501000 3.42043000 -1.0759248499999998 0 0 0
Mn 4.27751996 3.42043000 1.12275020
Mn 6.29965943 3.42043000 3.14285400
Pd 2.15167000 1.71021500 -3.2275099999999988 0 0 0
Pd 0.00000000 1.71021500 -1.0759248499999998 0 0 0
Pd 2.15545694 1.69037651 1.03333230
Pd 4.28449137 1.59371515 3.07116095
Pd 2.15167000 5.13064500 -3.2275099999999988 0 0 0
Pd 0.00000000 5.13064500 -1.0759248499999998 0 0 0
Pd 2.15545694 5.15048349 1.03333230
Pd 4.28449137 5.24714485 3.07116095
Pd 6.45501000 1.71021500 -3.2275099999999988 0 0 0
Pd 4.30334000 1.71021500 -1.0759248499999998 0 0 0
Pd 6.43073916 1.72252855 1.04100425
Pd 8.58283950 1.82014762 3.06375355
Pd 6.45501000 5.13064500 -3.2275099999999988 0 0 0
Pd 4.30334000 5.13064500 -1.0759248499999998 0 0 0
Pd 6.43073916 5.11833145 1.04100425
Pd 8.58283950 5.02071238 3.06375355
C 2.29841389 6.84079159 5.17512710
O 2.35857459 6.84079159 6.32565505
