&CONTROL
calculation = 'relax'
prefix = 'scf'
pseudo_dir = '/vol0004/mdt0/data/hp150275/u10028/POT_KKJUS'
outdir = './data'
tprnfor = .true.
nstep = 50
disk_io = 'non'
/
&SYSTEM
ibrav = 0
ecutwfc = 50.0
ecutrho = 400
occupations = 'smearing'
smearing = 'mp'
degauss = 0.01
assume_isolated = 'esm'
esm_bc = 'bc1'
input_dft = 'BEEF-VDW'
nosym = .true.
nspin = 1
ntyp = 5
nat = 18
/
&ELECTRONS
electron_maxstep = 200
mixing_beta = 0.1
conv_thr = 1e-06
/
&IONS
ion_dynamics = 'bfgs'
upscale = 1.0
/
&CELL
/

K_POINTS {automatic}
9 9 2 0  0  0

ATOMIC_SPECIES
C 12.01 C.pbe-n-rrkjus_psl.1.0.0.UPF
In 114.8 In.pbe-dn-rrkjus_psl.1.0.0.UPF
Ni 58.69 Ni.pbe-spn-rrkjus_psl.1.0.0.UPF
O 15.99 O.pbe-n-rrkjus_psl.1.0.0.UPF
Sc 44.95 Sc.pbe-spn-rrkjus_psl.1.0.0.UPF

CELL_PARAMETERS {angstrom}
6.35421000 0.00000000 0.00000000
0.00000000 6.35421000 0.00000000
0.00000000 0.00000000 24.76570000

ATOMIC_POSITIONS {angstrom}
Sc 6.35401937 0.00000000 2.34803602
Sc 3.17691437 3.17691437 2.36140950
Sc 3.17710500 0.00000000 -0.7942359999999979 0 0 0
Sc 0.00000000 3.17710500 -0.7942359999999979 0 0 0
In 0.00000000 0.00000000 -0.7942359999999979 0 0 0
In 3.17678729 6.35376521 2.42951517
In 6.35382875 3.17697792 2.42951517
In 3.17710500 3.17710500 -0.7942359999999979 0 0 0
Ni 1.61638394 1.61638394 0.88215423
Ni 4.76565750 4.76565750 -2.3827079999999974 0 0 0
Ni 4.73801669 1.61479539 0.88190658
Ni 1.58855250 4.76565750 -2.3827079999999974 0 0 0
Ni 4.73642813 4.73757189 0.88116361
Ni 1.58855250 1.58855250 -2.3827079999999974 0 0 0
Ni 1.61473185 4.73903336 0.88091595
Ni 4.76565750 1.58855250 -2.3827079999999974 0 0 0
C 6.35370166 6.35382875 4.68963295
O 6.35370166 6.35376521 5.83777080
