&CONTROL
calculation = 'relax'
prefix = 'scf'
pseudo_dir = '/vol0004/mdt0/data/hp150275/u10028/POT_HYBRID_KKJUS_GBRV'
outdir = './data'
tprnfor = .true.
nstep = 50
disk_io = 'non'
/
&SYSTEM
ibrav = 0
ecutwfc = 50.0
ecutrho = 400
occupations = 'smearing'
smearing = 'mp'
degauss = 0.01
assume_isolated = 'esm'
esm_bc = 'bc1'
input_dft = 'BEEF-VDW'
nosym = .true.
nspin = 2
ntyp = 4
nat = 33
starting_magnetization(1) = 0.0
starting_magnetization(2) = 0.001
starting_magnetization(3) = 0.0
starting_magnetization(4) = 0.0
/
&ELECTRONS
electron_maxstep = 300
mixing_beta = 0.1
conv_thr = 1e-06
/
&IONS
ion_dynamics = 'bfgs'
upscale = 1.0
/
&CELL
/

K_POINTS {automatic}
8 6 1 0 0 0

ATOMIC_SPECIES
C 12.01 C.pbe-n-rrkjus_psl.1.0.0.UPF
Ni 58.69 ni_pbe_v1.4.uspp.F.UPF
Sn 118.7 Sn.pbe-dn-rrkjus_psl.1.0.0.UPF
Ti 47.86 Ti.pbe-spn-rrkjus_psl.1.0.0.UPF

CELL_PARAMETERS {angstrom}
6.14873000 0.00000000 0.00000000
0.00000000 8.69561000 0.00000000
0.00000000 0.00000000 26.52170000

ATOMIC_POSITIONS {angstrom}
Ti 0.00000000 0.00000000 -3.2608430099999985 0 0 0
Ti 3.07436500 2.17390250 -1.086859269999998 0 0 0
Ti 3.07436500 6.52170750 -1.086859269999998 0 0 0
Ti 0.00000000 4.34780500 -3.2608430099999985 0 0 0
Ti 6.10857879 4.38258744 1.08208536
Ti 3.09016724 6.52179446 3.17703444
Ti 3.27303047 2.17390250 3.06272592
Ti 6.10864028 8.66082756 1.08208536
Ni 1.53718250 0.00000000 -1.086859269999998 0 0 0
Ni 4.61154750 4.34780500 -1.086859269999998 0 0 0
Ni 4.61154750 0.00000000 -1.086859269999998 0 0 0
Ni 1.53718250 4.34780500 -1.086859269999998 0 0 0
Ni 4.61154750 6.52170750 -3.2608430099999985 0 0 0
Ni 1.53718250 2.17390250 -3.2608430099999985 0 0 0
Ni 1.53718250 6.52170750 -3.2608430099999985 0 0 0
Ni 4.61154750 2.17390250 -3.2608430099999985 0 0 0
Ni 1.31484442 4.13041475 3.13380407
Ni 4.65612579 8.65674062 3.09136935
Ni 4.65612579 4.38676133 3.09136935
Ni 1.31478294 0.21739025 3.13380407
Ni 4.77793213 2.17381554 1.09852881
Ni 1.58864737 6.52170750 1.13406789
Ni 1.19967871 2.17390250 1.45524568
Ni 4.56653880 6.52170750 1.17358522
Sn 0.00000000 6.52170750 -1.086859269999998 0 0 0
Sn 3.07436500 0.00000000 -3.2608430099999985 0 0 0
Sn 0.00000000 2.17390250 -1.086859269999998 0 0 0
Sn 3.07436500 4.34780500 -3.2608430099999985 0 0 0
Sn 5.64318142 2.17390250 4.50656726
Sn 3.02824952 4.29406613 1.06060278
Sn 0.09665804 6.52170750 3.50696439
Sn 3.02824952 0.05373887 1.06060278
C 1.39084273 2.17390250 3.50722961
