&CONTROL
calculation = 'relax'
prefix = 'scf'
pseudo_dir = '/vol0004/mdt0/data/hp150275/u10028/POT_KKJUS'
outdir = './data'
tprnfor = .true.
nstep = 50
disk_io = 'non'
/
&SYSTEM
ibrav = 0
ecutwfc = 50.0
ecutrho = 400
occupations = 'smearing'
smearing = 'mp'
degauss = 0.01
assume_isolated = 'esm'
esm_bc = 'bc1'
input_dft = 'BEEF-VDW'
nosym = .true.
nspin = 1
ntyp = 4
nat = 33
/
&ELECTRONS
electron_maxstep = 200
mixing_beta = 0.1
conv_thr = 1e-06
/
&IONS
ion_dynamics = 'bfgs'
upscale = 1.0
/
&CELL
/

K_POINTS {automatic}
9 6 2 0  0  0

ATOMIC_SPECIES
Au 196.9 Au.pbe-n-rrkjus_psl.1.0.0.UPF
C 12.01 C.pbe-n-rrkjus_psl.1.0.0.UPF
Hf 178.4 Hf.pbe-spn-rrkjus_psl.1.0.0.UPF
In 114.8 In.pbe-dn-rrkjus_psl.1.0.0.UPF

CELL_PARAMETERS {angstrom}
6.82626000 0.00000000 0.00000000
0.00000000 9.65379000 0.00000000
0.00000000 0.00000000 27.24030000

ATOMIC_POSITIONS {angstrom}
Hf 0.00000000 0.00000000 -3.620235870000002 0 0 0
Hf 3.41313000 2.41344750 -1.2067452900000006 0 0 0
Hf 3.41313000 7.24034250 -1.2067452900000006 0 0 0
Hf 0.00000000 4.82689500 -3.620235870000002 0 0 0
Hf 0.00000000 4.82689500 1.34240198
Hf 3.41313000 7.50495288 3.36118062
Hf 3.41313000 2.14883712 3.36118062
Hf 0.00000000 0.00000000 1.37972120
In 0.00000000 7.24034250 -1.2067452900000006 0 0 0
In 3.41313000 0.00000000 -3.620235870000002 0 0 0
In 0.00000000 2.41344750 -1.2067452900000006 0 0 0
In 3.41313000 4.82689500 -3.620235870000002 0 0 0
In 0.00000000 2.65122035 3.99261077
In 3.41313000 4.82689500 1.13292408
In 0.00000000 7.00256965 3.99261077
In 3.41313000 0.00000000 1.11603509
Au 1.70656500 0.00000000 -1.2067452900000006 0 0 0
Au 5.11969500 4.82689500 -1.2067452900000006 0 0 0
Au 5.11969500 0.00000000 -1.2067452900000006 0 0 0
Au 1.70656500 4.82689500 -1.2067452900000006 0 0 0
Au 5.11969500 7.24034250 -3.620235870000002 0 0 0
Au 1.70656500 2.41344750 -3.620235870000002 0 0 0
Au 1.70656500 7.24034250 -3.620235870000002 0 0 0
Au 5.11969500 2.41344750 -3.620235870000002 0 0 0
Au 1.93299204 4.82689500 3.67253725
Au 5.50360386 0.00000000 4.01440301
Au 4.89326796 4.82689500 3.67253725
Au 1.32265614 0.00000000 4.01440301
Au 5.21690094 2.40485563 1.22091025
Au 1.60935906 7.24893437 1.22091025
Au 1.60935906 2.40485563 1.22091025
Au 5.21690094 7.24893437 1.22091025
C 3.41313000 0.00000000 3.56384845
