&CONTROL
calculation = 'relax'
prefix = 'scf'
pseudo_dir = '/vol0004/mdt0/data/hp150275/u10028/POT_KKJUS'
outdir = './data'
tprnfor = .true.
nstep = 50
disk_io = 'non'
/
&SYSTEM
ibrav = 0
ecutwfc = 50.0
ecutrho = 400
occupations = 'smearing'
smearing = 'mp'
degauss = 0.01
assume_isolated = 'esm'
esm_bc = 'bc1'
input_dft = 'BEEF-VDW'
nosym = .true.
nspin = 1
ntyp = 5
nat = 18
/
&ELECTRONS
electron_maxstep = 200
mixing_beta = 0.1
conv_thr = 1e-06
/
&IONS
ion_dynamics = 'bfgs'
upscale = 1.0
/
&CELL
/

K_POINTS {automatic}
8 8 1 0 0 0

ATOMIC_SPECIES
C 12.01 C.pbe-n-rrkjus_psl.1.0.0.UPF
Mg 24.30 Mg.pbe-spnl-rrkjus_psl.1.0.0.UPF
Ni 58.69 Ni.pbe-spn-rrkjus_psl.1.0.0.UPF
O 15.99 O.pbe-n-rrkjus_psl.1.0.0.UPF
Sn 118.7 Sn.pbe-dn-rrkjus_psl.1.0.0.UPF

CELL_PARAMETERS {angstrom}
6.22749000 0.00000000 0.00000000
0.00000000 6.22749000 0.00000000
0.00000000 0.00000000 24.67060000

ATOMIC_POSITIONS {angstrom}
Mg 0.00018682 6.22742773 2.40266973
Mg 3.11393182 3.11386955 2.35012136
Mg 3.11374500 0.00000000 -0.7783574299999998 0 0 0
Mg 0.00000000 3.11374500 -0.7783574299999998 0 0 0
Ni 1.54958634 1.54958634 0.83559322
Ni 4.67061750 4.67061750 -2.335319000000002 0 0 0
Ni 4.67684499 1.55064501 0.83460640
Ni 1.55687250 4.67061750 -2.335319000000002 0 0 0
Ni 4.67784139 4.67833959 0.83534652
Ni 1.55687250 1.55687250 -2.335319000000002 0 0 0
Ni 1.55070728 4.67647134 0.83411299
Ni 4.67061750 1.55687250 -2.335319000000002 0 0 0
Sn 0.00000000 0.00000000 -0.7783574299999998 0 0 0
Sn 3.11399410 6.22742773 2.39058114
Sn 6.22736545 3.11393182 2.39058114
Sn 3.11374500 3.11374500 -0.7783574299999998 0 0 0
C 6.22730318 6.22705408 4.65460210
O 6.22742773 6.22724090 5.79685088
