&CONTROL
calculation = 'relax'
prefix = 'scf'
pseudo_dir = '/vol0004/mdt0/data/hp150275/u10028/POT_KKJUS'
outdir = './data'
tprnfor = .true.
nstep = 50
disk_io = 'non'
/
&SYSTEM
ibrav = 0
ecutwfc = 50.0
ecutrho = 400
occupations = 'smearing'
smearing = 'mp'
degauss = 0.01
assume_isolated = 'esm'
esm_bc = 'bc1'
input_dft = 'BEEF-VDW'
nosym = .true.
nspin = 1
ntyp = 3
nat = 17
/
&ELECTRONS
electron_maxstep = 200
mixing_beta = 0.1
conv_thr = 1e-06
/
&IONS
ion_dynamics = 'bfgs'
upscale = 1.0
/
&CELL
/

K_POINTS {automatic}
8 11 2 0  0  0

ATOMIC_SPECIES
C 12.01 C.pbe-n-rrkjus_psl.1.0.0.UPF
Pt 195.0 Pt.pbe-n-rrkjus_psl.1.0.0.UPF
Y 88.90 Y.pbe-spn-rrkjus_psl.1.0.0.UPF

CELL_PARAMETERS {angstrom}
8.32195000 0.00000000 0.00000000
0.00000000 5.88450000 0.00000000
0.00000000 0.00000000 24.41340000

ATOMIC_POSITIONS {angstrom}
Y 8.25429255 5.86967106 2.12738368
Y 0.00000000 2.94225000 -0.735575739999998 0 0 0
Y 4.22863245 5.86967106 2.12738368
Y 4.16097500 2.94225000 -0.735575739999998 0 0 0
Pt 0.07731092 2.92594994 2.18548757
Pt 2.08048750 4.48063484 0.71750983
Pt 2.08048750 1.38056255 0.71458022
Pt 0.00000000 0.00000000 -0.735575739999998 0 0 0
Pt 2.08048750 1.47112500 -2.2067272299999985 0 0 0
Pt 2.08048750 4.41337500 -2.2067272299999985 0 0 0
Pt 4.08358087 2.92594994 2.18524343
Pt 6.24146250 4.39201427 0.87717346
Pt 6.24146250 1.46447552 0.87277905
Pt 4.16097500 0.00000000 -0.735575739999998 0 0 0
Pt 6.24146250 1.47112500 -2.2067272299999985 0 0 0
Pt 6.24146250 4.41337500 -2.2067272299999985 0 0 0
C 2.08040428 2.92895103 2.12713954
