&CONTROL
calculation = 'relax'
prefix = 'scf'
pseudo_dir = '/vol0403/data/hp230205/u10028/POT_HYBRID_KKJUS_GBRV'
outdir = './data'
tprnfor = .true.
nstep = 70
disk_io = 'non'
/
&SYSTEM
ibrav = 0
ecutwfc = 50.0
ecutrho = 400
occupations = 'smearing'
smearing = 'mp'
degauss = 0.01
assume_isolated = 'esm'
esm_bc = 'bc1'
input_dft = 'BEEF-VDW'
nosym = .true.
nspin = 1
ntyp = 5
nat = 33
/
&ELECTRONS
electron_maxstep = 200
mixing_beta = 0.1
conv_thr = 1e-06
/
&IONS
ion_dynamics = 'bfgs'
upscale = 1.0
/
&CELL
/

K_POINTS {automatic}
9 6 2 0  0  0

ATOMIC_SPECIES
C 12.01 C.pbe-n-rrkjus_psl.1.0.0.UPF
Cu 63.54 Cu.pbe-dn-rrkjus_psl.1.0.0.UPF
Li 6.941 Li.pbe-sl-rrkjus_psl.1.0.0.UPF
Pd 106.4 Pd.pbe-n-rrkjus_psl.1.0.0.UPF
Sn 118.7 Sn.pbe-dn-rrkjus_psl.1.0.0.UPF


CELL_PARAMETERS {angstrom}
6.33545000 0.00000000 0.00000000
-0.00000000 8.95968000 0.00000000
0.00000000 0.00000000 26.71980000

ATOMIC_POSITIONS {angstrom}
Li 1.58386250 0.00000000 -1.1200940199999998 0 0 0
Li 1.58386250 4.47984000 -1.1200940199999998 0 0 0
Li 4.75158750 2.23992000 -3.360014849999999 0 0 0
Li 4.75158750 6.71976000 -3.360014849999999 0 0 0
Li 1.55028462 4.61799827 3.51018013
Li 1.55028462 8.82152173 3.51018013
Li 4.77059385 6.71976000 0.93332261
Li 4.75019370 2.23992000 1.19384066
Cu 0.00000000 0.00000000 -3.360014849999999 0 0 0
Cu 0.00000000 4.47984000 -3.360014849999999 0 0 0
Cu 3.16772500 6.71976000 -1.1200940199999998 0 0 0
Cu 3.16772500 2.23992000 -1.1200940199999998 0 0 0
Cu 6.23826420 4.49310033 1.32182851
Cu 6.23826420 8.94641967 1.32182851
Cu 2.90531066 2.23992000 3.19141291
Cu 3.37951909 6.71976000 3.07518178
Sn 4.75158750 0.00000000 -1.1200940199999998 0 0 0
Sn 4.75158750 4.47984000 -1.1200940199999998 0 0 0
Sn 1.58386250 2.23992000 -3.360014849999999 0 0 0
Sn 1.58386250 6.71976000 -3.360014849999999 0 0 0
Sn 4.74398496 4.46693806 3.90429718
Sn 4.74398496 0.01281234 3.90429718
Sn 1.59317561 6.71976000 1.08749586
Sn 1.64848409 2.23992000 0.95015609
Pd 0.00000000 2.23992000 -1.1200940199999998 0 0 0
Pd 0.00000000 6.71976000 -1.1200940199999998 0 0 0
Pd 3.16772500 4.47984000 -3.360014849999999 0 0 0
Pd 3.16772500 0.00000000 -3.360014849999999 0 0 0
Pd 6.14291567 6.71976000 3.09896240
Pd 0.22845633 2.23992000 3.14518766
Pd 3.29316691 8.91407523 1.36003782
Pd 3.29316691 4.52544477 1.35977062
C 4.66637570 2.23992000 3.84177284
