&CONTROL
calculation = 'relax'
prefix = 'scf'
pseudo_dir = '/vol0403/data/hp230205/u10028/POT_HYBRID_KKJUS_GBRV'
outdir = './data'
tprnfor = .true.
nstep = 50
disk_io = 'non'
/
&SYSTEM
ibrav = 0
ecutwfc = 50.0
ecutrho = 400
occupations = 'smearing'
smearing = 'mp'
degauss = 0.01
assume_isolated = 'esm'
esm_bc = 'bc1'
input_dft = 'BEEF-VDW'
nosym = .true.
nspin = 1
ntyp = 5
nat = 33
/
&ELECTRONS
electron_maxstep = 200
mixing_beta = 0.1
conv_thr = 1e-06
/
&IONS
ion_dynamics = 'bfgs'
upscale = 1.0
/
&CELL
/

K_POINTS {automatic}
7 7 2 0  0  0

ATOMIC_SPECIES
C 12.01 C.pbe-n-rrkjus_psl.1.0.0.UPF
Ge 72.64 Ge.pbe-dn-rrkjus_psl.1.0.0.UPF
In 114.8 In.pbe-dn-rrkjus_psl.1.0.0.UPF
Li 6.941 Li.pbe-sl-rrkjus_psl.1.0.0.UPF
Mg 24.30 Mg.pbe-spnl-rrkjus_psl.1.0.0.UPF


CELL_PARAMETERS {angstrom}
8.40992000 0.00000000 0.00000000
0.00000000 8.75068000 0.00000000
0.00000000 0.00000000 26.31390000

ATOMIC_POSITIONS {angstrom}
Li 2.10248000 2.26616360 3.49474906
Li 2.10248000 2.18767000 -1.0522928600000014 0 0 0
Li 2.10248000 6.48451640 3.49474906
Li 2.10248000 6.56301000 -1.0522928600000014 0 0 0
Li 6.30744000 2.61619080 3.48264467
Li 6.30744000 2.18767000 -1.0522928600000014 0 0 0
Li 6.30744000 6.13448920 3.48264467
Li 6.30744000 6.56301000 -1.0522928600000014 0 0 0
Mg 2.10248000 0.00000000 1.07544909
Mg 2.10248000 0.00000000 -3.1568785800000008 0 0 0
Mg 2.10248000 4.37534000 1.11281483
Mg 2.10248000 4.37534000 -3.1568785800000008 0 0 0
Mg 6.30744000 0.00000000 0.99887564
Mg 6.30744000 0.00000000 -3.1568785800000008 0 0 0
Mg 6.30744000 4.37534000 1.04571439
Mg 6.30744000 4.37534000 -3.1568785800000008 0 0 0
In 8.39082948 2.19624567 1.24148980
In 0.00000000 2.18767000 -3.1568785800000008 0 0 0
In 8.39082948 6.55443433 1.24148980
In 0.00000000 6.56301000 -3.1568785800000008 0 0 0
In 4.22405052 2.19624567 1.24148980
In 4.20496000 2.18767000 -3.1568785800000008 0 0 0
In 4.22405052 6.55443433 1.24148980
In 4.20496000 6.56301000 -3.1568785800000008 0 0 0
Ge 0.20604304 0.00000000 3.52501004
Ge 0.00000000 0.00000000 -1.0522928600000014 0 0 0
Ge 0.04188140 4.37534000 3.13688002
Ge 0.00000000 4.37534000 -1.0522928600000014 0 0 0
Ge 3.99891696 0.00000000 3.52501004
Ge 4.20496000 0.00000000 -1.0522928600000014 0 0 0
Ge 4.16307860 4.37534000 3.13688002
Ge 4.20496000 4.37534000 -1.0522928600000014 0 0 0
C 2.10248000 0.00000000 3.40133471
