&CONTROL
calculation = 'relax'
prefix = 'scf'
pseudo_dir = '/vol0004/mdt0/data/hp150275/u10028/POT_HYBRID_KKJUS_GBRV'
outdir = './data'
tprnfor = .true.
nstep = 50
disk_io = 'non'
/
&SYSTEM
ibrav = 0
ecutwfc = 50.0
ecutrho = 400
occupations = 'smearing'
smearing = 'mp'
degauss = 0.01
assume_isolated = 'esm'
esm_bc = 'bc1'
input_dft = 'BEEF-VDW'
nosym = .true.
nspin = 2
ntyp = 3
nat = 34
starting_magnetization(1) = 0.0
starting_magnetization(2) = 0.1
starting_magnetization(3) = 0.0
/
&ELECTRONS
electron_maxstep = 300
mixing_beta = 0.1
conv_thr = 1e-06
/
&IONS
ion_dynamics = 'bfgs'
upscale = 1.0
/
&CELL
/

K_POINTS {automatic}
6 6 1 0 0 0

ATOMIC_SPECIES
C 12.01 C.pbe-n-rrkjus_psl.1.0.0.UPF
Ni 58.69 ni_pbe_v1.4.uspp.F.UPF
O 15.99 O.pbe-n-rrkjus_psl.1.0.0.UPF

CELL_PARAMETERS {angstrom}
7.07109000 0.00000000 0.00000000
0.00000000 7.07109000 0.00000000
0.00000000 0.00000000 25.30330000

ATOMIC_POSITIONS {angstrom}
Ni            0.0000000000        0.0000000000       -2.6515328100    0   0   0
Ni            1.7677725000        1.7677725000       -2.6515328100    0   0   0
Ni            1.7677725000        0.0000000000       -0.8838442700    0   0   0
Ni            0.0000000000        1.7677725000       -0.8838442700    0   0   0
Ni            0.0144956440       -0.0004875625        0.9085773296
Ni            1.7683944539        1.7535691284        0.9086990715
Ni            1.7680109615       -0.0000392200        2.7675160371
Ni            7.0547694308        1.7848377538        2.6190536794
Ni            0.0000000000        3.5355450000       -2.6515328100    0   0   0
Ni            1.7677725000        5.3033175000       -2.6515328100    0   0   0
Ni            1.7677725000        3.5355450000       -0.8838442700    0   0   0
Ni            0.0000000000        5.3033175000       -0.8838442700    0   0   0
Ni            0.0058446526        3.5359501639        0.8989095987
Ni            1.7674750906        5.3175332332        0.9086405190
Ni            1.7678633571        3.5356450841        2.6112695000
Ni            7.0548511280        5.2862458542        2.6185863256
Ni            3.5355450000        0.0000000000       -2.6515328100    0   0   0
Ni            5.3033175000        1.7677725000       -2.6515328100    0   0   0
Ni            5.3033175000        0.0000000000       -0.8838442700    0   0   0
Ni            3.5355450000        1.7677725000       -0.8838442700    0   0   0
Ni            3.5210522546        7.0715396170        0.9085811581
Ni            5.3026645071        1.7623754896        0.8987095376
Ni            5.3030395476        0.0000054209        2.6118554976
Ni            3.5518172019        1.7846278114        2.6184338647
Ni            3.5355450000        3.5355450000       -2.6515328100    0   0   0
Ni            5.3033175000        5.3033175000       -2.6515328100    0   0   0
Ni            5.3033175000        3.5355450000       -0.8838442700    0   0   0
Ni            3.5355450000        5.3033175000       -0.8838442700    0   0   0
Ni            3.5296672475        3.5351616911        0.8986372322
Ni            5.3036112691        5.3087389416        0.8987417073
Ni            5.3032276509        3.5356057438        2.6127380107
Ni            3.5517410166        5.2864941473        2.6191329816
C             1.7677925703        0.0000042725        4.5184136134
O             1.7678358085        0.0000604155        5.6733370560
