&CONTROL
calculation = 'relax'
prefix = 'scf'
pseudo_dir = '/vol0004/mdt0/data/hp150275/u10028/POT_HYBRID_KKJUS_GBRV'
outdir = './data'
tprnfor = .true.
nstep = 50
disk_io = 'non'
/
&SYSTEM
ibrav = 0
ecutwfc = 50.0
ecutrho = 400
occupations = 'smearing'
smearing = 'mp'
degauss = 0.01
assume_isolated = 'esm'
esm_bc = 'bc1'
input_dft = 'BEEF-VDW'
nosym = .true.
nspin = 2
ntyp = 3
nat = 34
starting_magnetization(1) = 0.0
starting_magnetization(2) = 0.001
starting_magnetization(3) = 0.0
/
&ELECTRONS
electron_maxstep = 200
mixing_beta = 0.1
conv_thr = 1e-06
/
&IONS
ion_dynamics = 'bfgs'
upscale = 1.0
/
&CELL
/

K_POINTS {automatic}
7 7 2 0  0  0

ATOMIC_SPECIES
C 12.01 C.pbe-n-rrkjus_psl.1.0.0.UPF
Ni 58.69 ni_pbe_v1.4.uspp.F.UPF
O 15.99 O.pbe-n-rrkjus_psl.1.0.0.UPF

CELL_PARAMETERS {angstrom}
7.07109000 0.00000000 0.00000000
0.00000000 7.07109000 0.00000000
0.00000000 0.00000000 25.30330000

ATOMIC_POSITIONS {angstrom}
Ni 0.00000000 0.00000000 22.65176719
Ni 1.76777250 1.76777250 22.65176719
Ni 1.76777250 0.00000000 24.41945573
Ni 0.00000000 1.76777250 24.41945573
Ni 0.01357649 0.00007071 0.90990667
Ni 1.76763108 1.75363032 0.90965364
Ni 1.76770179 0.00007071 2.76514462
Ni 7.05475578 1.78382387 2.61990368
Ni 0.00000000 3.53554500 22.65176719
Ni 1.76777250 5.30331750 22.65176719
Ni 1.76777250 3.53554500 24.41945573
Ni 0.00000000 5.30331750 24.41945573
Ni 0.00608114 3.53526216 0.89953231
Ni 1.76819677 5.31753039 0.90914757
Ni 1.76798463 3.53561571 2.61281876
Ni 7.05482649 5.28719541 2.62015672
Ni 3.53554500 0.00000000 22.65176719
Ni 5.30331750 1.76777250 22.65176719
Ni 5.30331750 0.00000000 24.41945573
Ni 3.53554500 1.76777250 24.41945573
Ni 3.52203922 7.07066573 0.90965364
Ni 5.30338821 1.76126710 0.90029141
Ni 5.30331750 0.00014142 2.61205966
Ni 3.55180851 1.78396530 2.61990368
Ni 3.53554500 3.53554500 22.65176719
Ni 5.30331750 5.30331750 22.65176719
Ni 5.30331750 3.53554500 24.41945573
Ni 3.53554500 5.30331750 24.41945573
Ni 3.52939315 3.53603998 0.89953231
Ni 5.30289323 5.30982290 0.90003838
Ni 5.30317608 3.53561571 2.61534909
Ni 3.55173780 5.28705399 2.61990368
C 1.76777250 0.00000000 4.51689208
O 1.76784321 0.00007071 5.67198773
