&CONTROL
calculation = 'relax'
prefix = 'scf'
pseudo_dir = '/vol0004/mdt0/data/hp150275/u10028/POT_KKJUS'
outdir = './data'
tprnfor = .true.
nstep = 50
disk_io = 'non'
/
&SYSTEM
ibrav = 0
ecutwfc = 50.0
ecutrho = 400
occupations = 'smearing'
smearing = 'mp'
degauss = 0.01
assume_isolated = 'esm'
esm_bc = 'bc1'
input_dft = 'BEEF-VDW'
nosym = .true.
nspin = 1
ntyp = 4
nat = 33
/
&ELECTRONS
electron_maxstep = 200
mixing_beta = 0.1
conv_thr = 1e-06
/
&IONS
ion_dynamics = 'bfgs'
upscale = 1.0
/
&CELL
/

K_POINTS {automatic}
8 6 1 0 0 0

ATOMIC_SPECIES
C 12.01 C.pbe-n-rrkjus_psl.1.0.0.UPF
Ga 69.72 Ga.pbe-dnl-rrkjus_psl.1.0.0.UPF
Li 6.941 Li.pbe-sl-rrkjus_psl.1.0.0.UPF
Mg 24.30 Mg.pbe-spnl-rrkjus_psl.1.0.0.UPF

CELL_PARAMETERS {angstrom}
6.69031000 0.00000000 0.00000000
0.00000000 9.46152000 0.00000000
0.00000000 0.00000000 27.09610000

ATOMIC_POSITIONS {angstrom}
Li 0.00000000 0.00000000 -3.547963329999998 0 0 0
Li 3.34515500 2.36538000 -1.1827447599999985 0 0 0
Li 3.34515500 7.09614000 -1.1827447599999985 0 0 0
Li 0.00000000 4.73076000 -3.547963329999998 0 0 0
Li 0.00000000 4.73076000 1.14128773
Li 3.34508810 6.88533733 3.73844892
Li 3.34522190 2.57627728 3.73844892
Li 0.00000000 0.00000000 1.52307178
Mg 1.67257750 0.00000000 -1.1827447599999985 0 0 0
Mg 5.01773250 4.73076000 -1.1827447599999985 0 0 0
Mg 5.01773250 0.00000000 -1.1827447599999985 0 0 0
Mg 1.67257750 4.73076000 -1.1827447599999985 0 0 0
Mg 5.01773250 7.09614000 -3.547963329999998 0 0 0
Mg 1.67257750 2.36538000 -3.547963329999998 0 0 0
Mg 1.67257750 7.09614000 -3.547963329999998 0 0 0
Mg 5.01773250 2.36538000 -3.547963329999998 0 0 0
Mg 1.53000699 4.73076000 3.76419021
Mg 4.68214655 0.00000000 3.97770748
Mg 5.16030301 4.73085462 3.76419021
Mg 2.00816345 0.00009462 3.97770748
Mg 4.98602043 2.36339308 1.24967213
Mg 1.70415576 7.09812692 1.24967213
Mg 1.70428957 2.36339308 1.24967213
Mg 4.98615424 7.09812692 1.24967213
Ga 0.00000000 7.09614000 -1.1827447599999985 0 0 0
Ga 3.34515500 0.00000000 -3.547963329999998 0 0 0
Ga 0.00000000 2.36538000 -1.1827447599999985 0 0 0
Ga 3.34515500 4.73076000 -3.547963329999998 0 0 0
Ga 0.00000000 2.08058825 3.61245205
Ga 3.34515500 4.73076000 1.33719254
Ga 0.00000000 7.38102637 3.61272301
Ga 3.34515500 0.00000000 1.21011183
C 0.00000000 0.00000000 3.65607677
