&CONTROL
calculation = 'relax'
prefix = 'scf'
pseudo_dir = '/vol0004/mdt0/data/hp150275/u10028/POT_KKJUS'
outdir = './data'
tprnfor = .true.
nstep = 50
disk_io = 'non'
/
&SYSTEM
ibrav = 0
ecutwfc = 50.0
ecutrho = 400
occupations = 'smearing'
smearing = 'mp'
degauss = 0.01
assume_isolated = 'esm'
esm_bc = 'bc1'
input_dft = 'BEEF-VDW'
nosym = .true.
nspin = 1
ntyp = 4
nat = 33
/
&ELECTRONS
electron_maxstep = 200
mixing_beta = 0.1
conv_thr = 1e-06
/
&IONS
ion_dynamics = 'bfgs'
upscale = 1.0
/
&CELL
/

K_POINTS {automatic}
9 6 2 0  0  0

ATOMIC_SPECIES
Ag 107.8 Ag.pbe-n-rrkjus_psl.1.0.0.UPF
C 12.01 C.pbe-n-rrkjus_psl.1.0.0.UPF
Li 6.941 Li.pbe-sl-rrkjus_psl.1.0.0.UPF
Sn 118.7 Sn.pbe-dn-rrkjus_psl.1.0.0.UPF

CELL_PARAMETERS {angstrom}
6.77071000 0.00000000 0.00000000
0.00000000 9.57522000 0.00000000
0.00000000 0.00000000 27.18140000

ATOMIC_POSITIONS {angstrom}
Li 0.00000000 0.00000000 -3.5906629400000014 0 0 0
Li 3.38535500 2.39380500 -1.1967970399999999 0 0 0
Li 3.38535500 7.18141500 -1.1967970399999999 0 0 0
Li 0.00000000 4.78761000 -3.5906629400000014 0 0 0
Li 0.00209892 4.82878345 1.05599739
Li 3.29124213 7.18141500 3.55478349
Li 3.46064530 2.39380500 3.61838797
Li 0.00209892 9.53404655 1.05599739
Ag 1.69267750 0.00000000 -1.1967970399999999 0 0 0
Ag 5.07803250 4.78761000 -1.1967970399999999 0 0 0
Ag 5.07803250 0.00000000 -1.1967970399999999 0 0 0
Ag 1.69267750 4.78761000 -1.1967970399999999 0 0 0
Ag 5.07803250 7.18141500 -3.5906629400000014 0 0 0
Ag 1.69267750 2.39380500 -3.5906629400000014 0 0 0
Ag 1.69267750 7.18141500 -3.5906629400000014 0 0 0
Ag 5.07803250 2.39380500 -3.5906629400000014 0 0 0
Ag 1.53640951 4.66954754 3.46889027
Ag 5.20904574 9.42431453 3.40854756
Ag 5.20904574 4.93851547 3.40854756
Ag 1.53640951 0.11806246 3.46889027
Ag 5.15738522 2.39380500 1.28513659
Ag 1.59578864 7.18141500 1.33515037
Ag 1.52848778 2.39380500 1.32753958
Ag 5.19293145 7.18141500 1.35526460
Sn 0.00000000 7.18141500 -1.1967970399999999 0 0 0
Sn 3.38535500 0.00000000 -3.5906629400000014 0 0 0
Sn 0.00000000 2.39380500 -1.1967970399999999 0 0 0
Sn 3.38535500 4.78761000 -3.5906629400000014 0 0 0
Sn 6.22769906 2.39380500 4.34141321
Sn 3.39232883 4.76932133 1.19625341
Sn 0.17529368 7.18141500 3.95489370
Sn 3.39226112 0.01828867 1.19625341
C 1.44744238 2.39380500 3.66595542
