&CONTROL
calculation = 'relax'
prefix = 'scf'
pseudo_dir = '/vol0403/data/hp230205/u10028/POT_HYBRID_KKJUS_GBRV'
outdir = './data'
tprnfor = .true.
nstep = 50
disk_io = 'non'
/
&SYSTEM
ibrav = 0
ecutwfc = 50.0
ecutrho = 400
occupations = 'smearing'
smearing = 'mp'
degauss = 0.01
assume_isolated = 'esm'
esm_bc = 'bc1'
input_dft = 'BEEF-VDW'
nosym = .true.
nspin = 1
ntyp = 5
nat = 33
/
&ELECTRONS
electron_maxstep = 200
mixing_beta = 0.1
conv_thr = 1e-06
/
&IONS
ion_dynamics = 'bfgs'
upscale = 1.0
/
&CELL
/

K_POINTS {automatic}
6 6 1 0 0 0

ATOMIC_SPECIES
Ag 107.8 Ag.pbe-n-rrkjus_psl.1.0.0.UPF
Al 26.98 Al.pbe-nl-rrkjus_psl.1.0.0.UPF
C 12.01 C.pbe-n-rrkjus_psl.1.0.0.UPF
Li 6.941 Li.pbe-sl-rrkjus_psl.1.0.0.UPF
Pd 106.4 Pd.pbe-n-rrkjus_psl.1.0.0.UPF


CELL_PARAMETERS {angstrom}
6.21941000 0.00000000 0.00000000
0.00000000 8.79558000 0.00000000
0.00000000 0.00000000 26.59670000

ATOMIC_POSITIONS {angstrom}
Li 1.55485250 0.00000000 -1.0995075799999974 0 0 0
Li 1.55485250 4.39779000 -1.0995075799999974 0 0 0
Li 4.66455750 2.19889500 -3.2982567699999983 0 0 0
Li 4.66455750 6.59668500 -3.2982567699999983 0 0 0
Li 1.54353317 4.39779000 3.59800158
Li 1.43811417 0.00000000 4.07328460
Li 4.64726754 6.63230710 1.08753906
Li 4.64726754 2.16327290 1.08753906
Al 4.66455750 0.00000000 -1.0995075799999974 0 0 0
Al 4.66455750 4.39779000 -1.0995075799999974 0 0 0
Al 1.55485250 2.19889500 -3.2982567699999983 0 0 0
Al 1.55485250 6.59668500 -3.2982567699999983 0 0 0
Al 4.71170063 4.39779000 3.21261539
Al 5.12585114 0.00000000 3.49400848
Al 1.57898381 6.57821428 1.08833696
Al 1.57898381 2.21736572 1.08833696
Ag 0.00000000 0.00000000 -3.2982567699999983 0 0 0
Ag 0.00000000 4.39779000 -3.2982567699999983 0 0 0
Ag 3.10970500 6.59668500 -1.0995075799999974 0 0 0
Ag 3.10970500 2.19889500 -1.0995075799999974 0 0 0
Ag 0.02512642 4.39779000 1.05136755
Ag 0.05703199 0.00000000 1.07823022
Ag 3.15199699 2.22062008 3.32245976
Ag 3.15199699 6.57495992 3.32245976
Pd 0.00000000 2.19889500 -1.0995075799999974 0 0 0
Pd 0.00000000 6.59668500 -1.0995075799999974 0 0 0
Pd 3.10970500 4.39779000 -3.2982567699999983 0 0 0
Pd 3.10970500 0.00000000 -3.2982567699999983 0 0 0
Pd 0.00049755 6.52139484 3.12511225
Pd 0.00049755 2.27418516 3.12511225
Pd 3.09564913 0.00000000 1.11652947
Pd 3.08905656 4.39779000 1.14312617
C 3.24031261 0.00000000 3.27458570
