&CONTROL
calculation = 'relax'
prefix = 'scf'
pseudo_dir = '/vol0004/mdt0/data/hp150275/u10028/POT_KKJUS'
outdir = './data'
tprnfor = .true.
nstep = 50
disk_io = 'non'
/
&SYSTEM
ibrav = 0
ecutwfc = 50.0
ecutrho = 400
occupations = 'smearing'
smearing = 'mp'
degauss = 0.01
assume_isolated = 'esm'
esm_bc = 'bc1'
input_dft = 'BEEF-VDW'
nosym = .true.
nspin = 1
ntyp = 3
nat = 33
/
&ELECTRONS
electron_maxstep = 200
mixing_beta = 0.1
conv_thr = 1e-06
/
&IONS
ion_dynamics = 'bfgs'
upscale = 1.0
/
&CELL
/

K_POINTS {automatic}
8 6 1 0 0 0

ATOMIC_SPECIES
C 12.01 C.pbe-n-rrkjus_psl.1.0.0.UPF
Ru 101.0 Ru.pbe-spn-rrkjus_psl.1.0.0.UPF
Si 28.08 Si.pbe-nl-rrkjus_psl.1.0.0.UPF

CELL_PARAMETERS {angstrom}
5.87849000 0.00000000 0.00000000
0.00000000 8.31345000 0.00000000
0.00000000 0.00000000 26.23510000

ATOMIC_POSITIONS {angstrom}
Si 1.46962250 2.07836250 -3.1175169300000007 0 0 0
Si 1.46962250 0.00000000 -1.0391723099999979 0 0 0
Si 1.47932201 2.09465686 1.06488271
Si 1.76695652 0.00000000 3.31008257
Si 1.46962250 6.23508750 -3.1175169300000007 0 0 0
Si 1.46962250 4.15672500 -1.0391723099999979 0 0 0
Si 1.47932201 6.21879314 1.06488271
Si 1.37638965 4.15672500 3.18284233
Si 4.40886750 2.07836250 -3.1175169300000007 0 0 0
Si 4.40886750 0.00000000 -1.0391723099999979 0 0 0
Si 4.39916799 2.09465686 1.06488271
Si 4.11153348 0.00000000 3.31008257
Si 4.40886750 6.23508750 -3.1175169300000007 0 0 0
Si 4.40886750 4.15672500 -1.0391723099999979 0 0 0
Si 4.39916799 6.21879314 1.06488271
Si 4.50210035 4.15672500 3.18284233
Ru 0.00000000 0.00000000 -3.1175169300000007 0 0 0
Ru 0.00000000 2.07836250 -1.0391723099999979 0 0 0
Ru 0.00000000 0.00000000 0.99404794
Ru 0.00000000 2.14270860 2.98266852
Ru 0.00000000 4.15672500 -3.1175169300000007 0 0 0
Ru 0.00000000 6.23508750 -1.0391723099999979 0 0 0
Ru 0.00000000 4.15672500 0.95023532
Ru 0.00000000 6.17074140 2.98266852
Ru 2.93924500 0.00000000 -3.1175169300000007 0 0 0
Ru 2.93924500 2.07836250 -1.0391723099999979 0 0 0
Ru 2.93924500 0.00000000 1.02080774
Ru 2.93924500 2.10770898 3.02962935
Ru 2.93924500 4.15672500 -3.1175169300000007 0 0 0
Ru 2.93924500 6.23508750 -1.0391723099999979 0 0 0
Ru 2.93924500 4.15672500 0.98197979
Ru 2.93924500 6.20574102 3.02962935
C 0.00000000 0.00000000 3.32293777
