&CONTROL
calculation = 'relax'
prefix = 'scf'
pseudo_dir = '/vol0004/mdt0/data/hp150275/u10028/POT_HYBRID_KKJUS_GBRV'
outdir = './data'
tprnfor = .true.
nstep = 50
disk_io = 'non'
/
&SYSTEM
ibrav = 0
ecutwfc = 50.0
ecutrho = 400
occupations = 'smearing'
smearing = 'mp'
degauss = 0.01
assume_isolated = 'esm'
esm_bc = 'bc1'
input_dft = 'BEEF-VDW'
nosym = .true.
nspin = 2
ntyp = 5
nat = 34
starting_magnetization(1) = 0.0
starting_magnetization(2) = 0.1
starting_magnetization(3) = 0.0
starting_magnetization(4) = 0.001
starting_magnetization(5) = 0.0
/
&ELECTRONS
electron_maxstep = 300
mixing_beta = 0.1
conv_thr = 1e-06
/
&IONS
ion_dynamics = 'bfgs'
upscale = 1.0
/
&CELL
/

K_POINTS {automatic}
9 6 2 0  0  0

ATOMIC_SPECIES
C 12.01 C.pbe-n-rrkjus_psl.1.0.0.UPF
Fe 55.84 fe_pbe_v1.5.uspp.F.UPF
Ga 69.72 Ga.pbe-dnl-rrkjus_psl.1.0.0.UPF
Ni 58.69 ni_pbe_v1.4.uspp.F.UPF
O 15.99 O.pbe-n-rrkjus_psl.1.0.0.UPF

CELL_PARAMETERS {angstrom}
5.81401000 0.00000000 0.00000000
0.00000000 8.22225000 0.00000000
0.00000000 0.00000000 26.16670000

ATOMIC_POSITIONS {angstrom}
Ga 0.00000000 0.00000000 -3.0832222599999994 0 0 0
Ga 2.90700500 2.05556250 -1.0278279799999979 0 0 0
Ga 2.90700500 6.16668750 -1.0278279799999979 0 0 0
Ga 0.00000000 4.11112500 -3.0832222599999994 0 0 0
Ga 5.68813668 4.53818867 1.03750965
Ga 3.00938972 6.28385456 3.29674253
Ga 2.64270011 1.92959763 3.34724426
Ga 0.15442011 0.55319298 0.97968125
Fe 1.45350250 0.00000000 -1.0278279799999979 0 0 0
Fe 4.36050750 4.11112500 -1.0278279799999979 0 0 0
Fe 4.36050750 0.00000000 -1.0278279799999979 0 0 0
Fe 1.45350250 4.11112500 -1.0278279799999979 0 0 0
Fe 4.36050750 6.16668750 -3.0832222599999994 0 0 0
Fe 1.45350250 2.05556250 -3.0832222599999994 0 0 0
Fe 1.45350250 6.16668750 -3.0832222599999994 0 0 0
Fe 4.36050750 2.05556250 -3.0832222599999994 0 0 0
Fe 1.51978221 4.25032769 2.95788377
Fe 4.44324086 0.16493834 2.95108043
Fe 4.14643565 3.98351568 3.06438224
Fe 1.28472179 8.10401405 3.10703396
Fe 4.24829711 2.39785477 1.14688646
Fe 1.44425822 6.52715094 1.10266474
Fe 1.59966671 2.70660026 1.02494964
Fe 4.38358912 6.80333632 1.02782798
Ni 0.00000000 6.16668750 -1.0278279799999979 0 0 0
Ni 2.90700500 0.00000000 -3.0832222599999994 0 0 0
Ni 0.00000000 2.05556250 -1.0278279799999979 0 0 0
Ni 2.90700500 4.11112500 -3.0832222599999994 0 0 0
Ni 0.11936163 2.22321418 2.93014707
Ni 3.09491380 4.71332259 0.99668960
Ni 5.59435670 6.07007606 3.02199218
Ni 2.71665431 0.45995267 1.05399468
C 0.59134296 7.92583789 4.73512603
O 0.20575781 7.83917537 5.83569743
