&CONTROL
calculation = 'relax'
prefix = 'scf'
pseudo_dir = '/vol0403/data/hp230205/u10028/POT_HYBRID_KKJUS_GBRV'
outdir = './data'
tprnfor = .true.
nstep = 50
disk_io = 'non'
/
&SYSTEM
ibrav = 0
ecutwfc = 50.0
ecutrho = 400
occupations = 'smearing'
smearing = 'mp'
degauss = 0.01
assume_isolated = 'esm'
esm_bc = 'bc1'
input_dft = 'BEEF-VDW'
nosym = .true.
nspin = 1
ntyp = 6
nat = 18
/
&ELECTRONS
electron_maxstep = 200
mixing_beta = 0.1
conv_thr = 1e-06
/
&IONS
ion_dynamics = 'bfgs'
upscale = 1.0
/
&CELL
/

K_POINTS {automatic}
6 6 1 0 0 0

ATOMIC_SPECIES
Ag 107.8 Ag.pbe-n-rrkjus_psl.1.0.0.UPF
Al 26.98 Al.pbe-nl-rrkjus_psl.1.0.0.UPF
C 12.01 C.pbe-n-rrkjus_psl.1.0.0.UPF
Ge 72.64 Ge.pbe-dn-rrkjus_psl.1.0.0.UPF
Li 6.941 Li.pbe-sl-rrkjus_psl.1.0.0.UPF
O 15.99 O.pbe-n-rrkjus_psl.1.0.0.UPF


CELL_PARAMETERS {angstrom}
7.71364000 0.00000000 0.00000000
0.00000000 5.86609000 0.00000000
0.00000000 0.00000000 24.39060000

ATOMIC_POSITIONS {angstrom}
Li 1.92841000 1.37313435 -0.7317180000000008 0 0 0
Li 1.92841000 4.19924053 2.36027836
Li 5.78523000 1.37313435 -0.7317180000000008 0 0 0
Li 5.78523000 4.21290852 2.38076647
Al 1.92841000 4.30617935 -0.7317180000000008 0 0 0
Al 1.92848714 1.17544711 2.03198089
Al 5.78523000 4.30617935 -0.7317180000000008 0 0 0
Al 5.78523000 1.21023303 2.12344564
Ag 0.00000000 0.00000000 -2.1953979100000005 0 0 0
Ag 7.69582149 2.78568882 0.79537747
Ag 3.85682000 0.00000000 -2.1953979100000005 0 0 0
Ag 3.87463851 2.78568882 0.79537747
Ge 0.00000000 2.93304500 -2.1953979100000005 0 0 0
Ge 7.68949631 5.62247128 0.95172121
Ge 3.85682000 2.93304500 -2.1953979100000005 0 0 0
Ge 3.88096369 5.62235396 0.95147731
C 1.92841000 4.12567976 4.45177231
O 1.92833286 4.13483086 5.59227677
