&CONTROL
calculation = 'relax'
prefix = 'scf'
pseudo_dir = '/vol0004/mdt0/data/hp150275/u10028/POT_HYBRID_KKJUS_GBRV'
outdir = './data'
tprnfor = .true.
nstep = 50
disk_io = 'non'
/
&SYSTEM
ibrav = 0
ecutwfc = 50.0
ecutrho = 400
occupations = 'smearing'
smearing = 'mp'
degauss = 0.01
assume_isolated = 'esm'
esm_bc = 'bc1'
input_dft = 'BEEF-VDW'
nosym = .true.
nspin = 2
ntyp = 4
nat = 33
starting_magnetization(1) = 0.0
starting_magnetization(2) = 0.1
starting_magnetization(3) = 0.0
starting_magnetization(4) = 0.1
/
&ELECTRONS
electron_maxstep = 300
mixing_beta = 0.1
conv_thr = 1e-06
/
&IONS
ion_dynamics = 'bfgs'
upscale = 1.0
/
&CELL
/

K_POINTS {automatic}
8 6 1 0 0 0

ATOMIC_SPECIES
C 12.01 C.pbe-n-rrkjus_psl.1.0.0.UPF
Co 58.93 co_pbe_v1.2.uspp.F.UPF
Ga 69.72 Ga.pbe-dnl-rrkjus_psl.1.0.0.UPF
Mn 54.93 mn_pbe_v1.5.uspp.F.UPF

CELL_PARAMETERS {angstrom}
5.73361000 0.00000000 0.00000000
0.00000000 8.10855000 0.00000000
0.00000000 0.00000000 26.08140000

ATOMIC_POSITIONS {angstrom}
Mn 0.00000000 0.00000000 -3.0408304299999998 0 0 0
Mn 2.86680500 2.02713750 -1.013523199999998 0 0 0
Mn 2.86680500 6.08141250 -1.013523199999998 0 0 0
Mn 0.00000000 4.05427500 -3.0408304299999998 0 0 0
Mn 0.00000000 4.05427500 1.00517716
Mn 2.86680500 6.01240874 3.09038509
Mn 2.86680500 2.09614126 3.09064590
Mn 0.00000000 0.00008109 1.02604228
Ga 0.00000000 6.08141250 -1.013523199999998 0 0 0
Ga 2.86680500 0.00000000 -3.0408304299999998 0 0 0
Ga 0.00000000 2.02713750 -1.013523199999998 0 0 0
Ga 2.86680500 4.05427500 -3.0408304299999998 0 0 0
Ga 0.00000000 2.05186858 3.16889010
Ga 2.86680500 4.05411283 1.01560972
Ga 0.00000000 6.05668142 3.16915091
Ga 2.86680500 0.00000000 0.94623319
Co 1.43340250 0.00000000 -1.013523199999998 0 0 0
Co 4.30020750 4.05427500 -1.013523199999998 0 0 0
Co 4.30020750 0.00000000 -1.013523199999998 0 0 0
Co 1.43340250 4.05427500 -1.013523199999998 0 0 0
Co 4.30020750 6.08141250 -3.0408304299999998 0 0 0
Co 1.43340250 2.02713750 -3.0408304299999998 0 0 0
Co 1.43340250 6.08141250 -3.0408304299999998 0 0 0
Co 4.30020750 2.02713750 -3.0408304299999998 0 0 0
Co 1.37360095 4.05419391 3.00875030
Co 4.20290814 0.00016217 3.05361031
Co 4.36006639 4.05419391 3.00875030
Co 1.53075920 0.00016217 3.05361031
Co 4.30703050 2.02089392 1.05942647
Co 1.42663684 6.08765608 1.05942647
Co 1.42663684 2.02089392 1.05942647
Co 4.30697316 6.08765608 1.05942647
C 0.00000000 0.00000000 3.88534616
