&CONTROL
calculation = 'relax'
prefix = 'scf'
pseudo_dir = '/vol0004/mdt0/data/hp150275/u10028/POT_HYBRID_KKJUS_GBRV'
outdir = './data'
tprnfor = .true.
nstep = 50
disk_io = 'non'
/
&SYSTEM
ibrav = 0
ecutwfc = 50.0
ecutrho = 400
occupations = 'smearing'
smearing = 'mp'
degauss = 0.01
assume_isolated = 'esm'
esm_bc = 'bc1'
input_dft = 'BEEF-VDW'
nosym = .true.
nspin = 2
ntyp = 3
nat = 32
starting_magnetization(1) = 0.1
starting_magnetization(2) = 0.1
starting_magnetization(3) = 0.0
/
&ELECTRONS
electron_maxstep = 300
mixing_beta = 0.1
conv_thr = 1e-06
/
&IONS
ion_dynamics = 'bfgs'
upscale = 1.0
/
&CELL
/

K_POINTS {automatic}
9 6 2 0  0  0

ATOMIC_SPECIES
Co 58.93 co_pbe_v1.2.uspp.F.UPF
Fe 55.84 fe_pbe_v1.5.uspp.F.UPF
Ge 72.64 Ge.pbe-dn-rrkjus_psl.1.0.0.UPF

CELL_PARAMETERS {angstrom}
5.76795000 0.00000000 0.00000000
0.00000000 8.15711000 0.00000000
0.00000000 0.00000000 26.11780000

ATOMIC_POSITIONS {angstrom}
Fe 0.00000000 0.00000000 -3.0589167399999972 0 0 0
Fe 2.88397500 2.03927750 -1.0196389099999976 0 0 0
Fe 2.88397500 6.11783250 -1.0196389099999976 0 0 0
Fe 0.00000000 4.07855500 -3.0589167399999972 0 0 0
Fe 0.00000000 4.07855500 1.01075886
Fe 2.88397500 6.11775093 3.03201540
Fe 2.88397500 2.03935907 3.03201540
Fe 0.00000000 0.00000000 1.01075886
Co 1.44198750 0.00000000 -1.0196389099999976 0 0 0
Co 4.32596250 4.07855500 -1.0196389099999976 0 0 0
Co 4.32596250 0.00000000 -1.0196389099999976 0 0 0
Co 1.44198750 4.07855500 -1.0196389099999976 0 0 0
Co 4.32596250 6.11783250 -3.0589167399999972 0 0 0
Co 1.44198750 2.03927750 -3.0589167399999972 0 0 0
Co 1.44198750 6.11783250 -3.0589167399999972 0 0 0
Co 4.32596250 2.03927750 -3.0589167399999972 0 0 0
Co 1.40132345 4.07855500 2.94295370
Co 4.36668423 0.00000000 2.94295370
Co 4.36662655 4.07855500 2.94295370
Co 1.40126577 0.00000000 2.94295370
Co 4.33369155 2.03935907 1.02225069
Co 1.43425845 6.11775093 1.02225069
Co 1.43425845 2.03935907 1.02225069
Co 4.33369155 6.11775093 1.02225069
Ge 0.00000000 6.11783250 -1.0196389099999976 0 0 0
Ge 2.88397500 0.00000000 -3.0589167399999972 0 0 0
Ge 0.00000000 2.03927750 -1.0196389099999976 0 0 0
Ge 2.88397500 4.07855500 -3.0589167399999972 0 0 0
Ge 0.00005768 2.03935907 3.22476477
Ge 2.88391732 4.07855500 1.01859420
Ge 0.00005768 6.11775093 3.22476477
Ge 2.88391732 0.00000000 1.01859420
