&CONTROL
calculation = 'relax'
prefix = 'scf'
pseudo_dir = '/vol0004/mdt0/data/hp150275/u10028/POT_KKJUS'
outdir = './data'
tprnfor = .true.
nstep = 50
disk_io = 'non'
/
&SYSTEM
ibrav = 0
ecutwfc = 50.0
ecutrho = 400
occupations = 'smearing'
smearing = 'mp'
degauss = 0.01
assume_isolated = 'esm'
esm_bc = 'bc1'
input_dft = 'BEEF-VDW'
nosym = .true.
nspin = 1
ntyp = 5
nat = 34
/
&ELECTRONS
electron_maxstep = 200
mixing_beta = 0.1
conv_thr = 1e-06
/
&IONS
ion_dynamics = 'bfgs'
upscale = 1.0
/
&CELL
/

K_POINTS {automatic}
8 6 1 0 0 0

ATOMIC_SPECIES
Au 196.9 Au.pbe-n-rrkjus_psl.1.0.0.UPF
C 12.01 C.pbe-n-rrkjus_psl.1.0.0.UPF
In 114.8 In.pbe-dn-rrkjus_psl.1.0.0.UPF
O 15.99 O.pbe-n-rrkjus_psl.1.0.0.UPF
Ti 47.86 Ti.pbe-spn-rrkjus_psl.1.0.0.UPF

CELL_PARAMETERS {angstrom}
6.72102000 0.00000000 0.00000000
0.00000000 9.50495000 0.00000000
0.00000000 0.00000000 27.12870000

ATOMIC_POSITIONS {angstrom}
Ti 0.00000000 0.00000000 -3.564439889999999 0 0 0
Ti 3.36051000 2.37623750 -1.1882370599999987 0 0 0
Ti 3.36051000 7.12871250 -1.1882370599999987 0 0 0
Ti 0.00000000 4.75247500 -3.564439889999999 0 0 0
Ti 0.00000000 4.70666114 1.19339151
Ti 3.36051000 7.12880755 3.38918849
Ti 3.36051000 2.37623750 3.34632514
Ti 0.00000000 0.04590891 1.19339151
In 0.00000000 7.12871250 -1.1882370599999987 0 0 0
In 3.36051000 0.00000000 -3.564439889999999 0 0 0
In 0.00000000 2.37623750 -1.1882370599999987 0 0 0
In 3.36051000 4.75247500 -3.564439889999999 0 0 0
In 0.00006721 2.37623750 3.87424965
In 3.36051000 4.80750866 1.12529848
In 0.00000000 7.12861745 4.11623765
In 3.36051000 9.45010644 1.12556976
Au 1.68025500 0.00000000 -1.1882370599999987 0 0 0
Au 5.04076500 4.75247500 -1.1882370599999987 0 0 0
Au 5.04076500 0.00000000 -1.1882370599999987 0 0 0
Au 1.68025500 4.75247500 -1.1882370599999987 0 0 0
Au 5.04076500 7.12871250 -3.564439889999999 0 0 0
Au 1.68025500 2.37623750 -3.564439889999999 0 0 0
Au 1.68025500 7.12871250 -3.564439889999999 0 0 0
Au 5.04076500 2.37623750 -3.564439889999999 0 0 0
Au 1.83443520 4.74572649 3.59807948
Au 4.88671922 0.00674851 3.59807948
Au 4.88665201 4.74563144 3.59807948
Au 1.83436799 0.00674851 3.59835077
Au 5.08028460 2.37661770 1.20804101
Au 1.50120703 7.12842735 1.33961521
Au 1.64080261 2.37661770 1.20804101
Au 5.21988018 7.12842735 1.33961521
C 6.71994464 2.37519196 7.58816868
O 0.00000000 2.37633255 8.72296220
