&CONTROL
calculation = 'relax'
prefix = 'scf'
pseudo_dir = '/vol0403/data/hp230205/u10028/POT_HYBRID_KKJUS_GBRV'
outdir = './data'
tprnfor = .true.
nstep = 70
disk_io = 'non'
/
&SYSTEM
ibrav = 0
ecutwfc = 50.0
ecutrho = 400
occupations = 'smearing'
smearing = 'mp'
degauss = 0.01
assume_isolated = 'esm'
esm_bc = 'bc1'
input_dft = 'BEEF-VDW'
nosym = .true.
nspin = 1
ntyp = 4
nat = 16
/
&ELECTRONS
electron_maxstep = 200
mixing_beta = 0.1
conv_thr = 1e-06
/
&IONS
ion_dynamics = 'bfgs'
upscale = 1.0
/
&CELL
/

K_POINTS {automatic}
6 6 1 0 0 0

ATOMIC_SPECIES
Ge 72.64 Ge.pbe-dn-rrkjus_psl.1.0.0.UPF
Pd 106.4 Pd.pbe-n-rrkjus_psl.1.0.0.UPF
Sn 118.7 Sn.pbe-dn-rrkjus_psl.1.0.0.UPF
Y 88.90 Y.pbe-spn-rrkjus_psl.1.0.0.UPF


CELL_PARAMETERS {angstrom}
5.93056000 0.00000000 0.00000000
-0.00000000 9.60308000 0.00000000
0.00000000 0.00000000 24.43880000

ATOMIC_POSITIONS {angstrom}
Y 3.06698910 0.00038412 2.13643990
Y 5.74101930 0.00000000 -0.7397624799999996 0 0 0
Y 3.06615883 4.80096382 2.13546234
Y 5.74101930 4.80154000 -0.7397624799999996 0 0 0
Sn 1.15029142 2.39904145 0.95751218
Sn 4.16354965 2.40077000 -2.2192874300000014 0 0 0
Sn 1.14934253 7.20403855 0.95751218
Sn 4.16354965 7.20231000 -2.2192874300000014 0 0 0
Ge 0.10253938 0.00288092 2.40624425
Ge 2.77573930 0.00000000 -0.7397624799999996 0 0 0
Ge 0.10354758 4.79875511 2.40453353
Ge 2.77573930 4.80154000 -0.7397624799999996 0 0 0
Pd 4.16847201 2.40067397 0.77128853
Pd 1.19826965 2.40077000 -2.2192874300000014 0 0 0
Pd 4.16734521 7.20240603 0.77055536
Pd 1.19826965 7.20231000 -2.2192874300000014 0 0 0
