&CONTROL
calculation = 'relax'
prefix = 'scf'
pseudo_dir = '/vol0403/data/hp230205/u10028/POT_HYBRID_KKJUS_GBRV'
outdir = './data'
tprnfor = .true.
nstep = 50
disk_io = 'non'
/
&SYSTEM
ibrav = 0
ecutwfc = 50.0
ecutrho = 400
occupations = 'smearing'
smearing = 'mp'
degauss = 0.01
assume_isolated = 'esm'
esm_bc = 'bc1'
input_dft = 'BEEF-VDW'
nosym = .true.
nspin = 2
ntyp = 5
nat = 33
starting_magnetization(1) = 0.0
starting_magnetization(2) = 0.0
starting_magnetization(3) = 0.0
starting_magnetization(4) = 0.001
starting_magnetization(5) = 0.0
/
&ELECTRONS
electron_maxstep = 200
mixing_beta = 0.1
conv_thr = 1e-06
/
&IONS
ion_dynamics = 'bfgs'
upscale = 1.0
/
&CELL
/

K_POINTS {automatic}
9 6 2 0  0  0

ATOMIC_SPECIES
C 12.01 C.pbe-n-rrkjus_psl.1.0.0.UPF
Ga 69.72 Ga.pbe-dnl-rrkjus_psl.1.0.0.UPF
Li 6.941 Li.pbe-sl-rrkjus_psl.1.0.0.UPF
Ni 58.69 ni_pbe_v1.4.uspp.F.UPF
Pd 106.4 Pd.pbe-n-rrkjus_psl.1.0.0.UPF


CELL_PARAMETERS {angstrom}
5.93220000 0.00000000 0.00000000
0.00000000 8.38940000 0.00000000
0.00000000 0.00000000 26.29200000

ATOMIC_POSITIONS {angstrom}
Li 0.00000000 2.09735000 25.24321212
Li 0.00000000 6.29205000 25.24321212
Li 2.96610000 4.19470000 23.14589928
Li 2.96610000 0.00000000 23.14589928
Li 0.06454234 6.24590830 3.68981928
Li 0.06454234 2.14357559 3.68981928
Li 2.99866778 0.00000000 0.94335696
Li 2.97707457 4.19461611 0.96859728
Ga 0.00000000 0.00000000 23.14589928
Ga 0.00000000 4.19470000 23.14589928
Ga 2.96610000 6.29205000 25.24321212
Ga 2.96610000 2.09735000 25.24321212
Ga 0.00551695 4.19444832 1.03064640
Ga 5.88432715 8.38931611 1.05352044
Ga 2.91081190 2.17360965 3.21445992
Ga 2.91069325 6.21570646 3.21419700
Ni 1.48305000 0.00000000 25.24321212
Ni 1.48305000 4.19470000 25.24321212
Ni 4.44915000 2.09735000 23.14589928
Ni 4.44915000 6.29205000 23.14589928
Ni 1.57197368 4.19470000 2.92182996
Ni 1.63853296 0.00016779 3.00754188
Ni 4.45899745 6.31201677 1.09900560
Ni 4.45911610 2.07687986 1.09953144
Pd 4.44915000 0.00000000 25.24321212
Pd 4.44915000 4.19470000 25.24321212
Pd 1.48305000 2.09735000 23.14589928
Pd 1.48305000 6.29205000 23.14589928
Pd 4.42304832 4.19470000 3.03409680
Pd 4.27848061 0.00000000 3.19290048
Pd 1.45338900 6.32929894 1.06351140
Pd 1.45344832 2.05993328 1.06351140
C 0.14961008 0.00000000 3.83731740
