&CONTROL
calculation = 'relax'
prefix = 'scf'
pseudo_dir = '/vol0004/mdt0/data/hp150275/u10028/POT_KKJUS'
outdir = './data'
tprnfor = .true.
nstep = 50
disk_io = 'non'
/
&SYSTEM
ibrav = 0
ecutwfc = 50.0
ecutrho = 400
occupations = 'smearing'
smearing = 'mp'
degauss = 0.01
assume_isolated = 'esm'
esm_bc = 'bc1'
input_dft = 'BEEF-VDW'
nosym = .true.
nspin = 1
ntyp = 4
nat = 34
/
&ELECTRONS
electron_maxstep = 200
mixing_beta = 0.1
conv_thr = 1e-06
/
&IONS
ion_dynamics = 'bfgs'
upscale = 1.0
/
&CELL
/

K_POINTS {automatic}
8 6 1 0 0 0

ATOMIC_SPECIES
Al 26.98 Al.pbe-nl-rrkjus_psl.1.0.0.UPF
C 12.01 C.pbe-n-rrkjus_psl.1.0.0.UPF
O 15.99 O.pbe-n-rrkjus_psl.1.0.0.UPF
Y 88.90 Y.pbe-spn-rrkjus_psl.1.0.0.UPF

CELL_PARAMETERS {angstrom}
7.18582000 0.00000000 0.00000000
0.00000000 10.16230000 0.00000000
0.00000000 0.00000000 27.62170000

ATOMIC_POSITIONS {angstrom}
Y 1.79645500 2.54057500 -3.81096595 0 0 0
Y 1.79645500 0.00000000 -1.270321980000002 0 0 0
Y 1.79645500 2.53203867 1.21784075
Y 1.79645500 0.00000000 3.85709419
Y 1.79645500 7.62172500 -3.81096595 0 0 0
Y 1.79645500 5.08115000 -1.270321980000002 0 0 0
Y 1.79645500 7.63026133 1.21784075
Y 1.79645500 5.08115000 3.96951451
Y 5.38936500 2.54057500 -3.81096595 0 0 0
Y 5.38936500 0.00000000 -1.270321980000002 0 0 0
Y 5.38936500 2.55947688 1.21093533
Y 5.38936500 0.00000000 4.02365304
Y 5.38936500 7.62172500 -3.81096595 0 0 0
Y 5.38936500 5.08115000 -1.270321980000002 0 0 0
Y 5.38936500 7.60282312 1.21093533
Y 5.38936500 5.08115000 4.01343301
Al 0.00000000 0.00000000 -3.81096595 0 0 0
Al 0.00000000 2.54057500 -1.270321980000002 0 0 0
Al 0.00359291 5.08115000 1.41947916
Al 7.16289723 2.56303368 3.76097067
Al 0.00000000 5.08115000 -3.81096595 0 0 0
Al 0.00000000 7.62172500 -1.270321980000002 0 0 0
Al 7.13372280 0.00000000 1.37390336
Al 7.16289723 7.59926632 3.76097067
Al 3.59291000 0.00000000 -3.81096595 0 0 0
Al 3.59291000 2.54057500 -1.270321980000002 0 0 0
Al 3.58931709 5.08115000 1.41975538
Al 3.61583277 2.56303368 3.76097067
Al 3.59291000 5.08115000 -3.81096595 0 0 0
Al 3.59291000 7.62172500 -1.270321980000002 0 0 0
Al 3.64500719 0.00000000 1.37390336
Al 3.61583277 7.59926632 3.76097067
C 1.79645500 0.00000000 6.33227473
O 1.79645500 0.00000000 7.48188988
