&CONTROL
calculation = 'relax'
prefix = 'scf'
pseudo_dir = '/vol0004/mdt0/data/hp150275/u10028/POT_KKJUS'
outdir = './data'
tprnfor = .true.
nstep = 50
disk_io = 'non'
/
&SYSTEM
ibrav = 0
ecutwfc = 50.0
ecutrho = 400
occupations = 'smearing'
smearing = 'mp'
degauss = 0.01
assume_isolated = 'esm'
esm_bc = 'bc1'
input_dft = 'BEEF-VDW'
nosym = .true.
nspin = 1
ntyp = 4
nat = 34
/
&ELECTRONS
electron_maxstep = 200
mixing_beta = 0.1
conv_thr = 1e-06
/
&IONS
ion_dynamics = 'bfgs'
upscale = 1.0
/
&CELL
/

K_POINTS {automatic}
9 6 2 0  0  0

ATOMIC_SPECIES
C 12.01 C.pbe-n-rrkjus_psl.1.0.0.UPF
Cu 63.54 Cu.pbe-dn-rrkjus_psl.1.0.0.UPF
O 15.99 O.pbe-n-rrkjus_psl.1.0.0.UPF
Pd 106.4 Pd.pbe-n-rrkjus_psl.1.0.0.UPF

CELL_PARAMETERS {angstrom}
6.09666000 0.00000000 0.00000000
0.00000000 8.62198000 0.00000000
0.00000000 0.00000000 26.46650000

ATOMIC_POSITIONS {angstrom}
Cu 0.00000000 0.00000000 -3.2331476399999985 0 0 0
Cu 0.00000000 2.15549500 -1.0777158799999995 0 0 0
Cu 0.00000000 8.60076993 1.08353851
Cu 0.00000000 2.15549500 3.26093747
Cu 0.00000000 4.31099000 -3.2331476399999985 0 0 0
Cu 0.00000000 6.46648500 -1.0777158799999995 0 0 0
Cu 0.00000000 4.33220007 1.08353851
Cu 0.00000000 6.46648500 3.21276844
Cu 3.04833000 0.00000000 -3.2331476399999985 0 0 0
Cu 3.04833000 2.15549500 -1.0777158799999995 0 0 0
Cu 3.04833000 0.02440020 1.06818794
Cu 3.04833000 2.15549500 3.16115876
Cu 3.04833000 4.31099000 -3.2331476399999985 0 0 0
Cu 3.04833000 6.46648500 -1.0777158799999995 0 0 0
Cu 3.04833000 4.28658980 1.06818794
Cu 3.04833000 6.46648500 3.21859107
Pd 1.52416500 2.15549500 -3.2331476399999985 0 0 0
Pd 1.52416500 0.00000000 -1.0777158799999995 0 0 0
Pd 1.48380511 2.15549500 1.07771588
Pd 1.54629588 8.60309786 3.20191717
Pd 1.52416500 6.46648500 -3.2331476399999985 0 0 0
Pd 1.52416500 4.31099000 -1.0777158799999995 0 0 0
Pd 1.53428546 6.46648500 1.07162859
Pd 1.54629588 4.32987214 3.20191717
Pd 4.57249500 2.15549500 -3.2331476399999985 0 0 0
Pd 4.57249500 0.00000000 -1.0777158799999995 0 0 0
Pd 4.61285489 2.15549500 1.07771588
Pd 4.55036412 8.60309786 3.20191717
Pd 4.57249500 6.46648500 -3.2331476399999985 0 0 0
Pd 4.57249500 4.31099000 -1.0777158799999995 0 0 0
Pd 4.56237454 6.46648500 1.07162859
Pd 4.55036412 4.32978592 3.20191717
C 0.00000000 2.15549500 5.10803450
O 0.00000000 2.15549500 6.25456328
