&CONTROL
calculation = 'relax'
prefix = 'scf'
pseudo_dir = '/vol0403/data/hp230205/u10028/POT_HYBRID_KKJUS_GBRV'
outdir = './data'
tprnfor = .true.
nstep = 100
disk_io = 'non'
/
&SYSTEM
ibrav = 0
ecutwfc = 50.0
ecutrho = 400
occupations = 'smearing'
smearing = 'mp'
degauss = 0.01
assume_isolated = 'esm'
esm_bc = 'bc1'
input_dft = 'BEEF-VDW'
nosym = .true.
nspin = 1
ntyp = 6
nat = 18
/
&ELECTRONS
electron_maxstep = 200
mixing_beta = 0.1
conv_thr = 1e-06
/
&IONS
ion_dynamics = 'bfgs'
upscale = 1.0
/
&CELL
/

K_POINTS {automatic}
8 8 1 0 0 0

ATOMIC_SPECIES
Au 196.9 Au.pbe-n-rrkjus_psl.1.0.0.UPF
C 12.01 C.pbe-n-rrkjus_psl.1.0.0.UPF
In 114.8 In.pbe-dn-rrkjus_psl.1.0.0.UPF
O 15.99 O.pbe-n-rrkjus_psl.1.0.0.UPF
Pd 106.4 Pd.pbe-n-rrkjus_psl.1.0.0.UPF
Y 88.90 Y.pbe-spn-rrkjus_psl.1.0.0.UPF


CELL_PARAMETERS {angstrom}
6.93157000 0.00000000 0.00000000
-0.00000000 6.93157000 0.00000000
0.00000000 0.00000000 25.19870000

ATOMIC_POSITIONS {angstrom}
Y 5.19867750 1.73289250 0.86633131
Y 5.19867750 5.19867750 -2.5992459100000005 0 0 0
Y 1.73289250 1.73289250 -2.5992459100000005 0 0 0
Y 1.73289250 5.19867750 0.86633131
In 1.73289250 1.73289250 0.86633131
In 1.73289250 5.19867750 -2.5992459100000005 0 0 0
In 5.19867750 1.73289250 -2.5992459100000005 0 0 0
In 5.19867750 5.19867750 0.86633131
Pd 0.00000000 3.46578500 2.59924591
Pd 0.00000000 0.00000000 -0.8663313099999996 0 0 0
Pd 3.46578500 3.46578500 -0.8663313099999996 0 0 0
Pd 3.46578500 -0.00000000 2.59924591
Au 0.00000000 0.00000000 2.59924591
Au 0.00000000 3.46578500 -0.8663313099999996 0 0 0
Au 3.46578500 0.00000000 -0.8663313099999996 0 0 0
Au 3.46578500 3.46578500 2.59924591
C 0.00000000 0.00000000 4.49922788
O 0.00000000 0.00000000 5.64929655
