&CONTROL
calculation = 'relax'
prefix = 'scf'
pseudo_dir = '/vol0004/mdt0/data/hp150275/u10028/POT_KKJUS'
outdir = './data'
tprnfor = .true.
nstep = 50
disk_io = 'non'
/
&SYSTEM
ibrav = 0
ecutwfc = 50.0
ecutrho = 400
occupations = 'smearing'
smearing = 'mp'
degauss = 0.01
assume_isolated = 'esm'
esm_bc = 'bc1'
input_dft = 'BEEF-VDW'
nosym = .true.
nspin = 1
ntyp = 5
nat = 34
/
&ELECTRONS
electron_maxstep = 200
mixing_beta = 0.1
conv_thr = 1e-06
/
&IONS
ion_dynamics = 'bfgs'
upscale = 1.0
/
&CELL
/

K_POINTS {automatic}
8 6 1 0 0 0

ATOMIC_SPECIES
C 12.01 C.pbe-n-rrkjus_psl.1.0.0.UPF
Ga 69.72 Ga.pbe-dnl-rrkjus_psl.1.0.0.UPF
Li 6.941 Li.pbe-sl-rrkjus_psl.1.0.0.UPF
O 15.99 O.pbe-n-rrkjus_psl.1.0.0.UPF
Pt 195.0 Pt.pbe-n-rrkjus_psl.1.0.0.UPF

CELL_PARAMETERS {angstrom}
6.10853000 0.00000000 0.00000000
0.00000000 8.63876000 0.00000000
0.00000000 0.00000000 26.47910000

ATOMIC_POSITIONS {angstrom}
Li 0.00000000 6.47907000 -1.0798176999999995 0 0 0
Li 3.05426500 0.00000000 -3.239453089999998 0 0 0
Li 0.00000000 2.15969000 -1.0798176999999995 0 0 0
Li 3.05426500 4.31938000 -3.239453089999998 0 0 0
Li 1.52713250 2.15969000 -3.239453089999998 0 0 0
Li 1.52713250 6.47907000 -3.239453089999998 0 0 0
Li 4.58139750 4.31938000 -1.0798176999999995 0 0 0
Li 4.58139750 0.00000000 -1.0798176999999995 0 0 0
Li 0.08918454 2.15969000 3.18914280
Li 3.11180735 4.31782502 1.04883715
Li 0.03512405 6.47907000 3.22780229
Li 3.11186844 0.00155498 1.04883715
Li 1.51222769 6.47907000 0.99720291
Li 1.49713962 2.15969000 0.96251528
Li 4.47553668 0.06297656 3.50901033
Li 4.47553668 4.25631705 3.50927512
Ga 1.52713250 0.00000000 -1.0798176999999995 0 0 0
Ga 1.52713250 4.31938000 -1.0798176999999995 0 0 0
Ga 4.58139750 6.47907000 -3.239453089999998 0 0 0
Ga 4.58139750 2.15969000 -3.239453089999998 0 0 0
Ga 1.63366526 4.33786695 3.25163348
Ga 1.63366526 8.62018667 3.25163348
Ga 4.61597178 2.15969000 1.05254422
Ga 4.61340620 6.47907000 1.06128233
Pt 0.00000000 0.00000000 -3.239453089999998 0 0 0
Pt 3.05426500 2.15969000 -1.0798176999999995 0 0 0
Pt 3.05426500 6.47907000 -1.0798176999999995 0 0 0
Pt 0.00000000 4.31938000 -3.239453089999998 0 0 0
Pt 6.09533558 4.31912084 1.16508040
Pt 3.01364328 6.47907000 3.03874152
Pt 2.94333410 2.15969000 2.97678042
Pt 6.09533558 0.00025916 1.16508040
C 5.71935555 2.15977639 5.18195987
O 5.58276882 2.15986278 6.32188512
