&CONTROL
calculation = 'relax'
prefix = 'scf'
pseudo_dir = '/vol0004/mdt0/data/hp150275/u10028/POT_KKJUS'
outdir = './data'
tprnfor = .true.
nstep = 50
disk_io = 'non'
/
&SYSTEM
ibrav = 0
ecutwfc = 50.0
ecutrho = 400
occupations = 'smearing'
smearing = 'mp'
degauss = 0.01
assume_isolated = 'esm'
esm_bc = 'bc1'
input_dft = 'BEEF-VDW'
nosym = .true.
nspin = 1
ntyp = 3
nat = 33
/
&ELECTRONS
electron_maxstep = 200
mixing_beta = 0.1
conv_thr = 1e-06
/
&IONS
ion_dynamics = 'bfgs'
upscale = 1.0
/
&CELL
/

K_POINTS {automatic}
9 6 2 0  0  0

ATOMIC_SPECIES
C 12.01 C.pbe-n-rrkjus_psl.1.0.0.UPF
Li 6.941 Li.pbe-sl-rrkjus_psl.1.0.0.UPF
Pd 106.4 Pd.pbe-n-rrkjus_psl.1.0.0.UPF

CELL_PARAMETERS {angstrom}
6.21964000 0.00000000 0.00000000
0.00000000 8.79589000 0.00000000
0.00000000 0.00000000 26.59690000

ATOMIC_POSITIONS {angstrom}
Li 1.55491000 0.00000000 -1.099515850000003 0 0 0
Li 4.66473000 4.39794500 -1.099515850000003 0 0 0
Li 4.66473000 0.00000000 -1.099515850000003 0 0 0
Li 1.55491000 4.39794500 -1.099515850000003 0 0 0
Li 4.66473000 6.59691750 -3.2985475400000013 0 0 0
Li 1.55491000 2.19897250 -3.2985475400000013 0 0 0
Li 1.55491000 6.59691750 -3.2985475400000013 0 0 0
Li 4.66473000 2.19897250 -3.2985475400000013 0 0 0
Li 0.00000000 6.59691750 -1.099515850000003 0 0 0
Li 3.10982000 0.00000000 -3.2985475400000013 0 0 0
Li 0.00000000 2.19897250 -1.099515850000003 0 0 0
Li 3.10982000 4.39794500 -3.2985475400000013 0 0 0
Li 1.63769341 4.39794500 3.54403693
Li 4.46022824 0.00000000 3.91160608
Li 4.58194659 4.39794500 3.54403693
Li 1.75928737 0.00000000 3.91134011
Li 4.68780486 2.18815356 1.14366670
Li 1.53183514 6.60773644 1.14393267
Li 1.53183514 2.18824151 1.14366670
Li 4.68780486 6.60773644 1.14393267
Li 0.00000000 2.05111359 3.30333498
Li 3.10982000 4.39794500 1.21627624
Li 0.00000000 6.74451253 3.30333498
Li 3.10982000 0.00000000 1.42958337
Pd 0.00000000 0.00000000 -3.2985475400000013 0 0 0
Pd 3.10982000 2.19897250 -1.099515850000003 0 0 0
Pd 3.10982000 6.59691750 -1.099515850000003 0 0 0
Pd 0.00000000 4.39794500 -3.2985475400000013 0 0 0
Pd 0.00000000 4.39794500 1.34872880
Pd 3.10982000 6.54915582 3.19029816
Pd 3.10982000 2.24664622 3.19029816
Pd 0.00000000 0.00008796 0.97371251
C 6.21951561 8.79580204 2.88762543
