&CONTROL
calculation = 'relax'
prefix = 'scf'
pseudo_dir = '/vol0403/data/hp230205/u10028/POT_HYBRID_KKJUS_GBRV'
outdir = './data'
tprnfor = .true.
nstep = 50
disk_io = 'non'
/
&SYSTEM
ibrav = 0
ecutwfc = 50.0
ecutrho = 400
occupations = 'smearing'
smearing = 'mp'
degauss = 0.01
assume_isolated = 'esm'
esm_bc = 'bc1'
input_dft = 'BEEF-VDW'
nosym = .true.
nspin = 1
ntyp = 5
nat = 17
/
&ELECTRONS
electron_maxstep = 200
mixing_beta = 0.1
conv_thr = 1e-06
/
&IONS
ion_dynamics = 'bfgs'
upscale = 1.0
/
&CELL
/

K_POINTS {automatic}
8 11 2 0  0  0

ATOMIC_SPECIES
Al 26.98 Al.pbe-nl-rrkjus_psl.1.0.0.UPF
C 12.01 C.pbe-n-rrkjus_psl.1.0.0.UPF
In 114.8 In.pbe-dn-rrkjus_psl.1.0.0.UPF
Li 6.941 Li.pbe-sl-rrkjus_psl.1.0.0.UPF
Sc 44.95 Sc.pbe-spn-rrkjus_psl.1.0.0.UPF


CELL_PARAMETERS {angstrom}
8.37392000 0.00000000 0.00000000
0.00000000 6.08380000 0.00000000
0.00000000 0.00000000 24.56130000

ATOMIC_POSITIONS {angstrom}
Li 0.08591642 3.34797598 2.42714767
Li 0.00000000 6.00562317 -0.7601722399999993 0 0 0
Li 4.09761027 3.34864520 2.42542838
Li 4.18696000 6.00562317 -0.7601722399999993 0 0 0
Sc 2.09239139 1.64268684 0.74592668
Sc 2.09348000 4.44561517 -2.280762320000001 0 0 0
Sc 6.27717417 1.61305873 0.95175037
Sc 6.28044000 4.44561517 -2.280762320000001 0 0 0
Al 0.13490385 0.40134829 2.40872669
Al 0.00000000 2.96372317 -0.7601722399999993 0 0 0
Al 4.04544075 0.40049655 2.41167405
Al 4.18696000 2.96372317 -0.7601722399999993 0 0 0
In 2.09306130 4.59959615 0.74469862
In 2.09348000 1.40371517 -2.280762320000001 0 0 0
In 6.28010504 4.64656309 0.99841684
In 6.28044000 1.40371517 -2.280762320000001 0 0 0
C 2.09004669 0.20624082 2.38809520
