&CONTROL
calculation = 'relax'
prefix = 'scf'
pseudo_dir = '/vol0403/data/hp230205/u10028/POT_HYBRID_KKJUS_GBRV'
outdir = './data'
tprnfor = .true.
nstep = 50
disk_io = 'non'
/
&SYSTEM
ibrav = 0
ecutwfc = 50.0
ecutrho = 400
occupations = 'smearing'
smearing = 'mp'
degauss = 0.01
assume_isolated = 'esm'
esm_bc = 'bc1'
input_dft = 'BEEF-VDW'
nosym = .true.
nspin = 1
ntyp = 6
nat = 34
/
&ELECTRONS
electron_maxstep = 200
mixing_beta = 0.1
conv_thr = 1e-06
/
&IONS
ion_dynamics = 'bfgs'
upscale = 1.0
/
&CELL
/

K_POINTS {automatic}
6 6 1 0 0 0

ATOMIC_SPECIES
C 12.01 C.pbe-n-rrkjus_psl.1.0.0.UPF
In 114.8 In.pbe-dn-rrkjus_psl.1.0.0.UPF
Li 6.941 Li.pbe-sl-rrkjus_psl.1.0.0.UPF
Mg 24.30 Mg.pbe-spnl-rrkjus_psl.1.0.0.UPF
O 15.99 O.pbe-n-rrkjus_psl.1.0.0.UPF
Pb 207.2 Pb.pbe-dn-rrkjus_psl.1.0.0.UPF


CELL_PARAMETERS {angstrom}
7.11424000 0.00000000 0.00000000
0.00000000 10.06110000 0.00000000
0.00000000 0.00000000 27.54580000

ATOMIC_POSITIONS {angstrom}
Li 5.33568000 0.00000000 -1.2577412300000006 0 0 0
Li 5.33568000 5.03055000 -1.2577412300000006 0 0 0
Li 1.77856000 2.51527500 -3.772948230000001 0 0 0
Li 1.77856000 7.54582500 -3.772948230000001 0 0 0
Li 5.34734735 4.99956181 3.89635341
Li 5.33802770 10.05838350 3.89580249
Li 1.73331343 7.55659038 1.39354202
Li 1.79221934 2.51758905 1.36930172
Mg 1.77856000 0.00000000 -1.2577412300000006 0 0 0
Mg 1.77856000 5.03055000 -1.2577412300000006 0 0 0
Mg 5.33568000 2.51527500 -3.772948230000001 0 0 0
Mg 5.33568000 7.54582500 -3.772948230000001 0 0 0
Mg 1.77180147 5.03185794 4.07429928
Mg 1.77251290 10.02890448 4.06906558
Mg 5.39280735 7.54320911 1.44367538
Mg 5.34051768 2.52503427 1.42218965
In 0.00000000 0.00000000 -3.772948230000001 0 0 0
In 0.00000000 5.03055000 -3.772948230000001 0 0 0
In 3.55712000 7.54582500 -1.2577412300000006 0 0 0
In 3.55712000 2.51527500 -1.2577412300000006 0 0 0
In 0.05634478 5.01918096 1.43871713
In 0.04873254 0.02656130 1.43871713
In 3.57832044 2.49947907 4.17098504
In 3.60179743 7.52892235 4.16161946
Pb 0.00000000 2.51527500 -1.2577412300000006 0 0 0
Pb 0.00000000 7.54582500 -1.2577412300000006 0 0 0
Pb 3.55712000 5.03055000 -3.772948230000001 0 0 0
Pb 3.55712000 0.00000000 -3.772948230000001 0 0 0
Pb 7.05327096 7.52620586 4.21147736
Pb 7.07895337 2.49394547 4.13820553
Pb 3.53748470 10.05224623 1.41392591
Pb 3.52944561 5.05560214 1.41833324
C 6.53642143 2.58932470 7.96569444
O 0.29388925 2.48509170 8.68711895
