&CONTROL
calculation = 'relax'
prefix = 'scf'
pseudo_dir = '/vol0004/mdt0/data/hp150275/u10028/POT_KKJUS'
outdir = './data'
tprnfor = .true.
nstep = 50
disk_io = 'non'
/
&SYSTEM
ibrav = 0
ecutwfc = 50.0
ecutrho = 400
occupations = 'smearing'
smearing = 'mp'
degauss = 0.01
assume_isolated = 'esm'
esm_bc = 'bc1'
input_dft = 'BEEF-VDW'
nosym = .true.
nspin = 1
ntyp = 4
nat = 34
/
&ELECTRONS
electron_maxstep = 200
mixing_beta = 0.1
conv_thr = 1e-06
/
&IONS
ion_dynamics = 'bfgs'
upscale = 1.0
/
&CELL
/

K_POINTS {automatic}
8 6 1 0 0 0

ATOMIC_SPECIES
C 12.01 C.pbe-n-rrkjus_psl.1.0.0.UPF
Ni 58.69 Ni.pbe-spn-rrkjus_psl.1.0.0.UPF
O 15.99 O.pbe-n-rrkjus_psl.1.0.0.UPF
Sb 121.7 Sb.pbe-n-rrkjus_psl.1.0.0.UPF

CELL_PARAMETERS {angstrom}
5.97820000 0.00000000 0.00000000
0.00000000 8.45446000 0.00000000
0.00000000 0.00000000 26.34080000

ATOMIC_POSITIONS {angstrom}
Ni 1.49455000 0.00000000 -1.0567929000000014 0 0 0
Ni 4.48365000 4.22723000 -1.0567929000000014 0 0 0
Ni 4.48365000 0.00000000 -1.0567929000000014 0 0 0
Ni 1.49455000 4.22723000 -1.0567929000000014 0 0 0
Ni 4.48365000 6.34084500 -3.1703786900000033 0 0 0
Ni 1.49455000 2.11361500 -3.1703786900000033 0 0 0
Ni 1.49455000 6.34084500 -3.1703786900000033 0 0 0
Ni 4.48365000 2.11361500 -3.1703786900000033 0 0 0
Ni 0.00000000 6.34084500 -1.0567929000000014 0 0 0
Ni 2.98910000 0.00000000 -3.1703786900000033 0 0 0
Ni 0.00000000 2.11361500 -1.0567929000000014 0 0 0
Ni 2.98910000 4.22723000 -3.1703786900000033 0 0 0
Ni 1.49431087 4.22985088 3.06290822
Ni 4.48382935 8.45158548 3.06238141
Ni 4.48388913 4.22985088 3.06290822
Ni 1.49443044 8.45150094 3.06238141
Ni 4.47779136 2.11369954 1.05890016
Ni 1.63653225 6.34101409 1.13449826
Ni 1.50040864 2.11369954 1.05890016
Ni 4.34166775 6.34101409 1.13449826
Ni 0.00000000 2.11361500 3.06606912
Ni 2.98910000 4.18639496 1.01649147
Ni 0.00000000 6.34092954 3.04288922
Ni 2.98910000 0.04100413 1.01622806
Sb 0.00000000 0.00000000 -3.1703786900000033 0 0 0
Sb 2.98910000 2.11361500 -1.0567929000000014 0 0 0
Sb 2.98910000 6.34084500 -1.0567929000000014 0 0 0
Sb 0.00000000 4.22723000 -3.1703786900000033 0 0 0
Sb 0.00000000 4.27973220 1.01965237
Sb 2.98910000 6.34084500 3.44616686
Sb 2.98910000 2.11369954 3.26783965
Sb 0.00000000 8.40221144 1.01965237
C 2.98933913 2.11369954 7.23871525
O 2.98904022 2.11353046 8.37084283
