&CONTROL
calculation = 'relax'
prefix = 'scf'
pseudo_dir = '/vol0403/data/hp230205/u10028/POT_HYBRID_KKJUS_GBRV'
outdir = './data'
tprnfor = .true.
nstep = 50
disk_io = 'non'
/
&SYSTEM
ibrav = 0
ecutwfc = 50.0
ecutrho = 400
occupations = 'smearing'
smearing = 'mp'
degauss = 0.01
assume_isolated = 'esm'
esm_bc = 'bc1'
input_dft = 'BEEF-VDW'
nosym = .true.
nspin = 2
ntyp = 6
nat = 18
starting_magnetization(1) = 0.0
starting_magnetization(2) = 0.0
starting_magnetization(3) = 0.0
starting_magnetization(4) = 0.1
starting_magnetization(5) = 0.0
starting_magnetization(6) = 0.0
/
&ELECTRONS
electron_maxstep = 400
mixing_beta = 0.05
conv_thr = 1e-06
/
&IONS
ion_dynamics = 'bfgs'
upscale = 1.0
/
&CELL
/

K_POINTS {automatic}
10 10 2 0  0  0

ATOMIC_SPECIES
Al 26.98 Al.pbe-nl-rrkjus_psl.1.0.0.UPF
C 12.01 C.pbe-n-rrkjus_psl.1.0.0.UPF
Li 6.941 Li.pbe-sl-rrkjus_psl.1.0.0.UPF
Mn 54.93 mn_pbe_v1.5.uspp.F.UPF
O 15.99 O.pbe-n-rrkjus_psl.1.0.0.UPF
Pd 106.4 Pd.pbe-n-rrkjus_psl.1.0.0.UPF


CELL_PARAMETERS {angstrom}
6.10222000 0.00000000 0.00000000
0.00000000 6.10222000 0.00000000
0.00000000 0.00000000 24.57670000

ATOMIC_POSITIONS {angstrom}
Li 0.00000000 3.05111000 -2.2883365399999995 0 0 0
Li 0.01818462 6.08403538 0.75892850
Li 3.03451196 3.06770804 0.75450469
Li 3.05111000 0.00000000 -2.2883365399999995 0 0 0
Mn 1.52555500 1.52555500 -0.7628607699999996 0 0 0
Mn 1.52524989 4.57697011 2.45717847
Mn 4.57800749 1.52421251 2.33626110
Mn 4.57666500 4.57666500 -0.7628607699999996 0 0 0
Al 0.00000000 0.00000000 -2.2883365399999995 0 0 0
Al 6.09459223 3.04397040 0.76703881
Al 3.05824960 0.00762778 0.76728457
Al 3.05111000 3.05111000 -2.2883365399999995 0 0 0
Pd 4.57666500 1.52555500 -0.7628607699999996 0 0 0
Pd 4.57465127 4.57544456 2.13596100
Pd 1.52677544 1.52756873 2.13596100
Pd 1.52555500 4.57666500 -0.7628607699999996 0 0 0
C 4.58136371 1.52085629 4.26012518
O 4.58002122 1.52219878 5.41596738
