&CONTROL
calculation = 'relax'
prefix = 'scf'
pseudo_dir = '/vol0403/data/hp230205/u10028/POT_HYBRID_KKJUS_GBRV'
outdir = './data'
tprnfor = .true.
nstep = 50
disk_io = 'non'
/
&SYSTEM
ibrav = 0
ecutwfc = 50.0
ecutrho = 400
occupations = 'smearing'
smearing = 'mp'
degauss = 0.01
assume_isolated = 'esm'
esm_bc = 'bc1'
input_dft = 'BEEF-VDW'
nosym = .true.
nspin = 1
ntyp = 5
nat = 33
/
&ELECTRONS
electron_maxstep = 200
mixing_beta = 0.1
conv_thr = 1e-06
/
&IONS
ion_dynamics = 'bfgs'
upscale = 1.0
/
&CELL
/

K_POINTS {automatic}
6 6 1 0 0 0

ATOMIC_SPECIES
C 12.01 C.pbe-n-rrkjus_psl.1.0.0.UPF
Ga 69.72 Ga.pbe-dnl-rrkjus_psl.1.0.0.UPF
Li 6.941 Li.pbe-sl-rrkjus_psl.1.0.0.UPF
Pd 106.4 Pd.pbe-n-rrkjus_psl.1.0.0.UPF
Sc 44.95 Sc.pbe-spn-rrkjus_psl.1.0.0.UPF


CELL_PARAMETERS {angstrom}
6.35289000 0.00000000 0.00000000
0.00000000 8.98434000 0.00000000
0.00000000 0.00000000 26.73830000

ATOMIC_POSITIONS {angstrom}
Li 4.76466750 0.00000000 -1.1230085999999986 0 0 0
Li 4.76466750 4.49217000 -1.1230085999999986 0 0 0
Li 1.58822250 2.24608500 -3.3690257999999993 0 0 0
Li 1.58822250 6.73825500 -3.3690257999999993 0 0 0
Li 3.72101473 4.84866861 4.90941926
Li 3.72114179 8.62775155 4.90915188
Li 1.58542723 6.73825500 1.11097636
Li 1.44147074 2.24608500 1.54413683
Sc 0.00000000 2.24608500 -1.1230085999999986 0 0 0
Sc 0.00000000 6.73825500 -1.1230085999999986 0 0 0
Sc 3.17644500 4.49217000 -3.3690257999999993 0 0 0
Sc 3.17644500 0.00000000 -3.3690257999999993 0 0 0
Sc 6.15639511 6.73816516 3.27731343
Sc 5.61252420 2.24617484 3.40325082
Sc 3.24931265 8.98425016 1.30777025
Sc 3.24937618 4.49217000 1.30777025
Ga 0.00000000 0.00000000 -3.3690257999999993 0 0 0
Ga 0.00000000 4.49217000 -3.3690257999999993 0 0 0
Ga 3.17644500 6.73825500 -1.1230085999999986 0 0 0
Ga 3.17644500 2.24608500 -1.1230085999999986 0 0 0
Ga 6.29634928 4.50852150 1.15669886
Ga 6.29628575 8.96798850 1.15669886
Ga 3.07530699 2.24608500 4.43187323
Ga 2.97258076 6.73816516 3.30004099
Pd 1.58822250 0.00000000 -1.1230085999999986 0 0 0
Pd 1.58822250 4.49217000 -1.1230085999999986 0 0 0
Pd 4.76466750 2.24608500 -3.3690257999999993 0 0 0
Pd 4.76466750 6.73825500 -3.3690257999999993 0 0 0
Pd 1.52736181 4.37276812 3.30859724
Pd 1.52729828 0.11931204 3.30859724
Pd 4.73461833 6.73825500 1.04894351
Pd 4.75856873 2.24599516 0.92434303
C 1.26536863 2.24599516 3.79068879
