&CONTROL
calculation = 'relax'
prefix = 'scf'
pseudo_dir = '/vol0004/mdt0/data/hp150275/u10028/POT_KKJUS'
outdir = './data'
tprnfor = .true.
nstep = 50
disk_io = 'non'
/
&SYSTEM
ibrav = 0
ecutwfc = 50.0
ecutrho = 400
occupations = 'smearing'
smearing = 'mp'
degauss = 0.01
assume_isolated = 'esm'
esm_bc = 'bc1'
input_dft = 'BEEF-VDW'
nosym = .true.
nspin = 1
ntyp = 3
nat = 17
/
&ELECTRONS
electron_maxstep = 200
mixing_beta = 0.1
conv_thr = 1e-06
/
&IONS
ion_dynamics = 'bfgs'
upscale = 1.0
/
&CELL
/

K_POINTS {automatic}
8 11 2 0  0  0

ATOMIC_SPECIES
Ag 107.8 Ag.pbe-n-rrkjus_psl.1.0.0.UPF
C 12.01 C.pbe-n-rrkjus_psl.1.0.0.UPF
Pt 195.0 Pt.pbe-n-rrkjus_psl.1.0.0.UPF

CELL_PARAMETERS {angstrom}
8.32195000 0.00000000 0.00000000
0.00000000 5.88450000 0.00000000
0.00000000 0.00000000 24.41340000

ATOMIC_POSITIONS {angstrom}
Ag 0.00000000 2.94225000 -2.2067272299999985 0 0 0
Ag 2.08048750 4.41337500 -0.735575739999998 0 0 0
Ag 2.08048750 1.47112500 -0.735575739999998 0 0 0
Ag 0.00000000 0.00000000 0.71848636
Ag 2.11793627 1.50166555 2.22284007
Ag 2.11785306 4.38283445 2.22284007
Ag 4.16097500 2.94225000 -2.2067272299999985 0 0 0
Ag 6.24146250 4.41337500 -0.735575739999998 0 0 0
Ag 6.24146250 1.47112500 -0.735575739999998 0 0 0
Ag 4.16097500 0.00000000 0.76511596
Ag 6.20409694 1.50166556 2.22284007
Ag 6.20409694 4.38283445 2.22284007
Pt 0.00000000 0.00000000 -2.2067272299999985 0 0 0
Pt 0.00000000 2.94225000 0.73240200
Pt 4.16097500 0.00000000 -2.2067272299999985 0 0 0
Pt 4.16097500 2.94225000 0.73679641
C 0.00000000 2.94225000 2.57317236
