&CONTROL
calculation = 'relax'
prefix = 'scf'
pseudo_dir = '/vol0403/data/hp230205/u10028/POT_HYBRID_KKJUS_GBRV'
outdir = './data'
tprnfor = .true.
nstep = 50
disk_io = 'non'
/
&SYSTEM
ibrav = 0
ecutwfc = 50.0
ecutrho = 400
occupations = 'smearing'
smearing = 'mp'
degauss = 0.01
assume_isolated = 'esm'
esm_bc = 'bc1'
input_dft = 'BEEF-VDW'
nosym = .true.
nspin = 1
ntyp = 4
nat = 16
/
&ELECTRONS
electron_maxstep = 200
mixing_beta = 0.1
conv_thr = 1e-06
/
&IONS
ion_dynamics = 'bfgs'
upscale = 1.0
/
&CELL
/

K_POINTS {automatic}
11 8 2 0  0  0

ATOMIC_SPECIES
Ge 72.64 Ge.pbe-dn-rrkjus_psl.1.0.0.UPF
In 114.8 In.pbe-dn-rrkjus_psl.1.0.0.UPF
Li 6.941 Li.pbe-sl-rrkjus_psl.1.0.0.UPF
Sc 44.95 Sc.pbe-spn-rrkjus_psl.1.0.0.UPF


CELL_PARAMETERS {angstrom}
6.05318000 0.00000000 0.00000000
0.00000000 8.22048000 0.00000000
0.00000000 0.00000000 24.51760000

ATOMIC_POSITIONS {angstrom}
Li 3.11145558 0.00008220 2.70551716
Li 5.75391078 0.00000000 -0.7529355000000031 0 0 0
Li 3.11127399 4.11015780 2.70576234
Li 5.75391078 4.11024000 -0.7529355000000031 0 0 0
Sc 1.65584739 2.05520220 0.82477206
Sc 4.09098117 2.05512000 -2.2588064900000013 0 0 0
Sc 1.65572633 6.16519559 0.82379136
Sc 4.09098117 6.16536000 -2.2588064900000013 0 0 0
In 4.64678416 2.05512000 1.35386187
In 1.06439117 2.05512000 -2.2588064900000013 0 0 0
In 4.64672363 6.16552441 1.35361670
In 1.06439117 6.16536000 -2.2588064900000013 0 0 0
Ge 0.32118173 8.22039780 2.03054763
Ge 2.72732078 0.00000000 -0.7529355000000031 0 0 0
Ge 0.32100014 4.11032220 2.03103798
Ge 2.72732078 4.11024000 -0.7529355000000031 0 0 0
