&CONTROL
calculation = 'relax'
prefix = 'scf'
pseudo_dir = '/vol0004/mdt0/data/hp150275/u10028/POT_KKJUS'
outdir = './data'
tprnfor = .true.
nstep = 50
disk_io = 'non'
/
&SYSTEM
ibrav = 0
ecutwfc = 50.0
ecutrho = 400
occupations = 'smearing'
smearing = 'mp'
degauss = 0.01
assume_isolated = 'esm'
esm_bc = 'bc1'
input_dft = 'BEEF-VDW'
nosym = .true.
nspin = 1
ntyp = 5
nat = 18
/
&ELECTRONS
electron_maxstep = 200
mixing_beta = 0.1
conv_thr = 1e-06
/
&IONS
ion_dynamics = 'bfgs'
upscale = 1.0
/
&CELL
/

K_POINTS {automatic}
9 9 2 0  0  0

ATOMIC_SPECIES
Au 196.9 Au.pbe-n-rrkjus_psl.1.0.0.UPF
C 12.01 C.pbe-n-rrkjus_psl.1.0.0.UPF
Ga 69.72 Ga.pbe-dnl-rrkjus_psl.1.0.0.UPF
Li 6.941 Li.pbe-sl-rrkjus_psl.1.0.0.UPF
O 15.99 O.pbe-n-rrkjus_psl.1.0.0.UPF

CELL_PARAMETERS {angstrom}
6.29417000 0.00000000 0.00000000
0.00000000 6.29417000 0.00000000
0.00000000 0.00000000 24.72060000

ATOMIC_POSITIONS {angstrom}
Li 6.24129897 0.05293397 0.77696846
Li 3.14708500 0.00000000 -2.3603228900000026 0 0 0
Li 0.00000000 3.14708500 -2.3603228900000026 0 0 0
Li 3.20058544 3.09352161 0.78759832
Li 1.56429007 1.56435301 2.63126066
Li 1.57354250 4.72062750 -0.7868567000000013 0 0 0
Li 4.72975405 4.72981699 2.63101346
Li 4.72062750 1.57354250 -0.7868567000000013 0 0 0
Ga 0.00000000 0.00000000 -2.3603228900000026 0 0 0
Ga 3.14708500 3.14708500 -2.3603228900000026 0 0 0
Ga 3.22167091 0.06652938 0.80070023
Ga 6.22764062 3.07243614 0.80070023
Au 1.57354250 1.57354250 -0.7868567000000013 0 0 0
Au 1.56479360 4.72931345 2.04365200
Au 4.72062750 4.72062750 -0.7868567000000013 0 0 0
Au 4.72056456 1.57360544 2.39715658
C 4.73888059 1.55528941 4.45391050
O 4.71603276 1.57813724 5.61132899
