&CONTROL
calculation = 'relax'
prefix = 'scf'
pseudo_dir = '/vol0403/data/hp230205/u10028/POT_HYBRID_KKJUS_GBRV'
outdir = './data'
tprnfor = .true.
nstep = 50
disk_io = 'non'
/
&SYSTEM
ibrav = 0
ecutwfc = 50.0
ecutrho = 400
occupations = 'smearing'
smearing = 'mp'
degauss = 0.01
assume_isolated = 'esm'
esm_bc = 'bc1'
input_dft = 'BEEF-VDW'
nosym = .true.
nspin = 1
ntyp = 6
nat = 18
/
&ELECTRONS
electron_maxstep = 200
mixing_beta = 0.1
conv_thr = 1e-06
/
&IONS
ion_dynamics = 'bfgs'
upscale = 1.0
/
&CELL
/

K_POINTS {automatic}
8 8 1 0 0 0

ATOMIC_SPECIES
C 12.01 C.pbe-n-rrkjus_psl.1.0.0.UPF
In 114.8 In.pbe-dn-rrkjus_psl.1.0.0.UPF
Li 6.941 Li.pbe-sl-rrkjus_psl.1.0.0.UPF
O 15.99 O.pbe-n-rrkjus_psl.1.0.0.UPF
Pd 106.4 Pd.pbe-n-rrkjus_psl.1.0.0.UPF
Y 88.90 Y.pbe-spn-rrkjus_psl.1.0.0.UPF


CELL_PARAMETERS {angstrom}
6.81638000 0.00000000 0.00000000
0.00000000 6.81638000 0.00000000
0.00000000 0.00000000 25.11230000

ATOMIC_POSITIONS {angstrom}
Li 5.06272992 1.75365008 0.88370184
Li 5.11228500 5.11228500 -2.5561810200000004 0 0 0
Li 1.70409500 1.70409500 -2.5561810200000004 0 0 0
Li 1.75365008 5.06272992 0.88370184
Y 0.00000000 3.40819000 2.61117695
Y 0.00000000 0.00000000 -0.8520603400000013 0 0 0
Y 3.40819000 3.40819000 -0.8520603400000013 0 0 0
Y 3.40819000 0.00000000 2.61117695
In 0.00000000 0.00000000 2.32514786
In 0.00000000 3.40819000 -0.8520603400000013 0 0 0
In 3.40819000 0.00000000 -0.8520603400000013 0 0 0
In 3.40819000 3.40819000 2.63578701
Pd 1.72645273 1.72652089 0.84829349
Pd 1.70409500 5.11228500 -2.5561810200000004 0 0 0
Pd 5.11228500 1.70409500 -2.5561810200000004 0 0 0
Pd 5.08992727 5.08985911 0.84829349
C 0.00000000 0.00000000 4.57345208
O 0.00000000 0.00000000 5.73615157
