&CONTROL
calculation = 'relax'
prefix = 'scf'
pseudo_dir = '/vol0004/mdt0/data/hp150275/u10028/POT_HYBRID_KKJUS_GBRV'
outdir = './data'
tprnfor = .true.
nstep = 50
disk_io = 'non'
/
&SYSTEM
ibrav = 0
ecutwfc = 50.0
ecutrho = 400
occupations = 'smearing'
smearing = 'mp'
degauss = 0.01
assume_isolated = 'esm'
esm_bc = 'bc1'
input_dft = 'BEEF-VDW'
nosym = .true.
nspin = 2
ntyp = 4
nat = 34
starting_magnetization(1) = 0.0
starting_magnetization(2) = 0.0
starting_magnetization(3) = 0.01
starting_magnetization(4) = 0.0
/
&ELECTRONS
electron_maxstep = 300
mixing_beta = 0.1
conv_thr = 1e-06
/
&IONS
ion_dynamics = 'bfgs'
upscale = 1.0
/
&CELL
/

K_POINTS {automatic}
9 6 2 0  0  0

ATOMIC_SPECIES
C 12.01 C.pbe-n-rrkjus_psl.1.0.0.UPF
Ca 40.07 Ca.pbe-spn-rrkjus_psl.1.0.0.UPF
Ni 58.69 ni_pbe_v1.4.uspp.F.UPF
O 15.99 O.pbe-n-rrkjus_psl.1.0.0.UPF

CELL_PARAMETERS {angstrom}
6.91175000 0.00000000 0.00000000
0.00000000 9.77469000 0.00000000
0.00000000 0.00000000 27.33100000

ATOMIC_POSITIONS {angstrom}
Ca 0.00000000 0.00000000 -3.665633719999999 0 0 0
Ca 0.00000000 2.44367250 -1.2219690099999987 0 0 0
Ca 0.00006912 0.00127071 1.15418813
Ca 0.00006912 2.44318377 3.69651775
Ca 0.00000000 4.88734500 -3.665633719999999 0 0 0
Ca 0.00000000 7.33101750 -1.2219690099999987 0 0 0
Ca 0.00000000 4.88597654 1.15418813
Ca 0.00000000 7.33121299 3.87498918
Ca 3.45587500 0.00000000 -3.665633719999999 0 0 0
Ca 3.45587500 2.44367250 -1.2219690099999987 0 0 0
Ca 3.45587500 9.74683213 1.17195328
Ca 3.45587500 2.44367250 3.81294781
Ca 3.45587500 4.88734500 -3.665633719999999 0 0 0
Ca 3.45587500 7.33101750 -1.2219690099999987 0 0 0
Ca 3.45580588 4.91520287 1.17195328
Ca 3.45587500 7.33072426 3.87252939
Ni 1.72793750 2.44367250 -3.665633719999999 0 0 0
Ni 1.72793750 0.00000000 -1.2219690099999987 0 0 0
Ni 1.81723731 2.44406349 1.40344685
Ni 1.73554042 9.70392124 3.33957489
Ni 1.72793750 7.33101750 -3.665633719999999 0 0 0
Ni 1.72793750 4.88734500 -1.2219690099999987 0 0 0
Ni 1.71121106 7.33072426 1.54939439
Ni 1.73457278 4.95782051 3.33902827
Ni 5.18381250 2.44367250 -3.665633719999999 0 0 0
Ni 5.18381250 0.00000000 -1.2219690099999987 0 0 0
Ni 5.09451269 2.44406349 1.40344685
Ni 5.17627869 9.70382350 3.33984820
Ni 5.18381250 7.33101750 -3.665633719999999 0 0 0
Ni 5.18381250 4.88734500 -1.2219690099999987 0 0 0
Ni 5.20053893 7.33091975 1.54966770
Ni 5.17710810 4.95782051 3.33930158
C 6.91168088 2.44367250 6.31209445
O 0.00000000 2.44406349 7.45753666
