&CONTROL
calculation = 'relax'
prefix = 'scf'
pseudo_dir = '/vol0403/data/hp230205/u10028/POT_HYBRID_KKJUS_GBRV'
outdir = './data'
tprnfor = .true.
nstep = 50
disk_io = 'non'
/
&SYSTEM
ibrav = 0
ecutwfc = 50.0
ecutrho = 400
occupations = 'smearing'
smearing = 'mp'
degauss = 0.01
assume_isolated = 'esm'
esm_bc = 'bc1'
input_dft = 'BEEF-VDW'
nosym = .true.
nspin = 2
ntyp = 6
nat = 34
starting_magnetization(1) = 0.0
starting_magnetization(2) = 0.0
starting_magnetization(3) = 0.1
starting_magnetization(4) = 0.0
starting_magnetization(5) = 0.0
starting_magnetization(6) = 0.0
/
&ELECTRONS
electron_maxstep = 400
mixing_beta = 0.05
conv_thr = 1e-06
/
&IONS
ion_dynamics = 'bfgs'
upscale = 1.0
/
&CELL
/

K_POINTS {automatic}
6 6 1 0 0 0

ATOMIC_SPECIES
C 12.01 C.pbe-n-rrkjus_psl.1.0.0.UPF
In 114.8 In.pbe-dn-rrkjus_psl.1.0.0.UPF
Mn 54.93 mn_pbe_v1.5.uspp.F.UPF
O 15.99 O.pbe-n-rrkjus_psl.1.0.0.UPF
Pd 106.4 Pd.pbe-n-rrkjus_psl.1.0.0.UPF
Sc 44.95 Sc.pbe-spn-rrkjus_psl.1.0.0.UPF


CELL_PARAMETERS {angstrom}
6.62299000 0.00000000 0.00000000
0.00000000 9.36632000 0.00000000
0.00000000 0.00000000 27.02470000

ATOMIC_POSITIONS {angstrom}
Sc 0.00000000 2.34158000 -1.1707099999999997 0 0 0
Sc 0.00000000 7.02474000 -1.1707099999999997 0 0 0
Sc 3.31149500 4.68316000 -3.5124002599999997 0 0 0
Sc 3.31149500 0.00000000 -3.5124002599999997 0 0 0
Sc 6.56682704 6.80116594 3.47970037
Sc 6.56689327 2.56506040 3.47970037
Sc 3.28513550 9.36603901 1.21881397
Sc 3.40170012 4.68325366 1.18206038
Mn 4.96724250 0.00000000 -1.1707099999999997 0 0 0
Mn 4.96724250 4.68316000 -1.1707099999999997 0 0 0
Mn 1.65574750 2.34158000 -3.5124002599999997 0 0 0
Mn 1.65574750 7.02474000 -3.5124002599999997 0 0 0
Mn 4.54131801 4.68316000 4.00424980
Mn 5.08586025 0.00000000 3.61104041
Mn 1.62309616 7.01115884 1.31610289
Mn 1.62302993 2.35516116 1.31583264
In 0.00000000 0.00000000 -3.5124002599999997 0 0 0
In 0.00000000 4.68316000 -3.5124002599999997 0 0 0
In 3.31149500 7.02474000 -1.1707099999999997 0 0 0
In 3.31149500 2.34158000 -1.1707099999999997 0 0 0
In 6.56629721 4.68306634 1.16827778
In 0.00582823 0.00000000 1.16395383
In 3.33248988 2.20539371 3.61536437
In 3.33255611 7.16092629 3.61536437
Pd 1.65574750 0.00000000 -1.1707099999999997 0 0 0
Pd 1.65574750 4.68316000 -1.1707099999999997 0 0 0
Pd 4.96724250 2.34158000 -3.5124002599999997 0 0 0
Pd 4.96724250 7.02474000 -3.5124002599999997 0 0 0
Pd 1.82052749 4.68316000 3.28404154
Pd 1.39533153 0.00000000 3.61320239
Pd 4.97664715 7.05536787 1.11584986
Pd 4.97671338 2.31104580 1.11584986
C 1.11206625 0.00000000 5.53844202
O 1.06577155 0.00000000 6.69455868
