&CONTROL
calculation = 'relax'
prefix = 'scf'
pseudo_dir = '/vol0004/mdt0/data/hp150275/u10028/POT_KKJUS'
outdir = './data'
tprnfor = .true.
nstep = 50
disk_io = 'non'
/
&SYSTEM
ibrav = 0
ecutwfc = 50.0
ecutrho = 400
occupations = 'smearing'
smearing = 'mp'
degauss = 0.01
assume_isolated = 'esm'
esm_bc = 'bc1'
input_dft = 'BEEF-VDW'
nosym = .true.
nspin = 1
ntyp = 5
nat = 18
/
&ELECTRONS
electron_maxstep = 200
mixing_beta = 0.1
conv_thr = 1e-06
/
&IONS
ion_dynamics = 'bfgs'
upscale = 1.0
/
&CELL
/

K_POINTS {automatic}
8 8 1 0 0 0

ATOMIC_SPECIES
C 12.01 C.pbe-n-rrkjus_psl.1.0.0.UPF
Li 6.941 Li.pbe-sl-rrkjus_psl.1.0.0.UPF
O 15.99 O.pbe-n-rrkjus_psl.1.0.0.UPF
Pt 195.0 Pt.pbe-n-rrkjus_psl.1.0.0.UPF
Sb 121.7 Sb.pbe-n-rrkjus_psl.1.0.0.UPF

CELL_PARAMETERS {angstrom}
6.40528000 0.00000000 0.00000000
0.00000000 6.40528000 0.00000000
0.00000000 0.00000000 24.80400000

ATOMIC_POSITIONS {angstrom}
Li 0.00000000 0.00000000 -0.800673119999999 0 0 0
Li 3.20328053 6.40502379 2.48833728
Li 0.00051242 3.20225568 2.48833728
Li 3.20264000 3.20264000 -0.800673119999999 0 0 0
Li 1.60132000 1.60132000 -2.402019359999997 0 0 0
Li 1.60644422 4.79889983 0.84804876
Li 4.80396000 4.80396000 -2.402019359999997 0 0 0
Li 4.79947630 1.60593180 0.84804876
Sb 0.00038432 6.40508784 2.42459100
Sb 3.20302432 3.20244784 2.43897732
Sb 3.20264000 0.00000000 -0.800673119999999 0 0 0
Sb 0.00000000 3.20264000 -0.800673119999999 0 0 0
Pt 1.60196053 1.60164026 0.78430248
Pt 1.60132000 4.80396000 -2.402019359999997 0 0 0
Pt 4.80376784 4.80351163 0.78455052
Pt 4.80396000 1.60132000 -2.402019359999997 0 0 0
C 6.39426292 0.00614907 6.92651700
O 0.00326669 6.40323031 8.06130000
