&CONTROL
calculation = 'relax'
prefix = 'scf'
pseudo_dir = '/vol0004/mdt0/data/hp150275/u10028/POT_HYBRID_KKJUS_GBRV'
outdir = './data'
tprnfor = .true.
nstep = 50
disk_io = 'non'
/
&SYSTEM
ibrav = 0
ecutwfc = 50.0
ecutrho = 400
occupations = 'smearing'
smearing = 'mp'
degauss = 0.01
assume_isolated = 'esm'
esm_bc = 'bc1'
input_dft = 'BEEF-VDW'
nosym = .true.
nspin = 2
ntyp = 3
nat = 32
starting_magnetization(1) = 0.1
starting_magnetization(2) = 0.1
starting_magnetization(3) = 0.0
/
&ELECTRONS
electron_maxstep = 300
mixing_beta = 0.1
conv_thr = 1e-06
/
&IONS
ion_dynamics = 'bfgs'
upscale = 1.0
/
&CELL
/

K_POINTS {automatic}
9 6 2 0  0  0

ATOMIC_SPECIES
Co 58.93 co_pbe_v1.2.uspp.F.UPF
Fe 55.84 fe_pbe_v1.5.uspp.F.UPF
Ga 69.72 Ga.pbe-dnl-rrkjus_psl.1.0.0.UPF

CELL_PARAMETERS {angstrom}
5.74310000 0.00000000 0.00000000
0.00000000 8.12197000 0.00000000
0.00000000 0.00000000 26.09150000

ATOMIC_POSITIONS {angstrom}
Ga 0.00000000 0.00000000 -3.0456607899999995 0 0 0
Ga 2.87155000 2.03049250 -1.0152202700000004 0 0 0
Ga 2.87155000 6.09147750 -1.0152202700000004 0 0 0
Ga 0.00000000 4.06098500 -3.0456607899999995 0 0 0
Ga 0.00000000 4.06098500 0.99643439
Ga 2.87155000 6.09163994 3.21995202
Ga 2.87155000 2.03033006 3.21995202
Ga 5.74304257 0.00000000 0.99643439
Fe 0.00000000 6.09147750 -1.0152202700000004 0 0 0
Fe 2.87155000 0.00000000 -3.0456607899999995 0 0 0
Fe 0.00000000 2.03049250 -1.0152202700000004 0 0 0
Fe 2.87155000 4.06098500 -3.0456607899999995 0 0 0
Fe 0.00000000 2.03041128 2.98591126
Fe 2.87155000 4.06098500 1.01782942
Fe 0.00000000 6.09155872 2.98591126
Fe 2.87155000 0.00000000 1.01782942
Co 1.43577500 0.00000000 -1.0152202700000004 0 0 0
Co 4.30732500 4.06098500 -1.0152202700000004 0 0 0
Co 4.30732500 0.00000000 -1.0152202700000004 0 0 0
Co 1.43577500 4.06098500 -1.0152202700000004 0 0 0
Co 4.30732500 6.09147750 -3.0456607899999995 0 0 0
Co 1.43577500 2.03049250 -3.0456607899999995 0 0 0
Co 1.43577500 6.09147750 -3.0456607899999995 0 0 0
Co 4.30732500 2.03049250 -3.0456607899999995 0 0 0
Co 1.46006831 4.06098500 2.97991022
Co 4.28314655 0.00000000 2.97991022
Co 4.28303169 4.06098500 2.97964930
Co 1.45989602 0.00000000 2.97991022
Co 4.29331184 2.03049250 1.03896353
Co 1.44984559 6.09147750 1.03896353
Co 1.44984559 2.03049250 1.03896353
Co 4.29331184 6.09147750 1.03896353
