&CONTROL
calculation = 'relax'
prefix = 'scf'
pseudo_dir = '/vol0403/data/hp230205/u10028/POT_HYBRID_KKJUS_GBRV'
outdir = './data'
tprnfor = .true.
nstep = 50
disk_io = 'non'
/
&SYSTEM
ibrav = 0
ecutwfc = 50.0
ecutrho = 400
occupations = 'smearing'
smearing = 'mp'
degauss = 0.01
assume_isolated = 'esm'
esm_bc = 'bc1'
input_dft = 'BEEF-VDW'
nosym = .true.
nspin = 1
ntyp = 6
nat = 18
/
&ELECTRONS
electron_maxstep = 200
mixing_beta = 0.1
conv_thr = 1e-06
/
&IONS
ion_dynamics = 'bfgs'
upscale = 1.0
/
&CELL
/

K_POINTS {automatic}
11 7 2 0  0  0

ATOMIC_SPECIES
C 12.01 C.pbe-n-rrkjus_psl.1.0.0.UPF
Ge 72.64 Ge.pbe-dn-rrkjus_psl.1.0.0.UPF
In 114.8 In.pbe-dn-rrkjus_psl.1.0.0.UPF
Li 6.941 Li.pbe-sl-rrkjus_psl.1.0.0.UPF
O 15.99 O.pbe-n-rrkjus_psl.1.0.0.UPF
Sc 44.95 Sc.pbe-spn-rrkjus_psl.1.0.0.UPF


CELL_PARAMETERS {angstrom}
5.77954000 0.00000000 0.00000000
0.00000000 8.97372000 0.00000000
0.00000000 0.00000000 24.33440000

ATOMIC_POSITIONS {angstrom}
Li 1.42823992 2.24343000 -0.7224883399999982 0 0 0
Li 4.01701148 2.24343000 2.38063435
Li 1.42823992 6.73029000 -0.7224883399999982 0 0 0
Li 4.02082598 6.73029000 2.29668067
Sc 2.88977000 0.00000000 -2.167221659999999 0 0 0
Sc 5.67244512 8.97264315 0.69669387
Sc 2.88977000 4.48686000 -2.167221659999999 0 0 0
Sc 5.67256071 4.48784711 0.69669387
In 4.31800992 2.24343000 -0.7224883399999982 0 0 0
In 1.15388516 2.24334026 2.31128131
In 4.31800992 6.73029000 -0.7224883399999982 0 0 0
In 1.12926432 6.73037974 2.30957790
Ge 0.00000000 0.00000000 -2.167221659999999 0 0 0
Ge 2.73308667 8.95900310 1.02180146
Ge 0.00000000 4.48686000 -2.167221659999999 0 0 0
Ge 2.73308667 4.50166664 1.02204480
C 4.09740488 2.24325053 4.46901256
O 4.23328187 2.24334026 5.60299560
