&CONTROL
calculation = 'relax'
prefix = 'scf'
pseudo_dir = '/vol0004/mdt0/data/hp150275/u10028/POT_HYBRID_KKJUS_GBRV'
outdir = './data'
tprnfor = .true.
nstep = 70
disk_io = 'non'
/
&SYSTEM
ibrav = 0
ecutwfc = 50.0
ecutrho = 400
occupations = 'smearing'
smearing = 'mp'
degauss = 0.01
assume_isolated = 'esm'
esm_bc = 'bc1'
input_dft = 'BEEF-VDW'
nosym = .true.
nspin = 1
ntyp = 2
nat = 16
/
&ELECTRONS
electron_maxstep = 200
mixing_beta = 0.1
conv_thr = 1e-06
/
&IONS
ion_dynamics = 'bfgs'
upscale = 1.0
/
&CELL
/

K_POINTS {automatic}
10 10 2 0  0  0

ATOMIC_SPECIES
Ag 107.8 Ag.pbe-n-rrkjus_psl.1.0.0.UPF
Ti 47.86 Ti.pbe-spn-rrkjus_psl.1.0.0.UPF

CELL_PARAMETERS {angstrom}
5.67942000 0.00000000 0.00000000
-0.00000000 5.67942000 0.00000000
0.00000000 0.00000000 26.52170000

ATOMIC_POSITIONS {angstrom}
Ti 1.41985500 1.41985500 -0.6680816199999988 0 0 0
Ti 1.41985500 1.41985500 3.67962066
Ti 1.41985500 4.25956500 -0.6680816199999988 0 0 0
Ti 1.41985500 4.25956500 3.67962066
Ti 4.25956500 1.41985500 -0.6680816199999988 0 0 0
Ti 4.25956500 1.41985500 3.67962066
Ti 4.25956500 4.25956500 -0.6680816199999988 0 0 0
Ti 4.25956500 4.25956500 3.67962066
Ag 0.00000000 0.00000000 -2.8420653700000003 0 0 0
Ag 0.00000000 0.00000000 1.50563691
Ag 0.00000000 2.83971000 -2.8420653700000003 0 0 0
Ag 0.00000000 2.83971000 1.50563691
Ag 2.83971000 0.00000000 -2.8420653700000003 0 0 0
Ag 2.83971000 -0.00000000 1.50563691
Ag 2.83971000 2.83971000 -2.8420653700000003 0 0 0
Ag 2.83971000 2.83971000 1.50563691
