&CONTROL
calculation = 'relax'
prefix = 'scf'
pseudo_dir = '/vol0403/data/hp230205/u10028/POT_HYBRID_KKJUS_GBRV'
outdir = './data'
tprnfor = .true.
nstep = 50
disk_io = 'non'
/
&SYSTEM
ibrav = 0
ecutwfc = 50.0
ecutrho = 400
occupations = 'smearing'
smearing = 'mp'
degauss = 0.01
assume_isolated = 'esm'
esm_bc = 'bc1'
input_dft = 'BEEF-VDW'
nosym = .true.
nspin = 1
ntyp = 6
nat = 34
/
&ELECTRONS
electron_maxstep = 200
mixing_beta = 0.1
conv_thr = 1e-06
/
&IONS
ion_dynamics = 'bfgs'
upscale = 1.0
/
&CELL
/

K_POINTS {automatic}
6 6 1 0 0 0

ATOMIC_SPECIES
C 12.01 C.pbe-n-rrkjus_psl.1.0.0.UPF
Li 6.941 Li.pbe-sl-rrkjus_psl.1.0.0.UPF
Mg 24.30 Mg.pbe-spnl-rrkjus_psl.1.0.0.UPF
O 15.99 O.pbe-n-rrkjus_psl.1.0.0.UPF
Pd 106.4 Pd.pbe-n-rrkjus_psl.1.0.0.UPF
Sn 118.7 Sn.pbe-dn-rrkjus_psl.1.0.0.UPF


CELL_PARAMETERS {angstrom}
6.52546000 0.00000000 0.00000000
0.00000000 9.22840000 0.00000000
0.00000000 0.00000000 26.92130000

ATOMIC_POSITIONS {angstrom}
Li 0.00000000 0.00000000 -3.4607331200000004 0 0 0
Li 0.00000000 4.61420000 -3.4607331200000004 0 0 0
Li 3.26273000 6.92130000 -1.1535777100000004 0 0 0
Li 3.26273000 2.30710000 -1.1535777100000004 0 0 0
Li 6.46999359 4.61429228 1.21791961
Li 6.48330553 0.00000000 1.21118929
Li 3.39330445 2.30949938 3.91839522
Li 3.39336971 6.91880833 3.91866443
Mg 1.63136500 0.00000000 -1.1535777100000004 0 0 0
Mg 1.63136500 4.61420000 -1.1535777100000004 0 0 0
Mg 4.89409500 2.30710000 -3.4607331200000004 0 0 0
Mg 4.89409500 6.92130000 -3.4607331200000004 0 0 0
Mg 1.56526209 4.61420000 3.51565257
Mg 1.55586543 9.22830772 3.52022919
Mg 4.83053702 6.92425309 1.21765040
Mg 4.83092855 2.30423920 1.21711197
Sn 4.89409500 0.00000000 -1.1535777100000004 0 0 0
Sn 4.89409500 4.61420000 -1.1535777100000004 0 0 0
Sn 1.63136500 2.30710000 -3.4607331200000004 0 0 0
Sn 1.63136500 6.92130000 -3.4607331200000004 0 0 0
Sn 4.88985345 4.61410772 3.67421902
Sn 4.87288726 9.22830772 3.63033730
Sn 1.67776102 6.92010031 1.25641707
Sn 1.67769577 2.30839198 1.25641707
Pd 0.00000000 2.30710000 -1.1535777100000004 0 0 0
Pd 0.00000000 6.92130000 -1.1535777100000004 0 0 0
Pd 3.26273000 4.61420000 -3.4607331200000004 0 0 0
Pd 3.26273000 0.00000000 -3.4607331200000004 0 0 0
Pd 6.45387570 6.92240741 3.32181921
Pd 6.45394096 2.30580802 3.32208842
Pd 3.27140886 0.00009228 1.11211890
Pd 3.28002247 4.61420000 1.12854090
C 4.03801990 0.00027685 7.44427788
O 5.10408430 0.00000000 7.83732886
