&CONTROL
calculation = 'relax'
prefix = 'scf'
pseudo_dir = '/vol0004/mdt0/data/hp150275/u10028/POT_KKJUS'
outdir = './data'
tprnfor = .true.
nstep = 50
disk_io = 'non'
/
&SYSTEM
ibrav = 0
ecutwfc = 50.0
ecutrho = 400
occupations = 'smearing'
smearing = 'mp'
degauss = 0.01
assume_isolated = 'esm'
esm_bc = 'bc1'
input_dft = 'BEEF-VDW'
nosym = .true.
nspin = 1
ntyp = 3
nat = 33
/
&ELECTRONS
electron_maxstep = 200
mixing_beta = 0.1
conv_thr = 1e-06
/
&IONS
ion_dynamics = 'bfgs'
upscale = 1.0
/
&CELL
/

K_POINTS {automatic}
8 8 1 0 0 0

ATOMIC_SPECIES
C 12.01 C.pbe-n-rrkjus_psl.1.0.0.UPF
In 114.8 In.pbe-dn-rrkjus_psl.1.0.0.UPF
Pt 195.0 Pt.pbe-n-rrkjus_psl.1.0.0.UPF

CELL_PARAMETERS {angstrom}
8.16408000 0.00000000 0.00000000
-0.00000000 8.16408000 0.00000000
0.00000000 0.00000000 26.12310000

ATOMIC_POSITIONS {angstrom}
In 0.00000000 0.00000000 3.06162732
In 0.00000000 0.00000000 -1.02062952 0 0 0
In 0.00000000 4.08204000 3.06162732
In 0.00000000 4.08204000 -1.02062952 0 0 0
In 4.08204000 -0.00000000 3.06162732
In 4.08204000 0.00000000 -1.02062952 0 0 0
In 4.08204000 4.08204000 3.06162732
In 4.08204000 4.08204000 -1.02062952 0 0 0
Pt 0.00000000 2.04102000 1.02062952
Pt 2.04102000 -0.00000000 1.02062952
Pt 2.04102000 2.04102000 3.06162732
Pt 0.00000000 2.04102000 -3.0616273199999995 0 0 0
Pt 2.04102000 0.00000000 -3.0616273199999995 0 0 0
Pt 2.04102000 2.04102000 -1.02062952 0 0 0
Pt 0.00000000 6.12306000 1.02062952
Pt 2.04102000 4.08204000 1.02062952
Pt 2.04102000 6.12306000 3.06162732
Pt 0.00000000 6.12306000 -3.0616273199999995 0 0 0
Pt 2.04102000 4.08204000 -3.0616273199999995 0 0 0
Pt 2.04102000 6.12306000 -1.02062952 0 0 0
Pt 4.08204000 2.04102000 1.02062952
Pt 6.12306000 -0.00000000 1.02062952
Pt 6.12306000 2.04102000 3.06162732
Pt 4.08204000 2.04102000 -3.0616273199999995 0 0 0
Pt 6.12306000 0.00000000 -3.0616273199999995 0 0 0
Pt 6.12306000 2.04102000 -1.02062952 0 0 0
Pt 4.08204000 6.12306000 1.02062952
Pt 6.12306000 4.08204000 1.02062952
Pt 6.12306000 6.12306000 3.06162732
Pt 4.08204000 6.12306000 -3.0616273199999995 0 0 0
Pt 6.12306000 4.08204000 -3.0616273199999995 0 0 0
Pt 6.12306000 6.12306000 -1.02062952 0 0 0
C 2.04102000 -0.00000000 3.86151664
