&CONTROL
calculation = 'relax'
prefix = 'scf'
pseudo_dir = '/vol0004/mdt0/data/hp150275/u10028/POT_KKJUS'
outdir = './data'
tprnfor = .true.
nstep = 50
disk_io = 'non'
/
&SYSTEM
ibrav = 0
ecutwfc = 50.0
ecutrho = 400
occupations = 'smearing'
smearing = 'mp'
degauss = 0.01
assume_isolated = 'esm'
esm_bc = 'bc1'
input_dft = 'BEEF-VDW'
nosym = .true.
nspin = 1
ntyp = 3
nat = 32
/
&ELECTRONS
electron_maxstep = 200
mixing_beta = 0.1
conv_thr = 1e-06
/
&IONS
ion_dynamics = 'bfgs'
upscale = 1.0
/
&CELL
/

K_POINTS {automatic}
9 6 2 0  0  0

ATOMIC_SPECIES
Ga 69.72 Ga.pbe-dnl-rrkjus_psl.1.0.0.UPF
Li 6.941 Li.pbe-sl-rrkjus_psl.1.0.0.UPF
Pd 106.4 Pd.pbe-n-rrkjus_psl.1.0.0.UPF

CELL_PARAMETERS {angstrom}
6.14873000 0.00000000 0.00000000
0.00000000 8.69561000 0.00000000
0.00000000 0.00000000 26.52170000

ATOMIC_POSITIONS {angstrom}
Li 0.00000000 6.52170750 -1.086859269999998 0 0 0
Li 3.07436500 0.00000000 -3.2608430099999985 0 0 0
Li 0.00000000 2.17390250 -1.086859269999998 0 0 0
Li 3.07436500 4.34780500 -3.2608430099999985 0 0 0
Li 1.53718250 2.17390250 -3.2608430099999985 0 0 0
Li 1.53718250 6.52170750 -3.2608430099999985 0 0 0
Li 4.61154750 4.34780500 -1.086859269999998 0 0 0
Li 4.61154750 0.00000000 -1.086859269999998 0 0 0
Li 0.07003403 2.17390250 3.33324726
Li 3.10978168 4.34780500 1.03646804
Li 0.07003403 6.52170750 3.33324726
Li 3.10978168 0.00000000 1.03646804
Li 1.51105040 6.52170750 0.99429853
Li 1.51105040 2.17390250 0.99429853
Li 4.48076401 0.00000000 3.37090807
Li 4.48076401 4.34780500 3.37090807
Ga 1.53718250 0.00000000 -1.086859269999998 0 0 0
Ga 1.53718250 4.34780500 -1.086859269999998 0 0 0
Ga 4.61154750 6.52170750 -3.2608430099999985 0 0 0
Ga 4.61154750 2.17390250 -3.2608430099999985 0 0 0
Ga 1.62535529 4.34780500 3.26667779
Ga 1.62535529 0.00000000 3.26667779
Ga 4.64702567 2.17390250 1.10462880
Ga 4.64702567 6.52170750 1.10462880
Pd 0.00000000 0.00000000 -3.2608430099999985 0 0 0
Pd 3.07436500 2.17390250 -1.086859269999998 0 0 0
Pd 3.07436500 6.52170750 -1.086859269999998 0 0 0
Pd 0.00000000 4.34780500 -3.2608430099999985 0 0 0
Pd 6.14381102 4.34780500 1.15793742
Pd 2.96516356 6.52170750 3.03832595
Pd 2.96516356 2.17390250 3.03832595
Pd 6.14381102 0.00000000 1.15793742
