&CONTROL
calculation = 'relax'
prefix = 'scf'
pseudo_dir = '/vol0004/mdt0/data/hp150275/u10028/POT_KKJUS'
outdir = './data'
tprnfor = .true.
nstep = 50
disk_io = 'non'
/
&SYSTEM
ibrav = 0
ecutwfc = 50.0
ecutrho = 400
occupations = 'smearing'
smearing = 'mp'
degauss = 0.01
assume_isolated = 'esm'
esm_bc = 'bc1'
input_dft = 'BEEF-VDW'
nosym = .true.
nspin = 1
ntyp = 2
nat = 32
/
&ELECTRONS
electron_maxstep = 200
mixing_beta = 0.1
conv_thr = 1e-06
/
&IONS
ion_dynamics = 'bfgs'
upscale = 1.0
/
&CELL
/

K_POINTS {automatic}
9 6 2 0  0  0

ATOMIC_SPECIES
Ca 40.07 Ca.pbe-spn-rrkjus_psl.1.0.0.UPF
Ni 58.69 Ni.pbe-spn-rrkjus_psl.1.0.0.UPF

CELL_PARAMETERS {angstrom}
6.93038000 0.00000000 0.00000000
0.00000000 9.80104000 0.00000000
0.00000000 0.00000000 27.35080000

ATOMIC_POSITIONS {angstrom}
Ca 0.00000000 0.00000000 -3.6754004999999985 0 0 0
Ca 0.00000000 2.45026000 -1.2250423300000008 0 0 0
Ca 6.92947905 0.00039204 1.16432356
Ca 6.93024139 2.44918189 3.82227430
Ca 0.00000000 4.90052000 -3.6754004999999985 0 0 0
Ca 0.00000000 7.35078000 -1.2250423300000008 0 0 0
Ca 0.00013861 4.89993194 1.16678513
Ca 6.93010278 7.35068199 3.82282132
Ca 3.46519000 0.00000000 -3.6754004999999985 0 0 0
Ca 3.46519000 2.45026000 -1.2250423300000008 0 0 0
Ca 3.46553652 0.00009801 1.16459706
Ca 3.46477418 2.45065204 3.82254781
Ca 3.46519000 4.90052000 -3.6754004999999985 0 0 0
Ca 3.46519000 7.35078000 -1.2250423300000008 0 0 0
Ca 3.46546722 4.90052000 1.16815267
Ca 3.46484348 7.34979990 3.82282132
Ni 1.73259500 2.45026000 -3.6754004999999985 0 0 0
Ni 1.73259500 0.00000000 -1.2250423300000008 0 0 0
Ni 1.73363456 2.45006398 1.51441380
Ni 1.73148614 9.79986388 3.33843865
Ni 1.73259500 7.35078000 -3.6754004999999985 0 0 0
Ni 1.73259500 4.90052000 -1.2250423300000008 0 0 0
Ni 1.73252570 7.35146607 1.51632835
Ni 1.72975354 4.90052000 3.34445582
Ni 5.19778500 2.45026000 -3.6754004999999985 0 0 0
Ni 5.19778500 0.00000000 -1.2250423300000008 0 0 0
Ni 5.19584449 2.44996597 1.51550783
Ni 5.19709196 9.80005990 3.34117373
Ni 5.19778500 7.35078000 -3.6754004999999985 0 0 0
Ni 5.19778500 4.90052000 -1.2250423300000008 0 0 0
Ni 5.19785430 7.35107403 1.51660186
Ni 5.20125019 4.90091204 3.34418232
