&CONTROL
calculation = 'relax'
prefix = 'scf'
pseudo_dir = '/vol0004/mdt0/data/hp150275/u10028/POT_HYBRID_KKJUS_GBRV'
outdir = './data'
tprnfor = .true.
nstep = 50
disk_io = 'non'
/
&SYSTEM
ibrav = 0
ecutwfc = 50.0
ecutrho = 400
occupations = 'smearing'
smearing = 'mp'
degauss = 0.01
assume_isolated = 'esm'
esm_bc = 'bc1'
input_dft = 'BEEF-VDW'
nosym = .true.
nspin = 2
ntyp = 4
nat = 33
starting_magnetization(1) = 0.0
starting_magnetization(2) = 0.0
starting_magnetization(3) = 0.001
starting_magnetization(4) = 0.0
/
&ELECTRONS
electron_maxstep = 300
mixing_beta = 0.1
conv_thr = 1e-06
/
&IONS
ion_dynamics = 'bfgs'
upscale = 1.0
/
&CELL
/

K_POINTS {automatic}
8 6 1 0 0 0

ATOMIC_SPECIES
C 12.01 C.pbe-n-rrkjus_psl.1.0.0.UPF
In 114.8 In.pbe-dn-rrkjus_psl.1.0.0.UPF
Ni 58.69 ni_pbe_v1.4.uspp.F.UPF
Zr 91.22 Zr.pbe-spn-rrkjus_psl.1.0.0.UPF

CELL_PARAMETERS {angstrom}
6.34973000 0.00000000 0.00000000
0.00000000 8.97987000 0.00000000
0.00000000 0.00000000 26.73490000

ATOMIC_POSITIONS {angstrom}
Zr 0.00000000 0.00000000 -3.367528 0 0 0
Zr 3.17486500 2.24496750 -1.1225984499999981 0 0 0
Zr 3.17486500 6.73490250 -1.1225984499999981 0 0 0
Zr 0.00000000 4.48993500 -3.367528 0 0 0
Zr 0.00000000 4.48993500 1.12848013
Zr 3.17486500 6.79390025 3.36913210
Zr 3.17486500 2.18596975 3.36913210
Zr 0.00000000 0.00000000 1.15414563
In 0.00000000 6.73490250 -1.1225984499999981 0 0 0
In 3.17486500 0.00000000 -3.367528 0 0 0
In 0.00000000 2.24496750 -1.1225984499999981 0 0 0
In 3.17486500 4.48993500 -3.367528 0 0 0
In 0.00000000 2.29947531 3.50414334
In 3.17486500 4.48993500 1.10735956
In 0.00000000 6.68039469 3.50414334
In 3.17486500 0.00000000 1.12821278
Ni 1.58743250 0.00000000 -1.1225984499999981 0 0 0
Ni 4.76229750 4.48993500 -1.1225984499999981 0 0 0
Ni 4.76229750 0.00000000 -1.1225984499999981 0 0 0
Ni 1.58743250 4.48993500 -1.1225984499999981 0 0 0
Ni 4.76229750 6.73490250 -3.367528 0 0 0
Ni 1.58743250 2.24496750 -3.367528 0 0 0
Ni 1.58743250 6.73490250 -3.367528 0 0 0
Ni 4.76229750 2.24496750 -3.367528 0 0 0
Ni 1.53879357 4.48993500 3.21406968
Ni 5.03114507 0.00000000 3.38971797
Ni 4.81093643 4.48993500 3.21406968
Ni 1.31858493 0.00000000 3.38971797
Ni 4.70895977 2.26211905 1.15601708
Ni 1.64070673 6.71775095 1.15601708
Ni 1.64077023 2.26211905 1.15601708
Ni 4.70902327 6.71775095 1.15601708
C 3.17486500 0.00000000 3.74956973
